
 stresses (elem, integ.pnt.,sxx,syy,szz,sxy,sxz,syz) for set ELALL and time  0.1000000E+01

         1   1  1.423516E+07  6.815945E+05  8.880221E+05  1.135889E+05  6.019690E+05  1.077813E+02
         1   2  1.410531E+07 -1.480289E+05  3.905927E+05  2.948825E+04  3.885702E+05  1.806342E+01
         1   3  1.424008E+07 -2.247582E+04  2.687379E+05 -5.459797E+04  1.751514E+05 -1.507243E+01
         1   4  1.423514E+07  6.815708E+05  8.880188E+05 -7.226331E-08  6.019690E+05  9.138261E-11
         1   5  1.410531E+07 -1.480305E+05  3.905924E+05  4.249188E-08  3.885702E+05 -1.276776E-09
         1   6  1.424008E+07 -2.248129E+04  2.687371E+05 -1.171167E-08  1.751514E+05  9.041509E-11
         1   7  1.423516E+07  6.815945E+05  8.880221E+05 -1.135889E+05  6.019690E+05 -1.077813E+02
         1   8  1.410531E+07 -1.480289E+05  3.905927E+05 -2.948825E+04  3.885702E+05 -1.806342E+01
         1   9  1.424008E+07 -2.247582E+04  2.687379E+05  5.459797E+04  1.751514E+05  1.507243E+01
         1  10  1.423477E+07  6.814998E+05  8.873563E+05  1.135889E+05  4.856423E-09 -1.280602E-09
         1  11  1.410515E+07 -1.480683E+05  3.903153E+05  2.948825E+04  5.367664E-09 -2.863215E-09
         1  12  1.424005E+07 -2.248383E+04  2.686815E+05 -5.459796E+04  2.677929E-09  4.133218E-10
         1  13  1.423476E+07  6.814761E+05  8.873530E+05 -2.025183E-08  4.742814E-09 -1.190153E-10
         1  14  1.410515E+07 -1.480699E+05  3.903150E+05 -1.815428E-08  4.549124E-09  1.255051E-11
         1  15  1.424005E+07 -2.248930E+04  2.686808E+05 -3.334123E-08  3.383890E-09 -9.311413E-10
         1  16  1.423477E+07  6.814998E+05  8.873563E+05 -1.135889E+05 -4.325815E-09  3.185722E-09
         1  17  1.410515E+07 -1.480683E+05  3.903153E+05 -2.948825E+04 -2.186579E-09 -2.468564E-09
         1  18  1.424005E+07 -2.248383E+04  2.686815E+05  5.459796E+04 -5.218498E-09  9.440650E-10
         1  19  1.423516E+07  6.815945E+05  8.880221E+05  1.135889E+05 -6.019690E+05 -1.077813E+02
         1  20  1.410531E+07 -1.480289E+05  3.905927E+05  2.948825E+04 -3.885702E+05 -1.806342E+01
         1  21  1.424008E+07 -2.247582E+04  2.687379E+05 -5.459797E+04 -1.751514E+05  1.507243E+01
         1  22  1.423514E+07  6.815708E+05  8.880188E+05 -1.068907E-07 -6.019690E+05 -3.702369E-10
         1  23  1.410531E+07 -1.480305E+05  3.905924E+05 -9.611230E-08 -3.885702E+05  9.053002E-10
         1  24  1.424008E+07 -2.248129E+04  2.687371E+05 -5.928964E-08 -1.751514E+05 -1.702281E-09
         1  25  1.423516E+07  6.815945E+05  8.880221E+05 -1.135889E+05 -6.019690E+05  1.077813E+02
         1  26  1.410531E+07 -1.480289E+05  3.905927E+05 -2.948825E+04 -3.885702E+05  1.806342E+01
         1  27  1.424008E+07 -2.247582E+04  2.687379E+05  5.459797E+04 -1.751514E+05 -1.507243E+01
         2   1  1.419163E+07  9.612482E+04  2.320432E+05  1.741326E+04  1.297406E+05  3.561091E+00
         2   2  1.416587E+07 -2.655048E+04  1.458184E+05  2.964661E+03  5.383680E+04  2.515895E-01
         2   3  1.419222E+07  2.157365E+04  1.509033E+05 -1.148376E+04 -2.206629E+04  3.994258E-01
         2   4  1.419163E+07  9.612426E+04  2.320431E+05 -1.872467E-08  1.297406E+05 -1.304115E-09
         2   5  1.416587E+07 -2.655049E+04  1.458184E+05 -1.654131E-08  5.383680E+04 -4.038387E-09
         2   6  1.419222E+07  2.157341E+04  1.509032E+05 -1.378171E-07 -2.206629E+04  1.117878E-09
         2   7  1.419163E+07  9.612482E+04  2.320432E+05 -1.741326E+04  1.297406E+05 -3.561091E+00
         2   8  1.416587E+07 -2.655048E+04  1.458184E+05 -2.964661E+03  5.383680E+04 -2.515895E-01
         2   9  1.419222E+07  2.157365E+04  1.509033E+05  1.148376E+04 -2.206629E+04 -3.994258E-01
         2  10  1.419161E+07  9.612042E+04  2.320123E+05  1.741326E+04 -4.765735E-10 -8.051786E-10
         2  11  1.416586E+07 -2.655124E+04  1.458130E+05  2.964661E+03 -2.221873E-09 -6.640468E-10
         2  12  1.419222E+07  2.157353E+04  1.509024E+05 -1.148376E+04 -1.828152E-10 -4.414102E-10
         2  13  1.419161E+07  9.611987E+04  2.320122E+05 -1.404004E-09 -5.907610E-10 -6.897807E-10
         2  14  1.416586E+07 -2.655125E+04  1.458130E+05  5.277840E-08  3.536765E-09 -6.254829E-11
         2  15  1.419222E+07  2.157328E+04  1.509023E+05  2.030619E-08 -1.053960E-09 -5.700147E-10
         2  16  1.419161E+07  9.612042E+04  2.320123E+05 -1.741326E+04 -8.109334E-10  8.608003E-10
         2  17  1.416586E+07 -2.655124E+04  1.458130E+05 -2.964661E+03 -4.336955E-09 -2.497973E-09
         2  18  1.419222E+07  2.157353E+04  1.509024E+05  1.148376E+04  3.613947E-09  4.911190E-10
         2  19  1.419163E+07  9.612482E+04  2.320432E+05  1.741326E+04 -1.297406E+05 -3.561091E+00
         2  20  1.416587E+07 -2.655048E+04  1.458184E+05  2.964661E+03 -5.383680E+04 -2.515895E-01
         2  21  1.419222E+07  2.157365E+04  1.509033E+05 -1.148376E+04  2.206629E+04 -3.994258E-01
         2  22  1.419163E+07  9.612426E+04  2.320431E+05  3.328788E-08 -1.297406E+05  2.223670E-09
         2  23  1.416587E+07 -2.655049E+04  1.458184E+05 -1.654556E-08 -5.383680E+04  3.871052E-09
         2  24  1.419222E+07  2.157341E+04  1.509032E+05 -9.674680E-08  2.206629E+04 -1.822312E-09
         2  25  1.419163E+07  9.612482E+04  2.320432E+05 -1.741326E+04 -1.297406E+05  3.561091E+00
         2  26  1.416587E+07 -2.655048E+04  1.458184E+05 -2.964661E+03 -5.383680E+04  2.515895E-01
         2  27  1.419222E+07  2.157365E+04  1.509033E+05  1.148376E+04  2.206629E+04  3.994258E-01
         3   1  1.419866E+07  7.075891E+03  1.613903E+05  1.650441E+04 -5.049997E+04 -1.313740E+00
         3   2  1.415766E+07 -4.164638E+04  2.080969E+05 -6.333056E+03 -1.592985E+05  1.590267E+00
         3   3  1.419716E+07  1.776929E+05  3.915173E+05 -2.917036E+04 -2.680996E+05  1.232731E+01
         3   4  1.419866E+07  7.075391E+03  1.613902E+05 -3.554166E-08 -5.049997E+04  7.579851E-10
         3   5  1.415766E+07 -4.164645E+04  2.080969E+05  5.565048E-08 -1.592985E+05 -2.119905E-09
         3   6  1.419716E+07  1.776914E+05  3.915171E+05 -5.028704E-08 -2.680996E+05  1.788820E-09
         3   7  1.419866E+07  7.075891E+03  1.613903E+05 -1.650441E+04 -5.049997E+04  1.313740E+00
         3   8  1.415766E+07 -4.164638E+04  2.080969E+05  6.333056E+03 -1.592985E+05 -1.590267E+00
         3   9  1.419716E+07  1.776929E+05  3.915173E+05  2.917036E+04 -2.680996E+05 -1.232731E+01
         3  10  1.419866E+07  7.075225E+03  1.613856E+05  1.650441E+04  2.265222E-09 -1.118802E-09
         3  11  1.415764E+07 -4.165300E+04  2.080502E+05 -6.333056E+03  1.151397E-08  2.525307E-10
         3  12  1.419708E+07  1.776741E+05  3.913852E+05 -2.917036E+04  4.665148E-09 -6.075252E-10
         3  13  1.419866E+07  7.074725E+03  1.613855E+05  3.378876E-08  6.998269E-09 -1.048970E-09
         3  14  1.415764E+07 -4.165308E+04  2.080502E+05 -4.994487E-09  4.333070E-09 -6.714050E-10
         3  15  1.419708E+07  1.776726E+05  3.913850E+05 -4.812903E-08  3.387704E-09 -4.212243E-11
         3  16  1.419866E+07  7.075225E+03  1.613856E+05 -1.650441E+04  2.803023E-10 -2.889625E-09
         3  17  1.415764E+07 -4.165300E+04  2.080502E+05  6.333056E+03 -4.075180E-09 -3.442000E-09
         3  18  1.419708E+07  1.776741E+05  3.913852E+05  2.917036E+04 -1.857656E-10  3.852246E-09
         3  19  1.419866E+07  7.075891E+03  1.613903E+05  1.650441E+04  5.049997E+04  1.313740E+00
         3  20  1.415766E+07 -4.164638E+04  2.080969E+05 -6.333056E+03  1.592985E+05 -1.590267E+00
         3  21  1.419716E+07  1.776929E+05  3.915173E+05 -2.917036E+04  2.680996E+05 -1.232731E+01
         3  22  1.419866E+07  7.075391E+03  1.613902E+05 -7.013463E-08  5.049997E+04 -3.401266E-09
         3  23  1.415766E+07 -4.164645E+04  2.080969E+05 -6.562223E-08  1.592985E+05 -4.806986E-10
         3  24  1.419716E+07  1.776914E+05  3.915171E+05 -8.487317E-08  2.680996E+05 -2.947234E-09
         3  25  1.419866E+07  7.075891E+03  1.613903E+05 -1.650441E+04  5.049997E+04 -1.313740E+00
         3  26  1.415766E+07 -4.164638E+04  2.080969E+05  6.333056E+03  1.592985E+05  1.590267E+00
         3  27  1.419716E+07  1.776929E+05  3.915173E+05  2.917036E+04  2.680996E+05  1.232731E+01
         4   1  1.428907E+07 -4.579488E+04  4.674489E+05  9.977386E+04 -3.459923E+05 -5.440631E+01
         4   2  1.404274E+07 -2.708243E+05  7.060754E+05 -5.413765E+04 -7.318604E+05  6.246771E+01
         4   3  1.428014E+07  1.251952E+06  1.629211E+06 -2.081030E+05 -1.117679E+06  3.666368E+02
         4   4  1.428906E+07 -4.581317E+04  4.674463E+05 -7.494024E-08 -3.459923E+05  1.653758E-09
         4   5  1.404274E+07 -2.708297E+05  7.060746E+05 -1.229862E-08 -7.318604E+05 -3.814267E-10
         4   6  1.428009E+07  1.251872E+06  1.629200E+06  4.767320E-09 -1.117679E+06  1.525084E-09
         4   7  1.428907E+07 -4.579488E+04  4.674489E+05 -9.977386E+04 -3.459923E+05  5.440631E+01
         4   8  1.404274E+07 -2.708243E+05  7.060754E+05  5.413765E+04 -7.318604E+05 -6.246771E+01
         4   9  1.428014E+07  1.251952E+06  1.629211E+06  2.081030E+05 -1.117679E+06 -3.666368E+02
         4  10  1.428894E+07 -4.582612E+04  4.672290E+05  9.977385E+04  5.186488E-10 -1.142296E-10
         4  11  1.404218E+07 -2.709641E+05  7.050913E+05 -5.413763E+04 -1.766223E-09  3.175767E-09
         4  12  1.427882E+07  1.251626E+06  1.626916E+06 -2.081028E+05 -1.491777E-10  1.865998E-09
         4  13  1.428893E+07 -4.584442E+04  4.672264E+05 -2.295301E-08 -1.402170E-09 -4.147596E-12
         4  14  1.404217E+07 -2.709694E+05  7.050905E+05 -1.229885E-08 -6.288614E-10  5.298432E-10
         4  15  1.427877E+07  1.251546E+06  1.626905E+06  7.200529E-08  2.415455E-10 -1.375372E-12
         4  16  1.428894E+07 -4.582612E+04  4.672290E+05 -9.977385E+04  1.397913E-09  1.053134E-10
         4  17  1.404218E+07 -2.709641E+05  7.050913E+05  5.413763E+04  4.421991E-09  1.960171E-11
         4  18  1.427882E+07  1.251626E+06  1.626916E+06  2.081028E+05  1.163850E-09 -8.139523E-10
         4  19  1.428907E+07 -4.579488E+04  4.674489E+05  9.977386E+04  3.459923E+05  5.440631E+01
         4  20  1.404274E+07 -2.708243E+05  7.060754E+05 -5.413765E+04  7.318604E+05 -6.246771E+01
         4  21  1.428014E+07  1.251952E+06  1.629211E+06 -2.081030E+05  1.117679E+06 -3.666368E+02
         4  22  1.428906E+07 -4.581317E+04  4.674463E+05 -5.764391E-08  3.459923E+05 -1.574219E-09
         4  23  1.404274E+07 -2.708297E+05  7.060746E+05  5.697979E-08  7.318604E+05  3.878841E-10
         4  24  1.428009E+07  1.251872E+06  1.629200E+06  3.737879E-08  1.117679E+06 -1.402780E-09
         4  25  1.428907E+07 -4.579488E+04  4.674489E+05 -9.977386E+04  3.459923E+05 -5.440631E+01
         4  26  1.404274E+07 -2.708243E+05  7.060754E+05  5.413765E+04  7.318604E+05  6.246771E+01
         4  27  1.428014E+07  1.251952E+06  1.629211E+06  2.081030E+05  1.117679E+06  3.666368E+02
         5   1 -2.370378E+06 -2.505022E+06 -2.724266E+06  5.932579E+05 -2.959313E+04 -1.101625E+06
         5   2 -7.518083E+05 -1.715543E+06 -1.673325E+06 -2.797854E+04 -7.743562E+04 -7.186867E+05
         5   3 -8.023015E+05 -1.329689E+06 -1.276704E+06  2.718699E+05 -5.076194E+04 -3.359355E+05
         5   4 -1.212835E+06  2.128780E+06 -1.568971E+06  4.034581E+05 -2.919061E+04 -1.086189E+06
         5   5  2.553039E+05  2.325865E+06 -6.742763E+05 -5.882424E+04 -7.734485E+04 -7.186278E+05
         5   6  6.320234E+04  2.125390E+06 -4.196212E+05  3.997888E+05 -5.099342E+04 -3.516272E+05
         5   7 -5.676375E+04  6.782125E+06 -4.152671E+05  2.122202E+05 -2.880002E+04 -1.070614E+06
         5   8  1.261206E+06  6.382113E+06  3.235625E+05 -8.989684E+04 -7.725448E+04 -7.185562E+05
         5   9  9.278622E+05  5.591323E+06  4.365776E+05  5.283839E+05 -5.123055E+04 -3.674020E+05
         5  10 -2.370706E+06 -2.506332E+06 -2.726556E+06  5.932318E+05  3.850121E-09  2.559852E-10
         5  11 -7.519540E+05 -1.716102E+06 -1.674309E+06 -2.802349E+04  6.815441E-09 -1.703438E-09
         5  12 -8.023346E+05 -1.329811E+06 -1.276921E+06  2.718562E+05 -1.388859E-10 -2.003964E-09
         5  13 -1.213151E+06  2.127514E+06 -1.571182E+06  4.034327E+05  1.273126E-09  1.330424E-10
         5  14  2.551592E+05  2.325310E+06 -6.752548E+05 -5.886901E+04  3.666045E-09 -6.438687E-11
         5  15  6.316649E+04  2.125257E+06 -4.198576E+05  3.997743E+05  3.588256E-09 -3.336379E-10
         5  16 -5.706844E+04  6.780903E+06 -4.173997E+05  2.121955E+05 -4.709069E-09 -6.521878E-11
         5  17  1.261062E+06  6.381561E+06  3.225903E+05 -8.994144E+04 -4.127662E-09  1.557848E-09
         5  18  9.278235E+05  5.591178E+06  4.363213E+05  5.283688E+05 -5.650844E-09  1.866353E-09
         5  19 -2.370378E+06 -2.505022E+06 -2.724266E+06  5.932579E+05  2.959313E+04  1.101625E+06
         5  20 -7.518083E+05 -1.715543E+06 -1.673325E+06 -2.797854E+04  7.743562E+04  7.186867E+05
         5  21 -8.023015E+05 -1.329689E+06 -1.276704E+06  2.718699E+05  5.076194E+04  3.359355E+05
         5  22 -1.212835E+06  2.128780E+06 -1.568971E+06  4.034581E+05  2.919061E+04  1.086189E+06
         5  23  2.553039E+05  2.325865E+06 -6.742763E+05 -5.882424E+04  7.734485E+04  7.186278E+05
         5  24  6.320234E+04  2.125390E+06 -4.196212E+05  3.997888E+05  5.099342E+04  3.516272E+05
         5  25 -5.676375E+04  6.782125E+06 -4.152671E+05  2.122202E+05  2.880002E+04  1.070614E+06
         5  26  1.261206E+06  6.382113E+06  3.235625E+05 -8.989684E+04  7.725448E+04  7.185562E+05
         5  27  9.278622E+05  5.591323E+06  4.365776E+05  5.283839E+05  5.123055E+04  3.674020E+05
         6   1 -4.851856E+05  9.268717E+05 -6.576095E+05  3.969408E+05 -2.690543E+04 -2.814071E+05
         6   2 -1.526914E+05  1.503801E+06 -3.232969E+05 -3.561780E+04 -1.475057E+04 -2.070282E+05
         6   3 -2.945755E+03  1.997552E+06 -8.887660E+04  3.697046E+05 -3.190748E+02 -1.326531E+05
         6   4 -1.690087E+05  2.199084E+06 -3.437449E+05  3.852276E+05 -2.692945E+04 -2.841187E+05
         6   5  3.057901E+04  2.240399E+06 -1.413626E+05 -3.523647E+04 -1.479284E+04 -2.101230E+05
         6   6  4.768647E+04  2.198537E+06 -3.837525E+04  3.821305E+05 -3.780443E+02 -1.361948E+05
         6   7  1.470492E+05  3.472765E+06 -2.999959E+04  3.734848E+05 -2.695334E+04 -2.868353E+05
         6   8  2.138092E+05  2.977488E+06  4.053170E+04 -3.485650E+04 -1.483510E+04 -2.132213E+05
         6   9  9.831613E+04  2.399559E+06  1.212313E+04  3.945602E+05 -4.371452E+02 -1.397377E+05
         6  10 -4.852076E+05  9.267865E+05 -6.577594E+05  3.969347E+05 -2.671508E-09  1.275691E-09
         6  11 -1.527032E+05  1.503755E+06 -3.233777E+05 -3.562026E+04  2.043071E-10  1.383083E-09
         6  12 -2.950461E+03  1.997533E+06 -8.890956E+04  3.697045E+05 -1.249067E-09  3.172180E-10
         6  13 -1.690310E+05  2.198998E+06 -3.438974E+05  3.852214E+05  2.173470E-09 -1.328295E-10
         6  14  3.056697E+04  2.240352E+06 -1.414457E+05 -3.523897E+04  3.067345E-09 -2.810521E-10
         6  15  4.768151E+04  2.198517E+06 -3.840999E+04  3.821304E+05  3.880246E-09  1.139865E-10
         6  16  1.470265E+05  3.472677E+06 -3.015470E+04  3.734786E+05  2.689730E-09 -9.536212E-10
         6  17  2.137968E+05  2.977440E+06  4.044624E+04 -3.485904E+04 -4.003467E-09 -1.562652E-09
         6  18  9.831091E+04  2.399538E+06  1.208657E+04  3.945602E+05  3.793696E-09 -3.071813E-10
         6  19 -4.851856E+05  9.268717E+05 -6.576095E+05  3.969408E+05  2.690543E+04  2.814071E+05
         6  20 -1.526914E+05  1.503801E+06 -3.232969E+05 -3.561780E+04  1.475057E+04  2.070282E+05
         6  21 -2.945755E+03  1.997552E+06 -8.887660E+04  3.697046E+05  3.190748E+02  1.326531E+05
         6  22 -1.690087E+05  2.199084E+06 -3.437449E+05  3.852276E+05  2.692945E+04  2.841187E+05
         6  23  3.057901E+04  2.240399E+06 -1.413626E+05 -3.523647E+04  1.479284E+04  2.101230E+05
         6  24  4.768647E+04  2.198537E+06 -3.837525E+04  3.821305E+05  3.780443E+02  1.361948E+05
         6  25  1.470492E+05  3.472765E+06 -2.999959E+04  3.734848E+05  2.695334E+04  2.868353E+05
         6  26  2.138092E+05  2.977488E+06  4.053170E+04 -3.485650E+04  1.483510E+04  2.132213E+05
         6  27  9.831613E+04  2.399559E+06  1.212313E+04  3.945602E+05  4.371452E+02  1.397377E+05
         7   1  4.553636E+05  4.150088E+06  4.743187E+05  3.997142E+05  2.030124E+04 -1.220346E+05
         7   2  5.691538E+05  4.664088E+06  6.940539E+05 -1.174754E+04  4.267107E+04 -1.829635E+05
         7   3  9.823295E+05  5.265052E+06  1.028557E+06  4.431676E+05  1.515016E+04 -2.433291E+05
         7   4 -2.097138E+04  2.234735E+06  7.010858E+02  3.907611E+05  2.012846E+04 -1.333418E+05
         7   5 -4.554585E+04  2.192581E+06  8.549490E+04 -4.373794E+04  4.269636E+04 -1.820293E+05
         7   6  2.277463E+05  2.235336E+06  2.769791E+05  3.883320E+05  1.529076E+04 -2.300972E+05
         7   7 -4.975791E+05  3.226952E+05 -4.731879E+05  3.818218E+05  1.995573E+04 -1.446139E+05
         7   8 -6.606963E+05 -2.734068E+05 -5.235141E+05 -7.561794E+04  4.272164E+04 -1.810976E+05
         7   9 -5.275141E+05 -7.861047E+05 -4.752819E+05  3.337407E+05  1.542946E+04 -2.169272E+05
         7  10  4.553592E+05  4.150072E+06  4.742901E+05  3.997162E+05  2.048842E-09 -1.929567E-10
         7  11  5.691429E+05  4.664051E+06  6.939881E+05 -1.174127E+04  2.763681E-09 -1.218603E-10
         7  12  9.823135E+05  5.264989E+06  1.028447E+06  4.431706E+05  1.451766E-09 -1.237930E-10
         7  13 -2.097657E+04  2.234716E+06  6.670227E+02  3.907633E+05 -9.850483E-10 -3.453840E-10
         7  14 -4.555667E+04  2.192545E+06  8.542943E+04 -4.373169E+04 -7.488654E-09 -2.686437E-13
         7  15  2.277319E+05  2.235279E+06  2.768795E+05  3.883348E+05  2.236910E-09 -5.901644E-11
         7  16 -4.975852E+05  3.226726E+05 -4.732280E+05  3.818241E+05 -3.710220E-10 -1.063761E-10
         7  17 -6.607071E+05 -2.734425E+05 -5.235792E+05 -7.561170E+04  1.618523E-09  2.400981E-10
         7  18 -5.275270E+05 -7.861554E+05 -4.753709E+05  3.337434E+05  1.317569E-09  9.088288E-11
         7  19  4.553636E+05  4.150088E+06  4.743187E+05  3.997142E+05 -2.030124E+04  1.220346E+05
         7  20  5.691538E+05  4.664088E+06  6.940539E+05 -1.174754E+04 -4.267107E+04  1.829635E+05
         7  21  9.823295E+05  5.265052E+06  1.028557E+06  4.431676E+05 -1.515016E+04  2.433291E+05
         7  22 -2.097138E+04  2.234735E+06  7.010858E+02  3.907611E+05 -2.012846E+04  1.333418E+05
         7  23 -4.554585E+04  2.192581E+06  8.549490E+04 -4.373794E+04 -4.269636E+04  1.820293E+05
         7  24  2.277463E+05  2.235336E+06  2.769791E+05  3.883320E+05 -1.529076E+04  2.300972E+05
         7  25 -4.975791E+05  3.226952E+05 -4.731879E+05  3.818218E+05 -1.995573E+04  1.446139E+05
         7  26 -6.606963E+05 -2.734068E+05 -5.235141E+05 -7.561794E+04 -4.272164E+04  1.810976E+05
         7  27 -5.275141E+05 -7.861047E+05 -4.752819E+05  3.337407E+05 -1.542946E+04  2.169272E+05
         8   1  7.760395E+06  4.358720E+06  3.592906E+05  5.611519E+06  3.742407E+05  2.899154E+05
         8   2  7.516792E+06  4.079622E+06  1.153116E+04  5.967999E+06  2.374907E+05  2.035692E+05
         8   3  7.965864E+06  4.076097E+06 -4.288063E+04  5.982199E+06  1.124941E+05  1.013944E+05
         8   4  8.860252E+06  4.992144E+06  7.009178E+05  6.089248E+06  3.792664E+05  2.935941E+05
         8   5  8.414773E+06  4.676203E+06  3.039764E+05  6.394942E+06  2.383721E+05  2.042100E+05
         8   6  8.662200E+06  4.636069E+06  2.034325E+05  6.358510E+06  1.092811E+05  9.901386E+04
         8   7  9.961366E+06  5.625928E+06  1.042408E+06  6.567806E+06  3.843033E+05  2.972791E+05
         8   8  9.313580E+06  5.273134E+06  5.963182E+05  6.822535E+06  2.392549E+05  2.048518E+05
         8   9  9.359031E+06  5.196386E+06  4.496733E+05  6.735306E+06  1.060632E+05  9.662904E+04
         8  10  7.760224E+06  4.358595E+06  3.588773E+05  5.611433E+06 -1.850319E-09  1.034866E-09
         8  11  7.516722E+06  4.079563E+06  1.135078E+04  5.967960E+06 -2.953850E-09  4.774806E-10
         8  12  7.965848E+06  4.076083E+06 -4.292290E+04  5.982190E+06  6.178940E-09  2.851247E-09
         8  13  8.860077E+06  4.992015E+06  7.004945E+05  6.089160E+06 -1.739452E-09  1.575110E-09
         8  14  8.414702E+06  4.676144E+06  3.037951E+05  6.394903E+06  1.967126E-09  3.924549E-09
         8  15  8.662185E+06  4.636055E+06  2.033925E+05  6.358501E+06  2.291333E-09 -4.738954E-11
         8  16  9.961187E+06  5.625796E+06  1.041974E+06  6.567716E+06 -4.468655E-11  1.823266E-09
         8  17  9.313509E+06  5.273075E+06  5.961359E+05  6.822496E+06  1.179198E-09  4.362195E-09
         8  18  9.359016E+06  5.196373E+06  4.496355E+05  6.735298E+06 -6.616998E-10 -1.748239E-09
         8  19  7.760395E+06  4.358720E+06  3.592906E+05  5.611519E+06 -3.742407E+05 -2.899154E+05
         8  20  7.516792E+06  4.079622E+06  1.153116E+04  5.967999E+06 -2.374907E+05 -2.035692E+05
         8  21  7.965864E+06  4.076097E+06 -4.288063E+04  5.982199E+06 -1.124941E+05 -1.013944E+05
         8  22  8.860252E+06  4.992144E+06  7.009178E+05  6.089248E+06 -3.792664E+05 -2.935941E+05
         8  23  8.414773E+06  4.676203E+06  3.039764E+05  6.394942E+06 -2.383721E+05 -2.042100E+05
         8  24  8.662200E+06  4.636069E+06  2.034325E+05  6.358510E+06 -1.092811E+05 -9.901386E+04
         8  25  9.961366E+06  5.625928E+06  1.042408E+06  6.567806E+06 -3.843033E+05 -2.972791E+05
         8  26  9.313580E+06  5.273134E+06  5.963182E+05  6.822535E+06 -2.392549E+05 -2.048518E+05
         8  27  9.359031E+06  5.196386E+06  4.496733E+05  6.735306E+06 -1.060632E+05 -9.662904E+04
         9   1  8.236273E+06  4.460368E+06  4.259596E+04  6.117299E+06  8.570798E+04  7.399483E+04
         9   2  8.199848E+06  4.486121E+06 -1.429343E+04  6.198263E+06  4.716847E+04  4.369109E+04
         9   3  8.346287E+06  4.477828E+06 -1.120620E+04  6.205792E+06  9.223240E+03  1.257229E+04
         9   4  8.633564E+06  4.719533E+06  1.711539E+05  6.303955E+06  8.559875E+04  7.391033E+04
         9   5  8.529145E+06  4.712832E+06  9.459764E+04  6.358517E+06  4.683127E+04  4.343989E+04
         9   6  8.607590E+06  4.672098E+06  7.817538E+04  6.339652E+06  8.663829E+03  1.215727E+04
         9   7  9.031018E+06  4.978765E+06  2.996923E+05  6.490735E+06  8.548940E+04  7.382575E+04
         9   8  8.858552E+06  4.939595E+06  2.034744E+05  6.518862E+06  4.649382E+04  4.318851E+04
         9   9  8.868962E+06  4.866407E+06  1.675471E+05  6.473574E+06  8.104103E+03  1.174201E+04
         9  10  8.236263E+06  4.460360E+06  4.257235E+04  6.117294E+06  4.057308E-09 -2.561779E-09
         9  11  8.199845E+06  4.486119E+06 -1.430104E+04  6.198261E+06  8.162188E-09  4.887293E-09
         9  12  8.346286E+06  4.477827E+06 -1.120665E+04  6.205792E+06  2.830217E-09  2.180772E-09
         9  13  8.633555E+06  4.719525E+06  1.711304E+05  6.303950E+06 -4.871547E-11  6.431574E-11
         9  14  8.529142E+06  4.712830E+06  9.459013E+04  6.358515E+06 -2.846646E-09  2.594210E-09
         9  15  8.607590E+06  4.672098E+06  7.817497E+04  6.339652E+06 -1.677051E-09  8.506151E-10
         9  16  9.031009E+06  4.978757E+06  2.996689E+05  6.490730E+06 -2.925479E-09 -4.192590E-10
         9  17  8.858549E+06  4.939593E+06  2.034670E+05  6.518861E+06 -2.572275E-09  1.393874E-09
         9  18  8.868962E+06  4.866407E+06  1.675467E+05  6.473574E+06 -5.597796E-09 -2.533504E-09
         9  19  8.236273E+06  4.460368E+06  4.259596E+04  6.117299E+06 -8.570798E+04 -7.399483E+04
         9  20  8.199848E+06  4.486121E+06 -1.429343E+04  6.198263E+06 -4.716847E+04 -4.369109E+04
         9  21  8.346287E+06  4.477828E+06 -1.120620E+04  6.205792E+06 -9.223240E+03 -1.257229E+04
         9  22  8.633564E+06  4.719533E+06  1.711539E+05  6.303955E+06 -8.559875E+04 -7.391033E+04
         9  23  8.529145E+06  4.712832E+06  9.459764E+04  6.358517E+06 -4.683127E+04 -4.343989E+04
         9  24  8.607590E+06  4.672098E+06  7.817538E+04  6.339652E+06 -8.663829E+03 -1.215727E+04
         9  25  9.031018E+06  4.978765E+06  2.996923E+05  6.490735E+06 -8.548940E+04 -7.382575E+04
         9  26  8.858552E+06  4.939595E+06  2.034744E+05  6.518862E+06 -4.649382E+04 -4.318851E+04
         9  27  8.868962E+06  4.866407E+06  1.675471E+05  6.473574E+06 -8.104103E+03 -1.174201E+04
        10   1  8.485792E+06  4.617883E+06  4.149010E+04  6.287239E+06 -1.460026E+03  2.867995E+03
        10   2  8.476448E+06  4.651704E+06  5.917396E+04  6.315540E+06 -3.497040E+04 -2.406659E+04
        10   3  8.568101E+06  4.668725E+06  1.201582E+05  6.304112E+06 -6.868100E+04 -5.073936E+04
        10   4  8.596026E+06  4.687934E+06  7.665445E+04  6.338181E+06 -1.819352E+03  2.601451E+03
        10   5  8.549762E+06  4.704156E+06  8.381193E+04  6.352145E+06 -3.527057E+04 -2.428922E+04
        10   6  8.604478E+06  4.703561E+06  1.342154E+05  6.326382E+06 -6.891925E+04 -5.091693E+04
        10   7  8.706273E+06  4.757990E+06  1.118173E+05  6.389132E+06 -2.178764E+03  2.334852E+03
        10   8  8.623082E+06  4.756610E+06  1.084492E+05  6.388756E+06 -3.557078E+04 -2.451190E+04
        10   9  8.640857E+06  4.738398E+06  1.482724E+05  6.348653E+06 -6.915753E+04 -5.109453E+04
        10  10  8.485792E+06  4.617883E+06  4.149008E+04  6.287239E+06 -4.007602E-09  2.829114E-09
        10  11  8.476446E+06  4.651703E+06  5.917064E+04  6.315539E+06 -2.312509E-09 -1.387991E-09
        10  12  8.568096E+06  4.668721E+06  1.201448E+05  6.304109E+06  3.445143E-09  4.132019E-10
        10  13  8.596026E+06  4.687934E+06  7.665443E+04  6.338181E+06  1.101176E-10 -1.038365E-10
        10  14  8.549761E+06  4.704155E+06  8.380856E+04  6.352145E+06  9.695201E-10  1.451681E-09
        10  15  8.604473E+06  4.703557E+06  1.342019E+05  6.326379E+06 -3.127999E-10 -8.149061E-10
        10  16  8.706273E+06  4.757990E+06  1.118173E+05  6.389132E+06  3.689535E-09  3.971908E-10
        10  17  8.623081E+06  4.756609E+06  1.084458E+05  6.388755E+06  3.138565E-09  1.089649E-09
        10  18  8.640851E+06  4.738394E+06  1.482588E+05  6.348651E+06 -2.893907E-09 -7.569275E-10
        10  19  8.485792E+06  4.617883E+06  4.149010E+04  6.287239E+06  1.460026E+03 -2.867995E+03
        10  20  8.476448E+06  4.651704E+06  5.917396E+04  6.315540E+06  3.497040E+04  2.406659E+04
        10  21  8.568101E+06  4.668725E+06  1.201582E+05  6.304112E+06  6.868100E+04  5.073936E+04
        10  22  8.596026E+06  4.687934E+06  7.665445E+04  6.338181E+06  1.819352E+03 -2.601451E+03
        10  23  8.549762E+06  4.704156E+06  8.381193E+04  6.352145E+06  3.527057E+04  2.428922E+04
        10  24  8.604478E+06  4.703561E+06  1.342154E+05  6.326382E+06  6.891925E+04  5.091693E+04
        10  25  8.706273E+06  4.757990E+06  1.118173E+05  6.389132E+06  2.178764E+03 -2.334852E+03
        10  26  8.623082E+06  4.756610E+06  1.084492E+05  6.388756E+06  3.557078E+04  2.451190E+04
        10  27  8.640857E+06  4.738398E+06  1.482724E+05  6.348653E+06  6.915753E+04  5.109453E+04
        11   1  8.660698E+06  4.755270E+06  1.884836E+05  6.398286E+06 -8.967569E+04 -6.749233E+04
        11   2  8.638455E+06  4.739163E+06  2.909483E+05  6.414437E+06 -1.956080E+05 -1.480787E+05
        11   3  8.872725E+06  4.908504E+06  5.638540E+05  6.295144E+06 -3.019987E+05 -2.280732E+05
        11   4  8.602730E+06  4.682195E+06  1.627041E+05  6.354563E+06 -9.006159E+04 -6.777400E+04
        11   5  8.518097E+06  4.669591E+06  2.537722E+05  6.362073E+06 -1.958221E+05 -1.482419E+05
        11   6  8.689976E+06  4.842440E+06  5.151742E+05  6.234133E+06 -3.020261E+05 -2.281219E+05
        11   7  8.544767E+06  4.609127E+06  1.369240E+05  6.310846E+06 -9.044744E+04 -6.805559E+04
        11   8  8.397754E+06  4.600024E+06  2.165946E+05  6.309719E+06 -1.960362E+05 -1.484051E+05
        11   9  8.507264E+06  4.776381E+06  4.664924E+05  6.173136E+06 -3.020534E+05 -2.281707E+05
        11  10  8.660688E+06  4.755263E+06  1.884605E+05  6.398281E+06  4.937660E-09 -6.589030E-10
        11  11  8.638409E+06  4.739130E+06  2.908376E+05  6.414414E+06 -2.876342E-09  5.194876E-10
        11  12  8.872615E+06  4.908425E+06  5.635905E+05  6.295089E+06  1.905542E-09 -1.386037E-09
        11  13  8.602721E+06  4.682188E+06  1.626807E+05  6.354558E+06  3.996904E-09 -2.842248E-10
        11  14  8.518051E+06  4.669558E+06  2.536613E+05  6.362050E+06 -9.762879E-10  1.264482E-09
        11  15  8.689866E+06  4.842362E+06  5.149107E+05  6.234078E+06  1.020422E-09 -6.352899E-10
        11  16  8.544757E+06  4.609120E+06  1.369004E+05  6.310841E+06  2.137525E-09 -6.973078E-10
        11  17  8.397708E+06  4.599990E+06  2.164834E+05  6.309696E+06  1.629787E-09 -7.376068E-10
        11  18  8.507154E+06  4.776302E+06  4.662287E+05  6.173081E+06  4.530183E-09 -3.904531E-10
        11  19  8.660698E+06  4.755270E+06  1.884836E+05  6.398286E+06  8.967569E+04  6.749233E+04
        11  20  8.638455E+06  4.739163E+06  2.909483E+05  6.414437E+06  1.956080E+05  1.480787E+05
        11  21  8.872725E+06  4.908504E+06  5.638540E+05  6.295144E+06  3.019987E+05  2.280732E+05
        11  22  8.602730E+06  4.682195E+06  1.627041E+05  6.354563E+06  9.006159E+04  6.777400E+04
        11  23  8.518097E+06  4.669591E+06  2.537722E+05  6.362073E+06  1.958221E+05  1.482419E+05
        11  24  8.689976E+06  4.842440E+06  5.151742E+05  6.234133E+06  3.020261E+05  2.281219E+05
        11  25  8.544767E+06  4.609127E+06  1.369240E+05  6.310846E+06  9.044744E+04  6.805559E+04
        11  26  8.397754E+06  4.600024E+06  2.165946E+05  6.309719E+06  1.960362E+05  1.484051E+05
        11  27  8.507264E+06  4.776381E+06  4.664924E+05  6.173136E+06  3.020534E+05  2.281707E+05
        12   1  8.878077E+06  5.034583E+06  7.323980E+05  6.638248E+06 -3.815706E+05 -2.909482E+05
        12   2  8.753439E+06  4.639676E+06  1.086999E+06  6.618386E+06 -7.998491E+05 -6.062606E+05
        12   3  1.003852E+07  5.865366E+06  2.371286E+06  5.735174E+06 -1.223605E+06 -9.141735E+05
        12   4  8.678260E+06  4.674102E+06  6.226267E+05  6.436793E+06 -3.830885E+05 -2.919476E+05
        12   5  8.284487E+06  4.429961E+06  9.543396E+05  6.442900E+06 -7.991786E+05 -6.059078E+05
        12   6  9.300590E+06  5.806905E+06  2.214591E+06  5.585505E+06 -1.220478E+06 -9.126943E+05
        12   7  8.478509E+06  4.313824E+06  5.128502E+05  6.235444E+06 -3.846058E+05 -2.929455E+05
        12   8  7.815773E+06  4.220281E+06  8.216618E+05  6.267529E+06 -7.985083E+05 -6.055553E+05
        12   9  8.563367E+06  5.748531E+06  2.057908E+06  5.435882E+06 -1.217354E+06 -9.112149E+05
        12  10  8.877901E+06  5.034455E+06  7.319749E+05  6.638159E+06  1.308634E-09 -9.135801E-10
        12  11  8.752668E+06  4.639121E+06  1.085147E+06  6.618000E+06  6.623148E-10  1.742792E-09
        12  12  1.003673E+07  5.864092E+06  2.366998E+06  5.734286E+06  3.230886E-09  1.430856E-09
        12  13  8.678082E+06  4.673973E+06  6.222000E+05  6.436704E+06 -2.593289E-09  1.091364E-09
        12  14  8.283716E+06  4.429406E+06  9.524892E+05  6.442515E+06  2.287154E-11  2.139692E-09
        12  15  9.298799E+06  5.805636E+06  2.210318E+06  5.584620E+06 -4.090092E-10  9.080642E-10
        12  16  8.478330E+06  4.313694E+06  5.124200E+05  6.235354E+06  3.770768E-09  2.639465E-09
        12  17  7.815002E+06  4.219727E+06  8.198125E+05  6.267144E+06 -3.223114E-09  2.526266E-09
        12  18  8.561583E+06  5.747266E+06  2.053650E+06  5.435001E+06  9.557688E-10  5.225109E-11
        12  19  8.878077E+06  5.034583E+06  7.323980E+05  6.638248E+06  3.815706E+05  2.909482E+05
        12  20  8.753439E+06  4.639676E+06  1.086999E+06  6.618386E+06  7.998491E+05  6.062606E+05
        12  21  1.003852E+07  5.865366E+06  2.371286E+06  5.735174E+06  1.223605E+06  9.141735E+05
        12  22  8.678260E+06  4.674102E+06  6.226267E+05  6.436793E+06  3.830885E+05  2.919476E+05
        12  23  8.284487E+06  4.429961E+06  9.543396E+05  6.442900E+06  7.991786E+05  6.059078E+05
        12  24  9.300590E+06  5.806905E+06  2.214591E+06  5.585505E+06  1.220478E+06  9.126943E+05
        12  25  8.478509E+06  4.313824E+06  5.128502E+05  6.235444E+06  3.846058E+05  2.929455E+05
        12  26  7.815773E+06  4.220281E+06  8.216618E+05  6.267529E+06  7.985083E+05  6.055553E+05
        12  27  8.563367E+06  5.748531E+06  2.057908E+06  5.435882E+06  1.217354E+06  9.112149E+05
        13   1  9.018527E+06  4.329813E+05  5.638882E+05  7.172866E+04  3.805809E+05  4.337010E+01
        13   2  8.935226E+06 -9.410638E+04  2.478211E+05  1.861797E+04  2.453576E+05  7.257946E+00
        13   3  9.020504E+06 -1.417697E+04  1.706741E+05 -3.448638E+04  1.101279E+05 -6.033519E+00
        13   4  9.018522E+06  4.329718E+05  5.638868E+05 -2.337661E-08  3.805809E+05 -1.596729E-09
        13   5  8.935226E+06 -9.410702E+04  2.478211E+05 -2.522233E-08  2.453576E+05 -1.631365E-09
        13   6  9.020503E+06 -1.417918E+04  1.706738E+05  2.693476E-08  1.101279E+05  1.434784E-09
        13   7  9.018527E+06  4.329813E+05  5.638882E+05 -7.172866E+04  3.805809E+05 -4.337010E+01
        13   8  8.935226E+06 -9.410638E+04  2.478211E+05 -1.861797E+04  2.453576E+05 -7.257946E+00
        13   9  9.020504E+06 -1.417697E+04  1.706741E+05  3.448638E+04  1.101279E+05  6.033519E+00
        13  10  9.018373E+06  4.329431E+05  5.636199E+05  7.172865E+04  3.083447E-10  1.115235E-10
        13  11  8.935162E+06 -9.412225E+04  2.477096E+05  1.861797E+04  2.063699E-09 -3.455802E-11
        13  12  9.020492E+06 -1.418017E+04  1.706516E+05 -3.448638E+04 -1.732583E-09  2.122452E-09
        13  13  9.018368E+06  4.329336E+05  5.636185E+05 -2.338037E-08 -5.195593E-09 -1.513039E-10
        13  14  8.935162E+06 -9.412290E+04  2.477095E+05  9.354264E-09 -2.563703E-09 -1.257606E-11
        13  15  9.020490E+06 -1.418237E+04  1.706513E+05  3.346381E-08 -4.147623E-10  7.461258E-10
        13  16  9.018373E+06  4.329431E+05  5.636199E+05 -7.172865E+04  1.075367E-09 -9.523956E-10
        13  17  8.935162E+06 -9.412225E+04  2.477096E+05 -1.861797E+04 -3.245161E-09 -5.234528E-10
        13  18  9.020492E+06 -1.418017E+04  1.706516E+05  3.448638E+04  5.488213E-10 -6.396023E-10
        13  19  9.018527E+06  4.329813E+05  5.638882E+05  7.172866E+04 -3.805809E+05 -4.337010E+01
        13  20  8.935226E+06 -9.410638E+04  2.478211E+05  1.861797E+04 -2.453576E+05 -7.257946E+00
        13  21  9.020504E+06 -1.417697E+04  1.706741E+05 -3.448638E+04 -1.101279E+05  6.033519E+00
        13  22  9.018522E+06  4.329718E+05  5.638868E+05 -2.337237E-08 -3.805809E+05  1.573271E-09
        13  23  8.935226E+06 -9.410702E+04  2.478211E+05 -2.520328E-08 -2.453576E+05  1.674464E-09
        13  24  9.020503E+06 -1.417918E+04  1.706738E+05 -1.191201E-08 -1.101279E+05 -3.202079E-10
        13  25  9.018527E+06  4.329813E+05  5.638882E+05 -7.172866E+04 -3.805809E+05  4.337010E+01
        13  26  8.935226E+06 -9.410638E+04  2.478211E+05 -1.861797E+04 -2.453576E+05  7.257946E+00
        13  27  9.020504E+06 -1.417697E+04  1.706741E+05  3.448638E+04 -1.101279E+05 -6.033519E+00
        14   1  8.989984E+06  6.105871E+04  1.475176E+05  1.104776E+04  8.139731E+04  1.428669E+00
        14   2  8.973374E+06 -1.700248E+04  9.317069E+04  1.856701E+03  3.298121E+04  9.728884E-02
        14   3  8.990216E+06  1.427910E+04  9.735169E+04 -7.334151E+03 -1.543391E+04  1.798334E-01
        14   4  8.989984E+06  6.105848E+04  1.475176E+05 -2.588894E-08  8.139731E+04  8.980543E-10
        14   5  8.973374E+06 -1.700248E+04  9.317069E+04 -1.325693E-08  3.298121E+04 -2.081443E-09
        14   6  8.990216E+06  1.427900E+04  9.735168E+04  4.480932E-08 -1.543391E+04  3.599550E-10
        14   7  8.989984E+06  6.105871E+04  1.475176E+05 -1.104776E+04  8.139731E+04 -1.428669E+00
        14   8  8.973374E+06 -1.700248E+04  9.317069E+04 -1.856701E+03  3.298121E+04 -9.728884E-02
        14   9  8.990216E+06  1.427910E+04  9.735169E+04  7.334151E+03 -1.543391E+04 -1.798333E-01
        14  10  8.989977E+06  6.105696E+04  1.475054E+05  1.104776E+04 -6.110356E-10  9.625285E-10
        14  11  8.973372E+06 -1.700277E+04  9.316868E+04  1.856701E+03 -1.827563E-09  5.814387E-10
        14  12  8.990216E+06  1.427904E+04  9.735125E+04 -7.334151E+03  2.784009E-09 -1.647640E-09
        14  13  8.989977E+06  6.105674E+04  1.475053E+05 -2.597374E-08  4.589206E-09  3.948185E-10
        14  14  8.973372E+06 -1.700277E+04  9.316868E+04  4.042151E-09  8.077538E-10 -1.091694E-09
        14  15  8.990215E+06  1.427894E+04  9.735124E+04 -9.191649E-09 -1.150225E-09 -2.893725E-10
        14  16  8.989977E+06  6.105696E+04  1.475054E+05 -1.104776E+04  1.587386E-09  9.050723E-10
        14  17  8.973372E+06 -1.700277E+04  9.316868E+04 -1.856701E+03 -1.620624E-09 -1.151286E-09
        14  18  8.990216E+06  1.427904E+04  9.735125E+04  7.334151E+03 -4.266140E-09 -1.205289E-09
        14  19  8.989984E+06  6.105871E+04  1.475176E+05  1.104776E+04 -8.139731E+04 -1.428669E+00
        14  20  8.973374E+06 -1.700248E+04  9.317069E+04  1.856701E+03 -3.298121E+04 -9.728885E-02
        14  21  8.990216E+06  1.427910E+04  9.735169E+04 -7.334151E+03  1.543391E+04 -1.798334E-01
        14  22  8.989984E+06  6.105848E+04  1.475176E+05 -2.602662E-08 -8.139731E+04 -1.291871E-09
        14  23  8.973374E+06 -1.700248E+04  9.317069E+04 -1.327595E-08 -3.298121E+04  2.814165E-10
        14  24  8.990216E+06  1.427900E+04  9.735168E+04 -1.086127E-07  1.543391E+04 -8.849324E-10
        14  25  8.989984E+06  6.105871E+04  1.475176E+05 -1.104776E+04 -8.139731E+04  1.428669E+00
        14  26  8.973374E+06 -1.700248E+04  9.317069E+04 -1.856701E+03 -3.298121E+04  9.728885E-02
        14  27  8.990216E+06  1.427910E+04  9.735169E+04  7.334151E+03  1.543391E+04  1.798334E-01
        15   1  8.994601E+06  4.355389E+03  1.044947E+05  1.074756E+04 -3.373471E+04 -5.760077E-01
        15   2  8.967828E+06 -2.734174E+04  1.356317E+05 -4.151419E+03 -1.045487E+05  6.895635E-01
        15   3  8.993974E+06  1.168966E+05  2.563850E+05 -1.905070E+04 -1.753656E+05  5.307680E+00
        15   4  8.994601E+06  4.355175E+03  1.044947E+05  1.108259E-08 -3.373471E+04  1.447033E-09
        15   5  8.967828E+06 -2.734177E+04  1.356317E+05 -8.411263E-09 -1.045487E+05  1.996705E-10
        15   6  8.993974E+06  1.168960E+05  2.563849E+05 -1.013905E-07 -1.753656E+05  2.150839E-09
        15   7  8.994601E+06  4.355389E+03  1.044947E+05 -1.074756E+04 -3.373471E+04  5.760078E-01
        15   8  8.967828E+06 -2.734174E+04  1.356317E+05  4.151419E+03 -1.045487E+05 -6.895635E-01
        15   9  8.993974E+06  1.168966E+05  2.563850E+05  1.905070E+04 -1.753656E+05 -5.307680E+00
        15  10  8.994600E+06  4.355088E+03  1.044926E+05  1.074756E+04  6.556710E-09  9.592405E-10
        15  11  8.967817E+06 -2.734463E+04  1.356114E+05 -4.151419E+03  5.637166E-09  1.971781E-09
        15  12  8.993942E+06  1.168885E+05  2.563280E+05 -1.905070E+04  7.301378E-10  7.907013E-10
        15  13  8.994600E+06  4.354874E+03  1.044926E+05 -5.810222E-08 -1.213482E-09 -1.516667E-10
        15  14  8.967817E+06 -2.734466E+04  1.356114E+05 -6.027723E-08 -6.776189E-10  4.265338E-10
        15  15  8.993941E+06  1.168878E+05  2.563279E+05  4.130267E-08 -1.990164E-09  5.552740E-10
        15  16  8.994600E+06  4.355088E+03  1.044926E+05 -1.074756E+04 -5.441868E-09  1.424432E-09
        15  17  8.967817E+06 -2.734463E+04  1.356114E+05  4.151419E+03 -3.943123E-09  6.837497E-10
        15  18  8.993942E+06  1.168885E+05  2.563280E+05  1.905070E+04 -5.425471E-10  2.947972E-09
        15  19  8.994601E+06  4.355389E+03  1.044947E+05  1.074756E+04  3.373471E+04  5.760077E-01
        15  20  8.967828E+06 -2.734174E+04  1.356317E+05 -4.151419E+03  1.045487E+05 -6.895635E-01
        15  21  8.993974E+06  1.168966E+05  2.563850E+05 -1.905070E+04  1.753656E+05 -5.307680E+00
        15  22  8.994601E+06  4.355175E+03  1.044947E+05 -1.791620E-07  3.373471E+04 -1.350230E-09
        15  23  8.967828E+06 -2.734177E+04  1.356317E+05 -8.392166E-09  1.045487E+05  1.739056E-10
        15  24  8.993974E+06  1.168960E+05  2.563849E+05 -6.243334E-08  1.753656E+05 -1.437214E-09
        15  25  8.994601E+06  4.355389E+03  1.044947E+05 -1.074756E+04  3.373471E+04 -5.760077E-01
        15  26  8.967828E+06 -2.734174E+04  1.356317E+05  4.151419E+03  1.045487E+05  6.895635E-01
        15  27  8.993974E+06  1.168966E+05  2.563850E+05  1.905070E+04  1.753656E+05  5.307680E+00
        16   1  9.054040E+06 -3.012407E+04  3.063243E+05  6.522118E+04 -2.261638E+05 -2.343250E+01
        16   2  8.892735E+06 -1.782041E+05  4.632069E+05 -3.539051E+04 -4.790731E+05  2.694030E+01
        16   3  9.050332E+06  8.233199E+05  1.070627E+06 -1.360246E+05 -7.319601E+05  1.581831E+02
        16   4  9.054035E+06 -3.013195E+04  3.063231E+05 -2.361960E-08 -2.261638E+05  9.569566E-10
        16   5  8.892734E+06 -1.782064E+05  4.632066E+05 -3.091358E-08 -4.790731E+05 -4.026384E-09
        16   6  9.050313E+06  8.232856E+05  1.070622E+06 -2.096703E-08 -7.319601E+05 -1.269377E-09
        16   7  9.054040E+06 -3.012407E+04  3.063243E+05 -6.522118E+04 -2.261638E+05  2.343250E+01
        16   8  8.892735E+06 -1.782041E+05  4.632069E+05  3.539051E+04 -4.790731E+05 -2.694030E+01
        16   9  9.050332E+06  8.233199E+05  1.070627E+06  1.360246E+05 -7.319601E+05 -1.581831E+02
        16  10  9.053986E+06 -3.013756E+04  3.062295E+05  6.522118E+04 -2.407483E-09 -8.238073E-11
        16  11  8.892492E+06 -1.782646E+05  4.627817E+05 -3.539051E+04 -3.202542E-09  3.644101E-10
        16  12  9.049763E+06  8.231786E+05  1.069634E+06 -1.360245E+05 -2.949459E-09  1.658105E-10
        16  13  9.053981E+06 -3.014544E+04  3.062284E+05  6.281929E-08  2.297941E-09  3.584008E-10
        16  14  8.892490E+06 -1.782669E+05  4.627814E+05  1.230947E-08 -1.479815E-09 -5.321082E-10
        16  15  9.049744E+06  8.231443E+05  1.069629E+06  1.797410E-08  1.720959E-09 -2.623146E-10
        16  16  9.053986E+06 -3.013756E+04  3.062295E+05 -6.522118E+04  7.708769E-10 -1.947020E-10
        16  17  8.892492E+06 -1.782646E+05  4.627817E+05  3.539051E+04  2.776164E-09  1.722814E-10
        16  18  9.049763E+06  8.231786E+05  1.069634E+06  1.360245E+05  3.380852E-09  5.022726E-10
        16  19  9.054040E+06 -3.012407E+04  3.063243E+05  6.522118E+04  2.261638E+05  2.343250E+01
        16  20  8.892735E+06 -1.782041E+05  4.632069E+05 -3.539051E+04  4.790731E+05 -2.694030E+01
        16  21  9.050332E+06  8.233199E+05  1.070627E+06 -1.360246E+05  7.319601E+05 -1.581831E+02
        16  22  9.054035E+06 -3.013195E+04  3.063231E+05  2.821498E-08  2.261638E+05 -2.331751E-11
        16  23  8.892734E+06 -1.782064E+05  4.632066E+05  5.550357E-08  4.790731E+05  3.317316E-09
        16  24  9.050313E+06  8.232856E+05  1.070622E+06  2.878993E-08  7.319601E+05  5.034249E-10
        16  25  9.054040E+06 -3.012407E+04  3.063243E+05 -6.522118E+04  2.261638E+05 -2.343250E+01
        16  26  8.892735E+06 -1.782041E+05  4.632069E+05  3.539051E+04  4.790731E+05  2.694030E+01
        16  27  9.050332E+06  8.233199E+05  1.070627E+06  1.360246E+05  7.319601E+05  1.581831E+02
        17   1 -2.111092E+06 -6.287008E+06 -2.635492E+06  3.617458E+05 -1.027118E+04 -1.515065E+06
        17   2  5.129213E+04 -5.810912E+06 -1.330525E+06  4.366853E+04 -2.596341E+04 -9.645503E+05
        17   3 -2.561473E+05 -6.018500E+06 -1.001630E+06 -6.712808E+04 -1.807026E+04 -4.140441E+05
        17   4 -1.745504E+06 -4.831376E+06 -2.270410E+06  7.697801E+04 -9.563509E+03 -1.510600E+06
        17   5  3.824724E+05 -4.489035E+06 -1.001776E+06 -2.744972E+04 -2.584537E+04 -9.646387E+05
        17   6  4.413189E+04 -4.828112E+06 -7.044206E+05  7.552550E+04 -1.818108E+04 -4.188096E+05
        17   7 -1.379769E+06 -3.373629E+06 -1.905445E+06 -2.084637E+05 -8.861424E+03 -1.506122E+06
        17   8  7.135402E+05 -3.165544E+06 -6.731555E+05 -9.872158E+04 -2.572752E+04 -9.647255E+05
        17   9  3.443789E+05 -3.636384E+06 -4.073079E+05  2.184538E+05 -1.829394E+04 -4.235838E+05
        17  10 -2.111716E+06 -6.289496E+06 -2.639850E+06  3.617336E+05 -3.722832E-10 -4.487524E-10
        17  11  5.103839E+04 -5.811920E+06 -1.332292E+06  4.364831E+04  6.978542E-09  6.813202E-11
        17  12 -2.561943E+05 -6.018686E+06 -1.001956E+06 -6.713414E+04  2.634509E-09 -6.291068E-10
        17  13 -1.746123E+06 -4.833844E+06 -2.274731E+06  7.696639E+04  1.444020E-09  5.911979E-11
        17  14  3.822192E+05 -4.490041E+06 -1.003539E+06 -2.746987E+04  8.836998E-10 -3.602519E-11
        17  15  4.408396E+04 -4.828302E+06 -7.047534E+05  7.551935E+04 -2.162270E-09 -9.603899E-10
        17  16 -1.380382E+06 -3.376079E+06 -1.909731E+06 -2.084747E+05 -2.488957E-09  3.426886E-10
        17  17  7.132877E+05 -3.166548E+06 -6.749156E+05 -9.874164E+04 -3.723288E-09 -4.622537E-10
        17  18  3.443300E+05 -3.636577E+06 -4.076478E+05  2.184476E+05 -2.950969E-09 -3.851830E-11
        17  19 -2.111092E+06 -6.287008E+06 -2.635492E+06  3.617458E+05  1.027118E+04  1.515065E+06
        17  20  5.129213E+04 -5.810912E+06 -1.330525E+06  4.366853E+04  2.596341E+04  9.645503E+05
        17  21 -2.561473E+05 -6.018500E+06 -1.001630E+06 -6.712808E+04  1.807026E+04  4.140441E+05
        17  22 -1.745504E+06 -4.831376E+06 -2.270410E+06  7.697801E+04  9.563509E+03  1.510600E+06
        17  23  3.824724E+05 -4.489035E+06 -1.001776E+06 -2.744972E+04  2.584537E+04  9.646387E+05
        17  24  4.413189E+04 -4.828112E+06 -7.044206E+05  7.552550E+04  1.818108E+04  4.188096E+05
        17  25 -1.379769E+06 -3.373629E+06 -1.905445E+06 -2.084637E+05  8.861424E+03  1.506122E+06
        17  26  7.135402E+05 -3.165544E+06 -6.731555E+05 -9.872158E+04  2.572752E+04  9.647255E+05
        17  27  3.443789E+05 -3.636384E+06 -4.073079E+05  2.184538E+05  1.829394E+04  4.235838E+05
        18   1 -3.811941E+05 -5.272157E+06 -7.546529E+05  1.419714E+05 -1.094646E+04 -3.003763E+05
        18   2 -5.838524E+03 -5.008377E+06 -5.054294E+05 -4.487416E+04 -6.546296E+03 -8.564342E+04
        18   3 -2.051017E+05 -4.919435E+06 -5.409491E+05  4.617228E+04 -5.483051E+02  1.291410E+05
        18   4 -2.422925E+05 -4.716150E+06 -6.164366E+05  9.249874E+04 -1.092446E+04 -3.011502E+05
        18   5  8.936774E+04 -4.628699E+06 -4.109419E+05 -4.658805E+04 -6.550751E+03 -8.665211E+04
        18   6 -1.533532E+05 -4.715955E+06 -4.898686E+05  9.221997E+04 -5.462278E+02  1.278365E+05
        18   7 -1.034046E+05 -4.159853E+06 -4.782422E+05  4.298103E+04 -1.090235E+04 -3.019247E+05
        18   8  1.845631E+05 -4.248889E+06 -3.164653E+05 -4.830316E+04 -6.555199E+03 -8.766141E+04
        18   9 -1.015999E+05 -4.512433E+06 -4.387902E+05  1.382828E+05 -5.443469E+02  1.265315E+05
        18  10 -3.812187E+05 -5.272255E+06 -7.548241E+05  1.419688E+05 -1.828429E-09 -4.613194E-10
        18  11 -5.840560E+03 -5.008385E+06 -5.054434E+05 -4.487462E+04 -2.092061E-09  9.840312E-10
        18  12 -2.051062E+05 -4.919453E+06 -5.409807E+05  4.617234E+04 -1.858532E-09  1.578833E-09
        18  13 -2.423172E+05 -4.716248E+06 -6.166086E+05  9.249608E+04 -5.544581E-09  3.521526E-10
        18  14  8.936565E+04 -4.628707E+06 -4.109562E+05 -4.658851E+04  9.983833E-10  1.718927E-10
        18  15 -1.533576E+05 -4.715973E+06 -4.898996E+05  9.222003E+04  4.004043E-09 -1.496979E-09
        18  16 -1.034294E+05 -4.159952E+06 -4.784149E+05  4.297837E+04 -5.348777E-09  4.153963E-10
        18  17  1.845610E+05 -4.248897E+06 -3.164799E+05 -4.830363E+04 -6.840355E-10 -1.549975E-09
        18  18 -1.016042E+05 -4.512451E+06 -4.388205E+05  1.382829E+05  4.972158E-09 -2.093613E-09
        18  19 -3.811941E+05 -5.272157E+06 -7.546529E+05  1.419714E+05  1.094646E+04  3.003763E+05
        18  20 -5.838524E+03 -5.008377E+06 -5.054294E+05 -4.487416E+04  6.546296E+03  8.564342E+04
        18  21 -2.051017E+05 -4.919435E+06 -5.409491E+05  4.617228E+04  5.483051E+02 -1.291410E+05
        18  22 -2.422925E+05 -4.716150E+06 -6.164366E+05  9.249874E+04  1.092446E+04  3.011502E+05
        18  23  8.936774E+04 -4.628699E+06 -4.109419E+05 -4.658805E+04  6.550751E+03  8.665211E+04
        18  24 -1.533532E+05 -4.715955E+06 -4.898686E+05  9.221997E+04  5.462278E+02 -1.278365E+05
        18  25 -1.034046E+05 -4.159853E+06 -4.782422E+05  4.298103E+04  1.090235E+04  3.019247E+05
        18  26  1.845631E+05 -4.248889E+06 -3.164653E+05 -4.830316E+04  6.555199E+03  8.766141E+04
        18  27 -1.015999E+05 -4.512433E+06 -4.387902E+05  1.382828E+05  5.443469E+02 -1.265315E+05
        19   1  1.369789E+05 -4.276843E+06 -4.034372E+05  1.847102E+05  6.529645E+03  2.222767E+05
        19   2  4.236956E+05 -3.877636E+06 -5.211869E+05 -8.907254E+04  1.513384E+04  5.925595E+05
        19   3 -9.372032E+05 -3.939891E+06 -1.292633E+06 -9.478772E+04  8.357713E+03  9.630558E+05
        19   4  9.526826E+03 -4.779447E+06 -5.291857E+05  8.829061E+04  6.476093E+03  2.187163E+05
        19   5  2.559565E+05 -4.549227E+06 -6.878626E+05 -4.353503E+04  1.517935E+04  5.922752E+05
        19   6 -1.146868E+06 -4.781713E+06 -1.503098E+06  9.271584E+04  8.665731E+03  9.659443E+05
        19   7 -1.179100E+05 -5.281799E+06 -6.549486E+05 -8.050608E+03  6.423621E+03  2.151587E+05
        19   8  8.819157E+04 -5.220401E+06 -8.545710E+05  1.952451E+03  1.522486E+04  5.919909E+05
        19   9 -1.356451E+06 -5.622811E+06 -1.713597E+06  2.799632E+05  8.975866E+03  9.688283E+05
        19  10  1.369655E+05 -4.276897E+06 -4.035308E+05  1.847090E+05 -2.459090E-09  1.826329E-09
        19  11  4.236002E+05 -3.878015E+06 -5.218515E+05 -8.907979E+04 -4.609517E-09  5.592795E-10
        19  12 -9.374543E+05 -3.940893E+06 -1.294387E+06 -9.479426E+04 -1.489709E-09 -8.457053E-10
        19  13  9.513811E+03 -4.779498E+06 -5.292764E+05  8.828947E+04  1.813882E-09 -2.002462E-10
        19  14  2.558611E+05 -4.549606E+06 -6.885273E+05 -4.354229E+04 -2.692830E-09 -2.087265E-10
        19  15 -1.147121E+06 -4.782722E+06 -1.504865E+06  9.270911E+04 -2.502675E-09 -8.795979E-10
        19  16 -1.179226E+05 -5.281849E+06 -6.550364E+05 -8.051724E+03  2.679611E-09 -1.890983E-09
        19  17  8.809617E+04 -5.220780E+06 -8.552357E+05  1.945173E+03 -1.037088E-09 -2.007862E-09
        19  18 -1.356706E+06 -5.623826E+06 -1.715377E+06  2.799563E+05 -1.015398E-09  5.150542E-11
        19  19  1.369789E+05 -4.276843E+06 -4.034372E+05  1.847102E+05 -6.529645E+03 -2.222767E+05
        19  20  4.236956E+05 -3.877636E+06 -5.211869E+05 -8.907254E+04 -1.513384E+04 -5.925595E+05
        19  21 -9.372032E+05 -3.939891E+06 -1.292633E+06 -9.478772E+04 -8.357713E+03 -9.630558E+05
        19  22  9.526826E+03 -4.779447E+06 -5.291857E+05  8.829061E+04 -6.476093E+03 -2.187163E+05
        19  23  2.559565E+05 -4.549227E+06 -6.878626E+05 -4.353503E+04 -1.517935E+04 -5.922752E+05
        19  24 -1.146868E+06 -4.781713E+06 -1.503098E+06  9.271584E+04 -8.665731E+03 -9.659443E+05
        19  25 -1.179100E+05 -5.281799E+06 -6.549486E+05 -8.050608E+03 -6.423621E+03 -2.151587E+05
        19  26  8.819157E+04 -5.220401E+06 -8.545710E+05  1.952451E+03 -1.522486E+04 -5.919909E+05
        19  27 -1.356451E+06 -5.622811E+06 -1.713597E+06  2.799632E+05 -8.975866E+03 -9.688283E+05
        20   1  3.641930E+06  1.902412E+06 -1.439339E+05  2.793318E+06  1.366655E+04  1.536490E+04
        20   2  3.627570E+06  1.973753E+06 -1.431522E+05  2.850351E+06  4.139950E+03  1.734303E+04
        20   3  3.750579E+06  1.958988E+06 -1.281153E+05  2.860880E+06  9.008903E+02  1.091990E+04
        20   4  4.177069E+06  2.275279E+06  3.608711E+04  3.054514E+06  1.610652E+04  1.719294E+04
        20   5  4.103143E+06  2.309128E+06  1.645927E+04  3.084522E+06  4.544100E+03  1.764448E+04
        20   6  4.166997E+06  2.257298E+06  1.282901E+04  3.068030E+06 -7.329438E+02  9.698973E+03
        20   7  4.712505E+06  2.648287E+06  2.160694E+05  3.315955E+06  1.854935E+04  1.902307E+04
        20   8  4.578951E+06  2.644619E+06  1.760402E+05  3.318891E+06  4.948665E+03  1.794623E+04
        20   9  4.583596E+06  2.555701E+06  1.537496E+05  3.275335E+06 -2.368268E+03  8.476918E+03
        20  10  3.641930E+06  1.902412E+06 -1.439346E+05  2.793318E+06  1.647713E-10 -1.236303E-09
        20  11  3.627570E+06  1.973752E+06 -1.431528E+05  2.850351E+06 -3.828654E-09 -1.276547E-09
        20  12  3.750579E+06  1.958988E+06 -1.281156E+05  2.860880E+06 -3.291110E-09  8.801716E-10
        20  13  4.177069E+06  2.275278E+06  3.608608E+04  3.054513E+06 -1.795155E-09 -2.760690E-10
        20  14  4.103143E+06  2.309128E+06  1.645865E+04  3.084522E+06  1.294897E-09 -8.888103E-10
        20  15  4.166997E+06  2.257298E+06  1.282883E+04  3.068030E+06 -1.298710E-09  1.406715E-09
        20  16  4.712505E+06  2.648286E+06  2.160681E+05  3.315954E+06  1.734990E-09 -9.158711E-10
        20  17  4.578951E+06  2.644619E+06  1.760396E+05  3.318891E+06 -5.996618E-10  1.375392E-10
        20  18  4.583596E+06  2.555701E+06  1.537495E+05  3.275335E+06  3.972420E-09  2.756587E-09
        20  19  3.641930E+06  1.902412E+06 -1.439339E+05  2.793318E+06 -1.366655E+04 -1.536490E+04
        20  20  3.627570E+06  1.973753E+06 -1.431522E+05  2.850351E+06 -4.139950E+03 -1.734303E+04
        20  21  3.750579E+06  1.958988E+06 -1.281153E+05  2.860880E+06 -9.008903E+02 -1.091990E+04
        20  22  4.177069E+06  2.275279E+06  3.608711E+04  3.054514E+06 -1.610652E+04 -1.719294E+04
        20  23  4.103143E+06  2.309128E+06  1.645927E+04  3.084522E+06 -4.544100E+03 -1.764448E+04
        20  24  4.166997E+06  2.257298E+06  1.282901E+04  3.068030E+06  7.329438E+02 -9.698973E+03
        20  25  4.712505E+06  2.648287E+06  2.160694E+05  3.315955E+06 -1.854935E+04 -1.902307E+04
        20  26  4.578951E+06  2.644619E+06  1.760402E+05  3.318891E+06 -4.948665E+03 -1.794623E+04
        20  27  4.583596E+06  2.555701E+06  1.537496E+05  3.275335E+06  2.368268E+03 -8.476918E+03
        21   1  3.906264E+06  2.093863E+06 -7.211822E+04  2.944905E+06 -7.520828E+02  6.040187E+03
        21   2  3.903313E+06  2.147475E+06 -6.232956E+04  2.973095E+06 -4.474075E+03  2.483227E+03
        21   3  3.973716E+06  2.138966E+06 -4.712239E+04  2.978540E+06 -7.673753E+03 -1.776666E+03
        21   4  4.156779E+06  2.269800E+06  1.190996E+04  3.067916E+06 -7.871425E+02  6.013786E+03
        21   5  4.119749E+06  2.300245E+06  1.040475E+04  3.079730E+06 -4.680757E+03  2.328887E+03
        21   6  4.156107E+06  2.268606E+06  1.446412E+04  3.068800E+06 -8.051869E+03 -2.058583E+03
        21   7  4.407358E+06  2.445768E+06  9.592936E+04  3.190981E+06 -8.222218E+02  5.987371E+03
        21   8  4.336233E+06  2.453039E+06  8.313255E+04  3.186407E+06 -4.887536E+03  2.174475E+03
        21   9  4.338532E+06  2.398265E+06  7.604603E+04  3.159090E+06 -8.430135E+03 -2.340612E+03
        21  10  3.906264E+06  2.093863E+06 -7.211829E+04  2.944905E+06 -5.080459E-10  4.723173E-10
        21  11  3.903313E+06  2.147475E+06 -6.232961E+04  2.973095E+06  1.896904E-09 -2.806196E-09
        21  12  3.973716E+06  2.138966E+06 -4.712251E+04  2.978540E+06  5.186492E-09 -1.662835E-09
        21  13  4.156779E+06  2.269800E+06  1.190989E+04  3.067916E+06 -2.229950E-09  2.152024E-10
        21  14  4.119749E+06  2.300245E+06  1.040470E+04  3.079730E+06  6.035189E-09 -2.100937E-09
        21  15  4.156107E+06  2.268606E+06  1.446399E+04  3.068800E+06  3.808465E-09 -1.287773E-09
        21  16  4.407358E+06  2.445768E+06  9.592929E+04  3.190981E+06  1.216991E-09 -8.136695E-11
        21  17  4.336233E+06  2.453039E+06  8.313250E+04  3.186407E+06 -3.217148E-09 -1.795377E-09
        21  18  4.338532E+06  2.398264E+06  7.604589E+04  3.159090E+06 -2.861676E-09 -8.192506E-10
        21  19  3.906264E+06  2.093863E+06 -7.211822E+04  2.944905E+06  7.520828E+02 -6.040187E+03
        21  20  3.903313E+06  2.147475E+06 -6.232956E+04  2.973095E+06  4.474075E+03 -2.483227E+03
        21  21  3.973716E+06  2.138966E+06 -4.712239E+04  2.978540E+06  7.673753E+03  1.776666E+03
        21  22  4.156779E+06  2.269800E+06  1.190996E+04  3.067916E+06  7.871425E+02 -6.013786E+03
        21  23  4.119749E+06  2.300245E+06  1.040475E+04  3.079730E+06  4.680757E+03 -2.328887E+03
        21  24  4.156107E+06  2.268606E+06  1.446412E+04  3.068800E+06  8.051869E+03  2.058583E+03
        21  25  4.407358E+06  2.445768E+06  9.592936E+04  3.190981E+06  8.222218E+02 -5.987371E+03
        21  26  4.336233E+06  2.453039E+06  8.313255E+04  3.186407E+06  4.887536E+03 -2.174475E+03
        21  27  4.338532E+06  2.398265E+06  7.604603E+04  3.159090E+06  8.430135E+03  2.340612E+03
        22   1  4.077139E+06  2.220921E+06 -7.320694E+03  3.035305E+06 -9.554746E+03 -4.378054E+03
        22   2  4.074819E+06  2.258806E+06  1.038307E+04  3.054455E+06 -1.984941E+04 -1.352131E+04
        22   3  4.134716E+06  2.261704E+06  4.204515E+04  3.052051E+06 -3.019764E+04 -2.259473E+04
        22   4  4.152016E+06  2.271708E+06  1.734108E+04  3.071257E+06 -9.792894E+03 -4.555505E+03
        22   5  4.123380E+06  2.293689E+06  2.682549E+04  3.078662E+06 -2.007152E+04 -1.368681E+04
        22   6  4.156957E+06  2.280678E+06  5.025397E+04  3.064514E+06 -3.040305E+04 -2.274788E+04
        22   7  4.226898E+06  2.322498E+06  4.200217E+04  3.107214E+06 -1.003108E+04 -4.732984E+03
        22   8  4.171944E+06  2.328573E+06  4.326759E+04  3.102872E+06 -2.029365E+04 -1.385233E+04
        22   9  4.179198E+06  2.299654E+06  5.846270E+04  3.076978E+06 -3.060846E+04 -2.290104E+04
        22  10  4.077139E+06  2.220921E+06 -7.320900E+03  3.035305E+06 -1.645733E-09 -9.437044E-10
        22  11  4.074819E+06  2.258805E+06  1.038200E+04  3.054455E+06 -7.187985E-09  2.010103E-09
        22  12  4.134715E+06  2.261703E+06  4.204250E+04  3.052051E+06 -6.293438E-10 -8.083729E-10
        22  13  4.152016E+06  2.271708E+06  1.734086E+04  3.071257E+06  1.780089E-09  2.819981E-10
        22  14  4.123380E+06  2.293688E+06  2.682440E+04  3.078662E+06  2.356566E-09  1.266148E-09
        22  15  4.156956E+06  2.280678E+06  5.025129E+04  3.064514E+06 -2.070865E-10 -6.717418E-10
        22  16  4.226898E+06  2.322498E+06  4.200194E+04  3.107214E+06  2.289327E-09  5.205536E-10
        22  17  4.171943E+06  2.328572E+06  4.326647E+04  3.102872E+06  5.904823E-09  9.591303E-10
        22  18  4.179197E+06  2.299653E+06  5.845998E+04  3.076978E+06 -5.181505E-10 -1.245965E-09
        22  19  4.077139E+06  2.220921E+06 -7.320694E+03  3.035305E+06  9.554746E+03  4.378054E+03
        22  20  4.074819E+06  2.258806E+06  1.038307E+04  3.054455E+06  1.984941E+04  1.352131E+04
        22  21  4.134716E+06  2.261704E+06  4.204515E+04  3.052051E+06  3.019764E+04  2.259473E+04
        22  22  4.152016E+06  2.271708E+06  1.734108E+04  3.071257E+06  9.792894E+03  4.555505E+03
        22  23  4.123380E+06  2.293689E+06  2.682549E+04  3.078662E+06  2.007152E+04  1.368681E+04
        22  24  4.156957E+06  2.280678E+06  5.025397E+04  3.064514E+06  3.040305E+04  2.274788E+04
        22  25  4.226898E+06  2.322498E+06  4.200217E+04  3.107214E+06  1.003108E+04  4.732984E+03
        22  26  4.171944E+06  2.328573E+06  4.326759E+04  3.102872E+06  2.029365E+04  1.385233E+04
        22  27  4.179198E+06  2.299654E+06  5.846270E+04  3.076978E+06  3.060846E+04  2.290104E+04
        23   1  4.220309E+06  2.329648E+06  8.695234E+04  3.114026E+06 -3.782277E+04 -2.926993E+04
        23   2  4.211127E+06  2.344888E+06  1.343246E+05  3.130247E+06 -7.973106E+04 -6.209039E+04
        23   3  4.331905E+06  2.410259E+06  2.507467E+05  3.083905E+06 -1.220310E+05 -9.439290E+04
        23   4  4.156388E+06  2.271408E+06  6.279186E+04  3.076457E+06 -3.813018E+04 -2.949817E+04
        23   5  4.109625E+06  2.279287E+06  1.014180E+05  3.083033E+06 -7.990384E+04 -6.221992E+04
        23   6  4.192805E+06  2.337281E+06  2.089913E+05  3.027043E+06 -1.220656E+05 -9.442349E+04
        23   7  4.092472E+06  2.213171E+06  3.863072E+04  3.038893E+06 -3.843755E+04 -2.972636E+04
        23   8  4.008133E+06  2.213689E+06  6.851002E+04  3.035827E+06 -8.007658E+04 -6.234943E+04
        23   9  4.053725E+06  2.264309E+06  1.672338E+05  2.970193E+06 -1.221002E+05 -9.445408E+04
        23  10  4.220307E+06  2.329647E+06  8.694809E+04  3.114025E+06 -7.468946E-10 -3.812411E-09
        23  11  4.211119E+06  2.344883E+06  1.343056E+05  3.130243E+06 -2.805668E-10 -1.048843E-09
        23  12  4.331887E+06  2.410245E+06  2.507024E+05  3.083896E+06 -3.182799E-09 -9.220743E-11
        23  13  4.156387E+06  2.271406E+06  6.278754E+04  3.076456E+06  4.351655E-09 -2.106929E-09
        23  14  4.109617E+06  2.279281E+06  1.013989E+05  3.083029E+06 -4.490091E-09  1.930516E-10
        23  15  4.192787E+06  2.337268E+06  2.089470E+05  3.027034E+06  1.696989E-09 -3.038524E-10
        23  16  4.092470E+06  2.213170E+06  3.862632E+04  3.038892E+06  1.742983E-09 -1.614596E-09
        23  17  4.008125E+06  2.213683E+06  6.849086E+04  3.035823E+06  2.683604E-10  7.405641E-10
        23  18  4.053707E+06  2.264295E+06  1.671895E+05  2.970183E+06 -1.699216E-09  1.564388E-09
        23  19  4.220309E+06  2.329648E+06  8.695234E+04  3.114026E+06  3.782277E+04  2.926993E+04
        23  20  4.211127E+06  2.344888E+06  1.343246E+05  3.130247E+06  7.973106E+04  6.209039E+04
        23  21  4.331905E+06  2.410259E+06  2.507467E+05  3.083905E+06  1.220310E+05  9.439290E+04
        23  22  4.156388E+06  2.271408E+06  6.279186E+04  3.076457E+06  3.813018E+04  2.949817E+04
        23  23  4.109625E+06  2.279287E+06  1.014180E+05  3.083033E+06  7.990384E+04  6.221992E+04
        23  24  4.192805E+06  2.337281E+06  2.089913E+05  3.027043E+06  1.220656E+05  9.442349E+04
        23  25  4.092472E+06  2.213171E+06  3.863072E+04  3.038893E+06  3.843755E+04  2.972636E+04
        23  26  4.008133E+06  2.213689E+06  6.851002E+04  3.035827E+06  8.007658E+04  6.234943E+04
        23  27  4.053725E+06  2.264309E+06  1.672338E+05  2.970193E+06  1.221002E+05  9.445408E+04
        24   1  4.381110E+06  2.496212E+06  3.361720E+05  3.247550E+06 -1.532269E+05 -1.201245E+05
        24   2  4.329474E+06  2.354360E+06  4.848959E+05  3.248897E+06 -3.233234E+05 -2.499340E+05
        24   3  4.879457E+06  2.852603E+06  1.014882E+06  2.890466E+06 -4.972880E+05 -3.745637E+05
        24   4  4.186800E+06  2.269138E+06  2.531018E+05  3.110144E+06 -1.542617E+05 -1.208751E+05
        24   5  4.014803E+06  2.180663E+06  3.888368E+05  3.116222E+06 -3.229989E+05 -2.497163E+05
        24   6  4.444337E+06  2.732269E+06  9.048626E+05  2.762463E+06 -4.955559E+05 -3.734116E+05
        24   7  3.992534E+06  2.042134E+06  1.700252E+05  2.972797E+06 -1.552961E+05 -1.216251E+05
        24   8  3.700238E+06  2.006993E+06  2.927671E+05  2.983612E+06 -3.226745E+05 -2.494988E+05
        24   9  4.009440E+06  2.611952E+06  7.948353E+05  2.634520E+06 -4.938252E+05 -3.722597E+05
        24  10  4.381081E+06  2.496191E+06  3.361015E+05  3.247535E+06 -2.359181E-09  7.326466E-10
        24  11  4.329346E+06  2.354266E+06  4.845855E+05  3.248833E+06 -1.375452E-09  7.260416E-10
        24  12  4.879157E+06  2.852388E+06  1.014162E+06  2.890317E+06  8.993021E-10 -2.148449E-10
        24  13  4.186771E+06  2.269116E+06  2.530304E+05  3.110129E+06 -2.143290E-09  1.339210E-09
        24  14  4.014675E+06  2.180569E+06  3.885267E+05  3.116157E+06 -1.555036E-09 -8.661516E-11
        24  15  4.444039E+06  2.732055E+06  9.041465E+05  2.762315E+06 -2.936484E-10  1.068181E-10
        24  16  3.992504E+06  2.042112E+06  1.699528E+05  2.972782E+06 -3.499666E-09  3.545721E-10
        24  17  3.700110E+06  2.006899E+06  2.924574E+05  2.983547E+06 -3.227126E-09 -1.042305E-09
        24  18  4.009143E+06  2.611739E+06  7.941234E+05  2.634373E+06 -6.103013E-10 -8.532399E-10
        24  19  4.381110E+06  2.496212E+06  3.361720E+05  3.247550E+06  1.532269E+05  1.201245E+05
        24  20  4.329474E+06  2.354360E+06  4.848959E+05  3.248897E+06  3.233234E+05  2.499340E+05
        24  21  4.879457E+06  2.852603E+06  1.014882E+06  2.890466E+06  4.972880E+05  3.745637E+05
        24  22  4.186800E+06  2.269138E+06  2.531018E+05  3.110144E+06  1.542617E+05  1.208751E+05
        24  23  4.014803E+06  2.180663E+06  3.888368E+05  3.116222E+06  3.229989E+05  2.497163E+05
        24  24  4.444337E+06  2.732269E+06  9.048626E+05  2.762463E+06  4.955559E+05  3.734116E+05
        24  25  3.992534E+06  2.042134E+06  1.700252E+05  2.972797E+06  1.552961E+05  1.216251E+05
        24  26  3.700238E+06  2.006993E+06  2.927671E+05  2.983612E+06  3.226745E+05  2.494988E+05
        24  27  4.009440E+06  2.611952E+06  7.948353E+05  2.634520E+06  4.938252E+05  3.722597E+05
        25   1  6.140712E+06  3.682019E+05  4.791709E+05  6.074682E+04  3.239040E+05  3.139732E+01
        25   2  6.069605E+06 -7.996024E+04  2.095035E+05  1.577780E+04  2.096424E+05  5.278434E+00
        25   3  6.141850E+06 -1.243972E+04  1.426521E+05 -2.918599E+04  9.537816E+04 -4.441758E+00
        25   4  6.140708E+06  3.681950E+05  4.791699E+05  1.199216E-08  3.239040E+05 -2.098691E-11
        25   5  6.069605E+06 -7.996071E+04  2.095034E+05  4.384968E-08  2.096424E+05 -4.989059E-10
        25   6  6.141849E+06 -1.244131E+04  1.426519E+05 -6.246577E-08  9.537816E+04 -1.078196E-09
        25   7  6.140712E+06  3.682019E+05  4.791709E+05 -6.074682E+04  3.239040E+05 -3.139732E+01
        25   8  6.069605E+06 -7.996024E+04  2.095035E+05 -1.577780E+04  2.096424E+05 -5.278434E+00
        25   9  6.141850E+06 -1.243972E+04  1.426521E+05  2.918599E+04  9.537816E+04  4.441758E+00
        25  10  6.140600E+06  3.681741E+05  4.789757E+05  6.074682E+04  1.029696E-09  4.663645E-10
        25  11  6.069559E+06 -7.997190E+04  2.094217E+05  1.577780E+04  4.471934E-10 -1.289792E-11
        25  12  6.141841E+06 -1.244213E+04  1.426352E+05 -2.918599E+04 -6.082307E-10  1.817151E-10
        25  13  6.140596E+06  3.681672E+05  4.789747E+05  3.789114E-08 -2.705205E-09 -5.967411E-11
        25  14  6.069558E+06 -7.997236E+04  2.094216E+05 -2.523845E-08  3.239444E-09  3.013336E-11
        25  15  6.141840E+06 -1.244372E+04  1.426349E+05  1.959961E-08  1.583072E-09 -1.854824E-10
        25  16  6.140600E+06  3.681741E+05  4.789757E+05 -6.074682E+04 -7.493253E-10 -5.686522E-11
        25  17  6.069559E+06 -7.997190E+04  2.094217E+05 -1.577780E+04 -2.180423E-09  2.909065E-10
        25  18  6.141841E+06 -1.244213E+04  1.426352E+05  2.918599E+04 -5.439826E-10 -1.790330E-10
        25  19  6.140712E+06  3.682019E+05  4.791709E+05  6.074682E+04 -3.239040E+05 -3.139732E+01
        25  20  6.069605E+06 -7.996024E+04  2.095035E+05  1.577780E+04 -2.096424E+05 -5.278434E+00
        25  21  6.141850E+06 -1.243972E+04  1.426521E+05 -2.918599E+04 -9.537816E+04  4.441758E+00
        25  22  6.140708E+06  3.681950E+05  4.791699E+05 -1.393006E-08 -3.239040E+05  3.286604E-11
        25  23  6.069605E+06 -7.996071E+04  2.095034E+05 -8.568605E-08 -2.096424E+05  9.812235E-10
        25  24  6.141849E+06 -1.244131E+04  1.426519E+05 -6.245726E-08 -9.537816E+04  3.638972E-10
        25  25  6.140712E+06  3.682019E+05  4.791709E+05 -6.074682E+04 -3.239040E+05  3.139732E+01
        25  26  6.069605E+06 -7.996024E+04  2.095035E+05 -1.577780E+04 -2.096424E+05  5.278434E+00
        25  27  6.141850E+06 -1.243972E+04  1.426521E+05  2.918599E+04 -9.537816E+04 -4.441758E+00
        26   1  6.115743E+06  5.202819E+04  1.222344E+05  9.123081E+03  7.151841E+04  1.041141E+00
        26   2  6.102239E+06 -1.384555E+04  7.386267E+04  1.650602E+03  3.312666E+04  8.725207E-02
        26   3  6.115892E+06  9.318055E+03  7.256847E+04 -5.821946E+03 -5.265396E+03  4.891551E-02
        26   4  6.115743E+06  5.202804E+04  1.222344E+05 -8.088121E-08  7.151841E+04 -9.188519E-10
        26   5  6.102239E+06 -1.384555E+04  7.386267E+04  2.284045E-08  3.312666E+04 -3.242352E-10
        26   6  6.115892E+06  9.317992E+03  7.256846E+04 -6.214949E-09 -5.265396E+03  1.058706E-09
        26   7  6.115743E+06  5.202819E+04  1.222344E+05 -9.123081E+03  7.151841E+04 -1.041141E+00
        26   8  6.102239E+06 -1.384555E+04  7.386267E+04 -1.650602E+03  3.312666E+04 -8.725207E-02
        26   9  6.115892E+06  9.318055E+03  7.256847E+04  5.821946E+03 -5.265396E+03 -4.891551E-02
        26  10  6.115737E+06  5.202683E+04  1.222249E+05  9.123081E+03  2.878035E-10  7.157719E-10
        26  11  6.102238E+06 -1.384584E+04  7.386063E+04  1.650602E+03  2.522376E-09  2.225306E-10
        26  12  6.115892E+06  9.318048E+03  7.256842E+04 -5.821946E+03  1.744932E-10 -3.345133E-10
        26  13  6.115737E+06  5.202668E+04  1.222249E+05 -2.039764E-08 -1.166678E-09 -3.285229E-10
        26  14  6.102238E+06 -1.384584E+04  7.386063E+04 -2.897457E-08  2.198045E-09  1.309863E-11
        26  15  6.115892E+06  9.317985E+03  7.256841E+04 -1.598202E-08  2.021976E-09  2.740263E-10
        26  16  6.115737E+06  5.202683E+04  1.222249E+05 -9.123081E+03  1.505832E-10  5.069622E-10
        26  17  6.102238E+06 -1.384584E+04  7.386063E+04 -1.650602E+03 -7.896263E-10 -1.926008E-10
        26  18  6.115892E+06  9.318048E+03  7.256842E+04  5.821946E+03 -3.143824E-09  1.298469E-09
        26  19  6.115743E+06  5.202819E+04  1.222344E+05  9.123081E+03 -7.151841E+04 -1.041141E+00
        26  20  6.102239E+06 -1.384555E+04  7.386267E+04  1.650602E+03 -3.312666E+04 -8.725207E-02
        26  21  6.115892E+06  9.318055E+03  7.256847E+04 -5.821946E+03  5.265396E+03 -4.891551E-02
        26  22  6.115743E+06  5.202804E+04  1.222344E+05 -7.215127E-08 -7.151841E+04 -9.505026E-11
        26  23  6.102239E+06 -1.384555E+04  7.386267E+04 -4.625189E-08 -3.312666E+04  1.681276E-10
        26  24  6.115892E+06  9.317992E+03  7.256846E+04 -3.329147E-08  5.265396E+03 -9.526611E-10
        26  25  6.115743E+06  5.202819E+04  1.222344E+05 -9.123081E+03 -7.151841E+04  1.041141E+00
        26  26  6.102239E+06 -1.384555E+04  7.386267E+04 -1.650602E+03 -3.312666E+04  8.725207E-02
        26  27  6.115892E+06  9.318055E+03  7.256847E+04  5.821946E+03  5.265396E+03  4.891551E-02
        27   1  6.118036E+06  4.451966E+03  7.606145E+04  7.489392E+03 -1.870834E+04 -2.235774E-01
        27   2  6.099538E+06 -1.891713E+04  9.463793E+04 -2.772821E+03 -6.805182E+04  3.011061E-01
        27   3  6.117755E+06  7.940957E+04  1.755395E+05 -1.303508E+04 -1.173961E+05  2.441847E+00
        27   4  6.118036E+06  4.451861E+03  7.606144E+04 -2.031301E-08 -1.870834E+04  6.235910E-10
        27   5  6.099538E+06 -1.891715E+04  9.463793E+04  2.492222E-08 -6.805182E+04 -1.332918E-09
        27   6  6.117755E+06  7.940926E+04  1.755395E+05 -4.964655E-08 -1.173961E+05 -7.140627E-10
        27   7  6.118036E+06  4.451966E+03  7.606145E+04 -7.489392E+03 -1.870834E+04  2.235774E-01
        27   8  6.099538E+06 -1.891713E+04  9.463793E+04  2.772821E+03 -6.805182E+04 -3.011061E-01
        27   9  6.117755E+06  7.940957E+04  1.755395E+05  1.303508E+04 -1.173961E+05 -2.441847E+00
        27  10  6.118036E+06  4.451873E+03  7.606080E+04  7.489392E+03 -1.329725E-09  9.870971E-10
        27  11  6.099534E+06 -1.891836E+04  9.462932E+04 -2.772821E+03  1.938599E-09 -1.574926E-10
        27  12  6.117741E+06  7.940592E+04  1.755139E+05 -1.303508E+04  1.709926E-09 -2.455033E-09
        27  13  6.118036E+06  4.451768E+03  7.606078E+04 -3.035342E-09 -6.764382E-11 -5.660512E-11
        27  14  6.099534E+06 -1.891838E+04  9.462931E+04 -3.986795E-08 -1.646990E-09  3.404839E-11
        27  15  6.117741E+06  7.940560E+04  1.755138E+05 -5.078541E-08  1.047725E-09 -4.667756E-10
        27  16  6.118036E+06  4.451873E+03  7.606080E+04 -7.489392E+03 -1.530611E-11  1.045635E-09
        27  17  6.099534E+06 -1.891836E+04  9.462932E+04  2.772821E+03 -4.912382E-11 -8.942898E-10
        27  18  6.117741E+06  7.940592E+04  1.755139E+05  1.303508E+04 -1.058599E-09 -9.144886E-11
        27  19  6.118036E+06  4.451966E+03  7.606145E+04  7.489392E+03  1.870834E+04  2.235774E-01
        27  20  6.099538E+06 -1.891713E+04  9.463793E+04 -2.772821E+03  6.805182E+04 -3.011061E-01
        27  21  6.117755E+06  7.940957E+04  1.755395E+05 -1.303508E+04  1.173961E+05 -2.441847E+00
        27  22  6.118036E+06  4.451861E+03  7.606144E+04 -1.163825E-08  1.870834E+04 -4.693140E-10
        27  23  6.099538E+06 -1.891715E+04  9.463793E+04  2.490954E-08  6.805182E+04  1.309467E-09
        27  24  6.117755E+06  7.940926E+04  1.755395E+05 -4.216546E-08  1.173961E+05 -2.387262E-10
        27  25  6.118036E+06  4.451966E+03  7.606145E+04 -7.489392E+03  1.870834E+04 -2.235774E-01
        27  26  6.099538E+06 -1.891713E+04  9.463793E+04  2.772821E+03  6.805182E+04  3.011061E-01
        27  27  6.117755E+06  7.940957E+04  1.755395E+05  1.303508E+04  1.173961E+05  2.441847E+00
        28   1  6.158296E+06 -2.025535E+04  2.090706E+05  4.420629E+04 -1.520315E+05 -1.072358E+01
        28   2  6.048861E+06 -1.212103E+05  3.149718E+05 -2.397496E+04 -3.239019E+05  1.239272E+01
        28   3  6.156585E+06  5.595861E+05  7.275017E+05 -9.216557E+04 -4.957598E+05  7.291129E+01
        28   4  6.158294E+06 -2.025899E+04  2.090701E+05 -6.349701E-08 -1.520315E+05  3.288849E-10
        28   5  6.048860E+06 -1.212114E+05  3.149716E+05 -1.388358E-08 -3.239019E+05 -1.145873E-09
        28   6  6.156576E+06  5.595703E+05  7.274994E+05  2.250444E-09 -4.957598E+05  1.875184E-09
        28   7  6.158296E+06 -2.025535E+04  2.090706E+05 -4.420629E+04 -1.520315E+05  1.072358E+01
        28   8  6.048861E+06 -1.212103E+05  3.149718E+05  2.397496E+04 -3.239019E+05 -1.239272E+01
        28   9  6.156585E+06  5.595861E+05  7.275017E+05  9.216557E+04 -4.957598E+05 -7.291129E+01
        28  10  6.158271E+06 -2.026148E+04  2.090276E+05  4.420629E+04 -1.941967E-09 -7.107446E-10
        28  11  6.048749E+06 -1.212381E+05  3.147766E+05 -2.397496E+04  1.029546E-09  4.227746E-10
        28  12  6.156324E+06  5.595210E+05  7.270443E+05 -9.216555E+04  6.622717E-10  5.573240E-10
        28  13  6.158269E+06 -2.026512E+04  2.090271E+05 -2.890981E-08  1.152424E-09 -6.476703E-11
        28  14  6.048749E+06 -1.212392E+05  3.147764E+05 -4.409080E-08 -4.939713E-12  5.469739E-10
        28  15  6.156314E+06  5.595051E+05  7.270420E+05 -1.612453E-08 -7.408138E-10  2.081705E-10
        28  16  6.158271E+06 -2.026148E+04  2.090276E+05 -4.420629E+04 -1.876216E-09 -2.206762E-10
        28  17  6.048749E+06 -1.212381E+05  3.147766E+05  2.397496E+04 -2.654364E-09  1.282922E-10
        28  18  6.156324E+06  5.595210E+05  7.270443E+05  9.216555E+04 -4.560904E-10  6.463799E-11
        28  19  6.158296E+06 -2.025535E+04  2.090706E+05  4.420629E+04  1.520315E+05  1.072358E+01
        28  20  6.048861E+06 -1.212103E+05  3.149718E+05 -2.397496E+04  3.239019E+05 -1.239272E+01
        28  21  6.156585E+06  5.595861E+05  7.275017E+05 -9.216557E+04  4.957598E+05 -7.291129E+01
        28  22  6.158294E+06 -2.025899E+04  2.090701E+05 -7.207620E-08  1.520315E+05 -6.466421E-10
        28  23  6.048860E+06 -1.212114E+05  3.149716E+05 -6.567940E-08  3.239019E+05  1.696374E-09
        28  24  6.156576E+06  5.595703E+05  7.274994E+05 -3.451144E-08  4.957598E+05 -1.596018E-09
        28  25  6.158296E+06 -2.025535E+04  2.090706E+05 -4.420629E+04  1.520315E+05 -1.072358E+01
        28  26  6.048861E+06 -1.212103E+05  3.149718E+05  2.397496E+04  3.239019E+05  1.239272E+01
        28  27  6.156585E+06  5.595861E+05  7.275017E+05  9.216557E+04  4.957598E+05  7.291129E+01
        29   1 -1.283021E+06 -4.101365E+06 -1.639092E+06  2.108368E+05 -2.982657E+03 -1.017295E+06
        29   2  1.605601E+05 -3.837049E+06 -7.767988E+05  4.302380E+04 -7.440928E+03 -6.459436E+05
        29   3 -6.432366E+04 -4.038338E+06 -5.739245E+05 -7.702187E+04 -5.473130E+03 -2.746128E+05
        29   4 -1.176882E+06 -3.677952E+06 -1.533120E+06  1.779449E+04 -2.663903E+03 -1.015826E+06
        29   5  2.587802E+05 -3.444511E+06 -6.793410E+05 -6.256108E+03 -7.388785E+03 -6.458245E+05
        29   6  2.670765E+04 -3.676178E+06 -4.837309E+05  1.751551E+04 -5.516351E+03 -2.758629E+05
        29   7 -1.070616E+06 -3.254296E+06 -1.427142E+06 -1.753803E+05 -2.346260E+03 -1.014356E+06
        29   8  3.569980E+05 -3.051828E+06 -5.818935E+05 -5.556739E+04 -7.336690E+03 -6.457053E+05
        29   9  1.177627E+05 -3.313879E+06 -3.935424E+05  1.121084E+05 -5.559933E+03 -2.771137E+05
        29  10 -1.283301E+06 -4.102482E+06 -1.641049E+06  2.108345E+05 -2.173904E-09  1.052145E-09
        29  11  1.604471E+05 -3.837499E+06 -7.775881E+05  4.301993E+04 -1.938608E-09  2.245690E-09
        29  12 -6.434411E+04 -4.038419E+06 -5.740672E+05 -7.702309E+04  2.870084E-09  1.799500E-09
        29  13 -1.177161E+06 -3.679067E+06 -1.535071E+06  1.779231E+04 -1.268948E-09  3.444801E-11
        29  14  2.586673E+05 -3.444961E+06 -6.801295E+05 -6.259959E+03  9.503157E-10 -4.701231E-11
        29  15  2.668703E+04 -3.676260E+06 -4.838748E+05  1.751429E+04 -4.662508E-09 -2.978044E-10
        29  16 -1.070894E+06 -3.255406E+06 -1.429085E+06 -1.753823E+05  2.191275E-09 -1.030485E-09
        29  17  3.568852E+05 -3.052278E+06 -5.826812E+05 -5.557122E+04 -1.092771E-09 -1.656757E-09
        29  18  1.177419E+05 -3.313962E+06 -3.936875E+05  1.121071E+05  3.181327E-09 -1.596246E-09
        29  19 -1.283021E+06 -4.101365E+06 -1.639092E+06  2.108368E+05  2.982657E+03  1.017295E+06
        29  20  1.605601E+05 -3.837049E+06 -7.767988E+05  4.302380E+04  7.440928E+03  6.459436E+05
        29  21 -6.432366E+04 -4.038338E+06 -5.739245E+05 -7.702187E+04  5.473130E+03  2.746128E+05
        29  22 -1.176882E+06 -3.677952E+06 -1.533120E+06  1.779449E+04  2.663903E+03  1.015826E+06
        29  23  2.587802E+05 -3.444511E+06 -6.793410E+05 -6.256108E+03  7.388785E+03  6.458245E+05
        29  24  2.670765E+04 -3.676178E+06 -4.837309E+05  1.751551E+04  5.516351E+03  2.758629E+05
        29  25 -1.070616E+06 -3.254296E+06 -1.427142E+06 -1.753803E+05  2.346260E+03  1.014356E+06
        29  26  3.569980E+05 -3.051828E+06 -5.818935E+05 -5.556739E+04  7.336690E+03  6.457053E+05
        29  27  1.177627E+05 -3.313879E+06 -3.935424E+05  1.121084E+05  5.559933E+03  2.771137E+05
        30   1 -2.167584E+05 -3.815956E+06 -4.798456E+05  5.755077E+04 -3.717548E+03 -1.945121E+05
        30   2  2.072635E+04 -3.712467E+06 -3.379474E+05 -9.818093E+03 -2.850801E+03 -4.045823E+04
        30   3 -1.547479E+05 -3.732626E+06 -3.999757E+05 -1.163697E+04 -1.291466E+03  1.136059E+05
        30   4 -1.629684E+05 -3.600761E+06 -4.263756E+05  2.169781E+04 -3.706258E+03 -1.946238E+05
        30   5  6.419411E+04 -3.538923E+06 -2.948170E+05 -1.108251E+04 -2.851034E+03 -4.069548E+04
        30   6 -1.215207E+05 -3.600680E+06 -3.670531E+05  2.168832E+04 -1.286035E+03  1.132328E+05
        30   7 -1.091771E+05 -3.385521E+06 -3.729084E+05 -1.416767E+04 -3.694958E+03 -1.947355E+05
        30   8  1.076596E+05 -3.365353E+06 -2.516889E+05 -1.234730E+04 -2.851266E+03 -4.093278E+04
        30   9 -8.829069E+04 -3.468717E+06 -3.341313E+05  5.502073E+04 -1.280646E+03  1.128596E+05
        30  10 -2.167686E+05 -3.815997E+06 -4.799171E+05  5.755019E+04  2.770935E-09 -1.876175E-09
        30  11  2.072590E+04 -3.712468E+06 -3.379505E+05 -9.818186E+03 -4.058122E-09 -2.163294E-09
        30  12 -1.547514E+05 -3.732640E+06 -4.000001E+05 -1.163686E+04 -4.589252E-09 -1.904161E-09
        30  13 -1.629787E+05 -3.600802E+06 -4.264472E+05  2.169723E+04 -3.015479E-09  3.458727E-10
        30  14  6.419365E+04 -3.538925E+06 -2.948201E+05 -1.108260E+04 -9.002580E-10 -1.257778E-10
        30  15 -1.215242E+05 -3.600694E+06 -3.670774E+05  2.168843E+04  1.244757E-09 -4.886411E-10
        30  16 -1.091873E+05 -3.385562E+06 -3.729801E+05 -1.416825E+04  1.648953E-09  1.846354E-09
        30  17  1.076591E+05 -3.365354E+06 -2.516920E+05 -1.234739E+04  1.757864E-09  3.794675E-09
        30  18 -8.829413E+04 -3.468730E+06 -3.341554E+05  5.502084E+04  1.429551E-09  2.277973E-09
        30  19 -2.167584E+05 -3.815956E+06 -4.798456E+05  5.755077E+04  3.717548E+03  1.945121E+05
        30  20  2.072635E+04 -3.712467E+06 -3.379474E+05 -9.818093E+03  2.850801E+03  4.045823E+04
        30  21 -1.547479E+05 -3.732626E+06 -3.999757E+05 -1.163697E+04  1.291466E+03 -1.136059E+05
        30  22 -1.629684E+05 -3.600761E+06 -4.263756E+05  2.169781E+04  3.706258E+03  1.946238E+05
        30  23  6.419411E+04 -3.538923E+06 -2.948170E+05 -1.108251E+04  2.851034E+03  4.069548E+04
        30  24 -1.215207E+05 -3.600680E+06 -3.670531E+05  2.168832E+04  1.286035E+03 -1.132328E+05
        30  25 -1.091771E+05 -3.385521E+06 -3.729084E+05 -1.416767E+04  3.694958E+03  1.947355E+05
        30  26  1.076596E+05 -3.365353E+06 -2.516889E+05 -1.234730E+04  2.851266E+03  4.093278E+04
        30  27 -8.829069E+04 -3.468717E+06 -3.341313E+05  5.502073E+04  1.280646E+03 -1.128596E+05
        31   1  2.085519E+04 -3.612690E+06 -3.912728E+05  9.517827E+04  3.377234E+02  1.825869E+05
        31   2  2.201650E+05 -3.390017E+06 -5.114845E+05 -4.930986E+04  2.442942E+03  4.712427E+05
        31   3 -8.651152E+05 -3.526839E+06 -1.141291E+06 -1.245360E+05  1.831695E+03  7.599449E+05
        31   4  1.043700E+04 -3.652791E+06 -4.014124E+05  2.193648E+04  3.147359E+02  1.818729E+05
        31   5  1.993944E+05 -3.473639E+06 -5.321843E+05 -1.193598E+04  2.471340E+03  4.711184E+05
        31   6 -8.964875E+05 -3.654185E+06 -1.173031E+06  2.343170E+04  2.014735E+03  7.603899E+05
        31   7  3.894846E+01 -3.692879E+06 -4.115491E+05 -5.130053E+04  2.919166E+02  1.811589E+05
        31   8  1.786284E+05 -3.557252E+06 -5.528839E+05  2.543285E+04  2.499726E+03  4.709942E+05
        31   9 -9.277782E+05 -3.781468E+06 -1.204761E+06  1.713689E+05  2.198022E+03  7.608349E+05
        31  10  2.084617E+04 -3.612726E+06 -3.913358E+05  9.517822E+04 -3.728735E-09  7.313815E-11
        31  11  2.201050E+05 -3.390256E+06 -5.119043E+05 -4.931080E+04  5.226085E-10  1.338423E-09
        31  12 -8.652714E+05 -3.527462E+06 -1.142383E+06 -1.245371E+05  2.406217E-09  6.849316E-10
        31  13  1.042805E+04 -3.652826E+06 -4.014749E+05  2.193644E+04  5.560190E-09  4.364714E-10
        31  14  1.993343E+05 -3.473879E+06 -5.326039E+05 -1.193692E+04  2.993660E-09 -3.504062E-10
        31  15 -8.966438E+05 -3.654809E+06 -1.174124E+06  2.343047E+04  1.350370E-09 -5.414095E-10
        31  16  3.007012E+01 -3.692914E+06 -4.116112E+05 -5.130058E+04  1.734145E-09 -7.795623E-11
        31  17  1.785684E+05 -3.557491E+06 -5.533033E+05  2.543190E+04 -1.125765E-09 -1.061936E-10
        31  18 -9.279347E+05 -3.782093E+06 -1.205855E+06  1.713676E+05  8.493639E-10 -2.870068E-10
        31  19  2.085519E+04 -3.612690E+06 -3.912728E+05  9.517827E+04 -3.377234E+02 -1.825869E+05
        31  20  2.201650E+05 -3.390017E+06 -5.114845E+05 -4.930986E+04 -2.442942E+03 -4.712427E+05
        31  21 -8.651152E+05 -3.526839E+06 -1.141291E+06 -1.245360E+05 -1.831695E+03 -7.599449E+05
        31  22  1.043700E+04 -3.652791E+06 -4.014124E+05  2.193648E+04 -3.147359E+02 -1.818729E+05
        31  23  1.993944E+05 -3.473639E+06 -5.321843E+05 -1.193598E+04 -2.471340E+03 -4.711184E+05
        31  24 -8.964875E+05 -3.654185E+06 -1.173031E+06  2.343170E+04 -2.014735E+03 -7.603899E+05
        31  25  3.894846E+01 -3.692879E+06 -4.115491E+05 -5.130053E+04 -2.919166E+02 -1.811589E+05
        31  26  1.786284E+05 -3.557252E+06 -5.528839E+05  2.543285E+04 -2.499726E+03 -4.709942E+05
        31  27 -9.277782E+05 -3.781468E+06 -1.204761E+06  1.713689E+05 -2.198022E+03 -7.608349E+05
        32   1  1.993185E+06  1.009981E+06 -1.508701E+05  1.567165E+06 -2.895363E+04 -1.872198E+04
        32   2  2.008316E+06  1.093324E+06 -1.135668E+05  1.572682E+06 -2.180064E+04 -7.963861E+03
        32   3  2.053937E+06  1.082466E+06 -9.659075E+04  1.579137E+06 -1.102015E+04 -2.046357E+03
        32   4  2.293845E+06  1.233576E+06 -4.668445E+04  1.720141E+06 -2.754973E+04 -1.767002E+04
        32   5  2.285213E+06  1.292573E+06 -1.962389E+04  1.710625E+06 -2.155741E+04 -7.782077E+03
        32   6  2.307331E+06  1.257637E+06 -1.187746E+04  1.702045E+06 -1.193908E+04 -2.734065E+03
        32   7  2.594598E+06  1.457223E+06  5.748811E+04  1.873200E+06 -2.614491E+04 -1.661732E+04
        32   8  2.562189E+06  1.491863E+06  7.430827E+04  1.848637E+06 -2.131403E+04 -7.600178E+03
        32   9  2.560791E+06  1.432839E+06  7.282697E+04  1.825007E+06 -1.285853E+04 -3.422140E+03
        32  10  1.993184E+06  1.009981E+06 -1.508723E+05  1.567165E+06 -3.440730E-09  2.710587E-10
        32  11  2.008315E+06  1.093323E+06 -1.135678E+05  1.572682E+06 -2.136470E-09  5.076804E-10
        32  12  2.053937E+06  1.082466E+06 -9.659099E+04  1.579137E+06 -8.611598E-10 -1.078911E-09
        32  13  2.293844E+06  1.233575E+06 -4.668645E+04  1.720140E+06 -1.251615E-10 -1.614647E-10
        32  14  2.285212E+06  1.292573E+06 -1.962487E+04  1.710625E+06 -4.443468E-09 -3.260676E-10
        32  15  2.307331E+06  1.257637E+06 -1.187774E+04  1.702045E+06 -1.101964E-09 -1.022748E-09
        32  16  2.594597E+06  1.457222E+06  5.748632E+04  1.873200E+06  7.953367E-10 -3.423851E-10
        32  17  2.562189E+06  1.491863E+06  7.430731E+04  1.848637E+06  2.806910E-09  7.852722E-11
        32  18  2.560791E+06  1.432839E+06  7.282664E+04  1.825007E+06 -2.693016E-09 -3.139700E-10
        32  19  1.993185E+06  1.009981E+06 -1.508701E+05  1.567165E+06  2.895363E+04  1.872198E+04
        32  20  2.008316E+06  1.093324E+06 -1.135668E+05  1.572682E+06  2.180064E+04  7.963861E+03
        32  21  2.053937E+06  1.082466E+06 -9.659075E+04  1.579137E+06  1.102015E+04  2.046357E+03
        32  22  2.293845E+06  1.233576E+06 -4.668445E+04  1.720141E+06  2.754973E+04  1.767002E+04
        32  23  2.285213E+06  1.292573E+06 -1.962389E+04  1.710625E+06  2.155741E+04  7.782077E+03
        32  24  2.307331E+06  1.257637E+06 -1.187746E+04  1.702045E+06  1.193908E+04  2.734065E+03
        32  25  2.594598E+06  1.457223E+06  5.748811E+04  1.873200E+06  2.614491E+04  1.661732E+04
        32  26  2.562189E+06  1.491863E+06  7.430827E+04  1.848637E+06  2.131403E+04  7.600178E+03
        32  27  2.560791E+06  1.432839E+06  7.282697E+04  1.825007E+06  1.285853E+04  3.422140E+03
        33   1  2.145144E+06  1.144609E+06 -6.279058E+04  1.629088E+06 -9.452089E+03 -2.893404E+03
        33   2  2.146807E+06  1.184248E+06 -4.922386E+04  1.642673E+06 -8.051878E+03 -2.265705E+03
        33   3  2.186560E+06  1.178227E+06 -3.810363E+04  1.646252E+06 -6.279214E+03 -2.136923E+03
        33   4  2.303062E+06  1.257812E+06 -9.233066E+03  1.707553E+06 -9.458463E+03 -2.898277E+03
        33   5  2.285122E+06  1.282634E+06 -2.479470E+03  1.711048E+06 -8.178031E+03 -2.360086E+03
        33   6  2.305297E+06  1.261824E+06  1.931767E+03  1.704537E+06 -6.525246E+03 -2.320787E+03
        33   7  2.461006E+06  1.371027E+06  4.432098E+04  1.786040E+06 -9.464840E+03 -2.903150E+03
        33   8  2.423456E+06  1.381030E+06  4.426234E+04  1.779441E+06 -8.304222E+03 -2.454495E+03
        33   9  2.424048E+06  1.345428E+06  4.196532E+04  1.762836E+06 -6.771343E+03 -2.504700E+03
        33  10  2.145144E+06  1.144609E+06 -6.279077E+04  1.629088E+06 -4.305745E-11 -1.454098E-09
        33  11  2.146807E+06  1.184248E+06 -4.922399E+04  1.642673E+06 -2.197983E-09  2.188461E-10
        33  12  2.186560E+06  1.178227E+06 -3.810371E+04  1.646252E+06  7.469977E-10  7.726918E-10
        33  13  2.303062E+06  1.257812E+06 -9.233249E+03  1.707553E+06 -1.858765E-09 -6.370442E-10
        33  14  2.285121E+06  1.282634E+06 -2.479606E+03  1.711048E+06  3.709429E-10 -1.920268E-10
        33  15  2.305297E+06  1.261824E+06  1.931677E+03  1.704537E+06 -3.631001E-09  7.683683E-10
        33  16  2.461006E+06  1.371027E+06  4.432079E+04  1.786040E+06 -3.053367E-09 -9.401007E-10
        33  17  2.423456E+06  1.381030E+06  4.426220E+04  1.779441E+06 -2.690760E-09  1.734479E-10
        33  18  2.424048E+06  1.345428E+06  4.196523E+04  1.762836E+06 -9.411175E-10 -7.422961E-10
        33  19  2.145144E+06  1.144609E+06 -6.279058E+04  1.629088E+06  9.452089E+03  2.893404E+03
        33  20  2.146807E+06  1.184248E+06 -4.922386E+04  1.642673E+06  8.051878E+03  2.265705E+03
        33  21  2.186560E+06  1.178227E+06 -3.810363E+04  1.646252E+06  6.279214E+03  2.136923E+03
        33  22  2.303062E+06  1.257812E+06 -9.233066E+03  1.707553E+06  9.458463E+03  2.898277E+03
        33  23  2.285122E+06  1.282634E+06 -2.479470E+03  1.711048E+06  8.178031E+03  2.360086E+03
        33  24  2.305297E+06  1.261824E+06  1.931767E+03  1.704537E+06  6.525246E+03  2.320787E+03
        33  25  2.461006E+06  1.371027E+06  4.432098E+04  1.786040E+06  9.464840E+03  2.903150E+03
        33  26  2.423456E+06  1.381030E+06  4.426234E+04  1.779441E+06  8.304222E+03  2.454495E+03
        33  27  2.424048E+06  1.345428E+06  4.196532E+04  1.762836E+06  6.771343E+03  2.504700E+03
        34   1  2.256221E+06  1.229311E+06 -1.179562E+04  1.683230E+06 -6.430541E+03 -3.034038E+03
        34   2  2.255494E+06  1.257587E+06 -4.151937E+02  1.696080E+06 -9.950818E+03 -6.643474E+03
        34   3  2.293835E+06  1.256736E+06  1.605378E+04  1.696276E+06 -1.348441E+04 -1.023555E+04
        34   4  2.303726E+06  1.262291E+06  4.038339E+03  1.706350E+06 -6.584495E+03 -3.149054E+03
        34   5  2.285444E+06  1.279107E+06  9.751809E+03  1.710986E+06 -1.010075E+04 -6.755474E+03
        34   6  2.306230E+06  1.266797E+06  2.055041E+04  1.702967E+06 -1.363016E+04 -1.034443E+04
        34   7  2.351233E+06  1.295271E+06  1.987195E+04  1.729473E+06 -6.738464E+03 -3.264081E+03
        34   8  2.315396E+06  1.300628E+06  1.991867E+04  1.725892E+06 -1.025068E+04 -6.867482E+03
        34   9  2.318624E+06  1.276858E+06  2.504703E+04  1.709658E+06 -1.377592E+04 -1.045332E+04
        34  10  2.256221E+06  1.229311E+06 -1.179572E+04  1.683230E+06 -4.983158E-10 -7.522949E-10
        34  11  2.255494E+06  1.257587E+06 -4.154612E+02  1.696080E+06  2.205982E-09 -8.707628E-10
        34  12  2.293835E+06  1.256736E+06  1.605324E+04  1.696276E+06 -2.362167E-09 -7.056948E-10
        34  13  2.303726E+06  1.262291E+06  4.038239E+03  1.706350E+06 -3.983914E-09 -6.559391E-10
        34  14  2.285444E+06  1.279107E+06  9.751533E+03  1.710986E+06 -5.926384E-09 -7.211206E-10
        34  15  2.306230E+06  1.266797E+06  2.054987E+04  1.702967E+06  2.592194E-10 -5.793323E-10
        34  16  2.351233E+06  1.295271E+06  1.987185E+04  1.729473E+06 -2.830059E-09 -2.685050E-10
        34  17  2.315395E+06  1.300628E+06  1.991839E+04  1.725892E+06 -3.382858E-09 -1.384338E-09
        34  18  2.318624E+06  1.276857E+06  2.504647E+04  1.709658E+06 -7.342597E-10 -5.081598E-10
        34  19  2.256221E+06  1.229311E+06 -1.179562E+04  1.683230E+06  6.430541E+03  3.034038E+03
        34  20  2.255494E+06  1.257587E+06 -4.151937E+02  1.696080E+06  9.950818E+03  6.643474E+03
        34  21  2.293835E+06  1.256736E+06  1.605378E+04  1.696276E+06  1.348441E+04  1.023555E+04
        34  22  2.303726E+06  1.262291E+06  4.038339E+03  1.706350E+06  6.584495E+03  3.149054E+03
        34  23  2.285444E+06  1.279107E+06  9.751809E+03  1.710986E+06  1.010075E+04  6.755474E+03
        34  24  2.306230E+06  1.266797E+06  2.055041E+04  1.702967E+06  1.363016E+04  1.034443E+04
        34  25  2.351233E+06  1.295271E+06  1.987195E+04  1.729473E+06  6.738464E+03  3.264081E+03
        34  26  2.315396E+06  1.300628E+06  1.991867E+04  1.725892E+06  1.025068E+04  6.867482E+03
        34  27  2.318624E+06  1.276858E+06  2.504703E+04  1.709658E+06  1.377592E+04  1.045332E+04
        35   1  2.356240E+06  1.303892E+06  4.430271E+04  1.735578E+06 -1.645779E+04 -1.315993E+04
        35   2  2.352153E+06  1.321797E+06  6.722741E+04  1.747641E+06 -3.411563E+04 -2.744635E+04
        35   3  2.417301E+06  1.347925E+06  1.197736E+05  1.728925E+06 -5.206043E+04 -4.135028E+04
        35   4  2.306009E+06  1.262681E+06  2.617705E+04  1.708225E+06 -1.667212E+04 -1.331988E+04
        35   5  2.279328E+06  1.272815E+06  4.317955E+04  1.712938E+06 -3.423497E+04 -2.753568E+04
        35   6  2.321866E+06  1.291156E+06  8.972562E+04  1.686871E+06 -5.208385E+04 -4.136869E+04
        35   7  2.255780E+06  1.221472E+06  8.050955E+03  1.680875E+06 -1.688642E+04 -1.347980E+04
        35   8  2.206508E+06  1.223836E+06  1.913099E+04  1.678240E+06 -3.435430E+04 -2.762499E+04
        35   9  2.226440E+06  1.234391E+06  5.967664E+04  1.644824E+06 -5.210727E+04 -4.138710E+04
        35  10  2.356240E+06  1.303892E+06  4.430188E+04  1.735578E+06 -2.384836E-10  4.195177E-10
        35  11  2.352152E+06  1.321796E+06  6.722383E+04  1.747641E+06  7.636983E-10 -1.270213E-09
        35  12  2.417298E+06  1.347923E+06  1.197653E+05  1.728923E+06 -8.021089E-10 -3.452256E-09
        35  13  2.306009E+06  1.262681E+06  2.617620E+04  1.708225E+06  2.192050E-09  4.932894E-10
        35  14  2.279326E+06  1.272814E+06  4.317594E+04  1.712938E+06 -8.005108E-09 -9.800854E-10
        35  15  2.321862E+06  1.291154E+06  8.971735E+04  1.686869E+06  1.772057E-10 -1.715134E-09
        35  16  2.255780E+06  1.221472E+06  8.050082E+03  1.680874E+06 -1.794129E-09 -7.595257E-10
        35  17  2.206507E+06  1.223835E+06  1.912736E+04  1.678239E+06 -2.860350E-11 -9.799696E-10
        35  18  2.226437E+06  1.234388E+06  5.966837E+04  1.644822E+06 -4.881665E-10 -4.394728E-10
        35  19  2.356240E+06  1.303892E+06  4.430271E+04  1.735578E+06  1.645779E+04  1.315993E+04
        35  20  2.352153E+06  1.321797E+06  6.722741E+04  1.747641E+06  3.411563E+04  2.744635E+04
        35  21  2.417301E+06  1.347925E+06  1.197736E+05  1.728925E+06  5.206043E+04  4.135028E+04
        35  22  2.306009E+06  1.262681E+06  2.617705E+04  1.708225E+06  1.667212E+04  1.331988E+04
        35  23  2.279328E+06  1.272815E+06  4.317955E+04  1.712938E+06  3.423497E+04  2.753568E+04
        35  24  2.321866E+06  1.291156E+06  8.972562E+04  1.686871E+06  5.208385E+04  4.136869E+04
        35  25  2.255780E+06  1.221472E+06  8.050955E+03  1.680875E+06  1.688642E+04  1.347980E+04
        35  26  2.206508E+06  1.223836E+06  1.913099E+04  1.678240E+06  3.435430E+04  2.762499E+04
        35  27  2.226440E+06  1.234391E+06  5.967664E+04  1.644824E+06  5.210727E+04  4.138710E+04
        36   1  2.462624E+06  1.402719E+06  1.649979E+05  1.811566E+06 -6.496007E+04 -5.254121E+04
        36   2  2.440133E+06  1.351672E+06  2.310609E+05  1.816848E+06 -1.381150E+05 -1.090063E+05
        36   3  2.689342E+06  1.564760E+06  4.618350E+05  1.663562E+06 -2.138140E+05 -1.620757E+05
        36   4  2.318833E+06  1.262126E+06  1.087890E+05  1.722807E+06 -6.562896E+04 -5.303734E+04
        36   5  2.238838E+06  1.229923E+06  1.673510E+05  1.727196E+06 -1.379355E+05 -1.088766E+05
        36   6  2.430420E+06  1.461750E+06  3.899461E+05  1.572998E+06 -2.127763E+05 -1.613255E+05
        36   7  2.175065E+06  1.121558E+06  5.257651E+04  1.634075E+06 -6.629763E+04 -5.353323E+04
        36   8  2.037586E+06  1.108187E+06  1.036362E+05  1.637573E+06 -1.377560E+05 -1.087470E+05
        36   9  2.171572E+06  1.358749E+06  3.180520E+05  1.482464E+06 -2.117392E+05 -1.605755E+05
        36  10  2.462619E+06  1.402715E+06  1.649848E+05  1.811563E+06 -7.979235E-10 -2.475149E-09
        36  11  2.440110E+06  1.351655E+06  2.310031E+05  1.816836E+06  2.628054E-09 -9.396107E-10
        36  12  2.689286E+06  1.564720E+06  4.617005E+05  1.663534E+06  2.783627E-09 -5.316287E-10
        36  13  2.318828E+06  1.262122E+06  1.087757E+05  1.722804E+06  2.406568E-09 -6.506115E-10
        36  14  2.238815E+06  1.229905E+06  1.672933E+05  1.727184E+06 -4.263218E-11 -8.004733E-10
        36  15  2.430365E+06  1.461710E+06  3.898128E+05  1.572970E+06 -2.323682E-09 -2.977677E-11
        36  16  2.175059E+06  1.121554E+06  5.256294E+04  1.634072E+06  1.457720E-09  3.157662E-10
        36  17  2.037562E+06  1.108169E+06  1.035786E+05  1.637561E+06 -1.303914E-09 -1.594875E-09
        36  18  2.171518E+06  1.358709E+06  3.179200E+05  1.482437E+06 -8.785062E-10 -3.817262E-10
        36  19  2.462624E+06  1.402719E+06  1.649979E+05  1.811566E+06  6.496007E+04  5.254121E+04
        36  20  2.440133E+06  1.351672E+06  2.310609E+05  1.816848E+06  1.381150E+05  1.090063E+05
        36  21  2.689342E+06  1.564760E+06  4.618350E+05  1.663562E+06  2.138140E+05  1.620757E+05
        36  22  2.318833E+06  1.262126E+06  1.087890E+05  1.722807E+06  6.562896E+04  5.303734E+04
        36  23  2.238838E+06  1.229923E+06  1.673510E+05  1.727196E+06  1.379355E+05  1.088766E+05
        36  24  2.430420E+06  1.461750E+06  3.899461E+05  1.572998E+06  2.127763E+05  1.613255E+05
        36  25  2.175065E+06  1.121558E+06  5.257651E+04  1.634075E+06  6.629763E+04  5.353323E+04
        36  26  2.037586E+06  1.108187E+06  1.036362E+05  1.637573E+06  1.377560E+05  1.087470E+05
        36  27  2.171572E+06  1.358749E+06  3.180520E+05  1.482464E+06  2.117392E+05  1.605755E+05
        37   1  4.349984E+06  2.762203E+05  3.593351E+05  4.546362E+04  2.428958E+05  1.766938E+01
        37   2  4.296495E+06 -5.997469E+04  1.567878E+05  1.181129E+04  1.574109E+05  2.975016E+00
        37   3  4.350588E+06 -9.430538E+03  1.063214E+05 -2.183899E+04  7.192228E+04 -2.513144E+00
        37   4  4.349982E+06  2.762164E+05  3.593345E+05 -3.040479E-08  2.428958E+05 -5.977101E-10
        37   5  4.296495E+06 -5.997495E+04  1.567878E+05 -1.802969E-08  1.574109E+05 -2.862559E-10
        37   6  4.350587E+06 -9.431428E+03  1.063213E+05 -1.752322E-08  7.192228E+04  6.133134E-10
        37   7  4.349984E+06  2.762203E+05  3.593351E+05 -4.546362E+04  2.428958E+05 -1.766938E+01
        37   8  4.296495E+06 -5.997469E+04  1.567878E+05 -1.181129E+04  1.574109E+05 -2.975016E+00
        37   9  4.350588E+06 -9.430538E+03  1.063214E+05  2.183899E+04  7.192228E+04  2.513144E+00
        37  10  4.349921E+06  2.762046E+05  3.592250E+05  4.546362E+04 -1.314838E-09 -9.267519E-10
        37  11  4.296469E+06 -5.998129E+04  1.567416E+05  1.181129E+04 -2.034913E-09 -6.136694E-10
        37  12  4.350582E+06 -9.431915E+03  1.063117E+05 -2.183899E+04  1.213432E-09  1.096108E-10
        37  13  4.349919E+06  2.762007E+05  3.592244E+05  3.001491E-08 -8.088538E-10 -5.918435E-11
        37  14  4.296468E+06 -5.998155E+04  1.567416E+05  1.217009E-08  2.237342E-09 -2.171100E-10
        37  15  4.350582E+06 -9.432805E+03  1.063116E+05  2.022743E-08 -2.802106E-10 -4.891057E-10
        37  16  4.349921E+06  2.762046E+05  3.592250E+05 -4.546362E+04 -1.666207E-09 -2.666220E-10
        37  17  4.296469E+06 -5.998129E+04  1.567416E+05 -1.181129E+04  4.769407E-09  3.434436E-10
        37  18  4.350582E+06 -9.431915E+03  1.063117E+05  2.183899E+04 -1.046766E-09 -8.166961E-10
        37  19  4.349984E+06  2.762203E+05  3.593351E+05  4.546362E+04 -2.428958E+05 -1.766938E+01
        37  20  4.296495E+06 -5.997469E+04  1.567878E+05  1.181129E+04 -1.574109E+05 -2.975016E+00
        37  21  4.350588E+06 -9.430538E+03  1.063214E+05 -2.183899E+04 -7.192228E+04  2.513144E+00
        37  22  4.349982E+06  2.762164E+05  3.593345E+05 -3.904051E-08 -2.428958E+05  4.938357E-10
        37  23  4.296495E+06 -5.997495E+04  1.567878E+05 -9.406219E-09 -1.574109E+05 -4.731114E-10
        37  24  4.350587E+06 -9.431428E+03  1.063213E+05 -1.753373E-08 -7.192228E+04 -1.272803E-09
        37  25  4.349984E+06  2.762203E+05  3.593351E+05 -4.546362E+04 -2.428958E+05  1.766938E+01
        37  26  4.296495E+06 -5.997469E+04  1.567878E+05 -1.181129E+04 -1.574109E+05  2.975016E+00
        37  27  4.350588E+06 -9.430538E+03  1.063214E+05  2.183899E+04 -7.192228E+04 -2.513144E+00
        38   1  4.330982E+06  3.906022E+04  9.081864E+04  6.767589E+03  5.419356E+04  5.868363E-01
        38   2  4.321002E+06 -1.022754E+04  5.397168E+04  1.255928E+03  2.614312E+04  5.253657E-02
        38   3  4.331064E+06  6.252175E+03  5.173714E+04 -4.255710E+03 -1.907163E+03  1.298653E-02
        38   4  4.330982E+06  3.906013E+04  9.081862E+04 -1.128930E-08  5.419356E+04  7.102918E-10
        38   5  4.321002E+06 -1.022754E+04  5.397168E+04  5.256343E-08  2.614312E+04  6.375283E-11
        38   6  4.331064E+06  6.252141E+03  5.173713E+04 -4.863238E-08 -1.907163E+03 -1.227912E-09
        38   7  4.330982E+06  3.906022E+04  9.081864E+04 -6.767589E+03  5.419356E+04 -5.868363E-01
        38   8  4.321002E+06 -1.022754E+04  5.397168E+04 -1.255928E+03  2.614312E+04 -5.253657E-02
        38   9  4.331064E+06  6.252175E+03  5.173714E+04  4.255710E+03 -1.907163E+03 -1.298653E-02
        38  10  4.330979E+06  3.905943E+04  9.081316E+04  6.767589E+03  1.737584E-09 -5.373926E-10
        38  11  4.321002E+06 -1.022772E+04  5.397041E+04  1.255928E+03  1.339453E-09 -3.337058E-11
        38  12  4.331064E+06  6.252174E+03  5.173713E+04 -4.255710E+03  1.692660E-10 -8.400456E-10
        38  13  4.330979E+06  3.905935E+04  9.081314E+04  5.998531E-09  3.679644E-10 -4.545336E-11
        38  14  4.321002E+06 -1.022772E+04  5.397041E+04  3.530245E-08 -3.004136E-10  2.856548E-10
        38  15  4.331064E+06  6.252140E+03  5.173713E+04 -1.523822E-08  2.411232E-09 -4.523053E-10
        38  16  4.330979E+06  3.905943E+04  9.081316E+04 -6.767589E+03 -2.209497E-09  4.551645E-10
        38  17  4.321002E+06 -1.022772E+04  5.397041E+04 -1.255928E+03 -4.480986E-09  8.877292E-10
        38  18  4.331064E+06  6.252174E+03  5.173713E+04  4.255710E+03  8.854167E-11 -1.142863E-09
        38  19  4.330982E+06  3.906022E+04  9.081864E+04  6.767589E+03 -5.419356E+04 -5.868363E-01
        38  20  4.321002E+06 -1.022754E+04  5.397168E+04  1.255928E+03 -2.614312E+04 -5.253657E-02
        38  21  4.331064E+06  6.252175E+03  5.173714E+04 -4.255710E+03  1.907163E+03 -1.298653E-02
        38  22  4.330982E+06  3.906013E+04  9.081862E+04 -2.848955E-08 -5.419356E+04 -1.124819E-09
        38  23  4.321002E+06 -1.022754E+04  5.397168E+04 -2.080210E-08 -2.614312E+04  7.651249E-10
        38  24  4.331064E+06  6.252141E+03  5.173713E+04 -4.009672E-08  1.907163E+03  3.189660E-11
        38  25  4.330982E+06  3.906022E+04  9.081864E+04 -6.767589E+03 -5.419356E+04  5.868363E-01
        38  26  4.321002E+06 -1.022754E+04  5.397168E+04 -1.255928E+03 -2.614312E+04  5.253658E-02
        38  27  4.331064E+06  6.252175E+03  5.173714E+04  4.255710E+03  1.907163E+03  1.298653E-02
        39   1  4.332259E+06  3.536042E+03  5.368357E+04  5.184386E+03 -1.142786E+04 -9.479699E-02
        39   2  4.319501E+06 -1.305908E+04  6.555224E+04 -1.881292E+03 -4.558031E+04  1.372063E-01
        39   3  4.332125E+06  5.434413E+04  1.205452E+05 -8.946887E+03 -7.973265E+04  1.141416E+00
        39   4  4.332259E+06  3.535992E+03  5.368356E+04 -7.689137E-08 -1.142786E+04 -9.824323E-10
        39   5  4.319501E+06 -1.305909E+04  6.555223E+04 -3.204669E-09 -4.558031E+04 -4.517776E-11
        39   6  4.332125E+06  5.434398E+04  1.205452E+05 -3.739259E-08 -7.973265E+04 -4.953980E-10
        39   7  4.332259E+06  3.536042E+03  5.368357E+04 -5.184386E+03 -1.142786E+04  9.479699E-02
        39   8  4.319501E+06 -1.305908E+04  6.555224E+04  1.881292E+03 -4.558031E+04 -1.372063E-01
        39   9  4.332125E+06  5.434413E+04  1.205452E+05  8.946887E+03 -7.973265E+04 -1.141416E+00
        39  10  4.332259E+06  3.536007E+03  5.368333E+04  5.184386E+03 -1.616612E-09 -8.349255E-10
        39  11  4.319499E+06 -1.305963E+04  6.554836E+04 -1.881292E+03  4.575198E-09 -6.430696E-10
        39  12  4.332118E+06  5.434243E+04  1.205333E+05 -8.946887E+03  1.081578E-09 -1.618289E-10
        39  13  4.332259E+06  3.535957E+03  5.368332E+04 -3.376358E-08  1.281534E-09 -8.689081E-10
        39  14  4.319499E+06 -1.305964E+04  6.554836E+04 -2.477546E-08 -3.174167E-09 -2.617684E-10
        39  15  4.332118E+06  5.434229E+04  1.205333E+05 -2.660630E-08  6.367043E-10 -1.486196E-10
        39  16  4.332259E+06  3.536007E+03  5.368333E+04 -5.184386E+03  2.661733E-09 -1.039473E-09
        39  17  4.319499E+06 -1.305963E+04  6.554836E+04  1.881292E+03 -1.595507E-09 -9.545328E-10
        39  18  4.332118E+06  5.434243E+04  1.205333E+05  8.946887E+03 -1.557686E-09  5.951875E-10
        39  19  4.332259E+06  3.536042E+03  5.368357E+04  5.184386E+03  1.142786E+04  9.479699E-02
        39  20  4.319501E+06 -1.305908E+04  6.555224E+04 -1.881292E+03  4.558031E+04 -1.372063E-01
        39  21  4.332125E+06  5.434413E+04  1.205452E+05 -8.946887E+03  7.973265E+04 -1.141416E+00
        39  22  4.332259E+06  3.535992E+03  5.368356E+04 -5.965441E-08  1.142786E+04 -9.652815E-10
        39  23  4.319501E+06 -1.305909E+04  6.555223E+04 -3.771375E-08  4.558031E+04 -1.022809E-09
        39  24  4.332125E+06  5.434398E+04  1.205452E+05 -6.434258E-08  7.973265E+04  3.192656E-10
        39  25  4.332259E+06  3.536042E+03  5.368357E+04 -5.184386E+03  1.142786E+04 -9.479699E-02
        39  26  4.319501E+06 -1.305908E+04  6.555224E+04  1.881292E+03  4.558031E+04  1.372063E-01
        39  27  4.332125E+06  5.434413E+04  1.205452E+05  8.946887E+03  7.973265E+04  1.141416E+00
        40   1  4.359766E+06 -1.379216E+04  1.433613E+05  3.020458E+04 -1.034633E+05 -5.000063E+00
        40   2  4.284948E+06 -8.300227E+04  2.156075E+05 -1.637767E+04 -2.210712E+05  5.793626E+00
        40   3  4.358937E+06  3.830443E+05  4.978904E+05 -6.296548E+04 -3.386763E+05  3.412131E+01
        40   4  4.359765E+06 -1.379386E+04  1.433611E+05 -1.316743E-08 -1.034633E+05 -1.148980E-09
        40   5  4.284948E+06 -8.300277E+04  2.156074E+05  2.476822E-08 -2.210712E+05 -2.327907E-09
        40   6  4.358932E+06  3.830369E+05  4.978893E+05 -3.007820E-08 -3.386763E+05  6.794243E-10
        40   7  4.359766E+06 -1.379216E+04  1.433613E+05 -3.020458E+04 -1.034633E+05  5.000063E+00
        40   8  4.284948E+06 -8.300227E+04  2.156075E+05  1.637767E+04 -2.210712E+05 -5.793626E+00
        40   9  4.358937E+06  3.830443E+05  4.978904E+05  6.296548E+04 -3.386763E+05 -3.412131E+01
        40  10  4.359755E+06 -1.379501E+04  1.433414E+05  3.020458E+04  2.778826E-09 -4.917660E-10
        40  11  4.284896E+06 -8.301528E+04  2.155163E+05 -1.637767E+04  9.643744E-10 -8.903218E-10
        40  12  4.358814E+06  3.830138E+05  4.976763E+05 -6.296548E+04 -1.158164E-09 -3.119033E-10
        40  13  4.359754E+06 -1.379671E+04  1.433411E+05  1.270645E-08 -4.513952E-10 -3.371459E-10
        40  14  4.284896E+06 -8.301578E+04  2.155162E+05  2.908140E-08  1.227658E-09 -9.103426E-10
        40  15  4.358810E+06  3.830064E+05  4.976753E+05  6.626179E-09  1.325123E-09 -2.703383E-10
        40  16  4.359755E+06 -1.379501E+04  1.433414E+05 -3.020458E+04 -6.141154E-10 -5.501156E-11
        40  17  4.284896E+06 -8.301528E+04  2.155163E+05  1.637767E+04 -2.660486E-09 -7.187926E-10
        40  18  4.358814E+06  3.830138E+05  4.976763E+05  6.296548E+04 -1.022279E-09 -6.989233E-10
        40  19  4.359766E+06 -1.379216E+04  1.433613E+05  3.020458E+04  1.034633E+05  5.000063E+00
        40  20  4.284948E+06 -8.300227E+04  2.156075E+05 -1.637767E+04  2.210712E+05 -5.793626E+00
        40  21  4.358937E+06  3.830443E+05  4.978904E+05 -6.296548E+04  3.386763E+05 -3.412131E+01
        40  22  4.359765E+06 -1.379386E+04  1.433611E+05 -5.633583E-08  1.034633E+05  3.853116E-10
        40  23  4.284948E+06 -8.300277E+04  2.156074E+05 -3.563715E-08  2.210712E+05  8.000324E-10
        40  24  4.358932E+06  3.830369E+05  4.978893E+05 -3.976167E-08  3.386763E+05 -1.106635E-09
        40  25  4.359766E+06 -1.379216E+04  1.433613E+05 -3.020458E+04  1.034633E+05 -5.000063E+00
        40  26  4.284948E+06 -8.300227E+04  2.156075E+05  1.637767E+04  2.210712E+05  5.793626E+00
        40  27  4.358937E+06  3.830443E+05  4.978904E+05  6.296548E+04  3.386763E+05  3.412131E+01
        41   1 -8.017404E+05 -2.473276E+06 -1.041910E+06  1.252323E+05 -4.130900E+02 -6.818145E+05
        41   2  1.608167E+05 -2.323308E+06 -4.708848E+05  3.395824E+04 -9.373056E+02 -4.324508E+05
        41   3  2.106493E+03 -2.486411E+06 -3.427473E+05 -6.825568E+04 -1.049666E+03 -1.831052E+05
        41   4 -7.903167E+05 -2.427565E+06 -1.030489E+06 -4.743994E+03 -2.698145E+02 -6.816383E+05
        41   5  1.739791E+05 -2.270646E+06 -4.578219E+05  7.059766E+02 -9.140474E+02 -4.323760E+05
        41   6  1.703869E+04 -2.426779E+06 -3.279548E+05 -4.761945E+03 -1.068460E+03 -1.831292E+05
        41   7 -7.788295E+05 -2.381815E+06 -1.019059E+06 -1.347299E+05 -1.266224E+02 -6.814620E+05
        41   8  1.871454E+05 -2.217980E+06 -4.447587E+05 -3.254911E+04 -8.907989E+02 -4.323013E+05
        41   9  3.198582E+04 -2.367136E+06 -3.131604E+05  5.873792E+04 -1.087257E+03 -1.831532E+05
        41  10 -8.018658E+05 -2.473777E+06 -1.042787E+06  1.252321E+05 -3.076002E-10 -5.409053E-10
        41  11  1.607663E+05 -2.323510E+06 -4.712376E+05  3.395791E+04  1.659708E-09  1.034720E-11
        41  12  2.097443E+03 -2.486447E+06 -3.428105E+05 -6.825584E+04  2.207219E-09  1.059814E-09
        41  13 -7.904421E+05 -2.428065E+06 -1.031365E+06 -4.744144E+03  2.765210E-09  1.998706E-12
        41  14  1.739286E+05 -2.270848E+06 -4.581746E+05  7.056579E+02  1.133705E-09 -7.538146E-11
        41  15  1.702964E+04 -2.426816E+06 -3.280181E+05 -4.762103E+03  5.891053E-09  2.345213E-11
        41  16 -7.789547E+05 -2.382315E+06 -1.019935E+06 -1.347300E+05 -3.074714E-10  4.704206E-10
        41  17  1.870950E+05 -2.218181E+06 -4.451113E+05 -3.254943E+04  1.632152E-09 -1.285995E-10
        41  18  3.197677E+04 -2.367172E+06 -3.132237E+05  5.873776E+04  1.734368E-09 -1.071615E-09
        41  19 -8.017404E+05 -2.473276E+06 -1.041910E+06  1.252323E+05  4.130900E+02  6.818145E+05
        41  20  1.608167E+05 -2.323308E+06 -4.708848E+05  3.395824E+04  9.373056E+02  4.324508E+05
        41  21  2.106493E+03 -2.486411E+06 -3.427473E+05 -6.825568E+04  1.049666E+03  1.831052E+05
        41  22 -7.903167E+05 -2.427565E+06 -1.030489E+06 -4.743994E+03  2.698145E+02  6.816383E+05
        41  23  1.739791E+05 -2.270646E+06 -4.578219E+05  7.059766E+02  9.140474E+02  4.323760E+05
        41  24  1.703869E+04 -2.426779E+06 -3.279548E+05 -4.761945E+03  1.068460E+03  1.831292E+05
        41  25 -7.788295E+05 -2.381815E+06 -1.019059E+06 -1.347299E+05  1.266224E+02  6.814620E+05
        41  26  1.871454E+05 -2.217980E+06 -4.447587E+05 -3.254911E+04  8.907989E+02  4.323013E+05
        41  27  3.198582E+04 -2.367136E+06 -3.131604E+05  5.873792E+04  1.087257E+03  1.831532E+05
        42   1 -1.302331E+05 -2.460406E+06 -3.110670E+05  2.062900E+04 -1.176848E+03 -1.279709E+05
        42   2  2.213549E+04 -2.422831E+06 -2.263611E+05  6.613423E+02 -1.433920E+03 -2.122980E+04
        42   3 -1.113381E+05 -2.470677E+06 -2.827605E+05 -2.733848E+04 -1.353834E+03  8.551102E+04
        42   4 -1.092262E+05 -2.376412E+06 -2.901912E+05 -4.105110E+03 -1.171698E+03 -1.278741E+05
        42   5  4.443218E+04 -2.333698E+06 -2.042400E+05 -8.224970E+01 -1.433872E+03 -2.120259E+04
        42   6 -8.771958E+04 -2.376382E+06 -2.593324E+05 -4.091674E+03 -1.350628E+03  8.546945E+04
        42   7 -8.821744E+04 -2.292410E+06 -2.693155E+05 -2.884258E+04 -1.166558E+03 -1.277772E+05
        42   8  6.672828E+04 -2.244558E+06 -1.821196E+05 -8.259495E+02 -1.433824E+03 -2.117539E+04
        42   9 -6.409974E+04 -2.282079E+06 -2.359048E+05  1.915868E+04 -1.347426E+03  8.542787E+04
        42  10 -1.302375E+05 -2.460423E+06 -3.110979E+05  2.062888E+04  1.481227E-09 -2.963828E-11
        42  11  2.213536E+04 -2.422832E+06 -2.263619E+05  6.613177E+02  2.875221E-10  7.804062E-10
        42  12 -1.113400E+05 -2.470685E+06 -2.827743E+05 -2.733838E+04  1.034332E-09  2.512842E-09
        42  13 -1.092306E+05 -2.376429E+06 -2.902220E+05 -4.105230E+03  9.550774E-10  2.410786E-11
        42  14  4.443206E+04 -2.333699E+06 -2.042409E+05 -8.227421E+01 -4.029725E-10 -7.425001E-11
        42  15 -8.772155E+04 -2.376390E+06 -2.593462E+05 -4.091581E+03  5.551768E-10  1.120401E-10
        42  16 -8.822185E+04 -2.292428E+06 -2.693463E+05 -2.884270E+04  8.078135E-10  1.056437E-10
        42  17  6.672815E+04 -2.244559E+06 -1.821204E+05 -8.259739E+02  8.687472E-10 -9.450910E-10
        42  18 -6.410171E+04 -2.282086E+06 -2.359185E+05  1.915877E+04  3.312421E-09 -2.252643E-09
        42  19 -1.302331E+05 -2.460406E+06 -3.110670E+05  2.062900E+04  1.176848E+03  1.279709E+05
        42  20  2.213549E+04 -2.422831E+06 -2.263611E+05  6.613423E+02  1.433920E+03  2.122980E+04
        42  21 -1.113381E+05 -2.470677E+06 -2.827605E+05 -2.733848E+04  1.353834E+03 -8.551102E+04
        42  22 -1.092262E+05 -2.376412E+06 -2.901912E+05 -4.105110E+03  1.171698E+03  1.278741E+05
        42  23  4.443218E+04 -2.333698E+06 -2.042400E+05 -8.224970E+01  1.433872E+03  2.120259E+04
        42  24 -8.771958E+04 -2.376382E+06 -2.593324E+05 -4.091674E+03  1.350628E+03 -8.546945E+04
        42  25 -8.821744E+04 -2.292410E+06 -2.693155E+05 -2.884258E+04  1.166558E+03  1.277772E+05
        42  26  6.672828E+04 -2.244558E+06 -1.821196E+05 -8.259495E+02  1.433824E+03  2.117539E+04
        42  27 -6.409974E+04 -2.282079E+06 -2.359048E+05  1.915868E+04  1.347426E+03 -8.542787E+04
        43   1 -1.891047E+04 -2.524629E+06 -3.124271E+05  4.922226E+04 -1.609793E+03  1.338902E+05
        43   2  1.148942E+05 -2.398538E+06 -4.091666E+05 -2.830922E+04 -1.755989E+03  3.415122E+05
        43   3 -6.735924E+05 -2.530263E+06 -8.718858E+05 -1.093375E+05 -3.328004E+02  5.491422E+05
        43   4  8.572443E+03 -2.414509E+06 -2.850949E+05 -3.258636E+03 -1.621013E+03  1.341546E+05
        43   5  1.430878E+05 -2.285975E+06 -3.812457E+05 -1.251007E+03 -1.741115E+03  3.414213E+05
        43   6 -6.445609E+05 -2.415164E+06 -8.430853E+05 -2.756360E+03 -2.385685E+02  5.486970E+05
        43   7  3.606484E+04 -2.304372E+06 -2.577621E+05 -5.574888E+04 -1.632276E+03  1.344191E+05
        43   8  1.712832E+05 -2.173399E+06 -3.533253E+05  2.581213E+04 -1.726252E+03  3.413304E+05
        43   9 -6.154876E+05 -2.300028E+06 -8.142797E+05  1.038446E+05 -1.445053E+02  5.482518E+05
        43  10 -1.891531E+04 -2.524649E+06 -3.124609E+05  4.922243E+04  1.959544E-09  1.822900E-09
        43  11  1.148627E+05 -2.398664E+06 -4.093867E+05 -2.830874E+04  1.726615E-09 -9.313862E-10
        43  12 -6.736738E+05 -2.530588E+06 -8.724548E+05 -1.093373E+05  5.405456E-10 -1.440385E-09
        43  13  8.567584E+03 -2.414528E+06 -2.851288E+05 -3.258460E+03 -2.646856E-10  5.204825E-10
        43  14  1.430563E+05 -2.286100E+06 -3.814656E+05 -1.250528E+03 -5.007027E-10 -2.495433E-10
        43  15 -6.446421E+05 -2.415488E+06 -8.436533E+05 -2.756255E+03  1.031099E-09  1.912437E-10
        43  16  3.605996E+04 -2.304391E+06 -2.577961E+05 -5.574870E+04  3.481448E-09 -1.193586E-09
        43  17  1.712518E+05 -2.173524E+06 -3.535451E+05  2.581261E+04  5.101015E-10  3.098137E-10
        43  18 -6.155687E+05 -2.300352E+06 -8.148467E+05  1.038447E+05  4.729478E-11  1.590685E-09
        43  19 -1.891047E+04 -2.524629E+06 -3.124271E+05  4.922226E+04  1.609793E+03 -1.338902E+05
        43  20  1.148942E+05 -2.398538E+06 -4.091666E+05 -2.830922E+04  1.755989E+03 -3.415122E+05
        43  21 -6.735924E+05 -2.530263E+06 -8.718858E+05 -1.093375E+05  3.328004E+02 -5.491422E+05
        43  22  8.572443E+03 -2.414509E+06 -2.850949E+05 -3.258636E+03  1.621013E+03 -1.341546E+05
        43  23  1.430878E+05 -2.285975E+06 -3.812457E+05 -1.251007E+03  1.741115E+03 -3.414213E+05
        43  24 -6.445609E+05 -2.415164E+06 -8.430853E+05 -2.756360E+03  2.385685E+02 -5.486970E+05
        43  25  3.606484E+04 -2.304372E+06 -2.577621E+05 -5.574888E+04  1.632276E+03 -1.344191E+05
        43  26  1.712832E+05 -2.173399E+06 -3.533253E+05  2.581213E+04  1.726252E+03 -3.413304E+05
        43  27 -6.154876E+05 -2.300028E+06 -8.142797E+05  1.038446E+05  1.445053E+02 -5.482518E+05
        44   1  1.238179E+06  6.067538E+05 -1.388708E+05  9.955167E+05 -4.359743E+04 -3.088554E+04
        44   2  1.263878E+06  6.903584E+05 -8.951217E+04  9.809293E+05 -3.028546E+04 -1.762240E+04
        44   3  1.277406E+06  6.816231E+05 -7.266052E+04  9.855087E+05 -1.479011E+04 -7.271770E+03
        44   4  1.413253E+06  7.471427E+05 -7.610937E+04  1.089200E+06 -4.275234E+04 -3.025295E+04
        44   5  1.430208E+06  8.127403E+05 -3.248537E+04  1.064963E+06 -3.013619E+04 -1.751083E+04
        44   6  1.435156E+06  7.861626E+05 -2.075681E+04  1.059889E+06 -1.533726E+04 -7.681473E+03
        44   7  1.588357E+06  8.875529E+05 -1.335284E+04  1.182914E+06 -4.190692E+04 -2.962007E+04
        44   8  1.596567E+06  9.351378E+05  2.453741E+04  1.149021E+06 -2.998687E+04 -1.739922E+04
        44   9  1.592931E+06  8.907129E+05  3.114365E+04  1.134289E+06 -1.588461E+04 -8.091305E+03
        44  10  1.238177E+06  6.067523E+05 -1.388761E+05  9.955157E+05 -2.441260E-10 -8.237409E-10
        44  11  1.263877E+06  6.903579E+05 -8.951447E+04  9.809289E+05 -6.804199E-10 -8.224367E-10
        44  12  1.277406E+06  6.816230E+05 -7.266103E+04  9.855086E+05  9.794368E-10  5.469853E-10
        44  13  1.413250E+06  7.471412E+05 -7.611451E+04  1.089199E+06  2.281221E-09 -1.564468E-10
        44  14  1.430207E+06  8.127398E+05 -3.248764E+04  1.064962E+06  3.789967E-09 -1.084077E-09
        44  15  1.435155E+06  7.861625E+05 -2.075736E+04  1.059888E+06  3.018530E-09  1.113119E-09
        44  16  1.588355E+06  8.875515E+05 -1.335777E+04  1.182913E+06  1.034196E-09 -8.761524E-10
        44  17  1.596566E+06  9.351372E+05  2.453516E+04  1.149021E+06  1.439745E-09 -8.902726E-10
        44  18  1.592931E+06  8.907128E+05  3.114305E+04  1.134289E+06  3.287775E-09  8.427299E-10
        44  19  1.238179E+06  6.067538E+05 -1.388708E+05  9.955167E+05  4.359743E+04  3.088554E+04
        44  20  1.263878E+06  6.903584E+05 -8.951217E+04  9.809293E+05  3.028546E+04  1.762240E+04
        44  21  1.277406E+06  6.816231E+05 -7.266052E+04  9.855087E+05  1.479011E+04  7.271770E+03
        44  22  1.413253E+06  7.471427E+05 -7.610937E+04  1.089200E+06  4.275234E+04  3.025295E+04
        44  23  1.430208E+06  8.127403E+05 -3.248537E+04  1.064963E+06  3.013619E+04  1.751083E+04
        44  24  1.435156E+06  7.861626E+05 -2.075681E+04  1.059889E+06  1.533726E+04  7.681473E+03
        44  25  1.588357E+06  8.875529E+05 -1.335284E+04  1.182914E+06  4.190692E+04  2.962007E+04
        44  26  1.596567E+06  9.351378E+05  2.453741E+04  1.149021E+06  2.998687E+04  1.739922E+04
        44  27  1.592931E+06  8.907129E+05  3.114365E+04  1.134289E+06  1.588461E+04  8.091305E+03
        45   1  1.334930E+06  7.106610E+05 -5.038337E+04  1.018243E+06 -1.206230E+04 -6.424341E+03
        45   2  1.338352E+06  7.404227E+05 -3.656363E+04  1.024395E+06 -8.780707E+03 -4.219492E+03
        45   3  1.361404E+06  7.361173E+05 -2.809335E+04  1.026807E+06 -5.251446E+03 -2.345638E+03
        45   4  1.432728E+06  7.822109E+05 -1.689107E+04  1.067460E+06 -1.206286E+04 -6.424827E+03
        45   5  1.424527E+06  8.021370E+05 -7.324655E+03  1.067152E+06 -8.860282E+03 -4.279089E+03
        45   6  1.435974E+06  7.880145E+05 -3.038429E+03  1.063104E+06 -5.410149E+03 -2.464397E+03
        45   7  1.530536E+06  8.537662E+05  1.659996E+04  1.116685E+06 -1.206341E+04 -6.425313E+03
        45   8  1.510710E+06  8.638552E+05  2.191329E+04  1.109915E+06 -8.939871E+03 -4.338697E+03
        45   9  1.510551E+06  8.399144E+05  2.201567E+04  1.099405E+06 -5.568877E+03 -2.583176E+03
        45  10  1.334930E+06  7.106609E+05 -5.038372E+04  1.018243E+06  1.488321E-09  2.532391E-09
        45  11  1.338352E+06  7.404227E+05 -3.656381E+04  1.024395E+06  4.175170E-09  1.289702E-09
        45  12  1.361404E+06  7.361172E+05 -2.809341E+04  1.026807E+06 -5.628595E-10  7.729672E-10
        45  13  1.432728E+06  7.822108E+05 -1.689142E+04  1.067460E+06  4.297504E-09  1.686495E-09
        45  14  1.424527E+06  8.021370E+05 -7.324836E+03  1.067152E+06 -2.210709E-09  1.564656E-09
        45  15  1.435974E+06  7.880145E+05 -3.038495E+03  1.063104E+06 -1.090009E-09  8.740423E-10
        45  16  1.530536E+06  8.537661E+05  1.659961E+04  1.116685E+06  1.319172E-09  1.344524E-09
        45  17  1.510710E+06  8.638552E+05  2.191310E+04  1.109915E+06  8.595187E-10  5.133933E-10
        45  18  1.510551E+06  8.399144E+05  2.201560E+04  1.099405E+06 -1.847957E-10  1.874844E-10
        45  19  1.334930E+06  7.106610E+05 -5.038337E+04  1.018243E+06  1.206230E+04  6.424341E+03
        45  20  1.338352E+06  7.404227E+05 -3.656363E+04  1.024395E+06  8.780707E+03  4.219492E+03
        45  21  1.361404E+06  7.361173E+05 -2.809335E+04  1.026807E+06  5.251446E+03  2.345638E+03
        45  22  1.432728E+06  7.822109E+05 -1.689107E+04  1.067460E+06  1.206286E+04  6.424827E+03
        45  23  1.424527E+06  8.021370E+05 -7.324655E+03  1.067152E+06  8.860282E+03  4.279089E+03
        45  24  1.435974E+06  7.880145E+05 -3.038429E+03  1.063104E+06  5.410149E+03  2.464397E+03
        45  25  1.530536E+06  8.537662E+05  1.659996E+04  1.116685E+06  1.206341E+04  6.425313E+03
        45  26  1.510710E+06  8.638552E+05  2.191329E+04  1.109915E+06  8.939871E+03  4.338697E+03
        45  27  1.510551E+06  8.399144E+05  2.201567E+04  1.099405E+06  5.568877E+03  2.583176E+03
        46   1  1.407509E+06  7.680067E+05 -1.068649E+04  1.050957E+06 -4.751116E+03 -2.479153E+03
        46   2  1.407498E+06  7.880141E+05 -2.990503E+03  1.059292E+06 -5.485651E+03 -3.671774E+03
        46   3  1.431841E+06  7.862704E+05  6.037801E+03  1.060173E+06 -6.221778E+03 -4.862416E+03
        46   4  1.435274E+06  7.876264E+05 -1.357080E+03  1.064618E+06 -4.850704E+03 -2.553666E+03
        46   5  1.423795E+06  7.997508E+05  2.553271E+03  1.067408E+06 -5.584756E+03 -3.745922E+03
        46   6  1.436669E+06  7.901239E+05  7.795539E+03  1.062744E+06 -6.320375E+03 -4.936181E+03
        46   7  1.463041E+06  8.072466E+05  7.972228E+03  1.078280E+06 -4.950298E+03 -2.628184E+03
        46   8  1.440092E+06  8.114877E+05  8.097016E+03  1.075524E+06 -5.683865E+03 -3.820073E+03
        46   9  1.441496E+06  7.939774E+05  9.553278E+03  1.065314E+06 -6.418974E+03 -5.009946E+03
        46  10  1.407509E+06  7.680067E+05 -1.068655E+04  1.050957E+06 -1.423991E-09  1.147601E-09
        46  11  1.407498E+06  7.880141E+05 -2.990585E+03  1.059292E+06  7.348629E-11  2.901450E-10
        46  12  1.431841E+06  7.862703E+05  6.037684E+03  1.060173E+06  3.607529E-10  6.391725E-10
        46  13  1.435274E+06  7.876264E+05 -1.357136E+03  1.064618E+06  2.005096E-09  2.173159E-10
        46  14  1.423795E+06  7.997508E+05  2.553187E+03  1.067408E+06 -2.021941E-09 -5.103651E-12
        46  15  1.436668E+06  7.901238E+05  7.795418E+03  1.062744E+06 -2.215387E-09  5.207058E-10
        46  16  1.463041E+06  8.072465E+05  7.972169E+03  1.078280E+06  2.018737E-09  5.383105E-10
        46  17  1.440092E+06  8.114877E+05  8.096928E+03  1.075524E+06 -6.609797E-10  1.353479E-09
        46  18  1.441496E+06  7.939773E+05  9.553153E+03  1.065314E+06 -9.593788E-10  8.741957E-11
        46  19  1.407509E+06  7.680067E+05 -1.068649E+04  1.050957E+06  4.751116E+03  2.479153E+03
        46  20  1.407498E+06  7.880141E+05 -2.990503E+03  1.059292E+06  5.485651E+03  3.671774E+03
        46  21  1.431841E+06  7.862704E+05  6.037801E+03  1.060173E+06  6.221778E+03  4.862416E+03
        46  22  1.435274E+06  7.876264E+05 -1.357080E+03  1.064618E+06  4.850704E+03  2.553666E+03
        46  23  1.423795E+06  7.997508E+05  2.553271E+03  1.067408E+06  5.584756E+03  3.745922E+03
        46  24  1.436669E+06  7.901239E+05  7.795539E+03  1.062744E+06  6.320375E+03  4.936181E+03
        46  25  1.463041E+06  8.072466E+05  7.972228E+03  1.078280E+06  4.950298E+03  2.628184E+03
        46  26  1.440092E+06  8.114877E+05  8.097016E+03  1.075524E+06  5.683865E+03  3.820073E+03
        46  27  1.441496E+06  7.939774E+05  9.553278E+03  1.065314E+06  6.418974E+03  5.009946E+03
        47   1  1.474906E+06  8.178392E+05  2.386803E+04  1.085069E+06 -7.260328E+03 -6.116371E+03
        47   2  1.473102E+06  8.328240E+05  3.536405E+04  1.093463E+06 -1.450838E+04 -1.227004E+04
        47   3  1.509275E+06  8.426258E+05  5.933547E+04  1.086295E+06 -2.195722E+04 -1.815546E+04
        47   4  1.436597E+06  7.882699E+05  1.040171E+04  1.065086E+06 -7.404887E+03 -6.224496E+03
        47   5  1.421028E+06  7.969726E+05  1.798413E+04  1.068287E+06 -1.458757E+04 -1.232933E+04
        47   6  1.443424E+06  8.004796E+05  3.798668E+04  1.055928E+06 -2.197083E+04 -1.816582E+04
        47   7  1.398290E+06  7.587016E+05 -3.064780E+03  1.045104E+06 -7.549434E+03 -6.332610E+03
        47   8  1.368957E+06  7.611225E+05  6.038741E+02  1.043114E+06 -1.466675E+04 -1.238862E+04
        47   9  1.377577E+06  7.583351E+05  1.663734E+04  1.025564E+06 -2.198444E+04 -1.817618E+04
        47  10  1.474906E+06  8.178392E+05  2.386786E+04  1.085069E+06 -1.093403E-09  7.199253E-10
        47  11  1.473102E+06  8.328238E+05  3.536337E+04  1.093463E+06 -4.448736E-10  1.597255E-10
        47  12  1.509274E+06  8.426253E+05  5.933396E+04  1.086295E+06 -1.262972E-09 -1.076781E-10
        47  13  1.436597E+06  7.882699E+05  1.040154E+04  1.065085E+06  2.467628E-11  2.055587E-09
        47  14  1.421028E+06  7.969724E+05  1.798345E+04  1.068287E+06 -1.658869E-10  2.605651E-10
        47  15  1.443423E+06  8.004791E+05  3.798516E+04  1.055928E+06 -1.731062E-10  1.488117E-10
        47  16  1.398290E+06  7.587016E+05 -3.064962E+03  1.045103E+06  1.792807E-10  9.835703E-10
        47  17  1.368957E+06  7.611223E+05  6.031838E+02  1.043114E+06  6.083720E-10  1.051099E-09
        47  18  1.377577E+06  7.583346E+05  1.663582E+04  1.025564E+06  1.239573E-09  1.682884E-10
        47  19  1.474906E+06  8.178392E+05  2.386803E+04  1.085069E+06  7.260328E+03  6.116371E+03
        47  20  1.473102E+06  8.328240E+05  3.536405E+04  1.093463E+06  1.450838E+04  1.227004E+04
        47  21  1.509275E+06  8.426258E+05  5.933547E+04  1.086295E+06  2.195722E+04  1.815546E+04
        47  22  1.436597E+06  7.882699E+05  1.040171E+04  1.065086E+06  7.404887E+03  6.224496E+03
        47  23  1.421028E+06  7.969726E+05  1.798413E+04  1.068287E+06  1.458757E+04  1.232933E+04
        47  24  1.443424E+06  8.004796E+05  3.798668E+04  1.055928E+06  2.197083E+04  1.816582E+04
        47  25  1.398290E+06  7.587016E+05 -3.064780E+03  1.045104E+06  7.549434E+03  6.332610E+03
        47  26  1.368957E+06  7.611225E+05  6.038741E+02  1.043114E+06  1.466675E+04  1.238862E+04
        47  27  1.377577E+06  7.583351E+05  1.663734E+04  1.025564E+06  2.198444E+04  1.817618E+04
        48   1  1.545132E+06  8.777324E+05  8.428835E+04  1.129666E+06 -2.709797E+04 -2.300244E+04
        48   2  1.535414E+06  8.632905E+05  1.139061E+05  1.135263E+06 -5.822424E+04 -4.741899E+04
        48   3  1.650222E+06  9.528108E+05  2.138822E+05  1.070777E+06 -9.104140E+04 -6.957934E+04
        48   4  1.442114E+06  7.880995E+05  4.616450E+04  1.071256E+06 -2.753695E+04 -2.333036E+04
        48   5  1.403741E+06  7.786981E+05  7.120086E+04  1.074384E+06 -5.811191E+04 -4.733576E+04
        48   6  1.489793E+06  8.731617E+05  1.661338E+05  1.007421E+06 -9.037572E+04 -6.908545E+04
        48   7  1.339108E+06  6.984757E+05  8.038846E+03  1.012858E+06 -2.797583E+04 -2.365818E+04
        48   8  1.272087E+06  6.941127E+05  2.849341E+04  1.013517E+06 -5.799962E+04 -4.725255E+04
        48   9  1.329392E+06  7.935183E+05  1.183830E+05  9.440814E+05 -8.971027E+04 -6.859167E+04
        48  10  1.545131E+06  8.777316E+05  8.428598E+04  1.129665E+06  1.964402E-10 -3.616064E-10
        48  11  1.535410E+06  8.632872E+05  1.138956E+05  1.135261E+06  2.767839E-09  9.105234E-10
        48  12  1.650211E+06  9.528034E+05  2.138576E+05  1.070772E+06  1.052417E-09  7.543106E-10
        48  13  1.442113E+06  7.880987E+05  4.616206E+04  1.071256E+06  4.295215E-10 -6.342296E-10
        48  14  1.403737E+06  7.786948E+05  7.119034E+04  1.074381E+06 -1.945275E-10  6.050533E-10
        48  15  1.489783E+06  8.731544E+05  1.661095E+05  1.007416E+06  1.016565E-09  3.286199E-10
        48  16  1.339107E+06  6.984749E+05  8.036332E+03  1.012858E+06  1.396391E-09 -1.073873E-10
        48  17  1.272083E+06  6.941095E+05  2.848293E+04  1.013515E+06 -2.895590E-10  2.324366E-10
        48  18  1.329382E+06  7.935111E+05  1.183591E+05  9.440765E+05 -2.215805E-09  4.933810E-11
        48  19  1.545132E+06  8.777324E+05  8.428835E+04  1.129666E+06  2.709797E+04  2.300244E+04
        48  20  1.535414E+06  8.632905E+05  1.139061E+05  1.135263E+06  5.822424E+04  4.741899E+04
        48  21  1.650222E+06  9.528108E+05  2.138822E+05  1.070777E+06  9.104140E+04  6.957934E+04
        48  22  1.442114E+06  7.880995E+05  4.616450E+04  1.071256E+06  2.753695E+04  2.333036E+04
        48  23  1.403741E+06  7.786981E+05  7.120086E+04  1.074384E+06  5.811191E+04  4.733576E+04
        48  24  1.489793E+06  8.731617E+05  1.661338E+05  1.007421E+06  9.037572E+04  6.908545E+04
        48  25  1.339108E+06  6.984757E+05  8.038846E+03  1.012858E+06  2.797583E+04  2.365818E+04
        48  26  1.272087E+06  6.941127E+05  2.849341E+04  1.013517E+06  5.799962E+04  4.725255E+04
        48  27  1.329392E+06  7.935183E+05  1.183830E+05  9.440814E+05  8.971027E+04  6.859167E+04
        49   1  3.095754E+06  1.845511E+05  2.400485E+05  3.033174E+04  1.621040E+05  7.882393E+00
        49   2  3.059936E+06 -4.007779E+04  1.047143E+05  7.879910E+03  1.050249E+05  1.326765E+00
        49   3  3.096041E+06 -6.292784E+03  7.102006E+04 -1.457077E+04  4.794474E+04 -1.119902E+00
        49   4  3.095753E+06  1.845493E+05  2.400483E+05  3.113811E-08  1.621040E+05  9.480031E-11
        49   5  3.059936E+06 -4.007791E+04  1.047143E+05  2.382440E-08  1.050249E+05  1.309982E-09
        49   6  3.096041E+06 -6.293181E+03  7.102000E+04 -1.693606E-08  4.794474E+04 -6.222155E-10
        49   7  3.095754E+06  1.845511E+05  2.400485E+05 -3.033174E+04  1.621040E+05 -7.882393E+00
        49   8  3.059936E+06 -4.007779E+04  1.047143E+05 -7.879910E+03  1.050249E+05 -1.326765E+00
        49   9  3.096041E+06 -6.292784E+03  7.102006E+04  1.457077E+04  4.794474E+04  1.119902E+00
        49  10  3.095726E+06  1.845440E+05  2.399994E+05  3.033174E+04 -1.096456E-10  3.879560E-10
        49  11  3.059924E+06 -4.008074E+04  1.046937E+05  7.879910E+03 -8.364523E-10 -9.321914E-12
        49  12  3.096039E+06 -6.293397E+03  7.101576E+04 -1.457077E+04  4.589503E-11  2.805906E-11
        49  13  3.095725E+06  1.845423E+05  2.399992E+05  3.978404E-08  3.370288E-09  7.900393E-11
        49  14  3.059924E+06 -4.008085E+04  1.046936E+05  1.519801E-08 -3.317616E-11  2.608345E-10
        49  15  3.096039E+06 -6.293794E+03  7.101570E+04  2.079948E-08  2.427489E-09  1.395232E-10
        49  16  3.095726E+06  1.845440E+05  2.399994E+05 -3.033174E+04 -5.139266E-10  4.213392E-10
        49  17  3.059924E+06 -4.008074E+04  1.046937E+05 -7.879910E+03  2.294378E-09  4.077755E-10
        49  18  3.096039E+06 -6.293397E+03  7.101576E+04  1.457077E+04 -3.566273E-10  7.542175E-11
        49  19  3.095754E+06  1.845511E+05  2.400485E+05  3.033174E+04 -1.621040E+05 -7.882393E+00
        49  20  3.059936E+06 -4.007779E+04  1.047143E+05  7.879910E+03 -1.050249E+05 -1.326765E+00
        49  21  3.096041E+06 -6.292784E+03  7.102006E+04 -1.457077E+04 -4.794474E+04  1.119902E+00
        49  22  3.095753E+06  1.845493E+05  2.400483E+05  3.117392E-08 -1.621040E+05  1.533543E-10
        49  23  3.059936E+06 -4.007791E+04  1.047143E+05  1.519545E-08 -1.050249E+05 -8.713177E-10
        49  24  3.096041E+06 -6.293181E+03  7.102000E+04 -1.695083E-08 -4.794474E+04  8.022189E-10
        49  25  3.095754E+06  1.845511E+05  2.400485E+05 -3.033174E+04 -1.621040E+05  7.882393E+00
        49  26  3.059936E+06 -4.007779E+04  1.047143E+05 -7.879910E+03 -1.050249E+05  1.326765E+00
        49  27  3.096041E+06 -6.292784E+03  7.102006E+04  1.457077E+04 -4.794474E+04 -1.119902E+00
        50   1  3.082968E+06  2.609754E+04  6.067513E+04  4.519087E+03  3.611401E+04  2.616328E-01
        50   2  3.076278E+06 -6.843729E+03  3.609037E+04  8.368408E+02  1.736441E+04  2.329546E-02
        50   3  3.083007E+06  4.219935E+03  3.466968E+04 -2.845341E+03 -1.384847E+03  6.316847E-03
        50   4  3.082968E+06  2.609750E+04  6.067512E+04  2.374956E-08  3.611401E+04 -7.755702E-10
        50   5  3.076278E+06 -6.843731E+03  3.609037E+04  7.270339E-09  1.736441E+04 -6.901186E-10
        50   6  3.083007E+06  4.219920E+03  3.466968E+04 -1.458945E-08 -1.384847E+03 -1.152829E-10
        50   7  3.082968E+06  2.609754E+04  6.067513E+04 -4.519087E+03  3.611401E+04 -2.616328E-01
        50   8  3.076278E+06 -6.843729E+03  3.609037E+04 -8.368408E+02  1.736441E+04 -2.329547E-02
        50   9  3.083007E+06  4.219935E+03  3.466968E+04  2.845341E+03 -1.384847E+03 -6.316848E-03
        50  10  3.082966E+06  2.609719E+04  6.067269E+04  4.519087E+03 -8.240346E-10  2.943227E-10
        50  11  3.076278E+06 -6.843810E+03  3.608980E+04  8.368408E+02  1.885512E-09 -8.306384E-10
        50  12  3.083007E+06  4.219934E+03  3.466967E+04 -2.845341E+03  6.695875E-10 -4.163035E-10
        50  13  3.082966E+06  2.609715E+04  6.067268E+04  3.235283E-08 -6.747878E-11 -2.415552E-10
        50  14  3.076278E+06 -6.843811E+03  3.608980E+04 -2.292056E-08  2.695851E-09 -3.313499E-10
        50  15  3.083007E+06  4.219919E+03  3.466967E+04 -1.350061E-08 -2.142193E-09  2.288042E-11
        50  16  3.082966E+06  2.609719E+04  6.067269E+04 -4.519087E+03  1.033785E-09  2.966288E-10
        50  17  3.076278E+06 -6.843810E+03  3.608980E+04 -8.368408E+02 -8.148114E-10  2.776328E-10
        50  18  3.083007E+06  4.219934E+03  3.466967E+04  2.845341E+03  1.832168E-10  8.239388E-12
        50  19  3.082968E+06  2.609754E+04  6.067513E+04  4.519087E+03 -3.611401E+04 -2.616328E-01
        50  20  3.076278E+06 -6.843729E+03  3.609037E+04  8.368408E+02 -1.736441E+04 -2.329547E-02
        50  21  3.083007E+06  4.219935E+03  3.466968E+04 -2.845341E+03  1.384847E+03 -6.316849E-03
        50  22  3.082968E+06  2.609750E+04  6.067512E+04  6.449248E-09 -3.611401E+04  3.249348E-10
        50  23  3.076278E+06 -6.843731E+03  3.609037E+04 -2.723159E-08 -1.736441E+04  5.087948E-11
        50  24  3.083007E+06  4.219920E+03  3.466968E+04 -4.905807E-08  1.384847E+03  2.999285E-10
        50  25  3.082968E+06  2.609754E+04  6.067513E+04 -4.519087E+03 -3.611401E+04  2.616328E-01
        50  26  3.076278E+06 -6.843729E+03  3.609037E+04 -8.368408E+02 -1.736441E+04  2.329547E-02
        50  27  3.083007E+06  4.219935E+03  3.466968E+04  2.845341E+03  1.384847E+03  6.316849E-03
        51   1  3.083827E+06  2.352308E+03  3.600640E+04  3.482810E+03 -7.761492E+03 -4.333500E-02
        51   2  3.075249E+06 -8.790945E+03  4.404521E+04 -1.266352E+03 -3.070108E+04  6.232722E-02
        51   3  3.083762E+06  3.660708E+04  8.110105E+04 -6.015596E+03 -5.364119E+04  5.173009E-01
        51   4  3.083827E+06  2.352285E+03  3.600640E+04 -2.475653E-08 -7.761492E+03  3.560681E-10
        51   5  3.075249E+06 -8.790948E+03  4.404521E+04 -7.634198E-09 -3.070108E+04 -4.700028E-11
        51   6  3.083762E+06  3.660702E+04  8.110104E+04  1.963931E-09 -5.364119E+04  7.104361E-10
        51   7  3.083827E+06  2.352308E+03  3.600640E+04 -3.482810E+03 -7.761492E+03  4.333500E-02
        51   8  3.075249E+06 -8.790945E+03  4.404521E+04  1.266352E+03 -3.070108E+04 -6.232721E-02
        51   9  3.083762E+06  3.660708E+04  8.110105E+04  6.015596E+03 -5.364119E+04 -5.173009E-01
        51  10  3.083827E+06  2.352292E+03  3.600629E+04  3.482810E+03  1.185193E-09  3.349536E-10
        51  11  3.075248E+06 -8.791197E+03  4.404345E+04 -1.266352E+03  1.102849E-09 -3.320961E-10
        51  12  3.083759E+06  3.660632E+04  8.109567E+04 -6.015596E+03 -6.542831E-10  1.060435E-10
        51  13  3.083827E+06  2.352269E+03  3.600628E+04  1.837003E-08  1.145818E-09  3.151722E-11
        51  14  3.075248E+06 -8.791200E+03  4.404345E+04 -3.321084E-09  1.632398E-09 -2.746448E-10
        51  15  3.083759E+06  3.660625E+04  8.109566E+04  2.029727E-08  3.443479E-10 -1.739266E-10
        51  16  3.083827E+06  2.352292E+03  3.600629E+04 -3.482810E+03 -4.961907E-10 -4.036911E-10
        51  17  3.075248E+06 -8.791197E+03  4.404345E+04  1.266352E+03 -2.173758E-09 -2.132578E-10
        51  18  3.083759E+06  3.660632E+04  8.109567E+04  6.015596E+03  3.012450E-10 -4.478447E-11
        51  19  3.083827E+06  2.352308E+03  3.600640E+04  3.482810E+03  7.761492E+03  4.333500E-02
        51  20  3.075249E+06 -8.790945E+03  4.404521E+04 -1.266352E+03  3.070108E+04 -6.232722E-02
        51  21  3.083762E+06  3.660708E+04  8.110105E+04 -6.015596E+03  5.364119E+04 -5.173009E-01
        51  22  3.083827E+06  2.352285E+03  3.600640E+04 -5.927359E-08  7.761492E+03 -1.650739E-10
        51  23  3.075249E+06 -8.790948E+03  4.404521E+04  9.941284E-10  3.070108E+04 -4.843122E-10
        51  24  3.083762E+06  3.660702E+04  8.110104E+04 -6.666740E-09  5.364119E+04 -8.624028E-10
        51  25  3.083827E+06  2.352308E+03  3.600640E+04 -3.482810E+03  7.761492E+03 -4.333500E-02
        51  26  3.075249E+06 -8.790945E+03  4.404521E+04  1.266352E+03  3.070108E+04  6.232721E-02
        51  27  3.083762E+06  3.660708E+04  8.110105E+04  6.015596E+03  5.364119E+04  5.173009E-01
        52   1  3.102353E+06 -9.291102E+03  9.647049E+04  2.031468E+04 -6.958998E+04 -2.266260E+00
        52   2  3.052010E+06 -5.591426E+04  1.451283E+05 -1.101526E+04 -1.487397E+05  2.626688E+00
        52   3  3.101954E+06  2.579986E+05  3.352835E+05 -4.234742E+04 -2.278874E+05  1.547088E+01
        52   4  3.102352E+06 -9.291874E+03  9.647038E+04 -2.742359E-08 -6.958998E+04  7.454349E-10
        52   5  3.052010E+06 -5.591449E+04  1.451283E+05  3.260663E-08 -1.487397E+05 -1.109099E-09
        52   6  3.101952E+06  2.579952E+05  3.352830E+05 -1.626771E-08 -2.278874E+05  2.024973E-09
        52   7  3.102353E+06 -9.291102E+03  9.647049E+04 -2.031468E+04 -6.958998E+04  2.266260E+00
        52   8  3.052010E+06 -5.591426E+04  1.451283E+05  1.101526E+04 -1.487397E+05 -2.626688E+00
        52   9  3.101954E+06  2.579986E+05  3.352835E+05  4.234742E+04 -2.278874E+05 -1.547088E+01
        52  10  3.102348E+06 -9.292394E+03  9.646144E+04  2.031468E+04 -2.212103E-09  1.022552E-09
        52  11  3.051986E+06 -5.592017E+04  1.450869E+05 -1.101526E+04 -1.087201E-09  1.165414E-09
        52  12  3.101898E+06  2.579847E+05  3.351864E+05 -4.234742E+04 -1.456630E-09  3.298849E-10
        52  13  3.102347E+06 -9.293166E+03  9.646133E+04  3.297630E-08 -3.286445E-09  3.718617E-10
        52  14  3.051986E+06 -5.592039E+04  1.450869E+05  1.966724E-08  2.165636E-09  1.079770E-09
        52  15  3.101896E+06  2.579814E+05  3.351859E+05  1.714711E-08  1.828632E-09  4.362934E-10
        52  16  3.102348E+06 -9.292394E+03  9.646144E+04 -2.031468E+04  7.759974E-10  5.745455E-10
        52  17  3.051986E+06 -5.592017E+04  1.450869E+05  1.101526E+04  1.608935E-09  1.263950E-09
        52  18  3.101898E+06  2.579847E+05  3.351864E+05  4.234742E+04  3.329839E-10  1.874822E-10
        52  19  3.102353E+06 -9.291102E+03  9.647049E+04  2.031468E+04  6.958998E+04  2.266260E+00
        52  20  3.052010E+06 -5.591426E+04  1.451283E+05 -1.101526E+04  1.487397E+05 -2.626688E+00
        52  21  3.101954E+06  2.579986E+05  3.352835E+05 -4.234742E+04  2.278874E+05 -1.547088E+01
        52  22  3.102352E+06 -9.291874E+03  9.647038E+04 -1.013542E-08  6.958998E+04  2.247237E-11
        52  23  3.052010E+06 -5.591449E+04  1.451283E+05  6.279288E-08  1.487397E+05  3.203428E-09
        52  24  3.101952E+06  2.579952E+05  3.352830E+05  2.021948E-09  2.278874E+05 -1.162514E-09
        52  25  3.102353E+06 -9.291102E+03  9.647049E+04 -2.031468E+04  6.958998E+04 -2.266260E+00
        52  26  3.052010E+06 -5.591426E+04  1.451283E+05  1.101526E+04  1.487397E+05  2.626688E+00
        52  27  3.101954E+06  2.579986E+05  3.352835E+05  4.234742E+04  2.278874E+05  1.547088E+01
        53   1 -4.959745E+05 -1.280765E+06 -6.538037E+05  7.321903E+04  4.705547E+02 -4.462348E+05
        53   2  1.311661E+05 -1.196794E+06 -2.836639E+05  2.435094E+04  1.296476E+03 -2.829367E+05
        53   3  2.337901E+04 -1.317888E+06 -2.036140E+05 -5.375856E+04  5.377541E+02 -1.196497E+05
        53   4 -5.178281E+05 -1.368092E+06 -6.755918E+05 -1.208212E+04  5.320079E+02 -4.465691E+05
        53   5  1.140451E+05 -1.265372E+06 -3.006338E+05  2.547965E+03  1.306441E+03 -2.829203E+05
        53   6  1.086847E+04 -1.367815E+06 -2.160414E+05 -1.205525E+04  5.296208E+02 -1.192777E+05
        53   7 -5.396548E+05 -1.455395E+06 -6.973765E+05 -9.737124E+04  5.935607E+02 -4.469033E+05
        53   8  9.692552E+04 -1.333944E+06 -3.176038E+05 -1.925259E+04  1.316405E+03 -2.829040E+05
        53   9 -1.635699E+03 -1.417736E+06 -2.284680E+05  2.964470E+04  5.215370E+02 -1.189058E+05
        53  10 -4.960281E+05 -1.280980E+06 -6.541787E+05  7.321921E+04 -7.048975E-10 -1.370160E-11
        53  11  1.311445E+05 -1.196880E+06 -2.838146E+05  2.435123E+04  6.432286E-10 -1.080369E-10
        53  12  2.337515E+04 -1.317903E+06 -2.036410E+05 -5.375851E+04  1.028203E-09 -8.910578E-10
        53  13 -5.178818E+05 -1.368306E+06 -6.759674E+05 -1.208193E+04  8.248973E-10  7.219429E-12
        53  14  1.140235E+05 -1.265458E+06 -3.007846E+05  2.548263E+03  7.897240E-10 -1.607431E-10
        53  15  1.086464E+04 -1.367830E+06 -2.160682E+05 -1.205520E+04 -1.161315E-09 -1.824815E-11
        53  16 -5.397086E+05 -1.455610E+06 -6.977527E+05 -9.737104E+04 -1.674191E-10 -4.236246E-12
        53  17  9.690397E+04 -1.334030E+06 -3.177546E+05 -1.925229E+04  2.610928E-09 -3.656302E-11
        53  18 -1.639506E+03 -1.417751E+06 -2.284946E+05  2.964475E+04  1.739709E-09  7.659277E-10
        53  19 -4.959745E+05 -1.280765E+06 -6.538037E+05  7.321903E+04 -4.705547E+02  4.462348E+05
        53  20  1.311661E+05 -1.196794E+06 -2.836639E+05  2.435094E+04 -1.296476E+03  2.829367E+05
        53  21  2.337901E+04 -1.317888E+06 -2.036140E+05 -5.375856E+04 -5.377541E+02  1.196497E+05
        53  22 -5.178281E+05 -1.368092E+06 -6.755918E+05 -1.208212E+04 -5.320079E+02  4.465691E+05
        53  23  1.140451E+05 -1.265372E+06 -3.006338E+05  2.547965E+03 -1.306441E+03  2.829203E+05
        53  24  1.086847E+04 -1.367815E+06 -2.160414E+05 -1.205525E+04 -5.296208E+02  1.192777E+05
        53  25 -5.396548E+05 -1.455395E+06 -6.973765E+05 -9.737124E+04 -5.935607E+02  4.469033E+05
        53  26  9.692552E+04 -1.333944E+06 -3.176038E+05 -1.925259E+04 -1.316405E+03  2.829040E+05
        53  27 -1.635699E+03 -1.417736E+06 -2.284680E+05  2.964470E+04 -5.215370E+02  1.189058E+05
        54   1 -7.774646E+04 -1.359964E+06 -1.978167E+05  4.265953E+03 -1.693016E+02 -8.294295E+04
        54   2  1.861705E+04 -1.350387E+06 -1.469981E+05  3.058271E+03 -6.992463E+02 -1.179415E+04
        54   3 -7.532278E+04 -1.397690E+06 -1.901328E+05 -2.770066E+04 -1.070623E+03  5.935284E+04
        54   4 -7.147816E+04 -1.334942E+06 -1.915788E+05 -1.214825E+04 -1.671372E+02 -8.280287E+04
        54   5  2.958273E+04 -1.306501E+06 -1.361195E+05  2.631847E+03 -6.992526E+02 -1.168971E+04
        54   6 -5.964748E+04 -1.334932E+06 -1.745852E+05 -1.213966E+04 -1.069133E+03  5.942379E+04
        54   7 -6.520891E+04 -1.309918E+06 -1.853407E+05 -2.856311E+04 -1.649803E+02 -8.266279E+04
        54   8  4.054826E+04 -1.262614E+06 -1.252410E+05  2.205393E+03 -6.992591E+02 -1.158527E+04
        54   9 -4.397156E+04 -1.272171E+06 -1.590377E+05  3.422920E+03 -1.067641E+03  5.949474E+04
        54  10 -7.774831E+04 -1.359971E+06 -1.978297E+05  4.265942E+03  6.122606E-11 -1.929488E-09
        54  11  1.861702E+04 -1.350387E+06 -1.469984E+05  3.058264E+03 -3.078531E-09  5.369118E-10
        54  12 -7.532373E+04 -1.397693E+06 -1.901394E+05 -2.770060E+04  7.091831E-10  1.538505E-09
        54  13 -7.148001E+04 -1.334949E+06 -1.915917E+05 -1.214826E+04  1.450036E-10  5.282519E-11
        54  14  2.958269E+04 -1.306502E+06 -1.361198E+05  2.631840E+03 -3.693338E-10 -1.711416E-10
        54  15 -5.964843E+04 -1.334936E+06 -1.745918E+05 -1.213961E+04  1.485284E-10  2.646589E-11
        54  16 -6.521074E+04 -1.309926E+06 -1.853536E+05 -2.856312E+04  1.280439E-10  1.823936E-09
        54  17  4.054822E+04 -1.262614E+06 -1.252413E+05  2.205386E+03 -1.237478E-09 -7.012454E-10
        54  18 -4.397251E+04 -1.272175E+06 -1.590444E+05  3.422971E+03  2.486731E-11 -1.574235E-09
        54  19 -7.774646E+04 -1.359964E+06 -1.978167E+05  4.265953E+03  1.693016E+02  8.294295E+04
        54  20  1.861705E+04 -1.350387E+06 -1.469981E+05  3.058271E+03  6.992463E+02  1.179415E+04
        54  21 -7.532278E+04 -1.397690E+06 -1.901328E+05 -2.770066E+04  1.070623E+03 -5.935284E+04
        54  22 -7.147816E+04 -1.334942E+06 -1.915788E+05 -1.214825E+04  1.671372E+02  8.280287E+04
        54  23  2.958273E+04 -1.306501E+06 -1.361195E+05  2.631847E+03  6.992526E+02  1.168971E+04
        54  24 -5.964748E+04 -1.334932E+06 -1.745852E+05 -1.213966E+04  1.069133E+03 -5.942379E+04
        54  25 -6.520891E+04 -1.309918E+06 -1.853407E+05 -2.856311E+04  1.649803E+02  8.266279E+04
        54  26  4.054826E+04 -1.262614E+06 -1.252410E+05  2.205393E+03  6.992591E+02  1.158527E+04
        54  27 -4.397156E+04 -1.272171E+06 -1.590377E+05  3.422920E+03  1.067641E+03 -5.949474E+04
        55   1 -2.762314E+04 -1.496378E+06 -2.260300E+05  2.401419E+04 -1.868272E+03  9.175261E+04
        55   2  5.888872E+04 -1.426546E+06 -2.962630E+05 -1.638404E+04 -2.688397E+03  2.328786E+05
        55   3 -4.802600E+05 -1.531496E+06 -6.148628E+05 -8.389951E+04 -9.052766E+02  3.740042E+05
        55   4  6.208150E+03 -1.361043E+06 -1.924310E+05 -1.163883E+04 -1.873553E+03  9.227476E+04
        55   5  9.704209E+04 -1.273843E+06 -2.584489E+05  1.996220E+03 -2.681463E+03  2.328017E+05
        55   6 -4.376082E+05 -1.361282E+06 -5.723730E+05 -1.149465E+04 -8.617920E+02  3.733322E+05
        55   7  4.004285E+04 -1.225688E+06 -1.588326E+05 -4.729964E+04 -1.878893E+03  9.279703E+04
        55   8  1.351950E+05 -1.121118E+06 -2.206363E+05  2.038102E+04 -2.674536E+03  2.327247E+05
        55   9 -3.949388E+05 -1.191030E+06 -5.298826E+05  6.093012E+04 -8.184750E+02  3.726600E+05
        55  10 -2.762541E+04 -1.496387E+06 -2.260459E+05  2.401433E+04  2.123649E-09 -1.450468E-09
        55  11  5.887411E+04 -1.426604E+06 -2.963652E+05 -1.638354E+04  5.022528E-09 -3.881772E-10
        55  12 -4.802977E+05 -1.531647E+06 -6.151263E+05 -8.389924E+04  1.971330E-09  3.503673E-10
        55  13  6.205854E+03 -1.361052E+06 -1.924470E+05 -1.163869E+04 -4.760198E-11  2.022880E-11
        55  14  9.702749E+04 -1.273901E+06 -2.585509E+05  1.996723E+03 -1.342971E-09  2.860777E-10
        55  15 -4.376457E+05 -1.361432E+06 -5.726355E+05 -1.149439E+04  1.298790E-09 -8.340522E-11
        55  16  4.004053E+04 -1.225697E+06 -1.588488E+05 -4.729950E+04 -1.167800E-09  1.476131E-09
        55  17  1.351804E+05 -1.121176E+06 -2.207383E+05  2.038152E+04 -2.373050E-09  4.618437E-10
        55  18 -3.949762E+05 -1.191179E+06 -5.301441E+05  6.093037E+04 -5.290112E-10 -2.247416E-10
        55  19 -2.762314E+04 -1.496378E+06 -2.260300E+05  2.401419E+04  1.868272E+03 -9.175261E+04
        55  20  5.888872E+04 -1.426546E+06 -2.962630E+05 -1.638404E+04  2.688397E+03 -2.328786E+05
        55  21 -4.802600E+05 -1.531496E+06 -6.148628E+05 -8.389951E+04  9.052766E+02 -3.740042E+05
        55  22  6.208150E+03 -1.361043E+06 -1.924310E+05 -1.163883E+04  1.873553E+03 -9.227476E+04
        55  23  9.704209E+04 -1.273843E+06 -2.584489E+05  1.996220E+03  2.681463E+03 -2.328017E+05
        55  24 -4.376082E+05 -1.361282E+06 -5.723730E+05 -1.149465E+04  8.617920E+02 -3.733322E+05
        55  25  4.004285E+04 -1.225688E+06 -1.588326E+05 -4.729964E+04  1.878893E+03 -9.279703E+04
        55  26  1.351950E+05 -1.121118E+06 -2.206363E+05  2.038102E+04  2.674536E+03 -2.327247E+05
        55  27 -3.949388E+05 -1.191030E+06 -5.298826E+05  6.093012E+04  8.184750E+02 -3.726600E+05
        56   1  8.781571E+05  4.244478E+05 -1.138458E+05  7.130913E+05 -4.213268E+04 -3.047273E+04
        56   2  9.036587E+05  4.962878E+05 -6.757069E+04  6.940178E+05 -2.867004E+04 -1.833576E+04
        56   3  9.048097E+05  4.894828E+05 -5.316041E+04  6.973378E+05 -1.385331E+04 -8.004131E+03
        56   4  9.833060E+05  5.148275E+05 -7.492448E+04  7.721173E+05 -4.160770E+04 -3.008006E+04
        56   5  1.006208E+06  5.732853E+05 -3.208688E+04  7.465164E+05 -2.857639E+04 -1.826577E+04
        56   6  1.004860E+06  5.531995E+05 -2.073512E+04  7.433067E+05 -1.419119E+04 -8.257201E+03
        56   7  1.088467E+06  6.052167E+05 -3.600486E+04  8.311556E+05 -4.108260E+04 -2.968728E+04
        56   8  1.108769E+06  6.502893E+05  3.395476E+03  7.990250E+05 -2.848272E+04 -1.819577E+04
        56   9  1.104921E+06  6.169202E+05  1.168899E+04  7.892835E+05 -1.452915E+04 -8.510320E+03
        56  10  8.781549E+05  4.244463E+05 -1.138509E+05  7.130902E+05 -6.688891E-10 -1.333166E-10
        56  11  9.036578E+05  4.962872E+05 -6.757286E+04  6.940174E+05 -2.170746E-09 -1.589505E-10
        56  12  9.048094E+05  4.894827E+05 -5.316089E+04  6.973377E+05  1.475968E-09  7.882405E-10
        56  13  9.833039E+05  5.148260E+05 -7.492942E+04  7.721163E+05 -1.312568E-09 -8.966058E-11
        56  14  1.006207E+06  5.732848E+05 -3.208904E+04  7.465160E+05  1.388990E-09  5.209725E-10
        56  15  1.004860E+06  5.531993E+05 -2.073562E+04  7.433066E+05  2.201839E-09  6.961701E-10
        56  16  1.088465E+06  6.052153E+05 -3.600967E+04  8.311546E+05 -9.638386E-10  3.719147E-10
        56  17  1.108768E+06  6.502888E+05  3.393335E+03  7.990246E+05  1.757140E-09  4.407284E-10
        56  18  1.104920E+06  6.169200E+05  1.168845E+04  7.892834E+05  1.082347E-09  8.426149E-10
        56  19  8.781571E+05  4.244478E+05 -1.138458E+05  7.130913E+05  4.213268E+04  3.047273E+04
        56  20  9.036587E+05  4.962878E+05 -6.757069E+04  6.940178E+05  2.867004E+04  1.833576E+04
        56  21  9.048097E+05  4.894828E+05 -5.316041E+04  6.973378E+05  1.385331E+04  8.004131E+03
        56  22  9.833060E+05  5.148275E+05 -7.492448E+04  7.721173E+05  4.160770E+04  3.008006E+04
        56  23  1.006208E+06  5.732853E+05 -3.208688E+04  7.465164E+05  2.857639E+04  1.826577E+04
        56  24  1.004860E+06  5.531995E+05 -2.073512E+04  7.433067E+05  1.419119E+04  8.257201E+03
        56  25  1.088467E+06  6.052167E+05 -3.600486E+04  8.311556E+05  4.108260E+04  2.968728E+04
        56  26  1.108769E+06  6.502893E+05  3.395476E+03  7.990250E+05  2.848272E+04  1.819577E+04
        56  27  1.104921E+06  6.169202E+05  1.168899E+04  7.892835E+05  1.452915E+04  8.510320E+03
        57   1  9.423049E+05  5.032365E+05 -3.806288E+04  7.195040E+05 -1.112915E+04 -6.700120E+03
        57   2  9.458323E+05  5.249786E+05 -2.626325E+04  7.220952E+05 -7.679263E+03 -4.274902E+03
        57   3  9.594760E+05  5.219358E+05 -2.002741E+04  7.237292E+05 -4.068266E+03 -2.064857E+03
        57   4  1.003217E+06  5.486183E+05 -1.702909E+04  7.505211E+05 -1.112873E+04 -6.699854E+03
        57   5  9.997091E+05  5.637809E+05 -7.929692E+03  7.489162E+05 -7.730172E+03 -4.313053E+03
        57   6  1.006329E+06  5.541707E+05 -4.349024E+03  7.463541E+05 -4.170556E+03 -2.141464E+03
        57   7  1.064133E+06  5.940022E+05  4.004107E+03  7.815415E+05 -1.112831E+04 -6.699588E+03
        57   8  1.053589E+06  6.025849E+05  1.040344E+04  7.757399E+05 -7.781087E+03 -4.351208E+03
        57   9  1.053185E+06  5.864066E+05  1.132906E+04  7.689809E+05 -4.272857E+03 -2.218078E+03
        57  10  9.423048E+05  5.032365E+05 -3.806319E+04  7.195040E+05 -8.281270E-10  1.370913E-09
        57  11  9.458322E+05  5.249785E+05 -2.626340E+04  7.220951E+05 -3.719425E-10  1.025716E-09
        57  12  9.594760E+05  5.219358E+05 -2.002745E+04  7.237292E+05 -1.524582E-11  4.343884E-10
        57  13  1.003217E+06  5.486183E+05 -1.702940E+04  7.505210E+05  2.479344E-09  9.571282E-10
        57  14  9.997090E+05  5.637809E+05 -7.929838E+03  7.489162E+05  1.252704E-09  1.254457E-09
        57  15  1.006329E+06  5.541707E+05 -4.349066E+03  7.463541E+05 -1.035637E-09 -5.145806E-10
        57  16  1.064132E+06  5.940021E+05  4.003791E+03  7.815415E+05  2.105916E-09  6.712959E-10
        57  17  1.053589E+06  6.025848E+05  1.040329E+04  7.757398E+05  9.659976E-10  2.875640E-10
        57  18  1.053185E+06  5.864066E+05  1.132902E+04  7.689809E+05 -1.503773E-09 -2.134650E-10
        57  19  9.423049E+05  5.032365E+05 -3.806288E+04  7.195040E+05  1.112915E+04  6.700120E+03
        57  20  9.458323E+05  5.249786E+05 -2.626325E+04  7.220952E+05  7.679263E+03  4.274902E+03
        57  21  9.594760E+05  5.219358E+05 -2.002741E+04  7.237292E+05  4.068266E+03  2.064857E+03
        57  22  1.003217E+06  5.486183E+05 -1.702909E+04  7.505211E+05  1.112873E+04  6.699854E+03
        57  23  9.997091E+05  5.637809E+05 -7.929692E+03  7.489162E+05  7.730172E+03  4.313053E+03
        57  24  1.006329E+06  5.541707E+05 -4.349024E+03  7.463541E+05  4.170556E+03  2.141464E+03
        57  25  1.064133E+06  5.940022E+05  4.004107E+03  7.815415E+05  1.112831E+04  6.699588E+03
        57  26  1.053589E+06  6.025849E+05  1.040344E+04  7.757399E+05  7.781087E+03  4.351208E+03
        57  27  1.053185E+06  5.864066E+05  1.132906E+04  7.689809E+05  4.272857E+03  2.218078E+03
        58   1  9.898181E+05  5.419965E+05 -8.547787E+03  7.395144E+05 -3.412651E+03 -1.902941E+03
        58   2  9.900733E+05  5.557754E+05 -3.395264E+03  7.448657E+05 -3.039466E+03 -2.043699E+03
        58   3  1.005433E+06  5.540126E+05  1.536059E+03  7.458376E+05 -2.665989E+03 -2.184866E+03
        58   4  1.005971E+06  5.536110E+05 -3.080224E+03  7.475516E+05 -3.477398E+03 -1.951430E+03
        58   5  9.988084E+05  5.620774E+05 -4.198738E+02  7.492193E+05 -3.104292E+03 -2.092245E+03
        58   6  1.006750E+06  5.550022E+05  2.019385E+03  7.465074E+05 -2.730896E+03 -2.233470E+03
        58   7  1.022125E+06  5.652257E+05  2.387316E+03  7.555890E+05 -3.542148E+03 -1.999920E+03
        58   8  1.007544E+06  5.683795E+05  2.555506E+03  7.535729E+05 -3.169118E+03 -2.140791E+03
        58   9  1.008067E+06  5.559919E+05  2.502711E+03  7.471773E+05 -2.795803E+03 -2.282073E+03
        58  10  9.898181E+05  5.419965E+05 -8.547815E+03  7.395144E+05 -4.768989E-10 -4.109621E-10
        58  11  9.900733E+05  5.557754E+05 -3.395289E+03  7.448657E+05  8.517965E-10  8.648214E-11
        58  12  1.005433E+06  5.540126E+05  1.536036E+03  7.458376E+05  7.454868E-10 -5.596062E-10
        58  13  1.005971E+06  5.536110E+05 -3.080254E+03  7.475516E+05 -9.322115E-10 -6.216410E-10
        58  14  9.988084E+05  5.620774E+05 -4.199001E+02  7.492193E+05  2.678196E-09 -7.921908E-10
        58  15  1.006750E+06  5.550022E+05  2.019362E+03  7.465074E+05  7.863361E-10 -2.487473E-10
        58  16  1.022125E+06  5.652257E+05  2.387285E+03  7.555890E+05 -1.398778E-09 -8.565187E-10
        58  17  1.007544E+06  5.683795E+05  2.555478E+03  7.535729E+05 -1.227582E-09 -6.919406E-10
        58  18  1.008067E+06  5.559919E+05  2.502687E+03  7.471773E+05  2.552217E-10 -6.559967E-11
        58  19  9.898181E+05  5.419965E+05 -8.547787E+03  7.395144E+05  3.412651E+03  1.902941E+03
        58  20  9.900733E+05  5.557754E+05 -3.395264E+03  7.448657E+05  3.039466E+03  2.043699E+03
        58  21  1.005433E+06  5.540126E+05  1.536059E+03  7.458376E+05  2.665989E+03  2.184866E+03
        58  22  1.005971E+06  5.536110E+05 -3.080224E+03  7.475516E+05  3.477398E+03  1.951430E+03
        58  23  9.988084E+05  5.620774E+05 -4.198738E+02  7.492193E+05  3.104292E+03  2.092245E+03
        58  24  1.006750E+06  5.550022E+05  2.019385E+03  7.465074E+05  2.730896E+03  2.233470E+03
        58  25  1.022125E+06  5.652257E+05  2.387316E+03  7.555890E+05  3.542148E+03  1.999920E+03
        58  26  1.007544E+06  5.683795E+05  2.555506E+03  7.535729E+05  3.169118E+03  2.140791E+03
        58  27  1.008067E+06  5.559919E+05  2.502711E+03  7.471773E+05  2.795803E+03  2.282073E+03
        59   1  1.034331E+06  5.746889E+05  1.267154E+04  7.614325E+05 -2.855930E+03 -2.642299E+03
        59   2  1.033631E+06  5.861425E+05  1.825948E+04  7.671354E+05 -5.259010E+03 -4.921186E+03
        59   3  1.053610E+06  5.886009E+05  2.823628E+04  7.652031E+05 -7.797833E+03 -7.018899E+03
        59   4  1.006747E+06  5.542449E+05  3.139976E+03  7.474398E+05 -2.951413E+03 -2.713799E+03
        59   5  9.976695E+05  5.609895E+05  6.171680E+03  7.495753E+05 -5.310723E+03 -4.959924E+03
        59   6  1.009260E+06  5.587297E+05  1.355461E+04  7.440754E+05 -7.805733E+03 -7.024845E+03
        59   7  9.791646E+05  5.338013E+05 -6.391699E+03  7.334478E+05 -3.046891E+03 -2.785294E+03
        59   8  9.617090E+05  5.358371E+05 -5.916315E+03  7.320163E+05 -5.362431E+03 -4.998659E+03
        59   9  9.649130E+05  5.288593E+05 -1.127352E+03  7.229494E+05 -7.813632E+03 -7.030789E+03
        59  10  1.034331E+06  5.746889E+05  1.267151E+04  7.614325E+05 -9.467470E-10 -1.037363E-09
        59  11  1.033631E+06  5.861424E+05  1.825938E+04  7.671353E+05 -1.866952E-09 -2.159666E-10
        59  12  1.053610E+06  5.886009E+05  2.823608E+04  7.652030E+05 -1.196626E-09  2.838420E-10
        59  13  1.006747E+06  5.542449E+05  3.139946E+03  7.474398E+05 -7.952760E-10 -1.496623E-10
        59  14  9.976695E+05  5.609894E+05  6.171581E+03  7.495752E+05  2.383062E-10 -9.157308E-10
        59  15  1.009260E+06  5.587296E+05  1.355441E+04  7.440754E+05 -1.332263E-09  1.652227E-10
        59  16  9.791646E+05  5.338013E+05 -6.391731E+03  7.334478E+05  6.420109E-10 -3.616663E-10
        59  17  9.617089E+05  5.358370E+05 -5.916416E+03  7.320163E+05 -1.903086E-09 -3.269801E-10
        59  18  9.649129E+05  5.288592E+05 -1.127559E+03  7.229493E+05 -5.252160E-10 -1.711376E-10
        59  19  1.034331E+06  5.746889E+05  1.267154E+04  7.614325E+05  2.855930E+03  2.642299E+03
        59  20  1.033631E+06  5.861425E+05  1.825948E+04  7.671354E+05  5.259010E+03  4.921186E+03
        59  21  1.053610E+06  5.886009E+05  2.823628E+04  7.652031E+05  7.797833E+03  7.018899E+03
        59  22  1.006747E+06  5.542449E+05  3.139976E+03  7.474398E+05  2.951413E+03  2.713799E+03
        59  23  9.976695E+05  5.609895E+05  6.171680E+03  7.495753E+05  5.310723E+03  4.959924E+03
        59  24  1.009260E+06  5.587297E+05  1.355461E+04  7.440754E+05  7.805733E+03  7.024845E+03
        59  25  9.791646E+05  5.338013E+05 -6.391699E+03  7.334478E+05  3.046891E+03  2.785294E+03
        59  26  9.617090E+05  5.358371E+05 -5.916315E+03  7.320163E+05  5.362431E+03  4.998659E+03
        59  27  9.649130E+05  5.288593E+05 -1.127352E+03  7.229494E+05  7.813632E+03  7.030789E+03
        60   1  1.080577E+06  6.110728E+05  4.203101E+04  7.877290E+05 -9.369819E+03 -8.843196E+03
        60   2  1.076951E+06  6.121718E+05  5.402649E+04  7.926369E+05 -2.061600E+04 -1.797809E+04
        60   3  1.125907E+06  6.434535E+05  9.160773E+04  7.700069E+05 -3.297645E+04 -2.562617E+04
        60   4  1.008883E+06  5.541444E+05  1.656256E+04  7.496072E+05 -9.656743E+03 -9.058064E+03
        60   5  9.912704E+05  5.544849E+05  2.569798E+04  7.518233E+05 -2.054342E+04 -1.792384E+04
        60   6  1.026166E+06  5.849357E+05  6.011142E+04  7.265001E+05 -3.254409E+04 -2.530273E+04
        60   7  9.371941E+05  4.972197E+05 -8.906604E+03  7.114906E+05 -9.943622E+03 -9.272893E+03
        60   8  9.055972E+05  4.968015E+05 -2.631473E+03  7.110158E+05 -2.047086E+04 -1.786960E+04
        60   9  9.264350E+05  5.264211E+05  2.861394E+04  6.830004E+05 -3.211183E+04 -2.497935E+04
        60  10  1.080577E+06  6.110727E+05  4.203070E+04  7.877290E+05  1.142457E-09  5.049615E-10
        60  11  1.076951E+06  6.121713E+05  5.402509E+04  7.926366E+05 -2.387254E-09  3.935333E-10
        60  12  1.125905E+06  6.434525E+05  9.160446E+04  7.700062E+05 -4.579172E-11  2.580264E-10
        60  13  1.008883E+06  5.541443E+05  1.656223E+04  7.496071E+05 -1.504308E-09  7.518291E-10
        60  14  9.912699E+05  5.544845E+05  2.569658E+04  7.518230E+05 -2.740359E-09  6.407182E-10
        60  15  1.026164E+06  5.849348E+05  6.010823E+04  7.264994E+05  8.758825E-10  3.618577E-10
        60  16  9.371940E+05  4.972196E+05 -8.906950E+03  7.114906E+05  1.714700E-10  7.498566E-10
        60  17  9.055967E+05  4.968011E+05 -2.632857E+03  7.110155E+05  2.577011E-10  1.225990E-09
        60  18  9.264338E+05  5.264202E+05  2.861083E+04  6.829997E+05 -5.374964E-10  1.657601E-10
        60  19  1.080577E+06  6.110728E+05  4.203101E+04  7.877290E+05  9.369819E+03  8.843196E+03
        60  20  1.076951E+06  6.121718E+05  5.402649E+04  7.926369E+05  2.061600E+04  1.797809E+04
        60  21  1.125907E+06  6.434535E+05  9.160773E+04  7.700069E+05  3.297645E+04  2.562617E+04
        60  22  1.008883E+06  5.541444E+05  1.656256E+04  7.496072E+05  9.656743E+03  9.058064E+03
        60  23  9.912704E+05  5.544849E+05  2.569798E+04  7.518233E+05  2.054342E+04  1.792384E+04
        60  24  1.026166E+06  5.849357E+05  6.011142E+04  7.265001E+05  3.254409E+04  2.530273E+04
        60  25  9.371941E+05  4.972197E+05 -8.906604E+03  7.114906E+05  9.943622E+03  9.272893E+03
        60  26  9.055972E+05  4.968015E+05 -2.631473E+03  7.110158E+05  2.047086E+04  1.786960E+04
        60  27  9.264350E+05  5.264211E+05  2.861394E+04  6.830004E+05  3.211183E+04  2.497935E+04
        61   1  2.031729E+06  8.958346E+04  1.165776E+05  1.471744E+04  7.833867E+04  1.851312E+00
        61   2  2.014282E+06 -1.948146E+04  5.108737E+04  3.820367E+03  5.050721E+04  3.098391E-01
        61   3  2.031822E+06 -2.944583E+03  3.507558E+04 -7.076274E+03  2.267592E+04 -2.576532E-01
        61   4  2.031729E+06  8.958305E+04  1.165775E+05 -3.066311E-08  7.833867E+04 -7.240773E-10
        61   5  2.014282E+06 -1.948148E+04  5.108737E+04  1.898125E-08  5.050721E+04 -9.724108E-11
        61   6  2.031822E+06 -2.944677E+03  3.507556E+04  2.766812E-08  2.267592E+04  2.105443E-10
        61   7  2.031729E+06  8.958346E+04  1.165776E+05 -1.471744E+04  7.833867E+04 -1.851312E+00
        61   8  2.014282E+06 -1.948146E+04  5.108737E+04 -3.820367E+03  5.050721E+04 -3.098391E-01
        61   9  2.031822E+06 -2.944583E+03  3.507558E+04  7.076274E+03  2.267592E+04  2.576532E-01
        61  10  2.031723E+06  8.958182E+04  1.165661E+05  1.471744E+04  9.647894E-10 -2.902464E-10
        61  11  2.014279E+06 -1.948214E+04  5.108259E+04  3.820366E+03  1.949974E-09 -1.306048E-10
        61  12  2.031821E+06 -2.944721E+03  3.507461E+04 -7.076274E+03  2.372915E-09  7.022976E-10
        61  13  2.031723E+06  8.958141E+04  1.165660E+05 -4.796539E-09  2.513918E-10 -1.050469E-10
        61  14  2.014279E+06 -1.948217E+04  5.108259E+04 -1.550753E-08 -7.253754E-10 -1.371406E-10
        61  15  2.031821E+06 -2.944815E+03  3.507460E+04  1.043063E-08  2.957487E-09  1.326214E-10
        61  16  2.031723E+06  8.958182E+04  1.165661E+05 -1.471744E+04 -4.595463E-10  7.451139E-11
        61  17  2.014279E+06 -1.948214E+04  5.108259E+04 -3.820366E+03 -2.321090E-09 -1.441890E-10
        61  18  2.031821E+06 -2.944721E+03  3.507461E+04  7.076274E+03  3.289073E-10 -3.668082E-10
        61  19  2.031729E+06  8.958346E+04  1.165776E+05  1.471744E+04 -7.833867E+04 -1.851312E+00
        61  20  2.014282E+06 -1.948146E+04  5.108737E+04  3.820367E+03 -5.050721E+04 -3.098391E-01
        61  21  2.031822E+06 -2.944583E+03  3.507558E+04 -7.076274E+03 -2.267592E+04  2.576532E-01
        61  22  2.031729E+06  8.958305E+04  1.165775E+05 -4.791184E-08 -7.833867E+04  6.359642E-10
        61  23  2.014282E+06 -1.948148E+04  5.108737E+04 -4.137438E-08 -5.050721E+04 -2.150500E-10
        61  24  2.031822E+06 -2.944677E+03  3.507556E+04  1.042694E-08 -2.267592E+04  1.419117E-10
        61  25  2.031729E+06  8.958346E+04  1.165776E+05 -1.471744E+04 -7.833867E+04  1.851312E+00
        61  26  2.014282E+06 -1.948146E+04  5.108737E+04 -3.820367E+03 -5.050721E+04  3.098391E-01
        61  27  2.031822E+06 -2.944583E+03  3.507558E+04  7.076274E+03 -2.267592E+04 -2.576532E-01
        62   1  2.025554E+06  1.264128E+04  3.025486E+04  2.257689E+03  1.681115E+04  6.094416E-02
        62   2  2.022117E+06 -3.494241E+03  1.891494E+04  3.844013E+02  7.000501E+03  4.321018E-03
        62   3  2.025565E+06  2.833084E+03  1.956278E+04 -1.488912E+03 -2.810281E+03  6.718752E-03
        62   4  2.025554E+06  1.264127E+04  3.025486E+04  1.760007E-08  1.681115E+04  1.627940E-10
        62   5  2.022117E+06 -3.494241E+03  1.891494E+04  4.673033E-09  7.000501E+03  1.516779E-10
        62   6  2.025565E+06  2.833080E+03  1.956278E+04  2.408428E-08 -2.810281E+03 -5.108537E-13
        62   7  2.025554E+06  1.264128E+04  3.025486E+04 -2.257689E+03  1.681115E+04 -6.094416E-02
        62   8  2.022117E+06 -3.494241E+03  1.891494E+04 -3.844013E+02  7.000501E+03 -4.321016E-03
        62   9  2.025565E+06  2.833084E+03  1.956278E+04  1.488912E+03 -2.810281E+03 -6.718752E-03
        62  10  2.025553E+06  1.264121E+04  3.025433E+04  2.257689E+03  9.145285E-11  1.684470E-10
        62  11  2.022117E+06 -3.494254E+03  1.891485E+04  3.844013E+02  4.052067E-10 -1.073460E-10
        62  12  2.025565E+06  2.833082E+03  1.956277E+04 -1.488912E+03 -5.965792E-11 -1.168984E-10
        62  13  2.025553E+06  1.264120E+04  3.025433E+04  1.759058E-08  7.967669E-10  1.029469E-10
        62  14  2.022117E+06 -3.494255E+03  1.891485E+04 -8.267356E-09  2.171891E-09 -4.443844E-10
        62  15  2.025565E+06  2.833078E+03  1.956277E+04  1.761562E-08 -1.452398E-09 -2.279506E-10
        62  16  2.025553E+06  1.264121E+04  3.025433E+04 -2.257689E+03 -3.967769E-10 -2.987906E-10
        62  17  2.022117E+06 -3.494254E+03  1.891485E+04 -3.844013E+02  5.432412E-11 -2.608631E-11
        62  18  2.025565E+06  2.833082E+03  1.956277E+04  1.488912E+03 -1.724993E-09 -5.242612E-10
        62  19  2.025554E+06  1.264128E+04  3.025486E+04  2.257689E+03 -1.681115E+04 -6.094416E-02
        62  20  2.022117E+06 -3.494241E+03  1.891494E+04  3.844013E+02 -7.000501E+03 -4.321018E-03
        62  21  2.025565E+06  2.833084E+03  1.956278E+04 -1.488912E+03  2.810281E+03 -6.718753E-03
        62  22  2.025554E+06  1.264127E+04  3.025486E+04  3.360368E-10 -1.681115E+04 -4.578613E-11
        62  23  2.022117E+06 -3.494241E+03  1.891494E+04 -3.844421E-08 -7.000501E+03 -6.508217E-10
        62  24  2.025565E+06  2.833080E+03  1.956278E+04 -1.040520E-08  2.810281E+03 -6.821821E-10
        62  25  2.025554E+06  1.264128E+04  3.025486E+04 -2.257689E+03 -1.681115E+04  6.094416E-02
        62  26  2.022117E+06 -3.494241E+03  1.891494E+04 -3.844013E+02 -7.000501E+03  4.321017E-03
        62  27  2.025565E+06  2.833084E+03  1.956278E+04  1.488912E+03  2.810281E+03  6.718752E-03
        63   1  2.026397E+06  9.363227E+02  2.091893E+04  2.135411E+03 -6.459212E+03 -2.214779E-02
        63   2  2.021074E+06 -5.472101E+03  2.698707E+04 -8.201814E+02 -2.052115E+04  2.702617E-02
        63   3  2.026369E+06  2.331493E+04  5.098764E+04 -3.775777E+03 -3.458317E+04  2.096728E-01
        63   4  2.026397E+06  9.363141E+02  2.091893E+04  5.952810E-09 -6.459212E+03 -4.465419E-10
        63   5  2.021074E+06 -5.472102E+03  2.698707E+04  3.725926E-08 -2.052115E+04 -7.020548E-10
        63   6  2.026369E+06  2.331490E+04  5.098764E+04 -5.814326E-09 -3.458317E+04  4.859082E-10
        63   7  2.026397E+06  9.363227E+02  2.091893E+04 -2.135411E+03 -6.459212E+03  2.214779E-02
        63   8  2.021074E+06 -5.472101E+03  2.698707E+04  8.201814E+02 -2.052115E+04 -2.702617E-02
        63   9  2.026369E+06  2.331493E+04  5.098764E+04  3.775777E+03 -3.458317E+04 -2.096728E-01
        63  10  2.026397E+06  9.363115E+02  2.091885E+04  2.135411E+03  2.501747E-09 -3.590255E-11
        63  11  2.021074E+06 -5.472214E+03  2.698628E+04 -8.201814E+02  8.973955E-10 -1.351362E-10
        63  12  2.026367E+06  2.331461E+04  5.098540E+04 -3.775777E+03 -5.579841E-10  2.470630E-10
        63  13  2.026397E+06  9.363030E+02  2.091885E+04  1.456134E-08 -1.044159E-09 -3.629381E-10
        63  14  2.021074E+06 -5.472215E+03  2.698628E+04  7.086766E-09  1.442144E-09 -3.450208E-10
        63  15  2.026367E+06  2.331458E+04  5.098540E+04 -2.626660E-08 -2.394936E-10  3.588994E-10
        63  16  2.026397E+06  9.363115E+02  2.091885E+04 -2.135411E+03 -1.985473E-10 -1.638567E-11
        63  17  2.021074E+06 -5.472214E+03  2.698628E+04  8.201814E+02 -1.166864E-09  2.531742E-10
        63  18  2.026367E+06  2.331461E+04  5.098540E+04  3.775777E+03  9.740159E-10  6.300717E-10
        63  19  2.026397E+06  9.363227E+02  2.091893E+04  2.135411E+03  6.459212E+03  2.214779E-02
        63  20  2.021074E+06 -5.472101E+03  2.698707E+04 -8.201814E+02  2.052115E+04 -2.702617E-02
        63  21  2.026369E+06  2.331493E+04  5.098764E+04 -3.775777E+03  3.458317E+04 -2.096728E-01
        63  22  2.026397E+06  9.363141E+02  2.091893E+04 -3.719307E-08  6.459212E+03 -2.556457E-10
        63  23  2.021074E+06 -5.472102E+03  2.698707E+04 -5.841963E-09  2.052115E+04  2.111063E-10
        63  24  2.026369E+06  2.331490E+04  5.098764E+04 -2.299828E-08  3.458317E+04  1.875443E-10
        63  25  2.026397E+06  9.363227E+02  2.091893E+04 -2.135411E+03  6.459212E+03 -2.214779E-02
        63  26  2.021074E+06 -5.472101E+03  2.698707E+04  8.201814E+02  2.052115E+04  2.702617E-02
        63  27  2.026369E+06  2.331493E+04  5.098764E+04  3.775777E+03  3.458317E+04  2.096728E-01
        64   1  2.038231E+06 -5.989283E+03  6.090790E+04  1.290265E+04 -4.462314E+04 -9.244887E-01
        64   2  2.006245E+06 -3.556719E+04  9.210651E+04 -7.000856E+03 -9.485477E+04  1.066336E+00
        64   3  2.038064E+06  1.641737E+05  2.132681E+05 -2.690496E+04 -1.450848E+05  6.267961E+00
        64   4  2.038231E+06 -5.989594E+03  6.090786E+04 -3.203570E-08 -4.462314E+04  4.988747E-10
        64   5  2.006244E+06 -3.556728E+04  9.210650E+04 -2.211059E-08 -9.485477E+04 -5.434222E-10
        64   6  2.038063E+06  1.641723E+05  2.132679E+05 -3.030112E-09 -1.450848E+05  2.661565E-10
        64   7  2.038231E+06 -5.989283E+03  6.090790E+04 -1.290265E+04 -4.462314E+04  9.244887E-01
        64   8  2.006245E+06 -3.556719E+04  9.210651E+04  7.000856E+03 -9.485477E+04 -1.066336E+00
        64   9  2.038064E+06  1.641737E+05  2.132681E+05  2.690496E+04 -1.450848E+05 -6.267961E+00
        64  10  2.038229E+06 -5.989815E+03  6.090417E+04  1.290265E+04 -9.727299E-10  1.142644E-10
        64  11  2.006235E+06 -3.556960E+04  9.208966E+04 -7.000856E+03 -1.466395E-09 -3.916578E-10
        64  12  2.038042E+06  1.641680E+05  2.132286E+05 -2.690496E+04  8.787220E-10 -5.047831E-10
        64  13  2.038229E+06 -5.990127E+03  6.090413E+04 -2.342519E-08  6.807318E-10  3.492871E-10
        64  14  2.006235E+06 -3.556969E+04  9.208964E+04 -1.780323E-08  1.030160E-26 -2.453827E-10
        64  15  2.038041E+06  1.641667E+05  2.132284E+05  1.584435E-08 -5.397624E-10 -2.032786E-10
        64  16  2.038229E+06 -5.989815E+03  6.090417E+04 -1.290265E+04 -9.370627E-10  2.436959E-10
        64  17  2.006235E+06 -3.556960E+04  9.208966E+04  7.000856E+03 -1.230009E-09 -2.993982E-10
        64  18  2.038042E+06  1.641680E+05  2.132286E+05  2.690496E+04  3.362378E-10 -1.295722E-11
        64  19  2.038231E+06 -5.989283E+03  6.090790E+04  1.290265E+04  4.462314E+04  9.244887E-01
        64  20  2.006245E+06 -3.556719E+04  9.210651E+04 -7.000856E+03  9.485477E+04 -1.066336E+00
        64  21  2.038064E+06  1.641737E+05  2.132681E+05 -2.690496E+04  1.450848E+05 -6.267961E+00
        64  22  2.038231E+06 -5.989594E+03  6.090786E+04 -2.775914E-08  4.462314E+04  1.303929E-10
        64  23  2.006244E+06 -3.556728E+04  9.210650E+04 -5.657197E-10  9.485477E+04 -3.501678E-13
        64  24  2.038063E+06  1.641723E+05  2.132679E+05  1.153109E-08  1.450848E+05 -4.933216E-10
        64  25  2.038231E+06 -5.989283E+03  6.090790E+04 -1.290265E+04  4.462314E+04 -9.244887E-01
        64  26  2.006245E+06 -3.556719E+04  9.210651E+04  7.000856E+03  9.485477E+04  1.066336E+00
        64  27  2.038064E+06  1.641737E+05  2.132681E+05  2.690496E+04  1.450848E+05  6.267961E+00
        65   1 -3.058382E+05 -5.399608E+05 -4.068982E+05  4.330267E+04  5.624962E+02 -2.842119E+05
        65   2  9.314085E+04 -4.917101E+05 -1.724686E+05  1.619664E+04  1.502560E+03 -1.798001E+05
        65   3  2.254089E+04 -5.744400E+05 -1.234007E+05 -3.790426E+04  7.728085E+02 -7.539350E+04
        65   4 -3.304800E+05 -6.385315E+05 -4.314704E+05 -1.122080E+04  5.875055E+02 -2.846036E+05
        65   5  7.286821E+04 -5.729597E+05 -1.925622E+05  2.284578E+03  1.506609E+03 -1.798097E+05
        65   6  6.530597E+03 -6.384591E+05 -1.393032E+05 -1.120188E+04  7.694717E+02 -7.501801E+04
        65   7 -3.551114E+05 -7.370869E+05 -4.560417E+05 -6.573560E+04  6.125872E+02 -2.849953E+05
        65   8  5.259580E+04 -6.542029E+05 -2.126562E+05 -1.162566E+04  1.510658E+03 -1.798193E+05
        65   9 -9.477319E+03 -7.024731E+05 -1.552057E+05  1.549775E+04  7.661669E+02 -7.464255E+04
        65  10 -3.058600E+05 -5.400476E+05 -4.070501E+05  4.330280E+04 -4.235943E-10 -1.231209E-12
        65  11  9.313215E+04 -4.917449E+05 -1.725294E+05  1.619686E+04 -5.647452E-10 -9.899026E-11
        65  12  2.253936E+04 -5.744461E+05 -1.234113E+05 -3.790422E+04  1.369907E-09  1.920433E-10
        65  13 -3.305018E+05 -6.386185E+05 -4.316227E+05 -1.122067E+04 -9.475911E-10 -3.731590E-11
        65  14  7.285951E+04 -5.729944E+05 -1.926230E+05  2.284796E+03 -7.550058E-10 -9.503463E-13
        65  15  6.529083E+03 -6.384652E+05 -1.393138E+05 -1.120183E+04  2.325413E-09  1.329452E-10
        65  16 -3.551332E+05 -7.371742E+05 -4.561945E+05 -6.573546E+04 -3.813237E-10 -2.276363E-11
        65  17  5.258711E+04 -6.542376E+05 -2.127170E+05 -1.162544E+04  2.225126E-09 -9.200285E-11
        65  18 -9.478817E+03 -7.024790E+05 -1.552162E+05  1.549780E+04 -9.442427E-10 -5.242029E-11
        65  19 -3.058382E+05 -5.399608E+05 -4.068982E+05  4.330267E+04 -5.624962E+02  2.842119E+05
        65  20  9.314085E+04 -4.917101E+05 -1.724686E+05  1.619664E+04 -1.502560E+03  1.798001E+05
        65  21  2.254089E+04 -5.744400E+05 -1.234007E+05 -3.790426E+04 -7.728085E+02  7.539350E+04
        65  22 -3.304800E+05 -6.385315E+05 -4.314704E+05 -1.122080E+04 -5.875055E+02  2.846036E+05
        65  23  7.286821E+04 -5.729597E+05 -1.925622E+05  2.284578E+03 -1.506609E+03  1.798097E+05
        65  24  6.530597E+03 -6.384591E+05 -1.393032E+05 -1.120188E+04 -7.694717E+02  7.501801E+04
        65  25 -3.551114E+05 -7.370869E+05 -4.560417E+05 -6.573560E+04 -6.125872E+02  2.849953E+05
        65  26  5.259580E+04 -6.542029E+05 -2.126562E+05 -1.162566E+04 -1.510658E+03  1.798193E+05
        65  27 -9.477319E+03 -7.024731E+05 -1.552057E+05  1.549775E+04 -7.661669E+02  7.464255E+04
        66   1 -4.673764E+04 -6.225628E+05 -1.253110E+05 -5.760181E+02  1.000692E+02 -5.154758E+04
        66   2  1.393506E+04 -6.212649E+05 -9.537106E+04  2.540841E+03 -3.551708E+02 -4.584972E+03
        66   3 -5.089982E+04 -6.574826E+05 -1.273998E+05 -2.167602E+04 -7.323194E+02  4.237644E+04
        66   4 -4.550880E+04 -6.176908E+05 -1.240772E+05 -1.129334E+04  1.009273E+02 -5.143239E+04
        66   5  1.951049E+04 -5.989340E+05 -8.983999E+04  2.375290E+03 -3.551923E+02 -4.488106E+03
        66   6 -4.097273E+04 -6.176891E+05 -1.175578E+05 -1.129003E+04 -7.316243E+02  4.245629E+04
        66   7 -4.427953E+04 -6.128185E+05 -1.228433E+05 -2.201076E+04  1.017815E+02 -5.131720E+04
        66   8  2.508588E+04 -5.766026E+05 -8.430897E+04  2.209732E+03 -3.552139E+02 -4.391235E+03
        66   9 -3.104535E+04 -5.778939E+05 -1.077158E+05 -9.033730E+02 -7.309267E+02  4.253616E+04
        66  10 -4.673835E+04 -6.225657E+05 -1.253160E+05 -5.760140E+02  2.897471E-09 -6.980184E-10
        66  11  1.393506E+04 -6.212649E+05 -9.537110E+04  2.540840E+03 -5.588349E-10 -3.445395E-10
        66  12 -5.090030E+04 -6.574845E+05 -1.274032E+05 -2.167599E+04 -1.384841E-09  6.906290E-10
        66  13 -4.550951E+04 -6.176936E+05 -1.240822E+05 -1.129334E+04  2.341130E-09 -2.793577E-10
        66  14  1.951048E+04 -5.989340E+05 -8.984003E+04  2.375288E+03  2.435239E-09  4.952278E-11
        66  15 -4.097321E+04 -6.176910E+05 -1.175612E+05 -1.129000E+04  8.268358E-10  1.078186E-10
        66  16 -4.428024E+04 -6.128213E+05 -1.228483E+05 -2.201075E+04 -8.860905E-10  7.018241E-10
        66  17  2.508588E+04 -5.766027E+05 -8.430900E+04  2.209731E+03  1.337871E-09  8.026385E-11
        66  18 -3.104583E+04 -5.778959E+05 -1.077192E+05 -9.033479E+02  1.994022E-09 -5.223959E-10
        66  19 -4.673764E+04 -6.225628E+05 -1.253110E+05 -5.760181E+02 -1.000692E+02  5.154758E+04
        66  20  1.393506E+04 -6.212649E+05 -9.537106E+04  2.540841E+03  3.551708E+02  4.584972E+03
        66  21 -5.089982E+04 -6.574826E+05 -1.273998E+05 -2.167602E+04  7.323194E+02 -4.237644E+04
        66  22 -4.550880E+04 -6.176908E+05 -1.240772E+05 -1.129334E+04 -1.009273E+02  5.143239E+04
        66  23  1.951049E+04 -5.989340E+05 -8.983999E+04  2.375290E+03  3.551923E+02  4.488106E+03
        66  24 -4.097273E+04 -6.176891E+05 -1.175578E+05 -1.129003E+04  7.316243E+02 -4.245629E+04
        66  25 -4.427953E+04 -6.128185E+05 -1.228433E+05 -2.201076E+04 -1.017815E+02  5.131720E+04
        66  26  2.508588E+04 -5.766026E+05 -8.430897E+04  2.209732E+03  3.552139E+02  4.391235E+03
        66  27 -3.104535E+04 -5.778939E+05 -1.077158E+05 -9.033730E+02  7.309267E+02 -4.253616E+04
        67   1 -2.227297E+04 -7.439864E+05 -1.570728E+05  1.327774E+04 -1.461451E+03  6.419451E+04
        67   2  3.513596E+04 -7.012564E+05 -2.073102E+05 -1.044658E+04 -2.237395E+03  1.606339E+05
        67   3 -3.352550E+05 -7.779956E+05 -4.272942E+05 -6.063357E+04 -8.055348E+02  2.570719E+05
        67   4  4.743449E+03 -6.358592E+05 -1.302438E+05 -1.110380E+04 -1.464035E+03  6.465019E+04
        67   5  6.634785E+04 -5.762143E+05 -1.763741E+05  2.150647E+03 -2.234104E+03  1.605744E+05
        67   6 -2.997166E+05 -6.359261E+05 -3.918680E+05 -1.106197E+04 -7.850617E+02  2.565000E+05
        67   7  3.176123E+04 -5.277200E+05 -1.034154E+05 -3.548959E+04 -1.466655E+03  6.510594E+04
        67   8  9.755917E+04 -4.511576E+05 -1.454391E+05  1.475041E+04 -2.230815E+03  1.605149E+05
        67   9 -2.641704E+05 -4.938331E+05 -3.564421E+05  3.852099E+04 -7.646842E+02  2.559280E+05
        67  10 -2.227408E+04 -7.439908E+05 -1.570806E+05  1.327782E+04 -4.685498E-10 -1.210646E-09
        67  11  3.512901E+04 -7.012842E+05 -2.073587E+05 -1.044629E+04  4.509402E-10 -5.899715E-10
        67  12 -3.352728E+05 -7.780666E+05 -4.274185E+05 -6.063340E+04 -7.323084E-10  1.610878E-10
        67  13  4.742323E+03 -6.358637E+05 -1.302517E+05 -1.110372E+04  2.222942E-09 -1.504755E-10
        67  14  6.634091E+04 -5.762420E+05 -1.764226E+05  2.150936E+03  2.396404E-09 -1.708140E-11
        67  15 -2.997343E+05 -6.359968E+05 -3.919918E+05 -1.106181E+04 -9.885250E-10 -6.582232E-11
        67  16  3.176009E+04 -5.277246E+05 -1.034233E+05 -3.548951E+04  2.211851E-09  1.225752E-09
        67  17  9.755224E+04 -4.511852E+05 -1.454875E+05  1.475070E+04  7.699899E-10  5.840575E-10
        67  18 -2.641881E+05 -4.939035E+05 -3.565653E+05  3.852115E+04 -8.009755E-10 -3.343893E-10
        67  19 -2.227297E+04 -7.439864E+05 -1.570728E+05  1.327774E+04  1.461451E+03 -6.419451E+04
        67  20  3.513596E+04 -7.012564E+05 -2.073102E+05 -1.044658E+04  2.237395E+03 -1.606339E+05
        67  21 -3.352550E+05 -7.779956E+05 -4.272942E+05 -6.063357E+04  8.055348E+02 -2.570719E+05
        67  22  4.743449E+03 -6.358592E+05 -1.302438E+05 -1.110380E+04  1.464035E+03 -6.465019E+04
        67  23  6.634785E+04 -5.762143E+05 -1.763741E+05  2.150647E+03  2.234104E+03 -1.605744E+05
        67  24 -2.997166E+05 -6.359261E+05 -3.918680E+05 -1.106197E+04  7.850617E+02 -2.565000E+05
        67  25  3.176123E+04 -5.277200E+05 -1.034154E+05 -3.548959E+04  1.466655E+03 -6.510594E+04
        67  26  9.755917E+04 -4.511576E+05 -1.454391E+05  1.475041E+04  2.230815E+03 -1.605149E+05
        67  27 -2.641704E+05 -4.938331E+05 -3.564421E+05  3.852099E+04  7.646842E+02 -2.559280E+05
        68   1  7.619323E+05  3.915402E+05 -5.787719E+04  6.002540E+05 -1.659981E+04 -1.161119E+04
        68   2  7.716724E+05  4.243483E+05 -3.895499E+04  5.952755E+05 -1.163634E+04 -6.358127E+03
        68   3  7.781394E+05  4.208013E+05 -3.240436E+04  5.971305E+05 -5.669254E+03 -2.443412E+03
        68   4  8.437582E+05  4.557640E+05 -2.879996E+04  6.433790E+05 -1.620536E+04 -1.131554E+04
        68   5  8.495044E+05  4.812834E+05 -1.231565E+04  6.344239E+05 -1.156268E+04 -6.302957E+03
        68   6  8.520488E+05  4.705196E+05 -7.923242E+03  6.323016E+05 -5.916531E+03 -2.628741E+03
        68   7  9.255910E+05  5.199924E+05  2.762583E+02  6.865107E+05 -1.581083E+04 -1.101982E+04
        68   8  9.273425E+05  5.382218E+05  1.432282E+04  6.735778E+05 -1.148901E+04 -6.247777E+03
        68   9  9.259636E+05  5.202403E+05  1.655710E+04  6.674773E+05 -6.163848E+03 -2.814098E+03
        68  10  7.619320E+05  3.915400E+05 -5.787796E+04  6.002538E+05 -1.052238E-09  8.458636E-11
        68  11  7.716723E+05  4.243483E+05 -3.895532E+04  5.952754E+05  7.813020E-10  2.241052E-10
        68  12  7.781394E+05  4.208013E+05 -3.240443E+04  5.971305E+05 -7.997999E-10  5.555474E-10
        68  13  8.437579E+05  4.557638E+05 -2.880070E+04  6.433789E+05 -8.370508E-10  3.783399E-10
        68  14  8.495042E+05  4.812833E+05 -1.231597E+04  6.344238E+05  1.442874E-10  2.646036E-10
        68  15  8.520487E+05  4.705196E+05 -7.923320E+03  6.323016E+05 -1.067446E-09  5.165034E-10
        68  16  9.255907E+05  5.199922E+05  2.755619E+02  6.865106E+05 -1.744604E-09  5.958228E-10
        68  17  9.273424E+05  5.382217E+05  1.432250E+04  6.735777E+05  6.981714E-10  3.405312E-10
        68  18  9.259636E+05  5.202403E+05  1.655701E+04  6.674772E+05 -9.096926E-10  5.530734E-10
        68  19  7.619323E+05  3.915402E+05 -5.787719E+04  6.002540E+05  1.659981E+04  1.161119E+04
        68  20  7.716724E+05  4.243483E+05 -3.895499E+04  5.952755E+05  1.163634E+04  6.358127E+03
        68  21  7.781394E+05  4.208013E+05 -3.240436E+04  5.971305E+05  5.669254E+03  2.443412E+03
        68  22  8.437582E+05  4.557640E+05 -2.879996E+04  6.433790E+05  1.620536E+04  1.131554E+04
        68  23  8.495044E+05  4.812834E+05 -1.231565E+04  6.344239E+05  1.156268E+04  6.302957E+03
        68  24  8.520488E+05  4.705196E+05 -7.923242E+03  6.323016E+05  5.916531E+03  2.628741E+03
        68  25  9.255910E+05  5.199924E+05  2.762583E+02  6.865107E+05  1.581083E+04  1.101982E+04
        68  26  9.273425E+05  5.382218E+05  1.432282E+04  6.735778E+05  1.148901E+04  6.247777E+03
        68  27  9.259636E+05  5.202403E+05  1.655710E+04  6.674773E+05  6.163848E+03  2.814098E+03
        69   1  8.032954E+05  4.340117E+05 -2.288464E+04  6.110884E+05 -4.629084E+03 -2.201172E+03
        69   2  8.045735E+05  4.469170E+05 -1.740994E+04  6.141609E+05 -3.308515E+03 -1.314368E+03
        69   3  8.151518E+05  4.449443E+05 -1.404227E+04  6.152798E+05 -1.866638E+03 -5.894662E+02
        69   4  8.512540E+05  4.689138E+05 -6.483537E+03  6.351248E+05 -4.625726E+03 -2.198669E+03
        69   5  8.472047E+05  4.774274E+05 -2.938124E+03  6.352919E+05 -3.343956E+03 -1.340931E+03
        69   6  8.524643E+05  4.710716E+05 -1.465974E+03  6.335053E+05 -1.940895E+03 -6.451016E+02
        69   7  8.992149E+05  5.038172E+05  9.917244E+03  6.591632E+05 -4.622368E+03 -2.196166E+03
        69   8  8.898380E+05  5.079389E+05  1.153346E+04  6.564245E+05 -3.379399E+03 -1.367496E+03
        69   9  8.897783E+05  4.971997E+05  1.111016E+04  6.517321E+05 -2.015160E+03 -7.007417E+02
        69  10  8.032954E+05  4.340117E+05 -2.288469E+04  6.110884E+05 -1.536014E-09  5.457316E-10
        69  11  8.045734E+05  4.469170E+05 -1.740997E+04  6.141609E+05  4.050067E-10  6.682942E-10
        69  12  8.151518E+05  4.449443E+05 -1.404228E+04  6.152798E+05  6.442203E-11  3.495449E-10
        69  13  8.512539E+05  4.689138E+05 -6.483587E+03  6.351248E+05 -6.971721E-10  9.113876E-10
        69  14  8.472047E+05  4.774274E+05 -2.938149E+03  6.352919E+05  3.543551E-09  1.212606E-09
        69  15  8.524643E+05  4.710716E+05 -1.465982E+03  6.335053E+05  1.920419E-09 -1.051504E-10
        69  16  8.992149E+05  5.038172E+05  9.917195E+03  6.591632E+05  2.548227E-10  1.040258E-09
        69  17  8.898380E+05  5.079389E+05  1.153344E+04  6.564245E+05  1.851506E-09  1.689356E-09
        69  18  8.897783E+05  4.971997E+05  1.111015E+04  6.517321E+05  9.615840E-10 -6.686859E-10
        69  19  8.032954E+05  4.340117E+05 -2.288464E+04  6.110884E+05  4.629084E+03  2.201172E+03
        69  20  8.045735E+05  4.469170E+05 -1.740994E+04  6.141609E+05  3.308515E+03  1.314368E+03
        69  21  8.151518E+05  4.449443E+05 -1.404227E+04  6.152798E+05  1.866638E+03  5.894662E+02
        69  22  8.512540E+05  4.689138E+05 -6.483537E+03  6.351248E+05  4.625726E+03  2.198669E+03
        69  23  8.472047E+05  4.774274E+05 -2.938124E+03  6.352919E+05  3.343956E+03  1.340931E+03
        69  24  8.524643E+05  4.710716E+05 -1.465974E+03  6.335053E+05  1.940895E+03  6.451016E+02
        69  25  8.992149E+05  5.038172E+05  9.917244E+03  6.591632E+05  4.622368E+03  2.196166E+03
        69  26  8.898380E+05  5.079389E+05  1.153346E+04  6.564245E+05  3.379399E+03  1.367496E+03
        69  27  8.897783E+05  4.971997E+05  1.111016E+04  6.517321E+05  2.015160E+03  7.007417E+02
        70   1  8.366667E+05  4.598235E+05 -6.179316E+03  6.263209E+05 -1.609235E+03 -6.342472E+02
        70   2  8.366694E+05  4.692953E+05 -3.200665E+03  6.303057E+05 -1.580404E+03 -9.117383E+02
        70   3  8.476990E+05  4.680273E+05 -7.519129E+01  6.310298E+05 -1.550841E+03 -1.190231E+03
        70   4  8.522443E+05  4.709164E+05 -9.199852E+02  6.340198E+05 -1.655193E+03 -6.686768E+02
        70   5  8.469259E+05  4.766343E+05  2.816730E+02  6.353889E+05 -1.626599E+03 -9.463435E+02
        70   6  8.526344E+05  4.716126E+05  1.630394E+03  6.334972E+05 -1.597272E+03 -1.225011E+03
        70   7  8.678222E+05  4.820094E+05  4.339298E+03  6.417189E+05 -1.701151E+03 -7.031075E+02
        70   8  8.571825E+05  4.839734E+05  3.763991E+03  6.404721E+05 -1.672794E+03 -9.809495E+02
        70   9  8.575699E+05  4.751980E+05  3.335976E+03  6.359646E+05 -1.643703E+03 -1.259791E+03
        70  10  8.366667E+05  4.598235E+05 -6.179322E+03  6.263209E+05  2.047364E-10  8.158013E-11
        70  11  8.366694E+05  4.692953E+05 -3.200671E+03  6.303057E+05  1.299707E-09 -9.700384E-11
        70  12  8.476990E+05  4.680273E+05 -7.519846E+01  6.310298E+05  1.314943E-09  1.039884E-09
        70  13  8.522443E+05  4.709164E+05 -9.199912E+02  6.340198E+05  1.806643E-09 -8.502876E-10
        70  14  8.469259E+05  4.766343E+05  2.816664E+02  6.353889E+05  1.964756E-09  9.405082E-10
        70  15  8.526344E+05  4.716126E+05  1.630387E+03  6.334972E+05  3.389666E-09  1.108139E-09
        70  16  8.678222E+05  4.820094E+05  4.339292E+03  6.417189E+05 -3.757169E-11 -9.494990E-10
        70  17  8.571825E+05  4.839734E+05  3.763984E+03  6.404721E+05  7.152151E-10  2.892502E-10
        70  18  8.575699E+05  4.751980E+05  3.335968E+03  6.359646E+05 -6.673250E-10  1.074462E-09
        70  19  8.366667E+05  4.598235E+05 -6.179316E+03  6.263209E+05  1.609235E+03  6.342472E+02
        70  20  8.366694E+05  4.692953E+05 -3.200665E+03  6.303057E+05  1.580404E+03  9.117383E+02
        70  21  8.476990E+05  4.680273E+05 -7.519129E+01  6.310298E+05  1.550841E+03  1.190231E+03
        70  22  8.522443E+05  4.709164E+05 -9.199852E+02  6.340198E+05  1.655193E+03  6.686768E+02
        70  23  8.469259E+05  4.766343E+05  2.816730E+02  6.353889E+05  1.626599E+03  9.463435E+02
        70  24  8.526344E+05  4.716126E+05  1.630394E+03  6.334972E+05  1.597272E+03  1.225011E+03
        70  25  8.678222E+05  4.820094E+05  4.339298E+03  6.417189E+05  1.701151E+03  7.031075E+02
        70  26  8.571825E+05  4.839734E+05  3.763991E+03  6.404721E+05  1.672794E+03  9.809495E+02
        70  27  8.575699E+05  4.751980E+05  3.335976E+03  6.359646E+05  1.643703E+03  1.259791E+03
        71   1  8.681912E+05  4.827987E+05  7.684107E+03  6.420050E+05 -1.705632E+03 -1.528343E+03
        71   2  8.677060E+05  4.909383E+05  1.132008E+04  6.460622E+05 -3.296154E+03 -3.058157E+03
        71   3  8.815269E+05  4.923810E+05  1.784470E+04  6.449055E+05 -4.978470E+03 -4.465459E+03
        71   4  8.526107E+05  4.711709E+05  2.278975E+03  6.340665E+05 -1.772405E+03 -1.578361E+03
        71   5  8.462634E+05  4.759541E+05  4.114057E+03  6.355995E+05 -3.333399E+03 -3.086062E+03
        71   6  8.542161E+05  4.740340E+05  8.812324E+03  6.319186E+05 -4.986162E+03 -4.471234E+03
        71   7  8.370304E+05  4.595432E+05 -3.126206E+03  6.261282E+05 -1.839176E+03 -1.628377E+03
        71   8  8.248213E+05  4.609701E+05 -3.092029E+03  6.251373E+05 -3.370643E+03 -3.113966E+03
        71   9  8.269060E+05  4.556873E+05 -2.201265E+02  6.189324E+05 -4.993854E+03 -4.477008E+03
        71  10  8.681912E+05  4.827987E+05  7.684097E+03  6.420050E+05  2.682574E-09  1.346971E-09
        71  11  8.677059E+05  4.909383E+05  1.132004E+04  6.460622E+05  7.440873E-10 -6.372831E-10
        71  12  8.815269E+05  4.923810E+05  1.784461E+04  6.449054E+05  1.633325E-10 -3.700914E-10
        71  13  8.526107E+05  4.711709E+05  2.278964E+03  6.340665E+05  1.636885E-09  8.239545E-10
        71  14  8.462634E+05  4.759541E+05  4.114018E+03  6.355995E+05  4.205331E-10  2.982972E-10
        71  15  8.542160E+05  4.740340E+05  8.812240E+03  6.319186E+05 -1.476756E-09 -5.637429E-10
        71  16  8.370304E+05  4.595432E+05 -3.126217E+03  6.261282E+05 -6.546635E-10  2.076272E-10
        71  17  8.248213E+05  4.609700E+05 -3.092069E+03  6.251373E+05  3.937627E-10 -1.275677E-09
        71  18  8.269060E+05  4.556873E+05 -2.202109E+02  6.189324E+05  9.573995E-10 -3.330072E-10
        71  19  8.681912E+05  4.827987E+05  7.684107E+03  6.420050E+05  1.705632E+03  1.528343E+03
        71  20  8.677060E+05  4.909383E+05  1.132008E+04  6.460622E+05  3.296154E+03  3.058157E+03
        71  21  8.815269E+05  4.923810E+05  1.784470E+04  6.449055E+05  4.978470E+03  4.465459E+03
        71  22  8.526107E+05  4.711709E+05  2.278975E+03  6.340665E+05  1.772405E+03  1.578361E+03
        71  23  8.462634E+05  4.759541E+05  4.114057E+03  6.355995E+05  3.333399E+03  3.086062E+03
        71  24  8.542161E+05  4.740340E+05  8.812324E+03  6.319186E+05  4.986162E+03  4.471234E+03
        71  25  8.370304E+05  4.595432E+05 -3.126206E+03  6.261282E+05  1.839176E+03  1.628377E+03
        71  26  8.248213E+05  4.609701E+05 -3.092029E+03  6.251373E+05  3.370643E+03  3.113966E+03
        71  27  8.269060E+05  4.556873E+05 -2.201265E+02  6.189324E+05  4.993854E+03  4.477008E+03
        72   1  9.004152E+05  5.080378E+05  2.724977E+04  6.602047E+05 -5.986940E+03 -5.657097E+03
        72   2  8.980716E+05  5.093437E+05  3.506531E+04  6.636467E+05 -1.323708E+04 -1.157280E+04
        72   3  9.303268E+05  5.293953E+05  5.938469E+04  6.491290E+05 -2.122451E+04 -1.650506E+04
        72   4  8.539185E+05  4.711333E+05  1.073035E+04  6.354931E+05 -6.179098E+03 -5.801041E+03
        72   5  8.422131E+05  4.717060E+05  1.658716E+04  6.370295E+05 -1.319196E+04 -1.153904E+04
        72   6  8.650570E+05  4.909753E+05  3.874373E+04  6.206055E+05 -2.094198E+04 -1.629356E+04
        72   7  8.074240E+05  4.342304E+05 -5.789400E+03  6.107836E+05 -6.371237E+03 -5.944968E+03
        72   8  7.863578E+05  4.340697E+05 -1.891441E+03  6.104148E+05 -1.314684E+04 -1.150529E+04
        72   9  7.997915E+05  4.525565E+05  1.810220E+04  5.920851E+05 -2.065950E+04 -1.608209E+04
        72  10  9.004151E+05  5.080377E+05  2.724964E+04  6.602047E+05 -3.193414E-10  6.953403E-11
        72  11  8.980714E+05  5.093435E+05  3.506473E+04  6.636466E+05  6.655653E-10  6.109384E-10
        72  12  9.303263E+05  5.293949E+05  5.938334E+04  6.491287E+05 -1.466197E-09  2.511847E-10
        72  13  8.539184E+05  4.711333E+05  1.073021E+04  6.354930E+05 -3.672911E-11 -6.830341E-11
        72  14  8.422129E+05  4.717058E+05  1.658658E+04  6.370293E+05 -1.444369E-11  2.927384E-10
        72  15  8.650565E+05  4.909749E+05  3.874241E+04  6.206053E+05 -1.141352E-09  1.132765E-10
        72  16  8.074239E+05  4.342304E+05 -5.789542E+03  6.107835E+05 -4.968833E-10 -2.010353E-10
        72  17  7.863576E+05  4.340695E+05 -1.892013E+03  6.104147E+05  1.044448E-09  1.074074E-10
        72  18  7.997910E+05  4.525561E+05  1.810092E+04  5.920848E+05  3.279898E-10  1.286263E-10
        72  19  9.004152E+05  5.080378E+05  2.724977E+04  6.602047E+05  5.986940E+03  5.657097E+03
        72  20  8.980716E+05  5.093437E+05  3.506531E+04  6.636467E+05  1.323708E+04  1.157280E+04
        72  21  9.303268E+05  5.293953E+05  5.938469E+04  6.491290E+05  2.122451E+04  1.650506E+04
        72  22  8.539185E+05  4.711333E+05  1.073035E+04  6.354931E+05  6.179098E+03  5.801041E+03
        72  23  8.422131E+05  4.717060E+05  1.658716E+04  6.370295E+05  1.319196E+04  1.153904E+04
        72  24  8.650570E+05  4.909753E+05  3.874373E+04  6.206055E+05  2.094198E+04  1.629356E+04
        72  25  8.074240E+05  4.342304E+05 -5.789400E+03  6.107836E+05  6.371237E+03  5.944968E+03
        72  26  7.863578E+05  4.340697E+05 -1.891441E+03  6.104148E+05  1.314684E+04  1.150529E+04
        72  27  7.997915E+05  4.525565E+05  1.810220E+04  5.920851E+05  2.065950E+04  1.608209E+04
        73   1  7.777005E+05 -3.444208E+04 -4.460783E+04 -5.616112E+03 -3.086932E+04  2.789103E-01
        73   2  7.843415E+05  7.421606E+03 -1.884462E+04 -1.466663E+03 -2.057450E+04  4.854659E-02
        73   3  7.776857E+05  1.437678E+03 -1.173907E+04  2.682885E+03 -1.027955E+04 -4.436904E-02
        73   4  7.777004E+05 -3.444214E+04 -4.460784E+04 -2.370695E-08 -3.086932E+04  3.577117E-10
        73   5  7.843415E+05  7.421602E+03 -1.884462E+04  2.135270E-08 -2.057450E+04  2.103839E-10
        73   6  7.776857E+05  1.437665E+03 -1.173907E+04  9.316446E-09 -1.027955E+04  6.029471E-12
        73   7  7.777005E+05 -3.444208E+04 -4.460783E+04  5.616112E+03 -3.086932E+04 -2.789103E-01
        73   8  7.843415E+05  7.421606E+03 -1.884462E+04  1.466663E+03 -2.057450E+04 -4.854659E-02
        73   9  7.776857E+05  1.437678E+03 -1.173907E+04 -2.682885E+03 -1.027955E+04  4.436904E-02
        73  10  7.776995E+05 -3.444234E+04 -4.460962E+04 -5.616112E+03  9.945103E-10 -1.192631E-10
        73  11  7.843411E+05  7.421493E+03 -1.884541E+04 -1.466663E+03  4.099062E-10  6.216283E-11
        73  12  7.776856E+05  1.437650E+03 -1.173927E+04  2.682885E+03  1.264255E-09 -7.471433E-11
        73  13  7.776994E+05 -3.444240E+04 -4.460962E+04 -6.475389E-09  2.673868E-10 -1.032035E-10
        73  14  7.843411E+05  7.421489E+03 -1.884541E+04  4.117020E-09 -1.331713E-09 -2.373533E-10
        73  15  7.776856E+05  1.437636E+03 -1.173927E+04  1.901441E-08  1.010026E-09  3.616411E-11
        73  16  7.776995E+05 -3.444234E+04 -4.460962E+04  5.616112E+03 -2.884967E-10 -1.134990E-10
        73  17  7.843411E+05  7.421493E+03 -1.884541E+04  1.466663E+03 -1.584600E-09 -2.686776E-10
        73  18  7.776856E+05  1.437650E+03 -1.173927E+04 -2.682885E+03  1.535555E-09 -9.854880E-11
        73  19  7.777005E+05 -3.444208E+04 -4.460783E+04 -5.616112E+03  3.086932E+04 -2.789103E-01
        73  20  7.843415E+05  7.421606E+03 -1.884462E+04 -1.466663E+03  2.057450E+04 -4.854659E-02
        73  21  7.776857E+05  1.437678E+03 -1.173907E+04  2.682885E+03  1.027955E+04  4.436904E-02
        73  22  7.777004E+05 -3.444214E+04 -4.460784E+04 -3.233325E-08  3.086932E+04 -5.225528E-10
        73  23  7.843415E+05  7.421602E+03 -1.884462E+04 -1.311999E-08  2.057450E+04 -5.797328E-10
        73  24  7.776857E+05  1.437665E+03 -1.173907E+04  1.785221E-09  1.027955E+04 -1.304238E-11
        73  25  7.777005E+05 -3.444208E+04 -4.460783E+04  5.616112E+03  3.086932E+04  2.789103E-01
        73  26  7.843415E+05  7.421606E+03 -1.884462E+04  1.466663E+03  2.057450E+04  4.854659E-02
        73  27  7.776857E+05  1.437678E+03 -1.173907E+04 -2.682885E+03  1.027955E+04 -4.436904E-02
        74   1  7.802848E+05 -4.936760E+03 -9.328032E+03 -6.806542E+02 -8.393068E+03  9.190709E-03
        74   2  7.810916E+05  8.634310E+02 -3.312049E+03 -2.072102E+02 -6.642411E+03  2.214312E-03
        74   3  7.802815E+05  1.104429E+03  1.754816E+02  2.662336E+02 -4.891751E+03 -2.095219E-03
        74   4  7.802848E+05 -4.936761E+03 -9.328032E+03  1.106615E-08 -8.393068E+03 -5.081954E-11
        74   5  7.810916E+05  8.634309E+02 -3.312049E+03  3.265110E-08 -6.642411E+03 -4.303240E-11
        74   6  7.802815E+05  1.104429E+03  1.754815E+02 -1.524707E-08 -4.891751E+03  4.979379E-10
        74   7  7.802848E+05 -4.936760E+03 -9.328032E+03  6.806542E+02 -8.393068E+03 -9.190710E-03
        74   8  7.810916E+05  8.634310E+02 -3.312049E+03  2.072102E+02 -6.642411E+03 -2.214311E-03
        74   9  7.802815E+05  1.104429E+03  1.754816E+02 -2.662336E+02 -4.891751E+03  2.095219E-03
        74  10  7.802847E+05 -4.936779E+03 -9.328164E+03 -6.806542E+02  4.418488E-10  2.316660E-10
        74  11  7.810916E+05  8.634192E+02 -3.312132E+03 -2.072102E+02  2.762974E-10  1.519808E-10
        74  12  7.802815E+05  1.104423E+03  1.754366E+02  2.662336E+02  2.614631E-10 -2.140607E-10
        74  13  7.802847E+05 -4.936780E+03 -9.328164E+03  6.757430E-09  2.428604E-09  7.235503E-11
        74  14  7.810916E+05  8.634191E+02 -3.312132E+03  1.110480E-08 -1.192347E-09  6.448817E-11
        74  15  7.802815E+05  1.104422E+03  1.754366E+02  6.833647E-09  3.909081E-10  1.237136E-10
        74  16  7.802847E+05 -4.936779E+03 -9.328164E+03  6.806542E+02 -3.010989E-10  4.789475E-11
        74  17  7.810916E+05  8.634192E+02 -3.312132E+03  2.072102E+02 -6.606627E-10 -2.326787E-11
        74  18  7.802815E+05  1.104423E+03  1.754366E+02 -2.662336E+02  6.652957E-10  5.624376E-10
        74  19  7.802848E+05 -4.936760E+03 -9.328032E+03 -6.806542E+02  8.393068E+03 -9.190710E-03
        74  20  7.810916E+05  8.634310E+02 -3.312049E+03 -2.072102E+02  6.642411E+03 -2.214312E-03
        74  21  7.802815E+05  1.104429E+03  1.754816E+02  2.662336E+02  4.891751E+03  2.095219E-03
        74  22  7.802848E+05 -4.936761E+03 -9.328032E+03  1.106931E-08  8.393068E+03  3.191185E-10
        74  23  7.810916E+05  8.634309E+02 -3.312049E+03  2.403390E-08  6.642411E+03  2.017479E-10
        74  24  7.802815E+05  1.104429E+03  1.754815E+02  1.450500E-09  4.891751E+03 -1.987688E-10
        74  25  7.802848E+05 -4.936760E+03 -9.328032E+03  6.806542E+02  8.393068E+03  9.190710E-03
        74  26  7.810916E+05  8.634310E+02 -3.312049E+03  2.072102E+02  6.642411E+03  2.214311E-03
        74  27  7.802815E+05  1.104429E+03  1.754816E+02 -2.662336E+02  4.891751E+03 -2.095219E-03
        75   1  7.811752E+05 -9.358424E+02  1.632469E+03  4.280717E+02 -5.054543E+03 -3.480968E-03
        75   2  7.799732E+05 -1.264427E+03  5.362250E+03 -2.610009E+02 -7.870996E+03  3.305021E-03
        75   3  7.811713E+05  6.544617E+03  1.295842E+04 -9.500632E+02 -1.068741E+04  1.633531E-02
        75   4  7.811752E+05 -9.358428E+02  1.632469E+03 -1.065076E-08 -5.054543E+03  1.413815E-10
        75   5  7.799732E+05 -1.264427E+03  5.362250E+03  9.019437E-09 -7.870996E+03 -8.328639E-10
        75   6  7.811713E+05  6.544616E+03  1.295842E+04 -3.089401E-09 -1.068741E+04 -2.449372E-11
        75   7  7.811752E+05 -9.358424E+02  1.632469E+03 -4.280717E+02 -5.054543E+03  3.480968E-03
        75   8  7.799732E+05 -1.264427E+03  5.362250E+03  2.610009E+02 -7.870996E+03 -3.305023E-03
        75   9  7.811713E+05  6.544617E+03  1.295842E+04  9.500632E+02 -1.068741E+04 -1.633531E-02
        75  10  7.811752E+05 -9.358493E+02  1.632421E+03  4.280717E+02 -9.837254E-11 -8.807957E-11
        75  11  7.799732E+05 -1.264444E+03  5.362134E+03 -2.610009E+02  1.052040E-10 -1.167720E-10
        75  12  7.811712E+05  6.544587E+03  1.295821E+04 -9.500632E+02 -1.201897E-10 -4.196387E-10
        75  13  7.811752E+05 -9.358496E+02  1.632421E+03 -2.035164E-09 -1.384110E-09  1.987554E-10
        75  14  7.799732E+05 -1.264444E+03  5.362134E+03 -2.545866E-08 -1.077317E-09  4.249401E-11
        75  15  7.811712E+05  6.544585E+03  1.295821E+04 -3.633583E-09 -1.876046E-09 -2.917673E-10
        75  16  7.811752E+05 -9.358493E+02  1.632421E+03 -4.280717E+02  1.726268E-10  3.507883E-10
        75  17  7.799732E+05 -1.264444E+03  5.362134E+03  2.610009E+02 -2.358426E-09 -1.481627E-10
        75  18  7.811712E+05  6.544587E+03  1.295821E+04  9.500632E+02  3.570120E-10 -3.222585E-10
        75  19  7.811752E+05 -9.358424E+02  1.632469E+03  4.280717E+02  5.054543E+03  3.480967E-03
        75  20  7.799732E+05 -1.264427E+03  5.362250E+03 -2.610009E+02  7.870996E+03 -3.305022E-03
        75  21  7.811713E+05  6.544617E+03  1.295842E+04 -9.500632E+02  1.068741E+04 -1.633531E-02
        75  22  7.811752E+05 -9.358428E+02  1.632469E+03 -2.040425E-09  5.054543E+03  2.093902E-10
        75  23  7.799732E+05 -1.264427E+03  5.362250E+03 -2.546234E-08  7.870996E+03  8.811092E-10
        75  24  7.811713E+05  6.544616E+03  1.295842E+04  6.595885E-09  1.068741E+04 -5.450141E-10
        75  25  7.811752E+05 -9.358424E+02  1.632469E+03 -4.280717E+02  5.054543E+03 -3.480968E-03
        75  26  7.799732E+05 -1.264427E+03  5.362250E+03  2.610009E+02  7.870996E+03  3.305023E-03
        75  27  7.811713E+05  6.544617E+03  1.295842E+04  9.500632E+02  1.068741E+04  1.633531E-02
        76   1  7.845798E+05 -1.836960E+03  1.602876E+04  3.574885E+03 -1.328420E+04 -7.640072E-02
        76   2  7.757120E+05 -9.883211E+03  2.524670E+04 -1.949763E+03 -2.706666E+04  8.490283E-02
        76   3  7.845614E+05  4.578910E+04  5.935944E+04 -7.474562E+03 -4.084925E+04  4.912157E-01
        76   4  7.845798E+05 -1.836984E+03  1.602876E+04 -5.181179E-09 -1.328420E+04  2.890054E-10
        76   5  7.757120E+05 -9.883218E+03  2.524670E+04 -2.693325E-09 -2.706666E+04 -5.488860E-10
        76   6  7.845613E+05  4.578900E+04  5.935942E+04 -1.366938E-08 -4.084925E+04 -3.319642E-11
        76   7  7.845798E+05 -1.836960E+03  1.602876E+04 -3.574885E+03 -1.328420E+04  7.640072E-02
        76   8  7.757120E+05 -9.883211E+03  2.524670E+04  1.949763E+03 -2.706666E+04 -8.490283E-02
        76   9  7.845614E+05  4.578910E+04  5.935944E+04  7.474562E+03 -4.084925E+04 -4.912157E-01
        76  10  7.845796E+05 -1.837007E+03  1.602843E+04  3.574885E+03 -7.878116E-11 -5.867823E-10
        76  11  7.757113E+05 -9.883408E+03  2.524533E+04 -1.949763E+03  8.270517E-10 -8.609866E-11
        76  12  7.845596E+05  4.578866E+04  5.935630E+04 -7.474562E+03  9.358846E-11  4.710168E-11
        76  13  7.845796E+05 -1.837031E+03  1.602843E+04  2.929971E-08  1.060491E-09 -2.665393E-10
        76  14  7.757113E+05 -9.883415E+03  2.524533E+04  1.617932E-09 -1.216931E-09 -7.044032E-11
        76  15  7.845595E+05  4.578855E+04  5.935629E+04 -2.175382E-08  6.159477E-11  1.268490E-11
        76  16  7.845796E+05 -1.837007E+03  1.602843E+04 -3.574885E+03  7.654564E-10 -2.502275E-10
        76  17  7.757113E+05 -9.883408E+03  2.524533E+04  1.949763E+03 -5.717819E-10  9.768753E-11
        76  18  7.845596E+05  4.578866E+04  5.935630E+04  7.474562E+03  2.610350E-10  2.531628E-11
        76  19  7.845798E+05 -1.836960E+03  1.602876E+04  3.574885E+03  1.328420E+04  7.640071E-02
        76  20  7.757120E+05 -9.883211E+03  2.524670E+04 -1.949763E+03  2.706666E+04 -8.490283E-02
        76  21  7.845614E+05  4.578910E+04  5.935944E+04 -7.474562E+03  4.084925E+04 -4.912157E-01
        76  22  7.845798E+05 -1.836984E+03  1.602876E+04  1.207123E-08  1.328420E+04 -8.480362E-10
        76  23  7.757120E+05 -9.883218E+03  2.524670E+04 -2.423494E-08  2.706666E+04  4.590474E-10
        76  24  7.845613E+05  4.578900E+04  5.935942E+04 -3.091558E-08  4.084925E+04  5.814654E-11
        76  25  7.845798E+05 -1.836960E+03  1.602876E+04 -3.574885E+03  1.328420E+04 -7.640072E-02
        76  26  7.757120E+05 -9.883211E+03  2.524670E+04  1.949763E+03  2.706666E+04  8.490283E-02
        76  27  7.845614E+05  4.578910E+04  5.935944E+04  7.474562E+03  4.084925E+04  4.912157E-01
        77   1 -2.292491E+05 -4.490280E+05 -2.979906E+05  3.666495E+04 -1.445633E+02 -1.914247E+05
        77   2  4.365027E+04 -4.049147E+05 -1.373255E+05  9.438880E+03 -4.067259E+02 -1.198168E+05
        77   3 -2.407326E+03 -4.498750E+05 -1.030242E+05 -1.848453E+04 -3.861877E+02 -4.820953E+04
        77   4 -2.235190E+05 -4.260925E+05 -2.922740E+05 -3.041003E+02 -1.331559E+02 -1.913297E+05
        77   5  4.948134E+04 -3.815460E+05 -1.315432E+05  4.216863E+01 -4.049091E+02 -1.197888E+05
        77   6  3.539811E+03 -4.260600E+05 -9.712674E+04 -3.067527E+02 -3.876018E+02 -4.824846E+04
        77   7 -2.177838E+05 -4.031537E+05 -2.865568E+05 -3.727452E+04 -1.217601E+02 -1.912346E+05
        77   8  5.531270E+04 -3.581766E+05 -1.257609E+05 -9.354897E+03 -4.030933E+02 -1.197607E+05
        77   9  9.488147E+03 -4.022438E+05 -9.122916E+04  1.787172E+04 -3.890181E+02 -4.828738E+04
        77  10 -2.292589E+05 -4.490674E+05 -2.980595E+05  3.666493E+04 -1.510566E-09  9.162883E-11
        77  11  4.364642E+04 -4.049301E+05 -1.373525E+05  9.438841E+03 -8.864353E-10  9.272635E-13
        77  12 -2.407951E+03 -4.498775E+05 -1.030286E+05 -1.848454E+04  1.049587E-09  2.050120E-10
        77  13 -2.235288E+05 -4.261319E+05 -2.923429E+05 -3.041208E+02  1.454032E-10 -1.253919E-15
        77  14  4.947749E+04 -3.815614E+05 -1.315702E+05  4.212956E+01 -1.745461E-09  3.358773E-11
        77  15  3.539185E+03 -4.260625E+05 -9.713112E+04 -3.067677E+02 -1.045263E-09  9.520377E-12
        77  16 -2.177936E+05 -4.031930E+05 -2.866256E+05 -3.727454E+04  1.181565E-09 -1.104669E-10
        77  17  5.530885E+04 -3.581920E+05 -1.257879E+05 -9.354936E+03  4.032453E-09  5.175066E-11
        77  18  9.487521E+03 -4.022463E+05 -9.123354E+04  1.787170E+04 -7.634283E-10 -2.250172E-10
        77  19 -2.292491E+05 -4.490280E+05 -2.979906E+05  3.666495E+04  1.445633E+02  1.914247E+05
        77  20  4.365027E+04 -4.049147E+05 -1.373255E+05  9.438880E+03  4.067259E+02  1.198168E+05
        77  21 -2.407326E+03 -4.498750E+05 -1.030242E+05 -1.848453E+04  3.861877E+02  4.820953E+04
        77  22 -2.235190E+05 -4.260925E+05 -2.922740E+05 -3.041003E+02  1.331559E+02  1.913297E+05
        77  23  4.948134E+04 -3.815460E+05 -1.315432E+05  4.216863E+01  4.049091E+02  1.197888E+05
        77  24  3.539811E+03 -4.260600E+05 -9.712674E+04 -3.067527E+02  3.876018E+02  4.824846E+04
        77  25 -2.177838E+05 -4.031537E+05 -2.865568E+05 -3.727452E+04  1.217601E+02  1.912346E+05
        77  26  5.531270E+04 -3.581766E+05 -1.257609E+05 -9.354897E+03  4.030933E+02  1.197607E+05
        77  27  9.488147E+03 -4.022438E+05 -9.122916E+04  1.787172E+04  3.890181E+02  4.828738E+04
        78   1 -3.688563E+04 -4.378384E+05 -9.393871E+04  7.481032E+03 -3.608868E+02 -3.171717E+04
        78   2  8.128565E+03 -4.241998E+05 -7.332392E+04 -1.269203E+02 -4.091610E+02  3.295944E+03
        78   3 -4.039190E+04 -4.385055E+05 -9.889423E+04 -8.251254E+03 -3.680749E+02  3.830900E+04
        78   4 -3.055792E+04 -4.124882E+05 -8.765416E+04 -2.651883E+02 -3.604879E+02 -3.169486E+04
        78   5  1.453901E+04 -3.985185E+05 -6.696448E+04 -5.852931E+00 -4.091590E+02  3.297873E+03
        78   6 -3.389333E+04 -4.124888E+05 -9.244447E+04 -2.629015E+02 -3.675836E+02  3.829056E+04
        78   7 -2.423003E+04 -3.871372E+05 -8.136962E+04 -8.011726E+03 -3.600895E+02 -3.167254E+04
        78   8  2.094940E+04 -3.728367E+05 -6.060509E+04  1.152194E+02 -4.091571E+02  3.299803E+03
        78   9 -2.739458E+04 -3.864714E+05 -8.599472E+04  7.725786E+03 -3.670928E+02  3.827212E+04
        78  10 -3.688590E+04 -4.378395E+05 -9.394060E+04  7.481023E+03  1.673074E-09  2.434498E-11
        78  11  8.128562E+03 -4.241998E+05 -7.332394E+04 -1.269192E+02 -8.255345E-11 -1.336669E-10
        78  12 -4.039229E+04 -4.385071E+05 -9.889699E+04 -8.251242E+03  1.164530E-09  2.450767E-10
        78  13 -3.055819E+04 -4.124892E+05 -8.765605E+04 -2.651975E+02 -1.307359E-09  1.097647E-13
        78  14  1.453901E+04 -3.985185E+05 -6.696450E+04 -5.851844E+00 -9.233332E-10  1.608658E-10
        78  15 -3.389372E+04 -4.124904E+05 -9.244722E+04 -2.628902E+02  1.562827E-10  3.661579E-11
        78  16 -2.423030E+04 -3.871383E+05 -8.137151E+04 -8.011735E+03 -2.643566E-09 -1.060105E-10
        78  17  2.094940E+04 -3.728367E+05 -6.060511E+04  1.152205E+02  4.325420E-10  3.204505E-10
        78  18 -2.739497E+04 -3.864729E+05 -8.599747E+04  7.725797E+03  1.673225E-09 -2.612285E-10
        78  19 -3.688563E+04 -4.378384E+05 -9.393871E+04  7.481032E+03  3.608868E+02  3.171717E+04
        78  20  8.128565E+03 -4.241998E+05 -7.332392E+04 -1.269203E+02  4.091610E+02 -3.295944E+03
        78  21 -4.039190E+04 -4.385055E+05 -9.889423E+04 -8.251254E+03  3.680749E+02 -3.830900E+04
        78  22 -3.055792E+04 -4.124882E+05 -8.765416E+04 -2.651883E+02  3.604879E+02  3.169486E+04
        78  23  1.453901E+04 -3.985185E+05 -6.696448E+04 -5.852931E+00  4.091590E+02 -3.297873E+03
        78  24 -3.389333E+04 -4.124888E+05 -9.244447E+04 -2.629015E+02  3.675836E+02 -3.829056E+04
        78  25 -2.423003E+04 -3.871372E+05 -8.136962E+04 -8.011726E+03  3.600895E+02  3.167254E+04
        78  26  2.094940E+04 -3.728367E+05 -6.060509E+04  1.152194E+02  4.091571E+02 -3.299803E+03
        78  27 -2.739458E+04 -3.864714E+05 -8.599472E+04  7.725786E+03  3.670928E+02 -3.827212E+04
        79   1 -1.911696E+03 -4.550961E+05 -1.104998E+05  1.964661E+04 -4.154961E+02  5.581169E+04
        79   2  4.744246E+04 -4.065001E+05 -1.502047E+05 -1.043543E+04 -4.467872E+02  1.339514E+05
        79   3 -2.530276E+05 -4.555449E+05 -3.282416E+05 -4.079088E+04 -1.218396E+02  2.120918E+05
        79   4  4.852704E+03 -4.279623E+05 -1.037810E+05 -2.303522E+02 -4.172741E+02  5.586674E+04
        79   5  5.426879E+04 -3.791676E+05 -1.434409E+05 -6.300300E+01 -4.445534E+02  1.339222E+05
        79   6 -2.461200E+05 -4.279969E+05 -3.213703E+05 -1.716360E+02 -1.079822E+02  2.119783E+05
        79   7  1.161854E+04 -4.008269E+05 -9.706215E+04 -2.010818E+04 -4.190555E+02  5.592178E+04
        79   8  6.109547E+04 -3.518341E+05 -1.366770E+05  1.030988E+04 -4.423206E+02  1.338930E+05
        79   9 -2.392062E+05 -4.004447E+05 -3.144982E+05  4.044942E+04 -9.414006E+01  2.118648E+05
        79  10 -1.912533E+03 -4.550995E+05 -1.105056E+05  1.964663E+04 -2.486899E-10 -5.619339E-10
        79  11  4.743763E+04 -4.065194E+05 -1.502385E+05 -1.043538E+04 -1.815691E-09  4.918729E-12
        79  12 -2.530397E+05 -4.555932E+05 -3.283262E+05 -4.079086E+04  7.526457E-10  4.774669E-10
        79  13  4.851865E+03 -4.279656E+05 -1.037869E+05 -2.303335E+02 -7.569707E-10  5.384246E-11
        79  14  5.426397E+04 -3.791868E+05 -1.434746E+05 -6.295504E+01 -1.392424E-09  2.324362E-10
        79  15 -2.461321E+05 -4.280452E+05 -3.214548E+05 -1.716176E+02 -1.691964E-10  5.532415E-11
        79  16  1.161769E+04 -4.008302E+05 -9.706803E+04 -2.010816E+04  5.802908E-10  3.777472E-10
        79  17  6.109065E+04 -3.518534E+05 -1.367107E+05  1.030993E+04  1.055380E-09  3.206046E-10
        79  18 -2.392183E+05 -4.004930E+05 -3.145826E+05  4.044943E+04 -2.534881E-10 -5.886682E-10
        79  19 -1.911696E+03 -4.550961E+05 -1.104998E+05  1.964661E+04  4.154961E+02 -5.581169E+04
        79  20  4.744246E+04 -4.065001E+05 -1.502047E+05 -1.043543E+04  4.467872E+02 -1.339514E+05
        79  21 -2.530276E+05 -4.555449E+05 -3.282416E+05 -4.079088E+04  1.218396E+02 -2.120918E+05
        79  22  4.852704E+03 -4.279623E+05 -1.037810E+05 -2.303522E+02  4.172741E+02 -5.586674E+04
        79  23  5.426879E+04 -3.791676E+05 -1.434409E+05 -6.300300E+01  4.445534E+02 -1.339222E+05
        79  24 -2.461200E+05 -4.279969E+05 -3.213703E+05 -1.716360E+02  1.079822E+02 -2.119783E+05
        79  25  1.161854E+04 -4.008269E+05 -9.706215E+04 -2.010818E+04  4.190555E+02 -5.592178E+04
        79  26  6.109547E+04 -3.518341E+05 -1.366770E+05  1.030988E+04  4.423206E+02 -1.338930E+05
        79  27 -2.392062E+05 -4.004447E+05 -3.144982E+05  4.044942E+04  9.414006E+01 -2.118648E+05
        80   1  9.748908E+05  5.992719E+05  1.005238E+05  6.881002E+05  6.268358E+04  4.744528E+04
        80   2  9.351566E+05  5.173950E+05  3.553997E+04  7.306187E+05  4.074494E+04  3.180358E+04
        80   3  9.669695E+05  5.227503E+05  1.912373E+04  7.287218E+05  1.929995E+04  1.550356E+04
        80   4  1.033194E+06  6.168270E+05  1.156226E+05  7.058940E+05  6.289322E+04  4.760019E+04
        80   5  9.807947E+05  5.436351E+05  4.974597E+04  7.502971E+05  4.079333E+04  3.183946E+04
        80   6  9.999729E+05  5.577042E+05  3.257248E+04  7.502862E+05  1.918771E+04  1.541976E+04
        80   7  1.091501E+06  6.343824E+05  1.307212E+05  7.236888E+05  6.310288E+04  4.775511E+04
        80   8  1.026435E+06  5.698759E+05  6.395171E+04  7.699769E+05  4.084171E+04  3.187534E+04
        80   9  1.032977E+06  5.926598E+05  4.602104E+04  7.718521E+05  1.907546E+04  1.533594E+04
        80  10  9.748860E+05  5.992684E+05  1.005122E+05  6.880979E+05  5.965028E-10 -4.099342E-11
        80  11  9.351546E+05  5.173934E+05  3.553497E+04  7.306177E+05 -1.938349E-09 -5.555621E-10
        80  12  9.669690E+05  5.227499E+05  1.912258E+04  7.287215E+05 -1.984418E-09 -1.905467E-09
        80  13  1.033189E+06  6.168235E+05  1.156109E+05  7.058916E+05  6.850337E-10 -8.659455E-11
        80  14  9.807927E+05  5.436336E+05  4.974095E+04  7.502960E+05 -3.035812E-09 -1.862904E-09
        80  15  9.999724E+05  5.577039E+05  3.257135E+04  7.502859E+05 -5.223476E-09 -1.633581E-09
        80  16  1.091496E+06  6.343788E+05  1.307094E+05  7.236864E+05 -3.640365E-10 -4.214647E-10
        80  17  1.026433E+06  5.698743E+05  6.394668E+04  7.699758E+05 -3.281880E-09 -1.053136E-09
        80  18  1.032977E+06  5.926594E+05  4.601992E+04  7.718519E+05 -2.962675E-09 -1.760629E-09
        80  19  9.748908E+05  5.992719E+05  1.005238E+05  6.881002E+05 -6.268358E+04 -4.744528E+04
        80  20  9.351566E+05  5.173950E+05  3.553997E+04  7.306187E+05 -4.074494E+04 -3.180358E+04
        80  21  9.669695E+05  5.227503E+05  1.912373E+04  7.287218E+05 -1.929995E+04 -1.550356E+04
        80  22  1.033194E+06  6.168270E+05  1.156226E+05  7.058940E+05 -6.289322E+04 -4.760019E+04
        80  23  9.807947E+05  5.436351E+05  4.974597E+04  7.502971E+05 -4.079333E+04 -3.183946E+04
        80  24  9.999729E+05  5.577042E+05  3.257248E+04  7.502862E+05 -1.918771E+04 -1.541976E+04
        80  25  1.091501E+06  6.343824E+05  1.307212E+05  7.236888E+05 -6.310288E+04 -4.775511E+04
        80  26  1.026435E+06  5.698759E+05  6.395171E+04  7.699769E+05 -4.084171E+04 -3.187534E+04
        80  27  1.032977E+06  5.926598E+05  4.602104E+04  7.718521E+05 -1.907546E+04 -1.533594E+04
        81   1  9.674973E+05  5.450877E+05  1.623630E+04  7.243491E+05  1.500953E+04  1.205474E+04
        81   2  9.615997E+05  5.357346E+05  3.386579E+03  7.314144E+05  9.343382E+03  7.818430E+03
        81   3  9.691954E+05  5.363572E+05 -3.547549E+02  7.314013E+05  3.732867E+03  3.507853E+03
        81   4  1.001319E+06  5.658917E+05  2.705014E+04  7.395525E+05  1.502101E+04  1.206327E+04
        81   5  9.922502E+05  5.567689E+05  1.361171E+04  7.461948E+05  9.336610E+03  7.813340E+03
        81   6  9.966784E+05  5.576254E+05  9.296981E+03  7.457590E+05  3.707900E+03  3.489147E+03
        81   7  1.035141E+06  5.866962E+05  3.786387E+04  7.547568E+05  1.503249E+04  1.207179E+04
        81   8  1.022902E+06  5.778037E+05  2.383672E+04  7.609761E+05  9.329839E+03  7.808249E+03
        81   9  1.024162E+06  5.788940E+05  1.894858E+04  7.601174E+05  3.682931E+03  3.470440E+03
        81  10  9.674970E+05  5.450875E+05  1.623561E+04  7.243490E+05 -2.184945E-09 -1.457289E-09
        81  11  9.615996E+05  5.357345E+05  3.386301E+03  7.314143E+05  2.982562E-10 -6.647061E-10
        81  12  9.691954E+05  5.363572E+05 -3.548041E+02  7.314013E+05  2.725266E-10 -3.897879E-11
        81  13  1.001318E+06  5.658915E+05  2.704945E+04  7.395524E+05 -1.848133E-09 -1.134208E-09
        81  14  9.922501E+05  5.567689E+05  1.361143E+04  7.461948E+05  1.173119E-09 -6.241040E-10
        81  15  9.966784E+05  5.576254E+05  9.296932E+03  7.457590E+05  2.424595E-10  3.155204E-11
        81  16  1.035141E+06  5.866959E+05  3.786317E+04  7.547566E+05 -1.296444E-09 -1.355732E-09
        81  17  1.022901E+06  5.778037E+05  2.383644E+04  7.609760E+05 -7.757135E-10 -5.188632E-10
        81  18  1.024162E+06  5.788940E+05  1.894853E+04  7.601174E+05  1.581293E-09 -4.131629E-10
        81  19  9.674973E+05  5.450877E+05  1.623630E+04  7.243491E+05 -1.500953E+04 -1.205474E+04
        81  20  9.615997E+05  5.357346E+05  3.386579E+03  7.314144E+05 -9.343382E+03 -7.818430E+03
        81  21  9.691954E+05  5.363572E+05 -3.547549E+02  7.314013E+05 -3.732867E+03 -3.507853E+03
        81  22  1.001319E+06  5.658917E+05  2.705014E+04  7.395525E+05 -1.502101E+04 -1.206327E+04
        81  23  9.922502E+05  5.567689E+05  1.361171E+04  7.461948E+05 -9.336610E+03 -7.813340E+03
        81  24  9.966784E+05  5.576254E+05  9.296981E+03  7.457590E+05 -3.707900E+03 -3.489147E+03
        81  25  1.035141E+06  5.866962E+05  3.786387E+04  7.547568E+05 -1.503249E+04 -1.207179E+04
        81  26  1.022902E+06  5.778037E+05  2.383672E+04  7.609761E+05 -9.329839E+03 -7.808249E+03
        81  27  1.024162E+06  5.788940E+05  1.894858E+04  7.601174E+05 -3.682931E+03 -3.470440E+03
        82   1  9.736151E+05  5.430364E+05  4.049179E+02  7.333759E+05  2.500401E+03  2.511272E+03
        82   2  9.725362E+05  5.430232E+05 -1.011607E+03  7.350936E+05 -6.156038E+00  5.611213E+02
        82   3  9.768451E+05  5.440123E+05  8.311231E+02  7.345184E+05 -2.511723E+03 -1.390432E+03
        82   4  9.966480E+05  5.587845E+05  8.074033E+03  7.444566E+05  2.489646E+03  2.503207E+03
        82   5  9.939210E+05  5.582246E+05  6.227764E+03  7.456472E+05 -1.734926E+01  5.527312E+02
        82   6  9.965820E+05  5.586671E+05  7.641017E+03  7.445449E+05 -2.523348E+03 -1.399147E+03
        82   7  1.019681E+06  5.745329E+05  1.574308E+04  7.555378E+05  2.478891E+03  2.495141E+03
        82   8  1.015306E+06  5.734263E+05  1.346708E+04  7.562012E+05 -2.854303E+01  5.443407E+02
        82   9  1.016319E+06  5.733221E+05  1.445087E+04  7.545719E+05 -2.534973E+03 -1.407862E+03
        82  10  9.736151E+05  5.430364E+05  4.048944E+02  7.333759E+05  1.210313E-09  5.161148E-10
        82  11  9.725362E+05  5.430232E+05 -1.011608E+03  7.350936E+05  9.820391E-10  6.860845E-10
        82  12  9.768451E+05  5.440123E+05  8.311077E+02  7.345184E+05 -2.025696E-09 -8.279972E-11
        82  13  9.966480E+05  5.587845E+05  8.074010E+03  7.444566E+05  8.230095E-10  6.518792E-10
        82  14  9.939210E+05  5.582246E+05  6.227763E+03  7.456472E+05  1.297020E-09  5.267053E-10
        82  15  9.965819E+05  5.586671E+05  7.641001E+03  7.445449E+05 -1.382161E-09 -2.435024E-10
        82  16  1.019681E+06  5.745329E+05  1.574305E+04  7.555378E+05  1.159763E-09  9.759502E-10
        82  17  1.015306E+06  5.734263E+05  1.346708E+04  7.562012E+05  2.904502E-10  2.756117E-10
        82  18  1.016319E+06  5.733221E+05  1.445086E+04  7.545719E+05 -9.102914E-10 -9.000242E-10
        82  19  9.736151E+05  5.430364E+05  4.049179E+02  7.333759E+05 -2.500401E+03 -2.511272E+03
        82  20  9.725362E+05  5.430232E+05 -1.011607E+03  7.350936E+05  6.156038E+00 -5.611213E+02
        82  21  9.768451E+05  5.440123E+05  8.311231E+02  7.345184E+05  2.511723E+03  1.390432E+03
        82  22  9.966480E+05  5.587845E+05  8.074033E+03  7.444566E+05 -2.489646E+03 -2.503207E+03
        82  23  9.939210E+05  5.582246E+05  6.227764E+03  7.456472E+05  1.734926E+01 -5.527312E+02
        82  24  9.965820E+05  5.586671E+05  7.641017E+03  7.445449E+05  2.523348E+03  1.399147E+03
        82  25  1.019681E+06  5.745329E+05  1.574308E+04  7.555378E+05 -2.478891E+03 -2.495141E+03
        82  26  1.015306E+06  5.734263E+05  1.346708E+04  7.562012E+05  2.854303E+01 -5.443407E+02
        82  27  1.016319E+06  5.733221E+05  1.445087E+04  7.545719E+05  2.534973E+03  1.407862E+03
        83   1  9.797636E+05  5.477593E+05  3.374657E+03  7.383183E+05 -3.671537E+03 -2.298510E+03
        83   2  9.786221E+05  5.457638E+05  7.458566E+03  7.386704E+05 -8.817241E+03 -6.218445E+03
        83   3  9.885288E+05  5.539538E+05  1.982540E+04  7.329595E+05 -1.395881E+04 -1.014383E+04
        83   4  9.962989E+05  5.579614E+05  8.660467E+03  7.457664E+05 -3.680825E+03 -2.305463E+03
        83   5  9.928545E+05  5.565778E+05  1.241437E+04  7.460145E+05 -8.827990E+03 -6.226509E+03
        83   6  1.000458E+06  5.653797E+05  2.445229E+04  7.401997E+05 -1.397099E+04 -1.015302E+04
        83   7  1.012834E+06  5.681637E+05  1.394623E+04  7.532146E+05 -3.690114E+03 -2.312416E+03
        83   8  1.007087E+06  5.673919E+05  1.737014E+04  7.533587E+05 -8.838738E+03 -6.234573E+03
        83   9  1.012388E+06  5.768057E+05  2.907916E+04  7.474400E+05 -1.398318E+04 -1.016221E+04
        83  10  9.797636E+05  5.477593E+05  3.374622E+03  7.383183E+05 -2.054871E-09 -1.167362E-09
        83  11  9.786220E+05  5.457637E+05  7.458348E+03  7.386703E+05 -1.047743E-09 -8.040484E-10
        83  12  9.885285E+05  5.539537E+05  1.982484E+04  7.329594E+05  9.761776E-10  3.134452E-10
        83  13  9.962988E+05  5.579614E+05  8.660432E+03  7.457664E+05 -2.361325E-10 -8.859104E-10
        83  14  9.928544E+05  5.565777E+05  1.241415E+04  7.460144E+05 -4.495177E-09 -1.014052E-10
        83  15  1.000458E+06  5.653796E+05  2.445173E+04  7.401995E+05  7.660152E-10  4.934953E-10
        83  16  1.012834E+06  5.681637E+05  1.394619E+04  7.532146E+05 -3.057095E-11 -5.288618E-10
        83  17  1.007087E+06  5.673918E+05  1.736992E+04  7.533587E+05  3.063523E-11 -1.595548E-10
        83  18  1.012388E+06  5.768056E+05  2.907860E+04  7.474399E+05  2.915873E-10  2.486131E-10
        83  19  9.797636E+05  5.477593E+05  3.374657E+03  7.383183E+05  3.671537E+03  2.298510E+03
        83  20  9.786221E+05  5.457638E+05  7.458566E+03  7.386704E+05  8.817241E+03  6.218445E+03
        83  21  9.885288E+05  5.539538E+05  1.982540E+04  7.329595E+05  1.395881E+04  1.014383E+04
        83  22  9.962989E+05  5.579614E+05  8.660467E+03  7.457664E+05  3.680825E+03  2.305463E+03
        83  23  9.928545E+05  5.565778E+05  1.241437E+04  7.460145E+05  8.827990E+03  6.226509E+03
        83  24  1.000458E+06  5.653797E+05  2.445229E+04  7.401997E+05  1.397099E+04  1.015302E+04
        83  25  1.012834E+06  5.681637E+05  1.394623E+04  7.532146E+05  3.690114E+03  2.312416E+03
        83  26  1.007087E+06  5.673919E+05  1.737014E+04  7.533587E+05  8.838738E+03  6.234573E+03
        83  27  1.012388E+06  5.768057E+05  2.907916E+04  7.474400E+05  1.398318E+04  1.016221E+04
        84   1  9.827173E+05  5.571247E+05  2.596329E+04  7.466972E+05 -1.783766E+04 -1.305746E+04
        84   2  9.768629E+05  5.344055E+05  4.166761E+04  7.440039E+05 -3.736991E+04 -2.773044E+04
        84   3  1.032839E+06  5.929140E+05  1.012297E+05  7.020632E+05 -5.683320E+04 -4.249532E+04
        84   4  9.989280E+05  5.583229E+05  2.940333E+04  7.499532E+05 -1.783295E+04 -1.305365E+04
        84   5  9.829521E+05  5.443514E+05  4.483811E+04  7.495910E+05 -3.738754E+04 -2.774397E+04
        84   6  1.028810E+06  6.116114E+05  1.041496E+05  7.099818E+05 -5.687264E+04 -4.252673E+04
        84   7  1.015139E+06  5.595212E+05  3.284338E+04  7.532092E+05 -1.782823E+04 -1.304984E+04
        84   8  9.890414E+05  5.542974E+05  4.800860E+04  7.551782E+05 -3.740517E+04 -2.775750E+04
        84   9  1.024782E+06  6.303096E+05  1.070696E+05  7.179005E+05 -5.691207E+04 -4.255815E+04
        84  10  9.827170E+05  5.571244E+05  2.596237E+04  7.466970E+05  8.452950E-10  1.573939E-10
        84  11  9.768612E+05  5.344043E+05  4.166355E+04  7.440031E+05 -1.540275E-09  4.264617E-10
        84  12  1.032835E+06  5.929112E+05  1.012202E+05  7.020612E+05 -2.478014E-10  5.888341E-10
        84  13  9.989276E+05  5.583227E+05  2.940241E+04  7.499530E+05 -5.676588E-10  5.059326E-10
        84  14  9.829504E+05  5.443502E+05  4.483404E+04  7.495902E+05 -4.948670E-10  3.359877E-10
        84  15  1.028806E+06  6.116086E+05  1.041401E+05  7.099799E+05 -2.397560E-10  5.017623E-10
        84  16  1.015139E+06  5.595209E+05  3.284247E+04  7.532090E+05  5.151307E-11  7.275487E-10
        84  17  9.890397E+05  5.542962E+05  4.800453E+04  7.551773E+05 -9.911569E-11  2.547238E-10
        84  18  1.024778E+06  6.303068E+05  1.070601E+05  7.178986E+05 -1.488352E-10  1.102069E-10
        84  19  9.827173E+05  5.571247E+05  2.596329E+04  7.466972E+05  1.783766E+04  1.305746E+04
        84  20  9.768629E+05  5.344055E+05  4.166761E+04  7.440039E+05  3.736991E+04  2.773044E+04
        84  21  1.032839E+06  5.929140E+05  1.012297E+05  7.020632E+05  5.683320E+04  4.249532E+04
        84  22  9.989280E+05  5.583229E+05  2.940333E+04  7.499532E+05  1.783295E+04  1.305365E+04
        84  23  9.829521E+05  5.443514E+05  4.483811E+04  7.495910E+05  3.738754E+04  2.774397E+04
        84  24  1.028810E+06  6.116114E+05  1.041496E+05  7.099818E+05  5.687264E+04  4.252673E+04
        84  25  1.015139E+06  5.595212E+05  3.284338E+04  7.532092E+05  1.782823E+04  1.304984E+04
        84  26  9.890414E+05  5.542974E+05  4.800860E+04  7.551782E+05  3.740517E+04  2.775750E+04
        84  27  1.024782E+06  6.303096E+05  1.070696E+05  7.179005E+05  5.691207E+04  4.255815E+04
        85   1 -1.762390E+04 -8.076709E+04 -1.049800E+05 -1.322126E+04 -7.087332E+04  1.509340E+00
        85   2 -1.875027E+03  1.753624E+04 -4.565272E+04 -3.436154E+03 -4.599739E+04  2.545841E-01
        85   3 -1.762540E+04  2.795546E+03 -3.077942E+04  6.349174E+03 -2.112165E+04 -2.160136E-01
        85   4 -1.762409E+04 -8.076742E+04 -1.049801E+05 -2.723619E-09 -7.087332E+04  6.759885E-10
        85   5 -1.875040E+03  1.753622E+04 -4.565273E+04  1.115467E-08 -4.599739E+04 -4.630070E-10
        85   6 -1.762544E+04  2.795470E+03 -3.077943E+04  3.492697E-09 -2.112165E+04  5.035779E-10
        85   7 -1.762390E+04 -8.076709E+04 -1.049800E+05  1.322126E+04 -7.087332E+04 -1.509340E+00
        85   8 -1.875027E+03  1.753624E+04 -4.565272E+04  3.436154E+03 -4.599739E+04 -2.545841E-01
        85   9 -1.762540E+04  2.795546E+03 -3.077942E+04 -6.349174E+03 -2.112165E+04  2.160136E-01
        85  10 -1.762929E+04 -8.076844E+04 -1.049895E+05 -1.322126E+04  5.971748E-10 -8.858659E-11
        85  11 -1.877299E+03  1.753567E+04 -4.565670E+04 -3.436154E+03 -8.272126E-10 -1.332202E-10
        85  12 -1.762588E+04  2.795426E+03 -3.078026E+04  6.349174E+03  4.295082E-10  9.229724E-11
        85  13 -1.762948E+04 -8.076877E+04 -1.049895E+05 -2.729234E-09 -1.074202E-09 -8.996141E-11
        85  14 -1.877312E+03  1.753565E+04 -4.565670E+04  1.546360E-08 -5.357547E-10 -1.685966E-10
        85  15 -1.762592E+04  2.795350E+03 -3.078027E+04  1.642346E-08 -5.379615E-10  8.422844E-11
        85  16 -1.762929E+04 -8.076844E+04 -1.049895E+05  1.322126E+04  4.846202E-10 -3.732564E-11
        85  17 -1.877299E+03  1.753567E+04 -4.565670E+04  3.436154E+03 -2.490367E-10 -2.270198E-10
        85  18 -1.762588E+04  2.795426E+03 -3.078026E+04 -6.349174E+03  8.400969E-10  2.381624E-11
        85  19 -1.762390E+04 -8.076709E+04 -1.049800E+05 -1.322126E+04  7.087332E+04 -1.509340E+00
        85  20 -1.875027E+03  1.753624E+04 -4.565272E+04 -3.436154E+03  4.599739E+04 -2.545841E-01
        85  21 -1.762540E+04  2.795546E+03 -3.077942E+04  6.349174E+03  2.112165E+04  2.160136E-01
        85  22 -1.762409E+04 -8.076742E+04 -1.049801E+05 -2.733094E-09  7.087332E+04 -8.308711E-10
        85  23 -1.875040E+03  1.753622E+04 -4.565273E+04 -6.075113E-09  4.599739E+04  1.348626E-10
        85  24 -1.762544E+04  2.795470E+03 -3.077943E+04  1.104683E-08  2.112165E+04 -2.021308E-10
        85  25 -1.762390E+04 -8.076709E+04 -1.049800E+05  1.322126E+04  7.087332E+04  1.509340E+00
        85  26 -1.875027E+03  1.753624E+04 -4.565272E+04  3.436154E+03  4.599739E+04  2.545841E-01
        85  27 -1.762540E+04  2.795546E+03 -3.077942E+04 -6.349174E+03  2.112165E+04 -2.160136E-01
        86   1 -1.189967E+04 -1.143393E+04 -2.617524E+04 -1.944484E+03 -1.601934E+04  5.017425E-02
        86   2 -9.033323E+03  2.927948E+03 -1.518207E+04 -3.734887E+02 -8.133882E+03  4.893346E-03
        86   3 -1.189973E+04 -1.534679E+03 -1.402850E+04  1.197485E+03 -2.485227E+02 -4.793673E-04
        86   4 -1.189968E+04 -1.143394E+04 -2.617524E+04 -2.055787E-08 -1.601934E+04  2.950961E-10
        86   5 -9.033324E+03  2.927948E+03 -1.518207E+04  4.294336E-09 -8.133882E+03 -8.864625E-10
        86   6 -1.189973E+04 -1.534682E+03 -1.402850E+04  3.837554E-09 -2.485227E+02  1.413525E-10
        86   7 -1.189967E+04 -1.143393E+04 -2.617524E+04  1.944484E+03 -1.601934E+04 -5.017425E-02
        86   8 -9.033323E+03  2.927948E+03 -1.518207E+04  3.734887E+02 -8.133882E+03 -4.893347E-03
        86   9 -1.189973E+04 -1.534679E+03 -1.402850E+04 -1.197485E+03 -2.485227E+02  4.793676E-04
        86  10 -1.189995E+04 -1.143400E+04 -2.617572E+04 -1.944484E+03 -6.640290E-10 -4.296137E-12
        86  11 -9.033394E+03  2.927931E+03 -1.518220E+04 -3.734887E+02 -2.793302E-10 -3.557403E-10
        86  12 -1.189973E+04 -1.534680E+03 -1.402850E+04  1.197485E+03  1.976087E-10  2.030365E-10
        86  13 -1.189995E+04 -1.143400E+04 -2.617572E+04  5.280664E-09 -1.079055E-09  1.221328E-11
        86  14 -9.033395E+03  2.927930E+03 -1.518220E+04 -4.320305E-09  1.079335E-09 -2.448936E-10
        86  15 -1.189973E+04 -1.534682E+03 -1.402850E+04  1.838801E-08 -5.351859E-10  1.480008E-10
        86  16 -1.189995E+04 -1.143400E+04 -2.617572E+04  1.944484E+03  1.211582E-09  4.744776E-11
        86  17 -9.033394E+03  2.927931E+03 -1.518220E+04  3.734887E+02 -7.910147E-10 -1.564080E-10
        86  18 -1.189973E+04 -1.534680E+03 -1.402850E+04 -1.197485E+03  5.416103E-10  7.868182E-11
        86  19 -1.189967E+04 -1.143393E+04 -2.617524E+04 -1.944484E+03  1.601934E+04 -5.017425E-02
        86  20 -9.033323E+03  2.927948E+03 -1.518207E+04 -3.734887E+02  8.133882E+03 -4.893347E-03
        86  21 -1.189973E+04 -1.534679E+03 -1.402850E+04  1.197485E+03  2.485227E+02  4.793677E-04
        86  22 -1.189968E+04 -1.143394E+04 -2.617524E+04  9.635108E-10  1.601934E+04 -2.613896E-10
        86  23 -9.033324E+03  2.927948E+03 -1.518207E+04  3.014396E-08  8.133882E+03  3.903652E-10
        86  24 -1.189973E+04 -1.534682E+03 -1.402850E+04  2.270691E-08  2.485227E+02  1.493509E-10
        86  25 -1.189967E+04 -1.143393E+04 -2.617524E+04  1.944484E+03  1.601934E+04  5.017425E-02
        86  26 -9.033323E+03  2.927948E+03 -1.518207E+04  3.734887E+02  8.133882E+03  4.893348E-03
        86  27 -1.189973E+04 -1.534679E+03 -1.402850E+04 -1.197485E+03  2.485227E+02 -4.793674E-04
        87   1 -1.208450E+04 -1.112493E+03 -1.432975E+04 -1.341003E+03  2.303411E+03 -4.975468E-03
        87   2 -8.802328E+03  3.368296E+03 -1.697584E+04  4.703040E+02  1.113304E+04  8.433797E-03
        87   3 -1.208440E+04 -1.380976E+04 -3.078478E+04  2.281637E+03  1.996278E+04  7.336677E-02
        87   4 -1.208450E+04 -1.112496E+03 -1.432976E+04 -1.787113E-08  2.303411E+03  6.240360E-10
        87   5 -8.802328E+03  3.368296E+03 -1.697584E+04 -6.370216E-09  1.113304E+04  2.880404E-10
        87   6 -1.208441E+04 -1.380977E+04 -3.078478E+04 -9.408453E-09  1.996278E+04  1.658836E-10
        87   7 -1.208450E+04 -1.112493E+03 -1.432975E+04  1.341003E+03  2.303411E+03  4.975470E-03
        87   8 -8.802328E+03  3.368296E+03 -1.697584E+04 -4.703040E+02  1.113304E+04 -8.433796E-03
        87   9 -1.208440E+04 -1.380976E+04 -3.078478E+04 -2.281637E+03  1.996278E+04 -7.336676E-02
        87  10 -1.208451E+04 -1.112494E+03 -1.432976E+04 -1.341003E+03  1.312915E-10  3.056327E-10
        87  11 -8.802461E+03  3.368263E+03 -1.697607E+04  4.703040E+02 -5.047553E-10 -1.488075E-10
        87  12 -1.208483E+04 -1.380987E+04 -3.078553E+04  2.281637E+03  1.127042E-11 -5.288347E-11
        87  13 -1.208451E+04 -1.112498E+03 -1.432977E+04  1.658404E-08 -1.072750E-09  2.180501E-10
        87  14 -8.802461E+03  3.368263E+03 -1.697607E+04 -1.929630E-08  1.076954E-09 -1.355694E-10
        87  15 -1.208484E+04 -1.380987E+04 -3.078553E+04 -2.502089E-08 -5.343143E-10 -8.645166E-11
        87  16 -1.208451E+04 -1.112494E+03 -1.432976E+04  1.341003E+03  6.734868E-10  1.367849E-10
        87  17 -8.802461E+03  3.368263E+03 -1.697607E+04 -4.703040E+02  4.982096E-10 -1.479642E-10
        87  18 -1.208483E+04 -1.380987E+04 -3.078553E+04 -2.281637E+03 -8.519767E-10 -1.456816E-10
        87  19 -1.208450E+04 -1.112493E+03 -1.432975E+04 -1.341003E+03 -2.303411E+03  4.975469E-03
        87  20 -8.802328E+03  3.368296E+03 -1.697584E+04  4.703040E+02 -1.113304E+04 -8.433796E-03
        87  21 -1.208440E+04 -1.380976E+04 -3.078478E+04  2.281637E+03 -1.996278E+04 -7.336676E-02
        87  22 -1.208450E+04 -1.112496E+03 -1.432976E+04 -6.555887E-10 -2.303411E+03 -1.954821E-10
        87  23 -8.802328E+03  3.368296E+03 -1.697584E+04 -6.374649E-09 -1.113304E+04 -5.457937E-10
        87  24 -1.208441E+04 -1.380977E+04 -3.078478E+04 -1.747855E-08 -1.996278E+04 -3.258997E-10
        87  25 -1.208450E+04 -1.112493E+03 -1.432975E+04  1.341003E+03 -2.303411E+03 -4.975469E-03
        87  26 -8.802328E+03  3.368296E+03 -1.697584E+04 -4.703040E+02 -1.113304E+04  8.433796E-03
        87  27 -1.208440E+04 -1.380976E+04 -3.078478E+04 -2.281637E+03 -1.996278E+04  7.336676E-02
        88   1 -1.905188E+04  3.473081E+03 -3.652256E+04 -7.642843E+03  2.599159E+04 -3.199812E-01
        88   2 -9.132562E+01  2.111739E+04 -5.477152E+04  4.142483E+03  5.584730E+04  3.726378E-01
        88   3 -1.904958E+04 -9.736841E+04 -1.264871E+05  1.592749E+04  8.570329E+04  2.198751E+00
        88   4 -1.905194E+04  3.472971E+03 -3.652258E+04 -8.959343E-09  2.599159E+04  3.752435E-10
        88   5 -9.134405E+01  2.111736E+04 -5.477152E+04  2.538590E-08  5.584730E+04  6.983081E-10
        88   6 -1.904985E+04 -9.736889E+04 -1.264872E+05 -4.889099E-09  8.570329E+04 -1.096492E-09
        88   7 -1.905188E+04  3.473081E+03 -3.652256E+04  7.642843E+03  2.599159E+04  3.199812E-01
        88   8 -9.132562E+01  2.111739E+04 -5.477152E+04 -4.142483E+03  5.584730E+04 -3.726378E-01
        88   9 -1.904958E+04 -9.736841E+04 -1.264871E+05 -1.592749E+04  8.570329E+04 -2.198751E+00
        88  10 -1.905260E+04  3.472899E+03 -3.652383E+04 -7.642843E+03  5.779053E-10 -3.505809E-11
        88  11 -9.467504E+01  2.111655E+04 -5.477738E+04  4.142483E+03  2.657038E-10 -3.587431E-10
        88  12 -1.905746E+04 -9.737039E+04 -1.265009E+05  1.592749E+04  1.129929E-09 -1.785336E-10
        88  13 -1.905267E+04  3.472790E+03 -3.652385E+04 -3.468748E-10 -1.350680E-11 -6.758586E-11
        88  14 -9.469347E+01  2.111652E+04 -5.477739E+04  8.153690E-09  1.092528E-09 -1.736278E-10
        88  15 -1.905774E+04 -9.737086E+04 -1.265010E+05  8.036759E-09  2.680207E-10 -7.122065E-11
        88  16 -1.905260E+04  3.472899E+03 -3.652383E+04  7.642843E+03 -3.074733E-10 -1.304886E-10
        88  17 -9.467504E+01  2.111655E+04 -5.477738E+04 -4.142483E+03 -2.643575E-10 -1.095567E-10
        88  18 -1.905746E+04 -9.737039E+04 -1.265009E+05 -1.592749E+04  1.067514E-09  4.218440E-11
        88  19 -1.905188E+04  3.473081E+03 -3.652256E+04 -7.642843E+03 -2.599159E+04  3.199812E-01
        88  20 -9.132562E+01  2.111739E+04 -5.477152E+04  4.142483E+03 -5.584730E+04 -3.726378E-01
        88  21 -1.904958E+04 -9.736841E+04 -1.264871E+05  1.592749E+04 -8.570329E+04 -2.198751E+00
        88  22 -1.905194E+04  3.472971E+03 -3.652258E+04  3.957344E-09 -2.599159E+04 -5.048640E-10
        88  23 -9.134405E+01  2.111736E+04 -5.477152E+04 -9.078753E-09 -5.584730E+04 -1.043203E-09
        88  24 -1.904985E+04 -9.736889E+04 -1.264872E+05 -2.480673E-08 -8.570329E+04  3.428383E-10
        88  25 -1.905188E+04  3.473081E+03 -3.652256E+04  7.642843E+03 -2.599159E+04 -3.199812E-01
        88  26 -9.132562E+01  2.111739E+04 -5.477152E+04 -4.142483E+03 -5.584730E+04  3.726378E-01
        88  27 -1.904958E+04 -9.736841E+04 -1.264871E+05 -1.592749E+04 -8.570329E+04  2.198751E+00
        89   1 -1.125119E+05 -6.862003E+04 -1.275491E+05  2.780207E+04 -1.521466E+03 -3.891445E+04
        89   2 -4.723525E+04 -2.861564E+04 -8.756148E+04 -1.900484E+03 -4.146957E+03 -2.166405E+04
        89   3 -5.138862E+04 -7.996479E+03 -7.611894E+04  1.573697E+04 -2.754801E+03 -4.414071E+03
        89   4 -4.685553E+04  1.942151E+05 -6.207971E+04  1.990644E+04 -1.520786E+03 -3.781210E+04
        89   5  1.073633E+04  2.038166E+05 -3.010465E+04 -3.766099E+03 -4.146733E+03 -2.151978E+04
        89   6 -9.214992E+02  1.942057E+05 -2.600110E+04  1.990073E+04 -2.755355E+03 -5.228759E+03
        89   7  1.879591E+04  4.571131E+05  3.384482E+03  1.200747E+04 -1.520134E+03 -3.670927E+04
        89   8  6.870389E+04  4.362978E+05  2.734816E+04 -5.632418E+03 -4.146510E+03 -2.137545E+04
        89   9  4.954263E+04  3.964450E+05  2.411371E+04  2.406584E+04 -2.755921E+03 -6.043711E+03
        89  10 -1.125123E+05 -6.862166E+04 -1.275519E+05  2.780202E+04  8.457833E-10 -4.191042E-10
        89  11 -4.723539E+04 -2.861615E+04 -8.756239E+04 -1.900557E+03 -1.592269E-10  2.651023E-11
        89  12 -5.138863E+04 -7.996502E+03 -7.611899E+04  1.573696E+04  1.287425E-09  9.299794E-10
        89  13 -4.685592E+04  1.942136E+05 -6.208240E+04  1.990639E+04 -8.332106E-10 -2.191502E-10
        89  14  1.073619E+04  2.038160E+05 -3.010556E+04 -3.766171E+03 -1.734046E-09 -4.366154E-10
        89  15 -9.215147E+02  1.942057E+05 -2.600116E+04  1.990072E+04 -2.328999E-09 -1.011883E-09
        89  16  1.879555E+04  4.571116E+05  3.381947E+03  1.200742E+04  8.099751E-11  5.505295E-10
        89  17  6.870375E+04  4.362973E+05  2.734727E+04 -5.632489E+03 -1.458795E-09 -6.826543E-10
        89  18  4.954261E+04  3.964450E+05  2.411363E+04  2.406583E+04 -1.261591E-09 -6.761706E-10
        89  19 -1.125119E+05 -6.862003E+04 -1.275491E+05  2.780207E+04  1.521466E+03  3.891445E+04
        89  20 -4.723525E+04 -2.861564E+04 -8.756148E+04 -1.900484E+03  4.146957E+03  2.166405E+04
        89  21 -5.138862E+04 -7.996479E+03 -7.611894E+04  1.573697E+04  2.754801E+03  4.414071E+03
        89  22 -4.685553E+04  1.942151E+05 -6.207971E+04  1.990644E+04  1.520786E+03  3.781210E+04
        89  23  1.073633E+04  2.038166E+05 -3.010465E+04 -3.766099E+03  4.146733E+03  2.151978E+04
        89  24 -9.214992E+02  1.942057E+05 -2.600110E+04  1.990073E+04  2.755355E+03  5.228759E+03
        89  25  1.879591E+04  4.571131E+05  3.384482E+03  1.200747E+04  1.520134E+03  3.670927E+04
        89  26  6.870389E+04  4.362978E+05  2.734816E+04 -5.632418E+03  4.146510E+03  2.137545E+04
        89  27  4.954263E+04  3.964450E+05  2.411371E+04  2.406584E+04  2.755921E+03  6.043711E+03
        90   1 -2.675219E+04  1.126408E+05 -4.626978E+04  2.236108E+04 -1.454043E+03 -4.744122E+02
        90   2 -7.658592E+03  1.481270E+05 -3.933548E+04 -4.152200E+03 -8.392291E+02  1.321928E+04
        90   3 -2.498099E+04  1.726416E+05 -5.043586E+04  1.626501E+04 -4.187721E+01  2.691328E+04
        90   4 -5.953833E+03  1.960506E+05 -2.564873E+04  1.981041E+04 -1.454130E+03 -5.975423E+02
        90   5  5.664894E+03  2.015334E+05 -2.611901E+04 -3.648296E+03 -8.393584E+02  1.305346E+04
        90   6 -1.912334E+04  1.960516E+05 -4.459335E+04  1.982339E+04 -4.192309E+01  2.670411E+04
        90   7  1.484403E+04  2.794668E+05 -5.028184E+03  1.725938E+04 -1.454216E+03 -7.206889E+02
        90   8  1.898817E+04  2.549424E+05 -1.290275E+04 -3.144350E+03 -8.394879E+02  1.288763E+04
        90   9 -1.326569E+04  2.194622E+05 -3.875088E+04  2.338191E+04 -4.197138E+01  2.649493E+04
        90  10 -2.675220E+04  1.126408E+05 -4.626979E+04  2.236108E+04  1.123386E-09  1.651170E-10
        90  11 -7.658639E+03  1.481268E+05 -3.933581E+04 -4.152191E+03 -8.021730E-10 -3.729641E-10
        90  12 -2.498118E+04  1.726408E+05 -5.043722E+04  1.626501E+04  6.637576E-10  7.097791E-10
        90  13 -5.953836E+03  1.960506E+05 -2.564873E+04  1.981041E+04 -1.095092E-09 -1.691444E-09
        90  14  5.664848E+03  2.015332E+05 -2.611933E+04 -3.648287E+03 -1.366547E-09 -9.389029E-10
        90  15 -1.912354E+04  1.960508E+05 -4.459469E+04  1.982339E+04  1.033875E-09 -1.382083E-09
        90  16  1.484403E+04  2.794668E+05 -5.028189E+03  1.725938E+04 -9.771223E-10  7.118794E-10
        90  17  1.898812E+04  2.549422E+05 -1.290306E+04 -3.144341E+03 -2.610916E-09 -1.048013E-09
        90  18 -1.326588E+04  2.194614E+05 -3.875220E+04  2.338191E+04  8.507311E-11 -4.279664E-10
        90  19 -2.675219E+04  1.126408E+05 -4.626978E+04  2.236108E+04  1.454043E+03  4.744122E+02
        90  20 -7.658592E+03  1.481270E+05 -3.933548E+04 -4.152200E+03  8.392291E+02 -1.321928E+04
        90  21 -2.498099E+04  1.726416E+05 -5.043586E+04  1.626501E+04  4.187721E+01 -2.691328E+04
        90  22 -5.953833E+03  1.960506E+05 -2.564873E+04  1.981041E+04  1.454130E+03  5.975423E+02
        90  23  5.664894E+03  2.015334E+05 -2.611901E+04 -3.648296E+03  8.393584E+02 -1.305346E+04
        90  24 -1.912334E+04  1.960516E+05 -4.459335E+04  1.982339E+04  4.192309E+01 -2.670411E+04
        90  25  1.484403E+04  2.794668E+05 -5.028184E+03  1.725938E+04  1.454216E+03  7.206889E+02
        90  26  1.898817E+04  2.549424E+05 -1.290275E+04 -3.144350E+03  8.394879E+02 -1.288763E+04
        90  27 -1.326569E+04  2.194622E+05 -3.875088E+04  2.338191E+04  4.197138E+01 -2.649493E+04
        91   1  2.799304E+04  2.815911E+05 -2.876041E+04  3.067614E+04  1.083411E+03  3.600126E+04
        91   2  6.083370E+04  3.382982E+05 -4.628057E+04 -9.386120E+03  2.346892E+03  7.743017E+04
        91   3 -9.748528E+04  3.418264E+05 -1.385457E+05 -2.379103E+03  9.672500E+02  1.188631E+05
        91   4  4.268587E+03  1.866374E+05 -5.233402E+04  1.981244E+04  1.082223E+03  3.538506E+04
        91   5  2.967632E+04  2.132990E+05 -7.716173E+04 -3.679240E+03  2.347650E+03  7.744047E+04
        91   6 -1.362065E+05  1.866590E+05 -1.771815E+05  1.989889E+04  9.719301E+02  1.194979E+05
        91   7 -1.945610E+04  9.169210E+04 -7.590825E+04  8.950391E+03  1.081057E+03  3.476896E+04
        91   8 -1.482111E+03  8.831412E+04 -1.080440E+05  2.026487E+03  2.348407E+03  7.745077E+04
        91   9 -1.749276E+05  3.151447E+04 -2.158188E+05  4.217132E+04  9.766567E+02  1.201325E+05
        91  10  2.799269E+04  2.815897E+05 -2.876284E+04  3.067611E+04  1.830516E-09  3.602887E-10
        91  11  6.083209E+04  3.382918E+05 -4.629184E+04 -9.386266E+03 -5.444404E-10 -2.435678E-10
        91  12 -9.748907E+04  3.418113E+05 -1.385722E+05 -2.379196E+03  4.531530E-11  1.686061E-10
        91  13  4.268249E+03  1.866360E+05 -5.233638E+04  1.981241E+04 -6.027696E-10 -1.929607E-09
        91  14  2.967470E+04  2.132926E+05 -7.717301E+04 -3.679386E+03 -9.104839E-10 -8.192165E-10
        91  15 -1.362103E+05  1.866437E+05 -1.772083E+05  1.989880E+04 -8.763252E-10 -8.618955E-10
        91  16 -1.945643E+04  9.169080E+04 -7.591052E+04  8.950360E+03 -4.149854E-11  6.828986E-10
        91  17 -1.483727E+03  8.830767E+04 -1.080553E+05  2.026341E+03 -3.132072E-09 -9.831106E-10
        91  18 -1.749315E+05  3.149897E+04 -2.158460E+05  4.217122E+04 -1.154828E-09  7.870263E-11
        91  19  2.799304E+04  2.815911E+05 -2.876041E+04  3.067614E+04 -1.083411E+03 -3.600126E+04
        91  20  6.083370E+04  3.382982E+05 -4.628057E+04 -9.386120E+03 -2.346892E+03 -7.743017E+04
        91  21 -9.748528E+04  3.418264E+05 -1.385457E+05 -2.379103E+03 -9.672500E+02 -1.188631E+05
        91  22  4.268587E+03  1.866374E+05 -5.233402E+04  1.981244E+04 -1.082223E+03 -3.538506E+04
        91  23  2.967632E+04  2.132990E+05 -7.716173E+04 -3.679240E+03 -2.347650E+03 -7.744047E+04
        91  24 -1.362065E+05  1.866590E+05 -1.771815E+05  1.989889E+04 -9.719301E+02 -1.194979E+05
        91  25 -1.945610E+04  9.169210E+04 -7.590825E+04  8.950391E+03 -1.081057E+03 -3.476896E+04
        91  26 -1.482111E+03  8.831412E+04 -1.080440E+05  2.026487E+03 -2.348407E+03 -7.745077E+04
        91  27 -1.749276E+05  3.151447E+04 -2.158188E+05  4.217132E+04 -9.766567E+02 -1.201325E+05
        92   1  7.733480E+05  5.325253E+05  1.487940E+05  5.141288E+05  5.669705E+04  4.115555E+04
        92   2  7.388350E+05  4.274314E+05  8.477916E+04  5.362743E+05  3.825154E+04  2.497993E+04
        92   3  7.281059E+05  4.382239E+05  6.396950E+04  5.309399E+05  1.803907E+04  1.115973E+04
        92   4  6.465805E+05  4.212379E+05  1.013960E+05  4.419187E+05  5.604442E+04  4.066417E+04
        92   5  6.201616E+05  3.374215E+05  4.352978E+04  4.751245E+05  3.816952E+04  2.491800E+04
        92   6  6.174141E+05  3.693815E+05  2.838300E+04  4.808470E+05  1.852713E+04  1.152640E+04
        92   7  5.198294E+05  3.099646E+05  5.399522E+04  3.697265E+05  5.539197E+04  4.017295E+04
        92   8  5.015026E+05  2.474201E+05  2.278242E+03  4.139879E+05  3.808752E+04  2.485610E+04
        92   9  5.067349E+05  3.005434E+05 -7.205096E+03  4.307633E+05  1.901508E+04  1.189299E+04
        92  10  7.733441E+05  5.325226E+05  1.487848E+05  5.141270E+05 -2.356389E-09  2.306260E-10
        92  11  7.388333E+05  4.274303E+05  8.477525E+04  5.362735E+05 -3.993475E-10  1.003628E-09
        92  12  7.281056E+05  4.382237E+05  6.396865E+04  5.309397E+05 -3.798338E-10  3.986124E-10
        92  13  6.465767E+05  4.212353E+05  1.013870E+05  4.419169E+05 -1.725181E-10  2.422762E-10
        92  14  6.201599E+05  3.374205E+05  4.352588E+04  4.751237E+05 -2.502214E-09  1.670680E-09
        92  15  6.174137E+05  3.693813E+05  2.838210E+04  4.808468E+05 -9.148043E-10  5.583676E-10
        92  16  5.198257E+05  3.099621E+05  5.398643E+04  3.697247E+05  5.803292E-10  3.201233E-10
        92  17  5.015009E+05  2.474191E+05  2.274360E+03  4.139872E+05 -2.341275E-10  2.676374E-10
        92  18  5.067345E+05  3.005432E+05 -7.206040E+03  4.307631E+05 -1.002550E-09  6.810768E-10
        92  19  7.733480E+05  5.325253E+05  1.487940E+05  5.141288E+05 -5.669705E+04 -4.115555E+04
        92  20  7.388350E+05  4.274314E+05  8.477916E+04  5.362743E+05 -3.825154E+04 -2.497993E+04
        92  21  7.281059E+05  4.382239E+05  6.396950E+04  5.309399E+05 -1.803907E+04 -1.115973E+04
        92  22  6.465805E+05  4.212379E+05  1.013960E+05  4.419187E+05 -5.604442E+04 -4.066417E+04
        92  23  6.201616E+05  3.374215E+05  4.352978E+04  4.751245E+05 -3.816952E+04 -2.491800E+04
        92  24  6.174141E+05  3.693815E+05  2.838300E+04  4.808470E+05 -1.852713E+04 -1.152640E+04
        92  25  5.198294E+05  3.099646E+05  5.399522E+04  3.697265E+05 -5.539197E+04 -4.017295E+04
        92  26  5.015026E+05  2.474201E+05  2.278242E+03  4.139879E+05 -3.808752E+04 -2.485610E+04
        92  27  5.067349E+05  3.005434E+05 -7.205096E+03  4.307633E+05 -1.901508E+04 -1.189299E+04
        93   1  6.570566E+05  4.058271E+05  3.685880E+04  4.912738E+05  1.420785E+04  9.439493E+03
        93   2  6.524104E+05  3.666782E+05  1.937494E+04  4.833585E+05  9.072114E+03  6.131885E+03
        93   3  6.228665E+05  3.727552E+05  9.760161E+03  4.799352E+05  3.707503E+03  3.129472E+03
        93   4  6.191571E+05  3.759709E+05  2.346744E+04  4.712369E+05  1.425491E+04  9.474768E+03
        93   5  6.295487E+05  3.497006E+05  1.149586E+04  4.717459E+05  9.192848E+03  6.222540E+03
        93   6  6.150267E+05  3.686406E+05  7.329993E+03  4.767464E+05  3.901736E+03  3.275358E+03
        93   7  5.812591E+05  3.461158E+05  1.007591E+04  4.512015E+05  1.430197E+04  9.510040E+03
        93   8  6.066876E+05  3.327234E+05  3.616723E+03  4.601337E+05  9.313576E+03  6.313190E+03
        93   9  6.071870E+05  3.645260E+05  4.899819E+03  4.735578E+05  4.095966E+03  3.421242E+03
        93  10  6.570564E+05  4.058270E+05  3.685825E+04  4.912737E+05  8.777723E-10  1.491879E-09
        93  11  6.524103E+05  3.666781E+05  1.937471E+04  4.833585E+05  8.735138E-10 -2.668216E-10
        93  12  6.228665E+05  3.727552E+05  9.760117E+03  4.799352E+05 -4.131174E-10 -3.361599E-10
        93  13  6.191568E+05  3.759708E+05  2.346689E+04  4.712368E+05 -1.309831E-09 -6.778235E-10
        93  14  6.295486E+05  3.497006E+05  1.149563E+04  4.717458E+05 -1.806930E-11  3.334939E-10
        93  15  6.150267E+05  3.686406E+05  7.329944E+03  4.767464E+05 -1.833504E-09 -9.501806E-10
        93  16  5.812589E+05  3.461156E+05  1.007535E+04  4.512014E+05 -6.503360E-11 -7.727686E-10
        93  17  6.066875E+05  3.327233E+05  3.616486E+03  4.601337E+05 -2.947297E-09 -1.495893E-09
        93  18  6.071870E+05  3.645260E+05  4.899766E+03  4.735578E+05  2.315293E-09  1.892226E-11
        93  19  6.570566E+05  4.058271E+05  3.685880E+04  4.912738E+05 -1.420785E+04 -9.439493E+03
        93  20  6.524104E+05  3.666782E+05  1.937494E+04  4.833585E+05 -9.072114E+03 -6.131885E+03
        93  21  6.228665E+05  3.727552E+05  9.760161E+03  4.799352E+05 -3.707503E+03 -3.129472E+03
        93  22  6.191571E+05  3.759709E+05  2.346744E+04  4.712369E+05 -1.425491E+04 -9.474768E+03
        93  23  6.295487E+05  3.497006E+05  1.149586E+04  4.717459E+05 -9.192848E+03 -6.222540E+03
        93  24  6.150267E+05  3.686406E+05  7.329993E+03  4.767464E+05 -3.901736E+03 -3.275358E+03
        93  25  5.812591E+05  3.461158E+05  1.007591E+04  4.512015E+05 -1.430197E+04 -9.510040E+03
        93  26  6.066876E+05  3.327234E+05  3.616723E+03  4.601337E+05 -9.313576E+03 -6.313190E+03
        93  27  6.071870E+05  3.645260E+05  4.899819E+03  4.735578E+05 -4.095966E+03 -3.421242E+03
        94   1  5.574739E+05  3.290293E+05 -1.348514E+04  4.471932E+05  2.470107E+03  2.869023E+03
        94   2  5.571281E+05  2.985438E+05 -2.136965E+04  4.347242E+05  5.136339E+02  2.347753E+03
        94   3  5.243687E+05  3.042825E+05 -2.731998E+04  4.312830E+05 -1.430550E+03  1.810689E+03
        94   4  6.150749E+05  3.696869E+05  6.028549E+03  4.754666E+05  2.617975E+03  2.980063E+03
        94   5  6.310665E+05  3.511928E+05  3.691621E+03  4.712406E+05  6.575045E+02  2.455748E+03
        94   6  6.146452E+05  3.689232E+05  3.292239E+03  4.760422E+05 -1.290728E+03  1.915603E+03
        94   7  6.726794E+05  4.103464E+05  2.554183E+04  5.037430E+05  2.765863E+03  3.091117E+03
        94   8  7.050105E+05  4.038446E+05  2.875212E+04  5.077619E+05  8.013986E+02  2.563762E+03
        94   9  7.049299E+05  4.335682E+05  3.390325E+04  5.208085E+05 -1.150879E+03  2.020538E+03
        94  10  5.574739E+05  3.290293E+05 -1.348517E+04  4.471932E+05 -3.436161E-09  3.388017E-11
        94  11  5.571281E+05  2.985438E+05 -2.136966E+04  4.347242E+05 -4.210197E-09 -2.513076E-09
        94  12  5.243687E+05  3.042825E+05 -2.731999E+04  4.312830E+05 -1.039567E-09  2.901290E-10
        94  13  6.150748E+05  3.696869E+05  6.028519E+03  4.754666E+05 -2.375892E-09  6.459613E-10
        94  14  6.310665E+05  3.511928E+05  3.691608E+03  4.712406E+05 -1.240060E-09 -1.415730E-09
        94  15  6.146452E+05  3.689232E+05  3.292229E+03  4.760422E+05 -3.465364E-09 -4.801510E-10
        94  16  6.726794E+05  4.103464E+05  2.554180E+04  5.037430E+05  6.098330E-11  5.136308E-11
        94  17  7.050105E+05  4.038446E+05  2.875211E+04  5.077619E+05 -3.544040E-09 -2.555748E-09
        94  18  7.049299E+05  4.335681E+05  3.390324E+04  5.208085E+05 -1.970218E-09 -3.662175E-10
        94  19  5.574739E+05  3.290293E+05 -1.348514E+04  4.471932E+05 -2.470107E+03 -2.869023E+03
        94  20  5.571281E+05  2.985438E+05 -2.136965E+04  4.347242E+05 -5.136339E+02 -2.347753E+03
        94  21  5.243687E+05  3.042825E+05 -2.731998E+04  4.312830E+05  1.430550E+03 -1.810689E+03
        94  22  6.150749E+05  3.696869E+05  6.028549E+03  4.754666E+05 -2.617975E+03 -2.980063E+03
        94  23  6.310665E+05  3.511928E+05  3.691621E+03  4.712406E+05 -6.575045E+02 -2.455748E+03
        94  24  6.146452E+05  3.689232E+05  3.292239E+03  4.760422E+05  1.290728E+03 -1.915603E+03
        94  25  6.726794E+05  4.103464E+05  2.554183E+04  5.037430E+05 -2.765863E+03 -3.091117E+03
        94  26  7.050105E+05  4.038446E+05  2.875212E+04  5.077619E+05 -8.013986E+02 -2.563762E+03
        94  27  7.049299E+05  4.335682E+05  3.390325E+04  5.208085E+05  1.150879E+03 -2.020538E+03
        95   1  4.559299E+05  2.572000E+05 -5.025422E+04  3.985165E+05 -2.381146E+03  1.861628E+03
        95   2  4.559014E+05  2.249508E+05 -5.563135E+04  3.842475E+05 -4.415833E+03  1.465816E+03
        95   3  4.219347E+05  2.330565E+05 -5.856011E+04  3.792454E+05 -6.011705E+03  4.858372E+02
        95   4  6.140606E+05  3.694055E+05  3.333765E+03  4.764185E+05 -2.137213E+03  2.044598E+03
        95   5  6.315551E+05  3.501759E+05  3.925613E+03  4.710648E+05 -4.312775E+03  1.542983E+03
        95   6  6.151422E+05  3.713298E+05  7.087468E+03  4.749776E+05 -6.049657E+03  4.572538E+02
        95   7  7.722173E+05  4.816240E+05  5.691828E+04  5.543425E+05 -1.893195E+03  2.227632E+03
        95   8  8.072411E+05  4.754174E+05  6.347835E+04  5.579095E+05 -4.209676E+03  1.620181E+03
        95   9  8.083889E+05  5.096232E+05  7.272999E+04  5.707434E+05 -6.087626E+03  4.286583E+02
        95  10  4.559299E+05  2.572000E+05 -5.025424E+04  3.985166E+05  1.479537E-09  1.923251E-09
        95  11  4.559014E+05  2.249508E+05 -5.563139E+04  3.842475E+05  9.586212E-10  4.115803E-10
        95  12  4.219347E+05  2.330565E+05 -5.856018E+04  3.792454E+05 -2.168323E-09  1.523473E-09
        95  13  6.140606E+05  3.694055E+05  3.333749E+03  4.764185E+05 -2.979216E-09  8.265740E-10
        95  14  6.315551E+05  3.501759E+05  3.925574E+03  4.710648E+05 -4.065981E-10 -6.659203E-11
        95  15  6.151421E+05  3.713298E+05  7.087398E+03  4.749776E+05 -1.166413E-09  1.258689E-09
        95  16  7.722173E+05  4.816240E+05  5.691826E+04  5.543425E+05 -1.534243E-09  1.200472E-10
        95  17  8.072411E+05  4.754173E+05  6.347831E+04  5.579095E+05  1.290766E-10 -1.421697E-10
        95  18  8.083889E+05  5.096232E+05  7.272992E+04  5.707434E+05  2.595625E-10  7.905288E-10
        95  19  4.559299E+05  2.572000E+05 -5.025422E+04  3.985165E+05  2.381146E+03 -1.861628E+03
        95  20  4.559014E+05  2.249508E+05 -5.563135E+04  3.842475E+05  4.415833E+03 -1.465816E+03
        95  21  4.219347E+05  2.330565E+05 -5.856011E+04  3.792454E+05  6.011705E+03 -4.858372E+02
        95  22  6.140606E+05  3.694055E+05  3.333765E+03  4.764185E+05  2.137213E+03 -2.044598E+03
        95  23  6.315551E+05  3.501759E+05  3.925613E+03  4.710648E+05  4.312775E+03 -1.542983E+03
        95  24  6.151422E+05  3.713298E+05  7.087468E+03  4.749776E+05  6.049657E+03 -4.572538E+02
        95  25  7.722173E+05  4.816240E+05  5.691828E+04  5.543425E+05  1.893195E+03 -2.227632E+03
        95  26  8.072411E+05  4.754174E+05  6.347835E+04  5.579095E+05  4.209676E+03 -1.620181E+03
        95  27  8.083889E+05  5.096232E+05  7.272999E+04  5.707434E+05  6.087626E+03 -4.286583E+02
        96   1  3.436891E+05  1.813617E+05 -8.252910E+04  3.461123E+05 -8.894711E+03  1.477101E+02
        96   2  3.421928E+05  1.394234E+05 -8.513128E+04  3.289780E+05 -1.410473E+04 -1.918299E+03
        96   3  3.161830E+05  1.623655E+05 -7.627934E+04  3.136029E+05 -1.575155E+04 -8.747428E+03
        96   4  6.137400E+05  3.705115E+05  8.429176E+03  4.780207E+05 -8.042362E+03  7.859878E+02
        96   5  6.300208E+05  3.453702E+05  1.251901E+04  4.715930E+05 -1.439879E+04 -2.138718E+03
        96   6  6.220306E+05  3.853470E+05  2.905112E+04  4.669260E+05 -1.719318E+04 -9.825387E+03
        96   7  8.838662E+05  5.596974E+05  9.937722E+04  6.099922E+05 -7.189507E+03  1.424637E+03
        96   8  9.179344E+05  5.513606E+05  1.101575E+05  6.142816E+05 -1.469303E+04 -2.359276E+03
        96   9  9.279745E+05  6.083799E+05  1.343680E+05  6.203337E+05 -1.863578E+04 -1.090409E+04
        96  10  3.436891E+05  1.813617E+05 -8.252925E+04  3.461123E+05 -3.856546E-10  2.007465E-09
        96  11  3.421925E+05  1.394234E+05 -8.513166E+04  3.289780E+05  7.205731E-10 -1.361504E-09
        96  12  3.161827E+05  1.623654E+05 -7.627995E+04  3.136027E+05 -2.132268E-11 -1.790285E-09
        96  13  6.137400E+05  3.705114E+05  8.429053E+03  4.780207E+05 -1.183397E-09  1.344328E-09
        96  14  6.300206E+05  3.453702E+05  1.251861E+04  4.715930E+05  6.445503E-10 -2.117371E-09
        96  15  6.220303E+05  3.853468E+05  2.905039E+04  4.669259E+05 -2.221874E-09  2.432878E-10
        96  16  8.838661E+05  5.596974E+05  9.937712E+04  6.099922E+05 -3.500254E-10  3.560676E-10
        96  17  9.179341E+05  5.513606E+05  1.101571E+05  6.142815E+05 -4.886706E-10 -7.513892E-10
        96  18  9.279741E+05  6.083797E+05  1.343671E+05  6.203336E+05  6.036515E-10 -4.356098E-10
        96  19  3.436891E+05  1.813617E+05 -8.252910E+04  3.461123E+05  8.894711E+03 -1.477101E+02
        96  20  3.421928E+05  1.394234E+05 -8.513128E+04  3.289780E+05  1.410473E+04  1.918299E+03
        96  21  3.161830E+05  1.623655E+05 -7.627934E+04  3.136029E+05  1.575155E+04  8.747428E+03
        96  22  6.137400E+05  3.705115E+05  8.429176E+03  4.780207E+05  8.042362E+03 -7.859878E+02
        96  23  6.300208E+05  3.453702E+05  1.251901E+04  4.715930E+05  1.439879E+04  2.138718E+03
        96  24  6.220306E+05  3.853470E+05  2.905112E+04  4.669260E+05  1.719318E+04  9.825387E+03
        96  25  8.838662E+05  5.596974E+05  9.937722E+04  6.099922E+05  7.189507E+03 -1.424637E+03
        96  26  9.179344E+05  5.513606E+05  1.101575E+05  6.142816E+05  1.469303E+04  2.359276E+03
        96  27  9.279745E+05  6.083799E+05  1.343680E+05  6.203337E+05  1.863578E+04  1.090409E+04
        97   1  1.142228E+05  1.286228E+06  1.439369E+05 -3.869664E+04  3.742538E+02  8.568915E+04
        97   2 -1.393652E+04  1.232617E+06  6.379131E+04  1.063866E+02  6.756415E+02  5.463049E+04
        97   3 -3.530901E+03  1.217661E+06  3.847747E+04 -1.469078E+04 -5.937950E+02  2.357262E+04
        97   4  9.809160E+04  1.221574E+06  1.278560E+05 -2.253593E+04  3.764984E+02  8.542430E+04
        97   5 -2.148350E+04  1.202307E+06  5.633031E+04  4.261657E+03  6.759994E+02  5.474604E+04
        97   6 -2.555352E+03  1.221633E+06  3.937712E+04 -2.254030E+04 -5.941603E+02  2.406686E+04
        97   7  8.196111E+04  1.156924E+06  1.117749E+05 -6.376902E+03  3.787293E+02  8.515949E+04
        97   8 -2.903048E+04  1.171998E+06  4.886925E+04  8.416726E+03  6.763588E+02  5.486159E+04
        97   9 -1.579572E+03  1.225604E+06  4.027680E+04 -3.038987E+04 -5.945380E+02  2.456111E+04
        97  10  1.142208E+05  1.286221E+06  1.439231E+05 -3.869666E+04  4.456564E-10  3.457724E-10
        97  11 -1.393732E+04  1.232614E+06  6.378571E+04  1.063569E+02  3.053561E-09 -1.290951E-12
        97  12 -3.531051E+03  1.217660E+06  3.847643E+04 -1.469077E+04  3.050579E-09 -2.349076E-10
        97  13  9.808964E+04  1.221566E+06  1.278423E+05 -2.253596E+04  2.555137E-10  5.964368E-11
        97  14 -2.148430E+04  1.202304E+06  5.632469E+04  4.261628E+03  8.287362E-10 -3.106074E-11
        97  15 -2.555507E+03  1.221632E+06  3.937603E+04 -2.254029E+04  8.635437E-10 -8.736229E-12
        97  16  8.195917E+04  1.156917E+06  1.117613E+05 -6.376928E+03 -2.948653E-10 -2.691940E-10
        97  17 -2.903128E+04  1.171995E+06  4.886361E+04  8.416696E+03  1.612284E-10 -4.066913E-10
        97  18 -1.579734E+03  1.225604E+06  4.027566E+04 -3.038986E+04  5.787576E-10  2.899043E-10
        97  19  1.142228E+05  1.286228E+06  1.439369E+05 -3.869664E+04 -3.742538E+02 -8.568915E+04
        97  20 -1.393652E+04  1.232617E+06  6.379131E+04  1.063866E+02 -6.756415E+02 -5.463049E+04
        97  21 -3.530901E+03  1.217661E+06  3.847747E+04 -1.469078E+04  5.937950E+02 -2.357262E+04
        97  22  9.809160E+04  1.221574E+06  1.278560E+05 -2.253593E+04 -3.764984E+02 -8.542430E+04
        97  23 -2.148350E+04  1.202307E+06  5.633031E+04  4.261657E+03 -6.759994E+02 -5.474604E+04
        97  24 -2.555352E+03  1.221633E+06  3.937712E+04 -2.254030E+04  5.941603E+02 -2.406686E+04
        97  25  8.196111E+04  1.156924E+06  1.117749E+05 -6.376902E+03 -3.787293E+02 -8.515949E+04
        97  26 -2.903048E+04  1.171998E+06  4.886925E+04  8.416726E+03 -6.763588E+02 -5.486159E+04
        97  27 -1.579572E+03  1.225604E+06  4.027680E+04 -3.038987E+04  5.945380E+02 -2.456111E+04
        98   1 -2.119324E+04  1.075281E+06 -3.702461E+02 -2.568485E+04 -1.685128E+03  1.712325E+04
        98   2 -4.848309E+04  1.035326E+06 -2.089004E+04  4.434728E+03 -2.782327E+03  5.555377E+03
        98   3 -4.460992E+04  1.004838E+06 -2.606243E+04 -2.050320E+04 -3.310188E+03 -6.011332E+03
        98   4  1.367495E+04  1.215144E+06  3.428771E+04 -2.286076E+04 -1.685055E+03  1.745855E+04
        98   5 -4.854373E+03  1.210405E+06  2.239022E+04  4.665743E+03 -2.782245E+03  5.751372E+03
        98   6  7.798966E+03  1.215152E+06  2.593426E+04 -2.286415E+04 -3.310074E+03 -5.955287E+03
        98   7  4.854170E+04  1.355024E+06  6.894422E+04 -2.003603E+04 -1.684979E+03  1.779392E+04
        98   8  3.877205E+04  1.385510E+06  6.566821E+04  4.896821E+03 -2.782163E+03  5.947422E+03
        98   9  6.020458E+04  1.425507E+06  7.792767E+04 -2.522591E+04 -3.309960E+03 -5.899223E+03
        98  10 -2.119332E+04  1.075281E+06 -3.708015E+02 -2.568483E+04  1.336718E-09 -5.647054E-10
        98  11 -4.848310E+04  1.035326E+06 -2.089011E+04  4.434741E+03  1.399417E-09  8.196730E-10
        98  12 -4.460994E+04  1.004838E+06 -2.606252E+04 -2.050322E+04  6.920335E-10  1.236130E-10
        98  13  1.367486E+04  1.215143E+06  3.428713E+04 -2.286073E+04  1.670689E-09 -8.113615E-11
        98  14 -4.854390E+03  1.210404E+06  2.239014E+04  4.665756E+03 -5.531494E-10 -5.121971E-11
        98  15  7.798945E+03  1.215152E+06  2.593417E+04 -2.286417E+04  6.014302E-10  6.545866E-11
        98  16  4.854161E+04  1.355024E+06  6.894362E+04 -2.003600E+04  5.292378E-10  6.903147E-10
        98  17  3.877204E+04  1.385510E+06  6.566813E+04  4.896834E+03 -1.821263E-09 -8.646873E-11
        98  18  6.020456E+04  1.425507E+06  7.792759E+04 -2.522592E+04  3.202405E-10 -3.320489E-10
        98  19 -2.119324E+04  1.075281E+06 -3.702461E+02 -2.568485E+04  1.685128E+03 -1.712325E+04
        98  20 -4.848309E+04  1.035326E+06 -2.089004E+04  4.434728E+03  2.782327E+03 -5.555377E+03
        98  21 -4.460992E+04  1.004838E+06 -2.606243E+04 -2.050320E+04  3.310188E+03  6.011332E+03
        98  22  1.367495E+04  1.215144E+06  3.428771E+04 -2.286076E+04  1.685055E+03 -1.745855E+04
        98  23 -4.854373E+03  1.210405E+06  2.239022E+04  4.665743E+03  2.782245E+03 -5.751372E+03
        98  24  7.798966E+03  1.215152E+06  2.593426E+04 -2.286415E+04  3.310074E+03  5.955287E+03
        98  25  4.854170E+04  1.355024E+06  6.894422E+04 -2.003603E+04  1.684979E+03 -1.779392E+04
        98  26  3.877205E+04  1.385510E+06  6.566821E+04  4.896821E+03  2.782163E+03 -5.947422E+03
        98  27  6.020458E+04  1.425507E+06  7.792767E+04 -2.522591E+04  3.309960E+03  5.899223E+03
        99   1 -8.877853E+04  8.634405E+05 -6.004154E+04 -2.913295E+04 -5.086950E+03 -1.198806E+04
        99   2 -1.113357E+05  8.123022E+05 -6.172725E+04  8.381167E+03 -6.972151E+03 -2.978312E+04
        99   3 -4.929494E+04  7.855546E+05 -3.049792E+04 -1.490692E+04 -2.557837E+03 -4.758428E+04
        99   4 -2.664963E+02  1.218499E+06  2.782890E+04 -2.411223E+04 -5.086190E+03 -1.078551E+04
        99   5 -1.319994E+04  1.206168E+06  3.554402E+04  6.242406E+03 -6.972101E+03 -3.010463E+04
        99   6  5.869988E+04  1.218474E+06  7.721564E+04 -2.420234E+04 -2.559836E+03 -4.943098E+04
        99   7  8.823622E+04  1.573671E+06  1.156900E+05 -1.908864E+04 -5.085410E+03 -9.582270E+03
        99   8  8.492426E+04  1.600174E+06  1.328038E+05  4.102249E+03 -6.972049E+03 -3.042634E+04
        99   9  1.666810E+05  1.651563E+06  1.849152E+05 -3.350430E+04 -2.561779E+03 -5.127896E+04
        99  10 -8.877859E+04  8.634404E+05 -6.004186E+04 -2.913300E+04  1.124344E-09 -5.389419E-10
        99  11 -1.113360E+05  8.123012E+05 -6.172900E+04  8.380999E+03  2.402447E-09  4.381392E-09
        99  12 -4.929556E+04  7.855522E+05 -3.050218E+04 -1.490702E+04 -3.619360E-10  1.720594E-10
        99  13 -2.665553E+02  1.218498E+06  2.782864E+04 -2.411227E+04  1.166101E-09  7.020428E-10
        99  14 -1.320023E+04  1.206167E+06  3.554222E+04  6.242237E+03  9.436400E-10  6.806869E-11
        99  15  5.869922E+04  1.218471E+06  7.721105E+04 -2.420244E+04 -1.813981E-10  1.914535E-10
        99  16  8.823616E+04  1.573671E+06  1.156898E+05 -1.908868E+04  9.279506E-10 -1.185492E-10
        99  17  8.492396E+04  1.600173E+06  1.328020E+05  4.102079E+03  3.598324E-10  9.223484E-10
        99  18  1.666803E+05  1.651561E+06  1.849103E+05 -3.350440E+04  1.921625E-10 -1.481517E-09
        99  19 -8.877853E+04  8.634405E+05 -6.004154E+04 -2.913295E+04  5.086950E+03  1.198806E+04
        99  20 -1.113357E+05  8.123022E+05 -6.172725E+04  8.381167E+03  6.972151E+03  2.978312E+04
        99  21 -4.929494E+04  7.855546E+05 -3.049792E+04 -1.490692E+04  2.557837E+03  4.758428E+04
        99  22 -2.664963E+02  1.218499E+06  2.782890E+04 -2.411223E+04  5.086190E+03  1.078551E+04
        99  23 -1.319994E+04  1.206168E+06  3.554402E+04  6.242406E+03  6.972101E+03  3.010463E+04
        99  24  5.869988E+04  1.218474E+06  7.721564E+04 -2.420234E+04  2.559836E+03  4.943098E+04
        99  25  8.823622E+04  1.573671E+06  1.156900E+05 -1.908864E+04  5.085410E+03  9.582270E+03
        99  26  8.492426E+04  1.600174E+06  1.328038E+05  4.102249E+03  6.972049E+03  3.042634E+04
        99  27  1.666810E+05  1.651563E+06  1.849152E+05 -3.350430E+04  2.561779E+03  5.127896E+04
       100   1 -8.224006E+05 -1.042956E+05 -2.678971E+05 -1.165208E+04 -4.670695E+05 -6.942683E+03
       100   2 -8.421427E+05  5.238837E+05  9.509892E+04 -3.136557E+04 -3.055075E+05 -2.723020E+04
       100   3 -1.056716E+06  3.955776E+05  1.669023E+05  1.292517E+05 -1.438440E+05 -2.142579E+04
       100   4 -2.567827E+06 -5.428022E+05 -7.038818E+05  8.585747E+04 -4.738890E+05 -6.965283E+03
       100   5 -2.469330E+06  1.169776E+05 -3.080424E+05 -2.499236E+03 -3.064984E+05 -2.724164E+04
       100   6 -2.567293E+06  1.815584E+04 -2.080463E+05  8.950501E+04 -1.389737E+05 -2.143206E+04
       100   7 -4.310467E+06 -9.815065E+05 -1.140093E+06  1.830968E+05 -4.806877E+05 -6.990144E+03
       100   8 -4.094104E+06 -2.901246E+05 -7.113812E+05  2.629411E+04 -3.074858E+05 -2.725320E+04
       100   9 -4.075788E+06 -3.594312E+05 -5.831648E+05  4.985651E+04 -1.341149E+05 -2.143894E+04
       100  10 -8.226352E+05 -1.043543E+05 -2.683077E+05 -1.165469E+04 -1.228986E-09  1.623665E-10
       100  11 -8.422433E+05  5.238578E+05  9.492186E+04 -3.137227E+04  5.827689E-10  5.776695E-10
       100  12 -1.056739E+06  3.955715E+05  1.668625E+05  1.292492E+05  3.768165E-11 -5.025406E-10
       100  13 -2.568069E+06 -5.428628E+05 -7.043057E+05  8.585481E+04  3.107490E-09  3.167762E-10
       100  14 -2.469432E+06  1.169515E+05 -3.082210E+05 -2.505968E+03 -4.249863E-10  7.240429E-10
       100  15 -2.567314E+06  1.815014E+04 -2.080836E+05  8.950261E+04  7.894940E-10 -3.438785E-11
       100  16 -4.310717E+06 -9.815691E+05 -1.140530E+06  1.830941E+05 -8.368507E-10  3.077735E-10
       100  17 -4.094206E+06 -2.901510E+05 -7.115614E+05  2.628735E+04  1.117933E-09  5.370497E-10
       100  18 -4.075807E+06 -3.594366E+05 -5.831997E+05  4.985419E+04 -3.662952E-09  4.183630E-10
       100  19 -8.224006E+05 -1.042956E+05 -2.678971E+05 -1.165208E+04  4.670695E+05  6.942683E+03
       100  20 -8.421427E+05  5.238837E+05  9.509892E+04 -3.136557E+04  3.055075E+05  2.723020E+04
       100  21 -1.056716E+06  3.955776E+05  1.669023E+05  1.292517E+05  1.438440E+05  2.142579E+04
       100  22 -2.567827E+06 -5.428022E+05 -7.038818E+05  8.585747E+04  4.738890E+05  6.965283E+03
       100  23 -2.469330E+06  1.169776E+05 -3.080424E+05 -2.499236E+03  3.064984E+05  2.724164E+04
       100  24 -2.567293E+06  1.815584E+04 -2.080463E+05  8.950501E+04  1.389737E+05  2.143206E+04
       100  25 -4.310467E+06 -9.815065E+05 -1.140093E+06  1.830968E+05  4.806877E+05  6.990144E+03
       100  26 -4.094104E+06 -2.901246E+05 -7.113812E+05  2.629411E+04  3.074858E+05  2.725320E+04
       100  27 -4.075788E+06 -3.594312E+05 -5.831648E+05  4.985651E+04  1.341149E+05  2.143894E+04
       101   1 -1.565615E+06  1.639005E+05  6.106264E+04  8.617906E+04 -1.046216E+05 -1.493098E+04
       101   2 -1.698684E+06  2.239991E+05  9.473554E+04 -2.034210E+04 -4.981729E+04 -1.309036E+04
       101   3 -1.867955E+06  1.528391E+05  6.062307E+04  1.096989E+05  4.964813E+03 -7.522507E+03
       101   4 -2.531474E+06 -7.769857E+04 -1.786100E+05  1.008217E+05 -1.044987E+05 -1.493496E+04
       101   5 -2.513255E+06  2.029470E+04 -1.073346E+05 -1.740396E+04 -4.887679E+04 -1.309237E+04
       101   6 -2.531464E+06 -1.321137E+04 -1.044864E+05  1.009547E+05  6.736197E+03 -7.522427E+03
       101   7 -3.496483E+06 -3.193671E+05 -4.183524E+05  1.154418E+05 -1.043759E+05 -1.493893E+04
       101   8 -3.327220E+06 -1.834595E+05 -3.094544E+05 -1.446956E+04 -4.793749E+04 -1.309437E+04
       101   9 -3.194571E+06 -1.792947E+05 -2.696290E+05  9.221993E+04  8.505680E+03 -7.522397E+03
       101  10 -1.565627E+06  1.638973E+05  6.104160E+04  8.617780E+04  1.239382E-09 -1.059899E-09
       101  11 -1.698686E+06  2.239982E+05  9.473054E+04 -2.034263E+04  1.517623E-09 -5.894142E-10
       101  12 -1.867955E+06  1.528390E+05  6.062292E+04  1.096989E+05  1.472147E-09  2.508146E-10
       101  13 -2.531486E+06 -7.770175E+04 -1.786310E+05  1.008204E+05  2.412998E-09 -3.955020E-10
       101  14 -2.513257E+06  2.029387E+04 -1.073394E+05 -1.740447E+04  1.368621E-09 -5.945746E-10
       101  15 -2.531464E+06 -1.321144E+04 -1.044866E+05  1.009548E+05 -1.897382E-09  6.440013E-10
       101  16 -3.496494E+06 -3.193703E+05 -4.183734E+05  1.154405E+05 -2.924485E-09 -8.000264E-10
       101  17 -3.327223E+06 -1.834603E+05 -3.094590E+05 -1.447006E+04 -3.365408E-09 -7.233171E-10
       101  18 -3.194572E+06 -1.792948E+05 -2.696293E+05  9.221998E+04  8.988384E-10  3.043249E-10
       101  19 -1.565615E+06  1.639005E+05  6.106264E+04  8.617906E+04  1.046216E+05  1.493098E+04
       101  20 -1.698684E+06  2.239991E+05  9.473554E+04 -2.034210E+04  4.981729E+04  1.309036E+04
       101  21 -1.867955E+06  1.528391E+05  6.062307E+04  1.096989E+05 -4.964813E+03  7.522507E+03
       101  22 -2.531474E+06 -7.769857E+04 -1.786100E+05  1.008217E+05  1.044987E+05  1.493496E+04
       101  23 -2.513255E+06  2.029470E+04 -1.073346E+05 -1.740396E+04  4.887679E+04  1.309237E+04
       101  24 -2.531464E+06 -1.321137E+04 -1.044864E+05  1.009547E+05 -6.736197E+03  7.522427E+03
       101  25 -3.496483E+06 -3.193671E+05 -4.183524E+05  1.154418E+05  1.043759E+05  1.493893E+04
       101  26 -3.327220E+06 -1.834595E+05 -3.094544E+05 -1.446956E+04  4.793749E+04  1.309437E+04
       101  27 -3.194571E+06 -1.792947E+05 -2.696290E+05  9.221993E+04 -8.505680E+03  7.522397E+03
       102   1 -2.499643E+06  1.938179E+03 -1.011177E+05  9.339691E+04  2.436654E+04 -3.219368E+03
       102   2 -2.633277E+06 -3.757245E+03 -1.665927E+05 -1.754876E+04  9.542641E+04  2.257352E+03
       102   3 -2.820537E+06 -1.861409E+05 -3.226717E+05  1.228601E+05  1.664679E+05  5.645143E+03
       102   4 -2.535113E+06 -6.837091E+03 -1.095025E+05  1.041921E+05  2.592095E+04 -3.217966E+03
       102   5 -2.508414E+06  2.747444E+04 -1.356332E+05 -2.147381E+04  9.649143E+04  2.257112E+03
       102   6 -2.535257E+06 -1.147925E+05 -2.520048E+05  1.042157E+05  1.670618E+05  5.640126E+03
       102   7 -2.570581E+06 -1.561201E+04 -1.178873E+05  1.149867E+05  2.747527E+04 -3.216510E+03
       102   8 -2.383536E+06  5.870501E+04 -1.046749E+05 -2.539965E+04  9.755667E+04  2.256860E+03
       102   9 -2.249902E+06 -4.344895E+04 -1.813438E+05  8.556278E+04  1.676561E+05  5.635076E+03
       102  10 -2.499643E+06  1.938008E+03 -1.011188E+05  9.339697E+04  3.802885E-09  8.061792E-10
       102  11 -2.633287E+06 -3.759708E+03 -1.666099E+05 -1.754894E+04  7.423047E-11 -5.026741E-10
       102  12 -2.820567E+06 -1.861484E+05 -3.227240E+05  1.228593E+05  4.136604E-09 -8.244908E-11
       102  13 -2.535113E+06 -6.837283E+03 -1.095038E+05  1.041922E+05  2.086800E-09  7.783050E-10
       102  14 -2.508424E+06  2.747192E+04 -1.356508E+05 -2.147399E+04  4.270851E-09 -1.376000E-10
       102  15 -2.535287E+06 -1.148001E+05 -2.520575E+05  1.042150E+05  1.841966E-09 -3.274851E-10
       102  16 -2.570582E+06 -1.561222E+04 -1.178887E+05  1.149868E+05  2.463775E-10  6.194953E-10
       102  17 -2.383547E+06  5.870243E+04 -1.046928E+05 -2.539983E+04 -1.687961E-10 -1.841169E-11
       102  18 -2.249932E+06 -4.345656E+04 -1.813969E+05  8.556202E+04 -8.824436E-10  2.007781E-10
       102  19 -2.499643E+06  1.938179E+03 -1.011177E+05  9.339691E+04 -2.436654E+04  3.219368E+03
       102  20 -2.633277E+06 -3.757245E+03 -1.665927E+05 -1.754876E+04 -9.542641E+04 -2.257352E+03
       102  21 -2.820537E+06 -1.861409E+05 -3.226717E+05  1.228601E+05 -1.664679E+05 -5.645143E+03
       102  22 -2.535113E+06 -6.837091E+03 -1.095025E+05  1.041921E+05 -2.592095E+04  3.217966E+03
       102  23 -2.508414E+06  2.747444E+04 -1.356332E+05 -2.147381E+04 -9.649143E+04 -2.257112E+03
       102  24 -2.535257E+06 -1.147925E+05 -2.520048E+05  1.042157E+05 -1.670618E+05 -5.640126E+03
       102  25 -2.570581E+06 -1.561201E+04 -1.178873E+05  1.149867E+05 -2.747527E+04  3.216510E+03
       102  26 -2.383536E+06  5.870501E+04 -1.046749E+05 -2.539965E+04 -9.755667E+04 -2.256860E+03
       102  27 -2.249902E+06 -4.344895E+04 -1.813438E+05  8.556278E+04 -1.676561E+05 -5.635076E+03
       103   1 -3.492491E+06 -1.962948E+05 -5.239076E+05  3.553960E+04  2.122290E+05  1.170855E+04
       103   2 -3.482141E+06 -8.677953E+04 -7.114437E+05  2.125972E+04  4.631300E+05  1.809362E+04
       103   3 -3.781039E+06 -1.106154E+06 -1.343857E+06  2.302397E+05  7.139627E+05  5.136865E+03
       103   4 -2.591763E+06  2.925793E+04 -2.997686E+05  9.857542E+04  2.163175E+05  1.172863E+04
       103   5 -2.438187E+06  1.746093E+05 -4.524412E+05 -1.417918E+04  4.629482E+05  1.806622E+04
       103   6 -2.592563E+06 -8.071816E+05 -1.046446E+06  9.634593E+04  7.095707E+05  4.996185E+03
       103   7 -1.690286E+06  2.547644E+05 -7.568829E+04  1.617032E+05  2.204117E+05  1.174951E+04
       103   8 -1.393235E+06  4.359207E+05 -1.935196E+05 -4.967761E+04  4.627655E+05  1.803887E+04
       103   9 -1.402762E+06 -5.082495E+05 -7.491331E+05 -3.780481E+04  7.051692E+05  4.857658E+03
       103  10 -3.492540E+06 -1.963071E+05 -5.239930E+05  3.553760E+04  2.969432E-09  3.527289E-10
       103  11 -3.482372E+06 -8.683789E+04 -7.118498E+05  2.125296E+04 -7.245799E-10  2.342926E-10
       103  12 -3.781590E+06 -1.106292E+06 -1.344820E+06  2.302368E+05 -9.733303E-10 -2.403358E-10
       103  13 -2.591813E+06  2.924515E+04 -2.998571E+05  9.857338E+04 -4.420303E-11  5.691053E-10
       103  14 -2.438418E+06  1.745511E+05 -4.528462E+05 -1.418592E+04  4.617710E-09  6.465051E-10
       103  15 -2.593106E+06 -8.073175E+05 -1.047396E+06  9.634309E+04 -1.475411E-09  1.064634E-09
       103  16 -1.690338E+06  2.547512E+05 -7.578010E+04  1.617011E+05 -2.018643E-09  1.400059E-10
       103  17 -1.393466E+06  4.358627E+05 -1.939236E+05 -4.968435E+04 -1.996166E-09  5.267988E-10
       103  18 -1.403297E+06 -5.083834E+05 -7.500697E+05 -3.780758E+04  2.002704E-10  3.579811E-10
       103  19 -3.492491E+06 -1.962948E+05 -5.239076E+05  3.553960E+04 -2.122290E+05 -1.170855E+04
       103  20 -3.482141E+06 -8.677953E+04 -7.114437E+05  2.125972E+04 -4.631300E+05 -1.809362E+04
       103  21 -3.781039E+06 -1.106154E+06 -1.343857E+06  2.302397E+05 -7.139627E+05 -5.136865E+03
       103  22 -2.591763E+06  2.925793E+04 -2.997686E+05  9.857542E+04 -2.163175E+05 -1.172863E+04
       103  23 -2.438187E+06  1.746093E+05 -4.524412E+05 -1.417918E+04 -4.629482E+05 -1.806622E+04
       103  24 -2.592563E+06 -8.071816E+05 -1.046446E+06  9.634593E+04 -7.095707E+05 -4.996185E+03
       103  25 -1.690286E+06  2.547644E+05 -7.568829E+04  1.617032E+05 -2.204117E+05 -1.174951E+04
       103  26 -1.393235E+06  4.359207E+05 -1.935196E+05 -4.967761E+04 -4.627655E+05 -1.803887E+04
       103  27 -1.402762E+06 -5.082495E+05 -7.491331E+05 -3.780481E+04 -7.051692E+05 -4.857658E+03
       104   1  6.028865E+04  8.223170E+05  2.426937E+04  3.363521E+03  3.395416E+03 -1.045641E+05
       104   2  1.977811E+05  8.107387E+05  1.041968E+05  1.320722E+04  1.155787E+04 -7.088272E+04
       104   3  1.686163E+05  7.562907E+05  1.211665E+05 -2.771509E+04  9.722444E+03 -3.713533E+04
       104   4 -1.205454E+05  9.966092E+04 -1.557354E+05 -2.016113E+04  3.377255E+03 -1.075822E+05
       104   5  2.579004E+04  1.213183E+05 -6.621306E+04  4.778676E+03  1.155514E+04 -7.153627E+04
       104   6  4.957318E+03  9.964148E+04 -4.134281E+04 -2.105090E+04  9.731930E+03 -3.542230E+04
       104   7 -3.014169E+05 -6.225211E+05 -3.357792E+05 -4.365926E+04  3.359314E+03 -1.105968E+05
       104   8 -1.462363E+05 -5.676706E+05 -2.366582E+05 -3.641191E+03  1.155243E+04 -7.218906E+04
       104   9 -1.587336E+05 -5.566162E+05 -2.038841E+05 -1.439429E+04  9.741457E+03 -3.371107E+04
       104  10  6.028571E+04  8.223052E+05  2.424882E+04  3.363807E+03 -1.333989E-09 -1.017165E-09
       104  11  1.977796E+05  8.107333E+05  1.041872E+05  1.320788E+04 -3.671007E-09 -3.403308E-11
       104  12  1.686158E+05  7.562891E+05  1.211637E+05 -2.771480E+04  2.142097E-09  1.100777E-09
       104  13 -1.205485E+05  9.964849E+04 -1.557572E+05 -2.016084E+04  3.869693E-09 -1.390104E-10
       104  14  2.578852E+04  1.213127E+05 -6.622293E+04  4.779342E+03 -3.626995E-09 -6.124725E-11
       104  15  4.956880E+03  9.964010E+04 -4.134535E+04 -2.105062E+04  6.427811E-11 -9.876308E-11
       104  16 -3.014202E+05 -6.225342E+05 -3.358022E+05 -4.365896E+04  6.973179E-10  9.536365E-10
       104  17 -1.462379E+05 -5.676762E+05 -2.366683E+05 -3.640519E+03 -2.152342E-09 -9.392688E-11
       104  18 -1.587340E+05 -5.566174E+05 -2.038864E+05 -1.439402E+04 -1.380654E-09 -9.831554E-10
       104  19  6.028865E+04  8.223170E+05  2.426937E+04  3.363521E+03 -3.395416E+03  1.045641E+05
       104  20  1.977811E+05  8.107387E+05  1.041968E+05  1.320722E+04 -1.155787E+04  7.088272E+04
       104  21  1.686163E+05  7.562907E+05  1.211665E+05 -2.771509E+04 -9.722444E+03  3.713533E+04
       104  22 -1.205454E+05  9.966092E+04 -1.557354E+05 -2.016113E+04 -3.377255E+03  1.075822E+05
       104  23  2.579004E+04  1.213183E+05 -6.621306E+04  4.778676E+03 -1.155514E+04  7.153627E+04
       104  24  4.957318E+03  9.964148E+04 -4.134281E+04 -2.105090E+04 -9.731930E+03  3.542230E+04
       104  25 -3.014169E+05 -6.225211E+05 -3.357792E+05 -4.365926E+04 -3.359314E+03  1.105968E+05
       104  26 -1.462363E+05 -5.676706E+05 -2.366582E+05 -3.641191E+03 -1.155243E+04  7.218906E+04
       104  27 -1.587336E+05 -5.566162E+05 -2.038841E+05 -1.439429E+04 -9.741457E+03  3.371107E+04
       105   1  1.138842E+05  6.354927E+05  9.727533E+04 -1.635278E+04  7.645970E+03 -2.854948E+04
       105   2  1.261153E+05  6.048441E+05  1.094273E+05  7.056448E+03  7.776536E+03 -2.221519E+04
       105   3  1.200826E+05  5.705768E+05  1.132498E+05 -2.020658E+04  6.228947E+03 -1.587528E+04
       105   4 -1.760553E+04  1.085009E+05 -3.320789E+04 -2.067707E+04  7.645442E+03 -2.875837E+04
       105   5  2.770001E+03  1.103421E+05 -1.291994E+04  4.607121E+03  7.777801E+03 -2.202622E+04
       105   6  4.804399E+03  1.084893E+05 -1.243246E+03 -2.078354E+04  6.231454E+03 -1.528812E+04
       105   7 -1.491159E+05 -4.182387E+05 -1.637118E+05 -2.499801E+04  7.644917E+03 -2.896708E+04
       105   8 -1.205935E+05 -3.839378E+05 -1.352854E+05  2.159499E+03  7.779065E+03 -2.183740E+04
       105   9 -1.104898E+05 -3.534044E+05 -1.157522E+05 -2.136026E+04  6.233960E+03 -1.470139E+04
       105  10  1.138839E+05  6.354918E+05  9.727369E+04 -1.635260E+04  3.829627E-09 -1.204493E-09
       105  11  1.261151E+05  6.048435E+05  1.094263E+05  7.056587E+03  5.144865E-10 -2.206153E-10
       105  12  1.200825E+05  5.705766E+05  1.132492E+05 -2.020650E+04 -5.482174E-10  5.178330E-10
       105  13 -1.760581E+04  1.085000E+05 -3.320955E+04 -2.067689E+04 -3.262254E-09 -1.437742E-10
       105  14  2.769806E+03  1.103416E+05 -1.292097E+04  4.607259E+03  1.760287E-09 -2.691273E-10
       105  15  4.804294E+03  1.084891E+05 -1.243758E+03 -2.078347E+04 -9.688805E-10 -2.863549E-11
       105  16 -1.491162E+05 -4.182396E+05 -1.637135E+05 -2.499783E+04  4.016092E-10  1.044788E-09
       105  17 -1.205937E+05 -3.839384E+05 -1.352864E+05  2.159636E+03 -1.501533E-09  1.466801E-10
       105  18 -1.104899E+05 -3.534047E+05 -1.157527E+05 -2.136019E+04  2.456990E-09 -6.664092E-10
       105  19  1.138842E+05  6.354927E+05  9.727533E+04 -1.635278E+04 -7.645970E+03  2.854948E+04
       105  20  1.261153E+05  6.048441E+05  1.094273E+05  7.056448E+03 -7.776536E+03  2.221519E+04
       105  21  1.200826E+05  5.705768E+05  1.132498E+05 -2.020658E+04 -6.228947E+03  1.587528E+04
       105  22 -1.760553E+04  1.085009E+05 -3.320789E+04 -2.067707E+04 -7.645442E+03  2.875837E+04
       105  23  2.770001E+03  1.103421E+05 -1.291994E+04  4.607121E+03 -7.777801E+03  2.202622E+04
       105  24  4.804399E+03  1.084893E+05 -1.243246E+03 -2.078354E+04 -6.231454E+03  1.528812E+04
       105  25 -1.491159E+05 -4.182387E+05 -1.637118E+05 -2.499801E+04 -7.644917E+03  2.896708E+04
       105  26 -1.205935E+05 -3.839378E+05 -1.352854E+05  2.159499E+03 -7.779065E+03  2.183740E+04
       105  27 -1.104898E+05 -3.534044E+05 -1.157522E+05 -2.136026E+04 -6.233960E+03  1.470139E+04
       106   1  7.970858E+04  4.467934E+05  8.571109E+04 -2.172313E+04  5.759312E+03 -1.529290E+04
       106   2  6.954960E+04  4.090355E+05  8.818054E+04  6.497078E+03  4.984749E+03 -2.331396E+04
       106   3  9.792329E+04  3.828014E+05  1.056749E+05 -1.542070E+04  1.455773E+03 -3.132777E+04
       106   4 -3.797041E+03  1.118802E+05  2.921262E+03 -2.058743E+04  5.758949E+03 -1.543902E+04
       106   5 -5.999326E+03  1.061709E+05  1.327517E+04  4.433369E+03  4.986585E+03 -2.279569E+04
       106   6  3.022524E+04  1.118725E+05  3.819712E+04 -2.068518E+04  1.459296E+03 -3.014551E+04
       106   7 -8.731103E+04 -2.229310E+05 -7.987689E+04 -1.945242E+04  5.758585E+03 -1.558507E+04
       106   8 -8.155510E+04 -1.966104E+05 -6.163701E+04  2.370602E+03  4.988419E+03 -2.227766E+04
       106   9 -3.747823E+04 -1.589897E+05 -2.928618E+04 -2.594741E+04  1.462800E+03 -2.896375E+04
       106  10  7.970848E+04  4.467931E+05  8.571058E+04 -2.172306E+04  1.871562E-09 -3.511422E-10
       106  11  6.954943E+04  4.090349E+05  8.817948E+04  6.497172E+03  1.015117E-09 -1.835462E-11
       106  12  9.792302E+04  3.828003E+05  1.056731E+05 -1.542067E+04  5.695151E-10  1.844782E-10
       106  13 -3.797141E+03  1.118800E+05  2.920752E+03 -2.058735E+04  1.434318E-09  3.924401E-12
       106  14 -5.999492E+03  1.061703E+05  1.327415E+04  4.433461E+03  2.720364E-09 -5.724123E-11
       106  15  3.022499E+04  1.118715E+05  3.819541E+04 -2.068515E+04  7.029407E-10 -3.016606E-11
       106  16 -8.731113E+04 -2.229313E+05 -7.987741E+04 -1.945235E+04  2.412242E-09  2.456585E-10
       106  17 -8.155526E+04 -1.966110E+05 -6.163799E+04  2.370692E+03 -1.771171E-10 -8.509040E-11
       106  18 -3.747846E+04 -1.589906E+05 -2.928777E+04 -2.594737E+04 -1.776287E-09 -2.009009E-10
       106  19  7.970858E+04  4.467934E+05  8.571109E+04 -2.172313E+04 -5.759312E+03  1.529290E+04
       106  20  6.954960E+04  4.090355E+05  8.818054E+04  6.497078E+03 -4.984749E+03  2.331396E+04
       106  21  9.792329E+04  3.828014E+05  1.056749E+05 -1.542070E+04 -1.455773E+03  3.132777E+04
       106  22 -3.797041E+03  1.118802E+05  2.921262E+03 -2.058743E+04 -5.758949E+03  1.543902E+04
       106  23 -5.999326E+03  1.061709E+05  1.327517E+04  4.433369E+03 -4.986585E+03  2.279569E+04
       106  24  3.022524E+04  1.118725E+05  3.819712E+04 -2.068518E+04 -1.459296E+03  3.014551E+04
       106  25 -8.731103E+04 -2.229310E+05 -7.987689E+04 -1.945242E+04 -5.758585E+03  1.558507E+04
       106  26 -8.155510E+04 -1.966104E+05 -6.163701E+04  2.370602E+03 -4.988419E+03  2.227766E+04
       106  27 -3.747823E+04 -1.589897E+05 -2.928618E+04 -2.594741E+04 -1.462800E+03  2.896375E+04
       107   1  3.125537E+06  2.228829E+06  8.264748E+05  1.925329E+06  2.996922E+05  2.131721E+05
       107   2  2.943884E+06  1.706675E+06  4.970135E+05  2.051771E+06  2.032265E+05  1.268862E+05
       107   3  2.923335E+06  1.760033E+06  3.950500E+05  2.028772E+06  9.691788E+04  5.392386E+04
       107   4  2.314940E+06  1.552401E+06  5.312134E+05  1.477936E+06  2.954104E+05  2.099571E+05
       107   5  2.159872E+06  1.127895E+06  2.282999E+05  1.654166E+06  2.023106E+05  1.261965E+05
       107   6  2.165544E+06  1.278616E+06  1.502801E+05  1.680835E+06  9.935500E+04  5.574082E+04
       107   7  1.505024E+06  8.764947E+05  2.358499E+05  1.031240E+06  2.911358E+05  2.067486E+05
       107   8  1.376495E+06  5.494698E+05 -4.050088E+04  1.257126E+06  2.013961E+05  1.255078E+05
       107   9  1.408351E+06  7.974221E+05 -9.456174E+04  1.333343E+06  1.017880E+05  5.755510E+04
       107  10  3.125429E+06  2.228756E+06  8.262225E+05  1.925278E+06  6.291169E-10  1.850837E-11
       107  11  2.943835E+06  1.706647E+06  4.969064E+05  2.051750E+06 -2.553148E-09 -2.221019E-10
       107  12  2.923324E+06  1.760028E+06  3.950270E+05  2.028768E+06 -9.025590E-10 -1.327831E-09
       107  13  2.314835E+06  1.552331E+06  5.309679E+05  1.477887E+06 -1.085939E-09 -1.243575E-11
       107  14  2.159824E+06  1.127867E+06  2.281936E+05  1.654145E+06 -4.540911E-09 -2.532193E-10
       107  15  2.165533E+06  1.278610E+06  1.502559E+05  1.680831E+06 -6.543466E-10 -1.028906E-09
       107  16  1.504922E+06  8.764263E+05  2.356111E+05  1.031192E+06  2.211866E-09  4.081120E-12
       107  17  1.376448E+06  5.494421E+05 -4.060630E+04  1.257106E+06 -2.096999E-09 -4.226605E-10
       107  18  1.408339E+06  7.974158E+05 -9.458734E+04  1.333338E+06  1.452506E-09 -7.720646E-10
       107  19  3.125537E+06  2.228829E+06  8.264748E+05  1.925329E+06 -2.996922E+05 -2.131721E+05
       107  20  2.943884E+06  1.706675E+06  4.970135E+05  2.051771E+06 -2.032265E+05 -1.268862E+05
       107  21  2.923335E+06  1.760033E+06  3.950500E+05  2.028772E+06 -9.691788E+04 -5.392386E+04
       107  22  2.314940E+06  1.552401E+06  5.312134E+05  1.477936E+06 -2.954104E+05 -2.099571E+05
       107  23  2.159872E+06  1.127895E+06  2.282999E+05  1.654166E+06 -2.023106E+05 -1.261965E+05
       107  24  2.165544E+06  1.278616E+06  1.502801E+05  1.680835E+06 -9.935500E+04 -5.574082E+04
       107  25  1.505024E+06  8.764947E+05  2.358499E+05  1.031240E+06 -2.911358E+05 -2.067486E+05
       107  26  1.376495E+06  5.494698E+05 -4.050088E+04  1.257126E+06 -2.013961E+05 -1.255078E+05
       107  27  1.408351E+06  7.974221E+05 -9.456174E+04  1.333343E+06 -1.017880E+05 -5.755510E+04
       108   1  2.665331E+06  1.660537E+06  2.905198E+05  1.872629E+06  7.692881E+04  4.457006E+04
       108   2  2.638904E+06  1.517487E+06  2.121211E+05  1.858377E+06  4.969469E+04  2.515407E+04
       108   3  2.557157E+06  1.539597E+06  1.764982E+05  1.847677E+06  2.147842E+04  7.056188E+03
       108   4  2.181867E+06  1.304661E+06  1.247493E+05  1.628026E+06  7.685373E+04  4.451171E+04
       108   5  2.199147E+06  1.203281E+06  6.326111E+04  1.640297E+06  4.996214E+04  2.535247E+04
       108   6  2.161058E+06  1.267028E+06  4.428580E+04  1.656111E+06  2.208553E+04  7.509213E+03
       108   7  1.698642E+06  9.489184E+05 -4.105492E+04  1.383636E+06  7.677869E+04  4.445340E+04
       108   8  1.759589E+06  8.891779E+05 -8.562580E+04  1.422389E+06  5.022932E+04  2.555066E+04
       108   9  1.765123E+06  9.945354E+05 -8.794740E+04  1.464680E+06  2.269211E+04  7.961854E+03
       108  10  2.665324E+06  1.660533E+06  2.905050E+05  1.872627E+06 -8.990925E-10 -1.075426E-09
       108  11  2.638902E+06  1.517486E+06  2.121154E+05  1.858376E+06  1.800933E-10  3.359729E-10
       108  12  2.557156E+06  1.539597E+06  1.764972E+05  1.847676E+06 -2.169960E-09  9.357760E-10
       108  13  2.181860E+06  1.304658E+06  1.247345E+05  1.628023E+06 -2.046910E-10 -4.981422E-10
       108  14  2.199144E+06  1.203280E+06  6.325524E+04  1.640296E+06 -2.645638E-09  4.552988E-10
       108  15  2.161057E+06  1.267028E+06  4.428478E+04  1.656111E+06 -3.356920E-09  1.969703E-10
       108  16  1.698636E+06  9.489147E+05 -4.106965E+04  1.383633E+06  4.185711E-10  4.246008E-11
       108  17  1.759586E+06  8.891766E+05 -8.563175E+04  1.422388E+06 -2.004628E-09  3.136461E-10
       108  18  1.765122E+06  9.945352E+05 -8.794849E+04  1.464680E+06 -6.445097E-10 -4.831431E-10
       108  19  2.665331E+06  1.660537E+06  2.905198E+05  1.872629E+06 -7.692881E+04 -4.457006E+04
       108  20  2.638904E+06  1.517487E+06  2.121211E+05  1.858377E+06 -4.969469E+04 -2.515407E+04
       108  21  2.557157E+06  1.539597E+06  1.764982E+05  1.847677E+06 -2.147842E+04 -7.056188E+03
       108  22  2.181867E+06  1.304661E+06  1.247493E+05  1.628026E+06 -7.685373E+04 -4.451171E+04
       108  23  2.199147E+06  1.203281E+06  6.326111E+04  1.640297E+06 -4.996214E+04 -2.535247E+04
       108  24  2.161058E+06  1.267028E+06  4.428580E+04  1.656111E+06 -2.208553E+04 -7.509213E+03
       108  25  1.698642E+06  9.489184E+05 -4.105492E+04  1.383636E+06 -7.677869E+04 -4.445340E+04
       108  26  1.759589E+06  8.891779E+05 -8.562580E+04  1.422389E+06 -5.022932E+04 -2.555066E+04
       108  27  1.765123E+06  9.945354E+05 -8.794740E+04  1.464680E+06 -2.269211E+04 -7.961854E+03
       109   1  2.385725E+06  1.424354E+06  1.133699E+05  1.758028E+06  1.476258E+04  3.978847E+03
       109   2  2.381638E+06  1.346482E+06  9.321091E+04  1.730129E+06  7.209016E+02 -4.239485E+03
       109   3  2.312157E+06  1.366544E+06  8.962298E+04  1.718153E+06 -1.324892E+04 -1.255471E+04
       109   4  2.166576E+06  1.266018E+06  3.896063E+04  1.648529E+06  1.512218E+04  4.247238E+03
       109   5  2.199467E+06  1.217395E+06  3.172991E+04  1.640300E+06  1.062108E+03 -3.984538E+03
       109   6  2.166969E+06  1.266719E+06  4.109124E+04  1.647992E+06 -1.292715E+04 -1.231412E+04
       109   7  1.947476E+06  1.107708E+06 -3.545540E+04  1.539073E+06  1.548160E+04  4.515495E+03
       109   8  2.017330E+06  1.088326E+06 -2.975575E+04  1.550500E+06  1.403180E+03 -3.729692E+03
       109   9  2.021803E+06  1.166902E+06 -7.443479E+03  1.577849E+06 -1.260548E+04 -1.207361E+04
       109  10  2.385725E+06  1.424354E+06  1.133695E+05  1.758028E+06 -2.409523E-10 -6.345570E-11
       109  11  2.381638E+06  1.346482E+06  9.321088E+04  1.730129E+06 -9.972281E-10  1.029031E-11
       109  12  2.312157E+06  1.366544E+06  8.962236E+04  1.718153E+06  1.483325E-10  2.547325E-10
       109  13  2.166575E+06  1.266018E+06  3.896017E+04  1.648529E+06  1.413911E-11  2.900800E-10
       109  14  2.199467E+06  1.217395E+06  3.172988E+04  1.640300E+06  1.730036E-09  3.330450E-10
       109  15  2.166969E+06  1.266718E+06  4.109064E+04  1.647992E+06 -1.785653E-11  6.330576E-10
       109  16  1.947475E+06  1.107708E+06 -3.545589E+04  1.539073E+06  7.485677E-10  3.622480E-10
       109  17  2.017330E+06  1.088326E+06 -2.975578E+04  1.550500E+06 -2.117535E-10 -2.439230E-11
       109  18  2.021802E+06  1.166902E+06 -7.444049E+03  1.577849E+06  1.558460E-09  9.910728E-10
       109  19  2.385725E+06  1.424354E+06  1.133699E+05  1.758028E+06 -1.476258E+04 -3.978847E+03
       109  20  2.381638E+06  1.346482E+06  9.321091E+04  1.730129E+06 -7.209016E+02  4.239485E+03
       109  21  2.312157E+06  1.366544E+06  8.962298E+04  1.718153E+06  1.324892E+04  1.255471E+04
       109  22  2.166576E+06  1.266018E+06  3.896063E+04  1.648529E+06 -1.512218E+04 -4.247238E+03
       109  23  2.199467E+06  1.217395E+06  3.172991E+04  1.640300E+06 -1.062108E+03  3.984538E+03
       109  24  2.166969E+06  1.266719E+06  4.109124E+04  1.647992E+06  1.292715E+04  1.231412E+04
       109  25  1.947476E+06  1.107708E+06 -3.545540E+04  1.539073E+06 -1.548160E+04 -4.515495E+03
       109  26  2.017330E+06  1.088326E+06 -2.975575E+04  1.550500E+06 -1.403180E+03  3.729692E+03
       109  27  2.021803E+06  1.166902E+06 -7.443479E+03  1.577849E+06  1.260548E+04  1.207361E+04
       110   1  2.161697E+06  1.265328E+06  4.695593E+04  1.655805E+06 -2.045050E+04 -1.648643E+04
       110   2  2.156500E+06  1.182021E+06  5.681864E+04  1.624443E+06 -5.027813E+04 -3.650402E+04
       110   3  2.127547E+06  1.241240E+06  1.127799E+05  1.584283E+06 -7.960416E+04 -5.718721E+04
       110   4  2.167267E+06  1.260591E+06  4.726475E+04  1.654525E+06 -2.001605E+04 -1.616109E+04
       110   5  2.190833E+06  1.210286E+06  6.916754E+04  1.643188E+06 -5.000652E+04 -3.630115E+04
       110   6  2.190671E+06  1.302534E+06  1.373053E+05  1.623051E+06 -7.949718E+04 -5.710918E+04
       110   7  2.172838E+06  1.255855E+06  4.757358E+04  1.653246E+06 -1.958160E+04 -1.583577E+04
       110   8  2.225167E+06  1.238552E+06  8.151624E+04  1.661934E+06 -4.973488E+04 -3.609826E+04
       110   9  2.253800E+06  1.363833E+06  1.618300E+05  1.661824E+06 -7.939018E+04 -5.703115E+04
       110  10  2.161696E+06  1.265327E+06  4.695464E+04  1.655805E+06  3.307252E-10  1.128466E-09
       110  11  2.156497E+06  1.182019E+06  5.681143E+04  1.624441E+06 -1.106990E-09 -4.894971E-10
       110  12  2.127539E+06  1.241235E+06  1.127619E+05  1.584279E+06  9.343125E-10  2.423537E-11
       110  13  2.167267E+06  1.260591E+06  4.726351E+04  1.654525E+06  5.268244E-10  1.318777E-10
       110  14  2.190830E+06  1.210284E+06  6.916041E+04  1.643186E+06  5.529977E-10 -2.414751E-10
       110  15  2.190664E+06  1.302529E+06  1.372874E+05  1.623047E+06 -8.821481E-11  4.231598E-10
       110  16  2.172837E+06  1.255855E+06  4.757240E+04  1.653246E+06  8.384616E-10 -7.592545E-11
       110  17  2.225164E+06  1.238550E+06  8.150919E+04  1.661933E+06 -8.596857E-10 -1.165325E-09
       110  18  2.253793E+06  1.363828E+06  1.618121E+05  1.661820E+06  9.410337E-10  1.553275E-10
       110  19  2.161697E+06  1.265328E+06  4.695593E+04  1.655805E+06  2.045050E+04  1.648643E+04
       110  20  2.156500E+06  1.182021E+06  5.681864E+04  1.624443E+06  5.027813E+04  3.650402E+04
       110  21  2.127547E+06  1.241240E+06  1.127799E+05  1.584283E+06  7.960416E+04  5.718721E+04
       110  22  2.167267E+06  1.260591E+06  4.726475E+04  1.654525E+06  2.001605E+04  1.616109E+04
       110  23  2.190833E+06  1.210286E+06  6.916754E+04  1.643188E+06  5.000652E+04  3.630115E+04
       110  24  2.190671E+06  1.302534E+06  1.373053E+05  1.623051E+06  7.949718E+04  5.710918E+04
       110  25  2.172838E+06  1.255855E+06  4.757358E+04  1.653246E+06  1.958160E+04  1.583577E+04
       110  26  2.225167E+06  1.238552E+06  8.151624E+04  1.661934E+06  4.973488E+04  3.609826E+04
       110  27  2.253800E+06  1.363833E+06  1.618300E+05  1.661824E+06  7.939018E+04  5.703115E+04
       111   1  1.924527E+06  1.141464E+06  9.035442E+04  1.579234E+06 -1.036055E+05 -7.253695E+04
       111   2  1.892336E+06  9.335986E+05  1.636445E+05  1.527062E+06 -2.141751E+05 -1.519537E+05
       111   3  2.113153E+06  1.278270E+06  4.829253E+05  1.282316E+06 -3.209133E+05 -2.364686E+05
       111   4  2.180364E+06  1.264779E+06  1.653653E+05  1.678621E+06 -1.025295E+05 -7.172351E+04
       111   5  2.137362E+06  1.138749E+06  2.524523E+05  1.662431E+06 -2.143817E+05 -1.521185E+05
       111   6  2.347495E+06  1.565355E+06  5.865345E+05  1.453708E+06 -3.223992E+05 -2.376368E+05
       111   7  2.436271E+06  1.388107E+06  2.403702E+05  1.778045E+06 -1.014528E+05 -7.090979E+04
       111   8  2.382451E+06  1.343947E+06  3.412508E+05  1.797864E+06 -2.145884E+05 -1.522833E+05
       111   9  2.581899E+06  1.852552E+06  6.901334E+05  1.625191E+06 -3.238858E+05 -2.388060E+05
       111  10  1.924514E+06  1.141455E+06  9.032452E+04  1.579228E+06  3.830815E-09 -5.873332E-11
       111  11  1.892281E+06  9.335616E+05  1.635155E+05  1.527036E+06  4.725658E-10 -8.438198E-10
       111  12  2.113028E+06  1.278183E+06  4.826281E+05  1.282255E+06  2.489657E-09 -6.410403E-11
       111  13  2.180351E+06  1.264771E+06  1.653360E+05  1.678615E+06  8.066850E-10 -2.623761E-11
       111  14  2.137307E+06  1.138712E+06  2.523232E+05  1.662405E+06  1.548734E-09  2.169146E-10
       111  15  2.347368E+06  1.565267E+06  5.862347E+05  1.453646E+06  3.157449E-10 -5.580774E-10
       111  16  2.436259E+06  1.388099E+06  2.403415E+05  1.778039E+06  1.461270E-09 -3.509850E-12
       111  17  2.382395E+06  1.343910E+06  3.411215E+05  1.797838E+06 -1.575760E-09 -2.671522E-10
       111  18  2.581772E+06  1.852463E+06  6.898309E+05  1.625129E+06  4.754484E-10  2.095800E-10
       111  19  1.924527E+06  1.141464E+06  9.035442E+04  1.579234E+06  1.036055E+05  7.253695E+04
       111  20  1.892336E+06  9.335986E+05  1.636445E+05  1.527062E+06  2.141751E+05  1.519537E+05
       111  21  2.113153E+06  1.278270E+06  4.829253E+05  1.282316E+06  3.209133E+05  2.364686E+05
       111  22  2.180364E+06  1.264779E+06  1.653653E+05  1.678621E+06  1.025295E+05  7.172351E+04
       111  23  2.137362E+06  1.138749E+06  2.524523E+05  1.662431E+06  2.143817E+05  1.521185E+05
       111  24  2.347495E+06  1.565355E+06  5.865345E+05  1.453708E+06  3.223992E+05  2.376368E+05
       111  25  2.436271E+06  1.388107E+06  2.403702E+05  1.778045E+06  1.014528E+05  7.090979E+04
       111  26  2.382451E+06  1.343947E+06  3.412508E+05  1.797864E+06  2.145884E+05  1.522833E+05
       111  27  2.581899E+06  1.852552E+06  6.901334E+05  1.625191E+06  3.238858E+05  2.388060E+05
       112   1  4.206578E+06  3.810153E+05  4.010859E+05  9.009655E+04  6.393998E+04 -7.387095E+03
       112   2  4.058067E+06  2.660901E+05  3.166187E+05 -1.913708E+04  3.854076E+04 -2.000895E+04
       112   3  3.943713E+06  2.467193E+05  2.738730E+05  7.628388E+04  1.317897E+04 -1.404493E+04
       112   4  2.943431E+06  6.679394E+04  8.771409E+04  8.166221E+04  5.855957E+04 -7.374304E+03
       112   5  2.926730E+06 -1.500903E+04  3.801355E+04 -2.076782E+04  3.768279E+04 -2.001019E+04
       112   6  2.943437E+06 -1.948380E+03  2.696352E+04  8.147833E+04  1.683799E+04 -1.404598E+04
       112   7  1.681723E+06 -2.475460E+05 -2.257763E+05  7.324585E+04  5.318993E+04 -7.361356E+03
       112   8  1.796549E+06 -2.962030E+05 -2.406859E+05 -2.239518E+04  3.682633E+04 -2.001143E+04
       112   9  1.944065E+06 -2.506902E+05 -2.200198E+05  8.666437E+04  2.049114E+04 -1.404697E+04
       112  10  4.206574E+06  3.810141E+05  4.010782E+05  9.009693E+04  3.778190E-10  7.937036E-10
       112  11  4.058065E+06  2.660893E+05  3.166152E+05 -1.913646E+04 -9.395749E-10  1.836410E-10
       112  12  3.943713E+06  2.467190E+05  2.738723E+05  7.628403E+04  2.422362E-09 -1.341341E-09
       112  13  2.943427E+06  6.679297E+04  8.770757E+04  8.166256E+04  2.363282E-10  4.771667E-10
       112  14  2.926729E+06 -1.500984E+04  3.801014E+04 -2.076722E+04  1.153697E-09  4.500326E-10
       112  15  2.943437E+06 -1.948667E+03  2.696262E+04  8.147852E+04 -4.078838E-09 -9.892451E-10
       112  16  1.681719E+06 -2.475469E+05 -2.257817E+05  7.324617E+04  4.805207E-10  2.391282E-10
       112  17  1.796548E+06 -2.962038E+05 -2.406892E+05 -2.239459E+04 -1.014409E-09 -6.205947E-11
       112  18  1.944064E+06 -2.506905E+05 -2.200210E+05  8.666460E+04 -1.960368E-10 -2.249434E-09
       112  19  4.206578E+06  3.810153E+05  4.010859E+05  9.009655E+04 -6.393998E+04  7.387095E+03
       112  20  4.058067E+06  2.660901E+05  3.166187E+05 -1.913708E+04 -3.854076E+04  2.000895E+04
       112  21  3.943713E+06  2.467193E+05  2.738730E+05  7.628388E+04 -1.317897E+04  1.404493E+04
       112  22  2.943431E+06  6.679394E+04  8.771409E+04  8.166221E+04 -5.855957E+04  7.374304E+03
       112  23  2.926730E+06 -1.500903E+04  3.801355E+04 -2.076782E+04 -3.768279E+04  2.001019E+04
       112  24  2.943437E+06 -1.948380E+03  2.696352E+04  8.147833E+04 -1.683799E+04  1.404598E+04
       112  25  1.681723E+06 -2.475460E+05 -2.257763E+05  7.324585E+04 -5.318993E+04  7.361356E+03
       112  26  1.796549E+06 -2.962030E+05 -2.406859E+05 -2.239518E+04 -3.682633E+04  2.001143E+04
       112  27  1.944065E+06 -2.506902E+05 -2.200198E+05  8.666437E+04 -2.049114E+04  1.404697E+04
       113   1  3.478695E+06  1.437116E+05  1.565306E+05  7.506815E+04  1.211625E+04 -8.676927E+03
       113   2  3.368678E+06  1.052167E+05  1.219191E+05 -9.745240E+03  3.931677E+03 -6.950625E+03
       113   3  3.264560E+06  8.413688E+04  9.706166E+04  7.245878E+04 -4.258096E+03 -3.293286E+03
       113   4  2.937522E+06  9.169939E+03  2.307752E+04  7.315893E+04  1.229402E+04 -8.677325E+03
       113   5  2.934608E+06 -2.705190E+03  1.486830E+04 -1.035271E+04  4.580450E+03 -6.950225E+03
       113   6  2.937503E+06  2.760262E+03  1.609314E+04  7.316008E+04 -3.139725E+03 -3.291501E+03
       113   7  2.396613E+06 -1.253934E+05 -1.103972E+05  7.125132E+04  1.247163E+04 -8.677724E+03
       113   8  2.500707E+06 -1.106410E+05 -9.219639E+04 -1.095980E+04  5.228770E+03 -6.949826E+03
       113   9  2.610542E+06 -7.862432E+04 -6.488331E+04  7.386097E+04 -2.021939E+03 -3.289713E+03
       113  10  3.478695E+06  1.437114E+05  1.565302E+05  7.506824E+04  1.725857E-09 -3.001529E-10
       113  11  3.368678E+06  1.052166E+05  1.219190E+05 -9.745218E+03  3.947117E-10 -8.641732E-10
       113  12  3.264560E+06  8.413686E+04  9.706160E+04  7.245877E+04  2.507005E-09 -2.298862E-10
       113  13  2.937522E+06  9.169818E+03  2.307710E+04  7.315902E+04  2.259197E-09 -8.435715E-10
       113  14  2.934608E+06 -2.705248E+03  1.486817E+04 -1.035269E+04  2.253496E-09 -5.335513E-10
       113  15  2.937503E+06  2.760248E+03  1.609310E+04  7.316008E+04 -4.041341E-10  4.857246E-10
       113  16  2.396613E+06 -1.253935E+05 -1.103976E+05  7.125140E+04 -1.189869E-09 -1.766392E-09
       113  17  2.500707E+06 -1.106411E+05 -9.219653E+04 -1.095977E+04 -2.958532E-09 -2.039969E-10
       113  18  2.610542E+06 -7.862433E+04 -6.488334E+04  7.386096E+04 -4.317045E-09  1.775233E-10
       113  19  3.478695E+06  1.437116E+05  1.565306E+05  7.506815E+04 -1.211625E+04  8.676927E+03
       113  20  3.368678E+06  1.052167E+05  1.219191E+05 -9.745240E+03 -3.931677E+03  6.950625E+03
       113  21  3.264560E+06  8.413688E+04  9.706166E+04  7.245878E+04  4.258096E+03  3.293286E+03
       113  22  2.937522E+06  9.169939E+03  2.307752E+04  7.315893E+04 -1.229402E+04  8.677325E+03
       113  23  2.934608E+06 -2.705190E+03  1.486830E+04 -1.035271E+04 -4.580450E+03  6.950225E+03
       113  24  2.937503E+06  2.760262E+03  1.609314E+04  7.316008E+04  3.139725E+03  3.291501E+03
       113  25  2.396613E+06 -1.253934E+05 -1.103972E+05  7.125132E+04 -1.247163E+04  8.677724E+03
       113  26  2.500707E+06 -1.106410E+05 -9.219639E+04 -1.095980E+04 -5.228770E+03  6.949826E+03
       113  27  2.610542E+06 -7.862432E+04 -6.488331E+04  7.386097E+04  2.021939E+03  3.289713E+03
       114   1  2.860155E+06 -1.870752E+04 -2.124794E+03  7.349206E+04 -7.211880E+03 -5.495386E+02
       114   2  2.752733E+06 -4.970746E+04 -2.162382E+04 -9.578444E+03 -1.885142E+04  2.972275E+03
       114   3  2.653936E+06 -5.052356E+04 -2.611601E+04  6.829799E+04 -3.048509E+04  4.962383E+03
       114   4  2.938178E+06  7.450730E+02  1.740091E+04  7.181763E+04 -6.175610E+03 -5.476613E+02
       114   5  2.933828E+06 -4.666153E+03  2.303945E+04 -8.666657E+03 -1.818708E+04  2.973193E+03
       114   6  2.938154E+06  2.016670E+04  4.393923E+04  7.179268E+04 -3.019461E+04  4.962470E+03
       114   7  3.016207E+06  2.019722E+04  3.692615E+04  7.014299E+04 -5.139210E+03 -5.457898E+02
       114   8  3.114952E+06  4.037272E+04  6.770030E+04 -7.754616E+03 -1.752255E+04  2.974113E+03
       114   9  3.222446E+06  9.085101E+04  1.139885E+05  7.528895E+04 -2.990399E+04  4.962560E+03
       114  10  2.860155E+06 -1.870754E+04 -2.124892E+03  7.349206E+04  4.372490E-09  1.215871E-09
       114  11  2.752733E+06 -4.970756E+04 -2.162450E+04 -9.578398E+03  4.132366E-10  3.452120E-10
       114  12  2.653935E+06 -5.052384E+04 -2.611779E+04  6.829811E+04 -4.041439E-09  2.144079E-10
       114  13  2.938178E+06  7.450625E+02  1.740083E+04  7.181763E+04 -4.855714E-10 -2.442766E-11
       114  14  2.933828E+06 -4.666251E+03  2.303881E+04 -8.666614E+03 -1.135073E-09 -9.192077E-10
       114  15  2.938153E+06  2.016643E+04  4.393748E+04  7.179280E+04  1.116224E-09  4.741216E-10
       114  16  3.016207E+06  2.019722E+04  3.692610E+04  7.014299E+04 -4.315788E-09  3.523835E-10
       114  17  3.114952E+06  4.037263E+04  6.769971E+04 -7.754574E+03 -1.000569E-09 -2.482300E-09
       114  18  3.222445E+06  9.085074E+04  1.139868E+05  7.528907E+04 -2.229304E-10  7.044652E-10
       114  19  2.860155E+06 -1.870752E+04 -2.124794E+03  7.349206E+04  7.211880E+03  5.495386E+02
       114  20  2.752733E+06 -4.970746E+04 -2.162382E+04 -9.578444E+03  1.885142E+04 -2.972275E+03
       114  21  2.653936E+06 -5.052356E+04 -2.611601E+04  6.829799E+04  3.048509E+04 -4.962383E+03
       114  22  2.938178E+06  7.450730E+02  1.740091E+04  7.181763E+04  6.175610E+03  5.476613E+02
       114  23  2.933828E+06 -4.666153E+03  2.303945E+04 -8.666657E+03  1.818708E+04 -2.973193E+03
       114  24  2.938154E+06  2.016670E+04  4.393923E+04  7.179268E+04  3.019461E+04 -4.962470E+03
       114  25  3.016207E+06  2.019722E+04  3.692615E+04  7.014299E+04  5.139210E+03  5.457898E+02
       114  26  3.114952E+06  4.037272E+04  6.770030E+04 -7.754616E+03  1.752255E+04 -2.974113E+03
       114  27  3.222446E+06  9.085101E+04  1.139885E+05  7.528895E+04  2.990399E+04 -4.962560E+03
       115   1  2.237811E+06 -1.819759E+05 -1.230378E+05  8.781709E+04 -4.189479E+04  9.505148E+03
       115   2  2.089809E+06 -2.374810E+05 -1.251077E+05 -2.137574E+04 -8.180777E+04  1.477697E+04
       115   3  2.000104E+06 -9.430541E+04 -5.087563E+04  5.483832E+04 -1.217158E+05  5.582286E+03
       115   4  2.949204E+06 -4.954793E+03  5.280699E+04  7.720986E+04 -3.891110E+04  9.508142E+03
       115   5  2.919721E+06 -3.102916E+04  7.949078E+04 -1.540947E+04 -8.235626E+04  1.477500E+04
       115   6  2.949053E+06  1.420466E+05  1.848442E+05  7.736026E+04 -1.258043E+05  5.581684E+03
       115   7  3.661055E+06  1.720292E+05  2.286144E+05  6.659037E+04 -3.592399E+04  9.511034E+03
       115   8  3.750256E+06  1.753717E+05  2.840385E+05 -9.435212E+03 -8.290541E+04  1.477303E+04
       115   9  3.898816E+06  3.783332E+05  4.204972E+05  9.991670E+04 -1.298989E+05  5.580790E+03
       115  10  2.237809E+06 -1.819765E+05 -1.230412E+05  8.781741E+04 -2.828736E-09  8.126996E-10
       115  11  2.089801E+06 -2.374830E+05 -1.251206E+05 -2.137477E+04 -5.461765E-10 -3.272976E-10
       115  12  2.000088E+06 -9.430940E+04 -5.090344E+04  5.483887E+04  1.313278E-09 -4.182961E-12
       115  13  2.949203E+06 -4.955294E+03  5.280399E+04  7.721016E+04  2.012505E-09  8.148195E-10
       115  14  2.919713E+06 -3.103120E+04  7.947768E+04 -1.540849E+04 -1.004980E-10 -2.626673E-10
       115  15  2.949036E+06  1.420423E+05  1.848145E+05  7.736082E+04  7.797102E-10 -4.039516E-10
       115  16  3.661054E+06  1.720287E+05  2.286118E+05  6.659064E+04 -1.638850E-09  8.638288E-11
       115  17  3.750249E+06  1.753696E+05  2.840252E+05 -9.434228E+03 -9.497307E-10 -4.756517E-10
       115  18  3.898798E+06  3.783287E+05  4.204657E+05  9.991728E+04  1.632009E-09 -2.136321E-10
       115  19  2.237811E+06 -1.819759E+05 -1.230378E+05  8.781709E+04  4.189479E+04 -9.505148E+03
       115  20  2.089809E+06 -2.374810E+05 -1.251077E+05 -2.137574E+04  8.180777E+04 -1.477697E+04
       115  21  2.000104E+06 -9.430541E+04 -5.087563E+04  5.483832E+04  1.217158E+05 -5.582286E+03
       115  22  2.949204E+06 -4.954793E+03  5.280699E+04  7.720986E+04  3.891110E+04 -9.508142E+03
       115  23  2.919721E+06 -3.102916E+04  7.949078E+04 -1.540947E+04  8.235626E+04 -1.477500E+04
       115  24  2.949053E+06  1.420466E+05  1.848442E+05  7.736026E+04  1.258043E+05 -5.581684E+03
       115  25  3.661055E+06  1.720292E+05  2.286144E+05  6.659037E+04  3.592399E+04 -9.511034E+03
       115  26  3.750256E+06  1.753717E+05  2.840385E+05 -9.435212E+03  8.290541E+04 -1.477303E+04
       115  27  3.898816E+06  3.783332E+05  4.204972E+05  9.991670E+04  1.298989E+05 -5.580790E+03
       116   1 -7.744522E+05 -1.778394E+06 -9.271886E+05  1.865762E+05 -8.069467E+03 -4.475566E+05
       116   2 -1.171455E+05 -1.513582E+06 -5.130171E+05 -6.438182E+03 -1.791442E+04 -2.867626E+05
       116   3 -1.702018E+05 -1.446615E+06 -3.811063E+05  6.096552E+04 -1.006122E+04 -1.260197E+05
       116   4 -5.057617E+05 -7.013800E+05 -6.586148E+05  1.067608E+05 -7.992383E+03 -4.434052E+05
       116   5  1.100168E+05 -6.029535E+05 -2.876788E+05 -2.449375E+04 -1.790217E+04 -2.866090E+05
       116   6  1.669693E+04 -7.013657E+05 -1.958715E+05  1.046710E+05 -1.009297E+04 -1.299078E+05
       116   7 -2.371339E+05  3.767020E+05 -3.901246E+05  2.680550E+04 -7.916474E+03 -4.392461E+05
       116   8  3.371185E+05  3.084305E+05 -6.240201E+04 -4.257680E+04 -1.788995E+04 -2.864549E+05
       116   9  2.035606E+05  4.439183E+04 -1.067738E+04  1.484283E+05 -1.012525E+04 -1.338006E+05
       116  10 -7.745062E+05 -1.778609E+06 -9.275662E+05  1.865734E+05 -4.858708E-10 -1.649195E-09
       116  11 -1.171680E+05 -1.513670E+06 -5.131726E+05 -6.442324E+03 -1.288311E-09  6.049807E-10
       116  12 -1.702062E+05 -1.446632E+06 -3.811364E+05  6.096450E+04 -8.866808E-10  1.415578E-09
       116  13 -5.058147E+05 -7.015915E+05 -6.589848E+05  1.067580E+05  1.042778E-09  2.149360E-10
       116  14  1.099943E+05 -6.030419E+05 -2.878340E+05 -2.449789E+04 -5.608698E-09 -2.222934E-10
       116  15  1.669228E+04 -7.013839E+05 -1.959035E+05  1.046699E+05  1.446201E-09 -1.482881E-09
       116  16 -2.371857E+05  3.764948E+05 -3.904871E+05  2.680270E+04 -4.674365E-10  1.170675E-09
       116  17  3.370961E+05  3.083423E+05 -6.255676E+04 -4.258093E+04 -3.132605E-10 -1.467908E-09
       116  18  2.035557E+05  4.437258E+04 -1.071122E+04  1.484272E+05 -2.963445E-09 -2.416358E-09
       116  19 -7.744522E+05 -1.778394E+06 -9.271886E+05  1.865762E+05  8.069467E+03  4.475566E+05
       116  20 -1.171455E+05 -1.513582E+06 -5.130171E+05 -6.438182E+03  1.791442E+04  2.867626E+05
       116  21 -1.702018E+05 -1.446615E+06 -3.811063E+05  6.096552E+04  1.006122E+04  1.260197E+05
       116  22 -5.057617E+05 -7.013800E+05 -6.586148E+05  1.067608E+05  7.992383E+03  4.434052E+05
       116  23  1.100168E+05 -6.029535E+05 -2.876788E+05 -2.449375E+04  1.790217E+04  2.866090E+05
       116  24  1.669693E+04 -7.013657E+05 -1.958715E+05  1.046710E+05  1.009297E+04  1.299078E+05
       116  25 -2.371339E+05  3.767020E+05 -3.901246E+05  2.680550E+04  7.916474E+03  4.392461E+05
       116  26  3.371185E+05  3.084305E+05 -6.240201E+04 -4.257680E+04  1.788995E+04  2.864549E+05
       116  27  2.035606E+05  4.439183E+04 -1.067738E+04  1.484283E+05  1.012525E+04  1.338006E+05
       117   1 -9.040324E+04 -7.504996E+05 -1.881084E+05  1.196190E+05 -3.316776E+03 -9.641902E+04
       117   2  4.307216E+04 -5.592055E+05 -7.921252E+04 -2.367657E+04  1.088431E+03 -4.402861E+04
       117   3  3.864345E+04 -4.133192E+05 -3.977354E+04  9.715879E+04  5.171377E+03  8.379991E+03
       117   4 -6.995927E+04 -6.675884E+05 -1.678241E+05  1.065209E+05 -3.321292E+03 -9.743273E+04
       117   5  2.166024E+04 -6.448529E+05 -1.004314E+05 -2.569564E+04  1.082651E+03 -4.496104E+04
       117   6 -2.464310E+04 -6.675619E+05 -1.025447E+05  1.062240E+05  5.166169E+03  7.514706E+03
       117   7 -4.951516E+04 -5.846705E+05 -1.475402E+05  9.342117E+04 -3.325765E+03 -9.844658E+04
       117   8  2.477878E+02 -7.304935E+05 -1.216509E+05 -2.771445E+04  1.076875E+03 -4.589333E+04
       117   9 -8.793413E+04 -9.217455E+05 -1.653205E+05  1.152855E+05  5.160935E+03  6.649774E+03
       117  10 -9.040575E+04 -7.505096E+05 -1.881259E+05  1.196187E+05  2.751430E-10 -1.594894E-10
       117  11  4.307163E+04 -5.592076E+05 -7.921617E+04 -2.367653E+04  1.292226E-09  1.524313E-09
       117  12  3.864340E+04 -4.133193E+05 -3.977373E+04  9.715875E+04  4.353350E-09  1.029575E-09
       117  13 -6.996184E+04 -6.675986E+05 -1.678420E+05  1.065207E+05  2.322236E-09  5.264167E-11
       117  14  2.165970E+04 -6.448551E+05 -1.004353E+05 -2.569560E+04  4.989080E-09 -5.149241E-10
       117  15 -2.464315E+04 -6.675619E+05 -1.025448E+05  1.062240E+05 -4.161637E-09 -1.525470E-09
       117  16 -4.951777E+04 -5.846810E+05 -1.475585E+05  9.342090E+04  1.279212E-09 -1.577523E-10
       117  17  2.472203E+02 -7.304958E+05 -1.216549E+05 -2.771441E+04  1.582768E-09 -2.851387E-09
       117  18 -8.793417E+04 -9.217456E+05 -1.653206E+05  1.152855E+05 -3.518392E-10 -2.155021E-09
       117  19 -9.040324E+04 -7.504996E+05 -1.881084E+05  1.196190E+05  3.316776E+03  9.641902E+04
       117  20  4.307216E+04 -5.592055E+05 -7.921252E+04 -2.367657E+04 -1.088431E+03  4.402861E+04
       117  21  3.864345E+04 -4.133192E+05 -3.977354E+04  9.715879E+04 -5.171377E+03 -8.379991E+03
       117  22 -6.995927E+04 -6.675884E+05 -1.678241E+05  1.065209E+05  3.321292E+03  9.743273E+04
       117  23  2.166024E+04 -6.448529E+05 -1.004314E+05 -2.569564E+04 -1.082651E+03  4.496104E+04
       117  24 -2.464310E+04 -6.675619E+05 -1.025447E+05  1.062240E+05 -5.166169E+03 -7.514706E+03
       117  25 -4.951516E+04 -5.846705E+05 -1.475402E+05  9.342117E+04  3.325765E+03  9.844658E+04
       117  26  2.477878E+02 -7.304935E+05 -1.216509E+05 -2.771445E+04 -1.076875E+03  4.589333E+04
       117  27 -8.793413E+04 -9.217455E+05 -1.653205E+05  1.152855E+05 -5.160935E+03 -6.649774E+03
       118   1  2.274595E+05  2.398006E+05  1.218803E+05  1.256517E+05  1.214600E+04  3.017371E+04
       118   2  3.137476E+05  4.431076E+05  1.411270E+05 -2.853579E+04  1.975801E+04  9.345577E+04
       118   3  1.129203E+05  5.693893E+05  4.801736E+04  7.473973E+04  7.689227E+03  1.568416E+05
       118   4 -1.202358E+03 -6.750431E+05 -1.050702E+05  1.045643E+05  1.212190E+04  2.604111E+04
       118   5  4.463542E+04 -6.360077E+05 -1.256432E+05 -2.387260E+04  1.976356E+04  9.394624E+04
       118   6 -1.977221E+05 -6.749836E+05 -2.619319E+05  1.051869E+05  7.714790E+03  1.619380E+05
       118   7 -2.299255E+05 -1.589126E+06 -3.320830E+05  8.350679E+04  1.209806E+04  2.191458E+04
       118   8 -2.245637E+05 -1.714065E+06 -3.925000E+05 -1.921867E+04  1.976913E+04  9.443575E+04
       118   9 -5.084773E+05 -1.917950E+06 -5.719968E+05  1.355718E+05  7.740885E+03  1.670239E+05
       118  10  2.274591E+05  2.397996E+05  1.218783E+05  1.256514E+05  2.937591E-09 -4.983619E-10
       118  11  3.137449E+05  4.430982E+05  1.411099E+05 -2.853727E+04  2.249665E-09  2.291887E-10
       118  12  1.129137E+05  5.693629E+05  4.797107E+04  7.473875E+04 -2.809084E-10 -4.348160E-10
       118  13 -1.202698E+03 -6.750439E+05 -1.050718E+05  1.045640E+05  2.261204E-09 -8.111750E-11
       118  14  4.463262E+04 -6.360173E+05 -1.256606E+05 -2.387409E+04  1.838767E-09  6.457707E-11
       118  15 -1.977292E+05 -6.750118E+05 -2.619813E+05  1.051859E+05 -1.248833E-09 -1.151383E-09
       118  16 -2.299258E+05 -1.589127E+06 -3.320842E+05  8.350658E+04 -8.221396E-10  5.558238E-11
       118  17 -2.245665E+05 -1.714074E+06 -3.925175E+05 -1.922018E+04  2.883957E-09 -5.274206E-10
       118  18 -5.084849E+05 -1.917980E+06 -5.720495E+05  1.355708E+05  1.666239E-09 -1.300569E-10
       118  19  2.274595E+05  2.398006E+05  1.218803E+05  1.256517E+05 -1.214600E+04 -3.017371E+04
       118  20  3.137476E+05  4.431076E+05  1.411270E+05 -2.853579E+04 -1.975801E+04 -9.345577E+04
       118  21  1.129203E+05  5.693893E+05  4.801736E+04  7.473973E+04 -7.689227E+03 -1.568416E+05
       118  22 -1.202358E+03 -6.750431E+05 -1.050702E+05  1.045643E+05 -1.212190E+04 -2.604111E+04
       118  23  4.463542E+04 -6.360077E+05 -1.256432E+05 -2.387260E+04 -1.976356E+04 -9.394624E+04
       118  24 -1.977221E+05 -6.749836E+05 -2.619319E+05  1.051869E+05 -7.714790E+03 -1.619380E+05
       118  25 -2.299255E+05 -1.589126E+06 -3.320830E+05  8.350679E+04 -1.209806E+04 -2.191458E+04
       118  26 -2.245637E+05 -1.714065E+06 -3.925000E+05 -1.921867E+04 -1.976913E+04 -9.443575E+04
       118  27 -5.084773E+05 -1.917950E+06 -5.719968E+05  1.355718E+05 -7.740885E+03 -1.670239E+05
       119   1  4.541145E+06  3.028682E+06  9.006137E+05  2.980495E+06  4.499888E+05  3.329748E+05
       119   2  4.264278E+06  2.377263E+06  4.272617E+05  3.246779E+06  2.968420E+05  2.146684E+05
       119   3  4.405774E+06  2.428080E+06  2.982344E+05  3.225277E+06  1.408456E+05  1.001787E+05
       119   4  4.391476E+06  2.753911E+06  8.165386E+05  2.828349E+06  4.487862E+05  3.319636E+05
       119   5  4.066630E+06  2.193596E+06  3.522525E+05  3.128905E+06  2.965845E+05  2.144566E+05
       119   6  4.160100E+06  2.335469E+06  2.315708E+05  3.141627E+06  1.415519E+05  1.007227E+05
       119   7  4.241845E+06  2.479260E+06  7.324607E+05  2.676265E+06  4.475839E+05  3.309533E+05
       119   8  3.869023E+06  2.009970E+06  2.772367E+05  3.011078E+06  2.963272E+05  2.142449E+05
       119   9  3.914493E+06  2.242865E+06  1.649029E+05  3.058003E+06  1.422578E+05  1.012665E+05
       119  10  4.540900E+06  3.028510E+06  9.000312E+05  2.980375E+06 -1.348403E-09 -2.677361E-12
       119  11  4.264172E+06  2.377191E+06  4.270123E+05  3.246728E+06  3.374063E-09  7.612497E-10
       119  12  4.405750E+06  2.428064E+06  2.981789E+05  3.225266E+06  2.310858E-09  4.165701E-10
       119  13  4.391232E+06  2.753740E+06  8.159591E+05  2.828230E+06 -2.793563E-09  1.007081E-10
       119  14  4.066525E+06  2.193524E+06  3.520033E+05  3.128854E+06 -2.692161E-09  7.267739E-11
       119  15  4.160076E+06  2.335452E+06  2.315147E+05  3.141616E+06 -1.748815E-09  4.475183E-10
       119  16  4.241603E+06  2.479090E+06  7.318841E+05  2.676146E+06 -1.943378E-09  5.832342E-10
       119  17  3.868917E+06  2.009897E+06  2.769879E+05  3.011027E+06  4.992790E-10  3.966895E-10
       119  18  3.914469E+06  2.242848E+06  1.648462E+05  3.057991E+06 -2.303137E-09 -3.388555E-10
       119  19  4.541145E+06  3.028682E+06  9.006137E+05  2.980495E+06 -4.499888E+05 -3.329748E+05
       119  20  4.264278E+06  2.377263E+06  4.272617E+05  3.246779E+06 -2.968420E+05 -2.146684E+05
       119  21  4.405774E+06  2.428080E+06  2.982344E+05  3.225277E+06 -1.408456E+05 -1.001787E+05
       119  22  4.391476E+06  2.753911E+06  8.165386E+05  2.828349E+06 -4.487862E+05 -3.319636E+05
       119  23  4.066630E+06  2.193596E+06  3.522525E+05  3.128905E+06 -2.965845E+05 -2.144566E+05
       119  24  4.160100E+06  2.335469E+06  2.315708E+05  3.141627E+06 -1.415519E+05 -1.007227E+05
       119  25  4.241845E+06  2.479260E+06  7.324607E+05  2.676265E+06 -4.475839E+05 -3.309533E+05
       119  26  3.869023E+06  2.009970E+06  2.772367E+05  3.011078E+06 -2.963272E+05 -2.142449E+05
       119  27  3.914493E+06  2.242865E+06  1.649029E+05  3.058003E+06 -1.422578E+05 -1.012665E+05
       120   1  4.287788E+06  2.488655E+06  2.350858E+05  3.129779E+06  1.101128E+05  7.893336E+04
       120   2  4.247004E+06  2.377175E+06  1.366594E+05  3.158813E+06  6.843538E+04  4.811378E+04
       120   3  4.248640E+06  2.390417E+06  1.038316E+05  3.153333E+06  2.654377E+04  1.758623E+04
       120   4  4.175975E+06  2.386412E+06  1.929171E+05  3.063889E+06  1.101057E+05  7.892418E+04
       120   5  4.138736E+06  2.295138E+06  9.917811E+04  3.102864E+06  6.850668E+04  4.816642E+04
       120   6  4.143914E+06  2.328584E+06  7.098197E+04  3.107322E+06  2.669322E+04  1.769831E+04
       120   7  4.064175E+06  2.284181E+06  1.507464E+05  2.998013E+06  1.100986E+05  7.891500E+04
       120   8  4.030481E+06  2.213108E+06  6.169517E+04  3.046926E+06  6.857796E+04  4.821905E+04
       120   9  4.039200E+06  2.266754E+06  3.813104E+04  3.061319E+06  2.684263E+04  1.781037E+04
       120  10  4.287774E+06  2.488645E+06  2.350517E+05  3.129773E+06  1.287329E-09 -9.429726E-10
       120  11  4.246998E+06  2.377171E+06  1.366464E+05  3.158810E+06  1.448151E-09  7.176357E-10
       120  12  4.248639E+06  2.390417E+06  1.038297E+05  3.153332E+06  2.458632E-09 -2.647332E-09
       120  13  4.175960E+06  2.386402E+06  1.928830E+05  3.063882E+06  2.555369E-10  4.714207E-10
       120  14  4.138731E+06  2.295134E+06  9.916507E+04  3.102861E+06 -2.397601E-09  2.065605E-09
       120  15  4.143914E+06  2.328583E+06  7.098007E+04  3.107322E+06 -1.675063E-09 -1.733267E-09
       120  16  4.064160E+06  2.284171E+06  1.507123E+05  2.998006E+06 -1.101740E-09  8.635769E-10
       120  17  4.030476E+06  2.213104E+06  6.168210E+04  3.046923E+06 -1.722919E-09  5.787371E-10
       120  18  4.039199E+06  2.266753E+06  3.812911E+04  3.061319E+06 -2.473284E-09 -2.649409E-09
       120  19  4.287788E+06  2.488655E+06  2.350858E+05  3.129779E+06 -1.101128E+05 -7.893336E+04
       120  20  4.247004E+06  2.377175E+06  1.366594E+05  3.158813E+06 -6.843538E+04 -4.811378E+04
       120  21  4.248640E+06  2.390417E+06  1.038316E+05  3.153333E+06 -2.654377E+04 -1.758623E+04
       120  22  4.175975E+06  2.386412E+06  1.929171E+05  3.063889E+06 -1.101057E+05 -7.892418E+04
       120  23  4.138736E+06  2.295138E+06  9.917811E+04  3.102864E+06 -6.850668E+04 -4.816642E+04
       120  24  4.143914E+06  2.328584E+06  7.098197E+04  3.107322E+06 -2.669322E+04 -1.769831E+04
       120  25  4.064175E+06  2.284181E+06  1.507464E+05  2.998013E+06 -1.100986E+05 -7.891500E+04
       120  26  4.030481E+06  2.213108E+06  6.169517E+04  3.046926E+06 -6.857796E+04 -4.821905E+04
       120  27  4.039200E+06  2.266754E+06  3.813104E+04  3.061319E+06 -2.684263E+04 -1.781037E+04
       121   1  4.199645E+06  2.374756E+06  8.233239E+04  3.125993E+06  1.659506E+04  1.063976E+04
       121   2  4.191878E+06  2.342273E+06  7.082215E+04  3.123736E+06 -6.186596E+03 -5.837144E+03
       121   3  4.190682E+06  2.359269E+06  8.796525E+04  3.113301E+06 -2.891737E+04 -2.238175E+04
       121   4  4.147414E+06  2.332477E+06  6.375053E+04  3.097748E+06  1.668651E+04  1.070795E+04
       121   5  4.144980E+06  2.309274E+06  5.508049E+04  3.100675E+06 -6.109518E+03 -5.779558E+03
       121   6  4.149123E+06  2.335555E+06  7.507817E+04  3.095425E+06 -2.885485E+04 -2.233528E+04
       121   7  4.095186E+06  2.290199E+06  4.516821E+04  3.069505E+06  1.677796E+04  1.077612E+04
       121   8  4.098086E+06  2.276276E+06  3.933853E+04  3.077616E+06 -6.032447E+03 -5.721978E+03
       121   9  4.107566E+06  2.311841E+06  6.219094E+04  3.077549E+06 -2.879233E+04 -2.228881E+04
       121  10  4.199644E+06  2.374756E+06  8.233167E+04  3.125992E+06  1.770167E-09 -1.783175E-09
       121  11  4.191878E+06  2.342273E+06  7.082201E+04  3.123736E+06 -2.624190E-11  6.747691E-10
       121  12  4.190681E+06  2.359268E+06  8.796276E+04  3.113301E+06 -4.901641E-10 -1.604716E-09
       121  13  4.147414E+06  2.332477E+06  6.374980E+04  3.097747E+06  1.632991E-09 -1.659391E-09
       121  14  4.144980E+06  2.309274E+06  5.508036E+04  3.100675E+06 -3.735347E-09  1.999220E-09
       121  15  4.149122E+06  2.335554E+06  7.507570E+04  3.095424E+06  1.161757E-09 -7.760528E-10
       121  16  4.095186E+06  2.290199E+06  4.516747E+04  3.069505E+06  1.445078E-09 -2.152259E-09
       121  17  4.098086E+06  2.276276E+06  3.933841E+04  3.077616E+06  1.545573E-09  6.359002E-10
       121  18  4.107565E+06  2.311840E+06  6.218847E+04  3.077548E+06 -2.006662E-09 -6.296128E-10
       121  19  4.199645E+06  2.374756E+06  8.233239E+04  3.125993E+06 -1.659506E+04 -1.063976E+04
       121  20  4.191878E+06  2.342273E+06  7.082215E+04  3.123736E+06  6.186596E+03  5.837144E+03
       121  21  4.190682E+06  2.359269E+06  8.796525E+04  3.113301E+06  2.891737E+04  2.238175E+04
       121  22  4.147414E+06  2.332477E+06  6.375053E+04  3.097748E+06 -1.668651E+04 -1.070795E+04
       121  23  4.144980E+06  2.309274E+06  5.508049E+04  3.100675E+06  6.109518E+03  5.779558E+03
       121  24  4.149123E+06  2.335555E+06  7.507817E+04  3.095425E+06  2.885485E+04  2.233528E+04
       121  25  4.095186E+06  2.290199E+06  4.516821E+04  3.069505E+06 -1.677796E+04 -1.077612E+04
       121  26  4.098086E+06  2.276276E+06  3.933853E+04  3.077616E+06  6.032447E+03  5.721978E+03
       121  27  4.107566E+06  2.311841E+06  6.219094E+04  3.077549E+06  2.879233E+04  2.228881E+04
       122   1  4.147587E+06  2.341349E+06  9.061470E+04  3.116006E+06 -4.087438E+04 -3.103738E+04
       122   2  4.136306E+06  2.290343E+06  1.311947E+05  3.105297E+06 -9.565741E+04 -7.151825E+04
       122   3  4.206201E+06  2.383370E+06  2.591090E+05  3.040657E+06 -1.503440E+05 -1.121312E+05
       122   4  4.148270E+06  2.325292E+06  8.761626E+04  3.108697E+06 -4.078697E+04 -3.097102E+04
       122   5  4.129909E+06  2.293267E+06  1.305072E+05  3.105583E+06 -9.560104E+04 -7.147721E+04
       122   6  4.192730E+06  2.405281E+06  2.607596E+05  3.048536E+06 -1.503177E+05 -1.121187E+05
       122   7  4.148953E+06  2.309236E+06  8.461787E+04  3.101388E+06 -4.069955E+04 -3.090466E+04
       122   8  4.123512E+06  2.296192E+06  1.298197E+05  3.105868E+06 -9.554468E+04 -7.143617E+04
       122   9  4.179260E+06  2.427194E+06  2.624103E+05  3.056415E+06 -1.502914E+05 -1.121062E+05
       122  10  4.147585E+06  2.341348E+06  9.060980E+04  3.116005E+06 -2.704273E-09 -2.697196E-09
       122  11  4.136294E+06  2.290335E+06  1.311682E+05  3.105292E+06 -3.867228E-09 -2.703668E-09
       122  12  4.206174E+06  2.383350E+06  2.590436E+05  3.040643E+06 -1.557997E-09  8.139351E-10
       122  13  4.148268E+06  2.325291E+06  8.761139E+04  3.108696E+06 -1.934183E-09 -3.347634E-09
       122  14  4.129898E+06  2.293259E+06  1.304807E+05  3.105577E+06 -3.340352E-09 -4.911944E-10
       122  15  4.192703E+06  2.405262E+06  2.606942E+05  3.048522E+06 -2.918949E-09  4.029669E-10
       122  16  4.148951E+06  2.309235E+06  8.461301E+04  3.101387E+06 -1.958465E-09 -1.580286E-09
       122  17  4.123501E+06  2.296184E+06  1.297933E+05  3.105862E+06  2.830278E-10 -8.862853E-10
       122  18  4.179232E+06  2.427174E+06  2.623449E+05  3.056401E+06  7.454721E-10 -3.892377E-10
       122  19  4.147587E+06  2.341349E+06  9.061470E+04  3.116006E+06  4.087438E+04  3.103738E+04
       122  20  4.136306E+06  2.290343E+06  1.311947E+05  3.105297E+06  9.565741E+04  7.151825E+04
       122  21  4.206201E+06  2.383370E+06  2.591090E+05  3.040657E+06  1.503440E+05  1.121312E+05
       122  22  4.148270E+06  2.325292E+06  8.761626E+04  3.108697E+06  4.078697E+04  3.097102E+04
       122  23  4.129909E+06  2.293267E+06  1.305072E+05  3.105583E+06  9.560104E+04  7.147721E+04
       122  24  4.192730E+06  2.405281E+06  2.607596E+05  3.048536E+06  1.503177E+05  1.121187E+05
       122  25  4.148953E+06  2.309236E+06  8.461787E+04  3.101388E+06  4.069955E+04  3.090466E+04
       122  26  4.123512E+06  2.296192E+06  1.298197E+05  3.105868E+06  9.554468E+04  7.143617E+04
       122  27  4.179260E+06  2.427194E+06  2.624103E+05  3.056415E+06  1.502914E+05  1.121062E+05
       123   1  4.078919E+06  2.370593E+06  3.030506E+05  3.155785E+06 -1.922118E+05 -1.429939E+05
       123   2  4.016847E+06  2.097610E+06  4.665358E+05  3.112667E+06 -4.023643E+05 -2.993549E+05
       123   3  4.580133E+06  2.729185E+06  1.098886E+06  2.659830E+06 -6.119029E+05 -4.564842E+05
       123   4  4.177173E+06  2.329296E+06  3.142934E+05  3.153084E+06 -1.920369E+05 -1.428309E+05
       123   5  4.023232E+06  2.162415E+06  4.805380E+05  3.143678E+06 -4.023807E+05 -2.994039E+05
       123   6  4.494601E+06  2.900073E+06  1.115801E+06  2.724578E+06 -6.120626E+05 -4.568182E+05
       123   7  4.275446E+06  2.288009E+06  3.255384E+05  3.150380E+06 -1.918618E+05 -1.426679E+05
       123   8  4.029619E+06  2.227227E+06  4.945406E+05  3.174690E+06 -4.023971E+05 -2.994529E+05
       123   9  4.409111E+06  3.071039E+06  1.132726E+06  2.789318E+06 -6.122222E+05 -4.571524E+05
       123  10  4.078874E+06  2.370562E+06  3.029439E+05  3.155763E+06  2.172376E-09 -9.500991E-10
       123  11  4.016651E+06  2.097472E+06  4.660680E+05  3.112570E+06  2.076242E-09 -1.315164E-09
       123  12  4.579679E+06  2.728864E+06  1.097802E+06  2.659607E+06  2.318801E-09 -3.079891E-10
       123  13  4.177129E+06  2.329265E+06  3.141869E+05  3.153063E+06 -1.483582E-09 -2.921282E-10
       123  14  4.023036E+06  2.162276E+06  4.800701E+05  3.143581E+06 -3.306381E-09 -5.429128E-10
       123  15  4.494147E+06  2.899751E+06  1.114716E+06  2.724355E+06 -2.597558E-09 -6.561143E-10
       123  16  4.275401E+06  2.287978E+06  3.254321E+05  3.150358E+06  7.093963E-10 -2.033355E-10
       123  17  4.029423E+06  2.227089E+06  4.940728E+05  3.174594E+06 -4.876795E-09 -1.737129E-09
       123  18  4.408657E+06  3.070717E+06  1.131640E+06  2.789094E+06 -1.680020E-09 -7.113149E-10
       123  19  4.078919E+06  2.370593E+06  3.030506E+05  3.155785E+06  1.922118E+05  1.429939E+05
       123  20  4.016847E+06  2.097610E+06  4.665358E+05  3.112667E+06  4.023643E+05  2.993549E+05
       123  21  4.580133E+06  2.729185E+06  1.098886E+06  2.659830E+06  6.119029E+05  4.564842E+05
       123  22  4.177173E+06  2.329296E+06  3.142934E+05  3.153084E+06  1.920369E+05  1.428309E+05
       123  23  4.023232E+06  2.162415E+06  4.805380E+05  3.143678E+06  4.023807E+05  2.994039E+05
       123  24  4.494601E+06  2.900073E+06  1.115801E+06  2.724578E+06  6.120626E+05  4.568182E+05
       123  25  4.275446E+06  2.288009E+06  3.255384E+05  3.150380E+06  1.918618E+05  1.426679E+05
       123  26  4.029619E+06  2.227227E+06  4.945406E+05  3.174690E+06  4.023971E+05  2.994529E+05
       123  27  4.409111E+06  3.071039E+06  1.132726E+06  2.789318E+06  6.122222E+05  4.571524E+05
       124   1  4.554819E+06  4.560571E+05  5.425336E+05  9.357416E+04  2.568222E+05 -4.145601E+03
       124   2  4.423349E+06  8.648426E+04  3.110030E+05  5.792622E+02  1.653509E+05 -1.068547E+04
       124   3  4.406428E+06  1.208714E+05  2.400803E+05  2.375258E+04  7.389636E+04 -7.333711E+03
       124   4  3.879366E+06  2.882679E+05  3.751152E+05  4.676266E+04  2.538485E+05 -4.161653E+03
       124   5  3.822515E+06 -6.269369E+04  1.631507E+05 -1.149797E+04  1.648489E+05 -1.068910E+04
       124   6  3.879897E+06 -9.914881E+03  1.102088E+05  4.640918E+04  7.585495E+04 -7.330909E+03
       124   7  3.204328E+06  1.204529E+05  2.076641E+05  1.893416E+00  2.508779E+05 -4.177276E+03
       124   8  3.222007E+06 -2.118978E+05  1.527186E+04 -2.356352E+04  1.643474E+05 -1.069271E+04
       124   9  3.353618E+06 -1.407198E+05 -1.968282E+04  6.904664E+04  7.781186E+04 -7.327963E+03
       124  10  4.554748E+06  4.560395E+05  5.424105E+05  9.357501E+04 -7.231473E-10  1.687173E-10
       124  11  4.423320E+06  8.647686E+04  3.109518E+05  5.806826E+02 -2.623956E-09  6.158249E-10
       124  12  4.406422E+06  1.208699E+05  2.400700E+05  2.375302E+04  2.389119E-09 -2.728257E-10
       124  13  3.879297E+06  2.882507E+05  3.749948E+05  4.676351E+04 -1.268426E-10  1.607211E-10
       124  14  3.822486E+06 -6.270105E+04  1.630997E+05 -1.149655E+04 -5.312996E-09 -2.525454E-10
       124  15  3.879891E+06 -9.916472E+03  1.101980E+05  4.640963E+04  1.804818E-09 -1.108984E-10
       124  16  3.204261E+06  1.204361E+05  2.075464E+05  2.736293E+00  1.985992E-09 -5.074476E-10
       124  17  3.221978E+06 -2.119051E+05  1.522116E+04 -2.356210E+04  3.176158E-11 -8.848464E-10
       124  18  3.353612E+06 -1.407215E+05 -1.969424E+04  6.904710E+04 -5.146240E-09  7.805571E-10
       124  19  4.554819E+06  4.560571E+05  5.425336E+05  9.357416E+04 -2.568222E+05  4.145601E+03
       124  20  4.423349E+06  8.648426E+04  3.110030E+05  5.792622E+02 -1.653509E+05  1.068547E+04
       124  21  4.406428E+06  1.208714E+05  2.400803E+05  2.375258E+04 -7.389636E+04  7.333711E+03
       124  22  3.879366E+06  2.882679E+05  3.751152E+05  4.676266E+04 -2.538485E+05  4.161653E+03
       124  23  3.822515E+06 -6.269369E+04  1.631507E+05 -1.149797E+04 -1.648489E+05  1.068910E+04
       124  24  3.879897E+06 -9.914881E+03  1.102088E+05  4.640918E+04 -7.585495E+04  7.330909E+03
       124  25  3.204328E+06  1.204529E+05  2.076641E+05  1.893416E+00 -2.508779E+05  4.177276E+03
       124  26  3.222007E+06 -2.118978E+05  1.527186E+04 -2.356352E+04 -1.643474E+05  1.069271E+04
       124  27  3.353618E+06 -1.407198E+05 -1.968282E+04  6.904664E+04 -7.781186E+04  7.327963E+03
       125   1  4.133202E+06  1.088682E+05  1.611962E+05  4.774999E+04  5.741609E+04 -4.401302E+03
       125   2  4.065227E+06  4.332811E+04  1.076866E+05 -2.879232E+03  2.890307E+04 -3.446563E+03
       125   3  4.017769E+06  4.497231E+04  8.945739E+04  3.655798E+04  3.904423E+02 -1.505398E+03
       125   4  3.858991E+06  4.074888E+04  9.364000E+04  4.068873E+04  5.751539E+04 -4.402010E+03
       125   5  3.848787E+06 -1.043983E+04  5.435588E+04 -4.337336E+03  2.925092E+04 -3.446433E+03
       125   6  3.859063E+06  5.526650E+03  5.019164E+04  4.070452E+04  9.842283E+02 -1.504780E+03
       125   7  3.584849E+06 -2.737584E+04  2.607832E+04  3.363056E+04  5.761463E+04 -4.402721E+03
       125   8  3.632389E+06 -6.421122E+04  1.021712E+03 -5.794942E+03  2.959865E+04 -3.446304E+03
       125   9  3.700380E+06 -3.392082E+04  1.092404E+04  4.485000E+04  1.577863E+03 -1.504155E+03
       125  10  4.133198E+06  1.088673E+05  1.611900E+05  4.775019E+04  2.366981E-09  4.384051E-11
       125  11  4.065226E+06  4.332787E+04  1.076850E+05 -2.879152E+03  2.699030E-11  1.039877E-09
       125  12  4.017769E+06  4.497231E+04  8.945738E+04  3.655798E+04 -3.054277E-09  7.796418E-10
       125  13  3.858988E+06  4.074798E+04  9.363378E+04  4.068893E+04  1.201049E-09 -1.376107E-10
       125  14  3.848786E+06 -1.044007E+04  5.435426E+04 -4.337255E+03  1.288160E-09  1.885927E-09
       125  15  3.859063E+06  5.526647E+03  5.019164E+04  4.070452E+04 -3.170529E-09 -2.554100E-10
       125  16  3.584845E+06 -2.737674E+04  2.607208E+04  3.363076E+04 -2.505347E-09  5.308946E-10
       125  17  3.632388E+06 -6.421147E+04  1.020053E+03 -5.794860E+03 -1.036708E-09  7.857468E-10
       125  18  3.700380E+06 -3.392082E+04  1.092404E+04  4.485001E+04 -6.587851E-10 -2.310744E-10
       125  19  4.133202E+06  1.088682E+05  1.611962E+05  4.774999E+04 -5.741609E+04  4.401302E+03
       125  20  4.065227E+06  4.332811E+04  1.076866E+05 -2.879232E+03 -2.890307E+04  3.446563E+03
       125  21  4.017769E+06  4.497231E+04  8.945739E+04  3.655798E+04 -3.904423E+02  1.505398E+03
       125  22  3.858991E+06  4.074888E+04  9.364000E+04  4.068873E+04 -5.751539E+04  4.402010E+03
       125  23  3.848787E+06 -1.043983E+04  5.435588E+04 -4.337336E+03 -2.925092E+04  3.446433E+03
       125  24  3.859063E+06  5.526650E+03  5.019164E+04  4.070452E+04 -9.842283E+02  1.504780E+03
       125  25  3.584849E+06 -2.737584E+04  2.607832E+04  3.363056E+04 -5.761463E+04  4.402721E+03
       125  26  3.632389E+06 -6.421122E+04  1.021712E+03 -5.794942E+03 -2.959865E+04  3.446304E+03
       125  27  3.700380E+06 -3.392082E+04  1.092404E+04  4.485000E+04 -1.577863E+03  1.504155E+03
       126   1  3.801320E+06 -1.048047E+04  3.670056E+04  4.472088E+04 -8.736691E+03 -4.364542E+01
       126   2  3.734024E+06 -4.029313E+04  3.252843E+04 -5.196208E+03 -4.009372E+04  1.833282E+03
       126   3  3.689878E+06  6.894686E+03  6.790590E+04  3.172053E+04 -7.144685E+04  2.871875E+03
       126   4  3.859674E+06  4.034560E+03  5.123013E+04  3.999193E+04 -8.175994E+03 -4.295579E+01
       126   5  3.848035E+06 -1.196356E+04  6.062009E+04 -3.441872E+03 -3.974008E+04  1.833483E+03
       126   6  3.859573E+06  4.906640E+04  1.096969E+05  3.995661E+04 -7.130306E+04  2.871013E+03
       126   7  3.918031E+06  1.854942E+04  6.575946E+04  3.526253E+04 -7.615244E+03 -4.227468E+01
       126   8  3.962058E+06  1.636505E+04  8.871079E+04 -1.687219E+03 -3.938638E+04  1.833686E+03
       126   9  4.029294E+06  9.123624E+04  1.514858E+05  4.819493E+04 -7.115923E+04  2.870156E+03
       126  10  3.801319E+06 -1.048049E+04  3.670042E+04  4.472088E+04 -1.811019E-09 -3.025158E-10
       126  11  3.734022E+06 -4.029356E+04  3.252542E+04 -5.196149E+03 -4.178510E-11  2.782435E-10
       126  12  3.689872E+06  6.893316E+03  6.789635E+04  3.172070E+04  2.672205E-10  4.098414E-10
       126  13  3.859674E+06  4.034542E+03  5.123000E+04  3.999193E+04 -1.047989E-10 -3.951814E-10
       126  14  3.848033E+06 -1.196399E+04  6.061713E+04 -3.441814E+03  9.985357E-10 -7.057643E-10
       126  15  3.859567E+06  4.906504E+04  1.096874E+05  3.995678E+04  2.332054E-09 -8.443199E-10
       126  16  3.918031E+06  1.854941E+04  6.575935E+04  3.526253E+04  7.176287E-10 -1.422252E-10
       126  17  3.962056E+06  1.636464E+04  8.870789E+04 -1.687161E+03 -3.817058E-10 -5.753049E-11
       126  18  4.029289E+06  9.123488E+04  1.514763E+05  4.819509E+04 -1.361598E-09  5.970531E-10
       126  19  3.801320E+06 -1.048047E+04  3.670056E+04  4.472088E+04  8.736691E+03  4.364542E+01
       126  20  3.734024E+06 -4.029313E+04  3.252843E+04 -5.196208E+03  4.009372E+04 -1.833282E+03
       126  21  3.689878E+06  6.894686E+03  6.790590E+04  3.172053E+04  7.144685E+04 -2.871875E+03
       126  22  3.859674E+06  4.034560E+03  5.123013E+04  3.999193E+04  8.175994E+03  4.295579E+01
       126  23  3.848035E+06 -1.196356E+04  6.062009E+04 -3.441872E+03  3.974008E+04 -1.833483E+03
       126  24  3.859573E+06  4.906640E+04  1.096969E+05  3.995661E+04  7.130306E+04 -2.871013E+03
       126  25  3.918031E+06  1.854942E+04  6.575946E+04  3.526253E+04  7.615244E+03  4.227468E+01
       126  26  3.962058E+06  1.636505E+04  8.871079E+04 -1.687219E+03  3.938638E+04 -1.833686E+03
       126  27  4.029294E+06  9.123624E+04  1.514858E+05  4.819493E+04  7.115923E+04 -2.870156E+03
       127   1  3.479542E+06 -1.129280E+05  3.016779E+04  7.118643E+04 -9.453689E+04  5.408853E+03
       127   2  3.343869E+06 -1.925433E+05  7.858625E+04 -2.336272E+04 -1.988672E+05  8.395225E+03
       127   3  3.343652E+06  2.116696E+05  3.158942E+05 -1.232123E+04 -3.031812E+05  3.283691E+03
       127   4  3.884700E+06 -1.226090E+04  1.301797E+05  4.411246E+04 -9.287338E+04  5.413800E+03
       127   5  3.816533E+06 -7.510020E+04  1.949684E+05 -8.587873E+03 -1.992299E+05  8.390117E+03
       127   6  3.884051E+06  3.460339E+05  4.499370E+05  4.429632E+04 -3.055817E+05  3.257240E+03
       127   7  4.290007E+06  8.839680E+04  2.301799E+05  1.702087E+04 -9.120878E+04  5.418599E+03
       127   8  4.289399E+06  4.232720E+04  3.113343E+05  6.198183E+03 -1.995928E+05  8.384995E+03
       127   9  4.424720E+06  4.803883E+05  5.839598E+05  1.009630E+05 -3.079841E+05  3.230374E+03
       127  10  3.479532E+06 -1.129304E+05  3.015104E+04  7.118684E+04 -5.981279E-10 -1.137385E-09
       127  11  3.343826E+06 -1.925539E+05  7.851221E+04 -2.336138E+04  9.020767E-10  2.150562E-11
       127  12  3.343554E+06  2.116451E+05  3.157223E+05 -1.232043E+04 -7.654193E-10 -5.035097E-10
       127  13  3.884690E+06 -1.226323E+04  1.301635E+05  4.411286E+04  5.797145E-10  2.071366E-10
       127  14  3.816490E+06 -7.511085E+04  1.948942E+05 -8.586529E+03  4.025654E-10 -8.796033E-11
       127  15  3.883951E+06  3.460090E+05  4.497626E+05  4.429712E+04 -3.283095E-10  2.180425E-10
       127  16  4.289998E+06  8.839455E+04  2.301643E+05  1.702126E+04 -1.298486E-09  1.151413E-10
       127  17  4.289357E+06  4.231652E+04  3.112598E+05  6.199529E+03 -3.235927E-09  4.113420E-10
       127  18  4.424618E+06  4.803631E+05  5.837828E+05  1.009638E+05 -6.335577E-10  2.734206E-10
       127  19  3.479542E+06 -1.129280E+05  3.016779E+04  7.118643E+04  9.453689E+04 -5.408853E+03
       127  20  3.343869E+06 -1.925433E+05  7.858625E+04 -2.336272E+04  1.988672E+05 -8.395225E+03
       127  21  3.343652E+06  2.116696E+05  3.158942E+05 -1.232123E+04  3.031812E+05 -3.283691E+03
       127  22  3.884700E+06 -1.226090E+04  1.301797E+05  4.411246E+04  9.287338E+04 -5.413800E+03
       127  23  3.816533E+06 -7.510020E+04  1.949684E+05 -8.587873E+03  1.992299E+05 -8.390117E+03
       127  24  3.884051E+06  3.460339E+05  4.499370E+05  4.429632E+04  3.055817E+05 -3.257240E+03
       127  25  4.290007E+06  8.839680E+04  2.301799E+05  1.702087E+04  9.120878E+04 -5.418599E+03
       127  26  4.289399E+06  4.232720E+04  3.113343E+05  6.198183E+03  1.995928E+05 -8.384995E+03
       127  27  4.424720E+06  4.803883E+05  5.839598E+05  1.009630E+05  3.079841E+05 -3.230374E+03
       128   1 -1.025403E+06 -3.903732E+06 -1.264422E+06  2.025410E+05 -7.124097E+03 -6.820894E+05
       128   2 -3.453932E+04 -3.622337E+06 -6.612637E+05  6.348265E+03 -1.628046E+04 -4.307456E+05
       128   3 -1.590530E+05 -3.651215E+06 -5.007889E+05  7.787885E+03 -9.851715E+03 -1.794119E+05
       128   4 -7.863832E+05 -2.948222E+06 -1.025528E+06  7.482429E+04 -6.973475E+03 -6.785588E+05
       128   5  1.727822E+05 -2.793136E+06 -4.555606E+05 -2.485324E+04 -1.625568E+04 -4.306106E+05
       128   6  1.795254E+04 -2.947292E+06 -3.254255E+05  7.312648E+04 -9.883203E+03 -1.827250E+05
       128   7 -5.473701E+05 -1.991844E+06 -7.866947E+05 -5.309052E+04 -6.824512E+03 -6.750221E+05
       128   8  3.800558E+05 -1.963305E+06 -2.499083E+05 -5.609712E+04 -1.623095E+04 -4.304751E+05
       128   9  1.949363E+05 -2.242908E+06 -1.500972E+05  1.385391E+05 -9.915365E+03 -1.860418E+05
       128  10 -1.025529E+06 -3.904234E+06 -1.265302E+06  2.025371E+05  5.952097E-10  1.328597E-09
       128  11 -3.458980E+04 -3.622538E+06 -6.616150E+05  6.342606E+03  2.937536E-09  2.726879E-09
       128  12 -1.590618E+05 -3.651250E+06 -5.008499E+05  7.786459E+03  2.357824E-09 -7.358747E-11
       128  13 -7.865076E+05 -2.948718E+06 -1.026398E+06  7.482048E+04 -7.835508E-11  2.769813E-10
       128  14  1.727318E+05 -2.793336E+06 -4.559112E+05 -2.485889E+04 -1.984046E-09 -3.610534E-10
       128  15  1.794341E+04 -2.947328E+06 -3.254887E+05  7.312502E+04 -8.998412E-11 -5.785503E-10
       128  16 -5.474930E+05 -1.992335E+06 -7.875538E+05 -5.309425E+04 -4.615578E-10 -1.368020E-09
       128  17  3.800056E+05 -1.963504E+06 -2.502583E+05 -5.610276E+04 -6.440040E-09 -9.484023E-11
       128  18  1.949268E+05 -2.242945E+06 -1.501627E+05  1.385376E+05  2.626632E-10  5.956473E-10
       128  19 -1.025403E+06 -3.903732E+06 -1.264422E+06  2.025410E+05  7.124097E+03  6.820894E+05
       128  20 -3.453932E+04 -3.622337E+06 -6.612637E+05  6.348265E+03  1.628046E+04  4.307456E+05
       128  21 -1.590530E+05 -3.651215E+06 -5.007889E+05  7.787885E+03  9.851715E+03  1.794119E+05
       128  22 -7.863832E+05 -2.948222E+06 -1.025528E+06  7.482429E+04  6.973475E+03  6.785588E+05
       128  23  1.727822E+05 -2.793136E+06 -4.555606E+05 -2.485324E+04  1.625568E+04  4.306106E+05
       128  24  1.795254E+04 -2.947292E+06 -3.254255E+05  7.312648E+04  9.883203E+03  1.827250E+05
       128  25 -5.473701E+05 -1.991844E+06 -7.866947E+05 -5.309052E+04  6.824512E+03  6.750221E+05
       128  26  3.800558E+05 -1.963305E+06 -2.499083E+05 -5.609712E+04  1.623095E+04  4.304751E+05
       128  27  1.949363E+05 -2.242908E+06 -1.500972E+05  1.385391E+05  9.915365E+03  1.860418E+05
       129   1 -1.504366E+05 -3.067641E+06 -3.298028E+05  1.025626E+05 -4.245218E+03 -1.272138E+05
       129   2  3.607586E+04 -2.885381E+06 -2.092072E+05 -2.993881E+04 -5.897375E+02 -2.194127E+04
       129   3 -5.831875E+04 -2.789572E+06 -2.280791E+05  5.596216E+04  3.172509E+03  8.335450E+04
       129   4 -1.082457E+05 -2.897903E+06 -2.878478E+05  7.859335E+04 -4.243534E+03 -1.279776E+05
       129   5  4.375768E+04 -2.854656E+06 -2.015792E+05 -3.065809E+04 -5.931464E+02 -2.271468E+04
       129   6 -8.513417E+04 -2.897867E+06 -2.547543E+05  7.849744E+04  3.171942E+03  8.254803E+04
       129   7 -6.605467E+04 -2.728138E+06 -2.458946E+05  5.461746E+04 -4.241791E+03 -1.287417E+05
       129   8  5.143943E+04 -2.823929E+06 -1.939512E+05 -3.137742E+04 -5.965533E+02 -2.348812E+04
       129   9 -1.119485E+05 -3.006150E+06 -2.814302E+05  1.010287E+05  3.171315E+03  8.174170E+04
       129  10 -1.504410E+05 -3.067659E+06 -3.298334E+05  1.025622E+05  2.152885E-09 -2.350761E-10
       129  11  3.607573E+04 -2.885382E+06 -2.092081E+05 -2.993882E+04  3.867034E-09  2.528872E-09
       129  12 -5.832064E+04 -2.789579E+06 -2.280922E+05  5.596195E+04 -3.405077E-10  1.162593E-09
       129  13 -1.082501E+05 -2.897921E+06 -2.878788E+05  7.859291E+04 -1.025312E-09  1.144665E-09
       129  14  4.375754E+04 -2.854656E+06 -2.015801E+05 -3.065811E+04 -3.344462E-09  4.028778E-10
       129  15 -8.513602E+04 -2.897874E+06 -2.547672E+05  7.849723E+04 -7.911660E-13 -6.273935E-10
       129  16 -6.605916E+04 -2.728156E+06 -2.459259E+05  5.461702E+04  1.607093E-09  3.249526E-10
       129  17  5.143928E+04 -2.823930E+06 -1.939523E+05 -3.137743E+04  4.657633E-10  1.755681E-09
       129  18 -1.119503E+05 -3.006157E+06 -2.814428E+05  1.010285E+05  3.598002E-09 -4.533616E-10
       129  19 -1.504366E+05 -3.067641E+06 -3.298028E+05  1.025626E+05  4.245218E+03  1.272138E+05
       129  20  3.607586E+04 -2.885381E+06 -2.092072E+05 -2.993881E+04  5.897375E+02  2.194127E+04
       129  21 -5.831875E+04 -2.789572E+06 -2.280791E+05  5.596216E+04 -3.172509E+03 -8.335450E+04
       129  22 -1.082457E+05 -2.897903E+06 -2.878478E+05  7.859335E+04  4.243534E+03  1.279776E+05
       129  23  4.375768E+04 -2.854656E+06 -2.015792E+05 -3.065809E+04  5.931464E+02  2.271468E+04
       129  24 -8.513417E+04 -2.897867E+06 -2.547543E+05  7.849744E+04 -3.171942E+03 -8.254803E+04
       129  25 -6.605467E+04 -2.728138E+06 -2.458946E+05  5.461746E+04  4.241791E+03  1.287417E+05
       129  26  5.143943E+04 -2.823929E+06 -1.939512E+05 -3.137742E+04  5.965533E+02  2.348812E+04
       129  27 -1.119485E+05 -3.006150E+06 -2.814302E+05  1.010287E+05 -3.171315E+03 -8.174170E+04
       130   1  1.712574E+05 -2.287829E+06 -1.185786E+05  1.273925E+05  8.768225E+03  1.334502E+05
       130   2  3.329801E+05 -2.035623E+06 -1.816611E+05 -5.020633E+04  1.504205E+04  3.329889E+05
       130   3 -4.046140E+05 -2.032973E+06 -5.993350E+05 -2.729256E+04  6.408506E+03  5.326277E+05
       130   4  8.879810E+03 -2.934254E+06 -2.794991E+05  7.386207E+04  8.743980E+03  1.302580E+05
       130   5  1.396825E+05 -2.809369E+06 -3.734153E+05 -2.565227E+04  1.505784E+04  3.331305E+05
       130   6 -6.300489E+05 -2.935002E+06 -8.245874E+05  7.536325E+04  6.506690E+03  5.360610E+05
       130   7 -1.535189E+05 -3.580292E+06 -4.404497E+05  2.038720E+04  8.720271E+03  1.270691E+05
       130   8 -5.365773E+04 -3.582568E+06 -5.652139E+05 -1.129365E+03  1.507366E+04  3.332718E+05
       130   9 -8.555051E+05 -3.836266E+06 -1.049895E+06  1.778690E+05  6.606133E+03  5.394889E+05
       130  10  1.712525E+05 -2.287848E+06 -1.186123E+05  1.273915E+05 -9.190179E-10 -1.921615E-10
       130  11  3.329500E+05 -2.035742E+06 -1.818707E+05 -5.021037E+04 -7.456060E-11  1.645934E-09
       130  12 -4.046905E+05 -2.033278E+06 -5.998700E+05 -2.729532E+04 -9.212037E-10  6.238485E-10
       130  13  8.875145E+03 -2.934272E+06 -2.795313E+05  7.386115E+04  1.693784E-09  1.405731E-09
       130  14  1.396523E+05 -2.809489E+06 -3.736253E+05 -2.565632E+04  5.623633E-10 -2.633905E-10
       130  15 -6.301265E+05 -2.935311E+06 -8.251300E+05  7.536044E+04 -3.605972E-09 -9.550407E-10
       130  16 -1.535233E+05 -3.580309E+06 -4.404803E+05  2.038630E+04  2.828451E-09  7.524475E-11
       130  17 -5.368802E+04 -3.582688E+06 -5.654243E+05 -1.133419E+03 -1.658878E-09  9.486118E-10
       130  18 -8.555838E+05 -3.836581E+06 -1.050446E+06  1.778661E+05 -4.208436E-10  1.793539E-10
       130  19  1.712574E+05 -2.287829E+06 -1.185786E+05  1.273925E+05 -8.768225E+03 -1.334502E+05
       130  20  3.329801E+05 -2.035623E+06 -1.816611E+05 -5.020633E+04 -1.504205E+04 -3.329889E+05
       130  21 -4.046140E+05 -2.032973E+06 -5.993350E+05 -2.729256E+04 -6.408506E+03 -5.326277E+05
       130  22  8.879810E+03 -2.934254E+06 -2.794991E+05  7.386207E+04 -8.743980E+03 -1.302580E+05
       130  23  1.396825E+05 -2.809369E+06 -3.734153E+05 -2.565227E+04 -1.505784E+04 -3.331305E+05
       130  24 -6.300489E+05 -2.935002E+06 -8.245874E+05  7.536325E+04 -6.506690E+03 -5.360610E+05
       130  25 -1.535189E+05 -3.580292E+06 -4.404497E+05  2.038720E+04 -8.720271E+03 -1.270691E+05
       130  26 -5.365773E+04 -3.582568E+06 -5.652139E+05 -1.129365E+03 -1.507366E+04 -3.332718E+05
       130  27 -8.555051E+05 -3.836266E+06 -1.049895E+06  1.778690E+05 -6.606133E+03 -5.394889E+05
       131   1  3.472244E+06  2.280073E+06  6.528166E+05  2.302020E+06  3.637091E+05  2.723063E+05
       131   2  3.245367E+06  1.793211E+06  2.759662E+05  2.539360E+06  2.382363E+05  1.790528E+05
       131   3  3.410999E+06  1.826648E+06  1.789534E+05  2.526602E+06  1.131795E+05  8.522558E+04
       131   4  3.589752E+06  2.225395E+06  6.652807E+05  2.296343E+06  3.639295E+05  2.723948E+05
       131   5  3.298705E+06  1.795073E+06  2.868373E+05  2.549101E+06  2.382740E+05  1.790679E+05
       131   6  3.400177E+06  1.885041E+06  1.883442E+05  2.551767E+06  1.130547E+05  8.514371E+04
       131   7  3.707287E+06  2.170733E+06  6.777484E+05  2.290660E+06  3.641500E+05  2.724832E+05
       131   8  3.352047E+06  1.796936E+06  2.977086E+05  2.558842E+06  2.383118E+05  1.790831E+05
       131   9  3.389357E+06  1.943441E+06  1.977357E+05  2.576932E+06  1.129300E+05  8.506182E+04
       131  10  3.472083E+06  2.279959E+06  6.524319E+05  2.301941E+06 -1.111443E-09 -8.547314E-10
       131  11  3.245298E+06  1.793162E+06  2.758007E+05  2.539326E+06 -5.547641E-09 -3.042731E-09
       131  12  3.410984E+06  1.826637E+06  1.789160E+05  2.526595E+06  1.906518E-10 -1.302614E-09
       131  13  3.589591E+06  2.225280E+06  6.648956E+05  2.296264E+06 -1.003458E-09 -5.646929E-10
       131  14  3.298636E+06  1.795024E+06  2.866718E+05  2.549067E+06  4.434946E-10 -2.186384E-09
       131  15  3.400161E+06  1.885029E+06  1.883069E+05  2.551760E+06 -2.732364E-09 -1.657209E-10
       131  16  3.707126E+06  2.170618E+06  6.773630E+05  2.290581E+06 -2.397701E-10 -6.585713E-10
       131  17  3.351978E+06  1.796887E+06  2.975430E+05  2.558808E+06  5.562381E-11 -1.407462E-09
       131  18  3.389341E+06  1.943429E+06  1.976985E+05  2.576924E+06 -2.229623E-09 -1.672790E-09
       131  19  3.472244E+06  2.280073E+06  6.528166E+05  2.302020E+06 -3.637091E+05 -2.723063E+05
       131  20  3.245367E+06  1.793211E+06  2.759662E+05  2.539360E+06 -2.382363E+05 -1.790528E+05
       131  21  3.410999E+06  1.826648E+06  1.789534E+05  2.526602E+06 -1.131795E+05 -8.522558E+04
       131  22  3.589752E+06  2.225395E+06  6.652807E+05  2.296343E+06 -3.639295E+05 -2.723948E+05
       131  23  3.298705E+06  1.795073E+06  2.868373E+05  2.549101E+06 -2.382740E+05 -1.790679E+05
       131  24  3.400177E+06  1.885041E+06  1.883442E+05  2.551767E+06 -1.130547E+05 -8.514371E+04
       131  25  3.707287E+06  2.170733E+06  6.777484E+05  2.290660E+06 -3.641500E+05 -2.724832E+05
       131  26  3.352047E+06  1.796936E+06  2.977086E+05  2.558842E+06 -2.383118E+05 -1.790831E+05
       131  27  3.389357E+06  1.943441E+06  1.977357E+05  2.576932E+06 -1.129300E+05 -8.506182E+04
       132   1  3.384223E+06  1.932829E+06  1.523035E+05  2.486486E+06  8.831708E+04  6.637750E+04
       132   2  3.350659E+06  1.867293E+06  7.678876E+04  2.521819E+06  5.488315E+04  4.129207E+04
       132   3  3.381351E+06  1.873328E+06  5.442078E+04  2.520203E+06  2.149815E+04  1.614117E+04
       132   4  3.408591E+06  1.931242E+06  1.567931E+05  2.489808E+06  8.831266E+04  6.637167E+04
       132   5  3.363324E+06  1.871835E+06  8.018067E+04  2.526024E+06  5.486081E+04  4.127501E+04
       132   6  3.382315E+06  1.884001E+06  5.672830E+04  2.525291E+06  2.145878E+04  1.611208E+04
       132   7  3.432960E+06  1.929655E+06  1.612828E+05  2.493131E+06  8.830825E+04  6.636584E+04
       132   8  3.375990E+06  1.876376E+06  8.357256E+04  2.530229E+06  5.483847E+04  4.125794E+04
       132   9  3.383280E+06  1.894674E+06  5.903585E+04  2.530379E+06  2.141941E+04  1.608299E+04
       132  10  3.384213E+06  1.932822E+06  1.522807E+05  2.486481E+06  2.420504E-09  9.010073E-10
       132  11  3.350655E+06  1.867290E+06  7.677997E+04  2.521817E+06  1.204818E-09  1.122941E-09
       132  12  3.381350E+06  1.873327E+06  5.441943E+04  2.520203E+06 -9.640422E-10 -1.231204E-10
       132  13  3.408581E+06  1.931235E+06  1.567704E+05  2.489803E+06 -1.059064E-09  1.543323E-09
       132  14  3.363321E+06  1.871832E+06  8.017188E+04  2.526023E+06 -1.670010E-09  1.386228E-09
       132  15  3.382315E+06  1.884001E+06  5.672696E+04  2.525291E+06  7.913740E-10  1.119065E-09
       132  16  3.432950E+06  1.929648E+06  1.612600E+05  2.493126E+06 -5.890887E-10 -2.009104E-09
       132  17  3.375986E+06  1.876374E+06  8.356378E+04  2.530228E+06  3.010699E-09  3.257057E-10
       132  18  3.383280E+06  1.894674E+06  5.903451E+04  2.530379E+06  4.407816E-09  1.008028E-09
       132  19  3.384223E+06  1.932829E+06  1.523035E+05  2.486486E+06 -8.831708E+04 -6.637750E+04
       132  20  3.350659E+06  1.867293E+06  7.678876E+04  2.521819E+06 -5.488315E+04 -4.129207E+04
       132  21  3.381351E+06  1.873328E+06  5.442078E+04  2.520203E+06 -2.149815E+04 -1.614117E+04
       132  22  3.408591E+06  1.931242E+06  1.567931E+05  2.489808E+06 -8.831266E+04 -6.637167E+04
       132  23  3.363324E+06  1.871835E+06  8.018067E+04  2.526024E+06 -5.486081E+04 -4.127501E+04
       132  24  3.382315E+06  1.884001E+06  5.672830E+04  2.525291E+06 -2.145878E+04 -1.611208E+04
       132  25  3.432960E+06  1.929655E+06  1.612828E+05  2.493131E+06 -8.830825E+04 -6.636584E+04
       132  26  3.375990E+06  1.876376E+06  8.357256E+04  2.530229E+06 -5.483847E+04 -4.125794E+04
       132  27  3.383280E+06  1.894674E+06  5.903585E+04  2.530379E+06 -2.141941E+04 -1.608299E+04
       133   1  3.386385E+06  1.895679E+06  5.245191E+04  2.521413E+06  1.377462E+04  1.024190E+04
       133   2  3.379953E+06  1.887236E+06  4.556038E+04  2.527781E+06 -3.552281E+03 -2.885103E+03
       133   3  3.398776E+06  1.896953E+06  6.085828E+04  2.521847E+06 -2.087297E+04 -1.602027E+04
       133   4  3.383205E+06  1.889275E+06  5.055017E+04  2.517928E+06  1.374773E+04  1.022172E+04
       133   5  3.371049E+06  1.881044E+06  4.258281E+04  2.523440E+06 -3.580988E+03 -2.906556E+03
       133   6  3.384148E+06  1.890974E+06  5.680671E+04  2.516649E+06 -2.090329E+04 -1.604307E+04
       133   7  3.380025E+06  1.882871E+06  4.864843E+04  2.514443E+06  1.372085E+04  1.020154E+04
       133   8  3.362144E+06  1.874852E+06  3.960524E+04  2.519098E+06 -3.609694E+03 -2.928008E+03
       133   9  3.369520E+06  1.884994E+06  5.275511E+04  2.511452E+06 -2.093361E+04 -1.606586E+04
       133  10  3.386385E+06  1.895679E+06  5.245136E+04  2.521413E+06  1.290136E-09  8.389902E-10
       133  11  3.379953E+06  1.887236E+06  4.556034E+04  2.527781E+06  1.329008E-09  5.412418E-10
       133  12  3.398776E+06  1.896953E+06  6.085699E+04  2.521847E+06 -4.214451E-09 -9.438792E-10
       133  13  3.383205E+06  1.889275E+06  5.054962E+04  2.517928E+06  3.760649E-09 -4.485751E-13
       133  14  3.371049E+06  1.881044E+06  4.258277E+04  2.523440E+06 -1.268973E-09  4.455095E-10
       133  15  3.384148E+06  1.890973E+06  5.680541E+04  2.516649E+06  3.702670E-09 -1.882784E-09
       133  16  3.380024E+06  1.882871E+06  4.864789E+04  2.514443E+06  2.358260E-09  1.214231E-09
       133  17  3.362144E+06  1.874852E+06  3.960520E+04  2.519098E+06  4.524964E-10  4.153146E-10
       133  18  3.369520E+06  1.884994E+06  5.275381E+04  2.511452E+06  1.690923E-09 -5.638640E-10
       133  19  3.386385E+06  1.895679E+06  5.245191E+04  2.521413E+06 -1.377462E+04 -1.024190E+04
       133  20  3.379953E+06  1.887236E+06  4.556038E+04  2.527781E+06  3.552281E+03  2.885103E+03
       133  21  3.398776E+06  1.896953E+06  6.085828E+04  2.521847E+06  2.087297E+04  1.602027E+04
       133  22  3.383205E+06  1.889275E+06  5.055017E+04  2.517928E+06 -1.374773E+04 -1.022172E+04
       133  23  3.371049E+06  1.881044E+06  4.258281E+04  2.523440E+06  3.580988E+03  2.906556E+03
       133  24  3.384148E+06  1.890974E+06  5.680671E+04  2.516649E+06  2.090329E+04  1.604307E+04
       133  25  3.380025E+06  1.882871E+06  4.864843E+04  2.514443E+06 -1.372085E+04 -1.020154E+04
       133  26  3.362144E+06  1.874852E+06  3.960524E+04  2.519098E+06  3.609694E+03  2.928008E+03
       133  27  3.369520E+06  1.884994E+06  5.275511E+04  2.511452E+06  2.093361E+04  1.606586E+04
       134   1  3.402592E+06  1.909295E+06  7.480221E+04  2.541546E+06 -2.966774E+04 -2.275279E+04
       134   2  3.393899E+06  1.887710E+06  1.078124E+05  2.541234E+06 -7.033548E+04 -5.339576E+04
       134   3  3.465312E+06  1.954039E+06  2.060778E+05  2.494953E+06 -1.110772E+05 -8.394263E+04
       134   4  3.383488E+06  1.883434E+06  6.592111E+04  2.526427E+06 -2.971725E+04 -2.278924E+04
       134   5  3.359992E+06  1.869231E+06  9.748380E+04  2.527058E+06 -7.035894E+04 -5.341389E+04
       134   6  3.416601E+06  1.942941E+06  1.942831E+05  2.481719E+06 -1.110731E+05 -8.394352E+04
       134   7  3.364384E+06  1.857574E+06  5.703993E+04  2.511308E+06 -2.976677E+04 -2.282568E+04
       134   8  3.326087E+06  1.850753E+06  8.715512E+04  2.512882E+06 -7.038241E+04 -5.343203E+04
       134   9  3.367893E+06  1.931843E+06  1.824884E+05  2.468485E+06 -1.110690E+05 -8.394440E+04
       134  10  3.402591E+06  1.909295E+06  7.479961E+04  2.541546E+06 -6.236085E-09 -1.348305E-09
       134  11  3.393893E+06  1.887706E+06  1.077978E+05  2.541231E+06  2.551323E-10 -1.046423E-09
       134  12  3.465297E+06  1.954028E+06  2.060417E+05  2.494946E+06  2.820980E-09  1.161320E-09
       134  13  3.383487E+06  1.883433E+06  6.591850E+04  2.526426E+06 -1.124252E-09 -1.470251E-09
       134  14  3.359986E+06  1.869227E+06  9.746926E+04  2.527055E+06  4.220967E-10 -5.480358E-10
       134  15  3.416586E+06  1.942930E+06  1.942470E+05  2.481711E+06  1.891690E-09 -6.107974E-10
       134  16  3.364383E+06  1.857573E+06  5.703730E+04  2.511307E+06  3.334063E-10 -6.236160E-11
       134  17  3.326081E+06  1.850748E+06  8.714056E+04  2.512879E+06  5.808735E-10 -9.784778E-10
       134  18  3.367878E+06  1.931832E+06  1.824523E+05  2.468478E+06  1.011413E-09 -1.368897E-09
       134  19  3.402592E+06  1.909295E+06  7.480221E+04  2.541546E+06  2.966774E+04  2.275279E+04
       134  20  3.393899E+06  1.887710E+06  1.078124E+05  2.541234E+06  7.033548E+04  5.339576E+04
       134  21  3.465312E+06  1.954039E+06  2.060778E+05  2.494953E+06  1.110772E+05  8.394263E+04
       134  22  3.383488E+06  1.883434E+06  6.592111E+04  2.526427E+06  2.971725E+04  2.278924E+04
       134  23  3.359992E+06  1.869231E+06  9.748380E+04  2.527058E+06  7.035894E+04  5.341389E+04
       134  24  3.416601E+06  1.942941E+06  1.942831E+05  2.481719E+06  1.110731E+05  8.394352E+04
       134  25  3.364384E+06  1.857574E+06  5.703993E+04  2.511308E+06  2.976677E+04  2.282568E+04
       134  26  3.326087E+06  1.850753E+06  8.715512E+04  2.512882E+06  7.038241E+04  5.343203E+04
       134  27  3.367893E+06  1.931843E+06  1.824884E+05  2.468485E+06  1.110690E+05  8.394440E+04
       135   1  3.414369E+06  1.972783E+06  2.529807E+05  2.600991E+06 -1.415102E+05 -1.071869E+05
       135   2  3.367818E+06  1.792243E+06  3.788978E+05  2.579430E+06 -2.978681E+05 -2.245888E+05
       135   3  3.814182E+06  2.258393E+06  8.543958E+05  2.244830E+06 -4.550467E+05 -3.408804E+05
       135   4  3.406558E+06  1.884749E+06  2.340711E+05  2.559056E+06 -1.417204E+05 -1.073263E+05
       135   5  3.278580E+06  1.773855E+06  3.577021E+05  2.556072E+06 -2.977831E+05 -2.245456E+05
       135   6  3.643474E+06  2.309643E+06  8.307083E+05  2.240042E+06 -4.546350E+05 -3.406917E+05
       135   7  3.398752E+06  1.796731E+06  2.151624E+05  2.517124E+06 -1.419307E+05 -1.074656E+05
       135   8  3.189352E+06  1.755468E+06  3.365062E+05  2.532715E+06 -2.976980E+05 -2.245024E+05
       135   9  3.472816E+06  2.360916E+06  8.070259E+05  2.235246E+06 -4.542235E+05 -3.405030E+05
       135  10  3.414345E+06  1.972766E+06  2.529220E+05  2.600979E+06  5.787135E-10  2.006675E-10
       135  11  3.367710E+06  1.792166E+06  3.786386E+05  2.579377E+06 -5.341442E-10 -1.157532E-09
       135  12  3.813930E+06  2.258214E+06  8.537935E+05  2.244706E+06  1.402722E-09 -1.295498E-10
       135  13  3.406534E+06  1.884732E+06  2.340122E+05  2.559044E+06 -1.343809E-09 -2.943077E-10
       135  14  3.278472E+06  1.773778E+06  3.574429E+05  2.556018E+06 -2.387194E-10  6.227492E-10
       135  15  3.643222E+06  2.309465E+06  8.301069E+05  2.239918E+06 -7.588927E-10 -6.358717E-11
       135  16  3.398727E+06  1.796713E+06  2.151033E+05  2.517112E+06 -1.278850E-09 -8.107062E-10
       135  17  3.189244E+06  1.755391E+06  3.362471E+05  2.532662E+06 -2.068400E-09 -7.034722E-10
       135  18  3.472565E+06  2.360738E+06  8.064254E+05  2.235122E+06 -7.594454E-10 -2.340399E-10
       135  19  3.414369E+06  1.972783E+06  2.529807E+05  2.600991E+06  1.415102E+05  1.071869E+05
       135  20  3.367818E+06  1.792243E+06  3.788978E+05  2.579430E+06  2.978681E+05  2.245888E+05
       135  21  3.814182E+06  2.258393E+06  8.543958E+05  2.244830E+06  4.550467E+05  3.408804E+05
       135  22  3.406558E+06  1.884749E+06  2.340711E+05  2.559056E+06  1.417204E+05  1.073263E+05
       135  23  3.278580E+06  1.773855E+06  3.577021E+05  2.556072E+06  2.977831E+05  2.245456E+05
       135  24  3.643474E+06  2.309643E+06  8.307083E+05  2.240042E+06  4.546350E+05  3.406917E+05
       135  25  3.398752E+06  1.796731E+06  2.151624E+05  2.517124E+06  1.419307E+05  1.074656E+05
       135  26  3.189352E+06  1.755468E+06  3.365062E+05  2.532715E+06  2.976980E+05  2.245024E+05
       135  27  3.472816E+06  2.360916E+06  8.070259E+05  2.235246E+06  4.542235E+05  3.405030E+05
       136   1  3.854409E+06  3.771419E+05  4.610895E+05  7.292139E+04  2.482285E+05 -2.369383E+03
       136   2  3.757242E+06  2.573956E+04  2.441286E+05  5.731305E+03  1.604473E+05 -6.181112E+03
       136   3  3.769911E+06  6.631600E+04  1.821931E+05  4.866131E+03  7.267021E+04 -4.257377E+03
       136   4  3.463516E+06  2.799659E+05  3.641390E+05  2.707978E+04  2.465082E+05 -2.386669E+03
       136   5  3.408927E+06 -6.079715E+04  1.583627E+05 -6.168971E+03  1.601564E+05 -6.184335E+03
       136   6  3.463990E+06 -9.713203E+03  1.066923E+05  2.690508E+04  7.380271E+04 -4.254675E+03
       136   7  3.072765E+06  1.827864E+05  2.671783E+05 -1.873311E+04  2.447889E+05 -2.403711E+03
       136   8  3.060721E+06 -1.473423E+05  7.258799E+04 -1.806259E+04  1.598657E+05 -6.187549E+03
       136   9  3.158156E+06 -8.574753E+04  3.118484E+04  4.893321E+04  7.493464E+04 -4.251892E+03
       136  10  3.854344E+06  3.771255E+05  4.609744E+05  7.292187E+04 -1.902254E-09 -9.366922E-12
       136  11  3.757215E+06  2.573266E+04  2.440804E+05  5.732103E+03 -5.382892E-09  7.528923E-10
       136  12  3.769905E+06  6.631458E+04  1.821832E+05  4.866380E+03 -5.329193E-11  5.585478E-11
       136  13  3.463451E+06  2.799497E+05  3.640255E+05  2.708025E+04 -1.085181E-09  1.177379E-10
       136  14  3.408899E+06 -6.080403E+04  1.583147E+05 -6.168174E+03 -2.315689E-09  2.623674E-10
       136  15  3.463985E+06 -9.714675E+03  1.066821E+05  2.690533E+04  7.422854E-12  5.742398E-11
       136  16  3.072701E+06  1.827704E+05  2.670663E+05 -1.873264E+04 -2.406788E-10  7.150744E-11
       136  17  3.060694E+06 -1.473492E+05  7.254013E+04 -1.806180E+04  1.939261E-09 -3.086730E-11
       136  18  3.158150E+06 -8.574905E+04  3.117431E+04  4.893346E+04 -1.320321E-09  4.441258E-10
       136  19  3.854409E+06  3.771419E+05  4.610895E+05  7.292139E+04 -2.482285E+05  2.369383E+03
       136  20  3.757242E+06  2.573956E+04  2.441286E+05  5.731305E+03 -1.604473E+05  6.181112E+03
       136  21  3.769911E+06  6.631600E+04  1.821931E+05  4.866131E+03 -7.267021E+04  4.257377E+03
       136  22  3.463516E+06  2.799659E+05  3.641390E+05  2.707978E+04 -2.465082E+05  2.386669E+03
       136  23  3.408927E+06 -6.079715E+04  1.583627E+05 -6.168971E+03 -1.601564E+05  6.184335E+03
       136  24  3.463990E+06 -9.713203E+03  1.066923E+05  2.690508E+04 -7.380271E+04  4.254675E+03
       136  25  3.072765E+06  1.827864E+05  2.671783E+05 -1.873311E+04 -2.447889E+05  2.403711E+03
       136  26  3.060721E+06 -1.473423E+05  7.258799E+04 -1.806259E+04 -1.598657E+05  6.187549E+03
       136  27  3.158156E+06 -8.574753E+04  3.118484E+04  4.893321E+04 -7.493464E+04  4.251892E+03
       137   1  3.603649E+06  7.933038E+04  1.299768E+05  3.070926E+04  5.601191E+04 -2.561548E+03
       137   2  3.559990E+06  2.121852E+04  8.327398E+04 -1.095654E+03  2.870248E+04 -2.004798E+03
       137   3  3.536057E+06  2.792776E+04  7.048294E+04  1.987192E+04  1.393971E+03 -8.646592E+02
       137   4  3.443902E+06  3.962395E+04  9.059966E+04  2.392841E+04  5.606956E+04 -2.562171E+03
       137   5  3.434083E+06 -1.007527E+04  5.223493E+04 -2.451990E+03  2.890667E+04 -2.004775E+03
       137   6  3.443970E+06  5.028828E+03  4.768682E+04  2.394046E+04  1.743241E+03 -8.644101E+02
       137   7  3.284179E+06 -8.419368E+01  5.122067E+04  1.714929E+04  5.612719E+04 -2.562795E+03
       137   8  3.308191E+06 -4.137024E+04  2.119471E+04 -3.808054E+03  2.911083E+04 -2.004753E+03
       137   9  3.351890E+06 -1.787067E+04  2.489009E+04  2.800838E+04  2.092460E+03 -8.641564E+02
       137  10  3.603646E+06  7.932954E+04  1.299709E+05  3.070938E+04  7.047237E-10  8.681040E-10
       137  11  3.559989E+06  2.121830E+04  8.327243E+04 -1.095607E+03  2.618827E-09 -2.576178E-10
       137  12  3.536057E+06  2.792776E+04  7.048293E+04  1.987193E+04  1.509998E-09 -2.468628E-10
       137  13  3.443899E+06  3.962311E+04  9.059377E+04  2.392853E+04  2.638092E-09 -2.419927E-10
       137  14  3.434082E+06 -1.007550E+04  5.223336E+04 -2.451943E+03 -5.277874E-10  7.959280E-11
       137  15  3.443970E+06  5.028827E+03  4.768682E+04  2.394046E+04  2.230320E-09 -7.150449E-11
       137  16  3.284175E+06 -8.504103E+01  5.121477E+04  1.714941E+04 -2.363610E-10 -1.976927E-10
       137  17  3.308190E+06 -4.137047E+04  2.119312E+04 -3.808007E+03 -2.270705E-09 -1.510668E-09
       137  18  3.351890E+06 -1.787068E+04  2.489008E+04  2.800839E+04  1.593975E-09  9.148065E-10
       137  19  3.603649E+06  7.933038E+04  1.299768E+05  3.070926E+04 -5.601191E+04  2.561548E+03
       137  20  3.559990E+06  2.121852E+04  8.327398E+04 -1.095654E+03 -2.870248E+04  2.004798E+03
       137  21  3.536057E+06  2.792776E+04  7.048294E+04  1.987192E+04 -1.393971E+03  8.646592E+02
       137  22  3.443902E+06  3.962395E+04  9.059966E+04  2.392841E+04 -5.606956E+04  2.562171E+03
       137  23  3.434083E+06 -1.007527E+04  5.223493E+04 -2.451990E+03 -2.890667E+04  2.004775E+03
       137  24  3.443970E+06  5.028828E+03  4.768682E+04  2.394046E+04 -1.743241E+03  8.644101E+02
       137  25  3.284179E+06 -8.419368E+01  5.122067E+04  1.714929E+04 -5.612719E+04  2.562795E+03
       137  26  3.308191E+06 -4.137024E+04  2.119471E+04 -3.808054E+03 -2.911083E+04  2.004753E+03
       137  27  3.351890E+06 -1.787067E+04  2.489009E+04  2.800838E+04 -2.092460E+03  8.641564E+02
       138   1  3.408595E+06 -4.953788E+03  3.951989E+04  2.804467E+04 -7.264260E+03 -3.120961E+00
       138   2  3.364908E+06 -2.823326E+04  3.983964E+04 -3.587748E+03 -3.668376E+04  1.102439E+03
       138   3  3.342932E+06  2.039199E+04  7.720415E+04  1.593701E+04 -6.610101E+04  1.710506E+03
       138   4  3.444424E+06  3.961459E+03  4.844125E+04  2.358455E+04 -6.933374E+03 -2.827383E+00
       138   5  3.433518E+06 -1.117768E+04  5.675211E+04 -2.004764E+03 -3.647559E+04  1.102470E+03
       138   6  3.444339E+06  4.560430E+04  1.021891E+05  2.356236E+04 -6.601709E+04  1.709732E+03
       138   7  3.480254E+06  1.287669E+04  5.736252E+04  1.912417E+04 -6.602470E+03 -2.538543E+00
       138   8  3.502132E+06  5.877554E+03  7.366424E+04 -4.216051E+02 -3.626740E+04  1.102502E+03
       138   9  3.545755E+06  7.081607E+04  1.271734E+05  3.118896E+04 -6.593316E+04  1.708960E+03
       138  10  3.408595E+06 -4.953802E+03  3.951979E+04  2.804467E+04 -8.995048E-10 -2.687523E-10
       138  11  3.364907E+06 -2.823362E+04  3.983712E+04 -3.587716E+03  1.106774E-09  5.251452E-10
       138  12  3.342927E+06  2.039082E+04  7.719597E+04  1.593710E+04  9.362821E-10  1.406053E-10
       138  13  3.444424E+06  3.961446E+03  4.844116E+04  2.358455E+04  9.867900E-10 -1.978947E-10
       138  14  3.433517E+06 -1.117804E+04  5.674962E+04 -2.004731E+03 -2.395281E-09 -6.343343E-10
       138  15  3.444334E+06  4.560314E+04  1.021810E+05  2.356246E+04  4.386968E-10  1.915565E-10
       138  16  3.480254E+06  1.287667E+04  5.736244E+04  1.912417E+04  2.456531E-09  1.176315E-10
       138  17  3.502131E+06  5.877202E+03  7.366178E+04 -4.215730E+02  1.676816E-10 -5.973527E-10
       138  18  3.545751E+06  7.081491E+04  1.271653E+05  3.118905E+04 -8.334468E-10  3.487807E-10
       138  19  3.408595E+06 -4.953788E+03  3.951989E+04  2.804467E+04  7.264260E+03  3.120961E+00
       138  20  3.364908E+06 -2.823326E+04  3.983964E+04 -3.587748E+03  3.668376E+04 -1.102439E+03
       138  21  3.342932E+06  2.039199E+04  7.720415E+04  1.593701E+04  6.610101E+04 -1.710506E+03
       138  22  3.444424E+06  3.961459E+03  4.844125E+04  2.358455E+04  6.933374E+03  2.827383E+00
       138  23  3.433518E+06 -1.117768E+04  5.675211E+04 -2.004764E+03  3.647559E+04 -1.102470E+03
       138  24  3.444339E+06  4.560430E+04  1.021891E+05  2.356236E+04  6.601709E+04 -1.709732E+03
       138  25  3.480254E+06  1.287669E+04  5.736252E+04  1.912417E+04  6.602470E+03  2.538543E+00
       138  26  3.502132E+06  5.877554E+03  7.366424E+04 -4.216051E+02  3.626740E+04 -1.102502E+03
       138  27  3.545755E+06  7.081607E+04  1.271734E+05  3.118896E+04  6.593316E+04 -1.708960E+03
       139   1  3.228320E+06 -7.086163E+04  6.205614E+04  5.102730E+04 -8.706216E+04  3.193619E+03
       139   2  3.126265E+06 -1.389281E+05  1.127775E+05 -1.846700E+04 -1.847527E+05  4.930359E+03
       139   3  3.149544E+06  2.426837E+05  3.393997E+05 -2.692019E+04 -2.824352E+05  1.912355E+03
       139   4  3.467520E+06 -1.141094E+04  1.211221E+05  2.576273E+04 -8.608682E+04  3.197506E+03
       139   5  3.404510E+06 -6.976688E+04  1.813129E+05 -4.719283E+03 -1.849649E+05  4.926138E+03
       139   6  3.466973E+06  3.216466E+05  4.181652E+05  2.583970E+04 -2.838412E+05  1.888743E+03
       139   7  3.706773E+06  4.803789E+04  1.801843E+05  4.884532E+02 -8.511110E+04  3.201312E+03
       139   8  3.682826E+06 -6.106629E+02  2.498426E+05  9.034573E+03 -1.851772E+05  4.921909E+03
       139   9  3.784500E+06  4.006124E+05  4.969247E+05  7.862647E+04 -2.852480E+05  1.864905E+03
       139  10  3.228312E+06 -7.086366E+04  6.204195E+04  5.102752E+04  2.076712E-09  3.164749E-10
       139  11  3.126229E+06 -1.389373E+05  1.127137E+05 -1.846627E+04  1.089934E-09 -8.931421E-10
       139  12  3.149458E+06  2.426624E+05  3.392506E+05 -2.691976E+04 -2.088434E-09 -5.620402E-10
       139  13  3.467512E+06 -1.141293E+04  1.211083E+05  2.576295E+04 -1.964604E-09  4.167026E-10
       139  14  3.404474E+06 -6.977602E+04  1.812489E+05 -4.718550E+03  2.367168E-09 -5.148433E-10
       139  15  3.466887E+06  3.216251E+05  4.180147E+05  2.584013E+04 -2.553453E-09 -9.836792E-11
       139  16  3.706765E+06  4.803595E+04  1.801707E+05  4.886723E+02 -2.377115E-09  5.929021E-10
       139  17  3.682789E+06 -6.198264E+02  2.497785E+05  9.035306E+03 -7.634257E-11 -1.352107E-09
       139  18  3.784413E+06  4.005907E+05  4.967727E+05  7.862690E+04  1.461684E-09 -1.871557E-10
       139  19  3.228320E+06 -7.086163E+04  6.205614E+04  5.102730E+04  8.706216E+04 -3.193619E+03
       139  20  3.126265E+06 -1.389281E+05  1.127775E+05 -1.846700E+04  1.847527E+05 -4.930359E+03
       139  21  3.149544E+06  2.426837E+05  3.393997E+05 -2.692019E+04  2.824352E+05 -1.912355E+03
       139  22  3.467520E+06 -1.141094E+04  1.211221E+05  2.576273E+04  8.608682E+04 -3.197506E+03
       139  23  3.404510E+06 -6.976688E+04  1.813129E+05 -4.719283E+03  1.849649E+05 -4.926138E+03
       139  24  3.466973E+06  3.216466E+05  4.181652E+05  2.583970E+04  2.838412E+05 -1.888743E+03
       139  25  3.706773E+06  4.803789E+04  1.801843E+05  4.884532E+02  8.511110E+04 -3.201312E+03
       139  26  3.682826E+06 -6.106629E+02  2.498426E+05  9.034573E+03  1.851772E+05 -4.921909E+03
       139  27  3.784500E+06  4.006124E+05  4.969247E+05  7.862647E+04  2.852480E+05 -1.864905E+03
       140   1 -8.539699E+05 -3.359133E+06 -1.064919E+06  1.619838E+05 -4.566082E+03 -5.979315E+05
       140   2  1.129491E+04 -3.140783E+06 -5.430446E+05  1.317406E+04 -1.085960E+04 -3.763947E+05
       140   3 -1.076041E+05 -3.196769E+06 -4.116707E+05 -8.900506E+03 -6.759200E+03 -1.548585E+05
       140   4 -6.923076E+05 -2.713020E+06 -9.034362E+05  4.864588E+04 -4.452767E+03 -5.954990E+05
       140   5  1.525378E+05 -2.575791E+06 -4.029333E+05 -1.515197E+04 -1.084103E+04 -3.762550E+05
       140   6  1.408565E+04 -2.712240E+06 -2.910470E+05  4.780678E+04 -6.778506E+03 -1.570413E+05
       140   7 -5.306282E+05 -2.066498E+06 -7.419777E+05 -6.481068E+04 -4.340447E+03 -5.930638E+05
       140   8  2.937598E+05 -2.010506E+06 -2.628454E+05 -4.350404E+04 -1.082248E+04 -3.761151E+05
       140   9  1.357697E+05 -2.227491E+06 -1.704392E+05  1.045584E+05 -6.798201E+03 -1.592258E+05
       140  10 -8.540665E+05 -3.359519E+06 -1.065595E+06  1.619816E+05 -7.247602E-10 -1.690054E-09
       140  11  1.125650E+04 -3.140936E+06 -5.433124E+05  1.317076E+04 -2.748390E-09 -3.444327E-10
       140  12 -1.076107E+05 -3.196794E+06 -4.117161E+05 -8.901350E+03  8.265119E-10  4.105288E-09
       140  13 -6.924033E+05 -2.713402E+06 -9.041056E+05  4.864375E+04 -3.127806E-09  7.478743E-10
       140  14  1.524994E+05 -2.575944E+06 -4.032007E+05 -1.515526E+04 -3.303450E-10 -6.488676E-10
       140  15  1.407894E+04 -2.712267E+06 -2.910936E+05  4.780592E+04  4.298413E-09  4.936217E-10
       140  16 -5.307230E+05 -2.066877E+06 -7.426409E+05 -6.481277E+04 -4.546783E-10  2.156252E-09
       140  17  2.937215E+05 -2.010659E+06 -2.631124E+05 -4.350732E+04  7.703912E-10 -2.219314E-09
       140  18  1.357628E+05 -2.227518E+06 -1.704871E+05  1.045575E+05  2.075238E-09 -3.047259E-09
       140  19 -8.539699E+05 -3.359133E+06 -1.064919E+06  1.619838E+05  4.566082E+03  5.979315E+05
       140  20  1.129491E+04 -3.140783E+06 -5.430446E+05  1.317406E+04  1.085960E+04  3.763947E+05
       140  21 -1.076041E+05 -3.196769E+06 -4.116707E+05 -8.900506E+03  6.759200E+03  1.548585E+05
       140  22 -6.923076E+05 -2.713020E+06 -9.034362E+05  4.864588E+04  4.452767E+03  5.954990E+05
       140  23  1.525378E+05 -2.575791E+06 -4.029333E+05 -1.515197E+04  1.084103E+04  3.762550E+05
       140  24  1.408565E+04 -2.712240E+06 -2.910470E+05  4.780678E+04  6.778506E+03  1.570413E+05
       140  25 -5.306282E+05 -2.066498E+06 -7.419777E+05 -6.481068E+04  4.340447E+03  5.930638E+05
       140  26  2.937598E+05 -2.010506E+06 -2.628454E+05 -4.350404E+04  1.082248E+04  3.761151E+05
       140  27  1.357697E+05 -2.227491E+06 -1.704392E+05  1.045584E+05  6.798201E+03  1.592258E+05
       141   1 -1.304124E+05 -2.810572E+06 -2.941542E+05  7.337817E+04 -3.124560E+03 -1.074202E+05
       141   2  2.768730E+04 -2.681454E+06 -1.999623E+05 -1.874272E+04 -8.583998E+02 -9.685906E+03
       141   3 -7.555996E+04 -2.631477E+06 -2.351132E+05  2.976306E+04  1.600435E+03  8.806167E+04
       141   4 -9.519301E+04 -2.669153E+06 -2.591583E+05  5.132150E+04 -3.121946E+03 -1.078852E+05
       141   5  4.066595E+04 -2.629579E+06 -1.870845E+05 -1.900238E+04 -8.598002E+02 -1.018405E+04
       141   6 -8.480411E+04 -2.669140E+06 -2.443170E+05  5.130283E+04  1.601909E+03  8.751639E+04
       141   7 -5.997323E+04 -2.527715E+06 -2.241635E+05  2.925977E+04 -3.119299E+03 -1.083504E+05
       141   8  5.364440E+04 -2.577702E+06 -1.742069E+05 -1.926206E+04 -8.612001E+02 -1.068224E+04
       141   9 -9.404661E+04 -2.706801E+06 -2.535206E+05  7.284129E+04  1.603346E+03  8.697114E+04
       141  10 -1.304156E+05 -2.810584E+06 -2.941760E+05  7.337790E+04  2.121358E-09  1.229570E-09
       141  11  2.768727E+04 -2.681454E+06 -1.999625E+05 -1.874272E+04  1.017086E-09  2.785010E-10
       141  12 -7.556206E+04 -2.631485E+06 -2.351279E+05  2.976294E+04 -4.690602E-09  2.847044E-09
       141  13 -9.519616E+04 -2.669166E+06 -2.591803E+05  5.132123E+04  1.693385E-09  1.833635E-09
       141  14  4.066592E+04 -2.629579E+06 -1.870847E+05 -1.900238E+04  7.098930E-10 -1.491050E-09
       141  15 -8.480618E+04 -2.669148E+06 -2.443315E+05  5.130271E+04  2.047570E-10  5.300588E-10
       141  16 -5.997641E+04 -2.527728E+06 -2.241857E+05  2.925950E+04  1.510165E-09  7.506868E-11
       141  17  5.364436E+04 -2.577702E+06 -1.742071E+05 -1.926207E+04 -5.449375E-10 -3.030051E-09
       141  18 -9.404865E+04 -2.706809E+06 -2.535349E+05  7.284117E+04  1.416612E-09 -1.355298E-09
       141  19 -1.304124E+05 -2.810572E+06 -2.941542E+05  7.337817E+04  3.124560E+03  1.074202E+05
       141  20  2.768730E+04 -2.681454E+06 -1.999623E+05 -1.874272E+04  8.583998E+02  9.685906E+03
       141  21 -7.555996E+04 -2.631477E+06 -2.351132E+05  2.976306E+04 -1.600435E+03 -8.806167E+04
       141  22 -9.519301E+04 -2.669153E+06 -2.591583E+05  5.132150E+04  3.121946E+03  1.078852E+05
       141  23  4.066595E+04 -2.629579E+06 -1.870845E+05 -1.900238E+04  8.598002E+02  1.018405E+04
       141  24 -8.480411E+04 -2.669140E+06 -2.443170E+05  5.130283E+04 -1.601909E+03 -8.751639E+04
       141  25 -5.997323E+04 -2.527715E+06 -2.241635E+05  2.925977E+04  3.119299E+03  1.083504E+05
       141  26  5.364440E+04 -2.577702E+06 -1.742069E+05 -1.926206E+04  8.612001E+02  1.068224E+04
       141  27 -9.404661E+04 -2.706801E+06 -2.535206E+05  7.284129E+04 -1.603346E+03 -8.697114E+04
       142   1  1.071270E+05 -2.319945E+06 -1.742414E+05  1.001599E+05  5.179601E+03  1.355317E+05
       142   2  2.551074E+05 -2.112971E+06 -2.496198E+05 -4.177752E+04  9.217917E+03  3.324860E+05
       142   3 -4.837779E+05 -2.153122E+06 -6.750176E+05 -5.222742E+04  3.989958E+03  5.294969E+05
       142   4  1.002131E+04 -2.706464E+06 -2.704717E+05  4.881550E+04  5.163096E+03  1.335189E+05
       142   5  1.377162E+05 -2.582959E+06 -3.660799E+05 -1.641887E+04  9.232490E+03  3.325464E+05
       142   6 -6.222054E+05 -2.707172E+06 -8.133593E+05  4.983636E+04  4.081424E+03  5.316033E+05
       142   7 -8.708590E+04 -3.092842E+06 -3.667118E+05 -2.496849E+03  5.146917E+03  1.315072E+05
       142   8  2.031090E+04 -3.052744E+06 -4.825562E+05  8.920411E+03  9.247078E+03  3.326067E+05
       142   9 -7.606166E+05 -3.260920E+06 -9.517185E+05  1.518087E+05  4.173656E+03  5.337077E+05
       142  10  1.071221E+05 -2.319965E+06 -1.742761E+05  1.001593E+05 -3.988157E-09  3.760175E-09
       142  11  2.550775E+05 -2.113090E+06 -2.498285E+05 -4.177999E+04 -4.318783E-10  1.524504E-09
       142  12 -4.838535E+05 -2.153424E+06 -6.755463E+05 -5.222914E+04 -9.908560E-10  1.422605E-10
       142  13  1.001647E+04 -2.706483E+06 -2.705054E+05  4.881495E+04  4.969994E-09  1.224539E-09
       142  14  1.376863E+05 -2.583078E+06 -3.662888E+05 -1.642134E+04  1.972116E-09 -1.534632E-09
       142  15 -6.222817E+05 -2.707477E+06 -8.138927E+05  4.983462E+04  5.017223E-10  9.119639E-11
       142  16 -8.709060E+04 -3.092861E+06 -3.667445E+05 -2.497395E+03  2.745041E-09 -2.484034E-09
       142  17  2.028091E+04 -3.052864E+06 -4.827653E+05  8.917931E+03  1.104594E-09 -3.776729E-09
       142  18 -7.606936E+05 -3.261227E+06 -9.522566E+05  1.518069E+05  9.232194E-10  8.291924E-10
       142  19  1.071270E+05 -2.319945E+06 -1.742414E+05  1.001599E+05 -5.179601E+03 -1.355317E+05
       142  20  2.551074E+05 -2.112971E+06 -2.496198E+05 -4.177752E+04 -9.217917E+03 -3.324860E+05
       142  21 -4.837779E+05 -2.153122E+06 -6.750176E+05 -5.222742E+04 -3.989958E+03 -5.294969E+05
       142  22  1.002131E+04 -2.706464E+06 -2.704717E+05  4.881550E+04 -5.163096E+03 -1.335189E+05
       142  23  1.377162E+05 -2.582959E+06 -3.660799E+05 -1.641887E+04 -9.232490E+03 -3.325464E+05
       142  24 -6.222054E+05 -2.707172E+06 -8.133593E+05  4.983636E+04 -4.081424E+03 -5.316033E+05
       142  25 -8.708590E+04 -3.092842E+06 -3.667118E+05 -2.496849E+03 -5.146917E+03 -1.315072E+05
       142  26  2.031090E+04 -3.052744E+06 -4.825562E+05  8.920411E+03 -9.247078E+03 -3.326067E+05
       142  27 -7.606166E+05 -3.260920E+06 -9.517185E+05  1.518087E+05 -4.173656E+03 -5.337077E+05
       143   1  2.629498E+06  1.711203E+06  4.662600E+05  1.759451E+06  2.685520E+05  2.018430E+05
       143   2  2.460933E+06  1.358192E+06  1.886219E+05  1.938677E+06  1.755240E+05  1.334847E+05
       143   3  2.592060E+06  1.381672E+06  1.181266E+05  1.930095E+06  8.338815E+04  6.392629E+04
       143   4  2.766930E+06  1.706639E+06  4.926454E+05  1.780274E+06  2.689522E+05  2.021008E+05
       143   5  2.546651E+06  1.392431E+06  2.122740E+05  1.968754E+06  1.756014E+05  1.335355E+05
       143   6  2.626096E+06  1.454731E+06  1.392834E+05  1.969435E+06  8.315435E+04  6.375760E+04
       143   7  2.904389E+06  1.702080E+06  5.190319E+05  1.801096E+06  2.693525E+05  2.023585E+05
       143   8  2.632376E+06  1.426671E+06  2.359255E+05  1.998834E+06  1.756788E+05  1.335862E+05
       143   9  2.660134E+06  1.527799E+06  1.604401E+05  2.008779E+06  8.292054E+04  6.358886E+04
       143  10  2.629410E+06  1.711140E+06  4.660493E+05  1.759408E+06 -1.281581E-09  5.642454E-10
       143  11  2.460896E+06  1.358165E+06  1.885311E+05  1.938659E+06 -7.927112E-10 -1.554461E-10
       143  12  2.592052E+06  1.381666E+06  1.181060E+05  1.930091E+06 -9.098365E-10  2.160375E-10
       143  13  2.766842E+06  1.706576E+06  4.924341E+05  1.780230E+06  2.909052E-09 -4.844669E-11
       143  14  2.546613E+06  1.392404E+06  2.121831E+05  1.968735E+06  3.949949E-09  1.027424E-10
       143  15  2.626087E+06  1.454725E+06  1.392629E+05  1.969431E+06  1.092049E-09  5.939194E-10
       143  16  2.904300E+06  1.702017E+06  5.188200E+05  1.801052E+06  4.896096E-10  8.711595E-11
       143  17  2.632339E+06  1.426644E+06  2.358345E+05  1.998815E+06 -5.503797E-10  7.659338E-10
       143  18  2.660125E+06  1.527793E+06  1.604197E+05  2.008775E+06  5.108480E-09  4.082409E-10
       143  19  2.629498E+06  1.711203E+06  4.662600E+05  1.759451E+06 -2.685520E+05 -2.018430E+05
       143  20  2.460933E+06  1.358192E+06  1.886219E+05  1.938677E+06 -1.755240E+05 -1.334847E+05
       143  21  2.592060E+06  1.381672E+06  1.181266E+05  1.930095E+06 -8.338815E+04 -6.392629E+04
       143  22  2.766930E+06  1.706639E+06  4.926454E+05  1.780274E+06 -2.689522E+05 -2.021008E+05
       143  23  2.546651E+06  1.392431E+06  2.122740E+05  1.968754E+06 -1.756014E+05 -1.335355E+05
       143  24  2.626096E+06  1.454731E+06  1.392834E+05  1.969435E+06 -8.315435E+04 -6.375760E+04
       143  25  2.904389E+06  1.702080E+06  5.190319E+05  1.801096E+06 -2.693525E+05 -2.023585E+05
       143  26  2.632376E+06  1.426671E+06  2.359255E+05  1.998834E+06 -1.756788E+05 -1.335862E+05
       143  27  2.660134E+06  1.527799E+06  1.604401E+05  2.008779E+06 -8.292054E+04 -6.358886E+04
       144   1  2.585505E+06  1.470573E+06  1.029973E+05  1.907263E+06  6.504459E+04  4.967845E+04
       144   2  2.560526E+06  1.427190E+06  4.794250E+04  1.935782E+06  4.049580E+04  3.118566E+04
       144   3  2.589131E+06  1.430665E+06  3.210456E+04  1.935201E+06  1.603881E+04  1.257009E+04
       144   4  2.631823E+06  1.489495E+06  1.158767E+05  1.923705E+06  6.504440E+04  4.967692E+04
       144   5  2.595253E+06  1.448546E+06  5.901185E+04  1.951413E+06  4.046344E+04  3.116124E+04
       144   6  2.612272E+06  1.454458E+06  4.138863E+04  1.950022E+06  1.597499E+04  1.252253E+04
       144   7  2.678144E+06  1.508417E+06  1.287560E+05  1.940147E+06  6.504422E+04  4.967538E+04
       144   8  2.629982E+06  1.469901E+06  7.008105E+04  1.967045E+06  4.043107E+04  3.113682E+04
       144   9  2.635413E+06  1.478251E+06  5.067259E+04  1.964843E+06  1.591117E+04  1.247498E+04
       144  10  2.585500E+06  1.470569E+06  1.029848E+05  1.907261E+06  1.815758E-09  8.091049E-10
       144  11  2.560524E+06  1.427189E+06  4.793762E+04  1.935781E+06  5.095351E-09 -6.568943E-10
       144  12  2.589131E+06  1.430665E+06  3.210379E+04  1.935201E+06 -1.836258E-09 -3.764135E-10
       144  13  2.631818E+06  1.489491E+06  1.158642E+05  1.923702E+06  4.568484E-09 -8.551143E-11
       144  14  2.595251E+06  1.448544E+06  5.900698E+04  1.951412E+06  2.728790E-09  2.981565E-10
       144  15  2.612271E+06  1.454458E+06  4.138787E+04  1.950022E+06 -2.338784E-09 -5.815781E-10
       144  16  2.678139E+06  1.508413E+06  1.287435E+05  1.940145E+06  6.146351E-09 -5.788843E-10
       144  17  2.629980E+06  1.469900E+06  7.007619E+04  1.967044E+06  1.244027E-11 -1.492154E-09
       144  18  2.635412E+06  1.478251E+06  5.067182E+04  1.964843E+06 -2.433502E-09 -1.490671E-09
       144  19  2.585505E+06  1.470573E+06  1.029973E+05  1.907263E+06 -6.504459E+04 -4.967845E+04
       144  20  2.560526E+06  1.427190E+06  4.794250E+04  1.935782E+06 -4.049580E+04 -3.118566E+04
       144  21  2.589131E+06  1.430665E+06  3.210456E+04  1.935201E+06 -1.603881E+04 -1.257009E+04
       144  22  2.631823E+06  1.489495E+06  1.158767E+05  1.923705E+06 -6.504440E+04 -4.967692E+04
       144  23  2.595253E+06  1.448546E+06  5.901185E+04  1.951413E+06 -4.046344E+04 -3.116124E+04
       144  24  2.612272E+06  1.454458E+06  4.138863E+04  1.950022E+06 -1.597499E+04 -1.252253E+04
       144  25  2.678144E+06  1.508417E+06  1.287560E+05  1.940147E+06 -6.504422E+04 -4.967538E+04
       144  26  2.629982E+06  1.469901E+06  7.008105E+04  1.967045E+06 -4.043107E+04 -3.113682E+04
       144  27  2.635413E+06  1.478251E+06  5.067259E+04  1.964843E+06 -1.591117E+04 -1.247498E+04
       145   1  2.602248E+06  1.454420E+06  3.376948E+04  1.940857E+06  1.046765E+04  8.197086E+03
       145   2  2.597496E+06  1.452121E+06  2.888701E+04  1.947330E+06 -1.770887E+03 -1.218349E+03
       145   3  2.615341E+06  1.458126E+06  3.979143E+04  1.943692E+06 -1.401127E+04 -1.063189E+04
       145   4  2.612585E+06  1.458771E+06  3.665233E+04  1.944588E+06  1.042713E+04  8.166730E+03
       145   5  2.601512E+06  1.455025E+06  3.025346E+04  1.949338E+06 -1.811077E+03 -1.248410E+03
       145   6  2.613037E+06  1.459584E+06  3.964103E+04  1.943977E+06 -1.405097E+04 -1.066165E+04
       145   7  2.622922E+06  1.463122E+06  3.953517E+04  1.948319E+06  1.038661E+04  8.136374E+03
       145   8  2.605529E+06  1.457929E+06  3.161991E+04  1.951346E+06 -1.851267E+03 -1.278471E+03
       145   9  2.610734E+06  1.461041E+06  3.949063E+04  1.944262E+06 -1.409067E+04 -1.069141E+04
       145  10  2.602248E+06  1.454419E+06  3.376915E+04  1.940857E+06 -1.846067E-09 -5.959275E-10
       145  11  2.597496E+06  1.452121E+06  2.888700E+04  1.947330E+06 -3.107292E-09 -1.114745E-09
       145  12  2.615341E+06  1.458126E+06  3.979085E+04  1.943691E+06  8.507582E-10 -6.136875E-10
       145  13  2.612585E+06  1.458771E+06  3.665200E+04  1.944588E+06 -1.121127E-09 -8.550241E-10
       145  14  2.601512E+06  1.455025E+06  3.025345E+04  1.949338E+06  1.201534E-09 -1.068224E-09
       145  15  2.613037E+06  1.459583E+06  3.964045E+04  1.943977E+06  2.782216E-09 -8.701351E-11
       145  16  2.622921E+06  1.463122E+06  3.953485E+04  1.948319E+06 -8.304085E-10 -7.249450E-10
       145  17  2.605529E+06  1.457929E+06  3.161990E+04  1.951346E+06 -1.528507E-09 -1.242449E-09
       145  18  2.610733E+06  1.461041E+06  3.949005E+04  1.944262E+06  1.086415E-09 -2.839884E-10
       145  19  2.602248E+06  1.454420E+06  3.376948E+04  1.940857E+06 -1.046765E+04 -8.197086E+03
       145  20  2.597496E+06  1.452121E+06  2.888701E+04  1.947330E+06  1.770887E+03  1.218349E+03
       145  21  2.615341E+06  1.458126E+06  3.979143E+04  1.943692E+06  1.401127E+04  1.063189E+04
       145  22  2.612585E+06  1.458771E+06  3.665233E+04  1.944588E+06 -1.042713E+04 -8.166730E+03
       145  23  2.601512E+06  1.455025E+06  3.025346E+04  1.949338E+06  1.811077E+03  1.248410E+03
       145  24  2.613037E+06  1.459584E+06  3.964103E+04  1.943977E+06  1.405097E+04  1.066165E+04
       145  25  2.622922E+06  1.463122E+06  3.953517E+04  1.948319E+06 -1.038661E+04 -8.136374E+03
       145  26  2.605529E+06  1.457929E+06  3.161991E+04  1.951346E+06  1.851267E+03  1.278471E+03
       145  27  2.610734E+06  1.461041E+06  3.949063E+04  1.944262E+06  1.409067E+04  1.069141E+04
       146   1  2.626223E+06  1.472887E+06  5.213223E+04  1.961413E+06 -2.007717E+04 -1.536442E+04
       146   2  2.620147E+06  1.461391E+06  7.528415E+04  1.962818E+06 -4.807041E+04 -3.660654E+04
       146   3  2.673373E+06  1.506437E+06  1.434733E+05  1.931353E+06 -7.614625E+04 -5.773901E+04
       146   4  2.612418E+06  1.454600E+06  4.577876E+04  1.950686E+06 -2.013687E+04 -1.540881E+04
       146   5  2.594181E+06  1.446786E+06  6.727704E+04  1.951758E+06 -4.810220E+04 -3.663060E+04
       146   6  2.635241E+06  1.495509E+06  1.337906E+05  1.919961E+06 -7.614935E+04 -5.774321E+04
       146   7  2.598613E+06  1.436313E+06  3.942526E+04  1.939959E+06 -2.019656E+04 -1.545320E+04
       146   8  2.568215E+06  1.432180E+06  5.926987E+04  1.940699E+06 -4.813398E+04 -3.665466E+04
       146   9  2.597111E+06  1.484581E+06  1.241077E+05  1.908569E+06 -7.615246E+04 -5.774741E+04
       146  10  2.626222E+06  1.472887E+06  5.213104E+04  1.961413E+06  1.497434E-09  3.522014E-10
       146  11  2.620144E+06  1.461389E+06  7.527734E+04  1.962816E+06 -1.194420E-09  7.134571E-10
       146  12  2.673366E+06  1.506432E+06  1.434563E+05  1.931349E+06  5.406898E-10 -3.874126E-11
       146  13  2.612417E+06  1.454599E+06  4.577756E+04  1.950686E+06 -2.280602E-09  1.384903E-09
       146  14  2.594178E+06  1.446784E+06  6.727022E+04  1.951756E+06  2.819745E-09  1.169463E-09
       146  15  2.635234E+06  1.495504E+06  1.337735E+05  1.919957E+06 -7.450868E-10 -1.064677E-09
       146  16  2.598613E+06  1.436313E+06  3.942405E+04  1.939958E+06  3.757663E-09  2.184470E-09
       146  17  2.568213E+06  1.432178E+06  5.926304E+04  1.940697E+06  1.636386E-09  1.723680E-09
       146  18  2.597104E+06  1.484576E+06  1.240907E+05  1.908566E+06 -1.105222E-09 -1.765484E-09
       146  19  2.626223E+06  1.472887E+06  5.213223E+04  1.961413E+06  2.007717E+04  1.536442E+04
       146  20  2.620147E+06  1.461391E+06  7.528415E+04  1.962818E+06  4.807041E+04  3.660654E+04
       146  21  2.673373E+06  1.506437E+06  1.434733E+05  1.931353E+06  7.614625E+04  5.773901E+04
       146  22  2.612418E+06  1.454600E+06  4.577876E+04  1.950686E+06  2.013687E+04  1.540881E+04
       146  23  2.594181E+06  1.446786E+06  6.727704E+04  1.951758E+06  4.810220E+04  3.663060E+04
       146  24  2.635241E+06  1.495509E+06  1.337906E+05  1.919961E+06  7.614935E+04  5.774321E+04
       146  25  2.598613E+06  1.436313E+06  3.942526E+04  1.939959E+06  2.019656E+04  1.545320E+04
       146  26  2.568215E+06  1.432180E+06  5.926987E+04  1.940699E+06  4.813398E+04  3.665466E+04
       146  27  2.597111E+06  1.484581E+06  1.241077E+05  1.908569E+06  7.615246E+04  5.774741E+04
       147   1  2.645984E+06  1.524804E+06  1.783292E+05  2.008084E+06 -9.695427E+04 -7.377621E+04
       147   2  2.613860E+06  1.404030E+06  2.655620E+05  1.994927E+06 -2.044927E+05 -1.547518E+05
       147   3  2.925394E+06  1.724292E+06  5.935690E+05  1.765061E+06 -3.128027E+05 -2.346902E+05
       147   4  2.628260E+06  1.455472E+06  1.611310E+05  1.973177E+06 -9.715574E+04 -7.391852E+04
       147   5  2.538158E+06  1.381176E+06  2.461321E+05  1.971769E+06 -2.044283E+05 -1.547133E+05
       147   6  2.791674E+06  1.747895E+06  5.717069E+05  1.753647E+06 -3.124569E+05 -2.344878E+05
       147   7  2.610537E+06  1.386149E+06  1.439330E+05  1.938273E+06 -9.735720E+04 -7.406079E+04
       147   8  2.462462E+06  1.358323E+06  2.267019E+05  1.948613E+06 -2.043639E+05 -1.546748E+05
       147   9  2.657982E+06  1.771506E+06  5.498472E+05  1.742230E+06 -3.121111E+05 -2.342854E+05
       147  10  2.645973E+06  1.524796E+06  1.783015E+05  2.008078E+06 -3.989784E-11 -1.626257E-09
       147  11  2.613809E+06  1.403993E+06  2.654392E+05  1.994902E+06  6.430440E-10  1.963361E-10
       147  12  2.925275E+06  1.724207E+06  5.932835E+05  1.765002E+06  4.803612E-10  3.057624E-10
       147  13  2.628248E+06  1.455464E+06  1.611032E+05  1.973172E+06 -4.421922E-10 -1.871256E-09
       147  14  2.538106E+06  1.381139E+06  2.460094E+05  1.971744E+06  5.397621E-11  6.038272E-10
       147  15  2.791555E+06  1.747810E+06  5.714220E+05  1.753588E+06  6.997255E-10  2.831586E-10
       147  16  2.610526E+06  1.386141E+06  1.439051E+05  1.938268E+06  1.234662E-09 -3.924125E-10
       147  17  2.462411E+06  1.358287E+06  2.265792E+05  1.948588E+06 -7.486049E-12  1.029421E-09
       147  18  2.657863E+06  1.771421E+06  5.495628E+05  1.742171E+06 -9.621424E-11  4.979507E-11
       147  19  2.645984E+06  1.524804E+06  1.783292E+05  2.008084E+06  9.695427E+04  7.377621E+04
       147  20  2.613860E+06  1.404030E+06  2.655620E+05  1.994927E+06  2.044927E+05  1.547518E+05
       147  21  2.925394E+06  1.724292E+06  5.935690E+05  1.765061E+06  3.128027E+05  2.346902E+05
       147  22  2.628260E+06  1.455472E+06  1.611310E+05  1.973177E+06  9.715574E+04  7.391852E+04
       147  23  2.538158E+06  1.381176E+06  2.461321E+05  1.971769E+06  2.044283E+05  1.547133E+05
       147  24  2.791674E+06  1.747895E+06  5.717069E+05  1.753647E+06  3.124569E+05  2.344878E+05
       147  25  2.610537E+06  1.386149E+06  1.439330E+05  1.938273E+06  9.735720E+04  7.406079E+04
       147  26  2.462462E+06  1.358323E+06  2.267019E+05  1.948613E+06  2.043639E+05  1.546748E+05
       147  27  2.657982E+06  1.771506E+06  5.498472E+05  1.742230E+06  3.121111E+05  2.342854E+05
       148   1  3.131155E+06  2.885546E+05  3.590162E+05  5.338493E+04  2.078860E+05 -1.280679E+03
       148   2  3.062409E+06 -3.303952E+03  1.801551E+05  6.859581E+03  1.346640E+05 -3.398786E+03
       148   3  3.085483E+06  3.382009E+04  1.310851E+05 -3.759723E+03  6.144349E+04 -2.350004E+03
       148   4  2.916183E+06  2.350631E+05  3.056575E+05  1.482438E+04  2.069454E+05 -1.293279E+03
       148   5  2.870496E+06 -5.101772E+04  1.328669E+05 -3.163093E+03  1.345072E+05 -3.401005E+03
       148   6  2.916523E+06 -8.199314E+03  8.935660E+04  1.475327E+04  6.206778E+04 -2.348113E+03
       148   7  2.701256E+06  1.815738E+05  2.522962E+05 -2.372287E+04  2.060051E+05 -1.305766E+03
       148   8  2.678617E+06 -9.873384E+04  8.557616E+04 -1.318268E+04  1.343505E+05 -3.403220E+03
       148   9  2.747588E+06 -5.021956E+04  4.762622E+04  3.326123E+04  6.269191E+04 -2.346186E+03
       148  10  3.131109E+06  2.885431E+05  3.589354E+05  5.338514E+04  2.601186E-11 -3.907265E-10
       148  11  3.062390E+06 -3.308803E+03  1.801211E+05  6.859949E+03 -4.314690E-11  9.926905E-11
       148  12  3.085479E+06  3.381908E+04  1.310780E+05 -3.759607E+03  8.470977E-10  4.189701E-10
       148  13  2.916137E+06  2.350517E+05  3.055774E+05  1.482459E+04  1.175736E-09  3.409551E-11
       148  14  2.870477E+06 -5.102256E+04  1.328331E+05 -3.162725E+03 -9.929471E-10  2.299284E-10
       148  15  2.916518E+06 -8.200348E+03  8.934938E+04  1.475338E+04 -1.025292E-09  3.459290E-10
       148  16  2.701211E+06  1.815624E+05  2.522168E+05 -2.372265E+04 -4.102947E-11  2.384638E-10
       148  17  2.678598E+06 -9.873867E+04  8.554237E+04 -1.318231E+04 -1.979782E-09  7.221996E-10
       148  18  2.747584E+06 -5.022061E+04  4.761886E+04  3.326135E+04 -1.226887E-09 -4.182422E-10
       148  19  3.131155E+06  2.885546E+05  3.590162E+05  5.338493E+04 -2.078860E+05  1.280679E+03
       148  20  3.062409E+06 -3.303952E+03  1.801551E+05  6.859581E+03 -1.346640E+05  3.398786E+03
       148  21  3.085483E+06  3.382009E+04  1.310851E+05 -3.759723E+03 -6.144349E+04  2.350004E+03
       148  22  2.916183E+06  2.350631E+05  3.056575E+05  1.482438E+04 -2.069454E+05  1.293279E+03
       148  23  2.870496E+06 -5.101772E+04  1.328669E+05 -3.163093E+03 -1.345072E+05  3.401005E+03
       148  24  2.916523E+06 -8.199314E+03  8.935660E+04  1.475327E+04 -6.206778E+04  2.348113E+03
       148  25  2.701256E+06  1.815738E+05  2.522962E+05 -2.372287E+04 -2.060051E+05  1.305766E+03
       148  26  2.678617E+06 -9.873384E+04  8.557616E+04 -1.318268E+04 -1.343505E+05  3.403220E+03
       148  27  2.747588E+06 -5.021956E+04  4.762622E+04  3.326123E+04 -6.269191E+04  2.346186E+03
       149   1  2.987882E+06  5.521498E+04  9.755828E+04  1.902083E+04  4.719881E+04 -1.416719E+03
       149   2  2.960700E+06  8.793048E+03  6.050421E+04 -3.181990E+02  2.452744E+04 -1.103685E+03
       149   3  2.949966E+06  1.648160E+04  5.168610E+04  9.965006E+03  1.856989E+03 -4.600614E+02
       149   4  2.899714E+06  3.328611E+04  7.581144E+04  1.336914E+04  4.723175E+04 -1.417150E+03
       149   5  2.891521E+06 -8.411985E+03  4.343928E+04 -1.438538E+03  2.464271E+04 -1.103697E+03
       149   6  2.899764E+06  3.989540E+03  3.924889E+04  1.337600E+04  2.053892E+03 -4.599685E+02
       149   7  2.811554E+06  1.135678E+04  5.406405E+04  7.718263E+03  4.726468E+04 -1.417581E+03
       149   8  2.822346E+06 -2.561737E+04  2.637400E+04 -2.558753E+03  2.475796E+04 -1.103711E+03
       149   9  2.849564E+06 -8.502665E+03  2.681151E+04  1.678671E+04  2.250780E+03 -4.598734E+02
       149  10  2.987880E+06  5.521438E+04  9.755411E+04  1.902088E+04  2.561074E-10  6.427950E-10
       149  11  2.960699E+06  8.792886E+03  6.050308E+04 -3.181772E+02  2.432517E-09  2.651838E-10
       149  12  2.949966E+06  1.648160E+04  5.168609E+04  9.965007E+03  2.040982E-09 -4.760613E-10
       149  13  2.899712E+06  3.328551E+04  7.580727E+04  1.336920E+04  1.376137E-10  3.633370E-11
       149  14  2.891520E+06 -8.412148E+03  4.343815E+04 -1.438516E+03 -5.818354E-10 -1.088981E-10
       149  15  2.899764E+06  3.989539E+03  3.924889E+04  1.337600E+04 -2.100436E-09 -2.220566E-10
       149  16  2.811551E+06  1.135618E+04  5.405986E+04  7.718317E+03 -1.656924E-10 -2.510242E-10
       149  17  2.822346E+06 -2.561753E+04  2.637286E+04 -2.558731E+03 -5.228843E-10 -3.242693E-10
       149  18  2.849564E+06 -8.502667E+03  2.681150E+04  1.678671E+04 -1.609845E-10  2.123658E-10
       149  19  2.987882E+06  5.521498E+04  9.755828E+04  1.902083E+04 -4.719881E+04  1.416719E+03
       149  20  2.960700E+06  8.793048E+03  6.050421E+04 -3.181990E+02 -2.452744E+04  1.103685E+03
       149  21  2.949966E+06  1.648160E+04  5.168610E+04  9.965006E+03 -1.856989E+03  4.600614E+02
       149  22  2.899714E+06  3.328611E+04  7.581144E+04  1.336914E+04 -4.723175E+04  1.417150E+03
       149  23  2.891521E+06 -8.411985E+03  4.343928E+04 -1.438538E+03 -2.464271E+04  1.103697E+03
       149  24  2.899764E+06  3.989540E+03  3.924889E+04  1.337600E+04 -2.053892E+03  4.599685E+02
       149  25  2.811554E+06  1.135678E+04  5.406405E+04  7.718263E+03 -4.726468E+04  1.417581E+03
       149  26  2.822346E+06 -2.561737E+04  2.637400E+04 -2.558753E+03 -2.475796E+04  1.103711E+03
       149  27  2.849564E+06 -8.502665E+03  2.681151E+04  1.678671E+04 -2.250780E+03  4.598734E+02
       150   1  2.877862E+06 -2.147955E+03  3.416942E+04  1.685672E+04 -5.255344E+03  2.813569E+01
       150   2  2.850477E+06 -1.917909E+04  3.602119E+04 -2.507497E+03 -2.915538E+04  6.557339E+02
       150   3  2.840711E+06  2.201414E+04  6.793428E+04  7.073174E+03 -5.305505E+04  9.976533E+02
       150   4  2.900031E+06  3.371640E+03  3.968835E+04  1.322671E+04 -5.067543E+03  2.824921E+01
       150   5  2.891187E+06 -9.053323E+03  4.606244E+04 -1.251061E+03 -2.903776E+04  6.557175E+02
       150   6  2.899973E+06  3.675602E+04  8.254487E+04  1.321588E+04 -5.300832E+04  9.971418E+02
       150   7  2.922200E+06  8.891248E+03  4.520725E+04  9.596571E+03 -4.879735E+03  2.836054E+01
       150   8  2.931899E+06  1.072329E+03  5.610356E+04  5.457688E+00 -2.892013E+04  6.557016E+02
       150   9  2.959239E+06  5.149778E+04  9.715522E+04  1.935917E+04 -5.296159E+04  9.966312E+02
       150  10  2.877862E+06 -2.147962E+03  3.416937E+04  1.685672E+04  1.742479E-09  7.947098E-10
       150  11  2.850476E+06 -1.917932E+04  3.601960E+04 -2.507482E+03 -4.900273E-10 -5.040088E-11
       150  12  2.840708E+06  2.201339E+04  6.792901E+04  7.073217E+03  2.616496E-10  1.482044E-10
       150  13  2.900031E+06  3.371633E+03  3.968830E+04  1.322671E+04  1.089779E-09  2.450837E-10
       150  14  2.891186E+06 -9.053549E+03  4.606086E+04 -1.251045E+03  3.167523E-09 -6.951124E-11
       150  15  2.899970E+06  3.675527E+04  8.253961E+04  1.321592E+04 -3.387022E-10 -2.823707E-10
       150  16  2.922200E+06  8.891241E+03  4.520721E+04  9.596571E+03 -1.857614E-09 -5.906903E-10
       150  17  2.931898E+06  1.072106E+03  5.610199E+04  5.472944E+00  7.049485E-10 -4.601185E-10
       150  18  2.959236E+06  5.149703E+04  9.714997E+04  1.935921E+04  5.823299E-10  1.390111E-10
       150  19  2.877862E+06 -2.147955E+03  3.416942E+04  1.685672E+04  5.255344E+03 -2.813569E+01
       150  20  2.850477E+06 -1.917909E+04  3.602119E+04 -2.507497E+03  2.915538E+04 -6.557339E+02
       150  21  2.840711E+06  2.201414E+04  6.793428E+04  7.073174E+03  5.305505E+04 -9.976533E+02
       150  22  2.900031E+06  3.371640E+03  3.968835E+04  1.322671E+04  5.067543E+03 -2.824921E+01
       150  23  2.891187E+06 -9.053323E+03  4.606244E+04 -1.251061E+03  2.903776E+04 -6.557175E+02
       150  24  2.899973E+06  3.675602E+04  8.254487E+04  1.321588E+04  5.300832E+04 -9.971418E+02
       150  25  2.922200E+06  8.891248E+03  4.520725E+04  9.596571E+03  4.879735E+03 -2.836054E+01
       150  26  2.931899E+06  1.072329E+03  5.610356E+04  5.457688E+00  2.892013E+04 -6.557016E+02
       150  27  2.959239E+06  5.149778E+04  9.715522E+04  1.935917E+04  5.296159E+04 -9.966312E+02
       151   1  2.782024E+06 -4.314902E+04  6.400277E+04  3.467593E+04 -6.975195E+04  1.831712E+03
       151   2  2.709777E+06 -9.556076E+04  1.072245E+05 -1.363573E+04 -1.487985E+05  2.800450E+03
       151   3  2.738439E+06  2.145298E+05  2.924184E+05 -2.823181E+04 -2.278401E+05  1.074214E+03
       151   4  2.918590E+06 -9.186794E+03  9.774349E+04  1.428037E+04 -6.920109E+04  1.834121E+03
       151   5  2.867906E+06 -5.623532E+04  1.461948E+05 -2.562961E+03 -1.489164E+05  2.797757E+03
       151   6  2.918216E+06  2.592806E+05  3.370531E+05  1.430992E+04 -2.286296E+05  1.058740E+03
       151   7  3.055173E+06  2.477561E+04  1.314831E+05 -6.119659E+03 -6.865011E+04  1.836492E+03
       151   8  3.026058E+06 -1.691127E+04  1.851633E+05  8.512625E+03 -1.490344E+05  2.795060E+03
       151   9  3.098025E+06  3.040357E+05  3.816864E+05  5.686392E+04 -2.294193E+05  1.043163E+03
       151  10  2.782019E+06 -4.315033E+04  6.399366E+04  3.467603E+04  1.351457E-10  1.981779E-10
       151  11  2.709754E+06 -9.556668E+04  1.071831E+05 -1.363540E+04 -5.134703E-10 -1.008261E-10
       151  12  2.738383E+06  2.145159E+05  2.923213E+05 -2.823161E+04 -2.233897E-09  3.358832E-11
       151  13  2.918585E+06 -9.188076E+03  9.773453E+04  1.428047E+04 -2.140023E-09 -3.222162E-10
       151  14  2.867882E+06 -5.624124E+04  1.461533E+05 -2.562626E+03  3.205050E-09  5.394395E-10
       151  15  2.918160E+06  2.592666E+05  3.369553E+05  1.431011E+04 -4.491271E-11  1.588935E-10
       151  16  3.055168E+06  2.477435E+04  1.314742E+05 -6.119558E+03  2.874179E-09 -1.793391E-10
       151  17  3.026034E+06 -1.691721E+04  1.851217E+05  8.512960E+03 -1.060740E-09  2.666783E-10
       151  18  3.097969E+06  3.040217E+05  3.815879E+05  5.686411E+04  2.276476E-09  6.480339E-10
       151  19  2.782024E+06 -4.314902E+04  6.400277E+04  3.467593E+04  6.975195E+04 -1.831712E+03
       151  20  2.709777E+06 -9.556076E+04  1.072245E+05 -1.363573E+04  1.487985E+05 -2.800450E+03
       151  21  2.738439E+06  2.145298E+05  2.924184E+05 -2.823181E+04  2.278401E+05 -1.074214E+03
       151  22  2.918590E+06 -9.186794E+03  9.774349E+04  1.428037E+04  6.920109E+04 -1.834121E+03
       151  23  2.867906E+06 -5.623532E+04  1.461948E+05 -2.562961E+03  1.489164E+05 -2.797757E+03
       151  24  2.918216E+06  2.592806E+05  3.370531E+05  1.430992E+04  2.286296E+05 -1.058740E+03
       151  25  3.055173E+06  2.477561E+04  1.314831E+05 -6.119659E+03  6.865011E+04 -1.836492E+03
       151  26  3.026058E+06 -1.691127E+04  1.851633E+05  8.512625E+03  1.490344E+05 -2.795060E+03
       151  27  3.098025E+06  3.040357E+05  3.816864E+05  5.686392E+04  2.294193E+05 -1.043163E+03
       152   1 -6.094098E+05 -2.193559E+06 -7.622864E+05  1.150249E+05 -2.860448E+03 -4.316431E+05
       152   2  1.484320E+04 -2.041499E+06 -3.871419E+05  1.218000E+04 -7.158854E+03 -2.710460E+05
       152   3 -7.333662E+04 -2.088169E+06 -2.947562E+05 -8.446472E+03 -4.575438E+03 -1.104477E+05
       152   4 -5.005084E+05 -1.758132E+06 -6.535815E+05  3.273136E+04 -2.801710E+03 -4.299478E+05
       152   5  1.104438E+05 -1.658787E+06 -2.923365E+05 -8.551244E+03 -7.149216E+03 -2.709051E+05
       152   6  9.460603E+03 -1.757776E+06 -2.126291E+05  3.239612E+04 -4.584794E+03 -1.118752E+05
       152   7 -3.915957E+05 -1.322519E+06 -5.448872E+05 -4.962006E+04 -2.743459E+03 -4.282513E+05
       152   8  2.060350E+05 -1.275941E+06 -1.975418E+05 -2.929535E+04 -7.139593E+03 -2.707641E+05
       152   9  9.225585E+04 -1.427279E+06 -1.305094E+05  7.326049E+04 -4.594334E+03 -1.133034E+05
       152  10 -6.094601E+05 -2.193760E+06 -7.626378E+05  1.150239E+05  4.602106E-10  2.353205E-10
       152  11  1.482334E+04 -2.041578E+06 -3.872806E+05  1.217843E+04  2.677347E-09  1.658638E-09
       152  12 -7.333994E+04 -2.088182E+06 -2.947792E+05 -8.446879E+03  6.953444E-11  8.233033E-10
       152  13 -5.005582E+05 -1.758331E+06 -6.539299E+05  3.273039E+04 -1.067952E-09 -3.563590E-10
       152  14  1.104239E+05 -1.658866E+06 -2.924749E+05 -8.552806E+03 -1.770085E-10  1.310391E-09
       152  15  9.457209E+03 -1.757789E+06 -2.126528E+05  3.239571E+04 -2.388696E-09 -4.642207E-10
       152  16 -3.916451E+05 -1.322716E+06 -5.452326E+05 -4.962101E+04 -1.695866E-09 -8.620086E-12
       152  17  2.060152E+05 -1.276020E+06 -1.976800E+05 -2.929691E+04  3.017733E-10 -6.216648E-10
       152  18  9.225237E+04 -1.427293E+06 -1.305337E+05  7.326007E+04 -3.596641E-10 -1.703080E-11
       152  19 -6.094098E+05 -2.193559E+06 -7.622864E+05  1.150249E+05  2.860448E+03  4.316431E+05
       152  20  1.484320E+04 -2.041499E+06 -3.871419E+05  1.218000E+04  7.158854E+03  2.710460E+05
       152  21 -7.333662E+04 -2.088169E+06 -2.947562E+05 -8.446472E+03  4.575438E+03  1.104477E+05
       152  22 -5.005084E+05 -1.758132E+06 -6.535815E+05  3.273136E+04  2.801710E+03  4.299478E+05
       152  23  1.104438E+05 -1.658787E+06 -2.923365E+05 -8.551244E+03  7.149216E+03  2.709051E+05
       152  24  9.460603E+03 -1.757776E+06 -2.126291E+05  3.239612E+04  4.584794E+03  1.118752E+05
       152  25 -3.915957E+05 -1.322519E+06 -5.448872E+05 -4.962006E+04  2.743459E+03  4.282513E+05
       152  26  2.060350E+05 -1.275941E+06 -1.975418E+05 -2.929535E+04  7.139593E+03  2.707641E+05
       152  27  9.225585E+04 -1.427279E+06 -1.305094E+05  7.326049E+04  4.594334E+03  1.133034E+05
       153   1 -9.672448E+04 -1.839172E+06 -2.179390E+05  5.038699E+04 -2.240117E+03 -7.557751E+04
       153   2  1.643003E+04 -1.753258E+06 -1.536615E+05 -1.029862E+04 -8.969538E+02 -2.499427E+03
       153   3 -6.574961E+04 -1.726124E+06 -1.859562E+05  1.768082E+04  6.502053E+02  7.058466E+04
       153   4 -6.872083E+04 -1.726830E+06 -1.901383E+05  3.400500E+04 -2.238558E+03 -7.585100E+04
       153   5  3.038193E+04 -1.697444E+06 -1.398199E+05 -1.032631E+04 -8.975144E+02 -2.813532E+03
       153   6 -6.583303E+04 -1.726829E+06 -1.860369E+05  3.400842E+04  6.513771E+02  7.022331E+04
       153   7 -4.071710E+04 -1.614475E+06 -1.623384E+05  1.762003E+04 -2.236984E+03 -7.612453E+04
       153   8  4.433359E+04 -1.641627E+06 -1.259786E+05 -1.035400E+04 -8.980749E+02 -3.127665E+03
       153   9 -6.591545E+04 -1.727533E+06 -1.861176E+05  5.033600E+04  6.525299E+02  6.986197E+04
       153  10 -9.672603E+04 -1.839178E+06 -2.179498E+05  5.038685E+04 -7.307167E-10 -3.212295E-10
       153  11  1.643002E+04 -1.753258E+06 -1.536615E+05 -1.029862E+04  7.395644E-10  2.099891E-09
       153  12 -6.575095E+04 -1.726129E+06 -1.859656E+05  1.768078E+04 -9.915941E-10  6.320837E-10
       153  13 -6.872238E+04 -1.726836E+06 -1.901492E+05  3.400486E+04 -2.224909E-09 -7.886507E-10
       153  14  3.038192E+04 -1.697444E+06 -1.398199E+05 -1.032631E+04 -4.812598E-09  2.032651E-09
       153  15 -6.583436E+04 -1.726834E+06 -1.860462E+05  3.400838E+04  4.213944E-11 -5.028216E-10
       153  16 -4.071866E+04 -1.614482E+06 -1.623494E+05  1.761989E+04  2.220820E-09  1.269097E-09
       153  17  4.433359E+04 -1.641627E+06 -1.259786E+05 -1.035400E+04 -1.696681E-09 -2.280452E-11
       153  18 -6.591677E+04 -1.727538E+06 -1.861268E+05  5.033596E+04  4.758048E-11  2.403329E-10
       153  19 -9.672448E+04 -1.839172E+06 -2.179390E+05  5.038699E+04  2.240117E+03  7.557751E+04
       153  20  1.643003E+04 -1.753258E+06 -1.536615E+05 -1.029862E+04  8.969538E+02  2.499427E+03
       153  21 -6.574961E+04 -1.726124E+06 -1.859562E+05  1.768082E+04 -6.502053E+02 -7.058466E+04
       153  22 -6.872083E+04 -1.726830E+06 -1.901383E+05  3.400500E+04  2.238558E+03  7.585100E+04
       153  23  3.038193E+04 -1.697444E+06 -1.398199E+05 -1.032631E+04  8.975144E+02  2.813532E+03
       153  24 -6.583303E+04 -1.726829E+06 -1.860369E+05  3.400842E+04 -6.513771E+02 -7.022331E+04
       153  25 -4.071710E+04 -1.614475E+06 -1.623384E+05  1.762003E+04  2.236984E+03  7.612453E+04
       153  26  4.433359E+04 -1.641627E+06 -1.259786E+05 -1.035400E+04  8.980749E+02  3.127665E+03
       153  27 -6.591545E+04 -1.727533E+06 -1.861176E+05  5.033600E+04 -6.525299E+02 -6.986197E+04
       154   1  6.421495E+04 -1.533516E+06 -1.515575E+05  7.240017E+04  2.879671E+03  1.066166E+05
       154   2  1.755365E+05 -1.383542E+06 -2.135324E+05 -2.937353E+04  5.402598E+03  2.587976E+05
       154   3 -3.982765E+05 -1.424670E+06 -5.459200E+05 -4.551430E+04  2.339266E+03  4.110055E+05
       154   4  8.339143E+03 -1.756231E+06 -2.069585E+05  3.308944E+04  2.870757E+03  1.053775E+05
       154   5  1.063658E+05 -1.660688E+06 -2.821415E+05 -9.450185E+03  5.411235E+03  2.588293E+05
       154   6 -4.811438E+05 -1.756578E+06 -6.287173E+05  3.364181E+04  2.393483E+03  4.122944E+05
       154   7 -4.753462E+04 -1.978897E+06 -2.623624E+05 -6.207159E+03  2.861997E+03  1.041388E+05
       154   8  3.719096E+04 -1.937764E+06 -3.507561E+05  1.046421E+04  5.419878E+03  2.588610E+05
       154   9 -5.639958E+05 -2.088372E+06 -7.115195E+05  1.127555E+05  2.448055E+03  4.135826E+05
       154  10  6.421188E+04 -1.533529E+06 -1.515789E+05  7.239993E+04  7.614843E-10  1.494783E-10
       154  11  1.755184E+05 -1.383614E+06 -2.136586E+05 -2.937466E+04  2.938235E-09  1.825074E-09
       154  12 -3.983219E+05 -1.424852E+06 -5.462382E+05 -4.551508E+04 -5.126154E-10  5.881315E-10
       154  13  8.336142E+03 -1.756243E+06 -2.069794E+05  3.308920E+04  9.267586E-10 -8.069053E-10
       154  14  1.063477E+05 -1.660760E+06 -2.822678E+05 -9.451315E+03  7.225266E-10  1.402855E-09
       154  15 -4.811896E+05 -1.756761E+06 -6.290377E+05  3.364102E+04  1.854098E-09 -4.197167E-10
       154  16 -4.753755E+04 -1.978908E+06 -2.623828E+05 -6.207399E+03  1.840058E-09  8.762123E-10
       154  17  3.717287E+04 -1.937836E+06 -3.508824E+05  1.046308E+04  3.068783E-09 -1.522854E-10
       154  18 -5.640419E+05 -2.088556E+06 -7.118420E+05  1.127547E+05  4.744655E-10  1.004276E-10
       154  19  6.421495E+04 -1.533516E+06 -1.515575E+05  7.240017E+04 -2.879671E+03 -1.066166E+05
       154  20  1.755365E+05 -1.383542E+06 -2.135324E+05 -2.937353E+04 -5.402598E+03 -2.587976E+05
       154  21 -3.982765E+05 -1.424670E+06 -5.459200E+05 -4.551430E+04 -2.339266E+03 -4.110055E+05
       154  22  8.339143E+03 -1.756231E+06 -2.069585E+05  3.308944E+04 -2.870757E+03 -1.053775E+05
       154  23  1.063658E+05 -1.660688E+06 -2.821415E+05 -9.450185E+03 -5.411235E+03 -2.588293E+05
       154  24 -4.811438E+05 -1.756578E+06 -6.287173E+05  3.364181E+04 -2.393483E+03 -4.122944E+05
       154  25 -4.753462E+04 -1.978897E+06 -2.623624E+05 -6.207159E+03 -2.861997E+03 -1.041388E+05
       154  26  3.719096E+04 -1.937764E+06 -3.507561E+05  1.046421E+04 -5.419878E+03 -2.588610E+05
       154  27 -5.639958E+05 -2.088372E+06 -7.115195E+05  1.127555E+05 -2.448055E+03 -4.135826E+05
       155   1  1.848288E+06  1.180587E+06  2.814744E+05  1.259480E+06  1.644998E+05  1.238707E+05
       155   2  1.744623E+06  9.648195E+05  1.112506E+05  1.369883E+06  1.073685E+05  8.212263E+04
       155   3  1.826004E+06  9.791011E+05  6.816064E+04  1.364716E+06  5.094119E+04  3.942953E+04
       155   4  1.946234E+06  1.187559E+06  3.023318E+05  1.279035E+06  1.648017E+05  1.240811E+05
       155   5  1.810378E+06  9.952314E+05  1.302328E+05  1.394854E+06  1.074290E+05  8.216522E+04
       155   6  1.859603E+06  1.032982E+06  8.545839E+04  1.395109E+06  5.076466E+04  3.929967E+04
       155   7  2.044193E+06  1.194533E+06  3.231894E+05  1.298590E+06  1.651036E+05  1.242915E+05
       155   8  1.876138E+06  1.025644E+06  1.492145E+05  1.419828E+06  1.074895E+05  8.220782E+04
       155   9  1.893203E+06  1.086867E+06  1.027560E+05  1.425504E+06  5.058813E+04  3.916978E+04
       155  10  1.848255E+06  1.180563E+06  2.813951E+05  1.259464E+06  5.015687E-10  9.362658E-11
       155  11  1.744609E+06  9.648092E+05  1.112164E+05  1.369876E+06 -7.134428E-10 -5.433935E-11
       155  12  1.826001E+06  9.790987E+05  6.815287E+04  1.364715E+06 -5.557592E-10 -2.340609E-10
       155  13  1.946201E+06  1.187535E+06  3.022522E+05  1.279018E+06 -3.007704E-10 -3.159576E-10
       155  14  1.810364E+06  9.952211E+05  1.301985E+05  1.394847E+06 -1.653147E-09 -4.351973E-10
       155  15  1.859600E+06  1.032979E+06  8.545068E+04  1.395107E+06 -2.690147E-09 -6.581096E-11
       155  16  2.044160E+06  1.194509E+06  3.231095E+05  1.298574E+06  9.141327E-10 -4.664929E-10
       155  17  1.876123E+06  1.025634E+06  1.491803E+05  1.419821E+06 -1.259619E-09 -1.774538E-09
       155  18  1.893200E+06  1.086865E+06  1.027483E+05  1.425503E+06 -1.651951E-09  4.100692E-10
       155  19  1.848288E+06  1.180587E+06  2.814744E+05  1.259480E+06 -1.644998E+05 -1.238707E+05
       155  20  1.744623E+06  9.648195E+05  1.112506E+05  1.369883E+06 -1.073685E+05 -8.212263E+04
       155  21  1.826004E+06  9.791011E+05  6.816064E+04  1.364716E+06 -5.094119E+04 -3.942953E+04
       155  22  1.946234E+06  1.187559E+06  3.023318E+05  1.279035E+06 -1.648017E+05 -1.240811E+05
       155  23  1.810378E+06  9.952314E+05  1.302328E+05  1.394854E+06 -1.074290E+05 -8.216522E+04
       155  24  1.859603E+06  1.032982E+06  8.545839E+04  1.395109E+06 -5.076466E+04 -3.929967E+04
       155  25  2.044193E+06  1.194533E+06  3.231894E+05  1.298590E+06 -1.651036E+05 -1.242915E+05
       155  26  1.876138E+06  1.025644E+06  1.492145E+05  1.419828E+06 -1.074895E+05 -8.220782E+04
       155  27  1.893203E+06  1.086867E+06  1.027560E+05  1.425504E+06 -5.058813E+04 -3.916978E+04
       156   1  1.824158E+06  1.035132E+06  5.960502E+04  1.351716E+06  3.969823E+04  3.061912E+04
       156   2  1.808775E+06  1.009364E+06  2.600673E+04  1.369609E+06  2.464165E+04  1.927224E+04
       156   3  1.827326E+06  1.011356E+06  1.649532E+04  1.369343E+06  9.659814E+03  7.825921E+03
       156   4  1.863171E+06  1.054295E+06  7.110399E+04  1.367043E+06  3.970162E+04  3.062114E+04
       156   5  1.840188E+06  1.029667E+06  3.622536E+04  1.384192E+06  2.461980E+04  1.925579E+04
       156   6  1.851143E+06  1.032803E+06  2.545396E+04  1.383183E+06  9.612963E+03  7.790908E+03
       156   7  1.902186E+06  1.073458E+06  8.260279E+04  1.382370E+06  3.970502E+04  3.062316E+04
       156   8  1.871602E+06  1.049970E+06  4.644385E+04  1.398776E+06  2.459795E+04  1.923935E+04
       156   9  1.874961E+06  1.054251E+06  3.441251E+04  1.397024E+06  9.566110E+03  7.755892E+03
       156  10  1.824156E+06  1.035130E+06  5.960032E+04  1.351715E+06 -3.834462E-10 -1.317759E-09
       156  11  1.808774E+06  1.009363E+06  2.600490E+04  1.369608E+06  1.727991E-09 -2.049676E-09
       156  12  1.827326E+06  1.011356E+06  1.649503E+04  1.369343E+06  1.775607E-10 -6.657752E-10
       156  13  1.863169E+06  1.054293E+06  7.109929E+04  1.367042E+06 -2.757857E-09 -9.463637E-10
       156  14  1.840187E+06  1.029666E+06  3.622353E+04  1.384192E+06 -5.240256E-09 -2.091150E-09
       156  15  1.851143E+06  1.032803E+06  2.545367E+04  1.383183E+06  1.348688E-09 -1.893068E-10
       156  16  1.902184E+06  1.073456E+06  8.259809E+04  1.382370E+06 -9.837852E-10 -3.987766E-10
       156  17  1.871602E+06  1.049970E+06  4.644202E+04  1.398776E+06 -1.932845E-09 -2.862390E-09
       156  18  1.874961E+06  1.054251E+06  3.441222E+04  1.397024E+06 -1.136405E-09  6.971628E-11
       156  19  1.824158E+06  1.035132E+06  5.960502E+04  1.351716E+06 -3.969823E+04 -3.061912E+04
       156  20  1.808775E+06  1.009364E+06  2.600673E+04  1.369609E+06 -2.464165E+04 -1.927224E+04
       156  21  1.827326E+06  1.011356E+06  1.649532E+04  1.369343E+06 -9.659814E+03 -7.825921E+03
       156  22  1.863171E+06  1.054295E+06  7.110399E+04  1.367043E+06 -3.970162E+04 -3.062114E+04
       156  23  1.840188E+06  1.029667E+06  3.622536E+04  1.384192E+06 -2.461980E+04 -1.925579E+04
       156  24  1.851143E+06  1.032803E+06  2.545396E+04  1.383183E+06 -9.612963E+03 -7.790908E+03
       156  25  1.902186E+06  1.073458E+06  8.260279E+04  1.382370E+06 -3.970502E+04 -3.062316E+04
       156  26  1.871602E+06  1.049970E+06  4.644385E+04  1.398776E+06 -2.459795E+04 -1.923935E+04
       156  27  1.874961E+06  1.054251E+06  3.441251E+04  1.397024E+06 -9.566110E+03 -7.755892E+03
       157   1  1.837145E+06  1.027271E+06  1.816422E+04  1.373731E+06  6.243120E+03  5.117811E+03
       157   2  1.834199E+06  1.026528E+06  1.537394E+04  1.378015E+06 -1.313127E+03 -7.228522E+02
       157   3  1.846032E+06  1.030162E+06  2.236398E+04  1.375812E+06 -8.872095E+03 -6.560056E+03
       157   4  1.851298E+06  1.035481E+06  2.257223E+04  1.379872E+06  6.214589E+03  5.096431E+03
       157   5  1.844066E+06  1.033575E+06  1.871685E+04  1.382904E+06 -1.341004E+03 -7.437246E+02
       157   6  1.851613E+06  1.036044E+06  2.464104E+04  1.379449E+06 -8.899226E+03 -6.580394E+03
       157   7  1.865452E+06  1.043691E+06  2.698023E+04  1.386014E+06  6.186058E+03  5.075050E+03
       157   8  1.853933E+06  1.040622E+06  2.205974E+04  1.387792E+06 -1.368882E+03 -7.645973E+02
       157   9  1.857194E+06  1.041927E+06  2.691809E+04  1.383085E+06 -8.926357E+03 -6.600732E+03
       157  10  1.837145E+06  1.027271E+06  1.816410E+04  1.373731E+06  9.156236E-10  1.373615E-09
       157  11  1.834199E+06  1.026528E+06  1.537394E+04  1.378015E+06  5.175177E-10 -5.784249E-11
       157  12  1.846032E+06  1.030161E+06  2.236376E+04  1.375812E+06 -1.606592E-09 -9.641593E-10
       157  13  1.851298E+06  1.035481E+06  2.257211E+04  1.379872E+06  5.050009E-10  9.788407E-10
       157  14  1.844066E+06  1.033575E+06  1.871685E+04  1.382904E+06 -4.106486E-09 -4.335596E-10
       157  15  1.851613E+06  1.036044E+06  2.464082E+04  1.379449E+06  1.607392E-09 -6.179063E-10
       157  16  1.865452E+06  1.043691E+06  2.698011E+04  1.386013E+06  5.280949E-10  9.816230E-10
       157  17  1.853933E+06  1.040622E+06  2.205974E+04  1.387792E+06  1.031348E-10  3.217285E-10
       157  18  1.857194E+06  1.041927E+06  2.691786E+04  1.383085E+06 -2.353572E-10 -7.714138E-10
       157  19  1.837145E+06  1.027271E+06  1.816422E+04  1.373731E+06 -6.243120E+03 -5.117811E+03
       157  20  1.834199E+06  1.026528E+06  1.537394E+04  1.378015E+06  1.313127E+03  7.228522E+02
       157  21  1.846032E+06  1.030162E+06  2.236398E+04  1.375812E+06  8.872095E+03  6.560056E+03
       157  22  1.851298E+06  1.035481E+06  2.257223E+04  1.379872E+06 -6.214589E+03 -5.096431E+03
       157  23  1.844066E+06  1.033575E+06  1.871685E+04  1.382904E+06  1.341004E+03  7.437246E+02
       157  24  1.851613E+06  1.036044E+06  2.464104E+04  1.379449E+06  8.899226E+03  6.580394E+03
       157  25  1.865452E+06  1.043691E+06  2.698023E+04  1.386014E+06 -6.186058E+03 -5.075050E+03
       157  26  1.853933E+06  1.040622E+06  2.205974E+04  1.387792E+06  1.368882E+03  7.645973E+02
       157  27  1.857194E+06  1.041927E+06  2.691809E+04  1.383085E+06  8.926357E+03  6.600732E+03
       158   1  1.853466E+06  1.040058E+06  3.035778E+04  1.387305E+06 -1.263918E+04 -9.507355E+03
       158   2  1.849673E+06  1.032985E+06  4.486226E+04  1.388226E+06 -3.007636E+04 -2.275944E+04
       158   3  1.883049E+06  1.061108E+06  8.748621E+04  1.368587E+06 -4.756181E+04 -3.594803E+04
       158   4  1.851083E+06  1.033062E+06  2.849223E+04  1.383690E+06 -1.267722E+04 -9.535735E+03
       158   5  1.839649E+06  1.028247E+06  4.194651E+04  1.384374E+06 -3.009866E+04 -2.277625E+04
       158   6  1.865381E+06  1.058625E+06  8.350718E+04  1.364497E+06 -4.756809E+04 -3.595346E+04
       158   7  1.848699E+06  1.026067E+06  2.662668E+04  1.380075E+06 -1.271527E+04 -9.564114E+03
       158   8  1.829625E+06  1.023510E+06  3.903074E+04  1.380521E+06 -3.012097E+04 -2.279306E+04
       158   9  1.847714E+06  1.056143E+06  7.952815E+04  1.360407E+06 -4.757436E+04 -3.595889E+04
       158  10  1.853466E+06  1.040058E+06  3.035731E+04  1.387305E+06 -2.293013E-09 -7.357160E-10
       158  11  1.849672E+06  1.032984E+06  4.485960E+04  1.388225E+06 -3.304371E-09  5.762738E-10
       158  12  1.883046E+06  1.061106E+06  8.747956E+04  1.368585E+06  1.041940E-10  6.295481E-10
       158  13  1.851082E+06  1.033062E+06  2.849176E+04  1.383690E+06 -3.837536E-09 -2.221371E-10
       158  14  1.839648E+06  1.028246E+06  4.194384E+04  1.384373E+06 -8.533590E-10 -2.525705E-10
       158  15  1.865378E+06  1.058623E+06  8.350053E+04  1.364495E+06 -2.197494E-09  9.439427E-11
       158  16  1.848699E+06  1.026067E+06  2.662620E+04  1.380075E+06  5.310900E-10  2.177206E-10
       158  17  1.829624E+06  1.023509E+06  3.902807E+04  1.380521E+06  5.532874E-10  3.328184E-10
       158  18  1.847711E+06  1.056141E+06  7.952149E+04  1.360406E+06 -8.933538E-10 -3.277096E-10
       158  19  1.853466E+06  1.040058E+06  3.035778E+04  1.387305E+06  1.263918E+04  9.507355E+03
       158  20  1.849673E+06  1.032985E+06  4.486226E+04  1.388226E+06  3.007636E+04  2.275944E+04
       158  21  1.883049E+06  1.061108E+06  8.748621E+04  1.368587E+06  4.756181E+04  3.594803E+04
       158  22  1.851083E+06  1.033062E+06  2.849223E+04  1.383690E+06  1.267722E+04  9.535735E+03
       158  23  1.839649E+06  1.028247E+06  4.194651E+04  1.384374E+06  3.009866E+04  2.277625E+04
       158  24  1.865381E+06  1.058625E+06  8.350718E+04  1.364497E+06  4.756809E+04  3.595346E+04
       158  25  1.848699E+06  1.026067E+06  2.662668E+04  1.380075E+06  1.271527E+04  9.564114E+03
       158  26  1.829625E+06  1.023510E+06  3.903074E+04  1.380521E+06  3.012097E+04  2.279306E+04
       158  27  1.847714E+06  1.056143E+06  7.952815E+04  1.360407E+06  4.757436E+04  3.595889E+04
       159   1  1.865100E+06  1.072406E+06  1.090735E+05  1.416272E+06 -6.056992E+04 -4.594319E+04
       159   2  1.845034E+06  9.961625E+05  1.633962E+05  1.407729E+06 -1.276760E+05 -9.647713E+04
       159   3  2.038797E+06  1.196404E+06  3.681503E+05  1.264081E+06 -1.951836E+05 -1.464704E+05
       159   4  1.860730E+06  1.033867E+06  1.005849E+05  1.397809E+06 -6.067849E+04 -4.602120E+04
       159   5  1.804966E+06  9.869698E+05  1.536745E+05  1.396812E+06 -1.276493E+05 -9.646091E+04
       159   6  1.963006E+06  1.216539E+06  3.570880E+05  1.260708E+06 -1.950158E+05 -1.463668E+05
       159   7  1.856361E+06  9.953305E+05  9.209642E+04  1.379347E+06 -6.078707E+04 -4.609920E+04
       159   8  1.764899E+06  9.777772E+05  1.439528E+05  1.385896E+06 -1.276227E+05 -9.644470E+04
       159   9  1.887224E+06  1.236677E+06  3.460267E+05  1.257334E+06 -1.948481E+05 -1.462631E+05
       159  10  1.865096E+06  1.072403E+06  1.090627E+05  1.416269E+06 -1.563035E-09 -1.131832E-10
       159  11  1.845014E+06  9.961482E+05  1.633483E+05  1.407720E+06 -1.008185E-09 -5.024037E-10
       159  12  2.038751E+06  1.196371E+06  3.680389E+05  1.264058E+06  8.555967E-10 -4.322972E-10
       159  13  1.860726E+06  1.033863E+06  1.005740E+05  1.397807E+06  6.675974E-11 -2.523877E-10
       159  14  1.804946E+06  9.869555E+05  1.536266E+05  1.396803E+06  8.086258E-10 -5.876505E-10
       159  15  1.962960E+06  1.216506E+06  3.569768E+05  1.260685E+06  5.551560E-10 -3.257206E-10
       159  16  1.856356E+06  9.953272E+05  9.208553E+04  1.379345E+06 -2.418756E-09 -9.159989E-10
       159  17  1.764879E+06  9.777629E+05  1.439049E+05  1.385886E+06  9.676720E-11 -5.323815E-10
       159  18  1.887178E+06  1.236644E+06  3.459157E+05  1.257312E+06 -4.961370E-10  3.856732E-10
       159  19  1.865100E+06  1.072406E+06  1.090735E+05  1.416272E+06  6.056992E+04  4.594319E+04
       159  20  1.845034E+06  9.961625E+05  1.633962E+05  1.407729E+06  1.276760E+05  9.647713E+04
       159  21  2.038797E+06  1.196404E+06  3.681503E+05  1.264081E+06  1.951836E+05  1.464704E+05
       159  22  1.860730E+06  1.033867E+06  1.005849E+05  1.397809E+06  6.067849E+04  4.602120E+04
       159  23  1.804966E+06  9.869698E+05  1.536745E+05  1.396812E+06  1.276493E+05  9.646091E+04
       159  24  1.963006E+06  1.216539E+06  3.570880E+05  1.260708E+06  1.950158E+05  1.463668E+05
       159  25  1.856361E+06  9.953305E+05  9.209642E+04  1.379347E+06  6.078707E+04  4.609920E+04
       159  26  1.764899E+06  9.777772E+05  1.439528E+05  1.385896E+06  1.276227E+05  9.644470E+04
       159  27  1.887224E+06  1.236677E+06  3.460267E+05  1.257334E+06  1.948481E+05  1.462631E+05
       160   1  2.727789E+06  2.393870E+05  3.029787E+05  4.286663E+04  1.871208E+05 -6.487852E+02
       160   2  2.674092E+06 -2.182141E+04  1.438261E+05  7.341619E+03  1.213817E+05 -1.727307E+03
       160   3  2.703069E+06  1.369587E+04  1.015376E+05 -8.677674E+03  5.564361E+04 -1.161466E+03
       160   4  2.617987E+06  2.120519E+05  2.757134E+05  8.064079E+03  1.866418E+05 -6.591650E+02
       160   5  2.576816E+06 -4.601531E+04  1.198485E+05 -1.704281E+03  1.213078E+05 -1.729082E+03
       160   6  2.618263E+06 -7.404119E+03  8.058165E+04  8.030864E+03  5.597336E+04 -1.159957E+03
       160   7  2.508198E+06  1.847204E+05  2.484479E+05 -2.673234E+04  1.861630E+05 -6.694929E+02
       160   8  2.479550E+06 -7.020960E+04  9.587029E+04 -1.074877E+04  1.212338E+05 -1.730856E+03
       160   9  2.533464E+06 -2.850359E+04  5.962536E+04  2.473713E+04  5.630307E+04 -1.158430E+03
       160  10  2.727751E+06  2.393776E+05  3.029132E+05  4.286673E+04  2.922059E-10 -1.786263E-10
       160  11  2.674076E+06 -2.182535E+04  1.437985E+05  7.341788E+03  1.084067E-09  1.458740E-10
       160  12  2.703066E+06  1.369504E+04  1.015318E+05 -8.677622E+03  2.169878E-09  1.123966E-09
       160  13  2.617949E+06  2.120426E+05  2.756482E+05  8.064178E+03 -9.181812E-10  1.334161E-10
       160  14  2.576801E+06 -4.601924E+04  1.198210E+05 -1.704112E+03 -3.613275E-09 -4.305854E-12
       160  15  2.618260E+06 -7.404957E+03  8.057578E+04  8.030916E+03  3.336988E-09  3.186160E-10
       160  16  2.508161E+06  1.847112E+05  2.483830E+05 -2.673224E+04  3.032836E-10 -1.197056E-11
       160  17  2.479534E+06 -7.021353E+04  9.584278E+04 -1.074860E+04 -3.164601E-09  1.541123E-10
       160  18  2.533461E+06 -2.850444E+04  5.961942E+04  2.473718E+04 -7.048959E-10 -3.540525E-10
       160  19  2.727789E+06  2.393870E+05  3.029787E+05  4.286663E+04 -1.871208E+05  6.487852E+02
       160  20  2.674092E+06 -2.182141E+04  1.438261E+05  7.341619E+03 -1.213817E+05  1.727307E+03
       160  21  2.703069E+06  1.369587E+04  1.015376E+05 -8.677674E+03 -5.564361E+04  1.161466E+03
       160  22  2.617987E+06  2.120519E+05  2.757134E+05  8.064079E+03 -1.866418E+05  6.591650E+02
       160  23  2.576816E+06 -4.601531E+04  1.198485E+05 -1.704281E+03 -1.213078E+05  1.729082E+03
       160  24  2.618263E+06 -7.404119E+03  8.058165E+04  8.030864E+03 -5.597336E+04  1.159957E+03
       160  25  2.508198E+06  1.847204E+05  2.484479E+05 -2.673234E+04 -1.861630E+05  6.694929E+02
       160  26  2.479550E+06 -7.020960E+04  9.587029E+04 -1.074877E+04 -1.212338E+05  1.730856E+03
       160  27  2.533464E+06 -2.850359E+04  5.962536E+04  2.473713E+04 -5.630307E+04  1.158430E+03
       161   1  2.643100E+06  3.997458E+04  7.822732E+04  1.251421E+04  4.257363E+04 -6.623646E+02
       161   2  2.624964E+06 -3.154266E+02  4.637100E+04  4.460409E+01  2.216890E+04 -4.710711E+02
       161   3  2.621658E+06  8.187229E+03  3.995627E+04  4.344383E+03  1.764273E+03 -1.052064E+02
       161   4  2.603129E+06  3.003020E+04  6.836795E+04  7.428987E+03  4.259773E+04 -6.627112E+02
       161   5  2.595738E+06 -7.586506E+03  3.915971E+04 -9.542015E+02  2.223610E+04 -4.710974E+02
       161   6  2.603169E+06  3.583338E+03  3.536441E+04  7.432022E+03  1.874223E+03 -1.051759E+02
       161   7  2.563160E+06  2.008580E+04  5.850848E+04  2.344093E+03  4.262183E+04 -6.630583E+02
       161   8  2.566512E+06 -1.485765E+04  3.194834E+04 -1.952960E+03  2.230330E+04 -4.711239E+02
       161   9  2.584682E+06 -1.020544E+03  3.077253E+04  1.051957E+04  1.984169E+03 -1.051442E+02
       161  10  2.643098E+06  3.997409E+04  7.822393E+04  1.251423E+04 -1.301527E-09  5.288969E-10
       161  11  2.624964E+06 -3.155581E+02  4.637008E+04  4.461249E+01  2.839584E-10 -4.278556E-11
       161  12  2.621658E+06  8.187228E+03  3.995626E+04  4.344383E+03  5.484848E-12 -9.048882E-10
       161  13  2.603127E+06  3.002972E+04  6.836456E+04  7.429010E+03  2.065880E-09  5.610422E-10
       161  14  2.595737E+06 -7.586639E+03  3.915878E+04 -9.541930E+02 -1.278643E-09  5.263532E-10
       161  15  2.603169E+06  3.583337E+03  3.536440E+04  7.432022E+03 -1.141056E-09 -4.666006E-10
       161  16  2.563158E+06  2.008532E+04  5.850508E+04  2.344116E+03 -9.575499E-10 -8.050506E-11
       161  17  2.566512E+06 -1.485778E+04  3.194741E+04 -1.952952E+03  7.697540E-10  8.086054E-10
       161  18  2.584682E+06 -1.020545E+03  3.077252E+04  1.051957E+04 -6.326150E-10  9.722979E-11
       161  19  2.643100E+06  3.997458E+04  7.822732E+04  1.251421E+04 -4.257363E+04  6.623646E+02
       161  20  2.624964E+06 -3.154266E+02  4.637100E+04  4.460409E+01 -2.216890E+04  4.710711E+02
       161  21  2.621658E+06  8.187229E+03  3.995627E+04  4.344383E+03 -1.764273E+03  1.052064E+02
       161  22  2.603129E+06  3.003020E+04  6.836795E+04  7.428987E+03 -4.259773E+04  6.627112E+02
       161  23  2.595738E+06 -7.586506E+03  3.915971E+04 -9.542015E+02 -2.223610E+04  4.710974E+02
       161  24  2.603169E+06  3.583338E+03  3.536441E+04  7.432022E+03 -1.874223E+03  1.051759E+02
       161  25  2.563160E+06  2.008580E+04  5.850848E+04  2.344093E+03 -4.262183E+04  6.630583E+02
       161  26  2.566512E+06 -1.485765E+04  3.194834E+04 -1.952960E+03 -2.230330E+04  4.711239E+02
       161  27  2.584682E+06 -1.020544E+03  3.077253E+04  1.051957E+04 -1.984169E+03  1.051442E+02
       162   1  2.580246E+06 -2.728101E+03  3.000830E+04  1.072715E+04 -4.650922E+03  1.763782E+02
       162   2  2.561473E+06 -1.660494E+04  3.309783E+04 -2.106467E+03 -2.618961E+04  5.448968E+02
       162   3  2.558588E+06  2.195542E+04  6.327813E+04  1.930298E+03 -4.772800E+04  7.319021E+02
       162   4  2.603409E+06  3.038760E+03  3.575423E+04  7.454521E+03 -4.539518E+03  1.764243E+02
       162   5  2.595438E+06 -8.154563E+03  4.147910E+04 -9.821562E+02 -2.612297E+04  5.448578E+02
       162   6  2.603362E+06  3.309536E+04  7.432457E+04  7.451426E+03 -4.770649E+04  7.314787E+02
       162   7  2.626572E+06  8.805620E+03  4.150013E+04  4.181769E+03 -4.428110E+03  1.764693E+02
       162   8  2.629404E+06  2.957317E+02  4.986029E+04  1.422154E+02 -2.605632E+04  5.448190E+02
       162   9  2.648138E+06  4.423528E+04  8.537088E+04  1.297295E+04 -4.768498E+04  7.310558E+02
       162  10  2.580246E+06 -2.728107E+03  3.000826E+04  1.072715E+04  1.407001E-09 -4.719206E-10
       162  11  2.561472E+06 -1.660512E+04  3.309654E+04 -2.106455E+03 -2.415323E-10  5.037928E-10
       162  12  2.558586E+06  2.195481E+04  6.327386E+04  1.930326E+03  1.690475E-10  1.724330E-10
       162  13  2.603409E+06  3.038754E+03  3.575419E+04  7.454521E+03 -1.594393E-10 -3.987907E-10
       162  14  2.595437E+06 -8.154746E+03  4.147782E+04 -9.821448E+02  4.486418E-10  2.054433E-10
       162  15  2.603360E+06  3.309476E+04  7.432031E+04  7.451454E+03 -6.284967E-10 -2.116540E-10
       162  16  2.626572E+06  8.805615E+03  4.150009E+04  4.181770E+03  7.198613E-10 -4.930190E-10
       162  17  2.629403E+06  2.955501E+02  4.985902E+04  1.422268E+02 -8.445636E-10  3.278099E-10
       162  18  2.648136E+06  4.423467E+04  8.536662E+04  1.297298E+04  4.851989E-10  7.137613E-11
       162  19  2.580246E+06 -2.728101E+03  3.000830E+04  1.072715E+04  4.650922E+03 -1.763782E+02
       162  20  2.561473E+06 -1.660494E+04  3.309783E+04 -2.106467E+03  2.618961E+04 -5.448968E+02
       162  21  2.558588E+06  2.195542E+04  6.327813E+04  1.930298E+03  4.772800E+04 -7.319021E+02
       162  22  2.603409E+06  3.038760E+03  3.575423E+04  7.454521E+03  4.539518E+03 -1.764243E+02
       162  23  2.595438E+06 -8.154563E+03  4.147910E+04 -9.821562E+02  2.612297E+04 -5.448578E+02
       162  24  2.603362E+06  3.309536E+04  7.432457E+04  7.451426E+03  4.770649E+04 -7.314787E+02
       162  25  2.626572E+06  8.805620E+03  4.150013E+04  4.181769E+03  4.428110E+03 -1.764693E+02
       162  26  2.629404E+06  2.957317E+02  4.986029E+04  1.422154E+02  2.605632E+04 -5.448190E+02
       162  27  2.648138E+06  4.423528E+04  8.537088E+04  1.297295E+04  4.768498E+04 -7.310558E+02
       163   1  2.529985E+06 -3.070255E+04  6.573374E+04  2.648411E+04 -6.262257E+04  1.241936E+03
       163   2  2.471710E+06 -7.620459E+04  1.062922E+05 -1.175156E+04 -1.339705E+05  1.830367E+03
       163   3  2.504280E+06  2.047191E+05  2.748023E+05 -3.014846E+04 -2.053143E+05  7.135537E+02
       163   4  2.620106E+06 -8.278733E+03  8.800356E+04  8.102483E+03 -6.228165E+04  1.243794E+03
       163   5  2.574504E+06 -5.063583E+04  1.316333E+05 -1.795293E+03 -1.340521E+05  1.828213E+03
       163   6  2.619802E+06  2.334738E+05  3.034908E+05  8.146317E+03 -2.058199E+05  7.010216E+02
       163   7  2.710234E+06  1.414574E+04  1.102730E+05 -1.028180E+04 -6.194068E+04  1.245632E+03
       163   8  2.677308E+06 -2.506748E+04  1.569737E+05  8.162621E+03 -1.341337E+05  1.826056E+03
       163   9  2.735340E+06  2.622329E+05  3.321791E+05  4.644820E+04 -2.063257E+05  6.884293E+02
       163  10  2.529981E+06 -3.070360E+04  6.572640E+04  2.648417E+04  5.661742E-10 -4.180994E-10
       163  11  2.471691E+06 -7.620938E+04  1.062586E+05 -1.175136E+04 -7.947045E-10 -2.364431E-10
       163  12  2.504235E+06  2.047079E+05  2.747234E+05 -3.014834E+04  7.675013E-10 -1.225366E-10
       163  13  2.620102E+06 -8.279770E+03  8.799630E+04  8.102545E+03 -6.752262E-10 -4.058280E-10
       163  14  2.574485E+06 -5.064063E+04  1.315997E+05 -1.795096E+03 -2.145437E-09 -1.740319E-10
       163  15  2.619757E+06  2.334625E+05  3.034115E+05  8.146433E+03 -8.004983E-10 -3.491295E-11
       163  16  2.710230E+06  1.414472E+04  1.102658E+05 -1.028174E+04  2.466776E-10 -5.800171E-10
       163  17  2.677288E+06 -2.507229E+04  1.569400E+05  8.162818E+03  8.739710E-11 -5.427722E-10
       163  18  2.735294E+06  2.622215E+05  3.320995E+05  4.644831E+04  1.001712E-09 -1.587450E-10
       163  19  2.529985E+06 -3.070255E+04  6.573374E+04  2.648411E+04  6.262257E+04 -1.241936E+03
       163  20  2.471710E+06 -7.620459E+04  1.062922E+05 -1.175156E+04  1.339705E+05 -1.830367E+03
       163  21  2.504280E+06  2.047191E+05  2.748023E+05 -3.014846E+04  2.053143E+05 -7.135537E+02
       163  22  2.620106E+06 -8.278733E+03  8.800356E+04  8.102483E+03  6.228165E+04 -1.243794E+03
       163  23  2.574504E+06 -5.063583E+04  1.316333E+05 -1.795293E+03  1.340521E+05 -1.828213E+03
       163  24  2.619802E+06  2.334738E+05  3.034908E+05  8.146317E+03  2.058199E+05 -7.010216E+02
       163  25  2.710234E+06  1.414574E+04  1.102730E+05 -1.028180E+04  6.194068E+04 -1.245632E+03
       163  26  2.677308E+06 -2.506748E+04  1.569737E+05  8.162621E+03  1.341337E+05 -1.826056E+03
       163  27  2.735340E+06  2.622329E+05  3.321791E+05  4.644820E+04  2.063257E+05 -6.884293E+02
       164   1 -3.811528E+05 -1.040118E+06 -4.830990E+05  6.773065E+04 -1.216682E+03 -2.875901E+05
       164   2  3.103080E+04 -9.538102E+05 -2.369156E+05  1.100923E+04 -3.129148E+03 -1.809724E+05
       164   3 -3.132382E+04 -9.999771E+05 -1.788067E+05 -1.440958E+04 -2.129237E+03 -7.435446E+04
       164   4 -3.335208E+05 -8.494931E+05 -4.355649E+05  1.274494E+04 -1.190895E+03 -2.868258E+05
       164   5  7.359102E+04 -7.832783E+05 -1.947153E+05 -2.963339E+03 -3.124950E+03 -1.808804E+05
       164   6  6.346175E+03 -8.493859E+05 -1.414326E+05  1.263624E+04 -2.132870E+03 -7.493833E+04
       164   7 -2.858801E+05 -6.588285E+05 -3.880319E+05 -4.225769E+04 -1.165250E+03 -2.860613E+05
       164   8  1.161498E+05 -6.127194E+05 -1.525170E+05 -1.693976E+04 -3.120758E+03 -1.807884E+05
       164   9  4.401722E+04 -6.987726E+05 -1.040598E+05  3.968863E+04 -2.136553E+03 -7.552234E+04
       164  10 -3.811751E+05 -1.040207E+06 -4.832547E+05  6.773037E+04  1.953786E-09 -1.806334E-10
       164  11  3.102198E+04 -9.538455E+05 -2.369773E+05  1.100878E+04 -4.309690E-11 -8.859125E-10
       164  12 -3.132532E+04 -9.999830E+05 -1.788171E+05 -1.440971E+04  4.500824E-10 -1.821837E-09
       164  13 -3.335429E+05 -8.495816E+05 -4.357197E+05  1.274466E+04  1.531836E-09  2.645396E-10
       164  14  7.358221E+04 -7.833135E+05 -1.947769E+05 -2.963795E+03 -4.495471E-10  3.478066E-11
       164  15  6.344659E+03 -8.493920E+05 -1.414432E+05  1.263611E+04  1.829621E-09 -3.086890E-10
       164  16 -2.859021E+05 -6.589165E+05 -3.881859E+05 -4.225796E+04  3.754503E-10  2.219447E-10
       164  17  1.161410E+05 -6.127546E+05 -1.525785E+05 -1.694022E+04 -5.043390E-10  1.498637E-09
       164  18  4.401568E+04 -6.987788E+05 -1.040706E+05  3.968850E+04  1.539842E-09  1.305018E-09
       164  19 -3.811528E+05 -1.040118E+06 -4.830990E+05  6.773065E+04  1.216682E+03  2.875901E+05
       164  20  3.103080E+04 -9.538102E+05 -2.369156E+05  1.100923E+04  3.129148E+03  1.809724E+05
       164  21 -3.132382E+04 -9.999771E+05 -1.788067E+05 -1.440958E+04  2.129237E+03  7.435446E+04
       164  22 -3.335208E+05 -8.494931E+05 -4.355649E+05  1.274494E+04  1.190895E+03  2.868258E+05
       164  23  7.359102E+04 -7.832783E+05 -1.947153E+05 -2.963339E+03  3.124950E+03  1.808804E+05
       164  24  6.346175E+03 -8.493859E+05 -1.414326E+05  1.263624E+04  2.132870E+03  7.493833E+04
       164  25 -2.858801E+05 -6.588285E+05 -3.880319E+05 -4.225769E+04  1.165250E+03  2.860613E+05
       164  26  1.161498E+05 -6.127194E+05 -1.525170E+05 -1.693976E+04  3.120758E+03  1.807884E+05
       164  27  4.401722E+04 -6.987726E+05 -1.040598E+05  3.968863E+04  2.136553E+03  7.552234E+04
       165   1 -6.312438E+04 -8.978513E+05 -1.434637E+05  2.395509E+04 -1.214853E+03 -5.088671E+04
       165   2  8.031247E+03 -8.575502E+05 -1.044674E+05 -3.325212E+03 -7.728531E+02 -2.515928E+03
       165   3 -5.003492E+04 -8.559281E+05 -1.293047E+05  2.246554E+03 -1.595385E+02  4.585627E+04
       165   4 -4.585380E+04 -8.286004E+05 -1.263209E+05  1.303559E+04 -1.214009E+03 -5.096582E+04
       165   5  2.008936E+04 -8.092651E+05 -9.250489E+04 -3.389242E+03 -7.729498E+02 -2.632365E+03
       165   6 -4.317761E+04 -8.285999E+05 -1.224925E+05  1.303820E+04 -1.588874E+02  4.570088E+04
       165   7 -2.858313E+04 -7.593449E+05 -1.091785E+05  2.114872E+03 -1.213163E+03 -5.104493E+04
       165   8  3.214731E+04 -7.609778E+05 -8.054258E+04 -3.453278E+03 -7.730465E+02 -2.748812E+03
       165   9 -3.631991E+04 -8.012707E+05 -1.156803E+05  2.383032E+04 -1.582418E+02  4.554547E+04
       165  10 -6.312508E+04 -8.978541E+05 -1.434686E+05  2.395504E+04 -5.381628E-10  2.362587E-09
       165  11  8.031244E+03 -8.575502E+05 -1.044674E+05 -3.325214E+03  1.557569E-09  3.302788E-09
       165  12 -5.003549E+04 -8.559304E+05 -1.293086E+05  2.246560E+03 -8.928681E-10  5.288863E-10
       165  13 -4.585450E+04 -8.286032E+05 -1.263258E+05  1.303554E+04  7.177398E-10  8.929080E-10
       165  14  2.008936E+04 -8.092651E+05 -9.250490E+04 -3.389244E+03  2.775483E-09  1.371714E-10
       165  15 -4.317817E+04 -8.286021E+05 -1.224964E+05  1.303821E+04  1.554843E-09 -4.052218E-10
       165  16 -2.858383E+04 -7.593477E+05 -1.091834E+05  2.114822E+03  4.739907E-10 -2.290212E-09
       165  17  3.214730E+04 -7.609779E+05 -8.054260E+04 -3.453280E+03  1.933277E-10 -1.924732E-09
       165  18 -3.632047E+04 -8.012729E+05 -1.156842E+05  2.383033E+04  3.710125E-10 -1.110227E-09
       165  19 -6.312438E+04 -8.978513E+05 -1.434637E+05  2.395509E+04  1.214853E+03  5.088671E+04
       165  20  8.031247E+03 -8.575502E+05 -1.044674E+05 -3.325212E+03  7.728531E+02  2.515928E+03
       165  21 -5.003492E+04 -8.559281E+05 -1.293047E+05  2.246554E+03  1.595385E+02 -4.585627E+04
       165  22 -4.585380E+04 -8.286004E+05 -1.263209E+05  1.303559E+04  1.214009E+03  5.096582E+04
       165  23  2.008936E+04 -8.092651E+05 -9.250489E+04 -3.389242E+03  7.729498E+02  2.632365E+03
       165  24 -4.317761E+04 -8.285999E+05 -1.224925E+05  1.303820E+04  1.588874E+02 -4.570088E+04
       165  25 -2.858313E+04 -7.593449E+05 -1.091785E+05  2.114872E+03  1.213163E+03  5.104493E+04
       165  26  3.214731E+04 -7.609778E+05 -8.054258E+04 -3.453278E+03  7.730465E+02  2.748812E+03
       165  27 -3.631991E+04 -8.012707E+05 -1.156803E+05  2.383032E+04  1.582418E+02 -4.554547E+04
       166   1  1.925916E+04 -7.922672E+05 -1.222795E+05  3.857131E+04  6.296229E+02  6.926922E+04
       166   2  8.883232E+04 -7.086701E+05 -1.662969E+05 -1.656378E+04  1.549936E+03  1.696040E+05
       166   3 -2.911885E+05 -7.506016E+05 -3.880600E+05 -3.891431E+04  7.422730E+02  2.699454E+05
       166   4  5.297294E+03 -8.478931E+05 -1.361233E+05  1.292705E+04  6.263832E+02  6.885800E+04
       166   5  6.977205E+04 -7.851347E+05 -1.852038E+05 -3.346238E+03  1.553566E+03  1.695931E+05
       166   6 -3.154531E+05 -8.479968E+05 -4.123268E+05  1.316254E+04  7.652556E+02  2.703314E+05
       166   7 -8.662335E+03 -9.035149E+05 -1.499669E+05 -1.271491E+04  6.231773E+02  6.844680E+04
       166   8  5.071201E+04 -8.615935E+05 -2.041111E+05  9.869674E+03  1.557196E+03  1.695822E+05
       166   9 -3.397082E+05 -9.453774E+05 -4.365929E+05  6.523121E+04  7.883062E+02  2.707173E+05
       166  10  1.925787E+04 -7.922723E+05 -1.222885E+05  3.857128E+04 -2.076838E-11  3.852836E-10
       166  11  8.882458E+04 -7.087010E+05 -1.663510E+05 -1.656399E+04 -3.236179E-10  1.374775E-09
       166  12 -2.912081E+05 -7.506800E+05 -3.881971E+05 -3.891448E+04 -1.821807E-09  4.406549E-10
       166  13  5.296019E+03 -8.478982E+05 -1.361322E+05  1.292701E+04 -9.506775E-10  8.475463E-10
       166  14  6.976432E+04 -7.851656E+05 -1.852579E+05 -3.346450E+03 -2.577405E-09 -2.785003E-12
       166  15 -3.154728E+05 -8.480753E+05 -4.124644E+05  1.316237E+04 -2.427400E-10 -3.643884E-10
       166  16 -8.663595E+03 -9.035199E+05 -1.499757E+05 -1.271495E+04  1.045145E-09 -3.503710E-10
       166  17  5.070428E+04 -8.616244E+05 -2.041652E+05  9.869462E+03  4.254417E-11 -2.582909E-10
       166  18 -3.397279E+05 -9.454563E+05 -4.367309E+05  6.523104E+04  6.893495E-10 -8.237391E-10
       166  19  1.925916E+04 -7.922672E+05 -1.222795E+05  3.857131E+04 -6.296229E+02 -6.926922E+04
       166  20  8.883232E+04 -7.086701E+05 -1.662969E+05 -1.656378E+04 -1.549936E+03 -1.696040E+05
       166  21 -2.911885E+05 -7.506016E+05 -3.880600E+05 -3.891431E+04 -7.422730E+02 -2.699454E+05
       166  22  5.297294E+03 -8.478931E+05 -1.361233E+05  1.292705E+04 -6.263832E+02 -6.885800E+04
       166  23  6.977205E+04 -7.851347E+05 -1.852038E+05 -3.346238E+03 -1.553566E+03 -1.695931E+05
       166  24 -3.154531E+05 -8.479968E+05 -4.123268E+05  1.316254E+04 -7.652556E+02 -2.703314E+05
       166  25 -8.662335E+03 -9.035149E+05 -1.499669E+05 -1.271491E+04 -6.231773E+02 -6.844680E+04
       166  26  5.071201E+04 -8.615935E+05 -2.041111E+05  9.869674E+03 -1.557196E+03 -1.695822E+05
       166  27 -3.397082E+05 -9.453774E+05 -4.365929E+05  6.523121E+04 -7.883062E+02 -2.707173E+05
       167   1  1.165616E+06  6.994947E+05  1.013817E+05  8.300328E+05  7.221675E+04  5.507507E+04
       167   2  1.119433E+06  6.144650E+05  2.815162E+04  8.838293E+05  4.656924E+04  3.753323E+04
       167   3  1.167878E+06  6.189038E+05  1.111215E+04  8.827267E+05  2.205738E+04  1.847435E+04
       167   4  1.277818E+06  7.515522E+05  1.340654E+05  8.726603E+05  7.267048E+04  5.541208E+04
       167   5  1.211236E+06  6.725105E+05  5.775528E+04  9.258357E+05  4.665202E+04  3.759470E+04
       167   6  1.239351E+06  6.830045E+05  3.794733E+04  9.241154E+05  2.177039E+04  1.825982E+04
       167   7  1.390033E+06  8.036120E+05  1.667480E+05  9.152947E+05  7.312433E+04  5.574913E+04
       167   8  1.303048E+06  7.305592E+05  8.735789E+04  9.678486E+05  4.673481E+04  3.765617E+04
       167   9  1.310829E+06  7.471100E+05  6.478160E+04  9.655098E+05  2.148336E+04  1.804524E+04
       167  10  1.165610E+06  6.994901E+05  1.013662E+05  8.300296E+05 -6.296142E-10  1.229523E-10
       167  11  1.119431E+06  6.144629E+05  2.814491E+04  8.838279E+05  2.771017E-09  3.993061E-10
       167  12  1.167878E+06  6.189033E+05  1.111060E+04  8.827263E+05  3.959158E-10  3.534757E-10
       167  13  1.277811E+06  7.515475E+05  1.340497E+05  8.726570E+05  1.441943E-09  1.834222E-10
       167  14  1.211233E+06  6.725084E+05  5.774856E+04  9.258343E+05  1.291380E-09  5.193818E-10
       167  15  1.239350E+06  6.830041E+05  3.794582E+04  9.241150E+05  2.505183E-10 -6.041200E-12
       167  16  1.390027E+06  8.036073E+05  1.667321E+05  9.152915E+05 -4.035899E-10  2.521749E-10
       167  17  1.303045E+06  7.305571E+05  8.735114E+04  9.678472E+05  3.769646E-11  4.238395E-10
       167  18  1.310828E+06  7.471095E+05  6.478012E+04  9.655095E+05  1.877609E-09 -6.028221E-10
       167  19  1.165616E+06  6.994947E+05  1.013817E+05  8.300328E+05 -7.221675E+04 -5.507507E+04
       167  20  1.119433E+06  6.144650E+05  2.815162E+04  8.838293E+05 -4.656924E+04 -3.753323E+04
       167  21  1.167878E+06  6.189038E+05  1.111215E+04  8.827267E+05 -2.205738E+04 -1.847435E+04
       167  22  1.277818E+06  7.515522E+05  1.340654E+05  8.726603E+05 -7.267048E+04 -5.541208E+04
       167  23  1.211236E+06  6.725105E+05  5.775528E+04  9.258357E+05 -4.665202E+04 -3.759470E+04
       167  24  1.239351E+06  6.830045E+05  3.794733E+04  9.241154E+05 -2.177039E+04 -1.825982E+04
       167  25  1.390033E+06  8.036120E+05  1.667480E+05  9.152947E+05 -7.312433E+04 -5.574913E+04
       167  26  1.303048E+06  7.305592E+05  8.735789E+04  9.678486E+05 -4.673481E+04 -3.765617E+04
       167  27  1.310829E+06  7.471100E+05  6.478160E+04  9.655098E+05 -2.148336E+04 -1.804524E+04
       168   1  1.189005E+06  6.599169E+05  1.489628E+04  8.880565E+05  1.708507E+04  1.410951E+04
       168   2  1.182023E+06  6.577953E+05  1.880980E+03  9.002447E+05  1.044818E+04  8.980939E+03
       168   3  1.201145E+06  6.570213E+05 -4.126347E+02  9.011383E+05  3.944928E+03  3.673517E+03
       168   4  1.240596E+06  6.927856E+05  3.160219E+04  9.117734E+05  1.708359E+04  1.410829E+04
       168   5  1.224879E+06  6.873574E+05  1.620141E+04  9.209850E+05  1.040301E+04  8.947094E+03
       168   6  1.235274E+06  6.832853E+05  1.155923E+04  9.189021E+05  3.856194E+03  3.607085E+03
       168   7  1.292189E+06  7.256554E+05  4.830777E+04  9.354924E+05  1.708211E+04  1.410707E+04
       168   8  1.267736E+06  7.169204E+05  3.052162E+04  9.417269E+05  1.035784E+04  8.913246E+03
       168   9  1.269404E+06  7.095500E+05  2.353096E+04  9.366671E+05  3.767454E+03  3.540647E+03
       168  10  1.189005E+06  6.599166E+05  1.489536E+04  8.880563E+05 -7.860398E-10  1.090420E-09
       168  11  1.182023E+06  6.577952E+05  1.880625E+03  9.002446E+05  2.605936E-09  1.345891E-09
       168  12  1.201145E+06  6.570213E+05 -4.126891E+02  9.011383E+05  1.566327E-09 -1.771338E-10
       168  13  1.240596E+06  6.927853E+05  3.160127E+04  9.117732E+05  1.185352E-09  7.097674E-10
       168  14  1.224879E+06  6.873573E+05  1.620106E+04  9.209849E+05  4.647036E-09  1.169325E-09
       168  15  1.235274E+06  6.832852E+05  1.155918E+04  9.189021E+05  6.603255E-10 -5.332454E-10
       168  16  1.292189E+06  7.256551E+05  4.830685E+04  9.354922E+05  6.180973E-10  5.954264E-10
       168  17  1.267736E+06  7.169203E+05  3.052127E+04  9.417268E+05  5.281291E-10  1.519365E-09
       168  18  1.269404E+06  7.095500E+05  2.353091E+04  9.366671E+05  3.061733E-10 -1.375963E-09
       168  19  1.189005E+06  6.599169E+05  1.489628E+04  8.880565E+05 -1.708507E+04 -1.410951E+04
       168  20  1.182023E+06  6.577953E+05  1.880980E+03  9.002447E+05 -1.044818E+04 -8.980939E+03
       168  21  1.201145E+06  6.570213E+05 -4.126347E+02  9.011383E+05 -3.944928E+03 -3.673517E+03
       168  22  1.240596E+06  6.927856E+05  3.160219E+04  9.117734E+05 -1.708359E+04 -1.410829E+04
       168  23  1.224879E+06  6.873574E+05  1.620141E+04  9.209850E+05 -1.040301E+04 -8.947094E+03
       168  24  1.235274E+06  6.832853E+05  1.155923E+04  9.189021E+05 -3.856194E+03 -3.607085E+03
       168  25  1.292189E+06  7.256554E+05  4.830777E+04  9.354924E+05 -1.708211E+04 -1.410707E+04
       168  26  1.267736E+06  7.169204E+05  3.052162E+04  9.417269E+05 -1.035784E+04 -8.913246E+03
       168  27  1.269404E+06  7.095500E+05  2.353096E+04  9.366671E+05 -3.767454E+03 -3.540647E+03
       169   1  1.225977E+06  6.788038E+05  7.417899E+03  9.133169E+05  2.469515E+03  2.280165E+03
       169   2  1.224493E+06  6.873582E+05  8.158402E+03  9.193102E+05 -9.841454E+02 -6.791903E+02
       169   3  1.240456E+06  6.875829E+05  1.355237E+04  9.191622E+05 -4.438230E+03 -3.638002E+03
       169   4  1.235253E+06  6.845305E+05  1.036165E+04  9.175011E+05  2.411917E+03  2.237034E+03
       169   5  1.226662E+06  6.889309E+05  8.898432E+03  9.203949E+05 -1.041651E+03 -7.222474E+02
       169   6  1.235516E+06  6.850015E+05  1.208861E+04  9.171475E+05 -4.495592E+03 -3.680957E+03
       169   7  1.244529E+06  6.902573E+05  1.330538E+04  9.216853E+05  2.354318E+03  2.193903E+03
       169   8  1.228830E+06  6.905036E+05  9.638461E+03  9.214797E+05 -1.099157E+03 -7.653047E+02
       169   9  1.230577E+06  6.824200E+05  1.062484E+04  9.151329E+05 -4.552952E+03 -3.723911E+03
       169  10  1.225977E+06  6.788038E+05  7.417878E+03  9.133169E+05  9.860943E-10 -7.642249E-10
       169  11  1.224493E+06  6.873582E+05  8.158399E+03  9.193102E+05  2.499116E-09 -7.513819E-11
       169  12  1.240456E+06  6.875828E+05  1.355231E+04  9.191622E+05  1.477576E-09 -1.591137E-10
       169  13  1.235253E+06  6.845305E+05  1.036163E+04  9.175011E+05  3.351484E-09 -1.467833E-09
       169  14  1.226662E+06  6.889309E+05  8.898429E+03  9.203949E+05  6.715502E-10  7.616173E-10
       169  15  1.235516E+06  6.850014E+05  1.208854E+04  9.171475E+05  2.376603E-09 -8.816547E-10
       169  16  1.244529E+06  6.902573E+05  1.330537E+04  9.216853E+05  1.115357E-09 -1.517215E-09
       169  17  1.228830E+06  6.905036E+05  9.638457E+03  9.214797E+05 -1.837607E-09  4.494804E-10
       169  18  1.230577E+06  6.824200E+05  1.062477E+04  9.151329E+05  1.096700E-09 -1.551924E-09
       169  19  1.225977E+06  6.788038E+05  7.417899E+03  9.133169E+05 -2.469515E+03 -2.280165E+03
       169  20  1.224493E+06  6.873582E+05  8.158402E+03  9.193102E+05  9.841454E+02  6.791903E+02
       169  21  1.240456E+06  6.875829E+05  1.355237E+04  9.191622E+05  4.438230E+03  3.638002E+03
       169  22  1.235253E+06  6.845305E+05  1.036165E+04  9.175011E+05 -2.411917E+03 -2.237034E+03
       169  23  1.226662E+06  6.889309E+05  8.898432E+03  9.203949E+05  1.041651E+03  7.222474E+02
       169  24  1.235516E+06  6.850015E+05  1.208861E+04  9.171475E+05  4.495592E+03  3.680957E+03
       169  25  1.244529E+06  6.902573E+05  1.330538E+04  9.216853E+05 -2.354318E+03 -2.193903E+03
       169  26  1.228830E+06  6.905036E+05  9.638461E+03  9.214797E+05  1.099157E+03  7.653047E+02
       169  27  1.230577E+06  6.824200E+05  1.062484E+04  9.151329E+05  4.552952E+03  3.723911E+03
       170   1  1.264575E+06  7.066711E+05  2.450945E+04  9.348708E+05 -6.162482E+03 -5.213273E+03
       170   2  1.262532E+06  7.124797E+05  3.371320E+04  9.395891E+05 -1.475522E+04 -1.208052E+04
       170   3  1.290223E+06  7.249481E+05  5.705269E+04  9.307424E+05 -2.347555E+04 -1.877771E+04
       170   4  1.235426E+06  6.833007E+05  1.409564E+04  9.192673E+05 -6.249398E+03 -5.278328E+03
       170   5  1.224175E+06  6.864240E+05  2.097680E+04  9.212108E+05 -1.480054E+04 -1.211449E+04
       170   6  1.242651E+06  6.961992E+05  4.195865E+04  9.095889E+05 -2.347909E+04 -1.878055E+04
       170   7  1.206278E+06  6.599309E+05  3.681677E+03  9.036646E+05 -6.336309E+03 -5.343378E+03
       170   8  1.185820E+06  6.603691E+05  8.240204E+03  9.028337E+05 -1.484586E+04 -1.214847E+04
       170   9  1.195081E+06  6.674511E+05  2.686438E+04  8.884371E+05 -2.348262E+04 -1.878339E+04
       170  10  1.264575E+06  7.066711E+05  2.450933E+04  9.348707E+05  8.554964E-10 -6.789791E-10
       170  11  1.262531E+06  7.124794E+05  3.371252E+04  9.395890E+05  3.603290E-09  6.680112E-11
       170  12  1.290222E+06  7.249476E+05  5.705099E+04  9.307420E+05 -1.769637E-09  1.022942E-09
       170  13  1.235426E+06  6.833007E+05  1.409552E+04  9.192672E+05  2.486276E-09 -8.117843E-10
       170  14  1.224175E+06  6.864238E+05  2.097612E+04  9.212107E+05  1.902981E-09  1.546660E-09
       170  15  1.242650E+06  6.961986E+05  4.195696E+04  9.095885E+05  2.814282E-09  5.676570E-10
       170  16  1.206278E+06  6.599309E+05  3.681548E+03  9.036645E+05 -2.314728E-10 -6.595843E-10
       170  17  1.185820E+06  6.603689E+05  8.239515E+03  9.028336E+05 -5.637160E-10  4.340172E-11
       170  18  1.195080E+06  6.674506E+05  2.686269E+04  8.884368E+05 -7.379707E-10  1.580757E-10
       170  19  1.264575E+06  7.066711E+05  2.450945E+04  9.348708E+05  6.162482E+03  5.213273E+03
       170  20  1.262532E+06  7.124797E+05  3.371320E+04  9.395891E+05  1.475522E+04  1.208052E+04
       170  21  1.290223E+06  7.249481E+05  5.705269E+04  9.307424E+05  2.347555E+04  1.877771E+04
       170  22  1.235426E+06  6.833007E+05  1.409564E+04  9.192673E+05  6.249398E+03  5.278328E+03
       170  23  1.224175E+06  6.864240E+05  2.097680E+04  9.212108E+05  1.480054E+04  1.211449E+04
       170  24  1.242651E+06  6.961992E+05  4.195865E+04  9.095889E+05  2.347909E+04  1.878055E+04
       170  25  1.206278E+06  6.599309E+05  3.681677E+03  9.036646E+05  6.336309E+03  5.343378E+03
       170  26  1.185820E+06  6.603691E+05  8.240204E+03  9.028337E+05  1.484586E+04  1.214847E+04
       170  27  1.195081E+06  6.674511E+05  2.686438E+04  8.884371E+05  2.348262E+04  1.878339E+04
       171   1  1.304228E+06  7.462967E+05  7.561304E+04  9.657942E+05 -2.955486E+04 -2.394796E+04
       171   2  1.293914E+06  7.188248E+05  1.050631E+05  9.664943E+05 -6.334422E+04 -4.993391E+04
       171   3  1.404343E+06  8.177383E+05  2.105270E+05  8.954048E+05 -9.820876E+04 -7.448612E+04
       171   4  1.240716E+06  6.833232E+05  5.057811E+04  9.262484E+05 -2.982834E+04 -2.415200E+04
       171   5  1.206177E+06  6.661454E+05  7.732641E+04  9.276305E+05 -6.326674E+04 -4.987684E+04
       171   6  1.292317E+06  7.752932E+05  1.797955E+05  8.572190E+05 -9.777845E+04 -7.416923E+04
       171   7  1.177208E+06  6.203546E+05  2.554249E+04  8.867079E+05 -3.010178E+04 -2.435599E+04
       171   8  1.118448E+06  6.134685E+05  4.958874E+04  8.887721E+05 -6.318929E+04 -4.981979E+04
       171   9  1.180305E+06  7.328495E+05  1.490631E+05  8.190387E+05 -9.734825E+04 -7.385237E+04
       171  10  1.304227E+06  7.462958E+05  7.561033E+04  9.657936E+05  9.577390E-10  1.587196E-09
       171  11  1.293909E+06  7.188210E+05  1.050509E+05  9.664918E+05  3.225276E-10  8.157692E-10
       171  12  1.404331E+06  8.177298E+05  2.104986E+05  8.953989E+05  8.264837E-10  7.392015E-11
       171  13  1.240715E+06  6.833223E+05  5.057536E+04  9.262478E+05  2.494675E-09  4.763076E-10
       171  14  1.206172E+06  6.661416E+05  7.731425E+04  9.276279E+05  4.185994E-09  6.403965E-10
       171  15  1.292306E+06  7.752847E+05  1.797673E+05  8.572132E+05  1.362975E-10  6.654026E-11
       171  16  1.177207E+06  6.203537E+05  2.553968E+04  8.867073E+05  1.355496E-09 -3.135529E-10
       171  17  1.118443E+06  6.134648E+05  4.957661E+04  8.887696E+05  1.917753E-09  3.966461E-10
       171  18  1.180294E+06  7.328411E+05  1.490351E+05  8.190329E+05  6.557808E-10  5.622655E-10
       171  19  1.304228E+06  7.462967E+05  7.561304E+04  9.657942E+05  2.955486E+04  2.394796E+04
       171  20  1.293914E+06  7.188248E+05  1.050631E+05  9.664943E+05  6.334422E+04  4.993391E+04
       171  21  1.404343E+06  8.177383E+05  2.105270E+05  8.954048E+05  9.820876E+04  7.448612E+04
       171  22  1.240716E+06  6.833232E+05  5.057811E+04  9.262484E+05  2.982834E+04  2.415200E+04
       171  23  1.206177E+06  6.661454E+05  7.732641E+04  9.276305E+05  6.326674E+04  4.987684E+04
       171  24  1.292317E+06  7.752932E+05  1.797955E+05  8.572190E+05  9.777845E+04  7.416923E+04
       171  25  1.177208E+06  6.203546E+05  2.554249E+04  8.867079E+05  3.010178E+04  2.435599E+04
       171  26  1.118448E+06  6.134685E+05  4.958874E+04  8.887721E+05  6.318929E+04  4.981979E+04
       171  27  1.180305E+06  7.328495E+05  1.490631E+05  8.190387E+05  9.734825E+04  7.385237E+04
       172   1  2.248949E+06  1.925830E+05  2.360192E+05  3.873107E+04  1.285428E+05 -1.108683E+03
       172   2  2.197928E+06  1.018426E+04  1.233313E+05  3.408424E+03  8.312929E+04 -2.973455E+03
       172   3  2.203694E+06  3.100954E+04  9.096835E+04  3.507491E+03  3.771606E+04 -1.948634E+03
       172   4  2.058651E+06  1.451676E+05  1.887346E+05  1.493307E+04  1.277206E+05 -1.113493E+03
       172   5  2.030385E+06 -3.151166E+04  8.201016E+04 -2.787867E+03  8.301416E+04 -2.974336E+03
       172   6  2.058799E+06 -5.060409E+03  5.513823E+04  1.491242E+04  3.830638E+04 -1.947813E+03
       172   7  1.868387E+06  9.775159E+04  1.414476E+05 -8.857658E+03  1.268986E+05 -1.118241E+03
       172   8  1.862867E+06 -7.320951E+04  4.068693E+04 -8.982488E+03  8.289906E+04 -2.975216E+03
       172   9  1.913923E+06 -4.113143E+04  1.930663E+04  2.631470E+04  3.889656E+04 -1.946970E+03
       172  10  2.248931E+06  1.925786E+05  2.359882E+05  3.873119E+04 -6.053596E-10 -1.021053E-10
       172  11  2.197921E+06  1.018240E+04  1.233184E+05  3.408622E+03  2.475171E-09 -9.222083E-10
       172  12  2.203693E+06  3.100915E+04  9.096568E+04  3.507550E+03 -9.723141E-11 -3.655291E-10
       172  13  2.058634E+06  1.451632E+05  1.887040E+05  1.493318E+04  7.718862E-10 -4.249827E-10
       172  14  2.030377E+06 -3.151351E+04  8.199724E+04 -2.787668E+03  2.343651E-09 -7.454437E-10
       172  15  2.058797E+06 -5.060806E+03  5.513548E+04  1.491248E+04 -1.346136E-09 -2.479640E-10
       172  16  1.868370E+06  9.774728E+04  1.414174E+05 -8.857544E+03  4.293528E-10 -4.305220E-10
       172  17  1.862859E+06 -7.321136E+04  4.067404E+04 -8.982289E+03  1.260097E-09 -4.397488E-10
       172  18  1.913921E+06 -4.113184E+04  1.930379E+04  2.631476E+04  7.406786E-10  8.423370E-10
       172  19  2.248949E+06  1.925830E+05  2.360192E+05  3.873107E+04 -1.285428E+05  1.108683E+03
       172  20  2.197928E+06  1.018426E+04  1.233313E+05  3.408424E+03 -8.312929E+04  2.973455E+03
       172  21  2.203694E+06  3.100954E+04  9.096835E+04  3.507491E+03 -3.771606E+04  1.948634E+03
       172  22  2.058651E+06  1.451676E+05  1.887346E+05  1.493307E+04 -1.277206E+05  1.113493E+03
       172  23  2.030385E+06 -3.151166E+04  8.201016E+04 -2.787867E+03 -8.301416E+04  2.974336E+03
       172  24  2.058799E+06 -5.060409E+03  5.513823E+04  1.491242E+04 -3.830638E+04  1.947813E+03
       172  25  1.868387E+06  9.775159E+04  1.414476E+05 -8.857658E+03 -1.268986E+05  1.118241E+03
       172  26  1.862867E+06 -7.320951E+04  4.068693E+04 -8.982488E+03 -8.289906E+04  2.975216E+03
       172  27  1.913923E+06 -4.113143E+04  1.930663E+04  2.631470E+04 -3.889656E+04  1.946970E+03
       173   1  2.109685E+06  3.581177E+04  6.188174E+04  1.761658E+04  2.910520E+04 -1.051468E+03
       173   2  2.084207E+06  4.976222E+03  3.683905E+04 -1.123438E+03  1.511732E+04 -6.669874E+02
       173   3  2.068863E+06  7.532812E+03  2.922411E+04  1.202967E+04  1.129755E+03  2.992008E+01
       173   4  2.048420E+06  2.056113E+04  4.676635E+04  1.412733E+04  2.915961E+04 -1.051618E+03
       173   5  2.043370E+06 -5.189353E+03  2.675823E+04 -1.816342E+03  1.524807E+04 -6.669572E+02
       173   6  2.048442E+06  2.440438E+03  2.412624E+04  1.413314E+04  1.336368E+03  3.001540E+01
       173   7  1.987159E+06  5.310255E+03  3.165069E+04  1.063843E+04  2.921402E+04 -1.051769E+03
       173   8  2.002535E+06 -1.535505E+04  1.667728E+04 -2.509200E+03  1.537880E+04 -6.669273E+02
       173   9  2.028021E+06 -2.651951E+03  1.902835E+04  1.623654E+04  1.542973E+03  3.011212E+01
       173  10  2.109685E+06  3.581154E+04  6.188015E+04  1.761660E+04  6.678605E-10 -1.761184E-10
       173  11  2.084207E+06  4.976161E+03  3.683862E+04 -1.123430E+03  7.988611E-10  2.318824E-10
       173  12  2.068863E+06  7.532812E+03  2.922410E+04  1.202967E+04  4.284193E-10  4.753548E-11
       173  13  2.048420E+06  2.056090E+04  4.676475E+04  1.412736E+04  2.816729E-09  6.400352E-10
       173  14  2.043370E+06 -5.189415E+03  2.675779E+04 -1.816334E+03  2.134066E-09  3.132706E-10
       173  15  2.048442E+06  2.440438E+03  2.412624E+04  1.413314E+04  1.232948E-09 -5.533146E-10
       173  16  1.987158E+06  5.310025E+03  3.164909E+04  1.063846E+04 -1.798275E-10  4.118953E-10
       173  17  2.002534E+06 -1.535511E+04  1.667684E+04 -2.509192E+03 -1.622237E-09 -7.173803E-11
       173  18  2.028021E+06 -2.651951E+03  1.902834E+04  1.623654E+04 -3.274999E-10  3.309875E-11
       173  19  2.109685E+06  3.581177E+04  6.188174E+04  1.761658E+04 -2.910520E+04  1.051468E+03
       173  20  2.084207E+06  4.976222E+03  3.683905E+04 -1.123438E+03 -1.511732E+04  6.669874E+02
       173  21  2.068863E+06  7.532812E+03  2.922411E+04  1.202967E+04 -1.129755E+03 -2.992008E+01
       173  22  2.048420E+06  2.056113E+04  4.676635E+04  1.412733E+04 -2.915961E+04  1.051618E+03
       173  23  2.043370E+06 -5.189353E+03  2.675823E+04 -1.816342E+03 -1.524807E+04  6.669572E+02
       173  24  2.048442E+06  2.440438E+03  2.412624E+04  1.413314E+04 -1.336368E+03 -3.001540E+01
       173  25  1.987159E+06  5.310255E+03  3.165069E+04  1.063843E+04 -2.921402E+04  1.051769E+03
       173  26  2.002535E+06 -1.535505E+04  1.667728E+04 -2.509200E+03 -1.537880E+04  6.669273E+02
       173  27  2.028021E+06 -2.651951E+03  1.902835E+04  1.623654E+04 -1.542973E+03 -3.011212E+01
       174   1  1.988892E+06 -1.277729E+04  9.573235E+03  1.649088E+04 -3.255392E+03  5.725847E+02
       174   2  1.962623E+06 -2.560536E+04  8.346367E+03 -2.781649E+03 -1.785329E+04  1.289369E+03
       174   3  1.947174E+06 -2.735553E+03  2.552768E+04  1.050963E+04 -3.245026E+04  1.627744E+03
       174   4  2.048600E+06  2.096037E+03  2.437658E+04  1.428174E+04 -3.036245E+03  5.726868E+02
       174   5  2.043170E+06 -5.552808E+03  2.823628E+04 -2.002058E+03 -1.772682E+04  1.289376E+03
       174   6  2.048575E+06  2.250960E+04  5.056649E+04  1.427756E+04 -3.241696E+04  1.627540E+03
       174   7  2.108310E+06  1.696911E+04  3.917967E+04  1.207237E+04 -2.817077E+03  5.727873E+02
       174   8  2.123724E+06  1.449927E+04  4.812572E+04 -1.222366E+03 -1.760034E+04  1.289384E+03
       174   9  2.149986E+06  4.775404E+04  7.560455E+04  1.804610E+04 -3.238366E+04  1.627335E+03
       174  10  1.988892E+06 -1.277729E+04  9.573215E+03  1.649089E+04 -8.191805E-10 -6.086574E-10
       174  11  1.962623E+06 -2.560545E+04  8.345767E+03 -2.781630E+03 -1.218488E-09 -1.384068E-10
       174  12  1.947173E+06 -2.735837E+03  2.552570E+04  1.050967E+04  8.697311E-11  2.003096E-11
       174  13  2.048600E+06  2.096034E+03  2.437657E+04  1.428174E+04 -6.889449E-10 -3.340764E-10
       174  14  2.043170E+06 -5.552894E+03  2.823569E+04 -2.002039E+03  4.988510E-10  2.759355E-10
       174  15  2.048574E+06  2.250932E+04  5.056452E+04  1.427760E+04 -1.623948E-09 -6.217643E-10
       174  16  2.108310E+06  1.696911E+04  3.917965E+04  1.207238E+04 -1.071737E-09  1.475790E-10
       174  17  2.123723E+06  1.449918E+04  4.812513E+04 -1.222348E+03 -1.477896E-09 -3.096050E-10
       174  18  2.149985E+06  4.775376E+04  7.560258E+04  1.804614E+04  9.709570E-10 -3.325165E-10
       174  19  1.988892E+06 -1.277729E+04  9.573235E+03  1.649088E+04  3.255392E+03 -5.725847E+02
       174  20  1.962623E+06 -2.560536E+04  8.346367E+03 -2.781649E+03  1.785329E+04 -1.289369E+03
       174  21  1.947174E+06 -2.735553E+03  2.552768E+04  1.050963E+04  3.245026E+04 -1.627744E+03
       174  22  2.048600E+06  2.096037E+03  2.437658E+04  1.428174E+04  3.036245E+03 -5.726868E+02
       174  23  2.043170E+06 -5.552808E+03  2.823628E+04 -2.002058E+03  1.772682E+04 -1.289376E+03
       174  24  2.048575E+06  2.250960E+04  5.056649E+04  1.427756E+04  3.241696E+04 -1.627540E+03
       174  25  2.108310E+06  1.696911E+04  3.917967E+04  1.207237E+04  2.817077E+03 -5.727873E+02
       174  26  2.123724E+06  1.449927E+04  4.812572E+04 -1.222366E+03  1.760034E+04 -1.289384E+03
       174  27  2.149986E+06  4.775404E+04  7.560455E+04  1.804610E+04  3.238366E+04 -1.627335E+03
       175   1  1.871577E+06 -5.253612E+04  1.329023E+04  2.785252E+04 -4.301263E+04  2.637033E+03
       175   2  1.816474E+06 -8.733427E+04  3.712295E+04 -1.011680E+04 -9.097152E+04  3.767272E+03
       175   3  1.823310E+06  9.990267E+04  1.476791E+05 -1.053679E+04 -1.389292E+05  1.418565E+03
       175   4  2.059993E+06 -5.620383E+03  5.987754E+04  1.537241E+04 -4.233079E+04  2.637930E+03
       175   5  2.028881E+06 -3.446403E+04  8.952375E+04 -3.370310E+03 -9.114189E+04  3.766229E+03
       175   6  2.059832E+06  1.588329E+05  2.064615E+05  1.543588E+04 -1.399537E+05  1.413140E+03
       175   7  2.248442E+06  4.129329E+04  1.064623E+05  2.888518E+03 -4.164873E+04  2.638799E+03
       175   8  2.241329E+06  1.840302E+04  1.419212E+05  3.378483E+03 -9.131231E+04  3.765182E+03
       175   9  2.296406E+06  2.177614E+05  2.652401E+05  4.141843E+04 -1.409786E+05  1.407631E+03
       175  10  1.871575E+06 -5.253662E+04  1.328675E+04  2.785261E+04 -6.659412E-11 -2.667553E-10
       175  11  1.816465E+06 -8.733650E+04  3.710741E+04 -1.011652E+04 -1.462483E-09  2.399263E-11
       175  12  1.823290E+06  9.989751E+04  1.476429E+05 -1.053663E+04 -9.292281E-10  4.313888E-10
       175  13  2.059991E+06 -5.620870E+03  5.987417E+04  1.537250E+04 -1.072985E-09 -1.655367E-10
       175  14  2.028872E+06 -3.446627E+04  8.950817E+04 -3.370034E+03  1.985171E-10  7.153510E-11
       175  15  2.059811E+06  1.588276E+05  2.064248E+05  1.543604E+04  1.059699E-09 -5.048948E-10
       175  16  2.248440E+06  4.129282E+04  1.064590E+05  2.888606E+03 -1.601008E-10  1.566280E-10
       175  17  2.241320E+06  1.840078E+04  1.419056E+05  3.378759E+03 -9.595523E-10  1.754279E-11
       175  18  2.296385E+06  2.177561E+05  2.652029E+05  4.141859E+04  1.140937E-10 -6.522828E-11
       175  19  1.871577E+06 -5.253612E+04  1.329023E+04  2.785252E+04  4.301263E+04 -2.637033E+03
       175  20  1.816474E+06 -8.733427E+04  3.712295E+04 -1.011680E+04  9.097152E+04 -3.767272E+03
       175  21  1.823310E+06  9.990267E+04  1.476791E+05 -1.053679E+04  1.389292E+05 -1.418565E+03
       175  22  2.059993E+06 -5.620383E+03  5.987754E+04  1.537241E+04  4.233079E+04 -2.637930E+03
       175  23  2.028881E+06 -3.446403E+04  8.952375E+04 -3.370310E+03  9.114189E+04 -3.766229E+03
       175  24  2.059832E+06  1.588329E+05  2.064615E+05  1.543588E+04  1.399537E+05 -1.413140E+03
       175  25  2.248442E+06  4.129329E+04  1.064623E+05  2.888518E+03  4.164873E+04 -2.638799E+03
       175  26  2.241329E+06  1.840302E+04  1.419212E+05  3.378483E+03  9.131231E+04 -3.765182E+03
       175  27  2.296406E+06  2.177614E+05  2.652401E+05  4.141843E+04  1.409786E+05 -1.407631E+03
       176   1 -3.208102E+05 -8.815701E+05 -4.162509E+05  5.441216E+04 -3.032186E+02 -2.682054E+05
       176   2  6.101038E+04 -8.147706E+05 -1.898685E+05  1.225001E+04 -6.171521E+02 -1.689857E+05
       176   3 -7.974389E+02 -8.718409E+05 -1.390199E+05 -2.234615E+04 -3.681116E+02 -6.976696E+04
       176   4 -3.118055E+05 -8.454101E+05 -4.072403E+05  2.961987E+03 -2.809199E+02 -2.680605E+05
       176   5  6.882274E+04 -7.834368E+05 -1.821174E+05 -8.657657E+02 -6.135702E+02 -1.689735E+05
       176   6  5.852359E+03 -8.453065E+05 -1.324294E+05  2.876698E+03 -3.709901E+02 -6.988825E+04
       176   7 -3.027908E+05 -8.092433E+05 -3.982285E+05 -4.849118E+04 -2.586464E+02 -2.679156E+05
       176   8  7.663568E+04 -7.521018E+05 -1.743663E+05 -1.398220E+04 -6.099889E+02 -1.689613E+05
       176   9  1.250450E+04 -8.187701E+05 -1.258387E+05  2.810063E+04 -3.738783E+02 -7.000955E+04
       176  10 -3.208296E+05 -8.816474E+05 -4.163863E+05  5.441209E+04  2.154672E-10 -2.669786E-10
       176  11  6.100270E+04 -8.148013E+05 -1.899223E+05  1.224993E+04  1.415456E-10 -4.584831E-10
       176  12 -7.987482E+02 -8.718461E+05 -1.390290E+05 -2.234617E+04  1.245771E-09  5.954181E-10
       176  13 -3.118248E+05 -8.454874E+05 -4.073756E+05  2.961927E+03  1.190757E-09 -1.757015E-11
       176  14  6.881506E+04 -7.834675E+05 -1.821711E+05 -8.658492E+02  1.157225E-09  3.818986E-10
       176  15  5.851045E+03 -8.453118E+05 -1.324386E+05  2.876677E+03  1.094585E-09  3.390151E-11
       176  16 -3.028101E+05 -8.093204E+05 -3.983635E+05 -4.849124E+04  4.832420E-10 -3.456549E-11
       176  17  7.662800E+04 -7.521325E+05 -1.744200E+05 -1.398229E+04  3.718006E-10  9.016417E-10
       176  18  1.250318E+04 -8.187754E+05 -1.258480E+05  2.810061E+04  6.095714E-10 -7.388898E-10
       176  19 -3.208102E+05 -8.815701E+05 -4.162509E+05  5.441216E+04  3.032186E+02  2.682054E+05
       176  20  6.101038E+04 -8.147706E+05 -1.898685E+05  1.225001E+04  6.171521E+02  1.689857E+05
       176  21 -7.974389E+02 -8.718409E+05 -1.390199E+05 -2.234615E+04  3.681116E+02  6.976696E+04
       176  22 -3.118055E+05 -8.454101E+05 -4.072403E+05  2.961987E+03  2.809199E+02  2.680605E+05
       176  23  6.882274E+04 -7.834368E+05 -1.821174E+05 -8.657657E+02  6.135702E+02  1.689735E+05
       176  24  5.852359E+03 -8.453065E+05 -1.324294E+05  2.876698E+03  3.709901E+02  6.988825E+04
       176  25 -3.027908E+05 -8.092433E+05 -3.982285E+05 -4.849118E+04  2.586464E+02  2.679156E+05
       176  26  7.663568E+04 -7.521018E+05 -1.743663E+05 -1.398220E+04  6.099889E+02  1.689613E+05
       176  27  1.250450E+04 -8.187701E+05 -1.258387E+05  2.810063E+04  3.738783E+02  7.000955E+04
       177   1 -4.465290E+04 -8.330936E+05 -1.201311E+05  1.323317E+04 -1.644508E+02 -4.740754E+04
       177   2  1.831066E+04 -8.100020E+05 -8.747036E+04 -8.535462E+02 -3.691032E+01 -1.996505E+03
       177   3 -4.015496E+04 -8.232017E+05 -1.147541E+05 -7.182202E+03  9.723031E+01  4.341491E+04
       177   4 -4.286178E+04 -8.258801E+05 -1.183507E+05  2.953455E+03 -1.636738E+02 -4.743336E+04
       177   5  1.887694E+04 -8.077341E+05 -8.690852E+04 -9.258720E+02 -3.691991E+01 -2.023938E+03
       177   6 -4.081334E+04 -8.258792E+05 -1.154095E+05  2.952938E+03  9.792932E+01  4.338551E+04
       177   7 -4.107027E+04 -8.186663E+05 -1.165703E+05 -7.326377E+03 -1.628960E+02 -4.745918E+04
       177   8  1.944322E+04 -8.054662E+05 -8.634669E+04 -9.981980E+02 -3.692949E+01 -2.051371E+03
       177   9 -4.147134E+04 -8.285564E+05 -1.160648E+05  1.308804E+04  9.862737E+01  4.335610E+04
       177  10 -4.465350E+04 -8.330960E+05 -1.201353E+05  1.323316E+04 -1.540989E-10  2.070107E-09
       177  11  1.831065E+04 -8.100020E+05 -8.747037E+04 -8.535463E+02  1.716142E-09 -7.262112E-10
       177  12 -4.015546E+04 -8.232037E+05 -1.147576E+05 -7.182206E+03  9.152527E-10 -2.650230E-09
       177  13 -4.286239E+04 -8.258825E+05 -1.183549E+05  2.953449E+03 -3.135923E-10  7.108849E-11
       177  14  1.887694E+04 -8.077341E+05 -8.690853E+04 -9.258720E+02  2.499031E-09  3.943800E-10
       177  15 -4.081385E+04 -8.258812E+05 -1.154130E+05  2.952935E+03  7.824908E-10  1.911824E-10
       177  16 -4.107088E+04 -8.186688E+05 -1.165745E+05 -7.326383E+03 -1.647754E-10 -2.490684E-09
       177  17  1.944322E+04 -8.054662E+05 -8.634670E+04 -9.981980E+02  1.451090E-09  1.320428E-09
       177  18 -4.147184E+04 -8.285584E+05 -1.160683E+05  1.308803E+04  1.445737E-09  2.535998E-09
       177  19 -4.465290E+04 -8.330936E+05 -1.201311E+05  1.323317E+04  1.644508E+02  4.740754E+04
       177  20  1.831066E+04 -8.100020E+05 -8.747036E+04 -8.535462E+02  3.691032E+01  1.996505E+03
       177  21 -4.015496E+04 -8.232017E+05 -1.147541E+05 -7.182202E+03 -9.723031E+01 -4.341491E+04
       177  22 -4.286178E+04 -8.258801E+05 -1.183507E+05  2.953455E+03  1.636738E+02  4.743336E+04
       177  23  1.887694E+04 -8.077341E+05 -8.690852E+04 -9.258720E+02  3.691991E+01  2.023938E+03
       177  24 -4.081334E+04 -8.258792E+05 -1.154095E+05  2.952938E+03 -9.792932E+01 -4.338551E+04
       177  25 -4.107027E+04 -8.186663E+05 -1.165703E+05 -7.326377E+03  1.628960E+02  4.745918E+04
       177  26  1.944322E+04 -8.054662E+05 -8.634669E+04 -9.981980E+02  3.692949E+01  2.051371E+03
       177  27 -4.147134E+04 -8.285564E+05 -1.160648E+05  1.308804E+04 -9.862737E+01 -4.335610E+04
       178   1  1.058381E+04 -8.220631E+05 -1.228585E+05  2.706786E+04  3.013722E+02  6.532599E+04
       178   2  7.259198E+04 -7.579812E+05 -1.681560E+05 -1.340440E+04  5.340129E+02  1.602903E+05
       178   3 -2.900083E+05 -8.124536E+05 -3.814563E+05 -4.623752E+04  2.371778E+02  2.552570E+05
       178   4  5.046114E+03 -8.441386E+05 -1.283439E+05  2.890957E+03  2.987861E+02  6.521287E+04
       178   5  6.588249E+04 -7.848965E+05 -1.748131E+05 -8.833375E+02  5.372549E+02  1.602978E+05
       178   6 -2.979256E+05 -8.442383E+05 -3.893752E+05  2.978171E+03  2.574775E+02  2.553844E+05
       178   7 -4.894184E+02 -8.662124E+05 -1.338291E+05 -2.128509E+04  2.962087E+02  6.509974E+04
       178   8  5.917354E+04 -8.118108E+05 -1.814701E+05  1.163718E+04  5.404972E+02  1.603053E+05
       178   9 -3.058339E+05 -8.760169E+05 -3.972928E+05  5.219134E+04  2.777982E+02  2.555117E+05
       178  10  1.058266E+04 -8.220677E+05 -1.228665E+05  2.706785E+04  7.805006E-10  2.665273E-10
       178  11  7.258507E+04 -7.580088E+05 -1.682043E+05 -1.340447E+04 -4.510070E-10  3.881603E-10
       178  12 -2.900258E+05 -8.125236E+05 -3.815789E+05 -4.623757E+04  6.170465E-10  1.327226E-10
       178  13  5.044970E+03 -8.441432E+05 -1.283519E+05  2.890941E+03  1.900142E-09  3.282381E-11
       178  14  6.587558E+04 -7.849241E+05 -1.748614E+05 -8.834069E+02 -7.133640E-10  2.817564E-10
       178  15 -2.979432E+05 -8.443085E+05 -3.894979E+05  2.978118E+03 -6.695827E-10  2.726938E-12
       178  16 -4.905583E+02 -8.662170E+05 -1.338371E+05 -2.128510E+04 -2.958903E-10 -5.980870E-10
       178  17  5.916662E+04 -8.118384E+05 -1.815185E+05  1.163711E+04 -1.599907E-10  1.067834E-10
       178  18 -3.058515E+05 -8.760871E+05 -3.974157E+05  5.219128E+04  8.419568E-10 -2.475809E-10
       178  19  1.058381E+04 -8.220631E+05 -1.228585E+05  2.706786E+04 -3.013722E+02 -6.532599E+04
       178  20  7.259198E+04 -7.579812E+05 -1.681560E+05 -1.340440E+04 -5.340129E+02 -1.602903E+05
       178  21 -2.900083E+05 -8.124536E+05 -3.814563E+05 -4.623752E+04 -2.371778E+02 -2.552570E+05
       178  22  5.046114E+03 -8.441386E+05 -1.283439E+05  2.890957E+03 -2.987861E+02 -6.521287E+04
       178  23  6.588249E+04 -7.848965E+05 -1.748131E+05 -8.833375E+02 -5.372549E+02 -1.602978E+05
       178  24 -2.979256E+05 -8.442383E+05 -3.893752E+05  2.978171E+03 -2.574775E+02 -2.553844E+05
       178  25 -4.894184E+02 -8.662124E+05 -1.338291E+05 -2.128509E+04 -2.962087E+02 -6.509974E+04
       178  26  5.917354E+04 -8.118108E+05 -1.814701E+05  1.163718E+04 -5.404972E+02 -1.603053E+05
       178  27 -3.058339E+05 -8.760169E+05 -3.972928E+05  5.219134E+04 -2.777982E+02 -2.555117E+05
       179   1  1.177337E+06  7.116999E+05  1.268787E+05  8.273417E+05  9.740961E+04  7.457418E+04
       179   2  1.114802E+06  6.035764E+05  2.921555E+04  9.031268E+05  6.268046E+04  5.130477E+04
       179   3  1.188186E+06  6.083711E+05  7.371575E+03  9.024152E+05  2.986070E+04  2.548424E+04
       179   4  1.358714E+06  8.031987E+05  1.811712E+05  8.996232E+05  9.816762E+04  7.513662E+04
       179   5  1.264712E+06  7.003590E+05  7.794751E+04  9.726392E+05  6.281183E+04  5.140212E+04
       179   6  1.306738E+06  7.105434E+05  5.106460E+04  9.691658E+05  2.936765E+04  2.511591E+04
       179   7  1.540126E+06  8.947045E+05  2.354602E+05  9.719244E+05  9.892594E+04  7.569919E+04
       179   8  1.414645E+06  7.971505E+05  1.266766E+05  1.042169E+06  6.294325E+04  5.149951E+04
       179   9  1.425304E+06  8.127278E+05  9.475537E+04  1.035932E+06  2.887446E+04  2.474745E+04
       179  10  1.177325E+06  7.116914E+05  1.268505E+05  8.273359E+05  7.702937E-10 -4.196060E-10
       179  11  1.114797E+06  6.035726E+05  2.920325E+04  9.031243E+05  1.348488E-09 -1.151300E-09
       179  12  1.188185E+06  6.083701E+05  7.368687E+03  9.024146E+05  1.008139E-09 -1.356614E-10
       179  13  1.358702E+06  8.031901E+05  1.811425E+05  8.996173E+05  1.773122E-09 -1.520401E-10
       179  14  1.264707E+06  7.003551E+05  7.793517E+04  9.726366E+05 -1.501504E-09 -4.231183E-10
       179  15  1.306737E+06  7.105425E+05  5.106180E+04  9.691652E+05  4.475751E-10  1.927412E-10
       179  16  1.540114E+06  8.946957E+05  2.354311E+05  9.719183E+05  2.513903E-10 -4.624829E-10
       179  17  1.414640E+06  7.971466E+05  1.266642E+05  1.042167E+06 -1.944928E-10 -3.558110E-10
       179  18  1.425303E+06  8.127269E+05  9.475266E+04  1.035931E+06 -4.345649E-11 -1.682400E-10
       179  19  1.177337E+06  7.116999E+05  1.268787E+05  8.273417E+05 -9.740961E+04 -7.457418E+04
       179  20  1.114802E+06  6.035764E+05  2.921555E+04  9.031268E+05 -6.268046E+04 -5.130477E+04
       179  21  1.188186E+06  6.083711E+05  7.371575E+03  9.024152E+05 -2.986070E+04 -2.548424E+04
       179  22  1.358714E+06  8.031987E+05  1.811712E+05  8.996232E+05 -9.816762E+04 -7.513662E+04
       179  23  1.264712E+06  7.003590E+05  7.794751E+04  9.726392E+05 -6.281183E+04 -5.140212E+04
       179  24  1.306738E+06  7.105434E+05  5.106460E+04  9.691658E+05 -2.936765E+04 -2.511591E+04
       179  25  1.540126E+06  8.947045E+05  2.354602E+05  9.719244E+05 -9.892594E+04 -7.569919E+04
       179  26  1.414645E+06  7.971505E+05  1.266766E+05  1.042169E+06 -6.294325E+04 -5.149951E+04
       179  27  1.425304E+06  8.127278E+05  9.475537E+04  1.035932E+06 -2.887446E+04 -2.474745E+04
       180   1  1.230971E+06  6.741755E+05  1.728766E+04  9.167461E+05  2.320249E+04  1.938171E+04
       180   2  1.221476E+06  6.774906E+05  6.581789E+02  9.360356E+05  1.452083E+04  1.254819E+04
       180   3  1.254357E+06  6.752010E+05 -1.727550E+03  9.379965E+05  6.066850E+03  5.409712E+03
       180   4  1.308225E+06  7.239375E+05  4.240461E+04  9.525112E+05  2.319012E+04  1.937224E+04
       180   5  1.283408E+06  7.202583E+05  2.135965E+04  9.660307E+05  1.443374E+04  1.248297E+04
       180   6  1.300981E+06  7.109889E+05  1.462126E+04  9.622219E+05  5.905344E+03  5.288895E+03
       180   7  1.385485E+06  7.737021E+05  6.752086E+04  9.882811E+05  2.317775E+04  1.936277E+04
       180   8  1.345343E+06  7.630279E+05  4.206061E+04  9.960291E+05  1.434663E+04  1.241774E+04
       180   9  1.347606E+06  7.467781E+05  3.096972E+04  9.864493E+05  5.743822E+03  5.168065E+03
       180  10  1.230970E+06  6.741749E+05  1.728595E+04  9.167457E+05  7.851600E-10 -1.632861E-11
       180  11  1.221475E+06  6.774904E+05  6.574889E+02  9.360355E+05 -3.329920E-10 -9.862409E-10
       180  12  1.254357E+06  6.752010E+05 -1.727674E+03  9.379965E+05  1.093751E-09  7.642320E-10
       180  13  1.308224E+06  7.239370E+05  4.240290E+04  9.525108E+05  2.560641E-09 -5.640100E-10
       180  14  1.283407E+06  7.202581E+05  2.135897E+04  9.660306E+05  4.389880E-10 -6.281519E-10
       180  15  1.300981E+06  7.109889E+05  1.462115E+04  9.622219E+05  1.269290E-09 -3.659578E-10
       180  16  1.385484E+06  7.737015E+05  6.751916E+04  9.882807E+05 -8.313140E-10  2.267544E-10
       180  17  1.345343E+06  7.630277E+05  4.205993E+04  9.960289E+05  4.163159E-10  8.108835E-10
       180  18  1.347606E+06  7.467781E+05  3.096960E+04  9.864493E+05  1.086361E-09  7.897816E-11
       180  19  1.230971E+06  6.741755E+05  1.728766E+04  9.167461E+05 -2.320249E+04 -1.938171E+04
       180  20  1.221476E+06  6.774906E+05  6.581789E+02  9.360356E+05 -1.452083E+04 -1.254819E+04
       180  21  1.254357E+06  6.752010E+05 -1.727550E+03  9.379965E+05 -6.066850E+03 -5.409712E+03
       180  22  1.308225E+06  7.239375E+05  4.240461E+04  9.525112E+05 -2.319012E+04 -1.937224E+04
       180  23  1.283408E+06  7.202583E+05  2.135965E+04  9.660307E+05 -1.443374E+04 -1.248297E+04
       180  24  1.300981E+06  7.109889E+05  1.462126E+04  9.622219E+05 -5.905344E+03 -5.288895E+03
       180  25  1.385485E+06  7.737021E+05  6.752086E+04  9.882811E+05 -2.317775E+04 -1.936277E+04
       180  26  1.345343E+06  7.630279E+05  4.206061E+04  9.960291E+05 -1.434663E+04 -1.241774E+04
       180  27  1.347606E+06  7.467781E+05  3.096972E+04  9.864493E+05 -5.743822E+03 -5.168065E+03
       181   1  1.301877E+06  7.143493E+05  1.325635E+04  9.610522E+05  4.294907E+03  3.552575E+03
       181   2  1.299913E+06  7.325670E+05  1.459639E+04  9.721084E+05  6.065248E+02  8.480887E+01
       181   3  1.328006E+06  7.308217E+05  2.109213E+04  9.731974E+05 -3.080740E+03 -3.384691E+03
       181   4  1.301000E+06  7.127246E+05  1.271616E+04  9.601661E+05  4.185823E+03  3.470956E+03
       181   5  1.285929E+06  7.226302E+05  9.865192E+03  9.652069E+05  4.970969E+02  2.932953E+00
       181   6  1.300915E+06  7.125727E+05  1.217024E+04  9.602801E+05 -3.190401E+03 -3.466754E+03
       181   7  1.300123E+06  7.111000E+05  1.217598E+04  9.592800E+05  4.076739E+03  3.389339E+03
       181   8  1.271946E+06  7.126935E+05  5.133957E+03  9.583055E+05  3.876722E+02 -7.894055E+01
       181   9  1.273826E+06  6.943241E+05  3.248229E+03  9.473634E+05 -3.300057E+03 -3.548812E+03
       181  10  1.301877E+06  7.143493E+05  1.325629E+04  9.610522E+05  2.872248E-09  9.388094E-10
       181  11  1.299913E+06  7.325670E+05  1.459639E+04  9.721084E+05  1.771215E-09 -1.104976E-10
       181  12  1.328006E+06  7.308217E+05  2.109209E+04  9.731974E+05  2.233181E-10  3.980575E-10
       181  13  1.301000E+06  7.127246E+05  1.271611E+04  9.601661E+05  1.921892E-09  4.193609E-10
       181  14  1.285929E+06  7.226302E+05  9.865191E+03  9.652069E+05  1.709592E-09 -6.743844E-10
       181  15  1.300915E+06  7.125727E+05  1.217020E+04  9.602801E+05 -9.691855E-10  2.264896E-11
       181  16  1.300123E+06  7.111000E+05  1.217593E+04  9.592800E+05  8.739954E-10  8.016988E-10
       181  17  1.271946E+06  7.126935E+05  5.133956E+03  9.583055E+05  1.842946E-10 -1.377090E-09
       181  18  1.273826E+06  6.943240E+05  3.248185E+03  9.473634E+05 -2.079334E-09 -1.750169E-09
       181  19  1.301877E+06  7.143493E+05  1.325635E+04  9.610522E+05 -4.294907E+03 -3.552575E+03
       181  20  1.299913E+06  7.325670E+05  1.459639E+04  9.721084E+05 -6.065248E+02 -8.480887E+01
       181  21  1.328006E+06  7.308217E+05  2.109213E+04  9.731974E+05  3.080740E+03  3.384691E+03
       181  22  1.301000E+06  7.127246E+05  1.271616E+04  9.601661E+05 -4.185823E+03 -3.470956E+03
       181  23  1.285929E+06  7.226302E+05  9.865192E+03  9.652069E+05 -4.970969E+02 -2.932953E+00
       181  24  1.300915E+06  7.125727E+05  1.217024E+04  9.602801E+05  3.190401E+03  3.466754E+03
       181  25  1.300123E+06  7.111000E+05  1.217598E+04  9.592800E+05 -4.076739E+03 -3.389339E+03
       181  26  1.271946E+06  7.126935E+05  5.133957E+03  9.583055E+05 -3.876722E+02  7.894055E+01
       181  27  1.273826E+06  6.943241E+05  3.248229E+03  9.473634E+05  3.300057E+03  3.548812E+03
       182   1  1.377160E+06  7.671445E+05  4.005331E+04  1.000640E+06 -4.627601E+03 -5.100095E+03
       182   2  1.374976E+06  7.848808E+05  5.063238E+04  1.010776E+06 -1.259473E+04 -1.190760E+04
       182   3  1.415262E+06  7.942057E+05  7.454416E+04  1.003979E+06 -2.082919E+04 -1.835799E+04
       182   4  1.301199E+06  7.107267E+05  1.382272E+04  9.620335E+05 -4.800242E+03 -5.229282E+03
       182   5  1.283294E+06  7.208739E+05  1.984978E+04  9.660495E+05 -1.267994E+04 -1.197144E+04
       182   6  1.307843E+06  7.225932E+05  3.913605E+04  9.531316E+05 -2.082671E+04 -1.835633E+04
       182   7  1.225244E+06  6.543124E+05 -1.240863E+04  9.234326E+05 -4.972852E+03 -5.358445E+03
       182   8  1.191620E+06  6.568712E+05 -1.093392E+04  9.213301E+05 -1.276513E+04 -1.203527E+04
       182   9  1.200435E+06  6.509857E+05  3.726438E+03  9.022933E+05 -2.082423E+04 -1.835467E+04
       182  10  1.377160E+06  7.671445E+05  4.005322E+04  1.000640E+06 -4.867320E-10 -7.315493E-10
       182  11  1.374976E+06  7.848806E+05  5.063181E+04  1.010776E+06  2.892912E-10 -1.179597E-09
       182  12  1.415262E+06  7.942053E+05  7.454271E+04  1.003979E+06  5.573055E-10  6.153280E-11
       182  13  1.301199E+06  7.107266E+05  1.382263E+04  9.620335E+05 -1.540412E-09 -1.928794E-09
       182  14  1.283294E+06  7.208737E+05  1.984921E+04  9.660494E+05 -4.850152E-12  1.192331E-09
       182  15  1.307842E+06  7.225927E+05  3.913461E+04  9.531313E+05  4.659712E-11  8.386248E-10
       182  16  1.225244E+06  6.543123E+05 -1.240873E+04  9.234326E+05 -1.204470E-11 -1.086557E-09
       182  17  1.191620E+06  6.568710E+05 -1.093449E+04  9.213300E+05 -1.295331E-09  1.391586E-09
       182  18  1.200435E+06  6.509852E+05  3.724995E+03  9.022930E+05 -8.599214E-10 -4.512466E-10
       182  19  1.377160E+06  7.671445E+05  4.005331E+04  1.000640E+06  4.627601E+03  5.100095E+03
       182  20  1.374976E+06  7.848808E+05  5.063238E+04  1.010776E+06  1.259473E+04  1.190760E+04
       182  21  1.415262E+06  7.942057E+05  7.454416E+04  1.003979E+06  2.082919E+04  1.835799E+04
       182  22  1.301199E+06  7.107267E+05  1.382272E+04  9.620335E+05  4.800242E+03  5.229282E+03
       182  23  1.283294E+06  7.208739E+05  1.984978E+04  9.660495E+05  1.267994E+04  1.197144E+04
       182  24  1.307843E+06  7.225932E+05  3.913605E+04  9.531316E+05  2.082671E+04  1.835633E+04
       182  25  1.225244E+06  6.543124E+05 -1.240863E+04  9.234326E+05  4.972852E+03  5.358445E+03
       182  26  1.191620E+06  6.568712E+05 -1.093392E+04  9.213301E+05  1.276513E+04  1.203527E+04
       182  27  1.200435E+06  6.509857E+05  3.726438E+03  9.022933E+05  2.082423E+04  1.835467E+04
       183   1  1.460369E+06  8.354987E+05  1.023098E+05  1.051702E+06 -2.582675E+04 -2.338603E+04
       183   2  1.450414E+06  8.255311E+05  1.324583E+05  1.059434E+06 -5.725144E+04 -4.830886E+04
       183   3  1.571101E+06  9.145510E+05  2.335349E+05  9.953137E+05 -9.098575E+04 -7.015267E+04
       183   4  1.306885E+06  7.098831E+05  4.708206E+04  9.683402E+05 -2.640376E+04 -2.381760E+04
       183   5  1.265568E+06  7.030661E+05  7.176193E+04  9.722671E+05 -5.707578E+04 -4.817815E+04
       183   6  1.354756E+06  7.951049E+05  1.667397E+05  9.043344E+05 -9.005533E+04 -6.945979E+04
       183   7  1.153425E+06  5.842848E+05 -8.149497E+03  8.850025E+05 -2.698057E+04 -2.424900E+04
       183   8  1.080757E+06  5.806161E+05  1.106107E+04  8.851284E+05 -5.690019E+04 -4.804750E+04
       183   9  1.138461E+06  6.756717E+05  9.993948E+04  8.133863E+05 -8.912536E+04 -6.876715E+04
       183  10  1.460368E+06  8.354979E+05  1.023076E+05  1.051702E+06 -5.284302E-10 -4.130242E-11
       183  11  1.450410E+06  8.255277E+05  1.324478E+05  1.059431E+06 -1.951229E-10  2.080954E-10
       183  12  1.571090E+06  9.145436E+05  2.335102E+05  9.953086E+05 -1.459431E-09 -3.933676E-10
       183  13  1.306884E+06  7.098823E+05  4.707969E+04  9.683397E+05 -1.105421E-09 -1.118685E-10
       183  14  1.265564E+06  7.030628E+05  7.175148E+04  9.722649E+05 -6.589338E-10  4.064820E-10
       183  15  1.354746E+06  7.950975E+05  1.667155E+05  9.043294E+05 -1.135135E-09 -3.381968E-10
       183  16  1.153425E+06  5.842840E+05 -8.151963E+03  8.850019E+05  2.909177E-10  3.017192E-10
       183  17  1.080753E+06  5.806127E+05  1.105068E+04  8.851262E+05  1.490959E-09  4.910458E-10
       183  18  1.138451E+06  6.756646E+05  9.991573E+04  8.133814E+05 -4.140622E-10  3.221259E-10
       183  19  1.460369E+06  8.354987E+05  1.023098E+05  1.051702E+06  2.582675E+04  2.338603E+04
       183  20  1.450414E+06  8.255311E+05  1.324583E+05  1.059434E+06  5.725144E+04  4.830886E+04
       183  21  1.571101E+06  9.145510E+05  2.335349E+05  9.953137E+05  9.098575E+04  7.015267E+04
       183  22  1.306885E+06  7.098831E+05  4.708206E+04  9.683402E+05  2.640376E+04  2.381760E+04
       183  23  1.265568E+06  7.030661E+05  7.176193E+04  9.722671E+05  5.707578E+04  4.817815E+04
       183  24  1.354756E+06  7.951049E+05  1.667397E+05  9.043344E+05  9.005533E+04  6.945979E+04
       183  25  1.153425E+06  5.842848E+05 -8.149497E+03  8.850025E+05  2.698057E+04  2.424900E+04
       183  26  1.080757E+06  5.806161E+05  1.106107E+04  8.851284E+05  5.690019E+04  4.804750E+04
       183  27  1.138461E+06  6.756717E+05  9.993948E+04  8.133863E+05  8.912536E+04  6.876715E+04
       184   1 -2.609493E+05 -1.652638E+05 -2.488387E+05 -1.036172E+04 -2.431967E+05 -2.545045E+03
       184   2 -2.615233E+05  1.599561E+05 -5.814092E+04 -1.879902E+04 -1.593797E+05 -7.159447E+03
       184   3 -3.695010E+05  9.613568E+04 -1.909114E+04  5.744030E+04 -7.557350E+04 -4.626325E+03
       184   4 -7.144315E+05 -2.786619E+05 -3.618792E+05  3.530698E+04 -2.450338E+05 -2.562479E+03
       184   5 -6.605111E+05  6.039044E+04 -1.568274E+05 -6.996139E+03 -1.595605E+05 -7.162814E+03
       184   6 -7.143657E+05  9.973236E+03 -1.046548E+05  3.538116E+04 -7.409035E+04 -4.622770E+03
       184   7 -1.167723E+06 -3.920677E+05 -4.749341E+05  8.094231E+04 -2.468695E+05 -2.580194E+03
       184   8 -1.059354E+06 -3.918661E+04 -2.555256E+05  4.799143E+03 -1.597411E+05 -7.166190E+03
       184   9 -1.059121E+06 -7.619631E+04 -1.902271E+05  1.333427E+04 -7.260800E+04 -4.619318E+03
       184  10 -2.610129E+05 -1.652797E+05 -2.489499E+05 -1.036221E+04  2.375832E-10  2.645833E-10
       184  11 -2.615506E+05  1.599492E+05 -5.818878E+04 -1.879994E+04  1.061792E-10 -4.117633E-10
       184  12 -3.695071E+05  9.613412E+04 -1.910192E+04  5.744002E+04 -1.393012E-09 -2.025118E-10
       184  13 -7.144960E+05 -2.786781E+05 -3.619922E+05  3.530648E+04 -4.129055E-10 -9.094653E-10
       184  14 -6.605385E+05  6.038354E+04 -1.568754E+05 -6.997060E+03 -1.556915E-09 -8.652913E-11
       184  15 -7.143716E+05  9.971737E+03 -1.046652E+05  3.538089E+04  3.986003E-10  1.119370E-10
       184  16 -1.167788E+06 -3.920841E+05 -4.750489E+05  8.094179E+04 -7.159839E-10 -6.201073E-10
       184  17 -1.059381E+06 -3.919353E+04 -2.555737E+05  4.798221E+03 -1.987762E-09 -5.312984E-10
       184  18 -1.059127E+06 -7.619775E+04 -1.902370E+05  1.333400E+04  1.118842E-11 -6.418332E-10
       184  19 -2.609493E+05 -1.652638E+05 -2.488387E+05 -1.036172E+04  2.431967E+05  2.545045E+03
       184  20 -2.615233E+05  1.599561E+05 -5.814092E+04 -1.879902E+04  1.593797E+05  7.159447E+03
       184  21 -3.695010E+05  9.613568E+04 -1.909114E+04  5.744030E+04  7.557350E+04  4.626325E+03
       184  22 -7.144315E+05 -2.786619E+05 -3.618792E+05  3.530698E+04  2.450338E+05  2.562479E+03
       184  23 -6.605111E+05  6.039044E+04 -1.568274E+05 -6.996139E+03  1.595605E+05  7.162814E+03
       184  24 -7.143657E+05  9.973236E+03 -1.046548E+05  3.538116E+04  7.409035E+04  4.622770E+03
       184  25 -1.167723E+06 -3.920677E+05 -4.749341E+05  8.094231E+04  2.468695E+05  2.580194E+03
       184  26 -1.059354E+06 -3.918661E+04 -2.555256E+05  4.799143E+03  1.597411E+05  7.166190E+03
       184  27 -1.059121E+06 -7.619631E+04 -1.902271E+05  1.333427E+04  7.260800E+04  4.619318E+03
       185   1 -5.688401E+05 -8.109907E+03 -5.725406E+04  2.958250E+04 -5.700195E+04 -2.366619E+03
       185   2 -6.153200E+05  2.712234E+04 -3.178379E+04 -9.080638E+03 -3.168089E+04 -1.217298E+03
       185   3 -6.808500E+05  5.509122E+01 -3.841714E+04  3.992636E+04 -6.363404E+03  7.270482E+02
       185   4 -6.946491E+05 -3.949795E+04 -8.836461E+04  3.605983E+04 -5.682037E+04 -2.367092E+03
       185   5 -6.850982E+05  9.705523E+03 -4.905505E+04 -7.790995E+03 -3.131331E+04 -1.217031E+03
       185   6 -6.946377E+05 -3.427607E+03 -4.198335E+04  3.602947E+04 -5.807561E+03  7.276778E+02
       185   7 -8.204436E+05 -7.088702E+04 -1.194763E+05  4.253583E+04 -5.663883E+04 -2.367561E+03
       185   8 -7.548720E+05 -7.711648E+03 -6.632668E+04 -6.501498E+03 -3.094578E+04 -1.216762E+03
       185   9 -7.084252E+05 -6.910262E+03 -4.554958E+04  3.213266E+04 -5.251732E+03  7.283004E+02
       185  10 -5.688436E+05 -8.110786E+03 -5.726018E+04  2.958239E+04 -1.539495E-09  1.356630E-09
       185  11 -6.153211E+05  2.712207E+04 -3.178568E+04 -9.080669E+03  7.255159E-10 -1.203353E-09
       185  12 -6.808500E+05  5.507977E+01 -3.841721E+04  3.992636E+04  5.371661E-10  1.250379E-10
       185  13 -6.946526E+05 -3.949883E+04 -8.837069E+04  3.605972E+04 -1.205785E-09  5.603736E-10
       185  14 -6.850993E+05  9.705258E+03 -4.905690E+04 -7.791026E+03 -4.221341E-10  2.120155E-10
       185  15 -6.946377E+05 -3.427616E+03 -4.198342E+04  3.602947E+04  3.052101E-10 -2.844279E-10
       185  16 -8.204470E+05 -7.088789E+04 -1.194824E+05  4.253573E+04  1.485150E-09 -8.314264E-10
       185  17 -7.548730E+05 -7.711907E+03 -6.632849E+04 -6.501528E+03 -4.239911E-10  6.581558E-10
       185  18 -7.084252E+05 -6.910270E+03 -4.554963E+04  3.213267E+04 -7.082916E-10  9.937651E-10
       185  19 -5.688401E+05 -8.109907E+03 -5.725406E+04  2.958250E+04  5.700195E+04  2.366619E+03
       185  20 -6.153200E+05  2.712234E+04 -3.178379E+04 -9.080638E+03  3.168089E+04  1.217298E+03
       185  21 -6.808500E+05  5.509122E+01 -3.841714E+04  3.992636E+04  6.363404E+03 -7.270482E+02
       185  22 -6.946491E+05 -3.949795E+04 -8.836461E+04  3.605983E+04  5.682037E+04  2.367092E+03
       185  23 -6.850982E+05  9.705523E+03 -4.905505E+04 -7.790995E+03  3.131331E+04  1.217031E+03
       185  24 -6.946377E+05 -3.427607E+03 -4.198335E+04  3.602947E+04  5.807561E+03 -7.276778E+02
       185  25 -8.204436E+05 -7.088702E+04 -1.194763E+05  4.253583E+04  5.663883E+04  2.367561E+03
       185  26 -7.548720E+05 -7.711648E+03 -6.632668E+04 -6.501498E+03  3.094578E+04  1.216762E+03
       185  27 -7.084252E+05 -6.910262E+03 -4.554958E+04  3.213266E+04  5.251732E+03 -7.283004E+02
       186   1 -9.013185E+05 -5.600279E+04 -9.283610E+04  3.202938E+04  1.066088E+03  2.241407E+03
       186   2 -9.480574E+05 -5.671231E+04 -1.104784E+05 -6.451650E+03  2.496256E+04  4.239202E+03
       186   3 -1.011894E+06 -1.141605E+05 -1.578394E+05  4.160232E+04  4.885932E+04  5.044247E+03
       186   4 -6.941974E+05 -4.237115E+03 -4.135692E+04  3.578343E+04  1.683171E+03  2.241976E+03
       186   5 -6.856769E+05  8.809199E+03 -4.548203E+04 -7.479471E+03  2.530207E+04  4.239253E+03
       186   6 -6.941997E+05 -3.482105E+04 -7.912310E+04  3.579072E+04  4.892336E+04  5.043640E+03
       186   7 -4.870372E+05  4.752538E+04  1.011904E+04  3.953872E+04  2.300459E+03  2.242551E+03
       186   8 -4.232338E+05  7.432556E+04  1.950925E+04 -8.507736E+03  2.564171E+04  4.239303E+03
       186   9 -3.764133E+05  4.451092E+04 -4.143587E+02  2.997612E+04  4.898744E+04  5.043032E+03
       186  10 -9.013185E+05 -5.600279E+04 -9.283611E+04  3.202938E+04  8.525965E-10 -3.678308E-10
       186  11 -9.480580E+05 -5.671250E+04 -1.104796E+05 -6.451735E+03  2.969559E-10 -1.402572E-09
       186  12 -1.011897E+06 -1.141611E+05 -1.578439E+05  4.160212E+04 -4.516162E-11 -6.459957E-10
       186  13 -6.941974E+05 -4.237121E+03 -4.135694E+04  3.578343E+04 -1.297706E-10 -5.383461E-10
       186  14 -6.856776E+05  8.809008E+03 -4.548327E+04 -7.479557E+03 -8.513679E-11 -9.624088E-10
       186  15 -6.942023E+05 -3.482172E+04 -7.912765E+04  3.579052E+04  2.691431E-09 -4.980255E-10
       186  16 -4.870372E+05  4.752538E+04  1.011902E+04  3.953871E+04 -2.278921E-09 -4.065757E-10
       186  17 -4.232345E+05  7.432536E+04  1.950798E+04 -8.507823E+03 -2.383950E-09  8.583688E-10
       186  18 -3.764158E+05  4.451025E+04 -4.189188E+02  2.997592E+04 -6.609463E-10  4.617811E-11
       186  19 -9.013185E+05 -5.600279E+04 -9.283610E+04  3.202938E+04 -1.066088E+03 -2.241407E+03
       186  20 -9.480574E+05 -5.671231E+04 -1.104784E+05 -6.451650E+03 -2.496256E+04 -4.239202E+03
       186  21 -1.011894E+06 -1.141605E+05 -1.578394E+05  4.160232E+04 -4.885932E+04 -5.044247E+03
       186  22 -6.941974E+05 -4.237115E+03 -4.135692E+04  3.578343E+04 -1.683171E+03 -2.241976E+03
       186  23 -6.856769E+05  8.809199E+03 -4.548203E+04 -7.479471E+03 -2.530207E+04 -4.239253E+03
       186  24 -6.941997E+05 -3.482105E+04 -7.912310E+04  3.579072E+04 -4.892336E+04 -5.043640E+03
       186  25 -4.870372E+05  4.752538E+04  1.011904E+04  3.953872E+04 -2.300459E+03 -2.242551E+03
       186  26 -4.232338E+05  7.432556E+04  1.950925E+04 -8.507736E+03 -2.564171E+04 -4.239303E+03
       186  27 -3.764133E+05  4.451092E+04 -4.143587E+02  2.997612E+04 -4.898744E+04 -5.043032E+03
       187   1 -1.242444E+06 -1.241126E+05 -2.248567E+05  1.538709E+04  6.253206E+04  7.582224E+03
       187   2 -1.247448E+06 -9.245540E+04 -2.829429E+05  4.714490E+03  1.402375E+05  1.019347E+04
       187   3 -1.346737E+06 -4.045002E+05 -4.772451E+05  7.512350E+04  2.179289E+05  3.373822E+03
       187   4 -7.112975E+05  8.583560E+03 -9.310237E+04  3.466895E+04  6.432845E+04  7.583778E+03
       187   5 -6.644177E+05  5.315589E+04 -1.386232E+05 -6.047316E+03  1.398352E+05  1.019080E+04
       187   6 -7.113507E+05 -2.454204E+05 -3.187376E+05  3.431785E+04  2.153347E+05  3.363261E+03
       187   7 -1.798932E+05  1.412600E+05  3.863110E+04  5.396734E+04  6.612637E+04  7.585444E+03
       187   8 -8.107813E+04  1.987422E+05  5.671155E+03 -1.681920E+04  1.394324E+05  1.018815E+04
       187   9 -7.559428E+04 -8.636482E+04 -1.602596E+05 -6.529540E+03  2.127377E+05  3.353052E+03
       187  10 -1.242449E+06 -1.241138E+05 -2.248642E+05  1.538671E+04 -1.489199E-10  1.212776E-10
       187  11 -1.247469E+06 -9.246081E+04 -2.829801E+05  4.713338E+03  8.967613E-10  2.250182E-09
       187  12 -1.346788E+06 -4.045130E+05 -4.773346E+05  7.512291E+04  9.252701E-10  1.107783E-09
       187  13 -7.113020E+05  8.582386E+03 -9.311026E+04  3.466856E+04  1.813410E-09  1.151579E-10
       187  14 -6.644388E+05  5.315053E+04 -1.386602E+05 -6.048464E+03 -5.983803E-10 -1.302320E-09
       187  15 -7.114005E+05 -2.454329E+05 -3.188249E+05  3.431726E+04  4.457056E-10 -1.101213E-10
       187  16 -1.798979E+05  1.412588E+05  3.862277E+04  5.396693E+04  1.257061E-10  8.086591E-11
       187  17 -8.109904E+04  1.987368E+05  5.634417E+03 -1.682034E+04 -1.028304E-09 -8.278454E-10
       187  18 -7.564289E+04 -8.637699E+04 -1.603447E+05 -6.530115E+03  1.830819E-10  1.323590E-09
       187  19 -1.242444E+06 -1.241126E+05 -2.248567E+05  1.538709E+04 -6.253206E+04 -7.582224E+03
       187  20 -1.247448E+06 -9.245540E+04 -2.829429E+05  4.714490E+03 -1.402375E+05 -1.019347E+04
       187  21 -1.346737E+06 -4.045002E+05 -4.772451E+05  7.512350E+04 -2.179289E+05 -3.373822E+03
       187  22 -7.112975E+05  8.583560E+03 -9.310237E+04  3.466895E+04 -6.432845E+04 -7.583778E+03
       187  23 -6.644177E+05  5.315589E+04 -1.386232E+05 -6.047316E+03 -1.398352E+05 -1.019080E+04
       187  24 -7.113507E+05 -2.454204E+05 -3.187376E+05  3.431785E+04 -2.153347E+05 -3.363261E+03
       187  25 -1.798932E+05  1.412600E+05  3.863110E+04  5.396734E+04 -6.612637E+04 -7.585444E+03
       187  26 -8.107813E+04  1.987422E+05  5.671155E+03 -1.681920E+04 -1.394324E+05 -1.018815E+04
       187  27 -7.559428E+04 -8.636482E+04 -1.602596E+05 -6.529540E+03 -2.127377E+05 -3.353052E+03
       188   1 -5.188424E+05 -2.112331E+06 -6.605176E+05  1.019343E+05 -1.632231E+03 -3.965267E+05
       188   2  5.576423E+04 -1.978545E+06 -3.170940E+05  1.238698E+04 -3.624967E+03 -2.482192E+05
       188   3 -2.843547E+04 -2.028922E+06 -2.350911E+05 -1.206567E+04 -1.748770E+03 -9.990972E+04
       188   4 -4.620024E+05 -1.884827E+06 -6.037326E+05  2.581090E+04 -1.582776E+03 -3.956423E+05
       188   5  1.021809E+05 -1.792667E+06 -2.710616E+05 -6.894862E+03 -3.617120E+03 -2.482184E+05
       188   6  7.810125E+03 -1.884457E+06 -1.991294E+05  2.550494E+04 -1.755793E+03 -1.008026E+05
       188   7 -4.051445E+05 -1.657264E+06 -5.469482E+05 -5.034048E+04 -1.533555E+03 -3.947576E+05
       188   8  1.485965E+05 -1.606756E+06 -2.250317E+05 -2.618250E+04 -3.609276E+03 -2.482176E+05
       188   9  4.405946E+04 -1.739971E+06 -1.631685E+05  6.308432E+04 -1.762923E+03 -1.016957E+05
       188  10 -5.188848E+05 -2.112500E+06 -6.608141E+05  1.019338E+05 -5.748842E-10  8.008799E-11
       188  11  5.574761E+04 -1.978611E+06 -3.172102E+05  1.238625E+04  1.414112E-09  8.634472E-10
       188  12 -2.843817E+04 -2.028932E+06 -2.351099E+05 -1.206581E+04  1.929782E-09  2.286692E-09
       188  13 -4.620446E+05 -1.884996E+06 -6.040276E+05  2.581040E+04 -1.700430E-09 -1.359645E-09
       188  14  1.021643E+05 -1.792733E+06 -2.711778E+05 -6.895586E+03 -2.189790E-09 -7.875244E-10
       188  15  7.807383E+03 -1.884468E+06 -1.991486E+05  2.550480E+04  1.032180E-09 -1.496483E-09
       188  16 -4.051865E+05 -1.657432E+06 -5.472419E+05 -5.034098E+04  2.870169E-10  4.814619E-10
       188  17  1.485799E+05 -1.606823E+06 -2.251478E+05 -2.618322E+04  1.537544E-09 -2.427769E-09
       188  18  4.405667E+04 -1.739982E+06 -1.631880E+05  6.308418E+04 -1.081055E-09 -1.968887E-09
       188  19 -5.188424E+05 -2.112331E+06 -6.605176E+05  1.019343E+05  1.632231E+03  3.965267E+05
       188  20  5.576423E+04 -1.978545E+06 -3.170940E+05  1.238698E+04  3.624967E+03  2.482192E+05
       188  21 -2.843547E+04 -2.028922E+06 -2.350911E+05 -1.206567E+04  1.748770E+03  9.990972E+04
       188  22 -4.620024E+05 -1.884827E+06 -6.037326E+05  2.581090E+04  1.582776E+03  3.956423E+05
       188  23  1.021809E+05 -1.792667E+06 -2.710616E+05 -6.894862E+03  3.617120E+03  2.482184E+05
       188  24  7.810125E+03 -1.884457E+06 -1.991294E+05  2.550494E+04  1.755793E+03  1.008026E+05
       188  25 -4.051445E+05 -1.657264E+06 -5.469482E+05 -5.034048E+04  1.533555E+03  3.947576E+05
       188  26  1.485965E+05 -1.606756E+06 -2.250317E+05 -2.618250E+04  3.609276E+03  2.482176E+05
       188  27  4.405946E+04 -1.739971E+06 -1.631685E+05  6.308432E+04  1.762923E+03  1.016957E+05
       189   1 -5.717132E+04 -1.832256E+06 -1.731207E+05  4.180722E+04 -1.218511E+02 -6.667181E+04
       189   2  4.604007E+04 -1.761290E+06 -1.186076E+05 -7.486320E+03  1.069969E+03  3.861323E+03
       189   3 -3.965092E+04 -1.746936E+06 -1.573519E+05  1.010879E+04  2.009527E+03  7.439975E+04
       189   4 -6.323055E+04 -1.856254E+06 -1.791483E+05  2.604121E+04 -1.204969E+02 -6.696425E+04
       189   5  2.937815E+04 -1.827940E+06 -1.351376E+05 -7.406914E+03  1.069727E+03  3.624088E+03
       189   6 -6.693656E+04 -1.856256E+06 -1.844282E+05  2.603517E+04  2.011286E+03  7.421289E+04
       189   7 -6.928888E+04 -1.880250E+06 -1.851758E+05  1.027580E+04 -1.191278E+02 -6.725667E+04
       189   8  1.271590E+04 -1.894587E+06 -1.516680E+05 -7.327517E+03  1.069484E+03  3.386878E+03
       189   9 -9.422213E+04 -1.965564E+06 -2.115053E+05  4.195873E+04  2.013036E+03  7.402606E+04
       189  10 -5.717252E+04 -1.832261E+06 -1.731291E+05  4.180722E+04  6.635158E-10  1.480745E-10
       189  11  4.604007E+04 -1.761290E+06 -1.186076E+05 -7.486323E+03  1.927506E-09 -2.174217E-09
       189  12 -3.965242E+04 -1.746942E+06 -1.573623E+05  1.010867E+04  1.229515E-09 -3.537461E-10
       189  13 -6.323175E+04 -1.856259E+06 -1.791567E+05  2.604120E+04  1.840222E-10 -2.284461E-09
       189  14  2.937815E+04 -1.827941E+06 -1.351377E+05 -7.406917E+03 -6.652075E-10 -1.007956E-09
       189  15 -6.693805E+04 -1.856262E+06 -1.844386E+05  2.603505E+04  4.668233E-10 -1.271109E-09
       189  16 -6.929010E+04 -1.880255E+06 -1.851843E+05  1.027579E+04  6.323209E-10  1.026293E-09
       189  17  1.271590E+04 -1.894587E+06 -1.516680E+05 -7.327520E+03 -9.722480E-10  5.434067E-10
       189  18 -9.422361E+04 -1.965570E+06 -2.115157E+05  4.195861E+04  4.111601E-12  5.872920E-10
       189  19 -5.717132E+04 -1.832256E+06 -1.731207E+05  4.180722E+04  1.218511E+02  6.667181E+04
       189  20  4.604007E+04 -1.761290E+06 -1.186076E+05 -7.486320E+03 -1.069969E+03 -3.861323E+03
       189  21 -3.965092E+04 -1.746936E+06 -1.573519E+05  1.010879E+04 -2.009527E+03 -7.439975E+04
       189  22 -6.323055E+04 -1.856254E+06 -1.791483E+05  2.604121E+04  1.204969E+02  6.696425E+04
       189  23  2.937815E+04 -1.827940E+06 -1.351376E+05 -7.406914E+03 -1.069727E+03 -3.624088E+03
       189  24 -6.693656E+04 -1.856256E+06 -1.844282E+05  2.603517E+04 -2.011286E+03 -7.421289E+04
       189  25 -6.928888E+04 -1.880250E+06 -1.851758E+05  1.027580E+04  1.191278E+02  6.725667E+04
       189  26  1.271590E+04 -1.894587E+06 -1.516680E+05 -7.327517E+03 -1.069484E+03 -3.386878E+03
       189  27 -9.422213E+04 -1.965564E+06 -2.115053E+05  4.195873E+04 -2.013036E+03 -7.402606E+04
       190   1  7.756205E+04 -1.613660E+06 -1.386592E+05  6.413135E+04  3.801842E+03  1.102884E+05
       190   2  1.852768E+05 -1.478585E+06 -2.070108E+05 -2.612264E+04  5.669716E+03  2.636365E+05
       190   3 -3.991451E+05 -1.536189E+06 -5.482270E+05 -5.560188E+04  2.010689E+03  4.170019E+05
       190   4  9.255442E+03 -1.886480E+06 -2.064398E+05  2.461798E+04  3.793985E+03  1.091728E+05
       190   5  1.074400E+05 -1.790167E+06 -2.841818E+05 -5.745422E+03  5.678669E+03  2.637694E+05
       190   6 -4.869311E+05 -1.886865E+06 -6.357621E+05  2.466249E+04  2.064904E+03  4.183733E+05
       190   7 -5.905091E+04 -2.159228E+06 -2.742251E+05 -1.487799E+04  3.786268E+03  1.080577E+05
       190   8  2.959745E+04 -2.101660E+06 -3.613599E+05  1.462153E+04  5.687634E+03  2.639022E+05
       190   9 -5.747022E+05 -2.237416E+06 -7.233031E+05  1.048814E+05  2.119502E+03  4.197439E+05
       190  10  7.755876E+04 -1.613673E+06 -1.386822E+05  6.413102E+04  1.305610E-09  3.025233E-09
       190  11  1.852581E+05 -1.478660E+06 -2.071418E+05 -2.612385E+04 -7.277159E-10  6.852549E-10
       190  12 -3.991919E+05 -1.536377E+06 -5.485545E+05 -5.560256E+04 -1.578129E-09 -6.246378E-10
       190  13  9.252214E+03 -1.886492E+06 -2.064623E+05  2.461765E+04  1.571316E-09 -1.931566E-09
       190  14  1.074212E+05 -1.790242E+06 -2.843130E+05 -5.746629E+03 -7.745214E-10 -5.186477E-10
       190  15 -4.869783E+05 -1.887054E+06 -6.360920E+05  2.466180E+04 -1.253171E-09 -1.267171E-10
       190  16 -5.905408E+04 -2.159240E+06 -2.742471E+05 -1.487832E+04 -6.628009E-10 -2.193128E-09
       190  17  2.957863E+04 -2.101735E+06 -3.614913E+05  1.462032E+04 -7.398855E-10 -1.564916E-09
       190  18 -5.747497E+05 -2.237605E+06 -7.236353E+05  1.048807E+05 -3.690955E-10  7.392987E-10
       190  19  7.756205E+04 -1.613660E+06 -1.386592E+05  6.413135E+04 -3.801842E+03 -1.102884E+05
       190  20  1.852768E+05 -1.478585E+06 -2.070108E+05 -2.612264E+04 -5.669716E+03 -2.636365E+05
       190  21 -3.991451E+05 -1.536189E+06 -5.482270E+05 -5.560188E+04 -2.010689E+03 -4.170019E+05
       190  22  9.255442E+03 -1.886480E+06 -2.064398E+05  2.461798E+04 -3.793985E+03 -1.091728E+05
       190  23  1.074400E+05 -1.790167E+06 -2.841818E+05 -5.745422E+03 -5.678669E+03 -2.637694E+05
       190  24 -4.869311E+05 -1.886865E+06 -6.357621E+05  2.466249E+04 -2.064904E+03 -4.183733E+05
       190  25 -5.905091E+04 -2.159228E+06 -2.742251E+05 -1.487799E+04 -3.786268E+03 -1.080577E+05
       190  26  2.959745E+04 -2.101660E+06 -3.613599E+05  1.462153E+04 -5.687634E+03 -2.639022E+05
       190  27 -5.747022E+05 -2.237416E+06 -7.233031E+05  1.048814E+05 -2.119502E+03 -4.197439E+05
       191   1  3.174044E+06  2.143161E+06  7.459981E+05  2.036470E+06  4.418395E+05  3.328775E+05
       191   2  2.896630E+06  1.586187E+06  2.934362E+05  2.341790E+06  2.891739E+05  2.214358E+05
       191   3  3.139179E+06  1.620457E+06  1.808204E+05  2.330425E+06  1.387915E+05  1.069025E+05
       191   4  3.460634E+06  2.178659E+06  8.099040E+05  2.100719E+06  4.428507E+05  3.335216E+05
       191   5  3.084864E+06  1.676043E+06  3.482176E+05  2.414641E+06  2.893320E+05  2.215347E+05
       191   6  3.229096E+06  1.764675E+06  2.270703E+05  2.411912E+06  1.381320E+05  1.064263E+05
       191   7  3.747329E+06  2.214168E+06  8.738105E+05  2.164980E+06  4.438625E+05  3.341657E+05
       191   8  3.273136E+06  1.765906E+06  4.029958E+05  2.487512E+06  2.894902E+05  2.216335E+05
       191   9  3.319026E+06  1.908926E+06  2.733191E+05  2.493419E+06  1.374725E+05  1.059498E+05
       191  10  3.173807E+06  2.142991E+06  7.454274E+05  2.036352E+06  6.952711E-10 -7.346506E-10
       191  11  2.896528E+06  1.586112E+06  2.931889E+05  2.341739E+06  5.795848E-10 -3.829639E-09
       191  12  3.139155E+06  1.620439E+06  1.807631E+05  2.330413E+06 -2.961369E-10 -1.212046E-09
       191  13  3.460395E+06  2.178488E+06  8.093310E+05  2.100601E+06  1.243827E-10 -1.151477E-09
       191  14  3.084761E+06  1.675968E+06  3.479700E+05  2.414590E+06  2.083701E-09 -3.028311E-09
       191  15  3.229073E+06  1.764658E+06  2.270137E+05  2.411901E+06  7.948880E-10 -2.092087E-09
       191  16  3.747089E+06  2.213997E+06  8.732352E+05  2.164862E+06  1.733429E-09 -1.093561E-09
       191  17  3.273034E+06  1.765831E+06  4.027480E+05  2.487461E+06  1.998693E-09 -3.667464E-09
       191  18  3.319003E+06  1.908909E+06  2.732630E+05  2.493407E+06  1.688744E-09 -3.131608E-09
       191  19  3.174044E+06  2.143161E+06  7.459981E+05  2.036470E+06 -4.418395E+05 -3.328775E+05
       191  20  2.896630E+06  1.586187E+06  2.934362E+05  2.341790E+06 -2.891739E+05 -2.214358E+05
       191  21  3.139179E+06  1.620457E+06  1.808204E+05  2.330425E+06 -1.387915E+05 -1.069025E+05
       191  22  3.460634E+06  2.178659E+06  8.099040E+05  2.100719E+06 -4.428507E+05 -3.335216E+05
       191  23  3.084864E+06  1.676043E+06  3.482176E+05  2.414641E+06 -2.893320E+05 -2.215347E+05
       191  24  3.229096E+06  1.764675E+06  2.270703E+05  2.411912E+06 -1.381320E+05 -1.064263E+05
       191  25  3.747329E+06  2.214168E+06  8.738105E+05  2.164980E+06 -4.438625E+05 -3.341657E+05
       191  26  3.273136E+06  1.765906E+06  4.029958E+05  2.487512E+06 -2.894902E+05 -2.216335E+05
       191  27  3.319026E+06  1.908926E+06  2.733191E+05  2.493419E+06 -1.374725E+05 -1.059498E+05
       192   1  3.175473E+06  1.801053E+06  1.713672E+05  2.316400E+06  1.090523E+05  8.309833E+04
       192   2  3.134411E+06  1.750875E+06  8.278515E+04  2.372878E+06  7.086363E+04  5.382855E+04
       192   3  3.204510E+06  1.751658E+06  5.654731E+04  2.374932E+06  3.296779E+04  2.416639E+04
       192   4  3.237781E+06  1.822531E+06  1.878668E+05  2.336700E+06  1.089994E+05  8.305498E+04
       192   5  3.165876E+06  1.767767E+06  9.231479E+04  2.385917E+06  7.071026E+04  5.371324E+04
       192   6  3.205148E+06  1.763980E+06  5.918661E+04  2.380709E+06  3.271656E+04  2.397911E+04
       192   7  3.300093E+06  1.844009E+06  2.043662E+05  2.357001E+06  1.089466E+05  8.301163E+04
       192   8  3.197343E+06  1.784659E+06  1.018443E+05  2.398955E+06  7.055687E+04  5.359793E+04
       192   9  3.205787E+06  1.776303E+06  6.182592E+04  2.386486E+06  3.246533E+04  2.379182E+04
       192  10  3.175459E+06  1.801042E+06  1.713321E+05  2.316393E+06  3.482824E-11 -7.195811E-10
       192  11  3.134405E+06  1.750870E+06  8.277038E+04  2.372875E+06 -5.599886E-10  2.106753E-09
       192  12  3.204509E+06  1.751657E+06  5.654420E+04  2.374931E+06  2.693324E-11 -4.525787E-10
       192  13  3.237766E+06  1.822520E+06  1.878318E+05  2.336693E+06 -1.463168E-09  5.427133E-11
       192  14  3.165870E+06  1.767763E+06  9.230009E+04  2.385913E+06  2.170927E-09  6.689930E-10
       192  15  3.205147E+06  1.763979E+06  5.918354E+04  2.380708E+06 -8.770002E-10  5.053514E-10
       192  16  3.300079E+06  1.843999E+06  2.043312E+05  2.356994E+06 -1.164832E-10  1.350055E-09
       192  17  3.197336E+06  1.784655E+06  1.018297E+05  2.398952E+06 -1.525648E-09  7.719783E-10
       192  18  3.205785E+06  1.776302E+06  6.182290E+04  2.386485E+06 -1.531836E-09  4.495698E-10
       192  19  3.175473E+06  1.801053E+06  1.713672E+05  2.316400E+06 -1.090523E+05 -8.309833E+04
       192  20  3.134411E+06  1.750875E+06  8.278515E+04  2.372878E+06 -7.086363E+04 -5.382855E+04
       192  21  3.204510E+06  1.751658E+06  5.654731E+04  2.374932E+06 -3.296779E+04 -2.416639E+04
       192  22  3.237781E+06  1.822531E+06  1.878668E+05  2.336700E+06 -1.089994E+05 -8.305498E+04
       192  23  3.165876E+06  1.767767E+06  9.231479E+04  2.385917E+06 -7.071026E+04 -5.371324E+04
       192  24  3.205148E+06  1.763980E+06  5.918661E+04  2.380709E+06 -3.271656E+04 -2.397911E+04
       192  25  3.300093E+06  1.844009E+06  2.043662E+05  2.357001E+06 -1.089466E+05 -8.301163E+04
       192  26  3.197343E+06  1.784659E+06  1.018443E+05  2.398955E+06 -7.055687E+04 -5.359793E+04
       192  27  3.205787E+06  1.776303E+06  6.182592E+04  2.386486E+06 -3.246533E+04 -2.379182E+04
       193   1  3.279577E+06  1.825290E+06  7.402977E+04  2.407362E+06  2.546984E+04  1.773526E+04
       193   2  3.272518E+06  1.850856E+06  6.325909E+04  2.430577E+06  1.357518E+04  7.624725E+03
       193   3  3.325024E+06  1.848038E+06  6.840756E+04  2.432845E+06  1.751922E+03 -2.581525E+03
       193   4  3.207173E+06  1.770508E+06  4.886334E+04  2.370036E+06  2.529025E+04  1.760081E+04
       193   5  3.175818E+06  1.781873E+06  3.057414E+04  2.382637E+06  1.337428E+04  7.474373E+03
       193   6  3.204034E+06  1.764861E+06  2.822407E+04  2.374289E+06  1.530398E+03 -2.747374E+03
       193   7  3.134774E+06  1.715730E+06  2.369608E+04  2.332714E+06  2.511069E+04  1.746638E+04
       193   8  3.079128E+06  1.712896E+06 -2.112112E+03  2.334705E+06  1.317341E+04  7.324053E+03
       193   9  3.083060E+06  1.681690E+06 -1.196128E+04  2.315747E+06  1.308933E+03 -2.913181E+03
       193  10  3.279577E+06  1.825289E+06  7.402798E+04  2.407361E+06 -4.281327E-10 -1.445966E-09
       193  11  3.272518E+06  1.850856E+06  6.325864E+04  2.430577E+06 -1.492815E-09  5.104325E-10
       193  12  3.325024E+06  1.848038E+06  6.840755E+04  2.432845E+06 -5.314183E-10  5.936246E-10
       193  13  3.207172E+06  1.770508E+06  4.886157E+04  2.370035E+06  1.377629E-09 -7.769461E-10
       193  14  3.175818E+06  1.781873E+06  3.057370E+04  2.382637E+06 -5.618610E-10  4.958166E-10
       193  15  3.204034E+06  1.764861E+06  2.822405E+04  2.374289E+06 -1.526371E-09 -5.801078E-10
       193  16  3.134773E+06  1.715730E+06  2.369434E+04  2.332714E+06  1.589479E-09  1.646255E-09
       193  17  3.079127E+06  1.712896E+06 -2.112536E+03  2.334705E+06 -4.748334E-10  1.465231E-09
       193  18  3.083060E+06  1.681690E+06 -1.196130E+04  2.315747E+06 -1.299722E-09 -1.545419E-09
       193  19  3.279577E+06  1.825290E+06  7.402977E+04  2.407362E+06 -2.546984E+04 -1.773526E+04
       193  20  3.272518E+06  1.850856E+06  6.325909E+04  2.430577E+06 -1.357518E+04 -7.624725E+03
       193  21  3.325024E+06  1.848038E+06  6.840756E+04  2.432845E+06 -1.751922E+03  2.581525E+03
       193  22  3.207173E+06  1.770508E+06  4.886334E+04  2.370036E+06 -2.529025E+04 -1.760081E+04
       193  23  3.175818E+06  1.781873E+06  3.057414E+04  2.382637E+06 -1.337428E+04 -7.474373E+03
       193  24  3.204034E+06  1.764861E+06  2.822407E+04  2.374289E+06 -1.530398E+03  2.747374E+03
       193  25  3.134774E+06  1.715730E+06  2.369608E+04  2.332714E+06 -2.511069E+04 -1.746638E+04
       193  26  3.079128E+06  1.712896E+06 -2.112112E+03  2.334705E+06 -1.317341E+04 -7.324053E+03
       193  27  3.083060E+06  1.681690E+06 -1.196128E+04  2.315747E+06 -1.308933E+03  2.913181E+03
       194   1  3.427383E+06  1.919297E+06  1.038443E+05  2.485444E+06 -1.690317E+03 -6.318882E+03
       194   2  3.422848E+06  1.963440E+06  1.206812E+05  2.509786E+06 -1.568678E+04 -1.858771E+04
       194   3  3.507163E+06  1.975367E+06  1.603758E+05  2.501196E+06 -3.023825E+04 -3.011620E+04
       194   4  3.207918E+06  1.759364E+06  2.891540E+04  2.375096E+06 -2.055078E+03 -6.592082E+03
       194   5  3.168534E+06  1.784452E+06  3.523565E+04  2.384813E+06 -1.586544E+04 -1.872188E+04
       194   6  3.217970E+06  1.777293E+06  6.426245E+04  2.361594E+06 -3.022983E+04 -3.011057E+04
       194   7  2.988501E+06  1.599457E+06 -4.602035E+04  2.264792E+06 -2.419664E+03 -6.865147E+03
       194   8  2.914286E+06  1.605496E+06 -5.021890E+04  2.259896E+06 -1.604401E+04 -1.885598E+04
       194   9  2.928864E+06  1.579257E+06 -3.186239E+04  2.222062E+06 -3.022141E+04 -3.010494E+04
       194  10  3.427383E+06  1.919297E+06  1.038443E+05  2.485444E+06  3.628991E-10 -5.062320E-10
       194  11  3.422847E+06  1.963439E+06  1.206801E+05  2.509786E+06  1.927926E-10  6.596277E-10
       194  12  3.507161E+06  1.975365E+06  1.603724E+05  2.501195E+06 -1.712252E-09 -1.367072E-09
       194  13  3.207918E+06  1.759364E+06  2.891531E+04  2.375096E+06  1.247793E-09 -8.756276E-10
       194  14  3.168533E+06  1.784451E+06  3.523453E+04  2.384813E+06  1.675758E-09  9.522826E-10
       194  15  3.217969E+06  1.777291E+06  6.425905E+04  2.361593E+06 -3.942832E-09 -3.357714E-09
       194  16  2.988501E+06  1.599457E+06 -4.602045E+04  2.264792E+06  1.649206E-09 -4.031466E-10
       194  17  2.914286E+06  1.605496E+06 -5.022005E+04  2.259896E+06 -1.499273E-09 -5.830793E-10
       194  18  2.928863E+06  1.579256E+06 -3.186578E+04  2.222061E+06 -1.417814E-09 -1.094944E-09
       194  19  3.427383E+06  1.919297E+06  1.038443E+05  2.485444E+06  1.690317E+03  6.318882E+03
       194  20  3.422848E+06  1.963440E+06  1.206812E+05  2.509786E+06  1.568678E+04  1.858771E+04
       194  21  3.507163E+06  1.975367E+06  1.603758E+05  2.501196E+06  3.023825E+04  3.011620E+04
       194  22  3.207918E+06  1.759364E+06  2.891540E+04  2.375096E+06  2.055078E+03  6.592082E+03
       194  23  3.168534E+06  1.784452E+06  3.523565E+04  2.384813E+06  1.586544E+04  1.872188E+04
       194  24  3.217970E+06  1.777293E+06  6.426245E+04  2.361594E+06  3.022983E+04  3.011057E+04
       194  25  2.988501E+06  1.599457E+06 -4.602035E+04  2.264792E+06  2.419664E+03  6.865147E+03
       194  26  2.914286E+06  1.605496E+06 -5.021890E+04  2.259896E+06  1.604401E+04  1.885598E+04
       194  27  2.928864E+06  1.579257E+06 -3.186239E+04  2.222062E+06  3.022141E+04  3.010494E+04
       195   1  3.648570E+06  2.079809E+06  2.252388E+05  2.606361E+06 -3.707128E+04 -3.880557E+04
       195   2  3.631087E+06  2.106357E+06  2.801396E+05  2.637864E+06 -8.728749E+04 -8.038556E+04
       195   3  3.873019E+06  2.240078E+06  4.488239E+05  2.541574E+06 -1.438263E+05 -1.135699E+05
       195   4  3.223354E+06  1.750778E+06  7.641770E+04  2.383734E+06 -3.865686E+04 -3.999456E+04
       195   5  3.131819E+06  1.764562E+06  1.144916E+05  2.396851E+06 -8.679321E+04 -8.001697E+04
       195   6  3.299366E+06  1.885205E+06  2.646463E+05  2.282138E+06 -1.412462E+05 -1.116394E+05
       195   7  2.798326E+06  1.421866E+06 -7.242972E+04  2.161283E+06 -4.024095E+04 -4.118231E+04
       195   8  2.632810E+06  1.422886E+06 -5.118947E+04  2.156049E+06 -8.629942E+04 -7.964873E+04
       195   9  2.726058E+06  1.530451E+06  8.042833E+04  2.022949E+06 -1.386693E+05 -1.097108E+05
       195  10  3.648569E+06  2.079807E+06  2.252335E+05  2.606359E+06 -7.640642E-10 -2.050918E-09
       195  11  3.631078E+06  2.106348E+06  2.801133E+05  2.637858E+06  2.927856E-09  4.246502E-09
       195  12  3.872993E+06  2.240059E+06  4.487614E+05  2.541561E+06  1.340918E-09  4.031489E-10
       195  13  3.223352E+06  1.750776E+06  7.641194E+04  2.383733E+06  8.799674E-11 -1.545351E-09
       195  14  3.131809E+06  1.764554E+06  1.144656E+05  2.396846E+06  2.724023E-09  5.453853E-09
       195  15  3.299342E+06  1.885186E+06  2.645859E+05  2.282125E+06  7.441635E-10 -7.827096E-10
       195  16  2.798323E+06  1.421863E+06 -7.243591E+04  2.161281E+06  2.511420E-10  1.052997E-09
       195  17  2.632800E+06  1.422878E+06 -5.121521E+04  2.156043E+06  1.520570E-09  1.613208E-09
       195  18  2.726034E+06  1.530433E+06  8.036998E+04  2.022937E+06 -1.858690E-10  8.649301E-10
       195  19  3.648570E+06  2.079809E+06  2.252388E+05  2.606361E+06  3.707128E+04  3.880557E+04
       195  20  3.631087E+06  2.106357E+06  2.801396E+05  2.637864E+06  8.728749E+04  8.038556E+04
       195  21  3.873019E+06  2.240078E+06  4.488239E+05  2.541574E+06  1.438263E+05  1.135699E+05
       195  22  3.223354E+06  1.750778E+06  7.641770E+04  2.383734E+06  3.865686E+04  3.999456E+04
       195  23  3.131819E+06  1.764562E+06  1.144916E+05  2.396851E+06  8.679321E+04  8.001697E+04
       195  24  3.299366E+06  1.885205E+06  2.646463E+05  2.282138E+06  1.412462E+05  1.116394E+05
       195  25  2.798326E+06  1.421866E+06 -7.242972E+04  2.161283E+06  4.024095E+04  4.118231E+04
       195  26  2.632810E+06  1.422886E+06 -5.118947E+04  2.156049E+06  8.629942E+04  7.964873E+04
       195  27  2.726058E+06  1.530451E+06  8.042833E+04  2.022949E+06  1.386693E+05  1.097108E+05
       196   1 -1.513463E+05  5.965791E+05 -1.065563E+05  1.368370E+05 -6.817895E+03  1.431025E+05
       196   2 -2.824234E+05  8.081599E+05 -1.678996E+05 -3.360411E+04 -1.789905E+04  1.048274E+05
       196   3 -1.993348E+05  1.079942E+06 -1.504260E+05  1.733681E+05 -8.113562E+03  6.645673E+04
       196   4  1.586482E+05  1.838492E+06  2.024097E+05  1.643618E+05 -6.798010E+03  1.484343E+05
       196   5 -3.329806E+04  1.808037E+06  7.887201E+04 -2.410516E+04 -1.789519E+04  1.050655E+05
       196   6 -1.038244E+04  1.838493E+06  3.756556E+04  1.647971E+05 -8.138252E+03  6.161641E+04
       196   7  4.685297E+05  3.081802E+06  5.112608E+05  1.919407E+05 -6.777680E+03  1.537765E+05
       196   8  2.157532E+05  2.808822E+06  3.255697E+05 -1.459170E+04 -1.789133E+04  1.053039E+05
       196   9  1.785273E+05  2.597565E+06  2.255145E+05  1.562150E+05 -8.162792E+03  5.677015E+04
       196  10 -1.513518E+05  5.965571E+05 -1.065949E+05  1.368378E+05  2.470971E-10 -6.513274E-10
       196  11 -2.824267E+05  8.081481E+05 -1.679208E+05 -3.360260E+04  2.651771E-09  1.438502E-08
       196  12 -1.993361E+05  1.079937E+06 -1.504344E+05  1.733686E+05  2.630969E-09  2.865925E-09
       196  13  1.586423E+05  1.838468E+06  2.023684E+05  1.643626E+05  9.361500E-10  2.471335E-09
       196  14 -3.330136E+04  1.808026E+06  7.885073E+04 -2.410365E+04 -1.199227E-09 -2.273413E-10
       196  15 -1.038352E+04  1.838488E+06  3.755832E+04  1.647975E+05 -1.119522E-10  6.027160E-10
       196  16  4.685233E+05  3.081777E+06  5.112165E+05  1.919415E+05 -1.499084E-09 -1.744162E-09
       196  17  2.157499E+05  2.808810E+06  3.255483E+05 -1.459019E+04 -2.466314E-09  3.200196E-09
       196  18  1.785264E+05  2.597561E+06  2.255083E+05  1.562154E+05  2.664711E-09 -6.737893E-09
       196  19 -1.513463E+05  5.965791E+05 -1.065563E+05  1.368370E+05  6.817895E+03 -1.431025E+05
       196  20 -2.824234E+05  8.081599E+05 -1.678996E+05 -3.360411E+04  1.789905E+04 -1.048274E+05
       196  21 -1.993348E+05  1.079942E+06 -1.504260E+05  1.733681E+05  8.113562E+03 -6.645673E+04
       196  22  1.586482E+05  1.838492E+06  2.024097E+05  1.643618E+05  6.798010E+03 -1.484343E+05
       196  23 -3.329806E+04  1.808037E+06  7.887201E+04 -2.410516E+04  1.789519E+04 -1.050655E+05
       196  24 -1.038244E+04  1.838493E+06  3.756556E+04  1.647971E+05  8.138252E+03 -6.161641E+04
       196  25  4.685297E+05  3.081802E+06  5.112608E+05  1.919407E+05  6.777680E+03 -1.537765E+05
       196  26  2.157532E+05  2.808822E+06  3.255697E+05 -1.459170E+04  1.789133E+04 -1.053039E+05
       196  27  1.785273E+05  2.597565E+06  2.255145E+05  1.562150E+05  8.162792E+03 -5.677015E+04
       197   1  6.792270E+04  1.993105E+06  6.407143E+04  1.633517E+05  6.635992E+02  5.786363E+04
       197   2  1.055267E+05  2.234916E+06  8.062338E+04 -2.275381E+04  6.762084E+03  6.791523E+04
       197   3  1.170289E+05  2.465650E+06  8.343829E+04  1.599442E+05  1.156721E+04  7.798547E+04
       197   4  2.539470E+04  1.822608E+06  2.159311E+04  1.625735E+05  6.551323E+02  5.623393E+04
       197   5  4.319834E+03  1.828280E+06 -1.979401E+04 -2.168519E+04  6.756583E+03  6.658456E+04
       197   6 -4.292102E+04  1.822750E+06 -7.514145E+04  1.628754E+05  1.156424E+04  7.695002E+04
       197   7 -1.713548E+04  1.652137E+06 -2.088738E+04  1.617956E+05  6.466681E+02  5.460468E+04
       197   8 -9.689937E+04  1.421793E+06 -1.202236E+05 -2.061743E+04  6.751075E+03  6.525474E+04
       197   9 -2.029016E+05  1.180225E+06 -2.337517E+05  1.658031E+05  1.156127E+04  7.591561E+04
       197  10  6.792181E+04  1.993101E+06  6.406516E+04  1.633516E+05  1.181744E-09  7.425660E-10
       197  11  1.055255E+05  2.234911E+06  8.061466E+04 -2.275418E+04  1.093590E-09  1.658734E-08
       197  12  1.170271E+05  2.465644E+06  8.342666E+04  1.599435E+05  2.132520E-10  1.132928E-09
       197  13  2.539385E+04  1.822605E+06  2.158718E+04  1.625735E+05 -7.056356E-11  5.298179E-09
       197  14  4.318599E+03  1.828275E+06 -1.980240E+04 -2.168555E+04 -3.285770E-09  4.910058E-12
       197  15 -4.292275E+04  1.822744E+06 -7.515280E+04  1.628747E+05 -1.349579E-09  4.642800E-10
       197  16 -1.713628E+04  1.652134E+06 -2.089297E+04  1.617956E+05  1.754301E-09 -6.011895E-09
       197  17 -9.690056E+04  1.421789E+06 -1.202317E+05 -2.061778E+04 -2.433738E-09  5.432392E-09
       197  18 -2.029033E+05  1.180218E+06 -2.337628E+05  1.658024E+05 -2.668828E-10 -4.128710E-09
       197  19  6.792270E+04  1.993105E+06  6.407143E+04  1.633517E+05 -6.635992E+02 -5.786363E+04
       197  20  1.055267E+05  2.234916E+06  8.062338E+04 -2.275381E+04 -6.762084E+03 -6.791523E+04
       197  21  1.170289E+05  2.465650E+06  8.343829E+04  1.599442E+05 -1.156721E+04 -7.798547E+04
       197  22  2.539470E+04  1.822608E+06  2.159311E+04  1.625735E+05 -6.551323E+02 -5.623393E+04
       197  23  4.319834E+03  1.828280E+06 -1.979401E+04 -2.168519E+04 -6.756583E+03 -6.658456E+04
       197  24 -4.292102E+04  1.822750E+06 -7.514145E+04  1.628754E+05 -1.156424E+04 -7.695002E+04
       197  25 -1.713548E+04  1.652137E+06 -2.088738E+04  1.617956E+05 -6.466681E+02 -5.460468E+04
       197  26 -9.689937E+04  1.421793E+06 -1.202236E+05 -2.061743E+04 -6.751075E+03 -6.525474E+04
       197  27 -2.029016E+05  1.180225E+06 -2.337517E+05  1.658031E+05 -1.156127E+04 -7.591561E+04
       198   1  4.157931E+05  3.407971E+06  3.008203E+05  1.971758E+05  2.209682E+04  9.885644E+04
       198   2  5.253811E+05  3.714030E+06  2.971107E+05 -4.256172E+04  3.326249E+04  1.793689E+05
       198   3  2.310048E+05  3.925215E+06  1.435551E+05  1.191623E+05  1.180036E+04  2.599384E+05
       198   4  1.619846E+04  1.802954E+06 -9.590432E+04  1.700084E+05  2.207399E+04  9.211358E+04
       198   5  6.231875E+04  1.851596E+06 -1.618763E+05 -3.092888E+04  3.327321E+04  1.802561E+05
       198   6 -2.975261E+05  1.803580E+06 -3.833350E+05  1.696836E+05  1.181217E+04  2.684211E+05
       198   7 -3.835856E+05  2.002659E+05 -4.928195E+05  1.429088E+05  2.205172E+04  8.538780E+04
       198   8 -4.010006E+05 -7.702193E+03 -6.211192E+05 -1.933142E+04  3.328399E+04  1.811400E+05
       198   9 -8.263843E+05 -3.139887E+05 -9.105596E+05  2.200339E+05  1.182540E+04  2.768737E+05
       198  10  4.157900E+05  3.407961E+06  3.008011E+05  1.971740E+05  1.274551E-09 -4.046018E-10
       198  11  5.253714E+05  3.713996E+06  2.970485E+05 -4.256652E+04  1.164287E-09  1.906349E-09
       198  12  2.309867E+05  3.925142E+06  1.434286E+05  1.191598E+05  2.995208E-10 -2.015797E-10
       198  13  1.619567E+04  1.802944E+06 -9.592113E+04  1.700068E+05  2.383025E-09  3.428466E-09
       198  14  6.230886E+04  1.851561E+06 -1.619393E+05 -3.093371E+04  1.302735E-09 -1.007990E-10
       198  15 -2.975455E+05  1.803503E+06 -3.834703E+05  1.696810E+05 -7.812443E-10  3.479021E-11
       198  16 -3.835880E+05  2.002580E+05 -4.928341E+05  1.429073E+05  6.053850E-10 -3.205135E-09
       198  17 -4.010106E+05 -7.737744E+03 -6.211829E+05 -1.933628E+04 -2.683601E-10  2.685694E-09
       198  18 -8.264050E+05 -3.140711E+05 -9.107040E+05  2.200312E+05 -2.725654E-10  1.234393E-09
       198  19  4.157931E+05  3.407971E+06  3.008203E+05  1.971758E+05 -2.209682E+04 -9.885644E+04
       198  20  5.253811E+05  3.714030E+06  2.971107E+05 -4.256172E+04 -3.326249E+04 -1.793689E+05
       198  21  2.310048E+05  3.925215E+06  1.435551E+05  1.191623E+05 -1.180036E+04 -2.599384E+05
       198  22  1.619846E+04  1.802954E+06 -9.590432E+04  1.700084E+05 -2.207399E+04 -9.211358E+04
       198  23  6.231875E+04  1.851596E+06 -1.618763E+05 -3.092888E+04 -3.327321E+04 -1.802561E+05
       198  24 -2.975261E+05  1.803580E+06 -3.833350E+05  1.696836E+05 -1.181217E+04 -2.684211E+05
       198  25 -3.835856E+05  2.002659E+05 -4.928195E+05  1.429088E+05 -2.205172E+04 -8.538780E+04
       198  26 -4.010006E+05 -7.702193E+03 -6.211192E+05 -1.933142E+04 -3.328399E+04 -1.811400E+05
       198  27 -8.263843E+05 -3.139887E+05 -9.105596E+05  2.200339E+05 -1.182540E+04 -2.768737E+05
       199   1 -7.877953E+05 -8.327972E+04 -1.320663E+05 -6.115362E+03 -1.397991E+05 -1.453783E+03
       199   2 -7.854326E+05  1.059671E+05 -2.161792E+04 -8.574732E+03 -9.092144E+04 -4.827414E+03
       199   3 -8.453731E+05  6.894738E+04  5.518881E+02  3.369890E+04 -4.203547E+04 -3.485494E+03
       199   4 -1.100370E+06 -1.616234E+05 -2.100475E+05  2.091698E+04 -1.410951E+05 -1.456518E+03
       199   5 -1.069066E+06  3.510585E+04 -9.182313E+04 -1.241453E+03 -9.111003E+04 -4.828153E+03
       199   6 -1.100290E+06  5.318475E+03 -6.267910E+04  2.133409E+04 -4.111429E+04 -3.486399E+03
       199   7 -1.412855E+06 -2.399717E+05 -2.880357E+05  4.793575E+04 -1.423904E+05 -1.459368E+03
       199   8 -1.352627E+06 -3.576124E+04 -1.620343E+05  6.088509E+03 -9.129853E+04 -4.828897E+03
       199   9 -1.355148E+06 -5.831471E+04 -1.259149E+05  8.974384E+03 -4.019349E+04 -3.487341E+03
       199  10 -7.878163E+05 -8.328498E+04 -1.321030E+05 -6.115526E+03  2.664395E-10 -1.234233E-10
       199  11 -7.854415E+05  1.059649E+05 -2.163352E+04 -8.575086E+03 -3.277807E-09 -6.391132E-11
       199  12 -8.453750E+05  6.894689E+04  5.485403E+02  3.369878E+04  6.022539E-10  2.841347E-10
       199  13 -1.100392E+06 -1.616287E+05 -2.100850E+05  2.091682E+04  2.195229E-11 -4.427291E-11
       199  14 -1.069075E+06  3.510359E+04 -9.183880E+04 -1.241807E+03  1.645311E-09 -1.154785E-10
       199  15 -1.100292E+06  5.318007E+03 -6.268231E+04  2.133397E+04  4.764090E-10  4.678491E-10
       199  16 -1.412877E+06 -2.399772E+05 -2.880739E+05  4.793558E+04  1.904799E-09 -7.345808E-11
       199  17 -1.352635E+06 -3.576351E+04 -1.620501E+05  6.088153E+03  2.798931E-09 -6.051281E-11
       199  18 -1.355149E+06 -5.831516E+04 -1.259179E+05  8.974271E+03  1.233944E-09  5.576092E-10
       199  19 -7.877953E+05 -8.327972E+04 -1.320663E+05 -6.115362E+03  1.397991E+05  1.453783E+03
       199  20 -7.854326E+05  1.059671E+05 -2.161792E+04 -8.574732E+03  9.092144E+04  4.827414E+03
       199  21 -8.453731E+05  6.894738E+04  5.518881E+02  3.369890E+04  4.203547E+04  3.485494E+03
       199  22 -1.100370E+06 -1.616234E+05 -2.100475E+05  2.091698E+04  1.410951E+05  1.456518E+03
       199  23 -1.069066E+06  3.510585E+04 -9.182313E+04 -1.241453E+03  9.111003E+04  4.828153E+03
       199  24 -1.100290E+06  5.318475E+03 -6.267910E+04  2.133409E+04  4.111429E+04  3.486399E+03
       199  25 -1.412855E+06 -2.399717E+05 -2.880357E+05  4.793575E+04  1.423904E+05  1.459368E+03
       199  26 -1.352627E+06 -3.576124E+04 -1.620343E+05  6.088509E+03  9.129853E+04  4.828897E+03
       199  27 -1.355148E+06 -5.831471E+04 -1.259149E+05  8.974384E+03  4.019349E+04  3.487341E+03
       200   1 -9.538451E+05  1.087993E+04 -2.037397E+04  1.787269E+04 -3.074026E+04 -2.160461E+03
       200   2 -9.789953E+05  3.219482E+04 -7.230760E+03 -3.102115E+03 -1.375862E+04 -1.669303E+03
       200   3 -1.016093E+06  1.360704E+04 -1.508080E+04  2.461625E+04  3.222791E+03 -5.947709E+02
       200   4 -1.089063E+06 -2.291115E+04 -5.387523E+04  2.205783E+04 -3.068137E+04 -2.160789E+03
       200   5 -1.083072E+06  6.196039E+03 -3.301622E+04 -2.273194E+03 -1.356310E+04 -1.669642E+03
       200   6 -1.089054E+06 -4.627043E+03 -3.324853E+04  2.208962E+04  3.555799E+03 -5.952583E+02
       200   7 -1.224265E+06 -5.670353E+04 -8.737786E+04  2.624207E+04 -3.062249E+04 -2.161117E+03
       200   8 -1.187138E+06 -1.980355E+04 -5.880249E+04 -1.444407E+03 -1.336761E+04 -1.669980E+03
       200   9 -1.162011E+06 -2.286150E+04 -5.141666E+04  1.956329E+04  3.888769E+03 -5.957483E+02
       200  10 -9.538461E+05  1.087967E+04 -2.037575E+04  1.787263E+04  1.378851E-09 -1.590015E-10
       200  11 -9.789955E+05  3.219477E+04 -7.231122E+03 -3.102134E+03  1.066597E-09 -6.576377E-10
       200  12 -1.016093E+06  1.360704E+04 -1.508082E+04  2.461625E+04 -1.497774E-09  2.888004E-10
       200  13 -1.089064E+06 -2.291140E+04 -5.387701E+04  2.205778E+04  3.271575E-11  4.244233E-11
       200  14 -1.083072E+06  6.195986E+03 -3.301658E+04 -2.273212E+03 -5.896762E-10 -5.234150E-10
       200  15 -1.089054E+06 -4.627046E+03 -3.324856E+04  2.208962E+04 -3.572565E-10  2.660467E-10
       200  16 -1.224266E+06 -5.670379E+04 -8.737963E+04  2.624201E+04  2.907856E-10  2.755048E-10
       200  17 -1.187138E+06 -1.980360E+04 -5.880284E+04 -1.444425E+03  2.942125E-09 -7.243526E-10
       200  18 -1.162011E+06 -2.286151E+04 -5.141669E+04  1.956329E+04  6.105104E-10  9.792909E-11
       200  19 -9.538451E+05  1.087993E+04 -2.037397E+04  1.787269E+04  3.074026E+04  2.160461E+03
       200  20 -9.789953E+05  3.219482E+04 -7.230760E+03 -3.102115E+03  1.375862E+04  1.669303E+03
       200  21 -1.016093E+06  1.360704E+04 -1.508080E+04  2.461625E+04 -3.222791E+03  5.947709E+02
       200  22 -1.089063E+06 -2.291115E+04 -5.387523E+04  2.205783E+04  3.068137E+04  2.160789E+03
       200  23 -1.083072E+06  6.196039E+03 -3.301622E+04 -2.273194E+03  1.356310E+04  1.669642E+03
       200  24 -1.089054E+06 -4.627043E+03 -3.324853E+04  2.208962E+04 -3.555799E+03  5.952583E+02
       200  25 -1.224265E+06 -5.670353E+04 -8.737786E+04  2.624207E+04  3.062249E+04  2.161117E+03
       200  26 -1.187138E+06 -1.980355E+04 -5.880249E+04 -1.444407E+03  1.336761E+04  1.669980E+03
       200  27 -1.162011E+06 -2.286150E+04 -5.141666E+04  1.956329E+04 -3.888769E+03  5.957483E+02
       201   1 -1.141589E+06 -1.472777E+04 -4.800409E+04  1.866200E+04  9.382759E+03  2.444089E+02
       201   2 -1.164139E+06 -1.158374E+04 -6.506648E+04 -8.985306E+02  3.273003E+04  1.301853E+03
       201   3 -1.204093E+06 -6.673290E+04 -1.118768E+05  2.840942E+04  5.607502E+04  1.821296E+03
       201   4 -1.090253E+06 -1.898267E+03 -3.519676E+04  2.213853E+04  9.709466E+03  2.440032E+02
       201   5 -1.081574E+06  9.046289E+03 -4.460915E+04 -2.325271E+03  3.293036E+04  1.301466E+03
       201   6 -1.090274E+06 -3.827601E+04 -8.367829E+04  2.207932E+04  5.615015E+04  1.820592E+03
       201   7 -1.038914E+06  1.093109E+04 -2.238962E+04  2.561536E+04  1.003620E+04  2.436011E+02
       201   8 -9.990024E+05  2.967581E+04 -2.415232E+04 -3.752199E+03  3.313072E+04  1.301077E+03
       201   9 -9.764445E+05 -9.819940E+03 -5.548078E+04  1.574807E+04  5.622530E+04  1.819887E+03
       201  10 -1.141589E+06 -1.472779E+04 -4.800425E+04  1.866199E+04 -1.943363E-09  5.954893E-10
       201  11 -1.164140E+06 -1.158403E+04 -6.506851E+04 -8.985649E+02 -4.545463E-10 -8.326830E-10
       201  12 -1.204096E+06 -6.673375E+04 -1.118827E+05  2.840933E+04  1.352950E-09 -5.174773E-10
       201  13 -1.090253E+06 -1.898292E+03 -3.519694E+04  2.213853E+04  4.213297E-11  6.349789E-10
       201  14 -1.081575E+06  9.045996E+03 -4.461119E+04 -2.325306E+03 -1.294829E-10 -2.975169E-10
       201  15 -1.090278E+06 -3.827686E+04 -8.368423E+04  2.207924E+04 -4.764895E-10 -1.653936E-10
       201  16 -1.038914E+06  1.093106E+04 -2.238981E+04  2.561536E+04 -2.075034E-10  9.504289E-10
       201  17 -9.990035E+05  2.967552E+04 -2.415439E+04 -3.752234E+03  1.378604E-09 -1.667683E-10
       201  18 -9.764479E+05 -9.820793E+03 -5.548673E+04  1.574799E+04 -3.820593E-09 -3.242839E-10
       201  19 -1.141589E+06 -1.472777E+04 -4.800409E+04  1.866200E+04 -9.382759E+03 -2.444089E+02
       201  20 -1.164139E+06 -1.158374E+04 -6.506648E+04 -8.985306E+02 -3.273003E+04 -1.301853E+03
       201  21 -1.204093E+06 -6.673290E+04 -1.118768E+05  2.840942E+04 -5.607502E+04 -1.821296E+03
       201  22 -1.090253E+06 -1.898267E+03 -3.519676E+04  2.213853E+04 -9.709466E+03 -2.440032E+02
       201  23 -1.081574E+06  9.046289E+03 -4.460915E+04 -2.325271E+03 -3.293036E+04 -1.301466E+03
       201  24 -1.090274E+06 -3.827601E+04 -8.367829E+04  2.207932E+04 -5.615015E+04 -1.820592E+03
       201  25 -1.038914E+06  1.093109E+04 -2.238962E+04  2.561536E+04 -1.003620E+04 -2.436011E+02
       201  26 -9.990024E+05  2.967581E+04 -2.415232E+04 -3.752199E+03 -3.313072E+04 -1.301077E+03
       201  27 -9.764445E+05 -9.819940E+03 -5.548078E+04  1.574807E+04 -5.622530E+04 -1.819887E+03
       202   1 -1.344041E+06 -4.881285E+04 -1.580010E+05  7.212228E+02  7.167410E+04  3.103627E+03
       202   2 -1.321042E+06 -7.600187E+03 -2.160232E+05  1.047140E+04  1.549099E+05  4.364918E+03
       202   3 -1.402409E+06 -3.425276E+05 -4.222218E+05  6.525244E+04  2.381353E+05  1.145675E+03
       202   4 -1.109530E+06  9.702418E+03 -9.981330E+04  2.147870E+04  7.256842E+04  3.104430E+03
       202   5 -1.057525E+06  5.827941E+04 -1.507722E+05 -1.368527E+03  1.547595E+05  4.362249E+03
       202   6 -1.109660E+06 -2.690194E+05 -3.491343E+05  2.081742E+04  2.369444E+05  1.131612E+03
       202   7 -8.749670E+05  6.821520E+04 -4.162943E+04  4.224406E+04  7.346306E+04  3.105293E+03
       202   8 -7.939450E+05  1.241543E+05 -8.552623E+04 -1.321346E+04  1.546091E+05  4.359587E+03
       202   9 -8.168298E+05 -1.955104E+05 -2.760522E+05 -2.363855E+04  2.357529E+05  1.117725E+03
       202  10 -1.344047E+06 -4.881424E+04 -1.580107E+05  7.210435E+02  1.099974E-09  1.819898E-10
       202  11 -1.321067E+06 -7.606668E+03 -2.160684E+05  1.047085E+04 -6.128406E-10  6.232688E-10
       202  12 -1.402470E+06 -3.425428E+05 -4.223286E+05  6.525222E+04 -3.812636E-10  3.148441E-10
       202  13 -1.109535E+06  9.700991E+03 -9.982323E+04  2.147852E+04  1.029856E-09  3.749351E-10
       202  14 -1.057551E+06  5.827295E+04 -1.508173E+05 -1.369071E+03  5.930282E-10  1.410194E-09
       202  15 -1.109721E+06 -2.690345E+05 -3.492400E+05  2.081721E+04  1.434764E-09  1.126665E-09
       202  16 -8.749728E+05  6.821374E+04 -4.163961E+04  4.224387E+04  1.006666E-09  2.597411E-10
       202  17 -7.939707E+05  1.241479E+05 -8.557125E+04 -1.321400E+04  3.215473E-09  1.233914E-09
       202  18 -8.168895E+05 -1.955253E+05 -2.761568E+05 -2.363876E+04 -2.314518E-10  7.921268E-10
       202  19 -1.344041E+06 -4.881285E+04 -1.580010E+05  7.212228E+02 -7.167410E+04 -3.103627E+03
       202  20 -1.321042E+06 -7.600187E+03 -2.160232E+05  1.047140E+04 -1.549099E+05 -4.364918E+03
       202  21 -1.402409E+06 -3.425276E+05 -4.222218E+05  6.525244E+04 -2.381353E+05 -1.145675E+03
       202  22 -1.109530E+06  9.702418E+03 -9.981330E+04  2.147870E+04 -7.256842E+04 -3.104430E+03
       202  23 -1.057525E+06  5.827941E+04 -1.507722E+05 -1.368527E+03 -1.547595E+05 -4.362249E+03
       202  24 -1.109660E+06 -2.690194E+05 -3.491343E+05  2.081742E+04 -2.369444E+05 -1.131612E+03
       202  25 -8.749670E+05  6.821520E+04 -4.162943E+04  4.224406E+04 -7.346306E+04 -3.105293E+03
       202  26 -7.939450E+05  1.241543E+05 -8.552623E+04 -1.321346E+04 -1.546091E+05 -4.359587E+03
       202  27 -8.168298E+05 -1.955104E+05 -2.760522E+05 -2.363855E+04 -2.357529E+05 -1.117725E+03
       203   1 -1.535155E+05 -9.266872E+05 -1.836816E+05  2.740804E+04 -1.483302E+03 -8.874675E+04
       203   2 -2.636519E+04 -8.865725E+05 -1.046350E+05 -9.194580E+02 -3.593780E+03 -5.701655E+04
       203   3 -4.006831E+04 -8.858776E+05 -8.148805E+04  2.764120E+03 -2.508459E+03 -2.529456E+04
       203   4 -1.002131E+05 -7.130770E+05 -1.304426E+05  1.142068E+04 -1.478446E+03 -8.785592E+04
       203   5  2.182731E+04 -6.934228E+05 -5.684439E+04 -4.729763E+03 -3.592918E+03 -5.688253E+04
       203   6  3.169202E+03 -7.130446E+05 -3.860620E+04  1.113114E+04 -2.510779E+03 -2.591843E+04
       203   7 -4.691328E+04 -4.994247E+05 -7.720687E+04 -4.572215E+03 -1.473637E+03 -8.696477E+04
       203   8  7.001708E+04 -5.002391E+05 -9.056527E+03 -8.541282E+03 -3.592058E+03 -5.674846E+04
       203   9  4.640473E+04 -5.401843E+05  4.273451E+03  1.950047E+04 -2.513115E+03 -2.654248E+04
       203  10 -1.535176E+05 -9.266957E+05 -1.836964E+05  2.740794E+04  1.917172E-10 -4.338661E-10
       203  11 -2.636608E+04 -8.865760E+05 -1.046412E+05 -9.196231E+02  1.278711E-09 -2.778679E-10
       203  12 -4.006849E+04 -8.858783E+05 -8.148927E+04  2.764069E+03  2.640314E-09  9.118846E-10
       203  13 -1.002152E+05 -7.130853E+05 -1.304571E+05  1.142058E+04 -1.182631E-09  5.480017E-11
       203  14  2.182643E+04 -6.934263E+05 -5.685050E+04 -4.729928E+03  6.807706E-10  3.728976E-10
       203  15  3.169015E+03 -7.130453E+05 -3.860748E+04  1.113109E+04  5.146714E-10  1.934105E-10
       203  16 -4.691532E+04 -4.994329E+05 -7.722109E+04 -4.572318E+03 -8.841506E-10  4.495793E-10
       203  17  7.001621E+04 -5.002426E+05 -9.062608E+03 -8.541446E+03 -2.196524E-09  3.162080E-10
       203  18  4.640453E+04 -5.401850E+05  4.272114E+03  1.950042E+04  2.991966E-10 -8.199523E-10
       203  19 -1.535155E+05 -9.266872E+05 -1.836816E+05  2.740804E+04  1.483302E+03  8.874675E+04
       203  20 -2.636519E+04 -8.865725E+05 -1.046350E+05 -9.194580E+02  3.593780E+03  5.701655E+04
       203  21 -4.006831E+04 -8.858776E+05 -8.148805E+04  2.764120E+03  2.508459E+03  2.529456E+04
       203  22 -1.002131E+05 -7.130770E+05 -1.304426E+05  1.142068E+04  1.478446E+03  8.785592E+04
       203  23  2.182731E+04 -6.934228E+05 -5.684439E+04 -4.729763E+03  3.592918E+03  5.688253E+04
       203  24  3.169202E+03 -7.130446E+05 -3.860620E+04  1.113114E+04  2.510779E+03  2.591843E+04
       203  25 -4.691328E+04 -4.994247E+05 -7.720687E+04 -4.572215E+03  1.473637E+03  8.696477E+04
       203  26  7.001708E+04 -5.002391E+05 -9.056527E+03 -8.541282E+03  3.592058E+03  5.674846E+04
       203  27  4.640473E+04 -5.401843E+05  4.273451E+03  1.950047E+04  2.513115E+03  2.654248E+04
       204   1 -3.655247E+04 -7.964887E+05 -5.531083E+04  1.395389E+04 -1.540133E+03 -1.945528E+04
       204   2 -1.303654E+04 -7.710202E+05 -3.653133E+04 -4.981862E+03 -1.132849E+03 -9.245285E+03
       204   3 -1.646703E+04 -7.538840E+05 -3.119517E+04  9.455044E+03 -4.857658E+02  9.641195E+02
       204   4 -1.402037E+04 -7.061679E+05 -3.294598E+04  1.155973E+04 -1.540247E+03 -1.951770E+04
       204   5  4.194777E+03 -7.020052E+05 -1.943576E+04 -5.142105E+03 -1.133244E+03 -9.363948E+03
       204   6 -4.524976E+03 -7.061645E+05 -1.932840E+04  1.152856E+04 -4.863806E+02  7.888607E+02
       204   7  8.511147E+03 -6.158396E+05 -1.058174E+04  9.165214E+03 -1.540360E+03 -1.958012E+04
       204   8  2.142573E+04 -6.329860E+05 -2.340543E+03 -5.302370E+03 -1.133639E+03 -9.482624E+03
       204   9  7.416925E+03 -6.584429E+05 -7.461813E+03  1.360224E+04 -4.869966E+02  6.135884E+02
       204  10 -3.655257E+04 -7.964891E+05 -5.531155E+04  1.395387E+04  6.095227E-10  8.782349E-11
       204  11 -1.303656E+04 -7.710203E+05 -3.653149E+04 -4.981870E+03  1.308997E-10  4.510522E-10
       204  12 -1.646703E+04 -7.538840E+05 -3.119517E+04  9.455044E+03  7.929411E-11  4.472585E-10
       204  13 -1.402047E+04 -7.061683E+05 -3.294671E+04  1.155971E+04  2.215469E-09 -1.578914E-11
       204  14  4.194752E+03 -7.020053E+05 -1.943593E+04 -5.142114E+03 -2.674836E-09  9.431622E-11
       204  15 -4.524976E+03 -7.061645E+05 -1.932841E+04  1.152856E+04  6.672923E-10 -2.791137E-11
       204  16  8.511041E+03 -6.158400E+05 -1.058247E+04  9.165190E+03  7.468103E-10 -1.107051E-10
       204  17  2.142571E+04 -6.329861E+05 -2.340715E+03 -5.302379E+03 -1.399957E-09 -6.183056E-10
       204  18  7.416924E+03 -6.584429E+05 -7.461815E+03  1.360224E+04 -1.962409E-09 -5.073856E-10
       204  19 -3.655247E+04 -7.964887E+05 -5.531083E+04  1.395389E+04  1.540133E+03  1.945528E+04
       204  20 -1.303654E+04 -7.710202E+05 -3.653133E+04 -4.981862E+03  1.132849E+03  9.245285E+03
       204  21 -1.646703E+04 -7.538840E+05 -3.119517E+04  9.455044E+03  4.857658E+02 -9.641195E+02
       204  22 -1.402037E+04 -7.061679E+05 -3.294598E+04  1.155973E+04  1.540247E+03  1.951770E+04
       204  23  4.194777E+03 -7.020052E+05 -1.943576E+04 -5.142105E+03  1.133244E+03  9.363948E+03
       204  24 -4.524976E+03 -7.061645E+05 -1.932840E+04  1.152856E+04  4.863806E+02 -7.888607E+02
       204  25  8.511147E+03 -6.158396E+05 -1.058174E+04  9.165214E+03  1.540360E+03  1.958012E+04
       204  26  2.142573E+04 -6.329860E+05 -2.340543E+03 -5.302370E+03  1.133639E+03  9.482624E+03
       204  27  7.416925E+03 -6.584429E+05 -7.461813E+03  1.360224E+04  4.869966E+02 -6.135884E+02
       205   1  8.678192E+03 -6.708351E+05 -1.051774E+04  1.472152E+04  2.738544E+02  4.664872E+03
       205   2  2.273763E+04 -6.419329E+05 -8.622984E+03 -6.501966E+03  1.158813E+03  1.676060E+04
       205   3 -1.612131E+04 -6.281117E+05 -2.789440E+04  5.763573E+03  5.613368E+02  2.886179E+04
       205   4 -5.594489E+02 -7.076781E+05 -1.970095E+04  1.152083E+04  2.724857E+02  4.284876E+03
       205   5  8.228860E+03 -7.001115E+05 -2.300409E+04 -5.163892E+03  1.158771E+03  1.673508E+04
       205   6 -3.596554E+04 -7.076894E+05 -4.772129E+04  1.164065E+04  5.627392E+02  2.919032E+04
       205   7 -9.797155E+03 -7.445199E+05 -2.888425E+04  8.320324E+03  2.711209E+02  3.904903E+03
       205   8 -6.280154E+03 -7.582870E+05 -3.738545E+04 -3.825945E+03  1.158730E+03  1.670956E+04
       205   9 -5.581012E+04 -7.872612E+05 -6.754865E+04  1.751697E+04  5.641479E+02  2.951881E+04
       205  10  8.678186E+03 -6.708351E+05 -1.051778E+04  1.472152E+04 -3.083475E-10 -2.028657E-09
       205  11  2.273755E+04 -6.419333E+05 -8.623515E+03 -6.501982E+03 -3.066094E-09 -1.093511E-09
       205  12 -1.612153E+04 -6.281126E+05 -2.789596E+04  5.763560E+03 -8.609167E-10  5.484821E-10
       205  13 -5.594540E+02 -7.076781E+05 -1.970098E+04  1.152083E+04 -1.598416E-09 -8.552300E-11
       205  14  8.228783E+03 -7.001118E+05 -2.300462E+04 -5.163907E+03 -3.148498E-09 -9.375935E-11
       205  15 -3.596577E+04 -7.076903E+05 -4.772290E+04  1.164064E+04 -1.245220E-09  9.517322E-11
       205  16 -9.797159E+03 -7.445199E+05 -2.888428E+04  8.320323E+03  2.303817E-10  1.862808E-09
       205  17 -6.280231E+03 -7.582873E+05 -3.738598E+04 -3.825961E+03 -3.033372E-09  1.167379E-09
       205  18 -5.581036E+04 -7.872622E+05 -6.755029E+04  1.751696E+04 -1.780823E-09 -4.165607E-10
       205  19  8.678192E+03 -6.708351E+05 -1.051774E+04  1.472152E+04 -2.738544E+02 -4.664872E+03
       205  20  2.273763E+04 -6.419329E+05 -8.622984E+03 -6.501966E+03 -1.158813E+03 -1.676060E+04
       205  21 -1.612131E+04 -6.281117E+05 -2.789440E+04  5.763573E+03 -5.613368E+02 -2.886179E+04
       205  22 -5.594489E+02 -7.076781E+05 -1.970095E+04  1.152083E+04 -2.724857E+02 -4.284876E+03
       205  23  8.228860E+03 -7.001115E+05 -2.300409E+04 -5.163892E+03 -1.158771E+03 -1.673508E+04
       205  24 -3.596554E+04 -7.076894E+05 -4.772129E+04  1.164065E+04 -5.627392E+02 -2.919032E+04
       205  25 -9.797155E+03 -7.445199E+05 -2.888425E+04  8.320324E+03 -2.711209E+02 -3.904903E+03
       205  26 -6.280154E+03 -7.582870E+05 -3.738545E+04 -3.825945E+03 -1.158730E+03 -1.670956E+04
       205  27 -5.581012E+04 -7.872612E+05 -6.754865E+04  1.751697E+04 -5.641479E+02 -2.951881E+04
       206   1  9.756305E+05  7.129378E+05  3.146433E+05  5.840098E+05  1.613680E+05  1.197917E+05
       206   2  8.752084E+05  4.872643E+05  1.455908E+05  6.842327E+05  1.063145E+05  7.764259E+04
       206   3  9.366300E+05  5.039688E+05  1.006659E+05  6.774194E+05  5.058059E+04  3.640554E+04
       206   4  9.511569E+05  6.349282E+05  2.942448E+05  5.439344E+05  1.610861E+05  1.195665E+05
       206   5  8.282722E+05  4.382454E+05  1.266251E+05  6.538335E+05  1.062513E+05  7.759287E+04
       206   6  8.671972E+05  4.839046E+05  8.294976E+04  6.566919E+05  5.073914E+04  3.652605E+04
       206   7  9.266861E+05  5.569298E+05  2.738466E+05  5.038626E+05  1.608042E+05  1.193413E+05
       206   8  7.813385E+05  3.892295E+05  1.076590E+05  6.234374E+05  1.061881E+05  7.754316E+04
       206   9  7.977701E+05  4.638409E+05  6.523345E+04  6.359660E+05  5.089765E+04  3.664656E+04
       206  10  9.755987E+05  7.129155E+05  3.145676E+05  5.839943E+05  1.288525E-09 -2.381470E-10
       206  11  8.751947E+05  4.872548E+05  1.455583E+05  6.842261E+05 -1.935593E-09 -9.187605E-10
       206  12  9.366269E+05  5.039667E+05  1.006586E+05  6.774179E+05  1.110790E-09 -9.796988E-10
       206  13  9.511252E+05  6.349060E+05  2.941693E+05  5.439189E+05  1.150005E-09 -2.210277E-10
       206  14  8.282585E+05  4.382359E+05  1.265926E+05  6.538269E+05 -9.745083E-11 -5.133082E-10
       206  15  8.671941E+05  4.839025E+05  8.294243E+04  6.566904E+05 -1.047192E-09 -9.388392E-10
       206  16  9.266546E+05  5.569076E+05  2.737714E+05  5.038472E+05 -3.099319E-09 -5.436567E-11
       206  17  7.813248E+05  3.892201E+05  1.076265E+05  6.234308E+05 -7.172427E-10 -4.953987E-10
       206  18  7.977670E+05  4.638388E+05  6.522607E+04  6.359645E+05  1.451005E-09 -8.809245E-10
       206  19  9.756305E+05  7.129378E+05  3.146433E+05  5.840098E+05 -1.613680E+05 -1.197917E+05
       206  20  8.752084E+05  4.872643E+05  1.455908E+05  6.842327E+05 -1.063145E+05 -7.764259E+04
       206  21  9.366300E+05  5.039688E+05  1.006659E+05  6.774194E+05 -5.058059E+04 -3.640554E+04
       206  22  9.511569E+05  6.349282E+05  2.942448E+05  5.439344E+05 -1.610861E+05 -1.195665E+05
       206  23  8.282722E+05  4.382454E+05  1.266251E+05  6.538335E+05 -1.062513E+05 -7.759287E+04
       206  24  8.671972E+05  4.839046E+05  8.294976E+04  6.566919E+05 -5.073914E+04 -3.652605E+04
       206  25  9.266861E+05  5.569298E+05  2.738466E+05  5.038626E+05 -1.608042E+05 -1.193413E+05
       206  26  7.813385E+05  3.892295E+05  1.076590E+05  6.234374E+05 -1.061881E+05 -7.754316E+04
       206  27  7.977701E+05  4.638409E+05  6.523345E+04  6.359660E+05 -5.089765E+04 -3.664656E+04
       207   1  9.055498E+05  5.362862E+05  8.208238E+04  6.497347E+05  3.966834E+04  2.861101E+04
       207   2  8.907889E+05  4.993989E+05  4.690407E+04  6.617184E+05  2.508699E+04  1.775728E+04
       207   3  8.949816E+05  5.033995E+05  3.503880E+04  6.602059E+05  1.042613E+04  7.010413E+03
       207   4  8.714708E+05  5.038893E+05  6.892295E+04  6.291436E+05  3.965788E+04  2.860271E+04
       207   5  8.561359E+05  4.729137E+05  3.480752E+04  6.437628E+05  2.510303E+04  1.776918E+04
       207   6  8.597503E+05  4.828218E+05  2.398342E+04  6.448853E+05  1.046875E+04  7.042291E+03
       207   7  8.373930E+05  4.714936E+05  5.576329E+04  6.085538E+05  3.964742E+04  2.859440E+04
       207   8  8.214841E+05  4.464293E+05  2.271080E+04  6.258082E+05  2.511908E+04  1.778107E+04
       207   9  8.245204E+05  4.622446E+05  1.292793E+04  6.295656E+05  1.051137E+04  7.074166E+03
       207  10  9.055479E+05  5.362849E+05  8.207790E+04  6.497338E+05 -8.864629E-10 -6.577465E-10
       207  11  8.907882E+05  4.993984E+05  4.690229E+04  6.617181E+05 -2.301270E-09  4.013855E-10
       207  12  8.949815E+05  5.033994E+05  3.503850E+04  6.602059E+05 -1.156868E-09  1.354244E-10
       207  13  8.714689E+05  5.038880E+05  6.891847E+04  6.291427E+05 -1.084610E-09 -3.574449E-10
       207  14  8.561351E+05  4.729132E+05  3.480575E+04  6.437624E+05 -1.759742E-09  3.689186E-10
       207  15  8.597502E+05  4.828218E+05  2.398312E+04  6.448852E+05 -1.175014E-10  8.331337E-11
       207  16  8.373911E+05  4.714924E+05  5.575881E+04  6.085529E+05  1.203578E-09 -1.862615E-10
       207  17  8.214834E+05  4.464288E+05  2.270903E+04  6.258079E+05 -1.295688E-09  2.423565E-10
       207  18  8.245203E+05  4.622445E+05  1.292762E+04  6.295655E+05  4.347056E-10  1.959940E-10
       207  19  9.055498E+05  5.362862E+05  8.208238E+04  6.497347E+05 -3.966834E+04 -2.861101E+04
       207  20  8.907889E+05  4.993989E+05  4.690407E+04  6.617184E+05 -2.508699E+04 -1.775728E+04
       207  21  8.949816E+05  5.033995E+05  3.503880E+04  6.602059E+05 -1.042613E+04 -7.010413E+03
       207  22  8.714708E+05  5.038893E+05  6.892295E+04  6.291436E+05 -3.965788E+04 -2.860271E+04
       207  23  8.561359E+05  4.729137E+05  3.480752E+04  6.437628E+05 -2.510303E+04 -1.776918E+04
       207  24  8.597503E+05  4.828218E+05  2.398342E+04  6.448853E+05 -1.046875E+04 -7.042291E+03
       207  25  8.373930E+05  4.714936E+05  5.576329E+04  6.085538E+05 -3.964742E+04 -2.859440E+04
       207  26  8.214841E+05  4.464293E+05  2.271080E+04  6.258082E+05 -2.511908E+04 -1.778107E+04
       207  27  8.245204E+05  4.622446E+05  1.292793E+04  6.295656E+05 -1.051137E+04 -7.074166E+03
       208   1  8.805480E+05  5.010603E+05  2.812126E+04  6.521494E+05  7.134739E+03  4.686152E+03
       208   2  8.779291E+05  4.904611E+05  2.279670E+04  6.517095E+05  2.933507E+02 -2.677156E+02
       208   3  8.769768E+05  4.951897E+05  2.614169E+04  6.488948E+05 -6.549213E+03 -5.220095E+03
       208   4  8.603295E+05  4.850816E+05  2.096751E+04  6.414290E+05  7.157984E+03  4.703485E+03
       208   5  8.594857E+05  4.773985E+05  1.656159E+04  6.426306E+05  3.172166E+02 -2.499004E+02
       208   6  8.603086E+05  4.850432E+05  2.082494E+04  6.414574E+05 -6.524759E+03 -5.201856E+03
       208   7  8.401116E+05  4.691032E+05  1.381369E+04  6.307090E+05  7.181228E+03  4.720817E+03
       208   8  8.410427E+05  4.643359E+05  1.032642E+04  6.335520E+05  3.410815E+02 -2.320858E+02
       208   9  8.436406E+05  4.748968E+05  1.550815E+04  6.340202E+05 -6.500306E+03 -5.183617E+03
       208  10  8.805479E+05  5.010603E+05  2.812112E+04  6.521494E+05 -2.586430E-09 -1.160330E-09
       208  11  8.779291E+05  4.904611E+05  2.279670E+04  6.517095E+05  7.704882E-10  1.364356E-10
       208  12  8.769768E+05  4.951897E+05  2.614155E+04  6.488948E+05  2.351222E-09  1.109334E-09
       208  13  8.603295E+05  4.850816E+05  2.096737E+04  6.414290E+05  1.208747E-09 -3.196473E-10
       208  14  8.594857E+05  4.773985E+05  1.656159E+04  6.426306E+05 -1.105275E-10  7.255701E-11
       208  15  8.603085E+05  4.850432E+05  2.082481E+04  6.414574E+05  1.620029E-09  5.532247E-10
       208  16  8.401115E+05  4.691032E+05  1.381355E+04  6.307090E+05  2.775618E-09  2.105182E-10
       208  17  8.410427E+05  4.643359E+05  1.032642E+04  6.335520E+05 -8.961907E-10  5.257593E-10
       208  18  8.436405E+05  4.748968E+05  1.550802E+04  6.340201E+05 -1.646337E-09  4.898780E-11
       208  19  8.805480E+05  5.010603E+05  2.812126E+04  6.521494E+05 -7.134739E+03 -4.686152E+03
       208  20  8.779291E+05  4.904611E+05  2.279670E+04  6.517095E+05 -2.933507E+02  2.677156E+02
       208  21  8.769768E+05  4.951897E+05  2.614169E+04  6.488948E+05  6.549213E+03  5.220095E+03
       208  22  8.603295E+05  4.850816E+05  2.096751E+04  6.414290E+05 -7.157984E+03 -4.703485E+03
       208  23  8.594857E+05  4.773985E+05  1.656159E+04  6.426306E+05 -3.172166E+02  2.499004E+02
       208  24  8.603086E+05  4.850432E+05  2.082494E+04  6.414574E+05  6.524759E+03  5.201856E+03
       208  25  8.401116E+05  4.691032E+05  1.381369E+04  6.307090E+05 -7.181228E+03 -4.720817E+03
       208  26  8.410427E+05  4.643359E+05  1.032642E+04  6.335520E+05 -3.410815E+02  2.320858E+02
       208  27  8.436406E+05  4.748968E+05  1.550815E+04  6.340202E+05  6.500306E+03  5.183617E+03
       209   1  8.627356E+05  4.888578E+05  2.555125E+04  6.481392E+05 -9.825996E+03 -7.562092E+03
       209   2  8.597260E+05  4.740663E+05  3.532522E+04  6.448247E+05 -2.426852E+04 -1.818170E+04
       209   3  8.764224E+05  4.986481E+05  6.810382E+04  6.278779E+05 -3.868228E+04 -2.883951E+04
       209   4  8.599706E+05  4.825848E+05  2.377299E+04  6.447843E+05 -9.796199E+03 -7.539781E+03
       209   5  8.559023E+05  4.732874E+05  3.441338E+04  6.438333E+05 -2.424784E+04 -1.816633E+04
       209   6  8.715421E+05  5.033651E+05  6.806633E+04  6.292499E+05 -3.867069E+04 -2.883133E+04
       209   7  8.572057E+05  4.763119E+05  2.199474E+04  6.414295E+05 -9.766402E+03 -7.517469E+03
       209   8  8.520787E+05  4.725084E+05  3.350153E+04  6.428419E+05 -2.422716E+04 -1.815096E+04
       209   9  8.666618E+05  5.080821E+05  6.802886E+04  6.306219E+05 -3.865910E+04 -2.882316E+04
       209  10  8.627355E+05  4.888577E+05  2.555096E+04  6.481391E+05 -1.465563E-10  1.069704E-09
       209  11  8.597252E+05  4.740658E+05  3.532350E+04  6.448243E+05 -7.716965E-10  7.180259E-10
       209  12  8.764206E+05  4.986468E+05  6.809946E+04  6.278770E+05 -7.648852E-10 -2.990726E-10
       209  13  8.599705E+05  4.825847E+05  2.377270E+04  6.447843E+05 -1.105225E-09  8.037323E-10
       209  14  8.559016E+05  4.732869E+05  3.441166E+04  6.438329E+05 -7.804577E-10 -8.045694E-11
       209  15  8.715402E+05  5.033638E+05  6.806197E+04  6.292490E+05  9.236881E-10  6.532091E-11
       209  16  8.572056E+05  4.763118E+05  2.199445E+04  6.414295E+05 -6.129360E-10  2.758065E-10
       209  17  8.520780E+05  4.725079E+05  3.349981E+04  6.428416E+05 -2.153704E-09  5.194216E-10
       209  18  8.666600E+05  5.080808E+05  6.802449E+04  6.306210E+05  4.246778E-10 -1.329228E-10
       209  19  8.627356E+05  4.888578E+05  2.555125E+04  6.481392E+05  9.825996E+03  7.562092E+03
       209  20  8.597260E+05  4.740663E+05  3.532522E+04  6.448247E+05  2.426852E+04  1.818170E+04
       209  21  8.764224E+05  4.986481E+05  6.810382E+04  6.278779E+05  3.868228E+04  2.883951E+04
       209  22  8.599706E+05  4.825848E+05  2.377299E+04  6.447843E+05  9.796199E+03  7.539781E+03
       209  23  8.559023E+05  4.732874E+05  3.441338E+04  6.438333E+05  2.424784E+04  1.816633E+04
       209  24  8.715421E+05  5.033651E+05  6.806633E+04  6.292499E+05  3.867069E+04  2.883133E+04
       209  25  8.572057E+05  4.763119E+05  2.199474E+04  6.414295E+05  9.766402E+03  7.517469E+03
       209  26  8.520787E+05  4.725084E+05  3.350153E+04  6.428419E+05  2.422716E+04  1.815096E+04
       209  27  8.666618E+05  5.080821E+05  6.802886E+04  6.306219E+05  3.865910E+04  2.882316E+04
       210   1  8.405741E+05  4.929760E+05  7.845078E+04  6.563329E+05 -4.958705E+04 -3.682379E+04
       210   2  8.243503E+05  4.211713E+05  1.206706E+05  6.448416E+05 -1.042406E+05 -7.742169E+04
       210   3  9.701140E+05  5.862889E+05  2.851820E+05  5.269911E+05 -1.586860E+05 -1.182954E+05
       210   4  8.675738E+05  4.833840E+05  8.190409E+04  6.563658E+05 -4.952396E+04 -3.677451E+04
       210   5  8.280608E+05  4.394124E+05  1.250077E+05  6.538778E+05 -1.042444E+05 -7.742702E+04
       210   6  9.505431E+05  6.323729E+05  2.904597E+05  5.450327E+05 -1.587534E+05 -1.183602E+05
       210   7  8.945749E+05  4.737926E+05  8.535756E+04  6.563984E+05 -4.946086E+04 -3.672524E+04
       210   8  8.317714E+05  4.576540E+05  1.293448E+05  6.629141E+05 -1.042482E+05 -7.743236E+04
       210   9  9.309750E+05  6.784625E+05  2.957381E+05  5.630737E+05 -1.588207E+05 -1.184251E+05
       210  10  8.405711E+05  4.929739E+05  7.844362E+04  6.563314E+05 -9.029235E-10  3.510657E-11
       210  11  8.243370E+05  4.211620E+05  1.206389E+05  6.448351E+05 -5.414069E-11 -8.775414E-10
       210  12  9.700832E+05  5.862671E+05  2.851086E+05  5.269760E+05 -1.555615E-10  9.601596E-11
       210  13  8.675708E+05  4.833819E+05  8.189695E+04  6.563643E+05 -1.006625E-09  3.097654E-10
       210  14  8.280475E+05  4.394030E+05  1.249761E+05  6.538713E+05  1.249186E-09  3.441493E-10
       210  15  9.505123E+05  6.323512E+05  2.903862E+05  5.450176E+05  1.719151E-09  9.438314E-12
       210  16  8.945719E+05  4.737905E+05  8.535044E+04  6.563969E+05  3.986809E-10  2.163463E-10
       210  17  8.317581E+05  4.576447E+05  1.293132E+05  6.629076E+05 -1.663922E-10  1.058083E-09
       210  18  9.309442E+05  6.784407E+05  2.956645E+05  5.630586E+05 -7.298157E-10  4.842431E-10
       210  19  8.405741E+05  4.929760E+05  7.845078E+04  6.563329E+05  4.958705E+04  3.682379E+04
       210  20  8.243503E+05  4.211713E+05  1.206706E+05  6.448416E+05  1.042406E+05  7.742169E+04
       210  21  9.701140E+05  5.862889E+05  2.851820E+05  5.269911E+05  1.586860E+05  1.182954E+05
       210  22  8.675738E+05  4.833840E+05  8.190409E+04  6.563658E+05  4.952396E+04  3.677451E+04
       210  23  8.280608E+05  4.394124E+05  1.250077E+05  6.538778E+05  1.042444E+05  7.742702E+04
       210  24  9.505431E+05  6.323729E+05  2.904597E+05  5.450327E+05  1.587534E+05  1.183602E+05
       210  25  8.945749E+05  4.737926E+05  8.535756E+04  6.563984E+05  4.946086E+04  3.672524E+04
       210  26  8.317714E+05  4.576540E+05  1.293448E+05  6.629141E+05  1.042482E+05  7.743236E+04
       210  27  9.309750E+05  6.784625E+05  2.957381E+05  5.630737E+05  1.588207E+05  1.184251E+05
       211   1 -1.051910E+05 -3.580401E+04 -1.075943E+05  7.919437E+03 -2.051467E+05 -4.225019E+03
       211   2 -1.331913E+05  2.350468E+05  4.710634E+04 -1.883682E+04 -1.346129E+05 -1.284035E+04
       211   3 -2.503485E+05  1.737411E+05  7.348688E+04  6.726166E+04 -6.407123E+04 -9.298614E+03
       211   4 -9.133937E+05 -2.380522E+05 -3.090865E+05  4.817642E+04 -2.084530E+05 -4.231104E+03
       211   5 -8.684753E+05  5.150714E+04 -1.347931E+05 -8.000253E+03 -1.350887E+05 -1.284291E+04
       211   6 -9.133312E+05  8.200365E+03 -9.090757E+04  4.868764E+04 -6.170786E+04 -9.298053E+03
       211   7 -1.721000E+06 -4.403438E+05 -5.106270E+05  8.838126E+04 -2.117549E+05 -4.237629E+03
       211   8 -1.603267E+06 -1.320725E+05 -3.167327E+05  2.823625E+03 -1.355638E+05 -1.284549E+04
       211   9 -1.575914E+06 -1.573720E+05 -2.553346E+05  3.013349E+04 -5.934698E+04 -9.297632E+03
       211  10 -1.052362E+05 -3.581533E+04 -1.076735E+05  7.918739E+03 -2.415240E-09 -4.119030E-10
       211  11 -1.332108E+05  2.350417E+05  4.707197E+04 -1.883821E+04 -2.483170E-10 -1.209999E-09
       211  12 -2.503529E+05  1.737399E+05  7.347900E+04  6.726118E+04  1.075604E-09 -3.451786E-10
       211  13 -9.134404E+05 -2.380639E+05 -3.091683E+05  4.817571E+04  9.717751E-11  1.444922E-10
       211  14 -8.684949E+05  5.150206E+04 -1.348278E+05 -8.001650E+03  1.490757E-09 -6.164090E-10
       211  15 -9.133353E+05  8.199248E+03 -9.091490E+04  4.868717E+04 -1.673811E-09 -2.845636E-10
       211  16 -1.721049E+06 -4.403559E+05 -5.107115E+05  8.838054E+04  4.524149E-09  2.799419E-11
       211  17 -1.603287E+06 -1.320777E+05 -3.167676E+05  2.822221E+03  1.448119E-09  5.839391E-10
       211  18 -1.575917E+06 -1.573730E+05 -2.553414E+05  3.013305E+04 -2.119380E-09 -4.227374E-10
       211  19 -1.051910E+05 -3.580401E+04 -1.075943E+05  7.919437E+03  2.051467E+05  4.225019E+03
       211  20 -1.331913E+05  2.350468E+05  4.710634E+04 -1.883682E+04  1.346129E+05  1.284035E+04
       211  21 -2.503485E+05  1.737411E+05  7.348688E+04  6.726166E+04  6.407123E+04  9.298614E+03
       211  22 -9.133937E+05 -2.380522E+05 -3.090865E+05  4.817642E+04  2.084530E+05  4.231104E+03
       211  23 -8.684753E+05  5.150714E+04 -1.347931E+05 -8.000253E+03  1.350887E+05  1.284291E+04
       211  24 -9.133312E+05  8.200365E+03 -9.090757E+04  4.868764E+04  6.170786E+04  9.298053E+03
       211  25 -1.721000E+06 -4.403438E+05 -5.106270E+05  8.838126E+04  2.117549E+05  4.237629E+03
       211  26 -1.603267E+06 -1.320725E+05 -3.167327E+05  2.823625E+03  1.355638E+05  1.284549E+04
       211  27 -1.575914E+06 -1.573720E+05 -2.553346E+05  3.013349E+04  5.934698E+04  9.297632E+03
       212   1 -5.329183E+05  5.710877E+04  1.254311E+04  4.462871E+04 -4.677473E+04 -5.898319E+03
       212   2 -6.020232E+05  8.031058E+04  2.529754E+04 -1.123498E+04 -2.341260E+04 -4.649643E+03
       212   3 -6.879294E+05  4.727480E+04  8.836224E+03  5.416121E+04 -5.640705E+01 -1.893093E+03
       212   4 -8.970583E+05 -3.381310E+04 -7.764419E+04  5.040959E+04 -4.663905E+04 -5.898968E+03
       212   5 -8.886190E+05  8.749699E+03 -4.568569E+04 -1.022154E+04 -2.292735E+04 -4.649636E+03
       212   6 -8.970584E+05 -5.000955E+03 -4.319786E+04  5.041138E+04  7.812914E+02 -1.892471E+03
       212   7 -1.261078E+06 -1.247448E+05 -1.678414E+05  5.618706E+04 -4.650344E+04 -5.899614E+03
       212   8 -1.175140E+06 -6.281734E+04 -1.166750E+05 -9.208565E+03 -2.244234E+04 -4.649628E+03
       212   9 -1.106148E+06 -5.727995E+04 -9.523522E+04  4.666281E+04  1.618708E+03 -1.891859E+03
       212  10 -5.329207E+05  5.710814E+04  1.253893E+04  4.462849E+04  1.054213E-09 -1.119990E-10
       212  11 -6.020238E+05  8.031041E+04  2.529647E+04 -1.123507E+04 -1.090754E-09 -3.747846E-10
       212  12 -6.879294E+05  4.727480E+04  8.836217E+03  5.416121E+04 -4.012881E-10 -4.803380E-11
       212  13 -8.970607E+05 -3.381372E+04 -7.764835E+04  5.040936E+04 -1.147780E-09 -1.035026E-11
       212  14 -8.886195E+05  8.749534E+03 -4.568672E+04 -1.022162E+04 -1.240739E-09  1.889639E-10
       212  15 -8.970584E+05 -5.000959E+03 -4.319787E+04  5.041138E+04  1.275126E-09  1.637455E-10
       212  16 -1.261080E+06 -1.247454E+05 -1.678455E+05  5.618684E+04 -2.125876E-09 -3.008822E-10
       212  17 -1.175141E+06 -6.281749E+04 -1.166760E+05 -9.208649E+03  3.721920E-10  9.373841E-10
       212  18 -1.106148E+06 -5.727995E+04 -9.523524E+04  4.666281E+04 -5.404656E-10 -5.672646E-11
       212  19 -5.329183E+05  5.710877E+04  1.254311E+04  4.462871E+04  4.677473E+04  5.898319E+03
       212  20 -6.020232E+05  8.031058E+04  2.529754E+04 -1.123498E+04  2.341260E+04  4.649643E+03
       212  21 -6.879294E+05  4.727480E+04  8.836224E+03  5.416121E+04  5.640705E+01  1.893093E+03
       212  22 -8.970583E+05 -3.381310E+04 -7.764419E+04  5.040959E+04  4.663905E+04  5.898968E+03
       212  23 -8.886190E+05  8.749699E+03 -4.568569E+04 -1.022154E+04  2.292735E+04  4.649636E+03
       212  24 -8.970584E+05 -5.000955E+03 -4.319786E+04  5.041138E+04 -7.812914E+02  1.892471E+03
       212  25 -1.261078E+06 -1.247448E+05 -1.678414E+05  5.618706E+04  4.650344E+04  5.899614E+03
       212  26 -1.175140E+06 -6.281734E+04 -1.166750E+05 -9.208565E+03  2.244234E+04  4.649628E+03
       212  27 -1.106148E+06 -5.727995E+04 -9.523522E+04  4.666281E+04 -1.618708E+03  1.891859E+03
       213   1 -9.980153E+05 -2.812770E+04 -6.960932E+04  4.624394E+04  7.865708E+03  2.220557E+02
       213   2 -1.065478E+06 -3.366958E+04 -9.801529E+04 -8.986675E+03  3.621418E+04  2.950113E+03
       213   3 -1.154004E+06 -1.086228E+05 -1.622567E+05  5.787122E+04  6.456139E+04  4.397589E+03
       213   4 -8.979634E+05 -3.086256E+03 -4.460152E+04  5.058903E+04  8.669485E+03  2.227754E+02
       213   5 -8.874660E+05  1.078816E+04 -5.392087E+04 -1.044771E+04  3.671764E+04  2.950250E+03
       213   6 -8.979757E+05 -4.468432E+04 -9.885754E+04  5.060252E+04  6.476808E+04  4.396788E+03
       213   7 -7.979024E+05  2.195450E+04 -1.959446E+04  5.493483E+04  9.473392E+03  2.235064E+02
       213   8 -7.094253E+05  5.524353E+04 -9.828798E+03 -1.190918E+04  3.722125E+04  2.950385E+03
       213   9 -6.418877E+05  1.924949E+04 -3.546327E+04  4.333080E+04  6.497485E+04  4.395982E+03
       213  10 -9.980154E+05 -2.812772E+04 -6.960944E+04  4.624393E+04  1.239295E-09  1.947187E-10
       213  11 -1.065479E+06 -3.366994E+04 -9.801778E+04 -8.986761E+03 -1.182597E-09 -1.771526E-10
       213  12 -1.154008E+06 -1.086240E+05 -1.622646E+05  5.787099E+04  1.625566E-09 -8.512522E-10
       213  13 -8.979635E+05 -3.086277E+03 -4.460166E+04  5.058903E+04  1.172957E-09  2.184234E-10
       213  14 -8.874675E+05  1.078779E+04 -5.392342E+04 -1.044780E+04  1.443183E-09 -1.248327E-10
       213  15 -8.979802E+05 -4.468547E+04 -9.886547E+04  5.060229E+04  1.160510E-09 -1.024757E-09
       213  16 -7.979025E+05  2.195448E+04 -1.959463E+04  5.493483E+04  1.532188E-09  4.789539E-10
       213  17 -7.094268E+05  5.524315E+04 -9.831421E+03 -1.190927E+04  2.696560E-09 -2.121900E-10
       213  18 -6.418922E+05  1.924834E+04 -3.547125E+04  4.333057E+04  1.646272E-09 -2.085639E-10
       213  19 -9.980153E+05 -2.812770E+04 -6.960932E+04  4.624394E+04 -7.865708E+03 -2.220557E+02
       213  20 -1.065478E+06 -3.366958E+04 -9.801529E+04 -8.986675E+03 -3.621418E+04 -2.950113E+03
       213  21 -1.154004E+06 -1.086228E+05 -1.622567E+05  5.787122E+04 -6.456139E+04 -4.397589E+03
       213  22 -8.979634E+05 -3.086256E+03 -4.460152E+04  5.058903E+04 -8.669485E+03 -2.227754E+02
       213  23 -8.874660E+05  1.078816E+04 -5.392087E+04 -1.044771E+04 -3.671764E+04 -2.950250E+03
       213  24 -8.979757E+05 -4.468432E+04 -9.885754E+04  5.060252E+04 -6.476808E+04 -4.396788E+03
       213  25 -7.979024E+05  2.195450E+04 -1.959446E+04  5.493483E+04 -9.473392E+03 -2.235064E+02
       213  26 -7.094253E+05  5.524353E+04 -9.828798E+03 -1.190918E+04 -3.722125E+04 -2.950385E+03
       213  27 -6.418877E+05  1.924949E+04 -3.546327E+04  4.333080E+04 -6.497485E+04 -4.395982E+03
       214   1 -1.478733E+06 -1.282784E+05 -2.560389E+05  2.451754E+04  8.190387E+04  7.637856E+03
       214   2 -1.492430E+06 -8.994515E+04 -3.332627E+05  5.061832E+03  1.807178E+05  1.112812E+04
       214   3 -1.626874E+06 -4.914769E+05 -5.844476E+05  1.008704E+05  2.795129E+05  3.705000E+03
       214   4 -9.200586E+05  1.134371E+04 -1.173661E+05  4.920373E+04  8.410301E+04  7.640854E+03
       214   5 -8.600146E+05  6.803937E+04 -1.766907E+05 -8.663913E+03  1.803871E+05  1.112375E+04
       214   6 -9.201495E+05 -3.144518E+05 -4.080844E+05  4.873326E+04  2.766644E+05  3.685857E+03
       214   7 -3.610992E+05  1.509447E+05  2.128369E+04  7.391218E+04  8.630411E+04  7.644024E+03
       214   8 -2.272349E+05  2.259946E+05 -2.014839E+04 -2.240361E+04  1.800559E+05  1.111939E+04
       214   9 -2.129657E+05 -1.374542E+05 -2.317575E+05 -3.463193E+03  2.738126E+05  3.667214E+03
       214  10 -1.478740E+06 -1.282803E+05 -2.560517E+05  2.451704E+04  9.612803E-10 -8.430530E-10
       214  11 -1.492465E+06 -8.995408E+04 -3.333245E+05  5.060211E+03  1.105200E-09 -2.608356E-10
       214  12 -1.626958E+06 -4.914979E+05 -5.845948E+05  1.008695E+05  1.905546E-10  3.116328E-10
       214  13 -9.200662E+05  1.134174E+04 -1.173795E+05  4.920321E+04  3.216788E-09 -1.531342E-10
       214  14 -8.600497E+05  6.803049E+04 -1.767522E+05 -8.665530E+03  3.514959E-09 -5.815361E-11
       214  15 -9.202318E+05 -3.144724E+05 -4.082285E+05  4.873244E+04  2.349061E-09 -1.320276E-10
       214  16 -3.611072E+05  1.509426E+05  2.126957E+04  7.391165E+04  1.111643E-09 -5.009553E-10
       214  17 -2.272698E+05  2.259858E+05 -2.020958E+04 -2.240522E+04  5.178343E-10 -9.490019E-10
       214  18 -2.130463E+05 -1.374744E+05 -2.318984E+05 -3.464003E+03  3.687168E-10 -1.309561E-10
       214  19 -1.478733E+06 -1.282784E+05 -2.560389E+05  2.451754E+04 -8.190387E+04 -7.637856E+03
       214  20 -1.492430E+06 -8.994515E+04 -3.332627E+05  5.061832E+03 -1.807178E+05 -1.112812E+04
       214  21 -1.626874E+06 -4.914769E+05 -5.844476E+05  1.008704E+05 -2.795129E+05 -3.705000E+03
       214  22 -9.200586E+05  1.134371E+04 -1.173661E+05  4.920373E+04 -8.410301E+04 -7.640854E+03
       214  23 -8.600146E+05  6.803937E+04 -1.766907E+05 -8.663913E+03 -1.803871E+05 -1.112375E+04
       214  24 -9.201495E+05 -3.144518E+05 -4.080844E+05  4.873326E+04 -2.766644E+05 -3.685857E+03
       214  25 -3.610992E+05  1.509447E+05  2.128369E+04  7.391218E+04 -8.630411E+04 -7.644024E+03
       214  26 -2.272349E+05  2.259946E+05 -2.014839E+04 -2.240361E+04 -1.800559E+05 -1.111939E+04
       214  27 -2.129657E+05 -1.374542E+05 -2.317575E+05 -3.463193E+03 -2.738126E+05 -3.667214E+03
       215   1 -2.941619E+05 -1.006669E+06 -3.483967E+05  7.309619E+04 -3.109449E+03 -1.592009E+05
       215   2 -5.777048E+04 -9.010865E+05 -1.983845E+05 -4.000841E+03 -7.347722E+03 -1.017228E+05
       215   3 -7.401952E+04 -8.663252E+05 -1.490160E+05  2.884868E+04 -4.142920E+03 -4.426230E+04
       215   4 -1.796343E+05 -5.478545E+05 -2.340364E+05  4.455820E+04 -3.096520E+03 -1.573271E+05
       215   5  3.914891E+04 -5.126060E+05 -1.022904E+05 -1.067537E+04 -7.345784E+03 -1.015964E+05
       215   6  5.681676E+03 -5.478296E+05 -6.992003E+04  4.403711E+04 -4.149947E+03 -4.589012E+04
       215   7 -6.511942E+04 -8.884691E+04 -1.196915E+05  1.599895E+04 -3.083771E+03 -1.554518E+05
       215   8  1.360572E+05 -1.239882E+05 -6.207355E+03 -1.735419E+04 -7.343849E+03 -1.014700E+05
       215   9  8.537608E+04 -2.292413E+05  9.168480E+03  5.923327E+04 -4.157052E+03 -4.751878E+04
       215  10 -2.941688E+05 -1.006696E+06 -3.484444E+05  7.309579E+04 -1.944360E-09 -7.112537E-10
       215  11 -5.777332E+04 -9.010976E+05 -1.984041E+05 -4.001443E+03  1.259552E-09  1.238560E-09
       215  12 -7.402007E+04 -8.663273E+05 -1.490197E+05  2.884853E+04 -1.667075E-09  1.737808E-09
       215  13 -1.796410E+05 -5.478811E+05 -2.340830E+05  4.455781E+04 -3.822821E-09  4.861832E-11
       215  14  3.914608E+04 -5.126171E+05 -1.023099E+05 -1.067597E+04 -3.156087E-10 -1.536832E-10
       215  15  5.681092E+03 -5.478318E+05 -6.992402E+04  4.403696E+04 -4.054005E-09 -1.053453E-09
       215  16 -6.512592E+04 -8.887286E+04 -1.197370E+05  1.599856E+04  2.822999E-10  5.352964E-10
       215  17  1.360544E+05 -1.239992E+05 -6.226810E+03 -1.735479E+04 -4.977736E-09 -1.255424E-09
       215  18  8.537546E+04 -2.292437E+05  9.164202E+03  5.923311E+04 -1.341863E-09 -2.192915E-09
       215  19 -2.941619E+05 -1.006669E+06 -3.483967E+05  7.309619E+04  3.109449E+03  1.592009E+05
       215  20 -5.777048E+04 -9.010865E+05 -1.983845E+05 -4.000841E+03  7.347722E+03  1.017228E+05
       215  21 -7.401952E+04 -8.663252E+05 -1.490160E+05  2.884868E+04  4.142920E+03  4.426230E+04
       215  22 -1.796343E+05 -5.478545E+05 -2.340364E+05  4.455820E+04  3.096520E+03  1.573271E+05
       215  23  3.914891E+04 -5.126060E+05 -1.022904E+05 -1.067537E+04  7.345784E+03  1.015964E+05
       215  24  5.681676E+03 -5.478296E+05 -6.992003E+04  4.403711E+04  4.149947E+03  4.589012E+04
       215  25 -6.511942E+04 -8.884691E+04 -1.196915E+05  1.599895E+04  3.083771E+03  1.554518E+05
       215  26  1.360572E+05 -1.239882E+05 -6.207355E+03 -1.735419E+04  7.343849E+03  1.014700E+05
       215  27  8.537608E+04 -2.292413E+05  9.168480E+03  5.923327E+04  4.157052E+03  4.751878E+04
       216   1 -3.458138E+04 -5.746678E+05 -6.954704E+04  4.929245E+04 -1.319425E+03 -3.385317E+04
       216   2  1.586366E+04 -4.955723E+05 -2.838758E+04 -1.045686E+04  4.555054E+02 -1.489467E+04
       216   3  1.622836E+04 -4.325178E+05 -1.231470E+04  4.107132E+04  2.116243E+03  4.066719E+03
       216   4 -2.492069E+04 -5.357153E+05 -5.999723E+04  4.457098E+04 -1.320803E+03 -3.427515E+04
       216   5  7.840786E+03 -5.276870E+05 -3.634199E+04 -1.109831E+04  4.540170E+02 -1.528857E+04
       216   6 -9.483438E+03 -5.357087E+05 -3.779159E+04  4.451074E+04  2.114884E+03  3.698738E+03
       216   7 -1.526004E+04 -4.967613E+05 -5.044752E+04  3.984920E+04 -1.322174E+03 -3.469716E+04
       216   8 -1.821622E+02 -5.598008E+05 -4.429647E+04 -1.173972E+04  4.525295E+02 -1.568245E+04
       216   9 -3.519598E+04 -6.388899E+05 -6.326927E+04  4.794958E+04  2.113521E+03  3.330818E+03
       216  10 -3.458169E+04 -5.746690E+05 -6.954920E+04  4.929241E+04 -1.244205E-09 -1.239583E-09
       216  11  1.586360E+04 -4.955725E+05 -2.838799E+04 -1.045686E+04  1.331443E-09 -3.152618E-10
       216  12  1.622835E+04 -4.325178E+05 -1.231474E+04  4.107132E+04 -1.643067E-09  1.512451E-09
       216  13 -2.492101E+04 -5.357165E+05 -5.999945E+04  4.457094E+04 -1.206003E-09 -5.566534E-10
       216  14  7.840723E+03 -5.276873E+05 -3.634243E+04 -1.109830E+04 -3.417801E-10  2.597373E-11
       216  15 -9.483447E+03 -5.357087E+05 -3.779163E+04  4.451073E+04 -6.000513E-10 -1.086204E-09
       216  16 -1.526037E+04 -4.967626E+05 -5.044979E+04  3.984917E+04 -7.007583E-10  3.601539E-10
       216  17 -1.822285E+02 -5.598011E+05 -4.429694E+04 -1.173972E+04  1.112974E-09 -5.321861E-10
       216  18 -3.519599E+04 -6.388899E+05 -6.326930E+04  4.794957E+04  6.862106E-10 -2.064407E-09
       216  19 -3.458138E+04 -5.746678E+05 -6.954704E+04  4.929245E+04  1.319425E+03  3.385317E+04
       216  20  1.586366E+04 -4.955723E+05 -2.838758E+04 -1.045686E+04 -4.555054E+02  1.489467E+04
       216  21  1.622836E+04 -4.325178E+05 -1.231470E+04  4.107132E+04 -2.116243E+03 -4.066719E+03
       216  22 -2.492069E+04 -5.357153E+05 -5.999723E+04  4.457098E+04  1.320803E+03  3.427515E+04
       216  23  7.840786E+03 -5.276870E+05 -3.634199E+04 -1.109831E+04 -4.540170E+02  1.528857E+04
       216  24 -9.483438E+03 -5.357087E+05 -3.779159E+04  4.451074E+04 -2.114884E+03 -3.698738E+03
       216  25 -1.526004E+04 -4.967613E+05 -5.044752E+04  3.984920E+04  1.322174E+03  3.469716E+04
       216  26 -1.821622E+02 -5.598008E+05 -4.429647E+04 -1.173972E+04 -4.525295E+02  1.568245E+04
       216  27 -3.519598E+04 -6.388899E+05 -6.326927E+04  4.794958E+04 -2.113521E+03 -3.330818E+03
       217   1  9.507506E+04 -1.567980E+05  5.575456E+04  5.141266E+04  5.032522E+03  1.230304E+04
       217   2  1.296400E+05 -7.196732E+04  6.457165E+04 -1.258541E+04  8.209518E+03  3.585727E+04
       217   3  5.543138E+04 -1.720383E+04  3.089596E+04  3.251975E+04  3.165769E+03  5.943873E+04
       217   4 -4.040977E+02 -5.389467E+05 -3.905226E+04  4.397166E+04  5.026277E+03  1.056949E+04
       217   5  1.693870E+04 -5.237280E+05 -4.713572E+04 -1.048984E+04  8.210749E+03  3.608038E+04
       217   6 -7.487508E+04 -5.389448E+05 -9.909449E+04  4.415761E+04  3.172585E+03  6.161578E+04
       217   7 -9.589402E+04 -9.209627E+05 -1.338700E+05  3.653513E+04  5.020071E+03  8.837005E+03
       217   8 -9.577780E+04 -9.753032E+05 -1.588583E+05 -8.395939E+03  8.211981E+03  3.630333E+04
       217   9 -2.052015E+05 -1.060438E+06 -2.291053E+05  5.578552E+04  3.179486E+03  6.379099E+04
       217  10  9.507499E+04 -1.567982E+05  5.575422E+04  5.141261E+04 -9.166253E-11  2.150488E-09
       217  11  1.296395E+05 -7.196872E+04  6.456911E+04 -1.258565E+04 -1.200620E-09  3.859150E-10
       217  12  5.543042E+04 -1.720762E+04  3.088931E+04  3.251960E+04 -2.587435E-10 -1.093088E-09
       217  13 -4.041549E+02 -5.389469E+05 -3.905252E+04  4.397162E+04 -2.193023E-09  4.937454E-11
       217  14  1.693828E+04 -5.237294E+05 -4.713830E+04 -1.049008E+04 -2.060520E-09 -4.122190E-10
       217  15 -7.487611E+04 -5.389489E+05 -9.910165E+04  4.415745E+04  1.023931E-09 -3.783543E-10
       217  16 -9.589407E+04 -9.209628E+05 -1.338702E+05  3.653509E+04 -4.261189E-10 -2.942382E-09
       217  17 -9.577822E+04 -9.753046E+05 -1.588609E+05 -8.396179E+03 -3.249521E-09 -1.341523E-09
       217  18 -2.052026E+05 -1.060443E+06 -2.291130E+05  5.578536E+04 -9.882140E-10  1.029991E-09
       217  19  9.507506E+04 -1.567980E+05  5.575456E+04  5.141266E+04 -5.032522E+03 -1.230304E+04
       217  20  1.296400E+05 -7.196732E+04  6.457165E+04 -1.258541E+04 -8.209518E+03 -3.585727E+04
       217  21  5.543138E+04 -1.720383E+04  3.089596E+04  3.251975E+04 -3.165769E+03 -5.943873E+04
       217  22 -4.040977E+02 -5.389467E+05 -3.905226E+04  4.397166E+04 -5.026277E+03 -1.056949E+04
       217  23  1.693870E+04 -5.237280E+05 -4.713572E+04 -1.048984E+04 -8.210749E+03 -3.608038E+04
       217  24 -7.487508E+04 -5.389448E+05 -9.909449E+04  4.415761E+04 -3.172585E+03 -6.161578E+04
       217  25 -9.589402E+04 -9.209627E+05 -1.338700E+05  3.653513E+04 -5.020071E+03 -8.837005E+03
       217  26 -9.577780E+04 -9.753032E+05 -1.588583E+05 -8.395939E+03 -8.211981E+03 -3.630333E+04
       217  27 -2.052015E+05 -1.060438E+06 -2.291053E+05  5.578552E+04 -3.179486E+03 -6.379099E+04
       218   1  2.354502E+06  1.652807E+06  6.109110E+05  1.478598E+06  2.983849E+05  2.207466E+05
       218   2  2.169823E+06  1.220047E+06  2.960982E+05  1.655356E+06  1.972248E+05  1.417256E+05
       218   3  2.263096E+06  1.253981E+06  2.101866E+05  1.641057E+06  9.373862E+04  6.581748E+04
       218   4  2.217253E+06  1.443625E+06  5.420826E+05  1.359243E+06  2.974082E+05  2.199669E+05
       218   5  2.001087E+06  1.071385E+06  2.334772E+05  1.558712E+06  1.970155E+05  1.415605E+05
       218   6  2.062793E+06  1.165763E+06  1.531649E+05  1.567096E+06  9.430467E+04  6.624785E+04
       218   7  2.080030E+06  1.234509E+06  4.732509E+05  1.239929E+06  2.964317E+05  2.191877E+05
       218   8  1.832380E+06  9.227480E+05  1.708516E+05  1.462100E+06  1.968063E+05  1.413954E+05
       218   9  1.862533E+06  1.077550E+06  9.613964E+04  1.493156E+06  9.487046E+04  6.667813E+04
       218  10  2.354394E+06  1.652731E+06  6.106536E+05  1.478545E+06  5.241204E-10 -1.640995E-10
       218  11  2.169776E+06  1.220016E+06  2.959879E+05  1.655333E+06  1.230170E-09  8.391673E-10
       218  12  2.263086E+06  1.253974E+06  2.101621E+05  1.641052E+06  8.973756E-11  1.268014E-10
       218  13  2.217145E+06  1.443550E+06  5.418268E+05  1.359191E+06  2.738065E-10 -1.528690E-10
       218  14  2.001040E+06  1.071353E+06  2.333672E+05  1.558689E+06  3.012224E-09  1.093648E-09
       218  15  2.062782E+06  1.165756E+06  1.531400E+05  1.567091E+06  1.062312E-09  1.606696E-09
       218  16  2.079923E+06  1.234434E+06  4.729967E+05  1.239877E+06  8.035904E-10  7.815433E-10
       218  17  1.832333E+06  9.227162E+05  1.707417E+05  1.462078E+06 -3.222768E-09  1.500108E-09
       218  18  1.862522E+06  1.077543E+06  9.611449E+04  1.493151E+06  8.520897E-10  1.149077E-09
       218  19  2.354502E+06  1.652807E+06  6.109110E+05  1.478598E+06 -2.983849E+05 -2.207466E+05
       218  20  2.169823E+06  1.220047E+06  2.960982E+05  1.655356E+06 -1.972248E+05 -1.417256E+05
       218  21  2.263096E+06  1.253981E+06  2.101866E+05  1.641057E+06 -9.373862E+04 -6.581748E+04
       218  22  2.217253E+06  1.443625E+06  5.420826E+05  1.359243E+06 -2.974082E+05 -2.199669E+05
       218  23  2.001087E+06  1.071385E+06  2.334772E+05  1.558712E+06 -1.970155E+05 -1.415605E+05
       218  24  2.062793E+06  1.165763E+06  1.531649E+05  1.567096E+06 -9.430467E+04 -6.624785E+04
       218  25  2.080030E+06  1.234509E+06  4.732509E+05  1.239929E+06 -2.964317E+05 -2.191877E+05
       218  26  1.832380E+06  9.227480E+05  1.708516E+05  1.462100E+06 -1.968063E+05 -1.413954E+05
       218  27  1.862533E+06  1.077550E+06  9.613964E+04  1.493156E+06 -9.487046E+04 -6.667813E+04
       219   1  2.176787E+06  1.290152E+06  1.656881E+05  1.574415E+06  7.351274E+04  5.200463E+04
       219   2  2.149705E+06  1.211317E+06  9.899631E+04  1.591490E+06  4.627700E+04  3.186143E+04
       219   3  2.144858E+06  1.220818E+06  7.551562E+04  1.587439E+06  1.880501E+04  1.203696E+04
       219   4  2.072298E+06  1.200780E+06  1.273845E+05  1.515826E+06  7.349683E+04  5.199101E+04
       219   5  2.050431E+06  1.137317E+06  6.477181E+04  1.540860E+06  4.634284E+04  3.191037E+04
       219   6  2.050786E+06  1.162182E+06  4.530680E+04  1.544765E+06  1.895228E+04  1.214731E+04
       219   7  1.967822E+06  1.111417E+06  8.907925E+04  1.457250E+06  7.348092E+04  5.197739E+04
       219   8  1.951166E+06  1.063323E+06  3.054593E+04  1.490239E+06  4.640866E+04  3.195930E+04
       219   9  1.956724E+06  1.103549E+06  1.509688E+04  1.502097E+06  1.909952E+04  1.225764E+04
       219  10  2.176780E+06  1.290148E+06  1.656730E+05  1.574412E+06  2.127263E-10  4.701681E-10
       219  11  2.149703E+06  1.211315E+06  9.899041E+04  1.591489E+06  3.798111E-09  1.194564E-09
       219  12  2.144857E+06  1.220818E+06  7.551469E+04  1.587439E+06  2.274751E-09 -2.981445E-10
       219  13  2.072292E+06  1.200776E+06  1.273694E+05  1.515823E+06  3.890030E-09  1.611369E-09
       219  14  2.050428E+06  1.137316E+06  6.476589E+04  1.540859E+06 -4.596374E-11  1.024297E-09
       219  15  2.050786E+06  1.162182E+06  4.530585E+04  1.544765E+06 -2.956108E-11 -1.087184E-10
       219  16  1.967815E+06  1.111413E+06  8.906410E+04  1.457247E+06 -3.219184E-10  7.967842E-10
       219  17  1.951164E+06  1.063322E+06  3.053999E+04  1.490237E+06  8.739152E-10 -3.637466E-10
       219  18  1.956724E+06  1.103549E+06  1.509592E+04  1.502097E+06  2.798428E-10  1.816327E-09
       219  19  2.176787E+06  1.290152E+06  1.656881E+05  1.574415E+06 -7.351274E+04 -5.200463E+04
       219  20  2.149705E+06  1.211317E+06  9.899631E+04  1.591490E+06 -4.627700E+04 -3.186143E+04
       219  21  2.144858E+06  1.220818E+06  7.551562E+04  1.587439E+06 -1.880501E+04 -1.203696E+04
       219  22  2.072298E+06  1.200780E+06  1.273845E+05  1.515826E+06 -7.349683E+04 -5.199101E+04
       219  23  2.050431E+06  1.137317E+06  6.477181E+04  1.540860E+06 -4.634284E+04 -3.191037E+04
       219  24  2.050786E+06  1.162182E+06  4.530680E+04  1.544765E+06 -1.895228E+04 -1.214731E+04
       219  25  1.967822E+06  1.111417E+06  8.907925E+04  1.457250E+06 -7.348092E+04 -5.197739E+04
       219  26  1.951166E+06  1.063323E+06  3.054593E+04  1.490239E+06 -4.640866E+04 -3.195930E+04
       219  27  1.956724E+06  1.103549E+06  1.509688E+04  1.502097E+06 -1.909952E+04 -1.225764E+04
       220   1  2.098236E+06  1.201075E+06  5.605425E+04  1.562338E+06  1.246628E+04  7.768080E+03
       220   2  2.093398E+06  1.173179E+06  4.561707E+04  1.557794E+06 -1.212147E+03 -1.901658E+03
       220   3  2.083164E+06  1.184258E+06  5.232353E+04  1.551089E+06 -1.487728E+04 -1.158882E+04
       220   4  2.052601E+06  1.165457E+06  4.003759E+04  1.538321E+06  1.255459E+04  7.834079E+03
       220   5  2.055508E+06  1.146343E+06  3.282845E+04  1.539119E+06 -1.127023E+03 -1.837976E+03
       220   6  2.053020E+06  1.166205E+06  4.276674E+04  1.537758E+06 -1.479553E+04 -1.152772E+04
       220   7  2.006969E+06  1.129840E+06  2.402058E+04  1.514306E+06  1.264290E+04  7.900069E+03
       220   8  2.017619E+06  1.119507E+06  2.003963E+04  1.520447E+06 -1.041907E+03 -1.774300E+03
       220   9  2.022877E+06  1.148153E+06  3.320987E+04  1.524427E+06 -1.471379E+04 -1.146664E+04
       220  10  2.098236E+06  1.201075E+06  5.605385E+04  1.562338E+06  1.382511E-09 -7.579151E-10
       220  11  2.093398E+06  1.173179E+06  4.561706E+04  1.557794E+06  2.326953E-09 -1.381442E-10
       220  12  2.083164E+06  1.184258E+06  5.232286E+04  1.551089E+06  9.215828E-11  5.059340E-10
       220  13  2.052601E+06  1.165457E+06  4.003718E+04  1.538321E+06  5.892555E-10 -5.375174E-10
       220  14  2.055508E+06  1.146343E+06  3.282844E+04  1.539119E+06  1.332559E-09  1.497476E-10
       220  15  2.053020E+06  1.166205E+06  4.276608E+04  1.537757E+06  1.956772E-10  8.943613E-13
       220  16  2.006968E+06  1.129840E+06  2.402016E+04  1.514306E+06 -7.739577E-11  6.748593E-10
       220  17  2.017619E+06  1.119507E+06  2.003962E+04  1.520447E+06 -1.133198E-09 -4.632988E-10
       220  18  2.022877E+06  1.148153E+06  3.320922E+04  1.524427E+06 -7.780622E-10  1.864781E-10
       220  19  2.098236E+06  1.201075E+06  5.605425E+04  1.562338E+06 -1.246628E+04 -7.768080E+03
       220  20  2.093398E+06  1.173179E+06  4.561707E+04  1.557794E+06  1.212147E+03  1.901658E+03
       220  21  2.083164E+06  1.184258E+06  5.232353E+04  1.551089E+06  1.487728E+04  1.158882E+04
       220  22  2.052601E+06  1.165457E+06  4.003759E+04  1.538321E+06 -1.255459E+04 -7.834079E+03
       220  23  2.055508E+06  1.146343E+06  3.282845E+04  1.539119E+06  1.127023E+03  1.837976E+03
       220  24  2.053020E+06  1.166205E+06  4.276674E+04  1.537758E+06  1.479553E+04  1.152772E+04
       220  25  2.006969E+06  1.129840E+06  2.402058E+04  1.514306E+06 -1.264290E+04 -7.900069E+03
       220  26  2.017619E+06  1.119507E+06  2.003963E+04  1.520447E+06  1.041907E+03  1.774300E+03
       220  27  2.022877E+06  1.148153E+06  3.320987E+04  1.524427E+06  1.471379E+04  1.146664E+04
       221   1  2.038487E+06  1.160252E+06  4.641250E+04  1.542355E+06 -2.174445E+04 -1.635127E+04
       221   2  2.032322E+06  1.122413E+06  6.630655E+04  1.532201E+06 -5.218722E+04 -3.853958E+04
       221   3  2.059778E+06  1.175460E+06  1.345685E+05  1.495582E+06 -8.249436E+04 -6.090958E+04
       221   4  2.052287E+06  1.160925E+06  4.930840E+04  1.544958E+06 -2.163193E+04 -1.626676E+04
       221   5  2.047744E+06  1.137452E+06  7.232015E+04  1.541698E+06 -5.211933E+04 -3.848911E+04
       221   6  2.076828E+06  1.204872E+06  1.437369E+05  1.511975E+06 -8.247120E+04 -6.089441E+04
       221   7  2.066087E+06  1.161598E+06  5.220432E+04  1.547560E+06 -2.151939E+04 -1.618226E+04
       221   8  2.063165E+06  1.152491E+06  7.833372E+04  1.551196E+06 -5.205145E+04 -3.843865E+04
       221   9  2.093879E+06  1.234286E+06  1.529052E+05  1.528367E+06 -8.244803E+04 -6.087925E+04
       221  10  2.038486E+06  1.160252E+06  4.641111E+04  1.542355E+06 -2.472472E-10  4.759757E-10
       221  11  2.032319E+06  1.122411E+06  6.629868E+04  1.532199E+06  6.293536E-10 -5.714843E-10
       221  12  2.059770E+06  1.175455E+06  1.345489E+05  1.495578E+06  1.022879E-09 -1.050182E-09
       221  13  2.052286E+06  1.160925E+06  4.930703E+04  1.544957E+06  8.204109E-10  3.198119E-10
       221  14  2.047740E+06  1.137449E+06  7.231230E+04  1.541697E+06  7.236440E-10 -2.684210E-10
       221  15  2.076820E+06  1.204867E+06  1.437172E+05  1.511971E+06  1.285146E-10 -7.085076E-10
       221  16  2.066086E+06  1.161597E+06  5.220296E+04  1.547560E+06  9.861738E-10 -4.102780E-10
       221  17  2.063162E+06  1.152488E+06  7.832589E+04  1.551194E+06 -1.635907E-09 -9.995225E-10
       221  18  2.093871E+06  1.234280E+06  1.528855E+05  1.528363E+06  4.837259E-10 -4.117437E-10
       221  19  2.038487E+06  1.160252E+06  4.641250E+04  1.542355E+06  2.174445E+04  1.635127E+04
       221  20  2.032322E+06  1.122413E+06  6.630655E+04  1.532201E+06  5.218722E+04  3.853958E+04
       221  21  2.059778E+06  1.175460E+06  1.345685E+05  1.495582E+06  8.249436E+04  6.090958E+04
       221  22  2.052287E+06  1.160925E+06  4.930840E+04  1.544958E+06  2.163193E+04  1.626676E+04
       221  23  2.047744E+06  1.137452E+06  7.232015E+04  1.541698E+06  5.211933E+04  3.848911E+04
       221  24  2.076828E+06  1.204872E+06  1.437369E+05  1.511975E+06  8.247120E+04  6.089441E+04
       221  25  2.066087E+06  1.161598E+06  5.220432E+04  1.547560E+06  2.151939E+04  1.618226E+04
       221  26  2.063165E+06  1.152491E+06  7.833372E+04  1.551196E+06  5.205145E+04  3.843865E+04
       221  27  2.093879E+06  1.234286E+06  1.529052E+05  1.528367E+06  8.244803E+04  6.087925E+04
       222   1  1.965984E+06  1.152158E+06  1.507419E+05  1.547467E+06 -1.058940E+05 -7.771512E+04
       222   2  1.931870E+06  9.909121E+05  2.384145E+05  1.518894E+06 -2.214377E+05 -1.632622E+05
       222   3  2.229505E+06  1.341066E+06  5.843601E+05  1.268537E+06 -3.359030E+05 -2.502308E+05
       222   4  2.067722E+06  1.163437E+06  1.730979E+05  1.569600E+06 -1.056011E+05 -7.748618E+04
       222   5  1.989587E+06  1.064966E+06  2.644121E+05  1.562635E+06 -2.215014E+05 -1.633210E+05
       222   6  2.243221E+06  1.477916E+06  6.142808E+05  1.333902E+06 -3.363105E+05 -2.506006E+05
       222   7  2.169473E+06  1.174717E+06  1.954539E+05  1.591734E+06 -1.053080E+05 -7.725724E+04
       222   8  2.047307E+06  1.139027E+06  2.904092E+05  1.606381E+06 -2.215651E+05 -1.633798E+05
       222   9  2.256946E+06  1.614804E+06  6.442036E+05  1.399273E+06 -3.367181E+05 -2.509705E+05
       222  10  1.965971E+06  1.152149E+06  1.507096E+05  1.547461E+06  2.559919E-09  4.272075E-10
       222  11  1.931811E+06  9.908705E+05  2.382729E+05  1.518865E+06  2.607639E-09  1.302934E-09
       222  12  2.229368E+06  1.340969E+06  5.840320E+05  1.268469E+06  8.759962E-10  6.454624E-10
       222  13  2.067708E+06  1.163427E+06  1.730658E+05  1.569594E+06  2.100002E-09  3.013454E-10
       222  14  1.989527E+06  1.064924E+06  2.642706E+05  1.562606E+06  1.483253E-09  1.177893E-09
       222  15  2.243083E+06  1.477819E+06  6.139519E+05  1.333834E+06  4.655503E-10  1.647216E-09
       222  16  2.169459E+06  1.174708E+06  1.954220E+05  1.591727E+06 -5.278146E-10 -4.051068E-11
       222  17  2.047247E+06  1.138986E+06  2.902675E+05  1.606352E+06  1.260093E-09  2.172854E-09
       222  18  2.256808E+06  1.614707E+06  6.438739E+05  1.399205E+06 -1.541865E-09  3.945861E-10
       222  19  1.965984E+06  1.152158E+06  1.507419E+05  1.547467E+06  1.058940E+05  7.771512E+04
       222  20  1.931870E+06  9.909121E+05  2.384145E+05  1.518894E+06  2.214377E+05  1.632622E+05
       222  21  2.229505E+06  1.341066E+06  5.843601E+05  1.268537E+06  3.359030E+05  2.502308E+05
       222  22  2.067722E+06  1.163437E+06  1.730979E+05  1.569600E+06  1.056011E+05  7.748618E+04
       222  23  1.989587E+06  1.064966E+06  2.644121E+05  1.562635E+06  2.215014E+05  1.633210E+05
       222  24  2.243221E+06  1.477916E+06  6.142808E+05  1.333902E+06  3.363105E+05  2.506006E+05
       222  25  2.169473E+06  1.174717E+06  1.954539E+05  1.591734E+06  1.053080E+05  7.725724E+04
       222  26  2.047307E+06  1.139027E+06  2.904092E+05  1.606381E+06  2.215651E+05  1.633798E+05
       222  27  2.256946E+06  1.614804E+06  6.442036E+05  1.399273E+06  3.367181E+05  2.509705E+05
       223   1  1.696570E+06  1.732583E+05  1.638721E+05  4.666565E+04 -2.270235E+04 -4.657056E+03
       223   2  1.619401E+06  1.889760E+05  1.637723E+05 -1.241289E+04 -1.628621E+04 -1.296162E+04
       223   3  1.533994E+06  1.636493E+05  1.498109E+05  5.509593E+04 -9.861445E+03 -9.111387E+03
       223   4  8.817994E+05 -3.001143E+04 -3.879594E+04  5.247914E+04 -2.613615E+04 -4.652577E+03
       223   5  8.861563E+05  6.329284E+03 -1.725293E+04 -1.079814E+04 -1.680726E+04 -1.296231E+04
       223   6  8.817474E+05  1.093222E+03 -1.160575E+04  5.252183E+04 -7.468915E+03 -9.111060E+03
       223   7  6.763005E+04 -2.333308E+05 -2.415137E+05  5.828521E+04 -2.956543E+04 -4.648160E+03
       223   8  1.533994E+05 -1.763574E+05 -1.983180E+05 -9.185228E+03 -1.732769E+04 -1.296300E+04
       223   9  2.298861E+05 -1.614946E+05 -1.730540E+05  4.995039E+04 -5.078887E+03 -9.110752E+03
       223  10  1.696569E+06  1.732581E+05  1.638711E+05  4.666557E+04 -5.720611E-10 -1.454372E-10
       223  11  1.619400E+06  1.889757E+05  1.637715E+05 -1.241306E+04  1.931502E-09  3.273584E-10
       223  12  1.533994E+06  1.636492E+05  1.498105E+05  5.509585E+04  1.930366E-09  4.291285E-10
       223  13  8.817987E+05 -3.001163E+04 -3.879727E+04  5.247904E+04 -8.039256E-11  3.318048E-11
       223  14  8.861559E+05  6.329028E+03 -1.725377E+04 -1.079832E+04 -3.591545E-10 -5.905660E-10
       223  15  8.817473E+05  1.093118E+03 -1.160601E+04  5.252178E+04  5.085832E-09  6.015955E-10
       223  16  6.762910E+04 -2.333311E+05 -2.415154E+05  5.828509E+04  1.502721E-10 -1.130378E-09
       223  17  1.533990E+05 -1.763577E+05 -1.983189E+05 -9.185409E+03 -1.407654E-09  3.361041E-10
       223  18  2.298861E+05 -1.614947E+05 -1.730542E+05  4.995035E+04  4.801919E-10  3.188002E-10
       223  19  1.696570E+06  1.732583E+05  1.638721E+05  4.666565E+04  2.270235E+04  4.657056E+03
       223  20  1.619401E+06  1.889760E+05  1.637723E+05 -1.241289E+04  1.628621E+04  1.296162E+04
       223  21  1.533994E+06  1.636493E+05  1.498109E+05  5.509593E+04  9.861445E+03  9.111387E+03
       223  22  8.817994E+05 -3.001143E+04 -3.879594E+04  5.247914E+04  2.613615E+04  4.652577E+03
       223  23  8.861563E+05  6.329284E+03 -1.725293E+04 -1.079814E+04  1.680726E+04  1.296231E+04
       223  24  8.817474E+05  1.093222E+03 -1.160575E+04  5.252183E+04  7.468915E+03  9.111060E+03
       223  25  6.763005E+04 -2.333308E+05 -2.415137E+05  5.828521E+04  2.956543E+04  4.648160E+03
       223  26  1.533994E+05 -1.763574E+05 -1.983180E+05 -9.185228E+03  1.732769E+04  1.296300E+04
       223  27  2.298861E+05 -1.614946E+05 -1.730540E+05  4.995039E+04  5.078887E+03  9.110752E+03
       224   1  1.226616E+06  8.124733E+04  7.468384E+04  5.034091E+04 -5.679532E+03 -5.594651E+03
       224   2  1.151242E+06  6.767058E+04  5.952696E+04 -8.752617E+03 -2.681368E+03 -4.314141E+03
       224   3  1.073665E+06  4.661607E+04  4.056038E+04  5.166762E+04  3.130024E+02 -1.645339E+03
       224   4  8.832985E+05 -4.304457E+03 -1.017036E+04  5.093918E+04 -5.537193E+03 -5.594749E+03
       224   5  8.844242E+05  1.177014E+03 -6.427962E+03 -8.820275E+03 -2.206899E+03 -4.313774E+03
       224   6  8.832838E+05 -8.781237E+02 -6.726429E+03  5.093731E+04  1.119973E+03 -1.644238E+03
       224   7  5.400884E+05 -8.986503E+04 -9.503330E+04  5.153710E+04 -5.394932E+03 -5.594847E+03
       224   8  6.176710E+05 -6.532186E+04 -7.238817E+04 -8.887921E+03 -1.732633E+03 -4.313407E+03
       224   9  6.929351E+05 -4.837503E+04 -5.401594E+04  5.020721E+04  1.926696E+03 -1.643138E+03
       224  10  1.226616E+06  8.124729E+04  7.468372E+04  5.034089E+04  1.793047E-09  5.352751E-10
       224  11  1.151242E+06  6.767056E+04  5.952691E+04 -8.752626E+03  7.249893E-10  7.488954E-11
       224  12  1.073665E+06  4.661606E+04  4.056037E+04  5.166762E+04 -1.013685E-09 -9.825352E-10
       224  13  8.832985E+05 -4.304499E+03 -1.017048E+04  5.093916E+04  3.105765E-09 -1.279182E-10
       224  14  8.844242E+05  1.176992E+03 -6.428006E+03 -8.820283E+03  6.003005E-10  1.026087E-09
       224  15  8.832838E+05 -8.781270E+02 -6.726437E+03  5.093731E+04 -1.591834E-09 -2.955835E-10
       224  16  5.400883E+05 -8.986508E+04 -9.503342E+04  5.153707E+04 -1.767458E-09  3.840587E-10
       224  17  6.176710E+05 -6.532189E+04 -7.238821E+04 -8.887927E+03  4.647510E-10  5.273306E-10
       224  18  6.929351E+05 -4.837503E+04 -5.401595E+04  5.020721E+04  1.966599E-09  1.145406E-10
       224  19  1.226616E+06  8.124733E+04  7.468384E+04  5.034091E+04  5.679532E+03  5.594651E+03
       224  20  1.151242E+06  6.767058E+04  5.952696E+04 -8.752617E+03  2.681368E+03  4.314141E+03
       224  21  1.073665E+06  4.661607E+04  4.056038E+04  5.166762E+04 -3.130024E+02  1.645339E+03
       224  22  8.832985E+05 -4.304457E+03 -1.017036E+04  5.093918E+04  5.537193E+03  5.594749E+03
       224  23  8.844242E+05  1.177014E+03 -6.427962E+03 -8.820275E+03  2.206899E+03  4.313774E+03
       224  24  8.832838E+05 -8.781237E+02 -6.726429E+03  5.093731E+04 -1.119973E+03  1.644238E+03
       224  25  5.400884E+05 -8.986503E+04 -9.503330E+04  5.153710E+04  5.394932E+03  5.594847E+03
       224  26  6.176710E+05 -6.532186E+04 -7.238817E+04 -8.887921E+03  1.732633E+03  4.313407E+03
       224  27  6.929351E+05 -4.837503E+04 -5.401594E+04  5.020721E+04 -1.926696E+03  1.643138E+03
       225   1  7.743927E+05 -2.728731E+04 -3.430011E+04  4.991453E+04  1.589998E+03  3.906468E+02
       225   2  7.003118E+05 -4.407767E+04 -5.508561E+04 -8.516329E+03  6.810093E+03  3.028375E+03
       225   3  6.222940E+05 -7.323972E+04 -8.239780E+04  5.197375E+04  1.203240E+04  4.428609E+03
       225   4  8.829310E+05 -1.866539E+02 -7.250301E+03  5.080216E+04  2.370952E+03  3.917645E+02
       225   5  8.848823E+05  1.929839E+03 -9.454934E+03 -8.653491E+03  7.295034E+03  3.028875E+03
       225   6  8.829445E+05 -8.271376E+03 -1.797886E+04  5.080970E+04  1.222196E+04  4.428649E+03
       225   7  9.914799E+05  2.691312E+04  1.979863E+04  5.168995E+04  3.152041E+03  3.928843E+02
       225   8  1.069484E+06  4.793481E+04  3.617322E+04 -8.790703E+03  7.780118E+03  3.029374E+03
       225   9  1.143657E+06  5.669190E+04  4.643504E+04  4.964516E+04  1.241160E+04  4.428689E+03
       225  10  7.743926E+05 -2.728731E+04 -3.430012E+04  4.991453E+04 -6.841874E-10 -2.199843E-10
       225  11  7.003117E+05 -4.407769E+04 -5.508571E+04 -8.516345E+03  1.138070E-09  1.260145E-10
       225  12  6.222938E+05 -7.323978E+04 -8.239811E+04  5.197370E+04  1.376989E-09  1.400034E-10
       225  13  8.829309E+05 -1.866555E+02 -7.250312E+03  5.080216E+04 -2.179865E-09 -3.506119E-10
       225  14  8.848823E+05  1.929815E+03 -9.455051E+03 -8.653509E+03 -1.610688E-09 -1.555103E-09
       225  15  8.829443E+05 -8.271437E+03 -1.797918E+04  5.080966E+04 -1.216131E-09 -5.418050E-10
       225  16  9.914799E+05  2.691311E+04  1.979861E+04  5.168995E+04  2.033793E-10 -5.263608E-10
       225  17  1.069484E+06  4.793478E+04  3.617308E+04 -8.790722E+03  4.534364E-10  1.759329E-10
       225  18  1.143656E+06  5.669184E+04  4.643472E+04  4.964511E+04 -1.091438E-09  4.524919E-10
       225  19  7.743927E+05 -2.728731E+04 -3.430011E+04  4.991453E+04 -1.589998E+03 -3.906468E+02
       225  20  7.003118E+05 -4.407767E+04 -5.508561E+04 -8.516329E+03 -6.810093E+03 -3.028375E+03
       225  21  6.222940E+05 -7.323972E+04 -8.239780E+04  5.197375E+04 -1.203240E+04 -4.428609E+03
       225  22  8.829310E+05 -1.866539E+02 -7.250301E+03  5.080216E+04 -2.370952E+03 -3.917645E+02
       225  23  8.848823E+05  1.929839E+03 -9.454934E+03 -8.653491E+03 -7.295034E+03 -3.028875E+03
       225  24  8.829445E+05 -8.271376E+03 -1.797886E+04  5.080970E+04 -1.222196E+04 -4.428649E+03
       225  25  9.914799E+05  2.691312E+04  1.979863E+04  5.168995E+04 -3.152041E+03 -3.928843E+02
       225  26  1.069484E+06  4.793481E+04  3.617322E+04 -8.790703E+03 -7.780118E+03 -3.029374E+03
       225  27  1.143657E+06  5.669190E+04  4.643504E+04  4.964516E+04 -1.241160E+04 -4.428689E+03
       226   1  3.128870E+05 -1.389962E+05 -1.616420E+05  4.725738E+04  1.350376E+04  7.756551E+03
       226   2  2.433764E+05 -1.486259E+05 -1.922720E+05 -7.723470E+03  3.390222E+04  1.147370E+04
       226   3  1.530378E+05 -2.394344E+05 -2.560508E+05  6.207566E+04  5.429427E+04  4.140013E+03
       226   4  8.791946E+05  2.256651E+03 -2.136235E+04  5.211743E+04  1.573050E+04  7.757697E+03
       226   5  8.894006E+05  1.242565E+04 -3.265344E+04 -1.029558E+04  3.349260E+04  1.147289E+04
       226   6  8.792557E+05 -5.808028E+04 -7.523827E+04  5.206450E+04  5.125104E+04  4.141776E+03
       226   7  1.445793E+06  1.434857E+05  1.188934E+05  5.698186E+04  1.795925E+04  7.758877E+03
       226   8  1.535804E+06  1.734461E+05  1.269342E+05 -1.287034E+04  3.308255E+04  1.147208E+04
       226   9  1.605952E+06  1.232346E+05  1.055348E+05  4.204171E+04  4.820423E+04  4.143638E+03
       226  10  3.128868E+05 -1.389964E+05 -1.616424E+05  4.725730E+04 -2.417154E-09 -3.774256E-10
       226  11  2.433751E+05 -1.486264E+05 -1.922744E+05 -7.723783E+03 -6.744649E-10  2.095679E-10
       226  12  1.530346E+05 -2.394352E+05 -2.560564E+05  6.207548E+04 -6.638851E-10 -3.151374E-10
       226  13  8.791943E+05  2.256520E+03 -2.136293E+04  5.211733E+04  1.632036E-10  3.582225E-10
       226  14  8.893994E+05  1.242521E+04 -3.265579E+04 -1.029589E+04 -1.707621E-09 -6.105761E-10
       226  15  8.792528E+05 -5.808101E+04 -7.524323E+04  5.206432E+04 -6.654944E-10 -4.253867E-10
       226  16  1.445793E+06  1.434855E+05  1.188927E+05  5.698174E+04  1.200132E-09 -5.944258E-10
       226  17  1.535803E+06  1.734457E+05  1.269319E+05 -1.287065E+04  5.307511E-10 -6.008905E-10
       226  18  1.605949E+06  1.232340E+05  1.055305E+05  4.204155E+04  7.558680E-11 -7.468517E-10
       226  19  3.128870E+05 -1.389962E+05 -1.616420E+05  4.725738E+04 -1.350376E+04 -7.756551E+03
       226  20  2.433764E+05 -1.486259E+05 -1.922720E+05 -7.723470E+03 -3.390222E+04 -1.147370E+04
       226  21  1.530378E+05 -2.394344E+05 -2.560508E+05  6.207566E+04 -5.429427E+04 -4.140013E+03
       226  22  8.791946E+05  2.256651E+03 -2.136235E+04  5.211743E+04 -1.573050E+04 -7.757697E+03
       226  23  8.894006E+05  1.242565E+04 -3.265344E+04 -1.029558E+04 -3.349260E+04 -1.147289E+04
       226  24  8.792557E+05 -5.808028E+04 -7.523827E+04  5.206450E+04 -5.125104E+04 -4.141776E+03
       226  25  1.445793E+06  1.434857E+05  1.188934E+05  5.698186E+04 -1.795925E+04 -7.758877E+03
       226  26  1.535804E+06  1.734461E+05  1.269342E+05 -1.287034E+04 -3.308255E+04 -1.147208E+04
       226  27  1.605952E+06  1.232346E+05  1.055348E+05  4.204171E+04 -4.820423E+04 -4.143638E+03
       227   1 -6.054815E+05 -2.336797E+06 -7.326871E+05  1.354553E+05 -5.200270E+03 -3.663942E+05
       227   2 -6.698142E+04 -2.144459E+06 -3.991442E+05 -2.387458E+03 -1.218964E+04 -2.320744E+05
       227   3 -1.212923E+05 -2.117294E+06 -3.013082E+05  3.172725E+04 -7.007747E+03 -9.777040E+04
       227   4 -4.190946E+05 -1.590936E+06 -5.465211E+05  6.781778E+04 -5.152531E+03 -3.634633E+05
       227   5  9.182919E+04 -1.508558E+06 -2.416461E+05 -1.865392E+04 -1.218178E+04 -2.319180E+05
       227   6  1.075311E+04 -1.590690E+06 -1.703450E+05  6.683630E+04 -7.022893E+03 -1.004128E+05
       227   7 -2.327323E+05 -8.445582E+05 -3.603945E+05  9.846410E+01 -5.105480E+03 -3.605287E+05
       227   8  2.506105E+05 -8.722878E+05 -8.417808E+04 -3.493737E+04 -1.217395E+04 -2.317613E+05
       227   9  1.427821E+05 -1.063831E+06 -3.940189E+04  1.019750E+05 -7.038330E+03 -1.030574E+05
       227  10 -6.055177E+05 -2.336942E+06 -7.329403E+05  1.354537E+05 -1.585682E-09  4.905724E-10
       227  11 -6.699610E+04 -2.144517E+06 -3.992460E+05 -2.389739E+03 -4.507512E-10  1.913331E-09
       227  12 -1.212949E+05 -2.117305E+06 -3.013264E+05  3.172670E+04 -1.121656E-09  6.612511E-10
       227  13 -4.191302E+05 -1.591078E+06 -5.467700E+05  6.781627E+04 -8.185196E-10 -1.119499E-10
       227  14  9.181454E+04 -1.508616E+06 -2.417477E+05 -1.865620E+04 -4.253018E-10 -2.107543E-10
       227  15  1.075035E+04 -1.590701E+06 -1.703641E+05  6.683573E+04 -8.293741E-10 -9.388369E-10
       227  16 -2.327672E+05 -8.446980E+05 -3.606392E+05  9.698054E+01  5.802764E-10 -1.009786E-10
       227  17  2.505959E+05 -8.723456E+05 -8.427945E+04 -3.493965E+04 -1.922767E-09  9.089093E-10
       227  18  1.427792E+05 -1.063843E+06 -3.942198E+04  1.019744E+05  1.438891E-10 -1.745625E-10
       227  19 -6.054815E+05 -2.336797E+06 -7.326871E+05  1.354553E+05  5.200270E+03  3.663942E+05
       227  20 -6.698142E+04 -2.144459E+06 -3.991442E+05 -2.387458E+03  1.218964E+04  2.320744E+05
       227  21 -1.212923E+05 -2.117294E+06 -3.013082E+05  3.172725E+04  7.007747E+03  9.777040E+04
       227  22 -4.190946E+05 -1.590936E+06 -5.465211E+05  6.781778E+04  5.152531E+03  3.634633E+05
       227  23  9.182919E+04 -1.508558E+06 -2.416461E+05 -1.865392E+04  1.218178E+04  2.319180E+05
       227  24  1.075311E+04 -1.590690E+06 -1.703450E+05  6.683630E+04  7.022893E+03  1.004128E+05
       227  25 -2.327323E+05 -8.445582E+05 -3.603945E+05  9.846410E+01  5.105480E+03  3.605287E+05
       227  26  2.506105E+05 -8.722878E+05 -8.417808E+04 -3.493737E+04  1.217395E+04  2.317613E+05
       227  27  1.427821E+05 -1.063831E+06 -3.940189E+04  1.019750E+05  7.038330E+03  1.030574E+05
       228   1 -7.743153E+04 -1.643013E+06 -1.688501E+05  8.129723E+04 -2.445318E+03 -7.117329E+04
       228   2  3.061653E+04 -1.506719E+06 -9.181862E+04 -2.001844E+04  4.902808E+02 -1.867392E+04
       228   3 -9.566219E+02 -1.413952E+06 -8.429196E+04  5.820282E+04  3.290606E+03  3.383629E+04
       228   4 -5.778610E+04 -1.563800E+06 -1.493712E+05  6.899316E+04 -2.446597E+03 -7.184388E+04
       228   5  2.178749E+04 -1.542017E+06 -1.005716E+05 -2.081741E+04  4.877823E+02 -1.930931E+04
       228   6 -3.826841E+04 -1.563779E+06 -1.212978E+05  6.891174E+04  3.288828E+03  3.322646E+04
       228   7 -3.814056E+04 -1.484580E+06 -1.298926E+05  5.668751E+04 -2.447850E+03 -7.251455E+04
       228   8  1.295835E+04 -1.577313E+06 -1.093247E+05 -2.161634E+04  4.852854E+02 -1.994466E+04
       228   9 -7.558142E+04 -1.713584E+06 -1.583052E+05  7.961806E+04  3.287028E+03  3.261678E+04
       228  10 -7.743290E+04 -1.643018E+06 -1.688597E+05  8.129709E+04  2.288760E-09 -3.503456E-12
       228  11  3.061644E+04 -1.506720E+06 -9.181928E+04 -2.001843E+04  2.789206E-09  2.280325E-09
       228  12 -9.569418E+02 -1.413954E+06 -8.429413E+04  5.820273E+04  8.748266E-10  2.766338E-09
       228  13 -5.778749E+04 -1.563805E+06 -1.493809E+05  6.899302E+04  2.199187E-09  7.382530E-10
       228  14  2.178739E+04 -1.542017E+06 -1.005723E+05 -2.081740E+04  2.370441E-09 -1.852412E-10
       228  15 -3.826872E+04 -1.563780E+06 -1.212999E+05  6.891165E+04  2.921813E-09 -3.091293E-10
       228  16 -3.814198E+04 -1.484586E+06 -1.299025E+05  5.668737E+04  1.731451E-09 -6.755944E-10
       228  17  1.295824E+04 -1.577314E+06 -1.093254E+05 -2.161633E+04  1.615403E-09  7.373724E-10
       228  18 -7.558172E+04 -1.713585E+06 -1.583072E+05  7.961797E+04  1.416882E-09 -1.706424E-09
       228  19 -7.743153E+04 -1.643013E+06 -1.688501E+05  8.129723E+04  2.445318E+03  7.117329E+04
       228  20  3.061653E+04 -1.506719E+06 -9.181862E+04 -2.001844E+04 -4.902808E+02  1.867392E+04
       228  21 -9.566219E+02 -1.413952E+06 -8.429196E+04  5.820282E+04 -3.290606E+03 -3.383629E+04
       228  22 -5.778610E+04 -1.563800E+06 -1.493712E+05  6.899316E+04  2.446597E+03  7.184388E+04
       228  23  2.178749E+04 -1.542017E+06 -1.005716E+05 -2.081741E+04 -4.877823E+02  1.930931E+04
       228  24 -3.826841E+04 -1.563779E+06 -1.212978E+05  6.891174E+04 -3.288828E+03 -3.322646E+04
       228  25 -3.814056E+04 -1.484580E+06 -1.298926E+05  5.668751E+04  2.447850E+03  7.251455E+04
       228  26  1.295835E+04 -1.577313E+06 -1.093247E+05 -2.161634E+04 -4.852854E+02  1.994466E+04
       228  27 -7.558142E+04 -1.713584E+06 -1.583052E+05  7.961806E+04 -3.287028E+03 -3.261678E+04
       229   1  1.520498E+05 -9.842100E+05  1.654083E+04  9.181620E+04  7.947005E+03  5.854711E+04
       229   2  2.393262E+05 -8.192206E+05  2.154867E+03 -2.869017E+04  1.304781E+04  1.488557E+05
       229   3 -8.358503E+04 -7.672476E+05 -1.733284E+05  2.065366E+04  5.160618E+03  2.392173E+05
       229   4  3.052314E+03 -1.579430E+06 -1.313167E+05  6.652243E+04  7.935046E+03  5.580454E+04
       229   5  6.372200E+04 -1.522657E+06 -1.719485E+05 -1.812625E+04  1.305237E+04  1.491320E+05
       229   6 -2.865792E+05 -1.579583E+06 -3.759167E+05  6.709036E+04  5.185744E+03  2.424963E+05
       229   7 -1.459696E+05 -2.174326E+06 -2.792004E+05  4.125266E+04  7.923305E+03  5.306459E+04
       229   8 -1.119188E+05 -2.225642E+06 -3.460886E+05 -7.574633E+03  1.305694E+04  1.494080E+05
       229   9 -4.896148E+05 -2.391313E+06 -5.785534E+05  1.134659E+05  5.211387E+03  2.457709E+05
       229  10  1.520488E+05 -9.842137E+05  1.653426E+04  9.181582E+04  7.313956E-10  1.271321E-09
       229  11  2.393200E+05 -8.192445E+05  2.112848E+03 -2.869174E+04 -7.691935E-10  1.418133E-09
       229  12 -8.360045E+04 -7.673091E+05 -1.734362E+05  2.065266E+04 -1.252418E-09 -5.852878E-10
       229  13  3.051408E+03 -1.579433E+06 -1.313227E+05  6.652207E+04 -4.822674E-10  5.634214E-10
       229  14  6.371583E+04 -1.522681E+06 -1.719907E+05 -1.812782E+04 -1.742624E-09  1.289044E-10
       229  15 -2.865950E+05 -1.579646E+06 -3.760275E+05  6.708935E+04 -1.789318E-09 -7.968685E-10
       229  16 -1.459704E+05 -2.174329E+06 -2.792058E+05  4.125232E+04  2.810732E-09 -1.845937E-09
       229  17 -1.119250E+05 -2.225666E+06 -3.461310E+05 -7.576206E+03 -5.103629E-09  1.570162E-09
       229  18 -4.896311E+05 -2.391379E+06 -5.786674E+05  1.134649E+05 -2.267976E-09  9.287013E-10
       229  19  1.520498E+05 -9.842100E+05  1.654083E+04  9.181620E+04 -7.947005E+03 -5.854711E+04
       229  20  2.393262E+05 -8.192206E+05  2.154867E+03 -2.869017E+04 -1.304781E+04 -1.488557E+05
       229  21 -8.358503E+04 -7.672476E+05 -1.733284E+05  2.065366E+04 -5.160618E+03 -2.392173E+05
       229  22  3.052314E+03 -1.579430E+06 -1.313167E+05  6.652243E+04 -7.935046E+03 -5.580454E+04
       229  23  6.372200E+04 -1.522657E+06 -1.719485E+05 -1.812625E+04 -1.305237E+04 -1.491320E+05
       229  24 -2.865792E+05 -1.579583E+06 -3.759167E+05  6.709036E+04 -5.185744E+03 -2.424963E+05
       229  25 -1.459696E+05 -2.174326E+06 -2.792004E+05  4.125266E+04 -7.923305E+03 -5.306459E+04
       229  26 -1.119188E+05 -2.225642E+06 -3.460886E+05 -7.574633E+03 -1.305694E+04 -1.494080E+05
       229  27 -4.896148E+05 -2.391313E+06 -5.785534E+05  1.134659E+05 -5.211387E+03 -2.457709E+05
       230   1  2.953556E+06  2.026630E+06  6.944620E+05  1.893176E+06  3.606881E+05  2.685290E+05
       230   2  2.729468E+06  1.521549E+06  3.168712E+05  2.116697E+06  2.373955E+05  1.744795E+05
       230   3  2.865257E+06  1.558969E+06  2.163124E+05  2.101471E+06  1.128479E+05  8.210090E+04
       230   4  2.924110E+06  1.869597E+06  6.574469E+05  1.815816E+06  3.601798E+05  2.680745E+05
       230   5  2.650461E+06  1.430087E+06  2.832680E+05  2.061342E+06  2.372820E+05  1.743818E+05
       230   6  2.736657E+06  1.533035E+06  1.857997E+05  2.068103E+06  1.131449E+05  8.233408E+04
       230   7  2.894676E+06  1.712612E+06  6.204337E+05  1.738468E+06  3.596714E+05  2.676202E+05
       230   8  2.571462E+06  1.338636E+06  2.496636E+05  2.005997E+06  2.371685E+05  1.742842E+05
       230   9  2.608077E+06  1.507103E+06  1.552869E+05  2.034739E+06  1.134419E+05  8.256726E+04
       230  10  2.953398E+06  2.026518E+06  6.940847E+05  1.893098E+06 -7.259993E-10 -4.256409E-10
       230  11  2.729400E+06  1.521502E+06  3.167092E+05  2.116664E+06 -1.963375E-09 -6.653874E-10
       230  12  2.865242E+06  1.558958E+06  2.162760E+05  2.101464E+06 -5.987387E-10 -4.205149E-10
       230  13  2.923953E+06  1.869486E+06  6.570706E+05  1.815739E+06 -3.329096E-09 -1.236629E-10
       230  14  2.650393E+06  1.430040E+06  2.831061E+05  2.061309E+06 -1.645317E-09 -1.283106E-09
       230  15  2.736641E+06  1.533024E+06  1.857632E+05  2.068096E+06 -1.554579E-09 -8.336690E-10
       230  16  2.894519E+06  1.712501E+06  6.200585E+05  1.738391E+06 -1.283972E-09  1.495276E-10
       230  17  2.571394E+06  1.338589E+06  2.495019E+05  2.005964E+06 -3.277501E-09 -1.385362E-09
       230  18  2.608062E+06  1.507092E+06  1.552501E+05  2.034732E+06 -3.906299E-10 -6.775378E-10
       230  19  2.953556E+06  2.026630E+06  6.944620E+05  1.893176E+06 -3.606881E+05 -2.685290E+05
       230  20  2.729468E+06  1.521549E+06  3.168712E+05  2.116697E+06 -2.373955E+05 -1.744795E+05
       230  21  2.865257E+06  1.558969E+06  2.163124E+05  2.101471E+06 -1.128479E+05 -8.210090E+04
       230  22  2.924110E+06  1.869597E+06  6.574469E+05  1.815816E+06 -3.601798E+05 -2.680745E+05
       230  23  2.650461E+06  1.430087E+06  2.832680E+05  2.061342E+06 -2.372820E+05 -1.743818E+05
       230  24  2.736657E+06  1.533035E+06  1.857997E+05  2.068103E+06 -1.131449E+05 -8.233408E+04
       230  25  2.894676E+06  1.712612E+06  6.204337E+05  1.738468E+06 -3.596714E+05 -2.676202E+05
       230  26  2.571462E+06  1.338636E+06  2.496636E+05  2.005997E+06 -2.371685E+05 -1.742842E+05
       230  27  2.608077E+06  1.507103E+06  1.552869E+05  2.034739E+06 -1.134419E+05 -8.256726E+04
       231   1  2.797720E+06  1.631062E+06  1.752760E+05  2.039788E+06  8.831619E+04  6.446325E+04
       231   2  2.764725E+06  1.550588E+06  9.731943E+04  2.067471E+06  5.541487E+04  3.995430E+04
       231   3  2.776486E+06  1.559298E+06  7.167710E+04  2.064223E+06  2.240279E+04  1.559472E+04
       231   4  2.747120E+06  1.576588E+06  1.545327E+05  2.006239E+06  8.830695E+04  6.445385E+04
       231   5  2.711699E+06  1.508599E+06  7.856845E+04  2.039276E+06  5.544431E+04  3.997594E+04
       231   6  2.721031E+06  1.529791E+06  5.488933E+04  2.041380E+06  2.247112E+04  1.564616E+04
       231   7  2.696522E+06  1.522118E+06  1.337890E+05  1.972693E+06  8.829771E+04  6.444445E+04
       231   8  2.658676E+06  1.466611E+06  5.981702E+04  2.011083E+06  5.547374E+04  3.999758E+04
       231   9  2.665579E+06  1.500284E+06  3.810120E+04  2.018539E+06  2.253943E+04  1.569759E+04
       231  10  2.797711E+06  1.631055E+06  1.752537E+05  2.039784E+06 -3.663335E-10 -4.575152E-10
       231  11  2.764722E+06  1.550586E+06  9.731072E+04  2.067470E+06 -2.438289E-10 -7.221359E-10
       231  12  2.776485E+06  1.559298E+06  7.167571E+04  2.064223E+06  1.545025E-09  1.043158E-10
       231  13  2.747110E+06  1.576582E+06  1.545104E+05  2.006234E+06 -7.060348E-10 -1.510398E-10
       231  14  2.711696E+06  1.508596E+06  7.855973E+04  2.039274E+06 -1.523291E-10  2.277767E-10
       231  15  2.721030E+06  1.529790E+06  5.488793E+04  2.041380E+06 -1.182237E-09  3.991588E-11
       231  16  2.696513E+06  1.522112E+06  1.337667E+05  1.972688E+06 -9.179449E-11 -9.604818E-10
       231  17  2.658673E+06  1.466609E+06  5.980829E+04  2.011081E+06 -7.775381E-10 -3.481936E-10
       231  18  2.665579E+06  1.500284E+06  3.809979E+04  2.018538E+06 -1.636838E-09 -2.576341E-10
       231  19  2.797720E+06  1.631062E+06  1.752760E+05  2.039788E+06 -8.831619E+04 -6.446325E+04
       231  20  2.764725E+06  1.550588E+06  9.731943E+04  2.067471E+06 -5.541487E+04 -3.995430E+04
       231  21  2.776486E+06  1.559298E+06  7.167710E+04  2.064223E+06 -2.240279E+04 -1.559472E+04
       231  22  2.747120E+06  1.576588E+06  1.545327E+05  2.006239E+06 -8.830695E+04 -6.445385E+04
       231  23  2.711699E+06  1.508599E+06  7.856845E+04  2.039276E+06 -5.544431E+04 -3.997594E+04
       231  24  2.721031E+06  1.529791E+06  5.488933E+04  2.041380E+06 -2.247112E+04 -1.564616E+04
       231  25  2.696522E+06  1.522118E+06  1.337890E+05  1.972693E+06 -8.829771E+04 -6.444445E+04
       231  26  2.658676E+06  1.466611E+06  5.981702E+04  2.011083E+06 -5.547374E+04 -3.999758E+04
       231  27  2.665579E+06  1.500284E+06  3.810120E+04  2.018539E+06 -2.253943E+04 -1.569759E+04
       232   1  2.751334E+06  1.558437E+06  5.886375E+04  2.049599E+06  1.484761E+04  1.016165E+04
       232   2  2.745288E+06  1.537950E+06  4.866956E+04  2.050204E+06 -1.459074E+03 -1.793731E+03
       232   3  2.748325E+06  1.548848E+06  5.914542E+04  2.043609E+06 -1.775063E+04 -1.376866E+04
       232   4  2.722772E+06  1.534253E+06  4.846828E+04  2.033688E+06  1.488737E+04  1.019131E+04
       232   5  2.718457E+06  1.518967E+06  3.962555E+04  2.036981E+06 -1.423256E+03 -1.766932E+03
       232   6  2.723226E+06  1.535066E+06  5.145710E+04  2.033075E+06 -1.771882E+04 -1.374498E+04
       232   7  2.694210E+06  1.510070E+06  3.807272E+04  2.017777E+06  1.492713E+04  1.022097E+04
       232   8  2.691627E+06  1.499984E+06  3.058146E+04  2.023759E+06 -1.387440E+03 -1.740135E+03
       232   9  2.698128E+06  1.521285E+06  4.376871E+04  2.022540E+06 -1.768702E+04 -1.372129E+04
       232  10  2.751334E+06  1.558437E+06  5.886315E+04  2.049599E+06 -5.976621E-11 -3.929574E-11
       232  11  2.745288E+06  1.537950E+06  4.866955E+04  2.050204E+06 -4.156541E-10 -2.372240E-10
       232  12  2.748324E+06  1.548847E+06  5.914448E+04  2.043609E+06 -7.093381E-10  1.008902E-09
       232  13  2.722771E+06  1.534253E+06  4.846768E+04  2.033688E+06 -4.827101E-10 -6.913149E-10
       232  14  2.718457E+06  1.518967E+06  3.962554E+04  2.036981E+06 -3.820140E-09 -4.731010E-10
       232  15  2.723226E+06  1.535066E+06  5.145616E+04  2.033074E+06 -6.907149E-11  5.366696E-10
       232  16  2.694210E+06  1.510069E+06  3.807211E+04  2.017777E+06 -3.320242E-10 -2.959365E-11
       232  17  2.691627E+06  1.499984E+06  3.058145E+04  2.023759E+06 -6.726717E-10 -2.148987E-09
       232  18  2.698128E+06  1.521285E+06  4.376778E+04  2.022540E+06  2.726890E-10 -5.846902E-11
       232  19  2.751334E+06  1.558437E+06  5.886375E+04  2.049599E+06 -1.484761E+04 -1.016165E+04
       232  20  2.745288E+06  1.537950E+06  4.866956E+04  2.050204E+06  1.459074E+03  1.793731E+03
       232  21  2.748325E+06  1.548848E+06  5.914542E+04  2.043609E+06  1.775063E+04  1.376866E+04
       232  22  2.722772E+06  1.534253E+06  4.846828E+04  2.033688E+06 -1.488737E+04 -1.019131E+04
       232  23  2.718457E+06  1.518967E+06  3.962555E+04  2.036981E+06  1.423256E+03  1.766932E+03
       232  24  2.723226E+06  1.535066E+06  5.145710E+04  2.033075E+06  1.771882E+04  1.374498E+04
       232  25  2.694210E+06  1.510070E+06  3.807272E+04  2.017777E+06 -1.492713E+04 -1.022097E+04
       232  26  2.691627E+06  1.499984E+06  3.058146E+04  2.023759E+06  1.387440E+03  1.740135E+03
       232  27  2.698128E+06  1.521285E+06  4.376871E+04  2.022540E+06  1.768702E+04  1.372129E+04
       233   1  2.724721E+06  1.541106E+06  6.216961E+04  2.047785E+06 -2.583618E+04 -1.968320E+04
       233   2  2.717120E+06  1.509413E+06  8.862395E+04  2.041891E+06 -6.220262E+04 -4.667931E+04
       233   3  2.766043E+06  1.570479E+06  1.731188E+05  1.999489E+06 -9.852928E+04 -7.372979E+04
       233   4  2.722517E+06  1.528586E+06  5.927774E+04  2.041646E+06 -2.579567E+04 -1.965245E+04
       233   5  2.708948E+06  1.508528E+06  8.683477E+04  2.040120E+06 -6.217465E+04 -4.665885E+04
       233   6  2.751907E+06  1.581230E+06  1.724437E+05  2.002085E+06 -9.851318E+04 -7.372085E+04
       233   7  2.720312E+06  1.516067E+06  5.638587E+04  2.035507E+06 -2.575517E+04 -1.962170E+04
       233   8  2.700777E+06  1.507642E+06  8.504559E+04  2.038349E+06 -6.214668E+04 -4.663838E+04
       233   9  2.737772E+06  1.591982E+06  1.717687E+05  2.004682E+06 -9.849708E+04 -7.371191E+04
       233  10  2.724720E+06  1.541105E+06  6.216765E+04  2.047784E+06 -5.754015E-10  1.551992E-09
       233  11  2.717115E+06  1.509410E+06  8.861266E+04  2.041889E+06 -1.011002E-09 -6.335380E-10
       233  12  2.766031E+06  1.570470E+06  1.730905E+05  1.999483E+06  1.081513E-09 -1.559064E-09
       233  13  2.722516E+06  1.528586E+06  5.927578E+04  2.041646E+06 -4.080342E-09  7.633351E-10
       233  14  2.708944E+06  1.508525E+06  8.682349E+04  2.040117E+06  2.025546E-09 -1.131617E-09
       233  15  2.751895E+06  1.581222E+06  1.724155E+05  2.002079E+06  1.250264E-10  1.682730E-10
       233  16  2.720312E+06  1.516067E+06  5.638391E+04  2.035507E+06 -1.245832E-09  6.713622E-10
       233  17  2.700772E+06  1.507639E+06  8.503432E+04  2.038346E+06  3.232509E-09  6.219101E-10
       233  18  2.737760E+06  1.591974E+06  1.717405E+05  2.004676E+06  1.384979E-09  1.301077E-09
       233  19  2.724721E+06  1.541106E+06  6.216961E+04  2.047785E+06  2.583618E+04  1.968320E+04
       233  20  2.717120E+06  1.509413E+06  8.862395E+04  2.041891E+06  6.220262E+04  4.667931E+04
       233  21  2.766043E+06  1.570479E+06  1.731188E+05  1.999489E+06  9.852928E+04  7.372979E+04
       233  22  2.722517E+06  1.528586E+06  5.927774E+04  2.041646E+06  2.579567E+04  1.965245E+04
       233  23  2.708948E+06  1.508528E+06  8.683477E+04  2.040120E+06  6.217465E+04  4.665885E+04
       233  24  2.751907E+06  1.581230E+06  1.724437E+05  2.002085E+06  9.851318E+04  7.372085E+04
       233  25  2.720312E+06  1.516067E+06  5.638587E+04  2.035507E+06  2.575517E+04  1.962170E+04
       233  26  2.700777E+06  1.507642E+06  8.504559E+04  2.038349E+06  6.214668E+04  4.663838E+04
       233  27  2.737772E+06  1.591982E+06  1.717687E+05  2.004682E+06  9.849708E+04  7.371191E+04
       234   1  2.687806E+06  1.565666E+06  2.038584E+05  2.078018E+06 -1.260411E+05 -9.413770E+04
       234   2  2.646752E+06  1.388891E+06  3.121714E+05  2.051358E+06 -2.646095E+05 -1.975446E+05
       234   3  3.023176E+06  1.805230E+06  7.303002E+05  1.752911E+06 -4.029398E+05 -3.012537E+05
       234   4  2.741756E+06  1.530826E+06  2.076416E+05  2.070968E+06 -1.259686E+05 -9.406941E+04
       234   5  2.638232E+06  1.422607E+06  3.171363E+05  2.065474E+06 -2.646080E+05 -1.975596E+05
       234   6  2.952171E+06  1.907505E+06  7.365100E+05  1.788203E+06 -4.029879E+05 -3.013833E+05
       234   7  2.795713E+06  1.495991E+06  2.114259E+05  2.063915E+06 -1.258961E+05 -9.400113E+04
       234   8  2.629713E+06  1.456326E+06  3.221015E+05  2.079590E+06 -2.646066E+05 -1.975745E+05
       234   9  2.881186E+06  2.009812E+06  7.427244E+05  1.823490E+06 -4.030359E+05 -3.015129E+05
       234  10  2.687787E+06  1.565652E+06  2.038122E+05  2.078009E+06  1.839243E-09  2.258425E-10
       234  11  2.646667E+06  1.388831E+06  3.119679E+05  2.051316E+06  2.289822E-09 -8.748432E-10
       234  12  3.022978E+06  1.805090E+06  7.298278E+05  1.752814E+06 -6.371637E-10 -1.259019E-09
       234  13  2.741737E+06  1.530812E+06  2.075955E+05  2.070958E+06 -1.635659E-09  5.227371E-10
       234  14  2.638147E+06  1.422547E+06  3.169328E+05  2.065432E+06 -3.716770E-10 -8.537351E-10
       234  15  2.951973E+06  1.907365E+06  7.360374E+05  1.788106E+06 -4.746337E-10  1.429672E-10
       234  16  2.795694E+06  1.495977E+06  2.113799E+05  2.063906E+06  1.102661E-09 -5.552418E-10
       234  17  2.629628E+06  1.456266E+06  3.218980E+05  2.079548E+06  1.112314E-09 -5.365856E-10
       234  18  2.880988E+06  2.009672E+06  7.422516E+05  1.823392E+06 -4.588584E-10 -3.866837E-10
       234  19  2.687806E+06  1.565666E+06  2.038584E+05  2.078018E+06  1.260411E+05  9.413770E+04
       234  20  2.646752E+06  1.388891E+06  3.121714E+05  2.051358E+06  2.646095E+05  1.975446E+05
       234  21  3.023176E+06  1.805230E+06  7.303002E+05  1.752911E+06  4.029398E+05  3.012537E+05
       234  22  2.741756E+06  1.530826E+06  2.076416E+05  2.070968E+06  1.259686E+05  9.406941E+04
       234  23  2.638232E+06  1.422607E+06  3.171363E+05  2.065474E+06  2.646080E+05  1.975596E+05
       234  24  2.952171E+06  1.907505E+06  7.365100E+05  1.788203E+06  4.029879E+05  3.013833E+05
       234  25  2.795713E+06  1.495991E+06  2.114259E+05  2.063915E+06  1.258961E+05  9.400113E+04
       234  26  2.629713E+06  1.456326E+06  3.221015E+05  2.079590E+06  2.646066E+05  1.975745E+05
       234  27  2.881186E+06  2.009812E+06  7.427244E+05  1.823490E+06  4.030359E+05  3.015129E+05
       235   1  2.240434E+06  2.181880E+05  2.329404E+05  5.298069E+04  4.725236E+04 -3.914573E+03
       235   2  2.159620E+06  1.391662E+05  1.771092E+05 -7.243637E+03  2.938684E+04 -1.068261E+04
       235   3  2.100748E+06  1.312435E+05  1.510217E+05  4.144279E+04  1.152729E+04 -7.424107E+03
       235   4  1.566936E+06  5.031740E+04  6.553840E+04  4.522096E+04  4.438170E+04 -3.912637E+03
       235   5  1.556173E+06 -1.104672E+04  2.823197E+04 -9.261401E+03  2.894441E+04 -1.068325E+04
       235   6  1.566950E+06 -1.694909E+03  1.900918E+04  4.517292E+04  1.351106E+04 -7.423386E+03
       235   7  8.938484E+05 -1.175869E+05 -1.018975E+05  3.746971E+04  4.151412E+04 -3.910629E+03
       235   8  9.530569E+05 -1.612867E+05 -1.206722E+05 -1.127718E+04  2.850239E+04 -1.068389E+04
       235   9  1.033410E+06 -1.346545E+05 -1.130244E+05  4.889982E+04  1.549313E+04 -7.422640E+03
       235  10  2.240432E+06  2.181874E+05  2.329362E+05  5.298084E+04  2.095317E-10  5.598485E-10
       235  11  2.159619E+06  1.391658E+05  1.771074E+05 -7.243384E+03  5.289119E-10  8.797517E-10
       235  12  2.100748E+06  1.312434E+05  1.510213E+05  4.144285E+04  1.938456E-09  7.637758E-10
       235  13  1.566934E+06  5.031686E+04  6.553468E+04  4.522110E+04 -1.077855E-09  1.076398E-10
       235  14  1.556172E+06 -1.104706E+04  2.823019E+04 -9.261152E+03  1.603974E-09 -2.367939E-10
       235  15  1.566950E+06 -1.695017E+03  1.900873E+04  4.517300E+04  5.294137E-10  2.905816E-10
       235  16  8.938466E+05 -1.175874E+05 -1.019007E+05  3.746984E+04  9.834144E-10  2.013350E-10
       235  17  9.530560E+05 -1.612870E+05 -1.206739E+05 -1.127694E+04 -7.536186E-10 -1.252356E-09
       235  18  1.033410E+06 -1.346546E+05 -1.130250E+05  4.889991E+04 -1.967183E-09 -1.101379E-10
       235  19  2.240434E+06  2.181880E+05  2.329404E+05  5.298069E+04 -4.725236E+04  3.914573E+03
       235  20  2.159620E+06  1.391662E+05  1.771092E+05 -7.243637E+03 -2.938684E+04  1.068261E+04
       235  21  2.100748E+06  1.312435E+05  1.510217E+05  4.144279E+04 -1.152729E+04  7.424107E+03
       235  22  1.566936E+06  5.031740E+04  6.553840E+04  4.522096E+04 -4.438170E+04  3.912637E+03
       235  23  1.556173E+06 -1.104672E+04  2.823197E+04 -9.261401E+03 -2.894441E+04  1.068325E+04
       235  24  1.566950E+06 -1.694909E+03  1.900918E+04  4.517292E+04 -1.351106E+04  7.423386E+03
       235  25  8.938484E+05 -1.175869E+05 -1.018975E+05  3.746971E+04 -4.151412E+04  3.910629E+03
       235  26  9.530569E+05 -1.612867E+05 -1.206722E+05 -1.127718E+04 -2.850239E+04  1.068389E+04
       235  27  1.033410E+06 -1.346545E+05 -1.130244E+05  4.889982E+04 -1.549313E+04  7.422640E+03
       236   1  1.838040E+06  7.560190E+04  8.386408E+04  4.418606E+04  1.024073E+04 -4.487224E+03
       236   2  1.773305E+06  5.105615E+04  6.115823E+04 -5.963194E+03  5.398440E+03 -3.419275E+03
       236   3  1.711995E+06  3.782323E+04  4.441824E+04  4.233231E+04  5.541416E+02 -1.240561E+03
       236   4  1.562974E+06  7.103879E+03  1.593031E+04  4.285418E+04  1.036212E+04 -4.487269E+03
       236   5  1.561285E+06 -1.744444E+03  8.786662E+03 -6.366758E+03  5.788786E+03 -3.418942E+03
       236   6  1.562972E+06  6.759692E+02  7.424616E+03  4.285907E+04  1.212949E+03 -1.239688E+03
       236   7  1.287977E+06 -6.139977E+04 -5.200905E+04  4.152287E+04  1.048347E+04 -4.487314E+03
       236   8  1.349306E+06 -5.454838E+04 -4.358824E+04 -6.770196E+03  6.179000E+03 -3.418610E+03
       236   9  1.413969E+06 -3.647295E+04 -2.957066E+04  4.338569E+04  1.871598E+03 -1.238814E+03
       236  10  1.838040E+06  7.560185E+04  8.386384E+04  4.418610E+04  2.666099E-09  1.090055E-09
       236  11  1.773305E+06  5.105613E+04  6.115815E+04 -5.963179E+03  1.010127E-09 -5.980140E-10
       236  12  1.711995E+06  3.782323E+04  4.441823E+04  4.233231E+04  1.217125E-09 -2.901163E-10
       236  13  1.562974E+06  7.103828E+03  1.593007E+04  4.285422E+04  8.632467E-10  4.463652E-10
       236  14  1.561285E+06 -1.744466E+03  8.786577E+03 -6.366742E+03 -5.249003E-10  6.804048E-10
       236  15  1.562972E+06  6.759672E+02  7.424610E+03  4.285907E+04  3.994085E-10  7.843788E-10
       236  16  1.287977E+06 -6.139982E+04 -5.200930E+04  4.152290E+04 -3.245604E-09  3.314260E-10
       236  17  1.349306E+06 -5.454841E+04 -4.358833E+04 -6.770179E+03 -6.755671E-10 -1.505547E-09
       236  18  1.413969E+06 -3.647296E+04 -2.957067E+04  4.338570E+04 -3.492279E-10 -1.485208E-11
       236  19  1.838040E+06  7.560190E+04  8.386408E+04  4.418606E+04 -1.024073E+04  4.487224E+03
       236  20  1.773305E+06  5.105615E+04  6.115823E+04 -5.963194E+03 -5.398440E+03  3.419275E+03
       236  21  1.711995E+06  3.782323E+04  4.441824E+04  4.233231E+04 -5.541416E+02  1.240561E+03
       236  22  1.562974E+06  7.103879E+03  1.593031E+04  4.285418E+04 -1.036212E+04  4.487269E+03
       236  23  1.561285E+06 -1.744444E+03  8.786662E+03 -6.366758E+03 -5.788786E+03  3.418942E+03
       236  24  1.562972E+06  6.759692E+02  7.424616E+03  4.285907E+04 -1.212949E+03  1.239688E+03
       236  25  1.287977E+06 -6.139977E+04 -5.200905E+04  4.152287E+04 -1.048347E+04  4.487314E+03
       236  26  1.349306E+06 -5.454838E+04 -4.358824E+04 -6.770196E+03 -6.179000E+03  3.418610E+03
       236  27  1.413969E+06 -3.647295E+04 -2.957066E+04  4.338569E+04 -1.871598E+03  1.238814E+03
       237   1  1.467110E+06 -2.299350E+04 -1.657200E+04  4.320998E+04 -7.570809E+02  4.219413E+02
       237   2  1.403164E+06 -4.093220E+04 -3.126235E+04 -6.497946E+03 -4.586884E+03  2.577506E+03
       237   3  1.342001E+06 -4.913804E+04 -4.106287E+04  4.155457E+04 -8.414095E+03  3.715533E+03
       237   4  1.562853E+06  8.871236E+02  7.257208E+03  4.270588E+04 -1.153514E+02  4.228180E+02
       237   5  1.561443E+06 -1.506772E+03  7.839511E+03 -6.175755E+03 -4.190642E+03  2.577912E+03
       237   6  1.562855E+06  5.873408E+03  1.348086E+04  4.270141E+04 -8.263720E+03  3.715583E+03
       237   7  1.658604E+06  2.476706E+04  3.108573E+04  4.220169E+04  5.264769E+02  4.236936E+02
       237   8  1.719746E+06  3.791679E+04  4.693951E+04 -5.853488E+03 -3.794300E+03  2.578319E+03
       237   9  1.783753E+06  6.088123E+04  6.802098E+04  4.384865E+04 -8.113292E+03  3.715633E+03
       237  10  1.467110E+06 -2.299350E+04 -1.657200E+04  4.320998E+04  5.228752E-10 -7.411379E-10
       237  11  1.403164E+06 -4.093221E+04 -3.126240E+04 -6.497937E+03 -2.160072E-10  7.601881E-10
       237  12  1.342001E+06 -4.913808E+04 -4.106303E+04  4.155460E+04  1.619110E-09  1.381707E-10
       237  13  1.562853E+06  8.871234E+02  7.257208E+03  4.270588E+04  1.213195E-09 -4.481255E-10
       237  14  1.561443E+06 -1.506784E+03  7.839466E+03 -6.175746E+03 -2.981081E-10 -1.247716E-09
       237  15  1.562854E+06  5.873374E+03  1.348070E+04  4.270144E+04  5.532461E-10  2.732599E-10
       237  16  1.658604E+06  2.476706E+04  3.108573E+04  4.220169E+04  1.019075E-09  1.808053E-10
       237  17  1.719746E+06  3.791678E+04  4.693947E+04 -5.853480E+03 -9.611133E-10 -3.038310E-10
       237  18  1.783753E+06  6.088120E+04  6.802083E+04  4.384867E+04 -1.310093E-10 -4.913159E-10
       237  19  1.467110E+06 -2.299350E+04 -1.657200E+04  4.320998E+04  7.570809E+02 -4.219413E+02
       237  20  1.403164E+06 -4.093220E+04 -3.126235E+04 -6.497946E+03  4.586884E+03 -2.577506E+03
       237  21  1.342001E+06 -4.913804E+04 -4.106287E+04  4.155457E+04  8.414095E+03 -3.715533E+03
       237  22  1.562853E+06  8.871236E+02  7.257208E+03  4.270588E+04  1.153514E+02 -4.228180E+02
       237  23  1.561443E+06 -1.506772E+03  7.839511E+03 -6.175755E+03  4.190642E+03 -2.577912E+03
       237  24  1.562855E+06  5.873408E+03  1.348086E+04  4.270141E+04  8.263720E+03 -3.715583E+03
       237  25  1.658604E+06  2.476706E+04  3.108573E+04  4.220169E+04 -5.264769E+02 -4.236936E+02
       237  26  1.719746E+06  3.791679E+04  4.693951E+04 -5.853488E+03  3.794300E+03 -2.578319E+03
       237  27  1.783753E+06  6.088123E+04  6.802098E+04  4.384865E+04  8.113292E+03 -3.715633E+03
       238   1  1.090228E+06 -1.199176E+05 -1.018380E+05  4.769133E+04 -1.278075E+04  6.510252E+03
       238   2  1.013136E+06 -1.446633E+05 -1.109158E+05 -1.042447E+04 -2.333989E+04  9.659023E+03
       238   3  9.534006E+05 -1.113167E+05 -9.830886E+04  3.820485E+04 -3.389895E+04  3.548519E+03
       238   4  1.566115E+06 -1.327162E+03  1.594111E+04  4.469531E+04 -1.091616E+04  6.511354E+03
       238   5  1.557247E+06 -9.126663E+03  2.341169E+04 -8.661444E+03 -2.370994E+04  9.658422E+03
       238   6  1.566105E+06  4.152698E+04  5.410221E+04  4.472070E+04 -3.650489E+04  3.549602E+03
       238   7  2.042207E+06  1.172464E+05  1.337034E+05  4.169696E+04 -9.050147E+03  6.512437E+03
       238   8  2.101626E+06  1.263879E+05  1.577173E+05 -6.896877E+03 -2.408031E+04  9.657820E+03
       238   9  2.179150E+06  1.943427E+05  2.064852E+05  5.124301E+04 -3.911337E+04  3.550630E+03
       238  10  1.090228E+06 -1.199177E+05 -1.018384E+05  4.769139E+04  1.888750E-10  4.855499E-10
       238  11  1.013135E+06 -1.446635E+05 -1.109170E+05 -1.042428E+04 -2.250874E-09 -4.718828E-10
       238  12  9.533994E+05 -1.113171E+05 -9.831104E+04  3.820495E+04 -3.347566E-10  2.013339E-10
       238  13  1.566115E+06 -1.327239E+03  1.594081E+04  4.469537E+04  5.448177E-10  5.436688E-10
       238  14  1.557246E+06 -9.126914E+03  2.341046E+04 -8.661260E+03  8.583866E-10 -3.331750E-10
       238  15  1.566104E+06  4.152661E+04  5.409969E+04  4.472080E+04  9.654459E-10  1.918723E-11
       238  16  2.042207E+06  1.172463E+05  1.337032E+05  4.169701E+04  1.278998E-09 -1.012748E-11
       238  17  2.101626E+06  1.263877E+05  1.577160E+05 -6.896689E+03  2.930717E-10 -7.965849E-10
       238  18  2.179148E+06  1.943423E+05  2.064823E+05  5.124312E+04  6.854959E-10  9.110422E-11
       238  19  1.090228E+06 -1.199176E+05 -1.018380E+05  4.769133E+04  1.278075E+04 -6.510252E+03
       238  20  1.013136E+06 -1.446633E+05 -1.109158E+05 -1.042447E+04  2.333989E+04 -9.659023E+03
       238  21  9.534006E+05 -1.113167E+05 -9.830886E+04  3.820485E+04  3.389895E+04 -3.548519E+03
       238  22  1.566115E+06 -1.327162E+03  1.594111E+04  4.469531E+04  1.091616E+04 -6.511354E+03
       238  23  1.557247E+06 -9.126663E+03  2.341169E+04 -8.661444E+03  2.370994E+04 -9.658422E+03
       238  24  1.566105E+06  4.152698E+04  5.410221E+04  4.472070E+04  3.650489E+04 -3.549602E+03
       238  25  2.042207E+06  1.172464E+05  1.337034E+05  4.169696E+04  9.050147E+03 -6.512437E+03
       238  26  2.101626E+06  1.263879E+05  1.577173E+05 -6.896877E+03  2.408031E+04 -9.657820E+03
       238  27  2.179150E+06  1.943427E+05  2.064852E+05  5.124301E+04  3.911337E+04 -3.550630E+03
       239   1 -7.227487E+05 -2.916298E+06 -8.875235E+05  1.516736E+05 -5.088240E+03 -4.695204E+05
       239   2 -3.637931E+04 -2.705100E+06 -4.682966E+05  3.200830E+03 -1.195974E+04 -2.958941E+05
       239   3 -1.181174E+05 -2.707921E+06 -3.542628E+05  1.780061E+04 -6.958896E+03 -1.222734E+05
       239   4 -5.411618E+05 -2.190139E+06 -7.061456E+05  6.356094E+04 -5.015564E+03 -4.667222E+05
       239   5  1.190113E+05 -2.083239E+06 -3.141748E+05 -1.845619E+04 -1.194780E+04 -2.957628E+05
       239   6  1.195202E+04 -2.189665E+06 -2.252860E+05  6.261088E+04 -6.975529E+03 -1.248387E+05
       239   7 -3.595851E+05 -1.463483E+06 -5.248033E+05 -2.465542E+04 -4.943757E+03 -4.639205E+05
       239   8  2.743747E+05 -1.461023E+06 -1.600816E+05 -4.013522E+04 -1.193589E+04 -2.956311E+05
       239   9  1.420086E+05 -1.671159E+06 -9.632832E+04  1.074585E+05 -6.992523E+03 -1.274062E+05
       239  10 -7.228083E+05 -2.916536E+06 -8.879397E+05  1.516717E+05 -8.378030E-10 -1.838664E-10
       239  11 -3.640310E+04 -2.705195E+06 -4.684622E+05  3.197976E+03 -7.466454E-10  4.122642E-10
       239  12 -1.181215E+05 -2.707937E+06 -3.542911E+05  1.779992E+04  8.097464E-10  3.482509E-09
       239  13 -5.412205E+05 -2.190374E+06 -7.065565E+05  6.355906E+04 -2.531310E-09  1.282363E-09
       239  14  1.189876E+05 -2.083333E+06 -3.143401E+05 -1.845904E+04 -3.764582E-09 -1.471608E-09
       239  15  1.194777E+04 -2.189682E+06 -2.253155E+05  6.261018E+04  1.369091E-09  8.444167E-10
       239  16 -3.596431E+05 -1.463715E+06 -5.252087E+05 -2.465727E+04  6.450657E-10  1.098204E-09
       239  17  2.743510E+05 -1.461117E+06 -1.602466E+05 -4.013806E+04 -4.092602E-09 -3.104478E-09
       239  18  1.420042E+05 -1.671177E+06 -9.635900E+04  1.074578E+05 -9.432279E-10 -2.269606E-09
       239  19 -7.227487E+05 -2.916298E+06 -8.875235E+05  1.516736E+05  5.088240E+03  4.695204E+05
       239  20 -3.637931E+04 -2.705100E+06 -4.682966E+05  3.200830E+03  1.195974E+04  2.958941E+05
       239  21 -1.181174E+05 -2.707921E+06 -3.542628E+05  1.780061E+04  6.958896E+03  1.222734E+05
       239  22 -5.411618E+05 -2.190139E+06 -7.061456E+05  6.356094E+04  5.015564E+03  4.667222E+05
       239  23  1.190113E+05 -2.083239E+06 -3.141748E+05 -1.845619E+04  1.194780E+04  2.957628E+05
       239  24  1.195202E+04 -2.189665E+06 -2.252860E+05  6.261088E+04  6.975529E+03  1.248387E+05
       239  25 -3.595851E+05 -1.463483E+06 -5.248033E+05 -2.465542E+04  4.943757E+03  4.639205E+05
       239  26  2.743747E+05 -1.461023E+06 -1.600816E+05 -4.013522E+04  1.193589E+04  2.956311E+05
       239  27  1.420086E+05 -1.671159E+06 -9.632832E+04  1.074585E+05  6.992523E+03  1.274062E+05
       240   1 -9.613949E+04 -2.243316E+06 -2.213042E+05  8.233369E+04 -2.545061E+03 -8.622067E+04
       240   2  3.649300E+04 -2.102356E+06 -1.356468E+05 -2.092980E+04  3.288472E+02 -1.239707E+04
       240   3 -2.790427E+04 -2.021780E+06 -1.477174E+05  4.957674E+04  3.108866E+03  6.144048E+04
       240   4 -7.440742E+04 -2.155733E+06 -1.997319E+05  6.545422E+04 -2.544895E+03 -8.686219E+04
       240   5  3.069482E+04 -2.125524E+06 -1.413956E+05 -2.145662E+04  3.267712E+02 -1.301223E+04
       240   6 -6.123969E+04 -2.155714E+06 -1.808016E+05  6.540592E+04  3.108446E+03  6.083855E+04
       240   7 -5.267484E+04 -2.068143E+06 -1.781600E+05  4.857235E+04 -2.544695E+03 -8.750379E+04
       240   8  2.489659E+04 -2.148691E+06 -1.471445E+05 -2.198343E+04  3.246961E+02 -1.362737E+04
       240   9 -9.457549E+04 -2.289632E+06 -2.138870E+05  8.123165E+04  3.107996E+03  6.023675E+04
       240  10 -9.614150E+04 -2.243324E+06 -2.213182E+05  8.233351E+04  1.311350E-09  1.632262E-09
       240  11  3.649296E+04 -2.102356E+06 -1.356471E+05 -2.092979E+04 -1.522096E-09 -3.931806E-10
       240  12 -2.790530E+04 -2.021784E+06 -1.477246E+05  4.957659E+04  6.176058E-10  2.322955E-09
       240  13 -7.440946E+04 -2.155741E+06 -1.997461E+05  6.545404E+04  6.631078E-11  2.024988E-09
       240  14  3.069477E+04 -2.125524E+06 -1.413960E+05 -2.145662E+04 -1.256027E-09 -1.268402E-09
       240  15 -6.124070E+04 -2.155718E+06 -1.808086E+05  6.540576E+04  3.572866E-09  5.310087E-10
       240  16 -5.267691E+04 -2.068151E+06 -1.781744E+05  4.857217E+04 -1.665867E-10  1.393725E-10
       240  17  2.489654E+04 -2.148691E+06 -1.471449E+05 -2.198342E+04  6.753581E-10 -3.435122E-09
       240  18 -9.457647E+04 -2.289636E+06 -2.138938E+05  8.123150E+04 -1.878800E-10 -8.458454E-10
       240  19 -9.613949E+04 -2.243316E+06 -2.213042E+05  8.233369E+04  2.545061E+03  8.622067E+04
       240  20  3.649300E+04 -2.102356E+06 -1.356468E+05 -2.092980E+04 -3.288472E+02  1.239707E+04
       240  21 -2.790427E+04 -2.021780E+06 -1.477174E+05  4.957674E+04 -3.108866E+03 -6.144048E+04
       240  22 -7.440742E+04 -2.155733E+06 -1.997319E+05  6.545422E+04  2.544895E+03  8.686219E+04
       240  23  3.069482E+04 -2.125524E+06 -1.413956E+05 -2.145662E+04 -3.267712E+02  1.301223E+04
       240  24 -6.123969E+04 -2.155714E+06 -1.808016E+05  6.540592E+04 -3.108446E+03 -6.083855E+04
       240  25 -5.267484E+04 -2.068143E+06 -1.781600E+05  4.857235E+04  2.544695E+03  8.750379E+04
       240  26  2.489659E+04 -2.148691E+06 -1.471445E+05 -2.198343E+04 -3.246961E+02  1.362737E+04
       240  27 -9.457549E+04 -2.289632E+06 -2.138870E+05  8.123165E+04 -3.107996E+03 -6.023675E+04
       241   1  1.478240E+05 -1.619260E+06 -5.904257E+04  1.004936E+05  7.592622E+03  9.740800E+04
       241   2  2.662533E+05 -1.427269E+06 -1.023753E+05 -3.582965E+04  1.251061E+04  2.397504E+05
       241   3 -2.595563E+05 -1.413629E+06 -3.992370E+05 -1.088478E+04  4.993293E+03  3.821494E+05
       241   4  6.756924E+03 -2.182076E+06 -1.989725E+05  6.230342E+04  7.578910E+03  9.477904E+04
       241   5  1.000519E+05 -2.092734E+06 -2.671876E+05 -1.799002E+04  1.251924E+04  2.399575E+05
       241   6 -4.517743E+05 -2.182467E+06 -5.911147E+05  6.299705E+04  5.044240E+03  3.851683E+05
       241   7 -1.343287E+05 -2.744601E+06 -3.389254E+05  2.414775E+04  7.565515E+03  9.215244E+04
       241   8 -6.618153E+04 -2.757795E+06 -4.320328E+05 -1.698012E+02  1.252789E+04  2.401643E+05
       241   9 -6.440161E+05 -2.950756E+06 -7.830339E+05  1.367869E+05  5.095961E+03  3.881832E+05
       241  10  1.478213E+05 -1.619270E+06 -5.906056E+04  1.004930E+05  6.026018E-10  3.213376E-09
       241  11  2.662377E+05 -1.427331E+06 -1.024839E+05 -3.583207E+04 -3.469117E-09  1.778933E-09
       241  12 -2.595956E+05 -1.413786E+06 -3.995121E+05 -1.088632E+04 -2.075753E-09  1.484022E-09
       241  13  6.754440E+03 -2.182086E+06 -1.989895E+05  6.230284E+04  3.510537E-10  1.570493E-09
       241  14  1.000362E+05 -2.092796E+06 -2.672965E+05 -1.799245E+04  2.945932E-10 -1.179533E-09
       241  15 -4.518143E+05 -2.182627E+06 -5.913945E+05  6.299548E+04 -8.954204E-10  4.147720E-10
       241  16 -1.343310E+05 -2.744610E+06 -3.389415E+05  2.414719E+04  1.222354E-09 -2.132374E-09
       241  17 -6.619728E+04 -2.757857E+06 -4.321420E+05 -1.722278E+02 -4.100155E-09 -4.375985E-09
       241  18 -6.440568E+05 -2.950919E+06 -7.833184E+05  1.367854E+05 -1.162936E-09 -4.514558E-10
       241  19  1.478240E+05 -1.619260E+06 -5.904257E+04  1.004936E+05 -7.592622E+03 -9.740800E+04
       241  20  2.662533E+05 -1.427269E+06 -1.023753E+05 -3.582965E+04 -1.251061E+04 -2.397504E+05
       241  21 -2.595563E+05 -1.413629E+06 -3.992370E+05 -1.088478E+04 -4.993293E+03 -3.821494E+05
       241  22  6.756924E+03 -2.182076E+06 -1.989725E+05  6.230342E+04 -7.578910E+03 -9.477904E+04
       241  23  1.000519E+05 -2.092734E+06 -2.671876E+05 -1.799002E+04 -1.251924E+04 -2.399575E+05
       241  24 -4.517743E+05 -2.182467E+06 -5.911147E+05  6.299705E+04 -5.044240E+03 -3.851683E+05
       241  25 -1.343287E+05 -2.744601E+06 -3.389254E+05  2.414775E+04 -7.565515E+03 -9.215244E+04
       241  26 -6.618153E+04 -2.757795E+06 -4.320328E+05 -1.698012E+02 -1.252789E+04 -2.401643E+05
       241  27 -6.440161E+05 -2.950756E+06 -7.830339E+05  1.367869E+05 -5.095961E+03 -3.881832E+05
       242   1  2.984281E+06  2.023603E+06  6.652933E+05  1.932324E+06  3.583383E+05  2.678027E+05
       242   2  2.760887E+06  1.533002E+06  2.918521E+05  2.160528E+06  2.353240E+05  1.751770E+05
       242   3  2.910095E+06  1.568016E+06  1.939382E+05  2.146726E+06  1.119367E+05  8.304154E+04
       242   4  3.031960E+06  1.921737E+06  6.545397E+05  1.893316E+06  3.582153E+05  2.676368E+05
       242   5  2.752236E+06  1.491526E+06  2.819716E+05  2.139963E+06  2.352925E+05  1.751408E+05
       242   6  2.845105E+06  1.586903E+06  1.848381E+05  2.144599E+06  1.120139E+05  8.311030E+04
       242   7  3.079652E+06  1.819899E+06  6.437897E+05  1.854306E+06  3.580923E+05  2.674709E+05
       242   8  2.743587E+06  1.450053E+06  2.720912E+05  2.119399E+06  2.352610E+05  1.751046E+05
       242   9  2.780122E+06  1.605792E+06  1.757387E+05  2.142471E+06  1.120910E+05  8.317907E+04
       242  10  2.984125E+06  2.023492E+06  6.649199E+05  1.932247E+06 -5.312167E-10 -1.977953E-10
       242  11  2.760820E+06  1.532955E+06  2.916915E+05  2.160495E+06 -1.964089E-09  7.176662E-10
       242  12  2.910080E+06  1.568006E+06  1.939019E+05  2.146719E+06  1.190961E-09  8.176154E-10
       242  13  3.031803E+06  1.921627E+06  6.541666E+05  1.893239E+06  1.997964E-09 -7.011066E-10
       242  14  2.752169E+06  1.491479E+06  2.818110E+05  2.139930E+06  1.731649E-09  9.040687E-10
       242  15  2.845089E+06  1.586892E+06  1.848018E+05  2.144592E+06  9.353838E-10  1.586953E-09
       242  16  3.079496E+06  1.819789E+06  6.434169E+05  1.854229E+06 -1.835552E-10  2.625021E-10
       242  17  2.743519E+06  1.450006E+06  2.719307E+05  2.119366E+06  9.456698E-10  1.181000E-09
       242  18  2.780106E+06  1.605781E+06  1.757023E+05  2.142463E+06  3.861515E-09  5.012651E-10
       242  19  2.984281E+06  2.023603E+06  6.652933E+05  1.932324E+06 -3.583383E+05 -2.678027E+05
       242  20  2.760887E+06  1.533002E+06  2.918521E+05  2.160528E+06 -2.353240E+05 -1.751770E+05
       242  21  2.910095E+06  1.568016E+06  1.939382E+05  2.146726E+06 -1.119367E+05 -8.304154E+04
       242  22  3.031960E+06  1.921737E+06  6.545397E+05  1.893316E+06 -3.582153E+05 -2.676368E+05
       242  23  2.752236E+06  1.491526E+06  2.819716E+05  2.139963E+06 -2.352925E+05 -1.751408E+05
       242  24  2.845105E+06  1.586903E+06  1.848381E+05  2.144599E+06 -1.120139E+05 -8.311030E+04
       242  25  3.079652E+06  1.819899E+06  6.437897E+05  1.854306E+06 -3.580923E+05 -2.674709E+05
       242  26  2.743587E+06  1.450053E+06  2.720912E+05  2.119399E+06 -2.352610E+05 -1.751046E+05
       242  27  2.780122E+06  1.605792E+06  1.757387E+05  2.142471E+06 -1.120910E+05 -8.317907E+04
       243   1  2.863860E+06  1.656403E+06  1.604621E+05  2.096424E+06  8.755792E+04  6.500205E+04
       243   2  2.830919E+06  1.584390E+06  8.426453E+04  2.127709E+06  5.502030E+04  4.066133E+04
       243   3  2.851957E+06  1.591494E+06  5.996580E+04  2.125418E+06  2.245577E+04  1.635780E+04
       243   4  2.854527E+06  1.631278E+06  1.536589E+05  2.083286E+06  8.755305E+04  6.499594E+04
       243   5  2.814524E+06  1.568394E+06  7.787249E+04  2.117602E+06  5.502431E+04  4.066396E+04
       243   6  2.828500E+06  1.584625E+06  5.397788E+04  2.118340E+06  2.246932E+04  1.636827E+04
       243   7  2.845194E+06  1.606154E+06  1.468557E+05  2.070149E+06  8.754818E+04  6.498984E+04
       243   8  2.798129E+06  1.552398E+06  7.148041E+04  2.107495E+06  5.502831E+04  4.066660E+04
       243   9  2.805043E+06  1.577757E+06  4.798996E+04  2.111263E+06  2.248287E+04  1.637874E+04
       243  10  2.863851E+06  1.656397E+06  1.604399E+05  2.096419E+06 -9.290014E-10  2.131902E-09
       243  11  2.830915E+06  1.584388E+06  8.425580E+04  2.127707E+06  8.284979E-10  1.041220E-09
       243  12  2.851957E+06  1.591493E+06  5.996436E+04  2.125418E+06 -7.988374E-10  2.404211E-09
       243  13  2.854518E+06  1.631272E+06  1.536367E+05  2.083282E+06  4.782298E-09  1.417150E-09
       243  14  2.814520E+06  1.568391E+06  7.786376E+04  2.117600E+06  4.076288E-09  1.437557E-09
       243  15  2.828499E+06  1.584625E+06  5.397644E+04  2.118340E+06 -2.094139E-09  1.449779E-09
       243  16  2.845184E+06  1.606147E+06  1.468335E+05  2.070145E+06  2.397958E-09  1.114444E-09
       243  17  2.798125E+06  1.552395E+06  7.147167E+04  2.107493E+06  2.073764E-09  1.555341E-09
       243  18  2.805042E+06  1.577757E+06  4.798851E+04  2.111262E+06  3.564032E-10  4.248702E-10
       243  19  2.863860E+06  1.656403E+06  1.604621E+05  2.096424E+06 -8.755792E+04 -6.500205E+04
       243  20  2.830919E+06  1.584390E+06  8.426453E+04  2.127709E+06 -5.502030E+04 -4.066133E+04
       243  21  2.851957E+06  1.591494E+06  5.996580E+04  2.125418E+06 -2.245577E+04 -1.635780E+04
       243  22  2.854527E+06  1.631278E+06  1.536589E+05  2.083286E+06 -8.755305E+04 -6.499594E+04
       243  23  2.814524E+06  1.568394E+06  7.787249E+04  2.117602E+06 -5.502431E+04 -4.066396E+04
       243  24  2.828500E+06  1.584625E+06  5.397788E+04  2.118340E+06 -2.246932E+04 -1.636827E+04
       243  25  2.845194E+06  1.606154E+06  1.468557E+05  2.070149E+06 -8.754818E+04 -6.498984E+04
       243  26  2.798129E+06  1.552398E+06  7.148041E+04  2.107495E+06 -5.502831E+04 -4.066660E+04
       243  27  2.805043E+06  1.577757E+06  4.798996E+04  2.111263E+06 -2.248287E+04 -1.637874E+04
       244   1  2.841992E+06  1.602113E+06  5.227045E+04  2.118523E+06  1.510624E+04  1.090213E+04
       244   2  2.835973E+06  1.588130E+06  4.271614E+04  2.122004E+06 -4.360869E+02 -6.921751E+02
       244   3  2.845646E+06  1.597251E+06  5.298053E+04  2.116526E+06 -1.596933E+04 -1.229895E+04
       244   4  2.829747E+06  1.589631E+06  4.739286E+04  2.110728E+06  1.511303E+04  1.090713E+04
       244   5  2.821979E+06  1.578219E+06  3.799775E+04  2.115102E+06 -4.318961E+02 -6.890398E+02
       244   6  2.829904E+06  1.589911E+06  4.842398E+04  2.110517E+06 -1.596769E+04 -1.229782E+04
       244   7  2.817503E+06  1.577150E+06  4.251524E+04  2.102933E+06  1.511983E+04  1.091213E+04
       244   8  2.807986E+06  1.568308E+06  3.327933E+04  2.108200E+06 -4.277055E+02 -6.859045E+02
       244   9  2.814162E+06  1.582571E+06  4.386740E+04  2.104508E+06 -1.596605E+04 -1.229669E+04
       244  10  2.841992E+06  1.602113E+06  5.226980E+04  2.118523E+06  7.371496E-10  1.188871E-09
       244  11  2.835973E+06  1.588130E+06  4.271614E+04  2.122004E+06 -4.945574E-10  5.619395E-10
       244  12  2.845646E+06  1.597251E+06  5.297977E+04  2.116526E+06 -4.745968E-10 -7.126268E-10
       244  13  2.829747E+06  1.589631E+06  4.739221E+04  2.110728E+06 -1.890469E-09  1.856860E-09
       244  14  2.821979E+06  1.578219E+06  3.799775E+04  2.115102E+06 -1.097910E-09 -1.862526E-10
       244  15  2.829904E+06  1.589911E+06  4.842322E+04  2.110517E+06 -1.305485E-09 -5.799900E-10
       244  16  2.817503E+06  1.577149E+06  4.251459E+04  2.102933E+06 -2.412565E-10  1.086358E-09
       244  17  2.807986E+06  1.568308E+06  3.327933E+04  2.108200E+06  2.107787E-10  1.592230E-09
       244  18  2.814162E+06  1.582571E+06  4.386664E+04  2.104508E+06 -2.000614E-09 -1.099780E-09
       244  19  2.841992E+06  1.602113E+06  5.227045E+04  2.118523E+06 -1.510624E+04 -1.090213E+04
       244  20  2.835973E+06  1.588130E+06  4.271614E+04  2.122004E+06  4.360869E+02  6.921751E+02
       244  21  2.845646E+06  1.597251E+06  5.298053E+04  2.116526E+06  1.596933E+04  1.229895E+04
       244  22  2.829747E+06  1.589631E+06  4.739286E+04  2.110728E+06 -1.511303E+04 -1.090713E+04
       244  23  2.821979E+06  1.578219E+06  3.799775E+04  2.115102E+06  4.318961E+02  6.890398E+02
       244  24  2.829904E+06  1.589911E+06  4.842398E+04  2.110517E+06  1.596769E+04  1.229782E+04
       244  25  2.817503E+06  1.577150E+06  4.251524E+04  2.102933E+06 -1.511983E+04 -1.091213E+04
       244  26  2.807986E+06  1.568308E+06  3.327933E+04  2.108200E+06  4.277055E+02  6.859045E+02
       244  27  2.814162E+06  1.582571E+06  4.386740E+04  2.104508E+06  1.596605E+04  1.229669E+04
       245   1  2.836249E+06  1.599148E+06  5.986745E+04  2.126523E+06 -2.348376E+04 -1.792560E+04
       245   2  2.829078E+06  1.575277E+06  8.514759E+04  2.123662E+06 -5.720703E+04 -4.316343E+04
       245   3  2.880911E+06  1.630803E+06  1.643137E+05  2.085027E+06 -9.094121E+04 -6.838710E+04
       245   4  2.829225E+06  1.583999E+06  5.549247E+04  2.118371E+06 -2.348511E+04 -1.792624E+04
       245   5  2.813308E+06  1.568633E+06  8.072409E+04  2.117969E+06 -5.720394E+04 -4.316151E+04
       245   6  2.856394E+06  1.632663E+06  1.598392E+05  2.081792E+06 -9.093299E+04 -6.838362E+04
       245   7  2.822201E+06  1.568852E+06  5.111750E+04  2.110219E+06 -2.348645E+04 -1.792688E+04
       245   8  2.797538E+06  1.561989E+06  7.630058E+04  2.112276E+06 -5.720085E+04 -4.315960E+04
       245   9  2.831878E+06  1.634523E+06  1.553647E+05  2.078558E+06 -9.092477E+04 -6.838013E+04
       245  10  2.836248E+06  1.599147E+06  5.986582E+04  2.126523E+06 -4.364179E-10  1.204050E-11
       245  11  2.829074E+06  1.575274E+06  8.513801E+04  2.123660E+06  5.134403E-10  5.720270E-10
       245  12  2.880901E+06  1.630796E+06  1.642895E+05  2.085022E+06  1.251705E-09  2.577543E-10
       245  13  2.829224E+06  1.583999E+06  5.549084E+04  2.118371E+06 -2.865202E-09 -3.280687E-10
       245  14  2.813304E+06  1.568630E+06  8.071451E+04  2.117967E+06 -3.233156E-10 -7.577137E-10
       245  15  2.856384E+06  1.632655E+06  1.598150E+05  2.081787E+06  2.837919E-09 -1.695187E-10
       245  16  2.822201E+06  1.568851E+06  5.111587E+04  2.110219E+06 -2.303921E-09 -1.602162E-10
       245  17  2.797534E+06  1.561986E+06  7.629100E+04  2.112274E+06  6.389348E-11 -3.884554E-10
       245  18  2.831868E+06  1.634515E+06  1.553405E+05  2.078553E+06 -4.662002E-10 -1.450371E-09
       245  19  2.836249E+06  1.599148E+06  5.986745E+04  2.126523E+06  2.348376E+04  1.792560E+04
       245  20  2.829078E+06  1.575277E+06  8.514759E+04  2.123662E+06  5.720703E+04  4.316343E+04
       245  21  2.880911E+06  1.630803E+06  1.643137E+05  2.085027E+06  9.094121E+04  6.838710E+04
       245  22  2.829225E+06  1.583999E+06  5.549247E+04  2.118371E+06  2.348511E+04  1.792624E+04
       245  23  2.813308E+06  1.568633E+06  8.072409E+04  2.117969E+06  5.720394E+04  4.316151E+04
       245  24  2.856394E+06  1.632663E+06  1.598392E+05  2.081792E+06  9.093299E+04  6.838362E+04
       245  25  2.822201E+06  1.568852E+06  5.111750E+04  2.110219E+06  2.348645E+04  1.792688E+04
       245  26  2.797538E+06  1.561989E+06  7.630058E+04  2.112276E+06  5.720085E+04  4.315960E+04
       245  27  2.831878E+06  1.634523E+06  1.553647E+05  2.078558E+06  9.092477E+04  6.838013E+04
       246   1  2.822848E+06  1.635887E+06  1.974512E+05  2.164497E+06 -1.162061E+05 -8.739280E+04
       246   2  2.784741E+06  1.479371E+06  2.990077E+05  2.143108E+06 -2.445049E+05 -1.834757E+05
       246   3  3.141686E+06  1.863399E+06  6.874954E+05  1.867588E+06 -3.729933E+05 -2.792923E+05
       246   4  2.847411E+06  1.585598E+06  1.923757E+05  2.145432E+06 -1.162494E+05 -8.741326E+04
       246   5  2.747316E+06  1.489633E+06  2.936534E+05  2.141587E+06 -2.444754E+05 -1.834673E+05
       246   6  3.042250E+06  1.934207E+06  6.818152E+05  1.883615E+06 -3.728707E+05 -2.792808E+05
       246   7  2.871979E+06  1.535316E+06  1.873011E+05  2.126365E+06 -1.162928E+05 -8.743372E+04
       246   8  2.709894E+06  1.499897E+06  2.882993E+05  2.140066E+06 -2.444459E+05 -1.834589E+05
       246   9  2.942838E+06  2.005036E+06  6.761390E+05  1.899636E+06 -3.727481E+05 -2.792693E+05
       246  10  2.822831E+06  1.635875E+06  1.974118E+05  2.164489E+06  1.018441E-09 -6.690940E-10
       246  11  2.784668E+06  1.479319E+06  2.988333E+05  2.143072E+06  1.110114E-09 -1.335854E-10
       246  12  3.141517E+06  1.863279E+06  6.870902E+05  1.867504E+06 -3.757209E-15 -1.132002E-10
       246  13  2.847395E+06  1.585587E+06  1.923363E+05  2.145423E+06 -4.843687E-10 -6.610858E-10
       246  14  2.747244E+06  1.489582E+06  2.934791E+05  2.141551E+06  2.681424E-09 -2.855541E-10
       246  15  3.042081E+06  1.934087E+06  6.814102E+05  1.883532E+06  1.329161E-09  1.120240E-10
       246  16  2.871962E+06  1.535305E+06  1.872616E+05  2.126357E+06  3.247091E-11 -1.124185E-09
       246  17  2.709822E+06  1.499845E+06  2.881250E+05  2.140030E+06 -5.337568E-10  7.939079E-11
       246  18  2.942669E+06  2.004916E+06  6.757342E+05  1.899553E+06 -1.251016E-10  1.710485E-11
       246  19  2.822848E+06  1.635887E+06  1.974512E+05  2.164497E+06  1.162061E+05  8.739280E+04
       246  20  2.784741E+06  1.479371E+06  2.990077E+05  2.143108E+06  2.445049E+05  1.834757E+05
       246  21  3.141686E+06  1.863399E+06  6.874954E+05  1.867588E+06  3.729933E+05  2.792923E+05
       246  22  2.847411E+06  1.585598E+06  1.923757E+05  2.145432E+06  1.162494E+05  8.741326E+04
       246  23  2.747316E+06  1.489633E+06  2.936534E+05  2.141587E+06  2.444754E+05  1.834673E+05
       246  24  3.042250E+06  1.934207E+06  6.818152E+05  1.883615E+06  3.728707E+05  2.792808E+05
       246  25  2.871979E+06  1.535316E+06  1.873011E+05  2.126365E+06  1.162928E+05  8.743372E+04
       246  26  2.709894E+06  1.499897E+06  2.882993E+05  2.140066E+06  2.444459E+05  1.834589E+05
       246  27  2.942838E+06  2.005036E+06  6.761390E+05  1.899636E+06  3.727481E+05  2.792693E+05
       247   1  1.773118E+06  1.202423E+05  1.185472E+05  3.231199E+04 -2.316894E+03 -2.883435E+03
       247   2  1.721908E+06  1.130486E+05  1.084511E+05 -6.986091E+03 -2.698901E+03 -7.964131E+03
       247   3  1.670234E+06  9.965761E+04  9.725990E+04  3.388145E+04 -3.078768E+03 -5.554919E+03
       247   4  1.271449E+06 -4.872380E+03 -6.205559E+03  3.336469E+04 -4.437245E+03 -2.882096E+03
       247   5  1.271830E+06  9.668859E+02 -2.635126E+03 -6.718375E+03 -3.018650E+03 -7.964442E+03
       247   6  1.271431E+06  2.941903E+02 -1.409007E+03  3.336786E+04 -1.597942E+03 -5.554508E+03
       247   7  7.700086E+05 -1.300059E+05 -1.309772E+05  3.441657E+04 -6.555887E+03 -2.880765E+03
       247   8  8.219363E+05 -1.111299E+05 -1.137364E+05 -6.450843E+03 -3.338168E+03 -7.964755E+03
       247   9  8.727726E+05 -9.908109E+04 -1.000897E+05  3.285459E+04 -1.180645E+02 -5.554099E+03
       247  10  1.773118E+06  1.202423E+05  1.185472E+05  3.231198E+04  1.198208E-09  8.568476E-11
       247  11  1.721908E+06  1.130486E+05  1.084510E+05 -6.986108E+03  1.875487E-09 -6.281557E-10
       247  12  1.670234E+06  9.965757E+04  9.725983E+04  3.388143E+04 -1.210724E-09 -1.184435E-10
       247  13  1.271449E+06 -4.872394E+03 -6.205611E+03  3.336468E+04 -2.071116E-09 -3.788610E-10
       247  14  1.271830E+06  9.668153E+02 -2.635262E+03 -6.718394E+03 -2.787411E-09 -4.576417E-10
       247  15  1.271431E+06  2.941565E+02 -1.409070E+03  3.336785E+04  2.762891E-10  2.368288E-10
       247  16  7.700085E+05 -1.300059E+05 -1.309773E+05  3.441656E+04 -6.845716E-10 -2.739646E-10
       247  17  8.219363E+05 -1.111300E+05 -1.137365E+05 -6.450865E+03 -1.189240E-09 -4.569226E-10
       247  18  8.727726E+05 -9.908113E+04 -1.000898E+05  3.285459E+04  3.017216E-10  5.549511E-10
       247  19  1.773118E+06  1.202423E+05  1.185472E+05  3.231199E+04  2.316894E+03  2.883435E+03
       247  20  1.721908E+06  1.130486E+05  1.084511E+05 -6.986091E+03  2.698901E+03  7.964131E+03
       247  21  1.670234E+06  9.965761E+04  9.725990E+04  3.388145E+04  3.078768E+03  5.554919E+03
       247  22  1.271449E+06 -4.872380E+03 -6.205559E+03  3.336469E+04  4.437245E+03  2.882096E+03
       247  23  1.271830E+06  9.668859E+02 -2.635126E+03 -6.718375E+03  3.018650E+03  7.964442E+03
       247  24  1.271431E+06  2.941903E+02 -1.409007E+03  3.336786E+04  1.597942E+03  5.554508E+03
       247  25  7.700086E+05 -1.300059E+05 -1.309772E+05  3.441657E+04  6.555887E+03  2.880765E+03
       247  26  8.219363E+05 -1.111299E+05 -1.137364E+05 -6.450843E+03  3.338168E+03  7.964755E+03
       247  27  8.727726E+05 -9.908109E+04 -1.000897E+05  3.285459E+04  1.180645E+02  5.554099E+03
       248   1  1.477711E+06  5.061717E+04  4.984869E+04  3.198140E+04 -1.476855E+03 -3.370213E+03
       248   2  1.430475E+06  3.962680E+04  3.919536E+04 -4.910457E+03 -1.648574E+03 -2.568244E+03
       248   3  1.383145E+06  2.826532E+04  2.855549E+04  3.206872E+04 -1.821720E+03 -9.269973E+02
       248   4  1.271616E+06 -7.225249E+02 -1.069901E+03  3.196824E+04 -1.384628E+03 -3.370224E+03
       248   5  1.271678E+06  6.750087E+01 -4.306689E+01 -4.968320E+03 -1.354606E+03 -2.568046E+03
       248   6  1.271610E+06  4.513365E+02  8.572671E+02  3.196734E+04 -1.326026E+03 -9.264896E+02
       248   7  1.065559E+06 -5.206539E+04 -5.199164E+04  3.195508E+04 -1.292431E+03 -3.370235E+03
       248   8  1.112904E+06 -3.949368E+04 -3.928336E+04 -5.026173E+03 -1.060712E+03 -2.567847E+03
       248   9  1.160086E+06 -2.736358E+04 -2.684188E+04  3.186596E+04 -8.304202E+02 -9.259821E+02
       248  10  1.477711E+06  5.061716E+04  4.984867E+04  3.198139E+04  6.325034E-10 -2.201969E-11
       248  11  1.430475E+06  3.962679E+04  3.919534E+04 -4.910460E+03  4.935639E-10 -1.127949E-11
       248  12  1.383145E+06  2.826532E+04  2.855548E+04  3.206872E+04  6.251413E-10 -6.022383E-10
       248  13  1.271616E+06 -7.225376E+02 -1.069926E+03  3.196823E+04  1.060477E-09  3.555416E-10
       248  14  1.271678E+06  6.749329E+01 -4.308273E+01 -4.968323E+03  3.300735E-10 -7.330584E-10
       248  15  1.271610E+06  4.513351E+02  8.572622E+02  3.196733E+04 -9.606603E-10 -1.355527E-09
       248  16  1.065559E+06 -5.206540E+04 -5.199167E+04  3.195507E+04  9.161956E-10  6.849139E-10
       248  17  1.112904E+06 -3.949369E+04 -3.928338E+04 -5.026175E+03  8.216778E-11 -1.413286E-09
       248  18  1.160086E+06 -2.736358E+04 -2.684189E+04  3.186596E+04 -7.465783E-10 -4.678991E-10
       248  19  1.477711E+06  5.061717E+04  4.984869E+04  3.198140E+04  1.476855E+03  3.370213E+03
       248  20  1.430475E+06  3.962680E+04  3.919536E+04 -4.910457E+03  1.648574E+03  2.568244E+03
       248  21  1.383145E+06  2.826532E+04  2.855549E+04  3.206872E+04  1.821720E+03  9.269973E+02
       248  22  1.271616E+06 -7.225249E+02 -1.069901E+03  3.196824E+04  1.384628E+03  3.370224E+03
       248  23  1.271678E+06  6.750087E+01 -4.306689E+01 -4.968320E+03  1.354606E+03  2.568046E+03
       248  24  1.271610E+06  4.513365E+02  8.572671E+02  3.196734E+04  1.326026E+03  9.264896E+02
       248  25  1.065559E+06 -5.206539E+04 -5.199164E+04  3.195508E+04  1.292431E+03  3.370235E+03
       248  26  1.112904E+06 -3.949368E+04 -3.928336E+04 -5.026173E+03  1.060712E+03  2.567847E+03
       248  27  1.160086E+06 -2.736358E+04 -2.684188E+04  3.186596E+04  8.304202E+02  9.259821E+02
       249   1  1.199198E+06 -1.826799E+04 -1.681751E+04  3.200520E+04 -2.003795E+03  3.256662E+02
       249   2  1.151732E+06 -3.034974E+04 -2.712303E+04 -5.029445E+03 -3.098280E+03  1.950108E+03
       249   3  1.105191E+06 -3.894560E+04 -3.586501E+04  3.139917E+04 -4.191453E+03  2.805026E+03
       249   4  1.271854E+06 -1.394456E+02  1.270385E+03  3.187749E+04 -1.520807E+03  3.261759E+02
       249   5  1.271377E+06 -5.391103E+02  2.443221E+03 -4.854729E+03 -2.800476E+03  1.950346E+03
       249   6  1.271856E+06  2.579163E+03  5.308030E+03  3.187541E+04 -4.078919E+03  2.805061E+03
       249   7  1.344515E+06  1.798871E+04  1.935788E+04  3.174976E+04 -1.037763E+03  3.266854E+02
       249   8  1.391035E+06  2.927045E+04  3.200841E+04 -4.679982E+03 -2.502616E+03  1.950584E+03
       249   9  1.438546E+06  4.410186E+04  4.647901E+04  3.235177E+04 -3.966355E+03  2.805097E+03
       249  10  1.199198E+06 -1.826799E+04 -1.681751E+04  3.200520E+04  8.728989E-10  4.356181E-10
       249  11  1.151732E+06 -3.034975E+04 -2.712305E+04 -5.029440E+03 -3.545688E-10  2.369744E-10
       249  12  1.105191E+06 -3.894562E+04 -3.586506E+04  3.139918E+04 -1.790986E-09 -3.811146E-10
       249  13  1.271854E+06 -1.394464E+02  1.270381E+03  3.187749E+04  1.111698E-09 -4.891479E-10
       249  14  1.271377E+06 -5.391165E+02  2.443200E+03 -4.854724E+03  1.080958E-09  1.333700E-11
       249  15  1.271856E+06  2.579150E+03  5.307984E+03  3.187542E+04  8.722326E-11  3.180978E-10
       249  16  1.344515E+06  1.798871E+04  1.935788E+04  3.174976E+04  4.914669E-10 -7.697356E-10
       249  17  1.391035E+06  2.927045E+04  3.200839E+04 -4.679978E+03  1.869728E-09 -4.223483E-10
       249  18  1.438546E+06  4.410185E+04  4.647897E+04  3.235178E+04  1.744659E-09  2.407131E-10
       249  19  1.199198E+06 -1.826799E+04 -1.681751E+04  3.200520E+04  2.003795E+03 -3.256662E+02
       249  20  1.151732E+06 -3.034974E+04 -2.712303E+04 -5.029445E+03  3.098280E+03 -1.950108E+03
       249  21  1.105191E+06 -3.894560E+04 -3.586501E+04  3.139917E+04  4.191453E+03 -2.805026E+03
       249  22  1.271854E+06 -1.394456E+02  1.270385E+03  3.187749E+04  1.520807E+03 -3.261759E+02
       249  23  1.271377E+06 -5.391103E+02  2.443221E+03 -4.854729E+03  2.800476E+03 -1.950346E+03
       249  24  1.271856E+06  2.579163E+03  5.308030E+03  3.187541E+04  4.078919E+03 -2.805061E+03
       249  25  1.344515E+06  1.798871E+04  1.935788E+04  3.174976E+04  1.037763E+03 -3.266854E+02
       249  26  1.391035E+06  2.927045E+04  3.200841E+04 -4.679982E+03  2.502616E+03 -1.950584E+03
       249  27  1.438546E+06  4.410186E+04  4.647901E+04  3.235177E+04  3.966355E+03 -2.805097E+03
       250   1  9.161867E+05 -8.967077E+04 -8.189271E+04  3.434632E+04 -6.541345E+03  4.892672E+03
       250   2  8.618059E+05 -1.055349E+05 -9.066011E+04 -7.147907E+03 -1.034688E+04  7.236287E+03
       250   3  8.150166E+05 -9.627429E+04 -9.050714E+04  3.029642E+04 -1.415247E+04  2.646913E+03
       250   4  1.273362E+06 -6.383600E+02  6.528884E+03  3.309146E+04 -5.147164E+03  4.893303E+03
       250   5  1.269426E+06 -3.973992E+03  9.995615E+03 -6.372256E+03 -1.062140E+04  7.235966E+03
       250   6  1.273363E+06  1.809593E+04  2.353549E+04  3.309921E+04 -1.609601E+04  2.647606E+03
       250   7  1.630653E+06  8.838453E+04  9.494100E+04  3.183586E+04 -3.752183E+03  4.893928E+03
       250   8  1.677196E+06  9.757454E+04  1.106390E+05 -5.596096E+03 -1.089609E+04  7.235645E+03
       250   9  1.731900E+06  1.324504E+05  1.375624E+05  3.590408E+04 -1.804098E+04  2.648281E+03
       250  10  9.161867E+05 -8.967081E+04 -8.189283E+04  3.434634E+04 -3.033131E-09 -2.862945E-10
       250  11  8.618057E+05 -1.055350E+05 -9.066041E+04 -7.147847E+03 -1.742054E-09  2.925383E-11
       250  12  8.150164E+05 -9.627435E+04 -9.050753E+04  3.029645E+04  1.751185E-09  2.650962E-10
       250  13  1.273362E+06 -6.383928E+02  6.528789E+03  3.309148E+04  5.687541E-10 -5.921188E-10
       250  14  1.269426E+06 -3.974078E+03  9.995305E+03 -6.372194E+03 -1.921499E-09 -2.788759E-10
       250  15  1.273363E+06  1.809585E+04  2.353499E+04  3.309924E+04 -2.266078E-10 -4.573811E-10
       250  16  1.630653E+06  8.838451E+04  9.494093E+04  3.183587E+04  2.979508E-09  7.091059E-10
       250  17  1.677196E+06  9.757445E+04  1.106387E+05 -5.596033E+03  1.027941E-09 -7.837723E-10
       250  18  1.731900E+06  1.324503E+05  1.375618E+05  3.590412E+04  2.424377E-09 -5.567779E-10
       250  19  9.161867E+05 -8.967077E+04 -8.189271E+04  3.434632E+04  6.541345E+03 -4.892672E+03
       250  20  8.618059E+05 -1.055349E+05 -9.066011E+04 -7.147907E+03  1.034688E+04 -7.236287E+03
       250  21  8.150166E+05 -9.627429E+04 -9.050714E+04  3.029642E+04  1.415247E+04 -2.646913E+03
       250  22  1.273362E+06 -6.383600E+02  6.528884E+03  3.309146E+04  5.147164E+03 -4.893303E+03
       250  23  1.269426E+06 -3.973992E+03  9.995615E+03 -6.372256E+03  1.062140E+04 -7.235966E+03
       250  24  1.273363E+06  1.809593E+04  2.353549E+04  3.309921E+04  1.609601E+04 -2.647606E+03
       250  25  1.630653E+06  8.838453E+04  9.494100E+04  3.183586E+04  3.752183E+03 -4.893928E+03
       250  26  1.677196E+06  9.757454E+04  1.106390E+05 -5.596096E+03  1.089609E+04 -7.235645E+03
       250  27  1.731900E+06  1.324504E+05  1.375624E+05  3.590408E+04  1.804098E+04 -2.648281E+03
       251   1 -6.893769E+05 -2.667289E+06 -8.465646E+05  1.446447E+05 -4.701440E+03 -4.452827E+05
       251   2 -3.638816E+04 -2.467533E+06 -4.491634E+05  4.443235E+03 -1.138979E+04 -2.792387E+05
       251   3 -1.158468E+05 -2.471771E+06 -3.430455E+05  1.714685E+04 -6.738184E+03 -1.131966E+05
       251   4 -5.148660E+05 -1.969572E+06 -6.723221E+05  6.049827E+04 -4.636529E+03 -4.425801E+05
       251   5  1.134830E+05 -1.867703E+06 -3.005336E+05 -1.630945E+04 -1.137905E+04 -2.790907E+05
       251   6  1.020662E+04 -1.969175E+06 -2.180177E+05  5.979857E+04 -6.752334E+03 -1.156300E+05
       251   7 -3.403650E+05 -1.271396E+06 -4.981124E+05 -2.374330E+04 -4.572415E+03 -4.398742E+05
       251   8  2.633288E+05 -1.267544E+06 -1.519305E+05 -3.708244E+04 -1.136833E+04 -2.789424E+05
       251   9  1.362477E+05 -1.466345E+06 -9.300800E+04  1.024848E+05 -6.766812E+03 -1.180654E+05
       251  10 -6.894305E+05 -2.667503E+06 -8.469389E+05  1.446431E+05  1.311390E-11 -1.289043E-10
       251  11 -3.640934E+04 -2.467617E+06 -4.493107E+05  4.440670E+03  2.592683E-09  2.608355E-09
       251  12 -1.158503E+05 -2.471785E+06 -3.430698E+05  1.714623E+04  1.321922E-09  2.400719E-09
       251  13 -5.149188E+05 -1.969783E+06 -6.726914E+05  6.049662E+04 -6.151946E-10 -5.928568E-10
       251  14  1.134619E+05 -1.867787E+06 -3.006807E+05 -1.631201E+04 -1.717483E-09  1.835701E-09
       251  15  1.020296E+04 -1.969189E+06 -2.180430E+05  5.979794E+04  1.614560E-09 -7.336725E-10
       251  16 -3.404171E+05 -1.271604E+06 -4.984767E+05 -2.374493E+04  6.881190E-10  7.828288E-10
       251  17  2.633077E+05 -1.267628E+06 -1.520772E+05 -3.708499E+04 -3.338111E-09 -5.014785E-10
       251  18  1.362439E+05 -1.466360E+06 -9.303434E+04  1.024842E+05 -1.152190E-09 -8.512211E-10
       251  19 -6.893769E+05 -2.667289E+06 -8.465646E+05  1.446447E+05  4.701440E+03  4.452827E+05
       251  20 -3.638816E+04 -2.467533E+06 -4.491634E+05  4.443235E+03  1.138979E+04  2.792387E+05
       251  21 -1.158468E+05 -2.471771E+06 -3.430455E+05  1.714685E+04  6.738184E+03  1.131966E+05
       251  22 -5.148660E+05 -1.969572E+06 -6.723221E+05  6.049827E+04  4.636529E+03  4.425801E+05
       251  23  1.134830E+05 -1.867703E+06 -3.005336E+05 -1.630945E+04  1.137905E+04  2.790907E+05
       251  24  1.020662E+04 -1.969175E+06 -2.180177E+05  5.979857E+04  6.752334E+03  1.156300E+05
       251  25 -3.403650E+05 -1.271396E+06 -4.981124E+05 -2.374330E+04  4.572415E+03  4.398742E+05
       251  26  2.633288E+05 -1.267544E+06 -1.519305E+05 -3.708244E+04  1.136833E+04  2.789424E+05
       251  27  1.362477E+05 -1.466345E+06 -9.300800E+04  1.024848E+05  6.766812E+03  1.180654E+05
       252   1 -9.530508E+04 -2.037049E+06 -2.193111E+05  7.898895E+04 -2.587617E+03 -7.814850E+04
       252   2  3.194750E+04 -1.903093E+06 -1.413679E+05 -1.884018E+04  5.437146E+01 -3.785465E+03
       252   3 -3.934259E+04 -1.829705E+06 -1.618168E+05  4.594065E+04  2.676187E+03  7.059012E+04
       252   4 -7.055955E+04 -1.937486E+06 -1.947546E+05  6.230693E+04 -2.587244E+03 -7.873429E+04
       252   5  3.092095E+04 -1.907194E+06 -1.423854E+05 -1.900638E+04  5.265698E+01 -4.361438E+03
       252   6 -6.614262E+04 -1.937481E+06 -1.884101E+05  6.229312E+04  2.676349E+03  7.001159E+04
       252   7 -4.581370E+04 -1.837914E+06 -1.701987E+05  4.562221E+04 -2.586838E+03 -7.932017E+04
       252   8  2.989440E+04 -1.911295E+06 -1.434028E+05 -1.917258E+04  5.094280E+01 -4.937408E+03
       252   9 -9.294251E+04 -2.045245E+06 -2.150041E+05  7.864273E+04  2.676481E+03  6.943317E+04
       252  10 -9.530673E+04 -2.037055E+06 -2.193226E+05  7.898878E+04  2.041532E-09 -1.296271E-09
       252  11  3.194750E+04 -1.903093E+06 -1.413680E+05 -1.884018E+04  1.780706E-09  3.810739E-09
       252  12 -3.934394E+04 -1.829710E+06 -1.618262E+05  4.594049E+04  8.883199E-10  2.656973E-09
       252  13 -7.056123E+04 -1.937493E+06 -1.947663E+05  6.230676E+04  4.140782E-09 -1.429128E-09
       252  14  3.092095E+04 -1.907194E+06 -1.423854E+05 -1.900638E+04 -2.249761E-10  3.316663E-09
       252  15 -6.614395E+04 -1.937486E+06 -1.884193E+05  6.229297E+04  2.192979E-09 -1.059467E-09
       252  16 -4.581540E+04 -1.837920E+06 -1.702106E+05  4.562205E+04 -1.184215E-09  2.839911E-09
       252  17  2.989439E+04 -1.911295E+06 -1.434029E+05 -1.917258E+04 -5.225391E-10 -1.495062E-10
       252  18 -9.294381E+04 -2.045250E+06 -2.150132E+05  7.864258E+04 -6.776354E-10 -1.026664E-09
       252  19 -9.530508E+04 -2.037049E+06 -2.193111E+05  7.898895E+04  2.587617E+03  7.814850E+04
       252  20  3.194750E+04 -1.903093E+06 -1.413679E+05 -1.884018E+04 -5.437146E+01  3.785465E+03
       252  21 -3.934259E+04 -1.829705E+06 -1.618168E+05  4.594065E+04 -2.676187E+03 -7.059012E+04
       252  22 -7.055955E+04 -1.937486E+06 -1.947546E+05  6.230693E+04  2.587244E+03  7.873429E+04
       252  23  3.092095E+04 -1.907194E+06 -1.423854E+05 -1.900638E+04 -5.265698E+01  4.361438E+03
       252  24 -6.614262E+04 -1.937481E+06 -1.884101E+05  6.229312E+04 -2.676349E+03 -7.001159E+04
       252  25 -4.581370E+04 -1.837914E+06 -1.701987E+05  4.562221E+04  2.586838E+03  7.932017E+04
       252  26  2.989440E+04 -1.911295E+06 -1.434028E+05 -1.917258E+04 -5.094280E+01  4.937408E+03
       252  27 -9.294251E+04 -2.045245E+06 -2.150041E+05  7.864273E+04 -2.676481E+03 -6.943317E+04
       253   1  1.364572E+05 -1.455938E+06 -8.224432E+04  1.001976E+05  6.861489E+03  1.079996E+05
       253   2  2.589120E+05 -1.263002E+06 -1.342712E+05 -3.572248E+04  1.145711E+04  2.602209E+05
       253   3 -3.085054E+05 -1.261309E+06 -4.576882E+05 -1.903219E+04  4.572411E+03  4.124945E+05
       253   4  8.466150E+03 -1.966643E+06 -2.092022E+05  5.975611E+04  6.848106E+03  1.055549E+05
       253   5  1.071325E+05 -1.870868E+06 -2.847844E+05 -1.623465E+04  1.146668E+04  2.603865E+05
       253   6 -4.849097E+05 -1.967016E+06 -6.337784E+05  6.039492E+04  4.629525E+03  4.152458E+05
       253   7 -1.195385E+05 -2.477107E+06 -3.361787E+05  1.934777E+04  6.835035E+03  1.031123E+05
       253   8 -4.467324E+04 -2.478396E+06 -4.353249E+05  3.233883E+03  1.147628E+04  2.605518E+05
       253   9 -6.613276E+05 -2.672257E+06 -8.099027E+05  1.397314E+05  4.687400E+03  4.179937E+05
       253  10  1.364540E+05 -1.455951E+06 -8.226638E+04  1.001971E+05  1.833026E-09  7.421416E-11
       253  11  2.588937E+05 -1.263075E+06 -1.343990E+05 -3.572488E+04  2.517529E-10  2.598095E-09
       253  12 -3.085512E+05 -1.261492E+06 -4.580086E+05 -1.903371E+04  8.583238E-10  6.031856E-10
       253  13  8.463097E+03 -1.966655E+06 -2.092233E+05  5.975553E+04 -5.703824E-10 -1.284777E-09
       253  14  1.071141E+05 -1.870941E+06 -2.849125E+05 -1.623706E+04 -6.211243E-10  2.020350E-09
       253  15 -4.849562E+05 -1.967202E+06 -6.341035E+05  6.039338E+04  3.326222E-10 -4.136069E-10
       253  16 -1.195414E+05 -2.477119E+06 -3.361989E+05  1.934720E+04  1.165250E-09  8.226615E-10
       253  17 -4.469171E+04 -2.478470E+06 -4.354533E+05  3.231471E+03  1.219767E-10  3.202868E-11
       253  18 -6.613748E+05 -2.672446E+06 -8.102325E+05  1.397298E+05 -4.466092E-10  2.184994E-11
       253  19  1.364572E+05 -1.455938E+06 -8.224432E+04  1.001976E+05 -6.861489E+03 -1.079996E+05
       253  20  2.589120E+05 -1.263002E+06 -1.342712E+05 -3.572248E+04 -1.145711E+04 -2.602209E+05
       253  21 -3.085054E+05 -1.261309E+06 -4.576882E+05 -1.903219E+04 -4.572411E+03 -4.124945E+05
       253  22  8.466150E+03 -1.966643E+06 -2.092022E+05  5.975611E+04 -6.848106E+03 -1.055549E+05
       253  23  1.071325E+05 -1.870868E+06 -2.847844E+05 -1.623465E+04 -1.146668E+04 -2.603865E+05
       253  24 -4.849097E+05 -1.967016E+06 -6.337784E+05  6.039492E+04 -4.629525E+03 -4.152458E+05
       253  25 -1.195385E+05 -2.477107E+06 -3.361787E+05  1.934777E+04 -6.835035E+03 -1.031123E+05
       253  26 -4.467324E+04 -2.478396E+06 -4.353249E+05  3.233883E+03 -1.147628E+04 -2.605518E+05
       253  27 -6.613276E+05 -2.672257E+06 -8.099027E+05  1.397314E+05 -4.687400E+03 -4.179937E+05
       254   1  2.994064E+06  2.030887E+06  6.589209E+05  1.945025E+06  3.530132E+05  2.639174E+05
       254   2  2.773925E+06  1.543746E+06  2.902224E+05  2.168011E+06  2.319390E+05  1.725299E+05
       254   3  2.916105E+06  1.578957E+06  1.929122E+05  2.154014E+06  1.103411E+05  8.182908E+04
       254   4  3.030220E+06  1.922840E+06  6.446539E+05  1.901312E+06  3.528382E+05  2.637146E+05
       254   5  2.756956E+06  1.496870E+06  2.776399E+05  2.143586E+06  2.319068E+05  1.724936E+05
       254   6  2.845994E+06  1.593224E+06  1.818827E+05  2.148872E+06  1.104679E+05  8.193470E+04
       254   7  3.066389E+06  1.814822E+06  6.303902E+05  1.857598E+06  3.526632E+05  2.635119E+05
       254   8  2.739988E+06  1.449999E+06  2.650575E+05  2.119163E+06  2.318746E+05  1.724572E+05
       254   9  2.775891E+06  1.607494E+06  1.708538E+05  2.143728E+06  1.105946E+05  8.204033E+04
       254  10  2.993912E+06  2.030779E+06  6.585584E+05  1.944950E+06  2.694989E-10  2.026162E-10
       254  11  2.773860E+06  1.543700E+06  2.900665E+05  2.167979E+06  1.569854E-09  7.693663E-10
       254  12  2.916090E+06  1.578947E+06  1.928770E+05  2.154007E+06  1.044831E-09  1.272207E-09
       254  13  3.030068E+06  1.922732E+06  6.442918E+05  1.901238E+06 -5.376425E-10  6.011325E-10
       254  14  2.756891E+06  1.496824E+06  2.774841E+05  2.143554E+06 -4.450768E-10  1.384603E-09
       254  15  2.845979E+06  1.593214E+06  1.818474E+05  2.148865E+06  7.305410E-10  5.802087E-10
       254  16  3.066238E+06  1.814714E+06  6.300285E+05  1.857524E+06 -1.241064E-10  8.383891E-10
       254  17  2.739923E+06  1.449953E+06  2.649017E+05  2.119131E+06 -1.995518E-09  1.779706E-09
       254  18  2.775876E+06  1.607484E+06  1.708184E+05  2.143721E+06 -5.213251E-10 -1.004761E-10
       254  19  2.994064E+06  2.030887E+06  6.589209E+05  1.945025E+06 -3.530132E+05 -2.639174E+05
       254  20  2.773925E+06  1.543746E+06  2.902224E+05  2.168011E+06 -2.319390E+05 -1.725299E+05
       254  21  2.916105E+06  1.578957E+06  1.929122E+05  2.154014E+06 -1.103411E+05 -8.182908E+04
       254  22  3.030220E+06  1.922840E+06  6.446539E+05  1.901312E+06 -3.528382E+05 -2.637146E+05
       254  23  2.756956E+06  1.496870E+06  2.776399E+05  2.143586E+06 -2.319068E+05 -1.724936E+05
       254  24  2.845994E+06  1.593224E+06  1.818827E+05  2.148872E+06 -1.104679E+05 -8.193470E+04
       254  25  3.066389E+06  1.814822E+06  6.303902E+05  1.857598E+06 -3.526632E+05 -2.635119E+05
       254  26  2.739988E+06  1.449999E+06  2.650575E+05  2.119163E+06 -2.318746E+05 -1.724572E+05
       254  27  2.775891E+06  1.607494E+06  1.708538E+05  2.143728E+06 -1.105946E+05 -8.204033E+04
       255   1  2.861935E+06  1.659761E+06  1.569321E+05  2.100088E+06  8.634714E+04  6.418575E+04
       255   2  2.829543E+06  1.584898E+06  8.093598E+04  2.129095E+06  5.441712E+04  4.037201E+04
       255   3  2.845512E+06  1.592523E+06  5.588953E+04  2.126456E+06  2.243220E+04  1.663412E+04
       255   4  2.855345E+06  1.636864E+06  1.511151E+05  2.088444E+06  8.635242E+04  6.418732E+04
       255   5  2.818312E+06  1.572620E+06  7.629810E+04  2.121564E+06  5.444039E+04  4.038908E+04
       255   6  2.829638E+06  1.590861E+06  5.241581E+04  2.123039E+06  2.247384E+04  1.666562E+04
       255   7  2.848756E+06  1.613967E+06  1.452982E+05  2.076800E+06  8.635770E+04  6.418888E+04
       255   8  2.807082E+06  1.560342E+06  7.166020E+04  2.114034E+06  5.446367E+04  4.040615E+04
       255   9  2.813764E+06  1.589199E+06  4.894210E+04  2.119623E+06  2.251547E+04  1.669713E+04
       255  10  2.861926E+06  1.659754E+06  1.569105E+05  2.100084E+06  2.469205E-10 -3.008136E-10
       255  11  2.829539E+06  1.584896E+06  8.092741E+04  2.129093E+06 -1.705973E-09  1.170196E-09
       255  12  2.845511E+06  1.592523E+06  5.588808E+04  2.126455E+06  3.944940E-10  5.531781E-10
       255  13  2.855336E+06  1.636857E+06  1.510935E+05  2.088439E+06 -1.778668E-09  1.813310E-10
       255  14  2.818309E+06  1.572617E+06  7.628952E+04  2.121563E+06 -3.530276E-09  6.858888E-10
       255  15  2.829637E+06  1.590861E+06  5.241435E+04  2.123039E+06 -8.970825E-10  1.909322E-10
       255  16  2.848747E+06  1.613961E+06  1.452766E+05  2.076795E+06 -6.908489E-10 -2.758947E-10
       255  17  2.807079E+06  1.560339E+06  7.165162E+04  2.114033E+06 -7.192215E-11  6.163056E-10
       255  18  2.813764E+06  1.589198E+06  4.894063E+04  2.119623E+06 -2.045831E-09  9.595060E-11
       255  19  2.861935E+06  1.659761E+06  1.569321E+05  2.100088E+06 -8.634714E+04 -6.418575E+04
       255  20  2.829543E+06  1.584898E+06  8.093598E+04  2.129095E+06 -5.441712E+04 -4.037201E+04
       255  21  2.845512E+06  1.592523E+06  5.588953E+04  2.126456E+06 -2.243220E+04 -1.663412E+04
       255  22  2.855345E+06  1.636864E+06  1.511151E+05  2.088444E+06 -8.635242E+04 -6.418732E+04
       255  23  2.818312E+06  1.572620E+06  7.629810E+04  2.121564E+06 -5.444039E+04 -4.038908E+04
       255  24  2.829638E+06  1.590861E+06  5.241581E+04  2.123039E+06 -2.247384E+04 -1.666562E+04
       255  25  2.848756E+06  1.613967E+06  1.452982E+05  2.076800E+06 -8.635770E+04 -6.418888E+04
       255  26  2.807082E+06  1.560342E+06  7.166020E+04  2.114034E+06 -5.446367E+04 -4.040615E+04
       255  27  2.813764E+06  1.589199E+06  4.894210E+04  2.119623E+06 -2.251547E+04 -1.669713E+04
       256   1  2.825810E+06  1.596268E+06  4.478554E+04  2.114773E+06  1.528117E+04  1.141605E+04
       256   2  2.820049E+06  1.577892E+06  3.378339E+04  2.116020E+06  5.611762E+02  5.775978E+02
       256   3  2.823273E+06  1.587093E+06  4.146218E+04  2.110522E+06 -1.416252E+04 -1.025575E+04
       256   4  2.830647E+06  1.596088E+06  4.571671E+04  2.115497E+06  1.530935E+04  1.143707E+04
       256   5  2.826069E+06  1.582147E+06  3.581141E+04  2.118985E+06  5.903755E+02  5.994641E+02
       256   6  2.830475E+06  1.595781E+06  4.458598E+04  2.115729E+06 -1.413229E+04 -1.023319E+04
       256   7  2.835484E+06  1.595909E+06  4.664789E+04  2.116221E+06  1.533754E+04  1.145809E+04
       256   8  2.832089E+06  1.586401E+06  3.783941E+04  2.121950E+06  6.195752E+02  6.213307E+02
       256   9  2.837678E+06  1.604469E+06  4.770976E+04  2.120935E+06 -1.410207E+04 -1.021063E+04
       256  10  2.825810E+06  1.596268E+06  4.478486E+04  2.114773E+06 -2.587403E-10  3.209256E-10
       256  11  2.820049E+06  1.577892E+06  3.378339E+04  2.116020E+06  5.743323E-10  3.623718E-11
       256  12  2.823272E+06  1.587093E+06  4.146161E+04  2.110522E+06 -9.965795E-10 -3.764083E-10
       256  13  2.830647E+06  1.596088E+06  4.571603E+04  2.115497E+06 -4.362473E-11  4.322769E-10
       256  14  2.826069E+06  1.582147E+06  3.581141E+04  2.118985E+06  4.662021E-09  1.825371E-11
       256  15  2.830475E+06  1.595781E+06  4.458541E+04  2.115728E+06  3.268478E-11 -4.841606E-10
       256  16  2.835484E+06  1.595908E+06  4.664721E+04  2.116220E+06 -1.546075E-09  3.012892E-10
       256  17  2.832089E+06  1.586401E+06  3.783941E+04  2.121950E+06  2.083972E-10  8.626669E-10
       256  18  2.837678E+06  1.604469E+06  4.770920E+04  2.120935E+06  1.864047E-09 -6.818600E-10
       256  19  2.825810E+06  1.596268E+06  4.478554E+04  2.114773E+06 -1.528117E+04 -1.141605E+04
       256  20  2.820049E+06  1.577892E+06  3.378339E+04  2.116020E+06 -5.611762E+02 -5.775978E+02
       256  21  2.823273E+06  1.587093E+06  4.146218E+04  2.110522E+06  1.416252E+04  1.025575E+04
       256  22  2.830647E+06  1.596088E+06  4.571671E+04  2.115497E+06 -1.530935E+04 -1.143707E+04
       256  23  2.826069E+06  1.582147E+06  3.581141E+04  2.118985E+06 -5.903755E+02 -5.994641E+02
       256  24  2.830475E+06  1.595781E+06  4.458598E+04  2.115729E+06  1.413229E+04  1.023319E+04
       256  25  2.835484E+06  1.595909E+06  4.664789E+04  2.116221E+06 -1.533754E+04 -1.145809E+04
       256  26  2.832089E+06  1.586401E+06  3.783941E+04  2.121950E+06 -6.195752E+02 -6.213307E+02
       256  27  2.837678E+06  1.604469E+06  4.770976E+04  2.120935E+06  1.410207E+04  1.021063E+04
       257   1  2.800477E+06  1.579901E+06  4.284445E+04  2.112905E+06 -2.115256E+04 -1.533453E+04
       257   2  2.794054E+06  1.550949E+06  6.389718E+04  2.107028E+06 -5.179726E+04 -3.803829E+04
       257   3  2.832304E+06  1.602347E+06  1.336827E+05  2.071379E+06 -8.237189E+04 -6.083678E+04
       257   4  2.829246E+06  1.591144E+06  5.075505E+04  2.122887E+06 -2.110450E+04 -1.529826E+04
       257   5  2.819140E+06  1.572863E+06  7.317099E+04  2.121310E+06 -5.177344E+04 -3.802077E+04
       257   6  2.853709E+06  1.634933E+06  1.443387E+05  2.089962E+06 -8.237203E+04 -6.083906E+04
       257   7  2.858016E+06  1.602388E+06  5.866558E+04  2.132870E+06 -2.105644E+04 -1.526198E+04
       257   8  2.844226E+06  1.594777E+06  8.244471E+04  2.135593E+06 -5.174962E+04 -3.800326E+04
       257   9  2.875115E+06  1.667521E+06  1.549946E+05  2.108546E+06 -8.237217E+04 -6.084133E+04
       257  10  2.800476E+06  1.579901E+06  4.284318E+04  2.112905E+06  1.127379E-09 -6.719263E-10
       257  11  2.794051E+06  1.550947E+06  6.388947E+04  2.107026E+06 -9.078374E-10 -3.653710E-10
       257  12  2.832296E+06  1.602341E+06  1.336632E+05  2.071375E+06 -5.532311E-10  6.812484E-10
       257  13  2.829246E+06  1.591144E+06  5.075378E+04  2.122887E+06 -9.401475E-10 -1.108960E-09
       257  14  2.819137E+06  1.572861E+06  7.316329E+04  2.121308E+06  1.603628E-09 -3.508964E-10
       257  15  2.853701E+06  1.634928E+06  1.443191E+05  2.089958E+06  1.431924E-09  8.223265E-10
       257  16  2.858016E+06  1.602387E+06  5.866432E+04  2.132870E+06  1.634719E-09 -5.365467E-10
       257  17  2.844223E+06  1.594775E+06  8.243701E+04  2.135591E+06 -3.455159E-09 -5.426054E-10
       257  18  2.875107E+06  1.667516E+06  1.549750E+05  2.108542E+06 -1.076873E-10  1.318933E-09
       257  19  2.800477E+06  1.579901E+06  4.284445E+04  2.112905E+06  2.115256E+04  1.533453E+04
       257  20  2.794054E+06  1.550949E+06  6.389718E+04  2.107028E+06  5.179726E+04  3.803829E+04
       257  21  2.832304E+06  1.602347E+06  1.336827E+05  2.071379E+06  8.237189E+04  6.083678E+04
       257  22  2.829246E+06  1.591144E+06  5.075505E+04  2.122887E+06  2.110450E+04  1.529826E+04
       257  23  2.819140E+06  1.572863E+06  7.317099E+04  2.121310E+06  5.177344E+04  3.802077E+04
       257  24  2.853709E+06  1.634933E+06  1.443387E+05  2.089962E+06  8.237203E+04  6.083906E+04
       257  25  2.858016E+06  1.602388E+06  5.866558E+04  2.132870E+06  2.105644E+04  1.526198E+04
       257  26  2.844226E+06  1.594777E+06  8.244471E+04  2.135593E+06  5.174962E+04  3.800326E+04
       257  27  2.875115E+06  1.667521E+06  1.549946E+05  2.108546E+06  8.237217E+04  6.084133E+04
       258   1  2.758035E+06  1.593425E+06  1.565047E+05  2.133126E+06 -1.056401E+05 -7.784441E+04
       258   2  2.723809E+06  1.440489E+06  2.457118E+05  2.108438E+06 -2.213135E+05 -1.639318E+05
       258   3  3.031798E+06  1.788965E+06  5.934378E+05  1.858715E+06 -3.362681E+05 -2.509614E+05
       258   4  2.844430E+06  1.593691E+06  1.736186E+05  2.147677E+06 -1.054611E+05 -7.770071E+04
       258   5  2.761118E+06  1.500173E+06  2.648299E+05  2.142165E+06 -2.213713E+05 -1.639862E+05
       258   6  3.020027E+06  1.908077E+06  6.147470E+05  1.911632E+06 -3.365486E+05 -2.512364E+05
       258   7  2.930836E+06  1.593959E+06  1.907328E+05  2.162229E+06 -1.052822E+05 -7.755703E+04
       258   8  2.798429E+06  1.559862E+06  2.839478E+05  2.175896E+06 -2.214291E+05 -1.640406E+05
       258   9  3.008267E+06  2.027219E+06  6.360589E+05  1.964551E+06 -3.368290E+05 -2.515115E+05
       258  10  2.758021E+06  1.593415E+06  1.564726E+05  2.133120E+06  1.570992E-09  4.430245E-10
       258  11  2.723749E+06  1.440447E+06  2.455702E+05  2.108409E+06  3.799991E-09 -2.308605E-09
       258  12  3.031660E+06  1.788868E+06  5.931092E+05  1.858648E+06  3.264043E-10 -1.546778E-09
       258  13  2.844417E+06  1.593682E+06  1.735865E+05  2.147671E+06  1.664264E-09 -1.097240E-10
       258  14  2.761058E+06  1.500131E+06  2.646883E+05  2.142136E+06  5.883497E-09 -1.511735E-09
       258  15  3.019889E+06  1.907979E+06  6.144179E+05  1.911564E+06  2.079859E-09 -8.923786E-10
       258  16  2.930822E+06  1.593950E+06  1.907009E+05  2.162222E+06  6.141528E-10  5.380938E-10
       258  17  2.798369E+06  1.559820E+06  2.838061E+05  2.175867E+06  1.554274E-09 -1.781798E-09
       258  18  3.008129E+06  2.027122E+06  6.357292E+05  1.964483E+06 -7.764383E-10 -1.730387E-10
       258  19  2.758035E+06  1.593425E+06  1.565047E+05  2.133126E+06  1.056401E+05  7.784441E+04
       258  20  2.723809E+06  1.440489E+06  2.457118E+05  2.108438E+06  2.213135E+05  1.639318E+05
       258  21  3.031798E+06  1.788965E+06  5.934378E+05  1.858715E+06  3.362681E+05  2.509614E+05
       258  22  2.844430E+06  1.593691E+06  1.736186E+05  2.147677E+06  1.054611E+05  7.770071E+04
       258  23  2.761118E+06  1.500173E+06  2.648299E+05  2.142165E+06  2.213713E+05  1.639862E+05
       258  24  3.020027E+06  1.908077E+06  6.147470E+05  1.911632E+06  3.365486E+05  2.512364E+05
       258  25  2.930836E+06  1.593959E+06  1.907328E+05  2.162229E+06  1.052822E+05  7.755703E+04
       258  26  2.798429E+06  1.559862E+06  2.839478E+05  2.175896E+06  2.214291E+05  1.640406E+05
       258  27  3.008267E+06  2.027219E+06  6.360589E+05  1.964551E+06  3.368290E+05  2.515115E+05
       259   1  1.922799E+06  1.426681E+05  1.671912E+05  2.817585E+04  7.323172E+04 -1.432428E+03
       259   2  1.883228E+06  3.675892E+04  1.005887E+05 -1.448009E+01  4.703554E+04 -3.883991E+03
       259   3  1.876082E+06  4.598931E+04  7.983899E+04  8.282467E+03  2.084188E+04 -2.771723E+03
       259   4  1.679976E+06  8.214821E+04  1.068310E+05  1.479994E+04  7.219164E+04 -1.433461E+03
       259   5  1.663866E+06 -1.785023E+04  4.646267E+04 -3.466624E+03  4.686150E+04 -3.884289E+03
       259   6  1.680043E+06 -2.837497E+03  3.135956E+04  1.475416E+04  2.153285E+04 -2.771571E+03
       259   7  1.437207E+06  2.162456E+04  4.646637E+04  1.429244E+03  7.115196E+04 -1.434450E+03
       259   8  1.444548E+06 -7.246292E+04 -7.666945E+03 -6.917546E+03  4.668753E+04 -3.884585E+03
       259   9  1.484039E+06 -5.166701E+04 -1.712270E+04  2.122380E+04  2.222361E+04 -2.771404E+03
       259  10  1.922794E+06  1.426667E+05  1.671812E+05  2.817594E+04 -1.385657E-09 -2.264430E-10
       259  11  1.883225E+06  3.675831E+04  1.005846E+05 -1.433307E+01  3.835520E-10 -1.032728E-10
       259  12  1.876082E+06  4.598918E+04  7.983816E+04  8.282514E+03 -1.483057E-09  6.053071E-11
       259  13  1.679971E+06  8.214681E+04  1.068212E+05  1.480002E+04 -5.653365E-10  5.442094E-10
       259  14  1.663864E+06 -1.785083E+04  4.645853E+04 -3.466477E+03  5.656121E-10  3.673863E-10
       259  15  1.680043E+06 -2.837629E+03  3.135868E+04  1.475420E+04  1.654648E-09 -2.788399E-10
       259  16  1.437202E+06  2.162321E+04  4.645687E+04  1.429327E+03  2.340999E-10  2.625970E-10
       259  17  1.444545E+06 -7.246352E+04 -7.671060E+03 -6.917400E+03  2.636762E-09  3.104569E-10
       259  18  1.484038E+06 -5.166715E+04 -1.712364E+04  2.122385E+04 -5.624255E-10 -2.746974E-10
       259  19  1.922799E+06  1.426681E+05  1.671912E+05  2.817585E+04 -7.323172E+04  1.432428E+03
       259  20  1.883228E+06  3.675892E+04  1.005887E+05 -1.448009E+01 -4.703554E+04  3.883991E+03
       259  21  1.876082E+06  4.598931E+04  7.983899E+04  8.282467E+03 -2.084188E+04  2.771723E+03
       259  22  1.679976E+06  8.214821E+04  1.068310E+05  1.479994E+04 -7.219164E+04  1.433461E+03
       259  23  1.663866E+06 -1.785023E+04  4.646267E+04 -3.466624E+03 -4.686150E+04  3.884289E+03
       259  24  1.680043E+06 -2.837497E+03  3.135956E+04  1.475416E+04 -2.153285E+04  2.771571E+03
       259  25  1.437207E+06  2.162456E+04  4.646637E+04  1.429244E+03 -7.115196E+04  1.434450E+03
       259  26  1.444548E+06 -7.246292E+04 -7.666945E+03 -6.917546E+03 -4.668753E+04  3.884585E+03
       259  27  1.484039E+06 -5.166701E+04 -1.712270E+04  2.122380E+04 -2.222361E+04  2.771404E+03
       260   1  1.784628E+06  3.912756E+04  5.395076E+04  1.580368E+04  1.629724E+04 -1.759566E+03
       260   2  1.761080E+06  1.939310E+04  3.767529E+04 -1.896394E+03  8.155361E+03 -1.439480E+03
       260   3  1.743402E+06  1.882978E+04  3.148686E+04  1.261348E+04  1.338096E+01 -7.241268E+02
       260   4  1.674161E+06  1.161844E+04  2.666235E+04  1.381570E+04  1.632506E+04 -1.759635E+03
       260   5  1.671238E+06 -2.979899E+03  1.548275E+04 -2.289095E+03  8.279472E+03 -1.439473E+03
       260   6  1.674169E+06  1.577903E+03  1.432481E+04  1.381632E+04  2.335230E+02 -7.240609E+02
       260   7  1.563705E+06 -1.589158E+04 -6.269604E+02  1.182806E+04  1.635286E+04 -1.759704E+03
       260   8  1.581403E+06 -2.535350E+04 -6.710391E+03 -2.681739E+03  8.403566E+03 -1.439467E+03
       260   9  1.604941E+06 -1.567433E+04 -2.837592E+03  1.501903E+04  4.536406E+02 -7.239941E+02
       260  10  1.784627E+06  3.912749E+04  5.395026E+04  1.580371E+04 -6.810070E-10  1.488800E-10
       260  11  1.761080E+06  1.939308E+04  3.767516E+04 -1.896385E+03  3.528136E-10 -2.717116E-10
       260  12  1.743402E+06  1.882978E+04  3.148686E+04  1.261348E+04  7.160446E-10 -3.071991E-10
       260  13  1.674160E+06  1.161836E+04  2.666185E+04  1.381572E+04  1.646853E-09  1.054995E-10
       260  14  1.671237E+06 -2.979920E+03  1.548262E+04 -2.289085E+03  1.933692E-09  4.111656E-10
       260  15  1.674169E+06  1.577903E+03  1.432481E+04  1.381632E+04  5.584700E-10 -4.678537E-10
       260  16  1.563704E+06 -1.589165E+04 -6.274675E+02  1.182809E+04 -1.325856E-09  5.467424E-12
       260  17  1.581403E+06 -2.535352E+04 -6.710527E+03 -2.681729E+03  2.248489E-09  7.667844E-10
       260  18  1.604941E+06 -1.567433E+04 -2.837593E+03  1.501903E+04  1.104954E-09  2.665792E-11
       260  19  1.784628E+06  3.912756E+04  5.395076E+04  1.580368E+04 -1.629724E+04  1.759566E+03
       260  20  1.761080E+06  1.939310E+04  3.767529E+04 -1.896394E+03 -8.155361E+03  1.439480E+03
       260  21  1.743402E+06  1.882978E+04  3.148686E+04  1.261348E+04 -1.338096E+01  7.241268E+02
       260  22  1.674161E+06  1.161844E+04  2.666235E+04  1.381570E+04 -1.632506E+04  1.759635E+03
       260  23  1.671238E+06 -2.979899E+03  1.548275E+04 -2.289095E+03 -8.279472E+03  1.439473E+03
       260  24  1.674169E+06  1.577903E+03  1.432481E+04  1.381632E+04 -2.335230E+02  7.240609E+02
       260  25  1.563705E+06 -1.589158E+04 -6.269604E+02  1.182806E+04 -1.635286E+04  1.759704E+03
       260  26  1.581403E+06 -2.535350E+04 -6.710391E+03 -2.681739E+03 -8.403566E+03  1.439467E+03
       260  27  1.604941E+06 -1.567433E+04 -2.837592E+03  1.501903E+04 -4.536406E+02  7.239941E+02
       261   1  1.664315E+06 -1.375568E+03  1.210224E+04  1.500086E+04 -2.577832E+03 -1.860757E+02
       261   2  1.640887E+06 -1.093770E+04  9.915259E+03 -2.548241E+03 -1.153740E+04  5.013921E+02
       261   3  1.624125E+06  1.596076E+03  1.907039E+04  1.128865E+04 -2.049656E+04  8.965158E+02
       261   4  1.674354E+06  1.134148E+03  1.463603E+04  1.363396E+04 -2.376723E+03 -1.860008E+02
       261   5  1.671009E+06 -3.436406E+03  1.735310E+04 -2.060606E+03 -1.140696E+04  5.014199E+02
       261   6  1.674342E+06  1.410056E+04  3.146080E+04  1.363067E+04 -2.043708E+04  8.964504E+02
       261   7  1.684393E+06  3.643864E+03  1.716981E+04  1.226703E+04 -2.175612E+03 -1.859267E+02
       261   8  1.701132E+06  4.064821E+03  2.479088E+04 -1.572947E+03 -1.127652E+04  5.014479E+02
       261   9  1.724560E+06  2.660488E+04  4.385102E+04  1.597288E+04 -2.037760E+04  8.963854E+02
       261  10  1.664315E+06 -1.375570E+03  1.210222E+04  1.500086E+04  1.065376E-09  3.963703E-11
       261  11  1.640887E+06 -1.093774E+04  9.915009E+03 -2.548236E+03 -9.086798E-10  3.489227E-10
       261  12  1.624125E+06  1.595963E+03  1.906960E+04  1.128866E+04  4.558349E-10 -3.289484E-10
       261  13  1.674354E+06  1.134146E+03  1.463602E+04  1.363396E+04  1.698743E-11 -3.694039E-10
       261  14  1.671009E+06 -3.436441E+03  1.735286E+04 -2.060601E+03  1.304650E-09  1.326745E-10
       261  15  1.674341E+06  1.410045E+04  3.146001E+04  1.363069E+04 -2.255573E-09  9.808908E-11
       261  16  1.684393E+06  3.643862E+03  1.716980E+04  1.226703E+04  3.373806E-10 -4.606028E-10
       261  17  1.701132E+06  4.064787E+03  2.479064E+04 -1.572943E+03  8.441429E-10 -4.388565E-10
       261  18  1.724560E+06  2.660477E+04  4.385024E+04  1.597290E+04  9.984760E-10  2.648989E-10
       261  19  1.664315E+06 -1.375568E+03  1.210224E+04  1.500086E+04  2.577832E+03  1.860757E+02
       261  20  1.640887E+06 -1.093770E+04  9.915259E+03 -2.548241E+03  1.153740E+04 -5.013921E+02
       261  21  1.624125E+06  1.596076E+03  1.907039E+04  1.128865E+04  2.049656E+04 -8.965158E+02
       261  22  1.674354E+06  1.134148E+03  1.463603E+04  1.363396E+04  2.376723E+03  1.860008E+02
       261  23  1.671009E+06 -3.436406E+03  1.735310E+04 -2.060606E+03  1.140696E+04 -5.014199E+02
       261  24  1.674342E+06  1.410056E+04  3.146080E+04  1.363067E+04  2.043708E+04 -8.964504E+02
       261  25  1.684393E+06  3.643864E+03  1.716981E+04  1.226703E+04  2.175612E+03  1.859267E+02
       261  26  1.701132E+06  4.064821E+03  2.479088E+04 -1.572947E+03  1.127652E+04 -5.014479E+02
       261  27  1.724560E+06  2.660488E+04  4.385102E+04  1.597288E+04  2.037760E+04 -8.963854E+02
       262   1  1.549920E+06 -3.631682E+04  4.771315E+03  2.199035E+04 -2.716613E+04  1.748270E+03
       262   2  1.508793E+06 -5.973028E+04  1.814468E+04 -6.995743E+03 -5.702840E+04  2.732064E+03
       262   3  1.506376E+06  5.578129E+04  8.568428E+04 -2.059813E+03 -8.688891E+04  1.026760E+03
       262   4  1.681499E+06 -3.539344E+03  3.733220E+04  1.419300E+04 -2.660928E+04  1.748701E+03
       262   5  1.662052E+06 -2.156755E+04  5.596483E+04 -2.758988E+03 -5.712505E+04  2.731633E+03
       262   6  1.681416E+06  9.942334E+04  1.292063E+05  1.421026E+04 -8.764013E+04  1.024603E+03
       262   7  1.813094E+06  2.923707E+04  6.989182E+04  6.393994E+03 -2.605230E+04  1.749118E+03
       262   8  1.815332E+06  1.659350E+04  9.378325E+04  1.478811E+03 -5.722172E+04  2.731201E+03
       262   9  1.856485E+06  1.430641E+05  1.727261E+05  3.048491E+04 -8.839156E+04  1.022408E+03
       262  10  1.549919E+06 -3.631702E+04  4.769926E+03  2.199039E+04  1.271426E-10 -8.695143E-11
       262  11  1.508789E+06 -5.973116E+04  1.813857E+04 -6.995618E+03  6.956972E-10 -1.533331E-10
       262  12  1.506368E+06  5.577927E+04  8.567012E+04 -2.059741E+03  9.912788E-10 -2.442177E-10
       262  13  1.681498E+06 -3.539536E+03  3.733086E+04  1.419304E+04 -1.182357E-10 -2.692869E-10
       262  14  1.662048E+06 -2.156843E+04  5.595870E+04 -2.758863E+03  5.446655E-10 -2.257437E-10
       262  15  1.681408E+06  9.942129E+04  1.291919E+05  1.421033E+04  2.110209E-11 -7.913780E-11
       262  16  1.813093E+06  2.923689E+04  6.989055E+04  6.394031E+03 -1.317953E-10 -4.980055E-11
       262  17  1.815328E+06  1.659262E+04  9.377710E+04  1.478937E+03 -8.815386E-10  1.650181E-10
       262  18  1.856476E+06  1.430620E+05  1.727115E+05  3.048499E+04  5.744871E-10 -3.098456E-10
       262  19  1.549920E+06 -3.631682E+04  4.771315E+03  2.199035E+04  2.716613E+04 -1.748270E+03
       262  20  1.508793E+06 -5.973028E+04  1.814468E+04 -6.995743E+03  5.702840E+04 -2.732064E+03
       262  21  1.506376E+06  5.578129E+04  8.568428E+04 -2.059813E+03  8.688891E+04 -1.026760E+03
       262  22  1.681499E+06 -3.539344E+03  3.733220E+04  1.419300E+04  2.660928E+04 -1.748701E+03
       262  23  1.662052E+06 -2.156755E+04  5.596483E+04 -2.758988E+03  5.712505E+04 -2.731633E+03
       262  24  1.681416E+06  9.942334E+04  1.292063E+05  1.421026E+04  8.764013E+04 -1.024603E+03
       262  25  1.813094E+06  2.923707E+04  6.989182E+04  6.393994E+03  2.605230E+04 -1.749118E+03
       262  26  1.815332E+06  1.659350E+04  9.378325E+04  1.478811E+03  5.722172E+04 -2.731201E+03
       262  27  1.856485E+06  1.430641E+05  1.727261E+05  3.048491E+04  8.839156E+04 -1.022408E+03
       263   1 -4.398157E+05 -1.228142E+06 -5.211783E+05  1.036286E+05 -4.303282E+03 -2.292300E+05
       263   2 -9.262844E+04 -1.082418E+06 -3.066395E+05 -2.387648E+03 -1.112411E+04 -1.414710E+05
       263   3 -1.241217E+05 -1.041681E+06 -2.437392E+05  3.740744E+04 -6.843815E+03 -5.371851E+04
       263   4 -2.649915E+05 -5.286630E+05 -3.467631E+05  6.030997E+04 -4.283833E+03 -2.264043E+05
       263   5  5.861104E+04 -4.764400E+05 -1.567084E+05 -1.273827E+04 -1.112046E+04 -1.412213E+05
       263   6  4.181229E+03 -5.286501E+05 -1.163808E+05  6.002374E+04 -6.851342E+03 -5.605827E+04
       263   7 -9.019703E+04  1.712643E+05 -1.723836E+05  1.694229E+04 -4.264798E+03 -2.235754E+05
       263   8  2.098235E+05  1.298721E+05 -6.804501E+03 -2.309917E+04 -1.111681E+04 -1.409713E+05
       263   9  1.324663E+05 -1.537893E+04  1.095830E+04  8.265861E+04 -6.859036E+03 -5.839995E+04
       263  10 -4.398298E+05 -1.228198E+06 -5.212773E+05  1.036278E+05 -5.564104E-10 -3.323740E-10
       263  11 -9.263396E+04 -1.082439E+06 -3.066774E+05 -2.388916E+03 -9.599405E-10  2.703872E-09
       263  12 -1.241226E+05 -1.041684E+06 -2.437447E+05  3.740714E+04  4.142141E-10  1.523239E-09
       263  13 -2.650053E+05 -5.287180E+05 -3.468595E+05  6.030919E+04 -1.980026E-09  1.011701E-09
       263  14  5.860554E+04 -4.764614E+05 -1.567461E+05 -1.273954E+04 -7.707185E-10  6.504783E-11
       263  15  4.180334E+03 -5.286535E+05 -1.163868E+05  6.002343E+04 -8.080191E-10 -1.383078E-09
       263  16 -9.021046E+04  1.712106E+05 -1.724775E+05  1.694153E+04 -5.193258E-10  3.040132E-10
       263  17  2.098180E+05  1.298507E+05 -6.842075E+03 -2.310043E+04 -1.204294E-09 -5.429410E-10
       263  18  1.324653E+05 -1.538261E+04  1.095180E+04  8.265829E+04  6.711741E-10 -3.321246E-09
       263  19 -4.398157E+05 -1.228142E+06 -5.211783E+05  1.036286E+05  4.303282E+03  2.292300E+05
       263  20 -9.262844E+04 -1.082418E+06 -3.066395E+05 -2.387648E+03  1.112411E+04  1.414710E+05
       263  21 -1.241217E+05 -1.041681E+06 -2.437392E+05  3.740744E+04  6.843815E+03  5.371851E+04
       263  22 -2.649915E+05 -5.286630E+05 -3.467631E+05  6.030997E+04  4.283833E+03  2.264043E+05
       263  23  5.861104E+04 -4.764400E+05 -1.567084E+05 -1.273827E+04  1.112046E+04  1.412213E+05
       263  24  4.181229E+03 -5.286501E+05 -1.163808E+05  6.002374E+04  6.851342E+03  5.605827E+04
       263  25 -9.019703E+04  1.712643E+05 -1.723836E+05  1.694229E+04  4.264798E+03  2.235754E+05
       263  26  2.098235E+05  1.298721E+05 -6.804501E+03 -2.309917E+04  1.111681E+04  1.409713E+05
       263  27  1.324663E+05 -1.537893E+04  1.095830E+04  8.265861E+04  6.859036E+03  5.839995E+04
       264   1 -7.086976E+04 -6.535162E+05 -1.402851E+05  6.995873E+04 -2.943753E+03 -3.569981E+04
       264   2  6.492024E+03 -5.409578E+05 -9.339277E+04 -1.387327E+04 -7.030976E+02  7.266520E+03
       264   3 -3.039383E+04 -4.635798E+05 -1.032595E+05  5.102524E+04  1.698093E+03  5.023844E+04
       264   4 -3.591977E+04 -5.131952E+05 -1.056371E+05  6.081663E+04 -2.944554E+03 -3.619349E+04
       264   5  1.781558E+04 -4.956071E+05 -8.216081E+04 -1.353746E+04 -7.045689E+02  6.739680E+03
       264   6 -4.268579E+04 -5.131998E+05 -1.154154E+05  6.083974E+04  1.697249E+03  4.967191E+04
       264   7 -9.709335E+02 -3.728561E+05 -7.099056E+04  5.167244E+04 -2.945341E+03 -3.668729E+04
       264   8  2.913898E+04 -4.502545E+05 -7.092900E+04 -1.320163E+04 -7.060406E+02  6.212801E+03
       264   9 -5.497755E+04 -5.628172E+05 -1.275714E+05  7.065345E+04  1.696388E+03  4.910542E+04
       264  10 -7.087011E+04 -6.535176E+05 -1.402875E+05  6.995864E+04  2.180303E-09  6.622814E-10
       264  11  6.492009E+03 -5.409578E+05 -9.339287E+04 -1.387327E+04  1.093897E-09  4.776904E-09
       264  12 -3.039452E+04 -4.635826E+05 -1.032643E+05  5.102517E+04 -1.732941E-09  9.806959E-10
       264  13 -3.592013E+04 -5.131966E+05 -1.056396E+05  6.081654E+04  1.243227E-09  2.871298E-09
       264  14  1.781557E+04 -4.956071E+05 -8.216089E+04 -1.353746E+04  1.289503E-09  2.557172E-10
       264  15 -4.268645E+04 -5.132024E+05 -1.154201E+05  6.083967E+04  1.818819E-09 -1.445561E-09
       264  16 -9.713045E+02 -3.728575E+05 -7.099311E+04  5.167235E+04  1.360000E-09 -7.495087E-10
       264  17  2.913897E+04 -4.502545E+05 -7.092907E+04 -1.320162E+04  2.837062E-09 -8.198253E-10
       264  18 -5.497820E+04 -5.628198E+05 -1.275760E+05  7.065338E+04 -4.624601E-10 -2.954351E-09
       264  19 -7.086976E+04 -6.535162E+05 -1.402851E+05  6.995873E+04  2.943753E+03  3.569981E+04
       264  20  6.492024E+03 -5.409578E+05 -9.339277E+04 -1.387327E+04  7.030976E+02 -7.266520E+03
       264  21 -3.039383E+04 -4.635798E+05 -1.032595E+05  5.102524E+04 -1.698093E+03 -5.023844E+04
       264  22 -3.591977E+04 -5.131952E+05 -1.056371E+05  6.081663E+04  2.944554E+03  3.619349E+04
       264  23  1.781558E+04 -4.956071E+05 -8.216081E+04 -1.353746E+04  7.045689E+02 -6.739680E+03
       264  24 -4.268579E+04 -5.131998E+05 -1.154154E+05  6.083974E+04 -1.697249E+03 -4.967191E+04
       264  25 -9.709335E+02 -3.728561E+05 -7.099056E+04  5.167244E+04  2.945341E+03  3.668729E+04
       264  26  2.913898E+04 -4.502545E+05 -7.092900E+04 -1.320163E+04  7.060406E+02 -6.212801E+03
       264  27 -5.497755E+04 -5.628172E+05 -1.275714E+05  7.065345E+04 -1.696388E+03 -4.910542E+04
       265   1  1.127711E+05 -1.091999E+05 -2.488726E+04  8.616757E+04  5.483492E+03  7.381165E+04
       265   2  1.973450E+05  4.562866E+04 -5.315335E+04 -2.531453E+04  9.681672E+03  1.699552E+05
       265   3 -1.585815E+05  7.844717E+04 -2.539694E+05  9.938548E+03  3.900597E+03  2.661358E+05
       265   4  6.862512E+03 -5.326524E+05 -1.300011E+05  6.017094E+04  5.474738E+03  7.162961E+04
       265   5  6.842223E+04 -4.713941E+05 -1.809735E+05 -1.296889E+04  9.686042E+03  1.700930E+05
       265   6 -3.111272E+05 -5.326762E+05 -4.062196E+05  6.063612E+04  3.926360E+03  2.685786E+05
       265   7 -9.905707E+04 -9.559406E+05 -2.351281E+05  3.419194E+04  5.466164E+03  6.944904E+04
       265   8 -6.051991E+04 -9.881735E+05 -3.088135E+05 -6.336655E+02  9.690421E+03  1.702307E+05
       265   9 -4.636912E+05 -1.143455E+06 -5.584963E+05  1.112836E+05  3.952543E+03  2.710189E+05
       265  10  1.127696E+05 -1.092058E+05 -2.489756E+04  8.616724E+04 -2.013769E-09  1.593386E-10
       265  11  1.973372E+05  4.559761E+04 -5.320781E+04 -2.531586E+04 -1.163965E-09  3.715904E-09
       265  12 -1.586005E+05  7.837110E+04 -2.541025E+05  9.937712E+03  1.236482E-10  7.944285E-10
       265  13  6.861101E+03 -5.326579E+05 -1.300108E+05  6.017062E+04 -4.226012E-10  2.908270E-09
       265  14  6.841436E+04 -4.714252E+05 -1.810281E+05 -1.297022E+04  1.245531E-09 -1.179431E-10
       265  15 -3.111466E+05 -5.327538E+05 -4.063553E+05  6.063527E+04 -8.405092E-10 -6.247890E-10
       265  16 -9.905840E+04 -9.559458E+05 -2.351372E+05  3.419163E+04 -8.357346E-11 -3.766339E-10
       265  17 -6.052781E+04 -9.882047E+05 -3.088682E+05 -6.349950E+02 -1.578922E-10 -8.060149E-10
       265  18 -4.637110E+05 -1.143534E+06 -5.586346E+05  1.112828E+05 -8.930571E-10 -1.800497E-09
       265  19  1.127711E+05 -1.091999E+05 -2.488726E+04  8.616757E+04 -5.483492E+03 -7.381165E+04
       265  20  1.973450E+05  4.562866E+04 -5.315335E+04 -2.531453E+04 -9.681672E+03 -1.699552E+05
       265  21 -1.585815E+05  7.844717E+04 -2.539694E+05  9.938548E+03 -3.900597E+03 -2.661358E+05
       265  22  6.862512E+03 -5.326524E+05 -1.300011E+05  6.017094E+04 -5.474738E+03 -7.162961E+04
       265  23  6.842223E+04 -4.713941E+05 -1.809735E+05 -1.296889E+04 -9.686042E+03 -1.700930E+05
       265  24 -3.111272E+05 -5.326762E+05 -4.062196E+05  6.063612E+04 -3.926360E+03 -2.685786E+05
       265  25 -9.905707E+04 -9.559406E+05 -2.351281E+05  3.419194E+04 -5.466164E+03 -6.944904E+04
       265  26 -6.051991E+04 -9.881735E+05 -3.088135E+05 -6.336655E+02 -9.690421E+03 -1.702307E+05
       265  27 -4.636912E+05 -1.143455E+06 -5.584963E+05  1.112836E+05 -3.952543E+03 -2.710189E+05
       266   1  1.678768E+06  1.114030E+06  2.938699E+05  1.125682E+06  1.370049E+05  1.013408E+05
       266   2  1.593753E+06  9.025498E+05  1.467809E+05  1.201140E+06  9.067451E+04  6.440577E+04
       266   3  1.621513E+06  9.205213E+05  1.050643E+05  1.193143E+06  4.271152E+04  2.965076E+04
       266   4  1.576888E+06  9.900273E+05  2.489518E+05  1.051697E+06  1.363800E+05  1.008619E+05
       266   5  1.484881E+06  8.117035E+05  1.073503E+05  1.141187E+06  9.058149E+04  6.433418E+04
       266   6  1.505561E+06  8.627436E+05  7.067898E+04  1.147215E+06  4.315138E+04  2.998205E+04
       266   7  1.475019E+06  8.660454E+05  2.040317E+05  9.777288E+05  1.357552E+05  1.003832E+05
       266   8  1.376021E+06  7.208666E+05  6.791793E+04  1.081247E+06  9.048849E+04  6.426261E+04
       266   9  1.389623E+06  8.049688E+05  3.629239E+04  1.101295E+06  4.359112E+04  3.031329E+04
       266  10  1.678745E+06  1.114014E+06  2.938155E+05  1.125670E+06 -1.059560E-09 -1.517702E-10
       266  11  1.593743E+06  9.025432E+05  1.467577E+05  1.201135E+06 -8.451454E-10 -3.286484E-10
       266  12  1.621511E+06  9.205199E+05  1.050593E+05  1.193142E+06 -7.878461E-10 -8.014654E-10
       266  13  1.576865E+06  9.900114E+05  2.488979E+05  1.051686E+06 -6.333581E-10 -1.726387E-10
       266  14  1.484871E+06  8.116969E+05  1.073272E+05  1.141183E+06 -3.838107E-09 -6.331525E-10
       266  15  1.505558E+06  8.627421E+05  7.067381E+04  1.147214E+06 -1.297691E-09 -5.926207E-10
       266  16  1.474996E+06  8.660297E+05  2.039783E+05  9.777179E+05 -8.239747E-10  2.224220E-11
       266  17  1.376011E+06  7.208600E+05  6.789487E+04  1.081243E+06 -3.280428E-09 -1.323165E-10
       266  18  1.389621E+06  8.049673E+05  3.628711E+04  1.101294E+06 -2.027833E-09 -4.914188E-10
       266  19  1.678768E+06  1.114030E+06  2.938699E+05  1.125682E+06 -1.370049E+05 -1.013408E+05
       266  20  1.593753E+06  9.025498E+05  1.467809E+05  1.201140E+06 -9.067451E+04 -6.440577E+04
       266  21  1.621513E+06  9.205213E+05  1.050643E+05  1.193143E+06 -4.271152E+04 -2.965076E+04
       266  22  1.576888E+06  9.900273E+05  2.489518E+05  1.051697E+06 -1.363800E+05 -1.008619E+05
       266  23  1.484881E+06  8.117035E+05  1.073503E+05  1.141187E+06 -9.058149E+04 -6.433418E+04
       266  24  1.505561E+06  8.627436E+05  7.067898E+04  1.147215E+06 -4.315138E+04 -2.998205E+04
       266  25  1.475019E+06  8.660454E+05  2.040317E+05  9.777288E+05 -1.357552E+05 -1.003832E+05
       266  26  1.376021E+06  7.208666E+05  6.791793E+04  1.081247E+06 -9.048849E+04 -6.426261E+04
       266  27  1.389623E+06  8.049688E+05  3.629239E+04  1.101295E+06 -4.359112E+04 -3.031329E+04
       267   1  1.551903E+06  9.159279E+05  7.458790E+04  1.147780E+06  3.331509E+04  2.363948E+04
       267   2  1.539623E+06  8.660271E+05  4.169339E+04  1.149418E+06  2.030522E+04  1.430157E+04
       267   3  1.521696E+06  8.730644E+05  2.903779E+04  1.145891E+06  7.093946E+03  5.232771E+03
       267   4  1.509836E+06  8.789160E+05  5.896705E+04  1.123741E+06  3.334521E+04  2.366170E+04
       267   5  1.507749E+06  8.416916E+05  3.058637E+04  1.132908E+06  2.040109E+04  1.437340E+04
       267   6  1.500002E+06  8.613927E+05  2.238924E+04  1.136910E+06  7.255264E+03  5.353800E+03
       267   7  1.467772E+06  8.419056E+05  4.334591E+04  1.099704E+06  3.337533E+04  2.368393E+04
       267   8  1.475876E+06  8.173567E+05  1.947918E+04  1.116399E+06  2.049695E+04  1.444523E+04
       267   9  1.478308E+06  8.497212E+05  1.574063E+04  1.127929E+06  7.416576E+03  5.474826E+03
       267  10  1.551901E+06  9.159270E+05  7.458478E+04  1.147780E+06 -3.608047E-10 -6.875655E-10
       267  11  1.539622E+06  8.660268E+05  4.169224E+04  1.149418E+06  2.769026E-09  7.344148E-10
       267  12  1.521696E+06  8.730643E+05  2.903764E+04  1.145891E+06  8.633417E-10  4.782384E-10
       267  13  1.509835E+06  8.789151E+05  5.896392E+04  1.123741E+06 -1.630376E-09 -4.148136E-10
       267  14  1.507748E+06  8.416913E+05  3.058520E+04  1.132908E+06 -4.577747E-10  6.651651E-10
       267  15  1.500002E+06  8.613927E+05  2.238909E+04  1.136910E+06  2.027826E-10  8.354846E-10
       267  16  1.467770E+06  8.419047E+05  4.334277E+04  1.099704E+06 -2.143333E-09 -5.251007E-10
       267  17  1.475876E+06  8.173563E+05  1.947800E+04  1.116399E+06 -5.752932E-10 -9.134256E-11
       267  18  1.478308E+06  8.497212E+05  1.574047E+04  1.127929E+06  3.060996E-09  1.787767E-09
       267  19  1.551903E+06  9.159279E+05  7.458790E+04  1.147780E+06 -3.331509E+04 -2.363948E+04
       267  20  1.539623E+06  8.660271E+05  4.169339E+04  1.149418E+06 -2.030522E+04 -1.430157E+04
       267  21  1.521696E+06  8.730644E+05  2.903779E+04  1.145891E+06 -7.093946E+03 -5.232771E+03
       267  22  1.509836E+06  8.789160E+05  5.896705E+04  1.123741E+06 -3.334521E+04 -2.366170E+04
       267  23  1.507749E+06  8.416916E+05  3.058637E+04  1.132908E+06 -2.040109E+04 -1.437340E+04
       267  24  1.500002E+06  8.613927E+05  2.238924E+04  1.136910E+06 -7.255264E+03 -5.353800E+03
       267  25  1.467772E+06  8.419056E+05  4.334591E+04  1.099704E+06 -3.337533E+04 -2.368393E+04
       267  26  1.475876E+06  8.173567E+05  1.947918E+04  1.116399E+06 -2.049695E+04 -1.444523E+04
       267  27  1.478308E+06  8.497212E+05  1.574063E+04  1.127929E+06 -7.416576E+03 -5.474826E+03
       268   1  1.466746E+06  8.412010E+05  9.379891E+03  1.118599E+06  3.787466E+03  3.294755E+03
       268   2  1.464565E+06  8.120059E+05  2.937122E+03  1.109204E+06 -4.133681E+03 -1.884745E+03
       268   3  1.442766E+06  8.213912E+05  6.174611E+03  1.103413E+06 -1.206156E+04 -7.054384E+03
       268   4  1.500270E+06  8.633144E+05  2.042998E+04  1.134355E+06  3.903792E+03  3.381985E+03
       268   5  1.510522E+06  8.448148E+05  1.851210E+04  1.131960E+06 -4.015654E+03 -1.796251E+03
       268   6  1.501155E+06  8.648940E+05  2.627233E+04  1.133168E+06 -1.194204E+04 -6.964828E+03
       268   7  1.533796E+06  8.854283E+05  3.147990E+04  1.150112E+06  4.020126E+03  3.469221E+03
       268   8  1.556481E+06  8.776249E+05  3.408676E+04  1.154717E+06 -3.897615E+03 -1.707749E+03
       268   9  1.559548E+06  9.083988E+05  4.636955E+04  1.162927E+06 -1.182251E+04 -6.875260E+03
       268  10  1.466745E+06  8.412009E+05  9.379844E+03  1.118599E+06 -1.921936E-09 -2.616580E-10
       268  11  1.464565E+06  8.120059E+05  2.937084E+03  1.109204E+06  1.605441E-09  7.675116E-10
       268  12  1.442766E+06  8.213911E+05  6.174246E+03  1.103413E+06  1.380960E-09 -4.223513E-11
       268  13  1.500270E+06  8.633144E+05  2.042993E+04  1.134355E+06  2.012035E-09  1.020908E-09
       268  14  1.510522E+06  8.448148E+05  1.851206E+04  1.131960E+06 -2.252375E-09 -3.623221E-10
       268  15  1.501155E+06  8.648939E+05  2.627197E+04  1.133168E+06  8.552427E-10  4.501573E-12
       268  16  1.533796E+06  8.854283E+05  3.147985E+04  1.150112E+06  2.618848E-09  1.370822E-09
       268  17  1.556481E+06  8.776249E+05  3.408672E+04  1.154717E+06 -2.101412E-09  2.034012E-10
       268  18  1.559548E+06  9.083987E+05  4.636920E+04  1.162927E+06 -3.637651E-10  1.295294E-10
       268  19  1.466746E+06  8.412010E+05  9.379891E+03  1.118599E+06 -3.787466E+03 -3.294755E+03
       268  20  1.464565E+06  8.120059E+05  2.937122E+03  1.109204E+06  4.133681E+03  1.884745E+03
       268  21  1.442766E+06  8.213912E+05  6.174611E+03  1.103413E+06  1.206156E+04  7.054384E+03
       268  22  1.500270E+06  8.633144E+05  2.042998E+04  1.134355E+06 -3.903792E+03 -3.381985E+03
       268  23  1.510522E+06  8.448148E+05  1.851210E+04  1.131960E+06  4.015654E+03  1.796251E+03
       268  24  1.501155E+06  8.648940E+05  2.627233E+04  1.133168E+06  1.194204E+04  6.964828E+03
       268  25  1.533796E+06  8.854283E+05  3.147990E+04  1.150112E+06 -4.020126E+03 -3.469221E+03
       268  26  1.556481E+06  8.776249E+05  3.408676E+04  1.154717E+06  3.897615E+03  1.707749E+03
       268  27  1.559548E+06  9.083988E+05  4.636955E+04  1.162927E+06  1.182251E+04  6.875260E+03
       269   1  1.379926E+06  7.832431E+05 -8.386618E+03  1.082073E+06 -1.658002E+04 -9.804303E+03
       269   2  1.376177E+06  7.419645E+05  2.122439E+03  1.067701E+06 -3.645253E+04 -2.373269E+04
       269   3  1.374787E+06  7.798654E+05  4.406568E+04  1.041834E+06 -5.599772E+04 -3.809652E+04
       269   4  1.499587E+06  8.624119E+05  3.098372E+04  1.138438E+06 -1.638142E+04 -9.655335E+03
       269   5  1.506520E+06  8.373185E+05  4.674122E+04  1.133299E+06 -3.636376E+04 -2.366639E+04
       269   6  1.515828E+06  8.914191E+05  9.402128E+04  1.116666E+06 -5.601921E+04 -3.811363E+04
       269   7  1.619262E+06  9.415870E+05  7.035228E+04  1.194815E+06 -1.618277E+04 -9.506332E+03
       269   8  1.636880E+06  9.326820E+05  9.135758E+04  1.198912E+06 -3.627498E+04 -2.360008E+04
       269   9  1.656890E+06  1.002986E+06  1.439738E+05  1.191517E+06 -5.604071E+04 -3.813074E+04
       269  10  1.379926E+06  7.832429E+05 -8.387313E+03  1.082072E+06 -4.697336E-10 -1.276183E-10
       269  11  1.376176E+06  7.419636E+05  2.118896E+03  1.067700E+06 -1.567787E-10 -1.282632E-10
       269  12  1.374783E+06  7.798630E+05  4.405709E+04  1.041832E+06 -1.720258E-09 -4.972831E-10
       269  13  1.499586E+06  8.624117E+05  3.098304E+04  1.138438E+06 -4.454443E-10 -5.618171E-10
       269  14  1.506518E+06  8.373175E+05  4.673769E+04  1.133298E+06 -4.292593E-10 -3.582781E-10
       269  15  1.515825E+06  8.914168E+05  9.401268E+04  1.116664E+06 -2.886970E-09 -8.069963E-10
       269  16  1.619262E+06  9.415868E+05  7.035162E+04  1.194815E+06 -6.763164E-10 -3.578205E-10
       269  17  1.636879E+06  9.326810E+05  9.135408E+04  1.198911E+06 -1.028495E-09 -2.487697E-10
       269  18  1.656886E+06  1.002984E+06  1.439652E+05  1.191515E+06 -1.608168E-09 -4.956980E-10
       269  19  1.379926E+06  7.832431E+05 -8.386618E+03  1.082073E+06  1.658002E+04  9.804303E+03
       269  20  1.376177E+06  7.419645E+05  2.122439E+03  1.067701E+06  3.645253E+04  2.373269E+04
       269  21  1.374787E+06  7.798654E+05  4.406568E+04  1.041834E+06  5.599772E+04  3.809652E+04
       269  22  1.499587E+06  8.624119E+05  3.098372E+04  1.138438E+06  1.638142E+04  9.655335E+03
       269  23  1.506520E+06  8.373185E+05  4.674122E+04  1.133299E+06  3.636376E+04  2.366639E+04
       269  24  1.515828E+06  8.914191E+05  9.402128E+04  1.116666E+06  5.601921E+04  3.811363E+04
       269  25  1.619262E+06  9.415870E+05  7.035228E+04  1.194815E+06  1.618277E+04  9.506332E+03
       269  26  1.636880E+06  9.326820E+05  9.135758E+04  1.198912E+06  3.627498E+04  2.360008E+04
       269  27  1.656890E+06  1.002986E+06  1.439738E+05  1.191517E+06  5.604071E+04  3.813074E+04
       270   1  1.267455E+06  7.348316E+05  3.989384E+04  1.054674E+06 -7.243220E+04 -4.877915E+04
       270   2  1.245102E+06  6.060810E+05  9.327289E+04  1.025413E+06 -1.480965E+05 -1.036462E+05
       270   3  1.414095E+06  8.406790E+05  3.159166E+05  8.584949E+05 -2.207963E+05 -1.624675E+05
       270   4  1.508240E+06  8.658398E+05  1.134486E+05  1.155071E+06 -7.170916E+04 -4.823377E+04
       270   5  1.470209E+06  7.875445E+05  1.735712E+05  1.146445E+06 -1.483580E+05 -1.038469E+05
       270   6  1.623647E+06  1.072706E+06  4.037480E+05  1.000189E+06 -2.220399E+05 -1.634250E+05
       270   7  1.749087E+06  9.968633E+05  1.869972E+05  1.255507E+06 -7.098572E+04 -4.768818E+04
       270   8  1.695368E+06  9.690449E+05  2.538620E+05  1.267529E+06 -1.486197E+05 -1.040476E+05
       270   9  1.833247E+06  1.304804E+06  4.915717E+05  1.141948E+06 -2.232841E+05 -1.643832E+05
       270  10  1.267449E+06  7.348276E+05  3.987956E+04  1.054671E+06 -2.307521E-09 -9.812626E-10
       270  11  1.245076E+06  6.060636E+05  9.321169E+04  1.025401E+06 -1.139573E-09 -3.884224E-10
       270  12  1.414036E+06  8.406377E+05  3.157758E+05  8.584661E+05 -6.079327E-10  4.844190E-10
       270  13  1.508234E+06  8.658359E+05  1.134346E+05  1.155069E+06 -2.385254E-09 -1.375279E-09
       270  14  1.470182E+06  7.875271E+05  1.735098E+05  1.146433E+06  6.520922E-10 -1.702345E-09
       270  15  1.623587E+06  1.072664E+06  4.036057E+05  1.000160E+06  2.732755E-11  5.420049E-11
       270  16  1.749081E+06  9.968595E+05  1.869835E+05  1.255504E+06 -7.286792E-10 -1.266345E-09
       270  17  1.695341E+06  9.690274E+05  2.538004E+05  1.267516E+06 -7.066506E-11 -2.204018E-09
       270  18  1.833186E+06  1.304762E+06  4.914279E+05  1.141919E+06  1.075172E-09 -6.588779E-10
       270  19  1.267455E+06  7.348316E+05  3.989384E+04  1.054674E+06  7.243220E+04  4.877915E+04
       270  20  1.245102E+06  6.060810E+05  9.327289E+04  1.025413E+06  1.480965E+05  1.036462E+05
       270  21  1.414095E+06  8.406790E+05  3.159166E+05  8.584949E+05  2.207963E+05  1.624675E+05
       270  22  1.508240E+06  8.658398E+05  1.134486E+05  1.155071E+06  7.170916E+04  4.823377E+04
       270  23  1.470209E+06  7.875445E+05  1.735712E+05  1.146445E+06  1.483580E+05  1.038469E+05
       270  24  1.623647E+06  1.072706E+06  4.037480E+05  1.000189E+06  2.220399E+05  1.634250E+05
       270  25  1.749087E+06  9.968633E+05  1.869972E+05  1.255507E+06  7.098572E+04  4.768818E+04
       270  26  1.695368E+06  9.690449E+05  2.538620E+05  1.267529E+06  1.486197E+05  1.040476E+05
       270  27  1.833247E+06  1.304804E+06  4.915717E+05  1.141948E+06  2.232841E+05  1.643832E+05
       271   1  3.150287E+06  3.326564E+05  4.307147E+05  5.323257E+04  2.882397E+05 -1.840533E+02
       271   2  3.086610E+06 -6.503715E+04  1.900975E+05  1.317641E+04  1.876770E+05 -4.406340E+02
       271   3  3.150064E+06 -5.821128E+03  1.289751E+05 -2.626158E+04  8.710962E+04 -3.940382E+02
       271   4  3.126467E+06  3.267571E+05  4.248089E+05 -4.196298E+02  2.881340E+05 -2.088185E+02
       271   5  3.063158E+06 -7.086011E+04  1.843192E+05 -7.707424E+02  1.876446E+05 -4.448249E+02
       271   6  3.126970E+06 -1.157726E+04  1.232774E+05 -5.066735E+02  8.715054E+04 -3.904516E+02
       271   7  3.102653E+06  3.208686E+05  4.189046E+05 -5.406978E+04  2.880283E+05 -2.335663E+02
       271   8  3.039707E+06 -7.668237E+04  1.785409E+05 -1.471737E+04  1.876123E+05 -4.490146E+02
       271   9  3.103877E+06 -1.733095E+04  1.175800E+05  2.524728E+04  8.719147E+04 -3.868615E+02
       271  10  3.150199E+06  3.326342E+05  4.305594E+05  5.323261E+04 -2.132625E-09 -2.988691E-10
       271  11  3.086573E+06 -6.504655E+04  1.900317E+05  1.317647E+04  8.998137E-10 -5.607451E-10
       271  12  3.150056E+06 -5.823153E+03  1.289609E+05 -2.626156E+04  1.398299E-09 -6.812723E-10
       271  13  3.126378E+06  3.267350E+05  4.246537E+05 -4.195815E+02  1.048066E-09 -4.772387E-10
       271  14  3.063121E+06 -7.086950E+04  1.842533E+05 -7.706753E+02  1.161709E-09 -4.470945E-10
       271  15  3.126962E+06 -1.157928E+04  1.232632E+05 -5.066461E+02 -2.505915E-09 -3.614281E-10
       271  16  3.102564E+06  3.208465E+05  4.187495E+05 -5.406972E+04  2.481512E-09 -4.169895E-10
       271  17  3.039670E+06 -7.669176E+04  1.784751E+05 -1.471730E+04  1.783419E-09 -2.154649E-10
       271  18  3.103869E+06 -1.733298E+04  1.175658E+05  2.524731E+04 -1.965369E-09 -7.446588E-10
       271  19  3.150287E+06  3.326564E+05  4.307147E+05  5.323257E+04 -2.882397E+05  1.840533E+02
       271  20  3.086610E+06 -6.503715E+04  1.900975E+05  1.317641E+04 -1.876770E+05  4.406340E+02
       271  21  3.150064E+06 -5.821128E+03  1.289751E+05 -2.626158E+04 -8.710962E+04  3.940382E+02
       271  22  3.126467E+06  3.267571E+05  4.248089E+05 -4.196298E+02 -2.881340E+05  2.088185E+02
       271  23  3.063158E+06 -7.086011E+04  1.843192E+05 -7.707424E+02 -1.876446E+05  4.448249E+02
       271  24  3.126970E+06 -1.157726E+04  1.232774E+05 -5.066735E+02 -8.715054E+04  3.904516E+02
       271  25  3.102653E+06  3.208686E+05  4.189046E+05 -5.406978E+04 -2.880283E+05  2.335663E+02
       271  26  3.039707E+06 -7.668237E+04  1.785409E+05 -1.471737E+04 -1.876123E+05  4.490146E+02
       271  27  3.103877E+06 -1.733095E+04  1.175800E+05  2.524728E+04 -8.719147E+04  3.868615E+02
       272   1  3.126840E+06  5.210583E+04  1.099115E+05  6.976038E+03  6.673506E+04 -3.381480E+02
       272   2  3.116158E+06 -5.536170E+03  6.411542E+04  1.133278E+03  3.640848E+04 -3.750424E+02
       272   3  3.127770E+06  1.035579E+04  5.637716E+04 -5.369081E+03  6.082169E+03 -3.855741E+02
       272   4  3.103545E+06  4.631575E+04  1.041596E+05 -7.563837E+02  6.672015E+04 -3.389735E+02
       272   5  3.092437E+06 -1.143405E+04  5.826340E+04 -4.305434E+02  3.640078E+04 -3.751335E+02
       272   6  3.103622E+06  4.350218E+03  5.042100E+04 -7.643208E+02  6.081686E+03 -3.855301E+02
       272   7  3.080250E+06  4.052586E+04  9.840766E+04 -8.488516E+03  6.670525E+04 -3.397987E+02
       272   8  3.068716E+06 -1.733197E+04  5.241134E+04 -1.994305E+03  3.639308E+04 -3.752246E+02
       272   9  3.079475E+06 -1.655319E+03  4.446480E+04  3.840261E+03  6.081204E+03 -3.854861E+02
       272  10  3.126835E+06  5.210464E+04  1.099031E+05  6.976056E+03 -1.123727E-09 -7.600739E-10
       272  11  3.116157E+06 -5.536524E+03  6.411294E+04  1.133289E+03 -2.757479E-10  4.949410E-10
       272  12  3.127770E+06  1.035578E+04  5.637709E+04 -5.369079E+03 -2.391561E-10 -2.632674E-10
       272  13  3.103540E+06  4.631457E+04  1.041512E+05 -7.563655E+02  1.012172E-09 -7.687201E-10
       272  14  3.092436E+06 -1.143440E+04  5.826092E+04 -4.305325E+02  1.712162E-09 -6.689675E-10
       272  15  3.103622E+06  4.350208E+03  5.042093E+04 -7.643189E+02 -7.133313E-10  6.590703E-12
       272  16  3.080245E+06  4.052468E+04  9.839934E+04 -8.488498E+03  3.603460E-10 -8.953675E-10
       272  17  3.068715E+06 -1.733232E+04  5.240887E+04 -1.994294E+03  2.800546E-09 -3.837966E-10
       272  18  3.079475E+06 -1.655329E+03  4.446474E+04  3.840263E+03  6.983532E-10  3.253795E-10
       272  19  3.126840E+06  5.210583E+04  1.099115E+05  6.976038E+03 -6.673506E+04  3.381480E+02
       272  20  3.116158E+06 -5.536170E+03  6.411542E+04  1.133278E+03 -3.640848E+04  3.750424E+02
       272  21  3.127770E+06  1.035579E+04  5.637716E+04 -5.369081E+03 -6.082169E+03  3.855741E+02
       272  22  3.103545E+06  4.631575E+04  1.041596E+05 -7.563837E+02 -6.672015E+04  3.389735E+02
       272  23  3.092437E+06 -1.143405E+04  5.826340E+04 -4.305434E+02 -3.640078E+04  3.751335E+02
       272  24  3.103622E+06  4.350218E+03  5.042100E+04 -7.643208E+02 -6.081686E+03  3.855301E+02
       272  25  3.080250E+06  4.052586E+04  9.840766E+04 -8.488516E+03 -6.670525E+04  3.397987E+02
       272  26  3.068716E+06 -1.733197E+04  5.241134E+04 -1.994305E+03 -3.639308E+04  3.752246E+02
       272  27  3.079475E+06 -1.655319E+03  4.446480E+04  3.840261E+03 -6.081204E+03  3.854861E+02
       273   1  3.130782E+06  1.180690E+04  5.673909E+04  3.324414E+03 -2.958289E+03 -4.067808E+02
       273   2  3.121503E+06 -3.632046E+03  6.264548E+04 -1.483115E+03 -3.186837E+04 -4.479226E+02
       273   3  3.133272E+06  5.020606E+04  1.046265E+05 -8.286353E+03 -6.077830E+04 -4.347836E+02
       273   4  3.103344E+06  4.984807E+03  4.996709E+04 -1.059332E+03 -2.975351E+03 -4.067593E+02
       273   5  3.092786E+06 -1.077285E+04  5.556136E+04 -6.086903E+01 -3.187133E+04 -4.479963E+02
       273   6  3.103275E+06  4.274572E+04  9.722161E+04 -1.058175E+03 -6.076709E+04 -4.354895E+02
       273   7  3.075906E+06 -1.837267E+03  4.319504E+04 -5.442886E+03 -2.992413E+03 -4.067376E+02
       273   8  3.064070E+06 -1.791370E+04  4.847719E+04  1.361311E+03 -3.187428E+04 -4.480700E+02
       273   9  3.073279E+06  3.528552E+04  8.981673E+04  6.169656E+03 -6.075588E+04 -4.361951E+02
       273  10  3.130782E+06  1.180689E+04  5.673907E+04  3.324413E+03 -1.602434E-09 -8.521822E-12
       273  11  3.121502E+06 -3.632317E+03  6.264358E+04 -1.483126E+03 -2.671578E-09 -1.709103E-10
       273  12  3.133268E+06  5.020508E+04  1.046195E+05 -8.286375E+03 -1.782851E-09  7.741038E-10
       273  13  3.103344E+06  4.984804E+03  4.996707E+04 -1.059333E+03 -1.046295E-09 -6.492149E-11
       273  14  3.092785E+06 -1.077312E+04  5.555946E+04 -6.088051E+01  1.907505E-11 -3.304833E-10
       273  15  3.103271E+06  4.274474E+04  9.721471E+04 -1.058196E+03 -9.481897E-10  3.242371E-10
       273  16  3.075906E+06 -1.837270E+03  4.319502E+04 -5.442887E+03 -6.030457E-10  2.426863E-10
       273  17  3.064069E+06 -1.791398E+04  4.847529E+04  1.361300E+03 -6.449636E-10 -1.238395E-11
       273  18  3.073275E+06  3.528453E+04  8.980983E+04  6.169635E+03  2.383006E-10  6.444716E-10
       273  19  3.130782E+06  1.180690E+04  5.673909E+04  3.324414E+03  2.958289E+03  4.067808E+02
       273  20  3.121503E+06 -3.632046E+03  6.264548E+04 -1.483115E+03  3.186837E+04  4.479226E+02
       273  21  3.133272E+06  5.020606E+04  1.046265E+05 -8.286353E+03  6.077830E+04  4.347836E+02
       273  22  3.103344E+06  4.984807E+03  4.996709E+04 -1.059332E+03  2.975351E+03  4.067593E+02
       273  23  3.092786E+06 -1.077285E+04  5.556136E+04 -6.086903E+01  3.187133E+04  4.479963E+02
       273  24  3.103275E+06  4.274572E+04  9.722161E+04 -1.058175E+03  6.076709E+04  4.354895E+02
       273  25  3.075906E+06 -1.837267E+03  4.319504E+04 -5.442886E+03  2.992413E+03  4.067376E+02
       273  26  3.064070E+06 -1.791370E+04  4.847719E+04  1.361311E+03  3.187428E+04  4.480700E+02
       273  27  3.073279E+06  3.528552E+04  8.981673E+04  6.169656E+03  6.075588E+04  4.361951E+02
       274   1  3.161863E+06 -1.349438E+03  1.237712E+05  2.235679E+04 -7.970528E+04 -5.667594E+02
       274   2  3.105276E+06 -5.567980E+04  1.803064E+05 -1.246443E+04 -1.728426E+05 -6.870546E+02
       274   3  3.166199E+06  3.122208E+05  4.028399E+05 -5.104261E+04 -2.659788E+05 -2.383190E+02
       274   4  3.124826E+06 -1.055887E+04  1.146332E+05 -1.443089E+03 -7.979994E+04 -5.637195E+02
       274   5  3.065849E+06 -6.548105E+04  1.705908E+05  4.210724E+02 -1.727976E+05 -6.906262E+02
       274   6  3.124360E+06  3.018128E+05  3.924572E+05 -1.468004E+03 -2.657938E+05 -2.594419E+02
       274   7  3.087793E+06 -1.976628E+04  1.054953E+05 -2.524156E+04 -7.989459E+04 -5.606722E+02
       274   8  3.026423E+06 -7.528180E+04  1.608753E+05  1.330576E+04 -1.727526E+05 -6.941962E+02
       274   9  3.082529E+06  2.914139E+05  3.820757E+05  4.810327E+04 -2.656089E+05 -2.805367E+02
       274  10  3.161856E+06 -1.351133E+03  1.237593E+05  2.235676E+04  7.053205E-10 -1.484470E-10
       274  11  3.105244E+06 -5.568777E+04  1.802505E+05 -1.246453E+04  6.579087E-12 -9.020567E-10
       274  12  3.166123E+06  3.122019E+05  4.027076E+05 -5.104266E+04 -3.765074E-10 -5.620612E-10
       274  13  3.124820E+06 -1.056057E+04  1.146212E+05 -1.443125E+03  1.617647E-09  9.627462E-11
       274  14  3.065817E+06 -6.548902E+04  1.705350E+05  4.209764E+02  5.179209E-10 -6.740761E-10
       274  15  3.124285E+06  3.017940E+05  3.923251E+05 -1.468059E+03  1.813482E-09 -1.906349E-10
       274  16  3.087786E+06 -1.976798E+04  1.054834E+05 -2.524159E+04  1.472658E-09  3.330503E-10
       274  17  3.026391E+06 -7.528976E+04  1.608195E+05  1.330566E+04 -2.083894E-09 -9.298934E-10
       274  18  3.082453E+06  2.913951E+05  3.819438E+05  4.810321E+04  1.144882E-09 -1.924060E-10
       274  19  3.161863E+06 -1.349438E+03  1.237712E+05  2.235679E+04  7.970528E+04  5.667594E+02
       274  20  3.105276E+06 -5.567980E+04  1.803064E+05 -1.246443E+04  1.728426E+05  6.870546E+02
       274  21  3.166199E+06  3.122208E+05  4.028399E+05 -5.104261E+04  2.659788E+05  2.383190E+02
       274  22  3.124826E+06 -1.055887E+04  1.146332E+05 -1.443089E+03  7.979994E+04  5.637195E+02
       274  23  3.065849E+06 -6.548105E+04  1.705908E+05  4.210724E+02  1.727976E+05  6.906262E+02
       274  24  3.124360E+06  3.018128E+05  3.924572E+05 -1.468004E+03  2.657938E+05  2.594419E+02
       274  25  3.087793E+06 -1.976628E+04  1.054953E+05 -2.524156E+04  7.989459E+04  5.606722E+02
       274  26  3.026423E+06 -7.528180E+04  1.608753E+05  1.330576E+04  1.727526E+05  6.941962E+02
       274  27  3.082529E+06  2.914139E+05  3.820757E+05  4.810327E+04  2.656089E+05  2.805367E+02
       275   1 -1.322616E+05  2.213683E+05 -1.705516E+05  7.457348E+03 -1.245135E+02 -1.128317E+05
       275   2  1.830800E+04  2.255205E+05 -8.135404E+04  8.144097E+03 -5.816652E+02 -7.366502E+04
       275   3 -1.035066E+04  1.798082E+05 -6.244247E+04 -2.363359E+04 -1.266224E+03 -3.449933E+04
       275   4 -1.279551E+05  2.386659E+05 -1.662453E+05 -1.349323E+04 -1.206857E+02 -1.127493E+05
       275   5  2.780159E+04  2.635925E+05 -7.192636E+04  2.720624E+03 -5.809755E+02 -7.352772E+04
       275   6  4.324732E+03  2.386451E+05 -4.793052E+04 -1.352958E+04 -1.266709E+03 -3.430593E+04
       275   7 -1.236470E+05  2.559648E+05 -1.619388E+05 -3.444438E+04 -1.168634E+02 -1.126668E+05
       275   8  3.729518E+04  3.016658E+05 -6.249878E+04 -2.703183E+03 -5.802882E+02 -7.339041E+04
       275   9  1.900025E+04  2.974854E+05 -3.341876E+04 -3.424622E+03 -1.267188E+03 -3.411251E+04
       275  10 -1.322650E+05  2.213546E+05 -1.705755E+05  7.457337E+03  5.994617E-10 -2.460504E-10
       275  11  1.830654E+04  2.255147E+05 -8.136424E+04  8.144063E+03  4.165589E-10  3.099697E-11
       275  12 -1.035098E+04  1.798069E+05 -6.244471E+04 -2.363362E+04  1.301013E-09  2.689921E-10
       275  13 -1.279585E+05  2.386523E+05 -1.662692E+05 -1.349324E+04 -3.579295E-10 -2.451623E-11
       275  14  2.780014E+04  2.635867E+05 -7.193652E+04  2.720589E+03 -9.833689E-10  3.701218E-10
       275  15  4.324415E+03  2.386438E+05 -4.793273E+04 -1.352962E+04 -8.411860E-11  1.882669E-11
       275  16 -1.236504E+05  2.559512E+05 -1.619626E+05 -3.444439E+04 -7.462728E-10  7.528125E-12
       275  17  3.729373E+04  3.016601E+05 -6.250890E+04 -2.703217E+03 -2.008678E-09  4.688245E-10
       275  18  1.899994E+04  2.974841E+05 -3.342095E+04 -3.424657E+03 -3.524656E-10 -4.930721E-10
       275  19 -1.322616E+05  2.213683E+05 -1.705516E+05  7.457348E+03  1.245135E+02  1.128317E+05
       275  20  1.830800E+04  2.255205E+05 -8.135404E+04  8.144097E+03  5.816652E+02  7.366502E+04
       275  21 -1.035066E+04  1.798082E+05 -6.244247E+04 -2.363359E+04  1.266224E+03  3.449933E+04
       275  22 -1.279551E+05  2.386659E+05 -1.662453E+05 -1.349323E+04  1.206857E+02  1.127493E+05
       275  23  2.780159E+04  2.635925E+05 -7.192636E+04  2.720624E+03  5.809755E+02  7.352772E+04
       275  24  4.324732E+03  2.386451E+05 -4.793052E+04 -1.352958E+04  1.266709E+03  3.430593E+04
       275  25 -1.236470E+05  2.559648E+05 -1.619388E+05 -3.444438E+04  1.168634E+02  1.126668E+05
       275  26  3.729518E+04  3.016658E+05 -6.249878E+04 -2.703183E+03  5.802882E+02  7.339041E+04
       275  27  1.900025E+04  2.974854E+05 -3.341876E+04 -3.424622E+03  1.267188E+03  3.411251E+04
       276   1 -5.333019E+04  1.065217E+05 -7.530603E+04 -1.053857E+04 -1.835955E+03 -2.664899E+04
       276   2 -3.571973E+04  8.997612E+04 -6.205735E+04  3.295998E+03 -2.593672E+03 -1.506990E+04
       276   3 -4.875458E+04  6.444528E+04 -6.397000E+04 -1.576717E+04 -2.799719E+03 -3.491194E+03
       276   4 -1.809358E+04  2.477352E+05 -4.029456E+04 -1.360848E+04 -1.835692E+03 -2.640409E+04
       276   5  4.751118E+03  2.522155E+05 -2.190843E+04  2.837312E+03 -2.593543E+03 -1.495517E+04
       276   6 -3.022729E+03  2.477346E+05 -1.859094E+04 -1.361419E+04 -2.799690E+03 -3.506232E+03
       276   7  1.714157E+04  3.889668E+05 -5.284571E+03 -1.667908E+04 -1.835431E+03 -2.615914E+04
       276   8  4.522000E+04  4.144787E+05  1.823854E+04  2.378502E+03 -2.593414E+03 -1.484041E+04
       276   9  4.270663E+04  4.310545E+05  2.678563E+04 -1.146058E+04 -2.799662E+03 -3.521275E+03
       276  10 -5.333039E+04  1.065210E+05 -7.530737E+04 -1.053861E+04  1.172762E-09 -3.508323E-10
       276  11 -3.571980E+04  8.997587E+04 -6.205779E+04  3.295967E+03 -5.421369E-10  1.205382E-09
       276  12 -4.875459E+04  6.444527E+04 -6.397004E+04 -1.576718E+04  1.590455E-09  2.291521E-09
       276  13 -1.809377E+04  2.477345E+05 -4.029588E+04 -1.360851E+04  2.912231E-10 -4.340421E-12
       276  14  4.751050E+03  2.522152E+05 -2.190886E+04  2.837281E+03 -1.125141E-09  5.954763E-10
       276  15 -3.022741E+03  2.477346E+05 -1.859097E+04 -1.361420E+04  6.730977E-10  1.573304E-10
       276  16  1.714139E+04  3.889661E+05 -5.285862E+03 -1.667912E+04  6.345323E-10 -9.154267E-11
       276  17  4.521993E+04  4.144785E+05  1.823811E+04  2.378471E+03  5.679984E-10 -9.262690E-11
       276  18  4.270661E+04  4.310545E+05  2.678559E+04 -1.146059E+04  7.666366E-10 -2.607412E-09
       276  19 -5.333019E+04  1.065217E+05 -7.530603E+04 -1.053857E+04  1.835955E+03  2.664899E+04
       276  20 -3.571973E+04  8.997612E+04 -6.205735E+04  3.295998E+03  2.593672E+03  1.506990E+04
       276  21 -4.875458E+04  6.444528E+04 -6.397000E+04 -1.576717E+04  2.799719E+03  3.491194E+03
       276  22 -1.809358E+04  2.477352E+05 -4.029456E+04 -1.360848E+04  1.835692E+03  2.640409E+04
       276  23  4.751118E+03  2.522155E+05 -2.190843E+04  2.837312E+03  2.593543E+03  1.495517E+04
       276  24 -3.022729E+03  2.477346E+05 -1.859094E+04 -1.361419E+04  2.799690E+03  3.506232E+03
       276  25  1.714157E+04  3.889668E+05 -5.284571E+03 -1.667908E+04  1.835431E+03  2.615914E+04
       276  26  4.522000E+04  4.144787E+05  1.823854E+04  2.378502E+03  2.593414E+03  1.484041E+04
       276  27  4.270663E+04  4.310545E+05  2.678563E+04 -1.146058E+04  2.799662E+03  3.521275E+03
       277   1 -6.832420E+04 -1.999322E+04 -8.396573E+04 -1.164674E+04 -3.922773E+03 -1.052593E+03
       277   2 -6.597561E+04 -3.625643E+04 -8.945166E+04  1.749225E+03 -5.055332E+03  9.713901E+03
       277   3 -1.032201E+05 -6.329277E+04 -1.117388E+05 -1.859892E+04 -1.751680E+03  2.047320E+04
       277   4 -1.621378E+03  2.473609E+05 -1.774816E+04 -1.381299E+04 -3.921859E+03 -2.458903E+02
       277   5  6.090485E+03  2.526565E+05 -1.802168E+04  3.079653E+03 -5.055515E+03  9.459897E+03
       277   6 -2.559680E+04  2.473677E+05 -3.435452E+04 -1.377105E+04 -1.753742E+03  1.915889E+04
       277   7  6.507611E+04  5.147800E+05  4.846410E+04 -1.598018E+04 -3.920951E+03  5.611593E+02
       277   8  7.815035E+04  5.416453E+05  5.340211E+04  4.410674E+03 -5.055699E+03  9.205774E+03
       277   9  5.201935E+04  5.581158E+05  4.302251E+04 -8.940803E+03 -1.755825E+03  1.784393E+04
       277  10 -6.832422E+04 -1.999322E+04 -8.396576E+04 -1.164674E+04  1.806735E-09 -1.758486E-09
       277  11 -6.597567E+04 -3.625654E+04 -8.945189E+04  1.749265E+03 -1.876224E-09 -2.006274E-09
       277  12 -1.032202E+05 -6.329322E+04 -1.117396E+05 -1.859889E+04  7.113290E-11  3.327493E-10
       277  13 -1.621395E+03  2.473609E+05 -1.774819E+04 -1.381299E+04 -2.436188E-09 -1.576625E-10
       277  14  6.090434E+03  2.526564E+05 -1.802189E+04  3.079691E+03  1.313569E-10  1.362647E-09
       277  15 -2.559690E+04  2.473673E+05 -3.435521E+04 -1.377102E+04 -7.097928E-10  2.968372E-10
       277  16  6.507610E+04  5.147800E+05  4.846407E+04 -1.598018E+04  9.226432E-11  7.528284E-10
       277  17  7.815030E+04  5.416452E+05  5.340190E+04  4.410711E+03 -4.051560E-10  4.139955E-09
       277  18  5.201926E+04  5.581154E+05  4.302190E+04 -8.940777E+03 -1.166614E-10 -1.048125E-09
       277  19 -6.832420E+04 -1.999322E+04 -8.396573E+04 -1.164674E+04  3.922773E+03  1.052593E+03
       277  20 -6.597561E+04 -3.625643E+04 -8.945166E+04  1.749225E+03  5.055332E+03 -9.713901E+03
       277  21 -1.032201E+05 -6.329277E+04 -1.117388E+05 -1.859892E+04  1.751680E+03 -2.047320E+04
       277  22 -1.621378E+03  2.473609E+05 -1.774816E+04 -1.381299E+04  3.921859E+03  2.458903E+02
       277  23  6.090485E+03  2.526565E+05 -1.802168E+04  3.079653E+03  5.055515E+03 -9.459897E+03
       277  24 -2.559680E+04  2.473677E+05 -3.435452E+04 -1.377105E+04  1.753742E+03 -1.915889E+04
       277  25  6.507611E+04  5.147800E+05  4.846410E+04 -1.598018E+04  3.920951E+03 -5.611593E+02
       277  26  7.815035E+04  5.416453E+05  5.340211E+04  4.410674E+03  5.055699E+03 -9.205774E+03
       277  27  5.201935E+04  5.581158E+05  4.302251E+04 -8.940803E+03  1.755825E+03 -1.784393E+04
       278   1  1.258481E+04 -1.055888E+05 -2.039739E+05  1.020937E+05 -1.031036E+05 -7.679488E+04
       278   2  7.690420E+04  4.248032E+04 -9.493150E+04  4.001455E+04 -6.827204E+04 -4.984636E+04
       278   3  4.299748E+04  3.110028E+04 -6.493617E+04  4.476437E+04 -3.283896E+04 -2.370160E+04
       278   4  3.826365E+04 -4.853230E+04 -1.874845E+05  1.325504E+05 -1.028812E+05 -7.663425E+04
       278   5  1.143377E+05  7.920988E+04 -8.025812E+04  6.312206E+04 -6.824193E+04 -4.982484E+04
       278   6  9.223432E+04  4.755160E+04 -5.190811E+04  6.052038E+04 -3.300008E+04 -2.382141E+04
       278   7  6.394396E+04  8.529438E+03 -1.709952E+05  1.630094E+05 -1.026587E+05 -7.647359E+04
       278   8  1.517727E+05  1.159411E+05 -6.558501E+04  8.623133E+04 -6.821181E+04 -4.980332E+04
       278   9  1.414740E+05  6.400318E+04 -3.888020E+04  7.627732E+04 -3.316121E+04 -2.394122E+04
       278  10  1.257181E+04 -1.055980E+05 -2.040049E+05  1.020873E+05  1.452423E-10  2.933436E-11
       278  11  7.689853E+04  4.247640E+04 -9.494493E+04  4.001180E+04 -1.991825E-10 -1.251031E-09
       278  12  4.299617E+04  3.109938E+04 -6.493925E+04  4.476374E+04  5.193356E-10  6.165086E-11
       278  13  3.825071E+04 -4.854145E+04 -1.875154E+05  1.325441E+05  3.860567E-10 -6.905405E-10
       278  14  1.143320E+05  7.920596E+04 -8.027154E+04  6.311932E+04 -1.941629E-09  2.178507E-11
       278  15  9.223300E+04  4.755070E+04 -5.191122E+04  6.051974E+04  1.128454E-09  8.761009E-10
       278  16  6.393107E+04  8.520331E+03 -1.710260E+05  1.630031E+05  4.610502E-10 -9.701983E-10
       278  17  1.517670E+05  1.159371E+05 -6.559841E+04  8.622860E+04 -1.226389E-09 -1.127443E-09
       278  18  1.414726E+05  6.400227E+04 -3.888334E+04  7.627668E+04  1.245450E-09  7.699387E-10
       278  19  1.258481E+04 -1.055888E+05 -2.039739E+05  1.020937E+05  1.031036E+05  7.679488E+04
       278  20  7.690420E+04  4.248032E+04 -9.493150E+04  4.001455E+04  6.827204E+04  4.984636E+04
       278  21  4.299748E+04  3.110028E+04 -6.493617E+04  4.476437E+04  3.283896E+04  2.370160E+04
       278  22  3.826365E+04 -4.853230E+04 -1.874845E+05  1.325504E+05  1.028812E+05  7.663425E+04
       278  23  1.143377E+05  7.920988E+04 -8.025812E+04  6.312206E+04  6.824193E+04  4.982484E+04
       278  24  9.223432E+04  4.755160E+04 -5.190811E+04  6.052038E+04  3.300008E+04  2.382141E+04
       278  25  6.394396E+04  8.529438E+03 -1.709952E+05  1.630094E+05  1.026587E+05  7.647359E+04
       278  26  1.517727E+05  1.159411E+05 -6.558501E+04  8.623133E+04  6.821181E+04  4.980332E+04
       278  27  1.414740E+05  6.400318E+04 -3.888020E+04  7.627732E+04  3.316121E+04  2.394122E+04
       279   1  7.377351E+04  1.820020E+04 -4.903053E+04  6.795355E+04 -2.603867E+04 -1.897078E+04
       279   2  8.303559E+04  4.659505E+04 -2.463550E+04  6.256840E+04 -1.760362E+04 -1.279821E+04
       279   3  8.682827E+04  4.366183E+04 -1.413097E+04  6.376850E+04 -9.089994E+03 -6.730197E+03
       279   4  8.960200E+04  3.464048E+04 -4.264204E+04  7.814187E+04 -2.604930E+04 -1.897894E+04
       279   5  9.622573E+04  5.723544E+04 -1.991685E+04  6.965316E+04 -1.763913E+04 -1.282485E+04
       279   6  9.738583E+04  4.850818E+04 -1.106013E+04  6.774961E+04 -9.150448E+03 -6.775450E+03
       279   7  1.054308E+05  5.108114E+04 -3.625359E+04  8.833057E+04 -2.605992E+04 -1.898711E+04
       279   8  1.094161E+05  6.787594E+04 -1.519823E+04  7.673809E+04 -1.767464E+04 -1.285148E+04
       279   9  1.079435E+05  5.335453E+04 -7.989318E+03  7.173078E+04 -9.210903E+03 -6.820705E+03
       279  10  7.377268E+04  1.819963E+04 -4.903248E+04  6.795315E+04  1.827005E-09  7.330507E-10
       279  11  8.303521E+04  4.659479E+04 -2.463639E+04  6.256822E+04  6.766675E-10 -5.961519E-10
       279  12  8.682817E+04  4.366176E+04 -1.413121E+04  6.376845E+04 -3.703754E-10  2.107202E-10
       279  13  8.960118E+04  3.463991E+04 -4.264400E+04  7.814148E+04  2.947440E-10  1.893552E-10
       279  14  9.622535E+04  5.723518E+04 -1.991774E+04  6.965297E+04  1.005810E-09 -1.263942E-10
       279  15  9.738573E+04  4.850810E+04 -1.106038E+04  6.774956E+04  2.806801E-09 -1.965954E-10
       279  16  1.054300E+05  5.108057E+04 -3.625554E+04  8.833017E+04 -9.828545E-10  8.593541E-10
       279  17  1.094157E+05  6.787568E+04 -1.519912E+04  7.673791E+04 -1.347489E-09  2.321578E-10
       279  18  1.079434E+05  5.335446E+04 -7.989565E+03  7.173073E+04  1.472290E-09  1.820558E-10
       279  19  7.377351E+04  1.820020E+04 -4.903053E+04  6.795355E+04  2.603867E+04  1.897078E+04
       279  20  8.303559E+04  4.659505E+04 -2.463550E+04  6.256840E+04  1.760362E+04  1.279821E+04
       279  21  8.682827E+04  4.366183E+04 -1.413097E+04  6.376850E+04  9.089994E+03  6.730197E+03
       279  22  8.960200E+04  3.464048E+04 -4.264204E+04  7.814187E+04  2.604930E+04  1.897894E+04
       279  23  9.622573E+04  5.723544E+04 -1.991685E+04  6.965316E+04  1.763913E+04  1.282485E+04
       279  24  9.738583E+04  4.850818E+04 -1.106013E+04  6.774961E+04  9.150448E+03  6.775450E+03
       279  25  1.054308E+05  5.108114E+04 -3.625359E+04  8.833057E+04  2.605992E+04  1.898711E+04
       279  26  1.094161E+05  6.787594E+04 -1.519823E+04  7.673809E+04  1.767464E+04  1.285148E+04
       279  27  1.079435E+05  5.335453E+04 -7.989318E+03  7.173078E+04  9.210903E+03  6.820705E+03
       280   1  1.077370E+05  5.376730E+04 -4.379900E+03  7.563417E+04 -7.640190E+03 -5.849473E+03
       280   2  1.087667E+05  6.451573E+04  3.757486E+03  7.814818E+04 -6.913852E+03 -5.588341E+03
       280   3  1.192909E+05  6.427877E+04  1.113554E+04  7.805300E+04 -6.192870E+03 -5.319997E+03
       280   4  9.707973E+04  4.656037E+04 -7.937164E+03  7.055191E+04 -7.684411E+03 -5.882608E+03
       280   5  9.326803E+04  5.371974E+04 -1.451692E+03  7.060777E+04 -6.956339E+03 -5.620176E+03
       280   6  9.895034E+04  4.989330E+04  4.272961E+03  6.805441E+04 -6.233627E+03 -5.350537E+03
       280   7  8.642263E+04  3.935349E+04 -1.149444E+04  6.546976E+04 -7.728632E+03 -5.915741E+03
       280   8  7.776959E+04  4.292387E+04 -6.660909E+03  6.306757E+04 -6.998824E+03 -5.652010E+03
       280   9  7.861018E+04  3.550801E+04 -2.589690E+03  5.805615E+04 -6.274383E+03 -5.381077E+03
       280  10  1.077369E+05  5.376725E+04 -4.380073E+03  7.563413E+04 -1.764632E-09  2.862638E-10
       280  11  1.087666E+05  6.451568E+04  3.757337E+03  7.814815E+04  4.120462E-10 -2.548109E-10
       280  12  1.192908E+05  6.427873E+04  1.113541E+04  7.805297E+04 -1.290629E-10  8.917956E-10
       280  13  9.707966E+04  4.656032E+04 -7.937340E+03  7.055188E+04 -3.273368E-11 -2.246270E-10
       280  14  9.326797E+04  5.371970E+04 -1.451842E+03  7.060774E+04  6.438991E-10 -7.025702E-10
       280  15  9.895029E+04  4.989326E+04  4.272834E+03  6.805438E+04 -1.173874E-09  9.409368E-10
       280  16  8.642256E+04  3.935344E+04 -1.149462E+04  6.546972E+04  1.720310E-09 -1.109851E-10
       280  17  7.776952E+04  4.292382E+04 -6.661061E+03  6.306754E+04  2.966126E-10 -1.222751E-09
       280  18  7.861013E+04  3.550797E+04 -2.589819E+03  5.805613E+04  1.848452E-09  6.924607E-10
       280  19  1.077370E+05  5.376730E+04 -4.379900E+03  7.563417E+04  7.640190E+03  5.849473E+03
       280  20  1.087667E+05  6.451573E+04  3.757486E+03  7.814818E+04  6.913852E+03  5.588341E+03
       280  21  1.192909E+05  6.427877E+04  1.113554E+04  7.805300E+04  6.192870E+03  5.319997E+03
       280  22  9.707973E+04  4.656037E+04 -7.937164E+03  7.055191E+04  7.684411E+03  5.882608E+03
       280  23  9.326803E+04  5.371974E+04 -1.451692E+03  7.060777E+04  6.956339E+03  5.620176E+03
       280  24  9.895034E+04  4.989330E+04  4.272961E+03  6.805441E+04  6.233627E+03  5.350537E+03
       280  25  8.642263E+04  3.935349E+04 -1.149444E+04  6.546976E+04  7.728632E+03  5.915741E+03
       280  26  7.776959E+04  4.292387E+04 -6.660909E+03  6.306757E+04  6.998824E+03  5.652010E+03
       280  27  7.861018E+04  3.550801E+04 -2.589690E+03  5.805615E+04  6.274383E+03  5.381077E+03
       281   1  1.374605E+05  7.779009E+04  2.039594E+04  9.022715E+04 -6.861570E+03 -6.039903E+03
       281   2  1.362344E+05  8.230475E+04  2.903079E+04  9.330340E+04 -1.255302E+04 -1.062825E+04
       281   3  1.564243E+05  9.177715E+04  4.750586E+04  8.653547E+04 -1.836610E+04 -1.505428E+04
       281   4  9.874125E+04  4.834843E+04  6.873800E+03  7.025785E+04 -6.930346E+03 -6.091420E+03
       281   5  9.090069E+04  5.097090E+04  1.384631E+04  7.135890E+04 -1.258230E+04 -1.065022E+04
       281   6  1.044683E+05  5.854349E+04  3.062554E+04  6.261559E+04 -1.835580E+04 -1.504667E+04
       281   7  6.002369E+04  1.890779E+04 -6.648523E+03  5.029004E+04 -6.999115E+03 -6.142933E+03
       281   8  4.556914E+04  1.963808E+04 -1.338439E+03  4.941620E+04 -1.261157E+04 -1.067218E+04
       281   9  5.251508E+04  2.531092E+04  1.374488E+04  3.869784E+04 -1.834550E+04 -1.503907E+04
       281  10  1.374604E+05  7.779003E+04  2.039578E+04  9.022712E+04  5.224703E-10  8.083708E-10
       281  11  1.362342E+05  8.230459E+04  2.903028E+04  9.330329E+04  3.063245E-09 -3.818166E-10
       281  12  1.564238E+05  9.177681E+04  4.750480E+04  8.653525E+04  7.125364E-10  9.097971E-10
       281  13  9.874119E+04  4.834838E+04  6.873640E+03  7.025782E+04 -8.310836E-10  2.767602E-10
       281  14  9.090049E+04  5.097073E+04  1.384580E+04  7.135879E+04 -9.000924E-10  6.252816E-10
       281  15  1.044678E+05  5.854316E+04  3.062448E+04  6.261537E+04  1.476735E-09  1.301364E-09
       281  16  6.002363E+04  1.890774E+04 -6.648686E+03  5.029000E+04  8.473861E-10  4.586394E-10
       281  17  4.556894E+04  1.963792E+04 -1.338952E+03  4.941609E+04 -1.030474E-10  5.757473E-10
       281  18  5.251466E+04  2.531058E+04  1.374383E+04  3.869761E+04  1.860118E-09  2.797881E-10
       281  19  1.374605E+05  7.779009E+04  2.039594E+04  9.022715E+04  6.861570E+03  6.039903E+03
       281  20  1.362344E+05  8.230475E+04  2.903079E+04  9.330340E+04  1.255302E+04  1.062825E+04
       281  21  1.564243E+05  9.177715E+04  4.750586E+04  8.653547E+04  1.836610E+04  1.505428E+04
       281  22  9.874125E+04  4.834843E+04  6.873800E+03  7.025785E+04  6.930346E+03  6.091420E+03
       281  23  9.090069E+04  5.097090E+04  1.384631E+04  7.135890E+04  1.258230E+04  1.065022E+04
       281  24  1.044683E+05  5.854349E+04  3.062554E+04  6.261559E+04  1.835580E+04  1.504667E+04
       281  25  6.002369E+04  1.890779E+04 -6.648523E+03  5.029004E+04  6.999115E+03  6.142933E+03
       281  26  4.556914E+04  1.963808E+04 -1.338439E+03  4.941620E+04  1.261157E+04  1.067218E+04
       281  27  5.251508E+04  2.531092E+04  1.374488E+04  3.869784E+04  1.834550E+04  1.503907E+04
       282   1  1.642893E+05  1.064972E+05  6.104913E+04  1.120580E+05 -2.278701E+04 -1.884316E+04
       282   2  1.565315E+05  8.386187E+04  8.346795E+04  1.117005E+05 -4.825756E+04 -3.842223E+04
       282   3  2.380403E+05  1.592113E+05  1.634121E+05  5.762049E+04 -7.465000E+04 -5.677224E+04
       282   4  1.026137E+05  4.911095E+04  3.745287E+04  7.543166E+04 -2.300673E+04 -1.900740E+04
       282   5  7.763507E+04  3.503732E+04  5.819716E+04  7.612317E+04 -4.817824E+04 -3.836333E+04
       282   6  1.418665E+05  1.188941E+05  1.362145E+05  2.308947E+04 -7.427056E+04 -5.649089E+04
       282   7  4.094206E+04 -8.271501E+03  1.385591E+04  3.880981E+04 -2.322642E+04 -1.917161E+04
       282   8 -1.254828E+03 -1.378496E+04  3.292560E+04  4.055055E+04 -4.809894E+04 -3.830444E+04
       282   9  4.570326E+04  7.857840E+04  1.090163E+05 -1.143691E+04 -7.389119E+04 -5.620956E+04
       282  10  1.642886E+05  1.064967E+05  6.104748E+04  1.120577E+05 -9.446665E-11  8.620618E-10
       282  11  1.565286E+05  8.385966E+04  8.346080E+04  1.116990E+05 -4.994579E-10  5.401181E-10
       282  12  2.380334E+05  1.592064E+05  1.633956E+05  5.761708E+04 -1.394001E-09  1.157518E-10
       282  13  1.026131E+05  4.911042E+04  3.745119E+04  7.543130E+04  5.313010E-10  9.107536E-10
       282  14  7.763218E+04  3.503512E+04  5.819003E+04  7.612168E+04 -1.786531E-09  4.390185E-10
       282  15  1.418597E+05  1.188892E+05  1.361982E+05  2.308610E+04  1.111526E-10  2.708297E-11
       282  16  4.094139E+04 -8.272040E+03  1.385420E+04  3.880945E+04  2.459149E-09  9.947688E-10
       282  17 -1.257706E+03 -1.378716E+04  3.291850E+04  4.054906E+04  7.789553E-10  5.054819E-10
       282  18  4.569655E+04  7.857354E+04  1.090001E+05 -1.144025E+04  1.323822E-10  7.179447E-11
       282  19  1.642893E+05  1.064972E+05  6.104913E+04  1.120580E+05  2.278701E+04  1.884316E+04
       282  20  1.565315E+05  8.386187E+04  8.346795E+04  1.117005E+05  4.825756E+04  3.842223E+04
       282  21  2.380403E+05  1.592113E+05  1.634121E+05  5.762049E+04  7.465000E+04  5.677224E+04
       282  22  1.026137E+05  4.911095E+04  3.745287E+04  7.543166E+04  2.300673E+04  1.900740E+04
       282  23  7.763507E+04  3.503732E+04  5.819716E+04  7.612317E+04  4.817824E+04  3.836333E+04
       282  24  1.418665E+05  1.188941E+05  1.362145E+05  2.308947E+04  7.427056E+04  5.649089E+04
       282  25  4.094206E+04 -8.271501E+03  1.385591E+04  3.880981E+04  2.322642E+04  1.917161E+04
       282  26 -1.254828E+03 -1.378496E+04  3.292560E+04  4.055055E+04  4.809894E+04  3.830444E+04
       282  27  4.570326E+04  7.857840E+04  1.090163E+05 -1.143691E+04  7.389119E+04  5.620956E+04
       283   1  4.597587E+06  5.493626E+05  7.005477E+05  8.962880E+04  4.500437E+05 -8.377522E+02
       283   2  4.492429E+06 -6.808458E+04  3.240468E+05  2.240639E+04  2.950548E+05 -2.748118E+03
       283   3  4.583650E+06  2.054263E+04  2.245326E+05 -3.315678E+04  1.400594E+05 -2.425095E+03
       283   4  4.423331E+06  5.060071E+05  6.573564E+05  6.492857E+03  4.492509E+05 -8.977383E+02
       283   5  4.325718E+06 -1.094929E+05  2.830210E+05  7.211545E+02  2.948318E+05 -2.758463E+03
       283   6  4.424432E+06 -1.893008E+04  1.853312E+05  6.599702E+03  1.404043E+05 -2.416009E+03
       283   7  4.249116E+06  4.626751E+05  6.141664E+05 -7.661989E+04  4.484582E+05 -9.575281E+02
       283   8  4.159034E+06 -1.509014E+05  2.419934E+05 -2.095829E+04  2.946089E+05 -2.768796E+03
       283   9  4.265241E+06 -5.839876E+04  1.461287E+05  4.634604E+04  1.407491E+05 -2.406877E+03
       283  10  4.597371E+06  5.493088E+05  7.001699E+05  8.962911E+04 -1.936599E-09  3.581930E-10
       283  11  4.492336E+06 -6.810775E+04  3.238844E+05  2.240705E+04  2.828594E-09  2.223819E-09
       283  12  4.583629E+06  2.053740E+04  2.244960E+05 -3.315651E+04  8.521691E-10  5.276394E-10
       283  13  4.423115E+06  5.059534E+05  6.569797E+05  6.493181E+03  2.930479E-09  9.540856E-10
       283  14  4.325625E+06 -1.095160E+05  2.828588E+05  7.218084E+02  2.980987E-09  2.456025E-09
       283  15  4.424411E+06 -1.893534E+04  1.852944E+05  6.599975E+03  3.301645E-10  9.400891E-10
       283  16  4.248901E+06  4.626216E+05  6.137910E+05 -7.661955E+04  2.171039E-09  7.409589E-10
       283  17  4.158941E+06 -1.509245E+05  2.418314E+05 -2.095764E+04 -1.885469E-09  1.159580E-09
       283  18  4.265219E+06 -5.840404E+04  1.460917E+05  4.634632E+04 -1.536506E-09  5.543877E-10
       283  19  4.597587E+06  5.493626E+05  7.005477E+05  8.962880E+04 -4.500437E+05  8.377522E+02
       283  20  4.492429E+06 -6.808458E+04  3.240468E+05  2.240639E+04 -2.950548E+05  2.748118E+03
       283  21  4.583650E+06  2.054263E+04  2.245326E+05 -3.315678E+04 -1.400594E+05  2.425095E+03
       283  22  4.423331E+06  5.060071E+05  6.573564E+05  6.492857E+03 -4.492509E+05  8.977383E+02
       283  23  4.325718E+06 -1.094929E+05  2.830210E+05  7.211545E+02 -2.948318E+05  2.758463E+03
       283  24  4.424432E+06 -1.893008E+04  1.853312E+05  6.599702E+03 -1.404043E+05  2.416009E+03
       283  25  4.249116E+06  4.626751E+05  6.141664E+05 -7.661989E+04 -4.484582E+05  9.575281E+02
       283  26  4.159034E+06 -1.509014E+05  2.419934E+05 -2.095829E+04 -2.946089E+05  2.768796E+03
       283  27  4.265241E+06 -5.839876E+04  1.461287E+05  4.634604E+04 -1.407491E+05  2.406877E+03
       284   1  4.531681E+06  1.078019E+05  1.894337E+05  1.551490E+04  1.099829E+05 -1.973424E+03
       284   2  4.515772E+06  1.958609E+04  1.127625E+05  6.512404E+03  6.955081E+04 -2.176225E+03
       284   3  4.531087E+06  3.514535E+04  8.824190E+04 -1.908980E+03  2.911998E+04 -2.219985E+03
       284   4  4.387455E+06  7.196789E+04  1.538735E+05  4.057128E+03  1.099047E+05 -1.975511E+03
       284   5  4.371943E+06 -1.613102E+04  7.733109E+04  3.792603E+03  6.951887E+04 -2.176578E+03
       284   6  4.387654E+06 -4.502599E+02  5.291561E+04  4.109039E+03  2.913431E+04 -2.219717E+03
       284   7  4.243249E+06  3.613282E+04  1.183119E+05 -7.397998E+03  1.098265E+05 -1.977595E+03
       284   8  4.228133E+06 -5.184965E+04  4.189819E+04  1.073426E+03  6.948694E+04 -2.176930E+03
       284   9  4.244240E+06 -3.604725E+04  1.758783E+04  1.012567E+04  2.914864E+04 -2.219449E+03
       284  10  4.531668E+06  1.077987E+05  1.894111E+05  1.551507E+04  1.828718E-09  1.323445E-09
       284  11  4.515767E+06  1.958480E+04  1.127534E+05  6.512525E+03 -3.598953E-09 -5.438141E-10
       284  12  4.531087E+06  3.514512E+04  8.824030E+04 -1.908928E+03  1.335426E-09  2.180137E-09
       284  13  4.387442E+06  7.196467E+04  1.538510E+05  4.057302E+03 -3.373082E-10  6.801762E-10
       284  14  4.371938E+06 -1.613232E+04  7.732207E+04  3.792725E+03 -3.159654E-09  2.313706E-10
       284  15  4.387654E+06 -4.504911E+02  5.291401E+04  4.109091E+03 -2.268487E-09 -4.144876E-10
       284  16  4.243236E+06  3.612960E+04  1.182893E+05 -7.397824E+03 -3.000604E-09 -1.221232E-09
       284  17  4.228128E+06 -5.185094E+04  4.188917E+04  1.073547E+03 -1.859006E-09  5.860567E-10
       284  18  4.244239E+06 -3.604748E+04  1.758623E+04  1.012572E+04  3.750655E-10  9.758879E-10
       284  19  4.531681E+06  1.078019E+05  1.894337E+05  1.551490E+04 -1.099829E+05  1.973424E+03
       284  20  4.515772E+06  1.958609E+04  1.127625E+05  6.512404E+03 -6.955081E+04  2.176225E+03
       284  21  4.531087E+06  3.514535E+04  8.824190E+04 -1.908980E+03 -2.911998E+04  2.219985E+03
       284  22  4.387455E+06  7.196789E+04  1.538735E+05  4.057128E+03 -1.099047E+05  1.975511E+03
       284  23  4.371943E+06 -1.613102E+04  7.733109E+04  3.792603E+03 -6.951887E+04  2.176578E+03
       284  24  4.387654E+06 -4.502599E+02  5.291561E+04  4.109039E+03 -2.913431E+04  2.219717E+03
       284  25  4.243249E+06  3.613282E+04  1.183119E+05 -7.397998E+03 -1.098265E+05  1.977595E+03
       284  26  4.228133E+06 -5.184965E+04  4.189819E+04  1.073426E+03 -6.948694E+04  2.176930E+03
       284  27  4.244240E+06 -3.604725E+04  1.758783E+04  1.012567E+04 -2.914864E+04  2.219449E+03
       285   1  4.538431E+06  4.814085E+04  8.395654E+04  4.506082E+03  2.030739E+04 -2.306522E+03
       285   2  4.539254E+06  3.451784E+04  7.431994E+04  6.668058E+03  2.438879E+03 -2.523925E+03
       285   3  4.551605E+06  5.718310E+04  8.535940E+04 -1.452584E+03 -1.543032E+04 -2.477108E+03
       285   4  4.383245E+06  9.600198E+03  4.571413E+04  1.676613E+03  2.022458E+04 -2.306741E+03
       285   5  4.377484E+06 -5.646229E+03  3.447182E+04  6.811699E+03  2.423734E+03 -2.523986E+03
       285   6  4.383241E+06  1.538897E+04  4.386237E+04  1.664089E+03 -1.537761E+04 -2.477149E+03
       285   7  4.228081E+06 -2.894221E+04  7.469958E+03 -1.152159E+03  2.014179E+04 -2.306961E+03
       285   8  4.215737E+06 -4.581223E+04 -5.378227E+03  6.955296E+03  2.408594E+03 -2.524047E+03
       285   9  4.214903E+06 -2.640721E+04  2.363255E+03  4.779911E+03 -1.532491E+04 -2.477190E+03
       285  10  4.538431E+06  4.814074E+04  8.395576E+04  4.506120E+03  4.969654E-10 -3.486461E-10
       285  11  4.539254E+06  3.451783E+04  7.431992E+04  6.668063E+03 -6.516397E-10 -2.125745E-09
       285  12  4.551605E+06  5.718303E+04  8.535895E+04 -1.452615E+03 -1.910575E-10 -2.109547E-09
       285  13  4.383245E+06  9.600084E+03  4.571336E+04  1.676651E+03  4.064126E-10 -1.041208E-09
       285  14  4.377484E+06 -5.646237E+03  3.447180E+04  6.811704E+03 -9.060792E-10 -2.289046E-09
       285  15  4.383241E+06  1.538890E+04  4.386192E+04  1.664058E+03  1.721887E-09 -1.376478E-09
       285  16  4.228081E+06 -2.894232E+04  7.469191E+03 -1.152122E+03 -6.922579E-10  6.450222E-11
       285  17  4.215737E+06 -4.581224E+04 -5.378250E+03  6.955301E+03  3.368293E-09  2.204953E-09
       285  18  4.214903E+06 -2.640728E+04  2.362805E+03  4.779881E+03  2.877778E-09 -2.652493E-10
       285  19  4.538431E+06  4.814085E+04  8.395654E+04  4.506082E+03 -2.030739E+04  2.306522E+03
       285  20  4.539254E+06  3.451784E+04  7.431994E+04  6.668058E+03 -2.438879E+03  2.523925E+03
       285  21  4.551605E+06  5.718310E+04  8.535940E+04 -1.452584E+03  1.543032E+04  2.477108E+03
       285  22  4.383245E+06  9.600198E+03  4.571413E+04  1.676613E+03 -2.022458E+04  2.306741E+03
       285  23  4.377484E+06 -5.646229E+03  3.447182E+04  6.811699E+03 -2.423734E+03  2.523986E+03
       285  24  4.383241E+06  1.538897E+04  4.386237E+04  1.664089E+03  1.537761E+04  2.477149E+03
       285  25  4.228081E+06 -2.894221E+04  7.469958E+03 -1.152159E+03 -2.014179E+04  2.306961E+03
       285  26  4.215737E+06 -4.581223E+04 -5.378227E+03  6.955296E+03 -2.408594E+03  2.524047E+03
       285  27  4.214903E+06 -2.640721E+04  2.363255E+03  4.779911E+03  1.532491E+04  2.477190E+03
       286   1  4.600707E+06  4.942062E+04  1.000595E+05  7.772337E+03 -2.310891E+04 -3.241458E+03
       286   2  4.594053E+06  3.174028E+04  1.208715E+05  6.262986E+03 -5.945300E+04 -4.032240E+03
       286   3  4.631509E+06  1.705272E+05  2.044083E+05 -1.953242E+04 -9.580450E+04 -1.571535E+03
       286   4  4.390510E+06 -2.806188E+03  4.826468E+04 -1.354951E+03 -2.367138E+04 -3.242151E+03
       286   5  4.368395E+06 -2.425076E+04  6.535375E+04  1.066121E+04 -5.921985E+04 -4.032317E+03
       286   6  4.390268E+06  1.106641E+05  1.446343E+05 -1.608476E+03 -9.477477E+04 -1.572055E+03
       286   7  4.180352E+06 -5.503597E+04 -3.533375E+03 -1.047918E+04 -2.423366E+04 -3.242827E+03
       286   8  4.142783E+06 -8.024549E+04  9.832250E+03  1.505783E+04 -5.898678E+04 -4.032390E+03
       286   9  4.149081E+06  5.079793E+04  8.485616E+04  1.630852E+04 -9.374543E+04 -1.572515E+03
       286  10  4.600706E+06  4.942047E+04  1.000585E+05  7.772277E+03  1.322393E-09 -2.781628E-09
       286  11  4.594049E+06  3.173932E+04  1.208649E+05  6.262793E+03 -1.705220E-09 -7.669741E-09
       286  12  4.631499E+06  1.705247E+05  2.043912E+05 -1.953255E+04 -1.082214E-09 -2.703285E-09
       286  13  4.390509E+06 -2.806349E+03  4.826361E+04 -1.355013E+03 -4.576376E-09 -8.536023E-09
       286  14  4.368391E+06 -2.425171E+04  6.534718E+04  1.066102E+04  4.185264E-09  2.427984E-09
       286  15  4.390259E+06  1.106617E+05  1.446176E+05 -1.608596E+03  1.276725E-09 -4.477133E-10
       286  16  4.180352E+06 -5.503614E+04 -3.534491E+03 -1.047925E+04 -4.624582E-10 -1.823933E-09
       286  17  4.142779E+06 -8.024643E+04  9.825724E+03  1.505764E+04  2.633290E-09  1.229418E-09
       286  18  4.149072E+06  5.079559E+04  8.483975E+04  1.630840E+04  2.534676E-10 -2.803804E-09
       286  19  4.600707E+06  4.942062E+04  1.000595E+05  7.772337E+03  2.310891E+04  3.241458E+03
       286  20  4.594053E+06  3.174028E+04  1.208715E+05  6.262986E+03  5.945300E+04  4.032240E+03
       286  21  4.631509E+06  1.705272E+05  2.044083E+05 -1.953242E+04  9.580450E+04  1.571535E+03
       286  22  4.390510E+06 -2.806188E+03  4.826468E+04 -1.354951E+03  2.367138E+04  3.242151E+03
       286  23  4.368395E+06 -2.425076E+04  6.535375E+04  1.066121E+04  5.921985E+04  4.032317E+03
       286  24  4.390268E+06  1.106641E+05  1.446343E+05 -1.608476E+03  9.477477E+04  1.572055E+03
       286  25  4.180352E+06 -5.503597E+04 -3.533375E+03 -1.047918E+04  2.423366E+04  3.242827E+03
       286  26  4.142783E+06 -8.024549E+04  9.832250E+03  1.505783E+04  5.898678E+04  4.032390E+03
       286  27  4.149081E+06  5.079793E+04  8.485616E+04  1.630852E+04  9.374543E+04  1.572515E+03
       287   1 -2.341832E+05 -5.239406E+05 -3.358626E+05  1.677057E+04  2.509124E+03 -2.972302E+05
       287   2  1.636838E+05 -5.181629E+05 -1.013762E+05  2.250947E+04  6.635733E+03 -1.948694E+05
       287   3  8.695674E+04 -6.438844E+05 -5.206176E+04 -6.552939E+04  3.958688E+03 -9.252577E+04
       287   4 -3.393896E+05 -9.448327E+05 -4.407976E+05 -3.864692E+04  2.536373E+03 -2.989061E+05
       287   5  7.367802E+04 -8.788408E+05 -1.906007E+05  8.305132E+03  6.640580E+03 -1.949807E+05
       287   6  1.172109E+04 -9.447152E+05 -1.267546E+05 -3.852358E+04  3.953013E+03 -9.106229E+04
       287   7 -4.445979E+05 -1.365557E+06 -5.457444E+05 -9.402679E+04  2.563939E+03 -3.005808E+05
       287   8 -1.633677E+04 -1.239400E+06 -2.798347E+05 -5.890920E+03  6.645435E+03 -1.950919E+05
       287   9 -6.351865E+04 -1.245462E+06 -2.014538E+05 -1.153084E+04  3.947464E+03 -8.959951E+04
       287  10 -2.342070E+05 -5.240355E+05 -3.360288E+05  1.677118E+04  5.013549E-10  2.839625E-11
       287  11  1.636736E+05 -5.182038E+05 -1.014477E+05  2.251051E+04  1.483373E-09  7.389261E-10
       287  12  8.695443E+04 -6.438936E+05 -5.207790E+04 -6.552910E+04  1.191903E-09  3.044299E-11
       287  13 -3.394137E+05 -9.449288E+05 -4.409658E+05 -3.864631E+04 -1.420907E-09  5.176592E-10
       287  14  7.366775E+04 -8.788817E+05 -1.906723E+05  8.306175E+03  6.731481E-10  7.718417E-10
       287  15  1.171884E+04 -9.447241E+05 -1.267702E+05 -3.852329E+04  4.767722E-11  1.675503E-09
       287  16 -4.446222E+05 -1.365655E+06 -5.459145E+05 -9.402618E+04  3.510853E-11 -2.315576E-10
       287  17 -1.634706E+04 -1.239441E+06 -2.799064E+05 -5.889875E+03  3.927083E-11  8.309192E-10
       287  18 -6.352082E+04 -1.245471E+06 -2.014690E+05 -1.153056E+04  2.900935E-10 -3.728571E-10
       287  19 -2.341832E+05 -5.239406E+05 -3.358626E+05  1.677057E+04 -2.509124E+03  2.972302E+05
       287  20  1.636838E+05 -5.181629E+05 -1.013762E+05  2.250947E+04 -6.635733E+03  1.948694E+05
       287  21  8.695674E+04 -6.438844E+05 -5.206176E+04 -6.552939E+04 -3.958688E+03  9.252577E+04
       287  22 -3.393896E+05 -9.448327E+05 -4.407976E+05 -3.864692E+04 -2.536373E+03  2.989061E+05
       287  23  7.367802E+04 -8.788408E+05 -1.906007E+05  8.305132E+03 -6.640580E+03  1.949807E+05
       287  24  1.172109E+04 -9.447152E+05 -1.267546E+05 -3.852358E+04 -3.953013E+03  9.106229E+04
       287  25 -4.445979E+05 -1.365557E+06 -5.457444E+05 -9.402679E+04 -2.563939E+03  3.005808E+05
       287  26 -1.633677E+04 -1.239400E+06 -2.798347E+05 -5.890920E+03 -6.645435E+03  1.950919E+05
       287  27 -6.351865E+04 -1.245462E+06 -2.014538E+05 -1.153084E+04 -3.947464E+03  8.959951E+04
       288   1 -3.330672E+04 -8.620699E+05 -9.202178E+04 -3.111131E+04  1.482917E+03 -7.054919E+04
       288   2  1.173235E+04 -9.116477E+05 -5.820733E+04  1.054129E+04  5.738586E+00 -4.051543E+04
       288   3 -2.340728E+04 -9.855028E+05 -6.407110E+04 -4.445607E+04 -1.456996E+03 -1.048428E+04
       288   4 -4.793786E+04 -9.208192E+05 -1.065022E+05 -3.926155E+04  1.483383E+03 -7.020035E+04
       288   5  1.248165E+04 -9.086667E+05 -5.746786E+04  9.090828E+03  5.379481E+00 -4.017285E+04
       288   6 -7.277369E+03 -9.207968E+05 -4.811044E+04 -3.920741E+04 -1.457537E+03 -1.014498E+04
       288   7 -6.256900E+04 -9.795652E+05 -1.209828E+05 -4.741101E+04  1.483839E+03 -6.985155E+04
       288   8  1.323096E+04 -9.056857E+05 -5.672840E+04  7.640355E+03  5.018774E+00 -3.983027E+04
       288   9  8.852331E+03 -8.560869E+05 -3.215008E+04 -3.395819E+04 -1.458073E+03 -9.805652E+03
       288  10 -3.330806E+04 -8.620753E+05 -9.203115E+04 -3.111123E+04 -6.845022E-10 -1.131483E-09
       288  11  1.173191E+04 -9.116495E+05 -5.821042E+04  1.054129E+04  5.924188E-10  1.358804E-09
       288  12 -2.340731E+04 -9.855029E+05 -6.407131E+04 -4.445609E+04  3.788375E-10  1.858476E-09
       288  13 -4.793918E+04 -9.208245E+05 -1.065115E+05 -3.926146E+04  2.143798E-10  2.713203E-09
       288  14  1.248122E+04 -9.086685E+05 -5.747090E+04  9.090828E+03  1.361403E-10  1.511963E-09
       288  15 -7.277399E+03 -9.207969E+05 -4.811064E+04 -3.920742E+04  9.426197E-10  2.111120E-09
       288  16 -6.257032E+04 -9.795704E+05 -1.209920E+05 -4.741092E+04 -1.267933E-10 -5.331201E-10
       288  17  1.323054E+04 -9.056874E+05 -5.673138E+04  7.640355E+03 -9.736436E-11  7.096151E-10
       288  18  8.852303E+03 -8.560871E+05 -3.215026E+04 -3.395820E+04  1.052177E-10 -2.141400E-09
       288  19 -3.330672E+04 -8.620699E+05 -9.202178E+04 -3.111131E+04 -1.482917E+03  7.054919E+04
       288  20  1.173235E+04 -9.116477E+05 -5.820733E+04  1.054129E+04 -5.738586E+00  4.051543E+04
       288  21 -2.340728E+04 -9.855028E+05 -6.407110E+04 -4.445607E+04  1.456996E+03  1.048428E+04
       288  22 -4.793786E+04 -9.208192E+05 -1.065022E+05 -3.926155E+04 -1.483383E+03  7.020035E+04
       288  23  1.248165E+04 -9.086667E+05 -5.746786E+04  9.090828E+03 -5.379481E+00  4.017285E+04
       288  24 -7.277369E+03 -9.207968E+05 -4.811044E+04 -3.920741E+04  1.457537E+03  1.014498E+04
       288  25 -6.256900E+04 -9.795652E+05 -1.209828E+05 -4.741101E+04 -1.483839E+03  6.985155E+04
       288  26  1.323096E+04 -9.056857E+05 -5.672840E+04  7.640355E+03 -5.018774E+00  3.983027E+04
       288  27  8.852331E+03 -8.560869E+05 -3.215008E+04 -3.395819E+04  1.458073E+03  9.805652E+03
       289   1 -8.090130E+04 -1.228037E+06 -1.217522E+05 -3.232331E+04 -3.927418E+03 -3.193690E+03
       289   2 -7.617160E+04 -1.274135E+06 -1.362211E+05  5.914511E+03 -6.608826E+03  2.294070E+04
       289   3 -1.705085E+05 -1.347925E+06 -1.924000E+05 -4.956526E+04 -2.487735E+03  4.907721E+04
       289   4 -4.282832E+03 -9.215165E+05 -4.563871E+04 -3.856360E+04 -3.929036E+03 -1.743865E+03
       289   5  1.530803E+04 -9.078223E+05 -4.555965E+04  8.287033E+03 -6.608361E+03  2.277259E+04
       289   6 -6.385492E+04 -9.215261E+05 -8.604794E+04 -3.857762E+04 -2.486220E+03  4.729375E+04
       289   7  7.232872E+04 -6.149101E+05  3.046779E+04 -4.480694E+04 -3.930683E+03 -2.933226E+02
       289   8  1.067776E+05 -5.413878E+05  4.509184E+04  1.066098E+04 -6.607899E+03  2.260438E+04
       289   9  4.278545E+04 -4.949618E+05  2.029047E+04 -2.758240E+04 -2.484769E+03  4.550905E+04
       289  10 -8.090132E+04 -1.228037E+06 -1.217523E+05 -3.232332E+04 -1.059658E-09 -8.442200E-11
       289  11 -7.617178E+04 -1.274135E+06 -1.362222E+05  5.914633E+03  2.547012E-09  2.773578E-11
       289  12 -1.705092E+05 -1.347928E+06 -1.924045E+05 -4.956517E+04 -1.963067E-10 -9.179500E-10
       289  13 -4.282849E+03 -9.215165E+05 -4.563874E+04 -3.856360E+04 -2.130177E-10  2.643909E-09
       289  14  1.530785E+04 -9.078229E+05 -4.556071E+04  8.287154E+03 -2.616933E-09  8.599319E-10
       289  15 -6.385552E+04 -9.215285E+05 -8.605216E+04 -3.857753E+04 -2.083973E-10  4.350691E-10
       289  16  7.232870E+04 -6.149101E+05  3.046776E+04 -4.480694E+04  3.044201E-10 -1.166070E-09
       289  17  1.067774E+05 -5.413883E+05  4.509080E+04  1.066110E+04 -6.495156E-10  1.320399E-09
       289  18  4.278488E+04 -4.949641E+05  2.028657E+04 -2.758230E+04 -4.261933E-10  9.911760E-10
       289  19 -8.090130E+04 -1.228037E+06 -1.217522E+05 -3.232331E+04  3.927418E+03  3.193690E+03
       289  20 -7.617160E+04 -1.274135E+06 -1.362211E+05  5.914511E+03  6.608826E+03 -2.294070E+04
       289  21 -1.705085E+05 -1.347925E+06 -1.924000E+05 -4.956526E+04  2.487735E+03 -4.907721E+04
       289  22 -4.282832E+03 -9.215165E+05 -4.563871E+04 -3.856360E+04  3.929036E+03  1.743865E+03
       289  23  1.530803E+04 -9.078223E+05 -4.555965E+04  8.287033E+03  6.608361E+03 -2.277259E+04
       289  24 -6.385492E+04 -9.215261E+05 -8.604794E+04 -3.857762E+04  2.486220E+03 -4.729375E+04
       289  25  7.232872E+04 -6.149101E+05  3.046779E+04 -4.480694E+04  3.930683E+03  2.933226E+02
       289  26  1.067776E+05 -5.413878E+05  4.509184E+04  1.066098E+04  6.607899E+03 -2.260438E+04
       289  27  4.278545E+04 -4.949618E+05  2.029047E+04 -2.758240E+04  2.484769E+03 -4.550905E+04
       290   1  3.178974E+05  9.491707E+04 -1.381188E+05  2.887723E+05 -8.546288E+04 -6.464245E+04
       290   2  3.716837E+05  2.243259E+05 -4.599116E+04  2.391419E+05 -5.556705E+04 -4.348951E+04
       290   3  3.494988E+05  2.138106E+05 -1.990525E+04  2.437340E+05 -2.610402E+04 -2.175863E+04
       290   4  2.429191E+05  7.405920E+04 -1.572145E+05  2.666928E+05 -8.571756E+04 -6.483778E+04
       290   5  3.035620E+05  1.842771E+05 -6.740080E+04  2.093824E+05 -5.568816E+04 -4.358114E+04
       290   6  2.881966E+05  1.545301E+05 -4.375188E+04  2.062975E+05 -2.609097E+04 -2.174821E+04
       290   7  1.679475E+05  5.320186E+04 -1.763105E+05  2.446150E+05 -8.597220E+04 -6.503310E+04
       290   8  2.354451E+05  1.442297E+05 -8.881102E+04  1.796261E+05 -5.580926E+04 -4.367275E+04
       290   9  2.268983E+05  9.525369E+04 -6.759922E+04  1.688658E+05 -2.607791E+04 -2.173779E+04
       290  10  3.178884E+05  9.491063E+04 -1.381403E+05  2.887678E+05 -5.145272E-10  2.865422E-11
       290  11  3.716799E+05  2.243230E+05 -4.600051E+04  2.391400E+05 -1.006546E-09  7.265828E-11
       290  12  3.494979E+05  2.138099E+05 -1.990742E+04  2.437335E+05 -2.699356E-09 -1.159635E-09
       290  13  2.429101E+05  7.405272E+04 -1.572362E+05  2.666883E+05 -2.291859E-10  4.158516E-10
       290  14  3.035582E+05  1.842742E+05 -6.741019E+04  2.093805E+05 -1.805236E-09  1.179414E-09
       290  15  2.881958E+05  1.545294E+05 -4.375405E+04  2.062971E+05 -1.248753E-09 -6.780354E-10
       290  16  1.679384E+05  5.319534E+04 -1.763323E+05  2.446105E+05  5.484603E-10  1.130643E-09
       290  17  2.354413E+05  1.442268E+05 -8.882045E+04  1.796242E+05 -7.024910E-10  1.054374E-09
       290  18  2.268975E+05  9.525300E+04 -6.760139E+04  1.688653E+05  3.136494E-10  6.147427E-12
       290  19  3.178974E+05  9.491707E+04 -1.381188E+05  2.887723E+05  8.546288E+04  6.464245E+04
       290  20  3.716837E+05  2.243259E+05 -4.599116E+04  2.391419E+05  5.556705E+04  4.348951E+04
       290  21  3.494988E+05  2.138106E+05 -1.990525E+04  2.437340E+05  2.610402E+04  2.175863E+04
       290  22  2.429191E+05  7.405920E+04 -1.572145E+05  2.666928E+05  8.571756E+04  6.483778E+04
       290  23  3.035620E+05  1.842771E+05 -6.740080E+04  2.093824E+05  5.568816E+04  4.358114E+04
       290  24  2.881966E+05  1.545301E+05 -4.375188E+04  2.062975E+05  2.609097E+04  2.174821E+04
       290  25  1.679475E+05  5.320186E+04 -1.763105E+05  2.446150E+05  8.597220E+04  6.503310E+04
       290  26  2.354451E+05  1.442297E+05 -8.881102E+04  1.796261E+05  5.580926E+04  4.367275E+04
       290  27  2.268983E+05  9.525369E+04 -6.759922E+04  1.688658E+05  2.607791E+04  2.173779E+04
       291   1  3.884116E+05  2.120456E+05 -2.199948E+03  2.694991E+05 -2.021970E+04 -1.747060E+04
       291   2  3.960339E+05  2.420037E+05  1.915842E+04  2.677544E+05 -1.275720E+04 -1.244000E+04
       291   3  4.062269E+05  2.383358E+05  2.869242E+04  2.695684E+05 -5.348796E+03 -7.336890E+03
       291   4  2.861771E+05  1.435593E+05 -3.605372E+04  2.210042E+05 -2.031267E+04 -1.754057E+04
       291   5  2.881302E+05  1.661184E+05 -1.723933E+04  2.149113E+05 -1.283420E+04 -1.249790E+04
       291   6  2.926486E+05  1.550455E+05 -1.026487E+04  2.123778E+05 -5.409921E+03 -7.382839E+03
       291   7  1.839539E+05  7.507789E+04 -6.990880E+04  1.725180E+05 -2.040561E+04 -1.761052E+04
       291   8  1.802387E+05  9.023907E+04 -5.363864E+04  1.620784E+05 -1.291119E+04 -1.255578E+04
       291   9  1.790837E+05  7.176253E+04 -4.922400E+04  1.551991E+05 -5.471030E+03 -7.428775E+03
       291  10  3.884110E+05  2.120451E+05 -2.201289E+03  2.694988E+05 -1.679516E-09 -8.708352E-10
       291  11  3.960337E+05  2.420035E+05  1.915783E+04  2.677543E+05 -2.028955E-10 -1.648722E-09
       291  12  4.062269E+05  2.383358E+05  2.869226E+04  2.695683E+05 -9.734743E-10 -6.975039E-10
       291  13  2.861766E+05  1.435589E+05 -3.605507E+04  2.210039E+05 -3.011978E-09 -2.186376E-09
       291  14  2.881300E+05  1.661182E+05 -1.723993E+04  2.149112E+05 -2.467412E-09 -1.102777E-09
       291  15  2.926486E+05  1.550455E+05 -1.026503E+04  2.123778E+05 -2.195010E-09 -1.342454E-09
       291  16  1.839533E+05  7.507745E+04 -6.991016E+04  1.725177E+05 -4.940218E-10 -1.956008E-09
       291  17  1.802385E+05  9.023885E+04 -5.363924E+04  1.620783E+05 -3.059762E-09 -2.693028E-09
       291  18  1.790837E+05  7.176246E+04 -4.922416E+04  1.551990E+05  4.066956E-10 -4.600469E-10
       291  19  3.884116E+05  2.120456E+05 -2.199948E+03  2.694991E+05  2.021970E+04  1.747060E+04
       291  20  3.960339E+05  2.420037E+05  1.915842E+04  2.677544E+05  1.275720E+04  1.244000E+04
       291  21  4.062269E+05  2.383358E+05  2.869242E+04  2.695684E+05  5.348796E+03  7.336890E+03
       291  22  2.861771E+05  1.435593E+05 -3.605372E+04  2.210042E+05  2.031267E+04  1.754057E+04
       291  23  2.881302E+05  1.661184E+05 -1.723933E+04  2.149113E+05  1.283420E+04  1.249790E+04
       291  24  2.926486E+05  1.550455E+05 -1.026487E+04  2.123778E+05  5.409921E+03  7.382839E+03
       291  25  1.839539E+05  7.507789E+04 -6.990880E+04  1.725180E+05  2.040561E+04  1.761052E+04
       291  26  1.802387E+05  9.023907E+04 -5.363864E+04  1.620784E+05  1.291119E+04  1.255578E+04
       291  27  1.790837E+05  7.176253E+04 -4.922400E+04  1.551991E+05  5.471030E+03  7.428775E+03
       292   1  4.391388E+05  2.572594E+05  4.171421E+04  2.866837E+05 -3.883850E+03 -6.516259E+03
       292   2  4.398750E+05  2.738409E+05  4.903061E+04  2.920887E+05 -2.280947E+03 -5.824864E+03
       292   3  4.562883E+05  2.715224E+05  5.464318E+04  2.935029E+05 -7.220129E+02 -5.074442E+03
       292   4  2.927005E+05  1.532483E+05 -7.919624E+03  2.145045E+05 -3.968346E+03 -6.579830E+03
       292   5  2.854260E+05  1.636964E+05 -3.368938E+03  2.157513E+05 -2.351661E+03 -5.878121E+03
       292   6  2.938261E+05  1.552404E+05 -5.343628E+02  2.130071E+05 -7.789774E+02 -5.117398E+03
       292   7  1.462842E+05  4.924803E+04 -5.755657E+04  1.423440E+05 -4.052814E+03 -6.643381E+03
       292   8  1.310019E+05  5.356445E+04 -5.577182E+04  1.394350E+05 -2.422350E+03 -5.931360E+03
       292   9  1.313916E+05  3.897274E+04 -5.571546E+04  1.325349E+05 -8.359211E+02 -5.160337E+03
       292  10  4.391388E+05  2.572594E+05  4.171410E+04  2.866837E+05 -6.472281E-10  6.065825E-10
       292  11  4.398749E+05  2.738408E+05  4.903054E+04  2.920887E+05 -3.228025E-09 -2.830454E-09
       292  12  4.562883E+05  2.715224E+05  5.464313E+04  2.935029E+05 -3.062268E-09 -9.178179E-10
       292  13  2.927005E+05  1.532482E+05 -7.919734E+03  2.145045E+05 -2.433571E-09  6.462512E-10
       292  14  2.854260E+05  1.636963E+05 -3.369013E+03  2.157512E+05 -1.684673E-09 -9.500862E-10
       292  15  2.938260E+05  1.552404E+05 -5.344131E+02  2.130071E+05  7.679184E-10 -9.118456E-10
       292  16  1.462842E+05  4.924798E+04 -5.755669E+04  1.423440E+05 -8.297891E-10 -9.824073E-10
       292  17  1.310019E+05  5.356441E+04 -5.577190E+04  1.394349E+05  1.233630E-09 -3.053982E-09
       292  18  1.313916E+05  3.897271E+04 -5.571551E+04  1.325349E+05  3.572481E-10  8.415363E-10
       292  19  4.391388E+05  2.572594E+05  4.171421E+04  2.866837E+05  3.883850E+03  6.516259E+03
       292  20  4.398750E+05  2.738409E+05  4.903061E+04  2.920887E+05  2.280947E+03  5.824864E+03
       292  21  4.562883E+05  2.715224E+05  5.464318E+04  2.935029E+05  7.220129E+02  5.074442E+03
       292  22  2.927005E+05  1.532483E+05 -7.919624E+03  2.145045E+05  3.968346E+03  6.579830E+03
       292  23  2.854260E+05  1.636964E+05 -3.368938E+03  2.157513E+05  2.351661E+03  5.878121E+03
       292  24  2.938261E+05  1.552404E+05 -5.343628E+02  2.130071E+05  7.789774E+02  5.117398E+03
       292  25  1.462842E+05  4.924803E+04 -5.755657E+04  1.423440E+05  4.052814E+03  6.643381E+03
       292  26  1.310019E+05  5.356445E+04 -5.577182E+04  1.394350E+05  2.422350E+03  5.931360E+03
       292  27  1.313916E+05  3.897274E+04 -5.571546E+04  1.325349E+05  8.359211E+02  5.160337E+03
       293   1  4.905786E+05  2.951967E+05  6.743293E+04  3.111787E+05 -4.222214E+02 -5.284073E+03
       293   2  4.898833E+05  3.101220E+05  7.304812E+04  3.179840E+05 -1.600893E+03 -6.782849E+03
       293   3  5.112351E+05  3.105061E+05  8.131620E+04  3.177243E+05 -3.167114E+03 -7.766722E+03
       293   4  2.941661E+05  1.543205E+05  6.060937E+02  2.137361E+05 -5.769094E+02 -5.400619E+03
       293   5  2.840100E+05  1.631086E+05  3.176809E+03  2.161357E+05 -1.631304E+03 -6.805915E+03
       293   6  2.958750E+05  1.573293E+05  8.293300E+03  2.114697E+05 -3.073296E+03 -7.696184E+03
       293   7  9.779375E+04  1.346488E+04 -6.622617E+04  1.163280E+05 -7.315301E+02 -5.517114E+03
       293   8  7.818056E+04  1.611743E+04 -6.670053E+04  1.143248E+05 -1.661702E+03 -6.828971E+03
       293   9  8.056263E+04  4.176245E+03 -6.473626E+04  1.052558E+05 -2.979522E+03 -7.625679E+03
       293  10  4.905786E+05  2.951967E+05  6.743288E+04  3.111787E+05 -7.536223E-10  2.848045E-09
       293  11  4.898833E+05  3.101219E+05  7.304803E+04  3.179840E+05  9.940006E-11  4.204555E-09
       293  12  5.112351E+05  3.105061E+05  8.131607E+04  3.177243E+05 -3.381679E-10 -2.136407E-09
       293  13  2.941661E+05  1.543205E+05  6.060383E+02  2.137361E+05 -1.051395E-09  1.974412E-09
       293  14  2.840100E+05  1.631086E+05  3.176717E+03  2.161356E+05 -1.266143E-09  2.650828E-09
       293  15  2.958750E+05  1.573292E+05  8.293171E+03  2.114696E+05 -3.565703E-10 -7.413023E-09
       293  16  9.779375E+04  1.346485E+04 -6.622623E+04  1.163280E+05 -1.621796E-09  1.017220E-09
       293  17  7.818055E+04  1.611738E+04 -6.670062E+04  1.143248E+05  6.167815E-10 -1.251178E-09
       293  18  8.056261E+04  4.176180E+03 -6.473639E+04  1.052557E+05  1.789963E-09 -2.680375E-09
       293  19  4.905786E+05  2.951967E+05  6.743293E+04  3.111787E+05  4.222214E+02  5.284073E+03
       293  20  4.898833E+05  3.101220E+05  7.304812E+04  3.179840E+05  1.600893E+03  6.782849E+03
       293  21  5.112351E+05  3.105061E+05  8.131620E+04  3.177243E+05  3.167114E+03  7.766722E+03
       293  22  2.941661E+05  1.543205E+05  6.060937E+02  2.137361E+05  5.769094E+02  5.400619E+03
       293  23  2.840100E+05  1.631086E+05  3.176809E+03  2.161357E+05  1.631304E+03  6.805915E+03
       293  24  2.958750E+05  1.573293E+05  8.293300E+03  2.114697E+05  3.073296E+03  7.696184E+03
       293  25  9.779375E+04  1.346488E+04 -6.622617E+04  1.163280E+05  7.315301E+02  5.517114E+03
       293  26  7.818056E+04  1.611743E+04 -6.670053E+04  1.143248E+05  1.661702E+03  6.828971E+03
       293  27  8.056263E+04  4.176245E+03 -6.473626E+04  1.052558E+05  2.979522E+03  7.625679E+03
       294   1  5.463031E+05  3.374399E+05  9.623895E+04  3.409239E+05 -3.121786E+03 -9.046128E+03
       294   2  5.434645E+05  3.463056E+05  1.055706E+05  3.476444E+05 -1.066514E+04 -1.589788E+04
       294   3  5.847610E+05  3.652566E+05  1.320846E+05  3.342150E+05 -2.124047E+04 -1.873482E+04
       294   4  2.958594E+05  1.541958E+05  1.035252E+04  2.150204E+05 -3.779661E+03 -9.542395E+03
       294   5  2.795232E+05  1.591230E+05  1.633743E+04  2.176403E+05 -1.035430E+04 -1.566360E+04
       294   6  3.071207E+05  1.739352E+05  3.866962E+04  2.001073E+05 -1.996143E+04 -1.776893E+04
       294   7  4.548156E+04 -2.901264E+04 -7.554265E+04  8.917439E+04 -4.437169E+03 -1.003838E+04
       294   8  1.565480E+04 -2.802329E+04 -7.290529E+04  8.769777E+04 -1.004364E+04 -1.542945E+04
       294   9  2.956075E+04 -1.734941E+04 -5.475585E+04  6.606523E+04 -1.868317E+04 -1.680361E+04
       294  10  5.463031E+05  3.374398E+05  9.623878E+04  3.409239E+05 -1.778103E-09 -3.580802E-09
       294  11  5.434643E+05  3.463053E+05  1.055699E+05  3.476442E+05 -2.161037E-09  2.385797E-09
       294  12  5.847605E+05  3.652561E+05  1.320831E+05  3.342147E+05 -1.017500E-09 -6.216304E-10
       294  13  2.958594E+05  1.541957E+05  1.035232E+04  2.150203E+05 -3.023294E-10 -4.175744E-09
       294  14  2.795230E+05  1.591227E+05  1.633677E+04  2.176402E+05 -1.819622E-09  5.588755E-09
       294  15  3.071202E+05  1.739347E+05  3.866828E+04  2.001070E+05 -1.007316E-09 -1.859454E-09
       294  16  4.548151E+04 -2.901275E+04 -7.554287E+04  8.917435E+04  1.701559E-09  2.214267E-09
       294  17  1.565463E+04 -2.802357E+04 -7.290593E+04  8.769764E+04 -7.593420E-11  7.796449E-10
       294  18  2.956030E+04 -1.734981E+04 -5.475703E+04  6.606498E+04  5.599493E-10  4.618420E-10
       294  19  5.463031E+05  3.374399E+05  9.623895E+04  3.409239E+05  3.121786E+03  9.046128E+03
       294  20  5.434645E+05  3.463056E+05  1.055706E+05  3.476444E+05  1.066514E+04  1.589788E+04
       294  21  5.847610E+05  3.652566E+05  1.320846E+05  3.342150E+05  2.124047E+04  1.873482E+04
       294  22  2.958594E+05  1.541958E+05  1.035252E+04  2.150204E+05  3.779661E+03  9.542395E+03
       294  23  2.795232E+05  1.591230E+05  1.633743E+04  2.176403E+05  1.035430E+04  1.566360E+04
       294  24  3.071207E+05  1.739352E+05  3.866962E+04  2.001073E+05  1.996143E+04  1.776893E+04
       294  25  4.548156E+04 -2.901264E+04 -7.554265E+04  8.917439E+04  4.437169E+03  1.003838E+04
       294  26  1.565480E+04 -2.802329E+04 -7.290529E+04  8.769777E+04  1.004364E+04  1.542945E+04
       294  27  2.956075E+04 -1.734941E+04 -5.475585E+04  6.606523E+04  1.868317E+04  1.680361E+04
       295   1  6.134658E+06  5.563761E+05  5.822825E+05  1.620206E+05  8.550367E+04 -1.031832E+04
       295   2  5.925667E+06  3.967592E+05  4.668032E+05  9.574316E+03  4.997674E+04 -2.929705E+04
       295   3  5.765105E+06  3.721606E+05  4.101020E+05  1.439951E+05  1.433422E+04 -2.136545E+04
       295   4  4.265350E+06  9.197306E+04  1.193209E+05  1.424043E+05  7.753833E+04 -1.034831E+04
       295   5  4.241673E+06 -2.102280E+04  5.280358E+04 -8.985080E+02  4.859822E+04 -2.930959E+04
       295   6  4.265345E+06  4.249024E+01  4.063120E+04  1.427105E+05  1.953149E+04 -2.132979E+04
       295   7  2.399182E+06 -3.726885E+05 -3.438996E+05  1.228438E+05  6.959648E+04 -1.037785E+04
       295   8  2.560233E+06 -4.390139E+05 -3.614041E+05 -1.134647E+04  4.722327E+04 -2.932212E+04
       295   9  2.767610E+06 -3.722419E+05 -3.290050E+05  1.414250E+05  2.471626E+04 -2.129412E+04
       295  10  6.134651E+06  5.563741E+05  5.822687E+05  1.620213E+05  3.743763E-10  2.244185E-09
       295  11  5.925664E+06  3.967576E+05  4.667970E+05  9.575492E+03  1.739034E-09 -2.825817E-09
       295  12  5.765104E+06  3.721600E+05  4.101008E+05  1.439954E+05  5.508336E-09 -1.383981E-08
       295  13  4.265343E+06  9.197135E+04  1.193095E+05  1.424050E+05  1.980968E-09  4.988095E-09
       295  14  4.241670E+06 -2.102435E+04  5.279755E+04 -8.973625E+02 -1.376581E-09  4.907303E-10
       295  15  4.265344E+06  4.189902E+01  4.062963E+04  1.427109E+05  3.494826E-09  1.502238E-09
       295  16  2.399177E+06 -3.726899E+05 -3.439088E+05  1.228443E+05  6.018030E-10  3.400314E-09
       295  17  2.560231E+06 -4.390154E+05 -3.614099E+05 -1.134536E+04 -6.768977E-09 -1.018096E-08
       295  18  2.767609E+06 -3.722425E+05 -3.290070E+05  1.414255E+05 -3.826615E-09 -1.693480E-08
       295  19  6.134658E+06  5.563761E+05  5.822825E+05  1.620206E+05 -8.550367E+04  1.031832E+04
       295  20  5.925667E+06  3.967592E+05  4.668032E+05  9.574316E+03 -4.997674E+04  2.929705E+04
       295  21  5.765105E+06  3.721606E+05  4.101020E+05  1.439951E+05 -1.433422E+04  2.136545E+04
       295  22  4.265350E+06  9.197306E+04  1.193209E+05  1.424043E+05 -7.753833E+04  1.034831E+04
       295  23  4.241673E+06 -2.102280E+04  5.280358E+04 -8.985080E+02 -4.859822E+04  2.930959E+04
       295  24  4.265345E+06  4.249024E+01  4.063120E+04  1.427105E+05 -1.953149E+04  2.132979E+04
       295  25  2.399182E+06 -3.726885E+05 -3.438996E+05  1.228438E+05 -6.959648E+04  1.037785E+04
       295  26  2.560233E+06 -4.390139E+05 -3.614041E+05 -1.134647E+04 -4.722327E+04  2.932212E+04
       295  27  2.767610E+06 -3.722419E+05 -3.290050E+05  1.414250E+05 -2.471626E+04  2.129412E+04
       296   1  5.157471E+06  2.371465E+05  2.580813E+05  1.319474E+05  1.232133E+04 -1.389500E+04
       296   2  5.023263E+06  1.866063E+05  2.185267E+05  2.811152E+04 -3.224022E+03 -1.223470E+04
       296   3  4.897717E+06  1.695581E+05  1.970521E+05  1.264986E+05 -1.879920E+04 -8.049703E+03
       296   4  4.257176E+06  1.357616E+04  3.635240E+04  1.237336E+05  1.243668E+04 -1.389537E+04
       296   5  4.252869E+06 -4.685251E+03  2.881537E+04  2.261948E+04 -2.481416E+03 -1.222884E+04
       296   6  4.257113E+06  1.045790E+04  3.894199E+04  1.237434E+05 -1.743255E+04 -8.036325E+03
       296   7  3.357610E+06 -2.100540E+05 -1.854361E+05  1.155300E+05  1.255186E+04 -1.389573E+04
       296   8  3.483010E+06 -1.960206E+05 -1.609396E+05  1.713298E+04 -1.739722E+03 -1.222299E+04
       296   9  3.616878E+06 -1.486727E+05 -1.191984E+05  1.209900E+05 -1.606730E+04 -8.022953E+03
       296  10  5.157471E+06  2.371463E+05  2.580806E+05  1.319476E+05  1.833457E-09 -2.357520E-08
       296  11  5.023263E+06  1.866061E+05  2.185264E+05  2.811149E+04  3.381031E-09  1.666115E-09
       296  12  4.897716E+06  1.695580E+05  1.970513E+05  1.264985E+05 -6.892711E-09  1.777256E-08
       296  13  4.257175E+06  1.357591E+04  3.635174E+04  1.237337E+05  2.878663E-10 -1.707590E-08
       296  14  4.252869E+06 -4.685414E+03  2.881508E+04  2.261946E+04 -2.527088E-09 -8.756268E-09
       296  15  4.257112E+06  1.045775E+04  3.894130E+04  1.237433E+05 -1.850741E-09 -1.162631E-09
       296  16  3.357610E+06 -2.100543E+05 -1.854367E+05  1.155301E+05 -2.100082E-09 -6.835604E-09
       296  17  3.483010E+06 -1.960208E+05 -1.609399E+05  1.713296E+04 -3.123244E-09 -8.822710E-09
       296  18  3.616878E+06 -1.486729E+05 -1.191990E+05  1.209899E+05  8.268957E-09  9.938978E-09
       296  19  5.157471E+06  2.371465E+05  2.580813E+05  1.319474E+05 -1.232133E+04  1.389500E+04
       296  20  5.023263E+06  1.866063E+05  2.185267E+05  2.811152E+04  3.224022E+03  1.223470E+04
       296  21  4.897717E+06  1.695581E+05  1.970521E+05  1.264986E+05  1.879920E+04  8.049703E+03
       296  22  4.257176E+06  1.357616E+04  3.635240E+04  1.237336E+05 -1.243668E+04  1.389537E+04
       296  23  4.252869E+06 -4.685251E+03  2.881537E+04  2.261948E+04  2.481416E+03  1.222884E+04
       296  24  4.257113E+06  1.045790E+04  3.894199E+04  1.237434E+05  1.743255E+04  8.036325E+03
       296  25  3.357610E+06 -2.100540E+05 -1.854361E+05  1.155300E+05 -1.255186E+04  1.389573E+04
       296  26  3.483010E+06 -1.960206E+05 -1.609396E+05  1.713298E+04  1.739722E+03  1.222299E+04
       296  27  3.616878E+06 -1.486727E+05 -1.191984E+05  1.209900E+05  1.606730E+04  8.022953E+03
       297   1  4.441197E+06  4.619795E+04  8.921457E+04  1.240123E+05 -2.615468E+04 -5.017734E+03
       297   2  4.318724E+06  3.765435E+03  8.328180E+04  2.904276E+04 -6.036110E+04 -1.528541E+03
       297   3  4.219058E+06  5.300982E+04  1.215016E+05  1.067384E+05 -9.454886E+04  6.168786E+02
       297   4  4.260443E+06  1.220913E+03  4.495472E+04  1.174130E+05 -2.506203E+04 -5.006139E+03
       297   5  4.248937E+06 -1.351893E+04  6.606797E+04  3.074987E+04 -5.958986E+04 -1.520659E+03
       297   6  4.260279E+06  6.347753E+04  1.315559E+05  1.167517E+05 -9.410505E+04  6.201405E+02
       297   7  4.079719E+06 -4.375839E+04  6.925083E+02  1.108154E+05 -2.396969E+04 -4.994567E+03
       297   8  4.179155E+06 -3.080364E+04  4.885379E+04  3.245677E+04 -5.881870E+04 -1.512773E+03
       297   9  4.301501E+06  7.394548E+04  1.416102E+05  1.267656E+05 -9.366121E+04  6.234166E+02
       297  10  4.441196E+06  4.619774E+04  8.921325E+04  1.240122E+05  1.187365E-09  2.458229E-08
       297  11  4.318720E+06  3.764462E+03  8.327499E+04  2.904269E+04  1.182294E-09  1.550103E-08
       297  12  4.219048E+06  5.300744E+04  1.214849E+05  1.067385E+05  3.588210E-09 -6.766288E-10
       297  13  4.260443E+06  1.220719E+03  4.495350E+04  1.174129E+05 -2.354549E-09 -2.382618E-09
       297  14  4.248933E+06 -1.351988E+04  6.606134E+04  3.074979E+04 -3.131780E-09  1.454314E-08
       297  15  4.260269E+06  6.347517E+04  1.315394E+05  1.167518E+05  1.534591E-09  2.417352E-08
       297  16  4.079719E+06 -4.375857E+04  6.913888E+02  1.108153E+05 -7.666567E-10  2.283521E-08
       297  17  4.179151E+06 -3.080456E+04  4.884732E+04  3.245670E+04 -4.129855E-09  1.835262E-08
       297  18  4.301492E+06  7.394314E+04  1.415939E+05  1.267657E+05 -3.638974E-09  1.961531E-08
       297  19  4.441197E+06  4.619795E+04  8.921457E+04  1.240123E+05  2.615468E+04  5.017734E+03
       297  20  4.318724E+06  3.765435E+03  8.328180E+04  2.904276E+04  6.036110E+04  1.528541E+03
       297  21  4.219058E+06  5.300982E+04  1.215016E+05  1.067384E+05  9.454886E+04 -6.168786E+02
       297  22  4.260443E+06  1.220913E+03  4.495472E+04  1.174130E+05  2.506203E+04  5.006139E+03
       297  23  4.248937E+06 -1.351893E+04  6.606797E+04  3.074987E+04  5.958986E+04  1.520659E+03
       297  24  4.260279E+06  6.347753E+04  1.315559E+05  1.167517E+05  9.410505E+04 -6.201405E+02
       297  25  4.079719E+06 -4.375839E+04  6.925083E+02  1.108154E+05  2.396969E+04  4.994567E+03
       297  26  4.179155E+06 -3.080364E+04  4.885379E+04  3.245677E+04  5.881870E+04  1.512773E+03
       297  27  4.301501E+06  7.394548E+04  1.416102E+05  1.267656E+05  9.366121E+04 -6.234166E+02
       298   1  3.803687E+06 -1.346710E+05  3.809434E+04  1.522464E+05 -1.228880E+05  4.562089E+03
       298   2  3.598043E+06 -2.458870E+05  9.159731E+04  2.965732E+03 -2.520635E+05  8.599157E+03
       298   3  3.558210E+06  2.507502E+05  3.803199E+05  4.205856E+04 -3.810912E+05  8.564404E+02
       298   4  4.292254E+06 -1.409348E+04  1.586048E+05  1.220783E+05 -1.202474E+05  4.596173E+03
       298   5  4.208782E+06 -9.369532E+04  2.419919E+05  2.587774E+04 -2.523833E+05  8.587929E+03
       298   6  4.291415E+06  4.347337E+05  5.624602E+05  1.180352E+05 -3.843971E+05  7.831512E+02
       298   7  4.781039E+06  1.064702E+05  2.790982E+05  9.188596E+04 -1.176047E+05  4.629987E+03
       298   8  4.819857E+06  5.847042E+04  3.923591E+05  4.881138E+04 -2.527032E+05  8.576688E+03
       298   9  5.025116E+06  6.186975E+05  7.445632E+05  1.941001E+05 -3.877066E+05  7.091219E+02
       298  10  3.803671E+06 -1.346750E+05  3.806609E+04  1.522468E+05  1.166506E-08  3.914198E-10
       298  11  3.597975E+06 -2.459040E+05  9.147848E+04  2.967476E+03  8.406977E-09  2.405760E-08
       298  12  3.558055E+06  2.507115E+05  3.800486E+05  4.205883E+04  1.051055E-09  9.136343E-09
       298  13  4.292239E+06 -1.409735E+04  1.585777E+05  1.220787E+05 -4.528260E-10  7.964985E-09
       298  14  4.208713E+06 -9.371235E+04  2.418728E+05  2.587948E+04  8.308732E-11  1.432337E-08
       298  15  4.291257E+06  4.346944E+05  5.621845E+05  1.180355E+05  1.643738E-10 -7.254728E-09
       298  16  4.781024E+06  1.064665E+05  2.790724E+05  9.188640E+04 -1.279176E-08  1.182948E-08
       298  17  4.819789E+06  5.845336E+04  3.922399E+05  4.881312E+04 -7.465323E-09 -1.650315E-08
       298  18  5.024955E+06  6.186575E+05  7.442830E+05  1.941003E+05  1.122231E-09 -1.518133E-08
       298  19  3.803687E+06 -1.346710E+05  3.809434E+04  1.522464E+05  1.228880E+05 -4.562089E+03
       298  20  3.598043E+06 -2.458870E+05  9.159731E+04  2.965732E+03  2.520635E+05 -8.599157E+03
       298  21  3.558210E+06  2.507502E+05  3.803199E+05  4.205856E+04  3.810912E+05 -8.564404E+02
       298  22  4.292254E+06 -1.409348E+04  1.586048E+05  1.220783E+05  1.202474E+05 -4.596173E+03
       298  23  4.208782E+06 -9.369532E+04  2.419919E+05  2.587774E+04  2.523833E+05 -8.587929E+03
       298  24  4.291415E+06  4.347337E+05  5.624602E+05  1.180352E+05  3.843971E+05 -7.831512E+02
       298  25  4.781039E+06  1.064702E+05  2.790982E+05  9.188596E+04  1.176047E+05 -4.629987E+03
       298  26  4.819857E+06  5.847042E+04  3.923591E+05  4.881138E+04  2.527032E+05 -8.576688E+03
       298  27  5.025116E+06  6.186975E+05  7.445632E+05  1.941001E+05  3.877066E+05 -7.091219E+02
       299   1 -2.958221E+05  1.687966E+06 -3.973779E+05  4.270853E+04  1.953188E+03 -3.139467E+05
       299   2  1.237520E+05  1.740793E+06 -1.389805E+05  1.224497E+04  4.030752E+03 -2.118250E+05
       299   3  6.359285E+04  1.660587E+06 -6.679883E+04 -3.977932E+04  3.088170E+03 -1.097154E+05
       299   4 -3.483588E+05  1.475962E+06 -4.500364E+05 -1.352735E+04  1.983847E+03 -3.147908E+05
       299   5  7.445362E+04  1.542403E+06 -1.879300E+05 -2.292922E+03  4.036316E+03 -2.119774E+05
       299   6  1.732407E+04  1.475643E+06 -1.125650E+05 -1.261619E+04  3.081907E+03 -1.091737E+05
       299   7 -4.008870E+05  1.264005E+06 -5.026966E+05 -6.974405E+04  2.014666E+03 -3.156345E+05
       299   8  2.515312E+04  1.344049E+06 -2.368824E+05 -1.682615E+04  4.041889E+03 -2.121297E+05
       299   9 -2.894453E+04  1.290732E+06 -1.583333E+05  1.453888E+04  3.075689E+03 -1.086322E+05
       299  10 -2.958485E+05  1.687860E+06 -3.975626E+05  4.270902E+04  1.264908E-09  1.291136E-09
       299  11  1.237400E+05  1.740745E+06 -1.390646E+05  1.224566E+04  2.014449E-09 -9.886857E-09
       299  12  6.358962E+04  1.660575E+06 -6.682141E+04 -3.977905E+04 -1.684891E-09 -2.327841E-09
       299  13 -3.483853E+05  1.475855E+06 -4.502222E+05 -1.352685E+04  1.430248E-09 -2.390267E-09
       299  14  7.444157E+04  1.542355E+06 -1.880143E+05 -2.292233E+03  1.799369E-09  2.765781E-10
       299  15  1.732087E+04  1.475630E+06 -1.125873E+05 -1.261592E+04 -6.371250E-10 -5.882319E-10
       299  16 -4.009136E+05  1.263898E+06 -5.028834E+05 -6.974354E+04  1.671237E-09  1.422025E-09
       299  17  2.514105E+04  1.344001E+06 -2.369668E+05 -1.682546E+04  3.516425E-09 -3.232364E-09
       299  18 -2.894770E+04  1.290719E+06 -1.583554E+05  1.453915E+04 -4.224128E-10  4.623124E-09
       299  19 -2.958221E+05  1.687966E+06 -3.973779E+05  4.270853E+04 -1.953188E+03  3.139467E+05
       299  20  1.237520E+05  1.740793E+06 -1.389805E+05  1.224497E+04 -4.030752E+03  2.118250E+05
       299  21  6.359285E+04  1.660587E+06 -6.679883E+04 -3.977932E+04 -3.088170E+03  1.097154E+05
       299  22 -3.483588E+05  1.475962E+06 -4.500364E+05 -1.352735E+04 -1.983847E+03  3.147908E+05
       299  23  7.445362E+04  1.542403E+06 -1.879300E+05 -2.292922E+03 -4.036316E+03  2.119774E+05
       299  24  1.732407E+04  1.475643E+06 -1.125650E+05 -1.261619E+04 -3.081907E+03  1.091737E+05
       299  25 -4.008870E+05  1.264005E+06 -5.026966E+05 -6.974405E+04 -2.014666E+03  3.156345E+05
       299  26  2.515312E+04  1.344049E+06 -2.368824E+05 -1.682615E+04 -4.041889E+03  2.121297E+05
       299  27 -2.894453E+04  1.290732E+06 -1.583333E+05  1.453888E+04 -3.075689E+03  1.086322E+05
       300   1 -1.622568E+04  1.641489E+06 -5.250505E+04 -6.955607E+03  2.343646E+03 -9.130581E+04
       300   2  3.630408E+04  1.635118E+06  1.026745E+04 -9.019474E+02  2.281821E+03 -8.031324E+04
       300   3  5.939443E+04  1.619911E+06  5.853001E+04 -1.166582E+04  1.803412E+03 -6.932210E+04
       300   4 -5.059610E+04  1.503351E+06 -8.664995E+04 -1.202046E+04  2.344556E+03 -9.133562E+04
       300   5  4.600028E+03  1.507739E+06 -2.120164E+04 -3.482519E+03  2.282001E+03 -8.024542E+04
       300   6  3.033619E+04  1.503270E+06  2.966614E+04 -1.176236E+04  1.802913E+03 -6.915646E+04
       300   7 -8.496784E+04  1.365231E+06 -1.207963E+05 -1.708418E+04  2.345467E+03 -9.136542E+04
       300   8 -2.710520E+04  1.380374E+06 -5.267192E+04 -6.062550E+03  2.282181E+03 -8.017761E+04
       300   9  1.276937E+03  1.386641E+06  8.012548E+02 -1.185888E+04  1.802414E+03 -6.899084E+04
       300  10 -1.622792E+04  1.641480E+06 -5.252068E+04 -6.955435E+03 -1.992736E-09  3.523128E-10
       300  11  3.630235E+04  1.635111E+06  1.025535E+04 -9.017999E+02  1.143957E-09 -1.256455E-08
       300  12  5.939314E+04  1.619906E+06  5.852100E+04 -1.166572E+04 -1.737259E-09 -2.856012E-09
       300  13 -5.059834E+04  1.503342E+06 -8.666560E+04 -1.202029E+04 -1.371210E-09 -3.327446E-09
       300  14  4.598299E+03  1.507732E+06 -2.121372E+04 -3.482372E+03 -5.390350E-10  1.886250E-12
       300  15  3.033491E+04  1.503265E+06  2.965717E+04 -1.176226E+04 -3.040957E-09 -1.019856E-09
       300  16 -8.497008E+04  1.365222E+06 -1.208119E+05 -1.708401E+04 -1.717311E-09  2.482612E-09
       300  17 -2.710693E+04  1.380367E+06 -5.268399E+04 -6.062403E+03 -2.656172E-09 -3.023859E-09
       300  18  1.275659E+03  1.386636E+06  7.923240E+02 -1.185878E+04 -3.894373E-09  5.693232E-09
       300  19 -1.622568E+04  1.641489E+06 -5.250505E+04 -6.955607E+03 -2.343646E+03  9.130581E+04
       300  20  3.630408E+04  1.635118E+06  1.026745E+04 -9.019474E+02 -2.281821E+03  8.031324E+04
       300  21  5.939443E+04  1.619911E+06  5.853001E+04 -1.166582E+04 -1.803412E+03  6.932210E+04
       300  22 -5.059610E+04  1.503351E+06 -8.664995E+04 -1.202046E+04 -2.344556E+03  9.133562E+04
       300  23  4.600028E+03  1.507739E+06 -2.120164E+04 -3.482519E+03 -2.282001E+03  8.024542E+04
       300  24  3.033619E+04  1.503270E+06  2.966614E+04 -1.176236E+04 -1.802913E+03  6.915646E+04
       300  25 -8.496784E+04  1.365231E+06 -1.207963E+05 -1.708418E+04 -2.345467E+03  9.136542E+04
       300  26 -2.710520E+04  1.380374E+06 -5.267192E+04 -6.062550E+03 -2.282181E+03  8.017761E+04
       300  27  1.276937E+03  1.386641E+06  8.012548E+02 -1.185888E+04 -1.802414E+03  6.899084E+04
       301   1  4.924229E+03  1.599456E+06  6.820996E+04 -2.632936E+04  1.652003E+03 -7.619262E+04
       301   2 -2.462728E+04  1.553240E+06  1.179649E+05  4.251236E+03  1.597166E+03 -1.317554E+05
       301   3  2.145812E+05  1.581294E+06  2.710083E+05  2.119695E+04  1.005012E+03 -1.873176E+05
       301   4 -1.454423E+04  1.521787E+06  4.901797E+04 -1.144128E+04  1.650215E+03 -7.619222E+04
       301   5 -4.165172E+04  1.484584E+06  1.010224E+05 -4.236466E+03  1.598536E+03 -1.316217E+05
       301   6  1.999907E+05  1.521631E+06  2.562295E+05 -1.066707E+04  1.013688E+03 -1.870512E+05
       301   7 -3.401232E+04  1.444125E+06  2.982565E+04  3.444939E+03  1.648426E+03 -7.619183E+04
       301   8 -5.867624E+04  1.415931E+06  8.407959E+04 -1.272323E+04  1.599903E+03 -1.314879E+05
       301   9  1.854039E+05  1.461973E+06  2.414511E+05 -4.252804E+04  1.022336E+03 -1.867849E+05
       301  10  4.922672E+03  1.599450E+06  6.819907E+04 -2.632926E+04 -1.982692E-09  1.038306E-09
       301  11 -2.463193E+04  1.553222E+06  1.179323E+05  4.251406E+03  4.726602E-09 -1.204483E-08
       301  12  2.145718E+05  1.581256E+06  2.709425E+05  2.119711E+04  9.365628E-10 -4.642898E-10
       301  13 -1.454579E+04  1.521781E+06  4.900708E+04 -1.144118E+04 -2.100787E-09 -3.852277E-09
       301  14 -4.165636E+04  1.484565E+06  1.009899E+05 -4.236296E+03  1.639299E-09  2.771442E-10
       301  15  1.999814E+05  1.521593E+06  2.561639E+05 -1.066692E+04  3.299805E-09 -9.859770E-10
       301  16 -3.401388E+04  1.444118E+06  2.981476E+04  3.445040E+03 -3.599134E-09  2.525577E-09
       301  17 -5.868087E+04  1.415913E+06  8.404717E+04 -1.272306E+04  4.295454E-09 -5.670757E-09
       301  18  1.853945E+05  1.461936E+06  2.413856E+05 -4.252789E+04  1.980962E-09  3.094567E-09
       301  19  4.924229E+03  1.599456E+06  6.820996E+04 -2.632936E+04 -1.652003E+03  7.619262E+04
       301  20 -2.462728E+04  1.553240E+06  1.179649E+05  4.251236E+03 -1.597166E+03  1.317554E+05
       301  21  2.145812E+05  1.581294E+06  2.710083E+05  2.119695E+04 -1.005012E+03  1.873176E+05
       301  22 -1.454423E+04  1.521787E+06  4.901797E+04 -1.144128E+04 -1.650215E+03  7.619222E+04
       301  23 -4.165172E+04  1.484584E+06  1.010224E+05 -4.236466E+03 -1.598536E+03  1.316217E+05
       301  24  1.999907E+05  1.521631E+06  2.562295E+05 -1.066707E+04 -1.013688E+03  1.870512E+05
       301  25 -3.401232E+04  1.444125E+06  2.982565E+04  3.444939E+03 -1.648426E+03  7.619183E+04
       301  26 -5.867624E+04  1.415931E+06  8.407959E+04 -1.272323E+04 -1.599903E+03  1.314879E+05
       301  27  1.854039E+05  1.461973E+06  2.414511E+05 -4.252804E+04 -1.022336E+03  1.867849E+05
       302   1  4.150598E+06  2.762097E+06  5.990800E+05  2.851747E+06  1.868122E+05  1.333029E+05
       302   2  4.036317E+06  2.386165E+06  3.841096E+05  2.908515E+06  1.279846E+05  7.527111E+04
       302   3  3.963355E+06  2.429140E+06  3.120408E+05  2.887708E+06  5.995354E+04  2.943677E+04
       302   4  3.401764E+06  2.156670E+06  3.305808E+05  2.448066E+06  1.830422E+05  1.304384E+05
       302   5  3.333777E+06  1.863685E+06  1.429456E+05  2.550315E+06  1.272546E+05  7.471365E+04
       302   6  3.306652E+06  1.989201E+06  9.575394E+04  2.574922E+06  6.225095E+04  3.118021E+04
       302   7  2.653505E+06  1.551644E+06  6.199471E+04  2.044953E+06  1.792782E+05  1.275791E+05
       302   8  2.631746E+06  1.341491E+06 -9.828887E+04  2.192571E+06  1.265256E+05  7.415699E+04
       302   9  2.650399E+06  1.549455E+06 -1.205888E+05  2.262492E+06  6.454497E+04  3.292131E+04
       302  10  4.150556E+06  2.762069E+06  5.989820E+05  2.851727E+06  2.514965E-09 -2.492237E-09
       302  11  4.036298E+06  2.386155E+06  3.840686E+05  2.908507E+06  3.793589E-09 -3.453810E-09
       302  12  3.963351E+06  2.429138E+06  3.120325E+05  2.887706E+06 -3.845569E-09 -1.154216E-08
       302  13  3.401724E+06  2.156643E+06  3.304866E+05  2.448047E+06  2.744099E-09  6.486505E-09
       302  14  3.333758E+06  1.863675E+06  1.429050E+05  2.550308E+06  5.479145E-09  1.101515E-09
       302  15  3.306648E+06  1.989199E+06  9.574491E+04  2.574921E+06  3.382500E-10  4.794118E-09
       302  16  2.653466E+06  1.551618E+06  6.190433E+04  2.044934E+06 -1.802109E-10  6.804292E-10
       302  17  2.631728E+06  1.341481E+06 -9.832901E+04  2.192564E+06  6.760576E-09  1.668235E-09
       302  18  2.650394E+06  1.549453E+06 -1.205986E+05  2.262490E+06  1.317073E-09  1.002152E-08
       302  19  4.150598E+06  2.762097E+06  5.990800E+05  2.851747E+06 -1.868122E+05 -1.333029E+05
       302  20  4.036317E+06  2.386165E+06  3.841096E+05  2.908515E+06 -1.279846E+05 -7.527111E+04
       302  21  3.963355E+06  2.429140E+06  3.120408E+05  2.887708E+06 -5.995354E+04 -2.943677E+04
       302  22  3.401764E+06  2.156670E+06  3.305808E+05  2.448066E+06 -1.830422E+05 -1.304384E+05
       302  23  3.333777E+06  1.863685E+06  1.429456E+05  2.550315E+06 -1.272546E+05 -7.471365E+04
       302  24  3.306652E+06  1.989201E+06  9.575394E+04  2.574922E+06 -6.225095E+04 -3.118021E+04
       302  25  2.653505E+06  1.551644E+06  6.199471E+04  2.044953E+06 -1.792782E+05 -1.275791E+05
       302  26  2.631746E+06  1.341491E+06 -9.828887E+04  2.192571E+06 -1.265256E+05 -7.415699E+04
       302  27  2.650399E+06  1.549455E+06 -1.205888E+05  2.262492E+06 -6.454497E+04 -3.292131E+04
       303   1  3.730041E+06  2.299324E+06  2.200736E+05  2.747035E+06  4.707734E+04  2.489799E+04
       303   2  3.713976E+06  2.184909E+06  1.687035E+05  2.727517E+06  2.795705E+04  1.127137E+04
       303   3  3.635623E+06  2.204226E+06  1.461961E+05  2.716524E+06  8.049638E+03 -1.320698E+03
       303   4  3.324497E+06  1.997242E+06  8.054551E+04  2.540122E+06  4.706415E+04  2.488675E+04
       303   5  3.349349E+06  1.919401E+06  4.448704E+04  2.544240E+06  2.820837E+04  1.146181E+04
       303   6  3.311868E+06  1.975259E+06  3.708047E+04  2.556877E+06  8.563519E+03 -9.298735E+02
       303   7  2.919122E+06  1.695257E+06 -5.900616E+04  2.333361E+06  4.705096E+04  2.487551E+04
       303   8  2.984859E+06  1.653966E+06 -7.974831E+04  2.361082E+06  2.845949E+04  1.165209E+04
       303   9  2.988220E+06  1.746345E+06 -7.204984E+04  2.397322E+06  9.077033E+03 -5.393198E+02
       303  10  3.730038E+06  2.299323E+06  2.200683E+05  2.747034E+06  5.897036E-09 -2.536663E-09
       303  11  3.713975E+06  2.184909E+06  1.687018E+05  2.727517E+06  6.179696E-09 -1.315998E-08
       303  12  3.635623E+06  2.204226E+06  1.461960E+05  2.716524E+06 -6.946902E-09 -4.758540E-09
       303  13  3.324494E+06  1.997241E+06  8.054022E+04  2.540121E+06 -1.124388E-09 -1.994759E-09
       303  14  3.349348E+06  1.919401E+06  4.448531E+04  2.544239E+06  1.080187E-08 -2.238399E-09
       303  15  3.311868E+06  1.975259E+06  3.708033E+04  2.556877E+06  1.179287E-09  6.045783E-09
       303  16  2.919120E+06  1.695255E+06 -5.901145E+04  2.333360E+06 -4.785167E-09  3.608527E-09
       303  17  2.984858E+06  1.653966E+06 -7.975007E+04  2.361082E+06  1.372881E-08 -1.022728E-09
       303  18  2.988220E+06  1.746345E+06 -7.205000E+04  2.397322E+06  8.025334E-09 -1.883051E-09
       303  19  3.730041E+06  2.299324E+06  2.200736E+05  2.747035E+06 -4.707734E+04 -2.489799E+04
       303  20  3.713976E+06  2.184909E+06  1.687035E+05  2.727517E+06 -2.795705E+04 -1.127137E+04
       303  21  3.635623E+06  2.204226E+06  1.461961E+05  2.716524E+06 -8.049638E+03  1.320698E+03
       303  22  3.324497E+06  1.997242E+06  8.054551E+04  2.540122E+06 -4.706415E+04 -2.488675E+04
       303  23  3.349349E+06  1.919401E+06  4.448704E+04  2.544240E+06 -2.820837E+04 -1.146181E+04
       303  24  3.311868E+06  1.975259E+06  3.708047E+04  2.556877E+06 -8.563519E+03  9.298735E+02
       303  25  2.919122E+06  1.695257E+06 -5.900616E+04  2.333361E+06 -4.705096E+04 -2.487551E+04
       303  26  2.984859E+06  1.653966E+06 -7.974831E+04  2.361082E+06 -2.845949E+04 -1.165209E+04
       303  27  2.988220E+06  1.746345E+06 -7.204984E+04  2.397322E+06 -9.077033E+03  5.393198E+02
       304   1  3.493896E+06  2.100736E+06  9.661390E+04  2.642064E+06  2.152741E+03 -4.156195E+03
       304   2  3.490700E+06  2.036327E+06  9.001033E+04  2.619018E+06 -1.506192E+04 -1.535538E+04
       304   3  3.441284E+06  2.059138E+06  1.043290E+05  2.603933E+06 -3.215470E+04 -2.671391E+04
       304   4  3.318565E+06  1.970325E+06  3.645025E+04  2.552689E+06  2.463969E+03 -3.919339E+03
       304   5  3.343898E+06  1.930562E+06  4.020051E+04  2.545749E+06 -1.478453E+04 -1.514415E+04
       304   6  3.323018E+06  1.978029E+06  6.490654E+04  2.546767E+06 -3.191218E+04 -2.652931E+04
       304   7  3.143267E+06  1.839933E+06 -2.371763E+04  2.463342E+06  2.775077E+03 -3.682578E+03
       304   8  3.197118E+06  1.824808E+06 -9.612250E+03  2.472499E+06 -1.450724E+04 -1.493299E+04
       304   9  3.204767E+06  1.896927E+06  2.548221E+04  2.489613E+06 -3.166971E+04 -2.634475E+04
       304  10  3.493896E+06  2.100736E+06  9.661386E+04  2.642064E+06  3.026723E-09  2.771967E-09
       304  11  3.490700E+06  2.036327E+06  9.000947E+04  2.619018E+06  5.954688E-09 -2.634618E-08
       304  12  3.441283E+06  2.059137E+06  1.043257E+05  2.603932E+06 -3.401351E-09 -1.778855E-08
       304  13  3.318565E+06  1.970325E+06  3.645021E+04  2.552689E+06  3.910438E-09  3.291467E-09
       304  14  3.343898E+06  1.930562E+06  4.019967E+04  2.545749E+06  1.009821E-08  4.666322E-09
       304  15  3.323017E+06  1.978028E+06  6.490334E+04  2.546766E+06  1.250371E-09 -3.179880E-09
       304  16  3.143267E+06  1.839933E+06 -2.371767E+04  2.463342E+06 -3.255498E-09 -2.282705E-09
       304  17  3.197118E+06  1.824808E+06 -9.613058E+03  2.472499E+06  7.366411E-09  1.841247E-08
       304  18  3.204765E+06  1.896926E+06  2.547905E+04  2.489613E+06  4.741442E-09 -1.207464E-08
       304  19  3.493896E+06  2.100736E+06  9.661390E+04  2.642064E+06 -2.152741E+03  4.156195E+03
       304  20  3.490700E+06  2.036327E+06  9.001033E+04  2.619018E+06  1.506192E+04  1.535538E+04
       304  21  3.441284E+06  2.059138E+06  1.043290E+05  2.603933E+06  3.215470E+04  2.671391E+04
       304  22  3.318565E+06  1.970325E+06  3.645025E+04  2.552689E+06 -2.463969E+03  3.919339E+03
       304  23  3.343898E+06  1.930562E+06  4.020051E+04  2.545749E+06  1.478453E+04  1.514415E+04
       304  24  3.323018E+06  1.978029E+06  6.490654E+04  2.546767E+06  3.191218E+04  2.652931E+04
       304  25  3.143267E+06  1.839933E+06 -2.371763E+04  2.463342E+06 -2.775077E+03  3.682578E+03
       304  26  3.197118E+06  1.824808E+06 -9.612250E+03  2.472499E+06  1.450724E+04  1.493299E+04
       304  27  3.204767E+06  1.896927E+06  2.548221E+04  2.489613E+06  3.166971E+04  2.634475E+04
       305   1  3.318718E+06  1.979990E+06  8.047018E+04  2.565616E+06 -4.311650E+04 -3.395827E+04
       305   2  3.309317E+06  1.894861E+06  1.156930E+05  2.538897E+06 -9.504620E+04 -7.174982E+04
       305   3  3.335746E+06  1.990313E+06  2.341184E+05  2.471557E+06 -1.465826E+05 -1.100544E+05
       305   4  3.322728E+06  1.966835E+06  7.877962E+04  2.560382E+06 -4.278150E+04 -3.370181E+04
       305   5  3.327135E+06  1.915119E+06  1.231889E+05  2.551129E+06 -9.483741E+04 -7.159172E+04
       305   6  3.367392E+06  2.044004E+06  2.509056E+05  2.501255E+06 -1.465012E+05 -1.099992E+05
       305   7  3.326738E+06  1.953680E+06  7.708910E+04  2.555148E+06 -4.244650E+04 -3.344537E+04
       305   8  3.344953E+06  1.935378E+06  1.306847E+05  2.563362E+06 -9.462861E+04 -7.143362E+04
       305   9  3.399039E+06  2.097699E+06  2.676925E+05  2.530955E+06 -1.464199E+05 -1.099439E+05
       305  10  3.318715E+06  1.979988E+06  8.046457E+04  2.565615E+06 -7.341218E-09  6.702922E-09
       305  11  3.309306E+06  1.894853E+06  1.156665E+05  2.538891E+06 -8.615639E-09  1.088581E-08
       305  12  3.335720E+06  1.990295E+06  2.340558E+05  2.471544E+06 -5.359103E-09 -1.246957E-08
       305  13  3.322726E+06  1.966833E+06  7.877410E+04  2.560381E+06  3.827141E-09  1.981722E-08
       305  14  3.327124E+06  1.915111E+06  1.231625E+05  2.551124E+06 -1.023794E-08 -1.313745E-08
       305  15  3.367366E+06  2.043985E+06  2.508430E+05  2.501242E+06 -1.913250E-09  1.766795E-08
       305  16  3.326736E+06  1.953678E+06  7.708366E+04  2.555147E+06 -2.328168E-09  5.842187E-09
       305  17  3.344942E+06  1.935370E+06  1.306585E+05  2.563357E+06 -6.690263E-09  1.511292E-08
       305  18  3.399013E+06  2.097680E+06  2.676301E+05  2.530942E+06 -6.890045E-09  1.949282E-08
       305  19  3.318718E+06  1.979990E+06  8.047018E+04  2.565616E+06  4.311650E+04  3.395827E+04
       305  20  3.309317E+06  1.894861E+06  1.156930E+05  2.538897E+06  9.504620E+04  7.174982E+04
       305  21  3.335746E+06  1.990313E+06  2.341184E+05  2.471557E+06  1.465826E+05  1.100544E+05
       305  22  3.322728E+06  1.966835E+06  7.877962E+04  2.560382E+06  4.278150E+04  3.370181E+04
       305  23  3.327135E+06  1.915119E+06  1.231889E+05  2.551129E+06  9.483741E+04  7.159172E+04
       305  24  3.367392E+06  2.044004E+06  2.509056E+05  2.501255E+06  1.465012E+05  1.099992E+05
       305  25  3.326738E+06  1.953680E+06  7.708910E+04  2.555148E+06  4.244650E+04  3.344537E+04
       305  26  3.344953E+06  1.935378E+06  1.306847E+05  2.563362E+06  9.462861E+04  7.143362E+04
       305  27  3.399039E+06  2.097699E+06  2.676925E+05  2.530955E+06  1.464199E+05  1.099439E+05
       306   1  3.120465E+06  1.918385E+06  2.472839E+05  2.538910E+06 -1.879653E+05 -1.395851E+05
       306   2  3.061780E+06  1.608051E+06  3.979915E+05  2.478873E+06 -3.901638E+05 -2.909417E+05
       306   3  3.563850E+06  2.221312E+06  1.002857E+06  2.033945E+06 -5.894410E+05 -4.460718E+05
       306   4  3.348174E+06  1.974385E+06  3.033185E+05  2.603920E+06 -1.871606E+05 -1.389411E+05
       306   5  3.225628E+06  1.785859E+06  4.652736E+05  2.587563E+06 -3.903382E+05 -2.911096E+05
       306   6  3.663810E+06  2.520893E+06  1.082104E+06  2.186380E+06 -5.905611E+05 -4.471274E+05
       306   7  3.575945E+06  2.030390E+06  3.593515E+05  2.668944E+06 -1.863555E+05 -1.382971E+05
       306   8  3.389505E+06  1.963707E+06  5.325510E+05  2.696291E+06 -3.905127E+05 -2.912774E+05
       306   9  3.763810E+06  2.820631E+06  1.161353E+06  2.338867E+06 -5.916813E+05 -4.481840E+05
       306  10  3.120422E+06  1.918354E+06  2.471817E+05  2.538889E+06 -2.868142E-09 -5.846829E-09
       306  11  3.061595E+06  1.607920E+06  3.975499E+05  2.478782E+06 -4.050493E-09 -3.988580E-09
       306  12  3.563426E+06  2.221007E+06  1.001838E+06  2.033735E+06 -1.068837E-10 -1.379549E-09
       306  13  3.348131E+06  1.974355E+06  3.032172E+05  2.603899E+06 -1.377723E-10  2.789611E-09
       306  14  3.225443E+06  1.785728E+06  4.648318E+05  2.587472E+06  6.904892E-10  1.277417E-08
       306  15  3.663385E+06  2.520587E+06  1.081081E+06  2.186169E+06 -1.510411E-09 -3.864616E-09
       306  16  3.575903E+06  2.030360E+06  3.592512E+05  2.668924E+06 -1.596114E-09  1.872578E-08
       306  17  3.389320E+06  1.963576E+06  5.321090E+05  2.696200E+06  3.096106E-10  3.760460E-09
       306  18  3.763383E+06  2.820324E+06  1.160327E+06  2.338655E+06  2.342108E-09  1.047698E-09
       306  19  3.120465E+06  1.918385E+06  2.472839E+05  2.538910E+06  1.879653E+05  1.395851E+05
       306  20  3.061780E+06  1.608051E+06  3.979915E+05  2.478873E+06  3.901638E+05  2.909417E+05
       306  21  3.563850E+06  2.221312E+06  1.002857E+06  2.033945E+06  5.894410E+05  4.460718E+05
       306  22  3.348174E+06  1.974385E+06  3.033185E+05  2.603920E+06  1.871606E+05  1.389411E+05
       306  23  3.225628E+06  1.785859E+06  4.652736E+05  2.587563E+06  3.903382E+05  2.911096E+05
       306  24  3.663810E+06  2.520893E+06  1.082104E+06  2.186380E+06  5.905611E+05  4.471274E+05
       306  25  3.575945E+06  2.030390E+06  3.593515E+05  2.668944E+06  1.863555E+05  1.382971E+05
       306  26  3.389505E+06  1.963707E+06  5.325510E+05  2.696291E+06  3.905127E+05  2.912774E+05
       306  27  3.763810E+06  2.820631E+06  1.161353E+06  2.338867E+06  5.916813E+05  4.481840E+05
       307   1  2.152285E+06  1.190983E+05  1.361684E+05  4.437143E+04  5.130918E+04 -9.356344E+02
       307   2  2.115642E+06  4.087831E+04  8.728892E+04  1.778503E+04  3.184700E+04 -3.522331E+03
       307   3  2.101708E+06  4.606113E+04  7.178229E+04  3.033647E+04  1.235345E+04 -2.523733E+03
       307   4  1.911833E+06  5.893976E+04  7.636370E+04  3.315826E+04  5.028352E+04 -9.453517E+02
       307   5  1.900574E+06 -1.272180E+04  3.422298E+04  1.385014E+04  3.169042E+04 -3.523938E+03
       307   6  1.911881E+06 -1.115566E+03  2.486217E+04  3.368035E+04  1.306514E+04 -2.517140E+03
       307   7  1.671434E+06 -1.222694E+03  1.655475E+04  2.194931E+04  4.925825E+04 -9.550341E+02
       307   8  1.685547E+06 -6.632531E+04 -1.884637E+04  9.916523E+03  3.153390E+04 -3.525544E+03
       307   9  1.722087E+06 -4.829489E+04 -2.206061E+04  3.702313E+04  1.377662E+04 -2.510538E+03
       307  10  2.152282E+06  1.190976E+05  1.361634E+05  4.437146E+04  1.494256E-09 -1.399757E-09
       307  11  2.115641E+06  4.087803E+04  8.728700E+04  1.778512E+04  5.744532E-09  7.624442E-09
       307  12  2.101708E+06  4.606109E+04  7.178199E+04  3.033650E+04  4.773550E-09 -1.703681E-08
       307  13  1.911830E+06  5.893909E+04  7.635896E+04  3.315830E+04  1.067140E-09  2.318748E-08
       307  14  1.900573E+06 -1.272208E+04  3.422108E+04  1.385023E+04 -1.898216E-09  6.172234E-09
       307  15  1.911881E+06 -1.115619E+03  2.486184E+04  3.368038E+04  5.422875E-10 -2.251899E-08
       307  16  1.671432E+06 -1.223344E+03  1.655020E+04  2.194935E+04 -1.325460E-09  9.227502E-09
       307  17  1.685546E+06 -6.632559E+04 -1.884825E+04  9.916613E+03 -7.800233E-09 -2.883252E-10
       307  18  1.722087E+06 -4.829495E+04 -2.206097E+04  3.702316E+04 -2.906109E-09 -1.700062E-08
       307  19  2.152285E+06  1.190983E+05  1.361684E+05  4.437143E+04 -5.130918E+04  9.356344E+02
       307  20  2.115642E+06  4.087831E+04  8.728892E+04  1.778503E+04 -3.184700E+04  3.522331E+03
       307  21  2.101708E+06  4.606113E+04  7.178229E+04  3.033647E+04 -1.235345E+04  2.523733E+03
       307  22  1.911833E+06  5.893976E+04  7.636370E+04  3.315826E+04 -5.028352E+04  9.453517E+02
       307  23  1.900574E+06 -1.272180E+04  3.422298E+04  1.385014E+04 -3.169042E+04  3.523938E+03
       307  24  1.911881E+06 -1.115566E+03  2.486217E+04  3.368035E+04 -1.306514E+04  2.517140E+03
       307  25  1.671434E+06 -1.222694E+03  1.655475E+04  2.194931E+04 -4.925825E+04  9.550341E+02
       307  26  1.685547E+06 -6.632531E+04 -1.884637E+04  9.916523E+03 -3.153390E+04  3.525544E+03
       307  27  1.722087E+06 -4.829489E+04 -2.206061E+04  3.702313E+04 -1.377662E+04  2.510538E+03
       308   1  2.004601E+06  3.269809E+04  4.619105E+04  3.490914E+04  8.770857E+03 -1.501709E+03
       308   2  1.979614E+06  1.576581E+04  3.508735E+04  1.576410E+04  8.531893E+00 -1.197761E+03
       308   3  1.959656E+06  1.760192E+04  3.420561E+04  3.164475E+04 -8.757321E+03 -5.035118E+02
       308   4  1.907978E+06  8.597333E+03  2.232592E+04  3.255340E+04  8.815775E+03 -1.501330E+03
       308   5  1.905472E+06 -2.702867E+03  1.677689E+04  1.505799E+04  1.484006E+02 -1.196457E+03
       308   6  1.907979E+06  4.750126E+03  2.138503E+04  3.258846E+04 -8.522816E+03 -5.013059E+02
       308   7  1.811363E+06 -1.550411E+04 -1.539901E+03  3.019801E+04  8.860687E+03 -1.500951E+03
       308   8  1.831335E+06 -2.117195E+04 -1.533967E+03  1.435195E+04  2.882526E+02 -1.195153E+03
       308   9  1.856304E+06 -8.101864E+03  8.564247E+03  3.353208E+04 -8.288330E+03 -4.990993E+02
       308  10  2.004601E+06  3.269807E+04  4.619090E+04  3.490915E+04 -4.080081E-09 -5.251197E-09
       308  11  1.979614E+06  1.576581E+04  3.508734E+04  1.576410E+04  1.205676E-09  7.590373E-09
       308  12  1.959656E+06  1.760190E+04  3.420546E+04  3.164475E+04  4.318375E-10  2.744920E-09
       308  13  1.907978E+06  8.597310E+03  2.232577E+04  3.255341E+04  1.589396E-10 -1.851542E-08
       308  14  1.905472E+06 -2.702868E+03  1.677689E+04  1.505799E+04 -2.456084E-09  1.138295E-08
       308  15  1.907979E+06  4.750106E+03  2.138489E+04  3.258845E+04  2.829826E-10  4.803039E-09
       308  16  1.811363E+06 -1.550413E+04 -1.540052E+03  3.019802E+04  5.330856E-09 -3.898147E-09
       308  17  1.831335E+06 -2.117195E+04 -1.533970E+03  1.435195E+04 -5.609727E-09 -2.076093E-08
       308  18  1.856304E+06 -8.101882E+03  8.564118E+03  3.353208E+04  3.886087E-10 -2.596107E-09
       308  19  2.004601E+06  3.269809E+04  4.619105E+04  3.490914E+04 -8.770857E+03  1.501709E+03
       308  20  1.979614E+06  1.576581E+04  3.508735E+04  1.576410E+04 -8.531893E+00  1.197761E+03
       308  21  1.959656E+06  1.760192E+04  3.420561E+04  3.164475E+04  8.757321E+03  5.035118E+02
       308  22  1.907978E+06  8.597333E+03  2.232592E+04  3.255340E+04 -8.815775E+03  1.501330E+03
       308  23  1.905472E+06 -2.702867E+03  1.677689E+04  1.505799E+04 -1.484006E+02  1.196457E+03
       308  24  1.907979E+06  4.750126E+03  2.138503E+04  3.258846E+04  8.522816E+03  5.013059E+02
       308  25  1.811363E+06 -1.550411E+04 -1.539901E+03  3.019801E+04 -8.860687E+03  1.500951E+03
       308  26  1.831335E+06 -2.117195E+04 -1.533967E+03  1.435195E+04 -2.882526E+02  1.195153E+03
       308  27  1.856304E+06 -8.101864E+03  8.564247E+03  3.353208E+04  8.288330E+03  4.990993E+02
       309   1  1.874340E+06 -8.386133E+03  1.565804E+04  3.512780E+04 -1.289152E+04  4.946373E+01
       309   2  1.845298E+06 -2.164456E+04  2.095538E+04  1.356013E+04 -3.119259E+04  6.483790E+02
       309   3  1.829786E+06  1.294418E+04  4.994055E+04  2.657334E+04 -4.948934E+04  8.849129E+02
       309   4  1.909879E+06  4.114944E+02  2.448469E+04  3.259124E+04 -1.266285E+04  5.169330E+01
       309   5  1.903091E+06 -7.223264E+03  3.523261E+04  1.514848E+04 -3.105267E+04  6.496315E+02
       309   6  1.909844E+06  3.300183E+04  6.972786E+04  3.228620E+04 -4.943882E+04  8.849652E+02
       309   7  1.945419E+06  9.209054E+03  3.331125E+04  3.005454E+04 -1.243417E+04  5.392095E+01
       309   8  1.960886E+06  7.197792E+03  4.950960E+04  1.673697E+04 -3.091274E+04  6.508847E+02
       309   9  1.989908E+06  5.305911E+04  8.951472E+04  3.799978E+04 -4.938829E+04  8.850185E+02
       309  10  1.874340E+06 -8.386177E+03  1.565773E+04  3.512780E+04 -5.360260E-09  1.437460E-08
       309  11  1.845297E+06 -2.164482E+04  2.095356E+04  1.356014E+04  8.928724E-10  1.735847E-08
       309  12  1.829784E+06  1.294353E+04  4.993596E+04  2.657338E+04  1.008313E-08  1.700040E-08
       309  13  1.909879E+06  4.114515E+02  2.448439E+04  3.259124E+04 -2.677449E-10  5.786091E-09
       309  14  1.903089E+06 -7.223523E+03  3.523081E+04  1.514849E+04 -2.726760E-09  1.677768E-08
       309  15  1.909841E+06  3.300117E+04  6.972328E+04  3.228624E+04 -1.054727E-10 -5.192833E-09
       309  16  1.945419E+06  9.209012E+03  3.331096E+04  3.005454E+04  5.342115E-09  4.529486E-10
       309  17  1.960885E+06  7.197536E+03  4.950781E+04  1.673698E+04 -4.940397E-09 -8.259325E-09
       309  18  1.989905E+06  5.305845E+04  8.951014E+04  3.799982E+04 -8.827380E-09 -1.738037E-08
       309  19  1.874340E+06 -8.386133E+03  1.565804E+04  3.512780E+04  1.289152E+04 -4.946373E+01
       309  20  1.845298E+06 -2.164456E+04  2.095538E+04  1.356013E+04  3.119259E+04 -6.483790E+02
       309  21  1.829786E+06  1.294418E+04  4.994055E+04  2.657334E+04  4.948934E+04 -8.849129E+02
       309  22  1.909879E+06  4.114944E+02  2.448469E+04  3.259124E+04  1.266285E+04 -5.169330E+01
       309  23  1.903091E+06 -7.223265E+03  3.523261E+04  1.514848E+04  3.105267E+04 -6.496315E+02
       309  24  1.909844E+06  3.300183E+04  6.972786E+04  3.228620E+04  4.943882E+04 -8.849652E+02
       309  25  1.945419E+06  9.209054E+03  3.331125E+04  3.005454E+04  1.243417E+04 -5.392095E+01
       309  26  1.960886E+06  7.197792E+03  4.950960E+04  1.673697E+04  3.091274E+04 -6.508847E+02
       309  27  1.989908E+06  5.305911E+04  8.951472E+04  3.799978E+04  4.938829E+04 -8.850185E+02
       310   1  1.754335E+06 -5.056294E+04  4.141131E+04  5.048039E+04 -6.390096E+04  1.762115E+03
       310   2  1.685632E+06 -9.866647E+04  7.946919E+04  3.138397E+03 -1.329178E+05  2.295102E+03
       310   3  1.705261E+06  1.735220E+05  2.423270E+05 -7.341677E+03 -2.019015E+05 -4.846258E+02
       310   4  1.926529E+06 -8.077793E+03  8.392266E+04  3.370652E+04 -6.323432E+04  1.770094E+03
       310   5  1.882211E+06 -4.949186E+04  1.280165E+05  1.423003E+04 -1.330689E+05  2.291588E+03
       310   6  1.926334E+06  2.294703E+05  2.974467E+05  3.161595E+04 -2.028731E+05 -5.053417E+02
       310   7  2.098750E+06  3.440627E+04  1.264320E+05  1.692795E+04 -6.256750E+04  1.778037E+03
       310   8  2.078825E+06 -3.197023E+02  1.765610E+05  2.532510E+04 -1.332200E+05  2.288069E+03
       310   9  2.147454E+06  2.854204E+05  3.525635E+05  7.058734E+04 -2.038450E+05 -5.261737E+02
       310  10  1.754331E+06 -5.056403E+04  4.140366E+04  5.048048E+04  4.901964E-09  8.852448E-09
       310  11  1.685614E+06 -9.867121E+04  7.943607E+04  3.138642E+03  4.033999E-09  1.071678E-09
       310  12  1.705217E+06  1.735110E+05  2.422506E+05 -7.341756E+03  3.557593E-09  1.933259E-09
       310  13  1.926525E+06 -8.078866E+03  8.391516E+04  3.370661E+04  1.173307E-09  1.952465E-08
       310  14  1.882192E+06 -4.949660E+04  1.279833E+05  1.423028E+04 -3.694030E-09 -1.431770E-08
       310  15  1.926290E+06  2.294593E+05  2.973696E+05  3.161587E+04  1.200151E-09  1.386478E-08
       310  16  2.098746E+06  3.440522E+04  1.264246E+05  1.692804E+04 -3.550157E-09  1.100831E-08
       310  17  2.078806E+06 -3.244522E+02  1.765277E+05  2.532534E+04 -6.287305E-09  2.444311E-10
       310  18  2.147410E+06  2.854093E+05  3.524856E+05  7.058726E+04 -2.178426E-09 -2.269571E-09
       310  19  1.754335E+06 -5.056294E+04  4.141131E+04  5.048039E+04  6.390096E+04 -1.762115E+03
       310  20  1.685632E+06 -9.866647E+04  7.946919E+04  3.138397E+03  1.329178E+05 -2.295102E+03
       310  21  1.705261E+06  1.735220E+05  2.423270E+05 -7.341677E+03  2.019015E+05  4.846258E+02
       310  22  1.926529E+06 -8.077793E+03  8.392266E+04  3.370652E+04  6.323432E+04 -1.770094E+03
       310  23  1.882211E+06 -4.949186E+04  1.280165E+05  1.423003E+04  1.330689E+05 -2.291588E+03
       310  24  1.926334E+06  2.294703E+05  2.974467E+05  3.161595E+04  2.028731E+05  5.053417E+02
       310  25  2.098750E+06  3.440627E+04  1.264320E+05  1.692795E+04  6.256750E+04 -1.778037E+03
       310  26  2.078825E+06 -3.197023E+02  1.765610E+05  2.532510E+04  1.332200E+05 -2.288069E+03
       310  27  2.147454E+06  2.854204E+05  3.525635E+05  7.058734E+04  2.038450E+05  5.261737E+02
       311   1 -9.507485E+05 -3.922777E+06 -1.163855E+06  2.023973E+05 -4.250883E+02 -6.244110E+05
       311   2 -4.921644E+04 -3.687300E+06 -6.164566E+05  4.384576E+04 -1.189696E+04 -3.968408E+05
       311   3 -1.643982E+05 -3.730222E+06 -4.708098E+05  3.120785E+04 -8.849854E+03 -1.691404E+05
       311   4 -7.179828E+05 -3.004590E+06 -9.336770E+05  7.929110E+04 -3.337082E+02 -6.209514E+05
       311   5  1.571221E+05 -2.865390E+06 -4.123681E+05  9.270535E+03 -1.187828E+04 -3.965649E+05
       311   6  1.677692E+04 -3.003647E+06 -2.901704E+05  8.518596E+04 -8.847068E+03 -1.720850E+05
       311   7 -4.852262E+05 -2.085605E+06 -7.035554E+05 -4.399691E+04 -2.438464E+02 -6.174862E+05
       311   8  3.634138E+05 -2.042861E+06 -2.083298E+05 -2.534966E+04 -1.185965E+04 -3.962885E+05
       311   9  1.979239E+05 -2.276583E+06 -1.095688E+05  1.392283E+05 -8.844793E+03 -1.750329E+05
       311  10 -9.508540E+05 -3.923198E+06 -1.164593E+06  2.023971E+05  9.519293E-10 -6.009769E-10
       311  11 -4.925920E+04 -3.687470E+06 -6.167547E+05  4.384195E+04 -1.136508E-09  3.492134E-09
       311  12 -1.644061E+05 -3.730253E+06 -4.708640E+05  3.120664E+04 -3.370048E-09  3.488709E-09
       311  13 -7.180869E+05 -3.005006E+06 -9.344051E+05  7.929095E+04  4.496535E-09  2.759246E-10
       311  14  1.570795E+05 -2.865560E+06 -4.126654E+05  9.266737E+03  2.888747E-09 -1.242311E-09
       311  15  1.676884E+04 -3.003679E+06 -2.902264E+05  8.518473E+04  5.031681E-10  3.928450E-09
       311  16 -4.853290E+05 -2.086015E+06 -7.042743E+05 -4.399704E+04  2.209401E-09  6.636971E-09
       311  17  3.633713E+05 -2.043030E+06 -2.086262E+05 -2.535345E+04  8.898000E-09 -1.264815E-08
       311  18  1.979155E+05 -2.276616E+06 -1.096267E+05  1.392270E+05 -3.828690E-09 -2.954216E-09
       311  19 -9.507485E+05 -3.922777E+06 -1.163855E+06  2.023973E+05  4.250883E+02  6.244110E+05
       311  20 -4.921644E+04 -3.687300E+06 -6.164566E+05  4.384576E+04  1.189696E+04  3.968408E+05
       311  21 -1.643982E+05 -3.730222E+06 -4.708098E+05  3.120785E+04  8.849854E+03  1.691404E+05
       311  22 -7.179828E+05 -3.004590E+06 -9.336770E+05  7.929110E+04  3.337082E+02  6.209514E+05
       311  23  1.571221E+05 -2.865390E+06 -4.123681E+05  9.270535E+03  1.187828E+04  3.965649E+05
       311  24  1.677692E+04 -3.003647E+06 -2.901704E+05  8.518596E+04  8.847068E+03  1.720850E+05
       311  25 -4.852262E+05 -2.085605E+06 -7.035554E+05 -4.399691E+04  2.438464E+02  6.174862E+05
       311  26  3.634138E+05 -2.042861E+06 -2.083298E+05 -2.534966E+04  1.185965E+04  3.962885E+05
       311  27  1.979239E+05 -2.276583E+06 -1.095688E+05  1.392283E+05  8.844793E+03  1.750329E+05
       312   1 -1.759666E+05 -3.256687E+06 -3.284114E+05  1.123682E+05 -4.592462E+03 -1.229593E+05
       312   2 -9.480608E+03 -3.109036E+06 -2.163207E+05  3.707962E+03 -2.798396E+03 -3.398979E+04
       312   3 -8.350470E+04 -3.030608E+06 -2.219538E+05  7.160658E+04 -2.938472E+02  5.499868E+04
       312   4 -1.007610E+05 -2.957492E+06 -2.541067E+05  8.985161E+04 -4.585264E+03 -1.234572E+05
       312   5  3.714500E+04 -2.922874E+06 -1.700820E+05  1.685920E+03 -2.794795E+03 -3.462535E+04
       312   6 -6.539391E+04 -2.957442E+06 -2.036505E+05  9.007964E+04 -2.881050E+02  5.420922E+04
       312   7 -2.556037E+04 -2.658214E+06 -1.798084E+05  6.732417E+04 -4.578033E+03 -1.239552E+05
       312   8  8.376801E+04 -2.736681E+06 -1.238459E+05 -3.366878E+02 -2.791190E+03 -3.526110E+04
       312   9 -4.728223E+04 -2.884270E+06 -1.853475E+05  1.085549E+05 -2.824103E+02  5.341967E+04
       312  10 -1.759707E+05 -3.256703E+06 -3.284400E+05  1.123678E+05 -5.075053E-09  6.219370E-10
       312  11 -9.480928E+03 -3.109038E+06 -2.163229E+05  3.707885E+03 -1.027399E-10  4.656065E-09
       312  12 -8.350551E+04 -3.030611E+06 -2.219595E+05  7.160659E+04 -4.732396E-10  5.681869E-09
       312  13 -1.007652E+05 -2.957508E+06 -2.541355E+05  8.985115E+04 -2.068554E-09 -1.162740E-10
       312  14  3.714467E+04 -2.922876E+06 -1.700843E+05  1.685842E+03  2.631820E-09  1.562901E-10
       312  15 -6.539471E+04 -2.957445E+06 -2.036561E+05  9.007965E+04 -6.143003E-10  1.306736E-09
       312  16 -2.556454E+04 -2.658231E+06 -1.798375E+05  6.732371E+04 -3.738595E-09 -6.949383E-10
       312  17  8.376766E+04 -2.736682E+06 -1.238482E+05 -3.367672E+02 -4.646831E-09 -1.091533E-08
       312  18 -4.728300E+04 -2.884273E+06 -1.853529E+05  1.085549E+05 -2.045057E-09 -3.879001E-09
       312  19 -1.759666E+05 -3.256687E+06 -3.284114E+05  1.123682E+05  4.592462E+03  1.229593E+05
       312  20 -9.480608E+03 -3.109036E+06 -2.163207E+05  3.707962E+03  2.798396E+03  3.398979E+04
       312  21 -8.350470E+04 -3.030608E+06 -2.219538E+05  7.160658E+04  2.938472E+02 -5.499868E+04
       312  22 -1.007610E+05 -2.957492E+06 -2.541067E+05  8.985161E+04  4.585264E+03  1.234572E+05
       312  23  3.714500E+04 -2.922874E+06 -1.700820E+05  1.685920E+03  2.794795E+03  3.462535E+04
       312  24 -6.539391E+04 -2.957442E+06 -2.036505E+05  9.007964E+04  2.881050E+02 -5.420922E+04
       312  25 -2.556037E+04 -2.658214E+06 -1.798084E+05  6.732417E+04  4.578033E+03  1.239552E+05
       312  26  8.376801E+04 -2.736681E+06 -1.238459E+05 -3.366878E+02  2.791190E+03  3.526110E+04
       312  27 -4.728223E+04 -2.884270E+06 -1.853475E+05  1.085549E+05  2.824103E+02 -5.341967E+04
       313   1  9.664385E+04 -2.607703E+06 -1.266312E+05  1.268035E+05  3.738008E+03  9.446559E+04
       313   2  2.282203E+05 -2.405714E+06 -1.670185E+05 -1.812618E+04  7.398038E+03  2.479931E+05
       313   3 -3.300466E+05 -2.392649E+06 -4.792452E+05  3.525846E+03  8.030475E+02  4.014930E+05
       313   4  2.902416E+03 -2.984073E+06 -2.202584E+05  8.890204E+04  3.744526E+03  9.212007E+04
       313   5  1.068575E+05 -2.889624E+06 -2.870389E+05  4.037171E+03  7.406532E+03  2.479875E+05
       313   6 -4.797471E+05 -2.984701E+06 -6.274574E+05  8.576294E+04  8.397661E+02  4.038003E+05
       313   7 -9.084409E+04 -3.360311E+06 -3.138954E+05  5.102380E+04  3.751332E+03  8.977597E+04
       313   8 -1.452123E+04 -3.373320E+06 -4.070765E+05  2.618347E+04  7.415031E+03  2.479820E+05
       313   9 -6.294495E+05 -3.576421E+06 -7.756927E+05  1.679217E+05  8.771356E+02  4.061052E+05
       313  10  9.664142E+04 -2.607713E+06 -1.266481E+05  1.268032E+05  5.380530E-11  1.197978E-09
       313  11  2.282037E+05 -2.405780E+06 -1.671346E+05 -1.812765E+04  7.581981E-09  3.516832E-09
       313  12 -3.300901E+05 -2.392822E+06 -4.795493E+05  3.525586E+03  8.535568E-10  1.869935E-09
       313  13  2.900109E+03 -2.984082E+06 -2.202745E+05  8.890176E+04 -4.962106E-10  2.206894E-10
       313  14  1.068408E+05 -2.889690E+06 -2.871551E+05  4.035690E+03  1.514990E-09  2.156631E-09
       313  15 -4.797911E+05 -2.984877E+06 -6.277652E+05  8.576268E+04  2.457519E-09  2.799952E-09
       313  16 -9.084628E+04 -3.360319E+06 -3.139106E+05  5.102353E+04 -4.004312E-09 -2.601120E-09
       313  17 -1.453792E+04 -3.373386E+06 -4.071929E+05  2.618199E+04  1.124432E-09 -1.240317E-08
       313  18 -6.294941E+05 -3.576599E+06 -7.760044E+05  1.679215E+05  2.346876E-09 -1.015541E-09
       313  19  9.664385E+04 -2.607703E+06 -1.266312E+05  1.268035E+05 -3.738008E+03 -9.446559E+04
       313  20  2.282203E+05 -2.405714E+06 -1.670185E+05 -1.812618E+04 -7.398038E+03 -2.479931E+05
       313  21 -3.300466E+05 -2.392649E+06 -4.792452E+05  3.525846E+03 -8.030475E+02 -4.014930E+05
       313  22  2.902416E+03 -2.984073E+06 -2.202584E+05  8.890204E+04 -3.744526E+03 -9.212007E+04
       313  23  1.068575E+05 -2.889624E+06 -2.870389E+05  4.037171E+03 -7.406532E+03 -2.479875E+05
       313  24 -4.797471E+05 -2.984701E+06 -6.274574E+05  8.576294E+04 -8.397661E+02 -4.038003E+05
       313  25 -9.084409E+04 -3.360311E+06 -3.138954E+05  5.102380E+04 -3.751332E+03 -8.977597E+04
       313  26 -1.452123E+04 -3.373320E+06 -4.070765E+05  2.618347E+04 -7.415031E+03 -2.479820E+05
       313  27 -6.294495E+05 -3.576421E+06 -7.756927E+05  1.679217E+05 -8.771356E+02 -4.061052E+05
       314   1  1.775709E+06  1.148745E+06  2.402716E+05  1.247803E+06  1.498866E+05  1.155455E+05
       314   2  1.678027E+06  9.590824E+05  8.512717E+04  1.353940E+06  9.708107E+04  7.724404E+04
       314   3  1.762054E+06  9.709322E+05  4.728892E+04  1.350632E+06  4.559798E+04  3.720662E+04
       314   4  1.922671E+06  1.196830E+06  2.790475E+05  1.295078E+06  1.504346E+05  1.159503E+05
       314   5  1.790873E+06  1.025718E+06  1.205560E+05  1.403597E+06  9.719327E+04  7.732731E+04
       314   6  1.840851E+06  1.056176E+06  7.972436E+04  1.402680E+06  4.527853E+04  3.696493E+04
       314   7  2.069657E+06  1.244918E+06  3.178220E+05  1.342362E+06  1.509828E+05  1.163552E+05
       314   8  1.903733E+06  1.092357E+06  1.559833E+05  1.453263E+06  9.730549E+04  7.741059E+04
       314   9  1.919655E+06  1.141430E+06  1.121587E+05  1.454735E+06  4.495904E+04  3.672317E+04
       314  10  1.775682E+06  1.148724E+06  2.402046E+05  1.247789E+06  3.470265E-10  2.211150E-08
       314  11  1.678015E+06  9.590735E+05  8.509837E+04  1.353934E+06 -4.824630E-10  1.183246E-08
       314  12  1.762052E+06  9.709302E+05  4.728244E+04  1.350631E+06 -2.137915E-09  3.311256E-09
       314  13  1.922643E+06  1.196810E+06  2.789800E+05  1.295064E+06  9.371402E-11 -8.107107E-11
       314  14  1.790861E+06  1.025709E+06  1.205272E+05  1.403591E+06  5.185443E-09 -5.157228E-09
       314  15  1.840849E+06  1.056174E+06  7.971797E+04  1.402678E+06  1.764150E-09  7.630865E-09
       314  16  2.069629E+06  1.244897E+06  3.177541E+05  1.342348E+06 -1.155147E-09 -1.407054E-09
       314  17  1.903721E+06  1.092348E+06  1.559544E+05  1.453257E+06  3.257371E-09 -6.710037E-09
       314  18  1.919653E+06  1.141428E+06  1.121524E+05  1.454734E+06 -3.850903E-09 -5.280180E-09
       314  19  1.775709E+06  1.148745E+06  2.402716E+05  1.247803E+06 -1.498866E+05 -1.155455E+05
       314  20  1.678027E+06  9.590824E+05  8.512717E+04  1.353940E+06 -9.708107E+04 -7.724404E+04
       314  21  1.762054E+06  9.709322E+05  4.728892E+04  1.350632E+06 -4.559798E+04 -3.720662E+04
       314  22  1.922671E+06  1.196830E+06  2.790475E+05  1.295078E+06 -1.504346E+05 -1.159503E+05
       314  23  1.790873E+06  1.025718E+06  1.205560E+05  1.403597E+06 -9.719327E+04 -7.732731E+04
       314  24  1.840851E+06  1.056176E+06  7.972436E+04  1.402680E+06 -4.527853E+04 -3.696493E+04
       314  25  2.069657E+06  1.244918E+06  3.178220E+05  1.342362E+06 -1.509828E+05 -1.163552E+05
       314  26  1.903733E+06  1.092357E+06  1.559833E+05  1.453263E+06 -9.730549E+04 -7.741059E+04
       314  27  1.919655E+06  1.141430E+06  1.121587E+05  1.454735E+06 -4.495904E+04 -3.672317E+04
       315   1  1.773974E+06  1.033202E+06  4.448521E+04  1.345460E+06  3.515281E+04  2.852690E+04
       315   2  1.759264E+06  1.014906E+06  1.541129E+04  1.364399E+06  2.057433E+04  1.730393E+04
       315   3  1.783070E+06  1.016278E+06  9.438556E+03  1.364646E+06  6.133692E+03  5.899771E+03
       315   4  1.844015E+06  1.075913E+06  6.677344E+04  1.376880E+06  3.516240E+04  2.853375E+04
       315   5  1.819194E+06  1.056497E+06  3.547142E+04  1.393551E+06  2.053820E+04  1.727630E+04
       315   6  1.832895E+06  1.056757E+06  2.730778E+04  1.391530E+06  6.052205E+03  5.837688E+03
       315   7  1.914061E+06  1.118625E+06  8.906114E+04  1.408305E+06  3.517199E+04  2.854061E+04
       315   8  1.879128E+06  1.098090E+06  5.553106E+04  1.422706E+06  2.050206E+04  1.724867E+04
       315   9  1.882724E+06  1.097237E+06  4.517658E+04  1.418416E+06  5.970709E+03  5.775597E+03
       315  10  1.773972E+06  1.033201E+06  4.448138E+04  1.345459E+06  6.884798E-09  5.129970E-09
       315  11  1.759264E+06  1.014906E+06  1.540993E+04  1.364398E+06  1.024473E-08  1.754364E-08
       315  12  1.783070E+06  1.016278E+06  9.438420E+03  1.364646E+06  9.688551E-09 -1.409190E-08
       315  13  1.844013E+06  1.075912E+06  6.676961E+04  1.376880E+06 -2.732095E-09 -1.521930E-09
       315  14  1.819194E+06  1.056497E+06  3.547007E+04  1.393550E+06  5.034501E-09 -2.255561E-08
       315  15  1.832895E+06  1.056757E+06  2.730765E+04  1.391530E+06  9.571463E-09  8.057827E-09
       315  16  1.914059E+06  1.118624E+06  8.905731E+04  1.408304E+06 -6.451229E-09 -1.931362E-09
       315  17  1.879127E+06  1.098090E+06  5.552972E+04  1.422705E+06  7.699149E-09  1.617306E-08
       315  18  1.882724E+06  1.097237E+06  4.517645E+04  1.418416E+06  3.256127E-09  2.591073E-09
       315  19  1.773974E+06  1.033202E+06  4.448521E+04  1.345460E+06 -3.515281E+04 -2.852690E+04
       315  20  1.759264E+06  1.014906E+06  1.541129E+04  1.364399E+06 -2.057433E+04 -1.730393E+04
       315  21  1.783070E+06  1.016278E+06  9.438556E+03  1.364646E+06 -6.133692E+03 -5.899771E+03
       315  22  1.844015E+06  1.075913E+06  6.677344E+04  1.376880E+06 -3.516240E+04 -2.853375E+04
       315  23  1.819194E+06  1.056497E+06  3.547142E+04  1.393551E+06 -2.053820E+04 -1.727630E+04
       315  24  1.832895E+06  1.056757E+06  2.730778E+04  1.391530E+06 -6.052205E+03 -5.837688E+03
       315  25  1.914061E+06  1.118625E+06  8.906114E+04  1.408305E+06 -3.517199E+04 -2.854061E+04
       315  26  1.879128E+06  1.098090E+06  5.553106E+04  1.422706E+06 -2.050206E+04 -1.724867E+04
       315  27  1.882724E+06  1.097237E+06  4.517658E+04  1.418416E+06 -5.970709E+03 -5.775597E+03
       316   1  1.801575E+06  1.038949E+06  1.560877E+04  1.374599E+06  2.416053E+03  2.805166E+03
       316   2  1.798202E+06  1.041008E+06  1.713952E+04  1.380098E+06 -7.785645E+03 -5.278352E+03
       316   3  1.817032E+06  1.046971E+06  3.199939E+04  1.376358E+06 -1.799407E+04 -1.335367E+04
       316   4  1.832703E+06  1.059161E+06  2.573565E+04  1.389119E+06  2.368383E+03  2.768814E+03
       316   5  1.822603E+06  1.058939E+06  2.550614E+04  1.392415E+06 -7.831817E+03 -5.313549E+03
       316   6  1.834705E+06  1.062620E+06  3.860396E+04  1.386472E+06 -1.803860E+04 -1.338769E+04
       316   7  1.863832E+06  1.079373E+06  3.586240E+04  1.403640E+06  2.320709E+03  2.732461E+03
       316   8  1.847005E+06  1.076870E+06  3.387270E+04  1.404733E+06 -7.877991E+03 -5.348748E+03
       316   9  1.852379E+06  1.078270E+06  4.520849E+04  1.396587E+06 -1.808313E+04 -1.342170E+04
       316  10  1.801575E+06  1.038949E+06  1.560875E+04  1.374599E+06  7.341680E-09 -6.058519E-09
       316  11  1.798202E+06  1.041008E+06  1.713935E+04  1.380098E+06  2.126867E-09 -1.160261E-08
       316  12  1.817032E+06  1.046970E+06  3.199845E+04  1.376357E+06 -1.144977E-08 -1.124750E-08
       316  13  1.832703E+06  1.059161E+06  2.573563E+04  1.389119E+06  9.636968E-09 -5.907946E-09
       316  14  1.822603E+06  1.058939E+06  2.550597E+04  1.392415E+06  7.634769E-09  1.456830E-08
       316  15  1.834705E+06  1.062620E+06  3.860301E+04  1.386472E+06 -3.647491E-09  2.712632E-09
       316  16  1.863832E+06  1.079373E+06  3.586238E+04  1.403640E+06  3.487464E-09  4.827403E-09
       316  17  1.847005E+06  1.076870E+06  3.387253E+04  1.404733E+06  2.016863E-09 -3.529921E-09
       316  18  1.852379E+06  1.078270E+06  4.520755E+04  1.396587E+06  1.697809E-09  9.709590E-09
       316  19  1.801575E+06  1.038949E+06  1.560877E+04  1.374599E+06 -2.416053E+03 -2.805166E+03
       316  20  1.798202E+06  1.041008E+06  1.713952E+04  1.380098E+06  7.785645E+03  5.278352E+03
       316  21  1.817032E+06  1.046971E+06  3.199939E+04  1.376358E+06  1.799407E+04  1.335367E+04
       316  22  1.832703E+06  1.059161E+06  2.573565E+04  1.389119E+06 -2.368383E+03 -2.768814E+03
       316  23  1.822603E+06  1.058939E+06  2.550614E+04  1.392415E+06  7.831817E+03  5.313549E+03
       316  24  1.834705E+06  1.062620E+06  3.860396E+04  1.386472E+06  1.803860E+04  1.338769E+04
       316  25  1.863832E+06  1.079373E+06  3.586240E+04  1.403640E+06 -2.320709E+03 -2.732461E+03
       316  26  1.847005E+06  1.076870E+06  3.387270E+04  1.404733E+06  7.877991E+03  5.348748E+03
       316  27  1.852379E+06  1.078270E+06  4.520849E+04  1.396587E+06  1.808313E+04  1.342170E+04
       317   1  1.828527E+06  1.062982E+06  4.634952E+04  1.396025E+06 -2.396766E+04 -1.810996E+04
       317   2  1.822219E+06  1.050402E+06  7.285877E+04  1.397063E+06 -5.334229E+04 -4.081440E+04
       317   3  1.879541E+06  1.098705E+06  1.474067E+05  1.362954E+06 -8.278805E+04 -6.342646E+04
       317   4  1.833519E+06  1.057375E+06  4.620805E+04  1.394379E+06 -2.402725E+04 -1.815504E+04
       317   5  1.814498E+06  1.049002E+06  7.105861E+04  1.395086E+06 -5.337908E+04 -4.084278E+04
       317   6  1.859102E+06  1.101510E+06  1.439290E+05  1.360647E+06 -8.280117E+04 -6.343869E+04
       317   7  1.838511E+06  1.051767E+06  4.606660E+04  1.392733E+06 -2.408684E+04 -1.820012E+04
       317   8  1.806777E+06  1.047603E+06  6.925846E+04  1.393110E+06 -5.341587E+04 -4.087116E+04
       317   9  1.838664E+06  1.104314E+06  1.404512E+05  1.358340E+06 -8.281429E+04 -6.345092E+04
       317  10  1.828526E+06  1.062982E+06  4.634783E+04  1.396025E+06 -1.228920E-08 -1.890731E-08
       317  11  1.822216E+06  1.050399E+06  7.285033E+04  1.397061E+06 -8.099275E-09 -1.340177E-08
       317  12  1.879533E+06  1.098699E+06  1.473864E+05  1.362949E+06 -1.533717E-09 -8.296035E-09
       317  13  1.833518E+06  1.057374E+06  4.620635E+04  1.394379E+06 -3.932533E-09  4.029512E-09
       317  14  1.814495E+06  1.049000E+06  7.105016E+04  1.395085E+06 -3.374850E-09  7.000458E-09
       317  15  1.859094E+06  1.101504E+06  1.439086E+05  1.360642E+06 -7.177874E-09  7.791130E-09
       317  16  1.838511E+06  1.051766E+06  4.606489E+04  1.392733E+06 -1.327818E-09  2.054448E-08
       317  17  1.806774E+06  1.047600E+06  6.925000E+04  1.393108E+06 -5.849127E-09  2.478587E-08
       317  18  1.838656E+06  1.104308E+06  1.404309E+05  1.358335E+06 -6.365672E-09  2.137182E-08
       317  19  1.828527E+06  1.062982E+06  4.634952E+04  1.396025E+06  2.396766E+04  1.810996E+04
       317  20  1.822219E+06  1.050402E+06  7.285877E+04  1.397063E+06  5.334229E+04  4.081440E+04
       317  21  1.879541E+06  1.098705E+06  1.474067E+05  1.362954E+06  8.278805E+04  6.342646E+04
       317  22  1.833519E+06  1.057375E+06  4.620805E+04  1.394379E+06  2.402725E+04  1.815504E+04
       317  23  1.814498E+06  1.049002E+06  7.105861E+04  1.395086E+06  5.337908E+04  4.084278E+04
       317  24  1.859102E+06  1.101510E+06  1.439290E+05  1.360647E+06  8.280117E+04  6.343869E+04
       317  25  1.838511E+06  1.051767E+06  4.606660E+04  1.392733E+06  2.408684E+04  1.820012E+04
       317  26  1.806777E+06  1.047603E+06  6.925846E+04  1.393110E+06  5.341587E+04  4.087116E+04
       317  27  1.838664E+06  1.104314E+06  1.404512E+05  1.358340E+06  8.281429E+04  6.345092E+04
       318   1  1.844215E+06  1.117843E+06  1.842153E+05  1.444010E+06 -1.051696E+05 -8.085798E+04
       318   2  1.809723E+06  9.839513E+05  2.786644E+05  1.429362E+06 -2.207057E+05 -1.693436E+05
       318   3  2.148543E+06  1.327380E+06  6.339907E+05  1.179870E+06 -3.367887E+05 -2.571039E+05
       318   4  1.849897E+06  1.059654E+06  1.738248E+05  1.418853E+06 -1.053216E+05 -8.096377E+04
       318   5  1.754059E+06  9.774760E+05  2.664026E+05  1.416732E+06 -2.206704E+05 -1.693281E+05
       318   6  2.031498E+06  1.372601E+06  6.197180E+05  1.179769E+06 -3.365480E+05 -2.569872E+05
       318   7  1.855580E+06  1.001473E+06  1.634350E+05  1.393696E+06 -1.054735E+05 -8.106954E+04
       318   8  1.698398E+06  9.710011E+05  2.541409E+05  1.404103E+06 -2.206350E+05 -1.693126E+05
       318   9  1.914479E+06  1.417835E+06  6.054484E+05  1.179662E+06 -3.363073E+05 -2.568705E+05
       318  10  1.844202E+06  1.117833E+06  1.841824E+05  1.444004E+06  2.686619E-10 -4.832077E-09
       318  11  1.809664E+06  9.839076E+05  2.785197E+05  1.429331E+06  6.423680E-09  1.844762E-08
       318  12  2.148404E+06  1.327279E+06  6.336549E+05  1.179801E+06  1.187371E-09 -3.391636E-09
       318  13  1.849883E+06  1.059644E+06  1.737918E+05  1.418846E+06  4.618202E-09 -3.333347E-09
       318  14  1.753999E+06  9.774323E+05  2.662579E+05  1.416702E+06 -3.206018E-10  8.708224E-09
       318  15  2.031359E+06  1.372500E+06  6.193826E+05  1.179699E+06 -5.462901E-10  9.369342E-09
       318  16  1.855567E+06  1.001463E+06  1.634019E+05  1.393689E+06 -2.895918E-09  8.307347E-09
       318  17  1.698338E+06  9.709575E+05  2.539962E+05  1.404073E+06  2.415008E-09 -7.557482E-09
       318  18  1.914340E+06  1.417735E+06  6.051134E+05  1.179592E+06  3.826797E-09 -6.838335E-09
       318  19  1.844215E+06  1.117843E+06  1.842153E+05  1.444010E+06  1.051696E+05  8.085798E+04
       318  20  1.809723E+06  9.839513E+05  2.786644E+05  1.429362E+06  2.207057E+05  1.693436E+05
       318  21  2.148543E+06  1.327380E+06  6.339907E+05  1.179870E+06  3.367887E+05  2.571039E+05
       318  22  1.849897E+06  1.059654E+06  1.738248E+05  1.418853E+06  1.053216E+05  8.096377E+04
       318  23  1.754059E+06  9.774760E+05  2.664026E+05  1.416732E+06  2.206704E+05  1.693281E+05
       318  24  2.031498E+06  1.372601E+06  6.197180E+05  1.179769E+06  3.365480E+05  2.569872E+05
       318  25  1.855580E+06  1.001473E+06  1.634350E+05  1.393696E+06  1.054735E+05  8.106954E+04
       318  26  1.698398E+06  9.710011E+05  2.541409E+05  1.404103E+06  2.206350E+05  1.693126E+05
       318  27  1.914479E+06  1.417835E+06  6.054484E+05  1.179662E+06  3.363073E+05  2.568705E+05
       319   1  7.655242E+05  7.054024E+04  7.157202E+04  2.436314E+04  4.589848E+03 -1.472083E+03
       319   2  7.381971E+05  5.762264E+04  6.152282E+04  3.014388E+03  1.881789E+03 -4.156728E+03
       319   3  7.125482E+05  5.264736E+04  5.510380E+04  2.295032E+04 -8.615262E+02 -2.914409E+03
       319   4  5.033825E+05  5.062525E+03  6.312646E+03  2.183396E+04  3.478084E+03 -1.481899E+03
       319   5  5.026235E+05 -1.121900E+03  3.318248E+03  1.211278E+03  1.714084E+03 -4.158349E+03
       319   6  5.033792E+05  4.737206E+02  3.299875E+03  2.187422E+04 -8.529722E+01 -2.907190E+03
       319   7  2.413030E+05 -6.042034E+04 -5.895188E+04  1.930571E+04  2.366789E+03 -1.491708E+03
       319   8  2.671003E+05 -5.987057E+04 -5.489044E+04 -5.912617E+02  1.546442E+03 -4.159970E+03
       319   9  2.942498E+05 -5.170319E+04 -4.850730E+04  2.079839E+04  6.906708E+02 -2.899972E+03
       319  10  7.655242E+05  7.054023E+04  7.157198E+04  2.436315E+04 -5.197413E-09  1.114433E-08
       319  11  7.381971E+05  5.762262E+04  6.152278E+04  3.014395E+03  4.134057E-09  4.070275E-08
       319  12  7.125482E+05  5.264735E+04  5.510378E+04  2.295032E+04  8.800661E-09  2.128463E-08
       319  13  5.033825E+05  5.062520E+03  6.312619E+03  2.183397E+04 -3.779799E-10 -8.200234E-09
       319  14  5.026235E+05 -1.121919E+03  3.318210E+03  1.211284E+03 -3.456559E-09 -3.227923E-08
       319  15  5.033792E+05  4.737116E+02  3.299859E+03  2.187422E+04 -1.389033E-10  2.904112E-09
       319  16  2.413030E+05 -6.042034E+04 -5.895189E+04  1.930572E+04  4.854990E-09  1.657055E-09
       319  17  2.671003E+05 -5.987059E+04 -5.489047E+04 -5.912565E+02 -7.241762E-09  1.952263E-08
       319  18  2.942498E+05 -5.170320E+04 -4.850732E+04  2.079839E+04 -7.608799E-09 -7.979872E-09
       319  19  7.655242E+05  7.054024E+04  7.157202E+04  2.436314E+04 -4.589848E+03  1.472083E+03
       319  20  7.381971E+05  5.762264E+04  6.152282E+04  3.014388E+03 -1.881789E+03  4.156728E+03
       319  21  7.125482E+05  5.264736E+04  5.510380E+04  2.295032E+04  8.615262E+02  2.914409E+03
       319  22  5.033825E+05  5.062525E+03  6.312646E+03  2.183396E+04 -3.478084E+03  1.481899E+03
       319  23  5.026235E+05 -1.121900E+03  3.318248E+03  1.211278E+03 -1.714084E+03  4.158349E+03
       319  24  5.033792E+05  4.737206E+02  3.299875E+03  2.187422E+04  8.529722E+01  2.907190E+03
       319  25  2.413030E+05 -6.042034E+04 -5.895188E+04  1.930571E+04 -2.366789E+03  1.491708E+03
       319  26  2.671003E+05 -5.987057E+04 -5.489044E+04 -5.912617E+02 -1.546442E+03  4.159970E+03
       319  27  2.942498E+05 -5.170319E+04 -4.850730E+04  2.079839E+04 -6.906708E+02  2.899972E+03
       320   1  6.099450E+05  2.758979E+04  2.990131E+04  2.261446E+04 -7.604736E+02 -1.763830E+03
       320   2  5.840823E+05  1.964674E+04  2.434629E+04  2.118422E+03 -3.060772E+03 -1.345825E+03
       320   3  5.587186E+05  1.620576E+04  2.122551E+04  2.164493E+04 -5.365494E+03 -4.751276E+02
       320   4  5.031598E+05  9.495556E+02  3.493032E+03  2.158325E+04 -7.091473E+02 -1.763361E+03
       320   5  5.029193E+05 -5.968532E+02  4.272305E+03  1.565033E+03 -2.900464E+03 -1.344300E+03
       320   6  5.031579E+05  2.340097E+03  7.410299E+03  2.156966E+04 -5.096299E+03 -4.725217E+02
       320   7  3.963850E+05 -2.569152E+04 -2.291609E+04  2.055220E+04 -6.578299E+02 -1.762893E+03
       320   8  4.217622E+05 -2.084094E+04 -1.580217E+04  1.011702E+03 -2.740176E+03 -1.342776E+03
       320   9  4.476000E+05 -1.152579E+04 -6.405142E+03  2.149439E+04 -4.827129E+03 -4.699157E+02
       320  10  6.099450E+05  2.758978E+04  2.990130E+04  2.261446E+04  2.392329E-10 -1.454911E-10
       320  11  5.840823E+05  1.964674E+04  2.434627E+04  2.118418E+03  1.437177E-09  5.927142E-09
       320  12  5.587186E+05  1.620575E+04  2.122546E+04  2.164493E+04  8.497148E-09  2.250165E-08
       320  13  5.031598E+05  9.495521E+02  3.493025E+03  2.158325E+04  1.322597E-10  3.344978E-08
       320  14  5.029193E+05 -5.968574E+02  4.272286E+03  1.565030E+03 -3.540012E-09 -4.845934E-08
       320  15  5.031579E+05  2.340090E+03  7.410250E+03  2.156966E+04  6.363015E-10  2.178519E-08
       320  16  3.963850E+05 -2.569153E+04 -2.291610E+04  2.055220E+04 -9.635309E-10 -3.030972E-08
       320  17  4.217622E+05 -2.084094E+04 -1.580219E+04  1.011699E+03 -4.099677E-09 -1.304721E-08
       320  18  4.476000E+05 -1.152580E+04 -6.405186E+03  2.149439E+04 -6.136371E-09  1.283761E-09
       320  19  6.099450E+05  2.758979E+04  2.990131E+04  2.261446E+04  7.604736E+02  1.763830E+03
       320  20  5.840823E+05  1.964674E+04  2.434629E+04  2.118422E+03  3.060772E+03  1.345825E+03
       320  21  5.587186E+05  1.620576E+04  2.122551E+04  2.164493E+04  5.365494E+03  4.751276E+02
       320  22  5.031598E+05  9.495556E+02  3.493032E+03  2.158325E+04  7.091473E+02  1.763361E+03
       320  23  5.029193E+05 -5.968532E+02  4.272305E+03  1.565033E+03  2.900464E+03  1.344300E+03
       320  24  5.031579E+05  2.340097E+03  7.410299E+03  2.156966E+04  5.096299E+03  4.725217E+02
       320  25  3.963850E+05 -2.569152E+04 -2.291609E+04  2.055220E+04  6.578299E+02  1.762893E+03
       320  26  4.217622E+05 -2.084094E+04 -1.580217E+04  1.011702E+03  2.740176E+03  1.342776E+03
       320  27  4.476000E+05 -1.152579E+04 -6.405142E+03  2.149439E+04  4.827129E+03  4.699157E+02
       321   1  4.590836E+05 -1.130293E+04 -2.106252E+03  2.241040E+04 -6.857301E+03  1.958303E+02
       321   2  4.309381E+05 -2.073952E+04 -3.009742E+03  5.587632E+02 -1.431748E+04  1.014398E+03
       321   3  4.079721E+05 -9.603125E+03  5.892598E+03  1.858015E+04 -2.177314E+04  1.399924E+03
       321   4  5.042068E+05 -6.009780E+01  9.122773E+03  2.159362E+04 -6.591871E+03  1.984174E+02
       321   5  5.016076E+05 -3.098598E+03  1.447220E+04  1.588148E+03 -1.415682E+04  1.015920E+03
       321   6  5.042047E+05  1.445286E+04  2.969931E+04  2.145537E+04 -2.171758E+04  1.400361E+03
       321   7  5.493318E+05  1.118258E+04  2.035165E+04  2.077677E+04 -6.326422E+03  2.010037E+02
       321   8  5.722815E+05  1.454195E+04  3.195377E+04  2.617639E+03 -1.399616E+04  1.017442E+03
       321   9  6.004458E+05  3.850819E+04  5.350534E+04  2.433102E+04 -2.166201E+04  1.400798E+03
       321  10  4.590835E+05 -1.130294E+04 -2.106340E+03  2.241040E+04  5.247906E-09 -1.074495E-08
       321  11  4.309379E+05 -2.073957E+04 -3.010129E+03  5.587749E+02  6.517278E-10 -1.066526E-08
       321  12  4.079716E+05 -9.603254E+03  5.891704E+03  1.858017E+04  6.253620E-09 -4.195243E-09
       321  13  5.042067E+05 -6.010949E+01  9.122691E+03  2.159362E+04 -8.583686E-14 -2.604422E-09
       321  14  5.016073E+05 -3.098653E+03  1.447182E+04  1.588160E+03 -2.834589E-09 -1.433370E-08
       321  15  5.042042E+05  1.445274E+04  2.969843E+04  2.145539E+04  1.809158E-10 -1.206983E-08
       321  16  5.493318E+05  1.118257E+04  2.035157E+04  2.077678E+04 -5.521057E-09 -1.726211E-08
       321  17  5.722813E+05  1.454190E+04  3.195340E+04  2.617651E+03 -3.260036E-09  8.811710E-09
       321  18  6.004453E+05  3.850806E+04  5.350446E+04  2.433104E+04 -4.312417E-09  2.356988E-08
       321  19  4.590836E+05 -1.130293E+04 -2.106252E+03  2.241040E+04  6.857301E+03 -1.958303E+02
       321  20  4.309381E+05 -2.073952E+04 -3.009742E+03  5.587632E+02  1.431748E+04 -1.014398E+03
       321  21  4.079721E+05 -9.603125E+03  5.892598E+03  1.858015E+04  2.177314E+04 -1.399924E+03
       321  22  5.042068E+05 -6.009780E+01  9.122773E+03  2.159362E+04  6.591871E+03 -1.984174E+02
       321  23  5.016076E+05 -3.098598E+03  1.447220E+04  1.588148E+03  1.415682E+04 -1.015920E+03
       321  24  5.042047E+05  1.445286E+04  2.969931E+04  2.145537E+04  2.171758E+04 -1.400361E+03
       321  25  5.493318E+05  1.118258E+04  2.035165E+04  2.077677E+04  6.326422E+03 -2.010037E+02
       321  26  5.722815E+05  1.454195E+04  3.195377E+04  2.617639E+03  1.399616E+04 -1.017442E+03
       321  27  6.004458E+05  3.850819E+04  5.350534E+04  2.433102E+04  2.166201E+04 -1.400798E+03
       322   1  3.129664E+05 -5.273048E+04 -1.319404E+04  2.830891E+04 -2.836296E+04  2.467108E+03
       322   2  2.678524E+05 -7.759530E+04 -3.609602E+02 -4.417630E+03 -5.755507E+04  3.462766E+03
       322   3  2.605677E+05  3.638040E+04  6.604478E+04  3.195193E+03 -8.671140E+04  6.848977E+02
       322   4  5.114810E+05 -3.375387E+03  3.595127E+04  2.196030E+04 -2.761172E+04  2.474483E+03
       322   5  4.924890E+05 -2.146970E+04  5.517365E+04  1.334724E+03 -5.771966E+04  3.460783E+03
       322   6  5.114692E+05  9.940796E+04  1.285897E+05  2.104751E+04 -8.779310E+04  6.730250E+02
       322   7  7.100315E+05  4.597694E+04  8.509368E+04  1.560957E+04 -2.686024E+04  2.481840E+03
       322   8  7.171715E+05  3.465223E+04  1.107045E+05  7.089057E+03 -5.788431E+04  3.458798E+03
       322   9  7.624285E+05  1.624319E+05  1.911300E+05  3.890692E+04 -8.887524E+04  6.610928E+02
       322  10  3.129656E+05 -5.273070E+04 -1.319557E+04  2.830897E+04  5.406958E-09 -1.399537E-08
       322  11  2.678489E+05 -7.759620E+04 -3.672049E+02 -4.417470E+03 -3.597124E-09  8.604071E-09
       322  12  2.605596E+05  3.637839E+04  6.603065E+04  3.195241E+03 -1.402440E-09  3.024544E-09
       322  13  5.114802E+05 -3.375598E+03  3.594982E+04  2.196035E+04  1.245763E-11  6.576688E-09
       322  14  4.924854E+05 -2.147061E+04  5.516737E+04  1.334884E+03 -2.626274E-09 -3.005487E-08
       322  15  5.114610E+05  9.940589E+04  1.285752E+05  2.104756E+04  1.510978E-10 -8.094858E-09
       322  16  7.100307E+05  4.597674E+04  8.509231E+04  1.560962E+04 -5.775470E-09  1.396184E-08
       322  17  7.171679E+05  3.465132E+04  1.106982E+05  7.089218E+03  1.573735E-09  2.801302E-08
       322  18  7.624200E+05  1.624298E+05  1.911151E+05  3.890697E+04  3.302446E-09 -2.364293E-09
       322  19  3.129664E+05 -5.273048E+04 -1.319404E+04  2.830891E+04  2.836296E+04 -2.467108E+03
       322  20  2.678524E+05 -7.759530E+04 -3.609602E+02 -4.417630E+03  5.755507E+04 -3.462766E+03
       322  21  2.605677E+05  3.638040E+04  6.604478E+04  3.195193E+03  8.671140E+04 -6.848977E+02
       322  22  5.114810E+05 -3.375387E+03  3.595127E+04  2.196030E+04  2.761172E+04 -2.474483E+03
       322  23  4.924890E+05 -2.146970E+04  5.517365E+04  1.334724E+03  5.771966E+04 -3.460783E+03
       322  24  5.114692E+05  9.940796E+04  1.285897E+05  2.104751E+04  8.779310E+04 -6.730250E+02
       322  25  7.100315E+05  4.597694E+04  8.509368E+04  1.560957E+04  2.686024E+04 -2.481840E+03
       322  26  7.171715E+05  3.465223E+04  1.107045E+05  7.089057E+03  5.788431E+04 -3.458798E+03
       322  27  7.624285E+05  1.624319E+05  1.911300E+05  3.890692E+04  8.887524E+04 -6.610928E+02
       323   1 -5.616439E+05 -2.795256E+06 -6.933787E+05  1.250002E+05  4.110776E+02 -3.822189E+05
       323   2 -8.975883E+03 -2.656303E+06 -3.596635E+05  3.278779E+04 -5.633041E+03 -2.417713E+05
       323   3 -8.269957E+04 -2.689999E+06 -2.737672E+05  2.003822E+04 -4.228180E+03 -1.012556E+05
       323   4 -4.412978E+05 -2.321179E+06 -5.746122E+05  4.958759E+04  4.401870E+02 -3.803445E+05
       323   5  9.683522E+04 -2.234823E+06 -2.550934E+05  1.174056E+04 -5.626912E+03 -2.415889E+05
       323   6  9.093040E+03 -2.320698E+06 -1.820815E+05  5.336579E+04 -4.222578E+03 -1.027775E+05
       323   7 -3.209480E+05 -1.846886E+06 -4.558599E+05 -2.588253E+04  4.688144E+02 -3.784685E+05
       323   8  2.026345E+05 -1.813179E+06 -1.505364E+05 -9.320714E+03 -5.620799E+03 -2.414063E+05
       323   9  1.008798E+05 -1.951271E+06 -9.040529E+04  8.671349E+04 -4.217140E+03 -1.043002E+05
       323  10 -5.616833E+05 -2.795413E+06 -6.936544E+05  1.250004E+05  1.855664E-09  1.329592E-08
       323  11 -8.991697E+03 -2.656366E+06 -3.597739E+05  3.278669E+04  2.612687E-10  2.751072E-09
       323  12 -8.270236E+04 -2.690010E+06 -2.737866E+05  2.003788E+04 -8.871651E-10  8.611132E-09
       323  13 -4.413368E+05 -2.321335E+06 -5.748850E+05  4.958772E+04  4.916472E-09  2.715932E-08
       323  14  9.681945E+04 -2.234885E+06 -2.552035E+05  1.173946E+04  4.945412E-09 -4.393354E-09
       323  15  9.090171E+03 -2.320710E+06 -1.821015E+05  5.336544E+04 -8.699415E-10  1.050316E-08
       323  16 -3.209866E+05 -1.847041E+06 -4.561299E+05 -2.588239E+04  3.960557E-09 -6.165730E-09
       323  17  2.026187E+05 -1.813242E+06 -1.506463E+05 -9.321808E+03  1.365758E-08 -1.385169E-08
       323  18  1.008769E+05 -1.951283E+06 -9.042584E+04  8.671313E+04 -3.482546E-09 -7.413843E-09
       323  19 -5.616439E+05 -2.795256E+06 -6.933787E+05  1.250002E+05 -4.110776E+02  3.822189E+05
       323  20 -8.975883E+03 -2.656303E+06 -3.596635E+05  3.278779E+04  5.633041E+03  2.417713E+05
       323  21 -8.269957E+04 -2.689999E+06 -2.737672E+05  2.003822E+04  4.228180E+03  1.012556E+05
       323  22 -4.412978E+05 -2.321179E+06 -5.746122E+05  4.958759E+04 -4.401870E+02  3.803445E+05
       323  23  9.683522E+04 -2.234823E+06 -2.550934E+05  1.174056E+04  5.626912E+03  2.415889E+05
       323  24  9.093040E+03 -2.320698E+06 -1.820815E+05  5.336579E+04  4.222578E+03  1.027775E+05
       323  25 -3.209480E+05 -1.846886E+06 -4.558599E+05 -2.588253E+04 -4.688144E+02  3.784685E+05
       323  26  2.026345E+05 -1.813179E+06 -1.505364E+05 -9.320714E+03  5.620799E+03  2.414063E+05
       323  27  1.008798E+05 -1.951271E+06 -9.040529E+04  8.671349E+04  4.217140E+03  1.043002E+05
       324   1 -9.734001E+04 -2.434241E+06 -1.960029E+05  6.925946E+04 -2.037780E+03 -7.183498E+04
       324   2  3.833637E+03 -2.352131E+06 -1.327119E+05  9.618325E+03 -1.224281E+03 -1.311875E+04
       324   3 -5.355050E+04 -2.315679E+06 -1.470453E+05  4.233692E+04 -1.063077E+02  4.560500E+04
       324   4 -6.167800E+04 -2.292660E+06 -1.608595E+05  5.481926E+04 -2.034232E+03 -7.210309E+04
       324   5  2.443309E+04 -2.269829E+06 -1.122860E+05  8.692762E+03 -1.221905E+03 -1.345030E+04
       324   6 -4.799089E+04 -2.292643E+06 -1.412826E+05  5.492655E+04 -1.025828E+02  4.520443E+04
       324   7 -2.601674E+04 -2.151060E+06 -1.257176E+05  4.037577E+04 -2.030672E+03 -7.237127E+04
       324   8  4.503204E+04 -2.187522E+06 -9.186058E+04  7.767086E+03 -1.219527E+03 -1.378189E+04
       324   9 -4.243073E+04 -2.269606E+06 -1.355199E+05  6.751666E+04 -9.887430E+01  4.480384E+04
       324  10 -9.734141E+04 -2.434246E+06 -1.960126E+05  6.925935E+04 -4.225956E-09  1.494439E-08
       324  11  3.833589E+03 -2.352131E+06 -1.327122E+05  9.618312E+03 -1.933967E-09  3.946003E-10
       324  12 -5.355106E+04 -2.315681E+06 -1.470492E+05  4.233692E+04 -1.660303E-09  1.226374E-08
       324  13 -6.167940E+04 -2.292665E+06 -1.608694E+05  5.481914E+04 -3.711795E-09  1.128113E-08
       324  14  2.443304E+04 -2.269830E+06 -1.122863E+05  8.692748E+03  1.214727E-09  4.408631E-09
       324  15 -4.799145E+04 -2.292645E+06 -1.412865E+05  5.492656E+04 -1.242911E-09  1.406105E-08
       324  16 -2.601816E+04 -2.151066E+06 -1.257275E+05  4.037566E+04 -6.332243E-09 -4.113084E-09
       324  17  4.503198E+04 -2.187522E+06 -9.186094E+04  7.767072E+03 -4.645646E-10 -3.990492E-09
       324  18 -4.243127E+04 -2.269608E+06 -1.355237E+05  6.751666E+04 -1.915339E-09 -7.709330E-09
       324  19 -9.734001E+04 -2.434241E+06 -1.960029E+05  6.925946E+04  2.037780E+03  7.183498E+04
       324  20  3.833637E+03 -2.352131E+06 -1.327119E+05  9.618325E+03  1.224281E+03  1.311875E+04
       324  21 -5.355050E+04 -2.315679E+06 -1.470453E+05  4.233692E+04  1.063077E+02 -4.560500E+04
       324  22 -6.167800E+04 -2.292660E+06 -1.608595E+05  5.481926E+04  2.034232E+03  7.210309E+04
       324  23  2.443309E+04 -2.269829E+06 -1.122860E+05  8.692762E+03  1.221905E+03  1.345030E+04
       324  24 -4.799089E+04 -2.292643E+06 -1.412826E+05  5.492655E+04  1.025828E+02 -4.520443E+04
       324  25 -2.601674E+04 -2.151060E+06 -1.257176E+05  4.037577E+04  2.030672E+03  7.237127E+04
       324  26  4.503204E+04 -2.187522E+06 -9.186058E+04  7.767086E+03  1.219527E+03  1.378189E+04
       324  27 -4.243073E+04 -2.269606E+06 -1.355199E+05  6.751666E+04  9.887430E+01 -4.480384E+04
       325   1  5.634434E+04 -2.100731E+06 -1.022045E+05  8.192976E+04  1.945460E+03  7.296768E+04
       325   2  1.447776E+05 -1.975657E+06 -1.398347E+05 -6.154747E+03  3.546849E+03  1.838792E+05
       325   3 -2.662648E+05 -1.988007E+06 -3.742504E+05 -7.568237E+03 -3.986842E+02  2.947625E+05
       325   4  3.707709E+03 -2.313025E+06 -1.549287E+05  5.462083E+04  1.950990E+03  7.171241E+04
       325   5  7.731819E+04 -2.244353E+06 -2.064602E+05  9.926165E+03  3.551123E+03  1.839054E+05
       325   6 -3.488955E+05 -2.313404E+06 -4.557373E+05  5.190361E+04 -3.812001E+02  2.960600E+05
       325   7 -4.892939E+04 -2.525277E+06 -2.076557E+05  2.732134E+04  1.956630E+03  7.045758E+04
       325   8  9.854273E+03 -2.512982E+06 -2.730910E+05  2.600021E+04  3.555401E+03  1.839317E+05
       325   9 -4.315212E+05 -2.638698E+06 -5.372303E+05  1.113443E+05 -3.634564E+02  2.973567E+05
       325  10  5.634290E+04 -2.100737E+06 -1.022146E+05  8.192965E+04 -1.340949E-10  1.880962E-08
       325  11  1.447684E+05 -1.975694E+06 -1.398984E+05 -6.155273E+03  9.250834E-09  9.491511E-09
       325  12 -2.662883E+05 -1.988101E+06 -3.744142E+05 -7.568143E+03  3.199320E-09  2.500477E-09
       325  13  3.706318E+03 -2.313031E+06 -1.549384E+05  5.462072E+04  1.183868E-09  1.551370E-08
       325  14  7.730905E+04 -2.244389E+06 -2.065240E+05  9.925639E+03  2.028401E-09  1.897169E-11
       325  15 -3.489191E+05 -2.313499E+06 -4.559026E+05  5.190371E+04  4.420466E-09  1.536727E-08
       325  16 -4.893074E+04 -2.525282E+06 -2.076651E+05  2.732123E+04 -4.625891E-09 -9.510564E-09
       325  17  9.845130E+03 -2.513019E+06 -2.731549E+05  2.599968E+04  4.866026E-09 -9.236314E-09
       325  18 -4.315451E+05 -2.638793E+06 -5.373972E+05  1.113444E+05  3.298416E-09 -6.541634E-09
       325  19  5.634434E+04 -2.100731E+06 -1.022045E+05  8.192976E+04 -1.945460E+03 -7.296768E+04
       325  20  1.447776E+05 -1.975657E+06 -1.398347E+05 -6.154747E+03 -3.546849E+03 -1.838792E+05
       325  21 -2.662648E+05 -1.988007E+06 -3.742504E+05 -7.568237E+03  3.986842E+02 -2.947625E+05
       325  22  3.707709E+03 -2.313025E+06 -1.549287E+05  5.462083E+04 -1.950990E+03 -7.171241E+04
       325  23  7.731819E+04 -2.244353E+06 -2.064602E+05  9.926165E+03 -3.551123E+03 -1.839054E+05
       325  24 -3.488955E+05 -2.313404E+06 -4.557373E+05  5.190361E+04  3.812001E+02 -2.960600E+05
       325  25 -4.892939E+04 -2.525277E+06 -2.076557E+05  2.732134E+04 -1.956630E+03 -7.045758E+04
       325  26  9.854273E+03 -2.512982E+06 -2.730910E+05  2.600021E+04 -3.555401E+03 -1.839317E+05
       325  27 -4.315212E+05 -2.638698E+06 -5.372303E+05  1.113443E+05  3.634564E+02 -2.973567E+05
       326   1  1.131926E+06  7.921673E+05  2.561818E+05  7.471325E+05  1.402706E+05  1.072109E+05
       326   2  1.041384E+06  6.008102E+05  1.086148E+05  8.390694E+05  9.178357E+04  7.035787E+04
       326   3  1.101935E+06  6.144440E+05  7.027580E+04  8.341534E+05  4.337881E+04  3.339393E+04
       326   4  1.172409E+06  7.671398E+05  2.592577E+05  7.430055E+05  1.403194E+05  1.072366E+05
       326   5  1.058773E+06  5.992632E+05  1.117460E+05  8.414216E+05  9.179964E+04  7.036815E+04
       326   6  1.096234E+06  6.363787E+05  7.348510E+04  8.429856E+05  4.336499E+04  3.338511E+04
       326   7  1.212895E+06  7.421151E+05  2.623342E+05  7.388776E+05  1.403682E+05  1.072622E+05
       326   8  1.076163E+06  5.977163E+05  1.148773E+05  8.437739E+05  9.181572E+04  7.037843E+04
       326   9  1.090534E+06  6.583146E+05  7.669451E+04  8.518179E+05  4.335117E+04  3.337629E+04
       326  10  1.131902E+06  7.921498E+05  2.561234E+05  7.471204E+05  6.063688E-09 -9.065681E-09
       326  11  1.041374E+06  6.008027E+05  1.085897E+05  8.390642E+05  6.579291E-09 -1.963164E-08
       326  12  1.101932E+06  6.144423E+05  7.027019E+04  8.341522E+05 -1.464290E-08 -2.366116E-08
       326  13  1.172384E+06  7.671222E+05  2.591993E+05  7.429934E+05  2.680227E-09 -7.682847E-09
       326  14  1.058763E+06  5.992556E+05  1.117210E+05  8.414164E+05  1.298016E-09 -1.111394E-08
       326  15  1.096232E+06  6.363770E+05  7.347948E+04  8.429845E+05 -3.550903E-09 -2.174215E-09
       326  16  1.212871E+06  7.420975E+05  2.622758E+05  7.388655E+05  1.713700E-10 -8.377354E-09
       326  17  1.076153E+06  5.977087E+05  1.148522E+05  8.437687E+05  5.517182E-09 -9.142676E-09
       326  18  1.090532E+06  6.583129E+05  7.668891E+04  8.518167E+05  1.066003E-09  1.311495E-08
       326  19  1.131926E+06  7.921673E+05  2.561818E+05  7.471325E+05 -1.402706E+05 -1.072109E+05
       326  20  1.041384E+06  6.008102E+05  1.086148E+05  8.390694E+05 -9.178357E+04 -7.035787E+04
       326  21  1.101935E+06  6.144440E+05  7.027580E+04  8.341534E+05 -4.337881E+04 -3.339393E+04
       326  22  1.172409E+06  7.671398E+05  2.592577E+05  7.430055E+05 -1.403194E+05 -1.072366E+05
       326  23  1.058773E+06  5.992632E+05  1.117460E+05  8.414216E+05 -9.179964E+04 -7.036815E+04
       326  24  1.096234E+06  6.363787E+05  7.348510E+04  8.429856E+05 -4.336499E+04 -3.338511E+04
       326  25  1.212895E+06  7.421151E+05  2.623342E+05  7.388776E+05 -1.403682E+05 -1.072622E+05
       326  26  1.076163E+06  5.977163E+05  1.148773E+05  8.437739E+05 -9.181572E+04 -7.037843E+04
       326  27  1.090534E+06  6.583146E+05  7.669451E+04  8.518179E+05 -4.335117E+04 -3.337629E+04
       327   1  1.085263E+06  6.503963E+05  5.763986E+04  8.145724E+05  3.375871E+04  2.603170E+04
       327   2  1.071895E+06  6.221308E+05  2.785114E+04  8.271395E+05  2.065568E+04  1.606881E+04
       327   3  1.080546E+06  6.251155E+05  1.898564E+04  8.261694E+05  7.559534E+03  6.097465E+03
       327   4  1.100187E+06  6.537762E+05  6.126472E+04  8.186997E+05  3.376693E+04  2.603759E+04
       327   5  1.083918E+06  6.291189E+05  3.161211E+04  8.323763E+05  2.066136E+04  1.607309E+04
       327   6  1.089668E+06  6.357117E+05  2.288448E+04  8.325159E+05  7.562751E+03  6.099967E+03
       327   7  1.115112E+06  6.571561E+05  6.488956E+04  8.228270E+05  3.377516E+04  2.604349E+04
       327   8  1.095942E+06  6.361071E+05  3.537306E+04  8.376132E+05  2.066704E+04  1.607737E+04
       327   9  1.098791E+06  6.463081E+05  2.678332E+04  8.388626E+05  7.565968E+03  6.102470E+03
       327  10  1.085262E+06  6.503952E+05  5.763646E+04  8.145717E+05  2.797114E-09  7.162824E-09
       327  11  1.071894E+06  6.221304E+05  2.784985E+04  8.271392E+05  1.408566E-08  1.060955E-08
       327  12  1.080546E+06  6.251154E+05  1.898546E+04  8.261693E+05 -1.627836E-09 -2.756572E-08
       327  13  1.100186E+06  6.537751E+05  6.126131E+04  8.186990E+05  3.674974E-10 -2.145228E-09
       327  14  1.083918E+06  6.291185E+05  3.161083E+04  8.323760E+05  1.597657E-08 -1.064677E-08
       327  15  1.089668E+06  6.357117E+05  2.288431E+04  8.325159E+05  9.441662E-09 -8.203111E-09
       327  16  1.115111E+06  6.571550E+05  6.488615E+04  8.228263E+05 -6.601818E-09  9.605978E-09
       327  17  1.095941E+06  6.361067E+05  3.537178E+04  8.376130E+05  1.471545E-08 -5.239161E-08
       327  18  1.098791E+06  6.463081E+05  2.678314E+04  8.388625E+05  1.024929E-08  1.091138E-08
       327  19  1.085263E+06  6.503963E+05  5.763986E+04  8.145724E+05 -3.375871E+04 -2.603170E+04
       327  20  1.071895E+06  6.221308E+05  2.785114E+04  8.271395E+05 -2.065568E+04 -1.606881E+04
       327  21  1.080546E+06  6.251155E+05  1.898564E+04  8.261694E+05 -7.559534E+03 -6.097465E+03
       327  22  1.100187E+06  6.537762E+05  6.126472E+04  8.186997E+05 -3.376693E+04 -2.603759E+04
       327  23  1.083918E+06  6.291189E+05  3.161211E+04  8.323763E+05 -2.066136E+04 -1.607309E+04
       327  24  1.089668E+06  6.357117E+05  2.288448E+04  8.325159E+05 -7.562751E+03 -6.099967E+03
       327  25  1.115112E+06  6.571561E+05  6.488956E+04  8.228270E+05 -3.377516E+04 -2.604349E+04
       327  26  1.095942E+06  6.361071E+05  3.537306E+04  8.376132E+05 -2.066704E+04 -1.607737E+04
       327  27  1.098791E+06  6.463081E+05  2.678332E+04  8.388626E+05 -7.565968E+03 -6.102470E+03
       328   1  1.075481E+06  6.289762E+05  1.612418E+04  8.233267E+05  4.423129E+03  3.718893E+03
       328   2  1.072882E+06  6.221170E+05  1.355346E+04  8.242915E+05 -3.038855E+03 -1.941535E+03
       328   3  1.077162E+06  6.272122E+05  2.059212E+04  8.211009E+05 -1.050105E+04 -7.601733E+03
       328   4  1.089976E+06  6.377257E+05  2.072524E+04  8.297852E+05  4.428772E+03  3.723188E+03
       328   5  1.086919E+06  6.324058E+05  1.836604E+04  8.313601E+05 -3.033375E+03 -1.937352E+03
       328   6  1.090740E+06  6.390402E+05  2.561614E+04  8.287795E+05 -1.049570E+04 -7.597684E+03
       328   7  1.104471E+06  6.464753E+05  2.532629E+04  8.362438E+05  4.434415E+03  3.727483E+03
       328   8  1.100955E+06  6.426947E+05  2.317859E+04  8.384288E+05 -3.027894E+03 -1.933169E+03
       328   9  1.104318E+06  6.508682E+05  3.064012E+04  8.364584E+05 -1.049035E+04 -7.593634E+03
       328  10  1.075481E+06  6.289762E+05  1.612412E+04  8.233267E+05  8.119418E-09 -7.951930E-09
       328  11  1.072882E+06  6.221170E+05  1.355344E+04  8.242915E+05  1.147577E-08 -1.008171E-08
       328  12  1.077162E+06  6.272121E+05  2.059181E+04  8.211008E+05  9.448865E-09 -1.711336E-08
       328  13  1.089976E+06  6.377257E+05  2.072518E+04  8.297852E+05  6.063277E-09 -2.347261E-08
       328  14  1.086919E+06  6.324058E+05  1.836601E+04  8.313601E+05  1.019720E-08  3.480477E-08
       328  15  1.090740E+06  6.390401E+05  2.561583E+04  8.287795E+05  1.541722E-08 -4.904319E-09
       328  16  1.104471E+06  6.464753E+05  2.532622E+04  8.362438E+05 -2.119444E-09 -3.373403E-09
       328  17  1.100955E+06  6.426947E+05  2.317856E+04  8.384288E+05  6.970377E-09 -4.191247E-08
       328  18  1.104318E+06  6.508681E+05  3.063981E+04  8.364584E+05  1.776453E-08 -2.181731E-08
       328  19  1.075481E+06  6.289762E+05  1.612418E+04  8.233267E+05 -4.423129E+03 -3.718893E+03
       328  20  1.072882E+06  6.221170E+05  1.355346E+04  8.242915E+05  3.038855E+03  1.941535E+03
       328  21  1.077162E+06  6.272122E+05  2.059212E+04  8.211009E+05  1.050105E+04  7.601733E+03
       328  22  1.089976E+06  6.377257E+05  2.072524E+04  8.297852E+05 -4.428772E+03 -3.723188E+03
       328  23  1.086919E+06  6.324058E+05  1.836604E+04  8.313601E+05  3.033375E+03  1.937352E+03
       328  24  1.090740E+06  6.390402E+05  2.561614E+04  8.287795E+05  1.049570E+04  7.597684E+03
       328  25  1.104471E+06  6.464753E+05  2.532629E+04  8.362438E+05 -4.434415E+03 -3.727483E+03
       328  26  1.100955E+06  6.426947E+05  2.317859E+04  8.384288E+05  3.027894E+03  1.933169E+03
       328  27  1.104318E+06  6.508682E+05  3.064012E+04  8.364584E+05  1.049035E+04  7.593634E+03
       329   1  1.068788E+06  6.263752E+05  2.399363E+04  8.256144E+05 -1.451953E+04 -1.062897E+04
       329   2  1.064898E+06  6.111926E+05  3.874709E+04  8.231882E+05 -3.325341E+04 -2.487075E+04
       329   3  1.092746E+06  6.427839E+05  8.388610E+04  8.009277E+05 -5.195499E+04 -3.915560E+04
       329   4  1.089940E+06  6.359163E+05  3.006857E+04  8.335923E+05 -1.450591E+04 -1.061844E+04
       329   5  1.082089E+06  6.263093E+05  4.513765E+04  8.329732E+05 -3.325068E+04 -2.486880E+04
       329   6  1.105977E+06  6.634775E+05  9.060097E+04  8.125200E+05 -5.196299E+04 -3.916258E+04
       329   7  1.111092E+06  6.454575E+05  3.614347E+04  8.415705E+05 -1.449228E+04 -1.060791E+04
       329   8  1.099279E+06  6.414263E+05  5.152817E+04  8.427586E+05 -3.324795E+04 -2.486685E+04
       329   9  1.119208E+06  6.841718E+05  9.731583E+04  8.241128E+05 -5.197099E+04 -3.916956E+04
       329  10  1.068788E+06  6.263751E+05  2.399302E+04  8.256143E+05  5.227589E-09 -2.292532E-08
       329  11  1.064897E+06  6.111916E+05  3.874386E+04  8.231875E+05 -5.159088E-10  1.835384E-09
       329  12  1.092743E+06  6.427815E+05  8.387816E+04  8.009260E+05 -1.053674E-08 -1.676259E-08
       329  13  1.089940E+06  6.359161E+05  3.006796E+04  8.335922E+05  1.242574E-08 -2.604669E-08
       329  14  1.082087E+06  6.263084E+05  4.513442E+04  8.329725E+05  7.142533E-09 -3.263365E-08
       329  15  1.105974E+06  6.634751E+05  9.059304E+04  8.125184E+05 -4.869673E-09  1.870046E-08
       329  16  1.111092E+06  6.454573E+05  3.614287E+04  8.415704E+05  1.581321E-08 -9.313173E-09
       329  17  1.099278E+06  6.414254E+05  5.152494E+04  8.427579E+05  6.269832E-09 -5.163540E-09
       329  18  1.119205E+06  6.841694E+05  9.730790E+04  8.241112E+05  7.503110E-10  1.187651E-08
       329  19  1.068788E+06  6.263752E+05  2.399363E+04  8.256144E+05  1.451953E+04  1.062897E+04
       329  20  1.064898E+06  6.111926E+05  3.874709E+04  8.231882E+05  3.325341E+04  2.487075E+04
       329  21  1.092746E+06  6.427839E+05  8.388610E+04  8.009277E+05  5.195499E+04  3.915560E+04
       329  22  1.089940E+06  6.359163E+05  3.006857E+04  8.335923E+05  1.450591E+04  1.061844E+04
       329  23  1.082089E+06  6.263093E+05  4.513765E+04  8.329732E+05  3.325068E+04  2.486880E+04
       329  24  1.105977E+06  6.634775E+05  9.060097E+04  8.125200E+05  5.196299E+04  3.916258E+04
       329  25  1.111092E+06  6.454575E+05  3.614347E+04  8.415705E+05  1.449228E+04  1.060791E+04
       329  26  1.099279E+06  6.414263E+05  5.152817E+04  8.427586E+05  3.324795E+04  2.486685E+04
       329  27  1.119208E+06  6.841718E+05  9.731583E+04  8.241128E+05  5.197099E+04  3.916956E+04
       330   1  1.053095E+06  6.428413E+05  1.010652E+05  8.432973E+05 -6.634597E+04 -5.000384E+04
       330   2  1.031625E+06  5.502857E+05  1.585506E+05  8.303925E+05 -1.388036E+05 -1.051592E+05
       330   3  1.234536E+06  7.672706E+05  3.796650E+05  6.728414E+05 -2.109657E+05 -1.606950E+05
       330   4  1.099755E+06  6.376330E+05  1.092665E+05  8.491237E+05 -6.628234E+04 -4.995134E+04
       330   5  1.044664E+06  5.810086E+05  1.671981E+05  8.464519E+05 -1.388336E+05 -1.051866E+05
       330   6  1.213960E+06  8.339332E+05  3.888365E+05  6.991383E+05 -2.110832E+05 -1.608110E+05
       330   7  1.146418E+06  6.324256E+05  1.174679E+05  8.549499E+05 -6.621870E+04 -4.989883E+04
       330   8  1.057703E+06  6.117330E+05  1.758456E+05  8.625118E+05 -1.388636E+05 -1.052140E+05
       330   9  1.193390E+06  9.006066E+05  3.980092E+05  7.254347E+05 -2.112008E+05 -1.609270E+05
       330  10  1.053090E+06  6.428375E+05  1.010523E+05  8.432946E+05 -2.939229E-09  7.762175E-09
       330  11  1.031601E+06  5.502687E+05  1.584937E+05  8.303808E+05  5.241862E-09  2.794025E-08
       330  12  1.234481E+06  7.672310E+05  3.795331E+05  6.728141E+05  8.694193E-10  2.030348E-08
       330  13  1.099750E+06  6.376292E+05  1.092536E+05  8.491210E+05  1.756586E-09  2.163952E-08
       330  14  1.044640E+06  5.809916E+05  1.671413E+05  8.464401E+05  8.595086E-09 -2.242074E-09
       330  15  1.213906E+06  8.338936E+05  3.887045E+05  6.991110E+05  3.278374E-09 -2.070733E-08
       330  16  1.146412E+06  6.324217E+05  1.174550E+05  8.549472E+05 -1.881895E-09  2.460068E-09
       330  17  1.057680E+06  6.117159E+05  1.757888E+05  8.625001E+05  9.131066E-09 -2.334961E-08
       330  18  1.193335E+06  9.005670E+05  3.978771E+05  7.254074E+05  1.101894E-08 -1.890305E-08
       330  19  1.053095E+06  6.428413E+05  1.010652E+05  8.432973E+05  6.634597E+04  5.000384E+04
       330  20  1.031625E+06  5.502857E+05  1.585506E+05  8.303925E+05  1.388036E+05  1.051592E+05
       330  21  1.234536E+06  7.672706E+05  3.796650E+05  6.728414E+05  2.109657E+05  1.606950E+05
       330  22  1.099755E+06  6.376330E+05  1.092665E+05  8.491237E+05  6.628234E+04  4.995134E+04
       330  23  1.044664E+06  5.810086E+05  1.671981E+05  8.464519E+05  1.388336E+05  1.051866E+05
       330  24  1.213960E+06  8.339332E+05  3.888365E+05  6.991383E+05  2.110832E+05  1.608110E+05
       330  25  1.146418E+06  6.324256E+05  1.174679E+05  8.549499E+05  6.621870E+04  4.989883E+04
       330  26  1.057703E+06  6.117330E+05  1.758456E+05  8.625118E+05  1.388636E+05  1.052140E+05
       330  27  1.193390E+06  9.006066E+05  3.980092E+05  7.254347E+05  2.112008E+05  1.609270E+05
       331   1  1.023278E+05  4.264307E+04  4.873260E+04  1.056504E+04  1.796045E+04 -3.481426E+02
       331   2  8.823494E+04  1.470845E+04  3.127809E+04  2.424709E+02  1.101458E+04 -1.277803E+03
       331   3  8.211313E+04  1.631709E+04  2.567202E+04  5.578254E+03  4.057011E+03 -8.630375E+02
       331   4  1.506694E+04  2.076440E+04  2.698198E+04  6.587291E+03  1.758901E+04 -3.515049E+02
       331   5  1.110801E+04 -4.554357E+03  1.220746E+04 -1.149047E+03  1.096667E+04 -1.278254E+03
       331   6  1.506483E+04 -3.840854E+02  9.057859E+03  6.772988E+03  4.332513E+03 -8.605618E+02
       331   7 -7.218700E+04 -1.114794E+03  5.230788E+03  2.610085E+03  1.721762E+04 -3.548626E+02
       331   8 -6.601352E+04 -2.381760E+04 -6.863604E+03 -2.540404E+03  1.091877E+04 -1.278705E+03
       331   9 -5.197937E+04 -1.708559E+04 -7.556633E+03  7.967584E+03  4.607985E+03 -8.580850E+02
       331  10  1.023275E+05  4.264299E+04  4.873199E+04  1.056505E+04  6.827169E-09  2.353805E-09
       331  11  8.823481E+04  1.470842E+04  3.127785E+04  2.424822E+02  2.013763E-09 -6.895940E-09
       331  12  8.211311E+04  1.631708E+04  2.567198E+04  5.578257E+03 -5.821564E-09 -1.534661E-08
       331  13  1.506661E+04  2.076432E+04  2.698139E+04  6.587296E+03 -2.471288E-11  8.502323E-09
       331  14  1.110788E+04 -4.554391E+03  1.220723E+04 -1.149036E+03 -2.246633E-09 -2.166094E-08
       331  15  1.506481E+04 -3.840912E+02  9.057822E+03  6.772991E+03  3.939185E-10 -1.951418E-08
       331  16 -7.218732E+04 -1.114874E+03  5.230231E+03  2.610090E+03 -6.823004E-09  3.213371E-09
       331  17 -6.601364E+04 -2.381764E+04 -6.863831E+03 -2.540393E+03 -3.948589E-09 -4.998587E-08
       331  18 -5.197940E+04 -1.708560E+04 -7.556674E+03  7.967587E+03  7.928481E-09 -2.163925E-08
       331  19  1.023278E+05  4.264307E+04  4.873260E+04  1.056504E+04 -1.796045E+04  3.481426E+02
       331  20  8.823494E+04  1.470845E+04  3.127809E+04  2.424709E+02 -1.101458E+04  1.277803E+03
       331  21  8.211313E+04  1.631709E+04  2.567202E+04  5.578254E+03 -4.057011E+03  8.630375E+02
       331  22  1.506694E+04  2.076440E+04  2.698198E+04  6.587291E+03 -1.758901E+04  3.515049E+02
       331  23  1.110801E+04 -4.554357E+03  1.220746E+04 -1.149047E+03 -1.096667E+04  1.278254E+03
       331  24  1.506483E+04 -3.840854E+02  9.057859E+03  6.772988E+03 -4.332513E+03  8.605618E+02
       331  25 -7.218700E+04 -1.114794E+03  5.230788E+03  2.610085E+03 -1.721762E+04  3.548626E+02
       331  26 -6.601352E+04 -2.381760E+04 -6.863604E+03 -2.540404E+03 -1.091877E+04  1.278705E+03
       331  27 -5.197937E+04 -1.708559E+04 -7.556633E+03  7.967584E+03 -4.607985E+03  8.580850E+02
       332   1  4.073339E+04  9.741831E+03  1.493985E+04  7.537927E+03  2.746035E+03 -4.544393E+02
       332   2  2.966654E+04  3.115537E+03  1.075943E+04 -9.966377E+02 -6.851619E+02 -2.879448E+02
       332   3  2.049259E+04  3.696179E+03  1.054239E+04  6.271403E+03 -4.117741E+03  3.007181E+01
       332   4  1.372691E+04  2.989309E+03  8.260119E+03  6.731446E+03  2.775148E+03 -4.541813E+02
       332   5  1.278347E+04 -1.098842E+03  6.582303E+03 -1.165518E+03 -6.195785E+02 -2.873537E+02
       332   6  1.372673E+04  2.013762E+03  8.842661E+03  6.740148E+03 -4.015741E+03  3.099114E+01
       332   7 -1.327890E+04 -3.763265E+03  1.580332E+03  5.924999E+03  2.804259E+03 -4.539233E+02
       332   8 -4.099330E+03 -5.313242E+03  2.405150E+03 -1.334395E+03 -5.539970E+02 -2.867627E+02
       332   9  6.960913E+03  3.313412E+02  7.142933E+03  7.208888E+03 -3.913743E+03  3.191064E+01
       332  10  4.073338E+04  9.741829E+03  1.493984E+04  7.537928E+03 -5.827887E-09 -8.500179E-09
       332  11  2.966654E+04  3.115537E+03  1.075943E+04 -9.966378E+02 -1.558881E-09 -1.728526E-08
       332  12  2.049257E+04  3.696175E+03  1.054235E+04  6.271403E+03  5.104381E-09 -5.309126E-10
       332  13  1.372691E+04  2.989307E+03  8.260104E+03  6.731447E+03  1.956466E-11 -1.709772E-08
       332  14  1.278347E+04 -1.098842E+03  6.582302E+03 -1.165518E+03 -2.539726E-09  1.132729E-08
       332  15  1.372671E+04  2.013757E+03  8.842630E+03  6.740148E+03  6.973140E-11  1.660528E-08
       332  16 -1.327891E+04 -3.763267E+03  1.580317E+03  5.925000E+03  5.750432E-09  1.095999E-08
       332  17 -4.099330E+03 -5.313243E+03  2.405150E+03 -1.334395E+03 -8.268558E-10 -2.422681E-08
       332  18  6.960897E+03  3.313371E+02  7.142904E+03  7.208888E+03 -3.676321E-09  2.188411E-08
       332  19  4.073339E+04  9.741831E+03  1.493985E+04  7.537927E+03 -2.746035E+03  4.544393E+02
       332  20  2.966654E+04  3.115537E+03  1.075943E+04 -9.966377E+02  6.851619E+02  2.879448E+02
       332  21  2.049259E+04  3.696179E+03  1.054239E+04  6.271403E+03  4.117741E+03 -3.007181E+01
       332  22  1.372691E+04  2.989309E+03  8.260119E+03  6.731446E+03 -2.775148E+03  4.541813E+02
       332  23  1.278347E+04 -1.098842E+03  6.582303E+03 -1.165518E+03  6.195785E+02  2.873537E+02
       332  24  1.372673E+04  2.013762E+03  8.842661E+03  6.740148E+03  4.015741E+03 -3.099114E+01
       332  25 -1.327890E+04 -3.763265E+03  1.580332E+03  5.924999E+03 -2.804259E+03  4.539233E+02
       332  26 -4.099330E+03 -5.313242E+03  2.405150E+03 -1.334395E+03  5.539970E+02  2.867627E+02
       332  27  6.960913E+03  3.313412E+02  7.142933E+03  7.208888E+03  3.913743E+03 -3.191064E+01
       333   1 -1.865389E+04 -8.267899E+03  2.016032E+03  7.736734E+03 -5.848617E+03  2.869924E+02
       333   2 -3.167246E+04 -1.402083E+04  4.360934E+03 -1.963281E+03 -1.367606E+04  5.757472E+02
       333   3 -3.885656E+04  8.663145E+02  1.689158E+04  4.058021E+03 -2.150154E+04  6.624065E+02
       333   4  1.460503E+04  1.178604E+01  1.027277E+04  6.766755E+03 -5.738368E+03  2.879988E+02
       333   5  1.168460E+04 -3.188431E+03  1.509410E+04 -1.157448E+03 -1.361481E+04  5.762825E+02
       333   6  1.460651E+04  1.425913E+04  3.013464E+04  6.639571E+03 -2.148942E+04  6.624330E+02
       333   7  4.786496E+04  8.291392E+03  1.852943E+04  5.796722E+03 -5.628114E+03  2.890048E+02
       333   8  5.504337E+04  7.643832E+03  2.582713E+04 -3.515632E+02 -1.355356E+04  5.768180E+02
       333   9  6.807219E+04  2.765175E+04  4.337748E+04  9.221337E+03 -2.147730E+04  6.624597E+02
       333  10 -1.865393E+04 -8.267908E+03  2.015967E+03  7.736735E+03  1.673590E-08 -5.235238E-09
       333  11 -3.167267E+04 -1.402088E+04  4.360582E+03 -1.963275E+03  6.784991E-10  9.260781E-09
       333  12 -3.885706E+04  8.661899E+02  1.689071E+04  4.058033E+03 -3.900504E-09 -3.871766E-09
       333  13  1.460499E+04  1.177711E+01  1.027271E+04  6.766756E+03 -5.539547E-11 -3.328466E-08
       333  14  1.168440E+04 -3.188481E+03  1.509375E+04 -1.157442E+03 -2.460518E-09 -1.495135E-08
       333  15  1.460602E+04  1.425900E+04  3.013377E+04  6.639582E+03  2.733610E-10 -5.136467E-09
       333  16  4.786492E+04  8.291384E+03  1.852937E+04  5.796723E+03 -1.688953E-08 -2.184077E-09
       333  17  5.504317E+04  7.643783E+03  2.582678E+04 -3.515569E+02 -2.847736E-09 -4.226168E-08
       333  18  6.807170E+04  2.765162E+04  4.337661E+04  9.221349E+03  5.624063E-09  4.242876E-09
       333  19 -1.865389E+04 -8.267899E+03  2.016032E+03  7.736734E+03  5.848617E+03 -2.869924E+02
       333  20 -3.167246E+04 -1.402083E+04  4.360934E+03 -1.963281E+03  1.367606E+04 -5.757472E+02
       333  21 -3.885656E+04  8.663145E+02  1.689158E+04  4.058021E+03  2.150154E+04 -6.624065E+02
       333  22  1.460503E+04  1.178604E+01  1.027277E+04  6.766755E+03  5.738368E+03 -2.879988E+02
       333  23  1.168460E+04 -3.188431E+03  1.509410E+04 -1.157448E+03  1.361481E+04 -5.762825E+02
       333  24  1.460651E+04  1.425913E+04  3.013464E+04  6.639571E+03  2.148942E+04 -6.624330E+02
       333  25  4.786496E+04  8.291392E+03  1.852943E+04  5.796722E+03  5.628114E+03 -2.890048E+02
       333  26  5.504337E+04  7.643832E+03  2.582713E+04 -3.515632E+02  1.355356E+04 -5.768180E+02
       333  27  6.807219E+04  2.765175E+04  4.337748E+04  9.221337E+03  2.147730E+04 -6.624597E+02
       334   1 -7.180200E+04 -2.680218E+04  1.314387E+04  1.402392E+04 -2.776612E+04  1.077542E+03
       334   2 -1.009225E+05 -4.748084E+04  2.986655E+04 -5.987151E+03 -5.762104E+04  1.327400E+03
       334   3 -9.169336E+04  7.080657E+04  1.007157E+05 -1.100035E+04 -8.746017E+04 -9.391282E+01
       334   4  2.183932E+04 -3.598252E+03  3.631455E+04  6.864153E+03 -2.744521E+04  1.080725E+03
       334   5  2.638117E+03 -2.154635E+04  5.549165E+04 -1.079460E+03 -5.770591E+04  1.326246E+03
       334   6  2.184973E+04  9.952903E+04  1.290702E+05  5.974633E+03 -8.795131E+04 -1.004387E+02
       334   7  1.154887E+05  1.960523E+04  5.948462E+04 -2.967104E+02 -2.712425E+04  1.083900E+03
       334   8  1.062086E+05  4.387420E+03  8.111596E+04  3.829030E+03 -5.779079E+04  1.325092E+03
       334   9  1.354051E+05  1.282515E+05  1.574238E+05  2.295270E+04 -8.844253E+04 -1.069906E+02
       334  10 -7.180282E+04 -2.680239E+04  1.314241E+04  1.402394E+04  1.380088E-08 -1.175840E-08
       334  11 -1.009261E+05 -4.748173E+04  2.986031E+04 -5.987089E+03  1.061592E-08  2.446677E-09
       334  12 -9.170158E+04  7.080452E+04  1.007013E+05 -1.100036E+04  3.295041E-09  2.465445E-08
       334  13  2.183852E+04 -3.598456E+03  3.631313E+04  6.864177E+03 -1.325519E-10  5.393834E-09
       334  14  2.634541E+03 -2.154724E+04  5.548539E+04 -1.079398E+03 -2.455980E-09 -1.043150E-08
       334  15  2.184142E+04  9.952695E+04  1.290556E+05  5.974626E+03  2.713219E-10  4.631874E-09
       334  16  1.154879E+05  1.960503E+04  5.948324E+04 -2.966867E+02 -1.399493E-08  1.747389E-08
       334  17  1.062050E+05  4.386522E+03  8.110968E+04  3.829091E+03 -1.288092E-08  1.146026E-08
       334  18  1.353967E+05  1.282494E+05  1.574091E+05  2.295269E+04 -1.720052E-09 -1.405036E-09
       334  19 -7.180200E+04 -2.680218E+04  1.314387E+04  1.402392E+04  2.776612E+04 -1.077542E+03
       334  20 -1.009225E+05 -4.748084E+04  2.986655E+04 -5.987151E+03  5.762104E+04 -1.327400E+03
       334  21 -9.169336E+04  7.080657E+04  1.007157E+05 -1.100035E+04  8.746017E+04  9.391282E+01
       334  22  2.183932E+04 -3.598252E+03  3.631455E+04  6.864153E+03  2.744521E+04 -1.080725E+03
       334  23  2.638117E+03 -2.154635E+04  5.549165E+04 -1.079460E+03  5.770591E+04 -1.326246E+03
       334  24  2.184973E+04  9.952903E+04  1.290702E+05  5.974633E+03  8.795131E+04  1.004387E+02
       334  25  1.154887E+05  1.960523E+04  5.948462E+04 -2.967104E+02  2.712425E+04 -1.083900E+03
       334  26  1.062086E+05  4.387420E+03  8.111596E+04  3.829030E+03  5.779079E+04 -1.325092E+03
       334  27  1.354051E+05  1.282515E+05  1.574238E+05  2.295270E+04  8.844253E+04  1.069906E+02
       335   1 -3.149542E+05 -1.924874E+06 -3.859344E+05  7.626855E+04 -5.704286E+01 -2.041892E+05
       335   2 -1.614374E+04 -1.842170E+06 -2.056833E+05  2.036037E+04 -3.820300E+03 -1.279475E+05
       335   3 -5.486149E+04 -1.852347E+06 -1.592652E+05  1.966346E+04 -2.749765E+03 -5.166160E+04
       335   4 -2.368441E+05 -1.616273E+06 -3.087305E+05  3.531696E+04 -5.494554E+01 -2.029286E+05
       335   5  5.213299E+04 -1.569858E+06 -1.381884E+05  8.739475E+03 -3.819227E+03 -1.278123E+05
       335   6  3.855537E+03 -1.616084E+06 -1.006492E+05  3.737608E+04 -2.743434E+03 -5.265655E+04
       335   7 -1.587352E+05 -1.307581E+06 -2.315329E+05 -5.654898E+03 -5.301811E+01 -2.016674E+05
       335   8  1.204046E+05 -1.297477E+06 -7.069897E+04 -2.886402E+03 -3.818159E+03 -1.276771E+05
       335   9  6.256964E+04 -1.379770E+06 -4.203720E+04  5.509556E+04 -2.737160E+03 -5.365187E+04
       335  10 -3.149654E+05 -1.924918E+06 -3.860129E+05  7.626855E+04  8.052804E-10  6.500984E-09
       335  11 -1.614817E+04 -1.842188E+06 -2.057142E+05  2.035998E+04 -2.016218E-09  4.195463E-08
       335  12 -5.486222E+04 -1.852349E+06 -1.592703E+05  1.966334E+04  8.824843E-10  2.296022E-08
       335  13 -2.368552E+05 -1.616317E+06 -3.088080E+05  3.531695E+04  3.541049E-09  1.877640E-08
       335  14  5.212857E+04 -1.569875E+06 -1.382192E+05  8.739081E+03  1.976556E-09  6.422227E-08
       335  15  3.854782E+03 -1.616087E+06 -1.006545E+05  3.737596E+04  1.059023E-09  1.883953E-08
       335  16 -1.587461E+05 -1.307625E+06 -2.316095E+05 -5.654907E+03  1.478301E-09 -1.155182E-08
       335  17  1.204002E+05 -1.297495E+06 -7.072970E+04 -2.886795E+03  9.744701E-09 -3.261418E-08
       335  18  6.256886E+04 -1.379773E+06 -4.204264E+04  5.509544E+04  2.847416E-10 -1.677452E-08
       335  19 -3.149542E+05 -1.924874E+06 -3.859344E+05  7.626855E+04  5.704286E+01  2.041892E+05
       335  20 -1.614374E+04 -1.842170E+06 -2.056833E+05  2.036037E+04  3.820300E+03  1.279475E+05
       335  21 -5.486149E+04 -1.852347E+06 -1.592652E+05  1.966346E+04  2.749765E+03  5.166160E+04
       335  22 -2.368441E+05 -1.616273E+06 -3.087305E+05  3.531696E+04  5.494554E+01  2.029286E+05
       335  23  5.213299E+04 -1.569858E+06 -1.381884E+05  8.739475E+03  3.819227E+03  1.278123E+05
       335  24  3.855537E+03 -1.616084E+06 -1.006492E+05  3.737608E+04  2.743434E+03  5.265655E+04
       335  25 -1.587352E+05 -1.307581E+06 -2.315329E+05 -5.654898E+03  5.301811E+01  2.016674E+05
       335  26  1.204046E+05 -1.297477E+06 -7.069897E+04 -2.886402E+03  3.818159E+03  1.276771E+05
       335  27  6.256964E+04 -1.379770E+06 -4.203720E+04  5.509556E+04  2.737160E+03  5.365187E+04
       336   1 -5.407220E+04 -1.685263E+06 -1.108640E+05  4.626171E+04 -1.271334E+03 -3.539419E+04
       336   2  3.319816E+03 -1.632596E+06 -7.757636E+04  7.663161E+03 -7.070944E+02 -5.968332E+02
       336   3 -3.332950E+04 -1.606795E+06 -9.025184E+04  3.017742E+04  1.755772E+01  3.420380E+04
       336   4 -3.298376E+04 -1.601499E+06 -9.009392E+04  3.792626E+04 -1.269448E+03 -3.557753E+04
       336   5  1.445202E+04 -1.588070E+06 -6.653521E+04  7.374616E+03 -7.053989E+02 -8.155168E+02
       336   6 -3.214370E+04 -1.601500E+06 -8.891191E+04  3.793603E+04  1.994958E+01  3.394759E+04
       336   7 -1.189559E+04 -1.517730E+06 -6.932432E+04  2.958968E+04 -1.267557E+03 -3.576091E+04
       336   8  2.558407E+04 -1.543542E+06 -5.549421E+04  7.086053E+03 -7.037033E+02 -1.034216E+03
       336   9 -3.095768E+04 -1.596204E+06 -8.757195E+04  4.569471E+04  2.233501E+01  3.369138E+04
       336  10 -5.407254E+04 -1.685264E+06 -1.108664E+05  4.626168E+04 -3.385261E-09 -4.279139E-09
       336  11  3.319815E+03 -1.632596E+06 -7.757636E+04  7.663161E+03 -2.836136E-09  2.485223E-08
       336  12 -3.332982E+04 -1.606796E+06 -9.025404E+04  3.017742E+04 -1.116986E-09  1.581044E-08
       336  13 -3.298410E+04 -1.601501E+06 -9.009631E+04  3.792622E+04 -1.920730E-09  2.108795E-08
       336  14  1.445202E+04 -1.588070E+06 -6.653521E+04  7.374616E+03  2.134383E-11  5.452212E-08
       336  15 -3.214401E+04 -1.601501E+06 -8.891408E+04  3.793603E+04 -1.548205E-10  9.635505E-09
       336  16 -1.189594E+04 -1.517731E+06 -6.932673E+04  2.958964E+04 -2.509969E-09 -4.302585E-09
       336  17  2.558407E+04 -1.543542E+06 -5.549421E+04  7.086053E+03 -4.448772E-09 -1.270133E-08
       336  18 -3.095799E+04 -1.596206E+06 -8.757409E+04  4.569471E+04 -5.265939E-09 -2.067292E-08
       336  19 -5.407220E+04 -1.685263E+06 -1.108640E+05  4.626171E+04  1.271334E+03  3.539419E+04
       336  20  3.319816E+03 -1.632596E+06 -7.757636E+04  7.663161E+03  7.070944E+02  5.968332E+02
       336  21 -3.332950E+04 -1.606795E+06 -9.025184E+04  3.017742E+04 -1.755772E+01 -3.420380E+04
       336  22 -3.298376E+04 -1.601499E+06 -9.009392E+04  3.792626E+04  1.269448E+03  3.557753E+04
       336  23  1.445202E+04 -1.588070E+06 -6.653521E+04  7.374616E+03  7.053989E+02  8.155168E+02
       336  24 -3.214370E+04 -1.601500E+06 -8.891191E+04  3.793603E+04 -1.994958E+01 -3.394759E+04
       336  25 -1.189559E+04 -1.517730E+06 -6.932432E+04  2.958968E+04  1.267557E+03  3.576091E+04
       336  26  2.558407E+04 -1.543542E+06 -5.549421E+04  7.086053E+03  7.037033E+02  1.034216E+03
       336  27 -3.095768E+04 -1.596204E+06 -8.757195E+04  4.569471E+04 -2.233501E+01 -3.369138E+04
       337   1  4.071777E+04 -1.465503E+06 -6.176761E+04  5.571221E+04  1.382567E+03  5.162376E+04
       337   2  9.808720E+04 -1.382633E+06 -8.872248E+04 -2.745159E+03  2.427346E+03  1.242876E+05
       337   3 -1.740375E+05 -1.390302E+06 -2.451368E+05 -3.507588E+03 -3.087020E+02  1.969266E+05
       337   4  3.524030E+03 -1.615652E+06 -9.902177E+04  3.788417E+04  1.387575E+03  5.077585E+04
       337   5  5.097683E+04 -1.570381E+06 -1.352452E+05  8.076446E+03  2.429065E+03  1.243243E+05
       337   6 -2.312758E+05 -1.615836E+06 -3.015744E+05  3.596407E+04 -3.040690E+02  1.978434E+05
       337   7 -3.367015E+04 -1.765781E+06 -1.362774E+05  2.006050E+04  1.392632E+03  4.992813E+04
       337   8  3.864228E+03 -1.758096E+06 -1.817705E+05  1.889483E+04  2.430786E+03  1.243610E+05
       337   9 -2.885123E+05 -1.841322E+06 -3.580152E+05  7.542142E+04 -2.993165E+02  1.987599E+05
       337  10  4.071705E+04 -1.465506E+06 -6.177263E+04  5.571215E+04 -7.833527E-10  9.286270E-09
       337  11  9.808303E+04 -1.382649E+06 -8.875158E+04 -2.745402E+03  3.431324E-09  3.336618E-08
       337  12 -1.740479E+05 -1.390343E+06 -2.452098E+05 -3.507539E+03  3.284287E-11  2.765072E-08
       337  13  3.523334E+03 -1.615655E+06 -9.902664E+04  3.788412E+04  5.963448E-10  2.543264E-08
       337  14  5.097267E+04 -1.570397E+06 -1.352743E+05  8.076202E+03  5.346161E-09  5.385251E-08
       337  15 -2.312863E+05 -1.615879E+06 -3.016482E+05  3.596412E+04  1.827314E-09  1.285222E-08
       337  16 -3.367082E+04 -1.765784E+06 -1.362821E+05  2.006044E+04 -6.865846E-09 -1.805189E-08
       337  17  3.860054E+03 -1.758113E+06 -1.817996E+05  1.889459E+04  6.047556E-09 -3.406433E-08
       337  18 -2.885229E+05 -1.841364E+06 -3.580896E+05  7.542147E+04  3.871951E-09 -1.597879E-08
       337  19  4.071777E+04 -1.465503E+06 -6.176761E+04  5.571221E+04 -1.382567E+03 -5.162376E+04
       337  20  9.808720E+04 -1.382633E+06 -8.872248E+04 -2.745159E+03 -2.427346E+03 -1.242876E+05
       337  21 -1.740375E+05 -1.390302E+06 -2.451368E+05 -3.507588E+03  3.087020E+02 -1.969266E+05
       337  22  3.524030E+03 -1.615652E+06 -9.902177E+04  3.788417E+04 -1.387575E+03 -5.077585E+04
       337  23  5.097683E+04 -1.570381E+06 -1.352452E+05  8.076446E+03 -2.429065E+03 -1.243243E+05
       337  24 -2.312758E+05 -1.615836E+06 -3.015744E+05  3.596407E+04  3.040690E+02 -1.978434E+05
       337  25 -3.367015E+04 -1.765781E+06 -1.362774E+05  2.006050E+04 -1.392632E+03 -4.992813E+04
       337  26  3.864228E+03 -1.758096E+06 -1.817705E+05  1.889483E+04 -2.430786E+03 -1.243610E+05
       337  27 -2.885123E+05 -1.841322E+06 -3.580152E+05  7.542142E+04  2.993165E+02 -1.987599E+05
       338   1  3.764120E+05  2.911747E+05  1.377762E+05  2.262995E+05  7.859746E+04  6.025793E+04
       338   2  3.254678E+05  1.836037E+05  5.486186E+04  2.779643E+05  5.124350E+04  3.982431E+04
       338   3  3.594628E+05  1.912859E+05  3.331673E+04  2.751934E+05  2.412547E+04  1.908107E+04
       338   4  4.172161E+05  2.902674E+05  1.457241E+05  2.330255E+05  7.870914E+04  6.033954E+04
       338   5  3.533049E+05  1.958728E+05  6.279652E+04  2.883301E+05  5.127787E+04  3.984993E+04
       338   6  3.743463E+05  2.167436E+05  4.130206E+04  2.892001E+05  2.408347E+04  1.904955E+04
       338   7  4.580225E+05  2.893605E+05  1.536721E+05  2.397516E+05  7.882082E+04  6.042115E+04
       338   8  3.811428E+05  2.081421E+05  7.073112E+04  2.986963E+05  5.131225E+04  3.987555E+04
       338   9  3.892302E+05  2.422022E+05  4.928735E+04  3.032074E+05  2.404147E+04  1.901802E+04
       338  10  3.764044E+05  2.911691E+05  1.377578E+05  2.262957E+05 -2.536502E-09 -1.177122E-09
       338  11  3.254646E+05  1.836012E+05  5.485395E+04  2.779626E+05 -1.278650E-09 -3.389062E-08
       338  12  3.594621E+05  1.912853E+05  3.331495E+04  2.751931E+05  2.948522E-09 -2.227737E-09
       338  13  4.172085E+05  2.902618E+05  1.457056E+05  2.330217E+05 -1.454357E-09 -2.107167E-08
       338  14  3.533017E+05  1.958704E+05  6.278861E+04  2.883284E+05 -1.533812E-10  6.807067E-08
       338  15  3.743456E+05  2.167430E+05  4.130029E+04  2.891998E+05  1.376405E-09  1.662658E-08
       338  16  4.580149E+05  2.893549E+05  1.536535E+05  2.397478E+05 -6.217028E-10  1.189990E-08
       338  17  3.811396E+05  2.081397E+05  7.072319E+04  2.986947E+05  1.930836E-09  5.633807E-09
       338  18  3.892294E+05  2.422017E+05  4.928558E+04  3.032070E+05 -2.733032E-09  4.736727E-09
       338  19  3.764120E+05  2.911747E+05  1.377762E+05  2.262995E+05 -7.859746E+04 -6.025793E+04
       338  20  3.254678E+05  1.836037E+05  5.486186E+04  2.779643E+05 -5.124350E+04 -3.982431E+04
       338  21  3.594628E+05  1.912859E+05  3.331673E+04  2.751934E+05 -2.412547E+04 -1.908107E+04
       338  22  4.172161E+05  2.902674E+05  1.457241E+05  2.330255E+05 -7.870914E+04 -6.033954E+04
       338  23  3.533049E+05  1.958728E+05  6.279652E+04  2.883301E+05 -5.127787E+04 -3.984993E+04
       338  24  3.743463E+05  2.167436E+05  4.130206E+04  2.892001E+05 -2.408347E+04 -1.904955E+04
       338  25  4.580225E+05  2.893605E+05  1.536721E+05  2.397516E+05 -7.882082E+04 -6.042115E+04
       338  26  3.811428E+05  2.081421E+05  7.073112E+04  2.986963E+05 -5.131225E+04 -3.987555E+04
       338  27  3.892302E+05  2.422022E+05  4.928735E+04  3.032074E+05 -2.404147E+04 -1.901802E+04
       339   1  3.499196E+05  2.113854E+05  2.615499E+04  2.641120E+05  1.870520E+04  1.487351E+04
       339   2  3.423966E+05  1.953922E+05  9.415336E+03  2.711284E+05  1.131781E+04  9.307752E+03
       339   3  3.471486E+05  1.970999E+05  4.448510E+03  2.705644E+05  3.959423E+03  3.703906E+03
       339   4  3.765542E+05  2.265490E+05  3.443986E+04  2.755611E+05  1.872191E+04  1.488615E+04
       339   5  3.674579E+05  2.126219E+05  1.778973E+04  2.832290E+05  1.132498E+04  9.313209E+03
       339   6  3.706381E+05  2.163971E+05  1.292029E+04  2.833167E+05  3.957079E+03  3.702129E+03
       339   7  4.031896E+05  2.417129E+05  4.272465E+04  2.870106E+05  1.873862E+04  1.489878E+04
       339   8  3.925198E+05  2.298519E+05  2.616404E+04  2.953302E+05  1.133215E+04  9.318666E+03
       339   9  3.941283E+05  2.356948E+05  2.139200E+04  2.960697E+05  3.954735E+03  3.700351E+03
       339  10  3.499191E+05  2.113850E+05  2.615392E+04  2.641118E+05  3.121994E-09  4.522165E-11
       339  11  3.423965E+05  1.953921E+05  9.414933E+03  2.711283E+05 -6.028818E-09  2.225077E-08
       339  12  3.471485E+05  1.970999E+05  4.448455E+03  2.705644E+05 -1.668284E-08  1.648707E-08
       339  13  3.765538E+05  2.265487E+05  3.443879E+04  2.755608E+05  4.425233E-11  2.704820E-08
       339  14  3.674577E+05  2.126218E+05  1.778932E+04  2.832289E+05  1.296114E-09 -3.784495E-09
       339  15  3.706381E+05  2.163971E+05  1.292023E+04  2.833167E+05 -1.037263E-08  2.797040E-08
       339  16  4.031891E+05  2.417126E+05  4.272357E+04  2.870103E+05 -2.177830E-09 -2.795532E-08
       339  17  3.925197E+05  2.298518E+05  2.616364E+04  2.953301E+05  3.191119E-09 -3.570035E-08
       339  18  3.941282E+05  2.356948E+05  2.139194E+04  2.960697E+05 -5.703379E-09 -6.688184E-09
       339  19  3.499196E+05  2.113854E+05  2.615499E+04  2.641120E+05 -1.870520E+04 -1.487351E+04
       339  20  3.423966E+05  1.953922E+05  9.415336E+03  2.711284E+05 -1.131781E+04 -9.307752E+03
       339  21  3.471486E+05  1.970999E+05  4.448510E+03  2.705644E+05 -3.959423E+03 -3.703906E+03
       339  22  3.765542E+05  2.265490E+05  3.443986E+04  2.755611E+05 -1.872191E+04 -1.488615E+04
       339  23  3.674579E+05  2.126219E+05  1.778973E+04  2.832290E+05 -1.132498E+04 -9.313209E+03
       339  24  3.706381E+05  2.163971E+05  1.292029E+04  2.833167E+05 -3.957079E+03 -3.702129E+03
       339  25  4.031896E+05  2.417129E+05  4.272465E+04  2.870106E+05 -1.873862E+04 -1.489878E+04
       339  26  3.925198E+05  2.298519E+05  2.616404E+04  2.953302E+05 -1.133215E+04 -9.318666E+03
       339  27  3.941283E+05  2.356948E+05  2.139200E+04  2.960697E+05 -3.954735E+03 -3.700351E+03
       340   1  3.440019E+05  1.990871E+05  2.765214E+03  2.688472E+05  2.183452E+03  2.352776E+03
       340   2  3.425323E+05  1.950398E+05  1.351293E+03  2.693108E+05 -2.070192E+03 -8.617990E+02
       340   3  3.448089E+05  1.980026E+05  5.418898E+03  2.674569E+05 -6.317318E+03 -4.084796E+03
       340   4  3.707940E+05  2.175407E+05  1.172800E+04  2.817982E+05  2.189514E+03  2.357397E+03
       340   5  3.691522E+05  2.144334E+05  1.046368E+04  2.826532E+05 -2.066386E+03 -8.588967E+02
       340   6  3.712569E+05  2.183362E+05  1.468263E+04  2.811908E+05 -6.315770E+03 -4.083628E+03
       340   7  3.975868E+05  2.359947E+05  2.069066E+04  2.947497E+05  2.195576E+03  2.362019E+03
       340   8  3.957728E+05  2.338273E+05  1.957595E+04  2.959962E+05 -2.062580E+03 -8.559943E+02
       340   9  3.977056E+05  2.386703E+05  2.394626E+04  2.949253E+05 -6.314223E+03 -4.082460E+03
       340  10  3.440019E+05  1.990871E+05  2.765195E+03  2.688472E+05  1.476132E-09  1.074490E-08
       340  11  3.425323E+05  1.950398E+05  1.351284E+03  2.693108E+05  6.254391E-09 -2.112478E-08
       340  12  3.448088E+05  1.980025E+05  5.418792E+03  2.674569E+05 -1.873661E-08  1.059717E-08
       340  13  3.707940E+05  2.175407E+05  1.172798E+04  2.817982E+05 -1.641138E-09  9.358023E-09
       340  14  3.691522E+05  2.144334E+05  1.046367E+04  2.826532E+05  8.546043E-09  3.958838E-09
       340  15  3.712568E+05  2.183362E+05  1.468253E+04  2.811907E+05 -1.267023E-08 -1.494543E-08
       340  16  3.975868E+05  2.359947E+05  2.069064E+04  2.947497E+05 -1.204180E-08 -4.868868E-09
       340  17  3.957728E+05  2.338273E+05  1.957594E+04  2.959962E+05  3.723782E-09 -2.033991E-08
       340  18  3.977055E+05  2.386702E+05  2.394615E+04  2.949253E+05 -4.785779E-09  2.470336E-08
       340  19  3.440019E+05  1.990871E+05  2.765214E+03  2.688472E+05 -2.183452E+03 -2.352776E+03
       340  20  3.425323E+05  1.950398E+05  1.351293E+03  2.693108E+05  2.070192E+03  8.617990E+02
       340  21  3.448089E+05  1.980026E+05  5.418898E+03  2.674569E+05  6.317318E+03  4.084796E+03
       340  22  3.707940E+05  2.175407E+05  1.172800E+04  2.817982E+05 -2.189514E+03 -2.357397E+03
       340  23  3.691522E+05  2.144334E+05  1.046368E+04  2.826532E+05  2.066386E+03  8.588967E+02
       340  24  3.712569E+05  2.183362E+05  1.468263E+04  2.811908E+05  6.315770E+03  4.083628E+03
       340  25  3.975868E+05  2.359947E+05  2.069066E+04  2.947497E+05 -2.195576E+03 -2.362019E+03
       340  26  3.957728E+05  2.338273E+05  1.957595E+04  2.959962E+05  2.062580E+03  8.559943E+02
       340  27  3.977056E+05  2.386703E+05  2.394626E+04  2.949253E+05  6.314223E+03  4.082460E+03
       341   1  3.396660E+05  1.972641E+05  7.278324E+03  2.698982E+05 -8.633426E+03 -5.818146E+03
       341   2  3.374279E+05  1.883906E+05  1.577118E+04  2.684387E+05 -1.940259E+04 -1.399163E+04
       341   3  3.533177E+05  2.066360E+05  4.175894E+04  2.556008E+05 -3.012500E+04 -2.222654E+04
       341   4  3.707979E+05  2.165265E+05  1.726014E+04  2.839696E+05 -8.619556E+03 -5.807522E+03
       341   5  3.663596E+05  2.109162E+05  2.596028E+04  2.835890E+05 -1.940408E+04 -1.399281E+04
       341   6  3.800517E+05  2.324270E+05  5.216797E+04  2.718303E+05 -3.014176E+04 -2.223963E+04
       341   7  4.019308E+05  2.357893E+05  2.724187E+04  2.980418E+05 -8.605686E+03 -5.796897E+03
       341   8  3.952921E+05  2.334423E+05  3.614926E+04  2.987401E+05 -1.940557E+04 -1.399400E+04
       341   9  4.067863E+05  2.582189E+05  6.257684E+04  2.880607E+05 -3.015853E+04 -2.225271E+04
       341  10  3.396659E+05  1.972640E+05  7.278121E+03  2.698982E+05 -1.029388E-08  9.144807E-09
       341  11  3.374274E+05  1.883903E+05  1.577010E+04  2.684385E+05 -3.784568E-09  2.983509E-08
       341  12  3.533166E+05  2.066352E+05  4.175631E+04  2.556003E+05 -6.460186E-10  1.570057E-08
       341  13  3.707978E+05  2.165264E+05  1.725994E+04  2.839696E+05 -1.187629E-08  9.365199E-09
       341  14  3.663591E+05  2.109159E+05  2.595921E+04  2.835888E+05 -2.181104E-09 -4.243416E-09
       341  15  3.800506E+05  2.324263E+05  5.216533E+04  2.718298E+05 -1.893974E-09 -2.273496E-08
       341  16  4.019307E+05  2.357893E+05  2.724167E+04  2.980417E+05 -2.248400E-08  6.973088E-09
       341  17  3.952917E+05  2.334420E+05  3.614818E+04  2.987399E+05  5.102087E-10 -2.232321E-08
       341  18  4.067852E+05  2.582181E+05  6.257421E+04  2.880602E+05 -1.570464E-09 -2.707923E-08
       341  19  3.396660E+05  1.972641E+05  7.278324E+03  2.698982E+05  8.633426E+03  5.818146E+03
       341  20  3.374279E+05  1.883906E+05  1.577118E+04  2.684387E+05  1.940259E+04  1.399163E+04
       341  21  3.533177E+05  2.066360E+05  4.175894E+04  2.556008E+05  3.012500E+04  2.222654E+04
       341  22  3.707979E+05  2.165265E+05  1.726014E+04  2.839696E+05  8.619556E+03  5.807522E+03
       341  23  3.663596E+05  2.109162E+05  2.596028E+04  2.835890E+05  1.940408E+04  1.399281E+04
       341  24  3.800517E+05  2.324270E+05  5.216797E+04  2.718303E+05  3.014176E+04  2.223963E+04
       341  25  4.019308E+05  2.357893E+05  2.724187E+04  2.980418E+05  8.605686E+03  5.796897E+03
       341  26  3.952921E+05  2.334423E+05  3.614926E+04  2.987401E+05  1.940557E+04  1.399400E+04
       341  27  4.067863E+05  2.582189E+05  6.257684E+04  2.880607E+05  3.015853E+04  2.225271E+04
       342   1  3.301967E+05  2.063985E+05  5.156271E+04  2.798546E+05 -3.848927E+04 -2.846063E+04
       342   2  3.178111E+05  1.530113E+05  8.467588E+04  2.723971E+05 -8.017783E+04 -6.014193E+04
       342   3  4.346291E+05  2.781609E+05  2.120546E+05  1.816246E+05 -1.214897E+05 -9.231629E+04
       342   4  3.764744E+05  2.175034E+05  6.292499E+04  2.929120E+05 -3.841368E+04 -2.840166E+04
       342   5  3.447888E+05  1.848276E+05  9.630668E+04  2.913751E+05 -8.022275E+04 -6.017770E+04
       342   6  4.423245E+05  3.307072E+05  2.240550E+05  2.065258E+05 -1.216532E+05 -9.244969E+04
       342   7  4.227546E+05  2.286085E+05  7.428721E+04  3.059700E+05 -3.833809E+04 -2.834269E+04
       342   8  3.717673E+05  2.166453E+05  1.079374E+05  3.103542E+05 -8.026768E+04 -6.021347E+04
       342   9  4.500213E+05  3.832590E+05  2.360557E+05  2.314281E+05 -1.218166E+05 -9.258312E+04
       342  10  3.301949E+05  2.063973E+05  5.155841E+04  2.798537E+05 -1.307962E-08  5.606101E-09
       342  11  3.178033E+05  1.530057E+05  8.465702E+04  2.723933E+05 -1.876421E-08  1.843682E-08
       342  12  4.346109E+05  2.781478E+05  2.120109E+05  1.816156E+05  1.788017E-10  2.383200E-08
       342  13  3.764726E+05  2.175021E+05  6.292071E+04  2.929111E+05 -5.972436E-09 -7.452907E-10
       342  14  3.447809E+05  1.848220E+05  9.628780E+04  2.913712E+05 -1.554056E-08  5.594834E-09
       342  15  4.423063E+05  3.306941E+05  2.240112E+05  2.065167E+05 -6.287580E-09  1.644664E-08
       342  16  4.227529E+05  2.286072E+05  7.428294E+04  3.059691E+05 -5.843668E-09  1.142468E-09
       342  17  3.717594E+05  2.166397E+05  1.079185E+05  3.103503E+05 -1.285382E-08 -2.899887E-09
       342  18  4.500031E+05  3.832458E+05  2.360118E+05  2.314190E+05 -8.500568E-09 -1.737380E-08
       342  19  3.301967E+05  2.063985E+05  5.156271E+04  2.798546E+05  3.848927E+04  2.846063E+04
       342  20  3.178111E+05  1.530113E+05  8.467588E+04  2.723971E+05  8.017783E+04  6.014193E+04
       342  21  4.346291E+05  2.781609E+05  2.120546E+05  1.816246E+05  1.214897E+05  9.231629E+04
       342  22  3.764744E+05  2.175034E+05  6.292499E+04  2.929120E+05  3.841368E+04  2.840166E+04
       342  23  3.447888E+05  1.848276E+05  9.630668E+04  2.913751E+05  8.022275E+04  6.017770E+04
       342  24  4.423245E+05  3.307072E+05  2.240550E+05  2.065258E+05  1.216532E+05  9.244969E+04
       342  25  4.227546E+05  2.286085E+05  7.428721E+04  3.059700E+05  3.833809E+04  2.834269E+04
       342  26  3.717673E+05  2.166453E+05  1.079374E+05  3.103542E+05  8.026768E+04  6.021347E+04
       342  27  4.500213E+05  3.832590E+05  2.360557E+05  2.314281E+05  1.218166E+05  9.258312E+04
       343   1 -1.314516E+05 -1.371207E+06 -1.623448E+05  3.340788E+04  7.062327E+01 -8.748422E+04
       343   2 -4.143761E+03 -1.341721E+06 -8.661116E+04  1.429233E+04 -1.425545E+03 -5.435293E+04
       343   3 -2.288026E+04 -1.352736E+06 -6.892796E+04  8.982080E+03 -1.214457E+03 -2.120659E+04
       343   4 -1.021468E+05 -1.255543E+06 -1.334163E+05  1.580909E+04  6.888377E+01 -8.699890E+04
       343   5  2.253816E+04 -1.235296E+06 -6.024067E+04  9.345219E+03 -1.425831E+03 -5.427155E+04
       343   6  1.261944E+03 -1.255474E+06 -4.482693E+04  1.668729E+04 -1.212066E+03 -2.152966E+04
       343   7 -7.284192E+04 -1.139866E+06 -1.044888E+05 -1.792969E+03  6.711667E+01 -8.651349E+04
       343   8  4.921930E+04 -1.128862E+06 -3.387101E+04  4.397279E+03 -1.426118E+03 -5.419014E+04
       343   9  2.540368E+04 -1.158204E+06 -2.072657E+04  2.439372E+04 -1.209683E+03 -2.185278E+04
       343  10 -1.314537E+05 -1.371215E+06 -1.623592E+05  3.340788E+04  1.144549E-09  5.038287E-09
       343  11 -4.144558E+03 -1.341724E+06 -8.661673E+04  1.429227E+04 -4.437618E-09  9.662128E-09
       343  12 -2.288039E+04 -1.352736E+06 -6.892881E+04  8.982059E+03  1.980952E-09 -7.626003E-09
       343  13 -1.021489E+05 -1.255551E+06 -1.334306E+05  1.580909E+04  1.831809E-09 -9.629916E-09
       343  14  2.253736E+04 -1.235300E+06 -6.024622E+04  9.345157E+03 -1.117173E-09  8.580895E-09
       343  15  1.261818E+03 -1.255475E+06 -4.482781E+04  1.668727E+04  4.738906E-09 -4.861361E-08
       343  16 -7.284393E+04 -1.139874E+06 -1.045028E+05 -1.792964E+03 -3.851001E-10 -7.616175E-09
       343  17  4.921851E+04 -1.128865E+06 -3.387654E+04  4.397217E+03  7.105146E-09 -2.067096E-08
       343  18  2.540355E+04 -1.158205E+06 -2.072747E+04  2.439370E+04  3.455267E-09 -7.881951E-09
       343  19 -1.314516E+05 -1.371207E+06 -1.623448E+05  3.340788E+04 -7.062327E+01  8.748422E+04
       343  20 -4.143761E+03 -1.341721E+06 -8.661116E+04  1.429233E+04  1.425545E+03  5.435293E+04
       343  21 -2.288026E+04 -1.352736E+06 -6.892796E+04  8.982080E+03  1.214457E+03  2.120659E+04
       343  22 -1.021468E+05 -1.255543E+06 -1.334163E+05  1.580909E+04 -6.888377E+01  8.699890E+04
       343  23  2.253816E+04 -1.235296E+06 -6.024067E+04  9.345219E+03  1.425831E+03  5.427155E+04
       343  24  1.261944E+03 -1.255474E+06 -4.482693E+04  1.668729E+04  1.212066E+03  2.152966E+04
       343  25 -7.284192E+04 -1.139866E+06 -1.044888E+05 -1.792969E+03 -6.711667E+01  8.651349E+04
       343  26  4.921930E+04 -1.128862E+06 -3.387101E+04  4.397279E+03  1.426118E+03  5.419014E+04
       343  27  2.540368E+04 -1.158204E+06 -2.072657E+04  2.439372E+04  1.209683E+03  2.185278E+04
       344   1 -2.854183E+04 -1.306896E+06 -5.493359E+04  2.084753E+04 -7.986504E+02 -1.385312E+04
       344   2 -4.955400E+03 -1.290047E+06 -4.336961E+04  9.017256E+03 -7.751804E+02  2.738967E+03
       344   3 -2.593043E+04 -1.286169E+06 -5.369560E+04  1.325371E+04 -5.846714E+02  1.933263E+04
       344   4 -1.409467E+04 -1.249387E+06 -4.066242E+04  1.687002E+04 -7.984090E+02 -1.387206E+04
       344   5  6.823810E+03 -1.242907E+06 -3.168509E+04  8.826456E+03 -7.747067E+02  2.681182E+03
       344   6 -1.681063E+04 -1.249389E+06 -4.456950E+04  1.684961E+04 -5.837695E+02  1.923573E+04
       344   7  3.522966E+02 -1.191874E+06 -2.639149E+04  1.289214E+04 -7.981675E+02 -1.389100E+04
       344   8  1.860285E+04 -1.195764E+06 -2.000074E+04  8.635644E+03 -7.742330E+02  2.623392E+03
       344   9 -7.690877E+03 -1.212608E+06 -3.544349E+04  2.044573E+04 -5.828687E+02  1.913881E+04
       344  10 -2.854188E+04 -1.306896E+06 -5.493395E+04  2.084752E+04  1.103456E-09 -7.983310E-09
       344  11 -4.955402E+03 -1.290047E+06 -4.336962E+04  9.017258E+03 -4.214794E-09 -7.587756E-09
       344  12 -2.593053E+04 -1.286169E+06 -5.369631E+04  1.325372E+04  1.522201E-09  4.298057E-09
       344  13 -1.409472E+04 -1.249387E+06 -4.066278E+04  1.687001E+04  1.133036E-09 -8.916333E-09
       344  14  6.823808E+03 -1.242907E+06 -3.168510E+04  8.826457E+03 -1.342872E-08 -4.762108E-09
       344  15 -1.681073E+04 -1.249390E+06 -4.457020E+04  1.684962E+04 -1.720458E-09 -5.751769E-08
       344  16  3.522440E+02 -1.191874E+06 -2.639185E+04  1.289213E+04  5.332223E-11  3.419308E-09
       344  17  1.860285E+04 -1.195764E+06 -2.000075E+04  8.635646E+03 -7.559078E-09 -8.944157E-09
       344  18 -7.690976E+03 -1.212609E+06 -3.544418E+04  2.044574E+04 -1.119097E-09 -7.753102E-09
       344  19 -2.854183E+04 -1.306896E+06 -5.493359E+04  2.084753E+04  7.986504E+02  1.385312E+04
       344  20 -4.955400E+03 -1.290047E+06 -4.336961E+04  9.017256E+03  7.751804E+02 -2.738967E+03
       344  21 -2.593043E+04 -1.286169E+06 -5.369560E+04  1.325371E+04  5.846714E+02 -1.933263E+04
       344  22 -1.409467E+04 -1.249387E+06 -4.066242E+04  1.687002E+04  7.984090E+02  1.387206E+04
       344  23  6.823810E+03 -1.242907E+06 -3.168509E+04  8.826456E+03  7.747067E+02 -2.681182E+03
       344  24 -1.681063E+04 -1.249389E+06 -4.456950E+04  1.684961E+04  5.837695E+02 -1.923573E+04
       344  25  3.522966E+02 -1.191874E+06 -2.639149E+04  1.289214E+04  7.981675E+02  1.389100E+04
       344  26  1.860285E+04 -1.195764E+06 -2.000074E+04  8.635644E+03  7.742330E+02 -2.623392E+03
       344  27 -7.690877E+03 -1.212608E+06 -3.544349E+04  2.044573E+04  5.828687E+02 -1.913881E+04
       345   1  3.493252E+03 -1.251601E+06 -4.892553E+04  2.679905E+04 -3.031790E+02  2.789149E+04
       345   2  3.050930E+04 -1.217532E+06 -6.601615E+04  3.653598E+03 -2.085598E+02  6.580843E+04
       345   3 -1.136261E+05 -1.230888E+06 -1.505443E+05 -3.851185E+03 -6.865254E+02  1.037213E+05
       345   4  2.325661E+03 -1.257032E+06 -5.025872E+04  1.713644E+04 -3.022882E+02  2.772660E+04
       345   5  2.645684E+04 -1.233347E+06 -6.994564E+04  8.819170E+03 -2.077867E+02  6.577944E+04
       345   6 -1.205904E+05 -1.257113E+06 -1.571664E+05  1.614213E+04 -6.840645E+02  1.038276E+05
       345   7  1.158421E+03 -1.262464E+06 -5.159186E+04  7.473905E+03 -3.013923E+02  2.756171E+04
       345   8  2.240446E+04 -1.249162E+06 -7.387514E+04  1.398461E+04 -2.070141E+02  6.575045E+04
       345   9 -1.275533E+05 -1.283337E+06 -1.637883E+05  3.613459E+04 -6.815966E+02  1.039338E+05
       345  10  3.493043E+03 -1.251601E+06 -4.892700E+04  2.679906E+04 -3.495321E-11 -3.705145E-09
       345  11  3.050813E+04 -1.217536E+06 -6.602430E+04  3.653609E+03  2.134877E-09 -2.485637E-09
       345  12 -1.136290E+05 -1.230900E+06 -1.505645E+05 -3.851127E+03 -5.712552E-10  4.427212E-09
       345  13  2.325454E+03 -1.257033E+06 -5.026017E+04  1.713644E+04  3.010888E-09 -2.578721E-08
       345  14  2.645567E+04 -1.233352E+06 -6.995379E+04  8.819181E+03 -1.840147E-09 -1.819427E-12
       345  15 -1.205933E+05 -1.257125E+06 -1.571867E+05  1.614218E+04 -1.392304E-10 -5.761947E-08
       345  16  1.158216E+03 -1.262465E+06 -5.159330E+04  7.473911E+03 -2.813339E-09 -5.095134E-09
       345  17  2.240329E+04 -1.249167E+06 -7.388328E+04  1.398462E+04  6.317694E-10 -4.877179E-09
       345  18 -1.275562E+05 -1.283348E+06 -1.638086E+05  3.613465E+04  3.877292E-09 -5.781265E-09
       345  19  3.493252E+03 -1.251601E+06 -4.892553E+04  2.679905E+04  3.031790E+02 -2.789149E+04
       345  20  3.050930E+04 -1.217532E+06 -6.601615E+04  3.653598E+03  2.085598E+02 -6.580843E+04
       345  21 -1.136261E+05 -1.230888E+06 -1.505443E+05 -3.851185E+03  6.865254E+02 -1.037213E+05
       345  22  2.325661E+03 -1.257032E+06 -5.025872E+04  1.713644E+04  3.022882E+02 -2.772660E+04
       345  23  2.645684E+04 -1.233347E+06 -6.994564E+04  8.819170E+03  2.077867E+02 -6.577944E+04
       345  24 -1.205904E+05 -1.257113E+06 -1.571664E+05  1.614213E+04  6.840645E+02 -1.038276E+05
       345  25  1.158421E+03 -1.262464E+06 -5.159186E+04  7.473905E+03  3.013923E+02 -2.756171E+04
       345  26  2.240446E+04 -1.249162E+06 -7.387514E+04  1.398461E+04  2.070141E+02 -6.575045E+04
       345  27 -1.275533E+05 -1.283337E+06 -1.637883E+05  3.613459E+04  6.815966E+02 -1.039338E+05
       346   1 -4.669501E+05  4.498847E+04  2.277824E+04  1.303552E+04 -6.162193E+04 -2.536139E+03
       346   2 -4.899425E+05  1.244866E+05  6.602906E+04 -6.131189E+03 -4.062014E+04 -7.564761E+03
       346   3 -5.398918E+05  1.018862E+05  7.033317E+04  3.147254E+04 -1.960036E+04 -5.688235E+03
       346   4 -9.387793E+05 -7.307444E+04 -9.486552E+04  2.609331E+04 -6.360795E+04 -2.531239E+03
       346   5 -9.251349E+05  1.582286E+04 -4.165997E+04 -2.177464E+03 -4.096523E+04 -7.564407E+03
       346   6 -9.387548E+05  2.297530E+03 -2.856300E+04  2.632486E+04 -1.830318E+04 -5.690923E+03
       346   7 -1.410406E+06 -1.911536E+05 -2.125259E+05  3.914132E+04 -6.559245E+04 -2.526421E+03
       346   8 -1.360155E+06 -9.285500E+04 -1.493631E+05  1.773596E+03 -4.131006E+04 -7.564058E+03
       346   9 -1.337473E+06 -9.730299E+04 -1.274710E+05  2.118057E+04 -1.700683E+04 -5.693633E+03
       346  10 -4.669542E+05  4.498744E+04  2.277109E+04  1.303539E+04 -2.394804E-11 -2.341284E-10
       346  11 -4.899443E+05  1.244861E+05  6.602585E+04 -6.131436E+03  3.197508E-09 -4.958681E-10
       346  12 -5.398922E+05  1.018861E+05  7.033238E+04  3.147245E+04  1.600193E-10  2.388032E-10
       346  13 -9.387836E+05 -7.307554E+04 -9.487314E+04  2.609318E+04 -5.558612E-10 -2.472887E-10
       346  14 -9.251367E+05  1.582235E+04 -4.166324E+04 -2.177714E+03  1.702166E-09 -2.919309E-10
       346  15 -9.387551E+05  2.297405E+03 -2.856369E+04  2.632478E+04 -6.882022E-10  3.526523E-10
       346  16 -1.410411E+06 -1.911547E+05 -2.125341E+05  3.914119E+04 -1.060910E-09 -2.844570E-10
       346  17 -1.360157E+06 -9.285552E+04 -1.493664E+05  1.773344E+03 -1.066754E-09 -4.509883E-10
       346  18 -1.337473E+06 -9.730310E+04 -1.274716E+05  2.118049E+04 -2.411481E-09  8.531361E-11
       346  19 -4.669501E+05  4.498847E+04  2.277824E+04  1.303552E+04  6.162193E+04  2.536139E+03
       346  20 -4.899425E+05  1.244866E+05  6.602906E+04 -6.131189E+03  4.062014E+04  7.564761E+03
       346  21 -5.398918E+05  1.018862E+05  7.033317E+04  3.147254E+04  1.960036E+04  5.688235E+03
       346  22 -9.387793E+05 -7.307444E+04 -9.486552E+04  2.609331E+04  6.360795E+04  2.531239E+03
       346  23 -9.251349E+05  1.582286E+04 -4.165997E+04 -2.177464E+03  4.096523E+04  7.564407E+03
       346  24 -9.387548E+05  2.297530E+03 -2.856300E+04  2.632486E+04  1.830318E+04  5.690923E+03
       346  25 -1.410406E+06 -1.911536E+05 -2.125259E+05  3.914132E+04  6.559245E+04  2.526421E+03
       346  26 -1.360155E+06 -9.285500E+04 -1.493631E+05  1.773596E+03  4.131006E+04  7.564058E+03
       346  27 -1.337473E+06 -9.730299E+04 -1.274710E+05  2.118057E+04  1.700683E+04  5.693633E+03
       347   1 -6.865473E+05  5.132890E+04  3.655600E+04  2.523008E+04 -1.356162E+04 -3.854917E+03
       347   2 -7.235989E+05  5.473102E+04  3.583938E+04 -4.161649E+03 -5.698390E+03 -3.327408E+03
       347   3 -7.658844E+05  3.947230E+04  2.542642E+04  2.850492E+04  2.164921E+03 -1.903284E+03
       347   4 -9.338445E+05 -1.043836E+04 -2.471948E+04  2.741557E+04 -1.353574E+04 -3.855102E+03
       347   5 -9.312079E+05  2.884269E+03 -1.558939E+04 -3.606585E+03 -5.460248E+03 -3.327852E+03
       347   6 -9.338458E+05 -2.494253E+03 -1.630573E+04  2.743096E+04  2.615824E+03 -1.903893E+03
       347   7 -1.181086E+06 -7.221019E+04 -8.599951E+04  2.960020E+04 -1.350986E+04 -3.855287E+03
       347   8 -1.138778E+06 -4.896571E+04 -6.702137E+04 -3.051690E+03 -5.222185E+03 -3.328296E+03
       347   9 -1.101782E+06 -4.446293E+04 -5.803999E+04  2.635730E+04  3.066606E+03 -1.904504E+03
       347  10 -6.865475E+05  5.132884E+04  3.655563E+04  2.523004E+04  1.620460E-10  5.377093E-10
       347  11 -7.235989E+05  5.473100E+04  3.583930E+04 -4.161665E+03  1.554541E-10 -8.206133E-11
       347  12 -7.658844E+05  3.947230E+04  2.542640E+04  2.850493E+04 -1.517475E-09 -2.963306E-10
       347  13 -9.338447E+05 -1.043842E+04 -2.471985E+04  2.741552E+04 -1.071922E-09  4.430216E-10
       347  14 -9.312080E+05  2.884249E+03 -1.558946E+04 -3.606599E+03  6.381325E-10 -1.839046E-10
       347  15 -9.338458E+05 -2.494259E+03 -1.630575E+04  2.743097E+04  5.182951E-10 -2.418643E-10
       347  16 -1.181086E+06 -7.221025E+04 -8.599988E+04  2.960016E+04 -8.785265E-10  1.442292E-10
       347  17 -1.138778E+06 -4.896573E+04 -6.702144E+04 -3.051704E+03 -1.685971E-09 -4.692487E-10
       347  18 -1.101782E+06 -4.446293E+04 -5.804002E+04  2.635731E+04  9.841922E-11 -4.134517E-10
       347  19 -6.865473E+05  5.132890E+04  3.655600E+04  2.523008E+04  1.356162E+04  3.854917E+03
       347  20 -7.235989E+05  5.473102E+04  3.583938E+04 -4.161649E+03  5.698390E+03  3.327408E+03
       347  21 -7.658844E+05  3.947230E+04  2.542642E+04  2.850492E+04 -2.164921E+03  1.903284E+03
       347  22 -9.338445E+05 -1.043836E+04 -2.471948E+04  2.741557E+04  1.353574E+04  3.855102E+03
       347  23 -9.312079E+05  2.884269E+03 -1.558939E+04 -3.606585E+03  5.460248E+03  3.327852E+03
       347  24 -9.338458E+05 -2.494253E+03 -1.630573E+04  2.743096E+04 -2.615824E+03  1.903893E+03
       347  25 -1.181086E+06 -7.221019E+04 -8.599951E+04  2.960020E+04  1.350986E+04  3.855287E+03
       347  26 -1.138778E+06 -4.896571E+04 -6.702137E+04 -3.051690E+03  5.222185E+03  3.328296E+03
       347  27 -1.101782E+06 -4.446293E+04 -5.803999E+04  2.635730E+04 -3.066606E+03  1.904504E+03
       348   1 -9.262217E+05  1.269038E+03 -1.555489E+04  2.591948E+04  5.262692E+03 -8.187225E+02
       348   2 -9.623038E+05 -3.347198E+03 -3.075037E+04 -3.255508E+03  1.726816E+04  5.477432E+02
       348   3 -1.007282E+06 -3.811079E+04 -6.126527E+04  3.098888E+04  2.927206E+04  1.378808E+03
       348   4 -9.346354E+05 -8.166908E+02 -1.753471E+04  2.773717E+04  5.658142E+03 -8.191838E+02
       348   5 -9.302032E+05  4.670831E+03 -2.280525E+04 -3.985038E+03  1.753574E+04  5.473822E+02
       348   6 -9.346455E+05 -1.996578E+04 -4.330541E+04  2.771214E+04  2.941256E+04  1.378465E+03
       348   7 -9.430490E+05 -2.902413E+03 -1.951453E+04  2.955483E+04  6.053586E+03 -8.196427E+02
       348   8 -8.981017E+05  1.268878E+04 -1.486021E+04 -4.714605E+03  1.780334E+04  5.470205E+02
       348   9 -8.620045E+05 -1.821118E+03 -2.534593E+04  2.443501E+04  2.955307E+04  1.378121E+03
       348  10 -9.262217E+05  1.269030E+03 -1.555494E+04  2.591949E+04 -2.897474E-10  8.509037E-11
       348  11 -9.623041E+05 -3.347278E+03 -3.075093E+04 -3.255515E+03  2.644650E-09 -3.413007E-10
       348  12 -1.007282E+06 -3.811103E+04 -6.126688E+04  3.098885E+04  1.443980E-09  8.888832E-11
       348  13 -9.346354E+05 -8.167001E+02 -1.753477E+04  2.773717E+04  7.982978E-11  7.618636E-11
       348  14 -9.302036E+05  4.670748E+03 -2.280583E+04 -3.985045E+03  1.239700E-09 -5.009857E-10
       348  15 -9.346464E+05 -1.996601E+04 -4.330704E+04  2.771211E+04  1.564058E-09 -2.590400E-10
       348  16 -9.430491E+05 -2.902423E+03 -1.951460E+04  2.955483E+04 -1.903645E-10  5.953804E-11
       348  17 -8.981021E+05  1.268870E+04 -1.486081E+04 -4.714613E+03 -1.747831E-09 -2.383841E-10
       348  18 -8.620055E+05 -1.821355E+03 -2.534758E+04  2.443498E+04 -3.922379E-10 -3.728968E-10
       348  19 -9.262217E+05  1.269038E+03 -1.555489E+04  2.591948E+04 -5.262692E+03  8.187225E+02
       348  20 -9.623038E+05 -3.347198E+03 -3.075037E+04 -3.255508E+03 -1.726816E+04 -5.477432E+02
       348  21 -1.007282E+06 -3.811079E+04 -6.126527E+04  3.098888E+04 -2.927206E+04 -1.378808E+03
       348  22 -9.346354E+05 -8.166908E+02 -1.753471E+04  2.773717E+04 -5.658142E+03  8.191838E+02
       348  23 -9.302032E+05  4.670831E+03 -2.280525E+04 -3.985038E+03 -1.753574E+04 -5.473822E+02
       348  24 -9.346455E+05 -1.996578E+04 -4.330541E+04  2.771214E+04 -2.941256E+04 -1.378465E+03
       348  25 -9.430490E+05 -2.902413E+03 -1.951453E+04  2.955483E+04 -6.053586E+03  8.196427E+02
       348  26 -8.981017E+05  1.268878E+04 -1.486021E+04 -4.714605E+03 -1.780334E+04 -5.470205E+02
       348  27 -8.620045E+05 -1.821118E+03 -2.534593E+04  2.443501E+04 -2.955307E+04 -1.378121E+03
       349   1 -1.175607E+06 -5.263125E+04 -1.090788E+05  1.650631E+04  3.688920E+04  2.957500E+03
       349   2 -1.187587E+06 -3.710935E+04 -1.451768E+05  3.017732E+03  8.076992E+04  4.698568E+03
       349   3 -1.253644E+06 -2.174080E+05 -2.587092E+05  5.024886E+04  1.246403E+05  1.544930E+03
       349   4 -9.446391E+05  5.046931E+03 -5.174489E+04  2.722325E+04  3.791870E+04  2.956643E+03
       349   5 -9.177421E+05  3.030638E+04 -7.838457E+04 -3.285306E+03  8.064242E+04  4.697884E+03
       349   6 -9.446963E+05 -1.400081E+05 -1.816285E+05  2.692569E+04  1.233586E+05  1.542942E+03
       349   7 -7.136222E+05  6.272155E+04  5.585110E+03  3.794420E+04  3.894857E+04  2.955822E+03
       349   8 -6.478311E+05  9.771680E+04 -1.159779E+04 -9.591061E+03  8.051487E+04  4.697203E+03
       349   9 -6.356611E+05 -6.261335E+04 -1.045547E+05  3.590932E+03  1.220763E+05  1.541052E+03
       349  10 -1.175609E+06 -5.263163E+04 -1.090814E+05  1.650622E+04  1.134227E-09  4.231015E-10
       349  11 -1.187594E+06 -3.711113E+04 -1.451891E+05  3.017426E+03  1.433526E-09  3.027313E-11
       349  12 -1.253660E+06 -2.174122E+05 -2.587385E+05  5.024871E+04 -5.407797E-10  2.898611E-10
       349  13 -9.446406E+05  5.046535E+03 -5.174761E+04  2.722316E+04  1.035173E-09  9.213554E-11
       349  14 -9.177491E+05  3.030461E+04 -7.839685E+04 -3.285611E+03  4.607807E-10  7.239280E-10
       349  15 -9.447127E+05 -1.400122E+05 -1.816572E+05  2.692554E+04  4.500032E-10  4.172543E-10
       349  16 -7.136238E+05  6.272113E+04  5.582240E+03  3.794410E+04 -4.426164E-10 -1.227450E-10
       349  17 -6.478381E+05  9.771504E+04 -1.161003E+04 -9.591366E+03 -5.186529E-11 -9.061216E-10
       349  18 -6.356771E+05 -6.261736E+04 -1.045828E+05  3.590781E+03 -3.503658E-10 -1.490576E-10
       349  19 -1.175607E+06 -5.263125E+04 -1.090788E+05  1.650631E+04 -3.688920E+04 -2.957500E+03
       349  20 -1.187587E+06 -3.710935E+04 -1.451768E+05  3.017732E+03 -8.076992E+04 -4.698568E+03
       349  21 -1.253644E+06 -2.174080E+05 -2.587092E+05  5.024886E+04 -1.246403E+05 -1.544930E+03
       349  22 -9.446391E+05  5.046931E+03 -5.174489E+04  2.722325E+04 -3.791870E+04 -2.956643E+03
       349  23 -9.177421E+05  3.030638E+04 -7.838457E+04 -3.285306E+03 -8.064242E+04 -4.697884E+03
       349  24 -9.446963E+05 -1.400081E+05 -1.816285E+05  2.692569E+04 -1.233586E+05 -1.542942E+03
       349  25 -7.136222E+05  6.272155E+04  5.585110E+03  3.794420E+04 -3.894857E+04 -2.955822E+03
       349  26 -6.478311E+05  9.771680E+04 -1.159779E+04 -9.591061E+03 -8.051487E+04 -4.697203E+03
       349  27 -6.356611E+05 -6.261335E+04 -1.045547E+05  3.590932E+03 -1.220763E+05 -1.541052E+03
       350   1 -2.793535E+05 -1.940336E+06 -3.221748E+05  6.152414E+04 -3.521374E+03 -1.403402E+05
       350   2 -8.117468E+04 -1.844319E+06 -1.893605E+05 -9.407927E+03 -8.488499E+03 -9.584061E+04
       350   3 -8.593009E+04 -1.804975E+06 -1.363246E+05  2.571974E+04 -5.260953E+03 -5.136961E+04
       350   4 -1.497528E+05 -1.421726E+06 -1.927794E+05  3.885190E+04 -3.508052E+03 -1.382049E+05
       350   5  3.141354E+04 -1.393531E+06 -7.773094E+04 -1.447058E+04 -8.486273E+03 -9.563492E+04
       350   6  1.006229E+04 -1.421632E+06 -4.106961E+04  3.826461E+04 -5.269891E+03 -5.309859E+04
       350   7 -2.017035E+04 -9.028699E+05 -6.340405E+04  1.616044E+04 -3.494895E+03 -1.360677E+05
       350   8  1.439866E+05 -9.425585E+05  3.388350E+04 -1.953711E+04 -8.484052E+03 -9.542907E+04
       350   9  1.060442E+05 -1.038155E+06  5.417446E+04  5.081709E+04 -5.278896E+03 -5.482863E+04
       350  10 -2.793588E+05 -1.940357E+06 -3.222119E+05  6.152374E+04 -1.406258E-10 -1.220168E-10
       350  11 -8.117723E+04 -1.844329E+06 -1.893779E+05 -9.408583E+03  5.555775E-10 -1.728116E-10
       350  12 -8.593083E+04 -1.804978E+06 -1.363296E+05  2.571952E+04 -2.454424E-09  2.232152E-10
       350  13 -1.497579E+05 -1.421747E+06 -1.928154E+05  3.885151E+04 -2.875027E-09  1.710352E-10
       350  14  3.141100E+04 -1.393541E+06 -7.774830E+04 -1.447123E+04  3.270163E-09 -5.742725E-10
       350  15  1.006150E+04 -1.421635E+06 -4.107498E+04  3.826438E+04 -2.823669E-09 -1.992310E-11
       350  16 -2.017534E+04 -9.028898E+05 -6.343891E+04  1.616005E+04 -3.415337E-10  1.081242E-10
       350  17  1.439841E+05 -9.425683E+05  3.386622E+04 -1.953776E+04  3.776278E-10  5.917357E-11
       350  18  1.060433E+05 -1.038158E+06  5.416875E+04  5.081686E+04 -1.562110E-09 -6.876573E-11
       350  19 -2.793535E+05 -1.940336E+06 -3.221748E+05  6.152414E+04  3.521374E+03  1.403402E+05
       350  20 -8.117468E+04 -1.844319E+06 -1.893605E+05 -9.407927E+03  8.488499E+03  9.584061E+04
       350  21 -8.593009E+04 -1.804975E+06 -1.363246E+05  2.571974E+04  5.260953E+03  5.136961E+04
       350  22 -1.497528E+05 -1.421726E+06 -1.927794E+05  3.885190E+04  3.508052E+03  1.382049E+05
       350  23  3.141354E+04 -1.393531E+06 -7.773094E+04 -1.447058E+04  8.486273E+03  9.563492E+04
       350  24  1.006229E+04 -1.421632E+06 -4.106961E+04  3.826461E+04  5.269891E+03  5.309859E+04
       350  25 -2.017035E+04 -9.028699E+05 -6.340405E+04  1.616044E+04  3.494895E+03  1.360677E+05
       350  26  1.439866E+05 -9.425585E+05  3.388350E+04 -1.953711E+04  8.484052E+03  9.542907E+04
       350  27  1.060442E+05 -1.038155E+06  5.417446E+04  5.081709E+04  5.278896E+03  5.482863E+04
       351   1 -4.864153E+04 -1.515376E+06 -5.424841E+04  4.044384E+04 -2.382992E+03 -4.659575E+04
       351   2 -1.036254E+04 -1.445019E+06 -2.263996E+03 -1.433723E+04 -8.128672E+02 -4.998129E+04
       351   3  3.796293E+04 -1.373068E+06  5.415920E+04  4.222125E+04  8.753629E+02 -5.336809E+04
       351   4 -2.202070E+04 -1.408756E+06 -2.788805E+04  3.977231E+04 -2.384710E+03 -4.696525E+04
       351   5 -1.515826E+03 -1.409531E+06  6.529232E+03 -1.602317E+04 -8.146722E+02 -5.037764E+04
       351   6  2.904168E+04 -1.408709E+06  4.540746E+04  3.952039E+04  8.734660E+02 -5.379091E+04
       351   7  4.599288E+03 -1.302125E+06 -1.528525E+03  3.910065E+04 -2.386426E+03 -4.733480E+04
       351   8  7.330803E+03 -1.374042E+06  1.532237E+04 -1.770921E+04 -8.164751E+02 -5.077401E+04
       351   9  2.012036E+04 -1.444349E+06  3.665564E+04  3.681970E+04  8.715728E+02 -5.421370E+04
       351  10 -4.864212E+04 -1.515379E+06 -5.425251E+04  4.044375E+04 -9.037003E-10  1.165152E-09
       351  11 -1.036321E+04 -1.445022E+06 -2.268703E+03 -1.433726E+04 -9.123896E-10  3.627422E-10
       351  12  3.796216E+04 -1.373071E+06  5.415383E+04  4.222128E+04  1.901998E-09 -9.706482E-10
       351  13 -2.202130E+04 -1.408758E+06 -2.789221E+04  3.977222E+04 -1.168904E-09  5.342604E-11
       351  14 -1.516510E+03 -1.409534E+06  6.524450E+03 -1.602320E+04 -2.756054E-09  3.345050E-10
       351  15  2.904090E+04 -1.408712E+06  4.540201E+04  3.952043E+04 -4.231514E-09  4.603805E-10
       351  16  4.598679E+03 -1.302127E+06 -1.532755E+03  3.910056E+04 -3.659262E-10 -1.267510E-09
       351  17  7.330108E+03 -1.374045E+06  1.531751E+04 -1.770924E+04  4.407084E-09 -4.806425E-10
       351  18  2.011957E+04 -1.444352E+06  3.665010E+04  3.681974E+04  5.706853E-10  8.151651E-10
       351  19 -4.864153E+04 -1.515376E+06 -5.424841E+04  4.044384E+04  2.382992E+03  4.659575E+04
       351  20 -1.036254E+04 -1.445019E+06 -2.263996E+03 -1.433723E+04  8.128672E+02  4.998129E+04
       351  21  3.796293E+04 -1.373068E+06  5.415920E+04  4.222125E+04 -8.753629E+02  5.336809E+04
       351  22 -2.202070E+04 -1.408756E+06 -2.788805E+04  3.977231E+04  2.384710E+03  4.696525E+04
       351  23 -1.515826E+03 -1.409531E+06  6.529232E+03 -1.602317E+04  8.146722E+02  5.037764E+04
       351  24  2.904168E+04 -1.408709E+06  4.540746E+04  3.952039E+04 -8.734660E+02  5.379091E+04
       351  25  4.599288E+03 -1.302125E+06 -1.528525E+03  3.910065E+04  2.386426E+03  4.733480E+04
       351  26  7.330803E+03 -1.374042E+06  1.532237E+04 -1.770921E+04  8.164751E+02  5.077401E+04
       351  27  2.012036E+04 -1.444349E+06  3.665564E+04  3.681970E+04 -8.715728E+02  5.421370E+04
       352   1  6.845740E+04 -1.077937E+06  1.388567E+05  2.517461E+04  3.611455E+03 -6.171629E+04
       352   2  5.392639E+04 -1.046770E+06  1.992381E+05 -5.181921E+03  6.392636E+03 -1.205718E+05
       352   3  3.093469E+05 -9.408585E+05  3.653785E+05  7.102818E+04  1.910892E+03 -1.794004E+05
       352   4 -1.001546E+04 -1.392584E+06  6.073609E+04  3.888240E+04  3.602375E+03 -6.329667E+04
       352   5 -4.182876E+04 -1.429737E+06  1.044323E+05 -1.480915E+04  6.395373E+03 -1.203803E+05
       352   6  1.960910E+05 -1.392403E+06  2.527069E+05  3.806647E+04  1.927889E+03 -1.774303E+05
       352   7 -8.849500E+04 -1.707141E+06 -1.739179E+04  5.258312E+04  3.593222E+03 -6.487625E+04
       352   8 -1.375946E+05 -1.812569E+06  9.615625E+03 -2.443058E+04  6.398104E+03 -1.201888E+05
       352   9  8.282362E+04 -1.843760E+06  1.400204E+05  5.128597E+03  1.944686E+03 -1.754616E+05
       352  10  6.845636E+04 -1.077941E+06  1.388495E+05  2.517479E+04 -6.137008E-10  6.841991E-10
       352  11  5.392243E+04 -1.046786E+06  1.992106E+05 -5.181300E+03 -1.086171E-09  4.103049E-10
       352  12  3.093382E+05 -9.408931E+05  3.653179E+05  7.102846E+04  1.224619E-09 -3.850804E-10
       352  13 -1.001655E+04 -1.392589E+06  6.072852E+04  3.888259E+04  2.678323E-09 -1.988036E-10
       352  14 -4.183271E+04 -1.429752E+06  1.044049E+05 -1.480853E+04 -1.334561E-09  2.770988E-10
       352  15  1.960825E+05 -1.392437E+06  2.526476E+05  3.806674E+04  1.338510E-09 -1.859890E-10
       352  16 -8.849615E+04 -1.707146E+06 -1.739974E+04  5.258330E+04 -1.896070E-09 -4.441761E-10
       352  17 -1.375985E+05 -1.812585E+06  9.588326E+03 -2.442996E+04  5.360683E-10 -1.628750E-10
       352  18  8.281532E+04 -1.843793E+06  1.399624E+05  5.128872E+03  2.071685E-09  1.427133E-10
       352  19  6.845740E+04 -1.077937E+06  1.388567E+05  2.517461E+04 -3.611455E+03  6.171629E+04
       352  20  5.392639E+04 -1.046770E+06  1.992381E+05 -5.181921E+03 -6.392636E+03  1.205718E+05
       352  21  3.093469E+05 -9.408585E+05  3.653785E+05  7.102818E+04 -1.910892E+03  1.794004E+05
       352  22 -1.001546E+04 -1.392584E+06  6.073609E+04  3.888240E+04 -3.602375E+03  6.329667E+04
       352  23 -4.182876E+04 -1.429737E+06  1.044323E+05 -1.480915E+04 -6.395373E+03  1.203803E+05
       352  24  1.960910E+05 -1.392403E+06  2.527069E+05  3.806647E+04 -1.927889E+03  1.774303E+05
       352  25 -8.849500E+04 -1.707141E+06 -1.739179E+04  5.258312E+04 -3.593222E+03  6.487625E+04
       352  26 -1.375946E+05 -1.812569E+06  9.615625E+03 -2.443058E+04 -6.398104E+03  1.201888E+05
       352  27  8.282362E+04 -1.843760E+06  1.400204E+05  5.128597E+03 -1.944686E+03  1.754616E+05
       353   1  9.516039E+05  7.413510E+05  3.897268E+05  5.264088E+05  1.861435E+05  1.372170E+05
       353   2  8.361806E+05  4.755218E+05  1.941328E+05  6.387488E+05  1.230996E+05  8.751375E+04
       353   3  8.997647E+05  4.959748E+05  1.417016E+05  6.302392E+05  5.838786E+04  4.004974E+04
       353   4  8.416295E+05  5.939095E+05  3.384848E+05  4.401211E+05  1.854224E+05  1.366600E+05
       353   5  7.039660E+05  3.639047E+05  1.459321E+05  5.653440E+05  1.229262E+05  8.738109E+04
       353   6  7.452321E+05  4.201067E+05  9.609471E+04  5.697036E+05  5.876560E+04  4.033424E+04
       353   7  7.316705E+05  4.464994E+05  2.872407E+05  3.538563E+05  1.847014E+05  1.361033E+05
       353   8  5.717699E+05  2.523019E+05  9.772865E+04  4.919581E+05  1.227529E+05  8.724847E+04
       353   9  5.907254E+05  3.442434E+05  5.048556E+04  5.091819E+05  5.914320E+04  4.061869E+04
       353  10  9.515617E+05  7.413215E+05  3.896265E+05  5.263882E+05 -2.528186E-10  1.210852E-10
       353  11  8.361623E+05  4.755096E+05  1.940900E+05  6.387401E+05  1.433895E-09  5.256636E-10
       353  12  8.997606E+05  4.959722E+05  1.416922E+05  6.302373E+05 -3.234544E-11 -1.770226E-10
       353  13  8.415877E+05  5.938803E+05  3.383853E+05  4.401007E+05 -1.266687E-10  1.579024E-10
       353  14  7.039478E+05  3.638924E+05  1.458894E+05  5.653353E+05  1.679287E-09  4.024227E-10
       353  15  7.452280E+05  4.201040E+05  9.608518E+04  5.697017E+05 -8.295655E-10 -1.434110E-10
       353  16  7.316289E+05  4.464704E+05  2.871419E+05  3.538360E+05  5.528789E-11  1.595570E-10
       353  17  5.717517E+05  2.522897E+05  9.768610E+04  4.919495E+05 -3.656899E-10  1.793938E-10
       353  18  5.907212E+05  3.442407E+05  5.047590E+04  5.091799E+05 -2.482555E-09 -2.616022E-10
       353  19  9.516039E+05  7.413510E+05  3.897268E+05  5.264088E+05 -1.861435E+05 -1.372170E+05
       353  20  8.361806E+05  4.755218E+05  1.941328E+05  6.387488E+05 -1.230996E+05 -8.751375E+04
       353  21  8.997647E+05  4.959748E+05  1.417016E+05  6.302392E+05 -5.838786E+04 -4.004974E+04
       353  22  8.416295E+05  5.939095E+05  3.384848E+05  4.401211E+05 -1.854224E+05 -1.366600E+05
       353  23  7.039660E+05  3.639047E+05  1.459321E+05  5.653440E+05 -1.229262E+05 -8.738109E+04
       353  24  7.452321E+05  4.201067E+05  9.609471E+04  5.697036E+05 -5.876560E+04 -4.033424E+04
       353  25  7.316705E+05  4.464994E+05  2.872407E+05  3.538563E+05 -1.847014E+05 -1.361033E+05
       353  26  5.717699E+05  2.523019E+05  9.772865E+04  4.919581E+05 -1.227529E+05 -8.724847E+04
       353  27  5.907254E+05  3.442434E+05  5.048556E+04  5.091819E+05 -5.914320E+04 -4.061869E+04
       354   1  8.520018E+05  5.241562E+05  1.164273E+05  5.923660E+05  4.574653E+04  3.142974E+04
       354   2  8.349761E+05  4.767563E+05  7.572026E+04  6.038760E+05  2.829987E+04  1.840348E+04
       354   3  8.345517E+05  4.826728E+05  6.258729E+04  6.013913E+05  1.065705E+04  5.640705E+03
       354   4  7.504547E+05  4.427315E+05  8.019782E+04  5.379920E+05  4.570627E+04  3.139903E+04
       354   5  7.355172E+05  4.041302E+05  4.166724E+04  5.539109E+05  2.832619E+04  1.842298E+04
       354   6  7.371714E+05  4.188363E+05  3.065747E+04  5.558336E+05  1.074990E+04  5.710053E+03
       354   7  6.489180E+05  3.613141E+05  4.396665E+04  4.836283E+05  4.566603E+04  3.136832E+04
       354   8  6.360686E+05  3.315097E+05  7.612823E+03  5.039547E+05  2.835250E+04  1.844248E+04
       354   9  6.398012E+05  3.550039E+05 -1.273505E+03  5.102836E+05  1.084273E+04  5.779387E+03
       354  10  8.519993E+05  5.241545E+05  1.164215E+05  5.923648E+05 -1.374727E-09 -5.906638E-10
       354  11  8.349751E+05  4.767557E+05  7.571812E+04  6.038756E+05  3.159913E-10 -9.040816E-10
       354  12  8.345516E+05  4.826728E+05  6.258701E+04  6.013913E+05  8.526674E-10 -3.903488E-10
       354  13  7.504522E+05  4.427299E+05  8.019205E+04  5.379908E+05 -3.617984E-09 -6.561097E-10
       354  14  7.355162E+05  4.041296E+05  4.166510E+04  5.539105E+05  2.943815E-10 -1.037666E-09
       354  15  7.371713E+05  4.188362E+05  3.065719E+04  5.558335E+05 -1.254764E-09  5.423661E-11
       354  16  6.489155E+05  3.613125E+05  4.396089E+04  4.836272E+05 -1.833997E-09 -9.566829E-10
       354  17  6.360676E+05  3.315091E+05  7.610676E+03  5.039543E+05  6.998897E-10 -1.079026E-09
       354  18  6.398011E+05  3.550038E+05 -1.273788E+03  5.102836E+05 -5.158086E-10  3.822670E-10
       354  19  8.520018E+05  5.241562E+05  1.164273E+05  5.923660E+05 -4.574653E+04 -3.142974E+04
       354  20  8.349761E+05  4.767563E+05  7.572026E+04  6.038760E+05 -2.829987E+04 -1.840348E+04
       354  21  8.345517E+05  4.826728E+05  6.258729E+04  6.013913E+05 -1.065705E+04 -5.640705E+03
       354  22  7.504547E+05  4.427315E+05  8.019782E+04  5.379920E+05 -4.570627E+04 -3.139903E+04
       354  23  7.355172E+05  4.041302E+05  4.166724E+04  5.539109E+05 -2.832619E+04 -1.842298E+04
       354  24  7.371714E+05  4.188363E+05  3.065747E+04  5.558336E+05 -1.074990E+04 -5.710053E+03
       354  25  6.489180E+05  3.613141E+05  4.396665E+04  4.836283E+05 -4.566603E+04 -3.136832E+04
       354  26  6.360686E+05  3.315097E+05  7.612823E+03  5.039547E+05 -2.835250E+04 -1.844248E+04
       354  27  6.398012E+05  3.550039E+05 -1.273505E+03  5.102836E+05 -1.084273E+04 -5.779387E+03
       355   1  8.080899E+05  4.728684E+05  5.219591E+04  5.878163E+05  6.330459E+03  2.688585E+03
       355   2  8.047160E+05  4.557479E+05  4.801650E+04  5.853437E+05 -4.304064E+03 -4.958758E+03
       355   3  8.017012E+05  4.646601E+05  5.729003E+04  5.798708E+05 -1.494530E+04 -1.259731E+04
       355   4  7.380678E+05  4.208706E+05  2.806319E+04  5.522374E+05  6.373856E+03  2.720942E+03
       355   5  7.385506E+05  4.090417E+05  2.567613E+04  5.528485E+05 -4.257172E+03 -4.923760E+03
       355   6  7.393928E+05  4.232463E+05  3.674033E+04  5.504589E+05 -1.489500E+04 -1.255982E+04
       355   7  6.680508E+05  3.688756E+05  3.929763E+03  5.166631E+05  6.417245E+03  2.753294E+03
       355   8  6.723897E+05  3.623376E+05  3.335124E+03  5.203571E+05 -4.210287E+03 -4.888768E+03
       355   9  6.770883E+05  3.818341E+05  1.619006E+04  5.210502E+05 -1.484472E+04 -1.252234E+04
       355  10  8.080898E+05  4.728684E+05  5.219582E+04  5.878162E+05 -1.646197E-09  2.972043E-10
       355  11  8.047160E+05  4.557479E+05  4.801642E+04  5.853437E+05 -1.566710E-09  6.104311E-10
       355  12  8.017009E+05  4.646599E+05  5.728931E+04  5.798706E+05 -2.040887E-10  7.175660E-10
       355  13  7.380677E+05  4.208706E+05  2.806310E+04  5.522374E+05 -8.627056E-10  2.309547E-10
       355  14  7.385506E+05  4.090417E+05  2.567605E+04  5.528485E+05  2.810022E-09  8.812407E-10
       355  15  7.393925E+05  4.232461E+05  3.673962E+04  5.504588E+05  6.826419E-10  7.711713E-10
       355  16  6.680507E+05  3.688756E+05  3.929671E+03  5.166631E+05 -5.098716E-10  4.782665E-10
       355  17  6.723897E+05  3.623376E+05  3.335046E+03  5.203571E+05  2.168073E-09  9.245284E-10
       355  18  6.770880E+05  3.818338E+05  1.618936E+04  5.210500E+05  2.717497E-09  8.647978E-10
       355  19  8.080899E+05  4.728684E+05  5.219591E+04  5.878163E+05 -6.330459E+03 -2.688585E+03
       355  20  8.047160E+05  4.557479E+05  4.801650E+04  5.853437E+05  4.304064E+03  4.958758E+03
       355  21  8.017012E+05  4.646601E+05  5.729003E+04  5.798708E+05  1.494530E+04  1.259731E+04
       355  22  7.380678E+05  4.208706E+05  2.806319E+04  5.522374E+05 -6.373856E+03 -2.720942E+03
       355  23  7.385506E+05  4.090417E+05  2.567613E+04  5.528485E+05  4.257172E+03  4.923760E+03
       355  24  7.393928E+05  4.232463E+05  3.674033E+04  5.504589E+05  1.489500E+04  1.255982E+04
       355  25  6.680508E+05  3.688756E+05  3.929763E+03  5.166631E+05 -6.417245E+03 -2.753294E+03
       355  26  6.723897E+05  3.623376E+05  3.335124E+03  5.203571E+05  4.210287E+03  4.888768E+03
       355  27  6.770883E+05  3.818341E+05  1.619006E+04  5.210502E+05  1.484472E+04  1.252234E+04
       356   1  7.749487E+05  4.519166E+05  5.723681E+04  5.790189E+05 -2.081766E+04 -1.679996E+04
       356   2  7.693181E+05  4.240825E+05  7.792774E+04  5.725986E+05 -4.839732E+04 -3.710792E+04
       356   3  8.025468E+05  4.719984E+05  1.429236E+05  5.394937E+05 -7.596070E+04 -5.743734E+04
       356   4  7.388491E+05  4.179843E+05  4.339559E+04  5.573882E+05 -2.076877E+04 -1.676317E+04
       356   5  7.308493E+05  4.006030E+05  6.566574E+04  5.554017E+05 -4.835161E+04 -3.707405E+04
       356   6  7.617118E+05  4.589751E+05  1.322459E+05  5.267296E+05 -7.591800E+04 -5.740729E+04
       356   7  7.027510E+05  3.840535E+05  2.955419E+04  5.357591E+05 -2.071988E+04 -1.672639E+04
       356   8  6.923821E+05  3.771240E+05  5.340359E+04  5.382059E+05 -4.830590E+04 -3.704019E+04
       356   9  7.208786E+05  4.459518E+05  1.215682E+05  5.139662E+05 -7.587530E+04 -5.737724E+04
       356  10  7.749482E+05  4.519162E+05  5.723547E+04  5.790186E+05  2.647463E-09  7.143763E-10
       356  11  7.693152E+05  4.240804E+05  7.792076E+04  5.725971E+05 -5.254283E-10  3.354963E-10
       356  12  8.025398E+05  4.719934E+05  1.429066E+05  5.394901E+05 -7.193739E-10 -6.072229E-10
       356  13  7.388486E+05  4.179839E+05  4.339426E+04  5.573879E+05  1.315859E-09  6.373548E-10
       356  14  7.308464E+05  4.006009E+05  6.565878E+04  5.554002E+05  1.484394E-09 -1.168526E-10
       356  15  7.617047E+05  4.589700E+05  1.322289E+05  5.267261E+05 -6.154014E-10 -8.942335E-10
       356  16  7.027505E+05  3.840531E+05  2.955286E+04  5.357588E+05  2.129776E-09  7.603036E-10
       356  17  6.923793E+05  3.771219E+05  5.339664E+04  5.382044E+05 -1.385106E-09 -6.993193E-10
       356  18  7.208716E+05  4.459468E+05  1.215512E+05  5.139627E+05  2.459250E-09 -9.688172E-10
       356  19  7.749487E+05  4.519166E+05  5.723681E+04  5.790189E+05  2.081766E+04  1.679996E+04
       356  20  7.693181E+05  4.240825E+05  7.792774E+04  5.725986E+05  4.839732E+04  3.710792E+04
       356  21  8.025468E+05  4.719984E+05  1.429236E+05  5.394937E+05  7.596070E+04  5.743734E+04
       356  22  7.388491E+05  4.179843E+05  4.339559E+04  5.573882E+05  2.076877E+04  1.676317E+04
       356  23  7.308493E+05  4.006030E+05  6.566574E+04  5.554017E+05  4.835161E+04  3.707405E+04
       356  24  7.617118E+05  4.589751E+05  1.322459E+05  5.267296E+05  7.591800E+04  5.740729E+04
       356  25  7.027510E+05  3.840535E+05  2.955419E+04  5.357591E+05  2.071988E+04  1.672639E+04
       356  26  6.923821E+05  3.771240E+05  5.340359E+04  5.382059E+05  4.830590E+04  3.704019E+04
       356  27  7.208786E+05  4.459518E+05  1.215682E+05  5.139662E+05  7.587530E+04  5.737724E+04
       357   1  7.347239E+05  4.621677E+05  1.641301E+05  5.961971E+05 -9.701144E+04 -7.300611E+04
       357   2  7.030182E+05  3.230389E+05  2.474353E+05  5.743431E+05 -2.038531E+05 -1.525405E+05
       357   3  9.900178E+05  6.457413E+05  5.700577E+05  3.438713E+05 -3.106538E+05 -2.321184E+05
       357   4  7.540906E+05  4.196901E+05  1.595750E+05  5.798135E+05 -9.696290E+04 -7.296149E+04
       357   5  6.760567E+05  3.344864E+05  2.443632E+05  5.751582E+05 -2.038101E+05 -1.525179E+05
       357   6  9.167213E+05  7.111182E+05  5.684816E+05  3.618865E+05 -3.106035E+05 -2.321365E+05
       357   7  7.734598E+05  3.772173E+05  1.550205E+05  5.634294E+05 -9.691436E+04 -7.291687E+04
       357   8  6.490967E+05  3.459347E+05  2.412913E+05  5.759729E+05 -2.037670E+05 -1.524952E+05
       357   9  8.434394E+05  7.765106E+05  5.669083E+05  3.798977E+05 -3.105533E+05 -2.321547E+05
       357  10  7.347124E+05  4.621595E+05  1.641025E+05  5.961914E+05  1.598600E-10 -6.594278E-10
       357  11  7.029674E+05  3.230029E+05  2.473137E+05  5.743181E+05  7.975913E-10 -1.120404E-09
       357  12  9.899000E+05  6.456577E+05  5.697756E+05  3.438133E+05  1.753409E-10  3.449494E-10
       357  13  7.540791E+05  4.196819E+05  1.595474E+05  5.798078E+05 -5.015628E-10 -3.681877E-10
       357  14  6.760060E+05  3.344504E+05  2.442417E+05  5.751332E+05 -9.296863E-10 -3.885172E-10
       357  15  9.166034E+05  7.110346E+05  5.681996E+05  3.618286E+05  1.314681E-09  1.612005E-10
       357  16  7.734483E+05  3.772091E+05  1.549929E+05  5.634237E+05  8.344183E-10 -3.985654E-10
       357  17  6.490459E+05  3.458987E+05  2.411698E+05  5.759479E+05 -1.270920E-09  4.369699E-11
       357  18  8.433216E+05  7.764270E+05  5.666263E+05  3.798397E+05  1.325420E-10  9.785069E-11
       357  19  7.347239E+05  4.621677E+05  1.641301E+05  5.961971E+05  9.701144E+04  7.300611E+04
       357  20  7.030182E+05  3.230389E+05  2.474353E+05  5.743431E+05  2.038531E+05  1.525405E+05
       357  21  9.900178E+05  6.457413E+05  5.700577E+05  3.438713E+05  3.106538E+05  2.321184E+05
       357  22  7.540906E+05  4.196901E+05  1.595750E+05  5.798135E+05  9.696290E+04  7.296149E+04
       357  23  6.760567E+05  3.344864E+05  2.443632E+05  5.751582E+05  2.038101E+05  1.525179E+05
       357  24  9.167213E+05  7.111182E+05  5.684816E+05  3.618865E+05  3.106035E+05  2.321365E+05
       357  25  7.734598E+05  3.772173E+05  1.550205E+05  5.634294E+05  9.691436E+04  7.291687E+04
       357  26  6.490967E+05  3.459347E+05  2.412913E+05  5.759729E+05  2.037670E+05  1.524952E+05
       357  27  8.434394E+05  7.765106E+05  5.669083E+05  3.798977E+05  3.105533E+05  2.321547E+05
       358   1 -5.802524E+05 -2.847526E+04 -8.117468E+04  4.477605E+03 -1.505545E+05 -3.083093E+03
       358   2 -5.971514E+05  1.711470E+05  3.330591E+04 -1.273576E+04 -9.881061E+04 -9.309185E+03
       358   3 -6.800876E+05  1.269141E+05  5.346384E+04  4.774411E+04 -4.705896E+04 -6.816486E+03
       358   4 -1.164280E+06 -1.746682E+05 -2.268309E+05  3.389667E+04 -1.529715E+05 -3.085473E+03
       358   5 -1.131011E+06  3.782930E+04 -9.881861E+04 -4.781047E+03 -9.918255E+04 -9.310392E+03
       358   6 -1.164200E+06  6.000394E+03 -6.661472E+04  3.423930E+04 -4.538148E+04 -6.816820E+03
       358   7 -1.747996E+06 -3.208837E+05 -3.725124E+05  6.328818E+04 -1.553862E+05 -3.088087E+03
       358   8 -1.664610E+06 -9.550951E+04 -2.309643E+05  3.166900E+03 -9.955414E+04 -9.311610E+03
       358   9 -1.648099E+06 -1.149302E+05 -1.867107E+05  2.074507E+04 -4.370529E+04 -6.817226E+03
       358  10 -5.802767E+05 -2.848136E+04 -8.121733E+04  4.477231E+03 -7.715846E-11 -4.606938E-10
       358  11 -5.971619E+05  1.711443E+05  3.328738E+04 -1.273650E+04  1.506460E-09 -3.052247E-10
       358  12 -6.800900E+05  1.269135E+05  5.345959E+04  4.774385E+04  8.882968E-10  8.591022E-10
       358  13 -1.164305E+06 -1.746745E+05 -2.268750E+05  3.389629E+04  6.540521E-10  1.360460E-11
       358  14 -1.131021E+06  3.782656E+04 -9.883729E+04 -4.781791E+03 -2.884440E-10 -7.567909E-10
       358  15 -1.164202E+06  5.999790E+03 -6.661868E+04  3.423905E+04  5.892798E-10  5.557114E-10
       358  16 -1.748022E+06 -3.208902E+05 -3.725579E+05  6.328779E+04 -1.365456E-09 -8.608661E-10
       358  17 -1.664621E+06 -9.551227E+04 -2.309832E+05  3.166153E+03 -2.558510E-10 -4.623944E-10
       358  18 -1.648101E+06 -1.149308E+05 -1.867144E+05  2.074483E+04 -8.706057E-10  2.172201E-10
       358  19 -5.802524E+05 -2.847526E+04 -8.117468E+04  4.477605E+03  1.505545E+05  3.083093E+03
       358  20 -5.971514E+05  1.711470E+05  3.330591E+04 -1.273576E+04  9.881061E+04  9.309185E+03
       358  21 -6.800876E+05  1.269141E+05  5.346384E+04  4.774411E+04  4.705896E+04  6.816486E+03
       358  22 -1.164280E+06 -1.746682E+05 -2.268309E+05  3.389667E+04  1.529715E+05  3.085473E+03
       358  23 -1.131011E+06  3.782930E+04 -9.881861E+04 -4.781047E+03  9.918255E+04  9.310392E+03
       358  24 -1.164200E+06  6.000394E+03 -6.661472E+04  3.423930E+04  4.538148E+04  6.816820E+03
       358  25 -1.747996E+06 -3.208837E+05 -3.725124E+05  6.328818E+04  1.553862E+05  3.088087E+03
       358  26 -1.664610E+06 -9.550951E+04 -2.309643E+05  3.166900E+03  9.955414E+04  9.311610E+03
       358  27 -1.648099E+06 -1.149302E+05 -1.867107E+05  2.074507E+04  4.370529E+04  6.817226E+03
       359   1 -8.765439E+05  4.402839E+04  1.147511E+04  3.154588E+04 -3.442417E+04 -4.410859E+03
       359   2 -9.250202E+05  6.158434E+04  2.149620E+04 -7.679239E+03 -1.742362E+04 -3.570418E+03
       359   3 -9.857233E+05  3.804013E+04  1.021770E+04  3.852134E+04 -4.258527E+02 -1.622868E+03
       359   4 -1.152134E+06 -2.481198E+04 -5.681045E+04  3.585052E+04 -3.434427E+04 -4.411246E+03
       359   5 -1.145990E+06  6.390461E+03 -3.325195E+04 -6.858905E+03 -1.708497E+04 -3.570553E+03
       359   6 -1.152128E+06 -3.560748E+03 -3.117962E+04  3.585962E+04  1.730213E+02 -1.622761E+03
       359   7 -1.427655E+06 -9.365798E+04 -1.251017E+05  4.015326E+04 -3.426440E+04 -4.411631E+03
       359   8 -1.366916E+06 -4.880707E+04 -8.800374E+04 -6.038862E+03 -1.674644E+04 -3.570686E+03
       359   9 -1.318507E+06 -4.516369E+04 -7.257901E+04  3.319861E+04  7.717346E+02 -1.622658E+03
       359  10 -8.765451E+05  4.402805E+04  1.147284E+04  3.154575E+04  1.722371E-09  7.873636E-10
       359  11 -9.250205E+05  6.158424E+04  2.149560E+04 -7.679289E+03 -9.908008E-10 -4.247986E-10
       359  12 -9.857233E+05  3.804013E+04  1.021769E+04  3.852134E+04 -1.039276E-09  4.942708E-10
       359  13 -1.152135E+06 -2.481232E+04 -5.681271E+04  3.585040E+04 -1.119457E-10  3.927652E-10
       359  14 -1.145991E+06  6.390369E+03 -3.325252E+04 -6.858954E+03 -2.720647E-09 -4.371936E-10
       359  15 -1.152128E+06 -3.560751E+03 -3.117963E+04  3.585962E+04  9.405138E-10 -2.947146E-10
       359  16 -1.427656E+06 -9.365832E+04 -1.251039E+05  4.015313E+04 -1.365847E-09  1.183276E-09
       359  17 -1.366917E+06 -4.880716E+04 -8.800429E+04 -6.038910E+03  4.227586E-10 -5.622400E-11
       359  18 -1.318507E+06 -4.516369E+04 -7.257902E+04  3.319861E+04  5.281718E-10 -2.417254E-10
       359  19 -8.765439E+05  4.402839E+04  1.147511E+04  3.154588E+04  3.442417E+04  4.410859E+03
       359  20 -9.250202E+05  6.158434E+04  2.149620E+04 -7.679239E+03  1.742362E+04  3.570418E+03
       359  21 -9.857233E+05  3.804013E+04  1.021770E+04  3.852134E+04  4.258527E+02  1.622868E+03
       359  22 -1.152134E+06 -2.481198E+04 -5.681045E+04  3.585052E+04  3.434427E+04  4.411246E+03
       359  23 -1.145990E+06  6.390461E+03 -3.325195E+04 -6.858905E+03  1.708497E+04  3.570553E+03
       359  24 -1.152128E+06 -3.560748E+03 -3.117962E+04  3.585962E+04 -1.730213E+02  1.622761E+03
       359  25 -1.427655E+06 -9.365798E+04 -1.251017E+05  4.015326E+04  3.426440E+04  4.411631E+03
       359  26 -1.366916E+06 -4.880707E+04 -8.800374E+04 -6.038862E+03  1.674644E+04  3.570686E+03
       359  27 -1.318507E+06 -4.516369E+04 -7.257901E+04  3.319861E+04 -7.717346E+02  1.622658E+03
       360   1 -1.205223E+06 -1.549244E+04 -4.524309E+04  3.303711E+04  5.293879E+03 -1.278143E+02
       360   2 -1.253006E+06 -1.922675E+04 -6.520382E+04 -6.083239E+03  2.552617E+04  1.789253E+03
       360   3 -1.315773E+06 -7.247575E+04 -1.107274E+05  4.132003E+04  4.575752E+04  2.837626E+03
       360   4 -1.152711E+06 -2.341307E+03 -3.207724E+04  3.610066E+04  5.856967E+03 -1.276385E+02
       360   5 -1.145246E+06  7.693118E+03 -3.850655E+04 -7.161544E+03  2.588391E+04  1.789222E+03
       360   6 -1.152727E+06 -3.174598E+04 -7.035174E+04  3.609925E+04  4.591171E+04  2.837192E+03
       360   7 -1.100196E+06  1.080965E+04 -1.891160E+04  3.916447E+04  6.420102E+03 -1.274571E+02
       360   8 -1.037475E+06  3.461212E+04 -1.181015E+04 -8.240038E+03  2.624171E+04  1.789190E+03
       360   9 -9.896566E+05  8.981894E+03 -2.997800E+04  3.087709E+04  4.606593E+04  2.836755E+03
       360  10 -1.205223E+06 -1.549245E+04 -4.524314E+04  3.303711E+04  5.752743E-10  3.846765E-10
       360  11 -1.253007E+06 -1.922693E+04 -6.520505E+04 -6.083275E+03  5.897275E-10 -6.024435E-10
       360  12 -1.315775E+06 -7.247632E+04 -1.107314E+05  4.131993E+04  5.891581E-10 -2.075636E-10
       360  13 -1.152711E+06 -2.341316E+03 -3.207731E+04  3.610066E+04  1.196190E-09 -2.887077E-10
       360  14 -1.145247E+06  7.692934E+03 -3.850782E+04 -7.161582E+03  4.615373E-10 -1.562842E-10
       360  15 -1.152729E+06 -3.174656E+04 -7.035572E+04  3.609914E+04 -8.270961E-10  7.382295E-11
       360  16 -1.100197E+06  1.080964E+04 -1.891168E+04  3.916447E+04 -1.292079E-09 -1.642144E-10
       360  17 -1.037476E+06  3.461193E+04 -1.181145E+04 -8.240076E+03 -6.657041E-10  5.515176E-11
       360  18 -9.896589E+05  8.981314E+03 -2.998201E+04  3.087698E+04 -2.848183E-10  6.146010E-10
       360  19 -1.205223E+06 -1.549244E+04 -4.524309E+04  3.303711E+04 -5.293879E+03  1.278143E+02
       360  20 -1.253006E+06 -1.922675E+04 -6.520382E+04 -6.083239E+03 -2.552617E+04 -1.789253E+03
       360  21 -1.315773E+06 -7.247575E+04 -1.107274E+05  4.132003E+04 -4.575752E+04 -2.837626E+03
       360  22 -1.152711E+06 -2.341307E+03 -3.207724E+04  3.610066E+04 -5.856967E+03  1.276385E+02
       360  23 -1.145246E+06  7.693118E+03 -3.850655E+04 -7.161544E+03 -2.588391E+04 -1.789222E+03
       360  24 -1.152727E+06 -3.174598E+04 -7.035174E+04  3.609925E+04 -4.591171E+04 -2.837192E+03
       360  25 -1.100196E+06  1.080965E+04 -1.891160E+04  3.916447E+04 -6.420102E+03  1.274571E+02
       360  26 -1.037475E+06  3.461212E+04 -1.181015E+04 -8.240038E+03 -2.624171E+04 -1.789190E+03
       360  27 -9.896566E+05  8.981894E+03 -2.997800E+04  3.087709E+04 -4.606593E+04 -2.836755E+03
       361   1 -1.545360E+06 -8.617814E+04 -1.770672E+05  1.748712E+04  5.816206E+04  5.092360E+03
       361   2 -1.554201E+06 -5.870431E+04 -2.316924E+05  4.071620E+03  1.283221E+05  7.544712E+03
       361   3 -1.649343E+06 -3.438507E+05 -4.100147E+05  7.158961E+04  1.984711E+05  2.551722E+03
       361   4 -1.168508E+06  8.008776E+03 -8.350698E+04  3.493964E+04  5.967248E+04  5.093493E+03
       361   5 -1.125593E+06  4.838715E+04 -1.255636E+05 -5.671108E+03  1.280897E+05  7.542592E+03
       361   6 -1.168615E+06 -2.234370E+05 -2.900412E+05  3.465210E+04  1.965019E+05  2.542438E+03
       361   7 -7.915252E+05  1.021862E+05  1.004283E+04  5.240279E+04  6.118380E+04  5.094711E+03
       361   8 -6.968170E+05  1.554652E+05 -1.944850E+04 -1.542055E+04  1.278571E+05  7.540480E+03
       361   9 -6.876736E+05 -1.030356E+05 -1.700843E+05 -2.314020E+03  1.945312E+05  2.533395E+03
       361  10 -1.545364E+06 -8.617908E+04 -1.770737E+05  1.748689E+04  4.645608E-10  7.776842E-10
       361  11 -1.554218E+06 -5.870881E+04 -2.317235E+05  4.070840E+03  3.968699E-10  4.312991E-10
       361  12 -1.649386E+06 -3.438613E+05 -4.100889E+05  7.158920E+04  6.386715E-11  2.645851E-10
       361  13 -1.168512E+06  8.007790E+03 -8.351373E+04  3.493940E+04  5.383002E-10  3.583256E-10
       361  14 -1.125610E+06  4.838267E+04 -1.255946E+05 -5.671886E+03  1.571356E-09  5.422164E-10
       361  15 -1.168656E+06 -2.234474E+05 -2.901139E+05  3.465170E+04 -3.908745E-10  4.244282E-10
       361  16 -7.915292E+05  1.021851E+05  1.003574E+04  5.240254E+04 -1.508753E-09  3.638740E-10
       361  17 -6.968345E+05  1.554607E+05 -1.947937E+04 -1.542133E+04 -2.113977E-10 -7.286077E-11
       361  18 -6.877143E+05 -1.030458E+05 -1.701555E+05 -2.314417E+03 -1.343017E-10 -3.253036E-10
       361  19 -1.545360E+06 -8.617814E+04 -1.770672E+05  1.748712E+04 -5.816206E+04 -5.092360E+03
       361  20 -1.554201E+06 -5.870431E+04 -2.316924E+05  4.071620E+03 -1.283221E+05 -7.544712E+03
       361  21 -1.649343E+06 -3.438507E+05 -4.100147E+05  7.158961E+04 -1.984711E+05 -2.551722E+03
       361  22 -1.168508E+06  8.008776E+03 -8.350698E+04  3.493964E+04 -5.967248E+04 -5.093493E+03
       361  23 -1.125593E+06  4.838715E+04 -1.255636E+05 -5.671108E+03 -1.280897E+05 -7.542592E+03
       361  24 -1.168615E+06 -2.234370E+05 -2.900412E+05  3.465210E+04 -1.965019E+05 -2.542438E+03
       361  25 -7.915252E+05  1.021862E+05  1.004283E+04  5.240279E+04 -6.118380E+04 -5.094711E+03
       361  26 -6.968170E+05  1.554652E+05 -1.944850E+04 -1.542055E+04 -1.278571E+05 -7.540480E+03
       361  27 -6.876736E+05 -1.030356E+05 -1.700843E+05 -2.314020E+03 -1.945312E+05 -2.533395E+03
       362   1 -2.370059E+05 -1.245153E+06 -2.662318E+05  6.819163E+04 -3.361910E+03 -9.740120E+04
       362   2 -9.167517E+04 -1.142299E+06 -1.653826E+05 -9.346045E+03 -8.401661E+03 -6.619617E+04
       362   3 -8.538160E+04 -1.078264E+06 -1.196282E+05  4.370011E+04 -4.714672E+03 -3.501345E+04
       362   4 -1.027852E+05 -7.080960E+05 -1.323181E+05  5.267419E+04 -3.353538E+03 -9.518095E+04
       362   5  2.151194E+04 -6.888730E+05 -5.319301E+04 -1.275787E+04 -8.400341E+03 -6.604376E+04
       362   6  7.188238E+03 -7.080823E+05 -2.769005E+04  5.239002E+04 -4.721973E+03 -3.693320E+04
       362   7  3.141463E+04 -1.707766E+05  1.574034E+03  3.714313E+04 -3.345282E+03 -9.295874E+04
       362   8  1.346837E+05 -2.352597E+05  5.898126E+04 -1.617233E+04 -8.399024E+03 -6.589123E+04
       362   9  9.974804E+04 -3.377758E+05  6.423787E+04  6.108500E+04 -4.729325E+03 -3.885410E+04
       362  10 -2.370085E+05 -1.245163E+06 -2.662497E+05  6.819137E+04  5.357980E-11  1.560261E-09
       362  11 -9.167642E+04 -1.142304E+06 -1.653910E+05 -9.346493E+03  9.826141E-10 -1.874887E-10
       362  12 -8.538195E+04 -1.078265E+06 -1.196305E+05  4.369998E+04 -1.895670E-09 -2.343153E-09
       362  13 -1.027877E+05 -7.081058E+05 -1.323352E+05  5.267394E+04 -1.853849E-09  1.520633E-10
       362  14  2.151069E+04 -6.888777E+05 -5.320135E+04 -1.275832E+04  3.974549E-09  1.199369E-11
       362  15  7.187847E+03 -7.080838E+05 -2.769266E+04  5.238988E+04 -1.551586E-09 -8.761734E-10
       362  16  3.141230E+04 -1.707859E+05  1.557770E+03  3.714288E+04  3.073063E-10 -1.756175E-09
       362  17  1.346825E+05 -2.352644E+05  5.897296E+04 -1.617278E+04 -1.680954E-09 -6.162835E-10
       362  18  9.974761E+04 -3.377774E+05  6.423499E+04  6.108485E+04 -8.700139E-10  1.847504E-09
       362  19 -2.370059E+05 -1.245153E+06 -2.662318E+05  6.819163E+04  3.361910E+03  9.740120E+04
       362  20 -9.167517E+04 -1.142299E+06 -1.653826E+05 -9.346045E+03  8.401661E+03  6.619617E+04
       362  21 -8.538160E+04 -1.078264E+06 -1.196282E+05  4.370011E+04  4.714672E+03  3.501345E+04
       362  22 -1.027852E+05 -7.080960E+05 -1.323181E+05  5.267419E+04  3.353538E+03  9.518095E+04
       362  23  2.151194E+04 -6.888730E+05 -5.319301E+04 -1.275787E+04  8.400341E+03  6.604376E+04
       362  24  7.188238E+03 -7.080823E+05 -2.769005E+04  5.239002E+04  4.721973E+03  3.693320E+04
       362  25  3.141463E+04 -1.707766E+05  1.574034E+03  3.714313E+04  3.345282E+03  9.295874E+04
       362  26  1.346837E+05 -2.352597E+05  5.898126E+04 -1.617233E+04  8.399024E+03  6.589123E+04
       362  27  9.974804E+04 -3.377758E+05  6.423787E+04  6.108500E+04  4.729325E+03  3.885410E+04
       363   1 -2.409383E+04 -7.355124E+05 -2.739182E+04  5.360210E+04 -1.396694E+03 -3.231576E+04
       363   2  1.087928E+04 -6.512882E+05  1.759844E+04 -1.198806E+04  6.445175E+02 -3.526826E+04
       363   3  5.437194E+04 -5.657569E+05  6.639088E+04  5.520347E+04  2.512733E+03 -3.822017E+04
       363   4 -1.505902E+04 -6.992202E+05 -1.851149E+04  5.304958E+04 -1.398612E+03 -3.282825E+04
       363   5 -1.260688E+03 -6.998585E+05  5.565480E+03 -1.340829E+04  6.428560E+02 -3.573776E+04
       363   6  2.105176E+04 -6.992004E+05  3.341823E+04  5.291607E+04  2.511313E+03 -3.864626E+04
       363   7 -6.024304E+03 -6.629268E+05 -9.631248E+03  5.249703E+04 -1.400528E+03 -3.334078E+04
       363   8 -1.340082E+04 -7.484266E+05 -6.467651E+03 -1.482842E+04  6.411965E+02 -3.620722E+04
       363   9 -1.226974E+04 -8.326277E+05  4.442576E+02  5.062914E+04  2.509896E+03 -3.907227E+04
       363  10 -2.409412E+04 -7.355135E+05 -2.739379E+04  5.360206E+04 -5.778113E-10  1.716019E-09
       363  11  1.087894E+04 -6.512896E+05  1.759610E+04 -1.198804E+04 -3.715587E-10  1.674996E-09
       363  12  5.437154E+04 -5.657584E+05  6.638812E+04  5.520355E+04  1.999681E-09 -7.028952E-10
       363  13 -1.505931E+04 -6.992214E+05 -1.851352E+04  5.304954E+04 -1.002533E-09 -2.658544E-10
       363  14 -1.261031E+03 -6.998599E+05  5.563076E+03 -1.340827E+04 -2.085527E-09 -7.058013E-11
       363  15  2.105135E+04 -6.992020E+05  3.341541E+04  5.291615E+04 -3.191343E-09 -4.997314E-10
       363  16 -6.024605E+03 -6.629280E+05 -9.633342E+03  5.249699E+04 -1.609171E-11 -2.008925E-09
       363  17 -1.340117E+04 -7.484280E+05 -6.470118E+03 -1.482840E+04  2.599898E-09 -2.768603E-09
       363  18 -1.227016E+04 -8.326293E+05  4.413730E+02  5.062922E+04  3.430045E-10  3.762456E-10
       363  19 -2.409383E+04 -7.355124E+05 -2.739182E+04  5.360210E+04  1.396694E+03  3.231576E+04
       363  20  1.087928E+04 -6.512882E+05  1.759844E+04 -1.198806E+04 -6.445175E+02  3.526826E+04
       363  21  5.437194E+04 -5.657569E+05  6.639088E+04  5.520347E+04 -2.512733E+03  3.822017E+04
       363  22 -1.505902E+04 -6.992202E+05 -1.851149E+04  5.304958E+04  1.398612E+03  3.282825E+04
       363  23 -1.260688E+03 -6.998585E+05  5.565480E+03 -1.340829E+04 -6.428560E+02  3.573776E+04
       363  24  2.105176E+04 -6.992004E+05  3.341823E+04  5.291607E+04 -2.511313E+03  3.864626E+04
       363  25 -6.024304E+03 -6.629268E+05 -9.631248E+03  5.249703E+04  1.400528E+03  3.334078E+04
       363  26 -1.340082E+04 -7.484266E+05 -6.467651E+03 -1.482842E+04 -6.411965E+02  3.620722E+04
       363  27 -1.226974E+04 -8.326277E+05  4.442576E+02  5.062914E+04 -2.509896E+03  3.907227E+04
       364   1  1.092506E+05 -2.212878E+05  1.600857E+05  4.270140E+04  5.958220E+03 -4.357499E+04
       364   2  1.065370E+05 -1.662250E+05  2.115151E+05 -5.211957E+03  9.587721E+03 -8.745381E+04
       364   3  3.001142E+05 -5.577173E+04  3.407008E+05  7.591793E+04  3.375625E+03 -1.313110E+05
       364   4 -7.040537E+03 -6.873419E+05  4.449040E+04  5.227834E+04  5.950592E+03 -4.563641E+04
       364   5 -3.041203E+04 -7.148083E+05  7.583663E+04 -1.240635E+04  9.590038E+03 -8.712094E+04
       364   6  1.421849E+05 -6.872523E+05  1.833287E+05  5.195662E+04  3.386427E+03 -1.285779E+05
       364   7 -1.233476E+05 -1.153198E+06 -7.112106E+04  6.184790E+04  5.942897E+03 -4.769627E+04
       364   8 -1.673834E+05 -1.263118E+06 -5.986418E+04 -1.959455E+04  9.592347E+03 -8.678835E+04
       364   9 -1.577244E+04 -1.318370E+06  2.592701E+04  2.801950E+04  3.397026E+03 -1.258476E+05
       364  10  1.092500E+05 -2.212898E+05  1.600821E+05  4.270161E+04 -4.249149E-11  1.729503E-10
       364  11  1.065349E+05 -1.662332E+05  2.115005E+05 -5.211282E+03 -1.035622E-10  9.404053E-10
       364  12  3.001096E+05 -5.579024E+04  3.406683E+05  7.591829E+04  7.555235E-10  7.872371E-11
       364  13 -7.041135E+03 -6.873441E+05  4.448641E+04  5.227856E+04  1.273764E-09 -1.003224E-10
       364  14 -3.041417E+04 -7.148165E+05  7.582218E+04 -1.240567E+04 -7.323912E-10  3.824702E-10
       364  15  1.421804E+05 -6.872701E+05  1.832976E+05  5.195697E+04  4.131436E-10 -4.381598E-10
       364  16 -1.233482E+05 -1.153201E+06 -7.112541E+04  6.184813E+04 -2.200480E-09 -5.080448E-10
       364  17 -1.673856E+05 -1.263126E+06 -5.987854E+04 -1.959388E+04  1.950236E-10 -6.091000E-10
       364  18 -1.577672E+04 -1.318387E+06  2.589717E+04  2.801984E+04  8.458410E-10  2.043197E-10
       364  19  1.092506E+05 -2.212878E+05  1.600857E+05  4.270140E+04 -5.958220E+03  4.357499E+04
       364  20  1.065370E+05 -1.662250E+05  2.115151E+05 -5.211957E+03 -9.587721E+03  8.745381E+04
       364  21  3.001142E+05 -5.577173E+04  3.407008E+05  7.591793E+04 -3.375625E+03  1.313110E+05
       364  22 -7.040537E+03 -6.873419E+05  4.449040E+04  5.227834E+04 -5.950592E+03  4.563641E+04
       364  23 -3.041203E+04 -7.148083E+05  7.583663E+04 -1.240635E+04 -9.590038E+03  8.712094E+04
       364  24  1.421849E+05 -6.872523E+05  1.833287E+05  5.195662E+04 -3.386427E+03  1.285779E+05
       364  25 -1.233476E+05 -1.153198E+06 -7.112106E+04  6.184790E+04 -5.942897E+03  4.769627E+04
       364  26 -1.673834E+05 -1.263118E+06 -5.986418E+04 -1.959455E+04 -9.592347E+03  8.678835E+04
       364  27 -1.577244E+04 -1.318370E+06  2.592701E+04  2.801950E+04 -3.397026E+03  1.258476E+05
       365   1  1.262163E+06  9.280433E+05  4.043409E+05  7.538657E+05  1.905774E+05  1.406564E+05
       365   2  1.143899E+06  6.510574E+05  2.031114E+05  8.665731E+05  1.261849E+05  8.952127E+04
       365   3  1.202874E+06  6.729272E+05  1.483928E+05  8.573686E+05  5.986362E+04  4.096713E+04
       365   4  1.133333E+06  7.652720E+05  3.463183E+05  6.574651E+05  1.897611E+05  1.400261E+05
       365   5  9.953134E+05  5.271299E+05  1.492656E+05  7.847817E+05  1.260018E+05  8.938080E+04
       365   6  1.034444E+06  5.877585E+05  9.820762E+04  7.901711E+05  6.031666E+04  4.130875E+04
       365   7  1.004523E+06  6.025375E+05  2.882926E+05  5.610932E+05  1.889450E+05  1.393961E+05
       365   8  8.467509E+05  4.032196E+05  9.541620E+04  7.030137E+05  1.258187E+05  8.924039E+04
       365   9  8.660435E+05  5.025958E+05  4.801946E+04  7.229905E+05  6.076953E+04  4.165030E+04
       365  10  1.262119E+06  9.280124E+05  4.042358E+05  7.538442E+05  8.041086E-10 -2.247073E-10
       365  11  1.143879E+06  6.510445E+05  2.030666E+05  8.665640E+05  2.174156E-09 -8.892047E-11
       365  12  1.202870E+06  6.729244E+05  1.483830E+05  8.573666E+05  1.577567E-09 -1.097437E-09
       365  13  1.133289E+06  7.652414E+05  3.462140E+05  6.574437E+05  5.398382E-10 -2.573090E-10
       365  14  9.952943E+05  5.271171E+05  1.492208E+05  7.847727E+05  4.137244E-10 -1.928825E-10
       365  15  1.034439E+06  5.877557E+05  9.819761E+04  7.901691E+05 -6.693909E-10  2.065759E-10
       365  16  1.004479E+06  6.025071E+05  2.881892E+05  5.610720E+05 -8.491189E-10  5.246103E-10
       365  17  8.467318E+05  4.032068E+05  9.537159E+04  7.030047E+05 -3.953074E-10  1.016645E-09
       365  18  8.660391E+05  5.025930E+05  4.800928E+04  7.229884E+05 -1.336025E-10 -2.890668E-10
       365  19  1.262163E+06  9.280433E+05  4.043409E+05  7.538657E+05 -1.905774E+05 -1.406564E+05
       365  20  1.143899E+06  6.510574E+05  2.031114E+05  8.665731E+05 -1.261849E+05 -8.952127E+04
       365  21  1.202874E+06  6.729272E+05  1.483928E+05  8.573686E+05 -5.986362E+04 -4.096713E+04
       365  22  1.133333E+06  7.652720E+05  3.463183E+05  6.574651E+05 -1.897611E+05 -1.400261E+05
       365  23  9.953134E+05  5.271299E+05  1.492656E+05  7.847817E+05 -1.260018E+05 -8.938080E+04
       365  24  1.034444E+06  5.877585E+05  9.820762E+04  7.901711E+05 -6.031666E+04 -4.130875E+04
       365  25  1.004523E+06  6.025375E+05  2.882926E+05  5.610932E+05 -1.889450E+05 -1.393961E+05
       365  26  8.467509E+05  4.032196E+05  9.541620E+04  7.030137E+05 -1.258187E+05 -8.924039E+04
       365  27  8.660435E+05  5.025958E+05  4.801946E+04  7.229905E+05 -6.076953E+04 -4.165030E+04
       366   1  1.144088E+06  6.940528E+05  1.189909E+05  8.133343E+05  4.693090E+04  3.229302E+04
       366   2  1.126723E+06  6.415552E+05  7.641272E+04  8.232923E+05  2.916392E+04  1.909013E+04
       366   3  1.121481E+06  6.482609E+05  6.190908E+04  8.203392E+05  1.117637E+04  6.183437E+03
       366   4  1.040158E+06  6.105124E+05  8.189044E+04  7.575879E+05  4.690113E+04  3.227004E+04
       366   5  1.027271E+06  5.686841E+05  4.232717E+04  7.732040E+05  2.920872E+04  1.912350E+04
       366   6  1.026495E+06  5.860486E+05  3.077845E+04  7.759077E+05  1.129554E+04  6.272662E+03
       366   7  9.362389E+05  5.269798E+05  4.478844E+04  7.018526E+05  4.687138E+04  3.224706E+04
       366   8  9.278294E+05  4.958186E+05  8.240255E+03  7.231249E+05  2.925352E+04  1.915687E+04
       366   9  9.315194E+05  5.238402E+05 -3.533454E+02  7.314834E+05  1.141469E+04  6.361870E+03
       366  10  1.144085E+06  6.940511E+05  1.189848E+05  8.133330E+05 -1.129542E-09 -6.156393E-10
       366  11  1.126722E+06  6.415546E+05  7.641045E+04  8.232919E+05 -1.689589E-09  4.105433E-10
       366  12  1.121481E+06  6.482608E+05  6.190878E+04  8.203391E+05 -2.449519E-10 -3.219144E-10
       366  13  1.040155E+06  6.105107E+05  8.188436E+04  7.575867E+05 -1.458513E-09 -2.119396E-10
       366  14  1.027270E+06  5.686835E+05  4.232489E+04  7.732036E+05  1.690611E-10 -1.897230E-10
       366  15  1.026495E+06  5.860486E+05  3.077814E+04  7.759076E+05  1.024665E-09  5.891078E-10
       366  16  9.362363E+05  5.269781E+05  4.478237E+04  7.018514E+05 -2.044622E-10  2.222848E-10
       366  17  9.278284E+05  4.958180E+05  8.237962E+03  7.231244E+05  6.492092E-10  6.378007E-10
       366  18  9.315192E+05  5.238401E+05 -3.536655E+02  7.314834E+05  2.327047E-09  8.948023E-11
       366  19  1.144088E+06  6.940528E+05  1.189909E+05  8.133343E+05 -4.693090E+04 -3.229302E+04
       366  20  1.126723E+06  6.415552E+05  7.641272E+04  8.232923E+05 -2.916392E+04 -1.909013E+04
       366  21  1.121481E+06  6.482609E+05  6.190908E+04  8.203392E+05 -1.117637E+04 -6.183437E+03
       366  22  1.040158E+06  6.105124E+05  8.189044E+04  7.575879E+05 -4.690113E+04 -3.227004E+04
       366  23  1.027271E+06  5.686841E+05  4.232717E+04  7.732040E+05 -2.920872E+04 -1.912350E+04
       366  24  1.026495E+06  5.860486E+05  3.077845E+04  7.759077E+05 -1.129554E+04 -6.272662E+03
       366  25  9.362389E+05  5.269798E+05  4.478844E+04  7.018526E+05 -4.687138E+04 -3.224706E+04
       366  26  9.278294E+05  4.958186E+05  8.240255E+03  7.231249E+05 -2.925352E+04 -1.915687E+04
       366  27  9.315194E+05  5.238402E+05 -3.533454E+02  7.314834E+05 -1.141469E+04 -6.361870E+03
       367   1  1.086132E+06  6.320209E+05  4.821318E+04  8.020873E+05  6.811798E+03  3.288052E+03
       367   2  1.082829E+06  6.111420E+05  4.272407E+04  7.979768E+05 -3.593026E+03 -4.074837E+03
       367   3  1.075079E+06  6.203485E+05  5.031195E+04  7.923195E+05 -1.399816E+04 -1.143722E+04
       367   4  1.027551E+06  5.880494E+05  2.795025E+04  7.720980E+05  6.876582E+03  3.336498E+03
       367   5  1.030321E+06  5.739828E+05  2.498333E+04  7.721383E+05 -3.527076E+03 -4.025484E+03
       367   6  1.028645E+06  5.900024E+05  3.509344E+04  7.706315E+05 -1.393115E+04 -1.138712E+04
       367   7  9.689731E+05  5.440799E+05  7.686780E+03  7.421119E+05  6.941357E+03  3.384937E+03
       367   8  9.778155E+05  5.368251E+05  7.242220E+03  7.463023E+05 -3.461135E+03 -3.976136E+03
       367   9  9.822131E+05  5.596573E+05  1.987468E+04  7.489453E+05 -1.386415E+04 -1.133702E+04
       367  10  1.086132E+06  6.320209E+05  4.821307E+04  8.020873E+05 -2.060564E-09 -1.271488E-09
       367  11  1.082829E+06  6.111419E+05  4.272401E+04  7.979768E+05  4.467208E-10  4.466343E-10
       367  12  1.075078E+06  6.203483E+05  5.031134E+04  7.923193E+05 -1.736648E-09  4.201964E-10
       367  13  1.027551E+06  5.880494E+05  2.795014E+04  7.720980E+05  1.306081E-10 -2.241458E-11
       367  14  1.030321E+06  5.739828E+05  2.498328E+04  7.721383E+05 -2.202524E-09  4.409224E-10
       367  15  1.028644E+06  5.900022E+05  3.509283E+04  7.706314E+05 -1.724984E-09  8.781556E-11
       367  16  9.689731E+05  5.440799E+05  7.686669E+03  7.421118E+05  9.409018E-10  3.194655E-10
       367  17  9.778155E+05  5.368250E+05  7.242168E+03  7.463023E+05 -5.809288E-10  3.491385E-10
       367  18  9.822128E+05  5.596571E+05  1.987408E+04  7.489452E+05 -1.689519E-09 -1.367148E-10
       367  19  1.086132E+06  6.320209E+05  4.821318E+04  8.020873E+05 -6.811798E+03 -3.288052E+03
       367  20  1.082829E+06  6.111420E+05  4.272407E+04  7.979768E+05  3.593026E+03  4.074837E+03
       367  21  1.075079E+06  6.203485E+05  5.031195E+04  7.923195E+05  1.399816E+04  1.143722E+04
       367  22  1.027551E+06  5.880494E+05  2.795025E+04  7.720980E+05 -6.876582E+03 -3.336498E+03
       367  23  1.030321E+06  5.739828E+05  2.498333E+04  7.721383E+05  3.527076E+03  4.025484E+03
       367  24  1.028645E+06  5.900024E+05  3.509344E+04  7.706315E+05  1.393115E+04  1.138712E+04
       367  25  9.689731E+05  5.440799E+05  7.686780E+03  7.421119E+05 -6.941357E+03 -3.384937E+03
       367  26  9.778155E+05  5.368251E+05  7.242220E+03  7.463023E+05  3.461135E+03  3.976136E+03
       367  27  9.822131E+05  5.596573E+05  1.987468E+04  7.489453E+05  1.386415E+04  1.133702E+04
       368   1  1.039959E+06  6.014556E+05  4.681346E+04  7.866147E+05 -1.965891E+04 -1.539179E+04
       368   2  1.034710E+06  5.706989E+05  6.528935E+04  7.785695E+05 -4.577149E+04 -3.449843E+04
       368   3  1.060889E+06  6.165817E+05  1.255690E+05  7.468656E+05 -7.180681E+04 -5.370887E+04
       368   4  1.028090E+06  5.851285E+05  4.126329E+04  7.771225E+05 -1.957787E+04 -1.533088E+04
       368   5  1.023156E+06  5.660614E+05  6.208306E+04  7.745124E+05 -4.571478E+04 -3.445622E+04
       368   6  1.049655E+06  6.236396E+05  1.247281E+05  7.482431E+05 -7.177442E+04 -5.368628E+04
       368   7  1.016221E+06  5.688018E+05  3.571310E+04  7.676306E+05 -1.949683E+04 -1.526996E+04
       368   8  1.011601E+06  5.614240E+05  5.887676E+04  7.704553E+05 -4.565807E+04 -3.441401E+04
       368   9  1.038420E+06  6.306977E+05  1.238873E+05  7.496206E+05 -7.174204E+04 -5.366368E+04
       368  10  1.039958E+06  6.014552E+05  4.681229E+04  7.866144E+05 -2.941535E-09 -9.995324E-10
       368  11  1.034708E+06  5.706971E+05  6.528319E+04  7.785682E+05 -1.295715E-09 -3.923293E-10
       368  12  1.060883E+06  6.165772E+05  1.255539E+05  7.468625E+05  6.206262E-10  1.156181E-09
       368  13  1.028090E+06  5.851281E+05  4.126213E+04  7.771223E+05 -1.776596E-09 -7.124159E-10
       368  14  1.023153E+06  5.660596E+05  6.207692E+04  7.745111E+05 -5.094800E-10 -1.503980E-10
       368  15  1.049648E+06  6.236351E+05  1.247131E+05  7.482400E+05  3.402349E-10 -7.015942E-11
       368  16  1.016221E+06  5.688014E+05  3.571195E+04  7.676303E+05 -1.143963E-10 -1.232457E-10
       368  17  1.011599E+06  5.614221E+05  5.887063E+04  7.704540E+05 -9.083283E-10 -5.782401E-10
       368  18  1.038414E+06  6.306932E+05  1.238722E+05  7.496175E+05  1.347487E-09 -4.635598E-11
       368  19  1.039959E+06  6.014556E+05  4.681346E+04  7.866147E+05  1.965891E+04  1.539179E+04
       368  20  1.034710E+06  5.706989E+05  6.528935E+04  7.785695E+05  4.577149E+04  3.449843E+04
       368  21  1.060889E+06  6.165817E+05  1.255690E+05  7.468656E+05  7.180681E+04  5.370887E+04
       368  22  1.028090E+06  5.851285E+05  4.126329E+04  7.771225E+05  1.957787E+04  1.533088E+04
       368  23  1.023156E+06  5.660614E+05  6.208306E+04  7.745124E+05  4.571478E+04  3.445622E+04
       368  24  1.049655E+06  6.236396E+05  1.247281E+05  7.482431E+05  7.177442E+04  5.368628E+04
       368  25  1.016221E+06  5.688018E+05  3.571310E+04  7.676306E+05  1.949683E+04  1.526996E+04
       368  26  1.011601E+06  5.614240E+05  5.887676E+04  7.704553E+05  4.565807E+04  3.441401E+04
       368  27  1.038420E+06  6.306977E+05  1.238873E+05  7.496206E+05  7.174204E+04  5.366368E+04
       369   1  9.859058E+05  6.000339E+05  1.418812E+05  7.949948E+05 -9.190200E+04 -6.833910E+04
       369   2  9.561458E+05  4.636015E+05  2.193043E+05  7.720632E+05 -1.924993E+05 -1.430923E+05
       369   3  1.220710E+06  7.681529E+05  5.220522E+05  5.542884E+05 -2.925574E+05 -2.185515E+05
       369   4  1.042177E+06  5.869535E+05  1.504491E+05  7.983482E+05 -9.173726E+04 -6.820832E+04
       369   5  9.717563E+05  5.035369E+05  2.302756E+05  7.930374E+05 -1.925084E+05 -1.431075E+05
       369   6  1.195671E+06  8.611189E+05  5.355696E+05  5.928910E+05 -2.927298E+05 -2.187300E+05
       369   7  1.098452E+06  5.738751E+05  1.590174E+05  8.017009E+05 -9.157249E+04 -6.807755E+04
       369   8  9.873675E+05  5.434749E+05  2.412470E+05  8.140126E+05 -1.925175E+05 -1.431228E+05
       369   9  1.170640E+06  9.541056E+05  5.490893E+05  6.314931E+05 -2.929022E+05 -2.189086E+05
       369  10  9.858955E+05  6.000266E+05  1.418566E+05  7.949897E+05 -4.612125E-10 -2.769742E-10
       369  11  9.561006E+05  4.635696E+05  2.191964E+05  7.720411E+05  3.839990E-10  8.254639E-10
       369  12  1.220605E+06  7.680788E+05  5.218022E+05  5.542370E+05  9.789065E-10  5.647938E-10
       369  13  1.042166E+06  5.869463E+05  1.504246E+05  7.983432E+05 -5.057041E-10  5.532080E-10
       369  14  9.717111E+05  5.035050E+05  2.301678E+05  7.930152E+05  9.963225E-10 -6.384276E-10
       369  15  1.195566E+06  8.610447E+05  5.353194E+05  5.928395E+05 -1.533994E-09 -3.528952E-10
       369  16  1.098442E+06  5.738679E+05  1.589930E+05  8.016959E+05  1.734918E-09  5.718919E-10
       369  17  9.873223E+05  5.434430E+05  2.411392E+05  8.139904E+05  5.041167E-10 -9.843828E-10
       369  18  1.170536E+06  9.540313E+05  5.488387E+05  6.314415E+05 -9.097201E-11 -3.861236E-10
       369  19  9.859058E+05  6.000339E+05  1.418812E+05  7.949948E+05  9.190200E+04  6.833910E+04
       369  20  9.561458E+05  4.636015E+05  2.193043E+05  7.720632E+05  1.924993E+05  1.430923E+05
       369  21  1.220710E+06  7.681529E+05  5.220522E+05  5.542884E+05  2.925574E+05  2.185515E+05
       369  22  1.042177E+06  5.869535E+05  1.504491E+05  7.983482E+05  9.173726E+04  6.820832E+04
       369  23  9.717563E+05  5.035369E+05  2.302756E+05  7.930374E+05  1.925084E+05  1.431075E+05
       369  24  1.195671E+06  8.611189E+05  5.355696E+05  5.928910E+05  2.927298E+05  2.187300E+05
       369  25  1.098452E+06  5.738751E+05  1.590174E+05  8.017009E+05  9.157249E+04  6.807755E+04
       369  26  9.873675E+05  5.434749E+05  2.412470E+05  8.140126E+05  1.925175E+05  1.431228E+05
       369  27  1.170640E+06  9.541056E+05  5.490893E+05  6.314931E+05  2.929022E+05  2.189086E+05
       370   1  2.658001E+05  6.132921E+04  3.191675E+04  2.245111E+04 -8.175137E+04 -3.553530E+03
       370   2  2.242090E+05  1.637424E+05  8.649959E+04 -1.165986E+04 -5.404435E+04 -1.010674E+04
       370   3  1.470890E+05  1.314211E+05  8.972456E+04  4.669237E+04 -2.633411E+04 -7.195558E+03
       370   4 -3.663705E+05 -9.665950E+04 -1.255761E+05  3.886619E+04 -8.439526E+04 -3.552604E+03
       370   5 -3.483930E+05  2.089836E+04 -5.507720E+04 -7.310718E+03 -5.444330E+04 -1.010747E+04
       370   6 -3.663766E+05  3.263207E+03 -3.753351E+04  3.898191E+04 -2.448541E+04 -7.195212E+03
       370   7 -9.981781E+05 -2.546773E+05 -2.830989E+05  5.526466E+04 -8.703643E+04 -3.551818E+03
       370   8 -9.206970E+05 -1.219701E+05 -1.966783E+05 -2.965549E+03 -5.484187E+04 -1.010821E+04
       370   9 -8.796026E+05 -1.249142E+05 -1.648112E+05  3.127782E+04 -2.263822E+04 -7.194912E+03
       370  10  2.657930E+05  6.132740E+04  3.190417E+04  2.245088E+04  5.060355E-10 -6.361029E-10
       370  11  2.242058E+05  1.637415E+05  8.649392E+04 -1.166030E+04  1.708051E-09  6.002849E-11
       370  12  1.470883E+05  1.314208E+05  8.972316E+04  4.669222E+04  1.234277E-09  3.849505E-10
       370  13 -3.663781E+05 -9.666143E+04 -1.255895E+05  3.886595E+04 -1.054497E-09  2.252482E-10
       370  14 -3.483962E+05  2.089746E+04 -5.508296E+04 -7.311161E+03  8.532595E-10  4.159102E-10
       370  15 -3.663772E+05  3.262990E+03 -3.753473E+04  3.898177E+04 -1.132806E-09  1.406647E-09
       370  16 -9.981862E+05 -2.546794E+05 -2.831132E+05  5.526441E+04 -1.415145E-09 -4.065914E-10
       370  17 -9.207003E+05 -1.219711E+05 -1.966842E+05 -2.965995E+03 -2.119810E-10  8.889703E-11
       370  18 -8.796031E+05 -1.249144E+05 -1.648123E+05  3.127769E+04 -4.605030E-10 -2.100575E-10
       370  19  2.658001E+05  6.132921E+04  3.191675E+04  2.245111E+04  8.175137E+04  3.553530E+03
       370  20  2.242090E+05  1.637424E+05  8.649959E+04 -1.165986E+04  5.404435E+04  1.010674E+04
       370  21  1.470890E+05  1.314211E+05  8.972456E+04  4.669237E+04  2.633411E+04  7.195558E+03
       370  22 -3.663705E+05 -9.665950E+04 -1.255761E+05  3.886619E+04  8.439526E+04  3.552604E+03
       370  23 -3.483930E+05  2.089836E+04 -5.507720E+04 -7.310718E+03  5.444330E+04  1.010747E+04
       370  24 -3.663766E+05  3.263207E+03 -3.753351E+04  3.898191E+04  2.448541E+04  7.195212E+03
       370  25 -9.981781E+05 -2.546773E+05 -2.830989E+05  5.526466E+04  8.703643E+04  3.551818E+03
       370  26 -9.206970E+05 -1.219701E+05 -1.966783E+05 -2.965549E+03  5.484187E+04  1.010821E+04
       370  27 -8.796026E+05 -1.249142E+05 -1.648112E+05  3.127782E+04  2.263822E+04  7.194912E+03
       371   1 -8.428691E+04  5.509189E+04  3.584680E+04  3.721397E+04 -1.834320E+04 -4.492123E+03
       371   2 -1.414625E+05  5.734068E+04  3.316932E+04 -8.317702E+03 -8.238928E+03 -3.485389E+03
       371   3 -2.058667E+05  3.570480E+04  1.795271E+04  4.124702E+04  1.862364E+03 -1.336095E+03
       371   4 -3.599453E+05 -1.369609E+04 -3.238375E+04  3.953946E+04 -1.823480E+04 -4.492267E+03
       371   5 -3.563079E+05  3.724572E+03 -2.001294E+04 -8.011832E+03 -7.860263E+03 -3.485191E+03
       371   6 -3.599516E+05 -2.790717E+03 -2.037236E+04  3.953549E+04  2.512280E+03 -1.335439E+03
       371   7 -6.355346E+05 -8.248974E+04 -1.006200E+05  4.186392E+04 -1.812644E+04 -4.492409E+03
       371   8 -5.711113E+05 -4.989499E+04 -7.319865E+04 -7.706075E+03 -7.481729E+03 -3.484993E+03
       371   9 -5.140150E+05 -4.128800E+04 -5.869920E+04  3.782437E+04  3.162035E+03 -1.334788E+03
       371  10 -8.428727E+04  5.509178E+04  3.584613E+04  3.721390E+04  9.956599E-10  2.695057E-10
       371  11 -1.414626E+05  5.734065E+04  3.316917E+04 -8.317725E+03  8.656612E-11  4.903542E-10
       371  12 -2.058667E+05  3.570479E+04  1.795270E+04  4.124702E+04 -6.965397E-10 -2.106908E-10
       371  13 -3.599457E+05 -1.369620E+04 -3.238442E+04  3.953940E+04 -4.745020E-10  5.735368E-10
       371  14 -3.563080E+05  3.724543E+03 -2.001308E+04 -8.011854E+03 -1.570434E-09  9.080202E-10
       371  15 -3.599516E+05 -2.790721E+03 -2.037237E+04  3.953549E+04 -9.973248E-10 -2.363309E-10
       371  16 -6.355350E+05 -8.248985E+04 -1.006206E+05  4.186385E+04 -8.419576E-10  1.657419E-10
       371  17 -5.711114E+05 -4.989502E+04 -7.319877E+04 -7.706096E+03 -5.392049E-10  2.945201E-11
       371  18 -5.140150E+05 -4.128801E+04 -5.869922E+04  3.782438E+04  4.009159E-10  2.871107E-10
       371  19 -8.428691E+04  5.509189E+04  3.584680E+04  3.721397E+04  1.834320E+04  4.492123E+03
       371  20 -1.414625E+05  5.734068E+04  3.316932E+04 -8.317702E+03  8.238928E+03  3.485389E+03
       371  21 -2.058667E+05  3.570480E+04  1.795271E+04  4.124702E+04 -1.862364E+03  1.336095E+03
       371  22 -3.599453E+05 -1.369609E+04 -3.238375E+04  3.953946E+04  1.823480E+04  4.492267E+03
       371  23 -3.563079E+05  3.724572E+03 -2.001294E+04 -8.011832E+03  7.860263E+03  3.485191E+03
       371  24 -3.599516E+05 -2.790717E+03 -2.037236E+04  3.953549E+04 -2.512280E+03  1.335439E+03
       371  25 -6.355346E+05 -8.248974E+04 -1.006200E+05  4.186392E+04  1.812644E+04  4.492409E+03
       371  26 -5.711113E+05 -4.989499E+04 -7.319865E+04 -7.706075E+03  7.481729E+03  3.484993E+03
       371  27 -5.140150E+05 -4.128800E+04 -5.869920E+04  3.782437E+04 -3.162035E+03  1.334788E+03
       372   1 -4.475866E+05 -2.270668E+04 -4.333927E+04  3.730314E+04  5.660453E+03  3.099589E+02
       372   2 -5.029688E+05 -3.124746E+04 -6.425112E+04 -7.324167E+03  2.031445E+04  2.439686E+03
       372   3 -5.693810E+05 -7.590591E+04 -1.037590E+05  4.335271E+04  3.496871E+04  3.560820E+03
       372   4 -3.607695E+05 -9.961591E+02 -2.167134E+04  3.957657E+04  6.289580E+03  3.106511E+02
       372   5 -3.552749E+05  5.616397E+03 -2.768819E+04 -8.067361E+03  2.070456E+04  2.439953E+03
       372   6 -3.607684E+05 -2.384191E+04 -5.213098E+04  3.959177E+04  3.512124E+04  3.560633E+03
       372   7 -2.739456E+05  2.071381E+04 -3.964663E+00  4.185032E+04  6.918794E+03  3.113478E+02
       372   8 -2.075612E+05  4.247862E+04  8.873106E+03 -8.810736E+03  2.109477E+04  2.440219E+03
       372   9 -1.521162E+05  2.821889E+04 -5.062377E+02  3.582957E+04  3.527382E+04  3.560444E+03
       372  10 -4.475867E+05 -2.270669E+04 -4.333933E+04  3.730314E+04 -1.756941E-10  2.771386E-10
       372  11 -5.029693E+05 -3.124757E+04 -6.425191E+04 -7.324207E+03  1.344937E-09  1.400633E-10
       372  12 -5.693823E+05 -7.590625E+04 -1.037613E+05  4.335261E+04  5.695654E-10  8.666639E-10
       372  13 -3.607696E+05 -9.961698E+02 -2.167141E+04  3.957657E+04  5.424197E-10  1.902299E-10
       372  14 -3.552754E+05  5.616276E+03 -2.768901E+04 -8.067401E+03  2.047121E-10  4.316368E-10
       372  15 -3.607697E+05 -2.384226E+04 -5.213333E+04  3.959167E+04 -4.357738E-10 -5.604774E-13
       372  16 -2.739457E+05  2.071380E+04 -4.054841E+00  4.185032E+04  8.331091E-10  4.621923E-10
       372  17 -2.075617E+05  4.247849E+04  8.872258E+03 -8.810777E+03 -1.962689E-09  1.160420E-09
       372  18 -1.521175E+05  2.821854E+04 -5.086003E+02  3.582946E+04 -6.246050E-10  1.064279E-09
       372  19 -4.475866E+05 -2.270668E+04 -4.333927E+04  3.730314E+04 -5.660453E+03 -3.099589E+02
       372  20 -5.029688E+05 -3.124746E+04 -6.425112E+04 -7.324167E+03 -2.031445E+04 -2.439686E+03
       372  21 -5.693810E+05 -7.590591E+04 -1.037590E+05  4.335271E+04 -3.496871E+04 -3.560820E+03
       372  22 -3.607695E+05 -9.961591E+02 -2.167134E+04  3.957657E+04 -6.289580E+03 -3.106511E+02
       372  23 -3.552749E+05  5.616397E+03 -2.768819E+04 -8.067361E+03 -2.070456E+04 -2.439953E+03
       372  24 -3.607684E+05 -2.384191E+04 -5.213098E+04  3.959177E+04 -3.512124E+04 -3.560633E+03
       372  25 -2.739456E+05  2.071381E+04 -3.964663E+00  4.185032E+04 -6.918794E+03 -3.113478E+02
       372  26 -2.075612E+05  4.247862E+04  8.873106E+03 -8.810736E+03 -2.109477E+04 -2.440219E+03
       372  27 -1.521162E+05  2.821889E+04 -5.062377E+02  3.582957E+04 -3.527382E+04 -3.560444E+03
       373   1 -8.198754E+05 -1.055480E+05 -1.731031E+05  2.579828E+04  4.360201E+04  6.147714E+03
       373   2 -8.473649E+05 -9.022848E+04 -2.194810E+05 -2.576495E+02  9.692818E+04  8.992818E+03
       373   3 -9.391597E+05 -3.094865E+05 -3.589916E+05  6.672683E+04  1.502463E+05  3.167529E+03
       373   4 -3.725701E+05  6.177507E+03 -6.215223E+04  3.910931E+04  4.534261E+04  6.149158E+03
       373   5 -3.406239E+05  3.626376E+04 -9.411168E+04 -7.476258E+03  9.662656E+04  8.991301E+03
       373   6 -3.725747E+05 -1.677702E+05 -2.177280E+05  3.897706E+04  1.479078E+05  3.162614E+03
       373   7  7.491747E+04  1.178886E+05  4.878384E+04  5.242992E+04  4.708444E+04  6.150676E+03
       373   8  1.663509E+05  1.627370E+05  3.123856E+04 -1.470076E+04  9.632468E+04  8.989792E+03
       373   9  1.943034E+05 -2.607516E+04 -7.648811E+04  1.120198E+04  1.455671E+05  3.157913E+03
       373  10 -8.198775E+05 -1.055485E+05 -1.731068E+05  2.579807E+04 -1.062887E-09 -1.866973E-10
       373  11 -8.473750E+05 -9.023109E+04 -2.194988E+05 -2.583519E+02  7.489698E-11 -1.142268E-09
       373  12 -9.391840E+05 -3.094926E+05 -3.590341E+05  6.672645E+04  4.933594E-10 -5.848265E-10
       373  13 -3.725723E+05  6.176914E+03 -6.215616E+04  3.910908E+04 -6.162454E-10  7.223909E-10
       373  14 -3.406339E+05  3.626117E+04 -9.412939E+04 -7.476958E+03  2.043231E-10 -3.670251E-10
       373  15 -3.725982E+05 -1.677761E+05 -2.177691E+05  3.897669E+04 -1.771065E-09 -7.157742E-10
       373  16  7.491508E+04  1.178880E+05  4.877961E+04  5.242968E+04  1.982375E-10  1.019863E-10
       373  17  1.663409E+05  1.627344E+05  3.122097E+04 -1.470146E+04 -9.660318E-10 -1.152444E-09
       373  18  1.942807E+05 -2.608086E+04 -7.652794E+04  1.120161E+04 -1.292129E-09 -1.327278E-09
       373  19 -8.198754E+05 -1.055480E+05 -1.731031E+05  2.579828E+04 -4.360201E+04 -6.147714E+03
       373  20 -8.473649E+05 -9.022848E+04 -2.194810E+05 -2.576495E+02 -9.692818E+04 -8.992818E+03
       373  21 -9.391597E+05 -3.094865E+05 -3.589916E+05  6.672683E+04 -1.502463E+05 -3.167529E+03
       373  22 -3.725701E+05  6.177507E+03 -6.215223E+04  3.910931E+04 -4.534261E+04 -6.149158E+03
       373  23 -3.406239E+05  3.626376E+04 -9.411168E+04 -7.476258E+03 -9.662656E+04 -8.991301E+03
       373  24 -3.725747E+05 -1.677702E+05 -2.177280E+05  3.897706E+04 -1.479078E+05 -3.162614E+03
       373  25  7.491747E+04  1.178886E+05  4.878384E+04  5.242992E+04 -4.708444E+04 -6.150676E+03
       373  26  1.663509E+05  1.627370E+05  3.123856E+04 -1.470076E+04 -9.632468E+04 -8.989792E+03
       373  27  1.943034E+05 -2.607516E+04 -7.648811E+04  1.120198E+04 -1.455671E+05 -3.157913E+03
       374   1 -3.214680E+05 -1.494122E+06 -3.791129E+05  8.198474E+04 -3.278847E+03 -1.742299E+05
       374   2 -6.500618E+04 -1.375458E+06 -2.140906E+05 -5.003783E+03 -8.021617E+03 -1.133266E+05
       374   3 -7.928615E+04 -1.332283E+06 -1.564309E+05  3.466308E+04 -4.412951E+03 -5.243489E+04
       374   4 -1.941543E+05 -9.846860E+05 -2.520525E+05  5.098236E+04 -3.266044E+03 -1.721551E+05
       374   5  4.193285E+04 -9.471045E+05 -1.080788E+05 -1.252958E+04 -8.019496E+03 -1.132092E+05
       374   6  7.721041E+03 -9.846184E+05 -7.004288E+04  5.061298E+04 -4.419411E+03 -5.428289E+04
       374   7 -6.685643E+04 -4.750115E+05 -1.250110E+05  1.995437E+04 -3.253457E+03 -1.700785E+05
       374   8  1.488584E+05 -5.185839E+05 -2.080574E+03 -2.006067E+04 -8.017378E+03 -1.130916E+05
       374   9  9.472006E+04 -6.368430E+05  1.633621E+04  6.657175E+04 -4.425964E+03 -5.613192E+04
       374  10 -3.214762E+05 -1.494155E+06 -3.791701E+05  8.198428E+04 -3.127346E-10 -1.445401E-09
       374  11 -6.500971E+04 -1.375472E+06 -2.141149E+05 -5.004516E+03  2.205624E-10  1.306427E-09
       374  12 -7.928691E+04 -1.332286E+06 -1.564361E+05  3.466289E+04 -2.496304E-09  2.167503E-09
       374  13 -1.941622E+05 -9.847179E+05 -2.521083E+05  5.098191E+04 -2.224137E-10  3.395792E-10
       374  14  4.192933E+04 -9.471183E+05 -1.081030E+05 -1.253031E+04  3.903395E-09 -3.300829E-10
       374  15  7.720227E+03 -9.846216E+05 -7.004846E+04  5.061279E+04  1.082441E-10 -4.025682E-10
       374  16 -6.686422E+04 -4.750426E+05 -1.250655E+05  1.995392E+04  5.021642E-10  1.048426E-09
       374  17  1.488549E+05 -5.185976E+05 -2.104751E+03 -2.006140E+04  7.185069E-10  2.907339E-10
       374  18  9.471919E+04 -6.368464E+05  1.633024E+04  6.657155E+04  1.872335E-09 -1.172819E-09
       374  19 -3.214680E+05 -1.494122E+06 -3.791129E+05  8.198474E+04  3.278847E+03  1.742299E+05
       374  20 -6.500618E+04 -1.375458E+06 -2.140906E+05 -5.003783E+03  8.021617E+03  1.133266E+05
       374  21 -7.928615E+04 -1.332283E+06 -1.564309E+05  3.466308E+04  4.412951E+03  5.243489E+04
       374  22 -1.941543E+05 -9.846860E+05 -2.520525E+05  5.098236E+04  3.266044E+03  1.721551E+05
       374  23  4.193285E+04 -9.471045E+05 -1.080788E+05 -1.252958E+04  8.019496E+03  1.132092E+05
       374  24  7.721041E+03 -9.846184E+05 -7.004288E+04  5.061298E+04  4.419411E+03  5.428289E+04
       374  25 -6.685643E+04 -4.750115E+05 -1.250110E+05  1.995437E+04  3.253457E+03  1.700785E+05
       374  26  1.488584E+05 -5.185839E+05 -2.080574E+03 -2.006067E+04  8.017378E+03  1.130916E+05
       374  27  9.472006E+04 -6.368430E+05  1.633621E+04  6.657175E+04  4.425964E+03  5.613192E+04
       375   1 -3.297587E+04 -9.931108E+05 -6.321291E+04  5.567068E+04 -1.186684E+03 -4.235590E+04
       375   2  2.100307E+04 -9.042483E+05 -1.261233E+04 -1.219983E+04  8.808396E+02 -2.802086E+04
       375   3  3.702708E+04 -8.276548E+05  1.896677E+04  4.943031E+04  2.732176E+03 -1.368271E+04
       375   4 -2.741835E+04 -9.706453E+05 -5.776184E+04  5.143949E+04 -1.187929E+03 -4.286628E+04
       375   5  5.948432E+03 -9.644934E+05 -2.754060E+04 -1.335397E+04  8.795689E+02 -2.847855E+04
       375   6  1.350687E+03 -9.706244E+05 -1.637535E+04  5.135443E+04  2.731001E+03 -1.408961E+04
       375   7 -2.186080E+04 -9.481793E+05 -5.231080E+04  4.720814E+04 -1.189168E+03 -4.337668E+04
       375   8 -9.106471E+03 -1.024735E+06 -4.246914E+04 -1.450800E+04  8.782999E+02 -2.893620E+04
       375   9 -3.432722E+04 -1.113575E+06 -5.171899E+04  5.327809E+04  2.729823E+03 -1.449642E+04
       375  10 -3.297635E+04 -9.931127E+05 -6.321629E+04  5.567064E+04 -2.030045E-09  6.354127E-11
       375  11  2.100286E+04 -9.042491E+05 -1.261381E+04 -1.219981E+04 -2.145185E-09  1.927346E-09
       375  12  3.702702E+04 -8.276550E+05  1.896640E+04  4.943034E+04 -4.973667E-10  1.311647E-09
       375  13 -2.741884E+04 -9.706473E+05 -5.776530E+04  5.143945E+04 -4.545996E-10  4.728082E-10
       375  14  5.948213E+03 -9.644943E+05 -2.754213E+04 -1.335395E+04 -4.422491E-10  8.142698E-10
       375  15  1.350626E+03 -9.706246E+05 -1.637574E+04  5.135446E+04 -1.968758E-10 -6.684335E-10
       375  16 -2.186131E+04 -9.481813E+05 -5.231434E+04  4.720810E+04 -1.440562E-10 -1.254745E-10
       375  17 -9.106697E+03 -1.024736E+06 -4.247072E+04 -1.450798E+04 -6.670164E-11 -1.102379E-11
       375  18 -3.432729E+04 -1.113576E+06 -5.171940E+04  5.327813E+04  1.404675E-11 -1.467035E-09
       375  19 -3.297587E+04 -9.931108E+05 -6.321291E+04  5.567068E+04  1.186684E+03  4.235590E+04
       375  20  2.100307E+04 -9.042483E+05 -1.261233E+04 -1.219983E+04 -8.808396E+02  2.802086E+04
       375  21  3.702708E+04 -8.276548E+05  1.896677E+04  4.943031E+04 -2.732176E+03  1.368271E+04
       375  22 -2.741835E+04 -9.706453E+05 -5.776184E+04  5.143949E+04  1.187929E+03  4.286628E+04
       375  23  5.948432E+03 -9.644934E+05 -2.754060E+04 -1.335397E+04 -8.795689E+02  2.847855E+04
       375  24  1.350687E+03 -9.706244E+05 -1.637535E+04  5.135443E+04 -2.731001E+03  1.408961E+04
       375  25 -2.186080E+04 -9.481793E+05 -5.231080E+04  4.720814E+04  1.189168E+03  4.337668E+04
       375  26 -9.106471E+03 -1.024735E+06 -4.246914E+04 -1.450800E+04 -8.782999E+02  2.893620E+04
       375  27 -3.432722E+04 -1.113575E+06 -5.171899E+04  5.327809E+04 -2.729823E+03  1.449642E+04
       376   1  1.127508E+05 -5.021738E+05  1.030948E+05  5.168899E+04  6.120051E+03 -9.479009E+03
       376   2  1.366629E+05 -4.224958E+05  1.296392E+05 -1.107653E+04  9.746960E+03 -9.162263E+03
       376   3  1.574261E+05 -3.427628E+05  1.553612E+05  5.063382E+04  3.610148E+03 -8.827431E+03
       376   4 -3.623102E+03 -9.680427E+05 -1.250628E+04  5.027459E+04  6.114978E+03 -1.151332E+04
       376   5  5.261578E+02 -9.678479E+05 -5.275385E+03 -1.197217E+04  9.748091E+03 -8.855739E+03
       376   6  1.118525E+03 -9.680105E+05 -4.937570E+02  5.026385E+04  3.613721E+03 -6.180130E+03
       376   7 -1.200133E+05 -1.433714E+06 -1.281235E+05  4.886110E+04  6.109912E+03 -1.354610E+04
       376   8 -1.356328E+05 -1.512929E+06 -1.402121E+05 -1.286714E+04  9.749221E+03 -8.549482E+03
       376   9 -1.552186E+05 -1.592903E+06 -1.563781E+05  4.989413E+04  3.617293E+03 -3.535493E+03
       376  10  1.127507E+05 -5.021739E+05  1.030945E+05  5.168904E+04 -1.244536E-09 -9.702915E-10
       376  11  1.366628E+05 -4.224960E+05  1.296389E+05 -1.107646E+04 -5.694501E-10  1.707154E-09
       376  12  1.574261E+05 -3.427629E+05  1.553610E+05  5.063384E+04  1.717751E-10  6.752501E-10
       376  13 -3.623177E+03 -9.680429E+05 -1.250660E+04  5.027464E+04  1.521674E-09 -8.605700E-10
       376  14  5.260347E+02 -9.678480E+05 -5.275711E+03 -1.197210E+04 -3.728444E-10  4.472468E-10
       376  15  1.118500E+03 -9.680106E+05 -4.938534E+02  5.026387E+04  4.924713E-10 -5.071667E-10
       376  16 -1.200134E+05 -1.433715E+06 -1.281240E+05  4.886117E+04 -2.199930E-09 -5.645106E-10
       376  17 -1.356330E+05 -1.512930E+06 -1.402124E+05 -1.286707E+04 -1.495674E-09  1.112632E-10
       376  18 -1.552186E+05 -1.592903E+06 -1.563781E+05  4.989414E+04  5.744544E-10 -6.611599E-10
       376  19  1.127508E+05 -5.021738E+05  1.030948E+05  5.168899E+04 -6.120051E+03  9.479009E+03
       376  20  1.366629E+05 -4.224958E+05  1.296392E+05 -1.107653E+04 -9.746960E+03  9.162263E+03
       376  21  1.574261E+05 -3.427628E+05  1.553612E+05  5.063382E+04 -3.610148E+03  8.827431E+03
       376  22 -3.623102E+03 -9.680427E+05 -1.250628E+04  5.027459E+04 -6.114978E+03  1.151332E+04
       376  23  5.261578E+02 -9.678479E+05 -5.275385E+03 -1.197217E+04 -9.748091E+03  8.855739E+03
       376  24  1.118525E+03 -9.680105E+05 -4.937570E+02  5.026385E+04 -3.613721E+03  6.180130E+03
       376  25 -1.200133E+05 -1.433714E+06 -1.281235E+05  4.886110E+04 -6.109912E+03  1.354610E+04
       376  26 -1.356328E+05 -1.512929E+06 -1.402121E+05 -1.286714E+04 -9.749221E+03  8.549482E+03
       376  27 -1.552186E+05 -1.592903E+06 -1.563781E+05  4.989413E+04 -3.617293E+03  3.535493E+03
       377   1  1.633193E+06  1.162564E+06  4.558886E+05  1.011146E+06  2.257156E+05  1.675241E+05
       377   2  1.492713E+06  8.415078E+05  2.185418E+05  1.148528E+06  1.490283E+05  1.078228E+05
       377   3  1.571434E+06  8.659662E+05  1.547475E+05  1.138443E+06  7.085230E+04  5.010976E+04
       377   4  1.551078E+06  1.019284E+06  4.110643E+05  9.315084E+05  2.250876E+05  1.670253E+05
       377   5  1.382734E+06  7.413140E+05  1.770357E+05  1.084078E+06  1.488852E+05  1.077107E+05
       377   6  1.433529E+06  8.087958E+05  1.161649E+05  1.089165E+06  7.119966E+04  5.037400E+04
       377   7  1.468974E+06  8.760363E+05  3.662389E+05  8.518886E+05  2.244597E+05  1.665268E+05
       377   8  1.272768E+06  6.411321E+05  1.355276E+05  1.019642E+06  1.487421E+05  1.075986E+05
       377   9  1.295645E+06  7.516282E+05  7.758092E+04  1.039896E+06  7.154690E+04  5.063820E+04
       377  10  1.633131E+06  1.162520E+06  4.557407E+05  1.011115E+06  2.956015E-10 -2.678743E-10
       377  11  1.492686E+06  8.414895E+05  2.184785E+05  1.148515E+06 -9.817226E-11 -8.243037E-10
       377  12  1.571428E+06  8.659622E+05  1.547334E+05  1.138440E+06 -2.323335E-10  9.465432E-10
       377  13  1.551017E+06  1.019241E+06  4.109172E+05  9.314782E+05  1.381628E-10  6.890039E-10
       377  14  1.382707E+06  7.412956E+05  1.769725E+05  1.084065E+06 -8.439683E-12 -1.104011E-09
       377  15  1.433523E+06  8.087917E+05  1.161506E+05  1.089162E+06 -1.836179E-09  1.132214E-09
       377  16  1.468913E+06  8.759932E+05  3.660926E+05  8.518585E+05 -1.117069E-12 -1.003052E-09
       377  17  1.272741E+06  6.411138E+05  1.354645E+05  1.019629E+06 -2.106834E-09 -7.360189E-10
       377  18  1.295639E+06  7.516241E+05  7.756653E+04  1.039893E+06 -7.086076E-10  1.244863E-09
       377  19  1.633193E+06  1.162564E+06  4.558886E+05  1.011146E+06 -2.257156E+05 -1.675241E+05
       377  20  1.492713E+06  8.415078E+05  2.185418E+05  1.148528E+06 -1.490283E+05 -1.078228E+05
       377  21  1.571434E+06  8.659662E+05  1.547475E+05  1.138443E+06 -7.085230E+04 -5.010976E+04
       377  22  1.551078E+06  1.019284E+06  4.110643E+05  9.315084E+05 -2.250876E+05 -1.670253E+05
       377  23  1.382734E+06  7.413140E+05  1.770357E+05  1.084078E+06 -1.488852E+05 -1.077107E+05
       377  24  1.433529E+06  8.087958E+05  1.161649E+05  1.089165E+06 -7.119966E+04 -5.037400E+04
       377  25  1.468974E+06  8.760363E+05  3.662389E+05  8.518886E+05 -2.244597E+05 -1.665268E+05
       377  26  1.272768E+06  6.411321E+05  1.355276E+05  1.019642E+06 -1.487421E+05 -1.075986E+05
       377  27  1.295645E+06  7.516282E+05  7.758092E+04  1.039896E+06 -7.154690E+04 -5.063820E+04
       378   1  1.517876E+06  9.026831E+05  1.252120E+05  1.094133E+06  5.556199E+04  3.943915E+04
       378   2  1.497232E+06  8.474716E+05  7.559506E+04  1.109210E+06  3.493675E+04  2.405542E+04
       378   3  1.498937E+06  8.538798E+05  5.881438E+04  1.106615E+06  1.415323E+04  8.883566E+03
       378   4  1.440229E+06  8.359201E+05  9.664828E+04  1.050473E+06  5.553894E+04  3.942090E+04
       378   5  1.420884E+06  7.905002E+05  4.923814E+04  1.070271E+06  3.496759E+04  2.407834E+04
       378   6  1.423880E+06  8.066938E+05  3.462165E+04  1.072397E+06  1.423790E+04  8.947086E+03
       378   7  1.362589E+06  7.691622E+05  6.808363E+04  1.006819E+06  5.551589E+04  3.940266E+04
       378   8  1.344542E+06  7.335323E+05  2.288034E+04  1.031337E+06  3.499842E+04  2.410127E+04
       378   9  1.348828E+06  7.595099E+05  1.042817E+04  1.038183E+06  1.432255E+04  9.010598E+03
       378  10  1.517872E+06  9.026806E+05  1.252033E+05  1.094132E+06 -2.648654E-10  1.675391E-09
       378  11  1.497231E+06  8.474706E+05  7.559169E+04  1.109209E+06 -4.690165E-10 -2.126158E-10
       378  12  1.498936E+06  8.538796E+05  5.881385E+04  1.106615E+06 -5.469566E-11 -4.238959E-11
       378  13  1.440226E+06  8.359176E+05  9.663960E+04  1.050471E+06 -2.146442E-09  1.085671E-09
       378  14  1.420883E+06  7.904993E+05  4.923476E+04  1.070270E+06 -4.640912E-10 -1.598756E-09
       378  15  1.423879E+06  8.066937E+05  3.462112E+04  1.072397E+06  1.419177E-09  4.337253E-10
       378  16  1.362586E+06  7.691598E+05  6.807495E+04  1.006817E+06 -8.617392E-10  1.138818E-09
       378  17  1.344541E+06  7.335313E+05  2.287695E+04  1.031336E+06 -3.659460E-10  8.376011E-11
       378  18  1.348828E+06  7.595097E+05  1.042763E+04  1.038183E+06  1.943324E-09  1.623962E-09
       378  19  1.517876E+06  9.026831E+05  1.252120E+05  1.094133E+06 -5.556199E+04 -3.943915E+04
       378  20  1.497232E+06  8.474716E+05  7.559506E+04  1.109210E+06 -3.493675E+04 -2.405542E+04
       378  21  1.498937E+06  8.538798E+05  5.881438E+04  1.106615E+06 -1.415323E+04 -8.883566E+03
       378  22  1.440229E+06  8.359201E+05  9.664828E+04  1.050473E+06 -5.553894E+04 -3.942090E+04
       378  23  1.420884E+06  7.905002E+05  4.923814E+04  1.070271E+06 -3.496759E+04 -2.407834E+04
       378  24  1.423880E+06  8.066938E+05  3.462165E+04  1.072397E+06 -1.423790E+04 -8.947086E+03
       378  25  1.362589E+06  7.691622E+05  6.808363E+04  1.006819E+06 -5.551589E+04 -3.940266E+04
       378  26  1.344542E+06  7.335323E+05  2.288034E+04  1.031337E+06 -3.499842E+04 -2.410127E+04
       378  27  1.348828E+06  7.595099E+05  1.042817E+04  1.038183E+06 -1.432255E+04 -9.010598E+03
       379   1  1.472803E+06  8.457208E+05  4.732819E+04  1.092308E+06  9.348623E+03  5.548222E+03
       379   2  1.469034E+06  8.284072E+05  4.043214E+04  1.090668E+06 -1.202435E+03 -2.065150E+03
       379   3  1.466145E+06  8.363555E+05  4.687470E+04  1.085841E+06 -1.174805E+04 -9.685367E+03
       379   4  1.425101E+06  8.093105E+05  3.071438E+04  1.067603E+06  9.393579E+03  5.581854E+03
       379   5  1.424885E+06  7.970786E+05  2.550675E+04  1.068895E+06 -1.158258E+03 -2.032061E+03
       379   6  1.425550E+06  8.101096E+05  3.363929E+04  1.067001E+06 -1.170474E+04 -9.652969E+03
       379   7  1.377402E+06  7.729018E+05  1.410027E+04  1.042899E+06  9.438530E+03  5.615482E+03
       379   8  1.380738E+06  7.657510E+05  1.058111E+04  1.047124E+06 -1.114086E+03 -1.998975E+03
       379   9  1.384957E+06  7.838644E+05  2.040367E+04  1.048163E+06 -1.166144E+04 -9.620574E+03
       379  10  1.472803E+06  8.457207E+05  4.732797E+04  1.092308E+06 -6.293557E-10  1.442269E-09
       379  11  1.469034E+06  8.284072E+05  4.043213E+04  1.090668E+06  2.398309E-10 -3.979636E-10
       379  12  1.466145E+06  8.363553E+05  4.687427E+04  1.085841E+06  2.201789E-10  8.123049E-10
       379  13  1.425101E+06  8.093105E+05  3.071415E+04  1.067603E+06  1.121107E-09  2.274748E-10
       379  14  1.424885E+06  7.970786E+05  2.550674E+04  1.068895E+06  2.282505E-09 -6.094597E-10
       379  15  1.425550E+06  8.101094E+05  3.363886E+04  1.067001E+06 -1.601508E-09 -6.989444E-10
       379  16  1.377402E+06  7.729018E+05  1.410005E+04  1.042899E+06  1.703404E-09  1.084382E-09
       379  17  1.380738E+06  7.657510E+05  1.058111E+04  1.047124E+06  2.106148E-09  4.972324E-10
       379  18  1.384956E+06  7.838642E+05  2.040324E+04  1.048163E+06 -7.666002E-10 -1.121069E-09
       379  19  1.472803E+06  8.457208E+05  4.732819E+04  1.092308E+06 -9.348623E+03 -5.548222E+03
       379  20  1.469034E+06  8.284072E+05  4.043214E+04  1.090668E+06  1.202435E+03  2.065150E+03
       379  21  1.466145E+06  8.363555E+05  4.687470E+04  1.085841E+06  1.174805E+04  9.685367E+03
       379  22  1.425101E+06  8.093105E+05  3.071438E+04  1.067603E+06 -9.393579E+03 -5.581854E+03
       379  23  1.424885E+06  7.970786E+05  2.550675E+04  1.068895E+06  1.158258E+03  2.032061E+03
       379  24  1.425550E+06  8.101096E+05  3.363929E+04  1.067001E+06  1.170474E+04  9.652969E+03
       379  25  1.377402E+06  7.729018E+05  1.410027E+04  1.042899E+06 -9.438530E+03 -5.615482E+03
       379  26  1.380738E+06  7.657510E+05  1.058111E+04  1.047124E+06  1.114086E+03  1.998975E+03
       379  27  1.384957E+06  7.838644E+05  2.040367E+04  1.048163E+06  1.166144E+04  9.620574E+03
       380   1  1.441789E+06  8.247404E+05  4.595150E+04  1.084246E+06 -1.707608E+04 -1.350221E+04
       380   2  1.436839E+06  8.000879E+05  6.292415E+04  1.078652E+06 -4.112422E+04 -3.124412E+04
       380   3  1.465028E+06  8.412704E+05  1.183266E+05  1.050125E+06 -6.513420E+04 -4.903732E+04
       380   4  1.425170E+06  8.056741E+05  3.891347E+04  1.072704E+06 -1.702663E+04 -1.346496E+04
       380   5  1.418400E+06  7.902341E+05  5.732790E+04  1.071044E+06 -4.108629E+04 -3.121590E+04
       380   6  1.444771E+06  8.406326E+05  1.141831E+05  1.046449E+06 -6.510758E+04 -4.901875E+04
       380   7  1.408551E+06  7.866082E+05  3.187536E+04  1.061163E+06 -1.697719E+04 -1.342772E+04
       380   8  1.399960E+06  7.803804E+05  5.173161E+04  1.063435E+06 -4.104836E+04 -3.118769E+04
       380   9  1.424514E+06  8.399949E+05  1.100395E+05  1.042774E+06 -6.508097E+04 -4.900017E+04
       380  10  1.441789E+06  8.247401E+05  4.595061E+04  1.084246E+06  4.070777E-10  5.681458E-10
       380  11  1.436837E+06  8.000864E+05  6.291915E+04  1.078651E+06 -4.666156E-10 -2.648232E-10
       380  12  1.465023E+06  8.412667E+05  1.183142E+05  1.050122E+06  1.296786E-09  8.512366E-11
       380  13  1.425169E+06  8.056738E+05  3.891258E+04  1.072704E+06 -1.819626E-09  1.176350E-09
       380  14  1.418397E+06  7.902326E+05  5.732291E+04  1.071043E+06  5.551740E-10  2.285369E-10
       380  15  1.444766E+06  8.406289E+05  1.141706E+05  1.046447E+06 -1.660308E-11 -3.389248E-10
       380  16  1.408550E+06  7.866080E+05  3.187449E+04  1.061163E+06 -1.210173E-09 -6.478247E-10
       380  17  1.399958E+06  7.803789E+05  5.172663E+04  1.063434E+06  3.142296E-10 -9.785565E-10
       380  18  1.424509E+06  8.399911E+05  1.100271E+05  1.042771E+06  1.867596E-09 -1.448219E-10
       380  19  1.441789E+06  8.247404E+05  4.595150E+04  1.084246E+06  1.707608E+04  1.350221E+04
       380  20  1.436839E+06  8.000879E+05  6.292415E+04  1.078652E+06  4.112422E+04  3.124412E+04
       380  21  1.465028E+06  8.412704E+05  1.183266E+05  1.050125E+06  6.513420E+04  4.903732E+04
       380  22  1.425170E+06  8.056741E+05  3.891347E+04  1.072704E+06  1.702663E+04  1.346496E+04
       380  23  1.418400E+06  7.902341E+05  5.732790E+04  1.071044E+06  4.108629E+04  3.121590E+04
       380  24  1.444771E+06  8.406326E+05  1.141831E+05  1.046449E+06  6.510758E+04  4.901875E+04
       380  25  1.408551E+06  7.866082E+05  3.187536E+04  1.061163E+06  1.697719E+04  1.342772E+04
       380  26  1.399960E+06  7.803804E+05  5.173161E+04  1.063435E+06  4.104836E+04  3.118769E+04
       380  27  1.424514E+06  8.399949E+05  1.100395E+05  1.042774E+06  6.508097E+04  4.900017E+04
       381   1  1.405277E+06  8.322829E+05  1.360306E+05  1.098205E+06 -8.336880E+04 -6.249378E+04
       381   2  1.378089E+06  7.118240E+05  2.072671E+05  1.079174E+06 -1.751788E+05 -1.309826E+05
       381   3  1.624348E+06  9.885933E+05  4.841101E+05  8.809199E+05 -2.667761E+05 -1.997482E+05
       381   4  1.438036E+06  8.071136E+05  1.375467E+05  1.092110E+06 -8.329079E+04 -6.242915E+04
       381   5  1.371369E+06  7.333983E+05  2.101971E+05  1.087967E+06 -1.751664E+05 -1.309803E+05
       381   6  1.578149E+06  1.056920E+06  4.885115E+05  9.046037E+05 -2.668202E+05 -1.998224E+05
       381   7  1.470798E+06  7.819467E+05  1.390633E+05  1.086015E+06 -8.321278E+04 -6.236453E+04
       381   8  1.364649E+06  7.549738E+05  2.131271E+05  1.096760E+06 -1.751540E+05 -1.309781E+05
       381   9  1.531959E+06  1.125261E+06  4.929149E+05  9.282853E+05 -2.668644E+05 -1.998967E+05
       381  10  1.405268E+06  8.322769E+05  1.360103E+05  1.098200E+06  6.046696E-10 -1.621771E-10
       381  11  1.378051E+06  7.117974E+05  2.071775E+05  1.079155E+06 -7.794082E-10 -1.092276E-11
       381  12  1.624261E+06  9.885316E+05  4.839021E+05  8.808771E+05 -2.759815E-10 -7.986088E-11
       381  13  1.438028E+06  8.071075E+05  1.375264E+05  1.092106E+06  2.834530E-10 -6.393834E-10
       381  14  1.371331E+06  7.333717E+05  2.101075E+05  1.087948E+06  1.372193E-09 -6.503169E-10
       381  15  1.578062E+06  1.056858E+06  4.883034E+05  9.045609E+05 -9.500661E-10 -4.420965E-10
       381  16  1.470789E+06  7.819407E+05  1.390431E+05  1.086011E+06  2.271695E-09 -3.475821E-10
       381  17  1.364612E+06  7.549472E+05  2.130376E+05  1.096741E+06  1.715274E-09 -2.066497E-09
       381  18  1.531872E+06  1.125199E+06  4.927067E+05  9.282425E+05  6.504061E-10 -4.394345E-10
       381  19  1.405277E+06  8.322829E+05  1.360306E+05  1.098205E+06  8.336880E+04  6.249378E+04
       381  20  1.378089E+06  7.118240E+05  2.072671E+05  1.079174E+06  1.751788E+05  1.309826E+05
       381  21  1.624348E+06  9.885933E+05  4.841101E+05  8.809199E+05  2.667761E+05  1.997482E+05
       381  22  1.438036E+06  8.071136E+05  1.375467E+05  1.092110E+06  8.329079E+04  6.242915E+04
       381  23  1.371369E+06  7.333983E+05  2.101971E+05  1.087967E+06  1.751664E+05  1.309803E+05
       381  24  1.578149E+06  1.056920E+06  4.885115E+05  9.046037E+05  2.668202E+05  1.998224E+05
       381  25  1.470798E+06  7.819467E+05  1.390633E+05  1.086015E+06  8.321278E+04  6.236453E+04
       381  26  1.364649E+06  7.549738E+05  2.131271E+05  1.096760E+06  1.751540E+05  1.309781E+05
       381  27  1.531959E+06  1.125261E+06  4.929149E+05  9.282853E+05  2.668644E+05  1.998967E+05
       382   1  1.354131E+06  1.621662E+05  1.634916E+05  4.211694E+04  8.393164E+03 -3.614500E+03
       382   2  1.288260E+06  1.386984E+05  1.415982E+05 -7.964970E+03  4.567405E+03 -9.955486E+03
       382   3  1.226668E+06  1.239968E+05  1.246996E+05  4.132728E+04  7.444936E+02 -6.926884E+03
       382   4  7.280719E+05  5.951141E+03  7.726384E+03  4.153163E+04  5.738225E+03 -3.612638E+03
       382   5  7.261181E+05 -1.365450E+03  2.778802E+03 -8.160519E+03  4.166638E+03 -9.956008E+03
       382   6  7.280515E+05 -3.025802E+02  1.265905E+03  4.152706E+04  2.597532E+03 -6.926084E+03
       382   7  1.023673E+05 -1.502933E+05 -1.480682E+05  4.094696E+04  3.085954E+03 -3.610770E+03
       382   8  1.642624E+05 -1.414529E+05 -1.360640E+05 -8.355880E+03  3.766231E+03 -9.956530E+03
       382   9  2.296600E+05 -1.246205E+05 -1.221863E+05  4.172664E+04  4.449086E+03 -6.925283E+03
       382  10  1.354131E+06  1.621662E+05  1.634915E+05  4.211697E+04 -6.139505E-10  3.074012E-10
       382  11  1.288260E+06  1.386983E+05  1.415979E+05 -7.964933E+03  1.390387E-09  3.841125E-11
       382  12  1.226668E+06  1.239967E+05  1.246995E+05  4.132728E+04  3.637412E-10 -3.340048E-10
       382  13  7.280719E+05  5.951118E+03  7.726298E+03  4.153164E+04  8.133069E-12 -3.196421E-10
       382  14  7.261180E+05 -1.365561E+03  2.778583E+03 -8.160485E+03 -2.453820E-10 -2.335212E-10
       382  15  7.280515E+05 -3.026336E+02  1.265802E+03  4.152707E+04 -3.258757E-10 -3.157577E-10
       382  16  1.023673E+05 -1.502933E+05 -1.480682E+05  4.094697E+04 -1.546254E-09 -8.971790E-10
       382  17  1.642624E+05 -1.414530E+05 -1.360642E+05 -8.355850E+03 -2.224828E-09 -1.955013E-09
       382  18  2.296600E+05 -1.246206E+05 -1.221864E+05  4.172666E+04 -1.090821E-09 -2.117642E-10
       382  19  1.354131E+06  1.621662E+05  1.634916E+05  4.211694E+04 -8.393164E+03  3.614500E+03
       382  20  1.288260E+06  1.386984E+05  1.415982E+05 -7.964970E+03 -4.567405E+03  9.955486E+03
       382  21  1.226668E+06  1.239968E+05  1.246996E+05  4.132728E+04 -7.444936E+02  6.926884E+03
       382  22  7.280719E+05  5.951141E+03  7.726384E+03  4.153163E+04 -5.738225E+03  3.612638E+03
       382  23  7.261181E+05 -1.365450E+03  2.778802E+03 -8.160519E+03 -4.166638E+03  9.956008E+03
       382  24  7.280515E+05 -3.025802E+02  1.265905E+03  4.152706E+04 -2.597532E+03  6.926084E+03
       382  25  1.023673E+05 -1.502933E+05 -1.480682E+05  4.094696E+04 -3.085954E+03  3.610770E+03
       382  26  1.642624E+05 -1.414529E+05 -1.360640E+05 -8.355880E+03 -3.766231E+03  9.956530E+03
       382  27  2.296600E+05 -1.246205E+05 -1.221863E+05  4.172664E+04 -4.449086E+03  6.925283E+03
       383   1  9.817675E+05  6.432668E+04  6.340649E+04  4.071565E+04  2.308601E+03 -4.181626E+03
       383   2  9.211566E+05  4.839925E+04  4.653632E+04 -6.703351E+03  2.746622E+03 -3.138462E+03
       383   3  8.603117E+05  3.204119E+04  2.925785E+04  4.079677E+04  3.182231E+03 -1.022367E+03
       383   4  7.271861E+05  8.729089E+02  4.758404E+02  4.053622E+04  2.429674E+03 -4.181627E+03
       383   5  7.273240E+05  8.356112E+01 -1.386400E+03 -6.923081E+03  3.125368E+03 -3.138107E+03
       383   6  7.271798E+05 -1.180904E+03 -3.835405E+03  4.053860E+04  3.818691E+03 -1.021502E+03
       383   7  4.726636E+05 -6.258570E+04 -6.245962E+04  4.035685E+04  2.550698E+03 -4.181627E+03
       383   8  5.335254E+05 -4.823493E+04 -4.931191E+04 -7.142751E+03  3.503995E+03 -3.137753E+03
       383   9  5.940640E+05 -3.440433E+04 -3.692998E+04  4.028047E+04  4.455015E+03 -1.020638E+03
       383  10  9.817675E+05  6.432666E+04  6.340645E+04  4.071566E+04  6.364689E-11  1.539797E-10
       383  11  9.211566E+05  4.839924E+04  4.653629E+04 -6.703345E+03 -2.820546E-10  8.705588E-10
       383  12  8.603117E+05  3.204119E+04  2.925783E+04  4.079678E+04  7.780140E-10  1.413908E-10
       383  13  7.271861E+05  8.728885E+02  4.757965E+02  4.053623E+04  4.328510E-10  1.339854E-10
       383  14  7.273240E+05  8.354793E+01 -1.386437E+03 -6.923073E+03  1.137550E-10  3.369098E-10
       383  15  7.271798E+05 -1.180909E+03 -3.835434E+03  4.053860E+04  1.088944E-09  9.545591E-10
       383  16  4.726635E+05 -6.258572E+04 -6.245967E+04  4.035686E+04  3.076134E-10 -2.229787E-10
       383  17  5.335254E+05 -4.823495E+04 -4.931195E+04 -7.142742E+03 -5.406718E-10 -2.149152E-09
       383  18  5.940640E+05 -3.440433E+04 -3.693002E+04  4.028048E+04  5.222171E-10 -1.061895E-10
       383  19  9.817675E+05  6.432668E+04  6.340649E+04  4.071565E+04 -2.308601E+03  4.181626E+03
       383  20  9.211566E+05  4.839925E+04  4.653632E+04 -6.703351E+03 -2.746622E+03  3.138462E+03
       383  21  8.603117E+05  3.204119E+04  2.925785E+04  4.079677E+04 -3.182231E+03  1.022367E+03
       383  22  7.271861E+05  8.729089E+02  4.758404E+02  4.053622E+04 -2.429674E+03  4.181627E+03
       383  23  7.273240E+05  8.356112E+01 -1.386400E+03 -6.923081E+03 -3.125368E+03  3.138107E+03
       383  24  7.271798E+05 -1.180904E+03 -3.835405E+03  4.053860E+04 -3.818691E+03  1.021502E+03
       383  25  4.726636E+05 -6.258570E+04 -6.245962E+04  4.035685E+04 -2.550698E+03  4.181627E+03
       383  26  5.335254E+05 -4.823493E+04 -4.931191E+04 -7.142751E+03 -3.503995E+03  3.137753E+03
       383  27  5.940640E+05 -3.440433E+04 -3.692998E+04  4.028047E+04 -4.455015E+03  1.020638E+03
       384   1  6.214757E+05 -2.565579E+04 -3.119664E+04  3.967999E+04  3.987634E+03  5.992315E+02
       384   2  5.627793E+05 -3.937356E+04 -4.966480E+04 -6.683157E+03  8.796627E+03  2.707161E+03
       384   3  5.002959E+05 -6.522001E+04 -7.432337E+04  4.171406E+04  1.360726E+04  3.793951E+03
       384   4  7.264112E+05  5.427146E+02 -5.074394E+03  4.049781E+04  4.615705E+03  6.001038E+02
       384   5  7.282903E+05  1.889881E+03 -8.737693E+03 -6.877043E+03  9.180564E+03  2.707550E+03
       384   6  7.264221E+05 -8.847286E+03 -1.842047E+04  4.050701E+04  1.374753E+04  3.793971E+03
       384   7  8.313566E+05  2.674040E+04  2.104702E+04  4.131577E+04  5.243883E+03  6.009777E+02
       384   8  8.938262E+05  4.315128E+04  3.218738E+04 -7.070989E+03  9.564602E+03  2.707940E+03
       384   9  9.525947E+05  4.752163E+04  3.747863E+04  3.929950E+04  1.388785E+04  3.793990E+03
       384  10  6.214757E+05 -2.565580E+04 -3.119667E+04  3.967999E+04  8.027855E-10 -1.027496E-09
       384  11  5.627792E+05 -3.937359E+04 -4.966496E+04 -6.683176E+03 -9.589601E-10  1.849907E-09
       384  12  5.002957E+05 -6.522008E+04 -7.432374E+04  4.171402E+04 -3.416778E-11  2.143952E-10
       384  13  7.264112E+05  5.427085E+02 -5.074435E+03  4.049781E+04  1.548874E-09 -5.053138E-10
       384  14  7.282902E+05  1.889850E+03 -8.737865E+03 -6.877063E+03  7.549875E-10 -1.131706E-09
       384  15  7.264219E+05 -8.847352E+03 -1.842086E+04  4.050696E+04  1.340264E-10  2.706616E-10
       384  16  8.313566E+05  2.674039E+04  2.104697E+04  4.131577E+04 -2.618696E-10 -1.310974E-10
       384  17  8.938261E+05  4.315124E+04  3.218719E+04 -7.071010E+03 -5.854721E-10  4.189288E-10
       384  18  9.525945E+05  4.752156E+04  3.747824E+04  3.929945E+04  4.086292E-10 -2.135163E-12
       384  19  6.214757E+05 -2.565579E+04 -3.119664E+04  3.967999E+04 -3.987634E+03 -5.992315E+02
       384  20  5.627793E+05 -3.937356E+04 -4.966480E+04 -6.683157E+03 -8.796627E+03 -2.707161E+03
       384  21  5.002959E+05 -6.522001E+04 -7.432337E+04  4.171406E+04 -1.360726E+04 -3.793951E+03
       384  22  7.264112E+05  5.427146E+02 -5.074394E+03  4.049781E+04 -4.615705E+03 -6.001038E+02
       384  23  7.282903E+05  1.889881E+03 -8.737693E+03 -6.877043E+03 -9.180564E+03 -2.707550E+03
       384  24  7.264221E+05 -8.847286E+03 -1.842047E+04  4.050701E+04 -1.374753E+04 -3.793971E+03
       384  25  8.313566E+05  2.674040E+04  2.104702E+04  4.131577E+04 -5.243883E+03 -6.009777E+02
       384  26  8.938262E+05  4.315128E+04  3.218738E+04 -7.070989E+03 -9.564602E+03 -2.707940E+03
       384  27  9.525947E+05  4.752163E+04  3.747863E+04  3.929950E+04 -1.388785E+04 -3.793990E+03
       385   1  2.529984E+05 -1.145603E+05 -1.385102E+05  3.627399E+04  1.557906E+04  6.474069E+03
       385   2  2.012029E+05 -1.193945E+05 -1.661240E+05 -5.361959E+03  3.657279E+04  9.449083E+03
       385   3  1.264093E+05 -2.108662E+05 -2.287845E+05  5.177557E+04  5.756383E+04  3.403779E+03
       385   4  7.221690E+05  2.478509E+03 -2.228522E+04  4.139902E+04  1.738237E+04  6.475186E+03
       385   5  7.334945E+05  1.331697E+04 -3.459093E+04 -8.003251E+03  3.622519E+04  9.448409E+03
       385   6  7.222155E+05 -6.206791E+04 -8.042782E+04  4.136347E+04  5.506749E+04  3.404168E+03
       385   7  1.191539E+06  1.195009E+05  9.392344E+04  4.652788E+04  1.918704E+04  6.476333E+03
       385   8  1.266043E+06  1.460073E+05  9.692113E+04 -1.064681E+04  3.587729E+04  9.447738E+03
       385   9  1.318344E+06  8.670411E+04  6.790231E+04  3.094143E+04  5.256874E+04  3.404642E+03
       385  10  2.529982E+05 -1.145604E+05 -1.385108E+05  3.627391E+04  2.167680E-10  6.505316E-10
       385  11  2.012015E+05 -1.193949E+05 -1.661267E+05 -5.362238E+03  1.971079E-11 -4.430197E-10
       385  12  1.264058E+05 -2.108671E+05 -2.287907E+05  5.177541E+04 -8.197027E-10 -2.593578E-10
       385  13  7.221686E+05  2.478383E+03 -2.228586E+04  4.139893E+04 -8.022939E-10  8.944142E-10
       385  14  7.334931E+05  1.331652E+04 -3.459356E+04 -8.003526E+03  9.597380E-10 -1.537054E-10
       385  15  7.222123E+05 -6.206873E+04 -8.043353E+04  4.136332E+04  1.601557E-10  1.951012E-10
       385  16  1.191539E+06  1.195008E+05  9.392267E+04  4.652778E+04  5.124422E-10  4.596035E-10
       385  17  1.266042E+06  1.460069E+05  9.691854E+04 -1.064708E+04 -1.201112E-09 -1.389318E-10
       385  18  1.318341E+06  8.670336E+04  6.789711E+04  3.094128E+04 -5.975724E-10  5.685556E-11
       385  19  2.529984E+05 -1.145603E+05 -1.385102E+05  3.627399E+04 -1.557906E+04 -6.474069E+03
       385  20  2.012029E+05 -1.193945E+05 -1.661240E+05 -5.361959E+03 -3.657279E+04 -9.449083E+03
       385  21  1.264093E+05 -2.108662E+05 -2.287845E+05  5.177557E+04 -5.756383E+04 -3.403779E+03
       385  22  7.221690E+05  2.478509E+03 -2.228522E+04  4.139902E+04 -1.738237E+04 -6.475186E+03
       385  23  7.334945E+05  1.331697E+04 -3.459093E+04 -8.003251E+03 -3.622519E+04 -9.448409E+03
       385  24  7.222155E+05 -6.206791E+04 -8.042782E+04  4.136347E+04 -5.506749E+04 -3.404168E+03
       385  25  1.191539E+06  1.195009E+05  9.392344E+04  4.652788E+04 -1.918704E+04 -6.476333E+03
       385  26  1.266043E+06  1.460073E+05  9.692113E+04 -1.064681E+04 -3.587729E+04 -9.447738E+03
       385  27  1.318344E+06  8.670411E+04  6.790231E+04  3.094143E+04 -5.256874E+04 -3.404642E+03
       386   1 -4.384570E+05 -1.823826E+06 -5.363595E+05  9.987609E+04 -3.073344E+03 -2.832977E+05
       386   2 -2.496466E+04 -1.684707E+06 -2.807172E+05  1.178251E+03 -7.297055E+03 -1.804192E+05
       386   3 -6.868988E+04 -1.673201E+06 -2.064368E+05  2.033939E+04 -3.903139E+03 -7.754363E+04
       386   4 -3.236990E+05 -1.364622E+06 -4.217855E+05  4.717610E+04 -3.046432E+03 -2.814676E+05
       386   5  7.086167E+04 -1.300922E+06 -1.857041E+05 -1.198116E+04 -7.292671E+03 -1.803483E+05
       386   6  8.662782E+03 -1.364445E+06 -1.296649E+05  4.672486E+04 -3.910193E+03 -7.924455E+04
       386   7 -2.089465E+05 -9.052208E+05 -3.072259E+05 -5.563040E+03 -3.019849E+03 -2.796362E+05
       386   8  1.666776E+05 -9.170028E+05 -9.070191E+04 -2.514879E+04 -7.288292E+03 -1.802773E+05
       386   9  8.601084E+04 -1.055601E+06 -5.289987E+04  7.312345E+04 -3.917389E+03 -8.094631E+04
       386  10 -4.384786E+05 -1.823912E+06 -5.365108E+05  9.987539E+04 -1.022532E-10  4.283946E-11
       386  11 -2.497349E+04 -1.684742E+06 -2.807786E+05  1.177190E+03 -8.708732E-10  2.659271E-10
       386  12 -6.869152E+04 -1.673208E+06 -2.064481E+05  2.033915E+04 -2.093532E-09  1.631412E-09
       386  13 -3.237204E+05 -1.364707E+06 -4.219347E+05  4.717541E+04 -6.180766E-10  1.416906E-09
       386  14  7.085285E+04 -1.300957E+06 -1.857655E+05 -1.198222E+04  1.758743E-09 -1.251975E-09
       386  15  8.661075E+03 -1.364452E+06 -1.296768E+05  4.672461E+04 -5.530845E-10  4.483978E-12
       386  16 -2.089675E+05 -9.053049E+05 -3.073731E+05 -5.563721E+03 -2.365038E-10  4.657970E-10
       386  17  1.666688E+05 -9.170377E+05 -9.076318E+04 -2.514985E+04 -5.782543E-10 -2.475065E-09
       386  18  8.600906E+04 -1.055608E+06 -5.291224E+04  7.312319E+04  4.523513E-10 -1.178395E-09
       386  19 -4.384570E+05 -1.823826E+06 -5.363595E+05  9.987609E+04  3.073344E+03  2.832977E+05
       386  20 -2.496466E+04 -1.684707E+06 -2.807172E+05  1.178251E+03  7.297055E+03  1.804192E+05
       386  21 -6.868988E+04 -1.673201E+06 -2.064368E+05  2.033939E+04  3.903139E+03  7.754363E+04
       386  22 -3.236990E+05 -1.364622E+06 -4.217855E+05  4.717610E+04  3.046432E+03  2.814676E+05
       386  23  7.086167E+04 -1.300922E+06 -1.857041E+05 -1.198116E+04  7.292671E+03  1.803483E+05
       386  24  8.662782E+03 -1.364445E+06 -1.296649E+05  4.672486E+04  3.910193E+03  7.924455E+04
       386  25 -2.089465E+05 -9.052208E+05 -3.072259E+05 -5.563040E+03  3.019849E+03  2.796362E+05
       386  26  1.666776E+05 -9.170028E+05 -9.070191E+04 -2.514879E+04  7.288292E+03  1.802773E+05
       386  27  8.601084E+04 -1.055601E+06 -5.289987E+04  7.312345E+04  3.917389E+03  8.094631E+04
       387   1 -4.598778E+04 -1.347710E+06 -1.138717E+05  5.703540E+04 -8.974107E+02 -5.706622E+04
       387   2  3.415973E+04 -1.254673E+06 -5.550438E+04 -1.213585E+04  1.120538E+03 -1.870444E+04
       387   3  1.186097E+04 -1.192921E+06 -4.789570E+04  3.993022E+04  2.872007E+03  1.966344E+04
       387   4 -4.492652E+04 -1.343151E+06 -1.128595E+05  4.769725E+04 -8.977431E+02 -5.755750E+04
       387   5  1.596169E+04 -1.327490E+06 -7.355421E+04 -1.294747E+04  1.119586E+03 -1.913298E+04
       387   6 -2.561263E+04 -1.343132E+06 -8.505186E+04  4.764708E+04  2.871471E+03  1.929288E+04
       387   7 -4.386493E+04 -1.338592E+06 -1.118473E+05  3.835904E+04 -8.980608E+02 -5.804880E+04
       387   8 -2.236753E+03 -1.400302E+06 -9.160445E+04 -1.375901E+04  1.118636E+03 -1.956147E+04
       387   9 -6.308770E+04 -1.493321E+06 -1.222097E+05  5.536206E+04  2.870926E+03  1.892242E+04
       387  10 -4.598866E+04 -1.347713E+06 -1.138779E+05  5.703536E+04 -5.233779E-10  2.657960E-09
       387  11  3.415963E+04 -1.254673E+06 -5.550504E+04 -1.213583E+04  1.208113E-10  2.119592E-09
       387  12  1.186086E+04 -1.192921E+06 -4.789644E+04  3.993018E+04 -2.439803E-10  1.075636E-09
       387  13 -4.492741E+04 -1.343154E+06 -1.128658E+05  4.769721E+04 -1.065162E-11  1.280968E-09
       387  14  1.596159E+04 -1.327490E+06 -7.355491E+04 -1.294745E+04 -8.309822E-10 -9.643636E-10
       387  15 -2.561274E+04 -1.343132E+06 -8.505258E+04  4.764704E+04 -1.510839E-09  6.897761E-10
       387  16 -4.386584E+04 -1.338595E+06 -1.118536E+05  3.835900E+04  9.163645E-10 -1.201551E-09
       387  17 -2.236857E+03 -1.400302E+06 -9.160517E+04 -1.375899E+04  9.398724E-10 -3.706668E-09
       387  18 -6.308780E+04 -1.493322E+06 -1.222104E+05  5.536202E+04  3.931247E-10 -2.991212E-10
       387  19 -4.598778E+04 -1.347710E+06 -1.138717E+05  5.703540E+04  8.974107E+02  5.706622E+04
       387  20  3.415973E+04 -1.254673E+06 -5.550438E+04 -1.213585E+04 -1.120538E+03  1.870444E+04
       387  21  1.186097E+04 -1.192921E+06 -4.789570E+04  3.993022E+04 -2.872007E+03 -1.966344E+04
       387  22 -4.492652E+04 -1.343151E+06 -1.128595E+05  4.769725E+04  8.977431E+02  5.755750E+04
       387  23  1.596169E+04 -1.327490E+06 -7.355421E+04 -1.294747E+04 -1.119586E+03  1.913298E+04
       387  24 -2.561263E+04 -1.343132E+06 -8.505186E+04  4.764708E+04 -2.871471E+03 -1.929288E+04
       387  25 -4.386493E+04 -1.338592E+06 -1.118473E+05  3.835904E+04  8.980608E+02  5.804880E+04
       387  26 -2.236753E+03 -1.400302E+06 -9.160445E+04 -1.375901E+04 -1.118636E+03  1.956147E+04
       387  27 -6.308770E+04 -1.493321E+06 -1.222097E+05  5.536206E+04 -2.870926E+03 -1.892242E+04
       388   1  1.136977E+05 -9.027331E+05  2.086085E+04  6.272930E+04  6.066302E+03  3.697605E+04
       388   2  1.737144E+05 -7.914638E+05  1.289969E+04 -1.859940E+04  9.495153E+03  9.807018E+04
       388   3 -4.320536E+04 -7.564084E+05 -1.038892E+05  1.447284E+04  3.564324E+03  1.591838E+05
       388   4  1.035804E+03 -1.353247E+06 -9.099032E+04  4.606712E+04  6.061713E+03  3.504125E+04
       388   5  4.301205E+04 -1.314957E+06 -1.166606E+05 -1.106780E+04  9.497273E+03  9.833182E+04
       388   6 -1.924589E+05 -1.353340E+06 -2.527554E+05  4.620546E+04  3.574477E+03  1.616345E+05
       388   7 -1.116404E+05 -1.803575E+06 -2.028565E+05  2.941696E+04  6.057225E+03  3.310784E+04
       388   8 -8.771059E+04 -1.838200E+06 -2.462414E+05 -3.542649E+03  9.499401E+03  9.859321E+04
       388   9 -3.417354E+05 -1.949945E+06 -4.016478E+05  7.790745E+04  3.584888E+03  1.640827E+05
       388  10  1.136973E+05 -9.027346E+05  2.085820E+04  6.272912E+04 -1.898677E-09  1.656902E-09
       388  11  1.737117E+05 -7.914741E+05  1.288142E+04 -1.860015E+04 -3.450833E-11  9.861315E-11
       388  12 -4.321219E+04 -7.564357E+05 -1.039369E+05  1.447239E+04  4.676934E-10 -8.369919E-11
       388  13  1.035434E+03 -1.353248E+06 -9.099270E+04  4.606695E+04  7.315109E-10  8.202728E-10
       388  14  4.300935E+04 -1.314967E+06 -1.166790E+05 -1.106855E+04 -4.793671E-10 -9.769419E-10
       388  15 -1.924659E+05 -1.353368E+06 -2.528046E+05  4.620499E+04  6.877688E-10 -5.908048E-10
       388  16 -1.116407E+05 -1.803576E+06 -2.028587E+05  2.941679E+04  3.869137E-10 -5.323444E-10
       388  17 -8.771331E+04 -1.838211E+06 -2.462598E+05 -3.543404E+03  7.962691E-10 -1.038508E-09
       388  18 -3.417427E+05 -1.949974E+06 -4.016986E+05  7.790698E+04  7.632995E-10  8.294052E-10
       388  19  1.136977E+05 -9.027331E+05  2.086085E+04  6.272930E+04 -6.066302E+03 -3.697605E+04
       388  20  1.737144E+05 -7.914638E+05  1.289969E+04 -1.859940E+04 -9.495153E+03 -9.807018E+04
       388  21 -4.320536E+04 -7.564084E+05 -1.038892E+05  1.447284E+04 -3.564324E+03 -1.591838E+05
       388  22  1.035804E+03 -1.353247E+06 -9.099032E+04  4.606712E+04 -6.061713E+03 -3.504125E+04
       388  23  4.301205E+04 -1.314957E+06 -1.166606E+05 -1.106780E+04 -9.497273E+03 -9.833182E+04
       388  24 -1.924589E+05 -1.353340E+06 -2.527554E+05  4.620546E+04 -3.574477E+03 -1.616345E+05
       388  25 -1.116404E+05 -1.803575E+06 -2.028565E+05  2.941696E+04 -6.057225E+03 -3.310784E+04
       388  26 -8.771059E+04 -1.838200E+06 -2.462414E+05 -3.542649E+03 -9.499401E+03 -9.859321E+04
       388  27 -3.417354E+05 -1.949945E+06 -4.016478E+05  7.790745E+04 -3.584888E+03 -1.640827E+05
       389   1  2.005615E+06  1.379307E+06  4.786089E+05  1.282723E+06  2.505475E+05  1.869279E+05
       389   2  1.849250E+06  1.032929E+06  2.167162E+05  1.440552E+06  1.649122E+05  1.216920E+05
       389   3  1.949223E+06  1.058087E+06  1.475110E+05  1.430523E+06  7.857828E+04  5.738728E+04
       389   4  1.998296E+06  1.279407E+06  4.572985E+05  1.235520E+06  2.502580E+05  1.866751E+05
       389   5  1.804716E+06  9.766411E+05  1.968158E+05  1.407212E+06  1.648405E+05  1.216322E+05
       389   6  1.867447E+06  1.045380E+06  1.288376E+05  1.411039E+06  7.873235E+04  5.750800E+04
       389   7  1.990983E+06  1.179527E+06  4.359895E+05  1.188320E+06  2.499685E+05  1.864223E+05
       389   8  1.760184E+06  9.203581E+05  1.769150E+05  1.373875E+06  1.647688E+05  1.215723E+05
       389   9  1.785680E+06  1.032673E+06  1.101642E+05  1.391555E+06  7.888639E+04  5.762872E+04
       389  10  2.005538E+06  1.379253E+06  4.784261E+05  1.282686E+06  1.151007E-09  7.751964E-10
       389  11  1.849216E+06  1.032905E+06  2.166376E+05  1.440536E+06 -1.859415E-09  5.420199E-10
       389  12  1.949215E+06  1.058082E+06  1.474933E+05  1.430520E+06 -3.106619E-09 -1.287304E-09
       389  13  1.998220E+06  1.279353E+06  4.571162E+05  1.235483E+06  5.101285E-10 -3.076434E-10
       389  14  1.804683E+06  9.766180E+05  1.967373E+05  1.407196E+06 -1.428159E-09 -7.348560E-10
       389  15  1.867440E+06  1.045374E+06  1.288198E+05  1.411035E+06 -1.865893E-09 -2.146159E-09
       389  16  1.990906E+06  1.179474E+06  4.358076E+05  1.188283E+06 -7.925170E-10 -7.016746E-10
       389  17  1.760151E+06  9.203350E+05  1.768366E+05  1.373859E+06  8.112683E-11 -4.992418E-10
       389  18  1.785672E+06  1.032667E+06  1.101464E+05  1.391551E+06  3.183652E-10 -5.456014E-10
       389  19  2.005615E+06  1.379307E+06  4.786089E+05  1.282723E+06 -2.505475E+05 -1.869279E+05
       389  20  1.849250E+06  1.032929E+06  2.167162E+05  1.440552E+06 -1.649122E+05 -1.216920E+05
       389  21  1.949223E+06  1.058087E+06  1.475110E+05  1.430523E+06 -7.857828E+04 -5.738728E+04
       389  22  1.998296E+06  1.279407E+06  4.572985E+05  1.235520E+06 -2.502580E+05 -1.866751E+05
       389  23  1.804716E+06  9.766411E+05  1.968158E+05  1.407212E+06 -1.648405E+05 -1.216322E+05
       389  24  1.867447E+06  1.045380E+06  1.288376E+05  1.411039E+06 -7.873235E+04 -5.750800E+04
       389  25  1.990983E+06  1.179527E+06  4.359895E+05  1.188320E+06 -2.499685E+05 -1.864223E+05
       389  26  1.760184E+06  9.203581E+05  1.769150E+05  1.373875E+06 -1.647688E+05 -1.215723E+05
       389  27  1.785680E+06  1.032673E+06  1.101642E+05  1.391555E+06 -7.888639E+04 -5.762872E+04
       390   1  1.910858E+06  1.114812E+06  1.218431E+05  1.391997E+06  6.163416E+04  4.504751E+04
       390   2  1.887841E+06  1.062283E+06  6.791808E+04  1.412834E+06  3.916050E+04  2.820386E+04
       390   3  1.899762E+06  1.067536E+06  5.003647E+04  1.411065E+06  1.662328E+04  1.144578E+04
       390   4  1.874434E+06  1.076047E+06  1.069772E+05  1.368082E+06  6.161815E+04  4.503431E+04
       390   5  1.847816E+06  1.030798E+06  5.378813E+04  1.391669E+06  3.916634E+04  2.820805E+04
       390   6  1.856133E+06  1.043331E+06  3.662552E+04  1.392647E+06  1.665124E+04  1.146689E+04
       390   7  1.838011E+06  1.037284E+06  9.211105E+04  1.344169E+06  6.160214E+04  4.502112E+04
       390   8  1.807792E+06  9.993153E+05  3.965795E+04  1.370504E+06  3.917218E+04  2.821224E+04
       390   9  1.812506E+06  1.019126E+06  2.321439E+04  1.374231E+06  1.667920E+04  1.148799E+04
       390  10  1.910853E+06  1.114809E+06  1.218322E+05  1.391995E+06 -8.822215E-10  6.405221E-10
       390  11  1.887839E+06  1.062281E+06  6.791372E+04  1.412833E+06 -1.027069E-09 -7.885473E-11
       390  12  1.899761E+06  1.067536E+06  5.003571E+04  1.411065E+06 -1.158344E-09  6.917237E-10
       390  13  1.874429E+06  1.076044E+06  1.069663E+05  1.368080E+06 -3.229328E-09 -2.085255E-09
       390  14  1.847814E+06  1.030797E+06  5.378377E+04  1.391668E+06 -1.082614E-09  1.661749E-10
       390  15  1.856132E+06  1.043330E+06  3.662476E+04  1.392647E+06  1.340065E-10  9.512948E-10
       390  16  1.838007E+06  1.037280E+06  9.210016E+04  1.344167E+06 -1.653136E-09 -6.682382E-10
       390  17  1.807790E+06  9.993140E+05  3.965359E+04  1.370504E+06 -9.194098E-10 -1.743488E-10
       390  18  1.812506E+06  1.019126E+06  2.321363E+04  1.374231E+06  1.265689E-09  1.557621E-10
       390  19  1.910858E+06  1.114812E+06  1.218431E+05  1.391997E+06 -6.163416E+04 -4.504751E+04
       390  20  1.887841E+06  1.062283E+06  6.791808E+04  1.412834E+06 -3.916050E+04 -2.820386E+04
       390  21  1.899762E+06  1.067536E+06  5.003647E+04  1.411065E+06 -1.662328E+04 -1.144578E+04
       390  22  1.874434E+06  1.076047E+06  1.069772E+05  1.368082E+06 -6.161815E+04 -4.503431E+04
       390  23  1.847816E+06  1.030798E+06  5.378813E+04  1.391669E+06 -3.916634E+04 -2.820805E+04
       390  24  1.856133E+06  1.043331E+06  3.662552E+04  1.392647E+06 -1.665124E+04 -1.146689E+04
       390  25  1.838011E+06  1.037284E+06  9.211105E+04  1.344169E+06 -6.160214E+04 -4.502112E+04
       390  26  1.807792E+06  9.993153E+05  3.965795E+04  1.370504E+06 -3.917218E+04 -2.821224E+04
       390  27  1.812506E+06  1.019126E+06  2.321439E+04  1.374231E+06 -1.667920E+04 -1.148799E+04
       391   1  1.889312E+06  1.071882E+06  4.304272E+04  1.404047E+06  1.166125E+04  7.813253E+03
       391   2  1.885248E+06  1.061266E+06  3.523076E+04  1.405991E+06  1.721918E+03  4.362459E+02
       391   3  1.889736E+06  1.066944E+06  4.009878E+04  1.402643E+06 -8.208251E+03 -6.953168E+03
       391   4  1.857294E+06  1.046651E+06  3.173335E+04  1.387095E+06  1.167266E+04  7.821746E+03
       391   5  1.852847E+06  1.038197E+06  2.426811E+04  1.389970E+06  1.730958E+03  4.430140E+02
       391   6  1.856953E+06  1.046039E+06  2.948551E+04  1.387554E+06 -8.201572E+03 -6.948199E+03
       391   7  1.825277E+06  1.021421E+06  2.042382E+04  1.370143E+06  1.168406E+04  7.830239E+03
       391   8  1.820447E+06  1.015129E+06  1.330530E+04  1.373950E+06  1.739997E+03  4.497817E+02
       391   9  1.824171E+06  1.025135E+06  1.887208E+04  1.372465E+06 -8.194893E+03 -6.943230E+03
       391  10  1.889311E+06  1.071882E+06  4.304235E+04  1.404047E+06 -2.059675E-10  7.691136E-10
       391  11  1.885248E+06  1.061266E+06  3.523075E+04  1.405991E+06 -1.045749E-09  1.156543E-09
       391  12  1.889736E+06  1.066944E+06  4.009856E+04  1.402643E+06  3.599794E-10 -4.192381E-10
       391  13  1.857294E+06  1.046651E+06  3.173298E+04  1.387095E+06  1.492090E-09  1.277417E-09
       391  14  1.852847E+06  1.038197E+06  2.426811E+04  1.389970E+06  2.590250E-09  4.013833E-10
       391  15  1.856953E+06  1.046039E+06  2.948530E+04  1.387554E+06 -5.872713E-10  5.407799E-10
       391  16  1.825277E+06  1.021421E+06  2.042345E+04  1.370143E+06  1.869736E-10  5.601168E-10
       391  17  1.820447E+06  1.015129E+06  1.330530E+04  1.373950E+06  3.052218E-10 -2.108794E-10
       391  18  1.824171E+06  1.025135E+06  1.887187E+04  1.372465E+06  8.487176E-10  6.177503E-11
       391  19  1.889312E+06  1.071882E+06  4.304272E+04  1.404047E+06 -1.166125E+04 -7.813253E+03
       391  20  1.885248E+06  1.061266E+06  3.523076E+04  1.405991E+06 -1.721918E+03 -4.362459E+02
       391  21  1.889736E+06  1.066944E+06  4.009878E+04  1.402643E+06  8.208251E+03  6.953168E+03
       391  22  1.857294E+06  1.046651E+06  3.173335E+04  1.387095E+06 -1.167266E+04 -7.821746E+03
       391  23  1.852847E+06  1.038197E+06  2.426811E+04  1.389970E+06 -1.730958E+03 -4.430140E+02
       391  24  1.856953E+06  1.046039E+06  2.948551E+04  1.387554E+06  8.201572E+03  6.948199E+03
       391  25  1.825277E+06  1.021421E+06  2.042382E+04  1.370143E+06 -1.168406E+04 -7.830239E+03
       391  26  1.820447E+06  1.015129E+06  1.330530E+04  1.373950E+06 -1.739997E+03 -4.497817E+02
       391  27  1.824171E+06  1.025135E+06  1.887208E+04  1.372465E+06  8.194893E+03  6.943230E+03
       392   1  1.882576E+06  1.066693E+06  4.320629E+04  1.407375E+06 -1.274127E+04 -1.034299E+04
       392   2  1.878310E+06  1.052283E+06  5.742159E+04  1.405639E+06 -3.260650E+04 -2.520889E+04
       392   3  1.908270E+06  1.084765E+06  1.033204E+05  1.383072E+06 -5.249621E+04 -4.004203E+04
       392   4  1.856817E+06  1.042426E+06  3.332273E+04  1.391913E+06 -1.274192E+04 -1.034336E+04
       392   5  1.847628E+06  1.033122E+06  4.757195E+04  1.391702E+06 -3.259811E+04 -2.520274E+04
       392   6  1.872665E+06  1.070708E+06  9.349831E+04  1.370659E+06 -5.247857E+04 -4.002972E+04
       392   7  1.831058E+06  1.018160E+06  2.343908E+04  1.376451E+06 -1.274257E+04 -1.034373E+04
       392   8  1.816947E+06  1.013961E+06  3.772221E+04  1.377765E+06 -3.258973E+04 -2.519659E+04
       392   9  1.837061E+06  1.056652E+06  8.367616E+04  1.358247E+06 -5.246092E+04 -4.001740E+04
       392  10  1.882576E+06  1.066692E+06  4.320578E+04  1.407375E+06  1.932745E-09  9.006759E-10
       392  11  1.878308E+06  1.052282E+06  5.741841E+04  1.405639E+06  1.530360E-09  1.016159E-09
       392  12  1.908266E+06  1.084763E+06  1.033122E+05  1.383070E+06 -6.163304E-10 -7.319353E-10
       392  13  1.856817E+06  1.042426E+06  3.332222E+04  1.391913E+06 -3.967237E-10  1.381192E-10
       392  14  1.847626E+06  1.033121E+06  4.756878E+04  1.391701E+06  2.768334E-09  4.528513E-10
       392  15  1.872661E+06  1.070706E+06  9.349016E+04  1.370657E+06 -1.832566E-09 -4.580432E-10
       392  16  1.831058E+06  1.018160E+06  2.343858E+04  1.376451E+06  1.226279E-09  1.267499E-09
       392  17  1.816945E+06  1.013960E+06  3.771904E+04  1.377765E+06  1.024970E-09 -2.632775E-10
       392  18  1.837057E+06  1.056649E+06  8.366801E+04  1.358245E+06  2.104537E-09 -4.339696E-10
       392  19  1.882576E+06  1.066693E+06  4.320629E+04  1.407375E+06  1.274127E+04  1.034299E+04
       392  20  1.878310E+06  1.052283E+06  5.742159E+04  1.405639E+06  3.260650E+04  2.520889E+04
       392  21  1.908270E+06  1.084765E+06  1.033204E+05  1.383072E+06  5.249621E+04  4.004203E+04
       392  22  1.856817E+06  1.042426E+06  3.332273E+04  1.391913E+06  1.274192E+04  1.034336E+04
       392  23  1.847628E+06  1.033122E+06  4.757195E+04  1.391702E+06  3.259811E+04  2.520274E+04
       392  24  1.872665E+06  1.070708E+06  9.349831E+04  1.370659E+06  5.247857E+04  4.002972E+04
       392  25  1.831058E+06  1.018160E+06  2.343908E+04  1.376451E+06  1.274257E+04  1.034373E+04
       392  26  1.816947E+06  1.013961E+06  3.772221E+04  1.377765E+06  3.258973E+04  2.519659E+04
       392  27  1.837061E+06  1.056652E+06  8.367616E+04  1.358247E+06  5.246092E+04  4.001740E+04
       393   1  1.874864E+06  1.087712E+06  1.226589E+05  1.429446E+06 -6.714469E+04 -5.115325E+04
       393   2  1.852595E+06  9.970047E+05  1.818754E+05  1.417345E+06 -1.420024E+05 -1.073479E+05
       393   3  2.061864E+06  1.220938E+06  4.086813E+05  1.256703E+06 -2.171942E+05 -1.630927E+05
       393   4  1.867590E+06  1.043042E+06  1.123971E+05  1.407697E+06 -6.721209E+04 -5.119970E+04
       393   5  1.808852E+06  9.873796E+05  1.713400E+05  1.405605E+06 -1.419553E+05 -1.073173E+05
       393   6  1.981632E+06  1.246346E+06  3.977843E+05  1.254968E+06 -2.170256E+05 -1.629936E+05
       393   7  1.860316E+06  9.983753E+05  1.021354E+05  1.385949E+06 -6.727949E+04 -5.124614E+04
       393   8  1.765111E+06  9.777547E+05  1.608045E+05  1.393864E+06 -1.419081E+05 -1.072866E+05
       393   9  1.901412E+06  1.271759E+06  3.868885E+05  1.253232E+06 -2.168570E+05 -1.628945E+05
       393  10  1.874858E+06  1.087708E+06  1.226456E+05  1.429443E+06  3.016867E-10 -3.972456E-10
       393  11  1.852571E+06  9.969870E+05  1.818161E+05  1.417333E+06  5.380720E-10 -1.816918E-09
       393  12  2.061806E+06  1.220897E+06  4.085433E+05  1.256674E+06 -2.348953E-10 -9.002902E-10
       393  13  1.867584E+06  1.043038E+06  1.123838E+05  1.407694E+06 -1.699812E-09 -1.888783E-09
       393  14  1.808827E+06  9.873619E+05  1.712807E+05  1.405592E+06 -1.511483E-09 -2.604460E-09
       393  15  1.981575E+06  1.246305E+06  3.976465E+05  1.254940E+06  2.504378E-10 -9.268343E-10
       393  16  1.860311E+06  9.983713E+05  1.021221E+05  1.385946E+06  2.843255E-11 -2.564888E-09
       393  17  1.765087E+06  9.777370E+05  1.607453E+05  1.393852E+06 -1.161679E-09 -2.306434E-09
       393  18  1.901354E+06  1.271718E+06  3.867509E+05  1.253203E+06  5.434798E-10 -7.067695E-10
       393  19  1.874864E+06  1.087712E+06  1.226589E+05  1.429446E+06  6.714469E+04  5.115325E+04
       393  20  1.852595E+06  9.970047E+05  1.818754E+05  1.417345E+06  1.420024E+05  1.073479E+05
       393  21  2.061864E+06  1.220938E+06  4.086813E+05  1.256703E+06  2.171942E+05  1.630927E+05
       393  22  1.867590E+06  1.043042E+06  1.123971E+05  1.407697E+06  6.721209E+04  5.119970E+04
       393  23  1.808852E+06  9.873796E+05  1.713400E+05  1.405605E+06  1.419553E+05  1.073173E+05
       393  24  1.981632E+06  1.246346E+06  3.977843E+05  1.254968E+06  2.170256E+05  1.629936E+05
       393  25  1.860316E+06  9.983753E+05  1.021354E+05  1.385949E+06  6.727949E+04  5.124614E+04
       393  26  1.765111E+06  9.777547E+05  1.608045E+05  1.393864E+06  1.419081E+05  1.072866E+05
       393  27  1.901412E+06  1.271759E+06  3.868885E+05  1.253232E+06  2.168570E+05  1.628945E+05
       394   1  1.668526E+06  1.496731E+05  1.431543E+05  4.424975E+04 -1.448636E+04 -3.914240E+03
       394   2  1.598214E+06  1.555974E+05  1.381120E+05 -9.906182E+03 -1.053872E+04 -1.077632E+04
       394   3  1.522290E+06  1.339591E+05  1.239720E+05  4.987962E+04 -6.591694E+03 -7.364563E+03
       394   4  9.876672E+05 -2.016995E+04 -2.619469E+04  4.786426E+04 -1.735879E+04 -3.912939E+03
       394   5  9.906747E+05  4.271820E+03 -1.186796E+04 -9.104999E+03 -1.094636E+04 -1.077706E+04
       394   6  9.876284E+05  7.086694E+02 -8.355737E+03  4.787474E+04 -4.534057E+03 -7.362985E+03
       394   7  3.072273E+05 -1.900477E+05 -1.955783E+05  5.147485E+04 -2.022807E+04 -3.911672E+03
       394   8  3.834695E+05 -1.470812E+05 -1.618752E+05 -8.304608E+03 -1.135359E+04 -1.077780E+04
       394   9  4.532262E+05 -1.325631E+05 -1.407047E+05  4.587152E+04 -2.478186E+03 -7.361421E+03
       394  10  1.668526E+06  1.496730E+05  1.431538E+05  4.424971E+04  3.814313E-10 -1.151144E-11
       394  11  1.598214E+06  1.555972E+05  1.381115E+05 -9.906274E+03 -1.216506E-10 -3.612177E-10
       394  12  1.522290E+06  1.339591E+05  1.239718E+05  4.987958E+04  5.200492E-10 -8.662278E-10
       394  13  9.876668E+05 -2.017005E+04 -2.619529E+04  4.786420E+04  5.058062E-11  8.316335E-11
       394  14  9.906745E+05  4.271664E+03 -1.186841E+04 -9.105094E+03 -1.120604E-09 -2.600869E-10
       394  15  9.876284E+05  7.086057E+02 -8.355877E+03  4.787472E+04 -1.492207E-09 -4.336209E-10
       394  16  3.072269E+05 -1.900478E+05 -1.955791E+05  5.147479E+04 -9.004019E-10  4.693620E-10
       394  17  3.834694E+05 -1.470814E+05 -1.618757E+05 -8.304707E+03 -7.374306E-10 -3.834854E-10
       394  18  4.532262E+05 -1.325632E+05 -1.407048E+05  4.587151E+04 -1.490024E-10 -7.139155E-10
       394  19  1.668526E+06  1.496731E+05  1.431543E+05  4.424975E+04  1.448636E+04  3.914240E+03
       394  20  1.598214E+06  1.555974E+05  1.381120E+05 -9.906182E+03  1.053872E+04  1.077632E+04
       394  21  1.522290E+06  1.339591E+05  1.239720E+05  4.987962E+04  6.591694E+03  7.364563E+03
       394  22  9.876672E+05 -2.016995E+04 -2.619469E+04  4.786426E+04  1.735879E+04  3.912939E+03
       394  23  9.906747E+05  4.271820E+03 -1.186796E+04 -9.104999E+03  1.094636E+04  1.077706E+04
       394  24  9.876284E+05  7.086694E+02 -8.355737E+03  4.787474E+04  4.534057E+03  7.362985E+03
       394  25  3.072273E+05 -1.900477E+05 -1.955783E+05  5.147485E+04  2.022807E+04  3.911672E+03
       394  26  3.834695E+05 -1.470812E+05 -1.618752E+05 -8.304608E+03  1.135359E+04  1.077780E+04
       394  27  4.532262E+05 -1.325631E+05 -1.407047E+05  4.587152E+04  2.478186E+03  7.361421E+03
       395   1  1.245488E+06  6.119139E+04  5.590348E+04  4.611075E+04 -3.279500E+03 -4.297667E+03
       395   2  1.177643E+06  4.779417E+04  4.091485E+04 -7.205154E+03 -6.864394E+02 -3.062860E+03
       395   3  1.107790E+06  2.851705E+04  2.272765E+04  4.706798E+04  1.903332E+03 -6.730210E+02
       395   4  9.885920E+05 -2.816944E+03 -7.569447E+03  4.646190E+04 -3.121465E+03 -4.297587E+03
       395   5  9.896184E+05  9.404766E+02 -5.556156E+03 -7.334336E+03 -2.517234E+02 -3.062297E+03
       395   6  9.885832E+05 -1.230970E+03 -6.934079E+03  4.646056E+04  2.615010E+03 -6.718126E+02
       395   7  7.317555E+05 -6.683020E+04 -7.104726E+04  4.681289E+04 -2.963496E+03 -4.297506E+03
       395   8  8.016261E+05 -4.591586E+04 -5.202979E+04 -7.463490E+03  1.828614E+02 -3.061733E+03
       395   9  8.693896E+05 -3.098005E+04 -3.659687E+04  4.585325E+04  3.326551E+03 -6.706055E+02
       395  10  1.245488E+06  6.119137E+04  5.590342E+04  4.611074E+04 -2.496277E-09 -7.268722E-10
       395  11  1.177643E+06  4.779416E+04  4.091483E+04 -7.205156E+03 -5.837227E-10  5.466704E-10
       395  12  1.107790E+06  2.851705E+04  2.272764E+04  4.706798E+04  2.321564E-09 -1.442041E-09
       395  13  9.885920E+05 -2.816967E+03 -7.569500E+03  4.646189E+04 -1.650872E-09 -7.004558E-10
       395  14  9.896184E+05  9.404665E+02 -5.556174E+03 -7.334337E+03 -1.822263E-09 -4.495662E-10
       395  15  9.885832E+05 -1.230972E+03 -6.934092E+03  4.646056E+04 -1.301606E-09 -1.946389E-09
       395  16  7.317555E+05 -6.683022E+04 -7.104731E+04  4.681288E+04  8.665522E-10 -1.580756E-10
       395  17  8.016261E+05 -4.591587E+04 -5.202980E+04 -7.463490E+03 -7.791471E-10 -2.411411E-09
       395  18  8.693896E+05 -3.098005E+04 -3.659689E+04  4.585325E+04 -1.683525E-09 -4.096628E-10
       395  19  1.245488E+06  6.119139E+04  5.590348E+04  4.611075E+04  3.279500E+03  4.297667E+03
       395  20  1.177643E+06  4.779417E+04  4.091485E+04 -7.205154E+03  6.864394E+02  3.062860E+03
       395  21  1.107790E+06  2.851705E+04  2.272765E+04  4.706798E+04 -1.903332E+03  6.730210E+02
       395  22  9.885920E+05 -2.816944E+03 -7.569447E+03  4.646190E+04  3.121465E+03  4.297587E+03
       395  23  9.896184E+05  9.404766E+02 -5.556156E+03 -7.334336E+03  2.517234E+02  3.062297E+03
       395  24  9.885832E+05 -1.230970E+03 -6.934079E+03  4.646056E+04 -2.615010E+03  6.718126E+02
       395  25  7.317555E+05 -6.683020E+04 -7.104726E+04  4.681289E+04  2.963496E+03  4.297506E+03
       395  26  8.016261E+05 -4.591586E+04 -5.202979E+04 -7.463490E+03 -1.828614E+02  3.061733E+03
       395  27  8.693896E+05 -3.098005E+04 -3.659687E+04  4.585325E+04 -3.326551E+03  6.706055E+02
       396   1  8.373429E+05 -3.747400E+04 -4.533828E+04  4.540924E+04  3.220979E+03  1.165581E+03
       396   2  7.707065E+05 -5.240083E+04 -6.557782E+04 -7.250756E+03  9.390184E+03  3.571812E+03
       396   3  6.993859E+05 -8.234687E+04 -9.361504E+04  4.794397E+04  1.556199E+04  4.764586E+03
       396   4  9.880075E+05  1.224075E+02 -7.890188E+03  4.651418E+04  3.943205E+03  1.166796E+03
       396   5  9.903333E+05  2.340756E+03 -1.128003E+04 -7.406075E+03  9.822736E+03  3.572324E+03
       396   6  9.880240E+05 -1.040612E+04 -2.226372E+04  4.652613E+04  1.570555E+04  4.764569E+03
       396   7  1.138693E+06  3.771712E+04  2.955621E+04  4.761938E+04  4.665606E+03  1.168013E+03
       396   8  1.210004E+06  5.707874E+04  4.301418E+04 -7.561463E+03  1.025544E+04  3.572835E+03
       396   9  1.276738E+06  6.152842E+04  4.908142E+04  4.510762E+04  1.584917E+04  4.764552E+03
       396  10  8.373429E+05 -3.747401E+04 -4.533831E+04  4.540924E+04  1.904761E-10  6.829240E-10
       396  11  7.707064E+05 -5.240086E+04 -6.557801E+04 -7.250783E+03  3.047335E-10  5.656965E-10
       396  12  6.993856E+05 -8.234696E+04 -9.361554E+04  4.794391E+04  8.091508E-10 -1.306433E-09
       396  13  9.880075E+05  1.224019E+02 -7.890220E+03  4.651418E+04 -1.614799E-09 -8.135340E-10
       396  14  9.903332E+05  2.340716E+03 -1.128023E+04 -7.406103E+03  5.462225E-10  8.330014E-10
       396  15  9.880237E+05 -1.040621E+04 -2.226423E+04  4.652607E+04  8.356986E-10  1.395827E-09
       396  16  1.138693E+06  3.771711E+04  2.955617E+04  4.761938E+04  4.902548E-11 -1.467585E-09
       396  17  1.210004E+06  5.707870E+04  4.301396E+04 -7.561492E+03 -1.941316E-09 -2.201132E-09
       396  18  1.276737E+06  6.152833E+04  4.908090E+04  4.510756E+04 -7.333352E-10 -2.036232E-09
       396  19  8.373429E+05 -3.747400E+04 -4.533828E+04  4.540924E+04 -3.220979E+03 -1.165581E+03
       396  20  7.707065E+05 -5.240083E+04 -6.557782E+04 -7.250756E+03 -9.390184E+03 -3.571812E+03
       396  21  6.993859E+05 -8.234687E+04 -9.361504E+04  4.794397E+04 -1.556199E+04 -4.764586E+03
       396  22  9.880075E+05  1.224075E+02 -7.890188E+03  4.651418E+04 -3.943205E+03 -1.166796E+03
       396  23  9.903333E+05  2.340756E+03 -1.128003E+04 -7.406075E+03 -9.822736E+03 -3.572324E+03
       396  24  9.880240E+05 -1.040612E+04 -2.226372E+04  4.652613E+04 -1.570555E+04 -4.764569E+03
       396  25  1.138693E+06  3.771712E+04  2.955621E+04  4.761938E+04 -4.665606E+03 -1.168013E+03
       396  26  1.210004E+06  5.707874E+04  4.301418E+04 -7.561463E+03 -1.025544E+04 -3.572835E+03
       396  27  1.276738E+06  6.152842E+04  4.908142E+04  4.510762E+04 -1.584917E+04 -4.764552E+03
       397   1  4.155878E+05 -1.386832E+05 -1.672055E+05  4.193466E+04  1.794360E+04  7.901128E+03
       397   2  3.554761E+05 -1.440636E+05 -1.992677E+05 -6.188199E+03  4.279648E+04  1.135595E+04
       397   3  2.686456E+05 -2.515031E+05 -2.726145E+05  6.034761E+04  6.764470E+04  4.066533E+03
       397   4  9.831315E+05  2.862412E+03 -2.665376E+04  4.803975E+04  2.007201E+04  7.902622E+03
       397   5  9.962900E+05  1.566921E+04 -4.095083E+04 -9.312867E+03  4.236577E+04  1.135500E+04
       397   6  9.832013E+05 -7.308122E+04 -9.472492E+04  4.798708E+04  6.465791E+04  4.067241E+03
       397   7  1.550967E+06  1.443841E+05  1.138741E+05  5.415035E+04  2.220236E+04  7.904158E+03
       397   8  1.637477E+06  1.753715E+05  1.173356E+05 -1.244076E+04  4.193460E+04  1.135406E+04
       397   9  1.698220E+06  1.053028E+05  8.312647E+04  3.561240E+04  6.166764E+04  4.068068E+03
       397  10  4.155875E+05 -1.386833E+05 -1.672063E+05  4.193455E+04 -1.043390E-09 -1.126176E-09
       397  11  3.554741E+05 -1.440643E+05 -1.992714E+05 -6.188591E+03 -2.010781E-09 -8.489439E-10
       397  12  2.686407E+05 -2.515043E+05 -2.726231E+05  6.034739E+04 -6.072566E-11 -5.230386E-11
       397  13  9.831311E+05  2.862237E+03 -2.665463E+04  4.803962E+04  9.672149E-11  1.822689E-10
       397  14  9.962880E+05  1.566859E+04 -4.095444E+04 -9.313254E+03  7.601510E-10  2.337946E-10
       397  15  9.831968E+05 -7.308236E+04 -9.473279E+04  4.798687E+04  4.501991E-10 -4.943043E-10
       397  16  1.550967E+06  1.443839E+05  1.138730E+05  5.415020E+04  3.024876E-09  1.965160E-11
       397  17  1.637475E+06  1.753709E+05  1.173321E+05 -1.244114E+04  1.830809E-09 -1.187904E-09
       397  18  1.698216E+06  1.053018E+05  8.311931E+04  3.561220E+04  1.070410E-09 -7.933461E-10
       397  19  4.155878E+05 -1.386832E+05 -1.672055E+05  4.193466E+04 -1.794360E+04 -7.901128E+03
       397  20  3.554761E+05 -1.440636E+05 -1.992677E+05 -6.188199E+03 -4.279648E+04 -1.135595E+04
       397  21  2.686456E+05 -2.515031E+05 -2.726145E+05  6.034761E+04 -6.764470E+04 -4.066533E+03
       397  22  9.831315E+05  2.862412E+03 -2.665376E+04  4.803975E+04 -2.007201E+04 -7.902622E+03
       397  23  9.962900E+05  1.566921E+04 -4.095083E+04 -9.312867E+03 -4.236577E+04 -1.135500E+04
       397  24  9.832013E+05 -7.308122E+04 -9.472492E+04  4.798708E+04 -6.465791E+04 -4.067241E+03
       397  25  1.550967E+06  1.443841E+05  1.138741E+05  5.415035E+04 -2.220236E+04 -7.904158E+03
       397  26  1.637477E+06  1.753715E+05  1.173356E+05 -1.244076E+04 -4.193460E+04 -1.135406E+04
       397  27  1.698220E+06  1.053028E+05  8.312647E+04  3.561240E+04 -6.166764E+04 -4.068068E+03
       398   1 -5.613688E+05 -2.200893E+06 -7.003729E+05  1.181365E+05 -2.976641E+03 -3.924472E+05
       398   2  1.129760E+04 -2.040298E+06 -3.537862E+05  7.082293E+03 -6.870336E+03 -2.463889E+05
       398   3 -6.312194E+04 -2.060481E+06 -2.642088E+05  5.836791E+03 -3.648006E+03 -1.003295E+05
       398   4 -4.547314E+05 -1.774187E+06 -5.938629E+05  4.354726E+04 -2.927099E+03 -3.907830E+05
       398   5  1.003210E+05 -1.683828E+06 -2.655005E+05 -1.162754E+04 -6.862417E+03 -2.463441E+05
       398   6  8.764911E+03 -1.773856E+06 -1.928952E+05  4.301663E+04 -3.657107E+03 -1.019210E+05
       398   7 -3.480868E+05 -1.347302E+06 -4.873637E+05 -3.109344E+04 -2.877988E+03 -3.891175E+05
       398   8  1.893363E+05 -1.327242E+06 -1.772242E+05 -3.034821E+04 -6.854504E+03 -2.462993E+05
       398   9  8.065073E+04 -1.487153E+06 -1.215870E+05  8.021366E+04 -3.666395E+03 -1.035132E+05
       398  10 -5.614103E+05 -2.201059E+06 -7.006633E+05  1.181355E+05 -1.027076E-10  1.636652E-09
       398  11  1.128118E+04 -2.040363E+06 -3.539007E+05  7.080929E+03  3.071590E-10  2.470914E-09
       398  12 -6.312467E+04 -2.060492E+06 -2.642278E+05  5.836496E+03 -2.581558E-10 -9.301209E-10
       398  13 -4.547726E+05 -1.774351E+06 -5.941507E+05  4.354634E+04  4.915419E-10 -7.763260E-12
       398  14  1.003046E+05 -1.683893E+06 -2.656150E+05 -1.162891E+04  2.133684E-09  1.110134E-09
       398  15  8.762098E+03 -1.773867E+06 -1.929148E+05  4.301633E+04  2.375978E-10 -6.508141E-10
       398  16 -3.481275E+05 -1.347465E+06 -4.876488E+05 -3.109434E+04  2.980575E-10 -1.353637E-09
       398  17  1.893199E+05 -1.327307E+06 -1.773386E+05 -3.034957E+04  2.159736E-09 -6.790665E-10
       398  18  8.064783E+04 -1.487165E+06 -1.216072E+05  8.021336E+04 -1.452127E-10  1.480742E-09
       398  19 -5.613688E+05 -2.200893E+06 -7.003729E+05  1.181365E+05  2.976641E+03  3.924472E+05
       398  20  1.129760E+04 -2.040298E+06 -3.537862E+05  7.082293E+03  6.870336E+03  2.463889E+05
       398  21 -6.312194E+04 -2.060481E+06 -2.642088E+05  5.836791E+03  3.648006E+03  1.003295E+05
       398  22 -4.547314E+05 -1.774187E+06 -5.938629E+05  4.354726E+04  2.927099E+03  3.907830E+05
       398  23  1.003210E+05 -1.683828E+06 -2.655005E+05 -1.162754E+04  6.862417E+03  2.463441E+05
       398  24  8.764911E+03 -1.773856E+06 -1.928952E+05  4.301663E+04  3.657107E+03  1.019210E+05
       398  25 -3.480868E+05 -1.347302E+06 -4.873637E+05 -3.109344E+04  2.877988E+03  3.891175E+05
       398  26  1.893363E+05 -1.327242E+06 -1.772242E+05 -3.034821E+04  6.854504E+03  2.462993E+05
       398  27  8.065073E+04 -1.487153E+06 -1.215870E+05  8.021366E+04  3.666395E+03  1.035132E+05
       399   1 -6.262060E+04 -1.747044E+06 -1.725862E+05  5.914165E+04 -8.209882E+02 -6.879023E+04
       399   2  4.526991E+04 -1.647767E+06 -1.087060E+05 -1.256030E+04  1.133678E+03 -2.837231E+03
       399   3 -2.326603E+04 -1.601767E+06 -1.320544E+05  2.962188E+04  2.820168E+03  6.312454E+04
       399   4 -6.237966E+04 -1.745678E+06 -1.723645E+05  4.416973E+04 -8.203207E+02 -6.925429E+04
       399   5  2.745677E+04 -1.719027E+06 -1.263772E+05 -1.278184E+04  1.132875E+03 -3.240548E+03
       399   6 -5.915445E+04 -1.745672E+06 -1.676645E+05  4.415328E+04  2.821023E+03  6.277429E+04
       399   7 -6.213789E+04 -1.744312E+06 -1.721426E+05  2.919778E+04 -8.196307E+02 -6.971836E+04
       399   8  9.643243E+03 -1.790281E+06 -1.440487E+05 -1.300336E+04  1.132074E+03 -3.643818E+03
       399   9 -9.504362E+04 -1.889558E+06 -2.032761E+05  5.868129E+04  2.821861E+03  6.242411E+04
       399  10 -6.262187E+04 -1.747049E+06 -1.725951E+05  5.914160E+04  1.787835E-09  2.730563E-10
       399  11  4.526991E+04 -1.647767E+06 -1.087060E+05 -1.256030E+04  6.368637E-10  3.237648E-09
       399  12 -2.326711E+04 -1.601771E+06 -1.320619E+05  2.962174E+04  6.209533E-10  3.134111E-11
       399  13 -6.238096E+04 -1.745684E+06 -1.723735E+05  4.416968E+04  1.384920E-09 -1.401643E-09
       399  14  2.745676E+04 -1.719027E+06 -1.263772E+05 -1.278184E+04 -1.157257E-09  2.960692E-09
       399  15 -5.915552E+04 -1.745676E+06 -1.676720E+05  4.415314E+04 -2.526550E-10  2.329278E-10
       399  16 -6.213920E+04 -1.744318E+06 -1.721517E+05  2.919773E+04  8.406200E-10  7.344002E-10
       399  17  9.643238E+03 -1.790281E+06 -1.440487E+05 -1.300336E+04  3.788752E-09 -3.393470E-10
       399  18 -9.504468E+04 -1.889562E+06 -2.032835E+05  5.868115E+04  8.453874E-11 -8.831675E-11
       399  19 -6.262060E+04 -1.747044E+06 -1.725862E+05  5.914165E+04  8.209882E+02  6.879023E+04
       399  20  4.526991E+04 -1.647767E+06 -1.087060E+05 -1.256030E+04 -1.133678E+03  2.837231E+03
       399  21 -2.326603E+04 -1.601767E+06 -1.320544E+05  2.962188E+04 -2.820168E+03 -6.312454E+04
       399  22 -6.237966E+04 -1.745678E+06 -1.723645E+05  4.416973E+04  8.203207E+02  6.925429E+04
       399  23  2.745677E+04 -1.719027E+06 -1.263772E+05 -1.278184E+04 -1.132875E+03  3.240548E+03
       399  24 -5.915445E+04 -1.745672E+06 -1.676645E+05  4.415328E+04 -2.821023E+03 -6.277429E+04
       399  25 -6.213789E+04 -1.744312E+06 -1.721426E+05  2.919778E+04  8.196307E+02  6.971836E+04
       399  26  9.643243E+03 -1.790281E+06 -1.440487E+05 -1.300336E+04 -1.132074E+03  3.643818E+03
       399  27 -9.504362E+04 -1.889558E+06 -2.032761E+05  5.868129E+04 -2.821861E+03 -6.242411E+04
       400   1  1.136902E+05 -1.347616E+06 -8.092921E+04  7.778495E+04  5.826890E+03  9.626059E+04
       400   2  2.183052E+05 -1.194934E+06 -1.321696E+05 -2.825172E+04  9.045123E+03  2.322672E+05
       400   3 -2.926821E+05 -1.212995E+06 -4.257121E+05 -2.884448E+04  3.392664E+03  3.683021E+05
       400   4  7.471123E+03 -1.771851E+06 -1.863247E+05  4.213488E+04  5.818477E+03  9.443265E+04
       400   5  9.557867E+04 -1.686379E+06 -2.538525E+05 -1.047010E+04  9.052596E+03  2.324632E+05
       400   6 -4.325436E+05 -1.772160E+06 -5.652372E+05  4.237263E+04  3.436433E+03  3.705068E+05
       400   7 -9.875679E+04 -2.195920E+06 -2.917329E+05  6.509165E+03  5.810269E+03  9.260594E+04
       400   8 -2.716475E+04 -2.177603E+06 -3.755533E+05  7.297352E+03  9.060085E+03  2.326590E+05
       400   9 -5.724095E+05 -2.331031E+06 -7.047830E+05  1.135254E+05  3.480743E+03  3.727094E+05
       400  10  1.136877E+05 -1.347626E+06 -8.094673E+04  7.778450E+04  1.513142E-09  4.551797E-10
       400  11  2.182906E+05 -1.194992E+06 -1.322713E+05 -2.825341E+04  2.337475E-09  2.294390E-09
       400  12 -2.927186E+05 -1.213141E+06 -4.259676E+05 -2.884549E+04  1.336781E-09  1.832321E-10
       400  13  7.468684E+03 -1.771861E+06 -1.863415E+05  4.213444E+04  1.063965E-09 -1.433396E-09
       400  14  9.556402E+04 -1.686437E+06 -2.539545E+05 -1.047179E+04  2.947909E-10  1.955504E-09
       400  15 -4.325806E+05 -1.772308E+06 -5.654959E+05  4.237161E+04  4.294266E-10 -1.759782E-10
       400  16 -9.875914E+04 -2.195929E+06 -2.917492E+05  6.508731E+03 -2.481402E-10  4.762060E-10
       400  17 -2.717943E+04 -2.177661E+06 -3.756555E+05  7.295653E+03  2.859363E-09  2.290706E-10
       400  18 -5.724470E+05 -2.331181E+06 -7.050450E+05  1.135244E+05  8.490641E-10  2.400497E-10
       400  19  1.136902E+05 -1.347616E+06 -8.092921E+04  7.778495E+04 -5.826890E+03 -9.626059E+04
       400  20  2.183052E+05 -1.194934E+06 -1.321696E+05 -2.825172E+04 -9.045123E+03 -2.322672E+05
       400  21 -2.926821E+05 -1.212995E+06 -4.257121E+05 -2.884448E+04 -3.392664E+03 -3.683021E+05
       400  22  7.471123E+03 -1.771851E+06 -1.863247E+05  4.213488E+04 -5.818477E+03 -9.443265E+04
       400  23  9.557867E+04 -1.686379E+06 -2.538525E+05 -1.047010E+04 -9.052596E+03 -2.324632E+05
       400  24 -4.325436E+05 -1.772160E+06 -5.652372E+05  4.237263E+04 -3.436433E+03 -3.705068E+05
       400  25 -9.875679E+04 -2.195920E+06 -2.917329E+05  6.509165E+03 -5.810269E+03 -9.260594E+04
       400  26 -2.716475E+04 -2.177603E+06 -3.755533E+05  7.297352E+03 -9.060085E+03 -2.326590E+05
       400  27 -5.724095E+05 -2.331031E+06 -7.047830E+05  1.135254E+05 -3.480743E+03 -3.727094E+05
       401   1  2.705778E+06  1.826817E+06  6.019275E+05  1.753252E+06  3.365928E+05  2.524133E+05
       401   2  2.495263E+06  1.379408E+06  2.531621E+05  1.974363E+06  2.208313E+05  1.663473E+05
       401   3  2.651738E+06  1.409763E+06  1.632102E+05  1.962984E+06  1.055568E+05  7.961354E+04
       401   4  2.820679E+06  1.780765E+06  6.155992E+05  1.751214E+06  3.368245E+05  2.525214E+05
       401   5  2.549169E+06  1.384432E+06  2.647787E+05  1.985674E+06  2.208633E+05  1.663600E+05
       401   6  2.644662E+06  1.465862E+06  1.729037E+05  1.987650E+06  1.054061E+05  7.951062E+04
       401   7  2.935605E+06  1.734726E+06  6.292739E+05  1.749170E+06  3.370564E+05  2.526294E+05
       401   8  2.603078E+06  1.389457E+06  2.763953E+05  1.996985E+06  2.208952E+05  1.663727E+05
       401   9  2.637589E+06  1.521969E+06  1.825978E+05  2.012316E+06  1.052555E+05  7.940768E+04
       401  10  2.705640E+06  1.826719E+06  6.015970E+05  1.753184E+06  5.385902E-10  6.806265E-11
       401  11  2.495204E+06  1.379365E+06  2.530194E+05  1.974333E+06 -3.584905E-10  1.450359E-09
       401  12  2.651724E+06  1.409754E+06  1.631776E+05  1.962977E+06  5.188648E-10 -4.439353E-12
       401  13  2.820541E+06  1.780667E+06  6.152683E+05  1.751145E+06 -1.058745E-09  1.054779E-10
       401  14  2.549109E+06  1.384390E+06  2.646359E+05  1.985644E+06 -4.310462E-10  8.236584E-10
       401  15  2.644648E+06  1.465853E+06  1.728712E+05  1.987643E+06  5.246850E-10  5.389278E-10
       401  16  2.935466E+06  1.734628E+06  6.289426E+05  1.749102E+06 -5.378694E-11 -1.947244E-10
       401  17  2.603019E+06  1.389414E+06  2.762525E+05  1.996955E+06 -1.582830E-09 -5.168354E-10
       401  18  2.637575E+06  1.521959E+06  1.825654E+05  2.012310E+06 -1.361876E-10 -4.554856E-10
       401  19  2.705778E+06  1.826817E+06  6.019275E+05  1.753252E+06 -3.365928E+05 -2.524133E+05
       401  20  2.495263E+06  1.379408E+06  2.531621E+05  1.974363E+06 -2.208313E+05 -1.663473E+05
       401  21  2.651738E+06  1.409763E+06  1.632102E+05  1.962984E+06 -1.055568E+05 -7.961354E+04
       401  22  2.820679E+06  1.780765E+06  6.155992E+05  1.751214E+06 -3.368245E+05 -2.525214E+05
       401  23  2.549169E+06  1.384432E+06  2.647787E+05  1.985674E+06 -2.208633E+05 -1.663600E+05
       401  24  2.644662E+06  1.465862E+06  1.729037E+05  1.987650E+06 -1.054061E+05 -7.951062E+04
       401  25  2.935605E+06  1.734726E+06  6.292739E+05  1.749170E+06 -3.370564E+05 -2.526294E+05
       401  26  2.603078E+06  1.389457E+06  2.763953E+05  1.996985E+06 -2.208952E+05 -1.663727E+05
       401  27  2.637589E+06  1.521969E+06  1.825978E+05  2.012316E+06 -1.052555E+05 -7.940768E+04
       402   1  2.634564E+06  1.512932E+06  1.405580E+05  1.929155E+06  8.283946E+04  6.227018E+04
       402   2  2.603516E+06  1.456037E+06  6.999019E+04  1.963508E+06  5.326199E+04  3.995639E+04
       402   3  2.635210E+06  1.460249E+06  4.725041E+04  1.962860E+06  2.375208E+04  1.755357E+04
       402   4  2.652690E+06  1.508496E+06  1.432529E+05  1.930136E+06  8.282456E+04  6.225685E+04
       402   5  2.608943E+06  1.455773E+06  7.100711E+04  1.964292E+06  5.322393E+04  3.992757E+04
       402   6  2.627940E+06  1.464161E+06  4.660781E+04  1.963447E+06  2.369171E+04  1.750871E+04
       402   7  2.670817E+06  1.504061E+06  1.459479E+05  1.931117E+06  8.280967E+04  6.224352E+04
       402   8  2.614370E+06  1.455509E+06  7.202402E+04  1.965076E+06  5.318587E+04  3.989876E+04
       402   9  2.620671E+06  1.468073E+06  4.596523E+04  1.964034E+06  2.363133E+04  1.746386E+04
       402  10  2.634555E+06  1.512926E+06  1.405380E+05  1.929151E+06 -9.375848E-13 -8.078372E-10
       402  11  2.603513E+06  1.456034E+06  6.998192E+04  1.963507E+06 -3.942623E-10 -1.203093E-10
       402  12  2.635209E+06  1.460249E+06  4.724878E+04  1.962860E+06 -7.615432E-10 -6.028209E-10
       402  13  2.652682E+06  1.508490E+06  1.432329E+05  1.930132E+06  1.448123E-09  6.931317E-11
       402  14  2.608939E+06  1.455771E+06  7.099884E+04  1.964290E+06 -6.468459E-10  6.997102E-10
       402  15  2.627940E+06  1.464161E+06  4.660619E+04  1.963447E+06  9.533339E-10  1.264344E-10
       402  16  2.670809E+06  1.504055E+06  1.459278E+05  1.931113E+06  9.764627E-10 -5.855732E-11
       402  17  2.614366E+06  1.455507E+06  7.201577E+04  1.965074E+06  1.807115E-09  4.381238E-10
       402  18  2.620670E+06  1.468073E+06  4.596362E+04  1.964034E+06  1.747891E-09 -6.452273E-10
       402  19  2.634564E+06  1.512932E+06  1.405580E+05  1.929155E+06 -8.283946E+04 -6.227018E+04
       402  20  2.603516E+06  1.456037E+06  6.999019E+04  1.963508E+06 -5.326199E+04 -3.995639E+04
       402  21  2.635210E+06  1.460249E+06  4.725041E+04  1.962860E+06 -2.375208E+04 -1.755357E+04
       402  22  2.652690E+06  1.508496E+06  1.432529E+05  1.930136E+06 -8.282456E+04 -6.225685E+04
       402  23  2.608943E+06  1.455773E+06  7.100711E+04  1.964292E+06 -5.322393E+04 -3.992757E+04
       402  24  2.627940E+06  1.464161E+06  4.660781E+04  1.963447E+06 -2.369171E+04 -1.750871E+04
       402  25  2.670817E+06  1.504061E+06  1.459479E+05  1.931117E+06 -8.280967E+04 -6.224352E+04
       402  26  2.614370E+06  1.455509E+06  7.202402E+04  1.965076E+06 -5.318587E+04 -3.989876E+04
       402  27  2.620671E+06  1.468073E+06  4.596523E+04  1.964034E+06 -2.363133E+04 -1.746386E+04
       403   1  2.649417E+06  1.486644E+06  4.668372E+04  1.967055E+06  1.762432E+04  1.276761E+04
       403   2  2.644138E+06  1.485394E+06  3.608214E+04  1.975376E+06  6.829739E+03  4.389461E+03
       403   3  2.661973E+06  1.488385E+06  3.945159E+04  1.973842E+06 -3.950122E+03 -4.008527E+03
       403   4  2.629090E+06  1.469327E+06  3.923298E+04  1.955689E+06  1.757972E+04  1.273416E+04
       403   5  2.616704E+06  1.465719E+06  2.678137E+04  1.961735E+06  6.780801E+03  4.352830E+03
       403   6  2.627433E+06  1.466354E+06  2.830495E+04  1.957926E+06 -4.003198E+03 -4.048276E+03
       403   7  2.608763E+06  1.452011E+06  3.178215E+04  1.944324E+06  1.753512E+04  1.270071E+04
       403   8  2.589270E+06  1.446045E+06  1.748050E+04  1.948095E+06  6.731867E+03  4.316202E+03
       403   9  2.592895E+06  1.444323E+06  1.715820E+04  1.942011E+06 -4.056271E+03 -4.088022E+03
       403  10  2.649417E+06  1.486643E+06  4.668284E+04  1.967055E+06 -1.874468E-09  4.944414E-10
       403  11  2.644138E+06  1.485393E+06  3.608202E+04  1.975376E+06  1.561195E-09  1.750160E-09
       403  12  2.661973E+06  1.488385E+06  3.945153E+04  1.973842E+06 -2.736847E-11  1.384030E-09
       403  13  2.629090E+06  1.469327E+06  3.923210E+04  1.955689E+06  3.675183E-10  7.347068E-10
       403  14  2.616704E+06  1.465719E+06  2.678125E+04  1.961735E+06  8.800181E-10  1.398929E-09
       403  15  2.627433E+06  1.466354E+06  2.830489E+04  1.957926E+06  1.225077E-09  2.200090E-09
       403  16  2.608763E+06  1.452011E+06  3.178127E+04  1.944324E+06  2.041970E-09  1.218028E-09
       403  17  2.589270E+06  1.446045E+06  1.748038E+04  1.948095E+06  6.989120E-10  9.169716E-10
       403  18  2.592895E+06  1.444323E+06  1.715813E+04  1.942011E+06  1.967682E-09  1.554866E-09
       403  19  2.649417E+06  1.486644E+06  4.668372E+04  1.967055E+06 -1.762432E+04 -1.276761E+04
       403  20  2.644138E+06  1.485394E+06  3.608214E+04  1.975376E+06 -6.829739E+03 -4.389461E+03
       403  21  2.661973E+06  1.488385E+06  3.945159E+04  1.973842E+06  3.950122E+03  4.008527E+03
       403  22  2.629090E+06  1.469327E+06  3.923298E+04  1.955689E+06 -1.757972E+04 -1.273416E+04
       403  23  2.616704E+06  1.465719E+06  2.678137E+04  1.961735E+06 -6.780801E+03 -4.352830E+03
       403  24  2.627433E+06  1.466354E+06  2.830495E+04  1.957926E+06  4.003198E+03  4.048276E+03
       403  25  2.608763E+06  1.452011E+06  3.178215E+04  1.944324E+06 -1.753512E+04 -1.270071E+04
       403  26  2.589270E+06  1.446045E+06  1.748050E+04  1.948095E+06 -6.731867E+03 -4.316202E+03
       403  27  2.592895E+06  1.444323E+06  1.715820E+04  1.942011E+06  4.056271E+03  4.088022E+03
       404   1  2.682903E+06  1.507188E+06  5.013181E+04  1.990336E+06 -8.037489E+03 -7.351492E+03
       404   2  2.678917E+06  1.507990E+06  6.286089E+04  1.995144E+06 -2.488164E+04 -2.039400E+04
       404   3  2.719027E+06  1.532338E+06  1.023716E+05  1.978102E+06 -4.186840E+04 -3.324716E+04
       404   4  2.627900E+06  1.463154E+06  3.055731E+04  1.960877E+06 -8.126617E+03 -7.418153E+03
       404   5  2.612247E+06  1.462816E+06  4.078602E+04  1.963208E+06 -2.492282E+04 -2.042493E+04
       404   6  2.640683E+06  1.486017E+06  7.775787E+04  1.943688E+06 -4.186119E+04 -3.324240E+04
       404   7  2.572900E+06  1.419123E+06  1.098236E+04  1.931422E+06 -8.215734E+03 -7.484804E+03
       404   8  2.545582E+06  1.417644E+06  1.871052E+04  1.931276E+06 -2.496399E+04 -2.045585E+04
       404   9  2.562346E+06  1.439698E+06  5.314331E+04  1.909278E+06 -4.185399E+04 -3.323763E+04
       404  10  2.682903E+06  1.507187E+06  5.013158E+04  1.990335E+06 -7.360501E-10 -3.241007E-10
       404  11  2.678916E+06  1.507989E+06  6.285896E+04  1.995143E+06 -9.066124E-10 -4.311475E-10
       404  12  2.719025E+06  1.532337E+06  1.023663E+05  1.978101E+06 -2.094708E-09 -9.910860E-10
       404  13  2.627900E+06  1.463154E+06  3.055709E+04  1.960877E+06 -2.052047E-10  1.151251E-09
       404  14  2.612246E+06  1.462815E+06  4.078408E+04  1.963207E+06  2.979118E-09 -4.448550E-10
       404  15  2.640681E+06  1.486016E+06  7.775254E+04  1.943687E+06 -1.657741E-09 -1.119043E-09
       404  16  2.572900E+06  1.419122E+06  1.098213E+04  1.931422E+06  3.692866E-09  1.324843E-09
       404  17  2.545581E+06  1.417643E+06  1.870858E+04  1.931275E+06 -1.274920E-09 -3.028208E-10
       404  18  2.562344E+06  1.439696E+06  5.313798E+04  1.909277E+06 -5.207393E-10 -8.823755E-10
       404  19  2.682903E+06  1.507188E+06  5.013181E+04  1.990336E+06  8.037489E+03  7.351492E+03
       404  20  2.678917E+06  1.507990E+06  6.286089E+04  1.995144E+06  2.488164E+04  2.039400E+04
       404  21  2.719027E+06  1.532338E+06  1.023716E+05  1.978102E+06  4.186840E+04  3.324716E+04
       404  22  2.627900E+06  1.463154E+06  3.055731E+04  1.960877E+06  8.126617E+03  7.418153E+03
       404  23  2.612247E+06  1.462816E+06  4.078602E+04  1.963208E+06  2.492282E+04  2.042493E+04
       404  24  2.640683E+06  1.486017E+06  7.775787E+04  1.943688E+06  4.186119E+04  3.324240E+04
       404  25  2.572900E+06  1.419123E+06  1.098236E+04  1.931422E+06  8.215734E+03  7.484804E+03
       404  26  2.545582E+06  1.417644E+06  1.871052E+04  1.931276E+06  2.496399E+04  2.045585E+04
       404  27  2.562346E+06  1.439698E+06  5.314331E+04  1.909278E+06  4.185399E+04  3.323763E+04
       405   1  2.728187E+06  1.558406E+06  1.298984E+05  2.033096E+06 -5.336420E+04 -4.270657E+04
       405   2  2.709530E+06  1.502535E+06  1.816634E+05  2.031693E+06 -1.150100E+05 -8.979394E+04
       405   3  2.903212E+06  1.682963E+06  3.714411E+05  1.901906E+06 -1.781834E+05 -1.348416E+05
       405   4  2.638020E+06  1.461893E+06  9.303000E+04  1.973607E+06 -5.374279E+04 -4.298748E+04
       405   5  2.578629E+06  1.427155E+06  1.409947E+05  1.975104E+06 -1.148809E+05 -8.970037E+04
       405   6  2.731500E+06  1.628649E+06  3.265627E+05  1.848208E+06 -1.775406E+05 -1.343782E+05
       405   7  2.547863E+06  1.365392E+06  5.616020E+04  1.914130E+06 -5.412129E+04 -4.326830E+04
       405   8  2.447747E+06  1.351781E+06  1.003242E+05  1.918528E+06 -1.147518E+05 -8.960682E+04
       405   9  2.559822E+06  1.574338E+06  2.816829E+05  1.794522E+06 -1.768980E+05 -1.339148E+05
       405  10  2.728184E+06  1.558404E+06  1.298897E+05  2.033094E+06 -2.663130E-10  1.908451E-11
       405  11  2.709513E+06  1.502523E+06  1.816237E+05  2.031684E+06  6.102612E-10 -1.522947E-09
       405  12  2.903173E+06  1.682935E+06  3.713479E+05  1.901887E+06  1.206639E-09 -1.648409E-11
       405  13  2.638017E+06  1.461890E+06  9.302116E+04  1.973605E+06 -2.356758E-09 -8.645835E-10
       405  14  2.578613E+06  1.427143E+06  1.409551E+05  1.975096E+06  1.275008E-10 -5.179426E-10
       405  15  2.731461E+06  1.628621E+06  3.264701E+05  1.848189E+06  1.111644E-10 -6.545632E-11
       405  16  2.547859E+06  1.365389E+06  5.615123E+04  1.914128E+06 -9.738788E-10 -9.860986E-10
       405  17  2.447731E+06  1.351769E+06  1.002846E+05  1.918520E+06  4.618255E-10 -1.213595E-09
       405  18  2.559784E+06  1.574310E+06  2.815910E+05  1.794503E+06 -9.378268E-11 -2.230684E-10
       405  19  2.728187E+06  1.558406E+06  1.298984E+05  2.033096E+06  5.336420E+04  4.270657E+04
       405  20  2.709530E+06  1.502535E+06  1.816634E+05  2.031693E+06  1.150100E+05  8.979394E+04
       405  21  2.903212E+06  1.682963E+06  3.714411E+05  1.901906E+06  1.781834E+05  1.348416E+05
       405  22  2.638020E+06  1.461893E+06  9.303000E+04  1.973607E+06  5.374279E+04  4.298748E+04
       405  23  2.578629E+06  1.427155E+06  1.409947E+05  1.975104E+06  1.148809E+05  8.970037E+04
       405  24  2.731500E+06  1.628649E+06  3.265627E+05  1.848208E+06  1.775406E+05  1.343782E+05
       405  25  2.547863E+06  1.365392E+06  5.616020E+04  1.914130E+06  5.412129E+04  4.326830E+04
       405  26  2.447747E+06  1.351781E+06  1.003242E+05  1.918528E+06  1.147518E+05  8.960682E+04
       405  27  2.559822E+06  1.574338E+06  2.816829E+05  1.794522E+06  1.768980E+05  1.339148E+05
       406   1 -1.000725E+06 -3.290447E+05 -4.738103E+05 -3.738720E+04 -4.237937E+05 -3.204509E+03
       406   2 -9.718719E+05  2.434135E+05 -1.342595E+05 -2.852580E+04 -2.779263E+05 -9.831693E+03
       406   3 -1.129370E+06  1.402407E+05 -5.825157E+04  8.060022E+04 -1.320813E+05 -6.763728E+03
       406   4 -1.620142E+06 -4.842120E+05 -6.283923E+05  4.206576E+04 -4.262218E+05 -3.256808E+03
       406   5 -1.526520E+06  1.048688E+05 -2.715826E+05 -7.879740E+03 -2.781700E+05 -9.841443E+03
       406   6 -1.619827E+06  1.759539E+04 -1.800262E+05  4.244422E+04 -1.301250E+05 -6.754837E+03
       406   7 -2.239197E+06 -6.393845E+05 -7.829999E+05  1.214394E+05 -4.286473E+05 -3.309776E+03
       406   8 -2.080888E+06 -3.369725E+04 -4.089283E+05  1.274785E+04 -2.784134E+05 -9.851217E+03
       406   9 -2.110063E+06 -1.050626E+05 -3.018180E+05  4.318403E+03 -1.281701E+05 -6.746182E+03
       406  10 -1.000918E+06 -3.290931E+05 -4.741484E+05 -3.738830E+04  1.627256E-10 -6.815325E-10
       406  11 -9.719550E+05  2.433926E+05 -1.344051E+05 -2.852801E+04  1.659496E-11 -1.460804E-09
       406  12 -1.129389E+06  1.402360E+05 -5.828450E+04  8.059950E+04  1.077638E-10 -8.228630E-11
       406  13 -1.620337E+06 -4.842609E+05 -6.287346E+05  4.206465E+04  1.111486E-12  1.841670E-10
       406  14 -1.526604E+06  1.048479E+05 -2.717285E+05 -7.881947E+03  9.064463E-10 -1.233462E-09
       406  15 -1.619846E+06  1.759078E+04 -1.800582E+05  4.244351E+04 -6.748558E-10  5.843621E-10
       406  16 -2.239395E+06 -6.394341E+05 -7.833464E+05  1.214382E+05 -1.437158E-09 -6.851973E-10
       406  17 -2.080972E+06 -3.371826E+04 -4.090747E+05  1.274563E+04 -2.181432E-09 -1.500862E-09
       406  18 -2.110080E+06 -1.050670E+05 -3.018491E+05  4.317706E+03 -6.625025E-10 -4.635229E-10
       406  19 -1.000725E+06 -3.290447E+05 -4.738103E+05 -3.738720E+04  4.237937E+05  3.204509E+03
       406  20 -9.718719E+05  2.434135E+05 -1.342595E+05 -2.852580E+04  2.779263E+05  9.831693E+03
       406  21 -1.129370E+06  1.402407E+05 -5.825157E+04  8.060022E+04  1.320813E+05  6.763728E+03
       406  22 -1.620142E+06 -4.842120E+05 -6.283923E+05  4.206576E+04  4.262218E+05  3.256808E+03
       406  23 -1.526520E+06  1.048688E+05 -2.715826E+05 -7.879740E+03  2.781700E+05  9.841443E+03
       406  24 -1.619827E+06  1.759539E+04 -1.800262E+05  4.244422E+04  1.301250E+05  6.754837E+03
       406  25 -2.239197E+06 -6.393845E+05 -7.829999E+05  1.214394E+05  4.286473E+05  3.309776E+03
       406  26 -2.080888E+06 -3.369725E+04 -4.089283E+05  1.274785E+04  2.784134E+05  9.851217E+03
       406  27 -2.110063E+06 -1.050626E+05 -3.018180E+05  4.318403E+03  1.281701E+05  6.746182E+03
       407   1 -1.365245E+06 -1.375060E+04 -9.664443E+04  3.357506E+04 -1.007155E+05 -3.876398E+03
       407   2 -1.419706E+06  5.379125E+04 -4.417364E+04 -1.284447E+04 -5.868772E+04 -2.531917E+03
       407   3 -1.506126E+06  1.608250E+04 -4.544507E+04  5.110301E+04 -1.666558E+04 -4.285053E+01
       407   4 -1.585440E+06 -6.874888E+04 -1.511892E+05  4.463979E+04 -1.005173E+05 -3.878138E+03
       407   5 -1.569403E+06  1.638838E+04 -8.127350E+04 -1.057103E+04 -5.822899E+04 -2.531726E+03
       407   6 -1.585387E+06 -3.785807E+03 -6.529516E+04  4.458767E+04 -1.594161E+04 -4.178931E+01
       407   7 -1.805591E+06 -1.237503E+05 -2.057376E+05  5.570057E+04 -1.003191E+05 -3.879871E+03
       407   8 -1.719081E+06 -2.101615E+04 -1.183750E+05 -8.298142E+03 -5.777036E+04 -2.531531E+03
       407   9 -1.664643E+06 -2.365443E+04 -8.514571E+04  3.807317E+04 -1.521774E+04 -4.074324E+01
       407  10 -1.365256E+06 -1.375334E+04 -9.666356E+04  3.357475E+04  7.761028E-10 -1.512975E-10
       407  11 -1.419710E+06  5.379032E+04 -4.418014E+04 -1.284459E+04 -6.421457E-10  4.956682E-10
       407  12 -1.506126E+06  1.608242E+04 -4.544559E+04  5.110301E+04  1.574949E-10  2.792353E-12
       407  13 -1.585451E+06 -6.875161E+04 -1.512083E+05  4.463948E+04 -1.135070E-09  1.170802E-09
       407  14 -1.569407E+06  1.638746E+04 -8.127990E+04 -1.057115E+04 -2.542698E-10  1.993010E-09
       407  15 -1.585388E+06 -3.785875E+03 -6.529564E+04  4.458767E+04 -4.612485E-10 -6.320496E-10
       407  16 -1.805601E+06 -1.237531E+05 -2.057566E+05  5.570025E+04  2.114142E-10 -1.988850E-10
       407  17 -1.719084E+06 -2.101706E+04 -1.183813E+05 -8.298260E+03 -1.349110E-09  2.000333E-09
       407  18 -1.664643E+06 -2.365449E+04 -8.514614E+04  3.807317E+04  1.492617E-10  6.217759E-10
       407  19 -1.365245E+06 -1.375060E+04 -9.664443E+04  3.357506E+04  1.007155E+05  3.876398E+03
       407  20 -1.419706E+06  5.379125E+04 -4.417364E+04 -1.284447E+04  5.868772E+04  2.531917E+03
       407  21 -1.506126E+06  1.608250E+04 -4.544507E+04  5.110301E+04  1.666558E+04  4.285053E+01
       407  22 -1.585440E+06 -6.874888E+04 -1.511892E+05  4.463979E+04  1.005173E+05  3.878138E+03
       407  23 -1.569403E+06  1.638838E+04 -8.127350E+04 -1.057103E+04  5.822899E+04  2.531726E+03
       407  24 -1.585387E+06 -3.785807E+03 -6.529516E+04  4.458767E+04  1.594161E+04  4.178931E+01
       407  25 -1.805591E+06 -1.237503E+05 -2.057376E+05  5.570057E+04  1.003191E+05  3.879871E+03
       407  26 -1.719081E+06 -2.101615E+04 -1.183750E+05 -8.298142E+03  5.777036E+04  2.531531E+03
       407  27 -1.664643E+06 -2.365443E+04 -8.514571E+04  3.807317E+04  1.521774E+04  4.074324E+01
       408   1 -1.783938E+06 -5.812755E+04 -1.121941E+05  3.904961E+04 -5.244410E+03  1.881180E+03
       408   2 -1.841629E+06 -5.546150E+04 -1.303426E+05 -8.863727E+03  2.797479E+04  4.394045E+03
       408   3 -1.922810E+06 -1.299442E+05 -1.894232E+05  5.197913E+04  6.119311E+04  5.500097E+03
       408   4 -1.583493E+06 -7.966069E+03 -6.227949E+04  4.424273E+04 -4.484058E+03  1.881997E+03
       408   5 -1.571790E+06  1.198735E+04 -6.343596E+04 -1.012771E+04  2.840985E+04  4.394206E+03
       408   6 -1.583513E+06 -4.513237E+04 -1.052849E+05  4.425585E+04  6.130656E+04  5.499187E+03
       408   7 -1.383011E+06  4.219248E+04 -1.236785E+04  4.943751E+04 -3.723459E+03  1.882827E+03
       408   8 -1.301885E+06  7.943075E+04  3.465289E+03 -1.139225E+04  2.884509E+04  4.394365E+03
       408   9 -1.244112E+06  3.967108E+04 -2.115523E+04  3.652832E+04  6.142008E+04  5.498274E+03
       408  10 -1.783938E+06 -5.812756E+04 -1.121942E+05  3.904962E+04 -3.307305E-10  1.226428E-09
       408  11 -1.841630E+06 -5.546174E+04 -1.303442E+05 -8.863826E+03 -7.772417E-11 -1.273622E-10
       408  12 -1.922814E+06 -1.299453E+05 -1.894303E+05  5.197886E+04  7.873704E-10  3.560825E-10
       408  13 -1.583493E+06 -7.966078E+03 -6.227953E+04  4.424273E+04 -3.314139E-11 -4.395613E-10
       408  14 -1.571791E+06  1.198712E+04 -6.343752E+04 -1.012781E+04 -1.217074E-09 -8.835059E-11
       408  15 -1.583517E+06 -4.513341E+04 -1.052921E+05  4.425558E+04 -1.671617E-09 -1.587810E-10
       408  16 -1.383011E+06  4.219247E+04 -1.236789E+04  4.943752E+04  4.876881E-10 -6.742498E-10
       408  17 -1.301886E+06  7.943051E+04  3.463686E+03 -1.139235E+04  3.841470E-10 -6.746838E-10
       408  18 -1.244116E+06  3.967003E+04 -2.116239E+04  3.652804E+04  1.571399E-10  1.780821E-10
       408  19 -1.783938E+06 -5.812755E+04 -1.121941E+05  3.904961E+04  5.244410E+03 -1.881180E+03
       408  20 -1.841629E+06 -5.546150E+04 -1.303426E+05 -8.863727E+03 -2.797479E+04 -4.394045E+03
       408  21 -1.922810E+06 -1.299442E+05 -1.894232E+05  5.197913E+04 -6.119311E+04 -5.500097E+03
       408  22 -1.583493E+06 -7.966069E+03 -6.227949E+04  4.424273E+04  4.484058E+03 -1.881997E+03
       408  23 -1.571790E+06  1.198735E+04 -6.343596E+04 -1.012771E+04 -2.840985E+04 -4.394206E+03
       408  24 -1.583513E+06 -4.513237E+04 -1.052849E+05  4.425585E+04 -6.130656E+04 -5.499187E+03
       408  25 -1.383011E+06  4.219248E+04 -1.236785E+04  4.943751E+04  3.723459E+03 -1.882827E+03
       408  26 -1.301885E+06  7.943075E+04  3.465289E+03 -1.139225E+04 -2.884509E+04 -4.394365E+03
       408  27 -1.244112E+06  3.967108E+04 -2.115523E+04  3.652832E+04 -6.142008E+04 -5.498274E+03
       409   1 -2.206916E+06 -1.396110E+05 -2.721791E+05  1.634476E+04  7.959109E+04  8.502902E+03
       409   2 -2.207143E+06 -9.653615E+04 -3.450551E+05  7.290743E+03  1.805751E+05  1.160977E+04
       409   3 -2.330059E+06 -5.003566E+05 -5.950896E+05  9.389232E+04  2.815401E+05  3.804170E+03
       409   4 -1.605461E+06  1.081709E+04 -1.228104E+05  4.146065E+04  8.169626E+04  8.505911E+03
       409   5 -1.544508E+06  6.912683E+04 -1.808621E+05 -6.605643E+03  1.801587E+05  1.160533E+04
       409   6 -1.605670E+06 -3.187673E+05 -4.141785E+05  4.098520E+04  2.786126E+05  3.784632E+03
       409   7 -1.003675E+06  1.612204E+05  2.653166E+04  6.660094E+04  8.380345E+04  8.509088E+03
       409   8 -8.814716E+05  2.347576E+05 -1.670184E+04 -2.051685E+04  1.797418E+05  1.160091E+04
       409   9 -8.807983E+05 -1.372074E+05 -2.333055E+05 -1.198371E+04  2.756816E+05  3.765616E+03
       409  10 -2.206923E+06 -1.396128E+05 -2.721912E+05  1.634422E+04  4.610736E-10  3.077069E-10
       409  11 -2.207179E+06 -9.654509E+04 -3.451169E+05  7.289052E+03 -8.464946E-11  2.826644E-10
       409  12 -2.330145E+06 -5.003780E+05 -5.952391E+05  9.389146E+04 -2.028488E-10 -5.785856E-10
       409  13 -1.605468E+06  1.081522E+04 -1.228231E+05  4.146009E+04  2.715260E-09 -1.033683E-10
       409  14 -1.544543E+06  6.911795E+04 -1.809235E+05 -6.607328E+03 -1.210749E-09 -6.830258E-11
       409  15 -1.605754E+06 -3.187883E+05 -4.143248E+05  4.098435E+04 -3.821624E-10  5.297589E-10
       409  16 -1.003683E+06  1.612184E+05  2.651830E+04  6.660037E+04  9.953804E-10  5.720485E-11
       409  17 -8.815063E+05  2.347487E+05 -1.676290E+04 -2.051853E+04  3.824824E-10  1.162435E-10
       409  18 -8.808800E+05 -1.372278E+05 -2.334486E+05 -1.198455E+04 -5.672578E-10 -1.420294E-09
       409  19 -2.206916E+06 -1.396110E+05 -2.721791E+05  1.634476E+04 -7.959109E+04 -8.502902E+03
       409  20 -2.207143E+06 -9.653615E+04 -3.450551E+05  7.290743E+03 -1.805751E+05 -1.160977E+04
       409  21 -2.330059E+06 -5.003566E+05 -5.950896E+05  9.389232E+04 -2.815401E+05 -3.804170E+03
       409  22 -1.605461E+06  1.081709E+04 -1.228104E+05  4.146065E+04 -8.169626E+04 -8.505911E+03
       409  23 -1.544508E+06  6.912683E+04 -1.808621E+05 -6.605643E+03 -1.801587E+05 -1.160533E+04
       409  24 -1.605670E+06 -3.187673E+05 -4.141785E+05  4.098520E+04 -2.786126E+05 -3.784632E+03
       409  25 -1.003675E+06  1.612204E+05  2.653166E+04  6.660094E+04 -8.380345E+04 -8.509088E+03
       409  26 -8.814716E+05  2.347576E+05 -1.670184E+04 -2.051685E+04 -1.797418E+05 -1.160091E+04
       409  27 -8.807983E+05 -1.372074E+05 -2.333055E+05 -1.198371E+04 -2.756816E+05 -3.765616E+03
       410   1 -7.926040E+05 -3.179014E+06 -9.827879E+05  1.704277E+05 -4.983479E+03 -5.267024E+05
       410   2 -1.091788E+04 -2.942546E+06 -5.123030E+05  5.151988E+03 -1.147491E+04 -3.252860E+05
       410   3 -1.121864E+05 -2.952663E+06 -3.939222E+05  1.695567E+04 -6.162068E+03 -1.238680E+05
       410   4 -6.164102E+05 -2.474574E+06 -8.067782E+05  6.931467E+04 -4.892294E+03 -5.240255E+05
       410   5  1.368415E+05 -2.351333E+06 -3.657458E+05 -1.970339E+04 -1.146056E+04 -3.252389E+05
       410   6  8.044119E+03 -2.473967E+06 -2.747026E+05  6.837554E+04 -6.179723E+03 -1.264882E+05
       410   7 -4.402151E+05 -1.769661E+06 -6.308003E+05 -3.191376E+04 -4.802074E+03 -5.213453E+05
       410   8  2.845770E+05 -1.759800E+06 -2.192144E+05 -4.458273E+04 -1.144623E+04 -3.251917E+05
       410   9  1.282671E+05 -1.995057E+06 -1.554988E+05  1.198351E+05 -6.197804E+03 -1.291105E+05
       410  10 -7.926789E+05 -3.179313E+06 -9.833119E+05  1.704256E+05  1.828802E-10  1.144873E-09
       410  11 -1.094660E+04 -2.942660E+06 -5.125030E+05  5.148978E+03  2.511151E-11  2.503193E-09
       410  12 -1.121906E+05 -2.952680E+06 -3.939512E+05  1.695506E+04 -2.434498E-09 -1.077904E-09
       410  13 -6.164843E+05 -2.474870E+06 -8.072963E+05  6.931261E+04  7.009422E-10  1.984137E-09
       410  14  1.368128E+05 -2.351447E+06 -3.659456E+05 -1.970640E+04  2.706779E-09 -8.265012E-10
       410  15  8.039761E+03 -2.473984E+06 -2.747328E+05  6.837491E+04 -3.154039E-10 -1.402510E-09
       410  16 -4.402884E+05 -1.769954E+06 -6.313126E+05 -3.191579E+04 -1.127883E-09 -9.494672E-10
       410  17  2.845484E+05 -1.759914E+06 -2.194140E+05 -4.458573E+04 -6.555308E-10  2.154444E-10
       410  18  1.282626E+05 -1.995075E+06 -1.555303E+05  1.198344E+05 -1.799156E-09 -1.034691E-09
       410  19 -7.926040E+05 -3.179014E+06 -9.827879E+05  1.704277E+05  4.983479E+03  5.267024E+05
       410  20 -1.091788E+04 -2.942546E+06 -5.123030E+05  5.151988E+03  1.147491E+04  3.252860E+05
       410  21 -1.121864E+05 -2.952663E+06 -3.939222E+05  1.695567E+04  6.162068E+03  1.238680E+05
       410  22 -6.164102E+05 -2.474574E+06 -8.067782E+05  6.931467E+04  4.892294E+03  5.240255E+05
       410  23  1.368415E+05 -2.351333E+06 -3.657458E+05 -1.970339E+04  1.146056E+04  3.252389E+05
       410  24  8.044119E+03 -2.473967E+06 -2.747026E+05  6.837554E+04  6.179723E+03  1.264882E+05
       410  25 -4.402151E+05 -1.769661E+06 -6.308003E+05 -3.191376E+04  4.802074E+03  5.213453E+05
       410  26  2.845770E+05 -1.759800E+06 -2.192144E+05 -4.458273E+04  1.144623E+04  3.251917E+05
       410  27  1.282671E+05 -1.995057E+06 -1.554988E+05  1.198351E+05  6.197804E+03  1.291105E+05
       411   1 -8.623204E+04 -2.450489E+06 -2.535977E+05  9.358095E+04 -1.501981E+03 -7.877223E+04
       411   2  7.015266E+04 -2.289017E+06 -1.732677E+05 -2.312625E+04  1.786735E+03  2.548241E+04
       411   3 -5.235504E+04 -2.212240E+06 -2.309579E+05  4.714396E+04  4.659081E+03  1.297587E+05
       411   4 -8.338185E+04 -2.438250E+06 -2.507586E+05  7.100376E+04 -1.501502E+03 -7.952711E+04
       411   5  4.342396E+04 -2.395893E+06 -1.997899E+05 -2.246239E+04  1.784817E+03  2.481787E+04
       411   6 -1.087049E+05 -2.438277E+06 -2.869160E+05  7.105538E+04  4.662572E+03  1.291646E+05
       411   7 -8.052974E+04 -2.426009E+06 -2.479192E+05  4.842613E+04 -1.500967E+03 -8.028201E+04
       411   8  1.669440E+04 -2.502759E+06 -2.263130E+05 -2.179865E+04  1.782897E+03  2.415344E+04
       411   9 -1.650563E+05 -2.664266E+06 -3.428775E+05  9.495803E+04  4.666018E+03  1.285706E+05
       411  10 -8.623372E+04 -2.450496E+06 -2.536095E+05  9.358085E+04 -2.131677E-09  2.311295E-09
       411  11  7.015248E+04 -2.289018E+06 -1.732690E+05 -2.312629E+04 -1.266997E-09  6.383984E-09
       411  12 -5.235961E+04 -2.212258E+06 -2.309897E+05  4.714347E+04  9.865887E-10  1.244566E-09
       411  13 -8.338356E+04 -2.438257E+06 -2.507706E+05  7.100366E+04 -4.782509E-10  3.646770E-09
       411  14  4.342379E+04 -2.395894E+06 -1.997911E+05 -2.246243E+04 -3.078578E-10  7.113751E-10
       411  15 -1.087094E+05 -2.438295E+06 -2.869475E+05  7.105490E+04 -1.985963E-09 -7.023801E-10
       411  16 -8.053148E+04 -2.426016E+06 -2.479314E+05  4.842603E+04 -1.259913E-09 -2.207588E-09
       411  17  1.669424E+04 -2.502759E+06 -2.263141E+05 -2.179869E+04  3.542403E-09 -2.289851E-09
       411  18 -1.650608E+05 -2.664284E+06 -3.429088E+05  9.495755E+04  9.370144E-10 -3.248761E-09
       411  19 -8.623204E+04 -2.450489E+06 -2.535977E+05  9.358095E+04  1.501981E+03  7.877223E+04
       411  20  7.015266E+04 -2.289017E+06 -1.732677E+05 -2.312625E+04 -1.786735E+03 -2.548241E+04
       411  21 -5.235504E+04 -2.212240E+06 -2.309579E+05  4.714396E+04 -4.659081E+03 -1.297587E+05
       411  22 -8.338185E+04 -2.438250E+06 -2.507586E+05  7.100376E+04  1.501502E+03  7.952711E+04
       411  23  4.342396E+04 -2.395893E+06 -1.997899E+05 -2.246239E+04 -1.784817E+03 -2.481787E+04
       411  24 -1.087049E+05 -2.438277E+06 -2.869160E+05  7.105538E+04 -4.662572E+03 -1.291646E+05
       411  25 -8.052974E+04 -2.426009E+06 -2.479192E+05  4.842613E+04  1.500967E+03  8.028201E+04
       411  26  1.669440E+04 -2.502759E+06 -2.263130E+05 -2.179865E+04 -1.782897E+03 -2.415344E+04
       411  27 -1.650563E+05 -2.664266E+06 -3.428775E+05  9.495803E+04 -4.666018E+03 -1.285706E+05
       412   1  1.890726E+05 -1.805624E+06 -1.551356E+05  1.310106E+05  9.572631E+03  1.868027E+05
       412   2  3.701253E+05 -1.544514E+06 -2.599571E+05 -4.958051E+04  1.477890E+04  4.315579E+05
       412   3 -5.625692E+05 -1.591302E+06 -8.020760E+05 -6.218449E+04  5.466178E+03  6.763930E+05
       412   4  1.794862E+04 -2.488002E+06 -3.248166E+05  6.645286E+04  9.546494E+03  1.838077E+05
       412   5  1.729334E+05 -2.333921E+06 -4.555269E+05 -1.729268E+04  1.480345E+04  4.317435E+05
       412   6 -7.871893E+05 -2.488756E+06 -1.026177E+06  6.695685E+04  5.610010E+03  6.797155E+05
       412   7 -1.531951E+05 -3.169947E+06 -4.945304E+05  1.966001E+03  9.520960E+03  1.808159E+05
       412   8 -2.430125E+04 -3.122758E+06 -6.511427E+05  1.495375E+04  1.482803E+04  4.319286E+05
       412   9 -1.011807E+06 -3.385442E+06 -1.250329E+06  1.959109E+05  5.755410E+03  6.830327E+05
       412  10  1.890631E+05 -1.805661E+06 -1.552016E+05  1.310092E+05 -4.209954E-10  1.447607E-09
       412  11  3.700749E+05 -1.544714E+06 -2.603084E+05 -4.958565E+04  5.100719E-10  2.685704E-09
       412  12 -5.626925E+05 -1.591795E+06 -8.029381E+05 -6.218749E+04 -5.811009E-11  1.285811E-11
       412  13  1.793940E+04 -2.488038E+06 -3.248805E+05  6.645145E+04  1.004941E-09  2.226715E-09
       412  14  1.728829E+05 -2.334122E+06 -4.558790E+05 -1.729784E+04 -6.463245E-11  4.450444E-10
       412  15 -7.873140E+05 -2.489254E+06 -1.027048E+06  6.695378E+04 -3.901146E-11 -5.281347E-10
       412  16 -1.532040E+05 -3.169982E+06 -4.945923E+05  1.964613E+03 -3.473593E-10 -4.077488E-10
       412  17 -2.435191E+04 -3.122959E+06 -6.514956E+05  1.494859E+04  4.045013E-10 -1.886659E-10
       412  18 -1.011933E+06 -3.385946E+06 -1.251210E+06  1.959078E+05  1.192320E-09 -6.788642E-10
       412  19  1.890726E+05 -1.805624E+06 -1.551356E+05  1.310106E+05 -9.572631E+03 -1.868027E+05
       412  20  3.701253E+05 -1.544514E+06 -2.599571E+05 -4.958051E+04 -1.477890E+04 -4.315579E+05
       412  21 -5.625692E+05 -1.591302E+06 -8.020760E+05 -6.218449E+04 -5.466178E+03 -6.763930E+05
       412  22  1.794862E+04 -2.488002E+06 -3.248166E+05  6.645286E+04 -9.546494E+03 -1.838077E+05
       412  23  1.729334E+05 -2.333921E+06 -4.555269E+05 -1.729268E+04 -1.480345E+04 -4.317435E+05
       412  24 -7.871893E+05 -2.488756E+06 -1.026177E+06  6.695685E+04 -5.610010E+03 -6.797155E+05
       412  25 -1.531951E+05 -3.169947E+06 -4.945304E+05  1.966001E+03 -9.520960E+03 -1.808159E+05
       412  26 -2.430125E+04 -3.122758E+06 -6.511427E+05  1.495375E+04 -1.482803E+04 -4.319286E+05
       412  27 -1.011807E+06 -3.385442E+06 -1.250329E+06  1.959109E+05 -5.755410E+03 -6.830327E+05
       413   1  5.134104E+06  3.551701E+06  1.276693E+06  3.270498E+06  6.996629E+05  5.238090E+05
       413   2  4.699577E+06  2.599983E+06  5.497284E+05  3.717804E+06  4.592112E+05  3.437055E+05
       413   3  4.996325E+06  2.667105E+06  3.594178E+05  3.691579E+06  2.186203E+05  1.637371E+05
       413   4  5.289741E+06  3.396597E+06  1.276808E+06  3.225008E+06  6.997998E+05  5.236301E+05
       413   5  4.742401E+06  2.561220E+06  5.505297E+05  3.707086E+06  4.592510E+05  3.436872E+05
       413   6  4.926324E+06  2.744601E+06  3.608847E+05  3.715636E+06  2.186310E+05  1.637873E+05
       413   7  5.445450E+06  3.241575E+06  1.276936E+06  3.179498E+06  6.999367E+05  5.234512E+05
       413   8  4.785231E+06  2.522462E+06  5.513318E+05  3.696366E+06  4.592907E+05  3.436688E+05
       413   9  4.856339E+06  2.822117E+06  3.623548E+05  3.739688E+06  2.186418E+05  1.638374E+05
       413  10  5.133511E+06  3.551280E+06  1.275275E+06  3.270206E+06  2.075885E-10 -5.229088E-10
       413  11  4.699321E+06  2.599802E+06  5.491177E+05  3.717678E+06  8.566279E-10 -1.838598E-11
       413  12  4.996267E+06  2.667063E+06  3.592793E+05  3.691551E+06  2.253324E-10 -2.458395E-09
       413  13  5.289148E+06  3.396176E+06  1.275389E+06  3.224715E+06  9.063549E-10 -1.760541E-10
       413  14  4.742146E+06  2.561038E+06  5.499189E+05  3.706959E+06 -5.773416E-09 -1.126425E-09
       413  15  4.926266E+06  2.744560E+06  3.607462E+05  3.715607E+06  2.594846E-09  9.017621E-12
       413  16  5.444857E+06  3.241154E+06  1.275518E+06  3.179205E+06  2.133721E-10  8.682141E-11
       413  17  4.784975E+06  2.522280E+06  5.507210E+05  3.696239E+06 -1.756483E-09 -1.907123E-10
       413  18  4.856281E+06  2.822076E+06  3.622162E+05  3.739659E+06  5.186508E-09  2.299263E-09
       413  19  5.134104E+06  3.551701E+06  1.276693E+06  3.270498E+06 -6.996629E+05 -5.238090E+05
       413  20  4.699577E+06  2.599983E+06  5.497284E+05  3.717804E+06 -4.592112E+05 -3.437055E+05
       413  21  4.996325E+06  2.667105E+06  3.594178E+05  3.691579E+06 -2.186203E+05 -1.637371E+05
       413  22  5.289741E+06  3.396597E+06  1.276808E+06  3.225008E+06 -6.997998E+05 -5.236301E+05
       413  23  4.742401E+06  2.561220E+06  5.505297E+05  3.707086E+06 -4.592510E+05 -3.436872E+05
       413  24  4.926324E+06  2.744601E+06  3.608847E+05  3.715636E+06 -2.186310E+05 -1.637873E+05
       413  25  5.445450E+06  3.241575E+06  1.276936E+06  3.179498E+06 -6.999367E+05 -5.234512E+05
       413  26  4.785231E+06  2.522462E+06  5.513318E+05  3.696366E+06 -4.592907E+05 -3.436688E+05
       413  27  4.856339E+06  2.822117E+06  3.623548E+05  3.739688E+06 -2.186418E+05 -1.638374E+05
       414   1  4.908515E+06  2.843977E+06  2.954670E+05  3.595930E+06  1.708487E+05  1.281256E+05
       414   2  4.844501E+06  2.702885E+06  1.466246E+05  3.656620E+06  1.071963E+05  8.062033E+04
       414   3  4.884687E+06  2.716795E+06  9.887761E+04  3.652128E+06  4.350190E+04  3.317516E+04
       414   4  4.943143E+06  2.832354E+06  3.000030E+05  3.596361E+06  1.708704E+05  1.281324E+05
       414   5  4.865759E+06  2.709426E+06  1.520970E+05  3.663195E+06  1.072260E+05  8.064117E+04
       414   6  4.892571E+06  2.741492E+06  1.052743E+05  3.664849E+06  4.354175E+04  3.320624E+04
       414   7  4.977773E+06  2.820732E+06  3.045393E+05  3.596791E+06  1.708921E+05  1.281393E+05
       414   8  4.887019E+06  2.715966E+06  1.575694E+05  3.669771E+06  1.072557E+05  8.066201E+04
       414   9  4.900455E+06  2.766191E+06  1.116710E+05  3.677571E+06  4.358161E+04  3.323733E+04
       414  10  4.908479E+06  2.843952E+06  2.953823E+05  3.595912E+06  1.069911E-09 -1.270067E-09
       414  11  4.844487E+06  2.702875E+06  1.465912E+05  3.656613E+06  5.012514E-09  7.743105E-10
       414  12  4.884685E+06  2.716793E+06  9.887205E+04  3.652127E+06  1.835871E-09 -1.746119E-10
       414  13  4.943107E+06  2.832329E+06  2.999183E+05  3.596343E+06  2.440101E-09  4.368090E-11
       414  14  4.865746E+06  2.709416E+06  1.520636E+05  3.663188E+06  3.104115E-09  8.038922E-10
       414  15  4.892568E+06  2.741491E+06  1.052687E+05  3.664848E+06  1.436681E-09 -1.389070E-10
       414  16  4.977737E+06  2.820707E+06  3.044546E+05  3.596774E+06  2.775876E-09  1.378823E-09
       414  17  4.887005E+06  2.715956E+06  1.575359E+05  3.669764E+06  4.862642E-10 -8.282874E-10
       414  18  4.900453E+06  2.766189E+06  1.116654E+05  3.677570E+06  5.009174E-09  2.710739E-09
       414  19  4.908515E+06  2.843977E+06  2.954670E+05  3.595930E+06 -1.708487E+05 -1.281256E+05
       414  20  4.844501E+06  2.702885E+06  1.466246E+05  3.656620E+06 -1.071963E+05 -8.062033E+04
       414  21  4.884687E+06  2.716795E+06  9.887761E+04  3.652128E+06 -4.350190E+04 -3.317516E+04
       414  22  4.943143E+06  2.832354E+06  3.000030E+05  3.596361E+06 -1.708704E+05 -1.281324E+05
       414  23  4.865759E+06  2.709426E+06  1.520970E+05  3.663195E+06 -1.072260E+05 -8.064117E+04
       414  24  4.892571E+06  2.741492E+06  1.052743E+05  3.664849E+06 -4.354175E+04 -3.320624E+04
       414  25  4.977773E+06  2.820732E+06  3.045393E+05  3.596791E+06 -1.708921E+05 -1.281393E+05
       414  26  4.887019E+06  2.715966E+06  1.575694E+05  3.669771E+06 -1.072557E+05 -8.066201E+04
       414  27  4.900455E+06  2.766191E+06  1.116710E+05  3.677571E+06 -4.358161E+04 -3.323733E+04
       415   1  4.855798E+06  2.733618E+06  8.111597E+04  3.635245E+06  2.911596E+04  2.253825E+04
       415   2  4.844214E+06  2.699540E+06  6.085256E+04  3.638857E+06 -1.162372E+03  1.191774E+02
       415   3  4.854705E+06  2.718275E+06  7.891704E+04  3.627594E+06 -3.149362E+04 -2.222761E+04
       415   4  4.893366E+06  2.752891E+06  9.231728E+04  3.650424E+06  2.914519E+04  2.255978E+04
       415   5  4.882410E+06  2.726634E+06  7.370443E+04  3.657752E+06 -1.118079E+03  1.523034E+02
       415   6  4.893525E+06  2.753183E+06  9.340436E+04  3.650206E+06 -3.143430E+04 -2.218359E+04
       415   7  4.930936E+06  2.772166E+06  1.035184E+05  3.665604E+06  2.917442E+04  2.258132E+04
       415   8  4.920608E+06  2.753729E+06  8.655609E+04  3.676649E+06 -1.073782E+03  1.854322E+02
       415   9  4.932346E+06  2.788093E+06  1.078914E+05  3.672820E+06 -3.137497E+04 -2.213958E+04
       415  10  4.855797E+06  2.733617E+06  8.111345E+04  3.635245E+06 -1.882561E-09 -7.545335E-10
       415  11  4.844214E+06  2.699540E+06  6.085256E+04  3.638857E+06  4.412819E-10  2.731230E-10
       415  12  4.854704E+06  2.718274E+06  7.891428E+04  3.627593E+06 -2.627491E-10  6.052180E-10
       415  13  4.893365E+06  2.752891E+06  9.231475E+04  3.650424E+06  3.224776E-09 -3.157955E-10
       415  14  4.882410E+06  2.726634E+06  7.370443E+04  3.657752E+06  1.273768E-09 -4.720422E-11
       415  15  4.893524E+06  2.753183E+06  9.340161E+04  3.650206E+06 -1.050808E-09 -3.108649E-10
       415  16  4.930935E+06  2.772165E+06  1.035159E+05  3.665603E+06  2.885253E-09  1.352494E-09
       415  17  4.920608E+06  2.753729E+06  8.655609E+04  3.676649E+06  1.108624E-09  3.563599E-10
       415  18  4.932345E+06  2.788092E+06  1.078887E+05  3.672820E+06  3.284395E-09 -1.354826E-13
       415  19  4.855798E+06  2.733618E+06  8.111597E+04  3.635245E+06 -2.911596E+04 -2.253825E+04
       415  20  4.844214E+06  2.699540E+06  6.085256E+04  3.638857E+06  1.162372E+03 -1.191774E+02
       415  21  4.854705E+06  2.718275E+06  7.891704E+04  3.627594E+06  3.149362E+04  2.222761E+04
       415  22  4.893366E+06  2.752891E+06  9.231728E+04  3.650424E+06 -2.914519E+04 -2.255978E+04
       415  23  4.882410E+06  2.726634E+06  7.370443E+04  3.657752E+06  1.118079E+03 -1.523034E+02
       415  24  4.893525E+06  2.753183E+06  9.340436E+04  3.650206E+06  3.143430E+04  2.218359E+04
       415  25  4.930936E+06  2.772166E+06  1.035184E+05  3.665604E+06 -2.917442E+04 -2.258132E+04
       415  26  4.920608E+06  2.753729E+06  8.655609E+04  3.676649E+06  1.073782E+03 -1.854322E+02
       415  27  4.932346E+06  2.788093E+06  1.078914E+05  3.672820E+06  3.137497E+04  2.213958E+04
       416   1  4.808120E+06  2.706268E+06  8.327596E+04  3.634681E+06 -4.621664E+04 -3.292145E+04
       416   2  4.794550E+06  2.643506E+06  1.283269E+05  3.621332E+06 -1.112666E+05 -8.105359E+04
       416   3  4.873756E+06  2.752800E+06  2.765338E+05  3.545455E+06 -1.761895E+05 -1.293577E+05
       416   4  4.889646E+06  2.744535E+06  1.068769E+05  3.665974E+06 -4.612197E+04 -3.284933E+04
       416   5  4.869099E+06  2.705035E+06  1.551043E+05  3.662206E+06 -1.112229E+05 -8.102242E+04
       416   6  4.941323E+06  2.837583E+06  3.065191E+05  3.595915E+06 -1.761954E+05 -1.293719E+05
       416   7  4.971180E+06  2.782804E+06  1.304773E+05  3.697271E+06 -4.602728E+04 -3.277720E+04
       416   8  4.943654E+06  2.766568E+06  1.818809E+05  3.703086E+06 -1.111792E+05 -8.099124E+04
       416   9  5.008895E+06  2.922375E+06  3.365035E+05  3.646382E+06 -1.762013E+05 -1.293861E+05
       416  10  4.808117E+06  2.706266E+06  8.326998E+04  3.634680E+06  2.578339E-09 -7.705992E-11
       416  11  4.794535E+06  2.643496E+06  1.282917E+05  3.621324E+06 -1.399212E-09  4.059417E-10
       416  12  4.873718E+06  2.752774E+06  2.764451E+05  3.545437E+06 -3.541288E-09  4.856615E-10
       416  13  4.889644E+06  2.744534E+06  1.068710E+05  3.665973E+06 -6.653215E-10 -5.902058E-10
       416  14  4.869084E+06  2.705025E+06  1.550692E+05  3.662199E+06 -5.374011E-09 -5.248305E-10
       416  15  4.941285E+06  2.837557E+06  3.064304E+05  3.595897E+06 -8.111378E-10  3.902674E-10
       416  16  4.971177E+06  2.782803E+06  1.304714E+05  3.697270E+06 -1.583660E-09  3.591670E-10
       416  17  4.943639E+06  2.766558E+06  1.818458E+05  3.703079E+06  1.445588E-10 -1.444677E-09
       416  18  5.008857E+06  2.922349E+06  3.364148E+05  3.646364E+06  3.089861E-09 -2.222866E-10
       416  19  4.808120E+06  2.706268E+06  8.327596E+04  3.634681E+06  4.621664E+04  3.292145E+04
       416  20  4.794550E+06  2.643506E+06  1.283269E+05  3.621332E+06  1.112666E+05  8.105359E+04
       416  21  4.873756E+06  2.752800E+06  2.765338E+05  3.545455E+06  1.761895E+05  1.293577E+05
       416  22  4.889646E+06  2.744535E+06  1.068769E+05  3.665974E+06  4.612197E+04  3.284933E+04
       416  23  4.869099E+06  2.705035E+06  1.551043E+05  3.662206E+06  1.112229E+05  8.102242E+04
       416  24  4.941323E+06  2.837583E+06  3.065191E+05  3.595915E+06  1.761954E+05  1.293719E+05
       416  25  4.971180E+06  2.782804E+06  1.304773E+05  3.697271E+06  4.602728E+04  3.277720E+04
       416  26  4.943654E+06  2.766568E+06  1.818809E+05  3.703086E+06  1.111792E+05  8.099124E+04
       416  27  5.008895E+06  2.922375E+06  3.365035E+05  3.646382E+06  1.762013E+05  1.293861E+05
       417   1  4.701452E+06  2.727816E+06  3.210446E+05  3.671480E+06 -2.260642E+05 -1.654505E+05
       417   2  4.628848E+06  2.391955E+06  5.086789E+05  3.613359E+06 -4.721464E+05 -3.477318E+05
       417   3  5.268197E+06  3.133969E+06  1.244573E+06  3.081758E+06 -7.162505E+05 -5.325913E+05
       417   4  4.919605E+06  2.752427E+06  3.688451E+05  3.719246E+06 -2.255776E+05 -1.650428E+05
       417   5  4.748893E+06  2.547451E+06  5.628378E+05  3.705292E+06 -4.723445E+05 -3.479301E+05
       417   6  5.290032E+06  3.420264E+06  1.305564E+06  3.217932E+06 -7.170731E+05 -5.334989E+05
       417   7  5.137820E+06  2.777045E+06  4.166462E+05  3.767017E+06 -2.250908E+05 -1.646352E+05
       417   8  4.868956E+06  2.702981E+06  6.169943E+05  3.797250E+06 -4.725427E+05 -3.481285E+05
       417   9  5.311913E+06  3.706724E+06  1.366565E+06  3.354133E+06 -7.178957E+05 -5.344073E+05
       417  10  4.701390E+06  2.727773E+06  3.208989E+05  3.671451E+06 -1.309473E-09  1.402180E-10
       417  11  4.628579E+06  2.391767E+06  5.080404E+05  3.613228E+06 -1.240086E-09  1.500305E-09
       417  12  5.267576E+06  3.133532E+06  1.243093E+06  3.081453E+06  6.932206E-10  1.462825E-09
       417  13  4.919544E+06  2.752385E+06  3.687001E+05  3.719216E+06 -2.762580E-09  2.264270E-10
       417  14  4.748624E+06  2.547263E+06  5.621989E+05  3.705160E+06  1.972153E-09  1.271111E-11
       417  15  5.289410E+06  3.419825E+06  1.304081E+06  3.217626E+06 -2.897262E-09 -2.625111E-10
       417  16  5.137759E+06  2.777003E+06  4.165019E+05  3.766987E+06  1.480631E-09 -1.301266E-10
       417  17  4.868687E+06  2.702794E+06  6.163550E+05  3.797118E+06 -4.789887E-11 -5.318494E-10
       417  18  5.311289E+06  3.706285E+06  1.365079E+06  3.353826E+06  1.723467E-09 -3.096856E-10
       417  19  4.701452E+06  2.727816E+06  3.210446E+05  3.671480E+06  2.260642E+05  1.654505E+05
       417  20  4.628848E+06  2.391955E+06  5.086789E+05  3.613359E+06  4.721464E+05  3.477318E+05
       417  21  5.268197E+06  3.133969E+06  1.244573E+06  3.081758E+06  7.162505E+05  5.325913E+05
       417  22  4.919605E+06  2.752427E+06  3.688451E+05  3.719246E+06  2.255776E+05  1.650428E+05
       417  23  4.748893E+06  2.547451E+06  5.628378E+05  3.705292E+06  4.723445E+05  3.479301E+05
       417  24  5.290032E+06  3.420264E+06  1.305564E+06  3.217932E+06  7.170731E+05  5.334989E+05
       417  25  5.137820E+06  2.777045E+06  4.166462E+05  3.767017E+06  2.250908E+05  1.646352E+05
       417  26  4.868956E+06  2.702981E+06  6.169943E+05  3.797250E+06  4.725427E+05  3.481285E+05
       417  27  5.311913E+06  3.706724E+06  1.366565E+06  3.354133E+06  7.178957E+05  5.344073E+05
       418   1 -4.510260E+05 -1.050180E+05 -1.618537E+05 -1.946344E+04 -1.664402E+05 -1.659673E+03
       418   2 -4.316812E+05  1.213818E+05 -2.638155E+04 -9.507711E+03 -1.097825E+05 -5.474005E+03
       418   3 -4.852920E+05  8.309737E+04  6.149733E+03  2.696035E+04 -5.311959E+04 -4.515344E+03
       418   4 -7.899261E+05 -1.898812E+05 -2.463650E+05  1.197637E+04 -1.678404E+05 -1.665652E+03
       418   5 -7.532990E+05  4.107542E+04 -1.059682E+05 -1.115726E+03 -1.100668E+05 -5.475243E+03
       418   6 -7.898615E+05  7.078312E+03 -6.932798E+04  1.230444E+04 -5.228626E+04 -4.514969E+03
       418   7 -1.128720E+06 -2.747494E+05 -3.308844E+05  4.339905E+04 -1.692397E+05 -1.671777E+03
       418   8 -1.074823E+06 -3.923842E+04 -1.855625E+05  7.271935E+03 -1.103509E+05 -5.476488E+03
       418   9 -1.094346E+06 -6.894688E+04 -1.448125E+05 -2.344259E+03 -5.145333E+04 -4.514633E+03
       418  10 -4.510557E+05 -1.050255E+05 -1.619058E+05 -1.946366E+04 -1.339822E-09  2.102773E-09
       418  11 -4.316942E+05  1.213785E+05 -2.640427E+04 -9.508195E+03  9.478232E-10  6.469019E-10
       418  12 -4.852950E+05  8.309659E+04  6.144388E+03  2.696016E+04  1.724259E-09  1.549636E-09
       418  13 -7.899563E+05 -1.898888E+05 -2.464180E+05  1.197615E+04 -2.753314E-10 -9.809286E-10
       418  14 -7.533120E+05  4.107213E+04 -1.059911E+05 -1.116211E+03  9.883412E-10  1.108616E-09
       418  15 -7.898644E+05  7.077555E+03 -6.933316E+04  1.230425E+04 -4.920719E-10  1.706522E-09
       418  16 -1.128751E+06 -2.747571E+05 -3.309383E+05  4.339882E+04 -1.005984E-09 -1.019696E-09
       418  17 -1.074836E+06 -3.924173E+04 -1.855855E+05  7.271448E+03 -1.427802E-09  1.538425E-10
       418  18 -1.094349E+06 -6.894762E+04 -1.448175E+05 -2.344446E+03 -3.275398E-09 -9.383948E-10
       418  19 -4.510260E+05 -1.050180E+05 -1.618537E+05 -1.946344E+04  1.664402E+05  1.659673E+03
       418  20 -4.316812E+05  1.213818E+05 -2.638155E+04 -9.507711E+03  1.097825E+05  5.474005E+03
       418  21 -4.852920E+05  8.309737E+04  6.149733E+03  2.696035E+04  5.311959E+04  4.515344E+03
       418  22 -7.899261E+05 -1.898812E+05 -2.463650E+05  1.197637E+04  1.678404E+05  1.665652E+03
       418  23 -7.532990E+05  4.107542E+04 -1.059682E+05 -1.115726E+03  1.100668E+05  5.475243E+03
       418  24 -7.898615E+05  7.078312E+03 -6.932798E+04  1.230444E+04  5.228626E+04  4.514969E+03
       418  25 -1.128720E+06 -2.747494E+05 -3.308844E+05  4.339905E+04  1.692397E+05  1.671777E+03
       418  26 -1.074823E+06 -3.923842E+04 -1.855625E+05  7.271935E+03  1.103509E+05  5.476488E+03
       418  27 -1.094346E+06 -6.894688E+04 -1.448125E+05 -2.344259E+03  5.145333E+04  4.514633E+03
       419   1 -5.444658E+05  3.081185E+04 -1.483434E+02  8.665640E+03 -4.088324E+04 -3.436074E+03
       419   2 -5.581558E+05  5.905149E+04  2.365761E+04 -3.175846E+03 -2.596112E+04 -3.364977E+03
       419   3 -5.832760E+05  4.832343E+04  2.805400E+04  1.533225E+04 -1.103944E+04 -2.623646E+03
       419   4 -7.761507E+05 -2.705120E+04 -5.757281E+04  1.304364E+04 -4.093381E+04 -3.436401E+03
       419   5 -7.704146E+05  6.052737E+03 -2.891889E+04 -2.122119E+03 -2.585599E+04 -3.365139E+03
       419   6 -7.761406E+05  1.544456E+02 -1.978798E+04  1.306245E+04 -1.077814E+04 -2.623702E+03
       419   7 -1.007787E+06 -8.491820E+04 -1.150013E+05  1.742002E+04 -4.098435E+04 -3.436728E+03
       419   8 -9.826325E+05 -4.694939E+04 -8.149875E+04 -1.068749E+03 -2.575089E+04 -3.365301E+03
       419   9 -9.689713E+05 -4.801731E+04 -6.763274E+04  1.079336E+04 -1.051693E+04 -2.623760E+03
       419  10 -5.444676E+05  3.081139E+04 -1.515094E+02  8.665527E+03  8.353083E-10  5.269984E-10
       419  11 -5.581565E+05  5.905129E+04  2.365633E+04 -3.175917E+03  1.157126E-09 -3.150099E-10
       419  12 -5.832761E+05  4.832339E+04  2.805376E+04  1.533223E+04 -7.056743E-10 -6.159307E-11
       419  13 -7.761526E+05 -2.705166E+04 -5.757598E+04  1.304353E+04  7.910423E-10 -7.844220E-10
       419  14 -7.704153E+05  6.052545E+03 -2.892017E+04 -2.122189E+03  1.443423E-09 -9.070921E-10
       419  15 -7.761407E+05  1.544070E+02 -1.978821E+04  1.306243E+04  1.328372E-09  2.579373E-10
       419  16 -1.007789E+06 -8.491866E+04 -1.150044E+05  1.741990E+04 -1.319066E-09 -6.980215E-10
       419  17 -9.826332E+05 -4.694958E+04 -8.150002E+04 -1.068819E+03 -4.465168E-10 -4.234506E-10
       419  18 -9.689715E+05 -4.801735E+04 -6.763296E+04  1.079334E+04 -7.007547E-10  3.381736E-10
       419  19 -5.444658E+05  3.081185E+04 -1.483434E+02  8.665640E+03  4.088324E+04  3.436074E+03
       419  20 -5.581558E+05  5.905149E+04  2.365761E+04 -3.175846E+03  2.596112E+04  3.364977E+03
       419  21 -5.832760E+05  4.832343E+04  2.805400E+04  1.533225E+04  1.103944E+04  2.623646E+03
       419  22 -7.761507E+05 -2.705120E+04 -5.757281E+04  1.304364E+04  4.093381E+04  3.436401E+03
       419  23 -7.704146E+05  6.052737E+03 -2.891889E+04 -2.122119E+03  2.585599E+04  3.365139E+03
       419  24 -7.761406E+05  1.544456E+02 -1.978798E+04  1.306245E+04  1.077814E+04  2.623702E+03
       419  25 -1.007787E+06 -8.491820E+04 -1.150013E+05  1.742002E+04  4.098435E+04  3.436728E+03
       419  26 -9.826325E+05 -4.694939E+04 -8.149875E+04 -1.068749E+03  2.575089E+04  3.365301E+03
       419  27 -9.689713E+05 -4.801731E+04 -6.763274E+04  1.079336E+04  1.051693E+04  2.623760E+03
       420   1 -6.612935E+05  2.464830E+04  1.088392E+04  1.247521E+04 -7.623967E+03 -2.082162E+03
       420   2 -6.798158E+05  2.526515E+04  9.973483E+03 -2.549060E+03 -9.257050E+02 -1.427324E+03
       420   3 -7.026202E+05  1.209040E+04  1.258953E+03  1.476468E+04  5.772024E+03 -8.194326E+02
       420   4 -7.745387E+05 -3.620517E+03 -1.712461E+04  1.349846E+04 -7.460313E+03 -2.082208E+03
       420   5 -7.723989E+05  2.145462E+03 -1.296793E+04 -2.670171E+03 -7.743135E+02 -1.427331E+03
       420   6 -7.745403E+05 -5.879222E+03 -1.660775E+04  1.349956E+04  5.911375E+03 -8.194260E+02
       420   7 -8.877722E+05 -3.189029E+04 -4.513409E+04  1.452153E+04 -7.296689E+03 -2.082254E+03
       420   8 -8.649741E+05 -2.097487E+04 -3.590998E+04 -2.791264E+03 -6.229445E+02 -1.427337E+03
       420   9 -8.464557E+05 -2.384923E+04 -3.447484E+04  1.223459E+04  6.050710E+03 -8.194200E+02
       420  10 -6.612935E+05  2.464828E+04  1.088380E+04  1.247519E+04  5.379405E-10  1.218836E-10
       420  11 -6.798158E+05  2.526515E+04  9.973478E+03 -2.549062E+03  1.789036E-10 -1.388866E-10
       420  12 -7.026202E+05  1.209040E+04  1.258889E+03  1.476468E+04 -6.365532E-10 -2.880531E-10
       420  13 -7.745387E+05 -3.620537E+03 -1.712472E+04  1.349845E+04 -7.645627E-10  2.382842E-10
       420  14 -7.723989E+05  2.145460E+03 -1.296793E+04 -2.670172E+03  1.070472E-09  6.375460E-11
       420  15 -7.745403E+05 -5.879232E+03 -1.660782E+04  1.349956E+04 -1.328857E-10 -4.318885E-10
       420  16 -8.877723E+05 -3.189031E+04 -4.513420E+04  1.452152E+04 -4.441145E-10  1.574351E-10
       420  17 -8.649741E+05 -2.097487E+04 -3.590999E+04 -2.791265E+03  4.328646E-10 -6.478959E-10
       420  18 -8.464557E+05 -2.384924E+04 -3.447491E+04  1.223459E+04 -5.573748E-11 -1.363300E-10
       420  19 -6.612935E+05  2.464830E+04  1.088392E+04  1.247521E+04  7.623967E+03  2.082162E+03
       420  20 -6.798158E+05  2.526515E+04  9.973483E+03 -2.549060E+03  9.257050E+02  1.427324E+03
       420  21 -7.026202E+05  1.209040E+04  1.258953E+03  1.476468E+04 -5.772024E+03  8.194326E+02
       420  22 -7.745387E+05 -3.620517E+03 -1.712461E+04  1.349846E+04  7.460313E+03  2.082208E+03
       420  23 -7.723989E+05  2.145462E+03 -1.296793E+04 -2.670171E+03  7.743135E+02  1.427331E+03
       420  24 -7.745403E+05 -5.879222E+03 -1.660775E+04  1.349956E+04 -5.911375E+03  8.194260E+02
       420  25 -8.877722E+05 -3.189029E+04 -4.513409E+04  1.452153E+04  7.296689E+03  2.082254E+03
       420  26 -8.649741E+05 -2.097487E+04 -3.590998E+04 -2.791264E+03  6.229445E+02  1.427337E+03
       420  27 -8.464557E+05 -2.384923E+04 -3.447484E+04  1.223459E+04 -6.050710E+03  8.194200E+02
       421   1 -7.879612E+05 -1.603981E+03 -2.100896E+04  1.021727E+04  8.699908E+03 -1.884962E+02
       421   2 -8.005124E+05  1.389488E+03 -3.267924E+04 -9.837353E+02  2.249419E+04  6.499020E+02
       421   3 -8.298160E+05 -5.538698E+04 -6.828259E+04  2.053790E+04  3.628847E+04  3.202953E+02
       421   4 -7.772949E+05  1.072442E+03 -1.831005E+04  1.358253E+04  9.040607E+03 -1.883816E+02
       421   5 -7.689515E+05  9.265704E+03 -2.488321E+04 -2.776472E+03  2.255540E+04  6.498435E+02
       421   6 -7.773107E+05 -4.226059E+04 -5.519390E+04  1.358722E+04  3.607066E+04  3.198610E+02
       421   7 -7.666285E+05  3.748898E+03 -1.561113E+04  1.694784E+04  9.381311E+03 -1.882634E+02
       421   8 -7.373897E+05  1.714186E+04 -1.708725E+04 -4.569301E+03  2.261662E+04  6.497847E+02
       421   9 -7.248027E+05 -2.913423E+04 -4.210539E+04  6.635956E+03  3.585282E+04  3.194316E+02
       421  10 -7.879613E+05 -1.604002E+03 -2.100910E+04  1.021727E+04 -2.430995E-11  4.288484E-11
       421  11 -8.005130E+05  1.389351E+03 -3.268019E+04 -9.837470E+02 -2.357170E-10  4.039515E-10
       421  12 -8.298175E+05 -5.538734E+04 -6.828506E+04  2.053789E+04 -2.729220E-10  2.652238E-10
       421  13 -7.772950E+05  1.072420E+03 -1.831020E+04  1.358253E+04 -1.764615E-14  2.513479E-10
       421  14 -7.689521E+05  9.265567E+03 -2.488416E+04 -2.776484E+03 -3.697765E-09  1.643837E-10
       421  15 -7.773121E+05 -4.226094E+04 -5.519635E+04  1.358721E+04  9.249791E-10  1.768708E-10
       421  16 -7.666286E+05  3.748875E+03 -1.561130E+04  1.694785E+04 -9.502986E-10  3.836613E-10
       421  17 -7.373903E+05  1.714172E+04 -1.708821E+04 -4.569313E+03  9.794659E-10 -3.378838E-10
       421  18 -7.248041E+05 -2.913457E+04 -4.210781E+04  6.635946E+03  1.277100E-10  1.577207E-10
       421  19 -7.879612E+05 -1.603981E+03 -2.100896E+04  1.021727E+04 -8.699908E+03  1.884962E+02
       421  20 -8.005124E+05  1.389488E+03 -3.267924E+04 -9.837353E+02 -2.249419E+04 -6.499020E+02
       421  21 -8.298160E+05 -5.538698E+04 -6.828259E+04  2.053790E+04 -3.628847E+04 -3.202953E+02
       421  22 -7.772949E+05  1.072442E+03 -1.831005E+04  1.358253E+04 -9.040607E+03  1.883816E+02
       421  23 -7.689515E+05  9.265704E+03 -2.488321E+04 -2.776472E+03 -2.255540E+04 -6.498435E+02
       421  24 -7.773107E+05 -4.226059E+04 -5.519390E+04  1.358722E+04 -3.607066E+04 -3.198610E+02
       421  25 -7.666285E+05  3.748898E+03 -1.561113E+04  1.694784E+04 -9.381311E+03  1.882634E+02
       421  26 -7.373897E+05  1.714186E+04 -1.708725E+04 -4.569301E+03 -2.261662E+04 -6.497847E+02
       421  27 -7.248027E+05 -2.913423E+04 -4.210539E+04  6.635956E+03 -3.585282E+04 -3.194316E+02
       422   1 -3.481634E+05 -7.888883E+05 -3.228816E+05  1.475177E+05 -9.801574E+03  6.856052E+04
       422   2 -3.896782E+05 -5.630516E+05 -3.232662E+05 -3.548127E+04 -2.645562E+04  5.084414E+04
       422   3 -3.116704E+05 -2.982968E+05 -2.808313E+05  1.650700E+05 -1.584723E+04  3.299934E+04
       422   4  8.470753E+04  9.434848E+05  1.086533E+05  1.646586E+05 -9.777878E+03  7.594761E+04
       422   5 -1.886980E+04  9.234223E+05  4.414342E+04 -2.696229E+04 -2.644774E+04  5.163428E+04
       422   6 -1.918516E+03  9.432908E+05  2.695000E+04  1.649069E+05 -1.588327E+04  2.719984E+04
       422   7  5.173538E+05  2.678580E+06  5.399633E+05  1.818453E+05 -9.753813E+03  8.335508E+04
       422   8  3.517738E+05  2.411904E+06  4.113891E+05 -1.842509E+04 -2.643985E+04  5.242619E+04
       422   9  3.077181E+05  2.186278E+06  3.346166E+05  1.647411E+05 -1.591928E+04  2.138870E+04
       422  10 -3.481648E+05 -7.888934E+05 -3.228907E+05  1.475182E+05 -9.523656E-10 -1.009080E-09
       422  11 -3.896797E+05 -5.630546E+05 -3.232723E+05 -3.548018E+04 -2.155599E-09 -1.400181E-09
       422  12 -3.116710E+05 -2.982981E+05 -2.808338E+05  1.650704E+05 -3.321751E-09  1.312289E-09
       422  13  8.470588E+04  9.434786E+05  1.086423E+05  1.646592E+05 -1.223728E-09 -1.258494E-10
       422  14 -1.887127E+04  9.234192E+05  4.413711E+04 -2.696119E+04  2.890901E-09  5.322203E-09
       422  15 -1.918986E+03  9.432899E+05  2.694814E+04  1.649073E+05 -2.739022E-09  8.380070E-10
       422  16  5.173518E+05  2.678573E+06  5.399501E+05  1.818459E+05  9.333585E-10 -1.753223E-09
       422  17  3.517723E+05  2.411901E+06  4.113827E+05 -1.842397E+04  8.273829E-11  8.823263E-09
       422  18  3.077177E+05  2.186277E+06  3.346153E+05  1.647414E+05  3.026767E-10 -3.090837E-09
       422  19 -3.481634E+05 -7.888883E+05 -3.228816E+05  1.475177E+05  9.801574E+03 -6.856052E+04
       422  20 -3.896782E+05 -5.630516E+05 -3.232662E+05 -3.548127E+04  2.645562E+04 -5.084414E+04
       422  21 -3.116704E+05 -2.982968E+05 -2.808313E+05  1.650700E+05  1.584723E+04 -3.299934E+04
       422  22  8.470753E+04  9.434848E+05  1.086533E+05  1.646586E+05  9.777878E+03 -7.594761E+04
       422  23 -1.886980E+04  9.234223E+05  4.414342E+04 -2.696229E+04  2.644774E+04 -5.163428E+04
       422  24 -1.918516E+03  9.432908E+05  2.695000E+04  1.649069E+05  1.588327E+04 -2.719984E+04
       422  25  5.173538E+05  2.678580E+06  5.399633E+05  1.818453E+05  9.753813E+03 -8.335508E+04
       422  26  3.517738E+05  2.411904E+06  4.113891E+05 -1.842509E+04  2.643985E+04 -5.242619E+04
       422  27  3.077181E+05  2.186278E+06  3.346166E+05  1.647411E+05  1.591928E+04 -2.138870E+04
       423   1 -5.985412E+04  6.385850E+05 -5.305237E+04  1.595802E+05 -6.137209E+03  2.413773E+04
       423   2 -1.519449E+04  8.785254E+05 -1.065820E+04 -2.474986E+04 -7.595454E+02  2.232819E+04
       423   3  3.763117E+04  1.114369E+06  3.363260E+04  1.627302E+05  4.817373E+03  2.051531E+04
       423   4  1.376394E+04  9.339763E+05  1.975194E+04  1.621302E+05 -6.145928E+03  2.287121E+04
       423   5 -8.405143E+02  9.360504E+05  3.568654E+03 -2.369996E+04 -7.687196E+02  2.101056E+04
       423   6 -7.268137E+03  9.339794E+05 -1.068366E+04  1.622774E+05  4.807615E+03  1.914723E+04
       423   7  8.737552E+04  1.229447E+06  9.254981E+04  1.646813E+05 -6.154655E+03  2.160410E+04
       423   8  1.351321E+04  9.935785E+05  1.779527E+04 -2.264997E+04 -7.778978E+02  1.969281E+04
       423   9 -5.216986E+04  7.536198E+05 -5.500230E+04  1.618246E+05  4.797857E+03  1.777955E+04
       423  10 -5.985431E+04  6.385844E+05 -5.305354E+04  1.595803E+05  1.061067E-10 -3.198798E-09
       423  11 -1.519462E+04  8.785249E+05 -1.065914E+04 -2.474984E+04 -1.197417E-09 -2.468159E-09
       423  12  3.763104E+04  1.114368E+06  3.363177E+04  1.627302E+05  3.467765E-09  7.234912E-10
       423  13  1.376376E+04  9.339758E+05  1.975089E+04  1.621304E+05 -3.621209E-10  2.294653E-11
       423  14 -8.406332E+02  9.360500E+05  3.567825E+03 -2.369995E+04 -3.264629E-09  7.300627E-09
       423  15 -7.268260E+03  9.339790E+05 -1.068439E+04  1.622773E+05 -5.543941E-09  6.936189E-10
       423  16  8.737535E+04  1.229446E+06  9.254887E+04  1.646814E+05 -4.482675E-10 -4.169456E-09
       423  17  1.351311E+04  9.935781E+05  1.779454E+04 -2.264996E+04  4.681105E-09  1.366705E-08
       423  18 -5.216997E+04  7.536195E+05 -5.500294E+04  1.618245E+05  1.819817E-09 -3.051632E-09
       423  19 -5.985412E+04  6.385850E+05 -5.305237E+04  1.595802E+05  6.137209E+03 -2.413773E+04
       423  20 -1.519449E+04  8.785254E+05 -1.065820E+04 -2.474986E+04  7.595454E+02 -2.232819E+04
       423  21  3.763117E+04  1.114369E+06  3.363260E+04  1.627302E+05 -4.817373E+03 -2.051531E+04
       423  22  1.376394E+04  9.339763E+05  1.975194E+04  1.621302E+05  6.145928E+03 -2.287121E+04
       423  23 -8.405143E+02  9.360504E+05  3.568654E+03 -2.369996E+04  7.687196E+02 -2.101056E+04
       423  24 -7.268137E+03  9.339794E+05 -1.068366E+04  1.622774E+05 -4.807615E+03 -1.914723E+04
       423  25  8.737552E+04  1.229447E+06  9.254981E+04  1.646813E+05  6.154655E+03 -2.160410E+04
       423  26  1.351321E+04  9.935785E+05  1.779527E+04 -2.264997E+04  7.778978E+02 -1.969281E+04
       423  27 -5.216986E+04  7.536198E+05 -5.500230E+04  1.618246E+05 -4.797857E+03 -1.777955E+04
       424   1  2.870209E+05  2.056471E+06  2.632780E+05  1.746471E+05  1.439103E+04  2.697659E+04
       424   2  3.527332E+05  2.309148E+06  3.065887E+05 -2.412652E+04  2.482804E+04  3.776034E+04
       424   3  3.439391E+05  2.546526E+06  3.251685E+05  1.589282E+05  9.463932E+03  4.867479E+04
       424   4  6.407461E+03  9.308134E+05 -1.546162E+04  1.643501E+05  1.435454E+04  2.134744E+04
       424   5  1.165330E+04  9.391807E+05 -3.141814E+04 -2.647590E+04  2.483430E+04  3.830788E+04
       424   6 -5.877586E+04  9.310594E+05 -7.643532E+04  1.645822E+05  9.488353E+03  5.539462E+04
       424   7 -2.743004E+05 -1.936962E+05 -2.942954E+05  1.540695E+05  1.431820E+04  1.572843E+04
       424   8 -3.295663E+05 -4.290861E+05 -3.695639E+05 -2.882213E+04  2.484057E+04  3.885413E+04
       424   9 -4.616862E+05 -6.820473E+05 -4.782342E+05  1.702193E+05  9.512930E+03  6.209689E+04
       424  10  2.870205E+05  2.056470E+06  2.632763E+05  1.746468E+05 -6.000847E-11 -5.861230E-09
       424  11  3.527322E+05  2.309147E+06  3.065849E+05 -2.412727E+04 -1.712046E-10 -2.065806E-09
       424  12  3.439384E+05  2.546523E+06  3.251639E+05  1.589278E+05  1.012019E-09  2.526060E-09
       424  13  6.407117E+03  9.308129E+05 -1.546286E+04  1.643498E+05  4.445645E-09  1.364850E-10
       424  14  1.165225E+04  9.391790E+05 -3.142205E+04 -2.647666E+04 -9.229062E-10  5.167399E-09
       424  15 -5.877678E+04  9.310561E+05 -7.644124E+04  1.645818E+05  1.286500E-09  4.956223E-10
       424  16 -2.743006E+05 -1.936965E+05 -2.942962E+05  1.540694E+05 -2.000794E-09 -1.238017E-09
       424  17 -3.295674E+05 -4.290879E+05 -3.695679E+05 -2.882291E+04  9.084907E-10  9.967402E-09
       424  18 -4.616873E+05 -6.820514E+05 -4.782416E+05  1.702188E+05  1.894819E-09 -3.320655E-09
       424  19  2.870209E+05  2.056471E+06  2.632780E+05  1.746471E+05 -1.439103E+04 -2.697659E+04
       424  20  3.527332E+05  2.309148E+06  3.065887E+05 -2.412652E+04 -2.482804E+04 -3.776034E+04
       424  21  3.439391E+05  2.546526E+06  3.251685E+05  1.589282E+05 -9.463932E+03 -4.867479E+04
       424  22  6.407461E+03  9.308134E+05 -1.546162E+04  1.643501E+05 -1.435454E+04 -2.134744E+04
       424  23  1.165330E+04  9.391807E+05 -3.141814E+04 -2.647590E+04 -2.483430E+04 -3.830788E+04
       424  24 -5.877586E+04  9.310594E+05 -7.643532E+04  1.645822E+05 -9.488353E+03 -5.539462E+04
       424  25 -2.743004E+05 -1.936962E+05 -2.942954E+05  1.540695E+05 -1.431820E+04 -1.572843E+04
       424  26 -3.295663E+05 -4.290861E+05 -3.695639E+05 -2.882213E+04 -2.484057E+04 -3.885413E+04
       424  27 -4.616862E+05 -6.820473E+05 -4.782342E+05  1.702193E+05 -9.512930E+03 -6.209689E+04
       425   1  9.811502E+05  6.771824E+05  2.266299E+05  6.248014E+05  9.450526E+04  6.907230E+04
       425   2  9.222122E+05  5.308747E+05  1.255727E+05  6.770445E+05  6.237555E+04  4.220362E+04
       425   3  9.419924E+05  5.435335E+05  9.815473E+04  6.714515E+05  2.843399E+04  1.776060E+04
       425   4  8.431115E+05  5.436551E+05  1.725723E+05  5.404126E+05  9.375409E+04  6.850585E+04
       425   5  7.792145E+05  4.201577E+05  7.542395E+04  6.022941E+05  6.221537E+04  4.208292E+04
       425   6  7.939299E+05  4.555240E+05  5.141951E+04  6.063322E+05  2.886500E+04  1.808364E+04
       425   7  7.050933E+05  4.101500E+05  1.185115E+05  4.560481E+05  9.300314E+04  6.793964E+04
       425   8  6.362382E+05  3.094541E+05  2.527219E+04  5.275637E+05  6.205525E+04  4.196226E+04
       425   9  6.458904E+05  3.675217E+05  4.681706E+03  5.412288E+05  2.929586E+04  1.840660E+04
       425  10  9.811393E+05  6.771749E+05  2.266042E+05  6.247962E+05 -9.737592E-11  2.319918E-10
       425  11  9.222076E+05  5.308717E+05  1.255621E+05  6.770424E+05 -3.895049E-10 -2.529899E-09
       425  12  9.419915E+05  5.435330E+05  9.815262E+04  6.714511E+05 -9.617083E-10 -5.642519E-10
       425  13  8.431008E+05  5.436477E+05  1.725470E+05  5.404075E+05 -4.406050E-10 -2.295064E-09
       425  14  7.792099E+05  4.201547E+05  7.541337E+04  6.022920E+05 -6.641782E-10  1.882630E-09
       425  15  7.939289E+05  4.555234E+05  5.141733E+04  6.063318E+05 -4.571419E-10  7.271357E-10
       425  16  7.050828E+05  4.101428E+05  1.184867E+05  4.560430E+05 -3.394028E-10 -2.537339E-09
       425  17  6.362336E+05  3.094512E+05  2.526166E+04  5.275616E+05  2.560143E-10 -2.716204E-09
       425  18  6.458894E+05  3.675212E+05  4.679460E+03  5.412284E+05  1.168541E-09  5.428544E-10
       425  19  9.811502E+05  6.771824E+05  2.266299E+05  6.248014E+05 -9.450526E+04 -6.907230E+04
       425  20  9.222122E+05  5.308747E+05  1.255727E+05  6.770445E+05 -6.237555E+04 -4.220362E+04
       425  21  9.419924E+05  5.435335E+05  9.815473E+04  6.714515E+05 -2.843399E+04 -1.776060E+04
       425  22  8.431115E+05  5.436551E+05  1.725723E+05  5.404126E+05 -9.375409E+04 -6.850585E+04
       425  23  7.792145E+05  4.201577E+05  7.542395E+04  6.022941E+05 -6.221537E+04 -4.208292E+04
       425  24  7.939299E+05  4.555240E+05  5.141951E+04  6.063322E+05 -2.886500E+04 -1.808364E+04
       425  25  7.050933E+05  4.101500E+05  1.185115E+05  4.560481E+05 -9.300314E+04 -6.793964E+04
       425  26  6.362382E+05  3.094541E+05  2.527219E+04  5.275637E+05 -6.205525E+04 -4.196226E+04
       425  27  6.458904E+05  3.675217E+05  4.681706E+03  5.412288E+05 -2.929586E+04 -1.840660E+04
       426   1  8.947810E+05  5.410632E+05  7.829386E+04  6.408756E+05  2.157368E+04  1.355762E+04
       426   2  8.859471E+05  5.068032E+05  5.822434E+04  6.422393E+05  1.024973E+04  5.178630E+03
       426   3  8.758797E+05  5.129952E+05  5.478986E+04  6.390516E+05 -1.290143E+03 -2.911670E+03
       426   4  7.970104E+05  4.664844E+05  4.417525E+04  5.902952E+05  2.155060E+04  1.354015E+04
       426   5  7.945748E+05  4.407965E+05  2.708476E+04  5.966663E+05  1.029808E+04  5.214770E+03
       426   6  7.908928E+05  4.555479E+05  2.656989E+04  5.984853E+05 -1.170499E+03 -2.822123E+03
       426   7  6.992494E+05  3.919114E+05  1.005514E+04  5.397237E+05  2.152751E+04  1.352268E+04
       426   8  7.032112E+05  3.747943E+05 -4.056002E+03  5.511008E+05  1.034642E+04  5.250902E+03
       426   9  7.059136E+05  3.981040E+05 -1.650961E+03  5.579251E+05 -1.050878E+03 -2.732592E+03
       426  10  8.947805E+05  5.410628E+05  7.829265E+04  6.408754E+05 -1.558265E-09 -2.793330E-11
       426  11  8.859470E+05  5.068031E+05  5.822409E+04  6.422392E+05 -1.274150E-09  1.271071E-10
       426  12  8.758797E+05  5.129952E+05  5.478984E+04  6.390516E+05  1.868508E-09  4.465017E-10
       426  13  7.970098E+05  4.664840E+05  4.417403E+04  5.902949E+05 -6.886799E-10 -2.798838E-10
       426  14  7.945747E+05  4.407964E+05  2.708451E+04  5.966662E+05 -1.288433E-09  3.032037E-10
       426  15  7.908928E+05  4.555479E+05  2.656988E+04  5.984853E+05  9.754064E-10 -6.502047E-10
       426  16  6.992489E+05  3.919110E+05  1.005393E+04  5.397235E+05  4.031353E-10  1.753640E-09
       426  17  7.032111E+05  3.747942E+05 -4.056255E+03  5.511007E+05 -7.020631E-11  1.024128E-09
       426  18  7.059136E+05  3.981040E+05 -1.650977E+03  5.579251E+05 -1.153503E-09 -7.942101E-10
       426  19  8.947810E+05  5.410632E+05  7.829386E+04  6.408756E+05 -2.157368E+04 -1.355762E+04
       426  20  8.859471E+05  5.068032E+05  5.822434E+04  6.422393E+05 -1.024973E+04 -5.178630E+03
       426  21  8.758797E+05  5.129952E+05  5.478986E+04  6.390516E+05  1.290143E+03  2.911670E+03
       426  22  7.970104E+05  4.664844E+05  4.417525E+04  5.902952E+05 -2.155060E+04 -1.354015E+04
       426  23  7.945748E+05  4.407965E+05  2.708476E+04  5.966663E+05 -1.029808E+04 -5.214770E+03
       426  24  7.908928E+05  4.555479E+05  2.656989E+04  5.984853E+05  1.170499E+03  2.822123E+03
       426  25  6.992494E+05  3.919114E+05  1.005514E+04  5.397237E+05 -2.152751E+04 -1.352268E+04
       426  26  7.032112E+05  3.747943E+05 -4.056002E+03  5.511008E+05 -1.034642E+04 -5.250902E+03
       426  27  7.059136E+05  3.981040E+05 -1.650961E+03  5.579251E+05  1.050878E+03  2.732592E+03
       427   1  8.404367E+05  4.932086E+05  4.553255E+04  6.238081E+05 -5.384854E+03 -5.607138E+03
       427   2  8.374451E+05  4.715517E+05  5.123659E+04  6.177341E+05 -2.057767E+04 -1.654681E+04
       427   3  8.345029E+05  4.875200E+05  7.615900E+04  6.074310E+05 -3.577320E+04 -2.748321E+04
       427   4  7.914224E+05  4.553586E+05  2.836872E+04  5.982348E+05 -5.317593E+03 -5.556755E+03
       427   5  7.941409E+05  4.414415E+05  3.670685E+04  5.966760E+05 -2.050832E+04 -1.649490E+04
       427   6  7.969094E+05  4.651505E+05  6.426267E+04  5.908876E+05 -3.570197E+04 -2.743010E+04
       427   7  7.424105E+05  4.175102E+05  1.120453E+04  5.726639E+05 -5.250339E+03 -5.506378E+03
       427   8  7.508387E+05  4.113322E+05  2.217683E+04  5.756194E+05 -2.043899E+04 -1.644300E+04
       427   9  7.593173E+05  4.427814E+05  5.236614E+04  5.743452E+05 -3.563074E+04 -2.737699E+04
       427  10  8.404367E+05  4.932085E+05  4.553244E+04  6.238081E+05  4.415790E-10 -2.252391E-10
       427  11  8.374445E+05  4.715513E+05  5.123529E+04  6.177338E+05 -1.119978E-10  4.252013E-10
       427  12  8.345013E+05  4.875189E+05  7.615518E+04  6.074302E+05 -1.903051E-09  1.520830E-10
       427  13  7.914224E+05  4.553586E+05  2.836861E+04  5.982348E+05  3.475113E-10 -5.175016E-10
       427  14  7.941404E+05  4.414411E+05  3.670555E+04  5.966757E+05  5.638129E-10 -1.633541E-10
       427  15  7.969078E+05  4.651493E+05  6.425887E+04  5.908868E+05 -5.620725E-10  2.078343E-11
       427  16  7.424105E+05  4.175101E+05  1.120442E+04  5.726639E+05  3.786625E-11  2.683422E-10
       427  17  7.508382E+05  4.113318E+05  2.217554E+04  5.756191E+05  9.374241E-10 -9.274218E-10
       427  18  7.593157E+05  4.427802E+05  5.236236E+04  5.743444E+05 -7.210298E-10 -8.666026E-10
       427  19  8.404367E+05  4.932086E+05  4.553255E+04  6.238081E+05  5.384854E+03  5.607138E+03
       427  20  8.374451E+05  4.715517E+05  5.123659E+04  6.177341E+05  2.057767E+04  1.654681E+04
       427  21  8.345029E+05  4.875200E+05  7.615900E+04  6.074310E+05  3.577320E+04  2.748321E+04
       427  22  7.914224E+05  4.553586E+05  2.836872E+04  5.982348E+05  5.317593E+03  5.556755E+03
       427  23  7.941409E+05  4.414415E+05  3.670685E+04  5.966760E+05  2.050832E+04  1.649490E+04
       427  24  7.969094E+05  4.651505E+05  6.426267E+04  5.908876E+05  3.570197E+04  2.743010E+04
       427  25  7.424105E+05  4.175102E+05  1.120453E+04  5.726639E+05  5.250339E+03  5.506378E+03
       427  26  7.508387E+05  4.113322E+05  2.217683E+04  5.756194E+05  2.043899E+04  1.644300E+04
       427  27  7.593173E+05  4.427814E+05  5.236614E+04  5.743452E+05  3.563074E+04  2.737699E+04
       428   1  7.905964E+05  4.676100E+05  8.089532E+04  6.108980E+05 -4.629014E+04 -3.505432E+04
       428   2  7.800207E+05  4.166323E+05  1.254305E+05  5.991989E+05 -9.928821E+04 -7.427172E+04
       428   3  8.490376E+05  5.105033E+05  2.560256E+05  5.340294E+05 -1.521904E+05 -1.136175E+05
       428   4  7.953108E+05  4.546098E+05  7.928548E+04  6.057035E+05 -4.620115E+04 -3.498650E+04
       428   5  7.783841E+05  4.229820E+05  1.263600E+05  6.018453E+05 -9.922990E+04 -7.422918E+04
       428   6  8.410552E+05  5.362072E+05  2.595205E+05  5.445164E+05 -1.521619E+05 -1.136034E+05
       428   7  8.000253E+05  4.416101E+05  7.767568E+04  6.005089E+05 -4.611216E+04 -3.491868E+04
       428   8  7.767476E+05  4.293318E+05  1.272895E+05  6.044917E+05 -9.917160E+04 -7.418665E+04
       428   9  8.330734E+05  5.619127E+05  2.630157E+05  5.550034E+05 -1.521334E+05 -1.135894E+05
       428  10  7.905938E+05  4.676081E+05  8.088900E+04  6.108967E+05 -1.488435E-09 -1.027563E-09
       428  11  7.800087E+05  4.166238E+05  1.254017E+05  5.991930E+05 -1.422713E-09 -7.561025E-10
       428  12  8.490094E+05  5.104832E+05  2.559579E+05  5.340155E+05 -7.432798E-10  1.394803E-09
       428  13  7.953081E+05  4.546079E+05  7.927918E+04  6.057022E+05 -2.721988E-09 -1.352084E-09
       428  14  7.783721E+05  4.229735E+05  1.263312E+05  6.018394E+05  4.858522E-10 -3.003546E-11
       428  15  8.410269E+05  5.361871E+05  2.594529E+05  5.445025E+05  1.209260E-09 -3.646142E-10
       428  16  8.000227E+05  4.416082E+05  7.766941E+04  6.005076E+05  6.178271E-10 -1.574528E-10
       428  17  7.767356E+05  4.293233E+05  1.272607E+05  6.044858E+05  1.395143E-10  1.868183E-09
       428  18  8.330451E+05  5.618927E+05  2.629481E+05  5.549895E+05  2.300710E-09  1.904776E-09
       428  19  7.905964E+05  4.676100E+05  8.089532E+04  6.108980E+05  4.629014E+04  3.505432E+04
       428  20  7.800207E+05  4.166323E+05  1.254305E+05  5.991989E+05  9.928821E+04  7.427172E+04
       428  21  8.490376E+05  5.105033E+05  2.560256E+05  5.340294E+05  1.521904E+05  1.136175E+05
       428  22  7.953108E+05  4.546098E+05  7.928548E+04  6.057035E+05  4.620115E+04  3.498650E+04
       428  23  7.783841E+05  4.229820E+05  1.263600E+05  6.018453E+05  9.922990E+04  7.422918E+04
       428  24  8.410552E+05  5.362072E+05  2.595205E+05  5.445164E+05  1.521619E+05  1.136034E+05
       428  25  8.000253E+05  4.416101E+05  7.767568E+04  6.005089E+05  4.611216E+04  3.491868E+04
       428  26  7.767476E+05  4.293318E+05  1.272895E+05  6.044917E+05  9.917160E+04  7.418665E+04
       428  27  8.330734E+05  5.619127E+05  2.630157E+05  5.550034E+05  1.521334E+05  1.135894E+05
       429   1  7.196151E+05  4.952937E+05  3.003038E+05  6.488030E+05 -1.937812E+05 -1.442966E+05
       429   2  6.570663E+05  2.217242E+05  4.662995E+05  6.064389E+05 -4.043890E+05 -3.013138E+05
       429   3  1.227049E+06  8.585580E+05  1.105123E+06  1.509064E+05 -6.143125E+05 -4.592005E+05
       429   4  8.253571E+05  4.591408E+05  3.140994E+05  6.498092E+05 -1.935937E+05 -1.441232E+05
       429   5  6.703489E+05  2.916611E+05  4.827448E+05  6.408106E+05 -4.044178E+05 -3.013727E+05
       429   6  1.147824E+06  1.034567E+06  1.124389E+06  2.186725E+05 -6.145080E+05 -4.595649E+05
       429   7  9.311193E+05  4.229975E+05  3.278973E+05  6.508116E+05 -1.934060E+05 -1.439498E+05
       429   8  6.836338E+05  3.616075E+05  4.991905E+05  6.751844E+05 -4.044465E+05 -3.014315E+05
       429   9  1.068639E+06  1.210658E+06  1.143666E+06  2.864308E+05 -6.147034E+05 -4.599295E+05
       429  10  7.195693E+05  4.952613E+05  3.001943E+05  6.487805E+05  7.721246E-10  1.383003E-09
       429  11  6.568668E+05  2.215831E+05  4.658225E+05  6.063410E+05  4.422233E-10  1.118808E-09
       429  12  1.226588E+06  8.582310E+05  1.104019E+06  1.506797E+05  2.207347E-10  3.732139E-10
       429  13  8.253113E+05  4.591085E+05  3.139902E+05  6.497868E+05  7.549619E-10 -7.779237E-10
       429  14  6.701493E+05  2.915200E+05  4.822677E+05  6.407126E+05 -6.074053E-10 -8.001370E-10
       429  15  1.147363E+06  1.034239E+06  1.123285E+06  2.184455E+05 -4.378236E-10  5.788076E-10
       429  16  9.310737E+05  4.229653E+05  3.277883E+05  6.507893E+05  6.805516E-10  8.339301E-10
       429  17  6.834342E+05  3.614663E+05  4.987134E+05  6.750864E+05 -1.327418E-09 -2.085676E-10
       429  18  1.068178E+06  1.210330E+06  1.142561E+06  2.862036E+05 -1.240846E-09  6.712429E-10
       429  19  7.196151E+05  4.952937E+05  3.003038E+05  6.488030E+05  1.937812E+05  1.442966E+05
       429  20  6.570663E+05  2.217242E+05  4.662995E+05  6.064389E+05  4.043890E+05  3.013138E+05
       429  21  1.227049E+06  8.585580E+05  1.105123E+06  1.509064E+05  6.143125E+05  4.592005E+05
       429  22  8.253571E+05  4.591408E+05  3.140994E+05  6.498092E+05  1.935937E+05  1.441232E+05
       429  23  6.703489E+05  2.916611E+05  4.827448E+05  6.408106E+05  4.044178E+05  3.013727E+05
       429  24  1.147824E+06  1.034567E+06  1.124389E+06  2.186725E+05  6.145080E+05  4.595649E+05
       429  25  9.311193E+05  4.229975E+05  3.278973E+05  6.508116E+05  1.934060E+05  1.439498E+05
       429  26  6.836338E+05  3.616075E+05  4.991905E+05  6.751844E+05  4.044465E+05  3.014315E+05
       429  27  1.068639E+06  1.210658E+06  1.143666E+06  2.864308E+05  6.147034E+05  4.599295E+05
       430   1 -4.097545E+05  3.645742E+04  3.015842E+04 -7.993699E+03 -1.548566E+04 -1.282922E+03
       430   2 -3.992183E+05  6.209946E+04  4.524365E+04 -1.619375E+02 -9.619691E+03 -3.950392E+03
       430   3 -3.961566E+05  5.979940E+04  4.957912E+04 -3.036301E+03 -3.754065E+03 -3.925220E+03
       430   4 -6.344147E+05 -1.969871E+04 -2.583868E+04 -4.754338E+03 -1.644452E+04 -1.283176E+03
       430   5 -6.306165E+05  4.341827E+03 -1.202180E+04  5.969737E+02 -9.934674E+03 -3.950638E+03
       430   6 -6.344075E+05  3.228731E+02 -9.404908E+03 -4.758132E+03 -3.425221E+03 -3.925065E+03
       430   7 -8.590290E+05 -7.585861E+04 -8.183956E+04 -1.516151E+03 -1.740304E+04 -1.283440E+03
       430   8 -8.619660E+05 -5.341981E+04 -6.929124E+04  1.355596E+03 -1.024954E+04 -3.950886E+03
       430   9 -8.726068E+05 -5.915789E+04 -6.839316E+04 -6.479311E+03 -3.096503E+03 -3.924912E+03
       430  10 -4.097547E+05  3.645736E+04  3.015796E+04 -7.993715E+03 -4.823172E-10  9.649922E-11
       430  11 -3.992184E+05  6.209941E+04  4.524345E+04 -1.619681E+02  4.160092E-10  1.079124E-09
       430  12 -3.961567E+05  5.979938E+04  4.957906E+04 -3.036313E+03 -1.364739E-09  4.263333E-10
       430  13 -6.344149E+05 -1.969879E+04 -2.583919E+04 -4.754355E+03 -4.297791E-10  4.944368E-10
       430  14 -6.306166E+05  4.341784E+03 -1.202201E+04  5.969421E+02 -1.774884E-09  1.664551E-09
       430  15 -6.344076E+05  3.228534E+02 -9.404959E+03 -4.758143E+03  7.472261E-10  6.824007E-10
       430  16 -8.590293E+05 -7.585870E+04 -8.184013E+04 -1.516169E+03  1.073038E-09  2.465054E-10
       430  17 -8.619662E+05 -5.341985E+04 -6.929146E+04  1.355564E+03 -1.284446E-10  1.242514E-10
       430  18 -8.726068E+05 -5.915791E+04 -6.839321E+04 -6.479321E+03  6.344250E-10 -1.368170E-10
       430  19 -4.097545E+05  3.645742E+04  3.015842E+04 -7.993699E+03  1.548566E+04  1.282922E+03
       430  20 -3.992183E+05  6.209946E+04  4.524365E+04 -1.619375E+02  9.619691E+03  3.950392E+03
       430  21 -3.961566E+05  5.979940E+04  4.957912E+04 -3.036301E+03  3.754065E+03  3.925220E+03
       430  22 -6.344147E+05 -1.969871E+04 -2.583868E+04 -4.754338E+03  1.644452E+04  1.283176E+03
       430  23 -6.306165E+05  4.341827E+03 -1.202180E+04  5.969737E+02  9.934674E+03  3.950638E+03
       430  24 -6.344075E+05  3.228731E+02 -9.404908E+03 -4.758132E+03  3.425221E+03  3.925065E+03
       430  25 -8.590290E+05 -7.585861E+04 -8.183956E+04 -1.516151E+03  1.740304E+04  1.283440E+03
       430  26 -8.619660E+05 -5.341981E+04 -6.929124E+04  1.355596E+03  1.024954E+04  3.950886E+03
       430  27 -8.726068E+05 -5.915789E+04 -6.839316E+04 -6.479311E+03  3.096503E+03  3.924912E+03
       431   1 -3.711928E+05  6.270761E+04  5.608228E+04 -4.671367E+03 -1.600547E+03 -3.660823E+03
       431   2 -3.649854E+05  6.791583E+04  5.811246E+04  8.946819E+01  2.419263E+03 -4.198605E+03
       431   3 -3.609134E+05  6.516900E+04  5.561240E+04 -3.205706E+03  6.438681E+03 -4.248670E+03
       431   4 -6.332057E+05 -2.715597E+03 -8.884764E+03 -4.166975E+03 -1.788420E+03 -3.661095E+03
       431   5 -6.321272E+05  1.225347E+03 -8.052815E+03 -1.379707E+02  2.346848E+03 -4.198811E+03
       431   6 -6.332053E+05 -2.810740E+03 -1.183269E+04 -4.165186E+03  6.481688E+03 -4.248726E+03
       431   7 -8.951562E+05 -6.814395E+04 -7.385693E+04 -3.662811E+03 -1.976213E+03 -3.661367E+03
       431   8 -8.992041E+05 -6.547048E+04 -7.422341E+04 -3.653320E+02  2.274463E+03 -4.199017E+03
       431   9 -9.054298E+05 -7.079603E+04 -7.928330E+04 -5.124271E+03  6.524676E+03 -4.248783E+03
       431  10 -3.711928E+05  6.270759E+04  5.608225E+04 -4.671372E+03 -1.039336E-09  1.878664E-09
       431  11 -3.649854E+05  6.791581E+04  5.811242E+04  8.947637E+01 -6.951123E-10 -1.337230E-09
       431  12 -3.609135E+05  6.516897E+04  5.561229E+04 -3.205684E+03  1.389506E-09  4.968123E-10
       431  13 -6.332057E+05 -2.715612E+03 -8.884795E+03 -4.166981E+03 -1.111123E-09  9.213998E-10
       431  14 -6.321272E+05  1.225326E+03 -8.052859E+03 -1.379628E+02  1.153652E-09  3.846501E-10
       431  15 -6.332054E+05 -2.810770E+03 -1.183280E+04 -4.165164E+03  9.216827E-10 -6.930801E-10
       431  16 -8.951562E+05 -6.814396E+04 -7.385696E+04 -3.662817E+03  1.641297E-09 -5.274602E-10
       431  17 -8.992041E+05 -6.547050E+04 -7.422345E+04 -3.653243E+02 -9.774070E-11  1.088311E-09
       431  18 -9.054299E+05 -7.079606E+04 -7.928341E+04 -5.124249E+03 -5.892364E-10  5.682965E-10
       431  19 -3.711928E+05  6.270761E+04  5.608228E+04 -4.671367E+03  1.600547E+03  3.660823E+03
       431  20 -3.649854E+05  6.791583E+04  5.811246E+04  8.946819E+01 -2.419263E+03  4.198605E+03
       431  21 -3.609134E+05  6.516900E+04  5.561240E+04 -3.205706E+03 -6.438681E+03  4.248670E+03
       431  22 -6.332057E+05 -2.715597E+03 -8.884764E+03 -4.166975E+03  1.788420E+03  3.661095E+03
       431  23 -6.321272E+05  1.225347E+03 -8.052815E+03 -1.379707E+02 -2.346848E+03  4.198811E+03
       431  24 -6.332053E+05 -2.810740E+03 -1.183269E+04 -4.165186E+03 -6.481688E+03  4.248726E+03
       431  25 -8.951562E+05 -6.814395E+04 -7.385693E+04 -3.662811E+03  1.976213E+03  3.661367E+03
       431  26 -8.992041E+05 -6.547048E+04 -7.422341E+04 -3.653320E+02 -2.274463E+03  4.199017E+03
       431  27 -9.054298E+05 -7.079603E+04 -7.928330E+04 -5.124271E+03 -6.524676E+03  4.248783E+03
       432   1 -3.455545E+05  7.248988E+04  5.753846E+04 -4.827777E+03  8.942324E+03 -4.356777E+03
       432   2 -3.381716E+05  7.746192E+04  5.098216E+04  2.574665E+02  1.995293E+04 -4.567593E+03
       432   3 -3.390332E+05  5.339916E+04  3.008796E+04  2.932082E+02  3.096229E+04 -4.136340E+03
       432   4 -6.345667E+05  3.420545E+02 -1.406862E+04 -3.515354E+03  8.807141E+03 -4.357125E+03
       432   5 -6.304331E+05  4.497239E+03 -2.140267E+04 -9.646527E+02  1.996715E+04 -4.567724E+03
       432   6 -6.345742E+05 -2.041585E+04 -4.318320E+04 -3.463647E+03  3.112585E+04 -4.136212E+03
       432   7 -9.235028E+05 -7.181202E+04 -8.568191E+04 -2.203578E+03  8.672020E+03 -4.357473E+03
       432   8 -9.226169E+05 -6.847384E+04 -9.379386E+04 -2.186238E+03  1.998136E+04 -4.567855E+03
       432   9 -9.300359E+05 -9.423736E+04 -1.164609E+05 -7.218762E+03  3.128934E+04 -4.136085E+03
       432  10 -3.455546E+05  7.248984E+04  5.753827E+04 -4.827746E+03  5.063840E-10 -1.376066E-09
       432  11 -3.381720E+05  7.746179E+04  5.098137E+04  2.575399E+02 -1.138623E-09 -4.069175E-09
       432  12 -3.390342E+05  5.339888E+04  3.008613E+04  2.933114E+02  6.944966E-10 -2.287549E-09
       432  13 -6.345667E+05  3.420133E+02 -1.406880E+04 -3.515324E+03  1.141858E-11 -1.667544E-09
       432  14 -6.304335E+05  4.497109E+03 -2.140345E+04 -9.645792E+02 -2.777603E-09 -3.076255E-09
       432  15 -6.345753E+05 -2.041613E+04 -4.318506E+04 -3.463544E+03  5.565465E-10 -1.163967E-09
       432  16 -9.235029E+05 -7.181206E+04 -8.568209E+04 -2.203547E+03 -9.362790E-10 -1.037211E-09
       432  17 -9.226174E+05 -6.847397E+04 -9.379465E+04 -2.186164E+03 -2.176880E-09  3.545759E-09
       432  18 -9.300370E+05 -9.423764E+04 -1.164628E+05 -7.218658E+03 -1.234569E-10  8.195950E-10
       432  19 -3.455545E+05  7.248988E+04  5.753846E+04 -4.827777E+03 -8.942324E+03  4.356777E+03
       432  20 -3.381716E+05  7.746192E+04  5.098216E+04  2.574665E+02 -1.995293E+04  4.567593E+03
       432  21 -3.390332E+05  5.339916E+04  3.008796E+04  2.932082E+02 -3.096229E+04  4.136340E+03
       432  22 -6.345667E+05  3.420545E+02 -1.406862E+04 -3.515354E+03 -8.807141E+03  4.357125E+03
       432  23 -6.304331E+05  4.497239E+03 -2.140267E+04 -9.646527E+02 -1.996715E+04  4.567724E+03
       432  24 -6.345742E+05 -2.041585E+04 -4.318320E+04 -3.463647E+03 -3.112585E+04  4.136212E+03
       432  25 -9.235028E+05 -7.181202E+04 -8.568191E+04 -2.203578E+03 -8.672020E+03  4.357473E+03
       432  26 -9.226169E+05 -6.847384E+04 -9.379386E+04 -2.186238E+03 -1.998136E+04  4.567855E+03
       432  27 -9.300359E+05 -9.423736E+04 -1.164609E+05 -7.218762E+03 -3.128934E+04  4.136085E+03
       433   1 -3.403288E+05  8.134303E+04  2.330445E+04 -1.343537E+04  4.023570E+04 -4.732424E+03
       433   2 -3.116900E+05  1.073327E+05 -4.236112E+03  4.910161E+03  8.286862E+04 -5.005136E+03
       433   3 -3.380406E+05 -6.631530E+04 -1.093454E+05  2.187592E+04  1.254887E+05 -1.311218E+03
       433   4 -6.449865E+05  5.364600E+03 -5.213045E+04 -2.849291E+03  3.965276E+04 -4.733455E+03
       433   5 -6.174193E+05  3.097692E+04 -7.989635E+04 -1.901991E+03  8.321801E+04 -5.005015E+03
       433   6 -6.450303E+05 -1.432637E+05 -1.859059E+05 -2.333794E+03  1.267702E+05 -1.311483E+03
       433   7 -9.495595E+05 -7.062034E+04 -1.275722E+05  7.731531E+03  3.907010E+04 -4.734507E+03
       433   8 -9.230635E+05 -4.538569E+04 -1.555635E+05 -8.710849E+03  8.356721E+04 -5.004903E+03
       433   9 -9.519331E+05 -2.202170E+05 -2.624732E+05 -2.653160E+04  1.280511E+05 -1.311848E+03
       433  10 -3.403305E+05  8.134257E+04  2.330136E+04 -1.343522E+04  2.391525E-09 -4.295109E-09
       433  11 -3.116974E+05  1.073308E+05 -4.249071E+03  4.910496E+03 -1.229426E-09 -1.160181E-08
       433  12 -3.380576E+05 -6.631953E+04 -1.093750E+05  2.187606E+04 -1.792792E-09 -3.759365E-09
       433  13 -6.449882E+05  5.364153E+03 -5.213345E+04 -2.849140E+03  1.761890E-09 -1.251259E-08
       433  14 -6.174267E+05  3.097503E+04 -7.990943E+04 -1.901655E+03 -1.823538E-09  4.098969E-09
       433  15 -6.450475E+05 -1.432680E+05 -1.859361E+05 -2.333660E+03 -7.621886E-10 -9.560401E-10
       433  16 -9.495612E+05 -7.062077E+04 -1.275751E+05  7.731680E+03 -1.678150E-09 -2.042963E-09
       433  17 -9.230710E+05 -4.538759E+04 -1.555767E+05 -8.710512E+03 -1.211445E-09  3.271808E-09
       433  18 -9.519508E+05 -2.202215E+05 -2.625040E+05 -2.653147E+04  2.912339E-09 -3.853023E-09
       433  19 -3.403288E+05  8.134303E+04  2.330445E+04 -1.343537E+04 -4.023570E+04  4.732424E+03
       433  20 -3.116900E+05  1.073327E+05 -4.236112E+03  4.910161E+03 -8.286862E+04  5.005136E+03
       433  21 -3.380406E+05 -6.631530E+04 -1.093454E+05  2.187592E+04 -1.254887E+05  1.311218E+03
       433  22 -6.449865E+05  5.364600E+03 -5.213045E+04 -2.849291E+03 -3.965276E+04  4.733455E+03
       433  23 -6.174193E+05  3.097692E+04 -7.989635E+04 -1.901991E+03 -8.321801E+04  5.005015E+03
       433  24 -6.450303E+05 -1.432637E+05 -1.859059E+05 -2.333794E+03 -1.267702E+05  1.311483E+03
       433  25 -9.495595E+05 -7.062034E+04 -1.275722E+05  7.731531E+03 -3.907010E+04  4.734507E+03
       433  26 -9.230635E+05 -4.538569E+04 -1.555635E+05 -8.710849E+03 -8.356721E+04  5.004903E+03
       433  27 -9.519331E+05 -2.202170E+05 -2.624732E+05 -2.653160E+04 -1.280511E+05  1.311848E+03
       434   1 -2.416688E+05 -1.563946E+06 -2.489485E+05  6.958961E+04 -4.602570E+03 -5.697536E+04
       434   2 -1.661702E+05 -1.460135E+06 -1.798925E+05 -1.190195E+04 -1.244833E+04 -4.895808E+04
       434   3 -1.355367E+05 -1.366652E+06 -1.268942E+05  6.083060E+04 -7.980282E+03 -4.095248E+04
       434   4 -4.368356E+04 -7.724851E+05 -5.153225E+04  6.370832E+04 -4.600570E+03 -5.366430E+04
       434   5  6.793219E+03 -7.675897E+05 -8.473023E+03 -1.341871E+04 -1.244686E+04 -4.858839E+04
       434   6  1.294613E+04 -7.725026E+05  2.059176E+04  6.366839E+04 -7.985260E+03 -4.352558E+04
       434   7  1.542546E+05  1.954522E+04  1.458369E+05  5.781944E+04 -4.598636E+03 -5.034898E+04
       434   8  1.797207E+05 -7.460808E+04  1.629108E+05 -1.493730E+04 -1.244540E+04 -4.821827E+04
       434   9  1.614025E+05 -1.780316E+05  1.680514E+05  6.650872E+04 -7.990259E+03 -4.610112E+04
       434  10 -2.416697E+05 -1.563949E+06 -2.489547E+05  6.958940E+04  1.050383E-09  7.140026E-10
       434  11 -1.661710E+05 -1.460137E+06 -1.798973E+05 -1.190244E+04  1.093921E-09 -5.779279E-10
       434  12 -1.355373E+05 -1.366654E+06 -1.268975E+05  6.083033E+04  4.938470E-10 -7.047043E-11
       434  13 -4.368436E+04 -7.724882E+05 -5.153770E+04  6.370812E+04  2.160217E-09 -2.718550E-10
       434  14  6.792418E+03 -7.675923E+05 -8.477756E+03 -1.341920E+04  3.128672E-09 -1.277294E-09
       434  15  1.294555E+04 -7.725046E+05  2.058808E+04  6.366811E+04 -1.627769E-09 -2.821741E-09
       434  16  1.542539E+05  1.954249E+04  1.458321E+05  5.781925E+04  6.073004E-10 -3.726679E-10
       434  17  1.797199E+05 -7.461062E+04  1.629061E+05 -1.493778E+04  1.341762E-09 -1.388453E-09
       434  18  1.614019E+05 -1.780339E+05  1.680472E+05  6.650842E+04 -2.111324E-09  7.911512E-10
       434  19 -2.416688E+05 -1.563946E+06 -2.489485E+05  6.958961E+04  4.602570E+03  5.697536E+04
       434  20 -1.661702E+05 -1.460135E+06 -1.798925E+05 -1.190195E+04  1.244833E+04  4.895808E+04
       434  21 -1.355367E+05 -1.366652E+06 -1.268942E+05  6.083060E+04  7.980282E+03  4.095248E+04
       434  22 -4.368356E+04 -7.724851E+05 -5.153225E+04  6.370832E+04  4.600570E+03  5.366430E+04
       434  23  6.793219E+03 -7.675897E+05 -8.473023E+03 -1.341871E+04  1.244686E+04  4.858839E+04
       434  24  1.294613E+04 -7.725026E+05  2.059176E+04  6.366839E+04  7.985260E+03  4.352558E+04
       434  25  1.542546E+05  1.954522E+04  1.458369E+05  5.781944E+04  4.598636E+03  5.034898E+04
       434  26  1.797207E+05 -7.460808E+04  1.629108E+05 -1.493730E+04  1.244540E+04  4.821827E+04
       434  27  1.614025E+05 -1.780316E+05  1.680514E+05  6.650872E+04  7.990259E+03  4.610112E+04
       435   1 -5.784712E+04 -9.597867E+05 -1.487917E+04  5.927881E+04 -3.809694E+03 -4.793989E+04
       435   2 -3.901009E+04 -8.724462E+05  4.801436E+04 -1.190985E+04 -1.707986E+03 -8.512843E+04
       435   3  7.989843E+04 -7.561354E+05  1.599775E+05  7.611158E+04  6.943720E+02 -1.223256E+05
       435   4 -8.884321E+03 -7.637905E+05  3.359512E+04  6.488089E+04 -3.811197E+03 -4.843529E+04
       435   5 -1.550629E+04 -7.782577E+05  7.134432E+04 -1.483159E+04 -1.708929E+03 -8.569974E+04
       435   6  7.795173E+04 -7.637468E+05  1.582177E+05  6.466313E+04  6.949601E+02 -1.229667E+05
       435   7  4.007572E+04 -5.677593E+05  8.206658E+04  7.048471E+04 -3.812708E+03 -4.893084E+04
       435   8  7.996867E+03 -6.840611E+05  9.467362E+04 -1.775379E+04 -1.709866E+03 -8.627114E+04
       435   9  7.600552E+04 -7.713577E+05  1.564580E+05  5.321481E+04  6.955719E+02 -1.236079E+05
       435  10 -5.784776E+04 -9.597892E+05 -1.488352E+04  5.927867E+04 -6.062615E-10  2.781186E-09
       435  11 -3.901204E+04 -8.724540E+05  4.800071E+04 -1.190996E+04 -1.016127E-09 -1.900048E-09
       435  12  7.989441E+04 -7.561515E+05  1.599493E+05  7.611165E+04  8.042746E-10 -1.153469E-09
       435  13 -8.884967E+03 -7.637930E+05  3.359068E+04  6.488074E+04 -5.521058E-10 -4.772132E-09
       435  14 -1.550827E+04 -7.782656E+05  7.133049E+04 -1.483171E+04 -6.187426E-10 -2.510507E-09
       435  15  7.794767E+04 -7.637630E+05  1.581892E+05  6.466319E+04 -1.897646E-09 -3.263744E-09
       435  16  4.007506E+04 -5.677618E+05  8.206204E+04  7.048456E+04 -1.800943E-09 -3.710564E-10
       435  17  7.994863E+03 -6.840691E+05  9.465962E+04 -1.775391E+04  8.033359E-10 -1.928765E-09
       435  18  7.600141E+04 -7.713742E+05  1.564293E+05  5.321488E+04 -9.051506E-10  2.073401E-09
       435  19 -5.784712E+04 -9.597867E+05 -1.487917E+04  5.927881E+04  3.809694E+03  4.793989E+04
       435  20 -3.901009E+04 -8.724462E+05  4.801436E+04 -1.190985E+04  1.707986E+03  8.512843E+04
       435  21  7.989843E+04 -7.561354E+05  1.599775E+05  7.611158E+04 -6.943720E+02  1.223256E+05
       435  22 -8.884321E+03 -7.637905E+05  3.359512E+04  6.488089E+04  3.811197E+03  4.843529E+04
       435  23 -1.550629E+04 -7.782577E+05  7.134432E+04 -1.483159E+04  1.708929E+03  8.569974E+04
       435  24  7.795173E+04 -7.637468E+05  1.582177E+05  6.466313E+04 -6.949601E+02  1.229667E+05
       435  25  4.007572E+04 -5.677593E+05  8.206658E+04  7.048471E+04  3.812708E+03  4.893084E+04
       435  26  7.996867E+03 -6.840611E+05  9.467362E+04 -1.775379E+04  1.709866E+03  8.627114E+04
       435  27  7.600552E+04 -7.713577E+05  1.564580E+05  5.321481E+04 -6.955719E+02  1.236079E+05
       436   1  8.068298E+04 -3.144136E+05  2.951018E+05  2.279738E+04  4.567923E+03 -1.523133E+05
       436   2  9.513173E+03 -3.199956E+05  4.272806E+05  9.722716E+03  8.652497E+03 -3.190743E+05
       436   3  6.966030E+05 -1.136764E+05  8.578072E+05  1.529969E+05  2.897929E+03 -4.858343E+05
       436   4 -2.118010E+04 -7.232598E+05  1.936623E+05  6.443735E+04  4.552397E+03 -1.544884E+05
       436   5 -1.176167E+05 -8.289190E+05  3.014077E+05 -1.406958E+04  8.665390E+03 -3.187759E+05
       436   6  5.441027E+05 -7.229210E+05  7.059743E+05  6.376085E+04  2.970830E+03 -4.830351E+05
       436   7 -1.230491E+05 -1.131950E+06  9.221136E+04  1.060498E+05  4.536571E+03 -1.566621E+05
       436   8 -2.447640E+05 -1.337606E+06  1.755158E+05 -3.784243E+04  8.678270E+03 -3.184777E+05
       436   9  3.916043E+05 -1.331812E+06  5.541177E+05 -2.538764E+04  3.042987E+03 -4.802384E+05
       436  10  8.067673E+04 -3.144385E+05  2.950582E+05  2.279794E+04 -1.038577E-09  4.190177E-09
       436  11  9.485758E+03 -3.201049E+05  4.270890E+05  9.724939E+03  9.580273E-10  1.063225E-09
       436  12  6.965396E+05 -1.139298E+05  8.573635E+05  1.529980E+05 -8.718946E-10  5.858233E-10
       436  13 -2.118653E+04 -7.232855E+05  1.936174E+05  6.443791E+04  1.468441E-09 -4.877602E-09
       436  14 -1.176441E+05 -8.290282E+05  3.012163E+05 -1.406735E+04 -1.143239E-09 -1.354981E-09
       436  15  5.440400E+05 -7.231716E+05  7.055353E+05  6.376201E+04 -5.563586E-10 -1.513862E-09
       436  16 -1.230557E+05 -1.131977E+06  9.216512E+04  1.060503E+05 -3.564240E-09 -1.016653E-09
       436  17 -2.447913E+05 -1.337715E+06  1.753247E+05 -3.784020E+04 -2.929996E-09 -3.854142E-09
       436  18  3.915422E+05 -1.332059E+06  5.536833E+05 -2.538647E+04 -3.968301E-10 -2.390510E-10
       436  19  8.068298E+04 -3.144136E+05  2.951018E+05  2.279738E+04 -4.567923E+03  1.523133E+05
       436  20  9.513173E+03 -3.199956E+05  4.272806E+05  9.722716E+03 -8.652497E+03  3.190743E+05
       436  21  6.966030E+05 -1.136764E+05  8.578072E+05  1.529969E+05 -2.897929E+03  4.858343E+05
       436  22 -2.118010E+04 -7.232598E+05  1.936623E+05  6.443735E+04 -4.552397E+03  1.544884E+05
       436  23 -1.176167E+05 -8.289190E+05  3.014077E+05 -1.406958E+04 -8.665390E+03  3.187759E+05
       436  24  5.441027E+05 -7.229210E+05  7.059743E+05  6.376085E+04 -2.970830E+03  4.830351E+05
       436  25 -1.230491E+05 -1.131950E+06  9.221136E+04  1.060498E+05 -4.536571E+03  1.566621E+05
       436  26 -2.447640E+05 -1.337606E+06  1.755158E+05 -3.784243E+04 -8.678270E+03  3.184777E+05
       436  27  3.916043E+05 -1.331812E+06  5.541177E+05 -2.538764E+04 -3.042987E+03  4.802384E+05
       437   1  1.422714E+05  1.584171E+05  1.505179E+05  2.326099E+04  4.881092E+04  3.483433E+04
       437   2  1.117984E+05  8.669360E+04  9.946130E+04  5.135464E+04  3.295504E+04  1.944526E+04
       437   3  1.254816E+05  9.276277E+04  8.649281E+04  4.886672E+04  1.514482E+04  6.660271E+03
       437   4 -2.964265E+04  1.767689E+04  8.820647E+04 -6.993516E+04  4.794977E+04  3.418686E+04
       437   5 -6.428736E+04 -4.358813E+04  3.882629E+04 -3.781481E+04  3.272459E+04  1.927189E+04
       437   6 -5.489962E+04 -2.718088E+04  2.699696E+04 -3.628060E+04  1.554489E+04  6.960880E+03
       437   7 -2.015261E+05 -1.230412E+05  2.589041E+04 -1.631007E+05  4.708895E+04  3.353967E+04
       437   8 -2.403412E+05 -1.738521E+05 -2.181327E+04 -1.269557E+05  3.249423E+04  1.909860E+04
       437   9 -2.352473E+05 -1.471106E+05 -3.250333E+04 -1.214015E+05  1.594481E+04  7.261379E+03
       437  10  1.422685E+05  1.584152E+05  1.505111E+05  2.325962E+04 -1.170055E-09 -2.193061E-10
       437  11  1.117972E+05  8.669290E+04  9.945854E+04  5.135412E+04 -2.105116E-09 -1.273746E-10
       437  12  1.254814E+05  9.276266E+04  8.649230E+04  4.886664E+04  1.205013E-09 -1.107040E-09
       437  13 -2.964543E+04  1.767501E+04  8.819996E+04 -6.993648E+04 -3.376114E-10  8.116969E-11
       437  14 -6.428861E+04 -4.358882E+04  3.882358E+04 -3.781532E+04 -3.553763E-09  8.983595E-10
       437  15 -5.489990E+04 -2.718099E+04  2.699641E+04 -3.628069E+04 -1.142230E-09 -1.074893E-09
       437  16 -2.015287E+05 -1.230430E+05  2.588412E+04 -1.631019E+05 -7.922505E-10  7.264393E-10
       437  17 -2.403424E+05 -1.738528E+05 -2.181594E+04 -1.269562E+05 -1.539932E-09  9.069697E-10
       437  18 -2.352476E+05 -1.471107E+05 -3.250390E+04 -1.214016E+05 -1.498154E-09  8.574590E-10
       437  19  1.422714E+05  1.584171E+05  1.505179E+05  2.326099E+04 -4.881092E+04 -3.483433E+04
       437  20  1.117984E+05  8.669360E+04  9.946130E+04  5.135464E+04 -3.295504E+04 -1.944526E+04
       437  21  1.254816E+05  9.276277E+04  8.649281E+04  4.886672E+04 -1.514482E+04 -6.660271E+03
       437  22 -2.964265E+04  1.767689E+04  8.820647E+04 -6.993516E+04 -4.794977E+04 -3.418686E+04
       437  23 -6.428736E+04 -4.358813E+04  3.882629E+04 -3.781481E+04 -3.272459E+04 -1.927189E+04
       437  24 -5.489962E+04 -2.718088E+04  2.699696E+04 -3.628060E+04 -1.554489E+04 -6.960880E+03
       437  25 -2.015261E+05 -1.230412E+05  2.589041E+04 -1.631007E+05 -4.708895E+04 -3.353967E+04
       437  26 -2.403412E+05 -1.738521E+05 -2.181327E+04 -1.269557E+05 -3.249423E+04 -1.909860E+04
       437  27 -2.352473E+05 -1.471106E+05 -3.250333E+04 -1.214015E+05 -1.594481E+04 -7.261379E+03
       438   1  1.056381E+05  9.524897E+04  7.824150E+04  3.574092E+04  1.164663E+04  4.783950E+03
       438   2  1.009058E+05  7.888838E+04  6.894953E+04  3.699436E+04  5.280670E+03 -2.803179E+02
       438   3  9.772219E+04  8.230960E+04  6.900586E+04  3.528727E+04 -1.353535E+03 -4.987621E+03
       438   4 -5.372776E+04 -2.121271E+04  2.355411E+04 -4.427947E+04  1.155853E+04  4.717606E+03
       438   5 -5.596411E+04 -3.369983E+04  1.556937E+04 -4.084237E+04  5.280219E+03 -2.807540E+02
       438   6 -5.666899E+04 -2.642136E+04  1.685897E+04 -4.036638E+04 -1.266413E+03 -4.922169E+03
       438   7 -2.130668E+05 -1.376599E+05 -3.113676E+04 -1.242765E+05  1.147045E+04  4.651286E+03
       438   8 -2.128082E+05 -1.462747E+05 -3.781419E+04 -1.186570E+05  5.279767E+03 -2.811901E+02
       438   9 -2.110353E+05 -1.351402E+05 -3.529121E+04 -1.159992E+05 -1.179321E+03 -4.856739E+03
       438  10  1.056379E+05  9.524891E+04  7.824120E+04  3.574088E+04  3.967304E-10 -8.855776E-11
       438  11  1.009057E+05  7.888838E+04  6.894948E+04  3.699436E+04 -2.016314E-11  5.323494E-10
       438  12  9.772218E+04  8.230958E+04  6.900581E+04  3.528726E+04  7.910786E-10  1.827182E-09
       438  13 -5.372791E+04 -2.121277E+04  2.355382E+04 -4.427952E+04  8.696074E-10 -2.287064E-09
       438  14 -5.596414E+04 -3.369984E+04  1.556931E+04 -4.084237E+04 -5.528553E-10  1.385466E-09
       438  15 -5.666900E+04 -2.642139E+04  1.685893E+04 -4.036638E+04 -3.088412E-10 -3.943046E-11
       438  16 -2.130669E+05 -1.376599E+05 -3.113705E+04 -1.242765E+05 -3.493667E-10  2.923252E-10
       438  17 -2.128082E+05 -1.462747E+05 -3.781424E+04 -1.186570E+05  7.288625E-10 -2.139094E-10
       438  18 -2.110353E+05 -1.351402E+05 -3.529125E+04 -1.159992E+05 -1.509782E-09  9.839161E-10
       438  19  1.056381E+05  9.524897E+04  7.824150E+04  3.574092E+04 -1.164663E+04 -4.783950E+03
       438  20  1.009058E+05  7.888838E+04  6.894953E+04  3.699436E+04 -5.280670E+03  2.803179E+02
       438  21  9.772219E+04  8.230960E+04  6.900586E+04  3.528727E+04  1.353535E+03  4.987621E+03
       438  22 -5.372776E+04 -2.121271E+04  2.355411E+04 -4.427947E+04 -1.155853E+04 -4.717606E+03
       438  23 -5.596411E+04 -3.369983E+04  1.556937E+04 -4.084237E+04 -5.280219E+03  2.807540E+02
       438  24 -5.666899E+04 -2.642136E+04  1.685897E+04 -4.036638E+04  1.266413E+03  4.922169E+03
       438  25 -2.130668E+05 -1.376599E+05 -3.113676E+04 -1.242765E+05 -1.147045E+04 -4.651286E+03
       438  26 -2.128082E+05 -1.462747E+05 -3.781419E+04 -1.186570E+05 -5.279767E+03  2.811901E+02
       438  27 -2.110353E+05 -1.351402E+05 -3.529121E+04 -1.159992E+05  1.179321E+03  4.856739E+03
       439   1  8.064756E+04  7.369721E+04  6.578709E+04  2.899791E+04 -3.950351E+03 -6.728939E+03
       439   2  7.861991E+04  6.172147E+04  7.161135E+04  2.581482E+04 -1.456556E+04 -1.456348E+04
       439   3  8.026574E+04  7.282291E+04  9.103163E+04  1.864131E+04 -2.523103E+04 -2.233159E+04
       439   4 -5.669834E+04 -2.657111E+04  1.871559E+04 -3.992366E+04 -3.933492E+03 -6.716306E+03
       439   5 -5.638457E+04 -3.432096E+04  2.583398E+04 -4.078143E+04 -1.453000E+04 -1.453678E+04
       439   6 -5.239882E+04 -1.899519E+04  4.653481E+04 -4.563038E+04 -2.517679E+04 -2.229091E+04
       439   7 -1.940250E+05 -1.268292E+05 -2.835872E+04 -1.088282E+05 -3.916637E+03 -6.703676E+03
       439   8 -1.913701E+05 -1.303539E+05 -1.994594E+04 -1.073616E+05 -1.449444E+04 -1.451009E+04
       439   9 -1.850447E+05 -1.108045E+05  2.035690E+03 -1.098868E+05 -2.512255E+04 -2.225024E+04
       439  10  8.064753E+04  7.369715E+04  6.578697E+04  2.899789E+04  2.294965E-09  2.914093E-09
       439  11  7.861962E+04  6.172119E+04  7.161056E+04  2.581465E+04  1.535429E-09 -3.035428E-09
       439  12  8.026493E+04  7.282220E+04  9.102950E+04  1.864086E+04 -9.141013E-10 -1.864006E-09
       439  13 -5.669837E+04 -2.657116E+04  1.871547E+04 -3.992368E+04  1.010231E-09  2.838476E-09
       439  14 -5.638485E+04 -3.432125E+04  2.583319E+04 -4.078160E+04  1.536350E-09 -3.539588E-10
       439  15 -5.239963E+04 -1.899589E+04  4.653268E+04 -4.563083E+04 -6.135214E-10 -1.989648E-09
       439  16 -1.940250E+05 -1.268292E+05 -2.835883E+04 -1.088282E+05 -1.533964E-10  2.200020E-10
       439  17 -1.913703E+05 -1.303542E+05 -1.994673E+04 -1.073617E+05  9.255461E-10 -3.768935E-09
       439  18 -1.850455E+05 -1.108052E+05  2.033573E+03 -1.098873E+05 -1.705340E-09 -6.255689E-11
       439  19  8.064756E+04  7.369721E+04  6.578709E+04  2.899791E+04  3.950351E+03  6.728939E+03
       439  20  7.861991E+04  6.172147E+04  7.161135E+04  2.581482E+04  1.456556E+04  1.456348E+04
       439  21  8.026574E+04  7.282291E+04  9.103163E+04  1.864131E+04  2.523103E+04  2.233159E+04
       439  22 -5.669834E+04 -2.657111E+04  1.871559E+04 -3.992366E+04  3.933492E+03  6.716306E+03
       439  23 -5.638457E+04 -3.432096E+04  2.583398E+04 -4.078143E+04  1.453000E+04  1.453678E+04
       439  24 -5.239882E+04 -1.899519E+04  4.653481E+04 -4.563038E+04  2.517679E+04  2.229091E+04
       439  25 -1.940250E+05 -1.268292E+05 -2.835872E+04 -1.088282E+05  3.916637E+03  6.703676E+03
       439  26 -1.913701E+05 -1.303539E+05 -1.994594E+04 -1.073616E+05  1.449444E+04  1.451009E+04
       439  27 -1.850447E+05 -1.108045E+05  2.035690E+03 -1.098868E+05  2.512255E+04  2.225024E+04
       440   1  5.465319E+04  6.306835E+04  9.694611E+04  2.459728E+04 -3.274244E+04 -2.788065E+04
       440   2  4.686540E+04  2.850799E+04  1.304250E+05  1.734359E+04 -7.143964E+04 -5.684968E+04
       440   3  1.012586E+05  9.678356E+04  2.271284E+05 -3.024374E+04 -1.102413E+05 -8.568250E+04
       440   4 -5.379161E+04 -2.660350E+04  5.770847E+04 -3.460879E+04 -3.272441E+04 -2.786648E+04
       440   5 -6.787918E+04 -4.812424E+04  9.250992E+04 -3.698156E+04 -7.138006E+04 -5.680543E+04
       440   6 -1.978366E+04  3.319587E+04  1.905107E+05 -7.969177E+04 -1.101396E+05 -8.560976E+04
       440   7 -1.622242E+05 -1.162663E+05  1.846898E+04 -9.380252E+04 -3.270638E+04 -2.785232E+04
       440   8 -1.826101E+05 -1.247507E+05  5.459308E+04 -9.129593E+04 -7.132050E+04 -5.676119E+04
       440   9 -1.408105E+05 -3.038843E+04  1.538914E+05 -1.291307E+05 -1.100379E+05 -8.553703E+04
       440  10  5.465183E+04  6.306723E+04  9.694263E+04  2.459654E+04  7.573366E-10  2.396494E-09
       440  11  4.685906E+04  2.850315E+04  1.304093E+05  1.734032E+04 -2.423609E-09  5.224327E-09
       440  12  1.012436E+05  9.677242E+04  2.270918E+05 -3.025134E+04 -2.397977E-10 -2.127679E-10
       440  13 -5.379297E+04 -2.660462E+04  5.770500E+04 -3.460953E+04  1.275195E-10  1.489813E-09
       440  14 -6.788552E+04 -4.812907E+04  9.249428E+04 -3.698482E+04 -1.404299E-09  3.718032E-09
       440  15 -1.979866E+04  3.318474E+04  1.904741E+05 -7.969937E+04  1.765875E-10 -4.904599E-09
       440  16 -1.622255E+05 -1.162674E+05  1.846551E+04 -9.380325E+04 -3.434899E-09  6.057905E-10
       440  17 -1.826165E+05 -1.247556E+05  5.457746E+04 -9.129919E+04 -5.327117E-10 -6.723647E-10
       440  18 -1.408255E+05 -3.039954E+04  1.538549E+05 -1.291383E+05 -5.469376E-09  1.054091E-09
       440  19  5.465319E+04  6.306835E+04  9.694611E+04  2.459728E+04  3.274244E+04  2.788065E+04
       440  20  4.686540E+04  2.850799E+04  1.304250E+05  1.734359E+04  7.143964E+04  5.684968E+04
       440  21  1.012586E+05  9.678356E+04  2.271284E+05 -3.024374E+04  1.102413E+05  8.568250E+04
       440  22 -5.379161E+04 -2.660350E+04  5.770847E+04 -3.460879E+04  3.272441E+04  2.786648E+04
       440  23 -6.787918E+04 -4.812424E+04  9.250992E+04 -3.698156E+04  7.138006E+04  5.680543E+04
       440  24 -1.978366E+04  3.319587E+04  1.905107E+05 -7.969177E+04  1.101396E+05  8.560976E+04
       440  25 -1.622242E+05 -1.162663E+05  1.846898E+04 -9.380252E+04  3.270638E+04  2.785232E+04
       440  26 -1.826101E+05 -1.247507E+05  5.459308E+04 -9.129593E+04  7.132050E+04  5.676119E+04
       440  27 -1.408105E+05 -3.038843E+04  1.538914E+05 -1.291307E+05  1.100379E+05  8.553703E+04
       441   1  1.204402E+04  9.052880E+04  2.618191E+05  5.696656E+04 -1.401011E+05 -1.083477E+05
       441   2 -3.381625E+04 -1.074600E+05  3.844318E+05  2.790136E+04 -2.946425E+05 -2.248423E+05
       441   3  3.915992E+05  3.579069E+05  8.550556E+05 -3.066712E+05 -4.499529E+05 -3.402920E+05
       441   4 -3.182404E+04 -2.307789E+04  2.306473E+05 -2.183686E+03 -1.402051E+05 -1.084084E+05
       441   5 -1.475724E+05 -1.443401E+05  3.546130E+05 -8.170825E+03 -2.944630E+05 -2.247271E+05
       441   6  2.079291E+05  3.977600E+05  8.264011E+05 -3.196797E+05 -4.494623E+05 -3.400400E+05
       441   7 -7.568620E+04 -1.366623E+05  1.994757E+05 -6.132544E+04 -1.403092E+05 -1.084691E+05
       441   8 -2.613131E+05 -1.812188E+05  3.247935E+05 -4.423807E+04 -2.942835E+05 -2.246119E+05
       441   9  2.431459E+04  4.376326E+05  7.977514E+05 -3.326955E+05 -4.489718E+05 -3.397879E+05
       441  10  1.201980E+04  9.051093E+04  2.617602E+05  5.695434E+04  7.772649E-10 -2.444475E-10
       441  11 -3.392300E+04 -1.075376E+05  3.841737E+05  2.784802E+04  2.368159E-09  3.253053E-09
       441  12  3.913509E+05  3.577283E+05  8.544576E+05 -3.067944E+05 -2.392116E-09  2.273877E-09
       441  13 -3.184830E+04 -2.309578E+04  2.305883E+05 -2.195924E+03 -1.162482E-10 -9.340755E-10
       441  14 -1.476790E+05 -1.444176E+05  3.543551E+05 -8.224104E+03 -1.064725E-09  5.720425E-09
       441  15  2.076812E+05  3.975817E+05  8.258041E+05 -3.198027E+05  3.937934E-09 -1.395751E-09
       441  16 -7.571049E+04 -1.366802E+05  1.994166E+05 -6.133769E+04 -5.068177E-09  5.252288E-09
       441  17 -2.614197E+05 -1.812962E+05  3.245359E+05 -4.429129E+04 -1.115553E-09  1.258519E-09
       441  18  2.406722E+04  4.374545E+05  7.971555E+05 -3.328183E+05 -1.435670E-09  7.118875E-10
       441  19  1.204402E+04  9.052880E+04  2.618191E+05  5.696656E+04  1.401011E+05  1.083477E+05
       441  20 -3.381625E+04 -1.074600E+05  3.844318E+05  2.790136E+04  2.946425E+05  2.248423E+05
       441  21  3.915992E+05  3.579069E+05  8.550556E+05 -3.066712E+05  4.499529E+05  3.402920E+05
       441  22 -3.182404E+04 -2.307789E+04  2.306473E+05 -2.183686E+03  1.402051E+05  1.084084E+05
       441  23 -1.475724E+05 -1.443401E+05  3.546130E+05 -8.170825E+03  2.944630E+05  2.247271E+05
       441  24  2.079291E+05  3.977600E+05  8.264011E+05 -3.196797E+05  4.494623E+05  3.400400E+05
       441  25 -7.568620E+04 -1.366623E+05  1.994757E+05 -6.132544E+04  1.403092E+05  1.084691E+05
       441  26 -2.613131E+05 -1.812188E+05  3.247935E+05 -4.423807E+04  2.942835E+05  2.246119E+05
       441  27  2.431459E+04  4.376326E+05  7.977514E+05 -3.326955E+05  4.489718E+05  3.397879E+05
       442   1 -1.518020E+06 -1.788413E+05 -3.158866E+05 -3.796630E+04 -3.971908E+05 -8.067580E+03
       442   2 -1.501578E+06  3.592878E+05  7.149731E+02 -3.823393E+04 -2.605030E+05 -1.976583E+04
       442   3 -1.658179E+06  2.609428E+05  7.001368E+04  7.211689E+04 -1.239215E+05 -1.500472E+04
       442   4 -2.632041E+06 -4.570806E+05 -5.939184E+05  3.330354E+04 -4.016030E+05 -8.134427E+03
       442   5 -2.544770E+06  9.873459E+04 -2.577667E+05 -2.302572E+04 -2.612024E+05 -1.977975E+04
       442   6 -2.631514E+06  1.683477E+04 -1.718233E+05  3.127667E+04 -1.208916E+05 -1.497844E+04
       442   7 -3.744921E+06 -7.353938E+05 -8.720408E+05  1.044440E+05 -4.060068E+05 -8.202381E+03
       442   8 -3.586969E+06 -1.618992E+05 -5.163294E+05 -7.844460E+03 -2.619003E+05 -1.979373E+04
       442   9 -3.603984E+06 -2.273390E+05 -4.137305E+05 -9.500773E+03 -1.178664E+05 -1.495254E+04
       442  10 -1.518190E+06 -1.788839E+05 -3.161839E+05 -3.796888E+04 -9.352134E-10  2.009854E-09
       442  11 -1.501651E+06  3.592691E+05  5.863838E+02 -3.823808E+04 -6.865928E-10 -2.915162E-09
       442  12 -1.658195E+06  2.609384E+05  6.998432E+04  7.211540E+04  4.505150E-09 -1.134773E-08
       442  13 -2.632215E+06 -4.571242E+05 -5.942229E+05  3.330090E+04 -1.007344E-09  6.117798E-09
       442  14 -2.544843E+06  9.871575E+04 -2.578962E+05 -2.302988E+04 -4.981659E-09  1.600819E-09
       442  15 -2.631530E+06  1.683058E+04 -1.718513E+05  3.127521E+04 -1.978748E-09  1.905700E-09
       442  16 -3.745099E+06 -7.354385E+05 -8.723526E+05  1.044413E+05  1.375119E-09  3.761193E-09
       442  17 -3.587043E+06 -1.619182E+05 -5.164598E+05 -7.848643E+03 -1.792964E-09 -9.248248E-09
       442  18 -3.603999E+06 -2.273430E+05 -4.137572E+05 -9.502195E+03  8.224185E-10 -1.460716E-08
       442  19 -1.518020E+06 -1.788413E+05 -3.158866E+05 -3.796630E+04  3.971908E+05  8.067580E+03
       442  20 -1.501578E+06  3.592878E+05  7.149731E+02 -3.823393E+04  2.605030E+05  1.976583E+04
       442  21 -1.658179E+06  2.609428E+05  7.001368E+04  7.211689E+04  1.239215E+05  1.500472E+04
       442  22 -2.632041E+06 -4.570806E+05 -5.939184E+05  3.330354E+04  4.016030E+05  8.134427E+03
       442  23 -2.544770E+06  9.873459E+04 -2.577667E+05 -2.302572E+04  2.612024E+05  1.977975E+04
       442  24 -2.631514E+06  1.683477E+04 -1.718233E+05  3.127667E+04  1.208916E+05  1.497844E+04
       442  25 -3.744921E+06 -7.353938E+05 -8.720408E+05  1.044440E+05  4.060068E+05  8.202381E+03
       442  26 -3.586969E+06 -1.618992E+05 -5.163294E+05 -7.844460E+03  2.619003E+05  1.979373E+04
       442  27 -3.603984E+06 -2.273390E+05 -4.137305E+05 -9.500773E+03  1.178664E+05  1.495254E+04
       443   1 -1.952879E+06  9.727055E+04  1.521426E+04  3.262265E+04 -9.264655E+04 -1.071314E+04
       443   2 -2.028930E+06  1.544326E+05  5.641228E+04 -3.148015E+04 -5.098099E+04 -9.338105E+03
       443   3 -2.136979E+06  1.108455E+05  4.496925E+04  4.894593E+04 -9.344798E+03 -5.559948E+03
       443   4 -2.599971E+06 -6.443128E+04 -1.453722E+05  3.986961E+04 -9.261528E+04 -1.071520E+04
       443   5 -2.583875E+06  1.563495E+04 -8.128353E+04 -3.261434E+04 -5.041331E+04 -9.334241E+03
       443   6 -2.599911E+06 -5.193639E+03 -7.024800E+04  3.943991E+04 -8.234551E+03 -5.550356E+03
       443   7 -3.246681E+06 -2.261643E+05 -3.059900E+05  4.710828E+04 -9.258399E+04 -1.071726E+04
       443   8 -3.138540E+06 -1.231859E+05 -2.190024E+05 -3.374807E+04 -4.984613E+04 -9.330378E+03
       443   9 -3.062647E+06 -1.212487E+05 -1.854813E+05  2.994057E+04 -7.125131E+03 -5.540795E+03
       443  10 -1.952888E+06  9.726811E+04  1.519786E+04  3.262185E+04 -1.250337E-11 -2.047408E-08
       443  11 -2.028933E+06  1.544318E+05  5.640721E+04 -3.148054E+04 -6.143550E-09  2.460693E-09
       443  12 -2.136979E+06  1.108455E+05  4.496902E+04  4.894589E+04 -5.144783E-09  1.287237E-08
       443  13 -2.599980E+06 -6.443371E+04 -1.453886E+05  3.986881E+04 -2.146998E-09 -1.454378E-08
       443  14 -2.583878E+06  1.563417E+04 -8.128848E+04 -3.261472E+04 -3.646380E-09 -5.881841E-09
       443  15 -2.599911E+06 -5.193691E+03 -7.024819E+04  3.943987E+04  2.787518E-09 -3.603466E-09
       443  16 -3.246690E+06 -2.261667E+05 -3.060064E+05  4.710748E+04  2.078465E-09 -5.889126E-09
       443  17 -3.138542E+06 -1.231866E+05 -2.190072E+05 -3.374844E+04  5.608980E-10 -6.300846E-09
       443  18 -3.062647E+06 -1.212488E+05 -1.854815E+05  2.994053E+04  7.917675E-09  7.929108E-09
       443  19 -1.952879E+06  9.727055E+04  1.521426E+04  3.262265E+04  9.264655E+04  1.071314E+04
       443  20 -2.028930E+06  1.544326E+05  5.641228E+04 -3.148015E+04  5.098099E+04  9.338105E+03
       443  21 -2.136979E+06  1.108455E+05  4.496925E+04  4.894593E+04  9.344798E+03  5.559948E+03
       443  22 -2.599971E+06 -6.443128E+04 -1.453722E+05  3.986961E+04  9.261528E+04  1.071520E+04
       443  23 -2.583875E+06  1.563495E+04 -8.128353E+04 -3.261434E+04  5.041331E+04  9.334241E+03
       443  24 -2.599911E+06 -5.193639E+03 -7.024800E+04  3.943991E+04  8.234551E+03  5.550356E+03
       443  25 -3.246681E+06 -2.261643E+05 -3.059900E+05  4.710828E+04  9.258399E+04  1.071726E+04
       443  26 -3.138540E+06 -1.231859E+05 -2.190024E+05 -3.374807E+04  4.984613E+04  9.330378E+03
       443  27 -3.062647E+06 -1.212487E+05 -1.854813E+05  2.994057E+04  7.125131E+03  5.540795E+03
       444   1 -2.522466E+06  1.304859E+04 -5.081124E+04  3.638276E+04  3.363087E+03 -2.811857E+03
       444   2 -2.605656E+06  9.341900E+03 -8.305608E+04 -3.399294E+04  4.393296E+04  8.884539E+02
       444   3 -2.721404E+06 -8.946564E+04 -1.662817E+05  5.181313E+04  8.450640E+04  3.429362E+03
       444   4 -2.599929E+06 -6.151269E+03 -6.976238E+04  4.202203E+04  4.300942E+03 -2.803417E+03
       444   5 -2.583714E+06  1.478504E+04 -7.764073E+04 -3.583388E+04  4.459345E+04  8.941887E+02
       444   6 -2.600012E+06 -5.932754E+04 -1.363027E+05  4.249292E+04  8.489600E+04  3.431423E+03
       444   7 -2.677387E+06 -2.535144E+04 -8.871394E+04  4.766058E+04  5.238681E+03 -2.794958E+03
       444   8 -2.561771E+06  2.022816E+04 -7.222541E+04 -3.767489E+04  4.525395E+04  8.999196E+02
       444   9 -2.478607E+06 -2.919018E+04 -1.063247E+05  3.317084E+04  8.528566E+04  3.433472E+03
       444  10 -2.522466E+06  1.304858E+04 -5.081127E+04  3.638277E+04  6.414837E-10  1.987263E-08
       444  11 -2.605658E+06  9.341378E+03 -8.305972E+04 -3.399297E+04 -4.695396E-09  1.166757E-08
       444  12 -2.721411E+06 -8.946758E+04 -1.662952E+05  5.181290E+04  7.600221E-09 -1.967163E-09
       444  13 -2.599929E+06 -6.151283E+03 -6.976243E+04  4.202204E+04  3.994628E-09 -3.906463E-09
       444  14 -2.583716E+06  1.478450E+04 -7.764448E+04 -3.583391E+04 -2.697177E-09  1.151448E-08
       444  15 -2.600020E+06 -5.932949E+04 -1.363163E+05  4.249268E+04  4.986057E-10  2.405752E-08
       444  16 -2.677387E+06 -2.535146E+04 -8.871400E+04  4.766059E+04  3.152249E-09  1.746141E-08
       444  17 -2.561774E+06  2.022761E+04 -7.222927E+04 -3.767492E+04 -5.587221E-10  1.676716E-08
       444  18 -2.478615E+06 -2.919216E+04 -1.063384E+05  3.317060E+04  2.475727E-11  1.500205E-08
       444  19 -2.522466E+06  1.304859E+04 -5.081124E+04  3.638276E+04 -3.363087E+03  2.811857E+03
       444  20 -2.605656E+06  9.341900E+03 -8.305608E+04 -3.399294E+04 -4.393296E+04 -8.884539E+02
       444  21 -2.721404E+06 -8.946564E+04 -1.662817E+05  5.181313E+04 -8.450640E+04 -3.429362E+03
       444  22 -2.599929E+06 -6.151269E+03 -6.976238E+04  4.202203E+04 -4.300942E+03  2.803417E+03
       444  23 -2.583714E+06  1.478504E+04 -7.764073E+04 -3.583388E+04 -4.459345E+04 -8.941887E+02
       444  24 -2.600012E+06 -5.932754E+04 -1.363027E+05  4.249292E+04 -8.489600E+04 -3.431423E+03
       444  25 -2.677387E+06 -2.535144E+04 -8.871394E+04  4.766058E+04 -5.238681E+03  2.794958E+03
       444  26 -2.561771E+06  2.022816E+04 -7.222541E+04 -3.767489E+04 -4.525395E+04 -8.999196E+02
       444  27 -2.478607E+06 -2.919018E+04 -1.063247E+05  3.317084E+04 -8.528566E+04 -3.433472E+03
       445   1 -3.133675E+06 -1.112041E+05 -2.862326E+05  1.974158E+03  1.089919E+05  7.358001E+03
       445   2 -3.141970E+06 -5.685180E+04 -3.870473E+05 -1.782318E+04  2.419659E+05  1.264912E+04
       445   3 -3.317078E+06 -5.950353E+05 -7.231062E+05  1.072941E+05  3.750113E+05  6.759670E+03
       445   4 -2.629646E+06  1.576569E+04 -1.606605E+05  3.854516E+04  1.113884E+05  7.384385E+03
       445   5 -2.546803E+06  9.175304E+04 -2.395070E+05 -3.232367E+04  2.417961E+05  1.264007E+04
       445   6 -2.630162E+06 -4.240457E+05 -5.516371E+05  4.172684E+04  3.722953E+05  6.697801E+03
       445   7 -2.125382E+06  1.427209E+05 -3.510703E+04  7.514551E+04  1.137869E+05  7.411040E+03
       445   8 -1.951312E+06  2.403322E+05 -9.199290E+04 -4.683877E+04  2.416260E+05  1.263103E+04
       445   9 -1.942805E+06 -2.530748E+05 -3.802009E+05 -2.391402E+04  3.695761E+05  6.636559E+03
       445  10 -3.133688E+06 -1.112073E+05 -2.862551E+05  1.973511E+03  9.645597E-09  2.848387E-09
       445  11 -3.142033E+06 -5.686779E+04 -3.871582E+05 -1.782565E+04 -6.570443E-09  2.237609E-08
       445  12 -3.317230E+06 -5.950733E+05 -7.233720E+05  1.072920E+05 -5.329286E-10  7.690356E-09
       445  13 -2.629659E+06  1.576229E+04 -1.606841E+05  3.854449E+04 -1.155243E-09  1.255209E-08
       445  14 -2.546866E+06  9.173709E+04 -2.396176E+05 -3.232614E+04 -5.521811E-09  1.774591E-08
       445  15 -2.630311E+06 -4.240832E+05 -5.518987E+05  4.172483E+04  1.720929E-09 -9.789580E-10
       445  16 -2.125396E+06  1.427174E+05 -3.513155E+04  7.514483E+04 -6.405773E-09  1.323982E-08
       445  17 -1.951375E+06  2.403163E+05 -9.210328E+04 -4.684123E+04  7.397447E-10 -1.779026E-09
       445  18 -1.942952E+06 -2.531116E+05 -3.804585E+05 -2.391600E+04  4.189981E-09 -6.497961E-09
       445  19 -3.133675E+06 -1.112041E+05 -2.862326E+05  1.974158E+03 -1.089919E+05 -7.358001E+03
       445  20 -3.141970E+06 -5.685180E+04 -3.870473E+05 -1.782318E+04 -2.419659E+05 -1.264912E+04
       445  21 -3.317078E+06 -5.950353E+05 -7.231062E+05  1.072941E+05 -3.750113E+05 -6.759670E+03
       445  22 -2.629646E+06  1.576569E+04 -1.606605E+05  3.854516E+04 -1.113884E+05 -7.384385E+03
       445  23 -2.546803E+06  9.175304E+04 -2.395070E+05 -3.232367E+04 -2.417961E+05 -1.264007E+04
       445  24 -2.630162E+06 -4.240457E+05 -5.516371E+05  4.172684E+04 -3.722953E+05 -6.697801E+03
       445  25 -2.125382E+06  1.427209E+05 -3.510703E+04  7.514551E+04 -1.137869E+05 -7.411040E+03
       445  26 -1.951312E+06  2.403322E+05 -9.199290E+04 -4.683877E+04 -2.416260E+05 -1.263103E+04
       445  27 -1.942805E+06 -2.530748E+05 -3.802009E+05 -2.391402E+04 -3.695761E+05 -6.636559E+03
       446   1 -2.824033E+05 -9.434703E+05 -2.869772E+05  9.279458E+04 -5.390373E+03 -5.817424E+04
       446   2 -2.023518E+05 -8.102067E+05 -2.098285E+05 -1.319027E+04 -1.483718E+04 -5.204621E+04
       446   3 -1.610425E+05 -6.828788E+05 -1.454713E+05  8.443626E+04 -9.137269E+03 -4.588316E+04
       446   4 -4.133093E+04  2.075317E+04 -4.664257E+04  8.513378E+04 -5.401969E+03 -5.415210E+04
       446   5  5.688677E+03  2.336861E+04 -3.667844E+03 -1.659078E+04 -1.483660E+04 -5.164766E+04
       446   6  1.462766E+04  2.068300E+04  2.905251E+04  8.527999E+04 -9.133343E+03 -4.910969E+04
       446   7  1.996716E+05  9.858206E+05  1.936223E+05  7.746167E+04 -5.413657E+03 -5.012365E+04
       446   8  2.136773E+05  8.575759E+05  2.024412E+05 -1.999551E+04 -1.483603E+04 -5.124853E+04
       446   9  1.902607E+05  7.246946E+05  2.035394E+05  8.612475E+04 -9.129428E+03 -5.233986E+04
       446  10 -2.824042E+05 -9.434739E+05 -2.869836E+05  9.279432E+04 -4.163883E-10  8.924495E-10
       446  11 -2.023528E+05 -8.102097E+05 -2.098340E+05 -1.319089E+04 -1.632779E-09 -8.100965E-09
       446  12 -1.610432E+05 -6.828811E+05 -1.454754E+05  8.443593E+04  8.501391E-10  1.816665E-11
       446  13 -4.133174E+04  2.075001E+04 -4.664813E+04  8.513354E+04  1.821053E-09 -3.601829E-09
       446  14  5.687725E+03  2.336569E+04 -3.673270E+03 -1.659139E+04 -3.587778E-09  8.517703E-12
       446  15  1.462692E+04  2.068039E+04  2.904783E+04  8.527963E+04  1.213988E-09 -4.685307E-10
       446  16  1.996709E+05  9.858178E+05  1.936175E+05  7.746145E+04 -4.181024E-10  2.696107E-09
       446  17  2.136763E+05  8.575730E+05  2.024358E+05 -1.999612E+04  1.174968E-09 -2.558686E-09
       446  18  1.902599E+05  7.246917E+05  2.035341E+05  8.612437E+04  1.980990E-09  1.104169E-09
       446  19 -2.824033E+05 -9.434703E+05 -2.869772E+05  9.279458E+04  5.390373E+03  5.817424E+04
       446  20 -2.023518E+05 -8.102067E+05 -2.098285E+05 -1.319027E+04  1.483718E+04  5.204621E+04
       446  21 -1.610425E+05 -6.828788E+05 -1.454713E+05  8.443626E+04  9.137269E+03  4.588316E+04
       446  22 -4.133093E+04  2.075317E+04 -4.664257E+04  8.513378E+04  5.401969E+03  5.415210E+04
       446  23  5.688677E+03  2.336861E+04 -3.667844E+03 -1.659078E+04  1.483660E+04  5.164766E+04
       446  24  1.462766E+04  2.068300E+04  2.905251E+04  8.527999E+04  9.133343E+03  4.910969E+04
       446  25  1.996716E+05  9.858206E+05  1.936223E+05  7.746167E+04  5.413657E+03  5.012365E+04
       446  26  2.136773E+05  8.575759E+05  2.024412E+05 -1.999551E+04  1.483603E+04  5.124853E+04
       446  27  1.902607E+05  7.246946E+05  2.035394E+05  8.612475E+04  9.129428E+03  5.233986E+04
       447   1 -5.676296E+04 -1.592534E+05 -2.851771E+03  7.878341E+04 -3.812203E+03 -5.502035E+04
       447   2 -3.362871E+04 -4.731704E+04  7.283469E+04 -1.291983E+04 -8.688891E+02 -1.006653E+05
       447   3  1.107126E+05  1.012763E+05  2.086223E+05  9.915614E+04  2.242941E+03 -1.463217E+05
       447   4 -9.537906E+03  3.016107E+04  4.390024E+04  8.524666E+04 -3.812219E+03 -5.570425E+04
       447   5 -1.886363E+04  1.183281E+04  8.747640E+04 -1.660728E+04 -8.677642E+02 -1.013919E+05
       447   6  9.302419E+04  3.016292E+04  1.911899E+05  8.531462E+04  2.246657E+03 -1.470815E+05
       447   7  3.768463E+04  2.196082E+05  9.064962E+04  9.171188E+04 -3.812250E+03 -5.638834E+04
       447   8 -4.098770E+03  7.098586E+04  1.021179E+05 -2.029508E+04 -8.666308E+02 -1.021186E+05
       447   9  7.533611E+04 -4.094548E+04  1.737573E+05  7.147469E+04  2.250407E+03 -1.478413E+05
       447  10 -5.676379E+04 -1.592566E+05 -2.857488E+03  7.878325E+04  1.570641E-09 -7.502185E-10
       447  11 -3.363143E+04 -4.732792E+04  7.281565E+04 -1.291990E+04  2.542818E-09 -2.974359E-09
       447  12  1.107069E+05  1.012534E+05  2.085821E+05  9.915640E+04 -6.859614E-10  6.731833E-10
       447  13 -9.538755E+03  3.015774E+04  4.389438E+04  8.524649E+04  1.400213E-09 -1.028341E-09
       447  14 -1.886639E+04  1.182177E+04  8.745708E+04 -1.660735E+04 -8.858375E-10 -2.663316E-10
       447  15  9.301838E+04  3.013969E+04  1.911493E+05  8.531489E+04  5.006909E-10  3.290011E-10
       447  16  3.768376E+04  2.196048E+05  9.064362E+04  9.171171E+04  1.682444E-09  1.543553E-09
       447  17 -4.101569E+03  7.097467E+04  1.020983E+05 -2.029516E+04  1.313428E-09 -1.977846E-10
       447  18  7.533024E+04 -4.096895E+04  1.737162E+05  7.147496E+04  8.757568E-11  3.309838E-10
       447  19 -5.676296E+04 -1.592534E+05 -2.851771E+03  7.878341E+04  3.812203E+03  5.502035E+04
       447  20 -3.362871E+04 -4.731704E+04  7.283469E+04 -1.291983E+04  8.688891E+02  1.006653E+05
       447  21  1.107126E+05  1.012763E+05  2.086223E+05  9.915614E+04 -2.242941E+03  1.463217E+05
       447  22 -9.537906E+03  3.016107E+04  4.390024E+04  8.524666E+04  3.812219E+03  5.570425E+04
       447  23 -1.886363E+04  1.183281E+04  8.747640E+04 -1.660728E+04  8.677642E+02  1.013919E+05
       447  24  9.302419E+04  3.016292E+04  1.911899E+05  8.531462E+04 -2.246657E+03  1.470815E+05
       447  25  3.768463E+04  2.196082E+05  9.064962E+04  9.171188E+04  3.812250E+03  5.638834E+04
       447  26 -4.098770E+03  7.098586E+04  1.021179E+05 -2.029508E+04  8.666308E+02  1.021186E+05
       447  27  7.533611E+04 -4.094548E+04  1.737573E+05  7.147469E+04 -2.250407E+03  1.478413E+05
       448   1  1.203220E+05  6.637786E+05  3.786473E+05  3.388504E+04  7.451491E+03 -1.822654E+05
       448   2  3.703334E+04  6.663950E+05  5.393801E+05  9.979635E+03  1.356203E+04 -3.833048E+05
       448   3  8.638566E+05  9.260554E+05  1.059193E+06  1.920500E+05  6.315002E+03 -5.843957E+05
       448   4 -2.570140E+04  7.896693E+04  2.336393E+05  8.524904E+04  7.439297E+03 -1.851580E+05
       448   5 -1.413161E+05 -4.932698E+04  3.625824E+05 -1.686404E+04  1.357921E+04 -3.827961E+05
       448   6  6.531434E+05  7.914296E+04  8.485663E+05  8.698442E+04  6.405418E+03 -5.804429E+05
       448   7 -1.717405E+05 -5.055288E+05  8.860723E+04  1.365647E+05  7.426614E+03 -1.880477E+05
       448   8 -3.197011E+05 -7.645820E+05  1.857471E+05 -4.367653E+04  1.359637E+04 -3.822879E+05
       448   9  4.424183E+05 -7.670948E+05  6.378923E+05 -1.793755E+04  6.494608E+03 -5.764950E+05
       448  10  1.203130E+05  6.637429E+05  3.785849E+05  3.388613E+04  7.007521E-10  9.060983E-10
       448  11  3.699377E+04  6.662374E+05  5.391040E+05  9.983819E+03  1.291327E-09 -7.927175E-09
       448  12  8.637651E+05  9.256893E+05  1.058552E+06  1.920530E+05  1.189743E-09 -9.961235E-10
       448  13 -2.571066E+04  7.893011E+04  2.335748E+05  8.525015E+04 -2.269317E-09 -1.314888E-09
       448  14 -1.413557E+05 -4.948431E+04  3.623067E+05 -1.685985E+04  1.984463E-09  4.623668E-12
       448  15  6.530529E+05  7.878143E+04  8.479332E+05  8.698742E+04 -2.172483E-09 -2.830344E-11
       448  16 -1.717501E+05 -5.055668E+05  8.854062E+04  1.365658E+05 -1.440010E-09 -1.470876E-10
       448  17 -3.197405E+05 -7.647390E+05  1.854718E+05 -4.367235E+04 -2.028837E-09 -4.466712E-10
       448  18  4.423289E+05 -7.674518E+05  6.372669E+05 -1.793454E+04 -3.480798E-09  3.229055E-09
       448  19  1.203220E+05  6.637786E+05  3.786473E+05  3.388504E+04 -7.451491E+03  1.822654E+05
       448  20  3.703334E+04  6.663950E+05  5.393801E+05  9.979635E+03 -1.356203E+04  3.833048E+05
       448  21  8.638566E+05  9.260554E+05  1.059193E+06  1.920500E+05 -6.315002E+03  5.843957E+05
       448  22 -2.570140E+04  7.896693E+04  2.336393E+05  8.524904E+04 -7.439297E+03  1.851580E+05
       448  23 -1.413161E+05 -4.932698E+04  3.625824E+05 -1.686404E+04 -1.357921E+04  3.827961E+05
       448  24  6.531434E+05  7.914296E+04  8.485663E+05  8.698442E+04 -6.405418E+03  5.804429E+05
       448  25 -1.717405E+05 -5.055288E+05  8.860723E+04  1.365647E+05 -7.426614E+03  1.880477E+05
       448  26 -3.197011E+05 -7.645820E+05  1.857471E+05 -4.367653E+04 -1.359637E+04  3.822879E+05
       448  27  4.424183E+05 -7.670948E+05  6.378923E+05 -1.793755E+04 -6.494608E+03  5.764950E+05
       449   1  2.359806E+06  1.748858E+06  6.975337E+05  1.452434E+06  2.972570E+05  2.202933E+05
       449   2  2.173460E+06  1.287808E+06  3.778158E+05  1.615095E+06  1.979965E+05  1.370817E+05
       449   3  2.229295E+06  1.327959E+06  2.873728E+05  1.597695E+06  9.343937E+04  6.087660E+04
       449   4  1.963265E+06  1.351307E+06  5.397416E+05  1.204113E+06  2.949968E+05  2.185333E+05
       449   5  1.764095E+06  9.639047E+05  2.331218E+05  1.397907E+06  1.974938E+05  1.366917E+05
       449   6  1.806926E+06  1.077550E+06  1.543993E+05  1.411575E+06  9.469646E+04  6.183682E+04
       449   7  1.566890E+06  9.539496E+05  3.819214E+05  9.559966E+05  2.927384E+05  2.167754E+05
       449   8  1.354902E+06  6.401162E+05  8.840259E+04  1.180886E+06  1.969915E+05  1.363020E+05
       449   9  1.384747E+06  8.271995E+05  2.140532E+04  1.225583E+06  9.595233E+04  6.279632E+04
       449  10  2.359698E+06  1.748782E+06  6.972779E+05  1.452381E+06  3.715992E-09 -2.879968E-09
       449  11  2.173413E+06  1.287777E+06  3.777074E+05  1.615073E+06  1.728056E-09 -3.794316E-09
       449  12  2.229285E+06  1.327952E+06  2.873495E+05  1.597690E+06 -2.076344E-09 -1.239909E-08
       449  13  1.963159E+06  1.351232E+06  5.394895E+05  1.204061E+06  4.199245E-09  6.915970E-09
       449  14  1.764048E+06  9.638743E+05  2.330139E+05  1.397885E+06  5.216149E-09 -1.128719E-10
       449  15  1.806916E+06  1.077543E+06  1.543754E+05  1.411570E+06 -1.300275E-09  4.564484E-09
       449  16  1.566786E+06  9.538763E+05  3.816730E+05  9.559457E+05  1.017747E-09  3.095201E-10
       449  17  1.354856E+06  6.400859E+05  8.829515E+04  1.180864E+06  5.376985E-09  3.122423E-10
       449  18  1.384736E+06  8.271928E+05  2.138071E+04  1.225578E+06  2.866262E-09  8.853637E-09
       449  19  2.359806E+06  1.748858E+06  6.975337E+05  1.452434E+06 -2.972570E+05 -2.202933E+05
       449  20  2.173460E+06  1.287808E+06  3.778158E+05  1.615095E+06 -1.979965E+05 -1.370817E+05
       449  21  2.229295E+06  1.327959E+06  2.873728E+05  1.597695E+06 -9.343937E+04 -6.087660E+04
       449  22  1.963265E+06  1.351307E+06  5.397416E+05  1.204113E+06 -2.949968E+05 -2.185333E+05
       449  23  1.764095E+06  9.639047E+05  2.331218E+05  1.397907E+06 -1.974938E+05 -1.366917E+05
       449  24  1.806926E+06  1.077550E+06  1.543993E+05  1.411575E+06 -9.469646E+04 -6.183682E+04
       449  25  1.566890E+06  9.539496E+05  3.819214E+05  9.559966E+05 -2.927384E+05 -2.167754E+05
       449  26  1.354902E+06  6.401162E+05  8.840259E+04  1.180886E+06 -1.969915E+05 -1.363020E+05
       449  27  1.384747E+06  8.271995E+05  2.140532E+04  1.225583E+06 -9.595233E+04 -6.279632E+04
       450   1  2.085788E+06  1.316690E+06  2.230337E+05  1.499704E+06  7.306322E+04  4.828942E+04
       450   2  2.058607E+06  1.215186E+06  1.541229E+05  1.506594E+06  4.413438E+04  2.668360E+04
       450   3  2.028412E+06  1.229998E+06  1.303626E+05  1.499168E+06  1.466435E+04  5.791879E+03
       450   4  1.819460E+06  1.108969E+06  1.293424E+05  1.359813E+06  7.300399E+04  4.824254E+04
       450   5  1.810337E+06  1.032314E+06  6.894648E+04  1.381054E+06  4.426165E+04  2.677981E+04
       450   6  1.798178E+06  1.071958E+06  5.355793E+04  1.387974E+06  1.497687E+04  6.029492E+03
       450   7  1.553205E+06  9.012945E+05  3.564056E+04  1.219992E+06  7.294478E+04  4.819567E+04
       450   8  1.562132E+06  8.494763E+05 -1.623889E+04  1.255571E+06  4.438884E+04  2.687597E+04
       450   9  1.567999E+06  9.139438E+05 -2.325405E+04  1.276825E+06  1.528923E+04  6.266991E+03
       450  10  2.085782E+06  1.316686E+06  2.230194E+05  1.499701E+06  1.512961E-09 -2.657408E-09
       450  11  2.058605E+06  1.215184E+06  1.541180E+05  1.506593E+06  1.486790E-09 -9.515764E-09
       450  12  2.028412E+06  1.229998E+06  1.303621E+05  1.499168E+06 -5.492144E-09 -3.719116E-09
       450  13  1.819454E+06  1.108965E+06  1.293281E+05  1.359810E+06 -8.957623E-10  7.889340E-11
       450  14  1.810335E+06  1.032312E+06  6.894147E+04  1.381053E+06  4.843124E-09  1.022371E-09
       450  15  1.798178E+06  1.071958E+06  5.355744E+04  1.387974E+06  2.808472E-09  5.950853E-09
       450  16  1.553199E+06  9.012906E+05  3.562625E+04  1.219989E+06 -1.449619E-09  4.450912E-09
       450  17  1.562129E+06  8.494750E+05 -1.624393E+04  1.255570E+06  7.828913E-09  2.984574E-09
       450  18  1.567999E+06  9.139437E+05 -2.325456E+04  1.276825E+06  3.147926E-09  3.347005E-10
       450  19  2.085788E+06  1.316690E+06  2.230337E+05  1.499704E+06 -7.306322E+04 -4.828942E+04
       450  20  2.058607E+06  1.215186E+06  1.541229E+05  1.506594E+06 -4.413438E+04 -2.668360E+04
       450  21  2.028412E+06  1.229998E+06  1.303626E+05  1.499168E+06 -1.466435E+04 -5.791879E+03
       450  22  1.819460E+06  1.108969E+06  1.293424E+05  1.359813E+06 -7.300399E+04 -4.824254E+04
       450  23  1.810337E+06  1.032314E+06  6.894648E+04  1.381054E+06 -4.426165E+04 -2.677981E+04
       450  24  1.798178E+06  1.071958E+06  5.355793E+04  1.387974E+06 -1.497687E+04 -6.029492E+03
       450  25  1.553205E+06  9.012945E+05  3.564056E+04  1.219992E+06 -7.294478E+04 -4.819567E+04
       450  26  1.562132E+06  8.494763E+05 -1.623889E+04  1.255571E+06 -4.438884E+04 -2.687597E+04
       450  27  1.567999E+06  9.139438E+05 -2.325405E+04  1.276825E+06 -1.528923E+04 -6.266991E+03
       451   1  1.938868E+06  1.176818E+06  9.834530E+04  1.453153E+06  6.821554E+03  8.243434E+02
       451   2  1.933368E+06  1.128730E+06  9.203851E+04  1.440535E+06 -1.438208E+04 -1.416693E+04
       451   3  1.910418E+06  1.150244E+06  1.123291E+05  1.426617E+06 -3.554935E+04 -2.920495E+04
       451   4  1.801422E+06  1.072770E+06  5.069561E+04  1.382381E+06  6.999646E+03  9.596871E+02
       451   5  1.812254E+06  1.041612E+06  5.088646E+04  1.380243E+06 -1.421037E+04 -1.403634E+04
       451   6  1.805639E+06  1.080063E+06  7.768484E+04  1.376803E+06 -3.538477E+04 -2.908000E+04
       451   7  1.663996E+06  9.687346E+05  3.043285E+03  1.311627E+06  7.177684E+03  1.094987E+03
       451   8  1.691155E+06  9.545028E+05  9.732410E+03  1.319963E+06 -1.403870E+04 -1.390578E+04
       451   9  1.700872E+06  1.009887E+06  4.303917E+04  1.326998E+06 -3.522022E+04 -2.895508E+04
       451  10  1.938868E+06  1.176818E+06  9.834521E+04  1.453153E+06  4.558482E-09  3.758800E-09
       451  11  1.933368E+06  1.128729E+06  9.203775E+04  1.440535E+06  8.286869E-09 -1.656639E-08
       451  12  1.910416E+06  1.150243E+06  1.123251E+05  1.426616E+06 -2.230149E-10 -1.259538E-08
       451  13  1.801422E+06  1.072770E+06  5.069551E+04  1.382381E+06  3.859292E-09  6.169146E-09
       451  14  1.812254E+06  1.041612E+06  5.088571E+04  1.380242E+06  6.898654E-10  1.216735E-08
       451  15  1.805638E+06  1.080062E+06  7.768092E+04  1.376802E+06  6.555043E-09  4.278344E-09
       451  16  1.663996E+06  9.687346E+05  3.043187E+03  1.311627E+06 -1.158624E-09  7.658170E-10
       451  17  1.691155E+06  9.545026E+05  9.731679E+03  1.319963E+06  9.318574E-09  1.715666E-08
       451  18  1.700871E+06  1.009886E+06  4.303528E+04  1.326997E+06  1.017722E-09 -7.305844E-09
       451  19  1.938868E+06  1.176818E+06  9.834530E+04  1.453153E+06 -6.821554E+03 -8.243434E+02
       451  20  1.933368E+06  1.128730E+06  9.203851E+04  1.440535E+06  1.438208E+04  1.416693E+04
       451  21  1.910418E+06  1.150244E+06  1.123291E+05  1.426617E+06  3.554935E+04  2.920495E+04
       451  22  1.801422E+06  1.072770E+06  5.069561E+04  1.382381E+06 -6.999646E+03 -9.596871E+02
       451  23  1.812254E+06  1.041612E+06  5.088646E+04  1.380243E+06  1.421037E+04  1.403634E+04
       451  24  1.805639E+06  1.080063E+06  7.768484E+04  1.376803E+06  3.538477E+04  2.908000E+04
       451  25  1.663996E+06  9.687346E+05  3.043285E+03  1.311627E+06 -7.177684E+03 -1.094987E+03
       451  26  1.691155E+06  9.545028E+05  9.732410E+03  1.319963E+06  1.403870E+04  1.390578E+04
       451  27  1.700872E+06  1.009887E+06  4.303917E+04  1.326998E+06  3.522022E+04  2.895508E+04
       452   1  1.824520E+06  1.101338E+06  1.036060E+05  1.410940E+06 -4.819951E+04 -3.812841E+04
       452   2  1.812876E+06  1.027926E+06  1.482544E+05  1.391556E+06 -1.083125E+05 -8.277296E+04
       452   3  1.873186E+06  1.134285E+06  2.899223E+05  1.316729E+06 -1.682101E+05 -1.277006E+05
       452   4  1.804442E+06  1.068172E+06  9.315549E+04  1.392506E+06 -4.799344E+04 -3.797012E+04
       452   5  1.794322E+06  1.022978E+06  1.436025E+05  1.386100E+06 -1.081727E+05 -8.266790E+04
       452   6  1.856170E+06  1.157569E+06  2.911277E+05  1.324251E+06 -1.681363E+05 -1.276535E+05
       452   7  1.784364E+06  1.035007E+06  8.270490E+04  1.374072E+06 -4.778738E+04 -3.781186E+04
       452   8  1.775769E+06  1.018030E+06  1.389506E+05  1.380645E+06 -1.080329E+05 -8.256285E+04
       452   9  1.839156E+06  1.180854E+06  2.923334E+05  1.331772E+06 -1.680625E+05 -1.276064E+05
       452  10  1.824517E+06  1.101336E+06  1.035989E+05  1.410939E+06 -5.272914E-09  8.988996E-09
       452  11  1.812862E+06  1.027916E+06  1.482197E+05  1.391549E+06  3.748459E-09  1.062402E-08
       452  12  1.873151E+06  1.134260E+06  2.898389E+05  1.316711E+06 -4.399824E-09 -8.526438E-09
       452  13  1.804439E+06  1.068169E+06  9.314848E+04  1.392504E+06  2.016958E-09  2.237650E-08
       452  14  1.794308E+06  1.022968E+06  1.435678E+05  1.386093E+06 -5.308518E-09 -8.458953E-09
       452  15  1.856136E+06  1.157544E+06  2.910444E+05  1.324233E+06  5.900803E-10  1.678529E-08
       452  16  1.784362E+06  1.035005E+06  8.269795E+04  1.374071E+06  8.928368E-11  6.311183E-09
       452  17  1.775755E+06  1.018019E+06  1.389160E+05  1.380638E+06  3.631178E-10  1.260843E-08
       452  18  1.839121E+06  1.180829E+06  2.922501E+05  1.331755E+06 -5.147726E-09  1.858655E-08
       452  19  1.824520E+06  1.101338E+06  1.036060E+05  1.410940E+06  4.819951E+04  3.812841E+04
       452  20  1.812876E+06  1.027926E+06  1.482544E+05  1.391556E+06  1.083125E+05  8.277296E+04
       452  21  1.873186E+06  1.134285E+06  2.899223E+05  1.316729E+06  1.682101E+05  1.277006E+05
       452  22  1.804442E+06  1.068172E+06  9.315549E+04  1.392506E+06  4.799344E+04  3.797012E+04
       452  23  1.794322E+06  1.022978E+06  1.436025E+05  1.386100E+06  1.081727E+05  8.266790E+04
       452  24  1.856170E+06  1.157569E+06  2.911277E+05  1.324251E+06  1.681363E+05  1.276535E+05
       452  25  1.784364E+06  1.035007E+06  8.270490E+04  1.374072E+06  4.778738E+04  3.781186E+04
       452  26  1.775769E+06  1.018030E+06  1.389506E+05  1.380645E+06  1.080329E+05  8.256285E+04
       452  27  1.839156E+06  1.180854E+06  2.923334E+05  1.331772E+06  1.680625E+05  1.276064E+05
       453   1  1.691038E+06  1.094540E+06  3.269470E+05  1.426252E+06 -2.150289E+05 -1.622858E+05
       453   2  1.622334E+06  7.712153E+05  5.083453E+05  1.373045E+06 -4.491207E+05 -3.389389E+05
       453   3  2.246124E+06  1.476350E+06  1.217027E+06  8.620626E+05 -6.817852E+05 -5.174054E+05
       453   4  1.836521E+06  1.073949E+06  3.516836E+05  1.442307E+06 -2.146178E+05 -1.619317E+05
       453   5  1.673607E+06  8.767560E+05  5.392861E+05  1.429488E+06 -4.491724E+05 -3.390250E+05
       453   6  2.203124E+06  1.707988E+06  1.254520E+06  9.589384E+05 -6.822431E+05 -5.180267E+05
       453   7  1.982036E+06  1.053368E+06  3.764226E+05  1.458358E+06 -2.142066E+05 -1.615777E+05
       453   8  1.724885E+06  9.823147E+05  5.702267E+05  1.485939E+06 -4.492241E+05 -3.391111E+05
       453   9  2.160168E+06  1.939750E+06  1.292025E+06  1.055816E+06 -6.827010E+05 -5.186484E+05
       453  10  1.690982E+06  1.094499E+06  3.268112E+05  1.426224E+06 -2.852593E-09 -3.717613E-09
       453  11  1.622088E+06  7.710386E+05  5.077530E+05  1.372923E+06  1.612567E-09 -4.987243E-10
       453  12  2.245556E+06  1.475940E+06  1.215657E+06  8.617795E+05 -4.751549E-09 -1.770297E-09
       453  13  1.836465E+06  1.073909E+06  3.515484E+05  1.442279E+06  9.890721E-10  3.411542E-09
       453  14  1.673361E+06  8.765793E+05  5.386938E+05  1.429366E+06 -5.005376E-09  1.243839E-08
       453  15  2.202555E+06  1.707577E+06  1.253147E+06  9.586549E+05  3.589098E-09 -2.313504E-09
       453  16  1.981980E+06  1.053328E+06  3.762879E+05  1.458331E+06 -1.651063E-09  1.536880E-08
       453  17  1.724639E+06  9.821379E+05  5.696343E+05  1.485816E+06 -1.902063E-09  1.352087E-09
       453  18  2.159598E+06  1.939338E+06  1.290650E+06  1.055532E+06 -4.542955E-09  1.157202E-09
       453  19  1.691038E+06  1.094540E+06  3.269470E+05  1.426252E+06  2.150289E+05  1.622858E+05
       453  20  1.622334E+06  7.712153E+05  5.083453E+05  1.373045E+06  4.491207E+05  3.389389E+05
       453  21  2.246124E+06  1.476350E+06  1.217027E+06  8.620626E+05  6.817852E+05  5.174054E+05
       453  22  1.836521E+06  1.073949E+06  3.516836E+05  1.442307E+06  2.146178E+05  1.619317E+05
       453  23  1.673607E+06  8.767560E+05  5.392861E+05  1.429488E+06  4.491724E+05  3.390250E+05
       453  24  2.203124E+06  1.707988E+06  1.254520E+06  9.589384E+05  6.822431E+05  5.180267E+05
       453  25  1.982036E+06  1.053368E+06  3.764226E+05  1.458358E+06  2.142066E+05  1.615777E+05
       453  26  1.724885E+06  9.823147E+05  5.702267E+05  1.485939E+06  4.492241E+05  3.391111E+05
       453  27  2.160168E+06  1.939750E+06  1.292025E+06  1.055816E+06  6.827010E+05  5.186484E+05
       454   1 -1.961723E+05  3.878109E+04 -1.429246E+04  1.670278E+04 -1.502014E+05 -6.022138E+03
       454   2 -2.367553E+05  2.319669E+05  9.429081E+04 -2.056096E+04 -9.947746E+04 -1.459263E+04
       454   3 -3.435919E+05  1.838352E+05  1.097199E+05  5.795819E+04 -4.886075E+04 -1.043811E+04
       454   4 -1.049764E+06 -1.741429E+05 -2.269801E+05  4.066591E+04 -1.537303E+05 -6.055006E+03
       454   5 -1.016299E+06  3.748976E+04 -9.855704E+04 -1.789551E+04 -1.000195E+05 -1.459935E+04
       454   6 -1.049705E+06  7.117555E+03 -6.545688E+04  3.933675E+04 -4.640961E+04 -1.041520E+04
       454   7 -1.902694E+06 -3.871193E+05 -4.397220E+05  6.459487E+04 -1.572542E+05 -6.088173E+03
       454   8 -1.795291E+06 -1.570328E+05 -2.914501E+05 -1.523453E+04 -1.005607E+05 -1.460608E+04
       454   9 -1.755364E+06 -1.696365E+05 -2.406708E+05  2.073548E+04 -4.396124E+04 -1.039242E+04
       454  10 -1.961965E+05  3.877499E+04 -1.433494E+04  1.670206E+04  3.436360E-11 -2.379828E-09
       454  11 -2.367660E+05  2.319640E+05  9.427181E+04 -2.056213E+04  2.708488E-11  1.707587E-09
       454  12 -3.435945E+05  1.838345E+05  1.097152E+05  5.795778E+04  3.920525E-09 -1.567999E-08
       454  13 -1.049790E+06 -1.741493E+05 -2.270246E+05  4.066516E+04 -8.005158E-10  1.856625E-08
       454  14 -1.016310E+06  3.748684E+04 -9.857627E+04 -1.789668E+04 -3.130798E-09  9.857682E-09
       454  15 -1.049707E+06  7.116859E+03 -6.546113E+04  3.933636E+04  3.872819E-10 -1.905759E-08
       454  16 -1.902720E+06 -3.871260E+05 -4.397687E+05  6.459409E+04  6.228922E-10  9.230244E-09
       454  17 -1.795301E+06 -1.570358E+05 -2.914695E+05 -1.523571E+04 -6.295078E-09  1.049401E-09
       454  18 -1.755366E+06 -1.696372E+05 -2.406747E+05  2.073511E+04 -1.357417E-11 -2.433262E-08
       454  19 -1.961723E+05  3.878109E+04 -1.429246E+04  1.670278E+04  1.502014E+05  6.022138E+03
       454  20 -2.367553E+05  2.319669E+05  9.429081E+04 -2.056096E+04  9.947746E+04  1.459263E+04
       454  21 -3.435919E+05  1.838352E+05  1.097199E+05  5.795819E+04  4.886075E+04  1.043811E+04
       454  22 -1.049764E+06 -1.741429E+05 -2.269801E+05  4.066591E+04  1.537303E+05  6.055006E+03
       454  23 -1.016299E+06  3.748976E+04 -9.855704E+04 -1.789551E+04  1.000195E+05  1.459935E+04
       454  24 -1.049705E+06  7.117555E+03 -6.545688E+04  3.933675E+04  4.640961E+04  1.041520E+04
       454  25 -1.902694E+06 -3.871193E+05 -4.397220E+05  6.459487E+04  1.572542E+05  6.088173E+03
       454  26 -1.795291E+06 -1.570328E+05 -2.914501E+05 -1.523453E+04  1.005607E+05  1.460608E+04
       454  27 -1.755364E+06 -1.696365E+05 -2.406708E+05  2.073548E+04  4.396124E+04  1.039242E+04
       455   1 -6.356518E+05  7.629926E+04  4.427267E+04  4.065528E+04 -3.577107E+04 -6.794383E+03
       455   2 -7.082279E+05  8.636408E+04  4.931036E+04 -1.890292E+04 -2.023956E+04 -5.416263E+03
       455   3 -7.945624E+05  5.979222E+04  3.454791E+04  4.601540E+04 -4.728544E+03 -2.431810E+03
       455   4 -1.037837E+06 -2.407334E+04 -5.534641E+04  4.188807E+04 -3.565429E+04 -6.793766E+03
       455   5 -1.030918E+06  5.769345E+03 -3.062681E+04 -2.046193E+04 -1.974669E+04 -5.411551E+03
       455   6 -1.037837E+06 -1.101451E+03 -2.597778E+04  4.166902E+04 -3.857602E+03 -2.422771E+03
       455   7 -1.439874E+06 -1.244580E+05 -1.549775E+05  4.311971E+04 -3.553759E+04 -6.793148E+03
       455   8 -1.353513E+06 -7.483319E+04 -1.105717E+05 -2.202037E+04 -1.925408E+04 -5.406840E+03
       455   9 -1.281058E+06 -6.199953E+04 -8.650790E+04  3.732421E+04 -2.987001E+03 -2.413743E+03
       455  10 -6.356532E+05  7.629887E+04  4.427018E+04  4.065508E+04 -9.085641E-09  7.746861E-10
       455  11 -7.082283E+05  8.636394E+04  4.930954E+04 -1.890301E+04 -7.958143E-09  1.449440E-08
       455  12 -7.945624E+05  5.979221E+04  3.454785E+04  4.601539E+04  4.949461E-09 -1.816034E-09
       455  13 -1.037838E+06 -2.407373E+04 -5.534889E+04  4.188788E+04  1.318741E-10 -7.698947E-09
       455  14 -1.030918E+06  5.769209E+03 -3.062760E+04 -2.046202E+04 -4.406598E-09  1.307637E-08
       455  15 -1.037837E+06 -1.101461E+03 -2.597782E+04  4.166901E+04  1.198068E-09  3.734219E-09
       455  16 -1.439876E+06 -1.244584E+05 -1.549800E+05  4.311951E+04  1.287218E-08 -5.386290E-09
       455  17 -1.353514E+06 -7.483332E+04 -1.105725E+05 -2.202045E+04  9.202386E-10 -1.748092E-08
       455  18 -1.281058E+06 -6.199954E+04 -8.650793E+04  3.732420E+04  3.974739E-10 -2.361534E-09
       455  19 -6.356518E+05  7.629926E+04  4.427267E+04  4.065528E+04  3.577107E+04  6.794383E+03
       455  20 -7.082279E+05  8.636408E+04  4.931036E+04 -1.890292E+04  2.023956E+04  5.416263E+03
       455  21 -7.945624E+05  5.979222E+04  3.454791E+04  4.601540E+04  4.728544E+03  2.431810E+03
       455  22 -1.037837E+06 -2.407334E+04 -5.534641E+04  4.188807E+04  3.565429E+04  6.793766E+03
       455  23 -1.030918E+06  5.769345E+03 -3.062681E+04 -2.046193E+04  1.974669E+04  5.411551E+03
       455  24 -1.037837E+06 -1.101451E+03 -2.597778E+04  4.166902E+04  3.857602E+03  2.422771E+03
       455  25 -1.439874E+06 -1.244580E+05 -1.549775E+05  4.311971E+04  3.553759E+04  6.793148E+03
       455  26 -1.353513E+06 -7.483319E+04 -1.105717E+05 -2.202037E+04  1.925408E+04  5.406840E+03
       455  27 -1.281058E+06 -6.199953E+04 -8.650790E+04  3.732421E+04  2.987001E+03  2.413743E+03
       456   1 -1.112148E+06 -2.050878E+04 -4.423836E+04  3.919452E+04 -7.084679E+01 -2.146460E+02
       456   2 -1.185927E+06 -3.356407E+04 -6.619784E+04 -2.135294E+04  1.466286E+04  2.718194E+03
       456   3 -1.272818E+06 -7.898603E+04 -1.064949E+05  4.401089E+04  2.940852E+04  4.394264E+03
       456   4 -1.037648E+06 -1.789050E+03 -2.554443E+04  4.200055E+04  7.460122E+02 -2.060781E+02
       456   5 -1.031118E+06  5.102993E+03 -2.784909E+04 -2.086156E+04  1.518132E+04  2.723447E+03
       456   6 -1.037653E+06 -2.031458E+04 -4.828007E+04  4.218600E+04  2.963049E+04  4.396235E+03
       456   7 -9.631429E+05  1.693029E+04 -6.850907E+03  4.480692E+04  1.562969E+03 -1.975034E+02
       456   8 -8.762882E+05  4.376826E+04  1.049787E+04 -2.037011E+04  1.569991E+04  2.728699E+03
       456   9 -8.024369E+05  3.835275E+04  9.930678E+03  4.036029E+04  2.985255E+04  4.398204E+03
       456  10 -1.112148E+06 -2.050878E+04 -4.423836E+04  3.919452E+04 -1.041645E-08  1.448199E-08
       456  11 -1.185927E+06 -3.356413E+04 -6.619825E+04 -2.135298E+04 -9.522443E-09  1.646316E-08
       456  12 -1.272819E+06 -7.898628E+04 -1.064966E+05  4.401079E+04  7.203075E-09  1.133873E-08
       456  13 -1.037648E+06 -1.789050E+03 -2.554443E+04  4.200055E+04 -1.128191E-09  7.962792E-09
       456  14 -1.031119E+06  5.102923E+03 -2.784954E+04 -2.086160E+04 -6.736080E-09  2.221954E-08
       456  15 -1.037654E+06 -2.031484E+04 -4.828176E+04  4.218590E+04  2.918021E-10 -6.279133E-09
       456  16 -9.631429E+05  1.693029E+04 -6.850912E+03  4.480692E+04  1.585357E-08  3.826346E-09
       456  17 -8.762884E+05  4.376818E+04  1.049739E+04 -2.037015E+04  3.585289E-09 -6.230395E-09
       456  18 -8.024379E+05  3.835249E+04  9.928965E+03  4.036018E+04 -1.910284E-09 -2.095868E-08
       456  19 -1.112148E+06 -2.050878E+04 -4.423836E+04  3.919452E+04  7.084679E+01  2.146460E+02
       456  20 -1.185927E+06 -3.356407E+04 -6.619784E+04 -2.135294E+04 -1.466286E+04 -2.718194E+03
       456  21 -1.272818E+06 -7.898603E+04 -1.064949E+05  4.401089E+04 -2.940852E+04 -4.394264E+03
       456  22 -1.037648E+06 -1.789050E+03 -2.554443E+04  4.200055E+04 -7.460122E+02  2.060781E+02
       456  23 -1.031118E+06  5.102993E+03 -2.784909E+04 -2.086156E+04 -1.518132E+04 -2.723447E+03
       456  24 -1.037653E+06 -2.031458E+04 -4.828007E+04  4.218600E+04 -2.963049E+04 -4.396235E+03
       456  25 -9.631429E+05  1.693029E+04 -6.850907E+03  4.480692E+04 -1.562969E+03  1.975034E+02
       456  26 -8.762882E+05  4.376826E+04  1.049787E+04 -2.037011E+04 -1.569991E+04 -2.728699E+03
       456  27 -8.024369E+05  3.835275E+04  9.930678E+03  4.036029E+04 -2.985255E+04 -4.398204E+03
       457   1 -1.593803E+06 -1.306782E+05 -1.923221E+05  2.454139E+04  3.679323E+04  7.757340E+03
       457   2 -1.640724E+06 -1.232831E+05 -2.385054E+05 -1.690788E+04  8.528638E+04  1.185854E+04
       457   3 -1.746559E+06 -3.229759E+05 -3.682715E+05  6.167933E+04  1.338704E+05  5.167905E+03
       457   4 -1.047785E+06  6.135045E+03 -5.669916E+04  4.030044E+04  3.898048E+04  7.779075E+03
       457   5 -1.018607E+06  3.203628E+04 -8.448869E+04 -1.907293E+04  8.492938E+04  1.185375E+04
       457   6 -1.047841E+06 -1.485942E+05 -1.940279E+05  4.158499E+04  1.309753E+05  5.138495E+03
       457   7 -5.014962E+05  1.429267E+05  7.890155E+04  5.607273E+04  4.116964E+04  7.800910E+03
       457   8 -3.961383E+05  1.873267E+05  6.949927E+04 -2.124093E+04  8.457198E+04  1.184897E+04
       457   9 -3.486777E+05  2.575251E+04 -1.982079E+04  2.146706E+04  1.280767E+05  5.109292E+03
       457  10 -1.593805E+06 -1.306787E+05 -1.923248E+05  2.454116E+04  1.467505E-09  3.611096E-09
       457  11 -1.640732E+06 -1.232852E+05 -2.385194E+05 -1.690870E+04 -5.511418E-09 -6.655015E-10
       457  12 -1.746578E+06 -3.229808E+05 -3.683053E+05  6.167877E+04  4.644099E-10  2.988884E-09
       457  13 -1.047787E+06  6.134571E+03 -5.670214E+04  4.030020E+04 -1.895542E-09  1.974694E-08
       457  14 -1.018615E+06  3.203419E+04 -8.450253E+04 -1.907374E+04 -3.449060E-09 -2.267887E-08
       457  15 -1.047859E+06 -1.485988E+05 -1.940603E+05  4.158445E+04  2.573864E-09  1.326565E-08
       457  16 -5.014980E+05  1.429261E+05  7.889825E+04  5.607247E+04  5.454410E-10  7.917282E-09
       457  17 -3.961460E+05  1.873246E+05  6.948555E+04 -2.124174E+04  3.510455E-11  7.997255E-09
       457  18 -3.486953E+05  2.574808E+04 -1.985168E+04  2.146653E+04  4.254509E-09 -2.576744E-09
       457  19 -1.593803E+06 -1.306782E+05 -1.923221E+05  2.454139E+04 -3.679323E+04 -7.757340E+03
       457  20 -1.640724E+06 -1.232831E+05 -2.385054E+05 -1.690788E+04 -8.528638E+04 -1.185854E+04
       457  21 -1.746559E+06 -3.229759E+05 -3.682715E+05  6.167933E+04 -1.338704E+05 -5.167905E+03
       457  22 -1.047785E+06  6.135045E+03 -5.669916E+04  4.030044E+04 -3.898048E+04 -7.779075E+03
       457  23 -1.018607E+06  3.203628E+04 -8.448869E+04 -1.907293E+04 -8.492938E+04 -1.185375E+04
       457  24 -1.047841E+06 -1.485942E+05 -1.940279E+05  4.158499E+04 -1.309753E+05 -5.138495E+03
       457  25 -5.014962E+05  1.429267E+05  7.890155E+04  5.607273E+04 -4.116964E+04 -7.800910E+03
       457  26 -3.961383E+05  1.873267E+05  6.949927E+04 -2.124093E+04 -8.457198E+04 -1.184897E+04
       457  27 -3.486777E+05  2.575251E+04 -1.982079E+04  2.146706E+04 -1.280767E+05 -5.109292E+03
       458   1 -6.438484E+05 -3.168881E+06 -7.239723E+05  1.882445E+05 -6.575398E+03 -2.677678E+05
       458   2 -2.418165E+05 -2.922444E+06 -4.543896E+05  3.115416E+01 -2.100103E+04 -1.783966E+05
       458   3 -2.389010E+05 -2.776757E+06 -3.408840E+05  1.173438E+05 -1.272024E+04 -8.889054E+04
       458   4 -2.904732E+05 -1.761528E+06 -3.722189E+05  1.352096E+05 -6.588546E+03 -2.621134E+05
       458   5  6.115691E+04 -1.711665E+06 -1.542552E+05 -1.663416E+04 -2.099662E+04 -1.779960E+05
       458   6  1.501766E+04 -1.761419E+06 -8.844963E+04  1.370260E+05 -1.270719E+04 -9.377281E+04
       458   7  6.276155E+04 -3.523672E+05 -2.061403E+04  8.205644E+04 -6.602671E+03 -2.564457E+05
       458   8  3.640210E+05 -4.995492E+05  1.457698E+05 -3.333056E+04 -2.099224E+04 -1.775942E+05
       458   9  2.688603E+05 -7.451404E+05  1.639077E+05  1.567412E+05 -1.269447E+04 -9.866298E+04
       458  10 -6.438678E+05 -3.168958E+06 -7.241078E+05  1.882431E+05 -4.410690E-10 -2.307644E-09
       458  11 -2.418256E+05 -2.922478E+06 -4.544505E+05  2.813205E+01  1.591018E-09  5.263982E-09
       458  12 -2.389033E+05 -2.776766E+06 -3.408992E+05  1.173429E+05  3.154080E-09  5.868177E-09
       458  13 -2.904918E+05 -1.761602E+06 -3.723485E+05  1.352082E+05  3.645587E-09  2.479539E-10
       458  14  6.114790E+04 -1.711700E+06 -1.543157E+05 -1.663718E+04 -6.299015E-09  2.604676E-09
       458  15  1.501511E+04 -1.761429E+06 -8.846650E+04  1.370251E+05  9.050219E-10  1.198405E-09
       458  16  6.274383E+04 -3.524378E+05 -2.073777E+04  8.205508E+04  6.960653E-11  7.379970E-09
       458  17  3.640121E+05 -4.995832E+05  1.457096E+05 -3.333357E+04 -4.356040E-09 -8.528477E-09
       458  18  2.688575E+05 -7.451509E+05  1.638891E+05  1.567402E+05 -1.775887E-09 -4.886949E-09
       458  19 -6.438484E+05 -3.168881E+06 -7.239723E+05  1.882445E+05  6.575398E+03  2.677678E+05
       458  20 -2.418165E+05 -2.922444E+06 -4.543896E+05  3.115416E+01  2.100103E+04  1.783966E+05
       458  21 -2.389010E+05 -2.776757E+06 -3.408840E+05  1.173438E+05  1.272024E+04  8.889054E+04
       458  22 -2.904732E+05 -1.761528E+06 -3.722189E+05  1.352096E+05  6.588546E+03  2.621134E+05
       458  23  6.115691E+04 -1.711665E+06 -1.542552E+05 -1.663416E+04  2.099662E+04  1.779960E+05
       458  24  1.501766E+04 -1.761419E+06 -8.844963E+04  1.370260E+05  1.270719E+04  9.377281E+04
       458  25  6.276155E+04 -3.523672E+05 -2.061403E+04  8.205644E+04  6.602671E+03  2.564457E+05
       458  26  3.640210E+05 -4.995492E+05  1.457698E+05 -3.333056E+04  2.099224E+04  1.775942E+05
       458  27  2.688603E+05 -7.451404E+05  1.639077E+05  1.567412E+05  1.269447E+04  9.866298E+04
       459   1 -9.488208E+04 -1.944971E+06 -1.169597E+05  1.449969E+05 -4.585834E+03 -7.882100E+04
       459   2  2.678948E+03 -1.736156E+06 -7.580044E+03 -1.908952E+04  2.398704E+02 -7.453628E+04
       459   3  8.564568E+04 -1.529272E+06  9.578953E+04  1.422148E+05  5.029104E+03 -7.025012E+04
       459   4 -4.352280E+04 -1.739467E+06 -6.621899E+04  1.407786E+05 -4.582218E+03 -7.999207E+04
       459   5  2.125128E+03 -1.738445E+06 -8.143713E+03 -2.181326E+04  2.433365E+02 -7.569008E+04
       459   6  3.318533E+04 -1.739380E+06  4.392814E+04  1.409861E+05  5.032343E+03 -7.138805E+04
       459   7  7.833392E+03 -1.533925E+06 -1.548142E+04  1.365589E+05 -4.578586E+03 -8.116354E+04
       459   8  1.571336E+03 -1.740735E+06 -8.707374E+03 -2.453700E+04  2.468128E+02 -7.684386E+04
       459   9 -1.927832E+04 -1.949448E+06 -7.936515E+03  1.397579E+05  5.035586E+03 -7.252560E+04
       459  10 -9.488378E+04 -1.944978E+06 -1.169714E+05  1.449966E+05  1.317487E-09 -6.094563E-10
       459  11  2.677452E+03 -1.736162E+06 -7.590513E+03 -1.908951E+04  2.328376E-09 -3.558332E-09
       459  12  8.564433E+04 -1.529277E+06  9.578018E+04  1.422151E+05 -2.327003E-09  5.249796E-09
       459  13 -4.352454E+04 -1.739474E+06 -6.623108E+04  1.407783E+05  3.216656E-09  7.055401E-11
       459  14  2.123585E+03 -1.738452E+06 -8.154509E+03 -2.181325E+04  9.295149E-10  1.554019E-09
       459  15  3.318393E+04 -1.739385E+06  4.391849E+04  1.409864E+05  3.181798E-09 -3.609584E-12
       459  16  7.831596E+03 -1.533932E+06 -1.549387E+04  1.365586E+05  1.036385E-09  3.203458E-09
       459  17  1.569746E+03 -1.740741E+06 -8.718502E+03 -2.453698E+04 -1.112397E-09 -3.556148E-09
       459  18 -1.927976E+04 -1.949454E+06 -7.946478E+03  1.397582E+05 -4.603960E-10 -4.927677E-09
       459  19 -9.488208E+04 -1.944971E+06 -1.169597E+05  1.449969E+05  4.585834E+03  7.882100E+04
       459  20  2.678948E+03 -1.736156E+06 -7.580044E+03 -1.908952E+04 -2.398704E+02  7.453628E+04
       459  21  8.564568E+04 -1.529272E+06  9.578953E+04  1.422148E+05 -5.029104E+03  7.025012E+04
       459  22 -4.352280E+04 -1.739467E+06 -6.621899E+04  1.407786E+05  4.582218E+03  7.999207E+04
       459  23  2.125128E+03 -1.738445E+06 -8.143713E+03 -2.181326E+04 -2.433365E+02  7.569008E+04
       459  24  3.318533E+04 -1.739380E+06  4.392814E+04  1.409861E+05 -5.032343E+03  7.138805E+04
       459  25  7.833392E+03 -1.533925E+06 -1.548142E+04  1.365589E+05  4.578586E+03  8.116354E+04
       459  26  1.571336E+03 -1.740735E+06 -8.707374E+03 -2.453700E+04 -2.468128E+02  7.684386E+04
       459  27 -1.927832E+04 -1.949448E+06 -7.936515E+03  1.397579E+05 -5.035586E+03  7.252560E+04
       460   1  2.397941E+05 -6.980618E+05  3.177822E+05  1.173907E+05  1.327764E+04 -7.635689E+04
       460   2  2.547604E+05 -5.497746E+05  4.204963E+05 -1.145805E+04  2.257152E+04 -1.473115E+05
       460   3  5.824209E+05 -3.030859E+05  6.498067E+05  1.689039E+05  9.534047E+03 -2.183933E+05
       460   4 -1.516640E+04 -1.717645E+06  6.457351E+04  1.368473E+05  1.329137E+04 -8.110658E+04
       460   5 -4.896200E+04 -1.766248E+06  1.194570E+05 -1.704446E+04  2.257320E+04 -1.465881E+05
       460   6  2.293187E+05 -1.717245E+06  2.973234E+05  1.383035E+05  9.510165E+03 -2.121738E+05
       460   7 -2.702038E+05 -2.736282E+06 -1.887128E+05  1.562726E+05  1.330482E+04 -8.584837E+04
       460   8 -3.527951E+05 -2.981373E+06 -1.816925E+05 -2.261830E+04  2.257486E+04 -1.458658E+05
       460   9 -1.239302E+05 -3.129584E+06 -5.530953E+04  1.077756E+05  9.485651E+03 -2.059681E+05
       460  10  2.397924E+05 -6.980681E+05  3.177709E+05  1.173915E+05 -9.217048E-10 -1.175840E-09
       460  11  2.547540E+05 -5.497981E+05  4.204545E+05 -1.145538E+04 -1.120554E-09  3.675814E-09
       460  12  5.824080E+05 -3.031372E+05  6.497169E+05  1.689055E+05 -2.408738E-09  3.352809E-09
       460  13 -1.516836E+04 -1.717652E+06  6.456078E+04  1.368482E+05 -3.771912E-09  8.183069E-10
       460  14 -4.896833E+04 -1.766271E+06  1.194155E+05 -1.704179E+04 -2.097179E-09  1.351454E-09
       460  15  2.293065E+05 -1.717294E+06  2.972384E+05  1.383052E+05 -4.604760E-09  2.229250E-09
       460  16 -2.702060E+05 -2.736290E+06 -1.887270E+05  1.562735E+05  1.973580E-09  3.321147E-09
       460  17 -3.528014E+05 -2.981397E+06 -1.817336E+05 -2.261564E+04 -5.271548E-09 -4.471107E-09
       460  18 -1.239417E+05 -3.129630E+06 -5.538982E+04  1.077772E+05 -2.327104E-09 -4.555995E-09
       460  19  2.397941E+05 -6.980618E+05  3.177822E+05  1.173907E+05 -1.327764E+04  7.635689E+04
       460  20  2.547604E+05 -5.497746E+05  4.204963E+05 -1.145805E+04 -2.257152E+04  1.473115E+05
       460  21  5.824209E+05 -3.030859E+05  6.498067E+05  1.689039E+05 -9.534047E+03  2.183933E+05
       460  22 -1.516640E+04 -1.717645E+06  6.457351E+04  1.368473E+05 -1.329137E+04  8.110658E+04
       460  23 -4.896200E+04 -1.766248E+06  1.194570E+05 -1.704446E+04 -2.257320E+04  1.465881E+05
       460  24  2.293187E+05 -1.717245E+06  2.973234E+05  1.383035E+05 -9.510165E+03  2.121738E+05
       460  25 -2.702038E+05 -2.736282E+06 -1.887128E+05  1.562726E+05 -1.330482E+04  8.584837E+04
       460  26 -3.527951E+05 -2.981373E+06 -1.816925E+05 -2.261830E+04 -2.257486E+04  1.458658E+05
       460  27 -1.239302E+05 -3.129584E+06 -5.530953E+04  1.077756E+05 -9.485651E+03  2.059681E+05
       461   1  2.402951E+06  1.788685E+06  7.382686E+05  1.483719E+06  3.658010E+05  2.764954E+05
       461   2  2.170174E+06  1.266790E+06  3.510041E+05  1.709501E+06  2.411490E+05  1.781363E+05
       461   3  2.296881E+06  1.306778E+06  2.469526E+05  1.693575E+06  1.142217E+05  8.276531E+04
       461   4  2.287935E+06  1.564718E+06  6.709284E+05  1.362878E+06  3.648509E+05  2.756942E+05
       461   5  2.010258E+06  1.114347E+06  2.893815E+05  1.613018E+06  2.409310E+05  1.779569E+05
       461   6  2.092010E+06  1.225800E+06  1.904698E+05  1.621417E+06  1.147501E+05  8.317940E+04
       461   7  2.172943E+06  1.340831E+06  6.035869E+05  1.242076E+06  3.639010E+05  2.748935E+05
       461   8  1.850369E+06  9.619322E+05  2.277547E+05  1.516566E+06  2.407132E+05  1.777775E+05
       461   9  1.887186E+06  1.144828E+06  1.339839E+05  1.549278E+06  1.152784E+05  8.359340E+04
       461  10  2.402788E+06  1.788567E+06  7.378757E+05  1.483638E+06 -4.013617E-10  1.599642E-08
       461  11  2.170103E+06  1.266740E+06  3.508361E+05  1.709466E+06 -4.686689E-09  7.129744E-09
       461  12  2.296866E+06  1.306767E+06  2.469155E+05  1.693567E+06 -7.775703E-10  2.984917E-09
       461  13  2.287772E+06  1.564601E+06  6.705375E+05  1.362797E+06 -1.520637E-09  4.794198E-09
       461  14  2.010187E+06  1.114298E+06  2.892138E+05  1.612983E+06 -2.810364E-09 -8.314168E-09
       461  15  2.091994E+06  1.225789E+06  1.904322E+05  1.621409E+06 -1.617390E-09  3.099465E-09
       461  16  2.172782E+06  1.340715E+06  6.031979E+05  1.241995E+06  1.986295E-09 -2.905008E-10
       461  17  1.850299E+06  9.618829E+05  2.275873E+05  1.516532E+06 -8.616126E-11  4.385109E-09
       461  18  1.887170E+06  1.144817E+06  1.339460E+05  1.549270E+06  4.623428E-10 -4.773394E-09
       461  19  2.402951E+06  1.788685E+06  7.382686E+05  1.483719E+06 -3.658010E+05 -2.764954E+05
       461  20  2.170174E+06  1.266790E+06  3.510041E+05  1.709501E+06 -2.411490E+05 -1.781363E+05
       461  21  2.296881E+06  1.306778E+06  2.469526E+05  1.693575E+06 -1.142217E+05 -8.276531E+04
       461  22  2.287935E+06  1.564718E+06  6.709284E+05  1.362878E+06 -3.648509E+05 -2.756942E+05
       461  23  2.010258E+06  1.114347E+06  2.893815E+05  1.613018E+06 -2.409310E+05 -1.779569E+05
       461  24  2.092010E+06  1.225800E+06  1.904698E+05  1.621417E+06 -1.147501E+05 -8.317940E+04
       461  25  2.172943E+06  1.340831E+06  6.035869E+05  1.242076E+06 -3.639010E+05 -2.748935E+05
       461  26  1.850369E+06  9.619322E+05  2.277547E+05  1.516566E+06 -2.407132E+05 -1.777775E+05
       461  27  1.887186E+06  1.144828E+06  1.339839E+05  1.549278E+06 -1.152784E+05 -8.359340E+04
       462   1  2.209850E+06  1.363990E+06  1.985980E+05  1.619295E+06  8.921326E+04  6.495547E+04
       462   2  2.175670E+06  1.274419E+06  1.185302E+05  1.644448E+06  5.494148E+04  3.898241E+04
       462   3  2.179269E+06  1.285210E+06  9.287146E+04  1.639895E+06  2.045035E+04  1.329946E+04
       462   4  2.104546E+06  1.268337E+06  1.588921E+05  1.557909E+06  8.918755E+04  6.493324E+04
       462   5  2.072141E+06  1.194834E+06  8.236439E+04  1.590596E+06  5.499196E+04  3.902049E+04
       462   6  2.077510E+06  1.221688E+06  6.018856E+04  1.593574E+06  2.057703E+04  1.339636E+04
       462   7  1.999253E+06  1.172695E+06  1.191842E+05  1.496535E+06  8.916185E+04  6.491103E+04
       462   8  1.968624E+06  1.115257E+06  4.619703E+04  1.536754E+06  5.504242E+04  3.905855E+04
       462   9  1.975761E+06  1.158171E+06  2.750447E+04  1.547260E+06  2.070368E+04  1.349324E+04
       462  10  2.209840E+06  1.363983E+06  1.985752E+05  1.619290E+06 -1.156864E-09  4.777136E-09
       462  11  2.175666E+06  1.274416E+06  1.185217E+05  1.644446E+06  9.512402E-10  1.367456E-08
       462  12  2.179269E+06  1.285210E+06  9.287035E+04  1.639895E+06  3.996444E-10 -1.370278E-08
       462  13  2.104536E+06  1.268331E+06  1.588693E+05  1.557904E+06  3.153387E-09  3.586942E-09
       462  14  2.072138E+06  1.194832E+06  8.235589E+04  1.590594E+06  4.107457E-09 -1.588254E-08
       462  15  2.077509E+06  1.221688E+06  6.018743E+04  1.593573E+06  6.355282E-09  3.383751E-09
       462  16  1.999243E+06  1.172689E+06  1.191615E+05  1.496531E+06  3.704810E-09 -3.376648E-09
       462  17  1.968620E+06  1.115254E+06  4.618851E+04  1.536752E+06  3.394406E-09  1.865158E-08
       462  18  1.975761E+06  1.158170E+06  2.750333E+04  1.547260E+06  1.465250E-09  2.612257E-10
       462  19  2.209850E+06  1.363990E+06  1.985980E+05  1.619295E+06 -8.921326E+04 -6.495547E+04
       462  20  2.175670E+06  1.274419E+06  1.185302E+05  1.644448E+06 -5.494148E+04 -3.898241E+04
       462  21  2.179269E+06  1.285210E+06  9.287146E+04  1.639895E+06 -2.045035E+04 -1.329946E+04
       462  22  2.104546E+06  1.268337E+06  1.588921E+05  1.557909E+06 -8.918755E+04 -6.493324E+04
       462  23  2.072141E+06  1.194834E+06  8.236439E+04  1.590596E+06 -5.499196E+04 -3.902049E+04
       462  24  2.077510E+06  1.221688E+06  6.018856E+04  1.593574E+06 -2.057703E+04 -1.339636E+04
       462  25  1.999253E+06  1.172695E+06  1.191842E+05  1.496535E+06 -8.916185E+04 -6.491103E+04
       462  26  1.968624E+06  1.115257E+06  4.619703E+04  1.536754E+06 -5.504242E+04 -3.905855E+04
       462  27  1.975761E+06  1.158171E+06  2.750447E+04  1.547260E+06 -2.070368E+04 -1.349324E+04
       463   1  2.138298E+06  1.272489E+06  7.569756E+04  1.617658E+06  1.204666E+04  7.298518E+03
       463   2  2.131705E+06  1.243869E+06  6.780685E+04  1.615378E+06 -8.254102E+03 -7.730418E+03
       463   3  2.131304E+06  1.259713E+06  8.577429E+04  1.605310E+06 -2.853333E+04 -2.278773E+04
       463   4  2.079789E+06  1.225286E+06  5.484376E+04  1.586221E+06  1.211874E+04  7.353413E+03
       463   5  2.077879E+06  1.205093E+06  4.951215E+04  1.588549E+06 -8.186689E+03 -7.678998E+03
       463   6  2.082161E+06  1.229368E+06  7.004487E+04  1.583089E+06 -2.847080E+04 -2.274026E+04
       463   7  2.021285E+06  1.178085E+06  3.398943E+04  1.554787E+06  1.219082E+04  7.408299E+03
       463   8  2.024055E+06  1.166319E+06  3.121702E+04  1.561723E+06 -8.119284E+03 -7.627585E+03
       463   9  2.033022E+06  1.199024E+06  5.431512E+04  1.560871E+06 -2.840828E+04 -2.269279E+04
       463  10  2.138297E+06  1.272489E+06  7.569719E+04  1.617658E+06  6.256245E-09 -4.710800E-09
       463  11  2.131705E+06  1.243869E+06  6.780661E+04  1.615378E+06  5.236874E-09 -1.393281E-08
       463  12  2.131303E+06  1.259712E+06  8.577179E+04  1.605309E+06 -1.657363E-09 -1.100359E-08
       463  13  2.079789E+06  1.225286E+06  5.484338E+04  1.586221E+06  6.183209E-09 -7.691170E-09
       463  14  2.077879E+06  1.205093E+06  4.951192E+04  1.588549E+06 -3.778242E-09  1.684602E-08
       463  15  2.082160E+06  1.229367E+06  7.004239E+04  1.583089E+06  4.785180E-09  3.380480E-09
       463  16  2.021285E+06  1.178085E+06  3.398905E+04  1.554787E+06  1.477955E-09  6.108169E-09
       463  17  2.024055E+06  1.166319E+06  3.121679E+04  1.561723E+06 -4.519828E-10  1.726630E-09
       463  18  2.033021E+06  1.199023E+06  5.431265E+04  1.560870E+06  4.479693E-09  8.667298E-09
       463  19  2.138298E+06  1.272489E+06  7.569756E+04  1.617658E+06 -1.204666E+04 -7.298518E+03
       463  20  2.131705E+06  1.243869E+06  6.780685E+04  1.615378E+06  8.254102E+03  7.730418E+03
       463  21  2.131304E+06  1.259713E+06  8.577429E+04  1.605310E+06  2.853333E+04  2.278773E+04
       463  22  2.079789E+06  1.225286E+06  5.484376E+04  1.586221E+06 -1.211874E+04 -7.353413E+03
       463  23  2.077879E+06  1.205093E+06  4.951215E+04  1.588549E+06  8.186689E+03  7.678998E+03
       463  24  2.082161E+06  1.229368E+06  7.004487E+04  1.583089E+06  2.847080E+04  2.274026E+04
       463  25  2.021285E+06  1.178085E+06  3.398943E+04  1.554787E+06 -1.219082E+04 -7.408299E+03
       463  26  2.024055E+06  1.166319E+06  3.121702E+04  1.561723E+06  8.119284E+03  7.627585E+03
       463  27  2.033022E+06  1.199024E+06  5.431512E+04  1.560871E+06  2.840828E+04  2.269279E+04
       464   1  2.090673E+06  1.242949E+06  8.899686E+04  1.608328E+06 -3.962459E+04 -3.098699E+04
       464   2  2.080155E+06  1.194286E+06  1.287257E+05  1.598513E+06 -9.141876E+04 -7.008853E+04
       464   3  2.149010E+06  1.282589E+06  2.521547E+05  1.536222E+06 -1.431379E+05 -1.092887E+05
       464   4  2.080877E+06  1.219770E+06  8.251051E+04  1.596207E+06 -3.954739E+04 -3.092710E+04
       464   5  2.063291E+06  1.189313E+06  1.244091E+05  1.593328E+06 -9.136368E+04 -7.004751E+04
       464   6  2.125082E+06  1.295828E+06  2.500288E+05  1.537972E+06 -1.431040E+05 -1.092695E+05
       464   7  2.071082E+06  1.196592E+06  7.602417E+04  1.584086E+06 -3.947019E+04 -3.086721E+04
       464   8  2.046428E+06  1.184340E+06  1.200926E+05  1.588143E+06 -9.130860E+04 -7.000649E+04
       464   9  2.101156E+06  1.309068E+06  2.479032E+05  1.539723E+06 -1.430701E+05 -1.092503E+05
       464  10  2.090671E+06  1.242948E+06  8.899214E+04  1.608327E+06 -1.197323E-08 -1.464608E-08
       464  11  2.080145E+06  1.194278E+06  1.287009E+05  1.598508E+06 -1.863038E-09 -1.089222E-09
       464  12  2.148985E+06  1.282571E+06  2.520940E+05  1.536209E+06  5.306035E-10  9.467696E-11
       464  13  2.080875E+06  1.219769E+06  8.250580E+04  1.596206E+06  2.155846E-09  9.994943E-09
       464  14  2.063281E+06  1.189306E+06  1.243843E+05  1.593323E+06 -7.176971E-09  1.756502E-08
       464  15  2.125057E+06  1.295810E+06  2.499682E+05  1.537960E+06  2.190984E-09  7.864063E-09
       464  16  2.071081E+06  1.196591E+06  7.601947E+04  1.584085E+06 -2.145285E-09  1.663867E-08
       464  17  2.046417E+06  1.184333E+06  1.200678E+05  1.588138E+06 -8.031488E-09  2.136755E-08
       464  18  2.101131E+06  1.309049E+06  2.478426E+05  1.539710E+06 -1.344394E-08  1.891884E-08
       464  19  2.090673E+06  1.242949E+06  8.899686E+04  1.608328E+06  3.962459E+04  3.098699E+04
       464  20  2.080155E+06  1.194286E+06  1.287257E+05  1.598513E+06  9.141876E+04  7.008853E+04
       464  21  2.149010E+06  1.282589E+06  2.521547E+05  1.536222E+06  1.431379E+05  1.092887E+05
       464  22  2.080877E+06  1.219770E+06  8.251051E+04  1.596207E+06  3.954739E+04  3.092710E+04
       464  23  2.063291E+06  1.189313E+06  1.244091E+05  1.593328E+06  9.136368E+04  7.004751E+04
       464  24  2.125082E+06  1.295828E+06  2.500288E+05  1.537972E+06  1.431040E+05  1.092695E+05
       464  25  2.071082E+06  1.196592E+06  7.602417E+04  1.584086E+06  3.947019E+04  3.086721E+04
       464  26  2.046428E+06  1.184340E+06  1.200926E+05  1.588143E+06  9.130860E+04  7.000649E+04
       464  27  2.101156E+06  1.309068E+06  2.479032E+05  1.539723E+06  1.430701E+05  1.092503E+05
       465   1  2.026783E+06  1.272920E+06  2.951117E+05  1.646491E+06 -1.828215E+05 -1.392352E+05
       465   2  1.967753E+06  1.012125E+06  4.530197E+05  1.608386E+06 -3.830582E+05 -2.914816E+05
       465   3  2.521413E+06  1.611353E+06  1.062384E+06  1.172866E+06 -5.828613E+05 -4.442560E+05
       465   4  2.108416E+06  1.224156E+06  3.016270E+05  1.638915E+06 -1.826907E+05 -1.391053E+05
       465   5  1.959452E+06  1.064823E+06  4.617748E+05  1.630582E+06 -3.830530E+05 -2.915118E+05
       465   6  2.423138E+06  1.765505E+06  1.073489E+06  1.224855E+06 -5.829354E+05 -4.445127E+05
       465   7  2.190063E+06  1.175402E+06  3.081445E+05  1.631336E+06 -1.825598E+05 -1.389754E+05
       465   8  1.951154E+06  1.117527E+06  4.705305E+05  1.652779E+06 -3.830478E+05 -2.915421E+05
       465   9  2.324905E+06  1.919724E+06  1.084604E+06  1.276832E+06 -5.830095E+05 -4.447695E+05
       465  10  2.026742E+06  1.272890E+06  2.950130E+05  1.646470E+06 -5.163299E-09 -9.867200E-09
       465  11  1.967573E+06  1.011995E+06  4.525866E+05  1.608296E+06 -1.176778E-09  1.660364E-08
       465  12  2.520997E+06  1.611052E+06  1.061380E+06  1.172658E+06  1.467694E-09 -6.625835E-09
       465  13  2.108375E+06  1.224126E+06  3.015285E+05  1.638895E+06  2.039154E-09  7.196712E-10
       465  14  1.959273E+06  1.064693E+06  4.613417E+05  1.630493E+06  8.861133E-09  1.355374E-08
       465  15  2.422722E+06  1.765203E+06  1.072485E+06  1.224647E+06 -5.083992E-09  6.253505E-09
       465  16  2.190022E+06  1.175372E+06  3.080462E+05  1.631315E+06 -2.529719E-09  1.513351E-08
       465  17  1.950974E+06  1.117397E+06  4.700974E+05  1.652689E+06  2.400230E-09  1.379734E-08
       465  18  2.324489E+06  1.919422E+06  1.083599E+06  1.276624E+06 -4.203882E-09 -3.279151E-09
       465  19  2.026783E+06  1.272920E+06  2.951117E+05  1.646491E+06  1.828215E+05  1.392352E+05
       465  20  1.967753E+06  1.012125E+06  4.530197E+05  1.608386E+06  3.830582E+05  2.914816E+05
       465  21  2.521413E+06  1.611353E+06  1.062384E+06  1.172866E+06  5.828613E+05  4.442560E+05
       465  22  2.108416E+06  1.224156E+06  3.016270E+05  1.638915E+06  1.826907E+05  1.391053E+05
       465  23  1.959452E+06  1.064823E+06  4.617748E+05  1.630582E+06  3.830530E+05  2.915118E+05
       465  24  2.423138E+06  1.765505E+06  1.073489E+06  1.224855E+06  5.829354E+05  4.445127E+05
       465  25  2.190063E+06  1.175402E+06  3.081445E+05  1.631336E+06  1.825598E+05  1.389754E+05
       465  26  1.951154E+06  1.117527E+06  4.705305E+05  1.652779E+06  3.830478E+05  2.915421E+05
       465  27  2.324905E+06  1.919724E+06  1.084604E+06  1.276832E+06  5.830095E+05  4.447695E+05
       466   1 -7.354963E+04  5.864363E+04  3.160581E+04  1.941344E+04 -7.487403E+04 -3.997829E+03
       466   2 -1.107856E+05  1.512867E+05  8.170854E+04 -1.289722E+04 -4.988901E+04 -9.839623E+03
       466   3 -1.819403E+05  1.230842E+05  8.528176E+04  3.978929E+04 -2.498222E+04 -6.926588E+03
       466   4 -6.589890E+05 -8.741401E+04 -1.142348E+05  3.021702E+04 -7.732661E+04 -4.019802E+03
       466   5 -6.418238E+05  1.881389E+04 -4.962802E+04 -1.265979E+04 -5.026339E+04 -9.843732E+03
       466   6 -6.589732E+05  3.777641E+03 -3.302663E+04  2.946597E+04 -2.327618E+04 -6.910412E+03
       466   7 -1.244117E+06 -2.334969E+05 -2.601010E+05  4.100976E+04 -7.977684E+04 -4.041872E+03
       466   8 -1.172606E+06 -1.136800E+05 -1.809855E+05 -1.242312E+04 -5.063744E+04 -9.847843E+03
       466   9 -1.135799E+06 -1.155457E+05 -1.513520E+05  1.915010E+04 -2.157144E+04 -6.894287E+03
       466  10 -7.355566E+04  5.864211E+04  3.159525E+04  1.941320E+04 -4.794466E-09  7.987042E-09
       466  11 -1.107883E+05  1.512860E+05  8.170368E+04 -1.289762E+04 -2.853295E-09  3.596658E-08
       466  12 -1.819410E+05  1.230840E+05  8.528050E+04  3.978915E+04  6.248211E-09  9.598612E-09
       466  13 -6.589955E+05 -8.741563E+04 -1.142461E+05  3.021677E+04  1.561020E-09 -1.006901E-08
       466  14 -6.418265E+05  1.881310E+04 -4.963296E+04 -1.266019E+04 -4.089438E-09 -2.458482E-08
       466  15 -6.589738E+05  3.777444E+03 -3.302774E+04  2.946584E+04  1.790966E-09  8.775296E-10
       466  16 -1.244124E+06 -2.334986E+05 -2.601130E+05  4.100950E+04  8.017998E-09  3.477192E-10
       466  17 -1.172608E+06 -1.136808E+05 -1.809906E+05 -1.242352E+04 -3.914005E-09  1.923621E-08
       466  18 -1.135800E+06 -1.155459E+05 -1.513530E+05  1.914998E+04 -1.295879E-09 -1.245321E-08
       466  19 -7.354963E+04  5.864363E+04  3.160581E+04  1.941344E+04  7.487403E+04  3.997829E+03
       466  20 -1.107856E+05  1.512867E+05  8.170854E+04 -1.289722E+04  4.988901E+04  9.839623E+03
       466  21 -1.819403E+05  1.230842E+05  8.528176E+04  3.978929E+04  2.498222E+04  6.926588E+03
       466  22 -6.589890E+05 -8.741401E+04 -1.142348E+05  3.021702E+04  7.732661E+04  4.019802E+03
       466  23 -6.418238E+05  1.881389E+04 -4.962802E+04 -1.265979E+04  5.026339E+04  9.843732E+03
       466  24 -6.589732E+05  3.777641E+03 -3.302663E+04  2.946597E+04  2.327618E+04  6.910412E+03
       466  25 -1.244117E+06 -2.334969E+05 -2.601010E+05  4.100976E+04  7.977684E+04  4.041872E+03
       466  26 -1.172606E+06 -1.136800E+05 -1.809855E+05 -1.242312E+04  5.063744E+04  9.847843E+03
       466  27 -1.135799E+06 -1.155457E+05 -1.513520E+05  1.915010E+04  2.157144E+04  6.894287E+03
       467   1 -3.949982E+05  5.247970E+04  3.591518E+04  3.038371E+04 -1.794875E+04 -4.366889E+03
       467   2 -4.477430E+05  5.317232E+04  3.429444E+04 -1.263629E+04 -1.010745E+04 -3.364872E+03
       467   3 -5.080270E+05  3.581376E+04  2.264666E+04  3.282913E+04 -2.278818E+03 -1.292186E+03
       467   4 -6.529912E+05 -1.189668E+04 -2.796002E+04  3.057802E+04 -1.785055E+04 -4.366100E+03
       467   5 -6.491973E+05  2.872426E+03 -1.559130E+04 -1.372130E+04 -9.755380E+03 -3.361426E+03
       467   6 -6.529930E+05 -4.574980E+02 -1.342909E+04  3.046676E+04 -1.672171E+03 -1.285959E+03
       467   7 -9.109236E+05 -7.627804E+04 -9.184018E+04  3.077209E+04 -1.775238E+04 -4.365310E+03
       467   8 -8.506147E+05 -4.743050E+04 -6.548007E+04 -1.480605E+04 -9.403419E+03 -3.357980E+03
       467   9 -7.979399E+05 -3.673032E+04 -4.950642E+04  2.810488E+04 -1.065666E+03 -1.279736E+03
       467  10 -3.949985E+05  5.247959E+04  3.591454E+04  3.038365E+04 -1.955084E-09 -1.566852E-08
       467  11 -4.477432E+05  5.317228E+04  3.429423E+04 -1.263632E+04 -9.459148E-09  6.604203E-09
       467  12 -5.080270E+05  3.581375E+04  2.264665E+04  3.282913E+04  2.907247E-09  2.753060E-08
       467  13 -6.529915E+05 -1.189679E+04 -2.796066E+04  3.057795E+04 -1.667058E-09  2.747155E-08
       467  14 -6.491974E+05  2.872388E+03 -1.559150E+04 -1.372133E+04 -4.189414E-09 -5.908056E-08
       467  15 -6.529930E+05 -4.575005E+02 -1.342910E+04  3.046675E+04 -2.695189E-09  2.692970E-08
       467  16 -9.109240E+05 -7.627815E+04 -9.184081E+04  3.077203E+04  7.156516E-09 -3.291601E-08
       467  17 -8.506147E+05 -4.743054E+04 -6.548026E+04 -1.480607E+04  5.106069E-09 -3.114281E-09
       467  18 -7.979399E+05 -3.673032E+04 -4.950643E+04  2.810488E+04  3.021832E-09  4.503134E-09
       467  19 -3.949982E+05  5.247970E+04  3.591518E+04  3.038371E+04  1.794875E+04  4.366889E+03
       467  20 -4.477430E+05  5.317232E+04  3.429444E+04 -1.263629E+04  1.010745E+04  3.364872E+03
       467  21 -5.080270E+05  3.581376E+04  2.264666E+04  3.282913E+04  2.278818E+03  1.292186E+03
       467  22 -6.529912E+05 -1.189668E+04 -2.796002E+04  3.057802E+04  1.785055E+04  4.366100E+03
       467  23 -6.491973E+05  2.872426E+03 -1.559130E+04 -1.372130E+04  9.755380E+03  3.361426E+03
       467  24 -6.529930E+05 -4.574980E+02 -1.342909E+04  3.046676E+04  1.672171E+03  1.285959E+03
       467  25 -9.109236E+05 -7.627804E+04 -9.184018E+04  3.077209E+04  1.775238E+04  4.365310E+03
       467  26 -8.506147E+05 -4.743050E+04 -6.548007E+04 -1.480605E+04  9.403419E+03  3.357980E+03
       467  27 -7.979399E+05 -3.673032E+04 -4.950642E+04  2.810488E+04  1.065666E+03  1.279736E+03
       468   1 -7.324899E+05 -2.060376E+04 -3.316604E+04  2.875863E+04  1.270920E+02  2.640919E+02
       468   2 -7.855217E+05 -3.135855E+04 -4.847770E+04 -1.447342E+04  7.985534E+03  2.317653E+03
       468   3 -8.459246E+05 -5.889687E+04 -7.355033E+04  3.112982E+04  1.585364E+04  3.432210E+03
       468   4 -6.529311E+05 -6.687441E+02 -1.329434E+04  3.054842E+04  7.128046E+02  2.701301E+02
       468   5 -6.492648E+05  2.666584E+03 -1.473470E+04 -1.381876E+04  8.347452E+03  2.321274E+03
       468   6 -6.529310E+05 -1.073996E+04 -2.577837E+04  3.064822E+04  1.599247E+04  3.433479E+03
       468   7 -5.733666E+05  1.926580E+04  6.576877E+03  3.233843E+04  1.298592E+03  2.761713E+02
       468   8 -5.129910E+05  3.669033E+04  1.900691E+04 -1.316399E+04  8.709448E+03  2.324896E+03
       468   9 -4.599035E+05  3.741417E+04  2.199082E+04  3.016638E+04  1.613135E+04  3.434749E+03
       468  10 -7.324899E+05 -2.060376E+04 -3.316604E+04  2.875863E+04  1.030066E-08 -1.002090E-08
       468  11 -7.855218E+05 -3.135857E+04 -4.847783E+04 -1.447344E+04 -4.443407E-09 -2.444407E-08
       468  12 -8.459248E+05 -5.889696E+04 -7.355082E+04  3.112977E+04  4.822139E-09 -2.440120E-08
       468  13 -6.529311E+05 -6.687443E+02 -1.329435E+04  3.054842E+04 -8.450953E-12 -3.492643E-09
       468  14 -6.492649E+05  2.666560E+03 -1.473484E+04 -1.381877E+04 -3.941101E-09 -2.362715E-08
       468  15 -6.529313E+05 -1.074004E+04 -2.577887E+04  3.064817E+04 -3.951925E-10 -1.959318E-08
       468  16 -5.733666E+05  1.926580E+04  6.576874E+03  3.233843E+04 -6.697149E-09 -1.651566E-08
       468  17 -5.129910E+05  3.669030E+04  1.900676E+04 -1.316401E+04 -1.990319E-09  1.429386E-08
       468  18 -4.599038E+05  3.741408E+04  2.199031E+04  3.016634E+04  1.196977E-09  1.897148E-08
       468  19 -7.324899E+05 -2.060376E+04 -3.316604E+04  2.875863E+04 -1.270920E+02 -2.640919E+02
       468  20 -7.855217E+05 -3.135855E+04 -4.847770E+04 -1.447342E+04 -7.985534E+03 -2.317653E+03
       468  21 -8.459246E+05 -5.889687E+04 -7.355033E+04  3.112982E+04 -1.585364E+04 -3.432210E+03
       468  22 -6.529311E+05 -6.687441E+02 -1.329434E+04  3.054842E+04 -7.128046E+02 -2.701301E+02
       468  23 -6.492648E+05  2.666584E+03 -1.473470E+04 -1.381876E+04 -8.347452E+03 -2.321274E+03
       468  24 -6.529310E+05 -1.073996E+04 -2.577837E+04  3.064822E+04 -1.599247E+04 -3.433479E+03
       468  25 -5.733666E+05  1.926580E+04  6.576877E+03  3.233843E+04 -1.298592E+03 -2.761713E+02
       468  26 -5.129910E+05  3.669033E+04  1.900691E+04 -1.316399E+04 -8.709448E+03 -2.324896E+03
       468  27 -4.599035E+05  3.741417E+04  2.199082E+04  3.016638E+04 -1.613135E+04 -3.434749E+03
       469   1 -1.072043E+06 -1.000596E+05 -1.329941E+05  2.038300E+04  1.938569E+04  5.857260E+03
       469   2 -1.110846E+06 -9.975854E+04 -1.611703E+05 -1.274408E+04  4.590568E+04  8.748131E+03
       469   3 -1.181670E+06 -2.101523E+05 -2.345005E+05  4.015920E+04  7.249545E+04  3.656883E+03
       469   4 -6.583738E+05  3.471903E+03 -3.032183E+04  2.970721E+04  2.098388E+04  5.872791E+03
       469   5 -6.425475E+05  1.713044E+04 -4.528647E+04 -1.294883E+04  4.560727E+04  8.744757E+03
       469   6 -6.583892E+05 -7.953024E+04 -1.040612E+05  3.042236E+04  7.030282E+04  3.636413E+03
       469   7 -2.445489E+05  1.069908E+05  7.233770E+04  3.903727E+04  2.258314E+04  5.888366E+03
       469   8 -1.740493E+05  1.340030E+05  7.058105E+04 -1.315418E+04  4.530862E+04  8.741385E+03
       469   9 -1.348592E+05  5.107168E+04  2.635769E+04  2.067675E+04  6.810831E+04  3.616022E+03
       469  10 -1.072043E+06 -1.000597E+05 -1.329949E+05  2.038291E+04  7.289176E-10 -2.354705E-08
       469  11 -1.110848E+06 -9.975919E+04 -1.611744E+05 -1.274440E+04 -1.218245E-08  4.089416E-09
       469  12 -1.181676E+06 -2.101538E+05 -2.345104E+05  4.015899E+04  9.182452E-10  1.584489E-09
       469  13 -6.583743E+05  3.471748E+03 -3.032272E+04  2.970711E+04 -1.128083E-09 -5.056143E-09
       469  14 -6.425497E+05  1.712980E+04 -4.529052E+04 -1.294915E+04 -3.865580E-09 -7.682881E-09
       469  15 -6.583945E+05 -7.953159E+04 -1.040705E+05  3.042215E+04  1.260278E-09 -8.213521E-09
       469  16 -2.445495E+05  1.069906E+05  7.233668E+04  3.903716E+04 -1.196050E-09  1.736495E-08
       469  17 -1.740515E+05  1.340024E+05  7.057705E+04 -1.315450E+04  3.572777E-09  4.067861E-08
       469  18 -1.348642E+05  5.107042E+04  2.634894E+04  2.067655E+04  4.045776E-09  9.897323E-09
       469  19 -1.072043E+06 -1.000596E+05 -1.329941E+05  2.038300E+04 -1.938569E+04 -5.857260E+03
       469  20 -1.110846E+06 -9.975854E+04 -1.611703E+05 -1.274408E+04 -4.590568E+04 -8.748131E+03
       469  21 -1.181670E+06 -2.101523E+05 -2.345005E+05  4.015920E+04 -7.249545E+04 -3.656883E+03
       469  22 -6.583738E+05  3.471903E+03 -3.032183E+04  2.970721E+04 -2.098388E+04 -5.872791E+03
       469  23 -6.425475E+05  1.713044E+04 -4.528647E+04 -1.294883E+04 -4.560727E+04 -8.744757E+03
       469  24 -6.583892E+05 -7.953024E+04 -1.040612E+05  3.042236E+04 -7.030282E+04 -3.636413E+03
       469  25 -2.445489E+05  1.069908E+05  7.233770E+04  3.903727E+04 -2.258314E+04 -5.888366E+03
       469  26 -1.740493E+05  1.340030E+05  7.058105E+04 -1.315418E+04 -4.530862E+04 -8.741385E+03
       469  27 -1.348592E+05  5.107168E+04  2.635769E+04  2.067675E+04 -6.810831E+04 -3.616022E+03
       470   1 -5.385315E+05 -2.942753E+06 -6.251583E+05  1.545235E+05 -3.489380E+03 -2.699096E+05
       470   2 -1.355428E+05 -2.750611E+06 -3.667495E+05  1.234633E+04 -1.336333E+04 -1.748869E+05
       470   3 -1.561682E+05 -2.670315E+06 -2.750444E+05  8.163490E+04 -7.954974E+03 -7.974543E+04
       470   4 -3.025455E+05 -2.004690E+06 -3.906114E+05  1.002524E+05 -3.495303E+03 -2.661429E+05
       470   5  6.516291E+04 -1.949035E+06 -1.680264E+05 -4.332177E+03 -1.336005E+04 -1.746506E+05
       470   6  1.017116E+04 -2.004454E+06 -1.095043E+05  1.025443E+05 -7.939632E+03 -8.306090E+04
       470   7 -6.661597E+04 -1.065821E+06 -1.561298E+05  4.590034E+04 -3.501897E+03 -2.623702E+05
       470   8  2.658212E+05 -1.146872E+06  3.064869E+04 -2.103138E+04 -1.335679E+04 -1.744138E+05
       470   9  1.764790E+05 -1.338187E+06  5.600293E+04  1.234767E+05 -7.924521E+03 -8.637989E+04
       470  10 -5.385512E+05 -2.942832E+06 -6.252959E+05  1.545227E+05  4.300513E-10  8.692595E-09
       470  11 -1.355513E+05 -2.750644E+06 -3.668076E+05  1.234445E+04  6.466080E-10  6.116015E-10
       470  12 -1.561700E+05 -2.670322E+06 -2.750566E+05  8.163439E+04  3.277359E-09  1.208775E-08
       470  13 -3.025646E+05 -2.004767E+06 -3.907450E+05  1.002516E+05  4.423564E-09  1.667551E-08
       470  14  6.515449E+04 -1.949067E+06 -1.680843E+05 -4.334058E+03 -7.099415E-09 -7.708333E-10
       470  15  1.016924E+04 -2.004461E+06 -1.095174E+05  1.025437E+05  2.716971E-09  9.562327E-09
       470  16 -6.663450E+04 -1.065895E+06 -1.562594E+05  4.589960E+04  9.536171E-10 -2.662032E-09
       470  17  2.658128E+05 -1.146905E+06  3.059108E+04 -2.103325E+04  1.251061E-09 -6.074603E-09
       470  18  1.764769E+05 -1.338195E+06  5.598876E+04  1.234761E+05  2.059429E-09 -1.380154E-08
       470  19 -5.385315E+05 -2.942753E+06 -6.251583E+05  1.545235E+05  3.489380E+03  2.699096E+05
       470  20 -1.355428E+05 -2.750611E+06 -3.667495E+05  1.234633E+04  1.336333E+04  1.748869E+05
       470  21 -1.561682E+05 -2.670315E+06 -2.750444E+05  8.163490E+04  7.954974E+03  7.974543E+04
       470  22 -3.025455E+05 -2.004690E+06 -3.906114E+05  1.002524E+05  3.495303E+03  2.661429E+05
       470  23  6.516291E+04 -1.949035E+06 -1.680264E+05 -4.332177E+03  1.336005E+04  1.746506E+05
       470  24  1.017116E+04 -2.004454E+06 -1.095043E+05  1.025443E+05  7.939632E+03  8.306090E+04
       470  25 -6.661597E+04 -1.065821E+06 -1.561298E+05  4.590034E+04  3.501897E+03  2.623702E+05
       470  26  2.658212E+05 -1.146872E+06  3.064869E+04 -2.103138E+04  1.335679E+04  1.744138E+05
       470  27  1.764790E+05 -1.338187E+06  5.600293E+04  1.234767E+05  7.924521E+03  8.637989E+04
       471   1 -6.930541E+04 -2.084248E+06 -1.157832E+05  1.122247E+05 -2.410986E+03 -6.429357E+04
       471   2  2.097231E+04 -1.931259E+06 -3.415861E+04 -6.787326E+03  9.141691E+02 -4.079041E+04
       471   3  4.522759E+04 -1.794848E+06  1.622207E+04  1.006196E+05  4.068981E+03 -1.728181E+04
       471   4 -4.403148E+04 -1.983401E+06 -9.092222E+04  1.049899E+05 -2.405937E+03 -6.514107E+04
       471   5  1.003574E+04 -1.975071E+06 -4.502246E+04 -8.112058E+03  9.184692E+02 -4.159298E+04
       471   6 -1.925419E+03 -1.983343E+06 -3.039023E+04  1.052073E+05  4.072915E+03 -1.804491E+04
       471   7 -1.875811E+04 -1.882544E+06 -6.606200E+04  9.775383E+04 -2.400868E+03 -6.598872E+04
       471   8 -9.009628E+02 -2.018882E+06 -5.588646E+04 -9.436693E+03  9.227729E+02 -4.239550E+04
       471   9 -4.908103E+04 -2.171805E+06 -7.700516E+04  1.097937E+05  4.076838E+03 -1.880776E+04
       471  10 -6.930653E+04 -2.084253E+06 -1.157910E+05  1.122246E+05 -5.870586E-12  1.509929E-08
       471  11  2.097186E+04 -1.931260E+06 -3.416175E+04 -6.787296E+03  1.781712E-09  2.225884E-09
       471  12  4.522750E+04 -1.794849E+06  1.622148E+04  1.006196E+05 -1.448792E-09  7.012966E-09
       471  13 -4.403262E+04 -1.983405E+06 -9.093023E+04  1.049897E+05  3.103931E-09  1.134591E-08
       471  14  1.003527E+04 -1.975073E+06 -4.502573E+04 -8.112027E+03  5.498199E-09  5.428262E-10
       471  15 -1.925525E+03 -1.983343E+06 -3.039087E+04  1.052074E+05  5.869972E-09  9.380941E-09
       471  16 -1.875929E+04 -1.882549E+06 -6.607022E+04  9.775370E+04  2.206344E-09 -3.963724E-09
       471  17 -9.014481E+02 -2.018884E+06 -5.588985E+04 -9.436661E+03  8.948382E-10  2.866342E-10
       471  18 -4.908114E+04 -2.171805E+06 -7.700585E+04  1.097938E+05 -3.051521E-10 -7.682998E-09
       471  19 -6.930541E+04 -2.084248E+06 -1.157832E+05  1.122247E+05  2.410986E+03  6.429357E+04
       471  20  2.097231E+04 -1.931259E+06 -3.415861E+04 -6.787326E+03 -9.141691E+02  4.079041E+04
       471  21  4.522759E+04 -1.794848E+06  1.622207E+04  1.006196E+05 -4.068981E+03  1.728181E+04
       471  22 -4.403148E+04 -1.983401E+06 -9.092222E+04  1.049899E+05  2.405937E+03  6.514107E+04
       471  23  1.003574E+04 -1.975071E+06 -4.502246E+04 -8.112058E+03 -9.184692E+02  4.159298E+04
       471  24 -1.925419E+03 -1.983343E+06 -3.039023E+04  1.052073E+05 -4.072915E+03  1.804491E+04
       471  25 -1.875811E+04 -1.882544E+06 -6.606200E+04  9.775383E+04  2.400868E+03  6.598872E+04
       471  26 -9.009628E+02 -2.018882E+06 -5.588646E+04 -9.436693E+03 -9.227729E+02  4.239550E+04
       471  27 -4.908103E+04 -2.171805E+06 -7.700516E+04  1.097937E+05 -4.076838E+03  1.880776E+04
       472   1  1.810464E+05 -1.230465E+06  1.608884E+05  1.007111E+05  9.779644E+03 -9.638116E+03
       472   2  2.256162E+05 -1.094759E+06  2.013570E+05 -8.838028E+03  1.591981E+04 -4.189298E+03
       472   3  2.385005E+05 -9.602239E+05  2.318684E+05  9.257645E+04  5.919513E+03  1.150782E+03
       472   4 -6.415699E+03 -1.980248E+06 -2.536542E+04  1.017252E+05  9.799288E+03 -1.303934E+04
       472   5  4.568825E+03 -1.979277E+06 -1.766844E+04 -3.812206E+03  1.591816E+04 -3.731572E+03
       472   6 -1.682615E+04 -1.980177E+06 -2.262320E+04  1.016336E+05  5.886536E+03  5.466161E+03
       472   7 -1.939201E+05 -2.729520E+06 -2.116613E+05  1.027387E+05  9.818932E+03 -1.643644E+04
       472   8 -2.165372E+05 -2.863082E+06 -2.367522E+05  1.207635E+03  1.591652E+04 -3.274496E+03
       472   9 -2.722312E+05 -2.999184E+06 -2.771932E+05  1.106775E+05  5.853660E+03  9.774436E+03
       472  10  1.810463E+05 -1.230465E+06  1.608881E+05  1.007112E+05  9.128773E-10  7.511501E-09
       472  11  2.256160E+05 -1.094759E+06  2.013565E+05 -8.837975E+03  7.883559E-09 -2.007636E-10
       472  12  2.385005E+05 -9.602239E+05  2.318684E+05  9.257645E+04 -5.937079E-10  7.255621E-09
       472  13 -6.415848E+03 -1.980249E+06 -2.536592E+04  1.017253E+05 -1.207631E-09  1.641563E-08
       472  14  4.568550E+03 -1.979277E+06 -1.766894E+04 -3.812158E+03  2.309418E-09 -1.038352E-08
       472  15 -1.682620E+04 -1.980177E+06 -2.262332E+04  1.016335E+05 -1.016409E-09  1.430642E-08
       472  16 -1.939203E+05 -2.729521E+06 -2.116620E+05  1.027388E+05 -5.569634E-10 -6.354857E-09
       472  17 -2.165375E+05 -2.863082E+06 -2.367527E+05  1.207677E+03 -1.426423E-09 -3.801638E-10
       472  18 -2.722313E+05 -2.999184E+06 -2.771935E+05  1.106775E+05 -2.141782E-09 -9.630765E-09
       472  19  1.810464E+05 -1.230465E+06  1.608884E+05  1.007111E+05 -9.779644E+03  9.638116E+03
       472  20  2.256162E+05 -1.094759E+06  2.013570E+05 -8.838028E+03 -1.591981E+04  4.189298E+03
       472  21  2.385005E+05 -9.602239E+05  2.318684E+05  9.257645E+04 -5.919513E+03 -1.150782E+03
       472  22 -6.415699E+03 -1.980248E+06 -2.536542E+04  1.017252E+05 -9.799288E+03  1.303934E+04
       472  23  4.568825E+03 -1.979277E+06 -1.766844E+04 -3.812206E+03 -1.591816E+04  3.731572E+03
       472  24 -1.682615E+04 -1.980177E+06 -2.262320E+04  1.016336E+05 -5.886536E+03 -5.466161E+03
       472  25 -1.939201E+05 -2.729520E+06 -2.116613E+05  1.027387E+05 -9.818932E+03  1.643644E+04
       472  26 -2.165372E+05 -2.863082E+06 -2.367522E+05  1.207635E+03 -1.591652E+04  3.274496E+03
       472  27 -2.722312E+05 -2.999184E+06 -2.771932E+05  1.106775E+05 -5.853660E+03 -9.774436E+03
       473   1  1.714422E+06  1.289646E+06  5.533889E+05  1.048369E+06  2.805534E+05  2.128830E+05
       473   2  1.534941E+06  8.955421E+05  2.569192E+05  1.225126E+06  1.847695E+05  1.378496E+05
       473   3  1.639995E+06  9.250210E+05  1.779649E+05  1.213737E+06  8.770097E+04  6.449443E+04
       473   4  1.667032E+06  1.147037E+06  5.156103E+05  9.760848E+05  2.800315E+05  2.124388E+05
       473   5  1.449219E+06  8.051480E+05  2.221443E+05  1.169562E+06  1.846514E+05  1.377516E+05
       473   6  1.515898E+06  8.867953E+05  1.458629E+05  1.174878E+06  8.799593E+04  6.472632E+04
       473   7  1.619650E+06  1.004462E+06  4.778323E+05  9.038120E+05  2.795097E+05  2.119948E+05
       473   8  1.363506E+06  7.147641E+05  1.873681E+05  1.114007E+06  1.845333E+05  1.376535E+05
       473   9  1.391819E+06  8.485711E+05  1.137601E+05  1.136024E+06  8.829079E+04  6.495819E+04
       473  10  1.714326E+06  1.289577E+06  5.531567E+05  1.048321E+06 -2.153483E-09 -6.802103E-09
       473  11  1.534899E+06  8.955127E+05  2.568197E+05  1.225105E+06 -7.579235E-09 -8.996649E-09
       473  12  1.639986E+06  9.250145E+05  1.779428E+05  1.213732E+06 -6.020399E-09 -2.607912E-08
       473  13  1.666936E+06  1.146967E+06  5.153790E+05  9.760370E+05  7.777861E-10  4.146228E-10
       473  14  1.449178E+06  8.051186E+05  2.220450E+05  1.169541E+06 -3.830160E-09 -3.137699E-09
       473  15  1.515889E+06  8.867888E+05  1.458406E+05  1.174873E+06 -6.178682E-09  1.347809E-09
       473  16  1.619554E+06  1.004393E+06  4.776019E+05  9.037644E+05  1.638858E-09 -3.707930E-09
       473  17  1.363464E+06  7.147347E+05  1.872689E+05  1.113987E+06  1.577585E-09  6.642833E-09
       473  18  1.391810E+06  8.485645E+05  1.137376E+05  1.136020E+06  1.169762E-09  1.038772E-08
       473  19  1.714422E+06  1.289646E+06  5.533889E+05  1.048369E+06 -2.805534E+05 -2.128830E+05
       473  20  1.534941E+06  8.955421E+05  2.569192E+05  1.225126E+06 -1.847695E+05 -1.378496E+05
       473  21  1.639995E+06  9.250210E+05  1.779649E+05  1.213737E+06 -8.770097E+04 -6.449443E+04
       473  22  1.667032E+06  1.147037E+06  5.156103E+05  9.760848E+05 -2.800315E+05 -2.124388E+05
       473  23  1.449219E+06  8.051480E+05  2.221443E+05  1.169562E+06 -1.846514E+05 -1.377516E+05
       473  24  1.515898E+06  8.867953E+05  1.458629E+05  1.174878E+06 -8.799593E+04 -6.472632E+04
       473  25  1.619650E+06  1.004462E+06  4.778323E+05  9.038120E+05 -2.795097E+05 -2.119948E+05
       473  26  1.363506E+06  7.147641E+05  1.873681E+05  1.114007E+06 -1.845333E+05 -1.376535E+05
       473  27  1.391819E+06  8.485711E+05  1.137601E+05  1.136024E+06 -8.829079E+04 -6.495819E+04
       474   1  1.583484E+06  9.777008E+05  1.443940E+05  1.162259E+06  6.861053E+04  5.061083E+04
       474   2  1.557154E+06  9.125300E+05  8.306231E+04  1.183238E+06  4.278593E+04  3.097709E+04
       474   3  1.563766E+06  9.199052E+05  6.305164E+04  1.180322E+06  1.682529E+04  1.152363E+04
       474   4  1.524817E+06  9.202943E+05  1.214398E+05  1.126242E+06  6.859475E+04  5.059724E+04
       474   5  1.497862E+06  8.659903E+05  6.214268E+04  1.151985E+06  4.281602E+04  3.099982E+04
       474   6  1.503842E+06  8.842271E+05  4.413049E+04  1.153832E+06  1.690129E+04  1.158184E+04
       474   7  1.466154E+06  8.628919E+05  9.848501E+04  1.090229E+06  6.857897E+04  5.058365E+04
       474   8  1.438574E+06  8.194530E+05  4.122254E+04  1.120735E+06  4.284610E+04  3.102255E+04
       474   9  1.443923E+06  8.485502E+05  2.520893E+04  1.127345E+06  1.697728E+04  1.164005E+04
       474  10  1.583478E+06  9.776968E+05  1.443804E+05  1.162256E+06  5.701026E-09  2.051892E-09
       474  11  1.557152E+06  9.125285E+05  8.305709E+04  1.183237E+06  1.551348E-08 -1.490041E-09
       474  12  1.563765E+06  9.199050E+05  6.305086E+04  1.180322E+06  3.420967E-09 -2.684734E-08
       474  13  1.524811E+06  9.202903E+05  1.214262E+05  1.126239E+06  2.820370E-09 -3.578840E-09
       474  14  1.497860E+06  8.659888E+05  6.213744E+04  1.151984E+06  1.272014E-08 -1.667240E-08
       474  15  1.503842E+06  8.842269E+05  4.412971E+04  1.153832E+06  3.943521E-09 -5.530197E-10
       474  16  1.466148E+06  8.628879E+05  9.847141E+04  1.090227E+06 -3.645098E-09  6.876396E-09
       474  17  1.438572E+06  8.194515E+05  4.121730E+04  1.120734E+06  3.377837E-09 -4.149527E-08
       474  18  1.443922E+06  8.485500E+05  2.520813E+04  1.127345E+06  2.078480E-09  1.136941E-08
       474  19  1.583484E+06  9.777008E+05  1.443940E+05  1.162259E+06 -6.861053E+04 -5.061083E+04
       474  20  1.557154E+06  9.125300E+05  8.306231E+04  1.183238E+06 -4.278593E+04 -3.097709E+04
       474  21  1.563766E+06  9.199052E+05  6.305164E+04  1.180322E+06 -1.682529E+04 -1.152363E+04
       474  22  1.524817E+06  9.202943E+05  1.214398E+05  1.126242E+06 -6.859475E+04 -5.059724E+04
       474  23  1.497862E+06  8.659903E+05  6.214268E+04  1.151985E+06 -4.281602E+04 -3.099982E+04
       474  24  1.503842E+06  8.842271E+05  4.413049E+04  1.153832E+06 -1.690129E+04 -1.158184E+04
       474  25  1.466154E+06  8.628919E+05  9.848501E+04  1.090229E+06 -6.857897E+04 -5.058365E+04
       474  26  1.438574E+06  8.194530E+05  4.122254E+04  1.120735E+06 -4.284610E+04 -3.102255E+04
       474  27  1.443923E+06  8.485502E+05  2.520893E+04  1.127345E+06 -1.697728E+04 -1.164005E+04
       475   1  1.537909E+06  9.146980E+05  5.123505E+04  1.165861E+06  1.074767E+04  7.126954E+03
       475   2  1.533072E+06  8.953485E+05  4.370832E+04  1.165101E+06 -2.972822E+03 -3.070743E+03
       475   3  1.533219E+06  9.053446E+05  5.370304E+04  1.158828E+06 -1.668816E+04 -1.327508E+04
       475   4  1.505197E+06  8.876230E+05  3.943203E+04  1.147990E+06  1.079048E+04  7.159590E+03
       475   5  1.503149E+06  8.737138E+05  3.351435E+04  1.150160E+06 -2.930832E+03 -3.038680E+03
       475   6  1.506087E+06  8.891511E+05  4.511963E+04  1.146818E+06 -1.664703E+04 -1.324376E+04
       475   7  1.472486E+06  8.605487E+05  2.762881E+04  1.130119E+06  1.083329E+04  7.192223E+03
       475   8  1.473227E+06  8.520796E+05  2.332026E+04  1.135219E+06 -2.888845E+03 -3.006619E+03
       475   9  1.478956E+06  8.729579E+05  3.653616E+04  1.134808E+06 -1.660591E+04 -1.321245E+04
       475  10  1.537909E+06  9.146979E+05  5.123474E+04  1.165861E+06  1.422585E-08 -1.321510E-08
       475  11  1.533072E+06  8.953485E+05  4.370829E+04  1.165101E+06  1.528580E-08 -1.519934E-08
       475  12  1.533219E+06  9.053443E+05  5.370218E+04  1.158828E+06  5.347020E-09 -2.405123E-08
       475  13  1.505197E+06  8.876229E+05  3.943172E+04  1.147990E+06  7.753822E-09 -2.648197E-08
       475  14  1.503149E+06  8.737138E+05  3.351432E+04  1.150160E+06  2.131843E-08  5.210076E-08
       475  15  1.506087E+06  8.891509E+05  4.511878E+04  1.146818E+06  1.102904E-08 -1.481309E-08
       475  16  1.472485E+06  8.605487E+05  2.762849E+04  1.130119E+06 -3.405938E-10 -6.142279E-09
       475  17  1.473227E+06  8.520796E+05  2.332022E+04  1.135219E+06  9.680898E-09 -4.194894E-08
       475  18  1.478956E+06  8.729577E+05  3.653532E+04  1.134807E+06  7.288026E-09 -8.687268E-09
       475  19  1.537909E+06  9.146980E+05  5.123505E+04  1.165861E+06 -1.074767E+04 -7.126954E+03
       475  20  1.533072E+06  8.953485E+05  4.370832E+04  1.165101E+06  2.972822E+03  3.070743E+03
       475  21  1.533219E+06  9.053446E+05  5.370304E+04  1.158828E+06  1.668816E+04  1.327508E+04
       475  22  1.505197E+06  8.876230E+05  3.943203E+04  1.147990E+06 -1.079048E+04 -7.159590E+03
       475  23  1.503149E+06  8.737138E+05  3.351435E+04  1.150160E+06  2.930832E+03  3.038680E+03
       475  24  1.506087E+06  8.891511E+05  4.511963E+04  1.146818E+06  1.664703E+04  1.324376E+04
       475  25  1.472486E+06  8.605487E+05  2.762881E+04  1.130119E+06 -1.083329E+04 -7.192223E+03
       475  26  1.473227E+06  8.520796E+05  2.332026E+04  1.135219E+06  2.888845E+03  3.006619E+03
       475  27  1.478956E+06  8.729579E+05  3.653616E+04  1.134808E+06  1.660591E+04  1.321245E+04
       476   1  1.506701E+06  8.946026E+05  5.497324E+04  1.160073E+06 -2.378337E+04 -1.851433E+04
       476   2  1.500079E+06  8.635357E+05  7.889141E+04  1.153804E+06 -5.618346E+04 -4.297726E+04
       476   3  1.542195E+06  9.185002E+05  1.550778E+05  1.115061E+06 -8.853009E+04 -6.751153E+04
       476   4  1.505151E+06  8.834636E+05  5.248241E+04  1.154807E+06 -2.373175E+04 -1.847453E+04
       476   5  1.494489E+06  8.639831E+05  7.787288E+04  1.153025E+06 -5.614853E+04 -4.295097E+04
       476   6  1.532569E+06  9.305377E+05  1.555464E+05  1.118768E+06 -8.851151E+04 -6.749991E+04
       476   7  1.503601E+06  8.723248E+05  4.999159E+04  1.149541E+06 -2.368012E+04 -1.843474E+04
       476   8  1.488900E+06  8.644304E+05  7.685435E+04  1.152245E+06 -5.611360E+04 -4.292467E+04
       476   9  1.522944E+06  9.425755E+05  1.560151E+05  1.122476E+06 -8.849293E+04 -6.748829E+04
       476  10  1.506700E+06  8.946021E+05  5.497154E+04  1.160073E+06  5.080635E-09 -1.848587E-08
       476  11  1.500075E+06  8.635329E+05  7.888204E+04  1.153802E+06  1.282868E-08  5.878598E-09
       476  12  1.542185E+06  9.184933E+05  1.550546E+05  1.115057E+06  2.216805E-09 -2.494082E-08
       476  13  1.505150E+06  8.834631E+05  5.248071E+04  1.154807E+06  9.640968E-09 -2.203370E-08
       476  14  1.494486E+06  8.639802E+05  7.786352E+04  1.153023E+06  1.846043E-09 -4.752138E-08
       476  15  1.532559E+06  9.305307E+05  1.555232E+05  1.118764E+06  5.789125E-09  8.177889E-09
       476  16  1.503600E+06  8.723242E+05  4.998990E+04  1.149541E+06  2.793820E-09 -1.758256E-09
       476  17  1.488896E+06  8.644276E+05  7.684500E+04  1.152243E+06  7.781490E-09 -1.309691E-08
       476  18  1.522934E+06  9.425686E+05  1.559919E+05  1.122471E+06 -3.615057E-09 -9.198380E-10
       476  19  1.506701E+06  8.946026E+05  5.497324E+04  1.160073E+06  2.378337E+04  1.851433E+04
       476  20  1.500079E+06  8.635357E+05  7.889141E+04  1.153804E+06  5.618346E+04  4.297726E+04
       476  21  1.542195E+06  9.185002E+05  1.550778E+05  1.115061E+06  8.853009E+04  6.751153E+04
       476  22  1.505151E+06  8.834636E+05  5.248241E+04  1.154807E+06  2.373175E+04  1.847453E+04
       476  23  1.494489E+06  8.639831E+05  7.787288E+04  1.153025E+06  5.614853E+04  4.295097E+04
       476  24  1.532569E+06  9.305377E+05  1.555464E+05  1.118768E+06  8.851151E+04  6.749991E+04
       476  25  1.503601E+06  8.723248E+05  4.999159E+04  1.149541E+06  2.368012E+04  1.843474E+04
       476  26  1.488900E+06  8.644304E+05  7.685435E+04  1.152245E+06  5.611360E+04  4.292467E+04
       476  27  1.522944E+06  9.425755E+05  1.560151E+05  1.122476E+06  8.849293E+04  6.748829E+04
       477   1  1.464504E+06  9.113407E+05  1.810448E+05  1.182617E+06 -1.132228E+05 -8.610392E+04
       477   2  1.427849E+06  7.485631E+05  2.786689E+05  1.158682E+06 -2.374961E+05 -1.806331E+05
       477   3  1.770824E+06  1.120710E+06  6.566432E+05  8.882323E+05 -3.613999E+05 -2.756274E+05
       477   4  1.522086E+06  8.861375E+05  1.874604E+05  1.181421E+06 -1.131167E+05 -8.601138E+04
       477   5  1.430127E+06  7.866713E+05  2.866412E+05  1.176161E+06 -2.375036E+05 -1.806520E+05
       477   6  1.717794E+06  1.222133E+06  6.662676E+05  9.243955E+05 -3.615033E+05 -2.757835E+05
       477   7  1.579673E+06  8.609380E+05  1.938768E+05  1.180224E+06 -1.130107E+05 -8.591885E+04
       477   8  1.432407E+06  8.247823E+05  2.946137E+05  1.193640E+06 -2.375112E+05 -1.806710E+05
       477   9  1.664779E+06  1.323584E+06  6.758957E+05  9.605553E+05 -3.616068E+05 -2.759396E+05
       477  10  1.464489E+06  9.113293E+05  1.810069E+05  1.182609E+06  4.289575E-09 -1.315046E-08
       477  11  1.427780E+06  7.485131E+05  2.785023E+05  1.158647E+06  1.150533E-08  4.170395E-09
       477  12  1.770664E+06  1.120594E+06  6.562564E+05  8.881523E+05 -2.677282E-09  1.386475E-08
       477  13  1.522070E+06  8.861261E+05  1.874226E+05  1.181414E+06  1.238935E-08  1.339477E-08
       477  14  1.430058E+06  7.866213E+05  2.864745E+05  1.176126E+06  6.412784E-09  5.498885E-09
       477  15  1.717633E+06  1.222017E+06  6.658806E+05  9.243155E+05  1.059167E-08 -2.788978E-08
       477  16  1.579657E+06  8.609267E+05  1.938391E+05  1.180216E+06 -2.070889E-09  7.331887E-09
       477  17  1.432338E+06  8.247323E+05  2.944470E+05  1.193606E+06  4.513387E-09 -9.641641E-09
       477  18  1.664618E+06  1.323467E+06  6.755084E+05  9.604752E+05  3.518050E-10 -1.259189E-08
       477  19  1.464504E+06  9.113407E+05  1.810448E+05  1.182617E+06  1.132228E+05  8.610392E+04
       477  20  1.427849E+06  7.485631E+05  2.786689E+05  1.158682E+06  2.374961E+05  1.806331E+05
       477  21  1.770824E+06  1.120710E+06  6.566432E+05  8.882323E+05  3.613999E+05  2.756274E+05
       477  22  1.522086E+06  8.861375E+05  1.874604E+05  1.181421E+06  1.131167E+05  8.601138E+04
       477  23  1.430127E+06  7.866713E+05  2.866412E+05  1.176161E+06  2.375036E+05  1.806520E+05
       477  24  1.717794E+06  1.222133E+06  6.662676E+05  9.243955E+05  3.615033E+05  2.757835E+05
       477  25  1.579673E+06  8.609380E+05  1.938768E+05  1.180224E+06  1.130107E+05  8.591885E+04
       477  26  1.432407E+06  8.247823E+05  2.946137E+05  1.193640E+06  2.375112E+05  1.806710E+05
       477  27  1.664779E+06  1.323584E+06  6.758957E+05  9.605553E+05  3.616068E+05  2.759396E+05
       478   1 -1.734892E+05  2.319038E+04  8.150654E+03  9.896822E+03 -4.247409E+04 -2.034604E+03
       478   2 -1.940893E+05  7.513965E+04  3.663474E+04 -8.286566E+03 -2.855131E+04 -4.852743E+03
       478   3 -2.341120E+05  5.944977E+04  3.902128E+04  2.109529E+04 -1.466779E+04 -3.271985E+03
       478   4 -4.629143E+05 -4.898898E+04 -6.393984E+04  1.610956E+04 -4.369272E+04 -2.045502E+03
       478   5 -4.531017E+05  1.053553E+04 -2.741688E+04 -7.890998E+03 -2.872069E+04 -4.854445E+03
       478   6 -4.629043E+05  2.222851E+03 -1.772938E+04  1.567526E+04 -1.378724E+04 -3.263951E+03
       478   7 -7.522632E+05 -1.211745E+05 -1.360366E+05  2.231925E+04 -4.491077E+04 -2.056427E+03
       478   8 -7.120532E+05 -5.407361E+04 -9.147349E+04 -7.495728E+03 -2.889000E+04 -4.856148E+03
       478   9 -6.916490E+05 -5.500791E+04 -7.448395E+04  1.025713E+04 -1.290701E+04 -3.255931E+03
       478  10 -1.734911E+05  2.318989E+04  8.147255E+03  9.896752E+03  5.233658E-10  8.017752E-09
       478  11 -1.940902E+05  7.513940E+04  3.663317E+04 -8.286678E+03 -8.000753E-09 -4.919932E-09
       478  12 -2.341122E+05  5.944970E+04  3.902086E+04  2.109525E+04 -2.306550E-09 -6.983698E-09
       478  13 -4.629163E+05 -4.898950E+04 -6.394344E+04  1.610949E+04 -1.485684E-09  2.691367E-08
       478  14 -4.531026E+05  1.053528E+04 -2.741848E+04 -7.891110E+03 -4.139829E-09 -6.932097E-09
       478  15 -4.629045E+05  2.222788E+03 -1.772976E+04  1.567523E+04  2.931208E-10 -9.346422E-09
       478  16 -7.522654E+05 -1.211750E+05 -1.360404E+05  2.231917E+04  1.508405E-09  6.711773E-09
       478  17 -7.120541E+05 -5.407386E+04 -9.147511E+04 -7.495841E+03  3.910377E-09 -3.611336E-08
       478  18 -6.916491E+05 -5.500797E+04 -7.448428E+04  1.025710E+04  5.763884E-09 -1.098993E-08
       478  19 -1.734892E+05  2.319038E+04  8.150654E+03  9.896822E+03  4.247409E+04  2.034604E+03
       478  20 -1.940893E+05  7.513965E+04  3.663474E+04 -8.286566E+03  2.855131E+04  4.852743E+03
       478  21 -2.341120E+05  5.944977E+04  3.902128E+04  2.109529E+04  1.466779E+04  3.271985E+03
       478  22 -4.629143E+05 -4.898898E+04 -6.393984E+04  1.610956E+04  4.369272E+04  2.045502E+03
       478  23 -4.531017E+05  1.053553E+04 -2.741688E+04 -7.890998E+03  2.872069E+04  4.854445E+03
       478  24 -4.629043E+05  2.222851E+03 -1.772938E+04  1.567526E+04  1.378724E+04  3.263951E+03
       478  25 -7.522632E+05 -1.211745E+05 -1.360366E+05  2.231925E+04  4.491077E+04  2.056427E+03
       478  26 -7.120532E+05 -5.407361E+04 -9.147349E+04 -7.495728E+03  2.889000E+04  4.856148E+03
       478  27 -6.916490E+05 -5.500791E+04 -7.448395E+04  1.025713E+04  1.290701E+04  3.255931E+03
       479   1 -3.516947E+05  2.014906E+04  1.203688E+04  1.575162E+04 -1.098161E+04 -1.921523E+03
       479   2 -3.808261E+05  2.052666E+04  1.207060E+04 -7.950475E+03 -7.500044E+03 -1.326313E+03
       479   3 -4.137001E+05  1.214436E+04  7.423468E+03  1.689151E+04 -4.023633E+03 -2.154555E+02
       479   4 -4.593731E+05 -6.709406E+03 -1.460719E+04  1.608525E+04 -1.090725E+04 -1.920876E+03
       479   5 -4.574900E+05  1.391053E+03 -6.907957E+03 -8.221212E+03 -7.302582E+03 -1.324489E+03
       479   6 -4.593718E+05  7.096777E+02 -3.975606E+03  1.601680E+04 -3.702895E+03 -2.124312E+02
       479   7 -5.670409E+05 -3.356874E+04 -4.125212E+04  1.641880E+04 -1.083290E+04 -1.920229E+03
       479   8 -5.341485E+05 -1.774499E+04 -2.588695E+04 -8.491928E+03 -7.105145E+03 -1.322664E+03
       479   9 -5.050417E+05 -1.072516E+04 -1.537484E+04  1.514215E+04 -3.382180E+03 -2.094077E+02
       479  10 -3.516949E+05  2.014902E+04  1.203665E+04  1.575160E+04 -5.845718E-09 -1.195900E-08
       479  11 -3.808262E+05  2.052664E+04  1.207049E+04 -7.950483E+03 -7.306947E-09 -2.153855E-08
       479  12 -4.137001E+05  1.214436E+04  7.423437E+03  1.689150E+04  4.988210E-09 -1.317656E-09
       479  13 -4.593732E+05 -6.709442E+03 -1.460742E+04  1.608523E+04 -1.065708E-11 -9.759330E-09
       479  14 -4.574900E+05  1.391037E+03 -6.908060E+03 -8.221220E+03 -5.107938E-09  1.425244E-08
       479  15 -4.593718E+05  7.096740E+02 -3.975632E+03  1.601680E+04 -3.471262E-10  3.211465E-08
       479  16 -5.670411E+05 -3.356877E+04 -4.125235E+04  1.641878E+04  1.071948E-08  1.461466E-08
       479  17 -5.341486E+05 -1.774501E+04 -2.588705E+04 -8.491936E+03  1.860746E-09  1.744846E-09
       479  18 -5.050417E+05 -1.072516E+04 -1.537486E+04  1.514215E+04 -2.435954E-09  4.455924E-08
       479  19 -3.516947E+05  2.014906E+04  1.203688E+04  1.575162E+04  1.098161E+04  1.921523E+03
       479  20 -3.808261E+05  2.052666E+04  1.207060E+04 -7.950475E+03  7.500044E+03  1.326313E+03
       479  21 -4.137001E+05  1.214436E+04  7.423468E+03  1.689151E+04  4.023633E+03  2.154555E+02
       479  22 -4.593731E+05 -6.709406E+03 -1.460719E+04  1.608525E+04  1.090725E+04  1.920876E+03
       479  23 -4.574900E+05  1.391053E+03 -6.907957E+03 -8.221212E+03  7.302582E+03  1.324489E+03
       479  24 -4.593718E+05  7.096777E+02 -3.975606E+03  1.601680E+04  3.702895E+03  2.124312E+02
       479  25 -5.670409E+05 -3.356874E+04 -4.125212E+04  1.641880E+04  1.083290E+04  1.920229E+03
       479  26 -5.341485E+05 -1.774499E+04 -2.588695E+04 -8.491928E+03  7.105145E+03  1.322664E+03
       479  27 -5.050417E+05 -1.072516E+04 -1.537484E+04  1.514215E+04  3.382180E+03  2.094077E+02
       480   1 -5.357153E+05 -1.992071E+04 -2.212800E+04  1.538759E+04 -3.416384E+03  6.265386E+02
       480   2 -5.661216E+05 -2.699993E+04 -2.769302E+04 -8.985304E+03 -2.796535E+03  1.722246E+03
       480   3 -5.975309E+05 -3.352408E+04 -3.374202E+04  1.500707E+04 -2.171034E+03  2.240428E+03
       480   4 -4.587549E+05 -6.822831E+02 -2.978476E+03  1.600907E+04 -3.086071E+03  6.296410E+02
       480   5 -4.582635E+05 -6.463197E+01 -9.841679E+02 -8.181696E+03 -2.604713E+03  1.724001E+03
       480   6 -4.587520E+05  1.132205E+03  6.224367E+02  1.599227E+04 -2.117673E+03  2.240884E+03
       480   7 -3.817892E+05  1.855570E+04  1.617060E+04  1.663062E+04 -2.755717E+03  6.327438E+02
       480   8 -3.503948E+05  2.686979E+04  2.572382E+04 -7.377972E+03 -2.412858E+03  1.725757E+03
       480   9 -3.199555E+05  3.578705E+04  3.498546E+04  1.697766E+04 -2.064301E+03  2.241339E+03
       480  10 -5.357153E+05 -1.992071E+04 -2.212802E+04  1.538759E+04  1.626654E-08  6.201782E-09
       480  11 -5.661216E+05 -2.699993E+04 -2.769304E+04 -8.985300E+03 -7.205793E-09  1.796394E-08
       480  12 -5.975309E+05 -3.352409E+04 -3.374204E+04  1.500708E+04 -4.506651E-10 -9.254232E-09
       480  13 -4.587549E+05 -6.822861E+02 -2.978495E+03  1.600908E+04  1.354239E-09 -5.266757E-09
       480  14 -4.582635E+05 -6.463699E+01 -9.841862E+02 -8.181692E+03 -4.461310E-09  1.855891E-08
       480  15 -4.587520E+05  1.132198E+03  6.224188E+02  1.599228E+04  1.458570E-09  4.194632E-09
       480  16 -3.817892E+05  1.855570E+04  1.617059E+04  1.663062E+04 -1.206141E-08  1.336216E-08
       480  17 -3.503948E+05  2.686979E+04  2.572380E+04 -7.377968E+03  1.842632E-09 -2.981277E-08
       480  18 -3.199555E+05  3.578705E+04  3.498544E+04  1.697766E+04  7.013129E-09  1.720803E-08
       480  19 -5.357153E+05 -1.992071E+04 -2.212800E+04  1.538759E+04  3.416384E+03 -6.265386E+02
       480  20 -5.661216E+05 -2.699993E+04 -2.769302E+04 -8.985304E+03  2.796535E+03 -1.722246E+03
       480  21 -5.975309E+05 -3.352408E+04 -3.374202E+04  1.500707E+04  2.171034E+03 -2.240428E+03
       480  22 -4.587549E+05 -6.822831E+02 -2.978476E+03  1.600907E+04  3.086071E+03 -6.296410E+02
       480  23 -4.582635E+05 -6.463197E+01 -9.841679E+02 -8.181696E+03  2.604713E+03 -1.724001E+03
       480  24 -4.587520E+05  1.132205E+03  6.224367E+02  1.599227E+04  2.117673E+03 -2.240884E+03
       480  25 -3.817892E+05  1.855570E+04  1.617060E+04  1.663062E+04  2.755717E+03 -6.327438E+02
       480  26 -3.503948E+05  2.686979E+04  2.572382E+04 -7.377972E+03  2.412858E+03 -1.725757E+03
       480  27 -3.199555E+05  3.578705E+04  3.498546E+04  1.697766E+04  2.064301E+03 -2.241339E+03
       481   1 -7.175083E+05 -6.479358E+04 -6.306241E+04  1.432848E+04 -3.228268E+03  3.601360E+03
       481   2 -7.482282E+05 -7.351662E+04 -6.884454E+04 -9.849082E+03 -3.599672E+03  5.091509E+03
       481   3 -7.774319E+05 -7.399528E+04 -7.244986E+04  1.274467E+04 -3.930429E+03  1.815682E+03
       481   4 -4.581702E+05 -1.905623E+01  1.250018E+03  1.566287E+04 -2.299461E+03  3.609616E+03
       481   5 -4.590228E+05 -1.300694E+03  2.710864E+03 -7.746471E+03 -3.814228E+03  5.089510E+03
       481   6 -4.581628E+05  5.858836E+03  7.142149E+03  1.561410E+04 -5.288360E+03  1.804399E+03
       481   7 -1.987709E+05  6.475043E+04  6.555743E+04  1.699768E+04 -1.370266E+03  3.617875E+03
       481   8 -1.697413E+05  7.090898E+04  7.426005E+04 -5.643042E+03 -4.028883E+03  5.087509E+03
       481   9 -1.388010E+05  8.570529E+04  8.672650E+04  1.848482E+04 -6.646989E+03  1.793106E+03
       481  10 -7.175083E+05 -6.479360E+04 -6.306245E+04  1.432849E+04  9.207771E-09 -1.759551E-08
       481  11 -7.482282E+05 -7.351665E+04 -6.884462E+04 -9.849067E+03  6.996604E-10 -1.413479E-08
       481  12 -7.774320E+05 -7.399529E+04 -7.244990E+04  1.274467E+04  4.903976E-09  1.944417E-08
       481  13 -4.581702E+05 -1.907164E+01  1.249984E+03  1.566288E+04 -1.264028E-10  2.323479E-08
       481  14 -4.590228E+05 -1.300726E+03  2.710788E+03 -7.746455E+03 -3.105630E-09  1.168114E-08
       481  15 -4.581628E+05  5.858825E+03  7.142090E+03  1.561411E+04 -8.322133E-10  1.069809E-08
       481  16 -1.987709E+05  6.475041E+04  6.555740E+04  1.699769E+04 -5.201645E-09  2.907634E-08
       481  17 -1.697414E+05  7.090895E+04  7.425997E+04 -5.643025E+03 -8.040725E-09  3.572121E-08
       481  18 -1.388011E+05  8.570527E+04  8.672641E+04  1.848483E+04 -2.513825E-09  8.873217E-09
       481  19 -7.175083E+05 -6.479358E+04 -6.306241E+04  1.432848E+04  3.228268E+03 -3.601360E+03
       481  20 -7.482282E+05 -7.351662E+04 -6.884454E+04 -9.849082E+03  3.599672E+03 -5.091509E+03
       481  21 -7.774319E+05 -7.399528E+04 -7.244986E+04  1.274467E+04  3.930429E+03 -1.815682E+03
       481  22 -4.581702E+05 -1.905623E+01  1.250019E+03  1.566287E+04  2.299461E+03 -3.609616E+03
       481  23 -4.590228E+05 -1.300694E+03  2.710864E+03 -7.746471E+03  3.814228E+03 -5.089510E+03
       481  24 -4.581628E+05  5.858836E+03  7.142149E+03  1.561410E+04  5.288360E+03 -1.804399E+03
       481  25 -1.987709E+05  6.475043E+04  6.555743E+04  1.699768E+04  1.370266E+03 -3.617875E+03
       481  26 -1.697413E+05  7.090898E+04  7.426005E+04 -5.643042E+03  4.028883E+03 -5.087509E+03
       481  27 -1.388010E+05  8.570529E+04  8.672650E+04  1.848482E+04  6.646989E+03 -1.793106E+03
       482   1 -3.553218E+05 -2.043146E+06 -4.152017E+05  1.043737E+05 -2.004626E+03 -1.815633E+05
       482   2 -8.127447E+04 -1.915932E+06 -2.419072E+05  1.101289E+04 -8.257574E+03 -1.156334E+05
       482   3 -9.873686E+04 -1.866461E+06 -1.837850E+05  5.463131E+04 -4.868672E+03 -4.962280E+04
       482   4 -2.062876E+05 -1.450628E+06 -2.671607E+05  6.717639E+04 -2.013877E+03 -1.791459E+05
       482   5  4.486363E+04 -1.411923E+06 -1.170492E+05 -4.714382E+02 -8.256693E+03 -1.154700E+05
       482   6  5.025963E+03 -1.450502E+06 -8.046283E+04  6.885881E+04 -4.855641E+03 -5.172307E+04
       482   7 -5.727516E+04 -8.577879E+05 -1.191455E+05  2.994404E+04 -2.023418E+03 -1.767260E+05
       482   8  1.709831E+05 -9.076821E+05  7.789771E+03 -1.196470E+04 -8.255820E+03 -1.153064E+05
       482   9  1.087766E+05 -1.034384E+06  2.284659E+04  8.309613E+04 -4.842711E+03 -5.382474E+04
       482  10 -3.553307E+05 -2.043182E+06 -4.152638E+05  1.043734E+05  2.069009E-09  5.284687E-09
       482  11 -8.127815E+04 -1.915946E+06 -2.419325E+05  1.101213E+04  2.871593E-09  4.421686E-08
       482  12 -9.873755E+04 -1.866464E+06 -1.837897E+05  5.463112E+04  4.936057E-09  2.833864E-08
       482  13 -2.062962E+05 -1.450663E+06 -2.672211E+05  6.717610E+04  8.727745E-09  9.173223E-09
       482  14  4.485996E+04 -1.411937E+06 -1.170745E+05 -4.722065E+02 -3.635555E-09  5.216174E-08
       482  15  5.025217E+03 -1.450505E+06 -8.046791E+04  6.885861E+04  2.658574E-09  1.594790E-08
       482  16 -5.728356E+04 -8.578215E+05 -1.192043E+05  2.994375E+04  4.371986E-10 -1.182556E-08
       482  17  1.709794E+05 -9.076965E+05  7.764619E+03 -1.196547E+04  3.530583E-09 -3.146241E-08
       482  18  1.087758E+05 -1.034387E+06  2.284110E+04  8.309592E+04 -7.146281E-10 -2.444572E-08
       482  19 -3.553218E+05 -2.043146E+06 -4.152017E+05  1.043737E+05  2.004626E+03  1.815633E+05
       482  20 -8.127447E+04 -1.915932E+06 -2.419072E+05  1.101289E+04  8.257574E+03  1.156334E+05
       482  21 -9.873686E+04 -1.866461E+06 -1.837850E+05  5.463131E+04  4.868672E+03  4.962280E+04
       482  22 -2.062876E+05 -1.450628E+06 -2.671607E+05  6.717639E+04  2.013877E+03  1.791459E+05
       482  23  4.486363E+04 -1.411923E+06 -1.170492E+05 -4.714382E+02  8.256693E+03  1.154700E+05
       482  24  5.025963E+03 -1.450502E+06 -8.046283E+04  6.885881E+04  4.855641E+03  5.172307E+04
       482  25 -5.727516E+04 -8.577879E+05 -1.191455E+05  2.994404E+04  2.023418E+03  1.767260E+05
       482  26  1.709831E+05 -9.076821E+05  7.789771E+03 -1.196470E+04  8.255820E+03  1.153064E+05
       482  27  1.087766E+05 -1.034384E+06  2.284659E+04  8.309613E+04  4.842711E+03  5.382474E+04
       483   1 -4.330507E+04 -1.491160E+06 -8.273478E+04  7.571653E+04 -1.353153E+03 -3.775746E+04
       483   2  1.894567E+04 -1.390924E+06 -3.359963E+04 -1.830264E+03  7.074862E+02 -1.531176E+04
       483   3  1.889489E+04 -1.306776E+06 -1.418834E+04  6.475367E+04  2.629492E+03  7.136757E+03
       483   4 -2.967063E+04 -1.436891E+06 -6.937565E+04  6.980405E+04 -1.349224E+03 -3.830360E+04
       483   5  9.480812E+03 -1.428831E+06 -4.299526E+04 -2.209789E+03  7.109078E+02 -1.582363E+04
       483   6 -1.367582E+04 -1.436874E+06 -4.636070E+04  6.990846E+04  2.632774E+03  6.655862E+03
       483   7 -1.603629E+04 -1.382619E+06 -5.601673E+04  6.389105E+04 -1.345286E+03 -3.884980E+04
       483   8  1.585149E+01 -1.466737E+06 -5.239101E+04 -2.589289E+03  7.143301E+02 -1.633546E+04
       483   9 -4.624771E+04 -1.566955E+06 -7.853430E+04  7.506218E+04  2.636048E+03  6.175068E+03
       483  10 -4.330545E+04 -1.491162E+06 -8.273747E+04  7.571649E+04  1.889066E-10  6.350975E-10
       483  11  1.894560E+04 -1.390924E+06 -3.360007E+04 -1.830256E+03  8.894872E-10  3.802595E-08
       483  12  1.889487E+04 -1.306776E+06 -1.418845E+04  6.475366E+04  1.201660E-09  1.872054E-08
       483  13 -2.967103E+04 -1.436892E+06 -6.937842E+04  6.980401E+04 -3.992273E-10  1.440901E-08
       483  14  9.480744E+03 -1.428831E+06 -4.299574E+04 -2.209780E+03  4.319220E-09  4.385401E-08
       483  15 -1.367584E+04 -1.436874E+06 -4.636080E+04  6.990844E+04  1.043065E-08  1.088089E-08
       483  16 -1.603670E+04 -1.382620E+06 -5.601957E+04  6.389101E+04 -4.381007E-09 -7.831650E-09
       483  17  1.577909E+01 -1.466738E+06 -5.239151E+04 -2.589279E+03 -6.719974E-09 -1.711382E-08
       483  18 -4.624772E+04 -1.566955E+06 -7.853439E+04  7.506217E+04  1.606059E-09 -1.468631E-08
       483  19 -4.330507E+04 -1.491160E+06 -8.273478E+04  7.571653E+04  1.353153E+03  3.775746E+04
       483  20  1.894567E+04 -1.390924E+06 -3.359963E+04 -1.830264E+03 -7.074862E+02  1.531176E+04
       483  21  1.889489E+04 -1.306776E+06 -1.418834E+04  6.475367E+04 -2.629492E+03 -7.136757E+03
       483  22 -2.967063E+04 -1.436891E+06 -6.937565E+04  6.980405E+04  1.349224E+03  3.830360E+04
       483  23  9.480812E+03 -1.428831E+06 -4.299526E+04 -2.209789E+03 -7.109078E+02  1.582363E+04
       483  24 -1.367582E+04 -1.436874E+06 -4.636070E+04  6.990846E+04 -2.632774E+03 -6.655862E+03
       483  25 -1.603629E+04 -1.382619E+06 -5.601673E+04  6.389105E+04  1.345286E+03  3.884980E+04
       483  26  1.585149E+01 -1.466737E+06 -5.239101E+04 -2.589289E+03 -7.143301E+02  1.633546E+04
       483  27 -4.624771E+04 -1.566955E+06 -7.853430E+04  7.506218E+04 -2.636048E+03 -6.175068E+03
       484   1  1.209446E+05 -9.517535E+05  7.305905E+04  7.399687E+04  6.259218E+03  1.737590E+04
       484   2  1.659618E+05 -8.467424E+05  8.288029E+04 -7.414029E+03  9.991416E+03  4.734053E+04
       484   3  6.889983E+04 -7.768880E+05  3.853511E+04  4.724283E+04  3.211728E+03  7.722850E+04
       484   4 -1.276866E+03 -1.441273E+06 -4.846231E+04  6.836575E+04  6.274526E+03  1.516197E+04
       484   5  2.181741E+04 -1.423474E+06 -5.988766E+04 -7.389095E+01  9.990191E+03  4.762058E+04
       484   6 -9.767237E+04 -1.441312E+06 -1.272519E+05  6.756322E+04  3.190930E+03  7.999815E+04
       484   7 -1.235162E+05 -1.930574E+06 -1.700015E+05  6.273945E+04  6.289879E+03  1.294978E+04
       484   8 -1.223518E+05 -1.999903E+06 -2.026804E+05  7.259989E+03  9.988973E+03  4.790036E+04
       484   9 -2.642766E+05 -2.105334E+06 -2.930720E+05  8.786264E+04  3.170302E+03  8.276480E+04
       484  10  1.209445E+05 -9.517538E+05  7.305841E+04  7.399678E+04  1.286423E-09 -3.940050E-09
       484  11  1.659611E+05 -8.467449E+05  8.287589E+04 -7.414410E+03 -1.891094E-09  3.270190E-08
       484  12  6.889821E+04 -7.768944E+05  3.852387E+04  4.724264E+04 -6.233716E-09  2.476814E-08
       484  13 -1.276971E+03 -1.441273E+06 -4.846282E+04  6.836568E+04 -3.466601E-09  1.909952E-08
       484  14  2.181670E+04 -1.423476E+06 -5.989211E+04 -7.427430E+01  5.263735E-10  5.444267E-08
       484  15 -9.767411E+04 -1.441319E+06 -1.272640E+05  6.756302E+04 -4.975395E-09  1.564357E-08
       484  16 -1.235162E+05 -1.930574E+06 -1.700019E+05  6.273938E+04 -7.098784E-10 -1.292554E-09
       484  17 -1.223525E+05 -1.999905E+06 -2.026849E+05  7.259603E+03 -4.328583E-09 -9.395483E-09
       484  18 -2.642785E+05 -2.105342E+06 -2.930850E+05  8.786243E+04 -4.822647E-09 -2.142391E-08
       484  19  1.209446E+05 -9.517535E+05  7.305905E+04  7.399687E+04 -6.259218E+03 -1.737590E+04
       484  20  1.659618E+05 -8.467424E+05  8.288029E+04 -7.414029E+03 -9.991416E+03 -4.734053E+04
       484  21  6.889983E+04 -7.768880E+05  3.853511E+04  4.724283E+04 -3.211728E+03 -7.722850E+04
       484  22 -1.276866E+03 -1.441273E+06 -4.846231E+04  6.836575E+04 -6.274526E+03 -1.516197E+04
       484  23  2.181741E+04 -1.423474E+06 -5.988766E+04 -7.389095E+01 -9.990191E+03 -4.762058E+04
       484  24 -9.767237E+04 -1.441312E+06 -1.272519E+05  6.756322E+04 -3.190930E+03 -7.999815E+04
       484  25 -1.235162E+05 -1.930574E+06 -1.700015E+05  6.273945E+04 -6.289879E+03 -1.294978E+04
       484  26 -1.223518E+05 -1.999903E+06 -2.026804E+05  7.259989E+03 -9.988973E+03 -4.790036E+04
       484  27 -2.642766E+05 -2.105334E+06 -2.930720E+05  8.786264E+04 -3.170302E+03 -8.276480E+04
       485   1  1.018899E+06  7.733856E+05  3.447565E+05  6.179285E+05  1.819066E+05  1.385527E+05
       485   2  9.019779E+05  5.217187E+05  1.528745E+05  7.348782E+05  1.195052E+05  9.043069E+04
       485   3  9.753689E+05  5.400669E+05  1.022538E+05  7.280141E+05  5.675640E+04  4.276117E+04
       485   4  1.031691E+06  7.123452E+05  3.351546E+05  5.928010E+05  1.817809E+05  1.384371E+05
       485   5  8.873226E+05  4.927583E+05  1.442556E+05  7.193285E+05  1.194826E+05  9.041007E+04
       485   6  9.332492E+05  5.431662E+05  9.452662E+04  7.220400E+05  5.684145E+04  4.282899E+04
       485   7  1.044486E+06  6.513132E+05  3.255535E+05  5.676734E+05  1.816551E+05  1.383217E+05
       485   8  8.726676E+05  4.637993E+05  1.356366E+05  7.037795E+05  1.194599E+05  9.038945E+04
       485   9  8.911323E+05  5.462661E+05  8.679964E+04  7.160658E+05  5.692649E+04  4.289681E+04
       485  10  1.018858E+06  7.733562E+05  3.446585E+05  6.179083E+05  8.832811E-09 -6.713761E-09
       485  11  9.019604E+05  5.217061E+05  1.528324E+05  7.348695E+05  9.042805E-09 -5.368988E-08
       485  12  9.753649E+05  5.400641E+05  1.022443E+05  7.280122E+05 -3.272920E-09 -1.196617E-08
       485  13  1.031650E+06  7.123158E+05  3.350567E+05  5.927807E+05  5.700564E-09 -1.519489E-08
       485  14  8.873051E+05  4.927457E+05  1.442135E+05  7.193198E+05  1.511435E-08  4.305268E-08
       485  15  9.332453E+05  5.431633E+05  9.451712E+04  7.220381E+05 -8.493175E-11  1.302324E-08
       485  16  1.044446E+06  6.512839E+05  3.254558E+05  5.676532E+05  1.346807E-09  4.703398E-10
       485  17  8.726501E+05  4.637867E+05  1.355945E+05  7.037708E+05  1.200654E-08 -4.908191E-09
       485  18  8.911284E+05  5.462632E+05  8.679011E+04  7.160638E+05  7.145311E-09 -5.264376E-09
       485  19  1.018899E+06  7.733856E+05  3.447565E+05  6.179285E+05 -1.819066E+05 -1.385527E+05
       485  20  9.019779E+05  5.217187E+05  1.528745E+05  7.348782E+05 -1.195052E+05 -9.043069E+04
       485  21  9.753689E+05  5.400669E+05  1.022538E+05  7.280141E+05 -5.675640E+04 -4.276117E+04
       485  22  1.031691E+06  7.123452E+05  3.351546E+05  5.928010E+05 -1.817809E+05 -1.384371E+05
       485  23  8.873226E+05  4.927583E+05  1.442556E+05  7.193285E+05 -1.194826E+05 -9.041007E+04
       485  24  9.332492E+05  5.431662E+05  9.452662E+04  7.220400E+05 -5.684145E+04 -4.282899E+04
       485  25  1.044486E+06  6.513132E+05  3.255535E+05  5.676734E+05 -1.816551E+05 -1.383217E+05
       485  26  8.726676E+05  4.637993E+05  1.356366E+05  7.037795E+05 -1.194599E+05 -9.038945E+04
       485  27  8.911323E+05  5.462661E+05  8.679964E+04  7.160658E+05 -5.692649E+04 -4.289681E+04
       486   1  9.457459E+05  5.802592E+05  8.290908E+04  6.984269E+05  4.440064E+04  3.353643E+04
       486   2  9.285930E+05  5.405181E+05  4.327629E+04  7.132270E+05  2.788555E+04  2.099559E+04
       486   3  9.357157E+05  5.447019E+05  3.022494E+04  7.117315E+05  1.132828E+04  8.510133E+03
       486   4  9.385801E+05  5.654634E+05  7.856479E+04  6.905400E+05  4.440341E+04  3.353789E+04
       486   5  9.195805E+05  5.317094E+05  3.975122E+04  7.077015E+05  2.790174E+04  2.100786E+04
       486   6  9.248541E+05  5.418780E+05  2.750776E+04  7.085674E+05  1.135796E+04  8.532877E+03
       486   7  9.314145E+05  5.506679E+05  7.422049E+04  6.826533E+05  4.440618E+04  3.353935E+04
       486   8  9.105681E+05  5.229007E+05  3.622614E+04  7.021761E+05  2.791793E+04  2.102012E+04
       486   9  9.139926E+05  5.390540E+05  2.479057E+04  7.054032E+05  1.138765E+04  8.555620E+03
       486  10  9.457435E+05  5.802575E+05  8.290327E+04  6.984257E+05 -8.370564E-09  1.065341E-08
       486  11  9.285920E+05  5.405174E+05  4.327400E+04  7.132265E+05 -1.551277E-08  7.828062E-09
       486  12  9.357155E+05  5.447018E+05  3.022457E+04  7.117315E+05 -2.146434E-08  2.074842E-08
       486  13  9.385777E+05  5.654616E+05  7.855898E+04  6.905389E+05  4.986021E-10  3.156984E-08
       486  14  9.195796E+05  5.317087E+05  3.974893E+04  7.077010E+05 -1.124484E-08 -2.624952E-09
       486  15  9.248539E+05  5.418779E+05  2.750738E+04  7.085673E+05 -1.771129E-08  3.470558E-08
       486  16  9.314121E+05  5.506661E+05  7.421469E+04  6.826521E+05  9.304096E-10 -1.889574E-08
       486  17  9.105672E+05  5.229000E+05  3.622385E+04  7.021756E+05 -4.323489E-09 -6.482734E-09
       486  18  9.139924E+05  5.390539E+05  2.479019E+04  7.054031E+05 -2.258480E-08  9.131037E-09
       486  19  9.457459E+05  5.802592E+05  8.290908E+04  6.984269E+05 -4.440064E+04 -3.353643E+04
       486  20  9.285930E+05  5.405181E+05  4.327629E+04  7.132270E+05 -2.788555E+04 -2.099559E+04
       486  21  9.357157E+05  5.447019E+05  3.022494E+04  7.117315E+05 -1.132828E+04 -8.510133E+03
       486  22  9.385801E+05  5.654634E+05  7.856479E+04  6.905400E+05 -4.440341E+04 -3.353789E+04
       486  23  9.195805E+05  5.317094E+05  3.975122E+04  7.077015E+05 -2.790174E+04 -2.100786E+04
       486  24  9.248541E+05  5.418780E+05  2.750776E+04  7.085674E+05 -1.135796E+04 -8.532877E+03
       486  25  9.314145E+05  5.506679E+05  7.422049E+04  6.826533E+05 -4.440618E+04 -3.353935E+04
       486  26  9.105681E+05  5.229007E+05  3.622614E+04  7.021761E+05 -2.791793E+04 -2.102012E+04
       486  27  9.139926E+05  5.390540E+05  2.479057E+04  7.054032E+05 -1.138765E+04 -8.555620E+03
       487   1  9.230051E+05  5.447203E+05  2.367818E+04  7.043529E+05  7.589162E+03  5.756099E+03
       487   2  9.199773E+05  5.338967E+05  1.803158E+04  7.045283E+05 -2.875659E+02 -1.219285E+02
       487   3  9.206511E+05  5.391398E+05  2.247102E+04  7.013032E+05 -8.164262E+03 -5.999700E+03
       487   4  9.254268E+05  5.445217E+05  2.412664E+04  7.046859E+05  7.609614E+03  5.771688E+03
       487   5  9.236056E+05  5.365391E+05  1.927244E+04  7.063474E+05 -2.671329E+02 -1.063318E+02
       487   6  9.254857E+05  5.446231E+05  2.450424E+04  7.046085E+05 -8.143875E+03 -5.984163E+03
       487   7  9.278486E+05  5.443230E+05  2.457509E+04  7.050190E+05  7.630066E+03  5.787277E+03
       487   8  9.272338E+05  5.391815E+05  2.051329E+04  7.081666E+05 -2.466998E+02 -9.073508E+01
       487   9  9.303204E+05  5.501064E+05  2.653746E+04  7.079137E+05 -8.123488E+03 -5.968626E+03
       487  10  9.230050E+05  5.447203E+05  2.367801E+04  7.043528E+05  6.351474E-09  1.941827E-08
       487  11  9.199773E+05  5.338967E+05  1.803158E+04  7.045283E+05  8.549755E-09 -9.359159E-09
       487  12  9.206511E+05  5.391397E+05  2.247083E+04  7.013032E+05 -1.142960E-08  1.848425E-08
       487  13  9.254268E+05  5.445216E+05  2.412646E+04  7.046859E+05 -1.023913E-08  1.073746E-08
       487  14  9.236056E+05  5.365391E+05  1.927244E+04  7.063474E+05  1.830223E-10 -8.001270E-09
       487  15  9.254857E+05  5.446230E+05  2.450405E+04  7.046084E+05 -3.294061E-09  1.266200E-08
       487  16  9.278486E+05  5.443229E+05  2.457492E+04  7.050190E+05 -2.611764E-08  3.956785E-09
       487  17  9.272338E+05  5.391815E+05  2.051329E+04  7.081666E+05  4.395782E-09 -1.052706E-08
       487  18  9.303203E+05  5.501064E+05  2.653727E+04  7.079137E+05 -7.314920E-09  4.192449E-09
       487  19  9.230051E+05  5.447203E+05  2.367818E+04  7.043529E+05 -7.589162E+03 -5.756099E+03
       487  20  9.199773E+05  5.338967E+05  1.803158E+04  7.045283E+05  2.875659E+02  1.219285E+02
       487  21  9.206511E+05  5.391398E+05  2.247102E+04  7.013032E+05  8.164262E+03  5.999700E+03
       487  22  9.254268E+05  5.445217E+05  2.412664E+04  7.046859E+05 -7.609614E+03 -5.771688E+03
       487  23  9.236056E+05  5.365391E+05  1.927244E+04  7.063474E+05  2.671329E+02  1.063318E+02
       487  24  9.254857E+05  5.446231E+05  2.450424E+04  7.046085E+05  8.143875E+03  5.984163E+03
       487  25  9.278486E+05  5.443230E+05  2.457509E+04  7.050190E+05 -7.630066E+03 -5.787277E+03
       487  26  9.272338E+05  5.391815E+05  2.051329E+04  7.081666E+05  2.466998E+02  9.073508E+01
       487  27  9.303204E+05  5.501064E+05  2.653746E+04  7.079137E+05  8.123488E+03  5.968626E+03
       488   1  9.063733E+05  5.337152E+05  2.277371E+04  7.017498E+05 -1.199444E+04 -8.817155E+03
       488   2  9.028700E+05  5.170634E+05  3.466330E+04  6.983808E+05 -2.895944E+04 -2.160578E+04
       488   3  9.242535E+05  5.456667E+05  7.384032E+04  6.782675E+05 -4.587242E+04 -3.446276E+04
       488   4  9.248455E+05  5.419236E+05  2.806259E+04  7.086587E+05 -1.196219E+04 -8.792444E+03
       488   5  9.194763E+05  5.314548E+05  4.079552E+04  7.077372E+05 -2.894418E+04 -2.159423E+04
       488   6  9.389966E+05  5.662437E+05  8.082999E+04  6.900716E+05 -4.587403E+04 -3.446467E+04
       488   7  9.433181E+05  5.501321E+05  3.335144E+04  7.155679E+05 -1.192994E+04 -8.767733E+03
       488   8  9.360829E+05  5.458465E+05  4.692771E+04  7.170939E+05 -2.892892E+04 -2.158269E+04
       488   9  9.537400E+05  5.868214E+05  8.781960E+04  7.018761E+05 -4.587563E+04 -3.446659E+04
       488  10  9.063732E+05  5.337151E+05  2.277330E+04  7.017497E+05 -4.930825E-09  3.130561E-08
       488  11  9.028689E+05  5.170627E+05  3.466085E+04  6.983803E+05  1.275291E-08  3.038579E-08
       488  12  9.242509E+05  5.456648E+05  7.383414E+04  6.782662E+05  1.795595E-09  8.897359E-09
       488  13  9.248453E+05  5.419235E+05  2.806217E+04  7.086587E+05 -5.553027E-09  1.165112E-08
       488  14  9.194752E+05  5.314541E+05  4.079308E+04  7.077367E+05  7.625820E-09 -1.553327E-08
       488  15  9.389941E+05  5.662419E+05  8.082381E+04  6.900703E+05  4.840832E-09 -6.043032E-09
       488  16  9.433180E+05  5.501320E+05  3.335103E+04  7.155678E+05 -1.758579E-08 -1.986287E-09
       488  17  9.360818E+05  5.458458E+05  4.692527E+04  7.170934E+05  7.023098E-09 -2.188120E-08
       488  18  9.537375E+05  5.868195E+05  8.781343E+04  7.018748E+05 -5.188066E-09 -2.700827E-08
       488  19  9.063733E+05  5.337152E+05  2.277371E+04  7.017498E+05  1.199444E+04  8.817155E+03
       488  20  9.028700E+05  5.170634E+05  3.466330E+04  6.983808E+05  2.895944E+04  2.160578E+04
       488  21  9.242535E+05  5.456667E+05  7.384032E+04  6.782675E+05  4.587242E+04  3.446276E+04
       488  22  9.248455E+05  5.419236E+05  2.806259E+04  7.086587E+05  1.196219E+04  8.792444E+03
       488  23  9.194763E+05  5.314548E+05  4.079552E+04  7.077372E+05  2.894418E+04  2.159423E+04
       488  24  9.389966E+05  5.662437E+05  8.082999E+04  6.900716E+05  4.587403E+04  3.446467E+04
       488  25  9.433181E+05  5.501321E+05  3.335144E+04  7.155679E+05  1.192994E+04  8.767733E+03
       488  26  9.360829E+05  5.458465E+05  4.692771E+04  7.170939E+05  2.892892E+04  2.158269E+04
       488  27  9.537400E+05  5.868214E+05  8.781960E+04  7.018761E+05  4.587563E+04  3.446659E+04
       489   1  8.823190E+05  5.409006E+05  8.668436E+04  7.125047E+05 -5.879428E+04 -4.408689E+04
       489   2  8.633092E+05  4.556765E+05  1.369577E+05  6.997101E+05 -1.231714E+05 -9.294724E+04
       489   3  1.039882E+06  6.488643E+05  3.324919E+05  5.595040E+05 -1.871140E+05 -1.423741E+05
       489   4  9.334469E+05  5.433378E+05  9.728962E+04  7.225348E+05 -5.868994E+04 -4.400417E+04
       489   5  8.863294E+05  4.912514E+05  1.485379E+05  7.196901E+05 -1.232061E+05 -9.297727E+04
       489   6  1.034810E+06  7.175949E+05  3.451626E+05  5.894386E+05 -1.872832E+05 -1.425239E+05
       489   7  9.845784E+05  5.457755E+05  1.078950E+05  7.325650E+05 -5.858559E+04 -4.392145E+04
       489   8  9.093503E+05  5.268283E+05  1.601181E+05  7.396714E+05 -1.232409E+05 -9.300732E+04
       489   9  1.029741E+06  7.863358E+05  3.578341E+05  6.193739E+05 -1.874525E+05 -1.426738E+05
       489  10  8.823148E+05  5.408976E+05  8.667423E+04  7.125026E+05 -7.473904E-09  1.444511E-08
       489  11  8.632907E+05  4.556632E+05  1.369131E+05  6.997009E+05 -1.169923E-08  1.025196E-08
       489  12  1.039839E+06  6.488332E+05  3.323882E+05  5.594826E+05 -3.854997E-09  2.848050E-08
       489  13  9.334427E+05  5.433348E+05  9.727953E+04  7.225327E+05  7.794466E-09  9.784481E-10
       489  14  8.863108E+05  4.912381E+05  1.484933E+05  7.196809E+05 -1.467990E-08 -2.184393E-08
       489  15  1.034767E+06  7.175637E+05  3.450587E+05  5.894171E+05  1.484868E-09  1.802417E-08
       489  16  9.845742E+05  5.457725E+05  1.078849E+05  7.325630E+05 -8.625227E-09 -2.345249E-10
       489  17  9.093317E+05  5.268150E+05  1.600734E+05  7.396622E+05 -1.324695E-08 -2.518643E-09
       489  18  1.029698E+06  7.863046E+05  3.577301E+05  6.193524E+05 -1.567837E-08 -8.128885E-09
       489  19  8.823190E+05  5.409006E+05  8.668436E+04  7.125047E+05  5.879428E+04  4.408689E+04
       489  20  8.633092E+05  4.556765E+05  1.369577E+05  6.997101E+05  1.231714E+05  9.294724E+04
       489  21  1.039882E+06  6.488643E+05  3.324919E+05  5.595040E+05  1.871140E+05  1.423741E+05
       489  22  9.334469E+05  5.433378E+05  9.728962E+04  7.225348E+05  5.868994E+04  4.400417E+04
       489  23  8.863294E+05  4.912514E+05  1.485379E+05  7.196901E+05  1.232061E+05  9.297727E+04
       489  24  1.034810E+06  7.175949E+05  3.451626E+05  5.894386E+05  1.872832E+05  1.425239E+05
       489  25  9.845784E+05  5.457755E+05  1.078950E+05  7.325650E+05  5.858559E+04  4.392145E+04
       489  26  9.093503E+05  5.268283E+05  1.601181E+05  7.396714E+05  1.232409E+05  9.300732E+04
       489  27  1.029741E+06  7.863358E+05  3.578341E+05  6.193739E+05  1.874525E+05  1.426738E+05
       490   1 -1.372955E+05 -1.186985E+06 -1.560391E+05  4.705628E+04 -1.290091E+03 -5.368324E+04
       490   2 -4.898555E+04 -1.131413E+06 -1.004842E+05  5.364624E+03 -4.305122E+03 -3.192403E+04
       490   3 -5.238738E+04 -1.100005E+06 -8.173599E+04  3.130660E+04 -2.560708E+03 -1.012662E+04
       490   4 -6.309380E+04 -8.912162E+05 -8.223123E+04  3.486777E+04 -1.298964E+03 -5.244773E+04
       490   5  1.405377E+04 -8.792256E+05 -3.806338E+04  1.301044E+03 -4.305664E+03 -3.182040E+04
       490   6 -2.934991E+02 -8.911929E+05 -2.990293E+04  3.536712E+04 -2.553201E+03 -1.115644E+04
       490   7  1.110177E+04 -5.953680E+05 -8.429922E+03  2.267359E+04 -1.307884E+03 -5.121162E+04
       490   8  7.708837E+04 -6.269807E+05  2.435271E+04 -2.764080E+03 -4.306208E+03 -3.171672E+04
       490   9  5.179719E+04 -6.823415E+05  2.192690E+04  3.942908E+04 -2.545709E+03 -1.218661E+04
       490  10 -1.372963E+05 -1.186988E+06 -1.560445E+05  4.705622E+04 -1.495824E-09 -1.464146E-10
       490  11 -4.898585E+04 -1.131414E+06 -1.004862E+05  5.364513E+03 -5.936756E-09 -1.152798E-08
       490  12 -5.238741E+04 -1.100005E+06 -8.173620E+04  3.130658E+04  6.776179E-09 -3.528917E-09
       490  13 -6.309454E+04 -8.912191E+05 -8.223641E+04  3.486771E+04  3.763476E-09 -2.569715E-08
       490  14  1.405348E+04 -8.792267E+05 -3.806532E+04  1.300934E+03 -1.227927E-08 -8.945402E-09
       490  15 -2.935396E+02 -8.911930E+05 -2.990317E+04  3.536709E+04  3.635959E-09 -4.596096E-08
       490  16  1.110107E+04 -5.953708E+05 -8.434858E+03  2.267354E+04 -3.117594E-09 -8.512700E-09
       490  17  7.708808E+04 -6.269818E+05  2.435078E+04 -2.764190E+03 -4.111708E-09 -9.779233E-09
       490  18  5.179714E+04 -6.823416E+05  2.192660E+04  3.942905E+04  8.311726E-09 -1.267075E-08
       490  19 -1.372955E+05 -1.186985E+06 -1.560391E+05  4.705628E+04  1.290091E+03  5.368324E+04
       490  20 -4.898555E+04 -1.131413E+06 -1.004842E+05  5.364624E+03  4.305122E+03  3.192403E+04
       490  21 -5.238738E+04 -1.100005E+06 -8.173599E+04  3.130660E+04  2.560708E+03  1.012662E+04
       490  22 -6.309380E+04 -8.912162E+05 -8.223123E+04  3.486777E+04  1.298964E+03  5.244773E+04
       490  23  1.405377E+04 -8.792256E+05 -3.806338E+04  1.301044E+03  4.305664E+03  3.182040E+04
       490  24 -2.934991E+02 -8.911929E+05 -2.990293E+04  3.536712E+04  2.553201E+03  1.115644E+04
       490  25  1.110177E+04 -5.953680E+05 -8.429922E+03  2.267359E+04  1.307884E+03  5.121162E+04
       490  26  7.708837E+04 -6.269807E+05  2.435271E+04 -2.764080E+03  4.306208E+03  3.171672E+04
       490  27  5.179719E+04 -6.823415E+05  2.192690E+04  3.942908E+04  2.545709E+03  1.218661E+04
       491   1 -1.715050E+04 -9.210561E+05 -3.621847E+04  3.850959E+04 -8.300912E+02 -5.695734E+03
       491   2  8.272073E+03 -8.717519E+05 -2.171832E+04  4.457472E+02  1.322558E+02  7.144650E+03
       491   3 -1.729571E+03 -8.317047E+05 -2.418329E+04  3.218618E+04  1.054593E+03  1.998569E+04
       491   4 -8.835779E+03 -8.879197E+05 -2.805210E+04  3.568524E+04 -8.281995E+02 -5.953687E+03
       491   5  5.385113E+03 -8.832912E+05 -2.457822E+04  7.574205E+02  1.340643E+02  6.896343E+03
       491   6 -1.582016E+04 -8.879236E+05 -3.807623E+04  3.563418E+04  1.056439E+03  1.974611E+04
       491   7 -5.211133E+02 -8.547823E+05 -1.988580E+04  3.286074E+04 -8.263054E+02 -6.211654E+03
       491   8  2.498144E+03 -8.948304E+05 -2.743813E+04  1.069088E+03  1.358725E+02  6.648042E+03
       491   9 -2.991095E+04 -9.441397E+05 -5.196939E+04  3.908188E+04  1.058284E+03  1.950655E+04
       491  10 -1.715051E+04 -9.210562E+05 -3.621853E+04  3.850959E+04  6.647492E-10 -8.783095E-11
       491  11  8.272059E+03 -8.717520E+05 -2.171842E+04  4.457464E+02 -7.656321E-10 -1.771741E-09
       491  12 -1.729680E+03 -8.317051E+05 -2.418404E+04  3.218616E+04 -1.982945E-09 -5.188570E-09
       491  13 -8.835789E+03 -8.879197E+05 -2.805217E+04  3.568523E+04  3.382057E-09 -1.566420E-08
       491  14  5.385100E+03 -8.832913E+05 -2.457831E+04  7.574197E+02  4.890694E-10 -4.054914E-09
       491  15 -1.582027E+04 -8.879241E+05 -3.807696E+04  3.563417E+04  4.486177E-09 -3.678801E-08
       491  16 -5.211244E+02 -8.547823E+05 -1.988588E+04  3.286073E+04  8.716457E-09 -1.853069E-08
       491  17  2.498132E+03 -8.948304E+05 -2.743821E+04  1.069087E+03 -3.817920E-09 -8.249616E-09
       491  18 -2.991105E+04 -9.441401E+05 -5.197011E+04  3.908186E+04  5.642713E-09 -9.824171E-09
       491  19 -1.715050E+04 -9.210561E+05 -3.621847E+04  3.850959E+04  8.300912E+02  5.695734E+03
       491  20  8.272073E+03 -8.717519E+05 -2.171832E+04  4.457472E+02 -1.322558E+02 -7.144650E+03
       491  21 -1.729571E+03 -8.317047E+05 -2.418329E+04  3.218618E+04 -1.054593E+03 -1.998569E+04
       491  22 -8.835779E+03 -8.879197E+05 -2.805210E+04  3.568524E+04  8.281995E+02  5.953687E+03
       491  23  5.385113E+03 -8.832912E+05 -2.457822E+04  7.574205E+02 -1.340643E+02 -6.896343E+03
       491  24 -1.582016E+04 -8.879236E+05 -3.807623E+04  3.563418E+04 -1.056439E+03 -1.974611E+04
       491  25 -5.211133E+02 -8.547823E+05 -1.988580E+04  3.286074E+04  8.263054E+02  6.211654E+03
       491  26  2.498144E+03 -8.948304E+05 -2.743813E+04  1.069088E+03 -1.358725E+02 -6.648042E+03
       491  27 -2.991095E+04 -9.441397E+05 -5.196939E+04  3.908188E+04 -1.058284E+03 -1.950655E+04
       492   1  6.015720E+04 -6.635725E+05  1.362526E+04  4.283333E+04  2.789834E+03  2.816115E+04
       492   2  9.273779E+04 -5.996091E+05  5.002322E+03 -4.801242E+03  4.461240E+03  6.125575E+04
       492   3 -3.049875E+04 -5.772363E+05 -6.378422E+04  1.445759E+04  1.081496E+03  9.431345E+04
       492   4  2.454064E+03 -8.951615E+05 -4.382415E+04  3.533998E+04  2.797408E+03  2.708811E+04
       492   5  2.406591E+04 -8.742741E+05 -6.297079E+04  1.438826E+03  4.460873E+03  6.138036E+04
       492   6 -1.103853E+05 -8.952083E+05 -1.431340E+05  3.443318E+04  1.073666E+03  9.563333E+04
       492   7 -5.525285E+04 -1.126702E+06 -1.012775E+05  2.784950E+04  2.805010E+03  2.601547E+04
       492   8 -4.461149E+04 -1.148870E+06 -1.309495E+05  7.676259E+03  4.460509E+03  6.150491E+04
       492   9 -1.902781E+05 -1.213088E+06 -2.224912E+05  5.439870E+04  1.065920E+03  9.695253E+04
       492  10  6.015698E+04 -6.635733E+05  1.362375E+04  4.283327E+04 -6.129468E-10 -8.911238E-09
       492  11  9.273676E+04 -5.996131E+05  4.995227E+03 -4.801462E+03 -6.857282E-09 -2.118263E-09
       492  12 -3.050114E+04 -5.772458E+05 -6.380095E+04  1.445751E+04 -8.652298E-09  5.180279E-09
       492  13  2.453858E+03 -8.951623E+05 -4.382554E+04  3.533991E+04 -4.568225E-09 -1.613657E-08
       492  14  2.406488E+04 -8.742781E+05 -6.297791E+04  1.438605E+03 -8.591988E-09  9.911081E-11
       492  15 -1.103878E+05 -8.952181E+05 -1.431512E+05  3.443310E+04 -1.139026E-08 -4.386073E-08
       492  16 -5.525304E+04 -1.126702E+06 -1.012788E+05  2.784945E+04  6.969020E-09 -1.072809E-09
       492  17 -4.461253E+04 -1.148874E+06 -1.309567E+05  7.676038E+03 -6.348417E-09 -9.431480E-09
       492  18 -1.902807E+05 -1.213098E+06 -2.225089E+05  5.439862E+04 -1.056827E-08 -3.392865E-09
       492  19  6.015720E+04 -6.635725E+05  1.362526E+04  4.283333E+04 -2.789834E+03 -2.816115E+04
       492  20  9.273779E+04 -5.996091E+05  5.002322E+03 -4.801242E+03 -4.461240E+03 -6.125575E+04
       492  21 -3.049875E+04 -5.772363E+05 -6.378422E+04  1.445759E+04 -1.081496E+03 -9.431345E+04
       492  22  2.454064E+03 -8.951615E+05 -4.382415E+04  3.533998E+04 -2.797408E+03 -2.708811E+04
       492  23  2.406591E+04 -8.742741E+05 -6.297079E+04  1.438826E+03 -4.460873E+03 -6.138036E+04
       492  24 -1.103853E+05 -8.952083E+05 -1.431340E+05  3.443318E+04 -1.073666E+03 -9.563333E+04
       492  25 -5.525285E+04 -1.126702E+06 -1.012775E+05  2.784950E+04 -2.805010E+03 -2.601547E+04
       492  26 -4.461149E+04 -1.148870E+06 -1.309495E+05  7.676259E+03 -4.460509E+03 -6.150491E+04
       492  27 -1.902781E+05 -1.213088E+06 -2.224912E+05  5.439870E+04 -1.065920E+03 -9.695253E+04
       493   1 -3.354821E+06 -6.499592E+04 -1.260266E+05 -7.053874E+03 -1.730880E+05 -2.569367E+03
       493   2 -3.341952E+06  1.733528E+05  1.372398E+04 -1.919939E+03 -1.125552E+05 -8.771557E+03
       493   3 -3.405993E+06  1.296454E+05  4.372931E+04  4.297226E+04 -5.200120E+04 -7.135765E+03
       493   4 -3.898100E+06 -2.015648E+05 -2.619667E+05  2.723582E+04 -1.753507E+05 -2.570940E+03
       493   5 -3.859257E+06  4.373339E+04 -1.147164E+05  7.706384E+03 -1.129941E+05 -8.772363E+03
       493   6 -3.897710E+06  6.528093E+03 -7.855246E+04  2.793644E+04 -5.061346E+04 -7.137769E+03
       493   7 -4.441108E+06 -3.381519E+05 -3.979285E+05  6.149557E+04 -1.776115E+05 -2.572769E+03
       493   8 -4.376317E+06 -8.590592E+04 -2.431768E+05  1.732481E+04 -1.134326E+05 -8.773184E+03
       493   9 -4.389206E+06 -1.166066E+05 -2.008523E+05  1.291271E+04 -4.922682E+04 -7.139841E+03
       493  10 -3.354853E+06 -6.500403E+04 -1.260833E+05 -7.054233E+03  4.209793E-10 -1.856183E-10
       493  11 -3.341966E+06  1.733493E+05  1.369990E+04 -1.920735E+03  1.051962E-09 -6.250736E-10
       493  12 -3.405996E+06  1.296446E+05  4.372411E+04  4.297196E+04  1.036776E-09  7.773678E-10
       493  13 -3.898133E+06 -2.015731E+05 -2.620248E+05  2.723546E+04 -1.686663E-09 -1.918316E-11
       493  14 -3.859271E+06  4.372986E+04 -1.147407E+05  7.705585E+03  1.587127E-09  3.551082E-10
       493  15 -3.897713E+06  6.527345E+03 -7.855740E+04  2.793615E+04 -2.872607E-09  1.126236E-10
       493  16 -4.441142E+06 -3.381604E+05 -3.979882E+05  6.149520E+04 -1.242143E-09 -2.484658E-10
       493  17 -4.376331E+06 -8.590949E+04 -2.432013E+05  1.732401E+04 -4.081563E-09 -1.444250E-10
       493  18 -4.389209E+06 -1.166073E+05 -2.008570E+05  1.291243E+04 -3.198975E-10 -5.072837E-10
       493  19 -3.354821E+06 -6.499592E+04 -1.260266E+05 -7.053874E+03  1.730880E+05  2.569367E+03
       493  20 -3.341952E+06  1.733528E+05  1.372398E+04 -1.919939E+03  1.125552E+05  8.771557E+03
       493  21 -3.405993E+06  1.296454E+05  4.372931E+04  4.297226E+04  5.200120E+04  7.135765E+03
       493  22 -3.898100E+06 -2.015648E+05 -2.619667E+05  2.723582E+04  1.753507E+05  2.570940E+03
       493  23 -3.859257E+06  4.373339E+04 -1.147164E+05  7.706384E+03  1.129941E+05  8.772363E+03
       493  24 -3.897710E+06  6.528093E+03 -7.855246E+04  2.793644E+04  5.061346E+04  7.137769E+03
       493  25 -4.441108E+06 -3.381519E+05 -3.979285E+05  6.149557E+04  1.776115E+05  2.572769E+03
       493  26 -4.376317E+06 -8.590592E+04 -2.431768E+05  1.732481E+04  1.134326E+05  8.773184E+03
       493  27 -4.389206E+06 -1.166066E+05 -2.008523E+05  1.291271E+04  4.922682E+04  7.139841E+03
       494   1 -3.533074E+06  5.930947E+04  1.946313E+04  2.831809E+04 -3.750941E+04 -5.301595E+03
       494   2 -3.568745E+06  8.494641E+04  3.417321E+04 -1.083072E+03 -1.591236E+04 -4.930881E+03
       494   3 -3.619211E+06  5.990569E+04  2.224065E+04  3.703214E+04  5.683814E+03 -3.270297E+03
       494   4 -3.883896E+06 -2.861453E+04 -6.777175E+04  3.385399E+04 -3.755144E+04 -5.302020E+03
       494   5 -3.876448E+06  7.853981E+03 -4.229858E+04  1.168661E+02 -1.565689E+04 -4.931432E+03
       494   6 -3.883857E+06 -6.421182E+03 -4.368584E+04  3.389849E+04  6.238287E+03 -3.270990E+03
       494   7 -4.234607E+06 -1.165477E+05 -1.550159E+05  3.938680E+04 -3.759345E+04 -5.302446E+03
       494   8 -4.184065E+06 -6.924559E+04 -1.187775E+05  1.316237E+03 -1.540155E+04 -4.931982E+03
       494   9 -4.148439E+06 -7.275331E+04 -1.096176E+05  3.076620E+04  6.792521E+03 -3.271689E+03
       494  10 -3.533075E+06  5.930906E+04  1.946042E+04  2.831793E+04  1.038840E-09 -4.093325E-10
       494  11 -3.568745E+06  8.494631E+04  3.417269E+04 -1.083135E+03  5.031907E-10  1.090609E-10
       494  12 -3.619211E+06  5.990567E+04  2.224057E+04  3.703216E+04  5.631997E-10 -3.121017E-11
       494  13 -3.883898E+06 -2.861494E+04 -6.777447E+04  3.385383E+04 -7.871211E-10  6.647177E-10
       494  14 -3.876448E+06  7.853889E+03 -4.229909E+04  1.168038E+02  1.053242E-09  5.761743E-10
       494  15 -3.883857E+06 -6.421204E+03 -4.368594E+04  3.389851E+04 -1.651655E-09 -1.023118E-09
       494  16 -4.234608E+06 -1.165481E+05 -1.550186E+05  3.938664E+04 -1.576037E-09  6.026535E-10
       494  17 -4.184065E+06 -6.924568E+04 -1.187780E+05  1.316176E+03 -1.760789E-09 -2.678864E-10
       494  18 -4.148439E+06 -7.275333E+04 -1.096177E+05  3.076622E+04 -3.419589E-10  6.288886E-11
       494  19 -3.533074E+06  5.930947E+04  1.946313E+04  2.831809E+04  3.750941E+04  5.301595E+03
       494  20 -3.568745E+06  8.494641E+04  3.417321E+04 -1.083072E+03  1.591236E+04  4.930881E+03
       494  21 -3.619211E+06  5.990569E+04  2.224065E+04  3.703214E+04 -5.683814E+03  3.270297E+03
       494  22 -3.883896E+06 -2.861453E+04 -6.777175E+04  3.385399E+04  3.755144E+04  5.302020E+03
       494  23 -3.876448E+06  7.853981E+03 -4.229858E+04  1.168661E+02  1.565689E+04  4.931432E+03
       494  24 -3.883857E+06 -6.421182E+03 -4.368584E+04  3.389849E+04 -6.238287E+03  3.270990E+03
       494  25 -4.234607E+06 -1.165477E+05 -1.550159E+05  3.938680E+04  3.759345E+04  5.302446E+03
       494  26 -4.184065E+06 -6.924559E+04 -1.187775E+05  1.316237E+03  1.540155E+04  4.931982E+03
       494  27 -4.148439E+06 -7.275331E+04 -1.096176E+05  3.076620E+04 -6.792521E+03  3.271689E+03
       495   1 -3.810986E+06  1.652229E+04 -2.826517E+04  3.149243E+04  1.389782E+04 -1.977490E+03
       495   2 -3.849139E+06  1.855320E+04 -5.413274E+04 -1.089319E+03  4.539332E+04 -3.617251E+02
       495   3 -3.911114E+06 -5.881315E+04 -1.204099E+05  4.473161E+04  7.688484E+04  7.778728E+02
       495   4 -3.885813E+06 -2.214456E+03 -4.674793E+04  3.631989E+04  1.434722E+04 -1.977804E+03
       495   5 -3.873972E+06  1.233236E+04 -6.031690E+04 -2.903729E+03  4.572759E+04 -3.621627E+02
       495   6 -3.885934E+06 -5.249918E+04 -1.142150E+05  3.627619E+04  7.710652E+04  7.766327E+02
       495   7 -3.960636E+06 -2.095154E+04 -6.523110E+04  4.114676E+04  1.479656E+04 -1.978111E+03
       495   8 -3.898805E+06  6.111484E+03 -6.650111E+04 -4.718065E+03  4.606184E+04 -3.626024E+02
       495   9 -3.860754E+06 -4.618500E+04 -1.080200E+05  2.782042E+04  7.732820E+04  7.753866E+02
       495  10 -3.810986E+06  1.652223E+04 -2.826555E+04  3.149246E+04  7.447107E-10  3.901445E-10
       495  11 -3.849141E+06  1.855265E+04 -5.413663E+04 -1.089305E+03  4.547764E-11  6.594135E-10
       495  12 -3.911120E+06 -5.881475E+04 -1.204211E+05  4.473157E+04  3.629596E-10 -3.103292E-10
       495  13 -3.885814E+06 -2.214516E+03 -4.674833E+04  3.631991E+04 -4.382302E-10 -1.971826E-10
       495  14 -3.873975E+06  1.233179E+04 -6.032086E+04 -2.903715E+03  4.421552E-10  6.853840E-10
       495  15 -3.885940E+06 -5.250079E+04 -1.142262E+05  3.627614E+04 -1.677259E-09 -2.530762E-10
       495  16 -3.960636E+06 -2.095160E+04 -6.523152E+04  4.114678E+04 -5.480097E-10 -8.855009E-10
       495  17 -3.898807E+06  6.110910E+03 -6.650513E+04 -4.718052E+03 -1.171114E-09  4.388410E-10
       495  18 -3.860760E+06 -4.618661E+04 -1.080314E+05  2.782037E+04 -5.151707E-10  1.331372E-10
       495  19 -3.810986E+06  1.652229E+04 -2.826517E+04  3.149243E+04 -1.389782E+04  1.977490E+03
       495  20 -3.849139E+06  1.855320E+04 -5.413274E+04 -1.089319E+03 -4.539332E+04  3.617251E+02
       495  21 -3.911114E+06 -5.881315E+04 -1.204099E+05  4.473161E+04 -7.688484E+04 -7.778728E+02
       495  22 -3.885813E+06 -2.214456E+03 -4.674793E+04  3.631989E+04 -1.434722E+04  1.977804E+03
       495  23 -3.873972E+06  1.233236E+04 -6.031690E+04 -2.903729E+03 -4.572759E+04  3.621627E+02
       495  24 -3.885934E+06 -5.249918E+04 -1.142150E+05  3.627619E+04 -7.710652E+04 -7.766327E+02
       495  25 -3.960636E+06 -2.095154E+04 -6.523110E+04  4.114676E+04 -1.479656E+04  1.978111E+03
       495  26 -3.898805E+06  6.111484E+03 -6.650111E+04 -4.718065E+03 -4.606184E+04  3.626024E+02
       495  27 -3.860754E+06 -4.618500E+04 -1.080200E+05  2.782042E+04 -7.732820E+04 -7.753866E+02
       496   1 -4.131384E+06 -4.147114E+04 -1.910379E+05  5.951025E+03  9.834668E+04  2.569716E+03
       496   2 -4.104861E+06  1.383634E+04 -2.720376E+05  1.523982E+04  2.120419E+05  4.523861E+03
       496   3 -4.221883E+06 -4.468809E+05 -5.562826E+05  9.440775E+04  3.257275E+05  1.330328E+03
       496   4 -3.912313E+06  1.338973E+04 -1.364515E+05  3.460054E+04  9.948134E+04  2.573187E+03
       496   5 -3.841032E+06  7.998536E+04 -2.065205E+05 -6.440125E+02  2.119863E+05  4.518432E+03
       496   6 -3.913023E+06 -3.691227E+05 -4.789376E+05  3.399586E+04  3.244902E+05  1.300551E+03
       496   7 -3.693197E+06  6.825009E+04 -8.186830E+04  6.326024E+04  1.006164E+05  2.576763E+03
       496   8 -3.577138E+06  1.461301E+05 -1.410085E+05 -1.653462E+04  2.119307E+05  4.513007E+03
       496   9 -3.604068E+06 -2.913580E+05 -4.015979E+05 -2.644626E+04  3.232522E+05  1.271029E+03
       496  10 -4.131394E+06 -4.147377E+04 -1.910562E+05  5.950822E+03  7.055358E-10  5.518342E-10
       496  11 -4.104909E+06  1.382414E+04 -2.721227E+05  1.523904E+04  7.919169E-10  8.841367E-10
       496  12 -4.221997E+06 -4.469096E+05 -5.564834E+05  9.440741E+04  1.979258E-10 -4.855934E-11
       496  13 -3.912324E+06  1.338704E+04 -1.364702E+05  3.460034E+04 -8.123304E-10  7.220492E-11
       496  14 -3.841080E+06  7.997318E+04 -2.066055E+05 -6.447851E+02  8.913463E-10  2.644642E-10
       496  15 -3.913137E+06 -3.691512E+05 -4.791367E+05  3.399552E+04 -2.129149E-09  1.795966E-10
       496  16 -3.693208E+06  6.824734E+04 -8.188745E+04  6.326003E+04 -1.147737E-09 -4.547154E-10
       496  17 -3.577187E+06  1.461179E+05 -1.410934E+05 -1.653539E+04 -2.228214E-09 -1.635969E-10
       496  18 -3.604181E+06 -2.913863E+05 -4.017954E+05 -2.644659E+04  2.145191E-10  5.538365E-10
       496  19 -4.131384E+06 -4.147114E+04 -1.910379E+05  5.951025E+03 -9.834668E+04 -2.569716E+03
       496  20 -4.104861E+06  1.383634E+04 -2.720376E+05  1.523982E+04 -2.120419E+05 -4.523861E+03
       496  21 -4.221883E+06 -4.468809E+05 -5.562826E+05  9.440775E+04 -3.257275E+05 -1.330328E+03
       496  22 -3.912313E+06  1.338973E+04 -1.364515E+05  3.460054E+04 -9.948134E+04 -2.573187E+03
       496  23 -3.841032E+06  7.998536E+04 -2.065205E+05 -6.440125E+02 -2.119863E+05 -4.518432E+03
       496  24 -3.913023E+06 -3.691227E+05 -4.789376E+05  3.399586E+04 -3.244902E+05 -1.300551E+03
       496  25 -3.693197E+06  6.825009E+04 -8.186830E+04  6.326024E+04 -1.006164E+05 -2.576763E+03
       496  26 -3.577138E+06  1.461301E+05 -1.410085E+05 -1.653462E+04 -2.119307E+05 -4.513007E+03
       496  27 -3.604068E+06 -2.913580E+05 -4.015979E+05 -2.644626E+04 -3.232522E+05 -1.271029E+03
       497   1 -2.601803E+06 -1.284387E+05 -1.938406E+05 -1.744092E+04 -1.881571E+05 -1.744961E+03
       497   2 -2.582832E+06  1.296954E+05 -4.115441E+04 -8.861111E+03 -1.224433E+05 -5.667828E+03
       497   3 -2.647798E+06  8.411021E+04 -7.161257E+03  3.562188E+04 -5.672636E+04 -4.388178E+03
       497   4 -2.954934E+06 -2.170824E+05 -2.821112E+05  1.841951E+04 -1.896174E+05 -1.753461E+03
       497   5 -2.912678E+06  4.713817E+04 -1.229674E+05  6.431117E+02 -1.226942E+05 -5.669544E+03
       497   6 -2.954618E+06  7.338698E+03 -8.340784E+04  1.877046E+04 -5.576531E+04 -4.387502E+03
       497   7 -3.307949E+06 -3.057307E+05 -3.703905E+05  5.425950E+04 -1.910768E+05 -1.762135E+03
       497   8 -3.242424E+06 -3.542692E+04 -2.047884E+05  1.014229E+04 -1.229449E+05 -5.671270E+03
       497   9 -3.261352E+06 -6.943883E+04 -1.596613E+05  1.927410E+03 -5.480472E+04 -4.386878E+03
       497  10 -2.601841E+06 -1.284483E+05 -1.939074E+05 -1.744119E+04 -8.124178E-10 -2.973925E-10
       497  11 -2.582849E+06  1.296913E+05 -4.118276E+04 -8.861671E+03  7.680340E-10 -8.052356E-10
       497  12 -2.647802E+06  8.410932E+04 -7.167366E+03  3.562168E+04  2.704723E-09 -6.892034E-10
       497  13 -2.954973E+06 -2.170921E+05 -2.821791E+05  1.841924E+04 -9.234111E-10 -2.374806E-10
       497  14 -2.912694E+06  4.713407E+04 -1.229959E+05  6.425509E+02  7.964196E-10 -5.642916E-10
       497  15 -2.954622E+06  7.337837E+03 -8.341375E+04  1.877026E+04 -1.556427E-09 -1.039786E-09
       497  16 -3.307988E+06 -3.057406E+05 -3.704595E+05  5.425923E+04  2.939534E-10 -1.425744E-10
       497  17 -3.242440E+06 -3.543104E+04 -2.048170E+05  1.014173E+04 -1.776742E-09  1.566326E-10
       497  18 -3.261355E+06 -6.943967E+04 -1.596670E+05  1.927216E+03 -2.434519E-09 -7.995765E-10
       497  19 -2.601803E+06 -1.284387E+05 -1.938406E+05 -1.744092E+04  1.881571E+05  1.744961E+03
       497  20 -2.582832E+06  1.296954E+05 -4.115441E+04 -8.861111E+03  1.224433E+05  5.667828E+03
       497  21 -2.647798E+06  8.411021E+04 -7.161257E+03  3.562188E+04  5.672636E+04  4.388178E+03
       497  22 -2.954934E+06 -2.170824E+05 -2.821112E+05  1.841951E+04  1.896174E+05  1.753461E+03
       497  23 -2.912678E+06  4.713817E+04 -1.229674E+05  6.431117E+02  1.226942E+05  5.669544E+03
       497  24 -2.954618E+06  7.338698E+03 -8.340784E+04  1.877046E+04  5.576531E+04  4.387502E+03
       497  25 -3.307949E+06 -3.057307E+05 -3.703905E+05  5.425950E+04  1.910768E+05  1.762135E+03
       497  26 -3.242424E+06 -3.542692E+04 -2.047884E+05  1.014229E+04  1.229449E+05  5.671270E+03
       497  27 -3.261352E+06 -6.943883E+04 -1.596613E+05  1.927410E+03  5.480472E+04  4.386878E+03
       498   1 -2.742411E+06  1.858708E+04 -2.239909E+04  1.607169E+04 -4.195203E+04 -3.058848E+03
       498   2 -2.765527E+06  4.966850E+04 -1.402792E+03 -3.829658E+03 -2.002610E+04 -2.671423E+03
       498   3 -2.804370E+06  2.861174E+04 -7.722700E+03  2.482763E+04  1.898302E+03 -1.524628E+03
       498   4 -2.939474E+06 -3.074631E+04 -7.134153E+04  2.146444E+04 -4.193836E+04 -3.059279E+03
       498   5 -2.931572E+06  8.108695E+03 -4.262777E+04 -2.806970E+03 -1.983693E+04 -2.671575E+03
       498   6 -2.939435E+06 -5.213119E+03 -4.135861E+04  2.148134E+04  2.264061E+03 -1.524719E+03
       498   7 -3.136503E+06 -8.008252E+04 -1.202869E+05  2.685547E+04 -4.192468E+04 -3.059709E+03
       498   8 -3.097593E+06 -3.345318E+04 -8.385482E+04 -1.784555E+03 -1.964780E+04 -2.671726E+03
       498   9 -3.074483E+06 -3.903932E+04 -7.499588E+04  1.813579E+04  2.629739E+03 -1.524815E+03
       498  10 -2.742413E+06  1.858660E+04 -2.240243E+04  1.607159E+04  1.027557E-09  5.518002E-11
       498  11 -2.765527E+06  4.966838E+04 -1.403563E+03 -3.829701E+03 -4.682202E-10 -9.572412E-10
       498  12 -2.804370E+06  2.861174E+04 -7.722711E+03  2.482763E+04  4.201093E-10 -6.401582E-10
       498  13 -2.939476E+06 -3.074680E+04 -7.134487E+04  2.146434E+04 -1.108251E-09 -1.000502E-09
       498  14 -2.931573E+06  8.108581E+03 -4.262853E+04 -2.807013E+03 -3.072899E-10 -6.640907E-10
       498  15 -2.939435E+06 -5.213122E+03 -4.135862E+04  2.148135E+04 -5.639608E-10 -7.802655E-10
       498  16 -3.136504E+06 -8.008301E+04 -1.202902E+05  2.685536E+04 -1.380055E-09 -9.382669E-10
       498  17 -3.097593E+06 -3.345329E+04 -8.385556E+04 -1.784597E+03 -4.921827E-10 -2.832280E-09
       498  18 -3.074483E+06 -3.903932E+04 -7.499590E+04  1.813580E+04  8.712532E-12 -2.489221E-09
       498  19 -2.742411E+06  1.858708E+04 -2.239909E+04  1.607169E+04  4.195203E+04  3.058848E+03
       498  20 -2.765527E+06  4.966850E+04 -1.402792E+03 -3.829658E+03  2.002610E+04  2.671423E+03
       498  21 -2.804370E+06  2.861174E+04 -7.722700E+03  2.482763E+04 -1.898302E+03  1.524628E+03
       498  22 -2.939474E+06 -3.074631E+04 -7.134153E+04  2.146444E+04  4.193836E+04  3.059279E+03
       498  23 -2.931572E+06  8.108695E+03 -4.262777E+04 -2.806970E+03  1.983693E+04  2.671575E+03
       498  24 -2.939435E+06 -5.213119E+03 -4.135861E+04  2.148134E+04 -2.264061E+03  1.524719E+03
       498  25 -3.136503E+06 -8.008252E+04 -1.202869E+05  2.685547E+04  4.192468E+04  3.059709E+03
       498  26 -3.097593E+06 -3.345318E+04 -8.385482E+04 -1.784555E+03  1.964780E+04  2.671726E+03
       498  27 -3.074483E+06 -3.903932E+04 -7.499588E+04  1.813579E+04 -2.629739E+03  1.524815E+03
       499   1 -2.935264E+06 -1.416460E+03 -4.192066E+04  1.802920E+04  9.527016E+03 -6.379385E+02
       499   2 -2.958026E+06  3.753756E+03 -6.013986E+04 -2.207220E+03  3.731033E+04  4.855371E+02
       499   3 -3.001665E+06 -6.007645E+04 -1.137541E+05  2.953407E+04  6.509233E+04  1.172152E+03
       499   4 -2.940556E+06 -2.725177E+03 -4.314882E+04  2.223885E+04  9.849095E+03 -6.379098E+02
       499   5 -2.930164E+06  1.072724E+04 -5.322813E+04 -3.754307E+03  3.752881E+04  4.854059E+02
       499   6 -2.940630E+06 -4.480057E+04 -9.862836E+04  2.223034E+04  6.520868E+04  1.171355E+03
       499   7 -2.945848E+06 -4.033830E+03 -4.437698E+04  2.644847E+04  1.017117E+04 -6.378767E+02
       499   8 -2.902302E+06  1.770068E+04 -4.631647E+04 -5.301462E+03  3.774729E+04  4.852736E+02
       499   9 -2.879592E+06 -2.952476E+04 -8.350283E+04  1.492589E+04  6.532504E+04  1.170556E+03
       499  10 -2.935264E+06 -1.416485E+03 -4.192083E+04  1.802920E+04 -8.381756E-11  1.897660E-11
       499  11 -2.958027E+06  3.753380E+03 -6.014249E+04 -2.207235E+03 -7.350407E-10  4.139439E-10
       499  12 -3.001670E+06 -6.007760E+04 -1.137621E+05  2.953401E+04  1.598133E-10 -1.362977E-12
       499  13 -2.940556E+06 -2.725204E+03 -4.314901E+04  2.223886E+04 -2.397940E-11 -7.148714E-10
       499  14 -2.930165E+06  1.072686E+04 -5.323079E+04 -3.754321E+03  2.421238E-10  4.784252E-10
       499  15 -2.940635E+06 -4.480172E+04 -9.863639E+04  2.223028E+04 -9.337640E-10 -3.070431E-10
       499  16 -2.945848E+06 -4.033858E+03 -4.437718E+04  2.644847E+04 -1.018080E-11 -1.111387E-09
       499  17 -2.902303E+06  1.770030E+04 -4.631916E+04 -5.301477E+03 -1.300385E-11  4.890195E-10
       499  18 -2.879597E+06 -2.952591E+04 -8.351089E+04  1.492582E+04 -1.601151E-10 -3.744288E-10
       499  19 -2.935264E+06 -1.416460E+03 -4.192066E+04  1.802920E+04 -9.527016E+03  6.379385E+02
       499  20 -2.958026E+06  3.753756E+03 -6.013986E+04 -2.207220E+03 -3.731033E+04 -4.855371E+02
       499  21 -3.001665E+06 -6.007645E+04 -1.137541E+05  2.953407E+04 -6.509233E+04 -1.172152E+03
       499  22 -2.940556E+06 -2.725177E+03 -4.314882E+04  2.223885E+04 -9.849095E+03  6.379098E+02
       499  23 -2.930164E+06  1.072724E+04 -5.322813E+04 -3.754307E+03 -3.752881E+04 -4.854059E+02
       499  24 -2.940630E+06 -4.480057E+04 -9.862836E+04  2.223034E+04 -6.520868E+04 -1.171355E+03
       499  25 -2.945848E+06 -4.033830E+03 -4.437698E+04  2.644847E+04 -1.017117E+04  6.378767E+02
       499  26 -2.902302E+06  1.770068E+04 -4.631647E+04 -5.301462E+03 -3.774729E+04 -4.852736E+02
       499  27 -2.879592E+06 -2.952476E+04 -8.350283E+04  1.492589E+04 -6.532504E+04 -1.170556E+03
       500   1 -3.150636E+06 -3.557382E+04 -1.640652E+05 -3.728008E+03  8.368626E+04  2.425542E+03
       500   2 -3.118702E+06  1.415422E+04 -2.306715E+05  1.143215E+04  1.809894E+05  3.792813E+03
       500   3 -3.209628E+06 -3.772706E+05 -4.710686E+05  7.218423E+04  2.782884E+05  1.235810E+03
       500   4 -2.963143E+06  1.136406E+04 -1.174165E+05  2.089529E+04  8.450832E+04  2.428608E+03
       500   5 -2.902042E+06  6.839690E+04 -1.769249E+05 -2.033837E+03  1.809005E+05  3.788859E+03
       500   6 -2.963599E+06 -3.154859E+05 -4.095435E+05  2.063308E+04  2.772931E+05  1.213443E+03
       500   7 -2.775617E+06  5.830158E+04 -7.077017E+04  4.552607E+04  8.533063E+04  2.431739E+03
       500   8 -2.685339E+06  1.226367E+05 -1.231816E+05 -1.550455E+04  1.808114E+05  3.784910E+03
       500   9 -2.717509E+06 -2.536957E+05 -3.480215E+05 -3.093859E+04  2.762974E+05  1.191250E+03
       500  10 -3.150644E+06 -3.557572E+04 -1.640785E+05 -3.728171E+03 -3.464854E-10 -6.406738E-10
       500  11 -3.118737E+06  1.414535E+04 -2.307334E+05  1.143160E+04  1.354908E-10  4.586902E-10
       500  12 -3.209711E+06 -3.772916E+05 -4.712149E+05  7.218395E+04  3.923140E-10  2.488204E-10
       500  13 -2.963151E+06  1.136212E+04 -1.174300E+05  2.089513E+04 -9.121652E-10 -7.599123E-10
       500  14 -2.902077E+06  6.838805E+04 -1.769867E+05 -2.034390E+03  7.188960E-10  3.553295E-10
       500  15 -2.963682E+06 -3.155066E+05 -4.096887E+05  2.063281E+04 -7.874062E-10  8.105830E-10
       500  16 -2.775625E+06  5.829960E+04 -7.078393E+04  4.552590E+04 -3.364721E-10 -5.542715E-10
       500  17 -2.685375E+06  1.226279E+05 -1.232434E+05 -1.550510E+04 -1.712385E-10 -1.618401E-09
       500  18 -2.717592E+06 -2.537163E+05 -3.481656E+05 -3.093886E+04  6.928136E-11 -2.866867E-10
       500  19 -3.150636E+06 -3.557382E+04 -1.640652E+05 -3.728008E+03 -8.368626E+04 -2.425542E+03
       500  20 -3.118702E+06  1.415422E+04 -2.306715E+05  1.143215E+04 -1.809894E+05 -3.792813E+03
       500  21 -3.209628E+06 -3.772706E+05 -4.710686E+05  7.218423E+04 -2.782884E+05 -1.235810E+03
       500  22 -2.963143E+06  1.136406E+04 -1.174165E+05  2.089529E+04 -8.450832E+04 -2.428608E+03
       500  23 -2.902042E+06  6.839690E+04 -1.769249E+05 -2.033837E+03 -1.809005E+05 -3.788859E+03
       500  24 -2.963599E+06 -3.154859E+05 -4.095435E+05  2.063308E+04 -2.772931E+05 -1.213443E+03
       500  25 -2.775617E+06  5.830158E+04 -7.077017E+04  4.552607E+04 -8.533063E+04 -2.431739E+03
       500  26 -2.685339E+06  1.226367E+05 -1.231816E+05 -1.550455E+04 -1.808114E+05 -3.784910E+03
       500  27 -2.717509E+06 -2.536957E+05 -3.480215E+05 -3.093859E+04 -2.762974E+05 -1.191250E+03
       501   1 -1.285765E+06 -1.747645E+04 -4.952920E+04  1.534288E+03 -9.012670E+04 -1.966885E+03
       501   2 -1.293669E+06  1.036761E+05  1.960816E+04 -7.497709E+03 -5.849772E+04 -5.685960E+03
       501   3 -1.342084E+06  7.710017E+04  3.131018E+04  2.741371E+04 -2.686838E+04 -4.199086E+03
       501   4 -1.637230E+06 -1.054586E+05 -1.372291E+05  1.901039E+04 -9.160048E+04 -1.968307E+03
       501   5 -1.616815E+06  2.293509E+04 -6.041829E+04 -2.921590E+03 -5.874086E+04 -5.686476E+03
       501   6 -1.637149E+06  3.343652E+03 -4.192247E+04  1.909167E+04 -2.587940E+04 -4.198824E+03
       501   7 -1.988581E+06 -1.934489E+05 -2.249381E+05  3.647659E+04 -9.307342E+04 -1.969814E+03
       501   8 -1.939866E+06 -5.781372E+04 -1.404525E+05  1.652150E+03 -5.898387E+04 -5.686995E+03
       501   9 -1.932135E+06 -7.041916E+04 -1.151616E+05  1.077360E+04 -2.489089E+04 -4.198588E+03
       501  10 -1.285774E+06 -1.747864E+04 -4.954451E+04  1.534146E+03  3.843698E-10 -6.234635E-10
       501  11 -1.293673E+06  1.036752E+05  1.960165E+04 -7.497977E+03  7.359335E-10 -3.483450E-10
       501  12 -1.342085E+06  7.709996E+04  3.130879E+04  2.741362E+04 -7.636056E-11  1.227929E-09
       501  13 -1.637239E+06 -1.054608E+05 -1.372449E+05  1.901024E+04 -1.461198E-09 -7.362367E-10
       501  14 -1.616819E+06  2.293412E+04 -6.042485E+04 -2.921859E+03  4.790321E-10 -2.350282E-10
       501  15 -1.637150E+06  3.343452E+03 -4.192376E+04  1.909159E+04  6.918893E-10  7.295231E-10
       501  16 -1.988591E+06 -1.934512E+05 -2.249544E+05  3.647645E+04 -1.130972E-09 -6.115942E-10
       501  17 -1.939869E+06 -5.781469E+04 -1.404591E+05  1.651879E+03 -1.272721E-09 -1.312845E-10
       501  18 -1.932136E+06 -7.041934E+04 -1.151628E+05  1.077352E+04  3.140204E-10  4.610620E-10
       501  19 -1.285765E+06 -1.747645E+04 -4.952920E+04  1.534288E+03  9.012670E+04  1.966885E+03
       501  20 -1.293669E+06  1.036761E+05  1.960816E+04 -7.497709E+03  5.849772E+04  5.685960E+03
       501  21 -1.342084E+06  7.710017E+04  3.131018E+04  2.741371E+04  2.686838E+04  4.199086E+03
       501  22 -1.637230E+06 -1.054586E+05 -1.372291E+05  1.901039E+04  9.160048E+04  1.968307E+03
       501  23 -1.616815E+06  2.293509E+04 -6.041829E+04 -2.921590E+03  5.874086E+04  5.686476E+03
       501  24 -1.637149E+06  3.343652E+03 -4.192247E+04  1.909167E+04  2.587940E+04  4.198824E+03
       501  25 -1.988581E+06 -1.934489E+05 -2.249381E+05  3.647659E+04  9.307342E+04  1.969814E+03
       501  26 -1.939866E+06 -5.781372E+04 -1.404525E+05  1.652150E+03  5.898387E+04  5.686995E+03
       501  27 -1.932135E+06 -7.041916E+04 -1.151616E+05  1.077360E+04  2.489089E+04  4.198588E+03
       502   1 -1.455765E+06  2.867214E+04  6.677623E+03  1.780776E+04 -1.889837E+04 -2.777100E+03
       502   2 -1.483734E+06  3.980843E+04  1.131198E+04 -5.094095E+03 -6.697397E+03 -2.295790E+03
       502   3 -1.520178E+06  2.320344E+04  1.065275E+03  2.244198E+04  5.502433E+03 -1.128346E+03
       502   4 -1.629987E+06 -1.486989E+04 -3.651923E+04  2.051391E+04 -1.886241E+04 -2.777225E+03
       502   5 -1.625731E+06  4.320109E+03 -2.389038E+04 -4.705816E+03 -6.499984E+03 -2.295756E+03
       502   6 -1.629981E+06 -4.262689E+03 -2.625751E+04  2.051319E+04  5.861925E+03 -1.128173E+03
       502   7 -1.804182E+06 -5.841418E+04 -7.971836E+04  2.321930E+04 -1.882645E+04 -2.777351E+03
       502   8 -1.767710E+06 -3.116973E+04 -5.909425E+04 -4.317626E+03 -6.302616E+03 -2.295722E+03
       502   9 -1.739774E+06 -3.172971E+04 -5.358120E+04  1.858474E+04  6.221354E+03 -1.128003E+03
       502  10 -1.455766E+06  2.867204E+04  6.676936E+03  1.780772E+04  2.809963E-10  5.019713E-10
       502  11 -1.483734E+06  3.980841E+04  1.131189E+04 -5.094108E+03 -5.009712E-10 -8.131674E-11
       502  12 -1.520178E+06  2.320343E+04  1.065216E+03  2.244198E+04 -8.188818E-10  5.973491E-10
       502  13 -1.629988E+06 -1.487000E+04 -3.651992E+04  2.051387E+04 -4.301170E-11  1.270008E-11
       502  14 -1.625731E+06  4.320092E+03 -2.389047E+04 -4.705828E+03 -1.321759E-09 -4.050384E-11
       502  15 -1.629981E+06 -4.262700E+03 -2.625758E+04  2.051320E+04  9.320472E-10  4.282047E-10
       502  16 -1.804182E+06 -5.841429E+04 -7.971904E+04  2.321925E+04  9.748453E-11  4.737115E-10
       502  17 -1.767710E+06 -3.116974E+04 -5.909433E+04 -4.317638E+03  1.346600E-09 -6.912763E-10
       502  18 -1.739774E+06 -3.172972E+04 -5.358128E+04  1.858475E+04  6.590763E-10  3.239692E-10
       502  19 -1.455765E+06  2.867214E+04  6.677623E+03  1.780776E+04  1.889837E+04  2.777100E+03
       502  20 -1.483734E+06  3.980843E+04  1.131198E+04 -5.094095E+03  6.697397E+03  2.295790E+03
       502  21 -1.520178E+06  2.320344E+04  1.065275E+03  2.244198E+04 -5.502433E+03  1.128346E+03
       502  22 -1.629987E+06 -1.486989E+04 -3.651923E+04  2.051391E+04  1.886241E+04  2.777225E+03
       502  23 -1.625731E+06  4.320109E+03 -2.389038E+04 -4.705816E+03  6.499984E+03  2.295756E+03
       502  24 -1.629981E+06 -4.262689E+03 -2.625751E+04  2.051319E+04 -5.861925E+03  1.128173E+03
       502  25 -1.804182E+06 -5.841418E+04 -7.971836E+04  2.321930E+04  1.882645E+04  2.777351E+03
       502  26 -1.767710E+06 -3.116973E+04 -5.909425E+04 -4.317626E+03  6.302616E+03  2.295722E+03
       502  27 -1.739774E+06 -3.172971E+04 -5.358120E+04  1.858474E+04 -6.221354E+03  1.128003E+03
       503   1 -1.652090E+06 -6.007084E+03 -3.390519E+04  1.772143E+04  1.046784E+04 -2.350258E+02
       503   2 -1.677379E+06 -5.476821E+03 -5.172786E+04 -3.848982E+03  3.061296E+04  9.126565E+02
       503   3 -1.718068E+06 -5.579167E+04 -9.541329E+04  2.622964E+04  5.075728E+04  1.564831E+03
       503   4 -1.631501E+06 -8.384658E+02 -2.870998E+04  2.077695E+04  1.079985E+04 -2.347759E+02
       503   5 -1.623828E+06  7.905983E+03 -3.845569E+04 -5.040145E+03  3.082773E+04  9.127007E+02
       503   6 -1.631533E+06 -3.417158E+04 -7.398037E+04  2.079174E+04  5.085588E+04  1.564415E+03
       503   7 -1.610911E+06  4.330155E+03 -2.351479E+04  2.383257E+04  1.113187E+04 -2.345227E+02
       503   8 -1.570274E+06  2.128858E+04 -2.518373E+04 -6.231411E+03  3.104252E+04  9.127441E+02
       503   9 -1.544991E+06 -1.255194E+04 -5.254800E+04  1.535309E+04  5.095449E+04  1.563997E+03
       503  10 -1.652090E+06 -6.007114E+03 -3.390540E+04  1.772143E+04  3.190560E-11  7.991569E-10
       503  11 -1.677380E+06 -5.477074E+03 -5.172963E+04 -3.849004E+03  4.909863E-11 -7.535022E-10
       503  12 -1.718071E+06 -5.579237E+04 -9.541815E+04  2.622957E+04  1.003777E-10 -2.257195E-10
       503  13 -1.631501E+06 -8.384973E+02 -2.871020E+04  2.077695E+04 -1.932790E-10  7.401077E-10
       503  14 -1.623829E+06  7.905726E+03 -3.845748E+04 -5.040167E+03 -3.572257E-10 -1.301619E-09
       503  15 -1.631536E+06 -3.417228E+04 -7.398525E+04  2.079168E+04  1.161509E-09 -7.695732E-10
       503  16 -1.610912E+06  4.330122E+03 -2.351502E+04  2.383257E+04  8.143798E-11  8.358812E-10
       503  17 -1.570275E+06  2.128832E+04 -2.518554E+04 -6.231434E+03  1.149021E-09 -5.943275E-10
       503  18 -1.544993E+06 -1.255264E+04 -5.255290E+04  1.535303E+04  3.061900E-10  9.545264E-11
       503  19 -1.652090E+06 -6.007084E+03 -3.390519E+04  1.772143E+04 -1.046784E+04  2.350258E+02
       503  20 -1.677379E+06 -5.476821E+03 -5.172786E+04 -3.848982E+03 -3.061296E+04 -9.126565E+02
       503  21 -1.718068E+06 -5.579167E+04 -9.541329E+04  2.622964E+04 -5.075728E+04 -1.564831E+03
       503  22 -1.631501E+06 -8.384658E+02 -2.870998E+04  2.077695E+04 -1.079985E+04  2.347759E+02
       503  23 -1.623828E+06  7.905983E+03 -3.845569E+04 -5.040145E+03 -3.082773E+04 -9.127007E+02
       503  24 -1.631533E+06 -3.417158E+04 -7.398037E+04  2.079174E+04 -5.085588E+04 -1.564415E+03
       503  25 -1.610911E+06  4.330155E+03 -2.351479E+04  2.383257E+04 -1.113187E+04  2.345227E+02
       503  26 -1.570274E+06  2.128858E+04 -2.518373E+04 -6.231411E+03 -3.104252E+04 -9.127441E+02
       503  27 -1.544991E+06 -1.255194E+04 -5.254800E+04  1.535309E+04 -5.095449E+04 -1.563997E+03
       504   1 -1.862140E+06 -4.450354E+04 -1.416017E+05  9.902291E+02  6.451790E+04  2.885504E+03
       504   2 -1.845880E+06 -8.803857E+03 -1.948569E+05  6.314876E+03  1.388386E+05  4.357259E+03
       504   3 -1.923102E+06 -3.091145E+05 -3.805381E+05  5.907316E+04  2.131561E+05  1.554037E+03
       504   4 -1.648804E+06  8.860965E+03 -8.860555E+04  1.985644E+04  6.539311E+04  2.887707E+03
       504   5 -1.602261E+06  5.208017E+04 -1.345116E+05 -3.891605E+03  1.387141E+05  4.354858E+03
       504   6 -1.648990E+06 -2.404686E+05 -3.121092E+05  1.979659E+04  2.120357E+05  1.540785E+03
       504   7 -1.435425E+06  6.222339E+04 -3.561262E+04  3.872916E+04  6.626862E+04  2.889963E+03
       504   8 -1.358589E+06  1.129601E+05 -7.417073E+04 -1.410211E+04  1.385896E+05  4.352461E+03
       504   9 -1.374806E+06 -1.718226E+05 -2.436851E+05 -1.949737E+04  2.109148E+05  1.527682E+03
       504  10 -1.862145E+06 -4.450467E+04 -1.416096E+05  9.900790E+02  1.872872E-10  2.247126E-10
       504  11 -1.845901E+06 -8.809071E+03 -1.948933E+05  6.314388E+03  7.784942E-10 -4.790814E-10
       504  12 -1.923150E+06 -3.091268E+05 -3.806237E+05  5.907290E+04  1.066025E-10 -2.661971E-10
       504  13 -1.648809E+06  8.859804E+03 -8.861362E+04  1.985629E+04 -1.234593E-10 -4.569169E-10
       504  14 -1.602282E+06  5.207497E+04 -1.345479E+05 -3.892092E+03  8.269679E-10  3.150416E-10
       504  15 -1.649038E+06 -2.404807E+05 -3.121939E+05  1.979633E+04  2.594549E-10  3.274882E-11
       504  16 -1.435430E+06  6.222220E+04 -3.562091E+04  3.872901E+04  1.640533E-10 -1.006825E-09
       504  17 -1.358609E+06  1.129549E+05 -7.420694E+04 -1.410259E+04 -3.818113E-10 -1.413591E-09
       504  18 -1.374854E+06 -1.718346E+05 -2.437689E+05 -1.949763E+04  2.734193E-10 -3.312540E-10
       504  19 -1.862140E+06 -4.450354E+04 -1.416017E+05  9.902291E+02 -6.451790E+04 -2.885504E+03
       504  20 -1.845880E+06 -8.803857E+03 -1.948569E+05  6.314876E+03 -1.388386E+05 -4.357259E+03
       504  21 -1.923102E+06 -3.091145E+05 -3.805381E+05  5.907316E+04 -2.131561E+05 -1.554037E+03
       504  22 -1.648804E+06  8.860965E+03 -8.860555E+04  1.985644E+04 -6.539311E+04 -2.887707E+03
       504  23 -1.602261E+06  5.208017E+04 -1.345116E+05 -3.891605E+03 -1.387141E+05 -4.354858E+03
       504  24 -1.648990E+06 -2.404686E+05 -3.121092E+05  1.979659E+04 -2.120357E+05 -1.540785E+03
       504  25 -1.435425E+06  6.222339E+04 -3.561262E+04  3.872916E+04 -6.626862E+04 -2.889963E+03
       504  26 -1.358589E+06  1.129601E+05 -7.417073E+04 -1.410211E+04 -1.385896E+05 -4.352461E+03
       504  27 -1.374806E+06 -1.718226E+05 -2.436851E+05 -1.949737E+04 -2.109148E+05 -1.527682E+03
       505   1  4.920912E+05  1.267892E+05  1.406593E+05  2.787979E+04  4.487077E+04 -1.830726E+03
       505   2  4.517985E+05  6.056818E+04  9.609283E+04 -1.823439E+03  2.961388E+04 -5.032018E+03
       505   3  4.305725E+05  6.113703E+04  7.822802E+04  1.648443E+04  1.435744E+04 -3.534443E+03
       505   4  1.768482E+05  4.807214E+04  6.216627E+04  2.012492E+04  4.352252E+04 -1.831009E+03
       505   5  1.674080E+05 -1.034746E+04  2.580793E+04 -3.886513E+03  2.940053E+04 -5.032280E+03
       505   6  1.768464E+05 -2.157555E+03  1.537317E+04  2.011425E+04  1.527823E+04 -3.534021E+03
       505   7 -1.383047E+05 -3.065213E+04 -1.633423E+04  1.237400E+04  4.217495E+04 -1.831259E+03
       505   8 -1.169090E+05 -8.126913E+04 -4.448297E+04 -5.948642E+03  2.918728E+04 -5.032541E+03
       505   9 -7.682120E+04 -6.545691E+04 -4.748646E+04  2.374257E+04  1.619865E+04 -3.533588E+03
       505  10  4.920891E+05  1.267886E+05  1.406556E+05  2.787985E+04  2.292696E-10 -8.150827E-10
       505  11  4.517975E+05  6.056792E+04  9.609114E+04 -1.823319E+03 -1.796082E-10 -1.915682E-09
       505  12  4.305722E+05  6.113696E+04  7.822761E+04  1.648447E+04 -7.150686E-10  2.269025E-10
       505  13  1.768461E+05  4.807162E+04  6.216270E+04  2.012498E+04 -1.245454E-09  1.590788E-10
       505  14  1.674071E+05 -1.034772E+04  2.580626E+04 -3.886393E+03 -5.268820E-10 -2.607627E-10
       505  15  1.768461E+05 -2.157631E+03  1.537271E+04  2.011429E+04  1.518686E-09 -5.936331E-11
       505  16 -1.383066E+05 -3.065261E+04 -1.633758E+04  1.237406E+04 -8.805890E-10 -1.258968E-10
       505  17 -1.169099E+05 -8.126938E+04 -4.448462E+04 -5.948524E+03  4.804618E-10 -1.855318E-11
       505  18 -7.682149E+04 -6.545699E+04 -4.748698E+04  2.374262E+04  9.614403E-10 -4.282179E-11
       505  19  4.920912E+05  1.267892E+05  1.406593E+05  2.787979E+04 -4.487077E+04  1.830726E+03
       505  20  4.517985E+05  6.056818E+04  9.609283E+04 -1.823439E+03 -2.961388E+04  5.032018E+03
       505  21  4.305725E+05  6.113703E+04  7.822802E+04  1.648443E+04 -1.435744E+04  3.534443E+03
       505  22  1.768482E+05  4.807214E+04  6.216627E+04  2.012492E+04 -4.352252E+04  1.831009E+03
       505  23  1.674080E+05 -1.034746E+04  2.580793E+04 -3.886513E+03 -2.940053E+04  5.032280E+03
       505  24  1.768464E+05 -2.157555E+03  1.537317E+04  2.011425E+04 -1.527823E+04  3.534021E+03
       505  25 -1.383047E+05 -3.065213E+04 -1.633423E+04  1.237400E+04 -4.217495E+04  1.831259E+03
       505  26 -1.169090E+05 -8.126913E+04 -4.448297E+04 -5.948642E+03 -2.918728E+04  5.032541E+03
       505  27 -7.682120E+04 -6.545691E+04 -4.748646E+04  2.374257E+04 -1.619865E+04  3.533588E+03
       506   1  3.063860E+05  4.020029E+04  4.464388E+04  2.088778E+04  1.280276E+04 -2.169945E+03
       506   2  2.752055E+05  2.476688E+04  2.775543E+04 -3.362829E+03  1.142360E+04 -1.659885E+03
       506   3  2.456707E+05  1.532493E+04  1.325545E+04  1.986008E+04  1.004379E+04 -5.959413E+02
       506   4  1.730261E+05  6.936251E+03  1.165316E+04  1.999255E+04  1.285726E+04 -2.169959E+03
       506   5  1.722146E+05 -9.228494E+02  2.274751E+03 -3.741179E+03  1.161146E+04 -1.659774E+03
       506   6  1.730253E+05 -2.812918E+03 -4.807105E+03  1.999908E+04  1.036496E+04 -5.956649E+02
       506   7  3.968243E+04 -2.632912E+04 -2.133887E+04  1.909751E+04  1.291174E+04 -2.169973E+03
       506   8  6.923327E+04 -2.661337E+04 -2.320671E+04 -4.119467E+03  1.179929E+04 -1.659663E+03
       506   9  1.003847E+05 -2.095116E+04 -2.287005E+04  2.013807E+04  1.068609E+04 -5.953883E+02
       506  10  3.063858E+05  4.020024E+04  4.464356E+04  2.088781E+04 -7.462613E-10  5.809444E-10
       506  11  2.752054E+05  2.476684E+04  2.775518E+04 -3.362814E+03 -4.891448E-10 -8.353870E-10
       506  12  2.456706E+05  1.532490E+04  1.325526E+04  1.986009E+04  3.122002E-10  3.383854E-10
       506  13  1.730260E+05  6.936202E+03  1.165285E+04  1.999257E+04  2.713052E-10 -4.667359E-10
       506  14  1.722144E+05 -9.228885E+02  2.274492E+03 -3.741163E+03 -6.098085E-10 -1.975713E-09
       506  15  1.730252E+05 -2.812947E+03 -4.807307E+03  1.999909E+04  1.543830E-09  5.414924E-10
       506  16  3.968225E+04 -2.632917E+04 -2.133919E+04  1.909753E+04  6.726741E-10 -3.263175E-10
       506  17  6.923312E+04 -2.661341E+04 -2.320698E+04 -4.119451E+03 -2.656210E-10 -5.890503E-10
       506  18  1.003846E+05 -2.095119E+04 -2.287026E+04  2.013807E+04 -5.204013E-11  2.510464E-10
       506  19  3.063860E+05  4.020029E+04  4.464388E+04  2.088778E+04 -1.280276E+04  2.169945E+03
       506  20  2.752055E+05  2.476688E+04  2.775543E+04 -3.362829E+03 -1.142360E+04  1.659885E+03
       506  21  2.456707E+05  1.532493E+04  1.325545E+04  1.986008E+04 -1.004379E+04  5.959413E+02
       506  22  1.730261E+05  6.936251E+03  1.165316E+04  1.999255E+04 -1.285726E+04  2.169959E+03
       506  23  1.722146E+05 -9.228494E+02  2.274751E+03 -3.741179E+03 -1.161146E+04  1.659774E+03
       506  24  1.730253E+05 -2.812918E+03 -4.807105E+03  1.999908E+04 -1.036496E+04  5.956649E+02
       506  25  3.968243E+04 -2.632912E+04 -2.133887E+04  1.909751E+04 -1.291174E+04  2.169973E+03
       506  26  6.923327E+04 -2.661337E+04 -2.320671E+04 -4.119467E+03 -1.179929E+04  1.659663E+03
       506  27  1.003847E+05 -2.095116E+04 -2.287005E+04  2.013807E+04 -1.068609E+04  5.953883E+02
       507   1  1.240745E+05 -1.006086E+04 -1.972662E+04  1.861291E+04  1.120361E+04  2.199813E+02
       507   2  9.738439E+04 -1.551557E+04 -3.594516E+04 -3.069027E+03  2.013040E+04  1.279361E+03
       507   3  6.341784E+04 -4.519209E+04 -6.404291E+04  2.269846E+04  2.905721E+04  1.833709E+03
       507   4  1.710530E+05  1.678250E+03 -8.016100E+03  1.998540E+04  1.151751E+04  2.202790E+02
       507   5  1.746828E+05  3.765356E+03 -1.682103E+04 -3.732322E+03  2.032413E+04  1.279475E+03
       507   6  1.710571E+05 -1.834671E+04 -3.742033E+04  1.999914E+04  2.913119E+04  1.833610E+03
       507   7  2.180335E+05  1.341720E+04  3.694253E+03  2.135799E+04  1.183145E+04  2.205781E+02
       507   8  2.519866E+05  2.304584E+04  2.302660E+03 -4.395701E+03  2.051788E+04  1.279588E+03
       507   9  2.787069E+05  8.497825E+03 -1.079859E+04  1.729935E+04  2.920519E+04  1.833511E+03
       507  10  1.240743E+05 -1.006089E+04 -1.972685E+04  1.861290E+04 -7.527694E-10 -1.211421E-10
       507  11  9.738396E+04 -1.551568E+04 -3.594593E+04 -3.069048E+03 -5.352925E-10  5.887112E-10
       507  12  6.341693E+04 -4.519232E+04 -6.404451E+04  2.269841E+04 -3.127659E-10 -4.412782E-11
       507  13  1.710529E+05  1.678214E+03 -8.016349E+03  1.998539E+04 -1.040579E-10  6.125575E-10
       507  14  1.746823E+05  3.765243E+03 -1.682181E+04 -3.732343E+03 -9.964953E-10 -1.578275E-09
       507  15  1.710562E+05 -1.834695E+04 -3.742193E+04  1.999909E+04  6.978936E-10  3.262849E-10
       507  16  2.180334E+05  1.341716E+04  3.693990E+03  2.135799E+04  4.348618E-10 -2.798970E-10
       507  17  2.519862E+05  2.304572E+04  2.301866E+03 -4.395722E+03  1.768810E-09 -4.293042E-10
       507  18  2.787060E+05  8.497592E+03 -1.080020E+04  1.729931E+04  1.616936E-10 -5.040379E-10
       507  19  1.240745E+05 -1.006086E+04 -1.972662E+04  1.861291E+04 -1.120361E+04 -2.199813E+02
       507  20  9.738439E+04 -1.551557E+04 -3.594516E+04 -3.069027E+03 -2.013040E+04 -1.279361E+03
       507  21  6.341784E+04 -4.519209E+04 -6.404291E+04  2.269846E+04 -2.905721E+04 -1.833709E+03
       507  22  1.710530E+05  1.678250E+03 -8.016100E+03  1.998540E+04 -1.151751E+04 -2.202790E+02
       507  23  1.746828E+05  3.765356E+03 -1.682103E+04 -3.732322E+03 -2.032413E+04 -1.279475E+03
       507  24  1.710571E+05 -1.834671E+04 -3.742033E+04  1.999914E+04 -2.913119E+04 -1.833610E+03
       507  25  2.180335E+05  1.341720E+04  3.694253E+03  2.135799E+04 -1.183145E+04 -2.205781E+02
       507  26  2.519866E+05  2.304584E+04  2.302660E+03 -4.395701E+03 -2.051788E+04 -1.279588E+03
       507  27  2.787069E+05  8.497825E+03 -1.079859E+04  1.729935E+04 -2.920519E+04 -1.833511E+03
       508   1 -6.617544E+04 -5.181208E+04 -1.022409E+05  9.922383E+03  3.569380E+04  3.147167E+03
       508   2 -7.195314E+04 -3.666869E+04 -1.351483E+05  1.588687E+03  7.562726E+04  4.607505E+03
       508   3 -1.274701E+05 -2.008817E+05 -2.388328E+05  4.107890E+04  1.155605E+05  1.665129E+03
       508   4  1.616451E+05  5.056563E+03 -4.577302E+04  2.007128E+04  3.657737E+04  3.148164E+03
       508   5  1.864241E+05  2.777521E+04 -7.127328E+04 -3.844762E+03  7.546825E+04  4.606683E+03
       508   6  1.616666E+05 -1.286418E+05 -1.668045E+05  2.006293E+04  1.143609E+05  1.661283E+03
       508   7  3.895129E+05  6.192171E+04  1.069102E+04  3.022390E+04  3.746126E+04  3.149191E+03
       508   8  4.448621E+05  9.221424E+04 -7.403191E+03 -9.280478E+03  7.530918E+04  4.605865E+03
       508   9  4.508801E+05 -5.640658E+04 -9.478219E+04 -9.628364E+02  1.131608E+05  1.657520E+03
       508  10 -6.617681E+04 -5.181244E+04 -1.022433E+05  9.922292E+03 -3.301693E-10  7.726839E-10
       508  11 -7.195929E+04 -3.667025E+04 -1.351591E+05  1.588406E+03 -3.821865E-10  8.133119E-10
       508  12 -1.274845E+05 -2.008853E+05 -2.388579E+05  4.107874E+04 -1.002036E-10  8.155481E-10
       508  13  1.616436E+05  5.056193E+03 -4.577556E+04  2.007119E+04  3.335351E-10  8.576379E-10
       508  14  1.864180E+05  2.777366E+04 -7.128402E+04 -3.845042E+03  2.742166E-10  8.306161E-10
       508  15  1.616525E+05 -1.286453E+05 -1.668291E+05  2.006277E+04 -6.987140E-11 -7.313367E-11
       508  16  3.895114E+05  6.192132E+04  1.068837E+04  3.022381E+04  8.635908E-10  5.644854E-10
       508  17  4.448560E+05  9.221270E+04 -7.413882E+03 -9.280758E+03  1.179125E-09  1.954857E-10
       508  18  4.508663E+05 -5.641001E+04 -9.480624E+04 -9.629875E+02  1.046966E-10  2.155100E-10
       508  19 -6.617544E+04 -5.181208E+04 -1.022409E+05  9.922383E+03 -3.569380E+04 -3.147167E+03
       508  20 -7.195314E+04 -3.666869E+04 -1.351483E+05  1.588687E+03 -7.562726E+04 -4.607505E+03
       508  21 -1.274701E+05 -2.008817E+05 -2.388328E+05  4.107890E+04 -1.155605E+05 -1.665129E+03
       508  22  1.616451E+05  5.056563E+03 -4.577302E+04  2.007128E+04 -3.657737E+04 -3.148164E+03
       508  23  1.864241E+05  2.777521E+04 -7.127328E+04 -3.844762E+03 -7.546825E+04 -4.606683E+03
       508  24  1.616666E+05 -1.286418E+05 -1.668045E+05  2.006293E+04 -1.143609E+05 -1.661283E+03
       508  25  3.895129E+05  6.192171E+04  1.069102E+04  3.022390E+04 -3.746126E+04 -3.149191E+03
       508  26  4.448621E+05  9.221424E+04 -7.403191E+03 -9.280478E+03 -7.530918E+04 -4.605865E+03
       508  27  4.508801E+05 -5.640658E+04 -9.478219E+04 -9.628364E+02 -1.131608E+05 -1.657520E+03
       509   1  2.843300E+06  3.227300E+05  3.954586E+05  6.305056E+04  2.185889E+05 -1.800053E+03
       509   2  2.761530E+06  1.657082E+04  2.051474E+05  6.781924E+03  1.430729E+05 -4.904019E+03
       509   3  2.775132E+06  5.173754E+04  1.492492E+05  3.902934E+03  6.755860E+04 -3.358682E+03
       509   4  2.529578E+06  2.446034E+05  3.175542E+05  2.299305E+04  2.172122E+05 -1.814049E+03
       509   5  2.482121E+06 -5.293190E+04  1.362731E+05 -3.706929E+03  1.428481E+05 -4.906610E+03
       509   6  2.529881E+06 -9.260295E+03  8.865569E+04  2.298064E+04  6.848131E+04 -3.356115E+03
       509   7  2.215950E+06  1.664755E+05  2.396433E+05 -1.704430E+04  2.158362E+05 -1.827874E+03
       509   8  2.202783E+06 -1.224400E+05  6.739318E+04 -1.419108E+04  1.426233E+05 -4.909194E+03
       509   9  2.284685E+06 -7.026123E+04  2.805794E+04  4.205083E+04  6.940366E+04 -3.353490E+03
       509  10  2.843249E+06  3.227173E+05  3.953692E+05  6.305088E+04 -1.314667E-10  5.084960E-10
       509  11  2.761508E+06  1.656533E+04  2.051091E+05  6.782488E+03 -1.337368E-09  3.248237E-10
       509  12  2.775127E+06  5.173631E+04  1.492406E+05  3.903116E+03 -6.006474E-10  6.351738E-10
       509  13  2.529528E+06  2.445908E+05  3.174659E+05  2.299336E+04 -5.928358E-10  9.493662E-10
       509  14  2.482099E+06 -5.293737E+04  1.362349E+05 -3.706365E+03 -1.993688E-09  2.793878E-10
       509  15  2.529876E+06 -9.261560E+03  8.864689E+04  2.298083E+04  9.474036E-10  3.583900E-10
       509  16  2.215900E+06  1.664630E+05  2.395561E+05 -1.704399E+04 -2.827191E-10  3.943372E-10
       509  17  2.202761E+06 -1.224455E+05  6.735504E+04 -1.419052E+04  9.860576E-10  1.298383E-09
       509  18  2.284680E+06 -7.026253E+04  2.804890E+04  4.205102E+04 -1.821884E-10  2.110814E-11
       509  19  2.843300E+06  3.227300E+05  3.954586E+05  6.305056E+04 -2.185889E+05  1.800053E+03
       509  20  2.761530E+06  1.657082E+04  2.051474E+05  6.781924E+03 -1.430729E+05  4.904019E+03
       509  21  2.775132E+06  5.173754E+04  1.492492E+05  3.902934E+03 -6.755860E+04  3.358682E+03
       509  22  2.529578E+06  2.446034E+05  3.175542E+05  2.299305E+04 -2.172122E+05  1.814049E+03
       509  23  2.482121E+06 -5.293190E+04  1.362731E+05 -3.706929E+03 -1.428481E+05  4.906610E+03
       509  24  2.529881E+06 -9.260295E+03  8.865569E+04  2.298064E+04 -6.848131E+04  3.356115E+03
       509  25  2.215950E+06  1.664755E+05  2.396433E+05 -1.704430E+04 -2.158362E+05  1.827874E+03
       509  26  2.202783E+06 -1.224400E+05  6.739318E+04 -1.419108E+04 -1.426233E+05  4.909194E+03
       509  27  2.284685E+06 -7.026123E+04  2.805794E+04  4.205083E+04 -6.940366E+04  3.353490E+03
       510   1  2.634513E+06  6.535443E+04  1.034188E+05  2.670399E+04  5.389818E+04 -1.974008E+03
       510   2  2.598023E+06  1.566787E+04  5.840393E+04 -2.230376E+02  3.529372E+04 -1.477957E+03
       510   3  2.576059E+06  1.470057E+04  3.763235E+04  1.850965E+04  1.668989E+04 -4.852458E+02
       510   4  2.511881E+06  3.483681E+04  7.316172E+04  2.123925E+04  5.395478E+04 -1.974457E+03
       510   5  2.504655E+06 -7.563973E+03  3.536327E+04 -1.577107E+03  3.547322E+04 -1.477892E+03
       510   6  2.511937E+06 -1.262455E+03  2.172673E+04  2.126643E+04  1.699142E+04 -4.848772E+02
       510   7  2.389262E+06  4.318178E+03  4.290356E+04  1.577558E+04  5.401136E+04 -1.974907E+03
       510   8  2.411295E+06 -3.079645E+04  1.232197E+04 -2.930975E+03  3.565270E+04 -1.477828E+03
       510   9  2.447818E+06 -1.722576E+04  5.820803E+03  2.402292E+04  1.729293E+04 -4.845059E+02
       510  10  2.634510E+06  6.535365E+04  1.034134E+05  2.670408E+04 -1.999149E-09 -5.358186E-10
       510  11  2.598022E+06  1.566753E+04  5.840159E+04 -2.229957E+02  7.108511E-10  5.797304E-10
       510  12  2.576059E+06  1.470050E+04  3.763183E+04  1.850966E+04 -1.436279E-10 -1.738264E-10
       510  13  2.511878E+06  3.483603E+04  7.315627E+04  2.123934E+04  9.873028E-10 -3.556304E-10
       510  14  2.504654E+06 -7.564312E+03  3.536091E+04 -1.577065E+03 -7.146393E-10 -1.241127E-09
       510  15  2.511936E+06 -1.262532E+03  2.172619E+04  2.126644E+04  9.374359E-10 -1.774668E-09
       510  16  2.389258E+06  4.317395E+03  4.289809E+04  1.577567E+04  1.928334E-09  8.675009E-10
       510  17  2.411294E+06 -3.079680E+04  1.231958E+04 -2.930932E+03  1.217068E-09 -1.255110E-09
       510  18  2.447818E+06 -1.722584E+04  5.820243E+03  2.402293E+04  5.576208E-11  6.178450E-10
       510  19  2.634513E+06  6.535443E+04  1.034188E+05  2.670399E+04 -5.389818E+04  1.974008E+03
       510  20  2.598023E+06  1.566787E+04  5.840393E+04 -2.230376E+02 -3.529372E+04  1.477957E+03
       510  21  2.576059E+06  1.470057E+04  3.763235E+04  1.850965E+04 -1.668989E+04  4.852458E+02
       510  22  2.511881E+06  3.483681E+04  7.316172E+04  2.123925E+04 -5.395478E+04  1.974457E+03
       510  23  2.504655E+06 -7.563973E+03  3.536327E+04 -1.577107E+03 -3.547322E+04  1.477892E+03
       510  24  2.511937E+06 -1.262455E+03  2.172673E+04  2.126643E+04 -1.699142E+04  4.848772E+02
       510  25  2.389262E+06  4.318178E+03  4.290356E+04  1.577558E+04 -5.401136E+04  1.974907E+03
       510  26  2.411295E+06 -3.079645E+04  1.232197E+04 -2.930975E+03 -3.565270E+04  1.477828E+03
       510  27  2.447818E+06 -1.722576E+04  5.820803E+03  2.402292E+04 -1.729293E+04  4.845059E+02
       511   1  2.460541E+06 -7.158374E+03  5.181104E+03  2.182976E+04  1.317541E+04  2.774544E+02
       511   2  2.430389E+06 -2.040195E+04 -1.032289E+04 -1.403655E+03  8.771934E+03  1.270475E+03
       511   3  2.402457E+06 -2.676546E+04 -2.126318E+04  2.071868E+04  4.369261E+03  1.792057E+03
       511   4  2.509201E+06  4.963339E+03  1.727103E+04  2.118583E+04  1.347315E+04  2.777334E+02
       511   5  2.508087E+06 -1.069822E+03  8.851515E+03 -1.489369E+03  8.955935E+03  1.270624E+03
       511   6  2.509214E+06 -2.034137E+02  5.074532E+03  2.119081E+04  4.439317E+03  1.792096E+03
       511   7  2.557863E+06  1.708488E+04  2.936078E+04  2.054185E+04  1.377091E+04  2.780117E+02
       511   8  2.585792E+06  1.826186E+04  2.802547E+04 -1.575095E+03  9.139959E+03  1.270773E+03
       511   9  2.615982E+06  2.635778E+04  3.141140E+04  2.166302E+04  4.509386E+03  1.792135E+03
       511  10  2.460541E+06 -7.158421E+03  5.180779E+03  2.182976E+04 -3.453011E-10  1.290586E-09
       511  11  2.430388E+06 -2.040197E+04 -1.032303E+04 -1.403664E+03  3.426180E-10  3.549582E-10
       511  12  2.402457E+06 -2.676546E+04 -2.126322E+04  2.071867E+04 -1.123703E-10  1.764929E-10
       511  13  2.509201E+06  4.963291E+03  1.727069E+04  2.118583E+04  4.776754E-10 -1.915215E-09
       511  14  2.508087E+06 -1.069845E+03  8.851362E+03 -1.489379E+03 -2.418746E-10 -1.354661E-09
       511  15  2.509214E+06 -2.034224E+02  5.074489E+03  2.119080E+04  2.266762E-09  3.934789E-10
       511  16  2.557863E+06  1.708483E+04  2.936043E+04  2.054185E+04  9.237334E-10  1.133491E-09
       511  17  2.585792E+06  1.826184E+04  2.802531E+04 -1.575104E+03  1.478667E-09 -3.038002E-10
       511  18  2.615982E+06  2.635777E+04  3.141136E+04  2.166301E+04 -1.097624E-09 -1.124778E-09
       511  19  2.460541E+06 -7.158374E+03  5.181104E+03  2.182976E+04 -1.317541E+04 -2.774544E+02
       511  20  2.430389E+06 -2.040195E+04 -1.032289E+04 -1.403655E+03 -8.771934E+03 -1.270475E+03
       511  21  2.402457E+06 -2.676546E+04 -2.126318E+04  2.071868E+04 -4.369261E+03 -1.792057E+03
       511  22  2.509201E+06  4.963339E+03  1.727103E+04  2.118583E+04 -1.347315E+04 -2.777334E+02
       511  23  2.508087E+06 -1.069822E+03  8.851515E+03 -1.489369E+03 -8.955935E+03 -1.270624E+03
       511  24  2.509214E+06 -2.034137E+02  5.074532E+03  2.119081E+04 -4.439317E+03 -1.792096E+03
       511  25  2.557863E+06  1.708488E+04  2.936078E+04  2.054185E+04 -1.377091E+04 -2.780117E+02
       511  26  2.585792E+06  1.826186E+04  2.802547E+04 -1.575095E+03 -9.139959E+03 -1.270773E+03
       511  27  2.615982E+06  2.635778E+04  3.141140E+04  2.166302E+04 -4.509386E+03 -1.792135E+03
       512   1  2.281088E+06 -5.594797E+04 -5.247646E+04  2.266062E+04  2.733607E+03  3.127786E+03
       512   2  2.247360E+06 -6.509908E+04 -6.282524E+04 -3.462614E+03  3.004999E+03  4.632221E+03
       512   3  2.214013E+06 -7.375865E+04 -7.316916E+04  2.269726E+04  3.277612E+03  1.690822E+03
       512   4  2.508827E+06  7.391123E+02  3.819804E+03  2.272804E+04  3.631555E+03  3.128321E+03
       512   5  2.508548E+06 -1.173719E+02  1.577513E+03 -3.412584E+03  2.832888E+03  4.632042E+03
       512   6  2.508836E+06 -2.970118E+02  8.111969E+01  2.272853E+04  2.035459E+03  1.690744E+03
       512   7  2.736613E+06  5.742233E+04  6.011223E+04  2.279548E+04  4.529831E+03  3.128856E+03
       512   8  2.769799E+06  6.485927E+04  6.597523E+04 -3.362537E+03  2.660705E+03  4.631862E+03
       512   9  2.803736E+06  7.315813E+04  7.332491E+04  2.275982E+04  7.927183E+02  1.690666E+03
       512  10  2.281088E+06 -5.594798E+04 -5.247649E+04  2.266061E+04 -9.222068E-10  5.471834E-10
       512  11  2.247360E+06 -6.509911E+04 -6.282529E+04 -3.462625E+03 -9.920725E-10 -5.852322E-10
       512  12  2.214013E+06 -7.375866E+04 -7.316918E+04  2.269725E+04  1.359564E-10  2.067898E-10
       512  13  2.508827E+06  7.390983E+02  3.819761E+03  2.272803E+04 -4.662997E-10 -3.025050E-10
       512  14  2.508548E+06 -1.173971E+02  1.577458E+03 -3.412594E+03  2.911951E-10  4.883683E-10
       512  15  2.508836E+06 -2.970159E+02  8.110656E+01  2.272853E+04  2.111649E-10  9.244321E-11
       512  16  2.736613E+06  5.742232E+04  6.011217E+04  2.279546E+04  1.219264E-09  1.375157E-09
       512  17  2.769799E+06  6.485925E+04  6.597517E+04 -3.362547E+03  1.405851E-10 -3.428844E-11
       512  18  2.803736E+06  7.315813E+04  7.332491E+04  2.275982E+04  8.290573E-10 -4.230273E-10
       512  19  2.281088E+06 -5.594797E+04 -5.247646E+04  2.266062E+04 -2.733607E+03 -3.127786E+03
       512  20  2.247360E+06 -6.509908E+04 -6.282524E+04 -3.462614E+03 -3.004999E+03 -4.632221E+03
       512  21  2.214013E+06 -7.375865E+04 -7.316916E+04  2.269726E+04 -3.277612E+03 -1.690822E+03
       512  22  2.508827E+06  7.391123E+02  3.819804E+03  2.272804E+04 -3.631555E+03 -3.128321E+03
       512  23  2.508548E+06 -1.173719E+02  1.577513E+03 -3.412584E+03 -2.832888E+03 -4.632042E+03
       512  24  2.508836E+06 -2.970118E+02  8.111969E+01  2.272853E+04 -2.035459E+03 -1.690744E+03
       512  25  2.736613E+06  5.742233E+04  6.011223E+04  2.279548E+04 -4.529831E+03 -3.128856E+03
       512  26  2.769799E+06  6.485927E+04  6.597523E+04 -3.362537E+03 -2.660705E+03 -4.631862E+03
       512  27  2.803736E+06  7.315813E+04  7.332491E+04  2.275982E+04 -7.927183E+02 -1.690666E+03
       513   1  6.588100E+06  7.066244E+05  8.644384E+05  1.595937E+05  4.660359E+05 -3.963616E+03
       513   2  6.382565E+06  4.113185E+04  4.521917E+05  1.567486E+04  3.005006E+05 -1.083687E+04
       513   3  6.383492E+06  1.120041E+05  3.313256E+05  3.204879E+04  1.349765E+05 -6.648855E+03
       513   4  5.858193E+06  5.255054E+05  6.839027E+05  7.276780E+04  4.627151E+05 -4.029199E+03
       513   5  5.755840E+06 -1.142149E+05  2.983086E+05 -7.290098E+03  3.000199E+05 -1.084883E+04
       513   6  5.859678E+06 -1.766880E+04  2.023789E+05  7.293391E+04  1.373081E+05 -6.636022E+03
       513   7  5.128781E+06  3.443749E+05  5.033317E+05 -1.395700E+04  4.593978E+05 -4.093928E+03
       513   8  5.129469E+06 -2.695886E+05  1.443971E+05 -3.023214E+04  2.995395E+05 -1.086077E+04
       513   9  5.336114E+06 -1.473556E+05  7.341293E+04  1.137847E+05  1.396377E+05 -6.622876E+03
       513  10  6.587869E+06  7.065668E+05  8.640345E+05  1.595952E+05  3.782772E-10 -5.179149E-10
       513  11  6.382469E+06  4.110779E+04  4.520235E+05  1.567748E+04  1.596808E-09 -1.543265E-09
       513  12  6.383473E+06  1.119992E+05  3.312916E+05  3.204951E+04  1.637822E-09 -8.598281E-10
       513  13  5.857965E+06  5.254485E+05  6.835041E+05  7.276930E+04 -2.311581E-09  2.034946E-10
       513  14  5.755744E+06 -1.142389E+05  2.981408E+05 -7.287483E+03 -2.542510E-09  1.014073E-09
       513  15  5.859658E+06 -1.767386E+04  2.023437E+05  7.293464E+04  5.643696E-09  5.819864E-09
       513  16  5.128556E+06  3.443188E+05  5.029383E+05 -1.395549E+04 -1.806708E-10 -7.021039E-11
       513  17  5.129374E+06 -2.696126E+05  1.442297E+05 -3.022953E+04 -9.878357E-10 -3.082458E-10
       513  18  5.336094E+06 -1.473609E+05  7.337652E+04  1.137854E+05 -8.177689E-10 -1.991217E-09
       513  19  6.588100E+06  7.066244E+05  8.644384E+05  1.595937E+05 -4.660359E+05  3.963616E+03
       513  20  6.382565E+06  4.113185E+04  4.521917E+05  1.567486E+04 -3.005006E+05  1.083687E+04
       513  21  6.383492E+06  1.120041E+05  3.313256E+05  3.204879E+04 -1.349765E+05  6.648855E+03
       513  22  5.858193E+06  5.255054E+05  6.839027E+05  7.276780E+04 -4.627151E+05  4.029199E+03
       513  23  5.755840E+06 -1.142149E+05  2.983086E+05 -7.290098E+03 -3.000199E+05  1.084883E+04
       513  24  5.859678E+06 -1.766880E+04  2.023789E+05  7.293391E+04 -1.373081E+05  6.636022E+03
       513  25  5.128781E+06  3.443749E+05  5.033317E+05 -1.395700E+04 -4.593978E+05  4.093928E+03
       513  26  5.129469E+06 -2.695886E+05  1.443971E+05 -3.023214E+04 -2.995395E+05  1.086077E+04
       513  27  5.336114E+06 -1.473556E+05  7.341293E+04  1.137847E+05 -1.396377E+05  6.622876E+03
       514   1  5.999484E+06  1.185014E+05  2.162954E+05  7.825246E+04  1.032670E+05 -3.059200E+03
       514   2  5.899862E+06  4.583764E+03  1.261782E+05  4.715399E+03  4.971890E+04 -1.533458E+03
       514   3  5.837719E+06  1.571230E+04  1.018164E+05  5.723343E+04 -3.825692E+03  1.130941E+03
       514   4  5.821872E+06  7.442453E+04  1.726833E+05  6.512968E+04  1.035090E+05 -3.060877E+03
       514   5  5.803257E+06 -1.937418E+04  1.024370E+05  2.164232E+03  5.024837E+04 -1.532538E+03
       514   6  5.822077E+06  1.183676E+04  9.776174E+04  6.525381E+04 -3.015620E+03  1.132753E+03
       514   7  5.644289E+06  3.034596E+04  1.290689E+05  5.201061E+04  1.037509E+05 -3.062566E+03
       514   8  5.706660E+06 -4.333280E+04  7.869509E+04 -3.865460E+02  5.077775E+04 -1.531623E+03
       514   9  5.806435E+06  7.961447E+03  9.370708E+04  7.327398E+04 -2.205568E+03  1.134587E+03
       514  10  5.999472E+06  1.184986E+05  2.162755E+05  7.825272E+04 -2.981418E-09 -3.145254E-09
       514  11  5.899859E+06  4.583106E+03  1.261736E+05  4.715461E+03 -1.182266E-09  4.923834E-11
       514  12  5.837719E+06  1.571229E+04  1.018164E+05  5.723344E+04 -1.780638E-09 -6.161749E-10
       514  13  5.821860E+06  7.442167E+04  1.726633E+05  6.512994E+04  3.547342E-09  4.434479E-09
       514  14  5.803254E+06 -1.937486E+04  1.024323E+05  2.164294E+03  1.688991E-09  3.961973E-09
       514  15  5.822077E+06  1.183676E+04  9.776172E+04  6.525381E+04  2.339464E-09 -4.053496E-10
       514  16  5.644277E+06  3.034309E+04  1.290489E+05  5.201087E+04  8.059493E-10 -3.407890E-09
       514  17  5.706657E+06 -4.333348E+04  7.869028E+04 -3.864835E+02  7.546203E-09  3.147729E-09
       514  18  5.806435E+06  7.961445E+03  9.370707E+04  7.327398E+04  1.684958E-09  1.300824E-09
       514  19  5.999484E+06  1.185014E+05  2.162954E+05  7.825246E+04 -1.032670E+05  3.059200E+03
       514  20  5.899862E+06  4.583764E+03  1.261782E+05  4.715399E+03 -4.971890E+04  1.533458E+03
       514  21  5.837719E+06  1.571230E+04  1.018164E+05  5.723343E+04  3.825692E+03 -1.130941E+03
       514  22  5.821872E+06  7.442453E+04  1.726833E+05  6.512968E+04 -1.035090E+05  3.060877E+03
       514  23  5.803257E+06 -1.937418E+04  1.024370E+05  2.164232E+03 -5.024837E+04  1.532538E+03
       514  24  5.822077E+06  1.183676E+04  9.776174E+04  6.525381E+04  3.015620E+03 -1.132753E+03
       514  25  5.644289E+06  3.034596E+04  1.290689E+05  5.201061E+04 -1.037509E+05  3.062566E+03
       514  26  5.706660E+06 -4.333280E+04  7.869509E+04 -3.865460E+02 -5.077775E+04  1.531623E+03
       514  27  5.806435E+06  7.961447E+03  9.370708E+04  7.327398E+04  2.205568E+03 -1.134587E+03
       515   1  5.517726E+06 -6.894682E+04  2.566697E+04  7.760061E+04 -2.193118E+04  3.272626E+03
       515   2  5.403664E+06 -1.228583E+05  2.565356E+04 -5.750379E+03 -8.576496E+04  6.164314E+03
       515   3  5.337383E+06 -1.914653E+04  1.063932E+05  5.112222E+04 -1.495851E+05  7.572825E+03
       515   4  5.824367E+06  7.081193E+03  1.013185E+05  6.840340E+04 -2.102929E+04  3.274846E+03
       515   5  5.800309E+06 -2.448643E+04  1.232189E+05 -1.758584E+03 -8.525702E+04  6.164420E+03
       515   6  5.824057E+06  1.015811E+05  2.261052E+05  6.829569E+04 -1.494802E+05  7.568577E+03
       515   7  6.131093E+06  8.310259E+04  1.769632E+05  5.920163E+04 -2.012695E+04  3.277038E+03
       515   8  6.197096E+06  7.387389E+04  2.207726E+05  2.235687E+03 -8.474875E+04  6.164534E+03
       515   9  6.310944E+06  2.222924E+05  3.458000E+05  8.548246E+04 -1.493753E+05  7.564339E+03
       515  10  5.517726E+06 -6.894696E+04  2.566606E+04  7.760067E+04  2.843361E-09  6.035638E-10
       515  11  5.403656E+06 -1.228603E+05  2.563979E+04 -5.749954E+03 -6.067898E-11 -1.486918E-09
       515  12  5.337359E+06 -1.915253E+04  1.063514E+05  5.112313E+04 -2.659811E-09 -8.639413E-10
       515  13  5.824367E+06  7.081064E+03  1.013177E+05  6.840346E+04  1.119162E-09 -1.040573E-09
       515  14  5.800301E+06 -2.448840E+04  1.232053E+05 -1.758161E+03  6.244514E-11 -1.488701E-09
       515  15  5.824033E+06  1.015751E+05  2.260635E+05  6.829660E+04  8.612559E-10 -3.951916E-10
       515  16  6.131093E+06  8.310247E+04  1.769625E+05  5.920168E+04  4.412976E-11 -2.214897E-09
       515  17  6.197088E+06  7.387194E+04  2.207592E+05  2.236107E+03  1.862409E-09 -3.468479E-09
       515  18  6.310920E+06  2.222864E+05  3.457584E+05  8.548337E+04  2.728165E-09 -6.638124E-10
       515  19  5.517726E+06 -6.894682E+04  2.566697E+04  7.760061E+04  2.193118E+04 -3.272626E+03
       515  20  5.403664E+06 -1.228583E+05  2.565356E+04 -5.750379E+03  8.576496E+04 -6.164314E+03
       515  21  5.337383E+06 -1.914653E+04  1.063932E+05  5.112222E+04  1.495851E+05 -7.572825E+03
       515  22  5.824367E+06  7.081193E+03  1.013185E+05  6.840340E+04  2.102929E+04 -3.274846E+03
       515  23  5.800309E+06 -2.448643E+04  1.232189E+05 -1.758584E+03  8.525702E+04 -6.164420E+03
       515  24  5.824057E+06  1.015811E+05  2.261052E+05  6.829569E+04  1.494802E+05 -7.568577E+03
       515  25  6.131093E+06  8.310259E+04  1.769632E+05  5.920163E+04  2.012695E+04 -3.277038E+03
       515  26  6.197096E+06  7.387389E+04  2.207726E+05  2.235687E+03  8.474875E+04 -6.164534E+03
       515  27  6.310944E+06  2.222924E+05  3.458000E+05  8.548246E+04  1.493753E+05 -7.564339E+03
       516   1  4.970405E+06 -2.503117E+05  4.587834E+04  1.395613E+05 -1.974051E+05  1.257606E+04
       516   2  4.693439E+06 -4.137637E+05  1.481177E+05 -5.089899E+04 -4.134123E+05  1.859164E+04
       516   3  4.700560E+06  4.259601E+05  6.423853E+05 -3.155035E+04 -6.293682E+05  7.921116E+03
       516   4  5.876943E+06 -2.551961E+04  2.691370E+05  8.350994E+04 -1.941195E+05  1.259517E+04
       516   5  5.733811E+06 -1.557549E+05  4.038204E+05 -2.073208E+04 -4.144930E+05  1.857013E+04
       516   6  5.874978E+06  7.170121E+05  9.330467E+05  8.481060E+04 -6.348627E+05  7.811748E+03
       516   7  6.784228E+06  1.992237E+05  4.923370E+05  2.737705E+04 -1.908289E+05  1.261367E+04
       516   8  6.775161E+06  1.021776E+05  6.594442E+05  9.485262E+03 -4.155751E+05  1.854855E+04
       516   9  7.050667E+06  1.008013E+06  1.223614E+06  2.013907E+05 -6.403666E+05  7.700523E+03
       516  10  4.970363E+06 -2.503223E+05  4.580539E+04  1.395633E+05 -1.633868E-09 -2.347172E-10
       516  11  4.693256E+06 -4.138095E+05  1.477984E+05 -5.089281E+04  3.119252E-10 -1.591498E-10
       516  12  4.700137E+06  4.258547E+05  6.416464E+05 -3.154635E+04  9.001287E-10 -1.023329E-09
       516  13  5.876903E+06 -2.552978E+04  2.690665E+05  8.351191E+04 -3.873396E-09 -1.139638E-09
       516  14  5.733628E+06 -1.558009E+05  4.034999E+05 -2.072590E+04  3.372708E-10 -8.627885E-10
       516  15  5.874549E+06  7.169051E+05  9.322962E+05  8.481459E+04 -3.697114E-09  9.085807E-10
       516  16  6.784190E+06  1.992138E+05  4.922690E+05  2.737898E+04  7.744677E-10  3.508405E-10
       516  17  6.774977E+06  1.021315E+05  6.591226E+05  9.491452E+03 -2.562099E-09  3.622651E-10
       516  18  7.050231E+06  1.007904E+06  1.222851E+06  2.013947E+05  2.082385E-09 -1.877258E-09
       516  19  4.970405E+06 -2.503117E+05  4.587834E+04  1.395613E+05  1.974051E+05 -1.257606E+04
       516  20  4.693439E+06 -4.137637E+05  1.481177E+05 -5.089899E+04  4.134123E+05 -1.859164E+04
       516  21  4.700560E+06  4.259601E+05  6.423853E+05 -3.155035E+04  6.293682E+05 -7.921116E+03
       516  22  5.876943E+06 -2.551961E+04  2.691370E+05  8.350994E+04  1.941195E+05 -1.259517E+04
       516  23  5.733811E+06 -1.557549E+05  4.038204E+05 -2.073208E+04  4.144930E+05 -1.857013E+04
       516  24  5.874978E+06  7.170121E+05  9.330467E+05  8.481060E+04  6.348627E+05 -7.811748E+03
       516  25  6.784228E+06  1.992237E+05  4.923370E+05  2.737705E+04  1.908289E+05 -1.261367E+04
       516  26  6.775161E+06  1.021776E+05  6.594442E+05  9.485262E+03  4.155751E+05 -1.854855E+04
       516  27  7.050667E+06  1.008013E+06  1.223614E+06  2.013907E+05  6.403666E+05 -7.700523E+03
       517   1 -8.905798E+06 -1.586546E+06 -2.083504E+06 -2.612170E+05 -1.467959E+06  1.933935E+03
       517   2 -8.570544E+06  4.537853E+05 -8.453270E+05 -5.327727E+04 -9.595824E+05 -4.363959E+03
       517   3 -8.888915E+06  1.520244E+05 -5.259517E+05  1.442995E+05 -4.512590E+05 -4.991341E+03
       517   4 -9.257622E+06 -1.677082E+06 -2.172411E+06  1.069506E+04 -1.469096E+06  1.286209E+03
       517   5 -8.926867E+06  3.637034E+05 -9.344050E+05  1.786127E+04 -9.597084E+05 -4.474612E+03
       517   6 -9.250355E+06  6.134682E+04 -6.163000E+05  1.456575E+04 -4.503763E+05 -4.896895E+03
       517   7 -9.609172E+06 -1.767347E+06 -2.261287E+06  2.824509E+05 -1.470232E+06  6.371483E+02
       517   8 -9.283062E+06  2.736308E+05 -1.023490E+06  8.895848E+04 -9.598343E+05 -4.585351E+03
       517   9 -9.611638E+06 -2.927641E+04 -7.066490E+05 -1.150914E+05 -4.494941E+05 -4.802775E+03
       517  10 -8.908140E+06 -1.587135E+06 -2.087612E+06 -2.612150E+05  5.722945E-10  3.621953E-09
       517  11 -8.571544E+06  4.535336E+05 -8.470823E+05 -5.328068E+04 -2.809850E-09  3.012281E-09
       517  12 -8.889136E+06  1.519687E+05 -5.263400E+05  1.442977E+05  5.715120E-09  3.680604E-09
       517  13 -9.259968E+06 -1.677673E+06 -2.176528E+06  1.069660E+04 -4.668000E-09 -7.729049E-10
       517  14 -8.927868E+06  3.634513E+05 -9.361618E+05  1.785780E+04 -2.040788E-09  3.359049E-09
       517  15 -9.250575E+06  6.129130E+04 -6.166870E+05  1.456397E+04  1.697167E-09  2.510872E-09
       517  16 -9.611523E+06 -1.767939E+06 -2.265413E+06  2.824519E+05 -2.583007E-09 -8.981547E-10
       517  17 -9.284063E+06  2.733785E+05 -1.025248E+06  8.895496E+04 -6.885075E-09  1.210399E-09
       517  18 -9.611857E+06 -2.933175E+04 -7.070348E+05 -1.150932E+05 -8.781567E-09 -7.660312E-10
       517  19 -8.905798E+06 -1.586546E+06 -2.083504E+06 -2.612170E+05  1.467959E+06 -1.933935E+03
       517  20 -8.570544E+06  4.537853E+05 -8.453270E+05 -5.327727E+04  9.595824E+05  4.363959E+03
       517  21 -8.888915E+06  1.520244E+05 -5.259517E+05  1.442995E+05  4.512590E+05  4.991341E+03
       517  22 -9.257622E+06 -1.677082E+06 -2.172411E+06  1.069506E+04  1.469096E+06 -1.286209E+03
       517  23 -8.926867E+06  3.637034E+05 -9.344050E+05  1.786127E+04  9.597084E+05  4.474612E+03
       517  24 -9.250355E+06  6.134682E+04 -6.163000E+05  1.456575E+04  4.503763E+05  4.896895E+03
       517  25 -9.609172E+06 -1.767347E+06 -2.261287E+06  2.824509E+05  1.470232E+06 -6.371483E+02
       517  26 -9.283062E+06  2.736308E+05 -1.023490E+06  8.895848E+04  9.598343E+05  4.585351E+03
       517  27 -9.611638E+06 -2.927641E+04 -7.066490E+05 -1.150914E+05  4.494941E+05  4.802775E+03
       518   1 -8.822175E+06 -1.605323E+05 -4.376075E+05 -1.296730E+04 -3.499086E+05 -4.204075E+03
       518   2 -8.795793E+06  1.262018E+05 -1.983567E+05 -5.018641E+03 -2.106173E+05 -4.395121E+03
       518   3 -8.876705E+06  5.647359E+04 -1.396846E+05  4.661731E+04 -7.132382E+04 -3.219107E+03
       518   4 -9.130807E+06 -2.384396E+05 -5.148586E+05  2.521218E+04 -3.499563E+05 -4.225838E+03
       518   5 -9.076476E+06  5.545541E+04 -2.685293E+05  3.496562E+03 -2.104060E+05 -4.398291E+03
       518   6 -9.129542E+06 -7.251840E+03 -2.030258E+05  2.547044E+04 -7.084713E+04 -3.216911E+03
       518   7 -9.439349E+06 -3.163486E+05 -5.921163E+05  6.337245E+04 -3.500040E+05 -4.247617E+03
       518   8 -9.357087E+06 -1.529669E+04 -3.387079E+05  1.200788E+04 -2.101947E+05 -4.401458E+03
       518   9 -9.382319E+06 -7.098046E+04 -2.663717E+05  4.332304E+03 -7.037063E+04 -3.214747E+03
       518  10 -8.822308E+06 -1.605657E+05 -4.378409E+05 -1.296849E+04  4.811746E-09  2.025303E-09
       518  11 -8.795841E+06  1.261896E+05 -1.984413E+05 -5.019389E+03 -3.175978E-09 -4.322998E-10
       518  12 -8.876710E+06  5.647218E+04 -1.396943E+05  4.661713E+04  4.230802E-10  2.008269E-09
       518  13 -9.130940E+06 -2.384731E+05 -5.150922E+05  2.521099E+04 -3.958415E-09 -1.207261E-09
       518  14 -9.076525E+06  5.544329E+04 -2.686138E+05  3.495814E+03 -4.275317E-09 -3.515672E-10
       518  15 -9.129547E+06 -7.253223E+03 -2.030354E+05  2.547026E+04  2.813810E-09  7.867853E-10
       518  16 -9.439482E+06 -3.163822E+05 -5.923500E+05  6.337125E+04 -3.297461E-09 -1.275509E-09
       518  17 -9.357135E+06 -1.530880E+04 -3.387922E+05  1.200713E+04 -2.845229E-09  8.383837E-10
       518  18 -9.382324E+06 -7.098182E+04 -2.663812E+05  4.332121E+03  7.044671E-10 -7.135457E-10
       518  19 -8.822175E+06 -1.605323E+05 -4.376075E+05 -1.296730E+04  3.499086E+05  4.204075E+03
       518  20 -8.795793E+06  1.262018E+05 -1.983567E+05 -5.018641E+03  2.106173E+05  4.395121E+03
       518  21 -8.876705E+06  5.647359E+04 -1.396846E+05  4.661731E+04  7.132382E+04  3.219107E+03
       518  22 -9.130807E+06 -2.384396E+05 -5.148586E+05  2.521218E+04  3.499563E+05  4.225838E+03
       518  23 -9.076476E+06  5.545541E+04 -2.685293E+05  3.496562E+03  2.104060E+05  4.398291E+03
       518  24 -9.129542E+06 -7.251840E+03 -2.030258E+05  2.547044E+04  7.084713E+04  3.216911E+03
       518  25 -9.439349E+06 -3.163486E+05 -5.921163E+05  6.337245E+04  3.500040E+05  4.247617E+03
       518  26 -9.357087E+06 -1.529669E+04 -3.387079E+05  1.200788E+04  2.101947E+05  4.401458E+03
       518  27 -9.382319E+06 -7.098046E+04 -2.663717E+05  4.332304E+03  7.037063E+04  3.214747E+03
       519   1 -9.021825E+06 -4.931114E+03 -1.628021E+05  1.756343E+04 -3.636409E+04 -2.167567E+03
       519   2 -9.034815E+06  4.562275E+04 -1.608279E+05 -5.661967E+02  5.370516E+04 -8.138555E+02
       519   3 -9.111438E+06 -1.102905E+05 -2.697124E+05  5.151211E+04  1.437654E+05  3.072353E+02
       519   4 -9.119934E+06 -2.964983E+04 -1.872429E+05  3.129026E+04 -3.600476E+04 -2.168496E+03
       519   5 -9.088321E+06  3.213717E+04 -1.742157E+05 -3.819300E+03  5.399917E+04 -8.142093E+02
       519   6 -9.120335E+06 -1.125419E+05 -2.720077E+05  3.128124E+04  1.440006E+05  3.024563E+02
       519   7 -9.218034E+06 -5.436857E+04 -2.116845E+05  4.501488E+04 -3.564548E+04 -2.169408E+03
       519   8 -9.141825E+06  1.865140E+04 -1.876036E+05 -7.072120E+03  5.429316E+04 -8.145663E+02
       519   9 -9.129232E+06 -1.147917E+05 -2.743029E+05  1.105065E+04  1.442358E+05  2.976617E+02
       519  10 -9.021826E+06 -4.931480E+03 -1.628046E+05  1.756337E+04  3.033887E-09  3.091058E-09
       519  11 -9.034819E+06  4.562196E+04 -1.608334E+05 -5.661614E+02  6.877235E-09  9.992723E-10
       519  12 -9.111460E+06 -1.102962E+05 -2.697518E+05  5.151208E+04  1.003724E-09  1.398183E-10
       519  13 -9.119935E+06 -2.965019E+04 -1.872454E+05  3.129020E+04  2.707968E-09  8.562609E-10
       519  14 -9.088325E+06  3.213637E+04 -1.742212E+05 -3.819265E+03  2.698690E-10  4.311938E-10
       519  15 -9.120358E+06 -1.125476E+05 -2.720473E+05  3.128120E+04  6.233984E-09 -1.563352E-09
       519  16 -9.218035E+06 -5.436892E+04 -2.116869E+05  4.501482E+04  1.308418E-09 -1.208593E-09
       519  17 -9.141828E+06  1.865060E+04 -1.876093E+05 -7.072084E+03  3.207668E-09 -1.303624E-09
       519  18 -9.129254E+06 -1.147974E+05 -2.743426E+05  1.105062E+04 -2.867001E-10 -1.654800E-10
       519  19 -9.021825E+06 -4.931114E+03 -1.628021E+05  1.756343E+04  3.636409E+04  2.167567E+03
       519  20 -9.034815E+06  4.562275E+04 -1.608279E+05 -5.661967E+02 -5.370516E+04  8.138555E+02
       519  21 -9.111438E+06 -1.102905E+05 -2.697124E+05  5.151211E+04 -1.437654E+05 -3.072353E+02
       519  22 -9.119934E+06 -2.964983E+04 -1.872429E+05  3.129026E+04  3.600476E+04  2.168496E+03
       519  23 -9.088321E+06  3.213717E+04 -1.742157E+05 -3.819300E+03 -5.399917E+04  8.142093E+02
       519  24 -9.120335E+06 -1.125419E+05 -2.720077E+05  3.128124E+04 -1.440006E+05 -3.024563E+02
       519  25 -9.218034E+06 -5.436857E+04 -2.116845E+05  4.501488E+04  3.564548E+04  2.169408E+03
       519  26 -9.141825E+06  1.865140E+04 -1.876036E+05 -7.072120E+03 -5.429316E+04  8.145663E+02
       519  27 -9.129232E+06 -1.147917E+05 -2.743029E+05  1.105065E+04 -1.442358E+05 -2.976617E+02
       520   1 -9.340486E+06 -1.619141E+04 -3.553187E+05 -3.357805E+04  1.951322E+05  1.847193E+03
       520   2 -9.222491E+06  1.228497E+05 -5.049605E+05  3.317761E+04  4.429971E+05  3.545733E+03
       520   3 -9.418122E+06 -8.587989E+05 -1.097709E+06  1.576688E+05  6.908661E+05  1.097732E+03
       520   4 -9.174927E+06  2.553305E+04 -3.137967E+05  2.868678E+04  1.960801E+05  1.866851E+03
       520   5 -9.020041E+06  1.738985E+05 -4.543938E+05 -4.759394E+02  4.430151E+05  3.521337E+03
       520   6 -9.178519E+06 -7.980945E+05 -1.037336E+06  2.812185E+04  6.899696E+05  9.521994E+02
       520   7 -9.009335E+06  6.727019E+04 -2.722747E+05  9.096845E+04  1.970282E+05  1.886698E+03
       520   8 -8.817550E+06  2.249485E+05 -4.038295E+05 -3.414062E+04  4.430332E+05  3.496946E+03
       520   9 -8.938826E+06 -7.373306E+05 -9.769573E+05 -1.014758E+05  6.890727E+05  8.070962E+02
       520  10 -9.340527E+06 -1.620183E+04 -3.553914E+05 -3.357834E+04 -1.131594E-09  1.563276E-09
       520  11 -9.222705E+06  1.227960E+05 -5.053350E+05  3.317635E+04  7.785934E-10  2.897170E-09
       520  12 -9.418641E+06 -8.589294E+05 -1.098620E+06  1.576682E+05  2.773338E-09  1.874498E-09
       520  13 -9.174969E+06  2.552253E+04 -3.138700E+05  2.868648E+04 -1.286740E-10 -1.472739E-10
       520  14 -9.020254E+06  1.738449E+05 -4.547681E+05 -4.772002E+02  1.890229E-09  2.648811E-09
       520  15 -9.179036E+06 -7.982247E+05 -1.038244E+06  2.812132E+04 -4.109421E-09 -1.897490E-10
       520  16 -9.009377E+06  6.725958E+04 -2.723487E+05  9.096815E+04 -1.223908E-09 -4.679487E-10
       520  17 -8.817763E+06  2.248949E+05 -4.042037E+05 -3.414187E+04  1.700077E-09  2.048470E-09
       520  18 -8.939342E+06 -7.374603E+05 -9.778626E+05 -1.014763E+05 -1.820483E-09  4.586129E-10
       520  19 -9.340486E+06 -1.619141E+04 -3.553187E+05 -3.357805E+04 -1.951322E+05 -1.847193E+03
       520  20 -9.222491E+06  1.228497E+05 -5.049605E+05  3.317761E+04 -4.429971E+05 -3.545733E+03
       520  21 -9.418122E+06 -8.587989E+05 -1.097709E+06  1.576688E+05 -6.908661E+05 -1.097732E+03
       520  22 -9.174927E+06  2.553305E+04 -3.137967E+05  2.868678E+04 -1.960801E+05 -1.866851E+03
       520  23 -9.020041E+06  1.738985E+05 -4.543938E+05 -4.759394E+02 -4.430151E+05 -3.521337E+03
       520  24 -9.178519E+06 -7.980945E+05 -1.037336E+06  2.812185E+04 -6.899696E+05 -9.521994E+02
       520  25 -9.009335E+06  6.727019E+04 -2.722747E+05  9.096845E+04 -1.970282E+05 -1.886698E+03
       520  26 -8.817550E+06  2.249485E+05 -4.038295E+05 -3.414062E+04 -4.430332E+05 -3.496946E+03
       520  27 -8.938826E+06 -7.373306E+05 -9.769573E+05 -1.014758E+05 -6.890727E+05 -8.070962E+02
       521   1 -7.673026E+06 -5.145296E+05 -7.039259E+05 -1.189541E+05 -5.509455E+05 -2.320023E+03
       521   2 -7.524400E+06  2.618464E+05 -2.327466E+05 -2.315101E+04 -3.586077E+05 -8.505651E+03
       521   3 -7.621862E+06  1.527762E+05 -1.088944E+05  3.389785E+04 -1.662700E+05 -8.396394E+03
       521   4 -8.143193E+06 -6.332461E+05 -8.221392E+05 -1.601948E+04 -5.528107E+05 -2.411082E+03
       521   5 -8.018646E+06  1.374816E+05 -3.560662E+05  3.554286E+03 -3.591161E+05 -8.521670E+03
       521   6 -8.140613E+06  2.212988E+04 -2.384582E+05 -1.564462E+04 -1.654286E+05 -8.382989E+03
       521   7 -8.613133E+06 -7.519392E+05 -9.403638E+05  8.683637E+04 -5.546743E+05 -2.502828E+03
       521   8 -8.512665E+06  1.310075E+04 -4.794039E+05  3.023807E+04 -3.596241E+05 -8.537745E+03
       521   9 -8.659112E+06 -1.085277E+05 -3.680412E+05 -6.514524E+04 -1.645878E+05 -8.369710E+03
       521  10 -7.673355E+06 -5.146124E+05 -7.045034E+05 -1.189552E+05  2.877318E-09  9.297163E-10
       521  11 -7.524540E+06  2.618113E+05 -2.329914E+05 -2.315347E+04 -2.254459E-09 -8.065993E-10
       521  12 -7.621892E+06  1.527686E+05 -1.089471E+05  3.389673E+04  6.196228E-10 -2.059848E-11
       521  13 -8.143524E+06 -6.333294E+05 -8.227211E+05 -1.602056E+04 -6.322169E-09 -2.162847E-09
       521  14 -8.018785E+06  1.374463E+05 -3.563118E+05  3.551814E+03 -4.086068E-09 -1.487547E-09
       521  15 -8.140643E+06  2.212234E+04 -2.385104E+05 -1.564575E+04  2.188766E-09 -1.767183E-10
       521  16 -8.613467E+06 -7.520232E+05 -9.409500E+05  8.683526E+04 -4.327182E-09 -2.224585E-09
       521  17 -8.512805E+06  1.306535E+04 -4.796505E+05  3.023559E+04  1.862157E-09 -1.559911E-09
       521  18 -8.659141E+06 -1.085351E+05 -3.680929E+05 -6.514635E+04  1.673893E-09  5.026729E-10
       521  19 -7.673026E+06 -5.145296E+05 -7.039259E+05 -1.189541E+05  5.509455E+05  2.320023E+03
       521  20 -7.524400E+06  2.618464E+05 -2.327466E+05 -2.315101E+04  3.586077E+05  8.505651E+03
       521  21 -7.621862E+06  1.527762E+05 -1.088944E+05  3.389785E+04  1.662700E+05  8.396394E+03
       521  22 -8.143193E+06 -6.332461E+05 -8.221392E+05 -1.601948E+04  5.528107E+05  2.411082E+03
       521  23 -8.018646E+06  1.374816E+05 -3.560662E+05  3.554286E+03  3.591161E+05  8.521670E+03
       521  24 -8.140613E+06  2.212988E+04 -2.384582E+05 -1.564462E+04  1.654286E+05  8.382989E+03
       521  25 -8.613133E+06 -7.519392E+05 -9.403638E+05  8.683637E+04  5.546743E+05  2.502828E+03
       521  26 -8.512665E+06  1.310075E+04 -4.794039E+05  3.023807E+04  3.596241E+05  8.537745E+03
       521  27 -8.659112E+06 -1.085277E+05 -3.680412E+05 -6.514524E+04  1.645878E+05  8.369710E+03
       522   1 -7.568757E+06  4.290632E+04 -7.004964E+04 -1.460264E+04 -1.259731E+05 -7.731515E+03
       522   2 -7.567228E+06  1.500138E+05  1.250707E+04 -1.818440E+04 -6.724756E+04 -8.285927E+03
       522   3 -7.608410E+06  1.130089E+05  2.070623E+04  9.723773E+03 -8.527945E+03 -6.869344E+03
       522   4 -8.096006E+06 -8.979020E+04 -2.018302E+05 -5.435798E+01 -1.262787E+05 -7.735307E+03
       522   5 -8.074406E+06  2.237852E+04 -1.141222E+05 -1.583662E+04 -6.712951E+04 -8.286493E+03
       522   6 -8.095628E+06 -9.705648E+03 -1.011132E+05 -1.267940E+02 -7.984343E+03 -6.868314E+03
       522   7 -8.622998E+06 -2.225071E+05 -3.336318E+05  1.448135E+04 -1.265840E+05 -7.739116E+03
       522   8 -8.581346E+06 -1.052763E+05 -2.407710E+05 -1.349089E+04 -6.701154E+04 -8.287058E+03
       522   9 -8.582628E+06 -1.324380E+05 -2.229507E+05 -9.969662E+03 -7.441170E+03 -6.867302E+03
       522  10 -7.568774E+06  4.290193E+04 -7.007994E+04 -1.460342E+04 -1.348975E-09  3.101899E-09
       522  11 -7.567233E+06  1.500125E+05  1.249834E+04 -1.818484E+04  5.731900E-09 -1.386627E-10
       522  12 -7.608410E+06  1.130088E+05  2.070600E+04  9.723726E+03  7.787087E-10  9.452912E-10
       522  13 -8.096023E+06 -8.979461E+04 -2.018607E+05 -5.514703E+01  9.267957E-10  1.063144E-09
       522  14 -8.074410E+06  2.237722E+04 -1.141309E+05 -1.583707E+04  4.191983E-09 -4.564352E-10
       522  15 -8.095628E+06 -9.705716E+03 -1.011135E+05 -1.268383E+02  4.182005E-09 -1.932804E-09
       522  16 -8.623016E+06 -2.225116E+05 -3.336625E+05  1.448056E+04  4.019886E-09 -8.383515E-10
       522  17 -8.581351E+06 -1.052776E+05 -2.407796E+05 -1.349133E+04  5.060161E-09  3.596157E-10
       522  18 -8.582628E+06 -1.324381E+05 -2.229509E+05 -9.969703E+03 -3.831799E-09  1.285334E-09
       522  19 -7.568757E+06  4.290632E+04 -7.004964E+04 -1.460264E+04  1.259731E+05  7.731515E+03
       522  20 -7.567228E+06  1.500138E+05  1.250707E+04 -1.818440E+04  6.724756E+04  8.285927E+03
       522  21 -7.608410E+06  1.130089E+05  2.070623E+04  9.723773E+03  8.527945E+03  6.869344E+03
       522  22 -8.096006E+06 -8.979020E+04 -2.018302E+05 -5.435798E+01  1.262787E+05  7.735307E+03
       522  23 -8.074406E+06  2.237852E+04 -1.141222E+05 -1.583662E+04  6.712951E+04  8.286493E+03
       522  24 -8.095628E+06 -9.705648E+03 -1.011132E+05 -1.267940E+02  7.984343E+03  6.868314E+03
       522  25 -8.622998E+06 -2.225071E+05 -3.336318E+05  1.448135E+04  1.265840E+05  7.739116E+03
       522  26 -8.581346E+06 -1.052763E+05 -2.407710E+05 -1.349089E+04  6.701154E+04  8.287058E+03
       522  27 -8.582628E+06 -1.324380E+05 -2.229507E+05 -9.969662E+03  7.441170E+03  6.867302E+03
       523   1 -7.766034E+06  7.370907E+04 -1.914755E+04  3.433843E+03  9.821321E+03 -5.740755E+03
       523   2 -7.798286E+06  9.218844E+04 -4.707583E+04 -2.727635E+04  6.983688E+04 -4.146499E+03
       523   3 -7.875539E+06 -3.624816E+04 -1.512140E+05  2.804320E+04  1.298440E+05 -2.131310E+03
       523   4 -8.096077E+06 -9.296291E+03 -1.014816E+05  1.193698E+04  1.011054E+04 -5.740047E+03
       523   5 -8.073765E+06  2.281854E+04 -1.158857E+05 -3.094194E+04  7.020125E+04 -4.145897E+03
       523   6 -8.096486E+06 -9.203064E+04 -2.065736E+05  1.221234E+04  1.302888E+05 -2.133117E+03
       523   7 -8.426019E+06 -9.230967E+04 -1.838239E+05  2.043547E+04  1.039960E+04 -5.739331E+03
       523   8 -8.349175E+06 -4.655711E+04 -1.847013E+05 -3.460593E+04  7.056545E+04 -4.145299E+03
       523   9 -8.317388E+06 -1.478159E+05 -2.619368E+05 -3.612860E+03  1.307335E+05 -2.134948E+03
       523  10 -7.766034E+06  7.370901E+04 -1.914779E+04  3.433889E+03  3.179222E-09 -2.163267E-09
       523  11 -7.798291E+06  9.218710E+04 -4.708514E+04 -2.727612E+04 -3.238755E-09 -5.834014E-09
       523  12 -7.875557E+06 -3.625276E+04 -1.512461E+05  2.804342E+04 -3.150187E-09 -4.462267E-09
       523  13 -8.096077E+06 -9.296354E+03 -1.014819E+05  1.193703E+04  2.454494E-09 -2.286041E-09
       523  14 -8.073771E+06  2.281718E+04 -1.158951E+05 -3.094170E+04 -4.560101E-10 -5.952806E-09
       523  15 -8.096505E+06 -9.203528E+04 -2.066059E+05  1.221256E+04  4.213820E-09 -1.834858E-09
       523  16 -8.426019E+06 -9.230974E+04 -1.838242E+05  2.043552E+04 -3.179647E-09 -2.195423E-09
       523  17 -8.349180E+06 -4.655849E+04 -1.847108E+05 -3.460569E+04 -1.546194E-09  1.406889E-09
       523  18 -8.317407E+06 -1.478206E+05 -2.619694E+05 -3.612635E+03 -8.836579E-10  8.817114E-10
       523  19 -7.766034E+06  7.370907E+04 -1.914755E+04  3.433843E+03 -9.821321E+03  5.740755E+03
       523  20 -7.798286E+06  9.218844E+04 -4.707583E+04 -2.727635E+04 -6.983688E+04  4.146499E+03
       523  21 -7.875539E+06 -3.624816E+04 -1.512140E+05  2.804320E+04 -1.298440E+05  2.131310E+03
       523  22 -8.096077E+06 -9.296291E+03 -1.014816E+05  1.193698E+04 -1.011054E+04  5.740047E+03
       523  23 -8.073765E+06  2.281854E+04 -1.158857E+05 -3.094194E+04 -7.020125E+04  4.145897E+03
       523  24 -8.096486E+06 -9.203064E+04 -2.065736E+05  1.221234E+04 -1.302888E+05  2.133117E+03
       523  25 -8.426019E+06 -9.230967E+04 -1.838239E+05  2.043547E+04 -1.039960E+04  5.739331E+03
       523  26 -8.349175E+06 -4.655711E+04 -1.847013E+05 -3.460593E+04 -7.056545E+04  4.145299E+03
       523  27 -8.317388E+06 -1.478159E+05 -2.619368E+05 -3.612860E+03 -1.307335E+05  2.134948E+03
       524   1 -8.168505E+06  1.602716E+04 -2.511340E+05 -3.614844E+04  1.693935E+05 -5.470933E+01
       524   2 -8.105390E+06  1.189194E+05 -3.874584E+05 -7.514068E+03  3.689293E+05  3.072768E+03
       524   3 -8.297480E+06 -6.878181E+05 -8.824175E+05  1.216755E+05  5.684674E+05  2.823771E+03
       524   4 -8.142460E+06  2.304493E+04 -2.443796E+05  1.452620E+04  1.703897E+05 -3.731801E+01
       524   5 -8.016271E+06  1.411171E+05 -3.653078E+05 -3.470100E+04  3.691382E+05  3.056941E+03
       524   6 -8.145102E+06 -6.502459E+05 -8.442682E+05  1.664820E+04  5.679096E+05  2.724231E+03
       524   7 -8.116408E+06  3.007241E+04 -2.376238E+05  6.520299E+04  1.713859E+05 -1.976259E+01
       524   8 -7.927142E+06  1.633170E+05 -3.431575E+05 -6.189189E+04  3.693472E+05  3.041097E+03
       524   9 -7.992678E+06 -6.126332E+05 -8.061147E+05 -8.840513E+04  5.673518E+05  2.624904E+03
       524  10 -8.168536E+06  1.601933E+04 -2.511887E+05 -3.614843E+04  3.465645E-09 -4.846646E-09
       524  11 -8.105538E+06  1.188822E+05 -3.877176E+05 -7.514985E+03  1.968035E-09 -1.321669E-08
       524  12 -8.297831E+06 -6.879063E+05 -8.830329E+05  1.216742E+05 -3.004333E-09 -3.782379E-09
       524  13 -8.142491E+06  2.303701E+04 -2.444349E+05  1.452620E+04  1.060367E-08 -1.487090E-08
       524  14 -8.016418E+06  1.410799E+05 -3.655673E+05 -3.470192E+04 -1.037164E-08  2.928696E-09
       524  15 -8.145452E+06 -6.503338E+05 -8.448823E+05  1.664695E+04  4.495085E-09 -2.198024E-09
       524  16 -8.116440E+06  3.006439E+04 -2.376797E+05  6.520300E+04 -3.576655E-09 -7.925246E-10
       524  17 -7.927290E+06  1.632798E+05 -3.434172E+05 -6.189280E+04 -1.533197E-09  1.779007E-09
       524  18 -7.993027E+06 -6.127210E+05 -8.067274E+05 -8.840634E+04  2.458855E-09 -4.102489E-09
       524  19 -8.168505E+06  1.602716E+04 -2.511340E+05 -3.614844E+04 -1.693935E+05  5.470933E+01
       524  20 -8.105390E+06  1.189194E+05 -3.874584E+05 -7.514068E+03 -3.689293E+05 -3.072768E+03
       524  21 -8.297480E+06 -6.878181E+05 -8.824175E+05  1.216755E+05 -5.684674E+05 -2.823771E+03
       524  22 -8.142460E+06  2.304493E+04 -2.443796E+05  1.452620E+04 -1.703897E+05  3.731801E+01
       524  23 -8.016271E+06  1.411171E+05 -3.653078E+05 -3.470100E+04 -3.691382E+05 -3.056941E+03
       524  24 -8.145102E+06 -6.502459E+05 -8.442682E+05  1.664820E+04 -5.679096E+05 -2.724231E+03
       524  25 -8.116408E+06  3.007241E+04 -2.376238E+05  6.520299E+04 -1.713859E+05  1.976259E+01
       524  26 -7.927142E+06  1.633170E+05 -3.431575E+05 -6.189189E+04 -3.693472E+05 -3.041097E+03
       524  27 -7.992678E+06 -6.126332E+05 -8.061147E+05 -8.840513E+04 -5.673518E+05 -2.624904E+03
       525   1 -7.212138E+06 -4.134770E+05 -6.089084E+05 -1.347633E+05 -5.671771E+05 -7.553356E+03
       525   2 -7.093191E+06  3.813975E+05 -1.316637E+05 -6.297882E+04 -3.693175E+05 -1.840859E+04
       525   3 -7.225151E+06  2.613916E+05 -1.193224E+04  2.189027E+04 -1.715317E+05 -1.529842E+04
       525   4 -8.173926E+06 -6.549893E+05 -8.504164E+05 -3.091820E+04 -5.709418E+05 -7.664968E+03
       525   5 -8.046676E+06  1.418517E+05 -3.694098E+05 -3.867059E+04 -3.700482E+05 -1.843025E+04
       525   6 -8.171260E+06  2.249925E+04 -2.484404E+05 -3.334781E+04 -1.692245E+05 -1.527202E+04
       525   7 -9.134840E+06 -8.965306E+05 -1.091989E+06  7.276366E+04 -5.747001E+05 -7.777998E+03
       525   8 -8.999323E+06 -9.776084E+04 -6.072244E+05 -1.440106E+04 -3.707773E+05 -1.845200E+04
       525   9 -9.116540E+06 -2.164507E+05 -4.850152E+05 -8.850188E+04 -1.669207E+05 -1.524601E+04
       525  10 -7.212487E+06 -4.135646E+05 -6.095201E+05 -1.347668E+05 -2.772912E-09  2.467719E-09
       525  11 -7.093339E+06  3.813600E+05 -1.319236E+05 -6.298431E+04 -7.527442E-10 -1.151349E-09
       525  12 -7.225183E+06  2.613834E+05 -1.198863E+04  2.188815E+04  1.336016E-09 -1.209905E-08
       525  13 -8.174280E+06 -6.550783E+05 -8.510371E+05 -3.092174E+04 -2.748102E-10  4.601938E-09
       525  14 -8.046825E+06  1.418140E+05 -3.696711E+05 -3.867611E+04 -1.956052E-09  6.257399E-12
       525  15 -8.171292E+06  2.249118E+04 -2.484953E+05 -3.334989E+04  1.665489E-09 -1.020670E-09
       525  16 -9.135198E+06 -8.966210E+05 -1.092619E+06  7.276006E+04  2.063888E-09  2.945789E-09
       525  17 -8.999472E+06 -9.779879E+04 -6.074872E+05 -1.440659E+04  1.461792E-08 -9.829715E-09
       525  18 -9.116570E+06 -2.164586E+05 -4.850687E+05 -8.850393E+04  5.397134E-10 -1.186925E-08
       525  19 -7.212138E+06 -4.134770E+05 -6.089084E+05 -1.347633E+05  5.671771E+05  7.553356E+03
       525  20 -7.093191E+06  3.813975E+05 -1.316637E+05 -6.297882E+04  3.693175E+05  1.840859E+04
       525  21 -7.225151E+06  2.613916E+05 -1.193224E+04  2.189027E+04  1.715317E+05  1.529842E+04
       525  22 -8.173926E+06 -6.549893E+05 -8.504164E+05 -3.091820E+04  5.709418E+05  7.664968E+03
       525  23 -8.046676E+06  1.418517E+05 -3.694098E+05 -3.867059E+04  3.700482E+05  1.843025E+04
       525  24 -8.171260E+06  2.249925E+04 -2.484404E+05 -3.334781E+04  1.692245E+05  1.527202E+04
       525  25 -9.134840E+06 -8.965306E+05 -1.091989E+06  7.276366E+04  5.747001E+05  7.777998E+03
       525  26 -8.999323E+06 -9.776084E+04 -6.072244E+05 -1.440106E+04  3.707773E+05  1.845200E+04
       525  27 -9.116540E+06 -2.164507E+05 -4.850152E+05 -8.850188E+04  1.669207E+05  1.524601E+04
       526   1 -7.363932E+06  9.891824E+04 -2.095422E+04 -1.892872E+04 -1.281944E+05 -1.233583E+04
       526   2 -7.420597E+06  1.947725E+05  4.777308E+04 -6.947506E+04 -6.543059E+04 -1.155304E+04
       526   3 -7.523309E+06  1.398454E+05  3.760779E+04  5.957163E+03 -2.701941E+03 -7.582028E+03
       526   4 -8.126157E+06 -9.270670E+04 -2.113318E+05 -6.970169E+03 -1.283788E+05 -1.234124E+04
       526   5 -8.102867E+06  2.309543E+04 -1.225475E+05 -7.021918E+04 -6.492589E+04 -1.155043E+04
       526   6 -8.125808E+06 -1.210022E+04 -1.132071E+05 -7.479297E+03 -1.500015E+03 -7.572479E+03
       526   7 -8.887846E+06 -2.843753E+05 -4.017534E+05  4.972660E+03 -1.285629E+05 -1.234665E+04
       526   8 -8.784708E+06 -1.486171E+05 -2.929035E+05 -7.096324E+04 -6.442172E+04 -1.154782E+04
       526   9 -8.727972E+06 -1.640731E+05 -2.640496E+05 -2.090325E+04 -2.992661E+02 -7.562978E+03
       526  10 -7.363950E+06  9.891360E+04 -2.098576E+04 -1.892999E+04 -1.222055E-10 -1.722204E-08
       526  11 -7.420602E+06  1.947712E+05  4.776468E+04 -6.947567E+04 -4.041133E-09  3.127369E-09
       526  12 -7.523309E+06  1.398453E+05  3.760766E+04  5.957146E+03 -7.439026E-09  1.185892E-08
       526  13 -8.126175E+06 -9.271136E+04 -2.113635E+05 -6.971448E+03  4.197279E-09 -1.549039E-08
       526  14 -8.102872E+06  2.309413E+04 -1.225558E+05 -7.021979E+04 -1.748447E-09 -6.533800E-09
       526  15 -8.125808E+06 -1.210028E+04 -1.132072E+05 -7.479306E+03  1.674216E-08 -3.459532E-09
       526  16 -8.887864E+06 -2.843800E+05 -4.017852E+05  4.971377E+03  1.248540E-09 -4.061626E-09
       526  17 -8.784713E+06 -1.486184E+05 -2.929116E+05 -7.096384E+04  9.373279E-09 -3.278420E-09
       526  18 -8.727972E+06 -1.640732E+05 -2.640497E+05 -2.090325E+04  5.586815E-09  7.179117E-09
       526  19 -7.363932E+06  9.891824E+04 -2.095422E+04 -1.892872E+04  1.281944E+05  1.233583E+04
       526  20 -7.420597E+06  1.947725E+05  4.777308E+04 -6.947506E+04  6.543059E+04  1.155304E+04
       526  21 -7.523309E+06  1.398454E+05  3.760779E+04  5.957163E+03  2.701941E+03  7.582028E+03
       526  22 -8.126157E+06 -9.270670E+04 -2.113318E+05 -6.970169E+03  1.283788E+05  1.234124E+04
       526  23 -8.102867E+06  2.309543E+04 -1.225475E+05 -7.021918E+04  6.492589E+04  1.155043E+04
       526  24 -8.125808E+06 -1.210022E+04 -1.132071E+05 -7.479297E+03  1.500015E+03  7.572479E+03
       526  25 -8.887846E+06 -2.843753E+05 -4.017534E+05  4.972660E+03  1.285629E+05  1.234665E+04
       526  26 -8.784708E+06 -1.486171E+05 -2.929035E+05 -7.096324E+04  6.442172E+04  1.154782E+04
       526  27 -8.727972E+06 -1.640731E+05 -2.640496E+05 -2.090325E+04  2.992661E+02  7.562978E+03
       527   1 -7.933252E+06  4.027364E+04 -6.755554E+04 -5.358632E+03  1.798013E+04 -4.594563E+03
       527   2 -8.018666E+06  4.729864E+04 -1.173007E+05 -8.067203E+04  8.957981E+04 -3.756670E+02
       527   3 -8.161119E+06 -1.202134E+05 -2.585230E+05  2.350600E+04  1.611708E+05  3.005773E+03
       527   4 -8.128082E+06 -8.502970E+03 -1.159176E+05  4.281970E+03  1.893539E+04 -4.586104E+03
       527   5 -8.099837E+06  2.677043E+04 -1.376155E+05 -8.501231E+04  9.032561E+04 -3.697789E+02
       527   6 -8.128603E+06 -1.124659E+05 -2.506458E+05  5.189153E+03  1.617203E+05  3.005747E+03
       527   7 -8.322876E+06 -5.728206E+04 -1.642824E+05  1.391943E+04  1.989034E+04 -4.577613E+03
       527   8 -8.181001E+06  6.241786E+03 -1.579308E+05 -8.935204E+04  9.107132E+04 -3.639010E+02
       527   9 -8.096085E+06 -1.047171E+05 -2.427685E+05 -1.312867E+04  1.622699E+05  3.005690E+03
       527  10 -7.933252E+06  4.027353E+04 -6.755619E+04 -5.358566E+03 -3.556382E-09  1.898367E-08
       527  11 -8.018675E+06  4.729645E+04 -1.173159E+05 -8.067200E+04 -4.213560E-09  1.602136E-08
       527  12 -8.161147E+06 -1.202205E+05 -2.585725E+05  2.350561E+04  5.331961E-09  9.100135E-12
       527  13 -8.128082E+06 -8.503090E+03 -1.159183E+05  4.282041E+03  1.357643E-08 -1.137703E-09
       527  14 -8.099846E+06  2.676821E+04 -1.376310E+05 -8.501229E+04  2.297212E-11  1.403224E-08
       527  15 -8.128631E+06 -1.124730E+05 -2.506956E+05  5.188760E+03  1.221915E-08  2.037037E-08
       527  16 -8.322877E+06 -5.728219E+04 -1.642832E+05  1.391951E+04  4.565223E-09  1.549735E-08
       527  17 -8.181010E+06  6.239523E+03 -1.579466E+05 -8.935201E+04  1.192631E-08  1.315760E-08
       527  18 -8.096113E+06 -1.047243E+05 -2.428186E+05 -1.312906E+04 -2.532193E-09  1.717912E-08
       527  19 -7.933252E+06  4.027364E+04 -6.755554E+04 -5.358632E+03 -1.798013E+04  4.594563E+03
       527  20 -8.018666E+06  4.729864E+04 -1.173007E+05 -8.067203E+04 -8.957981E+04  3.756670E+02
       527  21 -8.161119E+06 -1.202134E+05 -2.585230E+05  2.350600E+04 -1.611708E+05 -3.005773E+03
       527  22 -8.128082E+06 -8.502970E+03 -1.159176E+05  4.281970E+03 -1.893539E+04  4.586104E+03
       527  23 -8.099837E+06  2.677043E+04 -1.376155E+05 -8.501231E+04 -9.032561E+04  3.697789E+02
       527  24 -8.128603E+06 -1.124659E+05 -2.506458E+05  5.189153E+03 -1.617203E+05 -3.005747E+03
       527  25 -8.322876E+06 -5.728206E+04 -1.642824E+05  1.391943E+04 -1.989034E+04  4.577613E+03
       527  26 -8.181001E+06  6.241786E+03 -1.579308E+05 -8.935204E+04 -9.107132E+04  3.639010E+02
       527  27 -8.096085E+06 -1.047171E+05 -2.427685E+05 -1.312867E+04 -1.622699E+05 -3.005690E+03
       528   1 -8.650589E+06 -8.984036E+04 -4.144765E+05 -6.897047E+04  2.079367E+05  7.380939E+03
       528   2 -8.589265E+06  3.206878E+04 -5.862326E+05 -4.590858E+04  4.535271E+05  1.380949E+04
       528   3 -8.840918E+06 -9.591070E+05 -1.197963E+06  1.275082E+05  6.991814E+05  9.069572E+03
       528   4 -8.184539E+06  2.896116E+04 -2.974478E+05 -3.991578E+03  2.104125E+05  7.423076E+03
       528   5 -8.030027E+06  1.722258E+05 -4.468135E+05 -7.620343E+04  4.535302E+05  1.378405E+04
       528   6 -8.187768E+06 -7.966398E+05 -1.034114E+06  1.966630E+03  6.967503E+05  8.904461E+03
       528   7 -7.718281E+06  1.477614E+05 -1.804337E+05  6.103636E+04  2.128900E+05  7.465717E+03
       528   8 -7.470498E+06  3.123628E+05 -3.074175E+05 -1.065265E+05  4.535332E+05  1.375863E+04
       528   9 -7.534190E+06 -6.341437E+05 -8.702883E+05 -1.237093E+05  6.943163E+05  8.740492E+03
       528  10 -8.650636E+06 -8.985223E+04 -4.145590E+05 -6.897171E+04  4.051644E-09  1.928292E-09
       528  11 -8.589488E+06  3.201238E+04 -5.866249E+05 -4.591364E+04 -7.932827E-09  2.666865E-08
       528  12 -8.841449E+06 -9.592406E+05 -1.198895E+06  1.275031E+05 -4.259543E-09  1.050142E-08
       528  13 -8.184587E+06  2.894902E+04 -2.975323E+05 -3.992840E+03  4.330348E-09  9.430245E-09
       528  14 -8.030250E+06  1.721694E+05 -4.472055E+05 -7.620849E+04 -7.891490E-09  1.586938E-08
       528  15 -8.188295E+06 -7.967723E+05 -1.035038E+06  1.961613E+03  1.336595E-08 -2.177513E-09
       528  16 -7.718330E+06  1.477490E+05 -1.805200E+05  6.103508E+04  3.695898E-10  1.357958E-08
       528  17 -7.470721E+06  3.123065E+05 -3.078091E+05 -1.065315E+05  1.313306E-08 -2.895725E-09
       528  18 -7.534712E+06 -6.342751E+05 -8.712054E+05 -1.237142E+05  1.488558E-09 -8.067794E-09
       528  19 -8.650589E+06 -8.984036E+04 -4.144765E+05 -6.897047E+04 -2.079367E+05 -7.380939E+03
       528  20 -8.589265E+06  3.206878E+04 -5.862326E+05 -4.590858E+04 -4.535271E+05 -1.380949E+04
       528  21 -8.840918E+06 -9.591070E+05 -1.197963E+06  1.275082E+05 -6.991814E+05 -9.069572E+03
       528  22 -8.184539E+06  2.896116E+04 -2.974478E+05 -3.991578E+03 -2.104125E+05 -7.423076E+03
       528  23 -8.030027E+06  1.722258E+05 -4.468135E+05 -7.620343E+04 -4.535302E+05 -1.378405E+04
       528  24 -8.187768E+06 -7.966398E+05 -1.034114E+06  1.966630E+03 -6.967503E+05 -8.904461E+03
       528  25 -7.718281E+06  1.477614E+05 -1.804337E+05  6.103636E+04 -2.128900E+05 -7.465717E+03
       528  26 -7.470498E+06  3.123628E+05 -3.074175E+05 -1.065265E+05 -4.535332E+05 -1.375863E+04
       528  27 -7.534190E+06 -6.341437E+05 -8.702883E+05 -1.237093E+05 -6.943163E+05 -8.740492E+03
       529   1 -5.090372E+06 -2.381337E+05 -3.632621E+05 -8.385517E+04 -3.623316E+05 -6.822161E+03
       529   2 -5.046307E+06  2.626383E+05 -6.661680E+04 -6.490520E+04 -2.355718E+05 -1.401090E+04
       529   3 -5.164252E+06  1.781761E+05  1.060762E+03  1.450656E+04 -1.089063E+05 -1.040535E+04
       529   4 -5.815287E+06 -4.191770E+05 -5.447192E+05 -1.950090E+04 -3.652501E+05 -6.883520E+03
       529   5 -5.733362E+06  9.054542E+04 -2.374672E+05 -5.130366E+04 -2.360553E+05 -1.402243E+04
       529   6 -5.814065E+06  1.424626E+04 -1.610776E+05 -2.264293E+04 -1.069464E+05 -1.038270E+04
       529   7 -6.539712E+06 -6.002439E+05 -7.262137E+05  4.477684E+04 -3.681650E+05 -6.945541E+03
       529   8 -6.419983E+06 -8.158233E+04 -4.083530E+05 -3.771814E+04 -2.365381E+05 -1.403398E+04
       529   9 -6.463487E+06 -1.497109E+05 -3.232474E+05 -5.975403E+04 -1.049886E+05 -1.036028E+04
       529  10 -5.090514E+06 -2.381693E+05 -3.635109E+05 -8.385717E+04  4.493780E-10 -3.027633E-09
       529  11 -5.046367E+06  2.626231E+05 -6.672232E+04 -6.490786E+04  5.331773E-10 -2.207414E-09
       529  12 -5.164265E+06  1.781727E+05  1.038083E+03  1.450564E+04 -4.860196E-10 -1.399557E-08
       529  13 -5.815432E+06 -4.192133E+05 -5.449724E+05 -1.950293E+04 -2.454290E-09  1.458857E-08
       529  14 -5.733422E+06  9.053008E+04 -2.375733E+05 -5.130633E+04 -5.275557E-09  5.179240E-09
       529  15 -5.814077E+06  1.424304E+04 -1.610995E+05 -2.264382E+04  1.524838E-08 -1.650071E-08
       529  16 -6.539858E+06 -6.002808E+05 -7.264712E+05  4.477478E+04 -1.479507E-09  6.628101E-09
       529  17 -6.420043E+06 -8.159776E+04 -4.084596E+05 -3.772082E+04  6.657740E-09 -1.424824E-09
       529  18 -6.463499E+06 -1.497140E+05 -3.232685E+05 -5.975491E+04  1.014975E-09 -2.115937E-08
       529  19 -5.090372E+06 -2.381337E+05 -3.632621E+05 -8.385517E+04  3.623316E+05  6.822161E+03
       529  20 -5.046307E+06  2.626383E+05 -6.661680E+04 -6.490520E+04  2.355718E+05  1.401090E+04
       529  21 -5.164252E+06  1.781761E+05  1.060762E+03  1.450656E+04  1.089063E+05  1.040535E+04
       529  22 -5.815287E+06 -4.191770E+05 -5.447192E+05 -1.950090E+04  3.652501E+05  6.883520E+03
       529  23 -5.733362E+06  9.054542E+04 -2.374672E+05 -5.130366E+04  2.360553E+05  1.402243E+04
       529  24 -5.814065E+06  1.424626E+04 -1.610776E+05 -2.264293E+04  1.069464E+05  1.038270E+04
       529  25 -6.539712E+06 -6.002439E+05 -7.262137E+05  4.477684E+04  3.681650E+05  6.945541E+03
       529  26 -6.419983E+06 -8.158233E+04 -4.083530E+05 -3.771814E+04  2.365381E+05  1.403398E+04
       529  27 -6.463487E+06 -1.497109E+05 -3.232474E+05 -5.975403E+04  1.049886E+05  1.036028E+04
       530   1 -5.355372E+06  4.866059E+04 -3.084811E+04 -1.750508E+04 -8.035801E+04 -7.486593E+03
       530   2 -5.408766E+06  1.054476E+05  6.951182E+03 -6.460099E+04 -3.791039E+04 -6.223634E+03
       530   3 -5.494557E+06  6.319582E+04 -8.222925E+03 -1.927413E+03  4.512455E+03 -3.132951E+03
       530   4 -5.785389E+06 -5.909844E+04 -1.379319E+05 -1.025075E+04 -8.033264E+04 -7.487998E+03
       530   5 -5.769067E+06  1.500834E+04 -8.277100E+04 -6.536210E+04 -3.747525E+04 -6.219724E+03
       530   6 -5.785240E+06 -1.002902E+04 -8.089536E+04 -1.069900E+04  5.362150E+03 -3.124378E+03
       530   7 -6.215237E+06 -1.668712E+05 -2.450296E+05 -3.001885E+03 -8.030727E+04 -7.489403E+03
       530   8 -6.129250E+06 -7.544081E+04 -1.725030E+05 -6.612305E+04 -3.704035E+04 -6.215814E+03
       530   9 -6.075846E+06 -8.326007E+04 -1.535742E+05 -1.946664E+04  6.211442E+03 -3.115827E+03
       530  10 -5.355379E+06  4.865878E+04 -3.086046E+04 -1.750557E+04 -1.485136E-08  9.750417E-10
       530  11 -5.408767E+06  1.054472E+05  6.948385E+03 -6.460118E+04 -6.811910E-09  1.040088E-08
       530  12 -5.494557E+06  6.319580E+04 -8.222982E+03 -1.927402E+03 -2.494192E-09 -1.037263E-09
       530  13 -5.785396E+06 -5.910025E+04 -1.379442E+05 -1.025124E+04  5.303461E-09 -5.740189E-09
       530  14 -5.769069E+06  1.500792E+04 -8.277373E+04 -6.536229E+04 -7.458216E-09  1.254236E-08
       530  15 -5.785240E+06 -1.002904E+04 -8.089543E+04 -1.069898E+04  1.594755E-08  7.160794E-09
       530  16 -6.215244E+06 -1.668730E+05 -2.450419E+05 -3.002370E+03  1.600144E-08 -2.898777E-09
       530  17 -6.129251E+06 -7.544123E+04 -1.725056E+05 -6.612324E+04  2.415380E-08 -2.243107E-08
       530  18 -6.075846E+06 -8.326009E+04 -1.535743E+05 -1.946662E+04  1.112432E-09 -1.219163E-09
       530  19 -5.355372E+06  4.866059E+04 -3.084811E+04 -1.750508E+04  8.035801E+04  7.486593E+03
       530  20 -5.408766E+06  1.054476E+05  6.951182E+03 -6.460099E+04  3.791039E+04  6.223634E+03
       530  21 -5.494557E+06  6.319582E+04 -8.222925E+03 -1.927413E+03 -4.512455E+03  3.132951E+03
       530  22 -5.785389E+06 -5.909844E+04 -1.379319E+05 -1.025075E+04  8.033264E+04  7.487998E+03
       530  23 -5.769067E+06  1.500834E+04 -8.277100E+04 -6.536210E+04  3.747525E+04  6.219724E+03
       530  24 -5.785240E+06 -1.002902E+04 -8.089536E+04 -1.069900E+04 -5.362150E+03  3.124378E+03
       530  25 -6.215237E+06 -1.668712E+05 -2.450296E+05 -3.001885E+03  8.030727E+04  7.489403E+03
       530  26 -6.129250E+06 -7.544081E+04 -1.725030E+05 -6.612305E+04  3.704035E+04  6.215814E+03
       530  27 -6.075846E+06 -8.326007E+04 -1.535742E+05 -1.946664E+04 -6.211442E+03  3.115827E+03
       531   1 -5.801936E+06 -8.560245E+03 -8.847867E+04 -1.628583E+04  1.939582E+04 -8.828984E+02
       531   2 -5.858162E+06 -2.598229E+03 -1.280678E+05 -6.668063E+04  7.424646E+04  2.341548E+03
       531   3 -5.958381E+06 -1.311321E+05 -2.378728E+05  6.146752E+03  1.291002E+05  4.472018E+03
       531   4 -5.787736E+06 -4.736602E+03 -8.469295E+04 -7.855605E+03  2.016161E+04 -8.746961E+02
       531   5 -5.765913E+06  2.049491E+04 -1.051158E+05 -6.904508E+04  7.475782E+04  2.346378E+03
       531   6 -5.788034E+06 -8.871244E+04 -1.955661E+05 -7.011907E+03  1.293640E+05  4.471600E+03
       531   7 -5.773535E+06 -9.127080E+02 -8.090722E+04  5.748121E+02  2.092742E+04 -8.664729E+02
       531   8 -5.673656E+06  4.358744E+04 -8.216451E+04 -7.140989E+04  7.526925E+04  2.351203E+03
       531   9 -5.617660E+06 -4.629421E+04 -1.532616E+05 -2.017428E+04  1.296279E+05  4.471171E+03
       531  10 -5.801936E+06 -8.560348E+03 -8.847938E+04 -1.628581E+04 -1.220493E-08  1.226590E-08
       531  11 -5.858168E+06 -2.599732E+03 -1.280782E+05 -6.668077E+04 -1.629297E-09  1.691083E-08
       531  12 -5.958399E+06 -1.311367E+05 -2.379045E+05  6.146286E+03  2.120547E-09  1.251765E-08
       531  13 -5.787736E+06 -4.736713E+03 -8.469373E+04 -7.855591E+03  5.326290E-09  6.630517E-09
       531  14 -5.765919E+06  2.049339E+04 -1.051264E+05 -6.904522E+04 -3.419675E-09  1.653800E-08
       531  15 -5.788052E+06 -8.871700E+04 -1.955979E+05 -7.012374E+03  1.573592E-08  1.268042E-09
       531  16 -5.773536E+06 -9.128277E+02 -8.090805E+04  5.748268E+02  1.437355E-08  1.366468E-09
       531  17 -5.673662E+06  4.358590E+04 -8.217527E+04 -7.141004E+04  1.709261E-08 -1.420535E-08
       531  18 -5.617678E+06 -4.629879E+04 -1.532935E+05 -2.017474E+04 -2.444015E-09 -1.862949E-08
       531  19 -5.801936E+06 -8.560245E+03 -8.847867E+04 -1.628583E+04 -1.939582E+04  8.828984E+02
       531  20 -5.858162E+06 -2.598229E+03 -1.280678E+05 -6.668063E+04 -7.424646E+04 -2.341548E+03
       531  21 -5.958381E+06 -1.311321E+05 -2.378728E+05  6.146752E+03 -1.291002E+05 -4.472018E+03
       531  22 -5.787736E+06 -4.736602E+03 -8.469295E+04 -7.855605E+03 -2.016161E+04  8.746961E+02
       531  23 -5.765913E+06  2.049491E+04 -1.051158E+05 -6.904508E+04 -7.475782E+04 -2.346378E+03
       531  24 -5.788034E+06 -8.871244E+04 -1.955661E+05 -7.011907E+03 -1.293640E+05 -4.471600E+03
       531  25 -5.773535E+06 -9.127080E+02 -8.090722E+04  5.748121E+02 -2.092742E+04  8.664729E+02
       531  26 -5.673656E+06  4.358744E+04 -8.216451E+04 -7.140989E+04 -7.526925E+04 -2.351203E+03
       531  27 -5.617660E+06 -4.629421E+04 -1.532616E+05 -2.017428E+04 -1.296279E+05 -4.471171E+03
       532   1 -6.285083E+06 -9.207593E+04 -3.461888E+05 -6.744662E+04  1.656172E+05  7.655057E+03
       532   2 -6.223339E+06  7.198266E+03 -4.788778E+05 -3.825351E+04  3.589753E+05  1.252377E+04
       532   3 -6.407365E+06 -7.692089E+05 -9.574232E+05  8.855017E+04  5.524119E+05  8.211522E+03
       532   4 -5.832325E+06  2.293914E+04 -2.329102E+05 -1.521797E+04  1.675075E+05  7.686634E+03
       532   5 -5.710635E+06  1.353672E+05 -3.513778E+05 -6.122913E+04  3.588094E+05  1.250627E+04
       532   6 -5.834151E+06 -6.271520E+05 -8.140503E+05 -9.616906E+03  5.502091E+05  8.100895E+03
       532   7 -5.379372E+06  1.379484E+05 -1.196458E+05  3.704873E+04  1.693992E+05  7.718517E+03
       532   8 -5.197688E+06  2.635186E+05 -2.238973E+05 -8.422445E+04  3.586432E+05  1.248880E+04
       532   9 -5.260614E+06 -4.850823E+05 -6.706965E+05 -1.078760E+05  5.480042E+05  7.991054E+03
       532  10 -6.285113E+06 -9.208345E+04 -3.462409E+05 -6.744764E+04 -5.309100E-09  3.437375E-09
       532  11 -6.223479E+06  7.163060E+03 -4.791227E+05 -3.825714E+04 -4.472006E-09  2.488337E-10
       532  12 -6.407695E+06 -7.692919E+05 -9.580027E+05  8.854651E+04  1.045356E-10 -2.074657E-09
       532  13 -5.832355E+06  2.293146E+04 -2.329635E+05 -1.521901E+04  9.860819E-10  1.663279E-08
       532  14 -5.710774E+06  1.353321E+05 -3.516223E+05 -6.123276E+04  1.425413E-09 -1.502982E-08
       532  15 -5.834478E+06 -6.272343E+05 -8.146246E+05 -9.620508E+03  1.149633E-08  1.309650E-08
       532  16 -5.379403E+06  1.379405E+05 -1.197003E+05  3.704767E+04  5.718151E-09  1.145467E-08
       532  17 -5.197827E+06  2.634835E+05 -2.241414E+05 -8.422807E+04  1.387554E-08  1.265331E-08
       532  18 -5.260938E+06 -4.851638E+05 -6.712658E+05 -1.078795E+05  2.728555E-10 -1.392018E-09
       532  19 -6.285083E+06 -9.207593E+04 -3.461888E+05 -6.744662E+04 -1.656172E+05 -7.655057E+03
       532  20 -6.223339E+06  7.198266E+03 -4.788778E+05 -3.825351E+04 -3.589753E+05 -1.252377E+04
       532  21 -6.407365E+06 -7.692089E+05 -9.574232E+05  8.855017E+04 -5.524119E+05 -8.211522E+03
       532  22 -5.832325E+06  2.293914E+04 -2.329102E+05 -1.521797E+04 -1.675075E+05 -7.686634E+03
       532  23 -5.710635E+06  1.353672E+05 -3.513778E+05 -6.122913E+04 -3.588094E+05 -1.250627E+04
       532  24 -5.834151E+06 -6.271520E+05 -8.140503E+05 -9.616906E+03 -5.502091E+05 -8.100895E+03
       532  25 -5.379372E+06  1.379484E+05 -1.196458E+05  3.704873E+04 -1.693992E+05 -7.718517E+03
       532  26 -5.197688E+06  2.635186E+05 -2.238973E+05 -8.422445E+04 -3.586432E+05 -1.248880E+04
       532  27 -5.260614E+06 -4.850823E+05 -6.706965E+05 -1.078760E+05 -5.480042E+05 -7.991054E+03
       533   1 -2.655649E+06 -7.967951E+04 -1.391791E+05 -3.131768E+04 -1.703725E+05 -4.206724E+03
       533   2 -2.654919E+06  1.514920E+05 -4.758924E+03 -3.856528E+04 -1.106600E+05 -8.714745E+03
       533   3 -2.731449E+06  1.066917E+05  2.164139E+04  1.467336E+04 -5.101579E+04 -6.106036E+03
       533   4 -3.129395E+06 -1.977626E+05 -2.574419E+05 -2.003429E+03 -1.723338E+05 -4.232478E+03
       533   5 -3.090433E+06  4.266726E+04 -1.127514E+05 -3.312374E+04 -1.109616E+05 -8.719325E+03
       533   6 -3.129080E+06  6.728183E+03 -7.729663E+04 -3.754664E+03 -4.965400E+04 -6.091874E+03
       533   7 -3.602934E+06 -3.158591E+05 -3.757211E+05  2.728794E+04 -1.742935E+05 -4.258431E+03
       533   8 -3.525774E+06 -6.617159E+04 -2.207579E+05 -2.768642E+04 -1.112630E+05 -8.723911E+03
       533   9 -3.526567E+06 -9.324619E+04 -1.762464E+05 -2.217117E+04 -4.829308E+04 -6.077788E+03
       533  10 -2.655680E+06 -7.968737E+04 -1.392339E+05 -3.131826E+04 -5.675371E-09  4.048505E-09
       533  11 -2.654933E+06  1.514886E+05 -4.782179E+03 -3.856606E+04 -3.652793E-09  2.971573E-08
       533  12 -2.731451E+06  1.066910E+05  2.163641E+04  1.467311E+04 -1.958055E-10  1.463093E-08
       533  13 -3.129427E+06 -1.977706E+05 -2.574981E+05 -2.004017E+03  6.749618E-09 -1.836430E-08
       533  14 -3.090446E+06  4.266385E+04 -1.127748E+05 -3.312452E+04  2.842188E-09 -3.030302E-08
       533  15 -3.129083E+06  6.727478E+03 -7.730136E+04 -3.754908E+03  1.388640E-08  7.411758E-12
       533  16 -3.602966E+06 -3.158673E+05 -3.757786E+05  2.728734E+04  9.345404E-09  2.027239E-09
       533  17 -3.525787E+06 -6.617502E+04 -2.207815E+05 -2.768720E+04  1.342323E-08  2.557162E-08
       533  18 -3.526569E+06 -9.324686E+04 -1.762509E+05 -2.217140E+04 -4.225442E-09 -3.501426E-09
       533  19 -2.655649E+06 -7.967951E+04 -1.391791E+05 -3.131768E+04  1.703725E+05  4.206724E+03
       533  20 -2.654919E+06  1.514920E+05 -4.758924E+03 -3.856528E+04  1.106600E+05  8.714745E+03
       533  21 -2.731449E+06  1.066917E+05  2.164139E+04  1.467336E+04  5.101579E+04  6.106036E+03
       533  22 -3.129395E+06 -1.977626E+05 -2.574419E+05 -2.003429E+03  1.723338E+05  4.232478E+03
       533  23 -3.090433E+06  4.266726E+04 -1.127514E+05 -3.312374E+04  1.109616E+05  8.719325E+03
       533  24 -3.129080E+06  6.728183E+03 -7.729663E+04 -3.754664E+03  4.965400E+04  6.091874E+03
       533  25 -3.602934E+06 -3.158591E+05 -3.757211E+05  2.728794E+04  1.742935E+05  4.258431E+03
       533  26 -3.525774E+06 -6.617159E+04 -2.207579E+05 -2.768642E+04  1.112630E+05  8.723911E+03
       533  27 -3.526567E+06 -9.324619E+04 -1.762464E+05 -2.217117E+04  4.829308E+04  6.077788E+03
       534   1 -2.890632E+06  2.852209E+04 -1.088315E+04 -3.025824E+03 -3.688173E+04 -4.002173E+03
       534   2 -2.930200E+06  5.162345E+04  2.235941E+03 -3.695442E+04 -1.551175E+04 -3.036047E+03
       534   3 -2.986372E+06  2.645087E+04 -1.102365E+04  4.368751E+03  5.845648E+03 -1.092651E+03
       534   4 -3.115584E+06 -2.768808E+04 -6.672114E+04  2.892494E+02 -3.680936E+04 -4.001841E+03
       534   5 -3.107241E+06  7.309453E+03 -4.172259E+04 -3.744280E+04 -1.521236E+04 -3.033111E+03
       534   6 -3.115550E+06 -6.014788E+03 -4.326748E+04  7.862922E+01  6.373703E+03 -1.087253E+03
       534   7 -3.340490E+06 -8.390199E+04 -1.225629E+05  3.603002E+03 -3.673701E+04 -4.001508E+03
       534   8 -3.284253E+06 -3.700691E+04 -8.568346E+04 -3.793111E+04 -1.491305E+04 -3.030174E+03
       534   9 -3.244713E+06 -3.848165E+04 -7.551257E+04 -4.210634E+03  6.901648E+03 -1.081862E+03
       534  10 -2.890633E+06  2.852170E+04 -1.088575E+04 -3.025943E+03 -1.190584E-09 -8.380903E-09
       534  11 -2.930200E+06  5.162338E+04  2.235469E+03 -3.695446E+04 -2.460089E-09  4.808118E-09
       534  12 -2.986373E+06  2.645086E+04 -1.102372E+04  4.368756E+03 -1.191081E-10  2.248367E-08
       534  13 -3.115585E+06 -2.768846E+04 -6.672373E+04  2.891307E+02  5.474296E-10  2.907316E-08
       534  14 -3.107241E+06  7.309381E+03 -4.172304E+04 -3.744283E+04  3.761129E-09 -6.971465E-08
       534  15 -3.115550E+06 -6.014801E+03 -4.326756E+04  7.863480E+01  1.037386E-08  2.380539E-08
       534  16 -3.340491E+06 -8.390237E+04 -1.225655E+05  3.602884E+03  1.222462E-08 -3.003392E-08
       534  17 -3.284253E+06 -3.700698E+04 -8.568390E+04 -3.793114E+04  1.756042E-08 -8.657762E-09
       534  18 -3.244713E+06 -3.848167E+04 -7.551266E+04 -4.210628E+03 -9.547000E-09  1.673345E-08
       534  19 -2.890632E+06  2.852209E+04 -1.088315E+04 -3.025824E+03  3.688173E+04  4.002173E+03
       534  20 -2.930200E+06  5.162345E+04  2.235941E+03 -3.695442E+04  1.551175E+04  3.036047E+03
       534  21 -2.986372E+06  2.645087E+04 -1.102365E+04  4.368751E+03 -5.845648E+03  1.092651E+03
       534  22 -3.115584E+06 -2.768808E+04 -6.672114E+04  2.892494E+02  3.680936E+04  4.001841E+03
       534  23 -3.107241E+06  7.309453E+03 -4.172259E+04 -3.744280E+04  1.521236E+04  3.033111E+03
       534  24 -3.115550E+06 -6.014788E+03 -4.326748E+04  7.862922E+01 -6.373703E+03  1.087253E+03
       534  25 -3.340490E+06 -8.390199E+04 -1.225629E+05  3.603002E+03  3.673701E+04  4.001508E+03
       534  26 -3.284253E+06 -3.700691E+04 -8.568346E+04 -3.793111E+04  1.491305E+04  3.030174E+03
       534  27 -3.244713E+06 -3.848165E+04 -7.551257E+04 -4.210634E+03 -6.901648E+03  1.081862E+03
       535   1 -3.183793E+06 -1.849328E+04 -6.296860E+04 -4.884050E+03  1.388928E+04  3.293613E+02
       535   2 -3.220143E+06 -1.704255E+04 -8.852586E+04 -3.696442E+04  4.523685E+04  2.361335E+03
       535   3 -3.281791E+06 -9.273924E+04 -1.542447E+05  8.028364E+03  7.659107E+04  3.561524E+03
       535   4 -3.117449E+06 -1.725736E+03 -4.632729E+04  3.734672E+02  1.439895E+04  3.347337E+02
       535   5 -3.104867E+06  1.178314E+04 -5.990879E+04 -3.791251E+04  4.555253E+04  2.364385E+03
       535   6 -3.117546E+06 -5.181279E+04 -1.135099E+05  8.741750E+02  7.671523E+04  3.561683E+03
       535   7 -3.051101E+06  1.504157E+04 -2.968631E+04  5.631539E+03  1.490867E+04  3.401145E+02
       535   8 -2.989580E+06  4.060783E+04 -3.129271E+04 -3.886080E+04  4.586827E+04  2.367434E+03
       535   9 -2.953276E+06 -1.088815E+04 -7.277703E+04 -6.281978E+03  7.683941E+04  3.561838E+03
       535  10 -3.183793E+06 -1.849334E+04 -6.296897E+04 -4.884054E+03  4.596222E-09 -1.985938E-08
       535  11 -3.220145E+06 -1.704311E+04 -8.852973E+04 -3.696450E+04 -7.551316E-09 -1.404722E-08
       535  12 -3.281798E+06 -9.274084E+04 -1.542558E+05  8.028144E+03 -3.315712E-09 -2.115416E-08
       535  13 -3.117449E+06 -1.725792E+03 -4.632769E+04  3.734633E+02  5.464402E-09 -2.481741E-09
       535  14 -3.104870E+06  1.178257E+04 -5.991272E+04 -3.791259E+04 -4.096494E-09 -2.632061E-08
       535  15 -3.117552E+06 -5.181440E+04 -1.135210E+05  8.739547E+02  1.603050E-08 -5.690048E-09
       535  16 -3.051101E+06  1.504151E+04 -2.968673E+04  5.631535E+03  4.942520E-09 -1.347430E-08
       535  17 -2.989582E+06  4.060726E+04 -3.129669E+04 -3.886089E+04  1.373112E-08  1.007684E-08
       535  18 -2.953282E+06 -1.088976E+04 -7.278820E+04 -6.282199E+03 -5.399825E-09  2.939492E-08
       535  19 -3.183793E+06 -1.849328E+04 -6.296860E+04 -4.884050E+03 -1.388928E+04 -3.293613E+02
       535  20 -3.220143E+06 -1.704255E+04 -8.852586E+04 -3.696442E+04 -4.523685E+04 -2.361335E+03
       535  21 -3.281791E+06 -9.273924E+04 -1.542447E+05  8.028364E+03 -7.659107E+04 -3.561524E+03
       535  22 -3.117449E+06 -1.725736E+03 -4.632729E+04  3.734672E+02 -1.439895E+04 -3.347337E+02
       535  23 -3.104867E+06  1.178314E+04 -5.990879E+04 -3.791251E+04 -4.555253E+04 -2.364385E+03
       535  24 -3.117546E+06 -5.181279E+04 -1.135099E+05  8.741750E+02 -7.671523E+04 -3.561683E+03
       535  25 -3.051101E+06  1.504157E+04 -2.968631E+04  5.631539E+03 -1.490867E+04 -3.401145E+02
       535  26 -2.989580E+06  4.060783E+04 -3.129271E+04 -3.886080E+04 -4.586827E+04 -2.367434E+03
       535  27 -2.953276E+06 -1.088815E+04 -7.277703E+04 -6.281978E+03 -7.683941E+04 -3.561838E+03
       536   1 -3.488153E+06 -7.339481E+04 -2.214578E+05 -3.416021E+04  9.762491E+04  5.694345E+03
       536   2 -3.457885E+06 -1.712917E+04 -3.009212E+05 -2.169932E+04  2.109762E+05  8.842998E+03
       536   3 -3.571276E+06 -4.722928E+05 -5.824886E+05  5.729144E+04  3.243846E+05  5.402029E+03
       536   4 -3.143647E+06  1.363804E+04 -1.355993E+05 -2.970011E+03  9.893924E+04  5.711652E+03
       536   5 -3.072286E+06  7.907339E+04 -2.053006E+05 -3.454445E+04  2.107739E+05  8.835524E+03
       536   6 -3.144231E+06 -3.664907E+05 -4.759555E+05  4.151516E+02  3.226734E+05  5.355365E+03
       536   7 -2.799030E+06  1.006653E+05 -4.974937E+04  2.823734E+04  1.002543E+05  5.729086E+03
       536   8 -2.686550E+06  1.752655E+05 -1.096910E+05 -4.739792E+04  2.105714E+05  8.828062E+03
       536   9 -2.717012E+06 -2.606895E+05 -3.694341E+05 -5.650079E+04  3.209610E+05  5.309040E+03
       536  10 -3.488164E+06 -7.339742E+04 -2.214759E+05 -3.416066E+04  1.896282E-09 -3.443284E-08
       536  11 -3.457933E+06 -1.714128E+04 -3.010055E+05 -2.170082E+04 -1.654053E-08  4.808306E-09
       536  12 -3.571390E+06 -4.723213E+05 -5.826876E+05  5.729002E+04 -2.936259E-09 -4.414625E-09
       536  13 -3.143657E+06  1.363536E+04 -1.356179E+05 -2.970466E+03  5.157647E-09  3.831794E-09
       536  14 -3.072333E+06  7.906131E+04 -2.053847E+05 -3.454595E+04 -2.717101E-09 -1.205582E-08
       536  15 -3.144343E+06 -3.665188E+05 -4.761522E+05  4.137575E+02  1.356891E-08 -8.604294E-09
       536  16 -2.799041E+06  1.006626E+05 -4.976841E+04  2.823688E+04  2.870692E-09  1.810819E-08
       536  17 -2.686598E+06  1.752535E+05 -1.097748E+05 -4.739942E+04  1.877277E-08  2.596878E-08
       536  18 -2.717123E+06 -2.607174E+05 -3.696286E+05 -5.650216E+04  3.150286E-10  7.877254E-09
       536  19 -3.488153E+06 -7.339481E+04 -2.214578E+05 -3.416021E+04 -9.762491E+04 -5.694345E+03
       536  20 -3.457885E+06 -1.712917E+04 -3.009212E+05 -2.169932E+04 -2.109762E+05 -8.842998E+03
       536  21 -3.571276E+06 -4.722928E+05 -5.824886E+05  5.729144E+04 -3.243846E+05 -5.402029E+03
       536  22 -3.143647E+06  1.363804E+04 -1.355993E+05 -2.970011E+03 -9.893924E+04 -5.711652E+03
       536  23 -3.072286E+06  7.907339E+04 -2.053006E+05 -3.454445E+04 -2.107739E+05 -8.835524E+03
       536  24 -3.144231E+06 -3.664907E+05 -4.759555E+05  4.151516E+02 -3.226734E+05 -5.355365E+03
       536  25 -2.799030E+06  1.006653E+05 -4.974937E+04  2.823734E+04 -1.002543E+05 -5.729086E+03
       536  26 -2.686550E+06  1.752655E+05 -1.096910E+05 -4.739792E+04 -2.105714E+05 -8.828062E+03
       536  27 -2.717012E+06 -2.606895E+05 -3.694341E+05 -5.650079E+04 -3.209610E+05 -5.309040E+03
       537   1 -9.562035E+05  9.382236E+02 -1.654239E+04 -1.092161E+03 -4.838029E+04 -1.771017E+03
       537   2 -9.708651E+05  6.357380E+04  1.799412E+04 -1.505602E+04 -3.133310E+04 -3.950728E+03
       537   3 -1.008277E+06  4.694928E+04  2.147888E+04  1.197922E+04 -1.431922E+04 -2.547664E+03
       537   4 -1.187920E+06 -5.682989E+04 -7.429317E+04  6.734857E+03 -4.935584E+04 -1.780348E+03
       537   5 -1.176448E+06  1.227110E+04 -3.288224E+04 -1.402387E+04 -3.145582E+04 -3.952036E+03
       537   6 -1.187885E+06  1.948995E+03 -2.312455E+04  6.217684E+03 -1.358838E+04 -2.540805E+03
       537   7 -1.419587E+06 -1.146018E+05 -1.320479E+05  1.455884E+04 -5.033102E+04 -1.789705E+03
       537   8 -1.381993E+06 -3.903476E+04 -8.376175E+04 -1.299214E+04 -3.157849E+04 -3.953344E+03
       537   9 -1.367463E+06 -4.305361E+04 -6.773038E+04  4.577463E+02 -1.285775E+04 -2.533959E+03
       537  10 -9.562061E+05  9.375907E+02 -1.654680E+04 -1.092230E+03  1.921699E-09  1.009565E-09
       537  11 -9.708661E+05  6.357352E+04  1.799224E+04 -1.505612E+04 -2.140032E-09 -1.485933E-08
       537  12 -1.008277E+06  4.694922E+04  2.147848E+04  1.197920E+04 -1.584713E-08 -6.545309E-09
       537  13 -1.187922E+06 -5.683055E+04 -7.429776E+04  6.734787E+03  3.835407E-09  1.839186E-08
       537  14 -1.176450E+06  1.227082E+04 -3.288414E+04 -1.402397E+04 -5.771401E-09 -1.677282E-08
       537  15 -1.187885E+06  1.948938E+03 -2.312491E+04  6.217656E+03  1.073153E-08 -2.367978E-08
       537  16 -1.419590E+06 -1.146025E+05 -1.320527E+05  1.455877E+04 -5.368757E-09  4.464348E-09
       537  17 -1.381994E+06 -3.903504E+04 -8.376366E+04 -1.299224E+04  1.730670E-08 -3.033907E-08
       537  18 -1.367464E+06 -4.305366E+04 -6.773070E+04  4.577201E+02  1.307002E-08 -3.307613E-08
       537  19 -9.562035E+05  9.382236E+02 -1.654239E+04 -1.092161E+03  4.838029E+04  1.771017E+03
       537  20 -9.708651E+05  6.357380E+04  1.799412E+04 -1.505602E+04  3.133310E+04  3.950728E+03
       537  21 -1.008277E+06  4.694928E+04  2.147888E+04  1.197922E+04  1.431922E+04  2.547664E+03
       537  22 -1.187920E+06 -5.682989E+04 -7.429317E+04  6.734857E+03  4.935584E+04  1.780348E+03
       537  23 -1.176448E+06  1.227110E+04 -3.288224E+04 -1.402387E+04  3.145582E+04  3.952036E+03
       537  24 -1.187885E+06  1.948995E+03 -2.312455E+04  6.217684E+03  1.358838E+04  2.540805E+03
       537  25 -1.419587E+06 -1.146018E+05 -1.320479E+05  1.455884E+04  5.033102E+04  1.789705E+03
       537  26 -1.381993E+06 -3.903476E+04 -8.376175E+04 -1.299214E+04  3.157849E+04  3.953344E+03
       537  27 -1.367463E+06 -4.305361E+04 -6.773038E+04  4.577463E+02  1.285775E+04  2.533959E+03
       538   1 -1.110751E+06  1.048837E+04 -2.198273E+03  5.895308E+03 -9.787000E+03 -1.392203E+03
       538   2 -1.135412E+06  1.373128E+04 -2.577946E+03 -1.456952E+04 -2.692512E+03 -7.910099E+02
       538   3 -1.165755E+06  1.971689E+03 -1.153779E+04  8.082671E+03  4.397727E+03  2.250271E+02
       538   4 -1.184062E+06 -7.792416E+03 -2.034044E+04  6.904141E+03 -9.707912E+03 -1.391494E+03
       538   5 -1.181211E+06  2.292014E+03 -1.392260E+04 -1.467848E+04 -2.514666E+03 -7.893360E+02
       538   6 -1.184060E+06 -2.643769E+03 -1.615407E+04  6.856154E+03  4.674646E+03  2.276538E+02
       538   7 -1.257369E+06 -2.607360E+04 -3.848300E+04  7.912844E+03 -9.628834E+03 -1.390784E+03
       538   8 -1.227008E+06 -9.147407E+03 -2.526740E+04 -1.478743E+04 -2.336833E+03 -7.876622E+02
       538   9 -1.202364E+06 -7.259246E+03 -2.077038E+04  5.629673E+03  4.951556E+03  2.302794E+02
       538  10 -1.110751E+06  1.048834E+04 -2.198457E+03  5.895297E+03 -1.771760E-08  2.936708E-10
       538  11 -1.135412E+06  1.373128E+04 -2.577961E+03 -1.456952E+04 -8.537521E-09 -3.081290E-08
       538  12 -1.165755E+06  1.971684E+03 -1.153783E+04  8.082670E+03 -1.275659E-09 -6.851439E-09
       538  13 -1.184063E+06 -7.792443E+03 -2.034062E+04  6.904130E+03  5.132891E-09 -1.901515E-08
       538  14 -1.181211E+06  2.292012E+03 -1.392261E+04 -1.467848E+04 -8.338040E-09  1.950125E-08
       538  15 -1.184060E+06 -2.643774E+03 -1.615412E+04  6.856153E+03  1.888062E-08  2.259089E-08
       538  16 -1.257369E+06 -2.607362E+04 -3.848318E+04  7.912833E+03  2.274059E-08 -7.458008E-09
       538  17 -1.227008E+06 -9.147409E+03 -2.526742E+04 -1.478743E+04  1.802832E-08 -1.163108E-08
       538  18 -1.202364E+06 -7.259253E+03 -2.077042E+04  5.629672E+03 -6.063762E-09  4.406657E-08
       538  19 -1.110751E+06  1.048837E+04 -2.198273E+03  5.895308E+03  9.787000E+03  1.392203E+03
       538  20 -1.135412E+06  1.373128E+04 -2.577946E+03 -1.456952E+04  2.692512E+03  7.910099E+02
       538  21 -1.165755E+06  1.971689E+03 -1.153779E+04  8.082671E+03 -4.397727E+03 -2.250271E+02
       538  22 -1.184062E+06 -7.792416E+03 -2.034044E+04  6.904141E+03  9.707912E+03  1.391494E+03
       538  23 -1.181211E+06  2.292014E+03 -1.392260E+04 -1.467848E+04  2.514666E+03  7.893360E+02
       538  24 -1.184060E+06 -2.643769E+03 -1.615407E+04  6.856154E+03 -4.674646E+03 -2.276538E+02
       538  25 -1.257369E+06 -2.607360E+04 -3.848300E+04  7.912844E+03  9.628834E+03  1.390784E+03
       538  26 -1.227008E+06 -9.147407E+03 -2.526740E+04 -1.478743E+04  2.336833E+03  7.876622E+02
       538  27 -1.202364E+06 -7.259246E+03 -2.077038E+04  5.629673E+03 -4.951556E+03 -2.302794E+02
       539   1 -1.275443E+06 -2.270879E+04 -4.044089E+04  4.057455E+03  7.434513E+03  9.951514E+02
       539   2 -1.297185E+06 -2.434711E+04 -5.386512E+04 -1.451195E+04  2.047203E+04  2.085095E+03
       539   3 -1.329613E+06 -5.822242E+04 -8.403988E+04  9.437951E+03  3.351448E+04  2.610658E+03
       539   4 -1.185162E+06 -8.232509E+01 -1.797319E+04  6.664250E+03  7.734659E+03  9.980136E+02
       539   5 -1.179840E+06  4.961443E+03 -2.478566E+04 -1.449370E+04  2.063906E+04  2.086602E+03
       539   6 -1.185178E+06 -2.220506E+04 -4.825351E+04  6.867275E+03  3.354897E+04  2.610748E+03
       539   7 -1.094874E+06  2.254355E+04  4.493901E+03  9.271407E+03  8.034848E+03  1.000878E+03
       539   8 -1.062481E+06  3.426897E+04  4.292778E+03 -1.447547E+04  2.080612E+04  2.088110E+03
       539   9 -1.040724E+06  1.381078E+04 -1.246869E+04  4.295956E+03  3.358346E+04  2.610838E+03
       539  10 -1.275443E+06 -2.270881E+04 -4.044100E+04  4.057449E+03  8.301200E-09 -9.945649E-09
       539  11 -1.297186E+06 -2.434723E+04 -5.386592E+04 -1.451199E+04 -1.172736E-08  9.167539E-09
       539  12 -1.329614E+06 -5.822273E+04 -8.404201E+04  9.437880E+03 -1.277789E-08 -1.012157E-08
       539  13 -1.185162E+06 -8.234225E+01 -1.797331E+04  6.664243E+03  8.203236E-09  8.226443E-11
       539  14 -1.179840E+06  4.961324E+03 -2.478647E+04 -1.449373E+04 -8.384331E-09  1.850662E-08
       539  15 -1.185179E+06 -2.220537E+04 -4.825564E+04  6.867205E+03  1.100134E-08  4.369494E-10
       539  16 -1.094874E+06  2.254353E+04  4.493777E+03  9.271400E+03 -1.076901E-08  1.439932E-08
       539  17 -1.062482E+06  3.426884E+04  4.291955E+03 -1.447550E+04  1.492770E-08 -4.867284E-08
       539  18 -1.040725E+06  1.381047E+04 -1.247083E+04  4.295886E+03  1.090862E-08  1.202212E-08
       539  19 -1.275443E+06 -2.270879E+04 -4.044089E+04  4.057455E+03 -7.434513E+03 -9.951514E+02
       539  20 -1.297185E+06 -2.434711E+04 -5.386512E+04 -1.451195E+04 -2.047203E+04 -2.085095E+03
       539  21 -1.329613E+06 -5.822242E+04 -8.403988E+04  9.437951E+03 -3.351448E+04 -2.610658E+03
       539  22 -1.185162E+06 -8.232508E+01 -1.797319E+04  6.664250E+03 -7.734659E+03 -9.980136E+02
       539  23 -1.179840E+06  4.961443E+03 -2.478566E+04 -1.449370E+04 -2.063906E+04 -2.086602E+03
       539  24 -1.185178E+06 -2.220506E+04 -4.825351E+04  6.867275E+03 -3.354897E+04 -2.610748E+03
       539  25 -1.094874E+06  2.254355E+04  4.493901E+03  9.271407E+03 -8.034848E+03 -1.000878E+03
       539  26 -1.062481E+06  3.426897E+04  4.292778E+03 -1.447547E+04 -2.080612E+04 -2.088110E+03
       539  27 -1.040724E+06  1.381078E+04 -1.246869E+04  4.295956E+03 -3.358346E+04 -2.610838E+03
       540   1 -1.443532E+06 -5.600341E+04 -1.192619E+05 -8.366999E+03  4.218954E+04  3.894079E+03
       540   2 -1.437592E+06 -3.381543E+04 -1.554130E+05 -8.610479E+03  9.124772E+04  5.597504E+03
       540   3 -1.493465E+06 -2.311904E+05 -2.785501E+05  3.087221E+04  1.403417E+05  2.897764E+03
       540   4 -1.196483E+06  6.037646E+03 -5.789629E+04  5.642427E+03  4.303150E+04  3.902446E+03
       540   5 -1.165730E+06  3.397201E+04 -8.812166E+04 -1.353530E+04  9.105276E+04  5.594690E+03
       540   6 -1.196582E+06 -1.574256E+05 -2.045840E+05  7.013753E+03  1.391119E+05  2.881606E+03
       540   7 -9.493781E+05  6.807478E+04  3.464871E+03  1.965732E+04  4.387378E+04  3.910848E+03
       540   8 -8.937997E+05  1.017540E+05 -2.083581E+04 -1.846242E+04  9.085772E+04  5.591879E+03
       540   9 -8.996172E+05 -8.366514E+04 -1.306241E+05 -1.685630E+04  1.378815E+05  2.865548E+03
       540  10 -1.443534E+06 -5.600391E+04 -1.192653E+05 -8.367132E+03  7.364048E-09  5.959344E-09
       540  11 -1.437601E+06 -3.381771E+04 -1.554287E+05 -8.610891E+03  5.309987E-09  3.305644E-09
       540  12 -1.493486E+06 -2.311957E+05 -2.785872E+05  3.087189E+04  3.971782E-09  2.365504E-08
       540  13 -1.196485E+06  6.037131E+03 -5.789981E+04  5.642292E+03  2.531530E-09  1.229047E-08
       540  14 -1.165738E+06  3.396975E+04 -8.813733E+04 -1.353571E+04 -4.757535E-09  3.249797E-09
       540  15 -1.196602E+06 -1.574308E+05 -2.046204E+05  7.013430E+03  1.331316E-08  1.115866E-08
       540  16 -9.493802E+05  6.807424E+04  3.461220E+03  1.965718E+04 -3.861796E-09  2.888505E-08
       540  17 -8.938086E+05  1.017518E+05 -2.085140E+04 -1.846283E+04  1.470945E-09  1.864417E-08
       540  18 -8.996377E+05 -8.367026E+04 -1.306599E+05 -1.685662E+04 -6.399096E-09 -2.680385E-10
       540  19 -1.443532E+06 -5.600341E+04 -1.192619E+05 -8.366999E+03 -4.218954E+04 -3.894079E+03
       540  20 -1.437592E+06 -3.381543E+04 -1.554130E+05 -8.610479E+03 -9.124772E+04 -5.597504E+03
       540  21 -1.493465E+06 -2.311904E+05 -2.785501E+05  3.087221E+04 -1.403417E+05 -2.897764E+03
       540  22 -1.196483E+06  6.037646E+03 -5.789629E+04  5.642427E+03 -4.303150E+04 -3.902446E+03
       540  23 -1.165730E+06  3.397201E+04 -8.812166E+04 -1.353530E+04 -9.105276E+04 -5.594690E+03
       540  24 -1.196582E+06 -1.574256E+05 -2.045840E+05  7.013753E+03 -1.391119E+05 -2.881606E+03
       540  25 -9.493781E+05  6.807478E+04  3.464871E+03  1.965732E+04 -4.387378E+04 -3.910848E+03
       540  26 -8.937997E+05  1.017540E+05 -2.083581E+04 -1.846242E+04 -9.085772E+04 -5.591879E+03
       540  27 -8.996172E+05 -8.366514E+04 -1.306241E+05 -1.685630E+04 -1.378815E+05 -2.865548E+03
