    1C
    1UUSER                                                              
    1UDATE              11.october.2022                                 
    1UTIME              17:32:20                                        
    1UHOST                                                              
    1UPGM               CalculiX                                        
    1UVERSION           Version 2.20                             
    1UCOMPILETIME       Sun Jul 31 18:08:37 CEST 2022                    
    1UDIR                                                               
    1UDBN                                                               
    1UMAT    1MESH_MATERIAL                                             
    2C                           841                                     1
 -1         1 0.00000E+00 0.00000E+00 0.00000E+00
 -1         2 1.66667E-02 0.00000E+00 0.00000E+00
 -1         3 3.33333E-02 0.00000E+00 0.00000E+00
 -1         4 5.00000E-02 0.00000E+00 0.00000E+00
 -1         5 6.66667E-02 0.00000E+00 0.00000E+00
 -1         8 0.00000E+00 6.25000E-03 0.00000E+00
 -1         9 1.66667E-02 6.25000E-03 0.00000E+00
 -1        10 3.33333E-02 6.25000E-03 0.00000E+00
 -1        11 5.00000E-02 6.25000E-03 0.00000E+00
 -1        12 6.66667E-02 6.25000E-03 0.00000E+00
 -1        15 0.00000E+00 1.25000E-02 0.00000E+00
 -1        16 1.66667E-02 1.25000E-02 0.00000E+00
 -1        17 3.33333E-02 1.25000E-02 0.00000E+00
 -1        18 5.00000E-02 1.25000E-02 0.00000E+00
 -1        19 6.66667E-02 1.25000E-02 0.00000E+00
 -1        20 8.33333E-02 1.25000E-02 0.00000E+00
 -1        21 1.00000E-01 1.25000E-02 0.00000E+00
 -1        22 0.00000E+00 1.87500E-02 0.00000E+00
 -1        23 1.66667E-02 1.87500E-02 0.00000E+00
 -1        24 3.33333E-02 1.87500E-02 0.00000E+00
 -1        25 5.00000E-02 1.87500E-02 0.00000E+00
 -1        26 6.66667E-02 1.87500E-02 0.00000E+00
 -1        27 8.33333E-02 1.87500E-02 0.00000E+00
 -1        28 1.00000E-01 1.87500E-02 0.00000E+00
 -1        29 0.00000E+00 2.50000E-02 0.00000E+00
 -1        30 1.66667E-02 2.50000E-02 0.00000E+00
 -1        31 3.33333E-02 2.50000E-02 0.00000E+00
 -1        32 5.00000E-02 2.50000E-02 0.00000E+00
 -1        33 6.66667E-02 2.50000E-02 0.00000E+00
 -1        34 8.33333E-02 2.50000E-02 0.00000E+00
 -1        35 1.00000E-01 2.50000E-02 0.00000E+00
 -1        36 1.04167E-03 0.00000E+00 0.00000E+00
 -1        37 2.08333E-03 0.00000E+00 0.00000E+00
 -1        38 3.12500E-03 0.00000E+00 0.00000E+00
 -1        39 4.16667E-03 0.00000E+00 0.00000E+00
 -1        40 5.20833E-03 0.00000E+00 0.00000E+00
 -1        41 6.25000E-03 0.00000E+00 0.00000E+00
 -1        42 7.29167E-03 0.00000E+00 0.00000E+00
 -1        43 8.33333E-03 0.00000E+00 0.00000E+00
 -1        44 9.37500E-03 0.00000E+00 0.00000E+00
 -1        45 1.04167E-02 0.00000E+00 0.00000E+00
 -1        46 1.14583E-02 0.00000E+00 0.00000E+00
 -1        47 1.25000E-02 0.00000E+00 0.00000E+00
 -1        48 1.35417E-02 0.00000E+00 0.00000E+00
 -1        49 1.45833E-02 0.00000E+00 0.00000E+00
 -1        50 1.56250E-02 0.00000E+00 0.00000E+00
 -1        51 0.00000E+00 1.04167E-03 0.00000E+00
 -1        52 0.00000E+00 2.08333E-03 0.00000E+00
 -1        53 0.00000E+00 3.12500E-03 0.00000E+00
 -1        54 0.00000E+00 4.16667E-03 0.00000E+00
 -1        55 0.00000E+00 5.20833E-03 0.00000E+00
 -1        56 1.04167E-03 3.90630E-04 0.00000E+00
 -1        57 2.08333E-03 7.81250E-04 0.00000E+00
 -1        58 3.12500E-03 1.17188E-03 0.00000E+00
 -1        59 4.16667E-03 1.56250E-03 0.00000E+00
 -1        60 5.20833E-03 1.95312E-03 0.00000E+00
 -1        61 6.25000E-03 2.34375E-03 0.00000E+00
 -1        62 7.29167E-03 2.73438E-03 0.00000E+00
 -1        63 8.33333E-03 3.12500E-03 0.00000E+00
 -1        64 9.37500E-03 3.51563E-03 0.00000E+00
 -1        65 1.04167E-02 3.90625E-03 0.00000E+00
 -1        66 1.14583E-02 4.29688E-03 0.00000E+00
 -1        67 1.25000E-02 4.68750E-03 0.00000E+00
 -1        68 1.35417E-02 5.07813E-03 0.00000E+00
 -1        69 1.45833E-02 5.46875E-03 0.00000E+00
 -1        70 1.56250E-02 5.85938E-03 0.00000E+00
 -1        71 1.77083E-02 0.00000E+00 0.00000E+00
 -1        72 1.87500E-02 0.00000E+00 0.00000E+00
 -1        73 1.97917E-02 0.00000E+00 0.00000E+00
 -1        74 2.08333E-02 0.00000E+00 0.00000E+00
 -1        75 2.18750E-02 0.00000E+00 0.00000E+00
 -1        76 2.29167E-02 0.00000E+00 0.00000E+00
 -1        77 2.39583E-02 0.00000E+00 0.00000E+00
 -1        78 2.50000E-02 0.00000E+00 0.00000E+00
 -1        79 2.60417E-02 0.00000E+00 0.00000E+00
 -1        80 2.70833E-02 0.00000E+00 0.00000E+00
 -1        81 2.81250E-02 0.00000E+00 0.00000E+00
 -1        82 2.91667E-02 0.00000E+00 0.00000E+00
 -1        83 3.02083E-02 0.00000E+00 0.00000E+00
 -1        84 3.12500E-02 0.00000E+00 0.00000E+00
 -1        85 3.22917E-02 0.00000E+00 0.00000E+00
 -1        86 1.66667E-02 1.04167E-03 0.00000E+00
 -1        87 1.66667E-02 2.08333E-03 0.00000E+00
 -1        88 1.66667E-02 3.12500E-03 0.00000E+00
 -1        89 1.66667E-02 4.16667E-03 0.00000E+00
 -1        90 1.66667E-02 5.20833E-03 0.00000E+00
 -1        91 1.77083E-02 3.90630E-04 0.00000E+00
 -1        92 1.87500E-02 7.81250E-04 0.00000E+00
 -1        93 1.97917E-02 1.17188E-03 0.00000E+00
 -1        94 2.08333E-02 1.56250E-03 0.00000E+00
 -1        95 2.18750E-02 1.95312E-03 0.00000E+00
 -1        96 2.29167E-02 2.34375E-03 0.00000E+00
 -1        97 2.39583E-02 2.73438E-03 0.00000E+00
 -1        98 2.50000E-02 3.12500E-03 0.00000E+00
 -1        99 2.60417E-02 3.51563E-03 0.00000E+00
 -1       100 2.70833E-02 3.90625E-03 0.00000E+00
 -1       101 2.81250E-02 4.29688E-03 0.00000E+00
 -1       102 2.91667E-02 4.68750E-03 0.00000E+00
 -1       103 3.02083E-02 5.07813E-03 0.00000E+00
 -1       104 3.12500E-02 5.46875E-03 0.00000E+00
 -1       105 3.22917E-02 5.85938E-03 0.00000E+00
 -1       106 3.43750E-02 0.00000E+00 0.00000E+00
 -1       107 3.54167E-02 0.00000E+00 0.00000E+00
 -1       108 3.64583E-02 0.00000E+00 0.00000E+00
 -1       109 3.75000E-02 0.00000E+00 0.00000E+00
 -1       110 3.85417E-02 0.00000E+00 0.00000E+00
 -1       111 3.95833E-02 0.00000E+00 0.00000E+00
 -1       112 4.06250E-02 0.00000E+00 0.00000E+00
 -1       113 4.16667E-02 0.00000E+00 0.00000E+00
 -1       114 4.27083E-02 0.00000E+00 0.00000E+00
 -1       115 4.37500E-02 0.00000E+00 0.00000E+00
 -1       116 4.47917E-02 0.00000E+00 0.00000E+00
 -1       117 4.58333E-02 0.00000E+00 0.00000E+00
 -1       118 4.68750E-02 0.00000E+00 0.00000E+00
 -1       119 4.79167E-02 0.00000E+00 0.00000E+00
 -1       120 4.89583E-02 0.00000E+00 0.00000E+00
 -1       121 3.33333E-02 1.04167E-03 0.00000E+00
 -1       122 3.33333E-02 2.08333E-03 0.00000E+00
 -1       123 3.33333E-02 3.12500E-03 0.00000E+00
 -1       124 3.33333E-02 4.16667E-03 0.00000E+00
 -1       125 3.33333E-02 5.20833E-03 0.00000E+00
 -1       126 3.43750E-02 3.90630E-04 0.00000E+00
 -1       127 3.54167E-02 7.81250E-04 0.00000E+00
 -1       128 3.64583E-02 1.17188E-03 0.00000E+00
 -1       129 3.75000E-02 1.56250E-03 0.00000E+00
 -1       130 3.85417E-02 1.95312E-03 0.00000E+00
 -1       131 3.95833E-02 2.34375E-03 0.00000E+00
 -1       132 4.06250E-02 2.73438E-03 0.00000E+00
 -1       133 4.16667E-02 3.12500E-03 0.00000E+00
 -1       134 4.27083E-02 3.51563E-03 0.00000E+00
 -1       135 4.37500E-02 3.90625E-03 0.00000E+00
 -1       136 4.47917E-02 4.29688E-03 0.00000E+00
 -1       137 4.58333E-02 4.68750E-03 0.00000E+00
 -1       138 4.68750E-02 5.07813E-03 0.00000E+00
 -1       139 4.79167E-02 5.46875E-03 0.00000E+00
 -1       140 4.89583E-02 5.85938E-03 0.00000E+00
 -1       141 5.10417E-02 0.00000E+00 0.00000E+00
 -1       142 5.20833E-02 0.00000E+00 0.00000E+00
 -1       143 5.31250E-02 0.00000E+00 0.00000E+00
 -1       144 5.41667E-02 0.00000E+00 0.00000E+00
 -1       145 5.52083E-02 0.00000E+00 0.00000E+00
 -1       146 5.62500E-02 0.00000E+00 0.00000E+00
 -1       147 5.72917E-02 0.00000E+00 0.00000E+00
 -1       148 5.83333E-02 0.00000E+00 0.00000E+00
 -1       149 5.93750E-02 0.00000E+00 0.00000E+00
 -1       150 6.04167E-02 0.00000E+00 0.00000E+00
 -1       151 6.14583E-02 0.00000E+00 0.00000E+00
 -1       152 6.25000E-02 0.00000E+00 0.00000E+00
 -1       153 6.35417E-02 0.00000E+00 0.00000E+00
 -1       154 6.45833E-02 0.00000E+00 0.00000E+00
 -1       155 6.56250E-02 0.00000E+00 0.00000E+00
 -1       156 5.00000E-02 1.04167E-03 0.00000E+00
 -1       157 5.00000E-02 2.08333E-03 0.00000E+00
 -1       158 5.00000E-02 3.12500E-03 0.00000E+00
 -1       159 5.00000E-02 4.16667E-03 0.00000E+00
 -1       160 5.00000E-02 5.20833E-03 0.00000E+00
 -1       161 5.10417E-02 3.90630E-04 0.00000E+00
 -1       162 5.20833E-02 7.81250E-04 0.00000E+00
 -1       163 5.31250E-02 1.17188E-03 0.00000E+00
 -1       164 5.41667E-02 1.56250E-03 0.00000E+00
 -1       165 5.52083E-02 1.95312E-03 0.00000E+00
 -1       166 5.62500E-02 2.34375E-03 0.00000E+00
 -1       167 5.72917E-02 2.73438E-03 0.00000E+00
 -1       168 5.83333E-02 3.12500E-03 0.00000E+00
 -1       169 5.93750E-02 3.51563E-03 0.00000E+00
 -1       170 6.04167E-02 3.90625E-03 0.00000E+00
 -1       171 6.14583E-02 4.29688E-03 0.00000E+00
 -1       172 6.25000E-02 4.68750E-03 0.00000E+00
 -1       173 6.35417E-02 5.07813E-03 0.00000E+00
 -1       174 6.45833E-02 5.46875E-03 0.00000E+00
 -1       175 6.56250E-02 5.85938E-03 0.00000E+00
 -1       191 6.66667E-02 1.04167E-03 0.00000E+00
 -1       192 6.66667E-02 2.08333E-03 0.00000E+00
 -1       193 6.66667E-02 3.12500E-03 0.00000E+00
 -1       194 6.66667E-02 4.16667E-03 0.00000E+00
 -1       195 6.66667E-02 5.20833E-03 0.00000E+00
 -1       251 1.04167E-03 6.25000E-03 0.00000E+00
 -1       252 2.08333E-03 6.25000E-03 0.00000E+00
 -1       253 3.12500E-03 6.25000E-03 0.00000E+00
 -1       254 4.16667E-03 6.25000E-03 0.00000E+00
 -1       255 5.20833E-03 6.25000E-03 0.00000E+00
 -1       256 6.25000E-03 6.25000E-03 0.00000E+00
 -1       257 7.29167E-03 6.25000E-03 0.00000E+00
 -1       258 8.33333E-03 6.25000E-03 0.00000E+00
 -1       259 9.37500E-03 6.25000E-03 0.00000E+00
 -1       260 1.04167E-02 6.25000E-03 0.00000E+00
 -1       261 1.14583E-02 6.25000E-03 0.00000E+00
 -1       262 1.25000E-02 6.25000E-03 0.00000E+00
 -1       263 1.35417E-02 6.25000E-03 0.00000E+00
 -1       264 1.45833E-02 6.25000E-03 0.00000E+00
 -1       265 1.56250E-02 6.25000E-03 0.00000E+00
 -1       266 0.00000E+00 7.29167E-03 0.00000E+00
 -1       267 0.00000E+00 8.33333E-03 0.00000E+00
 -1       268 0.00000E+00 9.37500E-03 0.00000E+00
 -1       269 0.00000E+00 1.04167E-02 0.00000E+00
 -1       270 0.00000E+00 1.14583E-02 0.00000E+00
 -1       271 1.04167E-03 6.64063E-03 0.00000E+00
 -1       272 2.08333E-03 7.03125E-03 0.00000E+00
 -1       273 3.12500E-03 7.42188E-03 0.00000E+00
 -1       274 4.16667E-03 7.81250E-03 0.00000E+00
 -1       275 5.20833E-03 8.20313E-03 0.00000E+00
 -1       276 6.25000E-03 8.59375E-03 0.00000E+00
 -1       277 7.29167E-03 8.98438E-03 0.00000E+00
 -1       278 8.33333E-03 9.37500E-03 0.00000E+00
 -1       279 9.37500E-03 9.76562E-03 0.00000E+00
 -1       280 1.04167E-02 1.01562E-02 0.00000E+00
 -1       281 1.14583E-02 1.05469E-02 0.00000E+00
 -1       282 1.25000E-02 1.09375E-02 0.00000E+00
 -1       283 1.35417E-02 1.13281E-02 0.00000E+00
 -1       284 1.45833E-02 1.17188E-02 0.00000E+00
 -1       285 1.56250E-02 1.21094E-02 0.00000E+00
 -1       286 1.77083E-02 6.25000E-03 0.00000E+00
 -1       287 1.87500E-02 6.25000E-03 0.00000E+00
 -1       288 1.97917E-02 6.25000E-03 0.00000E+00
 -1       289 2.08333E-02 6.25000E-03 0.00000E+00
 -1       290 2.18750E-02 6.25000E-03 0.00000E+00
 -1       291 2.29167E-02 6.25000E-03 0.00000E+00
 -1       292 2.39583E-02 6.25000E-03 0.00000E+00
 -1       293 2.50000E-02 6.25000E-03 0.00000E+00
 -1       294 2.60417E-02 6.25000E-03 0.00000E+00
 -1       295 2.70833E-02 6.25000E-03 0.00000E+00
 -1       296 2.81250E-02 6.25000E-03 0.00000E+00
 -1       297 2.91667E-02 6.25000E-03 0.00000E+00
 -1       298 3.02083E-02 6.25000E-03 0.00000E+00
 -1       299 3.12500E-02 6.25000E-03 0.00000E+00
 -1       300 3.22917E-02 6.25000E-03 0.00000E+00
 -1       301 1.66667E-02 7.29167E-03 0.00000E+00
 -1       302 1.66667E-02 8.33333E-03 0.00000E+00
 -1       303 1.66667E-02 9.37500E-03 0.00000E+00
 -1       304 1.66667E-02 1.04167E-02 0.00000E+00
 -1       305 1.66667E-02 1.14583E-02 0.00000E+00
 -1       306 1.77083E-02 6.64063E-03 0.00000E+00
 -1       307 1.87500E-02 7.03125E-03 0.00000E+00
 -1       308 1.97917E-02 7.42188E-03 0.00000E+00
 -1       309 2.08333E-02 7.81250E-03 0.00000E+00
 -1       310 2.18750E-02 8.20313E-03 0.00000E+00
 -1       311 2.29167E-02 8.59375E-03 0.00000E+00
 -1       312 2.39583E-02 8.98438E-03 0.00000E+00
 -1       313 2.50000E-02 9.37500E-03 0.00000E+00
 -1       314 2.60417E-02 9.76562E-03 0.00000E+00
 -1       315 2.70833E-02 1.01562E-02 0.00000E+00
 -1       316 2.81250E-02 1.05469E-02 0.00000E+00
 -1       317 2.91667E-02 1.09375E-02 0.00000E+00
 -1       318 3.02083E-02 1.13281E-02 0.00000E+00
 -1       319 3.12500E-02 1.17188E-02 0.00000E+00
 -1       320 3.22917E-02 1.21094E-02 0.00000E+00
 -1       321 3.43750E-02 6.25000E-03 0.00000E+00
 -1       322 3.54167E-02 6.25000E-03 0.00000E+00
 -1       323 3.64583E-02 6.25000E-03 0.00000E+00
 -1       324 3.75000E-02 6.25000E-03 0.00000E+00
 -1       325 3.85417E-02 6.25000E-03 0.00000E+00
 -1       326 3.95833E-02 6.25000E-03 0.00000E+00
 -1       327 4.06250E-02 6.25000E-03 0.00000E+00
 -1       328 4.16667E-02 6.25000E-03 0.00000E+00
 -1       329 4.27083E-02 6.25000E-03 0.00000E+00
 -1       330 4.37500E-02 6.25000E-03 0.00000E+00
 -1       331 4.47917E-02 6.25000E-03 0.00000E+00
 -1       332 4.58333E-02 6.25000E-03 0.00000E+00
 -1       333 4.68750E-02 6.25000E-03 0.00000E+00
 -1       334 4.79167E-02 6.25000E-03 0.00000E+00
 -1       335 4.89583E-02 6.25000E-03 0.00000E+00
 -1       336 3.33333E-02 7.29167E-03 0.00000E+00
 -1       337 3.33333E-02 8.33333E-03 0.00000E+00
 -1       338 3.33333E-02 9.37500E-03 0.00000E+00
 -1       339 3.33333E-02 1.04167E-02 0.00000E+00
 -1       340 3.33333E-02 1.14583E-02 0.00000E+00
 -1       341 3.43750E-02 6.64063E-03 0.00000E+00
 -1       342 3.54167E-02 7.03125E-03 0.00000E+00
 -1       343 3.64583E-02 7.42188E-03 0.00000E+00
 -1       344 3.75000E-02 7.81250E-03 0.00000E+00
 -1       345 3.85417E-02 8.20313E-03 0.00000E+00
 -1       346 3.95833E-02 8.59375E-03 0.00000E+00
 -1       347 4.06250E-02 8.98438E-03 0.00000E+00
 -1       348 4.16667E-02 9.37500E-03 0.00000E+00
 -1       349 4.27083E-02 9.76562E-03 0.00000E+00
 -1       350 4.37500E-02 1.01562E-02 0.00000E+00
 -1       351 4.47917E-02 1.05469E-02 0.00000E+00
 -1       352 4.58333E-02 1.09375E-02 0.00000E+00
 -1       353 4.68750E-02 1.13281E-02 0.00000E+00
 -1       354 4.79167E-02 1.17188E-02 0.00000E+00
 -1       355 4.89583E-02 1.21094E-02 0.00000E+00
 -1       356 5.10417E-02 6.25000E-03 0.00000E+00
 -1       357 5.20833E-02 6.25000E-03 0.00000E+00
 -1       358 5.31250E-02 6.25000E-03 0.00000E+00
 -1       359 5.41667E-02 6.25000E-03 0.00000E+00
 -1       360 5.52083E-02 6.25000E-03 0.00000E+00
 -1       361 5.62500E-02 6.25000E-03 0.00000E+00
 -1       362 5.72917E-02 6.25000E-03 0.00000E+00
 -1       363 5.83333E-02 6.25000E-03 0.00000E+00
 -1       364 5.93750E-02 6.25000E-03 0.00000E+00
 -1       365 6.04167E-02 6.25000E-03 0.00000E+00
 -1       366 6.14583E-02 6.25000E-03 0.00000E+00
 -1       367 6.25000E-02 6.25000E-03 0.00000E+00
 -1       368 6.35417E-02 6.25000E-03 0.00000E+00
 -1       369 6.45833E-02 6.25000E-03 0.00000E+00
 -1       370 6.56250E-02 6.25000E-03 0.00000E+00
 -1       371 5.00000E-02 7.29167E-03 0.00000E+00
 -1       372 5.00000E-02 8.33333E-03 0.00000E+00
 -1       373 5.00000E-02 9.37500E-03 0.00000E+00
 -1       374 5.00000E-02 1.04167E-02 0.00000E+00
 -1       375 5.00000E-02 1.14583E-02 0.00000E+00
 -1       376 5.10417E-02 6.64063E-03 0.00000E+00
 -1       377 5.20833E-02 7.03125E-03 0.00000E+00
 -1       378 5.31250E-02 7.42188E-03 0.00000E+00
 -1       379 5.41667E-02 7.81250E-03 0.00000E+00
 -1       380 5.52083E-02 8.20313E-03 0.00000E+00
 -1       381 5.62500E-02 8.59375E-03 0.00000E+00
 -1       382 5.72917E-02 8.98438E-03 0.00000E+00
 -1       383 5.83333E-02 9.37500E-03 0.00000E+00
 -1       384 5.93750E-02 9.76562E-03 0.00000E+00
 -1       385 6.04167E-02 1.01562E-02 0.00000E+00
 -1       386 6.14583E-02 1.05469E-02 0.00000E+00
 -1       387 6.25000E-02 1.09375E-02 0.00000E+00
 -1       388 6.35417E-02 1.13281E-02 0.00000E+00
 -1       389 6.45833E-02 1.17188E-02 0.00000E+00
 -1       390 6.56250E-02 1.21094E-02 0.00000E+00
 -1       406 6.66667E-02 7.29167E-03 0.00000E+00
 -1       407 6.66667E-02 8.33333E-03 0.00000E+00
 -1       408 6.66667E-02 9.37500E-03 0.00000E+00
 -1       409 6.66667E-02 1.04167E-02 0.00000E+00
 -1       410 6.66667E-02 1.14583E-02 0.00000E+00
 -1       466 1.04167E-03 1.25000E-02 0.00000E+00
 -1       467 2.08333E-03 1.25000E-02 0.00000E+00
 -1       468 3.12500E-03 1.25000E-02 0.00000E+00
 -1       469 4.16667E-03 1.25000E-02 0.00000E+00
 -1       470 5.20833E-03 1.25000E-02 0.00000E+00
 -1       471 6.25000E-03 1.25000E-02 0.00000E+00
 -1       472 7.29167E-03 1.25000E-02 0.00000E+00
 -1       473 8.33333E-03 1.25000E-02 0.00000E+00
 -1       474 9.37500E-03 1.25000E-02 0.00000E+00
 -1       475 1.04167E-02 1.25000E-02 0.00000E+00
 -1       476 1.14583E-02 1.25000E-02 0.00000E+00
 -1       477 1.25000E-02 1.25000E-02 0.00000E+00
 -1       478 1.35417E-02 1.25000E-02 0.00000E+00
 -1       479 1.45833E-02 1.25000E-02 0.00000E+00
 -1       480 1.56250E-02 1.25000E-02 0.00000E+00
 -1       481 0.00000E+00 1.35417E-02 0.00000E+00
 -1       482 0.00000E+00 1.45833E-02 0.00000E+00
 -1       483 0.00000E+00 1.56250E-02 0.00000E+00
 -1       484 0.00000E+00 1.66667E-02 0.00000E+00
 -1       485 0.00000E+00 1.77083E-02 0.00000E+00
 -1       486 1.04167E-03 1.28906E-02 0.00000E+00
 -1       487 2.08333E-03 1.32813E-02 0.00000E+00
 -1       488 3.12500E-03 1.36719E-02 0.00000E+00
 -1       489 4.16667E-03 1.40625E-02 0.00000E+00
 -1       490 5.20833E-03 1.44531E-02 0.00000E+00
 -1       491 6.25000E-03 1.48437E-02 0.00000E+00
 -1       492 7.29167E-03 1.52344E-02 0.00000E+00
 -1       493 8.33333E-03 1.56250E-02 0.00000E+00
 -1       494 9.37500E-03 1.60156E-02 0.00000E+00
 -1       495 1.04167E-02 1.64062E-02 0.00000E+00
 -1       496 1.14583E-02 1.67969E-02 0.00000E+00
 -1       497 1.25000E-02 1.71875E-02 0.00000E+00
 -1       498 1.35417E-02 1.75781E-02 0.00000E+00
 -1       499 1.45833E-02 1.79687E-02 0.00000E+00
 -1       500 1.56250E-02 1.83594E-02 0.00000E+00
 -1       501 1.77083E-02 1.25000E-02 0.00000E+00
 -1       502 1.87500E-02 1.25000E-02 0.00000E+00
 -1       503 1.97917E-02 1.25000E-02 0.00000E+00
 -1       504 2.08333E-02 1.25000E-02 0.00000E+00
 -1       505 2.18750E-02 1.25000E-02 0.00000E+00
 -1       506 2.29167E-02 1.25000E-02 0.00000E+00
 -1       507 2.39583E-02 1.25000E-02 0.00000E+00
 -1       508 2.50000E-02 1.25000E-02 0.00000E+00
 -1       509 2.60417E-02 1.25000E-02 0.00000E+00
 -1       510 2.70833E-02 1.25000E-02 0.00000E+00
 -1       511 2.81250E-02 1.25000E-02 0.00000E+00
 -1       512 2.91667E-02 1.25000E-02 0.00000E+00
 -1       513 3.02083E-02 1.25000E-02 0.00000E+00
 -1       514 3.12500E-02 1.25000E-02 0.00000E+00
 -1       515 3.22917E-02 1.25000E-02 0.00000E+00
 -1       516 1.66667E-02 1.35417E-02 0.00000E+00
 -1       517 1.66667E-02 1.45833E-02 0.00000E+00
 -1       518 1.66667E-02 1.56250E-02 0.00000E+00
 -1       519 1.66667E-02 1.66667E-02 0.00000E+00
 -1       520 1.66667E-02 1.77083E-02 0.00000E+00
 -1       521 1.77083E-02 1.28906E-02 0.00000E+00
 -1       522 1.87500E-02 1.32813E-02 0.00000E+00
 -1       523 1.97917E-02 1.36719E-02 0.00000E+00
 -1       524 2.08333E-02 1.40625E-02 0.00000E+00
 -1       525 2.18750E-02 1.44531E-02 0.00000E+00
 -1       526 2.29167E-02 1.48437E-02 0.00000E+00
 -1       527 2.39583E-02 1.52344E-02 0.00000E+00
 -1       528 2.50000E-02 1.56250E-02 0.00000E+00
 -1       529 2.60417E-02 1.60156E-02 0.00000E+00
 -1       530 2.70833E-02 1.64062E-02 0.00000E+00
 -1       531 2.81250E-02 1.67969E-02 0.00000E+00
 -1       532 2.91667E-02 1.71875E-02 0.00000E+00
 -1       533 3.02083E-02 1.75781E-02 0.00000E+00
 -1       534 3.12500E-02 1.79687E-02 0.00000E+00
 -1       535 3.22917E-02 1.83594E-02 0.00000E+00
 -1       536 3.43750E-02 1.25000E-02 0.00000E+00
 -1       537 3.54167E-02 1.25000E-02 0.00000E+00
 -1       538 3.64583E-02 1.25000E-02 0.00000E+00
 -1       539 3.75000E-02 1.25000E-02 0.00000E+00
 -1       540 3.85417E-02 1.25000E-02 0.00000E+00
 -1       541 3.95833E-02 1.25000E-02 0.00000E+00
 -1       542 4.06250E-02 1.25000E-02 0.00000E+00
 -1       543 4.16667E-02 1.25000E-02 0.00000E+00
 -1       544 4.27083E-02 1.25000E-02 0.00000E+00
 -1       545 4.37500E-02 1.25000E-02 0.00000E+00
 -1       546 4.47917E-02 1.25000E-02 0.00000E+00
 -1       547 4.58333E-02 1.25000E-02 0.00000E+00
 -1       548 4.68750E-02 1.25000E-02 0.00000E+00
 -1       549 4.79167E-02 1.25000E-02 0.00000E+00
 -1       550 4.89583E-02 1.25000E-02 0.00000E+00
 -1       551 3.33333E-02 1.35417E-02 0.00000E+00
 -1       552 3.33333E-02 1.45833E-02 0.00000E+00
 -1       553 3.33333E-02 1.56250E-02 0.00000E+00
 -1       554 3.33333E-02 1.66667E-02 0.00000E+00
 -1       555 3.33333E-02 1.77083E-02 0.00000E+00
 -1       556 3.43750E-02 1.28906E-02 0.00000E+00
 -1       557 3.54167E-02 1.32813E-02 0.00000E+00
 -1       558 3.64583E-02 1.36719E-02 0.00000E+00
 -1       559 3.75000E-02 1.40625E-02 0.00000E+00
 -1       560 3.85417E-02 1.44531E-02 0.00000E+00
 -1       561 3.95833E-02 1.48437E-02 0.00000E+00
 -1       562 4.06250E-02 1.52344E-02 0.00000E+00
 -1       563 4.16667E-02 1.56250E-02 0.00000E+00
 -1       564 4.27083E-02 1.60156E-02 0.00000E+00
 -1       565 4.37500E-02 1.64062E-02 0.00000E+00
 -1       566 4.47917E-02 1.67969E-02 0.00000E+00
 -1       567 4.58333E-02 1.71875E-02 0.00000E+00
 -1       568 4.68750E-02 1.75781E-02 0.00000E+00
 -1       569 4.79167E-02 1.79687E-02 0.00000E+00
 -1       570 4.89583E-02 1.83594E-02 0.00000E+00
 -1       571 5.10417E-02 1.25000E-02 0.00000E+00
 -1       572 5.20833E-02 1.25000E-02 0.00000E+00
 -1       573 5.31250E-02 1.25000E-02 0.00000E+00
 -1       574 5.41667E-02 1.25000E-02 0.00000E+00
 -1       575 5.52083E-02 1.25000E-02 0.00000E+00
 -1       576 5.62500E-02 1.25000E-02 0.00000E+00
 -1       577 5.72917E-02 1.25000E-02 0.00000E+00
 -1       578 5.83333E-02 1.25000E-02 0.00000E+00
 -1       579 5.93750E-02 1.25000E-02 0.00000E+00
 -1       580 6.04167E-02 1.25000E-02 0.00000E+00
 -1       581 6.14583E-02 1.25000E-02 0.00000E+00
 -1       582 6.25000E-02 1.25000E-02 0.00000E+00
 -1       583 6.35417E-02 1.25000E-02 0.00000E+00
 -1       584 6.45833E-02 1.25000E-02 0.00000E+00
 -1       585 6.56250E-02 1.25000E-02 0.00000E+00
 -1       586 5.00000E-02 1.35417E-02 0.00000E+00
 -1       587 5.00000E-02 1.45833E-02 0.00000E+00
 -1       588 5.00000E-02 1.56250E-02 0.00000E+00
 -1       589 5.00000E-02 1.66667E-02 0.00000E+00
 -1       590 5.00000E-02 1.77083E-02 0.00000E+00
 -1       591 5.10417E-02 1.28906E-02 0.00000E+00
 -1       592 5.20833E-02 1.32813E-02 0.00000E+00
 -1       593 5.31250E-02 1.36719E-02 0.00000E+00
 -1       594 5.41667E-02 1.40625E-02 0.00000E+00
 -1       595 5.52083E-02 1.44531E-02 0.00000E+00
 -1       596 5.62500E-02 1.48437E-02 0.00000E+00
 -1       597 5.72917E-02 1.52344E-02 0.00000E+00
 -1       598 5.83333E-02 1.56250E-02 0.00000E+00
 -1       599 5.93750E-02 1.60156E-02 0.00000E+00
 -1       600 6.04167E-02 1.64062E-02 0.00000E+00
 -1       601 6.14583E-02 1.67969E-02 0.00000E+00
 -1       602 6.25000E-02 1.71875E-02 0.00000E+00
 -1       603 6.35417E-02 1.75781E-02 0.00000E+00
 -1       604 6.45833E-02 1.79687E-02 0.00000E+00
 -1       605 6.56250E-02 1.83594E-02 0.00000E+00
 -1       606 6.77083E-02 1.25000E-02 0.00000E+00
 -1       607 6.87500E-02 1.25000E-02 0.00000E+00
 -1       608 6.97917E-02 1.25000E-02 0.00000E+00
 -1       609 7.08333E-02 1.25000E-02 0.00000E+00
 -1       610 7.18750E-02 1.25000E-02 0.00000E+00
 -1       611 7.29167E-02 1.25000E-02 0.00000E+00
 -1       612 7.39583E-02 1.25000E-02 0.00000E+00
 -1       613 7.50000E-02 1.25000E-02 0.00000E+00
 -1       614 7.60417E-02 1.25000E-02 0.00000E+00
 -1       615 7.70833E-02 1.25000E-02 0.00000E+00
 -1       616 7.81250E-02 1.25000E-02 0.00000E+00
 -1       617 7.91667E-02 1.25000E-02 0.00000E+00
 -1       618 8.02083E-02 1.25000E-02 0.00000E+00
 -1       619 8.12500E-02 1.25000E-02 0.00000E+00
 -1       620 8.22917E-02 1.25000E-02 0.00000E+00
 -1       621 6.66667E-02 1.35417E-02 0.00000E+00
 -1       622 6.66667E-02 1.45833E-02 0.00000E+00
 -1       623 6.66667E-02 1.56250E-02 0.00000E+00
 -1       624 6.66667E-02 1.66667E-02 0.00000E+00
 -1       625 6.66667E-02 1.77083E-02 0.00000E+00
 -1       626 6.77083E-02 1.28906E-02 0.00000E+00
 -1       627 6.87500E-02 1.32813E-02 0.00000E+00
 -1       628 6.97917E-02 1.36719E-02 0.00000E+00
 -1       629 7.08333E-02 1.40625E-02 0.00000E+00
 -1       630 7.18750E-02 1.44531E-02 0.00000E+00
 -1       631 7.29167E-02 1.48437E-02 0.00000E+00
 -1       632 7.39583E-02 1.52344E-02 0.00000E+00
 -1       633 7.50000E-02 1.56250E-02 0.00000E+00
 -1       634 7.60417E-02 1.60156E-02 0.00000E+00
 -1       635 7.70833E-02 1.64062E-02 0.00000E+00
 -1       636 7.81250E-02 1.67969E-02 0.00000E+00
 -1       637 7.91667E-02 1.71875E-02 0.00000E+00
 -1       638 8.02083E-02 1.75781E-02 0.00000E+00
 -1       639 8.12500E-02 1.79687E-02 0.00000E+00
 -1       640 8.22917E-02 1.83594E-02 0.00000E+00
 -1       641 8.43750E-02 1.25000E-02 0.00000E+00
 -1       642 8.54167E-02 1.25000E-02 0.00000E+00
 -1       643 8.64583E-02 1.25000E-02 0.00000E+00
 -1       644 8.75000E-02 1.25000E-02 0.00000E+00
 -1       645 8.85417E-02 1.25000E-02 0.00000E+00
 -1       646 8.95833E-02 1.25000E-02 0.00000E+00
 -1       647 9.06250E-02 1.25000E-02 0.00000E+00
 -1       648 9.16667E-02 1.25000E-02 0.00000E+00
 -1       649 9.27083E-02 1.25000E-02 0.00000E+00
 -1       650 9.37500E-02 1.25000E-02 0.00000E+00
 -1       651 9.47917E-02 1.25000E-02 0.00000E+00
 -1       652 9.58333E-02 1.25000E-02 0.00000E+00
 -1       653 9.68750E-02 1.25000E-02 0.00000E+00
 -1       654 9.79167E-02 1.25000E-02 0.00000E+00
 -1       655 9.89583E-02 1.25000E-02 0.00000E+00
 -1       656 8.33333E-02 1.35417E-02 0.00000E+00
 -1       657 8.33333E-02 1.45833E-02 0.00000E+00
 -1       658 8.33333E-02 1.56250E-02 0.00000E+00
 -1       659 8.33333E-02 1.66667E-02 0.00000E+00
 -1       660 8.33333E-02 1.77083E-02 0.00000E+00
 -1       661 8.43750E-02 1.28906E-02 0.00000E+00
 -1       662 8.54167E-02 1.32813E-02 0.00000E+00
 -1       663 8.64583E-02 1.36719E-02 0.00000E+00
 -1       664 8.75000E-02 1.40625E-02 0.00000E+00
 -1       665 8.85417E-02 1.44531E-02 0.00000E+00
 -1       666 8.95833E-02 1.48437E-02 0.00000E+00
 -1       667 9.06250E-02 1.52344E-02 0.00000E+00
 -1       668 9.16667E-02 1.56250E-02 0.00000E+00
 -1       669 9.27083E-02 1.60156E-02 0.00000E+00
 -1       670 9.37500E-02 1.64062E-02 0.00000E+00
 -1       671 9.47917E-02 1.67969E-02 0.00000E+00
 -1       672 9.58333E-02 1.71875E-02 0.00000E+00
 -1       673 9.68750E-02 1.75781E-02 0.00000E+00
 -1       674 9.79167E-02 1.79687E-02 0.00000E+00
 -1       675 9.89583E-02 1.83594E-02 0.00000E+00
 -1       676 1.00000E-01 1.35417E-02 0.00000E+00
 -1       677 1.00000E-01 1.45833E-02 0.00000E+00
 -1       678 1.00000E-01 1.56250E-02 0.00000E+00
 -1       679 1.00000E-01 1.66667E-02 0.00000E+00
 -1       680 1.00000E-01 1.77083E-02 0.00000E+00
 -1       681 1.04167E-03 1.87500E-02 0.00000E+00
 -1       682 2.08333E-03 1.87500E-02 0.00000E+00
 -1       683 3.12500E-03 1.87500E-02 0.00000E+00
 -1       684 4.16667E-03 1.87500E-02 0.00000E+00
 -1       685 5.20833E-03 1.87500E-02 0.00000E+00
 -1       686 6.25000E-03 1.87500E-02 0.00000E+00
 -1       687 7.29167E-03 1.87500E-02 0.00000E+00
 -1       688 8.33333E-03 1.87500E-02 0.00000E+00
 -1       689 9.37500E-03 1.87500E-02 0.00000E+00
 -1       690 1.04167E-02 1.87500E-02 0.00000E+00
 -1       691 1.14583E-02 1.87500E-02 0.00000E+00
 -1       692 1.25000E-02 1.87500E-02 0.00000E+00
 -1       693 1.35417E-02 1.87500E-02 0.00000E+00
 -1       694 1.45833E-02 1.87500E-02 0.00000E+00
 -1       695 1.56250E-02 1.87500E-02 0.00000E+00
 -1       696 0.00000E+00 1.97917E-02 0.00000E+00
 -1       697 0.00000E+00 2.08333E-02 0.00000E+00
 -1       698 0.00000E+00 2.18750E-02 0.00000E+00
 -1       699 0.00000E+00 2.29167E-02 0.00000E+00
 -1       700 0.00000E+00 2.39583E-02 0.00000E+00
 -1       701 1.04167E-03 1.91406E-02 0.00000E+00
 -1       702 2.08333E-03 1.95312E-02 0.00000E+00
 -1       703 3.12500E-03 1.99219E-02 0.00000E+00
 -1       704 4.16667E-03 2.03125E-02 0.00000E+00
 -1       705 5.20833E-03 2.07031E-02 0.00000E+00
 -1       706 6.25000E-03 2.10938E-02 0.00000E+00
 -1       707 7.29167E-03 2.14844E-02 0.00000E+00
 -1       708 8.33333E-03 2.18750E-02 0.00000E+00
 -1       709 9.37500E-03 2.22656E-02 0.00000E+00
 -1       710 1.04167E-02 2.26563E-02 0.00000E+00
 -1       711 1.14583E-02 2.30469E-02 0.00000E+00
 -1       712 1.25000E-02 2.34375E-02 0.00000E+00
 -1       713 1.35417E-02 2.38281E-02 0.00000E+00
 -1       714 1.45833E-02 2.42187E-02 0.00000E+00
 -1       715 1.56250E-02 2.46094E-02 0.00000E+00
 -1       716 1.77083E-02 1.87500E-02 0.00000E+00
 -1       717 1.87500E-02 1.87500E-02 0.00000E+00
 -1       718 1.97917E-02 1.87500E-02 0.00000E+00
 -1       719 2.08333E-02 1.87500E-02 0.00000E+00
 -1       720 2.18750E-02 1.87500E-02 0.00000E+00
 -1       721 2.29167E-02 1.87500E-02 0.00000E+00
 -1       722 2.39583E-02 1.87500E-02 0.00000E+00
 -1       723 2.50000E-02 1.87500E-02 0.00000E+00
 -1       724 2.60417E-02 1.87500E-02 0.00000E+00
 -1       725 2.70833E-02 1.87500E-02 0.00000E+00
 -1       726 2.81250E-02 1.87500E-02 0.00000E+00
 -1       727 2.91667E-02 1.87500E-02 0.00000E+00
 -1       728 3.02083E-02 1.87500E-02 0.00000E+00
 -1       729 3.12500E-02 1.87500E-02 0.00000E+00
 -1       730 3.22917E-02 1.87500E-02 0.00000E+00
 -1       731 1.66667E-02 1.97917E-02 0.00000E+00
 -1       732 1.66667E-02 2.08333E-02 0.00000E+00
 -1       733 1.66667E-02 2.18750E-02 0.00000E+00
 -1       734 1.66667E-02 2.29167E-02 0.00000E+00
 -1       735 1.66667E-02 2.39583E-02 0.00000E+00
 -1       736 1.77083E-02 1.91406E-02 0.00000E+00
 -1       737 1.87500E-02 1.95312E-02 0.00000E+00
 -1       738 1.97917E-02 1.99219E-02 0.00000E+00
 -1       739 2.08333E-02 2.03125E-02 0.00000E+00
 -1       740 2.18750E-02 2.07031E-02 0.00000E+00
 -1       741 2.29167E-02 2.10938E-02 0.00000E+00
 -1       742 2.39583E-02 2.14844E-02 0.00000E+00
 -1       743 2.50000E-02 2.18750E-02 0.00000E+00
 -1       744 2.60417E-02 2.22656E-02 0.00000E+00
 -1       745 2.70833E-02 2.26563E-02 0.00000E+00
 -1       746 2.81250E-02 2.30469E-02 0.00000E+00
 -1       747 2.91667E-02 2.34375E-02 0.00000E+00
 -1       748 3.02083E-02 2.38281E-02 0.00000E+00
 -1       749 3.12500E-02 2.42187E-02 0.00000E+00
 -1       750 3.22917E-02 2.46094E-02 0.00000E+00
 -1       751 3.43750E-02 1.87500E-02 0.00000E+00
 -1       752 3.54167E-02 1.87500E-02 0.00000E+00
 -1       753 3.64583E-02 1.87500E-02 0.00000E+00
 -1       754 3.75000E-02 1.87500E-02 0.00000E+00
 -1       755 3.85417E-02 1.87500E-02 0.00000E+00
 -1       756 3.95833E-02 1.87500E-02 0.00000E+00
 -1       757 4.06250E-02 1.87500E-02 0.00000E+00
 -1       758 4.16667E-02 1.87500E-02 0.00000E+00
 -1       759 4.27083E-02 1.87500E-02 0.00000E+00
 -1       760 4.37500E-02 1.87500E-02 0.00000E+00
 -1       761 4.47917E-02 1.87500E-02 0.00000E+00
 -1       762 4.58333E-02 1.87500E-02 0.00000E+00
 -1       763 4.68750E-02 1.87500E-02 0.00000E+00
 -1       764 4.79167E-02 1.87500E-02 0.00000E+00
 -1       765 4.89583E-02 1.87500E-02 0.00000E+00
 -1       766 3.33333E-02 1.97917E-02 0.00000E+00
 -1       767 3.33333E-02 2.08333E-02 0.00000E+00
 -1       768 3.33333E-02 2.18750E-02 0.00000E+00
 -1       769 3.33333E-02 2.29167E-02 0.00000E+00
 -1       770 3.33333E-02 2.39583E-02 0.00000E+00
 -1       771 3.43750E-02 1.91406E-02 0.00000E+00
 -1       772 3.54167E-02 1.95312E-02 0.00000E+00
 -1       773 3.64583E-02 1.99219E-02 0.00000E+00
 -1       774 3.75000E-02 2.03125E-02 0.00000E+00
 -1       775 3.85417E-02 2.07031E-02 0.00000E+00
 -1       776 3.95833E-02 2.10938E-02 0.00000E+00
 -1       777 4.06250E-02 2.14844E-02 0.00000E+00
 -1       778 4.16667E-02 2.18750E-02 0.00000E+00
 -1       779 4.27083E-02 2.22656E-02 0.00000E+00
 -1       780 4.37500E-02 2.26563E-02 0.00000E+00
 -1       781 4.47917E-02 2.30469E-02 0.00000E+00
 -1       782 4.58333E-02 2.34375E-02 0.00000E+00
 -1       783 4.68750E-02 2.38281E-02 0.00000E+00
 -1       784 4.79167E-02 2.42187E-02 0.00000E+00
 -1       785 4.89583E-02 2.46094E-02 0.00000E+00
 -1       786 5.10417E-02 1.87500E-02 0.00000E+00
 -1       787 5.20833E-02 1.87500E-02 0.00000E+00
 -1       788 5.31250E-02 1.87500E-02 0.00000E+00
 -1       789 5.41667E-02 1.87500E-02 0.00000E+00
 -1       790 5.52083E-02 1.87500E-02 0.00000E+00
 -1       791 5.62500E-02 1.87500E-02 0.00000E+00
 -1       792 5.72917E-02 1.87500E-02 0.00000E+00
 -1       793 5.83333E-02 1.87500E-02 0.00000E+00
 -1       794 5.93750E-02 1.87500E-02 0.00000E+00
 -1       795 6.04167E-02 1.87500E-02 0.00000E+00
 -1       796 6.14583E-02 1.87500E-02 0.00000E+00
 -1       797 6.25000E-02 1.87500E-02 0.00000E+00
 -1       798 6.35417E-02 1.87500E-02 0.00000E+00
 -1       799 6.45833E-02 1.87500E-02 0.00000E+00
 -1       800 6.56250E-02 1.87500E-02 0.00000E+00
 -1       801 5.00000E-02 1.97917E-02 0.00000E+00
 -1       802 5.00000E-02 2.08333E-02 0.00000E+00
 -1       803 5.00000E-02 2.18750E-02 0.00000E+00
 -1       804 5.00000E-02 2.29167E-02 0.00000E+00
 -1       805 5.00000E-02 2.39583E-02 0.00000E+00
 -1       806 5.10417E-02 1.91406E-02 0.00000E+00
 -1       807 5.20833E-02 1.95312E-02 0.00000E+00
 -1       808 5.31250E-02 1.99219E-02 0.00000E+00
 -1       809 5.41667E-02 2.03125E-02 0.00000E+00
 -1       810 5.52083E-02 2.07031E-02 0.00000E+00
 -1       811 5.62500E-02 2.10938E-02 0.00000E+00
 -1       812 5.72917E-02 2.14844E-02 0.00000E+00
 -1       813 5.83333E-02 2.18750E-02 0.00000E+00
 -1       814 5.93750E-02 2.22656E-02 0.00000E+00
 -1       815 6.04167E-02 2.26563E-02 0.00000E+00
 -1       816 6.14583E-02 2.30469E-02 0.00000E+00
 -1       817 6.25000E-02 2.34375E-02 0.00000E+00
 -1       818 6.35417E-02 2.38281E-02 0.00000E+00
 -1       819 6.45833E-02 2.42187E-02 0.00000E+00
 -1       820 6.56250E-02 2.46094E-02 0.00000E+00
 -1       821 6.77083E-02 1.87500E-02 0.00000E+00
 -1       822 6.87500E-02 1.87500E-02 0.00000E+00
 -1       823 6.97917E-02 1.87500E-02 0.00000E+00
 -1       824 7.08333E-02 1.87500E-02 0.00000E+00
 -1       825 7.18750E-02 1.87500E-02 0.00000E+00
 -1       826 7.29167E-02 1.87500E-02 0.00000E+00
 -1       827 7.39583E-02 1.87500E-02 0.00000E+00
 -1       828 7.50000E-02 1.87500E-02 0.00000E+00
 -1       829 7.60417E-02 1.87500E-02 0.00000E+00
 -1       830 7.70833E-02 1.87500E-02 0.00000E+00
 -1       831 7.81250E-02 1.87500E-02 0.00000E+00
 -1       832 7.91667E-02 1.87500E-02 0.00000E+00
 -1       833 8.02083E-02 1.87500E-02 0.00000E+00
 -1       834 8.12500E-02 1.87500E-02 0.00000E+00
 -1       835 8.22917E-02 1.87500E-02 0.00000E+00
 -1       836 6.66667E-02 1.97917E-02 0.00000E+00
 -1       837 6.66667E-02 2.08333E-02 0.00000E+00
 -1       838 6.66667E-02 2.18750E-02 0.00000E+00
 -1       839 6.66667E-02 2.29167E-02 0.00000E+00
 -1       840 6.66667E-02 2.39583E-02 0.00000E+00
 -1       841 6.77083E-02 1.91406E-02 0.00000E+00
 -1       842 6.87500E-02 1.95312E-02 0.00000E+00
 -1       843 6.97917E-02 1.99219E-02 0.00000E+00
 -1       844 7.08333E-02 2.03125E-02 0.00000E+00
 -1       845 7.18750E-02 2.07031E-02 0.00000E+00
 -1       846 7.29167E-02 2.10938E-02 0.00000E+00
 -1       847 7.39583E-02 2.14844E-02 0.00000E+00
 -1       848 7.50000E-02 2.18750E-02 0.00000E+00
 -1       849 7.60417E-02 2.22656E-02 0.00000E+00
 -1       850 7.70833E-02 2.26563E-02 0.00000E+00
 -1       851 7.81250E-02 2.30469E-02 0.00000E+00
 -1       852 7.91667E-02 2.34375E-02 0.00000E+00
 -1       853 8.02083E-02 2.38281E-02 0.00000E+00
 -1       854 8.12500E-02 2.42187E-02 0.00000E+00
 -1       855 8.22917E-02 2.46094E-02 0.00000E+00
 -1       856 8.43750E-02 1.87500E-02 0.00000E+00
 -1       857 8.54167E-02 1.87500E-02 0.00000E+00
 -1       858 8.64583E-02 1.87500E-02 0.00000E+00
 -1       859 8.75000E-02 1.87500E-02 0.00000E+00
 -1       860 8.85417E-02 1.87500E-02 0.00000E+00
 -1       861 8.95833E-02 1.87500E-02 0.00000E+00
 -1       862 9.06250E-02 1.87500E-02 0.00000E+00
 -1       863 9.16667E-02 1.87500E-02 0.00000E+00
 -1       864 9.27083E-02 1.87500E-02 0.00000E+00
 -1       865 9.37500E-02 1.87500E-02 0.00000E+00
 -1       866 9.47917E-02 1.87500E-02 0.00000E+00
 -1       867 9.58333E-02 1.87500E-02 0.00000E+00
 -1       868 9.68750E-02 1.87500E-02 0.00000E+00
 -1       869 9.79167E-02 1.87500E-02 0.00000E+00
 -1       870 9.89583E-02 1.87500E-02 0.00000E+00
 -1       871 8.33333E-02 1.97917E-02 0.00000E+00
 -1       872 8.33333E-02 2.08333E-02 0.00000E+00
 -1       873 8.33333E-02 2.18750E-02 0.00000E+00
 -1       874 8.33333E-02 2.29167E-02 0.00000E+00
 -1       875 8.33333E-02 2.39583E-02 0.00000E+00
 -1       876 8.43750E-02 1.91406E-02 0.00000E+00
 -1       877 8.54167E-02 1.95312E-02 0.00000E+00
 -1       878 8.64583E-02 1.99219E-02 0.00000E+00
 -1       879 8.75000E-02 2.03125E-02 0.00000E+00
 -1       880 8.85417E-02 2.07031E-02 0.00000E+00
 -1       881 8.95833E-02 2.10938E-02 0.00000E+00
 -1       882 9.06250E-02 2.14844E-02 0.00000E+00
 -1       883 9.16667E-02 2.18750E-02 0.00000E+00
 -1       884 9.27083E-02 2.22656E-02 0.00000E+00
 -1       885 9.37500E-02 2.26563E-02 0.00000E+00
 -1       886 9.47917E-02 2.30469E-02 0.00000E+00
 -1       887 9.58333E-02 2.34375E-02 0.00000E+00
 -1       888 9.68750E-02 2.38281E-02 0.00000E+00
 -1       889 9.79167E-02 2.42187E-02 0.00000E+00
 -1       890 9.89583E-02 2.46094E-02 0.00000E+00
 -1       891 1.00000E-01 1.97917E-02 0.00000E+00
 -1       892 1.00000E-01 2.08333E-02 0.00000E+00
 -1       893 1.00000E-01 2.18750E-02 0.00000E+00
 -1       894 1.00000E-01 2.29167E-02 0.00000E+00
 -1       895 1.00000E-01 2.39583E-02 0.00000E+00
 -1       896 1.04167E-03 2.50000E-02 0.00000E+00
 -1       897 2.08333E-03 2.50000E-02 0.00000E+00
 -1       898 3.12500E-03 2.50000E-02 0.00000E+00
 -1       899 4.16667E-03 2.50000E-02 0.00000E+00
 -1       900 5.20833E-03 2.50000E-02 0.00000E+00
 -1       901 6.25000E-03 2.50000E-02 0.00000E+00
 -1       902 7.29167E-03 2.50000E-02 0.00000E+00
 -1       903 8.33333E-03 2.50000E-02 0.00000E+00
 -1       904 9.37500E-03 2.50000E-02 0.00000E+00
 -1       905 1.04167E-02 2.50000E-02 0.00000E+00
 -1       906 1.14583E-02 2.50000E-02 0.00000E+00
 -1       907 1.25000E-02 2.50000E-02 0.00000E+00
 -1       908 1.35417E-02 2.50000E-02 0.00000E+00
 -1       909 1.45833E-02 2.50000E-02 0.00000E+00
 -1       910 1.56250E-02 2.50000E-02 0.00000E+00
 -1       911 1.77083E-02 2.50000E-02 0.00000E+00
 -1       912 1.87500E-02 2.50000E-02 0.00000E+00
 -1       913 1.97917E-02 2.50000E-02 0.00000E+00
 -1       914 2.08333E-02 2.50000E-02 0.00000E+00
 -1       915 2.18750E-02 2.50000E-02 0.00000E+00
 -1       916 2.29167E-02 2.50000E-02 0.00000E+00
 -1       917 2.39583E-02 2.50000E-02 0.00000E+00
 -1       918 2.50000E-02 2.50000E-02 0.00000E+00
 -1       919 2.60417E-02 2.50000E-02 0.00000E+00
 -1       920 2.70833E-02 2.50000E-02 0.00000E+00
 -1       921 2.81250E-02 2.50000E-02 0.00000E+00
 -1       922 2.91667E-02 2.50000E-02 0.00000E+00
 -1       923 3.02083E-02 2.50000E-02 0.00000E+00
 -1       924 3.12500E-02 2.50000E-02 0.00000E+00
 -1       925 3.22917E-02 2.50000E-02 0.00000E+00
 -1       926 3.43750E-02 2.50000E-02 0.00000E+00
 -1       927 3.54167E-02 2.50000E-02 0.00000E+00
 -1       928 3.64583E-02 2.50000E-02 0.00000E+00
 -1       929 3.75000E-02 2.50000E-02 0.00000E+00
 -1       930 3.85417E-02 2.50000E-02 0.00000E+00
 -1       931 3.95833E-02 2.50000E-02 0.00000E+00
 -1       932 4.06250E-02 2.50000E-02 0.00000E+00
 -1       933 4.16667E-02 2.50000E-02 0.00000E+00
 -1       934 4.27083E-02 2.50000E-02 0.00000E+00
 -1       935 4.37500E-02 2.50000E-02 0.00000E+00
 -1       936 4.47917E-02 2.50000E-02 0.00000E+00
 -1       937 4.58333E-02 2.50000E-02 0.00000E+00
 -1       938 4.68750E-02 2.50000E-02 0.00000E+00
 -1       939 4.79167E-02 2.50000E-02 0.00000E+00
 -1       940 4.89583E-02 2.50000E-02 0.00000E+00
 -1       941 5.10417E-02 2.50000E-02 0.00000E+00
 -1       942 5.20833E-02 2.50000E-02 0.00000E+00
 -1       943 5.31250E-02 2.50000E-02 0.00000E+00
 -1       944 5.41667E-02 2.50000E-02 0.00000E+00
 -1       945 5.52083E-02 2.50000E-02 0.00000E+00
 -1       946 5.62500E-02 2.50000E-02 0.00000E+00
 -1       947 5.72917E-02 2.50000E-02 0.00000E+00
 -1       948 5.83333E-02 2.50000E-02 0.00000E+00
 -1       949 5.93750E-02 2.50000E-02 0.00000E+00
 -1       950 6.04167E-02 2.50000E-02 0.00000E+00
 -1       951 6.14583E-02 2.50000E-02 0.00000E+00
 -1       952 6.25000E-02 2.50000E-02 0.00000E+00
 -1       953 6.35417E-02 2.50000E-02 0.00000E+00
 -1       954 6.45833E-02 2.50000E-02 0.00000E+00
 -1       955 6.56250E-02 2.50000E-02 0.00000E+00
 -1       956 6.77083E-02 2.50000E-02 0.00000E+00
 -1       957 6.87500E-02 2.50000E-02 0.00000E+00
 -1       958 6.97917E-02 2.50000E-02 0.00000E+00
 -1       959 7.08333E-02 2.50000E-02 0.00000E+00
 -1       960 7.18750E-02 2.50000E-02 0.00000E+00
 -1       961 7.29167E-02 2.50000E-02 0.00000E+00
 -1       962 7.39583E-02 2.50000E-02 0.00000E+00
 -1       963 7.50000E-02 2.50000E-02 0.00000E+00
 -1       964 7.60417E-02 2.50000E-02 0.00000E+00
 -1       965 7.70833E-02 2.50000E-02 0.00000E+00
 -1       966 7.81250E-02 2.50000E-02 0.00000E+00
 -1       967 7.91667E-02 2.50000E-02 0.00000E+00
 -1       968 8.02083E-02 2.50000E-02 0.00000E+00
 -1       969 8.12500E-02 2.50000E-02 0.00000E+00
 -1       970 8.22917E-02 2.50000E-02 0.00000E+00
 -1       971 8.43750E-02 2.50000E-02 0.00000E+00
 -1       972 8.54167E-02 2.50000E-02 0.00000E+00
 -1       973 8.64583E-02 2.50000E-02 0.00000E+00
 -1       974 8.75000E-02 2.50000E-02 0.00000E+00
 -1       975 8.85417E-02 2.50000E-02 0.00000E+00
 -1       976 8.95833E-02 2.50000E-02 0.00000E+00
 -1       977 9.06250E-02 2.50000E-02 0.00000E+00
 -1       978 9.16667E-02 2.50000E-02 0.00000E+00
 -1       979 9.27083E-02 2.50000E-02 0.00000E+00
 -1       980 9.37500E-02 2.50000E-02 0.00000E+00
 -1       981 9.47917E-02 2.50000E-02 0.00000E+00
 -1       982 9.58333E-02 2.50000E-02 0.00000E+00
 -1       983 9.68750E-02 2.50000E-02 0.00000E+00
 -1       984 9.79167E-02 2.50000E-02 0.00000E+00
 -1       985 9.89583E-02 2.50000E-02 0.00000E+00
 -3
    3C                           440                                     1
 -1         1   12    0    1
 -2         1        37        36
 -1         2   12    0    1
 -2        37        39        38
 -1         3   12    0    1
 -2        39        41        40
 -1         4   12    0    1
 -2        41        43        42
 -1         5   12    0    1
 -2        43        45        44
 -1         6   12    0    1
 -2        45        47        46
 -1         7   12    0    1
 -2        47        49        48
 -1         8   12    0    1
 -2        49         2        50
 -1         9   12    0    1
 -2         1        52        51
 -1        10   12    0    1
 -2        52        54        53
 -1        11   12    0    1
 -2        54         8        55
 -1        12   12    0    1
 -2         1        57        56
 -1        13   12    0    1
 -2        57        59        58
 -1        14   12    0    1
 -2        59        61        60
 -1        15   12    0    1
 -2        61        63        62
 -1        16   12    0    1
 -2        63        65        64
 -1        17   12    0    1
 -2        65        67        66
 -1        18   12    0    1
 -2        67        69        68
 -1        19   12    0    1
 -2        69         9        70
 -1        20   12    0    1
 -2         2        72        71
 -1        21   12    0    1
 -2        72        74        73
 -1        22   12    0    1
 -2        74        76        75
 -1        23   12    0    1
 -2        76        78        77
 -1        24   12    0    1
 -2        78        80        79
 -1        25   12    0    1
 -2        80        82        81
 -1        26   12    0    1
 -2        82        84        83
 -1        27   12    0    1
 -2        84         3        85
 -1        28   12    0    1
 -2         2        87        86
 -1        29   12    0    1
 -2        87        89        88
 -1        30   12    0    1
 -2        89         9        90
 -1        31   12    0    1
 -2         2        92        91
 -1        32   12    0    1
 -2        92        94        93
 -1        33   12    0    1
 -2        94        96        95
 -1        34   12    0    1
 -2        96        98        97
 -1        35   12    0    1
 -2        98       100        99
 -1        36   12    0    1
 -2       100       102       101
 -1        37   12    0    1
 -2       102       104       103
 -1        38   12    0    1
 -2       104        10       105
 -1        39   12    0    1
 -2         3       107       106
 -1        40   12    0    1
 -2       107       109       108
 -1        41   12    0    1
 -2       109       111       110
 -1        42   12    0    1
 -2       111       113       112
 -1        43   12    0    1
 -2       113       115       114
 -1        44   12    0    1
 -2       115       117       116
 -1        45   12    0    1
 -2       117       119       118
 -1        46   12    0    1
 -2       119         4       120
 -1        47   12    0    1
 -2         3       122       121
 -1        48   12    0    1
 -2       122       124       123
 -1        49   12    0    1
 -2       124        10       125
 -1        50   12    0    1
 -2         3       127       126
 -1        51   12    0    1
 -2       127       129       128
 -1        52   12    0    1
 -2       129       131       130
 -1        53   12    0    1
 -2       131       133       132
 -1        54   12    0    1
 -2       133       135       134
 -1        55   12    0    1
 -2       135       137       136
 -1        56   12    0    1
 -2       137       139       138
 -1        57   12    0    1
 -2       139        11       140
 -1        58   12    0    1
 -2         4       142       141
 -1        59   12    0    1
 -2       142       144       143
 -1        60   12    0    1
 -2       144       146       145
 -1        61   12    0    1
 -2       146       148       147
 -1        62   12    0    1
 -2       148       150       149
 -1        63   12    0    1
 -2       150       152       151
 -1        64   12    0    1
 -2       152       154       153
 -1        65   12    0    1
 -2       154         5       155
 -1        66   12    0    1
 -2         4       157       156
 -1        67   12    0    1
 -2       157       159       158
 -1        68   12    0    1
 -2       159        11       160
 -1        69   12    0    1
 -2         4       162       161
 -1        70   12    0    1
 -2       162       164       163
 -1        71   12    0    1
 -2       164       166       165
 -1        72   12    0    1
 -2       166       168       167
 -1        73   12    0    1
 -2       168       170       169
 -1        74   12    0    1
 -2       170       172       171
 -1        75   12    0    1
 -2       172       174       173
 -1        76   12    0    1
 -2       174        12       175
 -1        77   12    0    1
 -2         5       192       191
 -1        78   12    0    1
 -2       192       194       193
 -1        79   12    0    1
 -2       194        12       195
 -1        80   12    0    1
 -2         8       252       251
 -1        81   12    0    1
 -2       252       254       253
 -1        82   12    0    1
 -2       254       256       255
 -1        83   12    0    1
 -2       256       258       257
 -1        84   12    0    1
 -2       258       260       259
 -1        85   12    0    1
 -2       260       262       261
 -1        86   12    0    1
 -2       262       264       263
 -1        87   12    0    1
 -2       264         9       265
 -1        88   12    0    1
 -2         8       267       266
 -1        89   12    0    1
 -2       267       269       268
 -1        90   12    0    1
 -2       269        15       270
 -1        91   12    0    1
 -2         8       272       271
 -1        92   12    0    1
 -2       272       274       273
 -1        93   12    0    1
 -2       274       276       275
 -1        94   12    0    1
 -2       276       278       277
 -1        95   12    0    1
 -2       278       280       279
 -1        96   12    0    1
 -2       280       282       281
 -1        97   12    0    1
 -2       282       284       283
 -1        98   12    0    1
 -2       284        16       285
 -1        99   12    0    1
 -2         9       287       286
 -1       100   12    0    1
 -2       287       289       288
 -1       101   12    0    1
 -2       289       291       290
 -1       102   12    0    1
 -2       291       293       292
 -1       103   12    0    1
 -2       293       295       294
 -1       104   12    0    1
 -2       295       297       296
 -1       105   12    0    1
 -2       297       299       298
 -1       106   12    0    1
 -2       299        10       300
 -1       107   12    0    1
 -2         9       302       301
 -1       108   12    0    1
 -2       302       304       303
 -1       109   12    0    1
 -2       304        16       305
 -1       110   12    0    1
 -2         9       307       306
 -1       111   12    0    1
 -2       307       309       308
 -1       112   12    0    1
 -2       309       311       310
 -1       113   12    0    1
 -2       311       313       312
 -1       114   12    0    1
 -2       313       315       314
 -1       115   12    0    1
 -2       315       317       316
 -1       116   12    0    1
 -2       317       319       318
 -1       117   12    0    1
 -2       319        17       320
 -1       118   12    0    1
 -2        10       322       321
 -1       119   12    0    1
 -2       322       324       323
 -1       120   12    0    1
 -2       324       326       325
 -1       121   12    0    1
 -2       326       328       327
 -1       122   12    0    1
 -2       328       330       329
 -1       123   12    0    1
 -2       330       332       331
 -1       124   12    0    1
 -2       332       334       333
 -1       125   12    0    1
 -2       334        11       335
 -1       126   12    0    1
 -2        10       337       336
 -1       127   12    0    1
 -2       337       339       338
 -1       128   12    0    1
 -2       339        17       340
 -1       129   12    0    1
 -2        10       342       341
 -1       130   12    0    1
 -2       342       344       343
 -1       131   12    0    1
 -2       344       346       345
 -1       132   12    0    1
 -2       346       348       347
 -1       133   12    0    1
 -2       348       350       349
 -1       134   12    0    1
 -2       350       352       351
 -1       135   12    0    1
 -2       352       354       353
 -1       136   12    0    1
 -2       354        18       355
 -1       137   12    0    1
 -2        11       357       356
 -1       138   12    0    1
 -2       357       359       358
 -1       139   12    0    1
 -2       359       361       360
 -1       140   12    0    1
 -2       361       363       362
 -1       141   12    0    1
 -2       363       365       364
 -1       142   12    0    1
 -2       365       367       366
 -1       143   12    0    1
 -2       367       369       368
 -1       144   12    0    1
 -2       369        12       370
 -1       145   12    0    1
 -2        11       372       371
 -1       146   12    0    1
 -2       372       374       373
 -1       147   12    0    1
 -2       374        18       375
 -1       148   12    0    1
 -2        11       377       376
 -1       149   12    0    1
 -2       377       379       378
 -1       150   12    0    1
 -2       379       381       380
 -1       151   12    0    1
 -2       381       383       382
 -1       152   12    0    1
 -2       383       385       384
 -1       153   12    0    1
 -2       385       387       386
 -1       154   12    0    1
 -2       387       389       388
 -1       155   12    0    1
 -2       389        19       390
 -1       156   12    0    1
 -2        12       407       406
 -1       157   12    0    1
 -2       407       409       408
 -1       158   12    0    1
 -2       409        19       410
 -1       159   12    0    1
 -2        15       467       466
 -1       160   12    0    1
 -2       467       469       468
 -1       161   12    0    1
 -2       469       471       470
 -1       162   12    0    1
 -2       471       473       472
 -1       163   12    0    1
 -2       473       475       474
 -1       164   12    0    1
 -2       475       477       476
 -1       165   12    0    1
 -2       477       479       478
 -1       166   12    0    1
 -2       479        16       480
 -1       167   12    0    1
 -2        15       482       481
 -1       168   12    0    1
 -2       482       484       483
 -1       169   12    0    1
 -2       484        22       485
 -1       170   12    0    1
 -2        15       487       486
 -1       171   12    0    1
 -2       487       489       488
 -1       172   12    0    1
 -2       489       491       490
 -1       173   12    0    1
 -2       491       493       492
 -1       174   12    0    1
 -2       493       495       494
 -1       175   12    0    1
 -2       495       497       496
 -1       176   12    0    1
 -2       497       499       498
 -1       177   12    0    1
 -2       499        23       500
 -1       178   12    0    1
 -2        16       502       501
 -1       179   12    0    1
 -2       502       504       503
 -1       180   12    0    1
 -2       504       506       505
 -1       181   12    0    1
 -2       506       508       507
 -1       182   12    0    1
 -2       508       510       509
 -1       183   12    0    1
 -2       510       512       511
 -1       184   12    0    1
 -2       512       514       513
 -1       185   12    0    1
 -2       514        17       515
 -1       186   12    0    1
 -2        16       517       516
 -1       187   12    0    1
 -2       517       519       518
 -1       188   12    0    1
 -2       519        23       520
 -1       189   12    0    1
 -2        16       522       521
 -1       190   12    0    1
 -2       522       524       523
 -1       191   12    0    1
 -2       524       526       525
 -1       192   12    0    1
 -2       526       528       527
 -1       193   12    0    1
 -2       528       530       529
 -1       194   12    0    1
 -2       530       532       531
 -1       195   12    0    1
 -2       532       534       533
 -1       196   12    0    1
 -2       534        24       535
 -1       197   12    0    1
 -2        17       537       536
 -1       198   12    0    1
 -2       537       539       538
 -1       199   12    0    1
 -2       539       541       540
 -1       200   12    0    1
 -2       541       543       542
 -1       201   12    0    1
 -2       543       545       544
 -1       202   12    0    1
 -2       545       547       546
 -1       203   12    0    1
 -2       547       549       548
 -1       204   12    0    1
 -2       549        18       550
 -1       205   12    0    1
 -2        17       552       551
 -1       206   12    0    1
 -2       552       554       553
 -1       207   12    0    1
 -2       554        24       555
 -1       208   12    0    1
 -2        17       557       556
 -1       209   12    0    1
 -2       557       559       558
 -1       210   12    0    1
 -2       559       561       560
 -1       211   12    0    1
 -2       561       563       562
 -1       212   12    0    1
 -2       563       565       564
 -1       213   12    0    1
 -2       565       567       566
 -1       214   12    0    1
 -2       567       569       568
 -1       215   12    0    1
 -2       569        25       570
 -1       216   12    0    1
 -2        18       572       571
 -1       217   12    0    1
 -2       572       574       573
 -1       218   12    0    1
 -2       574       576       575
 -1       219   12    0    1
 -2       576       578       577
 -1       220   12    0    1
 -2       578       580       579
 -1       221   12    0    1
 -2       580       582       581
 -1       222   12    0    1
 -2       582       584       583
 -1       223   12    0    1
 -2       584        19       585
 -1       224   12    0    1
 -2        18       587       586
 -1       225   12    0    1
 -2       587       589       588
 -1       226   12    0    1
 -2       589        25       590
 -1       227   12    0    1
 -2        18       592       591
 -1       228   12    0    1
 -2       592       594       593
 -1       229   12    0    1
 -2       594       596       595
 -1       230   12    0    1
 -2       596       598       597
 -1       231   12    0    1
 -2       598       600       599
 -1       232   12    0    1
 -2       600       602       601
 -1       233   12    0    1
 -2       602       604       603
 -1       234   12    0    1
 -2       604        26       605
 -1       235   12    0    1
 -2        19       607       606
 -1       236   12    0    1
 -2       607       609       608
 -1       237   12    0    1
 -2       609       611       610
 -1       238   12    0    1
 -2       611       613       612
 -1       239   12    0    1
 -2       613       615       614
 -1       240   12    0    1
 -2       615       617       616
 -1       241   12    0    1
 -2       617       619       618
 -1       242   12    0    1
 -2       619        20       620
 -1       243   12    0    1
 -2        19       622       621
 -1       244   12    0    1
 -2       622       624       623
 -1       245   12    0    1
 -2       624        26       625
 -1       246   12    0    1
 -2        19       627       626
 -1       247   12    0    1
 -2       627       629       628
 -1       248   12    0    1
 -2       629       631       630
 -1       249   12    0    1
 -2       631       633       632
 -1       250   12    0    1
 -2       633       635       634
 -1       251   12    0    1
 -2       635       637       636
 -1       252   12    0    1
 -2       637       639       638
 -1       253   12    0    1
 -2       639        27       640
 -1       254   12    0    1
 -2        20       642       641
 -1       255   12    0    1
 -2       642       644       643
 -1       256   12    0    1
 -2       644       646       645
 -1       257   12    0    1
 -2       646       648       647
 -1       258   12    0    1
 -2       648       650       649
 -1       259   12    0    1
 -2       650       652       651
 -1       260   12    0    1
 -2       652       654       653
 -1       261   12    0    1
 -2       654        21       655
 -1       262   12    0    1
 -2        20       657       656
 -1       263   12    0    1
 -2       657       659       658
 -1       264   12    0    1
 -2       659        27       660
 -1       265   12    0    1
 -2        20       662       661
 -1       266   12    0    1
 -2       662       664       663
 -1       267   12    0    1
 -2       664       666       665
 -1       268   12    0    1
 -2       666       668       667
 -1       269   12    0    1
 -2       668       670       669
 -1       270   12    0    1
 -2       670       672       671
 -1       271   12    0    1
 -2       672       674       673
 -1       272   12    0    1
 -2       674        28       675
 -1       273   12    0    1
 -2        21       677       676
 -1       274   12    0    1
 -2       677       679       678
 -1       275   12    0    1
 -2       679        28       680
 -1       276   12    0    1
 -2        22       682       681
 -1       277   12    0    1
 -2       682       684       683
 -1       278   12    0    1
 -2       684       686       685
 -1       279   12    0    1
 -2       686       688       687
 -1       280   12    0    1
 -2       688       690       689
 -1       281   12    0    1
 -2       690       692       691
 -1       282   12    0    1
 -2       692       694       693
 -1       283   12    0    1
 -2       694        23       695
 -1       284   12    0    1
 -2        22       697       696
 -1       285   12    0    1
 -2       697       699       698
 -1       286   12    0    1
 -2       699        29       700
 -1       287   12    0    1
 -2        22       702       701
 -1       288   12    0    1
 -2       702       704       703
 -1       289   12    0    1
 -2       704       706       705
 -1       290   12    0    1
 -2       706       708       707
 -1       291   12    0    1
 -2       708       710       709
 -1       292   12    0    1
 -2       710       712       711
 -1       293   12    0    1
 -2       712       714       713
 -1       294   12    0    1
 -2       714        30       715
 -1       295   12    0    1
 -2        23       717       716
 -1       296   12    0    1
 -2       717       719       718
 -1       297   12    0    1
 -2       719       721       720
 -1       298   12    0    1
 -2       721       723       722
 -1       299   12    0    1
 -2       723       725       724
 -1       300   12    0    1
 -2       725       727       726
 -1       301   12    0    1
 -2       727       729       728
 -1       302   12    0    1
 -2       729        24       730
 -1       303   12    0    1
 -2        23       732       731
 -1       304   12    0    1
 -2       732       734       733
 -1       305   12    0    1
 -2       734        30       735
 -1       306   12    0    1
 -2        23       737       736
 -1       307   12    0    1
 -2       737       739       738
 -1       308   12    0    1
 -2       739       741       740
 -1       309   12    0    1
 -2       741       743       742
 -1       310   12    0    1
 -2       743       745       744
 -1       311   12    0    1
 -2       745       747       746
 -1       312   12    0    1
 -2       747       749       748
 -1       313   12    0    1
 -2       749        31       750
 -1       314   12    0    1
 -2        24       752       751
 -1       315   12    0    1
 -2       752       754       753
 -1       316   12    0    1
 -2       754       756       755
 -1       317   12    0    1
 -2       756       758       757
 -1       318   12    0    1
 -2       758       760       759
 -1       319   12    0    1
 -2       760       762       761
 -1       320   12    0    1
 -2       762       764       763
 -1       321   12    0    1
 -2       764        25       765
 -1       322   12    0    1
 -2        24       767       766
 -1       323   12    0    1
 -2       767       769       768
 -1       324   12    0    1
 -2       769        31       770
 -1       325   12    0    1
 -2        24       772       771
 -1       326   12    0    1
 -2       772       774       773
 -1       327   12    0    1
 -2       774       776       775
 -1       328   12    0    1
 -2       776       778       777
 -1       329   12    0    1
 -2       778       780       779
 -1       330   12    0    1
 -2       780       782       781
 -1       331   12    0    1
 -2       782       784       783
 -1       332   12    0    1
 -2       784        32       785
 -1       333   12    0    1
 -2        25       787       786
 -1       334   12    0    1
 -2       787       789       788
 -1       335   12    0    1
 -2       789       791       790
 -1       336   12    0    1
 -2       791       793       792
 -1       337   12    0    1
 -2       793       795       794
 -1       338   12    0    1
 -2       795       797       796
 -1       339   12    0    1
 -2       797       799       798
 -1       340   12    0    1
 -2       799        26       800
 -1       341   12    0    1
 -2        25       802       801
 -1       342   12    0    1
 -2       802       804       803
 -1       343   12    0    1
 -2       804        32       805
 -1       344   12    0    1
 -2        25       807       806
 -1       345   12    0    1
 -2       807       809       808
 -1       346   12    0    1
 -2       809       811       810
 -1       347   12    0    1
 -2       811       813       812
 -1       348   12    0    1
 -2       813       815       814
 -1       349   12    0    1
 -2       815       817       816
 -1       350   12    0    1
 -2       817       819       818
 -1       351   12    0    1
 -2       819        33       820
 -1       352   12    0    1
 -2        26       822       821
 -1       353   12    0    1
 -2       822       824       823
 -1       354   12    0    1
 -2       824       826       825
 -1       355   12    0    1
 -2       826       828       827
 -1       356   12    0    1
 -2       828       830       829
 -1       357   12    0    1
 -2       830       832       831
 -1       358   12    0    1
 -2       832       834       833
 -1       359   12    0    1
 -2       834        27       835
 -1       360   12    0    1
 -2        26       837       836
 -1       361   12    0    1
 -2       837       839       838
 -1       362   12    0    1
 -2       839        33       840
 -1       363   12    0    1
 -2        26       842       841
 -1       364   12    0    1
 -2       842       844       843
 -1       365   12    0    1
 -2       844       846       845
 -1       366   12    0    1
 -2       846       848       847
 -1       367   12    0    1
 -2       848       850       849
 -1       368   12    0    1
 -2       850       852       851
 -1       369   12    0    1
 -2       852       854       853
 -1       370   12    0    1
 -2       854        34       855
 -1       371   12    0    1
 -2        27       857       856
 -1       372   12    0    1
 -2       857       859       858
 -1       373   12    0    1
 -2       859       861       860
 -1       374   12    0    1
 -2       861       863       862
 -1       375   12    0    1
 -2       863       865       864
 -1       376   12    0    1
 -2       865       867       866
 -1       377   12    0    1
 -2       867       869       868
 -1       378   12    0    1
 -2       869        28       870
 -1       379   12    0    1
 -2        27       872       871
 -1       380   12    0    1
 -2       872       874       873
 -1       381   12    0    1
 -2       874        34       875
 -1       382   12    0    1
 -2        27       877       876
 -1       383   12    0    1
 -2       877       879       878
 -1       384   12    0    1
 -2       879       881       880
 -1       385   12    0    1
 -2       881       883       882
 -1       386   12    0    1
 -2       883       885       884
 -1       387   12    0    1
 -2       885       887       886
 -1       388   12    0    1
 -2       887       889       888
 -1       389   12    0    1
 -2       889        35       890
 -1       390   12    0    1
 -2        28       892       891
 -1       391   12    0    1
 -2       892       894       893
 -1       392   12    0    1
 -2       894        35       895
 -1       393   12    0    1
 -2        29       897       896
 -1       394   12    0    1
 -2       897       899       898
 -1       395   12    0    1
 -2       899       901       900
 -1       396   12    0    1
 -2       901       903       902
 -1       397   12    0    1
 -2       903       905       904
 -1       398   12    0    1
 -2       905       907       906
 -1       399   12    0    1
 -2       907       909       908
 -1       400   12    0    1
 -2       909        30       910
 -1       401   12    0    1
 -2        30       912       911
 -1       402   12    0    1
 -2       912       914       913
 -1       403   12    0    1
 -2       914       916       915
 -1       404   12    0    1
 -2       916       918       917
 -1       405   12    0    1
 -2       918       920       919
 -1       406   12    0    1
 -2       920       922       921
 -1       407   12    0    1
 -2       922       924       923
 -1       408   12    0    1
 -2       924        31       925
 -1       409   12    0    1
 -2        31       927       926
 -1       410   12    0    1
 -2       927       929       928
 -1       411   12    0    1
 -2       929       931       930
 -1       412   12    0    1
 -2       931       933       932
 -1       413   12    0    1
 -2       933       935       934
 -1       414   12    0    1
 -2       935       937       936
 -1       415   12    0    1
 -2       937       939       938
 -1       416   12    0    1
 -2       939        32       940
 -1       417   12    0    1
 -2        32       942       941
 -1       418   12    0    1
 -2       942       944       943
 -1       419   12    0    1
 -2       944       946       945
 -1       420   12    0    1
 -2       946       948       947
 -1       421   12    0    1
 -2       948       950       949
 -1       422   12    0    1
 -2       950       952       951
 -1       423   12    0    1
 -2       952       954       953
 -1       424   12    0    1
 -2       954        33       955
 -1       425   12    0    1
 -2        33       957       956
 -1       426   12    0    1
 -2       957       959       958
 -1       427   12    0    1
 -2       959       961       960
 -1       428   12    0    1
 -2       961       963       962
 -1       429   12    0    1
 -2       963       965       964
 -1       430   12    0    1
 -2       965       967       966
 -1       431   12    0    1
 -2       967       969       968
 -1       432   12    0    1
 -2       969        34       970
 -1       433   12    0    1
 -2        34       972       971
 -1       434   12    0    1
 -2       972       974       973
 -1       435   12    0    1
 -2       974       976       975
 -1       436   12    0    1
 -2       976       978       977
 -1       437   12    0    1
 -2       978       980       979
 -1       438   12    0    1
 -2       980       982       981
 -1       439   12    0    1
 -2       982       984       983
 -1       440   12    0    1
 -2       984        35       985
 -3
    1PSTEP                         1           1           1          
  100CL  101 1.000000000         841                     0    1           1
 -4  DISP        4    1
 -5  D1          1    2    1    0
 -5  D2          1    2    2    0
 -5  D3          1    2    3    0
 -5  ALL         1    2    0    0    1ALL
 -1         1 6.42103E-05 0.00000E+00 0.00000E+00
 -1         2 5.14897E-05 0.00000E+00 0.00000E+00
 -1         3 4.70329E-05 0.00000E+00 0.00000E+00
 -1         4 4.62073E-05 0.00000E+00 0.00000E+00
 -1         5 4.62264E-05 0.00000E+00 0.00000E+00
 -1         8 4.02341E-05-1.34611E-06 0.00000E+00
 -1         9 4.23352E-05 1.18398E-06 0.00000E+00
 -1        10 4.22962E-05-6.86226E-07 0.00000E+00
 -1        11 4.31375E-05-1.66105E-07 0.00000E+00
 -1        12 4.42819E-05 3.20147E-06 0.00000E+00
 -1        15 1.96879E-05-1.74336E-06 0.00000E+00
 -1        16 2.53566E-05 1.40476E-06 0.00000E+00
 -1        17 2.80176E-05-1.42803E-06 0.00000E+00
 -1        18 3.28311E-05-3.91026E-07 0.00000E+00
 -1        19 3.73217E-05 6.32198E-06 0.00000E+00
 -1        20 3.86346E-05 5.85121E-05 0.00000E+00
 -1        21 3.85906E-05 1.16036E-04 0.00000E+00
 -1        22 8.71160E-06-1.11161E-06 0.00000E+00
 -1        23 1.12671E-05 1.76482E-06 0.00000E+00
 -1        24 1.34253E-05-1.76979E-06 0.00000E+00
 -1        25 1.98823E-05-2.01796E-07 0.00000E+00
 -1        26 2.45109E-05 8.30357E-06 0.00000E+00
 -1        27 2.14250E-05 5.76792E-05 0.00000E+00
 -1        28 1.96755E-05 1.15279E-04 0.00000E+00
 -1        29 0.00000E+00 0.00000E+00 0.00000E+00
 -1        30 4.25853E-06 2.16166E-06 0.00000E+00
 -1        31 5.25153E-06-9.67709E-07 0.00000E+00
 -1        32 0.00000E+00 0.00000E+00 0.00000E+00
 -1        33 8.13933E-06 1.04613E-05 0.00000E+00
 -1        34 5.75014E-06 5.75461E-05 0.00000E+00
 -1        35 2.83873E-06 1.14854E-04 0.00000E+00
 -1        36 6.34233E-05 1.52201E-21 2.64698E-23
 -1        37 6.26272E-05 8.49680E-21-1.32349E-23
 -1        38 6.18307E-05 1.08328E-20 2.64698E-23
 -1        39 6.10330E-05 1.69671E-20-1.32349E-23
 -1        40 6.02351E-05 1.44922E-20 2.64698E-23
 -1        41 5.94370E-05 1.46047E-20-1.32349E-23
 -1        42 5.86388E-05 2.06597E-20 0.00000E+00
 -1        43 5.78406E-05 1.76289E-20 0.00000E+00
 -1        44 5.70425E-05 1.55642E-20 2.64698E-23
 -1        45 5.62444E-05 1.60473E-20 0.00000E+00
 -1        46 5.54464E-05 1.87935E-20 2.64698E-23
 -1        47 5.46490E-05 8.23872E-21-1.32349E-23
 -1        48 5.38521E-05 3.09696E-21 2.64698E-23
 -1        49 5.30577E-05-3.65283E-21 0.00000E+00
 -1        50 5.22640E-05-1.76024E-21 1.32349E-23
 -1        51 6.26074E-05-2.36569E-07-6.61744E-24
 -1        52 5.95682E-05-4.58097E-07-3.30872E-24
 -1        53 5.54473E-05-6.79258E-07 6.61744E-24
 -1        54 5.06087E-05-9.00974E-07-2.89513E-24
 -1        55 4.54166E-05-1.12344E-06-6.61744E-24
 -1        56 6.30788E-05-4.80788E-07 0.00000E+00
 -1        57 6.19412E-05-1.02376E-06 1.32349E-23
 -1        58 6.08122E-05-1.59151E-06 0.00000E+00
 -1        59 5.96787E-05-2.15682E-06-1.32349E-23
 -1        60 5.85326E-05-2.69054E-06 0.00000E+00
 -1        61 5.73635E-05-3.16463E-06 0.00000E+00
 -1        62 5.61615E-05-3.55121E-06 0.00000E+00
 -1        63 5.49163E-05-3.82304E-06 1.32349E-23
 -1        64 5.36180E-05-3.95332E-06-2.64698E-23
 -1        65 5.22570E-05-3.91609E-06 1.32349E-23
 -1        66 5.08239E-05-3.68607E-06 0.00000E+00
 -1        67 4.93102E-05-3.23896E-06 0.00000E+00
 -1        68 4.77072E-05-2.55150E-06 0.00000E+00
 -1        69 4.60109E-05-1.60041E-06-1.32349E-23
 -1        70 4.42090E-05-3.66514E-07-2.64698E-23
 -1        71 5.12072E-05-1.34169E-21 1.32349E-23
 -1        72 5.09277E-05-5.98217E-21 3.30872E-24
 -1        73 5.06483E-05-7.62991E-21 0.00000E+00
 -1        74 5.03694E-05-1.00966E-20 3.30872E-24
 -1        75 5.00905E-05-1.02703E-20 0.00000E+00
 -1        76 4.98116E-05-1.34301E-20 0.00000E+00
 -1        77 4.95328E-05-6.14926E-21 6.61744E-24
 -1        78 4.92541E-05-3.97378E-21 0.00000E+00
 -1        79 4.89753E-05-3.83481E-21 0.00000E+00
 -1        80 4.86966E-05-5.26583E-21 3.30872E-24
 -1        81 4.84179E-05-4.37413E-21 0.00000E+00
 -1        82 4.81394E-05-6.85567E-21-3.30872E-24
 -1        83 4.78610E-05-3.02417E-21-6.61744E-24
 -1        84 4.75832E-05-3.57342E-21 3.30872E-24
 -1        85 4.73056E-05-1.03728E-21 6.61744E-24
 -1        86 5.10675E-05 1.81152E-07 8.27181E-25
 -1        87 5.00354E-05 3.85642E-07 0.00000E+00
 -1        88 4.85194E-05 5.89885E-07 0.00000E+00
 -1        89 4.66464E-05 7.94260E-07 1.65436E-24
 -1        90 4.45429E-05 9.98326E-07-3.10193E-25
 -1        91 5.09905E-05-2.23510E-07 0.00000E+00
 -1        92 5.04991E-05-4.90273E-07 0.00000E+00
 -1        93 5.00175E-05-7.83681E-07-1.32349E-23
 -1        94 4.95396E-05-1.08997E-06 0.00000E+00
 -1        95 4.90610E-05-1.39483E-06 1.32349E-23
 -1        96 4.85764E-05-1.68416E-06 0.00000E+00
 -1        97 4.80807E-05-1.94393E-06 1.32349E-23
 -1        98 4.75686E-05-2.16019E-06 0.00000E+00
 -1        99 4.70351E-05-2.31905E-06 0.00000E+00
 -1       100 4.64749E-05-2.40679E-06 6.61744E-24
 -1       101 4.58830E-05-2.40979E-06 0.00000E+00
 -1       102 4.52546E-05-2.31463E-06 0.00000E+00
 -1       103 4.45848E-05-2.10810E-06 0.00000E+00
 -1       104 4.38701E-05-1.77679E-06 0.00000E+00
 -1       105 4.31042E-05-1.30853E-06 1.32349E-23
 -1       106 4.69756E-05-3.36001E-21-3.30872E-24
 -1       107 4.69233E-05-2.55103E-21 1.65436E-24
 -1       108 4.68712E-05-7.11789E-21 0.00000E+00
 -1       109 4.68197E-05-1.03079E-20-8.27181E-25
 -1       110 4.67683E-05-7.07694E-21-1.65436E-24
 -1       111 4.67171E-05-1.74783E-21 8.27181E-25
 -1       112 4.66659E-05 2.57253E-21 0.00000E+00
 -1       113 4.66148E-05 3.55150E-21 0.00000E+00
 -1       114 4.65636E-05 6.87139E-21-1.65436E-24
 -1       115 4.65125E-05 9.79465E-21 0.00000E+00
 -1       116 4.64614E-05 1.23101E-20-1.65436E-24
 -1       117 4.64103E-05 1.08518E-20 0.00000E+00
 -1       118 4.63592E-05 5.73939E-21 0.00000E+00
 -1       119 4.63083E-05 2.99894E-21 0.00000E+00
 -1       120 4.62574E-05 2.15315E-21 1.65436E-24
 -1       121 4.67757E-05-1.15139E-07-3.30872E-24
 -1       122 4.61791E-05-2.28191E-07 1.65436E-24
 -1       123 4.53374E-05-3.41434E-07 0.00000E+00
 -1       124 4.43461E-05-4.55006E-07 0.00000E+00
 -1       125 4.33007E-05-5.68694E-07 0.00000E+00
 -1       126 4.68302E-05-1.13703E-07-6.61744E-24
 -1       127 4.66421E-05-2.73267E-07-3.30872E-24
 -1       128 4.64661E-05-4.65330E-07-6.61744E-24
 -1       129 4.62973E-05-6.77313E-07 3.30872E-24
 -1       130 4.61311E-05-8.96458E-07-6.61744E-24
 -1       131 4.59628E-05-1.11007E-06-3.30872E-24
 -1       132 4.57877E-05-1.30547E-06 0.00000E+00
 -1       133 4.56009E-05-1.47000E-06 0.00000E+00
 -1       134 4.53979E-05-1.59101E-06-6.61744E-24
 -1       135 4.51739E-05-1.65591E-06 0.00000E+00
 -1       136 4.49241E-05-1.65216E-06 0.00000E+00
 -1       137 4.46441E-05-1.56724E-06-3.30872E-24
 -1       138 4.43291E-05-1.38874E-06 0.00000E+00
 -1       139 4.39753E-05-1.10411E-06-3.30872E-24
 -1       140 4.35774E-05-7.01371E-07 0.00000E+00
 -1       141 4.62053E-05-1.96309E-21 0.00000E+00
 -1       142 4.62045E-05-1.66895E-21 0.00000E+00
 -1       143 4.62038E-05-6.25445E-22 0.00000E+00
 -1       144 4.62033E-05 1.84907E-21 0.00000E+00
 -1       145 4.62027E-05 6.45072E-21 0.00000E+00
 -1       146 4.62023E-05 7.53019E-21 0.00000E+00
 -1       147 4.62018E-05 7.00337E-21 0.00000E+00
 -1       148 4.62014E-05 7.96815E-21 0.00000E+00
 -1       149 4.62010E-05 9.94124E-21 0.00000E+00
 -1       150 4.62007E-05 1.22802E-20 0.00000E+00
 -1       151 4.62005E-05 1.33931E-20 0.00000E+00
 -1       152 4.62008E-05 1.24125E-20 0.00000E+00
 -1       153 4.62015E-05 1.31489E-20 1.65436E-24
 -1       154 4.62041E-05 1.30674E-20 0.00000E+00
 -1       155 4.62074E-05 5.06710E-21 0.00000E+00
 -1       156 4.60606E-05-2.73124E-08-6.20385E-25
 -1       157 4.57059E-05-5.45669E-08 0.00000E+00
 -1       158 4.51896E-05-8.19202E-08 0.00000E+00
 -1       159 4.45583E-05-1.09483E-07 0.00000E+00
 -1       160 4.38588E-05-1.37130E-07 0.00000E+00
 -1       161 4.61669E-05-1.68267E-08 0.00000E+00
 -1       162 4.61238E-05-2.82781E-08 0.00000E+00
 -1       163 4.60768E-05-2.91669E-08 1.65436E-24
 -1       164 4.60238E-05-1.45091E-08-8.27181E-25
 -1       165 4.59632E-05 2.07147E-08 0.00000E+00
 -1       166 4.58929E-05 8.15031E-08-4.13590E-25
 -1       167 4.58112E-05 1.72852E-07-8.27181E-25
 -1       168 4.57161E-05 2.99748E-07 0.00000E+00
 -1       169 4.56059E-05 4.67182E-07 0.00000E+00
 -1       170 4.54787E-05 6.80139E-07 0.00000E+00
 -1       171 4.53327E-05 9.43603E-07 8.27181E-25
 -1       172 4.51662E-05 1.26262E-06-4.13590E-25
 -1       173 4.49775E-05 1.64217E-06 0.00000E+00
 -1       174 4.47665E-05 2.08781E-06 0.00000E+00
 -1       175 4.45295E-05 2.60383E-06 0.00000E+00
 -1       191 4.61722E-05 5.28314E-07-1.32349E-23
 -1       192 4.60102E-05 1.06410E-06 0.00000E+00
 -1       193 4.57401E-05 1.60090E-06 1.32349E-23
 -1       194 4.53618E-05 2.13766E-06-6.61744E-24
 -1       195 4.48756E-05 2.67334E-06 0.00000E+00
 -1       251 4.03441E-05 2.25644E-06 0.00000E+00
 -1       252 4.04730E-05 4.74819E-06 8.27181E-25
 -1       253 4.06046E-05 6.26809E-06-3.10193E-24
 -1       254 4.07390E-05 6.95681E-06-8.27181E-25
 -1       255 4.08743E-05 6.95443E-06 3.30872E-24
 -1       256 4.10098E-05 6.40072E-06 0.00000E+00
 -1       257 4.11453E-05 5.43520E-06 0.00000E+00
 -1       258 4.12805E-05 4.19717E-06-1.65436E-24
 -1       259 4.14156E-05 2.82578E-06 0.00000E+00
 -1       260 4.15506E-05 1.46014E-06-1.65436E-24
 -1       261 4.16857E-05 2.39355E-07-6.61744E-24
 -1       262 4.18207E-05-6.97418E-07 0.00000E+00
 -1       263 4.19554E-05-1.21086E-06 0.00000E+00
 -1       264 4.20882E-05-1.16149E-06 0.00000E+00
 -1       265 4.22200E-05-4.09380E-07 1.65436E-24
 -1       266 3.59364E-05-1.42264E-06 0.00000E+00
 -1       267 3.18326E-05-1.49120E-06 0.00000E+00
 -1       268 2.80395E-05-1.55828E-06 0.00000E+00
 -1       269 2.46736E-05-1.62268E-06 0.00000E+00
 -1       270 2.18514E-05-1.68520E-06 0.00000E+00
 -1       271 3.81111E-05 2.05883E-06 0.00000E+00
 -1       272 3.63468E-05 4.44544E-06 0.00000E+00
 -1       273 3.49195E-05 5.93823E-06 2.64698E-23
 -1       274 3.37800E-05 6.65786E-06 0.00000E+00
 -1       275 3.28839E-05 6.72856E-06 0.00000E+00
 -1       276 3.21833E-05 6.27639E-06-1.32349E-23
 -1       277 3.16307E-05 5.42896E-06 0.00000E+00
 -1       278 3.11777E-05 4.31533E-06 0.00000E+00
 -1       279 3.07757E-05 3.06530E-06 0.00000E+00
 -1       280 3.03760E-05 1.80923E-06 0.00000E+00
 -1       281 2.99301E-05 6.77486E-07 0.00000E+00
 -1       282 2.93897E-05-1.99988E-07 0.00000E+00
 -1       283 2.87063E-05-6.93993E-07-2.64698E-23
 -1       284 2.78349E-05-6.75942E-07 0.00000E+00
 -1       285 2.67245E-05-2.05252E-08-1.32349E-23
 -1       286 4.23215E-05 2.95835E-06 6.61744E-24
 -1       287 4.23184E-05 4.13286E-06 3.30872E-24
 -1       288 4.23162E-05 4.78102E-06 0.00000E+00
 -1       289 4.23154E-05 4.97766E-06 0.00000E+00
 -1       290 4.23150E-05 4.79746E-06 1.65436E-24
 -1       291 4.23147E-05 4.31514E-06 0.00000E+00
 -1       292 4.23144E-05 3.60544E-06 0.00000E+00
 -1       293 4.23140E-05 2.74306E-06 2.06795E-25
 -1       294 4.23136E-05 1.80273E-06 5.16988E-26
 -1       295 4.23131E-05 8.59182E-07 0.00000E+00
 -1       296 4.23126E-05-1.28730E-08 0.00000E+00
 -1       297 4.23120E-05-7.38707E-07 0.00000E+00
 -1       298 4.23112E-05-1.24359E-06-4.13590E-25
 -1       299 4.23094E-05-1.45284E-06 3.10193E-25
 -1       300 4.23073E-05-1.29166E-06-1.65436E-24
 -1       301 3.97390E-05 1.21138E-06-8.27181E-25
 -1       302 3.68760E-05 1.25000E-06 0.00000E+00
 -1       303 3.38755E-05 1.29008E-06-9.04729E-26
 -1       304 3.08683E-05 1.33068E-06 0.00000E+00
 -1       305 2.79857E-05 1.37083E-06 0.00000E+00
 -1       306 4.08483E-05 2.67573E-06 0.00000E+00
 -1       307 3.95500E-05 3.58540E-06 0.00000E+00
 -1       308 3.84397E-05 3.99356E-06-2.64698E-23
 -1       309 3.74865E-05 3.97332E-06-1.32349E-23
 -1       310 3.66647E-05 3.60086E-06-2.64698E-23
 -1       311 3.59455E-05 2.95301E-06 0.00000E+00
 -1       312 3.53002E-05 2.10752E-06 2.64698E-23
 -1       313 3.46994E-05 1.14285E-06 1.32349E-23
 -1       314 3.41137E-05 1.37876E-07 0.00000E+00
 -1       315 3.35135E-05-8.28380E-07-1.32349E-23
 -1       316 3.28696E-05-1.67704E-06-2.64698E-23
 -1       317 3.21529E-05-2.32961E-06 1.32349E-23
 -1       318 3.13343E-05-2.70825E-06-2.64698E-23
 -1       319 3.03879E-05-2.73536E-06 0.00000E+00
 -1       320 2.92821E-05-2.33638E-06 1.32349E-23
 -1       321 4.23366E-05 5.01903E-08 0.00000E+00
 -1       322 4.23883E-05 5.31086E-07 0.00000E+00
 -1       323 4.24405E-05 7.90778E-07-8.01331E-25
 -1       324 4.24941E-05 8.64094E-07 0.00000E+00
 -1       325 4.25481E-05 7.85755E-07-8.27181E-25
 -1       326 4.26024E-05 5.90472E-07-8.27181E-25
 -1       327 4.26567E-05 3.12932E-07-1.65436E-24
 -1       328 4.27110E-05-1.21943E-08 8.27181E-25
 -1       329 4.27654E-05-3.50241E-07 0.00000E+00
 -1       330 4.28198E-05-6.66555E-07-8.27181E-25
 -1       331 4.28741E-05-9.26470E-07 0.00000E+00
 -1       332 4.29284E-05-1.09531E-06 0.00000E+00
 -1       333 4.29825E-05-1.13839E-06 1.65436E-24
 -1       334 4.30360E-05-1.02099E-06-8.27181E-25
 -1       335 4.30892E-05-7.08343E-07 0.00000E+00
 -1       336 4.07216E-05-8.11109E-07 3.30872E-24
 -1       337 3.83904E-05-9.33619E-07-1.65436E-24
 -1       338 3.56275E-05-1.05699E-06 0.00000E+00
 -1       339 3.27599E-05-1.18051E-06 0.00000E+00
 -1       340 3.01149E-05-1.30349E-06 0.00000E+00
 -1       341 4.15165E-05-1.28478E-07 1.32349E-23
 -1       342 4.08141E-05 1.82325E-07-6.61744E-24
 -1       343 4.01890E-05 2.86444E-07 1.32349E-23
 -1       344 3.96261E-05 2.19696E-07 6.61744E-24
 -1       345 3.91130E-05 1.91475E-08 0.00000E+00
 -1       346 3.86359E-05-2.78231E-07 6.61744E-24
 -1       347 3.81810E-05-6.35263E-07 1.32349E-23
 -1       348 3.77345E-05-1.01465E-06 0.00000E+00
 -1       349 3.72824E-05-1.37906E-06-1.32349E-23
 -1       350 3.68108E-05-1.69118E-06-6.61744E-24
 -1       351 3.63058E-05-1.91383E-06 1.32349E-23
 -1       352 3.57538E-05-2.00994E-06-6.61744E-24
 -1       353 3.51412E-05-1.94278E-06 1.32349E-23
 -1       354 3.44564E-05-1.67527E-06 0.00000E+00
 -1       355 3.36837E-05-1.17227E-06 0.00000E+00
 -1       356 4.32013E-05 4.29292E-07 2.06795E-25
 -1       357 4.32706E-05 8.76041E-07 4.13590E-25
 -1       358 4.33402E-05 1.19483E-06 0.00000E+00
 -1       359 4.34105E-05 1.40661E-06 0.00000E+00
 -1       360 4.34810E-05 1.53230E-06 0.00000E+00
 -1       361 4.35517E-05 1.59278E-06 0.00000E+00
 -1       362 4.36224E-05 1.60892E-06 0.00000E+00
 -1       363 4.36931E-05 1.60159E-06 0.00000E+00
 -1       364 4.37639E-05 1.59164E-06 1.65436E-24
 -1       365 4.38348E-05 1.59993E-06 1.65436E-24
 -1       366 4.39058E-05 1.64731E-06-3.30872E-24
 -1       367 4.39771E-05 1.75466E-06 1.65436E-24
 -1       368 4.40488E-05 1.94285E-06-3.30872E-24
 -1       369 4.41220E-05 2.23279E-06 0.00000E+00
 -1       370 4.41957E-05 2.64544E-06 0.00000E+00
 -1       371 4.19791E-05-2.03984E-07 1.65436E-24
 -1       372 4.02969E-05-2.41516E-07 6.20385E-25
 -1       373 3.83153E-05-2.79445E-07-8.27181E-25
 -1       374 3.62601E-05-3.17289E-07 0.00000E+00
 -1       375 3.43572E-05-3.54820E-07 0.00000E+00
 -1       376 4.27444E-05 3.31601E-07 3.30872E-24
 -1       377 4.24149E-05 6.42376E-07-6.61744E-24
 -1       378 4.21410E-05 8.04833E-07 0.00000E+00
 -1       379 4.19081E-05 8.55848E-07 3.30872E-24
 -1       380 4.17029E-05 8.32743E-07-6.61744E-24
 -1       381 4.15113E-05 7.72733E-07 0.00000E+00
 -1       382 4.13196E-05 7.13073E-07-6.61744E-24
 -1       383 4.11138E-05 6.91003E-07 3.30872E-24
 -1       384 4.08800E-05 7.43735E-07 6.61744E-24
 -1       385 4.06042E-05 9.08420E-07 3.30872E-24
 -1       386 4.02727E-05 1.22212E-06 6.61744E-24
 -1       387 3.98717E-05 1.72185E-06 0.00000E+00
 -1       388 3.93875E-05 2.44442E-06 3.30872E-24
 -1       389 3.88082E-05 3.42702E-06-1.65436E-24
 -1       390 3.81180E-05 4.70543E-06 0.00000E+00
 -1       406 4.36009E-05 3.71881E-06 1.32349E-23
 -1       407 4.27551E-05 4.24290E-06 6.61744E-24
 -1       408 4.17241E-05 4.76757E-06 1.32349E-23
 -1       409 4.04879E-05 5.29141E-06 0.00000E+00
 -1       410 3.90267E-05 5.81306E-06-1.32349E-23
 -1       466 2.00265E-05-3.57243E-07-6.61744E-24
 -1       467 2.03812E-05 4.95708E-07 3.30872E-24
 -1       468 2.07367E-05 8.96069E-07-6.61744E-24
 -1       469 2.10942E-05 9.24847E-07-3.30872E-24
 -1       470 2.14523E-05 6.62524E-07 0.00000E+00
 -1       471 2.18106E-05 1.89160E-07 6.61744E-24
 -1       472 2.21690E-05-4.15408E-07 1.32349E-23
 -1       473 2.25274E-05-1.07154E-06-6.61744E-24
 -1       474 2.28858E-05-1.69969E-06 0.00000E+00
 -1       475 2.32442E-05-2.22021E-06 6.61744E-24
 -1       476 2.36025E-05-2.55338E-06 1.32349E-23
 -1       477 2.39603E-05-2.61918E-06-6.61744E-24
 -1       478 2.43175E-05-2.33727E-06 0.00000E+00
 -1       479 2.46718E-05-1.62686E-06 0.00000E+00
 -1       480 2.50248E-05-4.06499E-07 0.00000E+00
 -1       481 1.78165E-05-1.64195E-06 1.65436E-24
 -1       482 1.58346E-05-1.53617E-06-1.65436E-24
 -1       483 1.38375E-05-1.43031E-06 0.00000E+00
 -1       484 1.19208E-05-1.32393E-06-1.65436E-24
 -1       485 1.01805E-05-1.21717E-06 0.00000E+00
 -1       486 1.87454E-05-3.64740E-07 6.61744E-24
 -1       487 1.79175E-05 6.57745E-07 6.61744E-24
 -1       488 1.72055E-05 1.37066E-06 1.32349E-23
 -1       489 1.65921E-05 1.81496E-06 0.00000E+00
 -1       490 1.60632E-05 2.03314E-06-1.32349E-23
 -1       491 1.56028E-05 2.06761E-06 0.00000E+00
 -1       492 1.51952E-05 1.96107E-06 1.32349E-23
 -1       493 1.48242E-05 1.75645E-06 0.00000E+00
 -1       494 1.44740E-05 1.49680E-06-1.32349E-23
 -1       495 1.41282E-05 1.22529E-06 0.00000E+00
 -1       496 1.37707E-05 9.85111E-07 0.00000E+00
 -1       497 1.33857E-05 8.19438E-07 0.00000E+00
 -1       498 1.29570E-05 7.71299E-07 1.32349E-23
 -1       499 1.24700E-05 8.83967E-07 0.00000E+00
 -1       500 1.19072E-05 1.19949E-06 6.61744E-24
 -1       501 2.55096E-05 3.15606E-06 0.00000E+00
 -1       502 2.56759E-05 4.21778E-06-1.24077E-24
 -1       503 2.58431E-05 4.68226E-06 1.65436E-24
 -1       504 2.60121E-05 4.64289E-06-1.65436E-24
 -1       505 2.61813E-05 4.19263E-06 3.30872E-24
 -1       506 2.63507E-05 3.42419E-06-1.65436E-24
 -1       507 2.65200E-05 2.43013E-06-3.30872E-24
 -1       508 2.66892E-05 1.30281E-06 0.00000E+00
 -1       509 2.68584E-05 1.34543E-07 0.00000E+00
 -1       510 2.70276E-05-9.82373E-07 0.00000E+00
 -1       511 2.71968E-05-1.95566E-06 0.00000E+00
 -1       512 2.73658E-05-2.69288E-06 0.00000E+00
 -1       513 2.75344E-05-3.10151E-06 0.00000E+00
 -1       514 2.77012E-05-3.08882E-06 0.00000E+00
 -1       515 2.78673E-05-2.56171E-06 0.00000E+00
 -1       516 2.28420E-05 1.45876E-06 6.20385E-25
 -1       517 2.00874E-05 1.51988E-06-2.06795E-25
 -1       518 1.73224E-05 1.58108E-06 1.03398E-25
 -1       519 1.47773E-05 1.64310E-06-4.13590E-25
 -1       520 1.26825E-05 1.70607E-06 0.00000E+00
 -1       521 2.39824E-05 2.95908E-06 0.00000E+00
 -1       522 2.28103E-05 3.89671E-06 1.32349E-23
 -1       523 2.18374E-05 4.30304E-06-2.64698E-23
 -1       524 2.10310E-05 4.25601E-06 1.32349E-23
 -1       525 2.03636E-05 3.83652E-06-2.64698E-23
 -1       526 1.98047E-05 3.12596E-06 0.00000E+00
 -1       527 1.93237E-05 2.20658E-06 2.64698E-23
 -1       528 1.88898E-05 1.16130E-06 0.00000E+00
 -1       529 1.84718E-05 7.33427E-08 0.00000E+00
 -1       530 1.80387E-05-9.73873E-07 0.00000E+00
 -1       531 1.75593E-05-1.89708E-06 0.00000E+00
 -1       532 1.70030E-05-2.61336E-06-1.32349E-23
 -1       533 1.63389E-05-3.04039E-06 2.64698E-23
 -1       534 1.55388E-05-3.09620E-06 0.00000E+00
 -1       535 1.45699E-05-2.70129E-06 0.00000E+00
 -1       536 2.82957E-05-1.73218E-07 1.65436E-24
 -1       537 2.85954E-05 6.53548E-07 0.00000E+00
 -1       538 2.88960E-05 1.11018E-06-6.61744E-24
 -1       539 2.91994E-05 1.25504E-06 0.00000E+00
 -1       540 2.95035E-05 1.14605E-06 0.00000E+00
 -1       541 2.98081E-05 8.40864E-07 3.30872E-24
 -1       542 3.01128E-05 3.96936E-07 0.00000E+00
 -1       543 3.04176E-05-1.28458E-07 0.00000E+00
 -1       544 3.07223E-05-6.78110E-07-6.61744E-24
 -1       545 3.10271E-05-1.19486E-06 0.00000E+00
 -1       546 3.13317E-05-1.62152E-06 0.00000E+00
 -1       547 3.16361E-05-1.90075E-06-3.30872E-24
 -1       548 3.19401E-05-1.97511E-06 0.00000E+00
 -1       549 3.22422E-05-1.78690E-06 3.30872E-24
 -1       550 3.25438E-05-1.27809E-06 6.61744E-24
 -1       551 2.58814E-05-1.48827E-06-3.30872E-24
 -1       552 2.33906E-05-1.54345E-06 1.55096E-24
 -1       553 2.07212E-05-1.59822E-06 0.00000E+00
 -1       554 1.80518E-05-1.65307E-06 0.00000E+00
 -1       555 1.55612E-05-1.70850E-06-6.61744E-24
 -1       556 2.71494E-05-3.60508E-07 1.32349E-23
 -1       557 2.64119E-05 3.27173E-07 0.00000E+00
 -1       558 2.57953E-05 6.88448E-07 0.00000E+00
 -1       559 2.52803E-05 7.76051E-07-6.61744E-24
 -1       560 2.48477E-05 6.42906E-07-1.32349E-23
 -1       561 2.44778E-05 3.42039E-07 6.61744E-24
 -1       562 2.41508E-05-7.34771E-08 1.32349E-23
 -1       563 2.38469E-05-5.50491E-07 0.00000E+00
 -1       564 2.35461E-05-1.03583E-06 0.00000E+00
 -1       565 2.32285E-05-1.47632E-06 6.61744E-24
 -1       566 2.28743E-05-1.81879E-06-1.32349E-23
 -1       567 2.24636E-05-2.01013E-06-3.30872E-24
 -1       568 2.19769E-05-1.99726E-06-1.32349E-23
 -1       569 2.13952E-05-1.72711E-06-6.61744E-24
 -1       570 2.06993E-05-1.14686E-06 3.30872E-24
 -1       571 3.30954E-05 4.88097E-07-8.27181E-25
 -1       572 3.33733E-05 1.09141E-06-3.30872E-24
 -1       573 3.36536E-05 1.46358E-06 0.00000E+00
 -1       574 3.39354E-05 1.65085E-06-3.30872E-24
 -1       575 3.42177E-05 1.69945E-06 0.00000E+00
 -1       576 3.45003E-05 1.65569E-06 0.00000E+00
 -1       577 3.47830E-05 1.56584E-06-6.61744E-24
 -1       578 3.50658E-05 1.47620E-06 3.30872E-24
 -1       579 3.53486E-05 1.43304E-06 0.00000E+00
 -1       580 3.56315E-05 1.48266E-06 6.61744E-24
 -1       581 3.59142E-05 1.67137E-06 0.00000E+00
 -1       582 3.61969E-05 2.04553E-06 0.00000E+00
 -1       583 3.64793E-05 2.65156E-06-1.32349E-23
 -1       584 3.67614E-05 3.53574E-06 1.32349E-23
 -1       585 3.70427E-05 4.74445E-06 0.00000E+00
 -1       586 3.10738E-05-3.59361E-07 0.00000E+00
 -1       587 2.89232E-05-3.25948E-07 0.00000E+00
 -1       588 2.65526E-05-2.92713E-07 8.27181E-25
 -1       589 2.41385E-05-2.59983E-07 0.00000E+00
 -1       590 2.18571E-05-2.28015E-07 0.00000E+00
 -1       591 3.22105E-05 4.56631E-07 0.00000E+00
 -1       592 3.16565E-05 1.09168E-06 3.30872E-24
 -1       593 3.11661E-05 1.55271E-06 0.00000E+00
 -1       594 3.07259E-05 1.87613E-06 0.00000E+00
 -1       595 3.03233E-05 2.09853E-06-6.61744E-24
 -1       596 2.99447E-05 2.25635E-06 3.30872E-24
 -1       597 2.95766E-05 2.38609E-06 0.00000E+00
 -1       598 2.92053E-05 2.52419E-06 0.00000E+00
 -1       599 2.88171E-05 2.70710E-06 0.00000E+00
 -1       600 2.83986E-05 2.97127E-06 3.30872E-24
 -1       601 2.79359E-05 3.35309E-06 0.00000E+00
 -1       602 2.74157E-05 3.88898E-06-3.30872E-24
 -1       603 2.68244E-05 4.61530E-06 3.30872E-24
 -1       604 2.61496E-05 5.56850E-06 3.30872E-24
 -1       605 2.53783E-05 6.78491E-06 1.03398E-25
 -1       606 3.74156E-05 8.38121E-06-6.61744E-24
 -1       607 3.75021E-05 1.07021E-05 0.00000E+00
 -1       608 3.75869E-05 1.32641E-05 0.00000E+00
 -1       609 3.76704E-05 1.60454E-05 0.00000E+00
 -1       610 3.77531E-05 1.90239E-05 0.00000E+00
 -1       611 3.78351E-05 2.21777E-05 0.00000E+00
 -1       612 3.79166E-05 2.54847E-05 0.00000E+00
 -1       613 3.79977E-05 2.89229E-05 1.65436E-24
 -1       614 3.80784E-05 3.24703E-05 0.00000E+00
 -1       615 3.81588E-05 3.61048E-05 0.00000E+00
 -1       616 3.82389E-05 3.98045E-05-3.30872E-24
 -1       617 3.83188E-05 4.35475E-05 0.00000E+00
 -1       618 3.83986E-05 4.73116E-05-3.30872E-24
 -1       619 3.84781E-05 5.10750E-05-8.27181E-25
 -1       620 3.85574E-05 5.48157E-05 1.65436E-24
 -1       621 3.52628E-05 6.65197E-06-1.32349E-23
 -1       622 3.31019E-05 6.98566E-06 6.61744E-24
 -1       623 3.08922E-05 7.31952E-06 0.00000E+00
 -1       624 2.86879E-05 7.65255E-06 0.00000E+00
 -1       625 2.65431E-05 7.98381E-06-6.61744E-24
 -1       626 3.67310E-05 8.47704E-06 0.00000E+00
 -1       627 3.60312E-05 1.09140E-05-6.61744E-24
 -1       628 3.52353E-05 1.36045E-05-1.32349E-23
 -1       629 3.43550E-05 1.65177E-05 0.00000E+00
 -1       630 3.34019E-05 1.96231E-05 0.00000E+00
 -1       631 3.23877E-05 2.28898E-05 3.30872E-24
 -1       632 3.13240E-05 2.62872E-05-6.61744E-24
 -1       633 3.02225E-05 2.97845E-05 3.30872E-24
 -1       634 2.90947E-05 3.33512E-05 0.00000E+00
 -1       635 2.79523E-05 3.69564E-05 0.00000E+00
 -1       636 2.68068E-05 4.05696E-05 0.00000E+00
 -1       637 2.56697E-05 4.41601E-05-1.65436E-24
 -1       638 2.45525E-05 4.76973E-05 0.00000E+00
 -1       639 2.34663E-05 5.11503E-05-1.65436E-24
 -1       640 2.24223E-05 5.44884E-05-1.65436E-24
 -1       641 3.86336E-05 6.21499E-05 0.00000E+00
 -1       642 3.86311E-05 6.58113E-05 0.00000E+00
 -1       643 3.86285E-05 6.94898E-05-2.06795E-25
 -1       644 3.86257E-05 7.31793E-05-1.03398E-25
 -1       645 3.86228E-05 7.68736E-05 1.03398E-25
 -1       646 3.86199E-05 8.05663E-05 0.00000E+00
 -1       647 3.86170E-05 8.42513E-05 1.03398E-25
 -1       648 3.86141E-05 8.79223E-05 2.58494E-26
 -1       649 3.86113E-05 9.15730E-05 7.75482E-26
 -1       650 3.86086E-05 9.51973E-05-5.16988E-26
 -1       651 3.86060E-05 9.87887E-05 0.00000E+00
 -1       652 3.86034E-05 1.02341E-04 0.00000E+00
 -1       653 3.86009E-05 1.05848E-04 0.00000E+00
 -1       654 3.85983E-05 1.09304E-04 2.06795E-25
 -1       655 3.85957E-05 1.12702E-04-8.27181E-25
 -1       656 3.52998E-05 5.83771E-05 0.00000E+00
 -1       657 3.23129E-05 5.82358E-05 1.65436E-24
 -1       658 2.95533E-05 5.80951E-05 3.30872E-24
 -1       659 2.68996E-05 5.79545E-05-1.65436E-24
 -1       660 2.42305E-05 5.78139E-05 0.00000E+00
 -1       661 3.73957E-05 6.21905E-05 0.00000E+00
 -1       662 3.61567E-05 6.58827E-05 0.00000E+00
 -1       663 3.49154E-05 6.95806E-05 3.30872E-24
 -1       664 3.36750E-05 7.32781E-05 1.65436E-24
 -1       665 3.24373E-05 7.69688E-05 0.00000E+00
 -1       666 3.12047E-05 8.06461E-05 1.65436E-24
 -1       667 2.99795E-05 8.43039E-05 0.00000E+00
 -1       668 2.87643E-05 8.79357E-05 0.00000E+00
 -1       669 2.75612E-05 9.15351E-05 0.00000E+00
 -1       670 2.63729E-05 9.50958E-05 0.00000E+00
 -1       671 2.52016E-05 9.86112E-05 3.30872E-24
 -1       672 2.40497E-05 1.02075E-04 0.00000E+00
 -1       673 2.29196E-05 1.05480E-04 3.30872E-24
 -1       674 2.18131E-05 1.08821E-04 0.00000E+00
 -1       675 2.07334E-05 1.12090E-04-1.65436E-24
 -1       676 3.53350E-05 1.15911E-04-3.30872E-24
 -1       677 3.21371E-05 1.15784E-04 0.00000E+00
 -1       678 2.89847E-05 1.15656E-04 0.00000E+00
 -1       679 2.58653E-05 1.15529E-04 1.65436E-24
 -1       680 2.27664E-05 1.15403E-04 3.30872E-24
 -1       681 8.86743E-06-5.53949E-08-3.30872E-24
 -1       682 9.02754E-06 6.97601E-07 0.00000E+00
 -1       683 9.18797E-06 1.18716E-06 3.30872E-24
 -1       684 9.34899E-06 1.45353E-06 3.30872E-24
 -1       685 9.51017E-06 1.53676E-06-3.30872E-24
 -1       686 9.67144E-06 1.47683E-06 0.00000E+00
 -1       687 9.83275E-06 1.31361E-06-3.30872E-24
 -1       688 9.99405E-06 1.08692E-06 3.30872E-24
 -1       689 1.01553E-05 8.36549E-07-6.61744E-24
 -1       690 1.03166E-05 6.02254E-07 0.00000E+00
 -1       691 1.04777E-05 4.23816E-07 0.00000E+00
 -1       692 1.06387E-05 3.41045E-07 3.30872E-24
 -1       693 1.07993E-05 3.93806E-07-3.30872E-24
 -1       694 1.09588E-05 6.22030E-07-1.65436E-24
 -1       695 1.11177E-05 1.06581E-06 0.00000E+00
 -1       696 7.32636E-06-9.31545E-07 3.30872E-24
 -1       697 5.80819E-06-7.46479E-07 0.00000E+00
 -1       698 4.23660E-06-5.61237E-07 6.61744E-24
 -1       699 2.69150E-06-3.75093E-07-3.30872E-24
 -1       700 1.25281E-06-1.88574E-07-6.61744E-24
 -1       701 8.12880E-06-6.40140E-08-3.30872E-24
 -1       702 7.62108E-06 7.51290E-07 0.00000E+00
 -1       703 7.18982E-06 1.36247E-06 0.00000E+00
 -1       704 6.82455E-06 1.79399E-06 0.00000E+00
 -1       705 6.51694E-06 2.07115E-06 0.00000E+00
 -1       706 6.25758E-06 2.21906E-06 0.00000E+00
 -1       707 6.03717E-06 2.26294E-06 0.00000E+00
 -1       708 5.84626E-06 2.22806E-06 0.00000E+00
 -1       709 5.67540E-06 2.13974E-06 0.00000E+00
 -1       710 5.51509E-06 2.02335E-06 3.30872E-24
 -1       711 5.35587E-06 1.90429E-06 0.00000E+00
 -1       712 5.18835E-06 1.80799E-06 3.30872E-24
 -1       713 5.00306E-06 1.75982E-06 0.00000E+00
 -1       714 4.79150E-06 1.78548E-06-1.65436E-24
 -1       715 4.54314E-06 1.90988E-06 1.65436E-24
 -1       716 1.13940E-05 2.36370E-06 5.16988E-25
 -1       717 1.15297E-05 2.55257E-06-1.65436E-24
 -1       718 1.16658E-05 2.39551E-06 3.30872E-24
 -1       719 1.18028E-05 1.95732E-06 0.00000E+00
 -1       720 1.19400E-05 1.30255E-06 3.30872E-24
 -1       721 1.20773E-05 4.95652E-07 0.00000E+00
 -1       722 1.22146E-05-3.98949E-07-3.30872E-24
 -1       723 1.23519E-05-1.31693E-06 0.00000E+00
 -1       724 1.24893E-05-2.19394E-06 0.00000E+00
 -1       725 1.26266E-05-2.96561E-06 0.00000E+00
 -1       726 1.27639E-05-3.56756E-06 0.00000E+00
 -1       727 1.29010E-05-3.93526E-06 0.00000E+00
 -1       728 1.30377E-05-4.00410E-06 0.00000E+00
 -1       729 1.31724E-05-3.70936E-06 0.00000E+00
 -1       730 1.33064E-05-2.98599E-06 0.00000E+00
 -1       731 1.01543E-05 1.82604E-06 0.00000E+00
 -1       732 8.81973E-06 1.89253E-06 0.00000E+00
 -1       733 7.41288E-06 1.95913E-06 0.00000E+00
 -1       734 6.08379E-06 2.02644E-06 4.13590E-25
 -1       735 4.98261E-06 2.09415E-06-8.27181E-25
 -1       736 1.06241E-05 2.34946E-06-6.61744E-24
 -1       737 1.00543E-05 2.69592E-06 6.61744E-24
 -1       738 9.56130E-06 2.83679E-06 0.00000E+00
 -1       739 9.13309E-06 2.79973E-06 0.00000E+00
 -1       740 8.76035E-06 2.61367E-06-1.32349E-23
 -1       741 8.43238E-06 2.30733E-06 0.00000E+00
 -1       742 8.13853E-06 1.90966E-06 0.00000E+00
 -1       743 7.86795E-06 1.44972E-06 6.61744E-24
 -1       744 7.60977E-06 9.56662E-07-1.32349E-23
 -1       745 7.35309E-06 4.59716E-07 0.00000E+00
 -1       746 7.08701E-06-1.19124E-08 1.32349E-23
 -1       747 6.80075E-06-4.29003E-07 6.61744E-24
 -1       748 6.48347E-06-7.62451E-07 0.00000E+00
 -1       749 6.12542E-06-9.82952E-07 0.00000E+00
 -1       750 5.71463E-06-1.06213E-06 6.61744E-24
 -1       751 1.38012E-05-5.27120E-07-1.65436E-24
 -1       752 1.42039E-05 2.72765E-07 3.30872E-24
 -1       753 1.46078E-05 6.92513E-07-6.61744E-24
 -1       754 1.50152E-05 7.95042E-07 0.00000E+00
 -1       755 1.54233E-05 6.42761E-07-1.32349E-23
 -1       756 1.58320E-05 2.97667E-07 6.61744E-24
 -1       757 1.62410E-05-1.78492E-07-1.32349E-23
 -1       758 1.66500E-05-7.24195E-07 6.61744E-24
 -1       759 1.70590E-05-1.27800E-06 0.00000E+00
 -1       760 1.74679E-05-1.77851E-06 6.61744E-24
 -1       761 1.78767E-05-2.16422E-06 0.00000E+00
 -1       762 1.82850E-05-2.37345E-06 6.61744E-24
 -1       763 1.86927E-05-2.34428E-06-1.32349E-23
 -1       764 1.90975E-05-2.01443E-06 0.00000E+00
 -1       765 1.95012E-05-1.32111E-06 0.00000E+00
 -1       766 1.17710E-05-1.64693E-06-8.27181E-25
 -1       767 1.00741E-05-1.50964E-06 0.00000E+00
 -1       768 8.45401E-06-1.37208E-06-1.65436E-24
 -1       769 7.03043E-06-1.23387E-06-4.13590E-25
 -1       770 5.92326E-06-1.09526E-06 0.00000E+00
 -1       771 1.22615E-05-7.21685E-07 0.00000E+00
 -1       772 1.11840E-05 2.90587E-08 0.00000E+00
 -1       773 1.01994E-05 5.23005E-07 0.00000E+00
 -1       774 9.29522E-06 7.95973E-07 1.32349E-23
 -1       775 8.45965E-06 8.84117E-07 2.64698E-23
 -1       776 7.67950E-06 8.23454E-07 0.00000E+00
 -1       777 6.94148E-06 6.50069E-07-2.64698E-23
 -1       778 6.23211E-06 4.00131E-07-1.32349E-23
 -1       779 5.53787E-06 1.09853E-07 0.00000E+00
 -1       780 4.84522E-06-1.84513E-07 1.32349E-23
 -1       781 4.14065E-06-4.46698E-07-2.64698E-23
 -1       782 3.41081E-06-6.40425E-07-1.32349E-23
 -1       783 2.64239E-06-7.29445E-07-2.64698E-23
 -1       784 1.82335E-06-6.77281E-07 0.00000E+00
 -1       785 9.41076E-07-4.47740E-07 0.00000E+00
 -1       786 2.01529E-05 9.83665E-07 0.00000E+00
 -1       787 2.04411E-05 1.85098E-06 0.00000E+00
 -1       788 2.07301E-05 2.44968E-06 6.61744E-24
 -1       789 2.10213E-05 2.82963E-06 3.30872E-24
 -1       790 2.13132E-05 3.04041E-06 0.00000E+00
 -1       791 2.16055E-05 3.13145E-06 0.00000E+00
 -1       792 2.18979E-05 3.15204E-06 0.00000E+00
 -1       793 2.21905E-05 3.15139E-06 0.00000E+00
 -1       794 2.24830E-05 3.17869E-06 0.00000E+00
 -1       795 2.27755E-05 3.28316E-06 3.30872E-24
 -1       796 2.30679E-05 3.51411E-06-6.61744E-24
 -1       797 2.33600E-05 3.92099E-06 0.00000E+00
 -1       798 2.36517E-05 4.55341E-06 6.61744E-24
 -1       799 2.39420E-05 5.46123E-06 3.30872E-24
 -1       800 2.42316E-05 6.69468E-06 6.61744E-24
 -1       801 1.73682E-05-1.68544E-07 0.00000E+00
 -1       802 1.37264E-05-1.31863E-07 0.00000E+00
 -1       803 9.56144E-06-9.69910E-08 0.00000E+00
 -1       804 5.48088E-06-6.26032E-08 0.00000E+00
 -1       805 2.09232E-06-2.64306E-08-6.61744E-24
 -1       806 1.90210E-05 8.49096E-07-1.32349E-23
 -1       807 1.82270E-05 1.67779E-06 1.98523E-23
 -1       808 1.74995E-05 2.32320E-06 0.00000E+00
 -1       809 1.68257E-05 2.82135E-06-6.61744E-24
 -1       810 1.61932E-05 3.20845E-06-1.32349E-23
 -1       811 1.55885E-05 3.52062E-06 0.00000E+00
 -1       812 1.49983E-05 3.79396E-06-1.32349E-23
 -1       813 1.44090E-05 4.06457E-06 0.00000E+00
 -1       814 1.38073E-05 4.36855E-06 0.00000E+00
 -1       815 1.31795E-05 4.74198E-06 6.61744E-24
 -1       816 1.25122E-05 5.22092E-06-1.32349E-23
 -1       817 1.17920E-05 5.84138E-06 6.61744E-24
 -1       818 1.10056E-05 6.63934E-06-1.32349E-23
 -1       819 1.01409E-05 7.65088E-06-3.30872E-24
 -1       820 9.18496E-06 8.91186E-06 3.30872E-24
 -1       821 2.43324E-05 1.03158E-05-1.65436E-24
 -1       822 2.41420E-05 1.26128E-05-1.65436E-24
 -1       823 2.39506E-05 1.51653E-05 3.30872E-24
 -1       824 2.37572E-05 1.79429E-05-3.30872E-24
 -1       825 2.35629E-05 2.09153E-05-6.61744E-24
 -1       826 2.33679E-05 2.40519E-05 3.30872E-24
 -1       827 2.31725E-05 2.73220E-05 0.00000E+00
 -1       828 2.29766E-05 3.06951E-05-3.30872E-24
 -1       829 2.27805E-05 3.41401E-05-6.61744E-24
 -1       830 2.25843E-05 3.76263E-05-3.30872E-24
 -1       831 2.23881E-05 4.11228E-05 6.61744E-24
 -1       832 2.21922E-05 4.45987E-05 0.00000E+00
 -1       833 2.19967E-05 4.80230E-05-6.61744E-24
 -1       834 2.18026E-05 5.13650E-05 0.00000E+00
 -1       835 2.16092E-05 5.45939E-05 0.00000E+00
 -1       836 2.22072E-05 8.65719E-06 0.00000E+00
 -1       837 1.94196E-05 9.02232E-06 0.00000E+00
 -1       838 1.63832E-05 9.38669E-06 6.61744E-24
 -1       839 1.33339E-05 9.75035E-06 0.00000E+00
 -1       840 1.05076E-05 1.01143E-05-6.61744E-24
 -1       841 2.37454E-05 1.03168E-05 0.00000E+00
 -1       842 2.28656E-05 1.26222E-05 0.00000E+00
 -1       843 2.18869E-05 1.51890E-05 0.00000E+00
 -1       844 2.08214E-05 1.79846E-05 0.00000E+00
 -1       845 1.96814E-05 2.09766E-05 2.06795E-25
 -1       846 1.84794E-05 2.41325E-05-2.06795E-25
 -1       847 1.72277E-05 2.74197E-05-3.74816E-25
 -1       848 1.59385E-05 3.08057E-05-2.06795E-25
 -1       849 1.46242E-05 3.42580E-05-2.06795E-25
 -1       850 1.32971E-05 3.77441E-05 2.06795E-25
 -1       851 1.19694E-05 4.12314E-05 0.00000E+00
 -1       852 1.06536E-05 4.46874E-05 8.27181E-25
 -1       853 9.36187E-06 4.80795E-05 0.00000E+00
 -1       854 8.10623E-06 5.13751E-05-8.27181E-25
 -1       855 6.89930E-06 5.45418E-05 1.65436E-24
 -1       856 2.13225E-05 6.07805E-05 8.27181E-25
 -1       857 2.12145E-05 6.40666E-05-8.27181E-25
 -1       858 2.11059E-05 6.75128E-05-3.30872E-24
 -1       859 2.09961E-05 7.10935E-05 0.00000E+00
 -1       860 2.08858E-05 7.47834E-05 0.00000E+00
 -1       861 2.07751E-05 7.85570E-05 0.00000E+00
 -1       862 2.06641E-05 8.23887E-05 0.00000E+00
 -1       863 2.05530E-05 8.62530E-05 0.00000E+00
 -1       864 2.04418E-05 9.01244E-05-3.30872E-24
 -1       865 2.03307E-05 9.39774E-05 0.00000E+00
 -1       866 2.02199E-05 9.77864E-05 0.00000E+00
 -1       867 2.01093E-05 1.01526E-04 0.00000E+00
 -1       868 1.99991E-05 1.05170E-04 0.00000E+00
 -1       869 1.98897E-05 1.08694E-04 0.00000E+00
 -1       870 1.97809E-05 1.12072E-04 0.00000E+00
 -1       871 1.86701E-05 5.76590E-05 0.00000E+00
 -1       872 1.60585E-05 5.76377E-05 0.00000E+00
 -1       873 1.35258E-05 5.76163E-05 0.00000E+00
 -1       874 1.10069E-05 5.75945E-05 0.00000E+00
 -1       875 8.43651E-06 5.75719E-05 0.00000E+00
 -1       876 2.04225E-05 6.08129E-05 0.00000E+00
 -1       877 1.93707E-05 6.40972E-05 0.00000E+00
 -1       878 1.82702E-05 6.75104E-05 6.61744E-24
 -1       879 1.71291E-05 7.10334E-05 0.00000E+00
 -1       880 1.59539E-05 7.46466E-05 0.00000E+00
 -1       881 1.47521E-05 7.83308E-05 3.30872E-24
 -1       882 1.35306E-05 8.20668E-05 6.61744E-24
 -1       883 1.22969E-05 8.58353E-05-3.30872E-24
 -1       884 1.10580E-05 8.96173E-05 0.00000E+00
 -1       885 9.82125E-06 9.33937E-05 3.30872E-24
 -1       886 8.59383E-06 9.71452E-05 0.00000E+00
 -1       887 7.38292E-06 1.00853E-04 0.00000E+00
 -1       888 6.19570E-06 1.04497E-04 3.30872E-24
 -1       889 5.03869E-06 1.08059E-04 0.00000E+00
 -1       890 3.91996E-06 1.11518E-04 0.00000E+00
 -1       891 1.67527E-05 1.15209E-04-1.65436E-24
 -1       892 1.40046E-05 1.15138E-04 0.00000E+00
 -1       893 1.13353E-05 1.15067E-04 0.00000E+00
 -1       894 8.64866E-06 1.14996E-04 8.27181E-25
 -1       895 5.84836E-06 1.14924E-04-8.27181E-25
 -1       896 2.64820E-07 9.41260E-07 6.61744E-24
 -1       897 5.31620E-07 1.64518E-06 0.00000E+00
 -1       898 7.98615E-07 2.13969E-06 6.61744E-24
 -1       899 1.06591E-06 2.45297E-06-3.30872E-24
 -1       900 1.33329E-06 2.61298E-06 6.61744E-24
 -1       901 1.60073E-06 2.64754E-06 0.00000E+00
 -1       902 1.86819E-06 2.58437E-06 6.61744E-24
 -1       903 2.13563E-06 2.45106E-06 0.00000E+00
 -1       904 2.40305E-06 2.27514E-06 0.00000E+00
 -1       905 2.67043E-06 2.08413E-06 3.30872E-24
 -1       906 2.93772E-06 1.90548E-06 0.00000E+00
 -1       907 3.20480E-06 1.76670E-06 3.30872E-24
 -1       908 3.47160E-06 1.69530E-06 0.00000E+00
 -1       909 3.73723E-06 1.71889E-06-3.30872E-24
 -1       910 4.00252E-06 1.86517E-06 0.00000E+00
 -1       911 4.32110E-06 2.44307E-06 0.00000E+00
 -1       912 4.38411E-06 2.54051E-06-8.27181E-25
 -1       913 4.44714E-06 2.47955E-06 0.00000E+00
 -1       914 4.51020E-06 2.28611E-06-8.27181E-25
 -1       915 4.57325E-06 1.98604E-06 0.00000E+00
 -1       916 4.63628E-06 1.60518E-06 8.27181E-25
 -1       917 4.69929E-06 1.16936E-06 0.00000E+00
 -1       918 4.76228E-06 7.04389E-07 8.27181E-25
 -1       919 4.82525E-06 2.36060E-07 0.00000E+00
 -1       920 4.88819E-06-2.09816E-07 8.27181E-25
 -1       921 4.95107E-06-6.07441E-07 0.00000E+00
 -1       922 5.01377E-06-9.30992E-07 8.27181E-25
 -1       923 5.07624E-06-1.15463E-06-1.65436E-24
 -1       924 5.13768E-06-1.25252E-06 0.00000E+00
 -1       925 5.19880E-06-1.19874E-06-4.13590E-25
 -1       926 4.93257E-06-7.18751E-07 0.00000E+00
 -1       927 4.60503E-06-6.12858E-07 0.00000E+00
 -1       928 4.27719E-06-6.25248E-07 1.32349E-23
 -1       929 3.94825E-06-7.30633E-07 0.00000E+00
 -1       930 3.61904E-06-9.03678E-07 0.00000E+00
 -1       931 3.28963E-06-1.11893E-06-6.61744E-24
 -1       932 2.96013E-06-1.35092E-06 0.00000E+00
 -1       933 2.63059E-06-1.57411E-06-6.61744E-24
 -1       934 2.30105E-06-1.76301E-06 0.00000E+00
 -1       935 1.97153E-06-1.89216E-06 6.61744E-24
 -1       936 1.64203E-06-1.93617E-06 1.32349E-23
 -1       937 1.31262E-06-1.86976E-06 0.00000E+00
 -1       938 9.83286E-07-1.66777E-06 1.32349E-23
 -1       939 6.54355E-07-1.30526E-06-3.30872E-24
 -1       940 3.25472E-07-7.57382E-07-6.61744E-24
 -1       941 4.74517E-07 7.66440E-07 0.00000E+00
 -1       942 9.82129E-07 1.35958E-06 0.00000E+00
 -1       943 1.49104E-06 1.81344E-06 0.00000E+00
 -1       944 2.00414E-06 2.16209E-06 0.00000E+00
 -1       945 2.51828E-06 2.43941E-06 0.00000E+00
 -1       946 3.03321E-06 2.67913E-06 0.00000E+00
 -1       947 3.54842E-06 2.91490E-06-1.32349E-23
 -1       948 4.06376E-06 3.18041E-06 6.61744E-24
 -1       949 4.57911E-06 3.50934E-06 0.00000E+00
 -1       950 5.09433E-06 3.93556E-06 0.00000E+00
 -1       951 5.60927E-06 4.49305E-06-1.32349E-23
 -1       952 6.12355E-06 5.21612E-06 0.00000E+00
 -1       953 6.63689E-06 6.13933E-06-1.32349E-23
 -1       954 7.14690E-06 7.29765E-06 0.00000E+00
 -1       955 7.65566E-06 8.72651E-06 0.00000E+00
 -1       956 7.99671E-06 1.25454E-05-6.20385E-25
 -1       957 7.84961E-06 1.48487E-05 0.00000E+00
 -1       958 7.70136E-06 1.73498E-05 8.27181E-25
 -1       959 7.55224E-06 2.00262E-05-8.27181E-25
 -1       960 7.40259E-06 2.28553E-05 1.65436E-24
 -1       961 7.25249E-06 2.58144E-05 1.65436E-24
 -1       962 7.10206E-06 2.88807E-05 3.30872E-24
 -1       963 6.95137E-06 3.20316E-05 0.00000E+00
 -1       964 6.80049E-06 3.52441E-05 0.00000E+00
 -1       965 6.64950E-06 3.84955E-05 0.00000E+00
 -1       966 6.49848E-06 4.17631E-05 3.30872E-24
 -1       967 6.34754E-06 4.50240E-05 0.00000E+00
 -1       968 6.19678E-06 4.82554E-05 0.00000E+00
 -1       969 6.04648E-06 5.14346E-05 0.00000E+00
 -1       970 5.89684E-06 5.45389E-05-6.61744E-24
 -1       971 5.57366E-06 6.05648E-05 0.00000E+00
 -1       972 5.39268E-06 6.37705E-05 0.00000E+00
 -1       973 5.21104E-06 6.71399E-05 3.30872E-24
 -1       974 5.02845E-06 7.06489E-05 0.00000E+00
 -1       975 4.84534E-06 7.42735E-05 6.61744E-24
 -1       976 4.66183E-06 7.79896E-05 3.30872E-24
 -1       977 4.47803E-06 8.17731E-05 0.00000E+00
 -1       978 4.29407E-06 8.55996E-05 3.30872E-24
 -1       979 4.11005E-06 8.94450E-05 6.61744E-24
 -1       980 3.92608E-06 9.32849E-05 0.00000E+00
 -1       981 3.74227E-06 9.70952E-05-6.61744E-24
 -1       982 3.55881E-06 1.00851E-04 0.00000E+00
 -1       983 3.37583E-06 1.04530E-04-6.61744E-24
 -1       984 3.19402E-06 1.08106E-04-1.65436E-24
 -1       985 3.01288E-06 1.11555E-04 3.30872E-24
 -3
    1PSTEP                         2           1           1          
  100CL  101 1.000000000         841                     0    1           1
 -4  STRESS      6    1
 -5  SXX         1    4    1    1
 -5  SYY         1    4    2    2
 -5  SZZ         1    4    3    3
 -5  SXY         1    4    1    2
 -5  SYZ         1    4    2    3
 -5  SZX         1    4    3    1
 -1         1-1.68665E+06-5.10208E+05-1.06852E+05-6.85782E+05 6.42710E-11 1.56676E-09
 -1         2-1.00447E+06 1.70436E+04 1.82190E+03-1.50607E+05-1.85992E-10 5.63887E-11
 -1         3-3.62585E+05-1.08604E+05 4.13578E+02-7.67926E+04-9.47011E-11-1.79170E-10
 -1         4-6.18696E+04-2.39852E+04 1.31011E+02-2.28864E+04-6.62794E-11 8.39464E-10
 -1         5 4.87331E+04 6.42678E+05-7.00980E+04-2.24975E+02 9.20409E-10 4.97590E-09
 -1         8-3.37475E+05-3.00052E+05-4.32464E+02-5.07876E+05 1.12777E-10 4.85306E-09
 -1         9-7.16488E+05-9.78645E+04-3.43899E+04-3.98595E+05 1.75987E-09 7.91867E-10
 -1        10-3.90603E+05-1.86007E+05 7.34942E+02-2.42906E+05-5.44333E-10-4.84609E-10
 -1        11-1.02561E+05-6.07348E+04 1.66697E+02-1.19255E+05 2.73985E-10 1.40797E-09
 -1        12 6.48675E+04 6.43706E+05-6.65134E+04 1.94460E+04-1.84514E-10 4.13507E-09
 -1        15 1.74902E+04-3.80086E+03 1.22073E+03-1.59120E+05 4.54747E-11-2.26282E-09
 -1        16-3.27345E+05-9.62920E+04-1.98930E+04-3.50626E+05 1.03228E-09-9.54363E-10
 -1        17-2.67107E+05-1.71029E+05 1.62162E+04-3.66045E+05 1.38183E-09-7.27596E-12
 -1        18-4.54192E+04-6.64460E+04-1.21153E+04-2.73423E+05 6.02085E-10 2.06031E-09
 -1        19 2.04987E+05 3.54883E+05-2.70587E+04-5.50399E+03-1.72834E-09 3.66587E-09
 -1        20 1.19320E+05-7.01516E+04-1.11658E+04 7.91249E+04 1.26984E-08 3.96994E-10
 -1        21-1.60707E+04-1.55771E+05-6.80394E+02 1.06339E+04 3.83579E-08-4.17917E-09
 -1        22 2.85019E+04 1.71546E+05 5.62379E+02-9.28607E+04 8.59472E-11-1.28784E-09
 -1        23-1.56929E+05-6.57490E+03 9.95788E+02-1.96260E+05 3.52581E-10-2.36923E-10
 -1        24-2.69193E+05-4.79892E+04 5.06825E+04-3.39702E+05-9.33748E-10-6.54836E-10
 -1        25 3.79507E+04 1.09847E+04 6.96095E+04-3.55900E+05 2.39500E-09-1.35939E-09
 -1        26-7.08822E+03 2.70758E+05 1.29325E+04-1.11627E+05-3.09501E-09-3.02407E-10
 -1        27-2.19458E+04-4.81033E+04-2.09194E+04 1.20075E+05 1.98785E-09-3.99086E-09
 -1        28-6.21904E+03-1.09019E+05-6.91080E+02 6.06216E+04 2.65866E-08 2.40131E-10
 -1        29 3.70381E+05 2.81684E+05 9.39909E+02-5.95409E+04 2.84217E-13 4.24734E-10
 -1        30 1.26264E+05 3.24264E+04 7.86010E+02-9.01987E+04 6.38458E-10-3.27418E-10
 -1        31-3.89527E+05 2.54198E+04 1.65468E+03-1.29689E+05 6.46807E-11-2.36469E-11
 -1        32-2.41254E+05 1.36475E+04 9.51597E+04-3.40616E+05-2.35814E-09 2.99951E-09
 -1        33 8.73758E+04 2.49557E+05 9.79314E+04-1.56161E+05 3.78644E-09 1.90721E-09
 -1        34-2.31132E+05-2.29949E+04-1.85800E+03 6.93056E+04 6.61405E-09-5.63887E-10
 -1        35-4.02493E+04-3.71552E+04-5.47202E+02 8.65225E+04-5.55483E-10-1.22115E-09
 -1        36-2.27226E+06 2.85882E+03-5.70586E+04-9.67248E-09 1.34400E-10-5.16593E-10
 -1        37-2.28945E+06-1.15193E+04-3.37738E+04-2.54554E-08-3.18257E-10 8.41646E-09
 -1        38-2.27985E+06 3.19376E+02-1.45065E+04-7.94930E-09 2.65573E-10 2.32740E-09
 -1        39-2.28119E+06-7.08154E+02-7.70344E+03-1.49909E-08-2.99901E-10-3.16436E-09
 -1        40-2.28047E+06 5.58516E+01-3.73151E+03-6.21718E-09-3.31178E-10 3.45267E-09
 -1        41-2.28049E+06-3.82886E+01-2.09146E+03-3.56000E-08-3.70529E-10 6.42814E-10
 -1        42-2.28054E+06 1.80025E+01-1.37364E+03-4.77435E-09 5.13312E-10 1.08122E-09
 -1        43-2.28043E+06-3.01119E+00-1.42916E+03 2.55400E-09-1.46291E-09 7.12157E-09
 -1        44-2.28052E+06 2.82543E+01-2.13795E+03 7.28112E-09 9.20269E-10 2.52953E-10
 -1        45-2.28061E+06-8.27576E+01-4.05824E+03 5.24607E-09 1.19928E-09 1.42654E-09
 -1        46-2.28037E+06 1.16601E+02-7.75941E+03 3.83422E-09-8.59191E-10 4.27917E-10
 -1        47-2.28212E+06-1.51024E+03-1.63247E+04-9.78844E-10-1.28746E-10-1.98497E-09
 -1        48-2.27904E+06 6.80430E+02-3.08785E+04-2.30040E-09 2.51706E-10 6.18456E-11
 -1        49-2.29974E+06-2.45594E+04-7.19812E+04 1.43727E-08-2.08045E-09 4.42924E-10
 -1        50-2.26284E+06 6.10152E+03-1.21611E+05 5.04588E-09-1.02352E-10 2.93221E-09
 -1        51 3.60730E+04-5.97951E+05 1.07212E+05-8.53435E+05-1.74623E-10-1.42609E-09
 -1        52 1.84276E+04-5.81392E+05 5.68432E+04-1.05750E+06 3.78350E-10-7.56700E-09
 -1        53 6.46072E+03-6.00466E+05 2.59391E+04-8.50363E+05 3.27418E-11 3.52884E-09
 -1        54 1.10890E+04-6.02972E+05 1.48283E+04-1.06006E+06-3.05590E-10 6.91216E-10
 -1        55 9.80584E+03-6.04440E+05 9.12746E+03-8.50674E+05 4.36557E-11 3.35967E-09
 -1        56-2.92479E+06-4.09304E+05-1.51514E+05-1.11490E+06 1.00044E-10 9.31323E-10
 -1        57-2.96544E+06-4.67956E+05-8.83602E+04-1.12665E+06 3.99723E-10-6.93944E-10
 -1        58-2.94575E+06-4.22837E+05-3.52169E+04-1.11803E+06 7.27141E-10 1.76988E-09
 -1        59-2.94020E+06-4.36335E+05-1.81578E+04-1.12948E+06-4.37694E-11-1.04660E-09
 -1        60-2.94751E+06-4.24073E+05-8.16443E+03-1.11833E+06 4.74756E-10-2.65311E-09
 -1        61-2.93817E+06-4.33997E+05-4.27686E+03-1.12933E+06-3.13776E-10 1.60503E-09
 -1        62-2.94759E+06-4.24319E+05-2.47963E+03-1.11846E+06-6.98037E-10-1.01841E-09
 -1        63-2.93822E+06-4.33608E+05-2.31020E+03-1.12899E+06 5.43878E-10-2.66959E-09
 -1        64-2.94738E+06-4.24484E+05-3.34199E+03-1.11863E+06-8.51287E-10 1.74941E-09
 -1        65-2.93891E+06-4.33482E+05-6.57160E+03-1.12856E+06 5.45697E-12 5.98084E-09
 -1        66-2.94681E+06-4.24504E+05-1.30113E+04-1.11883E+06-5.82077E-11 2.62662E-09
 -1        67-2.94284E+06-4.36549E+05-2.91662E+04-1.12791E+06-8.34461E-10-5.07134E-09
 -1        68-2.94360E+06-4.22885E+05-5.66871E+04-1.11870E+06-4.71118E-10 1.58980E-09
 -1        69-2.98410E+06-4.86776E+05-1.42243E+05-1.12252E+06-1.82376E-09-1.99361E-09
 -1        70-2.90950E+06-4.01408E+05-2.43874E+05-1.11401E+06 1.36060E-09-1.74623E-09
 -1        71-7.99901E+05-9.43405E+02 1.89934E+04 4.76439E-09-2.92488E-10-1.02682E-09
 -1        72-7.94037E+05 3.82927E+03 1.12343E+04-1.81535E-08 3.93608E-10 6.64841E-10
 -1        73-7.97370E+05-1.05639E+02 4.81529E+03-1.08101E-08-5.04370E-10-4.48836E-10
 -1        74-7.96785E+05 2.35334E+02 2.53161E+03 1.01665E-08-2.47240E-10 4.30225E-09
 -1        75-7.97160E+05-1.77016E+01 1.17476E+03 2.73782E-09 2.76941E-10 5.80201E-10
 -1        76-7.97023E+05 1.30900E+01 5.56090E+02 1.40243E-09-2.54485E-10 4.21704E-09
 -1        77-7.97133E+05-2.43161E+00 1.79458E+02 1.42609E-08 7.53891E-11-1.55823E-09
 -1        78-7.97062E+05-1.92590E-01-9.35398E+01 2.04927E-08 1.19342E-09 2.65555E-09
 -1        79-7.97121E+05 5.45728E+00-4.09250E+02-8.55667E-09-2.57793E-10 8.17408E-10
 -1        80-7.97117E+05-2.09597E+01-9.58294E+02-3.11373E-09-4.40939E-10-2.00487E-09
 -1        81-7.97079E+05 2.89544E+01-1.92601E+03 3.67637E-09 3.22010E-10 5.37966E-10
 -1        82-7.97499E+05-3.79833E+02-4.10161E+03 2.83845E-09-1.52424E-09 1.73691E-09
 -1        83-7.96741E+05 1.70654E+02-7.77998E+03-1.12105E-09 1.52882E-10-3.05590E-09
 -1        84-8.01934E+05-6.18133E+03-1.81382E+04 7.09565E-09 1.70422E-10-6.95513E-09
 -1        85-7.92654E+05 1.52421E+03-3.06556E+04 3.22643E-09-9.99175E-10-1.62072E-09
 -1        86-7.87824E+03 5.83605E+05 1.57214E+05-7.26696E+04-9.45874E-11-1.89175E-10
 -1        87 3.22015E+04 6.31620E+05 1.04472E+05-1.40224E+05 3.50155E-10 1.84809E-09
 -1        88-1.39187E+03 6.02077E+05 6.75658E+04-7.23374E+04-6.53927E-10 4.45471E-09
 -1        89 2.62166E+04 6.26064E+05 8.90169E+04-1.40480E+05 5.32054E-10-5.49153E-09
 -1        90-5.66062E+03 5.87766E+05 1.25623E+05-7.23696E+04-1.01863E-09-3.45744E-09
 -1        91-1.29230E+06-1.83274E+05-4.37285E+04-4.92623E+05 5.00677E-10-3.11957E-09
 -1        92-1.30195E+06-2.02182E+05-2.54940E+04-4.98336E+05 1.45974E-10-5.72754E-09
 -1        93-1.29837E+06-1.87141E+05-1.01724E+04-4.93516E+05-4.30873E-10 4.04270E-10
 -1        94-1.29466E+06-1.93101E+05-5.24828E+03-4.99185E+05-7.75458E-10 1.82695E-09
 -1        95-1.29889E+06-1.87485E+05-2.36669E+03-4.93593E+05 7.41238E-10 3.32045E-09
 -1        96-1.29405E+06-1.92453E+05-1.25110E+03-4.99174E+05 5.00904E-10 1.56672E-09
 -1        97-1.29893E+06-1.87540E+05-7.45574E+02-4.93617E+05-1.83491E-10 2.45359E-09
 -1        98-1.29404E+06-1.92371E+05-7.30533E+02-4.99113E+05 3.24690E-10 2.85127E-10
 -1        99-1.29889E+06-1.87567E+05-1.09258E+03-4.93647E+05-4.74074E-10-2.61048E-09
 -1       100-1.29422E+06-1.92383E+05-2.17546E+03-4.99041E+05-1.09230E-09 5.47118E-09
 -1       101-1.29873E+06-1.87541E+05-4.31732E+03-4.93676E+05 1.54614E-10 6.20230E-09
 -1       102-1.29546E+06-1.93463E+05-9.68151E+03-4.98903E+05-1.99179E-10-6.47788E-10
 -1       103-1.29770E+06-1.86969E+05-1.88135E+04-4.93594E+05 7.50333E-11-2.24190E-09
 -1       104-1.30907E+06-2.10143E+05-4.71695E+04-4.97179E+05 2.14149E-09 4.46471E-09
 -1       105-1.28639E+06-1.79878E+05-8.09099E+04-4.92008E+05-3.58705E-09-8.87667E-10
 -1       106-1.50799E+05-1.53465E+03 3.09980E+04 4.12001E-09 1.54462E-10-1.22418E-09
 -1       107-1.41332E+05 6.24554E+03 1.83390E+04 2.96020E-08 6.42417E-10-6.99401E-10
 -1       108-1.46665E+05-1.72204E+02 7.87118E+03-5.04178E-09 8.39874E-11-3.69755E-09
 -1       109-1.45812E+05 3.83590E+02 4.15486E+03-1.94626E-08-1.89813E-09 8.43556E-11
 -1       110-1.46323E+05-2.94286E+01 1.96155E+03 1.85787E-08 1.95552E-10 5.29553E-10
 -1       111-1.46197E+05 2.10784E+01 9.96498E+02 8.64931E-09 4.92304E-10-3.34275E-09
 -1       112-1.46281E+05-6.20038E+00 4.67301E+02-6.00169E-11-1.83303E-10 3.49985E-10
 -1       113-1.46248E+05 4.16053E-01 2.03430E+02 1.95076E-08-7.91744E-11 1.05495E-09
 -1       114-1.46272E+05-3.74750E-01 3.24103E+01-1.33593E-08-4.32528E-10-4.64073E-09
 -1       115-1.46266E+05-4.01144E+00-1.22063E+02-9.38717E-09-1.46312E-10-1.97449E-09
 -1       116-1.46262E+05 4.99638E+00-3.28500E+02 3.26295E-09 6.64763E-10-1.78659E-09
 -1       117-1.46339E+05-7.00124E+01-7.42910E+02 1.67255E-08-1.17482E-09-1.80125E-09
 -1       118-1.46200E+05 3.13198E+01-1.42818E+03 5.41622E-09 2.02403E-10 1.86776E-09
 -1       119-1.47156E+05-1.13894E+03-3.34080E+03-1.44971E-08 3.28506E-11 9.76388E-09
 -1       120-1.45445E+05 2.80025E+02-5.65061E+03 9.65798E-09 6.53503E-10 7.34599E-09
 -1       121-8.20859E+02-3.22810E+05 1.55626E+04-5.36821E+04 1.00044E-10-1.85173E-09
 -1       122 3.32449E+03-3.18057E+05 1.16446E+04-1.04434E+05-1.07320E-10 4.89308E-10
 -1       123-1.46217E+02-3.21329E+05 9.78861E+03-5.33961E+04 2.35559E-10 4.01542E-09
 -1       124 5.36539E+03-3.16800E+05 1.64029E+04-1.04659E+05-1.96451E-10 3.04681E-10
 -1       125-1.13144E+03-3.24502E+05 2.53783E+04-5.34543E+04 2.41926E-10 2.61639E-09
 -1       126-5.40162E+05-7.94131E+04-1.33558E+04-2.08975E+05-2.04147E-09-1.08412E-09
 -1       127-5.40205E+05-8.80678E+04-7.78621E+03-2.14029E+05-4.47585E-10-9.54969E-11
 -1       128-5.42036E+05-8.05725E+04-3.11027E+03-2.09230E+05 3.64707E-10 1.74305E-09
 -1       129-5.37962E+05-8.53164E+04-1.60830E+03-2.14312E+05-1.06007E-09-5.20130E-09
 -1       130-5.42198E+05-8.06743E+04-7.33349E+02-2.09252E+05-9.32658E-10-1.57374E-09
 -1       131-5.37775E+05-8.51222E+04-4.03880E+02-2.14313E+05 1.57723E-09 1.62345E-09
 -1       132-5.42210E+05-8.06899E+04-2.72289E+02-2.09257E+05-7.51129E-10-1.46338E-09
 -1       133-5.37774E+05-8.51007E+04-3.18942E+02-2.14296E+05 3.77668E-10 3.32574E-09
 -1       134-5.42191E+05-8.06972E+04-5.29844E+02-2.09265E+05 1.83263E-10 2.19200E-09
 -1       135-5.37852E+05-8.51203E+04-1.09083E+03-2.14272E+05-1.45644E-09 1.48623E-09
 -1       136-5.42116E+05-8.06787E+04-2.18244E+03-2.09271E+05 4.13820E-11 4.11433E-09
 -1       137-5.38459E+05-8.56816E+04-4.90016E+03-2.14216E+05-6.23913E-10 2.11753E-09
 -1       138-5.41597E+05-8.03830E+04-9.52676E+03-2.09218E+05-5.96401E-10 2.21280E-09
 -1       139-5.45343E+05-9.41171E+04-2.38750E+04-2.13337E+05-5.09431E-10 6.06633E-10
 -1       140-5.35855E+05-7.68158E+04-4.09582E+04-2.08422E+05-8.25821E-10 3.91810E-09
 -1       141-2.49660E+03-3.99613E+02 8.06987E+03 9.66770E-09-1.51291E-10 8.31733E-10
 -1       142-3.37424E+01 1.62681E+03 4.76613E+03 3.44943E-09 2.69555E-10-1.29921E-09
 -1       143-1.41872E+03-4.45556E+01 2.02732E+03 3.87636E-09-1.29240E-10 1.80660E-09
 -1       144-1.20234E+03 1.00101E+02 1.03450E+03 6.41516E-09-4.34115E-10 9.36268E-10
 -1       145-1.32809E+03-6.46240E+00 4.16216E+02 5.65978E-09 1.99737E-10-4.31100E-10
 -1       146-1.30927E+03 6.03443E+00 6.59070E+01-1.10267E-09-7.76744E-10-2.30000E-09
 -1       147-1.31180E+03 3.27400E+00-2.60198E+02 7.84312E-10 5.51906E-10-6.08401E-09
 -1       148-1.35170E+03-1.48519E+00-7.28001E+02 5.57422E-09-8.49152E-10 1.64982E-09
 -1       149-1.28566E+03 2.02572E+01-1.52804E+03-6.95835E-09 3.62959E-10 1.10265E-09
 -1       150-1.51097E+03-6.70741E+01-3.19495E+03-1.20471E-08-7.60866E-10-2.29602E-09
 -1       151-1.15247E+03 9.38888E+01-6.25948E+03-1.62701E-09 1.74423E-10-6.84395E-11
 -1       152-2.73641E+03-1.22183E+03-1.32424E+04-6.55558E-09-8.55214E-10 1.28148E-09
 -1       153-5.94045E+01 5.48709E+02-2.50770E+04-1.08435E-09 6.57715E-10-4.16549E-10
 -1       154-1.70063E+04-1.98941E+04-5.84226E+04 1.32914E-08-7.53010E-10-4.58840E-09
 -1       155 1.31334E+04 4.89661E+03-9.87035E+04-7.36327E-09 5.70012E-10 1.38243E-10
 -1       156-8.44487E+01-7.76058E+04 1.22489E+03-2.63858E+04 5.90717E-10-1.38516E-09
 -1       157 2.98473E+02-7.72191E+04 1.54462E+03-5.12031E+04 3.74712E-10-3.45199E-09
 -1       158-3.57930E+01-7.76393E+04 2.27335E+03-2.62338E+04 1.88561E-09 1.59162E-09
 -1       159 1.73613E+03-7.62334E+04 4.97722E+03-5.13492E+04 3.18778E-10 1.46383E-09
 -1       160-3.73894E+02-7.87555E+04 8.28811E+03-2.62389E+04 2.48019E-09 1.11390E-09
 -1       161-1.02392E+05-1.59544E+04-2.90535E+03-4.08646E+04-3.74428E-10-2.21291E-09
 -1       162-1.01603E+05-1.86365E+04-1.69876E+03-4.28807E+04-4.93287E-10-2.92880E-09
 -1       163-1.02792E+05-1.62132E+04-6.89322E+02-4.09274E+04-1.13062E-10-1.72207E-10
 -1       164-1.01123E+05-1.80311E+04-3.78076E+02-4.29326E+04-6.98037E-10 2.14300E-10
 -1       165-1.02825E+05-1.62369E+04-2.18288E+02-4.09331E+04 3.41402E-10-2.00998E-10
 -1       166-1.01088E+05-1.79880E+04-2.13411E+02-4.29314E+04 2.15277E-09 2.63461E-09
 -1       167-1.02822E+05-1.62382E+04-3.17867E+02-4.09341E+04-5.23414E-10 1.42120E-09
 -1       168-1.01111E+05-1.79911E+04-6.25901E+02-4.29339E+04-7.38169E-10-1.76396E-09
 -1       169-1.02797E+05-1.62253E+04-1.25604E+03-4.09319E+04 2.79670E-10-1.10549E-09
 -1       170-1.01278E+05-1.80958E+04-2.72037E+03-4.29540E+04-3.11047E-10-1.62117E-10
 -1       171-1.02650E+05-1.61315E+04-5.50051E+03-4.09127E+04-9.53492E-10-4.13365E-10
 -1       172-1.02752E+05-1.95941E+04-1.23913E+04-4.29311E+04-1.34150E-10-2.54886E-09
 -1       173-1.01400E+05-1.53220E+04-2.40943E+04-4.07289E+04-4.20641E-10-2.42198E-09
 -1       174-1.19975E+05-4.11294E+04-6.03973E+04-4.09741E+04 1.61185E-09-2.76941E-09
 -1       175-8.70347E+04-6.12207E+03-1.03577E+05-3.85305E+04-4.85670E-10 4.94765E-09
 -1       191 1.79170E+04 1.53799E+06 5.30557E+04-8.56689E+02-5.20231E-10 9.95897E-10
 -1       192 6.70678E+03 1.54899E+06 3.20245E+04-5.82554E+02-5.24551E-10 4.63479E-09
 -1       193 8.75865E+02 1.54233E+06 2.34358E+04-6.91122E+02-1.03282E-09 2.07910E-09
 -1       194 6.71780E+03 1.54900E+06 3.20587E+04-9.03616E+02-9.59517E-10-1.74441E-09
 -1       195 1.79472E+04 1.53798E+06 5.31367E+04-5.12994E+02-1.69530E-09 9.35870E-10
 -1       251 3.77387E+05-6.65467E+03 9.67257E+04-7.92561E+04-3.16504E-10-1.86265E-09
 -1       252 4.08309E+05 1.82699E+04 5.75316E+04-1.53576E+05 6.83940E-10-2.31739E-09
 -1       253 3.89395E+05-1.46924E+03 2.44675E+04-7.86348E+04 7.63976E-11 1.52795E-10
 -1       254 3.92379E+05 6.90914E+02 1.30936E+04-1.54055E+05-4.42014E-10-1.00044E-09
 -1       255 3.89741E+05-3.86374E+02 6.17139E+03-7.87320E+04-1.09139E-11-2.80033E-09
 -1       256 3.89976E+05 1.46145E+02 3.37717E+03-1.53895E+05 1.15779E-09-1.14142E-09
 -1       257 3.89430E+05 5.93731E+01 1.91471E+03-7.88013E+04-4.72937E-11 3.22780E-09
 -1       258 3.89259E+05 3.78415E+02 1.59607E+03-1.53800E+05 9.45874E-11 9.03583E-10
 -1       259 3.89289E+05 1.81221E+02 1.95115E+03-7.88264E+04-1.43501E-10 4.84306E-10
 -1       260 3.89398E+05 4.35064E+02 3.40542E+03-1.53801E+05 7.95353E-10 3.37650E-09
 -1       261 3.89316E+05-2.02040E+01 6.29799E+03-7.88000E+04 4.60204E-10 4.35648E-10
 -1       262 3.91223E+05 1.27580E+03 1.31953E+04-1.53873E+05-1.00954E-10 8.73797E-10
 -1       263 3.88679E+05-8.57689E+02 2.47752E+04-7.87530E+04-2.25555E-10-3.36058E-09
 -1       264 4.06626E+05 1.92275E+04 5.79195E+04-1.53459E+05-1.14051E-09 1.91130E-09
 -1       265 3.76324E+05-5.80510E+03 9.75811E+04-7.92449E+04-1.31331E-09 3.53612E-09
 -1       266-1.71005E+03-1.75373E+05 4.37742E+04-6.48836E+04-2.83762E-10 4.85034E-09
 -1       267 9.67701E+03-1.62220E+05 2.42213E+04-1.27770E+05-9.23137E-11 1.01772E-09
 -1       268 9.34730E+01-1.68962E+05 6.93797E+03-6.49946E+04-2.72848E-12-6.53017E-10
 -1       269-2.25332E+03-1.70283E+05-4.16622E+03-1.27204E+05 1.66438E-10 4.31646E-09
 -1       270 6.14349E+02-1.65794E+05-1.46607E+04-6.54860E+04-1.00044E-10 5.46788E-09
 -1       271-1.84824E+06-2.97306E+05-1.38303E+05-7.59677E+05 5.82077E-10-3.50701E-09
 -1       272-1.85237E+06-3.81988E+05-8.04091E+04-8.06573E+05-1.01863E-10-9.25866E-10
 -1       273-1.86877E+06-3.08132E+05-3.22728E+04-7.61848E+05 1.45519E-11-7.63248E-09
 -1       274-1.82901E+06-3.54477E+05-1.65154E+04-8.11583E+05-1.26238E-09-2.61934E-10
 -1       275-1.87131E+06-3.08376E+05-7.49186E+03-7.61837E+05-8.45830E-10-2.73576E-09
 -1       276-1.82703E+06-3.52995E+05-3.80931E+03-8.12983E+05-9.34961E-10-3.99007E-09
 -1       277-1.87203E+06-3.07985E+05-2.11668E+03-7.61717E+05-9.64064E-11 1.31797E-09
 -1       278-1.82685E+06-3.53120E+05-1.75802E+03-8.13662E+05 7.72616E-10-1.73168E-09
 -1       279-1.87221E+06-3.07803E+05-2.34911E+03-7.61669E+05 2.96495E-10 2.68301E-11
 -1       280-1.82709E+06-3.53287E+05-4.49861E+03-8.13708E+05 6.28916E-10-1.52431E-09
 -1       281-1.87181E+06-3.07812E+05-8.87155E+03-7.61682E+05 7.18501E-11 4.90218E-10
 -1       282-1.82947E+06-3.55441E+05-1.98316E+04-8.13002E+05 5.27507E-11 2.80488E-09
 -1       283-1.86930E+06-3.07022E+05-3.86191E+04-7.61546E+05-1.63709E-10 9.49512E-10
 -1       284-1.85733E+06-3.89159E+05-9.66526E+04-8.08237E+05-4.84761E-10 4.22006E-10
 -1       285-1.84529E+06-2.93293E+05-1.65969E+05-7.58583E+05 4.29281E-10 2.11003E-09
 -1       286-8.19185E+03-3.54472E+03 6.09092E+04-4.24926E+04 2.16096E-09 2.37924E-09
 -1       287 1.07984E+04 1.19454E+04 3.61265E+04-8.18663E+04 9.73159E-10 4.09818E-09
 -1       288-3.26014E+02-5.98298E+02 1.54444E+04-4.20693E+04 8.73115E-11 3.33512E-09
 -1       289 1.43165E+03 6.32087E+02 8.21643E+03-8.22871E+04-1.46429E-10-2.33149E-09
 -1       290 1.36019E+02-1.32504E+02 3.89902E+03-4.20541E+04 1.47884E-09 5.93081E-09
 -1       291 3.25055E+02 9.14853E+01 2.10015E+03-8.23032E+04 1.25965E-10-1.20599E-09
 -1       292 8.61875E+01 2.23270E+01 1.17791E+03-4.20544E+04 1.03955E-09 1.76760E-09
 -1       293 6.67554E+01 1.40812E+02 9.40487E+02-8.23038E+04 1.02204E-09-3.00133E-10
 -1       294 4.34760E+01 6.15288E+01 1.11597E+03-4.20536E+04 4.52701E-10 2.91880E-09
 -1       295 1.32205E+02 1.77884E+02 1.92032E+03-8.23041E+04 1.98588E-09 1.65164E-09
 -1       296 1.33447E+01-1.21280E+01 3.55230E+03-4.20540E+04 5.41149E-10-4.72039E-09
 -1       297 9.82099E+02 7.38220E+02 7.42198E+03-8.22912E+04 8.64020E-10-4.47699E-09
 -1       298-4.70275E+02-3.73644E+02 1.39714E+04-4.20660E+04 2.78305E-10 2.55841E-09
 -1       299 9.29477E+03 1.09969E+04 3.25903E+04-8.19676E+04 2.00089E-10 2.51271E-09
 -1       300-7.61798E+03-2.97705E+03 5.49907E+04-4.23858E+04-2.27374E-10-3.70346E-09
 -1       301 2.93788E+04 1.25885E+05 8.11999E+04-3.08059E+05 4.31100E-09-1.64255E-09
 -1       302 1.25392E+04 1.42074E+05 4.62883E+04-3.82576E+05 4.05271E-09-1.88356E-09
 -1       303 2.88585E+03 1.32277E+05 2.90524E+04-3.07533E+05 4.63660E-09-2.09161E-09
 -1       304 8.49758E+03 1.38827E+05 3.31736E+04-3.82605E+05 4.11819E-09 3.29237E-10
 -1       305 1.79325E+04 1.29036E+05 5.02375E+04-3.08059E+05 4.10000E-09 1.73350E-09
 -1       306-2.06436E+06-3.06548E+05-1.58019E+05-8.16723E+05-1.42791E-10-1.67347E-10
 -1       307-2.09182E+06-3.82109E+05-9.20760E+04-8.45716E+05-2.67573E-09-3.25053E-09
 -1       308-2.08694E+06-3.19898E+05-3.67708E+04-8.19498E+05 1.09867E-09 5.72982E-10
 -1       309-2.06501E+06-3.50005E+05-1.89080E+04-8.49948E+05-7.08496E-10-6.18456E-11
 -1       310-2.08925E+06-3.20730E+05-8.48736E+03-8.19536E+05 6.81212E-10 2.61207E-09
 -1       311-2.06255E+06-3.48079E+05-4.34426E+03-8.50651E+05 1.18234E-09 3.75167E-12
 -1       312-2.08970E+06-3.20645E+05-2.35342E+03-8.19438E+05 1.32468E-09 3.35268E-09
 -1       313-2.06225E+06-3.48085E+05-1.90439E+03-8.50915E+05-9.36780E-11 1.90948E-09
 -1       314-2.08974E+06-3.20595E+05-2.45046E+03-8.19411E+05-6.71321E-11 1.76169E-09
 -1       315-2.06251E+06-3.48199E+05-4.61746E+03-8.50851E+05 1.28648E-09-4.65661E-10
 -1       316-2.08937E+06-3.20577E+05-9.04777E+03-8.19455E+05 9.66793E-10 1.55524E-10
 -1       317-2.06508E+06-3.50392E+05-2.02186E+04-8.50341E+05 6.63931E-10-1.11777E-09
 -1       318-2.08702E+06-3.19570E+05-3.92997E+04-8.19345E+05-1.10958E-10-3.63798E-12
 -1       319-2.09363E+06-3.84933E+05-9.84879E+04-8.46122E+05 2.65572E-10 2.31375E-09
 -1       320-2.06302E+06-3.05123E+05-1.68969E+05-8.16258E+05-1.45428E-09 1.39698E-09
 -1       321 1.45777E+05-3.54703E+03 6.98221E+04-1.97149E+04-3.36513E-11-4.62023E-10
 -1       322 1.67127E+05 1.40036E+04 4.13237E+04-3.80944E+04-6.11635E-10-1.99361E-09
 -1       323 1.55038E+05-4.32323E+02 1.77345E+04-1.95501E+04-1.18234E-11-1.81353E-09
 -1       324 1.56931E+05 8.44350E+02 9.38438E+03-3.82478E+04 8.64020E-12-1.17325E-09
 -1       325 1.55771E+05-7.67438E+01 4.45874E+03-1.95519E+04-8.36735E-11-1.58752E-09
 -1       326 1.56004E+05 5.89845E+01 2.33317E+03-3.82401E+04 3.43334E-10 7.21639E-09
 -1       327 1.55841E+05-7.31842E+00 1.22303E+03-1.95582E+04-4.86580E-11 2.41289E-09
 -1       328 1.55876E+05 2.62101E+01 8.06385E+02-3.82331E+04-3.52401E-10-2.30364E-09
 -1       329 1.55848E+05 1.90225E+00 7.54917E+02-1.95590E+04 5.70026E-10-4.47358E-10
 -1       330 1.55915E+05 3.89294E+01 1.12765E+03-3.82354E+04-9.74978E-10 5.53109E-09
 -1       331 1.55826E+05-3.08199E+01 1.99242E+03-1.95558E+04-4.68390E-11-2.80090E-09
 -1       332 1.56336E+05 3.69683E+02 4.10610E+03-3.82412E+04 8.07631E-10 2.56189E-09
 -1       333 1.55524E+05-1.98500E+02 7.71533E+03-1.95531E+04-5.92991E-10 3.70119E-09
 -1       334 1.60810E+05 6.06823E+03 1.79620E+04-3.81042E+04-6.29370E-10 2.03477E-09
 -1       335 1.51522E+05-1.57595E+03 3.03254E+04-1.96961E+04-1.16142E-09-1.11686E-09
 -1       336-1.10395E+03-3.42909E+05 2.33487E+04-1.83773E+05 5.83896E-10-5.96629E-10
 -1       337 6.52006E+03-3.36763E+05 1.57257E+04-3.58358E+05-2.83762E-10 7.34872E-10
 -1       338 7.59978E+02-3.41071E+05 1.00644E+04-1.83093E+05 7.40329E-10-2.34377E-09
 -1       339 5.69992E+03-3.38125E+05 1.31300E+04-3.58517E+05-1.80080E-10 6.65750E-10
 -1       340-3.74830E+02-3.42594E+05 1.81395E+04-1.83609E+05 4.88853E-10 4.44197E-09
 -1       341-1.26975E+06-1.85860E+05-7.99568E+04-4.96659E+05 9.19499E-10 1.05501E-09
 -1       342-1.28397E+06-2.23890E+05-4.66066E+04-5.11102E+05-2.32831E-10 1.06684E-09
 -1       343-1.28102E+06-1.92766E+05-1.86050E+04-4.98162E+05-3.09228E-11-1.55342E-09
 -1       344-1.27049E+06-2.07484E+05-9.58807E+03-5.12943E+05 8.76526E-10-2.15368E-09
 -1       345-1.28207E+06-1.93300E+05-4.31639E+03-4.98239E+05-5.65706E-10-3.09024E-09
 -1       346-1.26930E+06-2.06412E+05-2.25851E+03-5.13100E+05-1.10606E-09 2.46931E-09
 -1       347-1.28222E+06-1.93331E+05-1.30525E+03-4.98228E+05-7.92056E-10 1.77795E-09
 -1       348-1.26919E+06-2.06358E+05-1.21191E+03-5.13121E+05 1.08615E-09 1.69894E-09
 -1       349-1.28220E+06-1.93334E+05-1.74512E+03-4.98233E+05-1.27329E-10 9.41100E-10
 -1       350-1.26941E+06-2.06438E+05-3.43225E+03-5.13071E+05-3.21961E-10-3.61388E-09
 -1       351-1.28196E+06-1.93278E+05-6.79163E+03-4.98249E+05 4.92491E-10-1.60662E-09
 -1       352-1.27129E+06-2.08174E+05-1.52176E+04-5.12869E+05 1.87356E-10 7.07132E-10
 -1       353-1.28033E+06-1.92388E+05-2.95738E+04-4.98098E+05 1.86446E-11 1.01863E-09
 -1       354-1.29265E+06-2.34389E+05-7.41336E+04-5.10107E+05-6.75300E-10 4.55293E-09
 -1       355-1.26250E+06-1.81281E+05-1.27150E+05-4.95605E+05-1.76442E-09 2.35741E-09
 -1       356 1.97409E+05-1.75475E+03 3.47478E+04-1.18229E+04 9.54969E-11 4.77121E-09
 -1       357 2.08018E+05 6.97237E+03 2.05570E+04-2.29065E+04-6.71207E-10 1.22418E-09
 -1       358 2.02029E+05-2.11343E+02 8.80646E+03-1.17329E+04-1.67802E-10 8.41283E-11
 -1       359 2.02958E+05 4.16340E+02 4.62438E+03-2.29890E+04 1.72895E-09 1.65187E-09
 -1       360 2.02401E+05-3.88684E+01 2.12799E+03-1.17369E+04-2.49656E-10 2.22644E-09
 -1       361 2.02501E+05 2.07463E+01 9.72931E+02-2.29816E+04-1.14414E-09-5.80258E-10
 -1       362 2.02445E+05-3.98228E+00 2.37667E+02-1.17404E+04-9.40190E-11-2.22940E-10
 -1       363 2.02414E+05-2.08165E-01-3.57716E+02-2.29778E+04 1.22967E-09-1.19508E-09
 -1       364 2.02473E+05 1.45255E+01-1.11731E+03-1.17408E+04-2.84103E-10-7.46695E-10
 -1       365 2.02284E+05-5.64778E+01-2.51206E+03-2.29812E+04 2.05432E-10 4.47994E-09
 -1       366 2.02588E+05 6.94178E+01-5.00619E+03-1.17371E+04-1.85537E-10-1.14323E-09
 -1       367 2.01317E+05-9.93991E+02-1.06323E+04-2.29877E+04 2.23508E-10-1.86878E-09
 -1       368 2.03480E+05 4.23908E+02-2.01579E+04-1.17345E+04-1.94632E-10-5.06225E-09
 -1       369 1.89881E+05-1.60162E+04-4.69615E+04-2.29087E+04-2.33740E-09-1.01863E-09
 -1       370 2.14106E+05 3.89682E+03-7.93575E+04-1.18082E+04 7.85803E-10-2.11367E-09
 -1       371-2.49302E+02-1.03491E+05 5.46132E+03-1.27296E+05 4.14548E-09 3.31966E-09
 -1       372 1.96458E+03-1.02323E+05 2.88480E+03-2.47908E+05 1.27693E-09 3.12502E-09
 -1       373 4.80157E+02-1.03146E+05 3.01210E+02-1.26864E+05 6.86850E-09 4.69663E-09
 -1       374 8.75778E+01-1.04117E+05-2.00093E+03-2.48005E+05 8.53106E-10 1.00135E-09
 -1       375 4.86232E+02-1.02206E+05-4.50763E+03-1.27200E+05 6.26460E-09 1.50794E-09
 -1       376-4.53909E+05-7.46881E+04-3.32858E+04-1.89133E+05 9.78218E-10 6.05723E-10
 -1       377-4.52216E+05-9.81100E+04-1.94000E+04-2.03874E+05-1.68257E-10 5.44287E-09
 -1       378-4.58639E+05-7.75202E+04-7.75424E+03-1.89744E+05-5.96629E-10 8.07177E-10
 -1       379-4.46618E+05-9.12921E+04-4.00860E+03-2.04662E+05-3.03544E-10 1.59952E-09
 -1       380-4.59067E+05-7.77524E+04-1.83193E+03-1.89795E+05 5.29326E-10 6.21213E-10
 -1       381-4.46151E+05-9.08217E+04-1.01568E+03-2.04698E+05 1.06340E-09 1.61720E-09
 -1       382-4.59107E+05-7.77798E+04-6.99152E+02-1.89801E+05-2.29420E-10 1.36629E-09
 -1       383-4.46121E+05-9.07878E+04-8.39051E+02-2.04673E+05-1.34196E-09-5.45333E-09
 -1       384-4.59066E+05-7.77947E+04-1.41785E+03-1.89803E+05-9.54969E-12-5.48880E-10
 -1       385-4.46284E+05-9.08774E+04-2.92504E+03-2.04622E+05 1.14687E-09 1.35697E-09
 -1       386-4.58855E+05-7.77408E+04-5.86379E+03-1.89791E+05-1.55069E-09-2.07092E-09
 -1       387-4.47845E+05-9.24273E+04-1.31591E+04-2.04473E+05-9.78616E-10-2.51748E-09
 -1       388-4.57451E+05-7.69606E+04-2.55958E+04-1.89616E+05-1.30967E-09-1.37334E-09
 -1       389-4.66222E+05-1.15126E+05-6.41111E+04-2.02104E+05 3.53612E-09-7.37600E-10
 -1       390-4.42018E+05-6.73749E+04-1.09983E+05-1.87413E+05-4.30009E-09 2.60479E-09
 -1       406 1.66264E+04 1.50592E+06 5.12044E+04 4.48415E+04-1.61890E-09 3.35967E-09
 -1       407 6.23237E+03 1.51669E+06 3.39306E+04 5.67740E+04-2.09411E-09-2.39379E-09
 -1       408 9.30181E+02 1.50986E+06 3.00247E+04 4.50597E+04-3.09257E-09-1.39698E-09
 -1       409 1.05637E+04 1.52035E+06 4.82030E+04 5.61595E+04-2.45882E-09-1.27329E-09
 -1       410 2.89651E+04 1.50268E+06 8.48859E+04 4.55308E+04-4.01633E-09 2.67028E-09
 -1       466 1.01339E+06-5.16935E+03 9.64856E+04-4.54616E+04-4.36557E-11-7.53062E-10
 -1       467 1.04301E+06 1.91804E+04 5.71623E+04-8.86003E+04-5.76620E-10 6.79393E-10
 -1       468 1.02603E+06-7.06360E+02 2.45253E+04-4.52861E+04-3.63798E-12 9.36780E-10
 -1       469 1.02858E+06 1.14138E+03 1.30316E+04-8.86270E+04 5.54792E-10 1.82445E-09
 -1       470 1.02692E+06-1.10518E+02 6.25108E+03-4.54101E+04-9.54969E-11 1.36470E-09
 -1       471 1.02713E+06 1.42810E+02 3.40878E+03-8.84435E+04 2.39197E-10-1.11777E-09
 -1       472 1.02697E+06 2.51294E+01 2.03835E+03-4.54708E+04 2.05773E-10-1.37106E-09
 -1       473 1.02695E+06 1.13608E+02 1.81698E+03-8.83963E+04-2.43290E-10 6.52108E-10
 -1       474 1.02698E+06 5.43698E+00 2.40956E+03-4.54576E+04-2.36014E-10 4.25644E-10
 -1       475 1.02726E+06 1.29600E+02 4.37117E+03-8.84992E+04 2.13731E-11 1.86765E-09
 -1       476 1.02692E+06-1.84420E+02 8.21268E+03-4.53674E+04 2.60115E-10 8.85109E-10
 -1       477 1.02917E+06 1.46088E+03 1.72455E+04-8.87320E+04-1.49157E-10 3.95403E-10
 -1       478 1.02571E+06-9.55572E+02 3.25121E+04-4.52228E+04-5.49335E-10-1.22418E-09
 -1       479 1.04823E+06 2.54241E+04 7.58102E+04-8.87147E+04-1.78534E-09-4.94765E-10
 -1       480 1.00890E+06-6.82454E+03 1.28004E+05-4.54254E+04-8.87667E-10-4.22006E-09
 -1       481-1.24845E+03 3.06973E+05 2.93841E+04-5.45840E+04 6.18456E-11 1.28694E-09
 -1       482 6.36319E+03 3.15717E+05 1.84173E+04-1.05887E+05-1.29262E-10 4.50494E-09
 -1       483-2.20447E+01 3.10700E+05 9.94051E+03-5.44793E+04 1.33241E-10 1.34878E-09
 -1       484 2.89417E+03 3.13227E+05 1.00424E+04-1.05815E+05 2.52840E-10-1.24055E-09
 -1       485-4.72638E+02 3.09701E+05 1.21677E+04-5.46613E+04 1.69393E-10-2.48019E-09
 -1       486-9.54656E+05-1.42335E+05-1.00893E+05-3.82238E+05 1.27329E-11-2.26282E-09
 -1       487-9.74062E+05-1.88835E+05-5.88026E+04-3.98780E+05 1.02318E-10-1.10595E-09
 -1       488-9.68898E+05-1.51030E+05-2.34806E+04-3.84158E+05-1.45519E-11-3.91083E-10
 -1       489-9.57092E+05-1.68133E+05-1.20783E+04-4.01127E+05-3.13776E-11-4.36557E-10
 -1       490-9.70244E+05-1.51692E+05-5.41040E+03-3.84270E+05 1.28239E-10 1.43700E-09
 -1       491-9.55607E+05-1.66784E+05-2.75141E+03-4.01366E+05-2.72848E-12 1.91130E-09
 -1       492-9.70461E+05-1.51701E+05-1.44608E+03-3.84249E+05-1.00954E-10 8.31960E-10
 -1       493-9.55440E+05-1.66745E+05-1.08864E+03-4.01465E+05-3.85398E-11-9.84244E-10
 -1       494-9.70497E+05-1.51673E+05-1.29655E+03-3.84234E+05-1.01522E-10 2.88992E-10
 -1       495-9.55550E+05-1.66832E+05-2.36098E+03-4.01493E+05 1.42109E-10-2.25782E-10
 -1       496-9.70364E+05-1.51614E+05-4.57606E+03-3.84227E+05 1.46656E-10-1.01772E-09
 -1       497-9.56784E+05-1.68019E+05-1.02056E+04-4.01385E+05-1.05501E-10-9.12223E-10
 -1       498-9.69271E+05-1.51017E+05-1.98138E+04-3.84113E+05 1.91903E-10 4.69299E-10
 -1       499-9.71074E+05-1.85554E+05-4.96444E+04-3.99498E+05-2.55795E-10 2.95404E-09
 -1       500-9.57291E+05-1.43632E+05-8.51638E+04-3.82463E+05 5.52063E-10 1.67711E-09
 -1       501 4.75877E+05-4.47278E+03 7.67263E+04-5.27308E+04 1.58616E-09-1.17871E-09
 -1       502 4.99735E+05 1.50689E+04 4.55174E+04-1.02164E+05-9.45874E-11-1.14596E-10
 -1       503 4.85747E+05-7.28453E+02 1.94701E+04-5.23682E+04 6.83940E-10 6.02995E-10
 -1       504 4.87868E+05 8.54831E+02 1.03700E+04-1.02429E+05-3.92902E-10 4.33738E-09
 -1       505 4.86310E+05-1.24618E+02 4.94694E+03-5.24432E+04 9.29504E-10 2.62753E-09
 -1       506 4.86461E+05 1.82182E+02 2.70253E+03-1.02304E+05 1.31286E-09 2.37605E-09
 -1       507 4.86250E+05 6.60189E+01 1.59377E+03-5.24942E+04 1.15324E-09 1.53250E-09
 -1       508 4.86175E+05 2.28820E+02 1.39779E+03-1.02244E+05 4.09500E-10-3.07136E-09
 -1       509 4.86217E+05 8.79255E+01 1.81942E+03-5.25030E+04 8.15362E-10-3.26054E-10
 -1       510 4.86378E+05 2.53581E+02 3.26951E+03-1.02267E+05 2.63253E-09 3.26099E-09
 -1       511 4.86193E+05-6.72101E+01 6.12168E+03-5.24708E+04 7.33962E-10 3.64412E-09
 -1       512 4.87896E+05 1.20128E+03 1.28473E+04-1.02357E+05 1.31331E-09 1.72349E-09
 -1       513 4.85367E+05-7.05444E+02 2.41973E+04-5.24126E+04 4.18368E-10 7.00311E-11
 -1       514 5.02310E+05 1.89649E+04 5.64671E+04-1.02104E+05-1.89539E-09 1.31422E-10
 -1       515 4.72976E+05-5.20369E+03 9.52857E+04-5.27457E+04-1.56433E-10-2.13186E-09
 -1       516-1.85615E+03 1.83434E+05 5.06085E+04-1.30437E+05-9.47693E-10-2.25191E-09
 -1       517 1.16808E+04 1.98202E+05 3.32762E+04-2.53933E+05 1.24419E-09 5.48198E-09
 -1       518 1.51840E+02 1.89587E+05 2.08042E+04-1.30193E+05-1.28875E-09 3.42698E-09
 -1       519 8.49662E+03 1.96851E+05 2.63356E+04-2.53709E+05 1.27693E-09 1.34150E-09
 -1       520-1.80460E+03 1.86336E+05 3.61847E+04-1.30677E+05-1.23509E-09-1.90266E-09
 -1       521-1.76345E+06-2.65914E+05-1.55868E+05-7.05733E+05 5.27507E-10-1.01863E-10
 -1       522-1.78846E+06-3.42453E+05-9.08109E+04-7.36702E+05 1.37152E-09-7.25777E-10
 -1       523-1.78573E+06-2.79063E+05-3.62766E+04-7.08517E+05 2.74667E-10 4.42014E-10
 -1       524-1.76211E+06-3.10746E+05-1.86426E+04-7.40863E+05-1.45064E-09 3.27418E-11
 -1       525-1.78801E+06-2.79890E+05-8.35679E+03-7.08595E+05-2.82853E-10 1.00499E-09
 -1       526-1.75975E+06-3.08800E+05-4.24265E+03-7.41535E+05 2.94176E-09 6.16649E-09
 -1       527-1.78845E+06-2.79811E+05-2.23316E+03-7.08522E+05 9.94078E-10 8.15419E-11
 -1       528-1.75948E+06-3.08783E+05-1.68656E+03-7.41784E+05 2.46757E-09 2.05205E-09
 -1       529-1.78850E+06-2.79769E+05-2.02344E+03-7.08501E+05-7.57268E-10 5.28416E-10
 -1       530-1.75968E+06-3.08867E+05-3.69730E+03-7.41717E+05-1.44564E-09 7.30779E-10
 -1       531-1.78818E+06-2.79780E+05-7.19041E+03-7.08537E+05 7.84894E-10 6.51198E-10
 -1       532-1.76169E+06-3.10585E+05-1.60247E+04-7.41232E+05 1.68939E-09 1.46792E-09
 -1       533-1.78626E+06-2.79039E+05-3.11490E+04-7.08454E+05-5.45697E-11-8.00355E-11
 -1       534-1.78432E+06-3.37838E+05-7.80050E+04-7.37686E+05 9.61336E-10-1.84809E-09
 -1       535-1.76710E+06-2.67755E+05-1.33875E+05-7.06074E+05-4.75893E-10-9.74978E-10
 -1       536 8.54160E+05-6.76773E+03 1.32034E+05-3.26789E+04-9.09495E-11-1.94268E-09
 -1       537 8.94540E+05 2.64027E+04 7.81486E+04-6.36461E+04-1.71531E-09-2.72121E-09
 -1       538 8.71633E+05-8.57852E+02 3.35441E+04-3.25055E+04-1.27329E-10-7.16682E-10
 -1       539 8.75177E+05 1.57438E+03 1.77689E+04-6.37016E+04-6.68479E-11-6.29825E-10
 -1       540 8.72986E+05-1.56145E+02 8.46332E+03-3.25930E+04 6.73026E-10-7.67614E-10
 -1       541 8.73372E+05 1.18614E+02 4.47748E+03-6.35587E+04 2.05546E-10-8.93579E-10
 -1       542 8.73099E+05-9.12464E+00 2.43474E+03-3.26498E+04-5.39785E-10-9.54969E-11
 -1       543 8.73116E+05 6.94278E+01 1.77182E+03-6.34924E+04 2.14641E-10 6.14818E-10
 -1       544 8.73100E+05 7.07226E+00 1.90932E+03-3.26596E+04-6.24823E-10 5.24096E-10
 -1       545 8.73244E+05 1.09903E+02 3.12146E+03-6.35177E+04-1.11163E-09 2.26873E-09
 -1       546 8.73028E+05-8.69123E+01 5.69274E+03-3.26244E+04 5.95719E-10 5.99897E-10
 -1       547 8.74453E+05 1.06918E+03 1.18329E+04-6.36246E+04 1.20417E-09-9.51331E-10
 -1       548 8.72146E+05-5.65718E+02 2.22821E+04-3.25518E+04-6.83940E-10 8.13088E-10
 -1       549 8.87355E+05 1.75275E+04 5.18832E+04-6.35675E+04 5.42059E-10 2.96768E-09
 -1       550 8.60573E+05-4.52040E+03 8.76216E+04-3.26968E+04-7.96717E-10 2.99406E-09
 -1       551 1.50476E+04-1.47080E+05 4.02575E+04-4.19059E+05 2.57569E-09 1.90266E-09
 -1       552 7.70666E+03-1.39751E+05 2.48897E+04-5.20602E+05 2.00453E-09 3.92083E-09
 -1       553 2.84849E+03-1.44855E+05 1.89573E+04-4.18292E+05 3.54703E-09-3.30829E-10
 -1       554 8.35325E+03-1.39239E+05 2.69787E+04-5.20601E+05 2.01180E-09 1.59162E-09
 -1       555 1.68753E+04-1.47590E+05 4.51892E+04-4.19057E+05 3.38923E-09-1.83354E-09
 -1       556-9.85254E+05-2.38096E+05-6.61983E+04-4.69336E+05-3.69255E-10-2.18279E-10
 -1       557-9.78232E+05-2.47985E+05-3.34591E+04-5.00167E+05-1.73168E-09-9.11768E-10
 -1       558-9.89552E+05-2.20269E+05-1.42266E+04-4.78092E+05-5.78439E-10-3.31056E-09
 -1       559-9.70628E+05-2.40020E+05-6.98048E+03-5.01424E+05-1.81899E-12-1.43632E-09
 -1       560-9.90231E+05-2.19632E+05-3.24111E+03-4.78542E+05-9.47693E-10-1.76590E-09
 -1       561-9.70314E+05-2.39686E+05-1.65011E+03-5.01591E+05-3.76804E-09-1.05010E-08
 -1       562-9.90448E+05-2.19589E+05-9.32887E+02-4.78621E+05 2.80124E-10-8.91305E-11
 -1       563-9.70347E+05-2.39658E+05-8.04319E+02-5.01653E+05 1.53659E-09 1.97178E-09
 -1       564-9.90454E+05-2.19574E+05-1.10866E+03-4.78628E+05 4.92219E-09 6.26187E-09
 -1       565-9.70363E+05-2.39674E+05-2.11771E+03-5.01624E+05 2.64845E-09 1.96451E-10
 -1       566-9.90241E+05-2.19585E+05-4.23880E+03-4.78562E+05 5.25688E-10 3.91083E-10
 -1       567-9.70864E+05-2.40097E+05-9.18647E+03-5.01513E+05-5.78439E-10-7.58519E-10
 -1       568-9.89464E+05-2.20331E+05-1.87240E+04-4.78013E+05-1.54614E-10-1.39698E-09
 -1       569-9.80876E+05-2.50739E+05-4.40973E+04-5.00192E+05 2.00998E-09 1.14960E-09
 -1       570-9.84093E+05-2.43574E+05-8.71947E+04-4.66366E+05 1.59343E-09-6.58474E-10
 -1       571 8.01517E+05 3.06175E+04 8.76189E+04-1.08880E+05 1.24419E-09-3.94539E-09
 -1       572 8.19658E+05 1.10259E+04 4.54712E+04-1.34543E+05-6.47560E-10-7.48787E-09
 -1       573 8.09259E+05 5.97081E+02 2.04630E+04-1.08333E+05-4.83851E-10-1.21872E-09
 -1       574 8.10629E+05 2.05775E+02 1.04640E+04-1.35055E+05-8.36735E-10 4.89308E-10
 -1       575 8.09650E+05-1.72470E+02 5.05584E+03-1.08310E+05-3.56522E-10 2.81034E-09
 -1       576 8.09763E+05-3.39983E+01 2.59687E+03-1.35078E+05-4.47244E-10 2.48656E-09
 -1       577 8.09662E+05-3.68584E+01 1.30438E+03-1.08312E+05-3.04112E-11 3.21506E-09
 -1       578 8.09666E+05-5.67383E+00 7.32497E+02-1.35082E+05-1.34605E-10-1.82899E-09
 -1       579 8.09750E+05-5.31840E+01 4.81693E+02-1.08306E+05 4.62023E-10-1.42336E-09
 -1       580 8.09838E+05-9.79205E+01 5.04774E+02-1.35101E+05 1.33059E-09-2.12276E-09
 -1       581 8.09961E+05-2.00634E+02 7.34009E+02-1.08293E+05-9.53150E-10-2.88219E-09
 -1       582 8.10287E+05-2.50849E+02 1.42531E+03-1.35086E+05-1.93540E-09-1.79898E-09
 -1       583 8.10242E+05-3.17753E+02 2.69870E+03-1.08320E+05-9.09495E-10-1.14233E-09
 -1       584 8.11992E+05 9.35092E+02 6.03898E+03-1.34443E+05-5.91717E-09-8.09450E-11
 -1       585 8.09634E+05 3.41869E+03 1.15593E+04-1.08945E+05 1.48430E-09 1.69894E-09
 -1       586 6.70571E+03 1.03507E+05 1.76525E+04-4.14342E+05 4.91127E-09-4.32919E-10
 -1       587 4.40269E+03 1.06106E+05 1.30028E+04-5.14431E+05 9.57516E-09 1.47975E-09
 -1       588 2.37540E+03 1.03458E+05 1.32695E+04-4.13510E+05 6.45014E-09 3.14367E-09
 -1       589 7.76087E+03 1.08297E+05 2.33095E+04-5.14570E+05 1.08048E-08 1.71167E-09
 -1       590 1.60349E+04 1.00492E+05 4.20161E+04-4.14183E+05 5.47698E-09 3.05590E-10
 -1       591-6.48920E+05-1.66826E+05-7.17852E+04-3.09054E+05-2.25123E-09-5.36966E-09
 -1       592-6.48734E+05-1.70320E+05-3.63174E+04-3.34071E+05 1.34060E-09 4.03816E-10
 -1       593-6.53087E+05-1.47857E+05-1.54135E+04-3.18668E+05-5.49335E-10 7.27596E-10
 -1       594-6.40439E+05-1.61498E+05-7.57775E+03-3.34891E+05-9.31323E-10 3.84205E-10
 -1       595-6.53585E+05-1.47333E+05-3.51048E+03-3.19061E+05 2.90584E-09 4.28963E-09
 -1       596-6.39930E+05-1.61178E+05-1.79665E+03-3.34869E+05 5.10909E-10 1.20463E-09
 -1       597-6.53674E+05-1.47375E+05-1.01823E+03-3.19074E+05 2.54511E-09 8.26640E-09
 -1       598-6.39870E+05-1.61181E+05-8.87168E+02-3.34841E+05-1.23339E-09 1.85719E-09
 -1       599-6.53627E+05-1.47393E+05-1.22515E+03-3.19053E+05-7.12134E-10 6.53017E-10
 -1       600-6.39878E+05-1.61205E+05-2.33763E+03-3.34803E+05-5.46152E-10-2.98314E-10
 -1       601-6.53427E+05-1.47377E+05-4.66701E+03-3.18997E+05-1.35515E-09-1.36424E-10
 -1       602-6.40502E+05-1.61653E+05-1.01142E+04-3.34772E+05 1.06866E-09 1.73168E-09
 -1       603-6.52713E+05-1.48114E+05-2.05951E+04-3.18448E+05 3.17596E-09-1.37152E-09
 -1       604-6.51547E+05-1.73437E+05-4.85113E+04-3.33633E+05-2.59024E-09 3.56886E-09
 -1       605-6.47126E+05-1.73428E+05-9.58839E+04-3.05575E+05 4.90400E-09 2.23008E-09
 -1       606 2.52936E+05-1.60183E+04-4.54071E+04 5.27555E+04-1.32386E-08-1.47315E-09
 -1       607 2.43422E+05-5.71475E+03-2.35447E+04 6.45172E+04-4.14730E-09-3.96540E-10
 -1       608 2.48597E+05-2.96797E+02-1.06200E+04 5.22955E+04 9.12769E-09-4.54747E-11
 -1       609 2.47698E+05 8.74686E+01-5.41025E+03 6.49737E+04-9.37143E-09-3.18687E-09
 -1       610 2.48139E+05 2.71983E+02-2.61406E+03 5.22656E+04-1.93359E-08-1.39107E-09
 -1       611 2.47891E+05 3.53198E+02-1.30561E+03 6.49969E+04-2.86482E-08-4.67844E-09
 -1       612 2.47981E+05 3.00691E+02-6.06891E+02 5.22684E+04-1.45428E-08-2.19052E-09
 -1       613 2.47826E+05 4.03443E+02-2.25416E+02 6.49904E+04-2.36178E-08-1.89766E-09
 -1       614 2.47888E+05 3.29575E+02 4.34021E+01 5.22705E+04-6.73936E-09-4.15866E-09
 -1       615 2.47773E+05 4.36866E+02 3.45266E+02 6.49841E+04 1.93781E-08-5.11727E-09
 -1       616 2.47823E+05 3.42078E+02 7.98606E+02 5.22737E+04-8.77526E-09-2.00453E-09
 -1       617 2.47850E+05 5.13870E+02 1.72007E+03 6.49715E+04-9.01673E-09-5.59339E-09
 -1       618 2.47706E+05 5.03219E+02 3.39699E+03 5.22818E+04-5.17808E-09-5.74755E-09
 -1       619 2.49295E+05 2.34431E+03 7.56195E+03 6.48573E+04 3.06079E-09-6.77574E-09
 -1       620 2.46378E+05 5.51993E+03 1.45801E+04 5.23637E+04 2.23099E-09 9.95897E-10
 -1       621 1.02173E+04 9.63865E+05 3.10891E+04-1.29122E+05-4.90945E-09-1.48339E-09
 -1       622 4.52088E+03 9.70153E+05 2.31075E+04-1.59935E+05-5.64887E-09-1.47247E-09
 -1       623 1.48937E+03 9.65786E+05 2.43741E+04-1.28920E+05-5.41149E-09-1.06746E-09
 -1       624 1.08395E+04 9.75161E+05 4.35372E+04-1.59913E+05-4.87671E-09-3.79805E-09
 -1       625 2.80979E+04 9.58872E+05 7.93220E+04-1.29103E+05-4.09636E-09-3.39242E-09
 -1       626 4.34695E+05 1.05599E+05-1.45640E+04 2.29232E+05 4.78030E-09 7.05586E-09
 -1       627 4.20964E+05 1.18658E+05-7.35372E+03 2.39707E+05-1.17216E-08-1.57297E-09
 -1       628 4.34066E+05 1.09132E+05-3.13646E+03 2.26770E+05-1.21981E-08 1.44537E-08
 -1       629 4.22077E+05 1.20900E+05-1.52066E+03 2.39869E+05 9.90258E-09 8.74945E-09
 -1       630 4.33864E+05 1.09292E+05-6.84923E+02 2.26588E+05-8.18545E-11 2.84103E-09
 -1       631 4.22032E+05 1.21032E+05-2.84241E+02 2.39800E+05-2.61452E-08-6.48285E-09
 -1       632 4.33749E+05 1.09336E+05-4.04589E+01 2.26531E+05-1.23600E-08-2.60616E-09
 -1       633 4.21975E+05 1.21060E+05 1.84405E+02 2.39742E+05 5.54428E-09 1.00681E-09
 -1       634 4.33681E+05 1.09348E+05 4.98894E+02 2.26503E+05 1.27839E-08 5.15138E-09
 -1       635 4.21994E+05 1.21067E+05 1.13307E+03 2.39737E+05 9.70340E-09 2.04864E-09
 -1       636 4.33628E+05 1.09305E+05 2.34600E+03 2.26501E+05 5.16133E-09 3.45881E-09
 -1       637 4.22406E+05 1.21263E+05 5.13766E+03 2.39809E+05 1.22629E-08-4.62478E-09
 -1       638 4.33389E+05 1.09594E+05 1.04623E+04 2.26288E+05-1.33241E-09-1.86901E-09
 -1       639 4.28215E+05 1.27186E+05 2.46757E+04 2.39373E+05 1.11086E-08-8.52015E-09
 -1       640 4.30736E+05 1.22390E+05 4.87575E+04 2.19838E+05 1.19908E-08-1.27329E-10
 -1       641 1.16161E+04 4.67118E+02-8.93799E+03 3.57477E+03-1.97119E-08-2.56068E-09
 -1       642 8.86451E+03-1.75242E+03-5.28713E+03 6.90311E+03-1.55640E-08-5.74710E-09
 -1       643 1.04222E+04 7.47367E+01-2.26648E+03 3.55499E+03-1.32243E-08-3.30590E-09
 -1       644 1.01555E+04-6.14684E+01-1.19075E+03 6.91951E+03 9.52865E-09-1.44667E-09
 -1       645 1.03229E+04 3.36193E+01-5.50801E+02 3.55398E+03 1.76129E-09-4.63785E-10
 -1       646 1.02676E+04 4.29313E+01-2.56879E+02 6.92041E+03-1.40087E-08-1.89044E-09
 -1       647 1.03103E+04 2.60160E+01-7.47094E+01 3.55387E+03 1.74103E-08-7.96092E-10
 -1       648 1.02883E+04 4.85378E+01 6.42535E+01 6.92076E+03 3.89376E-08-1.27503E-09
 -1       649 1.03049E+04 2.10581E+01 2.32177E+02 3.55364E+03 2.30757E-08-2.74167E-09
 -1       650 1.03204E+04 5.86490E+01 5.32868E+02 6.92078E+03 1.89755E-08-7.01425E-09
 -1       651 1.02832E+04 6.78825E+00 1.06556E+03 3.55387E+03-4.61705E-09-2.07979E-09
 -1       652 1.05349E+04 2.54727E+02 2.26714E+03 6.91914E+03-8.82210E-11-2.71825E-09
 -1       653 1.00979E+04-7.31169E+01 4.29797E+03 3.55492E+03 1.46499E-08-3.45608E-09
 -1       654 1.29877E+04 3.45424E+03 1.00181E+04 6.87486E+03-4.35432E-09-5.31304E-09
 -1       655 7.84052E+03-8.19284E+02 1.69315E+04 3.59073E+03 1.42891E-08-6.91489E-09
 -1       656 1.83660E+03-3.90034E+05-4.95584E+04 6.96183E+04-9.96806E-10 2.68483E-09
 -1       657-1.08620E+04-4.04808E+05-3.32181E+04 1.34337E+05-6.27904E-09-2.00316E-09
 -1       658 1.17838E+02-3.96127E+05-2.21277E+04 6.93355E+04 2.23099E-09 2.99360E-09
 -1       659-9.50607E+03-4.04043E+05-3.01117E+04 1.34501E+05 1.90630E-09 1.21673E-10
 -1       660 1.68122E+03-3.91192E+05-4.31411E+04 6.94629E+04-1.61708E-09-1.67302E-09
 -1       661 3.31382E+05 4.79765E+04 2.50938E+04 1.29459E+05 1.10863E-08-1.66528E-09
 -1       662 3.37505E+05 5.82651E+04 1.46283E+04 1.32096E+05-2.06483E-08-4.24484E-09
 -1       663 3.34853E+05 5.02035E+04 5.84222E+03 1.29997E+05-4.68390E-09-2.62867E-09
 -1       664 3.33334E+05 5.30544E+04 3.01462E+03 1.32571E+05-6.33918E-09-5.96447E-09
 -1       665 3.35156E+05 5.03994E+04 1.35950E+03 1.30042E+05 5.80440E-09-2.93119E-09
 -1       666 3.32977E+05 5.26945E+04 7.17234E+02 1.32580E+05-2.03217E-08 8.93905E-10
 -1       667 3.35192E+05 5.04181E+04 4.23460E+02 1.30044E+05 6.03529E-09 2.80068E-09
 -1       668 3.32944E+05 5.26787E+04 4.09157E+02 1.32587E+05 1.06314E-09-3.73757E-09
 -1       669 3.35192E+05 5.04098E+04 6.03489E+02 1.30039E+05-6.84054E-10-2.40016E-09
 -1       670 3.33001E+05 5.27315E+04 1.19942E+03 1.32609E+05 3.92274E-08 2.36463E-09
 -1       671 3.35139E+05 5.03623E+04 2.37443E+03 1.30025E+05-1.33841E-08 8.22411E-10
 -1       672 3.33622E+05 5.33864E+04 5.32451E+03 1.32618E+05-2.20803E-08-4.92469E-09
 -1       673 3.34614E+05 5.00043E+04 1.03410E+04 1.29938E+05-3.61194E-09 8.74024E-10
 -1       674 3.41022E+05 6.26144E+04 2.59125E+04 1.31778E+05-8.50351E-09-4.40923E-09
 -1       675 3.28453E+05 4.60702E+04 4.44552E+04 1.29001E+05 3.82647E-08 4.43288E-09
 -1       676 8.30699E+02-3.49869E+05-1.85018E+04 8.12100E+03 4.63297E-09 4.09091E-09
 -1       677-3.88204E+03-3.55460E+05-1.31528E+04 1.47391E+04-6.12278E-09-3.61524E-10
 -1       678 1.75088E+02-3.51942E+05-1.00568E+04 8.07822E+03 1.00044E-08-1.01181E-09
 -1       679-4.89238E+03-3.56242E+05-1.56355E+04 1.47884E+04 1.64937E-09-5.53086E-11
 -1       680 1.09814E+03-3.49100E+05-2.35945E+04 8.07007E+03 9.81436E-09-1.30274E-09
 -1       681 4.58296E+05-1.38103E+03 2.50314E+04-2.25917E+04-1.21872E-10-1.41154E-09
 -1       682 4.66002E+05 4.94326E+03 1.48390E+04-4.39032E+04 3.45608E-11-4.46562E-10
 -1       683 4.61569E+05-2.10576E+02 6.36456E+03-2.24443E+04-1.06411E-10-2.14186E-10
 -1       684 4.62237E+05 2.66399E+02 3.39357E+03-4.40151E+04 2.95586E-11 2.42153E-10
 -1       685 4.61790E+05-4.76557E+01 1.64390E+03-2.24754E+04-3.91083E-11 3.79714E-10
 -1       686 4.61841E+05 1.71735E+01 9.36539E+02-4.39636E+04-1.18234E-11 6.18229E-10
 -1       687 4.61790E+05-4.26996E+00 6.31438E+02-2.24961E+04 2.05546E-10 5.60931E-10
 -1       688 4.61779E+05 2.15013E+01 6.84134E+02-4.39375E+04-1.08457E-10-5.15001E-10
 -1       689 4.61774E+05-3.59783E+00 1.04506E+03-2.25014E+04 5.75255E-11-5.87193E-10
 -1       690 4.61877E+05 5.55498E+01 1.99693E+03-4.39442E+04 9.40190E-10 4.10409E-11
 -1       691 4.61711E+05-6.16153E+01 3.81815E+03-2.24893E+04-1.65528E-10 5.00535E-10
 -1       692 4.62675E+05 7.24876E+02 8.03409E+03-4.39760E+04-1.96451E-09-3.15993E-10
 -1       693 4.61090E+05-3.71659E+02 1.51809E+04-2.24693E+04-1.36424E-10-6.58019E-10
 -1       694 4.71423E+05 1.19745E+04 3.53698E+04-4.38683E+04 3.45608E-10-6.40284E-10
 -1       695 4.53173E+05-3.04775E+03 5.97537E+04-2.26049E+04-3.71074E-10-7.93079E-10
 -1       696-1.46996E+03 5.31323E+05 3.15813E+04-4.58971E+04 7.63976E-11-1.37470E-09
 -1       697 6.60208E+03 5.40768E+05 1.76207E+04-8.86967E+04 1.59730E-10-8.43215E-10
 -1       698 1.63494E+01 5.35703E+05 5.40757E+03-4.57960E+04-2.10321E-10 1.99111E-09
 -1       699-1.47066E+03 5.34632E+05-2.14288E+03-8.86821E+04-2.32035E-10 2.19961E-09
 -1       700 5.73738E+02 5.37533E+05-8.98887E+03-4.59182E+04-2.10093E-10 1.59889E-09
 -1       701-4.30804E+05-6.49905E+04-6.33179E+04-1.75911E+05 6.82121E-11-2.93585E-09
 -1       702-4.43408E+05-9.37833E+04-3.69055E+04-1.85869E+05-5.54792E-11-7.03039E-10
 -1       703-4.39700E+05-7.04845E+04-1.47378E+04-1.77148E+05-1.04592E-10 5.46606E-10
 -1       704-4.32795E+05-8.07436E+04-7.58529E+03-1.87252E+05 1.81444E-10 1.15506E-10
 -1       705-4.40508E+05-7.09355E+04-3.40039E+03-1.77241E+05 2.95586E-10 4.50655E-10
 -1       706-4.31888E+05-7.98617E+04-1.73666E+03-1.87342E+05-5.84350E-11-4.64297E-10
 -1       707-4.40623E+05-7.09619E+04-9.25535E+02-1.77242E+05 2.13277E-10-1.27159E-10
 -1       708-4.31797E+05-7.98212E+04-7.20202E+02-1.87377E+05 5.69571E-11-4.33872E-10
 -1       709-4.40640E+05-7.09476E+04-8.88260E+02-1.77236E+05-9.14042E-11-5.50926E-10
 -1       710-4.31876E+05-7.98842E+04-1.64221E+03-1.87403E+05-1.08116E-10 5.35010E-10
 -1       711-4.40560E+05-7.08933E+04-3.19475E+03-1.77225E+05 9.73301E-11-6.57110E-11
 -1       712-4.32724E+05-8.07390E+04-7.13237E+03-1.87378E+05-2.68301E-11-2.79670E-10
 -1       713-4.39830E+05-7.04422E+04-1.38446E+04-1.77126E+05 2.08388E-10-1.81899E-12
 -1       714-4.42660E+05-9.30557E+04-3.46904E+04-1.86171E+05-1.09090E-10-1.95541E-11
 -1       715-4.31522E+05-6.52203E+04-5.95030E+04-1.75921E+05 1.90221E-09 3.74348E-09
 -1       716 3.86769E+05-2.85173E+03 5.33049E+04-3.67550E+04 6.42103E-10 1.38243E-10
 -1       717 4.03125E+05 1.06570E+04 3.15881E+04-7.11053E+04 9.18590E-11 8.58563E-10
 -1       718 3.93733E+05-3.62780E+02 1.35519E+04-3.65255E+04 1.49157E-10 2.43745E-10
 -1       719 3.95124E+05 6.95228E+02 7.20909E+03-7.12985E+04 6.68479E-11-7.54881E-10
 -1       720 3.94217E+05-2.62678E+01 3.47339E+03-3.65542E+04 7.97627E-10 1.34969E-09
 -1       721 3.94315E+05 1.46385E+02 1.92445E+03-7.12545E+04 9.87711E-10 1.22463E-09
 -1       722 3.94241E+05 4.69971E+01 1.20774E+03-3.65700E+04 1.04569E-09 8.85620E-10
 -1       723 3.94235E+05 1.24699E+02 1.17042E+03-7.12458E+04 7.60451E-10 1.52113E-09
 -1       724 3.94252E+05 2.35976E+01 1.65679E+03-3.65629E+04 7.51243E-10 3.46972E-10
 -1       725 3.94470E+05 1.31496E+02 3.08858E+03-7.12840E+04 1.16279E-09 6.13909E-12
 -1       726 3.94214E+05-1.14229E+02 5.84680E+03-3.65317E+04 1.07320E-10-7.24754E-11
 -1       727 3.95837E+05 1.08516E+03 1.23082E+04-7.13561E+04 9.54969E-10 6.60407E-10
 -1       728 3.93347E+05-6.61720E+02 2.32172E+04-3.64897E+04-8.69477E-10 1.25056E-09
 -1       729 4.09440E+05 1.82244E+04 5.41611E+04-7.11374E+04-7.63976E-10 7.42602E-10
 -1       730 3.81333E+05-4.85735E+03 9.14498E+04-3.67712E+04 6.47560E-10-6.98492E-10
 -1       731-1.57298E+03 1.91361E+05 3.48066E+04-8.49503E+04-5.45697E-10-1.00590E-09
 -1       732 7.48015E+03 2.01722E+05 2.09683E+04-1.65331E+05 8.11042E-10-4.00178E-10
 -1       733 3.05363E+00 1.95868E+05 9.67524E+03-8.47549E+04-4.56794E-10 1.23009E-09
 -1       734 1.59490E+03 1.97465E+05 6.73682E+03-1.65255E+05 8.16726E-10 2.31012E-09
 -1       735-2.34932E+02 1.95975E+05 5.55583E+03-8.50302E+04-5.83441E-10 1.50794E-09
 -1       736-9.51695E+05-1.37824E+05-8.41179E+04-3.73544E+05 2.81943E-11-2.04091E-09
 -1       737-9.70110E+05-1.74415E+05-4.90330E+04-3.84843E+05 5.90035E-10-2.18915E-09
 -1       738-9.63506E+05-1.45132E+05-1.95690E+04-3.75168E+05 2.01453E-10 3.01043E-10
 -1       739-9.55971E+05-1.57109E+05-1.00712E+04-3.86703E+05-4.91582E-10-1.75305E-10
 -1       740-9.64595E+05-1.45716E+05-4.50382E+03-3.75265E+05 7.49878E-10 3.63025E-09
 -1       741-9.54721E+05-1.55967E+05-2.28816E+03-3.86848E+05 6.72799E-10 5.27166E-10
 -1       742-9.64755E+05-1.45747E+05-1.19140E+03-3.75252E+05 1.62117E-10 5.70310E-10
 -1       743-9.54578E+05-1.55925E+05-8.78718E+02-3.86900E+05-4.32578E-10-3.01270E-10
 -1       744-9.64775E+05-1.45732E+05-1.02076E+03-3.75241E+05-3.95801E-10-3.67208E-10
 -1       745-9.54662E+05-1.55990E+05-1.83666E+03-3.86914E+05-6.00465E-10 3.10365E-10
 -1       746-9.64675E+05-1.45686E+05-3.54712E+03-3.75237E+05 5.43537E-10 7.32143E-11
 -1       747-9.55624E+05-1.56910E+05-7.90481E+03-3.86842E+05 4.42469E-10 5.59112E-10
 -1       748-9.63838E+05-1.45212E+05-1.53402E+04-3.75150E+05-1.21258E-09-3.48882E-09
 -1       749-9.66695E+05-1.70498E+05-3.84408E+04-3.85416E+05 3.60956E-11-1.89175E-10
 -1       750-9.54588E+05-1.39474E+05-6.59406E+04-3.73870E+05-3.69710E-10 1.60071E-10
 -1       751 1.14811E+06-8.39620E+03 1.65132E+05-3.51626E+04-1.63709E-11-1.11322E-09
 -1       752 1.19855E+06 3.30442E+04 9.77245E+04-6.86474E+04-1.58161E-09-4.78394E-10
 -1       753 1.16998E+06-1.04290E+03 4.19664E+04-3.50228E+04-1.81899E-10-1.12777E-10
 -1       754 1.17439E+06 1.98724E+03 2.22382E+04-6.86262E+04 2.60115E-10 1.02500E-09
 -1       755 1.17169E+06-1.82966E+02 1.06192E+04-3.51454E+04-3.27418E-11-2.81034E-10
 -1       756 1.17217E+06 1.50821E+02 5.66058E+03-6.84333E+04 3.96994E-10-1.03728E-09
 -1       757 1.17185E+06-1.25860E+01 3.16479E+03-3.52174E+04-6.19821E-10 4.77030E-10
 -1       758 1.17188E+06 7.79721E+01 2.45720E+03-6.83575E+04-3.35092E-10 2.34877E-10
 -1       759 1.17185E+06-5.23890E+00 2.86159E+03-3.52216E+04 2.86718E-10 5.72982E-11
 -1       760 1.17211E+06 1.41132E+02 4.87921E+03-6.84139E+04-9.88621E-10 1.07730E-09
 -1       761 1.17172E+06-1.49052E+02 9.02172E+03-3.51607E+04 3.07409E-10 8.54357E-10
 -1       762 1.17399E+06 1.68708E+03 1.88186E+04-6.85914E+04 5.42059E-10-8.49468E-10
 -1       763 1.17029E+06-8.84832E+02 3.54767E+04-3.50428E+04-2.91038E-11-9.16771E-10
 -1       764 1.19444E+06 2.79206E+04 8.25974E+04-6.86115E+04 2.89219E-10-3.95630E-10
 -1       765 1.15182E+06-7.11999E+03 1.39543E+05-3.51704E+04-1.61890E-09 9.89530E-10
 -1       766-4.41953E+03 3.94234E+05 9.63565E+04-6.81281E+04 3.05590E-10-1.42779E-09
 -1       767 2.00413E+04 4.23478E+05 6.41204E+04-1.32419E+05-3.57431E-10-8.71751E-10
 -1       768-7.61909E+02 4.05865E+05 4.17243E+04-6.80441E+04 2.46018E-10 1.68802E-09
 -1       769 1.62948E+04 4.21114E+05 5.53349E+04-1.32252E+05-3.71983E-10 1.07048E-09
 -1       770-3.81491E+03 3.97318E+05 7.82338E+04-6.83142E+04-1.49157E-10 1.27875E-09
 -1       771-1.70680E+06-3.33414E+05-1.38207E+05-6.97255E+05 4.38376E-10-7.27596E-12
 -1       772-1.71905E+06-3.27498E+05-6.99284E+04-7.30818E+05-1.82536E-09 1.66619E-09
 -1       773-1.71458E+06-2.97116E+05-2.96659E+04-7.15865E+05-8.34916E-10 8.27640E-10
 -1       774-1.70312E+06-3.10413E+05-1.45721E+04-7.32228E+05 1.23691E-10 6.51198E-10
 -1       775-1.71553E+06-2.96096E+05-6.72808E+03-7.16594E+05-2.49202E-10 2.00089E-11
 -1       776-1.70213E+06-3.09818E+05-3.38996E+03-7.32236E+05-1.03319E-09 5.23869E-10
 -1       777-1.71578E+06-2.96136E+05-1.81635E+03-7.16630E+05-3.54703E-10 1.55387E-09
 -1       778-1.70207E+06-3.09816E+05-1.39301E+03-7.32280E+05-4.02906E-10-5.63887E-10
 -1       779-1.71582E+06-2.96111E+05-1.70341E+03-7.16643E+05 8.80163E-10 7.73070E-10
 -1       780-1.70217E+06-3.09814E+05-3.09858E+03-7.32324E+05 5.74005E-09 4.95311E-09
 -1       781-1.71568E+06-2.96029E+05-6.10134E+03-7.16633E+05 1.58389E-09-8.18545E-11
 -1       782-1.70311E+06-3.10357E+05-1.32064E+04-7.32400E+05-1.62072E-09-6.19366E-10
 -1       783-1.71488E+06-2.96902E+05-2.68676E+04-7.15986E+05-6.90306E-10-1.70257E-09
 -1       784-1.71754E+06-3.25898E+05-6.33624E+04-7.31252E+05 1.81535E-09-1.85537E-09
 -1       785-1.70789E+06-3.29735E+05-1.25210E+05-6.99110E+05 2.66027E-10 1.92085E-09
 -1       786 8.22062E+05-5.48181E+03 1.07933E+05-2.77600E+04 8.44011E-10-6.29370E-10
 -1       787 8.55018E+05 2.16003E+04 6.38770E+04-5.42779E+04-9.11768E-10-1.63618E-09
 -1       788 8.36376E+05-6.77168E+02 2.74270E+04-2.76239E+04-3.19233E-10-1.11322E-09
 -1       789 8.39255E+05 1.27887E+03 1.45192E+04-5.43350E+04-3.41970E-10 8.82210E-11
 -1       790 8.37510E+05-1.27237E+02 6.91309E+03-2.76806E+04 2.25100E-10-3.53793E-10
 -1       791 8.37830E+05 6.33735E+01 3.63770E+03-5.42526E+04 5.42741E-10 1.18325E-09
 -1       792 8.37627E+05-2.66537E+01 1.94789E+03-2.77070E+04 5.57066E-10 5.40240E-10
 -1       793 8.37661E+05 1.44563E+00 1.35832E+03-5.42373E+04-1.41881E-10-1.85082E-10
 -1       794 8.37649E+05-2.81480E+01 1.38237E+03-2.76962E+04 5.82077E-11-7.84439E-10
 -1       795 8.37784E+05 9.56057E+00 2.18835E+03-5.42976E+04 5.74801E-10 9.82936E-10
 -1       796 8.37620E+05-1.09980E+02 3.94101E+03-2.76465E+04-5.61158E-10 1.71724E-10
 -1       797 8.38662E+05 6.49816E+02 8.17772E+03-5.44208E+04-7.71252E-10 5.19890E-10
 -1       798 8.37035E+05-4.60622E+02 1.53783E+04-2.75724E+04-1.01318E-09-8.51287E-10
 -1       799 8.47624E+05 1.19926E+04 3.58259E+04-5.43718E+04-4.89672E-09-1.64800E-09
 -1       800 8.29066E+05-3.21732E+03 6.04796E+04-2.77112E+04 9.64064E-10-1.26602E-09
 -1       801-1.49494E+03 1.23795E+05 4.38819E+04-3.43440E+05 8.13088E-09-1.20053E-10
 -1       802 1.42973E+04 1.34114E+05 3.43587E+04-6.68482E+05 3.07773E-09-3.00497E-09
 -1       803 2.04307E+03 1.26072E+05 3.01680E+04-3.42489E+05 1.36170E-08 3.83943E-09
 -1       804 2.11794E+04 1.40484E+05 5.21104E+04-6.68377E+05 7.38510E-10-3.44335E-09
 -1       805-4.04111E+03 1.19000E+05 8.01500E+04-3.43555E+05 9.60426E-09 2.09548E-09
 -1       806-1.01750E+06-2.22885E+05-8.82751E+04-4.44888E+05-6.94740E-10-8.06904E-09
 -1       807-1.02047E+06-2.23991E+05-4.46636E+04-4.71947E+05 3.27873E-09-3.15367E-09
 -1       808-1.02255E+06-1.99634E+05-1.89501E+04-4.56748E+05 1.70803E-09-1.50339E-09
 -1       809-1.01028E+06-2.13105E+05-9.31378E+03-4.72887E+05-1.65528E-10-1.38641E-10
 -1       810-1.02315E+06-1.98996E+05-4.30783E+03-4.57222E+05 2.14641E-10-6.81439E-10
 -1       811-1.00964E+06-2.12715E+05-2.19107E+03-4.72858E+05-1.82808E-10 2.03227E-09
 -1       812-1.02326E+06-1.99045E+05-1.21398E+03-4.57237E+05 1.22782E-10-2.41016E-11
 -1       813-1.00958E+06-2.12716E+05-1.00936E+03-4.72834E+05-7.90465E-10-2.04091E-09
 -1       814-1.02323E+06-1.99061E+05-1.33685E+03-4.57224E+05-4.49290E-10 1.87902E-09
 -1       815-1.00961E+06-2.12730E+05-2.51185E+03-4.72801E+05-1.45701E-09 2.65845E-09
 -1       816-1.02303E+06-1.99037E+05-4.99280E+03-4.57179E+05-2.74304E-09 9.62245E-10
 -1       817-1.01031E+06-2.13191E+05-1.08154E+04-4.72778E+05 6.40284E-10 4.89308E-10
 -1       818-1.02229E+06-1.99813E+05-2.20174E+04-4.56613E+05 3.02862E-09-3.43425E-09
 -1       819-1.02213E+06-2.25810E+05-5.18779E+04-4.71614E+05-1.57888E-09 4.40195E-10
 -1       820-1.01638E+06-2.26834E+05-1.02534E+05-4.42833E+05 3.25599E-09 1.61526E-09
 -1       821-5.34447E+05 3.47221E+03-7.03668E+04 1.59175E+04-1.23036E-08-3.52884E-10
 -1       822-5.55859E+05-1.40794E+04-4.16301E+04 3.17280E+04-3.45790E-09 2.16278E-09
 -1       823-5.43886E+05 4.19585E+02-1.78953E+04 1.56655E+04 1.03937E-08-6.20912E-09
 -1       824-5.45801E+05-7.22776E+02-9.46195E+03 3.20211E+04-4.12729E-09-1.38994E-09
 -1       825-5.44706E+05 1.34330E+02-4.52562E+03 1.56078E+04-1.62809E-08 2.17824E-10
 -1       826-5.45010E+05 1.39872E+02-2.39488E+03 3.21105E+04-3.02657E-08-4.36671E-10
 -1       827-5.44828E+05 1.10881E+02-1.32841E+03 1.55738E+04-1.50585E-08-3.36195E-09
 -1       828-5.44964E+05 2.10236E+02-1.00302E+03 3.21629E+04-1.92485E-08-2.35946E-09
 -1       829-5.44848E+05 1.22890E+02-1.14096E+03 1.55547E+04-3.86012E-09-3.79453E-09
 -1       830-5.45050E+05 1.85450E+02-1.92056E+03 3.21839E+04 1.26606E-08-7.50447E-10
 -1       831-5.44781E+05 1.63033E+02-3.54637E+03 1.55526E+04-1.20201E-08-2.47408E-09
 -1       832-5.45716E+05-4.61516E+02-7.38743E+03 3.21690E+04-1.99213E-09-3.58654E-09
 -1       833-5.44165E+05 4.04968E+02-1.39434E+04 1.55710E+04-1.81899E-10-2.22053E-09
 -1       834-5.53602E+05-1.08547E+04-3.24533E+04 3.20309E+04 3.12048E-09-2.92403E-10
 -1       835-5.36825E+05 2.80116E+03-5.48389E+04 1.57125E+04 2.95404E-09-2.70666E-09
 -1       836-3.73560E+03 1.05455E+06 8.75732E+04-1.36313E+05-1.45883E-09-2.63572E-09
 -1       837 1.94360E+04 1.08046E+06 6.31318E+04-2.62763E+05-7.46695E-09 1.62072E-09
 -1       838-3.00193E+02 1.06381E+06 4.95268E+04-1.36028E+05-1.65528E-09 3.84091E-10
 -1       839 2.57592E+04 1.08524E+06 7.85952E+04-2.62758E+05-6.65386E-09 1.83945E-09
 -1       840-5.30669E+03 1.04968E+06 1.19342E+05-1.36308E+05-2.20825E-09 2.05000E-09
 -1       841-3.59403E+04 8.15456E+03-2.06691E+04 1.36517E+03-1.04828E-08-5.94468E-09
 -1       842-5.39252E+04 1.27259E+04-1.20300E+04 1.39359E+04 6.24277E-09-1.06068E-08
 -1       843-3.87085E+04 6.22600E+03-4.81492E+03 7.42893E+02 6.58201E-09-3.26503E-09
 -1       844-5.07209E+04 1.71820E+04-2.46265E+03 1.36542E+04 2.26878E-08-1.60395E-09
 -1       845-3.89789E+04 6.08385E+03-1.09184E+03 6.71844E+02 1.67829E-08-3.47006E-09
 -1       846-5.04989E+04 1.75115E+04-5.15966E+02 1.36240E+04-7.13771E-09 1.82229E-09
 -1       847-3.90275E+04 6.08077E+03-1.98949E+02 6.48920E+02-2.04836E-08 2.03386E-09
 -1       848-5.04994E+04 1.75513E+04-9.04030E+00 1.36112E+04-9.25411E-09 2.17918E-09
 -1       849-3.90469E+04 6.08214E+03 1.72530E+02 6.37562E+02 2.08206E-09 6.13966E-10
 -1       850-5.04762E+04 1.75785E+04 4.70879E+02 1.36110E+04 7.70115E-09-2.19370E-09
 -1       851-3.90749E+04 6.06421E+03 9.93625E+02 6.33704E+02 6.31053E-09-1.84059E-09
 -1       852-5.01883E+04 1.78457E+04 2.26204E+03 1.36116E+04 1.50103E-08 2.71586E-09
 -1       853-3.92975E+04 5.90947E+03 4.40201E+03 6.11620E+02-5.36420E-09 4.99222E-09
 -1       854-4.69228E+04 2.16984E+04 1.10490E+04 1.31910E+04-1.47138E-08 1.40562E-09
 -1       855-4.19720E+04 4.27935E+03 1.89452E+04 3.04611E+02-1.22805E-08 6.35646E-09
 -1       856-2.92874E+05 1.60491E+03-3.14230E+04 1.34488E+04-1.59971E-08-4.05362E-09
 -1       857-3.02491E+05-6.17287E+03-1.85876E+04 2.68274E+04-9.40372E-09-2.34377E-09
 -1       858-2.97093E+05 2.48036E+02-7.98811E+03 1.32999E+04-1.20135E-08-1.95951E-09
 -1       859-2.98007E+05-2.06689E+02-4.22150E+03 2.69861E+04 7.18978E-09-2.44972E-09
 -1       860-2.97461E+05 1.21629E+02-2.01228E+03 1.32774E+04 6.01312E-09-3.32284E-09
 -1       861-2.97652E+05 1.77497E+02-1.05526E+03 2.70154E+04-9.42327E-09 1.36356E-09
 -1       862-2.97513E+05 1.08684E+02-5.64527E+02 1.32694E+04 1.47961E-08-2.90242E-09
 -1       863-2.97620E+05 2.04478E+02-3.92047E+02 2.70243E+04 5.50810E-08-3.33137E-09
 -1       864-2.97518E+05 1.07668E+02-4.00036E+02 1.32683E+04 2.22049E-08-4.92253E-09
 -1       865-2.97631E+05 1.89816E+02-6.32805E+02 2.70186E+04 2.12079E-08-2.53624E-09
 -1       866-2.97487E+05 1.12176E+02-1.14672E+03 1.32752E+04-2.28738E-10-2.94347E-09
 -1       867-2.97819E+05-2.96960E+01-2.37181E+03 2.69942E+04-2.50429E-09 5.55943E-10
 -1       868-2.97276E+05 1.77007E+02-4.47515E+03 1.32936E+04 1.01909E-08-4.48551E-09
 -1       869-3.00308E+05-3.37559E+03-1.04002E+04 2.68468E+04-7.82165E-09-4.82038E-09
 -1       870-2.94906E+05 9.26469E+02-1.75839E+04 1.34301E+04 1.14742E-08-4.63297E-09
 -1       871-3.99134E+03-5.06363E+04-7.99404E+03 1.53410E+05 7.95990E-09-3.65253E-09
 -1       872-2.01433E+03-5.21875E+04-2.36023E+03 1.90482E+05 8.49832E-09-2.01590E-09
 -1       873-6.50791E+02-5.17535E+04 2.48175E+03 1.53119E+05 8.95488E-09-4.38149E-10
 -1       874 1.56923E+03-4.94076E+04 9.15050E+03 1.90529E+05 2.84945E-09 3.44062E-09
 -1       875 6.11603E+03-5.35111E+04 1.91786E+04 1.53403E+05 5.39148E-09 9.09495E-11
 -1       876 3.98347E+05 6.11628E+04 3.88524E+04 1.61436E+05 5.69412E-09-6.56109E-09
 -1       877 4.04573E+05 8.03851E+04 2.26509E+04 1.69239E+05-2.31792E-08-1.57206E-09
 -1       878 4.03746E+05 6.45863E+04 9.04091E+03 1.62221E+05 2.94540E-09-2.85081E-09
 -1       879 3.98070E+05 7.23446E+04 4.66218E+03 1.69982E+05-4.43629E-09-7.13271E-09
 -1       880 4.04191E+05 6.49097E+04 2.09152E+03 1.62297E+05 1.29580E-09-5.21686E-09
 -1       881 3.97525E+05 7.17684E+04 1.08409E+03 1.69957E+05-3.97418E-08-5.69742E-10
 -1       882 4.04230E+05 6.49573E+04 6.01018E+02 1.62310E+05-1.12468E-08 9.30243E-10
 -1       883 3.97479E+05 7.17239E+04 5.14762E+02 1.69934E+05 5.82025E-09-3.11388E-10
 -1       884 4.04224E+05 6.49592E+04 6.92191E+02 1.62311E+05-1.28974E-08-1.39050E-09
 -1       885 3.97548E+05 7.17721E+04 1.32718E+03 1.69946E+05 2.90088E-08 6.58929E-10
 -1       886 4.04164E+05 6.49092E+04 2.60436E+03 1.62300E+05-1.25522E-08-8.17863E-10
 -1       887 3.98234E+05 7.24846E+04 5.82646E+03 1.69958E+05-1.48277E-08-2.44700E-09
 -1       888 4.03594E+05 6.45135E+04 1.13094E+04 1.62206E+05-4.89263E-09 2.44199E-09
 -1       889 4.06350E+05 8.25592E+04 2.83366E+04 1.69033E+05-1.43611E-08 4.24097E-09
 -1       890 3.96850E+05 6.02181E+04 4.86092E+04 1.61201E+05 1.85919E-08 3.56522E-10
 -1       891 6.33955E+01-1.92788E+05-8.35140E+03 5.48118E+04 1.26483E-08 4.67389E-09
 -1       892-2.26068E+03-1.95078E+05-6.02061E+03 1.06284E+05-2.73394E-09-2.06819E-09
 -1       893-1.74713E+02-1.93757E+05-4.77594E+03 5.46591E+04 1.63604E-08 5.39444E-10
 -1       894-2.93585E+03-1.95559E+05-7.64747E+03 1.06259E+05 5.59976E-09 2.52840E-10
 -1       895 2.12208E+02-1.92255E+05-1.16956E+04 5.48341E+04-2.55432E-09 1.91176E-09
 -1       896 7.64096E+05-6.41208E+02 1.11833E+04-1.55998E+04 1.72804E-10 8.06267E-10
 -1       897 7.67513E+05 2.18711E+03 6.63641E+03-3.05447E+04-3.15140E-10 7.34872E-10
 -1       898 7.65551E+05-1.10645E+02 2.84872E+03-1.55189E+04-5.09317E-11 3.66981E-10
 -1       899 7.65813E+05 1.04244E+02 1.53224E+03-3.05757E+04-4.38831E-10 2.79215E-10
 -1       900 7.65643E+05-3.15913E+01 7.63004E+02-1.55672E+04-1.06411E-10-2.70575E-11
 -1       901 7.65624E+05-7.51370E-02 4.80747E+02-3.04942E+04 1.68484E-10 1.15620E-10
 -1       902 7.65634E+05-7.72299E+00 4.03733E+02-1.56006E+04 6.27551E-11-3.40378E-10
 -1       903 7.65593E+05 8.78522E+00 5.56339E+02-3.04453E+04 5.08180E-11-5.20117E-10
 -1       904 7.65614E+05-7.44489E+00 9.59868E+02-1.56161E+04-8.00355E-11-3.49985E-10
 -1       905 7.65675E+05 5.00256E+01 1.90673E+03-3.04342E+04 1.10049E-10-4.33715E-10
 -1       906 7.65539E+05-5.21879E+01 3.68640E+03-1.56117E+04 1.86901E-10-6.19252E-10
 -1       907 7.66408E+05 7.17545E+02 7.77185E+03-3.04570E+04 9.52696E-11-1.04137E-10
 -1       908 7.64911E+05-3.29946E+02 1.47019E+04-1.55930E+04-2.09184E-11-1.33241E-10
 -1       909 7.74806E+05 1.16334E+04 3.42374E+04-3.04142E+04 2.40107E-10-4.60659E-10
 -1       910 7.57208E+05-2.88302E+03 5.78585E+04-1.56582E+04 2.63753E-11-4.00178E-10
 -1       911 1.80283E+05-1.66282E+02 2.46887E+03-1.47060E+04 1.93722E-10 5.40012E-10
 -1       912 1.81050E+05 4.79927E+02 1.47413E+03-2.84131E+04-1.27329E-10 4.09727E-10
 -1       913 1.80585E+05-2.97436E+01 6.36411E+02-1.45955E+04-2.00998E-10-1.13801E-10
 -1       914 1.80637E+05 3.44381E+01 3.59022E+02-2.85193E+04-2.61934E-10-7.05427E-10
 -1       915 1.80591E+05-6.68635E-01 2.06826E+02-1.45996E+04 2.73303E-10 8.16271E-11
 -1       916 1.80577E+05 2.12677E+01 1.85967E+02-2.85107E+04 4.66343E-10 3.01270E-11
 -1       917 1.80581E+05 8.51073E+00 2.45552E+02-1.46042E+04 4.41560E-10-3.94493E-10
 -1       918 1.80577E+05 2.66095E+01 4.41961E+02-2.85059E+04 5.01529E-10-3.95858E-10
 -1       919 1.80568E+05 1.13971E+00 8.38550E+02-1.46044E+04 2.15323E-10-5.89978E-10
 -1       920 1.80669E+05 5.67713E+01 1.71076E+03-2.85096E+04 8.26503E-10-1.40062E-10
 -1       921 1.80507E+05-4.58606E+01 3.32874E+03-1.46004E+04 3.01497E-10-8.30880E-10
 -1       922 1.81348E+05 6.54908E+02 7.03435E+03-2.85171E+04 1.03228E-09-1.01534E-09
 -1       923 1.79946E+05-3.03961E+02 1.33109E+04-1.45967E+04 2.84217E-10-1.95087E-10
 -1       924 1.88975E+05 1.05431E+04 3.10163E+04-2.84115E+04 2.50111E-11 3.50155E-11
 -1       925 1.72980E+05-2.62945E+03 5.24136E+04-1.47091E+04 5.82077E-11-8.73115E-11
 -1       926-9.34385E+05 2.65698E+03-5.39406E+04-1.43208E+04 2.88310E-10 4.22006E-10
 -1       927-9.50742E+05-1.08893E+04-3.19171E+04-2.76356E+04-1.50294E-10 6.49379E-10
 -1       928-9.41598E+05 2.92591E+02-1.37027E+04-1.41772E+04-4.18368E-11-4.27008E-10
 -1       929-9.42978E+05-6.64552E+02-7.24220E+03-2.78170E+04-4.30646E-10-9.71909E-10
 -1       930-9.42205E+05 5.49834E+01-3.44214E+03-1.41424E+04-6.59384E-12-1.43245E-11
 -1       931-9.42326E+05-2.45967E+01-1.79534E+03-2.78589E+04-5.26370E-11-4.97835E-10
 -1       932-9.42278E+05 1.85388E+01-9.37257E+02-1.41351E+04-2.86207E-10-7.18330E-10
 -1       933-9.42243E+05 8.97404E+00-6.09727E+02-2.78515E+04 1.36765E-10-6.63476E-10
 -1       934-9.42280E+05 7.78404E+00-5.62830E+02-1.41498E+04-3.16049E-11-3.01270E-10
 -1       935-9.42239E+05-1.63727E+01-8.29043E+02-2.77983E+04-6.53245E-10-3.50383E-10
 -1       936-9.42237E+05 8.14217E+00-1.46678E+03-1.41883E+04-3.63798E-11 2.68756E-10
 -1       937-9.42468E+05-2.98321E+02-3.00833E+03-2.76951E+04 2.78305E-10-4.72937E-10
 -1       938-9.41967E+05 8.79981E+01-5.66867E+03-1.42530E+04 3.15595E-10-4.29736E-10
 -1       939-9.45619E+05-4.53422E+03-1.31647E+04-2.74155E+04 1.06911E-09 2.32831E-10
 -1       940-9.38971E+05 1.03921E+03-2.22586E+04-1.44648E+04-5.62068E-10 1.65710E-09
 -1       941 1.44631E+06-1.01854E+04 2.06897E+05-1.86431E+04 1.28421E-09 1.84082E-09
 -1       942 1.50927E+06 4.15520E+04 1.22370E+05-3.68587E+04 1.18689E-10-1.21690E-09
 -1       943 1.47388E+06-1.17035E+03 5.25961E+04-1.85869E+04-1.39607E-10 5.31145E-10
 -1       944 1.47937E+06 2.52598E+03 2.78407E+04-3.68442E+04-5.16820E-10-4.04725E-10
 -1       945 1.47616E+06-2.09399E+02 1.32950E+04-1.86302E+04 7.58973E-10 1.28694E-09
 -1       946 1.47680E+06 1.22412E+02 7.04570E+03-3.67988E+04 1.76538E-09 2.39379E-09
 -1       947 1.47643E+06-6.11152E+01 3.88216E+03-1.86328E+04 8.00355E-10 2.02272E-09
 -1       948 1.47654E+06-1.85198E+01 2.90825E+03-3.68401E+04-1.28443E-09 1.46372E-09
 -1       949 1.47646E+06-6.68102E+01 3.25513E+03-1.85890E+04-6.58474E-10-2.11116E-09
 -1       950 1.47677E+06 5.31212E+01 5.44109E+03-3.69740E+04 2.50111E-09 2.75352E-09
 -1       951 1.47630E+06-2.02703E+02 1.00024E+04-1.84984E+04-1.80808E-09-7.79437E-10
 -1       952 1.47876E+06 1.81056E+03 2.08226E+04-3.71893E+04-1.47475E-09 1.65073E-10
 -1       953 1.47463E+06-9.52951E+02 3.92572E+04-1.83731E+04-6.86668E-10 1.84446E-09
 -1       954 1.50116E+06 3.08997E+04 9.13384E+04-3.72986E+04-6.45377E-09 5.10227E-10
 -1       955 1.45409E+06-7.72958E+03 1.54361E+05-1.84319E+04 4.32919E-10 1.72440E-09
 -1       956-4.14674E+05-9.39069E+03-2.68350E+04 5.24004E+04-1.31477E-08 7.62157E-10
 -1       957-4.20276E+05-3.26656E+03-1.39121E+04 6.46170E+04-5.41240E-09-9.22228E-10
 -1       958-4.17273E+05-7.93435E+01-6.27896E+03 5.19927E+04 8.90941E-09-1.90721E-09
 -1       959-4.17796E+05 1.87200E+02-3.20568E+03 6.50437E+04-4.90490E-09-7.71252E-10
 -1       960-4.17572E+05 2.77110E+02-1.56504E+03 5.19523E+04-1.43045E-08-1.01227E-09
 -1       961-4.17712E+05 3.61161E+02-8.16366E+02 6.50904E+04-2.49929E-08 1.74805E-09
 -1       962-4.17679E+05 3.07037E+02-4.48710E+02 5.19434E+04-1.01991E-08-3.86990E-10
 -1       963-4.17766E+05 3.99934E+02-3.21111E+02 6.51031E+04-2.24391E-08 1.51613E-09
 -1       964-4.17728E+05 3.34841E+02-3.45592E+02 5.19386E+04-2.76395E-09-1.03410E-09
 -1       965-4.17817E+05 4.22940E+02-5.58922E+02 6.51070E+04 1.53750E-08-1.90039E-09
 -1       966-4.17725E+05 3.57855E+02-1.02981E+03 5.19389E+04-5.17502E-09-6.05723E-10
 -1       967-4.17946E+05 3.50404E+02-2.09919E+03 6.50899E+04 4.65934E-09-1.06411E-09
 -1       968-4.17583E+05 1.59985E+02-4.09911E+03 5.19566E+04 1.26056E-09-1.05319E-09
 -1       969-4.19629E+05-1.87910E+03-9.09637E+03 6.48827E+04-4.55884E-09-5.37966E-10
 -1       970-4.15918E+05-5.91196E+03-1.75390E+04 5.21694E+04 1.00044E-10-1.61708E-09
 -1       971-5.02541E+05 1.26452E+03-2.47419E+04 1.19994E+04-9.21500E-09 4.57294E-09
 -1       972-5.10090E+05-4.84405E+03-1.46355E+04 2.45834E+04-9.16407E-09 3.80351E-09
 -1       973-5.05866E+05 2.00040E+02-6.29617E+03 1.18353E+04-1.11831E-08 3.99086E-09
 -1       974-5.06571E+05-1.41702E+02-3.33619E+03 2.47722E+04-1.37068E-08 3.31761E-09
 -1       975-5.06159E+05 1.04534E+02-1.61109E+03 1.18007E+04 3.90946E-09 3.70756E-09
 -1       976-5.06301E+05 1.65176E+02-8.84228E+02 2.48215E+04-1.65912E-08 4.10489E-09
 -1       977-5.06202E+05 9.83274E+01-5.50515E+02 1.17849E+04 7.39669E-09 3.11468E-09
 -1       978-5.06291E+05 1.88943E+02-5.25095E+02 2.48415E+04 3.64066E-08 2.39845E-09
 -1       979-5.06201E+05 1.03865E+02-7.40956E+02 1.17805E+04 1.67131E-08 3.54908E-09
 -1       980-5.06346E+05 1.61360E+02-1.37570E+03 2.48383E+04 1.56211E-08 2.64180E-09
 -1       981-5.06143E+05 1.28578E+02-2.61569E+03 1.17881E+04-8.30164E-09 4.09077E-09
 -1       982-5.06831E+05-3.26978E+02-5.48915E+03 2.48084E+04-1.33005E-08 4.07329E-09
 -1       983-5.05678E+05 3.04410E+02-1.03812E+04 1.18118E+04 8.29687E-09 2.87946E-09
 -1       984-5.12695E+05-8.07205E+03-2.41690E+04 2.46639E+04-1.05372E-08 3.18551E-09
 -1       985-5.00209E+05 2.08584E+03-4.08482E+04 1.19502E+04 6.53836E-09 2.73940E-09
 -3
 9999
