
 stresses (elem, integ.pnt.,sxx,syy,szz,sxy,sxz,syz) for set ELALL and time  0.1000000E+01

         1   1 -2.287256E+06 -1.041799E+05 -1.261954E+05 -4.706453E+04 -8.652839E+04  6.582741E+00
         1   2 -2.272148E+06  2.857445E+03 -5.706064E+04 -1.590889E+04 -5.621874E+04  1.445674E+00
         1   3 -2.287136E+06  5.441715E+03 -3.382359E+04  1.524820E+04 -2.590882E+04 -6.385963E-01
         1   4 -2.287258E+06 -1.041840E+05 -1.261960E+05  2.141396E-09 -8.652839E+04 -4.261141E-11
         1   5 -2.272148E+06  2.856968E+03 -5.706070E+04  2.922868E-09 -5.621874E+04 -2.286439E-10
         1   6 -2.287137E+06  5.441276E+03 -3.382365E+04  9.893180E-09 -2.590882E+04 -7.197675E-10
         1   7 -2.287256E+06 -1.041799E+05 -1.261954E+05  4.706453E+04 -8.652839E+04 -6.582741E+00
         1   8 -2.272148E+06  2.857445E+03 -5.706064E+04  1.590889E+04 -5.621874E+04 -1.445674E+00
         1   9 -2.287136E+06  5.441715E+03 -3.382359E+04 -1.524820E+04 -2.590882E+04  6.385963E-01
         1  10 -2.287264E+06 -1.041819E+05 -1.262095E+05 -4.706453E+04 -2.735423E-10  4.351142E-11
         1  11 -2.272151E+06  2.856593E+03 -5.706660E+04 -1.590889E+04  2.517997E-09 -7.212764E-11
         1  12 -2.287137E+06  5.441533E+03 -3.382486E+04  1.524820E+04  9.688735E-10 -1.087568E-09
         1  13 -2.287266E+06 -1.041861E+05 -1.262101E+05  3.359370E-11 -1.008731E-09  8.930943E-11
         1  14 -2.272152E+06  2.856116E+03 -5.706667E+04  7.603299E-10 -1.277544E-11  1.314338E-10
         1  15 -2.287137E+06  5.441095E+03 -3.382492E+04  7.926179E-09 -8.014010E-10 -9.488485E-11
         1  16 -2.287264E+06 -1.041819E+05 -1.262095E+05  4.706453E+04  2.424994E-09  1.168869E-10
         1  17 -2.272151E+06  2.856593E+03 -5.706660E+04  1.590889E+04 -2.506812E-09  4.053058E-10
         1  18 -2.287137E+06  5.441533E+03 -3.382486E+04 -1.524820E+04 -1.058527E-09  5.989250E-10
         1  19 -2.287256E+06 -1.041799E+05 -1.261954E+05 -4.706453E+04  8.652839E+04 -6.582741E+00
         1  20 -2.272148E+06  2.857445E+03 -5.706064E+04 -1.590889E+04  5.621874E+04 -1.445674E+00
         1  21 -2.287136E+06  5.441715E+03 -3.382359E+04  1.524820E+04  2.590882E+04  6.385963E-01
         1  22 -2.287258E+06 -1.041840E+05 -1.261960E+05 -6.382170E-09  8.652839E+04  2.258828E-10
         1  23 -2.272148E+06  2.856968E+03 -5.706070E+04 -1.217282E-08  5.621874E+04  4.998477E-10
         1  24 -2.287137E+06  5.441276E+03 -3.382365E+04  7.312605E-09  2.590882E+04  5.694143E-10
         1  25 -2.287256E+06 -1.041799E+05 -1.261954E+05  4.706453E+04  8.652839E+04  6.582741E+00
         1  26 -2.272148E+06  2.857445E+03 -5.706064E+04  1.590889E+04  5.621874E+04  1.445674E+00
         1  27 -2.287136E+06  5.441715E+03 -3.382359E+04 -1.524820E+04  2.590882E+04 -6.385963E-01
         2   1 -2.281053E+06 -6.403444E+03 -2.701856E+04 -2.229908E+03 -2.105072E+04  7.587695E-02
         2   2 -2.279734E+06  3.193790E+02 -1.450606E+04 -5.334686E+02 -1.375514E+04  1.186123E-02
         2   3 -2.281037E+06  3.717185E+02 -8.423762E+03  1.162964E+03 -6.459498E+03 -1.214288E-02
         2   4 -2.281053E+06 -6.403454E+03 -2.701856E+04  3.558721E-09 -2.105072E+04  8.194391E-11
         2   5 -2.279734E+06  3.193784E+02 -1.450606E+04 -5.712456E-09 -1.375514E+04  1.536339E-09
         2   6 -2.281037E+06  3.717159E+02 -8.423763E+03  1.002895E-08 -6.459498E+03 -2.927326E-10
         2   7 -2.281053E+06 -6.403444E+03 -2.701856E+04  2.229908E+03 -2.105072E+04 -7.587695E-02
         2   8 -2.279734E+06  3.193790E+02 -1.450606E+04  5.334686E+02 -1.375514E+04 -1.186122E-02
         2   9 -2.281037E+06  3.717185E+02 -8.423762E+03 -1.162964E+03 -6.459498E+03  1.214288E-02
         2  10 -2.281053E+06 -6.403564E+03 -2.701940E+04 -2.229908E+03 -2.061455E-09 -5.153469E-10
         2  11 -2.279734E+06  3.193280E+02 -1.450642E+04 -5.334686E+02  7.076508E-10  8.097062E-10
         2  12 -2.281037E+06  3.717072E+02 -8.423841E+03  1.162964E+03 -1.948041E-09 -9.390541E-11
         2  13 -2.281053E+06 -6.403573E+03 -2.701940E+04  1.536918E-09 -2.100470E-09 -2.862725E-11
         2  14 -2.279734E+06  3.193274E+02 -1.450642E+04  7.183103E-10 -3.099274E-09  2.920729E-10
         2  15 -2.281037E+06  3.717047E+02 -8.423841E+03  1.009281E-09 -2.469310E-09 -2.142546E-10
         2  16 -2.281053E+06 -6.403564E+03 -2.701940E+04  2.229908E+03  5.146990E-10  5.497222E-10
         2  17 -2.279734E+06  3.193280E+02 -1.450642E+04  5.334686E+02 -1.609958E-09 -4.584139E-10
         2  18 -2.281037E+06  3.717072E+02 -8.423841E+03 -1.162964E+03 -3.752352E-09 -6.261575E-10
         2  19 -2.281053E+06 -6.403444E+03 -2.701856E+04 -2.229908E+03  2.105072E+04 -7.587695E-02
         2  20 -2.279734E+06  3.193790E+02 -1.450606E+04 -5.334686E+02  1.375514E+04 -1.186123E-02
         2  21 -2.281037E+06  3.717185E+02 -8.423762E+03  1.162964E+03  6.459498E+03  1.214288E-02
         2  22 -2.281053E+06 -6.403454E+03 -2.701856E+04  1.641897E-09  2.105072E+04 -1.230761E-10
         2  23 -2.279734E+06  3.193784E+02 -1.450606E+04 -3.596163E-09  1.375514E+04 -1.068018E-09
         2  24 -2.281037E+06  3.717159E+02 -8.423763E+03  9.470209E-09  6.459498E+03 -1.402146E-10
         2  25 -2.281053E+06 -6.403444E+03 -2.701856E+04  2.229908E+03  2.105072E+04  7.587695E-02
         2  26 -2.279734E+06  3.193790E+02 -1.450606E+04  5.334686E+02  1.375514E+04  1.186122E-02
         2  27 -2.281037E+06  3.717185E+02 -8.423762E+03 -1.162964E+03  6.459498E+03 -1.214288E-02
         3   1 -2.280533E+06 -3.510675E+02 -6.494792E+03  4.598134E+01 -5.149049E+03 -3.827067E-04
         3   2 -2.280357E+06  5.585057E+01 -3.731331E+03  8.011522E+01 -3.298898E+03 -4.272092E-04
         3   3 -2.280530E+06  3.202193E+01 -2.283363E+03  1.142486E+02 -1.448770E+03 -2.675516E-04
         3   4 -2.280533E+06 -3.510675E+02 -6.494792E+03 -3.814978E-09 -5.149049E+03 -7.217654E-10
         3   5 -2.280357E+06  5.585056E+01 -3.731331E+03 -2.482720E-09 -3.298898E+03  3.120007E-10
         3   6 -2.280530E+06  3.202191E+01 -2.283363E+03 -1.376389E-08 -1.448770E+03 -4.165895E-10
         3   7 -2.280533E+06 -3.510675E+02 -6.494792E+03 -4.598134E+01 -5.149049E+03  3.827056E-04
         3   8 -2.280357E+06  5.585057E+01 -3.731331E+03 -8.011522E+01 -3.298898E+03  4.272093E-04
         3   9 -2.280530E+06  3.202193E+01 -2.283363E+03 -1.142486E+02 -1.448770E+03  2.675507E-04
         3  10 -2.280533E+06 -3.510746E+02 -6.494842E+03  4.598134E+01 -1.753448E-09 -5.242222E-10
         3  11 -2.280357E+06  5.584763E+01 -3.731351E+03  8.011522E+01 -3.584367E-09 -6.325615E-10
         3  12 -2.280530E+06  3.202136E+01 -2.283367E+03  1.142486E+02 -2.243557E-09 -3.144607E-10
         3  13 -2.280533E+06 -3.510746E+02 -6.494842E+03 -3.779287E-09 -1.566823E-11 -4.266831E-10
         3  14 -2.280357E+06  5.584762E+01 -3.731351E+03 -1.394136E-09 -1.613971E-09 -2.604193E-10
         3  15 -2.280530E+06  3.202134E+01 -2.283367E+03 -1.298839E-08  1.344977E-10 -2.592528E-10
         3  16 -2.280533E+06 -3.510746E+02 -6.494842E+03 -4.598134E+01 -9.342415E-10 -1.767942E-10
         3  17 -2.280357E+06  5.584763E+01 -3.731351E+03 -8.011522E+01  5.610214E-10  1.318947E-10
         3  18 -2.280530E+06  3.202136E+01 -2.283367E+03 -1.142486E+02 -1.384353E-10 -1.486830E-10
         3  19 -2.280533E+06 -3.510675E+02 -6.494792E+03  4.598134E+01  5.149049E+03  3.827058E-04
         3  20 -2.280357E+06  5.585057E+01 -3.731331E+03  8.011522E+01  3.298898E+03  4.272084E-04
         3  21 -2.280530E+06  3.202193E+01 -2.283363E+03  1.142486E+02  1.448770E+03  2.675510E-04
         3  22 -2.280533E+06 -3.510675E+02 -6.494792E+03 -3.730997E-09  5.149049E+03 -8.808395E-11
         3  23 -2.280357E+06  5.585056E+01 -3.731331E+03  3.992089E-09  3.298898E+03 -8.089074E-10
         3  24 -2.280530E+06  3.202191E+01 -2.283363E+03 -5.214798E-09  1.448770E+03 -1.215429E-10
         3  25 -2.280533E+06 -3.510675E+02 -6.494792E+03 -4.598134E+01  5.149049E+03 -3.827061E-04
         3  26 -2.280357E+06  5.585057E+01 -3.731331E+03 -8.011522E+01  3.298898E+03 -4.272098E-04
         3  27 -2.280530E+06  3.202193E+01 -2.283363E+03 -1.142486E+02  1.448770E+03 -2.675513E-04
         4   1 -2.280474E+06 -7.148961E+00 -1.850490E+03  4.118762E+01 -1.076735E+03 -7.168581E-05
         4   2 -2.280425E+06  1.800181E+01 -1.373567E+03  1.460383E+01 -3.982447E+02 -9.401120E-06
         4   3 -2.280474E+06  9.659383E+00 -1.347966E+03 -1.198036E+01  2.802559E+02 -5.428271E-06
         4   4 -2.280474E+06 -7.148964E+00 -1.850490E+03 -5.136875E-09 -1.076735E+03 -4.208873E-10
         4   5 -2.280425E+06  1.800181E+01 -1.373567E+03 -2.435294E-09 -3.982447E+02  1.963729E-10
         4   6 -2.280474E+06  9.659383E+00 -1.347966E+03 -1.845791E-09  2.802559E+02 -1.381724E-09
         4   7 -2.280474E+06 -7.148961E+00 -1.850490E+03 -4.118762E+01 -1.076735E+03  7.168526E-05
         4   8 -2.280425E+06  1.800181E+01 -1.373567E+03 -1.460383E+01 -3.982447E+02  9.400699E-06
         4   9 -2.280474E+06  9.659383E+00 -1.347966E+03  1.198036E+01  2.802559E+02  5.425766E-06
         4  10 -2.280474E+06 -7.149274E+00 -1.850492E+03  4.118762E+01 -2.188514E-09  4.614280E-10
         4  11 -2.280425E+06  1.800177E+01 -1.373567E+03  1.460383E+01  1.869403E-10  8.064018E-10
         4  12 -2.280474E+06  9.659362E+00 -1.347966E+03 -1.198036E+01  1.175193E-09 -7.082443E-10
         4  13 -2.280474E+06 -7.149277E+00 -1.850492E+03 -7.053690E-09 -2.255025E-09  1.430504E-10
         4  14 -2.280425E+06  1.800177E+01 -1.373567E+03 -2.506681E-09 -9.729215E-10  6.532050E-10
         4  15 -2.280474E+06  9.659361E+00 -1.347966E+03 -1.731900E-08 -3.481903E-09 -6.776882E-10
         4  16 -2.280474E+06 -7.149274E+00 -1.850492E+03 -4.118762E+01  1.017870E-09  1.264348E-10
         4  17 -2.280425E+06  1.800177E+01 -1.373567E+03 -1.460383E+01 -2.058568E-09  6.315902E-10
         4  18 -2.280474E+06  9.659362E+00 -1.347966E+03  1.198036E+01 -3.639857E-09 -7.641900E-10
         4  19 -2.280474E+06 -7.148961E+00 -1.850490E+03  4.118762E+01  1.076735E+03  7.168693E-05
         4  20 -2.280425E+06  1.800181E+01 -1.373567E+03  1.460383E+01  3.982447E+02  9.402548E-06
         4  21 -2.280474E+06  9.659383E+00 -1.347966E+03 -1.198036E+01 -2.802559E+02  5.427370E-06
         4  22 -2.280474E+06 -7.148964E+00 -1.850490E+03 -2.489400E-09  1.076735E+03  6.808423E-10
         4  23 -2.280425E+06  1.800181E+01 -1.373567E+03 -9.038173E-09  3.982447E+02  1.081881E-09
         4  24 -2.280474E+06  9.659383E+00 -1.347966E+03 -2.963025E-09 -2.802559E+02 -6.150901E-11
         4  25 -2.280474E+06 -7.148961E+00 -1.850490E+03 -4.118762E+01  1.076735E+03 -7.168554E-05
         4  26 -2.280425E+06  1.800181E+01 -1.373567E+03 -1.460383E+01  3.982447E+02 -9.400245E-06
         4  27 -2.280474E+06  9.659383E+00 -1.347966E+03  1.198036E+01 -2.802559E+02 -5.427651E-06
         5   1 -2.280486E+06  1.023469E+01 -1.489379E+03 -2.729001E+01  5.369015E+02 -2.368501E-05
         5   2 -2.280410E+06  2.825288E+01 -2.137846E+03 -6.506360E+01  1.593169E+03 -1.675536E-04
         5   3 -2.280488E+06 -1.736752E+01 -3.491791E+03 -1.028372E+02  2.649434E+03 -4.404105E-04
         5   4 -2.280486E+06  1.023469E+01 -1.489379E+03 -3.327483E-08  5.369015E+02 -1.266194E-09
         5   5 -2.280410E+06  2.825288E+01 -2.137846E+03  7.492993E-09  1.593169E+03  9.140691E-10
         5   6 -2.280488E+06 -1.736754E+01 -3.491791E+03  3.187517E-08  2.649434E+03  2.184480E-09
         5   7 -2.280486E+06  1.023469E+01 -1.489379E+03  2.729001E+01  5.369015E+02  2.368274E-05
         5   8 -2.280410E+06  2.825288E+01 -2.137846E+03  6.506360E+01  1.593169E+03  1.675550E-04
         5   9 -2.280488E+06 -1.736752E+01 -3.491791E+03  1.028372E+02  2.649434E+03  4.404148E-04
         5  10 -2.280486E+06  1.023461E+01 -1.489380E+03 -2.729001E+01  5.594043E-09 -6.496076E-10
         5  11 -2.280410E+06  2.825220E+01 -2.137850E+03 -6.506360E+01  1.884919E-09  1.356898E-09
         5  12 -2.280488E+06 -1.736941E+01 -3.491805E+03 -1.028372E+02 -8.583877E-09  1.680656E-09
         5  13 -2.280486E+06  1.023461E+01 -1.489380E+03 -3.300571E-09 -7.690944E-10 -7.304980E-10
         5  14 -2.280410E+06  2.825219E+01 -2.137850E+03  7.658860E-09 -1.510919E-09  9.053288E-10
         5  15 -2.280488E+06 -1.736943E+01 -3.491805E+03 -7.213748E-09  3.488479E-09  1.303369E-09
         5  16 -2.280486E+06  1.023461E+01 -1.489380E+03  2.729001E+01 -6.242350E-09 -1.013545E-09
         5  17 -2.280410E+06  2.825220E+01 -2.137850E+03  6.506360E+01 -2.136550E-09  7.231116E-10
         5  18 -2.280488E+06 -1.736941E+01 -3.491805E+03  1.028372E+02  9.079814E-09  1.046257E-09
         5  19 -2.280486E+06  1.023469E+01 -1.489379E+03 -2.729001E+01 -5.369015E+02  2.368403E-05
         5  20 -2.280410E+06  2.825288E+01 -2.137846E+03 -6.506360E+01 -1.593169E+03  1.675563E-04
         5  21 -2.280488E+06 -1.736752E+01 -3.491791E+03 -1.028372E+02 -2.649434E+03  4.404137E-04
         5  22 -2.280486E+06  1.023469E+01 -1.489379E+03  3.965059E-08 -5.369015E+02 -1.491884E-10
         5  23 -2.280410E+06  2.825288E+01 -2.137846E+03 -7.558575E-10 -1.593169E+03  9.275085E-10
         5  24 -2.280488E+06 -1.736754E+01 -3.491791E+03 -2.526845E-08 -2.649434E+03  3.586541E-10
         5  25 -2.280486E+06  1.023469E+01 -1.489379E+03  2.729001E+01 -5.369015E+02 -2.368464E-05
         5  26 -2.280410E+06  2.825288E+01 -2.137846E+03  6.506360E+01 -1.593169E+03 -1.675541E-04
         5  27 -2.280488E+06 -1.736752E+01 -3.491791E+03  1.028372E+02 -2.649434E+03 -4.404130E-04
         6   1 -2.280616E+06  6.456870E+01 -4.524851E+03 -2.572501E+02  3.370376E+03 -1.401490E-03
         6   2 -2.280253E+06  1.165924E+02 -7.759075E+03 -1.794303E+02  7.218165E+03 -2.093530E-03
         6   3 -2.280623E+06 -7.489745E+02 -1.373461E+04 -1.016114E+02  1.106587E+04 -1.817542E-03
         6   4 -2.280616E+06  6.456858E+01 -4.524851E+03  3.687146E-09  3.370376E+03  9.547885E-10
         6   5 -2.280253E+06  1.165924E+02 -7.759075E+03 -2.543038E-10  7.218165E+03 -1.593616E-09
         6   6 -2.280623E+06 -7.489745E+02 -1.373461E+04  1.145027E-10  1.106587E+04 -4.036192E-10
         6   7 -2.280616E+06  6.456870E+01 -4.524851E+03  2.572501E+02  3.370376E+03  1.401492E-03
         6   8 -2.280253E+06  1.165924E+02 -7.759075E+03  1.794303E+02  7.218165E+03  2.093526E-03
         6   9 -2.280623E+06 -7.489745E+02 -1.373461E+04  1.016114E+02  1.106587E+04  1.817541E-03
         6  10 -2.280616E+06  6.456564E+01 -4.524873E+03 -2.572501E+02  6.921705E-10  4.400251E-10
         6  11 -2.280253E+06  1.165784E+02 -7.759174E+03 -1.794303E+02  1.643404E-09 -1.242947E-09
         6  12 -2.280623E+06 -7.490075E+02 -1.373484E+04 -1.016114E+02  3.573541E-10 -2.731247E-10
         6  13 -2.280616E+06  6.456551E+01 -4.524873E+03  7.625756E-09  2.954759E-09  4.459478E-10
         6  14 -2.280253E+06  1.165783E+02 -7.759174E+03 -3.151831E-10  8.699852E-10 -8.067125E-10
         6  15 -2.280623E+06 -7.490075E+02 -1.373484E+04 -1.203891E-08  1.190350E-09 -4.066367E-10
         6  16 -2.280616E+06  6.456564E+01 -4.524873E+03  2.572501E+02 -1.181987E-09  4.077041E-10
         6  17 -2.280253E+06  1.165784E+02 -7.759174E+03  1.794303E+02 -7.650198E-10 -5.866132E-10
         6  18 -2.280623E+06 -7.490075E+02 -1.373484E+04  1.016114E+02  7.508314E-11 -3.859385E-10
         6  19 -2.280616E+06  6.456870E+01 -4.524851E+03 -2.572501E+02 -3.370376E+03  1.401492E-03
         6  20 -2.280253E+06  1.165924E+02 -7.759075E+03 -1.794303E+02 -7.218165E+03  2.093528E-03
         6  21 -2.280623E+06 -7.489745E+02 -1.373461E+04 -1.016114E+02 -1.106587E+04  1.817541E-03
         6  22 -2.280616E+06  6.456857E+01 -4.524851E+03  1.805598E-08 -3.370376E+03 -4.077795E-11
         6  23 -2.280253E+06  1.165924E+02 -7.759075E+03 -3.907678E-10 -7.218165E+03 -1.891766E-10
         6  24 -2.280623E+06 -7.489745E+02 -1.373461E+04 -4.028024E-09 -1.106587E+04 -3.762969E-10
         6  25 -2.280616E+06  6.456870E+01 -4.524851E+03  2.572501E+02 -3.370376E+03 -1.401492E-03
         6  26 -2.280253E+06  1.165924E+02 -7.759075E+03  1.794303E+02 -7.218165E+03 -2.093528E-03
         6  27 -2.280623E+06 -7.489745E+02 -1.373461E+04  1.016114E+02 -1.106587E+04 -1.817542E-03
         7   1 -2.281700E+06  7.915769E+02 -1.787460E+04 -2.482961E+03  1.384205E+04 -5.555553E-02
         7   2 -2.278922E+06  6.803219E+02 -3.087824E+04  1.135298E+03  2.937271E+04  5.390244E-02
         7   3 -2.281732E+06 -1.365284E+04 -5.757480E+04  4.753642E+03  4.490330E+04  3.450325E-01
         7   4 -2.281700E+06  7.915652E+02 -1.787461E+04  4.998590E-09  1.384205E+04  7.313446E-10
         7   5 -2.278922E+06  6.803195E+02 -3.087824E+04 -1.561376E-09  2.937271E+04  7.054356E-11
         7   6 -2.281732E+06 -1.365289E+04 -5.757481E+04  2.238169E-10  4.490330E+04 -1.955609E-09
         7   7 -2.281700E+06  7.915769E+02 -1.787460E+04  2.482961E+03  1.384205E+04  5.555553E-02
         7   8 -2.278922E+06  6.803219E+02 -3.087824E+04 -1.135298E+03  2.937271E+04 -5.390244E-02
         7   9 -2.281732E+06 -1.365284E+04 -5.757480E+04 -4.753642E+03  4.490330E+04 -3.450325E-01
         7  10 -2.281700E+06  7.915252E+02 -1.787497E+04 -2.482961E+03 -1.562884E-10  4.862242E-10
         7  11 -2.278923E+06  6.800893E+02 -3.087986E+04  1.135298E+03 -4.750660E-10  1.458695E-10
         7  12 -2.281734E+06 -1.365339E+04 -5.757860E+04  4.753642E+03  1.459591E-09 -1.163804E-09
         7  13 -2.281700E+06  7.915136E+02 -1.787497E+04  2.964176E-09 -8.033216E-10  4.169921E-10
         7  14 -2.278923E+06  6.800868E+02 -3.087986E+04  3.654844E-09 -3.868581E-09  3.482723E-10
         7  15 -2.281734E+06 -1.365343E+04 -5.757861E+04  5.934251E-09  1.955966E-10 -1.302072E-09
         7  16 -2.281700E+06  7.915252E+02 -1.787497E+04  2.482961E+03  2.570680E-10  3.712482E-10
         7  17 -2.278923E+06  6.800893E+02 -3.087986E+04 -1.135298E+03 -1.420026E-09  6.306151E-10
         7  18 -2.281734E+06 -1.365339E+04 -5.757860E+04 -4.753642E+03 -1.411814E-09 -1.490201E-09
         7  19 -2.281700E+06  7.915769E+02 -1.787460E+04 -2.482961E+03 -1.384205E+04  5.555553E-02
         7  20 -2.278922E+06  6.803219E+02 -3.087824E+04  1.135298E+03 -2.937271E+04 -5.390244E-02
         7  21 -2.281732E+06 -1.365284E+04 -5.757480E+04  4.753642E+03 -4.490330E+04 -3.450325E-01
         7  22 -2.281700E+06  7.915652E+02 -1.787461E+04  5.254734E-09 -1.384205E+04  5.504905E-11
         7  23 -2.278922E+06  6.803195E+02 -3.087824E+04  2.693582E-10 -2.937271E+04  7.526582E-10
         7  24 -2.281732E+06 -1.365289E+04 -5.757481E+04  3.593559E-09 -4.490330E+04 -6.260029E-10
         7  25 -2.281700E+06  7.915769E+02 -1.787460E+04  2.482961E+03 -1.384205E+04 -5.555553E-02
         7  26 -2.278922E+06  6.803219E+02 -3.087824E+04 -1.135298E+03 -2.937271E+04  5.390244E-02
         7  27 -2.281732E+06 -1.365284E+04 -5.757480E+04 -4.753642E+03 -4.490330E+04  3.450325E-01
         8   1 -2.294701E+06  1.160317E+04 -7.208823E+04 -3.251081E+04  5.525528E+04 -2.903795E+00
         8   2 -2.262746E+06  6.093109E+03 -1.216282E+05  3.391910E+04  1.198744E+05  6.572220E+00
         8   3 -2.294947E+06 -2.221025E+05 -2.690108E+05  1.003446E+05  1.844943E+05  2.992462E+01
         8   4 -2.294702E+06  1.160118E+04 -7.208852E+04  1.265398E-08  5.525528E+04 -2.129147E-09
         8   5 -2.262747E+06  6.090939E+03 -1.216285E+05  9.501570E-10  1.198744E+05 -4.103195E-10
         8   6 -2.294958E+06 -2.221215E+05 -2.690135E+05  5.125528E-09  1.844943E+05 -2.100891E-11
         8   7 -2.294701E+06  1.160317E+04 -7.208823E+04  3.251081E+04  5.525528E+04  2.903795E+00
         8   8 -2.262746E+06  6.093109E+03 -1.216282E+05 -3.391910E+04  1.198744E+05 -6.572220E+00
         8   9 -2.294947E+06 -2.221025E+05 -2.690108E+05 -1.003446E+05  1.844943E+05 -2.992462E+01
         8  10 -2.294705E+06  1.160235E+04 -7.209399E+04 -3.251081E+04 -1.952353E-09 -8.538447E-10
         8  11 -2.262761E+06  6.089233E+03 -1.216553E+05  3.391910E+04 -2.129025E-09  5.272690E-10
         8  12 -2.294984E+06 -2.221117E+05 -2.690750E+05  1.003446E+05 -1.226270E-09  3.198398E-10
         8  13 -2.294706E+06  1.160036E+04 -7.209427E+04  1.090936E-08 -2.185413E-09 -1.417894E-09
         8  14 -2.262763E+06  6.087064E+03 -1.216556E+05  4.327427E-09  6.055670E-10  1.441091E-10
         8  15 -2.294995E+06 -2.221307E+05 -2.690777E+05 -1.724831E-09 -5.632237E-10  2.244840E-10
         8  16 -2.294705E+06  1.160235E+04 -7.209399E+04  3.251081E+04  1.674304E-09 -1.870179E-09
         8  17 -2.262761E+06  6.089233E+03 -1.216553E+05 -3.391910E+04  4.721407E-10 -2.413146E-10
         8  18 -2.294984E+06 -2.221117E+05 -2.690750E+05 -1.003446E+05 -6.349977E-10  3.702168E-11
         8  19 -2.294701E+06  1.160317E+04 -7.208823E+04 -3.251081E+04 -5.525528E+04  2.903795E+00
         8  20 -2.262746E+06  6.093109E+03 -1.216282E+05  3.391910E+04 -1.198744E+05 -6.572220E+00
         8  21 -2.294947E+06 -2.221025E+05 -2.690108E+05  1.003446E+05 -1.844943E+05 -2.992462E+01
         8  22 -2.294702E+06  1.160118E+04 -7.208852E+04  9.135293E-09 -5.525528E+04 -6.926211E-10
         8  23 -2.262747E+06  6.090939E+03 -1.216285E+05  1.244098E-09 -1.198744E+05  6.422812E-10
         8  24 -2.294958E+06 -2.221215E+05 -2.690135E+05  4.898702E-09 -1.844943E+05  4.765291E-10
         8  25 -2.294701E+06  1.160317E+04 -7.208823E+04  3.251081E+04 -5.525528E+04 -2.903795E+00
         8  26 -2.262746E+06  6.093109E+03 -1.216282E+05 -3.391910E+04 -1.198744E+05  6.572220E+00
         8  27 -2.294947E+06 -2.221025E+05 -2.690108E+05 -1.003446E+05 -1.844943E+05  2.992462E+01
         9   1  1.808390E+06  5.910468E+06  1.764684E+06 -1.107277E+06  8.174009E+04  5.674807E+05
         9   2  1.344371E+06  4.831484E+06  1.201185E+06 -9.179174E+05  2.621327E+05  2.562952E+05
         9   3  1.056556E+06  3.840452E+06  8.837130E+05 -9.704868E+05  2.803253E+05 -5.431937E+04
         9   4  2.020182E+05 -6.018761E+05  2.257793E+05 -9.735870E+05  8.270788E+04  1.568930E+05
         9   5  3.760103E+04 -6.218092E+05  1.083294E+05 -8.529103E+05  2.627890E+05  1.014452E+05
         9   6  6.079821E+03 -5.983443E+05  6.076384E+04 -9.741378E+05  2.800871E+05  4.599755E+04
         9   7 -1.407236E+06 -7.075059E+06 -1.315428E+06 -8.412505E+05  8.350794E+04 -2.494481E+05
         9   8 -1.270971E+06 -6.046798E+06 -9.859461E+05 -7.884447E+05  2.634171E+05 -5.208210E+04
         9   9 -1.045519E+06 -5.018096E+06 -7.629783E+05 -9.777299E+05  2.798465E+05  1.456181E+05
         9  10  1.808297E+06  5.910123E+06  1.764072E+06 -1.107314E+06 -5.015984E-10  3.732139E-10
         9  11  1.344279E+06  4.831395E+06  1.200933E+06 -9.179713E+05  3.401759E-09 -8.958714E-11
         9  12  1.056471E+06  3.840428E+06  8.835600E+05 -9.704746E+05 -5.784802E-10 -8.745407E-10
         9  13  2.020042E+05 -6.019044E+05  2.257201E+05 -9.735975E+05  8.661524E-11  1.678993E-11
         9  14  3.752408E+04 -6.218389E+05  1.081801E+05 -8.529318E+05  8.014043E-11  3.007601E-11
         9  15  5.995010E+03 -5.983677E+05  6.061238E+04 -9.741482E+05  1.133084E-10  7.346483E-11
         9  16 -1.407261E+06 -7.075129E+06 -1.315559E+06 -8.412337E+05  1.139084E-09 -5.393182E-10
         9  17 -1.271046E+06 -6.046819E+06 -9.860815E+05 -7.884336E+05 -1.486138E-09  1.583124E-10
         9  18 -1.045609E+06 -5.018140E+06 -7.631658E+05 -9.777629E+05  2.299135E-09  1.091642E-09
         9  19  1.808390E+06  5.910468E+06  1.764684E+06 -1.107277E+06 -8.174009E+04 -5.674807E+05
         9  20  1.344371E+06  4.831484E+06  1.201185E+06 -9.179174E+05 -2.621327E+05 -2.562952E+05
         9  21  1.056556E+06  3.840452E+06  8.837130E+05 -9.704868E+05 -2.803253E+05  5.431937E+04
         9  22  2.020182E+05 -6.018761E+05  2.257793E+05 -9.735870E+05 -8.270788E+04 -1.568930E+05
         9  23  3.760103E+04 -6.218092E+05  1.083294E+05 -8.529103E+05 -2.627890E+05 -1.014452E+05
         9  24  6.079821E+03 -5.983443E+05  6.076384E+04 -9.741378E+05 -2.800871E+05 -4.599755E+04
         9  25 -1.407236E+06 -7.075059E+06 -1.315428E+06 -8.412505E+05 -8.350794E+04  2.494481E+05
         9  26 -1.270971E+06 -6.046798E+06 -9.859461E+05 -7.884447E+05 -2.634171E+05  5.208210E+04
         9  27 -1.045519E+06 -5.018096E+06 -7.629783E+05 -9.777299E+05 -2.798465E+05 -1.456181E+05
        10   1  8.987089E+05  3.137833E+06  7.366971E+05 -9.905380E+05  2.408485E+05 -3.913881E+04
        10   2  6.451596E+05  2.100451E+06  5.130968E+05 -8.597985E+05  1.866147E+05 -6.849170E+04
        10   3  4.027759E+05  1.069623E+06  3.109925E+05 -9.811393E+05  1.220415E+05 -9.796504E+04
        10   4  1.296688E+04 -6.062796E+05  4.658228E+04 -9.763490E+05  2.406218E+05  3.776580E+04
        10   5  6.792906E+03 -6.067401E+05  2.611815E+04 -8.502938E+05  1.862210E+05  2.461621E+04
        10   6  9.057162E+03 -6.044584E+05  1.598318E+04 -9.763815E+05  1.214563E+05  1.129933E+04
        10   7 -8.735705E+05 -4.336820E+06 -6.440922E+05 -9.622229E+05  2.403977E+05  1.142200E+05
        10   8 -6.319777E+05 -3.306785E+06 -4.611125E+05 -8.408187E+05  1.858290E+05  1.173303E+05
        10   9 -3.848086E+05 -2.275775E+06 -2.790838E+05 -9.716313E+05  1.208718E+05  1.202781E+05
        10  10  8.986463E+05  3.137816E+06  7.365853E+05 -9.905304E+05 -2.585062E-10  1.683051E-09
        10  11  6.451210E+05  2.100437E+06  5.130227E+05 -8.597883E+05  3.382242E-09 -1.332842E-09
        10  12  4.027574E+05  1.069608E+06  3.109466E+05 -9.811297E+05  1.480428E-09 -3.882053E-09
        10  13  1.290432E+04 -6.062967E+05  4.647076E+04 -9.763563E+05 -4.939757E-10  4.081412E-11
        10  14  6.755507E+03 -6.067501E+05  2.605183E+04 -8.502975E+05 -4.470534E-10  1.447737E-10
        10  15  9.041288E+03 -6.044625E+05  1.595522E+04 -9.763826E+05 -9.938806E-10 -5.977110E-12
        10  16 -8.736362E+05 -4.336850E+06 -6.442257E+05 -9.622451E+05  3.160778E-10 -1.407924E-09
        10  17 -6.320185E+05 -3.306809E+06 -4.612035E+05 -8.408363E+05  1.951019E-09  1.274212E-09
        10  18 -3.848282E+05 -2.275794E+06 -2.791386E+05 -9.716431E+05  4.729020E-10  3.792316E-09
        10  19  8.987089E+05  3.137833E+06  7.366971E+05 -9.905380E+05 -2.408485E+05  3.913881E+04
        10  20  6.451596E+05  2.100451E+06  5.130968E+05 -8.597985E+05 -1.866147E+05  6.849170E+04
        10  21  4.027759E+05  1.069623E+06  3.109925E+05 -9.811393E+05 -1.220415E+05  9.796504E+04
        10  22  1.296688E+04 -6.062796E+05  4.658228E+04 -9.763490E+05 -2.406218E+05 -3.776580E+04
        10  23  6.792906E+03 -6.067401E+05  2.611815E+04 -8.502938E+05 -1.862210E+05 -2.461621E+04
        10  24  9.057162E+03 -6.044584E+05  1.598318E+04 -9.763815E+05 -1.214563E+05 -1.129933E+04
        10  25 -8.735705E+05 -4.336820E+06 -6.440922E+05 -9.622229E+05 -2.403977E+05 -1.142200E+05
        10  26 -6.319777E+05 -3.306785E+06 -4.611125E+05 -8.408187E+05 -1.858290E+05 -1.173303E+05
        10  27 -3.848086E+05 -2.275775E+06 -2.790838E+05 -9.716313E+05 -1.208718E+05 -1.202781E+05
        11   1  2.402514E+05  3.814553E+05  1.797607E+05 -9.797926E+05  7.895083E+04 -1.037274E+05
        11   2 -5.571651E+03 -6.475806E+05 -2.481087E+04 -8.476604E+05  2.319046E+04 -5.708731E+04
        11   3 -2.527833E+05 -1.684395E+06 -2.608316E+05 -9.664826E+05  4.153334E+02 -1.042035E+04
        11   4  9.590796E+03 -6.046810E+05  1.276091E+04 -9.761123E+05  7.831353E+04  8.569920E+03
        11   5  9.824118E+03 -6.047567E+05  9.126233E+03 -8.506258E+05  2.284626E+04  3.710507E+03
        11   6  1.766554E+04 -6.047045E+05  9.822486E+03 -9.760746E+05  3.613445E+02 -1.045234E+03
        11   7 -2.211144E+05 -1.589833E+06 -1.542229E+05 -9.724362E+05  7.767690E+04  1.206947E+05
        11   8  2.522148E+04 -5.619240E+05  4.307729E+04 -8.535914E+05  2.250149E+04  6.451344E+04
        11   9  2.880263E+05  4.760447E+05  2.803885E+05 -9.856810E+05  3.071218E+02  8.346229E+03
        11  10  2.402418E+05  3.814421E+05  1.797289E+05 -9.797860E+05  4.976328E-10  1.153879E-09
        11  11 -5.573101E+03 -6.475843E+05 -2.481800E+04 -8.476593E+05 -6.957536E-10 -4.547272E-10
        11  12 -2.527833E+05 -1.684396E+06 -2.608318E+05 -9.664826E+05 -6.048164E-10 -1.998628E-09
        11  13  9.584190E+03 -6.046827E+05  1.274924E+04 -9.761128E+05  2.536563E-09  1.219252E-10
        11  14  9.823554E+03 -6.047568E+05  9.125226E+03 -8.506259E+05  3.595271E-09  1.023501E-10
        11  15  1.766554E+04 -6.047045E+05  9.822483E+03 -9.760746E+05  1.210377E-09  6.801854E-11
        11  16 -2.211248E+05 -1.589850E+06 -1.542618E+05 -9.724437E+05  7.776226E-10 -1.105437E-09
        11  17  2.521982E+04 -5.619286E+05  4.306850E+04 -8.535926E+05  1.553229E-09  4.932209E-10
        11  18  2.880263E+05  4.760446E+05  2.803883E+05 -9.856810E+05  6.141253E-10  2.204272E-09
        11  19  2.402514E+05  3.814553E+05  1.797607E+05 -9.797926E+05 -7.895083E+04  1.037274E+05
        11  20 -5.571651E+03 -6.475806E+05 -2.481087E+04 -8.476604E+05 -2.319046E+04  5.708731E+04
        11  21 -2.527833E+05 -1.684395E+06 -2.608316E+05 -9.664826E+05 -4.153334E+02  1.042035E+04
        11  22  9.590796E+03 -6.046810E+05  1.276091E+04 -9.761123E+05 -7.831353E+04 -8.569920E+03
        11  23  9.824118E+03 -6.047567E+05  9.126233E+03 -8.506258E+05 -2.284626E+04 -3.710507E+03
        11  24  1.766554E+04 -6.047045E+05  9.822486E+03 -9.760746E+05 -3.613445E+02  1.045234E+03
        11  25 -2.211144E+05 -1.589833E+06 -1.542229E+05 -9.724362E+05 -7.767690E+04 -1.206947E+05
        11  26  2.522148E+04 -5.619240E+05  4.307729E+04 -8.535914E+05 -2.250149E+04 -6.451344E+04
        11  27  2.880263E+05  4.760447E+05  2.803885E+05 -9.856810E+05 -3.071218E+02 -8.346229E+03
        12   1 -3.037679E+06 -8.175844E+05 -3.863101E+05 -1.164435E+06 -2.284251E+05 -8.391122E+04
        12   2 -2.988595E+06 -4.706154E+05 -1.743777E+05 -1.170978E+06 -1.447925E+05 -4.960860E+04
        12   3 -3.043025E+06 -4.121908E+05 -1.013771E+05 -1.120136E+06 -5.973229E+04 -1.909615E+04
        12   4 -2.995268E+06 -6.878782E+05 -3.525996E+05 -1.035804E+06 -2.248930E+05 -8.263976E+04
        12   5 -2.924675E+06 -4.093067E+05 -1.515455E+05 -1.114861E+06 -1.442453E+05 -4.941445E+04
        12   6 -2.956992E+06 -4.186934E+05 -8.704260E+04 -1.136541E+06 -6.216638E+04 -2.000397E+04
        12   7 -2.952824E+06 -5.580972E+05 -3.188821E+05 -9.071553E+05 -2.213606E+05 -8.136658E+04
        12   8 -2.860748E+06 -3.479870E+05 -1.287131E+05 -1.058736E+06 -1.436980E+05 -4.922019E+04
        12   9 -2.870949E+06 -4.251921E+05 -7.270725E+04 -1.152950E+06 -6.460086E+04 -2.091155E+04
        12  10 -3.037737E+06 -8.176061E+05 -3.864220E+05 -1.164450E+06 -6.264968E-10 -1.496297E-11
        12  11 -2.988618E+06 -4.706238E+05 -1.744220E+05 -1.170984E+06  1.836125E-09  2.401865E-10
        12  12 -3.043029E+06 -4.121922E+05 -1.013846E+05 -1.120137E+06 -6.378383E-10  2.958805E-10
        12  13 -2.995325E+06 -6.878992E+05 -3.527080E+05 -1.035819E+06 -1.131977E-09  6.311844E-12
        12  14 -2.924698E+06 -4.093149E+05 -1.515894E+05 -1.114867E+06 -1.586910E-11  1.041299E-10
        12  15 -2.956997E+06 -4.186949E+05 -8.705066E+04 -1.136543E+06 -6.617417E-10  6.432621E-11
        12  16 -2.952879E+06 -5.581176E+05 -3.189872E+05 -9.071699E+05 -2.022769E-09 -2.821968E-11
        12  17 -2.860771E+06 -3.479951E+05 -1.287567E+05 -1.058742E+06 -2.163908E-09 -2.479598E-10
        12  18 -2.870953E+06 -4.251937E+05 -7.271596E+04 -1.152951E+06  8.848503E-10 -3.754584E-11
        12  19 -3.037679E+06 -8.175844E+05 -3.863101E+05 -1.164435E+06  2.284251E+05  8.391122E+04
        12  20 -2.988595E+06 -4.706154E+05 -1.743777E+05 -1.170978E+06  1.447925E+05  4.960860E+04
        12  21 -3.043025E+06 -4.121908E+05 -1.013771E+05 -1.120136E+06  5.973229E+04  1.909615E+04
        12  22 -2.995268E+06 -6.878782E+05 -3.525996E+05 -1.035804E+06  2.248930E+05  8.263976E+04
        12  23 -2.924675E+06 -4.093067E+05 -1.515455E+05 -1.114861E+06  1.442453E+05  4.941445E+04
        12  24 -2.956992E+06 -4.186934E+05 -8.704260E+04 -1.136541E+06  6.216638E+04  2.000397E+04
        12  25 -2.952824E+06 -5.580972E+05 -3.188821E+05 -9.071553E+05  2.213606E+05  8.136658E+04
        12  26 -2.860748E+06 -3.479870E+05 -1.287131E+05 -1.058736E+06  1.436980E+05  4.922019E+04
        12  27 -2.870949E+06 -4.251921E+05 -7.270725E+04 -1.152950E+06  6.460086E+04  2.091155E+04
        13   1 -2.968756E+06 -4.621903E+05 -7.617741E+04 -1.131882E+06 -4.901856E+04 -1.681688E+04
        13   2 -2.938150E+06 -4.216159E+05 -3.367436E+04 -1.117566E+06 -3.030215E+04 -1.175021E+04
        13   3 -2.905301E+06 -4.121780E+05 -9.885923E+03 -1.112488E+06 -1.151845E+04 -6.858213E+03
        13   4 -2.945764E+06 -4.474265E+05 -6.936780E+04 -1.119208E+06 -5.028862E+04 -1.729357E+04
        13   5 -2.945600E+06 -4.228160E+05 -3.521688E+04 -1.117972E+06 -3.170889E+04 -1.227763E+04
        13   6 -2.943165E+06 -4.293147E+05 -1.967050E+04 -1.125974E+06 -1.306288E+04 -7.437062E+03
        13   7 -2.922771E+06 -4.326623E+05 -6.255823E+04 -1.106534E+06 -5.155873E+04 -1.777031E+04
        13   8 -2.953049E+06 -4.240161E+05 -3.675939E+04 -1.118378E+06 -3.311560E+04 -1.280504E+04
        13   9 -2.981028E+06 -4.464508E+05 -2.945508E+04 -1.139459E+06 -1.460719E+04 -8.015848E+03
        13  10 -2.968759E+06 -4.621912E+05 -7.618248E+04 -1.131882E+06 -1.874953E-09  3.203573E-10
        13  11 -2.938151E+06 -4.216163E+05 -3.367635E+04 -1.117566E+06 -2.701311E-09  8.547287E-10
        13  12 -2.905301E+06 -4.121781E+05 -9.886262E+03 -1.112488E+06 -2.167434E-10  1.151651E-10
        13  13 -2.945767E+06 -4.474275E+05 -6.937314E+04 -1.119209E+06  1.113735E-09  2.783878E-10
        13  14 -2.945601E+06 -4.228164E+05 -3.521907E+04 -1.117972E+06  3.169823E-11  4.187977E-10
        13  15 -2.943166E+06 -4.293148E+05 -1.967092E+04 -1.125974E+06  1.286698E-09 -1.936174E-10
        13  16 -2.922774E+06 -4.326634E+05 -6.256385E+04 -1.106535E+06 -4.388623E-10  2.747843E-10
        13  17 -2.953050E+06 -4.240166E+05 -3.676178E+04 -1.118378E+06 -8.250215E-10  3.529544E-11
        13  18 -2.981028E+06 -4.464510E+05 -2.945560E+04 -1.139459E+06 -1.231792E-09 -2.667539E-10
        13  19 -2.968756E+06 -4.621903E+05 -7.617741E+04 -1.131882E+06  4.901856E+04  1.681688E+04
        13  20 -2.938150E+06 -4.216159E+05 -3.367436E+04 -1.117566E+06  3.030215E+04  1.175021E+04
        13  21 -2.905301E+06 -4.121780E+05 -9.885923E+03 -1.112488E+06  1.151845E+04  6.858213E+03
        13  22 -2.945764E+06 -4.474265E+05 -6.936780E+04 -1.119208E+06  5.028862E+04  1.729357E+04
        13  23 -2.945600E+06 -4.228160E+05 -3.521688E+04 -1.117972E+06  3.170889E+04  1.227763E+04
        13  24 -2.943165E+06 -4.293147E+05 -1.967050E+04 -1.125974E+06  1.306288E+04  7.437062E+03
        13  25 -2.922771E+06 -4.326623E+05 -6.255823E+04 -1.106534E+06  5.155873E+04  1.777031E+04
        13  26 -2.953049E+06 -4.240161E+05 -3.675939E+04 -1.118378E+06  3.311560E+04  1.280504E+04
        13  27 -2.981028E+06 -4.464508E+05 -2.945508E+04 -1.139459E+06  1.460719E+04  8.015848E+03
        14   1 -2.871658E+06 -4.048761E+05  2.486053E+03 -1.105467E+06 -8.384318E+03 -6.976143E+03
        14   2 -2.843632E+06 -3.852191E+05  1.749004E+04 -1.089796E+06 -3.592176E+03 -7.338857E+03
        14   3 -2.804968E+06 -3.786066E+05  2.909063E+04 -1.087328E+06  1.197790E+03 -7.694152E+03
        14   4 -2.942132E+06 -4.311426E+05 -1.503583E+04 -1.124667E+06 -9.869025E+03 -7.532729E+03
        14   5 -2.947367E+06 -4.240524E+05 -8.163231E+03 -1.118276E+06 -5.071637E+03 -7.893618E+03
        14   6 -2.941966E+06 -4.300079E+05 -4.698015E+03 -1.125090E+06 -2.766724E+02 -8.247174E+03
        14   7 -3.012602E+06 -4.574090E+05 -3.255828E+04 -1.143865E+06 -1.135356E+04 -8.089252E+03
        14   8 -3.051092E+06 -4.628852E+05 -3.381755E+04 -1.146753E+06 -6.550838E+03 -8.448280E+03
        14   9 -3.078945E+06 -4.814082E+05 -3.848830E+04 -1.162844E+06 -1.750786E+03 -8.800063E+03
        14  10 -2.871658E+06 -4.048762E+05  2.485829E+03 -1.105468E+06 -1.089041E-10 -4.553264E-10
        14  11 -2.843632E+06 -3.852192E+05  1.748992E+04 -1.089796E+06 -4.984489E-10 -3.951987E-11
        14  12 -2.804968E+06 -3.786067E+05  2.909051E+04 -1.087328E+06 -1.561404E-09  2.486922E-11
        14  13 -2.942132E+06 -4.311427E+05 -1.503612E+04 -1.124667E+06  2.097243E-09 -3.293661E-10
        14  14 -2.947367E+06 -4.240524E+05 -8.163397E+03 -1.118276E+06  1.531931E-09  9.361565E-11
        14  15 -2.941966E+06 -4.300080E+05 -4.698143E+03 -1.125090E+06 -3.727733E-09  4.346711E-10
        14  16 -3.012602E+06 -4.574091E+05 -3.255865E+04 -1.143866E+06 -5.630172E-10  3.621518E-10
        14  17 -3.051092E+06 -4.628853E+05 -3.381777E+04 -1.146753E+06  3.472090E-12  7.025095E-10
        14  18 -3.078945E+06 -4.814082E+05 -3.848845E+04 -1.162844E+06 -7.375311E-10  4.153446E-11
        14  19 -2.871658E+06 -4.048761E+05  2.486053E+03 -1.105467E+06  8.384318E+03  6.976143E+03
        14  20 -2.843632E+06 -3.852191E+05  1.749004E+04 -1.089796E+06  3.592176E+03  7.338857E+03
        14  21 -2.804968E+06 -3.786066E+05  2.909063E+04 -1.087328E+06 -1.197790E+03  7.694152E+03
        14  22 -2.942132E+06 -4.311426E+05 -1.503583E+04 -1.124667E+06  9.869025E+03  7.532729E+03
        14  23 -2.947367E+06 -4.240524E+05 -8.163231E+03 -1.118276E+06  5.071637E+03  7.893618E+03
        14  24 -2.941966E+06 -4.300079E+05 -4.698015E+03 -1.125090E+06  2.766724E+02  8.247174E+03
        14  25 -3.012602E+06 -4.574090E+05 -3.255828E+04 -1.143865E+06  1.135356E+04  8.089252E+03
        14  26 -3.051092E+06 -4.628852E+05 -3.381755E+04 -1.146753E+06  6.550838E+03  8.448280E+03
        14  27 -3.078945E+06 -4.814082E+05 -3.848830E+04 -1.162844E+06  1.750786E+03  8.800063E+03
        15   1 -2.775121E+06 -3.676732E+05  3.765940E+04 -1.079216E+06  2.279011E+03 -8.532086E+03
        15   2 -2.748324E+06 -3.499084E+05  4.674122E+04 -1.063905E+06  4.185414E+03 -9.924661E+03
        15   3 -2.710405E+06 -3.435548E+05  5.489666E+04 -1.061557E+06  6.082703E+03 -1.129093E+04
        15   4 -2.941916E+06 -4.300284E+05 -3.691589E+03 -1.124894E+06  8.217111E+02 -9.078792E+03
        15   5 -2.947472E+06 -4.243002E+05 -2.477196E+03 -1.118420E+06  2.748227E+03 -1.046406E+04
        15   6 -2.941913E+06 -4.299876E+05 -2.205346E+03 -1.124910E+06  4.665566E+03 -1.182305E+04
        15   7 -3.108681E+06 -4.923812E+05 -4.504433E+04 -1.170561E+06 -6.351470E+02 -9.625331E+03
        15   8 -3.146581E+06 -4.986892E+05 -5.169850E+04 -1.172920E+06  1.311549E+03 -1.100328E+04
        15   9 -3.173368E+06 -5.164170E+05 -5.931165E+04 -1.188243E+06  3.249003E+03 -1.235496E+04
        15  10 -2.775122E+06 -3.676733E+05  3.765925E+04 -1.079216E+06  4.746449E-10  5.802111E-10
        15  11 -2.748324E+06 -3.499085E+05  4.674100E+04 -1.063905E+06  1.561944E-09 -7.902862E-10
        15  12 -2.710405E+06 -3.435549E+05  5.489635E+04 -1.061557E+06 -5.694858E-10 -1.092820E-10
        15  13 -2.941916E+06 -4.300285E+05 -3.691745E+03 -1.124894E+06 -3.270479E-09  3.884502E-11
        15  14 -2.947472E+06 -4.243004E+05 -2.477415E+03 -1.118420E+06 -7.972276E-10 -1.752015E-10
        15  15 -2.941913E+06 -4.299877E+05 -2.205649E+03 -1.124910E+06  1.426171E-09  4.033051E-10
        15  16 -3.108681E+06 -4.923813E+05 -4.504450E+04 -1.170561E+06 -5.482365E-10 -5.467197E-10
        15  17 -3.146581E+06 -4.986893E+05 -5.169873E+04 -1.172920E+06 -6.397181E-10  1.958646E-10
        15  18 -3.173368E+06 -5.164172E+05 -5.931195E+04 -1.188243E+06  1.814999E-09  6.938523E-10
        15  19 -2.775121E+06 -3.676732E+05  3.765940E+04 -1.079216E+06 -2.279011E+03  8.532086E+03
        15  20 -2.748324E+06 -3.499084E+05  4.674122E+04 -1.063905E+06 -4.185414E+03  9.924661E+03
        15  21 -2.710405E+06 -3.435548E+05  5.489666E+04 -1.061557E+06 -6.082703E+03  1.129093E+04
        15  22 -2.941916E+06 -4.300284E+05 -3.691589E+03 -1.124894E+06 -8.217111E+02  9.078792E+03
        15  23 -2.947472E+06 -4.243002E+05 -2.477196E+03 -1.118420E+06 -2.748227E+03  1.046406E+04
        15  24 -2.941913E+06 -4.299876E+05 -2.205346E+03 -1.124910E+06 -4.665566E+03  1.182305E+04
        15  25 -3.108681E+06 -4.923812E+05 -4.504433E+04 -1.170561E+06  6.351470E+02  9.625331E+03
        15  26 -3.146581E+06 -4.986892E+05 -5.169850E+04 -1.172920E+06 -1.311549E+03  1.100328E+04
        15  27 -3.173368E+06 -5.164170E+05 -5.931165E+04 -1.188243E+06 -3.249003E+03  1.235496E+04
        16   1 -2.682094E+06 -3.327881E+05  6.199887E+04 -1.053672E+06  6.828966E+03 -1.220232E+04
        16   2 -2.656683E+06 -3.159803E+05  6.847268E+04 -1.039120E+06  9.119577E+03 -1.334834E+04
        16   3 -2.620782E+06 -3.100544E+05  7.370158E+04 -1.036854E+06  1.139589E+04 -1.445361E+04
        16   4 -2.942056E+06 -4.298565E+05 -2.356845E+03 -1.124767E+06  5.435452E+03 -1.272576E+04
        16   5 -2.947308E+06 -4.244676E+05 -3.336678E+03 -1.118604E+06  7.757049E+03 -1.386049E+04
        16   6 -2.942078E+06 -4.299672E+05 -5.586408E+03 -1.124729E+06  1.006427E+04 -1.495449E+04
        16   7 -3.201949E+06 -5.269199E+05 -6.671745E+04 -1.195835E+06  4.042583E+03 -1.324896E+04
        16   8 -3.237849E+06 -5.329493E+05 -7.515254E+04 -1.198055E+06  6.395220E+03 -1.437237E+04
        16   9 -3.263273E+06 -5.498736E+05 -8.488273E+04 -1.212562E+06  8.733394E+03 -1.545509E+04
        16  10 -2.682095E+06 -3.327883E+05  6.199850E+04 -1.053672E+06 -2.537340E-10  7.082784E-10
        16  11 -2.656683E+06 -3.159805E+05  6.847219E+04 -1.039120E+06 -2.065463E-09 -4.661672E-10
        16  12 -2.620783E+06 -3.100547E+05  7.370095E+04 -1.036854E+06 -5.075779E-10 -3.156952E-10
        16  13 -2.942056E+06 -4.298567E+05 -2.357204E+03 -1.124767E+06 -2.125752E-09  1.282859E-10
        16  14 -2.947308E+06 -4.244678E+05 -3.337151E+03 -1.118604E+06  1.947935E-09 -7.567688E-10
        16  15 -2.942078E+06 -4.299675E+05 -5.587018E+03 -1.124729E+06  1.153495E-09 -1.071608E-10
        16  16 -3.201949E+06 -5.269201E+05 -6.671781E+04 -1.195835E+06  6.319956E-10 -2.399303E-10
        16  17 -3.237849E+06 -5.329495E+05 -7.515300E+04 -1.198055E+06  5.143438E-10 -1.063931E-09
        16  18 -3.263273E+06 -5.498739E+05 -8.488332E+04 -1.212562E+06  1.798395E-09 -3.961848E-11
        16  19 -2.682094E+06 -3.327881E+05  6.199887E+04 -1.053672E+06 -6.828966E+03  1.220232E+04
        16  20 -2.656683E+06 -3.159803E+05  6.847268E+04 -1.039120E+06 -9.119577E+03  1.334834E+04
        16  21 -2.620782E+06 -3.100544E+05  7.370158E+04 -1.036854E+06 -1.139589E+04  1.445361E+04
        16  22 -2.942056E+06 -4.298565E+05 -2.356845E+03 -1.124767E+06 -5.435452E+03  1.272576E+04
        16  23 -2.947308E+06 -4.244676E+05 -3.336678E+03 -1.118604E+06 -7.757049E+03  1.386049E+04
        16  24 -2.942078E+06 -4.299672E+05 -5.586408E+03 -1.124729E+06 -1.006427E+04  1.495449E+04
        16  25 -3.201949E+06 -5.269199E+05 -6.671745E+04 -1.195835E+06 -4.042583E+03  1.324896E+04
        16  26 -3.237849E+06 -5.329493E+05 -7.515254E+04 -1.198055E+06 -6.395220E+03  1.437237E+04
        16  27 -3.263273E+06 -5.498736E+05 -8.488273E+04 -1.212562E+06 -8.733394E+03  1.545509E+04
        17   1 -2.594314E+06 -2.999615E+05  7.878609E+04 -1.029802E+06  1.279962E+04 -1.504577E+04
        17   2 -2.570522E+06 -2.840214E+05  7.996710E+04 -1.015888E+06  1.985806E+04 -1.424903E+04
        17   3 -2.538383E+06 -2.801975E+05  7.578227E+04 -1.013025E+06  2.688611E+04 -1.336797E+04
        17   4 -2.942473E+06 -4.296252E+05 -7.293869E+03 -1.124689E+06  1.149086E+04 -1.553829E+04
        17   5 -2.946781E+06 -4.244913E+05 -1.300243E+04 -1.118817E+06  1.861129E+04 -1.471867E+04
        17   6 -2.942757E+06 -4.314878E+05 -2.412855E+04 -1.123998E+06  2.570099E+04 -1.381483E+04
        17   7 -3.290512E+06 -5.592809E+05 -9.338316E+04 -1.219527E+06  1.018290E+04 -1.603052E+04
        17   8 -3.322900E+06 -5.649514E+05 -1.059826E+05 -1.221689E+06  1.736535E+04 -1.518800E+04
        17   9 -3.346966E+06 -5.827662E+05 -1.240514E+05 -1.234903E+06  2.451673E+04 -1.426137E+04
        17  10 -2.594315E+06 -2.999618E+05  7.878536E+04 -1.029802E+06  6.863551E-10  5.008524E-10
        17  11 -2.570523E+06 -2.840217E+05  7.996598E+04 -1.015888E+06  1.363886E-09 -1.406253E-10
        17  12 -2.538384E+06 -2.801979E+05  7.578058E+04 -1.013025E+06 -2.997050E-10 -1.809083E-10
        17  13 -2.942473E+06 -4.296255E+05 -7.294570E+03 -1.124689E+06 -2.424798E-09  3.886306E-10
        17  14 -2.946782E+06 -4.244916E+05 -1.300349E+04 -1.118817E+06 -1.977534E-10  1.675231E-10
        17  15 -2.942757E+06 -4.314882E+05 -2.413015E+04 -1.123997E+06 -2.803866E-09 -6.303645E-10
        17  16 -3.290512E+06 -5.592812E+05 -9.338383E+04 -1.219526E+06 -6.906950E-11  2.000578E-10
        17  17 -3.322900E+06 -5.649517E+05 -1.059836E+05 -1.221688E+06 -1.630809E-09  2.483588E-10
        17  18 -3.346967E+06 -5.827665E+05 -1.240530E+05 -1.234903E+06 -2.873538E-09 -6.621377E-10
        17  19 -2.594314E+06 -2.999615E+05  7.878609E+04 -1.029802E+06 -1.279962E+04  1.504577E+04
        17  20 -2.570522E+06 -2.840214E+05  7.996710E+04 -1.015888E+06 -1.985806E+04  1.424903E+04
        17  21 -2.538383E+06 -2.801975E+05  7.578227E+04 -1.013025E+06 -2.688611E+04  1.336797E+04
        17  22 -2.942473E+06 -4.296252E+05 -7.293869E+03 -1.124689E+06 -1.149086E+04  1.553829E+04
        17  23 -2.946781E+06 -4.244913E+05 -1.300243E+04 -1.118817E+06 -1.861129E+04  1.471867E+04
        17  24 -2.942757E+06 -4.314878E+05 -2.412855E+04 -1.123998E+06 -2.570099E+04  1.381483E+04
        17  25 -3.290512E+06 -5.592809E+05 -9.338316E+04 -1.219527E+06 -1.018290E+04  1.603052E+04
        17  26 -3.322900E+06 -5.649514E+05 -1.059826E+05 -1.221689E+06 -1.736535E+04  1.518800E+04
        17  27 -3.346966E+06 -5.827662E+05 -1.240514E+05 -1.234903E+06 -2.451673E+04  1.426137E+04
        18   1 -2.512383E+06 -2.714630E+05  7.446817E+04 -1.012265E+06  3.187127E+04 -1.259697E+04
        18   2 -2.491365E+06 -2.510989E+05  5.564782E+04 -9.919824E+05  6.065006E+04 -3.296729E+03
        18   3 -2.476559E+06 -2.705492E+05  7.397028E+03 -9.749030E+05  8.913993E+04  6.776265E+03
        18   4 -2.944684E+06 -4.282734E+05 -3.160665E+04 -1.125788E+06  3.050967E+04 -1.311025E+04
        18   5 -2.943625E+06 -4.228770E+05 -5.667612E+04 -1.118719E+06  5.987245E+04 -3.591197E+03
        18   6 -2.948907E+06 -4.574283E+05 -1.116574E+05 -1.114854E+06  8.894516E+04  6.699631E+03
        18   7 -3.376802E+06 -5.850746E+05 -1.376962E+05 -1.239241E+06  2.914910E+04 -1.362316E+04
        18   8 -3.395684E+06 -5.946399E+05 -1.690163E+05 -1.245372E+06  5.909545E+04 -3.885430E+03
        18   9 -3.421034E+06 -6.442851E+05 -2.307297E+05 -1.254705E+06  8.875053E+04  6.623056E+03
        18  10 -2.512384E+06 -2.714634E+05  7.446595E+04 -1.012265E+06 -2.576409E-09 -3.429844E-10
        18  11 -2.491369E+06 -2.510999E+05  5.564086E+04 -9.919822E+05 -2.660983E-09  6.615893E-11
        18  12 -2.476568E+06 -2.705514E+05  7.381948E+03 -9.749035E+05  7.134287E-10 -9.755394E-10
        18  13 -2.944685E+06 -4.282738E+05 -3.160872E+04 -1.125788E+06 -2.206396E-09 -6.506365E-10
        18  14 -2.943629E+06 -4.228780E+05 -5.668291E+04 -1.118719E+06  8.943870E-10 -2.257359E-10
        18  15 -2.948916E+06 -4.574305E+05 -1.116724E+05 -1.114854E+06 -1.823770E-09 -1.215651E-09
        18  16 -3.376803E+06 -5.850750E+05 -1.376981E+05 -1.239241E+06 -1.022643E-09 -9.875417E-10
        18  17 -3.395688E+06 -5.946409E+05 -1.690229E+05 -1.245372E+06  3.917884E-09 -1.537421E-09
        18  18 -3.421043E+06 -6.442872E+05 -2.307446E+05 -1.254706E+06 -1.237474E-09 -1.105331E-09
        18  19 -2.512383E+06 -2.714630E+05  7.446817E+04 -1.012265E+06 -3.187127E+04  1.259697E+04
        18  20 -2.491365E+06 -2.510989E+05  5.564782E+04 -9.919824E+05 -6.065006E+04  3.296729E+03
        18  21 -2.476559E+06 -2.705492E+05  7.397028E+03 -9.749030E+05 -8.913993E+04 -6.776265E+03
        18  22 -2.944684E+06 -4.282734E+05 -3.160665E+04 -1.125788E+06 -3.050967E+04  1.311025E+04
        18  23 -2.943625E+06 -4.228770E+05 -5.667612E+04 -1.118719E+06 -5.987245E+04  3.591197E+03
        18  24 -2.948907E+06 -4.574283E+05 -1.116574E+05 -1.114854E+06 -8.894516E+04 -6.699631E+03
        18  25 -3.376802E+06 -5.850746E+05 -1.376962E+05 -1.239241E+06 -2.914910E+04  1.362316E+04
        18  26 -3.395684E+06 -5.946399E+05 -1.690163E+05 -1.245372E+06 -5.909545E+04  3.885430E+03
        18  27 -3.421034E+06 -6.442851E+05 -2.307297E+05 -1.254705E+06 -8.875053E+04 -6.623056E+03
        19   1 -2.420342E+06 -2.687731E+05 -1.643788E+04 -1.056577E+06  1.128326E+05  1.292157E+04
        19   2 -2.431191E+06 -1.615344E+05 -1.135435E+05 -9.204508E+05  2.317711E+05  5.956958E+04
        19   3 -2.616830E+06 -5.033762E+05 -4.208881E+05 -6.783893E+05  3.449648E+05  1.214766E+05
        19   4 -2.967175E+06 -4.109739E+05 -1.401114E+05 -1.142534E+06  1.080405E+05  1.112742E+04
        19   5 -2.909617E+06 -4.014886E+05 -2.439478E+05 -1.114095E+06  2.388064E+05  6.219254E+04
        19   6 -3.029393E+06 -8.437193E+05 -5.675586E+05 -9.796617E+05  3.638368E+05  1.284675E+05
        19   7 -3.513704E+06 -5.531808E+05 -2.638010E+05 -1.228439E+06  1.032530E+05  9.333805E+03
        19   8 -3.387804E+06 -6.413667E+05 -3.743709E+05 -1.307584E+06  2.458358E+05  6.481149E+04
        19   9 -3.441703E+06 -1.183769E+06 -7.142326E+05 -1.280690E+06  3.826951E+05  1.354390E+05
        19  10 -2.420356E+06 -2.687767E+05 -1.646222E+04 -1.056578E+06 -1.440456E-09 -1.601839E-09
        19  11 -2.431250E+06 -1.615528E+05 -1.136516E+05 -9.204620E+05 -7.454405E-10  1.201148E-09
        19  12 -2.616962E+06 -5.034242E+05 -4.211406E+05 -6.784231E+05  1.440276E-09  6.191095E-10
        19  13 -2.967188E+06 -4.109772E+05 -1.401337E+05 -1.142535E+06 -3.188496E-09 -5.393352E-10
        19  14 -2.909679E+06 -4.015082E+05 -2.440629E+05 -1.114107E+06  1.215028E-09 -1.106688E-09
        19  15 -3.029541E+06 -8.437729E+05 -5.678399E+05 -9.796994E+05  6.202559E-10 -2.113939E-10
        19  16 -3.513716E+06 -5.531838E+05 -2.638213E+05 -1.228439E+06  2.142765E-09  8.165066E-11
        19  17 -3.387870E+06 -6.413876E+05 -3.744931E+05 -1.307596E+06  3.422730E-09 -2.744061E-10
        19  18 -3.441866E+06 -1.183828E+06 -7.145442E+05 -1.280732E+06  1.487814E-09 -4.383245E-10
        19  19 -2.420342E+06 -2.687731E+05 -1.643788E+04 -1.056577E+06 -1.128326E+05 -1.292157E+04
        19  20 -2.431191E+06 -1.615344E+05 -1.135435E+05 -9.204508E+05 -2.317711E+05 -5.956958E+04
        19  21 -2.616830E+06 -5.033762E+05 -4.208881E+05 -6.783893E+05 -3.449648E+05 -1.214766E+05
        19  22 -2.967175E+06 -4.109739E+05 -1.401114E+05 -1.142534E+06 -1.080405E+05 -1.112742E+04
        19  23 -2.909617E+06 -4.014886E+05 -2.439478E+05 -1.114095E+06 -2.388064E+05 -6.219254E+04
        19  24 -3.029393E+06 -8.437193E+05 -5.675586E+05 -9.796617E+05 -3.638368E+05 -1.284675E+05
        19  25 -3.513704E+06 -5.531808E+05 -2.638010E+05 -1.228439E+06 -1.032530E+05 -9.333805E+03
        19  26 -3.387804E+06 -6.413667E+05 -3.743709E+05 -1.307584E+06 -2.458358E+05 -6.481149E+04
        19  27 -3.441703E+06 -1.183769E+06 -7.142326E+05 -1.280690E+06 -3.826951E+05 -1.354390E+05
        20   1 -7.948522E+05  3.466162E+04  4.199039E+04  1.568229E+04  2.882581E+04  7.290400E-01
        20   2 -7.998614E+05 -9.439564E+02  1.899172E+04  5.301617E+03  1.873490E+04  1.601850E-01
        20   3 -7.948670E+05 -1.809624E+03  1.125417E+04 -5.078793E+03  8.644120E+03 -7.080106E-02
        20   4 -7.948525E+05  3.466116E+04  4.199033E+04  6.012100E-09  2.882581E+04  1.357071E-10
        20   5 -7.998614E+05 -9.440093E+02  1.899172E+04 -5.746755E-09  1.873490E+04  6.017982E-10
        20   6 -7.948671E+05 -1.809673E+03  1.125417E+04  2.692100E-10  8.644120E+03  9.444249E-10
        20   7 -7.948522E+05  3.466162E+04  4.199039E+04 -1.568229E+04  2.882581E+04 -7.290400E-01
        20   8 -7.998614E+05 -9.439564E+02  1.899172E+04 -5.301617E+03  1.873490E+04 -1.601850E-01
        20   9 -7.948670E+05 -1.809624E+03  1.125417E+04  5.078793E+03  8.644120E+03  7.080106E-02
        20  10 -7.948531E+05  3.466140E+04  4.198883E+04  1.568229E+04 -2.778330E-10 -2.067203E-10
        20  11 -7.998618E+05 -9.440507E+02  1.899106E+04  5.301617E+03 -1.391283E-09 -4.592558E-10
        20  12 -7.948671E+05 -1.809644E+03  1.125403E+04 -5.078793E+03 -2.092031E-09  3.031950E-11
        20  13 -7.948534E+05  3.466094E+04  4.198876E+04 -5.192217E-10  1.062438E-10 -1.301593E-10
        20  14 -7.998618E+05 -9.441036E+02  1.899106E+04  7.413227E-10 -9.279258E-28 -2.381878E-10
        20  15 -7.948672E+05 -1.809693E+03  1.125402E+04 -2.296227E-09 -8.889388E-10  2.178303E-10
        20  16 -7.948531E+05  3.466140E+04  4.198883E+04 -1.568229E+04  1.747587E-09 -4.931241E-11
        20  17 -7.998618E+05 -9.440507E+02  1.899106E+04 -5.301617E+03 -5.944331E-10  1.310303E-11
        20  18 -7.948671E+05 -1.809644E+03  1.125403E+04  5.078793E+03  9.990435E-10  3.760117E-10
        20  19 -7.948522E+05  3.466162E+04  4.199039E+04  1.568229E+04 -2.882581E+04 -7.290400E-01
        20  20 -7.998614E+05 -9.439564E+02  1.899172E+04  5.301617E+03 -1.873490E+04 -1.601850E-01
        20  21 -7.948670E+05 -1.809624E+03  1.125417E+04 -5.078793E+03 -8.644120E+03  7.080106E-02
        20  22 -7.948525E+05  3.466116E+04  4.199033E+04  1.018624E-08 -2.882581E+04 -4.208925E-10
        20  23 -7.998614E+05 -9.440093E+02  1.899172E+04  9.384764E-09 -1.873490E+04 -1.067798E-09
        20  24 -7.948671E+05 -1.809673E+03  1.125417E+04  2.941759E-09 -8.644120E+03 -5.087550E-10
        20  25 -7.948522E+05  3.466162E+04  4.199039E+04 -1.568229E+04 -2.882581E+04  7.290400E-01
        20  26 -7.998614E+05 -9.439564E+02  1.899172E+04 -5.301617E+03 -1.873490E+04  1.601850E-01
        20  27 -7.948670E+05 -1.809624E+03  1.125417E+04  5.078793E+03 -8.644120E+03 -7.080106E-02
        21   1 -7.968941E+05  2.128740E+03  8.986320E+03  7.417282E+02  7.025692E+03  8.404150E-03
        21   2 -7.973302E+05 -1.056612E+02  4.814990E+03  1.766155E+02  4.602830E+03  1.311033E-03
        21   3 -7.968959E+05 -1.232525E+02  2.776833E+03 -3.885064E+02  2.179939E+03 -1.365847E-03
        21   4 -7.968941E+05  2.128738E+03  8.986320E+03  6.334330E-10  7.025692E+03  8.974083E-10
        21   5 -7.973302E+05 -1.056613E+02  4.814990E+03 -2.407965E-09  4.602830E+03  5.014653E-10
        21   6 -7.968959E+05 -1.232528E+02  2.776833E+03  2.097534E-09  2.179939E+03  2.849671E-10
        21   7 -7.968941E+05  2.128740E+03  8.986320E+03 -7.417282E+02  7.025692E+03 -8.404148E-03
        21   8 -7.973302E+05 -1.056612E+02  4.814990E+03 -1.766155E+02  4.602830E+03 -1.311033E-03
        21   9 -7.968959E+05 -1.232525E+02  2.776833E+03  3.885064E+02  2.179939E+03  1.365847E-03
        21  10 -7.968942E+05  2.128726E+03  8.986227E+03  7.417282E+02  2.831080E-10 -7.567040E-11
        21  11 -7.973302E+05 -1.056669E+02  4.814950E+03  1.766155E+02  1.535043E-10 -6.921901E-10
        21  12 -7.968960E+05 -1.232538E+02  2.776824E+03 -3.885064E+02 -7.528193E-10 -3.939750E-10
        21  13 -7.968942E+05  2.128725E+03  8.986227E+03 -1.700606E-09 -9.155432E-10  1.340892E-10
        21  14 -7.973302E+05 -1.056670E+02  4.814950E+03 -3.041144E-10  7.880809E-10 -4.998657E-10
        21  15 -7.968960E+05 -1.232540E+02  2.776824E+03  1.092379E-09  6.848540E-11 -3.848814E-10
        21  16 -7.968942E+05  2.128726E+03  8.986227E+03 -7.417282E+02 -1.334518E-09  3.343028E-10
        21  17 -7.973302E+05 -1.056669E+02  4.814950E+03 -1.766155E+02 -1.316105E-09 -2.552136E-10
        21  18 -7.968960E+05 -1.232538E+02  2.776824E+03  3.885064E+02 -3.724980E-11 -4.124119E-10
        21  19 -7.968941E+05  2.128740E+03  8.986320E+03  7.417282E+02 -7.025692E+03 -8.404150E-03
        21  20 -7.973302E+05 -1.056612E+02  4.814990E+03  1.766155E+02 -4.602830E+03 -1.311035E-03
        21  21 -7.968959E+05 -1.232525E+02  2.776833E+03 -3.885064E+02 -2.179939E+03  1.365846E-03
        21  22 -7.968941E+05  2.128738E+03  8.986320E+03  2.432479E-09 -7.025692E+03 -6.286002E-10
        21  23 -7.973302E+05 -1.056613E+02  4.814990E+03 -3.472021E-10 -4.602830E+03 -1.501074E-09
        21  24 -7.968959E+05 -1.232528E+02  2.776833E+03  8.985165E-09 -2.179939E+03 -1.058759E-09
        21  25 -7.968941E+05  2.128740E+03  8.986320E+03 -7.417282E+02 -7.025692E+03  8.404149E-03
        21  26 -7.973302E+05 -1.056612E+02  4.814990E+03 -1.766155E+02 -4.602830E+03  1.311032E-03
        21  27 -7.968959E+05 -1.232525E+02  2.776833E+03  3.885064E+02 -2.179939E+03 -1.365848E-03
        22   1 -7.970644E+05  1.167345E+02  2.124602E+03 -1.679509E+01  1.749019E+03 -4.737322E-05
        22   2 -7.971205E+05 -1.770245E+01  1.174695E+03 -2.985124E+01  1.166101E+03 -5.613786E-05
        22   3 -7.970648E+05 -9.352214E+00  6.403589E+02 -4.290739E+01  5.831835E+02 -4.035493E-05
        22   4 -7.970644E+05  1.167345E+02  2.124602E+03  9.285697E-09  1.749019E+03  2.332946E-10
        22   5 -7.971205E+05 -1.770245E+01  1.174695E+03  2.330525E-09  1.166101E+03  2.447549E-11
        22   6 -7.970648E+05 -9.352217E+00  6.403589E+02  7.234024E-09  5.831835E+02 -3.366784E-10
        22   7 -7.970644E+05  1.167345E+02  2.124602E+03  1.679509E+01  1.749019E+03  4.737370E-05
        22   8 -7.971205E+05 -1.770245E+01  1.174695E+03  2.985124E+01  1.166101E+03  5.613778E-05
        22   9 -7.970648E+05 -9.352214E+00  6.403589E+02  4.290739E+01  5.831835E+02  4.035433E-05
        22  10 -7.970644E+05  1.167336E+02  2.124596E+03 -1.679509E+01 -5.707659E-10  1.116220E-10
        22  11 -7.971205E+05 -1.770282E+01  1.174693E+03 -2.985124E+01 -7.830477E-10  4.268729E-10
        22  12 -7.970648E+05 -9.352305E+00  6.403583E+02 -4.290739E+01  3.778730E-10  1.793905E-10
        22  13 -7.970644E+05  1.167336E+02  2.124596E+03  5.084292E-09 -1.364221E-28 -1.863238E-11
        22  14 -7.971205E+05 -1.770282E+01  1.174693E+03  1.793711E-10 -1.937095E-09  2.707486E-10
        22  15 -7.970648E+05 -9.352309E+00  6.403583E+02  1.734216E-09 -5.720981E-10 -7.697925E-11
        22  16 -7.970644E+05  1.167336E+02  2.124596E+03  1.679509E+01 -6.663995E-11 -1.046510E-10
        22  17 -7.971205E+05 -1.770282E+01  1.174693E+03  2.985124E+01 -2.442430E-11 -2.983852E-11
        22  18 -7.970648E+05 -9.352305E+00  6.403583E+02  4.290739E+01 -8.668743E-10 -3.785585E-10
        22  19 -7.970644E+05  1.167345E+02  2.124602E+03 -1.679509E+01 -1.749019E+03  4.737355E-05
        22  20 -7.971205E+05 -1.770245E+01  1.174695E+03 -2.985124E+01 -1.166101E+03  5.613905E-05
        22  21 -7.970648E+05 -9.352214E+00  6.403589E+02 -4.290739E+01 -5.831835E+02  4.035543E-05
        22  22 -7.970644E+05  1.167344E+02  2.124602E+03  7.360521E-09 -1.749019E+03 -2.559990E-10
        22  23 -7.971205E+05 -1.770245E+01  1.174695E+03 -4.132396E-09 -1.166101E+03  5.512741E-10
        22  24 -7.970648E+05 -9.352217E+00  6.403589E+02  7.000689E-09 -5.831835E+02  1.850033E-10
        22  25 -7.970644E+05  1.167345E+02  2.124602E+03  1.679509E+01 -1.749019E+03 -4.737412E-05
        22  26 -7.971205E+05 -1.770245E+01  1.174695E+03  2.985124E+01 -1.166101E+03 -5.613787E-05
        22  27 -7.970648E+05 -9.352214E+00  6.403589E+02  4.290739E+01 -5.831835E+02 -4.035505E-05
        23   1 -7.970866E+05  3.097562E+00  4.572232E+02 -1.907564E+01  4.844514E+02 -1.490352E-05
        23   2 -7.970935E+05 -2.431605E+00  1.794483E+02 -1.686279E+01  3.956804E+02 -1.075992E-05
        23   3 -7.970867E+05  4.336438E-01 -3.838112E+01 -1.464998E+01  3.069107E+02 -7.249739E-06
        23   4 -7.970866E+05  3.097562E+00  4.572232E+02  1.676538E-08  4.844514E+02 -3.329579E-10
        23   5 -7.970935E+05 -2.431606E+00  1.794483E+02  4.455086E-09  3.956804E+02  4.590676E-10
        23   6 -7.970867E+05  4.336433E-01 -3.838112E+01  1.097632E-08  3.069107E+02  1.616033E-09
        23   7 -7.970866E+05  3.097562E+00  4.572232E+02  1.907564E+01  4.844514E+02  1.490296E-05
        23   8 -7.970935E+05 -2.431605E+00  1.794483E+02  1.686279E+01  3.956804E+02  1.076065E-05
        23   9 -7.970867E+05  4.336438E-01 -3.838112E+01  1.464998E+01  3.069107E+02  7.253017E-06
        23  10 -7.970866E+05  3.097499E+00  4.572227E+02 -1.907564E+01  5.200580E-10  8.015437E-11
        23  11 -7.970935E+05 -2.431647E+00  1.794480E+02 -1.686279E+01  1.224799E-10  3.099715E-10
        23  12 -7.970867E+05  4.336184E-01 -3.838130E+01 -1.464998E+01 -1.162437E-09  5.526742E-10
        23  13 -7.970866E+05  3.097498E+00  4.572227E+02  1.465102E-08 -1.187064E-09 -2.659236E-10
        23  14 -7.970935E+05 -2.431648E+00  1.794480E+02  1.209133E-08 -3.624131E-09  1.175213E-10
        23  15 -7.970867E+05  4.336180E-01 -3.838130E+01  9.529549E-09 -4.829863E-10  8.665563E-10
        23  16 -7.970866E+05  3.097499E+00  4.572227E+02  1.907564E+01  1.314631E-09 -6.231060E-10
        23  17 -7.970935E+05 -2.431647E+00  1.794480E+02  1.686279E+01 -1.324197E-09 -1.300454E-10
        23  18 -7.970867E+05  4.336184E-01 -3.838130E+01  1.464998E+01  1.020135E-09  1.135169E-09
        23  19 -7.970866E+05  3.097562E+00  4.572232E+02 -1.907564E+01 -4.844514E+02  1.490374E-05
        23  20 -7.970935E+05 -2.431605E+00  1.794483E+02 -1.686279E+01 -3.956804E+02  1.076061E-05
        23  21 -7.970867E+05  4.336438E-01 -3.838112E+01 -1.464998E+01 -3.069107E+02  7.251118E-06
        23  22 -7.970866E+05  3.097562E+00  4.572232E+02  2.113601E-08 -4.844514E+02 -1.999033E-10
        23  23 -7.970935E+05 -2.431606E+00  1.794483E+02  5.727211E-09 -3.956804E+02 -2.571153E-10
        23  24 -7.970867E+05  4.336434E-01 -3.838112E+01  1.803633E-08 -3.069107E+02  1.222849E-10
        23  25 -7.970866E+05  3.097562E+00  4.572232E+02  1.907564E+01 -4.844514E+02 -1.490415E-05
        23  26 -7.970935E+05 -2.431605E+00  1.794483E+02  1.686279E+01 -3.956804E+02 -1.076118E-05
        23  27 -7.970867E+05  4.336438E-01 -3.838112E+01  1.464998E+01 -3.069107E+02 -7.250784E-06
        24   1 -7.970964E+05  8.705231E-01 -1.473325E+02 -1.565026E+01  3.237317E+02 -8.169620E-06
        24   2 -7.970815E+05  5.457101E+00 -4.092286E+02 -2.208330E+01  5.260801E+02 -1.873528E-05
        24   3 -7.970966E+05 -4.677721E+00 -8.066670E+02 -2.851644E+01  7.284315E+02 -3.349969E-05
        24   4 -7.970964E+05  8.705227E-01 -1.473325E+02  9.512733E-09  3.237317E+02  1.555418E-09
        24   5 -7.970815E+05  5.457100E+00 -4.092286E+02 -2.814372E-09  5.260801E+02  4.359169E-10
        24   6 -7.970966E+05 -4.677723E+00 -8.066670E+02  3.410395E-09  7.284315E+02  1.452644E-10
        24   7 -7.970964E+05  8.705231E-01 -1.473325E+02  1.565026E+01  3.237317E+02  8.172623E-06
        24   8 -7.970815E+05  5.457101E+00 -4.092286E+02  2.208330E+01  5.260801E+02  1.873603E-05
        24   9 -7.970966E+05 -4.677721E+00 -8.066670E+02  2.851644E+01  7.284315E+02  3.349994E-05
        24  10 -7.970964E+05  8.704949E-01 -1.473327E+02 -1.565026E+01  1.182332E-09  4.544921E-10
        24  11 -7.970815E+05  5.457026E+00 -4.092291E+02 -2.208330E+01 -1.447612E-11 -8.919259E-11
        24  12 -7.970966E+05 -4.677864E+00 -8.066680E+02 -2.851644E+01 -3.145225E-09 -4.928619E-10
        24  13 -7.970964E+05  8.704945E-01 -1.473327E+02  1.359222E-08 -8.408457E-12  7.416974E-10
        24  14 -7.970815E+05  5.457025E+00 -4.092291E+02  1.379679E-09 -2.160679E-10 -2.400576E-10
        24  15 -7.970966E+05 -4.677866E+00 -8.066680E+02  6.388992E-09 -1.255756E-09 -5.046658E-10
        24  16 -7.970964E+05  8.704949E-01 -1.473327E+02  1.565026E+01 -4.663396E-10  1.044619E-09
        24  17 -7.970815E+05  5.457026E+00 -4.092291E+02  2.208330E+01  1.627256E-10 -3.837630E-10
        24  18 -7.970966E+05 -4.677864E+00 -8.066680E+02  2.851644E+01 -1.229105E-09 -4.961074E-10
        24  19 -7.970964E+05  8.705232E-01 -1.473325E+02 -1.565026E+01 -3.237317E+02  8.170692E-06
        24  20 -7.970815E+05  5.457101E+00 -4.092286E+02 -2.208330E+01 -5.260801E+02  1.873530E-05
        24  21 -7.970966E+05 -4.677721E+00 -8.066670E+02 -2.851644E+01 -7.284315E+02  3.349880E-05
        24  22 -7.970964E+05  8.705227E-01 -1.473325E+02  1.118881E-08 -3.237317E+02 -6.462464E-11
        24  23 -7.970815E+05  5.457100E+00 -4.092286E+02  1.267216E-09 -5.260801E+02 -8.964830E-10
        24  24 -7.970966E+05 -4.677723E+00 -8.066670E+02  3.165413E-09 -7.284315E+02 -1.169105E-09
        24  25 -7.970964E+05  8.705231E-01 -1.473325E+02  1.565026E+01 -3.237317E+02 -8.170688E-06
        24  26 -7.970815E+05  5.457101E+00 -4.092286E+02  2.208330E+01 -5.260801E+02 -1.873713E-05
        24  27 -7.970966E+05 -4.677721E+00 -8.066670E+02  2.851644E+01 -7.284315E+02 -3.350103E-05
        25   1 -7.971304E+05  1.565842E+01 -1.085629E+03 -6.719379E+01  8.987422E+02 -9.739183E-05
        25   2 -7.970395E+05  2.895451E+01 -1.925910E+03 -4.687907E+01  1.854370E+03 -1.401956E-04
        25   3 -7.971309E+05 -1.883706E+02 -3.446594E+03 -2.656434E+01  2.809996E+03 -1.203838E-04
        25   4 -7.971304E+05  1.565841E+01 -1.085629E+03  8.409485E-09  8.987422E+02  3.402078E-10
        25   5 -7.970395E+05  2.895451E+01 -1.925910E+03 -3.025636E-09  1.854370E+03  1.844069E-10
        25   6 -7.971309E+05 -1.883706E+02 -3.446594E+03 -3.700779E-09  2.809996E+03 -8.543208E-10
        25   7 -7.971304E+05  1.565842E+01 -1.085629E+03  6.719379E+01  8.987422E+02  9.739249E-05
        25   8 -7.970395E+05  2.895451E+01 -1.925910E+03  4.687907E+01  1.854370E+03  1.401958E-04
        25   9 -7.971309E+05 -1.883706E+02 -3.446594E+03  2.656434E+01  2.809996E+03  1.203822E-04
        25  10 -7.971304E+05  1.565820E+01 -1.085631E+03 -6.719379E+01 -1.666591E-09 -9.492978E-11
        25  11 -7.970395E+05  2.895359E+01 -1.925916E+03 -4.687907E+01 -1.050150E-09  4.452641E-10
        25  12 -7.971309E+05 -1.883728E+02 -3.446609E+03 -2.656434E+01 -9.405501E-11 -1.218122E-09
        25  13 -7.971304E+05  1.565819E+01 -1.085631E+03  6.478000E-09  1.523920E-10 -3.877300E-11
        25  14 -7.970395E+05  2.895358E+01 -1.925916E+03  3.366871E-09  9.326432E-10  3.583983E-10
        25  15 -7.971309E+05 -1.883728E+02 -3.446609E+03 -5.669928E-09 -5.872567E-10 -8.635905E-10
        25  16 -7.971304E+05  1.565820E+01 -1.085631E+03  6.719379E+01  1.065214E-09  1.785450E-12
        25  17 -7.970395E+05  2.895359E+01 -1.925916E+03  4.687907E+01  1.333912E-09  2.961113E-10
        25  18 -7.971309E+05 -1.883728E+02 -3.446609E+03  2.656434E+01 -1.782037E-09 -5.284331E-10
        25  19 -7.971304E+05  1.565842E+01 -1.085629E+03 -6.719379E+01 -8.987422E+02  9.739174E-05
        25  20 -7.970395E+05  2.895451E+01 -1.925910E+03 -4.687907E+01 -1.854370E+03  1.401966E-04
        25  21 -7.971309E+05 -1.883706E+02 -3.446594E+03 -2.656434E+01 -2.809996E+03  1.203815E-04
        25  22 -7.971304E+05  1.565841E+01 -1.085629E+03  6.693467E-09 -8.987422E+02 -4.186797E-10
        25  23 -7.970395E+05  2.895451E+01 -1.925910E+03  3.296449E-09 -1.854370E+03  5.273840E-10
        25  24 -7.971309E+05 -1.883706E+02 -3.446594E+03  3.936793E-09 -2.809996E+03 -8.895082E-10
        25  25 -7.971304E+05  1.565842E+01 -1.085629E+03  6.719379E+01 -8.987422E+02 -9.739252E-05
        25  26 -7.970395E+05  2.895451E+01 -1.925910E+03  4.687907E+01 -1.854370E+03 -1.401955E-04
        25  27 -7.971309E+05 -1.883706E+02 -3.446594E+03  2.656434E+01 -2.809996E+03 -1.203834E-04
        26   1 -7.974026E+05  1.991200E+02 -4.495276E+03 -6.266359E+02  3.508303E+03 -3.545457E-03
        26   2 -7.967014E+05  1.706680E+02 -7.779642E+03  2.854470E+02  7.423051E+03  3.417174E-03
        26   3 -7.974054E+05 -3.436358E+03 -1.450969E+04  1.197518E+03  1.133772E+04  2.189613E-02
        26   4 -7.974026E+05  1.991193E+02 -4.495276E+03  7.855252E-09  3.508303E+03 -1.252657E-09
        26   5 -7.967014E+05  1.706678E+02 -7.779642E+03  9.376829E-09  7.423051E+03 -4.058805E-10
        26   6 -7.974054E+05 -3.436361E+03 -1.450970E+04  6.735531E-10  1.133772E+04  1.393370E-09
        26   7 -7.974026E+05  1.991200E+02 -4.495276E+03  6.266359E+02  3.508303E+03  3.545455E-03
        26   8 -7.967014E+05  1.706680E+02 -7.779642E+03 -2.854470E+02  7.423051E+03 -3.417175E-03
        26   9 -7.974054E+05 -3.436358E+03 -1.450969E+04 -1.197518E+03  1.133772E+04 -2.189613E-02
        26  10 -7.974026E+05  1.991167E+02 -4.495299E+03 -6.266359E+02 -1.297916E-09 -1.203442E-09
        26  11 -7.967014E+05  1.706531E+02 -7.779746E+03  2.854470E+02  1.669491E-09  6.117512E-10
        26  12 -7.974056E+05 -3.436393E+03 -1.450994E+04  1.197518E+03 -1.647836E-09  2.596526E-10
        26  13 -7.974026E+05  1.991160E+02 -4.495299E+03  5.997342E-09  1.059807E-09 -9.987241E-10
        26  14 -7.967014E+05  1.706530E+02 -7.779746E+03 -1.982907E-10  1.355643E-09  1.808340E-10
        26  15 -7.974056E+05 -3.436395E+03 -1.450994E+04 -3.698151E-09  2.343733E-10  3.467447E-10
        26  16 -7.974026E+05  1.991167E+02 -4.495299E+03  6.266359E+02 -3.968999E-10 -8.377935E-10
        26  17 -7.967014E+05  1.706531E+02 -7.779746E+03 -2.854470E+02 -2.194352E-09 -1.830174E-10
        26  18 -7.974056E+05 -3.436393E+03 -1.450994E+04 -1.197518E+03 -1.785029E-09  5.037460E-10
        26  19 -7.974026E+05  1.991200E+02 -4.495276E+03 -6.266359E+02 -3.508303E+03  3.545455E-03
        26  20 -7.967014E+05  1.706680E+02 -7.779642E+03  2.854470E+02 -7.423051E+03 -3.417173E-03
        26  21 -7.974054E+05 -3.436358E+03 -1.450969E+04  1.197518E+03 -1.133772E+04 -2.189613E-02
        26  22 -7.974026E+05  1.991193E+02 -4.495276E+03  1.989324E-09 -3.508303E+03 -7.466020E-10
        26  23 -7.967014E+05  1.706678E+02 -7.779642E+03 -5.464788E-09 -7.423051E+03  7.502944E-10
        26  24 -7.974054E+05 -3.436361E+03 -1.450970E+04 -1.094855E-09 -1.133772E+04 -7.328440E-10
        26  25 -7.974026E+05  1.991200E+02 -4.495276E+03  6.266359E+02 -3.508303E+03 -3.545457E-03
        26  26 -7.967014E+05  1.706680E+02 -7.779642E+03 -2.854470E+02 -7.423051E+03  3.417174E-03
        26  27 -7.974054E+05 -3.436358E+03 -1.450969E+04 -1.197518E+03 -1.133772E+04  2.189613E-02
        27   1 -8.006772E+05  2.921543E+03 -1.816905E+04 -8.198432E+03  1.395061E+04 -1.844530E-01
        27   2 -7.926149E+05  1.524036E+03 -3.065536E+04  8.558582E+03  3.024077E+04  4.173981E-01
        27   3 -8.006993E+05 -5.595025E+04 -6.777560E+04  2.531556E+04  4.653122E+04  1.899724E+00
        27   4 -8.006773E+05  2.921417E+03 -1.816907E+04  5.884559E-09  1.395061E+04  9.624372E-10
        27   5 -7.926150E+05  1.523898E+03 -3.065538E+04  2.138908E-09  3.024077E+04 -1.187968E-09
        27   6 -8.007000E+05 -5.595145E+04 -6.777577E+04  6.732813E-09  4.653122E+04 -7.277914E-10
        27   7 -8.006772E+05  2.921543E+03 -1.816905E+04  8.198432E+03  1.395061E+04  1.844530E-01
        27   8 -7.926149E+05  1.524036E+03 -3.065536E+04 -8.558582E+03  3.024077E+04 -4.173981E-01
        27   9 -8.006993E+05 -5.595025E+04 -6.777560E+04 -2.531556E+04  4.653122E+04 -1.899724E+00
        27  10 -8.006775E+05  2.921491E+03 -1.816941E+04 -8.198432E+03  9.443147E-10 -4.814840E-10
        27  11 -7.926159E+05  1.523790E+03 -3.065708E+04  8.558582E+03  6.704542E-10 -7.730086E-10
        27  12 -8.007017E+05 -5.595083E+04 -6.777967E+04  2.531556E+04  7.973717E-10 -2.646153E-10
        27  13 -8.006775E+05  2.921365E+03 -1.816943E+04  3.510551E-09  1.852013E-09 -2.263337E-10
        27  14 -7.926160E+05  1.523652E+03 -3.065710E+04 -2.801682E-11  6.584260E-10 -9.102214E-10
        27  15 -8.007024E+05 -5.595203E+04 -6.777984E+04  1.814451E-09 -5.111558E-10 -3.789887E-10
        27  16 -8.006775E+05  2.921491E+03 -1.816941E+04  8.198432E+03 -6.403196E-10  5.520269E-11
        27  17 -7.926159E+05  1.523790E+03 -3.065708E+04 -8.558582E+03  6.439572E-10 -1.093988E-09
        27  18 -8.007017E+05 -5.595083E+04 -6.777967E+04 -2.531556E+04  4.770518E-10 -4.851735E-10
        27  19 -8.006772E+05  2.921543E+03 -1.816905E+04 -8.198432E+03 -1.395061E+04  1.844530E-01
        27  20 -7.926149E+05  1.524036E+03 -3.065536E+04  8.558582E+03 -3.024077E+04 -4.173981E-01
        27  21 -8.006993E+05 -5.595025E+04 -6.777560E+04  2.531556E+04 -4.653122E+04 -1.899724E+00
        27  22 -8.006773E+05  2.921417E+03 -1.816907E+04  1.405201E-08 -1.395061E+04 -1.428595E-09
        27  23 -7.926150E+05  1.523898E+03 -3.065538E+04  2.111624E-09 -3.024077E+04 -6.263768E-10
        27  24 -8.007000E+05 -5.595145E+04 -6.777577E+04  3.100221E-09 -4.653122E+04 -4.675659E-11
        27  25 -8.006772E+05  2.921543E+03 -1.816905E+04  8.198432E+03 -1.395061E+04 -1.844530E-01
        27  26 -7.926149E+05  1.524036E+03 -3.065536E+04 -8.558582E+03 -3.024077E+04  4.173981E-01
        27  27 -8.006993E+05 -5.595025E+04 -6.777560E+04 -2.531556E+04 -4.653122E+04  1.899724E+00
        28   1  6.346760E+05  2.064278E+06  6.866002E+05 -2.392605E+05  1.761795E+04  2.714959E+05
        28   2  2.996895E+05  1.837487E+06  4.409251E+05 -1.159739E+05  5.413341E+04  1.560426E+05
        28   3  2.486735E+05  1.697148E+06  3.413533E+05 -7.351167E+04  5.272156E+04  4.061471E+04
        28   4  2.767150E+05  6.227384E+05  3.364930E+05 -1.129007E+05  1.769127E+04  2.245247E+05
        28   5 -7.808776E+03  5.823214E+05  1.572524E+05 -7.258579E+04  5.416309E+04  1.411711E+05
        28   6 -1.362924E+04  6.229415E+05  1.020583E+05 -1.130743E+05  5.270412E+04  5.780398E+04
        28   7 -8.133755E+04 -8.168703E+05 -1.374766E+04  1.316612E+04  1.774566E+04  1.776614E+05
        28   8 -3.154082E+05 -6.713797E+05 -1.265196E+05 -2.928568E+04  5.419074E+04  1.263291E+05
        28   9 -2.760040E+05 -4.501876E+05 -1.373068E+05 -1.525674E+05  5.268447E+04  7.496383E+04
        28  10  6.346559E+05  2.064199E+06  6.864616E+05 -2.392644E+05  1.885171E-09  7.363962E-10
        28  11  2.996798E+05  1.837460E+06  4.408739E+05 -1.159807E+05  3.535314E-11  3.236418E-10
        28  12  2.486701E+05  1.697146E+06  3.413449E+05 -7.351339E+04  8.434958E-10 -9.855050E-11
        28  13  2.767012E+05  6.226843E+05  3.363978E+05 -1.129039E+05  1.389750E-09  4.178486E-11
        28  14 -7.817271E+03  5.822992E+05  1.572095E+05 -7.259194E+04  1.904299E-09 -2.170882E-11
        28  15 -1.363312E+04  6.229372E+05  1.020468E+05 -1.130767E+05  2.641080E-10  2.261772E-10
        28  16 -8.134638E+04 -8.169043E+05 -1.380764E+04  1.316358E+04  8.057047E-10 -8.463231E-10
        28  17 -3.154156E+05 -6.713977E+05 -1.265551E+05 -2.929120E+04  5.547902E-10 -2.738938E-10
        28  18 -2.760085E+05 -4.501944E+05 -1.373226E+05 -1.525706E+05 -2.195116E-10  1.524144E-10
        28  19  6.346760E+05  2.064278E+06  6.866002E+05 -2.392605E+05 -1.761795E+04 -2.714959E+05
        28  20  2.996895E+05  1.837487E+06  4.409251E+05 -1.159739E+05 -5.413341E+04 -1.560426E+05
        28  21  2.486735E+05  1.697148E+06  3.413533E+05 -7.351167E+04 -5.272156E+04 -4.061471E+04
        28  22  2.767150E+05  6.227384E+05  3.364930E+05 -1.129007E+05 -1.769127E+04 -2.245247E+05
        28  23 -7.808776E+03  5.823214E+05  1.572524E+05 -7.258579E+04 -5.416309E+04 -1.411711E+05
        28  24 -1.362924E+04  6.229415E+05  1.020583E+05 -1.130743E+05 -5.270412E+04 -5.780398E+04
        28  25 -8.133755E+04 -8.168703E+05 -1.374766E+04  1.316612E+04 -1.774566E+04 -1.776614E+05
        28  26 -3.154082E+05 -6.713797E+05 -1.265196E+05 -2.928568E+04 -5.419074E+04 -1.263291E+05
        28  27 -2.760040E+05 -4.501876E+05 -1.373068E+05 -1.525674E+05 -5.268447E+04 -7.496383E+04
        29   1  2.405044E+05  1.524220E+06  2.933170E+05 -1.225641E+05  4.320252E+04  3.654275E+04
        29   2  1.780783E+05  1.335720E+06  2.314840E+05 -7.352309E+04  3.550751E+04  1.090904E+03
        29   3  1.476321E+05  1.159759E+06  2.006702E+05 -1.063001E+05  2.618317E+04 -3.436225E+04
        29   4  1.636218E+04  6.077183E+05  8.813381E+04 -1.132398E+05  4.319916E+04  4.233627E+04
        29   5 -1.362079E+03  6.016177E+05  6.758778E+04 -7.233147E+04  3.549839E+04  8.295553E+03
        29   6  1.267368E+04  6.077961E+05  7.711174E+04 -1.132447E+05  2.616820E+04 -2.575658E+04
        29   7 -2.078369E+05 -3.080024E+05 -1.171023E+05 -1.039291E+05  4.319596E+04  4.812131E+04
        29   8 -1.808390E+05 -1.319833E+05 -9.634214E+04 -7.114102E+04  3.548929E+04  1.549178E+04
        29   9 -1.223052E+05  5.611705E+04 -4.646560E+04 -1.201829E+05  2.615303E+04 -1.715847E+04
        29  10  2.405020E+05  1.524218E+06  2.933110E+05 -1.225654E+05  4.203877E-10  1.166526E-09
        29  11  1.780769E+05  1.335720E+06  2.314817E+05 -7.352313E+04  4.414122E-09  2.810650E-10
        29  12  1.476310E+05  1.159757E+06  2.006667E+05 -1.062994E+05 -6.697935E-10 -4.474720E-10
        29  13  1.635969E+04  6.077159E+05  8.812693E+04 -1.132413E+05 -1.097148E-09  2.948840E-10
        29  14 -1.363451E+03  6.016172E+05  6.758528E+04 -7.233170E+04 -9.257600E-11 -6.261108E-11
        29  15  1.267277E+04  6.077952E+05  7.710921E+04 -1.132442E+05 -2.403757E-10  3.990526E-10
        29  16 -2.078395E+05 -3.080054E+05 -1.171101E+05 -1.039308E+05 -6.361549E-10 -1.875554E-09
        29  17 -1.808404E+05 -1.319839E+05 -9.634496E+04 -7.114147E+04  5.263664E-11 -3.768396E-11
        29  18 -1.223060E+05  5.611655E+04 -4.646744E+04 -1.201826E+05 -2.061313E-09  6.870575E-10
        29  19  2.405044E+05  1.524220E+06  2.933170E+05 -1.225641E+05 -4.320252E+04 -3.654275E+04
        29  20  1.780783E+05  1.335720E+06  2.314840E+05 -7.352309E+04 -3.550751E+04 -1.090904E+03
        29  21  1.476321E+05  1.159759E+06  2.006702E+05 -1.063001E+05 -2.618317E+04  3.436225E+04
        29  22  1.636218E+04  6.077183E+05  8.813381E+04 -1.132398E+05 -4.319916E+04 -4.233627E+04
        29  23 -1.362079E+03  6.016177E+05  6.758778E+04 -7.233147E+04 -3.549839E+04 -8.295553E+03
        29  24  1.267368E+04  6.077961E+05  7.711174E+04 -1.132447E+05 -2.616820E+04  2.575658E+04
        29  25 -2.078369E+05 -3.080024E+05 -1.171023E+05 -1.039291E+05 -4.319596E+04 -4.812131E+04
        29  26 -1.808390E+05 -1.319833E+05 -9.634214E+04 -7.114102E+04 -3.548929E+04 -1.549178E+04
        29  27 -1.223052E+05  5.611705E+04 -4.646560E+04 -1.201829E+05 -2.615303E+04  1.715847E+04
        30   1  8.685005E+04  1.014704E+06  1.736311E+05 -1.453726E+05  2.021588E+04 -4.752609E+04
        30   2  4.652391E+04  8.019699E+05  1.732745E+05 -3.927833E+04  1.087809E+04 -1.131480E+05
        30   3  2.238381E+05  6.518469E+05  2.699438E+05 -1.451301E+04  2.615221E+03 -1.787505E+05
        30   4 -9.935648E+03  6.190510E+05  8.578310E+04 -1.132601E+05  2.019685E+04 -3.909766E+04
        30   5 -5.670898E+03  5.876741E+05  1.255974E+05 -7.236802E+04  1.086843E+04 -1.056170E+05
        30   6  2.164072E+05  6.190153E+05  2.630668E+05 -1.127909E+05  2.628720E+03 -1.721350E+05
        30   7 -1.067281E+05  2.235466E+05 -2.073883E+03 -8.116820E+04  2.017869E+04 -3.067454E+04
        30   8 -5.786464E+04  3.734235E+05  7.791834E+04 -1.054462E+05  1.085796E+04 -9.808858E+04
        30   9  2.090126E+05  5.862057E+05  2.561952E+05 -2.110636E+05  2.640128E+03 -1.655199E+05
        30  10  8.684901E+04  1.014701E+06  1.736261E+05 -1.453718E+05 -7.444125E-10  1.029708E-08
        30  11  4.652035E+04  8.019561E+05  1.732502E+05 -3.927734E+04 -1.247710E-09  2.313168E-09
        30  12  2.238295E+05  6.518126E+05  2.698838E+05 -1.451263E+04 -6.074253E-10 -6.955318E-09
        30  13 -9.936495E+03  6.190493E+05  8.577946E+04 -1.132595E+05 -2.648610E-10  5.032535E-10
        30  14 -5.674015E+03  5.876621E+05  1.255763E+05 -7.236710E+04  2.121048E-10  1.877553E-12
        30  15  2.163993E+05  6.189835E+05  2.630112E+05 -1.127905E+05 -3.309208E-10  4.193482E-10
        30  16 -1.067288E+05  2.235455E+05 -2.076415E+03 -8.116770E+04 -3.535929E-09 -1.131417E-08
        30  17 -5.786734E+04  3.734131E+05  7.790005E+04 -1.054453E+05 -1.469383E-09 -1.930507E-09
        30  18  2.090053E+05  5.861763E+05  2.561438E+05 -2.110632E+05 -2.414522E-09  7.263635E-09
        30  19  8.685005E+04  1.014704E+06  1.736311E+05 -1.453726E+05 -2.021588E+04  4.752609E+04
        30  20  4.652391E+04  8.019699E+05  1.732745E+05 -3.927833E+04 -1.087809E+04  1.131480E+05
        30  21  2.238381E+05  6.518469E+05  2.699438E+05 -1.451301E+04 -2.615221E+03  1.787505E+05
        30  22 -9.935648E+03  6.190510E+05  8.578310E+04 -1.132601E+05 -2.019685E+04  3.909766E+04
        30  23 -5.670898E+03  5.876741E+05  1.255974E+05 -7.236802E+04 -1.086843E+04  1.056170E+05
        30  24  2.164072E+05  6.190153E+05  2.630668E+05 -1.127909E+05 -2.628720E+03  1.721350E+05
        30  25 -1.067281E+05  2.235466E+05 -2.073883E+03 -8.116820E+04 -2.017869E+04  3.067454E+04
        30  26 -5.786464E+04  3.734235E+05  7.791834E+04 -1.054462E+05 -1.085796E+04  9.808858E+04
        30  27  2.090126E+05  5.862057E+05  2.561952E+05 -2.110636E+05 -2.640128E+03  1.655199E+05
        31   1 -1.374894E+06 -3.215434E+05 -1.251690E+05 -5.223071E+05 -6.785019E+04 -2.418763E+04
        31   2 -1.354816E+06 -2.174345E+05 -6.130950E+04 -5.208816E+05 -4.305980E+04 -1.249219E+04
        31   3 -1.362358E+06 -1.991317E+05 -3.839999E+04 -5.056851E+05 -1.730397E+04 -3.370282E+03
        31   4 -1.311330E+06 -2.647657E+05 -1.016812E+05 -4.711804E+05 -6.519000E+04 -2.319464E+04
        31   5 -1.292239E+06 -1.832668E+05 -4.372882E+04 -4.926010E+05 -4.241929E+04 -1.225299E+04
        31   6 -1.300365E+06 -1.871694E+05 -2.512070E+04 -5.002520E+05 -1.868309E+04 -3.886957E+03
        31   7 -1.247760E+06 -2.079802E+05 -7.819376E+04 -4.200480E+05 -6.252956E+04 -2.220120E+04
        31   8 -1.229659E+06 -1.490976E+05 -2.614862E+04 -4.643176E+05 -4.177871E+04 -1.201374E+04
        31   9 -1.238367E+06 -1.752072E+05 -1.184156E+04 -4.948186E+05 -2.006235E+04 -4.403625E+03
        31  10 -1.374900E+06 -3.215453E+05 -1.251788E+05 -5.223084E+05 -1.539032E-10  3.818795E-10
        31  11 -1.354818E+06 -2.174352E+05 -6.131329E+04 -5.208820E+05 -2.256262E-10  1.191135E-09
        31  12 -1.362358E+06 -1.991318E+05 -3.840057E+04 -5.056852E+05  6.374929E-11  6.387225E-10
        31  13 -1.311335E+06 -2.647675E+05 -1.016902E+05 -4.711816E+05 -1.079219E-09  3.005735E-10
        31  14 -1.292241E+06 -1.832675E+05 -4.373249E+04 -4.926014E+05  1.593945E-09  8.413696E-10
        31  15 -1.300365E+06 -1.871695E+05 -2.512139E+04 -5.002520E+05  2.804828E-09  6.750358E-10
        31  16 -1.247765E+06 -2.079818E+05 -7.820206E+04 -4.200491E+05 -1.055624E-10  1.510608E-10
        31  17 -1.229660E+06 -1.490983E+05 -2.615218E+04 -4.643180E+05  3.128351E-09  2.636581E-10
        31  18 -1.238367E+06 -1.752073E+05 -1.184236E+04 -4.948187E+05  3.440270E-10  7.623688E-10
        31  19 -1.374894E+06 -3.215434E+05 -1.251690E+05 -5.223071E+05  6.785019E+04  2.418763E+04
        31  20 -1.354816E+06 -2.174345E+05 -6.130950E+04 -5.208816E+05  4.305980E+04  1.249219E+04
        31  21 -1.362358E+06 -1.991317E+05 -3.839999E+04 -5.056851E+05  1.730397E+04  3.370282E+03
        31  22 -1.311330E+06 -2.647657E+05 -1.016812E+05 -4.711804E+05  6.519000E+04  2.319464E+04
        31  23 -1.292239E+06 -1.832668E+05 -4.372882E+04 -4.926010E+05  4.241929E+04  1.225299E+04
        31  24 -1.300365E+06 -1.871694E+05 -2.512070E+04 -5.002520E+05  1.868309E+04  3.886957E+03
        31  25 -1.247760E+06 -2.079802E+05 -7.819376E+04 -4.200480E+05  6.252956E+04  2.220120E+04
        31  26 -1.229659E+06 -1.490976E+05 -2.614862E+04 -4.643176E+05  4.177871E+04  1.201374E+04
        31  27 -1.238367E+06 -1.752072E+05 -1.184156E+04 -4.948186E+05  2.006235E+04  4.403625E+03
        32   1 -1.334511E+06 -2.111915E+05 -2.959775E+04 -5.073435E+05 -1.450875E+04 -3.272843E+03
        32   2 -1.319801E+06 -1.956011E+05 -1.556444E+04 -4.998425E+05 -8.925046E+03 -2.107417E+03
        32   3 -1.301970E+06 -1.914702E+05 -6.968882E+03 -4.978480E+05 -3.295746E+03 -1.062718E+03
        32   4 -1.297105E+06 -1.954602E+05 -2.002074E+04 -4.952688E+05 -1.510048E+04 -3.494735E+03
        32   5 -1.298304E+06 -1.871316E+05 -1.017195E+04 -4.934917E+05 -9.611317E+03 -2.364697E+03
        32   6 -1.296365E+06 -1.902438E+05 -5.685589E+03 -4.972213E+05 -4.076758E+03 -1.355481E+03
        32   7 -1.259698E+06 -1.797286E+05 -1.044377E+04 -4.831933E+05 -1.569226E+04 -3.716648E+03
        32   8 -1.276808E+06 -1.786621E+05 -4.779505E+03 -4.871407E+05 -1.029761E+04 -2.621987E+03
        32   9 -1.290760E+06 -1.890173E+05 -4.402313E+03 -4.965946E+05 -4.857767E+03 -1.648241E+03
        32  10 -1.334511E+06 -2.111916E+05 -2.959816E+04 -5.073436E+05  7.654248E-10 -1.908149E-10
        32  11 -1.319801E+06 -1.956011E+05 -1.556460E+04 -4.998425E+05  1.289985E-09 -7.503403E-10
        32  12 -1.301970E+06 -1.914702E+05 -6.968904E+03 -4.978480E+05  9.101264E-10 -3.998866E-10
        32  13 -1.297106E+06 -1.954603E+05 -2.002119E+04 -4.952689E+05  3.232182E-09  3.029669E-10
        32  14 -1.298305E+06 -1.871316E+05 -1.017213E+04 -4.934917E+05  2.013038E-09 -3.547094E-10
        32  15 -1.296365E+06 -1.902438E+05 -5.685624E+03 -4.972213E+05 -5.619948E-10 -4.654881E-10
        32  16 -1.259699E+06 -1.797287E+05 -1.044426E+04 -4.831934E+05 -1.838999E-09  5.852165E-10
        32  17 -1.276808E+06 -1.786621E+05 -4.779718E+03 -4.871408E+05 -1.535139E-09  3.283215E-11
        32  18 -1.290760E+06 -1.890173E+05 -4.402363E+03 -4.965946E+05  9.114100E-10 -6.435214E-10
        32  19 -1.334511E+06 -2.111915E+05 -2.959775E+04 -5.073435E+05  1.450875E+04  3.272843E+03
        32  20 -1.319801E+06 -1.956011E+05 -1.556444E+04 -4.998425E+05  8.925046E+03  2.107417E+03
        32  21 -1.301970E+06 -1.914702E+05 -6.968882E+03 -4.978480E+05  3.295746E+03  1.062718E+03
        32  22 -1.297105E+06 -1.954602E+05 -2.002074E+04 -4.952688E+05  1.510048E+04  3.494735E+03
        32  23 -1.298304E+06 -1.871316E+05 -1.017195E+04 -4.934917E+05  9.611317E+03  2.364697E+03
        32  24 -1.296365E+06 -1.902438E+05 -5.685589E+03 -4.972213E+05  4.076758E+03  1.355481E+03
        32  25 -1.259698E+06 -1.797286E+05 -1.044377E+04 -4.831933E+05  1.569226E+04  3.716648E+03
        32  26 -1.276808E+06 -1.786621E+05 -4.779505E+03 -4.871407E+05  1.029761E+04  2.621987E+03
        32  27 -1.290760E+06 -1.890173E+05 -4.402313E+03 -4.965946E+05  4.857767E+03  1.648241E+03
        33   1 -1.285819E+06 -1.869679E+05 -1.769016E+03 -4.940740E+05 -2.316432E+03 -1.346131E+03
        33   2 -1.271760E+06 -1.773531E+05  4.313651E+03 -4.861295E+05 -7.720429E+02 -1.850613E+03
        33   3 -1.252119E+06 -1.740183E+05  9.408318E+03 -4.848804E+05  7.736670E+02 -2.358375E+03
        33   4 -1.296059E+06 -1.907787E+05 -4.348011E+03 -4.968552E+05 -3.060868E+03 -1.625189E+03
        33   5 -1.298827E+06 -1.874752E+05 -2.366447E+03 -4.935686E+05 -1.519102E+03 -2.130676E+03
        33   6 -1.296011E+06 -1.904511E+05 -1.370719E+03 -4.969775E+05  2.395550E+01 -2.639456E+03
        33   7 -1.306299E+06 -1.945895E+05 -6.927029E+03 -4.996363E+05 -3.805295E+03 -1.904244E+03
        33   8 -1.325893E+06 -1.975973E+05 -9.046676E+03 -5.010075E+05 -2.266134E+03 -2.410729E+03
        33   9 -1.339903E+06 -2.068840E+05 -1.215008E+04 -5.090740E+05 -7.257092E+02 -2.920520E+03
        33  10 -1.285819E+06 -1.869679E+05 -1.769029E+03 -4.940740E+05  1.012887E-09 -1.070722E-10
        33  11 -1.271760E+06 -1.773531E+05  4.313643E+03 -4.861295E+05  2.374137E-09  9.881337E-10
        33  12 -1.252119E+06 -1.740184E+05  9.408306E+03 -4.848804E+05  1.115180E-09  8.083837E-10
        33  13 -1.296059E+06 -1.907787E+05 -4.348034E+03 -4.968552E+05  1.885868E-09 -2.968026E-11
        33  14 -1.298827E+06 -1.874752E+05 -2.366460E+03 -4.935686E+05  3.024756E-09  1.514101E-09
        33  15 -1.296011E+06 -1.904511E+05 -1.370732E+03 -4.969775E+05  7.656768E-10  8.568015E-10
        33  16 -1.306299E+06 -1.945896E+05 -6.927063E+03 -4.996363E+05  4.687833E-10  3.007021E-10
        33  17 -1.325893E+06 -1.975973E+05 -9.046697E+03 -5.010075E+05  3.063334E-09  8.795458E-10
        33  18 -1.339903E+06 -2.068840E+05 -1.215010E+04 -5.090740E+05 -2.374307E-10  1.951196E-10
        33  19 -1.285819E+06 -1.869679E+05 -1.769016E+03 -4.940740E+05  2.316432E+03  1.346131E+03
        33  20 -1.271760E+06 -1.773531E+05  4.313651E+03 -4.861295E+05  7.720429E+02  1.850613E+03
        33  21 -1.252119E+06 -1.740183E+05  9.408318E+03 -4.848804E+05 -7.736670E+02  2.358375E+03
        33  22 -1.296059E+06 -1.907787E+05 -4.348011E+03 -4.968552E+05  3.060868E+03  1.625189E+03
        33  23 -1.298827E+06 -1.874752E+05 -2.366447E+03 -4.935686E+05  1.519102E+03  2.130676E+03
        33  24 -1.296011E+06 -1.904511E+05 -1.370719E+03 -4.969775E+05 -2.395550E+01  2.639456E+03
        33  25 -1.306299E+06 -1.945895E+05 -6.927029E+03 -4.996363E+05  3.805295E+03  1.904244E+03
        33  26 -1.325893E+06 -1.975973E+05 -9.046676E+03 -5.010075E+05  2.266134E+03  2.410729E+03
        33  27 -1.339903E+06 -2.068840E+05 -1.215008E+04 -5.090740E+05  7.257092E+02  2.920520E+03
        34   1 -1.236971E+06 -1.684387E+05  1.353339E+04 -4.807708E+05  1.179783E+03 -2.838649E+03
        34   2 -1.223146E+06 -1.592918E+05  1.792976E+04 -4.728637E+05  1.903627E+03 -3.648459E+03
        34   3 -1.203554E+06 -1.560063E+05  2.204425E+04 -4.716421E+05  2.626148E+03 -4.454426E+03
        34   4 -1.295987E+06 -1.904683E+05 -1.084000E+03 -4.969344E+05  4.340389E+02 -3.118264E+03
        34   5 -1.298870E+06 -1.875306E+05 -7.453085E+02 -4.935943E+05  1.160841E+03 -3.927007E+03
        34   6 -1.295986E+06 -1.904549E+05 -6.907800E+02 -4.969397E+05  1.886312E+03 -4.731912E+03
        34   7 -1.354999E+06 -2.124974E+05 -1.570143E+04 -5.130964E+05 -3.116181E+02 -3.397846E+03
        34   8 -1.374587E+06 -2.157689E+05 -1.942066E+04 -5.143224E+05  4.181592E+02 -4.205516E+03
        34   9 -1.388409E+06 -2.249027E+05 -2.342642E+04 -5.222337E+05  1.146598E+03 -5.009353E+03
        34  10 -1.236971E+06 -1.684387E+05  1.353337E+04 -4.807708E+05 -1.276357E-09  3.135045E-10
        34  11 -1.223146E+06 -1.592918E+05  1.792973E+04 -4.728637E+05 -1.578162E-10 -1.421090E-10
        34  12 -1.203554E+06 -1.560064E+05  2.204420E+04 -4.716421E+05 -8.101704E-10  7.174996E-11
        34  13 -1.295987E+06 -1.904683E+05 -1.084018E+03 -4.969344E+05  8.933445E-10 -1.388523E-10
        34  14 -1.298870E+06 -1.875307E+05 -7.453400E+02 -4.935943E+05 -6.214615E-10  1.175792E-10
        34  15 -1.295986E+06 -1.904549E+05 -6.908287E+02 -4.969396E+05 -4.497432E-10  8.643254E-11
        34  16 -1.354999E+06 -2.124974E+05 -1.570146E+04 -5.130964E+05  1.389830E-09 -9.651498E-12
        34  17 -1.374587E+06 -2.157689E+05 -1.942069E+04 -5.143224E+05  3.481066E-10 -2.681970E-10
        34  18 -1.388409E+06 -2.249028E+05 -2.342647E+04 -5.222337E+05  1.616989E-09  1.263009E-10
        34  19 -1.236971E+06 -1.684387E+05  1.353339E+04 -4.807708E+05 -1.179783E+03  2.838649E+03
        34  20 -1.223146E+06 -1.592918E+05  1.792976E+04 -4.728637E+05 -1.903627E+03  3.648459E+03
        34  21 -1.203554E+06 -1.560063E+05  2.204425E+04 -4.716421E+05 -2.626148E+03  4.454426E+03
        34  22 -1.295987E+06 -1.904683E+05 -1.084000E+03 -4.969344E+05 -4.340389E+02  3.118264E+03
        34  23 -1.298870E+06 -1.875306E+05 -7.453085E+02 -4.935943E+05 -1.160841E+03  3.927007E+03
        34  24 -1.295986E+06 -1.904549E+05 -6.907800E+02 -4.969397E+05 -1.886312E+03  4.731912E+03
        34  25 -1.354999E+06 -2.124974E+05 -1.570143E+04 -5.130964E+05  3.116181E+02  3.397846E+03
        34  26 -1.374587E+06 -2.157689E+05 -1.942066E+04 -5.143224E+05 -4.181592E+02  4.205516E+03
        34  27 -1.388409E+06 -2.249027E+05 -2.342642E+04 -5.222337E+05 -1.146598E+03  5.009353E+03
        35   1 -1.188671E+06 -1.504130E+05  2.577744E+04 -4.675549E+05  2.946824E+03 -4.958059E+03
        35   2 -1.175088E+06 -1.414433E+05  2.942094E+04 -4.597815E+05  3.834356E+03 -5.689117E+03
        35   3 -1.155866E+06 -1.382501E+05  3.265301E+04 -4.585707E+05  4.719038E+03 -6.411956E+03
        35   4 -1.296014E+06 -1.904308E+05 -7.520943E+02 -4.969147E+05  2.211220E+03 -5.233998E+03
        35   5 -1.298836E+06 -1.875588E+05 -1.091533E+03 -4.936272E+05  3.105052E+03 -5.962772E+03
        35   6 -1.296021E+06 -1.904649E+05 -1.847539E+03 -4.969027E+05  3.996015E+03 -6.683331E+03
        35   7 -1.403347E+06 -2.304481E+05 -2.728266E+04 -5.262700E+05  1.475753E+03 -5.509886E+03
        35   8 -1.422569E+06 -2.336735E+05 -3.160526E+04 -5.274668E+05  2.375905E+03 -6.236369E+03
        35   9 -1.436156E+06 -2.426784E+05 -3.634959E+04 -5.352267E+05  3.273171E+03 -6.954639E+03
        35  10 -1.188671E+06 -1.504130E+05  2.577738E+04 -4.675549E+05  5.559854E-10  4.022761E-10
        35  11 -1.175088E+06 -1.414433E+05  2.942085E+04 -4.597815E+05  2.795544E-10 -4.337907E-10
        35  12 -1.155866E+06 -1.382502E+05  3.265289E+04 -4.585707E+05 -2.225745E-09 -1.229160E-10
        35  13 -1.296014E+06 -1.904309E+05 -7.521549E+02 -4.969147E+05  7.193998E-10  2.792021E-11
        35  14 -1.298836E+06 -1.875589E+05 -1.091618E+03 -4.936271E+05 -1.620422E-09 -2.434501E-10
        35  15 -1.296021E+06 -1.904649E+05 -1.847653E+03 -4.969026E+05  1.516882E-09 -6.759602E-10
        35  16 -1.403347E+06 -2.304482E+05 -2.728272E+04 -5.262700E+05 -8.306207E-10 -2.186143E-10
        35  17 -1.422570E+06 -2.336735E+05 -3.160535E+04 -5.274668E+05  7.052123E-10 -8.246854E-10
        35  18 -1.436156E+06 -2.426784E+05 -3.634970E+04 -5.352267E+05  1.543890E-09 -1.337648E-09
        35  19 -1.188671E+06 -1.504130E+05  2.577744E+04 -4.675549E+05 -2.946824E+03  4.958059E+03
        35  20 -1.175088E+06 -1.414433E+05  2.942094E+04 -4.597815E+05 -3.834356E+03  5.689117E+03
        35  21 -1.155866E+06 -1.382501E+05  3.265301E+04 -4.585707E+05 -4.719038E+03  6.411956E+03
        35  22 -1.296014E+06 -1.904308E+05 -7.520943E+02 -4.969147E+05 -2.211220E+03  5.233998E+03
        35  23 -1.298836E+06 -1.875588E+05 -1.091533E+03 -4.936272E+05 -3.105052E+03  5.962772E+03
        35  24 -1.296021E+06 -1.904649E+05 -1.847539E+03 -4.969027E+05 -3.996015E+03  6.683331E+03
        35  25 -1.403347E+06 -2.304481E+05 -2.728266E+04 -5.262700E+05 -1.475753E+03  5.509886E+03
        35  26 -1.422569E+06 -2.336735E+05 -3.160526E+04 -5.274668E+05 -2.375905E+03  6.236369E+03
        35  27 -1.436156E+06 -2.426784E+05 -3.634959E+04 -5.352267E+05 -3.273171E+03  6.954639E+03
        36   1 -1.141337E+06 -1.327942E+05  3.578781E+04 -4.547002E+05  5.270045E+03 -6.816728E+03
        36   2 -1.128018E+06 -1.239364E+05  3.776610E+04 -4.469855E+05  7.751616E+03 -6.918767E+03
        36   3 -1.109661E+06 -1.213769E+05  3.796352E+04 -4.455565E+05  1.022348E+04 -6.994049E+03
        36   4 -1.296127E+06 -1.903770E+05 -2.417623E+03 -4.969183E+05  4.548155E+03 -7.087733E+03
        36   5 -1.298689E+06 -1.875328E+05 -4.315345E+03 -4.936609E+05  7.050088E+03 -7.182235E+03
        36   6 -1.296217E+06 -1.909912E+05 -8.010442E+03 -4.966893E+05  9.542258E+03 -7.249996E+03
        36   7 -1.450893E+06 -2.479580E+05 -4.062471E+04 -5.391267E+05  3.826465E+03 -7.358665E+03
        36   8 -1.469332E+06 -2.511274E+05 -4.639902E+04 -5.403246E+05  6.348769E+03 -7.445624E+03
        36   9 -1.482740E+06 -2.606035E+05 -5.398730E+04 -5.478083E+05  8.861260E+03 -7.505860E+03
        36  10 -1.141337E+06 -1.327942E+05  3.578767E+04 -4.547002E+05 -1.534570E-10 -2.808595E-10
        36  11 -1.128018E+06 -1.239364E+05  3.776589E+04 -4.469854E+05  5.149899E-09  3.153284E-13
        36  12 -1.109661E+06 -1.213770E+05  3.796323E+04 -4.455565E+05  1.659836E-09 -4.877855E-11
        36  13 -1.296127E+06 -1.903771E+05 -2.417756E+03 -4.969183E+05  2.262684E-09 -3.389342E-10
        36  14 -1.298689E+06 -1.875329E+05 -4.315536E+03 -4.936608E+05  3.272943E-09  5.342970E-10
        36  15 -1.296217E+06 -1.909913E+05 -8.010712E+03 -4.966892E+05  1.914633E-09  4.119264E-10
        36  16 -1.450893E+06 -2.479581E+05 -4.062483E+04 -5.391267E+05  3.066040E-09 -3.858895E-10
        36  17 -1.469332E+06 -2.511274E+05 -4.639920E+04 -5.403246E+05  4.945678E-09  9.695527E-10
        36  18 -1.482740E+06 -2.606036E+05 -5.398756E+04 -5.478082E+05  5.533636E-10  6.852138E-10
        36  19 -1.141337E+06 -1.327942E+05  3.578781E+04 -4.547002E+05 -5.270045E+03  6.816728E+03
        36  20 -1.128018E+06 -1.239364E+05  3.776610E+04 -4.469855E+05 -7.751616E+03  6.918767E+03
        36  21 -1.109661E+06 -1.213769E+05  3.796352E+04 -4.455565E+05 -1.022348E+04  6.994049E+03
        36  22 -1.296127E+06 -1.903770E+05 -2.417623E+03 -4.969183E+05 -4.548155E+03  7.087733E+03
        36  23 -1.298689E+06 -1.875328E+05 -4.315345E+03 -4.936609E+05 -7.050088E+03  7.182235E+03
        36  24 -1.296217E+06 -1.909912E+05 -8.010442E+03 -4.966893E+05 -9.542258E+03  7.249996E+03
        36  25 -1.450893E+06 -2.479580E+05 -4.062471E+04 -5.391267E+05 -3.826465E+03  7.358665E+03
        36  26 -1.469332E+06 -2.511274E+05 -4.639902E+04 -5.403246E+05 -6.348769E+03  7.445624E+03
        36  27 -1.482740E+06 -2.606035E+05 -5.398730E+04 -5.478083E+05 -8.861260E+03  7.505860E+03
        37   1 -1.094982E+06 -1.162608E+05  3.904714E+04 -4.436916E+05  1.201146E+04 -6.956541E+03
        37   2 -1.082283E+06 -1.057443E+05  3.449363E+04 -4.336952E+05  2.161535E+04 -4.274441E+03
        37   3 -1.069222E+06 -1.108084E+05  2.025682E+04 -4.275355E+05  3.108142E+04 -1.224329E+03
        37   4 -1.296830E+06 -1.899551E+05 -1.049401E+04 -4.973135E+05  1.122968E+04 -7.250284E+03
        37   5 -1.297670E+06 -1.869622E+05 -1.881025E+04 -4.935856E+05  2.111921E+04 -4.461114E+03
        37   6 -1.298207E+06 -1.996091E+05 -3.703908E+04 -4.936946E+05  3.087066E+04 -1.304053E+03
        37   7 -1.498638E+06 -2.636470E+05 -6.003825E+04 -5.509197E+05  1.044818E+04 -7.543927E+03
        37   8 -1.513011E+06 -2.681764E+05 -7.211757E+04 -5.534569E+05  2.062326E+04 -4.647715E+03
        37   9 -1.527139E+06 -2.884048E+05 -9.433880E+04 -5.598308E+05  3.065998E+04 -1.383744E+03
        37  10 -1.094983E+06 -1.162609E+05  3.904678E+04 -4.436916E+05  4.657387E-10 -2.200553E-10
        37  11 -1.082283E+06 -1.057445E+05  3.449271E+04 -4.336951E+05 -8.187379E-10  2.417013E-10
        37  12 -1.069223E+06 -1.108086E+05  2.025500E+04 -4.275355E+05  1.159727E-09 -3.437369E-11
        37  13 -1.296831E+06 -1.899552E+05 -1.049435E+04 -4.973134E+05 -4.918402E-10 -3.469089E-10
        37  14 -1.297670E+06 -1.869623E+05 -1.881113E+04 -4.935855E+05  2.603892E-10 -1.129657E-10
        37  15 -1.298208E+06 -1.996094E+05 -3.704088E+04 -4.936946E+05  1.554192E-09  1.342197E-09
        37  16 -1.498638E+06 -2.636471E+05 -6.003856E+04 -5.509197E+05  7.179306E-10 -1.208977E-10
        37  17 -1.513011E+06 -2.681765E+05 -7.211841E+04 -5.534568E+05  1.211839E-10 -3.132034E-10
        37  18 -1.527140E+06 -2.884050E+05 -9.434058E+04 -5.598308E+05  3.041180E-09  2.524871E-09
        37  19 -1.094982E+06 -1.162608E+05  3.904714E+04 -4.436916E+05 -1.201146E+04  6.956541E+03
        37  20 -1.082283E+06 -1.057443E+05  3.449363E+04 -4.336952E+05 -2.161535E+04  4.274441E+03
        37  21 -1.069222E+06 -1.108084E+05  2.025682E+04 -4.275355E+05 -3.108142E+04  1.224329E+03
        37  22 -1.296830E+06 -1.899551E+05 -1.049401E+04 -4.973135E+05 -1.122968E+04  7.250284E+03
        37  23 -1.297670E+06 -1.869622E+05 -1.881025E+04 -4.935856E+05 -2.111921E+04  4.461114E+03
        37  24 -1.298207E+06 -1.996091E+05 -3.703908E+04 -4.936946E+05 -3.087066E+04  1.304053E+03
        37  25 -1.498638E+06 -2.636470E+05 -6.003825E+04 -5.509197E+05 -1.044818E+04  7.543927E+03
        37  26 -1.513011E+06 -2.681764E+05 -7.211757E+04 -5.534569E+05 -2.062326E+04  4.647715E+03
        37  27 -1.527139E+06 -2.884048E+05 -9.433880E+04 -5.598308E+05 -3.065998E+04  1.383744E+03
        38   1 -1.044193E+06 -1.078416E+05  1.381910E+04 -4.528865E+05  3.995548E+04  6.004863E+02
        38   2 -1.041763E+06 -6.841613E+04 -1.635968E+04 -4.043003E+05  7.733943E+04  1.532974E+04
        38   3 -1.094280E+06 -1.799419E+05 -1.145625E+05 -3.235378E+05  1.118537E+05  3.770011E+04
        38   4 -1.304279E+06 -1.842253E+05 -4.647726E+04 -5.028653E+05  3.741476E+04 -3.529574E+02
        38   5 -1.286384E+06 -1.798826E+05 -8.091235E+04 -4.920132E+05  8.077975E+04  1.661920E+04
        38   6 -1.324652E+06 -3.277230E+05 -1.881388E+05 -4.489781E+05  1.212749E+05  4.122799E+04
        38   7 -1.564299E+06 -2.606101E+05 -1.067782E+05 -5.528281E+05  3.487519E+04 -1.306182E+03
        38   8 -1.530946E+06 -2.913364E+05 -1.454701E+05 -5.796919E+05  8.421858E+04  1.790782E+04
        38   9 -1.554963E+06 -4.754618E+05 -2.617191E+05 -5.743661E+05  1.306923E+05  4.475209E+04
        38  10 -1.044194E+06 -1.078420E+05  1.381609E+04 -4.528865E+05  4.979486E-09  7.971464E-10
        38  11 -1.041769E+06 -6.841799E+04 -1.637139E+04 -4.043012E+05 -2.129676E-09 -2.243198E-09
        38  12 -1.094294E+06 -1.799468E+05 -1.145887E+05 -3.235412E+05 -4.410898E-09 -2.213415E-09
        38  13 -1.304280E+06 -1.842257E+05 -4.647990E+04 -5.028653E+05  7.358770E-10  4.978997E-10
        38  14 -1.286391E+06 -1.798847E+05 -8.092516E+04 -4.920143E+05 -4.422618E-09 -6.497715E-10
        38  15 -1.324669E+06 -3.277288E+05 -1.881697E+05 -4.489821E+05 -1.446089E-09 -1.592080E-09
        38  16 -1.564300E+06 -2.606104E+05 -1.067805E+05 -5.528281E+05 -3.113352E-09 -3.239077E-11
        38  17 -1.530954E+06 -2.913386E+05 -1.454841E+05 -5.796931E+05 -2.769586E-09 -1.736792E-09
        38  18 -1.554982E+06 -4.754686E+05 -2.617550E+05 -5.743708E+05  1.581400E-09 -5.529973E-10
        38  19 -1.044193E+06 -1.078416E+05  1.381910E+04 -4.528865E+05 -3.995548E+04 -6.004863E+02
        38  20 -1.041763E+06 -6.841613E+04 -1.635968E+04 -4.043003E+05 -7.733943E+04 -1.532974E+04
        38  21 -1.094280E+06 -1.799419E+05 -1.145625E+05 -3.235378E+05 -1.118537E+05 -3.770011E+04
        38  22 -1.304279E+06 -1.842253E+05 -4.647726E+04 -5.028653E+05 -3.741476E+04  3.529574E+02
        38  23 -1.286384E+06 -1.798826E+05 -8.091235E+04 -4.920132E+05 -8.077975E+04 -1.661920E+04
        38  24 -1.324652E+06 -3.277230E+05 -1.881388E+05 -4.489781E+05 -1.212749E+05 -4.122799E+04
        38  25 -1.564299E+06 -2.606101E+05 -1.067782E+05 -5.528281E+05 -3.487519E+04  1.306182E+03
        38  26 -1.530946E+06 -2.913364E+05 -1.454701E+05 -5.796919E+05 -8.421858E+04 -1.790782E+04
        38  27 -1.554963E+06 -4.754618E+05 -2.617191E+05 -5.743661E+05 -1.306923E+05 -4.475209E+04
        39   1 -1.426330E+05  5.655318E+04  6.851215E+04  2.560414E+04  4.705428E+04  1.941036E+00
        39   2 -1.507932E+05 -1.535811E+03  3.099458E+04  8.656722E+03  3.058303E+04  4.265411E-01
        39   3 -1.426385E+05 -2.952250E+03  1.837154E+04 -8.290408E+03  1.411173E+04 -1.884852E-01
        39   4 -1.426337E+05  5.655195E+04  6.851198E+04 -1.112762E-09  4.705428E+04  4.854792E-10
        39   5 -1.507933E+05 -1.535952E+03  3.099456E+04  3.819742E-09  3.058303E+04  1.600957E-09
        39   6 -1.426386E+05 -2.952379E+03  1.837152E+04  8.748136E-09  1.411173E+04  1.383361E-09
        39   7 -1.426330E+05  5.655318E+04  6.851215E+04 -2.560414E+04  4.705428E+04 -1.941036E+00
        39   8 -1.507932E+05 -1.535811E+03  3.099458E+04 -8.656722E+03  3.058303E+04 -4.265411E-01
        39   9 -1.426385E+05 -2.952250E+03  1.837154E+04  8.290408E+03  1.411173E+04  1.884852E-01
        39  10 -1.426354E+05  5.655259E+04  6.850799E+04  2.560414E+04 -2.280011E-10 -1.391747E-10
        39  11 -1.507942E+05 -1.536062E+03  3.099282E+04  8.656722E+03 -2.010301E-09 -1.002965E-11
        39  12 -1.426387E+05 -2.952303E+03  1.837117E+04 -8.290408E+03 -5.563699E-10  1.082844E-09
        39  13 -1.426361E+05  5.655135E+04  6.850782E+04 -9.678282E-09 -1.097980E-09  8.235495E-11
        39  14 -1.507943E+05 -1.536203E+03  3.099280E+04 -3.675440E-09  1.161881E-09  3.464508E-10
        39  15 -1.426388E+05 -2.952432E+03  1.837115E+04  9.328110E-09  9.429804E-10  5.772867E-10
        39  16 -1.426354E+05  5.655259E+04  6.850799E+04 -2.560414E+04  1.985471E-10  2.840974E-10
        39  17 -1.507942E+05 -1.536062E+03  3.099282E+04 -8.656722E+03 -6.162324E-10  6.750433E-10
        39  18 -1.426387E+05 -2.952303E+03  1.837117E+04  8.290408E+03  4.012476E-10  9.388038E-11
        39  19 -1.426330E+05  5.655318E+04  6.851215E+04  2.560414E+04 -4.705428E+04 -1.941036E+00
        39  20 -1.507932E+05 -1.535811E+03  3.099458E+04  8.656722E+03 -3.058303E+04 -4.265411E-01
        39  21 -1.426385E+05 -2.952250E+03  1.837154E+04 -8.290408E+03 -1.411173E+04  1.884852E-01
        39  22 -1.426337E+05  5.655195E+04  6.851198E+04 -1.012865E-09 -4.705428E+04 -3.232424E-10
        39  23 -1.507933E+05 -1.535952E+03  3.099456E+04  1.753219E-09 -3.058303E+04 -8.967920E-10
        39  24 -1.426386E+05 -2.952379E+03  1.837152E+04  1.555868E-08 -1.411173E+04 -2.293479E-10
        39  25 -1.426330E+05  5.655318E+04  6.851215E+04 -2.560414E+04 -4.705428E+04  1.941036E+00
        39  26 -1.507932E+05 -1.535811E+03  3.099458E+04 -8.656722E+03 -3.058303E+04  4.265411E-01
        39  27 -1.426385E+05 -2.952250E+03  1.837154E+04  8.290408E+03 -1.411173E+04 -1.884852E-01
        40   1 -1.459477E+05  3.472052E+03  1.467232E+04  1.210585E+03  1.146805E+04  2.236703E-02
        40   2 -1.466579E+05 -1.722458E+02  7.870661E+03  2.885906E+02  7.506830E+03  3.490294E-03
        40   3 -1.459483E+05 -2.012715E+02  4.552220E+03 -6.333920E+02  3.545682E+03 -3.618225E-03
        40   4 -1.459477E+05  3.472050E+03  1.467232E+04 -1.561627E-09  1.146805E+04  9.202377E-10
        40   5 -1.466579E+05 -1.722459E+02  7.870661E+03 -1.198690E-08  7.506830E+03 -2.692469E-10
        40   6 -1.459483E+05 -2.012723E+02  4.552220E+03 -1.056437E-08  3.545682E+03 -2.112662E-09
        40   7 -1.459477E+05  3.472052E+03  1.467232E+04 -1.210585E+03  1.146805E+04 -2.236703E-02
        40   8 -1.466579E+05 -1.722458E+02  7.870661E+03 -2.885906E+02  7.506830E+03 -3.490295E-03
        40   9 -1.459483E+05 -2.012715E+02  4.552220E+03  6.333920E+02  3.545682E+03  3.618221E-03
        40  10 -1.459479E+05  3.472017E+03  1.467207E+04  1.210585E+03  1.135454E-10  8.371448E-10
        40  11 -1.466580E+05 -1.722609E+02  7.870555E+03  2.885906E+02 -3.228765E-10 -8.389888E-10
        40  12 -1.459483E+05 -2.012749E+02  4.552197E+03 -6.333920E+02  1.321348E-09 -1.183274E-09
        40  13 -1.459479E+05  3.472014E+03  1.467207E+04  2.723648E-09 -1.079025E-09  6.400639E-10
        40  14 -1.466580E+05 -1.722611E+02  7.870555E+03 -2.467990E-09 -1.076917E-09  8.106175E-11
        40  15 -1.459483E+05 -2.012757E+02  4.552196E+03 -3.350945E-09 -1.312668E-09 -1.341068E-09
        40  16 -1.459479E+05  3.472017E+03  1.467207E+04 -1.210585E+03  1.488448E-09  4.548990E-10
        40  17 -1.466580E+05 -1.722609E+02  7.870555E+03 -2.885906E+02 -1.548339E-09  1.014064E-09
        40  18 -1.459483E+05 -2.012749E+02  4.552197E+03  6.333920E+02 -2.307672E-09 -1.508881E-09
        40  19 -1.459477E+05  3.472052E+03  1.467232E+04  1.210585E+03 -1.146805E+04 -2.236703E-02
        40  20 -1.466579E+05 -1.722458E+02  7.870661E+03  2.885906E+02 -7.506830E+03 -3.490296E-03
        40  21 -1.459483E+05 -2.012715E+02  4.552220E+03 -6.333920E+02 -3.545682E+03  3.618223E-03
        40  22 -1.459477E+05  3.472050E+03  1.467232E+04  2.699326E-09 -1.146805E+04  3.581726E-10
        40  23 -1.466579E+05 -1.722459E+02  7.870661E+03  3.819540E-09 -7.506830E+03  4.366147E-10
        40  24 -1.459483E+05 -2.012723E+02  4.552220E+03  1.709573E-09 -3.545682E+03 -5.698813E-10
        40  25 -1.459477E+05  3.472052E+03  1.467232E+04 -1.210585E+03 -1.146805E+04  2.236703E-02
        40  26 -1.466579E+05 -1.722458E+02  7.870661E+03 -2.885906E+02 -7.506830E+03  3.490297E-03
        40  27 -1.459483E+05 -2.012715E+02  4.552220E+03  6.333920E+02 -3.545682E+03 -3.618224E-03
        41   1 -1.462227E+05  1.901999E+02  3.493528E+03 -2.677266E+01  2.837735E+03 -1.224030E-04
        41   2 -1.463153E+05 -2.943027E+01  1.961439E+03 -4.691404E+01  1.864307E+03 -1.409107E-04
        41   3 -1.462228E+05 -1.607662E+01  1.121469E+03 -6.705573E+01  8.908653E+02 -9.624242E-05
        41   4 -1.462227E+05  1.901999E+02  3.493528E+03  7.115688E-09  2.837735E+03 -1.956256E-09
        41   5 -1.463153E+05 -2.943028E+01  1.961439E+03 -4.472506E-10  1.864307E+03 -4.619712E-11
        41   6 -1.462228E+05 -1.607663E+01  1.121469E+03 -2.086535E-09  8.908653E+02  4.832896E-10
        41   7 -1.462227E+05  1.901999E+02  3.493528E+03  2.677266E+01  2.837735E+03  1.223991E-04
        41   8 -1.463153E+05 -2.943027E+01  1.961439E+03  4.691404E+01  1.864307E+03  1.409106E-04
        41   9 -1.462228E+05 -1.607662E+01  1.121469E+03  6.705573E+01  8.908653E+02  9.624340E-05
        41  10 -1.462227E+05  1.901977E+02  3.493512E+03 -2.677266E+01 -2.197756E-09 -8.341670E-10
        41  11 -1.463153E+05 -2.943120E+01  1.961432E+03 -4.691404E+01 -7.494419E-10  2.835804E-11
        41  12 -1.462228E+05 -1.607683E+01  1.121467E+03 -6.705573E+01 -1.308741E-09  1.041583E-09
        41  13 -1.462227E+05  1.901977E+02  3.493512E+03 -5.451515E-09 -3.228638E-09 -1.280037E-09
        41  14 -1.463153E+05 -2.943121E+01  1.961432E+03 -1.360635E-09 -2.440679E-11  2.024606E-10
        41  15 -1.462228E+05 -1.607684E+01  1.121467E+03 -6.423490E-09  1.743036E-09  5.843393E-10
        41  16 -1.462227E+05  1.901977E+02  3.493512E+03  2.677266E+01  3.747818E-12 -1.736382E-09
        41  17 -1.463153E+05 -2.943120E+01  1.961432E+03  4.691404E+01 -7.254897E-11  3.744545E-10
        41  18 -1.462228E+05 -1.607683E+01  1.121467E+03  6.705573E+01  7.609690E-10  1.182690E-10
        41  19 -1.462227E+05  1.901999E+02  3.493528E+03 -2.677266E+01 -2.837735E+03  1.224013E-04
        41  20 -1.463153E+05 -2.943027E+01  1.961439E+03 -4.691404E+01 -1.864307E+03  1.409108E-04
        41  21 -1.462228E+05 -1.607662E+01  1.121469E+03 -6.705573E+01 -8.908653E+02  9.624455E-05
        41  22 -1.462227E+05  1.901999E+02  3.493528E+03  3.519337E-09 -2.837735E+03 -6.030181E-10
        41  23 -1.463153E+05 -2.943028E+01  1.961439E+03 -6.581792E-09 -1.864307E+03  4.439348E-10
        41  24 -1.462228E+05 -1.607663E+01  1.121469E+03  2.431706E-09 -8.908653E+02  6.894447E-10
        41  25 -1.462227E+05  1.901999E+02  3.493528E+03  2.677266E+01 -2.837735E+03 -1.224026E-04
        41  26 -1.463153E+05 -2.943027E+01  1.961439E+03  4.691404E+01 -1.864307E+03 -1.409099E-04
        41  27 -1.462228E+05 -1.607662E+01  1.121469E+03  6.705573E+01 -8.908653E+02 -9.624320E-05
        42   1 -1.462564E+05  4.564505E+00  8.466737E+02 -2.786901E+01  7.135923E+02 -3.203907E-05
        42   2 -1.462734E+05 -6.200274E+00  4.672762E+02 -2.007800E+01  4.825138E+02 -1.560743E-05
        42   3 -1.462564E+05 -1.577879E+00  2.421946E+02 -1.228698E+01  2.514354E+02 -4.976432E-06
        42   4 -1.462564E+05  4.564503E+00  8.466737E+02 -2.253315E-09  7.135923E+02  4.276029E-10
        42   5 -1.462734E+05 -6.200275E+00  4.672762E+02 -3.436733E-11  4.825138E+02  6.450917E-10
        42   6 -1.462564E+05 -1.577879E+00  2.421946E+02 -2.123456E-09  2.514354E+02  9.683342E-10
        42   7 -1.462564E+05  4.564505E+00  8.466737E+02  2.786901E+01  7.135923E+02  3.203994E-05
        42   8 -1.462734E+05 -6.200274E+00  4.672762E+02  2.007800E+01  4.825138E+02  1.560867E-05
        42   9 -1.462564E+05 -1.577879E+00  2.421946E+02  1.228698E+01  2.514354E+02  4.978362E-06
        42  10 -1.462564E+05  4.564368E+00  8.466728E+02 -2.786901E+01 -5.199820E-10  9.418054E-10
        42  11 -1.462734E+05 -6.200337E+00  4.672758E+02 -2.007800E+01  4.713187E-10 -3.968858E-11
        42  12 -1.462564E+05 -1.577896E+00  2.421945E+02 -1.228698E+01 -1.580621E-09 -2.502183E-10
        42  13 -1.462564E+05  4.564367E+00  8.466728E+02 -2.372410E-09  5.079526E-11  2.760321E-10
        42  14 -1.462734E+05 -6.200338E+00  4.672758E+02 -7.611125E-09 -1.103360E-09 -1.705749E-10
        42  15 -1.462564E+05 -1.577896E+00  2.421945E+02 -1.177188E-08  1.717221E-09 -1.627985E-10
        42  16 -1.462564E+05  4.564368E+00  8.466728E+02  2.786901E+01  1.010351E-09 -3.852246E-10
        42  17 -1.462734E+05 -6.200337E+00  4.672758E+02  2.007800E+01 -1.226104E-09 -3.051405E-10
        42  18 -1.462564E+05 -1.577896E+00  2.421945E+02  1.228698E+01 -4.181197E-11 -7.504539E-11
        42  19 -1.462564E+05  4.564505E+00  8.466737E+02 -2.786901E+01 -7.135923E+02  3.204099E-05
        42  20 -1.462734E+05 -6.200274E+00  4.672762E+02 -2.007800E+01 -4.825138E+02  1.560739E-05
        42  21 -1.462564E+05 -1.577879E+00  2.421946E+02 -1.228698E+01 -2.514354E+02  4.975925E-06
        42  22 -1.462564E+05  4.564503E+00  8.466737E+02  1.816925E-09 -7.135923E+02  1.174838E-10
        42  23 -1.462734E+05 -6.200275E+00  4.672762E+02 -8.726682E-09 -4.825138E+02 -9.883799E-10
        42  24 -1.462564E+05 -1.577879E+00  2.421946E+02  2.000139E-09 -2.514354E+02 -1.291779E-09
        42  25 -1.462564E+05  4.564505E+00  8.466737E+02  2.786901E+01 -7.135923E+02 -3.204073E-05
        42  26 -1.462734E+05 -6.200274E+00  4.672762E+02  2.007800E+01 -4.825138E+02 -1.560937E-05
        42  27 -1.462564E+05 -1.577879E+00  2.421946E+02  1.228698E+01 -2.514354E+02 -4.978536E-06
        43   1 -1.462636E+05 -1.257363E+00  1.617014E+02 -1.011359E+01  2.148347E+02 -3.499655E-06
        43   2 -1.462644E+05 -3.747216E-01  3.240856E+01 -8.718414E+00  1.988644E+02 -2.793090E-06
        43   3 -1.462636E+05 -1.149010E+00 -8.690044E+01 -7.323258E+00  1.828942E+02 -2.158547E-06
        43   4 -1.462636E+05 -1.257363E+00  1.617014E+02 -2.301037E-09  2.148347E+02  7.448236E-10
        43   5 -1.462644E+05 -3.747218E-01  3.240856E+01 -2.735878E-09  1.988644E+02 -2.939374E-11
        43   6 -1.462636E+05 -1.149010E+00 -8.690044E+01 -4.773895E-10  1.828942E+02 -2.000350E-10
        43   7 -1.462636E+05 -1.257363E+00  1.617014E+02  1.011359E+01  2.148347E+02  3.501166E-06
        43   8 -1.462644E+05 -3.747216E-01  3.240856E+01  8.718414E+00  1.988644E+02  2.793021E-06
        43   9 -1.462636E+05 -1.149010E+00 -8.690044E+01  7.323258E+00  1.828942E+02  2.158121E-06
        43  10 -1.462636E+05 -1.257375E+00  1.617013E+02 -1.011359E+01 -1.811202E-09 -1.067586E-10
        43  11 -1.462644E+05 -3.747322E-01  3.240849E+01 -8.718414E+00 -1.846941E-09 -2.020451E-10
        43  12 -1.462636E+05 -1.149019E+00 -8.690050E+01 -7.323258E+00 -6.145096E-10 -7.205544E-10
        43  13 -1.462636E+05 -1.257375E+00  1.617013E+02 -4.529260E-09  4.865816E-11 -2.085974E-10
        43  14 -1.462644E+05 -3.747324E-01  3.240849E+01  3.720066E-09  5.286420E-11 -4.269067E-10
        43  15 -1.462636E+05 -1.149019E+00 -8.690050E+01 -4.156075E-10 -2.771572E-09 -2.694953E-10
        43  16 -1.462636E+05 -1.257375E+00  1.617013E+02  1.011359E+01  7.437553E-10 -3.146175E-10
        43  17 -1.462644E+05 -3.747322E-01  3.240849E+01  8.718414E+00  1.065690E-09 -6.511530E-10
        43  18 -1.462636E+05 -1.149019E+00 -8.690050E+01  7.323258E+00  1.134762E-10  1.841035E-10
        43  19 -1.462636E+05 -1.257363E+00  1.617014E+02 -1.011359E+01 -2.148347E+02  3.499463E-06
        43  20 -1.462644E+05 -3.747216E-01  3.240856E+01 -8.718414E+00 -1.988644E+02  2.792722E-06
        43  21 -1.462636E+05 -1.149010E+00 -8.690044E+01 -7.323258E+00 -1.828942E+02  2.157111E-06
        43  22 -1.462636E+05 -1.257363E+00  1.617014E+02  1.047480E-08 -2.148347E+02 -1.163577E-09
        43  23 -1.462644E+05 -3.747218E-01  3.240856E+01  3.715202E-09 -1.988644E+02 -8.287589E-10
        43  24 -1.462636E+05 -1.149010E+00 -8.690044E+01  1.262987E-09 -1.828942E+02 -3.371369E-10
        43  25 -1.462636E+05 -1.257363E+00  1.617014E+02  1.011359E+01 -2.148347E+02 -3.501792E-06
        43  26 -1.462644E+05 -3.747216E-01  3.240856E+01  8.718414E+00 -1.988644E+02 -2.794387E-06
        43  27 -1.462636E+05 -1.149010E+00 -8.690044E+01  7.323258E+00 -1.828942E+02 -2.157779E-06
        44   1 -1.462710E+05  2.381199E+00 -1.534055E+02 -1.426655E+01  2.044593E+02 -4.699979E-06
        44   2 -1.462551E+05  4.996520E+00 -3.284830E+02 -9.842276E+00  3.675486E+02 -5.827877E-06
        44   3 -1.462710E+05 -3.475486E+01 -6.203473E+02 -5.417934E+00  5.306402E+02 -4.631723E-06
        44   4 -1.462710E+05  2.381198E+00 -1.534055E+02  1.937988E-09  2.044593E+02  5.463217E-11
        44   5 -1.462551E+05  4.996520E+00 -3.284830E+02 -5.761357E-09  3.675486E+02  3.130697E-10
        44   6 -1.462710E+05 -3.475486E+01 -6.203473E+02  3.231812E-09  5.306402E+02 -3.294527E-11
        44   7 -1.462710E+05  2.381199E+00 -1.534055E+02  1.426655E+01  2.044593E+02  4.700110E-06
        44   8 -1.462551E+05  4.996520E+00 -3.284830E+02  9.842276E+00  3.675486E+02  5.828483E-06
        44   9 -1.462710E+05 -3.475486E+01 -6.203473E+02  5.417934E+00  5.306402E+02  4.631650E-06
        44  10 -1.462710E+05  2.381187E+00 -1.534055E+02 -1.426655E+01 -9.172421E-10 -3.172788E-10
        44  11 -1.462551E+05  4.996484E+00 -3.284832E+02 -9.842276E+00  2.907404E-10  6.638036E-10
        44  12 -1.462710E+05 -3.475494E+01 -6.203478E+02 -5.417934E+00 -2.713450E-10 -3.550711E-10
        44  13 -1.462710E+05  2.381187E+00 -1.534055E+02 -7.615010E-12 -1.136055E-09  2.579705E-10
        44  14 -1.462551E+05  4.996484E+00 -3.284832E+02 -3.676678E-09 -1.156163E-09  6.519669E-10
        44  15 -1.462710E+05 -3.475494E+01 -6.203478E+02 -3.574976E-09 -5.249514E-10 -5.320993E-10
        44  16 -1.462710E+05  2.381187E+00 -1.534055E+02  1.426655E+01  9.785533E-10  8.313132E-10
        44  17 -1.462551E+05  4.996484E+00 -3.284832E+02  9.842276E+00  9.624104E-10  6.652441E-10
        44  18 -1.462710E+05 -3.475494E+01 -6.203478E+02  5.417934E+00 -2.296518E-09 -7.048686E-10
        44  19 -1.462710E+05  2.381199E+00 -1.534055E+02 -1.426655E+01 -2.044593E+02  4.699400E-06
        44  20 -1.462551E+05  4.996520E+00 -3.284830E+02 -9.842276E+00 -3.675486E+02  5.829209E-06
        44  21 -1.462710E+05 -3.475486E+01 -6.203473E+02 -5.417934E+00 -5.306402E+02  4.631035E-06
        44  22 -1.462710E+05  2.381198E+00 -1.534055E+02 -1.953744E-09 -2.044593E+02  4.650564E-10
        44  23 -1.462551E+05  4.996520E+00 -3.284830E+02 -3.746348E-09 -3.675486E+02  9.960985E-10
        44  24 -1.462710E+05 -3.475486E+01 -6.203473E+02  6.847103E-09 -5.306402E+02 -1.032696E-09
        44  25 -1.462710E+05  2.381199E+00 -1.534055E+02  1.426655E+01 -2.044593E+02 -4.698444E-06
        44  26 -1.462551E+05  4.996520E+00 -3.284830E+02  9.842276E+00 -3.675486E+02 -5.827189E-06
        44  27 -1.462710E+05 -3.475486E+01 -6.203473E+02  5.417934E+00 -5.306402E+02 -4.633079E-06
        45   1 -1.463214E+05  3.655763E+01 -8.174947E+02 -1.160205E+02  6.570653E+02 -1.228194E-04
        45   2 -1.461922E+05  3.132433E+01 -1.428108E+03  5.230100E+01  1.375898E+03  1.159359E-04
        45   3 -1.463215E+05 -6.331785E+02 -2.671609E+03  2.206225E+02  2.094730E+03  7.445619E-04
        45   4 -1.463214E+05  3.655761E+01 -8.174947E+02 -6.574008E-10  6.570653E+02 -3.576685E-10
        45   5 -1.461922E+05  3.132433E+01 -1.428108E+03  7.083286E-09  1.375898E+03 -4.877481E-10
        45   6 -1.463215E+05 -6.331786E+02 -2.671609E+03  1.024789E-08  2.094730E+03 -2.406933E-10
        45   7 -1.463214E+05  3.655763E+01 -8.174947E+02  1.160205E+02  6.570653E+02  1.228187E-04
        45   8 -1.461922E+05  3.132433E+01 -1.428108E+03 -5.230100E+01  1.375898E+03 -1.159370E-04
        45   9 -1.463215E+05 -6.331785E+02 -2.671609E+03 -2.206225E+02  2.094730E+03 -7.445624E-04
        45  10 -1.463214E+05  3.655752E+01 -8.174955E+02 -1.160205E+02 -1.157568E-09 -5.362555E-10
        45  11 -1.461922E+05  3.132382E+01 -1.428111E+03  5.230100E+01  1.532184E-09  4.473509E-10
        45  12 -1.463215E+05 -6.331797E+02 -2.671618E+03  2.206225E+02  2.093486E-09  4.392254E-10
        45  13 -1.463214E+05  3.655749E+01 -8.174955E+02 -2.561991E-09 -6.309650E-12 -7.242530E-10
        45  14 -1.461922E+05  3.132382E+01 -1.428111E+03 -6.834010E-09 -5.648221E-10  2.209514E-10
        45  15 -1.463215E+05 -6.331798E+02 -2.671618E+03  1.278452E-09  2.848764E-09  2.219567E-10
        45  16 -1.463214E+05  3.655752E+01 -8.174955E+02  1.160205E+02  3.528442E-11 -8.931775E-10
        45  17 -1.461922E+05  3.132382E+01 -1.428111E+03 -5.230100E+01 -1.855215E-10 -9.443810E-12
        45  18 -1.463215E+05 -6.331797E+02 -2.671618E+03 -2.206225E+02 -7.495945E-10 -2.043979E-12
        45  19 -1.463214E+05  3.655763E+01 -8.174947E+02 -1.160205E+02 -6.570653E+02  1.228183E-04
        45  20 -1.461922E+05  3.132433E+01 -1.428108E+03  5.230100E+01 -1.375898E+03 -1.159350E-04
        45  21 -1.463215E+05 -6.331785E+02 -2.671609E+03  2.206225E+02 -2.094730E+03 -7.445610E-04
        45  22 -1.463214E+05  3.655761E+01 -8.174947E+02 -2.312891E-09 -6.570653E+02 -1.090038E-09
        45  23 -1.461922E+05  3.132433E+01 -1.428108E+03 -1.644366E-08 -1.375898E+03  9.298279E-10
        45  24 -1.463215E+05 -6.331786E+02 -2.671609E+03  3.348934E-09 -2.094730E+03  6.868336E-10
        45  25 -1.463214E+05  3.655763E+01 -8.174947E+02  1.160205E+02 -6.570653E+02 -1.228205E-04
        45  26 -1.461922E+05  3.132433E+01 -1.428108E+03 -5.230100E+01 -1.375898E+03  1.159369E-04
        45  27 -1.463215E+05 -6.331785E+02 -2.671609E+03 -2.206225E+02 -2.094730E+03  7.445624E-04
        46   1 -1.469250E+05  5.383843E+02 -3.347216E+03 -1.512006E+03  2.576162E+03 -6.275524E-03
        46   2 -1.454379E+05  2.800922E+02 -5.650340E+03  1.578594E+03  5.579268E+03  1.418959E-02
        46   3 -1.469258E+05 -1.031271E+04 -1.249257E+04  4.669138E+03  8.582330E+03  6.456018E-02
        46   4 -1.469250E+05  5.383800E+02 -3.347217E+03  7.906910E-09  2.576162E+03  6.679917E-10
        46   5 -1.454379E+05  2.800875E+02 -5.650340E+03  7.908041E-09  5.579268E+03  1.827817E-09
        46   6 -1.469258E+05 -1.031275E+04 -1.249257E+04  5.217219E-09  8.582330E+03  7.317226E-10
        46   7 -1.469250E+05  5.383843E+02 -3.347216E+03  1.512006E+03  2.576162E+03  6.275526E-03
        46   8 -1.454379E+05  2.800922E+02 -5.650340E+03 -1.578594E+03  5.579268E+03 -1.418959E-02
        46   9 -1.469258E+05 -1.031271E+04 -1.249257E+04 -4.669138E+03  8.582330E+03 -6.456018E-02
        46  10 -1.469250E+05  5.383825E+02 -3.347229E+03 -1.512006E+03 -1.638593E-09  3.310416E-10
        46  11 -1.454380E+05  2.800838E+02 -5.650398E+03  1.578594E+03 -7.808895E-10  3.854300E-10
        46  12 -1.469258E+05 -1.031273E+04 -1.249270E+04  4.669138E+03  1.201459E-09  1.293039E-10
        46  13 -1.469250E+05  5.383782E+02 -3.347229E+03  3.728212E-09 -9.662474E-10  2.882032E-10
        46  14 -1.454380E+05  2.800791E+02 -5.650399E+03  4.675320E-09  1.076906E-09  6.457902E-10
        46  15 -1.469259E+05 -1.031277E+04 -1.249271E+04 -2.993405E-09  2.908946E-10  2.542530E-10
        46  16 -1.469250E+05  5.383825E+02 -3.347229E+03  1.512006E+03  1.128330E-09  2.419223E-10
        46  17 -1.454380E+05  2.800838E+02 -5.650398E+03 -1.578594E+03  2.820926E-10  9.110214E-10
        46  18 -1.469258E+05 -1.031273E+04 -1.249270E+04 -4.669138E+03 -3.867486E-10  3.736105E-10
        46  19 -1.469250E+05  5.383843E+02 -3.347216E+03 -1.512006E+03 -2.576162E+03  6.275525E-03
        46  20 -1.454379E+05  2.800922E+02 -5.650340E+03  1.578594E+03 -5.579268E+03 -1.418959E-02
        46  21 -1.469258E+05 -1.031271E+04 -1.249257E+04  4.669138E+03 -8.582330E+03 -6.456018E-02
        46  22 -1.469250E+05  5.383800E+02 -3.347217E+03  1.462524E-08 -2.576162E+03 -9.239069E-11
        46  23 -1.454379E+05  2.800875E+02 -5.650340E+03  7.902646E-09 -5.579268E+03 -5.386390E-10
        46  24 -1.469258E+05 -1.031275E+04 -1.249257E+04  2.795241E-09 -8.582330E+03 -2.223790E-10
        46  25 -1.469250E+05  5.383843E+02 -3.347216E+03  1.512006E+03 -2.576162E+03 -6.275525E-03
        46  26 -1.454379E+05  2.800922E+02 -5.650340E+03 -1.578594E+03 -5.579268E+03  1.418959E-02
        46  27 -1.469258E+05 -1.031271E+04 -1.249257E+04 -4.669138E+03 -8.582330E+03  6.456018E-02
        47   1  2.342827E+05  5.170504E+05  2.357101E+05 -9.612716E+04  1.000958E+04  4.688988E+04
        47   2  1.703365E+05  3.744851E+05  1.735908E+05 -5.798612E+04  2.998192E+04  1.981247E+04
        47   3  1.364020E+05  2.431080E+05  1.366247E+05 -8.041669E+04  2.755554E+04 -7.263693E+03
        47   4  2.633262E+04 -3.192437E+05  3.214757E+04 -8.395637E+04  1.001726E+04  2.067913E+04
        47   5 -7.927431E+02 -3.231764E+05  1.558750E+04 -5.367427E+04  2.998777E+04  1.244158E+04
        47   6 -1.156167E+03 -3.191941E+05  1.111516E+04 -8.396601E+04  2.754901E+04  4.199240E+03
        47   7 -1.816680E+05 -1.154898E+06 -1.714630E+05 -7.180193E+04  1.002392E+04 -5.496443E+03
        47   8 -1.719554E+05 -1.020386E+06 -1.424470E+05 -4.936723E+04  2.999353E+04  5.078891E+03
        47   9 -1.387357E+05 -8.812012E+05 -1.144138E+05 -8.751201E+04  2.754235E+04  1.565190E+04
        47  10  2.342820E+05  5.170480E+05  2.357057E+05 -9.612754E+04  6.956846E-10 -6.896896E-10
        47  11  1.703354E+05  3.744844E+05  1.735884E+05 -5.798660E+04 -2.780712E-09  4.339848E-10
        47  12  1.364012E+05  2.431077E+05  1.366232E+05 -8.041653E+04  1.231871E-09  1.750974E-09
        47  13  2.633240E+04 -3.192442E+05  3.214657E+04 -8.395653E+04 -3.569887E-10  3.717714E-11
        47  14 -7.937502E+02 -3.231768E+05  1.558552E+04 -5.367457E+04  2.078070E-10 -2.167382E-12
        47  15 -1.156987E+03 -3.191943E+05  1.111370E+04 -8.396610E+04 -8.375671E-10  1.915474E-10
        47  16 -1.816681E+05 -1.154898E+06 -1.714633E+05 -7.180188E+04  1.543348E-10  6.645677E-10
        47  17 -1.719564E+05 -1.020386E+06 -1.424487E+05 -4.936736E+04  1.029207E-09 -9.517412E-10
        47  18 -1.387366E+05 -8.812017E+05 -1.144156E+05 -8.751235E+04 -1.363885E-09 -1.760526E-09
        47  19  2.342827E+05  5.170504E+05  2.357101E+05 -9.612716E+04 -1.000958E+04 -4.688988E+04
        47  20  1.703365E+05  3.744851E+05  1.735908E+05 -5.798612E+04 -2.998192E+04 -1.981247E+04
        47  21  1.364020E+05  2.431080E+05  1.366247E+05 -8.041669E+04 -2.755554E+04  7.263693E+03
        47  22  2.633262E+04 -3.192437E+05  3.214757E+04 -8.395637E+04 -1.001726E+04 -2.067913E+04
        47  23 -7.927431E+02 -3.231764E+05  1.558750E+04 -5.367427E+04 -2.998777E+04 -1.244158E+04
        47  24 -1.156167E+03 -3.191941E+05  1.111516E+04 -8.396601E+04 -2.754901E+04 -4.199240E+03
        47  25 -1.816680E+05 -1.154898E+06 -1.714630E+05 -7.180193E+04 -1.002392E+04  5.496443E+03
        47  26 -1.719554E+05 -1.020386E+06 -1.424470E+05 -4.936723E+04 -2.999353E+04 -5.078891E+03
        47  27 -1.387357E+05 -8.812012E+05 -1.144138E+05 -8.751201E+04 -2.754235E+04 -1.565190E+04
        48   1  1.103187E+05  1.236894E+05  1.098628E+05 -8.552481E+04  2.098616E+04 -2.402762E+03
        48   2  7.502930E+04 -1.425665E+04  7.845381E+04 -5.349823E+04  1.488472E+04 -7.921052E+03
        48   3  4.450491E+04 -1.503585E+05  5.180819E+04 -8.306224E+04  8.089398E+03 -1.344159E+04
        48   4  1.543803E+03 -3.205413E+05  1.027093E+04 -8.418942E+04  2.098318E+04  2.434271E+03
        48   5 -1.406739E+02 -3.213920E+05  9.792985E+03 -5.339270E+04  1.488024E+04 -2.499085E+03
        48   6  2.840760E+03 -3.205169E+05  1.367444E+04 -8.418816E+04  8.083223E+03 -7.435877E+03
        48   7 -1.072445E+05 -7.645882E+05 -8.933334E+04 -8.285494E+04  2.098023E+04  7.267878E+03
        48   8 -7.531705E+04 -6.284394E+05 -5.887368E+04 -5.328719E+04  1.487577E+04  2.920227E+03
        48   9 -3.882534E+04 -4.906483E+05 -2.446101E+04 -8.531377E+04  8.077025E+03 -1.431791E+03
        48  10  1.103182E+05  1.236893E+05  1.098619E+05 -8.552477E+04  5.123987E-10  7.727319E-11
        48  11  7.502904E+04 -1.425677E+04  7.845328E+04 -5.349814E+04  1.563558E-09 -1.962834E-09
        48  12  4.450479E+04 -1.503587E+05  5.180773E+04 -8.306215E+04  2.312982E-10 -9.362727E-10
        48  13  1.543329E+03 -3.205414E+05  1.027009E+04 -8.418946E+04 -3.720795E-09  3.846965E-10
        48  14 -1.409133E+02 -3.213921E+05  9.792557E+03 -5.339267E+04 -2.937012E-09  1.901736E-11
        48  15  2.840675E+03 -3.205170E+05  1.367421E+04 -8.418811E+04 -7.443904E-10  2.836118E-10
        48  16 -1.072450E+05 -7.645884E+05 -8.933426E+04 -8.285506E+04 -1.421131E-11 -7.017266E-11
        48  17 -7.531729E+04 -6.284395E+05 -5.887411E+04 -5.328722E+04 -3.125959E-11  8.595572E-10
        48  18 -3.882541E+04 -4.906484E+05 -2.446114E+04 -8.531376E+04  1.278149E-09  9.798479E-10
        48  19  1.103187E+05  1.236894E+05  1.098628E+05 -8.552481E+04 -2.098616E+04  2.402762E+03
        48  20  7.502930E+04 -1.425665E+04  7.845381E+04 -5.349823E+04 -1.488472E+04  7.921052E+03
        48  21  4.450491E+04 -1.503585E+05  5.180819E+04 -8.306224E+04 -8.089398E+03  1.344159E+04
        48  22  1.543803E+03 -3.205413E+05  1.027093E+04 -8.418942E+04 -2.098318E+04 -2.434271E+03
        48  23 -1.406739E+02 -3.213920E+05  9.792985E+03 -5.339270E+04 -1.488024E+04  2.499085E+03
        48  24  2.840760E+03 -3.205169E+05  1.367444E+04 -8.418816E+04 -8.083223E+03  7.435877E+03
        48  25 -1.072445E+05 -7.645882E+05 -8.933334E+04 -8.285494E+04 -2.098023E+04 -7.267878E+03
        48  26 -7.531705E+04 -6.284394E+05 -5.887368E+04 -5.328719E+04 -1.487577E+04 -2.920227E+03
        48  27 -3.882534E+04 -4.906483E+05 -2.446101E+04 -8.531377E+04 -8.077025E+03  1.431791E+03
        49   1  1.066696E+04 -2.657462E+05  2.756382E+04 -9.077630E+04  2.980710E+03 -1.766534E+04
        49   2 -2.192567E+04 -4.088145E+05  5.842326E+03 -4.645763E+04 -2.820484E+03 -2.525721E+04
        49   3 -1.014459E+04 -5.399094E+05  1.288772E+02 -6.349382E+04 -1.626849E+03 -3.284088E+04
        49   4 -2.097765E+03 -3.180137E+05  1.610886E+04 -8.414776E+04  2.972081E+03 -9.851534E+03
        49   5 -1.131477E+03 -3.244974E+05  2.537669E+04 -5.344917E+04 -2.822166E+03 -2.331898E+04
        49   6  4.522453E+04 -3.180125E+05  5.473101E+04 -8.410186E+04 -1.621705E+03 -3.677984E+04
        49   7 -1.486248E+04 -3.702784E+05  4.653982E+03 -7.751978E+04  2.963619E+03 -2.038374E+03
        49   8  1.966240E+04 -2.401736E+05  4.491062E+04 -6.044168E+04 -2.823893E+03 -2.138050E+04
        49   9  1.005916E+05 -9.606978E+04  1.093298E+05 -1.047173E+05 -1.616301E+03 -4.072021E+04
        49  10  1.066687E+04 -2.657466E+05  2.756322E+04 -9.077626E+04  4.750678E-10 -1.346638E-09
        49  11 -2.192585E+04 -4.088152E+05  5.841112E+03 -4.645768E+04 -7.187778E-10 -1.879287E-09
        49  12 -1.014489E+04 -5.399106E+05  1.268437E+02 -6.349386E+04 -5.897489E-10  6.068034E-11
        49  13 -2.097800E+03 -3.180138E+05  1.610866E+04 -8.414774E+04  4.533994E-10  4.917457E-10
        49  14 -1.131632E+03 -3.244980E+05  2.537566E+04 -5.344923E+04 -8.716653E-11 -8.491167E-12
        49  15  4.522416E+04 -3.180140E+05  5.472846E+04 -8.410190E+04  5.950940E-10  3.049774E-10
        49  16 -1.486249E+04 -3.702784E+05  4.653958E+03 -7.751977E+04  1.514749E-09  1.349101E-09
        49  17  1.966227E+04 -2.401741E+05  4.490975E+04 -6.044173E+04  6.918052E-10  5.554755E-10
        49  18  1.005911E+05 -9.607157E+04  1.093267E+05 -1.047173E+05 -1.067129E-09 -1.828614E-11
        49  19  1.066696E+04 -2.657462E+05  2.756382E+04 -9.077630E+04 -2.980710E+03  1.766534E+04
        49  20 -2.192567E+04 -4.088145E+05  5.842326E+03 -4.645763E+04  2.820484E+03  2.525721E+04
        49  21 -1.014459E+04 -5.399094E+05  1.288772E+02 -6.349382E+04  1.626849E+03  3.284088E+04
        49  22 -2.097765E+03 -3.180137E+05  1.610886E+04 -8.414776E+04 -2.972081E+03  9.851534E+03
        49  23 -1.131477E+03 -3.244974E+05  2.537669E+04 -5.344917E+04  2.822166E+03  2.331898E+04
        49  24  4.522453E+04 -3.180125E+05  5.473101E+04 -8.410186E+04  1.621705E+03  3.677984E+04
        49  25 -1.486248E+04 -3.702784E+05  4.653982E+03 -7.751978E+04 -2.963619E+03  2.038374E+03
        49  26  1.966240E+04 -2.401736E+05  4.491062E+04 -6.044168E+04  2.823893E+03  2.138050E+04
        49  27  1.005916E+05 -9.606978E+04  1.093298E+05 -1.047173E+05  1.616301E+03  4.072021E+04
        50   1 -6.308425E+05 -1.486314E+05 -5.623037E+04 -2.383092E+05 -2.317919E+04 -7.318077E+03
        50   2 -6.162038E+05 -1.110885E+05 -3.290866E+04 -2.331858E+05 -1.473245E+04 -1.438939E+03
        50   3 -6.068455E+05 -1.034833E+05 -2.329289E+04 -2.278076E+05 -5.263188E+03  1.713950E+03
        50   4 -5.442355E+05 -1.060095E+05 -3.104374E+04 -2.044005E+05 -2.024121E+04 -6.216892E+03
        50   5 -5.401393E+05 -7.940956E+04 -1.335487E+04 -2.089671E+05 -1.393604E+04 -1.140467E+03
        50   6 -5.408977E+05 -8.232104E+04 -7.672973E+03 -2.132794E+05 -6.608518E+03  1.209595E+03
        50   7 -4.576221E+05 -6.338610E+04 -5.858148E+03 -1.704874E+05 -1.730282E+04 -5.115433E+03
        50   8 -4.640694E+05 -4.772990E+04  6.198361E+03 -1.847456E+05 -1.313951E+04 -8.419454E+02
        50   9 -4.749452E+05 -6.115858E+04  7.946770E+03 -1.987498E+05 -7.954013E+03  7.051972E+02
        50  10 -6.308431E+05 -1.486316E+05 -5.623148E+04 -2.383093E+05 -6.522226E-09 -2.969814E-09
        50  11 -6.162040E+05 -1.110886E+05 -3.290907E+04 -2.331858E+05 -2.283660E-09 -1.751026E-09
        50  12 -6.068455E+05 -1.034833E+05 -2.329295E+04 -2.278076E+05  5.448982E-09  1.928312E-09
        50  13 -5.442359E+05 -1.060097E+05 -3.104458E+04 -2.044006E+05 -2.000169E-09 -7.782040E-10
        50  14 -5.401395E+05 -7.940961E+04 -1.335524E+04 -2.089671E+05 -4.443178E-09 -2.141698E-09
        50  15 -5.408978E+05 -8.232105E+04 -7.673058E+03 -2.132794E+05 -1.281779E-09 -1.305307E-09
        50  16 -4.576224E+05 -6.338621E+04 -5.858760E+03 -1.704875E+05  4.234575E-09  1.493349E-09
        50  17 -4.640696E+05 -4.772995E+04  6.198035E+03 -1.847456E+05 -3.246271E-09 -2.190318E-09
        50  18 -4.749453E+05 -6.115860E+04  7.946650E+03 -1.987498E+05 -6.396108E-09 -4.713713E-09
        50  19 -6.308425E+05 -1.486314E+05 -5.623037E+04 -2.383092E+05  2.317919E+04  7.318077E+03
        50  20 -6.162038E+05 -1.110885E+05 -3.290866E+04 -2.331858E+05  1.473245E+04  1.438939E+03
        50  21 -6.068455E+05 -1.034833E+05 -2.329289E+04 -2.278076E+05  5.263188E+03 -1.713950E+03
        50  22 -5.442355E+05 -1.060095E+05 -3.104374E+04 -2.044005E+05  2.024121E+04  6.216892E+03
        50  23 -5.401393E+05 -7.940956E+04 -1.335487E+04 -2.089671E+05  1.393604E+04  1.140467E+03
        50  24 -5.408977E+05 -8.232104E+04 -7.672973E+03 -2.132794E+05  6.608518E+03 -1.209595E+03
        50  25 -4.576221E+05 -6.338610E+04 -5.858148E+03 -1.704874E+05  1.730282E+04  5.115433E+03
        50  26 -4.640694E+05 -4.772990E+04  6.198361E+03 -1.847456E+05  1.313951E+04  8.419454E+02
        50  27 -4.749452E+05 -6.115858E+04  7.946770E+03 -1.987498E+05  7.954013E+03 -7.051972E+02
        51   1 -5.892556E+05 -1.038095E+05 -1.842055E+04 -2.258455E+05 -4.800768E+03  9.788265E+02
        51   2 -5.764302E+05 -9.353211E+04 -1.162548E+04 -2.187831E+05 -2.848316E+03  8.989745E+02
        51   3 -5.591542E+05 -9.027630E+04 -6.547226E+03 -2.174257E+05 -8.480099E+02  6.914499E+02
        51   4 -5.398873E+05 -8.486553E+04 -6.115946E+03 -2.117745E+05 -5.310190E+03  7.878336E+02
        51   5 -5.420098E+05 -8.056842E+04 -3.109990E+03 -2.092203E+05 -3.457936E+03  6.704409E+02
        51   6 -5.396622E+05 -8.327282E+04 -1.741285E+03 -2.123710E+05 -1.557892E+03  4.253600E+02
        51   7 -4.905165E+05 -6.592134E+04  6.188507E+03 -1.977024E+05 -5.819657E+03  5.968225E+02
        51   8 -5.075886E+05 -6.760475E+04  5.405335E+03 -1.996570E+05 -4.067589E+03  4.418950E+02
        51   9 -5.201702E+05 -7.626945E+04  3.064536E+03 -2.073162E+05 -2.267787E+03  1.592664E+02
        51  10 -5.892556E+05 -1.038095E+05 -1.842060E+04 -2.258455E+05  4.515579E-10  5.832929E-10
        51  11 -5.764302E+05 -9.353211E+04 -1.162549E+04 -2.187831E+05  1.315243E-09  1.154388E-09
        51  12 -5.591542E+05 -9.027630E+04 -6.547229E+03 -2.174257E+05 -1.423094E-09 -2.084651E-10
        51  13 -5.398873E+05 -8.486554E+04 -6.116000E+03 -2.117745E+05 -7.919401E-10 -6.200438E-11
        51  14 -5.420098E+05 -8.056842E+04 -3.110014E+03 -2.092202E+05  1.482237E-09  7.293482E-10
        51  15 -5.396622E+05 -8.327282E+04 -1.741289E+03 -2.123710E+05 -2.652226E-09  1.174618E-10
        51  16 -4.905165E+05 -6.592135E+04  6.188443E+03 -1.977024E+05  2.348916E-10 -1.149246E-09
        51  17 -5.075886E+05 -6.760475E+04  5.405304E+03 -1.996570E+05 -3.159518E-09  3.641925E-10
        51  18 -5.201702E+05 -7.626945E+04  3.064526E+03 -2.073162E+05 -2.294215E-09  3.788089E-10
        51  19 -5.892556E+05 -1.038095E+05 -1.842055E+04 -2.258455E+05  4.800768E+03 -9.788265E+02
        51  20 -5.764302E+05 -9.353211E+04 -1.162548E+04 -2.187831E+05  2.848316E+03 -8.989745E+02
        51  21 -5.591542E+05 -9.027630E+04 -6.547226E+03 -2.174257E+05  8.480099E+02 -6.914499E+02
        51  22 -5.398873E+05 -8.486553E+04 -6.115946E+03 -2.117745E+05  5.310190E+03 -7.878336E+02
        51  23 -5.420098E+05 -8.056842E+04 -3.109990E+03 -2.092203E+05  3.457936E+03 -6.704409E+02
        51  24 -5.396622E+05 -8.327282E+04 -1.741285E+03 -2.123710E+05  1.557892E+03 -4.253600E+02
        51  25 -4.905165E+05 -6.592134E+04  6.188507E+03 -1.977024E+05  5.819657E+03 -5.968225E+02
        51  26 -5.075886E+05 -6.760475E+04  5.405335E+03 -1.996570E+05  4.067589E+03 -4.418950E+02
        51  27 -5.201702E+05 -7.626945E+04  3.064536E+03 -2.073162E+05  2.267787E+03 -1.592664E+02
        52   1 -5.451498E+05 -8.551409E+04 -2.660128E+03 -2.137980E+05 -4.469234E+02  2.526661E+02
        52   2 -5.325165E+05 -7.706387E+04  1.646658E+03 -2.065890E+05  2.458764E+02 -4.647711E+02
        52   3 -5.146610E+05 -7.405012E+04  5.645357E+03 -2.054579E+05  9.407156E+02 -1.187519E+03
        52   4 -5.395672E+05 -8.343802E+04 -1.334104E+03 -2.122616E+05 -1.118168E+03  1.063667E+00
        52   5 -5.421714E+05 -8.067016E+04 -7.332759E+02 -2.092412E+05 -4.295589E+02 -7.179571E+02
        52   6 -5.395529E+05 -8.333810E+04 -4.372331E+02 -2.122990E+05  2.610785E+02 -1.442291E+03
        52   7 -5.339846E+05 -8.136191E+04 -8.057886E+00 -2.107252E+05 -1.789429E+03 -2.505450E+02
        52   8 -5.518264E+05 -8.427649E+04 -3.113249E+03 -2.118934E+05 -1.104991E+03 -9.711419E+02
        52   9 -5.644445E+05 -9.262614E+04 -6.519940E+03 -2.191399E+05 -4.185360E+02 -1.697054E+03
        52  10 -5.451498E+05 -8.551409E+04 -2.660128E+03 -2.137980E+05 -5.495728E-09 -9.972094E-10
        52  11 -5.325165E+05 -7.706387E+04  1.646658E+03 -2.065890E+05 -4.703166E-09 -4.066521E-10
        52  12 -5.146610E+05 -7.405012E+04  5.645353E+03 -2.054579E+05 -2.235188E-09  6.823525E-10
        52  13 -5.395672E+05 -8.343802E+04 -1.334107E+03 -2.122616E+05 -6.003014E-09 -5.298917E-10
        52  14 -5.421714E+05 -8.067016E+04 -7.332773E+02 -2.092412E+05 -4.538618E-09 -7.841311E-10
        52  15 -5.395529E+05 -8.333810E+04 -4.372372E+02 -2.122990E+05  5.893783E-10  9.171058E-10
        52  16 -5.339846E+05 -8.136191E+04 -8.064026E+00 -2.107252E+05 -3.694547E-09 -5.652826E-10
        52  17 -5.518264E+05 -8.427650E+04 -3.113253E+03 -2.118934E+05  3.953639E-10 -1.374024E-09
        52  18 -5.644445E+05 -9.262614E+04 -6.519946E+03 -2.191399E+05  5.167642E-09  1.410113E-09
        52  19 -5.451498E+05 -8.551409E+04 -2.660128E+03 -2.137980E+05  4.469234E+02 -2.526661E+02
        52  20 -5.325165E+05 -7.706387E+04  1.646658E+03 -2.065890E+05 -2.458764E+02  4.647711E+02
        52  21 -5.146610E+05 -7.405012E+04  5.645357E+03 -2.054579E+05 -9.407156E+02  1.187519E+03
        52  22 -5.395672E+05 -8.343802E+04 -1.334104E+03 -2.122616E+05  1.118168E+03 -1.063667E+00
        52  23 -5.421714E+05 -8.067016E+04 -7.332759E+02 -2.092412E+05  4.295589E+02  7.179571E+02
        52  24 -5.395529E+05 -8.333810E+04 -4.372331E+02 -2.122990E+05 -2.610785E+02  1.442291E+03
        52  25 -5.339846E+05 -8.136191E+04 -8.057886E+00 -2.107252E+05  1.789429E+03  2.505450E+02
        52  26 -5.518264E+05 -8.427649E+04 -3.113249E+03 -2.118934E+05  1.104991E+03  9.711419E+02
        52  27 -5.644445E+05 -9.262614E+04 -6.519940E+03 -2.191399E+05  4.185360E+02  1.697054E+03
        53   1 -5.009637E+05 -6.895715E+04  9.204759E+03 -2.017268E+05  1.192276E+03 -1.666551E+03
        53   2 -4.883919E+05 -6.064430E+04  1.298080E+04 -1.945236E+05  1.650074E+03 -2.477346E+03
        53   3 -4.705396E+05 -5.764478E+04  1.665397E+04 -1.934002E+05  2.107578E+03 -3.287156E+03
        53   4 -5.395454E+05 -8.334428E+04 -3.557393E+02 -2.122870E+05  5.149027E+02 -1.920484E+03
        53   5 -5.421853E+05 -8.068601E+04 -2.721443E+02 -2.092478E+05  9.734444E+02 -2.731025E+03
        53   6 -5.395451E+05 -8.334107E+04 -2.919569E+02 -2.122883E+05  1.431692E+03 -3.540587E+03
        53   7 -5.781249E+05 -9.773104E+04 -9.916163E+03 -2.228465E+05 -1.624123E+02 -2.174395E+03
        53   8 -5.959756E+05 -1.007274E+05 -1.352523E+04 -2.239707E+05  2.968824E+02 -2.984680E+03
        53   9 -6.085465E+05 -1.090372E+05 -1.723838E+04 -2.311746E+05  7.558826E+02 -3.793990E+03
        53  10 -5.009637E+05 -6.895716E+04  9.204751E+03 -2.017268E+05  3.392249E-09  1.730396E-09
        53  11 -4.883919E+05 -6.064431E+04  1.298078E+04 -1.945236E+05  4.895431E-10 -8.457610E-10
        53  12 -4.705396E+05 -5.764479E+04  1.665394E+04 -1.934002E+05 -1.678400E-09 -3.310098E-10
        53  13 -5.395454E+05 -8.334428E+04 -3.557468E+02 -2.122870E+05  2.619899E-09  7.979016E-10
        53  14 -5.421853E+05 -8.068602E+04 -2.721601E+02 -2.092478E+05  2.844627E-09 -7.338688E-10
        53  15 -5.395451E+05 -8.334109E+04 -2.919843E+02 -2.122883E+05  6.356707E-10 -2.783200E-10
        53  16 -5.781249E+05 -9.773105E+04 -9.916171E+03 -2.228465E+05 -3.805687E-10  2.499541E-10
        53  17 -5.959756E+05 -1.007274E+05 -1.352524E+04 -2.239707E+05 -3.305368E-09 -3.490217E-10
        53  18 -6.085465E+05 -1.090372E+05 -1.723841E+04 -2.311746E+05 -6.688180E-10  1.411206E-10
        53  19 -5.009637E+05 -6.895715E+04  9.204759E+03 -2.017268E+05 -1.192276E+03  1.666551E+03
        53  20 -4.883919E+05 -6.064430E+04  1.298080E+04 -1.945236E+05 -1.650074E+03  2.477346E+03
        53  21 -4.705396E+05 -5.764478E+04  1.665397E+04 -1.934002E+05 -2.107578E+03  3.287156E+03
        53  22 -5.395454E+05 -8.334428E+04 -3.557393E+02 -2.122870E+05 -5.149027E+02  1.920484E+03
        53  23 -5.421853E+05 -8.068601E+04 -2.721443E+02 -2.092478E+05 -9.734444E+02  2.731025E+03
        53  24 -5.395451E+05 -8.334107E+04 -2.919569E+02 -2.122883E+05 -1.431692E+03  3.540587E+03
        53  25 -5.781249E+05 -9.773104E+04 -9.916163E+03 -2.228465E+05  1.624123E+02  2.174395E+03
        53  26 -5.959756E+05 -1.007274E+05 -1.352523E+04 -2.239707E+05 -2.968824E+02  2.984680E+03
        53  27 -6.085465E+05 -1.090372E+05 -1.723838E+04 -2.311746E+05 -7.558826E+02  3.793990E+03
        54   1 -4.569244E+05 -5.254623E+04  2.007324E+04 -1.896756E+05  2.346047E+03 -3.768072E+03
        54   2 -4.444260E+05 -4.428791E+04  2.354971E+04 -1.825135E+05  2.928861E+03 -4.526641E+03
        54   3 -4.266998E+05 -4.132656E+04  2.682573E+04 -1.813930E+05  3.510675E+03 -5.282163E+03
        54   4 -5.395569E+05 -8.333349E+04 -3.376901E+02 -2.122816E+05  1.671504E+03 -4.021029E+03
        54   5 -5.421723E+05 -8.069377E+04 -5.292963E+02 -2.092576E+05  2.256650E+03 -4.778779E+03
        54   6 -5.395605E+05 -8.335157E+04 -9.231783E+02 -2.122753E+05  2.840786E+03 -5.533482E+03
        54   7 -6.221827E+05 -1.141203E+05 -2.074914E+04 -2.348850E+05  9.970602E+02 -4.273949E+03
        54   8 -6.399091E+05 -1.170989E+05 -2.460897E+04 -2.359979E+05  1.584556E+03 -5.030872E+03
        54   9 -6.524082E+05 -1.253755E+05 -2.867291E+04 -2.431524E+05  2.171034E+03 -5.784751E+03
        54  10 -4.569244E+05 -5.254625E+04  2.007320E+04 -1.896755E+05  5.026102E-10  9.277786E-10
        54  11 -4.444260E+05 -4.428793E+04  2.354966E+04 -1.825135E+05  1.794358E-09 -2.181424E-10
        54  12 -4.266998E+05 -4.132659E+04  2.682566E+04 -1.813930E+05 -3.016786E-09 -1.360777E-09
        54  13 -5.395569E+05 -8.333351E+04 -3.377257E+02 -2.122816E+05 -2.581023E-09  3.614424E-10
        54  14 -5.421724E+05 -8.069380E+04 -5.293488E+02 -2.092576E+05 -1.316843E-10  1.606366E-10
        54  15 -5.395606E+05 -8.335161E+04 -9.232510E+02 -2.122753E+05 -5.052904E-09 -8.564904E-10
        54  16 -6.221827E+05 -1.141203E+05 -2.074917E+04 -2.348850E+05  4.694589E-10  3.138244E-10
        54  17 -6.399091E+05 -1.170989E+05 -2.460902E+04 -2.359979E+05 -1.950064E-10  4.931366E-10
        54  18 -6.524083E+05 -1.253756E+05 -2.867299E+04 -2.431524E+05 -4.395343E-09 -2.942854E-10
        54  19 -4.569244E+05 -5.254623E+04  2.007324E+04 -1.896756E+05 -2.346047E+03  3.768072E+03
        54  20 -4.444260E+05 -4.428791E+04  2.354971E+04 -1.825135E+05 -2.928861E+03  4.526641E+03
        54  21 -4.266998E+05 -4.132656E+04  2.682573E+04 -1.813930E+05 -3.510675E+03  5.282163E+03
        54  22 -5.395569E+05 -8.333349E+04 -3.376901E+02 -2.122816E+05 -1.671504E+03  4.021029E+03
        54  23 -5.421723E+05 -8.069377E+04 -5.292963E+02 -2.092576E+05 -2.256650E+03  4.778779E+03
        54  24 -5.395605E+05 -8.335157E+04 -9.231783E+02 -2.122753E+05 -2.840786E+03  5.533482E+03
        54  25 -6.221827E+05 -1.141203E+05 -2.074914E+04 -2.348850E+05 -9.970602E+02  4.273949E+03
        54  26 -6.399091E+05 -1.170989E+05 -2.460897E+04 -2.359979E+05 -1.584556E+03  5.030872E+03
        54  27 -6.524082E+05 -1.253755E+05 -2.867291E+04 -2.431524E+05 -2.171034E+03  5.784751E+03
        55   1 -4.131918E+05 -3.627263E+04  2.997069E+04 -1.777588E+05  3.875698E+03 -5.712639E+03
        55   2 -4.007686E+05 -2.803178E+04  3.263684E+04 -1.705926E+05  5.272145E+03 -6.153843E+03
        55   3 -3.833937E+05 -2.537315E+04  3.440730E+04 -1.693530E+05  6.662032E+03 -6.576850E+03
        55   4 -5.396085E+05 -8.331229E+04 -1.215018E+03 -2.122888E+05  3.203492E+03 -5.964870E+03
        55   5 -5.421055E+05 -8.067562E+04 -2.181053E+03 -2.092672E+05  4.613943E+03 -6.400903E+03
        55   6 -5.396542E+05 -8.362429E+04 -4.054112E+03 -2.121725E+05  6.017802E+03 -6.818747E+03
        55   7 -6.660101E+05 -1.303511E+05 -3.240211E+04 -2.468126E+05  2.531434E+03 -6.217047E+03
        55   8 -6.834232E+05 -1.333182E+05 -3.700057E+04 -2.479339E+05  3.955904E+03 -6.647902E+03
        55   9 -6.958907E+05 -1.418738E+05 -4.251739E+04 -2.549823E+05  5.373749E+03 -7.060577E+03
        55  10 -4.131918E+05 -3.627267E+04  2.997060E+04 -1.777588E+05 -6.606538E-09 -1.481467E-09
        55  11 -4.007686E+05 -2.803183E+04  3.263672E+04 -1.705926E+05 -2.943632E-09  7.494417E-10
        55  12 -3.833938E+05 -2.537321E+04  3.440714E+04 -1.693530E+05  6.181088E-10  5.237346E-10
        55  13 -5.396085E+05 -8.331233E+04 -1.215104E+03 -2.122888E+05 -6.165307E-09 -8.059295E-10
        55  14 -5.421056E+05 -8.067567E+04 -2.181170E+03 -2.092672E+05  1.492919E-10  1.938965E-10
        55  15 -5.396542E+05 -8.362435E+04 -4.054267E+03 -2.121725E+05 -2.747529E-09  1.366204E-10
        55  16 -6.660101E+05 -1.303512E+05 -3.240220E+04 -2.468126E+05 -1.381236E-10 -8.472770E-12
        55  17 -6.834232E+05 -1.333183E+05 -3.700068E+04 -2.479338E+05  1.563996E-09 -4.242490E-10
        55  18 -6.958907E+05 -1.418738E+05 -4.251754E+04 -2.549822E+05 -3.214006E-10 -4.262306E-10
        55  19 -4.131918E+05 -3.627263E+04  2.997069E+04 -1.777588E+05 -3.875698E+03  5.712639E+03
        55  20 -4.007686E+05 -2.803178E+04  3.263684E+04 -1.705926E+05 -5.272145E+03  6.153843E+03
        55  21 -3.833937E+05 -2.537315E+04  3.440730E+04 -1.693530E+05 -6.662032E+03  6.576850E+03
        55  22 -5.396085E+05 -8.331229E+04 -1.215018E+03 -2.122888E+05 -3.203492E+03  5.964870E+03
        55  23 -5.421055E+05 -8.067562E+04 -2.181053E+03 -2.092672E+05 -4.613943E+03  6.400903E+03
        55  24 -5.396542E+05 -8.362429E+04 -4.054112E+03 -2.121725E+05 -6.017802E+03  6.818747E+03
        55  25 -6.660101E+05 -1.303511E+05 -3.240211E+04 -2.468126E+05 -2.531434E+03  6.217047E+03
        55  26 -6.834232E+05 -1.333182E+05 -3.700057E+04 -2.479339E+05 -3.955904E+03  6.647902E+03
        55  27 -6.958907E+05 -1.418738E+05 -4.251739E+04 -2.549823E+05 -5.373749E+03  7.060577E+03
        56   1 -3.697383E+05 -2.046666E+04  3.652647E+04 -1.667148E+05  7.700928E+03 -6.784359E+03
        56   2 -3.575582E+05 -1.133627E+04  3.592415E+04 -1.583517E+05  1.260020E+04 -5.833966E+03
        56   3 -3.427401E+05 -1.249267E+04  3.050631E+04 -1.547097E+05  1.738071E+04 -4.566298E+03
        56   4 -5.399582E+05 -8.310679E+04 -5.312402E+03 -2.124956E+05  6.963563E+03 -7.061254E+03
        56   5 -5.415982E+05 -8.038094E+04 -9.524310E+03 -2.092190E+05  1.211075E+04 -6.017930E+03
        56   6 -5.406503E+05 -8.799207E+04 -1.874937E+04 -2.106635E+05  1.713907E+04 -4.657343E+03
        56   7 -7.101489E+05 -1.457449E+05 -4.715327E+04 -2.582649E+05  6.226421E+03 -7.338066E+03
        56   8 -7.256049E+05 -1.494232E+05 -5.497537E+04 -2.600726E+05  1.162146E+04 -6.201834E+03
        56   9 -7.385229E+05 -1.634887E+05 -6.800835E+04 -2.666011E+05  1.689752E+04 -4.748355E+03
        56  10 -3.697384E+05 -2.046672E+04  3.652627E+04 -1.667148E+05  2.484987E-10 -8.376217E-11
        56  11 -3.575584E+05 -1.133635E+04  3.592378E+04 -1.583517E+05 -3.850922E-10 -2.901700E-10
        56  12 -3.427404E+05 -1.249277E+04  3.050570E+04 -1.547097E+05  1.552201E-10 -7.346987E-10
        56  13 -5.399583E+05 -8.310686E+04 -5.312587E+03 -2.124955E+05 -2.270284E-09 -1.545248E-10
        56  14 -5.415984E+05 -8.038102E+04 -9.524654E+03 -2.092190E+05  1.043997E-09 -2.952130E-10
        56  15 -5.406506E+05 -8.799217E+04 -1.874996E+04 -2.106634E+05 -2.095616E-10 -2.639092E-10
        56  16 -7.101489E+05 -1.457450E+05 -4.715344E+04 -2.582648E+05 -1.267054E-11 -3.866988E-10
        56  17 -7.256050E+05 -1.494233E+05 -5.497570E+04 -2.600725E+05 -2.166775E-09 -3.614556E-10
        56  18 -7.385232E+05 -1.634888E+05 -6.800893E+04 -2.666011E+05  1.292743E-09  1.514308E-10
        56  19 -3.697383E+05 -2.046666E+04  3.652647E+04 -1.667148E+05 -7.700928E+03  6.784359E+03
        56  20 -3.575582E+05 -1.133627E+04  3.592415E+04 -1.583517E+05 -1.260020E+04  5.833966E+03
        56  21 -3.427401E+05 -1.249267E+04  3.050631E+04 -1.547097E+05 -1.738071E+04  4.566298E+03
        56  22 -5.399582E+05 -8.310679E+04 -5.312402E+03 -2.124956E+05 -6.963563E+03  7.061254E+03
        56  23 -5.415982E+05 -8.038094E+04 -9.524310E+03 -2.092190E+05 -1.211075E+04  6.017930E+03
        56  24 -5.406503E+05 -8.799207E+04 -1.874937E+04 -2.106635E+05 -1.713907E+04  4.657343E+03
        56  25 -7.101489E+05 -1.457449E+05 -4.715327E+04 -2.582649E+05 -6.226421E+03  7.338066E+03
        56  26 -7.256049E+05 -1.494232E+05 -5.497537E+04 -2.600726E+05 -1.162146E+04  6.201834E+03
        56  27 -7.385229E+05 -1.634887E+05 -6.800835E+04 -2.666011E+05 -1.689752E+04  4.748355E+03
        57   1 -3.237383E+05 -8.638754E+03  2.868214E+04 -1.657810E+05  2.295908E+04 -3.852470E+03
        57   2 -3.167871E+05  1.512910E+04  1.539213E+04 -1.379294E+05  3.958658E+04  2.892840E+03
        57   3 -3.347838E+05 -3.941615E+04 -3.052583E+04 -9.653465E+04  5.368943E+04  1.635985E+04
        57   4 -5.437385E+05 -8.020020E+04 -2.352693E+04 -2.152917E+05  2.065765E+04 -4.716558E+03
        57   5 -5.358704E+05 -7.681836E+04 -4.095561E+04 -2.084319E+05  4.256174E+04  4.009221E+03
        57   6 -5.540075E+05 -1.528136E+05 -9.520415E+04 -1.880263E+05  6.194040E+04  1.945636E+04
        57   7 -7.636909E+05 -1.517610E+05 -7.573932E+04 -2.647877E+05  1.835711E+04 -5.580409E+03
        57   8 -7.549054E+05 -1.687587E+05 -9.730710E+04 -2.789104E+05  4.553574E+04  5.125045E+03
        57   9 -7.731807E+05 -2.661932E+05 -1.598864E+05 -2.794841E+05  7.018814E+04  2.255062E+04
        57  10 -3.237389E+05 -8.638911E+03  2.868112E+04 -1.657809E+05 -2.723080E-09 -3.380447E-10
        57  11 -3.167888E+05  1.512867E+04  1.538917E+04 -1.379295E+05  1.827738E-10  1.548074E-09
        57  12 -3.347870E+05 -3.941721E+04 -3.053175E+04 -9.653536E+04  2.557922E-10  7.921347E-10
        57  13 -5.437389E+05 -8.020034E+04 -2.352777E+04 -2.152916E+05  1.341271E-09 -5.197874E-10
        57  14 -5.358723E+05 -7.681887E+04 -4.095905E+04 -2.084321E+05  2.968596E-09 -8.801355E-10
        57  15 -5.540117E+05 -1.528150E+05 -9.521208E+04 -1.880273E+05 -4.945010E-11  2.298172E-10
        57  16 -7.636913E+05 -1.517611E+05 -7.574002E+04 -2.647876E+05  2.759810E-09  2.830886E-10
        57  17 -7.549077E+05 -1.687593E+05 -9.731105E+04 -2.789106E+05 -2.203832E-09  2.667213E-10
        57  18 -7.731861E+05 -2.661951E+05 -1.598966E+05 -2.794854E+05 -1.243842E-09  6.421676E-11
        57  19 -3.237383E+05 -8.638754E+03  2.868214E+04 -1.657810E+05 -2.295908E+04  3.852470E+03
        57  20 -3.167871E+05  1.512910E+04  1.539213E+04 -1.379294E+05 -3.958658E+04 -2.892840E+03
        57  21 -3.347838E+05 -3.941615E+04 -3.052583E+04 -9.653465E+04 -5.368943E+04 -1.635985E+04
        57  22 -5.437385E+05 -8.020020E+04 -2.352693E+04 -2.152917E+05 -2.065765E+04  4.716558E+03
        57  23 -5.358704E+05 -7.681836E+04 -4.095561E+04 -2.084319E+05 -4.256174E+04 -4.009221E+03
        57  24 -5.540075E+05 -1.528136E+05 -9.520415E+04 -1.880263E+05 -6.194040E+04 -1.945636E+04
        57  25 -7.636909E+05 -1.517610E+05 -7.573932E+04 -2.647877E+05 -1.835711E+04  5.580409E+03
        57  26 -7.549054E+05 -1.687587E+05 -9.730710E+04 -2.789104E+05 -4.553574E+04 -5.125045E+03
        57  27 -7.731807E+05 -2.661932E+05 -1.598864E+05 -2.794841E+05 -7.018814E+04 -2.255062E+04
        58   1 -3.720455E+02  1.473125E+04  1.784498E+04  6.670471E+03  1.226343E+04  1.317634E-01
        58   2 -2.496595E+03 -3.997864E+02  8.069290E+03  2.255114E+03  7.974616E+03  2.896711E-02
        58   3 -3.721326E+02 -7.689454E+02  4.776400E+03 -2.160289E+03  3.685730E+03 -1.282510E-02
        58   4 -3.720932E+02  1.473116E+04  1.784497E+04  3.431313E-09  1.226343E+04  1.268398E-10
        58   5 -2.496601E+03 -3.997960E+02  8.069289E+03 -2.088203E-09  7.974616E+03  3.262250E-10
        58   6 -3.721376E+02 -7.689541E+02  4.776399E+03  1.546569E-09  3.685730E+03 -5.212049E-11
        58   7 -3.720455E+02  1.473125E+04  1.784498E+04 -6.670471E+03  1.226343E+04 -1.317634E-01
        58   8 -2.496595E+03 -3.997864E+02  8.069290E+03 -2.255114E+03  7.974616E+03 -2.896711E-02
        58   9 -3.721326E+02 -7.689454E+02  4.776400E+03  2.160289E+03  3.685730E+03  1.282510E-02
        58  10 -3.722069E+02  1.473121E+04  1.784470E+04  6.670471E+03  1.300267E-09 -2.901687E-11
        58  11 -2.496664E+03 -3.998035E+02  8.069171E+03  2.255114E+03 -6.168130E-10 -2.324818E-10
        58  12 -3.721472E+02 -7.689490E+02  4.776374E+03 -2.160289E+03 -7.121640E-10 -6.291257E-10
        58  13 -3.722547E+02  1.473112E+04  1.784469E+04 -3.078942E-09 -1.078440E-09 -9.570049E-11
        58  14 -2.496669E+03 -3.998130E+02  8.069169E+03 -9.946707E-10 -1.077385E-09 -1.867584E-10
        58  15 -3.721522E+02 -7.689578E+02  4.776373E+03  1.089329E-09  9.450466E-10  9.242764E-11
        58  16 -3.722069E+02  1.473121E+04  1.784470E+04 -6.670471E+03 -2.203301E-10 -1.672117E-10
        58  17 -2.496664E+03 -3.998035E+02  8.069171E+03 -2.255114E+03  6.126454E-10 -1.400809E-10
        58  18 -3.721472E+02 -7.689490E+02  4.776374E+03  2.160289E+03 -1.695027E-10  8.169770E-10
        58  19 -3.720455E+02  1.473125E+04  1.784498E+04  6.670471E+03 -1.226343E+04 -1.317634E-01
        58  20 -2.496595E+03 -3.997864E+02  8.069290E+03  2.255114E+03 -7.974616E+03 -2.896711E-02
        58  21 -3.721326E+02 -7.689454E+02  4.776400E+03 -2.160289E+03 -3.685730E+03  1.282510E-02
        58  22 -3.720932E+02  1.473116E+04  1.784497E+04  3.335081E-09 -1.226343E+04 -3.190717E-10
        58  23 -2.496601E+03 -3.997960E+02  8.069289E+03 -3.131908E-09 -7.974616E+03 -6.993034E-10
        58  24 -3.721376E+02 -7.689541E+02  4.776399E+03  5.748228E-09 -3.685730E+03  2.374531E-10
        58  25 -3.720455E+02  1.473125E+04  1.784498E+04 -6.670471E+03 -1.226343E+04  1.317634E-01
        58  26 -2.496595E+03 -3.997864E+02  8.069290E+03 -2.255114E+03 -7.974616E+03  2.896711E-02
        58  27 -3.721326E+02 -7.689454E+02  4.776400E+03  2.160289E+03 -3.685730E+03 -1.282510E-02
        59   1 -1.234514E+03  9.044151E+02  3.809311E+03  3.148996E+02  2.999012E+03  1.521165E-03
        59   2 -1.418659E+03 -4.456377E+01  2.027206E+03  7.411062E+01  1.978462E+03  2.361764E-04
        59   3 -1.234519E+03 -5.194909E+01  1.144930E+03 -1.666785E+02  9.579120E+02 -2.571771E-04
        59   4 -1.234514E+03  9.044149E+02  3.809311E+03 -3.477110E-09  2.999012E+03  1.775852E-10
        59   5 -1.418659E+03 -4.456378E+01  2.027206E+03 -2.165223E-09  1.978462E+03  6.766951E-10
        59   6 -1.234519E+03 -5.194914E+01  1.144930E+03  5.877768E-09  9.579120E+02 -4.582994E-10
        59   7 -1.234514E+03  9.044151E+02  3.809311E+03 -3.148996E+02  2.999012E+03 -1.521164E-03
        59   8 -1.418659E+03 -4.456377E+01  2.027206E+03 -7.411062E+01  1.978462E+03 -2.361751E-04
        59   9 -1.234519E+03 -5.194909E+01  1.144930E+03  1.666785E+02  9.579120E+02  2.571762E-04
        59  10 -1.234523E+03  9.044127E+02  3.809294E+03  3.148996E+02  2.530497E-10 -1.752926E-10
        59  11 -1.418663E+03 -4.456482E+01  2.027199E+03  7.411062E+01  2.094705E-10  5.794575E-10
        59  12 -1.234520E+03 -5.194934E+01  1.144928E+03 -1.666785E+02 -3.717363E-10 -7.064494E-10
        59  13 -1.234523E+03  9.044125E+02  3.809294E+03 -3.532544E-09 -9.189462E-13  1.493857E-10
        59  14 -1.418663E+03 -4.456483E+01  2.027199E+03 -2.211266E-09 -7.210854E-13 -1.393458E-10
        59  15 -1.234520E+03 -5.194939E+01  1.144928E+03  1.802436E-09  8.086499E-10 -3.749514E-10
        59  16 -1.234523E+03  9.044127E+02  3.809294E+03 -3.148996E+02  8.234659E-10  4.744170E-10
        59  17 -1.418663E+03 -4.456482E+01  2.027199E+03 -7.411062E+01  2.751228E-09 -8.594510E-10
        59  18 -1.234520E+03 -5.194934E+01  1.144928E+03  1.666785E+02  2.376729E-10 -4.395056E-11
        59  19 -1.234514E+03  9.044151E+02  3.809311E+03  3.148996E+02 -2.999012E+03 -1.521165E-03
        59  20 -1.418659E+03 -4.456377E+01  2.027206E+03  7.411062E+01 -1.978462E+03 -2.361753E-04
        59  21 -1.234519E+03 -5.194909E+01  1.144930E+03 -1.666785E+02 -9.579120E+02  2.571757E-04
        59  22 -1.234514E+03  9.044149E+02  3.809311E+03  5.027858E-09 -2.999012E+03  1.214432E-10
        59  23 -1.418659E+03 -4.456378E+01  2.027206E+03  4.204583E-09 -1.978462E+03 -9.557662E-10
        59  24 -1.234519E+03 -5.194914E+01  1.144930E+03  1.038160E-08 -9.579120E+02 -2.916391E-10
        59  25 -1.234514E+03  9.044151E+02  3.809311E+03 -3.148996E+02 -2.999012E+03  1.521165E-03
        59  26 -1.418659E+03 -4.456377E+01  2.027206E+03 -7.411062E+01 -1.978462E+03  2.361734E-04
        59  27 -1.234519E+03 -5.194909E+01  1.144930E+03  1.666785E+02 -9.579120E+02 -2.571763E-04
        60   1 -1.307027E+03  4.976320E+01  8.558419E+02 -8.724628E+00  7.821203E+02 -1.099221E-05
        60   2 -1.328026E+03 -6.462743E+00  4.161937E+02 -1.640763E+01  5.753342E+02 -1.520436E-05
        60   3 -1.307028E+03 -2.398971E+00  1.262405E+02 -2.409052E+01  3.685513E+02 -1.430194E-05
        60   4 -1.307027E+03  4.976320E+01  8.558419E+02  6.492566E-09  7.821203E+02 -3.583659E-10
        60   5 -1.328026E+03 -6.462743E+00  4.161937E+02  4.486199E-09  5.753342E+02  5.242715E-10
        60   6 -1.307028E+03 -2.398972E+00  1.262405E+02  9.210943E-09  3.685513E+02 -1.138012E-09
        60   7 -1.307027E+03  4.976320E+01  8.558419E+02  8.724628E+00  7.821203E+02  1.099149E-05
        60   8 -1.328026E+03 -6.462743E+00  4.161937E+02  1.640763E+01  5.753342E+02  1.520541E-05
        60   9 -1.307028E+03 -2.398971E+00  1.262405E+02  2.409052E+01  3.685513E+02  1.429966E-05
        60  10 -1.307028E+03  4.976304E+01  8.558407E+02 -8.724628E+00 -6.647926E-10 -7.488712E-10
        60  11 -1.328026E+03 -6.462831E+00  4.161931E+02 -1.640763E+01 -1.618560E-10  5.084136E-10
        60  12 -1.307028E+03 -2.399008E+00  1.262403E+02 -2.409052E+01  1.147054E-09 -9.455817E-11
        60  13 -1.307028E+03  4.976304E+01  8.558407E+02  6.638085E-09  5.095692E-13 -1.510801E-10
        60  14 -1.328026E+03 -6.462832E+00  4.161931E+02 -9.219701E-10  2.692501E-09  1.973422E-10
        60  15 -1.307028E+03 -2.399009E+00  1.262403E+02  2.287759E-09 -2.681586E-10 -4.167834E-10
        60  16 -1.307028E+03  4.976304E+01  8.558407E+02  8.724628E+00  1.742630E-09  4.461754E-10
        60  17 -1.328026E+03 -6.462831E+00  4.161931E+02  1.640763E+01 -1.057314E-10 -1.140102E-10
        60  18 -1.307028E+03 -2.399008E+00  1.262403E+02  2.409052E+01 -1.685512E-09 -7.388325E-10
        60  19 -1.307027E+03  4.976320E+01  8.558419E+02 -8.724628E+00 -7.821203E+02  1.099072E-05
        60  20 -1.328026E+03 -6.462743E+00  4.161937E+02 -1.640763E+01 -5.753342E+02  1.520538E-05
        60  21 -1.307028E+03 -2.398971E+00  1.262405E+02 -2.409052E+01 -3.685513E+02  1.430175E-05
        60  22 -1.307027E+03  4.976320E+01  8.558419E+02  8.937558E-09 -7.821203E+02  5.614711E-11
        60  23 -1.328026E+03 -6.462743E+00  4.161937E+02 -9.452478E-10 -5.753342E+02 -1.297168E-10
        60  24 -1.307028E+03 -2.398972E+00  1.262405E+02  4.518862E-09 -3.685513E+02  3.044251E-10
        60  25 -1.307027E+03  4.976320E+01  8.558419E+02  8.724628E+00 -7.821203E+02 -1.099058E-05
        60  26 -1.328026E+03 -6.462743E+00  4.161937E+02  1.640763E+01 -5.753342E+02 -1.520565E-05
        60  27 -1.307028E+03 -2.398971E+00  1.262405E+02  2.409052E+01 -3.685513E+02 -1.430114E-05
        61   1 -1.320062E+03  2.216977E+00  1.413222E+00 -1.454160E+01  3.573148E+02 -8.370200E-06
        61   2 -1.311733E+03  3.273788E+00 -2.601849E+02 -2.165563E+01  4.858049E+02 -1.694469E-05
        61   3 -1.320063E+03  4.607865E+00 -6.053641E+02 -2.876976E+01  6.142969E+02 -2.846671E-05
        61   4 -1.320062E+03  2.216977E+00  1.413222E+00  2.909222E-09  3.573148E+02 -8.667961E-10
        61   5 -1.311733E+03  3.273787E+00 -2.601849E+02 -5.118934E-09  4.858049E+02  1.293576E-09
        61   6 -1.320063E+03  4.607864E+00 -6.053641E+02  8.535548E-10  6.142969E+02  2.320001E-10
        61   7 -1.320062E+03  2.216977E+00  1.413222E+00  1.454160E+01  3.573148E+02  8.368462E-06
        61   8 -1.311733E+03  3.273788E+00 -2.601849E+02  2.165563E+01  4.858049E+02  1.694727E-05
        61   9 -1.320063E+03  4.607865E+00 -6.053641E+02  2.876976E+01  6.142969E+02  2.846719E-05
        61  10 -1.320063E+03  2.216943E+00  1.412983E+00 -1.454160E+01 -1.291269E-09 -2.718741E-10
        61  11 -1.311733E+03  3.273725E+00 -2.601854E+02 -2.165563E+01  8.305307E-10  2.388637E-10
        61  12 -1.320063E+03  4.607764E+00 -6.053648E+02 -2.876976E+01  1.673188E-09 -3.109703E-10
        61  13 -1.320063E+03  2.216942E+00  1.412982E+00 -1.116195E-09 -1.076990E-09 -2.381480E-10
        61  14 -1.311733E+03  3.273724E+00 -2.601854E+02 -6.200824E-09 -5.382261E-10  5.532470E-10
        61  15 -1.320063E+03  4.607762E+00 -6.053649E+02 -1.592660E-09 -9.428310E-10 -2.941806E-10
        61  16 -1.320063E+03  2.216943E+00  1.412983E+00  1.454160E+01  1.829520E-09 -2.043442E-10
        61  17 -1.311733E+03  3.273725E+00 -2.601854E+02  2.165563E+01  1.323863E-09  8.676565E-10
        61  18 -1.320063E+03  4.607764E+00 -6.053648E+02  2.876976E+01 -1.807701E-09 -2.772875E-10
        61  19 -1.320062E+03  2.216977E+00  1.413222E+00 -1.454160E+01 -3.573148E+02  8.369657E-06
        61  20 -1.311733E+03  3.273788E+00 -2.601849E+02 -2.165563E+01 -4.858049E+02  1.694517E-05
        61  21 -1.320063E+03  4.607865E+00 -6.053641E+02 -2.876976E+01 -6.142969E+02  2.846609E-05
        61  22 -1.320062E+03  2.216977E+00  1.413222E+00  1.320229E-09 -3.573148E+02  3.904974E-10
        61  23 -1.311733E+03  3.273787E+00 -2.601849E+02 -8.208719E-10 -4.858049E+02 -1.870569E-10
        61  24 -1.320063E+03  4.607864E+00 -6.053641E+02 -3.769669E-09 -6.142969E+02 -8.203134E-10
        61  25 -1.320062E+03  2.216977E+00  1.413222E+00  1.454160E+01 -3.573148E+02 -8.368877E-06
        61  26 -1.311733E+03  3.273788E+00 -2.601849E+02  2.165563E+01 -4.858049E+02 -1.694555E-05
        61  27 -1.320063E+03  4.607865E+00 -6.053641E+02  2.876976E+01 -6.142969E+02 -2.846773E-05
        62   1 -1.340969E+03  5.541480E+00 -8.400333E+02 -3.654678E+01  7.452938E+02 -4.387411E-05
        62   2 -1.285599E+03  2.025615E+01 -1.527961E+03 -6.231160E+01  1.500928E+03 -1.506457E-04
        62   3 -1.340967E+03 -1.442267E+01 -2.720185E+03 -8.807644E+01  2.256562E+03 -3.201355E-04
        62   4 -1.340969E+03  5.541478E+00 -8.400333E+02 -2.329400E-09  7.452938E+02 -8.317310E-10
        62   5 -1.285599E+03  2.025614E+01 -1.527961E+03 -2.821974E-09  1.500928E+03 -1.002348E-09
        62   6 -1.340967E+03 -1.442269E+01 -2.720185E+03  4.548532E-10  2.256562E+03 -6.543398E-10
        62   7 -1.340969E+03  5.541480E+00 -8.400333E+02  3.654678E+01  7.452938E+02  4.387245E-05
        62   8 -1.285599E+03  2.025615E+01 -1.527961E+03  6.231160E+01  1.500928E+03  1.506437E-04
        62   9 -1.340967E+03 -1.442267E+01 -2.720185E+03  8.807644E+01  2.256562E+03  3.201341E-04
        62  10 -1.340969E+03  5.541331E+00 -8.400344E+02 -3.654678E+01 -2.236441E-09 -1.243012E-10
        62  11 -1.285602E+03  2.025554E+01 -1.527965E+03 -6.231160E+01  7.753383E-10  6.403719E-10
        62  12 -1.340973E+03 -1.442404E+01 -2.720194E+03 -8.807644E+01  3.181935E-09 -3.146838E-10
        62  13 -1.340969E+03  5.541329E+00 -8.400344E+02 -2.075759E-09  1.076557E-09 -3.680155E-10
        62  14 -1.285602E+03  2.025554E+01 -1.527965E+03 -1.737949E-09  5.375777E-10  3.756533E-10
        62  15 -1.340973E+03 -1.442406E+01 -2.720194E+03 -8.400519E-09 -3.231014E-09 -2.875846E-10
        62  16 -1.340969E+03  5.541331E+00 -8.400344E+02  3.654678E+01 -4.562679E-10 -6.113161E-10
        62  17 -1.285602E+03  2.025554E+01 -1.527965E+03  6.231160E+01 -5.063716E-10  1.102845E-10
        62  18 -1.340973E+03 -1.442404E+01 -2.720194E+03  8.807644E+01 -1.768205E-09 -2.611595E-10
        62  19 -1.340969E+03  5.541480E+00 -8.400333E+02 -3.654678E+01 -7.452938E+02  4.387385E-05
        62  20 -1.285599E+03  2.025615E+01 -1.527961E+03 -6.231160E+01 -1.500928E+03  1.506470E-04
        62  21 -1.340967E+03 -1.442267E+01 -2.720185E+03 -8.807644E+01 -2.256562E+03  3.201348E-04
        62  22 -1.340969E+03  5.541478E+00 -8.400333E+02  3.318756E-10 -7.452938E+02  9.569271E-11
        62  23 -1.285599E+03  2.025614E+01 -1.527961E+03 -1.034667E-08 -1.500928E+03  1.753215E-09
        62  24 -1.340967E+03 -1.442269E+01 -2.720185E+03 -4.062910E-09 -2.256562E+03  7.429824E-11
        62  25 -1.340969E+03  5.541480E+00 -8.400333E+02  3.654678E+01 -7.452938E+02 -4.387369E-05
        62  26 -1.285599E+03  2.025615E+01 -1.527961E+03  6.231160E+01 -1.500928E+03 -1.506435E-04
        62  27 -1.340967E+03 -1.442267E+01 -2.720185E+03  8.807644E+01 -2.256562E+03 -3.201347E-04
        63   1 -1.447479E+03  5.140444E+01 -3.590304E+03 -2.129896E+02  2.825054E+03 -9.691949E-04
        63   2 -1.152444E+03  9.388343E+01 -6.259200E+03 -1.490960E+02  5.931622E+03 -1.424507E-03
        63   3 -1.447447E+03 -6.058080E+02 -1.113610E+04 -8.520310E+01  9.038128E+03 -1.240393E-03
        63   4 -1.447479E+03  5.140436E+01 -3.590304E+03 -3.419216E-10  2.825054E+03 -1.288254E-10
        63   5 -1.152444E+03  9.388339E+01 -6.259200E+03  1.162727E-09  5.931622E+03  3.346672E-10
        63   6 -1.447447E+03 -6.058080E+02 -1.113610E+04  5.359798E-09  9.038128E+03 -2.658356E-10
        63   7 -1.447479E+03  5.140444E+01 -3.590304E+03  2.129896E+02  2.825054E+03  9.691946E-04
        63   8 -1.152444E+03  9.388343E+01 -6.259200E+03  1.490960E+02  5.931622E+03  1.424508E-03
        63   9 -1.447447E+03 -6.058080E+02 -1.113610E+04  8.520310E+01  9.038128E+03  1.240393E-03
        63  10 -1.447488E+03  5.140230E+01 -3.590319E+03 -2.129896E+02 -3.747115E-10 -4.113951E-10
        63  11 -1.152481E+03  9.387398E+01 -6.259266E+03 -1.490960E+02  1.916060E-09  4.984689E-10
        63  12 -1.447535E+03 -6.058299E+02 -1.113625E+04 -8.520310E+01  9.764135E-10  1.309688E-10
        63  13 -1.447488E+03  5.140222E+01 -3.590319E+03 -6.604050E-09 -1.183196E-12 -3.629034E-10
        63  14 -1.152481E+03  9.387394E+01 -6.259266E+03  7.883077E-11 -1.076866E-09  1.867990E-10
        63  15 -1.447535E+03 -6.058299E+02 -1.113625E+04 -6.162072E-09 -5.381022E-10 -4.416500E-10
        63  16 -1.447488E+03  5.140230E+01 -3.590319E+03  2.129896E+02 -1.238064E-09 -3.149702E-10
        63  17 -1.152481E+03  9.387398E+01 -6.259266E+03  1.490960E+02 -1.377861E-09 -1.237530E-10
        63  18 -1.447535E+03 -6.058299E+02 -1.113625E+04  8.520310E+01 -1.044629E-09 -1.019200E-09
        63  19 -1.447479E+03  5.140444E+01 -3.590304E+03 -2.129896E+02 -2.825054E+03  9.691941E-04
        63  20 -1.152444E+03  9.388343E+01 -6.259200E+03 -1.490960E+02 -5.931622E+03  1.424508E-03
        63  21 -1.447447E+03 -6.058080E+02 -1.113610E+04 -8.520310E+01 -9.038128E+03  1.240394E-03
        63  22 -1.447479E+03  5.140436E+01 -3.590304E+03 -2.096384E-09 -2.825054E+03 -5.974041E-10
        63  23 -1.152444E+03  9.388339E+01 -6.259200E+03  1.148917E-09 -5.931622E+03  3.927339E-11
        63  24 -1.447447E+03 -6.058080E+02 -1.113610E+04 -5.836983E-09 -9.038128E+03 -6.000408E-10
        63  25 -1.447479E+03  5.140444E+01 -3.590304E+03  2.129896E+02 -2.825054E+03 -9.691953E-04
        63  26 -1.152444E+03  9.388343E+01 -6.259200E+03  1.490960E+02 -5.931622E+03 -1.424508E-03
        63  27 -1.447447E+03 -6.058080E+02 -1.113610E+04  8.520310E+01 -9.038128E+03 -1.240395E-03
        64   1 -2.321266E+03  6.412769E+02 -1.450755E+04 -2.017890E+03  1.129482E+04 -3.671155E-02
        64   2 -5.988663E+01  5.486537E+02 -2.507659E+04  9.195355E+02  2.391695E+04  3.542408E-02
        64   3 -2.320712E+03 -1.106042E+04 -4.674123E+04  3.857025E+03  3.653908E+04  2.270047E-01
        64   4 -2.321271E+03  6.412692E+02 -1.450755E+04  1.165111E-08  1.129482E+04  6.695121E-11
        64   5 -5.988754E+01  5.486521E+02 -2.507659E+04  3.818308E-10  2.391695E+04  1.208235E-09
        64   6 -2.320728E+03 -1.106044E+04 -4.674123E+04  8.229223E-09  3.653908E+04  2.492363E-10
        64   7 -2.321266E+03  6.412769E+02 -1.450755E+04  2.017890E+03  1.129482E+04  3.671155E-02
        64   8 -5.988663E+01  5.486537E+02 -2.507659E+04 -9.195355E+02  2.391695E+04 -3.542407E-02
        64   9 -2.320712E+03 -1.106042E+04 -4.674123E+04 -3.857025E+03  3.653908E+04 -2.270047E-01
        64  10 -2.321403E+03  6.412426E+02 -1.450779E+04 -2.017890E+03 -6.710284E-10  1.807984E-10
        64  11 -6.050090E+01  5.485001E+02 -2.507767E+04  9.195355E+02  2.336290E-10  4.434031E-10
        64  12 -2.322146E+03 -1.106077E+04 -4.674374E+04  3.857025E+03 -1.449893E-10 -9.644069E-10
        64  13 -2.321408E+03  6.412350E+02 -1.450779E+04 -3.163039E-09 -1.088529E-09 -3.470949E-10
        64  14 -6.050181E+01  5.484985E+02 -2.507767E+04  3.897038E-10 -1.075900E-09  4.253275E-10
        64  15 -2.322162E+03 -1.106080E+04 -4.674374E+04  4.481077E-09 -5.418000E-10 -2.576745E-10
        64  16 -2.321403E+03  6.412426E+02 -1.450779E+04  2.017890E+03 -9.506373E-10 -8.669837E-10
        64  17 -6.050090E+01  5.485001E+02 -2.507767E+04 -9.195355E+02 -1.305940E-09  4.064951E-10
        64  18 -2.322146E+03 -1.106077E+04 -4.674374E+04 -3.857025E+03 -1.199831E-09  4.666124E-10
        64  19 -2.321266E+03  6.412769E+02 -1.450755E+04 -2.017890E+03 -1.129482E+04  3.671155E-02
        64  20 -5.988663E+01  5.486537E+02 -2.507659E+04  9.195355E+02 -2.391695E+04 -3.542408E-02
        64  21 -2.320712E+03 -1.106042E+04 -4.674123E+04  3.857025E+03 -3.653908E+04 -2.270047E-01
        64  22 -2.321271E+03  6.412692E+02 -1.450755E+04 -7.451842E-10 -1.129482E+04 -7.610785E-10
        64  23 -5.988754E+01  5.486521E+02 -2.507659E+04 -7.140774E-09 -2.391695E+04 -3.520037E-10
        64  24 -2.320728E+03 -1.106044E+04 -4.674123E+04  3.425684E-09 -3.653908E+04 -7.588884E-10
        64  25 -2.321266E+03  6.412769E+02 -1.450755E+04  2.017890E+03 -1.129482E+04 -3.671155E-02
        64  26 -5.988663E+01  5.486537E+02 -2.507659E+04 -9.195355E+02 -2.391695E+04  3.542408E-02
        64  27 -2.320712E+03 -1.106042E+04 -4.674123E+04 -3.857025E+03 -3.653908E+04  2.270047E-01
        65   1 -1.286156E+04  9.407359E+03 -5.852209E+04 -2.641435E+04  4.496029E+04 -1.912939E+00
        65   2  1.312183E+04  4.891374E+03 -9.871380E+04  2.758506E+04  9.744070E+04  4.329401E+00
        65   3 -1.285016E+04 -1.801395E+05 -2.181916E+05  8.158154E+04  1.499216E+05  1.970054E+01
        65   4 -1.286231E+04  9.406048E+03 -5.852228E+04  1.469052E-10  4.496029E+04 -2.521743E-10
        65   5  1.312101E+04  4.889944E+03 -9.871400E+04 -1.375291E-09  9.744070E+04  1.077795E-10
        65   6 -1.285731E+04 -1.801521E+05 -2.181934E+05 -1.553458E-09  1.499216E+05 -5.685486E-10
        65   7 -1.286156E+04  9.407359E+03 -5.852209E+04  2.641435E+04  4.496029E+04  1.912939E+00
        65   8  1.312183E+04  4.891374E+03 -9.871380E+04 -2.758506E+04  9.744070E+04 -4.329401E+00
        65   9 -1.285016E+04 -1.801395E+05 -2.181916E+05 -8.158154E+04  1.499216E+05 -1.970054E+01
        65  10 -1.286373E+04  9.406817E+03 -5.852589E+04 -2.641435E+04 -1.073693E-09 -1.088406E-09
        65  11  1.311163E+04  4.888825E+03 -9.873164E+04  2.758506E+04  1.641998E-09  1.722491E-10
        65  12 -1.287430E+04 -1.801456E+05 -2.182338E+05  8.158154E+04  1.233898E-09  2.241889E-10
        65  13 -1.286448E+04  9.405506E+03 -5.852608E+04 -6.188461E-09 -1.073615E-09 -5.090990E-10
        65  14  1.311082E+04  4.887395E+03 -9.873185E+04 -7.788224E-09  5.772147E-10 -3.906778E-11
        65  15 -1.288145E+04 -1.801581E+05 -2.182356E+05 -5.079236E-09 -1.350165E-09  5.736812E-11
        65  16 -1.286373E+04  9.406817E+03 -5.852589E+04  2.641435E+04 -1.057523E-09  5.670148E-11
        65  17  1.311163E+04  4.888825E+03 -9.873164E+04 -2.758506E+04 -1.099383E-09 -3.116876E-10
        65  18 -1.287430E+04 -1.801456E+05 -2.182338E+05 -8.158154E+04 -1.149316E-09 -7.761704E-11
        65  19 -1.286156E+04  9.407359E+03 -5.852209E+04 -2.641435E+04 -4.496029E+04  1.912939E+00
        65  20  1.312183E+04  4.891374E+03 -9.871380E+04  2.758506E+04 -9.744070E+04 -4.329401E+00
        65  21 -1.285016E+04 -1.801395E+05 -2.181916E+05  8.158154E+04 -1.499216E+05 -1.970054E+01
        65  22 -1.286231E+04  9.406048E+03 -5.852228E+04 -6.061665E-09 -4.496029E+04 -7.600023E-10
        65  23  1.312101E+04  4.889944E+03 -9.871400E+04 -1.096953E-08 -9.744070E+04 -1.545294E-10
        65  24 -1.285731E+04 -1.801521E+05 -2.181934E+05 -3.761911E-09 -1.499216E+05  4.147985E-10
        65  25 -1.286156E+04  9.407359E+03 -5.852209E+04  2.641435E+04 -4.496029E+04 -1.912939E+00
        65  26  1.312183E+04  4.891374E+03 -9.871380E+04 -2.758506E+04 -9.744070E+04  4.329401E+00
        65  27 -1.285016E+04 -1.801395E+05 -2.181916E+05 -8.158154E+04 -1.499216E+05  1.970054E+01
        66   1  1.247056E+05  4.179426E+05  1.224601E+05 -4.196488E+04  6.072323E+03  1.680670E+04
        66   2  1.047081E+05  3.495384E+05  9.793378E+04 -2.672016E+04  1.847302E+04  5.133777E+03
        66   3  8.829729E+04  2.836129E+05  8.191346E+04 -4.107676E+04  1.774871E+04 -6.539376E+03
        66   4  1.542738E+03 -7.747160E+04  1.954532E+03 -4.118503E+04  6.074558E+03  8.708182E+02
        66   5 -7.385942E+01 -7.774450E+04  1.234518E+03 -2.638399E+04  1.847521E+04  2.302439E+02
        66   6 -1.680573E+01 -7.745550E+04  1.363046E+03 -4.118534E+04  1.774683E+04 -4.117055E+02
        66   7 -1.216381E+05 -5.726613E+05 -1.185679E+05 -4.040580E+04  6.076754E+03 -1.505239E+04
        66   8 -1.048684E+05 -5.048577E+05 -9.547641E+04 -2.604803E+04  1.847739E+04 -4.669948E+03
        66   9 -8.833973E+04 -4.384023E+05 -7.919541E+04 -4.129385E+04  1.774495E+04  5.712441E+03
        66  10  1.247055E+05  4.179423E+05  1.224595E+05 -4.196496E+04 -9.781021E-10 -1.198535E-09
        66  11  1.047077E+05  3.495382E+05  9.793309E+04 -2.672023E+04 -1.945438E-09 -4.217230E-10
        66  12  8.829694E+04  2.836128E+05  8.191279E+04 -4.107666E+04 -9.766486E-10  3.615693E-10
        66  13  1.542698E+03 -7.747161E+04  1.954461E+03 -4.118504E+04 -4.367475E-10  1.043040E-12
        66  14 -7.422595E+01 -7.774459E+04  1.233876E+03 -2.638399E+04  1.274093E-09  2.735927E-13
        66  15 -1.714396E+01 -7.745559E+04  1.362454E+03 -4.118534E+04  7.137088E-10 -4.644595E-11
        66  16 -1.216382E+05 -5.726616E+05 -1.185684E+05 -4.040573E+04  6.327709E-10  1.108157E-09
        66  17 -1.048688E+05 -5.048579E+05 -9.547709E+04 -2.604797E+04  1.281634E-09  6.508164E-10
        66  18 -8.834008E+04 -4.384024E+05 -7.919606E+04 -4.129393E+04 -8.425899E-10 -4.462786E-10
        66  19  1.247056E+05  4.179426E+05  1.224601E+05 -4.196488E+04 -6.072323E+03 -1.680670E+04
        66  20  1.047081E+05  3.495384E+05  9.793378E+04 -2.672016E+04 -1.847302E+04 -5.133777E+03
        66  21  8.829729E+04  2.836129E+05  8.191346E+04 -4.107676E+04 -1.774871E+04  6.539376E+03
        66  22  1.542738E+03 -7.747160E+04  1.954532E+03 -4.118503E+04 -6.074558E+03 -8.708182E+02
        66  23 -7.385942E+01 -7.774450E+04  1.234518E+03 -2.638399E+04 -1.847521E+04 -2.302439E+02
        66  24 -1.680573E+01 -7.745550E+04  1.363046E+03 -4.118534E+04 -1.774683E+04  4.117055E+02
        66  25 -1.216381E+05 -5.726613E+05 -1.185679E+05 -4.040580E+04 -6.076754E+03  1.505239E+04
        66  26 -1.048684E+05 -5.048577E+05 -9.547641E+04 -2.604803E+04 -1.847739E+04  4.669948E+03
        66  27 -8.833973E+04 -4.384023E+05 -7.919541E+04 -4.129385E+04 -1.774495E+04 -5.712441E+03
        67   1  7.429087E+04  2.257333E+05  6.951926E+04 -4.161851E+04  1.432780E+04 -2.869931E+03
        67   2  5.773588E+04  1.584095E+05  5.504226E+04 -2.626096E+04  1.143637E+04 -4.464681E+03
        67   3  4.235352E+04  9.157526E+04  4.189275E+04 -4.105128E+04  8.012143E+03 -6.060617E+03
        67   4  6.129980E+01 -7.748088E+04  1.557766E+03 -4.130673E+04  1.432720E+04 -6.634669E+02
        67   5 -3.263664E+01 -7.768017E+04  2.276049E+03 -2.623220E+04  1.143516E+04 -1.810270E+03
        67   6  9.687929E+02 -7.747181E+04  4.011180E+03 -4.130621E+04  8.010225E+03 -2.958427E+03
        67   7 -7.417454E+04 -3.806094E+05 -6.640953E+04 -4.099509E+04  1.432660E+04  1.541931E+03
        67   8 -5.780494E+04 -3.137179E+05 -5.049364E+04 -2.620343E+04  1.143396E+04  8.431429E+02
        67   9 -4.041787E+04 -2.464922E+05 -3.387216E+04 -4.156105E+04  8.008304E+03  1.429272E+02
        67  10  7.429065E+04  2.257332E+05  6.951886E+04 -4.161848E+04  5.994645E-10  1.205031E-09
        67  11  5.773573E+04  1.584094E+05  5.504198E+04 -2.626092E+04 -1.352306E-09 -4.210429E-11
        67  12  4.235344E+04  9.157520E+04  4.189256E+04 -4.105124E+04 -1.325197E-10 -1.523770E-09
        67  13  6.107927E+01 -7.748094E+04  1.557380E+03 -4.130673E+04 -1.049165E-09 -9.538440E-12
        67  14 -3.277793E+01 -7.768021E+04  2.275797E+03 -2.623218E+04 -7.927942E-10  5.846149E-12
        67  15  9.687216E+02 -7.747183E+04  4.011043E+03 -4.130619E+04 -1.843005E-09 -7.882787E-11
        67  16 -7.417476E+04 -3.806095E+05 -6.640992E+04 -4.099511E+04 -2.090455E-09 -1.915860E-09
        67  17 -5.780508E+04 -3.137179E+05 -5.049389E+04 -2.620344E+04  1.794016E-09  5.697145E-10
        67  18 -4.041794E+04 -2.464923E+05 -3.387228E+04 -4.156106E+04 -4.287865E-10  1.381050E-09
        67  19  7.429087E+04  2.257333E+05  6.951926E+04 -4.161851E+04 -1.432780E+04  2.869931E+03
        67  20  5.773588E+04  1.584095E+05  5.504226E+04 -2.626096E+04 -1.143637E+04  4.464681E+03
        67  21  4.235352E+04  9.157526E+04  4.189275E+04 -4.105128E+04 -8.012143E+03  6.060617E+03
        67  22  6.129980E+01 -7.748088E+04  1.557766E+03 -4.130673E+04 -1.432720E+04  6.634669E+02
        67  23 -3.263664E+01 -7.768017E+04  2.276049E+03 -2.623220E+04 -1.143516E+04  1.810270E+03
        67  24  9.687929E+02 -7.747181E+04  4.011180E+03 -4.130621E+04 -8.010225E+03  2.958427E+03
        67  25 -7.417454E+04 -3.806094E+05 -6.640953E+04 -4.099509E+04 -1.432660E+04 -1.541931E+03
        67  26 -5.780494E+04 -3.137179E+05 -5.049364E+04 -2.620343E+04 -1.143396E+04 -8.431429E+02
        67  27 -4.041787E+04 -2.464922E+05 -3.387216E+04 -4.156105E+04 -8.008304E+03 -1.429272E+02
        68   1  2.650040E+04  3.480236E+04  2.969771E+04 -4.356621E+04  5.714726E+03 -6.993149E+03
        68   2  1.046067E+04 -3.435343E+04  1.807564E+04 -2.395272E+04  2.406845E+03 -1.033406E+04
        68   3  9.368345E+03 -9.937888E+04  1.235479E+04 -3.446107E+04  3.663735E+02 -1.367399E+04
        68   4 -7.303085E+02 -7.660108E+04  4.968196E+03 -4.130331E+04  5.712459E+03 -3.679967E+03
        68   5 -3.738856E+02 -7.875466E+04  8.287678E+03 -2.623721E+04  2.405314E+03 -8.085486E+03
        68   6  1.511508E+04 -7.659874E+04  1.824753E+04 -4.129252E+04  3.656573E+02 -1.249036E+04
        68   7 -2.796183E+04 -1.879929E+05 -1.976204E+04 -3.904083E+04  5.710215E+03 -3.673728E+02
        68   8 -1.120855E+04 -1.231540E+05 -1.500382E+03 -2.852153E+04  2.403768E+03 -5.837073E+03
        68   9  2.086195E+04 -5.381802E+04  2.414027E+04 -4.812422E+04  3.649149E+02 -1.130668E+04
        68  10  2.650035E+04  3.480229E+04  2.969755E+04 -4.356617E+04 -3.337847E-10  1.333573E-09
        68  11  1.046063E+04 -3.435354E+04  1.807543E+04 -2.395270E+04  1.247626E-09  1.925020E-10
        68  12  9.368294E+03 -9.937908E+04  1.235443E+04 -3.446106E+04 -1.099201E-09 -1.134261E-09
        68  13 -7.303472E+02 -7.660110E+04  4.968110E+03 -4.130330E+04 -8.884449E-10  1.494011E-11
        68  14 -3.739094E+02 -7.875473E+04  8.287544E+03 -2.623719E+04  1.156157E-10  2.760847E-11
        68  15  1.511504E+04 -7.659890E+04  1.824724E+04 -4.129252E+04  1.273536E-09 -7.770749E-11
        68  16 -2.796186E+04 -1.879929E+05 -1.976210E+04 -3.904083E+04 -4.176261E-10 -2.337453E-09
        68  17 -1.120856E+04 -1.231541E+05 -1.500457E+03 -2.852152E+04 -8.430412E-11  5.190787E-10
        68  18  2.086191E+04 -5.381816E+04  2.414003E+04 -4.812422E+04 -1.709101E-11  9.899048E-10
        68  19  2.650040E+04  3.480236E+04  2.969771E+04 -4.356621E+04 -5.714726E+03  6.993149E+03
        68  20  1.046067E+04 -3.435343E+04  1.807564E+04 -2.395272E+04 -2.406845E+03  1.033406E+04
        68  21  9.368345E+03 -9.937888E+04  1.235479E+04 -3.446107E+04 -3.663735E+02  1.367399E+04
        68  22 -7.303085E+02 -7.660108E+04  4.968196E+03 -4.130331E+04 -5.712459E+03  3.679967E+03
        68  23 -3.738856E+02 -7.875466E+04  8.287678E+03 -2.623721E+04 -2.405314E+03  8.085486E+03
        68  24  1.511508E+04 -7.659874E+04  1.824753E+04 -4.129252E+04 -3.656573E+02  1.249036E+04
        68  25 -2.796183E+04 -1.879929E+05 -1.976204E+04 -3.904083E+04 -5.710215E+03  3.673728E+02
        68  26 -1.120855E+04 -1.231540E+05 -1.500382E+03 -2.852153E+04 -2.403768E+03  5.837073E+03
        68  27  2.086195E+04 -5.381802E+04  2.414027E+04 -4.812422E+04 -3.649149E+02  1.130668E+04
        69   1 -9.753256E+04 -2.242877E+04 -5.800818E+03 -4.123889E+04 -3.955287E+03 -1.612350E+03
        69   2 -9.216899E+04 -1.286499E+04 -5.156838E+02 -3.880755E+04 -2.270735E+03 -1.405117E+03
        69   3 -8.688808E+04 -1.067993E+04  2.175592E+03 -3.743119E+04 -5.960097E+02 -1.171571E+03
        69   4 -1.027928E+05 -2.221880E+04 -6.747485E+03 -4.042500E+04 -4.258223E+03 -1.725968E+03
        69   5 -1.023873E+05 -1.595355E+04 -2.905193E+03 -4.086262E+04 -2.553012E+03 -1.510975E+03
        69   6 -1.020686E+05 -1.707119E+04 -1.673159E+03 -4.235527E+04 -8.576307E+02 -1.269680E+03
        69   7 -1.080530E+05 -2.200881E+04 -7.694140E+03 -3.961113E+04 -4.561153E+03 -1.839586E+03
        69   8 -1.126055E+05 -1.904210E+04 -5.294701E+03 -4.291766E+04 -2.835283E+03 -1.616831E+03
        69   9 -1.172490E+05 -2.346243E+04 -5.521942E+03 -4.727924E+04 -1.119245E+03 -1.367786E+03
        69  10 -9.753257E+04 -2.242878E+04 -5.800853E+03 -4.123889E+04 -2.582238E-10 -6.959284E-11
        69  11 -9.216899E+04 -1.286500E+04 -5.156972E+02 -3.880755E+04 -4.052520E-09 -5.199861E-10
        69  12 -8.688808E+04 -1.067993E+04  2.175589E+03 -3.743119E+04 -1.887941E-09 -6.501545E-10
        69  13 -1.027928E+05 -2.221880E+04 -6.747525E+03 -4.042501E+04 -3.200102E-09 -9.381549E-11
        69  14 -1.023873E+05 -1.595355E+04 -2.905209E+03 -4.086262E+04 -6.353834E-09 -3.572742E-10
        69  15 -1.020686E+05 -1.707119E+04 -1.673163E+03 -4.235527E+04 -8.334809E-10 -4.843969E-10
        69  16 -1.080530E+05 -2.200882E+04 -7.694186E+03 -3.961114E+04 -7.268218E-10 -1.097111E-10
        69  17 -1.126055E+05 -1.904210E+04 -5.294721E+03 -4.291767E+04 -4.838090E-09 -1.790747E-10
        69  18 -1.172490E+05 -2.346243E+04 -5.521948E+03 -4.727924E+04 -2.527460E-09 -3.520801E-10
        69  19 -9.753256E+04 -2.242877E+04 -5.800818E+03 -4.123889E+04  3.955287E+03  1.612350E+03
        69  20 -9.216899E+04 -1.286499E+04 -5.156838E+02 -3.880755E+04  2.270735E+03  1.405117E+03
        69  21 -8.688808E+04 -1.067993E+04  2.175592E+03 -3.743119E+04  5.960097E+02  1.171571E+03
        69  22 -1.027928E+05 -2.221880E+04 -6.747485E+03 -4.042500E+04  4.258223E+03  1.725968E+03
        69  23 -1.023873E+05 -1.595355E+04 -2.905193E+03 -4.086262E+04  2.553012E+03  1.510975E+03
        69  24 -1.020686E+05 -1.707119E+04 -1.673159E+03 -4.235527E+04  8.576307E+02  1.269680E+03
        69  25 -1.080530E+05 -2.200881E+04 -7.694140E+03 -3.961113E+04  4.561153E+03  1.839586E+03
        69  26 -1.126055E+05 -1.904210E+04 -5.294701E+03 -4.291766E+04  2.835283E+03  1.616831E+03
        69  27 -1.172490E+05 -2.346243E+04 -5.521942E+03 -4.727924E+04  1.119245E+03  1.367786E+03
        70   1 -8.064224E+04 -9.831873E+03  3.888110E+03 -3.633764E+04 -2.962143E+02 -1.282173E+03
        70   2 -7.562063E+04 -6.123153E+03  5.995176E+03 -3.351803E+04  1.823517E+02 -1.493047E+03
        70   3 -6.868348E+04 -4.881030E+03  7.742309E+03 -3.302062E+04  6.604358E+02 -1.702584E+03
        70   4 -1.018545E+05 -1.761871E+04 -1.336586E+03 -4.202191E+04 -5.658356E+02 -1.383287E+03
        70   5 -1.027879E+05 -1.621248E+04 -6.892740E+02 -4.092563E+04 -8.623283E+01 -1.593777E+03
        70   6 -1.018060E+05 -1.727309E+04 -4.027323E+02 -4.215159E+04  3.928829E+02 -1.802932E+03
        70   7 -1.230662E+05 -2.540551E+04 -6.561306E+03 -4.770600E+04 -8.354464E+02 -1.484397E+03
        70   8 -1.299542E+05 -2.630171E+04 -7.373741E+03 -4.833290E+04 -3.548032E+02 -1.694502E+03
        70   9 -1.349271E+05 -2.966497E+04 -8.547778E+03 -5.128203E+04  1.253479E+02 -1.903273E+03
        70  10 -8.064224E+04 -9.831875E+03  3.888106E+03 -3.633764E+04 -1.877716E-09 -5.022738E-10
        70  11 -7.562063E+04 -6.123155E+03  5.995171E+03 -3.351803E+04 -7.111967E-10  1.514883E-10
        70  12 -6.868349E+04 -4.881034E+03  7.742303E+03 -3.302062E+04 -1.098376E-09 -1.851516E-10
        70  13 -1.018545E+05 -1.761872E+04 -1.336590E+03 -4.202191E+04  1.192437E-09 -3.525311E-10
        70  14 -1.027879E+05 -1.621248E+04 -6.892788E+02 -4.092563E+04  5.382179E-10 -1.281451E-10
        70  15 -1.018060E+05 -1.727310E+04 -4.027387E+02 -4.215159E+04  9.852173E-10 -5.335559E-10
        70  16 -1.230662E+05 -2.540552E+04 -6.561312E+03 -4.770600E+04  5.129798E-10 -2.068527E-10
        70  17 -1.299542E+05 -2.630171E+04 -7.373747E+03 -4.833290E+04  7.641927E-10 -4.098069E-10
        70  18 -1.349271E+05 -2.966497E+04 -8.547785E+03 -5.128203E+04 -6.282838E-10 -8.789109E-10
        70  19 -8.064224E+04 -9.831873E+03  3.888110E+03 -3.633764E+04  2.962143E+02  1.282173E+03
        70  20 -7.562063E+04 -6.123153E+03  5.995176E+03 -3.351803E+04 -1.823517E+02  1.493047E+03
        70  21 -6.868348E+04 -4.881030E+03  7.742309E+03 -3.302062E+04 -6.604358E+02  1.702584E+03
        70  22 -1.018545E+05 -1.761871E+04 -1.336586E+03 -4.202191E+04  5.658356E+02  1.383287E+03
        70  23 -1.027879E+05 -1.621248E+04 -6.892740E+02 -4.092563E+04  8.623283E+01  1.593777E+03
        70  24 -1.018060E+05 -1.727309E+04 -4.027323E+02 -4.215159E+04 -3.928829E+02  1.802932E+03
        70  25 -1.230662E+05 -2.540551E+04 -6.561306E+03 -4.770600E+04  8.354464E+02  1.484397E+03
        70  26 -1.299542E+05 -2.630171E+04 -7.373741E+03 -4.833290E+04  3.548032E+02  1.694502E+03
        70  27 -1.349271E+05 -2.966497E+04 -8.547778E+03 -5.128203E+04 -1.253479E+02  1.903273E+03
        71   1 -6.321910E+04 -2.939310E+03  9.196253E+03 -3.156846E+04  7.931819E+02 -1.878707E+03
        71   2 -5.824596E+04  3.697858E+02  1.075866E+04 -2.872391E+04  1.029687E+03 -2.178256E+03
        71   3 -5.119978E+04  1.556936E+03  1.223370E+04 -2.827757E+04  1.266103E+03 -2.477488E+03
        71   4 -1.017866E+05 -1.730811E+04 -3.221765E+02 -4.212657E+04  5.253849E+02 -1.979151E+03
        71   5 -1.028216E+05 -1.623610E+04 -2.180765E+02 -4.093161E+04  7.621291E+02 -2.278623E+03
        71   6 -1.017836E+05 -1.728609E+04 -2.015068E+02 -4.213490E+04  9.987832E+02 -2.577777E+03
        71   7 -1.403529E+05 -3.167696E+04 -9.840828E+03 -5.268420E+04  2.576035E+02 -2.079591E+03
        71   8 -1.473957E+05 -3.284198E+04 -1.119506E+04 -5.313862E+04  4.945904E+02 -2.378983E+03
        71   9 -1.523652E+05 -3.612904E+04 -1.263699E+04 -5.599129E+04  7.314856E+02 -2.678058E+03
        71  10 -6.321910E+04 -2.939314E+03  9.196245E+03 -3.156846E+04  1.080308E-10 -9.563468E-10
        71  11 -5.824596E+04  3.697804E+02  1.075865E+04 -2.872391E+04  3.863652E-09  1.586183E-09
        71  12 -5.119979E+04  1.556929E+03  1.223368E+04 -2.827756E+04  7.994216E-09  3.631159E-09
        71  13 -1.017866E+05 -1.730812E+04 -3.221844E+02 -4.212657E+04  1.049151E-09 -5.630407E-10
        71  14 -1.028216E+05 -1.623610E+04 -2.180873E+02 -4.093161E+04  9.381323E-10  4.157705E-10
        71  15 -1.017836E+05 -1.728609E+04 -2.015212E+02 -4.213490E+04  2.130034E-09  1.582106E-09
        71  16 -1.403529E+05 -3.167697E+04 -9.840836E+03 -5.268420E+04  8.104152E-10 -8.492427E-11
        71  17 -1.473957E+05 -3.284199E+04 -1.119507E+04 -5.313862E+04 -3.815488E-09 -8.243544E-10
        71  18 -1.523652E+05 -3.612905E+04 -1.263700E+04 -5.599128E+04 -5.638372E-09 -2.856745E-10
        71  19 -6.321910E+04 -2.939310E+03  9.196253E+03 -3.156846E+04 -7.931819E+02  1.878707E+03
        71  20 -5.824596E+04  3.697858E+02  1.075866E+04 -2.872391E+04 -1.029687E+03  2.178256E+03
        71  21 -5.119978E+04  1.556936E+03  1.223370E+04 -2.827757E+04 -1.266103E+03  2.477488E+03
        71  22 -1.017866E+05 -1.730811E+04 -3.221765E+02 -4.212657E+04 -5.253849E+02  1.979151E+03
        71  23 -1.028216E+05 -1.623610E+04 -2.180765E+02 -4.093161E+04 -7.621291E+02  2.278623E+03
        71  24 -1.017836E+05 -1.728609E+04 -2.015068E+02 -4.213490E+04 -9.987832E+02  2.577777E+03
        71  25 -1.403529E+05 -3.167696E+04 -9.840828E+03 -5.268420E+04 -2.576035E+02  2.079591E+03
        71  26 -1.473957E+05 -3.284198E+04 -1.119506E+04 -5.313862E+04 -4.945904E+02  2.378983E+03
        71  27 -1.523652E+05 -3.612904E+04 -1.263699E+04 -5.599129E+04 -7.314856E+02  2.678058E+03
        72   1 -4.580864E+04  3.567517E+03  1.358588E+04 -2.680565E+04  1.375099E+03 -2.662199E+03
        72   2 -4.084202E+04  6.844484E+03  1.494309E+04 -2.396638E+04  1.660450E+03 -2.942511E+03
        72   3 -3.380651E+04  8.022688E+03  1.618172E+04 -2.352656E+04  1.945720E+03 -3.222501E+03
        72   4 -1.017859E+05 -1.728780E+04 -2.196568E+02 -4.213274E+04  1.107921E+03 -2.762442E+03
        72   5 -1.028202E+05 -1.623768E+04 -3.176552E+02 -4.093331E+04  1.393500E+03 -3.042682E+03
        72   6 -1.017858E+05 -1.728634E+04 -5.344344E+02 -4.213331E+04  1.678997E+03 -3.322601E+03
        72   7 -1.577596E+05 -3.814272E+04 -1.402530E+04 -5.745844E+04  8.407724E+02 -2.862675E+03
        72   8 -1.647944E+05 -3.931951E+04 -1.557864E+04 -5.789866E+04  1.126579E+03 -3.142841E+03
        72   9 -1.697607E+05 -4.259513E+04 -1.725100E+04 -6.073827E+04  1.412305E+03 -3.422688E+03
        72  10 -4.580864E+04  3.567509E+03  1.358586E+04 -2.680565E+04 -2.528080E-09 -8.442357E-10
        72  11 -4.084202E+04  6.844474E+03  1.494307E+04 -2.396638E+04 -1.381361E-09 -2.107981E-09
        72  12 -3.380652E+04  8.022676E+03  1.618170E+04 -2.352655E+04  1.096238E-09 -1.179558E-09
        72  13 -1.017859E+05 -1.728781E+04 -2.196734E+02 -4.213274E+04  2.677659E-09  1.164809E-09
        72  14 -1.028202E+05 -1.623769E+04 -3.176763E+02 -4.093331E+04  2.345499E-09 -5.408101E-10
        72  15 -1.017858E+05 -1.728635E+04 -5.344604E+02 -4.213331E+04  3.326032E-10 -8.410917E-10
        72  16 -1.577596E+05 -3.814273E+04 -1.402532E+04 -5.745844E+04  7.913489E-09  3.140721E-09
        72  17 -1.647944E+05 -3.931952E+04 -1.557866E+04 -5.789866E+04  4.783183E-09  9.211757E-10
        72  18 -1.697607E+05 -4.259515E+04 -1.725103E+04 -6.073827E+04 -7.318746E-10 -5.474264E-10
        72  19 -4.580864E+04  3.567517E+03  1.358588E+04 -2.680565E+04 -1.375099E+03  2.662199E+03
        72  20 -4.084202E+04  6.844484E+03  1.494309E+04 -2.396638E+04 -1.660450E+03  2.942511E+03
        72  21 -3.380651E+04  8.022688E+03  1.618172E+04 -2.352656E+04 -1.945720E+03  3.222501E+03
        72  22 -1.017859E+05 -1.728780E+04 -2.196568E+02 -4.213274E+04 -1.107921E+03  2.762442E+03
        72  23 -1.028202E+05 -1.623768E+04 -3.176552E+02 -4.093331E+04 -1.393500E+03  3.042682E+03
        72  24 -1.017858E+05 -1.728634E+04 -5.344344E+02 -4.213331E+04 -1.678997E+03  3.322601E+03
        72  25 -1.577596E+05 -3.814272E+04 -1.402530E+04 -5.745844E+04 -8.407724E+02  2.862675E+03
        72  26 -1.647944E+05 -3.931951E+04 -1.557864E+04 -5.789866E+04 -1.126579E+03  3.142841E+03
        72  27 -1.697607E+05 -4.259513E+04 -1.725100E+04 -6.073827E+04 -1.412305E+03  3.422688E+03
        73   1 -2.844026E+04  1.002852E+04  1.738104E+04 -2.206983E+04  2.122419E+03 -3.381311E+03
        73   2 -2.344478E+04  1.330386E+04  1.827867E+04 -1.923332E+04  2.875083E+03 -3.485130E+03
        73   3 -1.646683E+04  1.442166E+04  1.869528E+04 -1.879719E+04  3.627499E+03 -3.588152E+03
        73   4 -1.018032E+05 -1.728475E+04 -7.021033E+02 -4.213916E+04  1.855813E+03 -3.481376E+03
        73   5 -1.027971E+05 -1.622478E+04 -1.255596E+03 -4.093195E+04  2.609016E+03 -3.585011E+03
        73   6 -1.018087E+05 -1.732242E+04 -2.290578E+03 -4.212509E+04  3.361967E+03 -3.687849E+03
        73   7 -1.751606E+05 -4.459754E+04 -1.878557E+04 -6.220626E+04  1.589243E+03 -3.581427E+03
        73   8 -1.821432E+05 -4.575299E+04 -2.079034E+04 -6.262807E+04  2.342986E+03 -3.684877E+03
        73   9 -1.871437E+05 -4.906615E+04 -2.327710E+04 -6.545019E+04  3.096475E+03 -3.787532E+03
        73  10 -2.844027E+04  1.002850E+04  1.738101E+04 -2.206982E+04 -6.536957E-10 -7.633007E-10
        73  11 -2.344479E+04  1.330384E+04  1.827863E+04 -1.923331E+04 -1.713689E-09  3.810085E-10
        73  12 -1.646685E+04  1.442165E+04  1.869523E+04 -1.879718E+04 -1.634109E-09 -5.016672E-10
        73  13 -1.018032E+05 -1.728477E+04 -7.021326E+02 -4.213916E+04  6.587999E-11 -1.828419E-10
        73  14 -1.027971E+05 -1.622480E+04 -1.255633E+03 -4.093194E+04 -2.236477E-09  1.650799E-10
        73  15 -1.018087E+05 -1.732243E+04 -2.290624E+03 -4.212508E+04 -4.009050E-10 -3.258614E-10
        73  16 -1.751606E+05 -4.459755E+04 -1.878560E+04 -6.220625E+04  2.908173E-10  2.520566E-10
        73  17 -1.821432E+05 -4.575301E+04 -2.079038E+04 -6.262806E+04 -8.374553E-10  9.009212E-11
        73  18 -1.871437E+05 -4.906617E+04 -2.327714E+04 -6.545018E+04 -6.142324E-10 -1.982428E-10
        73  19 -2.844026E+04  1.002852E+04  1.738104E+04 -2.206983E+04 -2.122419E+03  3.381311E+03
        73  20 -2.344478E+04  1.330386E+04  1.827867E+04 -1.923332E+04 -2.875083E+03  3.485130E+03
        73  21 -1.646683E+04  1.442166E+04  1.869528E+04 -1.879719E+04 -3.627499E+03  3.588152E+03
        73  22 -1.018032E+05 -1.728475E+04 -7.021033E+02 -4.213916E+04 -1.855813E+03  3.481376E+03
        73  23 -1.027971E+05 -1.622478E+04 -1.255596E+03 -4.093195E+04 -2.609016E+03  3.585011E+03
        73  24 -1.018087E+05 -1.732242E+04 -2.290578E+03 -4.212509E+04 -3.361967E+03  3.687849E+03
        73  25 -1.751606E+05 -4.459754E+04 -1.878557E+04 -6.220626E+04 -1.589243E+03  3.581427E+03
        73  26 -1.821432E+05 -4.575299E+04 -2.079034E+04 -6.262807E+04 -2.342986E+03  3.684877E+03
        73  27 -1.871437E+05 -4.906615E+04 -2.327710E+04 -6.545019E+04 -3.096475E+03  3.787532E+03
        74   1 -1.109966E+04  1.639255E+04  1.930581E+04 -1.751870E+04  4.143248E+03 -3.619925E+03
        74   2 -5.976466E+03  1.981818E+04  1.829491E+04 -1.450435E+04  7.019630E+03 -2.923515E+03
        74   3  5.332158E+02  2.022504E+04  1.499675E+04 -1.375959E+04  9.892762E+03 -2.218301E+03
        74   4 -1.019049E+05 -1.725292E+04 -3.042265E+03 -4.219422E+04  3.875467E+03 -3.720478E+03
        74   5 -1.026525E+05 -1.613123E+04 -5.499746E+03 -4.091375E+04  6.758352E+03 -3.021649E+03
        74   6 -1.020150E+05 -1.802977E+04 -1.024991E+04 -4.190293E+04  9.637952E+03 -2.314030E+03
        74   7 -1.927020E+05 -5.089785E+04 -2.539096E+04 -6.686648E+04  3.607730E+03 -3.821016E+03
        74   8 -1.993191E+05 -5.207993E+04 -2.929505E+04 -6.731935E+04  6.497120E+03 -3.119767E+03
        74   9 -2.045524E+05 -5.628369E+04 -3.549724E+04 -7.004192E+04  9.383189E+03 -2.409740E+03
        74  10 -1.109968E+04  1.639253E+04  1.930575E+04 -1.751869E+04 -1.185504E-09 -9.953185E-10
        74  11 -5.976522E+03  1.981815E+04  1.829480E+04 -1.450433E+04 -1.913372E-10  7.310489E-10
        74  12  5.331094E+02  2.022501E+04  1.499656E+04 -1.375957E+04  2.091528E-09 -1.321560E-10
        74  13 -1.019049E+05 -1.725294E+04 -3.042320E+03 -4.219421E+04  1.471652E-10 -2.948706E-10
        74  14 -1.026526E+05 -1.613125E+04 -5.499849E+03 -4.091373E+04  2.113604E-09 -1.193715E-10
        74  15 -1.020151E+05 -1.802980E+04 -1.025009E+04 -4.190291E+04 -1.515776E-09 -5.619017E-10
        74  16 -1.927020E+05 -5.089787E+04 -2.539101E+04 -6.686647E+04  8.147767E-10  6.562193E-10
        74  17 -1.993192E+05 -5.207996E+04 -2.929515E+04 -6.731934E+04  8.147890E-10 -8.537305E-11
        74  18 -2.045525E+05 -5.628372E+04 -3.549741E+04 -7.004190E+04 -9.220803E-10  1.011219E-10
        74  19 -1.109966E+04  1.639255E+04  1.930581E+04 -1.751870E+04 -4.143248E+03  3.619925E+03
        74  20 -5.976466E+03  1.981818E+04  1.829491E+04 -1.450435E+04 -7.019630E+03  2.923515E+03
        74  21  5.332158E+02  2.022504E+04  1.499675E+04 -1.375959E+04 -9.892762E+03  2.218301E+03
        74  22 -1.019049E+05 -1.725292E+04 -3.042265E+03 -4.219422E+04 -3.875467E+03  3.720478E+03
        74  23 -1.026525E+05 -1.613123E+04 -5.499746E+03 -4.091375E+04 -6.758352E+03  3.021649E+03
        74  24 -1.020150E+05 -1.802977E+04 -1.024991E+04 -4.190293E+04 -9.637952E+03  2.314030E+03
        74  25 -1.927020E+05 -5.089785E+04 -2.539096E+04 -6.686648E+04 -3.607730E+03  3.821016E+03
        74  26 -1.993191E+05 -5.207993E+04 -2.929505E+04 -6.731935E+04 -6.497120E+03  3.119767E+03
        74  27 -2.045524E+05 -5.628369E+04 -3.549724E+04 -7.004192E+04 -9.383189E+03  2.409740E+03
        75   1  6.680695E+03  2.195513E+04  1.315626E+04 -1.491679E+04  1.192312E+04 -1.701209E+03
        75   2  1.164258E+04  2.790097E+04  3.956798E+03 -8.627631E+03  2.418246E+04  2.556352E+03
        75   3  1.221808E+04  1.865549E+04 -1.781687E+04 -1.779017E+03  3.637544E+04  6.991421E+03
        75   4 -1.027430E+05 -1.676290E+04 -1.343765E+04 -4.276780E+04  1.161440E+04 -1.817146E+03
        75   5 -1.014061E+05 -1.532200E+04 -2.409308E+04 -4.073133E+04  2.401100E+04  2.491830E+03
        75   6 -1.044839E+05 -2.910150E+04 -4.743325E+04 -3.813547E+04  3.634112E+04  6.978137E+03
        75   7 -2.121555E+05 -5.548061E+04 -4.003259E+04 -7.061461E+04  1.130575E+04 -1.933064E+03
        75   8 -2.144424E+05 -5.854403E+04 -5.214402E+04 -7.282974E+04  2.383957E+04  2.427321E+03
        75   9 -2.211725E+05 -7.685679E+04 -7.705072E+04 -7.448545E+04  3.630680E+04  6.964855E+03
        75  10  6.680542E+03  2.195509E+04  1.315599E+04 -1.491678E+04  7.505790E-10 -6.434278E-10
        75  11  1.164195E+04  2.790081E+04  3.955687E+03 -8.627681E+03 -9.162114E-10  7.750405E-10
        75  12  1.221665E+04  1.865508E+04 -1.781945E+04 -1.779222E+03  6.173972E-10  4.768287E-10
        75  13 -1.027432E+05 -1.676294E+04 -1.343791E+04 -4.276778E+04  1.137058E-10 -5.546536E-10
        75  14 -1.014067E+05 -1.532216E+04 -2.409417E+04 -4.073138E+04 -2.165398E-10  1.765768E-09
        75  15 -1.044854E+05 -2.910190E+04 -4.743582E+04 -3.813568E+04  2.493452E-09  8.800111E-10
        75  16 -2.121556E+05 -5.548064E+04 -4.003284E+04 -7.061459E+04  9.832697E-10  4.980628E-10
        75  17 -2.144430E+05 -5.854418E+04 -5.214510E+04 -7.282979E+04  1.094955E-09  1.413779E-10
        75  18 -2.211739E+05 -7.685719E+04 -7.705329E+04 -7.448565E+04 -2.830398E-10 -2.979591E-10
        75  19  6.680695E+03  2.195513E+04  1.315626E+04 -1.491679E+04 -1.192312E+04  1.701209E+03
        75  20  1.164258E+04  2.790097E+04  3.956798E+03 -8.627631E+03 -2.418246E+04 -2.556352E+03
        75  21  1.221808E+04  1.865549E+04 -1.781687E+04 -1.779017E+03 -3.637544E+04 -6.991421E+03
        75  22 -1.027430E+05 -1.676290E+04 -1.343765E+04 -4.276780E+04 -1.161440E+04  1.817146E+03
        75  23 -1.014061E+05 -1.532200E+04 -2.409308E+04 -4.073133E+04 -2.401100E+04 -2.491830E+03
        75  24 -1.044839E+05 -2.910150E+04 -4.743325E+04 -3.813547E+04 -3.634112E+04 -6.978137E+03
        75  25 -2.121555E+05 -5.548061E+04 -4.003259E+04 -7.061461E+04 -1.130575E+04  1.933064E+03
        75  26 -2.144424E+05 -5.854403E+04 -5.214402E+04 -7.282974E+04 -2.383957E+04 -2.427321E+03
        75  27 -2.211725E+05 -7.685679E+04 -7.705072E+04 -7.448545E+04 -3.630680E+04 -6.964855E+03
        76   1  3.227724E+04  1.784704E+04 -2.877046E+04 -3.772152E+04  4.552217E+04  9.734098E+03
        76   2  2.508953E+04  6.140386E+04 -7.105794E+04  1.869831E+04  9.824532E+04  2.997504E+04
        76   3 -5.763458E+04 -8.487092E+04 -2.041024E+05  1.211842E+05  1.495441E+05  5.401327E+04
        76   4 -1.121676E+05 -9.527444E+03 -5.951987E+04 -4.999869E+04  4.432371E+04  9.286213E+03
        76   5 -8.705408E+04 -6.134822E+03 -1.035890E+05 -3.854093E+04  1.000170E+05  3.063540E+04
        76   6 -1.380886E+05 -1.931952E+05 -2.407816E+05  1.898974E+04  1.542882E+05  5.577194E+04
        76   7 -2.565906E+05 -3.690212E+04 -9.026997E+04 -6.227497E+04  4.312556E+04  8.838314E+03
        76   8 -1.991826E+05 -7.366465E+04 -1.361206E+05 -9.576836E+04  1.017884E+05  3.129544E+04
        76   9 -2.185200E+05 -3.014767E+05 -2.774579E+05 -8.318415E+04  1.590316E+05  5.752883E+04
        76  10  3.227499E+04  1.784638E+04 -2.877454E+04 -3.772188E+04  6.861494E-10  3.250574E-10
        76  11  2.507893E+04  6.140030E+04 -7.107777E+04  1.869594E+04  2.486013E-09  1.178638E-09
        76  12 -5.765938E+04 -8.488005E+04 -2.041500E+05  1.211777E+05  4.073575E-09  1.496391E-09
        76  13 -1.121697E+05 -9.528064E+03 -5.952372E+04 -4.999902E+04  3.034291E-09  8.311308E-11
        76  14 -8.706508E+04 -6.138516E+03 -1.036095E+05 -3.854340E+04  8.494383E-10  2.378770E-09
        76  15 -1.381150E+05 -1.932049E+05 -2.408322E+05  1.898281E+04  2.124099E-09  2.112239E-09
        76  16 -2.565926E+05 -3.690270E+04 -9.027361E+04 -6.227528E+04  1.444456E-09  1.314005E-09
        76  17 -1.991940E+05 -7.366848E+04 -1.361419E+05 -9.577093E+04  4.333216E-09  1.781875E-09
        76  18 -2.185481E+05 -3.014871E+05 -2.775117E+05 -8.319152E+04 -1.699468E-09  2.171136E-10
        76  19  3.227724E+04  1.784704E+04 -2.877046E+04 -3.772152E+04 -4.552217E+04 -9.734098E+03
        76  20  2.508953E+04  6.140386E+04 -7.105794E+04  1.869831E+04 -9.824532E+04 -2.997504E+04
        76  21 -5.763458E+04 -8.487092E+04 -2.041024E+05  1.211842E+05 -1.495441E+05 -5.401327E+04
        76  22 -1.121676E+05 -9.527444E+03 -5.951987E+04 -4.999869E+04 -4.432371E+04 -9.286213E+03
        76  23 -8.705408E+04 -6.134822E+03 -1.035890E+05 -3.854093E+04 -1.000170E+05 -3.063540E+04
        76  24 -1.380886E+05 -1.931952E+05 -2.407816E+05  1.898974E+04 -1.542882E+05 -5.577194E+04
        76  25 -2.565906E+05 -3.690212E+04 -9.026997E+04 -6.227497E+04 -4.312556E+04 -8.838314E+03
        76  26 -1.991826E+05 -7.366465E+04 -1.361206E+05 -9.576836E+04 -1.017884E+05 -3.129544E+04
        76  27 -2.185200E+05 -3.014767E+05 -2.774579E+05 -8.318415E+04 -1.590316E+05 -5.752883E+04
        77   1  1.954888E+05  1.958079E+06  2.022222E+05 -5.828160E+04  6.287338E+03  1.028594E+05
        77   2  1.156071E+05  1.946851E+06  1.331877E+05 -2.633370E+04  2.158898E+04  6.003738E+04
        77   3  9.811205E+04  1.956789E+06  1.075759E+05  6.118178E+03  2.706034E+04  1.721672E+04
        77   4  9.419411E+04  1.546995E+06  1.060455E+05 -5.835135E+02  6.297912E+03  7.123095E+04
        77   5  1.791985E+04  1.537773E+06  5.305426E+04 -8.427052E+02  2.159428E+04  4.379096E+04
        77   6  1.385512E+03  1.547063E+06  3.283786E+04 -5.972861E+02  2.706185E+04  1.635119E+04
        77   7 -7.099582E+03  1.136074E+06  9.862843E+03  5.707623E+04  6.302628E+03  3.962328E+04
        77   8 -7.977487E+04  1.128857E+06 -2.708588E+04  2.463119E+04  2.159825E+04  2.755498E+04
        77   9 -9.535031E+04  1.137500E+06 -4.190696E+04 -7.308204E+03  2.706337E+04  1.548621E+04
        77  10  1.954860E+05  1.958068E+06  2.022023E+05 -5.828212E+04  3.716604E-10  1.979363E-09
        77  11  1.156056E+05  1.946847E+06  1.331800E+05 -2.633475E+04  1.160424E-09 -1.672190E-10
        77  12  9.811118E+04  1.956788E+06  1.075740E+05  6.117803E+03  1.010588E-09 -1.984827E-09
        77  13  9.419271E+04  1.546989E+06  1.060359E+05 -5.838746E+02  4.089340E-10  6.319458E-11
        77  14  1.791884E+04  1.537771E+06  5.304978E+04 -8.434664E+02 -1.547553E-09 -1.119848E-10
        77  15  1.384653E+03  1.547063E+06  3.283599E+04 -5.976423E+02  3.356015E-11  4.551684E-10
        77  16 -7.100046E+03  1.136072E+06  9.859824E+03  5.707603E+04 -7.662608E-11 -2.030108E-09
        77  17 -7.977558E+04  1.128856E+06 -2.708818E+04  2.463071E+04 -9.491301E-10  2.011048E-10
        77  18 -9.535116E+04  1.137499E+06 -4.190879E+04 -7.308542E+03 -1.342800E-09  2.104993E-09
        77  19  1.954888E+05  1.958079E+06  2.022222E+05 -5.828160E+04 -6.287338E+03 -1.028594E+05
        77  20  1.156071E+05  1.946851E+06  1.331877E+05 -2.633370E+04 -2.158898E+04 -6.003738E+04
        77  21  9.811205E+04  1.956789E+06  1.075759E+05  6.118178E+03 -2.706034E+04 -1.721672E+04
        77  22  9.419411E+04  1.546995E+06  1.060455E+05 -5.835135E+02 -6.297912E+03 -7.123095E+04
        77  23  1.791985E+04  1.537773E+06  5.305426E+04 -8.427052E+02 -2.159428E+04 -4.379096E+04
        77  24  1.385512E+03  1.547063E+06  3.283786E+04 -5.972861E+02 -2.706185E+04 -1.635119E+04
        77  25 -7.099582E+03  1.136074E+06  9.862843E+03  5.707623E+04 -6.302628E+03 -3.962328E+04
        77  26 -7.977487E+04  1.128857E+06 -2.708588E+04  2.463119E+04 -2.159825E+04 -2.755498E+04
        77  27 -9.535031E+04  1.137500E+06 -4.190696E+04 -7.308204E+03 -2.706337E+04 -1.548621E+04
        78   1  1.002366E+05  1.952623E+06  1.022452E+05 -2.948142E+03  2.731864E+04  1.410342E+04
        78   2  9.711344E+04  1.950675E+06  9.684831E+04 -7.876742E+02  2.808572E+04 -3.325069E+01
        78   3  1.001187E+05  1.952113E+06  1.021722E+05  1.311135E+03  2.729791E+04 -1.417040E+04
        78   4  3.733804E+03  1.543602E+06  2.794396E+04 -7.216703E+02  2.732080E+04  1.168806E+04
        78   5  8.829596E+02  1.542119E+06  2.343889E+04 -6.910427E+02  2.808731E+04 -1.015216E+01
        78   6  3.740557E+03  1.543602E+06  2.796888E+04 -7.220748E+02  2.729854E+04 -1.170886E+04
        78   7 -9.277833E+04  1.134743E+06 -4.636396E+04  1.503307E+03  2.732294E+04  9.274250E+03
        78   8 -9.535679E+04  1.133725E+06 -4.997699E+04 -5.944641E+02  2.808890E+04  1.293163E+01
        78   9 -9.264697E+04  1.135253E+06 -4.624109E+04 -2.753899E+03  2.729916E+04 -9.248879E+03
        78  10  1.002357E+05  1.952623E+06  1.022435E+05 -2.948452E+03  2.726612E-10 -2.193996E-09
        78  11  9.711259E+04  1.950675E+06  9.684683E+04 -7.876734E+02 -6.264277E-10  8.445460E-09
        78  12  1.001179E+05  1.952113E+06  1.021704E+05  1.311446E+03 -6.268184E-10  1.778753E-08
        78  13  3.732966E+03  1.543602E+06  2.794230E+04 -7.219274E+02 -1.844157E-09 -6.858645E-11
        78  14  8.821118E+02  1.542119E+06  2.343741E+04 -6.910424E+02  1.997557E-10 -4.889198E-10
        78  15  3.739720E+03  1.543602E+06  2.796723E+04 -7.218175E+02  2.474791E-10  9.677541E-10
        78  16 -9.277915E+04  1.134743E+06 -4.636552E+04  1.503103E+03 -2.109409E-10  2.126867E-09
        78  17 -9.535764E+04  1.133725E+06 -4.997848E+04 -5.944644E+02 -6.598881E-10 -8.458238E-09
        78  18 -9.264779E+04  1.135253E+06 -4.624265E+04 -2.753695E+03 -3.577864E-09 -1.765804E-08
        78  19  1.002366E+05  1.952623E+06  1.022452E+05 -2.948142E+03 -2.731864E+04 -1.410342E+04
        78  20  9.711344E+04  1.950675E+06  9.684831E+04 -7.876742E+02 -2.808572E+04  3.325069E+01
        78  21  1.001187E+05  1.952113E+06  1.021722E+05  1.311135E+03 -2.729791E+04  1.417040E+04
        78  22  3.733804E+03  1.543602E+06  2.794396E+04 -7.216703E+02 -2.732080E+04 -1.168806E+04
        78  23  8.829596E+02  1.542119E+06  2.343889E+04 -6.910427E+02 -2.808731E+04  1.015216E+01
        78  24  3.740557E+03  1.543602E+06  2.796888E+04 -7.220748E+02 -2.729854E+04  1.170886E+04
        78  25 -9.277833E+04  1.134743E+06 -4.636396E+04  1.503307E+03 -2.732294E+04 -9.274250E+03
        78  26 -9.535679E+04  1.133725E+06 -4.997699E+04 -5.944641E+02 -2.808890E+04 -1.293163E+01
        78  27 -9.264697E+04  1.135253E+06 -4.624109E+04 -2.753899E+03 -2.729916E+04  9.248879E+03
        79   1  9.791996E+04  1.955932E+06  1.074522E+05 -7.771632E+03  2.702109E+04 -1.729493E+04
        79   2  1.152778E+05  1.945512E+06  1.329891E+05  2.481241E+04  2.156686E+04 -6.008510E+04
        79   3  1.951087E+05  1.956275E+06  2.019482E+05  5.679572E+04  6.330839E+03 -1.028827E+05
        79   4  1.388124E+03  1.547070E+06  3.287668E+04 -8.494910E+02  2.702203E+04 -1.637663E+04
        79   5  1.794999E+04  1.537765E+06  5.313513E+04 -5.267878E+02  2.156206E+04 -4.386181E+04
        79   6  9.435116E+04  1.547001E+06  1.062204E+05 -8.054270E+02  6.321817E+03 -7.135329E+04
        79   7 -9.515295E+04  1.138370E+06 -4.170556E+04  6.067999E+03  2.702298E+04 -1.545893E+04
        79   8 -7.938525E+04  1.130179E+06 -2.672550E+04 -2.584902E+04  2.155595E+04 -2.764891E+04
        79   9 -6.405197E+03  1.137891E+06  1.048669E+04 -5.836845E+04  6.306959E+03 -3.984451E+04
        79  10  9.791910E+04  1.955931E+06  1.074503E+05 -7.771256E+03 -2.113834E-09 -1.930944E-08
        79  11  1.152763E+05  1.945508E+06  1.329815E+05  2.481346E+04 -7.762351E-10 -8.561772E-09
        79  12  1.951058E+05  1.956264E+06  2.019283E+05  5.679624E+04  4.537534E-10  3.967656E-09
        79  13  1.387268E+03  1.547069E+06  3.287480E+04 -8.491348E+02 -2.722557E-09  3.651581E-11
        79  14  1.794898E+04  1.537763E+06  5.313065E+04 -5.260265E+02 -6.955623E-10 -5.581809E-10
        79  15  9.434975E+04  1.546996E+06  1.062108E+05 -8.050639E+02  5.717867E-10  1.461920E-09
        79  16 -9.515380E+04  1.138369E+06 -4.170738E+04  6.068335E+03 -1.604316E-09  1.879757E-08
        79  17 -7.938595E+04  1.130178E+06 -2.672780E+04 -2.584854E+04 -2.494473E-09  8.813152E-09
        79  18 -6.405665E+03  1.137889E+06  1.048364E+04 -5.836824E+04 -1.654872E-10 -3.724933E-09
        79  19  9.791996E+04  1.955932E+06  1.074522E+05 -7.771632E+03 -2.702109E+04  1.729493E+04
        79  20  1.152778E+05  1.945512E+06  1.329891E+05  2.481241E+04 -2.156686E+04  6.008510E+04
        79  21  1.951087E+05  1.956275E+06  2.019482E+05  5.679572E+04 -6.330839E+03  1.028827E+05
        79  22  1.388124E+03  1.547070E+06  3.287668E+04 -8.494910E+02 -2.702203E+04  1.637663E+04
        79  23  1.794999E+04  1.537765E+06  5.313513E+04 -5.267878E+02 -2.156206E+04  4.386181E+04
        79  24  9.435116E+04  1.547001E+06  1.062204E+05 -8.054270E+02 -6.321817E+03  7.135329E+04
        79  25 -9.515295E+04  1.138370E+06 -4.170556E+04  6.067999E+03 -2.702298E+04  1.545893E+04
        79  26 -7.938525E+04  1.130179E+06 -2.672550E+04 -2.584902E+04 -2.155595E+04  2.764891E+04
        79  27 -6.405197E+03  1.137891E+06  1.048669E+04 -5.836845E+04 -6.306959E+03  3.984451E+04
        80   1 -2.089828E+06 -4.427362E+05 -3.905876E+05 -5.044105E+04  6.321300E+04  3.212076E+04
        80   2 -1.908504E+06 -5.662814E+05 -4.194275E+05 -5.698701E+04  6.570654E+04  9.992544E+04
        80   3 -1.682276E+06 -5.204840E+05 -4.070904E+05 -1.527387E+05  6.844188E+04  1.031482E+05
        80   4  4.002210E+05  1.761857E+05  2.149774E+05 -1.240549E+05  1.474750E+05  3.241181E+04
        80   5  3.733077E+05 -6.364440E+03  9.697676E+04 -7.917703E+04  9.571085E+04  9.998237E+04
        80   6  4.005097E+05 -1.048948E+04  5.770352E+04 -1.234746E+05  4.419153E+04  1.030777E+05
        80   7  2.895969E+06  7.946773E+05  8.201237E+05 -1.979702E+05  2.320740E+05  3.268228E+04
        80   8  2.659968E+06  5.531968E+05  6.130499E+05 -1.014527E+05  1.258241E+05  1.000371E+05
        80   9  2.487347E+06  4.992135E+05  5.222278E+05 -9.411274E+04  1.986033E+04  1.030051E+05
        80  10 -2.089833E+06 -4.427384E+05 -3.905971E+05 -5.044268E+04  1.352790E-09 -7.473861E-11
        80  11 -1.908512E+06 -5.662933E+05 -4.194544E+05 -5.699231E+04  6.073717E-10 -2.137352E-10
        80  12 -1.682284E+06 -5.204967E+05 -4.071192E+05 -1.527444E+05 -3.842705E-10 -6.457917E-11
        80  13  4.001974E+05  1.761787E+05  2.149346E+05 -1.240587E+05 -5.209745E-10 -2.155980E-10
        80  14  3.732952E+05 -6.377634E+03  9.694077E+04 -7.918474E+04 -3.298515E-10 -5.230977E-10
        80  15  4.005047E+05 -1.050142E+04  5.767988E+04 -1.234783E+05  1.634188E-10  2.742631E-10
        80  16  2.895911E+06  7.946618E+05  8.200209E+05 -1.979763E+05 -1.354437E-09 -3.007734E-10
        80  17  2.659949E+06  5.531818E+05  6.130014E+05 -1.014629E+05 -2.063092E-09 -8.601764E-10
        80  18  2.487344E+06  4.992020E+05  5.222071E+05 -9.411438E+04  3.200208E-10  1.059732E-10
        80  19 -2.089828E+06 -4.427362E+05 -3.905876E+05 -5.044105E+04 -6.321300E+04 -3.212076E+04
        80  20 -1.908504E+06 -5.662814E+05 -4.194275E+05 -5.698701E+04 -6.570654E+04 -9.992544E+04
        80  21 -1.682276E+06 -5.204840E+05 -4.070904E+05 -1.527387E+05 -6.844188E+04 -1.031482E+05
        80  22  4.002210E+05  1.761857E+05  2.149774E+05 -1.240549E+05 -1.474750E+05 -3.241181E+04
        80  23  3.733077E+05 -6.364440E+03  9.697676E+04 -7.917703E+04 -9.571085E+04 -9.998237E+04
        80  24  4.005097E+05 -1.048948E+04  5.770352E+04 -1.234746E+05 -4.419153E+04 -1.030777E+05
        80  25  2.895969E+06  7.946773E+05  8.201237E+05 -1.979702E+05 -2.320740E+05 -3.268228E+04
        80  26  2.659968E+06  5.531968E+05  6.130499E+05 -1.014527E+05 -1.258241E+05 -1.000371E+05
        80  27  2.487347E+06  4.992135E+05  5.222278E+05 -9.411274E+04 -1.986033E+04 -1.030051E+05
        81   1 -1.518309E+06 -4.577378E+05 -3.819983E+05 -1.225687E+05  4.080612E+04  9.030489E+04
        81   2 -1.319519E+06 -4.191537E+05 -3.569725E+05 -7.913006E+04  3.088714E+04  8.290291E+04
        81   3 -1.115194E+06 -3.696464E+05 -3.224129E+05 -1.263507E+05  2.094579E+04  7.262407E+04
        81   4  3.899518E+05  9.788480E+03  4.604647E+04 -1.239595E+05  3.589386E+04  9.027704E+04
        81   5  3.870977E+05 -1.307968E+03  2.461063E+04 -7.863154E+04  2.352794E+04  8.287917E+04
        81   6  3.901515E+05 -1.071738E+03  1.438680E+04 -1.239469E+05  1.114284E+04  7.260815E+04
        81   7  2.301607E+06  4.770661E+05  4.738608E+05 -1.253557E+05  3.096649E+04  9.024927E+04
        81   8  2.096431E+06  4.163396E+05  4.060106E+05 -7.813213E+04  1.614862E+04  8.285547E+04
        81   9  1.897610E+06  3.673487E+05  3.510440E+05 -1.215372E+05  1.316315E+03  7.259218E+04
        81  10 -1.518313E+06 -4.577470E+05 -3.820168E+05 -1.225717E+05 -7.815336E-10  3.129209E-10
        81  11 -1.319522E+06 -4.191614E+05 -3.569872E+05 -7.913213E+04 -8.498384E-10  4.094960E-10
        81  12 -1.115196E+06 -3.696522E+05 -3.224236E+05 -1.263519E+05 -5.621909E-10 -2.041042E-10
        81  13  3.899483E+05  9.779381E+03  4.602873E+04 -1.239622E+05 -2.395841E-09  2.975873E-10
        81  14  3.870953E+05 -1.315494E+03  2.459668E+04 -7.863311E+04  6.187481E-11  2.620104E-10
        81  15  3.901499E+05 -1.077434E+03  1.437665E+04 -1.239475E+05 -4.237980E-10  3.872115E-10
        81  16  2.301604E+06  4.770571E+05  4.738436E+05 -1.253579E+05 -4.691553E-10  3.784031E-10
        81  17  2.096429E+06  4.163321E+05  4.059972E+05 -7.813320E+04 -4.019604E-10  2.149736E-10
        81  18  1.897609E+06  3.673430E+05  3.510341E+05 -1.215373E+05 -3.498687E-10  9.794993E-10
        81  19 -1.518309E+06 -4.577378E+05 -3.819983E+05 -1.225687E+05 -4.080612E+04 -9.030489E+04
        81  20 -1.319519E+06 -4.191537E+05 -3.569725E+05 -7.913006E+04 -3.088714E+04 -8.290291E+04
        81  21 -1.115194E+06 -3.696464E+05 -3.224129E+05 -1.263507E+05 -2.094579E+04 -7.262407E+04
        81  22  3.899518E+05  9.788480E+03  4.604647E+04 -1.239595E+05 -3.589386E+04 -9.027704E+04
        81  23  3.870977E+05 -1.307968E+03  2.461063E+04 -7.863154E+04 -2.352794E+04 -8.287917E+04
        81  24  3.901515E+05 -1.071738E+03  1.438680E+04 -1.239469E+05 -1.114284E+04 -7.260815E+04
        81  25  2.301607E+06  4.770661E+05  4.738608E+05 -1.253557E+05 -3.096649E+04 -9.024927E+04
        81  26  2.096431E+06  4.163396E+05  4.060106E+05 -7.813213E+04 -1.614862E+04 -8.285547E+04
        81  27  1.897610E+06  3.673487E+05  3.510440E+05 -1.215372E+05 -1.316315E+03 -7.259218E+04
        82   1 -9.436343E+05 -3.259343E+05 -2.862026E+05 -1.240989E+05  1.782852E+04  6.599867E+04
        82   2 -7.435848E+05 -2.774120E+05 -2.466687E+05 -7.867305E+04  1.484594E+04  5.529139E+04
        82   3 -5.424171E+05 -2.280974E+05 -2.048813E+05 -1.235451E+05  1.184559E+04  4.446896E+04
        82   4  3.891967E+05  1.785036E+02  1.103375E+04 -1.238713E+05  8.905637E+03  6.598809E+04
        82   5  3.887118E+05 -3.151375E+02  6.234749E+03 -7.872744E+04  5.819137E+03  5.528713E+04
        82   6  3.893268E+05  3.660196E+00  3.759788E+03 -1.238715E+05  2.715827E+03  4.447127E+04
        82   7  1.723685E+06  3.261707E+05  3.081591E+05 -1.236431E+05 -3.623696E+01  6.597752E+04
        82   8  1.522204E+06  2.766946E+05  2.590579E+05 -7.878177E+04 -3.223971E+03  5.528288E+04
        82   9  1.321879E+06  2.280456E+05  2.123463E+05 -1.241981E+05 -6.427502E+03  4.447359E+04
        82  10 -9.436359E+05 -3.259391E+05 -2.862114E+05 -1.240998E+05 -7.966998E-10 -5.210720E-10
        82  11 -7.435859E+05 -2.774153E+05 -2.466748E+05 -7.867371E+04 -1.350920E-09  7.801898E-11
        82  12 -5.424177E+05 -2.280996E+05 -2.048853E+05 -1.235455E+05 -1.639468E-09  7.157263E-10
        82  13  3.891954E+05  1.738054E+02  1.102542E+04 -1.238718E+05 -1.121865E-09  1.935027E-11
        82  14  3.887109E+05 -3.184296E+02  6.228940E+03 -7.872770E+04 -1.625378E-09 -1.142249E-10
        82  15  3.893262E+05  1.534101E+00  3.756057E+03 -1.238716E+05 -3.468164E-09  3.722771E-10
        82  16  1.723684E+06  3.261661E+05  3.081509E+05 -1.236431E+05  1.351450E-09  6.906074E-10
        82  17  1.522203E+06  2.766913E+05  2.590521E+05 -7.878162E+04  2.992018E-10 -6.014577E-10
        82  18  1.321879E+06  2.280435E+05  2.123426E+05 -1.241979E+05  2.441085E-10  2.925772E-10
        82  19 -9.436343E+05 -3.259343E+05 -2.862026E+05 -1.240989E+05 -1.782852E+04 -6.599867E+04
        82  20 -7.435848E+05 -2.774120E+05 -2.466687E+05 -7.867305E+04 -1.484594E+04 -5.529139E+04
        82  21 -5.424171E+05 -2.280974E+05 -2.048813E+05 -1.235451E+05 -1.184559E+04 -4.446896E+04
        82  22  3.891967E+05  1.785036E+02  1.103375E+04 -1.238713E+05 -8.905637E+03 -6.598809E+04
        82  23  3.887118E+05 -3.151375E+02  6.234749E+03 -7.872744E+04 -5.819137E+03 -5.528713E+04
        82  24  3.893268E+05  3.660196E+00  3.759788E+03 -1.238715E+05 -2.715827E+03 -4.447127E+04
        82  25  1.723685E+06  3.261707E+05  3.081591E+05 -1.236431E+05  3.623696E+01 -6.597752E+04
        82  26  1.522204E+06  2.766946E+05  2.590579E+05 -7.878177E+04  3.223971E+03 -5.528288E+04
        82  27  1.321879E+06  2.280456E+05  2.123463E+05 -1.241981E+05  6.427502E+03 -4.447359E+04
        83   1 -3.706949E+05 -1.857190E+05 -1.661702E+05 -1.234061E+05  1.118923E+04  3.814904E+04
        83   2 -1.706805E+05 -1.368778E+05 -1.230620E+05 -7.840844E+04  1.022985E+04  2.733039E+04
        83   3  2.947187E+04 -8.782434E+04 -7.929746E+04 -1.234559E+05  9.261793E+03  1.651333E+04
        83   4  3.891716E+05  7.876587E+01  2.931898E+03 -1.238164E+05  2.105524E+03  3.815435E+04
        83   5  3.891548E+05  7.735019E+01  1.930470E+03 -7.879625E+04  1.145055E+03  2.733880E+04
        83   6  3.892354E+05  2.900358E+02  1.586138E+03 -1.238163E+05  1.762239E+02  1.652500E+04
        83   7  1.149577E+06  1.858375E+05  1.719983E+05 -1.242270E+05 -6.989188E+03  3.815966E+04
        83   8  9.492824E+05  1.370113E+05  1.269036E+05 -7.918432E+04 -7.947842E+03  2.734722E+04
        83   9  7.491195E+05  8.839560E+04  8.246181E+04 -1.241769E+05 -8.914556E+03  1.653668E+04
        83  10 -3.706954E+05 -1.857206E+05 -1.661732E+05 -1.234065E+05 -7.805316E-10  9.217847E-10
        83  11 -1.706809E+05 -1.368787E+05 -1.230636E+05 -7.840867E+04 -1.534625E-09 -1.317419E-10
        83  12  2.947171E+04 -8.782465E+04 -7.929813E+04 -1.234560E+05 -7.118261E-10 -4.268433E-10
        83  13  3.891712E+05  7.720115E+01  2.929153E+03 -1.238165E+05 -2.020987E-09  7.633917E-10
        83  14  3.891546E+05  7.654710E+01  1.929063E+03 -7.879628E+04 -1.157370E-09  2.396748E-10
        83  15  3.892354E+05  2.897425E+02  1.585625E+03 -1.238163E+05 -1.168825E-09 -3.176995E-10
        83  16  1.149576E+06  1.858359E+05  1.719954E+05 -1.242268E+05 -6.241630E-10  6.720252E-10
        83  17  9.492821E+05  1.370105E+05  1.269020E+05 -7.918415E+04  3.447807E-10 -2.303229E-10
        83  18  7.491194E+05  8.839529E+04  8.246115E+04 -1.241767E+05  5.996046E-10 -6.543166E-10
        83  19 -3.706949E+05 -1.857190E+05 -1.661702E+05 -1.234061E+05 -1.118923E+04 -3.814904E+04
        83  20 -1.706805E+05 -1.368778E+05 -1.230620E+05 -7.840844E+04 -1.022985E+04 -2.733039E+04
        83  21  2.947187E+04 -8.782434E+04 -7.929746E+04 -1.234559E+05 -9.261793E+03 -1.651333E+04
        83  22  3.891716E+05  7.876587E+01  2.931898E+03 -1.238164E+05 -2.105524E+03 -3.815435E+04
        83  23  3.891548E+05  7.735019E+01  1.930470E+03 -7.879625E+04 -1.145055E+03 -2.733880E+04
        83  24  3.892354E+05  2.900358E+02  1.586138E+03 -1.238163E+05 -1.762239E+02 -1.652500E+04
        83  25  1.149577E+06  1.858375E+05  1.719983E+05 -1.242270E+05  6.989188E+03 -3.815966E+04
        83  26  9.492824E+05  1.370113E+05  1.269036E+05 -7.918432E+04  7.947842E+03 -2.734722E+04
        83  27  7.491195E+05  8.839560E+04  8.246181E+04 -1.241769E+05  8.914556E+03 -1.653668E+04
        84   1  2.010795E+05 -4.560759E+04 -3.984517E+04 -1.236097E+05  8.962080E+03  1.022002E+04
        84   2  4.010669E+05  3.070011E+03  4.587762E+03 -7.878894E+04  7.981639E+03 -5.867776E+02
        84   3  6.010120E+05  5.198668E+04  4.965097E+04 -1.239170E+05  7.001072E+03 -1.138937E+04
        84   4  3.892178E+05  2.929391E+02  1.578130E+03 -1.237960E+05 -1.215659E+02  1.023266E+04
        84   5  3.892572E+05  1.819878E+02  1.951442E+03 -7.882155E+04 -1.099816E+03 -5.742771E+02
        84   6  3.892164E+05  3.122004E+02  2.955047E+03 -1.237960E+05 -2.077886E+03 -1.137686E+04
        84   7  5.773894E+05  4.619114E+04  4.299958E+04 -1.239824E+05 -9.207931E+03  1.024531E+04
        84   8  3.774477E+05 -2.706000E+03 -6.845761E+02 -7.885415E+04 -1.018110E+04 -5.617754E+02
        84   9  1.774628E+05 -5.136525E+04 -4.374333E+04 -1.236750E+05 -1.115379E+04 -1.136436E+04
        84  10  2.010794E+05 -4.560772E+04 -3.984552E+04 -1.236098E+05 -1.447393E-09 -1.603943E-10
        84  11  4.010668E+05  3.069993E+03  4.587642E+03 -7.878894E+04 -2.610632E-09 -2.318683E-11
        84  12  6.010119E+05  5.198653E+04  4.965064E+04 -1.239170E+05 -2.373498E-09 -1.440732E-10
        84  13  3.892178E+05  2.928266E+02  1.577933E+03 -1.237960E+05  1.297667E-10  7.296856E-11
        84  14  3.892572E+05  1.819872E+02  1.951440E+03 -7.882155E+04 -6.400307E-10  4.667913E-10
        84  15  3.892163E+05  3.120602E+02  2.954795E+03 -1.237960E+05 -1.047071E-09  7.572866E-10
        84  16  5.773893E+05  4.619100E+04  4.299922E+04 -1.239823E+05 -5.099490E-10 -6.693845E-10
        84  17  3.774476E+05 -2.706029E+03 -6.847713E+02 -7.885415E+04 -7.355208E-10  4.466704E-10
        84  18  1.774626E+05 -5.136542E+04 -4.374380E+04 -1.236751E+05  2.462706E-09  1.015109E-09
        84  19  2.010795E+05 -4.560759E+04 -3.984517E+04 -1.236097E+05 -8.962080E+03 -1.022002E+04
        84  20  4.010669E+05  3.070011E+03  4.587762E+03 -7.878894E+04 -7.981639E+03  5.867776E+02
        84  21  6.010120E+05  5.198668E+04  4.965097E+04 -1.239170E+05 -7.001072E+03  1.138937E+04
        84  22  3.892178E+05  2.929391E+02  1.578130E+03 -1.237960E+05  1.215659E+02 -1.023266E+04
        84  23  3.892572E+05  1.819878E+02  1.951442E+03 -7.882155E+04  1.099816E+03  5.742771E+02
        84  24  3.892164E+05  3.122004E+02  2.955047E+03 -1.237960E+05  2.077886E+03  1.137686E+04
        84  25  5.773894E+05  4.619114E+04  4.299958E+04 -1.239824E+05  9.207931E+03 -1.024531E+04
        84  26  3.774477E+05 -2.706000E+03 -6.845761E+02 -7.885415E+04  1.018110E+04  5.617754E+02
        84  27  1.774628E+05 -5.136525E+04 -4.374333E+04 -1.236750E+05  1.115379E+04  1.136436E+04
        85   1  7.728577E+05  9.412524E+04  8.991688E+04 -1.240012E+05  6.418531E+03 -1.768976E+04
        85   2  9.727981E+05  1.427149E+05  1.365724E+05 -7.909214E+04  3.189263E+03 -2.847770E+04
        85   3  1.173354E+06  1.922114E+05  1.855295E+05 -1.242216E+05 -3.223526E+01 -3.917117E+04
        85   4  3.893365E+05  2.427589E+02  3.769971E+03 -1.238172E+05 -2.695080E+03 -1.767828E+04
        85   5  3.890191E+05 -7.450638E-01  6.314818E+03 -7.879506E+04 -5.843435E+03 -2.846970E+04
        85   6  3.892693E+05  6.524986E+02  1.110933E+04 -1.238165E+05 -8.983007E+03 -3.916646E+04
        85   7  5.952312E+03 -9.364972E+04 -8.238597E+04 -1.236334E+05 -1.180312E+04 -1.766679E+04
        85   8 -1.944425E+05 -1.427395E+05 -1.239639E+05 -7.849817E+04 -1.486774E+04 -2.846170E+04
        85   9 -3.942422E+05 -1.909480E+05 -1.633490E+05 -1.234118E+05 -1.792261E+04 -3.916176E+04
        85  10  7.728576E+05  9.412489E+04  8.991622E+04 -1.240011E+05 -7.845196E-10 -5.357250E-10
        85  11  9.727979E+05  1.427141E+05  1.365709E+05 -7.909207E+04 -7.609110E-10 -1.710546E-10
        85  12  1.173353E+06  1.922098E+05  1.855267E+05 -1.242216E+05 -1.879450E-09 -3.410934E-10
        85  13  3.893365E+05  2.424213E+02  3.769369E+03 -1.238173E+05 -3.019945E-09 -3.098319E-10
        85  14  3.890189E+05 -1.624771E+00  6.313231E+03 -7.879520E+04  1.588789E-09 -8.572810E-10
        85  15  3.892688E+05  6.508293E+02  1.110629E+04 -1.238168E+05 -3.687805E-10 -4.913524E-10
        85  16  5.952079E+03 -9.365010E+04 -8.238682E+04 -1.236335E+05 -9.809165E-11  4.775783E-10
        85  17 -1.944429E+05 -1.427404E+05 -1.239658E+05 -7.849851E+04 -2.337148E-09 -1.212770E-09
        85  18 -3.942430E+05 -1.909498E+05 -1.633524E+05 -1.234124E+05 -5.939302E-10 -4.867408E-11
        85  19  7.728577E+05  9.412524E+04  8.991688E+04 -1.240012E+05 -6.418531E+03  1.768976E+04
        85  20  9.727981E+05  1.427149E+05  1.365724E+05 -7.909214E+04 -3.189263E+03  2.847770E+04
        85  21  1.173354E+06  1.922114E+05  1.855295E+05 -1.242216E+05  3.223526E+01  3.917117E+04
        85  22  3.893365E+05  2.427589E+02  3.769971E+03 -1.238172E+05  2.695080E+03  1.767828E+04
        85  23  3.890191E+05 -7.450638E-01  6.314818E+03 -7.879506E+04  5.843435E+03  2.846970E+04
        85  24  3.892693E+05  6.524986E+02  1.110933E+04 -1.238165E+05  8.983007E+03  3.916646E+04
        85  25  5.952312E+03 -9.364972E+04 -8.238597E+04 -1.236334E+05  1.180312E+04  1.766679E+04
        85  26 -1.944425E+05 -1.427395E+05 -1.239639E+05 -7.849817E+04  1.486774E+04  2.846170E+04
        85  27 -3.942422E+05 -1.909480E+05 -1.633490E+05 -1.234118E+05  1.792261E+04  3.916176E+04
        86   1  1.346493E+06  2.332348E+05  2.283037E+05 -1.223683E+05 -1.599649E+03 -4.569892E+04
        86   2  1.544748E+06  2.820457E+05  2.831471E+05 -7.982879E+04 -1.602890E+04 -5.603505E+04
        86   3  1.748397E+06  3.426925E+05  3.504335E+05 -1.274941E+05 -3.044722E+04 -6.411618E+04
        86   4  3.901923E+05 -5.967544E+02  1.446530E+04 -1.238554E+05 -1.124187E+04 -4.569681E+04
        86   5  3.876081E+05 -7.834038E+02  2.483995E+04 -7.874713E+04 -2.375298E+04 -5.604035E+04
        86   6  3.900564E+05  1.054837E+04  4.634474E+04 -1.238532E+05 -3.624855E+04 -6.412693E+04
        86   7 -5.652575E+05 -2.344904E+05 -1.994304E+05 -1.253399E+05 -2.086940E+04 -4.569465E+04
        86   8 -7.682860E+05 -2.837034E+05 -2.335511E+05 -7.766734E+04 -3.146281E+04 -5.604567E+04
        86   9 -9.665691E+05 -3.217213E+05 -2.578604E+05 -1.202202E+05 -4.203729E+04 -6.413777E+04
        86  10  1.346492E+06  2.332325E+05  2.282998E+05 -1.223683E+05 -1.291281E-09 -2.681637E-10
        86  11  1.544747E+06  2.820423E+05  2.831408E+05 -7.982951E+04 -1.303411E-09  2.592032E-10
        86  12  1.748395E+06  3.426878E+05  3.504240E+05 -1.274957E+05 -9.721561E-10 -2.154955E-10
        86  13  3.901916E+05 -5.990312E+02  1.446114E+04 -1.238558E+05  2.250780E-11  2.741021E-10
        86  14  3.876066E+05 -7.869284E+02  2.483299E+04 -7.874820E+04 -1.600865E-09  3.146826E-10
        86  15  3.900539E+05  1.054360E+04  4.633455E+04 -1.238551E+05 -8.018333E-11 -1.475931E-10
        86  16 -5.652586E+05 -2.344928E+05 -1.994351E+05 -1.253407E+05  1.784229E-10  5.489260E-10
        86  17 -7.682879E+05 -2.837071E+05 -2.335589E+05 -7.766876E+04 -2.853702E-09  5.420374E-10
        86  18 -9.665722E+05 -3.217262E+05 -2.578714E+05 -1.202223E+05 -3.659718E-10 -6.788094E-11
        86  19  1.346493E+06  2.332348E+05  2.283037E+05 -1.223683E+05  1.599649E+03  4.569892E+04
        86  20  1.544748E+06  2.820457E+05  2.831471E+05 -7.982879E+04  1.602890E+04  5.603505E+04
        86  21  1.748397E+06  3.426925E+05  3.504335E+05 -1.274941E+05  3.044722E+04  6.411618E+04
        86  22  3.901923E+05 -5.967544E+02  1.446530E+04 -1.238554E+05  1.124187E+04  4.569681E+04
        86  23  3.876081E+05 -7.834038E+02  2.483995E+04 -7.874713E+04  2.375298E+04  5.604035E+04
        86  24  3.900564E+05  1.054837E+04  4.634474E+04 -1.238532E+05  3.624855E+04  6.412693E+04
        86  25 -5.652575E+05 -2.344904E+05 -1.994304E+05 -1.253399E+05  2.086940E+04  4.569465E+04
        86  26 -7.682860E+05 -2.837034E+05 -2.335511E+05 -7.766734E+04  3.146281E+04  5.604567E+04
        86  27 -9.665691E+05 -3.217213E+05 -2.578604E+05 -1.202202E+05  4.203729E+04  6.413777E+04
        87   1  1.932881E+06  3.645049E+05  3.993265E+05 -9.671775E+04 -2.360890E+04 -7.547002E+04
        87   2  2.105277E+06  4.182599E+05  4.887665E+05 -1.051423E+05 -1.181877E+05 -7.530588E+04
        87   3  2.338046E+06  6.585242E+05  6.865807E+05 -2.024562E+05 -2.128906E+05 -2.463768E+04
        87   4  4.006286E+05 -9.811323E+03  5.806112E+04 -1.234981E+05 -4.461410E+04 -7.549080E+04
        87   5  3.739659E+05 -5.642148E+03  9.771676E+04 -7.917519E+04 -9.652906E+04 -7.530288E+04
        87   6  4.004017E+05  1.779139E+05  2.163248E+05 -1.237352E+05 -1.485318E+05 -2.456403E+04
        87   7 -1.129437E+06 -3.842837E+05 -2.833491E+05 -1.502118E+05 -6.556803E+04 -7.550980E+04
        87   8 -1.354564E+06 -4.297470E+05 -2.935231E+05 -5.328153E+04 -7.492974E+04 -7.529810E+04
        87   9 -1.533801E+06 -3.029456E+05 -2.541830E+05 -4.526083E+04 -8.437224E+04 -2.447402E+04
        87  10  1.932879E+06  3.644987E+05  3.993147E+05 -9.671918E+04 -3.594229E-10 -2.329965E-10
        87  11  2.105261E+06  4.182500E+05  4.887297E+05 -1.051495E+05 -2.510711E-09  8.150255E-11
        87  12  2.337997E+06  6.585114E+05  6.864947E+05 -2.024604E+05 -4.842253E-10 -2.429204E-10
        87  13  4.006249E+05 -9.817978E+03  5.804667E+04 -1.235008E+05 -2.223427E-09 -3.141924E-10
        87  14  3.739544E+05 -5.650738E+03  9.768860E+04 -7.918105E+04 -1.541205E-09 -3.144904E-10
        87  15  4.003778E+05  1.779074E+05  2.162823E+05 -1.237381E+05 -4.567526E-10  1.872730E-11
        87  16 -1.129444E+06 -3.842910E+05 -2.833679E+05 -1.502158E+05 -9.258434E-11 -2.975089E-10
        87  17 -1.354572E+06 -4.297546E+05 -2.935443E+05 -5.328608E+04 -1.857459E-10  1.153111E-10
        87  18 -1.533809E+06 -3.029482E+05 -2.541975E+05 -4.526250E+04 -3.658216E-10 -1.089492E-10
        87  19  1.932881E+06  3.645049E+05  3.993265E+05 -9.671775E+04  2.360890E+04  7.547002E+04
        87  20  2.105277E+06  4.182599E+05  4.887665E+05 -1.051423E+05  1.181877E+05  7.530588E+04
        87  21  2.338046E+06  6.585242E+05  6.865807E+05 -2.024562E+05  2.128906E+05  2.463768E+04
        87  22  4.006286E+05 -9.811323E+03  5.806112E+04 -1.234981E+05  4.461410E+04  7.549080E+04
        87  23  3.739659E+05 -5.642148E+03  9.771676E+04 -7.917519E+04  9.652906E+04  7.530288E+04
        87  24  4.004017E+05  1.779139E+05  2.163248E+05 -1.237352E+05  1.485318E+05  2.456403E+04
        87  25 -1.129437E+06 -3.842837E+05 -2.833491E+05 -1.502118E+05  6.556803E+04  7.550980E+04
        87  26 -1.354564E+06 -4.297470E+05 -2.935231E+05 -5.328153E+04  7.492974E+04  7.529810E+04
        87  27 -1.533801E+06 -3.029456E+05 -2.541830E+05 -4.526083E+04  8.437224E+04  2.447402E+04
        88   1  2.532699E+04 -3.953477E+05  4.330474E+04 -1.384140E+05 -5.048053E+03  5.515670E+04
        88   2 -9.914735E+04 -5.737709E+05 -4.557658E+04 -7.609702E+04 -1.885845E+04  3.522015E+04
        88   3 -1.421594E+05 -7.298897E+05 -1.012846E+05 -8.910433E+04 -2.861474E+04  1.530933E+04
        88   4  8.225732E+04 -1.640410E+05  9.844554E+04 -1.023665E+05 -5.101722E+03  6.854963E+04
        88   5 -1.703115E+03 -1.754993E+05  4.377634E+04 -6.488328E+04 -1.889766E+04  4.520122E+04
        88   6 -3.632252E+03 -1.640889E+05  2.464736E+04 -1.027144E+05 -2.863923E+04  2.187374E+04
        88   7  1.391889E+05  6.731803E+04  1.535840E+05 -6.630538E+04 -5.153825E+03  8.194753E+04
        88   8  9.573086E+04  2.229206E+05  1.331197E+05 -5.366211E+04 -1.893650E+04  5.518862E+04
        88   9  1.348738E+05  4.020111E+05  1.505595E+05 -1.163367E+05 -2.866399E+04  2.844406E+04
        88  10  2.532615E+04 -3.953510E+05  4.329897E+04 -1.384138E+05  2.375389E-10  1.237475E-09
        88  11 -9.914807E+04 -5.737723E+05 -4.557958E+04 -7.609649E+04  8.829634E-10 -3.837721E-10
        88  12 -1.421603E+05 -7.298902E+05 -1.012865E+05 -8.910397E+04 -3.883716E-10 -1.643574E-09
        88  13  8.225603E+04 -1.640461E+05  9.843666E+04 -1.023662E+05 -2.798211E-11  7.686996E-11
        88  14 -1.704047E+03 -1.755016E+05  4.377183E+04 -6.488259E+04  1.168690E-09 -3.653353E-11
        88  15 -3.633261E+03 -1.640897E+05  2.464492E+04 -1.027139E+05  8.583858E-10 -6.902074E-11
        88  16  1.391870E+05  6.731082E+04  1.535713E+05 -6.630504E+04 -3.226587E-10 -1.217922E-09
        88  17  9.572966E+04  2.229172E+05  1.331133E+05 -5.366127E+04 -7.285609E-10  1.976252E-10
        88  18  1.348727E+05  4.020100E+05  1.505565E+05 -1.163360E+05 -4.777915E-10  1.582115E-09
        88  19  2.532699E+04 -3.953477E+05  4.330474E+04 -1.384140E+05  5.048053E+03 -5.515670E+04
        88  20 -9.914735E+04 -5.737709E+05 -4.557658E+04 -7.609702E+04  1.885845E+04 -3.522015E+04
        88  21 -1.421594E+05 -7.298897E+05 -1.012846E+05 -8.910433E+04  2.861474E+04 -1.530933E+04
        88  22  8.225732E+04 -1.640410E+05  9.844554E+04 -1.023665E+05  5.101722E+03 -6.854963E+04
        88  23 -1.703115E+03 -1.754993E+05  4.377634E+04 -6.488328E+04  1.889766E+04 -4.520122E+04
        88  24 -3.632252E+03 -1.640889E+05  2.464736E+04 -1.027144E+05  2.863923E+04 -2.187374E+04
        88  25  1.391889E+05  6.731803E+04  1.535840E+05 -6.630538E+04  5.153825E+03 -8.194753E+04
        88  26  9.573086E+04  2.229206E+05  1.331197E+05 -5.366211E+04  1.893650E+04 -5.518862E+04
        88  27  1.348738E+05  4.020111E+05  1.505595E+05 -1.163367E+05  2.866399E+04 -2.844406E+04
        89   1 -1.680113E+05 -8.785498E+05 -1.404090E+05 -1.019432E+05 -3.364963E+04  1.012362E+04
        89   2 -2.145484E+05 -1.046238E+06 -1.891156E+05 -6.328942E+04 -4.251772E+04  8.242308E+03
        89   3 -2.575560E+05 -1.213089E+06 -2.357966E+05 -9.987283E+04 -4.940539E+04  6.378132E+03
        89   4  5.813874E+03 -1.689673E+05  1.871360E+04 -1.025907E+05 -3.367868E+04  1.841679E+04
        89   5  1.364029E+02 -1.695604E+05  6.975962E+03 -6.498867E+04 -4.253653E+04  1.487081E+04
        89   6 -1.722082E+03 -1.690523E+05 -1.578058E+03 -1.026170E+05 -4.941534E+04  1.134149E+04
        89   7  1.796047E+05  5.410846E+05  1.778046E+05 -1.032386E+05 -3.370773E+04  2.671935E+04
        89   8  2.147688E+05  7.078343E+05  2.030192E+05 -6.668970E+04 -4.255536E+04  2.150857E+04
        89   9  2.540374E+05  8.760007E+05  2.325715E+05 -1.053649E+05 -4.942532E+04  1.631312E+04
        89  10 -1.680125E+05 -8.785502E+05 -1.404113E+05 -1.019429E+05 -5.803844E-10  3.717285E-10
        89  11 -2.145503E+05 -1.046239E+06 -1.891191E+05 -6.328914E+04 -1.460848E-09 -2.584118E-10
        89  12 -2.575586E+05 -1.213090E+06 -2.358013E+05 -9.987258E+04 -1.074794E-10 -6.425151E-10
        89  13  5.812565E+03 -1.689680E+05  1.871084E+04 -1.025902E+05  7.132214E-11 -5.207289E-12
        89  14  1.344009E+02 -1.695611E+05  6.972147E+03 -6.498816E+04  1.969699E-09  2.485174E-11
        89  15 -1.724738E+03 -1.690531E+05 -1.582888E+03 -1.026165E+05  1.311982E-09 -1.975259E-11
        89  16  1.796033E+05  5.410836E+05  1.778011E+05 -1.032378E+05 -8.249001E-10 -4.946669E-10
        89  17  2.147668E+05  7.078333E+05  2.030150E+05 -6.668896E+04  1.060478E-09  2.776838E-10
        89  18  2.540347E+05  8.759998E+05  2.325664E+05 -1.053643E+05 -4.221682E-10  8.491543E-10
        89  19 -1.680113E+05 -8.785498E+05 -1.404090E+05 -1.019432E+05  3.364963E+04 -1.012362E+04
        89  20 -2.145484E+05 -1.046238E+06 -1.891156E+05 -6.328942E+04  4.251772E+04 -8.242308E+03
        89  21 -2.575560E+05 -1.213089E+06 -2.357966E+05 -9.987283E+04  4.940539E+04 -6.378132E+03
        89  22  5.813874E+03 -1.689673E+05  1.871360E+04 -1.025907E+05  3.367868E+04 -1.841679E+04
        89  23  1.364029E+02 -1.695604E+05  6.975962E+03 -6.498867E+04  4.253653E+04 -1.487081E+04
        89  24 -1.722082E+03 -1.690523E+05 -1.578058E+03 -1.026170E+05  4.941534E+04 -1.134149E+04
        89  25  1.796047E+05  5.410846E+05  1.778046E+05 -1.032386E+05  3.370773E+04 -2.671935E+04
        89  26  2.147688E+05  7.078343E+05  2.030192E+05 -6.668970E+04  4.255536E+04 -2.150857E+04
        89  27  2.540374E+05  8.760007E+05  2.325715E+05 -1.053649E+05  4.942532E+04 -1.631312E+04
        90   1 -2.887396E+05 -1.359412E+06 -2.704601E+05 -9.511696E+04 -5.858843E+04 -5.232218E+03
        90   2 -3.313154E+05 -1.519820E+06 -3.208718E+05 -6.754809E+04 -5.893387E+04  3.613613E+04
        90   3 -4.090240E+05 -1.694065E+06 -4.069688E+05 -1.134949E+05 -1.923928E+04  7.756840E+04
        90   4  2.228421E+03 -1.711502E+05 -5.164183E+03 -1.022052E+05 -5.863071E+04  1.176021E+04
        90   5  7.201690E+02 -1.672121E+05 -1.456385E+04 -6.548723E+04 -5.888401E+04  1.958258E+04
        90   6 -3.004791E+04 -1.712803E+05 -3.629995E+04 -1.022791E+05 -1.913507E+04  2.748157E+04
        90   7  2.931007E+05  1.018430E+06  2.600441E+05 -1.093061E+05 -5.867334E+04  2.878485E+04
        90   8  3.326298E+05  1.187099E+06  2.916272E+05 -6.342071E+04 -5.883432E+04  2.993195E+03
        90   9  3.487591E+05  1.353630E+06  3.342102E+05 -9.103441E+04 -1.903281E+04 -2.272810E+04
        90  10 -2.887433E+05 -1.359413E+06 -2.704666E+05 -9.511721E+04 -9.262622E-10  5.248351E-10
        90  11 -3.313195E+05 -1.519822E+06 -3.208807E+05 -6.754638E+04 -3.346699E-10  3.702859E-10
        90  12 -4.090260E+05 -1.694072E+06 -4.069808E+05 -1.134937E+05 -3.663455E-10  2.578988E-10
        90  13  2.224693E+03 -1.711513E+05 -5.170901E+03 -1.022047E+05 -1.394731E-09 -2.178801E-11
        90  14  7.163431E+02 -1.672134E+05 -1.457109E+04 -6.548630E+04 -9.452911E-10 -1.151047E-10
        90  15 -3.004851E+04 -1.712812E+05 -3.630206E+04 -1.022787E+05 -4.551766E-10  8.894904E-13
        90  16  2.930968E+05  1.018428E+06  2.600361E+05 -1.093048E+05 -9.145156E-10 -4.884593E-10
        90  17  3.326261E+05  1.187098E+06  2.916207E+05 -6.342057E+04 -3.810824E-10 -3.626804E-10
        90  18  3.487586E+05  1.353630E+06  3.342086E+05 -9.103476E+04  1.183779E-09 -3.083245E-10
        90  19 -2.887396E+05 -1.359412E+06 -2.704601E+05 -9.511696E+04  5.858843E+04  5.232218E+03
        90  20 -3.313154E+05 -1.519820E+06 -3.208718E+05 -6.754809E+04  5.893387E+04 -3.613613E+04
        90  21 -4.090240E+05 -1.694065E+06 -4.069688E+05 -1.134949E+05  1.923928E+04 -7.756840E+04
        90  22  2.228421E+03 -1.711502E+05 -5.164183E+03 -1.022052E+05  5.863071E+04 -1.176021E+04
        90  23  7.201690E+02 -1.672121E+05 -1.456385E+04 -6.548723E+04  5.888401E+04 -1.958258E+04
        90  24 -3.004791E+04 -1.712803E+05 -3.629995E+04 -1.022791E+05  1.913507E+04 -2.748157E+04
        90  25  2.931007E+05  1.018430E+06  2.600441E+05 -1.093061E+05  5.867334E+04 -2.878485E+04
        90  26  3.326298E+05  1.187099E+06  2.916272E+05 -6.342071E+04  5.883432E+04 -2.993195E+03
        90  27  3.487591E+05  1.353630E+06  3.342102E+05 -9.103441E+04  1.903281E+04  2.272810E+04
        91   1 -3.718324E+06 -1.364771E+06 -8.314059E+05 -1.315931E+06 -2.777996E+05 -7.544504E+04
        91   2 -3.579156E+06 -9.817169E+05 -5.763825E+05 -1.272322E+06 -1.828378E+05  2.389952E+04
        91   3 -3.503597E+06 -9.048599E+05 -4.784494E+05 -1.217412E+06 -6.754083E+04  6.975767E+04
        91   4 -1.895854E+06 -5.683970E+05 -3.207215E+05 -7.089910E+05 -2.139437E+05 -5.128989E+04
        91   5 -1.850630E+06 -2.975500E+05 -1.381306E+05 -7.607577E+05 -1.606184E+05  3.227670E+04
        91   6 -1.860440E+06 -3.241837E+05 -7.918163E+04 -8.013092E+05 -8.701308E+04  6.238880E+04
        91   7 -7.013233E+04  2.285011E+05  1.896634E+05 -1.003244E+05 -1.498803E+05 -2.702886E+04
        91   8 -1.191494E+05  3.869121E+05  2.998812E+05 -2.478598E+05 -1.383306E+05  4.068293E+04
        91   9 -2.146104E+05  2.566072E+05  3.198889E+05 -3.842314E+05 -1.065418E+05  5.500142E+04
        91  10 -3.718409E+06 -1.364798E+06 -8.315626E+05 -1.315948E+06  1.535788E-10 -4.692283E-14
        91  11 -3.579192E+06 -9.817265E+05 -5.764467E+05 -1.272318E+06  1.226127E-09  4.167487E-10
        91  12 -3.503603E+06 -9.048663E+05 -4.784672E+05 -1.217408E+06  1.066278E-10  1.732442E-10
        91  13 -1.895904E+06 -5.684122E+05 -3.208128E+05 -7.089999E+05  5.308034E-10  2.334107E-10
        91  14 -1.850658E+06 -2.975580E+05 -1.381812E+05 -7.607536E+05  2.466450E-10  4.462942E-10
        91  15 -1.860450E+06 -3.241899E+05 -7.920318E+04 -8.013048E+05  1.116851E-09  2.128391E-10
        91  16 -7.015665E+04  2.284943E+05  1.896198E+05 -1.003277E+05  1.261641E-09  5.160862E-10
        91  17 -1.191704E+05  3.869052E+05  2.998422E+05 -2.478553E+05 -5.656475E-10  7.431035E-10
        91  18 -2.146234E+05  2.566009E+05  3.198619E+05 -3.842266E+05 -9.469737E-10  1.850376E-10
        91  19 -3.718324E+06 -1.364771E+06 -8.314059E+05 -1.315931E+06  2.777996E+05  7.544504E+04
        91  20 -3.579156E+06 -9.817169E+05 -5.763825E+05 -1.272322E+06  1.828378E+05 -2.389952E+04
        91  21 -3.503597E+06 -9.048599E+05 -4.784494E+05 -1.217412E+06  6.754083E+04 -6.975767E+04
        91  22 -1.895854E+06 -5.683970E+05 -3.207215E+05 -7.089910E+05  2.139437E+05  5.128989E+04
        91  23 -1.850630E+06 -2.975500E+05 -1.381306E+05 -7.607577E+05  1.606184E+05 -3.227670E+04
        91  24 -1.860440E+06 -3.241837E+05 -7.918163E+04 -8.013092E+05  8.701308E+04 -6.238880E+04
        91  25 -7.013233E+04  2.285011E+05  1.896634E+05 -1.003244E+05  1.498803E+05  2.702886E+04
        91  26 -1.191494E+05  3.869121E+05  2.998812E+05 -2.478598E+05  1.383306E+05 -4.068293E+04
        91  27 -2.146104E+05  2.566072E+05  3.198889E+05 -3.842314E+05  1.065418E+05 -5.500142E+04
        92   1 -3.333039E+06 -9.127425E+05 -4.324526E+05 -1.200105E+06 -6.953064E+04  5.698270E+04
        92   2 -3.210003E+06 -8.111220E+05 -3.638378E+05 -1.131754E+06 -4.913372E+04  5.857407E+04
        92   3 -3.043586E+06 -7.786518E+05 -3.135256E+05 -1.117829E+06 -2.776572E+04  5.755388E+04
        92   4 -1.849546E+06 -3.510253E+05 -6.313851E+04 -7.864851E+05 -7.276493E+04  5.574671E+04
        92   5 -1.870167E+06 -3.082238E+05 -3.216267E+04 -7.624185E+05 -5.437171E+04  5.658876E+04
        92   6 -1.847010E+06 -3.341415E+05 -1.786156E+04 -7.927814E+05 -3.501305E+04  5.482009E+04
        92   7 -3.638862E+05  2.108527E+05  3.060020E+05 -3.719601E+05 -7.600760E+04  5.450752E+04
        92   8 -5.285558E+05  1.948004E+05  2.993739E+05 -3.923541E+05 -5.962205E+04  5.459879E+04
        92   9 -6.490140E+05  1.104635E+05  2.776940E+05 -4.671627E+05 -4.227573E+04  5.208063E+04
        92  10 -3.333045E+06 -9.127473E+05 -4.324678E+05 -1.200102E+06 -6.077555E-10  1.195877E-10
        92  11 -3.210006E+06 -8.111263E+05 -3.638488E+05 -1.131752E+06 -2.661835E-09  8.611322E-10
        92  12 -3.043588E+06 -7.786556E+05 -3.135333E+05 -1.117828E+06 -5.839781E-10  1.275381E-11
        92  13 -1.849553E+06 -3.510301E+05 -6.315430E+04 -7.864818E+05 -2.591741E-09 -1.121630E-10
        92  14 -1.870171E+06 -3.082280E+05 -3.217424E+04 -7.624160E+05 -9.770200E-10 -1.058489E-10
        92  15 -1.847012E+06 -3.341451E+05 -1.786951E+04 -7.927798E+05 -4.668380E-10 -4.304780E-10
        92  16 -3.638931E+05  2.108480E+05  3.059855E+05 -3.719568E+05  4.900707E-10  1.163708E-10
        92  17 -5.285604E+05  1.947962E+05  2.993616E+05 -3.923515E+05 -1.838726E-11 -6.324315E-10
        92  18 -6.490166E+05  1.104601E+05  2.776856E+05 -4.671609E+05 -7.718991E-11 -7.503356E-10
        92  19 -3.333039E+06 -9.127425E+05 -4.324526E+05 -1.200105E+06  6.953064E+04 -5.698270E+04
        92  20 -3.210003E+06 -8.111220E+05 -3.638378E+05 -1.131754E+06  4.913372E+04 -5.857407E+04
        92  21 -3.043586E+06 -7.786518E+05 -3.135256E+05 -1.117829E+06  2.776572E+04 -5.755388E+04
        92  22 -1.849546E+06 -3.510253E+05 -6.313851E+04 -7.864851E+05  7.276493E+04 -5.574671E+04
        92  23 -1.870167E+06 -3.082238E+05 -3.216267E+04 -7.624185E+05  5.437171E+04 -5.658876E+04
        92  24 -1.847010E+06 -3.341415E+05 -1.786156E+04 -7.927814E+05  3.501305E+04 -5.482009E+04
        92  25 -3.638862E+05  2.108527E+05  3.060020E+05 -3.719601E+05  7.600760E+04 -5.450752E+04
        92  26 -5.285558E+05  1.948004E+05  2.993739E+05 -3.923541E+05  5.962205E+04 -5.459879E+04
        92  27 -6.490140E+05  1.104635E+05  2.776940E+05 -4.671627E+05  4.227573E+04 -5.208063E+04
        93   1 -2.905632E+06 -7.321372E+05 -2.750966E+05 -1.082506E+06 -2.397831E+04  5.301781E+04
        93   2 -2.780070E+06 -6.472771E+05 -2.317212E+05 -1.010470E+06 -1.692489E+04  4.601640E+04
        93   3 -2.601863E+06 -6.167401E+05 -1.914502E+05 -9.989816E+05 -9.809947E+03  3.881539E+04
        93   4 -1.845714E+06 -3.362371E+05 -1.367586E+04 -7.921126E+05 -3.053628E+04  5.054710E+04
        93   5 -1.871900E+06 -3.084076E+05 -7.440883E+03 -7.620763E+05 -2.363182E+04  4.349485E+04
        93   6 -1.845435E+06 -3.348654E+05 -4.187081E+03 -7.925894E+05 -1.666697E+04  3.624287E+04
        93   7 -7.846863E+05  5.973952E+04  2.476588E+05 -5.012669E+05 -3.710650E+04  4.807180E+04
        93   8 -9.629171E+05  3.051663E+04  2.167756E+05 -5.133517E+05 -3.034949E+04  4.096929E+04
        93   9 -1.088447E+06 -5.295398E+04  1.830311E+05 -5.859691E+05 -2.353312E+04  3.366694E+04
        93  10 -2.905633E+06 -7.321404E+05 -2.751029E+05 -1.082505E+06  4.838132E-10 -6.912903E-10
        93  11 -2.780071E+06 -6.472795E+05 -2.317257E+05 -1.010470E+06 -3.474833E-10 -2.226295E-10
        93  12 -2.601863E+06 -6.167418E+05 -1.914532E+05 -9.989813E+05  8.366658E-10 -2.002943E-10
        93  13 -1.845716E+06 -3.362401E+05 -1.368241E+04 -7.921113E+05 -1.159133E-09 -4.431146E-10
        93  14 -1.871901E+06 -3.084098E+05 -7.445483E+03 -7.620755E+05  2.915837E-10  1.274770E-10
        93  15 -1.845436E+06 -3.348669E+05 -4.190068E+03 -7.925889E+05  2.073873E-10  1.370397E-10
        93  16 -7.846884E+05  5.973667E+04  2.476519E+05 -5.012655E+05  5.254767E-10 -5.500493E-10
        93  17 -9.629185E+05  3.051458E+04  2.167707E+05 -5.133507E+05  1.215337E-10  3.777394E-11
        93  18 -1.088448E+06 -5.295534E+04  1.830279E+05 -5.859685E+05  5.194995E-10  2.737367E-10
        93  19 -2.905632E+06 -7.321372E+05 -2.750966E+05 -1.082506E+06  2.397831E+04 -5.301781E+04
        93  20 -2.780070E+06 -6.472771E+05 -2.317212E+05 -1.010470E+06  1.692489E+04 -4.601640E+04
        93  21 -2.601863E+06 -6.167401E+05 -1.914502E+05 -9.989816E+05  9.809947E+03 -3.881539E+04
        93  22 -1.845714E+06 -3.362371E+05 -1.367586E+04 -7.921126E+05  3.053628E+04 -5.054710E+04
        93  23 -1.871900E+06 -3.084076E+05 -7.440883E+03 -7.620763E+05  2.363182E+04 -4.349485E+04
        93  24 -1.845435E+06 -3.348654E+05 -4.187081E+03 -7.925894E+05  1.666697E+04 -3.624287E+04
        93  25 -7.846863E+05  5.973952E+04  2.476588E+05 -5.012669E+05  3.710650E+04 -4.807180E+04
        93  26 -9.629171E+05  3.051663E+04  2.167756E+05 -5.133517E+05  3.034949E+04 -4.096929E+04
        93  27 -1.088447E+06 -5.295398E+04  1.830311E+05 -5.859691E+05  2.353312E+04 -3.366694E+04
        94   1 -2.462957E+06 -5.653501E+05 -1.552312E+05 -9.615468E+05 -7.278836E+03  3.394618E+04
        94   2 -2.334754E+06 -4.803283E+05 -1.162731E+05 -8.880468E+05 -2.904441E+03  2.557081E+04
        94   3 -2.152466E+06 -4.495305E+05 -7.812396E+04 -8.766794E+05  1.480628E+03  1.714768E+04
        94   4 -1.845126E+06 -3.352032E+05 -3.276093E+03 -7.927902E+05 -1.414507E+04  3.137275E+04
        94   5 -1.872118E+06 -3.079819E+05 -2.103192E+03 -7.617530E+05 -9.807042E+03  2.298639E+04
        94   6 -1.845049E+06 -3.349770E+05 -1.710458E+03 -7.928552E+05 -5.458710E+03  1.455232E+04
        94   7 -1.226913E+06 -1.050288E+05  1.486514E+05 -6.238792E+05 -2.101883E+04  2.879650E+04
        94   8 -1.409272E+06 -1.356216E+05  1.120502E+05 -6.353739E+05 -1.671525E+04  2.039987E+04
        94   9 -1.537543E+06 -2.204188E+05  7.469480E+04 -7.089942E+05 -1.240172E+04  1.195558E+04
        94  10 -2.462957E+06 -5.653513E+05 -1.552335E+05 -9.615466E+05  1.085404E-10 -8.077018E-11
        94  11 -2.334755E+06 -4.803290E+05 -1.162744E+05 -8.880467E+05  8.383247E-10  4.298722E-10
        94  12 -2.152466E+06 -4.495308E+05 -7.812452E+04 -8.766794E+05  1.625859E-09  5.018926E-10
        94  13 -1.845126E+06 -3.352043E+05 -3.278316E+03 -7.927898E+05  9.421770E-10  4.846613E-10
        94  14 -1.872118E+06 -3.079825E+05 -2.104364E+03 -7.617529E+05  2.307914E-09  6.459583E-10
        94  15 -1.845049E+06 -3.349772E+05 -1.710912E+03 -7.928551E+05 -1.112281E-09  7.678970E-10
        94  16 -1.226914E+06 -1.050298E+05  1.486490E+05 -6.238787E+05  2.636753E-10  2.797356E-10
        94  17 -1.409272E+06 -1.356221E+05  1.120489E+05 -6.353737E+05  1.192662E-09  5.487635E-10
        94  18 -1.537543E+06 -2.204190E+05  7.469424E+04 -7.089941E+05 -2.304140E-10  3.349002E-10
        94  19 -2.462957E+06 -5.653501E+05 -1.552312E+05 -9.615468E+05  7.278836E+03 -3.394618E+04
        94  20 -2.334754E+06 -4.803283E+05 -1.162731E+05 -8.880468E+05  2.904441E+03 -2.557081E+04
        94  21 -2.152466E+06 -4.495305E+05 -7.812396E+04 -8.766794E+05 -1.480628E+03 -1.714768E+04
        94  22 -1.845126E+06 -3.352032E+05 -3.276093E+03 -7.927902E+05  1.414507E+04 -3.137275E+04
        94  23 -1.872118E+06 -3.079819E+05 -2.103192E+03 -7.617530E+05  9.807042E+03 -2.298639E+04
        94  24 -1.845049E+06 -3.349770E+05 -1.710458E+03 -7.928552E+05  5.458710E+03 -1.455232E+04
        94  25 -1.226913E+06 -1.050288E+05  1.486514E+05 -6.238792E+05  2.101883E+04 -2.879650E+04
        94  26 -1.409272E+06 -1.356216E+05  1.120502E+05 -6.353739E+05  1.671525E+04 -2.039987E+04
        94  27 -1.537543E+06 -2.204188E+05  7.469480E+04 -7.089942E+05  1.240172E+04 -1.195558E+04
        95   1 -2.011923E+06 -3.971493E+05 -4.239547E+04 -8.385750E+05  3.711700E+03  1.210240E+04
        95   2 -1.882647E+06 -3.117576E+05 -4.953890E+03 -7.645586E+05  8.196746E+03  3.673789E+03
        95   3 -1.699095E+06 -2.809662E+05  3.157790E+04 -7.531588E+05  1.268071E+04 -4.751100E+03
        95   4 -1.844991E+06 -3.350600E+05 -1.766177E+03 -7.929580E+05 -3.243718E+03  9.501925E+03
        95   5 -1.872121E+06 -3.077876E+05 -2.348634E+03 -7.616335E+05  1.243366E+03  1.074038E+03
        95   6 -1.844997E+06 -3.351177E+05 -3.841082E+03 -7.929356E+05  5.729021E+03 -7.350159E+03
        95   7 -1.678031E+06 -2.729685E+05  3.886151E+04 -7.473296E+05 -1.020122E+04  6.900669E+03
        95   8 -1.861595E+06 -3.038176E+05  2.568515E+02 -7.587083E+05 -5.710214E+03 -1.525789E+03
        95   9 -1.990881E+06 -3.892686E+05 -3.926205E+04 -8.327044E+05 -1.220984E+03 -9.948592E+03
        95  10 -2.011923E+06 -3.971494E+05 -4.239577E+04 -8.385750E+05  1.260561E-09  7.579993E-10
        95  11 -1.882647E+06 -3.117576E+05 -4.954043E+03 -7.645586E+05 -2.141535E-09  1.152952E-10
        95  12 -1.699095E+06 -2.809662E+05  3.157756E+04 -7.531587E+05 -2.251629E-09 -2.084663E-10
        95  13 -1.844991E+06 -3.350601E+05 -1.766366E+03 -7.929580E+05  1.712517E-09  5.261317E-10
        95  14 -1.872121E+06 -3.077876E+05 -2.348639E+03 -7.616335E+05  6.975808E-10  5.127362E-11
        95  15 -1.844997E+06 -3.351178E+05 -3.841245E+03 -7.929355E+05  1.259664E-09  3.361129E-10
        95  16 -1.678031E+06 -2.729686E+05  3.886122E+04 -7.473295E+05 -1.369981E-09 -1.666197E-10
        95  17 -1.861595E+06 -3.038176E+05  2.567857E+02 -7.587083E+05  1.554760E-09  4.549665E-10
        95  18 -1.990881E+06 -3.892688E+05 -3.926224E+04 -8.327044E+05  1.339498E-09  8.175760E-10
        95  19 -2.011923E+06 -3.971493E+05 -4.239547E+04 -8.385750E+05 -3.711700E+03 -1.210240E+04
        95  20 -1.882647E+06 -3.117576E+05 -4.953890E+03 -7.645586E+05 -8.196746E+03 -3.673789E+03
        95  21 -1.699095E+06 -2.809662E+05  3.157790E+04 -7.531588E+05 -1.268071E+04  4.751100E+03
        95  22 -1.844991E+06 -3.350600E+05 -1.766177E+03 -7.929580E+05  3.243718E+03 -9.501925E+03
        95  23 -1.872121E+06 -3.077876E+05 -2.348634E+03 -7.616335E+05 -1.243366E+03 -1.074038E+03
        95  24 -1.844997E+06 -3.351177E+05 -3.841082E+03 -7.929356E+05 -5.729021E+03  7.350159E+03
        95  25 -1.678031E+06 -2.729685E+05  3.886151E+04 -7.473296E+05  1.020122E+04 -6.900669E+03
        95  26 -1.861595E+06 -3.038176E+05  2.568515E+02 -7.587083E+05  5.710214E+03  1.525789E+03
        95  27 -1.990881E+06 -3.892686E+05 -3.926205E+04 -8.327044E+05  1.220984E+03  9.948592E+03
        96   1 -1.558630E+06 -2.284688E+05  6.620318E+04 -7.151244E+05  1.535180E+04 -9.640654E+03
        96   2 -1.430031E+06 -1.433621E+05  1.001073E+05 -6.411678E+05  2.299012E+04 -1.682687E+04
        96   3 -1.248281E+06 -1.138886E+05  1.304068E+05 -6.291822E+05  3.058782E+04 -2.388271E+04
        96   4 -1.845209E+06 -3.349310E+05 -4.984076E+03 -7.929573E+05  8.385181E+03 -1.224610E+04
        96   5 -1.871887E+06 -3.078093E+05 -8.859785E+03 -7.617120E+05  1.612059E+04 -1.939859E+04
        96   6 -1.845454E+06 -3.363439E+05 -1.641759E+04 -7.924492E+05  2.381418E+04 -2.642101E+04
        96   7 -2.131703E+06 -4.413865E+05 -7.617645E+04 -8.707564E+05  1.422173E+03 -1.485021E+04
        96   8 -2.313546E+06 -4.722422E+05 -1.178407E+05 -8.821772E+05  9.256453E+03 -2.196829E+04
        96   9 -2.442273E+06 -5.587748E+05 -1.632687E+05 -9.555729E+05  1.704767E+04 -2.895665E+04
        96  10 -1.558630E+06 -2.284689E+05  6.620256E+04 -7.151243E+05 -1.758622E-10  4.004951E-10
        96  11 -1.430032E+06 -1.433626E+05  1.001058E+05 -6.411675E+05  1.824534E-09 -7.367773E-11
        96  12 -1.248282E+06 -1.138895E+05  1.304039E+05 -6.291816E+05  5.650272E-10  3.505437E-10
        96  13 -1.845209E+06 -3.349312E+05 -4.984489E+03 -7.929572E+05  4.970514E-10  4.348788E-10
        96  14 -1.871887E+06 -3.078097E+05 -8.860980E+03 -7.617117E+05 -1.467823E-09 -7.070206E-10
        96  15 -1.845454E+06 -3.363448E+05 -1.641997E+04 -7.924486E+05 -1.806834E-10  1.826497E-10
        96  16 -2.131704E+06 -4.413867E+05 -7.617686E+04 -8.707564E+05  7.769273E-10  5.873061E-10
        96  17 -2.313546E+06 -4.722427E+05 -1.178418E+05 -8.821771E+05 -1.768872E-10  1.864624E-10
        96  18 -2.442274E+06 -5.587758E+05 -1.632708E+05 -9.555725E+05 -5.230122E-10  8.394802E-11
        96  19 -1.558630E+06 -2.284688E+05  6.620318E+04 -7.151244E+05 -1.535180E+04  9.640654E+03
        96  20 -1.430031E+06 -1.433621E+05  1.001073E+05 -6.411678E+05 -2.299012E+04  1.682687E+04
        96  21 -1.248281E+06 -1.138886E+05  1.304068E+05 -6.291822E+05 -3.058782E+04  2.388271E+04
        96  22 -1.845209E+06 -3.349310E+05 -4.984076E+03 -7.929573E+05 -8.385181E+03  1.224610E+04
        96  23 -1.871887E+06 -3.078093E+05 -8.859785E+03 -7.617120E+05 -1.612059E+04  1.939859E+04
        96  24 -1.845454E+06 -3.363439E+05 -1.641759E+04 -7.924492E+05 -2.381418E+04  2.642101E+04
        96  25 -2.131703E+06 -4.413865E+05 -7.617645E+04 -8.707564E+05 -1.422173E+03  1.485021E+04
        96  26 -2.313546E+06 -4.722422E+05 -1.178407E+05 -8.821772E+05 -9.256453E+03  2.196829E+04
        96  27 -2.442273E+06 -5.587748E+05 -1.632687E+05 -9.555729E+05 -1.704767E+04  2.895665E+04
        97   1 -1.108391E+06 -6.214871E+04  1.605653E+05 -5.951694E+05  3.615513E+04 -2.784003E+04
        97   2 -9.828990E+05  2.547846E+04  1.806861E+05 -5.172342E+05  5.735956E+04 -2.936531E+04
        97   3 -8.139163E+05  3.932629E+04  1.818387E+05 -4.953283E+05  7.782058E+04 -2.886075E+04
        97   4 -1.846813E+06 -3.340679E+05 -2.147781E+04 -7.935405E+05  2.882507E+04 -3.058905E+04
        97   5 -1.869857E+06 -3.070529E+05 -3.857049E+04 -7.617747E+05  5.159202E+04 -3.153406E+04
        97   6 -1.849757E+06 -3.541591E+05 -7.589479E+04 -7.860550E+05  7.361029E+04 -3.044982E+04
        97   7 -2.584703E+06 -6.059553E+05 -2.035634E+05 -9.916993E+05  2.150449E+04 -3.333462E+04
        97   8 -2.756041E+06 -6.395300E+05 -2.578882E+05 -1.005997E+06  4.583345E+04 -3.369941E+04
        97   9 -2.884541E+06 -7.475623E+05 -3.337120E+05 -1.076337E+06  6.940761E+04 -3.203591E+04
        97  10 -1.108392E+06 -6.214989E+04  1.605614E+05 -5.951686E+05 -4.598075E-10  6.972186E-10
        97  11 -9.829028E+05  2.547666E+04  1.806783E+05 -5.172328E+05 -1.082346E-10  1.455637E-10
        97  12 -8.139231E+05  3.932377E+04  1.818257E+05 -4.953265E+05  6.294624E-11 -2.498773E-10
        97  13 -1.846815E+06 -3.340691E+05 -2.148113E+04 -7.935398E+05 -1.197998E-09  2.139867E-10
        97  14 -1.869860E+06 -3.070547E+05 -3.857736E+04 -7.617734E+05  1.124076E-09 -1.012516E-10
        97  15 -1.849764E+06 -3.541616E+05 -7.590673E+04 -7.860532E+05  1.266972E-09 -3.666095E-10
        97  16 -2.584704E+06 -6.059566E+05 -2.035664E+05 -9.916988E+05  2.067974E-10 -3.092710E-10
        97  17 -2.756043E+06 -6.395318E+05 -2.578943E+05 -1.005996E+06  3.039806E-09  5.879665E-11
        97  18 -2.884546E+06 -7.475647E+05 -3.337230E+05 -1.076335E+06  2.449677E-10 -3.842698E-10
        97  19 -1.108391E+06 -6.214871E+04  1.605653E+05 -5.951694E+05 -3.615513E+04  2.784003E+04
        97  20 -9.828990E+05  2.547846E+04  1.806861E+05 -5.172342E+05 -5.735956E+04  2.936531E+04
        97  21 -8.139163E+05  3.932629E+04  1.818387E+05 -4.953283E+05 -7.782058E+04  2.886075E+04
        97  22 -1.846813E+06 -3.340679E+05 -2.147781E+04 -7.935405E+05 -2.882507E+04  3.058905E+04
        97  23 -1.869857E+06 -3.070529E+05 -3.857049E+04 -7.617747E+05 -5.159202E+04  3.153406E+04
        97  24 -1.849757E+06 -3.541591E+05 -7.589479E+04 -7.860550E+05 -7.361029E+04  3.044982E+04
        97  25 -2.584703E+06 -6.059553E+05 -2.035634E+05 -9.916993E+05 -2.150449E+04  3.333462E+04
        97  26 -2.756041E+06 -6.395300E+05 -2.578882E+05 -1.005997E+06 -4.583345E+04  3.369941E+04
        97  27 -2.884541E+06 -7.475623E+05 -3.337120E+05 -1.076337E+06 -6.940761E+04  3.203591E+04
        98   1 -6.550583E+05  8.613962E+04  1.945550E+05 -5.169093E+05  1.065170E+05 -2.890065E+04
        98   2 -5.552218E+05  2.308881E+05  1.635022E+05 -3.624062E+05  1.633674E+05 -8.135146E+03
        98   3 -5.226416E+05  3.097473E+04  9.682389E+03 -1.875589E+05  2.044584E+05  5.449643E+04
        98   4 -1.862555E+06 -3.222115E+05 -9.520080E+04 -8.043080E+05  8.954086E+04 -3.528197E+04
        98   5 -1.846601E+06 -2.934605E+05 -1.658960E+05 -7.592073E+05  1.791182E+05 -2.230111E+03
        98   6 -1.904680E+06 -6.163077E+05 -3.855538E+05 -6.937235E+05  2.529049E+05  7.270719E+04
        98   7 -3.068610E+06 -7.305236E+05 -3.850587E+05 -1.091225E+06  7.260084E+04 -4.165266E+04
        98   8 -3.136329E+06 -8.176128E+05 -4.954287E+05 -1.155227E+06  1.948329E+05  3.658654E+03
        98   9 -3.284823E+06 -1.263155E+06 -7.809631E+05 -1.198766E+06  3.012327E+05  9.084845E+04
        98  10 -6.550707E+05  8.613567E+04  1.945321E+05 -5.169069E+05 -1.032833E-09 -2.813141E-11
        98  11 -5.552505E+05  2.308808E+05  1.634519E+05 -3.624051E+05 -1.300803E-09  9.981742E-10
        98  12 -5.226873E+05  3.096030E+04  9.598170E+03 -1.875679E+05  7.690309E-10  8.363045E-10
        98  13 -1.862564E+06 -3.222149E+05 -9.521823E+04 -8.043054E+05 -4.109587E-10  3.761308E-12
        98  14 -1.846635E+06 -2.934691E+05 -1.659565E+05 -7.592070E+05  2.192567E-10  2.901117E-10
        98  15 -1.904750E+06 -6.163306E+05 -3.856843E+05 -6.937383E+05  3.932858E-10 -3.166351E-10
        98  16 -3.068616E+06 -7.305269E+05 -3.850719E+05 -1.091222E+06  1.027757E-09 -9.966578E-11
        98  17 -3.136369E+06 -8.176231E+05 -4.955004E+05 -1.155228E+06  6.451053E-10 -3.028230E-11
        98  18 -3.284923E+06 -1.263188E+06 -7.811502E+05 -1.198788E+06  7.160951E-10 -2.221660E-10
        98  19 -6.550583E+05  8.613962E+04  1.945550E+05 -5.169093E+05 -1.065170E+05  2.890065E+04
        98  20 -5.552218E+05  2.308881E+05  1.635022E+05 -3.624062E+05 -1.633674E+05  8.135146E+03
        98  21 -5.226416E+05  3.097473E+04  9.682389E+03 -1.875589E+05 -2.044584E+05 -5.449643E+04
        98  22 -1.862555E+06 -3.222115E+05 -9.520080E+04 -8.043080E+05 -8.954086E+04  3.528197E+04
        98  23 -1.846601E+06 -2.934605E+05 -1.658960E+05 -7.592073E+05 -1.791182E+05  2.230111E+03
        98  24 -1.904680E+06 -6.163077E+05 -3.855538E+05 -6.937235E+05 -2.529049E+05 -7.270719E+04
        98  25 -3.068610E+06 -7.305236E+05 -3.850587E+05 -1.091225E+06 -7.260084E+04  4.165266E+04
        98  26 -3.136329E+06 -8.176128E+05 -4.954287E+05 -1.155227E+06 -1.948329E+05 -3.658654E+03
        98  27 -3.284823E+06 -1.263155E+06 -7.809631E+05 -1.198766E+06 -3.012327E+05 -9.084845E+04
        99   1 -1.335259E+06 -2.226582E+05 -1.914172E+05 -1.740699E+04  4.718395E+04  1.729679E+04
        99   2 -1.241535E+06 -3.057850E+05 -2.178151E+05 -2.671032E+04  4.395273E+04  5.393219E+04
        99   3 -1.119846E+06 -2.820326E+05 -2.152496E+05 -8.300324E+04  4.078511E+04  5.577110E+04
        99   4  7.074835E+03  1.110677E+05  1.349706E+05 -6.604148E+04  9.264131E+04  1.737274E+04
        99   5 -9.376242E+03 -3.461511E+03  6.097894E+04 -4.246232E+04  6.017588E+04  5.394580E+04
        99   6  7.146683E+03 -6.150921E+03  3.621033E+04 -6.586435E+04  2.777676E+04  5.575297E+04
        99   7  1.351066E+06  4.446713E+05  4.612369E+05 -1.147823E+05  1.381967E+05  1.744148E+04
        99   8  1.224197E+06  2.987586E+05  3.396764E+05 -5.824636E+04  7.643087E+04  5.395858E+04
        99   9  1.135326E+06  2.696456E+05  2.875913E+05 -4.869417E+04  1.474499E+04  5.573414E+04
        99  10 -1.335262E+06 -2.226591E+05 -1.914219E+05 -1.740765E+04  3.189134E-10  2.462595E-10
        99  11 -1.241538E+06 -3.057887E+05 -2.178242E+05 -2.671223E+04  5.091340E-10 -5.532354E-10
        99  12 -1.119849E+06 -2.820364E+05 -2.152586E+05 -8.300507E+04 -7.080254E-10  3.150224E-10
        99  13  7.065539E+03  1.110651E+05  1.349539E+05 -6.604278E+04  8.027985E-10 -4.020663E-10
        99  14 -9.380912E+03 -3.465608E+03  6.096666E+04 -4.246493E+04  1.176357E-09  2.306952E-10
        99  15  7.145020E+03 -6.154467E+03  3.620303E+04 -6.586560E+04 -3.377070E-10  2.575576E-10
        99  16  1.351045E+06  4.446658E+05  4.612005E+05 -1.147842E+05  4.835664E-10  9.970026E-10
        99  17  1.224189E+06  2.987539E+05  3.396600E+05 -5.824968E+04 -1.492229E-09  2.614487E-10
        99  18  1.135325E+06  2.696422E+05  2.875851E+05 -4.869483E+04  8.595741E-10 -1.495758E-10
        99  19 -1.335259E+06 -2.226582E+05 -1.914172E+05 -1.740699E+04 -4.718395E+04 -1.729679E+04
        99  20 -1.241535E+06 -3.057850E+05 -2.178151E+05 -2.671032E+04 -4.395273E+04 -5.393219E+04
        99  21 -1.119846E+06 -2.820326E+05 -2.152496E+05 -8.300324E+04 -4.078511E+04 -5.577110E+04
        99  22  7.074835E+03  1.110677E+05  1.349706E+05 -6.604148E+04 -9.264131E+04 -1.737274E+04
        99  23 -9.376242E+03 -3.461511E+03  6.097894E+04 -4.246232E+04 -6.017588E+04 -5.394580E+04
        99  24  7.146683E+03 -6.150921E+03  3.621033E+04 -6.586435E+04 -2.777676E+04 -5.575297E+04
        99  25  1.351066E+06  4.446713E+05  4.612369E+05 -1.147823E+05 -1.381967E+05 -1.744148E+04
        99  26  1.224197E+06  2.987586E+05  3.396764E+05 -5.824636E+04 -7.643087E+04 -5.395858E+04
        99  27  1.135326E+06  2.696456E+05  2.875913E+05 -4.869417E+04 -1.474499E+04 -5.573414E+04
       100   1 -1.033676E+06 -2.468320E+05 -2.030672E+05 -6.438631E+04  2.515753E+04  4.892040E+04
       100   2 -9.278653E+05 -2.274747E+05 -1.917446E+05 -4.179262E+04  1.869220E+04  4.501581E+04
       100   3 -8.190580E+05 -2.012035E+05 -1.743851E+05 -6.745679E+04  1.221990E+04  3.954834E+04
       100   4  5.783604E+02  6.540264E+03  2.890982E+04 -6.619480E+04  2.256653E+04  4.891269E+04
       100   5 -9.977408E+02 -5.507701E+02  1.548612E+04 -4.206666E+04  1.477814E+04  4.500952E+04
       100   6  6.347055E+02 -5.043130E+02  9.010529E+03 -6.619166E+04  6.983863E+03  3.954453E+04
       100   7  1.035830E+06  2.598395E+05  2.608191E+05 -6.800646E+04  1.997123E+04  4.890500E+04
       100   8  9.266710E+05  2.263147E+05  2.226628E+05 -4.234116E+04  1.085827E+04  4.500323E+04
       100   9  8.209539E+05  2.001492E+05  1.923639E+05 -6.492481E+04  1.740971E+03  3.954071E+04
       100  10 -1.033678E+06 -2.468348E+05 -2.030728E+05 -6.438730E+04 -9.172767E-10  2.253746E-10
       100  11 -9.278663E+05 -2.274770E+05 -1.917491E+05 -4.179330E+04  1.272752E-09 -5.238350E-10
       100  12 -8.190586E+05 -2.012053E+05 -1.743884E+05 -6.745718E+04 -1.190521E-09 -6.433006E-10
       100  13  5.771711E+02  6.537558E+03  2.890437E+04 -6.619569E+04 -1.184996E-09 -3.224568E-10
       100  14 -9.985192E+02 -5.530041E+02  1.548190E+04 -4.206720E+04  3.242266E-11  3.642040E-10
       100  15  6.342333E+02 -5.060054E+02  9.007499E+03 -6.619188E+04 -1.186276E-09 -2.294233E-10
       100  16  1.035829E+06  2.598369E+05  2.608138E+05 -6.800725E+04  1.640029E-10 -1.455774E-10
       100  17  9.266704E+05  2.263125E+05  2.226588E+05 -4.234155E+04 -1.893389E-09 -1.977805E-10
       100  18  8.209535E+05  2.001475E+05  1.923610E+05 -6.492486E+04 -1.596399E-09 -1.188855E-10
       100  19 -1.033676E+06 -2.468320E+05 -2.030672E+05 -6.438631E+04 -2.515753E+04 -4.892040E+04
       100  20 -9.278653E+05 -2.274747E+05 -1.917446E+05 -4.179262E+04 -1.869220E+04 -4.501581E+04
       100  21 -8.190580E+05 -2.012035E+05 -1.743851E+05 -6.745679E+04 -1.221990E+04 -3.954834E+04
       100  22  5.783604E+02  6.540264E+03  2.890982E+04 -6.619480E+04 -2.256653E+04 -4.891269E+04
       100  23 -9.977408E+02 -5.507701E+02  1.548612E+04 -4.206666E+04 -1.477814E+04 -4.500952E+04
       100  24  6.347055E+02 -5.043130E+02  9.010529E+03 -6.619166E+04 -6.983863E+03 -3.954453E+04
       100  25  1.035830E+06  2.598395E+05  2.608191E+05 -6.800646E+04 -1.997123E+04 -4.890500E+04
       100  26  9.266710E+05  2.263147E+05  2.226628E+05 -4.234116E+04 -1.085827E+04 -4.500323E+04
       100  27  8.209539E+05  2.001492E+05  1.923639E+05 -6.492481E+04 -1.740971E+03 -3.954071E+04
       101   1 -7.274794E+05 -1.777542E+05 -1.553505E+05 -6.620464E+04  1.035002E+04  3.601195E+04
       101   2 -6.204137E+05 -1.519177E+05 -1.346350E+05 -4.200145E+04  8.468241E+03  3.029025E+04
       101   3 -5.128412E+05 -1.255914E+05 -1.125418E+05 -6.610592E+04  6.581193E+03  2.449853E+04
       101   4  6.727059E+01  2.734470E+02  6.920494E+03 -6.620391E+04  5.581502E+03  3.600961E+04
       101   5 -1.667350E+02 -1.111296E+02  3.917923E+03 -4.205162E+04  3.638511E+03  3.028977E+04
       101   6  1.051600E+02  4.934615E+00  2.334505E+03 -6.620405E+04  1.690569E+03  2.449999E+04
       101   7  7.281078E+05  1.782652E+05  1.691584E+05 -6.620314E+04  8.074493E+02  3.600727E+04
       101   8  6.204390E+05  1.516693E+05  1.424467E+05 -4.210181E+04 -1.195998E+03  3.028930E+04
       101   9  5.132967E+05  1.255834E+05  1.171943E+05 -6.630222E+04 -3.204056E+03  2.450146E+04
       101  10 -7.274799E+05 -1.777557E+05 -1.553532E+05 -6.620494E+04 -2.341438E-10 -3.363032E-11
       101  11 -6.204140E+05 -1.519187E+05 -1.346368E+05 -4.200166E+04  1.192465E-09  8.037706E-10
       101  12 -5.128414E+05 -1.255921E+05 -1.125430E+05 -6.610605E+04  3.862965E-10 -5.071588E-10
       101  13  6.688900E+01  2.720462E+02  6.917998E+03 -6.620407E+04 -2.150828E-09 -2.884741E-10
       101  14 -1.669955E+02 -1.121184E+02  3.916174E+03 -4.205171E+04 -1.630997E-09  5.232419E-10
       101  15  1.049958E+02  4.289279E+00  2.333372E+03 -6.620409E+04  4.467727E-10  4.179656E-11
       101  16  7.281075E+05  1.782638E+05  1.691560E+05 -6.620316E+04  2.076407E-10 -2.202086E-10
       101  17  6.204387E+05  1.516683E+05  1.424450E+05 -4.210178E+04 -1.428762E-09 -2.427041E-10
       101  18  5.132966E+05  1.255827E+05  1.171932E+05 -6.630216E+04 -1.020898E-09 -4.567514E-10
       101  19 -7.274794E+05 -1.777542E+05 -1.553505E+05 -6.620464E+04 -1.035002E+04 -3.601195E+04
       101  20 -6.204137E+05 -1.519177E+05 -1.346350E+05 -4.200145E+04 -8.468241E+03 -3.029025E+04
       101  21 -5.128412E+05 -1.255914E+05 -1.125418E+05 -6.610592E+04 -6.581193E+03 -2.449853E+04
       101  22  6.727059E+01  2.734470E+02  6.920494E+03 -6.620391E+04 -5.581502E+03 -3.600961E+04
       101  23 -1.667350E+02 -1.111296E+02  3.917923E+03 -4.205162E+04 -3.638511E+03 -3.028977E+04
       101  24  1.051600E+02  4.934615E+00  2.334505E+03 -6.620405E+04 -1.690569E+03 -2.449999E+04
       101  25  7.281078E+05  1.782652E+05  1.691584E+05 -6.620314E+04 -8.074493E+02 -3.600727E+04
       101  26  6.204390E+05  1.516693E+05  1.424467E+05 -4.210181E+04  1.195998E+03 -3.028930E+04
       101  27  5.132967E+05  1.255834E+05  1.171943E+05 -6.630222E+04  3.204056E+03 -2.450146E+04
       102   1 -4.207800E+05 -1.028697E+05 -9.185921E+04 -6.605049E+04  6.183643E+03  2.111188E+04
       102   2 -3.134731E+05 -7.668187E+04 -6.882700E+04 -4.190628E+04  5.599376E+03  1.530947E+04
       102   3 -2.060993E+05 -5.039773E+04 -4.540130E+04 -6.606775E+04  5.012508E+03  9.503983E+03
       102   4  2.567314E+01  4.897660E+01  1.820914E+03 -6.620390E+04  1.313468E+03  2.111423E+04
       102   5  6.160369E+00  2.794781E+01  1.182811E+03 -4.205180E+04  7.259271E+02  1.531276E+04
       102   6  4.483519E+01  1.048476E+02  9.410841E+02 -6.620388E+04  1.358842E+02  9.508252E+03
       102   7  4.209967E+05  1.029557E+05  9.549006E+04 -6.635738E+04 -3.559974E+03  2.111658E+04
       102   8  3.135771E+05  7.673110E+04  7.118653E+04 -4.219737E+04 -4.149958E+03  1.531604E+04
       102   9  2.062285E+05  5.060453E+04  4.728085E+04 -6.634005E+04 -4.742343E+03  9.512521E+03
       102  10 -4.207802E+05 -1.028702E+05 -9.186012E+04 -6.605059E+04 -4.292288E-10 -4.101419E-10
       102  11 -3.134732E+05 -7.668213E+04 -6.882750E+04 -4.190635E+04  2.064992E-10  3.576494E-10
       102  12 -2.060993E+05 -5.039784E+04 -4.540152E+04 -6.606779E+04  3.279767E-10 -8.844902E-11
       102  13  2.555161E+01  4.849741E+01  1.820073E+03 -6.620392E+04  2.232343E-09 -9.166869E-10
       102  14  6.096855E+00  2.769587E+01  1.182369E+03 -4.205180E+04  2.646325E-09  4.783112E-10
       102  15  4.481090E+01  1.047505E+02  9.409141E+02 -6.620389E+04  1.061211E-09 -1.298582E-10
       102  16  4.209965E+05  1.029552E+05  9.548920E+04 -6.635732E+04  2.006701E-09 -2.744002E-10
       102  17  3.135770E+05  7.673084E+04  7.118606E+04 -4.219732E+04 -4.091788E-10 -1.616862E-10
       102  18  2.062285E+05  5.060443E+04  4.728064E+04 -6.634001E+04 -8.453828E-10 -1.826950E-10
       102  19 -4.207800E+05 -1.028697E+05 -9.185921E+04 -6.605049E+04 -6.183643E+03 -2.111188E+04
       102  20 -3.134731E+05 -7.668187E+04 -6.882700E+04 -4.190628E+04 -5.599376E+03 -1.530947E+04
       102  21 -2.060993E+05 -5.039773E+04 -4.540130E+04 -6.606775E+04 -5.012508E+03 -9.503983E+03
       102  22  2.567314E+01  4.897660E+01  1.820914E+03 -6.620390E+04 -1.313468E+03 -2.111423E+04
       102  23  6.160369E+00  2.794781E+01  1.182811E+03 -4.205180E+04 -7.259271E+02 -1.531276E+04
       102  24  4.483519E+01  1.048476E+02  9.410841E+02 -6.620388E+04 -1.358842E+02 -9.508252E+03
       102  25  4.209967E+05  1.029557E+05  9.549006E+04 -6.635738E+04  3.559974E+03 -2.111658E+04
       102  26  3.135771E+05  7.673110E+04  7.118653E+04 -4.219737E+04  4.149958E+03 -1.531604E+04
       102  27  2.062285E+05  5.060453E+04  4.728085E+04 -6.634005E+04  4.742343E+03 -9.512521E+03
       103   1 -1.139380E+05 -2.771987E+04 -2.421917E+04 -6.612632E+04  4.839726E+03  6.124355E+03
       103   2 -6.581833E+03 -1.558305E+03 -3.622706E+02 -4.202289E+04  4.281498E+03  3.198136E+02
       103   3  1.007840E+05  2.470677E+04  2.385928E+04 -6.622656E+04  3.723117E+03 -5.482403E+03
       103   4  3.809921E+01  1.058464E+02  9.249954E+02 -6.620453E+04 -3.704354E+01  6.128931E+03
       103   5  3.979669E+01  6.174964E+01  1.116030E+03 -4.205098E+04 -5.937548E+02  3.243868E+02
       103   6  3.850640E+01  1.212059E+02  1.670671E+03 -6.620450E+04 -1.150526E+03 -5.477790E+03
       103   7  1.140264E+05  2.793070E+04  2.606845E+04 -6.628274E+04 -4.914698E+03  6.133509E+03
       103   8  6.661519E+03  1.681814E+03  2.594418E+03 -4.207908E+04 -5.469060E+03  3.289604E+02
       103   9 -1.006975E+05 -2.446503E+04 -2.051847E+04 -6.618244E+04 -6.023387E+03 -5.473176E+03
       103  10 -1.139380E+05 -2.771991E+04 -2.421928E+04 -6.612634E+04  6.458301E-11  4.936594E-10
       103  11 -6.581853E+03 -1.558310E+03 -3.623052E+02 -4.202290E+04 -9.147738E-10  1.402933E-09
       103  12  1.007840E+05  2.470673E+04  2.385919E+04 -6.622655E+04 -1.329840E-10 -1.432190E-09
       103  13  3.808913E+01  1.058060E+02  9.249248E+02 -6.620453E+04  1.133169E-10 -1.027335E-10
       103  14  3.979628E+01  6.174944E+01  1.116029E+03 -4.205098E+04 -2.210752E-09 -8.396181E-10
       103  15  3.849692E+01  1.211734E+02  1.670612E+03 -6.620450E+04 -1.635379E-09  2.529223E-10
       103  16  1.140263E+05  2.793065E+04  2.606833E+04 -6.628272E+04  1.483637E-10 -1.459111E-10
       103  17  6.661486E+03  1.681806E+03  2.594361E+03 -4.207907E+04 -3.152330E-10 -1.101245E-09
       103  18 -1.006975E+05 -2.446507E+04 -2.051859E+04 -6.618246E+04 -6.906971E-10  1.069044E-09
       103  19 -1.139380E+05 -2.771987E+04 -2.421917E+04 -6.612632E+04 -4.839726E+03 -6.124355E+03
       103  20 -6.581833E+03 -1.558305E+03 -3.622706E+02 -4.202289E+04 -4.281498E+03 -3.198136E+02
       103  21  1.007840E+05  2.470677E+04  2.385928E+04 -6.622656E+04 -3.723117E+03  5.482403E+03
       103  22  3.809921E+01  1.058464E+02  9.249954E+02 -6.620453E+04  3.704354E+01 -6.128931E+03
       103  23  3.979669E+01  6.174964E+01  1.116030E+03 -4.205098E+04  5.937548E+02 -3.243868E+02
       103  24  3.850640E+01  1.212059E+02  1.670671E+03 -6.620450E+04  1.150526E+03  5.477790E+03
       103  25  1.140264E+05  2.793070E+04  2.606845E+04 -6.628274E+04  4.914698E+03 -6.133509E+03
       103  26  6.661519E+03  1.681814E+03  2.594418E+03 -4.207908E+04  5.469060E+03 -3.289604E+02
       103  27 -1.006975E+05 -2.446503E+04 -2.051847E+04 -6.618244E+04  6.023387E+03  5.473176E+03
       104   1  1.930391E+05  4.734267E+04  4.550477E+04 -6.622490E+04  3.393810E+03 -8.866128E+03
       104   2  3.002617E+05  7.345689E+04  7.060821E+04 -4.214063E+04  1.577705E+03 -1.465766E+04
       104   3  4.078053E+05  1.000586E+05  9.700181E+04 -6.636013E+04 -2.362817E+02 -2.039515E+04
       104   4  1.001440E+02  8.304657E+01  2.122640E+03 -6.620418E+04 -1.496264E+03 -8.861782E+03
       104   5 -6.036989E+01 -6.955974E+00  3.556668E+03 -4.205143E+04 -3.266551E+03 -1.465429E+04
       104   6  8.180414E+01  3.835332E+02  6.250057E+03 -6.620387E+04 -5.034412E+03 -2.039270E+04
       104   7 -1.928042E+05 -4.717911E+04 -4.126177E+04 -6.618345E+04 -6.384834E+03 -8.857435E+03
       104   8 -3.002983E+05 -7.347692E+04 -6.350045E+04 -4.196225E+04 -8.108489E+03 -1.465092E+04
       104   9 -4.074867E+05 -9.930281E+04 -8.451199E+04 -6.604769E+04 -9.829427E+03 -2.039025E+04
       104  10  1.930391E+05  4.734258E+04  4.550460E+04 -6.622488E+04  8.535858E-10 -1.353739E-09
       104  11  3.002616E+05  7.345666E+04  7.060780E+04 -4.214061E+04  5.030586E-10  3.396747E-10
       104  12  4.078052E+05  1.000582E+05  9.700102E+04 -6.636013E+04 -2.552060E-10 -7.282718E-10
       104  13  1.001205E+02  8.296164E+01  2.122488E+03 -6.620419E+04 -9.681565E-10  4.472374E-10
       104  14 -6.043901E+01 -7.189445E+00  3.556244E+03 -4.205147E+04 -5.860819E-10 -4.869108E-10
       104  15  8.166527E+01  3.830798E+02  6.249228E+03 -6.620396E+04  1.599581E-10 -7.463706E-10
       104  16 -1.928042E+05 -4.717921E+04 -4.126199E+04 -6.618349E+04 -2.709381E-10  1.305018E-09
       104  17 -3.002985E+05 -7.347717E+04 -6.350098E+04 -4.196235E+04 -1.362252E-09  3.753887E-10
       104  18 -4.074869E+05 -9.930328E+04 -8.451296E+04 -6.604785E+04  3.917283E-10  1.191606E-10
       104  19  1.930391E+05  4.734267E+04  4.550477E+04 -6.622490E+04 -3.393810E+03  8.866128E+03
       104  20  3.002617E+05  7.345689E+04  7.060821E+04 -4.214063E+04 -1.577705E+03  1.465766E+04
       104  21  4.078053E+05  1.000586E+05  9.700181E+04 -6.636013E+04  2.362817E+02  2.039515E+04
       104  22  1.001440E+02  8.304657E+01  2.122640E+03 -6.620418E+04  1.496264E+03  8.861782E+03
       104  23 -6.036989E+01 -6.955974E+00  3.556668E+03 -4.205143E+04  3.266551E+03  1.465429E+04
       104  24  8.180414E+01  3.835332E+02  6.250057E+03 -6.620387E+04  5.034412E+03  2.039270E+04
       104  25 -1.928042E+05 -4.717911E+04 -4.126177E+04 -6.618345E+04  6.384834E+03  8.857435E+03
       104  26 -3.002983E+05 -7.347692E+04 -6.350045E+04 -4.196225E+04  8.108489E+03  1.465092E+04
       104  27 -4.074867E+05 -9.930281E+04 -8.451199E+04 -6.604769E+04  9.829427E+03  2.039025E+04
       105   1  5.005532E+05  1.220236E+05  1.200161E+05 -6.529665E+04 -1.143715E+03 -2.389248E+04
       105   2  6.065471E+05  1.481996E+05  1.496634E+05 -4.272667E+04 -9.204260E+03 -2.942863E+04
       105   3  7.153764E+05  1.810209E+05  1.862388E+05 -6.841568E+04 -1.726137E+04 -3.376283E+04
       105   4  5.847198E+02 -3.159164E+02  8.129184E+03 -6.619493E+04 -6.302728E+03 -2.389068E+04
       105   5 -7.603758E+02 -3.531733E+02  1.398883E+04 -4.206304E+04 -1.334681E+04 -2.942914E+04
       105   6  5.478259E+02  6.083648E+03  2.607685E+04 -6.619280E+04 -2.038610E+04 -3.376512E+04
       105   7 -4.991509E+05 -1.226724E+05 -1.037734E+05 -6.709244E+04 -1.145763E+04 -2.388886E+04
       105   8 -6.077244E+05 -1.489310E+05 -1.217089E+05 -4.140002E+04 -1.748535E+04 -2.942967E+04
       105   9 -7.138053E+05 -1.688884E+05 -1.341174E+05 -6.397245E+04 -2.350727E+04 -3.376743E+04
       105  10  5.005530E+05  1.220229E+05  1.200150E+05 -6.529667E+04 -7.064685E-10 -4.788673E-10
       105  11  6.065468E+05  1.481986E+05  1.496616E+05 -4.272689E+04 -9.128575E-10  1.503279E-10
       105  12  7.153758E+05  1.810196E+05  1.862361E+05 -6.841615E+04 -7.154394E-10 -4.463367E-10
       105  13  5.845239E+02 -3.165400E+02  8.128036E+03 -6.619505E+04 -1.017581E-09 -1.454514E-10
       105  14 -7.607996E+02 -3.541512E+02  1.398687E+04 -4.206336E+04 -1.092173E-09  3.507735E-10
       105  15  5.470735E+02  6.082313E+03  2.607393E+04 -6.619335E+04  2.581556E-10  3.462100E-10
       105  16 -4.991512E+05 -1.226730E+05 -1.037747E+05 -6.709266E+04  1.651587E-09  1.913539E-10
       105  17 -6.077249E+05 -1.489320E+05 -1.217111E+05 -4.140044E+04 -1.350412E-09 -3.611022E-10
       105  18 -7.138062E+05 -1.688898E+05 -1.341205E+05 -6.397309E+04 -1.083391E-09  1.236544E-09
       105  19  5.005532E+05  1.220236E+05  1.200161E+05 -6.529665E+04  1.143715E+03  2.389248E+04
       105  20  6.065471E+05  1.481996E+05  1.496634E+05 -4.272667E+04  9.204260E+03  2.942863E+04
       105  21  7.153764E+05  1.810209E+05  1.862388E+05 -6.841568E+04  1.726137E+04  3.376283E+04
       105  22  5.847198E+02 -3.159164E+02  8.129184E+03 -6.619493E+04  6.302728E+03  2.389068E+04
       105  23 -7.603758E+02 -3.531733E+02  1.398883E+04 -4.206304E+04  1.334681E+04  2.942914E+04
       105  24  5.478259E+02  6.083648E+03  2.607685E+04 -6.619280E+04  2.038610E+04  3.376512E+04
       105  25 -4.991509E+05 -1.226724E+05 -1.037734E+05 -6.709244E+04  1.145763E+04  2.388886E+04
       105  26 -6.077244E+05 -1.489310E+05 -1.217089E+05 -4.140002E+04  1.748535E+04  2.942967E+04
       105  27 -7.138053E+05 -1.688884E+05 -1.341174E+05 -6.397245E+04  2.350727E+04  3.376743E+04
       106   1  8.140672E+05  1.920974E+05  2.126908E+05 -5.119363E+04 -1.393758E+04 -3.979958E+04
       106   2  9.051290E+05  2.209384E+05  2.615322E+05 -5.751822E+04 -6.569743E+04 -3.972427E+04
       106   3  1.029473E+06  3.544440E+05  3.702874E+05 -1.110690E+05 -1.174870E+05 -1.291209E+04
       106   4  6.461034E+03 -5.352184E+03  3.265785E+04 -6.595184E+04 -2.508993E+04 -3.980279E+04
       106   5 -8.270138E+03 -2.932380E+03  5.502630E+04 -4.236330E+04 -5.432740E+04 -3.972624E+04
       106   6  6.407526E+03  1.003244E+05  1.217237E+05 -6.599827E+04 -8.358371E+04 -1.290020E+04
       106   7 -8.005369E+05 -2.028451E+05 -1.474154E+05 -8.069063E+04 -3.622793E+04 -3.980548E+04
       106   8 -9.208940E+05 -2.268596E+05 -1.515326E+05 -2.723090E+04 -4.297386E+04 -3.972765E+04
       106   9 -1.015696E+06 -1.538637E+05 -1.269102E+05 -2.100198E+04 -4.973594E+04 -1.288338E+04
       106  10  8.140666E+05  1.920956E+05  2.126874E+05 -5.119408E+04  2.561586E-10 -4.470059E-10
       106  11  9.051239E+05  2.209356E+05  2.615212E+05 -5.752032E+04  1.505806E-10  4.701637E-10
       106  12  1.029458E+06  3.544401E+05  3.702612E+05 -1.110703E+05 -4.572566E-10  1.015619E-10
       106  13  6.459932E+03 -5.354054E+03  3.265369E+04 -6.595264E+04 -1.087304E-09  3.780012E-10
       106  14 -8.273731E+03 -2.934867E+03  5.501779E+04 -4.236504E+04  5.553455E-10  5.836741E-10
       106  15  6.399979E+03  1.003224E+05  1.217103E+05 -6.599914E+04  9.543562E-10 -2.165510E-10
       106  16 -8.005387E+05 -2.028472E+05 -1.474208E+05 -8.069179E+04  1.801605E-10  1.117301E-09
       106  17 -9.208964E+05 -2.268618E+05 -1.515391E+05 -2.723228E+04 -1.202613E-09 -5.683817E-10
       106  18 -1.015699E+06 -1.538645E+05 -1.269152E+05 -2.100249E+04 -1.191631E-09 -6.624396E-10
       106  19  8.140672E+05  1.920974E+05  2.126908E+05 -5.119363E+04  1.393758E+04  3.979958E+04
       106  20  9.051290E+05  2.209384E+05  2.615322E+05 -5.751822E+04  6.569743E+04  3.972427E+04
       106  21  1.029473E+06  3.544440E+05  3.702874E+05 -1.110690E+05  1.174870E+05  1.291209E+04
       106  22  6.461034E+03 -5.352184E+03  3.265785E+04 -6.595184E+04  2.508993E+04  3.980279E+04
       106  23 -8.270138E+03 -2.932380E+03  5.502630E+04 -4.236330E+04  5.432740E+04  3.972624E+04
       106  24  6.407526E+03  1.003244E+05  1.217237E+05 -6.599827E+04  8.358371E+04  1.290020E+04
       106  25 -8.005369E+05 -2.028451E+05 -1.474154E+05 -8.069063E+04  3.622793E+04  3.980548E+04
       106  26 -9.208940E+05 -2.268596E+05 -1.515326E+05 -2.723090E+04  4.297386E+04  3.972765E+04
       106  27 -1.015696E+06 -1.538637E+05 -1.269102E+05 -2.100198E+04  4.973594E+04  1.288338E+04
       107   1  4.930016E+05  1.528905E+06  4.966913E+05 -4.445269E+05  1.472324E+04  1.862913E+05
       107   2  2.736297E+05  1.137663E+06  2.890157E+05 -3.495222E+05  4.427493E+04  8.829101E+04
       107   3  1.575299E+05  7.847023E+05  1.708028E+05 -3.431354E+05  3.800629E+04 -9.723451E+03
       107   4  1.484241E+05  1.391523E+05  1.649804E+05 -3.520786E+05  1.495211E+04  1.124353E+05
       107   5  2.942488E+04  1.250176E+05  8.123152E+04 -3.079770E+05  4.433721E+04  7.049309E+04
       107   6  4.082748E+03  1.394027E+05  4.815423E+04 -3.524706E+05  3.789126E+04  2.847483E+04
       107   7 -1.962589E+05 -1.248803E+06 -1.668416E+05 -2.598361E+05  1.515933E+04  3.874333E+04
       107   8 -2.148381E+05 -8.866508E+05 -1.266053E+05 -2.664997E+05  4.439718E+04  5.272358E+04
       107   9 -1.493877E+05 -5.054924E+05 -7.450746E+04 -3.617955E+05  3.777500E+04  6.663438E+04
       107  10  4.929921E+05  1.528868E+06  4.966258E+05 -4.445291E+05  6.872643E-10  5.727013E-09
       107  11  2.736255E+05  1.137654E+06  2.889974E+05 -3.495253E+05  1.266606E-09 -1.068237E-08
       107  12  1.575283E+05  7.847018E+05  1.707999E+05 -3.431351E+05  1.474465E-10 -2.490508E-08
       107  13  1.484205E+05  1.391387E+05  1.649562E+05 -3.520799E+05  1.375519E-09  5.349347E-10
       107  14  2.942143E+04  1.250118E+05  8.121849E+04 -3.079795E+05  2.119407E-09  5.702495E-11
       107  15  4.080987E+03  1.394014E+05  4.815000E+04 -3.524715E+05  5.244468E-10 -1.219951E-09
       107  16 -1.962596E+05 -1.248805E+06 -1.668449E+05 -2.598366E+05 -1.394779E-09 -5.324577E-09
       107  17 -2.148410E+05 -8.866543E+05 -1.266143E+05 -2.665016E+05  3.226066E-10  9.130484E-09
       107  18 -1.493904E+05 -5.054976E+05 -7.451850E+04 -3.617976E+05  4.110526E-10  2.458750E-08
       107  19  4.930016E+05  1.528905E+06  4.966913E+05 -4.445269E+05 -1.472324E+04 -1.862913E+05
       107  20  2.736297E+05  1.137663E+06  2.890157E+05 -3.495222E+05 -4.427493E+04 -8.829101E+04
       107  21  1.575299E+05  7.847023E+05  1.708028E+05 -3.431354E+05 -3.800629E+04  9.723451E+03
       107  22  1.484241E+05  1.391523E+05  1.649804E+05 -3.520786E+05 -1.495211E+04 -1.124353E+05
       107  23  2.942488E+04  1.250176E+05  8.123152E+04 -3.079770E+05 -4.433721E+04 -7.049309E+04
       107  24  4.082748E+03  1.394027E+05  4.815423E+04 -3.524706E+05 -3.789126E+04 -2.847483E+04
       107  25 -1.962589E+05 -1.248803E+06 -1.668416E+05 -2.598361E+05 -1.515933E+04 -3.874333E+04
       107  26 -2.148381E+05 -8.866508E+05 -1.266053E+05 -2.664997E+05 -4.439718E+04 -5.272358E+04
       107  27 -1.493877E+05 -5.054924E+05 -7.450746E+04 -3.617955E+05 -3.777500E+04 -6.663438E+04
       108   1  1.023939E+05  5.305844E+05  1.150839E+05 -3.566365E+05  2.316021E+04 -1.155608E+04
       108   2  8.745140E+03  1.570394E+05  3.351738E+04 -3.077711E+05  1.790673E+03 -2.625530E+04
       108   3 -7.733952E+04 -2.131311E+05 -3.675346E+04 -3.496778E+05 -1.967468E+04 -4.094681E+04
       108   4  7.916121E+03  1.338288E+05  3.941714E+04 -3.528973E+05  2.305593E+04  2.178722E+04
       108   5  2.887448E+03  1.322233E+05  2.904830E+04 -3.075160E+05  1.685819E+03  7.234103E+03
       108   6  5.405674E+03  1.338350E+05  2.987887E+04 -3.529052E+05 -1.978029E+04 -7.319626E+03
       108   7 -8.657025E+04 -2.627729E+05 -3.625258E+04 -3.491604E+05  2.295202E+04  5.510974E+04
       108   8 -2.969676E+03  1.074101E+05  2.458342E+04 -3.072610E+05  1.580990E+03  4.072221E+04
       108   9  8.814438E+04  4.809194E+05  9.650993E+04 -3.561343E+05 -1.988621E+04  2.632592E+04
       108  10  1.023933E+05  5.305841E+05  1.150827E+05 -3.566363E+05 -1.254155E-10  2.267625E-08
       108  11  8.744952E+03  1.570387E+05  3.351608E+04 -3.077711E+05 -4.851200E-10  9.258980E-09
       108  12 -7.734039E+04 -2.131330E+05 -3.675734E+04 -3.496785E+05 -1.260673E-09 -6.200211E-09
       108  13  7.915422E+03  1.338281E+05  3.941525E+04 -3.528977E+05  2.064226E-09  7.585272E-10
       108  14  2.887431E+03  1.322232E+05  2.904820E+04 -3.075161E+05  1.005279E-09  1.293762E-10
       108  15  5.405239E+03  1.338348E+05  2.987804E+04 -3.529053E+05 -1.083384E-10 -1.086445E-09
       108  16 -8.657163E+04 -2.627763E+05 -3.625928E+04 -3.491614E+05  8.834902E-11 -2.223445E-08
       108  17 -2.970124E+03  1.074083E+05  2.458030E+04 -3.072611E+05 -1.000068E-09 -1.077999E-08
       108  18  8.814377E+04  4.809186E+05  9.650789E+04 -3.561339E+05 -2.072948E-09  6.047436E-09
       108  19  1.023939E+05  5.305844E+05  1.150839E+05 -3.566365E+05 -2.316021E+04  1.155608E+04
       108  20  8.745140E+03  1.570394E+05  3.351738E+04 -3.077711E+05 -1.790673E+03  2.625530E+04
       108  21 -7.733952E+04 -2.131311E+05 -3.675346E+04 -3.496778E+05  1.967468E+04  4.094681E+04
       108  22  7.916121E+03  1.338288E+05  3.941714E+04 -3.528973E+05 -2.305593E+04 -2.178722E+04
       108  23  2.887448E+03  1.322233E+05  2.904830E+04 -3.075160E+05 -1.685819E+03 -7.234103E+03
       108  24  5.405674E+03  1.338350E+05  2.987887E+04 -3.529052E+05  1.978029E+04  7.319626E+03
       108  25 -8.657025E+04 -2.627729E+05 -3.625258E+04 -3.491604E+05 -2.295202E+04 -5.510974E+04
       108  26 -2.969676E+03  1.074101E+05  2.458342E+04 -3.072610E+05 -1.580990E+03 -4.072221E+04
       108  27  8.814438E+04  4.809194E+05  9.650993E+04 -3.561343E+05  1.988621E+04 -2.632592E+04
       109   1 -1.384835E+05 -4.583581E+05 -8.028520E+04 -3.572189E+05 -3.453782E+04 -5.057851E+04
       109   2 -2.143384E+05 -8.339905E+05 -1.478373E+05 -2.824279E+05 -4.186079E+04 -2.247494E+04
       109   3 -2.437623E+05 -1.201905E+06 -2.221869E+05 -2.963862E+05 -1.450927E+04  5.686662E+03
       109   4  3.257918E+03  1.368399E+05  3.329295E+04 -3.524823E+05 -3.465491E+04 -1.229369E+04
       109   5  1.798070E+04  1.282519E+05  5.027360E+04 -3.080039E+05 -4.180923E+04 -3.825154E+04
       109   6  8.848276E+04  1.366044E+05  9.799255E+04 -3.522492E+05 -1.431634E+04 -6.413474E+04
       109   7  1.449794E+05  7.323825E+05  1.468606E+05 -3.477406E+05 -3.477135E+04  2.602699E+04
       109   8  2.502438E+05  1.091375E+06  2.483360E+05 -3.336195E+05 -4.175642E+04 -5.405215E+04
       109   9  4.206118E+05  1.476774E+06  4.180654E+05 -4.082317E+05 -1.411107E+04 -1.341061E+05
       109  10 -1.384855E+05 -4.583611E+05 -8.029226E+04 -3.572203E+05 -2.148230E-09  3.137413E-09
       109  11 -2.143404E+05 -8.339915E+05 -1.478416E+05 -2.824286E+05 -8.423144E-10  8.354559E-10
       109  12 -2.437625E+05 -1.201905E+06 -2.221873E+05 -2.963861E+05  7.020797E-10 -1.073004E-09
       109  13  3.256588E+03  1.368394E+05  3.329041E+04 -3.524826E+05 -3.484817E-09  6.306516E-10
       109  14  1.797842E+04  1.282499E+05  5.026756E+04 -3.080052E+05 -1.509233E-09  6.651084E-11
       109  15  8.848143E+04  1.365999E+05  9.798443E+04 -3.522499E+05  4.842713E-10 -1.003218E-09
       109  16  1.449779E+05  7.323814E+05  1.468571E+05 -3.477399E+05 -1.331176E-09 -2.699000E-09
       109  17  2.502411E+05  1.091372E+06  2.483273E+05 -3.336213E+05 -3.876300E-10 -2.414071E-09
       109  18  4.206068E+05  1.476755E+06  4.180313E+05 -4.082333E+05  1.001790E-09  8.755559E-10
       109  19 -1.384835E+05 -4.583581E+05 -8.028520E+04 -3.572189E+05  3.453782E+04  5.057851E+04
       109  20 -2.143384E+05 -8.339905E+05 -1.478373E+05 -2.824279E+05  4.186079E+04  2.247494E+04
       109  21 -2.437623E+05 -1.201905E+06 -2.221869E+05 -2.963862E+05  1.450927E+04 -5.686662E+03
       109  22  3.257918E+03  1.368399E+05  3.329295E+04 -3.524823E+05  3.465491E+04  1.229369E+04
       109  23  1.798070E+04  1.282519E+05  5.027360E+04 -3.080039E+05  4.180923E+04  3.825154E+04
       109  24  8.848276E+04  1.366044E+05  9.799255E+04 -3.522492E+05  1.431634E+04  6.413474E+04
       109  25  1.449794E+05  7.323825E+05  1.468606E+05 -3.477406E+05  3.477135E+04 -2.602699E+04
       109  26  2.502438E+05  1.091375E+06  2.483360E+05 -3.336195E+05  4.175642E+04  5.405215E+04
       109  27  4.206118E+05  1.476774E+06  4.180654E+05 -4.082317E+05  1.411107E+04  1.341061E+05
       110   1 -3.125683E+06 -1.100374E+06 -6.580658E+05 -1.137871E+06 -2.755717E+05 -8.692585E+04
       110   2 -3.030436E+06 -7.075261E+05 -4.061293E+05 -1.122262E+06 -1.785243E+05 -1.458795E+04
       110   3 -3.030029E+06 -6.358437E+05 -3.153188E+05 -1.065543E+06 -6.994100E+04  2.722489E+04
       110   4 -2.130087E+06 -6.047721E+05 -3.673076E+05 -7.438577E+05 -2.393416E+05 -7.333119E+04
       110   5 -2.065058E+06 -3.066513E+05 -1.579904E+05 -8.170680E+05 -1.660857E+05 -9.922777E+03
       110   6 -2.089959E+06 -3.247092E+05 -9.070008E+04 -8.492211E+05 -8.131325E+04  2.294563E+04
       110   7 -1.133484E+06 -1.088702E+05 -7.663823E+04 -3.491961E+05 -2.030472E+05 -5.969467E+04
       110   8 -1.098756E+06  9.434712E+04  9.007214E+04 -5.114189E+05 -1.536258E+05 -5.247557E+03
       110   9 -1.149020E+06 -1.356039E+04  1.338554E+05 -6.326220E+05 -9.270428E+04  1.866117E+04
       110  10 -3.125767E+06 -1.100402E+06 -6.582236E+05 -1.137890E+06  6.846247E-10  7.004279E-11
       110  11 -3.030470E+06 -7.075349E+05 -4.061899E+05 -1.122265E+06 -4.805360E-09 -1.555620E-09
       110  12 -3.030035E+06 -6.358459E+05 -3.153294E+05 -1.065541E+06 -4.965679E-09 -3.981533E-09
       110  13 -2.130150E+06 -6.047933E+05 -3.674258E+05 -7.438718E+05  9.552578E-10 -5.729666E-11
       110  14 -2.065088E+06 -3.066589E+05 -1.580426E+05 -8.170693E+05 -2.250066E-11 -4.383589E-10
       110  15 -2.089967E+06 -3.247116E+05 -9.071353E+04 -8.492196E+05 -1.334720E-09 -2.244880E-09
       110  16 -1.133530E+06 -1.088852E+05 -7.672257E+04 -3.492058E+05  4.429839E-10  5.324885E-10
       110  17 -1.098781E+06  9.434074E+04  9.002766E+04 -5.114196E+05  5.270199E-09  1.320419E-09
       110  18 -1.149030E+06 -1.356308E+04  1.338386E+05 -6.326207E+05  2.838439E-09 -5.515291E-10
       110  19 -3.125683E+06 -1.100374E+06 -6.580658E+05 -1.137871E+06  2.755717E+05  8.692585E+04
       110  20 -3.030436E+06 -7.075261E+05 -4.061293E+05 -1.122262E+06  1.785243E+05  1.458795E+04
       110  21 -3.030029E+06 -6.358437E+05 -3.153188E+05 -1.065543E+06  6.994100E+04 -2.722489E+04
       110  22 -2.130087E+06 -6.047721E+05 -3.673076E+05 -7.438577E+05  2.393416E+05  7.333119E+04
       110  23 -2.065058E+06 -3.066513E+05 -1.579904E+05 -8.170680E+05  1.660857E+05  9.922777E+03
       110  24 -2.089959E+06 -3.247092E+05 -9.070008E+04 -8.492211E+05  8.131325E+04 -2.294563E+04
       110  25 -1.133484E+06 -1.088702E+05 -7.663823E+04 -3.491961E+05  2.030472E+05  5.969467E+04
       110  26 -1.098756E+06  9.434712E+04  9.007214E+04 -5.114189E+05  1.536258E+05  5.247557E+03
       110  27 -1.149020E+06 -1.356039E+04  1.338554E+05 -6.326220E+05  9.270428E+04 -1.866117E+04
       111   1 -2.904613E+06 -6.706946E+05 -2.785540E+05 -1.064937E+06 -6.510249E+04  2.198454E+04
       111   2 -2.828035E+06 -5.982949E+05 -2.201523E+05 -1.024230E+06 -4.397935E+04  2.608422E+04
       111   3 -2.730025E+06 -5.774359E+05 -1.819811E+05 -1.014728E+06 -2.229710E+04  2.869085E+04
       111   4 -2.077843E+06 -3.550609E+05 -7.229535E+04 -8.316976E+05 -6.720206E+04  2.118978E+04
       111   5 -2.087294E+06 -3.199161E+05 -3.673762E+04 -8.196439E+05 -4.722383E+04  2.486167E+04
       111   6 -2.075083E+06 -3.360658E+05 -2.047888E+04 -8.387978E+05 -2.668989E+04  2.703989E+04
       111   7 -1.250392E+06 -3.937159E+04  1.339108E+05 -5.981706E+05 -6.930468E+04  2.039382E+04
       111   8 -1.346009E+06 -4.149760E+04  1.466352E+05 -6.148339E+05 -5.047254E+04  2.363751E+04
       111   9 -1.419718E+06 -9.466959E+04  1.409906E+05 -6.626993E+05 -3.108775E+04  2.538709E+04
       111  10 -2.904618E+06 -6.706962E+05 -2.785629E+05 -1.064936E+06  2.212903E-09 -2.202499E-10
       111  11 -2.828037E+06 -5.982962E+05 -2.201572E+05 -1.024229E+06  4.297524E-09  2.433931E-09
       111  12 -2.730026E+06 -5.774369E+05 -1.819836E+05 -1.014728E+06  1.017878E-09  1.104116E-09
       111  13 -2.077848E+06 -3.550626E+05 -7.230470E+04 -8.316964E+05 -1.300283E-09 -2.027353E-09
       111  14 -2.087296E+06 -3.199173E+05 -3.674298E+04 -8.196430E+05  1.446605E-10  9.521551E-10
       111  15 -2.075084E+06 -3.360668E+05 -2.048159E+04 -8.387972E+05  2.053774E-10  3.590012E-10
       111  16 -1.250398E+06 -3.937333E+04  1.339010E+05 -5.981695E+05 -3.793294E-09 -3.399609E-09
       111  17 -1.346012E+06 -4.149888E+04  1.466294E+05 -6.148329E+05 -2.817025E-09 -2.210055E-10
       111  18 -1.419719E+06 -9.467054E+04  1.409876E+05 -6.626986E+05 -2.141186E-09 -1.951384E-10
       111  19 -2.904613E+06 -6.706946E+05 -2.785540E+05 -1.064937E+06  6.510249E+04 -2.198454E+04
       111  20 -2.828035E+06 -5.982949E+05 -2.201523E+05 -1.024230E+06  4.397935E+04 -2.608422E+04
       111  21 -2.730025E+06 -5.774359E+05 -1.819811E+05 -1.014728E+06  2.229710E+04 -2.869085E+04
       111  22 -2.077843E+06 -3.550609E+05 -7.229535E+04 -8.316976E+05  6.720206E+04 -2.118978E+04
       111  23 -2.087294E+06 -3.199161E+05 -3.673762E+04 -8.196439E+05  4.722383E+04 -2.486167E+04
       111  24 -2.075083E+06 -3.360658E+05 -2.047888E+04 -8.387978E+05  2.668989E+04 -2.703989E+04
       111  25 -1.250392E+06 -3.937159E+04  1.339108E+05 -5.981706E+05  6.930468E+04 -2.039382E+04
       111  26 -1.346009E+06 -4.149760E+04  1.466352E+05 -6.148339E+05  5.047254E+04 -2.363751E+04
       111  27 -1.419718E+06 -9.466959E+04  1.409906E+05 -6.626993E+05  3.108775E+04 -2.538709E+04
       112   1 -2.644300E+06 -5.511650E+05 -1.562980E+05 -9.939040E+05 -1.861648E+04  2.645677E+04
       112   2 -2.567477E+06 -4.989636E+05 -1.265198E+05 -9.501732E+05 -1.235470E+04  2.292722E+04
       112   3 -2.459288E+06 -4.805141E+05 -1.003150E+05 -9.432861E+05 -6.054301E+03  1.928437E+04
       112   4 -2.073760E+06 -3.382419E+05 -1.565252E+04 -8.377584E+05 -2.261732E+04  2.495414E+04
       112   5 -2.089340E+06 -3.207269E+05 -8.473031E+03 -8.195716E+05 -1.644027E+04  2.139445E+04
       112   6 -2.073546E+06 -3.369452E+05 -4.796806E+03 -8.382306E+05 -1.022529E+04  1.772128E+04
       112   7 -1.502900E+06 -1.252977E+05  1.249674E+05 -6.814826E+05 -2.662217E+04  2.345000E+04
       112   8 -1.610978E+06 -1.424749E+05  1.095562E+05 -6.888785E+05 -2.052927E+04  1.986039E+04
       112   9 -1.687656E+06 -1.933657E+05  9.071045E+04 -7.331152E+05 -1.439914E+04  1.615712E+04
       112  10 -2.644301E+06 -5.511659E+05 -1.563000E+05 -9.939036E+05  1.042727E-09  1.363665E-10
       112  11 -2.567477E+06 -4.989642E+05 -1.265210E+05 -9.501729E+05  5.411443E-09  2.225318E-09
       112  12 -2.459288E+06 -4.805145E+05 -1.003158E+05 -9.432860E+05  2.685238E-09  6.249604E-10
       112  13 -2.073760E+06 -3.382427E+05 -1.565465E+04 -8.377579E+05  1.945173E-09  3.040221E-10
       112  14 -2.089341E+06 -3.207275E+05 -8.474398E+03 -8.195714E+05  1.523969E-09  1.507349E-09
       112  15 -2.073546E+06 -3.369455E+05 -4.797591E+03 -8.382304E+05  1.550339E-10  8.291031E-10
       112  16 -1.502901E+06 -1.252985E+05  1.249650E+05 -6.814821E+05  1.757375E-09  6.195331E-10
       112  17 -1.610978E+06 -1.424754E+05  1.095547E+05 -6.888782E+05  1.929207E-09  1.007931E-09
       112  18 -1.687656E+06 -1.933661E+05  9.070957E+04 -7.331150E+05 -7.300006E-10 -6.167637E-10
       112  19 -2.644300E+06 -5.511650E+05 -1.562980E+05 -9.939040E+05  1.861648E+04 -2.645677E+04
       112  20 -2.567477E+06 -4.989636E+05 -1.265198E+05 -9.501732E+05  1.235470E+04 -2.292722E+04
       112  21 -2.459288E+06 -4.805141E+05 -1.003150E+05 -9.432861E+05  6.054301E+03 -1.928437E+04
       112  22 -2.073760E+06 -3.382419E+05 -1.565252E+04 -8.377584E+05  2.261732E+04 -2.495414E+04
       112  23 -2.089340E+06 -3.207269E+05 -8.473031E+03 -8.195716E+05  1.644027E+04 -2.139445E+04
       112  24 -2.073546E+06 -3.369452E+05 -4.796806E+03 -8.382306E+05  1.022529E+04 -1.772128E+04
       112  25 -1.502900E+06 -1.252977E+05  1.249674E+05 -6.814826E+05  2.662217E+04 -2.345000E+04
       112  26 -1.610978E+06 -1.424749E+05  1.095562E+05 -6.888785E+05  2.052927E+04 -1.986039E+04
       112  27 -1.687656E+06 -1.933657E+05  9.071045E+04 -7.331152E+05  1.439914E+04 -1.615712E+04
       113   1 -2.374643E+06 -4.493856E+05 -7.777029E+04 -9.205471E+05 -4.189239E+03  1.644644E+04
       113   2 -2.296669E+06 -3.977481E+05 -5.344513E+04 -8.759136E+05 -1.001061E+03  1.155553E+04
       113   3 -2.185978E+06 -3.791135E+05 -3.003031E+04 -8.690458E+05  2.194194E+03  6.640603E+03
       113   4 -2.073290E+06 -3.371830E+05 -3.723418E+03 -8.382785E+05 -8.364098E+03  1.488266E+04
       113   5 -2.089632E+06 -3.206306E+05 -2.350322E+03 -8.194118E+05 -5.194244E+03  9.985618E+03
       113   6 -2.073263E+06 -3.370767E+05 -1.872442E+03 -8.383127E+05 -2.017547E+03  5.064537E+03
       113   7 -1.771848E+06 -2.249740E+05  7.031683E+04 -7.559734E+05 -1.254119E+04  1.331806E+04
       113   8 -1.882554E+06 -2.435108E+05  4.874083E+04 -7.628932E+05 -9.388926E+03  8.415142E+03
       113   9 -1.960537E+06 -2.950398E+05  2.628395E+04 -8.075751E+05 -6.230051E+03  3.488185E+03
       113  10 -2.374643E+06 -4.493859E+05 -7.777083E+04 -9.205470E+05 -8.961324E-10 -6.924625E-10
       113  11 -2.296669E+06 -3.977483E+05 -5.344538E+04 -8.759136E+05 -2.854201E-10  4.869111E-10
       113  12 -2.185978E+06 -3.791136E+05 -3.003041E+04 -8.690458E+05  3.407892E-10  7.918200E-11
       113  13 -2.073291E+06 -3.371833E+05 -3.723965E+03 -8.382784E+05 -2.485524E-09 -7.584898E-10
       113  14 -2.089632E+06 -3.206307E+05 -2.350560E+03 -8.194118E+05 -8.395596E-10  1.197803E-09
       113  15 -2.073263E+06 -3.370767E+05 -1.872498E+03 -8.383127E+05 -1.565099E-09 -5.531174E-11
       113  16 -1.771848E+06 -2.249743E+05  7.031620E+04 -7.559732E+05 -1.180299E-10  2.660773E-10
       113  17 -1.882554E+06 -2.435109E+05  4.874054E+04 -7.628932E+05 -1.128975E-09  4.377114E-11
       113  18 -1.960537E+06 -2.950398E+05  2.628386E+04 -8.075751E+05 -9.198204E-10 -2.513246E-10
       113  19 -2.374643E+06 -4.493856E+05 -7.777029E+04 -9.205471E+05  4.189239E+03 -1.644644E+04
       113  20 -2.296669E+06 -3.977481E+05 -5.344513E+04 -8.759136E+05  1.001061E+03 -1.155553E+04
       113  21 -2.185978E+06 -3.791135E+05 -3.003031E+04 -8.690458E+05 -2.194194E+03 -6.640603E+03
       113  22 -2.073290E+06 -3.371830E+05 -3.723418E+03 -8.382785E+05  8.364098E+03 -1.488266E+04
       113  23 -2.089632E+06 -3.206306E+05 -2.350322E+03 -8.194118E+05  5.194244E+03 -9.985618E+03
       113  24 -2.073263E+06 -3.370767E+05 -1.872442E+03 -8.383127E+05  2.017547E+03 -5.064537E+03
       113  25 -1.771848E+06 -2.249740E+05  7.031683E+04 -7.559734E+05  1.254119E+04 -1.331806E+04
       113  26 -1.882554E+06 -2.435108E+05  4.874083E+04 -7.628932E+05  9.388926E+03 -8.415142E+03
       113  27 -1.960537E+06 -2.950398E+05  2.628395E+04 -8.075751E+05  6.230051E+03 -3.488185E+03
       114   1 -2.100689E+06 -3.472932E+05 -8.328954E+03 -8.458859E+05  3.681939E+03  3.629832E+03
       114   2 -2.022395E+06 -2.955716E+05  1.413728E+04 -8.010588E+05  6.905856E+03 -1.288054E+03
       114   3 -1.911298E+06 -2.769744E+05  3.566869E+04 -7.941461E+05  1.012690E+04 -6.195549E+03
       114   4 -2.073242E+06 -3.371038E+05 -1.892582E+03 -8.383460E+05 -5.350448E+02  2.051967E+03
       114   5 -2.089646E+06 -3.205793E+05 -2.449771E+03 -8.193725E+05  2.696411E+03 -2.863400E+03
       114   6 -2.073256E+06 -3.371824E+05 -3.947730E+03 -8.383181E+05  5.924772E+03 -7.768408E+03
       114   7 -2.045794E+06 -3.269143E+05  4.543928E+03 -8.308056E+05 -4.752295E+03  4.740018E+02
       114   8 -2.156893E+06 -3.455869E+05 -1.903733E+04 -8.376846E+05 -1.512588E+03 -4.438581E+03
       114   9 -2.235191E+06 -3.973892E+05 -4.356652E+04 -8.824801E+05  1.723801E+03 -9.340837E+03
       114  10 -2.100689E+06 -3.472932E+05 -8.329005E+03 -8.458859E+05  1.773857E-09  2.399307E-10
       114  11 -2.022395E+06 -2.955716E+05  1.413719E+04 -8.010588E+05 -6.840999E-10 -4.719374E-10
       114  12 -1.911298E+06 -2.769745E+05  3.566842E+04 -7.941460E+05 -5.681890E-11 -6.200147E-10
       114  13 -2.073242E+06 -3.371038E+05 -1.892590E+03 -8.383460E+05 -4.863235E-10 -2.758884E-10
       114  14 -2.089646E+06 -3.205793E+05 -2.449800E+03 -8.193725E+05 -6.554734E-11  1.015547E-09
       114  15 -2.073257E+06 -3.371824E+05 -3.947909E+03 -8.383181E+05 -1.260166E-09 -3.730690E-11
       114  16 -2.045794E+06 -3.269143E+05  4.543885E+03 -8.308056E+05 -1.024077E-10  2.142828E-10
       114  17 -2.156893E+06 -3.455870E+05 -1.903737E+04 -8.376847E+05 -8.969999E-11  1.405239E-09
       114  18 -2.235191E+06 -3.973893E+05 -4.356669E+04 -8.824801E+05 -3.705594E-10  5.913174E-10
       114  19 -2.100689E+06 -3.472932E+05 -8.328954E+03 -8.458859E+05 -3.681939E+03 -3.629832E+03
       114  20 -2.022395E+06 -2.955716E+05  1.413728E+04 -8.010588E+05 -6.905856E+03  1.288054E+03
       114  21 -1.911298E+06 -2.769744E+05  3.566869E+04 -7.941461E+05 -1.012690E+04  6.195549E+03
       114  22 -2.073242E+06 -3.371038E+05 -1.892582E+03 -8.383460E+05  5.350448E+02 -2.051967E+03
       114  23 -2.089646E+06 -3.205793E+05 -2.449771E+03 -8.193725E+05 -2.696411E+03  2.863400E+03
       114  24 -2.073256E+06 -3.371824E+05 -3.947730E+03 -8.383181E+05 -5.924772E+03  7.768408E+03
       114  25 -2.045794E+06 -3.269143E+05  4.543928E+03 -8.308056E+05  4.752295E+03 -4.740018E+02
       114  26 -2.156893E+06 -3.455869E+05 -1.903733E+04 -8.376846E+05  1.512588E+03  4.438581E+03
       114  27 -2.235191E+06 -3.973892E+05 -4.356652E+04 -8.824801E+05 -1.723801E+03  9.340837E+03
       115   1 -1.826473E+06 -2.452207E+05  5.612462E+04 -7.712345E+05  1.204433E+04 -9.037280E+03
       115   2 -1.748843E+06 -1.937724E+05  7.496977E+04 -7.265273E+05  1.849478E+04 -1.268230E+04
       115   3 -1.639622E+06 -1.765044E+05  9.010819E+04 -7.190974E+05  2.491474E+04 -1.623529E+04
       115   4 -2.073479E+06 -3.369910E+05 -5.108871E+03 -8.383415E+05  7.837767E+03 -1.061225E+04
       115   5 -2.089370E+06 -3.205680E+05 -9.040576E+03 -8.194537E+05  1.435698E+04 -1.423272E+04
       115   6 -2.073693E+06 -3.383404E+05 -1.673471E+04 -8.378469E+05  2.084502E+04 -1.776137E+04
       115   7 -2.320421E+06 -4.287558E+05 -6.634581E+04 -9.054231E+05  3.633108E+03 -1.218651E+04
       115   8 -2.429781E+06 -4.473551E+05 -9.305926E+04 -9.123332E+05  1.022168E+04 -1.578220E+04
       115   9 -2.507580E+06 -5.001648E+05 -1.235928E+05 -9.565216E+05  1.677838E+04 -1.928630E+04
       115  10 -1.826473E+06 -2.452208E+05  5.612419E+04 -7.712344E+05  9.157495E-11  4.515231E-11
       115  11 -1.748844E+06 -1.937727E+05  7.496882E+04 -7.265271E+05 -1.321449E-09  2.860854E-10
       115  12 -1.639623E+06 -1.765048E+05  9.010653E+04 -7.190971E+05  6.620175E-11  4.271737E-10
       115  13 -2.073479E+06 -3.369912E+05 -5.109198E+03 -8.383415E+05 -1.117158E-09  1.240487E-10
       115  14 -2.089370E+06 -3.205682E+05 -9.041344E+03 -8.194535E+05 -6.142472E-10 -3.643469E-10
       115  15 -2.073693E+06 -3.383408E+05 -1.673612E+04 -8.378466E+05 -9.971168E-10 -2.296494E-10
       115  16 -2.320421E+06 -4.287560E+05 -6.634611E+04 -9.054231E+05  1.406988E-09  1.085153E-09
       115  17 -2.429781E+06 -4.473554E+05 -9.305993E+04 -9.123330E+05  1.443120E-09  7.399111E-10
       115  18 -2.507580E+06 -5.001653E+05 -1.235941E+05 -9.565214E+05 -3.217568E-10 -1.278008E-10
       115  19 -1.826473E+06 -2.452207E+05  5.612462E+04 -7.712345E+05 -1.204433E+04  9.037280E+03
       115  20 -1.748843E+06 -1.937724E+05  7.496977E+04 -7.265273E+05 -1.849478E+04  1.268230E+04
       115  21 -1.639622E+06 -1.765044E+05  9.010819E+04 -7.190974E+05 -2.491474E+04  1.623529E+04
       115  22 -2.073479E+06 -3.369910E+05 -5.108871E+03 -8.383415E+05 -7.837767E+03  1.061225E+04
       115  23 -2.089370E+06 -3.205680E+05 -9.040576E+03 -8.194537E+05 -1.435698E+04  1.423272E+04
       115  24 -2.073693E+06 -3.383404E+05 -1.673471E+04 -8.378469E+05 -2.084502E+04  1.776137E+04
       115  25 -2.320421E+06 -4.287558E+05 -6.634581E+04 -9.054231E+05 -3.633108E+03  1.218651E+04
       115  26 -2.429781E+06 -4.473551E+05 -9.305926E+04 -9.123332E+05 -1.022168E+04  1.578220E+04
       115  27 -2.507580E+06 -5.001648E+05 -1.235928E+05 -9.565216E+05 -1.677838E+04  1.928630E+04
       116   1 -1.555068E+06 -1.455259E+05  1.061119E+05 -7.003609E+05  2.955192E+04 -1.814190E+04
       116   2 -1.479806E+06 -9.118721E+04  1.110445E+05 -6.513659E+05  5.040963E+04 -1.598452E+04
       116   3 -1.382898E+06 -8.992852E+04  9.612525E+04 -6.340066E+05  7.077884E+04 -1.250405E+04
       116   4 -2.075049E+06 -3.360826E+05 -2.190318E+04 -8.390404E+05  2.512800E+04 -1.980166E+04
       116   5 -2.087227E+06 -3.195771E+05 -3.927762E+04 -8.194302E+05  4.700300E+04 -1.726519E+04
       116   6 -2.077980E+06 -3.563721E+05 -7.732772E+04 -8.314614E+05  6.838630E+04 -1.340644E+04
       116   7 -2.594763E+06 -5.266235E+05 -1.499388E+05 -9.776151E+05  2.070813E+04 -2.145996E+04
       116   8 -2.694283E+06 -5.479401E+05 -1.896278E+05 -9.873439E+05  4.360001E+04 -1.854446E+04
       116   9 -2.772582E+06 -6.227750E+05 -2.508177E+05 -1.028711E+06  6.599666E+04 -1.430767E+04
       116  10 -1.555069E+06 -1.455265E+05  1.061096E+05 -7.003604E+05  1.276129E-10 -3.160473E-10
       116  11 -1.479809E+06 -9.118817E+04  1.110393E+05 -6.513652E+05 -1.430510E-10 -2.957254E-10
       116  12 -1.382904E+06 -8.993003E+04  9.611552E+04 -6.340059E+05  1.072355E-09 -2.330013E-10
       116  13 -2.075049E+06 -3.360832E+05 -2.190510E+04 -8.390400E+05  1.789155E-09  3.055154E-10
       116  14 -2.087230E+06 -3.195781E+05 -3.928234E+04 -8.194296E+05  1.172772E-09 -2.683330E-10
       116  15 -2.077985E+06 -3.563736E+05 -7.733687E+04 -8.314607E+05 -9.591247E-10 -3.900054E-10
       116  16 -2.594763E+06 -5.266242E+05 -1.499405E+05 -9.776147E+05 -4.703565E-11 -2.948757E-10
       116  17 -2.694285E+06 -5.479410E+05 -1.896320E+05 -9.873432E+05  1.270413E-09 -1.812294E-10
       116  18 -2.772586E+06 -6.227764E+05 -2.508263E+05 -1.028711E+06 -1.490897E-10 -7.240215E-10
       116  19 -1.555068E+06 -1.455259E+05  1.061119E+05 -7.003609E+05 -2.955192E+04  1.814190E+04
       116  20 -1.479806E+06 -9.118721E+04  1.110445E+05 -6.513659E+05 -5.040963E+04  1.598452E+04
       116  21 -1.382898E+06 -8.992852E+04  9.612525E+04 -6.340066E+05 -7.077884E+04  1.250405E+04
       116  22 -2.075049E+06 -3.360826E+05 -2.190318E+04 -8.390404E+05 -2.512800E+04  1.980166E+04
       116  23 -2.087227E+06 -3.195771E+05 -3.927762E+04 -8.194302E+05 -4.700300E+04  1.726519E+04
       116  24 -2.077980E+06 -3.563721E+05 -7.732772E+04 -8.314614E+05 -6.838630E+04  1.340644E+04
       116  25 -2.594763E+06 -5.266235E+05 -1.499388E+05 -9.776151E+05 -2.070813E+04  2.145996E+04
       116  26 -2.694283E+06 -5.479401E+05 -1.896278E+05 -9.873439E+05 -4.360001E+04  1.854446E+04
       116  27 -2.772582E+06 -6.227750E+05 -2.508177E+05 -1.028711E+06 -6.599666E+04  1.430767E+04
       117   1 -1.278161E+06 -6.377851E+04  9.544381E+04 -6.721221E+05  9.385990E+04 -1.056200E+04
       117   2 -1.226819E+06  4.962324E+04  4.727097E+04 -5.439891E+05  1.636512E+05  1.577793E+04
       117   3 -1.268517E+06 -1.697265E+05 -1.358917E+05 -3.709056E+05  2.232391E+05  6.927669E+04
       117   4 -2.090858E+06 -3.239955E+05 -9.701770E+04 -8.503157E+05  8.320669E+04 -1.456078E+04
       117   5 -2.063535E+06 -3.052150E+05 -1.689621E+05 -8.165219E+05  1.741943E+05  1.972465E+04
       117   6 -2.133654E+06 -6.236997E+05 -3.928786E+05 -7.377462E+05  2.549639E+05  8.116053E+04
       117   7 -2.902909E+06 -5.842088E+05 -2.895257E+05 -1.028317E+06  7.256863E+04 -1.855574E+04
       117   8 -2.899552E+06 -6.599471E+05 -3.852522E+05 -1.088699E+06  1.847216E+05  2.366365E+04
       117   9 -2.998007E+06 -1.077385E+06 -6.499290E+05 -1.104049E+06  2.866395E+05  9.300945E+04
       117  10 -1.278170E+06 -6.378100E+04  9.542702E+04 -6.721213E+05  1.171937E-09 -1.606228E-10
       117  11 -1.226848E+06  4.961577E+04  4.722006E+04 -5.439912E+05  1.361379E-09 -3.876642E-10
       117  12 -1.268572E+06 -1.697451E+05 -1.359946E+05 -3.709181E+05  9.927504E-10 -6.271662E-10
       117  13 -2.090866E+06 -3.239976E+05 -9.703114E+04 -8.503147E+05  1.346441E-09 -3.212825E-10
       117  14 -2.063568E+06 -3.052236E+05 -1.690201E+05 -8.165247E+05 -2.294210E-09  1.822663E-09
       117  15 -2.133725E+06 -6.237243E+05 -3.930136E+05 -7.377629E+05  1.443205E-09 -6.411299E-10
       117  16 -2.902915E+06 -5.842106E+05 -2.895363E+05 -1.028316E+06 -8.009732E-10 -5.239260E-10
       117  17 -2.899589E+06 -6.599569E+05 -3.853177E+05 -1.088703E+06 -2.603395E-09  4.118639E-10
       117  18 -2.998098E+06 -1.077417E+06 -6.501006E+05 -1.104071E+06  2.060078E-10 -3.556560E-10
       117  19 -1.278161E+06 -6.377851E+04  9.544381E+04 -6.721221E+05 -9.385990E+04  1.056200E+04
       117  20 -1.226819E+06  4.962324E+04  4.727097E+04 -5.439891E+05 -1.636512E+05 -1.577793E+04
       117  21 -1.268517E+06 -1.697265E+05 -1.358917E+05 -3.709056E+05 -2.232391E+05 -6.927669E+04
       117  22 -2.090858E+06 -3.239955E+05 -9.701770E+04 -8.503157E+05 -8.320669E+04  1.456078E+04
       117  23 -2.063535E+06 -3.052150E+05 -1.689621E+05 -8.165219E+05 -1.741943E+05 -1.972465E+04
       117  24 -2.133654E+06 -6.236997E+05 -3.928786E+05 -7.377462E+05 -2.549639E+05 -8.116053E+04
       117  25 -2.902909E+06 -5.842088E+05 -2.895257E+05 -1.028317E+06 -7.256863E+04  1.855574E+04
       117  26 -2.899552E+06 -6.599471E+05 -3.852522E+05 -1.088699E+06 -1.847216E+05 -2.366365E+04
       117  27 -2.998007E+06 -1.077385E+06 -6.499290E+05 -1.104049E+06 -2.866395E+05 -9.300945E+04
       118   1 -4.124675E+05 -1.587317E+04  1.426545E+04  2.663254E+04  8.660766E+04  7.418248E+03
       118   2 -3.795887E+05 -1.323065E+05 -4.893916E+04 -4.250903E+02  6.208600E+04  2.295359E+04
       118   3 -3.119584E+05 -1.231623E+05 -6.474544E+04 -4.945919E+04  3.757288E+04  2.352507E+04
       118   4  1.639886E+05  1.273396E+05  1.543607E+05 -3.072824E+04  1.060198E+05  7.424303E+03
       118   5  1.455491E+05 -3.536380E+03  6.982440E+04 -1.969936E+04  6.890328E+04  2.295414E+04
       118   6  1.640111E+05 -6.711637E+03  4.140179E+04 -3.064453E+04  3.179824E+04  2.352277E+04
       118   7  7.407560E+05  2.705407E+05  2.944350E+05 -8.814249E+04  1.254499E+05  7.426769E+03
       118   8  6.709442E+05  1.252162E+05  1.885706E+05 -3.899012E+04  7.572626E+04  2.295426E+04
       118   9  6.401926E+05  1.097250E+05  1.475351E+05 -1.181529E+04  2.601920E+04  2.352012E+04
       118  10 -4.124755E+05 -1.587525E+04  1.425124E+04  2.663202E+04 -3.319689E-11  1.404653E-10
       118  11 -3.795930E+05 -1.323081E+05 -4.894740E+04 -4.262383E+02 -2.482964E-09 -6.051899E-10
       118  12 -3.119601E+05 -1.231633E+05 -6.474913E+04 -4.945991E+04 -9.846571E-10 -6.416442E-10
       118  13  1.639765E+05  1.273366E+05  1.543394E+05 -3.072887E+04 -1.083861E-10 -4.690815E-12
       118  14  1.455439E+05 -3.538220E+03  6.981449E+04 -1.970063E+04 -5.685817E-10 -9.084177E-10
       118  15  1.640098E+05 -6.712503E+03  4.139885E+04 -3.064513E+04 -1.517195E-09  1.012617E-10
       118  16  7.407391E+05  2.705364E+05  2.944054E+05 -8.814324E+04 -1.966635E-10 -1.099570E-10
       118  17  6.709379E+05  1.252141E+05  1.885589E+05 -3.899152E+04 -1.133709E-10 -5.997228E-11
       118  18  6.401917E+05  1.097242E+05  1.475328E+05 -1.181579E+04  2.902396E-10  6.432469E-10
       118  19 -4.124675E+05 -1.587317E+04  1.426545E+04  2.663254E+04 -8.660766E+04 -7.418248E+03
       118  20 -3.795887E+05 -1.323065E+05 -4.893916E+04 -4.250903E+02 -6.208600E+04 -2.295359E+04
       118  21 -3.119584E+05 -1.231623E+05 -6.474544E+04 -4.945919E+04 -3.757288E+04 -2.352507E+04
       118  22  1.639886E+05  1.273396E+05  1.543607E+05 -3.072824E+04 -1.060198E+05 -7.424303E+03
       118  23  1.455491E+05 -3.536380E+03  6.982440E+04 -1.969936E+04 -6.890328E+04 -2.295414E+04
       118  24  1.640111E+05 -6.711637E+03  4.140179E+04 -3.064453E+04 -3.179824E+04 -2.352277E+04
       118  25  7.407560E+05  2.705407E+05  2.944350E+05 -8.814249E+04 -1.254499E+05 -7.426769E+03
       118  26  6.709442E+05  1.252162E+05  1.885706E+05 -3.899012E+04 -7.572626E+04 -2.295426E+04
       118  27  6.401926E+05  1.097250E+05  1.475351E+05 -1.181529E+04 -2.601920E+04 -2.352012E+04
       119   1 -2.762317E+05 -9.819732E+04 -6.395075E+04 -2.814154E+04  2.712487E+04  2.046046E+04
       119   2 -2.278694E+05 -9.409440E+04 -6.780266E+04 -1.894672E+04  1.876541E+04  1.857687E+04
       119   3 -1.763324E+05 -8.194253E+04 -6.418168E+04 -3.219723E+04  1.040435E+04  1.602290E+04
       119   4  1.565443E+05  7.766806E+03  3.306522E+04 -3.077161E+04  2.583862E+04  2.045896E+04
       119   5  1.549156E+05 -4.243280E+02  1.774042E+04 -1.954873E+04  1.691049E+04  1.857576E+04
       119   6  1.565562E+05 -4.706723E+02  1.027961E+04 -3.077020E+04  7.981437E+03  1.602232E+04
       119   7  5.894946E+05  1.137182E+05  1.300694E+05 -3.340353E+04  2.455148E+04  2.045749E+04
       119   8  5.378371E+05  9.323578E+04  1.032743E+05 -2.015112E+04  1.505444E+04  1.857465E+04
       119   9  4.895480E+05  8.099365E+04  8.473395E+04 -2.934239E+04  5.557235E+03  1.602172E+04
       119  10 -2.762326E+05 -9.819797E+04 -6.395292E+04 -2.814199E+04 -1.518290E-09 -2.338224E-10
       119  11 -2.278699E+05 -9.409486E+04 -6.780397E+04 -1.894700E+04 -1.302640E-09  1.084978E-09
       119  12 -1.763326E+05 -8.194283E+04 -6.418237E+04 -3.219737E+04  2.551102E-11 -2.919976E-10
       119  13  1.565434E+05  7.766177E+03  3.306318E+04 -3.077203E+04 -3.271609E-09  4.473705E-11
       119  14  1.549152E+05 -4.247753E+02  1.773924E+04 -1.954899E+04 -1.603008E-09 -2.030806E-11
       119  15  1.565560E+05 -4.709651E+02  1.027901E+04 -3.077030E+04 -4.289738E-10 -8.717380E-11
       119  16  5.894939E+05  1.137176E+05  1.300674E+05 -3.340394E+04 -1.589017E-09  4.100210E-10
       119  17  5.378368E+05  9.323534E+04  1.032732E+05 -2.015135E+04 -1.108920E-09 -1.205806E-09
       119  18  4.895479E+05  8.099336E+04  8.473341E+04 -2.934246E+04 -5.938232E-10  7.316919E-11
       119  19 -2.762317E+05 -9.819732E+04 -6.395075E+04 -2.814154E+04 -2.712487E+04 -2.046046E+04
       119  20 -2.278694E+05 -9.409440E+04 -6.780266E+04 -1.894672E+04 -1.876541E+04 -1.857687E+04
       119  21 -1.763324E+05 -8.194253E+04 -6.418168E+04 -3.219723E+04 -1.040435E+04 -1.602290E+04
       119  22  1.565443E+05  7.766806E+03  3.306522E+04 -3.077161E+04 -2.583862E+04 -2.045896E+04
       119  23  1.549156E+05 -4.243280E+02  1.774042E+04 -1.954873E+04 -1.691049E+04 -1.857576E+04
       119  24  1.565562E+05 -4.706723E+02  1.027961E+04 -3.077020E+04 -7.981437E+03 -1.602232E+04
       119  25  5.894946E+05  1.137182E+05  1.300694E+05 -3.340353E+04 -2.455148E+04 -2.045749E+04
       119  26  5.378371E+05  9.323578E+04  1.032743E+05 -2.015112E+04 -1.505444E+04 -1.857465E+04
       119  27  4.895480E+05  8.099365E+04  8.473395E+04 -2.934239E+04 -5.557235E+03 -1.602172E+04
       120   1 -1.341110E+05 -7.052534E+04 -5.674632E+04 -3.081868E+04  8.601604E+03  1.438515E+04
       120   2 -8.447128E+04 -5.883639E+04 -4.917125E+04 -1.963254E+04  6.412937E+03  1.172500E+04
       120   3 -3.439340E+04 -4.662007E+04 -4.003492E+04 -3.088286E+04  4.223182E+03  9.035934E+03
       120   4  1.559334E+05  4.123563E+02  7.897294E+03 -3.076869E+04  6.381376E+03  1.438482E+04
       120   5  1.557173E+05 -7.353156E+01  4.461350E+03 -1.955077E+04  4.167382E+03  1.172500E+04
       120   6  1.559404E+05 -2.792388E+01  2.603523E+03 -3.076878E+04  1.952471E+03  9.036289E+03
       120   7  4.460562E+05  7.134435E+04  7.253565E+04 -3.071868E+04  4.160122E+03  1.438449E+04
       120   8  3.959597E+05  5.868541E+04  5.809035E+04 -1.946897E+04  1.920967E+03  1.172501E+04
       120   9  3.463080E+05  4.656175E+04  4.523970E+04 -3.065466E+04 -3.189290E+02  9.036642E+03
       120  10 -1.341111E+05 -7.052558E+04 -5.674684E+04 -3.081878E+04 -5.910584E-10 -1.137428E-09
       120  11 -8.447137E+04 -5.883655E+04 -4.917159E+04 -1.963260E+04 -1.781673E-09 -8.812189E-10
       120  12 -3.439344E+04 -4.662016E+04 -4.003511E+04 -3.088289E+04 -1.366356E-09  1.614686E-10
       120  13  1.559333E+05  4.121231E+02  7.896829E+03 -3.076876E+04  2.882178E-12 -2.604051E-10
       120  14  1.557173E+05 -7.368386E+01  4.461059E+03 -1.955081E+04 -1.594388E-09 -3.335401E-10
       120  15  1.559404E+05 -2.801260E+01  2.603363E+03 -3.076880E+04 -1.768793E-09  8.560633E-11
       120  16  4.460561E+05  7.134412E+04  7.253523E+04 -3.071872E+04 -7.739069E-10  6.462298E-10
       120  17  3.959596E+05  5.868526E+04  5.809008E+04 -1.946898E+04  7.515607E-10  2.674239E-10
       120  18  3.463080E+05  4.656166E+04  4.523955E+04 -3.065466E+04 -3.599447E-10  3.884692E-10
       120  19 -1.341110E+05 -7.052534E+04 -5.674632E+04 -3.081868E+04 -8.601604E+03 -1.438515E+04
       120  20 -8.447128E+04 -5.883639E+04 -4.917125E+04 -1.963254E+04 -6.412937E+03 -1.172500E+04
       120  21 -3.439340E+04 -4.662007E+04 -4.003492E+04 -3.088286E+04 -4.223182E+03 -9.035934E+03
       120  22  1.559334E+05  4.123563E+02  7.897294E+03 -3.076869E+04 -6.381376E+03 -1.438482E+04
       120  23  1.557173E+05 -7.353156E+01  4.461350E+03 -1.955077E+04 -4.167382E+03 -1.172500E+04
       120  24  1.559404E+05 -2.792388E+01  2.603523E+03 -3.076878E+04 -1.952471E+03 -9.036289E+03
       120  25  4.460562E+05  7.134435E+04  7.253565E+04 -3.071868E+04 -4.160122E+03 -1.438449E+04
       120  26  3.959597E+05  5.868541E+04  5.809035E+04 -1.946897E+04 -1.920967E+03 -1.172501E+04
       120  27  3.463080E+05  4.656175E+04  4.523970E+04 -3.065466E+04  3.189290E+02 -9.036642E+03
       121   1  8.309181E+03 -3.604959E+04 -3.079632E+04 -3.079532E+04  3.797621E+03  7.464629E+03
       121   2  5.808437E+04 -2.391708E+04 -2.059851E+04 -1.957429E+04  3.192976E+03  4.772389E+03
       121   3  1.079418E+05 -1.173797E+04 -9.998059E+03 -3.076721E+04  2.587921E+03  2.079342E+03
       121   4  1.558640E+05  1.937307E+01  2.006371E+03 -3.076383E+04  1.536507E+03  7.465131E+03
       121   5  1.558254E+05 -6.746136E+00  1.223464E+03 -1.955696E+04  9.309710E+02  4.773025E+03
       121   6  1.558668E+05  1.400684E+01  8.438006E+02 -3.076384E+04  3.250721E+02  2.080121E+03
       121   7  3.034391E+05  3.608687E+04  3.480773E+04 -3.073232E+04 -7.251376E+02  7.465633E+03
       121   8  2.535753E+05  2.390294E+04  2.304485E+04 -1.953963E+04 -1.331386E+03  4.773661E+03
       121   9  2.037939E+05  1.176583E+04  1.168553E+04 -3.076046E+04 -1.937950E+03  2.080900E+03
       121  10  8.309151E+03 -3.604966E+04 -3.079646E+04 -3.079534E+04 -3.851376E-10  5.726751E-10
       121  11  5.808435E+04 -2.391710E+04 -2.059857E+04 -1.957430E+04 -9.313923E-10  6.500260E-10
       121  12  1.079418E+05 -1.173798E+04 -9.998080E+03 -3.076722E+04 -1.755354E-09 -1.251951E-10
       121  13  1.558640E+05  1.931259E+01  2.006262E+03 -3.076384E+04 -1.103139E-09  5.777712E-10
       121  14  1.558254E+05 -6.770834E+00  1.223420E+03 -1.955697E+04 -2.143373E-09 -8.072347E-11
       121  15  1.558668E+05  1.400217E+01  8.437923E+02 -3.076384E+04 -1.233820E-09 -3.549901E-10
       121  16  3.034391E+05  3.608681E+04  3.480762E+04 -3.073232E+04 -8.955341E-10 -1.734794E-10
       121  17  2.535753E+05  2.390291E+04  2.304481E+04 -1.953963E+04 -2.322216E-09 -1.933821E-10
       121  18  2.037939E+05  1.176582E+04  1.168552E+04 -3.076046E+04  6.039882E-10 -3.605087E-10
       121  19  8.309181E+03 -3.604959E+04 -3.079632E+04 -3.079532E+04 -3.797621E+03 -7.464629E+03
       121  20  5.808437E+04 -2.391708E+04 -2.059851E+04 -1.957429E+04 -3.192976E+03 -4.772389E+03
       121  21  1.079418E+05 -1.173797E+04 -9.998059E+03 -3.076721E+04 -2.587921E+03 -2.079342E+03
       121  22  1.558640E+05  1.937307E+01  2.006371E+03 -3.076383E+04 -1.536507E+03 -7.465131E+03
       121  23  1.558254E+05 -6.746136E+00  1.223464E+03 -1.955696E+04 -9.309710E+02 -4.773025E+03
       121  24  1.558668E+05  1.400684E+01  8.438006E+02 -3.076384E+04 -3.250721E+02 -2.080121E+03
       121  25  3.034391E+05  3.608687E+04  3.480773E+04 -3.073232E+04  7.251376E+02 -7.465633E+03
       121  26  2.535753E+05  2.390294E+04  2.304485E+04 -1.953963E+04  1.331386E+03 -4.773661E+03
       121  27  2.037939E+05  1.176583E+04  1.168553E+04 -3.076046E+04  1.937950E+03 -2.080900E+03
       122   1  1.506937E+05 -1.220513E+03 -2.538553E+02 -3.077048E+04  2.442100E+03  5.117698E+02
       122   2  2.004855E+05  1.092335E+04  1.072247E+04 -1.956118E+04  2.067244E+03 -2.180852E+03
       122   3  2.503199E+05  2.309615E+04  2.194598E+04 -3.076237E+04  1.692530E+03 -4.872545E+03
       122   4  1.558586E+05  1.442285E+01  7.567973E+02 -3.076314E+04  1.792985E+02  5.125727E+02
       122   5  1.558375E+05  2.059202E+00  7.549993E+02 -1.955784E+04 -1.948279E+02 -2.180118E+03
       122   6  1.558574E+05  1.885786E+01  1.000189E+03 -3.076313E+04 -5.687827E+02 -4.871869E+03
       122   7  1.610236E+05  1.249360E+03  1.767468E+03 -3.075580E+04 -2.083521E+03  5.133756E+02
       122   8  1.111914E+05 -1.091936E+04 -9.212573E+03 -1.955451E+04 -2.456739E+03 -2.179383E+03
       122   9  6.140313E+04 -2.305903E+04 -1.994614E+04 -3.076390E+04 -2.829755E+03 -4.871193E+03
       122  10  1.506937E+05 -1.220515E+03 -2.538670E+02 -3.077048E+04 -7.231208E-10 -1.004096E-10
       122  11  2.004855E+05  1.092334E+04  1.072245E+04 -1.956118E+04 -2.140076E-09  4.221422E-10
       122  12  2.503199E+05  2.309612E+04  2.194593E+04 -3.076236E+04 -7.639009E-11 -6.013626E-10
       122  13  1.558586E+05  1.442256E+01  7.567968E+02 -3.076314E+04 -2.641398E-11  3.838984E-10
       122  14  1.558375E+05  2.054088E+00  7.549903E+02 -1.955784E+04 -2.231367E-09  7.718327E-10
       122  15  1.558573E+05  1.883229E+01  1.000144E+03 -3.076314E+04 -1.576512E-09 -5.958364E-10
       122  16  1.610236E+05  1.249358E+03  1.767459E+03 -3.075580E+04  1.770612E-09  1.743204E-10
       122  17  1.111914E+05 -1.091937E+04 -9.212593E+03 -1.955451E+04 -2.720004E-10  5.858338E-10
       122  18  6.140311E+04 -2.305906E+04 -1.994620E+04 -3.076391E+04  1.335972E-09  1.006740E-10
       122  19  1.506937E+05 -1.220513E+03 -2.538553E+02 -3.077048E+04 -2.442100E+03 -5.117698E+02
       122  20  2.004855E+05  1.092335E+04  1.072247E+04 -1.956118E+04 -2.067244E+03  2.180852E+03
       122  21  2.503199E+05  2.309615E+04  2.194598E+04 -3.076237E+04 -1.692530E+03  4.872545E+03
       122  22  1.558586E+05  1.442285E+01  7.567973E+02 -3.076314E+04 -1.792985E+02 -5.125727E+02
       122  23  1.558375E+05  2.059202E+00  7.549993E+02 -1.955784E+04  1.948279E+02  2.180118E+03
       122  24  1.558574E+05  1.885786E+01  1.000189E+03 -3.076313E+04  5.687827E+02  4.871869E+03
       122  25  1.610236E+05  1.249360E+03  1.767468E+03 -3.075580E+04  2.083521E+03 -5.133756E+02
       122  26  1.111914E+05 -1.091936E+04 -9.212573E+03 -1.955451E+04  2.456739E+03  2.179383E+03
       122  27  6.140313E+04 -2.305903E+04 -1.994614E+04 -3.076390E+04  2.829755E+03  4.871193E+03
       123   1  2.931291E+05  3.359433E+04  3.200704E+04 -3.073560E+04  1.499657E+03 -6.442887E+03
       123   2  3.428804E+05  4.573168E+04  4.375983E+04 -1.953970E+04  4.867971E+02 -9.130924E+03
       123   3  3.928312E+05  5.810973E+04  5.623248E+04 -3.076544E+04 -5.254628E+02 -1.179237E+04
       123   4  1.558888E+05 -2.261530E+00  1.228999E+03 -3.076570E+04 -7.704548E+02 -6.442312E+03
       123   5  1.557898E+05 -2.885098E+01  1.994064E+03 -1.955464E+04 -1.760795E+03 -9.130623E+03
       123   6  1.558834E+05  1.813912E+02  3.463435E+03 -3.076564E+04 -2.750456E+03 -1.179233E+04
       123   7  1.866594E+04 -3.360014E+04 -2.955021E+04 -3.079579E+04 -3.040070E+03 -6.441737E+03
       123   8 -3.126828E+04 -4.579176E+04 -3.977388E+04 -1.956958E+04 -4.007718E+03 -9.130323E+03
       123   9 -8.101211E+04 -5.775075E+04 -4.930910E+04 -3.076584E+04 -4.974609E+03 -1.179229E+04
       123  10  2.931291E+05  3.359429E+04  3.200695E+04 -3.073559E+04 -1.039421E-09 -5.009390E-10
       123  11  3.428804E+05  4.573159E+04  4.375967E+04 -1.953969E+04 -3.628960E-10  7.998380E-11
       123  12  3.928311E+05  5.810958E+04  5.623222E+04 -3.076545E+04 -2.413192E-09  4.309577E-10
       123  13  1.558888E+05 -2.306261E+00  1.228920E+03 -3.076570E+04 -9.925179E-10 -6.935790E-10
       123  14  1.557897E+05 -2.894134E+01  1.993902E+03 -1.955465E+04  2.226503E-09 -4.320563E-10
       123  15  1.558833E+05  1.812399E+02  3.463159E+03 -3.076567E+04 -5.857030E-10  6.169402E-10
       123  16  1.866592E+04 -3.360019E+04 -2.955031E+04 -3.079580E+04  4.071733E-10 -1.727090E-11
       123  17 -3.126832E+04 -4.579185E+04 -3.977407E+04 -1.956961E+04 -9.086315E-10 -6.418128E-10
       123  18 -8.101218E+04 -5.775091E+04 -4.930941E+04 -3.076589E+04  6.347617E-10  6.507003E-10
       123  19  2.931291E+05  3.359433E+04  3.200704E+04 -3.073560E+04 -1.499657E+03  6.442887E+03
       123  20  3.428804E+05  4.573168E+04  4.375983E+04 -1.953970E+04 -4.867971E+02  9.130924E+03
       123  21  3.928312E+05  5.810973E+04  5.623248E+04 -3.076544E+04  5.254628E+02  1.179237E+04
       123  22  1.558888E+05 -2.261530E+00  1.228999E+03 -3.076570E+04  7.704548E+02  6.442312E+03
       123  23  1.557898E+05 -2.885098E+01  1.994064E+03 -1.955464E+04  1.760795E+03  9.130623E+03
       123  24  1.558834E+05  1.813912E+02  3.463435E+03 -3.076564E+04  2.750456E+03  1.179233E+04
       123  25  1.866594E+04 -3.360014E+04 -2.955021E+04 -3.079579E+04  3.040070E+03  6.441737E+03
       123  26 -3.126828E+04 -4.579176E+04 -3.977388E+04 -1.956958E+04  4.007718E+03  9.130323E+03
       123  27 -8.101211E+04 -5.775075E+04 -4.930910E+04 -3.076584E+04  4.974609E+03  1.179229E+04
       124   1  4.359425E+05  6.825158E+04  6.707387E+04 -3.017020E+04 -1.041102E+03 -1.342249E+04
       124   2  4.851107E+05  8.044843E+04  8.136736E+04 -1.982446E+04 -5.442732E+03 -1.598522E+04
       124   3  5.358095E+05  9.627634E+04  9.944275E+04 -3.191039E+04 -9.843664E+03 -1.793671E+04
       124   4  1.561554E+05 -2.029323E+02  4.491793E+03 -3.076791E+04 -3.451095E+03 -1.342266E+04
       124   5  1.554306E+05 -1.925008E+02  7.720259E+03 -1.955181E+04 -7.337152E+03 -1.598587E+04
       124   6  1.561455E+05  3.360872E+03  1.437429E+04 -3.076806E+04 -1.122216E+04 -1.793770E+04
       124   7 -1.235588E+05 -6.866277E+04 -5.809520E+04 -3.136533E+04 -5.860013E+03 -1.342283E+04
       124   8 -1.741484E+05 -8.084082E+04 -6.593366E+04 -1.927931E+04 -9.230576E+03 -1.598652E+04
       124   9 -2.233843E+05 -8.956442E+04 -7.070327E+04 -2.962644E+04 -1.259983E+04 -1.793868E+04
       124  10  4.359425E+05  6.825138E+04  6.707353E+04 -3.017021E+04 -7.817333E-10  1.658719E-10
       124  11  4.851106E+05  8.044815E+04  8.136682E+04 -1.982453E+04  6.525211E-10 -2.313593E-10
       124  12  5.358093E+05  9.627597E+04  9.944196E+04 -3.191053E+04  4.164303E-10 -9.991789E-10
       124  13  1.561553E+05 -2.031290E+02  4.491432E+03 -3.076794E+04 -1.063606E-09  3.920728E-10
       124  14  1.554304E+05 -1.927897E+02  7.719677E+03 -1.955191E+04 -1.583250E-09 -5.691916E-10
       124  15  1.561453E+05  3.360493E+03  1.437345E+04 -3.076822E+04 -1.059161E-09 -8.316500E-10
       124  16 -1.235589E+05 -6.866297E+04 -5.809560E+04 -3.136539E+04 -1.596600E-09  5.666717E-10
       124  17 -1.741485E+05 -8.084111E+04 -6.593430E+04 -1.927943E+04 -2.114088E-09 -8.197255E-10
       124  18 -2.233846E+05 -8.956480E+04 -7.070418E+04 -2.962662E+04 -8.130117E-10 -5.134484E-10
       124  19  4.359425E+05  6.825158E+04  6.707387E+04 -3.017020E+04  1.041102E+03  1.342249E+04
       124  20  4.851107E+05  8.044843E+04  8.136736E+04 -1.982446E+04  5.442732E+03  1.598522E+04
       124  21  5.358095E+05  9.627634E+04  9.944275E+04 -3.191039E+04  9.843664E+03  1.793671E+04
       124  22  1.561554E+05 -2.029323E+02  4.491793E+03 -3.076791E+04  3.451095E+03  1.342266E+04
       124  23  1.554306E+05 -1.925008E+02  7.720259E+03 -1.955181E+04  7.337152E+03  1.598587E+04
       124  24  1.561455E+05  3.360872E+03  1.437429E+04 -3.076806E+04  1.122216E+04  1.793770E+04
       124  25 -1.235588E+05 -6.866277E+04 -5.809520E+04 -3.136533E+04  5.860013E+03  1.342283E+04
       124  26 -1.741484E+05 -8.084082E+04 -6.593366E+04 -1.927931E+04  9.230576E+03  1.598652E+04
       124  27 -2.233843E+05 -8.956442E+04 -7.070327E+04 -2.962644E+04  1.259983E+04  1.793868E+04
       125   1  5.822416E+05  1.004560E+05  1.122532E+05 -2.246074E+04 -8.341521E+03 -2.086306E+04
       125   2  6.233964E+05  1.141392E+05  1.370485E+05 -2.802788E+04 -3.593073E+04 -2.057190E+04
       125   3  6.826192E+05  1.852942E+05  1.941853E+05 -5.555552E+04 -6.353014E+04 -6.651206E+03
       125   4  1.593939E+05 -2.933236E+03  1.799566E+04 -3.065630E+04 -1.381298E+04 -2.086515E+04
       125   5  1.513405E+05 -1.564383E+03  3.033378E+04 -1.968929E+04 -2.993377E+04 -2.057113E+04
       125   6  1.593766E+05  5.530908E+04  6.706650E+04 -3.068232E+04 -4.606224E+04 -6.644415E+03
       125   7 -2.632871E+05 -1.063343E+05 -7.627299E+04 -3.884622E+04 -1.928076E+04 -2.086709E+04
       125   8 -3.205083E+05 -1.172830E+05 -7.639511E+04 -1.135712E+04 -2.394132E+04 -2.057020E+04
       125   9 -3.636143E+05 -7.469368E+04 -6.007060E+04 -5.830145E+03 -2.860900E+04 -6.636224E+03
       125  10  5.822414E+05  1.004555E+05  1.122523E+05 -2.246088E+04  9.697327E-10 -9.406335E-10
       125  11  6.233949E+05  1.141384E+05  1.370453E+05 -2.802848E+04  8.793965E-10 -1.318373E-10
       125  12  6.826149E+05  1.852931E+05  1.941776E+05 -5.555586E+04  1.812203E-10  3.052793E-10
       125  13  1.593935E+05 -2.933754E+03  1.799448E+04 -3.065653E+04 -1.422966E-10 -1.101750E-09
       125  14  1.513394E+05 -1.565078E+03  3.033130E+04 -1.968979E+04 -1.584754E-09 -2.508232E-10
       125  15  1.593743E+05  5.530846E+04  6.706244E+04 -3.068256E+04  2.261102E-10 -2.912525E-10
       125  16 -2.632876E+05 -1.063349E+05 -7.627450E+04 -3.884655E+04 -2.499082E-10 -3.441112E-10
       125  17 -3.205090E+05 -1.172837E+05 -7.639698E+04 -1.135751E+04 -6.702735E-10 -7.291369E-10
       125  18 -3.636152E+05 -7.469394E+04 -6.007222E+04 -5.830298E+03  2.608923E-10  3.133989E-10
       125  19  5.822416E+05  1.004560E+05  1.122532E+05 -2.246074E+04  8.341521E+03  2.086306E+04
       125  20  6.233964E+05  1.141392E+05  1.370485E+05 -2.802788E+04  3.593073E+04  2.057190E+04
       125  21  6.826192E+05  1.852942E+05  1.941853E+05 -5.555552E+04  6.353014E+04  6.651206E+03
       125  22  1.593939E+05 -2.933236E+03  1.799566E+04 -3.065630E+04  1.381298E+04  2.086515E+04
       125  23  1.513405E+05 -1.564383E+03  3.033378E+04 -1.968929E+04  2.993377E+04  2.057113E+04
       125  24  1.593766E+05  5.530908E+04  6.706650E+04 -3.068232E+04  4.606224E+04  6.644415E+03
       125  25 -2.632871E+05 -1.063343E+05 -7.627299E+04 -3.884622E+04  1.928076E+04  2.086709E+04
       125  26 -3.205083E+05 -1.172830E+05 -7.639511E+04 -1.135712E+04  2.394132E+04  2.057020E+04
       125  27 -3.636143E+05 -7.469368E+04 -6.007060E+04 -5.830145E+03  2.860900E+04  6.636224E+03
       126   1  5.466627E+05  1.691045E+06  5.449889E+05 -3.093372E+05  2.279400E+04  9.333368E+04
       126   2  3.805240E+05  1.210594E+06  3.761569E+05 -1.923855E+05  6.569843E+04  3.399513E+04
       126   3  2.656459E+05  7.510169E+05  2.587389E+05 -2.841238E+05  5.287904E+04 -2.538201E+04
       126   4  4.209258E+04 -3.387347E+05  5.050782E+04 -2.880603E+05  2.289363E+04  3.379260E+04
       126   5 -9.591452E+02 -3.448268E+05  2.348073E+04 -1.837417E+05  6.573585E+04  2.141179E+04
       126   6 -8.053920E+02 -3.383294E+05  1.536665E+04 -2.881351E+05  5.279428E+04  8.946812E+03
       126   7 -4.627777E+05 -2.364753E+06 -4.442591E+05 -2.668508E+05  2.298940E+04 -2.555483E+04
       126   8 -3.826088E+05 -1.898003E+06 -3.293512E+05 -1.751183E+05  6.577299E+04  8.859601E+03
       126   9 -2.673367E+05 -1.426568E+06 -2.280758E+05 -2.921385E+05  5.270898E+04  4.321608E+04
       126  10  5.466598E+05  1.691036E+06  5.449716E+05 -3.093389E+05  4.277607E-10  4.190995E-10
       126  11  3.805190E+05  1.210591E+06  3.761467E+05 -1.923873E+05 -9.218073E-10 -2.482582E-09
       126  12  2.656427E+05  7.510155E+05  2.587325E+05 -2.841227E+05 -9.190311E-10 -6.670741E-10
       126  13  4.209171E+04 -3.387360E+05  5.050469E+04 -2.880609E+05  1.137200E-09  6.110973E-10
       126  14 -9.639083E+02 -3.448285E+05  2.347174E+04 -1.837428E+05  1.628978E-09  3.308572E-11
       126  15 -8.084063E+02 -3.383302E+05  1.536126E+04 -2.881355E+05 -5.683319E-10  8.247010E-10
       126  16 -4.627785E+05 -2.364754E+06 -4.442613E+05 -2.668503E+05  9.715082E-10 -4.869543E-10
       126  17 -3.826134E+05 -1.898004E+06 -3.293594E+05 -1.751188E+05  1.119437E-09  2.657842E-10
       126  18 -2.673402E+05 -1.426571E+06 -2.280846E+05 -2.921403E+05 -2.027388E-09  7.032981E-10
       126  19  5.466627E+05  1.691045E+06  5.449889E+05 -3.093372E+05 -2.279400E+04 -9.333368E+04
       126  20  3.805240E+05  1.210594E+06  3.761569E+05 -1.923855E+05 -6.569843E+04 -3.399513E+04
       126  21  2.656459E+05  7.510169E+05  2.587389E+05 -2.841238E+05 -5.287904E+04  2.538201E+04
       126  22  4.209258E+04 -3.387347E+05  5.050782E+04 -2.880603E+05 -2.289363E+04 -3.379260E+04
       126  23 -9.591452E+02 -3.448268E+05  2.348073E+04 -1.837417E+05 -6.573585E+04 -2.141179E+04
       126  24 -8.053920E+02 -3.383294E+05  1.536665E+04 -2.881351E+05 -5.279428E+04 -8.946812E+03
       126  25 -4.627777E+05 -2.364753E+06 -4.442591E+05 -2.668508E+05 -2.298940E+04  2.555483E+04
       126  26 -3.826088E+05 -1.898003E+06 -3.293512E+05 -1.751183E+05 -6.577299E+04 -8.859601E+03
       126  27 -2.673367E+05 -1.426568E+06 -2.280758E+05 -2.921385E+05 -5.270898E+04 -4.321608E+04
       127   1  1.714473E+05  3.438621E+05  1.667035E+05 -2.912421E+05  3.232032E+04 -1.162756E+04
       127   2  5.333850E+04 -1.263814E+05  5.808742E+04 -1.835596E+05  1.045336E+04 -1.715255E+04
       127   3 -5.909434E+04 -5.955297E+05 -4.582854E+04 -2.870173E+05 -1.189875E+04 -2.268157E+04
       127   4  3.811838E+03 -3.407775E+05  1.320488E+04 -2.886523E+05  3.227088E+04  6.550060E+03
       127   5  7.669282E+02 -3.411587E+05  1.006898E+04 -1.830814E+05  1.040064E+04  1.430155E+03
       127   6  3.342946E+03 -3.407203E+05  1.136395E+04 -2.886537E+05 -1.195558E+04 -3.697812E+03
       127   7 -1.638554E+05 -1.024980E+06 -1.403222E+05 -2.860649E+05  3.222157E+04  2.470785E+04
       127   8 -5.180760E+04 -5.558923E+05 -3.795107E+04 -1.826032E+05  1.034793E+04  2.000650E+04
       127   9  6.577600E+04 -8.584965E+04  6.855369E+04 -2.902907E+05 -1.201250E+04  1.529367E+04
       127  10  1.714461E+05  3.438617E+05  1.667013E+05 -2.912418E+05 -1.386896E-09  9.321624E-09
       127  11  5.333830E+04 -1.263818E+05  5.808666E+04 -1.835595E+05 -1.279619E-09 -3.470881E-09
       127  12 -5.909463E+04 -5.955303E+05 -4.582977E+04 -2.870175E+05  3.269321E-10 -9.277097E-09
       127  13  3.810709E+03 -3.407778E+05  1.320285E+04 -2.886524E+05 -1.154218E-09  1.326367E-09
       127  14  7.668115E+02 -3.411588E+05  1.006877E+04 -1.830814E+05  4.437639E-10  9.989835E-11
       127  15  3.342789E+03 -3.407204E+05  1.136366E+04 -2.886537E+05 -2.200564E-09  9.028267E-10
       127  16 -1.638567E+05 -1.024981E+06 -1.403253E+05 -2.860655E+05 -1.273647E-09 -9.363515E-09
       127  17 -5.180782E+04 -5.558928E+05 -3.795202E+04 -1.826034E+05 -9.112444E-10 -6.984811E-11
       127  18  6.577578E+04 -8.584994E+04  6.855298E+04 -2.902906E+05 -2.280313E-09  9.395285E-09
       127  19  1.714473E+05  3.438621E+05  1.667035E+05 -2.912421E+05 -3.232032E+04  1.162756E+04
       127  20  5.333850E+04 -1.263814E+05  5.808742E+04 -1.835596E+05 -1.045336E+04  1.715255E+04
       127  21 -5.909434E+04 -5.955297E+05 -4.582854E+04 -2.870173E+05  1.189875E+04  2.268157E+04
       127  22  3.811838E+03 -3.407775E+05  1.320488E+04 -2.886523E+05 -3.227088E+04 -6.550060E+03
       127  23  7.669282E+02 -3.411587E+05  1.006898E+04 -1.830814E+05 -1.040064E+04 -1.430155E+03
       127  24  3.342946E+03 -3.407203E+05  1.136395E+04 -2.886537E+05  1.195558E+04  3.697812E+03
       127  25 -1.638554E+05 -1.024980E+06 -1.403222E+05 -2.860649E+05 -3.222157E+04 -2.470785E+04
       127  26 -5.180760E+04 -5.558923E+05 -3.795107E+04 -1.826032E+05 -1.034793E+04 -2.000650E+04
       127  27  6.577600E+04 -8.584965E+04  6.855369E+04 -2.902907E+05  1.201250E+04 -1.529367E+04
       128   1 -1.613840E+05 -9.979088E+05 -1.350113E+05 -2.914321E+05 -3.137299E+04 -3.747482E+04
       128   2 -2.767541E+05 -1.468597E+06 -2.377404E+05 -1.767931E+05 -4.677953E+04 -9.359198E+03
       128   3 -3.658228E+05 -1.936673E+06 -3.523763E+05 -2.714593E+05 -1.714003E+04  1.882645E+04
       128   4  6.101513E-01 -3.389991E+05  1.261912E+04 -2.882586E+05 -3.146346E+04 -5.736140E+03
       128   5 -2.960118E+02 -3.436234E+05  1.821140E+04 -1.835862E+05 -4.675881E+04 -1.540559E+04
       128   6  3.226068E+04 -3.392930E+05  3.816015E+04 -2.881882E+05 -1.704553E+04 -2.498345E+04
       128   7  1.613562E+05  3.203176E+05  1.602259E+05 -2.850813E+05 -3.155355E+04  2.603592E+04
       128   8  2.760746E+05  7.825270E+05  2.740812E+05 -1.903908E+05 -4.673798E+04 -2.146284E+04
       128   9  4.301572E+05  1.260423E+06  4.285176E+05 -3.049587E+05 -1.694880E+04 -6.890602E+04
       128  10 -1.613854E+05 -9.979105E+05 -1.350158E+05 -2.914331E+05 -9.942128E-10 -3.761525E-10
       128  11 -2.767565E+05 -1.468598E+06 -2.377447E+05 -1.767934E+05  6.706707E-11 -3.191814E-09
       128  12 -3.658232E+05 -1.936673E+06 -3.523775E+05 -2.714590E+05 -1.173269E-10 -1.014767E-09
       128  13 -4.616709E-01 -3.389994E+05  1.261720E+04 -2.882588E+05 -3.330862E-09  1.290517E-09
       128  14 -2.984232E+02 -3.436242E+05  1.820685E+04 -1.835868E+05 -1.178505E-09 -1.389652E-11
       128  15  3.226020E+04 -3.392938E+05  3.815843E+04 -2.881886E+05  2.000518E-10  4.662254E-10
       128  16  1.613549E+05  3.203166E+05  1.602227E+05 -2.850807E+05 -7.061012E-10  3.616294E-10
       128  17  2.760722E+05  7.825259E+05  2.740762E+05 -1.903917E+05  8.725444E-10  3.301463E-10
       128  18  4.301556E+05  1.260417E+06  4.285081E+05 -3.049597E+05  8.680281E-10  9.329828E-10
       128  19 -1.613840E+05 -9.979088E+05 -1.350113E+05 -2.914321E+05  3.137299E+04  3.747482E+04
       128  20 -2.767541E+05 -1.468597E+06 -2.377404E+05 -1.767931E+05  4.677953E+04  9.359198E+03
       128  21 -3.658228E+05 -1.936673E+06 -3.523763E+05 -2.714593E+05  1.714003E+04 -1.882645E+04
       128  22  6.101513E-01 -3.389991E+05  1.261912E+04 -2.882586E+05  3.146346E+04  5.736140E+03
       128  23 -2.960118E+02 -3.436234E+05  1.821140E+04 -1.835862E+05  4.675881E+04  1.540559E+04
       128  24  3.226068E+04 -3.392930E+05  3.816015E+04 -2.881882E+05  1.704553E+04  2.498345E+04
       128  25  1.613562E+05  3.203176E+05  1.602259E+05 -2.850813E+05  3.155355E+04 -2.603592E+04
       128  26  2.760746E+05  7.825270E+05  2.740812E+05 -1.903908E+05  4.673798E+04  2.146284E+04
       128  27  4.301572E+05  1.260423E+06  4.285176E+05 -3.049587E+05  1.694880E+04  6.890602E+04
       129   1 -1.723979E+06 -5.557615E+05 -3.105977E+05 -6.363862E+05 -1.362032E+05 -4.399419E+04
       129   2 -1.676375E+06 -3.576126E+05 -1.848806E+05 -6.284786E+05 -8.779425E+04 -1.078032E+04
       129   3 -1.676569E+06 -3.215717E+05 -1.392681E+05 -5.998319E+05 -3.443982E+04  9.291698E+03
       129   4 -1.302754E+06 -3.367792E+05 -1.858817E+05 -4.597270E+05 -1.207685E+05 -3.820962E+04
       129   5 -1.269832E+06 -1.858748E+05 -7.995211E+04 -4.967057E+05 -8.264854E+04 -8.851680E+03
       129   6 -1.282627E+06 -1.949838E+05 -4.592152E+04 -5.129579E+05 -3.958678E+04  7.359301E+03
       129   7 -8.813479E+05 -1.177330E+05 -6.118189E+04 -2.829438E+05 -1.053225E+05 -3.241696E+04
       129   8 -8.631241E+05 -1.411255E+04  2.496291E+04 -3.648495E+05 -7.749914E+04 -6.921229E+03
       129   9 -8.885295E+05 -6.839377E+04  4.741490E+04 -4.260376E+05 -4.473734E+04  5.425982E+03
       129  10 -1.723999E+06 -5.557686E+05 -3.106363E+05 -6.363911E+05  5.532962E-10 -3.622808E-10
       129  11 -1.676383E+06 -3.576148E+05 -1.848953E+05 -6.284793E+05  5.762924E-09  1.171512E-10
       129  12 -1.676570E+06 -3.215721E+05 -1.392705E+05 -5.998317E+05  1.187386E-09  8.430645E-10
       129  13 -1.302770E+06 -3.367847E+05 -1.859119E+05 -4.597307E+05  8.164871E-10  4.560748E-10
       129  14 -1.269839E+06 -1.858767E+05 -7.996512E+04 -4.967063E+05  1.671057E-09  1.357903E-09
       129  15 -1.282628E+06 -1.949842E+05 -4.592457E+04 -5.129577E+05  2.927187E-09  4.689928E-10
       129  16 -8.813602E+05 -1.177371E+05 -6.120474E+04 -2.829465E+05  2.999675E-09  1.059017E-09
       129  17 -8.631306E+05 -1.411421E+04  2.495152E+04 -3.648499E+05  3.226236E-09  1.926324E-09
       129  18 -8.885316E+05 -6.839434E+04  4.741108E+04 -4.260374E+05  2.218661E-09  4.646724E-11
       129  19 -1.723979E+06 -5.557615E+05 -3.105977E+05 -6.363862E+05  1.362032E+05  4.399419E+04
       129  20 -1.676375E+06 -3.576126E+05 -1.848806E+05 -6.284786E+05  8.779425E+04  1.078032E+04
       129  21 -1.676569E+06 -3.215717E+05 -1.392681E+05 -5.998319E+05  3.443982E+04 -9.291698E+03
       129  22 -1.302754E+06 -3.367792E+05 -1.858817E+05 -4.597270E+05  1.207685E+05  3.820962E+04
       129  23 -1.269832E+06 -1.858748E+05 -7.995211E+04 -4.967057E+05  8.264854E+04  8.851680E+03
       129  24 -1.282627E+06 -1.949838E+05 -4.592152E+04 -5.129579E+05  3.958678E+04 -7.359301E+03
       129  25 -8.813479E+05 -1.177330E+05 -6.118189E+04 -2.829438E+05  1.053225E+05  3.241696E+04
       129  26 -8.631241E+05 -1.411255E+04  2.496291E+04 -3.648495E+05  7.749914E+04  6.921229E+03
       129  27 -8.885295E+05 -6.839377E+04  4.741490E+04 -4.260376E+05  4.473734E+04 -5.425982E+03
       130   1 -1.614165E+06 -3.395336E+05 -1.207972E+05 -5.997908E+05 -3.140713E+04  7.179974E+03
       130   2 -1.576603E+06 -3.038616E+05 -9.171250E+04 -5.799545E+05 -2.078503E+04  9.173291E+03
       130   3 -1.528838E+06 -2.937013E+05 -7.280939E+04 -5.753158E+05 -9.927349E+03  1.053795E+04
       130   4 -1.276565E+06 -2.102477E+05 -3.660060E+04 -5.039760E+05 -3.254187E+04  6.753056E+03
       130   5 -1.281032E+06 -1.927612E+05 -1.859898E+04 -4.981668E+05 -2.240800E+04  8.563655E+03
       130   6 -1.275198E+06 -2.006855E+05 -1.038669E+04 -5.075555E+05 -1.203936E+04  9.745383E+03
       130   7 -9.388527E+05 -8.095250E+04  4.758702E+04 -4.081131E+05 -3.367728E+04  6.325871E+03
       130   8 -9.853754E+05 -8.165493E+04  5.450761E+04 -4.163437E+05 -2.403181E+04  7.953699E+03
       130   9 -1.021496E+06 -1.076663E+05  5.203078E+04 -4.397705E+05 -1.415230E+04  8.952475E+03
       130  10 -1.614166E+06 -3.395339E+05 -1.207991E+05 -5.997906E+05  2.663032E-10  2.097121E-10
       130  11 -1.576603E+06 -3.038618E+05 -9.171347E+04 -5.799543E+05  1.899647E-09 -3.616192E-10
       130  12 -1.528838E+06 -2.937014E+05 -7.280978E+04 -5.753157E+05  5.888273E-10  5.317165E-10
       130  13 -1.276566E+06 -2.102480E+05 -3.660267E+04 -5.039758E+05  1.473255E-09 -2.611101E-10
       130  14 -1.281032E+06 -1.927615E+05 -1.860006E+04 -4.981666E+05 -2.429084E-09 -2.416636E-10
       130  15 -1.275199E+06 -2.006856E+05 -1.038715E+04 -5.075554E+05 -8.327408E-10  7.941140E-10
       130  16 -9.388540E+05 -8.095285E+04  4.758481E+04 -4.081130E+05 -1.398913E-10 -5.171404E-10
       130  17 -9.853760E+05 -8.165515E+04  5.450641E+04 -4.163435E+05 -7.839397E-10 -1.165577E-10
       130  18 -1.021496E+06 -1.076665E+05  5.203026E+04 -4.397704E+05  2.210141E-09  9.749603E-10
       130  19 -1.614165E+06 -3.395336E+05 -1.207972E+05 -5.997908E+05  3.140713E+04 -7.179974E+03
       130  20 -1.576603E+06 -3.038616E+05 -9.171250E+04 -5.799545E+05  2.078503E+04 -9.173291E+03
       130  21 -1.528838E+06 -2.937013E+05 -7.280939E+04 -5.753158E+05  9.927349E+03 -1.053795E+04
       130  22 -1.276565E+06 -2.102477E+05 -3.660060E+04 -5.039760E+05  3.254187E+04 -6.753056E+03
       130  23 -1.281032E+06 -1.927612E+05 -1.859898E+04 -4.981668E+05  2.240800E+04 -8.563655E+03
       130  24 -1.275198E+06 -2.006855E+05 -1.038669E+04 -5.075555E+05  1.203936E+04 -9.745383E+03
       130  25 -9.388527E+05 -8.095250E+04  4.758702E+04 -4.081131E+05  3.367728E+04 -6.325871E+03
       130  26 -9.853754E+05 -8.165493E+04  5.450761E+04 -4.163437E+05  2.403181E+04 -7.953699E+03
       130  27 -1.021496E+06 -1.076663E+05  5.203078E+04 -4.397705E+05  1.415230E+04 -8.952475E+03
       131   1 -1.487323E+06 -2.810539E+05 -6.028488E+04 -5.652132E+05 -8.068330E+03  9.496859E+03
       131   2 -1.450372E+06 -2.559945E+05 -4.582461E+04 -5.442235E+05 -4.946414E+03  7.836381E+03
       131   3 -1.398437E+06 -2.471817E+05 -3.318220E+04 -5.409236E+05 -1.810696E+03  6.137634E+03
       131   4 -1.274587E+06 -2.017219E+05 -7.942314E+03 -5.069546E+05 -1.000287E+04  8.771079E+03
       131   5 -1.282033E+06 -1.932920E+05 -4.314556E+03 -4.982239E+05 -6.910275E+03  7.099875E+03
       131   6 -1.274493E+06 -2.011028E+05 -2.481030E+03 -5.071837E+05 -3.804061E+03  5.390350E+03
       131   7 -1.061804E+06 -1.223865E+05  4.439709E+04 -4.486775E+05 -1.193814E+04  8.045024E+03
       131   8 -1.113666E+06 -1.305874E+05  3.719345E+04 -4.522128E+05 -8.874722E+03  6.363148E+03
       131   9 -1.150533E+06 -1.550229E+05  2.821898E+04 -4.734377E+05 -5.797860E+03  4.642904E+03
       131  10 -1.487323E+06 -2.810540E+05 -6.028517E+04 -5.652132E+05  2.370963E-10  1.178715E-09
       131  11 -1.450372E+06 -2.559945E+05 -4.582477E+04 -5.442234E+05  1.395254E-09 -2.253643E-10
       131  12 -1.398437E+06 -2.471817E+05 -3.318228E+04 -5.409236E+05  7.172602E-10 -2.547617E-10
       131  13 -1.274587E+06 -2.017221E+05 -7.942647E+03 -5.069545E+05  1.086696E-09  1.058547E-09
       131  14 -1.282033E+06 -1.932920E+05 -4.314741E+03 -4.982238E+05 -9.941905E-10  2.156237E-11
       131  15 -1.274493E+06 -2.011028E+05 -2.481112E+03 -5.071837E+05 -4.510021E-10 -4.180189E-10
       131  16 -1.061804E+06 -1.223866E+05  4.439670E+04 -4.486774E+05  1.334659E-10  4.064734E-10
       131  17 -1.113666E+06 -1.305875E+05  3.719323E+04 -4.522128E+05 -1.861196E-09  8.413411E-11
       131  18 -1.150533E+06 -1.550230E+05  2.821887E+04 -4.734377E+05 -1.289632E-09 -4.424390E-11
       131  19 -1.487323E+06 -2.810539E+05 -6.028488E+04 -5.652132E+05  8.068330E+03 -9.496859E+03
       131  20 -1.450372E+06 -2.559945E+05 -4.582461E+04 -5.442235E+05  4.946414E+03 -7.836381E+03
       131  21 -1.398437E+06 -2.471817E+05 -3.318220E+04 -5.409236E+05  1.810696E+03 -6.137634E+03
       131  22 -1.274587E+06 -2.017219E+05 -7.942314E+03 -5.069546E+05  1.000287E+04 -8.771079E+03
       131  23 -1.282033E+06 -1.932920E+05 -4.314556E+03 -4.982239E+05  6.910275E+03 -7.099875E+03
       131  24 -1.274493E+06 -2.011028E+05 -2.481030E+03 -5.071837E+05  3.804061E+03 -5.390350E+03
       131  25 -1.061804E+06 -1.223865E+05  4.439709E+04 -4.486775E+05  1.193814E+04 -8.045024E+03
       131  26 -1.113666E+06 -1.305874E+05  3.719345E+04 -4.522128E+05  8.874722E+03 -6.363148E+03
       131  27 -1.150533E+06 -1.550229E+05  2.821898E+04 -4.734377E+05  5.797860E+03 -4.642904E+03
       132   1 -1.358098E+06 -2.323151E+05 -2.242545E+04 -5.300277E+05 -8.962520E+02  4.795119E+03
       132   2 -1.321049E+06 -2.077991E+05 -1.089269E+04 -5.088229E+05  7.076081E+02  2.504296E+03
       132   3 -1.268481E+06 -1.989693E+05  1.390190E+02 -5.055417E+05  2.312755E+03  2.096294E+02
       132   4 -1.274402E+06 -2.011813E+05 -1.950167E+03 -5.071591E+05 -2.885494E+03  4.049492E+03
       132   5 -1.282156E+06 -1.933213E+05 -1.305034E+03 -4.982031E+05 -1.284628E+03  1.757612E+03
       132   6 -1.274396E+06 -2.011469E+05 -1.158541E+03 -5.071715E+05  3.174664E+02 -5.381181E+02
       132   7 -1.190698E+06 -1.700470E+05  1.852457E+04 -4.842876E+05 -4.875026E+03  3.303757E+03
       132   8 -1.243263E+06 -1.788434E+05  8.282471E+03 -4.875828E+05 -3.276990E+03  1.010881E+03
       132   9 -1.280310E+06 -2.033246E+05 -2.456073E+03 -5.088012E+05 -1.677784E+03 -1.285851E+03
       132  10 -1.358098E+06 -2.323152E+05 -2.242550E+04 -5.300277E+05  1.499576E-09  3.311634E-10
       132  11 -1.321049E+06 -2.077991E+05 -1.089271E+04 -5.088229E+05 -1.104438E-09  3.741621E-10
       132  12 -1.268481E+06 -1.989693E+05  1.390088E+02 -5.055417E+05  1.293252E-09  4.924133E-10
       132  13 -1.274402E+06 -2.011813E+05 -1.950213E+03 -5.071590E+05 -2.454479E-09 -6.488766E-10
       132  14 -1.282156E+06 -1.933213E+05 -1.305043E+03 -4.982031E+05 -7.639811E-10 -3.881823E-10
       132  15 -1.274396E+06 -2.011469E+05 -1.158542E+03 -5.071715E+05  3.839129E-09  1.384297E-09
       132  16 -1.190698E+06 -1.700470E+05  1.852450E+04 -4.842876E+05 -1.995399E-09 -9.162231E-10
       132  17 -1.243263E+06 -1.788434E+05  8.282448E+03 -4.875828E+05 -9.125445E-10 -3.650399E-10
       132  18 -1.280310E+06 -2.033246E+05 -2.456081E+03 -5.088012E+05  2.932013E-09  1.474596E-09
       132  19 -1.358098E+06 -2.323151E+05 -2.242545E+04 -5.300277E+05  8.962520E+02 -4.795119E+03
       132  20 -1.321049E+06 -2.077991E+05 -1.089269E+04 -5.088229E+05 -7.076081E+02 -2.504296E+03
       132  21 -1.268481E+06 -1.989693E+05  1.390190E+02 -5.055417E+05 -2.312755E+03 -2.096294E+02
       132  22 -1.274402E+06 -2.011813E+05 -1.950167E+03 -5.071591E+05  2.885494E+03 -4.049492E+03
       132  23 -1.282156E+06 -1.933213E+05 -1.305034E+03 -4.982031E+05  1.284628E+03 -1.757612E+03
       132  24 -1.274396E+06 -2.011469E+05 -1.158541E+03 -5.071715E+05 -3.174664E+02  5.381181E+02
       132  25 -1.190698E+06 -1.700470E+05  1.852457E+04 -4.842876E+05  4.875026E+03 -3.303757E+03
       132  26 -1.243263E+06 -1.788434E+05  8.282471E+03 -4.875828E+05  3.276990E+03 -1.010881E+03
       132  27 -1.280310E+06 -2.033246E+05 -2.456073E+03 -5.088012E+05  1.677784E+03  1.285851E+03
       133   1 -1.228181E+06 -1.839047E+05  1.032033E+04 -4.945553E+05  3.064636E+03 -1.195377E+03
       133   2 -1.191185E+06 -1.594649E+05  2.067644E+04 -4.733708E+05  4.879170E+03 -3.407702E+03
       133   3 -1.138734E+06 -1.507111E+05  3.036898E+04 -4.700786E+05  6.691480E+03 -5.612740E+03
       133   4 -1.274409E+06 -2.011404E+05 -1.236682E+03 -5.071673E+05  1.070426E+03 -1.942749E+03
       133   5 -1.282141E+06 -1.933249E+05 -1.744346E+03 -4.982107E+05  2.890431E+03 -4.153194E+03
       133   6 -1.274419E+06 -2.011966E+05 -2.919672E+03 -5.071474E+05  4.708138E+03 -6.356366E+03
       133   7 -1.320635E+06 -2.183761E+05 -1.279398E+04 -5.197787E+05 -9.236430E+02 -2.690068E+03
       133   8 -1.373089E+06 -2.271845E+05 -2.416595E+04 -5.230476E+05  9.019943E+02 -4.898572E+03
       133   9 -1.410087E+06 -2.516811E+05 -3.620992E+04 -5.442091E+05  2.725259E+03 -7.099818E+03
       133  10 -1.228181E+06 -1.839047E+05  1.032031E+04 -4.945553E+05  4.467387E-09  1.235137E-09
       133  11 -1.191186E+06 -1.594649E+05  2.067637E+04 -4.733707E+05  8.233172E-10 -4.503990E-10
       133  12 -1.138734E+06 -1.507111E+05  3.036884E+04 -4.700786E+05 -1.733392E-09 -3.847006E-10
       133  13 -1.274409E+06 -2.011404E+05 -1.236691E+03 -5.071673E+05  3.576353E-09  4.892707E-10
       133  14 -1.282141E+06 -1.933249E+05 -1.744394E+03 -4.982107E+05 -2.294753E-09 -4.301248E-10
       133  15 -1.274419E+06 -2.011966E+05 -2.919789E+03 -5.071474E+05  5.860893E-10 -8.969652E-11
       133  16 -1.320635E+06 -2.183761E+05 -1.279399E+04 -5.197787E+05  1.412059E-09  6.969552E-10
       133  17 -1.373089E+06 -2.271845E+05 -2.416599E+04 -5.230476E+05  3.378315E-11  2.624627E-10
       133  18 -1.410087E+06 -2.516812E+05 -3.621003E+04 -5.442091E+05 -6.007338E-10 -6.981104E-11
       133  19 -1.228181E+06 -1.839047E+05  1.032033E+04 -4.945553E+05 -3.064636E+03  1.195377E+03
       133  20 -1.191185E+06 -1.594649E+05  2.067644E+04 -4.733708E+05 -4.879170E+03  3.407702E+03
       133  21 -1.138734E+06 -1.507111E+05  3.036898E+04 -4.700786E+05 -6.691480E+03  5.612740E+03
       133  22 -1.274409E+06 -2.011404E+05 -1.236682E+03 -5.071673E+05 -1.070426E+03  1.942749E+03
       133  23 -1.282141E+06 -1.933249E+05 -1.744346E+03 -4.982107E+05 -2.890431E+03  4.153194E+03
       133  24 -1.274419E+06 -2.011966E+05 -2.919672E+03 -5.071474E+05 -4.708138E+03  6.356366E+03
       133  25 -1.320635E+06 -2.183761E+05 -1.279398E+04 -5.197787E+05  9.236430E+02  2.690068E+03
       133  26 -1.373089E+06 -2.271845E+05 -2.416595E+04 -5.230476E+05 -9.019943E+02  4.898572E+03
       133  27 -1.410087E+06 -2.516811E+05 -3.620992E+04 -5.442091E+05 -2.725259E+03  7.099818E+03
       134   1 -1.098732E+06 -1.357449E+05  3.966426E+04 -4.593389E+05  7.800519E+03 -6.876201E+03
       134   2 -1.061974E+06 -1.113571E+05  4.743678E+04 -4.381334E+05  1.210840E+04 -8.120161E+03
       134   3 -1.010611E+06 -1.035489E+05  5.240999E+04 -4.344651E+05  1.640087E+04 -9.319572E+03
       134   4 -1.274569E+06 -2.010750E+05 -3.810780E+03 -5.071908E+05  5.814011E+03 -7.621176E+03
       134   5 -1.281940E+06 -1.932707E+05 -6.788506E+03 -4.982400E+05  1.015537E+04 -8.852943E+03
       134   6 -1.274715E+06 -2.020535E+05 -1.259298E+04 -5.068275E+05  1.448109E+04 -1.004025E+04
       134   7 -1.450373E+06 -2.664025E+05 -4.728777E+04 -5.550300E+05  3.828135E+03 -8.365915E+03
       134   8 -1.501857E+06 -2.751808E+05 -6.101731E+04 -5.583271E+05  8.203105E+03 -9.585441E+03
       134   9 -1.538750E+06 -3.005538E+05 -7.760149E+04 -5.791622E+05  1.256219E+04 -1.076059E+04
       134  10 -1.098732E+06 -1.357450E+05  3.966406E+04 -4.593388E+05 -2.579085E-10  1.413217E-10
       134  11 -1.061974E+06 -1.113572E+05  4.743638E+04 -4.381333E+05  1.008478E-09  4.107664E-10
       134  12 -1.010611E+06 -1.035490E+05  5.240932E+04 -4.344650E+05 -1.115805E-09 -8.882423E-11
       134  13 -1.274569E+06 -2.010750E+05 -3.810952E+03 -5.071907E+05 -7.456312E-11  2.016434E-10
       134  14 -1.281940E+06 -1.932708E+05 -6.788847E+03 -4.982400E+05 -1.935431E-09 -1.959145E-10
       134  15 -1.274715E+06 -2.020537E+05 -1.259357E+04 -5.068274E+05 -2.527524E-10 -1.461634E-10
       134  16 -1.450373E+06 -2.664025E+05 -4.728793E+04 -5.550300E+05  1.114744E-09  3.950539E-10
       134  17 -1.501857E+06 -2.751810E+05 -6.101761E+04 -5.583271E+05 -1.726393E-09  2.252946E-10
       134  18 -1.538750E+06 -3.005539E+05 -7.760200E+04 -5.791621E+05  2.705445E-10  2.071595E-10
       134  19 -1.098732E+06 -1.357449E+05  3.966426E+04 -4.593389E+05 -7.800519E+03  6.876201E+03
       134  20 -1.061974E+06 -1.113571E+05  4.743678E+04 -4.381334E+05 -1.210840E+04  8.120161E+03
       134  21 -1.010611E+06 -1.035489E+05  5.240999E+04 -4.344651E+05 -1.640087E+04  9.319572E+03
       134  22 -1.274569E+06 -2.010750E+05 -3.810780E+03 -5.071908E+05 -5.814011E+03  7.621176E+03
       134  23 -1.281940E+06 -1.932707E+05 -6.788506E+03 -4.982400E+05 -1.015537E+04  8.852943E+03
       134  24 -1.274715E+06 -2.020535E+05 -1.259298E+04 -5.068275E+05 -1.448109E+04  1.004025E+04
       134  25 -1.450373E+06 -2.664025E+05 -4.728777E+04 -5.550300E+05 -3.828135E+03  8.365915E+03
       134  26 -1.501857E+06 -2.751808E+05 -6.101731E+04 -5.583271E+05 -8.203105E+03  9.585441E+03
       134  27 -1.538750E+06 -3.005538E+05 -7.760149E+04 -5.791622E+05 -1.256219E+04  1.076059E+04
       135   1 -9.702404E+05 -8.904373E+04  5.850997E+04 -4.268145E+05  1.949056E+04 -9.893829E+03
       135   2 -9.344217E+05 -6.199939E+04  5.603743E+04 -4.019745E+05  3.489962E+04 -6.780751E+03
       135   3 -8.912759E+05 -6.612502E+04  3.842562E+04 -3.908376E+05  5.005010E+04 -2.972682E+03
       135   4 -1.275671E+06 -2.004295E+05 -1.649344E+04 -5.078130E+05  1.737591E+04 -1.068784E+04
       135   5 -1.280362E+06 -1.923858E+05 -2.956622E+04 -4.981144E+05  3.332193E+04 -7.373941E+03
       135   6 -1.277840E+06 -2.156258E+05 -5.821120E+04 -5.021198E+05  4.900832E+04 -3.365447E+03
       135   7 -1.581008E+06 -3.118094E+05 -9.150353E+04 -5.887754E+05  1.526242E+04 -1.148144E+04
       135   8 -1.626185E+06 -3.227636E+05 -1.151791E+05 -5.942054E+05  3.174519E+04 -7.966764E+03
       135   9 -1.664258E+06 -3.651143E+05 -1.548602E+05 -6.133385E+05  4.796724E+04 -3.757930E+03
       135  10 -9.702408E+05 -8.904393E+04  5.850907E+04 -4.268144E+05 -1.509961E-09 -1.928737E-10
       135  11 -9.344231E+05 -6.199976E+04  5.603506E+04 -4.019743E+05 -8.046937E-10  7.979959E-10
       135  12 -8.912786E+05 -6.612570E+04  3.842089E+04 -3.908374E+05 -1.609904E-09  1.012291E-09
       135  13 -1.275671E+06 -2.004297E+05 -1.649422E+04 -5.078129E+05 -5.256217E-10 -8.198742E-11
       135  14 -1.280363E+06 -1.923862E+05 -2.956841E+04 -4.981142E+05  8.440872E-10  3.238685E-10
       135  15 -1.277842E+06 -2.156265E+05 -5.821574E+04 -5.021197E+05  9.780092E-10  8.947267E-10
       135  16 -1.581008E+06 -3.118097E+05 -9.150422E+04 -5.887753E+05  1.409079E-09 -1.897865E-10
       135  17 -1.626186E+06 -3.227639E+05 -1.151811E+05 -5.942052E+05  9.186470E-10 -1.184800E-10
       135  18 -1.664260E+06 -3.651149E+05 -1.548646E+05 -6.133384E+05  2.006849E-10  1.015420E-09
       135  19 -9.702404E+05 -8.904373E+04  5.850997E+04 -4.268145E+05 -1.949056E+04  9.893829E+03
       135  20 -9.344217E+05 -6.199939E+04  5.603743E+04 -4.019745E+05 -3.489962E+04  6.780751E+03
       135  21 -8.912759E+05 -6.612502E+04  3.842562E+04 -3.908376E+05 -5.005010E+04  2.972682E+03
       135  22 -1.275671E+06 -2.004295E+05 -1.649344E+04 -5.078130E+05 -1.737591E+04  1.068784E+04
       135  23 -1.280362E+06 -1.923858E+05 -2.956622E+04 -4.981144E+05 -3.332193E+04  7.373941E+03
       135  24 -1.277840E+06 -2.156258E+05 -5.821120E+04 -5.021198E+05 -4.900832E+04  3.365447E+03
       135  25 -1.581008E+06 -3.118094E+05 -9.150353E+04 -5.887754E+05 -1.526242E+04  1.148144E+04
       135  26 -1.626185E+06 -3.227636E+05 -1.151791E+05 -5.942054E+05 -3.174519E+04  7.966764E+03
       135  27 -1.664258E+06 -3.651143E+05 -1.548602E+05 -6.133385E+05 -4.796724E+04  3.757930E+03
       136   1 -8.346490E+05 -5.497608E+04  3.256515E+04 -4.258957E+05  6.509298E+04 -7.221253E+02
       136   2 -8.152158E+05  1.742966E+04 -9.988926E+03 -3.405332E+05  1.221583E+05  2.109355E+04
       136   3 -8.750597E+05 -1.535282E+05 -1.578725E+05 -2.121282E+05  1.737819E+05  5.739772E+04
       136   4 -1.287403E+06 -1.914270E+05 -7.304089E+04 -5.165034E+05  5.962912E+04 -2.772291E+03
       136   5 -1.262623E+06 -1.813155E+05 -1.271582E+05 -4.956777E+05  1.280219E+05  2.328885E+04
       136   6 -1.319448E+06 -4.169396E+05 -2.956533E+05 -4.317933E+05  1.909690E+05  6.382814E+04
       136   7 -1.739956E+06 -3.278795E+05 -1.786605E+05 -6.070590E+05  5.416960E+04 -4.821549E+03
       136   8 -1.709826E+06 -3.800206E+05 -2.443429E+05 -6.507109E+05  1.338808E+05  2.548162E+04
       136   9 -1.763610E+06 -6.802269E+05 -4.334476E+05 -6.512828E+05  2.081424E+05  7.024665E+04
       136  10 -8.346535E+05 -5.497722E+04  3.255718E+04 -4.258957E+05 -9.748411E-10  1.513618E-09
       136  11 -8.152320E+05  1.742517E+04 -1.001785E+04 -3.405352E+05 -2.947258E-10  2.600436E-09
       136  12 -8.750930E+05 -1.535399E+05 -1.579356E+05 -2.121363E+05  7.786380E-10  1.125698E-09
       136  13 -1.287407E+06 -1.914280E+05 -7.304760E+04 -5.165033E+05  1.177919E-09  6.795183E-10
       136  14 -1.262641E+06 -1.813205E+05 -1.271901E+05 -4.956801E+05  3.198237E-09 -5.351692E-10
       136  15 -1.319488E+06 -4.169538E+05 -2.957297E+05 -4.318031E+05  7.564992E-10  5.050591E-10
       136  16 -1.739959E+06 -3.278803E+05 -1.786661E+05 -6.070588E+05  8.819266E-10  1.135294E-09
       136  17 -1.709845E+06 -3.800261E+05 -2.443779E+05 -6.507137E+05  4.466341E-10  1.486456E-10
       136  18 -1.763658E+06 -6.802439E+05 -4.335386E+05 -6.512946E+05 -5.412731E-10  3.535807E-10
       136  19 -8.346490E+05 -5.497608E+04  3.256515E+04 -4.258957E+05 -6.509298E+04  7.221253E+02
       136  20 -8.152158E+05  1.742966E+04 -9.988926E+03 -3.405332E+05 -1.221583E+05 -2.109355E+04
       136  21 -8.750597E+05 -1.535282E+05 -1.578725E+05 -2.121282E+05 -1.737819E+05 -5.739772E+04
       136  22 -1.287403E+06 -1.914270E+05 -7.304089E+04 -5.165034E+05 -5.962912E+04  2.772291E+03
       136  23 -1.262623E+06 -1.813155E+05 -1.271582E+05 -4.956777E+05 -1.280219E+05 -2.328885E+04
       136  24 -1.319448E+06 -4.169396E+05 -2.956533E+05 -4.317933E+05 -1.909690E+05 -6.382814E+04
       136  25 -1.739956E+06 -3.278795E+05 -1.786605E+05 -6.070590E+05 -5.416960E+04  4.821549E+03
       136  26 -1.709826E+06 -3.800206E+05 -2.443429E+05 -6.507109E+05 -1.338808E+05 -2.548162E+04
       136  27 -1.763610E+06 -6.802269E+05 -4.334476E+05 -6.512828E+05 -2.081424E+05 -7.024665E+04
       137   1 -1.299523E+05 -2.021225E+04 -4.939022E+03  1.011230E+04  4.148612E+04  4.303729E+03
       137   2 -1.082197E+05 -7.666480E+04 -3.434376E+04 -2.223604E+03  3.036814E+04  1.334133E+04
       137   3 -6.940736E+04 -7.082864E+04 -4.092637E+04 -2.779572E+04  1.925450E+04  1.363187E+04
       137   4  2.064919E+05  6.338230E+04  7.682099E+04 -1.845306E+04  5.277573E+04  4.308385E+03
       137   5  1.973248E+05 -1.750949E+03  3.474866E+04 -1.181805E+04  3.430255E+04  1.334232E+04
       137   6  2.065031E+05 -3.336847E+03  2.059663E+04 -1.841812E+04  1.583442E+04  1.363045E+04
       137   7  5.430414E+05  1.469717E+05  1.585737E+05 -4.703396E+04  6.407143E+04  4.312002E+03
       137   8  5.029562E+05  7.315684E+04  1.038352E+05 -2.141728E+04  3.823887E+04  1.334319E+04
       137   9  4.824846E+05  6.415012E+04  8.211495E+04 -9.036318E+03  1.241283E+04  1.362891E+04
       137  10 -1.299542E+05 -2.021273E+04 -4.942291E+03  1.011216E+04  1.278576E-09 -7.701523E-10
       137  11 -1.082208E+05 -7.666524E+04 -3.434583E+04 -2.223930E+03 -1.173673E-09 -2.392631E-10
       137  12 -6.940780E+04 -7.082894E+04 -4.092741E+04 -2.779593E+04 -2.398280E-09 -5.290081E-10
       137  13  2.064889E+05  6.338153E+04  7.681572E+04 -1.845324E+04 -2.171990E-09  2.529959E-10
       137  14  1.973235E+05 -1.751456E+03  3.474611E+04 -1.181842E+04 -1.509356E-09 -4.286191E-10
       137  15  2.065027E+05 -3.337114E+03  2.059581E+04 -1.841830E+04  1.750585E-09 -5.618044E-10
       137  16  5.430370E+05  1.469706E+05  1.585660E+05 -4.703418E+04 -1.051904E-09  2.329316E-10
       137  17  5.029546E+05  7.315626E+04  1.038321E+05 -2.141769E+04  1.493280E-09 -3.195505E-10
       137  18  4.824844E+05  6.414988E+04  8.211431E+04 -9.036454E+03  2.689543E-09  7.171886E-10
       137  19 -1.299523E+05 -2.021225E+04 -4.939022E+03  1.011230E+04 -4.148612E+04 -4.303729E+03
       137  20 -1.082197E+05 -7.666480E+04 -3.434376E+04 -2.223604E+03 -3.036814E+04 -1.334133E+04
       137  21 -6.940736E+04 -7.082864E+04 -4.092637E+04 -2.779572E+04 -1.925450E+04 -1.363187E+04
       137  22  2.064919E+05  6.338230E+04  7.682099E+04 -1.845306E+04 -5.277573E+04 -4.308385E+03
       137  23  1.973248E+05 -1.750949E+03  3.474866E+04 -1.181805E+04 -3.430255E+04 -1.334232E+04
       137  24  2.065031E+05 -3.336847E+03  2.059663E+04 -1.841812E+04 -1.583442E+04 -1.363045E+04
       137  25  5.430414E+05  1.469717E+05  1.585737E+05 -4.703396E+04 -6.407143E+04 -4.312002E+03
       137  26  5.029562E+05  7.315684E+04  1.038352E+05 -2.141728E+04 -3.823887E+04 -1.334319E+04
       137  27  4.824846E+05  6.415012E+04  8.211495E+04 -9.036318E+03 -1.241283E+04 -1.362891E+04
       138   1 -4.710519E+04 -5.730763E+04 -3.956519E+04 -1.719600E+04  1.366580E+04  1.181314E+04
       138   2 -1.781041E+04 -5.398504E+04 -4.030301E+04 -1.145245E+04  9.563356E+03  1.066500E+04
       138   3  1.304687E+04 -4.667026E+04 -3.736501E+04 -1.922418E+04  5.460410E+03  9.125013E+03
       138   4  2.027879E+05  3.868166E+03  1.644470E+04 -1.849013E+04  1.287055E+04  1.181251E+04
       138   5  2.019810E+05 -2.087102E+02  8.808281E+03 -1.173213E+04  8.437322E+03  1.066445E+04
       138   6  2.027924E+05 -2.368393E+02  5.076214E+03 -1.848906E+04  4.003784E+03  9.124586E+03
       138   7  4.527391E+05  6.503971E+04  7.245065E+04 -1.978479E+04  1.207498E+04  1.181189E+04
       138   8  4.218174E+05  5.356434E+04  5.791653E+04 -1.201191E+04  7.310893E+03  1.066390E+04
       138   9  3.925715E+05  4.619413E+04  4.751518E+04 -1.775371E+04  2.546717E+03  9.124156E+03
       138  10 -4.710543E+04 -5.730783E+04 -3.956580E+04 -1.719613E+04  1.485720E-09 -2.815332E-10
       138  11 -1.781054E+04 -5.398519E+04 -4.030339E+04 -1.145253E+04 -4.073629E-10  4.169049E-10
       138  12  1.304681E+04 -4.667036E+04 -3.736522E+04 -1.922422E+04 -2.167904E-09  1.201783E-09
       138  13  2.027876E+05  3.867972E+03  1.644413E+04 -1.849025E+04 -2.141968E-09  4.319768E-10
       138  14  2.019809E+05 -2.088514E+02  8.807933E+03 -1.173220E+04  2.819581E-09  3.468171E-10
       138  15  2.027924E+05 -2.369330E+02  5.076028E+03 -1.848909E+04 -1.917376E-09  1.020693E-09
       138  16  4.527389E+05  6.503952E+04  7.245011E+04 -1.978491E+04 -1.457394E-09  2.852816E-10
       138  17  4.218173E+05  5.356420E+04  5.791622E+04 -1.201198E+04 -6.328626E-10 -1.485807E-10
       138  18  3.925714E+05  4.619404E+04  4.751501E+04 -1.775373E+04  2.407717E-10  1.192377E-09
       138  19 -4.710519E+04 -5.730763E+04 -3.956519E+04 -1.719600E+04 -1.366580E+04 -1.181314E+04
       138  20 -1.781041E+04 -5.398504E+04 -4.030301E+04 -1.145245E+04 -9.563356E+03 -1.066500E+04
       138  21  1.304687E+04 -4.667026E+04 -3.736501E+04 -1.922418E+04 -5.460410E+03 -9.125013E+03
       138  22  2.027879E+05  3.868166E+03  1.644470E+04 -1.849013E+04 -1.287055E+04 -1.181251E+04
       138  23  2.019810E+05 -2.087102E+02  8.808281E+03 -1.173213E+04 -8.437322E+03 -1.066445E+04
       138  24  2.027924E+05 -2.368393E+02  5.076214E+03 -1.848906E+04 -4.003784E+03 -9.124586E+03
       138  25  4.527391E+05  6.503971E+04  7.245065E+04 -1.978479E+04 -1.207498E+04 -1.181189E+04
       138  26  4.218174E+05  5.356434E+04  5.791653E+04 -1.201191E+04 -7.310893E+03 -1.066390E+04
       138  27  3.925715E+05  4.619413E+04  4.751518E+04 -1.775371E+04 -2.546717E+03 -9.124156E+03
       139   1  3.852675E+04 -3.989114E+04 -3.265409E+04 -1.853443E+04  4.553834E+03  8.140448E+03
       139   2  6.843002E+04 -3.280458E+04 -2.777731E+04 -1.180159E+04  3.511777E+03  6.538742E+03
       139   3  9.854447E+04 -2.546210E+04 -2.215576E+04 -1.856843E+04  2.469392E+03  4.920244E+03
       139   4  2.024822E+05  2.022154E+02  3.877968E+03 -1.848594E+04  3.216026E+03  8.140129E+03
       139   5  2.023768E+05 -3.786711E+01  2.128764E+03 -1.173619E+04  2.159586E+03  6.538533E+03
       139   6  2.024847E+05 -1.943839E+01  1.134293E+03 -1.848593E+04  1.102868E+03  4.920150E+03
       139   7  3.664628E+05  4.029375E+04  4.040835E+04 -1.843744E+04  1.877868E+03  8.139810E+03
       139   8  3.363404E+05  3.272763E+04  3.203372E+04 -1.167077E+04  8.071064E+02  6.538323E+03
       139   9  3.064349E+05  2.542249E+04  2.442367E+04 -1.840342E+04 -2.638831E+02  4.920056E+03
       139  10  3.852671E+04 -3.989122E+04 -3.265425E+04 -1.853446E+04  1.370847E-09  1.249359E-09
       139  11  6.842999E+04 -3.280463E+04 -2.777741E+04 -1.180161E+04 -8.675467E-09  8.452241E-12
       139  12  9.854446E+04 -2.546213E+04 -2.215582E+04 -1.856843E+04 -1.321750E-08 -1.400539E-09
       139  13  2.024822E+05  2.021415E+02  3.877824E+03 -1.848596E+04 -1.166878E-09  1.217704E-09
       139  14  2.023768E+05 -3.791427E+01  2.128675E+03 -1.173620E+04  9.406373E-12 -3.740799E-10
       139  15  2.024847E+05 -1.946471E+01  1.134245E+03 -1.848594E+04  6.723278E-10 -1.567140E-09
       139  16  3.664627E+05  4.029368E+04  4.040821E+04 -1.843745E+04 -1.757455E-09  1.074694E-09
       139  17  3.363404E+05  3.272758E+04  3.203364E+04 -1.167078E+04  6.281994E-09 -1.108385E-09
       139  18  3.064349E+05  2.542246E+04  2.442363E+04 -1.840342E+04  1.524992E-08 -1.384345E-09
       139  19  3.852675E+04 -3.989114E+04 -3.265409E+04 -1.853443E+04 -4.553834E+03 -8.140448E+03
       139  20  6.843002E+04 -3.280458E+04 -2.777731E+04 -1.180159E+04 -3.511777E+03 -6.538742E+03
       139  21  9.854447E+04 -2.546210E+04 -2.215576E+04 -1.856843E+04 -2.469392E+03 -4.920244E+03
       139  22  2.024822E+05  2.022154E+02  3.877968E+03 -1.848594E+04 -3.216026E+03 -8.140129E+03
       139  23  2.023768E+05 -3.786711E+01  2.128764E+03 -1.173619E+04 -2.159586E+03 -6.538533E+03
       139  24  2.024847E+05 -1.943839E+01  1.134293E+03 -1.848593E+04 -1.102868E+03 -4.920150E+03
       139  25  3.664628E+05  4.029375E+04  4.040835E+04 -1.843744E+04 -1.877868E+03 -8.139810E+03
       139  26  3.363404E+05  3.272763E+04  3.203372E+04 -1.167077E+04 -8.071064E+02 -6.538323E+03
       139  27  3.064349E+05  2.542249E+04  2.442367E+04 -1.840342E+04  2.638831E+02 -4.920056E+03
       140   1  1.242463E+05 -1.910764E+04 -1.658636E+04 -1.852124E+04  2.290826E+03  3.974785E+03
       140   2  1.542121E+05 -1.179918E+04 -1.052735E+04 -1.177494E+04  2.173620E+03  2.354756E+03
       140   3  1.841995E+05 -4.477335E+03 -4.388269E+03 -1.851554E+04  2.056299E+03  7.342742E+02
       140   4  2.024429E+05  3.281847E+00  7.855794E+02 -1.848313E+04  9.300491E+02  3.974740E+03
       140   5  2.024332E+05 -3.837309E+00  2.377775E+02 -1.173971E+04  8.123997E+02  2.354750E+03
       140   6  2.024438E+05  2.437047E+00 -2.297712E+02 -1.848313E+04  6.946409E+02  7.343111E+02
       140   7  2.806453E+05  1.911379E+04  1.815715E+04 -1.844500E+04 -4.308973E+02  3.974694E+03
       140   8  2.506564E+05  1.179135E+04  1.100276E+04 -1.170447E+04 -5.489252E+02  2.354744E+03
       140   9  2.206884E+05  4.482187E+03  3.928712E+03 -1.845072E+04 -6.670569E+02  7.343478E+02
       140  10  1.242463E+05 -1.910766E+04 -1.658640E+04 -1.852125E+04  1.306544E-08 -1.615599E-09
       140  11  1.542121E+05 -1.179919E+04 -1.052736E+04 -1.177495E+04  5.258124E-09 -5.080215E-10
       140  12  1.841995E+05 -4.477337E+03 -4.388278E+03 -1.851555E+04 -2.788361E-09  6.179723E-10
       140  13  2.024429E+05  3.264648E+00  7.855480E+02 -1.848313E+04  1.075528E-09 -1.270455E-09
       140  14  2.024331E+05 -3.843441E+00  2.377659E+02 -1.173971E+04 -1.112096E-09 -2.240369E-10
       140  15  2.024438E+05  2.436339E+00 -2.297731E+02 -1.848313E+04  4.850420E-10  8.130194E-10
       140  16  2.806453E+05  1.911377E+04  1.815712E+04 -1.844500E+04 -1.329610E-08 -8.889558E-10
       140  17  2.506564E+05  1.179134E+04  1.100275E+04 -1.170447E+04 -7.211693E-09  6.932517E-11
       140  18  2.206884E+05  4.482186E+03  3.928710E+03 -1.845072E+04  3.599546E-09  1.252715E-09
       140  19  1.242463E+05 -1.910764E+04 -1.658636E+04 -1.852124E+04 -2.290826E+03 -3.974785E+03
       140  20  1.542121E+05 -1.179918E+04 -1.052735E+04 -1.177494E+04 -2.173620E+03 -2.354756E+03
       140  21  1.841995E+05 -4.477335E+03 -4.388269E+03 -1.851554E+04 -2.056299E+03 -7.342742E+02
       140  22  2.024429E+05  3.281847E+00  7.855794E+02 -1.848313E+04 -9.300491E+02 -3.974740E+03
       140  23  2.024332E+05 -3.837309E+00  2.377775E+02 -1.173971E+04 -8.123997E+02 -2.354750E+03
       140  24  2.024438E+05  2.437047E+00 -2.297712E+02 -1.848313E+04 -6.946409E+02 -7.343111E+02
       140  25  2.806453E+05  1.911379E+04  1.815715E+04 -1.844500E+04  4.308973E+02 -3.974694E+03
       140  26  2.506564E+05  1.179135E+04  1.100276E+04 -1.170447E+04  5.489252E+02 -2.354744E+03
       140  27  2.206884E+05  4.482187E+03  3.928712E+03 -1.845072E+04  6.670569E+02 -7.343478E+02
       141   1  2.099069E+05  1.851524E+03  1.276076E+03 -1.852013E+04  2.120611E+03 -2.089572E+02
       141   2  2.399233E+05  9.177668E+03  7.245588E+03 -1.179481E+04  2.672844E+03 -1.829292E+03
       141   3  2.698600E+05  1.646424E+04  1.284592E+04 -1.855508E+04  3.225187E+03 -3.449163E+03
       141   4  2.024214E+05  3.441532E+00 -4.806201E+02 -1.848286E+04  7.589578E+02 -2.089175E+02
       141   5  2.024615E+05  1.461922E+01 -1.117170E+03 -1.174005E+04  1.311515E+03 -1.829285E+03
       141   6  2.024209E+05 -1.378551E+01 -2.123128E+03 -1.848287E+04  1.864155E+03 -3.449187E+03
       141   7  1.949360E+05 -1.844644E+03 -2.237313E+03 -1.844560E+04 -6.026788E+02 -2.088779E+02
       141   8  1.650009E+05 -9.148524E+03 -9.480010E+03 -1.168529E+04 -4.973379E+01 -1.829279E+03
       141   9  1.349860E+05 -1.649212E+04 -1.709246E+04 -1.841067E+04  5.032681E+02 -3.449211E+03
       141  10  2.099069E+05  1.851523E+03  1.276067E+03 -1.852013E+04  9.668064E-10  4.428504E-10
       141  11  2.399233E+05  9.177662E+03  7.245569E+03 -1.179480E+04  3.955012E-10 -6.647420E-10
       141  12  2.698600E+05  1.646423E+04  1.284588E+04 -1.855507E+04 -1.436986E-09 -6.192873E-10
       141  13  2.024214E+05  3.441330E+00 -4.806213E+02 -1.848286E+04  1.375076E-10  7.002921E-10
       141  14  2.024615E+05  1.461517E+01 -1.117180E+03 -1.174005E+04 -3.085598E-09 -3.377295E-10
       141  15  2.024209E+05 -1.379921E+01 -2.123157E+03 -1.848287E+04 -1.313063E-09 -1.444054E-10
       141  16  1.949360E+05 -1.844644E+03 -2.237313E+03 -1.844560E+04 -1.508584E-09  1.022221E-09
       141  17  1.650009E+05 -9.148527E+03 -9.480017E+03 -1.168529E+04 -2.247103E-09  2.908656E-12
       141  18  1.349860E+05 -1.649213E+04 -1.709248E+04 -1.841067E+04 -2.928858E-10  3.441211E-10
       141  19  2.099069E+05  1.851524E+03  1.276076E+03 -1.852013E+04 -2.120611E+03  2.089572E+02
       141  20  2.399233E+05  9.177668E+03  7.245588E+03 -1.179481E+04 -2.672844E+03  1.829292E+03
       141  21  2.698600E+05  1.646424E+04  1.284592E+04 -1.855508E+04 -3.225187E+03  3.449163E+03
       141  22  2.024214E+05  3.441532E+00 -4.806201E+02 -1.848286E+04 -7.589578E+02  2.089175E+02
       141  23  2.024615E+05  1.461922E+01 -1.117170E+03 -1.174005E+04 -1.311515E+03  1.829285E+03
       141  24  2.024209E+05 -1.378551E+01 -2.123128E+03 -1.848287E+04 -1.864155E+03  3.449187E+03
       141  25  1.949360E+05 -1.844644E+03 -2.237313E+03 -1.844560E+04  6.026788E+02  2.088779E+02
       141  26  1.650009E+05 -9.148524E+03 -9.480010E+03 -1.168529E+04  4.973379E+01  1.829279E+03
       141  27  1.349860E+05 -1.649212E+04 -1.709246E+04 -1.841067E+04 -5.032681E+02  3.449211E+03
       142   1  2.955180E+05  2.284733E+04  1.804830E+04 -1.865782E+04  3.677729E+03 -4.394306E+03
       142   2  3.257561E+05  3.020095E+04  2.249514E+04 -1.185004E+04  6.148841E+03 -6.012076E+03
       142   3  3.555335E+05  3.695842E+04  2.518668E+04 -1.854126E+04  8.620296E+03 -7.613428E+03
       142   4  2.023348E+05  3.875204E+01 -2.837804E+03 -1.848589E+04  2.311034E+03 -4.394372E+03
       142   5  2.025658E+05  7.026584E+01 -5.005200E+03 -1.173630E+04  4.795474E+03 -6.012248E+03
       142   6  2.023331E+05 -4.966340E+02 -8.937311E+03 -1.848587E+04  7.280140E+03 -7.613701E+03
       142   7  1.091597E+05 -2.277042E+04 -2.372445E+04 -1.831398E+04  9.445432E+02 -4.394439E+03
       142   8  7.938957E+04 -3.006145E+04 -3.250649E+04 -1.162258E+04  3.442373E+03 -6.012420E+03
       142   9  4.915462E+04 -3.795328E+04 -4.306277E+04 -1.843050E+04  5.940311E+03 -7.613975E+03
       142  10  2.955180E+05  2.284731E+04  1.804824E+04 -1.865781E+04 -2.075752E-09  1.434289E-10
       142  11  3.257560E+05  3.020090E+04  2.249500E+04 -1.185001E+04 -6.042209E-10  8.214049E-10
       142  12  3.555334E+05  3.695833E+04  2.518644E+04 -1.854120E+04 -6.366756E-10  1.919284E-10
       142  13  2.023348E+05  3.872987E+01 -2.837850E+03 -1.848588E+04 -2.152197E-09  1.164117E-10
       142  14  2.025657E+05  7.022085E+01 -5.005312E+03 -1.173628E+04 -1.144377E-09  5.646121E-11
       142  15  2.023330E+05 -4.967105E+02 -8.937520E+03 -1.848583E+04  9.247308E-10  1.870389E-10
       142  16  1.091597E+05 -2.277044E+04 -2.372449E+04 -1.831398E+04 -3.312527E-10  3.269732E-11
       142  17  7.938955E+04 -3.006149E+04 -3.250658E+04 -1.162257E+04 -7.845962E-10 -9.256640E-10
       142  18  4.915457E+04 -3.795335E+04 -4.306294E+04 -1.843046E+04 -2.116819E-11  3.214295E-10
       142  19  2.955180E+05  2.284733E+04  1.804830E+04 -1.865782E+04 -3.677729E+03  4.394306E+03
       142  20  3.257561E+05  3.020095E+04  2.249514E+04 -1.185004E+04 -6.148841E+03  6.012076E+03
       142  21  3.555335E+05  3.695842E+04  2.518668E+04 -1.854126E+04 -8.620296E+03  7.613428E+03
       142  22  2.023348E+05  3.875204E+01 -2.837804E+03 -1.848589E+04 -2.311034E+03  4.394372E+03
       142  23  2.025658E+05  7.026584E+01 -5.005200E+03 -1.173630E+04 -4.795474E+03  6.012248E+03
       142  24  2.023331E+05 -4.966340E+02 -8.937311E+03 -1.848587E+04 -7.280140E+03  7.613701E+03
       142  25  1.091597E+05 -2.277042E+04 -2.372445E+04 -1.831398E+04 -9.445432E+02  4.394439E+03
       142  26  7.938957E+04 -3.006145E+04 -3.250649E+04 -1.162258E+04 -3.442373E+03  6.012420E+03
       142  27  4.915462E+04 -3.795328E+04 -4.306277E+04 -1.843050E+04 -5.940311E+03  7.613975E+03
       143   1  3.806259E+05  4.429775E+04  2.838124E+04 -2.009160E+04  1.054829E+04 -8.595770E+03
       143   2  4.124765E+05  5.155954E+04  2.654280E+04 -1.095807E+04  2.037682E+04 -1.013379E+04
       143   3  4.407765E+05  4.961917E+04  1.601487E+04 -1.533023E+04  3.020617E+04 -1.129050E+04
       143   4  2.016321E+05  5.051417E+02 -1.165085E+04 -1.848807E+04  9.092284E+03 -8.596122E+03
       143   5  2.034358E+05  4.263118E+02 -2.015520E+04 -1.173389E+04  1.923809E+04 -1.013431E+04
       143   6  2.016308E+05 -8.911776E+03 -3.757167E+04 -1.848586E+04  2.938425E+04 -1.129120E+04
       143   7  2.266815E+04 -4.328964E+04 -5.168496E+04 -1.688499E+04  7.636694E+03 -8.596482E+03
       143   8 -5.564218E+03 -5.070988E+04 -6.685594E+04 -1.250946E+04  1.809974E+04 -1.013483E+04
       143   9 -3.746159E+04 -6.744658E+04 -9.116183E+04 -2.164027E+04  2.856265E+04 -1.129189E+04
       143  10  3.806257E+05  4.429765E+04  2.838089E+04 -2.009153E+04 -7.003862E-11 -3.156686E-10
       143  11  4.124760E+05  5.155932E+04  2.654183E+04 -1.095790E+04 -5.245368E-10 -2.469222E-10
       143  12  4.407754E+05  4.961879E+04  1.601292E+04 -1.532995E+04 -5.030289E-10 -7.870740E-10
       143  13  2.016320E+05  5.050402E+02 -1.165115E+04 -1.848800E+04 -6.404604E-12  8.905639E-11
       143  14  2.034354E+05  4.261022E+02 -2.015609E+04 -1.173374E+04  3.247912E-09 -3.917945E-10
       143  15  2.016298E+05 -8.912145E+03 -3.757353E+04 -1.848559E+04  2.280739E-10 -8.100140E-10
       143  16  2.266807E+04 -4.328974E+04 -5.168521E+04 -1.688494E+04 -1.458991E-09  6.885875E-10
       143  17 -5.564597E+03 -5.071008E+04 -6.685675E+04 -1.250931E+04 -1.934369E-10  1.062785E-10
       143  18 -3.746251E+04 -6.744694E+04 -9.116360E+04 -2.164001E+04  1.170535E-10 -6.683078E-10
       143  19  3.806259E+05  4.429775E+04  2.838124E+04 -2.009160E+04 -1.054829E+04  8.595770E+03
       143  20  4.124765E+05  5.155954E+04  2.654280E+04 -1.095807E+04 -2.037682E+04  1.013379E+04
       143  21  4.407765E+05  4.961917E+04  1.601487E+04 -1.533023E+04 -3.020617E+04  1.129050E+04
       143  22  2.016321E+05  5.051417E+02 -1.165085E+04 -1.848807E+04 -9.092284E+03  8.596122E+03
       143  23  2.034358E+05  4.263118E+02 -2.015520E+04 -1.173389E+04 -1.923809E+04  1.013431E+04
       143  24  2.016308E+05 -8.911776E+03 -3.757167E+04 -1.848586E+04 -2.938425E+04  1.129120E+04
       143  25  2.266815E+04 -4.328964E+04 -5.168496E+04 -1.688499E+04 -7.636694E+03  8.596482E+03
       143  26 -5.564218E+03 -5.070988E+04 -6.685594E+04 -1.250946E+04 -1.809974E+04  1.013483E+04
       143  27 -3.746159E+04 -6.744658E+04 -9.116183E+04 -2.164027E+04 -2.856265E+04  1.129189E+04
       144   1  4.583542E+05  7.236005E+04  1.207109E+04 -3.959491E+04  3.952673E+04 -1.307775E+04
       144   2  5.088051E+05  7.618387E+04 -1.271407E+04  1.046842E+04  7.459990E+04 -1.281454E+04
       144   3  5.188075E+05 -6.380692E+04 -9.625528E+04  4.738728E+04  1.096709E+05 -4.057549E+03
       144   4  1.931587E+05  7.535828E+03 -4.704232E+04 -1.842641E+04  3.615511E+04 -1.307796E+04
       144   5  2.140199E+05  3.897743E+03 -7.935884E+04 -1.181682E+04  7.834638E+04 -1.281593E+04
       144   6  1.931722E+05 -1.448344E+05 -1.753928E+05 -1.835214E+04  1.205331E+05 -4.063223E+03
       144   7 -7.197028E+04 -5.729147E+04 -1.061599E+05  2.732949E+03  3.278492E+04 -1.307840E+04
       144   8 -8.068345E+04 -6.839249E+04 -1.460089E+05 -3.409138E+04  8.209108E+04 -1.281758E+04
       144   9 -1.323568E+05 -2.258535E+05 -2.545353E+05 -8.405701E+04  1.313896E+05 -4.071200E+03
       144  10  4.583525E+05  7.235945E+04  1.206783E+04 -3.959449E+04 -3.626521E-10 -1.177720E-09
       144  11  5.087991E+05  7.618220E+04 -1.272483E+04  1.046919E+04 -4.773944E-10 -1.615822E-09
       144  12  5.187946E+05 -6.381016E+04 -9.627790E+04  4.738764E+04 -2.317403E-09 -5.712369E-10
       144  13  1.931573E+05  7.535293E+03 -4.704510E+04 -1.842603E+04 -1.354280E-09 -2.283134E-09
       144  14  2.140133E+05  3.895919E+03 -7.937068E+04 -1.181601E+04 -1.877214E-09  5.200032E-10
       144  15  1.931566E+05 -1.448383E+05 -1.754202E+05 -1.835174E+04  2.259310E-11 -1.653547E-10
       144  16 -7.197148E+04 -5.729194E+04 -1.061622E+05  2.733294E+03 -1.733965E-10 -8.853115E-10
       144  17 -8.069073E+04 -6.839448E+04 -1.460219E+05 -3.409053E+04  4.252579E-10  8.352172E-11
       144  18 -1.323753E+05 -2.258581E+05 -2.545678E+05 -8.405658E+04  1.688759E-09 -6.418554E-10
       144  19  4.583542E+05  7.236005E+04  1.207109E+04 -3.959491E+04 -3.952673E+04  1.307775E+04
       144  20  5.088051E+05  7.618387E+04 -1.271407E+04  1.046842E+04 -7.459990E+04  1.281454E+04
       144  21  5.188075E+05 -6.380692E+04 -9.625528E+04  4.738728E+04 -1.096709E+05  4.057549E+03
       144  22  1.931587E+05  7.535828E+03 -4.704232E+04 -1.842641E+04 -3.615511E+04  1.307796E+04
       144  23  2.140199E+05  3.897743E+03 -7.935884E+04 -1.181682E+04 -7.834638E+04  1.281593E+04
       144  24  1.931722E+05 -1.448344E+05 -1.753928E+05 -1.835214E+04 -1.205331E+05  4.063223E+03
       144  25 -7.197028E+04 -5.729147E+04 -1.061599E+05  2.732949E+03 -3.278492E+04  1.307840E+04
       144  26 -8.068345E+04 -6.839249E+04 -1.460089E+05 -3.409138E+04 -8.209108E+04  1.281758E+04
       144  27 -1.323568E+05 -2.258535E+05 -2.545353E+05 -8.405701E+04 -1.313896E+05  4.071200E+03
       145   1  3.600609E+05  1.301781E+06  3.550162E+05 -2.053888E+05  1.582342E+04  5.027725E+04
       145   2  2.639389E+05  9.725291E+05  2.497127E+05 -1.300233E+05  4.551956E+04  1.490230E+04
       145   3  1.847056E+05  6.522467E+05  1.716456E+05 -1.988777E+05  3.664449E+04 -2.049701E+04
       145   4  1.087684E+04 -1.028818E+05  1.278863E+04 -1.993942E+05  1.587285E+04  9.095317E+03
       145   5 -1.796329E+02 -1.044134E+05  5.525246E+03 -1.272846E+05  4.553795E+04  6.185978E+03
       145   6  4.581384E+01 -1.026849E+05  2.996075E+03 -1.994081E+05  3.660232E+04  3.233856E+03
       145   7 -3.384516E+05 -1.505743E+06 -3.295759E+05 -1.934125E+05  1.592156E+04 -3.199384E+04
       145   8 -2.643780E+05 -1.180280E+06 -2.387368E+05 -1.245501E+05  4.555628E+04 -2.515386E+03
       145   9 -1.846524E+05 -8.570845E+05 -1.656872E+05 -1.999376E+05  3.656008E+04  2.693619E+04
       145  10  3.600600E+05  1.301778E+06  3.550110E+05 -2.053895E+05  2.615807E-10  1.060695E-09
       145  11  2.639366E+05  9.725283E+05  2.497084E+05 -1.300239E+05  1.259539E-09 -4.434714E-09
       145  12  1.847041E+05  6.522458E+05  1.716423E+05 -1.988771E+05  1.300157E-09 -1.090390E-08
       145  13  1.087655E+04 -1.028820E+05  1.278800E+04 -1.993944E+05 -1.439202E-09  1.081292E-11
       145  14 -1.818699E+02 -1.044140E+05  5.521277E+03 -1.272848E+05 -2.854470E-09 -1.284270E-11
       145  15  4.437241E+01 -1.026853E+05  2.993537E+03 -1.994082E+05  9.731500E-10 -2.004335E-10
       145  16 -3.384522E+05 -1.505744E+06 -3.295783E+05 -1.934121E+05 -9.799007E-10 -2.235708E-09
       145  17 -2.643802E+05 -1.180280E+06 -2.387407E+05 -1.245501E+05  1.161128E-11  5.829783E-09
       145  18 -1.846541E+05 -8.570857E+05 -1.656910E+05 -1.999384E+05  4.302907E-10  1.054381E-08
       145  19  3.600609E+05  1.301781E+06  3.550162E+05 -2.053888E+05 -1.582342E+04 -5.027725E+04
       145  20  2.639389E+05  9.725291E+05  2.497127E+05 -1.300233E+05 -4.551956E+04 -1.490230E+04
       145  21  1.847056E+05  6.522467E+05  1.716456E+05 -1.988777E+05 -3.664449E+04  2.049701E+04
       145  22  1.087684E+04 -1.028818E+05  1.278863E+04 -1.993942E+05 -1.587285E+04 -9.095317E+03
       145  23 -1.796329E+02 -1.044134E+05  5.525246E+03 -1.272846E+05 -4.553795E+04 -6.185978E+03
       145  24  4.581384E+01 -1.026849E+05  2.996075E+03 -1.994081E+05 -3.660232E+04 -3.233856E+03
       145  25 -3.384516E+05 -1.505743E+06 -3.295759E+05 -1.934125E+05 -1.592156E+04  3.199384E+04
       145  26 -2.643780E+05 -1.180280E+06 -2.387368E+05 -1.245501E+05 -4.555628E+04  2.515386E+03
       145  27 -1.846524E+05 -8.570845E+05 -1.656872E+05 -1.999376E+05 -3.656008E+04 -2.693619E+04
       146   1  1.177727E+05  3.720959E+05  1.087006E+05 -2.005481E+05  2.244345E+04 -9.751972E+03
       146   2  3.745754E+04  4.789895E+04  3.407550E+04 -1.271675E+05  7.338730E+03 -1.021466E+04
       146   3 -4.221156E+04 -2.765998E+05 -4.024346E+04 -1.995742E+05 -8.107376E+03 -1.068107E+04
       146   4  1.362283E+03 -1.034295E+05  2.102079E+03 -1.997490E+05  2.241903E+04  2.796282E+03
       146   5  4.835325E+02 -1.031912E+05  3.036995E+02 -1.268556E+05  7.312678E+03  2.617959E+03
       146   6  2.084092E+02 -1.034018E+05 -1.380841E+03 -1.997514E+05 -8.135463E+03  2.435695E+03
       146   7 -1.150635E+05 -5.787441E+05 -1.045101E+05 -1.989504E+05  2.239463E+04  1.533503E+04
       146   8 -3.649194E+04 -2.542596E+05 -3.346892E+04 -1.265437E+05  7.286635E+03  1.544749E+04
       146   9  4.262642E+04  6.982457E+04  3.748052E+04 -1.999287E+05 -8.163552E+03  1.555608E+04
       146  10  1.177721E+05  3.720957E+05  1.086994E+05 -2.005480E+05  2.074324E-09 -1.098188E-08
       146  11  3.745746E+04  4.789882E+04  3.407520E+04 -1.271675E+05  3.190972E-09  2.164748E-09
       146  12 -4.221166E+04 -2.765999E+05 -4.024380E+04 -1.995742E+05 -6.217812E-10  1.322499E-08
       146  13  1.361741E+03 -1.034296E+05  2.101120E+03 -1.997491E+05  1.518243E-09  2.184803E-12
       146  14  4.834732E+02 -1.031912E+05  3.035862E+02 -1.268556E+05  4.534293E-09 -2.986655E-11
       146  15  2.083365E+02 -1.034018E+05 -1.380977E+03 -1.997514E+05 -5.553837E-10 -2.065784E-10
       146  16 -1.150641E+05 -5.787444E+05 -1.045115E+05 -1.989506E+05  1.916268E-09  8.135906E-09
       146  17 -3.649206E+04 -2.542599E+05 -3.346946E+04 -1.265438E+05  3.813262E-09 -2.293450E-10
       146  18  4.262628E+04  6.982429E+04  3.747994E+04 -1.999286E+05 -7.858709E-10 -1.361703E-08
       146  19  1.177727E+05  3.720959E+05  1.087006E+05 -2.005481E+05 -2.244345E+04  9.751972E+03
       146  20  3.745754E+04  4.789895E+04  3.407550E+04 -1.271675E+05 -7.338730E+03  1.021466E+04
       146  21 -4.221156E+04 -2.765998E+05 -4.024346E+04 -1.995742E+05  8.107376E+03  1.068107E+04
       146  22  1.362283E+03 -1.034295E+05  2.102079E+03 -1.997490E+05 -2.241903E+04 -2.796282E+03
       146  23  4.835325E+02 -1.031912E+05  3.036995E+02 -1.268556E+05 -7.312678E+03 -2.617959E+03
       146  24  2.084092E+02 -1.034018E+05 -1.380841E+03 -1.997514E+05  8.135463E+03 -2.435695E+03
       146  25 -1.150635E+05 -5.787441E+05 -1.045101E+05 -1.989504E+05 -2.239463E+04 -1.533503E+04
       146  26 -3.649194E+04 -2.542596E+05 -3.346892E+04 -1.265437E+05 -7.286635E+03 -1.544749E+04
       146  27  4.262642E+04  6.982457E+04  3.748052E+04 -1.999287E+05  8.163552E+03 -1.555608E+04
       147   1 -1.095171E+05 -5.561462E+05 -1.034397E+05 -1.975216E+05 -2.155816E+04 -1.924378E+04
       147   2 -1.896482E+05 -8.770319E+05 -1.805642E+05 -1.275303E+05 -3.220764E+04  9.163566E+03
       147   3 -2.823013E+05 -1.204929E+06 -2.794110E+05 -2.021374E+05 -1.182660E+04  3.760129E+04
       147   4  1.230184E+03 -1.039161E+05 -2.148751E+03 -1.994798E+05 -2.160273E+04  2.669043E+03
       147   5  5.238818E+02 -1.026966E+05 -4.472626E+03 -1.271929E+05 -3.219758E+04  5.041402E+03
       147   6 -8.167043E+03 -1.040589E+05 -1.041759E+04 -1.994944E+05 -1.177899E+04  7.459544E+03
       147   7  1.119638E+05  3.485056E+05  9.913107E+04 -2.014393E+05 -2.164742E+04  2.459767E+04
       147   8  1.906545E+05  6.721958E+05  1.715801E+05 -1.268547E+05 -3.218753E+04  9.141347E+02
       147   9  2.658781E+05  9.979197E+05  2.584908E+05 -1.968462E+05 -1.173170E+04 -2.273562E+04
       147  10 -1.095177E+05 -5.561467E+05 -1.034413E+05 -1.975219E+05 -3.562806E-09  1.118278E-08
       147  11 -1.896493E+05 -8.770323E+05 -1.805663E+05 -1.275301E+05 -1.931347E-09  2.156853E-09
       147  12 -2.823018E+05 -1.204931E+06 -2.794139E+05 -2.021370E+05 -6.243896E-11 -7.142035E-09
       147  13  1.229681E+03 -1.039162E+05 -2.149641E+03 -1.994797E+05 -2.086266E-09  3.285509E-11
       147  14  5.227619E+02 -1.026969E+05 -4.474622E+03 -1.271928E+05 -1.452239E-09  2.909307E-11
       147  15 -8.167206E+03 -1.040590E+05 -1.041795E+04 -1.994944E+05 -9.025691E-10 -1.763939E-10
       147  16  1.119631E+05  3.485049E+05  9.912906E+04 -2.014389E+05 -1.644048E-09 -1.399812E-08
       147  17  1.906534E+05  6.721955E+05  1.715781E+05 -1.268547E+05 -6.604173E-10 -4.254013E-10
       147  18  2.658778E+05  9.979191E+05  2.584896E+05 -1.968464E+05  1.195630E-10  6.965603E-09
       147  19 -1.095171E+05 -5.561462E+05 -1.034397E+05 -1.975216E+05  2.155816E+04  1.924378E+04
       147  20 -1.896482E+05 -8.770319E+05 -1.805642E+05 -1.275303E+05  3.220764E+04 -9.163566E+03
       147  21 -2.823013E+05 -1.204929E+06 -2.794110E+05 -2.021374E+05  1.182660E+04 -3.760129E+04
       147  22  1.230184E+03 -1.039161E+05 -2.148751E+03 -1.994798E+05  2.160273E+04 -2.669043E+03
       147  23  5.238818E+02 -1.026966E+05 -4.472626E+03 -1.271929E+05  3.219758E+04 -5.041402E+03
       147  24 -8.167043E+03 -1.040589E+05 -1.041759E+04 -1.994944E+05  1.177899E+04 -7.459544E+03
       147  25  1.119638E+05  3.485056E+05  9.913107E+04 -2.014393E+05  2.164742E+04 -2.459767E+04
       147  26  1.906545E+05  6.721958E+05  1.715801E+05 -1.268547E+05  3.218753E+04 -9.141347E+02
       147  27  2.658781E+05  9.979197E+05  2.584908E+05 -1.968462E+05  1.173170E+04  2.273562E+04
       148   1 -8.123762E+05 -2.986448E+05 -1.758669E+05 -2.999630E+05 -6.304198E+04 -1.812993E+04
       148   2 -7.701291E+05 -2.009929E+05 -1.135277E+05 -2.842646E+05 -4.061248E+04  1.641659E+03
       148   3 -7.393907E+05 -1.806614E+05 -8.762965E+04 -2.703755E+05 -1.423825E+04  1.092118E+04
       148   4 -4.630756E+05 -1.420298E+05 -7.734118E+04 -1.789950E+05 -5.112627E+04 -1.365718E+04
       148   5 -4.539705E+05 -7.469379E+04 -3.327934E+04 -1.891624E+05 -3.693050E+04  3.022977E+03
       148   6 -4.547301E+05 -8.302803E+04 -1.911620E+04 -2.011434E+05 -1.879303E+04  9.211180E+03
       148   7 -1.136533E+05  1.460865E+04  2.117418E+04 -5.795983E+04 -3.920314E+04 -9.180433E+03
       148   8 -1.377124E+05  5.161628E+04  4.696122E+04 -9.401438E+04 -3.324646E+04  4.405194E+03
       148   9 -1.699897E+05  1.460786E+04  4.939148E+04 -1.318838E+05 -2.335009E+04  7.500481E+03
       148  10 -8.123806E+05 -2.986463E+05 -1.758750E+05 -2.999640E+05 -6.319130E-10  4.059705E-10
       148  11 -7.701309E+05 -2.009933E+05 -1.135308E+05 -2.842646E+05  1.186477E-09  1.502215E-10
       148  12 -7.393909E+05 -1.806616E+05 -8.763025E+04 -2.703754E+05 -5.139944E-10 -1.147798E-09
       148  13 -4.630785E+05 -1.420307E+05 -7.734644E+04 -1.789956E+05 -1.119687E-09 -1.105798E-10
       148  14 -4.539719E+05 -7.469417E+04 -3.328192E+04 -1.891623E+05 -4.417718E-10 -8.848044E-11
       148  15 -4.547305E+05 -8.302821E+04 -1.911702E+04 -2.011432E+05  6.920153E-10 -7.608872E-10
       148  16 -1.136550E+05  1.460815E+04  2.117113E+04 -5.796012E+04 -4.723661E-10 -3.569243E-10
       148  17 -1.377136E+05  5.161596E+04  4.695910E+04 -9.401426E+04 -6.209767E-10 -9.483155E-10
       148  18 -1.699903E+05  1.460766E+04  4.939035E+04 -1.318836E+05  3.997146E-10  6.683152E-10
       148  19 -8.123762E+05 -2.986448E+05 -1.758669E+05 -2.999630E+05  6.304198E+04  1.812993E+04
       148  20 -7.701291E+05 -2.009929E+05 -1.135277E+05 -2.842646E+05  4.061248E+04 -1.641659E+03
       148  21 -7.393907E+05 -1.806614E+05 -8.762965E+04 -2.703755E+05  1.423825E+04 -1.092118E+04
       148  22 -4.630756E+05 -1.420298E+05 -7.734118E+04 -1.789950E+05  5.112627E+04  1.365718E+04
       148  23 -4.539705E+05 -7.469379E+04 -3.327934E+04 -1.891624E+05  3.693050E+04 -3.022977E+03
       148  24 -4.547301E+05 -8.302803E+04 -1.911620E+04 -2.011434E+05  1.879303E+04 -9.211180E+03
       148  25 -1.136533E+05  1.460865E+04  2.117418E+04 -5.795983E+04  3.920314E+04  9.180433E+03
       148  26 -1.377124E+05  5.161628E+04  4.696122E+04 -9.401438E+04  3.324646E+04 -4.405194E+03
       148  27 -1.699897E+05  1.460786E+04  4.939148E+04 -1.318838E+05  2.335009E+04 -7.500481E+03
       149   1 -6.895498E+05 -1.792827E+05 -7.419471E+04 -2.638417E+05 -1.398781E+04  8.045521E+03
       149   2 -6.521018E+05 -1.499844E+05 -5.552355E+04 -2.430897E+05 -8.921313E+03  7.727320E+03
       149   3 -6.012428E+05 -1.405324E+05 -4.123404E+04 -2.391935E+05 -3.670683E+03  6.917186E+03
       149   4 -4.521878E+05 -8.939467E+04 -1.523893E+04 -1.974299E+05 -1.532606E+04  7.542895E+03
       149   5 -4.586472E+05 -7.751839E+04 -7.751576E+03 -1.897476E+05 -1.064460E+04  7.080504E+03
       149   6 -4.516206E+05 -8.541098E+04 -4.339184E+03 -1.989218E+05 -5.779354E+03  6.126125E+03
       149   7 -2.147713E+05  4.971522E+02  4.371220E+04 -1.309951E+05 -1.666487E+04  7.040055E+03
       149   8 -2.651559E+05 -5.049748E+03  4.001754E+04 -1.363903E+05 -1.236848E+04  6.433465E+03
       149   9 -3.019757E+05 -3.028798E+04  3.255417E+04 -1.586411E+05 -7.888589E+03  5.334858E+03
       149  10 -6.895501E+05 -1.792828E+05 -7.419520E+04 -2.638416E+05 -6.505319E-10 -1.020053E-09
       149  11 -6.521019E+05 -1.499845E+05 -5.552381E+04 -2.430896E+05 -5.298019E-10 -6.486870E-10
       149  12 -6.012428E+05 -1.405324E+05 -4.123416E+04 -2.391934E+05  6.771499E-10 -7.077581E-10
       149  13 -4.521881E+05 -8.939480E+04 -1.523947E+04 -1.974298E+05 -2.063262E-09 -3.868401E-10
       149  14 -4.586474E+05 -7.751847E+04 -7.751883E+03 -1.897475E+05 -4.795802E-10 -6.564848E-10
       149  15 -4.516206E+05 -8.541103E+04 -4.339317E+03 -1.989217E+05  6.378126E-10 -4.334376E-10
       149  16 -2.147716E+05  4.970245E+02  4.371158E+04 -1.309950E+05 -9.324742E-10  2.619481E-10
       149  17 -2.651560E+05 -5.049834E+03  4.001717E+04 -1.363903E+05  9.397165E-10 -7.545308E-10
       149  18 -3.019757E+05 -3.028803E+04  3.255400E+04 -1.586411E+05 -3.678942E-10 -2.673416E-10
       149  19 -6.895498E+05 -1.792827E+05 -7.419471E+04 -2.638417E+05  1.398781E+04 -8.045521E+03
       149  20 -6.521018E+05 -1.499844E+05 -5.552355E+04 -2.430897E+05  8.921313E+03 -7.727320E+03
       149  21 -6.012428E+05 -1.405324E+05 -4.123404E+04 -2.391935E+05  3.670683E+03 -6.917186E+03
       149  22 -4.521878E+05 -8.939467E+04 -1.523893E+04 -1.974299E+05  1.532606E+04 -7.542895E+03
       149  23 -4.586472E+05 -7.751839E+04 -7.751576E+03 -1.897476E+05  1.064460E+04 -7.080504E+03
       149  24 -4.516206E+05 -8.541098E+04 -4.339184E+03 -1.989218E+05  5.779354E+03 -6.126125E+03
       149  25 -2.147713E+05  4.971522E+02  4.371220E+04 -1.309951E+05  1.666487E+04 -7.040055E+03
       149  26 -2.651559E+05 -5.049748E+03  4.001754E+04 -1.363903E+05  1.236848E+04 -6.433465E+03
       149  27 -3.019757E+05 -3.028798E+04  3.255417E+04 -1.586411E+05  7.888589E+03 -5.334858E+03
       150   1 -5.603512E+05 -1.264305E+05 -3.003626E+04 -2.285210E+05 -2.632701E+03  5.565348E+03
       150   2 -5.232946E+05 -1.016663E+05 -1.765809E+04 -2.073532E+05 -7.557862E+02  3.409819E+03
       150   3 -4.708607E+05 -9.281437E+04 -6.055845E+03 -2.040257E+05  1.129910E+03  1.230153E+03
       150   4 -4.513771E+05 -8.583151E+04 -3.326484E+03 -1.986597E+05 -4.593641E+03  4.829830E+03
       150   5 -4.590477E+05 -7.774865E+04 -1.831532E+03 -1.897871E+05 -2.735555E+03  2.667344E+03
       150   6 -4.513390E+05 -8.557416E+04 -1.097289E+03 -1.987553E+05 -8.687664E+02  4.807045E+02
       150   7 -3.423913E+05 -4.523170E+04  2.338241E+04 -1.687936E+05 -6.554957E+03  4.094172E+03
       150   8 -3.947969E+05 -5.383078E+04  1.399468E+04 -1.722194E+05 -4.715543E+03  1.924787E+03
       150   9 -4.318171E+05 -7.833395E+04  3.861228E+03 -1.934849E+05 -2.867503E+03 -2.687656E+02
       150  10 -5.603512E+05 -1.264305E+05 -3.003634E+04 -2.285210E+05  1.319454E-09 -1.446064E-10
       150  11 -5.232946E+05 -1.016663E+05 -1.765811E+04 -2.073532E+05  3.605368E-09  1.103718E-09
       150  12 -4.708607E+05 -9.281437E+04 -6.055850E+03 -2.040257E+05 -1.044319E-09  1.037611E-09
       150  13 -4.513772E+05 -8.583154E+04 -3.326568E+03 -1.986597E+05  1.757058E-10 -5.030236E-11
       150  14 -4.590477E+05 -7.774866E+04 -1.831559E+03 -1.897871E+05  1.017046E-09  5.452973E-10
       150  15 -4.513390E+05 -8.557416E+04 -1.097291E+03 -1.987553E+05  3.894268E-10  9.780862E-10
       150  16 -3.423914E+05 -4.523172E+04  2.338229E+04 -1.687936E+05  2.468018E-10  3.001836E-11
       150  17 -3.947969E+05 -5.383079E+04  1.399463E+04 -1.722194E+05  1.153574E-09  3.810427E-11
       150  18 -4.318171E+05 -7.833396E+04  3.861212E+03 -1.934849E+05  4.471101E-10  7.663440E-10
       150  19 -5.603512E+05 -1.264305E+05 -3.003626E+04 -2.285210E+05  2.632701E+03 -5.565348E+03
       150  20 -5.232946E+05 -1.016663E+05 -1.765809E+04 -2.073532E+05  7.557862E+02 -3.409819E+03
       150  21 -4.708607E+05 -9.281437E+04 -6.055845E+03 -2.040257E+05 -1.129910E+03 -1.230153E+03
       150  22 -4.513771E+05 -8.583151E+04 -3.326484E+03 -1.986597E+05  4.593641E+03 -4.829830E+03
       150  23 -4.590477E+05 -7.774865E+04 -1.831532E+03 -1.897871E+05  2.735555E+03 -2.667344E+03
       150  24 -4.513390E+05 -8.557416E+04 -1.097289E+03 -1.987553E+05  8.687664E+02 -4.807045E+02
       150  25 -3.423913E+05 -4.523170E+04  2.338241E+04 -1.687936E+05  6.554957E+03 -4.094172E+03
       150  26 -3.947969E+05 -5.383078E+04  1.399468E+04 -1.722194E+05  4.715543E+03 -1.924787E+03
       150  27 -4.318171E+05 -7.833395E+04  3.861228E+03 -1.934849E+05  2.867503E+03  2.687656E+02
       151   1 -4.305767E+05 -7.783237E+04  4.373025E+03 -1.930560E+05  1.841732E+03 -1.891682E+02
       151   2 -3.935886E+05 -5.336787E+04  1.543763E+04 -1.718569E+05  3.139988E+03 -2.592335E+03
       151   3 -3.410468E+05 -4.453859E+04  2.623689E+04 -1.685415E+05  4.438393E+03 -4.995035E+03
       151   4 -4.513126E+05 -8.559728E+04 -8.973427E+02 -1.987338E+05 -1.500185E+02 -9.360217E+02
       151   5 -4.590886E+05 -7.777613E+04 -6.989146E+02 -1.897929E+05  1.148453E+03 -3.339226E+03
       151   6 -4.513139E+05 -8.559105E+04 -7.662535E+02 -1.987371E+05  2.447034E+03 -5.741953E+03
       151   7 -4.720482E+05 -9.336222E+04 -6.167771E+03 -2.044114E+05 -2.141711E+03 -1.682853E+03
       151   8 -5.245841E+05 -1.021840E+05 -1.683572E+04 -2.077271E+05 -8.428477E+02 -4.086028E+03
       151   9 -5.615676E+05 -1.266421E+05 -2.776990E+04 -2.289274E+05  4.560873E+02 -6.488716E+03
       151  10 -4.305767E+05 -7.783237E+04  4.373019E+03 -1.930560E+05  7.204875E-10  7.768778E-10
       151  11 -3.935886E+05 -5.336788E+04  1.543759E+04 -1.718569E+05  1.428161E-10 -2.759536E-10
       151  12 -3.410468E+05 -4.453862E+04  2.623680E+04 -1.685415E+05  9.856142E-10 -1.047181E-09
       151  13 -4.513126E+05 -8.559728E+04 -8.973444E+02 -1.987338E+05 -1.322834E-09  6.639900E-10
       151  14 -4.590886E+05 -7.777614E+04 -6.989380E+02 -1.897929E+05 -1.440879E-09 -1.508181E-10
       151  15 -4.513139E+05 -8.559109E+04 -7.663267E+02 -1.987370E+05  4.279871E-10 -1.065863E-09
       151  16 -4.720482E+05 -9.336223E+04 -6.167785E+03 -2.044114E+05 -8.780118E-10  6.360801E-10
       151  17 -5.245841E+05 -1.021840E+05 -1.683575E+04 -2.077271E+05  8.553078E-11 -2.148267E-10
       151  18 -5.615677E+05 -1.266422E+05 -2.776998E+04 -2.289274E+05 -1.067627E-09 -9.725262E-10
       151  19 -4.305767E+05 -7.783237E+04  4.373025E+03 -1.930560E+05 -1.841732E+03  1.891682E+02
       151  20 -3.935886E+05 -5.336787E+04  1.543763E+04 -1.718569E+05 -3.139988E+03  2.592335E+03
       151  21 -3.410468E+05 -4.453859E+04  2.623689E+04 -1.685415E+05 -4.438393E+03  4.995035E+03
       151  22 -4.513126E+05 -8.559728E+04 -8.973427E+02 -1.987338E+05  1.500185E+02  9.360217E+02
       151  23 -4.590886E+05 -7.777613E+04 -6.989146E+02 -1.897929E+05 -1.148453E+03  3.339226E+03
       151  24 -4.513139E+05 -8.559105E+04 -7.662535E+02 -1.987371E+05 -2.447034E+03  5.741953E+03
       151  25 -4.720482E+05 -9.336222E+04 -6.167771E+03 -2.044114E+05  2.141711E+03  1.682853E+03
       151  26 -5.245841E+05 -1.021840E+05 -1.683572E+04 -2.077271E+05  8.428477E+02  4.086028E+03
       151  27 -5.615676E+05 -1.266421E+05 -2.776990E+04 -2.289274E+05 -4.560873E+02  6.488716E+03
       152   1 -3.008934E+05 -2.951718E+04  3.632484E+04 -1.575688E+05  5.127033E+03 -6.417832E+03
       152   2 -2.640131E+05 -5.131403E+03  4.663201E+04 -1.364151E+05  6.776011E+03 -8.682527E+03
       152   3 -2.116637E+05  3.620349E+03  5.640605E+04 -1.330852E+05  8.423588E+03 -1.094083E+04
       152   4 -4.513331E+05 -8.557942E+04 -8.921518E+02 -1.987289E+05  3.137405E+03 -7.164236E+03
       152   5 -4.590729E+05 -7.779225E+04 -1.414983E+03 -1.898060E+05  4.790976E+03 -9.427550E+03
       152   6 -4.513459E+05 -8.564036E+04 -2.474429E+03 -1.987079E+05  6.443094E+03 -1.168449E+04
       152   7 -6.017514E+05 -1.416405E+05 -3.811111E+04 -2.398802E+05  1.148292E+03 -7.910446E+03
       152   8 -6.540974E+05 -1.504513E+05 -4.946542E+04 -2.431822E+05  2.806601E+03 -1.017232E+04
       152   9 -6.909751E+05 -1.748985E+05 -6.136024E+04 -2.643087E+05  4.463405E+03 -1.242784E+04
       152  10 -3.008934E+05 -2.951723E+04  3.632471E+04 -1.575688E+05 -1.771411E-09 -1.204475E-09
       152  11 -2.640131E+05 -5.131496E+03  4.663178E+04 -1.364151E+05 -9.110256E-10  3.166824E-10
       152  12 -2.116638E+05  3.620201E+03  5.640569E+04 -1.330851E+05 -3.994738E-10  9.241263E-10
       152  13 -4.513331E+05 -8.557948E+04 -8.922667E+02 -1.987289E+05  1.312667E-10 -7.531441E-10
       152  14 -4.590730E+05 -7.779235E+04 -1.415193E+03 -1.898060E+05 -1.291730E-09  6.218886E-10
       152  15 -4.513459E+05 -8.564052E+04 -2.474764E+03 -1.987079E+05  2.088119E-09  9.403065E-10
       152  16 -6.017515E+05 -1.416406E+05 -3.811123E+04 -2.398802E+05 -5.519654E-10 -4.574740E-10
       152  17 -6.540974E+05 -1.504514E+05 -4.946563E+04 -2.431822E+05 -1.743444E-09  2.849821E-11
       152  18 -6.909751E+05 -1.748987E+05 -6.136057E+04 -2.643086E+05 -9.664079E-11  3.656766E-10
       152  19 -3.008934E+05 -2.951718E+04  3.632484E+04 -1.575688E+05 -5.127033E+03  6.417832E+03
       152  20 -2.640131E+05 -5.131403E+03  4.663201E+04 -1.364151E+05 -6.776011E+03  8.682527E+03
       152  21 -2.116637E+05  3.620349E+03  5.640605E+04 -1.330852E+05 -8.423588E+03  1.094083E+04
       152  22 -4.513331E+05 -8.557942E+04 -8.921518E+02 -1.987289E+05 -3.137405E+03  7.164236E+03
       152  23 -4.590729E+05 -7.779225E+04 -1.414983E+03 -1.898060E+05 -4.790976E+03  9.427550E+03
       152  24 -4.513459E+05 -8.564036E+04 -2.474429E+03 -1.987079E+05 -6.443094E+03  1.168449E+04
       152  25 -6.017514E+05 -1.416405E+05 -3.811111E+04 -2.398802E+05 -1.148292E+03  7.910446E+03
       152  26 -6.540974E+05 -1.504513E+05 -4.946542E+04 -2.431822E+05 -2.806601E+03  1.017232E+04
       152  27 -6.909751E+05 -1.748985E+05 -6.136024E+04 -2.643087E+05 -4.463405E+03  1.242784E+04
       153   1 -1.717174E+05  1.855891E+04  6.578176E+04 -1.223266E+05  9.455098E+03 -1.223068E+04
       153   2 -1.349585E+05  4.297812E+04  7.394558E+04 -1.010892E+05  1.329746E+04 -1.364646E+04
       153   3 -8.341319E+04  5.094203E+04  7.970665E+04 -9.741352E+04  1.712446E+04 -1.501702E+04
       153   4 -4.514668E+05 -8.554562E+04 -3.258782E+03 -1.987573E+05  7.466958E+03 -1.297748E+04
       153   5 -4.589206E+05 -7.774363E+04 -5.857729E+03 -1.898168E+05  1.134307E+04 -1.438112E+04
       153   6 -4.515966E+05 -8.640414E+04 -1.088684E+04 -1.984388E+05  1.520361E+04 -1.573960E+04
       153   7 -7.311355E+05 -1.896436E+05 -7.230428E+04 -2.751558E+05  5.479822E+03 -1.372391E+04
       153   8 -7.827771E+05 -1.984574E+05 -8.566837E+04 -2.785018E+05  9.389809E+03 -1.511536E+04
       153   9 -8.196460E+05 -2.237408E+05 -1.014905E+05 -2.994095E+05  1.328401E+04 -1.646171E+04
       153  10 -1.717176E+05  1.855873E+04  6.578131E+04 -1.223265E+05  7.980757E-10  7.072853E-10
       153  11 -1.349587E+05  4.297788E+04  7.394489E+04 -1.010891E+05  8.633253E-10  1.245462E-10
       153  12 -8.341356E+04  5.094171E+04  7.970568E+04 -9.741331E+04  7.305985E-10 -4.663785E-10
       153  13 -4.514669E+05 -8.554582E+04 -3.259203E+03 -1.987572E+05  2.022437E-09  3.351210E-10
       153  14 -4.589208E+05 -7.774389E+04 -5.858359E+03 -1.898167E+05  1.707153E-09  7.873170E-10
       153  15 -4.515970E+05 -8.640447E+04 -1.088774E+04 -1.984386E+05  2.042999E-09 -1.091427E-09
       153  16 -7.311356E+05 -1.896438E+05 -7.230469E+04 -2.751558E+05 -1.588532E-10  1.212413E-10
       153  17 -7.827773E+05 -1.984577E+05 -8.566896E+04 -2.785017E+05  1.535359E-09 -5.760721E-10
       153  18 -8.196463E+05 -2.237412E+05 -1.014913E+05 -2.994093E+05  5.053622E-10 -8.605605E-11
       153  19 -1.717174E+05  1.855891E+04  6.578176E+04 -1.223266E+05 -9.455098E+03  1.223068E+04
       153  20 -1.349585E+05  4.297812E+04  7.394558E+04 -1.010892E+05 -1.329746E+04  1.364646E+04
       153  21 -8.341319E+04  5.094203E+04  7.970665E+04 -9.741352E+04 -1.712446E+04  1.501702E+04
       153  22 -4.514668E+05 -8.554562E+04 -3.258782E+03 -1.987573E+05 -7.466958E+03  1.297748E+04
       153  23 -4.589206E+05 -7.774363E+04 -5.857729E+03 -1.898168E+05 -1.134307E+04  1.438112E+04
       153  24 -4.515966E+05 -8.640414E+04 -1.088684E+04 -1.984388E+05 -1.520361E+04  1.573960E+04
       153  25 -7.311355E+05 -1.896436E+05 -7.230428E+04 -2.751558E+05 -5.479822E+03  1.372391E+04
       153  26 -7.827771E+05 -1.984574E+05 -8.566837E+04 -2.785018E+05 -9.389809E+03  1.511536E+04
       153  27 -8.196460E+05 -2.237408E+05 -1.014905E+05 -2.994095E+05 -1.328401E+04  1.646171E+04
       154   1 -4.293605E+04  6.554654E+04  8.636668E+04 -8.927212E+04  1.995848E+04 -1.571096E+04
       154   2 -6.766941E+03  9.244019E+04  8.577719E+04 -6.474716E+04  3.323885E+04 -1.338480E+04
       154   3  3.805862E+04  9.022129E+04  7.225498E+04 -5.456361E+04  4.621320E+04 -1.023705E+04
       154   4 -4.523961E+05 -8.502282E+04 -1.426296E+04 -1.993137E+05  1.779457E+04 -1.652523E+04
       154   5 -4.575955E+05 -7.696867E+04 -2.558275E+04 -1.896755E+05  3.171110E+04 -1.396077E+04
       154   6 -4.542719E+05 -9.816195E+04 -5.034728E+04 -1.943805E+05  4.532059E+04 -1.057494E+04
       154   7 -8.616933E+05 -2.355828E+05 -1.149059E+05 -3.092905E+05  1.563220E+04 -1.733894E+04
       154   8 -9.082252E+05 -2.463634E+05 -1.369586E+05 -3.145215E+05  3.018456E+04 -1.453629E+04
       154   9 -9.463639E+05 -2.865256E+05 -1.729685E+05 -3.340955E+05  4.442874E+04 -1.091252E+04
       154  10 -4.293654E+04  6.554617E+04  8.636546E+04 -8.927187E+04  9.933278E-10 -3.349539E-10
       154  11 -6.768176E+03  9.243970E+04  8.577478E+04 -6.474680E+04  1.523175E-09  7.020673E-10
       154  12  3.805630E+04  9.022060E+04  7.225077E+04 -5.456323E+04  2.654584E-10  9.594947E-10
       154  13 -4.523966E+05 -8.502320E+04 -1.426407E+04 -1.993135E+05  1.627497E-09 -9.963883E-10
       154  14 -4.575967E+05 -7.696915E+04 -2.558500E+04 -1.896751E+05  1.855926E-09  3.322960E-09
       154  15 -4.542741E+05 -9.816262E+04 -5.035135E+04 -1.943801E+05  4.992253E-10  2.422195E-09
       154  16 -8.616937E+05 -2.355832E+05 -1.149069E+05 -3.092903E+05 -2.209412E-10 -1.252332E-10
       154  17 -9.082263E+05 -2.463639E+05 -1.369607E+05 -3.145211E+05  5.017375E-10  4.013016E-10
       154  18 -9.463660E+05 -2.865262E+05 -1.729724E+05 -3.340951E+05  7.243041E-10 -1.106488E-10
       154  19 -4.293605E+04  6.554654E+04  8.636668E+04 -8.927212E+04 -1.995848E+04  1.571096E+04
       154  20 -6.766941E+03  9.244019E+04  8.577719E+04 -6.474716E+04 -3.323885E+04  1.338480E+04
       154  21  3.805862E+04  9.022129E+04  7.225498E+04 -5.456361E+04 -4.621320E+04  1.023705E+04
       154  22 -4.523961E+05 -8.502282E+04 -1.426296E+04 -1.993137E+05 -1.779457E+04  1.652523E+04
       154  23 -4.575955E+05 -7.696867E+04 -2.558275E+04 -1.896755E+05 -3.171110E+04  1.396077E+04
       154  24 -4.542719E+05 -9.816195E+04 -5.034728E+04 -1.943805E+05 -4.532059E+04  1.057494E+04
       154  25 -8.616933E+05 -2.355828E+05 -1.149059E+05 -3.092905E+05 -1.563220E+04  1.733894E+04
       154  26 -9.082252E+05 -2.463634E+05 -1.369586E+05 -3.145215E+05 -3.018456E+04  1.453629E+04
       154  27 -9.463639E+05 -2.865256E+05 -1.729685E+05 -3.340955E+05 -4.442874E+04  1.091252E+04
       155   1  9.306627E+04  1.019940E+05  6.839766E+04 -8.318524E+04  6.102537E+04 -8.454987E+03
       155   2  1.151741E+05  1.683920E+05  3.371185E+04 -6.257967E+03  1.063356E+05  9.541577E+03
       155   3  7.183886E+04  2.306442E+04 -8.892572E+04  1.054240E+05  1.450914E+05  4.494592E+04
       155   4 -4.625246E+05 -7.727429E+04 -6.317209E+04 -2.068407E+05  5.479446E+04 -1.079926E+04
       155   5 -4.422687E+05 -6.741835E+04 -1.099780E+05 -1.875385E+05  1.137436E+05  1.232418E+04
       155   6 -4.902385E+05 -2.721185E+05 -2.556101E+05 -1.334649E+05  1.661331E+05  5.285213E+04
       155   7 -1.017811E+06 -2.565391E+05 -1.947629E+05 -3.304040E+05  4.856964E+04 -1.314196E+04
       155   8 -9.993989E+05 -3.031808E+05 -2.536920E+05 -3.686611E+05  1.211443E+05  1.510319E+04
       155   9 -1.051983E+06 -5.671775E+05 -4.223200E+05 -3.721255E+05  1.871537E+05  6.074326E+04
       155  10  9.306225E+04  1.019930E+05  6.839053E+04 -8.318482E+04 -7.165219E-10  1.418605E-09
       155  11  1.151619E+05  1.683889E+05  3.369043E+04 -6.258784E+03  1.257447E-09 -5.942384E-10
       155  12  7.181571E+04  2.305660E+04 -8.896907E+04  1.054187E+05  6.005549E-10  7.794522E-10
       155  13 -4.625278E+05 -7.727522E+04 -6.317795E+04 -2.068402E+05 -3.652420E-10 -5.261083E-10
       155  14 -4.422826E+05 -6.742199E+04 -1.100026E+05 -1.875396E+05 -2.052980E-09  2.239408E-09
       155  15 -4.902689E+05 -2.721289E+05 -2.556672E+05 -1.334720E+05  8.181933E-10  3.995491E-09
       155  16 -1.017814E+06 -2.565399E+05 -1.947676E+05 -3.304035E+05  1.105623E-09  5.528133E-10
       155  17 -9.994148E+05 -3.031850E+05 -2.537200E+05 -3.686626E+05 -2.895547E-11  1.104294E-09
       155  18 -1.052021E+06 -5.671909E+05 -4.223929E+05 -3.721346E+05 -6.922544E-11  7.901741E-10
       155  19  9.306627E+04  1.019940E+05  6.839766E+04 -8.318524E+04 -6.102537E+04  8.454987E+03
       155  20  1.151741E+05  1.683920E+05  3.371185E+04 -6.257967E+03 -1.063356E+05 -9.541577E+03
       155  21  7.183886E+04  2.306442E+04 -8.892572E+04  1.054240E+05 -1.450914E+05 -4.494592E+04
       155  22 -4.625246E+05 -7.727429E+04 -6.317209E+04 -2.068407E+05 -5.479446E+04  1.079926E+04
       155  23 -4.422687E+05 -6.741835E+04 -1.099780E+05 -1.875385E+05 -1.137436E+05 -1.232418E+04
       155  24 -4.902385E+05 -2.721185E+05 -2.556101E+05 -1.334649E+05 -1.661331E+05 -5.285213E+04
       155  25 -1.017811E+06 -2.565391E+05 -1.947629E+05 -3.304040E+05 -4.856964E+04  1.314196E+04
       155  26 -9.993989E+05 -3.031808E+05 -2.536920E+05 -3.686611E+05 -1.211443E+05 -1.510319E+04
       155  27 -1.051983E+06 -5.671775E+05 -4.223200E+05 -3.721255E+05 -1.871537E+05 -6.074326E+04
       156   1  2.286517E+05  2.084979E+06  2.321970E+05 -2.279084E+03  9.603829E+03  1.140863E+05
       156   2  1.655947E+05  2.130396E+06  1.722033E+05  2.046814E+04  3.432363E+04  6.690199E+04
       156   3  1.621492E+05  2.196915E+06  1.577951E+05  5.782218E+04  4.578653E+04  1.970916E+04
       156   4  8.814916E+04  1.514266E+06  9.961127E+04  5.219660E+04  9.642182E+03  6.507301E+04
       156   5  1.664018E+04  1.505527E+06  5.120951E+04  4.485862E+04  3.434870E+04  3.863828E+04
       156   6  1.174957E+03  1.514304E+06  3.402860E+04  5.212661E+04  4.579677E+04  1.219747E+04
       156   7 -5.236398E+04  9.438633E+05 -3.298582E+04  1.066220E+05  9.671979E+03  1.610431E+04
       156   8 -1.323349E+05  8.810345E+05 -6.979928E+04  6.922411E+04  3.437157E+04  1.040228E+04
       156   9 -1.598252E+05  8.321441E+05 -8.975615E+04  4.643753E+04  4.580715E+04  4.693780E+03
       156  10  2.286482E+05  2.084965E+06  2.321725E+05 -2.279965E+03 -1.811817E-09 -7.434599E-09
       156  11  1.655923E+05  2.130391E+06  1.721927E+05  2.046629E+04 -9.815435E-10  1.731752E-08
       156  12  1.621469E+05  2.196915E+06  1.577904E+05  5.782146E+04 -3.662864E-09  3.936474E-08
       156  13  8.814793E+04  1.514261E+06  9.960316E+04  5.219610E+04 -2.385771E-09  1.836058E-10
       156  14  1.663852E+04  1.505525E+06  5.120449E+04  4.485755E+04 -1.168412E-10 -1.109352E-09
       156  15  1.172663E+03  1.514303E+06  3.402438E+04  5.212616E+04 -3.975490E-09  2.263999E-09
       156  16 -5.236415E+04  9.438630E+05 -3.298648E+04  1.066219E+05 -1.241636E-09  7.276681E-09
       156  17 -1.323362E+05  8.810341E+05 -6.980170E+04  6.922383E+04 -1.864356E-09 -1.676854E-08
       156  18 -1.598275E+05  8.321435E+05 -8.976014E+04  4.643736E+04 -2.980283E-09 -3.866141E-08
       156  19  2.286517E+05  2.084979E+06  2.321970E+05 -2.279084E+03 -9.603829E+03 -1.140863E+05
       156  20  1.655947E+05  2.130396E+06  1.722033E+05  2.046814E+04 -3.432363E+04 -6.690199E+04
       156  21  1.621492E+05  2.196915E+06  1.577951E+05  5.782218E+04 -4.578653E+04 -1.970916E+04
       156  22  8.814916E+04  1.514266E+06  9.961127E+04  5.219660E+04 -9.642182E+03 -6.507301E+04
       156  23  1.664018E+04  1.505527E+06  5.120951E+04  4.485862E+04 -3.434870E+04 -3.863828E+04
       156  24  1.174957E+03  1.514304E+06  3.402860E+04  5.212661E+04 -4.579677E+04 -1.219747E+04
       156  25 -5.236398E+04  9.438633E+05 -3.298582E+04  1.066220E+05 -9.671979E+03 -1.610431E+04
       156  26 -1.323349E+05  8.810345E+05 -6.979928E+04  6.922411E+04 -3.437157E+04 -1.040228E+04
       156  27 -1.598252E+05  8.321441E+05 -8.975615E+04  4.643753E+04 -4.580715E+04 -4.693780E+03
       157   1  1.728664E+05  2.230647E+06  1.607756E+05  4.890359E+04  4.855556E+04  1.687724E+04
       157   2  1.836081E+05  2.284907E+06  1.693757E+05  4.463096E+04  5.330953E+04 -2.740084E+03
       157   3  2.024456E+05  2.343851E+06  1.927690E+05  5.415823E+04  5.511354E+04 -2.236050E+04
       157   4  3.264810E+03  1.511259E+06  3.064510E+04  5.195721E+04  4.856916E+04  7.154501E+03
       157   5  9.560766E+02  1.509300E+06  3.003889E+04  4.505778E+04  5.332065E+04 -7.831120E+03
       157   6  5.947164E+03  1.511225E+06  4.102680E+04  5.195908E+04  5.512053E+04 -2.281811E+04
       157   7 -1.663657E+05  7.923722E+05 -9.950543E+04  5.500729E+04  4.858267E+04 -2.557319E+03
       157   8 -1.817293E+05  7.342760E+05 -1.093211E+05  4.548418E+04  5.333177E+04 -1.291599E+04
       157   9 -1.905902E+05  6.792698E+05 -1.107433E+05  4.976312E+04  5.512752E+04 -2.327511E+04
       157  10  1.728638E+05  2.230646E+06  1.607706E+05  4.890294E+04 -4.500626E-09 -4.161006E-08
       157  11  1.836050E+05  2.284906E+06  1.693703E+05  4.463108E+04  3.072879E-11 -1.820980E-08
       157  12  2.024422E+05  2.343850E+06  1.927624E+05  5.415923E+04  8.240564E-10  8.724110E-09
       157  13  3.262261E+03  1.511258E+06  3.064057E+04  5.195693E+04 -1.593919E-09  2.520500E-10
       157  14  9.530051E+02  1.509299E+06  3.003343E+04  4.505812E+04 -8.699159E-10 -1.156322E-09
       157  15  5.943759E+03  1.511224E+06  4.102011E+04  5.196010E+04  1.551989E-09  3.249959E-09
       157  16 -1.663682E+05  7.923716E+05 -9.950988E+04  5.500739E+04 -2.594422E-09  4.099942E-08
       157  17 -1.817324E+05  7.342751E+05 -1.093267E+05  4.548473E+04 -1.999130E-10  1.884933E-08
       157  18 -1.905937E+05  6.792684E+05 -1.107501E+05  4.976416E+04  1.669086E-09 -8.088367E-09
       157  19  1.728664E+05  2.230647E+06  1.607756E+05  4.890359E+04 -4.855556E+04 -1.687724E+04
       157  20  1.836081E+05  2.284907E+06  1.693757E+05  4.463096E+04 -5.330953E+04  2.740084E+03
       157  21  2.024456E+05  2.343851E+06  1.927690E+05  5.415823E+04 -5.511354E+04  2.236050E+04
       157  22  3.264810E+03  1.511259E+06  3.064510E+04  5.195721E+04 -4.856916E+04 -7.154501E+03
       157  23  9.560766E+02  1.509300E+06  3.003889E+04  4.505778E+04 -5.332065E+04  7.831120E+03
       157  24  5.947164E+03  1.511225E+06  4.102680E+04  5.195908E+04 -5.512053E+04  2.281811E+04
       157  25 -1.663657E+05  7.923722E+05 -9.950543E+04  5.500729E+04 -4.858267E+04  2.557319E+03
       157  26 -1.817293E+05  7.342760E+05 -1.093211E+05  4.548418E+04 -5.333177E+04  1.291599E+04
       157  27 -1.905902E+05  6.792698E+05 -1.107433E+05  4.976312E+04 -5.512752E+04  2.327511E+04
       158   1  2.078582E+05  2.388449E+06  2.098474E+05  3.950792E+04  5.686673E+04 -2.561658E+04
       158   2  2.501314E+05  2.427732E+06  2.675653E+05  8.574519E+04  4.764803E+04 -1.070756E+05
       158   3  3.961094E+05  2.503638E+06  4.041392E+05  1.445389E+05  1.447875E+04 -1.885910E+05
       158   4  2.005698E+03  1.517063E+06  5.020886E+04  5.164438E+04  5.687840E+04 -2.973046E+04
       158   5  2.899530E+04  1.501908E+06  8.489971E+04  4.547687E+04  4.761137E+04 -7.367468E+04
       158   6  1.532657E+05  1.516920E+06  1.725011E+05  5.185958E+04  1.439119E+04 -1.176634E+05
       158   7 -2.038892E+05  6.464120E+05 -1.094606E+05  6.376362E+04  5.688992E+04 -3.383872E+04
       158   8 -1.921858E+05  5.769078E+05 -9.780283E+04  5.269917E+03  4.757037E+04 -4.032234E+04
       158   9 -8.961191E+04  5.311256E+05 -5.918016E+04 -4.067176E+04  1.428247E+04 -4.684750E+04
       158  10  2.078546E+05  2.388448E+06  2.098401E+05  3.950909E+04  9.750236E-11 -2.292196E-09
       158  11  2.501259E+05  2.427719E+06  2.675396E+05  8.574929E+04  1.590013E-09 -1.200882E-09
       158  12  3.960996E+05  2.503600E+06  4.040723E+05  1.445411E+05  1.147164E-09  5.281854E-10
       158  13  2.001985E+03  1.517062E+06  5.020112E+04  5.164575E+04  2.354204E-09 -8.465480E-11
       158  14  2.899141E+04  1.501902E+06  8.488527E+04  4.547969E+04  2.580187E-10 -1.267637E-09
       158  15  1.532617E+05  1.516906E+06  1.724747E+05  5.186095E+04  3.440618E-11  4.504064E-09
       158  16 -2.038930E+05  6.464099E+05 -1.094688E+05  6.376517E+04  1.894486E-09  1.142136E-09
       158  17 -1.921887E+05  5.769054E+05 -9.781014E+04  5.271462E+03 -6.705335E-10  2.205407E-09
       158  18 -8.961272E+04  5.311232E+05 -5.918466E+04 -4.067122E+04  6.425742E-10  2.928500E-10
       158  19  2.078582E+05  2.388449E+06  2.098474E+05  3.950792E+04 -5.686673E+04  2.561658E+04
       158  20  2.501314E+05  2.427732E+06  2.675653E+05  8.574519E+04 -4.764803E+04  1.070756E+05
       158  21  3.961094E+05  2.503638E+06  4.041392E+05  1.445389E+05 -1.447875E+04  1.885910E+05
       158  22  2.005698E+03  1.517063E+06  5.020886E+04  5.164438E+04 -5.687840E+04  2.973046E+04
       158  23  2.899530E+04  1.501908E+06  8.489971E+04  4.547687E+04 -4.761137E+04  7.367468E+04
       158  24  1.532657E+05  1.516920E+06  1.725011E+05  5.185958E+04 -1.439119E+04  1.176634E+05
       158  25 -2.038892E+05  6.464120E+05 -1.094606E+05  6.376362E+04 -5.688992E+04  3.383872E+04
       158  26 -1.921858E+05  5.769078E+05 -9.780283E+04  5.269917E+03 -4.757037E+04  4.032234E+04
       158  27 -8.961191E+04  5.311256E+05 -5.918016E+04 -4.067176E+04 -1.428247E+04  4.684750E+04
       159   1 -1.792932E+05 -1.263445E+05 -8.229290E+04  7.070794E+03  1.060071E+05  1.554111E+04
       159   2 -8.451927E+04 -2.739172E+05 -1.514394E+05 -1.930773E+04  8.135626E+04  4.783037E+04
       159   3  5.718909E+04 -2.493064E+05 -1.613625E+05 -9.756737E+04  5.674406E+04  4.843160E+04
       159   4  1.038039E+06  1.758645E+05  2.134338E+05 -7.145963E+04  1.466606E+05  1.558293E+04
       159   5  1.012393E+06 -5.109482E+03  9.652757E+04 -4.541777E+04  9.531262E+04  4.783534E+04
       159   6  1.038200E+06 -9.444538E+03  5.728339E+04 -7.124469E+04  4.401025E+04  4.842058E+04
       159   7  2.256740E+06  4.779890E+05  5.090630E+05 -1.501449E+05  1.873934E+05  1.561445E+04
       159   8  2.110424E+06  2.636183E+05  3.444184E+05 -7.157463E+04  1.092933E+05  4.783914E+04
       159   9  2.020110E+06  2.303548E+05  2.758700E+05 -4.488008E+04  3.125649E+04  4.840848E+04
       159  10 -1.793053E+05 -1.263477E+05 -8.231447E+04  7.069467E+03 -4.820436E-10  7.467748E-12
       159  11 -8.452700E+04 -2.739214E+05 -1.514561E+05 -1.931087E+04 -4.137520E-10 -9.733433E-11
       159  12  5.718500E+04 -2.493098E+05 -1.613729E+05 -9.756958E+04 -4.531841E-10 -4.038666E-10
       159  13  1.038016E+06  1.758585E+05  2.133930E+05 -7.146147E+04  9.465595E-10 -1.647188E-11
       159  14  1.012382E+06 -5.114374E+03  9.650623E+04 -4.542144E+04 -5.979585E-10 -1.167314E-10
       159  15  1.038198E+06 -9.447576E+03  5.727535E+04 -7.124641E+04  1.312023E-10 -2.875390E-10
       159  16  2.256702E+06  4.779794E+05  5.089968E+05 -1.501472E+05 -2.505401E-10 -5.548260E-12
       159  17  2.110410E+06  2.636127E+05  3.443917E+05 -7.157884E+04 -1.875701E-10 -1.444737E-10
       159  18  2.020108E+06  2.303520E+05  2.758638E+05 -4.488129E+04 -3.423949E-10 -2.360463E-10
       159  19 -1.792932E+05 -1.263445E+05 -8.229290E+04  7.070794E+03 -1.060071E+05 -1.554111E+04
       159  20 -8.451927E+04 -2.739172E+05 -1.514394E+05 -1.930773E+04 -8.135626E+04 -4.783037E+04
       159  21  5.718909E+04 -2.493064E+05 -1.613625E+05 -9.756737E+04 -5.674406E+04 -4.843160E+04
       159  22  1.038039E+06  1.758645E+05  2.134338E+05 -7.145963E+04 -1.466606E+05 -1.558293E+04
       159  23  1.012393E+06 -5.109482E+03  9.652757E+04 -4.541777E+04 -9.531262E+04 -4.783534E+04
       159  24  1.038200E+06 -9.444538E+03  5.728339E+04 -7.124469E+04 -4.401025E+04 -4.842058E+04
       159  25  2.256740E+06  4.779890E+05  5.090630E+05 -1.501449E+05 -1.873934E+05 -1.561445E+04
       159  26  2.110424E+06  2.636183E+05  3.444184E+05 -7.157463E+04 -1.092933E+05 -4.783914E+04
       159  27  2.020110E+06  2.303548E+05  2.758700E+05 -4.488008E+04 -3.125649E+04 -4.840848E+04
       160   1  1.476280E+05 -2.047747E+05 -1.514267E+05 -6.791462E+04  3.895945E+04  4.159335E+04
       160   2  2.614868E+05 -1.875007E+05 -1.460697E+05 -4.451201E+04  2.779419E+04  3.703797E+04
       160   3  3.798563E+05 -1.591620E+05 -1.306147E+05 -7.328315E+04  1.662150E+04  3.108415E+04
       160   4  1.027836E+06  1.058959E+04  4.574657E+04 -7.136871E+04  3.575734E+04  4.158754E+04
       160   5  1.025519E+06 -6.741833E+02  2.455226E+04 -4.528279E+04  2.340088E+04  3.703393E+04
       160   6  1.027898E+06 -6.746888E+02  1.427137E+04 -7.136616E+04  1.103904E+04  3.108260E+04
       160   7  1.908766E+06  2.259011E+05  2.428710E+05 -7.482778E+04  3.255071E+04  4.158178E+04
       160   8  1.790094E+06  1.861127E+05  1.951376E+05 -4.605454E+04  1.900221E+04  3.702989E+04
       160   9  1.676331E+06  1.577841E+05  1.591311E+05 -6.944713E+04  5.450821E+03  3.108101E+04
       160  10  1.476259E+05 -2.047769E+05 -1.514328E+05 -6.791593E+04 -3.345204E-10 -3.463415E-10
       160  11  2.614856E+05 -1.875024E+05 -1.460737E+05 -4.451284E+04 -1.604236E-10  6.384484E-11
       160  12  3.798558E+05 -1.591631E+05 -1.306170E+05 -7.328357E+04 -5.164751E-10  5.494580E-10
       160  13  1.027835E+06  1.058739E+04  4.574092E+04 -7.136991E+04 -4.461053E-10 -2.617102E-10
       160  14  1.025518E+06 -6.758035E+02  2.454865E+04 -4.528349E+04  1.369500E-10  4.455636E-11
       160  15  1.027898E+06 -6.757595E+02  1.426933E+04 -7.136644E+04  1.057057E-09  4.004132E-10
       160  16  1.908764E+06  2.258990E+05  2.428657E+05 -7.482887E+04  6.564687E-10 -1.812590E-10
       160  17  1.790093E+06  1.861111E+05  1.951343E+05 -4.605510E+04 -7.345864E-10  1.733225E-10
       160  18  1.676330E+06  1.577831E+05  1.591293E+05 -6.944726E+04  8.048641E-10  2.590088E-10
       160  19  1.476280E+05 -2.047747E+05 -1.514267E+05 -6.791462E+04 -3.895945E+04 -4.159335E+04
       160  20  2.614868E+05 -1.875007E+05 -1.460697E+05 -4.451201E+04 -2.779419E+04 -3.703797E+04
       160  21  3.798563E+05 -1.591620E+05 -1.306147E+05 -7.328315E+04 -1.662150E+04 -3.108415E+04
       160  22  1.027836E+06  1.058959E+04  4.574657E+04 -7.136871E+04 -3.575734E+04 -4.158754E+04
       160  23  1.025519E+06 -6.741833E+02  2.455226E+04 -4.528279E+04 -2.340088E+04 -3.703393E+04
       160  24  1.027898E+06 -6.746888E+02  1.427137E+04 -7.136616E+04 -1.103904E+04 -3.108260E+04
       160  25  1.908766E+06  2.259011E+05  2.428710E+05 -7.482778E+04 -3.255071E+04 -4.158178E+04
       160  26  1.790094E+06  1.861127E+05  1.951376E+05 -4.605454E+04 -1.900221E+04 -3.702989E+04
       160  27  1.676331E+06  1.577841E+05  1.591311E+05 -6.944713E+04 -5.450821E+03 -3.108101E+04
       161   1  4.780476E+05 -1.335951E+05 -1.112144E+05 -7.126693E+04  1.395350E+04  2.730988E+04
       161   2  5.927410E+05 -1.061833E+05 -9.056143E+04 -4.543902E+04  1.089033E+04  2.116472E+04
       161   3  7.080728E+05 -7.802177E+04 -6.771960E+04 -7.133211E+04  7.822944E+03  1.497030E+04
       161   4  1.027022E+06  5.491720E+02  1.097935E+04 -7.126666E+04  8.813440E+03  2.730945E+04
       161   5  1.026720E+06 -9.994631E+01  6.260113E+03 -4.540742E+04  5.705943E+03  2.116568E+04
       161   6  1.027053E+06  9.085071E+00  3.759717E+03 -7.126697E+04  2.594792E+03  1.497272E+04
       161   7  1.576278E+06  1.346730E+05  1.331543E+05 -7.126636E+04  3.668882E+03  2.730902E+04
       161   8  1.460875E+06  1.059707E+05  1.030699E+05 -4.537578E+04  5.179738E+02  2.116664E+04
       161   9  1.346127E+06  7.803303E+04  7.523270E+04 -7.120177E+04 -2.636016E+03  1.497514E+04
       161  10  4.780472E+05 -1.335959E+05 -1.112161E+05 -7.126724E+04  1.801243E-10  3.289563E-10
       161  11  5.927407E+05 -1.061838E+05 -9.056249E+04 -4.543921E+04 -5.158632E-10 -2.891079E-10
       161  12  7.080727E+05 -7.802203E+04 -6.772013E+04 -7.133221E+04 -1.248415E-09 -9.782786E-11
       161  13  1.027022E+06  5.483499E+02  1.097780E+04 -7.126686E+04 -3.996790E-11  2.879131E-10
       161  14  1.026720E+06 -1.004363E+02  6.259210E+03 -4.540752E+04 -2.102766E-10 -1.954488E-10
       161  15  1.027053E+06  8.842412E+00  3.759283E+03 -7.126700E+04 -1.790518E-10 -6.863489E-11
       161  16  1.576277E+06  1.346722E+05  1.331529E+05 -7.126644E+04 -1.462165E-10  2.474507E-10
       161  17  1.460875E+06  1.059702E+05  1.030691E+05 -4.537579E+04  6.946491E-10 -9.333638E-11
       161  18  1.346127E+06  7.803278E+04  7.523227E+04 -7.120174E+04 -1.109588E-10 -1.162042E-10
       161  19  4.780476E+05 -1.335951E+05 -1.112144E+05 -7.126693E+04 -1.395350E+04 -2.730988E+04
       161  20  5.927410E+05 -1.061833E+05 -9.056143E+04 -4.543902E+04 -1.089033E+04 -2.116472E+04
       161  21  7.080728E+05 -7.802177E+04 -6.771960E+04 -7.133211E+04 -7.822944E+03 -1.497030E+04
       161  22  1.027022E+06  5.491720E+02  1.097935E+04 -7.126666E+04 -8.813440E+03 -2.730945E+04
       161  23  1.026720E+06 -9.994631E+01  6.260113E+03 -4.540742E+04 -5.705943E+03 -2.116568E+04
       161  24  1.027053E+06  9.085071E+00  3.759717E+03 -7.126697E+04 -2.594792E+03 -1.497272E+04
       161  25  1.576278E+06  1.346730E+05  1.331543E+05 -7.126636E+04 -3.668882E+03 -2.730902E+04
       161  26  1.460875E+06  1.059707E+05  1.030699E+05 -4.537578E+04 -5.179738E+02 -2.116664E+04
       161  27  1.346127E+06  7.803303E+04  7.523270E+04 -7.120177E+04  2.636016E+03 -1.497514E+04
       162   1  8.063478E+05 -5.377436E+04 -4.590216E+04 -7.120212E+04  7.186329E+03  1.135787E+04
       162   2  9.208285E+05 -2.589757E+04 -2.162027E+04 -4.545932E+04  6.175062E+03  5.171593E+03
       162   3  1.035416E+06  2.079564E+03  3.328475E+03 -7.121808E+04  5.162694E+03 -1.013881E+03
       162   4  1.026945E+06  7.610103E+01  2.977157E+03 -7.121851E+04  1.984115E+03  1.136082E+04
       162   5  1.026902E+06  2.599595E+01  2.038925E+03 -4.546801E+04  9.727545E+02  5.174865E+03
       162   6  1.026952E+06  7.654039E+01  1.767399E+03 -7.121854E+04 -3.952384E+01 -1.010240E+03
       162   7  1.247587E+06  5.392330E+04  5.185356E+04 -7.123489E+04 -3.219925E+03  1.136378E+04
       162   8  1.132986E+06  2.594881E+04  2.569751E+04 -4.547669E+04 -4.230431E+03  5.178137E+03
       162   9  1.018488E+06 -1.926473E+03  2.064216E+02 -7.121899E+04 -5.241673E+03 -1.006600E+03
       162  10  8.063477E+05 -5.377451E+04 -4.590250E+04 -7.120219E+04 -1.089960E-09  2.566115E-10
       162  11  9.208284E+05 -2.589760E+04 -2.162039E+04 -4.545935E+04  8.464915E-10  1.784264E-10
       162  12  1.035416E+06  2.079556E+03  3.328424E+03 -7.121808E+04  8.333491E-10 -1.165416E-10
       162  13  1.026945E+06  7.596131E+01  2.976907E+03 -7.121853E+04 -1.063544E-09  5.427307E-11
       162  14  1.026902E+06  2.596692E+01  2.038873E+03 -4.546801E+04  9.763375E-11  1.868878E-10
       162  15  1.026952E+06  7.653929E+01  1.767397E+03 -7.121854E+04  3.444728E-10 -5.114106E-11
       162  16  1.247587E+06  5.392316E+04  5.185330E+04 -7.123486E+04  9.046207E-10 -6.034182E-11
       162  17  1.132986E+06  2.594878E+04  2.569743E+04 -4.547667E+04  1.440658E-09 -1.302354E-10
       162  18  1.018488E+06 -1.926481E+03  2.063681E+02 -7.121899E+04  5.914614E-10 -3.287221E-10
       162  19  8.063478E+05 -5.377436E+04 -4.590216E+04 -7.120212E+04 -7.186329E+03 -1.135787E+04
       162  20  9.208285E+05 -2.589757E+04 -2.162027E+04 -4.545932E+04 -6.175062E+03 -5.171593E+03
       162  21  1.035416E+06  2.079564E+03  3.328475E+03 -7.121808E+04 -5.162694E+03  1.013881E+03
       162  22  1.026945E+06  7.610103E+01  2.977157E+03 -7.121851E+04 -1.984115E+03 -1.136082E+04
       162  23  1.026902E+06  2.599595E+01  2.038925E+03 -4.546801E+04 -9.727545E+02 -5.174865E+03
       162  24  1.026952E+06  7.654039E+01  1.767399E+03 -7.121854E+04  3.952384E+01  1.010240E+03
       162  25  1.247587E+06  5.392330E+04  5.185356E+04 -7.123489E+04  3.219925E+03 -1.136378E+04
       162  26  1.132986E+06  2.594881E+04  2.569751E+04 -4.547669E+04  4.230431E+03 -5.178137E+03
       162  27  1.018488E+06 -1.926473E+03  2.064216E+02 -7.121899E+04  5.241673E+03  1.006600E+03
       163   1  1.133665E+06  2.621569E+04  2.596061E+04 -7.126722E+04  4.834426E+03 -4.613707E+03
       163   2  1.248254E+06  5.409935E+04  5.177806E+04 -4.548044E+04  3.641346E+03 -1.080185E+04
       163   3  1.362996E+06  8.209352E+04  7.838649E+04 -7.124111E+04  2.449936E+03 -1.699455E+04
       163   4  1.026960E+06  7.593165E+01  1.837894E+03 -7.122910E+04 -3.697937E+02 -4.610183E+03
       163   5  1.026882E+06  8.372397E+00  2.411971E+03 -4.545479E+04 -1.566789E+03 -1.079907E+04
       163   6  1.026945E+06  5.286594E+01  3.780484E+03 -7.122907E+04 -2.761899E+03 -1.699246E+04
       163   7  9.202657E+05 -2.606459E+04 -2.228545E+04 -7.119099E+04 -5.573129E+03 -4.606659E+03
       163   8  8.055552E+05 -5.408591E+04 -4.695708E+04 -4.542915E+04 -6.773090E+03 -1.079628E+04
       163   9  6.909995E+05 -8.199539E+04 -7.083244E+04 -7.121701E+04 -7.970949E+03 -1.699037E+04
       163  10  1.133665E+06  2.621566E+04  2.596053E+04 -7.126721E+04 -1.939123E-10 -2.545420E-10
       163  11  1.248254E+06  5.409922E+04  5.177781E+04 -4.548041E+04 -1.216314E-09 -6.010196E-11
       163  12  1.362996E+06  8.209320E+04  7.838594E+04 -7.124108E+04 -4.404925E-10  4.520185E-10
       163  13  1.026960E+06  7.590878E+01  1.837854E+03 -7.122911E+04  3.117866E-10 -7.001873E-11
       163  14  1.026882E+06  8.246448E+00  2.411747E+03 -4.545481E+04 -2.088631E-09  1.131700E-10
       163  15  1.026945E+06  5.255368E+01  3.779927E+03 -7.122911E+04 -3.629609E-10  1.781536E-10
       163  16  9.202657E+05 -2.606462E+04 -2.228555E+04 -7.119101E+04  1.095810E-09 -2.154643E-10
       163  17  8.055551E+05 -5.408605E+04 -4.695739E+04 -4.542921E+04  1.196133E-09 -8.326496E-11
       163  18  6.909993E+05 -8.199572E+04 -7.083310E+04 -7.121712E+04 -2.189220E-10 -2.724341E-10
       163  19  1.133665E+06  2.621569E+04  2.596061E+04 -7.126722E+04 -4.834426E+03  4.613707E+03
       163  20  1.248254E+06  5.409935E+04  5.177806E+04 -4.548044E+04 -3.641346E+03  1.080185E+04
       163  21  1.362996E+06  8.209352E+04  7.838649E+04 -7.124111E+04 -2.449936E+03  1.699455E+04
       163  22  1.026960E+06  7.593165E+01  1.837894E+03 -7.122910E+04  3.697937E+02  4.610183E+03
       163  23  1.026882E+06  8.372397E+00  2.411971E+03 -4.545479E+04  1.566789E+03  1.079907E+04
       163  24  1.026945E+06  5.286594E+01  3.780484E+03 -7.122907E+04  2.761899E+03  1.699246E+04
       163  25  9.202657E+05 -2.606459E+04 -2.228545E+04 -7.119099E+04  5.573129E+03  4.606659E+03
       163  26  8.055552E+05 -5.408591E+04 -4.695708E+04 -4.542915E+04  6.773090E+03  1.079628E+04
       163  27  6.909995E+05 -8.199539E+04 -7.083244E+04 -7.121701E+04  7.970949E+03  1.699037E+04
       164   1  1.461769E+06  1.062258E+05  1.021027E+05 -7.117408E+04  1.699821E+03 -2.061305E+04
       164   2  1.576720E+06  1.342182E+05  1.308791E+05 -4.524603E+04 -2.433095E+03 -2.681860E+04
       164   3  1.692574E+06  1.632014E+05  1.626093E+05 -7.118715E+04 -6.562018E+03 -3.297330E+04
       164   4  1.027093E+06 -3.560554E+01  4.859262E+03 -7.130099E+04 -3.543564E+03 -2.061173E+04
       164   5  1.026631E+06 -1.676033E+02  8.227184E+03 -4.536486E+04 -7.630817E+03 -2.681911E+04
       164   6  1.027054E+06  6.853151E+02  1.452047E+04 -7.130071E+04 -1.171333E+04 -3.297558E+04
       164   7  5.925918E+05 -1.063099E+05 -9.239603E+04 -7.142778E+04 -8.783323E+03 -2.061042E+04
       164   8  4.768222E+05 -1.345739E+05 -1.144436E+05 -4.548356E+04 -1.282399E+04 -2.681963E+04
       164   9  3.619456E+05 -1.618607E+05 -1.335959E+05 -7.141412E+04 -1.685918E+04 -3.297786E+04
       164  10  1.461769E+06  1.062254E+05  1.021019E+05 -7.117405E+04 -7.716093E-10  3.740000E-10
       164  11  1.576720E+06  1.342174E+05  1.308777E+05 -4.524608E+04 -4.819941E-10 -1.716729E-11
       164  12  1.692574E+06  1.632002E+05  1.626072E+05 -7.118733E+04 -3.569016E-10 -1.213677E-11
       164  13  1.027093E+06 -3.606534E+01  4.858440E+03 -7.130105E+04 -1.070756E-09 -1.092851E-11
       164  14  1.026630E+06 -1.683916E+02  8.225722E+03 -4.536502E+04  2.279848E-09 -7.317198E-12
       164  15  1.027054E+06  6.841101E+02  1.451817E+04 -7.130102E+04 -2.761310E-10 -1.966370E-10
       164  16  5.925916E+05 -1.063104E+05 -9.239697E+04 -7.142793E+04  8.220274E-11 -1.213972E-10
       164  17  4.768218E+05 -1.345747E+05 -1.144452E+05 -4.548383E+04 -5.235488E-11 -2.986535E-11
       164  18  3.619450E+05 -1.618619E+05 -1.335985E+05 -7.141456E+04  7.197733E-10 -4.790199E-10
       164  19  1.461769E+06  1.062258E+05  1.021027E+05 -7.117408E+04 -1.699821E+03  2.061305E+04
       164  20  1.576720E+06  1.342182E+05  1.308791E+05 -4.524603E+04  2.433095E+03  2.681860E+04
       164  21  1.692574E+06  1.632014E+05  1.626093E+05 -7.118715E+04  6.562018E+03  3.297330E+04
       164  22  1.027093E+06 -3.560554E+01  4.859262E+03 -7.130099E+04  3.543564E+03  2.061173E+04
       164  23  1.026631E+06 -1.676033E+02  8.227184E+03 -4.536486E+04  7.630817E+03  2.681911E+04
       164  24  1.027054E+06  6.853151E+02  1.452047E+04 -7.130071E+04  1.171333E+04  3.297558E+04
       164  25  5.925918E+05 -1.063099E+05 -9.239603E+04 -7.142778E+04  8.783323E+03  2.061042E+04
       164  26  4.768222E+05 -1.345739E+05 -1.144436E+05 -4.548356E+04  1.282399E+04  2.681963E+04
       164  27  3.619456E+05 -1.618607E+05 -1.335959E+05 -7.141412E+04  1.685918E+04  3.297786E+04
       165   1  1.793294E+06  1.860042E+05  1.897469E+05 -6.873020E+04 -9.019312E+03 -3.677286E+04
       165   2  1.906820E+06  2.144868E+05  2.292571E+05 -4.608474E+04 -2.670970E+04 -4.272495E+04
       165   3  2.026824E+06  2.581033E+05  2.841263E+05 -7.583647E+04 -4.439793E+04 -4.715163E+04
       165   4  1.028214E+06 -9.371720E+02  1.889580E+04 -7.141626E+04 -1.465730E+04 -3.677663E+04
       165   5  1.025053E+06 -9.129314E+02  3.254750E+04 -4.521950E+04 -3.104264E+04 -4.273124E+04
       165   6  1.028141E+06  1.403273E+04  6.066959E+04 -7.142382E+04 -4.742254E+04 -4.715961E+04
       165   7  2.636774E+05 -1.879182E+05 -1.519920E+05 -7.409897E+04 -2.028843E+04 -3.678034E+04
       165   8  1.440080E+05 -2.163653E+05 -1.642108E+05 -4.435556E+04 -3.536949E+04 -4.273755E+04
       165   9  3.038304E+04 -2.301056E+05 -1.628499E+05 -6.701844E+04 -5.044230E+04 -4.716765E+04
       165  10  1.793293E+06  1.860027E+05  1.897442E+05 -6.873047E+04 -1.239770E-09  8.224676E-11
       165  11  1.906818E+06  2.144846E+05  2.292523E+05 -4.608566E+04 -4.332211E-10  8.893654E-11
       165  12  2.026822E+06  2.581004E+05  2.841184E+05 -7.583815E+04 -5.677358E-10 -1.464137E-10
       165  13  1.028213E+06 -9.386827E+02  1.889285E+04 -7.141670E+04 -3.014008E-11 -2.913047E-10
       165  14  1.025051E+06 -9.151514E+02  3.254226E+04 -4.522057E+04 -9.096682E-10  4.158348E-11
       165  15  1.028138E+06  1.402973E+04  6.066119E+04 -7.142562E+04  7.959976E-10 -3.013016E-11
       165  16  2.636766E+05 -1.879198E+05 -1.519953E+05 -7.409957E+04  6.695880E-10 -6.822990E-10
       165  17  1.440062E+05 -2.163676E+05 -1.642165E+05 -4.435678E+04  3.569209E-10 -6.747707E-10
       165  18  3.037971E+04 -2.301086E+05 -1.628589E+05 -6.702035E+04 -5.935119E-10  1.946667E-10
       165  19  1.793294E+06  1.860042E+05  1.897469E+05 -6.873020E+04  9.019312E+03  3.677286E+04
       165  20  1.906820E+06  2.144868E+05  2.292571E+05 -4.608474E+04  2.670970E+04  4.272495E+04
       165  21  2.026824E+06  2.581033E+05  2.841263E+05 -7.583647E+04  4.439793E+04  4.715163E+04
       165  22  1.028214E+06 -9.371720E+02  1.889580E+04 -7.141626E+04  1.465730E+04  3.677663E+04
       165  23  1.025053E+06 -9.129314E+02  3.254750E+04 -4.521950E+04  3.104264E+04  4.273124E+04
       165  24  1.028141E+06  1.403273E+04  6.066959E+04 -7.142382E+04  4.742254E+04  4.715961E+04
       165  25  2.636774E+05 -1.879182E+05 -1.519920E+05 -7.409897E+04  2.028843E+04  3.678034E+04
       165  26  1.440080E+05 -2.163653E+05 -1.642108E+05 -4.435556E+04  3.536949E+04  4.273755E+04
       165  27  3.038304E+04 -2.301056E+05 -1.628499E+05 -6.701844E+04  5.044230E+04  4.716765E+04
       166   1  2.142113E+06  2.561750E+05  3.208643E+05 -3.612612E+04 -4.489452E+04 -5.430022E+04
       166   2  2.224717E+06  2.910215E+05  4.027333E+05 -7.990270E+04 -1.422256E+05 -5.316492E+04
       166   3  2.380469E+06  5.649664E+05  6.077582E+05 -1.759025E+05 -2.396455E+05 -1.739157E+04
       166   4  1.041880E+06 -1.253550E+04  7.597284E+04 -7.127787E+04 -5.836630E+04 -5.431752E+04
       166   5  1.007684E+06 -6.755394E+03  1.280468E+05 -4.536291E+04 -1.264156E+05 -5.315803E+04
       166   6  1.041683E+06  2.332854E+05  2.831192E+05 -7.165863E+04 -1.945304E+05 -1.735195E+04
       166   7 -5.722535E+04 -2.813233E+05 -1.689929E+05 -1.063670E+05 -7.181445E+04 -5.433332E+04
       166   8 -2.079736E+05 -3.046290E+05 -1.467330E+05 -1.089171E+04 -1.106360E+05 -5.314939E+04
       166   9 -2.954428E+05 -9.848441E+04 -4.163525E+04  3.235987E+04 -1.495117E+05 -1.729721E+04
       166  10  2.142110E+06  2.561713E+05  3.208550E+05 -3.612808E+04  1.275692E-09  4.345813E-10
       166  11  2.224695E+06  2.910130E+05  4.026901E+05 -7.990878E+04  1.847460E-10  7.226020E-10
       166  12  2.380408E+06  5.649507E+05  6.076501E+05 -1.759058E+05  1.618012E-10 -1.115933E-11
       166  13  1.041875E+06 -1.253959E+04  7.596090E+04 -7.128042E+04 -7.932916E-10  3.389770E-10
       166  14  1.007666E+06 -6.762711E+03  1.280115E+05 -4.536832E+04 -4.647224E-10  1.669678E-10
       166  15  1.041643E+06  2.332749E+05  2.830476E+05 -7.166134E+04  1.093406E-09  2.177193E-10
       166  16 -5.723168E+04 -2.813278E+05 -1.690082E+05 -1.063702E+05 -2.898284E-10  3.665296E-10
       166  17 -2.079875E+05 -3.046353E+05 -1.467613E+05 -1.089645E+04 -1.447069E-09  7.103408E-10
       166  18 -2.954669E+05 -9.849073E+04 -4.167784E+04  3.235779E+04 -5.083094E-10  6.226173E-11
       166  19  2.142113E+06  2.561750E+05  3.208643E+05 -3.612612E+04  4.489452E+04  5.430022E+04
       166  20  2.224717E+06  2.910215E+05  4.027333E+05 -7.990270E+04  1.422256E+05  5.316492E+04
       166  21  2.380469E+06  5.649664E+05  6.077582E+05 -1.759025E+05  2.396455E+05  1.739157E+04
       166  22  1.041880E+06 -1.253550E+04  7.597284E+04 -7.127787E+04  5.836630E+04  5.431752E+04
       166  23  1.007684E+06 -6.755394E+03  1.280468E+05 -4.536291E+04  1.264156E+05  5.315803E+04
       166  24  1.041683E+06  2.332854E+05  2.831192E+05 -7.165863E+04  1.945304E+05  1.735195E+04
       166  25 -5.722535E+04 -2.813233E+05 -1.689929E+05 -1.063670E+05  7.181445E+04  5.433332E+04
       166  26 -2.079736E+05 -3.046290E+05 -1.467330E+05 -1.089171E+04  1.106360E+05  5.314939E+04
       166  27 -2.954428E+05 -9.848441E+04 -4.163525E+04  3.235987E+04  1.495117E+05  1.729721E+04
       167   1  1.440974E+05  6.802183E+05  1.533806E+05 -1.096271E+05  3.510553E+03  5.248394E+04
       167   2  5.460123E+04  5.342645E+05  8.118904E+04 -6.299059E+04  9.113471E+03  2.797411E+04
       167   3  1.976205E+04  4.049237E+05  3.855743E+04 -7.773438E+04  4.116233E+03  3.450405E+03
       167   4  5.298850E+04  3.144284E+05  6.393924E+04 -8.521552E+04  3.529484E+03  4.334357E+04
       167   5 -1.246132E+03  3.069108E+05  2.938430E+04 -5.457696E+04  9.114488E+03  2.775300E+04
       167   6 -2.357644E+03  3.144540E+05  1.821153E+04 -8.531659E+04  4.098849E+03  1.214313E+04
       167   7 -3.812804E+04 -5.123826E+04 -2.551127E+04 -6.081828E+04  3.547704E+03  3.420857E+04
       167   8 -5.709681E+04  7.960520E+04 -2.242376E+04 -4.616642E+04  9.115501E+03  2.753197E+04
       167   9 -2.447763E+04  2.239921E+05 -2.134569E+03 -9.289767E+04  4.081252E+03  2.083459E+04
       167  10  1.440966E+05  6.802154E+05  1.533754E+05 -1.096272E+05  1.691526E-10  1.827660E-09
       167  11  5.460093E+04  5.342636E+05  8.118742E+04 -6.299079E+04 -7.876248E-10 -3.211321E-09
       167  12  1.976202E+04  4.049237E+05  3.855737E+04 -7.773440E+04  7.757954E-10 -7.202550E-09
       167  13  5.298798E+04  3.144264E+05  6.393569E+04 -8.521564E+04 -1.349296E-10  4.548143E-12
       167  14 -1.246428E+03  3.069100E+05  2.938270E+04 -5.457717E+04  1.981574E-09 -7.458309E-13
       167  15 -2.357702E+03  3.144538E+05  1.821122E+04 -8.531663E+04  1.516805E-09 -3.294351E-11
       167  16 -3.812837E+04 -5.123952E+04 -2.551350E+04 -6.081838E+04  4.513196E-11 -1.826841E-09
       167  17 -5.709711E+04  7.960437E+04 -2.242534E+04 -4.616662E+04  2.905051E-09  3.265375E-09
       167  18 -2.447777E+04  2.239916E+05 -2.135416E+03 -9.289774E+04  9.194353E-10  7.160467E-09
       167  19  1.440974E+05  6.802183E+05  1.533806E+05 -1.096271E+05 -3.510553E+03 -5.248394E+04
       167  20  5.460123E+04  5.342645E+05  8.118904E+04 -6.299059E+04 -9.113471E+03 -2.797411E+04
       167  21  1.976205E+04  4.049237E+05  3.855743E+04 -7.773438E+04 -4.116233E+03 -3.450405E+03
       167  22  5.298850E+04  3.144284E+05  6.393924E+04 -8.521552E+04 -3.529484E+03 -4.334357E+04
       167  23 -1.246132E+03  3.069108E+05  2.938430E+04 -5.457696E+04 -9.114488E+03 -2.775300E+04
       167  24 -2.357644E+03  3.144540E+05  1.821153E+04 -8.531659E+04 -4.098849E+03 -1.214313E+04
       167  25 -3.812804E+04 -5.123826E+04 -2.551127E+04 -6.081828E+04 -3.547704E+03 -3.420857E+04
       167  26 -5.709681E+04  7.960520E+04 -2.242376E+04 -4.616642E+04 -9.115501E+03 -2.753197E+04
       167  27 -2.447763E+04  2.239921E+05 -2.134569E+03 -9.289767E+04 -4.081252E+03 -2.083459E+04
       168   1 -3.315694E+03  2.835952E+05  8.913097E+03 -8.668924E+04 -1.352443E+03  3.685738E+03
       168   2 -4.048511E+04  1.452519E+05 -2.701948E+04 -5.440874E+04 -8.007046E+03 -1.019960E+03
       168   3 -7.286178E+04  8.469833E+03 -5.875551E+04 -8.395294E+04 -1.429039E+04 -5.722416E+03
       168   4  3.495132E+03  3.114625E+05  1.514087E+04 -8.538543E+04 -1.363980E+03  9.441804E+03
       168   5 -2.020796E+01  3.106573E+05  9.941516E+03 -5.447583E+04 -8.017354E+03  4.423285E+03
       168   6  1.312266E+03  3.114502E+05  9.156809E+03 -8.538963E+04 -1.429956E+04 -5.930004E+02
       168   7  1.030593E+04  3.393305E+05  2.136872E+04 -8.408155E+04 -1.375493E+03  1.519813E+04
       168   8  4.044285E+04  4.760883E+05  4.690090E+04 -5.454293E+04 -8.027662E+03  9.867964E+03
       168   9  7.548007E+04  6.145161E+05  7.706342E+04 -8.682699E+04 -1.430875E+04  4.538893E+03
       168  10 -3.315699E+03  2.835952E+05  8.913068E+03 -8.668924E+04 -4.378109E-10  6.514305E-09
       168  11 -4.048518E+04  1.452519E+05 -2.701960E+04 -5.440874E+04 -6.747930E-10  2.992516E-09
       168  12 -7.286201E+04  8.469743E+03 -5.875596E+04 -8.395300E+04 -1.040022E-09 -1.826440E-09
       168  13  3.495106E+03  3.114624E+05  1.514070E+04 -8.538542E+04  7.702438E-10  2.026524E-11
       168  14 -2.028223E+01  3.106573E+05  9.941359E+03 -5.447580E+04 -1.068291E-10  1.978180E-11
       168  15  1.312046E+03  3.114501E+05  9.156424E+03 -8.538964E+04 -8.627965E-10  1.084541E-10
       168  16  1.030587E+04  3.393303E+05  2.136828E+04 -8.408153E+04  5.120045E-10 -6.444602E-09
       168  17  4.044276E+04  4.760882E+05  4.690059E+04 -5.454286E+04 -6.993731E-10 -2.892375E-09
       168  18  7.547985E+04  6.145160E+05  7.706300E+04 -8.682694E+04 -2.827627E-10  1.904607E-09
       168  19 -3.315694E+03  2.835952E+05  8.913097E+03 -8.668924E+04  1.352443E+03 -3.685738E+03
       168  20 -4.048511E+04  1.452519E+05 -2.701948E+04 -5.440874E+04  8.007046E+03  1.019960E+03
       168  21 -7.286178E+04  8.469833E+03 -5.875551E+04 -8.395294E+04  1.429039E+04  5.722416E+03
       168  22  3.495132E+03  3.114625E+05  1.514087E+04 -8.538543E+04  1.363980E+03 -9.441804E+03
       168  23 -2.020796E+01  3.106573E+05  9.941516E+03 -5.447583E+04  8.017354E+03 -4.423285E+03
       168  24  1.312266E+03  3.114502E+05  9.156809E+03 -8.538963E+04  1.429956E+04  5.930004E+02
       168  25  1.030593E+04  3.393305E+05  2.136872E+04 -8.408155E+04  1.375493E+03 -1.519813E+04
       168  26  4.044285E+04  4.760883E+05  4.690090E+04 -5.454293E+04  8.027662E+03 -9.867964E+03
       168  27  7.548007E+04  6.145161E+05  7.706342E+04 -8.682699E+04  1.430875E+04 -4.538893E+03
       169   1 -1.036835E+05 -1.091297E+05 -8.470491E+04 -8.755165E+04 -2.053739E+04 -1.281864E+04
       169   2 -1.373633E+05 -2.485613E+05 -1.142997E+05 -5.091602E+04 -2.379754E+04 -3.351518E+03
       169   3 -1.535276E+05 -3.849205E+05 -1.457025E+05 -7.544474E+04 -8.127668E+03  6.139849E+03
       169   4 -5.797467E+02  3.123664E+05  9.412103E+03 -8.525004E+04 -2.055577E+04 -2.147623E+03
       169   5 -4.544566E+02  3.094392E+05  1.218386E+04 -5.465484E+04 -2.378773E+04 -8.580247E+03
       169   6  1.993845E+04  3.123201E+05  2.418514E+04 -8.521941E+04 -8.097448E+03 -1.498637E+04
       169   7  1.025120E+05  7.340282E+05  1.035184E+05 -8.294677E+04 -2.057406E+04  8.530566E+03
       169   8  1.364330E+05  8.677289E+05  1.386475E+05 -5.839693E+04 -2.377786E+04 -1.381363E+04
       169   9  1.933693E+05  1.010005E+06  1.940391E+05 -9.500491E+04 -8.066580E+03 -3.613625E+04
       169  10 -1.036840E+05 -1.091300E+05 -8.470602E+04 -8.755186E+04 -9.990554E-10  9.374905E-10
       169  11 -1.373639E+05 -2.485614E+05 -1.143008E+05 -5.091608E+04  9.465635E-10  5.198375E-10
       169  12 -1.535277E+05 -3.849206E+05 -1.457026E+05 -7.544470E+04  1.514718E-10 -2.577862E-10
       169  13 -5.802017E+02  3.123663E+05  9.411301E+03 -8.525008E+04 -2.345264E-10  5.146280E-12
       169  14 -4.550841E+02  3.094390E+05  1.218266E+04 -5.465500E+04  4.379961E-10  1.706338E-11
       169  15  1.993832E+04  3.123198E+05  2.418460E+04 -8.521951E+04  3.654476E-10  3.694367E-11
       169  16  1.025115E+05  7.340281E+05  1.035175E+05 -8.294663E+04 -1.125358E-09 -8.147147E-10
       169  17  1.364324E+05  8.677286E+05  1.386460E+05 -5.839720E+04  3.828064E-10 -6.226611E-10
       169  18  1.933688E+05  1.010004E+06  1.940366E+05 -9.500514E+04  4.482788E-10  1.869510E-10
       169  19 -1.036835E+05 -1.091297E+05 -8.470491E+04 -8.755165E+04  2.053739E+04  1.281864E+04
       169  20 -1.373633E+05 -2.485613E+05 -1.142997E+05 -5.091602E+04  2.379754E+04  3.351518E+03
       169  21 -1.535276E+05 -3.849205E+05 -1.457025E+05 -7.544474E+04  8.127668E+03 -6.139849E+03
       169  22 -5.797467E+02  3.123664E+05  9.412103E+03 -8.525004E+04  2.055577E+04  2.147623E+03
       169  23 -4.544566E+02  3.094392E+05  1.218386E+04 -5.465484E+04  2.378773E+04  8.580247E+03
       169  24  1.993845E+04  3.123201E+05  2.418514E+04 -8.521941E+04  8.097448E+03  1.498637E+04
       169  25  1.025120E+05  7.340282E+05  1.035184E+05 -8.294677E+04  2.057406E+04 -8.530566E+03
       169  26  1.364330E+05  8.677289E+05  1.386475E+05 -5.839693E+04  2.377786E+04  1.381363E+04
       169  27  1.933693E+05  1.010005E+06  1.940391E+05 -9.500491E+04  8.066580E+03  3.613625E+04
       170   1 -1.601664E+06 -6.359854E+05 -4.113833E+05 -5.776913E+05 -1.750010E+05 -5.557688E+04
       170   2 -1.545550E+06 -3.884128E+05 -2.526240E+05 -5.702393E+05 -1.134112E+05 -1.048946E+04
       170   3 -1.551781E+06 -3.437922E+05 -1.960929E+05 -5.344610E+05 -4.484000E+04  1.609518E+04
       170   4 -9.973370E+05 -3.317516E+05 -2.344921E+05 -3.345763E+05 -1.527892E+05 -4.723595E+04
       170   5 -9.549069E+05 -1.423729E+05 -1.008810E+05 -3.823641E+05 -1.056768E+05 -7.585549E+03
       170   6 -9.718792E+05 -1.529752E+05 -5.793759E+04 -4.018486E+05 -5.158984E+04  1.355567E+04
       170   7 -3.926437E+05 -2.740382E+04 -5.763494E+04 -9.122010E+04 -1.305537E+05 -3.887923E+04
       170   8 -3.639191E+05  1.037141E+05  5.083324E+04 -1.943181E+05 -9.793446E+04 -4.677812E+03
       170   9 -3.916439E+05  3.784795E+04  8.019471E+04 -2.691312E+05 -5.834659E+04  1.101426E+04
       170  10 -1.601697E+06 -6.359970E+05 -4.114469E+05 -5.776991E+05 -7.037404E-10 -2.602898E-11
       170  11 -1.545564E+06 -3.884164E+05 -2.526485E+05 -5.702402E+05  1.598667E-10 -7.669787E-11
       170  12 -1.551783E+06 -3.437930E+05 -1.960971E+05 -5.344604E+05  3.905642E-10 -6.976366E-11
       170  13 -9.973627E+05 -3.317602E+05 -2.345403E+05 -3.345821E+05 -6.234187E-10 -2.603012E-11
       170  14 -9.549189E+05 -1.423760E+05 -1.009021E+05 -3.823647E+05  2.601557E-10 -5.371680E-11
       170  15 -9.718821E+05 -1.529761E+05 -5.794294E+04 -4.018480E+05  1.948918E-09 -9.124960E-11
       170  16 -3.926624E+05 -2.741003E+04 -5.766983E+04 -9.122419E+04 -5.604114E-10  1.735787E-11
       170  17 -3.639294E+05  1.037115E+05  5.081516E+04 -1.943185E+05  3.843977E-10 -8.370599E-11
       170  18 -3.916475E+05  3.784690E+04  8.018808E+04 -2.691307E+05 -1.393620E-10 -1.551410E-10
       170  19 -1.601664E+06 -6.359854E+05 -4.113833E+05 -5.776913E+05  1.750010E+05  5.557688E+04
       170  20 -1.545550E+06 -3.884128E+05 -2.526240E+05 -5.702393E+05  1.134112E+05  1.048946E+04
       170  21 -1.551781E+06 -3.437922E+05 -1.960929E+05 -5.344610E+05  4.484000E+04 -1.609518E+04
       170  22 -9.973370E+05 -3.317516E+05 -2.344921E+05 -3.345763E+05  1.527892E+05  4.723595E+04
       170  23 -9.549069E+05 -1.423729E+05 -1.008810E+05 -3.823641E+05  1.056768E+05  7.585549E+03
       170  24 -9.718792E+05 -1.529752E+05 -5.793759E+04 -4.018486E+05  5.158984E+04 -1.355567E+04
       170  25 -3.926437E+05 -2.740382E+04 -5.763494E+04 -9.122010E+04  1.305537E+05  3.887923E+04
       170  26 -3.639191E+05  1.037141E+05  5.083324E+04 -1.943181E+05  9.793446E+04  4.677812E+03
       170  27 -3.916439E+05  3.784795E+04  8.019471E+04 -2.691312E+05  5.834659E+04 -1.101426E+04
       171   1 -1.477535E+06 -3.681347E+05 -1.740498E+05 -5.355512E+05 -4.158902E+04  1.316871E+04
       171   2 -1.434381E+06 -3.258365E+05 -1.385226E+05 -5.129027E+05 -2.826729E+04  1.611045E+04
       171   3 -1.380061E+06 -3.139713E+05 -1.158776E+05 -5.073683E+05 -1.461452E+04  1.816948E+04
       171   4 -9.642417E+05 -1.722170E+05 -4.617730E+04 -3.905066E+05 -4.268358E+04  1.275500E+04
       171   5 -9.690291E+05 -1.510357E+05 -2.346696E+04 -3.842122E+05 -3.004490E+04  1.544083E+04
       171   6 -9.625124E+05 -1.601449E+05 -1.308839E+04 -3.950332E+05 -1.707631E+04  1.724375E+04
       171   7 -4.506907E+05  2.372081E+04  8.167401E+04 -2.453524E+05 -4.377911E+04  1.234090E+04
       171   8 -5.034639E+05  2.378051E+04  9.157200E+04 -2.554338E+05 -3.182396E+04  1.477066E+04
       171   9 -5.447905E+05 -6.307057E+03  8.968810E+04 -2.826293E+05 -1.953993E+04  1.631736E+04
       171  10 -1.477537E+06 -3.681354E+05 -1.740534E+05 -5.355507E+05  3.790214E-10 -1.432318E-10
       171  11 -1.434382E+06 -3.258370E+05 -1.385246E+05 -5.129023E+05 -1.476253E-10  6.319336E-12
       171  12 -1.380061E+06 -3.139717E+05 -1.158787E+05 -5.073681E+05 -3.732990E-10  2.730060E-10
       171  13 -9.642437E+05 -1.722176E+05 -4.618103E+04 -3.905061E+05 -1.370757E-09 -9.726765E-11
       171  14 -9.690301E+05 -1.510362E+05 -2.346910E+04 -3.842119E+05 -8.851248E-10 -6.528798E-11
       171  15 -9.625128E+05 -1.601453E+05 -1.308949E+04 -3.950329E+05 -6.399001E-10  1.643943E-10
       171  16 -4.506928E+05  2.372013E+04  8.167012E+04 -2.453520E+05  2.447892E-10 -1.152665E-10
       171  17 -5.034650E+05  2.378001E+04  9.156969E+04 -2.554334E+05 -1.996030E-10  2.857452E-11
       171  18 -5.447910E+05 -6.307446E+03  8.968688E+04 -2.826291E+05  7.186270E-11 -3.440984E-11
       171  19 -1.477535E+06 -3.681347E+05 -1.740498E+05 -5.355512E+05  4.158902E+04 -1.316871E+04
       171  20 -1.434381E+06 -3.258365E+05 -1.385226E+05 -5.129027E+05  2.826729E+04 -1.611045E+04
       171  21 -1.380061E+06 -3.139713E+05 -1.158776E+05 -5.073683E+05  1.461452E+04 -1.816948E+04
       171  22 -9.642417E+05 -1.722170E+05 -4.617730E+04 -3.905066E+05  4.268358E+04 -1.275500E+04
       171  23 -9.690291E+05 -1.510357E+05 -2.346696E+04 -3.842122E+05  3.004490E+04 -1.544083E+04
       171  24 -9.625124E+05 -1.601449E+05 -1.308839E+04 -3.950332E+05  1.707631E+04 -1.724375E+04
       171  25 -4.506907E+05  2.372081E+04  8.167401E+04 -2.453524E+05  4.377911E+04 -1.234090E+04
       171  26 -5.034639E+05  2.378051E+04  9.157200E+04 -2.554338E+05  3.182396E+04 -1.477066E+04
       171  27 -5.447905E+05 -6.307057E+03  8.968810E+04 -2.826293E+05  1.953993E+04 -1.631736E+04
       172   1 -1.332286E+06 -2.997152E+05 -1.012457E+05 -4.958498E+05 -1.235829E+04  1.700380E+04
       172   2 -1.289874E+06 -2.708224E+05 -8.420763E+04 -4.717412E+05 -8.543231E+03  1.519669E+04
       172   3 -1.230266E+06 -2.606667E+05 -6.944041E+04 -4.679070E+05 -4.709009E+03  1.333457E+04
       172   4 -9.617405E+05 -1.614518E+05 -9.998264E+03 -3.942748E+05 -1.456868E+04  1.617293E+04
       172   5 -9.702796E+05 -1.516897E+05 -5.403793E+03 -3.842846E+05 -1.079508E+04  1.435086E+04
       172   6 -9.616167E+05 -1.606552E+05 -3.045973E+03 -3.945686E+05 -7.002575E+03  1.247371E+04
       172   7 -5.910602E+05 -2.317911E+04  8.123863E+04 -2.926447E+05 -1.678051E+04  1.534152E+04
       172   8 -6.505852E+05 -3.255034E+04  7.339202E+04 -2.967872E+05 -1.304819E+04  1.350456E+04
       172   9 -6.928972E+05 -6.063932E+04  6.334259E+04 -3.212018E+05 -9.297216E+03  1.161245E+04
       172  10 -1.332286E+06 -2.997155E+05 -1.012465E+05 -4.958496E+05 -2.645885E-10  4.055706E-10
       172  11 -1.289874E+06 -2.708227E+05 -8.420820E+04 -4.717411E+05  5.321823E-11  7.442542E-11
       172  12 -1.230266E+06 -2.606669E+05 -6.944078E+04 -4.679069E+05  5.716297E-10 -1.626666E-11
       172  13 -9.617408E+05 -1.614521E+05 -9.999154E+03 -3.942746E+05 -4.454522E-10  1.926934E-10
       172  14 -9.702797E+05 -1.516899E+05 -5.404398E+03 -3.842844E+05  2.637582E-10  2.037476E-10
       172  15 -9.616168E+05 -1.606554E+05 -3.046357E+03 -3.945686E+05 -4.294116E-11 -9.636778E-12
       172  16 -5.910606E+05 -2.317943E+04  8.123766E+04 -2.926445E+05  1.407000E-10  1.722382E-11
       172  17 -6.505855E+05 -3.255058E+04  7.339136E+04 -2.967870E+05  3.210681E-10  2.085609E-10
       172  18 -6.928973E+05 -6.063949E+04  6.334217E+04 -3.212017E+05 -3.297630E-10 -4.339458E-10
       172  19 -1.332286E+06 -2.997152E+05 -1.012457E+05 -4.958498E+05  1.235829E+04 -1.700380E+04
       172  20 -1.289874E+06 -2.708224E+05 -8.420763E+04 -4.717412E+05  8.543231E+03 -1.519669E+04
       172  21 -1.230266E+06 -2.606667E+05 -6.944041E+04 -4.679070E+05  4.709009E+03 -1.333457E+04
       172  22 -9.617405E+05 -1.614518E+05 -9.998264E+03 -3.942748E+05  1.456868E+04 -1.617293E+04
       172  23 -9.702796E+05 -1.516897E+05 -5.403793E+03 -3.842846E+05  1.079508E+04 -1.435086E+04
       172  24 -9.616167E+05 -1.606552E+05 -3.045973E+03 -3.945686E+05  7.002575E+03 -1.247371E+04
       172  25 -5.910602E+05 -2.317911E+04  8.123863E+04 -2.926447E+05  1.678051E+04 -1.534152E+04
       172  26 -6.505852E+05 -3.255034E+04  7.339202E+04 -2.967872E+05  1.304819E+04 -1.350456E+04
       172  27 -6.928972E+05 -6.063932E+04  6.334259E+04 -3.212018E+05  9.297216E+03 -1.161245E+04
       173   1 -1.183850E+06 -2.435900E+05 -5.698521E+04 -4.553849E+05 -3.631578E+03  1.179939E+04
       173   2 -1.141163E+06 -2.153069E+05 -4.353063E+04 -4.309347E+05 -1.809169E+03  9.152305E+03
       173   3 -1.080563E+06 -2.051114E+05 -3.063073E+04 -4.271318E+05  1.596349E+01  6.495674E+03
       173   4 -9.614901E+05 -1.607677E+05 -2.349501E+03 -3.945538E+05 -5.920940E+03  1.094041E+04
       173   5 -9.704382E+05 -1.516954E+05 -1.444316E+03 -3.842393E+05 -4.105773E+03  8.290926E+03
       173   6 -9.614762E+05 -1.607096E+05 -1.088153E+03 -3.945731E+05 -2.287956E+03  5.631888E+03
       173   7 -7.390806E+05 -7.794161E+04  5.228275E+04 -3.337027E+05 -8.211209E+03  1.008109E+04
       173   8 -7.996844E+05 -8.808185E+04  4.063990E+04 -3.375322E+05 -6.403073E+03  7.429287E+03
       173   9 -8.423751E+05 -1.163068E+05  2.845336E+04 -3.620087E+05 -4.592358E+03  4.767921E+03
       173  10 -1.183850E+06 -2.435901E+05 -5.698549E+04 -4.553849E+05 -1.408086E-10 -9.412410E-12
       173  11 -1.141163E+06 -2.153070E+05 -4.353080E+04 -4.309347E+05  1.135384E-10 -1.033310E-10
       173  12 -1.080563E+06 -2.051114E+05 -3.063081E+04 -4.271318E+05 -2.314440E-10 -1.009151E-10
       173  13 -9.614902E+05 -1.607678E+05 -2.349792E+03 -3.945538E+05  1.320615E-10 -3.011950E-10
       173  14 -9.704383E+05 -1.516955E+05 -1.444477E+03 -3.842393E+05  2.720471E-10  1.863325E-11
       173  15 -9.614762E+05 -1.607096E+05 -1.088222E+03 -3.945731E+05 -1.136272E-10  4.256433E-11
       173  16 -7.390807E+05 -7.794173E+04  5.228243E+04 -3.337026E+05  4.119422E-10 -2.647486E-10
       173  17 -7.996845E+05 -8.808192E+04  4.063972E+04 -3.375322E+05  1.273884E-09  1.159255E-11
       173  18 -8.423751E+05 -1.163068E+05  2.845328E+04 -3.620087E+05  3.260060E-10  7.090235E-11
       173  19 -1.183850E+06 -2.435900E+05 -5.698521E+04 -4.553849E+05  3.631578E+03 -1.179939E+04
       173  20 -1.141163E+06 -2.153069E+05 -4.353063E+04 -4.309347E+05  1.809169E+03 -9.152305E+03
       173  21 -1.080563E+06 -2.051114E+05 -3.063073E+04 -4.271318E+05 -1.596349E+01 -6.495674E+03
       173  22 -9.614901E+05 -1.607677E+05 -2.349501E+03 -3.945538E+05  5.920940E+03 -1.094041E+04
       173  23 -9.704382E+05 -1.516954E+05 -1.444316E+03 -3.842393E+05  4.105773E+03 -8.290926E+03
       173  24 -9.614762E+05 -1.607096E+05 -1.088153E+03 -3.945731E+05  2.287956E+03 -5.631888E+03
       173  25 -7.390806E+05 -7.794161E+04  5.228275E+04 -3.337027E+05  8.211209E+03 -1.008109E+04
       173  26 -7.996844E+05 -8.808185E+04  4.063990E+04 -3.375322E+05  6.403073E+03 -7.429287E+03
       173  27 -8.423751E+05 -1.163068E+05  2.845336E+04 -3.620087E+05  4.592358E+03 -4.767921E+03
       174   1 -1.033988E+06 -1.877323E+05 -1.875899E+04 -4.144574E+05  8.381840E+02  4.854786E+03
       174   2 -9.911046E+05 -1.593855E+05 -6.391956E+03 -3.898907E+05  2.585449E+03  2.159610E+03
       174   3 -9.302395E+05 -1.491912E+05  5.478625E+03 -3.860664E+05  4.332513E+03 -5.352683E+02
       174   4 -9.614591E+05 -1.607270E+05 -1.063318E+03 -3.945923E+05 -1.468939E+03  3.989920E+03
       174   5 -9.704502E+05 -1.516649E+05 -1.296403E+03 -3.842151E+05  2.784969E+02  1.294846E+03
       174   6 -9.614628E+05 -1.607556E+05 -2.025975E+03 -3.945814E+05  2.025675E+03 -1.399947E+03
       174   7 -8.889249E+05 -1.337215E+05  1.663189E+04 -3.747251E+05 -3.776346E+03  3.124947E+03
       174   8 -9.497953E+05 -1.439443E+05  3.799141E+03 -3.785393E+05 -2.028539E+03  4.300496E+02
       174   9 -9.926853E+05 -1.723199E+05 -9.530662E+03 -4.030961E+05 -2.810462E+02 -2.264582E+03
       174  10 -1.033988E+06 -1.877323E+05 -1.875903E+04 -4.144574E+05  5.520870E-11  9.799355E-13
       174  11 -9.911046E+05 -1.593855E+05 -6.391978E+03 -3.898907E+05 -2.033019E-10  5.673754E-12
       174  12 -9.302396E+05 -1.491912E+05  5.478589E+03 -3.860664E+05 -6.138751E-10 -3.233855E-12
       174  13 -9.614591E+05 -1.607270E+05 -1.063352E+03 -3.945923E+05 -4.871788E-10  1.165480E-10
       174  14 -9.704502E+05 -1.516649E+05 -1.296406E+03 -3.842151E+05 -1.359859E-10 -6.913638E-11
       174  15 -9.614628E+05 -1.607556E+05 -2.025986E+03 -3.945814E+05 -4.904405E-10 -5.050861E-11
       174  16 -8.889250E+05 -1.337215E+05  1.663184E+04 -3.747251E+05 -3.003769E-10 -7.363077E-11
       174  17 -9.497954E+05 -1.439443E+05  3.799133E+03 -3.785393E+05 -4.189447E-10 -1.645915E-10
       174  18 -9.926853E+05 -1.723199E+05 -9.530672E+03 -4.030961E+05  2.547832E-10 -2.949025E-10
       174  19 -1.033988E+06 -1.877323E+05 -1.875899E+04 -4.144574E+05 -8.381840E+02 -4.854786E+03
       174  20 -9.911046E+05 -1.593855E+05 -6.391956E+03 -3.898907E+05 -2.585449E+03 -2.159610E+03
       174  21 -9.302395E+05 -1.491912E+05  5.478625E+03 -3.860664E+05 -4.332513E+03  5.352683E+02
       174  22 -9.614591E+05 -1.607270E+05 -1.063318E+03 -3.945923E+05  1.468939E+03 -3.989920E+03
       174  23 -9.704502E+05 -1.516649E+05 -1.296403E+03 -3.842151E+05 -2.784969E+02 -1.294846E+03
       174  24 -9.614628E+05 -1.607556E+05 -2.025975E+03 -3.945814E+05 -2.025675E+03  1.399947E+03
       174  25 -8.889249E+05 -1.337215E+05  1.663189E+04 -3.747251E+05  3.776346E+03 -3.124947E+03
       174  26 -9.497953E+05 -1.439443E+05  3.799141E+03 -3.785393E+05  2.028539E+03 -4.300496E+02
       174  27 -9.926853E+05 -1.723199E+05 -9.530662E+03 -4.030961E+05  2.810462E+02  2.264582E+03
       175   1 -8.836411E+05 -1.317867E+05  1.675477E+04 -3.734896E+05  5.363210E+03 -2.102827E+03
       175   2 -8.407597E+05 -1.033810E+05  2.735430E+04 -3.488191E+05  8.726575E+03 -4.181437E+03
       175   3 -7.804006E+05 -9.378785E+04  3.606901E+04 -3.447311E+05  1.207760E+04 -6.224883E+03
       175   4 -9.615469E+05 -1.606889E+05 -2.605485E+03 -3.946269E+05  3.049151E+03 -2.970282E+03
       175   5 -9.703309E+05 -1.516074E+05 -4.574882E+03 -3.842134E+05  6.439445E+03 -5.039052E+03
       175   6 -9.616449E+05 -1.613444E+05 -8.450611E+03 -3.943838E+05  9.817183E+03 -7.072719E+03
       175   7 -1.039447E+06 -1.895908E+05 -2.196618E+04 -4.157618E+05  7.354089E+02 -3.837619E+03
       175   8 -1.099885E+06 -1.998326E+05 -3.650524E+04 -4.196009E+05  4.152843E+03 -5.896470E+03
       175   9 -1.142856E+06 -2.288984E+05 -5.297247E+04 -4.440230E+05  7.557499E+03 -7.920281E+03
       175  10 -8.836411E+05 -1.317867E+05  1.675471E+04 -3.734896E+05 -2.963893E-10  1.785507E-10
       175  11 -8.407598E+05 -1.033810E+05  2.735412E+04 -3.488191E+05  5.754741E-10  3.535855E-11
       175  12 -7.804008E+05 -9.378793E+04  3.606866E+04 -3.447311E+05  2.598117E-10  1.257077E-10
       175  13 -9.615469E+05 -1.606889E+05 -2.605519E+03 -3.946269E+05 -2.259887E-10  2.648893E-11
       175  14 -9.703309E+05 -1.516075E+05 -4.575008E+03 -3.842134E+05 -1.724772E-10 -7.713541E-11
       175  15 -9.616450E+05 -1.613445E+05 -8.450886E+03 -3.943837E+05  4.776640E-11  2.424923E-11
       175  16 -1.039447E+06 -1.895908E+05 -2.196621E+04 -4.157618E+05  1.013419E-11 -1.019969E-10
       175  17 -1.099885E+06 -1.998327E+05 -3.650533E+04 -4.196009E+05  4.597826E-10  2.135070E-10
       175  18 -1.142856E+06 -2.288985E+05 -5.297270E+04 -4.440229E+05  1.209307E-11 -1.606893E-10
       175  19 -8.836411E+05 -1.317867E+05  1.675477E+04 -3.734896E+05 -5.363210E+03  2.102827E+03
       175  20 -8.407597E+05 -1.033810E+05  2.735430E+04 -3.488191E+05 -8.726575E+03  4.181437E+03
       175  21 -7.804006E+05 -9.378785E+04  3.606901E+04 -3.447311E+05 -1.207760E+04  6.224883E+03
       175  22 -9.615469E+05 -1.606889E+05 -2.605485E+03 -3.946269E+05 -3.049151E+03  2.970282E+03
       175  23 -9.703309E+05 -1.516074E+05 -4.574882E+03 -3.842134E+05 -6.439445E+03  5.039052E+03
       175  24 -9.616449E+05 -1.613444E+05 -8.450611E+03 -3.943838E+05 -9.817183E+03  7.072719E+03
       175  25 -1.039447E+06 -1.895908E+05 -2.196618E+04 -4.157618E+05 -7.354089E+02  3.837619E+03
       175  26 -1.099885E+06 -1.998326E+05 -3.650524E+04 -4.196009E+05 -4.152843E+03  5.896470E+03
       175  27 -1.142856E+06 -2.288984E+05 -5.297247E+04 -4.440230E+05 -7.557499E+03  7.920281E+03
       176   1 -7.334248E+05 -7.663326E+04  4.521599E+04 -3.341722E+05  1.448796E+04 -7.337838E+03
       176   2 -6.911014E+05 -4.639941E+04  4.897437E+04 -3.070222E+05  2.512998E+04 -6.529496E+03
       176   3 -6.361036E+05 -4.474320E+04  4.270588E+04 -2.979138E+05  3.553271E+04 -5.077056E+03
       176   4 -9.622766E+05 -1.602631E+05 -1.105832E+04 -3.950489E+05  1.204031E+04 -8.256108E+03
       176   5 -9.692873E+05 -1.510137E+05 -1.980839E+04 -3.841205E+05  2.318334E+04 -7.260440E+03
       176   6 -9.637287E+05 -1.704465E+05 -3.898675E+04 -3.912359E+05  3.408617E+04 -5.620928E+03
       176   7 -1.191078E+06 -2.438903E+05 -6.733688E+04 -4.559057E+05  9.593631E+03 -9.174029E+03
       176   8 -1.247398E+06 -2.556227E+05 -8.859728E+04 -4.611875E+05  2.123764E+04 -7.991021E+03
       176   9 -1.291248E+06 -2.961409E+05 -1.206878E+05 -4.845127E+05  3.264047E+04 -6.164468E+03
       176  10 -7.334250E+05 -7.663338E+04  4.521549E+04 -3.341721E+05 -3.836865E-10  1.488508E-10
       176  11 -6.911021E+05 -4.639963E+04  4.897310E+04 -3.070221E+05 -3.709886E-10  9.640091E-11
       176  12 -6.361049E+05 -4.474357E+04  4.270346E+04 -2.979136E+05 -4.701718E-11 -1.235167E-10
       176  13 -9.622768E+05 -1.602632E+05 -1.105872E+04 -3.950488E+05  1.526928E-10  5.304097E-11
       176  14 -9.692879E+05 -1.510139E+05 -1.980950E+04 -3.841204E+05  5.823524E-10  1.677039E-10
       176  15 -9.637300E+05 -1.704468E+05 -3.898900E+04 -3.912358E+05  1.750924E-10 -9.832264E-11
       176  16 -1.191078E+06 -2.438904E+05 -6.733721E+04 -4.559057E+05  3.079963E-10 -3.836426E-11
       176  17 -1.247398E+06 -2.556229E+05 -8.859825E+04 -4.611874E+05 -2.444315E-11  1.618894E-10
       176  18 -1.291249E+06 -2.961412E+05 -1.206899E+05 -4.845126E+05 -3.931478E-10 -1.501241E-10
       176  19 -7.334248E+05 -7.663326E+04  4.521599E+04 -3.341722E+05 -1.448796E+04  7.337838E+03
       176  20 -6.911014E+05 -4.639941E+04  4.897437E+04 -3.070222E+05 -2.512998E+04  6.529496E+03
       176  21 -6.361036E+05 -4.474320E+04  4.270588E+04 -2.979138E+05 -3.553271E+04  5.077056E+03
       176  22 -9.622766E+05 -1.602631E+05 -1.105832E+04 -3.950489E+05 -1.204031E+04  8.256108E+03
       176  23 -9.692873E+05 -1.510137E+05 -1.980839E+04 -3.841205E+05 -2.318334E+04  7.260440E+03
       176  24 -9.637287E+05 -1.704465E+05 -3.898675E+04 -3.912359E+05 -3.408617E+04  5.620928E+03
       176  25 -1.191078E+06 -2.438903E+05 -6.733688E+04 -4.559057E+05 -9.593631E+03  9.174029E+03
       176  26 -1.247398E+06 -2.556227E+05 -8.859728E+04 -4.611875E+05 -2.123764E+04  7.991021E+03
       176  27 -1.291248E+06 -2.961409E+05 -1.206878E+05 -4.845127E+05 -3.264047E+04  6.164468E+03
       177   1 -5.781754E+05 -2.979325E+04  4.363738E+04 -3.158714E+05  4.723382E+04 -4.276239E+03
       177   2 -5.469679E+05  3.074873E+04  2.089567E+04 -2.483020E+05  8.260510E+04  8.645478E+03
       177   3 -5.605492E+05 -7.869180E+04 -6.994398E+04 -1.606752E+05  1.128802E+05  3.514106E+04
       177   4 -9.701597E+05 -1.542204E+05 -4.891593E+04 -4.008352E+05  4.163477E+04 -6.377425E+03
       177   5 -9.573902E+05 -1.436505E+05 -8.516007E+04 -3.825177E+05  8.764190E+04  1.053297E+04
       177   6 -9.915675E+05 -3.052473E+05 -1.979742E+05 -3.441344E+05  1.285491E+05  4.101494E+04
       177   7 -1.361991E+06 -2.786461E+05 -1.414791E+05 -4.857545E+05  3.603960E+04 -8.477648E+03
       177   8 -1.367645E+06 -3.180239E+05 -1.912296E+05 -5.166476E+05  9.267506E+04  1.241865E+04
       177   9 -1.422396E+06 -5.317327E+05 -3.260214E+05 -5.274615E+05  1.442062E+05  4.688026E+04
       177  10 -5.781778E+05 -2.979387E+04  4.363315E+04 -3.158712E+05 -3.798135E-10 -3.643807E-10
       177  11 -5.469753E+05  3.074682E+04  2.088269E+04 -2.483026E+05 -4.522914E-10  9.129359E-11
       177  12 -5.605633E+05 -7.869656E+04 -6.997027E+04 -1.606784E+05 -8.451447E-10  1.209803E-11
       177  13 -9.701615E+05 -1.542209E+05 -4.891927E+04 -4.008350E+05 -2.619519E-10 -1.689156E-10
       177  14 -9.573985E+05 -1.436527E+05 -8.517474E+04 -3.825184E+05 -2.458441E-10  5.012457E-10
       177  15 -9.915858E+05 -3.052536E+05 -1.980085E+05 -3.441387E+05  4.395000E-10 -2.109642E-10
       177  16 -1.361992E+06 -2.786465E+05 -1.414817E+05 -4.857542E+05  1.061559E-09 -3.065387E-11
       177  17 -1.367654E+06 -3.180264E+05 -1.912460E+05 -5.166485E+05  8.251239E-10 -6.451507E-11
       177  18 -1.422419E+06 -5.317407E+05 -3.260647E+05 -5.274669E+05  8.008013E-11 -8.292185E-11
       177  19 -5.781754E+05 -2.979325E+04  4.363738E+04 -3.158714E+05 -4.723382E+04  4.276239E+03
       177  20 -5.469679E+05  3.074873E+04  2.089567E+04 -2.483020E+05 -8.260510E+04 -8.645478E+03
       177  21 -5.605492E+05 -7.869180E+04 -6.994398E+04 -1.606752E+05 -1.128802E+05 -3.514106E+04
       177  22 -9.701597E+05 -1.542204E+05 -4.891593E+04 -4.008352E+05 -4.163477E+04  6.377425E+03
       177  23 -9.573902E+05 -1.436505E+05 -8.516007E+04 -3.825177E+05 -8.764190E+04 -1.053297E+04
       177  24 -9.915675E+05 -3.052473E+05 -1.979742E+05 -3.441344E+05 -1.285491E+05 -4.101494E+04
       177  25 -1.361991E+06 -2.786461E+05 -1.414791E+05 -4.857545E+05 -3.603960E+04  8.477648E+03
       177  26 -1.367645E+06 -3.180239E+05 -1.912296E+05 -5.166476E+05 -9.267506E+04 -1.241865E+04
       177  27 -1.422396E+06 -5.317327E+05 -3.260214E+05 -5.274615E+05 -1.442062E+05 -4.688026E+04
       178   1 -1.060568E+06 -2.466706E+05 -2.081184E+05 -2.091439E+04  6.435695E+04  1.994698E+04
       178   2 -9.430606E+05 -3.519811E+05 -2.437822E+05 -3.262221E+04  5.743229E+04  6.193574E+04
       178   3 -7.897847E+05 -3.221292E+05 -2.409552E+05 -1.035440E+05  5.057979E+04  6.352601E+04
       178   4  4.949948E+05  1.398909E+05  1.700112E+05 -8.239525E+04  1.167391E+05  2.003123E+04
       178   5  4.742843E+05 -4.363417E+03  7.681717E+04 -5.268694E+04  7.584500E+04  6.194781E+04
       178   6  4.951342E+05 -7.729609E+03  4.562552E+04 -8.217962E+04  3.502761E+04  6.350625E+04
       178   7  2.052782E+06  5.262906E+05  5.479781E+05 -1.440316E+05  1.692520E+05  2.010500E+04
       178   8  1.893499E+06  3.431178E+05  3.972889E+05 -7.279850E+04  9.429924E+04  6.195868E+04
       178   9  1.781594E+06  3.065596E+05  3.321039E+05 -6.077065E+04  1.944350E+04  6.348545E+04
       178  10 -1.060573E+06 -2.466722E+05 -2.081270E+05 -2.091543E+04  4.159792E-10  1.270956E-10
       178  11 -9.430652E+05 -3.519861E+05 -2.437956E+05 -3.262507E+04  2.200736E-10 -8.664892E-10
       178  12 -7.897885E+05 -3.221342E+05 -2.409676E+05 -1.035466E+05 -3.073978E-10 -3.540705E-10
       178  13  4.949800E+05  1.398868E+05  1.699848E+05 -8.239713E+04  4.870577E-10 -6.662782E-10
       178  14  4.742771E+05 -4.369081E+03  7.679915E+04 -5.269072E+04 -1.193399E-09 -3.442965E-10
       178  15  4.951318E+05 -7.734270E+03  4.561564E+04 -8.218141E+04 -6.006690E-10 -6.339575E-10
       178  16  2.052752E+06  5.262825E+05  5.479237E+05 -1.440344E+05 -7.495388E-10  6.809905E-10
       178  17  1.893488E+06  3.431113E+05  3.972650E+05 -7.280320E+04 -6.473635E-10 -5.079619E-10
       178  18  1.781593E+06  3.065552E+05  3.320956E+05 -6.077164E+04 -4.725788E-10 -6.565176E-10
       178  19 -1.060568E+06 -2.466706E+05 -2.081184E+05 -2.091439E+04 -6.435695E+04 -1.994698E+04
       178  20 -9.430606E+05 -3.519811E+05 -2.437822E+05 -3.262221E+04 -5.743229E+04 -6.193574E+04
       178  21 -7.897847E+05 -3.221292E+05 -2.409552E+05 -1.035440E+05 -5.057979E+04 -6.352601E+04
       178  22  4.949948E+05  1.398909E+05  1.700112E+05 -8.239525E+04 -1.167391E+05 -2.003123E+04
       178  23  4.742843E+05 -4.363417E+03  7.681717E+04 -5.268694E+04 -7.584500E+04 -6.194781E+04
       178  24  4.951342E+05 -7.729609E+03  4.562552E+04 -8.217962E+04 -3.502761E+04 -6.350625E+04
       178  25  2.052782E+06  5.262906E+05  5.479781E+05 -1.440316E+05 -1.692520E+05 -2.010500E+04
       178  26  1.893499E+06  3.431178E+05  3.972889E+05 -7.279850E+04 -9.429924E+04 -6.195868E+04
       178  27  1.781594E+06  3.065596E+05  3.321039E+05 -6.077065E+04 -1.944350E+04 -6.348545E+04
       179   1 -6.820851E+05 -2.779762E+05 -2.256327E+05 -7.995496E+04  3.189221E+04  5.526768E+04
       179   2 -5.501232E+05 -2.539493E+05 -2.117819E+05 -5.182288E+04  2.359860E+04  5.022893E+04
       179   3 -4.143875E+05 -2.211706E+05 -1.902279E+05 -8.387179E+04  1.529452E+04  4.339187E+04
       179   4  4.868496E+05  8.257376E+03  3.642673E+04 -8.245283E+04  2.845736E+04  5.525833E+04
       179   5  4.848847E+05 -6.691999E+02  1.952190E+04 -5.236457E+04  1.863736E+04  5.022209E+04
       179   6  4.869324E+05 -5.875975E+02  1.136855E+04 -8.245068E+04  8.808631E+03  4.338893E+04
       179   7  1.657057E+06  2.943978E+05  2.983998E+05 -8.495554E+04  2.501607E+04  5.524902E+04
       179   8  1.520891E+06  2.525380E+05  2.507583E+05 -5.290718E+04  1.366791E+04  5.021527E+04
       179   9  1.389009E+06  2.199401E+05  2.129140E+05 -8.102740E+04  2.313413E+03  4.338596E+04
       179  10 -6.820870E+05 -2.779797E+05 -2.256404E+05 -7.995638E+04 -4.467017E-10 -1.345918E-10
       179  11 -5.501245E+05 -2.539521E+05 -2.117876E+05 -5.182383E+04  1.051451E-09  5.686936E-10
       179  12 -4.143883E+05 -2.211727E+05 -1.902319E+05 -8.387232E+04  2.036936E-09 -3.035430E-10
       179  13  4.868479E+05  8.253879E+03  3.641947E+04 -8.245410E+04 -9.775613E-10 -5.128337E-10
       179  14  4.848837E+05 -6.720022E+02  1.951651E+04 -5.236532E+04  1.091178E-10  7.383386E-10
       179  15  4.869319E+05 -5.896404E+02  1.136486E+04 -8.245099E+04  6.440026E-11 -5.881381E-10
       179  16  1.657055E+06  2.943943E+05  2.983929E+05 -8.495665E+04  9.008461E-10 -4.520675E-11
       179  17  1.520890E+06  2.525353E+05  2.507533E+05 -5.290773E+04 -5.005768E-10  3.690013E-10
       179  18  1.389009E+06  2.199381E+05  2.129105E+05 -8.102748E+04 -1.173877E-09 -3.360945E-10
       179  19 -6.820851E+05 -2.779762E+05 -2.256327E+05 -7.995496E+04 -3.189221E+04 -5.526768E+04
       179  20 -5.501232E+05 -2.539493E+05 -2.117819E+05 -5.182288E+04 -2.359860E+04 -5.022893E+04
       179  21 -4.143875E+05 -2.211706E+05 -1.902279E+05 -8.387179E+04 -1.529452E+04 -4.339187E+04
       179  22  4.868496E+05  8.257376E+03  3.642673E+04 -8.245283E+04 -2.845736E+04 -5.525833E+04
       179  23  4.848847E+05 -6.691999E+02  1.952190E+04 -5.236457E+04 -1.863736E+04 -5.022209E+04
       179  24  4.869324E+05 -5.875975E+02  1.136855E+04 -8.245068E+04 -8.808631E+03 -4.338893E+04
       179  25  1.657057E+06  2.943978E+05  2.983998E+05 -8.495554E+04 -2.501607E+04 -5.524902E+04
       179  26  1.520891E+06  2.525380E+05  2.507583E+05 -5.290718E+04 -1.366791E+04 -5.021527E+04
       179  27  1.389009E+06  2.199401E+05  2.129140E+05 -8.102740E+04 -2.313413E+03 -4.338596E+04
       180   1 -3.005749E+05 -1.920247E+05 -1.666094E+05 -8.224829E+04  1.296879E+04  3.900984E+04
       180   2 -1.677445E+05 -1.600096E+05 -1.409795E+05 -5.227517E+04  1.056589E+04  3.190378E+04
       180   3 -3.432288E+04 -1.273517E+05 -1.136016E+05 -8.220694E+04  8.156000E+03  2.472691E+04
       180   4  4.862154E+05  3.922233E+02  8.737180E+03 -8.239037E+04  7.036540E+03  3.900875E+04
       180   5  4.859482E+05 -1.008151E+02  4.967917E+03 -5.244000E+04  4.570743E+03  3.190513E+04
       180   6  4.862656E+05  6.039173E+01  2.988967E+03 -8.239068E+04  2.098464E+03  2.473081E+04
       180   7  1.273583E+06  1.927671E+05  1.840452E+05 -8.253255E+04  1.096845E+03  3.900765E+04
       180   8  1.140039E+06  1.597790E+05  1.508886E+05 -5.260493E+04 -1.430652E+03  3.190648E+04
       180   9  1.007107E+06  1.274540E+05  1.195625E+05 -8.257450E+04 -3.964099E+03  2.473470E+04
       180  10 -3.005755E+05 -1.920263E+05 -1.666126E+05 -8.224869E+04 -1.087459E-10 -7.427321E-10
       180  11 -1.677449E+05 -1.600107E+05 -1.409816E+05 -5.227544E+04 -7.705802E-10 -5.767180E-10
       180  12 -3.432311E+04 -1.273524E+05 -1.136029E+05 -8.220710E+04  5.050003E-10 -6.726420E-12
       180  13  4.862149E+05  3.905756E+02  8.734227E+03 -8.239059E+04 -8.016758E-11 -6.802240E-10
       180  14  4.859479E+05 -1.019140E+02  4.965964E+03 -5.244012E+04  5.426177E-10  8.759182E-11
       180  15  4.862655E+05  5.973362E+01  2.987809E+03 -8.239072E+04  1.129101E-10  7.881695E-10
       180  16  1.273582E+06  1.927655E+05  1.840423E+05 -8.253258E+04  9.417731E-10 -4.580715E-10
       180  17  1.140039E+06  1.597779E+05  1.508867E+05 -5.260490E+04  9.093780E-10  1.369947E-10
       180  18  1.007106E+06  1.274534E+05  1.195614E+05 -8.257442E+04 -6.467714E-11 -3.237786E-10
       180  19 -3.005749E+05 -1.920247E+05 -1.666094E+05 -8.224829E+04 -1.296879E+04 -3.900984E+04
       180  20 -1.677445E+05 -1.600096E+05 -1.409795E+05 -5.227517E+04 -1.056589E+04 -3.190378E+04
       180  21 -3.432288E+04 -1.273517E+05 -1.136016E+05 -8.220694E+04 -8.156000E+03 -2.472691E+04
       180  22  4.862154E+05  3.922233E+02  8.737180E+03 -8.239037E+04 -7.036540E+03 -3.900875E+04
       180  23  4.859482E+05 -1.008151E+02  4.967917E+03 -5.244000E+04 -4.570743E+03 -3.190513E+04
       180  24  4.862656E+05  6.039173E+01  2.988967E+03 -8.239068E+04 -2.098464E+03 -2.473081E+04
       180  25  1.273583E+06  1.927671E+05  1.840452E+05 -8.253255E+04 -1.096845E+03 -3.900765E+04
       180  26  1.140039E+06  1.597790E+05  1.508886E+05 -5.260493E+04  1.430652E+03 -3.190648E+04
       180  27  1.007107E+06  1.274540E+05  1.195625E+05 -8.257450E+04  3.964099E+03 -2.473470E+04
       181   1  7.961876E+04 -9.924414E+04 -8.801529E+04 -8.212986E+04  7.639746E+03  2.053680E+04
       181   2  2.123464E+05 -6.689547E+04 -5.951904E+04 -5.231692E+04  6.844624E+03  1.336207E+04
       181   3  3.451199E+05 -3.440105E+04 -3.049603E+04 -8.222341E+04  6.046641E+03  6.188178E+03
       181   4  4.861673E+05  1.158261E+02  2.356184E+03 -8.234988E+04  1.611767E+03  2.054176E+04
       181   5  4.861620E+05  7.046872E+01  1.597555E+03 -5.249096E+04  8.163628E+02  1.336804E+04
       181   6  4.861881E+05  1.724266E+02  1.366757E+03 -8.234986E+04  1.826262E+01  6.195210E+03
       181   7  8.928699E+05  9.946463E+04  9.271749E+04 -8.256999E+04 -4.420114E+03  2.054674E+04
       181   8  7.600476E+05  6.703134E+04  6.270958E+04 -5.266506E+04 -5.214528E+03  1.337401E+04
       181   9  6.272748E+05  3.474455E+04  3.322840E+04 -8.247634E+04 -6.011472E+03  6.202244E+03
       181  10  7.961859E+04 -9.924461E+04 -8.801619E+04 -8.212999E+04  2.975190E-10  3.579820E-10
       181  11  2.123463E+05 -6.689568E+04 -5.951946E+04 -5.231699E+04 -1.106871E-09 -3.924670E-10
       181  12  3.451198E+05 -3.440110E+04 -3.049617E+04 -8.222344E+04 -7.190995E-10 -1.043177E-09
       181  13  4.861671E+05  1.153722E+02  2.355386E+03 -8.234990E+04  4.300620E-10 -5.769920E-10
       181  14  4.861620E+05  7.027660E+01  1.597218E+03 -5.249097E+04  1.241320E-09  9.404832E-11
       181  15  4.861880E+05  1.723854E+02  1.366685E+03 -8.234986E+04  8.279962E-10 -9.274921E-10
       181  16  8.928698E+05  9.946417E+04  9.271666E+04 -8.256991E+04  5.457738E-10 -1.082733E-10
       181  17  7.600475E+05  6.703114E+04  6.270919E+04 -5.266500E+04  5.578970E-10  2.406283E-11
       181  18  6.272747E+05  3.474450E+04  3.322826E+04 -8.247631E+04  8.314782E-10 -1.049175E-09
       181  19  7.961876E+04 -9.924414E+04 -8.801529E+04 -8.212986E+04 -7.639746E+03 -2.053680E+04
       181  20  2.123464E+05 -6.689547E+04 -5.951904E+04 -5.231692E+04 -6.844624E+03 -1.336207E+04
       181  21  3.451199E+05 -3.440105E+04 -3.049603E+04 -8.222341E+04 -6.046641E+03 -6.188178E+03
       181  22  4.861673E+05  1.158261E+02  2.356184E+03 -8.234988E+04 -1.611767E+03 -2.054176E+04
       181  23  4.861620E+05  7.046872E+01  1.597555E+03 -5.249096E+04 -8.163628E+02 -1.336804E+04
       181  24  4.861881E+05  1.724266E+02  1.366757E+03 -8.234986E+04 -1.826262E+01 -6.195210E+03
       181  25  8.928699E+05  9.946463E+04  9.271749E+04 -8.256999E+04  4.420114E+03 -2.054674E+04
       181  26  7.600476E+05  6.703134E+04  6.270958E+04 -5.266506E+04  5.214528E+03 -1.337401E+04
       181  27  6.272748E+05  3.474455E+04  3.322840E+04 -8.247634E+04  6.011472E+03 -6.202244E+03
       182   1  4.589946E+05 -6.400925E+03 -4.284029E+03 -8.231219E+04  5.788650E+03  2.013901E+03
       182   2  5.916884E+05  2.588705E+04  2.536505E+04 -5.253925E+04  4.879961E+03 -5.155734E+03
       182   3  7.244119E+05  5.833588E+04  5.560914E+04 -8.245173E+04  3.972113E+03 -1.232392E+04
       182   4  4.861881E+05  1.728513E+02  1.405523E+03 -8.234281E+04 -2.390761E+02  2.021131E+03
       182   5  4.861784E+05  8.886958E+01  1.820048E+03 -5.249977E+04 -1.147059E+03 -5.148936E+03
       182   6  4.861799E+05  1.662387E+02  2.829329E+03 -8.234277E+04 -2.054012E+03 -1.231749E+04
       182   7  5.133823E+05  6.746600E+03  7.095170E+03 -8.237342E+04 -6.267062E+03  2.028363E+03
       182   8  3.806788E+05 -2.571004E+04 -2.172552E+04 -5.246030E+04 -7.173066E+03 -5.142137E+03
       182   9  2.480009E+05 -5.800721E+04 -4.995386E+04 -8.223385E+04 -8.077852E+03 -1.231106E+04
       182  10  4.589946E+05 -6.400939E+03 -4.284099E+03 -8.231220E+04 -3.607958E-09 -8.689703E-11
       182  11  5.916883E+05  2.588701E+04  2.536496E+04 -5.253923E+04  3.607223E-09  1.780271E-09
       182  12  7.244119E+05  5.833572E+04  5.560882E+04 -8.245169E+04  8.319845E-09  5.362547E-11
       182  13  4.861881E+05  1.728469E+02  1.405515E+03 -8.234281E+04  7.770102E-10 -5.630354E-10
       182  14  4.861784E+05  8.884075E+01  1.819996E+03 -5.249978E+04  1.481950E-09 -6.420318E-10
       182  15  4.861799E+05  1.660746E+02  2.829036E+03 -8.234280E+04 -1.555348E-09  7.274901E-10
       182  16  5.133822E+05  6.746585E+03  7.095089E+03 -8.237341E+04  2.284720E-09 -3.741146E-10
       182  17  3.806787E+05 -2.571009E+04 -2.172566E+04 -5.246033E+04 -2.525764E-09 -6.687628E-10
       182  18  2.480008E+05 -5.800739E+04 -4.995427E+04 -8.223393E+04 -7.874722E-09  3.173299E-10
       182  19  4.589946E+05 -6.400925E+03 -4.284029E+03 -8.231219E+04 -5.788650E+03 -2.013901E+03
       182  20  5.916884E+05  2.588705E+04  2.536505E+04 -5.253925E+04 -4.879961E+03  5.155734E+03
       182  21  7.244119E+05  5.833588E+04  5.560914E+04 -8.245173E+04 -3.972113E+03  1.232392E+04
       182  22  4.861881E+05  1.728513E+02  1.405523E+03 -8.234281E+04  2.390761E+02 -2.021131E+03
       182  23  4.861784E+05  8.886958E+01  1.820048E+03 -5.249977E+04  1.147059E+03  5.148936E+03
       182  24  4.861799E+05  1.662387E+02  2.829329E+03 -8.234277E+04  2.054012E+03  1.231749E+04
       182  25  5.133823E+05  6.746600E+03  7.095170E+03 -8.237342E+04  6.267062E+03 -2.028363E+03
       182  26  3.806788E+05 -2.571004E+04 -2.172552E+04 -5.246030E+04  7.173066E+03  5.142137E+03
       182  27  2.480009E+05 -5.800721E+04 -4.995386E+04 -8.223385E+04  8.077852E+03  1.231106E+04
       183   1  8.385172E+05  8.628449E+04  8.259532E+04 -8.244795E+04  3.410093E+03 -1.650656E+04
       183   2  9.712130E+05  1.185640E+05  1.143955E+05 -5.261890E+04  3.022307E+02 -2.366914E+04
       183   3  1.104519E+06  1.516609E+05  1.484132E+05 -8.258833E+04 -2.801464E+03 -3.076688E+04
       183   4  4.862917E+05  9.983716E+01  3.630707E+03 -8.236856E+04 -2.641941E+03 -1.650080E+04
       183   5  4.859805E+05 -5.396393E+01  6.133087E+03 -5.246761E+04 -5.693691E+03 -2.366529E+04
       183   6  4.862541E+05  6.015399E+02  1.081619E+04 -8.236799E+04 -8.740625E+03 -3.076486E+04
       183   7  1.341817E+05 -8.609325E+04 -7.534162E+04 -8.228917E+04 -8.690580E+03 -1.649504E+04
       183   8  9.671764E+02 -1.186879E+05 -1.021440E+05 -5.231639E+04 -1.168498E+04 -2.366144E+04
       183   9 -1.316549E+05 -1.504837E+05 -1.268046E+05 -8.214779E+04 -1.467394E+04 -3.076284E+04
       183  10  8.385171E+05  8.628419E+04  8.259479E+04 -8.244791E+04 -5.538676E-09 -2.742681E-10
       183  11  9.712129E+05  1.185634E+05  1.143945E+05 -5.261890E+04 -3.009931E-09  1.804949E-11
       183  12  1.104519E+06  1.516599E+05  1.484114E+05 -8.258839E+04 -7.587595E-11  1.430848E-10
       183  13  4.862917E+05  9.954283E+01  3.630183E+03 -8.236859E+04 -1.407361E-09  7.344087E-10
       183  14  4.859803E+05 -5.457417E+01  6.131973E+03 -5.246772E+04  1.299757E-11 -4.094520E-10
       183  15  4.862538E+05  6.005027E+02  1.081426E+04 -8.236821E+04  1.045195E-09 -2.356815E-10
       183  16  1.341816E+05 -8.609357E+04 -7.534227E+04 -8.228928E+04  5.807556E-09  6.177340E-10
       183  17  9.668794E+02 -1.186885E+05 -1.021453E+05 -5.231661E+04  3.833271E-09  1.210004E-09
       183  18 -1.316554E+05 -1.504847E+05 -1.268068E+05 -8.214816E+04 -6.770994E-11  3.405748E-10
       183  19  8.385172E+05  8.628449E+04  8.259532E+04 -8.244795E+04 -3.410093E+03  1.650656E+04
       183  20  9.712130E+05  1.185640E+05  1.143955E+05 -5.261890E+04 -3.022307E+02  2.366914E+04
       183  21  1.104519E+06  1.516609E+05  1.484132E+05 -8.258833E+04  2.801464E+03  3.076688E+04
       183  22  4.862917E+05  9.983716E+01  3.630707E+03 -8.236856E+04  2.641941E+03  1.650080E+04
       183  23  4.859805E+05 -5.396393E+01  6.133087E+03 -5.246761E+04  5.693691E+03  2.366529E+04
       183  24  4.862541E+05  6.015399E+02  1.081619E+04 -8.236799E+04  8.740625E+03  3.076486E+04
       183  25  1.341817E+05 -8.609325E+04 -7.534162E+04 -8.228917E+04  8.690580E+03  1.649504E+04
       183  26  9.671764E+02 -1.186879E+05 -1.021440E+05 -5.231639E+04  1.168498E+04  2.366144E+04
       183  27 -1.316549E+05 -1.504837E+05 -1.268046E+05 -8.214779E+04  1.467394E+04  3.076284E+04
       184   1  1.219826E+06  1.785406E+05  1.778646E+05 -8.076963E+04 -4.501647E+03 -3.511635E+04
       184   2  1.351001E+06  2.110773E+05  2.176088E+05 -5.340975E+04 -1.806946E+04 -4.196538E+04
       184   3  1.487094E+06  2.550271E+05  2.690852E+05 -8.605727E+04 -3.163216E+04 -4.720925E+04
       184   4  4.871274E+05 -6.099178E+02  1.407802E+04 -8.241561E+04 -1.093583E+04 -3.511563E+04
       184   5  4.847546E+05 -6.640080E+02  2.423257E+04 -5.240865E+04 -2.313793E+04 -4.196842E+04
       184   6  4.870567E+05  1.046958E+04  4.518517E+04 -8.241373E+04 -3.533208E+04 -4.721508E+04
       184   7 -2.450719E+05 -1.797969E+05 -1.497422E+05 -8.405952E+04 -1.736251E+04 -3.511489E+04
       184   8 -3.807936E+05 -2.124562E+05 -1.691907E+05 -5.140889E+04 -2.819940E+04 -4.197148E+04
       184   9 -5.120507E+05 -2.341560E+05 -1.787779E+05 -7.877606E+04 -3.902608E+04 -4.722095E+04
       184  10  1.219826E+06  1.785393E+05  1.778623E+05 -8.076976E+04 -8.954682E-10  5.679969E-10
       184  11  1.351000E+06  2.110753E+05  2.176049E+05 -5.341036E+04 -3.265810E-10  1.000127E-10
       184  12  1.487092E+06  2.550244E+05  2.690791E+05 -8.605847E+04  4.486610E-11 -4.042302E-10
       184  13  4.871270E+05 -6.112744E+02  1.407547E+04 -8.241591E+04 -6.517703E-10  5.478939E-10
       184  14  4.847536E+05 -6.660435E+02  2.422826E+04 -5.240943E+04 -1.760270E-09  4.586509E-10
       184  15  4.870548E+05  1.046685E+04  4.517864E+04 -8.241507E+04 -1.129576E-09 -6.605392E-10
       184  16 -2.450725E+05 -1.797983E+05 -1.497451E+05 -8.406001E+04  7.891413E-10  4.700846E-10
       184  17 -3.807949E+05 -2.124583E+05 -1.691955E+05 -5.140984E+04  1.117232E-09  4.133602E-10
       184  18 -5.120529E+05 -2.341588E+05 -1.787850E+05 -7.877755E+04 -1.252333E-09 -1.151870E-09
       184  19  1.219826E+06  1.785406E+05  1.778646E+05 -8.076963E+04  4.501647E+03  3.511635E+04
       184  20  1.351001E+06  2.110773E+05  2.176088E+05 -5.340975E+04  1.806946E+04  4.196538E+04
       184  21  1.487094E+06  2.550271E+05  2.690852E+05 -8.605727E+04  3.163216E+04  4.720925E+04
       184  22  4.871274E+05 -6.099178E+02  1.407802E+04 -8.241561E+04  1.093583E+04  3.511563E+04
       184  23  4.847546E+05 -6.640080E+02  2.423257E+04 -5.240865E+04  2.313793E+04  4.196842E+04
       184  24  4.870567E+05  1.046958E+04  4.518517E+04 -8.241373E+04  3.533208E+04  4.721508E+04
       184  25 -2.450719E+05 -1.797969E+05 -1.497422E+05 -8.405952E+04  1.736251E+04  3.511489E+04
       184  26 -3.807936E+05 -2.124562E+05 -1.691907E+05 -5.140889E+04  2.819940E+04  4.197148E+04
       184  27 -5.120507E+05 -2.341560E+05 -1.787779E+05 -7.877606E+04  3.902608E+04  4.722095E+04
       185   1  1.613123E+06  2.632772E+05  3.051193E+05 -5.633841E+04 -2.893969E+04 -5.500900E+04
       185   2  1.720003E+06  3.005587E+05  3.773054E+05 -7.866480E+04 -1.100225E+05 -5.436820E+04
       185   3  1.883085E+06  5.175959E+05  5.472807E+05 -1.601218E+05 -1.911727E+05 -1.769300E+04
       185   4  4.973069E+05 -9.340475E+03  5.659015E+04 -8.217551E+04 -4.348454E+04 -5.501897E+04
       185   5  4.717313E+05 -5.123287E+03  9.534662E+04 -5.269618E+04 -9.414778E+04 -5.436865E+04
       185   6  4.971736E+05  1.737616E+05  2.109042E+05 -8.233923E+04 -1.448566E+05 -1.766506E+04
       185   7 -6.173493E+05 -2.820399E+05 -1.920157E+05 -1.079658E+05 -5.800353E+04 -5.502775E+04
       185   8 -7.750933E+05 -3.109095E+05 -1.867108E+05 -2.678038E+04 -7.830445E+04 -5.436779E+04
       185   9 -8.869708E+05 -1.701894E+05 -1.255996E+05 -4.730800E+03 -9.864314E+04 -1.762553E+04
       185  10  1.613122E+06  2.632737E+05  3.051120E+05 -5.633969E+04 -1.434642E-09 -2.682679E-10
       185  11  1.719989E+06  3.005523E+05  3.772772E+05 -7.866961E+04  1.784896E-11 -1.243750E-10
       185  12  1.883046E+06  5.175858E+05  5.472117E+05 -1.601245E+05  1.163132E-09 -2.739461E-10
       185  13  4.973040E+05 -9.344234E+03  5.658091E+04 -8.217744E+04 -2.552231E-10 -2.166014E-10
       185  14  4.717210E+05 -5.128839E+03  9.532442E+04 -5.270031E+04 -1.329935E-09  1.448494E-09
       185  15  4.971510E+05  1.737557E+05  2.108642E+05 -8.234129E+04  7.196251E-10 -3.252014E-11
       185  16 -6.173538E+05 -2.820441E+05 -1.920278E+05 -1.079684E+05 -1.970748E-10 -8.655407E-10
       185  17 -7.751007E+05 -3.109143E+05 -1.867279E+05 -2.678381E+04 -1.935656E-09  5.805390E-10
       185  18 -8.869813E+05 -1.701923E+05 -1.256185E+05 -4.732200E+03 -3.218925E-10 -1.313919E-10
       185  19  1.613123E+06  2.632772E+05  3.051193E+05 -5.633841E+04  2.893969E+04  5.500900E+04
       185  20  1.720003E+06  3.005587E+05  3.773054E+05 -7.866480E+04  1.100225E+05  5.436820E+04
       185  21  1.883085E+06  5.175959E+05  5.472807E+05 -1.601218E+05  1.911727E+05  1.769300E+04
       185  22  4.973069E+05 -9.340475E+03  5.659015E+04 -8.217551E+04  4.348454E+04  5.501897E+04
       185  23  4.717313E+05 -5.123287E+03  9.534662E+04 -5.269618E+04  9.414778E+04  5.436865E+04
       185  24  4.971736E+05  1.737616E+05  2.109042E+05 -8.233923E+04  1.448566E+05  1.766506E+04
       185  25 -6.173493E+05 -2.820399E+05 -1.920157E+05 -1.079658E+05  5.800353E+04  5.502775E+04
       185  26 -7.750933E+05 -3.109095E+05 -1.867108E+05 -2.678038E+04  7.830445E+04  5.436779E+04
       185  27 -8.869708E+05 -1.701894E+05 -1.255996E+05 -4.730800E+03  9.864314E+04  1.762553E+04
       186   1  2.962548E+05  1.022607E+06  3.108771E+05 -2.463570E+05  7.716251E+03  9.283065E+04
       186   2  1.194445E+05  6.768395E+05  1.632102E+05 -1.451359E+05  1.957125E+04  4.566290E+04
       186   3  3.676425E+04  3.600585E+05  6.958775E+04 -1.917015E+05  7.265449E+03 -1.538098E+03
       186   4  9.033557E+04  1.958515E+05  1.086456E+05 -2.041886E+05  7.773476E+03  7.275379E+04
       186   5 -1.841991E+03  1.832007E+05  5.061764E+04 -1.304150E+05  1.957263E+04  4.593688E+04
       186   6 -3.365258E+03  1.959510E+05  3.256246E+04 -2.044207E+05  7.206463E+03  1.906142E+04
       186   7 -1.156276E+05 -6.302771E+05 -9.363344E+04 -1.620759E+05  7.828020E+03  5.270352E+04
       186   8 -1.231446E+05 -3.102120E+05 -6.199074E+04 -1.157057E+05  1.957403E+04  4.621062E+04
       186   9 -4.349576E+04  3.186989E+04 -4.462864E+03 -2.171364E+05  7.146625E+03  3.965554E+04
       186  10  2.962524E+05  1.022597E+06  3.108608E+05 -2.463576E+05  1.381694E-11 -3.230098E-10
       186  11  1.194435E+05  6.768372E+05  1.632056E+05 -1.451366E+05 -1.423713E-09  7.638307E-10
       186  12  3.676419E+04  3.600585E+05  6.958764E+04 -1.917015E+05 -1.742493E-09 -2.661622E-10
       186  13  9.033409E+04  1.958458E+05  1.086355E+05 -2.041890E+05  6.862779E-10  5.967291E-10
       186  14 -1.842969E+03  1.831983E+05  5.061296E+04 -1.304157E+05 -1.684929E-10  1.142884E-11
       186  15 -3.365411E+03  1.959506E+05  3.256168E+04 -2.044208E+05  8.235321E-10  5.626230E-10
       186  16 -1.156284E+05 -6.302801E+05 -9.363878E+04 -1.620762E+05 -3.042397E-12 -8.286591E-10
       186  17 -1.231456E+05 -3.102144E+05 -6.199548E+04 -1.157064E+05  2.209915E-09 -3.116049E-10
       186  18 -4.349624E+04  3.186818E+04 -4.465915E+03 -2.171367E+05  3.526787E-10  5.781560E-10
       186  19  2.962548E+05  1.022607E+06  3.108771E+05 -2.463570E+05 -7.716251E+03 -9.283065E+04
       186  20  1.194445E+05  6.768395E+05  1.632102E+05 -1.451359E+05 -1.957125E+04 -4.566290E+04
       186  21  3.676425E+04  3.600585E+05  6.958775E+04 -1.917015E+05 -7.265449E+03  1.538098E+03
       186  22  9.033557E+04  1.958515E+05  1.086456E+05 -2.041886E+05 -7.773476E+03 -7.275379E+04
       186  23 -1.841991E+03  1.832007E+05  5.061764E+04 -1.304150E+05 -1.957263E+04 -4.593688E+04
       186  24 -3.365258E+03  1.959510E+05  3.256246E+04 -2.044207E+05 -7.206463E+03 -1.906142E+04
       186  25 -1.156276E+05 -6.302771E+05 -9.363344E+04 -1.620759E+05 -7.828020E+03 -5.270352E+04
       186  26 -1.231446E+05 -3.102120E+05 -6.199074E+04 -1.157057E+05 -1.957403E+04 -4.621062E+04
       186  27 -4.349576E+04  3.186989E+04 -4.462864E+03 -2.171364E+05 -7.146625E+03 -3.965554E+04
       187   1 -2.313842E+04  7.032757E+04  9.183030E+02 -2.069123E+05 -5.773008E+03  1.579085E+02
       187   2 -1.103543E+05 -2.622287E+05 -8.013285E+04 -1.294689E+05 -2.184783E+04 -9.507291E+03
       187   3 -1.873545E+05 -5.916582E+05 -1.525375E+05 -2.008272E+05 -3.690864E+04 -1.915489E+04
       187   4  6.379809E+03  1.910125E+05  2.792523E+04 -2.045787E+05 -5.813067E+03  1.411188E+04
       187   5  1.651836E+02  1.893842E+05  2.081448E+04 -1.301847E+05 -2.188143E+04  3.588432E+03
       187   6  4.318955E+03  1.909278E+05  2.294933E+04 -2.045842E+05 -3.693643E+04 -6.922404E+03
       187   7  3.589718E+04  3.117115E+05  5.493197E+04 -2.022446E+05 -5.853015E+03  2.806854E+04
       187   8  1.106709E+05  6.411874E+05  1.217496E+05 -1.309008E+05 -2.191506E+04  1.669358E+04
       187   9  1.959507E+05  9.740846E+05  1.983980E+05 -2.083455E+05 -3.696434E+04  5.325360E+03
       187  10 -2.313846E+04  7.032756E+04  9.182404E+02 -2.069123E+05 -1.111779E-09 -5.462568E-10
       187  11 -1.103548E+05 -2.622289E+05 -8.013392E+04 -1.294690E+05 -1.859751E-10  3.740086E-10
       187  12 -1.873561E+05 -5.916590E+05 -1.525408E+05 -2.008278E+05 -3.426868E-10 -7.815588E-10
       187  13  6.379720E+03  1.910123E+05  2.792479E+04 -2.045786E+05 -2.354524E-10  7.394377E-10
       187  14  1.646659E+02  1.893840E+05  2.081356E+04 -1.301846E+05 -3.493533E-10  9.227905E-11
       187  15  4.317477E+03  1.909274E+05  2.294667E+04 -2.045844E+05 -3.334213E-10  4.932422E-10
       187  16  3.589693E+04  3.117106E+05  5.493042E+04 -2.022445E+05 -3.200116E-11 -7.899949E-10
       187  17  1.106703E+05  6.411870E+05  1.217482E+05 -1.309005E+05 -7.584752E-10  2.537804E-10
       187  18  1.959492E+05  9.740842E+05  1.983954E+05 -2.083453E+05  7.472850E-10  1.099277E-09
       187  19 -2.313842E+04  7.032757E+04  9.183030E+02 -2.069123E+05  5.773008E+03 -1.579085E+02
       187  20 -1.103543E+05 -2.622287E+05 -8.013285E+04 -1.294689E+05  2.184783E+04  9.507291E+03
       187  21 -1.873545E+05 -5.916582E+05 -1.525375E+05 -2.008272E+05  3.690864E+04  1.915489E+04
       187  22  6.379809E+03  1.910125E+05  2.792523E+04 -2.045787E+05  5.813067E+03 -1.411188E+04
       187  23  1.651836E+02  1.893842E+05  2.081448E+04 -1.301847E+05  2.188143E+04 -3.588432E+03
       187  24  4.318955E+03  1.909278E+05  2.294933E+04 -2.045842E+05  3.693643E+04  6.922404E+03
       187  25  3.589718E+04  3.117115E+05  5.493197E+04 -2.022446E+05  5.853015E+03 -2.806854E+04
       187  26  1.106709E+05  6.411874E+05  1.217496E+05 -1.309008E+05  2.191506E+04 -1.669358E+04
       187  27  1.959507E+05  9.740846E+05  1.983980E+05 -2.083455E+05  3.696434E+04 -5.325360E+03
       188   1 -2.634804E+05 -8.734177E+05 -2.132037E+05 -2.114801E+05 -5.206094E+04 -3.689585E+04
       188   2 -3.443551E+05 -1.210898E+06 -2.802349E+05 -1.192312E+05 -5.962658E+04 -1.672820E+04
       188   3 -3.683785E+05 -1.536413E+06 -3.461526E+05 -1.740794E+05 -2.027569E+04  3.490852E+03
       188   4 -2.200025E+03  1.942483E+05  2.529464E+04 -2.042304E+05 -5.211618E+04 -1.092599E+04
       188   5 -1.690810E+03  1.847851E+05  3.628686E+04 -1.306456E+05 -5.959284E+04 -3.013725E+04
       188   6  6.244393E+04  1.939815E+05  7.572539E+04 -2.041291E+05 -2.020126E+04 -4.928654E+04
       188   7  2.590034E+05  1.262979E+06  2.637239E+05 -1.969672E+05 -5.217075E+04  1.508812E+04
       188   8  3.408396E+05  1.582279E+06  3.526835E+05 -1.420850E+05 -5.955865E+04 -4.357614E+04
       188   9  4.930501E+05  1.927119E+06  4.973966E+05 -2.342616E+05 -2.012184E+04 -1.022108E+05
       188  10 -2.634836E+05 -8.734199E+05 -2.132114E+05 -2.114817E+05 -1.016810E-09 -3.397526E-10
       188  11 -3.443590E+05 -1.210899E+06 -2.802421E+05 -1.192320E+05  1.552666E-09  3.896179E-10
       188  12 -3.683789E+05 -1.536413E+06 -3.461534E+05 -1.740793E+05  5.036831E-10 -3.927618E-10
       188  13 -2.202974E+03  1.942474E+05  2.528931E+04 -2.042308E+05  4.611983E-10  6.137222E-10
       188  14 -1.694868E+03  1.847832E+05  3.627848E+04 -1.306471E+05  5.043244E-10  1.038245E-10
       188  15  6.244283E+04  1.939788E+05  7.572006E+04 -2.041299E+05  1.227909E-10  1.873456E-10
       188  16  2.590004E+05  1.262978E+06  2.637184E+05 -1.969666E+05 -2.725931E-10 -5.138099E-10
       188  17  3.408353E+05  1.582276E+06  3.526733E+05 -1.420871E+05  4.287404E-10 -3.139780E-10
       188  18  4.930469E+05  1.927108E+06  4.973763E+05 -2.342632E+05  4.123493E-10  3.211534E-10
       188  19 -2.634804E+05 -8.734177E+05 -2.132037E+05 -2.114801E+05  5.206094E+04  3.689585E+04
       188  20 -3.443551E+05 -1.210898E+06 -2.802349E+05 -1.192312E+05  5.962658E+04  1.672820E+04
       188  21 -3.683785E+05 -1.536413E+06 -3.461526E+05 -1.740794E+05  2.027569E+04 -3.490852E+03
       188  22 -2.200025E+03  1.942483E+05  2.529464E+04 -2.042304E+05  5.211618E+04  1.092599E+04
       188  23 -1.690810E+03  1.847851E+05  3.628686E+04 -1.306456E+05  5.959284E+04  3.013725E+04
       188  24  6.244393E+04  1.939815E+05  7.572539E+04 -2.041291E+05  2.020126E+04  4.928654E+04
       188  25  2.590034E+05  1.262979E+06  2.637239E+05 -1.969672E+05  5.217075E+04 -1.508812E+04
       188  26  3.408396E+05  1.582279E+06  3.526835E+05 -1.420850E+05  5.955865E+04  4.357614E+04
       188  27  4.930501E+05  1.927119E+06  4.973966E+05 -2.342616E+05  2.012184E+04  1.022108E+05
       189   1 -2.891024E+06 -1.081007E+06 -6.709469E+05 -1.046431E+06 -2.749698E+05 -8.567348E+04
       189   2 -2.790895E+06 -6.892474E+05 -4.190846E+05 -1.027626E+06 -1.783156E+05 -1.131177E+04
       189   3 -2.782067E+06 -6.170038E+05 -3.275196E+05 -9.710964E+05 -6.941080E+04  3.063697E+04
       189   4 -1.827070E+06 -5.612297E+05 -3.622244E+05 -6.353335E+05 -2.365155E+05 -7.123825E+04
       189   5 -1.764258E+06 -2.660287E+05 -1.558304E+05 -7.061284E+05 -1.651310E+05 -6.366212E+03
       189   6 -1.787536E+06 -2.850494E+05 -8.945576E+04 -7.392555E+05 -8.151796E+04  2.608073E+04
       189   7 -7.619738E+05 -4.113733E+04 -5.360345E+04 -2.235191E+05 -1.979884E+05 -5.675708E+04
       189   8 -7.365763E+05  1.573244E+05  1.073377E+05 -3.841237E+05 -1.519223E+05 -1.409497E+03
       189   9 -7.920319E+05  4.692387E+04  1.485370E+05 -5.070985E+05 -9.364628E+04  2.151850E+04
       189  10 -2.891108E+06 -1.081035E+06 -6.711036E+05 -1.046450E+06 -5.716506E-10 -1.044765E-10
       189  11 -2.790930E+06 -6.892561E+05 -4.191449E+05 -1.027627E+06 -1.120292E-09  2.942028E-10
       189  12 -2.782073E+06 -6.170061E+05 -3.275305E+05 -9.710947E+05  1.020206E-09 -2.782512E-10
       189  13 -1.827132E+06 -5.612503E+05 -3.623395E+05 -6.353471E+05  5.092663E-10 -2.650578E-10
       189  14 -1.764288E+06 -2.660361E+05 -1.558818E+05 -7.061293E+05 -8.439616E-10 -1.457999E-10
       189  15 -1.787543E+06 -2.850519E+05 -8.946954E+04 -7.392538E+05  4.074225E-10 -3.220513E-10
       189  16 -7.620168E+05 -4.115133E+04 -5.368327E+04 -2.235281E+05  3.638508E-10  3.215585E-10
       189  17 -7.366011E+05  1.573182E+05  1.072943E+05 -3.841239E+05  2.538816E-10  1.238831E-10
       189  18 -7.920414E+05  4.692102E+04  1.485197E+05 -5.070968E+05 -9.907328E-10 -9.254043E-11
       189  19 -2.891024E+06 -1.081007E+06 -6.709469E+05 -1.046431E+06  2.749698E+05  8.567348E+04
       189  20 -2.790895E+06 -6.892474E+05 -4.190846E+05 -1.027626E+06  1.783156E+05  1.131177E+04
       189  21 -2.782067E+06 -6.170038E+05 -3.275196E+05 -9.710964E+05  6.941080E+04 -3.063697E+04
       189  22 -1.827070E+06 -5.612297E+05 -3.622244E+05 -6.353335E+05  2.365155E+05  7.123825E+04
       189  23 -1.764258E+06 -2.660287E+05 -1.558304E+05 -7.061284E+05  1.651310E+05  6.366212E+03
       189  24 -1.787536E+06 -2.850494E+05 -8.945576E+04 -7.392555E+05  8.151796E+04 -2.608073E+04
       189  25 -7.619738E+05 -4.113733E+04 -5.360345E+04 -2.235191E+05  1.979884E+05  5.675708E+04
       189  26 -7.365763E+05  1.573244E+05  1.073377E+05 -3.841237E+05  1.519223E+05  1.409497E+03
       189  27 -7.920319E+05  4.692387E+04  1.485370E+05 -5.070985E+05  9.364628E+04 -2.151850E+04
       190   1 -2.651951E+06 -6.489564E+05 -2.897666E+05 -9.687083E+05 -6.516816E+04  2.471547E+04
       190   2 -2.570672E+06 -5.737012E+05 -2.303987E+05 -9.252369E+05 -4.414857E+04  2.851884E+04
       190   3 -2.465794E+06 -5.517117E+05 -1.910325E+05 -9.153221E+05 -2.253975E+04  3.074706E+04
       190   4 -1.775596E+06 -3.149652E+05 -7.130515E+04 -7.219668E+05 -6.741458E+04  2.386504E+04
       190   5 -1.786156E+06 -2.790873E+05 -3.623940E+04 -7.086910E+05 -4.760341E+04  2.721704E+04
       190   6 -1.772874E+06 -2.962153E+05 -2.019272E+04 -7.289743E+05 -2.720662E+04  2.899334E+04
       190   7 -8.984787E+05  1.908761E+04  1.470973E+05 -4.749035E+05 -6.966445E+04  2.301326E+04
       190   8 -1.001030E+06  1.557093E+04  1.578730E+05 -4.918944E+05 -5.106302E+04  2.591344E+04
       190   9 -1.079479E+06 -4.068956E+04  1.506104E+05 -5.424382E+05 -3.187919E+04  2.723753E+04
       190  10 -2.651956E+06 -6.489582E+05 -2.897757E+05 -9.687070E+05  1.630575E-10 -6.739821E-10
       190  11 -2.570675E+06 -5.737026E+05 -2.304039E+05 -9.252359E+05  5.187457E-10  3.622060E-10
       190  12 -2.465795E+06 -5.517129E+05 -1.910353E+05 -9.153215E+05  1.058655E-09 -1.108897E-10
       190  13 -1.775601E+06 -3.149671E+05 -7.131478E+04 -7.219655E+05  1.137571E-09 -1.243285E-10
       190  14 -1.786159E+06 -2.790887E+05 -3.624505E+04 -7.086899E+05 -5.154116E-11  3.192818E-10
       190  15 -1.772875E+06 -2.962164E+05 -2.019569E+04 -7.289737E+05  9.914520E-11 -1.295475E-10
       190  16 -8.984841E+05  1.908574E+04  1.470872E+05 -4.749022E+05  1.224387E-09  3.572814E-10
       190  17 -1.001033E+06  1.556951E+04  1.578668E+05 -4.918933E+05  3.441431E-10  3.904613E-10
       190  18 -1.079480E+06 -4.069063E+04  1.506071E+05 -5.424375E+05 -7.564790E-10 -5.331302E-10
       190  19 -2.651951E+06 -6.489564E+05 -2.897666E+05 -9.687083E+05  6.516816E+04 -2.471547E+04
       190  20 -2.570672E+06 -5.737012E+05 -2.303987E+05 -9.252369E+05  4.414857E+04 -2.851884E+04
       190  21 -2.465794E+06 -5.517117E+05 -1.910325E+05 -9.153221E+05  2.253975E+04 -3.074706E+04
       190  22 -1.775596E+06 -3.149652E+05 -7.130515E+04 -7.219668E+05  6.741458E+04 -2.386504E+04
       190  23 -1.786156E+06 -2.790873E+05 -3.623940E+04 -7.086910E+05  4.760341E+04 -2.721704E+04
       190  24 -1.772874E+06 -2.962153E+05 -2.019272E+04 -7.289743E+05  2.720662E+04 -2.899334E+04
       190  25 -8.984787E+05  1.908761E+04  1.470973E+05 -4.749035E+05  6.966445E+04 -2.301326E+04
       190  26 -1.001030E+06  1.557093E+04  1.578730E+05 -4.918944E+05  5.106302E+04 -2.591344E+04
       190  27 -1.079479E+06 -4.068956E+04  1.506104E+05 -5.424382E+05  3.187919E+04 -2.723753E+04
       191   1 -2.375115E+06 -5.234840E+05 -1.641446E+05 -8.930811E+05 -1.885739E+04  2.829215E+04
       191   2 -2.293766E+06 -4.683067E+05 -1.331258E+05 -8.467461E+05 -1.254632E+04  2.442984E+04
       191   3 -2.179117E+06 -4.487604E+05 -1.056212E+05 -8.394479E+05 -6.197142E+03  2.045419E+04
       191   4 -1.771589E+06 -2.983433E+05 -1.543059E+04 -7.279306E+05 -2.310125E+04  2.669852E+04
       191   5 -1.788135E+06 -2.798909E+05 -8.340832E+03 -7.086459E+05 -1.687477E+04  2.280633E+04
       191   6 -1.771374E+06 -2.970508E+05 -4.695025E+03 -7.284001E+05 -1.061091E+04  1.880061E+04
       191   7 -1.167706E+06 -7.317893E+04  1.332548E+05 -5.626344E+05 -2.734961E+04  2.510321E+04
       191   8 -1.282252E+06 -9.145807E+04  1.164246E+05 -5.704433E+05 -2.120707E+04  2.118138E+04
       191   9 -1.363465E+06 -1.453297E+05  9.621888E+04 -6.172855E+05 -1.502787E+04  1.714585E+04
       191  10 -2.375115E+06 -5.234850E+05 -1.641468E+05 -8.930807E+05  3.343212E-10 -4.779148E-10
       191  11 -2.293767E+06 -4.683074E+05 -1.331272E+05 -8.467459E+05  1.429036E-10  1.353479E-09
       191  12 -2.179117E+06 -4.487609E+05 -1.056220E+05 -8.394478E+05  1.661306E-09  9.563455E-10
       191  13 -1.771590E+06 -2.983442E+05 -1.543293E+04 -7.279301E+05 -8.368656E-10 -5.257965E-10
       191  14 -1.788136E+06 -2.798916E+05 -8.342344E+03 -7.086456E+05  8.424273E-10  3.345401E-10
       191  15 -1.771374E+06 -2.970513E+05 -4.695900E+03 -7.284000E+05  2.858489E-09  1.058792E-09
       191  16 -1.167707E+06 -7.317980E+04  1.332522E+05 -5.626339E+05 -3.042152E-10 -7.440441E-10
       191  17 -1.282253E+06 -9.145867E+04  1.164229E+05 -5.704430E+05 -2.163965E-10 -8.701536E-10
       191  18 -1.363466E+06 -1.453301E+05  9.621791E+04 -6.172853E+05  2.696485E-09  2.817500E-10
       191  19 -2.375115E+06 -5.234840E+05 -1.641446E+05 -8.930811E+05  1.885739E+04 -2.829215E+04
       191  20 -2.293766E+06 -4.683067E+05 -1.331258E+05 -8.467461E+05  1.254632E+04 -2.442984E+04
       191  21 -2.179117E+06 -4.487604E+05 -1.056212E+05 -8.394479E+05  6.197142E+03 -2.045419E+04
       191  22 -1.771589E+06 -2.983433E+05 -1.543059E+04 -7.279306E+05  2.310125E+04 -2.669852E+04
       191  23 -1.788135E+06 -2.798909E+05 -8.340832E+03 -7.086459E+05  1.687477E+04 -2.280633E+04
       191  24 -1.771374E+06 -2.970508E+05 -4.695025E+03 -7.284001E+05  1.061091E+04 -1.880061E+04
       191  25 -1.167706E+06 -7.317893E+04  1.332548E+05 -5.626344E+05  2.734961E+04 -2.510321E+04
       191  26 -1.282252E+06 -9.145807E+04  1.164246E+05 -5.704433E+05  2.120707E+04 -2.118138E+04
       191  27 -1.363465E+06 -1.453297E+05  9.621888E+04 -6.172855E+05  1.502787E+04 -1.714585E+04
       192   1 -2.089654E+06 -4.158201E+05 -8.185654E+04 -8.153791E+05 -4.285581E+03  1.743096E+04
       192   2 -2.007264E+06 -3.612842E+05 -5.621963E+04 -7.682206E+05 -1.046312E+03  1.221475E+04
       192   3 -1.890300E+06 -3.415926E+05 -3.144623E+04 -7.609597E+05  2.198991E+03  6.976619E+03
       192   4 -1.771133E+06 -2.972753E+05 -3.624702E+03 -7.284359E+05 -8.699948E+03  1.577802E+04
       192   5 -1.788402E+06 -2.797998E+05 -2.229928E+03 -7.085034E+05 -5.477359E+03  1.055636E+04
       192   6 -1.771104E+06 -2.971647E+05 -1.684570E+03 -7.284712E+05 -2.248954E+03  5.312763E+03
       192   7 -1.452512E+06 -1.787236E+05  7.459948E+04 -6.414521E+05 -1.311679E+04  1.412415E+04
       192   8 -1.569493E+06 -1.983124E+05  5.175604E+04 -6.487672E+05 -9.910105E+03  8.897340E+03
       192   9 -1.651894E+06 -2.527362E+05  2.807591E+04 -6.959772E+05 -6.697814E+03  3.648566E+03
       192  10 -2.089654E+06 -4.158205E+05 -8.185714E+04 -8.153790E+05  3.827043E-09  1.044979E-09
       192  11 -2.007264E+06 -3.612844E+05 -5.621991E+04 -7.682206E+05  2.027349E-10  5.364776E-10
       192  12 -1.890300E+06 -3.415926E+05 -3.144633E+04 -7.609598E+05  7.332391E-10  1.069396E-09
       192  13 -1.771133E+06 -2.972755E+05 -3.625311E+03 -7.284358E+05  1.600064E-09 -2.936186E-11
       192  14 -1.788402E+06 -2.797999E+05 -2.230194E+03 -7.085034E+05  1.074197E-09  8.042156E-10
       192  15 -1.771104E+06 -2.971648E+05 -1.684633E+03 -7.284712E+05  2.991871E-09  7.886860E-10
       192  16 -1.452513E+06 -1.787239E+05  7.459878E+04 -6.414520E+05  1.199883E-09 -2.121147E-10
       192  17 -1.569493E+06 -1.983125E+05  5.175570E+04 -6.487671E+05 -4.884871E-10 -6.809152E-10
       192  18 -1.651894E+06 -2.527362E+05  2.807580E+04 -6.959772E+05  2.949331E-09  7.236765E-10
       192  19 -2.089654E+06 -4.158201E+05 -8.185654E+04 -8.153791E+05  4.285581E+03 -1.743096E+04
       192  20 -2.007264E+06 -3.612842E+05 -5.621963E+04 -7.682206E+05  1.046312E+03 -1.221475E+04
       192  21 -1.890300E+06 -3.415926E+05 -3.144623E+04 -7.609597E+05 -2.198991E+03 -6.976619E+03
       192  22 -1.771133E+06 -2.972753E+05 -3.624702E+03 -7.284359E+05  8.699948E+03 -1.577802E+04
       192  23 -1.788402E+06 -2.797998E+05 -2.229928E+03 -7.085034E+05  5.477359E+03 -1.055636E+04
       192  24 -1.771104E+06 -2.971647E+05 -1.684570E+03 -7.284712E+05  2.248954E+03 -5.312763E+03
       192  25 -1.452512E+06 -1.787236E+05  7.459948E+04 -6.414521E+05  1.311679E+04 -1.412415E+04
       192  26 -1.569493E+06 -1.983124E+05  5.175604E+04 -6.487672E+05  9.910105E+03 -8.897340E+03
       192  27 -1.651894E+06 -2.527362E+05  2.807591E+04 -6.959772E+05  6.697814E+03 -3.648566E+03
       193   1 -1.800295E+06 -3.080214E+05 -8.499665E+03 -7.365130E+05  3.715039E+03  3.778649E+03
       193   2 -1.717620E+06 -2.534249E+05  1.543393E+04 -6.891764E+05  6.838668E+03 -1.517378E+03
       193   3 -1.600274E+06 -2.337623E+05  3.859542E+04 -6.818733E+05  9.959871E+03 -6.804502E+03
       193   4 -1.771081E+06 -2.971900E+05 -1.650263E+03 -7.284991E+05 -7.376206E+02  2.113208E+03
       193   5 -1.788417E+06 -2.797547E+05 -2.022884E+03 -7.084684E+05  2.392379E+03 -3.180737E+03
       193   6 -1.771095E+06 -2.972566E+05 -3.172843E+03 -7.284763E+05  5.519758E+03 -8.465795E+03
       193   7 -1.741866E+06 -2.863585E+05  5.199203E+03 -7.204849E+05 -5.190529E+03  4.476732E+02
       193   8 -1.859209E+06 -3.060843E+05 -1.948004E+04 -7.277585E+05 -2.053365E+03 -4.843894E+03
       193   9 -1.941887E+06 -3.607490E+05 -4.494324E+04 -7.750676E+05  1.080980E+03 -1.012659E+04
       193  10 -1.800295E+06 -3.080215E+05 -8.499718E+03 -7.365130E+05  3.806589E-09  2.355982E-09
       193  11 -1.717620E+06 -2.534249E+05  1.543383E+04 -6.891763E+05  7.050940E-10  3.219036E-10
       193  12 -1.600274E+06 -2.337624E+05  3.859515E+04 -6.818732E+05 -3.638088E-11 -1.944002E-10
       193  13 -1.771081E+06 -2.971900E+05 -1.650272E+03 -7.284991E+05  2.420107E-09  8.055047E-10
       193  14 -1.788417E+06 -2.797548E+05 -2.022914E+03 -7.084684E+05  1.625023E-10  1.177402E-09
       193  15 -1.771095E+06 -2.972567E+05 -3.173035E+03 -7.284763E+05  9.028914E-11 -1.364813E-11
       193  16 -1.741866E+06 -2.863585E+05  5.199152E+03 -7.204849E+05  1.607935E-09  3.175339E-10
       193  17 -1.859209E+06 -3.060843E+05 -1.948009E+04 -7.277586E+05  6.326926E-10  1.016730E-09
       193  18 -1.941887E+06 -3.607491E+05 -4.494343E+04 -7.750676E+05 -3.555417E-10 -3.185961E-10
       193  19 -1.800295E+06 -3.080214E+05 -8.499665E+03 -7.365130E+05 -3.715039E+03 -3.778649E+03
       193  20 -1.717620E+06 -2.534249E+05  1.543393E+04 -6.891764E+05 -6.838668E+03  1.517378E+03
       193  21 -1.600274E+06 -2.337623E+05  3.859542E+04 -6.818733E+05 -9.959871E+03  6.804502E+03
       193  22 -1.771081E+06 -2.971900E+05 -1.650263E+03 -7.284991E+05  7.376206E+02 -2.113208E+03
       193  23 -1.788417E+06 -2.797547E+05 -2.022884E+03 -7.084684E+05 -2.392379E+03  3.180737E+03
       193  24 -1.771095E+06 -2.972566E+05 -3.172843E+03 -7.284763E+05 -5.519758E+03  8.465795E+03
       193  25 -1.741866E+06 -2.863585E+05  5.199203E+03 -7.204849E+05  5.190529E+03 -4.476732E+02
       193  26 -1.859209E+06 -3.060843E+05 -1.948004E+04 -7.277585E+05  2.053365E+03  4.843894E+03
       193  27 -1.941887E+06 -3.607490E+05 -4.494324E+04 -7.750676E+05 -1.080980E+03  1.012659E+04
       194   1 -1.510623E+06 -2.002180E+05  6.052281E+04 -6.575953E+05  1.179678E+04 -9.877094E+03
       194   2 -1.428591E+06 -1.458978E+05  8.150323E+04 -6.103917E+05  1.742840E+04 -1.417482E+04
       194   3 -1.312857E+06 -1.273010E+05  9.955736E+04 -6.026590E+05  2.302949E+04 -1.837960E+04
       194   4 -1.771275E+06 -2.970960E+05 -4.079571E+03 -7.284827E+05  7.350080E+03 -1.154136E+04
       194   5 -1.788204E+06 -2.797728E+05 -7.182120E+03 -7.085454E+05  1.305156E+04 -1.581430E+04
       194   6 -1.771453E+06 -2.981893E+05 -1.326733E+04 -7.280843E+05  1.872191E+04 -1.999445E+04
       194   7 -2.031859E+06 -3.939691E+05 -6.868680E+04 -7.993427E+05  2.905439E+03 -1.320486E+04
       194   8 -2.147689E+06 -4.136391E+05 -9.587731E+04 -8.066473E+05  8.677495E+03 -1.745274E+04
       194   9 -2.229844E+06 -4.690642E+05 -1.261086E+05 -8.534259E+05  1.441778E+04 -2.160800E+04
       194  10 -1.510623E+06 -2.002181E+05  6.052236E+04 -6.575952E+05 -3.804947E-10  3.723324E-10
       194  11 -1.428592E+06 -1.458981E+05  8.150229E+04 -6.103915E+05 -6.250527E-10  3.395620E-10
       194  12 -1.312857E+06 -1.273015E+05  9.955573E+04 -6.026586E+05  5.610933E-11 -1.092507E-10
       194  13 -1.771275E+06 -2.970961E+05 -4.079922E+03 -7.284826E+05 -9.262344E-11  2.333786E-10
       194  14 -1.788204E+06 -2.797731E+05 -7.182910E+03 -7.085452E+05 -1.067483E-11 -2.496229E-10
       194  15 -1.771453E+06 -2.981898E+05 -1.326874E+04 -7.280840E+05  8.920184E-11 -4.184534E-10
       194  16 -2.031859E+06 -3.939693E+05 -6.868714E+04 -7.993427E+05  1.291854E-10  9.397409E-10
       194  17 -2.147689E+06 -4.136395E+05 -9.587803E+04 -8.066472E+05  1.256751E-09  1.199992E-09
       194  18 -2.229844E+06 -4.690648E+05 -1.261098E+05 -8.534256E+05  3.527783E-10 -8.165733E-11
       194  19 -1.510623E+06 -2.002180E+05  6.052281E+04 -6.575953E+05 -1.179678E+04  9.877094E+03
       194  20 -1.428591E+06 -1.458978E+05  8.150323E+04 -6.103917E+05 -1.742840E+04  1.417482E+04
       194  21 -1.312857E+06 -1.273010E+05  9.955736E+04 -6.026590E+05 -2.302949E+04  1.837960E+04
       194  22 -1.771275E+06 -2.970960E+05 -4.079571E+03 -7.284827E+05 -7.350080E+03  1.154136E+04
       194  23 -1.788204E+06 -2.797728E+05 -7.182120E+03 -7.085454E+05 -1.305156E+04  1.581430E+04
       194  24 -1.771453E+06 -2.981893E+05 -1.326733E+04 -7.280843E+05 -1.872191E+04  1.999445E+04
       194  25 -2.031859E+06 -3.939691E+05 -6.868680E+04 -7.993427E+05 -2.905439E+03  1.320486E+04
       194  26 -2.147689E+06 -4.136391E+05 -9.587731E+04 -8.066473E+05 -8.677495E+03  1.745274E+04
       194  27 -2.229844E+06 -4.690642E+05 -1.261086E+05 -8.534259E+05 -1.441778E+04  2.160800E+04
       195   1 -1.223631E+06 -9.441905E+04  1.178809E+05 -5.817043E+05  2.712409E+04 -2.070475E+04
       195   2 -1.143761E+06 -3.794231E+04  1.277872E+05 -5.312176E+05  4.388320E+04 -2.042891E+04
       195   3 -1.038058E+06 -3.199820E+04  1.222009E+05 -5.155943E+05  6.012828E+04 -1.876089E+04
       195   4 -1.772544E+06 -2.963789E+05 -1.735588E+04 -7.290003E+05  2.243608E+04 -2.246322E+04
       195   5 -1.786512E+06 -2.790506E+05 -3.112384E+04 -7.085593E+05  4.027047E+04 -2.178681E+04
       195   6 -1.774876E+06 -3.124845E+05 -6.125094E+04 -7.229883E+05  5.758808E+04 -1.971863E+04
       195   7 -2.321160E+06 -4.983205E+05 -1.526156E+05 -8.761786E+05  1.775261E+04 -2.422005E+04
       195   8 -2.428854E+06 -5.201292E+05 -1.900663E+05 -8.857331E+05  3.666182E+04 -2.314316E+04
       195   9 -2.511155E+06 -5.929272E+05 -2.447442E+05 -9.301551E+05  5.505116E+04 -2.067508E+04
       195  10 -1.223631E+06 -9.441971E+04  1.178787E+05 -5.817039E+05  4.175564E-12 -6.727448E-10
       195  11 -1.143764E+06 -3.794327E+04  1.277828E+05 -5.312168E+05  2.089902E-10 -6.635180E-10
       195  12 -1.038062E+06 -3.199955E+04  1.221934E+05 -5.155934E+05  2.834504E-10  2.885147E-11
       195  13 -1.772545E+06 -2.963795E+05 -1.735777E+04 -7.289999E+05  4.466120E-10 -4.624361E-10
       195  14 -1.786514E+06 -2.790515E+05 -3.112778E+04 -7.085586E+05 -2.774884E-10 -2.830127E-10
       195  15 -1.774879E+06 -3.124858E+05 -6.125792E+04 -7.229873E+05 -5.867522E-10 -2.945990E-11
       195  16 -2.321161E+06 -4.983212E+05 -1.526173E+05 -8.761782E+05  3.542830E-10 -5.064374E-10
       195  17 -2.428855E+06 -5.201301E+05 -1.900698E+05 -8.857324E+05 -2.049501E-11 -7.062492E-10
       195  18 -2.511158E+06 -5.929284E+05 -2.447507E+05 -9.301542E+05 -5.605991E-10  2.338960E-10
       195  19 -1.223631E+06 -9.441905E+04  1.178809E+05 -5.817043E+05 -2.712409E+04  2.070475E+04
       195  20 -1.143761E+06 -3.794231E+04  1.277872E+05 -5.312176E+05 -4.388320E+04  2.042891E+04
       195  21 -1.038058E+06 -3.199820E+04  1.222009E+05 -5.155943E+05 -6.012828E+04  1.876089E+04
       195  22 -1.772544E+06 -2.963789E+05 -1.735588E+04 -7.290003E+05 -2.243608E+04  2.246322E+04
       195  23 -1.786512E+06 -2.790506E+05 -3.112384E+04 -7.085593E+05 -4.027047E+04  2.178681E+04
       195  24 -1.774876E+06 -3.124845E+05 -6.125094E+04 -7.229883E+05 -5.758808E+04  1.971863E+04
       195  25 -2.321160E+06 -4.983205E+05 -1.526156E+05 -8.761786E+05 -1.775261E+04  2.422005E+04
       195  26 -2.428854E+06 -5.201292E+05 -1.900663E+05 -8.857331E+05 -3.666182E+04  2.314316E+04
       195  27 -2.511155E+06 -5.929272E+05 -2.447442E+05 -9.301551E+05 -5.505116E+04  2.067508E+04
       196   1 -9.331109E+05 -3.008153E+03  1.268290E+05 -5.395866E+05  8.123140E+04 -1.797788E+04
       196   2 -8.729087E+05  9.991008E+04  9.519676E+04 -4.268622E+05  1.308283E+05  7.273434E+02
       196   3 -8.768504E+05 -6.767123E+04 -3.875755E+04 -2.879185E+05  1.696161E+05  4.818804E+04
       196   4 -1.785149E+06 -2.867727E+05 -7.684137E+04 -7.378193E+05  6.992708E+04 -2.222339E+04
       196   5 -1.767699E+06 -2.678384E+05 -1.338450E+05 -7.063651E+05  1.420116E+05  4.918704E+03
       196   6 -1.819013E+06 -5.241178E+05 -3.111448E+05 -6.486697E+05  2.032719E+05  6.082082E+04
       196   7 -2.636478E+06 -5.705245E+05 -2.805643E+05 -9.358215E+05  5.863961E+04 -2.646415E+04
       196   8 -2.661694E+06 -6.354850E+05 -3.629513E+05 -9.854838E+05  1.531772E+05  9.101865E+03
       196   9 -2.760274E+06 -9.803212E+05 -5.836090E+05 -1.008863E+06  2.368710E+05  7.341847E+04
       196  10 -9.331180E+05 -3.010272E+03  1.268160E+05 -5.395854E+05  7.002568E-10  2.112584E-10
       196  11 -8.729271E+05  9.990548E+04  9.516455E+04 -4.268623E+05  5.165650E-10 -4.254742E-10
       196  12 -8.768819E+05 -6.768146E+04 -3.881607E+04 -2.879251E+05 -4.031928E-10 -8.334163E-10
       196  13 -1.785155E+06 -2.867745E+05 -7.685150E+04 -7.378180E+05 -4.619632E-10  1.204064E-10
       196  14 -1.767720E+06 -2.678438E+05 -1.338831E+05 -7.063657E+05 -7.650582E-10  2.987238E-10
       196  15 -1.819058E+06 -5.241329E+05 -3.112297E+05 -6.486797E+05  7.649225E-10 -7.852134E-10
       196  16 -2.636481E+06 -5.705262E+05 -2.805721E+05 -9.358202E+05 -1.406758E-09  7.354471E-12
       196  17 -2.661719E+06 -6.354914E+05 -3.629957E+05 -9.854850E+05 -1.342683E-09  3.400015E-10
       196  18 -2.760336E+06 -9.803422E+05 -5.837251E+05 -1.008877E+06  4.265825E-10 -3.226814E-10
       196  19 -9.331109E+05 -3.008153E+03  1.268290E+05 -5.395866E+05 -8.123140E+04  1.797788E+04
       196  20 -8.729087E+05  9.991008E+04  9.519676E+04 -4.268622E+05 -1.308283E+05 -7.273434E+02
       196  21 -8.768504E+05 -6.767123E+04 -3.875755E+04 -2.879185E+05 -1.696161E+05 -4.818804E+04
       196  22 -1.785149E+06 -2.867727E+05 -7.684137E+04 -7.378193E+05 -6.992708E+04  2.222339E+04
       196  23 -1.767699E+06 -2.678384E+05 -1.338450E+05 -7.063651E+05 -1.420116E+05 -4.918704E+03
       196  24 -1.819013E+06 -5.241178E+05 -3.111448E+05 -6.486697E+05 -2.032719E+05 -6.082082E+04
       196  25 -2.636478E+06 -5.705245E+05 -2.805643E+05 -9.358215E+05 -5.863961E+04  2.646415E+04
       196  26 -2.661694E+06 -6.354850E+05 -3.629513E+05 -9.854838E+05 -1.531772E+05 -9.101865E+03
       196  27 -2.760274E+06 -9.803212E+05 -5.836090E+05 -1.008863E+06 -2.368710E+05 -7.341847E+04
       197   1 -7.905945E+04  6.610377E+02  5.691931E+04  5.675957E+04  1.679291E+05  1.255139E+04
       197   2 -2.704255E+04 -2.224916E+05 -6.698291E+04  3.605044E+03  1.188805E+05  3.850850E+04
       197   3  9.130001E+04 -2.076952E+05 -9.936890E+04 -8.687731E+04  6.985469E+04  3.940323E+04
       197   4  8.883607E+05  2.406800E+05  2.918638E+05 -5.142727E+04  2.005399E+05  1.256221E+04
       197   5  8.534933E+05 -6.739932E+03  1.320378E+05 -3.263166E+04  1.303387E+05  3.850872E+04
       197   6  8.885026E+05 -1.274444E+04  7.830621E+04 -5.115698E+04  6.016993E+04  3.939739E+04
       197   7  1.856663E+06  4.806751E+05  5.267511E+05 -1.597834E+05  2.332012E+05  1.256168E+04
       197   8  1.734752E+06  2.089635E+05  3.310100E+05 -6.892041E+04  1.418128E+05  3.850761E+04
       197   9  1.686300E+06  1.821680E+05  2.559426E+05 -1.539036E+04  5.047283E+04  3.939043E+04
       197  10 -7.908977E+04  6.532977E+02  5.686601E+04  5.675787E+04 -1.200383E-09  3.791230E-10
       197  11 -2.705812E+04 -2.224969E+05 -6.701226E+04  3.601357E+03 -4.256434E-10 -3.449095E-10
       197  12  9.129435E+04 -2.076982E+05 -9.938099E+04 -8.687953E+04  1.325780E-09  8.663732E-11
       197  13  8.883175E+05  2.406690E+05  2.917881E+05 -5.142930E+04  8.990325E-10  5.081840E-11
       197  14  8.534747E+05 -6.746077E+03  1.320031E+05 -3.263570E+04 -4.872258E-10 -1.505533E-09
       197  15  8.884983E+05 -1.274708E+04  7.829649E+04 -5.115889E+04  3.388800E-11 -1.774929E-10
       197  16  1.856604E+06  4.806604E+05  5.266489E+05 -1.597857E+05  4.442709E-10 -2.630200E-10
       197  17  1.734730E+06  2.089565E+05  3.309695E+05 -6.892480E+04  1.827564E-10 -6.784405E-10
       197  18  1.686297E+06  1.821657E+05  2.559349E+05 -1.539196E+04 -4.154792E-10 -7.784994E-10
       197  19 -7.905945E+04  6.610377E+02  5.691931E+04  5.675957E+04 -1.679291E+05 -1.255139E+04
       197  20 -2.704255E+04 -2.224916E+05 -6.698291E+04  3.605044E+03 -1.188805E+05 -3.850850E+04
       197  21  9.130001E+04 -2.076952E+05 -9.936890E+04 -8.687731E+04 -6.985469E+04 -3.940323E+04
       197  22  8.883607E+05  2.406800E+05  2.918638E+05 -5.142727E+04 -2.005399E+05 -1.256221E+04
       197  23  8.534933E+05 -6.739932E+03  1.320378E+05 -3.263166E+04 -1.303387E+05 -3.850872E+04
       197  24  8.885026E+05 -1.274444E+04  7.830621E+04 -5.115698E+04 -6.016993E+04 -3.939739E+04
       197  25  1.856663E+06  4.806751E+05  5.267511E+05 -1.597834E+05 -2.332012E+05 -1.256168E+04
       197  26  1.734752E+06  2.089635E+05  3.310100E+05 -6.892041E+04 -1.418128E+05 -3.850761E+04
       197  27  1.686300E+06  1.821680E+05  2.559426E+05 -1.539036E+04 -5.047283E+04 -3.939043E+04
       198   1  1.497455E+05 -1.626806E+05 -9.979409E+04 -4.640933E+04  5.103577E+04  3.425208E+04
       198   2  2.302982E+05 -1.575835E+05 -1.095859E+05 -3.141942E+04  3.509148E+04  3.109153E+04
       198   3  3.169437E+05 -1.372514E+05 -1.051432E+05 -5.398461E+04  1.914246E+04  2.682399E+04
       198   4  8.743674E+05  1.462652E+04  6.253877E+04 -5.128145E+04  4.889005E+04  3.424778E+04
       198   5  8.712672E+05 -8.354705E+02  3.356108E+04 -3.250294E+04  3.199752E+04  3.108835E+04
       198   6  8.744105E+05 -9.074902E+02  1.946359E+04 -5.127666E+04  1.510239E+04  2.682228E+04
       198   7  1.599478E+06  1.918980E+05  2.248385E+05 -5.615935E+04  4.674183E+04  3.424351E+04
       198   8  1.512619E+06  1.558846E+05  1.766823E+05 -3.358761E+04  2.890039E+04  3.108518E+04
       198   9  1.432167E+06  1.354154E+05  1.440509E+05 -4.856625E+04  1.105873E+04  2.682055E+04
       198  10  1.497424E+05 -1.626825E+05 -9.980119E+04 -4.641073E+04  3.553483E-10 -2.970724E-10
       198  11  2.302966E+05 -1.575848E+05 -1.095901E+05 -3.142030E+04  1.728926E-10  3.973787E-10
       198  12  3.169431E+05 -1.372523E+05 -1.051453E+05 -5.398503E+04 -2.259438E-10 -2.058957E-10
       198  13  8.743645E+05  1.462462E+04  6.253208E+04 -5.128279E+04  2.468701E-10 -2.379542E-10
       198  14  8.712658E+05 -8.367831E+02  3.355734E+04 -3.250374E+04 -3.609629E-10 -1.591446E-11
       198  15  8.744101E+05 -9.083242E+02  1.946181E+04 -5.127699E+04 -7.229778E-10 -1.777082E-10
       198  16  1.599475E+06  1.918961E+05  2.248322E+05 -5.616064E+04 -1.692212E-10 -9.815610E-11
       198  17  1.512617E+06  1.558834E+05  1.766789E+05 -3.358834E+04 -6.587306E-10 -3.709475E-10
       198  18  1.432166E+06  1.354146E+05  1.440493E+05 -4.856649E+04 -6.419662E-10 -2.282543E-10
       198  19  1.497455E+05 -1.626806E+05 -9.979409E+04 -4.640933E+04 -5.103577E+04 -3.425208E+04
       198  20  2.302982E+05 -1.575835E+05 -1.095859E+05 -3.141942E+04 -3.509148E+04 -3.109153E+04
       198  21  3.169437E+05 -1.372514E+05 -1.051432E+05 -5.398461E+04 -1.914246E+04 -2.682399E+04
       198  22  8.743674E+05  1.462652E+04  6.253877E+04 -5.128145E+04 -4.889005E+04 -3.424778E+04
       198  23  8.712672E+05 -8.354705E+02  3.356108E+04 -3.250294E+04 -3.199752E+04 -3.108835E+04
       198  24  8.744105E+05 -9.074902E+02  1.946359E+04 -5.127666E+04 -1.510239E+04 -2.682228E+04
       198  25  1.599478E+06  1.918980E+05  2.248385E+05 -5.615935E+04 -4.674183E+04 -3.424351E+04
       198  26  1.512619E+06  1.558846E+05  1.766823E+05 -3.358761E+04 -2.890039E+04 -3.108518E+04
       198  27  1.432167E+06  1.354154E+05  1.440509E+05 -4.856625E+04 -1.105873E+04 -2.682055E+04
       199   1  3.870932E+05 -1.180533E+05 -9.331285E+04 -5.130026E+04  1.576128E+04  2.409592E+04
       199   2  4.694379E+05 -9.876471E+04 -8.153614E+04 -3.273089E+04  1.159263E+04  1.967765E+04
       199   3  5.526369E+05 -7.847313E+04 -6.678359E+04 -5.139408E+04  7.420917E+03  1.522070E+04
       199   4  8.732290E+05  7.620321E+02  1.495885E+04 -5.120654E+04  1.207020E+04  2.409492E+04
       199   5  8.728138E+05 -1.471055E+02  8.470863E+03 -3.259114E+04  7.865778E+03  1.967757E+04
       199   6  8.732504E+05 -4.769296E+01  4.981450E+03 -5.120680E+04  3.658844E+03  1.522159E+04
       199   7  1.359585E+06  1.195614E+05  1.232158E+05 -5.111272E+04  8.376248E+03  2.409391E+04
       199   8  1.276341E+06  9.845946E+04  9.846771E+04 -3.245127E+04  4.136531E+03  1.967750E+04
       199   9  1.193960E+06  7.837076E+04  7.674006E+04 -5.101942E+04 -1.051499E+02  1.522248E+04
       199  10  3.870928E+05 -1.180540E+05 -9.331441E+04 -5.130056E+04  6.840552E-11 -1.587936E-10
       199  11  4.694376E+05 -9.876516E+04 -8.153712E+04 -3.273108E+04 -1.138035E-09  1.301421E-10
       199  12  5.526368E+05 -7.847340E+04 -6.678413E+04 -5.139417E+04 -1.031204E-09  3.490213E-10
       199  13  8.732287E+05  7.613693E+02  1.495749E+04 -5.120677E+04  5.466425E-10 -3.199962E-11
       199  14  8.728136E+05 -1.475381E+02  8.470019E+03 -3.259126E+04 -6.108056E-10  2.076758E-10
       199  15  8.732504E+05 -4.794545E+01  4.980990E+03 -5.120685E+04 -7.083733E-10  2.995087E-10
       199  16  1.359585E+06  1.195607E+05  1.232146E+05 -5.111289E+04  3.011572E-10 -5.218643E-11
       199  17  1.276341E+06  9.845904E+04  9.846695E+04 -3.245134E+04 -4.253313E-10  5.998279E-10
       199  18  1.193960E+06  7.837051E+04  7.673962E+04 -5.101942E+04  1.388151E-09  9.045040E-10
       199  19  3.870932E+05 -1.180533E+05 -9.331285E+04 -5.130026E+04 -1.576128E+04 -2.409592E+04
       199  20  4.694379E+05 -9.876471E+04 -8.153614E+04 -3.273089E+04 -1.159263E+04 -1.967765E+04
       199  21  5.526369E+05 -7.847313E+04 -6.678359E+04 -5.139408E+04 -7.420917E+03 -1.522070E+04
       199  22  8.732290E+05  7.620321E+02  1.495885E+04 -5.120654E+04 -1.207020E+04 -2.409492E+04
       199  23  8.728138E+05 -1.471055E+02  8.470863E+03 -3.259114E+04 -7.865778E+03 -1.967757E+04
       199  24  8.732504E+05 -4.769296E+01  4.981450E+03 -5.120680E+04 -3.658844E+03 -1.522159E+04
       199  25  1.359585E+06  1.195614E+05  1.232158E+05 -5.111272E+04 -8.376248E+03 -2.409391E+04
       199  26  1.276341E+06  9.845946E+04  9.846771E+04 -3.245127E+04 -4.136531E+03 -1.967750E+04
       199  27  1.193960E+06  7.837076E+04  7.674006E+04 -5.101942E+04  1.051499E+02 -1.522248E+04
       200   1  6.232719E+05 -6.098367E+04 -5.163601E+04 -5.119624E+04  6.600262E+03  1.262112E+04
       200   2  7.055259E+05 -4.095317E+04 -3.493307E+04 -3.265779E+04  5.392447E+03  8.172293E+03
       200   3  7.879411E+05 -2.082501E+04 -1.742676E+04 -5.114720E+04  4.183452E+03  3.726112E+03
       200   4  8.731049E+05  4.224729E+01  3.866765E+03 -5.116145E+04  2.859489E+03  1.262242E+04
       200   5  8.730318E+05 -7.457146E+00  2.436056E+03 -3.264784E+04  1.653239E+03  8.173972E+03
       200   6  8.731132E+05  4.056399E+01  1.807559E+03 -5.116149E+04  4.459651E+02  3.728193E+03
       200   7  1.122996E+06  6.106396E+04  5.936571E+04 -5.112665E+04 -8.827716E+02  1.262372E+04
       200   8  1.040564E+06  4.093636E+04  3.980347E+04 -3.263789E+04 -2.086966E+03  8.175650E+03
       200   9  9.582921E+05  2.090565E+04  2.104147E+04 -5.117578E+04 -3.292029E+03  3.730274E+03
       200  10  6.232718E+05 -6.098385E+04 -5.163640E+04 -5.119631E+04 -7.865346E-10  5.137630E-11
       200  11  7.055258E+05 -4.095325E+04 -3.493325E+04 -3.265782E+04 -1.232032E-09  4.199474E-10
       200  12  7.879411E+05 -2.082503E+04 -1.742682E+04 -5.114722E+04 -3.285880E-09  8.823631E-10
       200  13  8.731049E+05  4.207394E+01  3.866450E+03 -5.116148E+04 -4.188505E-10  5.519881E-10
       200  14  8.730318E+05 -7.529655E+00  2.435925E+03 -3.264785E+04 -8.082805E-10 -5.720775E-10
       200  15  8.731132E+05  4.054900E+01  1.807532E+03 -5.116149E+04 -5.299974E-10 -1.236218E-10
       200  16  1.122996E+06  6.106378E+04  5.936541E+04 -5.112664E+04  1.139283E-09 -3.140840E-10
       200  17  1.040564E+06  4.093629E+04  3.980334E+04 -3.263787E+04  1.139985E-09 -5.622986E-10
       200  18  9.582921E+05  2.090563E+04  2.104142E+04 -5.117577E+04  2.070724E-09 -8.251456E-10
       200  19  6.232719E+05 -6.098367E+04 -5.163601E+04 -5.119624E+04 -6.600262E+03 -1.262112E+04
       200  20  7.055259E+05 -4.095317E+04 -3.493307E+04 -3.265779E+04 -5.392447E+03 -8.172293E+03
       200  21  7.879411E+05 -2.082501E+04 -1.742676E+04 -5.114720E+04 -4.183452E+03 -3.726112E+03
       200  22  8.731049E+05  4.224729E+01  3.866765E+03 -5.116145E+04 -2.859489E+03 -1.262242E+04
       200  23  8.730318E+05 -7.457146E+00  2.436056E+03 -3.264784E+04 -1.653239E+03 -8.173972E+03
       200  24  8.731132E+05  4.056399E+01  1.807559E+03 -5.116149E+04 -4.459651E+02 -3.728193E+03
       200  25  1.122996E+06  6.106396E+04  5.936571E+04 -5.112665E+04  8.827716E+02 -1.262372E+04
       200  26  1.040564E+06  4.093636E+04  3.980347E+04 -3.263789E+04  2.086966E+03 -8.175650E+03
       200  27  9.582921E+05  2.090565E+04  2.104147E+04 -5.117578E+04  3.292029E+03 -3.730274E+03
       201   1  8.584986E+05 -3.481550E+03 -1.313866E+03 -5.115419E+04  3.861665E+03  1.139789E+03
       201   2  9.407126E+05  1.654467E+04  1.700233E+04 -3.265110E+04  2.915171E+03 -3.303079E+03
       201   3  1.023034E+06  3.664924E+04  3.594287E+04 -5.113989E+04  1.968982E+03 -7.745978E+03
       201   4  8.731032E+05  4.115882E+01  1.709187E+03 -5.115368E+04  1.251480E+02  1.141943E+03
       201   5  8.730505E+05  7.452144E+00  1.909504E+03 -3.265760E+04 -8.215043E+02 -3.301096E+03
       201   6  8.730998E+05  5.286230E+01  2.734910E+03 -5.115366E+04 -1.767729E+03 -7.744141E+03
       201   7  8.877082E+05  3.563861E+03  4.732281E+03 -5.115318E+04 -3.611455E+03  1.144097E+03
       201   8  8.053927E+05 -1.653007E+04 -1.318356E+04 -3.266411E+04 -4.557777E+03 -3.299113E+03
       201   9  7.231869E+05 -3.654502E+04 -3.047439E+04 -5.116742E+04 -5.503548E+03 -7.742302E+03
       201  10  8.584986E+05 -3.481555E+03 -1.313896E+03 -5.115419E+04 -8.759404E-09  1.437716E-10
       201  11  9.407126E+05  1.654466E+04  1.700229E+04 -3.265109E+04  5.391099E-10 -1.145616E-09
       201  12  1.023034E+06  3.664917E+04  3.594275E+04 -5.113988E+04  8.284777E-09 -5.226491E-10
       201  13  8.731032E+05  4.115742E+01  1.709185E+03 -5.115368E+04 -9.746609E-10  6.031288E-10
       201  14  8.730505E+05  7.440257E+00  1.909482E+03 -3.265760E+04 -1.875880E-10 -2.307500E-10
       201  15  8.730998E+05  5.279704E+01  2.734791E+03 -5.115367E+04  5.730109E-10 -1.282574E-09
       201  16  8.877081E+05  3.563856E+03  4.732254E+03 -5.115317E+04  8.589763E-09 -1.256309E-10
       201  17  8.053927E+05 -1.653009E+04 -1.318362E+04 -3.266412E+04 -5.802869E-10 -1.146476E-10
       201  18  7.231868E+05 -3.654509E+04 -3.047456E+04 -5.116745E+04 -7.173814E-09 -9.064985E-10
       201  19  8.584986E+05 -3.481550E+03 -1.313866E+03 -5.115419E+04 -3.861665E+03 -1.139789E+03
       201  20  9.407126E+05  1.654467E+04  1.700233E+04 -3.265110E+04 -2.915171E+03  3.303079E+03
       201  21  1.023034E+06  3.664924E+04  3.594287E+04 -5.113989E+04 -1.968982E+03  7.745978E+03
       201  22  8.731032E+05  4.115882E+01  1.709187E+03 -5.115368E+04 -1.251480E+02 -1.141943E+03
       201  23  8.730505E+05  7.452144E+00  1.909504E+03 -3.265760E+04  8.215043E+02  3.301096E+03
       201  24  8.730998E+05  5.286230E+01  2.734910E+03 -5.115366E+04  1.767729E+03  7.744141E+03
       201  25  8.877082E+05  3.563861E+03  4.732281E+03 -5.115318E+04  3.611455E+03 -1.144097E+03
       201  26  8.053927E+05 -1.653007E+04 -1.318356E+04 -3.266411E+04  4.557777E+03  3.299113E+03
       201  27  7.231869E+05 -3.654502E+04 -3.047439E+04 -5.116742E+04  5.503548E+03  7.742302E+03
       202   1  1.093804E+06  5.395318E+04  5.287171E+04 -5.108234E+04  1.428732E+03 -1.033940E+04
       202   2  1.176096E+06  7.400959E+04  7.331980E+04 -3.256979E+04 -1.433185E+03 -1.478428E+04
       202   3  1.258949E+06  9.475255E+04  9.580108E+04 -5.117456E+04 -4.293662E+03 -1.919252E+04
       202   4  8.731931E+05 -7.409540E+00  3.434261E+03 -5.118179E+04 -2.325996E+03 -1.033782E+04
       202   5  8.729106E+05 -8.175106E+01  5.696990E+03 -3.262245E+04 -5.156087E+03 -1.478344E+04
       202   6  8.731772E+05  5.253718E+02  9.971633E+03 -5.118153E+04 -7.984367E+03 -1.919238E+04
       202   7  6.526278E+05 -5.397130E+04 -4.600621E+04 -5.128118E+04 -6.079406E+03 -1.033625E+04
       202   8  5.698111E+05 -7.417932E+04 -6.193153E+04 -3.267507E+04 -8.877193E+03 -1.478260E+04
       202   9  4.875437E+05 -9.371186E+04 -7.586706E+04 -5.118848E+04 -1.167281E+04 -1.919224E+04
       202  10  1.093804E+06  5.395306E+04  5.287150E+04 -5.108233E+04 -2.576838E-11  5.926029E-10
       202  11  1.176095E+06  7.400935E+04  7.331938E+04 -3.256981E+04  1.162748E-09  5.173447E-10
       202  12  1.258949E+06  9.475214E+04  9.580036E+04 -5.117462E+04 -4.655152E-10  8.887563E-10
       202  13  8.731930E+05 -7.525801E+00  3.434050E+03 -5.118181E+04 -9.031392E-10 -5.519930E-10
       202  14  8.729105E+05 -8.199297E+01  5.696530E+03 -3.262251E+04 -1.335288E-09 -2.184589E-11
       202  15  8.731770E+05  5.249590E+02  9.970821E+03 -5.118165E+04 -4.558084E-10  9.120897E-10
       202  16  6.526277E+05 -5.397143E+04 -4.600648E+04 -5.128124E+04 -3.561775E-10 -1.807402E-10
       202  17  5.698110E+05 -7.417957E+04 -6.193209E+04 -3.267517E+04  2.773708E-10 -1.079875E-10
       202  18  4.875435E+05 -9.371229E+04 -7.586800E+04 -5.118866E+04  9.730549E-10  7.735048E-10
       202  19  1.093804E+06  5.395318E+04  5.287171E+04 -5.108234E+04 -1.428732E+03  1.033940E+04
       202  20  1.176096E+06  7.400959E+04  7.331980E+04 -3.256979E+04  1.433185E+03  1.478428E+04
       202  21  1.258949E+06  9.475255E+04  9.580108E+04 -5.117456E+04  4.293662E+03  1.919252E+04
       202  22  8.731931E+05 -7.409540E+00  3.434261E+03 -5.118179E+04  2.325996E+03  1.033782E+04
       202  23  8.729106E+05 -8.175106E+01  5.696990E+03 -3.262245E+04  5.156087E+03  1.478344E+04
       202  24  8.731772E+05  5.253718E+02  9.971633E+03 -5.118153E+04  7.984367E+03  1.919238E+04
       202  25  6.526278E+05 -5.397130E+04 -4.600621E+04 -5.128118E+04  6.079406E+03  1.033625E+04
       202  26  5.698111E+05 -7.417932E+04 -6.193153E+04 -3.267507E+04  8.877193E+03  1.478260E+04
       202  27  4.875437E+05 -9.371186E+04 -7.586706E+04 -5.118848E+04  1.167281E+04  1.919224E+04
       203   1  1.330854E+06  1.111007E+05  1.150562E+05 -4.950824E+04 -6.000549E+03 -2.189705E+04
       203   2  1.411962E+06  1.314356E+05  1.428325E+05 -3.333967E+04 -1.807143E+04 -2.616254E+04
       203   3  1.497363E+06  1.621371E+05  1.810733E+05 -5.455105E+04 -3.014114E+04 -2.943264E+04
       203   4  8.739627E+05 -5.835148E+02  1.295260E+04 -5.123992E+04 -1.000445E+04 -2.189746E+04
       203   5  8.718734E+05 -5.497283E+02  2.229476E+04 -3.254945E+04 -2.122910E+04 -2.616428E+04
       203   6  8.739285E+05  9.710008E+03  4.152154E+04 -5.124061E+04 -3.245099E+04 -2.943540E+04
       203   7  4.172651E+05 -1.122819E+05 -8.916405E+04 -5.297030E+04 -1.400545E+04 -2.189785E+04
       203   8  3.320557E+05 -1.325548E+05 -9.826130E+04 -3.175992E+04 -2.438406E+04 -2.616603E+04
       203   9  2.508552E+05 -1.427435E+05 -9.805472E+04 -4.793352E+04 -3.475855E+04 -2.943818E+04
       203  10  1.330854E+06  1.111002E+05  1.150552E+05 -4.950834E+04  9.197222E-10  2.800747E-10
       203  11  1.411962E+06  1.314348E+05  1.428306E+05 -3.334005E+04 -3.493687E-10 -5.128802E-10
       203  12  1.497362E+06  1.621360E+05  1.810700E+05 -5.455176E+04 -1.711591E-09 -2.775157E-10
       203  13  8.739625E+05 -5.840567E+02  1.295151E+04 -5.124010E+04 -6.614880E-11  3.843837E-10
       203  14  8.718727E+05 -5.505845E+02  2.229263E+04 -3.254990E+04 -4.188488E-10 -6.382957E-10
       203  15  8.739272E+05  9.708795E+03  4.151793E+04 -5.124138E+04  2.495729E-10 -1.374286E-10
       203  16  4.172648E+05 -1.122825E+05 -8.916532E+04 -5.297055E+04 -1.131985E-09  3.060364E-10
       203  17  3.320549E+05 -1.325557E+05 -9.826370E+04 -3.176043E+04 -1.536696E-10 -9.648855E-10
       203  18  2.508537E+05 -1.427448E+05 -9.805862E+04 -4.793434E+04  1.997060E-10  1.637258E-10
       203  19  1.330854E+06  1.111007E+05  1.150562E+05 -4.950824E+04  6.000549E+03  2.189705E+04
       203  20  1.411962E+06  1.314356E+05  1.428325E+05 -3.333967E+04  1.807143E+04  2.616254E+04
       203  21  1.497363E+06  1.621371E+05  1.810733E+05 -5.455105E+04  3.014114E+04  2.943264E+04
       203  22  8.739627E+05 -5.835148E+02  1.295260E+04 -5.123992E+04  1.000445E+04  2.189746E+04
       203  23  8.718734E+05 -5.497283E+02  2.229476E+04 -3.254945E+04  2.122910E+04  2.616428E+04
       203  24  8.739285E+05  9.710008E+03  4.152154E+04 -5.124061E+04  3.245099E+04  2.943540E+04
       203  25  4.172651E+05 -1.122819E+05 -8.916405E+04 -5.297030E+04  1.400545E+04  2.189785E+04
       203  26  3.320557E+05 -1.325548E+05 -9.826130E+04 -3.175992E+04  2.438406E+04  2.616603E+04
       203  27  2.508552E+05 -1.427435E+05 -9.805472E+04 -4.793352E+04  3.475855E+04  2.943818E+04
       204   1  1.579020E+06  1.614917E+05  2.069141E+05 -2.746640E+04 -3.085505E+04 -3.430294E+04
       204   2  1.638727E+06  1.861562E+05  2.634968E+05 -5.680428E+04 -9.640902E+04 -3.391619E+04
       204   3  1.748096E+06  3.742781E+05  4.036108E+05 -1.232091E+05 -1.619941E+05 -1.103799E+04
       204   4  8.833158E+05 -8.462198E+03  5.198592E+04 -5.113737E+04 -3.994035E+04 -3.430769E+04
       204   5  8.600496E+05 -4.493416E+03  8.763547E+04 -3.266802E+04 -8.651753E+04 -3.391662E+04
       204   6  8.832105E+05  1.597467E+05  1.937188E+05 -5.126018E+04 -1.331151E+05 -1.103160E+04
       204   7  1.880631E+05 -1.784468E+05 -1.029719E+05 -7.478161E+04 -4.901558E+04 -3.431174E+04
       204   8  8.193621E+04 -1.951824E+05 -8.826401E+04 -8.562327E+03 -7.663825E+04 -3.391629E+04
       204   9  1.901969E+04 -5.481967E+04 -1.622125E+04  2.058838E+04 -1.042761E+05 -1.101852E+04
       204  10  1.579019E+06  1.614902E+05  2.069101E+05 -2.746726E+04  2.728816E-10  1.943347E-10
       204  11  1.638716E+06  1.861525E+05  2.634772E+05 -5.680691E+04 -1.342895E-10  7.978793E-10
       204  12  1.748067E+06  3.742710E+05  4.035614E+05 -1.232106E+05  7.500364E-10  7.358964E-10
       204  13  8.833138E+05 -8.463890E+03  5.198071E+04 -5.113848E+04 -2.098418E-09 -2.637084E-10
       204  14  8.600413E+05 -4.496657E+03  8.761926E+04 -3.267038E+04 -2.332724E-09  5.733009E-10
       204  15  8.831915E+05  1.597418E+05  1.936853E+05 -5.126136E+04  8.792085E-11 -1.911326E-10
       204  16  1.880602E+05 -1.784487E+05 -1.029786E+05 -7.478296E+04 -3.342885E-10  5.346860E-10
       204  17  8.192960E+04 -1.951852E+05 -8.827721E+04 -8.564421E+03  1.188357E-10 -2.205012E-10
       204  18  1.900799E+04 -5.482272E+04 -1.624191E+04  2.058745E+04 -7.394192E-10  8.374462E-10
       204  19  1.579020E+06  1.614917E+05  2.069141E+05 -2.746640E+04  3.085505E+04  3.430294E+04
       204  20  1.638727E+06  1.861562E+05  2.634968E+05 -5.680428E+04  9.640902E+04  3.391619E+04
       204  21  1.748096E+06  3.742781E+05  4.036108E+05 -1.232091E+05  1.619941E+05  1.103799E+04
       204  22  8.833158E+05 -8.462198E+03  5.198592E+04 -5.113737E+04  3.994035E+04  3.430769E+04
       204  23  8.600496E+05 -4.493416E+03  8.763547E+04 -3.266802E+04  8.651753E+04  3.391662E+04
       204  24  8.832105E+05  1.597467E+05  1.937188E+05 -5.126018E+04  1.331151E+05  1.103160E+04
       204  25  1.880631E+05 -1.784468E+05 -1.029719E+05 -7.478161E+04  4.901558E+04  3.431174E+04
       204  26  8.193621E+04 -1.951824E+05 -8.826401E+04 -8.562327E+03  7.663825E+04  3.391629E+04
       204  27  1.901969E+04 -5.481967E+04 -1.622125E+04  2.058838E+04  1.042761E+05  1.101852E+04
       205   1  5.338584E+05  1.718829E+06  5.244404E+05 -5.262005E+05  1.990650E+04  1.516475E+05
       205   2  3.396950E+05  1.197861E+06  3.169031E+05 -4.406805E+05  5.877658E+04  5.577941E+04
       205   3  2.045244E+05  7.040315E+05  1.863614E+05 -4.760935E+05  4.963849E+04 -4.008186E+04
       205   4  7.302379E+04 -1.418282E+05  8.026125E+04 -4.793743E+05  2.015075E+04  5.365584E+04
       205   5  1.514721E+04 -1.485846E+05  4.033458E+04 -4.189919E+05  5.884677E+04  3.290674E+04
       205   6  3.331787E+03 -1.413939E+05  2.538205E+04 -4.795383E+05  4.949468E+04  1.208395E+04
       205   7 -3.880483E+05 -1.999291E+06 -3.641245E+05 -4.326857E+05  2.038071E+04 -4.404424E+04
       205   8 -3.095128E+05 -1.493309E+06 -2.363287E+05 -3.973496E+05  5.891546E+04  1.008267E+04
       205   9 -1.979013E+05 -9.861249E+05 -1.356193E+05 -4.829775E+05  4.935015E+04  6.418048E+04
       205  10  5.338518E+05  1.718804E+06  5.243965E+05 -5.262030E+05 -7.344407E-11  9.737462E-10
       205  11  3.396905E+05  1.197857E+06  3.168907E+05 -4.406831E+05 -5.133388E-10 -7.297943E-10
       205  12  2.045213E+05  7.040291E+05  1.863538E+05 -4.760919E+05 -1.213292E-10 -1.618307E-09
       205  13  7.302258E+04 -1.418314E+05  8.025507E+04 -4.793751E+05  1.328279E-09  7.360075E-11
       205  14  1.514320E+04 -1.485867E+05  4.032603E+04 -4.189935E+05 -4.238394E-10  2.711846E-11
       205  15  3.329117E+03 -1.413947E+05  2.537717E+04 -4.795388E+05  1.722885E-10 -2.818186E-10
       205  16 -3.880493E+05 -1.999293E+06 -3.641290E+05 -4.326850E+05  4.609780E-10 -9.263408E-10
       205  17 -3.095166E+05 -1.493310E+06 -2.363354E+05 -3.973501E+05  3.002863E-09 -3.428283E-10
       205  18 -1.979050E+05 -9.861300E+05 -1.356316E+05 -4.829801E+05 -8.149290E-10 -2.241468E-11
       205  19  5.338584E+05  1.718829E+06  5.244404E+05 -5.262005E+05 -1.990650E+04 -1.516475E+05
       205  20  3.396950E+05  1.197861E+06  3.169031E+05 -4.406805E+05 -5.877658E+04 -5.577941E+04
       205  21  2.045244E+05  7.040315E+05  1.863614E+05 -4.760935E+05 -4.963849E+04  4.008186E+04
       205  22  7.302379E+04 -1.418282E+05  8.026125E+04 -4.793743E+05 -2.015075E+04 -5.365584E+04
       205  23  1.514721E+04 -1.485846E+05  4.033458E+04 -4.189919E+05 -5.884677E+04 -3.290674E+04
       205  24  3.331787E+03 -1.413939E+05  2.538205E+04 -4.795383E+05 -4.949468E+04 -1.208395E+04
       205  25 -3.880483E+05 -1.999291E+06 -3.641245E+05 -4.326857E+05 -2.038071E+04  4.404424E+04
       205  26 -3.095128E+05 -1.493309E+06 -2.363287E+05 -3.973496E+05 -5.891546E+04 -1.008267E+04
       205  27 -1.979013E+05 -9.861249E+05 -1.356193E+05 -4.829775E+05 -4.935015E+04 -6.418048E+04
       206   1  1.259639E+05  3.627369E+05  1.188024E+05 -4.828392E+05  2.935909E+04 -3.728442E+04
       206   2  2.801034E+03 -1.451486E+05  1.891703E+04 -4.182372E+05  1.209242E+02 -4.679612E+04
       206   3 -1.152195E+05 -6.508764E+05 -7.367660E+04 -4.773806E+05 -2.911565E+04 -5.630049E+04
       206   4  5.229588E+03 -1.439797E+05  2.184455E+04 -4.801418E+05  2.922629E+04  8.377400E+03
       206   5  2.851723E+03 -1.449348E+05  1.895200E+04 -4.182696E+05 -1.144154E+01 -1.150833E+03
       206   6  5.631492E+03 -1.439797E+05  2.336378E+04 -4.801406E+05 -2.924809E+04 -1.067907E+04
       206   7 -1.155188E+05 -6.504446E+05 -7.511720E+04 -4.774464E+05  2.909381E+04  5.400284E+04
       206   8  2.903532E+03 -1.447164E+05  1.899480E+04 -4.183019E+05 -1.438120E+02  4.449447E+04
       206   9  1.264685E+05  3.631692E+05  1.204003E+05 -4.829027E+05 -2.938087E+04  3.497877E+04
       206  10  1.259626E+05  3.627352E+05  1.187982E+05 -4.828383E+05 -3.006771E-10  9.111770E-10
       206  11  2.800446E+03 -1.451510E+05  1.891292E+04 -4.182372E+05  5.944534E-10 -7.044996E-10
       206  12 -1.152213E+05 -6.508800E+05 -7.368416E+04 -4.773819E+05 -5.624508E-10 -9.710142E-10
       206  13  5.228652E+03 -1.439800E+05  2.184281E+04 -4.801420E+05  4.145473E-10  1.636337E-10
       206  14  2.851723E+03 -1.449348E+05  1.895200E+04 -4.182696E+05 -1.930596E-09 -9.893478E-11
       206  15  5.630542E+03 -1.439800E+05  2.336196E+04 -4.801409E+05 -1.414776E-09 -5.012484E-10
       206  16 -1.155205E+05 -6.504479E+05 -7.512429E+04 -4.774477E+05 -4.674752E-10 -8.696020E-10
       206  17  2.903000E+03 -1.447186E+05  1.899108E+04 -4.183019E+05 -9.240356E-10 -1.028201E-09
       206  18  1.264672E+05  3.631677E+05  1.203964E+05 -4.829019E+05  1.433719E-10 -7.879653E-10
       206  19  1.259639E+05  3.627369E+05  1.188024E+05 -4.828392E+05 -2.935909E+04  3.728442E+04
       206  20  2.801034E+03 -1.451486E+05  1.891703E+04 -4.182372E+05 -1.209242E+02  4.679612E+04
       206  21 -1.152195E+05 -6.508764E+05 -7.367660E+04 -4.773806E+05  2.911565E+04  5.630049E+04
       206  22  5.229588E+03 -1.439797E+05  2.184455E+04 -4.801418E+05 -2.922629E+04 -8.377400E+03
       206  23  2.851723E+03 -1.449348E+05  1.895200E+04 -4.182696E+05  1.144154E+01  1.150833E+03
       206  24  5.631492E+03 -1.439797E+05  2.336378E+04 -4.801406E+05  2.924809E+04  1.067907E+04
       206  25 -1.155188E+05 -6.504446E+05 -7.511720E+04 -4.774464E+05 -2.909381E+04 -5.400284E+04
       206  26  2.903532E+03 -1.447164E+05  1.899480E+04 -4.183019E+05  1.438120E+02 -4.449447E+04
       206  27  1.264685E+05  3.631692E+05  1.204003E+05 -4.829027E+05  2.938087E+04 -3.497877E+04
       207   1 -1.978650E+05 -9.861505E+05 -1.333313E+05 -4.837244E+05 -4.937062E+04 -6.675109E+04
       207   2 -3.078014E+05 -1.494240E+06 -2.314826E+05 -3.948238E+05 -5.892461E+04 -1.519363E+04
       207   3 -3.786235E+05 -1.999281E+06 -3.535532E+05 -4.268836E+05 -2.036948E+04  3.639536E+04
       207   4  3.465983E+03 -1.409847E+05  2.774891E+04 -4.795390E+05 -4.951522E+04 -1.465845E+04
       207   5  1.697419E+04 -1.490960E+05  4.526543E+04 -4.189847E+05 -5.885564E+04 -3.803990E+04
       207   6  8.257618E+04 -1.414183E+05  9.093088E+04 -4.793529E+05 -2.013926E+04 -6.134762E+04
       207   7  2.047566E+05  7.048764E+05  1.888071E+05 -4.753471E+05 -4.965899E+04  3.750351E+04
       207   8  3.416379E+05  1.197770E+06  3.219186E+05 -4.431974E+05 -5.878499E+04 -6.093482E+04
       207   9  5.435404E+05  1.719641E+06  5.352085E+05 -5.319773E+05 -1.989291E+04 -1.593823E+05
       207  10 -1.978689E+05 -9.861559E+05 -1.333442E+05 -4.837271E+05  6.320179E-10  1.683273E-09
       207  11 -3.078052E+05 -1.494241E+06 -2.314895E+05 -3.948245E+05  1.239651E-09  7.799557E-11
       207  12 -3.786243E+05 -1.999282E+06 -3.535565E+05 -4.268830E+05  2.679926E-10 -9.187207E-10
       207  13  3.463292E+03 -1.409856E+05  2.774390E+04 -4.795396E+05  1.147106E-09 -1.199514E-10
       207  14  1.697008E+04 -1.490985E+05  4.525619E+04 -4.189865E+05 -1.685509E-09 -2.272173E-10
       207  15  8.257473E+04 -1.414225E+05  9.092304E+04 -4.793539E+05  5.574886E-10 -3.744999E-10
       207  16  2.047535E+05  7.048742E+05  1.887998E+05 -4.753456E+05 -4.901013E-10 -1.474870E-09
       207  17  3.416331E+05  1.197765E+06  3.219052E+05 -4.432003E+05  5.005090E-10 -1.531832E-09
       207  18  5.435332E+05  1.719613E+06  5.351601E+05 -5.319799E+05  7.693204E-10 -4.585851E-10
       207  19 -1.978650E+05 -9.861505E+05 -1.333313E+05 -4.837244E+05  4.937062E+04  6.675109E+04
       207  20 -3.078014E+05 -1.494240E+06 -2.314826E+05 -3.948238E+05  5.892461E+04  1.519363E+04
       207  21 -3.786235E+05 -1.999281E+06 -3.535532E+05 -4.268836E+05  2.036948E+04 -3.639536E+04
       207  22  3.465983E+03 -1.409847E+05  2.774891E+04 -4.795390E+05  4.951522E+04  1.465845E+04
       207  23  1.697419E+04 -1.490960E+05  4.526543E+04 -4.189847E+05  5.885564E+04  3.803990E+04
       207  24  8.257618E+04 -1.414183E+05  9.093088E+04 -4.793529E+05  2.013926E+04  6.134762E+04
       207  25  2.047566E+05  7.048764E+05  1.888071E+05 -4.753471E+05  4.965899E+04 -3.750351E+04
       207  26  3.416379E+05  1.197770E+06  3.219186E+05 -4.431974E+05  5.878499E+04  6.093482E+04
       207  27  5.435404E+05  1.719641E+06  5.352085E+05 -5.319773E+05  1.989291E+04  1.593823E+05
       208   1 -2.286494E+06 -8.975371E+05 -4.919293E+05 -8.740184E+05 -1.931855E+05 -4.981020E+04
       208   2 -2.169857E+06 -7.038110E+05 -3.283825E+05 -8.272510E+05 -1.226578E+05  2.854913E+04
       208   3 -2.075664E+06 -6.218437E+05 -2.543299E+05 -7.859178E+05 -3.839707E+04  7.053099E+04
       208   4 -1.000360E+06 -3.450428E+05 -1.444302E+05 -4.514722E+05 -1.007084E+05 -1.503681E+04
       208   5 -9.864005E+05 -2.382250E+05 -6.613756E+04 -4.698551E+05 -8.308390E+04  4.341132E+04
       208   6 -9.843063E+05 -2.325619E+05 -3.523193E+04 -4.936990E+05 -5.175992E+04  6.549664E+04
       208   7  2.873898E+05  2.076973E+05  2.029495E+05 -2.808556E+04 -8.023182E+03  1.984092E+04
       208   8  1.984824E+05  2.275260E+05  1.960259E+05 -1.118123E+05 -4.342849E+04  5.830892E+04
       208   9  1.082940E+05  1.568123E+05  1.838124E+05 -2.010068E+05 -6.514825E+04  6.045329E+04
       208  10 -2.286535E+06 -8.975499E+05 -4.920044E+05 -8.740262E+05 -1.458950E-10  2.150022E-10
       208  11 -2.169873E+06 -7.038159E+05 -3.284124E+05 -8.272482E+05 -9.627282E-10 -4.965805E-10
       208  12 -2.075667E+06 -6.218494E+05 -2.543420E+05 -7.859156E+05  2.792104E-10 -3.463683E-10
       208  13 -1.000371E+06 -3.450458E+05 -1.444497E+05 -4.514735E+05  4.783808E-10 -4.152801E-11
       208  14 -9.864085E+05 -2.382289E+05 -6.615408E+04 -4.698522E+05 -1.698953E-09 -1.932278E-09
       208  15 -9.843104E+05 -2.325672E+05 -3.524502E+04 -4.936963E+05  1.158563E-09 -1.519788E-10
       208  16  2.873896E+05  2.076968E+05  2.029486E+05 -2.808544E+04  7.978924E-11 -5.138036E-11
       208  17  1.984795E+05  2.275218E+05  1.960160E+05 -1.118103E+05  1.574753E-10 -1.319990E-09
       208  18  1.082884E+05  1.568072E+05  1.837975E+05 -2.010037E+05  1.188233E-10  2.199440E-10
       208  19 -2.286494E+06 -8.975371E+05 -4.919293E+05 -8.740184E+05  1.931855E+05  4.981020E+04
       208  20 -2.169857E+06 -7.038110E+05 -3.283825E+05 -8.272510E+05  1.226578E+05 -2.854913E+04
       208  21 -2.075664E+06 -6.218437E+05 -2.543299E+05 -7.859178E+05  3.839707E+04 -7.053099E+04
       208  22 -1.000360E+06 -3.450428E+05 -1.444302E+05 -4.514722E+05  1.007084E+05  1.503681E+04
       208  23 -9.864005E+05 -2.382250E+05 -6.613756E+04 -4.698551E+05  8.308390E+04 -4.341132E+04
       208  24 -9.843063E+05 -2.325619E+05 -3.523193E+04 -4.936990E+05  5.175992E+04 -6.549664E+04
       208  25  2.873898E+05  2.076973E+05  2.029495E+05 -2.808556E+04  8.023182E+03 -1.984092E+04
       208  26  1.984824E+05  2.275260E+05  1.960259E+05 -1.118123E+05  4.342849E+04 -5.830892E+04
       208  27  1.082940E+05  1.568123E+05  1.838124E+05 -2.010068E+05  6.514825E+04 -6.045329E+04
       209   1 -1.976274E+06 -6.025003E+05 -2.279670E+05 -7.688456E+05 -3.903469E+04  6.410686E+04
       209   2 -1.861533E+06 -5.387548E+05 -1.867267E+05 -7.205055E+05 -2.595721E+04  6.235924E+04
       209   3 -1.725777E+06 -5.032059E+05 -1.546995E+05 -6.988090E+05 -1.191761E+04  5.803732E+04
       209   4 -9.796619E+05 -2.363873E+05 -2.686109E+04 -4.907921E+05 -4.567933E+04  6.159939E+04
       209   5 -9.901625E+05 -2.203158E+05 -1.420109E+04 -4.783313E+05 -3.633913E+04  5.845287E+04
       209   6 -9.789183E+05 -2.316929E+05 -7.777867E+03 -4.925173E+05 -2.603994E+04  5.273314E+04
       209   7  1.797674E+04  1.298139E+05  1.741960E+05 -2.123239E+05 -5.233545E+04  5.908759E+04
       209   8 -1.180080E+05  9.818891E+04  1.582884E+05 -2.358424E+05 -4.673668E+04  5.454063E+04
       209   9 -2.314873E+05  3.986594E+04  1.391172E+05 -2.859973E+05 -4.018042E+04  4.742220E+04
       209  10 -1.976277E+06 -6.025051E+05 -2.279775E+05 -7.688436E+05  4.265882E-10 -1.087086E-11
       209  11 -1.861535E+06 -5.387592E+05 -1.867353E+05 -7.205042E+05 -1.028597E-09 -2.812192E-10
       209  12 -1.725778E+06 -5.032096E+05 -1.547061E+05 -6.988084E+05 -1.228134E-10 -3.609715E-10
       209  13 -9.796652E+05 -2.363919E+05 -2.687214E+04 -4.907899E+05  5.731330E-10  3.719097E-11
       209  14 -9.901648E+05 -2.203199E+05 -1.420999E+04 -4.783296E+05 -2.358507E-10 -3.159343E-10
       209  15 -9.789198E+05 -2.316961E+05 -7.784363E+03 -4.925162E+05  4.509487E-10 -2.361810E-10
       209  16  1.797286E+04  1.298094E+05  1.741843E+05 -2.123214E+05  7.929910E-11 -3.172725E-11
       209  17 -1.180112E+05  9.818514E+04  1.582787E+05 -2.358404E+05  2.643398E-10  1.712266E-10
       209  18 -2.314896E+05  3.986310E+04  1.391100E+05 -2.859958E+05  8.176887E-10 -1.080047E-10
       209  19 -1.976274E+06 -6.025003E+05 -2.279670E+05 -7.688456E+05  3.903469E+04 -6.410686E+04
       209  20 -1.861533E+06 -5.387548E+05 -1.867267E+05 -7.205055E+05  2.595721E+04 -6.235924E+04
       209  21 -1.725777E+06 -5.032059E+05 -1.546995E+05 -6.988090E+05  1.191761E+04 -5.803732E+04
       209  22 -9.796619E+05 -2.363873E+05 -2.686109E+04 -4.907921E+05  4.567933E+04 -6.159939E+04
       209  23 -9.901625E+05 -2.203158E+05 -1.420109E+04 -4.783313E+05  3.633913E+04 -5.845287E+04
       209  24 -9.789183E+05 -2.316929E+05 -7.777867E+03 -4.925173E+05  2.603994E+04 -5.273314E+04
       209  25  1.797674E+04  1.298139E+05  1.741960E+05 -2.123239E+05  5.233545E+04 -5.908759E+04
       209  26 -1.180080E+05  9.818891E+04  1.582884E+05 -2.358424E+05  4.673668E+04 -5.454063E+04
       209  27 -2.314873E+05  3.986594E+04  1.391172E+05 -2.859973E+05  4.018042E+04 -4.742220E+04
       210   1 -1.639756E+06 -4.725614E+05 -1.353252E+05 -6.755274E+05 -9.161801E+03  5.262569E+04
       210   2 -1.525216E+06 -4.143009E+05 -1.080096E+05 -6.267224E+05 -3.716386E+03  4.386134E+04
       210   3 -1.386865E+06 -3.803265E+05 -8.214069E+04 -6.054979E+05  1.796092E+03  3.490501E+04
       210   4 -9.785547E+05 -2.318655E+05 -5.859418E+03 -4.923834E+05 -2.283010E+04  4.749479E+04
       210   5 -9.904382E+05 -2.196445E+05 -3.233598E+03 -4.786188E+05 -1.766314E+04  3.862977E+04
       210   6 -9.784760E+05 -2.316555E+05 -1.834433E+03 -4.924405E+05 -1.242959E+04  2.957275E+04
       210   7 -3.168929E+05  8.871077E+03  1.235889E+05 -3.090566E+05 -3.651416E+04  4.235799E+04
       210   8 -4.553601E+05 -2.496189E+04  1.015309E+05 -3.303962E+05 -3.162287E+04  3.339334E+04
       210   9 -5.699130E+05 -8.296966E+04  7.846507E+04 -3.793140E+05 -2.666533E+04  2.423672E+04
       210  10 -1.639757E+06 -4.725644E+05 -1.353305E+05 -6.755271E+05  1.673813E-09 -5.202305E-10
       210  11 -1.525217E+06 -4.143029E+05 -1.080132E+05 -6.267223E+05  8.694855E-10 -8.662932E-10
       210  12 -1.386866E+06 -3.803279E+05 -8.214298E+04 -6.054979E+05 -9.849275E-10 -6.559318E-10
       210  13 -9.785559E+05 -2.318681E+05 -5.864633E+03 -4.923825E+05  1.260360E-09 -2.323919E-10
       210  14 -9.904389E+05 -2.196461E+05 -3.236987E+03 -4.786183E+05 -1.161200E-09 -6.996919E-10
       210  15 -9.784764E+05 -2.316565E+05 -1.836366E+03 -4.924402E+05 -5.932584E-09 -2.399480E-09
       210  16 -3.168948E+05  8.868794E+03  1.235831E+05 -3.090553E+05  1.881025E-11  1.513607E-10
       210  17 -4.553615E+05 -2.496335E+04  1.015270E+05 -3.303953E+05 -1.466256E-09 -6.074009E-10
       210  18 -5.699139E+05 -8.297048E+04  7.846263E+04 -3.793134E+05 -7.796271E-09 -3.177337E-09
       210  19 -1.639756E+06 -4.725614E+05 -1.353252E+05 -6.755274E+05  9.161801E+03 -5.262569E+04
       210  20 -1.525216E+06 -4.143009E+05 -1.080096E+05 -6.267224E+05  3.716386E+03 -4.386134E+04
       210  21 -1.386865E+06 -3.803265E+05 -8.214069E+04 -6.054979E+05 -1.796092E+03 -3.490501E+04
       210  22 -9.785547E+05 -2.318655E+05 -5.859418E+03 -4.923834E+05  2.283010E+04 -4.749479E+04
       210  23 -9.904382E+05 -2.196445E+05 -3.233598E+03 -4.786188E+05  1.766314E+04 -3.862977E+04
       210  24 -9.784760E+05 -2.316555E+05 -1.834433E+03 -4.924405E+05  1.242959E+04 -2.957275E+04
       210  25 -3.168929E+05  8.871077E+03  1.235889E+05 -3.090566E+05  3.651416E+04 -4.235799E+04
       210  26 -4.553601E+05 -2.496189E+04  1.015309E+05 -3.303962E+05  3.162287E+04 -3.339334E+04
       210  27 -5.699130E+05 -8.296966E+04  7.846507E+04 -3.793140E+05  2.666533E+04 -2.423672E+04
       211   1 -1.301313E+06 -3.491023E+05 -6.426908E+04 -5.818880E+05  4.173687E+03  2.931556E+04
       211   2 -1.186576E+06 -2.909571E+05 -3.931305E+04 -5.329376E+05  8.316549E+03  1.974877E+04
       211   3 -1.047769E+06 -2.569402E+05 -1.472123E+04 -5.116436E+05  1.246356E+04  1.016549E+04
       211   4 -9.784191E+05 -2.316595E+05 -1.426929E+03 -4.924411E+05 -1.003015E+04  2.399308E+04
       211   5 -9.904380E+05 -2.195809E+05 -9.322678E+02 -4.786124E+05 -5.912144E+03  1.441840E+04
       211   6 -9.783982E+05 -2.316269E+05 -7.826783E+02 -4.924462E+05 -1.790081E+03  4.827195E+03
       211   7 -6.554193E+05 -1.142084E+05  6.141069E+04 -4.029517E+05 -2.424180E+04  1.866767E+04
       211   8 -7.942592E+05 -1.482012E+05  3.744764E+04 -4.242711E+05 -2.014566E+04  9.086225E+03
       211   9 -9.090210E+05 -2.063129E+05  1.315667E+04 -4.732464E+05 -1.604555E+04 -5.117890E+02
       211  10 -1.301313E+06 -3.491033E+05 -6.427073E+04 -5.818881E+05 -6.102877E-09 -1.907909E-09
       211  11 -1.186577E+06 -2.909575E+05 -3.931392E+04 -5.329377E+05 -5.405061E-10 -1.043591E-10
       211  12 -1.047770E+06 -2.569403E+05 -1.472171E+04 -5.116437E+05  2.570930E-09  1.410053E-09
       211  13 -9.784193E+05 -2.316602E+05 -1.428199E+03 -4.924409E+05 -4.803495E-09 -1.941935E-09
       211  14 -9.904381E+05 -2.195811E+05 -9.327239E+02 -4.786123E+05  4.122010E-10 -4.677418E-10
       211  15 -9.783982E+05 -2.316270E+05 -7.827281E+02 -4.924462E+05  7.454795E-11  1.140471E-10
       211  16 -6.554201E+05 -1.142089E+05  6.140893E+04 -4.029513E+05 -3.534221E-09 -1.811038E-09
       211  17 -7.942596E+05 -1.482014E+05  3.744673E+04 -4.242709E+05  1.183616E-09 -1.233276E-09
       211  18 -9.090213E+05 -2.063130E+05  1.315618E+04 -4.732465E+05 -1.220884E-09 -1.212142E-09
       211  19 -1.301313E+06 -3.491023E+05 -6.426908E+04 -5.818880E+05 -4.173687E+03 -2.931556E+04
       211  20 -1.186576E+06 -2.909571E+05 -3.931305E+04 -5.329376E+05 -8.316549E+03 -1.974877E+04
       211  21 -1.047769E+06 -2.569402E+05 -1.472123E+04 -5.116436E+05 -1.246356E+04 -1.016549E+04
       211  22 -9.784191E+05 -2.316595E+05 -1.426929E+03 -4.924411E+05  1.003015E+04 -2.399308E+04
       211  23 -9.904380E+05 -2.195809E+05 -9.322678E+02 -4.786124E+05  5.912144E+03 -1.441840E+04
       211  24 -9.783982E+05 -2.316269E+05 -7.826783E+02 -4.924462E+05  1.790081E+03 -4.827195E+03
       211  25 -6.554193E+05 -1.142084E+05  6.141069E+04 -4.029517E+05  2.424180E+04 -1.866767E+04
       211  26 -7.942592E+05 -1.482012E+05  3.744764E+04 -4.242711E+05  2.014566E+04 -9.086225E+03
       211  27 -9.090210E+05 -2.063129E+05  1.315667E+04 -4.732464E+05  1.604555E+04  5.117890E+02
       212   1 -9.621540E+05 -2.256676E+05  2.727923E+03 -4.879893E+05  1.472911E+04  4.526640E+03
       212   2 -8.473597E+05 -1.675433E+05  2.687875E+04 -4.390204E+05  1.892038E+04 -5.038933E+03
       212   3 -7.085026E+05 -1.335462E+05  5.063218E+04 -4.177176E+05  2.310759E+04 -1.459001E+04
       212   4 -9.783999E+05 -2.316268E+05 -8.147493E+02 -4.924486E+05  4.737815E+02 -8.121917E+02
       212   5 -9.904289E+05 -2.195654E+05 -1.108867E+03 -4.786132E+05  4.684303E+03 -1.037159E+04
       212   6 -9.784150E+05 -2.316369E+05 -1.815897E+03 -4.924507E+05  8.890639E+03 -1.991648E+04
       212   7 -9.946451E+05 -2.375858E+05 -4.356564E+03 -4.969076E+05 -1.378114E+04 -6.150871E+03
       212   8 -1.133476E+06 -2.715854E+05 -2.909636E+04 -5.181972E+05 -9.548184E+03 -1.570290E+04
       212   9 -1.248249E+06 -3.297202E+05 -5.426568E+04 -5.671530E+05 -5.319555E+03 -2.524043E+04
       212  10 -9.621542E+05 -2.256677E+05  2.727476E+03 -4.879893E+05  2.410095E-08  1.019703E-08
       212  11 -8.473601E+05 -1.675434E+05  2.687803E+04 -4.390204E+05  4.828974E-09  3.238161E-09
       212  12 -7.085032E+05 -1.335466E+05  5.063077E+04 -4.177173E+05 -1.984410E-08 -7.189906E-09
       212  13 -9.783999E+05 -2.316268E+05 -8.147509E+02 -4.924486E+05  2.032101E-09  1.951229E-09
       212  14 -9.904289E+05 -2.195655E+05 -1.109110E+03 -4.786132E+05  4.420622E-09  3.439692E-09
       212  15 -9.784152E+05 -2.316374E+05 -1.816790E+03 -4.924506E+05  1.280244E-09  1.010114E-09
       212  16 -9.946454E+05 -2.375859E+05 -4.356992E+03 -4.969077E+05 -1.992272E-08 -6.779750E-09
       212  17 -1.133476E+06 -2.715857E+05 -2.909700E+04 -5.181973E+05  4.411973E-09  3.529976E-09
       212  18 -1.248249E+06 -3.297209E+05 -5.426693E+04 -5.671531E+05  2.229003E-08  1.027418E-08
       212  19 -9.621540E+05 -2.256676E+05  2.727923E+03 -4.879893E+05 -1.472911E+04 -4.526640E+03
       212  20 -8.473597E+05 -1.675433E+05  2.687875E+04 -4.390204E+05 -1.892038E+04  5.038933E+03
       212  21 -7.085026E+05 -1.335462E+05  5.063218E+04 -4.177176E+05 -2.310759E+04  1.459001E+04
       212  22 -9.783999E+05 -2.316268E+05 -8.147493E+02 -4.924486E+05 -4.737815E+02  8.121917E+02
       212  23 -9.904289E+05 -2.195654E+05 -1.108867E+03 -4.786132E+05 -4.684303E+03  1.037159E+04
       212  24 -9.784150E+05 -2.316369E+05 -1.815897E+03 -4.924507E+05 -8.890639E+03  1.991648E+04
       212  25 -9.946451E+05 -2.375858E+05 -4.356564E+03 -4.969076E+05  1.378114E+04  6.150871E+03
       212  26 -1.133476E+06 -2.715854E+05 -2.909636E+04 -5.181972E+05  9.548184E+03  1.570290E+04
       212  27 -1.248249E+06 -3.297202E+05 -5.426568E+04 -5.671530E+05  5.319555E+03  2.524043E+04
       213   1 -6.229698E+05 -1.023058E+05  6.754565E+04 -3.940954E+05  2.560855E+04 -2.013259E+04
       213   2 -5.082878E+05 -4.427676E+04  9.015822E+04 -3.451767E+05  3.107850E+04 -2.910661E+04
       213   3 -3.697817E+05 -1.048913E+04  1.113674E+05 -3.238611E+05  3.648465E+04 -3.789658E+04
       213   4 -9.784830E+05 -2.316296E+05 -2.370650E+03 -4.924581E+05  1.136739E+04 -2.546948E+04
       213   5 -9.903969E+05 -2.195920E+05 -4.231797E+03 -4.786197E+05  1.710140E+04 -3.434807E+04
       213   6 -9.785580E+05 -2.318526E+05 -7.707474E+03 -4.923937E+05  2.277117E+04 -4.304262E+04
       213   7 -1.333868E+06 -3.609435E+05 -7.229275E+04 -5.907693E+05 -2.865137E+03 -3.080315E+04
       213   8 -1.472267E+06 -3.948876E+05 -9.863212E+04 -6.119672E+05  3.135889E+03 -3.958520E+04
       213   9 -1.586950E+06 -4.531836E+05 -1.267984E+05 -6.607732E+05  9.072118E+03 -4.818327E+04
       213  10 -6.229707E+05 -1.023064E+05  6.754365E+04 -3.940950E+05 -9.586925E-10 -4.767033E-10
       213  11 -5.082890E+05 -4.427793E+04  9.015481E+04 -3.451760E+05 -4.927196E-10 -4.382665E-10
       213  12 -3.697835E+05 -1.049103E+04  1.113622E+05 -3.238600E+05 -4.518078E-10 -9.174470E-10
       213  13 -9.784833E+05 -2.316304E+05 -2.372111E+03 -4.924578E+05 -4.643378E-10 -1.387716E-10
       213  14 -9.903975E+05 -2.195933E+05 -4.234562E+03 -4.786193E+05  7.685944E-10  8.407065E-11
       213  15 -9.785590E+05 -2.318547E+05 -7.711927E+03 -4.923929E+05 -1.290025E-10 -5.499836E-10
       213  16 -1.333868E+06 -3.609445E+05 -7.229454E+04 -5.907694E+05  2.012761E-10  9.930357E-10
       213  17 -1.472267E+06 -3.948892E+05 -9.863509E+04 -6.119671E+05  3.004056E-10  2.924736E-11
       213  18 -1.586950E+06 -4.531861E+05 -1.268029E+05 -6.607729E+05  3.218799E-10 -3.021969E-10
       213  19 -6.229698E+05 -1.023058E+05  6.754565E+04 -3.940954E+05 -2.560855E+04  2.013259E+04
       213  20 -5.082878E+05 -4.427676E+04  9.015822E+04 -3.451767E+05 -3.107850E+04  2.910661E+04
       213  21 -3.697817E+05 -1.048913E+04  1.113674E+05 -3.238611E+05 -3.648465E+04  3.789658E+04
       213  22 -9.784830E+05 -2.316296E+05 -2.370650E+03 -4.924581E+05 -1.136739E+04  2.546948E+04
       213  23 -9.903969E+05 -2.195920E+05 -4.231797E+03 -4.786197E+05 -1.710140E+04  3.434807E+04
       213  24 -9.785580E+05 -2.318526E+05 -7.707474E+03 -4.923937E+05 -2.277117E+04  4.304262E+04
       213  25 -1.333868E+06 -3.609435E+05 -7.229275E+04 -5.907693E+05  2.865137E+03  3.080315E+04
       213  26 -1.472267E+06 -3.948876E+05 -9.863212E+04 -6.119672E+05 -3.135889E+03  3.958520E+04
       213  27 -1.586950E+06 -4.531836E+05 -1.267984E+05 -6.607732E+05 -9.072118E+03  4.818327E+04
       214   1 -2.842878E+05  2.042680E+04  1.262878E+05 -3.010256E+05  4.048078E+04 -4.284235E+04
       214   2 -1.706975E+05  7.893149E+04  1.433940E+05 -2.503427E+05  4.946778E+04 -4.911494E+04
       214   3 -3.535912E+04  1.095158E+05  1.551206E+05 -2.261477E+05  5.753394E+04 -5.291348E+04
       214   4 -9.790247E+05 -2.316351E+05 -1.024411E+04 -4.926007E+05  2.632682E+04 -4.815627E+04
       214   5 -9.900005E+05 -2.203720E+05 -1.870202E+04 -4.782219E+05  3.891157E+04 -5.308460E+04
       214   6 -9.799606E+05 -2.377503E+05 -3.539906E+04 -4.903397E+05  5.057360E+04 -5.553759E+04
       214   7 -1.673255E+06 -4.836533E+05 -1.467957E+05 -6.839758E+05  1.218998E+04 -5.346384E+04
       214   8 -1.808608E+06 -5.196160E+05 -1.808289E+05 -7.058223E+05  2.837031E+04 -5.704864E+04
       214   9 -1.923650E+06 -5.849394E+05 -2.259647E+05 -7.541609E+05  4.362456E+04 -5.815741E+04
       214  10 -2.842901E+05  2.042439E+04  1.262812E+05 -3.010242E+05 -1.183110E-09 -1.110815E-09
       214  11 -1.707008E+05  7.892825E+04  1.433849E+05 -2.503407E+05 -5.716850E-10 -1.094882E-10
       214  12 -3.536342E+04  1.095119E+05  1.551091E+05 -2.261452E+05  2.655039E-13 -1.933647E-10
       214  13 -9.790261E+05 -2.316377E+05 -1.024977E+04 -4.925996E+05  6.454339E-11 -6.509657E-10
       214  14 -9.900029E+05 -2.203754E+05 -1.871016E+04 -4.782202E+05 -1.034816E-09 -8.561809E-11
       214  15 -9.799642E+05 -2.377542E+05 -3.540965E+04 -4.903374E+05 -2.381216E-10  1.937085E-10
       214  16 -1.673256E+06 -4.836564E+05 -1.468013E+05 -6.839753E+05  1.362695E-09 -5.094635E-11
       214  17 -1.808610E+06 -5.196197E+05 -1.808366E+05 -7.058210E+05  6.282580E-10 -3.609932E-11
       214  18 -1.923653E+06 -5.849436E+05 -2.259746E+05 -7.541588E+05  6.563334E-10  7.276234E-10
       214  19 -2.842878E+05  2.042680E+04  1.262878E+05 -3.010256E+05 -4.048078E+04  4.284235E+04
       214  20 -1.706975E+05  7.893149E+04  1.433940E+05 -2.503427E+05 -4.946778E+04  4.911494E+04
       214  21 -3.535912E+04  1.095158E+05  1.551206E+05 -2.261477E+05 -5.753394E+04  5.291348E+04
       214  22 -9.790247E+05 -2.316351E+05 -1.024411E+04 -4.926007E+05 -2.632682E+04  4.815627E+04
       214  23 -9.900005E+05 -2.203720E+05 -1.870202E+04 -4.782219E+05 -3.891157E+04  5.308460E+04
       214  24 -9.799606E+05 -2.377503E+05 -3.539906E+04 -4.903397E+05 -5.057360E+04  5.553759E+04
       214  25 -1.673255E+06 -4.836533E+05 -1.467957E+05 -6.839758E+05 -1.218998E+04  5.346384E+04
       214  26 -1.808608E+06 -5.196160E+05 -1.808289E+05 -7.058223E+05 -2.837031E+04  5.704864E+04
       214  27 -1.923650E+06 -5.849394E+05 -2.259647E+05 -7.541609E+05 -4.362456E+04  5.815741E+04
       215   1  5.638916E+04  1.348724E+05  1.620636E+05 -2.190581E+05  7.138840E+04 -5.390609E+04
       215   2  1.406379E+05  2.094806E+05  1.637780E+05 -1.156462E+05  6.298189E+04 -4.757254E+04
       215   3  2.123628E+05  1.678363E+05  1.435085E+05 -1.154603E+04  4.141459E+04 -6.280261E+03
       215   4 -9.859382E+05 -2.328278E+05 -4.643478E+04 -4.943372E+05  5.794660E+04 -5.896622E+04
       215   5 -9.851407E+05 -2.437142E+05 -8.714659E+04 -4.668589E+05  1.005637E+05 -3.346025E+04
       215   6 -1.007070E+06 -3.810998E+05 -1.903535E+05 -4.386870E+05  1.300040E+05  2.703694E+04
       215   7 -2.027147E+06 -6.004535E+05 -2.549849E+05 -7.691968E+05  4.452904E+04 -6.401798E+04
       215   8 -2.109615E+06 -6.967337E+05 -3.381419E+05 -8.174579E+05  1.380717E+05 -1.938163E+04
       215   9 -2.225000E+06 -9.297334E+05 -5.243119E+05 -8.649941E+05  2.184021E+05  6.024944E+04
       215  10  5.638291E+04  1.348679E+05  1.620486E+05 -2.190550E+05  1.132171E-09 -7.088486E-10
       215  11  1.406330E+05  2.094771E+05  1.637663E+05 -1.156438E+05  9.797955E-10 -8.505461E-10
       215  12  2.123609E+05  1.678358E+05  1.435052E+05 -1.154582E+04  3.673028E-10  5.142280E-11
       215  13 -9.859428E+05 -2.328324E+05 -4.644762E+04 -4.943344E+05  6.092443E-10  5.601249E-10
       215  14 -9.851519E+05 -2.437181E+05 -8.716771E+04 -4.668562E+05  3.347058E-10 -9.508555E-10
       215  15 -1.007089E+06 -3.811052E+05 -1.903867E+05 -4.386898E+05  6.153855E-10 -1.768948E-10
       215  16 -2.027150E+06 -6.004585E+05 -2.549963E+05 -7.691945E+05 -9.107482E-10  9.870370E-10
       215  17 -2.109636E+06 -6.967393E+05 -3.381785E+05 -8.174558E+05  5.553213E-11  7.197669E-10
       215  18 -2.225052E+06 -9.297502E+05 -5.244087E+05 -8.650047E+05  3.677697E-10  6.853762E-10
       215  19  5.638916E+04  1.348724E+05  1.620636E+05 -2.190581E+05 -7.138840E+04  5.390609E+04
       215  20  1.406379E+05  2.094806E+05  1.637780E+05 -1.156462E+05 -6.298189E+04  4.757254E+04
       215  21  2.123628E+05  1.678363E+05  1.435085E+05 -1.154603E+04 -4.141459E+04  6.280261E+03
       215  22 -9.859382E+05 -2.328278E+05 -4.643478E+04 -4.943372E+05 -5.794660E+04  5.896622E+04
       215  23 -9.851407E+05 -2.437142E+05 -8.714659E+04 -4.668589E+05 -1.005637E+05  3.346025E+04
       215  24 -1.007070E+06 -3.810998E+05 -1.903535E+05 -4.386870E+05 -1.300040E+05 -2.703694E+04
       215  25 -2.027147E+06 -6.004535E+05 -2.549849E+05 -7.691968E+05 -4.452904E+04  6.401798E+04
       215  26 -2.109615E+06 -6.967337E+05 -3.381419E+05 -8.174579E+05 -1.380717E+05  1.938163E+04
       215  27 -2.225000E+06 -9.297334E+05 -5.243119E+05 -8.649941E+05 -2.184021E+05 -6.024944E+04
       216   1 -3.654904E+05 -1.298856E+05 -9.708481E+04 -2.595528E+04  4.737180E+04  1.605338E+04
       216   2 -2.453983E+05 -2.200943E+05 -1.207829E+05 -6.600421E+04  4.753068E+04  5.219825E+04
       216   3 -1.013451E+05 -2.153049E+05 -1.208074E+05 -1.364822E+05  4.771914E+04  5.915225E+04
       216   4  8.164102E+05  1.620360E+05  1.820269E+05 -1.240682E+05  1.266546E+05  1.610849E+04
       216   5  8.005882E+05  3.065952E+04  8.764137E+04 -1.088104E+05  8.123781E+04  5.220890E+04
       216   6  8.165607E+05  2.089007E+03  4.852166E+04 -1.239715E+05  3.585329E+04  5.914092E+04
       216   7  1.999629E+06  4.538974E+05  4.610709E+05 -2.223691E+05  2.060874E+05  1.613851E+04
       216   8  1.847626E+06  2.813540E+05  2.960161E+05 -1.516903E+05  1.150005E+05  5.221490E+04
       216   9  1.735284E+06  2.194355E+05  2.178163E+05 -1.114418E+05  2.397033E+04  5.912911E+04
       216  10 -3.654929E+05 -1.298864E+05 -9.708952E+04 -2.595590E+04  4.906048E-10 -7.273176E-10
       216  11 -2.454015E+05 -2.200979E+05 -1.207922E+05 -6.600621E+04 -1.010822E-09  8.880386E-10
       216  12 -1.013485E+05 -2.153092E+05 -1.208182E+05 -1.364845E+05 -2.821690E-09  1.698655E-10
       216  13  8.163929E+05  1.620314E+05  1.819963E+05 -1.240698E+05  8.597268E-10  8.018038E-10
       216  14  8.005804E+05  3.065482E+04  8.762386E+04 -1.088138E+05  3.893946E-10  4.631238E-10
       216  15  8.165583E+05  2.084904E+03  4.851267E+04 -1.239732E+05  1.959886E-09 -1.265031E-10
       216  16  1.999584E+06  4.538857E+05  4.609909E+05 -2.223717E+05 -3.677893E-10  6.977569E-10
       216  17  1.847611E+06  2.813475E+05  2.959862E+05 -1.516951E+05  2.081520E-09  4.912882E-10
       216  18  1.735282E+06  2.194316E+05  2.178087E+05 -1.114429E+05  4.452991E-09  1.252866E-09
       216  19 -3.654904E+05 -1.298856E+05 -9.708481E+04 -2.595528E+04 -4.737180E+04 -1.605338E+04
       216  20 -2.453983E+05 -2.200943E+05 -1.207829E+05 -6.600421E+04 -4.753068E+04 -5.219825E+04
       216  21 -1.013451E+05 -2.153049E+05 -1.208074E+05 -1.364822E+05 -4.771914E+04 -5.915225E+04
       216  22  8.164102E+05  1.620360E+05  1.820269E+05 -1.240682E+05 -1.266546E+05 -1.610849E+04
       216  23  8.005882E+05  3.065952E+04  8.764137E+04 -1.088104E+05 -8.123781E+04 -5.220890E+04
       216  24  8.165607E+05  2.089007E+03  4.852166E+04 -1.239715E+05 -3.585329E+04 -5.914092E+04
       216  25  1.999629E+06  4.538974E+05  4.610709E+05 -2.223691E+05 -2.060874E+05 -1.613851E+04
       216  26  1.847626E+06  2.813540E+05  2.960161E+05 -1.516903E+05 -1.150005E+05 -5.221490E+04
       216  27  1.735284E+06  2.194355E+05  2.178163E+05 -1.114418E+05 -2.397033E+04 -5.912911E+04
       217   1 -1.930164E+04 -1.897970E+05 -1.149141E+05 -1.221908E+05  3.710070E+04  5.436747E+04
       217   2  1.110769E+05 -1.639196E+05 -1.048179E+05 -1.078993E+05  3.054682E+04  4.830407E+04
       217   3  2.434895E+05 -1.337701E+05 -8.936116E+04 -1.256632E+05  2.398832E+04  3.990631E+04
       217   4  8.101070E+05  6.425707E+03  3.714051E+04 -1.243541E+05  2.949277E+04  5.435878E+04
       217   5  8.088168E+05  6.182139E+02  2.047411E+04 -1.083273E+05  1.928422E+04  4.829728E+04
       217   6  8.101735E+05 -2.862689E+02  1.169713E+04 -1.243534E+05  9.072416E+03  3.990272E+04
       217   7  1.640183E+06  2.026095E+05  1.891672E+05 -1.265203E+05  2.187493E+04  5.435016E+04
       217   8  1.507031E+06  1.651290E+05  1.457478E+05 -1.087559E+05  8.009313E+03  4.829051E+04
       217   9  1.377171E+06  1.331799E+05  1.127441E+05 -1.230424E+05 -5.856707E+03  3.989906E+04
       217  10 -1.930391E+04 -1.898005E+05 -1.149222E+05 -1.221924E+05 -1.934572E-10  3.320971E-10
       217  11  1.110753E+05 -1.639223E+05 -1.048240E+05 -1.079005E+05  6.990574E-10  2.043032E-10
       217  12  2.434885E+05 -1.337719E+05 -8.936524E+04 -1.256640E+05 -4.542258E-10 -1.182153E-09
       217  13  8.101053E+05  6.422300E+03  3.713332E+04 -1.243554E+05  8.374280E-10  9.756410E-10
       217  14  8.088158E+05  6.156083E+02  2.046903E+04 -1.083281E+05  2.102880E-09  1.430591E-10
       217  15  8.101730E+05 -2.880014E+02  1.169398E+04 -1.243537E+05 -1.173821E-09 -9.589925E-10
       217  16  1.640182E+06  2.026062E+05  1.891608E+05 -1.265213E+05  5.417144E-10  5.788079E-10
       217  17  1.507030E+06  1.651265E+05  1.457433E+05 -1.087562E+05 -2.445230E-10 -2.103962E-10
       217  18  1.377171E+06  1.331782E+05  1.127411E+05 -1.230422E+05 -7.969314E-10 -4.829484E-10
       217  19 -1.930164E+04 -1.897970E+05 -1.149141E+05 -1.221908E+05 -3.710070E+04 -5.436747E+04
       217  20  1.110769E+05 -1.639196E+05 -1.048179E+05 -1.078993E+05 -3.054682E+04 -4.830407E+04
       217  21  2.434895E+05 -1.337701E+05 -8.936116E+04 -1.256632E+05 -2.398832E+04 -3.990631E+04
       217  22  8.101070E+05  6.425707E+03  3.714051E+04 -1.243541E+05 -2.949277E+04 -5.435878E+04
       217  23  8.088168E+05  6.182139E+02  2.047411E+04 -1.083273E+05 -1.928422E+04 -4.829728E+04
       217  24  8.101735E+05 -2.862689E+02  1.169713E+04 -1.243534E+05 -9.072416E+03 -3.990272E+04
       217  25  1.640183E+06  2.026095E+05  1.891672E+05 -1.265203E+05 -2.187493E+04 -5.435016E+04
       217  26  1.507031E+06  1.651290E+05  1.457478E+05 -1.087559E+05 -8.009313E+03 -4.829051E+04
       217  27  1.377171E+06  1.331799E+05  1.127441E+05 -1.230424E+05  5.856707E+03 -3.989906E+04
       218   1  3.301144E+05 -1.128725E+05 -7.608193E+04 -1.248572E+05  2.183449E+04  3.431492E+04
       218   2  4.610909E+05 -8.215374E+04 -5.670679E+04 -1.086526E+05  1.962325E+04  2.488564E+04
       218   3  5.924434E+05 -5.125498E+04 -3.584069E+04 -1.245853E+05  1.740905E+04  1.527241E+04
       218   4  8.096945E+05 -2.321106E+01  8.884458E+03 -1.243724E+05  7.265624E+03  3.431304E+04
       218   5  8.095048E+05 -1.672027E+02  5.057894E+03 -1.083044E+05  4.764151E+03  2.488568E+04
       218   6  8.097257E+05 -8.003442E+01  2.922527E+03 -1.243725E+05  2.260166E+03  1.527447E+04
       218   7  1.289499E+06  1.128136E+05  9.384310E+04 -1.238871E+05 -7.314170E+03  3.431113E+04
       218   8  1.158038E+06  8.181278E+04  6.681890E+04 -1.079559E+05 -1.010304E+04  2.488571E+04
       218   9  1.027055E+06  5.109242E+04  4.168481E+04 -1.241597E+05 -1.289386E+04  1.527652E+04
       218  10  3.301136E+05 -1.128739E+05 -7.608504E+04 -1.248578E+05 -1.023249E-09 -1.238288E-09
       218  11  4.610903E+05 -8.215450E+04 -5.670868E+04 -1.086530E+05 -4.242015E-10 -4.398283E-10
       218  12  5.924430E+05 -5.125531E+04 -3.584170E+04 -1.245855E+05  2.539585E-10 -7.843201E-10
       218  13  8.096941E+05 -2.449007E+01  8.882145E+03 -1.243726E+05 -3.088012E-10 -7.559888E-10
       218  14  8.095046E+05 -1.678741E+02  5.056687E+03 -1.083044E+05  5.536805E-10 -3.609199E-10
       218  15  8.097257E+05 -8.028643E+01  2.922078E+03 -1.243726E+05 -1.143662E-10 -1.047539E-11
       218  16  1.289499E+06  1.128123E+05  9.384079E+04 -1.238869E+05  2.188045E-10 -3.463179E-10
       218  17  1.158037E+06  8.181208E+04  6.681754E+04 -1.079557E+05  1.793463E-09 -1.165314E-10
       218  18  1.027054E+06  5.109213E+04  4.168406E+04 -1.241596E+05  6.716052E-10  3.243239E-10
       218  19  3.301144E+05 -1.128725E+05 -7.608193E+04 -1.248572E+05 -2.183449E+04 -3.431492E+04
       218  20  4.610909E+05 -8.215374E+04 -5.670679E+04 -1.086526E+05 -1.962325E+04 -2.488564E+04
       218  21  5.924434E+05 -5.125498E+04 -3.584069E+04 -1.245853E+05 -1.740905E+04 -1.527241E+04
       218  22  8.096945E+05 -2.321106E+01  8.884458E+03 -1.243724E+05 -7.265624E+03 -3.431304E+04
       218  23  8.095048E+05 -1.672027E+02  5.057894E+03 -1.083044E+05 -4.764151E+03 -2.488568E+04
       218  24  8.097257E+05 -8.003442E+01  2.922527E+03 -1.243725E+05 -2.260166E+03 -1.527447E+04
       218  25  1.289499E+06  1.128136E+05  9.384310E+04 -1.238871E+05  7.314170E+03 -3.431113E+04
       218  26  1.158038E+06  8.181278E+04  6.681890E+04 -1.079559E+05  1.010304E+04 -2.488571E+04
       218  27  1.027055E+06  5.109242E+04  4.168481E+04 -1.241597E+05  1.289386E+04 -1.527652E+04
       219   1  6.793103E+05 -3.065725E+04 -2.055612E+04 -1.245281E+05  1.691304E+04  9.623013E+03
       219   2  8.103693E+05  1.384741E+02  1.426462E+03 -1.084123E+05  1.629107E+04 -6.774479E+01
       219   3  9.415350E+05  3.093968E+04  2.381583E+04 -1.244266E+05  1.566897E+04 -9.772115E+03
       219   4  8.096608E+05 -5.240351E+01  2.227015E+03 -1.243712E+05  1.792829E+03  9.625656E+03
       219   5  8.096152E+05 -3.672295E+01  1.303625E+03 -1.083062E+05  1.147846E+03 -6.511891E+01
       219   6  8.096610E+05 -1.147510E+01  8.017744E+02 -1.243712E+05  5.028611E+02 -9.769477E+03
       219   7  9.400284E+05  3.055165E+04  2.501040E+04 -1.242142E+05 -1.333046E+04  9.628290E+03
       219   8  8.088616E+05 -2.117970E+02  1.181648E+03 -1.082000E+05 -1.399536E+04 -6.249820E+01
       219   9  6.778046E+05 -3.096345E+04 -2.221204E+04 -1.243159E+05 -1.466012E+04 -9.766842E+03
       219  10  6.793100E+05 -3.065743E+04 -2.055683E+04 -1.245283E+05 -2.893571E-10 -5.064420E-10
       219  11  8.103690E+05  1.384029E+02  1.425964E+03 -1.084123E+05  4.865892E-10  4.671423E-10
       219  12  9.415347E+05  3.093952E+04  2.381519E+04 -1.244264E+05  2.821194E-10  4.222131E-10
       219  13  8.096608E+05 -5.250390E+01  2.226835E+03 -1.243712E+05  1.060498E-09 -8.605629E-11
       219  14  8.096152E+05 -3.672331E+01  1.303622E+03 -1.083062E+05 -1.432160E-10  3.740878E-10
       219  15  8.096610E+05 -1.157770E+01  8.015945E+02 -1.243712E+05 -1.733839E-09  1.435100E-10
       219  16  9.400282E+05  3.055150E+04  2.500989E+04 -1.242141E+05  1.433377E-10  3.071801E-10
       219  17  8.088614E+05 -2.118495E+02  1.181281E+03 -1.082000E+05  1.101893E-09  1.807357E-10
       219  18  6.778044E+05 -3.096361E+04 -2.221262E+04 -1.243160E+05 -1.363433E-10  1.540678E-10
       219  19  6.793103E+05 -3.065725E+04 -2.055612E+04 -1.245281E+05 -1.691304E+04 -9.623013E+03
       219  20  8.103693E+05  1.384741E+02  1.426462E+03 -1.084123E+05 -1.629107E+04  6.774479E+01
       219  21  9.415350E+05  3.093968E+04  2.381583E+04 -1.244266E+05 -1.566897E+04  9.772115E+03
       219  22  8.096608E+05 -5.240351E+01  2.227015E+03 -1.243712E+05 -1.792829E+03 -9.625656E+03
       219  23  8.096152E+05 -3.672295E+01  1.303625E+03 -1.083062E+05 -1.147846E+03  6.511891E+01
       219  24  8.096610E+05 -1.147510E+01  8.017744E+02 -1.243712E+05 -5.028611E+02  9.769477E+03
       219  25  9.400284E+05  3.055165E+04  2.501040E+04 -1.242142E+05  1.333046E+04 -9.628290E+03
       219  26  8.088616E+05 -2.117970E+02  1.181648E+03 -1.082000E+05  1.399536E+04  6.249820E+01
       219  27  6.778046E+05 -3.096345E+04 -2.221204E+04 -1.243159E+05  1.466012E+04  9.766842E+03
       220   1  1.028473E+06  5.150006E+04  3.963691E+04 -1.244291E+05  1.554001E+04 -1.542515E+04
       220   2  1.159658E+06  8.226241E+04  6.237797E+04 -1.083115E+05  1.527995E+04 -2.512958E+04
       220   3  1.290920E+06  1.130252E+05  8.529376E+04 -1.243428E+05  1.502247E+04 -3.482008E+04
       220   4  8.096476E+05 -1.616997E+01  6.511316E+02 -1.243757E+05  3.695150E+02 -1.542311E+04
       220   5  8.096036E+05 -4.790132E+01  4.839694E+02 -1.083007E+05  1.298111E+02 -2.512956E+04
       220   6  8.096176E+05 -8.202458E+01  4.769768E+02 -1.243757E+05 -1.072546E+02 -3.482203E+04
       220   7  5.908690E+05 -5.153492E+04 -3.833559E+04 -1.243222E+05 -1.479580E+04 -1.542107E+04
       220   8  4.596697E+05 -8.236481E+04 -6.141369E+04 -1.082898E+05 -1.501205E+04 -2.512953E+04
       220   9  3.285414E+05 -1.132018E+05 -8.434742E+04 -1.244084E+05 -1.522561E+04 -3.482398E+04
       220  10  1.028473E+06  5.149974E+04  3.963601E+04 -1.244289E+05 -9.387389E-10  1.684983E-10
       220  11  1.159657E+06  8.226167E+04  6.237634E+04 -1.083112E+05  2.172217E-09 -4.686410E-11
       220  12  1.290920E+06  1.130239E+05  8.529105E+04 -1.243424E+05 -2.844816E-10  5.286196E-10
       220  13  8.096476E+05 -1.642553E+01  6.506842E+02 -1.243756E+05  1.662296E-09  1.761534E-10
       220  14  8.096034E+05 -4.857970E+01  4.827823E+02 -1.083007E+05  3.284896E-09  3.452139E-10
       220  15  8.096172E+05 -8.332717E+01  4.746973E+02 -1.243757E+05 -3.931450E-10  6.988179E-10
       220  16  5.908687E+05 -5.153524E+04 -3.833645E+04 -1.243224E+05  5.139481E-10  2.966434E-10
       220  17  4.596693E+05 -8.236555E+04 -6.141530E+04 -1.082901E+05  1.071332E-09  6.890733E-10
       220  18  3.285408E+05 -1.132032E+05 -8.435013E+04 -1.244089E+05  8.578358E-10  8.917819E-10
       220  19  1.028473E+06  5.150006E+04  3.963691E+04 -1.244291E+05 -1.554001E+04  1.542515E+04
       220  20  1.159658E+06  8.226241E+04  6.237797E+04 -1.083115E+05 -1.527995E+04  2.512958E+04
       220  21  1.290920E+06  1.130252E+05  8.529376E+04 -1.243428E+05 -1.502247E+04  3.482008E+04
       220  22  8.096476E+05 -1.616997E+01  6.511316E+02 -1.243757E+05 -3.695150E+02  1.542311E+04
       220  23  8.096036E+05 -4.790132E+01  4.839694E+02 -1.083007E+05 -1.298111E+02  2.512956E+04
       220  24  8.096176E+05 -8.202458E+01  4.769768E+02 -1.243757E+05  1.072546E+02  3.482203E+04
       220  25  5.908690E+05 -5.153492E+04 -3.833559E+04 -1.243222E+05  1.479580E+04  1.542107E+04
       220  26  4.596697E+05 -8.236481E+04 -6.141369E+04 -1.082898E+05  1.501205E+04  2.512953E+04
       220  27  3.285414E+05 -1.132018E+05 -8.434742E+04 -1.244084E+05  1.522561E+04  3.482398E+04
       221   1  1.378021E+06  1.335934E+05  1.013452E+05 -1.243201E+05  1.497650E+04 -4.047251E+04
       221   2  1.509404E+06  1.643874E+05  1.246332E+05 -1.080996E+05  1.424622E+04 -5.006498E+04
       221   3  1.641012E+06  1.952629E+05  1.484385E+05 -1.240746E+05  1.352090E+04 -5.942392E+04
       221   4  8.096194E+05 -1.063724E+02  5.292122E+02 -1.243862E+05 -1.976626E+02 -4.047625E+04
       221   5  8.095158E+05 -1.798615E+02  7.453580E+02 -1.082874E+05 -5.638969E+02 -5.007264E+04
       221   6  8.095590E+05 -2.336554E+02  1.226771E+03 -1.243862E+05 -9.250217E+02 -5.943535E+04
       221   7  2.415335E+05 -1.338238E+05 -1.002980E+05 -1.244523E+05 -1.535836E+04 -4.047998E+04
       221   8  1.101057E+05 -1.647739E+05 -1.231598E+05 -1.084750E+05 -1.535783E+04 -5.008030E+04
       221   9 -2.121986E+04 -1.957680E+05 -1.460098E+05 -1.246974E+05 -1.535220E+04 -5.944677E+04
       221  10  1.378020E+06  1.335916E+05  1.013417E+05 -1.243196E+05  3.480507E-10  1.018635E-09
       221  11  1.509403E+06  1.643846E+05  1.246281E+05 -1.080990E+05  7.992522E-10 -1.660988E-10
       221  12  1.641011E+06  1.952591E+05  1.484315E+05 -1.240739E+05  2.141767E-09 -1.220881E-09
       221  13  8.096189E+05 -1.081324E+02  5.261322E+02 -1.243863E+05 -1.077573E-09  8.606893E-10
       221  14  8.095152E+05 -1.825550E+02  7.406440E+02 -1.082875E+05  1.904814E-09 -1.224413E-11
       221  15  8.095580E+05 -2.374504E+02  1.220128E+03 -1.243863E+05 -9.879471E-10 -1.021262E-09
       221  16  2.415328E+05 -1.338256E+05 -1.003015E+05 -1.244528E+05 -1.074097E-09  5.006020E-10
       221  17  1.101048E+05 -1.647766E+05 -1.231650E+05 -1.084756E+05 -6.579298E-10 -1.523081E-10
       221  18 -2.122106E+04 -1.957719E+05 -1.460169E+05 -1.246982E+05 -1.751612E-09 -2.774297E-10
       221  19  1.378021E+06  1.335934E+05  1.013452E+05 -1.243201E+05 -1.497650E+04  4.047251E+04
       221  20  1.509404E+06  1.643874E+05  1.246332E+05 -1.080996E+05 -1.424622E+04  5.006498E+04
       221  21  1.641012E+06  1.952629E+05  1.484385E+05 -1.240746E+05 -1.352090E+04  5.942392E+04
       221  22  8.096194E+05 -1.063724E+02  5.292122E+02 -1.243862E+05  1.976626E+02  4.047625E+04
       221  23  8.095158E+05 -1.798615E+02  7.453580E+02 -1.082874E+05  5.638969E+02  5.007264E+04
       221  24  8.095590E+05 -2.336554E+02  1.226771E+03 -1.243862E+05  9.250217E+02  5.943535E+04
       221  25  2.415335E+05 -1.338238E+05 -1.002980E+05 -1.244523E+05  1.535836E+04  4.047998E+04
       221  26  1.101057E+05 -1.647739E+05 -1.231598E+05 -1.084750E+05  1.535783E+04  5.008030E+04
       221  27 -2.121986E+04 -1.957680E+05 -1.460098E+05 -1.246974E+05  1.535220E+04  5.944677E+04
       222   1  1.728542E+06  2.158846E+05  1.649623E+05 -1.238577E+05  1.373271E+04 -6.500404E+04
       222   2  1.859807E+06  2.471127E+05  1.907653E+05 -1.078173E+05  7.680669E+03 -7.303515E+04
       222   3  1.992444E+06  2.797930E+05  2.209137E+05 -1.238727E+05  1.631021E+03 -7.806130E+04
       222   4  8.096165E+05 -3.032613E+02  1.594554E+03 -1.243642E+05 -1.168711E+03 -6.501854E+04
       222   5  8.093008E+05 -2.700145E+02  2.727525E+03 -1.083148E+05 -2.520127E+03 -7.305230E+04
       222   6  8.095254E+05  4.022258E+02  4.949019E+03 -1.243646E+05 -3.867840E+03 -7.807857E+04
       222   7 -1.084856E+05 -2.165375E+05 -1.618041E+05 -1.248700E+05 -1.604876E+04 -6.503302E+04
       222   8 -2.401315E+05 -2.477138E+05 -1.853521E+05 -1.088116E+05 -1.270419E+04 -7.306946E+04
       222   9 -3.720371E+05 -2.790674E+05 -2.110721E+05 -1.248557E+05 -9.356527E+03 -7.809585E+04
       222  10  1.728540E+06  2.158800E+05  1.649541E+05 -1.238569E+05 -2.148053E-09 -1.099109E-09
       222  11  1.859805E+06  2.471070E+05  1.907551E+05 -1.078168E+05  1.402368E-10 -1.781911E-13
       222  12  1.992442E+06  2.797864E+05  2.209022E+05 -1.238726E+05  1.737884E-09 -1.345097E-09
       222  13  8.096154E+05 -3.078029E+02  1.586604E+03 -1.243643E+05 -1.110439E-09 -8.831033E-10
       222  14  8.092993E+05 -2.757490E+02  2.717481E+03 -1.083150E+05  1.171901E-09 -4.238325E-10
       222  15  8.095237E+05  3.956729E+02  4.937530E+03 -1.243649E+05 -2.742650E-10 -1.216463E-09
       222  16 -1.084870E+05 -2.165421E+05 -1.618125E+05 -1.248708E+05  1.917053E-09 -4.381594E-10
       222  17 -2.401331E+05 -2.477196E+05 -1.853624E+05 -1.088123E+05 -1.695082E-10  9.075823E-10
       222  18 -3.720388E+05 -2.790740E+05 -2.110837E+05 -1.248563E+05 -2.549519E-09 -8.518595E-10
       222  19  1.728542E+06  2.158846E+05  1.649623E+05 -1.238577E+05 -1.373271E+04  6.500404E+04
       222  20  1.859807E+06  2.471127E+05  1.907653E+05 -1.078173E+05 -7.680669E+03  7.303515E+04
       222  21  1.992444E+06  2.797930E+05  2.209137E+05 -1.238727E+05 -1.631021E+03  7.806130E+04
       222  22  8.096165E+05 -3.032613E+02  1.594554E+03 -1.243642E+05  1.168711E+03  6.501854E+04
       222  23  8.093008E+05 -2.700145E+02  2.727525E+03 -1.083148E+05  2.520127E+03  7.305230E+04
       222  24  8.095254E+05  4.022258E+02  4.949019E+03 -1.243646E+05  3.867840E+03  7.807857E+04
       222  25 -1.084856E+05 -2.165375E+05 -1.618041E+05 -1.248700E+05  1.604876E+04  6.503302E+04
       222  26 -2.401315E+05 -2.477138E+05 -1.853521E+05 -1.088116E+05  1.270419E+04  7.306946E+04
       222  27 -3.720371E+05 -2.790674E+05 -2.110721E+05 -1.248557E+05  9.356527E+03  7.809585E+04
       223   1  2.082709E+06  3.005423E+05  2.401187E+05 -1.212272E+05  6.304140E+03 -8.259736E+04
       223   2  2.208148E+06  3.385267E+05  2.890983E+05 -1.133831E+05 -5.854106E+04 -7.091077E+04
       223   3  2.348361E+06  4.005206E+05  3.862723E+05 -1.354543E+05 -1.234743E+05 -2.162692E+04
       223   4  8.103831E+05 -2.295521E+02  6.466666E+03 -1.238742E+05 -4.712652E+03 -8.262243E+04
       223   5  8.080279E+05  3.516665E+03  1.162721E+04 -1.089300E+05 -1.071634E+04 -7.086442E+04
       223   6  8.102581E+05  2.110392E+04  2.421715E+04 -1.238998E+05 -1.679131E+04 -2.147197E+04
       223   7 -4.603763E+05 -3.010931E+05 -2.272514E+05 -1.265159E+05 -1.570752E+04 -8.264743E+04
       223   8 -5.902182E+05 -3.316112E+05 -2.659323E+05 -1.044875E+05  3.700307E+04 -7.081734E+04
       223   9 -7.256500E+05 -3.584747E+05 -3.379579E+05 -1.123746E+05  8.962974E+04 -2.131289E+04
       223  10  2.082707E+06  3.005349E+05  2.401058E+05 -1.212268E+05  3.711558E-12 -2.896759E-09
       223  11  2.208143E+06  3.385204E+05  2.890825E+05 -1.133865E+05 -1.220684E-09 -4.416343E-09
       223  12  2.348344E+06  4.005161E+05  3.862429E+05 -1.354565E+05 -3.534381E-09 -1.194548E-09
       223  13  8.103812E+05 -2.368913E+02  6.453791E+03 -1.238745E+05  2.110919E-10 -5.870380E-09
       223  14  8.080264E+05  3.511240E+03  1.161755E+04 -1.089306E+05  2.690909E-09  1.898580E-09
       223  15  8.102576E+05  2.110335E+04  2.421575E+04 -1.239001E+05 -5.121770E-10 -1.470293E-10
       223  16 -4.603784E+05 -3.011005E+05 -2.272647E+05 -1.265170E+05 -1.004488E-09 -1.837319E-09
       223  17 -5.902210E+05 -3.316170E+05 -2.659443E+05 -1.044854E+05  9.770477E-10  1.583284E-09
       223  18 -7.256588E+05 -3.584774E+05 -3.379739E+05 -1.123731E+05  3.324908E-09 -1.596391E-09
       223  19  2.082709E+06  3.005423E+05  2.401187E+05 -1.212272E+05 -6.304140E+03  8.259736E+04
       223  20  2.208148E+06  3.385267E+05  2.890983E+05 -1.133831E+05  5.854106E+04  7.091077E+04
       223  21  2.348361E+06  4.005206E+05  3.862723E+05 -1.354543E+05  1.234743E+05  2.162692E+04
       223  22  8.103831E+05 -2.295521E+02  6.466666E+03 -1.238742E+05  4.712652E+03  8.262243E+04
       223  23  8.080279E+05  3.516665E+03  1.162721E+04 -1.089300E+05  1.071634E+04  7.086442E+04
       223  24  8.102581E+05  2.110392E+04  2.421715E+04 -1.238998E+05  1.679131E+04  2.147197E+04
       223  25 -4.603763E+05 -3.010931E+05 -2.272514E+05 -1.265159E+05  1.570752E+04  8.264743E+04
       223  26 -5.902182E+05 -3.316112E+05 -2.659323E+05 -1.044875E+05 -3.700307E+04  7.081734E+04
       223  27 -7.256500E+05 -3.584747E+05 -3.379579E+05 -1.123746E+05 -8.962974E+04  2.131289E+04
       224   1  5.264145E+05  2.106877E+06  5.106076E+05 -4.949769E+05  2.228424E+04  1.306875E+05
       224   2  3.664182E+05  1.595671E+06  3.229772E+05 -4.247318E+05  6.676387E+04  4.130083E+04
       224   3  2.399331E+05  1.104546E+06  2.017670E+05 -4.736305E+05  5.991396E+04 -4.807155E+04
       224   4  3.095600E+04  1.044094E+05  3.351835E+04 -4.738451E+05  2.250784E+04  2.124682E+04
       224   5  6.829096E+03  1.016622E+05  1.774833E+04 -4.142982E+05  6.684128E+04  1.219356E+04
       224   6  2.353128E+03  1.048916E+05  1.275891E+04 -4.739033E+05  5.979178E+04  3.081038E+03
       224   7 -4.647839E+05 -1.894362E+06 -4.438071E+05 -4.527785E+05  2.272448E+04 -8.784353E+04
       224   8 -3.528989E+05 -1.390227E+06 -2.875954E+05 -4.038884E+05  6.691784E+04 -1.684511E+04
       224   9 -2.352837E+05 -8.937938E+05 -1.762836E+05 -4.741748E+05  5.966942E+04  5.415338E+04
       224  10  5.264094E+05  2.106859E+06  5.105747E+05 -4.949792E+05  6.153853E-11  1.967863E-09
       224  11  3.664129E+05  1.595668E+06  3.229657E+05 -4.247340E+05  4.753593E-10  4.741927E-10
       224  12  2.399286E+05  1.104543E+06  2.017560E+05 -4.736282E+05  1.046862E-09 -3.312533E-10
       224  13  3.095533E+04  1.044088E+05  3.351655E+04 -4.738454E+05  1.915322E-09 -3.482104E-12
       224  14  6.824257E+03  1.016608E+05  1.773965E+04 -4.142989E+05  1.112978E-09  5.664735E-11
       224  15  2.349286E+03  1.048906E+05  1.275217E+04 -4.739035E+05 -2.269093E-10 -3.127277E-09
       224  16 -4.647865E+05 -1.894370E+06 -4.438226E+05 -4.527769E+05 -2.009093E-10 -1.980374E-09
       224  17 -3.529038E+05 -1.390228E+06 -2.876043E+05 -4.038875E+05  1.663687E-09  9.777553E-10
       224  18 -2.352883E+05 -8.937980E+05 -1.762958E+05 -4.741774E+05 -3.066728E-10  3.225346E-09
       224  19  5.264145E+05  2.106877E+06  5.106076E+05 -4.949769E+05 -2.228424E+04 -1.306875E+05
       224  20  3.664182E+05  1.595671E+06  3.229772E+05 -4.247318E+05 -6.676387E+04 -4.130083E+04
       224  21  2.399331E+05  1.104546E+06  2.017670E+05 -4.736305E+05 -5.991396E+04  4.807155E+04
       224  22  3.095600E+04  1.044094E+05  3.351835E+04 -4.738451E+05 -2.250784E+04 -2.124682E+04
       224  23  6.829096E+03  1.016622E+05  1.774833E+04 -4.142982E+05 -6.684128E+04 -1.219356E+04
       224  24  2.353128E+03  1.048916E+05  1.275891E+04 -4.739033E+05 -5.979178E+04 -3.081038E+03
       224  25 -4.647839E+05 -1.894362E+06 -4.438071E+05 -4.527785E+05 -2.272448E+04  8.784353E+04
       224  26 -3.528989E+05 -1.390227E+06 -2.875954E+05 -4.038884E+05 -6.691784E+04  1.684511E+04
       224  27 -2.352837E+05 -8.937938E+05 -1.762836E+05 -4.741748E+05 -5.966942E+04 -5.415338E+04
       225   1  1.612682E+05  7.690352E+05  1.377462E+05 -4.767797E+05  4.000571E+04 -4.305723E+04
       225   2  4.118561E+04  2.678089E+05  4.287252E+04 -4.136171E+05  1.145966E+04 -5.070259E+04
       225   3 -7.503891E+04 -2.317379E+05 -4.621994E+04 -4.725959E+05 -1.771346E+04 -5.834722E+04
       225   4  3.177599E+03  1.039527E+05  1.207358E+04 -4.745608E+05  3.989253E+04  1.047305E+03
       225   5  2.379760E+03  1.033461E+05  1.326535E+04 -4.134872E+05  1.134144E+04 -5.633356E+03
       225   6  5.284343E+03  1.040063E+05  1.956794E+04 -4.745555E+05 -1.783733E+04 -1.231911E+04
       225   7 -1.549377E+05 -5.606991E+05 -1.136113E+05 -4.723438E+05  3.977958E+04  4.510579E+04
       225   8 -3.642651E+04 -6.108593E+04 -1.633524E+04 -4.133572E+05  1.122322E+04  3.942428E+04
       225   9  8.560195E+04  4.398630E+05  8.535836E+04 -4.765161E+05 -1.796146E+04  3.373336E+04
       225  10  1.612660E+05  7.690328E+05  1.377397E+05 -4.767783E+05  1.451940E-09  2.460405E-09
       225  11  4.118478E+04  2.678061E+05  4.286745E+04 -4.136166E+05  3.097286E-09 -5.679758E-10
       225  12 -7.504016E+04 -2.317416E+05 -4.622694E+04 -4.725967E+05 -2.273968E-10 -1.810277E-09
       225  13  3.175890E+03  1.039522E+05  1.207059E+04 -4.745608E+05  9.573261E-10  3.513152E-11
       225  14  2.379614E+03  1.033461E+05  1.326505E+04 -4.134871E+05 -2.844492E-10  3.780653E-11
       225  15  5.283961E+03  1.040060E+05  1.956706E+04 -4.745557E+05 -1.055145E-09 -3.453956E-09
       225  16 -1.549400E+05 -5.607017E+05 -1.136181E+05 -4.723452E+05  7.440905E-10 -2.381608E-09
       225  17 -3.642706E+04 -6.108763E+04 -1.633840E+04 -4.133576E+05 -1.586999E-09  1.518713E-09
       225  18  8.560129E+04  4.398617E+05  8.535562E+04 -4.765156E+05 -1.869069E-10  4.987778E-09
       225  19  1.612682E+05  7.690352E+05  1.377462E+05 -4.767797E+05 -4.000571E+04  4.305723E+04
       225  20  4.118561E+04  2.678089E+05  4.287252E+04 -4.136171E+05 -1.145966E+04  5.070259E+04
       225  21 -7.503891E+04 -2.317379E+05 -4.621994E+04 -4.725959E+05  1.771346E+04  5.834722E+04
       225  22  3.177599E+03  1.039527E+05  1.207358E+04 -4.745608E+05 -3.989253E+04 -1.047305E+03
       225  23  2.379760E+03  1.033461E+05  1.326535E+04 -4.134872E+05 -1.134144E+04  5.633356E+03
       225  24  5.284343E+03  1.040063E+05  1.956794E+04 -4.745555E+05  1.783733E+04  1.231911E+04
       225  25 -1.549377E+05 -5.606991E+05 -1.136113E+05 -4.723438E+05 -3.977958E+04 -4.510579E+04
       225  26 -3.642651E+04 -6.108593E+04 -1.633524E+04 -4.133572E+05 -1.122322E+04 -3.942428E+04
       225  27  8.560195E+04  4.398630E+05  8.535836E+04 -4.765161E+05  1.796146E+04 -3.373336E+04
       226   1 -1.564870E+05 -5.625926E+05 -1.044075E+05 -4.784784E+05 -3.781733E+04 -6.749748E+04
       226   2 -2.650858E+05 -1.064491E+06 -1.988113E+05 -3.916593E+05 -4.943417E+04 -2.144046E+04
       226   3 -3.361364E+05 -1.563017E+06 -3.139263E+05 -4.245204E+05 -1.753526E+04  2.464031E+04
       226   4  3.199975E+03  1.069662E+05  2.442479E+04 -4.740231E+05 -3.795198E+04 -1.569875E+04
       226   5  1.611020E+04  9.933811E+04  4.207450E+04 -4.141196E+05 -4.938820E+04 -3.746316E+04
       226   6  7.831446E+04  1.065872E+05  8.611548E+04 -4.738612E+05 -1.734991E+04 -5.916673E+04
       226   7  1.628619E+05  7.769624E+05  1.532465E+05 -4.695624E+05 -3.808579E+04  3.615459E+04
       226   8  2.972222E+05  1.264453E+06  2.828879E+05 -4.366216E+05 -4.934112E+04 -5.351537E+04
       226   9  4.925754E+05  1.778769E+06  4.859876E+05 -5.233331E+05 -1.715154E+04 -1.431985E+05
       226  10 -1.564897E+05 -5.625979E+05 -1.044188E+05 -4.784805E+05 -4.581932E-11  2.447031E-09
       226  11 -2.650886E+05 -1.064492E+06 -1.988167E+05 -3.916602E+05  2.257544E-09  3.804210E-10
       226  12 -3.361369E+05 -1.563018E+06 -3.139280E+05 -4.245201E+05  2.530679E-10 -9.225212E-10
       226  13  3.198361E+03  1.069655E+05  2.442161E+04 -4.740236E+05 -3.066725E-10 -3.206613E-11
       226  14  1.610720E+04  9.933594E+04  4.206727E+04 -4.141211E+05  2.328841E-10 -6.413487E-11
       226  15  7.831320E+04  1.065833E+05  8.610834E+04 -4.738620E+05  3.492740E-10 -2.525609E-09
       226  16  1.628600E+05  7.769606E+05  1.532414E+05 -4.695613E+05 -5.993766E-10 -2.322783E-09
       226  17  2.972188E+05  1.264450E+06  2.828780E+05 -4.366238E+05 -4.975466E-10  9.146165E-10
       226  18  4.925696E+05  1.778747E+06  4.859486E+05 -5.233351E+05 -1.003082E-10  3.385711E-09
       226  19 -1.564870E+05 -5.625926E+05 -1.044075E+05 -4.784784E+05  3.781733E+04  6.749748E+04
       226  20 -2.650858E+05 -1.064491E+06 -1.988113E+05 -3.916593E+05  4.943417E+04  2.144046E+04
       226  21 -3.361364E+05 -1.563017E+06 -3.139263E+05 -4.245204E+05  1.753526E+04 -2.464031E+04
       226  22  3.199975E+03  1.069662E+05  2.442479E+04 -4.740231E+05  3.795198E+04  1.569875E+04
       226  23  1.611020E+04  9.933811E+04  4.207450E+04 -4.141196E+05  4.938820E+04  3.746316E+04
       226  24  7.831446E+04  1.065872E+05  8.611548E+04 -4.738612E+05  1.734991E+04  5.916673E+04
       226  25  1.628619E+05  7.769624E+05  1.532465E+05 -4.695624E+05  3.808579E+04 -3.615459E+04
       226  26  2.972222E+05  1.264453E+06  2.828879E+05 -4.366216E+05  4.934112E+04  5.351537E+04
       226  27  4.925754E+05  1.778769E+06  4.859876E+05 -5.233331E+05  1.715154E+04  1.431985E+05
       227   1 -1.372718E+06 -6.179859E+05 -3.541064E+05 -5.538187E+05 -1.564901E+05 -4.615493E+04
       227   2 -1.294335E+06 -4.363213E+05 -2.175381E+05 -5.203417E+05 -9.791545E+04  4.114498E+03
       227   3 -1.243603E+06 -3.621950E+05 -1.564946E+05 -4.831051E+05 -3.151620E+04  3.363144E+04
       227   4 -6.687220E+05 -2.786843E+05 -1.567776E+05 -2.844152E+05 -1.053346E+05 -2.694343E+04
       227   5 -6.492481E+05 -1.668776E+05 -7.176942E+04 -3.092190E+05 -7.698838E+04  1.197066E+04
       227   6 -6.513892E+05 -1.565620E+05 -3.825533E+04 -3.302802E+05 -4.083153E+04  3.012827E+04
       227   7  3.576969E+04  6.074823E+04  4.051446E+04 -1.470475E+04 -5.411628E+04 -7.692743E+03
       227   8 -3.735828E+03  1.026332E+05  7.397413E+04 -9.788290E+04 -5.603788E+04  1.983834E+04
       227   9 -5.881105E+04  4.909356E+04  7.996831E+04 -1.773232E+05 -5.015649E+04  2.662190E+04
       227  10 -1.372745E+06 -6.179948E+05 -3.541565E+05 -5.538246E+05  1.638471E-09  3.616101E-10
       227  11 -1.294345E+06 -4.363239E+05 -2.175562E+05 -5.203414E+05 -7.745857E-09 -3.734645E-09
       227  12 -1.243604E+06 -3.621964E+05 -1.564986E+05 -4.831042E+05 -8.878812E-09 -2.099329E-09
       227  13 -6.687341E+05 -2.786881E+05 -1.567998E+05 -2.844175E+05 -3.769001E-09 -2.853151E-10
       227  14 -6.492545E+05 -1.668793E+05 -7.178083E+04 -3.092183E+05 -7.071987E-09 -3.155701E-09
       227  15 -6.513912E+05 -1.565634E+05 -3.826016E+04 -3.302792E+05 -3.356156E-09 -2.054225E-09
       227  16  3.576653E+04  6.074738E+04  4.050884E+04 -1.470508E+04 -7.834225E-09 -3.426573E-09
       227  17 -3.739305E+03  1.026319E+05  7.396749E+04 -9.788200E+04 -6.888991E-09 -3.851699E-09
       227  18 -5.881394E+04  4.909213E+04  7.996225E+04 -1.773221E+05  2.692533E-09  3.788284E-10
       227  19 -1.372718E+06 -6.179859E+05 -3.541064E+05 -5.538187E+05  1.564901E+05  4.615493E+04
       227  20 -1.294335E+06 -4.363213E+05 -2.175381E+05 -5.203417E+05  9.791545E+04 -4.114498E+03
       227  21 -1.243603E+06 -3.621950E+05 -1.564946E+05 -4.831051E+05  3.151620E+04 -3.363144E+04
       227  22 -6.687220E+05 -2.786843E+05 -1.567776E+05 -2.844152E+05  1.053346E+05  2.694343E+04
       227  23 -6.492481E+05 -1.668776E+05 -7.176942E+04 -3.092190E+05  7.698838E+04 -1.197066E+04
       227  24 -6.513892E+05 -1.565620E+05 -3.825533E+04 -3.302802E+05  4.083153E+04 -3.012827E+04
       227  25  3.576969E+04  6.074823E+04  4.051446E+04 -1.470475E+04  5.411628E+04  7.692743E+03
       227  26 -3.735828E+03  1.026332E+05  7.397413E+04 -9.788290E+04  5.603788E+04 -1.983834E+04
       227  27 -5.881105E+04  4.909356E+04  7.996831E+04 -1.773232E+05  5.015649E+04 -2.662190E+04
       228   1 -1.170127E+06 -3.537050E+05 -1.350740E+05 -4.738871E+05 -2.955027E+04  3.007716E+04
       228   2 -1.090809E+06 -3.079747E+05 -1.021439E+05 -4.406138E+05 -1.798805E+04  2.931159E+04
       228   3 -9.978627E+05 -2.830647E+05 -7.770822E+04 -4.254866E+05 -5.876736E+03  2.708185E+04
       228   4 -6.465634E+05 -1.605396E+05 -2.916221E+04 -3.268700E+05 -3.502245E+04  2.801854E+04
       228   5 -6.532228E+05 -1.478649E+05 -1.540686E+04 -3.187193E+05 -2.558912E+04  2.645511E+04
       228   6 -6.458366E+05 -1.555857E+05 -8.452001E+03 -3.287173E+05 -1.560830E+04  2.342751E+04
       228   7 -1.227216E+05  3.264900E+04  7.673490E+04 -1.797389E+05 -4.049953E+04  2.595803E+04
       228   8 -2.154384E+05  1.226203E+04  7.132139E+04 -1.967451E+05 -3.319594E+04  2.359646E+04
       228   9 -2.936790E+05 -2.809518E+04  6.079974E+04 -2.318965E+05 -2.534588E+04  1.977094E+04
       228  10 -1.170128E+06 -3.537062E+05 -1.350774E+05 -4.738864E+05  1.597749E-09  7.245469E-10
       228  11 -1.090809E+06 -3.079757E+05 -1.021461E+05 -4.406133E+05 -1.699957E-11  1.009266E-10
       228  12 -9.978629E+05 -2.830655E+05 -7.770966E+04 -4.254865E+05 -4.766176E-11  3.755944E-12
       228  13 -6.465650E+05 -1.605408E+05 -2.916599E+04 -3.268692E+05 -1.545235E-10 -5.641894E-10
       228  14 -6.532237E+05 -1.478658E+05 -1.540941E+04 -3.187188E+05  2.882774E-11 -4.248719E-10
       228  15 -6.458370E+05 -1.555864E+05 -8.453490E+03 -3.287170E+05 -3.156850E-10 -6.303552E-10
       228  16 -1.227235E+05  3.264784E+04  7.673055E+04 -1.797380E+05 -1.195699E-09 -1.843976E-09
       228  17 -2.154398E+05  1.226113E+04  7.131827E+04 -1.967445E+05  6.850754E-11 -2.012769E-09
       228  18 -2.936798E+05 -2.809577E+04  6.079780E+04 -2.318961E+05  1.375900E-10 -1.018286E-09
       228  19 -1.170127E+06 -3.537050E+05 -1.350740E+05 -4.738871E+05  2.955027E+04 -3.007716E+04
       228  20 -1.090809E+06 -3.079747E+05 -1.021439E+05 -4.406138E+05  1.798805E+04 -2.931159E+04
       228  21 -9.978627E+05 -2.830647E+05 -7.770822E+04 -4.254866E+05  5.876736E+03 -2.708185E+04
       228  22 -6.465634E+05 -1.605396E+05 -2.916221E+04 -3.268700E+05  3.502245E+04 -2.801854E+04
       228  23 -6.532228E+05 -1.478649E+05 -1.540686E+04 -3.187193E+05  2.558912E+04 -2.645511E+04
       228  24 -6.458366E+05 -1.555857E+05 -8.452001E+03 -3.287173E+05  1.560830E+04 -2.342751E+04
       228  25 -1.227216E+05  3.264900E+04  7.673490E+04 -1.797389E+05  4.049953E+04 -2.595803E+04
       228  26 -2.154384E+05  1.226203E+04  7.132139E+04 -1.967451E+05  3.319594E+04 -2.359646E+04
       228  27 -2.936790E+05 -2.809518E+04  6.079974E+04 -2.318965E+05  2.534588E+04 -1.977094E+04
       229   1 -9.383868E+05 -2.622281E+05 -6.362466E+04 -4.095634E+05 -3.497814E+03  2.354005E+04
       229   2 -8.595466E+05 -2.221857E+05 -4.384536E+04 -3.760242E+05  8.609589E+02  1.771270E+04
       229   3 -7.644637E+05 -1.989170E+05 -2.553224E+04 -3.614504E+05  5.258115E+03  1.177981E+04
       229   4 -6.454738E+05 -1.557626E+05 -6.363467E+03 -3.285242E+05 -1.296481E+04  1.998594E+04
       229   5 -6.535912E+05 -1.473287E+05 -3.509156E+03 -3.190607E+05 -8.759529E+03  1.410199E+04
       229   6 -6.454433E+05 -1.556380E+05 -1.998924E+03 -3.285651E+05 -4.516166E+03  8.112439E+03
       229   7 -3.524717E+05 -4.928965E+04  5.089421E+04 -2.474496E+05 -2.243660E+04  1.643004E+04
       229   8 -4.475925E+05 -7.246825E+04  3.682526E+04 -2.620800E+05 -1.838340E+04  1.049002E+04
       229   9 -5.264090E+05 -1.123581E+05  2.153385E+04 -2.956742E+05 -1.429238E+04  4.444352E+03
       229  10 -9.383869E+05 -2.622287E+05 -6.362573E+04 -4.095633E+05  2.460600E-08  9.939472E-09
       229  11 -8.595467E+05 -2.221860E+05 -4.384595E+04 -3.760242E+05  4.934033E-09  3.697947E-09
       229  12 -7.644638E+05 -1.989172E+05 -2.553255E+04 -3.614505E+05 -2.056516E-08 -5.800034E-09
       229  13 -6.454741E+05 -1.557631E+05 -6.364533E+03 -3.285240E+05  2.260431E-09  9.841476E-10
       229  14 -6.535913E+05 -1.473289E+05 -3.509674E+03 -3.190606E+05  4.747368E-09  3.611822E-09
       229  15 -6.454433E+05 -1.556381E+05 -1.999086E+03 -3.285651E+05  2.923021E-09  1.649453E-09
       229  16 -3.524724E+05 -4.929008E+04  5.089276E+04 -2.474493E+05 -2.058196E-08 -7.401121E-09
       229  17 -4.475929E+05 -7.246846E+04  3.682442E+04 -2.620799E+05  4.225316E-09  2.255944E-09
       229  18 -5.264092E+05 -1.123582E+05  2.153343E+04 -2.956742E+05  2.517187E-08  9.192678E-09
       229  19 -9.383868E+05 -2.622281E+05 -6.362466E+04 -4.095634E+05  3.497814E+03 -2.354005E+04
       229  20 -8.595466E+05 -2.221857E+05 -4.384536E+04 -3.760242E+05 -8.609589E+02 -1.771270E+04
       229  21 -7.644637E+05 -1.989170E+05 -2.553224E+04 -3.614504E+05 -5.258115E+03 -1.177981E+04
       229  22 -6.454738E+05 -1.557626E+05 -6.363467E+03 -3.285242E+05  1.296481E+04 -1.998594E+04
       229  23 -6.535912E+05 -1.473287E+05 -3.509156E+03 -3.190607E+05  8.759529E+03 -1.410199E+04
       229  24 -6.454433E+05 -1.556380E+05 -1.998924E+03 -3.285651E+05  4.516166E+03 -8.112439E+03
       229  25 -3.524717E+05 -4.928965E+04  5.089421E+04 -2.474496E+05  2.243660E+04 -1.643004E+04
       229  26 -4.475925E+05 -7.246825E+04  3.682526E+04 -2.620800E+05  1.838340E+04 -1.049002E+04
       229  27 -5.264090E+05 -1.123581E+05  2.153385E+04 -2.956742E+05  1.429238E+04 -4.444352E+03
       230   1 -7.056910E+05 -1.774869E+05 -1.310239E+04 -3.452132E+05  6.999192E+03  7.984552E+03
       230   2 -6.269483E+05 -1.375992E+05  4.205002E+03 -3.116026E+05  1.002593E+04  1.488654E+03
       230   3 -5.317075E+05 -1.142863E+05  2.112657E+04 -2.969591E+05  1.305514E+04 -5.013205E+03
       230   4 -6.453978E+05 -1.556454E+05 -1.554646E+03 -3.285482E+05 -2.758217E+03  4.323780E+03
       230   5 -6.536448E+05 -1.473677E+05 -1.018483E+03 -3.190594E+05  2.590109E+02 -2.175852E+03
       230   6 -6.454016E+05 -1.556646E+05 -8.613751E+02 -3.285414E+05  3.278613E+03 -8.681447E+03
       230   7 -5.851001E+05 -1.338033E+05  9.993502E+03 -3.118815E+05 -1.251673E+04  6.625991E+02
       230   8 -6.803404E+05 -1.571361E+05 -6.241624E+03 -3.265158E+05 -9.507505E+03 -5.840204E+03
       230   9 -7.590820E+05 -1.970418E+05 -2.284948E+04 -3.601183E+05 -6.495995E+03 -1.234897E+04
       230  10 -7.056910E+05 -1.774869E+05 -1.310261E+04 -3.452133E+05 -1.925364E-09  2.155564E-10
       230  11 -6.269484E+05 -1.375992E+05  4.204809E+03 -3.116026E+05  5.671567E-09  2.069748E-09
       230  12 -5.317077E+05 -1.142864E+05  2.112620E+04 -2.969591E+05  7.178312E-09  1.219466E-09
       230  13 -6.453978E+05 -1.556454E+05 -1.554696E+03 -3.285482E+05  4.347252E-09  1.573807E-09
       230  14 -6.536448E+05 -1.473677E+05 -1.018492E+03 -3.190594E+05  7.287499E-09  2.502873E-09
       230  15 -6.454016E+05 -1.556647E+05 -8.615369E+02 -3.285414E+05  2.659265E-09  5.581756E-10
       230  16 -5.851003E+05 -1.338033E+05  9.993207E+03 -3.118815E+05  9.623856E-09  2.859098E-09
       230  17 -6.803405E+05 -1.571362E+05 -6.241858E+03 -3.265158E+05  7.309364E-09  3.074933E-09
       230  18 -7.590821E+05 -1.970419E+05 -2.284985E+04 -3.601184E+05 -7.641038E-10 -3.334516E-10
       230  19 -7.056910E+05 -1.774869E+05 -1.310239E+04 -3.452132E+05 -6.999192E+03 -7.984552E+03
       230  20 -6.269483E+05 -1.375992E+05  4.205002E+03 -3.116026E+05 -1.002593E+04 -1.488654E+03
       230  21 -5.317075E+05 -1.142863E+05  2.112657E+04 -2.969591E+05 -1.305514E+04  5.013205E+03
       230  22 -6.453978E+05 -1.556454E+05 -1.554646E+03 -3.285482E+05  2.758217E+03 -4.323780E+03
       230  23 -6.536448E+05 -1.473677E+05 -1.018483E+03 -3.190594E+05 -2.590109E+02  2.175852E+03
       230  24 -6.454016E+05 -1.556646E+05 -8.613751E+02 -3.285414E+05 -3.278613E+03  8.681447E+03
       230  25 -5.851001E+05 -1.338033E+05  9.993502E+03 -3.118815E+05  1.251673E+04 -6.625991E+02
       230  26 -6.803404E+05 -1.571361E+05 -6.241624E+03 -3.265158E+05  9.507505E+03  5.840204E+03
       230  27 -7.590820E+05 -1.970418E+05 -2.284948E+04 -3.601183E+05  6.495995E+03  1.234897E+04
       231   1 -4.730166E+05 -9.283176E+04  3.307060E+04 -2.807074E+05  1.466345E+04 -8.857386E+03
       231   2 -3.943327E+05 -5.296705E+04  4.949292E+04 -2.471132E+05  1.776522E+04 -1.532547E+04
       231   3 -2.991643E+05 -2.966329E+04  6.547677E+04 -2.324694E+05  2.086374E+04 -2.178008E+04
       231   4 -6.454100E+05 -1.556660E+05 -8.974335E+02 -3.285382E+05  4.888510E+03 -1.252545E+04
       231   5 -6.536550E+05 -1.473912E+05 -1.223334E+03 -3.190615E+05  8.008542E+03 -1.898796E+04
       231   6 -6.454266E+05 -1.556819E+05 -2.002175E+03 -3.285386E+05  1.112524E+04 -2.543703E+04
       231   7 -8.177708E+05 -2.184969E+05 -3.486603E+04 -3.763562E+05 -4.883434E+03 -1.619239E+04
       231   8 -9.129074E+05 -2.418093E+05 -5.194222E+04 -3.909819E+05 -1.743766E+03 -2.264881E+04
       231   9 -9.915673E+05 -2.816909E+05 -6.948689E+04 -4.245588E+05  1.392485E+03 -2.909184E+04
       231  10 -4.730169E+05 -9.283191E+04  3.307005E+04 -2.807073E+05 -1.585588E-09 -1.299963E-09
       231  11 -3.943331E+05 -5.296738E+04  4.949188E+04 -2.471130E+05  1.663580E-10  3.267330E-11
       231  12 -2.991649E+05 -2.966392E+04  6.547506E+04 -2.324690E+05  1.838507E-10 -1.113363E-10
       231  13 -6.454100E+05 -1.556661E+05 -8.977731E+02 -3.285381E+05 -7.735679E-11 -3.332871E-10
       231  14 -6.536552E+05 -1.473916E+05 -1.224132E+03 -3.190614E+05  1.553670E-09 -3.627270E-10
       231  15 -6.454270E+05 -1.556826E+05 -2.003623E+03 -3.285383E+05  9.536778E-10 -2.385229E-10
       231  16 -8.177709E+05 -2.184972E+05 -3.486657E+04 -3.763563E+05  9.249508E-10  4.058801E-10
       231  17 -9.129075E+05 -2.418098E+05 -5.194319E+04 -3.909819E+05 -8.111346E-10  6.329791E-10
       231  18 -9.915676E+05 -2.816918E+05 -6.948848E+04 -4.245588E+05 -7.806221E-10  8.906454E-11
       231  19 -4.730166E+05 -9.283176E+04  3.307060E+04 -2.807074E+05 -1.466345E+04  8.857386E+03
       231  20 -3.943327E+05 -5.296705E+04  4.949292E+04 -2.471132E+05 -1.776522E+04  1.532547E+04
       231  21 -2.991643E+05 -2.966329E+04  6.547677E+04 -2.324694E+05 -2.086374E+04  2.178008E+04
       231  22 -6.454100E+05 -1.556660E+05 -8.974335E+02 -3.285382E+05 -4.888510E+03  1.252545E+04
       231  23 -6.536550E+05 -1.473912E+05 -1.223334E+03 -3.190615E+05 -8.008542E+03  1.898796E+04
       231  24 -6.454266E+05 -1.556819E+05 -2.002175E+03 -3.285386E+05 -1.112524E+04  2.543703E+04
       231  25 -8.177708E+05 -2.184969E+05 -3.486603E+04 -3.763562E+05  4.883434E+03  1.619239E+04
       231  26 -9.129074E+05 -2.418093E+05 -5.194222E+04 -3.909819E+05  1.743766E+03  2.264881E+04
       231  27 -9.915673E+05 -2.816909E+05 -6.948689E+04 -4.245588E+05 -1.392485E+03  2.909184E+04
       232   1 -2.405883E+05 -8.249242E+03  7.682806E+04 -2.162763E+05  2.272806E+04 -2.551972E+04
       232   2 -1.619533E+05  3.155989E+04  9.155703E+04 -1.827288E+05  2.732327E+04 -3.133533E+04
       232   3 -6.710998E+04  5.464178E+04  1.046751E+05 -1.680932E+05  3.186682E+04 -3.700388E+04
       232   4 -6.454989E+05 -1.556751E+05 -2.614339E+03 -3.285542E+05  1.297007E+04 -2.918511E+04
       232   5 -6.536084E+05 -1.473894E+05 -4.660394E+03 -3.190656E+05  1.777666E+04 -3.492376E+04
       232   6 -6.455587E+05 -1.558747E+05 -8.485676E+03 -3.284932E+05  2.253122E+04 -4.051539E+04
       232   7 -1.050239E+06 -3.030864E+05 -8.206378E+04 -4.407642E+05  3.218923E+03 -3.284794E+04
       232   8 -1.145011E+06 -3.263166E+05 -1.008878E+05 -4.553019E+05  8.238195E+03 -3.850915E+04
       232   9 -1.223655E+06 -3.663599E+05 -1.216598E+05 -4.887535E+05  1.320502E+04 -4.402338E+04
       232  10 -2.405890E+05 -8.250080E+03  7.682587E+04 -2.162758E+05 -2.463592E-09  9.712909E-11
       232  11 -1.619543E+05  3.155864E+04  9.155378E+04 -1.827281E+05 -6.564355E-10  2.413466E-09
       232  12 -6.711144E+04  5.464003E+04  1.046706E+05 -1.680922E+05  1.356312E-09  1.145016E-09
       232  13 -6.454993E+05 -1.556760E+05 -2.616255E+03 -3.285539E+05 -1.627008E-10  5.004010E-10
       232  14 -6.536091E+05 -1.473908E+05 -4.663278E+03 -3.190651E+05  9.261219E-11  2.129990E-09
       232  15 -6.455597E+05 -1.558766E+05 -8.489714E+03 -3.284925E+05  3.072884E-10  5.437703E-12
       232  16 -1.050239E+06 -3.030876E+05 -8.206582E+04 -4.407641E+05  1.234016E-09  1.273363E-09
       232  17 -1.145011E+06 -3.263182E+05 -1.008907E+05 -4.553016E+05  5.521579E-10  4.614673E-10
       232  18 -1.223656E+06 -3.663620E+05 -1.216638E+05 -4.887530E+05 -1.316551E-09 -3.306439E-10
       232  19 -2.405883E+05 -8.249242E+03  7.682806E+04 -2.162763E+05 -2.272806E+04  2.551972E+04
       232  20 -1.619533E+05  3.155989E+04  9.155703E+04 -1.827288E+05 -2.732327E+04  3.133533E+04
       232  21 -6.710998E+04  5.464178E+04  1.046751E+05 -1.680932E+05 -3.186682E+04  3.700388E+04
       232  22 -6.454989E+05 -1.556751E+05 -2.614339E+03 -3.285542E+05 -1.297007E+04  2.918511E+04
       232  23 -6.536084E+05 -1.473894E+05 -4.660394E+03 -3.190656E+05 -1.777666E+04  3.492376E+04
       232  24 -6.455587E+05 -1.558747E+05 -8.485676E+03 -3.284932E+05 -2.253122E+04  4.051539E+04
       232  25 -1.050239E+06 -3.030864E+05 -8.206378E+04 -4.407642E+05 -3.218923E+03  3.284794E+04
       232  26 -1.145011E+06 -3.263166E+05 -1.008878E+05 -4.553019E+05 -8.238195E+03  3.850915E+04
       232  27 -1.223655E+06 -3.663599E+05 -1.216598E+05 -4.887535E+05 -1.320502E+04  4.402338E+04
       233   1 -8.478893E+03  7.570866E+04  1.138446E+05 -1.527796E+05  3.526108E+04 -4.014248E+04
       233   2  6.927414E+04  1.161172E+05  1.222213E+05 -1.171871E+05  4.483569E+04 -4.297752E+04
       233   3  1.607991E+05  1.354907E+05  1.238325E+05 -9.937478E+04  5.366577E+04 -4.381899E+04
       233   4 -6.460458E+05 -1.556377E+05 -1.127763E+04 -3.287414E+05  2.556679E+04 -4.379049E+04
       233   5 -6.531318E+05 -1.481457E+05 -2.057730E+04 -3.186127E+05  3.803994E+04 -4.553927E+04
       233   6 -6.470328E+05 -1.622711E+05 -3.894809E+04 -3.262700E+05  4.976698E+04 -4.529364E+04
       233   7 -1.283197E+06 -3.869513E+05 -1.364196E+05 -5.045378E+05  1.588310E+04 -4.743457E+04
       233   8 -1.375001E+06 -4.123632E+05 -1.634010E+05 -5.198220E+05  3.125264E+04 -4.809783E+04
       233   9 -1.454192E+06 -4.599737E+05 -2.017607E+05 -5.528911E+05  4.587362E+04 -4.676621E+04
       233  10 -8.480660E+03  7.570660E+04  1.138392E+05 -1.527785E+05  6.396090E-10 -1.193396E-09
       233  11  6.927149E+04  1.161147E+05  1.222141E+05 -1.171855E+05 -6.267656E-10 -1.174943E-09
       233  12  1.607955E+05  1.354879E+05  1.238235E+05 -9.937289E+04 -1.051793E-09  8.695582E-11
       233  13 -6.460470E+05 -1.556400E+05 -1.128246E+04 -3.287405E+05  8.941343E-10 -3.093467E-10
       233  14 -6.531339E+05 -1.481483E+05 -2.058391E+04 -3.186113E+05 -3.537642E-10  5.266780E-10
       233  15 -6.470360E+05 -1.622740E+05 -3.895660E+04 -3.262681E+05  6.278674E-10  8.264163E-10
       233  16 -1.283198E+06 -3.869538E+05 -1.364243E+05 -5.045372E+05  1.141763E-09 -3.032982E-11
       233  17 -1.375002E+06 -4.123660E+05 -1.634071E+05 -5.198207E+05  1.537840E-10  1.917683E-09
       233  18 -1.454195E+06 -4.599766E+05 -2.017688E+05 -5.528894E+05  1.050117E-09  1.350331E-09
       233  19 -8.478893E+03  7.570866E+04  1.138446E+05 -1.527796E+05 -3.526108E+04  4.014248E+04
       233  20  6.927414E+04  1.161172E+05  1.222213E+05 -1.171871E+05 -4.483569E+04  4.297752E+04
       233  21  1.607991E+05  1.354907E+05  1.238325E+05 -9.937478E+04 -5.366577E+04  4.381899E+04
       233  22 -6.460458E+05 -1.556377E+05 -1.127763E+04 -3.287414E+05 -2.556679E+04  4.379049E+04
       233  23 -6.531318E+05 -1.481457E+05 -2.057730E+04 -3.186127E+05 -3.803994E+04  4.553927E+04
       233  24 -6.470328E+05 -1.622711E+05 -3.894809E+04 -3.262700E+05 -4.976698E+04  4.529364E+04
       233  25 -1.283197E+06 -3.869513E+05 -1.364196E+05 -5.045378E+05 -1.588310E+04  4.743457E+04
       233  26 -1.375001E+06 -4.123632E+05 -1.634010E+05 -5.198220E+05 -3.125264E+04  4.809783E+04
       233  27 -1.454192E+06 -4.599737E+05 -2.017607E+05 -5.528911E+05 -4.587362E+04  4.676621E+04
       234   1  2.262422E+05  1.501955E+05  1.240927E+05 -1.016011E+05  6.616428E+04 -4.333602E+04
       234   2  2.728999E+05  2.082901E+05  1.106563E+05 -6.960147E+03  7.231815E+04 -3.201107E+04
       234   3  2.932948E+05  1.448385E+05  6.115737E+04  9.919905E+04  6.783829E+04  7.531763E+03
       234   4 -6.534797E+05 -1.569584E+05 -5.109239E+04 -3.308186E+05  5.702857E+04 -4.678139E+04
       234   5 -6.478416E+05 -1.735433E+05 -9.585855E+04 -3.059256E+05  1.043598E+05 -1.995883E+04
       234   6 -6.767061E+05 -3.199588E+05 -2.093848E+05 -2.695048E+05  1.410444E+05  3.509917E+04
       234   7 -1.532404E+06 -4.640625E+05 -2.263138E+05 -5.597430E+05  4.790677E+04 -5.022209E+04
       234   8 -1.567699E+06 -5.552365E+05 -3.024182E+05 -6.044556E+05  1.363497E+05 -7.931624E+03
       234   9 -1.645725E+06 -7.844930E+05 -4.799817E+05 -6.376157E+05  2.141237E+05  6.258903E+04
       234  10  2.262370E+05  1.501923E+05  1.240810E+05 -1.015988E+05  2.009583E-09 -1.608481E-10
       234  11  2.728940E+05  2.082876E+05  1.106446E+05 -6.958283E+03 -5.174787E-10 -4.929274E-09
       234  12  2.932898E+05  1.448372E+05  6.114862E+04  9.919864E+04 -2.917044E-09 -3.979426E-09
       234  13 -6.534837E+05 -1.569617E+05 -5.110261E+04 -3.308165E+05  6.779816E-10 -2.470196E-09
       234  14 -6.478534E+05 -1.735466E+05 -9.587978E+04 -3.059239E+05  1.795670E-10  3.693481E-10
       234  15 -6.767278E+05 -3.199655E+05 -2.094245E+05 -2.695088E+05  1.557071E-09  1.069969E-09
       234  16 -1.532407E+06 -4.640658E+05 -2.263228E+05 -5.597410E+05 -2.484441E-09  1.179944E-09
       234  17 -1.567719E+06 -5.552416E+05 -3.024533E+05 -6.044548E+05 -1.198425E-09  3.778170E-09
       234  18 -1.645775E+06 -7.845096E+05 -4.800755E+05 -6.376265E+05  2.775379E-09  9.873665E-10
       234  19  2.262422E+05  1.501955E+05  1.240927E+05 -1.016011E+05 -6.616428E+04  4.333602E+04
       234  20  2.728999E+05  2.082901E+05  1.106563E+05 -6.960147E+03 -7.231815E+04  3.201107E+04
       234  21  2.932948E+05  1.448385E+05  6.115737E+04  9.919905E+04 -6.783829E+04 -7.531763E+03
       234  22 -6.534797E+05 -1.569584E+05 -5.109239E+04 -3.308186E+05 -5.702857E+04  4.678139E+04
       234  23 -6.478416E+05 -1.735433E+05 -9.585855E+04 -3.059256E+05 -1.043598E+05  1.995883E+04
       234  24 -6.767061E+05 -3.199588E+05 -2.093848E+05 -2.695048E+05 -1.410444E+05 -3.509917E+04
       234  25 -1.532404E+06 -4.640625E+05 -2.263138E+05 -5.597430E+05 -4.790677E+04  5.022209E+04
       234  26 -1.567699E+06 -5.552365E+05 -3.024182E+05 -6.044556E+05 -1.363497E+05  7.931624E+03
       234  27 -1.645725E+06 -7.844930E+05 -4.799817E+05 -6.376157E+05 -2.141237E+05 -6.258903E+04
       235   1  1.302694E+06  1.772791E+05  1.547215E+05  1.015088E+04  1.039584E+04 -1.522267E+04
       235   2  1.244293E+06  2.213713E+05  1.505998E+05  3.197427E+04 -6.152314E+03 -5.104302E+04
       235   3  1.176623E+06  2.194867E+05  1.458029E+05  6.746899E+04 -2.274357E+04 -6.116253E+04
       235   4  2.439911E+05 -8.382875E+04 -9.418931E+04  5.970927E+04 -6.552966E+04 -1.537202E+04
       235   5  2.521334E+05 -1.597088E+04 -4.537432E+04  5.278159E+04 -4.193875E+04 -5.112657E+04
       235   6  2.440197E+05 -1.096584E+03 -2.510039E+04  5.952673E+04 -1.839200E+04 -6.115996E+04
       235   7 -8.136641E+05 -3.450039E+05 -3.431540E+05  1.091823E+05 -1.413266E+05 -1.553362E+04
       235   8 -7.390820E+05 -2.533704E+05 -2.413917E+05  7.355451E+04 -7.766925E+04 -5.121258E+04
       235   9 -6.877400E+05 -2.217289E+05 -1.960391E+05  5.159618E+04 -1.404677E+04 -6.115751E+04
       235  10  1.302694E+06  1.772788E+05  1.547208E+05  1.015101E+04  2.718867E-08 -5.485425E-10
       235  11  1.244292E+06  2.213685E+05  1.505948E+05  3.197401E+04 -6.269002E-10 -3.514566E-09
       235  12  1.176621E+06  2.194825E+05  1.457949E+05  6.746787E+04 -2.640816E-08 -3.163102E-09
       235  13  2.439865E+05 -8.383016E+04 -9.419782E+04  5.970846E+04 -1.006492E-09  1.534941E-09
       235  14  2.521308E+05 -1.597416E+04 -4.538254E+04  5.277987E+04 -7.692403E-10 -2.154937E-09
       235  15  2.440184E+05 -1.100691E+03 -2.510805E+04  5.952582E+04 -3.066923E-11  1.930668E-10
       235  16 -8.136856E+05 -3.450095E+05 -3.431920E+05  1.091805E+05 -2.877134E-08  7.584333E-10
       235  17 -7.390891E+05 -2.533748E+05 -2.414079E+05  7.355130E+04 -2.281189E-11 -5.211571E-09
       235  18 -6.877413E+05 -2.217330E+05 -1.960465E+05  5.159548E+04  2.645693E-08 -6.497502E-09
       235  19  1.302694E+06  1.772791E+05  1.547215E+05  1.015088E+04 -1.039584E+04  1.522267E+04
       235  20  1.244293E+06  2.213713E+05  1.505998E+05  3.197427E+04  6.152314E+03  5.104302E+04
       235  21  1.176623E+06  2.194867E+05  1.458029E+05  6.746899E+04  2.274357E+04  6.116253E+04
       235  22  2.439911E+05 -8.382875E+04 -9.418931E+04  5.970927E+04  6.552966E+04  1.537202E+04
       235  23  2.521334E+05 -1.597088E+04 -4.537432E+04  5.278159E+04  4.193875E+04  5.112657E+04
       235  24  2.440197E+05 -1.096584E+03 -2.510039E+04  5.952673E+04  1.839200E+04  6.115996E+04
       235  25 -8.136641E+05 -3.450039E+05 -3.431540E+05  1.091823E+05  1.413266E+05  1.553362E+04
       235  26 -7.390820E+05 -2.533704E+05 -2.413917E+05  7.355451E+04  7.766925E+04  5.121258E+04
       235  27 -6.877400E+05 -2.217289E+05 -1.960391E+05  5.159618E+04  1.404677E+04  6.115751E+04
       236   1  1.137276E+06  2.069733E+05  1.429661E+05  6.028559E+04 -1.569146E+04 -5.923123E+04
       236   2  1.075083E+06  1.945976E+05  1.373020E+05  5.361674E+04 -1.361040E+04 -5.783327E+04
       236   3  1.012140E+06  1.803386E+05  1.298154E+05  6.213952E+04 -1.153679E+04 -5.437706E+04
       236   4  2.473564E+05 -3.298343E+03 -1.921635E+04  5.989269E+04 -1.510769E+04 -5.923714E+04
       236   5  2.480277E+05 -2.673390E+02 -1.060171E+04  5.229136E+04 -9.817589E+03 -5.783011E+04
       236   6  2.473889E+05  3.220495E+02 -6.039286E+03  5.988297E+04 -4.534667E+03 -5.436349E+04
       236   7 -6.417947E+05 -2.136146E+05 -1.814306E+05  5.949987E+04 -1.452472E+04 -5.924305E+04
       236   8 -5.783608E+05 -1.951702E+05 -1.585315E+05  5.096734E+04 -6.029671E+03 -5.782696E+04
       236   9 -5.167918E+05 -1.797267E+05 -1.419157E+05  5.762887E+04  2.459097E+03 -5.434996E+04
       236  10  1.137275E+06  2.069694E+05  1.429590E+05  6.028485E+04 -6.782747E-09 -4.422133E-09
       236  11  1.075081E+06  1.945940E+05  1.372954E+05  5.361611E+04 -3.294302E-09  2.312198E-09
       236  12  1.012139E+06  1.803354E+05  1.298096E+05  6.213902E+04 -2.182968E-09  2.605493E-09
       236  13  2.473552E+05 -3.302173E+03 -1.922337E+04  5.989197E+04 -1.062341E-09 -3.835578E-09
       236  14  2.480267E+05 -2.709565E+02 -1.060818E+04  5.229090E+04  2.493140E-09 -3.027499E-12
       236  15  2.473881E+05  3.188701E+02 -6.044879E+03  5.988277E+04 -6.191723E-10 -2.993658E-09
       236  16 -6.417958E+05 -2.136184E+05 -1.814376E+05  5.949918E+04  5.779120E-09 -1.069848E-09
       236  17 -5.783618E+05 -1.951738E+05 -1.585379E+05  5.096706E+04  3.740093E-09  1.151715E-09
       236  18 -5.167926E+05 -1.797299E+05 -1.419213E+05  5.762898E+04  1.452321E-09 -1.291861E-09
       236  19  1.137276E+06  2.069733E+05  1.429661E+05  6.028559E+04  1.569146E+04  5.923123E+04
       236  20  1.075083E+06  1.945976E+05  1.373020E+05  5.361674E+04  1.361040E+04  5.783327E+04
       236  21  1.012140E+06  1.803386E+05  1.298154E+05  6.213952E+04  1.153679E+04  5.437706E+04
       236  22  2.473564E+05 -3.298343E+03 -1.921635E+04  5.989269E+04  1.510769E+04  5.923714E+04
       236  23  2.480277E+05 -2.673390E+02 -1.060171E+04  5.229136E+04  9.817589E+03  5.783011E+04
       236  24  2.473889E+05  3.220495E+02 -6.039286E+03  5.988297E+04  4.534667E+03  5.436349E+04
       236  25 -6.417947E+05 -2.136146E+05 -1.814306E+05  5.949987E+04  1.452472E+04  5.924305E+04
       236  26 -5.783608E+05 -1.951702E+05 -1.585315E+05  5.096734E+04  6.029671E+03  5.782696E+04
       236  27 -5.167918E+05 -1.797267E+05 -1.419157E+05  5.762887E+04 -2.459097E+03  5.434996E+04
       237   1  9.708551E+05  1.703891E+05  1.235697E+05  6.170356E+04 -1.030382E+04 -5.174285E+04
       237   2  9.085120E+05  1.557531E+05  1.143864E+05  5.392726E+04 -9.277562E+03 -4.737336E+04
       237   3  8.459873E+05  1.411391E+05  1.045263E+05  6.143842E+04 -8.254194E+03 -4.284105E+04
       237   4  2.476411E+05  2.128778E+02 -4.584947E+03  5.990587E+04 -3.607722E+03 -5.172899E+04
       237   5  2.477694E+05  2.903887E+02 -2.603369E+03  5.226148E+04 -2.328802E+03 -4.735705E+04
       237   6  2.476680E+05  3.460884E+02 -1.474867E+03  5.990550E+04 -1.052670E+03 -4.282220E+04
       237   7 -4.750624E+05 -1.699921E+05 -1.327588E+05  5.810996E+04  3.080811E+03 -5.171515E+04
       237   8 -4.125471E+05 -1.551963E+05 -1.196092E+05  5.059720E+04  4.612787E+03 -4.734076E+04
       237   9 -3.503018E+05 -1.404666E+05 -1.074891E+05  5.837383E+04  6.142122E+03 -4.280337E+04
       237  10  9.708543E+05  1.703862E+05  1.235644E+05  6.170313E+04 -3.429214E-09  3.968316E-09
       237  11  9.085113E+05  1.557506E+05  1.143820E+05  5.392690E+04  6.970237E-10  2.601455E-09
       237  12  8.459867E+05  1.411371E+05  1.045227E+05  6.143813E+04  4.171537E-09 -5.310737E-10
       237  13  2.476404E+05  2.100006E+02 -4.590000E+03  5.990572E+04  9.182625E-10 -3.678372E-09
       237  14  2.477688E+05  2.879787E+02 -2.607594E+03  5.226139E+04  3.070108E-09  3.232604E-09
       237  15  2.476675E+05  3.441188E+02 -1.478316E+03  5.990547E+04  5.164231E-10  6.529696E-09
       237  16 -4.750631E+05 -1.699950E+05 -1.327639E+05  5.811009E+04  3.123166E-09  1.189548E-09
       237  17 -4.125477E+05 -1.551987E+05 -1.196134E+05  5.059738E+04  1.919239E-09  4.588989E-09
       237  18 -3.503023E+05 -1.404685E+05 -1.074926E+05  5.837404E+04 -4.037280E-09  1.469480E-09
       237  19  9.708551E+05  1.703891E+05  1.235697E+05  6.170356E+04  1.030382E+04  5.174285E+04
       237  20  9.085120E+05  1.557531E+05  1.143864E+05  5.392726E+04  9.277562E+03  4.737336E+04
       237  21  8.459873E+05  1.411391E+05  1.045263E+05  6.143842E+04  8.254194E+03  4.284105E+04
       237  22  2.476411E+05  2.128778E+02 -4.584947E+03  5.990587E+04  3.607722E+03  5.172899E+04
       237  23  2.477694E+05  2.903887E+02 -2.603369E+03  5.226148E+04  2.328802E+03  4.735705E+04
       237  24  2.476680E+05  3.460884E+02 -1.474867E+03  5.990550E+04  1.052670E+03  4.282220E+04
       237  25 -4.750624E+05 -1.699921E+05 -1.327588E+05  5.810996E+04 -3.080811E+03  5.171515E+04
       237  26 -4.125471E+05 -1.551963E+05 -1.196092E+05  5.059720E+04 -4.612787E+03  4.734076E+04
       237  27 -3.503018E+05 -1.404666E+05 -1.074891E+05  5.837383E+04 -6.142122E+03  4.280337E+04
       238   1  8.046424E+05  1.313498E+05  9.728617E+04  6.133009E+04 -8.000538E+03 -4.015545E+04
       238   2  7.423472E+05  1.166724E+05  8.688847E+04  5.354939E+04 -7.733126E+03 -3.555520E+04
       238   3  6.799545E+05  1.020958E+05  7.631711E+04  6.104390E+04 -7.467553E+03 -3.094376E+04
       238   4  2.477050E+05  3.471541E+02 -1.106756E+03  5.990283E+04 -8.263025E+02 -4.013575E+04
       238   5  2.477677E+05  3.109886E+02 -6.010558E+02  5.226486E+04 -5.420490E+02 -3.553411E+04
       238   6  2.477252E+05  3.726114E+02 -2.812361E+02  5.990281E+04 -2.596083E+02 -3.092127E+04
       238   7 -3.089294E+05 -1.306725E+05 -9.951092E+04  5.847664E+04  6.341693E+03 -4.011607E+04
       238   8 -2.465728E+05 -1.160638E+05 -8.809944E+04  5.098118E+04  6.643472E+03 -3.551304E+04
       238   9 -1.843216E+05 -1.013608E+05 -7.688633E+04  5.876237E+04  6.943468E+03 -3.089880E+04
       238  10  8.046419E+05  1.313481E+05  9.728302E+04  6.132983E+04  3.988632E-09 -7.504043E-10
       238  11  7.423468E+05  1.166710E+05  8.688599E+04  5.354916E+04  1.624830E-09  8.042278E-09
       238  12  6.799542E+05  1.020948E+05  7.631521E+04  6.104371E+04 -1.220702E-09  7.543881E-09
       238  13  2.477046E+05  3.454239E+02 -1.109785E+03  5.990280E+04 -7.207223E-12  9.851484E-10
       238  14  2.477674E+05  3.096324E+02 -6.034294E+02  5.226484E+04 -4.778206E-10  9.602532E-09
       238  15  2.477250E+05  3.715846E+02 -2.830331E+02  5.990280E+04 -1.746902E-09  1.978396E-09
       238  16 -3.089298E+05 -1.306743E+05 -9.951402E+04  5.847685E+04 -5.220754E-09  7.180364E-10
       238  17 -2.465731E+05 -1.160652E+05 -8.810189E+04  5.098137E+04  4.857221E-10  1.413912E-09
       238  18 -1.843219E+05 -1.013619E+05 -7.688822E+04  5.876255E+04  3.729915E-10 -4.327619E-11
       238  19  8.046424E+05  1.313498E+05  9.728617E+04  6.133009E+04  8.000538E+03  4.015545E+04
       238  20  7.423472E+05  1.166724E+05  8.688847E+04  5.354939E+04  7.733126E+03  3.555520E+04
       238  21  6.799545E+05  1.020958E+05  7.631711E+04  6.104390E+04  7.467553E+03  3.094376E+04
       238  22  2.477050E+05  3.471541E+02 -1.106756E+03  5.990283E+04  8.263025E+02  4.013575E+04
       238  23  2.477677E+05  3.109886E+02 -6.010558E+02  5.226486E+04  5.420490E+02  3.553411E+04
       238  24  2.477252E+05  3.726114E+02 -2.812361E+02  5.990281E+04  2.596083E+02  3.092127E+04
       238  25 -3.089294E+05 -1.306725E+05 -9.951092E+04  5.847664E+04 -6.341693E+03  4.011607E+04
       238  26 -2.465728E+05 -1.160638E+05 -8.809944E+04  5.098118E+04 -6.643472E+03  3.551304E+04
       238  27 -1.843216E+05 -1.013608E+05 -7.688633E+04  5.876237E+04 -6.943468E+03  3.089880E+04
       239   1  6.386419E+05  9.232452E+04  6.884156E+04  6.094476E+04 -7.431902E+03 -2.825701E+04
       239   2  5.764055E+05  7.765607E+04  5.817498E+04  5.316568E+04 -7.463889E+03 -2.364438E+04
       239   3  5.140853E+05  6.309426E+04  4.752351E+04  6.065281E+04 -7.497043E+03 -1.903506E+04
       239   4  2.477363E+05  3.787592E+02 -1.627886E+02  5.990076E+04 -2.277151E+02 -2.823387E+04
       239   5  2.477858E+05  3.341269E+02  4.587335E+01  5.226742E+04 -2.651349E+02 -2.362037E+04
       239   6  2.477497E+05  3.974644E+02  2.735616E+02  5.990075E+04 -3.037231E+02 -1.901017E+04
       239   7 -1.430201E+05 -9.157535E+04 -6.917256E+04  5.885731E+04  6.972073E+03 -2.821074E+04
       239   8 -8.072829E+04 -7.699372E+04 -5.808703E+04  5.136955E+04  6.929923E+03 -2.359637E+04
       239   9 -1.851658E+04 -6.230321E+04 -4.697883E+04  5.914896E+04  6.886602E+03 -1.898529E+04
       239  10  6.386417E+05  9.232365E+04  6.883996E+04  6.094460E+04  1.505688E-08  1.363107E-09
       239  11  5.764053E+05  7.765546E+04  5.817383E+04  5.316553E+04  4.076984E-09 -2.821554E-09
       239  12  5.140852E+05  6.309386E+04  4.752272E+04  6.065269E+04 -7.741897E-09 -4.382714E-09
       239  13  2.477360E+05  3.779031E+02 -1.642868E+02  5.990076E+04  1.510127E-10  1.114900E-08
       239  14  2.477857E+05  3.335277E+02  4.482465E+01  5.226741E+04  1.341515E-11  3.325579E-09
       239  15  2.477496E+05  3.970763E+02  2.728822E+02  5.990074E+04 -2.554361E-09 -4.576779E-09
       239  16 -1.430203E+05 -9.157622E+04 -6.917415E+04  5.885747E+04 -1.663421E-08  2.812960E-09
       239  17 -8.072849E+04 -7.699433E+04 -5.808817E+04  5.136968E+04 -2.045153E-09 -2.585082E-09
       239  18 -1.851672E+04 -6.230361E+04 -4.697960E+04  5.914906E+04  5.728610E-09 -5.568471E-09
       239  19  6.386419E+05  9.232452E+04  6.884156E+04  6.094476E+04  7.431902E+03  2.825701E+04
       239  20  5.764055E+05  7.765607E+04  5.817498E+04  5.316568E+04  7.463889E+03  2.364438E+04
       239  21  5.140853E+05  6.309426E+04  4.752351E+04  6.065281E+04  7.497043E+03  1.903506E+04
       239  22  2.477363E+05  3.787592E+02 -1.627886E+02  5.990076E+04  2.277151E+02  2.823387E+04
       239  23  2.477858E+05  3.341269E+02  4.587335E+01  5.226742E+04  2.651349E+02  2.362037E+04
       239  24  2.477497E+05  3.974644E+02  2.735616E+02  5.990075E+04  3.037231E+02  1.901017E+04
       239  25 -1.430201E+05 -9.157535E+04 -6.917256E+04  5.885731E+04 -6.972073E+03  2.821074E+04
       239  26 -8.072829E+04 -7.699372E+04 -5.808703E+04  5.136955E+04 -6.929923E+03  2.359637E+04
       239  27 -1.851658E+04 -6.230321E+04 -4.697883E+04  5.914896E+04 -6.886602E+03  1.898529E+04
       240   1  4.728128E+05  5.332479E+04  4.007258E+04  6.055204E+04 -7.572423E+03 -1.635117E+04
       240   2  4.105995E+05  3.865010E+04  2.957159E+04  5.277643E+04 -7.922442E+03 -1.176092E+04
       240   3  3.483375E+05  2.411172E+04  1.929614E+04  6.025484E+04 -8.272874E+03 -7.209834E+03
       240   4  2.477634E+05  3.986725E+02  4.119948E+02  5.989802E+04 -3.750468E+02 -1.632587E+04
       240   5  2.477877E+05  3.432022E+02  7.990535E+02  5.227085E+04 -7.864524E+02 -1.173540E+04
       240   6  2.477700E+05  4.348501E+02  1.454164E+03  5.989791E+04 -1.198304E+03 -7.184100E+03
       240   7  2.276354E+04 -5.253019E+04 -3.925025E+04  5.924421E+04  6.819799E+03 -1.630058E+04
       240   8  8.500181E+04 -3.796512E+04 -2.797427E+04  5.176538E+04  6.347721E+03 -1.170990E+04
       240   9  1.472125E+05 -2.324255E+04 -1.638800E+04  5.954102E+04  5.875153E+03 -7.158372E+03
       240  10  4.728127E+05  5.332449E+04  4.007197E+04  6.055194E+04 -1.797538E-09  3.293555E-09
       240  11  4.105994E+05  3.864993E+04  2.957122E+04  5.277636E+04 -3.411407E-09  2.384962E-09
       240  12  3.483374E+05  2.411165E+04  1.929592E+04  6.025479E+04 -2.927966E-09  3.742946E-09
       240  13  2.477633E+05  3.983862E+02  4.114936E+02  5.989802E+04 -1.077174E-09  2.679922E-11
       240  14  2.477876E+05  3.430541E+02  7.987935E+02  5.227084E+04 -1.684988E-09  1.925231E-09
       240  15  2.477700E+05  4.347943E+02  1.454065E+03  5.989790E+04 -1.597262E-09  5.930014E-09
       240  16  2.276341E+04 -5.253049E+04 -3.925083E+04  5.924430E+04  4.142228E-10  1.991195E-09
       240  17  8.500173E+04 -3.796528E+04 -2.797461E+04  5.176544E+04  3.500554E-09 -9.562199E-09
       240  18  1.472124E+05 -2.324262E+04 -1.638816E+04  5.954106E+04  2.020216E-09 -1.192995E-09
       240  19  4.728128E+05  5.332479E+04  4.007258E+04  6.055204E+04  7.572423E+03  1.635117E+04
       240  20  4.105995E+05  3.865010E+04  2.957159E+04  5.277643E+04  7.922442E+03  1.176092E+04
       240  21  3.483375E+05  2.411172E+04  1.929614E+04  6.025484E+04  8.272874E+03  7.209834E+03
       240  22  2.477634E+05  3.986725E+02  4.119948E+02  5.989802E+04  3.750468E+02  1.632587E+04
       240  23  2.477877E+05  3.432022E+02  7.990535E+02  5.227085E+04  7.864524E+02  1.173540E+04
       240  24  2.477700E+05  4.348501E+02  1.454164E+03  5.989791E+04  1.198304E+03  7.184100E+03
       240  25  2.276354E+04 -5.253019E+04 -3.925025E+04  5.924421E+04 -6.819799E+03  1.630058E+04
       240  26  8.500181E+04 -3.796512E+04 -2.797427E+04  5.176538E+04 -6.347721E+03  1.170990E+04
       240  27  1.472125E+05 -2.324255E+04 -1.638800E+04  5.954102E+04 -5.875153E+03  7.158372E+03
       241   1  3.071334E+05  1.429878E+04  1.216362E+04  6.026646E+04 -8.648963E+03 -4.541290E+03
       241   2  2.448167E+05 -2.513832E+02  2.502899E+03  5.217699E+04 -9.607349E+03 -2.074510E+02
       241   3  1.826916E+05 -1.400655E+04 -6.372210E+03  5.930741E+04 -1.056394E+04  3.644948E+03
       241   4  2.478511E+05  3.962664E+02  1.927190E+03  5.989102E+04 -1.504734E+03 -4.515170E+03
       241   5  2.476923E+05  5.032237E+02  3.396685E+03  5.227903E+04 -3.214813E+03 -1.840921E+02
       241   6  2.478506E+05  1.535502E+03  6.173170E+03  5.988686E+04 -4.923177E+03  3.665554E+03
       241   7  1.885723E+05 -1.350641E+04 -8.309171E+03  5.951562E+04  5.638833E+03 -4.489058E+03
       241   8  2.505680E+05  1.257852E+03  4.290624E+03  5.238106E+04  3.177753E+03 -1.607312E+02
       241   9  3.130138E+05  1.707733E+04  1.871847E+04  6.046637E+04  7.181656E+02  3.686169E+03
       241  10  3.071333E+05  1.429874E+04  1.216344E+04  6.026643E+04 -6.554215E-09  8.826185E-09
       241  11  2.448166E+05 -2.514080E+02  2.502726E+03  5.217698E+04  3.382803E-09  2.394029E-09
       241  12  1.826915E+05 -1.400660E+04 -6.372445E+03  5.930744E+04  9.764906E-09  6.957892E-09
       241  13  2.478511E+05  3.962439E+02  1.927148E+03  5.989102E+04 -2.168870E-09  6.362113E-09
       241  14  2.476923E+05  5.032209E+02  3.396666E+03  5.227902E+04 -7.645122E-11  6.016244E-09
       241  15  2.478506E+05  1.535481E+03  6.173099E+03  5.988687E+04  5.092945E-10 -2.798650E-09
       241  16  1.885723E+05 -1.350644E+04 -8.309269E+03  5.951564E+04  5.055812E-09  3.411198E-09
       241  17  2.505680E+05  1.257849E+03  4.290605E+03  5.238107E+04 -1.023534E-09  7.713413E-10
       241  18  3.130138E+05  1.707731E+04  1.871845E+04  6.046636E+04 -1.133952E-08 -1.092827E-08
       241  19  3.071334E+05  1.429878E+04  1.216362E+04  6.026646E+04  8.648963E+03  4.541290E+03
       241  20  2.448167E+05 -2.513832E+02  2.502899E+03  5.217699E+04  9.607349E+03  2.074510E+02
       241  21  1.826916E+05 -1.400655E+04 -6.372210E+03  5.930741E+04  1.056394E+04 -3.644948E+03
       241  22  2.478511E+05  3.962664E+02  1.927190E+03  5.989102E+04  1.504734E+03  4.515170E+03
       241  23  2.476923E+05  5.032237E+02  3.396685E+03  5.227903E+04  3.214813E+03  1.840921E+02
       241  24  2.478506E+05  1.535502E+03  6.173170E+03  5.988686E+04  4.923177E+03 -3.665554E+03
       241  25  1.885723E+05 -1.350641E+04 -8.309171E+03  5.951562E+04 -5.638833E+03  4.489058E+03
       241  26  2.505680E+05  1.257852E+03  4.290624E+03  5.238106E+04 -3.177753E+03  1.607312E+02
       241  27  3.130138E+05  1.707733E+04  1.871847E+04  6.046637E+04 -7.181656E+02 -3.686169E+03
       242   1  1.422158E+05 -2.458066E+04 -1.231899E+04  6.154279E+04 -1.250625E+04  6.139274E+03
       242   2  7.823709E+04 -3.506960E+04 -1.997599E+04  4.469376E+04 -1.069436E+04  7.322036E+03
       242   3  1.779388E+04 -2.998028E+04 -2.494602E+04  4.265391E+04 -8.861628E+03  2.501112E+03
       242   4  2.489249E+05  8.174464E+02  8.067279E+03  5.981076E+04 -5.989231E+03  6.163013E+03
       242   5  2.463418E+05  5.520761E+03  1.458025E+04  5.235892E+04 -1.354541E+04  7.311462E+03
       242   6  2.489153E+05  2.742596E+04  3.028334E+04  5.971531E+04 -2.108079E+04  2.457021E+03
       242   7  3.556451E+05  2.621492E+04  2.845319E+04  5.807843E+04  5.288856E+02  6.186714E+03
       242   8  4.144735E+05  4.610955E+04  4.913503E+04  6.002617E+04 -1.639721E+04  7.300818E+03
       242   9  4.800867E+05  8.482948E+04  8.550964E+04  7.678305E+04 -3.330447E+04  2.412267E+03
       242  10  1.422156E+05 -2.458074E+04 -1.231935E+04  6.154285E+04 -1.602392E-09  5.587971E-09
       242  11  7.823695E+04 -3.506969E+04 -1.997631E+04  4.469382E+04 -7.141284E-10 -1.260000E-11
       242  12  1.779379E+04 -2.998031E+04 -2.494618E+04  4.265393E+04 -6.028240E-10 -1.531633E-09
       242  13  2.489249E+05  8.173960E+02  8.067141E+03  5.981079E+04  1.675338E-10  7.832130E-09
       242  14  2.463416E+05  5.520654E+03  1.457980E+04  5.235900E+04  3.114482E-10 -8.733378E-09
       242  15  2.489149E+05  2.742584E+04  3.028249E+04  5.971535E+04 -5.656299E-10  2.378005E-09
       242  16  3.556451E+05  2.621488E+04  2.845312E+04  5.807842E+04  8.328078E-10 -4.619525E-09
       242  17  4.144732E+05  4.610942E+04  4.913443E+04  6.002627E+04  1.846518E-09 -2.075382E-09
       242  18  4.800855E+05  8.482917E+04  8.550755E+04  7.678311E+04 -1.867711E-10 -7.747697E-10
       242  19  1.422158E+05 -2.458066E+04 -1.231899E+04  6.154279E+04  1.250625E+04 -6.139274E+03
       242  20  7.823709E+04 -3.506960E+04 -1.997599E+04  4.469376E+04  1.069436E+04 -7.322036E+03
       242  21  1.779388E+04 -2.998028E+04 -2.494602E+04  4.265391E+04  8.861628E+03 -2.501112E+03
       242  22  2.489249E+05  8.174464E+02  8.067279E+03  5.981076E+04  5.989231E+03 -6.163013E+03
       242  23  2.463418E+05  5.520761E+03  1.458025E+04  5.235892E+04  1.354541E+04 -7.311462E+03
       242  24  2.489153E+05  2.742596E+04  3.028334E+04  5.971531E+04  2.108079E+04 -2.457021E+03
       242  25  3.556451E+05  2.621492E+04  2.845319E+04  5.807843E+04 -5.288856E+02 -6.186714E+03
       242  26  4.144735E+05  4.610955E+04  4.913503E+04  6.002617E+04  1.639721E+04 -7.300818E+03
       242  27  4.800867E+05  8.482948E+04  8.550964E+04  7.678305E+04  3.330447E+04 -2.412267E+03
       243   1  1.866139E+05  1.512454E+06  1.880555E+05 -1.798771E+05  5.691412E+03  6.459428E+04
       243   2  1.037567E+05  1.351662E+06  1.109326E+05 -1.438428E+05  1.671947E+04  2.659636E+04
       243   3  5.755862E+04  1.204833E+06  6.764933E+04 -1.444796E+05  1.368544E+04 -1.141788E+04
       243   4  5.189727E+04  9.687322E+05  5.820415E+04 -1.473881E+05  5.753115E+03  3.648214E+04
       243   5  1.022396E+04  9.636898E+05  3.109322E+04 -1.291059E+05  1.673392E+04  2.047201E+04
       243   6  1.413655E+03  9.687927E+05  2.258959E+04 -1.474920E+05  1.365078E+04  4.436027E+03
       243   7 -8.283644E+04  4.252846E+05 -7.166447E+04 -1.149274E+05  5.811913E+03  8.394441E+03
       243   8 -8.331742E+04  5.758609E+05 -4.875399E+04 -1.143784E+05  1.674808E+04  1.435141E+04
       243   9 -5.473441E+04  7.328065E+05 -2.247173E+04 -1.505032E+05  1.361595E+04  2.028405E+04
       243  10  1.866127E+05  1.512450E+06  1.880476E+05 -1.798774E+05  8.299952E-10  1.742124E-09
       243  11  1.037562E+05  1.351661E+06  1.109307E+05 -1.438431E+05 -1.603236E-10 -1.408896E-09
       243  12  5.755838E+04  1.204833E+06  6.764873E+04 -1.444795E+05 -6.869480E-10 -3.104815E-09
       243  13  5.189687E+04  9.687308E+05  5.820159E+04 -1.473882E+05  8.177058E-10 -1.249868E-12
       243  14  1.022355E+04  9.636892E+05  3.109191E+04 -1.291062E+05  1.337814E-09 -1.933654E-09
       243  15  1.413450E+03  9.687927E+05  2.258920E+04 -1.474920E+05 -3.077573E-10  5.029388E-09
       243  16 -8.283649E+04  4.252845E+05 -7.166467E+04 -1.149274E+05  5.479588E-11 -2.556925E-09
       243  17 -8.331778E+04  5.758606E+05 -4.875490E+04 -1.143786E+05  2.543123E-10  2.139759E-09
       243  18 -5.473472E+04  7.328061E+05 -2.247285E+04 -1.505034E+05 -1.531026E-09  3.950059E-09
       243  19  1.866139E+05  1.512454E+06  1.880555E+05 -1.798771E+05 -5.691412E+03 -6.459428E+04
       243  20  1.037567E+05  1.351662E+06  1.109326E+05 -1.438428E+05 -1.671947E+04 -2.659636E+04
       243  21  5.755862E+04  1.204833E+06  6.764933E+04 -1.444796E+05 -1.368544E+04  1.141788E+04
       243  22  5.189727E+04  9.687322E+05  5.820415E+04 -1.473881E+05 -5.753115E+03 -3.648214E+04
       243  23  1.022396E+04  9.636898E+05  3.109322E+04 -1.291059E+05 -1.673392E+04 -2.047201E+04
       243  24  1.413655E+03  9.687927E+05  2.258959E+04 -1.474920E+05 -1.365078E+04 -4.436027E+03
       243  25 -8.283644E+04  4.252846E+05 -7.166447E+04 -1.149274E+05 -5.811913E+03 -8.394441E+03
       243  26 -8.331742E+04  5.758609E+05 -4.875399E+04 -1.143784E+05 -1.674808E+04 -1.435141E+04
       243  27 -5.473441E+04  7.328065E+05 -2.247173E+04 -1.505032E+05 -1.361595E+04 -2.028405E+04
       244   1  3.436987E+04  1.100619E+06  4.733344E+04 -1.498003E+05  7.536697E+03 -1.305216E+04
       244   2 -3.279846E+03  9.455065E+05  2.073541E+04 -1.285680E+05 -1.335456E+03 -2.511047E+04
       244   3 -3.487015E+04  7.933167E+05  3.445006E+03 -1.448191E+05 -1.012978E+04 -3.716574E+04
       244   4  2.566163E+03  9.671922E+05  2.163871E+04 -1.476591E+05  7.505531E+03  9.080420E+02
       244   5  1.489517E+03  9.657291E+05  2.437209E+04 -1.289134E+05 -1.366159E+03 -1.127342E+04
       244   6  6.494284E+03  9.671855E+05  3.649764E+04 -1.476504E+05 -1.015998E+04 -2.345467E+04
       244   7 -2.923848E+04  8.337830E+05 -4.056116E+03 -1.455184E+05  7.474457E+03  1.486532E+04
       244   8  6.258960E+03  9.859524E+05  2.800947E+04 -1.292588E+05 -1.396877E+03  2.564068E+03
       244   9  4.785707E+04  1.141084E+06  6.954962E+04 -1.504824E+05 -1.019030E+04 -9.739858E+03
       244  10  3.436976E+04  1.100619E+06  4.733302E+04 -1.498003E+05 -5.494930E-10  1.714785E-09
       244  11 -3.280017E+03  9.455058E+05  2.073423E+04 -1.285681E+05  2.061026E-09 -2.090496E-10
       244  12 -3.487063E+04  7.933152E+05  3.442221E+03 -1.448195E+05  1.499448E-09 -1.211500E-09
       244  13  2.566103E+03  9.671921E+05  2.163860E+04 -1.476591E+05 -1.608318E-09  1.590623E-10
       244  14  1.489481E+03  9.657289E+05  2.437185E+04 -1.289134E+05 -3.549417E-10 -2.254359E-09
       244  15  6.494026E+03  9.671849E+05  3.649641E+04 -1.476506E+05 -1.099510E-12  4.918095E-09
       244  16 -2.923860E+04  8.337828E+05 -4.056636E+03 -1.455185E+05 -1.279342E-09 -2.447325E-09
       244  17  6.258956E+03  9.859524E+05  2.800946E+04 -1.292588E+05 -1.381446E-09  1.585569E-09
       244  18  4.785694E+04  1.141084E+06  6.954924E+04 -1.504825E+05 -1.072118E-09  1.989121E-09
       244  19  3.436987E+04  1.100619E+06  4.733344E+04 -1.498003E+05 -7.536697E+03  1.305216E+04
       244  20 -3.279846E+03  9.455065E+05  2.073541E+04 -1.285680E+05  1.335456E+03  2.511047E+04
       244  21 -3.487015E+04  7.933167E+05  3.445006E+03 -1.448191E+05  1.012978E+04  3.716574E+04
       244  22  2.566163E+03  9.671922E+05  2.163871E+04 -1.476591E+05 -7.505531E+03 -9.080420E+02
       244  23  1.489517E+03  9.657291E+05  2.437209E+04 -1.289134E+05  1.366159E+03  1.127342E+04
       244  24  6.494284E+03  9.671855E+05  3.649764E+04 -1.476504E+05  1.015998E+04  2.345467E+04
       244  25 -2.923848E+04  8.337830E+05 -4.056116E+03 -1.455184E+05 -7.474457E+03 -1.486532E+04
       244  26  6.258960E+03  9.859524E+05  2.800947E+04 -1.292588E+05  1.396877E+03 -2.564068E+03
       244  27  4.785707E+04  1.141084E+06  6.954962E+04 -1.504824E+05  1.019030E+04  9.739858E+03
       245   1 -6.296075E+04  6.962686E+05 -6.717849E+03 -1.577379E+05 -1.623715E+04 -4.540433E+04
       245   2 -7.520400E+04  5.305367E+05 -8.454273E+03 -8.961833E+04 -1.878395E+04 -6.297802E+04
       245   3  3.429838E+02  3.889296E+05  2.316408E+04 -5.804982E+04 -6.298852E+03 -8.051894E+04
       245   4  2.729168E+03  9.727877E+05  4.574007E+04 -1.474850E+05 -1.627206E+04 -2.965435E+04
       245   5  2.809686E+04  9.586628E+05  7.931620E+04 -1.290698E+05 -1.876270E+04 -7.071985E+04
       245   6  1.452844E+05  9.726791E+05  1.625232E+05 -1.471935E+05 -6.223361E+03 -1.117578E+05
       245   7  6.841516E+04  1.249381E+06  9.819557E+04 -1.372274E+05 -1.630644E+04 -1.389753E+04
       245   8  1.313920E+05  1.386966E+06  1.670779E+05 -1.685489E+05 -1.874047E+04 -7.846692E+04
       245   9  2.902313E+05  1.556760E+06  3.018662E+05 -2.364212E+05 -6.138950E+03 -1.430259E+05
       245  10 -6.296158E+04  6.962663E+05 -6.722215E+03 -1.577385E+05  1.517291E-09  6.869108E-12
       245  11 -7.520544E+04  5.305323E+05 -8.462384E+03 -8.961928E+04  1.341639E-09 -6.643028E-10
       245  12  3.412020E+02  3.889226E+05  2.315183E+04 -5.805023E+04  8.633906E-10  8.737504E-11
       245  13  2.728648E+03  9.727867E+05  4.573792E+04 -1.474854E+05  1.254196E-09 -4.711712E-10
       245  14  2.809514E+04  9.586574E+05  7.930615E+04 -1.290709E+05  1.631616E-09 -2.628422E-09
       245  15  1.452810E+05  9.726657E+05  1.624997E+05 -1.471941E+05  6.431942E-10  4.210751E-09
       245  16  6.841482E+04  1.249381E+06  9.819471E+04 -1.372276E+05  4.707232E-10 -1.007891E-09
       245  17  1.313900E+05  1.386960E+06  1.670657E+05 -1.685501E+05 -1.719775E-09  1.671103E-09
       245  18  2.902257E+05  1.556738E+06  3.018278E+05 -2.364219E+05 -6.731438E-10  8.466504E-10
       245  19 -6.296075E+04  6.962686E+05 -6.717849E+03 -1.577379E+05  1.623715E+04  4.540433E+04
       245  20 -7.520400E+04  5.305367E+05 -8.454273E+03 -8.961833E+04  1.878395E+04  6.297802E+04
       245  21  3.429838E+02  3.889296E+05  2.316408E+04 -5.804982E+04  6.298852E+03  8.051894E+04
       245  22  2.729168E+03  9.727877E+05  4.574007E+04 -1.474850E+05  1.627206E+04  2.965435E+04
       245  23  2.809686E+04  9.586628E+05  7.931620E+04 -1.290698E+05  1.876270E+04  7.071985E+04
       245  24  1.452844E+05  9.726791E+05  1.625232E+05 -1.471935E+05  6.223361E+03  1.117578E+05
       245  25  6.841516E+04  1.249381E+06  9.819557E+04 -1.372274E+05  1.630644E+04  1.389753E+04
       245  26  1.313920E+05  1.386966E+06  1.670779E+05 -1.685489E+05  1.874047E+04  7.846692E+04
       245  27  2.902313E+05  1.556760E+06  3.018662E+05 -2.364212E+05  6.138950E+03  1.430259E+05
       246   1  1.421502E+06  4.515092E+05  2.243121E+05  5.019382E+05  5.531307E+04  3.648284E+03
       246   2  1.348080E+06  4.363252E+05  1.824219E+05  4.762686E+05  3.707677E+04 -4.277581E+04
       246   3  1.262142E+06  4.244711E+05  1.609840E+05  4.695606E+05  8.817387E+03 -6.259798E+04
       246   4  4.220591E+05  9.103476E+04 -3.169647E+04  2.430615E+05 -1.479266E+04 -2.280137E+04
       246   5  4.339525E+05  1.055378E+05 -1.453266E+04  2.289412E+05  5.906639E+03 -5.454965E+04
       246   6  4.256148E+05  1.156571E+05 -7.735054E+03  2.337852E+05  1.657006E+04 -5.967787E+04
       246   7 -5.763746E+05 -2.693804E+05 -2.877567E+05 -1.543733E+04 -8.477257E+04 -4.920786E+04
       246   8 -4.793114E+05 -2.251834E+05 -2.115275E+05 -1.805119E+04 -2.521343E+04 -6.630541E+04
       246   9 -4.101900E+05 -1.930921E+05 -1.764879E+05 -1.695703E+03  2.431151E+04 -5.676208E+04
       246  10  1.421499E+06  4.515083E+05  2.243063E+05  5.019380E+05  1.201969E-10 -1.051637E-09
       246  11  1.348078E+06  4.363229E+05  1.824159E+05  4.762699E+05 -2.289565E-10 -4.539368E-09
       246  12  1.262141E+06  4.244669E+05  1.609765E+05  4.695611E+05  2.108321E-09 -2.063837E-09
       246  13  4.220588E+05  9.103415E+04 -3.169786E+04  2.430612E+05 -6.177591E-10  2.143918E-09
       246  14  4.339516E+05  1.055346E+05 -1.453832E+04  2.289415E+05  1.284548E-10 -2.156437E-09
       246  15  4.256136E+05  1.156532E+05 -7.742264E+03  2.337860E+05  3.154714E-09  2.674976E-09
       246  16 -5.763830E+05 -2.693849E+05 -2.877747E+05 -1.544069E+04  8.427029E-11  2.384157E-09
       246  17 -4.793133E+05 -2.251883E+05 -2.115370E+05 -1.805253E+04  4.192385E-10 -4.162017E-09
       246  18 -4.101915E+05 -1.930957E+05 -1.764951E+05 -1.694592E+03 -2.005610E-10 -3.773624E-09
       246  19  1.421502E+06  4.515092E+05  2.243121E+05  5.019382E+05 -5.531307E+04 -3.648284E+03
       246  20  1.348080E+06  4.363252E+05  1.824219E+05  4.762686E+05 -3.707677E+04  4.277581E+04
       246  21  1.262142E+06  4.244711E+05  1.609840E+05  4.695606E+05 -8.817387E+03  6.259798E+04
       246  22  4.220591E+05  9.103476E+04 -3.169647E+04  2.430615E+05  1.479266E+04  2.280137E+04
       246  23  4.339525E+05  1.055378E+05 -1.453266E+04  2.289412E+05 -5.906639E+03  5.454965E+04
       246  24  4.256148E+05  1.156571E+05 -7.735054E+03  2.337852E+05 -1.657006E+04  5.967787E+04
       246  25 -5.763746E+05 -2.693804E+05 -2.877567E+05 -1.543733E+04  8.477257E+04  4.920786E+04
       246  26 -4.793114E+05 -2.251834E+05 -2.115275E+05 -1.805119E+04  2.521343E+04  6.630541E+04
       246  27 -4.101900E+05 -1.930921E+05 -1.764879E+05 -1.695703E+03 -2.431151E+04  5.676208E+04
       247   1  1.213604E+06  4.033774E+05  1.521509E+05  4.542716E+05  1.347102E+04 -5.724819E+04
       247   2  1.146564E+06  3.699820E+05  1.375857E+05  4.258254E+05  1.124494E+04 -5.484244E+04
       247   3  1.065630E+06  3.503834E+05  1.238267E+05  4.134399E+05  8.311653E+03 -5.057374E+04
       247   4  4.262945E+05  1.151782E+05 -5.897064E+03  2.348089E+05  1.627173E+04 -5.619741E+04
       247   5  4.336076E+05  1.090875E+05 -3.119430E+03  2.265827E+05  1.677076E+04 -5.275994E+04
       247   6  4.264815E+05  1.162546E+05 -1.694325E+03  2.344164E+05  1.656204E+04 -4.745837E+04
       247   7 -3.603833E+05 -1.729696E+05 -1.639771E+05  1.560091E+04  1.906867E+04 -5.514807E+04
       247   8 -2.788265E+05 -1.517626E+05 -1.438489E+05  2.755048E+04  2.228981E+04 -5.068001E+04
       247   9 -2.122439E+05 -1.178371E+05 -1.272338E+05  5.556340E+04  2.480333E+04 -4.434645E+04
       247  10  1.213603E+06  4.033739E+05  1.521444E+05  4.542722E+05 -2.514127E-08 -1.192601E-08
       247  11  1.146563E+06  3.699787E+05  1.375798E+05  4.258259E+05  1.292382E-08 -2.831327E-09
       247  12  1.065629E+06  3.503806E+05  1.238217E+05  4.134402E+05  3.857950E-08  7.669959E-09
       247  13  4.262934E+05  1.151747E+05 -5.903497E+03  2.348096E+05  3.823474E-09  3.579724E-09
       247  14  4.336066E+05  1.090845E+05 -3.125191E+03  2.265834E+05  1.056856E-08  7.722194E-09
       247  15  4.264806E+05  1.162521E+05 -1.699074E+03  2.344171E+05  2.572029E-09 -4.018785E-10
       247  16 -3.603845E+05 -1.729729E+05 -1.639835E+05  1.560175E+04  3.502991E-08  9.449766E-09
       247  17 -2.788278E+05 -1.517655E+05 -1.438547E+05  2.755139E+04  6.566612E-09  9.320367E-10
       247  18 -2.122451E+05 -1.178393E+05 -1.272386E+05  5.556429E+04 -2.972130E-08 -1.136940E-08
       247  19  1.213604E+06  4.033774E+05  1.521509E+05  4.542716E+05 -1.347102E+04  5.724819E+04
       247  20  1.146564E+06  3.699820E+05  1.375857E+05  4.258254E+05 -1.124494E+04  5.484244E+04
       247  21  1.065630E+06  3.503834E+05  1.238267E+05  4.134399E+05 -8.311653E+03  5.057374E+04
       247  22  4.262945E+05  1.151782E+05 -5.897064E+03  2.348089E+05 -1.627173E+04  5.619741E+04
       247  23  4.336076E+05  1.090875E+05 -3.119430E+03  2.265827E+05 -1.677076E+04  5.275994E+04
       247  24  4.264815E+05  1.162546E+05 -1.694325E+03  2.344164E+05 -1.656204E+04  4.745837E+04
       247  25 -3.603833E+05 -1.729696E+05 -1.639771E+05  1.560091E+04 -1.906867E+04  5.514807E+04
       247  26 -2.788265E+05 -1.517626E+05 -1.438489E+05  2.755048E+04 -2.228981E+04  5.068001E+04
       247  27 -2.122439E+05 -1.178371E+05 -1.272338E+05  5.556340E+04 -2.480333E+04  4.434645E+04
       248   1  1.016013E+06  3.320339E+05  1.140878E+05  3.995190E+05  7.662857E+03 -4.706535E+04
       248   2  9.495173E+05  2.981671E+05  1.003032E+05  3.709733E+05  5.753249E+03 -4.154784E+04
       248   3  8.689720E+05  2.783853E+05  8.641703E+04  3.583728E+05  3.793165E+03 -3.590471E+04
       248   4  4.265435E+05  1.162457E+05 -1.268970E+03  2.344657E+05  1.555765E+04 -4.408300E+04
       248   5  4.336106E+05  1.092648E+05 -6.771897E+02  2.264833E+05  1.383177E+04 -3.849388E+04
       248   6  4.265840E+05  1.163326E+05 -3.335297E+02  2.344452E+05  1.205541E+04 -3.277903E+04
       248   7 -1.625606E+05 -9.950893E+04 -1.166398E+05  6.955871E+04  2.344434E+04 -4.110371E+04
       248   8 -8.202029E+04 -7.961339E+04 -1.016694E+05  8.210441E+04  2.190310E+04 -3.544264E+04
       248   9 -1.560495E+04 -4.570373E+04 -8.709374E+04  1.105982E+05  2.031140E+04 -2.965572E+04
       248  10  1.016012E+06  3.320315E+05  1.140835E+05  3.995192E+05  2.500955E-08  3.753230E-09
       248  11  9.495168E+05  2.981653E+05  1.002999E+05  3.709735E+05  3.148298E-09 -2.185028E-09
       248  12  8.689717E+05  2.783840E+05  8.641458E+04  3.583730E+05 -2.455282E-08 -2.674902E-09
       248  13  4.265427E+05  1.162436E+05 -1.273077E+03  2.344662E+05  2.962172E-09 -1.209069E-09
       248  14  4.336100E+05  1.092631E+05 -6.803346E+02  2.264837E+05  5.793178E-09 -2.818489E-09
       248  15  4.265836E+05  1.163314E+05 -3.358225E+02  2.344455E+05  1.093043E-09  4.798294E-09
       248  16 -1.625617E+05 -9.951089E+04 -1.166440E+05  6.955949E+04 -1.929971E-08 -5.898820E-09
       248  17 -8.202114E+04 -7.961487E+04 -1.016726E+05  8.210503E+04  5.251282E-09  1.031485E-08
       248  18 -1.560563E+04 -4.570478E+04 -8.709617E+04  1.105987E+05  2.400713E-08  1.354298E-08
       248  19  1.016013E+06  3.320339E+05  1.140878E+05  3.995190E+05 -7.662857E+03  4.706535E+04
       248  20  9.495173E+05  2.981671E+05  1.003032E+05  3.709733E+05 -5.753249E+03  4.154784E+04
       248  21  8.689720E+05  2.783853E+05  8.641703E+04  3.583728E+05 -3.793165E+03  3.590471E+04
       248  22  4.265435E+05  1.162457E+05 -1.268970E+03  2.344657E+05 -1.555765E+04  4.408300E+04
       248  23  4.336106E+05  1.092648E+05 -6.771897E+02  2.264833E+05 -1.383177E+04  3.849388E+04
       248  24  4.265840E+05  1.163326E+05 -3.335297E+02  2.344452E+05 -1.205541E+04  3.277903E+04
       248  25 -1.625606E+05 -9.950893E+04 -1.166398E+05  6.955871E+04 -2.344434E+04  4.110371E+04
       248  26 -8.202029E+04 -7.961339E+04 -1.016694E+05  8.210441E+04 -2.190310E+04  3.544264E+04
       248  27 -1.560495E+04 -4.570373E+04 -8.709374E+04  1.105982E+05 -2.031140E+04  2.965572E+04
       249   1  8.194556E+05  2.601908E+05  7.642199E+04  3.445304E+05  2.625295E+03 -3.258922E+04
       249   2  7.531387E+05  2.263654E+05  6.246279E+04  3.160231E+05  5.049520E+02 -2.695310E+04
       249   3  6.727795E+05  2.066042E+05  4.849945E+04  3.034273E+05 -1.619176E+03 -2.131166E+04
       249   4  4.266012E+05  1.163363E+05 -2.218905E+02  2.344404E+05  1.085748E+04 -2.947387E+04
       249   5  4.336365E+05  1.093219E+05 -3.795116E+01  2.264829E+05  8.744768E+03 -2.383353E+04
       249   6  4.266216E+05  1.163695E+05  1.351623E+02  2.344347E+05  6.628271E+03 -1.818789E+04
       249   7  3.390699E+04 -2.750404E+04 -7.687237E+04  1.244150E+05  1.908408E+04 -2.636064E+04
       249   8  1.142416E+05 -7.711757E+03 -6.254261E+04  1.369857E+05  1.698000E+04 -2.071571E+04
       249   9  1.805287E+05  2.614125E+04 -4.823101E+04  1.654681E+05  1.487214E+04 -1.506547E+04
       249  10  8.194554E+05  2.601896E+05  7.641998E+04  3.445304E+05  8.759059E-09  7.829137E-09
       249  11  7.531385E+05  2.263647E+05  6.246142E+04  3.160231E+05  4.159228E-09 -3.488522E-09
       249  12  6.727794E+05  2.066037E+05  4.849860E+04  3.034272E+05 -2.910181E-09 -4.028665E-09
       249  13  4.266009E+05  1.163353E+05 -2.237449E+02  2.344407E+05 -1.027118E-09  3.755875E-09
       249  14  4.336362E+05  1.093213E+05 -3.916263E+01  2.264830E+05 -2.070133E-09 -4.194725E-09
       249  15  4.266215E+05  1.163692E+05  1.344579E+02  2.344348E+05 -3.362370E-10 -1.635420E-09
       249  16  3.390642E+04 -2.750489E+04 -7.687436E+04  1.244154E+05 -1.264972E-08  2.640542E-09
       249  17  1.142412E+05 -7.712296E+03 -6.254396E+04  1.369860E+05 -5.797118E-09 -3.979048E-09
       249  18  1.805284E+05  2.614095E+04 -4.823186E+04  1.654683E+05  4.324099E-09 -5.413260E-10
       249  19  8.194556E+05  2.601908E+05  7.642199E+04  3.445304E+05 -2.625295E+03  3.258922E+04
       249  20  7.531387E+05  2.263654E+05  6.246279E+04  3.160231E+05 -5.049520E+02  2.695310E+04
       249  21  6.727795E+05  2.066042E+05  4.849945E+04  3.034273E+05  1.619176E+03  2.131166E+04
       249  22  4.266012E+05  1.163363E+05 -2.218905E+02  2.344404E+05 -1.085748E+04  2.947387E+04
       249  23  4.336365E+05  1.093219E+05 -3.795116E+01  2.264829E+05 -8.744768E+03  2.383353E+04
       249  24  4.266216E+05  1.163695E+05  1.351623E+02  2.344347E+05 -6.628271E+03  1.818789E+04
       249  25  3.390699E+04 -2.750404E+04 -7.687237E+04  1.244150E+05 -1.908408E+04  2.636064E+04
       249  26  1.142416E+05 -7.711757E+03 -6.254261E+04  1.369857E+05 -1.698000E+04  2.071571E+04
       249  27  1.805287E+05  2.614125E+04 -4.823101E+04  1.654681E+05 -1.487214E+04  1.506547E+04
       250   1  6.233505E+05  1.884297E+05  3.850353E+04  2.896050E+05 -2.889404E+03 -1.803932E+04
       250   2  5.571041E+05  1.546195E+05  2.465454E+04  2.611352E+05 -5.263410E+03 -1.249432E+04
       250   3  4.768457E+05  1.348685E+05  1.098436E+04  2.485654E+05 -7.635798E+03 -6.955311E+03
       250   4  4.266356E+05  1.163723E+05  2.307082E+02  2.344337E+05  5.354009E+03 -1.491652E+04
       250   5  4.336453E+05  1.093407E+05  4.992509E+02  2.264860E+05  2.970995E+03 -9.374397E+03
       250   6  4.266408E+05  1.163703E+05  9.539560E+02  2.344368E+05  5.895723E+02 -3.838281E+03
       250   7  2.299592E+05  4.431792E+04 -3.804402E+04  1.792781E+05  1.359469E+04 -1.179475E+04
       250   8  3.102020E+05  6.406318E+04 -2.365659E+04  1.918430E+05  1.120368E+04 -6.255128E+03
       250   9  3.764385E+05  9.787235E+04 -9.076283E+03  2.203094E+05  8.814230E+03 -7.215245E+02
       250  10  6.233504E+05  1.884294E+05  3.850290E+04  2.896050E+05  2.933204E-10  2.705933E-09
       250  11  5.571040E+05  1.546193E+05  2.465419E+04  2.611351E+05 -2.787136E-09 -2.026369E-10
       250  12  4.768456E+05  1.348684E+05  1.098416E+04  2.485654E+05 -4.237660E-09 -1.540349E-09
       250  13  4.266355E+05  1.163721E+05  2.302361E+02  2.344337E+05 -1.332066E-09 -7.383338E-09
       250  14  4.336453E+05  1.093406E+05  4.990691E+02  2.264860E+05 -5.992859E-10  5.542772E-09
       250  15  4.266407E+05  1.163703E+05  9.539277E+02  2.344368E+05  6.338291E-10 -9.002771E-09
       250  16  2.299589E+05  4.431772E+04 -3.804463E+04  1.792782E+05 -5.987299E-10 -1.115862E-09
       250  17  3.102018E+05  6.406311E+04 -2.365690E+04  1.918431E+05  1.688629E-09 -2.481326E-09
       250  18  3.764384E+05  9.787233E+04 -9.076430E+03  2.203094E+05  6.741341E-09 -3.580231E-09
       250  19  6.233505E+05  1.884297E+05  3.850353E+04  2.896050E+05  2.889404E+03  1.803932E+04
       250  20  5.571041E+05  1.546195E+05  2.465454E+04  2.611352E+05  5.263410E+03  1.249432E+04
       250  21  4.768457E+05  1.348685E+05  1.098436E+04  2.485654E+05  7.635798E+03  6.955311E+03
       250  22  4.266356E+05  1.163723E+05  2.307082E+02  2.344337E+05 -5.354009E+03  1.491652E+04
       250  23  4.336453E+05  1.093407E+05  4.992509E+02  2.264860E+05 -2.970995E+03  9.374397E+03
       250  24  4.266408E+05  1.163703E+05  9.539560E+02  2.344368E+05 -5.895723E+02  3.838281E+03
       250  25  2.299592E+05  4.431792E+04 -3.804402E+04  1.792781E+05 -1.359469E+04  1.179475E+04
       250  26  3.102020E+05  6.406318E+04 -2.365659E+04  1.918430E+05 -1.120368E+04  6.255128E+03
       250  27  3.764385E+05  9.787235E+04 -9.076283E+03  2.203094E+05 -8.814230E+03  7.215245E+02
       251   1  4.274641E+05  1.167127E+05  1.228992E+03  2.347871E+05 -9.077596E+03 -3.750193E+03
       251   2  3.611422E+05  8.288770E+04 -1.186251E+04  2.063361E+05 -1.226120E+04  1.447864E+03
       251   3  2.809566E+05  6.322539E+04 -2.413808E+04  1.937949E+05 -1.541665E+04  6.573333E+03
       251   4  4.266738E+05  1.163655E+05  1.284231E+03  2.344511E+05 -8.393905E+02 -6.282443E+02
       251   5  4.335994E+05  1.092989E+05  2.345754E+03  2.264871E+05 -4.129910E+03  4.528978E+03
       251   6  4.266767E+05  1.164153E+05  4.307578E+03  2.344303E+05 -7.392436E+03  9.613598E+03
       251   7  4.258836E+05  1.160183E+05  1.339765E+03  2.341153E+05  7.398736E+03  2.493671E+03
       251   8  5.060622E+05  1.357107E+05  1.655406E+04  2.466403E+05  4.002396E+03  7.610474E+03
       251   9  5.724201E+05  1.696077E+05  3.275290E+04  2.750748E+05  6.338666E+02  1.265465E+04
       251  10  4.274640E+05  1.167127E+05  1.228811E+03  2.347870E+05 -1.280905E-09 -1.502780E-09
       251  11  3.611420E+05  8.288766E+04 -1.186279E+04  2.063362E+05  5.122238E-09 -2.069212E-09
       251  12  2.809563E+05  6.322528E+04 -2.413861E+04  1.937950E+05  1.866527E-09 -9.100380E-10
       251  13  4.266738E+05  1.163655E+05  1.284229E+03  2.344511E+05  2.277678E-09  6.436273E-09
       251  14  4.335994E+05  1.092989E+05  2.345683E+03  2.264871E+05  2.968380E-10 -6.330040E-09
       251  15  4.266766E+05  1.164152E+05  4.307301E+03  2.344304E+05 -2.732635E-09 -8.302802E-09
       251  16  4.258836E+05  1.160183E+05  1.339650E+03  2.341153E+05  2.894644E-09  2.160722E-09
       251  17  5.060622E+05  1.357106E+05  1.655392E+04  2.466403E+05 -2.885251E-09 -7.378795E-09
       251  18  5.724201E+05  1.696075E+05  3.275260E+04  2.750748E+05 -1.055188E-08 -9.274383E-09
       251  19  4.274641E+05  1.167127E+05  1.228992E+03  2.347871E+05  9.077596E+03  3.750193E+03
       251  20  3.611422E+05  8.288770E+04 -1.186251E+04  2.063361E+05  1.226120E+04 -1.447864E+03
       251  21  2.809566E+05  6.322539E+04 -2.413808E+04  1.937949E+05  1.541665E+04 -6.573333E+03
       251  22  4.266738E+05  1.163655E+05  1.284231E+03  2.344511E+05  8.393905E+02  6.282443E+02
       251  23  4.335994E+05  1.092989E+05  2.345754E+03  2.264871E+05  4.129910E+03 -4.528978E+03
       251  24  4.266767E+05  1.164153E+05  4.307578E+03  2.344303E+05  7.392436E+03 -9.613598E+03
       251  25  4.258836E+05  1.160183E+05  1.339765E+03  2.341153E+05 -7.398736E+03 -2.493671E+03
       251  26  5.060622E+05  1.357107E+05  1.655406E+04  2.466403E+05 -4.002396E+03 -7.610474E+03
       251  27  5.724201E+05  1.696077E+05  3.275290E+04  2.750748E+05 -6.338666E+02 -1.265465E+04
       252   1  2.314307E+05  4.522542E+04 -3.281796E+04  1.804695E+05 -1.765601E+04  9.471118E+03
       252   2  1.653172E+05  1.100460E+04 -4.276579E+04  1.509459E+05 -2.332661E+04  1.316097E+04
       252   3  8.658129E+04 -6.820221E+03 -4.929302E+04  1.368238E+05 -2.860128E+04  1.581044E+04
       252   4  4.269136E+05  1.162923E+05  5.735886E+03  2.345738E+05 -9.436866E+03  1.258484E+04
       252   5  4.333050E+05  1.095829E+05  1.046407E+04  2.262506E+05 -1.663083E+04  1.569650E+04
       252   6  4.273694E+05  1.195693E+05  1.981877E+04  2.333259E+05 -2.342940E+04  1.776785E+04
       252   7  6.224361E+05  1.873625E+05  4.428823E+04  2.886939E+05 -1.214942E+03  1.569960E+04
       252   8  7.013660E+05  2.081673E+05  6.369040E+04  3.015851E+05 -9.931973E+03  1.823321E+04
       252   9  7.682742E+05  2.459685E+05  8.892405E+04  3.298763E+05 -1.825452E+04  1.972642E+04
       252  10  2.314304E+05  4.522524E+04 -3.281872E+04  1.804696E+05 -7.767307E-09 -9.154188E-09
       252  11  1.653166E+05  1.100426E+04 -4.276714E+04  1.509462E+05  2.213353E-10 -1.021793E-09
       252  12  8.658034E+04 -6.820710E+03 -4.929502E+04  1.368242E+05 -7.373395E-10 -4.958627E-09
       252  13  4.269135E+05  1.162921E+05  5.735421E+03  2.345739E+05 -3.160967E-09 -4.981217E-09
       252  14  4.333047E+05  1.095826E+05  1.046309E+04  2.262508E+05  4.332216E-09  1.530132E-08
       252  15  4.273687E+05  1.195688E+05  1.981715E+04  2.333262E+05 -4.193239E-09 -4.940233E-09
       252  16  6.224360E+05  1.873622E+05  4.428777E+04  2.886939E+05  1.331545E-09 -2.163617E-10
       252  17  7.013658E+05  2.081670E+05  6.368959E+04  3.015852E+05  3.368857E-09  4.635268E-10
       252  18  7.682737E+05  2.459680E+05  8.892269E+04  3.298766E+05 -8.096400E-09  1.263712E-10
       252  19  2.314307E+05  4.522542E+04 -3.281796E+04  1.804695E+05  1.765601E+04 -9.471118E+03
       252  20  1.653172E+05  1.100460E+04 -4.276579E+04  1.509459E+05  2.332661E+04 -1.316097E+04
       252  21  8.658129E+04 -6.820221E+03 -4.929302E+04  1.368238E+05  2.860128E+04 -1.581044E+04
       252  22  4.269136E+05  1.162923E+05  5.735886E+03  2.345738E+05  9.436866E+03 -1.258484E+04
       252  23  4.333050E+05  1.095829E+05  1.046407E+04  2.262506E+05  1.663083E+04 -1.569650E+04
       252  24  4.273694E+05  1.195693E+05  1.981877E+04  2.333259E+05  2.342940E+04 -1.776785E+04
       252  25  6.224361E+05  1.873625E+05  4.428823E+04  2.886939E+05  1.214942E+03 -1.569960E+04
       252  26  7.013660E+05  2.081673E+05  6.369040E+04  3.015851E+05  9.931973E+03 -1.823321E+04
       252  27  7.682742E+05  2.459685E+05  8.892405E+04  3.298763E+05  1.825452E+04 -1.972642E+04
       253   1  3.333555E+04 -2.159247E+04 -5.349091E+04  1.323958E+05 -3.555443E+04  1.683010E+04
       253   2 -1.720218E+04 -6.505535E+04 -5.268796E+04  7.280840E+04 -3.867619E+04  1.337905E+04
       253   3 -6.002614E+04 -4.099524E+04 -3.407326E+04  1.373700E+04 -3.618483E+04 -4.906865E+03
       253   4  4.306249E+05  1.168697E+05  2.600333E+04  2.356712E+05 -2.763144E+04  1.982907E+04
       253   5  4.305400E+05  1.223536E+05  4.876075E+04  2.197397E+05 -5.243537E+04  8.167170E+03
       253   6  4.424437E+05  1.996264E+05  1.065056E+05  2.043258E+05 -7.163003E+04 -1.832496E+04
       253   7  8.280815E+05  2.553436E+05  1.054916E+05  3.390073E+05 -1.970288E+04  2.282990E+04
       253   8  8.784871E+05  3.097951E+05  1.501973E+05  3.667739E+05 -6.620523E+04  2.950044E+03
       253   9  9.451616E+05  4.403108E+05  2.470645E+05  3.950675E+05 -1.071060E+05 -3.176203E+04
       253  10  3.333412E+04 -2.159311E+04 -5.349382E+04  1.323962E+05 -2.614326E-09 -5.933107E-09
       253  11 -1.720383E+04 -6.505594E+04 -5.269111E+04  7.280881E+04 -1.076130E-09  8.198450E-09
       253  12 -6.002756E+04 -4.099562E+04 -3.407577E+04  1.373686E+04 -1.646511E-09 -2.067265E-09
       253  13  4.306240E+05  1.168691E+05  2.600116E+04  2.356717E+05 -4.907572E-09 -8.846987E-09
       253  14  4.305370E+05  1.223528E+05  4.875546E+04  2.197400E+05  5.093896E-10 -3.971848E-09
       253  15  4.424381E+05  1.996247E+05  1.064953E+05  2.043247E+05  7.383498E-10 -3.019359E-09
       253  16  8.280810E+05  2.553429E+05  1.054898E+05  3.390077E+05 -7.030627E-09 -6.618594E-09
       253  17  8.784824E+05  3.097939E+05  1.501891E+05  3.667741E+05  6.960892E-10  3.870049E-09
       253  18  9.451490E+05  4.403066E+05  2.470411E+05  3.950647E+05  3.500060E-09 -4.014377E-09
       253  19  3.333555E+04 -2.159247E+04 -5.349091E+04  1.323958E+05  3.555443E+04 -1.683010E+04
       253  20 -1.720218E+04 -6.505535E+04 -5.268796E+04  7.280840E+04  3.867619E+04 -1.337905E+04
       253  21 -6.002614E+04 -4.099524E+04 -3.407326E+04  1.373700E+04  3.618483E+04  4.906865E+03
       253  22  4.306249E+05  1.168697E+05  2.600333E+04  2.356712E+05  2.763144E+04 -1.982907E+04
       253  23  4.305400E+05  1.223536E+05  4.876075E+04  2.197397E+05  5.243537E+04 -8.167170E+03
       253  24  4.424437E+05  1.996264E+05  1.065056E+05  2.043258E+05  7.163003E+04  1.832496E+04
       253  25  8.280815E+05  2.553436E+05  1.054916E+05  3.390073E+05  1.970288E+04 -2.282990E+04
       253  26  8.784871E+05  3.097951E+05  1.501973E+05  3.667739E+05  6.620523E+04 -2.950044E+03
       253  27  9.451616E+05  4.403108E+05  2.470645E+05  3.950675E+05  1.071060E+05  3.176203E+04
       254   1  6.658492E+04 -2.075623E+03 -5.812835E+03 -1.622267E+03 -1.176504E+04 -7.312671E+02
       254   2  5.980773E+04  1.226718E+04  1.972118E+03  1.205079E+03 -8.296290E+03 -2.103034E+03
       254   3  4.852337E+04  1.051981E+04  3.472877E+03  8.048680E+03 -4.832956E+03 -1.942883E+03
       254   4  9.247936E+03 -1.627014E+04 -1.975622E+04  5.612904E+03 -1.357010E+04 -7.377120E+02
       254   5  1.161364E+04  4.673273E+02 -8.937476E+03  3.574723E+03 -8.814873E+03 -2.104898E+03
       254   6  9.248284E+03  8.904803E+02 -5.296714E+03  5.552860E+03 -4.064995E+03 -1.940166E+03
       254   7 -4.808592E+04 -3.046469E+04 -3.369981E+04  1.284740E+04 -1.537500E+04 -7.441993E+02
       254   8 -3.657827E+04 -1.133267E+04 -1.984721E+04  5.944179E+03 -9.333415E+03 -2.106765E+03
       254   9 -3.002535E+04 -8.738933E+03 -1.406640E+04  3.057199E+03 -3.297083E+03 -1.937454E+03
       254  10  6.658477E+04 -2.075661E+03 -5.813096E+03 -1.622274E+03 -5.564034E-09  2.453253E-09
       254  11  5.980765E+04  1.226716E+04  1.971980E+03  1.205065E+03 -7.165130E-10  1.147584E-08
       254  12  4.852334E+04  1.051980E+04  3.472826E+03  8.048672E+03  2.300253E-09  4.772428E-09
       254  13  9.247738E+03 -1.627019E+04 -1.975657E+04  5.612896E+03  9.320693E-10 -7.224995E-09
       254  14  1.161356E+04  4.673017E+02 -8.937630E+03  3.574708E+03 -2.573496E-09 -1.169119E-08
       254  15  9.248265E+03  8.904718E+02 -5.296752E+03  5.552854E+03 -1.011646E-09  2.638690E-09
       254  16 -4.808618E+04 -3.046476E+04 -3.370025E+04  1.284739E+04  6.677556E-09  8.776870E-10
       254  17 -3.657837E+04 -1.133270E+04 -1.984739E+04  5.944163E+03 -2.343403E-09  1.176394E-08
       254  18 -3.002536E+04 -8.738940E+03 -1.406642E+04  3.057194E+03 -5.434861E-09 -1.652328E-09
       254  19  6.658492E+04 -2.075623E+03 -5.812835E+03 -1.622267E+03  1.176504E+04  7.312671E+02
       254  20  5.980773E+04  1.226718E+04  1.972118E+03  1.205079E+03  8.296290E+03  2.103034E+03
       254  21  4.852337E+04  1.051981E+04  3.472877E+03  8.048680E+03  4.832956E+03  1.942883E+03
       254  22  9.247936E+03 -1.627014E+04 -1.975622E+04  5.612904E+03  1.357010E+04  7.377120E+02
       254  23  1.161364E+04  4.673273E+02 -8.937476E+03  3.574723E+03  8.814873E+03  2.104898E+03
       254  24  9.248284E+03  8.904803E+02 -5.296714E+03  5.552860E+03  4.064995E+03  1.940166E+03
       254  25 -4.808592E+04 -3.046469E+04 -3.369981E+04  1.284740E+04  1.537500E+04  7.441993E+02
       254  26 -3.657827E+04 -1.133267E+04 -1.984721E+04  5.944179E+03  9.333415E+03  2.106765E+03
       254  27 -3.002535E+04 -8.738933E+03 -1.406640E+04  3.057199E+03  3.297083E+03  1.937454E+03
       255   1  4.175493E+04  6.760073E+03  2.842461E+03  5.311439E+03 -3.612815E+03 -1.503847E+03
       255   2  3.298576E+04  5.596113E+03  2.778706E+03  3.531970E+03 -2.531306E+03 -1.098519E+03
       255   3  2.378942E+04  3.428290E+03  1.751959E+03  5.792027E+03 -1.450084E+03 -6.242761E+02
       255   4  1.020249E+04 -9.620023E+02 -4.229454E+03  5.576425E+03 -3.304374E+03 -1.502765E+03
       255   5  1.042127E+04  7.477172E+01 -2.266340E+03  3.554777E+03 -2.165035E+03 -1.097226E+03
       255   6  1.020260E+04  9.758411E+01 -1.306455E+03  5.572672E+03 -1.025968E+03 -6.227713E+02
       255   7 -2.134903E+04 -8.684145E+03 -1.130143E+04  5.841396E+03 -2.995950E+03 -1.501683E+03
       255   8 -1.214274E+04 -5.446604E+03 -7.311418E+03  3.577583E+03 -1.798777E+03 -1.095932E+03
       255   9 -3.384046E+03 -3.233134E+03 -4.364881E+03  5.353322E+03 -6.018614E+02 -6.212668E+02
       255  10  4.175491E+04  6.760067E+03  2.842432E+03  5.311435E+03 -6.291783E-10 -2.140018E-09
       255  11  3.298575E+04  5.596110E+03  2.778692E+03  3.531968E+03  1.329343E-09  1.545541E-09
       255  12  2.378942E+04  3.428289E+03  1.751955E+03  5.792026E+03  2.947311E-09  8.248879E-09
       255  13  1.020247E+04 -9.620076E+02 -4.229479E+03  5.576421E+03 -1.470488E-10  1.363062E-08
       255  14  1.042126E+04  7.476917E+01 -2.266351E+03  3.554775E+03 -1.477931E-09 -2.562468E-08
       255  15  1.020260E+04  9.758341E+01 -1.306458E+03  5.572671E+03  1.970260E-09  7.294909E-09
       255  16 -2.134904E+04 -8.684150E+03 -1.130145E+04  5.841393E+03 -9.340026E-10 -7.826374E-09
       255  17 -1.214275E+04 -5.446606E+03 -7.311426E+03  3.577582E+03 -3.769904E-09 -3.896924E-09
       255  18 -3.384046E+03 -3.233134E+03 -4.364882E+03  5.353322E+03 -5.262464E-09  4.431528E-10
       255  19  4.175493E+04  6.760073E+03  2.842461E+03  5.311439E+03  3.612815E+03  1.503847E+03
       255  20  3.298576E+04  5.596113E+03  2.778706E+03  3.531970E+03  2.531306E+03  1.098519E+03
       255  21  2.378942E+04  3.428290E+03  1.751959E+03  5.792027E+03  1.450084E+03  6.242761E+02
       255  22  1.020249E+04 -9.620023E+02 -4.229454E+03  5.576425E+03  3.304374E+03  1.502765E+03
       255  23  1.042127E+04  7.477172E+01 -2.266340E+03  3.554777E+03  2.165035E+03  1.097226E+03
       255  24  1.020260E+04  9.758411E+01 -1.306455E+03  5.572672E+03  1.025968E+03  6.227713E+02
       255  25 -2.134903E+04 -8.684145E+03 -1.130143E+04  5.841396E+03  2.995950E+03  1.501683E+03
       255  26 -1.214274E+04 -5.446604E+03 -7.311418E+03  3.577583E+03  1.798777E+03  1.095932E+03
       255  27 -3.384046E+03 -3.233134E+03 -4.364881E+03  5.353322E+03  6.018614E+02  6.212668E+02
       256   1  1.615834E+04  1.417939E+03  2.898151E+02  5.597735E+03 -1.227583E+03 -3.340278E+02
       256   2  7.218803E+03 -7.255245E+02 -1.243420E+03  3.559651E+03 -9.584821E+02  1.487519E+02
       256   3 -1.801331E+03 -2.907137E+03 -2.969685E+03  5.561803E+03 -6.893900E+02  6.346258E+02
       256   4  1.028185E+04 -1.524504E+01 -9.990299E+02  5.573990E+03 -8.241500E+02 -3.325953E+02
       256   5  1.032233E+04  3.361998E+01 -5.507712E+02  3.553764E+03 -5.524531E+02  1.501927E+02
       256   6  1.028183E+04  4.392344E+01 -2.973127E+02  5.573773E+03 -2.807608E+02  6.360751E+02
       256   7  4.405387E+03 -1.448432E+03 -2.287876E+03  5.550244E+03 -4.207210E+02 -3.311628E+02
       256   8  1.342587E+04  7.927639E+02  1.418772E+02  3.547877E+03 -1.464220E+02  1.516335E+02
       256   9  2.236512E+04  2.994974E+03  2.375052E+03  5.585743E+03  1.278762E+02  6.375245E+02
       256  10  1.615834E+04  1.417939E+03  2.898120E+02  5.597735E+03  3.585411E-09 -3.780285E-09
       256  11  7.218802E+03 -7.255248E+02 -1.243421E+03  3.559651E+03 -5.740153E-10 -6.065140E-09
       256  12 -1.801332E+03 -2.907137E+03 -2.969687E+03  5.561804E+03 -3.836082E-09 -3.723232E-09
       256  13  1.028185E+04 -1.524535E+01 -9.990314E+02  5.573989E+03  9.607302E-10 -2.120198E-09
       256  14  1.032233E+04  3.361987E+01 -5.507718E+02  3.553764E+03 -1.479548E-09 -8.559113E-09
       256  15  1.028183E+04  4.392298E+01 -2.973136E+02  5.573773E+03  1.433580E-09 -2.241606E-09
       256  16  4.405387E+03 -1.448432E+03 -2.287877E+03  5.550244E+03 -4.849148E-09 -7.564665E-09
       256  17  1.342587E+04  7.927639E+02  1.418772E+02  3.547877E+03 -3.746691E-10  6.057138E-09
       256  18  2.236512E+04  2.994973E+03  2.375051E+03  5.585743E+03  2.890380E-09  6.946444E-09
       256  19  1.615834E+04  1.417939E+03  2.898151E+02  5.597735E+03  1.227583E+03  3.340278E+02
       256  20  7.218803E+03 -7.255245E+02 -1.243420E+03  3.559651E+03  9.584821E+02 -1.487519E+02
       256  21 -1.801331E+03 -2.907137E+03 -2.969685E+03  5.561803E+03  6.893900E+02 -6.346258E+02
       256  22  1.028185E+04 -1.524504E+01 -9.990299E+02  5.573990E+03  8.241500E+02  3.325953E+02
       256  23  1.032233E+04  3.361998E+01 -5.507712E+02  3.553764E+03  5.524531E+02 -1.501927E+02
       256  24  1.028183E+04  4.392344E+01 -2.973127E+02  5.573773E+03  2.807608E+02 -6.360751E+02
       256  25  4.405387E+03 -1.448432E+03 -2.287876E+03  5.550244E+03  4.207210E+02  3.311628E+02
       256  26  1.342587E+04  7.927639E+02  1.418772E+02  3.547877E+03  1.464220E+02 -1.516335E+02
       256  27  2.236512E+04  2.994974E+03  2.375052E+03  5.585743E+03 -1.278762E+02 -6.375245E+02
       257   1 -9.500751E+03 -4.809693E+03 -4.654806E+03  5.530099E+03 -6.438376E+02  9.177162E+02
       257   2 -1.846374E+04 -7.013740E+03 -6.499377E+03  3.485327E+03 -6.086982E+02  1.403291E+03
       257   3 -2.746057E+04 -9.193137E+03 -8.368838E+03  5.481053E+03 -5.735405E+02  1.888999E+03
       257   4  1.029223E+04  3.808336E+01 -2.096496E+02  5.573898E+03 -2.361359E+02  9.191597E+02
       257   5  1.030911E+04  2.606144E+01 -7.466378E+01  3.553650E+03 -2.008871E+02  1.404727E+03
       257   6  1.029208E+04  3.867593E+01  3.535775E+01  5.573889E+03 -1.656195E+02  1.890428E+03
       257   7  3.008557E+04  4.885833E+03  4.235483E+03  5.617697E+03  1.715787E+02  9.206033E+02
       257   8  3.908274E+04  7.065807E+03  6.349998E+03  3.621976E+03  2.069428E+02  1.406164E+03
       257   9  4.804605E+04  9.270392E+03  8.439465E+03  5.666730E+03  2.423261E+02  1.891858E+03
       257  10 -9.500752E+03 -4.809694E+03 -4.654808E+03  5.530100E+03  3.874956E-09 -5.412624E-09
       257  11 -1.846375E+04 -7.013742E+03 -6.499381E+03  3.485328E+03 -4.023041E-09  2.435628E-10
       257  12 -2.746057E+04 -9.193141E+03 -8.368845E+03  5.481054E+03 -9.968910E-09 -1.459250E-09
       257  13  1.029223E+04  3.808244E+01 -2.096512E+02  5.573898E+03 -1.301575E-10  1.610218E-09
       257  14  1.030911E+04  2.605931E+01 -7.466756E+01  3.553651E+03 -9.392893E-10 -3.377720E-09
       257  15  1.029207E+04  3.867208E+01  3.535098E+01  5.573890E+03 -9.860153E-10 -3.792678E-09
       257  16  3.008557E+04  4.885832E+03  4.235481E+03  5.617697E+03 -4.356581E-09  2.100060E-09
       257  17  3.908274E+04  7.065805E+03  6.349994E+03  3.621976E+03  2.393284E-09  1.100342E-08
       257  18  4.804604E+04  9.270388E+03  8.439458E+03  5.666730E+03  6.453859E-09  1.516531E-09
       257  19 -9.500751E+03 -4.809693E+03 -4.654806E+03  5.530099E+03  6.438376E+02 -9.177162E+02
       257  20 -1.846374E+04 -7.013740E+03 -6.499377E+03  3.485327E+03  6.086982E+02 -1.403291E+03
       257  21 -2.746057E+04 -9.193137E+03 -8.368838E+03  5.481053E+03  5.735405E+02 -1.888999E+03
       257  22  1.029223E+04  3.808336E+01 -2.096496E+02  5.573898E+03  2.361359E+02 -9.191597E+02
       257  23  1.030911E+04  2.606144E+01 -7.466378E+01  3.553650E+03  2.008871E+02 -1.404727E+03
       257  24  1.029208E+04  3.867593E+01  3.535775E+01  5.573889E+03  1.656195E+02 -1.890428E+03
       257  25  3.008557E+04  4.885833E+03  4.235483E+03  5.617697E+03 -1.715787E+02 -9.206033E+02
       257  26  3.908274E+04  7.065807E+03  6.349998E+03  3.621976E+03 -2.069428E+02 -1.406164E+03
       257  27  4.804605E+04  9.270392E+03  8.439465E+03  5.666730E+03 -2.423261E+02 -1.891858E+03
       258   1 -3.516562E+04 -1.109018E+04 -1.008499E+04  5.461648E+03 -5.861623E+02  2.171641E+03
       258   2 -4.414113E+04 -1.329954E+04 -1.192460E+04  3.421848E+03 -7.024863E+02  2.656816E+03
       258   3 -5.312641E+04 -1.547242E+04 -1.368722E+04  5.423387E+03 -8.187694E+02  3.141688E+03
       258   4  1.029726E+04  3.842813E+01  9.226084E+01  5.574082E+03 -1.781774E+02  2.173064E+03
       258   5  1.030207E+04  2.122105E+01  2.323114E+02  3.553416E+03 -2.947709E+02  2.658224E+03
       258   6  1.029697E+04  4.050329E+01  4.494990E+02  5.574068E+03 -4.113252E+02  3.143081E+03
       258   7  5.576205E+04  1.116690E+04  1.026938E+04  5.686523E+03  2.298371E+02  2.174487E+03
       258   8  6.474804E+04  1.334178E+04  1.238904E+04  3.684994E+03  1.129798E+02  2.659632E+03
       258   9  7.372409E+04  1.555315E+04  1.458597E+04  5.724760E+03 -3.839864E+00  3.144475E+03
       258  10 -3.516562E+04 -1.109019E+04 -1.008500E+04  5.461649E+03  2.986046E-10 -1.828249E-09
       258  11 -4.414113E+04 -1.329954E+04 -1.192462E+04  3.421849E+03 -2.779586E-09 -4.827230E-09
       258  12 -5.312641E+04 -1.547243E+04 -1.368724E+04  5.423389E+03 -9.620912E-09 -8.039996E-09
       258  13  1.029726E+04  3.842305E+01  9.225190E+01  5.574082E+03  9.469773E-10  5.131935E-09
       258  14  1.030207E+04  2.121344E+01  2.322979E+02  3.553417E+03 -9.115836E-10  1.883910E-09
       258  15  1.029696E+04  4.049264E+01  4.494801E+02  5.574069E+03  7.767025E-10 -4.860767E-09
       258  16  5.576205E+04  1.116689E+04  1.026938E+04  5.686522E+03 -1.816551E-09  2.659361E-10
       258  17  6.474804E+04  1.334177E+04  1.238903E+04  3.684994E+03  9.652786E-10 -1.453432E-08
       258  18  7.372409E+04  1.555314E+04  1.458595E+04  5.724760E+03  6.917260E-09 -8.214208E-09
       258  19 -3.516562E+04 -1.109018E+04 -1.008499E+04  5.461648E+03  5.861623E+02 -2.171641E+03
       258  20 -4.414113E+04 -1.329954E+04 -1.192460E+04  3.421848E+03  7.024863E+02 -2.656816E+03
       258  21 -5.312641E+04 -1.547242E+04 -1.368722E+04  5.423387E+03  8.187694E+02 -3.141688E+03
       258  22  1.029726E+04  3.842813E+01  9.226084E+01  5.574082E+03  1.781774E+02 -2.173064E+03
       258  23  1.030207E+04  2.122105E+01  2.323114E+02  3.553416E+03  2.947709E+02 -2.658224E+03
       258  24  1.029697E+04  4.050329E+01  4.494990E+02  5.574068E+03  4.113252E+02 -3.143081E+03
       258  25  5.576205E+04  1.116690E+04  1.026938E+04  5.686523E+03 -2.298371E+02 -2.174487E+03
       258  26  6.474804E+04  1.334178E+04  1.238904E+04  3.684994E+03 -1.129798E+02 -2.659632E+03
       258  27  7.372409E+04  1.555315E+04  1.458597E+04  5.724760E+03  3.839864E+00 -3.144475E+03
       259   1 -6.081883E+04 -1.738053E+04 -1.530671E+04  5.425017E+03 -9.167577E+02  3.424756E+03
       259   2 -6.983788E+04 -1.959528E+04 -1.682455E+04  3.372128E+03 -1.441225E+03  3.907086E+03
       259   3 -7.878230E+04 -2.165588E+04 -1.796984E+04  5.359515E+03 -1.965614E+03  4.382132E+03
       259   4  1.031576E+04  2.923550E+01  6.029528E+02  5.573956E+03 -5.071018E+02  3.426147E+03
       259   5  1.027768E+04  7.140364E+00  1.065814E+03  3.553640E+03 -1.037748E+03  3.908435E+03
       259   6  1.031533E+04  1.402925E+02  1.905531E+03  5.573567E+03 -1.568324E+03  4.383440E+03
       259   7  8.145506E+04  1.743865E+04  1.651229E+04  5.722908E+03 -9.739944E+01  3.427537E+03
       259   8  9.039921E+04  1.960912E+04  1.895578E+04  3.735170E+03 -6.342189E+02  3.909784E+03
       259   9  9.942036E+04  2.193592E+04  2.178040E+04  5.787644E+03 -1.170976E+03  4.384747E+03
       259  10 -6.081884E+04 -1.738054E+04 -1.530673E+04  5.425020E+03 -1.186026E-08 -4.674612E-09
       259  11 -6.983788E+04 -1.959530E+04 -1.682459E+04  3.372133E+03  1.763016E-09 -5.736295E-09
       259  12 -7.878231E+04 -2.165590E+04 -1.796988E+04  5.359522E+03  1.192816E-08 -1.319309E-09
       259  13  1.031575E+04  2.922282E+01  6.029302E+02  5.573957E+03 -1.430444E-10 -1.415449E-09
       259  14  1.027767E+04  7.123671E+00  1.065784E+03  3.553643E+03 -3.620482E-09  7.257948E-09
       259  15  1.031532E+04  1.402712E+02  1.905490E+03  5.573573E+03  4.975390E-10  7.953088E-09
       259  16  8.145506E+04  1.743864E+04  1.651227E+04  5.722908E+03  1.118431E-08  8.148214E-09
       259  17  9.039921E+04  1.960911E+04  1.895575E+04  3.735172E+03 -2.652104E-09 -1.363849E-10
       259  18  9.942036E+04  2.193590E+04  2.178037E+04  5.787649E+03 -1.495455E-08  8.490150E-09
       259  19 -6.081883E+04 -1.738053E+04 -1.530671E+04  5.425017E+03  9.167577E+02 -3.424756E+03
       259  20 -6.983788E+04 -1.959528E+04 -1.682455E+04  3.372128E+03  1.441225E+03 -3.907086E+03
       259  21 -7.878230E+04 -2.165588E+04 -1.796984E+04  5.359515E+03  1.965614E+03 -4.382132E+03
       259  22  1.031576E+04  2.923550E+01  6.029528E+02  5.573956E+03  5.071018E+02 -3.426147E+03
       259  23  1.027768E+04  7.140364E+00  1.065814E+03  3.553640E+03  1.037748E+03 -3.908435E+03
       259  24  1.031533E+04  1.402925E+02  1.905531E+03  5.573567E+03  1.568324E+03 -4.383440E+03
       259  25  8.145506E+04  1.743865E+04  1.651229E+04  5.722908E+03  9.739944E+01 -3.427537E+03
       259  26  9.039921E+04  1.960912E+04  1.895578E+04  3.735170E+03  6.342189E+02 -3.909784E+03
       259  27  9.942036E+04  2.193592E+04  2.178040E+04  5.787644E+03  1.170976E+03 -4.384747E+03
       260   1 -8.634928E+04 -2.376385E+04 -1.915599E+04  5.672355E+03 -2.401756E+03  4.679567E+03
       260   2 -9.569551E+04 -2.596046E+04 -1.933998E+04  3.130162E+03 -4.429692E+03  5.122772E+03
       260   3 -1.043120E+05 -2.617816E+04 -1.771549E+04  4.619362E+03 -6.457001E+03  5.403290E+03
       260   4  1.046555E+04 -7.359884E+01  2.484876E+03  5.573678E+03 -1.955653E+03  4.681026E+03
       260   5  1.008865E+04 -7.251940E+01  4.298269E+03  3.554658E+03 -4.120562E+03  5.123742E+03
       260   6  1.046501E+04  1.931060E+03  8.015055E+03  5.566981E+03 -6.284874E+03  5.403781E+03
       260   7  1.072891E+05  2.361601E+04  2.412515E+04  5.474979E+03 -1.509480E+03  4.682484E+03
       260   8  1.158832E+05  2.581466E+04  2.793582E+04  3.979218E+03 -3.811380E+03  5.124712E+03
       260   9  1.252543E+05  3.003939E+04  3.374476E+04  6.514766E+03 -6.112715E+03  5.404272E+03
       260  10 -8.634930E+04 -2.376387E+04 -1.915604E+04  5.672364E+03 -5.059606E-09  2.771572E-09
       260  11 -9.569553E+04 -2.596050E+04 -1.934007E+04  3.130180E+03 -6.364269E-09  1.155756E-09
       260  12 -1.043121E+05 -2.617821E+04 -1.771562E+04  4.619390E+03  2.263793E-09 -9.583243E-09
       260  13  1.046554E+04 -7.362340E+01  2.484828E+03  5.573686E+03 -1.360375E-10 -6.559306E-09
       260  14  1.008862E+04 -7.255214E+01  4.298188E+03  3.554675E+03 -3.604601E-10  7.274120E-09
       260  15  1.046496E+04  1.931018E+03  8.014926E+03  5.567008E+03  1.677808E-09  2.448083E-09
       260  16  1.072891E+05  2.361599E+04  2.412510E+04  5.474985E+03  5.164040E-09 -1.864939E-09
       260  17  1.158832E+05  2.581463E+04  2.793574E+04  3.979234E+03  3.603597E-09 -1.358914E-08
       260  18  1.252543E+05  3.003935E+04  3.374464E+04  6.514793E+03 -3.457830E-09  5.855952E-09
       260  19 -8.634928E+04 -2.376385E+04 -1.915599E+04  5.672355E+03  2.401756E+03 -4.679567E+03
       260  20 -9.569551E+04 -2.596046E+04 -1.933998E+04  3.130162E+03  4.429692E+03 -5.122772E+03
       260  21 -1.043120E+05 -2.617816E+04 -1.771549E+04  4.619362E+03  6.457001E+03 -5.403290E+03
       260  22  1.046555E+04 -7.359884E+01  2.484876E+03  5.573678E+03  1.955653E+03 -4.681026E+03
       260  23  1.008865E+04 -7.251940E+01  4.298269E+03  3.554658E+03  4.120562E+03 -5.123742E+03
       260  24  1.046501E+04  1.931060E+03  8.015055E+03  5.566981E+03  6.284874E+03 -5.403781E+03
       260  25  1.072891E+05  2.361601E+04  2.412515E+04  5.474979E+03  1.509480E+03 -4.682484E+03
       260  26  1.158832E+05  2.581466E+04  2.793582E+04  3.979218E+03  3.811380E+03 -5.124712E+03
       260  27  1.252543E+05  3.003939E+04  3.374476E+04  6.514766E+03  6.112715E+03 -5.404272E+03
       261   1 -1.103242E+05 -3.153073E+04 -1.728999E+04  9.777930E+03 -8.988747E+03  6.037134E+03
       261   2 -1.234693E+05 -3.305509E+04 -1.275578E+04 -1.460412E+03 -1.494504E+04  5.706775E+03
       261   3 -1.282459E+05 -4.117340E+03  3.268768E+03 -8.877477E+03 -2.088958E+04  1.757740E+03
       261   4  1.227364E+04 -1.578887E+03  1.003625E+04  5.552504E+03 -7.731360E+03  6.041241E+03
       261   5  7.826310E+03 -8.188138E+02  1.693092E+04  3.589608E+03 -1.672859E+04  5.700806E+03
       261   6  1.227328E+04  3.092752E+04  3.742600E+04  5.447780E+03 -2.571417E+04  1.741861E+03
       261   7  1.348856E+05  2.837201E+04  3.736157E+04  1.326223E+03 -6.473728E+03  6.045331E+03
       261   8  1.391380E+05  3.141637E+04  4.661653E+04  8.640694E+03 -1.851251E+04  5.694810E+03
       261   9  1.528110E+05  6.597169E+04  7.158199E+04  1.977628E+04 -3.053984E+04  1.725761E+03
       261  10 -1.103243E+05 -3.153080E+04 -1.729021E+04  9.777974E+03  3.128347E-09 -6.288140E-09
       261  11 -1.234696E+05 -3.305519E+04 -1.275626E+04 -1.460343E+03  5.550065E-09  1.486483E-09
       261  12 -1.282464E+05 -4.117460E+03  3.267942E+03 -8.877447E+03  4.675615E-09  5.759986E-09
       261  13  1.227357E+04 -1.578943E+03  1.003607E+04  5.552542E+03  1.950672E-09  1.842057E-10
       261  14  7.826000E+03 -8.189238E+02  1.693033E+04  3.589685E+03  1.954655E-10  2.031543E-09
       261  15  1.227257E+04  3.092734E+04  3.742475E+04  5.447816E+03  1.742113E-10  4.593242E-09
       261  16  1.348855E+05  2.837196E+04  3.736142E+04  1.326255E+03 -2.817317E-09  6.399984E-09
       261  17  1.391377E+05  3.141625E+04  4.661582E+04  8.640779E+03 -7.968600E-09  8.620925E-09
       261  18  1.528100E+05  6.597144E+04  7.158023E+04  1.977632E+04 -6.320046E-09 -1.682739E-09
       261  19 -1.103242E+05 -3.153073E+04 -1.728999E+04  9.777930E+03  8.988747E+03 -6.037134E+03
       261  20 -1.234693E+05 -3.305509E+04 -1.275578E+04 -1.460412E+03  1.494504E+04 -5.706775E+03
       261  21 -1.282459E+05 -4.117340E+03  3.268768E+03 -8.877477E+03  2.088958E+04 -1.757740E+03
       261  22  1.227364E+04 -1.578887E+03  1.003625E+04  5.552504E+03  7.731360E+03 -6.041241E+03
       261  23  7.826310E+03 -8.188138E+02  1.693092E+04  3.589608E+03  1.672859E+04 -5.700806E+03
       261  24  1.227328E+04  3.092752E+04  3.742600E+04  5.447780E+03  2.571417E+04 -1.741861E+03
       261  25  1.348856E+05  2.837201E+04  3.736157E+04  1.326223E+03  6.473728E+03 -6.045331E+03
       261  26  1.391380E+05  3.141637E+04  4.661653E+04  8.640694E+03  1.851251E+04 -5.694810E+03
       261  27  1.528110E+05  6.597169E+04  7.158199E+04  1.977628E+04  3.053984E+04 -1.725761E+03
       262   1 -3.094311E+05 -1.292483E+06 -3.226019E+05  1.495622E+05 -1.008890E+04 -9.719475E+04
       262   2 -1.735678E+05 -1.104460E+06 -2.115344E+05  8.462607E+04 -3.036302E+04 -5.074417E+04
       262   3 -1.289488E+05 -9.444922E+05 -1.534494E+05  9.675168E+04 -2.644384E+04 -4.201086E+03
       262   4 -8.757671E+04 -4.027277E+05 -1.055577E+05  1.080219E+05 -1.016825E+04 -7.022656E+04
       262   5  1.865674E+03 -3.904212E+05 -4.953119E+04  6.963047E+04 -3.037944E+04 -4.403127E+04
       262   6  3.643241E+03 -4.026401E+05 -3.236315E+04  1.083041E+05 -2.640580E+04 -1.775781E+04
       262   7  1.342258E+05  4.877555E+05  1.114324E+05  6.642236E+04 -1.025115E+04 -4.321971E+04
       262   8  1.772647E+05  3.240922E+05  1.124393E+05  5.461775E+04 -3.039618E+04 -3.731068E+04
       262   9  1.362159E+05  1.394867E+05  8.870535E+04  1.198668E+05 -2.636828E+04 -3.132626E+04
       262  10 -3.094337E+05 -1.292493E+06 -3.226199E+05  1.495614E+05  3.132075E-10  6.625156E-09
       262  11 -1.735695E+05 -1.104463E+06 -2.115409E+05  8.462483E+04  1.086382E-10 -4.413171E-10
       262  12 -1.289496E+05 -9.444925E+05 -1.534507E+05  9.675159E+04  2.733521E-10 -7.716580E-09
       262  13 -8.757814E+04 -4.027330E+05 -1.055672E+05  1.080214E+05  1.955095E-09  3.235526E-11
       262  14  1.864163E+03 -3.904236E+05 -4.953656E+04  6.962939E+04  3.409202E-09  4.448868E-09
       262  15  3.642408E+03 -4.026406E+05 -3.236506E+04  1.083037E+05  1.478560E-09 -2.612123E-09
       262  16  1.342251E+05  4.877535E+05  1.114287E+05  6.642201E+04  2.484390E-09  2.215954E-09
       262  17  1.772634E+05  3.240905E+05  1.124349E+05  5.461684E+04  5.059596E-09  1.030730E-10
       262  18  1.362149E+05  1.394854E+05  8.870220E+04  1.198662E+05 -2.532009E-09  1.125277E-09
       262  19 -3.094311E+05 -1.292483E+06 -3.226019E+05  1.495622E+05  1.008890E+04  9.719475E+04
       262  20 -1.735678E+05 -1.104460E+06 -2.115344E+05  8.462607E+04  3.036302E+04  5.074417E+04
       262  21 -1.289488E+05 -9.444922E+05 -1.534494E+05  9.675168E+04  2.644384E+04  4.201086E+03
       262  22 -8.757671E+04 -4.027277E+05 -1.055577E+05  1.080219E+05  1.016825E+04  7.022656E+04
       262  23  1.865674E+03 -3.904212E+05 -4.953119E+04  6.963047E+04  3.037944E+04  4.403127E+04
       262  24  3.643241E+03 -4.026401E+05 -3.236315E+04  1.083041E+05  2.640580E+04  1.775781E+04
       262  25  1.342258E+05  4.877555E+05  1.114324E+05  6.642236E+04  1.025115E+04  4.321971E+04
       262  26  1.772647E+05  3.240922E+05  1.124393E+05  5.461775E+04  3.039618E+04  3.731068E+04
       262  27  1.362159E+05  1.394867E+05  8.870535E+04  1.198668E+05  2.636828E+04  3.132626E+04
       263   1 -1.016790E+05 -7.896691E+05 -1.160325E+05  1.120032E+05 -1.848992E+04 -6.338417E+03
       263   2 -5.311301E+04 -6.135675E+05 -7.074740E+04  6.982380E+04 -1.054994E+04  5.232034E+03
       263   3 -1.537427E+04 -4.410990E+05 -3.558731E+04  1.060075E+05 -2.115661E+03  1.680440E+04
       263   4 -5.688111E+03 -3.979584E+05 -2.815280E+04  1.085116E+05 -1.847225E+04 -1.282446E+04
       263   5  1.211385E+02 -3.961533E+05 -2.212389E+04  6.933164E+04 -1.053214E+04 -1.664648E+03
       263   6 -4.821199E+03 -3.979366E+05 -2.592971E+04  1.085139E+05 -2.097792E+03  9.493924E+03
       263   7  9.029240E+04 -6.104645E+03  5.971730E+04  1.050179E+05 -1.845451E+04 -1.931456E+04
       263   8  5.335210E+04 -1.786950E+05  2.649682E+04  6.883933E+04 -1.051432E+04 -8.563722E+03
       263   9  5.731801E+03 -3.547723E+05 -1.627202E+04  1.110205E+05 -2.079983E+03  2.182947E+03
       263  10 -1.016794E+05 -7.896692E+05 -1.160332E+05  1.120031E+05  1.433044E-09  8.648083E-09
       263  11 -5.311314E+04 -6.135676E+05 -7.074766E+04  6.982384E+04  1.952074E-09 -1.837112E-09
       263  12 -1.537435E+04 -4.410993E+05 -3.558785E+04  1.060075E+05 -1.482657E-10 -6.532319E-09
       263  13 -5.688522E+03 -3.979587E+05 -2.815375E+04  1.085114E+05  2.480890E-10 -1.088948E-09
       263  14  1.210187E+02 -3.961534E+05 -2.212410E+04  6.933162E+04  1.001682E-09  6.368540E-10
       263  15 -4.821228E+03 -3.979367E+05 -2.592988E+04  1.085139E+05  9.724552E-11 -4.112770E-09
       263  16  9.029194E+04 -6.105136E+03  5.971596E+04  1.050176E+05 -2.762755E-09  3.806339E-10
       263  17  5.335196E+04 -1.786951E+05  2.649648E+04  6.883925E+04 -2.651858E-11  1.809313E-10
       263  18  5.731795E+03 -3.547723E+05 -1.627203E+04  1.110205E+05 -6.219349E-10  1.090977E-09
       263  19 -1.016790E+05 -7.896691E+05 -1.160325E+05  1.120032E+05  1.848992E+04  6.338417E+03
       263  20 -5.311301E+04 -6.135675E+05 -7.074740E+04  6.982380E+04  1.054994E+04 -5.232034E+03
       263  21 -1.537427E+04 -4.410990E+05 -3.558731E+04  1.060075E+05  2.115661E+03 -1.680440E+04
       263  22 -5.688111E+03 -3.979584E+05 -2.815280E+04  1.085116E+05  1.847225E+04  1.282446E+04
       263  23  1.211385E+02 -3.961533E+05 -2.212389E+04  6.933164E+04  1.053214E+04  1.664648E+03
       263  24 -4.821199E+03 -3.979366E+05 -2.592971E+04  1.085139E+05  2.097792E+03 -9.493924E+03
       263  25  9.029240E+04 -6.104645E+03  5.971730E+04  1.050179E+05  1.845451E+04  1.931456E+04
       263  26  5.335210E+04 -1.786950E+05  2.649682E+04  6.883933E+04  1.051432E+04  8.563722E+03
       263  27  5.731801E+03 -3.547723E+05 -1.627202E+04  1.110205E+05  2.079983E+03 -2.182947E+03
       264   1  2.920289E+04 -2.949229E+05 -5.020519E+03  1.191210E+05  4.784005E+03  2.497460E+04
       264   2  7.062436E+04 -1.109346E+05  2.080530E+04  5.738795E+04  1.119085E+04  3.671739E+04
       264   3  3.847322E+04  5.373326E+04  2.071595E+04  7.337249E+04  4.341433E+03  4.842788E+04
       264   4  3.052076E+03 -4.018708E+05 -2.910545E+04  1.084319E+05  4.810408E+03  1.399915E+04
       264   5  1.685852E+03 -3.912443E+05 -4.313613E+04  6.946528E+04  1.119151E+04  3.686540E+04
       264   6 -7.520424E+04 -4.019132E+05 -9.082009E+04  1.082239E+05  4.314510E+03  5.969567E+04
       264   7 -2.309902E+04 -5.088076E+05 -5.319059E+04  9.774470E+04  4.837193E+03  3.025577E+03
       264   8 -6.725758E+04 -6.714808E+05 -1.070826E+05  8.153714E+04  1.119218E+04  3.701334E+04
       264   9 -1.888925E+05 -8.573677E+05 -2.023702E+05  1.430498E+05  4.288844E+03  7.095520E+04
       264  10  2.920270E+04 -2.949235E+05 -5.021734E+03  1.191209E+05  7.041591E-10  8.700082E-09
       264  11  7.062386E+04 -1.109361E+05  2.080254E+04  5.738762E+04  8.071776E-10  3.878365E-10
       264  12  3.847257E+04  5.373073E+04  2.071150E+04  7.337232E+04  1.896519E-10 -4.759781E-09
       264  13  3.051999E+03 -4.018711E+05 -2.910586E+04  1.084318E+05  8.571337E-10  3.742881E-11
       264  14  1.685353E+03 -3.912458E+05 -4.313892E+04  6.946494E+04 -1.415482E-09  2.802096E-09
       264  15 -7.520521E+04 -4.019171E+05 -9.082683E+04  1.082237E+05  1.321727E-09 -7.169639E-10
       264  16 -2.309905E+04 -5.088077E+05 -5.319065E+04  9.774468E+04 -1.422280E-09 -7.958238E-10
       264  17 -6.725808E+04 -6.714823E+05 -1.070854E+05  8.153681E+04  2.108518E-09 -1.398152E-09
       264  18 -1.888939E+05 -8.573731E+05 -2.023797E+05  1.430496E+05  1.659804E-09 -1.707801E-09
       264  19  2.920289E+04 -2.949229E+05 -5.020519E+03  1.191210E+05 -4.784005E+03 -2.497460E+04
       264  20  7.062436E+04 -1.109346E+05  2.080530E+04  5.738795E+04 -1.119085E+04 -3.671739E+04
       264  21  3.847322E+04  5.373326E+04  2.071595E+04  7.337249E+04 -4.341433E+03 -4.842788E+04
       264  22  3.052076E+03 -4.018708E+05 -2.910545E+04  1.084319E+05 -4.810408E+03 -1.399915E+04
       264  23  1.685852E+03 -3.912443E+05 -4.313613E+04  6.946528E+04 -1.119151E+04 -3.686540E+04
       264  24 -7.520424E+04 -4.019132E+05 -9.082009E+04  1.082239E+05 -4.314510E+03 -5.969567E+04
       264  25 -2.309902E+04 -5.088076E+05 -5.319059E+04  9.774470E+04 -4.837193E+03 -3.025577E+03
       264  26 -6.725758E+04 -6.714808E+05 -1.070826E+05  8.153714E+04 -1.119218E+04 -3.701334E+04
       264  27 -1.888925E+05 -8.573677E+05 -2.023702E+05  1.430498E+05 -4.288844E+03 -7.095520E+04
       265   1  3.576661E+05  1.189925E+05  6.605479E+04  1.401895E+05  3.809692E+04  1.405234E+04
       265   2  3.478639E+05  6.044105E+04  3.035443E+04  1.404226E+05  2.413332E+04  8.070727E+03
       265   3  3.545080E+05  5.025421E+04  1.774291E+04  1.318942E+05  9.839770E+03  2.960536E+03
       265   4  3.427023E+05  9.427045E+04  5.831089E+04  1.166621E+05  3.727991E+04  1.374125E+04
       265   5  3.313647E+05  4.797277E+04  2.509123E+04  1.294521E+05  2.400178E+04  8.020569E+03
       265   6  3.363380E+05  4.990374E+04  1.441753E+04  1.334804E+05  1.039358E+04  3.170555E+03
       265   7  3.277397E+05  6.955101E+04  5.056727E+04  9.313584E+04  3.646293E+04  1.343023E+04
       265   8  3.148658E+05  3.550492E+04  1.982805E+04  1.184820E+05  2.387024E+04  7.970415E+03
       265   9  3.181683E+05  4.955335E+04  1.109215E+04  1.350665E+05  1.094737E+04  3.380583E+03
       265  10  3.576645E+05  1.189919E+05  6.605169E+04  1.401891E+05  2.028984E-09  1.739757E-09
       265  11  3.478633E+05  6.044082E+04  3.035321E+04  1.404225E+05 -9.113853E-09  7.785913E-09
       265  12  3.545078E+05  5.025417E+04  1.774271E+04  1.318941E+05 -1.440381E-08  1.041703E-09
       265  13  3.427007E+05  9.426988E+04  5.830793E+04  1.166616E+05 -6.688025E-10 -1.034714E-08
       265  14  3.313640E+05  4.797255E+04  2.509003E+04  1.294520E+05 -1.689600E-09 -1.317581E-08
       265  15  3.363379E+05  4.990370E+04  1.441731E+04  1.334804E+05 -1.300405E-09 -1.916720E-09
       265  16  3.277383E+05  6.955046E+04  5.056444E+04  9.313544E+04 -1.730458E-09 -2.073896E-09
       265  17  3.148652E+05  3.550469E+04  1.982686E+04  1.184819E+05  6.057168E-09 -4.762884E-09
       265  18  3.181682E+05  4.955331E+04  1.109190E+04  1.350665E+05  1.028169E-08  7.032440E-09
       265  19  3.576661E+05  1.189925E+05  6.605479E+04  1.401895E+05 -3.809692E+04 -1.405234E+04
       265  20  3.478639E+05  6.044105E+04  3.035443E+04  1.404226E+05 -2.413332E+04 -8.070727E+03
       265  21  3.545080E+05  5.025421E+04  1.774291E+04  1.318942E+05 -9.839770E+03 -2.960536E+03
       265  22  3.427023E+05  9.427045E+04  5.831089E+04  1.166621E+05 -3.727991E+04 -1.374125E+04
       265  23  3.313647E+05  4.797277E+04  2.509123E+04  1.294521E+05 -2.400178E+04 -8.020569E+03
       265  24  3.363380E+05  4.990374E+04  1.441753E+04  1.334804E+05 -1.039358E+04 -3.170555E+03
       265  25  3.277397E+05  6.955101E+04  5.056727E+04  9.313584E+04 -3.646293E+04 -1.343023E+04
       265  26  3.148658E+05  3.550492E+04  1.982805E+04  1.184820E+05 -2.387024E+04 -7.970415E+03
       265  27  3.181683E+05  4.955335E+04  1.109215E+04  1.350665E+05 -1.094737E+04 -3.380583E+03
       266   1  3.403489E+05  5.785087E+04  1.312348E+04  1.332610E+05  8.098379E+03  2.696198E+03
       266   2  3.336153E+05  5.000678E+04  5.591185E+03  1.299217E+05  4.945986E+03  1.940423E+03
       266   3  3.257783E+05  4.803298E+04  1.157718E+03  1.289034E+05  1.778297E+03  1.225237E+03
       266   4  3.344951E+05  5.462246E+04  1.149090E+04  1.305862E+05  8.384469E+03  2.804612E+03
       266   5  3.348365E+05  5.020095E+04  5.841843E+03  1.299905E+05  5.264011E+03  2.060953E+03
       266   6  3.340682E+05  5.164337E+04  3.266336E+03  1.317157E+05  2.128226E+03  1.357863E+03
       266   7  3.286414E+05  5.139407E+04  9.858310E+03  1.279114E+05  8.670556E+03  2.913023E+03
       266   8  3.360578E+05  5.039512E+04  6.092500E+03  1.300592E+05  5.582036E+03  2.181483E+03
       266   9  3.423582E+05  5.525375E+04  5.374938E+03  1.345281E+05  2.478159E+03  1.490491E+03
       266  10  3.403488E+05  5.785085E+04  1.312334E+04  1.332610E+05  1.075705E-08  1.610603E-08
       266  11  3.336152E+05  5.000677E+04  5.591132E+03  1.299217E+05  2.320864E-09  6.580473E-09
       266  12  3.257783E+05  4.803298E+04  1.157709E+03  1.289034E+05 -1.242212E-08  3.540283E-09
       266  13  3.344951E+05  5.462244E+04  1.149075E+04  1.305862E+05 -1.916474E-09  6.193549E-09
       266  14  3.348365E+05  5.020094E+04  5.841783E+03  1.299905E+05  4.169584E-10 -1.616205E-08
       266  15  3.340682E+05  5.164336E+04  3.266324E+03  1.317157E+05 -4.142659E-09  8.980128E-09
       266  16  3.286413E+05  5.139404E+04  9.858153E+03  1.279113E+05 -1.461582E-08 -1.299524E-09
       266  17  3.360578E+05  5.039510E+04  6.092432E+03  1.300592E+05 -3.675256E-09  6.935635E-09
       266  18  3.423582E+05  5.525374E+04  5.374922E+03  1.345281E+05  6.904360E-09  1.412349E-08
       266  19  3.403489E+05  5.785087E+04  1.312348E+04  1.332610E+05 -8.098379E+03 -2.696198E+03
       266  20  3.336153E+05  5.000678E+04  5.591185E+03  1.299217E+05 -4.945986E+03 -1.940423E+03
       266  21  3.257783E+05  4.803298E+04  1.157718E+03  1.289034E+05 -1.778297E+03 -1.225237E+03
       266  22  3.344951E+05  5.462246E+04  1.149090E+04  1.305862E+05 -8.384469E+03 -2.804612E+03
       266  23  3.348365E+05  5.020095E+04  5.841843E+03  1.299905E+05 -5.264011E+03 -2.060953E+03
       266  24  3.340682E+05  5.164337E+04  3.266336E+03  1.317157E+05 -2.128226E+03 -1.357863E+03
       266  25  3.286414E+05  5.139407E+04  9.858310E+03  1.279114E+05 -8.670556E+03 -2.913023E+03
       266  26  3.360578E+05  5.039512E+04  6.092500E+03  1.300592E+05 -5.582036E+03 -2.181483E+03
       266  27  3.423582E+05  5.525375E+04  5.374938E+03  1.345281E+05 -2.478159E+03 -1.490491E+03
       267   1  3.183762E+05  4.613392E+04 -1.352788E+03  1.272237E+05  1.232495E+03  1.311010E+03
       267   2  3.120012E+05  4.170100E+04 -4.349219E+03  1.236160E+05  3.871465E+02  1.482559E+03
       267   3  3.031095E+05  4.018455E+04 -6.778866E+03  1.230197E+05 -4.590233E+02  1.656321E+03
       267   4  3.338933E+05  5.194889E+04  2.497908E+03  1.315050E+05  1.570136E+03  1.438974E+03
       267   5  3.351384E+05  5.039678E+04  1.359443E+03  1.300350E+05  7.265124E+02  1.611171E+03
       267   6  3.338664E+05  5.176086E+04  7.864398E+02  1.315763E+05 -1.179399E+02  1.785578E+03
       267   7  3.494108E+05  5.776390E+04  6.348606E+03  1.357864E+05  1.907788E+03  1.566942E+03
       267   8  3.582761E+05  5.909262E+04  7.068080E+03  1.364542E+05  1.065893E+03  1.739789E+03
       267   9  3.646242E+05  6.333723E+04  8.351676E+03  1.401333E+05  2.231620E+02  1.914842E+03
       267  10  3.183762E+05  4.613392E+04 -1.352794E+03  1.272237E+05 -7.914518E-09 -1.446353E-09
       267  11  3.120012E+05  4.170100E+04 -4.349224E+03  1.236160E+05 -1.462040E-09  3.155258E-09
       267  12  3.031095E+05  4.018454E+04 -6.778872E+03  1.230197E+05 -5.602262E-10  5.485657E-09
       267  13  3.338933E+05  5.194888E+04  2.497900E+03  1.315050E+05 -2.881176E-09  3.953888E-09
       267  14  3.351384E+05  5.039678E+04  1.359437E+03  1.300350E+05 -1.355111E-10  4.903646E-09
       267  15  3.338664E+05  5.176085E+04  7.864338E+02  1.315763E+05 -2.960944E-09  9.966999E-10
       267  16  3.494108E+05  5.776389E+04  6.348595E+03  1.357864E+05  9.771512E-10  1.473670E-08
       267  17  3.582761E+05  5.909261E+04  7.068072E+03  1.364541E+05 -1.826529E-09  1.507649E-08
       267  18  3.646242E+05  6.333723E+04  8.351669E+03  1.401333E+05 -2.759937E-09  3.087071E-09
       267  19  3.183762E+05  4.613392E+04 -1.352788E+03  1.272237E+05 -1.232495E+03 -1.311010E+03
       267  20  3.120012E+05  4.170100E+04 -4.349219E+03  1.236160E+05 -3.871465E+02 -1.482559E+03
       267  21  3.031095E+05  4.018455E+04 -6.778866E+03  1.230197E+05  4.590233E+02 -1.656321E+03
       267  22  3.338933E+05  5.194889E+04  2.497908E+03  1.315050E+05 -1.570136E+03 -1.438974E+03
       267  23  3.351384E+05  5.039678E+04  1.359443E+03  1.300350E+05 -7.265124E+02 -1.611171E+03
       267  24  3.338664E+05  5.176086E+04  7.864398E+02  1.315763E+05  1.179399E+02 -1.785578E+03
       267  25  3.494108E+05  5.776390E+04  6.348606E+03  1.357864E+05 -1.907788E+03 -1.566942E+03
       267  26  3.582761E+05  5.909262E+04  7.068080E+03  1.364542E+05 -1.065893E+03 -1.739789E+03
       267  27  3.646242E+05  6.333723E+04  8.351676E+03  1.401333E+05 -2.231620E+02 -1.914842E+03
       268   1  2.961948E+05  3.764536E+04 -8.692043E+03  1.211396E+05 -6.704454E+02  1.864699E+03
       268   2  2.898521E+05  3.341520E+04 -1.075308E+04  1.174973E+05 -1.046281E+03  2.218192E+03
       268   3  2.808475E+05  3.190388E+04 -1.265182E+04  1.169098E+05 -1.422364E+03  2.572460E+03
       268   4  3.338431E+05  5.177985E+04  6.209821E+02  1.315621E+05 -3.295180E+02  1.993890E+03
       268   5  3.351733E+05  5.041542E+04  4.235585E+02  1.300366E+05 -7.047648E+02  2.347593E+03
       268   6  3.338414E+05  5.176965E+04  3.879715E+02  1.315658E+05 -1.080264E+03  2.702069E+03
       268   7  3.714927E+05  6.591437E+04  9.933851E+03  1.419851E+05  1.143048E+01  2.123090E+03
       268   8  3.804965E+05  6.741578E+04  1.160004E+04  1.425767E+05 -3.632215E+02  2.477003E+03
       268   9  3.868383E+05  7.163571E+04  1.342761E+04  1.462230E+05 -7.381296E+02  2.831692E+03
       268  10  2.961947E+05  3.764535E+04 -8.692050E+03  1.211396E+05  9.271877E-10  2.074047E-09
       268  11  2.898521E+05  3.341520E+04 -1.075309E+04  1.174973E+05  2.244259E-09  1.240800E-09
       268  12  2.808475E+05  3.190387E+04 -1.265183E+04  1.169098E+05 -2.939486E-10 -2.805234E-09
       268  13  3.338431E+05  5.177984E+04  6.209744E+02  1.315621E+05 -1.121372E-09  5.808970E-09
       268  14  3.351733E+05  5.041541E+04  4.235472E+02  1.300366E+05 -9.108482E-10  1.336437E-09
       268  15  3.338414E+05  5.176964E+04  3.879556E+02  1.315658E+05 -2.437276E-09 -7.630025E-09
       268  16  3.714927E+05  6.591437E+04  9.933843E+03  1.419851E+05 -5.001467E-10  8.500637E-09
       268  17  3.804965E+05  6.741577E+04  1.160003E+04  1.425767E+05 -2.027112E-09  1.060947E-08
       268  18  3.868383E+05  7.163571E+04  1.342759E+04  1.462230E+05 -1.331159E-09  1.252949E-08
       268  19  2.961948E+05  3.764536E+04 -8.692043E+03  1.211396E+05  6.704454E+02 -1.864699E+03
       268  20  2.898521E+05  3.341520E+04 -1.075308E+04  1.174973E+05  1.046281E+03 -2.218192E+03
       268  21  2.808475E+05  3.190388E+04 -1.265182E+04  1.169098E+05  1.422364E+03 -2.572460E+03
       268  22  3.338431E+05  5.177985E+04  6.209821E+02  1.315621E+05  3.295180E+02 -1.993890E+03
       268  23  3.351733E+05  5.041542E+04  4.235585E+02  1.300366E+05  7.047648E+02 -2.347593E+03
       268  24  3.338414E+05  5.176965E+04  3.879715E+02  1.315658E+05  1.080264E+03 -2.702069E+03
       268  25  3.714927E+05  6.591437E+04  9.933851E+03  1.419851E+05 -1.143048E+01 -2.123090E+03
       268  26  3.804965E+05  6.741578E+04  1.160004E+04  1.425767E+05  3.632215E+02 -2.477003E+03
       268  27  3.868383E+05  7.163571E+04  1.342761E+04  1.462230E+05  7.381296E+02 -2.831692E+03
       269   1  2.739448E+05  2.931644E+04 -1.437536E+04  1.150172E+05 -1.586183E+03  2.800054E+03
       269   2  2.675574E+05  2.507057E+04 -1.606618E+04  1.113508E+05 -2.052631E+03  3.121910E+03
       269   3  2.585109E+05  2.357161E+04 -1.752444E+04  1.107591E+05 -2.519270E+03  3.444457E+03
       269   4  3.338414E+05  5.177314E+04  4.204045E+02  1.315712E+05 -1.243396E+03  2.929914E+03
       269   5  3.351720E+05  5.040700E+04  6.037714E+02  1.300310E+05 -1.709347E+03  3.251938E+03
       269   6  3.338433E+05  5.178765E+04  1.019281E+03  1.315656E+05 -2.175494E+03  3.574651E+03
       269   7  3.937416E+05  7.423009E+04  1.521589E+04  1.481267E+05 -9.005728E+02  3.059787E+03
       269   8  4.027910E+05  7.574369E+04  1.727333E+04  1.487131E+05 -1.366024E+03  3.381981E+03
       269   9  4.091809E+05  8.000395E+04  1.956247E+04  1.523742E+05 -1.831673E+03  3.704862E+03
       269  10  2.739448E+05  2.931643E+04 -1.437538E+04  1.150172E+05  1.054022E-08 -6.834326E-09
       269  11  2.675574E+05  2.507056E+04 -1.606621E+04  1.113508E+05  1.382512E-09 -1.469015E-08
       269  12  2.585109E+05  2.357159E+04 -1.752447E+04  1.107592E+05 -1.140547E-08 -7.920395E-09
       269  13  3.338414E+05  5.177313E+04  4.203854E+02  1.315712E+05  2.325731E-09  1.361501E-08
       269  14  3.351720E+05  5.040699E+04  6.037460E+02  1.300310E+05  4.123592E-09  7.975817E-09
       269  15  3.338433E+05  5.178763E+04  1.019248E+03  1.315656E+05  5.142790E-10 -1.450135E-09
       269  16  3.937416E+05  7.423008E+04  1.521587E+04  1.481267E+05 -7.098174E-09  4.453989E-09
       269  17  4.027910E+05  7.574368E+04  1.727330E+04  1.487131E+05  4.098202E-09  1.576318E-09
       269  18  4.091809E+05  8.000394E+04  1.956244E+04  1.523742E+05  1.358829E-08  1.266280E-08
       269  19  2.739448E+05  2.931644E+04 -1.437536E+04  1.150172E+05  1.586183E+03 -2.800054E+03
       269  20  2.675574E+05  2.507057E+04 -1.606618E+04  1.113508E+05  2.052631E+03 -3.121910E+03
       269  21  2.585109E+05  2.357161E+04 -1.752444E+04  1.107591E+05  2.519270E+03 -3.444457E+03
       269  22  3.338414E+05  5.177314E+04  4.204045E+02  1.315712E+05  1.243396E+03 -2.929914E+03
       269  23  3.351720E+05  5.040700E+04  6.037714E+02  1.300310E+05  1.709347E+03 -3.251938E+03
       269  24  3.338433E+05  5.178765E+04  1.019281E+03  1.315656E+05  2.175494E+03 -3.574651E+03
       269  25  3.937416E+05  7.423009E+04  1.521589E+04  1.481267E+05  9.005728E+02 -3.059787E+03
       269  26  4.027910E+05  7.574369E+04  1.727333E+04  1.487131E+05  1.366024E+03 -3.381981E+03
       269  27  4.091809E+05  8.000395E+04  1.956247E+04  1.523742E+05  1.831673E+03 -3.704862E+03
       270   1  2.515522E+05  2.097857E+04 -1.897892E+04  1.089294E+05 -2.813513E+03  3.625704E+03
       270   2  2.450511E+05  1.663081E+04 -1.982732E+04  1.051547E+05 -4.162663E+03  3.615368E+03
       270   3  2.361208E+05  1.541977E+04 -1.968980E+04  1.044253E+05 -5.509019E+03  3.597826E+03
       270   4  3.338782E+05  5.176309E+04  1.333006E+03  1.316011E+05 -2.466217E+03  3.757218E+03
       270   5  3.351156E+05  5.035919E+04  2.374733E+03  1.300157E+05 -3.821213E+03  3.744642E+03
       270   6  3.339249E+05  5.209317E+04  4.406947E+03  1.314758E+05 -5.173429E+03  3.724855E+03
       270   7  4.162112E+05  8.254822E+04  2.164452E+04  1.542756E+05 -2.118868E+03  3.888751E+03
       270   8  4.251883E+05  8.408820E+04  2.457622E+04  1.548802E+05 -3.479708E+03  3.873936E+03
       270   9  4.317385E+05  8.876726E+04  2.850297E+04  1.585301E+05 -4.837781E+03  3.851905E+03
       270  10  2.515522E+05  2.097855E+04 -1.897896E+04  1.089294E+05  3.487519E-09  3.575402E-09
       270  11  2.450511E+05  1.663080E+04 -1.982737E+04  1.051547E+05  3.174947E-10 -5.336119E-09
       270  12  2.361207E+05  1.541975E+04 -1.968988E+04  1.044253E+05 -2.264183E-09 -5.886905E-09
       270  13  3.338782E+05  5.176307E+04  1.332968E+03  1.316011E+05  1.044152E-10 -2.158747E-10
       270  14  3.351156E+05  5.035917E+04  2.374679E+03  1.300158E+05 -1.254431E-09  9.213203E-09
       270  15  3.339249E+05  5.209315E+04  4.406870E+03  1.314758E+05  2.236510E-09  5.390487E-10
       270  16  4.162112E+05  8.254820E+04  2.164449E+04  1.542756E+05 -2.380788E-09  3.202005E-09
       270  17  4.251882E+05  8.408818E+04  2.457617E+04  1.548802E+05 -4.035423E-10  1.488265E-09
       270  18  4.317385E+05  8.876723E+04  2.850290E+04  1.585301E+05  3.420222E-09  8.650308E-10
       270  19  2.515522E+05  2.097857E+04 -1.897892E+04  1.089294E+05  2.813513E+03 -3.625704E+03
       270  20  2.450511E+05  1.663081E+04 -1.982732E+04  1.051547E+05  4.162663E+03 -3.615368E+03
       270  21  2.361208E+05  1.541977E+04 -1.968980E+04  1.044253E+05  5.509019E+03 -3.597826E+03
       270  22  3.338782E+05  5.176309E+04  1.333006E+03  1.316011E+05  2.466217E+03 -3.757218E+03
       270  23  3.351156E+05  5.035919E+04  2.374733E+03  1.300157E+05  3.821213E+03 -3.744642E+03
       270  24  3.339249E+05  5.209317E+04  4.406947E+03  1.314758E+05  5.173429E+03 -3.724855E+03
       270  25  4.162112E+05  8.254822E+04  2.164452E+04  1.542756E+05  2.118868E+03 -3.888751E+03
       270  26  4.251883E+05  8.408820E+04  2.457622E+04  1.548802E+05  3.479708E+03 -3.873936E+03
       270  27  4.317385E+05  8.876726E+04  2.850297E+04  1.585301E+05  4.837781E+03 -3.851905E+03
       271   1  2.287495E+05  1.291330E+04 -2.009688E+04  1.036223E+05 -6.486415E+03  3.544940E+03
       271   2  2.222506E+05  7.429348E+03 -1.745529E+04  9.840756E+04 -1.176328E+04  2.014705E+03
       271   3  2.157633E+05  1.031058E+04 -9.483324E+03  9.505406E+04 -1.697070E+04  3.014020E+02
       271   4  3.342292E+05  5.155897E+04  5.773229E+03  1.318570E+05 -6.092820E+03  3.693925E+03
       271   5  3.345863E+05  5.000083E+04  1.034107E+04  1.299269E+05 -1.151468E+04  2.108734E+03
       271   6  3.349832E+05  5.683577E+04  2.035347E+04  1.298579E+05 -1.686719E+04  3.404336E+02
       271   7  4.397195E+05  9.020510E+04  3.164237E+04  1.600960E+05 -5.699153E+03  3.842934E+03
       271   8  4.469344E+05  9.257327E+04  3.813646E+04  1.614515E+05 -1.126603E+04  2.202783E+03
       271   9  4.542177E+05  1.033625E+05  5.018929E+04  1.646682E+05 -1.676365E+04  3.794745E+02
       271  10  2.287494E+05  1.291328E+04 -2.009699E+04  1.036223E+05 -1.817167E-09  2.098701E-09
       271  11  2.222504E+05  7.429307E+03 -1.745556E+04  9.840758E+04 -5.546837E-10  5.661923E-09
       271  12  2.157630E+05  1.031050E+04 -9.483865E+03  9.505407E+04  3.924381E-09  2.262535E-11
       271  13  3.342292E+05  5.155894E+04  5.773134E+03  1.318571E+05 -9.157755E-10 -1.179868E-08
       271  14  3.345861E+05  5.000079E+04  1.034081E+04  1.299270E+05  4.840686E-09  1.488194E-09
       271  15  3.349829E+05  5.683569E+04  2.035293E+04  1.298580E+05  1.985579E-09 -7.297722E-09
       271  16  4.397194E+05  9.020508E+04  3.164228E+04  1.600960E+05  3.509485E-09  4.981184E-09
       271  17  4.469343E+05  9.257323E+04  3.813621E+04  1.614515E+05  5.424125E-09 -1.406744E-08
       271  18  4.542174E+05  1.033624E+05  5.018877E+04  1.646682E+05 -4.376785E-10 -7.218571E-10
       271  19  2.287495E+05  1.291330E+04 -2.009688E+04  1.036223E+05  6.486415E+03 -3.544940E+03
       271  20  2.222506E+05  7.429348E+03 -1.745529E+04  9.840756E+04  1.176328E+04 -2.014705E+03
       271  21  2.157633E+05  1.031058E+04 -9.483324E+03  9.505406E+04  1.697070E+04 -3.014020E+02
       271  22  3.342292E+05  5.155897E+04  5.773229E+03  1.318570E+05  6.092820E+03 -3.693925E+03
       271  23  3.345863E+05  5.000083E+04  1.034107E+04  1.299269E+05  1.151468E+04 -2.108734E+03
       271  24  3.349832E+05  5.683577E+04  2.035347E+04  1.298579E+05  1.686719E+04 -3.404336E+02
       271  25  4.397195E+05  9.020510E+04  3.164237E+04  1.600960E+05  5.699153E+03 -3.842934E+03
       271  26  4.469344E+05  9.257327E+04  3.813646E+04  1.614515E+05  1.126603E+04 -2.202783E+03
       271  27  4.542177E+05  1.033625E+05  5.018929E+04  1.646682E+05  1.676365E+04 -3.794745E+02
       272   1  2.022356E+05  8.939947E+03 -5.868638E+03  1.090961E+05 -2.178543E+04 -7.302287E+02
       272   2  2.010533E+05 -1.280671E+04  1.073641E+04  8.246646E+04 -4.246696E+04 -8.897594E+03
       272   3  2.301884E+05  4.826756E+04  6.480846E+04  3.803858E+04 -6.164270E+04 -2.104277E+04
       272   4  3.382619E+05  4.846345E+04  2.553992E+04  1.349711E+05 -2.045666E+04 -2.268855E+02
       272   5  3.284211E+05  4.606293E+04  4.445048E+04  1.289870E+05 -4.427363E+04 -9.582424E+03
       272   6  3.495103E+05  1.270916E+05  1.033076E+05  1.052074E+05 -6.658459E+04 -2.291705E+04
       272   7  4.743069E+05  8.798686E+04  5.694743E+04  1.608505E+05 -1.912757E+04  2.765183E+02
       272   8  4.558042E+05  1.049359E+05  7.816293E+04  1.755167E+05 -4.608069E+04 -1.026748E+04
       272   9  4.688470E+05  2.059267E+05  1.418050E+05  1.723896E+05 -7.152744E+04 -2.479237E+04
       272  10  2.022351E+05  8.939819E+03 -5.869531E+03  1.090961E+05  2.918543E-09 -2.868517E-09
       272  11  2.010514E+05 -1.280728E+04  1.073287E+04  8.246616E+04  3.215817E-09 -6.506282E-09
       272  12  2.301842E+05  4.826606E+04  6.480049E+04  3.803754E+04  3.846481E-09  2.080414E-09
       272  13  3.382614E+05  4.846334E+04  2.553914E+04  1.349711E+05  2.379253E-09 -1.292248E-08
       272  14  3.284189E+05  4.606231E+04  4.444662E+04  1.289866E+05  2.008635E-10 -1.540603E-08
       272  15  3.495054E+05  1.270899E+05  1.032983E+05  1.052062E+05  1.678830E-09 -3.085060E-09
       272  16  4.743065E+05  8.798677E+04  5.694674E+04  1.608505E+05 -4.122540E-10  1.431833E-08
       272  17  4.558019E+05  1.049352E+05  7.815874E+04  1.755163E+05  4.326362E-09  1.414921E-08
       272  18  4.688413E+05  2.059247E+05  1.417943E+05  1.723882E+05 -8.149717E-10  7.813178E-09
       272  19  2.022356E+05  8.939947E+03 -5.868638E+03  1.090961E+05  2.178543E+04  7.302287E+02
       272  20  2.010533E+05 -1.280671E+04  1.073641E+04  8.246646E+04  4.246696E+04  8.897594E+03
       272  21  2.301884E+05  4.826756E+04  6.480846E+04  3.803858E+04  6.164270E+04  2.104277E+04
       272  22  3.382619E+05  4.846345E+04  2.553992E+04  1.349711E+05  2.045666E+04  2.268855E+02
       272  23  3.284211E+05  4.606293E+04  4.445048E+04  1.289870E+05  4.427363E+04  9.582424E+03
       272  24  3.495103E+05  1.270916E+05  1.033076E+05  1.052074E+05  6.658459E+04  2.291705E+04
       272  25  4.743069E+05  8.798686E+04  5.694743E+04  1.608505E+05  1.912757E+04 -2.765183E+02
       272  26  4.558042E+05  1.049359E+05  7.816293E+04  1.755167E+05  4.608069E+04  1.026748E+04
       272  27  4.688470E+05  2.059267E+05  1.418050E+05  1.723896E+05  7.152744E+04  2.479237E+04
       273   1 -6.598643E+04 -4.912070E+05 -7.201881E+04  2.675722E+04 -1.593007E+03 -2.972582E+04
       273   2 -2.831818E+04 -4.684988E+05 -4.537061E+04  1.331239E+04 -5.087339E+03 -1.690205E+04
       273   3 -2.325529E+04 -4.555492E+05 -3.522108E+04  7.676145E+03 -4.958868E+03 -4.066321E+03
       273   4 -3.185815E+04 -3.544805E+05 -3.871945E+04  1.197419E+04 -1.606126E+03 -2.530838E+04
       273   5  8.315405E+02 -3.498625E+05 -1.850040E+04  8.121415E+03 -5.091396E+03 -1.552421E+04
       273   6  1.446955E+03 -3.544735E+05 -1.266600E+04  1.207766E+04 -4.953777E+03 -5.728548E+03
       273   7  2.269565E+03 -2.177365E+05 -5.421266E+03 -2.812098E+03 -1.619454E+03 -2.088997E+04
       273   8  2.998039E+04 -2.312130E+05  8.368926E+03  2.929451E+03 -5.095476E+03 -1.414610E+04
       273   9  2.614858E+04 -2.533883E+05  9.888456E+03  1.647991E+04 -4.948709E+03 -7.391043E+03
       273  10 -6.598667E+04 -4.912079E+05 -7.202048E+04  2.675718E+04  4.039023E-09  5.929613E-09
       273  11 -2.831829E+04 -4.684991E+05 -4.537120E+04  1.331232E+04  9.412101E-09 -9.842369E-09
       273  12 -2.325532E+04 -4.555492E+05 -3.522116E+04  7.676128E+03 -8.681850E-10 -2.762033E-09
       273  13 -3.185833E+04 -3.544812E+05 -3.872066E+04  1.197415E+04  4.875504E-09  4.341576E-09
       273  14  8.314479E+02 -3.498628E+05 -1.850090E+04  8.121352E+03  5.012028E-09  1.088269E-08
       273  15  1.446920E+03 -3.544736E+05 -1.266611E+04  1.207764E+04  1.861128E-09 -1.439716E-08
       273  16  2.269445E+03 -2.177370E+05 -5.422091E+03 -2.812125E+03  5.426113E-10 -4.674109E-09
       273  17  2.998031E+04 -2.312132E+05  8.368501E+03  2.929393E+03  4.986133E-09  1.057493E-08
       273  18  2.614854E+04 -2.533884E+05  9.888307E+03  1.647989E+04  2.750641E-09 -3.988656E-09
       273  19 -6.598643E+04 -4.912070E+05 -7.201881E+04  2.675722E+04  1.593007E+03  2.972582E+04
       273  20 -2.831818E+04 -4.684988E+05 -4.537061E+04  1.331239E+04  5.087339E+03  1.690205E+04
       273  21 -2.325529E+04 -4.555492E+05 -3.522108E+04  7.676145E+03  4.958868E+03  4.066321E+03
       273  22 -3.185815E+04 -3.544805E+05 -3.871945E+04  1.197419E+04  1.606126E+03  2.530838E+04
       273  23  8.315405E+02 -3.498625E+05 -1.850040E+04  8.121415E+03  5.091396E+03  1.552421E+04
       273  24  1.446955E+03 -3.544735E+05 -1.266600E+04  1.207766E+04  4.953777E+03  5.728548E+03
       273  25  2.269565E+03 -2.177365E+05 -5.421266E+03 -2.812098E+03  1.619454E+03  2.088997E+04
       273  26  2.998039E+04 -2.312130E+05  8.368926E+03  2.929451E+03  5.095476E+03  1.414610E+04
       273  27  2.614858E+04 -2.533883E+05  9.888456E+03  1.647991E+04  4.948709E+03  7.391043E+03
       274   1 -2.285581E+04 -4.384264E+05 -3.060414E+04  1.344766E+04 -4.037829E+03 -3.177722E+03
       274   2 -1.639689E+04 -4.196218E+05 -2.519316E+04  8.182858E+03 -3.286146E+03  2.015293E+03
       274   3 -1.469867E+04 -4.026209E+05 -2.434077E+04  1.096228E+04 -2.380894E+03  7.208830E+03
       274   4 -1.877613E+03 -3.528189E+05 -1.140414E+04  1.210080E+04 -4.036028E+03 -3.757859E+03
       274   5  1.753793E+02 -3.519280E+05 -1.005601E+04  8.077754E+03 -3.283991E+03  1.306753E+03
       274   6 -2.509719E+03 -3.528185E+05 -1.317691E+04  1.209891E+04 -2.378374E+03  6.371742E+03
       274   7  1.910009E+04 -2.672047E+05  7.795403E+03  1.075375E+04 -4.034224E+03 -4.338074E+03
       274   8  1.674733E+04 -2.842299E+05  5.080846E+03  7.972641E+03 -3.281836E+03  5.981372E+02
       274   9  9.679068E+03 -3.030138E+05 -2.013204E+03  1.323564E+04 -2.375856E+03  5.534588E+03
       274  10 -2.285583E+04 -4.384264E+05 -3.060419E+04  1.344765E+04 -3.780492E-09  9.653975E-09
       274  11 -1.639690E+04 -4.196218E+05 -2.519318E+04  8.182863E+03  1.211981E-10 -5.681141E-09
       274  12 -1.469869E+04 -4.026210E+05 -2.434088E+04  1.096229E+04 -2.055565E-09 -4.081451E-09
       274  13 -1.877634E+03 -3.528190E+05 -1.140419E+04  1.210079E+04 -1.236732E-09  2.131386E-09
       274  14  1.753672E+02 -3.519280E+05 -1.005603E+04  8.077757E+03 -1.780685E-09  3.265472E-09
       274  15 -2.509736E+03 -3.528185E+05 -1.317700E+04  1.209893E+04 -3.131052E-09 -8.596285E-09
       274  16  1.910007E+04 -2.672047E+05  7.795337E+03  1.075374E+04  2.575386E-10 -5.299986E-09
       274  17  1.674732E+04 -2.842299E+05  5.080825E+03  7.972643E+03 -5.332976E-09  9.406731E-09
       274  18  9.679053E+03 -3.030138E+05 -2.013272E+03  1.323565E+04 -3.317686E-10 -6.256795E-09
       274  19 -2.285581E+04 -4.384264E+05 -3.060414E+04  1.344766E+04  4.037829E+03  3.177722E+03
       274  20 -1.639689E+04 -4.196218E+05 -2.519316E+04  8.182858E+03  3.286146E+03 -2.015293E+03
       274  21 -1.469867E+04 -4.026209E+05 -2.434077E+04  1.096228E+04  2.380894E+03 -7.208830E+03
       274  22 -1.877613E+03 -3.528189E+05 -1.140414E+04  1.210080E+04  4.036028E+03  3.757859E+03
       274  23  1.753793E+02 -3.519280E+05 -1.005601E+04  8.077754E+03  3.283991E+03 -1.306753E+03
       274  24 -2.509719E+03 -3.528185E+05 -1.317691E+04  1.209891E+04  2.378374E+03 -6.371742E+03
       274  25  1.910009E+04 -2.672047E+05  7.795403E+03  1.075375E+04  4.034224E+03  4.338074E+03
       274  26  1.674733E+04 -2.842299E+05  5.080846E+03  7.972641E+03  3.281836E+03 -5.981372E+02
       274  27  9.679068E+03 -3.030138E+05 -2.013204E+03  1.323564E+04  2.375856E+03 -5.534588E+03
       275   1 -6.452906E+03 -3.894489E+05 -2.291693E+04  1.827226E+04 -1.784114E+03  9.539358E+03
       275   2 -2.890507E+03 -3.655905E+05 -2.725052E+04  1.708845E+03 -9.105369E+02  2.186601E+04
       275   3 -4.112581E+04 -3.537280E+05 -5.004794E+04 -6.880906E+03 -2.602392E+02  3.419217E+04
       275   4  1.992720E+03 -3.550940E+05 -1.527569E+04  1.212120E+04 -1.781654E+03  8.681559E+03
       275   5  1.098090E+03 -3.490832E+05 -2.359390E+04  8.069574E+03 -9.083213E+02  2.119553E+04
       275   6 -4.162684E+04 -3.551014E+05 -5.050603E+04  1.199161E+04 -2.577699E+02  3.370866E+04
       275   7  1.043841E+04 -3.207379E+05 -7.634491E+03  5.969800E+03 -1.779177E+03  7.823714E+03
       275   8  5.086823E+03 -3.325755E+05 -1.993727E+04  1.443047E+04 -9.061194E+02  2.052502E+04
       275   9 -4.212653E+04 -3.564741E+05 -5.096393E+04  3.086409E+04 -2.553299E+02  3.322515E+04
       275  10 -6.452934E+03 -3.894490E+05 -2.291711E+04  1.827227E+04 -2.107554E-09 -1.110627E-08
       275  11 -2.890636E+03 -3.655910E+05 -2.725142E+04  1.708861E+03  3.260213E-09 -1.258815E-08
       275  12 -4.112613E+04 -3.537292E+05 -5.005014E+04 -6.880899E+03  1.145814E-09  1.341175E-08
       275  13  1.992696E+03 -3.550941E+05 -1.527583E+04  1.212121E+04  6.531018E-10 -2.141010E-09
       275  14  1.097969E+03 -3.490836E+05 -2.359474E+04  8.069589E+03  1.224748E-09  5.320782E-09
       275  15 -4.162715E+04 -3.551026E+05 -5.050817E+04  1.199162E+04  1.150824E-09 -6.649412E-09
       275  16  1.043839E+04 -3.207380E+05 -7.634612E+03  5.969811E+03  5.008939E-10  1.637910E-08
       275  17  5.086709E+03 -3.325760E+05 -1.993806E+04  1.443049E+04  1.442667E-10  8.801493E-09
       275  18 -4.212683E+04 -3.564753E+05 -5.096601E+04  3.086410E+04 -1.263014E-09 -2.054839E-08
       275  19 -6.452906E+03 -3.894489E+05 -2.291693E+04  1.827226E+04  1.784114E+03 -9.539358E+03
       275  20 -2.890507E+03 -3.655905E+05 -2.725052E+04  1.708845E+03  9.105369E+02 -2.186601E+04
       275  21 -4.112581E+04 -3.537280E+05 -5.004794E+04 -6.880906E+03  2.602392E+02 -3.419217E+04
       275  22  1.992720E+03 -3.550940E+05 -1.527569E+04  1.212120E+04  1.781654E+03 -8.681559E+03
       275  23  1.098090E+03 -3.490832E+05 -2.359390E+04  8.069574E+03  9.083213E+02 -2.119553E+04
       275  24 -4.162684E+04 -3.551014E+05 -5.050603E+04  1.199161E+04  2.577699E+02 -3.370866E+04
       275  25  1.043841E+04 -3.207379E+05 -7.634491E+03  5.969800E+03  1.779177E+03 -7.823714E+03
       275  26  5.086823E+03 -3.325755E+05 -1.993727E+04  1.443047E+04  9.061194E+02 -2.052502E+04
       275  27 -4.212653E+04 -3.564741E+05 -5.096393E+04  3.086409E+04  2.553299E+02 -3.322515E+04
       276   1 -2.183720E+05 -1.240978E+05 -1.105592E+05 -1.515586E+04  1.505016E+04  8.729226E+03
       276   2 -1.654500E+05 -1.542032E+05 -1.159002E+05 -1.598326E+04  1.661443E+04  2.722399E+04
       276   3 -1.016838E+05 -1.410044E+05 -1.113983E+05 -4.226771E+04  1.819812E+04  2.799142E+04
       276   4  4.646617E+05  4.563129E+04  5.540363E+04 -3.533377E+04  3.805207E+04  8.752597E+03
       276   5  4.579706E+05 -1.359635E+03  2.504928E+04 -2.258445E+04  2.471925E+04  2.722876E+04
       276   6  4.646926E+05 -2.484948E+03  1.486974E+04 -3.528967E+04  1.140585E+04  2.798561E+04
       276   7  1.148123E+06  2.153279E+05  2.213349E+05 -5.553405E+04  6.107920E+04  8.774460E+03
       276   8  1.081752E+06  1.514574E+05  1.659740E+05 -2.919240E+04  3.283213E+04  2.723335E+04
       276   9  1.031368E+06  1.360129E+05  1.411179E+05 -2.830523E+04  4.607436E+03  2.797965E+04
       276  10 -2.183723E+05 -1.240979E+05 -1.105597E+05 -1.515596E+04 -1.514979E-10 -1.358738E-12
       276  11 -1.654505E+05 -1.542040E+05 -1.159021E+05 -1.598363E+04 -1.335265E-10 -3.340836E-11
       276  12 -1.016843E+05 -1.410053E+05 -1.114004E+05 -4.226812E+04 -1.044036E-10 -2.600355E-11
       276  13  4.646601E+05  4.563081E+04  5.540077E+04 -3.533404E+04  7.539303E-10 -7.978032E-12
       276  14  4.579698E+05 -1.360595E+03  2.504673E+04 -2.258499E+04 -7.432977E-10 -2.625398E-12
       276  15  4.646923E+05 -2.485825E+03  1.486803E+04 -3.528993E+04  2.533688E-10  9.407347E-11
       276  16  1.148119E+06  2.153269E+05  2.213278E+05 -5.553448E+04 -9.125452E-11 -4.108122E-11
       276  17  1.081751E+06  1.514563E+05  1.659706E+05 -2.919312E+04 -2.659480E-10 -1.117145E-10
       276  18  1.031368E+06  1.360121E+05  1.411164E+05 -2.830534E+04  3.136998E-10  8.467875E-11
       276  19 -2.183720E+05 -1.240978E+05 -1.105592E+05 -1.515586E+04 -1.505016E+04 -8.729226E+03
       276  20 -1.654500E+05 -1.542032E+05 -1.159002E+05 -1.598326E+04 -1.661443E+04 -2.722399E+04
       276  21 -1.016838E+05 -1.410044E+05 -1.113983E+05 -4.226771E+04 -1.819812E+04 -2.799142E+04
       276  22  4.646617E+05  4.563129E+04  5.540363E+04 -3.533377E+04 -3.805207E+04 -8.752597E+03
       276  23  4.579706E+05 -1.359635E+03  2.504928E+04 -2.258445E+04 -2.471925E+04 -2.722876E+04
       276  24  4.646926E+05 -2.484948E+03  1.486974E+04 -3.528967E+04 -1.140585E+04 -2.798561E+04
       276  25  1.148123E+06  2.153279E+05  2.213349E+05 -5.553405E+04 -6.107920E+04 -8.774460E+03
       276  26  1.081752E+06  1.514574E+05  1.659740E+05 -2.919240E+04 -3.283213E+04 -2.723335E+04
       276  27  1.031368E+06  1.360129E+05  1.411179E+05 -2.830523E+04 -4.607436E+03 -2.797965E+04
       277   1 -5.434004E+04 -1.236704E+05 -1.038392E+05 -3.463272E+04  1.073481E+04  2.440383E+04
       277   2  2.791080E+03 -1.123855E+05 -9.607753E+04 -2.233750E+04  8.194192E+03  2.225201E+04
       277   3  6.106931E+04 -9.829826E+04 -8.593569E+04 -3.597029E+04  5.651914E+03  1.930980E+04
       277   4  4.620022E+05  2.718940E+03  1.187608E+04 -3.540680E+04  9.265609E+03  2.440163E+04
       277   5  4.613811E+05 -1.989536E+02  6.374643E+03 -2.244286E+04  6.058665E+03  2.225009E+04
       277   6  4.620186E+05 -2.000739E+02  3.714446E+03 -3.540569E+04  2.850292E+03  1.930844E+04
       277   7  9.785926E+05  1.290901E+05  1.275745E+05 -3.618155E+04  7.795197E+03  2.439943E+04
       277   8  9.201670E+05  1.119733E+05  1.088136E+05 -2.254831E+04  3.921576E+03  2.224818E+04
       277   9  8.631175E+05  9.788718E+04  9.335448E+04 -3.484072E+04  4.687892E+01  1.930708E+04
       277  10 -5.434033E+04 -1.236711E+05 -1.038405E+05 -3.463294E+04 -4.050895E-12 -5.287069E-11
       277  11  2.790875E+03 -1.123860E+05 -9.607858E+04 -2.233765E+04  7.376716E-11 -6.528039E-11
       277  12  6.106917E+04 -9.829867E+04 -8.593645E+04 -3.597038E+04 -1.074555E-10  2.544893E-11
       277  13  4.620019E+05  2.718277E+03  1.187480E+04 -3.540698E+04  3.019996E-10 -7.827807E-12
       277  14  4.613809E+05 -1.994952E+02  6.373643E+03 -2.244297E+04  1.634405E-10 -1.669249E-10
       277  15  4.620184E+05 -2.004766E+02  3.713730E+03 -3.540574E+04  8.539498E-12  8.611267E-11
       277  16  9.785923E+05  1.290895E+05  1.275733E+05 -3.618170E+04  1.473777E-10  3.512721E-11
       277  17  9.201668E+05  1.119727E+05  1.088126E+05 -2.254838E+04  5.578211E-14 -1.523847E-10
       277  18  8.631174E+05  9.788678E+04  9.335378E+04 -3.484072E+04  3.452601E-10  7.679586E-11
       277  19 -5.434004E+04 -1.236704E+05 -1.038392E+05 -3.463272E+04 -1.073481E+04 -2.440383E+04
       277  20  2.791080E+03 -1.123855E+05 -9.607753E+04 -2.233750E+04 -8.194192E+03 -2.225201E+04
       277  21  6.106931E+04 -9.829826E+04 -8.593569E+04 -3.597029E+04 -5.651914E+03 -1.930980E+04
       277  22  4.620022E+05  2.718940E+03  1.187608E+04 -3.540680E+04 -9.265609E+03 -2.440163E+04
       277  23  4.613811E+05 -1.989536E+02  6.374643E+03 -2.244286E+04 -6.058665E+03 -2.225009E+04
       277  24  4.620186E+05 -2.000739E+02  3.714446E+03 -3.540569E+04 -2.850292E+03 -1.930844E+04
       277  25  9.785926E+05  1.290901E+05  1.275745E+05 -3.618155E+04 -7.795197E+03 -2.439943E+04
       277  26  9.201670E+05  1.119733E+05  1.088136E+05 -2.254831E+04 -3.921576E+03 -2.224818E+04
       277  27  8.631175E+05  9.788718E+04  9.335448E+04 -3.484072E+04 -4.687892E+01 -1.930708E+04
       278   1  1.102208E+05 -8.584216E+04 -7.547586E+04 -3.543279E+04  4.829375E+03  1.742015E+04
       278   2  1.675146E+05 -7.199359E+04 -6.402071E+04 -2.251408E+04  4.039093E+03  1.435845E+04
       278   3  2.249984E+05 -5.796048E+04 -5.199647E+04 -3.540989E+04  3.247502E+03  1.126540E+04
       278   4  4.617902E+05  1.182069E+02  2.863217E+03 -3.538089E+04  2.271250E+03  1.741921E+04
       278   5  4.616989E+05 -4.284084E+01  1.648117E+03 -2.247401E+04  1.454125E+03  1.435798E+04
       278   6  4.618000E+05 -1.435146E+01  1.020827E+03 -3.538090E+04  6.357628E+02  1.126542E+04
       278   7  8.134747E+05  8.607020E+04  8.119458E+04 -3.532896E+04 -2.883086E+02  1.741828E+04
       278   8  7.559639E+05  7.190204E+04  6.731154E+04 -2.243392E+04 -1.132055E+03  1.435751E+04
       278   9  6.986539E+05  5.792796E+04  5.403460E+04 -3.535190E+04 -1.976962E+03  1.126543E+04
       278  10  1.102207E+05 -8.584249E+04 -7.547647E+04 -3.543286E+04 -2.101205E-10  1.694180E-11
       278  11  1.675145E+05 -7.199382E+04 -6.402113E+04 -2.251413E+04  2.232768E-10  2.792930E-11
       278  12  2.249983E+05 -5.796061E+04 -5.199672E+04 -3.540992E+04  1.041127E-10  4.939664E-12
       278  13  4.617901E+05  1.178797E+02  2.862637E+03 -3.538092E+04 -2.056952E-10  1.064001E-10
       278  14  4.616989E+05 -4.306283E+01  1.647725E+03 -2.247403E+04 -1.639589E-10  1.649034E-11
       278  15  4.618000E+05 -1.448788E+01  1.020587E+03 -3.538090E+04  1.684824E-10  4.523454E-12
       278  16  8.134747E+05  8.606987E+04  8.119401E+04 -3.532895E+04  2.391044E-10  1.816655E-10
       278  17  7.559638E+05  7.190182E+04  6.731115E+04 -2.243391E+04 -2.254221E-10  5.507842E-11
       278  18  6.986538E+05  5.792782E+04  5.403436E+04 -3.535188E+04 -2.757355E-10 -1.418325E-10
       278  19  1.102208E+05 -8.584216E+04 -7.547586E+04 -3.543279E+04 -4.829375E+03 -1.742015E+04
       278  20  1.675146E+05 -7.199359E+04 -6.402071E+04 -2.251408E+04 -4.039093E+03 -1.435845E+04
       278  21  2.249984E+05 -5.796048E+04 -5.199647E+04 -3.540989E+04 -3.247502E+03 -1.126540E+04
       278  22  4.617902E+05  1.182069E+02  2.863217E+03 -3.538089E+04 -2.271250E+03 -1.741921E+04
       278  23  4.616989E+05 -4.284084E+01  1.648117E+03 -2.247401E+04 -1.454125E+03 -1.435798E+04
       278  24  4.618000E+05 -1.435146E+01  1.020827E+03 -3.538090E+04 -6.357628E+02 -1.126542E+04
       278  25  8.134747E+05  8.607020E+04  8.119458E+04 -3.532896E+04  2.883086E+02 -1.741828E+04
       278  26  7.559639E+05  7.190204E+04  6.731154E+04 -2.243392E+04  1.132055E+03 -1.435751E+04
       278  27  6.986539E+05  5.792796E+04  5.403460E+04 -3.535190E+04  1.976962E+03 -1.126543E+04
       279   1  2.741332E+05 -4.585253E+04 -4.088562E+04 -3.536247E+04  3.066749E+03  9.459514E+03
       279   2  3.313259E+05 -3.189912E+04 -2.847762E+04 -2.248270E+04  2.753757E+03  6.367268E+03
       279   3  3.885659E+05 -1.792401E+04 -1.586127E+04 -3.534259E+04  2.440176E+03  3.275477E+03
       279   4  4.617718E+05  3.512439E+00  8.316291E+02 -3.536435E+04  4.682353E+02  9.459746E+03
       279   5  4.617522E+05 -3.273302E+00  6.322753E+02 -2.249470E+04  1.554221E+02  6.367705E+03
       279   6  4.617760E+05  1.157582E+01  6.409937E+02 -3.536436E+04 -1.579517E+02  3.276132E+03
       279   7  6.494432E+05  4.585718E+04  4.254671E+04 -3.536624E+04 -2.131055E+03  9.459977E+03
       279   8  5.921944E+05  3.189142E+04  2.974113E+04 -2.250669E+04 -2.443452E+03  6.368142E+03
       279   9  5.349912E+05  1.794680E+04  1.714294E+04 -3.538613E+04 -2.756382E+03  3.276788E+03
       279  10  2.741332E+05 -4.585263E+04 -4.088580E+04 -3.536249E+04 -4.335880E-10  8.070149E-11
       279  11  3.313258E+05 -3.189917E+04 -2.847771E+04 -2.248272E+04  3.516806E-10  1.936584E-10
       279  12  3.885659E+05 -1.792403E+04 -1.586130E+04 -3.534259E+04  2.021963E-10 -1.809144E-10
       279  13  4.617717E+05  3.416266E+00  8.314605E+02 -3.536436E+04 -2.921538E-10  1.118889E-12
       279  14  4.617522E+05 -3.316859E+00  6.321990E+02 -2.249470E+04 -7.371426E-11  1.530120E-10
       279  15  4.617760E+05  1.156429E+01  6.409735E+02 -3.536436E+04  3.712822E-10  3.674986E-12
       279  16  6.494431E+05  4.585708E+04  4.254653E+04 -3.536622E+04  3.878668E-10 -4.145343E-11
       279  17  5.921944E+05  3.189138E+04  2.974104E+04 -2.250668E+04 -4.913198E-11  1.999429E-10
       279  18  5.349911E+05  1.794679E+04  1.714291E+04 -3.538612E+04 -4.110567E-10 -7.091273E-11
       279  19  2.741332E+05 -4.585253E+04 -4.088562E+04 -3.536247E+04 -3.066749E+03 -9.459514E+03
       279  20  3.313259E+05 -3.189912E+04 -2.847762E+04 -2.248270E+04 -2.753757E+03 -6.367268E+03
       279  21  3.885659E+05 -1.792401E+04 -1.586127E+04 -3.534259E+04 -2.440176E+03 -3.275477E+03
       279  22  4.617718E+05  3.512439E+00  8.316291E+02 -3.536435E+04 -4.682353E+02 -9.459746E+03
       279  23  4.617522E+05 -3.273302E+00  6.322753E+02 -2.249470E+04 -1.554221E+02 -6.367705E+03
       279  24  4.617760E+05  1.157582E+01  6.409937E+02 -3.536436E+04  1.579517E+02 -3.276132E+03
       279  25  6.494432E+05  4.585718E+04  4.254671E+04 -3.536624E+04  2.131055E+03 -9.459977E+03
       279  26  5.921944E+05  3.189142E+04  2.974113E+04 -2.250669E+04  2.443452E+03 -6.368142E+03
       279  27  5.349912E+05  1.794680E+04  1.714294E+04 -3.538613E+04  2.756382E+03 -3.276788E+03
       280   1  4.376475E+05 -5.857605E+03 -4.505957E+03 -3.534235E+04  2.315833E+03  1.476492E+03
       280   2  4.947956E+05  8.077332E+03  8.420169E+03 -2.247288E+04  1.797659E+03 -1.613575E+03
       280   3  5.520118E+05  2.205129E+04  2.168986E+04 -3.532340E+04  1.279578E+03 -4.702821E+03
       280   4  4.617819E+05  1.142146E+01  7.168090E+02 -3.536008E+04 -2.817225E+02  1.477197E+03
       280   5  4.617489E+05 -3.475214E+00  1.045089E+03 -2.250004E+04 -7.992897E+02 -1.612930E+03
       280   6  4.617807E+05  2.075086E+01  1.716665E+03 -3.536007E+04 -1.316716E+03 -4.702224E+03
       280   7  4.859169E+05  5.880413E+03  5.939565E+03 -3.537782E+04 -2.879377E+03  1.477902E+03
       280   8  4.287031E+05 -8.084353E+03 -6.330034E+03 -2.252719E+04 -3.396101E+03 -1.612286E+03
       280   9  3.715572E+05 -2.201033E+04 -1.825701E+04 -3.539673E+04 -3.912638E+03 -4.701626E+03
       280  10  4.376475E+05 -5.857609E+03 -4.505971E+03 -3.534235E+04 -3.157724E-11 -1.680132E-10
       280  11  4.947956E+05  8.077328E+03  8.420159E+03 -2.247287E+04  8.318977E-11  1.748936E-10
       280  12  5.520118E+05  2.205126E+04  2.168981E+04 -3.532340E+04 -6.342915E-10  6.896416E-10
       280  13  4.617819E+05  1.141909E+01  7.168047E+02 -3.536008E+04  1.359072E-10 -8.872789E-11
       280  14  4.617489E+05 -3.478179E+00  1.045083E+03 -2.250004E+04  3.547452E-10  1.788307E-10
       280  15  4.617807E+05  2.072665E+01  1.716620E+03 -3.536008E+04 -1.019390E-10  8.239919E-10
       280  16  4.859169E+05  5.880409E+03  5.939546E+03 -3.537781E+04  5.138231E-10 -1.375621E-10
       280  17  4.287031E+05 -8.084359E+03 -6.330060E+03 -2.252720E+04  3.823399E-10  1.846435E-10
       280  18  3.715572E+05 -2.201036E+04 -1.825708E+04 -3.539675E+04  6.001770E-10  7.972451E-10
       280  19  4.376475E+05 -5.857605E+03 -4.505957E+03 -3.534235E+04 -2.315833E+03 -1.476492E+03
       280  20  4.947956E+05  8.077332E+03  8.420169E+03 -2.247288E+04 -1.797659E+03  1.613575E+03
       280  21  5.520118E+05  2.205129E+04  2.168986E+04 -3.532340E+04 -1.279578E+03  4.702821E+03
       280  22  4.617819E+05  1.142146E+01  7.168090E+02 -3.536008E+04  2.817225E+02 -1.477197E+03
       280  23  4.617489E+05 -3.475214E+00  1.045089E+03 -2.250004E+04  7.992897E+02  1.612930E+03
       280  24  4.617807E+05  2.075086E+01  1.716665E+03 -3.536007E+04  1.316716E+03  4.702224E+03
       280  25  4.859169E+05  5.880413E+03  5.939565E+03 -3.537782E+04  2.879377E+03 -1.477902E+03
       280  26  4.287031E+05 -8.084353E+03 -6.330034E+03 -2.252719E+04  3.396101E+03  1.612286E+03
       280  27  3.715572E+05 -2.201033E+04 -1.825701E+04 -3.539673E+04  3.912638E+03  4.701626E+03
       281   1  6.011846E+05  3.408254E+04  3.348456E+04 -3.526600E+04  9.340421E+02 -6.505255E+03
       281   2  6.582797E+05  4.801576E+04  4.769821E+04 -2.241589E+04 -9.864917E+02 -9.592465E+03
       281   3  7.157513E+05  6.240665E+04  6.327694E+04 -3.532878E+04 -2.906338E+03 -1.265192E+04
       281   4  4.618460E+05 -1.966709E+01  2.228299E+03 -3.536974E+04 -1.672929E+03 -6.504773E+03
       281   5  4.616573E+05 -5.943471E+01  3.819863E+03 -2.248794E+04 -3.569673E+03 -9.592312E+03
       281   6  4.618390E+05  3.549059E+02  6.760747E+03 -3.536966E+04 -5.465557E+03 -1.265208E+04
       281   7  3.225254E+05 -3.412319E+04 -2.902917E+04 -3.547345E+04 -4.279322E+03 -6.504291E+03
       281   8  2.650709E+05 -4.813725E+04 -4.006088E+04 -2.255997E+04 -6.152046E+03 -9.592159E+03
       281   9  2.079867E+05 -6.170120E+04 -4.975945E+04 -3.541051E+04 -8.023742E+03 -1.265224E+04
       281  10  6.011846E+05  3.408249E+04  3.348448E+04 -3.526600E+04  2.199604E-09  6.338937E-10
       281  11  6.582797E+05  4.801566E+04  4.769803E+04 -2.241589E+04 -6.760414E-09 -2.535405E-10
       281  12  7.157512E+05  6.240647E+04  6.327663E+04 -3.532881E+04 -1.299214E-08 -1.611428E-09
       281  13  4.618459E+05 -1.971329E+01  2.228215E+03 -3.536975E+04 -2.851279E-10  7.291392E-10
       281  14  4.616572E+05 -5.953696E+01  3.819666E+03 -2.248797E+04 -3.138456E-10 -2.816010E-10
       281  15  4.618389E+05  3.547260E+02  6.760390E+03 -3.536971E+04 -1.801463E-10 -1.578429E-09
       281  16  3.225254E+05 -3.412324E+04 -2.902928E+04 -3.547347E+04 -1.939292E-09  8.540653E-10
       281  17  2.650708E+05 -4.813736E+04 -4.006113E+04 -2.256002E+04  6.220816E-09 -2.086334E-10
       281  18  2.079866E+05 -6.170139E+04 -4.975988E+04 -3.541059E+04  1.276222E-08 -1.510501E-09
       281  19  6.011846E+05  3.408254E+04  3.348456E+04 -3.526600E+04 -9.340421E+02  6.505255E+03
       281  20  6.582797E+05  4.801576E+04  4.769821E+04 -2.241589E+04  9.864917E+02  9.592465E+03
       281  21  7.157513E+05  6.240665E+04  6.327694E+04 -3.532878E+04  2.906338E+03  1.265192E+04
       281  22  4.618460E+05 -1.966709E+01  2.228299E+03 -3.536974E+04  1.672929E+03  6.504773E+03
       281  23  4.616573E+05 -5.943471E+01  3.819863E+03 -2.248794E+04  3.569673E+03  9.592312E+03
       281  24  4.618390E+05  3.549059E+02  6.760747E+03 -3.536966E+04  5.465557E+03  1.265208E+04
       281  25  3.225254E+05 -3.412319E+04 -2.902917E+04 -3.547345E+04  4.279322E+03  6.504291E+03
       281  26  2.650709E+05 -4.813725E+04 -4.006088E+04 -2.255997E+04  6.152046E+03  9.592159E+03
       281  27  2.079867E+05 -6.170120E+04 -4.975945E+04 -3.541051E+04  8.023742E+03  1.265224E+04
       282   1  7.655544E+05  7.375290E+04  7.659947E+04 -3.416778E+04 -4.067811E+03 -1.452460E+04
       282   2  8.216314E+05  8.782410E+04  9.572728E+04 -2.298559E+04 -1.228706E+04 -1.748013E+04
       282   3  8.806104E+05  1.089601E+05  1.219809E+05 -3.763938E+04 -2.050596E+04 -1.975664E+04
       282   4  4.623728E+05 -4.008325E+02  8.800622E+03 -3.538566E+04 -6.835876E+03 -1.452504E+04
       282   5  4.609651E+05 -3.645352E+02  1.518622E+04 -2.246780E+04 -1.448025E+04 -1.748112E+04
       282   6  4.623579E+05  6.639372E+03  2.830174E+04 -3.538667E+04 -2.212353E+04 -1.975805E+04
       282   7  1.592767E+05 -7.456080E+04 -5.900399E+04 -3.660294E+04 -9.602605E+03 -1.452546E+04
       282   8  1.004199E+05 -8.856201E+04 -6.536298E+04 -2.195032E+04 -1.667219E+04 -1.748212E+04
       282   9  4.426821E+04 -9.569323E+04 -6.538844E+04 -3.313549E+04 -2.374003E+04 -1.975947E+04
       282  10  7.655544E+05  7.375267E+04  7.659904E+04 -3.416783E+04  1.220762E-08 -1.558546E-09
       282  11  8.216312E+05  8.782373E+04  9.572642E+04 -2.298576E+04  6.872406E-09 -1.960240E-11
       282  12  8.806098E+05  1.089596E+05  1.219794E+05 -3.763970E+04 -2.482599E-09  8.373779E-10
       282  13  4.623727E+05 -4.010717E+02  8.800137E+03 -3.538574E+04 -5.545721E-10 -1.466397E-09
       282  14  4.609648E+05 -3.649196E+02  1.518526E+04 -2.246801E+04 -4.749982E-10  2.546882E-11
       282  15  4.623573E+05  6.638822E+03  2.830009E+04 -3.538702E+04 -2.873916E-10  8.218107E-10
       282  16  1.592766E+05 -7.456106E+04 -5.900456E+04 -3.660305E+04 -1.249153E-08 -1.406704E-09
       282  17  1.004195E+05 -8.856241E+04 -6.536408E+04 -2.195056E+04 -6.497138E-09 -5.947703E-12
       282  18  4.426750E+04 -9.569380E+04 -6.539023E+04 -3.313587E+04  2.168384E-09  8.879618E-10
       282  19  7.655544E+05  7.375290E+04  7.659947E+04 -3.416778E+04  4.067811E+03  1.452460E+04
       282  20  8.216314E+05  8.782410E+04  9.572728E+04 -2.298559E+04  1.228706E+04  1.748013E+04
       282  21  8.806104E+05  1.089601E+05  1.219809E+05 -3.763938E+04  2.050596E+04  1.975664E+04
       282  22  4.623728E+05 -4.008325E+02  8.800622E+03 -3.538566E+04  6.835876E+03  1.452504E+04
       282  23  4.609651E+05 -3.645352E+02  1.518622E+04 -2.246780E+04  1.448025E+04  1.748112E+04
       282  24  4.623579E+05  6.639372E+03  2.830174E+04 -3.538667E+04  2.212353E+04  1.975805E+04
       282  25  1.592767E+05 -7.456080E+04 -5.900399E+04 -3.660294E+04  9.602605E+03  1.452546E+04
       282  26  1.004199E+05 -8.856201E+04 -6.536298E+04 -2.195032E+04  1.667219E+04  1.748212E+04
       282  27  4.426821E+04 -9.569323E+04 -6.538844E+04 -3.313549E+04  2.374003E+04  1.975947E+04
       283   1  9.368141E+05  1.086597E+05  1.397387E+05 -1.915963E+04 -2.103113E+04 -2.308519E+04
       283   2  9.779808E+05  1.255987E+05  1.784153E+05 -3.908827E+04 -6.561644E+04 -2.287280E+04
       283   3  1.052947E+06  2.539997E+05  2.739848E+05 -8.447064E+04 -1.102179E+05 -7.435305E+03
       283   4  4.687522E+05 -5.751763E+03  3.543762E+04 -3.528274E+04 -2.722603E+04 -2.308794E+04
       283   5  4.529319E+05 -3.035842E+03  5.975874E+04 -2.259111E+04 -5.898584E+04 -2.287241E+04
       283   6  4.687109E+05  1.089647E+05  1.321016E+05 -3.535031E+04 -9.075673E+04 -7.430707E+03
       283   7  8.949580E+02 -1.201770E+05 -6.887686E+04 -5.139359E+04 -3.341630E+04 -2.309037E+04
       283   8 -7.186040E+04 -1.316882E+05 -5.891525E+04 -6.108053E+03 -5.236077E+04 -2.287168E+04
       283   9 -1.152082E+05 -3.608595E+04 -9.803558E+03  1.372368E+04 -7.131374E+04 -7.423034E+03
       283  10  9.368135E+05  1.086590E+05  1.397368E+05 -1.916002E+04  6.397892E-10  8.595871E-10
       283  11  9.779760E+05  1.255970E+05  1.784063E+05 -3.908948E+04  3.347115E-10  2.180771E-10
       283  12  1.052934E+06  2.539963E+05  2.739619E+05 -8.447130E+04 -1.837806E-10 -1.211511E-10
       283  13  4.687513E+05 -5.752534E+03  3.543523E+04 -3.528324E+04 -3.224535E-10  7.172605E-10
       283  14  4.529281E+05 -3.037337E+03  5.975122E+04 -2.259220E+04 -5.995651E-10 -8.285171E-11
       283  15  4.687020E+05  1.089625E+05  1.320860E+05 -3.535086E+04 -5.614628E-10 -7.323719E-11
       283  16  8.936156E+02 -1.201779E+05 -6.887996E+04 -5.139421E+04 -6.037838E-10  7.384483E-10
       283  17 -7.186348E+04 -1.316895E+05 -5.892139E+04 -6.109018E+03 -3.350587E-10  2.083224E-10
       283  18 -1.152137E+05 -3.608738E+04 -9.813220E+03  1.372325E+04  4.181817E-10 -7.492610E-11
       283  19  9.368141E+05  1.086597E+05  1.397387E+05 -1.915963E+04  2.103113E+04  2.308519E+04
       283  20  9.779808E+05  1.255987E+05  1.784153E+05 -3.908827E+04  6.561644E+04  2.287280E+04
       283  21  1.052947E+06  2.539997E+05  2.739848E+05 -8.447064E+04  1.102179E+05  7.435305E+03
       283  22  4.687522E+05 -5.751763E+03  3.543762E+04 -3.528274E+04  2.722603E+04  2.308794E+04
       283  23  4.529319E+05 -3.035842E+03  5.975874E+04 -2.259111E+04  5.898584E+04  2.287241E+04
       283  24  4.687109E+05  1.089647E+05  1.321016E+05 -3.535031E+04  9.075673E+04  7.430707E+03
       283  25  8.949580E+02 -1.201770E+05 -6.887686E+04 -5.139359E+04  3.341630E+04  2.309037E+04
       283  26 -7.186040E+04 -1.316882E+05 -5.891525E+04 -6.108053E+03  5.236077E+04  2.287168E+04
       283  27 -1.152082E+05 -3.608595E+04 -9.803558E+03  1.372368E+04  7.131374E+04  7.423034E+03
       284   1  1.556532E+05  9.289640E+05  1.658728E+05 -9.835155E+04  4.069079E+03  6.000960E+04
       284   2  6.565425E+04  8.047615E+05  9.370943E+04 -5.513034E+04  1.130277E+04  3.399545E+04
       284   3  3.601473E+04  6.988957E+05  5.352843E+04 -6.310367E+04  7.584939E+03  7.971293E+03
       284   4  5.875654E+04  5.395864E+05  7.086488E+04 -7.144399E+04  4.086231E+03  4.933572E+04
       284   5 -1.466674E+03  5.312335E+05  3.158201E+04 -4.588987E+04  1.130569E+04  3.254040E+04
       284   6 -2.913098E+03  5.396200E+05  1.789880E+04 -7.152839E+04  7.572948E+03  1.573018E+04
       284   7 -3.814859E+04  1.503486E+05 -2.415326E+04 -4.455326E+04  4.102466E+03  3.866850E+04
       284   8 -6.859244E+04  2.577750E+05 -3.055020E+04 -3.665347E+04  1.130857E+04  3.108599E+04
       284   9 -4.184235E+04  3.803682E+05 -1.773217E+04 -7.995093E+04  7.560745E+03  2.348710E+04
       284  10  1.556522E+05  9.289601E+05  1.658660E+05 -9.835175E+04  5.729617E-11 -2.328527E-10
       284  11  6.565380E+04  8.047602E+05  9.370702E+04 -5.513064E+04 -3.067860E-10  3.209188E-11
       284  12  3.601465E+04  6.988957E+05  5.352821E+04 -6.310371E+04  9.133543E-10  2.744407E-10
       284  13  5.875587E+04  5.395838E+05  7.086028E+04 -7.144415E+04  4.141297E-10 -4.821766E-11
       284  14 -1.467095E+03  5.312323E+05  3.157978E+04 -4.589016E+04 -1.709518E-09  1.908683E-10
       284  15 -2.913226E+03  5.396197E+05  1.789823E+04 -7.152849E+04  4.274392E-10 -1.354755E-11
       284  16 -3.814901E+04  1.503470E+05 -2.415610E+04 -4.455339E+04 -1.366169E-10  2.653845E-10
       284  17 -6.859284E+04  2.577740E+05 -3.055226E+04 -3.665376E+04 -6.771104E-10 -1.043729E-11
       284  18 -4.184256E+04  3.803676E+05 -1.773331E+04 -7.995107E+04 -1.002023E-10 -3.146945E-10
       284  19  1.556532E+05  9.289640E+05  1.658728E+05 -9.835155E+04 -4.069079E+03 -6.000960E+04
       284  20  6.565425E+04  8.047615E+05  9.370943E+04 -5.513034E+04 -1.130277E+04 -3.399545E+04
       284  21  3.601473E+04  6.988957E+05  5.352843E+04 -6.310367E+04 -7.584939E+03 -7.971293E+03
       284  22  5.875654E+04  5.395864E+05  7.086488E+04 -7.144399E+04 -4.086231E+03 -4.933572E+04
       284  23 -1.466674E+03  5.312335E+05  3.158201E+04 -4.588987E+04 -1.130569E+04 -3.254040E+04
       284  24 -2.913098E+03  5.396200E+05  1.789880E+04 -7.152839E+04 -7.572948E+03 -1.573018E+04
       284  25 -3.814859E+04  1.503486E+05 -2.415326E+04 -4.455326E+04 -4.102466E+03 -3.866850E+04
       284  26 -6.859244E+04  2.577750E+05 -3.055020E+04 -3.665347E+04 -1.130857E+04 -3.108599E+04
       284  27 -4.184235E+04  3.803682E+05 -1.773217E+04 -7.995093E+04 -7.560745E+03 -2.348710E+04
       285   1  1.866631E+04  5.965098E+05  2.721159E+04 -7.269558E+04  2.819512E+03  8.569203E+03
       285   2 -1.329535E+04  4.812319E+05 -6.752949E+03 -4.612176E+04 -2.644233E+03  5.940029E+03
       285   3 -4.261593E+04  3.667846E+05 -3.839122E+04 -7.115973E+04 -7.986574E+03  3.311942E+03
       285   4  3.876264E+03  5.360882E+05  1.366457E+04 -7.159494E+04  2.812239E+03  1.321618E+04
       285   5  1.673216E+01  5.356693E+05  5.407449E+03 -4.579312E+04 -2.651176E+03  1.048524E+04
       285   6 -1.182913E+03  5.360874E+05 -4.511046E+02 -7.160267E+04 -7.993231E+03  7.754912E+03
       285   7 -1.091402E+04  4.756701E+05  1.173925E+02 -7.049441E+04  2.804982E+03  1.786271E+04
       285   8  1.332862E+04  5.901096E+05  1.756774E+04 -4.546445E+04 -2.658113E+03  1.503084E+04
       285   9  4.024816E+04  7.054168E+05  3.748727E+04 -7.204572E+04 -7.999894E+03  1.219908E+04
       285  10  1.866628E+04  5.965097E+05  2.721144E+04 -7.269560E+04  9.619479E-11 -6.228275E-10
       285  11 -1.329536E+04  4.812318E+05 -6.753028E+03 -4.612175E+04  1.325010E-10 -4.372427E-10
       285  12 -4.261600E+04  3.667846E+05 -3.839136E+04 -7.115971E+04 -7.031753E-10 -1.522545E-11
       285  13  3.876208E+03  5.360880E+05  1.366422E+04 -7.159497E+04  9.487750E-11  2.136607E-11
       285  14  1.669513E+01  5.356692E+05  5.407229E+03 -4.579310E+04  8.886645E-10 -1.949166E-10
       285  15 -1.182998E+03  5.360873E+05 -4.513376E+02 -7.160262E+04  9.562244E-10 -1.854145E-10
       285  16 -1.091411E+04  4.756697E+05  1.167785E+02 -7.049445E+04  1.276350E-10  6.298411E-10
       285  17  1.332855E+04  5.901093E+05  1.756730E+04 -4.546442E+04 -7.095473E-10  4.188746E-10
       285  18  4.024805E+04  7.054167E+05  3.748687E+04 -7.204564E+04 -4.336017E-10  5.713424E-11
       285  19  1.866631E+04  5.965098E+05  2.721159E+04 -7.269558E+04 -2.819512E+03 -8.569203E+03
       285  20 -1.329535E+04  4.812319E+05 -6.752949E+03 -4.612176E+04  2.644233E+03 -5.940029E+03
       285  21 -4.261593E+04  3.667846E+05 -3.839122E+04 -7.115973E+04  7.986574E+03 -3.311942E+03
       285  22  3.876264E+03  5.360882E+05  1.366457E+04 -7.159494E+04 -2.812239E+03 -1.321618E+04
       285  23  1.673216E+01  5.356693E+05  5.407449E+03 -4.579312E+04  2.651176E+03 -1.048524E+04
       285  24 -1.182913E+03  5.360874E+05 -4.511046E+02 -7.160267E+04  7.993231E+03 -7.754912E+03
       285  25 -1.091402E+04  4.756701E+05  1.173925E+02 -7.049441E+04 -2.804982E+03 -1.786271E+04
       285  26  1.332862E+04  5.901096E+05  1.756774E+04 -4.546445E+04  2.658113E+03 -1.503084E+04
       285  27  4.024816E+04  7.054168E+05  3.748727E+04 -7.204572E+04  7.999894E+03 -1.219908E+04
       286   1 -6.421321E+04  2.664898E+05 -6.278379E+04 -6.835348E+04 -1.300729E+04 -4.650030E+02
       286   2 -9.320042E+04  1.550052E+05 -9.569574E+04 -4.841093E+04 -1.619301E+04  1.586697E+04
       286   3 -1.430150E+05  3.610342E+04 -1.444686E+05 -7.965994E+04 -5.677509E+03  3.221197E+04
       286   4  1.394293E+03  5.346839E+05 -2.875940E+03 -7.149957E+04 -1.301940E+04  7.950594E+03
       286   5  5.825980E+02  5.373889E+05 -8.980478E+03 -4.591703E+04 -1.618812E+04  1.277452E+04
       286   6 -1.905173E+04  5.346649E+05 -2.295255E+04 -7.152532E+04 -5.659100E+03  1.761483E+04
       286   7  6.699698E+04  8.029452E+05  5.702766E+04 -7.464701E+04 -1.303159E+04  1.636979E+04
       286   8  9.435557E+04  9.199083E+05  7.772539E+04 -4.342154E+04 -1.618327E+04  9.680192E+03
       286   9  1.048936E+05  1.033454E+06  9.854626E+04 -6.338408E+04 -5.641082E+03  3.005995E+03
       286  10 -6.421339E+04  2.664898E+05 -6.278411E+04 -6.835348E+04 -1.923666E-11  4.358078E-11
       286  11 -9.320077E+04  1.550048E+05 -9.569671E+04 -4.841072E+04  3.005425E-10  1.887796E-11
       286  12 -1.430153E+05  3.610230E+04 -1.444706E+05 -7.965980E+04 -1.204982E-10  9.024853E-11
       286  13  1.394094E+03  5.346838E+05 -2.876378E+03 -7.149949E+04 -1.121765E-09  7.138851E-11
       286  14  5.822728E+02  5.373887E+05 -8.981277E+03 -4.591686E+04  5.191042E-10 -1.098364E-10
       286  15 -1.905185E+04  5.346646E+05 -2.295319E+04 -7.152524E+04 -2.854904E-10  2.265975E-11
       286  16  6.699672E+04  8.029449E+05  5.702684E+04 -7.464684E+04  2.491634E-10 -1.357212E-10
       286  17  9.435526E+04  9.199082E+05  7.772472E+04 -4.342141E+04  2.482118E-11 -1.564787E-10
       286  18  1.048936E+05  1.033454E+06  9.854618E+04 -6.338406E+04 -4.640405E-10 -7.013391E-11
       286  19 -6.421321E+04  2.664898E+05 -6.278379E+04 -6.835348E+04  1.300729E+04  4.650030E+02
       286  20 -9.320042E+04  1.550052E+05 -9.569574E+04 -4.841093E+04  1.619301E+04 -1.586697E+04
       286  21 -1.430150E+05  3.610342E+04 -1.444686E+05 -7.965994E+04  5.677509E+03 -3.221197E+04
       286  22  1.394293E+03  5.346839E+05 -2.875940E+03 -7.149957E+04  1.301940E+04 -7.950594E+03
       286  23  5.825980E+02  5.373889E+05 -8.980478E+03 -4.591703E+04  1.618812E+04 -1.277452E+04
       286  24 -1.905173E+04  5.346649E+05 -2.295255E+04 -7.152532E+04  5.659100E+03 -1.761483E+04
       286  25  6.699698E+04  8.029452E+05  5.702766E+04 -7.464701E+04  1.303159E+04 -1.636979E+04
       286  26  9.435557E+04  9.199083E+05  7.772539E+04 -4.342154E+04  1.618327E+04 -9.680192E+03
       286  27  1.048936E+05  1.033454E+06  9.854626E+04 -6.338408E+04  5.641082E+03 -3.005995E+03
       287   1 -8.516104E+05 -3.798809E+05 -2.619516E+05 -3.023065E+05 -1.105208E+05 -3.484900E+04
       287   2 -8.173094E+05 -2.251260E+05 -1.623574E+05 -2.981340E+05 -7.174116E+04 -5.950736E+03
       287   3 -8.225956E+05 -1.973671E+05 -1.271282E+05 -2.757674E+05 -2.845209E+04  1.097467E+04
       287   4 -4.577110E+05 -1.836520E+05 -1.471476E+05 -1.457768E+05 -9.600882E+04 -2.939936E+04
       287   5 -4.309091E+05 -6.500510E+04 -6.331103E+04 -1.759638E+05 -6.661719E+04 -4.026837E+03
       287   6 -4.418047E+05 -7.145285E+04 -3.636684E+04 -1.879666E+05 -3.271878E+04  9.370581E+03
       287   7 -6.365752E+04  1.262267E+04 -3.235823E+04  1.085317E+04 -8.148683E+04 -2.394315E+04
       287   8 -4.436177E+04  9.513521E+04  3.572294E+04 -5.372140E+04 -6.148974E+04 -2.101299E+03
       287   9 -6.086990E+04  5.446438E+04  5.438470E+04 -1.001199E+05 -3.698833E+04  7.765697E+03
       287  10 -8.516239E+05 -3.798855E+05 -2.619769E+05 -3.023096E+05  1.161044E-10  4.025707E-11
       287  11 -8.173149E+05 -2.251274E+05 -1.623671E+05 -2.981343E+05 -6.881540E-10  1.289092E-10
       287  12 -8.225965E+05 -1.973674E+05 -1.271300E+05 -2.757672E+05  9.197087E-11 -1.084963E-10
       287  13 -4.577211E+05 -1.836554E+05 -1.471665E+05 -1.457791E+05  4.797643E-10  2.433685E-11
       287  14 -4.309138E+05 -6.500631E+04 -6.331940E+04 -1.759641E+05  9.565584E-10 -5.170965E-11
       287  15 -4.418059E+05 -7.145323E+04 -3.636901E+04 -1.879663E+05  7.749516E-11 -1.097061E-10
       287  16 -6.366480E+04  1.262027E+04 -3.237179E+04  1.085160E+04  2.544186E-10  4.017349E-11
       287  17 -4.436583E+04  9.513419E+04  3.571583E+04 -5.372151E+04  1.625153E-10 -6.460912E-11
       287  18 -6.087139E+04  5.446395E+04  5.438201E+04 -1.001197E+05  1.674389E-12 -1.505514E-10
       287  19 -8.516104E+05 -3.798809E+05 -2.619516E+05 -3.023065E+05  1.105208E+05  3.484900E+04
       287  20 -8.173094E+05 -2.251260E+05 -1.623574E+05 -2.981340E+05  7.174116E+04  5.950736E+03
       287  21 -8.225956E+05 -1.973671E+05 -1.271282E+05 -2.757674E+05  2.845209E+04 -1.097467E+04
       287  22 -4.577110E+05 -1.836520E+05 -1.471476E+05 -1.457768E+05  9.600882E+04  2.939936E+04
       287  23 -4.309091E+05 -6.500510E+04 -6.331103E+04 -1.759638E+05  6.661719E+04  4.026837E+03
       287  24 -4.418047E+05 -7.145285E+04 -3.636684E+04 -1.879666E+05  3.271878E+04 -9.370581E+03
       287  25 -6.365752E+04  1.262267E+04 -3.235823E+04  1.085317E+04  8.148683E+04  2.394315E+04
       287  26 -4.436177E+04  9.513521E+04  3.572294E+04 -5.372140E+04  6.148974E+04  2.101299E+03
       287  27 -6.086990E+04  5.446438E+04  5.438470E+04 -1.001199E+05  3.698833E+04 -7.765697E+03
       288   1 -7.772408E+05 -2.130940E+05 -1.136361E+05 -2.767787E+05 -2.653025E+04  9.098985E+03
       288   2 -7.514098E+05 -1.874213E+05 -9.171114E+04 -2.633028E+05 -1.819561E+04  1.105419E+04
       288   3 -7.191390E+05 -1.803012E+05 -7.787984E+04 -2.599555E+05 -9.649470E+03  1.244556E+04
       288   4 -4.370312E+05 -8.349840E+04 -2.898446E+04 -1.808175E+05 -2.712701E+04  8.873795E+03
       288   5 -4.397578E+05 -7.048666E+04 -1.473137E+04 -1.771715E+05 -1.923129E+04  1.066443E+04
       288   6 -4.359562E+05 -7.593755E+04 -8.220516E+03 -1.836545E+05 -1.112447E+04  1.189116E+04
       288   7 -9.670916E+04  4.610565E+04  5.565779E+04 -8.480862E+04 -2.772413E+04  8.648468E+03
       288   8 -1.280102E+05  4.645488E+04  6.224094E+04 -9.100072E+04 -2.026753E+04  1.027445E+04
       288   9 -1.526933E+05  2.843149E+04  6.143306E+04 -1.073217E+05 -1.260022E+04  1.133650E+04
       288  10 -7.772416E+05 -2.130942E+05 -1.136376E+05 -2.767785E+05 -2.735267E-10 -3.160579E-10
       288  11 -7.514102E+05 -1.874215E+05 -9.171200E+04 -2.633027E+05  1.192676E-10 -9.804214E-11
       288  12 -7.191391E+05 -1.803014E+05 -7.788031E+04 -2.599554E+05  1.642110E-10  8.162554E-11
       288  13 -4.370320E+05 -8.349869E+04 -2.898599E+04 -1.808173E+05 -2.209056E-10 -1.977283E-10
       288  14 -4.397583E+05 -7.048688E+04 -1.473228E+04 -1.771713E+05  1.125216E-10 -9.604590E-11
       288  15 -4.359564E+05 -7.593774E+04 -8.221014E+03 -1.836544E+05  3.771956E-10  5.187387E-11
       288  16 -9.671001E+04  4.610537E+04  5.565620E+04 -8.480843E+04 -5.121785E-11 -9.857084E-11
       288  17 -1.280107E+05  4.645465E+04  6.223997E+04 -9.100055E+04 -7.892636E-10 -2.659073E-10
       288  18 -1.526935E+05  2.843131E+04  6.143252E+04 -1.073216E+05 -5.730806E-11 -1.406098E-10
       288  19 -7.772408E+05 -2.130940E+05 -1.136361E+05 -2.767787E+05  2.653025E+04 -9.098985E+03
       288  20 -7.514098E+05 -1.874213E+05 -9.171114E+04 -2.633028E+05  1.819561E+04 -1.105419E+04
       288  21 -7.191390E+05 -1.803012E+05 -7.787984E+04 -2.599555E+05  9.649470E+03 -1.244556E+04
       288  22 -4.370312E+05 -8.349840E+04 -2.898446E+04 -1.808175E+05  2.712701E+04 -8.873795E+03
       288  23 -4.397578E+05 -7.048666E+04 -1.473137E+04 -1.771715E+05  1.923129E+04 -1.066443E+04
       288  24 -4.359562E+05 -7.593755E+04 -8.220516E+03 -1.836545E+05  1.112447E+04 -1.189116E+04
       288  25 -9.670916E+04  4.610565E+04  5.565779E+04 -8.480862E+04  2.772413E+04 -8.648468E+03
       288  26 -1.280102E+05  4.645488E+04  6.224094E+04 -9.100072E+04  2.026753E+04 -1.027445E+04
       288  27 -1.526933E+05  2.843149E+04  6.143306E+04 -1.073217E+05  1.260022E+04 -1.133650E+04
       289   1 -6.907166E+05 -1.719184E+05 -6.909599E+04 -2.531247E+05 -8.261744E+03  1.176625E+04
       289   2 -6.656015E+05 -1.548022E+05 -5.885499E+04 -2.388635E+05 -5.905834E+03  1.073584E+04
       289   3 -6.303451E+05 -1.488010E+05 -5.003975E+04 -2.365919E+05 -3.538998E+03  9.674610E+03
       289   4 -4.354917E+05 -7.673516E+04 -6.279920E+03 -1.831529E+05 -9.569692E+03  1.127476E+04
       289   5 -4.405274E+05 -7.093464E+04 -3.397049E+03 -1.772493E+05 -7.237240E+03  1.023580E+04
       289   6 -4.354179E+05 -7.624399E+04 -1.920802E+03 -1.833352E+05 -4.893961E+03  9.165987E+03
       289   7 -1.802028E+05  1.845250E+04  5.653117E+04 -1.131550E+05 -1.087823E+04  1.078305E+04
       289   8 -2.154039E+05  1.293607E+04  5.205687E+04 -1.156150E+05 -8.569170E+03  9.735557E+03
       289   9 -2.404542E+05 -3.684804E+03  4.619498E+04 -1.300636E+05 -6.249383E+03  8.657192E+03
       289  10 -6.907167E+05 -1.719186E+05 -6.909638E+04 -2.531246E+05  5.071261E-13  1.001807E-10
       289  11 -6.656016E+05 -1.548023E+05 -5.885527E+04 -2.388634E+05  8.155943E-11 -3.337283E-12
       289  12 -6.303452E+05 -1.488011E+05 -5.003995E+04 -2.365919E+05  2.385007E-10 -7.931526E-11
       289  13 -4.354919E+05 -7.673532E+04 -6.280331E+03 -1.831528E+05 -7.864584E-11  5.494886E-11
       289  14 -4.405275E+05 -7.093477E+04 -3.397344E+03 -1.772492E+05  2.849353E-10  3.343251E-11
       289  15 -4.354179E+05 -7.624409E+04 -1.921005E+03 -1.833352E+05  1.030043E-10  1.413658E-10
       289  16 -1.802030E+05  1.845234E+04  5.653073E+04 -1.131549E+05 -1.262201E-10 -5.531382E-11
       289  17 -2.154041E+05  1.293595E+04  5.205656E+04 -1.156149E+05 -5.006766E-11 -5.099083E-11
       289  18 -2.404542E+05 -3.684895E+03  4.619477E+04 -1.300635E+05 -2.564949E-10  1.698891E-11
       289  19 -6.907166E+05 -1.719184E+05 -6.909599E+04 -2.531247E+05  8.261744E+03 -1.176625E+04
       289  20 -6.656015E+05 -1.548022E+05 -5.885499E+04 -2.388635E+05  5.905834E+03 -1.073584E+04
       289  21 -6.303451E+05 -1.488010E+05 -5.003975E+04 -2.365919E+05  3.538998E+03 -9.674610E+03
       289  22 -4.354917E+05 -7.673516E+04 -6.279920E+03 -1.831529E+05  9.569692E+03 -1.127476E+04
       289  23 -4.405274E+05 -7.093464E+04 -3.397049E+03 -1.772493E+05  7.237240E+03 -1.023580E+04
       289  24 -4.354179E+05 -7.624399E+04 -1.920802E+03 -1.833352E+05  4.893961E+03 -9.165987E+03
       289  25 -1.802028E+05  1.845250E+04  5.653117E+04 -1.131550E+05  1.087823E+04 -1.078305E+04
       289  26 -2.154039E+05  1.293607E+04  5.205687E+04 -1.156150E+05  8.569170E+03 -9.735557E+03
       289  27 -2.404542E+05 -3.684804E+03  4.619498E+04 -1.300636E+05  6.249383E+03 -8.657192E+03
       290   1 -6.029763E+05 -1.387296E+05 -4.267522E+04 -2.291933E+05 -2.887625E+03  8.775308E+03
       290   2 -5.778329E+05 -1.220773E+05 -3.472931E+04 -2.147929E+05 -1.778725E+03  7.230008E+03
       290   3 -5.421474E+05 -1.160771E+05 -2.713636E+04 -2.125474E+05 -6.687221E+02  5.680668E+03
       290   4 -4.353504E+05 -7.630187E+04 -1.485147E+03 -1.833112E+05 -4.237346E+03  8.268783E+03
       290   5 -4.406172E+05 -7.095946E+04 -9.244248E+02 -1.772392E+05 -3.131488E+03  6.722491E+03
       290   6 -4.353430E+05 -7.626872E+04 -7.143586E+02 -1.833224E+05 -2.024556E+03  5.172157E+03
       290   7 -2.676961E+05 -1.387191E+04  3.970301E+04 -1.374177E+05 -5.587471E+03  7.762105E+03
       290   8 -3.033826E+05 -1.984023E+04  3.287911E+04 -1.396779E+05 -4.484582E+03  6.214851E+03
       290   9 -3.285273E+05 -3.645955E+04  2.570678E+04 -1.540929E+05 -3.380645E+03  4.663550E+03
       290  10 -6.029763E+05 -1.387297E+05 -4.267538E+04 -2.291933E+05 -8.365048E-12 -3.614330E-11
       290  11 -5.778329E+05 -1.220774E+05 -3.472941E+04 -2.147929E+05  1.040029E-10  1.634366E-10
       290  12 -5.421474E+05 -1.160772E+05 -2.713642E+04 -2.125474E+05  1.537846E-10 -9.311462E-11
       290  13 -4.353504E+05 -7.630195E+04 -1.485310E+03 -1.833112E+05 -3.464921E-11  1.043026E-10
       290  14 -4.406172E+05 -7.095951E+04 -9.245281E+02 -1.772392E+05 -1.581077E-10  1.064213E-10
       290  15 -4.353430E+05 -7.626875E+04 -7.144166E+02 -1.833224E+05 -1.288742E-10 -1.564099E-10
       290  16 -2.676961E+05 -1.387198E+04  3.970284E+04 -1.374177E+05 -1.271199E-10  6.065261E-11
       290  17 -3.033826E+05 -1.984028E+04  3.287900E+04 -1.396779E+05  1.042297E-10  1.567922E-11
       290  18 -3.285273E+05 -3.645957E+04  2.570671E+04 -1.540929E+05 -1.283310E-11 -1.930116E-10
       290  19 -6.029763E+05 -1.387296E+05 -4.267522E+04 -2.291933E+05  2.887625E+03 -8.775308E+03
       290  20 -5.778329E+05 -1.220773E+05 -3.472931E+04 -2.147929E+05  1.778725E+03 -7.230008E+03
       290  21 -5.421474E+05 -1.160771E+05 -2.713636E+04 -2.125474E+05  6.687221E+02 -5.680668E+03
       290  22 -4.353504E+05 -7.630187E+04 -1.485147E+03 -1.833112E+05  4.237346E+03 -8.268783E+03
       290  23 -4.406172E+05 -7.095946E+04 -9.244248E+02 -1.772392E+05  3.131488E+03 -6.722491E+03
       290  24 -4.353430E+05 -7.626872E+04 -7.143586E+02 -1.833224E+05  2.024556E+03 -5.172157E+03
       290  25 -2.676961E+05 -1.387191E+04  3.970301E+04 -1.374177E+05  5.587471E+03 -7.762105E+03
       290  26 -3.033826E+05 -1.984023E+04  3.287911E+04 -1.396779E+05  4.484582E+03 -6.214851E+03
       290  27 -3.285273E+05 -3.645955E+04  2.570678E+04 -1.540929E+05  3.380645E+03 -4.663550E+03
       291   1 -5.147650E+05 -1.058582E+05 -2.016938E+04 -2.050886E+05 -1.725264E+02  4.720789E+03
       291   2 -4.895312E+05 -8.918456E+04 -1.294074E+04 -1.906355E+05  9.181044E+02  3.159949E+03
       291   3 -4.537307E+05 -8.319354E+04 -6.051575E+03 -1.883804E+05  2.008732E+03  1.598707E+03
       291   4 -4.353362E+05 -7.627640E+04 -7.087538E+02 -1.833311E+05 -1.529691E+03  4.211848E+03
       291   5 -4.406201E+05 -7.094411E+04 -8.880442E+02 -1.772284E+05 -4.393553E+02  2.650953E+03
       291   6 -4.353381E+05 -7.629440E+04 -1.406547E+03 -1.833241E+05  6.509552E+02  1.089648E+03
       291   7 -3.559016E+05 -4.669434E+04  1.875131E+04 -1.615712E+05 -2.887039E+03  3.702838E+03
       291   8 -3.917066E+05 -5.270350E+04  1.116447E+04 -1.638204E+05 -1.796932E+03  2.141914E+03
       291   9 -4.169451E+05 -6.939521E+04  3.238484E+03 -1.782676E+05 -7.068715E+02  5.805705E+02
       291  10 -5.147650E+05 -1.058582E+05 -2.016942E+04 -2.050886E+05 -3.653145E-10 -3.104124E-10
       291  11 -4.895312E+05 -8.918457E+04 -1.294076E+04 -1.906355E+05 -3.432552E-10 -4.711366E-11
       291  12 -4.537307E+05 -8.319354E+04 -6.051588E+03 -1.883804E+05  1.234078E-10  2.927403E-11
       291  13 -4.353362E+05 -7.627642E+04 -7.087915E+02 -1.833311E+05  1.949593E-10 -1.981768E-10
       291  14 -4.406201E+05 -7.094412E+04 -8.880578E+02 -1.772284E+05 -1.386439E-10 -7.625370E-11
       291  15 -4.353381E+05 -7.629440E+04 -1.406550E+03 -1.833241E+05  1.894664E-10 -1.521932E-10
       291  16 -3.559017E+05 -4.669436E+04  1.875126E+04 -1.615712E+05  2.421623E-10  3.887596E-11
       291  17 -3.917066E+05 -5.270350E+04  1.116446E+04 -1.638204E+05 -7.908810E-11  3.585307E-11
       291  18 -4.169451E+05 -6.939521E+04  3.238483E+03 -1.782676E+05 -7.808891E-11 -2.408185E-10
       291  19 -5.147650E+05 -1.058582E+05 -2.016938E+04 -2.050886E+05  1.725264E+02 -4.720789E+03
       291  20 -4.895312E+05 -8.918456E+04 -1.294074E+04 -1.906355E+05 -9.181044E+02 -3.159949E+03
       291  21 -4.537307E+05 -8.319354E+04 -6.051575E+03 -1.883804E+05 -2.008732E+03 -1.598707E+03
       291  22 -4.353362E+05 -7.627640E+04 -7.087538E+02 -1.833311E+05  1.529691E+03 -4.211848E+03
       291  23 -4.406201E+05 -7.094411E+04 -8.880442E+02 -1.772284E+05  4.393553E+02 -2.650953E+03
       291  24 -4.353381E+05 -7.629440E+04 -1.406547E+03 -1.833241E+05 -6.509552E+02 -1.089648E+03
       291  25 -3.559016E+05 -4.669434E+04  1.875131E+04 -1.615712E+05  2.887039E+03 -3.702838E+03
       291  26 -3.917066E+05 -5.270350E+04  1.116447E+04 -1.638204E+05  1.796932E+03 -2.141914E+03
       291  27 -4.169451E+05 -6.939521E+04  3.238484E+03 -1.782676E+05  7.068715E+02 -5.805705E+02
       292   1 -4.263055E+05 -7.296424E+04  5.120489E+02 -1.810013E+05  2.656700E+03  6.922191E+02
       292   2 -4.009887E+05 -5.619986E+04  6.541756E+03 -1.664368E+05  4.892385E+03 -4.374170E+02
       292   3 -3.654344E+05 -5.061271E+04  1.124997E+04 -1.639995E+05  7.122254E+03 -1.551086E+03
       292   4 -4.353906E+05 -7.625517E+04 -1.814928E+03 -1.833645E+05  1.294187E+03  1.813868E+02
       292   5 -4.405400E+05 -7.088984E+04 -3.194518E+03 -1.772168E+05  3.542265E+03 -9.436490E+02
       292   6 -4.354551E+05 -7.670430E+04 -5.905435E+03 -1.831967E+05  5.784436E+03 -2.052745E+03
       292   7 -4.444756E+05 -7.954609E+04 -4.141904E+03 -1.857275E+05 -6.830437E+01 -3.294378E+02
       292   8 -4.800896E+05 -8.557968E+04 -1.293088E+04 -1.879961E+05  2.192242E+03 -1.449845E+03
       292   9 -5.054707E+05 -1.027954E+05 -2.306112E+04 -2.023918E+05  4.446790E+03 -2.554339E+03
       292  10 -4.263055E+05 -7.296424E+04  5.120347E+02 -1.810013E+05 -8.594633E-11 -1.295048E-10
       292  11 -4.009887E+05 -5.619986E+04  6.541711E+03 -1.664368E+05  1.010148E-10 -3.249937E-12
       292  12 -3.654344E+05 -5.061272E+04  1.124987E+04 -1.639995E+05  7.408141E-11  5.653066E-11
       292  13 -4.353906E+05 -7.625517E+04 -1.814932E+03 -1.833645E+05  3.332289E-10 -4.336022E-11
       292  14 -4.405400E+05 -7.088984E+04 -3.194543E+03 -1.772168E+05  4.169582E-11 -7.386658E-11
       292  15 -4.354551E+05 -7.670431E+04 -5.905505E+03 -1.831967E+05 -1.367220E-11  4.768450E-11
       292  16 -4.444756E+05 -7.954609E+04 -4.141904E+03 -1.857275E+05  3.916717E-10 -1.756077E-10
       292  17 -4.800896E+05 -8.557968E+04 -1.293089E+04 -1.879961E+05  2.100432E-10  7.539710E-11
       292  18 -5.054707E+05 -1.027954E+05 -2.306117E+04 -2.023918E+05 -1.817430E-10  6.878801E-12
       292  19 -4.263055E+05 -7.296424E+04  5.120489E+02 -1.810013E+05 -2.656700E+03 -6.922191E+02
       292  20 -4.009887E+05 -5.619986E+04  6.541756E+03 -1.664368E+05 -4.892385E+03  4.374170E+02
       292  21 -3.654344E+05 -5.061271E+04  1.124997E+04 -1.639995E+05 -7.122254E+03  1.551086E+03
       292  22 -4.353906E+05 -7.625517E+04 -1.814928E+03 -1.833645E+05 -1.294187E+03 -1.813868E+02
       292  23 -4.405400E+05 -7.088984E+04 -3.194518E+03 -1.772168E+05 -3.542265E+03  9.436490E+02
       292  24 -4.354551E+05 -7.670430E+04 -5.905435E+03 -1.831967E+05 -5.784436E+03  2.052745E+03
       292  25 -4.444756E+05 -7.954609E+04 -4.141904E+03 -1.857275E+05  6.830437E+01  3.294378E+02
       292  26 -4.800896E+05 -8.557968E+04 -1.293088E+04 -1.879961E+05 -2.192242E+03  1.449845E+03
       292  27 -5.054707E+05 -1.027954E+05 -2.306112E+04 -2.023918E+05 -4.446790E+03  2.554339E+03
       293   1 -3.375876E+05 -4.051954E+04  1.637068E+04 -1.580114E+05  8.702788E+03 -2.144826E+03
       293   2 -3.124397E+05 -2.235134E+04  1.767401E+04 -1.416042E+05  1.612542E+04 -1.257336E+03
       293   3 -2.803580E+05 -2.228742E+04  1.189433E+04 -1.356589E+05  2.342501E+04 -3.951867E+01
       293   4 -4.358795E+05 -7.596880E+04 -7.730065E+03 -1.836844E+05  7.265549E+03 -2.683809E+03
       293   5 -4.398218E+05 -7.043949E+04 -1.384305E+04 -1.771230E+05  1.494618E+04 -1.699746E+03
       293   6 -4.368835E+05 -8.306740E+04 -2.724500E+04 -1.810243E+05  2.250340E+04 -3.854988E+02
       293   7 -5.341624E+05 -1.114177E+05 -3.183166E+04 -2.093539E+05  5.828553E+03 -3.222709E+03
       293   8 -5.671881E+05 -1.185265E+05 -4.536145E+04 -2.126352E+05  1.376720E+04 -2.142056E+03
       293   9 -5.933849E+05 -1.438452E+05 -6.638626E+04 -2.263791E+05  2.158205E+04 -7.313750E+02
       293  10 -3.375877E+05 -4.051956E+04  1.637053E+04 -1.580114E+05  1.905945E-11 -1.670170E-11
       293  11 -3.124400E+05 -2.235141E+04  1.767352E+04 -1.416042E+05  1.588184E-10  7.055846E-11
       293  12 -2.803586E+05 -2.228756E+04  1.189329E+04 -1.356589E+05 -1.744892E-11  3.164199E-10
       293  13 -4.358796E+05 -7.596882E+04 -7.730178E+03 -1.836844E+05 -1.287127E-10  3.486479E-11
       293  14 -4.398220E+05 -7.043955E+04 -1.384348E+04 -1.771229E+05  3.043995E-11  1.171322E-10
       293  15 -4.368841E+05 -8.306753E+04 -2.724595E+04 -1.810243E+05 -2.137969E-11  3.003108E-11
       293  16 -5.341625E+05 -1.114178E+05 -3.183175E+04 -2.093539E+05  5.191588E-11  1.374392E-10
       293  17 -5.671883E+05 -1.185266E+05 -4.536182E+04 -2.126351E+05  1.307670E-10  2.669346E-10
       293  18 -5.933854E+05 -1.438453E+05 -6.638713E+04 -2.263791E+05  6.331432E-11 -2.794535E-10
       293  19 -3.375876E+05 -4.051954E+04  1.637068E+04 -1.580114E+05 -8.702788E+03  2.144826E+03
       293  20 -3.124397E+05 -2.235134E+04  1.767401E+04 -1.416042E+05 -1.612542E+04  1.257336E+03
       293  21 -2.803580E+05 -2.228742E+04  1.189433E+04 -1.356589E+05 -2.342501E+04  3.951867E+01
       293  22 -4.358795E+05 -7.596880E+04 -7.730065E+03 -1.836844E+05 -7.265549E+03  2.683809E+03
       293  23 -4.398218E+05 -7.043949E+04 -1.384305E+04 -1.771230E+05 -1.494618E+04  1.699746E+03
       293  24 -4.368835E+05 -8.306740E+04 -2.724500E+04 -1.810243E+05 -2.250340E+04  3.854988E+02
       293  25 -5.341624E+05 -1.114177E+05 -3.183166E+04 -2.093539E+05 -5.828553E+03  3.222709E+03
       293  26 -5.671881E+05 -1.185265E+05 -4.536145E+04 -2.126352E+05 -1.376720E+04  2.142056E+03
       293  27 -5.933849E+05 -1.438452E+05 -6.638626E+04 -2.263791E+05 -2.158205E+04  7.313750E+02
       294   1 -2.446003E+05 -1.365230E+04  1.147973E+04 -1.495872E+05  3.070073E+04  6.781887E+02
       294   2 -2.267569E+05  2.592658E+04 -5.844335E+03 -1.046486E+05  5.738894E+04  1.024703E+04
       294   3 -2.422933E+05 -5.199996E+04 -7.226951E+04 -4.381829E+04  8.143505E+04  2.686151E+04
       294   4 -4.413409E+05 -7.177584E+04 -3.418509E+04 -1.877817E+05  2.761828E+04 -4.776269E+02
       294   5 -4.315407E+05 -6.522597E+04 -5.950309E+04 -1.759327E+05  5.983416E+04  1.116272E+04
       294   6 -4.562336E+05 -1.773045E+05 -1.383165E+05 -1.481900E+05  8.940663E+04  2.984629E+04
       294   7 -6.380430E+05 -1.298997E+05 -7.985231E+04 -2.259668E+05  2.453689E+04 -1.633231E+03
       294   8 -6.362810E+05 -1.563697E+05 -1.131649E+05 -2.471933E+05  6.227847E+04  1.207792E+04
       294   9 -6.701213E+05 -3.025808E+05 -2.043664E+05 -2.525213E+05  9.737510E+04  3.282845E+04
       294  10 -2.446013E+05 -1.365255E+04  1.147796E+04 -1.495872E+05 -2.747202E-10  3.471792E-10
       294  11 -2.267605E+05  2.592558E+04 -5.850725E+03 -1.046490E+05  3.253616E-09  1.540483E-09
       294  12 -2.423006E+05 -5.200252E+04 -7.228333E+04 -4.382005E+04  2.615486E-09  1.118043E-09
       294  13 -4.413417E+05 -7.177605E+04 -3.418653E+04 -1.877817E+05  1.121261E-09  5.120332E-10
       294  14 -4.315446E+05 -6.522706E+04 -5.951006E+04 -1.759333E+05  4.119279E-09  1.184608E-09
       294  15 -4.562424E+05 -1.773076E+05 -1.383332E+05 -1.481921E+05  1.450338E-09  5.580009E-10
       294  16 -6.380436E+05 -1.298998E+05 -7.985344E+04 -2.259668E+05  3.039653E-09  7.889417E-10
       294  17 -6.362852E+05 -1.563709E+05 -1.131725E+05 -2.471939E+05  4.219545E-09  1.401616E-09
       294  18 -6.701318E+05 -3.025845E+05 -2.043862E+05 -2.525239E+05  1.142494E-11  6.099160E-11
       294  19 -2.446003E+05 -1.365230E+04  1.147973E+04 -1.495872E+05 -3.070073E+04 -6.781887E+02
       294  20 -2.267569E+05  2.592658E+04 -5.844335E+03 -1.046486E+05 -5.738894E+04 -1.024703E+04
       294  21 -2.422933E+05 -5.199996E+04 -7.226951E+04 -4.381829E+04 -8.143505E+04 -2.686151E+04
       294  22 -4.413409E+05 -7.177584E+04 -3.418509E+04 -1.877817E+05 -2.761828E+04  4.776269E+02
       294  23 -4.315407E+05 -6.522597E+04 -5.950309E+04 -1.759327E+05 -5.983416E+04 -1.116272E+04
       294  24 -4.562336E+05 -1.773045E+05 -1.383165E+05 -1.481900E+05 -8.940663E+04 -2.984629E+04
       294  25 -6.380430E+05 -1.298997E+05 -7.985231E+04 -2.259668E+05 -2.453689E+04  1.633231E+03
       294  26 -6.362810E+05 -1.563697E+05 -1.131649E+05 -2.471933E+05 -6.227847E+04 -1.207792E+04
       294  27 -6.701213E+05 -3.025808E+05 -2.043664E+05 -2.525213E+05 -9.737510E+04 -3.282845E+04
       295   1 -5.378363E+05 -1.359703E+05 -1.101370E+05 -1.362861E+04  4.980148E+04  1.187172E+04
       295   2 -4.566228E+05 -2.095079E+05 -1.373128E+05 -2.205984E+04  4.203797E+04  3.670870E+04
       295   3 -3.504979E+05 -1.888661E+05 -1.358185E+05 -7.154227E+04  3.428895E+04  3.705116E+04
       295   4  4.003825E+05  9.723453E+04  1.179529E+05 -5.728042E+04  8.102051E+04  1.188689E+04
       295   5  3.861936E+05 -2.814051E+03  5.333436E+04 -3.673502E+04  5.266081E+04  3.670787E+04
       295   6  4.004452E+05 -5.179948E+03  3.165295E+04 -5.723499E+04  2.431817E+04  3.704846E+04
       295   7  1.339411E+06  3.303824E+05  3.459838E+05 -1.009985E+05  1.122865E+05  1.189767E+04
       295   8  1.229671E+06  2.038318E+05  2.439364E+05 -5.143035E+04  6.329790E+04  3.670653E+04
       295   9  1.151915E+06  1.784688E+05  1.990896E+05 -4.291020E+04  1.433543E+04  3.704530E+04
       295  10 -5.378390E+05 -1.359712E+05 -1.101419E+05 -1.362909E+04 -2.952418E-10  1.784137E-10
       295  11 -4.566251E+05 -2.095098E+05 -1.373186E+05 -2.206109E+04 -1.002553E-10 -1.238712E-10
       295  12 -3.504995E+05 -1.888679E+05 -1.358233E+05 -7.154329E+04 -2.879888E-10 -3.149818E-10
       295  13  4.003754E+05  9.723262E+04  1.179403E+05 -5.728119E+04  3.647264E-10 -1.845870E-10
       295  14  3.861902E+05 -2.816242E+03  5.332662E+04 -3.673657E+04 -2.386468E-10 -1.540944E-10
       295  15  4.004442E+05 -5.181581E+03  3.164926E+04 -5.723572E+04  4.630954E-10 -2.951894E-10
       295  16  1.339398E+06  3.303789E+05  3.459599E+05 -1.009996E+05  2.606344E-10  2.962406E-10
       295  17  1.229666E+06  2.038293E+05  2.439263E+05 -5.143222E+04 -1.707060E-10 -2.085206E-10
       295  18  1.151914E+06  1.784673E+05  1.990866E+05 -4.291062E+04 -8.566470E-10 -1.846018E-10
       295  19 -5.378363E+05 -1.359703E+05 -1.101370E+05 -1.362861E+04 -4.980148E+04 -1.187172E+04
       295  20 -4.566228E+05 -2.095079E+05 -1.373128E+05 -2.205984E+04 -4.203797E+04 -3.670870E+04
       295  21 -3.504979E+05 -1.888661E+05 -1.358185E+05 -7.154227E+04 -3.428895E+04 -3.705116E+04
       295  22  4.003825E+05  9.723453E+04  1.179529E+05 -5.728042E+04 -8.102051E+04 -1.188689E+04
       295  23  3.861936E+05 -2.814051E+03  5.333436E+04 -3.673502E+04 -5.266081E+04 -3.670787E+04
       295  24  4.004452E+05 -5.179948E+03  3.165295E+04 -5.723499E+04 -2.431817E+04 -3.704846E+04
       295  25  1.339411E+06  3.303824E+05  3.459838E+05 -1.009985E+05 -1.122865E+05 -1.189767E+04
       295  26  1.229671E+06  2.038318E+05  2.439364E+05 -5.143035E+04 -6.329790E+04 -3.670653E+04
       295  27  1.151915E+06  1.784688E+05  1.990896E+05 -4.291020E+04 -1.433543E+04 -3.704530E+04
       296   1 -2.758216E+05 -1.582663E+05 -1.250192E+05 -5.528005E+04  2.237884E+04  3.168577E+04
       296   2 -1.841126E+05 -1.416593E+05 -1.154930E+05 -3.590669E+04  1.647606E+04  2.800151E+04
       296   3 -8.998417E+04 -1.189457E+05 -1.005693E+05 -5.830332E+04  1.056852E+04  2.322350E+04
       296   4  3.947184E+05  5.896951E+03  2.527809E+04 -5.740574E+04  1.975785E+04  3.168357E+04
       296   5  3.934511E+05 -3.443081E+02  1.356759E+04 -3.652291E+04  1.292970E+04  2.800075E+04
       296   6  3.947513E+05 -3.217815E+02  7.892271E+03 -5.740744E+04  6.097641E+03  2.322464E+04
       296   7  1.065677E+06  1.700296E+05  1.755469E+05 -5.953371E+04  1.713406E+04  3.168139E+04
       296   8  9.713256E+05  1.409481E+05  1.426072E+05 -3.713968E+04  9.380071E+03  2.799999E+04
       296   9  8.797055E+05  1.182861E+05  1.163391E+05 -5.651082E+04  1.623302E+03  2.322577E+04
       296  10 -2.758224E+05 -1.582675E+05 -1.250220E+05 -5.528062E+04 -2.084020E-10 -3.081384E-10
       296  11 -1.841131E+05 -1.416603E+05 -1.154950E+05 -3.590706E+04 -3.999779E-10  6.393810E-11
       296  12 -8.998444E+04 -1.189463E+05 -1.005705E+05 -5.830352E+04 -2.322379E-10  4.808172E-10
       296  13  3.947177E+05  5.895768E+03  2.527547E+04 -5.740624E+04 -3.628697E-10 -1.916629E-10
       296  14  3.934507E+05 -3.451950E+02  1.356580E+04 -3.652320E+04 -9.299071E-12 -2.539281E-10
       296  15  3.947511E+05 -3.223708E+02  7.891187E+03 -5.740756E+04  8.811773E-11  3.903828E-10
       296  16  1.065676E+06  1.700284E+05  1.755445E+05 -5.953415E+04  2.197282E-10 -1.211071E-10
       296  17  9.713253E+05  1.409472E+05  1.426056E+05 -3.713989E+04  2.422756E-10  2.994450E-11
       296  18  8.797054E+05  1.182856E+05  1.163381E+05 -5.651085E+04  3.372666E-11  4.519597E-10
       296  19 -2.758216E+05 -1.582663E+05 -1.250192E+05 -5.528005E+04 -2.237884E+04 -3.168577E+04
       296  20 -1.841126E+05 -1.416593E+05 -1.154930E+05 -3.590669E+04 -1.647606E+04 -2.800151E+04
       296  21 -8.998417E+04 -1.189457E+05 -1.005693E+05 -5.830332E+04 -1.056852E+04 -2.322350E+04
       296  22  3.947184E+05  5.896951E+03  2.527809E+04 -5.740574E+04 -1.975785E+04 -3.168357E+04
       296  23  3.934511E+05 -3.443081E+02  1.356759E+04 -3.652291E+04 -1.292970E+04 -2.800075E+04
       296  24  3.947513E+05 -3.217815E+02  7.892271E+03 -5.740744E+04 -6.097641E+03 -2.322464E+04
       296  25  1.065677E+06  1.700296E+05  1.755469E+05 -5.953371E+04 -1.713406E+04 -3.168139E+04
       296  26  9.713256E+05  1.409481E+05  1.426072E+05 -3.713968E+04 -9.380071E+03 -2.799999E+04
       296  27  8.797055E+05  1.182861E+05  1.163391E+05 -5.651082E+04 -1.623302E+03 -2.322577E+04
       297   1 -1.086062E+04 -9.869706E+04 -8.413761E+04 -5.724830E+04  9.002265E+03  2.019590E+04
       297   2  8.159243E+04 -7.646443E+04 -6.629232E+04 -3.646689E+04  7.313453E+03  1.524735E+04
       297   3  1.743588E+05 -5.378306E+04 -4.724212E+04 -5.735094E+04  5.622223E+03  1.025338E+04
       297   4  3.942663E+05  3.553192E+02  6.076118E+03 -5.738391E+04  4.865671E+03  2.019757E+04
       297   5  3.941189E+05 -2.074384E+01  3.478096E+03 -3.655196E+04  3.137376E+03  1.524986E+04
       297   6  3.942832E+05  5.904498E+01  2.111980E+03 -5.738417E+04  1.406910E+03  1.025675E+04
       297   7  7.995463E+05  9.939659E+04  9.627965E+04 -5.751958E+04  7.264060E+02  2.019925E+04
       297   8  7.067364E+05  7.641632E+04  7.324244E+04 -3.663705E+04 -1.040780E+03  1.525236E+04
       297   9  6.142526E+05  5.389786E+04  5.146308E+04 -5.741741E+04 -2.809881E+03  1.026012E+04
       297  10 -1.086082E+04 -9.869752E+04 -8.413853E+04 -5.724844E+04  4.661390E-10  2.042464E-10
       297  11  8.159231E+04 -7.646469E+04 -6.629286E+04 -3.646698E+04  1.703707E-10  5.658889E-11
       297  12  1.743588E+05 -5.378318E+04 -4.724237E+04 -5.735099E+04  1.371715E-10 -3.634052E-10
       297  13  3.942662E+05  3.548747E+02  6.075307E+03 -5.738399E+04 -5.341842E-10  3.465682E-10
       297  14  3.941188E+05 -2.099626E+01  3.477641E+03 -3.655200E+04 -1.676817E-10  4.764615E-10
       297  15  3.942832E+05  5.893146E+01  2.111778E+03 -5.738419E+04 -1.132529E-11  4.614910E-10
       297  16  7.995462E+05  9.939615E+04  9.627888E+04 -5.751959E+04 -2.255258E-10  4.279205E-10
       297  17  7.067363E+05  7.641607E+04  7.324200E+04 -3.663704E+04  4.414771E-11 -4.123452E-10
       297  18  6.142526E+05  5.389775E+04  5.146286E+04 -5.741739E+04  5.795932E-11 -5.004403E-10
       297  19 -1.086062E+04 -9.869706E+04 -8.413761E+04 -5.724830E+04 -9.002265E+03 -2.019590E+04
       297  20  8.159243E+04 -7.646443E+04 -6.629232E+04 -3.646689E+04 -7.313453E+03 -1.524735E+04
       297  21  1.743588E+05 -5.378306E+04 -4.724212E+04 -5.735094E+04 -5.622223E+03 -1.025338E+04
       297  22  3.942663E+05  3.553192E+02  6.076118E+03 -5.738391E+04 -4.865671E+03 -2.019757E+04
       297  23  3.941189E+05 -2.074384E+01  3.478096E+03 -3.655196E+04 -3.137376E+03 -1.524986E+04
       297  24  3.942832E+05  5.904498E+01  2.111980E+03 -5.738417E+04 -1.406910E+03 -1.025675E+04
       297  25  7.995463E+05  9.939659E+04  9.627965E+04 -5.751958E+04 -7.264060E+02 -2.019925E+04
       297  26  7.067364E+05  7.641632E+04  7.324244E+04 -3.663705E+04  1.040780E+03 -1.525236E+04
       297  27  6.142526E+05  5.389786E+04  5.146308E+04 -5.741741E+04  2.809881E+03 -1.026012E+04
       298   1  2.537138E+05 -3.421583E+04 -2.940859E+04 -5.732300E+04  5.259878E+03  7.337433E+03
       298   2  3.461983E+05 -1.169606E+04 -9.509834E+03 -3.655431E+04  4.660333E+03  2.340025E+03
       298   3  4.387067E+05  1.091517E+04  1.078132E+04 -5.739340E+04  4.060378E+03 -2.658937E+03
       298   4  3.942245E+05  9.628633E+01  1.691255E+03 -5.737152E+04  1.060891E+03  7.341085E+03
       298   5  3.942170E+05  4.728535E+01  1.207877E+03 -3.656774E+04  4.596842E+02  2.343789E+03
       298   6  3.942271E+05  9.087693E+01  1.118643E+03 -5.737154E+04 -1.418457E+02 -2.655029E+03
       298   7  5.347536E+05  3.440708E+04  3.278994E+04 -5.742005E+04 -3.139035E+03  7.344738E+03
       298   8  4.422379E+05  1.179048E+04  1.192551E+04 -3.658117E+04 -3.741286E+03  2.347552E+03
       298   9  3.497494E+05 -1.073354E+04 -8.544084E+03 -5.734968E+04 -4.343772E+03 -2.651122E+03
       298  10  2.537138E+05 -3.421589E+04 -2.940874E+04 -5.732303E+04 -2.220373E-10  3.589093E-13
       298  11  3.461982E+05 -1.169607E+04 -9.509885E+03 -3.655432E+04 -8.034507E-10  5.639029E-11
       298  12  4.387066E+05  1.091516E+04  1.078127E+04 -5.739339E+04 -2.253341E-10 -1.238467E-10
       298  13  3.942245E+05  9.622815E+01  1.691151E+03 -5.737153E+04 -3.449443E-10 -7.157678E-10
       298  14  3.942170E+05  4.727939E+01  1.207867E+03 -3.656774E+04  3.665814E-10  2.261633E-10
       298  15  3.942271E+05  9.086935E+01  1.118629E+03 -5.737154E+04 -2.819009E-10 -4.387778E-10
       298  16  5.347536E+05  3.440702E+04  3.278982E+04 -5.742003E+04 -2.025809E-10 -6.456181E-11
       298  17  4.422379E+05  1.179047E+04  1.192547E+04 -3.658116E+04  3.980080E-10 -5.255273E-11
       298  18  3.497494E+05 -1.073355E+04 -8.544132E+03 -5.734969E+04 -2.360975E-10 -6.835502E-10
       298  19  2.537138E+05 -3.421583E+04 -2.940859E+04 -5.732300E+04 -5.259878E+03 -7.337433E+03
       298  20  3.461983E+05 -1.169606E+04 -9.509834E+03 -3.655431E+04 -4.660333E+03 -2.340025E+03
       298  21  4.387067E+05  1.091517E+04  1.078132E+04 -5.739340E+04 -4.060378E+03  2.658937E+03
       298  22  3.942245E+05  9.628633E+01  1.691255E+03 -5.737152E+04 -1.060891E+03 -7.341085E+03
       298  23  3.942170E+05  4.728535E+01  1.207877E+03 -3.656774E+04 -4.596842E+02 -2.343789E+03
       298  24  3.942271E+05  9.087693E+01  1.118643E+03 -5.737154E+04  1.418457E+02  2.655029E+03
       298  25  5.347536E+05  3.440708E+04  3.278994E+04 -5.742005E+04  3.139035E+03 -7.344738E+03
       298  26  4.422379E+05  1.179048E+04  1.192551E+04 -3.658117E+04  3.741286E+03 -2.347552E+03
       298  27  3.497494E+05 -1.073354E+04 -8.544084E+03 -5.734968E+04  4.343772E+03  2.651122E+03
       299   1  5.181212E+05  3.043654E+04  2.911532E+04 -5.744553E+04  3.847885E+03 -5.569030E+03
       299   2  6.106509E+05  5.295416E+04  4.996392E+04 -3.663967E+04  3.023336E+03 -1.056924E+04
       299   3  7.032663E+05  7.557803E+04  7.136079E+04 -5.746599E+04  2.200146E+03 -1.556979E+04
       299   4  3.942371E+05  9.013375E+01  1.203861E+03 -5.737720E+04 -3.555867E+02 -5.565261E+03
       299   5  3.941931E+05  2.633115E+01  1.659099E+03 -3.656066E+04 -1.180488E+03 -1.056606E+04
       299   6  3.942255E+05  6.905878E+01  2.662956E+03 -5.737719E+04 -2.003910E+03 -1.556716E+04
       299   7  2.703673E+05 -3.025731E+04 -2.670851E+04 -5.730888E+04 -4.558229E+03 -5.561492E+03
       299   8  1.777789E+05 -5.290467E+04 -4.664860E+04 -3.648167E+04 -5.382863E+03 -1.056287E+04
       299   9  8.527378E+04 -7.544637E+04 -6.604076E+04 -5.728841E+04 -6.205898E+03 -1.556453E+04
       299  10  5.181212E+05  3.043650E+04  2.911523E+04 -5.744552E+04 -4.600951E-10  5.039826E-10
       299  11  6.106508E+05  5.295404E+04  4.996370E+04 -3.663964E+04 -6.184715E-10  1.205149E-09
       299  12  7.032662E+05  7.557777E+04  7.136032E+04 -5.746596E+04  8.694973E-10 -7.203399E-10
       299  13  3.942371E+05  9.010045E+01  1.203802E+03 -5.737721E+04 -7.110825E-10  2.258839E-11
       299  14  3.941930E+05  2.621087E+01  1.658887E+03 -3.656067E+04  5.020913E-10 -3.821033E-10
       299  15  3.942255E+05  6.879742E+01  2.662493E+03 -5.737721E+04 -2.695640E-10  1.203089E-10
       299  16  2.703672E+05 -3.025735E+04 -2.670861E+04 -5.730890E+04  2.900691E-10 -4.132570E-11
       299  17  1.777789E+05 -5.290480E+04 -4.664886E+04 -3.648171E+04  1.322822E-11 -3.067344E-10
       299  18  8.527367E+04 -7.544664E+04 -6.604129E+04 -5.728849E+04 -1.108713E-09  7.493400E-11
       299  19  5.181212E+05  3.043654E+04  2.911532E+04 -5.744553E+04 -3.847885E+03  5.569030E+03
       299  20  6.106509E+05  5.295416E+04  4.996392E+04 -3.663967E+04 -3.023336E+03  1.056924E+04
       299  21  7.032663E+05  7.557803E+04  7.136079E+04 -5.746599E+04 -2.200146E+03  1.556979E+04
       299  22  3.942371E+05  9.013375E+01  1.203861E+03 -5.737720E+04  3.555867E+02  5.565261E+03
       299  23  3.941931E+05  2.633115E+01  1.659099E+03 -3.656066E+04  1.180488E+03  1.056606E+04
       299  24  3.942255E+05  6.905878E+01  2.662956E+03 -5.737719E+04  2.003910E+03  1.556716E+04
       299  25  2.703673E+05 -3.025731E+04 -2.670851E+04 -5.730888E+04  4.558229E+03  5.561492E+03
       299  26  1.777789E+05 -5.290467E+04 -4.664860E+04 -3.648167E+04  5.382863E+03  1.056287E+04
       299  27  8.527378E+04 -7.544637E+04 -6.604076E+04 -5.728841E+04  6.205898E+03  1.556453E+04
       300   1  7.829284E+05  9.506702E+04  9.041445E+04 -5.740665E+04  1.668427E+03 -1.848951E+04
       300   2  8.754509E+05  1.176012E+05  1.132840E+05 -3.655674E+04 -1.287676E+03 -2.348802E+04
       300   3  9.686021E+05  1.408733E+05  1.382698E+05 -5.744979E+04 -4.240891E+03 -2.843508E+04
       300   4  3.943320E+05  5.820737E+00  3.441940E+03 -5.740214E+04 -2.556699E+03 -1.848745E+04
       300   5  3.940121E+05 -1.013529E+02  5.857961E+03 -3.652950E+04 -5.467794E+03 -2.348726E+04
       300   6  3.943058E+05  5.225349E+02  1.036072E+04 -5.740181E+04 -8.375569E+03 -2.843558E+04
       300   7  5.876080E+03 -9.506565E+04 -8.354003E+04 -5.739760E+04 -6.779211E+03 -1.848538E+04
       300   8 -8.721088E+04 -1.178197E+05 -1.015825E+05 -3.650226E+04 -9.644707E+03 -2.348649E+04
       300   9 -1.796833E+05 -1.398506E+05 -1.175689E+05 -5.735384E+04 -1.250647E+04 -2.843608E+04
       300  10  7.829283E+05  9.506665E+04  9.041380E+04 -5.740663E+04  3.801530E-10 -8.216261E-10
       300  11  8.754507E+05  1.176006E+05  1.132829E+05 -3.655676E+04  1.392895E-10 -2.442366E-10
       300  12  9.686019E+05  1.408724E+05  1.382682E+05 -5.744989E+04 -8.897630E-10  1.527489E-10
       300  13  3.943319E+05  5.451892E+00  3.441285E+03 -5.740218E+04 -6.372409E-10  1.245603E-10
       300  14  3.940119E+05 -1.019534E+02  5.856868E+03 -3.652961E+04 -2.479900E-10 -5.585104E-10
       300  15  3.943055E+05  5.216476E+02  1.035907E+04 -5.740201E+04 -5.526516E-10 -1.411293E-10
       300  16  5.875939E+03 -9.506603E+04 -8.354076E+04 -5.739770E+04 -2.907203E-10 -2.355893E-11
       300  17 -8.721113E+04 -1.178203E+05 -1.015837E+05 -3.650244E+04 -6.895379E-10  1.315803E-10
       300  18 -1.796837E+05 -1.398515E+05 -1.175707E+05 -5.735413E+04  1.757622E-10 -1.622074E-10
       300  19  7.829284E+05  9.506702E+04  9.041445E+04 -5.740665E+04 -1.668427E+03  1.848951E+04
       300  20  8.754509E+05  1.176012E+05  1.132840E+05 -3.655674E+04  1.287676E+03  2.348802E+04
       300  21  9.686021E+05  1.408733E+05  1.382698E+05 -5.744979E+04  4.240891E+03  2.843508E+04
       300  22  3.943320E+05  5.820737E+00  3.441940E+03 -5.740214E+04  2.556699E+03  1.848745E+04
       300  23  3.940121E+05 -1.013529E+02  5.857961E+03 -3.652950E+04  5.467794E+03  2.348726E+04
       300  24  3.943058E+05  5.225349E+02  1.036072E+04 -5.740181E+04  8.375569E+03  2.843558E+04
       300  25  5.876080E+03 -9.506565E+04 -8.354003E+04 -5.739760E+04  6.779211E+03  1.848538E+04
       300  26 -8.721088E+04 -1.178197E+05 -1.015825E+05 -3.650226E+04  9.644707E+03  2.348649E+04
       300  27 -1.796833E+05 -1.398506E+05 -1.175689E+05 -5.735384E+04  1.250647E+04  2.843608E+04
       301   1  1.049327E+06  1.593290E+05  1.596767E+05 -5.566159E+04 -5.947482E+03 -3.148854E+04
       301   2  1.140308E+06  1.820933E+05  1.901110E+05 -3.727119E+04 -1.873801E+04 -3.623923E+04
       301   3  1.235921E+06  2.157337E+05  2.316329E+05 -6.077726E+04 -3.152598E+04 -3.970927E+04
       301   4  3.951341E+05 -6.373703E+02  1.348757E+04 -5.743587E+04 -1.047603E+04 -3.148996E+04
       301   5  3.928912E+05 -6.310027E+02  2.324297E+04 -3.648696E+04 -2.217668E+04 -3.624265E+04
       301   6  3.950907E+05  1.007136E+04  4.334019E+04 -5.743729E+04 -3.387291E+04 -3.971407E+04
       301   7 -2.586602E+05 -1.606328E+05 -1.327284E+05 -5.920822E+04 -1.499986E+04 -3.149135E+04
       301   8 -3.540056E+05 -1.833932E+05 -1.436601E+05 -3.570369E+04 -2.561125E+04 -3.624608E+04
       301   9 -4.450820E+05 -1.956391E+05 -1.449971E+05 -5.410191E+04 -3.621667E+04 -3.971890E+04
       301  10  1.049326E+06  1.593279E+05  1.596748E+05 -5.566174E+04  8.998283E-10 -3.080817E-10
       301  11  1.140307E+06  1.820918E+05  1.901078E+05 -3.727174E+04  1.592887E-09 -1.034239E-09
       301  12  1.235919E+06  2.157317E+05  2.316280E+05 -6.077826E+04  2.034936E-09 -2.412483E-10
       301  13  3.951337E+05 -6.384648E+02  1.348550E+04 -5.743613E+04 -3.213606E-10 -4.763867E-10
       301  14  3.928904E+05 -6.325455E+02  2.323958E+04 -3.648761E+04 -2.337585E-10 -9.524043E-10
       301  15  3.950891E+05  1.006936E+04  4.333507E+04 -5.743837E+04 -4.203611E-10 -3.232407E-10
       301  16 -2.586608E+05 -1.606339E+05 -1.327307E+05 -5.920860E+04 -1.056235E-09 -2.384620E-10
       301  17 -3.540067E+05 -1.833948E+05 -1.436638E+05 -3.570443E+04 -1.575636E-09 -9.787445E-10
       301  18 -4.450838E+05 -1.956411E+05 -1.450025E+05 -5.410307E+04 -1.418685E-09 -4.162944E-10
       301  19  1.049327E+06  1.593290E+05  1.596767E+05 -5.566159E+04  5.947482E+03  3.148854E+04
       301  20  1.140308E+06  1.820933E+05  1.901110E+05 -3.727119E+04  1.873801E+04  3.623923E+04
       301  21  1.235921E+06  2.157337E+05  2.316329E+05 -6.077726E+04  3.152598E+04  3.970927E+04
       301  22  3.951341E+05 -6.373703E+02  1.348757E+04 -5.743587E+04  1.047603E+04  3.148996E+04
       301  23  3.928912E+05 -6.310027E+02  2.324297E+04 -3.648696E+04  2.217668E+04  3.624265E+04
       301  24  3.950907E+05  1.007136E+04  4.334019E+04 -5.743729E+04  3.387291E+04  3.971407E+04
       301  25 -2.586602E+05 -1.606328E+05 -1.327284E+05 -5.920822E+04  1.499986E+04  3.149135E+04
       301  26 -3.540056E+05 -1.833932E+05 -1.436601E+05 -3.570369E+04  2.561125E+04  3.624608E+04
       301  27 -4.450820E+05 -1.956391E+05 -1.449971E+05 -5.410191E+04  3.621667E+04  3.971890E+04
       302   1  1.326609E+06  2.163355E+05  2.595887E+05 -3.233260E+04 -3.069912E+04 -4.551139E+04
       302   2  1.394466E+06  2.435290E+05  3.205147E+05 -6.163638E+04 -1.035555E+05 -4.429966E+04
       302   3  1.515163E+06  4.422429E+05  4.717926E+05 -1.321139E+05 -1.764645E+05 -1.435350E+04
       302   4  4.049008E+05 -8.918263E+03  5.427368E+04 -5.722803E+04 -4.168826E+04 -4.552073E+04
       302   5  3.805059E+05 -4.806848E+03  9.148420E+04 -3.673331E+04 -9.030092E+04 -4.429708E+04
       302   6  4.048178E+05  1.667627E+05  2.023111E+05 -5.740524E+04 -1.389519E+05 -1.432970E+04
       302   7 -5.160154E+05 -2.342273E+05 -1.510937E+05 -8.208623E+04 -5.266125E+04 -4.552919E+04
       302   8 -6.324986E+05 -2.532108E+05 -1.376112E+05 -1.187142E+04 -7.706761E+04 -4.429345E+04
       302   9 -7.043888E+05 -1.087861E+05 -6.725111E+04  1.716944E+04 -1.015058E+05 -1.429688E+04
       302  10  1.326608E+06  2.163331E+05  2.595830E+05 -3.233372E+04  1.751019E-08  1.119418E-09
       302  11  1.394454E+06  2.435240E+05  3.204909E+05 -6.164007E+04  1.040829E-09  1.286275E-09
       302  12  1.515130E+06  4.422343E+05  4.717338E+05 -1.321160E+05 -1.455093E-08  2.388923E-10
       302  13  4.048984E+05 -8.920955E+03  5.426652E+04 -5.722956E+04  7.424935E-10  1.242627E-09
       302  14  3.804966E+05 -4.811143E+03  9.146520E+04 -3.673653E+04 -1.814844E-10  2.986687E-09
       302  15  4.047970E+05  1.667573E+05  2.022744E+05 -5.740684E+04  2.572439E-10  3.245123E-10
       302  16 -5.160190E+05 -2.342302E+05 -1.511028E+05 -8.208816E+04 -1.739319E-08  7.481485E-10
       302  17 -6.325056E+05 -2.532145E+05 -1.376261E+05 -1.187417E+04 -1.394704E-09  1.444580E-09
       302  18 -7.043999E+05 -1.087890E+05 -6.727088E+04  1.716827E+04  1.473651E-08  4.279462E-11
       302  19  1.326609E+06  2.163355E+05  2.595887E+05 -3.233260E+04  3.069912E+04  4.551139E+04
       302  20  1.394466E+06  2.435290E+05  3.205147E+05 -6.163638E+04  1.035555E+05  4.429966E+04
       302  21  1.515163E+06  4.422429E+05  4.717926E+05 -1.321139E+05  1.764645E+05  1.435350E+04
       302  22  4.049008E+05 -8.918263E+03  5.427368E+04 -5.722803E+04  4.168826E+04  4.552073E+04
       302  23  3.805059E+05 -4.806848E+03  9.148420E+04 -3.673331E+04  9.030092E+04  4.429708E+04
       302  24  4.048178E+05  1.667627E+05  2.023111E+05 -5.740524E+04  1.389519E+05  1.432970E+04
       302  25 -5.160154E+05 -2.342273E+05 -1.510937E+05 -8.208623E+04  5.266125E+04  4.552919E+04
       302  26 -6.324986E+05 -2.532108E+05 -1.376112E+05 -1.187142E+04  7.706761E+04  4.429345E+04
       302  27 -7.043888E+05 -1.087861E+05 -6.725111E+04  1.716944E+04  1.015058E+05  1.429688E+04
       303   1  2.310242E+05  8.736531E+05  2.410521E+05 -1.622178E+05  6.933753E+03  7.041365E+04
       303   2  1.103768E+05  6.472437E+05  1.385115E+05 -9.503743E+04  1.873193E+04  3.583323E+04
       303   3  5.614916E+04  4.418007E+05  7.502992E+04 -1.240596E+05  1.141032E+04  1.244071E+03
       303   4  6.346499E+04  2.002230E+05  7.662561E+04 -1.329994E+05  6.957537E+03  5.245771E+04
       303   5 -1.561270E+03  1.911748E+05  3.481493E+04 -8.493685E+04  1.873577E+04  3.397323E+04
       303   6 -2.927499E+03  2.002845E+05  2.092082E+04 -1.330745E+05  1.139005E+04  1.546785E+04
       303   7 -1.041244E+05 -4.727916E+05 -8.783229E+04 -1.038126E+05  6.979650E+03  3.452116E+04
       303   8 -1.135133E+05 -2.647010E+05 -6.889508E+04 -7.484368E+04  1.873955E+04  3.211458E+04
       303   9 -6.200771E+04 -4.117689E+04 -3.319115E+04 -1.420859E+05  1.136935E+04  2.968616E+04
       303  10  2.310228E+05  8.736478E+05  2.410427E+05 -1.622182E+05 -1.000008E-10 -5.707402E-11
       303  11  1.103760E+05  6.472422E+05  1.385085E+05 -9.503797E+04 -1.161960E-10  3.388287E-10
       303  12  5.614902E+04  4.418007E+05  7.502967E+04 -1.240596E+05  3.796007E-10 -1.435172E-10
       303  13  6.346420E+04  2.002200E+05  7.662035E+04 -1.329997E+05  4.014137E-10  2.052207E-10
       303  14 -1.561956E+03  1.911735E+05  3.481211E+04 -8.493736E+04 -1.269491E-09  2.051000E-10
       303  15 -2.927702E+03  2.002842E+05  2.092013E+04 -1.330747E+05  1.159198E-10  3.113010E-10
       303  16 -1.041247E+05 -4.727929E+05 -8.783462E+04 -1.038128E+05 -2.428396E-10 -4.181090E-10
       303  17 -1.135140E+05 -2.647022E+05 -6.889768E+04 -7.484416E+04 -1.687589E-10 -8.510600E-11
       303  18 -6.200809E+04 -4.117787E+04 -3.319305E+04 -1.420862E+05 -1.651363E-10  2.320464E-10
       303  19  2.310242E+05  8.736531E+05  2.410521E+05 -1.622178E+05 -6.933753E+03 -7.041365E+04
       303  20  1.103768E+05  6.472437E+05  1.385115E+05 -9.503743E+04 -1.873193E+04 -3.583323E+04
       303  21  5.614916E+04  4.418007E+05  7.502992E+04 -1.240596E+05 -1.141032E+04 -1.244071E+03
       303  22  6.346499E+04  2.002230E+05  7.662561E+04 -1.329994E+05 -6.957537E+03 -5.245771E+04
       303  23 -1.561270E+03  1.911748E+05  3.481493E+04 -8.493685E+04 -1.873577E+04 -3.397323E+04
       303  24 -2.927499E+03  2.002845E+05  2.092082E+04 -1.330745E+05 -1.139005E+04 -1.546785E+04
       303  25 -1.041244E+05 -4.727916E+05 -8.783229E+04 -1.038126E+05 -6.979650E+03 -3.452116E+04
       303  26 -1.135133E+05 -2.647010E+05 -6.889508E+04 -7.484368E+04 -1.873955E+04 -3.211458E+04
       303  27 -6.200771E+04 -4.117689E+04 -3.319115E+04 -1.420859E+05 -1.136935E+04 -2.968616E+04
       304   1  1.791034E+04  2.525123E+05  2.945800E+04 -1.346958E+05  2.595572E+03  3.582034E+03
       304   2 -3.907921E+04  3.607859E+04 -2.602409E+04 -8.487548E+04 -7.734489E+03 -1.001748E+03
       304   3 -9.140453E+04 -1.788247E+05 -7.742811E+04 -1.319935E+05 -1.770607E+04 -5.581190E+03
       304   4  4.215921E+03  1.966033E+05  1.690606E+04 -1.332152E+05  2.582537E+03  1.241765E+04
       304   5  5.346071E+00  1.958236E+05  9.676494E+03 -8.474959E+04 -7.746133E+03  7.531897E+03
       304   6  5.143598E+02  1.965843E+05  6.737892E+03 -1.332203E+05 -1.771651E+04  2.648947E+03
       304   7 -9.478660E+03  1.406974E+05  4.354229E+03 -1.317348E+05  2.569544E+03  2.125247E+04
       304   8  3.908821E+04  3.555926E+05  4.537575E+04 -8.462365E+04 -7.757772E+03  1.606771E+04
       304   9  9.242368E+04  5.721247E+05  9.089523E+04 -1.344478E+05 -1.772697E+04  1.088401E+04
       304  10  1.791033E+04  2.525122E+05  2.945796E+04 -1.346958E+05 -5.176942E-12 -6.782208E-10
       304  11 -3.907928E+04  3.607857E+04 -2.602421E+04 -8.487549E+04  1.435997E-10  1.734199E-10
       304  12 -9.140488E+04 -1.788248E+05 -7.742876E+04 -1.319936E+05 -3.768687E-10 -1.847201E-10
       304  13  4.215872E+03  1.966031E+05  1.690576E+04 -1.332152E+05  8.930065E-11  3.229100E-10
       304  14  5.266423E+00  1.958236E+05  9.676274E+03 -8.474954E+04  8.124981E-10 -1.026084E-10
       304  15  5.140208E+02  1.965842E+05  6.737289E+03 -1.332203E+05  1.024201E-09  1.551832E-10
       304  16 -9.478788E+03  1.406969E+05  4.353368E+03 -1.317348E+05 -1.782372E-10  8.018590E-11
       304  17  3.908807E+04  3.555923E+05  4.537515E+04 -8.462355E+04 -8.245083E-10  1.030108E-10
       304  18  9.242331E+04  5.721245E+05  9.089442E+04 -1.344476E+05 -6.556031E-10  2.044181E-10
       304  19  1.791034E+04  2.525123E+05  2.945800E+04 -1.346958E+05 -2.595572E+03 -3.582034E+03
       304  20 -3.907921E+04  3.607859E+04 -2.602409E+04 -8.487548E+04  7.734489E+03  1.001748E+03
       304  21 -9.140453E+04 -1.788247E+05 -7.742811E+04 -1.319935E+05  1.770607E+04  5.581190E+03
       304  22  4.215921E+03  1.966033E+05  1.690606E+04 -1.332152E+05 -2.582537E+03 -1.241765E+04
       304  23  5.346071E+00  1.958236E+05  9.676494E+03 -8.474959E+04  7.746133E+03 -7.531897E+03
       304  24  5.143598E+02  1.965843E+05  6.737892E+03 -1.332203E+05  1.771651E+04 -2.648947E+03
       304  25 -9.478660E+03  1.406974E+05  4.354229E+03 -1.317348E+05 -2.569544E+03 -2.125247E+04
       304  26  3.908821E+04  3.555926E+05  4.537575E+04 -8.462365E+04  7.757772E+03 -1.606771E+04
       304  27  9.242368E+04  5.721247E+05  9.089523E+04 -1.344478E+05  1.772697E+04 -1.088401E+04
       305   1 -1.371996E+05 -3.643606E+05 -1.193985E+05 -1.335172E+05 -2.727087E+04 -1.458163E+04
       305   2 -1.904243E+05 -5.796069E+05 -1.702334E+05 -8.332061E+04 -3.291912E+04  5.315987E+03
       305   3 -2.397905E+05 -7.963665E+05 -2.330580E+05 -1.290842E+05 -1.138946E+04  2.522493E+04
       305   4  1.039846E+02  1.967357E+05  5.967245E+03 -1.330021E+05 -2.728951E+04  1.548653E+03
       305   5 -1.990608E+02  1.954870E+05  5.588593E+03 -8.502305E+04 -3.290991E+04 -1.367374E+03
       305   6  7.317570E+03  1.966405E+05  9.068501E+03 -1.329963E+05 -1.136770E+04 -4.264746E+03
       305   7  1.373863E+05  7.581259E+05  1.313142E+05 -1.324864E+05 -2.730810E+04  1.769337E+04
       305   8  1.899848E+05  9.711390E+05  1.813720E+05 -8.672747E+04 -3.290068E+04 -8.059006E+03
       305   9  2.543534E+05  1.190549E+06  2.511266E+05 -1.369145E+05 -1.134558E+04 -3.380151E+04
       305  10 -1.372005E+05 -3.643610E+05 -1.194003E+05 -1.335176E+05 -1.543804E-10 -4.550713E-10
       305  11 -1.904255E+05 -5.796072E+05 -1.702355E+05 -8.332047E+04  2.352633E-10  2.604231E-10
       305  12 -2.397908E+05 -7.963672E+05 -2.330595E+05 -1.290840E+05 -5.054149E-11  1.467500E-10
       305  13  1.031842E+02  1.967355E+05  5.965841E+03 -1.330021E+05 -9.362612E-10  1.758868E-10
       305  14 -2.002244E+02  1.954867E+05  5.586554E+03 -8.502309E+04  4.394865E-10 -3.506247E-11
       305  15  7.317426E+03  1.966405E+05  9.068224E+03 -1.329964E+05  6.718335E-11  1.970259E-10
       305  16  1.373855E+05  7.581254E+05  1.313122E+05 -1.324860E+05  3.175044E-10 -2.388892E-10
       305  17  1.899836E+05  9.711387E+05  1.813698E+05 -8.672769E+04  1.920855E-11 -2.675683E-10
       305  18  2.543529E+05  1.190548E+06  2.511242E+05 -1.369148E+05 -7.331158E-11 -1.825893E-12
       305  19 -1.371996E+05 -3.643606E+05 -1.193985E+05 -1.335172E+05  2.727087E+04  1.458163E+04
       305  20 -1.904243E+05 -5.796069E+05 -1.702334E+05 -8.332061E+04  3.291912E+04 -5.315987E+03
       305  21 -2.397905E+05 -7.963665E+05 -2.330580E+05 -1.290842E+05  1.138946E+04 -2.522493E+04
       305  22  1.039846E+02  1.967357E+05  5.967245E+03 -1.330021E+05  2.728951E+04 -1.548653E+03
       305  23 -1.990608E+02  1.954870E+05  5.588593E+03 -8.502305E+04  3.290991E+04  1.367374E+03
       305  24  7.317570E+03  1.966405E+05  9.068501E+03 -1.329963E+05  1.136770E+04  4.264746E+03
       305  25  1.373863E+05  7.581259E+05  1.313142E+05 -1.324864E+05  2.730810E+04 -1.769337E+04
       305  26  1.899848E+05  9.711390E+05  1.813720E+05 -8.672747E+04  3.290068E+04  8.059006E+03
       305  27  2.543534E+05  1.190549E+06  2.511266E+05 -1.369145E+05  1.134558E+04  3.380151E+04
       306   1 -1.382285E+06 -5.063164E+05 -3.134417E+05 -5.048307E+05 -1.416679E+05 -4.635278E+04
       306   2 -1.342060E+06 -3.044896E+05 -1.851110E+05 -5.019945E+05 -9.148162E+04 -1.294186E+04
       306   3 -1.355934E+06 -2.689055E+05 -1.401122E+05 -4.727141E+05 -3.665355E+04  8.131544E+03
       306   4 -9.884232E+05 -2.945553E+05 -1.955428E+05 -3.323735E+05 -1.268636E+05 -4.080694E+04
       306   5 -9.517801E+05 -1.378403E+05 -8.411485E+04 -3.735918E+05 -8.634066E+04 -1.101532E+04
       306   6 -9.672817E+05 -1.453979E+05 -4.831437E+04 -3.883776E+05 -4.117873E+04  6.432821E+03
       306   7 -5.943994E+05 -8.272917E+04 -7.765745E+04 -1.598010E+05 -1.120490E+05 -3.525340E+04
       306   8 -5.613494E+05  2.883258E+04  1.686860E+04 -2.451112E+05 -8.119617E+04 -9.087011E+03
       306   9 -5.784818E+05 -2.188989E+04  4.347278E+04 -3.039978E+05 -4.570699E+04  4.733340E+03
       306  10 -1.382307E+06 -5.063241E+05 -3.134835E+05 -5.048360E+05 -1.998765E-10 -5.829172E-11
       306  11 -1.342069E+06 -3.044920E+05 -1.851271E+05 -5.019954E+05 -3.127086E-10 -1.155332E-10
       306  12 -1.355936E+06 -2.689059E+05 -1.401149E+05 -4.727139E+05  7.454741E-10 -3.035232E-10
       306  13 -9.884410E+05 -2.945614E+05 -1.955762E+05 -3.323777E+05  7.925629E-10 -8.665295E-11
       306  14 -9.517881E+05 -1.378424E+05 -8.412911E+04 -3.735925E+05 -1.679103E-10 -3.501574E-10
       306  15 -9.672835E+05 -1.453984E+05 -4.831764E+04 -3.883773E+05 -2.074172E-10 -2.655867E-10
       306  16 -5.944133E+05 -8.273388E+04 -7.768341E+04 -1.598042E+05  2.014733E-10  2.821142E-11
       306  17 -5.613565E+05  2.883072E+04  1.685604E+04 -2.451118E+05 -4.489958E-10 -2.081125E-10
       306  18 -5.784841E+05 -2.189047E+04  4.346881E+04 -3.039977E+05 -1.013079E-09 -3.989967E-10
       306  19 -1.382285E+06 -5.063164E+05 -3.134417E+05 -5.048307E+05  1.416679E+05  4.635278E+04
       306  20 -1.342060E+06 -3.044896E+05 -1.851110E+05 -5.019945E+05  9.148162E+04  1.294186E+04
       306  21 -1.355934E+06 -2.689055E+05 -1.401122E+05 -4.727141E+05  3.665355E+04 -8.131544E+03
       306  22 -9.884232E+05 -2.945553E+05 -1.955428E+05 -3.323735E+05  1.268636E+05  4.080694E+04
       306  23 -9.517801E+05 -1.378403E+05 -8.411485E+04 -3.735918E+05  8.634066E+04  1.101532E+04
       306  24 -9.672817E+05 -1.453979E+05 -4.831437E+04 -3.883776E+05  4.117873E+04 -6.432821E+03
       306  25 -5.943994E+05 -8.272917E+04 -7.765745E+04 -1.598010E+05  1.120490E+05  3.525340E+04
       306  26 -5.613494E+05  2.883258E+04  1.686860E+04 -2.451112E+05  8.119617E+04  9.087011E+03
       306  27 -5.784818E+05 -2.188989E+04  4.347278E+04 -3.039978E+05  4.570699E+04 -4.733340E+03
       307   1 -1.301026E+06 -2.917727E+05 -1.233184E+05 -4.755739E+05 -3.321891E+04  6.633804E+03
       307   2 -1.271458E+06 -2.608487E+05 -9.569714E+04 -4.604036E+05 -2.232728E+04  9.307942E+03
       307   3 -1.235346E+06 -2.525497E+05 -7.873723E+04 -4.564152E+05 -1.121502E+04  1.139439E+04
       307   4 -9.609354E+05 -1.614208E+05 -3.850584E+04 -3.788908E+05 -3.397198E+04  6.350123E+03
       307   5 -9.635375E+05 -1.451307E+05 -1.956288E+04 -3.751816E+05 -2.353646E+04  8.853528E+03
       307   6 -9.595041E+05 -1.513712E+05 -1.091487E+04 -3.826547E+05 -1.288098E+04  1.076905E+04
       307   7 -6.207289E+05 -3.105875E+04  4.629811E+04 -2.821585E+05 -3.472549E+04  6.066262E+03
       307   8 -6.555225E+05 -2.940561E+04  5.656430E+04 -2.899208E+05 -2.474628E+04  8.398863E+03
       307   9 -6.835869E+05 -5.018827E+04  5.690172E+04 -3.088647E+05 -1.454774E+04  1.014343E+04
       307  10 -1.301027E+06 -2.917730E+05 -1.233206E+05 -4.755737E+05  2.414195E-10 -1.994184E-10
       307  11 -1.271459E+06 -2.608489E+05 -9.569824E+04 -4.604034E+05 -3.075017E-10  2.876663E-10
       307  12 -1.235346E+06 -2.525498E+05 -7.873771E+04 -4.564151E+05 -8.369333E-11  6.370446E-10
       307  13 -9.609366E+05 -1.614211E+05 -3.850809E+04 -3.788906E+05 -4.702720E-10 -1.768351E-10
       307  14 -9.635381E+05 -1.451309E+05 -1.956407E+04 -3.751814E+05 -4.817731E-10  2.072013E-10
       307  15 -9.595043E+05 -1.513714E+05 -1.091540E+04 -3.826546E+05 -5.068171E-10  2.335305E-10
       307  16 -6.207302E+05 -3.105911E+04  4.629578E+04 -2.821583E+05 -2.301849E-10  1.718153E-11
       307  17 -6.555232E+05 -2.940585E+04  5.656301E+04 -2.899206E+05 -4.080959E-10  1.422819E-10
       307  18 -6.835872E+05 -5.018844E+04  5.690113E+04 -3.088646E+05 -6.054449E-10 -3.724454E-10
       307  19 -1.301026E+06 -2.917727E+05 -1.233184E+05 -4.755739E+05  3.321891E+04 -6.633804E+03
       307  20 -1.271458E+06 -2.608487E+05 -9.569714E+04 -4.604036E+05  2.232728E+04 -9.307942E+03
       307  21 -1.235346E+06 -2.525497E+05 -7.873723E+04 -4.564152E+05  1.121502E+04 -1.139439E+04
       307  22 -9.609354E+05 -1.614208E+05 -3.850584E+04 -3.788908E+05  3.397198E+04 -6.350123E+03
       307  23 -9.635375E+05 -1.451307E+05 -1.956288E+04 -3.751816E+05  2.353646E+04 -8.853528E+03
       307  24 -9.595041E+05 -1.513712E+05 -1.091487E+04 -3.826547E+05  1.288098E+04 -1.076905E+04
       307  25 -6.207289E+05 -3.105875E+04  4.629811E+04 -2.821585E+05  3.472549E+04 -6.066262E+03
       307  26 -6.555225E+05 -2.940561E+04  5.656430E+04 -2.899208E+05  2.474628E+04 -8.398863E+03
       307  27 -6.835869E+05 -5.018827E+04  5.690172E+04 -3.088647E+05  1.454774E+04 -1.014343E+04
       308   1 -1.202618E+06 -2.433240E+05 -6.833778E+04 -4.487551E+05 -9.395674E+03  1.071423E+04
       308   2 -1.173812E+06 -2.236282E+05 -5.607434E+04 -4.324444E+05 -6.391151E+03  9.646227E+03
       308   3 -1.133488E+06 -2.167634E+05 -4.570326E+04 -4.298662E+05 -3.373688E+03  8.542072E+03
       308   4 -9.588698E+05 -1.524479E+05 -8.335836E+03 -3.820068E+05 -1.089394E+04  1.015198E+04
       308   5 -9.645828E+05 -1.457107E+05 -4.500935E+03 -3.752609E+05 -7.916892E+03  9.073941E+03
       308   6 -9.587732E+05 -1.517987E+05 -2.535958E+03 -3.822478E+05 -4.927036E+03  7.959710E+03
       308   7 -7.150645E+05 -6.156828E+04  5.166127E+04 -3.152350E+05 -1.239284E+04  9.589492E+03
       308   8 -7.553108E+05 -6.779029E+04  4.706913E+04 -3.180599E+05 -9.443196E+03  8.501445E+03
       308   9 -7.840280E+05 -8.683171E+04  4.062922E+04 -3.346171E+05 -6.480870E+03  7.377167E+03
       308  10 -1.202618E+06 -2.433241E+05 -6.833816E+04 -4.487550E+05  2.687671E-10  5.029816E-10
       308  11 -1.173812E+06 -2.236283E+05 -5.607459E+04 -4.324444E+05  3.998877E-09  1.260438E-09
       308  12 -1.133488E+06 -2.167635E+05 -4.570342E+04 -4.298662E+05  2.746434E-09  4.678220E-10
       308  13 -9.588699E+05 -1.524481E+05 -8.336253E+03 -3.820067E+05  1.118384E-09  5.689027E-10
       308  14 -9.645829E+05 -1.457108E+05 -4.501208E+03 -3.752609E+05  4.008536E-09  1.095709E-09
       308  15 -9.587732E+05 -1.517988E+05 -2.536123E+03 -3.822478E+05  1.531628E-09  3.773926E-10
       308  16 -7.150647E+05 -6.156842E+04  5.166081E+04 -3.152349E+05  2.246914E-09  3.601128E-10
       308  17 -7.553109E+05 -6.779039E+04  4.706883E+04 -3.180599E+05  2.998636E-09  7.806443E-10
       308  18 -7.840280E+05 -8.683178E+04  4.062904E+04 -3.346171E+05  2.298637E-10 -7.393507E-11
       308  19 -1.202618E+06 -2.433240E+05 -6.833778E+04 -4.487551E+05  9.395674E+03 -1.071423E+04
       308  20 -1.173812E+06 -2.236282E+05 -5.607434E+04 -4.324444E+05  6.391151E+03 -9.646227E+03
       308  21 -1.133488E+06 -2.167634E+05 -4.570326E+04 -4.298662E+05  3.373688E+03 -8.542072E+03
       308  22 -9.588698E+05 -1.524479E+05 -8.335836E+03 -3.820068E+05  1.089394E+04 -1.015198E+04
       308  23 -9.645828E+05 -1.457107E+05 -4.500935E+03 -3.752609E+05  7.916892E+03 -9.073941E+03
       308  24 -9.587732E+05 -1.517987E+05 -2.535958E+03 -3.822478E+05  4.927036E+03 -7.959710E+03
       308  25 -7.150645E+05 -6.156828E+04  5.166127E+04 -3.152350E+05  1.239284E+04 -9.589492E+03
       308  26 -7.553108E+05 -6.779029E+04  4.706913E+04 -3.180599E+05  9.443196E+03 -8.501445E+03
       308  27 -7.840280E+05 -8.683171E+04  4.062922E+04 -3.346171E+05  6.480870E+03 -7.377167E+03
       309   1 -1.102026E+06 -2.052335E+05 -3.715933E+04 -4.213995E+05 -2.576035E+03  7.528171E+03
       309   2 -1.073103E+06 -1.860945E+05 -2.790303E+04 -4.048532E+05 -1.237010E+03  5.775499E+03
       309   3 -1.032085E+06 -1.792026E+05 -1.910439E+04 -4.022931E+05  1.039336E+02  4.016647E+03
       309   4 -9.586732E+05 -1.518827E+05 -1.951736E+03 -3.822233E+05 -4.126279E+03  6.947103E+03
       309   5 -9.647165E+05 -1.457397E+05 -1.190558E+03 -3.752370E+05 -2.791953E+03  5.192810E+03
       309   6 -9.586651E+05 -1.518428E+05 -8.831331E+02 -3.822371E+05 -1.455750E+03  3.432330E+03
       309   7 -8.153000E+05 -9.853049E+04  3.325430E+04 -3.430387E+05 -5.676913E+03  6.365888E+03
       309   8 -8.563187E+05 -1.053844E+05  2.552095E+04 -3.456161E+05 -4.347190E+03  4.610011E+03
       309   9 -8.852402E+05 -1.244828E+05  1.733762E+04 -3.621791E+05 -3.015628E+03  2.847941E+03
       309  10 -1.102026E+06 -2.052335E+05 -3.715945E+04 -4.213995E+05  4.836723E-10 -4.130195E-11
       309  11 -1.073103E+06 -1.860945E+05 -2.790309E+04 -4.048532E+05  2.125754E-10  4.631338E-10
       309  12 -1.032085E+06 -1.792026E+05 -1.910442E+04 -4.022931E+05  5.045471E-10  5.244386E-10
       309  13 -9.586732E+05 -1.518827E+05 -1.951858E+03 -3.822232E+05  6.727164E-11 -3.132801E-10
       309  14 -9.647165E+05 -1.457398E+05 -1.190623E+03 -3.752370E+05  3.728371E-10  6.596012E-10
       309  15 -9.586651E+05 -1.518428E+05 -8.831592E+02 -3.822371E+05 -2.339476E-10  3.893843E-11
       309  16 -8.153000E+05 -9.853054E+04  3.325416E+04 -3.430387E+05 -1.764265E-10  3.013425E-11
       309  17 -8.563187E+05 -1.053844E+05  2.552088E+04 -3.456161E+05 -4.600272E-10 -1.571646E-10
       309  18 -8.852403E+05 -1.244828E+05  1.733759E+04 -3.621791E+05 -5.568642E-10 -3.664871E-10
       309  19 -1.102026E+06 -2.052335E+05 -3.715933E+04 -4.213995E+05  2.576035E+03 -7.528171E+03
       309  20 -1.073103E+06 -1.860945E+05 -2.790303E+04 -4.048532E+05  1.237010E+03 -5.775499E+03
       309  21 -1.032085E+06 -1.792026E+05 -1.910439E+04 -4.022931E+05 -1.039336E+02 -4.016647E+03
       309  22 -9.586732E+05 -1.518827E+05 -1.951736E+03 -3.822233E+05  4.126279E+03 -6.947103E+03
       309  23 -9.647165E+05 -1.457397E+05 -1.190558E+03 -3.752370E+05  2.791953E+03 -5.192810E+03
       309  24 -9.586651E+05 -1.518428E+05 -8.831331E+02 -3.822371E+05  1.455750E+03 -3.432330E+03
       309  25 -8.153000E+05 -9.853049E+04  3.325430E+04 -3.430387E+05  5.676913E+03 -6.365888E+03
       309  26 -8.563187E+05 -1.053844E+05  2.552095E+04 -3.456161E+05  4.347190E+03 -4.610011E+03
       309  27 -8.852402E+05 -1.244828E+05  1.733762E+04 -3.621791E+05  3.015628E+03 -2.847941E+03
       310   1 -1.000550E+06 -1.674424E+05 -1.105538E+04 -3.937172E+05  6.831554E+02  2.914594E+03
       310   2 -9.715220E+05 -1.482729E+05 -2.698332E+03 -3.770985E+05  1.936132E+03  1.117282E+03
       310   3 -9.303465E+05 -1.413840E+05  5.268814E+03 -3.745209E+05  3.188861E+03 -6.793599E+02
       310   4 -9.586535E+05 -1.518534E+05 -8.535783E+02 -3.822480E+05 -8.783360E+02  2.329649E+03
       310   5 -9.647277E+05 -1.457248E+05 -1.020697E+03 -3.752226E+05  3.751188E+02  5.325179E+02
       310   6 -9.586567E+05 -1.518772E+05 -1.578260E+03 -3.822391E+05  1.628291E+03 -1.263947E+03
       310   7 -9.167547E+05 -1.362642E+05  9.348161E+03 -3.707781E+05 -2.439950E+03  1.744658E+03
       310   8 -9.579334E+05 -1.431766E+05  6.569501E+02 -3.733468E+05 -1.185917E+03 -5.225467E+01
       310   9 -9.869662E+05 -1.623703E+05 -8.425384E+03 -3.899570E+05  6.779802E+01 -1.848506E+03
       310  10 -1.000550E+06 -1.674424E+05 -1.105540E+04 -3.937172E+05  2.860722E-10  4.551671E-10
       310  11 -9.715220E+05 -1.482729E+05 -2.698341E+03 -3.770985E+05  5.431872E-10  3.022758E-11
       310  12 -9.303465E+05 -1.413840E+05  5.268794E+03 -3.745209E+05  2.033283E-10 -5.751171E-11
       310  13 -9.586535E+05 -1.518534E+05 -8.535899E+02 -3.822480E+05 -3.491562E-10 -1.249742E-10
       310  14 -9.647277E+05 -1.457248E+05 -1.020698E+03 -3.752226E+05  6.714217E-10  3.826729E-10
       310  15 -9.586567E+05 -1.518772E+05 -1.578268E+03 -3.822391E+05  2.771320E-10 -5.929357E-11
       310  16 -9.167548E+05 -1.362642E+05  9.348144E+03 -3.707781E+05 -4.320148E-10 -4.663485E-10
       310  17 -9.579334E+05 -1.431766E+05  6.569474E+02 -3.733468E+05 -2.809775E-11  2.092133E-10
       310  18 -9.869662E+05 -1.623703E+05 -8.425391E+03 -3.899570E+05 -4.376997E-10 -2.696931E-10
       310  19 -1.000550E+06 -1.674424E+05 -1.105538E+04 -3.937172E+05 -6.831554E+02 -2.914594E+03
       310  20 -9.715220E+05 -1.482729E+05 -2.698332E+03 -3.770985E+05 -1.936132E+03 -1.117282E+03
       310  21 -9.303465E+05 -1.413840E+05  5.268814E+03 -3.745209E+05 -3.188861E+03  6.793599E+02
       310  22 -9.586535E+05 -1.518534E+05 -8.535783E+02 -3.822480E+05  8.783360E+02 -2.329649E+03
       310  23 -9.647277E+05 -1.457248E+05 -1.020697E+03 -3.752226E+05 -3.751188E+02 -5.325179E+02
       310  24 -9.586567E+05 -1.518772E+05 -1.578260E+03 -3.822391E+05 -1.628291E+03  1.263947E+03
       310  25 -9.167547E+05 -1.362642E+05  9.348161E+03 -3.707781E+05  2.439950E+03 -1.744658E+03
       310  26 -9.579334E+05 -1.431766E+05  6.569501E+02 -3.733468E+05  1.185917E+03  5.225467E+01
       310  27 -9.869662E+05 -1.623703E+05 -8.425384E+03 -3.899570E+05 -6.779802E+01  1.848506E+03
       311   1 -8.988229E+05 -1.296164E+05  1.284157E+04 -3.660321E+05  3.924698E+03 -1.725366E+03
       311   2 -8.697935E+05 -1.103982E+05  1.982111E+04 -3.493342E+05  6.425143E+03 -3.047152E+03
       311   3 -8.290076E+05 -1.039727E+05  2.533810E+04 -3.465553E+05  8.916833E+03 -4.344420E+03
       311   4 -9.587218E+05 -1.518254E+05 -2.024822E+03 -3.822746E+05  2.359189E+03 -2.311838E+03
       311   5 -9.646343E+05 -1.456788E+05 -3.546378E+03 -3.752212E+05  4.878501E+03 -3.626681E+03
       311   6 -9.587954E+05 -1.523288E+05 -6.545584E+03 -3.820873E+05  7.388959E+03 -4.917040E+03
       311   7 -1.018617E+06 -1.740341E+05 -1.689141E+04 -3.985156E+05  7.938516E+02 -2.898247E+03
       311   8 -1.059466E+06 -1.809588E+05 -2.691454E+04 -4.011046E+05  3.332118E+03 -4.206113E+03
       311   9 -1.088567E+06 -2.006841E+05 -3.843070E+04 -4.176127E+05  5.861428E+03 -5.489531E+03
       311  10 -8.988229E+05 -1.296164E+05  1.284154E+04 -3.660320E+05 -1.052385E-10  3.356357E-10
       311  11 -8.697935E+05 -1.103983E+05  1.982101E+04 -3.493342E+05 -1.007999E-10  3.815029E-10
       311  12 -8.290077E+05 -1.039727E+05  2.533792E+04 -3.465553E+05  5.252983E-10 -1.552684E-10
       311  13 -9.587218E+05 -1.518254E+05 -2.024843E+03 -3.822746E+05  6.598470E-11  2.222917E-10
       311  14 -9.646343E+05 -1.456789E+05 -3.546447E+03 -3.752212E+05 -4.155149E-10  8.299032E-11
       311  15 -9.587955E+05 -1.523289E+05 -6.545732E+03 -3.820873E+05 -3.403710E-10 -2.573545E-10
       311  16 -1.018617E+06 -1.740341E+05 -1.689143E+04 -3.985156E+05  2.415272E-10  6.038236E-10
       311  17 -1.059466E+06 -1.809588E+05 -2.691459E+04 -4.011046E+05  6.949020E-11  7.961299E-10
       311  18 -1.088567E+06 -2.006841E+05 -3.843083E+04 -4.176126E+05 -6.518086E-10  2.399985E-10
       311  19 -8.988229E+05 -1.296164E+05  1.284157E+04 -3.660321E+05 -3.924698E+03  1.725366E+03
       311  20 -8.697935E+05 -1.103982E+05  1.982111E+04 -3.493342E+05 -6.425143E+03  3.047152E+03
       311  21 -8.290076E+05 -1.039727E+05  2.533810E+04 -3.465553E+05 -8.916833E+03  4.344420E+03
       311  22 -9.587218E+05 -1.518254E+05 -2.024822E+03 -3.822746E+05 -2.359189E+03  2.311838E+03
       311  23 -9.646343E+05 -1.456788E+05 -3.546378E+03 -3.752212E+05 -4.878501E+03  3.626681E+03
       311  24 -9.587954E+05 -1.523288E+05 -6.545584E+03 -3.820873E+05 -7.388959E+03  4.917040E+03
       311  25 -1.018617E+06 -1.740341E+05 -1.689141E+04 -3.985156E+05 -7.938516E+02  2.898247E+03
       311  26 -1.059466E+06 -1.809588E+05 -2.691454E+04 -4.011046E+05 -3.332118E+03  4.206113E+03
       311  27 -1.088567E+06 -2.006841E+05 -3.843070E+04 -4.176127E+05 -5.861428E+03  5.489531E+03
       312   1 -7.971850E+05 -9.240052E+04  3.126466E+04 -3.396349E+05  1.070275E+04 -5.039902E+03
       312   2 -7.685490E+05 -7.175198E+04  3.294953E+04 -3.210053E+05  1.888140E+04 -4.124978E+03
       312   3 -7.318844E+05 -7.148445E+04  2.683250E+04 -3.143520E+05  2.689450E+04 -2.765816E+03
       312   4 -9.592840E+05 -1.514949E+05 -8.565190E+03 -3.826067E+05  9.045842E+03 -5.660979E+03
       312   5 -9.638223E+05 -1.452072E+05 -1.533749E+04 -3.751444E+05  1.757086E+04 -4.616530E+03
       312   6 -9.604028E+05 -1.593716E+05 -3.018839E+04 -3.796592E+05  2.592984E+04 -3.127997E+03
       312   7 -1.121357E+06 -2.105877E+05 -4.839702E+04 -4.255684E+05  7.389406E+03 -6.281887E+03
       312   8 -1.159057E+06 -2.186596E+05 -6.362731E+04 -4.292678E+05  1.626076E+04 -5.107908E+03
       312   9 -1.188869E+06 -2.472540E+05 -8.721306E+04 -4.449438E+05  2.496557E+04 -3.490021E+03
       312  10 -7.971851E+05 -9.240058E+04  3.126440E+04 -3.396349E+05 -4.155798E-10 -6.843599E-10
       312  11 -7.685494E+05 -7.175209E+04  3.294883E+04 -3.210053E+05 -3.647765E-09 -1.407879E-09
       312  12 -7.318852E+05 -7.148465E+04  2.683112E+04 -3.143520E+05 -2.587280E-09 -6.439375E-10
       312  13 -9.592841E+05 -1.514949E+05 -8.565405E+03 -3.826067E+05 -1.029550E-09 -2.555859E-10
       312  14 -9.638226E+05 -1.452073E+05 -1.533811E+04 -3.751443E+05 -3.489407E-09 -1.180211E-09
       312  15 -9.604035E+05 -1.593718E+05 -3.018967E+04 -3.796591E+05 -1.525141E-09 -6.118607E-10
       312  16 -1.121357E+06 -2.105878E+05 -4.839720E+04 -4.255684E+05 -2.654553E-09 -8.538456E-10
       312  17 -1.159058E+06 -2.186597E+05 -6.362786E+04 -4.292678E+05 -3.364027E-09 -9.927052E-10
       312  18 -1.188869E+06 -2.472542E+05 -8.721426E+04 -4.449438E+05 -1.555911E-10 -5.189200E-10
       312  19 -7.971850E+05 -9.240052E+04  3.126466E+04 -3.396349E+05 -1.070275E+04  5.039902E+03
       312  20 -7.685490E+05 -7.175198E+04  3.294953E+04 -3.210053E+05 -1.888140E+04  4.124978E+03
       312  21 -7.318844E+05 -7.148445E+04  2.683250E+04 -3.143520E+05 -2.689450E+04  2.765816E+03
       312  22 -9.592840E+05 -1.514949E+05 -8.565190E+03 -3.826067E+05 -9.045842E+03  5.660979E+03
       312  23 -9.638223E+05 -1.452072E+05 -1.533749E+04 -3.751444E+05 -1.757086E+04  4.616530E+03
       312  24 -9.604028E+05 -1.593716E+05 -3.018839E+04 -3.796592E+05 -2.592984E+04  3.127997E+03
       312  25 -1.121357E+06 -2.105877E+05 -4.839702E+04 -4.255684E+05 -7.389406E+03  6.281887E+03
       312  26 -1.159057E+06 -2.186596E+05 -6.362731E+04 -4.292678E+05 -1.626076E+04  5.107908E+03
       312  27 -1.188869E+06 -2.472540E+05 -8.721306E+04 -4.449438E+05 -2.496557E+04  3.490021E+03
       313   1 -6.915493E+05 -6.159098E+04  2.647404E+04 -3.295256E+05  3.549853E+04 -1.991194E+03
       313   2 -6.713692E+05 -1.745164E+04  7.557616E+03 -2.795223E+05  6.375264E+04  8.402981E+03
       313   3 -6.877703E+05 -1.034538E+05 -6.480939E+04 -2.120875E+05  8.849341E+04  2.816841E+04
       313   4 -9.653764E+05 -1.468137E+05 -3.787754E+04 -3.870995E+05  3.166761E+04 -3.427253E+03
       313   5 -9.546119E+05 -1.394799E+05 -6.593898E+04 -3.738876E+05  6.726789E+04  9.719208E+03
       313   6 -9.819117E+05 -2.637861E+05 -1.532969E+05 -3.432413E+05  9.935287E+04  3.223486E+04
       313   7 -1.239131E+06 -2.320369E+05 -1.022346E+05 -4.446531E+05  2.783852E+04 -4.862891E+03
       313   8 -1.237774E+06 -2.614947E+05 -1.394420E+05 -4.682110E+05  7.078138E+04  1.103454E+04
       313   9 -1.275959E+06 -4.240784E+05 -2.417911E+05 -4.743282E+05  1.102066E+05  3.629697E+04
       313  10 -6.915507E+05 -6.159132E+04  2.647166E+04 -3.295256E+05 -6.412691E-10  8.582050E-11
       313  11 -6.713736E+05 -1.745281E+04  7.549837E+03 -2.795227E+05 -4.656143E-10 -1.654441E-10
       313  12 -6.877790E+05 -1.034568E+05 -6.482561E+04 -2.120895E+05 -8.814211E-11 -1.656279E-10
       313  13 -9.653775E+05 -1.468140E+05 -3.787945E+04 -3.870994E+05  1.850094E-10 -1.775290E-10
       313  14 -9.546168E+05 -1.394812E+05 -6.594768E+04 -3.738882E+05 -8.562789E-10 -9.002197E-11
       313  15 -9.819226E+05 -2.637898E+05 -1.533175E+05 -3.432439E+05  2.389296E-10 -1.019271E-10
       313  16 -1.239132E+06 -2.320372E+05 -1.022361E+05 -4.446530E+05  5.797402E-10 -3.529994E-10
       313  17 -1.237780E+06 -2.614962E+05 -1.394517E+05 -4.682116E+05 -2.203753E-10  3.794098E-11
       313  18 -1.275973E+06 -4.240831E+05 -2.418165E+05 -4.743314E+05  2.806903E-10  2.049125E-11
       313  19 -6.915493E+05 -6.159098E+04  2.647404E+04 -3.295256E+05 -3.549853E+04  1.991194E+03
       313  20 -6.713692E+05 -1.745164E+04  7.557616E+03 -2.795223E+05 -6.375264E+04 -8.402981E+03
       313  21 -6.877703E+05 -1.034538E+05 -6.480939E+04 -2.120875E+05 -8.849341E+04 -2.816841E+04
       313  22 -9.653764E+05 -1.468137E+05 -3.787754E+04 -3.870995E+05 -3.166761E+04  3.427253E+03
       313  23 -9.546119E+05 -1.394799E+05 -6.593898E+04 -3.738876E+05 -6.726789E+04 -9.719208E+03
       313  24 -9.819117E+05 -2.637861E+05 -1.532969E+05 -3.432413E+05 -9.935287E+04 -3.223486E+04
       313  25 -1.239131E+06 -2.320369E+05 -1.022346E+05 -4.446531E+05 -2.783852E+04  4.862891E+03
       313  26 -1.237774E+06 -2.614947E+05 -1.394420E+05 -4.682110E+05 -7.078138E+04 -1.103454E+04
       313  27 -1.275959E+06 -4.240784E+05 -2.417911E+05 -4.743282E+05 -1.102066E+05 -3.629697E+04
       314   1  1.856741E+05  5.171378E+04  1.208863E+05  7.999351E+04  2.169881E+05  1.306824E+04
       314   2  2.361042E+05 -2.315717E+05 -4.079401E+04  1.037198E+04  1.512257E+05  3.983596E+04
       314   3  3.701448E+05 -2.166054E+05 -8.499500E+04 -9.973426E+04  8.548257E+04  4.055812E+04
       314   4  1.190899E+06  3.009511E+05  3.649392E+05 -5.550646E+04  2.507970E+05  1.306195E+04
       314   5  1.147371E+06 -8.374026E+03  1.651204E+05 -3.510157E+04  1.630136E+05  3.983182E+04
       314   6  1.191115E+06 -1.589779E+04  9.792345E+04 -5.517367E+04  7.526308E+04  4.055417E+04
       314   7  2.197088E+06  5.501844E+05  6.089335E+05 -1.912266E+05  2.846603E+05  1.304095E+04
       314   8  2.059414E+06  2.147746E+05  3.709833E+05 -8.064262E+04  1.748184E+05  3.982597E+04
       314   9  2.012717E+06  1.847716E+05  2.808012E+05 -1.055362E+04  6.503018E+04  4.054875E+04
       314  10  1.856235E+05  5.170096E+04  1.207975E+05  7.999123E+04 -6.391355E-10  4.780306E-10
       314  11  2.360792E+05 -2.315795E+05 -4.083994E+04  1.036713E+04  1.409192E-10 -3.099822E-10
       314  12  3.701366E+05 -2.166091E+05 -8.501182E+04 -9.973706E+04  5.545879E-10 -8.252726E-11
       314  13  1.190832E+06  3.009341E+05  3.648209E+05 -5.550910E+04  7.693502E-10  1.636396E-10
       314  14  1.147342E+06 -8.382847E+03  1.650676E+05 -3.510679E+04 -1.709905E-09 -1.344889E-09
       314  15  1.191108E+06 -1.590108E+04  9.790973E+04 -5.517613E+04  5.947564E-10 -2.804804E-11
       314  16  2.197001E+06  5.501626E+05  6.087814E+05 -1.912296E+05  1.025922E-09 -1.873676E-10
       314  17  2.059380E+06  2.147647E+05  3.709230E+05 -8.064822E+04 -2.095483E-10 -3.183065E-10
       314  18  2.012712E+06  1.847687E+05  2.807902E+05 -1.055574E+04 -6.670914E-10 -2.931559E-10
       314  19  1.856741E+05  5.171378E+04  1.208863E+05  7.999351E+04 -2.169881E+05 -1.306824E+04
       314  20  2.361042E+05 -2.315717E+05 -4.079401E+04  1.037198E+04 -1.512257E+05 -3.983596E+04
       314  21  3.701448E+05 -2.166054E+05 -8.499500E+04 -9.973426E+04 -8.548257E+04 -4.055812E+04
       314  22  1.190899E+06  3.009511E+05  3.649392E+05 -5.550646E+04 -2.507970E+05 -1.306195E+04
       314  23  1.147371E+06 -8.374026E+03  1.651204E+05 -3.510157E+04 -1.630136E+05 -3.983182E+04
       314  24  1.191115E+06 -1.589779E+04  9.792345E+04 -5.517367E+04 -7.526308E+04 -4.055417E+04
       314  25  2.197088E+06  5.501844E+05  6.089335E+05 -1.912266E+05 -2.846603E+05 -1.304095E+04
       314  26  2.059414E+06  2.147746E+05  3.709833E+05 -8.064262E+04 -1.748184E+05 -3.982597E+04
       314  27  2.012717E+06  1.847716E+05  2.808012E+05 -1.055362E+04 -6.503018E+04 -4.054875E+04
       315   1  4.308141E+05 -1.633361E+05 -8.810144E+04 -4.909006E+04  6.352551E+04  3.509612E+04
       315   2  5.171533E+05 -1.605202E+05 -1.036790E+05 -3.361293E+04  4.337690E+04  3.163311E+04
       315   3  6.110992E+05 -1.386245E+05 -1.013263E+05 -5.862403E+04  2.322267E+04  2.702577E+04
       315   4  1.173440E+06  1.831657E+04  7.820884E+04 -5.526493E+04  6.115229E+04  3.509142E+04
       315   5  1.169588E+06 -1.019871E+03  4.198274E+04 -3.501985E+04  4.001851E+04  3.162988E+04
       315   6  1.173495E+06 -1.118035E+03  2.435419E+04 -5.525971E+04  1.888200E+04  2.702427E+04
       315   7  1.916580E+06  1.999318E+05  2.444844E+05 -6.144729E+04  5.877623E+04  3.508677E+04
       315   8  1.822418E+06  1.584515E+05  1.876178E+05 -3.642828E+04  3.665662E+04  3.162667E+04
       315   9  1.736186E+06  1.363670E+05  1.500149E+05 -5.189230E+04  1.453744E+04  2.702273E+04
       315  10  4.308094E+05 -1.633385E+05 -8.811134E+04 -4.909185E+04 -5.571861E-10 -4.121577E-10
       315  11  5.171510E+05 -1.605217E+05 -1.036844E+05 -3.361403E+04 -5.296022E-10  3.740307E-10
       315  12  6.110984E+05 -1.386255E+05 -1.013287E+05 -5.862453E+04 -6.887271E-10 -2.982668E-11
       315  13  1.173436E+06  1.831425E+04  7.819951E+04 -5.526666E+04  2.837819E-10 -1.415040E-10
       315  14  1.169586E+06 -1.021375E+03  4.197785E+04 -3.502087E+04 -4.343499E-10  1.747648E-11
       315  15  1.173495E+06 -1.118916E+03  2.435214E+04 -5.526012E+04 -4.679704E-10  1.871578E-10
       315  16  1.916576E+06  1.999296E+05  2.444756E+05 -6.144895E+04  1.195077E-09  2.182817E-10
       315  17  1.822417E+06  1.584501E+05  1.876134E+05 -3.642922E+04 -7.972583E-10 -3.638408E-10
       315  18  1.736185E+06  1.363662E+05  1.500131E+05 -5.189262E+04  5.090104E-10  1.946916E-10
       315  19  4.308141E+05 -1.633361E+05 -8.810144E+04 -4.909006E+04 -6.352551E+04 -3.509612E+04
       315  20  5.171533E+05 -1.605202E+05 -1.036790E+05 -3.361293E+04 -4.337690E+04 -3.163311E+04
       315  21  6.110992E+05 -1.386245E+05 -1.013263E+05 -5.862403E+04 -2.322267E+04 -2.702577E+04
       315  22  1.173440E+06  1.831657E+04  7.820884E+04 -5.526493E+04 -6.115229E+04 -3.509142E+04
       315  23  1.169588E+06 -1.019871E+03  4.198274E+04 -3.501985E+04 -4.001851E+04 -3.162988E+04
       315  24  1.173495E+06 -1.118035E+03  2.435419E+04 -5.525971E+04 -1.888200E+04 -2.702427E+04
       315  25  1.916580E+06  1.999318E+05  2.444844E+05 -6.144729E+04 -5.877623E+04 -3.508677E+04
       315  26  1.822418E+06  1.584515E+05  1.876178E+05 -3.642828E+04 -3.665662E+04 -3.162667E+04
       315  27  1.736186E+06  1.363670E+05  1.500149E+05 -5.189230E+04 -1.453744E+04 -2.702273E+04
       316   1  6.864061E+05 -1.176765E+05 -8.937554E+04 -5.526755E+04  1.906032E+04  2.409367E+04
       316   2  7.749090E+05 -9.710266E+04 -7.783890E+04 -3.532054E+04  1.382038E+04  1.933951E+04
       316   3  8.644625E+05 -7.527502E+04 -6.256930E+04 -5.541099E+04  8.577052E+03  1.454841E+04
       316   4  1.172021E+06  9.682963E+02  1.872581E+04 -5.516125E+04  1.508594E+04  2.409288E+04
       316   5  1.171510E+06 -1.742195E+02  1.062631E+04 -3.514350E+04  9.810881E+03  1.933970E+04
       316   6  1.172045E+06 -5.760710E+01  6.281497E+03 -5.516164E+04  4.533166E+03  1.454963E+04
       316   7  1.657855E+06  1.195971E+05  1.268125E+05 -5.505485E+04  1.110848E+04  2.409208E+04
       316   8  1.568257E+06  9.674356E+04  9.908172E+04 -3.496633E+04  5.798847E+03  1.933989E+04
       316   9  1.479716E+06  7.515338E+04  7.512639E+04 -5.491215E+04  4.872999E+02  1.455084E+04
       316  10  6.864056E+05 -1.176772E+05 -8.937732E+04 -5.526792E+04  6.053306E-10 -2.121554E-10
       316  11  7.749087E+05 -9.710311E+04 -7.783996E+04 -3.532076E+04  2.127836E-10 -3.551114E-10
       316  12  8.644624E+05 -7.527527E+04 -6.256984E+04 -5.541109E+04 -1.059239E-09  6.316717E-10
       316  13  1.172021E+06  9.676116E+02  1.872429E+04 -5.516154E+04 -7.222152E-11  5.413854E-11
       316  14  1.171510E+06 -1.746471E+02  1.062543E+04 -3.514365E+04 -2.453907E-10 -3.037099E-10
       316  15  1.172045E+06 -5.784006E+01  6.281060E+03 -5.516169E+04 -1.733890E-11  1.749352E-10
       316  16  1.657855E+06  1.195965E+05  1.268112E+05 -5.505506E+04  6.993573E-11  2.093528E-10
       316  17  1.568257E+06  9.674315E+04  9.908095E+04 -3.496642E+04  4.627823E-10 -8.181548E-11
       316  18  1.479716E+06  7.515315E+04  7.512599E+04 -5.491216E+04  1.931691E-10  5.072481E-10
       316  19  6.864061E+05 -1.176765E+05 -8.937554E+04 -5.526755E+04 -1.906032E+04 -2.409367E+04
       316  20  7.749090E+05 -9.710266E+04 -7.783890E+04 -3.532054E+04 -1.382038E+04 -1.933951E+04
       316  21  8.644625E+05 -7.527502E+04 -6.256930E+04 -5.541099E+04 -8.577052E+03 -1.454841E+04
       316  22  1.172021E+06  9.682963E+02  1.872581E+04 -5.516125E+04 -1.508594E+04 -2.409288E+04
       316  23  1.171510E+06 -1.742195E+02  1.062631E+04 -3.514350E+04 -9.810881E+03 -1.933970E+04
       316  24  1.172045E+06 -5.760710E+01  6.281497E+03 -5.516164E+04 -4.533166E+03 -1.454963E+04
       316  25  1.657855E+06  1.195971E+05  1.268125E+05 -5.505485E+04 -1.110848E+04 -2.409208E+04
       316  26  1.568257E+06  9.674356E+04  9.908172E+04 -3.496633E+04 -5.798847E+03 -1.933989E+04
       316  27  1.479716E+06  7.515338E+04  7.512639E+04 -5.491215E+04 -4.872999E+02 -1.455084E+04
       317   1  9.403421E+05 -5.647240E+04 -4.647767E+04 -5.516452E+04  7.542680E+03  1.175561E+04
       317   2  1.028711E+06 -3.496927E+04 -2.873861E+04 -3.524264E+04  5.973171E+03  6.976546E+03
       317   3  1.117286E+06 -1.334705E+04 -9.957930E+03 -5.509936E+04  4.402505E+03  2.200725E+03
       317   4  1.171866E+06  5.471182E+01  4.904641E+03 -5.510425E+04  3.522368E+03  1.175724E+04
       317   5  1.171771E+06 -1.131595E+01  3.165697E+03 -3.521526E+04  1.954816E+03  6.978514E+03
       317   6  1.171874E+06  4.178352E+01  2.466923E+03 -5.510430E+04  3.863262E+02  2.203064E+03
       317   7  1.403441E+06  5.657821E+04  5.628369E+04 -5.504396E+04 -4.994255E+02  1.175886E+04
       317   8  1.314851E+06  3.494526E+04  3.506878E+04 -3.518786E+04 -2.064454E+03  6.980481E+03
       317   9  1.226466E+06  1.343042E+04  1.489164E+04 -5.510924E+04 -3.630202E+03  2.205403E+03
       317  10  9.403420E+05 -5.647256E+04 -4.647804E+04 -5.516459E+04  5.538363E-10  4.531424E-10
       317  11  1.028711E+06 -3.496933E+04 -2.873877E+04 -3.524268E+04 -3.208027E-10  1.717168E-10
       317  12  1.117286E+06 -1.334706E+04 -9.957976E+03 -5.509937E+04 -9.673692E-10  2.413582E-10
       317  13  1.171866E+06  5.455997E+01  4.904357E+03 -5.510429E+04 -8.991924E-10  7.260669E-10
       317  14  1.171771E+06 -1.136930E+01  3.165598E+03 -3.521527E+04 -3.788407E-10 -6.592553E-10
       317  15  1.171874E+06  4.177826E+01  2.466913E+03 -5.510430E+04 -5.621893E-10 -5.244425E-10
       317  16  1.403441E+06  5.657806E+04  5.628343E+04 -5.504395E+04 -8.358648E-10 -2.793738E-10
       317  17  1.314851E+06  3.494521E+04  3.506868E+04 -3.518785E+04 -2.209703E-10 -3.526660E-10
       317  18  1.226466E+06  1.343042E+04  1.489161E+04 -5.510923E+04  7.844459E-10 -8.715770E-10
       317  19  9.403421E+05 -5.647240E+04 -4.647767E+04 -5.516452E+04 -7.542680E+03 -1.175561E+04
       317  20  1.028711E+06 -3.496927E+04 -2.873861E+04 -3.524264E+04 -5.973171E+03 -6.976546E+03
       317  21  1.117286E+06 -1.334705E+04 -9.957930E+03 -5.509936E+04 -4.402505E+03 -2.200725E+03
       317  22  1.171866E+06  5.471182E+01  4.904641E+03 -5.510425E+04 -3.522368E+03 -1.175724E+04
       317  23  1.171771E+06 -1.131595E+01  3.165697E+03 -3.521526E+04 -1.954816E+03 -6.978514E+03
       317  24  1.171874E+06  4.178352E+01  2.466923E+03 -5.510430E+04 -3.863262E+02 -2.203064E+03
       317  25  1.403441E+06  5.657821E+04  5.628369E+04 -5.504396E+04  4.994255E+02 -1.175886E+04
       317  26  1.314851E+06  3.494526E+04  3.506878E+04 -3.518786E+04  2.064454E+03 -6.980481E+03
       317  27  1.226466E+06  1.343042E+04  1.489164E+04 -5.510924E+04  3.630202E+03 -2.205403E+03
       318   1  1.193095E+06  5.278702E+03  7.395437E+03 -5.510748E+04  3.957696E+03 -5.774178E+02
       318   2  1.281456E+06  2.679165E+04  2.731758E+04 -3.520160E+04  2.541268E+03 -5.351342E+03
       318   3  1.369994E+06  4.841141E+04  4.817631E+04 -5.505809E+04  1.125384E+03 -1.012736E+04
       318   4  1.171869E+06  4.207775E+01  2.410396E+03 -5.510091E+04 -5.821725E+01 -5.750525E+02
       318   5  1.171780E+06 -4.431169E+00  2.862105E+03 -3.521949E+04 -1.476446E+03 -5.349265E+03
       318   6  1.171863E+06  5.704449E+01  4.252438E+03 -5.510087E+04 -2.893934E+03 -1.012554E+04
       318   7  1.150643E+06 -5.194570E+03 -2.574616E+03 -5.509435E+04 -4.073994E+03 -5.726874E+02
       318   8  1.062116E+06 -2.680132E+04 -2.159406E+04 -3.523738E+04 -5.493459E+03 -5.347189E+03
       318   9  9.737681E+05 -4.829996E+04 -3.967381E+04 -5.514364E+04 -6.911986E+03 -1.012372E+04
       318  10  1.193095E+06  5.278697E+03  7.395407E+03 -5.510748E+04 -6.277450E-10 -1.751471E-14
       318  11  1.281456E+06  2.679162E+04  2.731751E+04 -3.520159E+04 -1.746868E-11 -1.726328E-10
       318  12  1.369994E+06  4.841130E+04  4.817612E+04 -5.505808E+04  3.708104E-10 -2.220612E-10
       318  13  1.171869E+06  4.207740E+01  2.410395E+03 -5.510091E+04 -1.512509E-09  6.382292E-10
       318  14  1.171780E+06 -4.462498E+00  2.862047E+03 -3.521950E+04 -1.798864E-10  5.079832E-10
       318  15  1.171863E+06  5.693208E+01  4.252230E+03 -5.510090E+04 -1.844677E-10 -9.291144E-10
       318  16  1.150643E+06 -5.194575E+03 -2.574648E+03 -5.509435E+04  8.068893E-11 -9.784162E-11
       318  17  1.062116E+06 -2.680136E+04 -2.159417E+04 -3.523740E+04 -1.388777E-09  6.359630E-10
       318  18  9.737680E+05 -4.830009E+04 -3.967409E+04 -5.514369E+04  1.327585E-10 -5.183262E-10
       318  19  1.193095E+06  5.278702E+03  7.395437E+03 -5.510748E+04 -3.957696E+03  5.774178E+02
       318  20  1.281456E+06  2.679165E+04  2.731758E+04 -3.520160E+04 -2.541268E+03  5.351342E+03
       318  21  1.369994E+06  4.841141E+04  4.817631E+04 -5.505809E+04 -1.125384E+03  1.012736E+04
       318  22  1.171869E+06  4.207775E+01  2.410396E+03 -5.510091E+04  5.821725E+01  5.750525E+02
       318  23  1.171780E+06 -4.431169E+00  2.862105E+03 -3.521949E+04  1.476446E+03  5.349265E+03
       318  24  1.171863E+06  5.704449E+01  4.252438E+03 -5.510087E+04  2.893934E+03  1.012554E+04
       318  25  1.150643E+06 -5.194570E+03 -2.574616E+03 -5.509435E+04  4.073994E+03  5.726874E+02
       318  26  1.062116E+06 -2.680132E+04 -2.159406E+04 -3.523738E+04  5.493459E+03  5.347189E+03
       318  27  9.737681E+05 -4.829996E+04 -3.967381E+04 -5.514364E+04  6.911986E+03  1.012372E+04
       319   1  1.446177E+06  6.698903E+04  6.676656E+04 -5.495367E+04  2.761437E+02 -1.291700E+04
       319   2  1.534694E+06  8.856668E+04  8.999075E+04 -3.502852E+04 -4.240757E+03 -1.770141E+04
       319   3  1.624105E+06  1.112188E+05  1.164240E+05 -5.508324E+04 -8.755986E+03 -2.244922E+04
       319   4  1.172012E+06 -3.829940E+01  5.390339E+03 -5.514952E+04 -3.765786E+03 -1.291554E+04
       319   5  1.171561E+06 -1.416969E+02  9.027700E+03 -3.515868E+04 -8.249802E+03 -1.770089E+04
       319   6  1.171990E+06  8.244524E+02  1.585289E+04 -5.514914E+04 -1.273151E+04 -2.244960E+04
       319   7  8.979165E+05 -6.707073E+04 -5.599057E+04 -5.534526E+04 -7.805953E+03 -1.291409E+04
       319   8  8.085501E+05 -8.885900E+04 -7.194355E+04 -3.528875E+04 -1.225653E+04 -1.770038E+04
       319   9  7.200657E+05 -1.095837E+05 -8.473094E+04 -5.521498E+04 -1.670418E+04 -2.244998E+04
       319  10  1.446177E+06  6.698885E+04  6.676625E+04 -5.495367E+04 -9.713024E-10  2.774457E-10
       319  11  1.534694E+06  8.856634E+04  8.999013E+04 -3.502858E+04  8.992607E-10 -1.249916E-10
       319  12  1.624105E+06  1.112182E+05  1.164229E+05 -5.508340E+04 -1.475315E-10  4.643758E-10
       319  13  1.172012E+06 -3.848243E+01  5.389999E+03 -5.514956E+04 -5.804961E-10 -5.438162E-10
       319  14  1.171560E+06 -1.420518E+02  9.026983E+03 -3.515880E+04  7.582048E-10 -1.259272E-10
       319  15  1.171990E+06  8.238675E+02  1.585163E+04 -5.514937E+04 -4.177154E-10  3.214293E-10
       319  16  8.979164E+05 -6.707093E+04 -5.599100E+04 -5.534534E+04 -6.082619E-11 -3.200265E-12
       319  17  8.085498E+05 -8.885937E+04 -7.194443E+04 -3.528893E+04 -3.055861E-10 -1.655372E-10
       319  18  7.200653E+05 -1.095843E+05 -8.473241E+04 -5.521528E+04 -2.512076E-10  1.428946E-10
       319  19  1.446177E+06  6.698903E+04  6.676656E+04 -5.495367E+04 -2.761437E+02  1.291700E+04
       319  20  1.534694E+06  8.856668E+04  8.999075E+04 -3.502852E+04  4.240757E+03  1.770141E+04
       319  21  1.624105E+06  1.112188E+05  1.164240E+05 -5.508324E+04  8.755986E+03  2.244922E+04
       319  22  1.172012E+06 -3.829940E+01  5.390339E+03 -5.514952E+04  3.765786E+03  1.291554E+04
       319  23  1.171561E+06 -1.416969E+02  9.027700E+03 -3.515868E+04  8.249802E+03  1.770089E+04
       319  24  1.171990E+06  8.244524E+02  1.585289E+04 -5.514914E+04  1.273151E+04  2.244960E+04
       319  25  8.979165E+05 -6.707073E+04 -5.599057E+04 -5.534526E+04  7.805953E+03  1.291409E+04
       319  26  8.085501E+05 -8.885900E+04 -7.194355E+04 -3.528875E+04  1.225653E+04  1.770038E+04
       319  27  7.200657E+05 -1.095837E+05 -8.473094E+04 -5.521498E+04  1.670418E+04  2.244998E+04
       320   1  1.702081E+06  1.282810E+05  1.387227E+05 -5.242571E+04 -1.161398E+04 -2.537114E+04
       320   2  1.788734E+06  1.502995E+05  1.735418E+05 -3.625403E+04 -3.043134E+04 -2.997222E+04
       320   3  1.882116E+06  1.887350E+05  2.247289E+05 -6.049131E+04 -4.924828E+04 -3.346614E+04
       320   4  1.173237E+06 -9.392637E+02  2.060381E+04 -5.524387E+04 -1.594415E+04 -2.537221E+04
       320   5  1.169929E+06 -8.640407E+02  3.549200E+04 -3.503997E+04 -3.381364E+04 -2.997491E+04
       320   6  1.173187E+06  1.547463E+04  6.610371E+04 -5.524696E+04 -5.168003E+04 -3.347015E+04
       320   7  6.446528E+05 -1.301785E+05 -9.753262E+04 -5.805960E+04 -2.027068E+04 -2.537325E+04
       320   8  5.514796E+05 -1.520535E+05 -1.025818E+05 -3.382713E+04 -3.719259E+04 -2.997761E+04
       320   9  4.647248E+05 -1.578198E+05 -9.255313E+04 -5.000866E+04 -5.410901E+04 -3.347419E+04
       320  10  1.702081E+06  1.282803E+05  1.387213E+05 -5.242595E+04  7.147766E-10  2.249083E-10
       320  11  1.788733E+06  1.502983E+05  1.735384E+05 -3.625476E+04 -3.451976E-10 -3.029033E-10
       320  12  1.882114E+06  1.887331E+05  2.247223E+05 -6.049264E+04 -7.226517E-10 -6.467831E-10
       320  13  1.173237E+06 -9.400235E+02  2.060212E+04 -5.524420E+04 -1.024812E-09  1.776065E-10
       320  14  1.169927E+06 -8.653124E+02  3.548816E+04 -3.504078E+04 -7.206547E-10 -3.375958E-10
       320  15  1.173184E+06  1.547271E+04  6.609659E+04 -5.524835E+04  2.447123E-11 -4.319782E-10
       320  16  6.446522E+05 -1.301793E+05 -9.753460E+04 -5.806001E+04 -5.251222E-10 -2.465871E-10
       320  17  5.514779E+05 -1.520548E+05 -1.025861E+05 -3.382803E+04  1.334290E-10 -4.738816E-10
       320  18  4.647214E+05 -1.578217E+05 -9.256074E+04 -5.001012E+04  1.301785E-10  2.624764E-10
       320  19  1.702081E+06  1.282810E+05  1.387227E+05 -5.242571E+04  1.161398E+04  2.537114E+04
       320  20  1.788734E+06  1.502995E+05  1.735418E+05 -3.625403E+04  3.043134E+04  2.997222E+04
       320  21  1.882116E+06  1.887350E+05  2.247289E+05 -6.049131E+04  4.924828E+04  3.346614E+04
       320  22  1.173237E+06 -9.392637E+02  2.060381E+04 -5.524387E+04  1.594415E+04  2.537221E+04
       320  23  1.169929E+06 -8.640407E+02  3.549200E+04 -3.503997E+04  3.381364E+04  2.997491E+04
       320  24  1.173187E+06  1.547463E+04  6.610371E+04 -5.524696E+04  5.168003E+04  3.347015E+04
       320  25  6.446528E+05 -1.301785E+05 -9.753262E+04 -5.805960E+04  2.027068E+04  2.537325E+04
       320  26  5.514796E+05 -1.520535E+05 -1.025818E+05 -3.382713E+04  3.719259E+04  2.997761E+04
       320  27  4.647248E+05 -1.578198E+05 -9.255313E+04 -5.000866E+04  5.410901E+04  3.347419E+04
       321   1  1.975345E+06  1.788149E+05  2.579962E+05 -1.746682E+04 -5.357795E+04 -3.883096E+04
       321   2  2.028547E+06  2.076089E+05  3.376074E+05 -7.360481E+04 -1.490321E+05 -3.826567E+04
       321   3  2.159136E+06  4.949951E+05  5.439619E+05 -1.700940E+05 -2.445316E+05 -1.250654E+04
       321   4  1.188128E+06 -1.344416E+04  8.276399E+04 -5.516400E+04 -6.360645E+04 -3.883636E+04
       321   5  1.151136E+06 -7.094394E+03  1.395423E+05 -3.512024E+04 -1.377690E+05 -3.826935E+04
       321   6  1.187938E+06  2.543355E+05  3.084122E+05 -5.541504E+04 -2.119596E+05 -1.251597E+04
       321   7  4.014892E+05 -2.057398E+05 -9.250578E+04 -9.281304E+04 -7.362237E+04 -3.884055E+04
       321   8  2.744427E+05 -2.218447E+05 -5.857079E+04  3.309449E+03 -1.265216E+05 -3.827164E+04
       321   9  2.176290E+05  1.365702E+04  7.280573E+04  5.908433E+04 -1.794380E+05 -1.251343E+04
       321  10  1.975342E+06  1.788125E+05  2.579880E+05 -1.746849E+04 -2.324795E-10 -3.086695E-10
       321  11  2.028523E+06  2.076014E+05  3.375631E+05 -7.360940E+04  6.316016E-10  4.971600E-10
       321  12  2.159072E+06  4.949790E+05  5.438496E+05 -1.700964E+05  1.303486E-09  7.664849E-10
       321  13  1.188123E+06 -1.344686E+04  8.275356E+04 -5.516599E+04 -1.031113E-09 -1.086858E-09
       321  14  1.151116E+06 -7.101051E+03  1.395040E+05 -3.512448E+04 -2.296449E-10  2.447109E-10
       321  15  1.187890E+06  2.543233E+05  3.083277E+05 -5.541717E+04  4.448878E-10 -3.463345E-10
       321  16  4.014829E+05 -2.057428E+05 -9.251880E+04 -9.281535E+04 -2.391993E-11  1.360763E-10
       321  17  2.744251E+05 -2.218506E+05 -5.860361E+04  3.305549E+03 -9.781338E-10 -6.181276E-10
       321  18  2.175944E+05  1.364821E+04  7.274495E+04  5.908253E+04 -4.315805E-10  9.498608E-10
       321  19  1.975345E+06  1.788149E+05  2.579962E+05 -1.746682E+04  5.357795E+04  3.883096E+04
       321  20  2.028547E+06  2.076089E+05  3.376074E+05 -7.360481E+04  1.490321E+05  3.826567E+04
       321  21  2.159136E+06  4.949951E+05  5.439619E+05 -1.700940E+05  2.445316E+05  1.250654E+04
       321  22  1.188128E+06 -1.344416E+04  8.276399E+04 -5.516400E+04  6.360645E+04  3.883636E+04
       321  23  1.151136E+06 -7.094394E+03  1.395423E+05 -3.512024E+04  1.377690E+05  3.826935E+04
       321  24  1.187938E+06  2.543355E+05  3.084122E+05 -5.541504E+04  2.119596E+05  1.251597E+04
       321  25  4.014892E+05 -2.057398E+05 -9.250578E+04 -9.281304E+04  7.362237E+04  3.884055E+04
       321  26  2.744427E+05 -2.218447E+05 -5.857079E+04  3.309449E+03  1.265216E+05  3.827164E+04
       321  27  2.176290E+05  1.365702E+04  7.280573E+04  5.908433E+04  1.794380E+05  1.251343E+04
       322   1  2.348277E+05  6.788856E+05  2.699669E+05 -1.837001E+05  1.580095E+03  1.416092E+05
       322   2  1.727546E+04  4.818178E+05  1.167419E+05 -9.432758E+04  2.621920E+03  8.352222E+04
       322   3 -2.857215E+04  3.349527E+05  4.416809E+04 -8.182615E+04 -4.660653E+03  2.543736E+04
       322   4  1.696935E+05  4.186616E+05  2.058997E+05 -1.064025E+05  1.604838E+03  1.373033E+05
       322   5 -4.427041E+03  3.941890E+05  9.633859E+04 -6.811610E+04  2.620959E+03  8.622697E+04
       322   6 -8.045040E+03  4.187006E+05  6.259051E+04 -1.066855E+05 -4.678356E+03  3.513678E+04
       322   7  1.045767E+05  1.585119E+05  1.418307E+05 -2.913725E+04  1.628517E+03  1.329993E+05
       322   8 -2.612751E+04  3.065689E+05  7.593519E+04 -4.190834E+04  2.620225E+03  8.893135E+04
       322   9  1.248396E+04  5.024565E+05  8.101317E+04 -1.315482E+05 -4.696834E+03  4.483749E+04
       322  10  2.348223E+05  6.788641E+05  2.699292E+05 -1.837003E+05 -4.481295E-10 -4.306704E-10
       322  11  1.727358E+04  4.818103E+05  1.167288E+05 -9.432776E+04 -8.242436E-10 -1.724256E-09
       322  12 -2.857235E+04  3.349520E+05  4.416683E+04 -8.182606E+04  4.984472E-10  8.722676E-10
       322  13  1.696885E+05  4.186414E+05  2.058643E+05 -1.064027E+05  8.216393E-10  7.836688E-10
       322  14 -4.429043E+03  3.941810E+05  9.632462E+04 -6.811628E+04 -2.787991E-11  2.520680E-11
       322  15 -8.045394E+03  4.186992E+05  6.258815E+04 -1.066853E+05 -1.887376E-10  5.759138E-10
       322  16  1.045720E+05  1.584929E+05  1.417975E+05 -2.913743E+04  1.902655E-10  4.051726E-10
       322  17 -2.612964E+04  3.065604E+05  7.592032E+04 -4.190853E+04  1.298652E-09 -3.457931E-10
       322  18  1.248340E+04  5.024544E+05  8.100936E+04 -1.315480E+05  2.666308E-10 -8.657252E-10
       322  19  2.348277E+05  6.788856E+05  2.699669E+05 -1.837001E+05 -1.580095E+03 -1.416092E+05
       322  20  1.727546E+04  4.818178E+05  1.167419E+05 -9.432758E+04 -2.621920E+03 -8.352222E+04
       322  21 -2.857215E+04  3.349527E+05  4.416809E+04 -8.182615E+04  4.660653E+03 -2.543736E+04
       322  22  1.696935E+05  4.186616E+05  2.058997E+05 -1.064025E+05 -1.604838E+03 -1.373033E+05
       322  23 -4.427041E+03  3.941890E+05  9.633859E+04 -6.811610E+04 -2.620959E+03 -8.622697E+04
       322  24 -8.045040E+03  4.187006E+05  6.259051E+04 -1.066855E+05  4.678356E+03 -3.513678E+04
       322  25  1.045767E+05  1.585119E+05  1.418307E+05 -2.913725E+04 -1.628517E+03 -1.329993E+05
       322  26 -2.612751E+04  3.065689E+05  7.593519E+04 -4.190834E+04 -2.620225E+03 -8.893135E+04
       322  27  1.248396E+04  5.024565E+05  8.101317E+04 -1.315482E+05  4.696834E+03 -4.483749E+04
       323   1 -4.642180E+04  1.777550E+05  2.253184E+03 -1.115699E+05 -1.101985E+04  1.806394E+04
       323   2 -9.953310E+04  1.949837E+03 -4.849576E+04 -6.777475E+04 -1.954554E+04 -2.194937E+03
       323   3 -1.331217E+05 -1.665043E+05 -8.122650E+04 -1.013431E+05 -2.717000E+04 -2.244234E+04
       323   4  1.026166E+04  4.094541E+05  5.414514E+04 -1.067169E+05 -1.103223E+04  2.564205E+04
       323   5 -7.525914E+02  4.057083E+05  4.172989E+04 -6.803937E+04 -1.955495E+04  4.616099E+03
       323   6  7.884234E+03  4.094153E+05  4.786146E+04 -1.067209E+05 -2.717648E+04 -1.640383E+04
       323   7  6.694159E+04  6.412033E+05  1.060339E+05 -1.018619E+05 -1.104449E+04  3.322296E+04
       323   8  9.801685E+04  8.096187E+05  1.319455E+05 -6.830411E+04 -1.956436E+04  1.143152E+04
       323   9  1.488677E+05  9.856439E+05  1.769286E+05 -1.121036E+05 -2.718306E+04 -1.035977E+04
       323  10 -4.642202E+04  1.777547E+05  2.252343E+03 -1.115698E+05  2.243408E-10 -6.676187E-10
       323  11 -9.953351E+04  1.949729E+03 -4.849649E+04 -6.777478E+04  4.382726E-10 -2.098448E-09
       323  12 -1.331226E+05 -1.665051E+05 -8.122883E+04 -1.013435E+05 -5.301418E-10  4.053981E-10
       323  13  1.026136E+04  4.094533E+05  5.414368E+04 -1.067166E+05 -4.199007E-12  8.465415E-10
       323  14 -7.530078E+02  4.057082E+05  4.172914E+04 -6.803930E+04  1.109511E-09 -1.264146E-10
       323  15  7.883368E+03  4.094148E+05  4.785957E+04 -1.067212E+05  1.040819E-09  2.856626E-10
       323  16  6.694117E+04  6.412021E+05  1.060316E+05 -1.018616E+05  4.078535E-10  7.246793E-10
       323  17  9.801641E+04  8.096185E+05  1.319445E+05 -6.830393E+04 -2.692894E-10  1.732145E-10
       323  18  1.488668E+05  9.856436E+05  1.769270E+05 -1.121038E+05 -4.122663E-10 -2.949071E-10
       323  19 -4.642180E+04  1.777550E+05  2.253184E+03 -1.115699E+05  1.101985E+04 -1.806394E+04
       323  20 -9.953310E+04  1.949837E+03 -4.849576E+04 -6.777475E+04  1.954554E+04  2.194937E+03
       323  21 -1.331217E+05 -1.665043E+05 -8.122650E+04 -1.013431E+05  2.717000E+04  2.244234E+04
       323  22  1.026166E+04  4.094541E+05  5.414514E+04 -1.067169E+05  1.103223E+04 -2.564205E+04
       323  23 -7.525914E+02  4.057083E+05  4.172989E+04 -6.803937E+04  1.955495E+04 -4.616099E+03
       323  24  7.884234E+03  4.094153E+05  4.786146E+04 -1.067209E+05  2.717648E+04  1.640383E+04
       323  25  6.694159E+04  6.412033E+05  1.060339E+05 -1.018619E+05  1.104449E+04 -3.322296E+04
       323  26  9.801685E+04  8.096187E+05  1.319455E+05 -6.830411E+04  1.956436E+04 -1.143152E+04
       323  27  1.488677E+05  9.856439E+05  1.769286E+05 -1.121036E+05  2.718306E+04  1.035977E+04
       324   1 -1.834403E+05 -3.078814E+05 -1.082947E+05 -1.255503E+05 -3.545341E+04 -3.921225E+04
       324   2 -2.233994E+05 -4.984051E+05 -1.244772E+05 -4.685631E+04 -3.844084E+04 -5.657800E+04
       324   3 -1.313190E+05 -6.534118E+05 -9.628843E+04 -4.459652E+04 -1.280561E+04 -7.391983E+04
       324   4 -6.287813E+03  4.165200E+05  5.336729E+04 -1.065452E+05 -3.547001E+04 -2.469645E+04
       324   5 -3.773738E+03  3.966630E+05  7.826413E+04 -6.828112E+04 -3.842633E+04 -6.614011E+04
       324   6  1.348497E+05  4.164078E+05  1.641978E+05 -1.064352E+05 -1.277616E+04 -1.075658E+05
       324   7  1.708305E+05  1.141412E+06  2.149973E+05 -8.751746E+04 -3.548572E+04 -1.016388E+04
       324   8  2.157984E+05  1.292476E+06  2.809544E+05 -8.973694E+04 -3.841118E+04 -7.571583E+04
       324   9  4.009491E+05  1.487283E+06  4.246073E+05 -1.683805E+05 -1.274004E+04 -1.412696E+05
       324  10 -1.834420E+05 -3.078833E+05 -1.082999E+05 -1.255514E+05  1.435211E-11  1.995904E-10
       324  11 -2.234018E+05 -4.984089E+05 -1.244860E+05 -4.685806E+04  2.399857E-10 -8.717158E-10
       324  12 -1.313206E+05 -6.534177E+05 -9.629902E+04 -4.459728E+04 -1.162015E-10 -2.374982E-11
       324  13 -6.289328E+03  4.165190E+05  5.336378E+04 -1.065459E+05 -6.752416E-10  6.899809E-10
       324  14 -3.776497E+03  3.966579E+05  7.825314E+04 -6.828317E+04  2.488844E-10 -1.446289E-10
       324  15  1.348465E+05  4.163954E+05  1.641758E+05 -1.064363E+05  9.518450E-12  1.285309E-10
       324  16  1.708291E+05  1.141411E+06  2.149947E+05 -8.751775E+04 -4.654352E-11 -2.648797E-10
       324  17  2.157953E+05  1.292470E+06  2.809409E+05 -8.973928E+04  2.038156E-10 -3.550215E-10
       324  18  4.009435E+05  1.487261E+06  4.245696E+05 -1.683820E+05 -2.481149E-10  8.800395E-11
       324  19 -1.834403E+05 -3.078814E+05 -1.082947E+05 -1.255503E+05  3.545341E+04  3.921225E+04
       324  20 -2.233994E+05 -4.984051E+05 -1.244772E+05 -4.685631E+04  3.844084E+04  5.657800E+04
       324  21 -1.313190E+05 -6.534118E+05 -9.628843E+04 -4.459652E+04  1.280561E+04  7.391983E+04
       324  22 -6.287813E+03  4.165200E+05  5.336729E+04 -1.065452E+05  3.547001E+04  2.469645E+04
       324  23 -3.773738E+03  3.966630E+05  7.826413E+04 -6.828112E+04  3.842633E+04  6.614011E+04
       324  24  1.348497E+05  4.164078E+05  1.641978E+05 -1.064352E+05  1.277616E+04  1.075658E+05
       324  25  1.708305E+05  1.141412E+06  2.149973E+05 -8.751746E+04  3.548572E+04  1.016388E+04
       324  26  2.157984E+05  1.292476E+06  2.809544E+05 -8.973694E+04  3.841118E+04  7.571583E+04
       324  27  4.009491E+05  1.487283E+06  4.246073E+05 -1.683805E+05  1.274004E+04  1.412696E+05
       325   1 -2.661903E+06 -1.027516E+06 -5.656722E+05 -1.037826E+06 -2.715596E+05 -8.456522E+04
       325   2 -2.588060E+06 -7.194626E+05 -3.394167E+05 -1.004258E+06 -1.723115E+05 -7.070136E+03
       325   3 -2.579159E+06 -5.999018E+05 -2.443171E+05 -9.460710E+05 -6.266320E+04  4.289207E+04
       325   4 -1.752625E+06 -5.413570E+05 -3.019887E+05 -6.411144E+05 -2.004700E+05 -5.788416E+04
       325   5 -1.707406E+06 -3.335448E+05 -1.381941E+05 -6.975863E+05 -1.412371E+05  4.593183E+03
       325   6 -1.719074E+06 -3.061495E+05 -7.364938E+04 -7.294750E+05 -7.162295E+04  3.951682E+04
       325   7 -8.424898E+05 -5.486093E+04 -3.836346E+04 -2.437948E+05 -1.292680E+05 -3.111899E+04
       325   8 -8.259479E+05  5.253156E+04  6.298244E+04 -3.904806E+05 -1.101151E+05  1.628219E+04
       325   9 -8.582144E+05 -1.235368E+04  9.698657E+04 -5.126081E+05 -8.059618E+04  3.613728E+04
       325  10 -2.661984E+06 -1.027543E+06 -5.658249E+05 -1.037845E+06 -1.363563E-09  3.109665E-10
       325  11 -2.588092E+06 -7.194707E+05 -3.394728E+05 -1.004259E+06 -1.737226E-09  3.633960E-10
       325  12 -2.579164E+06 -5.999048E+05 -2.443280E+05 -9.460688E+05  3.127551E-10  6.032240E-10
       325  13 -1.752670E+06 -5.413714E+05 -3.020708E+05 -6.411237E+05  6.926867E-10  9.552554E-11
       325  14 -1.707427E+06 -3.335502E+05 -1.382317E+05 -6.975858E+05 -5.024863E-10  4.161555E-10
       325  15 -1.719080E+06 -3.061526E+05 -7.366196E+04 -7.294727E+05 -7.592293E-10  3.600662E-10
       325  16 -8.425081E+05 -5.486647E+04 -3.839673E+04 -2.437981E+05 -4.279899E-10  2.190782E-10
       325  17 -8.259610E+05  5.252802E+04  6.295913E+04 -3.904791E+05  1.404283E-09  9.786057E-10
       325  18 -8.582218E+05 -1.235682E+04  9.697191E+04 -5.126057E+05 -2.887377E-10  6.216758E-10
       325  19 -2.661903E+06 -1.027516E+06 -5.656722E+05 -1.037826E+06  2.715596E+05  8.456522E+04
       325  20 -2.588060E+06 -7.194626E+05 -3.394167E+05 -1.004258E+06  1.723115E+05  7.070136E+03
       325  21 -2.579159E+06 -5.999018E+05 -2.443171E+05 -9.460710E+05  6.266320E+04 -4.289207E+04
       325  22 -1.752625E+06 -5.413570E+05 -3.019887E+05 -6.411144E+05  2.004700E+05  5.788416E+04
       325  23 -1.707406E+06 -3.335448E+05 -1.381941E+05 -6.975863E+05  1.412371E+05 -4.593183E+03
       325  24 -1.719074E+06 -3.061495E+05 -7.364938E+04 -7.294750E+05  7.162295E+04 -3.951682E+04
       325  25 -8.424898E+05 -5.486093E+04 -3.836346E+04 -2.437948E+05  1.292680E+05  3.111899E+04
       325  26 -8.259479E+05  5.253156E+04  6.298244E+04 -3.904806E+05  1.101151E+05 -1.628219E+04
       325  27 -8.582144E+05 -1.235368E+04  9.698657E+04 -5.126081E+05  8.059618E+04 -3.613728E+04
       326   1 -2.493890E+06 -6.040242E+05 -2.146371E+05 -9.437252E+05 -5.793065E+04  4.052631E+04
       326   2 -2.415656E+06 -5.539226E+05 -1.684986E+05 -9.113243E+05 -3.882861E+04  4.357624E+04
       326   3 -2.326514E+06 -5.280693E+05 -1.377170E+05 -8.960270E+05 -1.899152E+04  4.466837E+04
       326   4 -1.709891E+06 -3.137356E+05 -5.613987E+04 -7.227793E+05 -6.180757E+04  3.906147E+04
       326   5 -1.714922E+06 -2.971384E+05 -2.964917E+04 -7.159998E+05 -4.553647E+04  4.105007E+04
       326   6 -1.708484E+06 -3.042184E+05 -1.625131E+04 -7.263252E+05 -2.853340E+04  4.108094E+04
       326   7 -9.252551E+05 -2.338978E+04  1.023270E+05 -5.015727E+05 -6.568975E+04  3.759461E+04
       326   8 -1.013682E+06 -4.031126E+04  1.091766E+05 -5.204709E+05 -5.225244E+04  3.852083E+04
       326   9 -1.090063E+06 -8.033739E+04  1.051958E+05 -5.564683E+05 -3.808542E+04  3.748977E+04
       326  10 -2.493894E+06 -6.040268E+05 -2.146465E+05 -9.437234E+05  3.048649E-10  7.950998E-10
       326  11 -2.415658E+06 -5.539250E+05 -1.685050E+05 -9.113229E+05 -1.261553E-09 -6.659284E-11
       326  12 -2.326514E+06 -5.280715E+05 -1.377214E+05 -8.960263E+05 -1.293397E-09  9.446285E-11
       326  13 -1.709895E+06 -3.137382E+05 -5.614992E+04 -7.227773E+05 -7.196929E-10  4.168711E-10
       326  14 -1.714925E+06 -2.971407E+05 -2.965623E+04 -7.159983E+05  8.497689E-10 -4.037124E-10
       326  15 -1.708485E+06 -3.042205E+05 -1.625601E+04 -7.263242E+05  1.202787E-10  8.473402E-11
       326  16 -9.252602E+05 -2.339246E+04  1.023163E+05 -5.015707E+05 -1.357344E-09 -8.931661E-11
       326  17 -1.013686E+06 -4.031358E+04  1.091687E+05 -5.204693E+05 -3.305884E-10  2.200070E-10
       326  18 -1.090065E+06 -8.033929E+04  1.051904E+05 -5.564671E+05  9.235306E-10  2.867412E-10
       326  19 -2.493890E+06 -6.040242E+05 -2.146371E+05 -9.437252E+05  5.793065E+04 -4.052631E+04
       326  20 -2.415656E+06 -5.539226E+05 -1.684986E+05 -9.113243E+05  3.882861E+04 -4.357624E+04
       326  21 -2.326514E+06 -5.280693E+05 -1.377170E+05 -8.960270E+05  1.899152E+04 -4.466837E+04
       326  22 -1.709891E+06 -3.137356E+05 -5.613987E+04 -7.227793E+05  6.180757E+04 -3.906147E+04
       326  23 -1.714922E+06 -2.971384E+05 -2.964917E+04 -7.159998E+05  4.553647E+04 -4.105007E+04
       326  24 -1.708484E+06 -3.042184E+05 -1.625131E+04 -7.263252E+05  2.853340E+04 -4.108094E+04
       326  25 -9.252551E+05 -2.338978E+04  1.023270E+05 -5.015727E+05  6.568975E+04 -3.759461E+04
       326  26 -1.013682E+06 -4.031126E+04  1.091766E+05 -5.204709E+05  5.225244E+04 -3.852083E+04
       326  27 -1.090063E+06 -8.033739E+04  1.051958E+05 -5.564683E+05  3.808542E+04 -3.748977E+04
       327   1 -2.267269E+06 -5.081516E+05 -1.218721E+05 -8.806847E+05 -1.561493E+04  4.157556E+04
       327   2 -2.189413E+06 -4.685154E+05 -9.959331E+04 -8.476805E+05 -9.642659E+03  3.651839E+04
       327   3 -2.095789E+06 -4.456201E+05 -8.006114E+04 -8.334154E+05 -3.615591E+03  3.130838E+04
       327   4 -1.707779E+06 -3.045732E+05 -1.222855E+04 -7.259678E+05 -2.482341E+04  3.811498E+04
       327   5 -1.715646E+06 -2.960994E+05 -6.721856E+03 -7.166368E+05 -1.907087E+04  3.297758E+04
       327   6 -1.707710E+06 -3.043228E+05 -3.786376E+03 -7.260471E+05 -1.326410E+04  2.768722E+04
       327   7 -1.147958E+06 -1.009656E+05  9.740253E+04 -5.711201E+05 -3.404090E+04  3.465105E+04
       327   8 -1.241643E+06 -1.236629E+05  8.614038E+04 -5.854995E+05 -2.850686E+04  2.943386E+04
       327   9 -1.319475E+06 -1.630123E+05  7.248193E+04 -6.186164E+05 -2.291911E+04  2.406364E+04
       327  10 -2.267269E+06 -5.081535E+05 -1.218758E+05 -8.806842E+05 -1.404391E-10  6.986113E-10
       327  11 -2.189414E+06 -4.685168E+05 -9.959599E+04 -8.476802E+05 -3.366738E-10 -1.442307E-11
       327  12 -2.095789E+06 -4.456211E+05 -8.006301E+04 -8.334153E+05  1.359078E-09 -4.496905E-10
       327  13 -1.707780E+06 -3.045750E+05 -1.223243E+04 -7.259671E+05 -3.554813E-10  3.309399E-10
       327  14 -1.715647E+06 -2.961006E+05 -6.724581E+03 -7.166363E+05  1.079574E-10 -1.851854E-10
       327  15 -1.707711E+06 -3.043237E+05 -3.788145E+03 -7.260468E+05 -5.064712E-10 -9.395074E-10
       327  16 -1.147960E+06 -1.009672E+05  9.739810E+04 -5.711191E+05 -1.160580E-10 -5.410884E-11
       327  17 -1.241644E+06 -1.236640E+05  8.613722E+04 -5.854988E+05 -6.105132E-10 -3.452011E-10
       327  18 -1.319476E+06 -1.630130E+05  7.247985E+04 -6.186159E+05 -1.015493E-09 -1.045355E-09
       327  19 -2.267269E+06 -5.081516E+05 -1.218721E+05 -8.806847E+05  1.561493E+04 -4.157556E+04
       327  20 -2.189413E+06 -4.685154E+05 -9.959331E+04 -8.476805E+05  9.642659E+03 -3.651839E+04
       327  21 -2.095789E+06 -4.456201E+05 -8.006114E+04 -8.334154E+05  3.615591E+03 -3.130838E+04
       327  22 -1.707779E+06 -3.045732E+05 -1.222855E+04 -7.259678E+05  2.482341E+04 -3.811498E+04
       327  23 -1.715646E+06 -2.960994E+05 -6.721856E+03 -7.166368E+05  1.907087E+04 -3.297758E+04
       327  24 -1.707710E+06 -3.043228E+05 -3.786376E+03 -7.260471E+05  1.326410E+04 -2.768722E+04
       327  25 -1.147958E+06 -1.009656E+05  9.740253E+04 -5.711201E+05  3.404090E+04 -3.465105E+04
       327  26 -1.241643E+06 -1.236629E+05  8.614038E+04 -5.854995E+05  2.850686E+04 -2.943386E+04
       327  27 -1.319475E+06 -1.630123E+05  7.248193E+04 -6.186164E+05  2.291911E+04 -2.406364E+04
       328   1 -2.037607E+06 -4.244542E+05 -6.731732E+04 -8.174037E+05 -1.620926E+03  2.765392E+04
       328   2 -1.959574E+06 -3.849215E+05 -4.957231E+04 -7.841435E+05  1.794355E+03  2.137522E+04
       328   3 -1.865239E+06 -3.618298E+05 -3.252049E+04 -7.697091E+05  5.214773E+03  1.507847E+04
       328   4 -1.707602E+06 -3.043459E+05 -2.911829E+03 -7.260319E+05 -1.126098E+04  2.403700E+04
       328   5 -1.715744E+06 -2.961257E+05 -1.814722E+03 -7.166153E+05 -7.871869E+03  1.774970E+04
       328   6 -1.707588E+06 -3.043418E+05 -1.390138E+03 -7.260273E+05 -4.477745E+03  1.144429E+04
       328   7 -1.377487E+06 -1.842290E+05  6.148840E+04 -6.346156E+05 -2.090646E+04  2.041806E+04
       328   8 -1.471853E+06 -2.073246E+05  4.594057E+04 -6.490624E+05 -1.754217E+04  1.412265E+04
       328   9 -1.549909E+06 -2.468511E+05  2.973983E+04 -6.823347E+05 -1.417299E+04  7.809085E+03
       328  10 -2.037607E+06 -4.244551E+05 -6.731876E+04 -8.174037E+05  5.025428E-10 -9.426685E-10
       328  11 -1.959574E+06 -3.849219E+05 -4.957317E+04 -7.841435E+05  7.230019E-10 -5.382536E-10
       328  12 -1.865240E+06 -3.618300E+05 -3.252097E+04 -7.697092E+05  7.344201E-10 -6.003183E-10
       328  13 -1.707603E+06 -3.043466E+05 -2.913152E+03 -7.260317E+05 -2.627783E-10 -1.128252E-09
       328  14 -1.715744E+06 -2.961260E+05 -1.815430E+03 -7.166152E+05  4.768864E-10 -9.482713E-10
       328  15 -1.707588E+06 -3.043419E+05 -1.390422E+03 -7.260273E+05  5.388965E-10 -3.629008E-10
       328  16 -1.377487E+06 -1.842296E+05  6.148680E+04 -6.346153E+05 -1.386370E-10 -1.044275E-09
       328  17 -1.471853E+06 -2.073249E+05  4.593962E+04 -6.490622E+05  3.286117E-10 -7.112594E-10
       328  18 -1.549909E+06 -2.468512E+05  2.973934E+04 -6.823346E+05  7.229906E-11 -3.014059E-10
       328  19 -2.037607E+06 -4.244542E+05 -6.731732E+04 -8.174037E+05  1.620926E+03 -2.765392E+04
       328  20 -1.959574E+06 -3.849215E+05 -4.957231E+04 -7.841435E+05 -1.794355E+03 -2.137522E+04
       328  21 -1.865239E+06 -3.618298E+05 -3.252049E+04 -7.697091E+05 -5.214773E+03 -1.507847E+04
       328  22 -1.707602E+06 -3.043459E+05 -2.911829E+03 -7.260319E+05  1.126098E+04 -2.403700E+04
       328  23 -1.715744E+06 -2.961257E+05 -1.814722E+03 -7.166153E+05  7.871869E+03 -1.774970E+04
       328  24 -1.707588E+06 -3.043418E+05 -1.390138E+03 -7.260273E+05  4.477745E+03 -1.144429E+04
       328  25 -1.377487E+06 -1.842290E+05  6.148840E+04 -6.346156E+05  2.090646E+04 -2.041806E+04
       328  26 -1.471853E+06 -2.073246E+05  4.594057E+04 -6.490624E+05  1.754217E+04 -1.412265E+04
       328  27 -1.549909E+06 -2.468511E+05  2.973983E+04 -6.823347E+05  1.417299E+04 -7.809085E+03
       329   1 -1.806966E+06 -3.405325E+05 -2.059096E+04 -7.536187E+05  6.903269E+03  1.129276E+04
       329   2 -1.728762E+06 -3.009225E+05 -4.261185E+03 -7.203032E+05  1.023772E+04  4.954298E+03
       329   3 -1.634225E+06 -2.777760E+05  1.144047E+04 -7.058523E+05  1.356989E+04 -1.378315E+03
       329   4 -1.707578E+06 -3.043450E+05 -1.371115E+03 -7.260356E+05 -2.794997E+03  7.656795E+03
       329   5 -1.715737E+06 -2.960965E+05 -1.703649E+03 -7.166077E+05  5.473819E+02  1.321368E+03
       329   6 -1.707574E+06 -3.043136E+05 -2.670785E+03 -7.260474E+05  3.887337E+03 -5.008225E+03
       329   7 -1.608179E+06 -2.681566E+05  1.784870E+04 -6.984483E+05 -1.249493E+04  4.020202E+03
       329   8 -1.702713E+06 -2.912704E+05  8.542674E+02 -7.129121E+05 -9.143133E+03 -2.311631E+03
       329   9 -1.780916E+06 -3.308505E+05 -1.678169E+04 -7.462401E+05 -5.793901E+03 -8.637650E+03
       329  10 -1.806967E+06 -3.405327E+05 -2.059129E+04 -7.536188E+05 -7.134802E-09 -2.758621E-09
       329  11 -1.728762E+06 -3.009226E+05 -4.261429E+03 -7.203032E+05  1.646800E-08  7.286371E-09
       329  12 -1.634225E+06 -2.777761E+05  1.144012E+04 -7.058523E+05  3.941744E-08  1.764927E-08
       329  13 -1.707578E+06 -3.043451E+05 -1.371240E+03 -7.260355E+05  1.395680E-10 -4.432886E-11
       329  14 -1.715737E+06 -2.960965E+05 -1.703652E+03 -7.166077E+05 -3.375441E-10  6.173915E-10
       329  15 -1.707574E+06 -3.043137E+05 -2.670860E+03 -7.260474E+05  1.416506E-09  3.354146E-09
       329  16 -1.608179E+06 -2.681567E+05  1.784837E+04 -6.984482E+05  7.072210E-09  2.424131E-09
       329  17 -1.702713E+06 -2.912704E+05  8.540998E+02 -7.129122E+05 -1.617159E-08 -5.799819E-09
       329  18 -1.780916E+06 -3.308506E+05 -1.678190E+04 -7.462402E+05 -3.663355E-08 -1.161716E-08
       329  19 -1.806966E+06 -3.405325E+05 -2.059096E+04 -7.536187E+05 -6.903269E+03 -1.129276E+04
       329  20 -1.728762E+06 -3.009225E+05 -4.261185E+03 -7.203032E+05 -1.023772E+04 -4.954298E+03
       329  21 -1.634225E+06 -2.777760E+05  1.144047E+04 -7.058523E+05 -1.356989E+04  1.378315E+03
       329  22 -1.707578E+06 -3.043450E+05 -1.371115E+03 -7.260356E+05  2.794997E+03 -7.656795E+03
       329  23 -1.715737E+06 -2.960965E+05 -1.703649E+03 -7.166077E+05 -5.473819E+02 -1.321368E+03
       329  24 -1.707574E+06 -3.043136E+05 -2.670785E+03 -7.260474E+05 -3.887337E+03  5.008225E+03
       329  25 -1.608179E+06 -2.681566E+05  1.784870E+04 -6.984483E+05  1.249493E+04 -4.020202E+03
       329  26 -1.702713E+06 -2.912704E+05  8.542674E+02 -7.129121E+05  9.143133E+03  2.311631E+03
       329  27 -1.780916E+06 -3.308505E+05 -1.678169E+04 -7.462401E+05  5.793901E+03  8.637650E+03
       330   1 -1.575965E+06 -2.564911E+05  2.257181E+04 -6.898177E+05  1.554530E+04 -5.056237E+03
       330   2 -1.497666E+06 -2.169284E+05  3.660732E+04 -6.565446E+05  2.090049E+04 -1.057394E+04
       330   3 -1.403417E+06 -1.940878E+05  4.842881E+04 -6.421266E+05  2.621601E+04 -1.598065E+04
       330   4 -1.707657E+06 -3.042983E+05 -3.455701E+03 -7.260765E+05  5.847868E+03 -8.692027E+03
       330   5 -1.715633E+06 -2.960173E+05 -6.099738E+03 -7.166142E+05  1.136239E+04 -1.415108E+04
       330   6 -1.707701E+06 -3.044922E+05 -1.108580E+04 -7.260112E+05  1.683679E+04 -1.949926E+04
       330   7 -1.839332E+06 -3.521044E+05 -2.948394E+04 -7.623285E+05 -3.847436E+03 -1.232703E+04
       330   8 -1.933552E+06 -3.751023E+05 -4.880884E+04 -7.766644E+05  1.827845E+03 -1.772691E+04
       330   9 -2.011888E+06 -4.148887E+05 -7.060424E+04 -8.098576E+05  7.462511E+03 -2.301604E+04
       330  10 -1.575965E+06 -2.564912E+05  2.257131E+04 -6.898176E+05 -3.612060E-08 -1.076275E-08
       330  11 -1.497666E+06 -2.169286E+05  3.660628E+04 -6.565445E+05 -1.691239E-08 -5.641229E-09
       330  12 -1.403418E+06 -1.940882E+05  4.842703E+04 -6.421262E+05  8.859461E-09  2.038484E-09
       330  13 -1.707657E+06 -3.042984E+05 -3.455907E+03 -7.260765E+05  7.434805E-10  3.094939E-09
       330  14 -1.715633E+06 -2.960175E+05 -6.100357E+03 -7.166140E+05  1.399629E-10  1.351077E-09
       330  15 -1.707701E+06 -3.044927E+05 -1.108705E+04 -7.260109E+05  2.393863E-10 -1.077863E-09
       330  16 -1.839332E+06 -3.521046E+05 -2.948425E+04 -7.623285E+05  3.888447E-08  1.759183E-08
       330  17 -1.933552E+06 -3.751027E+05 -4.880943E+04 -7.766644E+05  1.556755E-08  7.483536E-09
       330  18 -2.011888E+06 -4.148893E+05 -7.060534E+04 -8.098575E+05 -9.031570E-09 -4.326860E-09
       330  19 -1.575965E+06 -2.564911E+05  2.257181E+04 -6.898177E+05 -1.554530E+04  5.056237E+03
       330  20 -1.497666E+06 -2.169284E+05  3.660732E+04 -6.565446E+05 -2.090049E+04  1.057394E+04
       330  21 -1.403417E+06 -1.940878E+05  4.842881E+04 -6.421266E+05 -2.621601E+04  1.598065E+04
       330  22 -1.707657E+06 -3.042983E+05 -3.455701E+03 -7.260765E+05 -5.847868E+03  8.692027E+03
       330  23 -1.715633E+06 -2.960173E+05 -6.099738E+03 -7.166142E+05 -1.136239E+04  1.415108E+04
       330  24 -1.707701E+06 -3.044922E+05 -1.108580E+04 -7.260112E+05 -1.683679E+04  1.949926E+04
       330  25 -1.839332E+06 -3.521044E+05 -2.948394E+04 -7.623285E+05  3.847436E+03  1.232703E+04
       330  26 -1.933552E+06 -3.751023E+05 -4.880884E+04 -7.766644E+05 -1.827845E+03  1.772691E+04
       330  27 -2.011888E+06 -4.148887E+05 -7.060424E+04 -8.098576E+05 -7.462511E+03  2.301604E+04
       331   1 -1.345089E+06 -1.732909E+05  5.668316E+04 -6.272847E+05  2.998286E+04 -1.896246E+04
       331   2 -1.267812E+06 -1.330168E+05  6.185769E+04 -5.912835E+05  4.354356E+04 -2.056773E+04
       331   3 -1.178075E+06 -1.154667E+05  5.686758E+04 -5.727420E+05  5.655161E+04 -2.068975E+04
       331   4 -1.708329E+06 -3.041808E+05 -1.473122E+04 -7.263556E+05  2.034443E+04 -2.257920E+04
       331   5 -1.714968E+06 -2.969023E+05 -2.686077E+04 -7.160206E+05  3.605614E+04 -2.337963E+04
       331   6 -1.709584E+06 -3.127800E+05 -5.086927E+04 -7.231493E+05  5.121343E+04 -2.269692E+04
       331   7 -2.071429E+06 -4.350588E+05 -8.615042E+04 -8.253721E+05  1.071213E+04 -2.619370E+04
       331   8 -2.161916E+06 -4.607697E+05 -1.155884E+05 -8.406741E+05  2.857450E+04 -2.618935E+04
       331   9 -2.240806E+06 -5.100684E+05 -1.586213E+05 -8.734375E+05  4.588010E+04 -2.470221E+04
       331  10 -1.345090E+06 -1.732915E+05  5.668080E+04 -6.272843E+05 -1.079382E-09 -2.127232E-09
       331  11 -1.267814E+06 -1.330178E+05  6.185333E+04 -5.912828E+05 -3.281488E-10 -9.113231E-10
       331  12 -1.178078E+06 -1.154680E+05  5.686076E+04 -5.727410E+05 -2.173741E-09 -4.379036E-11
       331  13 -1.708329E+06 -3.041815E+05 -1.473295E+04 -7.263552E+05  4.544773E-10 -1.345110E-09
       331  14 -1.714969E+06 -2.969032E+05 -2.686425E+04 -7.160199E+05 -4.598150E-10 -4.938883E-10
       331  15 -1.709587E+06 -3.127813E+05 -5.087518E+04 -7.231483E+05  5.704480E-10  4.077495E-10
       331  16 -2.071429E+06 -4.350595E+05 -8.615192E+04 -8.253719E+05  2.631575E-09 -4.770230E-10
       331  17 -2.161917E+06 -4.607706E+05 -1.155912E+05 -8.406735E+05  1.377672E-09  8.299503E-11
       331  18 -2.240808E+06 -5.100696E+05 -1.586264E+05 -8.734366E+05  1.044186E-09  1.108913E-09
       331  19 -1.345089E+06 -1.732909E+05  5.668316E+04 -6.272847E+05 -2.998286E+04  1.896246E+04
       331  20 -1.267812E+06 -1.330168E+05  6.185769E+04 -5.912835E+05 -4.354356E+04  2.056773E+04
       331  21 -1.178075E+06 -1.154667E+05  5.686758E+04 -5.727420E+05 -5.655161E+04  2.068975E+04
       331  22 -1.708329E+06 -3.041808E+05 -1.473122E+04 -7.263556E+05 -2.034443E+04  2.257920E+04
       331  23 -1.714968E+06 -2.969023E+05 -2.686077E+04 -7.160206E+05 -3.605614E+04  2.337963E+04
       331  24 -1.709584E+06 -3.127800E+05 -5.086927E+04 -7.231493E+05 -5.121343E+04  2.269692E+04
       331  25 -2.071429E+06 -4.350588E+05 -8.615042E+04 -8.253721E+05 -1.071213E+04  2.619370E+04
       331  26 -2.161916E+06 -4.607697E+05 -1.155884E+05 -8.406741E+05 -2.857450E+04  2.618935E+04
       331  27 -2.240806E+06 -5.100684E+05 -1.586213E+05 -8.734375E+05 -4.588010E+04  2.470221E+04
       332   1 -1.111439E+06 -1.033886E+05  5.318334E+04 -5.812292E+05  6.947423E+04 -2.007923E+04
       332   2 -1.073501E+06 -4.068707E+04  2.202648E+04 -4.667061E+05  1.031382E+05 -2.665522E+03
       332   3 -1.079108E+06 -1.372984E+05 -7.485280E+04 -3.321831E+05  1.289439E+05  3.567882E+04
       332   4 -1.717859E+06 -3.059439E+05 -6.673516E+04 -7.292682E+05  6.026676E+04 -2.353777E+04
       332   5 -1.708184E+06 -3.298185E+05 -1.252115E+05 -6.992849E+05  1.243889E+05  5.301846E+03
       332   6 -1.748188E+06 -5.191806E+05 -2.736438E+05 -6.492950E+05  1.806417E+05  5.506984E+04
       332   7 -2.323902E+06 -5.084837E+05 -1.866713E+05 -8.771806E+05  5.106893E+04 -2.699342E+04
       332   8 -2.342435E+06 -6.188462E+05 -2.724702E+05 -9.316188E+05  1.456159E+05  1.325547E+04
       332   9 -2.416753E+06 -9.008077E+05 -4.724542E+05 -9.660253E+05  2.322770E+05  7.440985E+04
       332  10 -1.111445E+06 -1.033903E+05  5.317350E+04 -5.812281E+05 -6.127768E-11  6.357097E-10
       332  11 -1.073512E+06 -4.068993E+04  2.200644E+04 -4.667059E+05 -7.289911E-11  1.746773E-10
       332  12 -1.079127E+06 -1.373043E+05 -7.488650E+04 -3.321868E+05 -5.130425E-10  1.524777E-10
       332  13 -1.717863E+06 -3.059455E+05 -6.674303E+04 -7.292671E+05  9.249404E-11  3.068349E-10
       332  14 -1.708201E+06 -3.298227E+05 -1.252407E+05 -6.992854E+05  1.465372E-10 -3.917350E-10
       332  15 -1.748224E+06 -5.191926E+05 -2.737110E+05 -6.493030E+05  3.632168E-11 -1.543178E-10
       332  16 -2.323905E+06 -5.084852E+05 -1.866776E+05 -8.771794E+05  2.124358E-10  3.744261E-10
       332  17 -2.342458E+06 -6.188521E+05 -2.725105E+05 -9.316204E+05  4.879754E-10 -1.823222E-10
       332  18 -2.416813E+06 -9.008282E+05 -4.725665E+05 -9.660393E+05 -3.543224E-10  7.399970E-11
       332  19 -1.111439E+06 -1.033886E+05  5.318334E+04 -5.812292E+05 -6.947423E+04  2.007923E+04
       332  20 -1.073501E+06 -4.068707E+04  2.202648E+04 -4.667061E+05 -1.031382E+05  2.665522E+03
       332  21 -1.079108E+06 -1.372984E+05 -7.485280E+04 -3.321831E+05 -1.289439E+05 -3.567882E+04
       332  22 -1.717859E+06 -3.059439E+05 -6.673516E+04 -7.292682E+05 -6.026676E+04  2.353777E+04
       332  23 -1.708184E+06 -3.298185E+05 -1.252115E+05 -6.992849E+05 -1.243889E+05 -5.301846E+03
       332  24 -1.748188E+06 -5.191806E+05 -2.736438E+05 -6.492950E+05 -1.806417E+05 -5.506984E+04
       332  25 -2.323902E+06 -5.084837E+05 -1.866713E+05 -8.771806E+05 -5.106893E+04  2.699342E+04
       332  26 -2.342435E+06 -6.188462E+05 -2.724702E+05 -9.316188E+05 -1.456159E+05 -1.325547E+04
       332  27 -2.416753E+06 -9.008077E+05 -4.724542E+05 -9.660253E+05 -2.322770E+05 -7.440985E+04
       333   1  1.216751E+05  1.601723E+04  6.161237E+04  4.474445E+04  1.396367E+05  9.368517E+03
       333   2  1.671630E+05 -1.658232E+05 -4.002124E+04  1.945636E+03  9.825347E+04  2.857029E+04
       333   3  2.669761E+05 -1.530302E+05 -6.600028E+04 -7.278121E+04  5.688551E+04  2.880392E+04
       333   4  8.501323E+05  1.967421E+05  2.385518E+05 -4.379888E+04  1.639207E+05  9.376555E+03
       333   5  8.216731E+05 -5.468643E+03  1.079299E+05 -2.773046E+04  1.065379E+05  2.857137E+04
       333   6  8.502384E+05 -1.039594E+04  6.400201E+04 -4.358430E+04  4.917675E+04  2.879913E+04
       333   7  1.579092E+06  3.774579E+05  4.154594E+05 -1.324465E+05  1.882331E+05  9.377676E+03
       333   8  1.476583E+06  1.548598E+05  2.558543E+05 -5.743822E+04  1.148309E+05  2.857165E+04
       333   9  1.433820E+06  1.322184E+05  1.939837E+05 -1.435971E+04  4.146080E+04  2.879362E+04
       333  10  1.216541E+05  1.601191E+04  6.157557E+04  4.474340E+04  1.719927E-09 -1.340927E-09
       333  11  1.671524E+05 -1.658266E+05 -4.004091E+04  1.943375E+03  2.484347E-10 -2.308283E-11
       333  12  2.669724E+05 -1.530319E+05 -6.600792E+04 -7.278253E+04 -2.603318E-09 -7.489413E-10
       333  13  8.501035E+05  1.967348E+05  2.385012E+05 -4.380011E+04  9.548888E-10  7.318746E-10
       333  14  8.216608E+05 -5.472562E+03  1.079071E+05 -2.773291E+04 -1.068177E-09 -2.615366E-10
       333  15  8.502356E+05 -1.039748E+04  6.399591E+04 -4.358544E+04  5.446203E-10 -6.059519E-10
       333  16  1.579054E+06  3.774483E+05  4.153929E+05 -1.324479E+05 -5.492066E-10  6.905480E-10
       333  17  1.476569E+06  1.548554E+05  2.558281E+05 -5.744086E+04  5.532903E-10  8.473797E-11
       333  18  1.433817E+06  1.322171E+05  1.939789E+05 -1.436067E+04  2.946274E-09  1.870924E-09
       333  19  1.216751E+05  1.601723E+04  6.161237E+04  4.474445E+04 -1.396367E+05 -9.368517E+03
       333  20  1.671630E+05 -1.658232E+05 -4.002124E+04  1.945636E+03 -9.825347E+04 -2.857029E+04
       333  21  2.669761E+05 -1.530302E+05 -6.600028E+04 -7.278121E+04 -5.688551E+04 -2.880392E+04
       333  22  8.501323E+05  1.967421E+05  2.385518E+05 -4.379888E+04 -1.639207E+05 -9.376555E+03
       333  23  8.216731E+05 -5.468643E+03  1.079299E+05 -2.773046E+04 -1.065379E+05 -2.857137E+04
       333  24  8.502384E+05 -1.039594E+04  6.400201E+04 -4.358430E+04 -4.917675E+04 -2.879913E+04
       333  25  1.579092E+06  3.774579E+05  4.154594E+05 -1.324465E+05 -1.882331E+05 -9.377676E+03
       333  26  1.476583E+06  1.548598E+05  2.558543E+05 -5.743822E+04 -1.148309E+05 -2.857165E+04
       333  27  1.433820E+06  1.322184E+05  1.939837E+05 -1.435971E+04 -4.146080E+04 -2.879362E+04
       334   1  3.174029E+05 -1.155686E+05 -6.565545E+04 -3.972432E+04  4.196176E+04  2.464674E+04
       334   2  3.864468E+05 -1.106389E+05 -7.300154E+04 -2.678030E+04  2.886988E+04  2.180889E+04
       334   3  4.604353E+05 -9.327000E+04 -6.868796E+04 -4.596995E+04  1.577501E+04  1.813089E+04
       334   4  8.386907E+05  1.197258E+04  5.111593E+04 -4.369090E+04  3.995889E+04  2.464378E+04
       334   5  8.361755E+05 -6.661965E+02  2.743449E+04 -2.762192E+04  2.615019E+04  2.180650E+04
       334   6  8.387191E+05 -7.469976E+02  1.590247E+04 -4.368479E+04  1.233998E+04  1.812922E+04
       334   7  1.360231E+06  1.394953E+05  1.678702E+05 -4.766086E+04  3.795434E+04  2.464085E+04
       334   8  1.286092E+06  1.092928E+05  1.278578E+05 -2.846417E+04  2.342854E+04  2.180411E+04
       334   9  1.217136E+06  9.176630E+04  1.004839E+05 -4.139824E+04  8.902877E+03  1.812753E+04
       334  10  3.174008E+05 -1.155697E+05 -6.565990E+04 -3.972516E+04  3.231820E-10 -2.878559E-10
       334  11  3.864458E+05 -1.106397E+05 -7.300400E+04 -2.678081E+04  7.463097E-10  1.689510E-10
       334  12  4.604349E+05 -9.327042E+04 -6.868905E+04 -4.597018E+04 -2.146684E-10 -6.507703E-10
       334  13  8.386888E+05  1.197150E+04  5.111179E+04 -4.369169E+04  1.337450E-10  1.373855E-09
       334  14  8.361746E+05 -6.668906E+02  2.743231E+04 -2.762238E+04  1.651163E-10  4.104832E-10
       334  15  8.387188E+05 -7.473915E+02  1.590156E+04 -4.368498E+04 -3.688358E-10 -9.421147E-10
       334  16  1.360230E+06  1.394943E+05  1.678663E+05 -4.766162E+04 -3.729869E-10  1.247912E-09
       334  17  1.286092E+06  1.092922E+05  1.278559E+05 -2.846458E+04 -8.164805E-10 -9.855906E-11
       334  18  1.217136E+06  9.176593E+04  1.004832E+05 -4.139837E+04  1.515400E-10 -3.460390E-10
       334  19  3.174029E+05 -1.155686E+05 -6.565545E+04 -3.972432E+04 -4.196176E+04 -2.464674E+04
       334  20  3.864468E+05 -1.106389E+05 -7.300154E+04 -2.678030E+04 -2.886988E+04 -2.180889E+04
       334  21  4.604353E+05 -9.327000E+04 -6.868796E+04 -4.596995E+04 -1.577501E+04 -1.813089E+04
       334  22  8.386907E+05  1.197258E+04  5.111593E+04 -4.369090E+04 -3.995889E+04 -2.464378E+04
       334  23  8.361755E+05 -6.661965E+02  2.743449E+04 -2.762192E+04 -2.615019E+04 -2.180650E+04
       334  24  8.387191E+05 -7.469976E+02  1.590247E+04 -4.368479E+04 -1.233998E+04 -1.812922E+04
       334  25  1.360231E+06  1.394953E+05  1.678702E+05 -4.766086E+04 -3.795434E+04 -2.464085E+04
       334  26  1.286092E+06  1.092928E+05  1.278578E+05 -2.846417E+04 -2.342854E+04 -2.180411E+04
       334  27  1.217136E+06  9.176630E+04  1.004839E+05 -4.139824E+04 -8.902877E+03 -1.812753E+04
       335   1  5.205717E+05 -7.689197E+04 -5.837374E+04 -4.378855E+04  1.303563E+04  1.580531E+04
       335   2  5.912154E+05 -6.031289E+04 -4.801862E+04 -2.786880E+04  9.632139E+03  1.201126E+04
       335   3  6.625447E+05 -4.293970E+04 -3.524174E+04 -4.387157E+04  6.227051E+03  8.185684E+03
       335   4  8.377567E+05  6.168687E+02  1.222077E+04 -4.363989E+04  9.863516E+03  1.580410E+04
       335   5  8.374195E+05 -1.238261E+02  6.915690E+03 -2.767901E+04  6.431773E+03  1.201053E+04
       335   6  8.377686E+05 -6.533867E+01  4.051290E+03 -4.363987E+04  2.998810E+03  8.185455E+03
       335   7  1.155035E+06  7.811890E+04  8.280904E+04 -4.349116E+04  6.689804E+03  1.580290E+04
       335   8  1.083680E+06  6.006113E+04  6.184624E+04 -2.748914E+04  3.230153E+03  1.200979E+04
       335   9  1.013021E+06  4.280693E+04  4.334242E+04 -4.340810E+04 -2.303329E+02  8.185224E+03
       335  10  5.205715E+05 -7.689228E+04 -5.837453E+04 -4.378872E+04 -1.117591E-09 -7.935018E-10
       335  11  5.912153E+05 -6.031307E+04 -4.801907E+04 -2.786889E+04  3.763458E-10 -4.883618E-10
       335  12  6.625446E+05 -4.293978E+04 -3.524194E+04 -4.387161E+04  9.686157E-10 -1.021642E-10
       335  13  8.377565E+05  6.165743E+02  1.222012E+04 -4.364002E+04 -6.826696E-10 -4.799756E-10
       335  14  8.374195E+05 -1.239922E+02  6.915341E+03 -2.767907E+04 -1.178965E-09  1.314835E-10
       335  15  8.377686E+05 -6.541306E+01  4.051147E+03 -4.363989E+04 -2.511340E-11 -3.585772E-11
       335  16  1.155035E+06  7.811862E+04  8.280849E+04 -4.349124E+04 -7.459078E-11 -4.119539E-11
       335  17  1.083680E+06  6.006098E+04  6.184594E+04 -2.748917E+04 -3.283938E-10 -2.543640E-11
       335  18  1.013021E+06  4.280686E+04  4.334229E+04 -4.340810E+04 -6.443727E-10  1.774745E-10
       335  19  5.205717E+05 -7.689197E+04 -5.837374E+04 -4.378855E+04 -1.303563E+04 -1.580531E+04
       335  20  5.912154E+05 -6.031289E+04 -4.801862E+04 -2.786880E+04 -9.632139E+03 -1.201126E+04
       335  21  6.625447E+05 -4.293970E+04 -3.524174E+04 -4.387157E+04 -6.227051E+03 -8.185684E+03
       335  22  8.377567E+05  6.168687E+02  1.222077E+04 -4.363989E+04 -9.863516E+03 -1.580410E+04
       335  23  8.374195E+05 -1.238261E+02  6.915690E+03 -2.767901E+04 -6.431773E+03 -1.201053E+04
       335  24  8.377686E+05 -6.533867E+01  4.051290E+03 -4.363987E+04 -2.998810E+03 -8.185455E+03
       335  25  1.155035E+06  7.811890E+04  8.280904E+04 -4.349116E+04 -6.689804E+03 -1.580290E+04
       335  26  1.083680E+06  6.006113E+04  6.184624E+04 -2.748914E+04 -3.230153E+03 -1.200979E+04
       335  27  1.013021E+06  4.280693E+04  4.334242E+04 -4.340810E+04  2.303329E+02 -8.185224E+03
       336   1  7.232062E+05 -2.792776E+04 -2.219472E+04 -4.371325E+04  5.564218E+03  5.954179E+03
       336   2  7.939069E+05 -1.070211E+04 -7.795289E+03 -2.776257E+04  4.601796E+03  2.131145E+03
       336   3  8.647562E+05  6.573488E+03  7.243478E+03 -4.363925E+04  3.639024E+03 -1.692376E+03
       336   4  8.376520E+05  7.632637E+00  3.135618E+03 -4.361889E+04  2.350404E+03  5.954132E+03
       336   5  8.375816E+05 -2.645233E+01  1.947923E+03 -2.770529E+04  1.387221E+03  2.131176E+03
       336   6  8.376542E+05 -1.047745E+01  1.399846E+03 -4.361891E+04  4.237945E+02 -1.692248E+03
       336   7  9.521100E+05  2.794215E+04  2.846518E+04 -4.352452E+04 -8.639943E+02  5.954083E+03
       336   8  8.812581E+05  1.064908E+04  1.169105E+04 -2.764801E+04 -1.827577E+03  2.131206E+03
       336   9  8.105528E+05 -6.594486E+03 -4.443790E+03 -4.359858E+04 -2.791296E+03 -1.692121E+03
       336  10  7.232062E+05 -2.792781E+04 -2.219484E+04 -4.371327E+04  1.826115E-10 -2.483297E-10
       336  11  7.939068E+05 -1.070212E+04 -7.795337E+03 -2.776258E+04  4.953273E-10 -1.329286E-10
       336  12  8.647562E+05  6.573482E+03  7.243448E+03 -4.363924E+04 -5.219841E-10 -9.318943E-11
       336  13  8.376520E+05  7.593071E+00  3.135541E+03 -4.361891E+04 -5.183324E-10 -1.687921E-11
       336  14  8.375816E+05 -2.645772E+01  1.947911E+03 -2.770530E+04 -9.879433E-10  2.329282E-10
       336  15  8.376542E+05 -1.048058E+01  1.399841E+03 -4.361891E+04 -4.062554E-10  1.202264E-10
       336  16  9.521100E+05  2.794212E+04  2.846511E+04 -4.352452E+04 -3.726996E-10  4.861774E-10
       336  17  8.812581E+05  1.064907E+04  1.169104E+04 -2.764801E+04 -6.739823E-10  4.479397E-10
       336  18  8.105528E+05 -6.594491E+03 -4.443810E+03 -4.359858E+04 -2.007206E-10  3.759081E-10
       336  19  7.232062E+05 -2.792776E+04 -2.219472E+04 -4.371325E+04 -5.564218E+03 -5.954179E+03
       336  20  7.939069E+05 -1.070211E+04 -7.795289E+03 -2.776257E+04 -4.601796E+03 -2.131145E+03
       336  21  8.647562E+05  6.573488E+03  7.243478E+03 -4.363925E+04 -3.639024E+03  1.692376E+03
       336  22  8.376520E+05  7.632637E+00  3.135618E+03 -4.361889E+04 -2.350404E+03 -5.954132E+03
       336  23  8.375816E+05 -2.645233E+01  1.947923E+03 -2.770529E+04 -1.387221E+03 -2.131176E+03
       336  24  8.376542E+05 -1.047745E+01  1.399846E+03 -4.361891E+04 -4.237945E+02  1.692248E+03
       336  25  9.521100E+05  2.794215E+04  2.846518E+04 -4.352452E+04  8.639943E+02 -5.954083E+03
       336  26  8.812581E+05  1.064908E+04  1.169105E+04 -2.764801E+04  1.827577E+03 -2.131206E+03
       336  27  8.105528E+05 -6.594486E+03 -4.443790E+03 -4.359858E+04  2.791296E+03  1.692121E+03
       337   1  9.254793E+05  2.149779E+04  2.109024E+04 -4.363727E+04  3.395634E+03 -3.918007E+03
       337   2  9.962914E+05  3.876180E+04  3.678391E+04 -2.766610E+04  2.713550E+03 -7.744207E+03
       337   3  1.067222E+06  5.605115E+04  5.293079E+04 -4.356067E+04  2.032228E+03 -1.157294E+04
       337   4  8.376462E+05 -1.028141E+01  1.296254E+03 -4.362758E+04  1.789136E+02 -3.917952E+03
       337   5  8.375857E+05 -2.666975E+01  1.383587E+03 -2.769446E+04 -5.053340E+02 -7.744481E+03
       337   6  8.376397E+05 -1.703516E+01  1.925904E+03 -4.362758E+04 -1.188744E+03 -1.157353E+04
       337   7  7.498203E+05 -2.151887E+04 -1.849819E+04 -4.361790E+04 -3.037357E+03 -3.917898E+03
       337   8  6.789035E+05 -3.881685E+04 -3.401827E+04 -2.772281E+04 -3.723406E+03 -7.744754E+03
       337   9  6.081063E+05 -5.608877E+04 -4.908223E+04 -4.369446E+04 -4.408540E+03 -1.157411E+04
       337  10  9.254793E+05  2.149777E+04  2.109019E+04 -4.363726E+04 -9.220324E-10 -9.620883E-15
       337  11  9.962914E+05  3.876174E+04  3.678378E+04 -2.766609E+04  2.259953E-10  1.109513E-10
       337  12  1.067222E+06  5.605100E+04  5.293053E+04 -4.356065E+04 -7.526905E-10 -4.547440E-10
       337  13  8.376462E+05 -1.029791E+01  1.296225E+03 -4.362758E+04  5.941390E-11  1.832793E-10
       337  14  8.375857E+05 -2.673425E+01  1.383474E+03 -2.769447E+04 -5.298878E-10  3.654604E-10
       337  15  8.376397E+05 -1.717943E+01  1.925650E+03 -4.362759E+04 -6.160921E-10 -3.888187E-10
       337  16  7.498203E+05 -2.151889E+04 -1.849823E+04 -4.361791E+04  1.504294E-10  1.929204E-10
       337  17  6.789035E+05 -3.881691E+04 -3.401841E+04 -2.772284E+04 -1.107211E-10  8.107629E-11
       337  18  6.081062E+05 -5.608892E+04 -4.908252E+04 -4.369450E+04 -1.421760E-09 -2.524853E-10
       337  19  9.254793E+05  2.149779E+04  2.109024E+04 -4.363727E+04 -3.395634E+03  3.918007E+03
       337  20  9.962914E+05  3.876180E+04  3.678391E+04 -2.766610E+04 -2.713550E+03  7.744207E+03
       337  21  1.067222E+06  5.605115E+04  5.293079E+04 -4.356067E+04 -2.032228E+03  1.157294E+04
       337  22  8.376462E+05 -1.028141E+01  1.296254E+03 -4.362758E+04 -1.789136E+02  3.917952E+03
       337  23  8.375857E+05 -2.666975E+01  1.383587E+03 -2.769446E+04  5.053340E+02  7.744481E+03
       337  24  8.376397E+05 -1.703516E+01  1.925904E+03 -4.362758E+04  1.188744E+03  1.157353E+04
       337  25  7.498203E+05 -2.151887E+04 -1.849819E+04 -4.361790E+04  3.037357E+03  3.917898E+03
       337  26  6.789035E+05 -3.881685E+04 -3.401827E+04 -2.772281E+04  3.723406E+03  7.744754E+03
       337  27  6.081063E+05 -5.608877E+04 -4.908223E+04 -4.369446E+04  4.408540E+03  1.157411E+04
       338   1  1.128239E+06  7.098282E+04  6.740091E+04 -4.351157E+04  1.661023E+03 -1.381003E+04
       338   2  1.199285E+06  8.831548E+04  8.464527E+04 -2.747084E+04 -3.275207E+02 -1.764564E+04
       338   3  1.270785E+06  1.060899E+05  1.033099E+05 -4.347355E+04 -2.314365E+03 -2.144704E+04
       338   4  8.377060E+05 -5.924349E+01  2.400959E+03 -4.366717E+04 -1.579086E+03 -1.381095E+04
       338   5  8.374752E+05 -1.027091E+02  3.947277E+03 -2.764492E+04 -3.537966E+03 -1.764729E+04
       338   6  8.376903E+05  2.912582E+02  6.894407E+03 -4.366725E+04 -5.494925E+03 -2.144939E+04
       338   7  5.472518E+05 -7.110704E+04 -6.260427E+04 -4.382270E+04 -4.817696E+03 -1.381186E+04
       338   8  4.757874E+05 -8.852977E+04 -7.675889E+04 -2.781890E+04 -6.746564E+03 -1.764894E+04
       338   9  4.047698E+05 -1.055201E+05 -8.953276E+04 -4.386082E+04 -8.673294E+03 -2.145174E+04
       338  10  1.128239E+06  7.098261E+04  6.740054E+04 -4.351155E+04 -1.066381E-09  1.026777E-10
       338  11  1.199285E+06  8.831515E+04  8.464469E+04 -2.747085E+04 -2.778508E-10 -5.052603E-11
       338  12  1.270785E+06  1.060894E+05  1.033090E+05 -4.347359E+04  3.408792E-10  1.069409E-10
       338  13  8.377059E+05 -5.944906E+01  2.400596E+03 -4.366719E+04 -9.340108E-10 -7.242927E-12
       338  14  8.374751E+05 -1.030470E+02  3.946668E+03 -2.764497E+04 -1.568340E-09  1.343712E-10
       338  15  8.376901E+05  2.907559E+02  6.893486E+03 -4.366734E+04 -2.871584E-10 -9.102136E-11
       338  16  5.472518E+05 -7.110725E+04 -6.260467E+04 -4.382275E+04  1.205405E-10 -3.013181E-10
       338  17  4.757873E+05 -8.853012E+04 -7.675956E+04 -2.781899E+04 -7.146415E-10  1.082632E-10
       338  18  4.047696E+05 -1.055206E+05 -8.953377E+04 -4.386096E+04 -3.179119E-10  4.006622E-10
       338  19  1.128239E+06  7.098282E+04  6.740091E+04 -4.351157E+04 -1.661023E+03  1.381003E+04
       338  20  1.199285E+06  8.831548E+04  8.464527E+04 -2.747084E+04  3.275207E+02  1.764564E+04
       338  21  1.270785E+06  1.060899E+05  1.033099E+05 -4.347355E+04  2.314365E+03  2.144704E+04
       338  22  8.377060E+05 -5.924349E+01  2.400959E+03 -4.366717E+04  1.579086E+03  1.381095E+04
       338  23  8.374752E+05 -1.027091E+02  3.947277E+03 -2.764492E+04  3.537966E+03  1.764729E+04
       338  24  8.376903E+05  2.912582E+02  6.894407E+03 -4.366725E+04  5.494925E+03  2.144939E+04
       338  25  5.472518E+05 -7.110704E+04 -6.260427E+04 -4.382270E+04  4.817696E+03  1.381186E+04
       338  26  4.757874E+05 -8.852977E+04 -7.675889E+04 -2.781890E+04  6.746564E+03  1.764894E+04
       338  27  4.047698E+05 -1.055201E+05 -8.953276E+04 -4.386082E+04  8.673294E+03  2.145174E+04
       339   1  1.332780E+06  1.204075E+05  1.194230E+05 -4.230002E+04 -3.402557E+03 -2.379565E+04
       339   2  1.403224E+06  1.379931E+05  1.418169E+05 -2.781450E+04 -1.197356E+04 -2.746383E+04
       339   3  1.476770E+06  1.627426E+05  1.716152E+05 -4.564364E+04 -2.054379E+04 -3.016073E+04
       339   4  8.382356E+05 -4.753060E+02  8.951972E+03 -4.372604E+04 -6.889854E+03 -2.379874E+04
       339   5  8.367421E+05 -4.429786E+02  1.539310E+04 -2.757061E+04 -1.463730E+04 -2.746754E+04
       339   6  8.382067E+05  6.614570E+03  2.867225E+04 -4.373142E+04 -2.238299E+04 -3.016469E+04
       339   7  3.439186E+05 -1.213747E+05 -1.015344E+05 -4.515095E+04 -1.037441E+04 -2.380182E+04
       339   8  2.705591E+05 -1.389008E+05 -1.110508E+05 -2.732698E+04 -1.729864E+04 -2.747126E+04
       339   9  2.000219E+05 -1.495412E+05 -1.142964E+05 -4.182126E+04 -2.422031E+04 -3.016866E+04
       339  10  1.332780E+06  1.204069E+05  1.194219E+05 -4.230008E+04 -8.700528E-10 -3.492137E-10
       339  11  1.403223E+06  1.379923E+05  1.418152E+05 -2.781477E+04 -8.742908E-11 -8.317630E-10
       339  12  1.476770E+06  1.627415E+05  1.716127E+05 -4.564414E+04  1.213537E-09 -1.503195E-09
       339  13  8.382354E+05 -4.759272E+02  8.950818E+03 -4.372618E+04 -7.823853E-10 -1.952301E-10
       339  14  8.367417E+05 -4.438465E+02  1.539128E+04 -2.757093E+04 -1.498920E-09 -9.347190E-10
       339  15  8.382059E+05  6.613459E+03  2.866960E+04 -4.373197E+04 -2.697034E-10 -1.239037E-09
       339  16  3.439183E+05 -1.213754E+05 -1.015357E+05 -4.515115E+04  9.301028E-10  8.317096E-11
       339  17  2.705586E+05 -1.389017E+05 -1.110528E+05 -2.732736E+04 -1.493331E-09  1.583108E-09
       339  18  2.000210E+05 -1.495423E+05 -1.142992E+05 -4.182185E+04 -6.358711E-10 -1.056186E-10
       339  19  1.332780E+06  1.204075E+05  1.194230E+05 -4.230002E+04  3.402557E+03  2.379565E+04
       339  20  1.403224E+06  1.379931E+05  1.418169E+05 -2.781450E+04  1.197356E+04  2.746383E+04
       339  21  1.476770E+06  1.627426E+05  1.716152E+05 -4.564364E+04  2.054379E+04  3.016073E+04
       339  22  8.382356E+05 -4.753060E+02  8.951972E+03 -4.372604E+04  6.889854E+03  2.379874E+04
       339  23  8.367421E+05 -4.429786E+02  1.539310E+04 -2.757061E+04  1.463730E+04  2.746754E+04
       339  24  8.382067E+05  6.614570E+03  2.867225E+04 -4.373142E+04  2.238299E+04  3.016469E+04
       339  25  3.439186E+05 -1.213747E+05 -1.015344E+05 -4.515095E+04  1.037441E+04  2.380182E+04
       339  26  2.705591E+05 -1.389008E+05 -1.110508E+05 -2.732698E+04  1.729864E+04  2.747126E+04
       339  27  2.000219E+05 -1.495412E+05 -1.142964E+05 -4.182126E+04  2.422031E+04  3.016866E+04
       340   1  1.545829E+06  1.653672E+05  1.920270E+05 -2.684001E+04 -1.909896E+04 -3.461987E+04
       340   2  1.601429E+06  1.860237E+05  2.350174E+05 -4.383767E+04 -6.976328E+04 -3.377082E+04
       340   3  1.692394E+06  3.204738E+05  3.394555E+05 -9.285754E+04 -1.204713E+05 -1.097317E+04
       340   4  8.446928E+05 -5.937969E+03  3.589837E+04 -4.361873E+04 -2.755142E+04 -3.463104E+04
       340   5  8.285570E+05 -3.187098E+03  6.050115E+04 -2.769173E+04 -5.970900E+04 -3.376220E+04
       340   6  8.446152E+05  1.102219E+05  1.337609E+05 -4.378412E+04 -9.190283E+04 -1.093792E+04
       340   7  1.440142E+05 -1.772753E+05 -1.202606E+05 -6.037845E+04 -3.599444E+04 -3.464177E+04
       340   8  5.623947E+04 -1.924378E+05 -1.140528E+05 -1.156621E+04 -4.966704E+04 -3.375305E+04
       340   9 -2.501983E+03 -1.000732E+05 -7.198109E+04  5.222012E+03 -6.337313E+04 -1.089814E+04
       340  10  1.545829E+06  1.653658E+05  1.920241E+05 -2.684054E+04 -3.406549E-10 -2.513636E-09
       340  11  1.601424E+06  1.860212E+05  2.350061E+05 -4.383957E+04 -1.418174E-09 -4.291427E-09
       340  12  1.692379E+06  3.204698E+05  3.394281E+05 -9.285860E+04 -1.964669E-09 -1.000128E-09
       340  13  8.446917E+05 -5.939460E+03  3.589469E+04 -4.361950E+04 -8.105348E-10 -5.641874E-09
       340  14  8.285529E+05 -3.189278E+03  6.049232E+04 -2.769336E+04  1.267641E-10  2.297426E-09
       340  15  8.446061E+05  1.102195E+05  1.337449E+05 -4.378493E+04  1.072871E-10 -4.119497E-10
       340  16  1.440125E+05 -1.772770E+05 -1.202653E+05 -6.037945E+04  2.657702E-10 -1.248369E-09
       340  17  5.623652E+04 -1.924397E+05 -1.140596E+05 -1.156756E+04 -4.534649E-11  1.288345E-09
       340  18 -2.506328E+03 -1.000744E+05 -7.198886E+04  5.221455E+03  1.630390E-09 -1.702353E-09
       340  19  1.545829E+06  1.653672E+05  1.920270E+05 -2.684001E+04  1.909896E+04  3.461987E+04
       340  20  1.601429E+06  1.860237E+05  2.350174E+05 -4.383767E+04  6.976328E+04  3.377082E+04
       340  21  1.692394E+06  3.204738E+05  3.394555E+05 -9.285754E+04  1.204713E+05  1.097317E+04
       340  22  8.446928E+05 -5.937969E+03  3.589837E+04 -4.361873E+04  2.755142E+04  3.463104E+04
       340  23  8.285570E+05 -3.187098E+03  6.050115E+04 -2.769173E+04  5.970900E+04  3.376220E+04
       340  24  8.446152E+05  1.102219E+05  1.337609E+05 -4.378412E+04  9.190283E+04  1.093792E+04
       340  25  1.440142E+05 -1.772753E+05 -1.202606E+05 -6.037845E+04  3.599444E+04  3.464177E+04
       340  26  5.623947E+04 -1.924378E+05 -1.140528E+05 -1.156621E+04  4.966704E+04  3.375305E+04
       340  27 -2.501983E+03 -1.000732E+05 -7.198109E+04  5.222012E+03  6.337313E+04  1.089814E+04
       341   1  8.713565E+05  3.333459E+06  8.706494E+05 -5.777154E+05  3.444897E+04  1.479360E+05
       341   2  5.676702E+05  2.440262E+06  5.705228E+05 -3.601642E+05  9.674304E+04  4.942328E+04
       341   3  3.553449E+05  1.583192E+06  3.570669E+05 -5.315168E+05  6.989650E+04 -4.916734E+04
       341   4  7.579089E+04  1.301030E+05  9.048912E+04 -5.377379E+05  3.469800E+04  5.788190E+04
       341   5 -1.165580E+03  1.194048E+05  4.418339E+04 -3.433612E+05  9.681698E+04  3.469061E+04
       341   6  4.422245E+02  1.312525E+05  3.258184E+04 -5.379456E+05  6.965361E+04  1.128085E+04
       341   7 -7.205204E+05 -3.063905E+06 -6.903851E+05 -4.979568E+05  3.493630E+04 -3.171119E+04
       341   8 -5.703716E+05 -2.196464E+06 -4.825032E+05 -3.266162E+05  9.689030E+04  2.001216E+04
       341   9 -3.546016E+05 -1.318718E+06 -2.920222E+05 -5.443564E+05  6.940913E+04  7.158941E+04
       341  10  8.713494E+05  3.333435E+06  8.706062E+05 -5.777195E+05  2.188847E-11 -6.194685E-10
       341  11  5.676595E+05  2.440257E+06  5.705006E+05 -3.601681E+05 -4.070428E-10 -1.776056E-10
       341  12  3.553390E+05  1.583188E+06  3.570532E+05 -5.315141E+05  1.719265E-09 -1.838949E-09
       341  13  7.578870E+04  1.300991E+05  9.048055E+04 -5.377396E+05  1.200541E-09  1.531040E-11
       341  14 -1.175971E+03  1.194010E+05  4.416351E+04 -3.433639E+05  1.126546E-09  2.157898E-11
       341  15  4.369793E+02  1.312510E+05  3.257248E+04 -5.379462E+05 -7.051596E-10 -4.464227E-10
       341  16 -7.205219E+05 -3.063907E+06 -6.903893E+05 -4.979559E+05 -2.705378E-10 -2.058192E-09
       341  17 -5.703818E+05 -2.196467E+06 -4.825216E+05 -3.266178E+05  1.238890E-09  3.372180E-09
       341  18 -3.546081E+05 -1.318725E+06 -2.920409E+05 -5.443604E+05 -1.900960E-09  7.944190E-10
       341  19  8.713565E+05  3.333459E+06  8.706494E+05 -5.777154E+05 -3.444897E+04 -1.479360E+05
       341  20  5.676702E+05  2.440262E+06  5.705228E+05 -3.601642E+05 -9.674304E+04 -4.942328E+04
       341  21  3.553449E+05  1.583192E+06  3.570669E+05 -5.315168E+05 -6.989650E+04  4.916734E+04
       341  22  7.579089E+04  1.301030E+05  9.048912E+04 -5.377379E+05 -3.469800E+04 -5.788190E+04
       341  23 -1.165580E+03  1.194048E+05  4.418339E+04 -3.433612E+05 -9.681698E+04 -3.469061E+04
       341  24  4.422245E+02  1.312525E+05  3.258184E+04 -5.379456E+05 -6.965361E+04 -1.128085E+04
       341  25 -7.205204E+05 -3.063905E+06 -6.903851E+05 -4.979568E+05 -3.493630E+04  3.171119E+04
       341  26 -5.703716E+05 -2.196464E+06 -4.825032E+05 -3.266162E+05 -9.689030E+04 -2.001216E+04
       341  27 -3.546016E+05 -1.318718E+06 -2.920222E+05 -5.443564E+05 -6.940913E+04 -7.158941E+04
       342   1  1.794364E+05  8.270252E+05  1.873267E+05 -5.438704E+05  3.303657E+04 -2.902346E+04
       342   2 -4.035556E+04 -4.751348E+04 -8.557628E+03 -3.416152E+05 -8.206779E+03 -4.401690E+04
       342   3 -2.438443E+05 -9.186237E+05 -1.914774E+05 -5.316919E+05 -4.905402E+04 -5.897842E+04
       342   4  8.143059E+03  1.272311E+05  3.046704E+04 -5.386339E+05  3.288374E+04  5.856872E+03
       342   5  2.059925E+03  1.258031E+05  3.017743E+04 -3.424661E+05 -8.352750E+03 -9.489193E+03
       342   6  1.238577E+04  1.271448E+05  4.312598E+04 -5.386158E+05 -4.919559E+04 -2.482367E+04
       342   7 -1.631830E+05 -5.721049E+05 -1.264190E+05 -5.334027E+05  3.273140E+04  4.069833E+04
       342   8  4.447401E+04  2.991503E+05  6.891507E+04 -3.433171E+05 -8.498791E+03  2.504806E+04
       342   9  2.685419E+05  1.173935E+06  2.776645E+05 -5.455500E+05 -4.933778E+04  9.388116E+03
       342  10  1.794350E+05  8.270240E+05  1.873230E+05 -5.438697E+05  2.176463E-10 -1.051678E-09
       342  11 -4.035615E+04 -4.751558E+04 -8.561397E+03 -3.416155E+05  1.624523E-09 -2.071613E-10
       342  12 -2.438478E+05 -9.186281E+05 -1.914885E+05 -5.316943E+05 -1.107953E-09 -2.959465E-09
       342  13  8.141888E+03  1.272308E+05  3.046494E+04 -5.386341E+05 -6.734778E-11  5.057453E-14
       342  14  2.059826E+03  1.258030E+05  3.017713E+04 -3.424661E+05  3.072363E-09 -2.798796E-11
       342  15  1.238300E+04  1.271435E+05  4.312027E+04 -5.386168E+05  3.547650E-09 -4.804780E-10
       342  16 -1.631846E+05 -5.721070E+05 -1.264241E+05 -5.334038E+05 -1.254409E-09 -4.729228E-09
       342  17  4.447376E+04  2.991496E+05  6.891376E+04 -3.433170E+05 -1.552091E-09  4.038008E-09
       342  18  2.685393E+05  1.173934E+06  2.776597E+05 -5.455496E+05 -7.386721E-10  2.211619E-09
       342  19  1.794364E+05  8.270252E+05  1.873267E+05 -5.438704E+05 -3.303657E+04  2.902346E+04
       342  20 -4.035556E+04 -4.751348E+04 -8.557628E+03 -3.416152E+05  8.206779E+03  4.401690E+04
       342  21 -2.438443E+05 -9.186237E+05 -1.914774E+05 -5.316919E+05  4.905402E+04  5.897842E+04
       342  22  8.143059E+03  1.272311E+05  3.046704E+04 -5.386339E+05 -3.288374E+04 -5.856872E+03
       342  23  2.059925E+03  1.258031E+05  3.017743E+04 -3.424661E+05  8.352750E+03  9.489193E+03
       342  24  1.238577E+04  1.271448E+05  4.312598E+04 -5.386158E+05  4.919559E+04  2.482367E+04
       342  25 -1.631830E+05 -5.721049E+05 -1.264190E+05 -5.334027E+05 -3.273140E+04 -4.069833E+04
       342  26  4.447401E+04  2.991503E+05  6.891507E+04 -3.433171E+05  8.498791E+03 -2.504806E+04
       342  27  2.685419E+05  1.173935E+06  2.776645E+05 -5.455500E+05  4.933778E+04 -9.388116E+03
       343   1 -4.436281E+05 -1.660680E+06 -3.506525E+05 -5.538586E+05 -8.654586E+04 -9.499961E+04
       343   2 -6.578664E+05 -2.548208E+06 -5.244287E+05 -3.159455E+05 -1.121198E+05 -5.544673E+04
       343   3 -7.376149E+05 -3.405555E+06 -6.902971E+05 -4.667996E+05 -3.955016E+04 -1.574822E+04
       343   4 -3.796508E+03  1.357200E+05  5.127194E+04 -5.379047E+05 -8.678207E+04 -3.268484E+04
       343   5 -3.616918E+03  1.132701E+05  8.053288E+04 -3.434218E+05 -1.120257E+05 -7.545380E+04
       343   6  1.450800E+05  1.343978E+05  1.748128E+05 -5.375474E+05 -3.931913E+04 -1.180243E+05
       343   7  4.358186E+05  1.935140E+06  4.530078E+05 -5.218999E+05 -8.701467E+04  2.980881E+04
       343   8  6.501451E+05  2.781341E+06  6.850370E+05 -3.710109E+05 -1.119301E+05 -9.554558E+04
       343   9  1.026871E+06  3.685846E+06  1.039050E+06 -6.086906E+05 -3.906559E+04 -2.208832E+05
       343  10 -4.436385E+05 -1.660691E+06 -3.506836E+05 -5.538652E+05  1.191102E-10 -1.870313E-09
       343  11 -6.578807E+05 -2.548215E+06 -5.244582E+05 -3.159505E+05  5.334368E-10  5.557571E-10
       343  12 -7.376167E+05 -3.405556E+06 -6.903005E+05 -4.668001E+05 -2.136242E-10 -5.703663E-10
       343  13 -3.804886E+03  1.357169E+05  5.125577E+04 -5.379070E+05 -2.166107E-09  8.650272E-11
       343  14 -3.631930E+03  1.132606E+05  8.049857E+04 -3.434286E+05  1.364877E-09  4.512855E-12
       343  15  1.450746E+05  1.343824E+05  1.747837E+05 -5.375511E+05 -2.994184E-10 -1.597787E-10
       343  16  4.358102E+05  1.935137E+06  4.529919E+05 -5.218978E+05  9.193082E-10 -3.277753E-09
       343  17  6.501292E+05  2.781328E+06  6.849964E+05 -3.710195E+05  8.562458E-10  1.800487E-09
       343  18  1.026856E+06  3.685794E+06  1.038956E+06 -6.086976E+05 -4.622940E-10  3.181565E-10
       343  19 -4.436281E+05 -1.660680E+06 -3.506525E+05 -5.538586E+05  8.654586E+04  9.499961E+04
       343  20 -6.578664E+05 -2.548208E+06 -5.244287E+05 -3.159455E+05  1.121198E+05  5.544673E+04
       343  21 -7.376149E+05 -3.405555E+06 -6.902971E+05 -4.667996E+05  3.955016E+04  1.574822E+04
       343  22 -3.796508E+03  1.357200E+05  5.127194E+04 -5.379047E+05  8.678207E+04  3.268484E+04
       343  23 -3.616918E+03  1.132701E+05  8.053288E+04 -3.434218E+05  1.120257E+05  7.545380E+04
       343  24  1.450800E+05  1.343978E+05  1.748128E+05 -5.375474E+05  3.931913E+04  1.180243E+05
       343  25  4.358186E+05  1.935140E+06  4.530078E+05 -5.218999E+05  8.701467E+04 -2.980881E+04
       343  26  6.501451E+05  2.781341E+06  6.850370E+05 -3.710109E+05  1.119301E+05  9.554558E+04
       343  27  1.026871E+06  3.685846E+06  1.039050E+06 -6.086906E+05  3.906559E+04  2.208832E+05
       344   1 -1.761160E+06 -7.203381E+05 -3.969549E+05 -7.031759E+05 -1.819857E+05 -5.525788E+04
       344   2 -1.684648E+06 -5.078648E+05 -2.398967E+05 -6.698231E+05 -1.142165E+05 -2.229445E+02
       344   3 -1.644830E+06 -4.226851E+05 -1.710293E+05 -6.274525E+05 -3.835377E+04  3.337192E+04
       344   4 -1.043761E+06 -3.585637E+05 -1.928368E+05 -4.123540E+05 -1.287262E+05 -3.525054E+04
       344   5 -1.017849E+06 -2.229498E+05 -8.826295E+04 -4.450693E+05 -9.216830E+04  8.057862E+03
       344   6 -1.022385E+06 -2.083736E+05 -4.704444E+04 -4.687866E+05 -4.753268E+04  2.991733E+04
       344   7 -3.258208E+05  3.385697E+03  1.124922E+04 -1.211809E+05 -7.539888E+04 -1.519767E+04
       344   8 -3.505860E+05  6.204825E+04  6.334590E+04 -2.200758E+05 -7.009440E+04  1.635187E+04
       344   9 -3.995405E+05  5.960094E+03  7.692228E+04 -3.099781E+05 -5.672151E+04  2.645953E+04
       344  10 -1.761196E+06 -7.203503E+05 -3.970231E+05 -7.031840E+05 -2.313782E-08 -9.317693E-09
       344  11 -1.684662E+06 -5.078683E+05 -2.399213E+05 -6.698231E+05 -4.489009E-09 -3.290034E-09
       344  12 -1.644831E+06 -4.226867E+05 -1.710341E+05 -6.274515E+05  2.005371E-08  9.015228E-09
       344  13 -1.043779E+06 -3.585695E+05 -1.928703E+05 -4.123577E+05 -1.934131E-09  3.117273E-10
       344  14 -1.017858E+06 -2.229522E+05 -8.827906E+04 -4.450687E+05 -5.678850E-09 -2.179855E-09
       344  15 -1.022387E+06 -2.083752E+05 -4.705037E+04 -4.687855E+05 -2.409807E-09 -1.689625E-09
       344  16 -3.258270E+05  3.383922E+03  1.123810E+04 -1.211818E+05  1.924138E-08  6.940298E-09
       344  17 -3.505913E+05  6.204665E+04  6.333616E+04 -2.200749E+05 -5.525966E-09 -2.532546E-09
       344  18 -3.995442E+05  5.958479E+03  7.691492E+04 -3.099769E+05 -2.540987E-08 -9.224281E-09
       344  19 -1.761160E+06 -7.203381E+05 -3.969549E+05 -7.031759E+05  1.819857E+05  5.525788E+04
       344  20 -1.684648E+06 -5.078648E+05 -2.398967E+05 -6.698231E+05  1.142165E+05  2.229445E+02
       344  21 -1.644830E+06 -4.226851E+05 -1.710293E+05 -6.274525E+05  3.835377E+04 -3.337192E+04
       344  22 -1.043761E+06 -3.585637E+05 -1.928368E+05 -4.123540E+05  1.287262E+05  3.525054E+04
       344  23 -1.017849E+06 -2.229498E+05 -8.826295E+04 -4.450693E+05  9.216830E+04 -8.057862E+03
       344  24 -1.022385E+06 -2.083736E+05 -4.704444E+04 -4.687866E+05  4.753268E+04 -2.991733E+04
       344  25 -3.258208E+05  3.385697E+03  1.124922E+04 -1.211809E+05  7.539888E+04  1.519767E+04
       344  26 -3.505860E+05  6.204825E+04  6.334590E+04 -2.200758E+05  7.009440E+04 -1.635187E+04
       344  27 -3.995405E+05  5.960094E+03  7.692228E+04 -3.099781E+05  5.672151E+04 -2.645953E+04
       345   1 -1.568873E+06 -4.174803E+05 -1.476558E+05 -6.200443E+05 -3.552378E+04  3.020223E+04
       345   2 -1.490385E+06 -3.709544E+05 -1.116762E+05 -5.872120E+05 -2.216926E+04  3.028750E+04
       345   3 -1.399036E+06 -3.459799E+05 -8.581560E+04 -5.721374E+05 -8.245672E+03  2.885702E+04
       345   4 -1.016490E+06 -2.132367E+05 -3.586134E+04 -4.645469E+05 -4.073555E+04  2.823959E+04
       345   5 -1.022691E+06 -1.996408E+05 -1.894255E+04 -4.568015E+05 -2.958206E+04  2.749943E+04
       345   6 -1.015598E+06 -2.071561E+05 -1.038899E+04 -4.668163E+05 -1.786136E+04  2.524346E+04
       345   7 -4.637960E+05 -8.966695E+03  7.591676E+04 -3.089219E+05 -4.595227E+04  2.627505E+04
       345   8 -5.547701E+05 -2.830745E+04  7.378102E+04 -3.262997E+05 -3.700086E+04  2.470909E+04
       345   9 -6.320035E+05 -6.831864E+04  6.503215E+04 -3.614342E+05 -2.748351E+04  2.162752E+04
       345  10 -1.568875E+06 -4.174816E+05 -1.476598E+05 -6.200435E+05  2.637037E-09  1.760773E-09
       345  11 -1.490386E+06 -3.709556E+05 -1.116788E+05 -5.872114E+05 -7.576638E-10  9.589216E-10
       345  12 -1.399036E+06 -3.459808E+05 -8.581729E+04 -5.721372E+05 -3.397072E-10 -2.759856E-10
       345  13 -1.016492E+06 -2.132380E+05 -3.586596E+04 -4.645460E+05 -5.303518E-10 -2.374070E-10
       345  14 -1.022692E+06 -1.996418E+05 -1.894562E+04 -4.568008E+05  8.966345E-11 -1.623390E-09
       345  15 -1.015598E+06 -2.071568E+05 -1.039078E+04 -4.668159E+05  2.187150E-10 -4.969675E-10
       345  16 -4.637984E+05 -8.968003E+03  7.591149E+04 -3.089209E+05 -2.694553E-09 -1.864583E-09
       345  17 -5.547717E+05 -2.830847E+04  7.377730E+04 -3.262990E+05 -1.225689E-09 -1.311871E-09
       345  18 -6.320044E+05 -6.831934E+04  6.502985E+04 -3.614337E+05  1.584696E-10 -2.855267E-10
       345  19 -1.568873E+06 -4.174803E+05 -1.476558E+05 -6.200443E+05  3.552378E+04 -3.020223E+04
       345  20 -1.490385E+06 -3.709544E+05 -1.116762E+05 -5.872120E+05  2.216926E+04 -3.028750E+04
       345  21 -1.399036E+06 -3.459799E+05 -8.581560E+04 -5.721374E+05  8.245672E+03 -2.885702E+04
       345  22 -1.016490E+06 -2.132367E+05 -3.586134E+04 -4.645469E+05  4.073555E+04 -2.823959E+04
       345  23 -1.022691E+06 -1.996408E+05 -1.894255E+04 -4.568015E+05  2.958206E+04 -2.749943E+04
       345  24 -1.015598E+06 -2.071561E+05 -1.038899E+04 -4.668163E+05  1.786136E+04 -2.524346E+04
       345  25 -4.637960E+05 -8.966695E+03  7.591676E+04 -3.089219E+05  4.595227E+04 -2.627505E+04
       345  26 -5.547701E+05 -2.830745E+04  7.378102E+04 -3.262997E+05  3.700086E+04 -2.470909E+04
       345  27 -6.320035E+05 -6.831864E+04  6.503215E+04 -3.614342E+05  2.748351E+04 -2.162752E+04
       346   1 -1.340043E+06 -3.255192E+05 -7.137965E+04 -5.564672E+05 -5.616782E+03  2.545861E+04
       346   2 -1.262033E+06 -2.858621E+05 -5.110890E+04 -5.233026E+05 -8.807978E+02  1.986070E+04
       346   3 -1.168015E+06 -2.628571E+05 -3.261637E+04 -5.089035E+05  3.895548E+03  1.415166E+04
       346   4 -1.015151E+06 -2.073753E+05 -7.819546E+03 -4.665785E+05 -1.496263E+04  2.194741E+04
       346   5 -1.023149E+06 -1.989903E+05 -4.305987E+03 -4.572193E+05 -1.038784E+04  1.629011E+04
       346   6 -1.015115E+06 -2.072251E+05 -2.442165E+03 -4.666279E+05 -5.773062E+03  1.052162E+04
       346   7 -6.901500E+05 -8.922218E+04  5.573613E+04 -3.766461E+05 -2.431372E+04  1.843426E+04
       346   8 -7.842071E+05 -1.121137E+05  4.249442E+04 -3.911128E+05 -1.989878E+04  1.271808E+04
       346   9 -8.621907E+05 -1.515915E+05  2.773099E+04 -4.243430E+05 -1.544415E+04  6.890653E+03
       346  10 -1.340043E+06 -3.255199E+05 -7.138093E+04 -5.564671E+05 -8.552449E-10  3.054611E-10
       346  11 -1.262034E+06 -2.858625E+05 -5.110964E+04 -5.233026E+05 -1.521744E-10  1.619052E-10
       346  12 -1.168015E+06 -2.628573E+05 -3.261678E+04 -5.089035E+05  1.339948E-11  5.961473E-11
       346  13 -1.015152E+06 -2.073759E+05 -7.820872E+03 -4.665782E+05  1.041044E-10 -2.699694E-10
       346  14 -1.023150E+06 -1.989906E+05 -4.306688E+03 -4.572192E+05 -1.939815E-09  7.016327E-10
       346  15 -1.015115E+06 -2.072252E+05 -2.442436E+03 -4.666278E+05 -3.736796E-10 -5.095964E-10
       346  16 -6.901507E+05 -8.922271E+04  5.573438E+04 -3.766458E+05  1.293742E-10 -1.192735E-11
       346  17 -7.842075E+05 -1.121140E+05  4.249338E+04 -3.911126E+05  3.211419E-10 -4.930726E-10
       346  18 -8.621910E+05 -1.515916E+05  2.773045E+04 -4.243429E+05  6.394116E-10 -5.684879E-10
       346  19 -1.340043E+06 -3.255192E+05 -7.137965E+04 -5.564672E+05  5.616782E+03 -2.545861E+04
       346  20 -1.262033E+06 -2.858621E+05 -5.110890E+04 -5.233026E+05  8.807978E+02 -1.986070E+04
       346  21 -1.168015E+06 -2.628571E+05 -3.261637E+04 -5.089035E+05 -3.895548E+03 -1.415166E+04
       346  22 -1.015151E+06 -2.073753E+05 -7.819546E+03 -4.665785E+05  1.496263E+04 -2.194741E+04
       346  23 -1.023149E+06 -1.989903E+05 -4.305987E+03 -4.572193E+05  1.038784E+04 -1.629011E+04
       346  24 -1.015115E+06 -2.072251E+05 -2.442165E+03 -4.666279E+05  5.773062E+03 -1.052162E+04
       346  25 -6.901500E+05 -8.922218E+04  5.573613E+04 -3.766461E+05  2.431372E+04 -1.843426E+04
       346  26 -7.842071E+05 -1.121137E+05  4.249442E+04 -3.911128E+05  1.989878E+04 -1.271808E+04
       346  27 -8.621907E+05 -1.515915E+05  2.773099E+04 -4.243430E+05  1.544415E+04 -6.890653E+03
       347   1 -1.109838E+06 -2.416457E+05 -2.019671E+04 -4.928358E+05  5.688274E+03  1.042069E+04
       347   2 -1.031912E+06 -2.021508E+05 -2.912955E+03 -4.595724E+05  8.789568E+03  4.029414E+03
       347   3 -9.376597E+05 -1.790754E+05  1.391102E+04 -4.450845E+05  1.189343E+04 -2.368696E+03
       347   4 -1.015056E+06 -2.072353E+05 -1.890761E+03 -4.666088E+05 -3.964583E+03  6.796929E+03
       347   5 -1.023216E+06 -1.990351E+05 -1.214270E+03 -4.572154E+05 -8.739554E+02  4.016563E+02
       347   6 -1.015058E+06 -2.072539E+05 -9.898671E+02 -4.666012E+05  2.219132E+03 -6.000454E+03
       347   7 -9.202643E+05 -1.728236E+05  1.641543E+04 -4.403778E+05 -1.361910E+04  3.172545E+03
       347   8 -1.014520E+06 -1.959192E+05  4.848226E+02 -4.548583E+05 -1.053767E+04 -3.226170E+03
       347   9 -1.092450E+06 -2.354317E+05 -1.589062E+04 -4.881154E+05 -7.453870E+03 -9.631728E+03
       347  10 -1.109838E+06 -2.416459E+05 -2.019698E+04 -4.928358E+05 -1.915296E-10 -4.070373E-10
       347  11 -1.031912E+06 -2.021508E+05 -2.913131E+03 -4.595724E+05 -1.580562E-09  2.272196E-10
       347  12 -9.376599E+05 -1.790755E+05  1.391074E+04 -4.450845E+05 -4.703557E-10  9.144492E-10
       347  13 -1.015057E+06 -2.072353E+05 -1.890878E+03 -4.666088E+05  8.784998E-11 -4.468547E-10
       347  14 -1.023216E+06 -1.990351E+05 -1.214272E+03 -4.572154E+05 -3.848952E-11 -2.736084E-10
       347  15 -1.015058E+06 -2.072539E+05 -9.899440E+02 -4.666012E+05 -2.198409E-10  1.027906E-09
       347  16 -9.202645E+05 -1.728236E+05  1.641506E+04 -4.403778E+05  1.057160E-09 -1.078250E-10
       347  17 -1.014520E+06 -1.959192E+05  4.845940E+02 -4.548584E+05  9.142837E-10  4.501728E-10
       347  18 -1.092450E+06 -2.354319E+05 -1.589090E+04 -4.881154E+05  4.363610E-10  1.469366E-10
       347  19 -1.109838E+06 -2.416457E+05 -2.019671E+04 -4.928358E+05 -5.688274E+03 -1.042069E+04
       347  20 -1.031912E+06 -2.021508E+05 -2.912955E+03 -4.595724E+05 -8.789568E+03 -4.029414E+03
       347  21 -9.376597E+05 -1.790754E+05  1.391102E+04 -4.450845E+05 -1.189343E+04  2.368696E+03
       347  22 -1.015056E+06 -2.072353E+05 -1.890761E+03 -4.666088E+05  3.964583E+03 -6.796929E+03
       347  23 -1.023216E+06 -1.990351E+05 -1.214270E+03 -4.572154E+05  8.739554E+02 -4.016563E+02
       347  24 -1.015058E+06 -2.072539E+05 -9.898671E+02 -4.666012E+05 -2.219132E+03  6.000454E+03
       347  25 -9.202643E+05 -1.728236E+05  1.641543E+04 -4.403778E+05  1.361910E+04 -3.172545E+03
       347  26 -1.014520E+06 -1.959192E+05  4.848226E+02 -4.548583E+05  1.053767E+04  3.226170E+03
       347  27 -1.092450E+06 -2.354317E+05 -1.589062E+04 -4.881154E+05  7.453870E+03  9.631728E+03
       348   1 -8.795686E+05 -1.578271E+05  2.575475E+04 -4.289961E+05  1.350770E+04 -6.166845E+03
       348   2 -8.017096E+05 -1.183583E+05  4.201140E+04 -3.957552E+05  1.664037E+04 -1.254737E+04
       348   3 -7.075379E+05 -9.529113E+04  5.778764E+04 -3.812707E+05  1.976930E+04 -1.891387E+04
       348   4 -1.015065E+06 -2.072537E+05 -1.011170E+03 -4.665973E+05  3.835407E+03 -9.798156E+03
       348   5 -1.023223E+06 -1.990550E+05 -1.335563E+03 -4.572185E+05  6.987221E+03 -1.617258E+04
       348   6 -1.015079E+06 -2.072626E+05 -2.155601E+03 -4.665994E+05  1.013522E+04 -2.253301E+04
       348   7 -1.150541E+06 -2.566782E+05 -2.777722E+04 -5.041905E+05 -5.834540E+03 -1.342859E+04
       348   8 -1.244685E+06 -2.797473E+05 -4.468435E+04 -5.186614E+05 -2.662227E+03 -1.979639E+04
       348   9 -1.322524E+06 -3.192266E+05 -6.210339E+04 -5.518895E+05  5.061764E+02 -2.615025E+04
       348  10 -8.795688E+05 -1.578272E+05  2.575434E+04 -4.289960E+05 -1.846366E-09  9.620760E-10
       348  11 -8.017099E+05 -1.183585E+05  4.201059E+04 -3.957550E+05  1.638796E-10  1.328805E-09
       348  12 -7.075384E+05 -9.529161E+04  5.778623E+04 -3.812704E+05  1.531992E-09  5.712329E-11
       348  13 -1.015065E+06 -2.072538E+05 -1.011378E+03 -4.665973E+05 -9.497964E-10  1.025984E-09
       348  14 -1.023223E+06 -1.990553E+05 -1.336146E+03 -4.572184E+05 -4.371547E-10 -2.052920E-10
       348  15 -1.015079E+06 -2.072632E+05 -2.156747E+03 -4.665992E+05 -1.561698E-10 -8.145391E-10
       348  16 -1.150541E+06 -2.566784E+05 -2.777763E+04 -5.041906E+05  1.206216E-10  3.972492E-10
       348  17 -1.244685E+06 -2.797477E+05 -4.468510E+04 -5.186615E+05 -1.643936E-09  1.147245E-09
       348  18 -1.322524E+06 -3.192273E+05 -6.210468E+04 -5.518895E+05 -1.088647E-09 -8.542652E-10
       348  19 -8.795686E+05 -1.578271E+05  2.575475E+04 -4.289961E+05 -1.350770E+04  6.166845E+03
       348  20 -8.017096E+05 -1.183583E+05  4.201140E+04 -3.957552E+05 -1.664037E+04  1.254737E+04
       348  21 -7.075379E+05 -9.529113E+04  5.778764E+04 -3.812707E+05 -1.976930E+04  1.891387E+04
       348  22 -1.015065E+06 -2.072537E+05 -1.011170E+03 -4.665973E+05 -3.835407E+03  9.798156E+03
       348  23 -1.023223E+06 -1.990550E+05 -1.335563E+03 -4.572185E+05 -6.987221E+03  1.617258E+04
       348  24 -1.015079E+06 -2.072626E+05 -2.155601E+03 -4.665994E+05 -1.013522E+04  2.253301E+04
       348  25 -1.150541E+06 -2.566782E+05 -2.777722E+04 -5.041905E+05  5.834540E+03  1.342859E+04
       348  26 -1.244685E+06 -2.797473E+05 -4.468435E+04 -5.186614E+05  2.662227E+03  1.979639E+04
       348  27 -1.322524E+06 -3.192266E+05 -6.210339E+04 -5.518895E+05 -5.061764E+02  2.615025E+04
       349   1 -6.495937E+05 -7.409405E+04  6.897952E+04 -3.652526E+05  2.164385E+04 -2.260380E+04
       349   2 -5.718326E+05 -3.471618E+04  8.338832E+04 -3.320895E+05  2.638202E+04 -2.828761E+04
       349   3 -4.780736E+05 -1.191071E+04  9.605428E+04 -3.176317E+05  3.106959E+04 -3.382803E+04
       349   4 -1.015157E+06 -2.072509E+05 -2.806332E+03 -4.666138E+05  1.199389E+04 -2.622989E+04
       349   5 -1.023161E+06 -1.990440E+05 -4.987249E+03 -4.572279E+05  1.693808E+04 -3.183850E+04
       349   6 -1.015215E+06 -2.074521E+05 -9.075255E+03 -4.665514E+05  2.183128E+04 -3.730377E+04
       349   7 -1.380582E+06 -3.403959E+05 -7.459786E+04 -5.679197E+05  2.350039E+03 -2.985370E+04
       349   8 -1.474276E+06 -3.633530E+05 -9.337111E+04 -5.822814E+05  7.501548E+03 -3.538663E+04
       349   9 -1.552053E+06 -4.029663E+05 -1.142162E+05 -6.153504E+05  1.260164E+04 -4.077627E+04
       349  10 -6.495944E+05 -7.409473E+04  6.897768E+04 -3.652522E+05 -1.240366E-09 -3.511234E-10
       349  11 -5.718335E+05 -3.471723E+04  8.338551E+04 -3.320889E+05 -8.278879E-10  1.548533E-09
       349  12 -4.780750E+05 -1.191219E+04  9.605031E+04 -3.176308E+05  1.393670E-09  1.201556E-10
       349  13 -1.015158E+06 -2.072517E+05 -2.807895E+03 -4.666136E+05  4.217627E-10 -4.439059E-10
       349  14 -1.023162E+06 -1.990451E+05 -4.989691E+03 -4.572275E+05 -1.371314E-09  1.142168E-09
       349  15 -1.015216E+06 -2.074537E+05 -9.078763E+03 -4.665507E+05  5.460497E-10 -5.731884E-10
       349  16 -1.380582E+06 -3.403968E+05 -7.459955E+04 -5.679196E+05  1.386754E-09 -2.047278E-10
       349  17 -1.474277E+06 -3.633544E+05 -9.337356E+04 -5.822812E+05  1.914818E-10 -7.325818E-10
       349  18 -1.552053E+06 -4.029681E+05 -1.142196E+05 -6.153500E+05 -8.426795E-10 -6.746093E-10
       349  19 -6.495937E+05 -7.409405E+04  6.897952E+04 -3.652526E+05 -2.164385E+04  2.260380E+04
       349  20 -5.718326E+05 -3.471618E+04  8.338832E+04 -3.320895E+05 -2.638202E+04  2.828761E+04
       349  21 -4.780736E+05 -1.191071E+04  9.605428E+04 -3.176317E+05 -3.106959E+04  3.382803E+04
       349  22 -1.015157E+06 -2.072509E+05 -2.806332E+03 -4.666138E+05 -1.199389E+04  2.622989E+04
       349  23 -1.023161E+06 -1.990440E+05 -4.987249E+03 -4.572279E+05 -1.693808E+04  3.183850E+04
       349  24 -1.015215E+06 -2.074521E+05 -9.075255E+03 -4.665514E+05 -2.183128E+04  3.730377E+04
       349  25 -1.380582E+06 -3.403959E+05 -7.459786E+04 -5.679197E+05 -2.350039E+03  2.985370E+04
       349  26 -1.474276E+06 -3.633530E+05 -9.337111E+04 -5.822814E+05 -7.501548E+03  3.538663E+04
       349  27 -1.552053E+06 -4.029663E+05 -1.142162E+05 -6.153504E+05 -1.260164E+04  4.077627E+04
       350   1 -4.201327E+05  8.887488E+03  1.048947E+05 -3.025778E+05  3.453553E+04 -3.688906E+04
       350   2 -3.433880E+05  4.884384E+04  1.123743E+05 -2.672590E+05  4.493666E+04 -3.937249E+04
       350   3 -2.533325E+05  6.756834E+04  1.123545E+05 -2.494266E+05  5.462461E+04 -3.994673E+04
       350   4 -1.015738E+06 -2.071936E+05 -1.206018E+04 -4.668155E+05  2.495946E+04 -4.049336E+04
       350   5 -1.022638E+06 -1.998384E+05 -2.200154E+04 -4.567496E+05  3.813412E+04 -4.193692E+04
       350   6 -1.016790E+06 -2.142730E+05 -4.165028E+04 -4.641758E+05  5.059396E+04 -4.147065E+04
       350   7 -1.610982E+06 -4.232463E+05 -1.290324E+05 -6.309089E+05  1.539317E+04 -4.409403E+04
       350   8 -1.701414E+06 -4.484805E+05 -1.563996E+05 -6.460487E+05  3.133954E+04 -4.449835E+04
       350   9 -1.779646E+06 -4.960610E+05 -1.956837E+05 -6.786795E+05  4.656862E+04 -4.299253E+04
       350  10 -4.201344E+05  8.885708E+03  1.048900E+05 -3.025767E+05  1.083117E-09 -1.466476E-09
       350  11 -3.433905E+05  4.884163E+04  1.123676E+05 -2.672576E+05 -1.116655E-09 -1.374958E-09
       350  12 -2.533361E+05  6.756583E+04  1.123459E+05 -2.494249E+05 -1.387795E-09 -4.841672E-10
       350  13 -1.015740E+06 -2.071955E+05 -1.206443E+04 -4.668147E+05  5.850179E-10 -9.654915E-10
       350  14 -1.022640E+06 -1.998407E+05 -2.200758E+04 -4.567483E+05  1.730003E-10  3.207129E-10
       350  15 -1.016793E+06 -2.142755E+05 -4.165832E+04 -4.641741E+05 -4.657414E-10  6.844404E-10
       350  16 -1.610982E+06 -4.232485E+05 -1.290365E+05 -6.309083E+05 -1.074756E-10 -8.575081E-10
       350  17 -1.701416E+06 -4.484829E+05 -1.564052E+05 -6.460475E+05 -6.655521E-10  1.748031E-09
       350  18 -1.779649E+06 -4.960635E+05 -1.956913E+05 -6.786779E+05  1.293348E-09  1.688139E-09
       350  19 -4.201327E+05  8.887488E+03  1.048947E+05 -3.025778E+05 -3.453553E+04  3.688906E+04
       350  20 -3.433880E+05  4.884384E+04  1.123743E+05 -2.672590E+05 -4.493666E+04  3.937249E+04
       350  21 -2.533325E+05  6.756834E+04  1.123545E+05 -2.494266E+05 -5.462461E+04  3.994673E+04
       350  22 -1.015738E+06 -2.071936E+05 -1.206018E+04 -4.668155E+05 -2.495946E+04  4.049336E+04
       350  23 -1.022638E+06 -1.998384E+05 -2.200154E+04 -4.567496E+05 -3.813412E+04  4.193692E+04
       350  24 -1.016790E+06 -2.142730E+05 -4.165028E+04 -4.641758E+05 -5.059396E+04  4.147065E+04
       350  25 -1.610982E+06 -4.232463E+05 -1.290324E+05 -6.309089E+05 -1.539317E+04  4.409403E+04
       350  26 -1.701414E+06 -4.484805E+05 -1.563996E+05 -6.460487E+05 -3.133954E+04  4.449835E+04
       350  27 -1.779646E+06 -4.960610E+05 -1.956837E+05 -6.786795E+05 -4.656862E+04  4.299253E+04
       351   1 -1.882973E+05  8.144089E+04  1.115885E+05 -2.532344E+05  6.727255E+04 -3.935735E+04
       351   2 -1.447017E+05  1.401521E+05  9.413303E+04 -1.545553E+05  7.896250E+04 -2.657776E+04
       351   3 -1.314055E+05  6.910933E+04  3.436133E+04 -4.214423E+04  8.048725E+04  1.317470E+04
       351   4 -1.023658E+06 -2.086080E+05 -5.463820E+04 -4.690740E+05  5.824361E+04 -4.276251E+04
       351   5 -1.017010E+06 -2.269436E+05 -1.025144E+05 -4.431494E+05  1.092641E+05 -1.517782E+04
       351   6 -1.048544E+06 -3.829611E+05 -2.239602E+05 -4.034832E+05  1.501068E+05  3.939362E+04
       351   7 -1.858298E+06 -4.986136E+05 -2.208975E+05 -6.846520E+05  4.922774E+04 -4.616333E+04
       351   8 -1.888521E+06 -5.939043E+05 -2.992020E+05 -7.313423E+05  1.395194E+05 -3.800983E+03
       351   9 -1.964795E+06 -8.347662E+05 -4.823301E+05 -7.642659E+05  2.196122E+05  6.553925E+04
       351  10 -1.883025E+05  8.143801E+04  1.115771E+05 -2.532323E+05  7.988814E-10 -1.388926E-10
       351  11 -1.447086E+05  1.401497E+05  9.411998E+04 -1.545537E+05  6.028622E-10 -3.531433E-09
       351  12 -1.314125E+05  6.910740E+04  3.434882E+04 -4.214508E+04 -9.519864E-10 -8.327638E-10
       351  13 -1.023662E+06 -2.086108E+05 -5.464801E+04 -4.690720E+05 -3.722322E-10 -2.153905E-09
       351  14 -1.017023E+06 -2.269471E+05 -1.025373E+05 -4.431481E+05  9.552814E-10  1.381909E-09
       351  15 -1.048568E+06 -3.829688E+05 -2.240056E+05 -4.034880E+05 -1.835192E-10  1.622594E-09
       351  16 -1.858302E+06 -4.986166E+05 -2.209061E+05 -6.846502E+05 -1.636045E-09  1.921714E-09
       351  17 -1.888542E+06 -5.939096E+05 -2.992387E+05 -7.313419E+05 -6.516635E-10  1.425874E-09
       351  18 -1.964848E+06 -8.347839E+05 -4.824292E+05 -7.642775E+05 -4.779921E-12  5.325848E-10
       351  19 -1.882973E+05  8.144089E+04  1.115885E+05 -2.532344E+05 -6.727255E+04  3.935735E+04
       351  20 -1.447017E+05  1.401521E+05  9.413303E+04 -1.545553E+05 -7.896250E+04  2.657776E+04
       351  21 -1.314055E+05  6.910933E+04  3.436133E+04 -4.214423E+04 -8.048725E+04 -1.317470E+04
       351  22 -1.023658E+06 -2.086080E+05 -5.463820E+04 -4.690740E+05 -5.824361E+04  4.276251E+04
       351  23 -1.017010E+06 -2.269436E+05 -1.025144E+05 -4.431494E+05 -1.092641E+05  1.517782E+04
       351  24 -1.048544E+06 -3.829611E+05 -2.239602E+05 -4.034832E+05 -1.501068E+05 -3.939362E+04
       351  25 -1.858298E+06 -4.986136E+05 -2.208975E+05 -6.846520E+05 -4.922774E+04  4.616333E+04
       351  26 -1.888521E+06 -5.939043E+05 -2.992020E+05 -7.313423E+05 -1.395194E+05  3.800983E+03
       351  27 -1.964795E+06 -8.347662E+05 -4.823301E+05 -7.642659E+05 -2.196122E+05 -6.553925E+04
       352   1  7.663968E+04  2.806171E+04 -2.486487E+03 -3.173856E+04 -8.529706E+04 -8.294572E+03
       352   2  5.057407E+04  1.469376E+05  6.196223E+04 -2.798889E+03 -6.149946E+04 -2.576374E+04
       352   3 -1.004160E+04  1.397578E+05  7.944639E+04  4.496551E+04 -3.773500E+04 -2.696840E+04
       352   4 -5.531949E+05 -1.282870E+05 -1.554792E+05  2.548217E+04 -1.067629E+05 -8.343408E+03
       352   5 -5.346920E+05  3.488838E+03 -7.035306E+04  1.593188E+04 -6.933574E+04 -2.578372E+04
       352   6 -5.531465E+05  6.771392E+03 -4.169444E+04  2.520881E+04 -3.193915E+04 -2.695560E+04
       352   7 -1.182659E+06 -2.846522E+05 -3.084972E+05  8.264452E+04 -1.282070E+05 -8.396231E+03
       352   8 -1.119639E+06 -1.399821E+05 -2.026899E+05  3.464466E+04 -7.716467E+04 -2.580419E+04
       352   9 -1.095975E+06 -1.262336E+05 -1.628535E+05  5.469414E+03 -2.614831E+04 -2.694317E+04
       352  10  7.663185E+04  2.805968E+04 -2.500287E+03 -3.173913E+04  5.087100E-10  9.273371E-11
       352  11  5.056983E+04  1.469359E+05  6.195388E+04 -2.800165E+03  1.128217E-09 -2.884306E-09
       352  12 -1.004333E+04  1.397566E+05  7.944234E+04  4.496469E+04  7.606317E-10 -4.036521E-09
       352  13 -5.532072E+05 -1.282901E+05 -1.555008E+05  2.548145E+04  2.630593E-10  1.583500E-09
       352  14 -5.346974E+05  3.486833E+03 -7.036335E+04  1.593044E+04 -1.365909E-09 -1.937193E-09
       352  15 -5.531477E+05  6.770338E+03 -4.169773E+04  2.520811E+04 -6.157607E-10 -8.167721E-12
       352  16 -1.182677E+06 -2.846567E+05 -3.085282E+05  8.264365E+04 -1.855268E-10  1.149742E-09
       352  17 -1.119645E+06 -1.399844E+05 -2.027024E+05  3.464305E+04 -3.330046E-10 -6.045692E-09
       352  18 -1.095976E+06 -1.262346E+05 -1.628561E+05  5.468846E+03 -1.446896E-09 -6.698794E-09
       352  19  7.663968E+04  2.806171E+04 -2.486487E+03 -3.173856E+04  8.529706E+04  8.294572E+03
       352  20  5.057407E+04  1.469376E+05  6.196223E+04 -2.798889E+03  6.149946E+04  2.576374E+04
       352  21 -1.004160E+04  1.397578E+05  7.944639E+04  4.496551E+04  3.773500E+04  2.696840E+04
       352  22 -5.531949E+05 -1.282870E+05 -1.554792E+05  2.548217E+04  1.067629E+05  8.343408E+03
       352  23 -5.346920E+05  3.488838E+03 -7.035306E+04  1.593188E+04  6.933574E+04  2.578372E+04
       352  24 -5.531465E+05  6.771392E+03 -4.169444E+04  2.520881E+04  3.193915E+04  2.695560E+04
       352  25 -1.182659E+06 -2.846522E+05 -3.084972E+05  8.264452E+04  1.282070E+05  8.396231E+03
       352  26 -1.119639E+06 -1.399821E+05 -2.026899E+05  3.464466E+04  7.716467E+04  2.580419E+04
       352  27 -1.095975E+06 -1.262336E+05 -1.628535E+05  5.469414E+03  2.614831E+04  2.694317E+04
       353   1 -3.998588E+04  1.160218E+05  8.007647E+04  2.362670E+04 -2.687568E+04 -2.396740E+04
       353   2 -8.197594E+04  1.135257E+05  8.539367E+04  1.589891E+04 -1.849459E+04 -2.249051E+04
       353   3 -1.270881E+05  1.030460E+05  8.325141E+04  2.774470E+04 -1.011705E+04 -2.027246E+04
       353   4 -5.456500E+05 -7.804857E+03 -3.330560E+04  2.546221E+04 -2.594905E+04 -2.396668E+04
       353   5 -5.440254E+05  4.313866E+02 -1.788413E+04  1.566429E+04 -1.695207E+04 -2.248777E+04
       353   6 -5.456341E+05  5.735659E+02 -1.035438E+04  2.544096E+04 -7.958060E+03 -2.026748E+04
       353   7 -1.051076E+06 -1.316490E+05 -1.467039E+05  2.729607E+04 -2.502315E+04 -2.396595E+04
       353   8 -1.005876E+06 -1.126774E+05 -1.211754E+05  1.542972E+04 -1.541069E+04 -2.248502E+04
       353   9 -9.640169E+05 -1.019108E+05 -1.039712E+05  2.313869E+04 -5.800514E+03 -2.026252E+04
       353  10 -3.998681E+04  1.160210E+05  8.007403E+04  2.362618E+04 -3.442199E-09 -5.892041E-09
       353  11 -8.197644E+04  1.135250E+05  8.539207E+04  1.589858E+04 -3.435021E-09  1.786369E-09
       353  12 -1.270883E+05  1.030455E+05  8.325045E+04  2.774453E+04 -2.461494E-09  3.582837E-09
       353  13 -5.456508E+05 -7.805655E+03 -3.330794E+04  2.546171E+04  7.318204E-10 -4.423118E-09
       353  14 -5.440259E+05  4.307665E+02 -1.788562E+04  1.566398E+04 -2.707180E-09 -7.418842E-10
       353  15 -5.456343E+05  5.731079E+02 -1.035527E+04  2.544083E+04  1.100050E-09 -2.083755E-09
       353  16 -1.051077E+06 -1.316498E+05 -1.467061E+05  2.729559E+04  2.679174E-09 -1.387463E-09
       353  17 -1.005876E+06 -1.126781E+05 -1.211768E+05  1.542944E+04  1.432236E-09  9.330001E-10
       353  18 -9.640170E+05 -1.019112E+05 -1.039720E+05  2.313859E+04  3.021639E-09  1.742659E-09
       353  19 -3.998588E+04  1.160218E+05  8.007647E+04  2.362670E+04  2.687568E+04  2.396740E+04
       353  20 -8.197594E+04  1.135257E+05  8.539367E+04  1.589891E+04  1.849459E+04  2.249051E+04
       353  21 -1.270881E+05  1.030460E+05  8.325141E+04  2.774470E+04  1.011705E+04  2.027246E+04
       353  22 -5.456500E+05 -7.804857E+03 -3.330560E+04  2.546221E+04  2.594905E+04  2.396668E+04
       353  23 -5.440254E+05  4.313866E+02 -1.788413E+04  1.566429E+04  1.695207E+04  2.248777E+04
       353  24 -5.456341E+05  5.735659E+02 -1.035438E+04  2.544096E+04  7.958060E+03  2.026748E+04
       353  25 -1.051076E+06 -1.316490E+05 -1.467039E+05  2.729607E+04  2.502315E+04  2.396595E+04
       353  26 -1.005876E+06 -1.126774E+05 -1.211754E+05  1.542972E+04  1.541069E+04  2.248502E+04
       353  27 -9.640169E+05 -1.019108E+05 -1.039712E+05  2.313869E+04  5.800514E+03  2.026252E+04
       354   1 -1.640629E+05  9.290869E+04  7.703347E+04  2.635802E+04 -8.295507E+03 -1.881815E+04
       354   2 -2.077467E+05  8.263303E+04  7.076813E+04  1.645434E+04 -6.090634E+03 -1.647968E+04
       354   3 -2.519141E+05  7.195458E+04  6.294390E+04  2.631624E+04 -3.887119E+03 -1.410194E+04
       354   4 -5.450181E+05 -3.138391E+02 -7.964241E+03  2.549029E+04 -6.350718E+03 -1.881347E+04
       354   5 -5.447677E+05  1.406077E+02 -4.519768E+03  1.560644E+04 -4.114173E+03 -1.647450E+04
       354   6 -5.450088E+05  1.865807E+02 -2.656880E+03  2.548881E+04 -1.878833E+03 -1.409624E+04
       354   7 -9.258379E+05 -9.354623E+04 -9.297105E+04  2.462300E+04 -4.407110E+03 -1.880880E+04
       354   8 -8.816829E+05 -8.235954E+04 -7.981479E+04  1.475892E+04 -2.138774E+03 -1.646932E+04
       354   9 -8.380234E+05 -7.158727E+04 -6.826307E+04  2.466172E+04  1.285145E+02 -1.409054E+04
       354  10 -1.640631E+05  9.290829E+04  7.703268E+04  2.635789E+04 -1.216587E-09  5.319417E-09
       354  11 -2.077468E+05  8.263273E+04  7.076755E+04  1.645426E+04 -1.454584E-10  3.730931E-09
       354  12 -2.519142E+05  7.195436E+04  6.294350E+04  2.631619E+04  2.470761E-09 -2.048876E-10
       354  13 -5.450182E+05 -3.142299E+02 -7.964981E+03  2.549019E+04  1.899544E-09 -2.269764E-09
       354  14 -5.447678E+05  1.403118E+02 -4.520310E+03  1.560638E+04 -2.113715E-09  4.869407E-09
       354  15 -5.450089E+05  1.863664E+02 -2.657260E+03  2.548879E+04 -8.233792E-10  7.924930E-09
       354  16 -9.258380E+05 -9.354662E+04 -9.297175E+04  2.462293E+04  2.059976E-09  3.797214E-09
       354  17 -8.816830E+05 -8.235983E+04 -7.981531E+04  1.475889E+04 -1.549750E-09  6.153707E-09
       354  18 -8.380235E+05 -7.158748E+04 -6.826345E+04  2.466173E+04 -2.841814E-09  4.633910E-09
       354  19 -1.640629E+05  9.290869E+04  7.703347E+04  2.635802E+04  8.295507E+03  1.881815E+04
       354  20 -2.077467E+05  8.263303E+04  7.076813E+04  1.645434E+04  6.090634E+03  1.647968E+04
       354  21 -2.519141E+05  7.195458E+04  6.294390E+04  2.631624E+04  3.887119E+03  1.410194E+04
       354  22 -5.450181E+05 -3.138391E+02 -7.964241E+03  2.549029E+04  6.350718E+03  1.881347E+04
       354  23 -5.447677E+05  1.406077E+02 -4.519768E+03  1.560644E+04  4.114173E+03  1.647450E+04
       354  24 -5.450088E+05  1.865807E+02 -2.656880E+03  2.548881E+04  1.878833E+03  1.409624E+04
       354  25 -9.258379E+05 -9.354623E+04 -9.297105E+04  2.462300E+04  4.407110E+03  1.880880E+04
       354  26 -8.816829E+05 -8.235954E+04 -7.981479E+04  1.475892E+04  2.138774E+03  1.646932E+04
       354  27 -8.380234E+05 -7.158727E+04 -6.826307E+04  2.466172E+04 -1.285145E+02  1.409054E+04
       355   1 -2.897074E+05  6.259099E+04  5.482054E+04  2.617420E+04 -3.459382E+03 -1.270982E+04
       355   2 -3.337999E+05  5.177218E+04  4.581937E+04  1.611380E+04 -2.815105E+03 -1.032118E+04
       355   3 -3.780911E+05  4.104389E+04  3.638913E+04  2.593956E+04 -2.171596E+03 -7.927224E+03
       355   4 -5.449396E+05  1.400484E+02 -2.072480E+03  2.551603E+04 -1.457152E+03 -1.270392E+04
       355   5 -5.448359E+05  1.133616E+02 -1.326115E+03  1.557269E+04 -8.087290E+02 -1.031501E+04
       355   6 -5.449341E+05  1.764007E+02 -1.011954E+03  2.551591E+04 -1.610279E+02 -7.920766E+03
       355   7 -8.001110E+05 -6.231532E+04 -5.896957E+04  2.485809E+04  5.442639E+02 -1.269803E+04
       355   8 -7.558303E+05 -5.154848E+04 -4.847439E+04  1.503173E+04  1.196972E+03 -1.030883E+04
       355   9 -7.117512E+05 -4.069299E+04 -3.841478E+04  2.509235E+04  1.849005E+03 -7.914310E+03
       355  10 -2.897075E+05  6.259082E+04  5.482022E+04  2.617416E+04  5.431556E-09 -8.654591E-10
       355  11 -3.338000E+05  5.177206E+04  4.581916E+04  1.611377E+04  1.166909E-09  9.098942E-09
       355  12 -3.780911E+05  4.104383E+04  3.638900E+04  2.593954E+04 -2.951741E-09  8.358949E-09
       355  13 -5.449397E+05  1.398746E+02 -2.072787E+03  2.551602E+04  1.664598E-09  1.084335E-09
       355  14 -5.448359E+05  1.132472E+02 -1.326316E+03  1.557268E+04 -3.182489E-09  7.891213E-09
       355  15 -5.449341E+05  1.763334E+02 -1.012072E+03  2.551591E+04  6.140975E-10  2.070349E-09
       355  16 -8.001111E+05 -6.231549E+04 -5.896988E+04  2.485810E+04 -4.945324E-09  3.240237E-09
       355  17 -7.558304E+05 -5.154860E+04 -4.847459E+04  1.503174E+04 -2.666188E-09  5.478040E-10
       355  18 -7.117512E+05 -4.069306E+04 -3.841491E+04  2.509237E+04  1.917049E-09 -1.086317E-09
       355  19 -2.897074E+05  6.259099E+04  5.482054E+04  2.617420E+04  3.459382E+03  1.270982E+04
       355  20 -3.337999E+05  5.177218E+04  4.581937E+04  1.611380E+04  2.815105E+03  1.032118E+04
       355  21 -3.780911E+05  4.104389E+04  3.638913E+04  2.593956E+04  2.171596E+03  7.927224E+03
       355  22 -5.449396E+05  1.400484E+02 -2.072480E+03  2.551603E+04  1.457152E+03  1.270392E+04
       355  23 -5.448359E+05  1.133616E+02 -1.326115E+03  1.557269E+04  8.087290E+02  1.031501E+04
       355  24 -5.449341E+05  1.764007E+02 -1.011954E+03  2.551591E+04  1.610279E+02  7.920766E+03
       355  25 -8.001110E+05 -6.231532E+04 -5.896957E+04  2.485809E+04 -5.442639E+02  1.269803E+04
       355  26 -7.558303E+05 -5.154848E+04 -4.847439E+04  1.503173E+04 -1.196972E+03  1.030883E+04
       355  27 -7.117512E+05 -4.069299E+04 -3.841478E+04  2.509235E+04 -1.849005E+03  7.914310E+03
       356   1 -4.161279E+05  3.168279E+04  2.767109E+04  2.585109E+04 -1.997748E+03 -6.532169E+03
       356   2 -4.603569E+05  2.080189E+04  1.773147E+04  1.574349E+04 -1.442291E+03 -4.132941E+03
       356   3 -5.047945E+05  1.002136E+04  7.417365E+03  2.559053E+04 -8.871478E+02 -1.732908E+03
       356   4 -5.449333E+05  1.767368E+02 -9.790228E+02  2.553108E+04  1.465403E+01 -6.525587E+03
       356   5 -5.448273E+05  1.233133E+02 -1.140527E+03  1.555369E+04  5.706639E+02 -4.126255E+03
       356   6 -5.449313E+05  1.704461E+02 -1.676672E+03  2.553110E+04  1.126400E+03 -1.726109E+03
       356   7 -6.737231E+05 -3.133044E+04 -2.963016E+04  2.521112E+04  2.026643E+03 -6.519007E+03
       356   8 -6.292910E+05 -2.055575E+04 -2.001296E+04  1.536391E+04  2.583348E+03 -4.119570E+03
       356   9 -5.850665E+05 -9.680579E+03 -1.077080E+04  2.547167E+04  3.139818E+03 -1.719311E+03
       356  10 -4.161280E+05  3.168274E+04  2.767101E+04  2.585108E+04  8.438376E-09  3.124442E-09
       356  11 -4.603569E+05  2.080187E+04  1.773143E+04  1.574349E+04  2.553347E-09 -1.178478E-09
       356  12 -5.047945E+05  1.002136E+04  7.417358E+03  2.559053E+04 -4.650620E-09 -2.856494E-09
       356  13 -5.449333E+05  1.766911E+02 -9.791028E+02  2.553108E+04  1.896422E-09  9.323698E-09
       356  14 -5.448273E+05  1.232950E+02 -1.140559E+03  1.555369E+04 -3.037309E-09  2.297716E-09
       356  15 -5.449313E+05  1.704425E+02 -1.676680E+03  2.553110E+04 -6.758963E-10 -4.263523E-09
       356  16 -6.737232E+05 -3.133048E+04 -2.963025E+04  2.521113E+04 -8.146191E-09  2.520615E-09
       356  17 -6.292910E+05 -2.055577E+04 -2.001300E+04  1.536392E+04 -3.490496E-09 -3.153708E-09
       356  18 -5.850665E+05 -9.680584E+03 -1.077082E+04  2.547168E+04  4.375102E-09 -4.278706E-09
       356  19 -4.161279E+05  3.168279E+04  2.767109E+04  2.585109E+04  1.997748E+03  6.532169E+03
       356  20 -4.603569E+05  2.080189E+04  1.773147E+04  1.574349E+04  1.442291E+03  4.132941E+03
       356  21 -5.047945E+05  1.002136E+04  7.417365E+03  2.559053E+04  8.871478E+02  1.732908E+03
       356  22 -5.449333E+05  1.767368E+02 -9.790228E+02  2.553108E+04 -1.465403E+01  6.525587E+03
       356  23 -5.448273E+05  1.233133E+02 -1.140527E+03  1.555369E+04 -5.706639E+02  4.126255E+03
       356  24 -5.449313E+05  1.704461E+02 -1.676672E+03  2.553110E+04 -1.126400E+03  1.726109E+03
       356  25 -6.737231E+05 -3.133044E+04 -2.963016E+04  2.521112E+04 -2.026643E+03  6.519007E+03
       356  26 -6.292910E+05 -2.055575E+04 -2.001296E+04  1.536391E+04 -2.583348E+03  4.119570E+03
       356  27 -5.850665E+05 -9.680579E+03 -1.077080E+04  2.547167E+04 -3.139818E+03  1.719311E+03
       357   1 -5.429548E+05  6.790117E+02 -1.791679E+03  2.542400E+04 -5.557035E+02 -3.329983E+02
       357   2 -5.870736E+05 -1.019821E+04 -1.300321E+04  1.536541E+04  1.211549E+03  2.068992E+03
       357   3 -6.316580E+05 -2.135965E+04 -2.547569E+04  2.527016E+04  2.978874E+03  4.452084E+03
       357   4 -5.449875E+05  2.076747E+02 -2.118904E+03  2.553257E+04  1.463533E+03 -3.261639E+02
       357   5 -5.447561E+05  1.631615E+02 -3.546093E+03  1.555158E+04  3.214973E+03  2.075717E+03
       357   6 -5.449892E+05 -1.626594E+02 -6.223040E+03  2.553383E+04  4.966611E+03  4.458706E+03
       357   7 -5.470201E+05 -2.636603E+02 -2.446113E+03  2.564114E+04  3.482764E+03 -3.193287E+02
       357   8 -5.024368E+05  1.052441E+04  5.910923E+03  1.573775E+04  5.218533E+03  2.082442E+03
       357   9 -4.583133E+05  2.103383E+04  1.302915E+04  2.579753E+04  6.954622E+03  4.465329E+03
       357  10 -5.429548E+05  6.790115E+02 -1.791680E+03  2.542400E+04 -3.329108E-09  3.222881E-09
       357  11 -5.870736E+05 -1.019821E+04 -1.300322E+04  1.536541E+04 -5.903705E-09  9.583336E-10
       357  12 -6.316580E+05 -2.135968E+04 -2.547574E+04  2.527015E+04 -9.963774E-09  1.056513E-09
       357  13 -5.449875E+05  2.076740E+02 -2.118908E+03  2.553257E+04  1.807385E-09 -1.011865E-09
       357  14 -5.447561E+05  1.631541E+02 -3.546120E+03  1.555157E+04 -1.256279E-09  2.735689E-09
       357  15 -5.449892E+05 -1.626873E+02 -6.223124E+03  2.553381E+04  3.189829E-10  2.901120E-09
       357  16 -5.470202E+05 -2.636637E+02 -2.446136E+03  2.564114E+04  3.759119E-09  6.953272E-10
       357  17 -5.024369E+05  1.052440E+04  5.910864E+03  1.573774E+04  5.493996E-09 -8.479999E-09
       357  18 -4.583134E+05  2.103380E+04  1.302903E+04  2.579750E+04  9.613525E-09 -4.179523E-10
       357  19 -5.429548E+05  6.790117E+02 -1.791679E+03  2.542400E+04  5.557035E+02  3.329983E+02
       357  20 -5.870736E+05 -1.019821E+04 -1.300321E+04  1.536541E+04 -1.211549E+03 -2.068992E+03
       357  21 -6.316580E+05 -2.135965E+04 -2.547569E+04  2.527016E+04 -2.978874E+03 -4.452084E+03
       357  22 -5.449875E+05  2.076747E+02 -2.118904E+03  2.553257E+04 -1.463533E+03  3.261639E+02
       357  23 -5.447561E+05  1.631615E+02 -3.546093E+03  1.555158E+04 -3.214973E+03 -2.075717E+03
       357  24 -5.449892E+05 -1.626594E+02 -6.223040E+03  2.553383E+04 -4.966611E+03 -4.458706E+03
       357  25 -5.470201E+05 -2.636603E+02 -2.446113E+03  2.564114E+04 -3.482764E+03  3.193287E+02
       357  26 -5.024368E+05  1.052441E+04  5.910923E+03  1.573775E+04 -5.218533E+03 -2.082442E+03
       357  27 -4.583133E+05  2.103383E+04  1.302915E+04  2.579753E+04 -6.954622E+03 -4.465329E+03
       358   1 -6.702064E+05 -3.004263E+04 -3.607663E+04  2.408394E+04  4.112618E+03  5.891717E+03
       358   2 -7.131218E+05 -4.096600E+04 -5.173559E+04  1.566798E+04  1.146138E+04  8.222181E+03
       358   3 -7.587255E+05 -5.821887E+04 -7.379997E+04  2.716560E+04  1.881128E+04  1.014483E+04
       358   4 -5.454722E+05  5.299807E+02 -8.083968E+03  2.551616E+04  6.220246E+03  5.898661E+03
       358   5 -5.441608E+05  4.065843E+02 -1.394147E+04  1.557006E+04  1.322840E+04  8.227776E+03
       358   6 -5.454799E+05 -5.986027E+03 -2.596630E+04  2.553732E+04  2.023822E+04  1.014910E+04
       358   7 -4.207235E+05  3.110154E+04  1.990772E+04  2.694867E+04  8.328294E+03  5.905615E+03
       358   8 -3.751732E+05  4.177722E+04  2.385086E+04  1.547209E+04  1.499590E+04  8.233370E+03
       358   9 -3.321919E+05  4.624372E+04  2.186449E+04  2.390845E+04  2.166565E+04  1.015335E+04
       358  10 -6.702064E+05 -3.004268E+04 -3.607673E+04  2.408392E+04  3.736633E-09  7.453704E-09
       358  11 -7.131220E+05 -4.096610E+04 -5.173597E+04  1.566790E+04  4.078080E-09  3.298987E-09
       358  12 -7.587260E+05 -5.821908E+04 -7.380083E+04  2.716544E+04  1.774654E-09  6.421966E-09
       358  13 -5.454722E+05  5.299329E+02 -8.084107E+03  2.551613E+04  1.719404E-09  5.120430E-09
       358  14 -5.441610E+05  4.064646E+02 -1.394193E+04  1.556997E+04 -1.745591E-09  6.258461E-09
       358  15 -5.454804E+05 -5.986248E+03 -2.596727E+04  2.553716E+04 -1.483852E-11  2.333284E-09
       358  16 -4.207235E+05  3.110148E+04  1.990753E+04  2.694863E+04 -3.490209E-09  2.958851E-09
       358  17 -3.751734E+05  4.177709E+04  2.385031E+04  1.547199E+04 -4.110267E-09  8.394932E-10
       358  18 -3.321924E+05  4.624349E+04  2.186342E+04  2.390827E+04 -3.152380E-09 -7.972937E-09
       358  19 -6.702064E+05 -3.004263E+04 -3.607663E+04  2.408394E+04 -4.112618E+03 -5.891717E+03
       358  20 -7.131218E+05 -4.096600E+04 -5.173559E+04  1.566798E+04 -1.146138E+04 -8.222181E+03
       358  21 -7.587255E+05 -5.821887E+04 -7.379997E+04  2.716560E+04 -1.881128E+04 -1.014483E+04
       358  22 -5.454722E+05  5.299807E+02 -8.083968E+03  2.551616E+04 -6.220246E+03 -5.898661E+03
       358  23 -5.441608E+05  4.065843E+02 -1.394147E+04  1.557006E+04 -1.322840E+04 -8.227776E+03
       358  24 -5.454799E+05 -5.986027E+03 -2.596630E+04  2.553732E+04 -2.023822E+04 -1.014910E+04
       358  25 -4.207235E+05  3.110154E+04  1.990772E+04  2.694867E+04 -8.328294E+03 -5.905615E+03
       358  26 -3.751732E+05  4.177722E+04  2.385086E+04  1.547209E+04 -1.499590E+04 -8.233370E+03
       358  27 -3.321919E+05  4.624372E+04  2.186449E+04  2.390845E+04 -2.166565E+04 -1.015335E+04
       359   1 -8.025723E+05 -5.624388E+04 -8.862621E+04  1.011955E+04  2.078729E+04  1.243348E+04
       359   2 -8.317382E+05 -6.945844E+04 -1.216033E+05  3.035017E+04  5.746979E+04  1.295083E+04
       359   3 -8.911772E+05 -1.841532E+05 -2.038769E+05  7.021463E+04  9.417632E+04  4.471749E+03
       359   4 -5.513274E+05  5.380268E+03 -3.250587E+04  2.537756E+04  2.490696E+04  1.244663E+04
       359   5 -5.368699E+05  2.804567E+03 -5.483606E+04  1.571795E+04  5.404983E+04  1.293856E+04
       359   6 -5.513625E+05 -9.991782E+04 -1.212080E+05  2.569418E+04  8.321969E+04  4.432440E+03
       359   7 -3.000230E+05  6.700097E+04  2.361068E+04  4.064176E+04  2.902829E+04  1.245998E+04
       359   8 -2.419202E+05  7.506243E+04  1.192575E+04  1.078639E+03  5.062825E+04  1.292646E+04
       359   9 -2.114377E+05 -1.568328E+04 -3.854586E+04 -1.885080E+04  7.225707E+04  4.394717E+03
       359  10 -8.025728E+05 -5.624416E+04 -8.862731E+04  1.011935E+04 -1.008358E-09  5.068736E-09
       359  11 -8.317418E+05 -6.945951E+04 -1.216098E+05  3.034957E+04 -2.278132E-10  7.846362E-10
       359  12 -8.911867E+05 -1.841556E+05 -2.038936E+05  7.021429E+04 -2.991753E-10  1.025353E-10
       359  13 -5.513281E+05  5.379935E+03 -3.250733E+04  2.537731E+04  7.474474E-10  7.230073E-09
       359  14 -5.368731E+05  2.803602E+03 -5.484187E+04  1.571738E+04 -1.765466E-09 -5.977900E-09
       359  15 -5.513699E+05 -9.991970E+04 -1.212210E+05  2.569389E+04  2.285791E-10  5.740760E-09
       359  16 -3.000240E+05  6.700058E+04  2.360880E+04  4.064147E+04 -3.113154E-11  1.264431E-09
       359  17 -2.419230E+05  7.506156E+04  1.192062E+04  1.078112E+03 -5.518777E-10  3.510780E-09
       359  18 -2.114433E+05 -1.568471E+04 -3.855571E+04 -1.885105E+04  4.155728E-10 -7.696341E-10
       359  19 -8.025723E+05 -5.624388E+04 -8.862621E+04  1.011955E+04 -2.078729E+04 -1.243348E+04
       359  20 -8.317382E+05 -6.945844E+04 -1.216033E+05  3.035017E+04 -5.746979E+04 -1.295083E+04
       359  21 -8.911772E+05 -1.841532E+05 -2.038769E+05  7.021463E+04 -9.417632E+04 -4.471749E+03
       359  22 -5.513274E+05  5.380268E+03 -3.250587E+04  2.537756E+04 -2.490696E+04 -1.244663E+04
       359  23 -5.368699E+05  2.804567E+03 -5.483606E+04  1.571795E+04 -5.404983E+04 -1.293856E+04
       359  24 -5.513625E+05 -9.991782E+04 -1.212080E+05  2.569418E+04 -8.321969E+04 -4.432440E+03
       359  25 -3.000230E+05  6.700097E+04  2.361068E+04  4.064176E+04 -2.902829E+04 -1.245998E+04
       359  26 -2.419202E+05  7.506243E+04  1.192575E+04  1.078639E+03 -5.062825E+04 -1.292646E+04
       359  27 -2.114377E+05 -1.568328E+04 -3.854586E+04 -1.885080E+04 -7.225707E+04 -4.394717E+03
       360   1  4.836715E+05  2.415273E+06  5.089005E+05 -2.823545E+05  1.444686E+04  1.575030E+05
       360   2  2.405633E+05  2.050125E+06  3.134349E+05 -1.613578E+05  4.160249E+04  7.989667E+04
       360   3  1.547208E+05  1.733970E+06  2.075937E+05 -1.916280E+05  3.172934E+04  2.251064E+03
       360   4  1.506129E+05  1.075348E+06  1.826333E+05 -2.117070E+05  1.455280E+04  1.190410E+05
       360   5 -3.682306E+03  1.053692E+06  8.761398E+04 -1.362636E+05  4.162848E+04  7.271856E+04
       360   6 -5.981301E+03  1.075615E+06  6.065739E+04 -2.120756E+05  3.166018E+04  2.631280E+04
       360   7 -1.825587E+05 -2.629327E+05 -1.437561E+05 -1.412107E+05  1.465015E+04  8.066132E+04
       360   8 -2.479940E+05  5.818084E+04 -1.382705E+05 -1.112093E+05  4.165392E+04  6.555176E+04
       360   9 -1.667109E+05  4.176653E+05 -8.630366E+04 -2.325010E+05  3.158941E+04  5.034933E+04
       360  10  4.836647E+05  2.415247E+06  5.088536E+05 -2.823563E+05 -1.463843E-09 -3.401666E-09
       360  11  2.405598E+05  2.050117E+06  3.134197E+05 -1.613605E+05 -3.510865E-09 -3.513654E-09
       360  12  1.547198E+05  1.733969E+06  2.075918E+05 -1.916281E+05  2.917159E-09  1.273338E-09
       360  13  1.506089E+05  1.075332E+06  1.826063E+05 -2.117084E+05 -9.592869E-10 -1.916693E-09
       360  14 -3.685585E+03  1.053686E+06  8.760080E+04 -1.362661E+05 -4.149817E-09  2.405639E-09
       360  15 -5.982564E+03  1.075614E+06  6.065420E+04 -2.120763E+05  8.100222E-10  1.303911E-10
       360  16 -1.825607E+05 -2.629397E+05 -1.437687E+05 -1.412117E+05 -7.069009E-10  2.235378E-09
       360  17 -2.479970E+05  5.817576E+04 -1.382818E+05 -1.112115E+05 -5.304327E-10 -3.372260E-09
       360  18 -1.667126E+05  4.176623E+05 -8.631030E+04 -2.325023E+05 -8.605978E-10 -6.294172E-09
       360  19  4.836715E+05  2.415273E+06  5.089005E+05 -2.823545E+05 -1.444686E+04 -1.575030E+05
       360  20  2.405633E+05  2.050125E+06  3.134349E+05 -1.613578E+05 -4.160249E+04 -7.989667E+04
       360  21  1.547208E+05  1.733970E+06  2.075937E+05 -1.916280E+05 -3.172934E+04 -2.251064E+03
       360  22  1.506129E+05  1.075348E+06  1.826333E+05 -2.117070E+05 -1.455280E+04 -1.190410E+05
       360  23 -3.682306E+03  1.053692E+06  8.761398E+04 -1.362636E+05 -4.162848E+04 -7.271856E+04
       360  24 -5.981301E+03  1.075615E+06  6.065739E+04 -2.120756E+05 -3.166018E+04 -2.631280E+04
       360  25 -1.825587E+05 -2.629327E+05 -1.437561E+05 -1.412107E+05 -1.465015E+04 -8.066132E+04
       360  26 -2.479940E+05  5.818084E+04 -1.382705E+05 -1.112093E+05 -4.165392E+04 -6.555176E+04
       360  27 -1.667109E+05  4.176653E+05 -8.630366E+04 -2.325010E+05 -3.158941E+04 -5.034933E+04
       361   1  9.915545E+04  1.433771E+06  1.369327E+05 -2.186161E+05  1.720692E+04  3.402172E+03
       361   2  6.186044E+03  1.090257E+06  5.544954E+04 -1.357721E+05  1.349220E+03 -2.163409E+04
       361   3 -6.296046E+04  7.550275E+05 -4.049896E+03 -2.053333E+05 -1.456572E+04 -4.665799E+04
       361   4  9.630675E+03  1.067801E+06  5.497977E+04 -2.122261E+05  1.716649E+04  1.677853E+04
       361   5 -2.982040E+02  1.063718E+06  4.952477E+04 -1.360191E+05  1.308591E+03 -8.207181E+03
       361   6  1.359489E+04  1.067803E+06  6.602584E+04 -2.122141E+05 -1.460644E+04 -3.319379E+04
       361   7 -7.990298E+04  7.019562E+05 -2.698090E+04 -2.058398E+05  1.712633E+04  3.014709E+04
       361   8 -6.782403E+03  1.037180E+06  4.360063E+04 -1.362661E+05  1.267951E+03  5.219162E+03
       361   9  9.014383E+04  1.380669E+06  1.360961E+05 -2.190985E+05 -1.464745E+04 -1.972287E+04
       361  10  9.915513E+04  1.433771E+06  1.369321E+05 -2.186162E+05  1.513184E-09 -7.197095E-09
       361  11  6.185917E+03  1.090256E+06  5.544866E+04 -1.357721E+05 -1.370424E-09 -7.205144E-09
       361  12 -6.296127E+04  7.550252E+05 -4.054382E+03 -2.053338E+05  6.438980E-10 -5.625433E-10
       361  13  9.630283E+03  1.067801E+06  5.497869E+04 -2.122263E+05  9.860974E-10 -2.638617E-09
       361  14 -2.982239E+02  1.063718E+06  4.952464E+04 -1.360191E+05  5.479407E-10  2.633311E-09
       361  15  1.359436E+04  1.067801E+06  6.602337E+04 -2.122145E+05  3.760000E-09 -9.803123E-10
       361  16 -7.990354E+04  7.019551E+05 -2.698316E+04 -2.058402E+05 -4.830555E-10  5.955605E-09
       361  17 -6.782412E+03  1.037180E+06  4.360058E+04 -1.362661E+05 -2.651447E-09 -1.903031E-09
       361  18  9.014350E+04  1.380668E+06  1.360950E+05 -2.190987E+05  7.230692E-10 -4.254504E-09
       361  19  9.915545E+04  1.433771E+06  1.369327E+05 -2.186161E+05 -1.720692E+04 -3.402172E+03
       361  20  6.186044E+03  1.090257E+06  5.544954E+04 -1.357721E+05 -1.349220E+03  2.163409E+04
       361  21 -6.296046E+04  7.550275E+05 -4.049896E+03 -2.053333E+05  1.456572E+04  4.665799E+04
       361  22  9.630675E+03  1.067801E+06  5.497977E+04 -2.122261E+05 -1.716649E+04 -1.677853E+04
       361  23 -2.982040E+02  1.063718E+06  4.952477E+04 -1.360191E+05 -1.308591E+03  8.207181E+03
       361  24  1.359489E+04  1.067803E+06  6.602584E+04 -2.122141E+05  1.460644E+04  3.319379E+04
       361  25 -7.990298E+04  7.019562E+05 -2.698090E+04 -2.058398E+05 -1.712633E+04 -3.014709E+04
       361  26 -6.782403E+03  1.037180E+06  4.360063E+04 -1.362661E+05 -1.267951E+03 -5.219162E+03
       361  27  9.014383E+04  1.380669E+06  1.360961E+05 -2.190985E+05  1.464745E+04  1.972287E+04
       362   1 -1.570252E+05  4.746075E+05 -5.821067E+04 -2.415880E+05 -2.889224E+04 -6.855551E+04
       362   2 -2.366039E+05  1.065506E+05 -9.452473E+04 -1.020119E+05 -3.920559E+04 -1.017981E+05
       362   3 -1.085256E+05 -2.055944E+05 -5.738081E+04 -1.136552E+05 -1.380550E+04 -1.349372E+05
       362   4 -9.340330E+03  1.079476E+06  7.691414E+04 -2.120992E+05 -2.896476E+04 -4.485007E+04
       362   5 -5.265471E+03  1.048889E+06  1.193641E+05 -1.362461E+05 -3.917947E+04 -1.081845E+05
       362   6  2.114966E+05  1.079188E+06  2.560508E+05 -2.115673E+05 -1.369814E+04 -1.714358E+05
       362   7  1.383234E+05  1.684688E+06  2.120186E+05 -1.825811E+05 -2.903499E+04 -2.112178E+04
       362   8  2.260159E+05  1.992053E+06  3.331962E+05 -1.705322E+05 -3.915267E+04 -1.145805E+05
       362   9  5.314332E+05  2.365497E+06  5.693723E+05 -3.096815E+05 -1.357940E+04 -2.080094E+05
       362  10 -1.570273E+05  4.746022E+05 -5.822107E+04 -2.415896E+05  2.575482E-09 -1.510929E-08
       362  11 -2.366083E+05  1.065391E+05 -9.454709E+04 -1.020151E+05 -5.859580E-10 -6.577310E-09
       362  12 -1.085307E+05 -2.056140E+05 -5.741539E+04 -1.136567E+05 -1.432167E-09  7.347171E-09
       362  13 -9.341771E+03  1.079474E+06  7.690879E+04 -2.121002E+05  2.860428E-10 -2.638798E-09
       362  14 -5.270256E+03  1.048876E+06  1.193392E+05 -1.362495E+05  1.247569E-09  2.265644E-09
       362  15  2.114886E+05  1.079156E+06  2.559953E+05 -2.115692E+05 -5.297313E-10 -2.264838E-11
       362  16  1.383224E+05  1.684687E+06  2.120162E+05 -1.825816E+05  2.323715E-09  1.337678E-08
       362  17  2.260108E+05  1.992039E+06  3.331687E+05 -1.705358E+05  2.145000E-09 -1.845277E-09
       362  18  5.314214E+05  2.365451E+06  5.692910E+05 -3.096838E+05 -2.592895E-10 -1.097417E-08
       362  19 -1.570252E+05  4.746075E+05 -5.821067E+04 -2.415880E+05  2.889224E+04  6.855551E+04
       362  20 -2.366039E+05  1.065506E+05 -9.452473E+04 -1.020119E+05  3.920559E+04  1.017981E+05
       362  21 -1.085256E+05 -2.055944E+05 -5.738081E+04 -1.136552E+05  1.380550E+04  1.349372E+05
       362  22 -9.340330E+03  1.079476E+06  7.691414E+04 -2.120992E+05  2.896476E+04  4.485007E+04
       362  23 -5.265471E+03  1.048889E+06  1.193641E+05 -1.362461E+05  3.917947E+04  1.081845E+05
       362  24  2.114966E+05  1.079188E+06  2.560508E+05 -2.115673E+05  1.369814E+04  1.714358E+05
       362  25  1.383234E+05  1.684688E+06  2.120186E+05 -1.825811E+05  2.903499E+04  2.112178E+04
       362  26  2.260159E+05  1.992053E+06  3.331962E+05 -1.705322E+05  3.915267E+04  1.145805E+05
       362  27  5.314332E+05  2.365497E+06  5.693723E+05 -3.096815E+05  1.357940E+04  2.080094E+05
       363   1  5.108856E+05  1.750150E+05  9.999172E+04  1.589537E+05 -8.998779E+03 -1.205211E+04
       363   2  4.795512E+05  1.960761E+05  1.067565E+05  1.379836E+05 -3.928211E+03 -2.853150E+04
       363   3  4.219672E+05  1.953502E+05  1.046315E+05  1.417178E+05 -4.672129E+03 -2.959337E+04
       363   4 -5.310174E+04 -2.223018E+04 -4.796260E+04  2.052301E+04 -2.771817E+04 -1.911314E+04
       363   5 -3.616032E+04  8.140590E+03 -2.065307E+04  1.279233E+03 -1.051981E+04 -3.102096E+04
       363   6 -4.788597E+04  1.430508E+04 -1.185225E+04  6.744004E+03  8.618134E+02 -2.750507E+04
       363   7 -6.167733E+05 -2.194634E+05 -1.959395E+05 -1.177969E+05 -4.641852E+04 -2.616818E+04
       363   8 -5.516065E+05 -1.797786E+05 -1.480815E+05 -1.353225E+05 -1.710537E+04 -3.350828E+04
       363   9 -5.175209E+05 -1.667208E+05 -1.283528E+05 -1.281355E+05  6.391184E+03 -2.541861E+04
       363  10  5.108855E+05  1.750148E+05  9.999129E+04  1.589536E+05 -4.196227E-09 -1.155977E-09
       363  11  4.795510E+05  1.960752E+05  1.067549E+05  1.379835E+05 -2.811474E-09  2.383603E-10
       363  12  4.219669E+05  1.953493E+05  1.046298E+05  1.417177E+05  1.261126E-09 -7.907859E-10
       363  13 -5.310267E+04 -2.223078E+04 -4.796473E+04  2.052258E+04  4.317488E-10  1.730146E-09
       363  14 -3.616070E+04  8.139527E+03 -2.065509E+04  1.278970E+03  7.090740E-10  6.104119E-10
       363  15 -4.788617E+04  1.430427E+04 -1.185368E+04  6.744024E+03 -1.727966E-09 -2.839203E-10
       363  16 -6.167758E+05 -2.194647E+05 -1.959449E+05 -1.177979E+05  3.567123E-09  3.354712E-09
       363  17 -5.516071E+05 -1.797799E+05 -1.480842E+05 -1.353230E+05 -7.336679E-10  2.176022E-09
       363  18 -5.175211E+05 -1.667216E+05 -1.283541E+05 -1.281354E+05 -4.241743E-09 -3.491260E-09
       363  19  5.108856E+05  1.750150E+05  9.999172E+04  1.589537E+05  8.998779E+03  1.205211E+04
       363  20  4.795512E+05  1.960761E+05  1.067565E+05  1.379836E+05  3.928211E+03  2.853150E+04
       363  21  4.219672E+05  1.953502E+05  1.046315E+05  1.417178E+05  4.672129E+03  2.959337E+04
       363  22 -5.310174E+04 -2.223018E+04 -4.796260E+04  2.052301E+04  2.771817E+04  1.911314E+04
       363  23 -3.616032E+04  8.140590E+03 -2.065307E+04  1.279233E+03  1.051981E+04  3.102096E+04
       363  24 -4.788597E+04  1.430508E+04 -1.185225E+04  6.744004E+03 -8.618134E+02  2.750507E+04
       363  25 -6.167733E+05 -2.194634E+05 -1.959395E+05 -1.177969E+05  4.641852E+04  2.616818E+04
       363  26 -5.516065E+05 -1.797786E+05 -1.480815E+05 -1.353225E+05  1.710537E+04  3.350828E+04
       363  27 -5.175209E+05 -1.667208E+05 -1.283528E+05 -1.281355E+05 -6.391184E+03  2.541861E+04
       364   1  3.924343E+05  1.740054E+05  9.899980E+04  1.293561E+05  4.934973E+02 -2.426162E+04
       364   2  3.603928E+05  1.554652E+05  9.362883E+04  1.105934E+05  1.864152E+03 -2.218747E+04
       364   3  3.135454E+05  1.481501E+05  8.619921E+04  1.079830E+05  2.962364E+03 -1.939639E+04
       364   4 -4.647849E+04  1.052920E+04 -9.446818E+03  9.233822E+03  1.287064E+03 -2.396321E+04
       364   5 -3.883678E+04  6.216433E+03 -4.804786E+03  6.893844E+02  3.220474E+03 -2.167601E+04
       364   6 -4.611474E+04  1.301662E+04 -2.668626E+03  8.297567E+03  4.881488E+03 -1.867158E+04
       364   7 -4.852040E+05 -1.529350E+05 -1.179088E+05 -1.108123E+05  2.080024E+03 -2.366503E+04
       364   8 -4.379106E+05 -1.430218E+05 -1.032509E+05 -1.091508E+05  4.575849E+03 -2.116490E+04
       364   9 -4.056477E+05 -1.221077E+05 -9.154641E+04 -9.133540E+04  6.799399E+03 -1.794724E+04
       364  10  3.924341E+05  1.740048E+05  9.899869E+04  1.293561E+05 -2.249401E-08 -1.117534E-08
       364  11  3.603927E+05  1.554647E+05  9.362790E+04  1.105934E+05 -1.500257E-09 -7.804246E-09
       364  12  3.135453E+05  1.481497E+05  8.619848E+04  1.079830E+05  1.548282E-08  1.595315E-09
       364  13 -4.647865E+04  1.052858E+04 -9.447900E+03  9.233847E+03 -2.028358E-09 -4.826871E-09
       364  14 -3.883692E+04  6.215925E+03 -4.805688E+03  6.894406E+02 -1.456537E-09 -3.744818E-09
       364  15 -4.611486E+04  1.301624E+04 -2.669326E+03  8.297641E+03 -6.636992E-10 -8.851820E-10
       364  16 -4.852042E+05 -1.529356E+05 -1.179099E+05 -1.108122E+05  1.790060E-08  2.359375E-09
       364  17 -4.379107E+05 -1.430223E+05 -1.032518E+05 -1.091507E+05  1.788796E-09 -3.652060E-09
       364  18 -4.056479E+05 -1.221080E+05 -9.154711E+04 -9.133530E+04 -1.424979E-08 -4.911770E-09
       364  19  3.924343E+05  1.740054E+05  9.899980E+04  1.293561E+05 -4.934973E+02  2.426162E+04
       364  20  3.603928E+05  1.554652E+05  9.362883E+04  1.105934E+05 -1.864152E+03  2.218747E+04
       364  21  3.135454E+05  1.481501E+05  8.619921E+04  1.079830E+05 -2.962364E+03  1.939639E+04
       364  22 -4.647849E+04  1.052920E+04 -9.446818E+03  9.233822E+03 -1.287064E+03  2.396321E+04
       364  23 -3.883678E+04  6.216433E+03 -4.804786E+03  6.893844E+02 -3.220474E+03  2.167601E+04
       364  24 -4.611474E+04  1.301662E+04 -2.668626E+03  8.297567E+03 -4.881488E+03  1.867158E+04
       364  25 -4.852040E+05 -1.529350E+05 -1.179088E+05 -1.108123E+05 -2.080024E+03  2.366503E+04
       364  26 -4.379106E+05 -1.430218E+05 -1.032509E+05 -1.091508E+05 -4.575849E+03  2.116490E+04
       364  27 -4.056477E+05 -1.221077E+05 -9.154641E+04 -9.133540E+04 -6.799399E+03  1.794724E+04
       365   1  2.788366E+05  1.344126E+05  7.793630E+04  9.814476E+04  3.041815E+03 -1.780479E+04
       365   2  2.466082E+05  1.131186E+05  6.935507E+04  7.954137E+04  2.737671E+03 -1.543370E+04
       365   3  2.005427E+05  1.053959E+05  6.035155E+04  7.653590E+04  2.419751E+03 -1.302929E+04
       365   4 -4.598309E+04  1.277132E+04 -2.035171E+03  8.475617E+03  4.740713E+03 -1.716295E+04
       365   5 -3.904433E+04  6.078433E+03 -1.086858E+03  6.440152E+02  4.462626E+03 -1.478160E+04
       365   6 -4.595005E+04  1.295192E+04 -5.817536E+02  8.410459E+03  4.170793E+03 -1.236689E+04
       365   7 -3.706975E+05 -1.088620E+05 -8.201429E+04 -8.115055E+04  6.438633E+03 -1.652148E+04
       365   8 -3.246165E+05 -1.009561E+05 -7.153503E+04 -7.822039E+04  6.186714E+03 -1.412982E+04
       365   9 -2.923841E+05 -7.948818E+04 -6.152002E+04 -5.969074E+04  5.921083E+03 -1.170477E+04
       365  10  2.788366E+05  1.344122E+05  7.793568E+04  9.814480E+04 -7.420601E-09 -7.960141E-09
       365  11  2.466081E+05  1.131184E+05  6.935461E+04  7.954140E+04 -2.121376E-09 -6.771537E-09
       365  12  2.005426E+05  1.053957E+05  6.035122E+04  7.653592E+04  2.449920E-09  6.684844E-09
       365  13 -4.598319E+04  1.277100E+04 -2.035767E+03  8.475682E+03 -7.246336E-10 -6.960419E-10
       365  14 -3.904441E+04  6.078193E+03 -1.087306E+03  6.440683E+02 -1.713266E-10 -5.125434E-09
       365  15 -4.595010E+04  1.295175E+04 -5.820737E+02  8.410500E+03 -2.216980E-09 -2.662034E-09
       365  16 -3.706976E+05 -1.088623E+05 -8.201488E+04 -8.115047E+04  5.233602E-09  9.057362E-09
       365  17 -3.246166E+05 -1.009563E+05 -7.153548E+04 -7.822032E+04 -1.289252E-09  7.812908E-09
       365  18 -2.923842E+05 -7.948834E+04 -6.152035E+04 -5.969068E+04 -5.956743E-09 -2.865971E-09
       365  19  2.788366E+05  1.344126E+05  7.793630E+04  9.814476E+04 -3.041815E+03  1.780479E+04
       365  20  2.466082E+05  1.131186E+05  6.935507E+04  7.954137E+04 -2.737671E+03  1.543370E+04
       365  21  2.005427E+05  1.053959E+05  6.035155E+04  7.653590E+04 -2.419751E+03  1.302929E+04
       365  22 -4.598309E+04  1.277132E+04 -2.035171E+03  8.475617E+03 -4.740713E+03  1.716295E+04
       365  23 -3.904433E+04  6.078433E+03 -1.086858E+03  6.440152E+02 -4.462626E+03  1.478160E+04
       365  24 -4.595005E+04  1.295192E+04 -5.817536E+02  8.410459E+03 -4.170793E+03  1.236689E+04
       365  25 -3.706975E+05 -1.088620E+05 -8.201429E+04 -8.115055E+04 -6.438633E+03  1.652148E+04
       365  26 -3.246165E+05 -1.009561E+05 -7.153503E+04 -7.822039E+04 -6.186714E+03  1.412982E+04
       365  27 -2.923841E+05 -7.948818E+04 -6.152002E+04 -5.969074E+04 -5.921083E+03  1.170477E+04
       366   1  1.654429E+05  9.215633E+04  5.156614E+04  6.684723E+04  2.023379E+03 -1.170135E+04
       366   2  1.331905E+05  7.065658E+04  4.228500E+04  4.824418E+04  1.282671E+03 -9.450989E+03
       366   3  8.717709E+04  6.290264E+04  3.293132E+04  4.520654E+04  5.407243E+02 -7.199114E+03
       366   4 -4.593582E+04  1.293945E+04 -4.267901E+02  8.424487E+03  3.764292E+03 -1.104257E+04
       366   5 -3.905064E+04  6.078376E+03 -1.972188E+02  6.384608E+02  3.024767E+03 -8.791511E+03
       366   6 -4.592863E+04  1.296280E+04 -4.123139E+01  8.417343E+03  2.284007E+03 -6.538935E+03
       366   7 -2.572706E+05 -6.627428E+04 -5.242311E+04 -4.998019E+04  5.504558E+03 -1.038403E+04
       366   8 -2.112622E+05 -5.849758E+04 -4.268159E+04 -4.695515E+04  4.766330E+03 -8.132235E+03
       366   9 -1.790163E+05 -3.697556E+04 -3.301496E+04 -2.836452E+04  4.026873E+03 -5.878913E+03
       366  10  1.654429E+05  9.215618E+04  5.156588E+04  6.684725E+04  2.060372E-10  5.449679E-09
       366  11  1.331905E+05  7.065648E+04  4.228483E+04  4.824419E+04 -4.500882E-10  1.098163E-08
       366  12  8.717707E+04  6.290259E+04  3.293122E+04  4.520654E+04 -4.564372E-09 -1.035307E-09
       366  13 -4.593587E+04  1.293931E+04 -4.270458E+02  8.424521E+03 -1.564788E-09  5.211119E-09
       366  14 -3.905067E+04  6.078291E+03 -1.973812E+02  6.384823E+02 -2.091273E-09  2.199971E-09
       366  15 -4.592865E+04  1.296276E+04 -4.132154E+01  8.417355E+03 -1.589453E-09  7.732552E-09
       366  16 -2.572706E+05 -6.627440E+04 -5.242337E+04 -4.998014E+04 -3.098871E-09  3.604011E-09
       366  17 -2.112622E+05 -5.849766E+04 -4.268176E+04 -4.695512E+04 -2.463805E-09  1.651861E-08
       366  18 -1.790163E+05 -3.697560E+04 -3.301506E+04 -2.836450E+04  1.446460E-09  8.150610E-09
       366  19  1.654429E+05  9.215633E+04  5.156614E+04  6.684723E+04 -2.023379E+03  1.170135E+04
       366  20  1.331905E+05  7.065658E+04  4.228500E+04  4.824418E+04 -1.282671E+03  9.450989E+03
       366  21  8.717709E+04  6.290264E+04  3.293132E+04  4.520654E+04 -5.407243E+02  7.199114E+03
       366  22 -4.593582E+04  1.293945E+04 -4.267901E+02  8.424487E+03 -3.764292E+03  1.104257E+04
       366  23 -3.905064E+04  6.078376E+03 -1.972188E+02  6.384608E+02 -3.024767E+03  8.791511E+03
       366  24 -4.592863E+04  1.296280E+04 -4.123139E+01  8.417343E+03 -2.284007E+03  6.538935E+03
       366  25 -2.572706E+05 -6.627428E+04 -5.242311E+04 -4.998019E+04 -5.504558E+03  1.038403E+04
       366  26 -2.112622E+05 -5.849758E+04 -4.268159E+04 -4.695515E+04 -4.766330E+03  8.132235E+03
       366  27 -1.790163E+05 -3.697556E+04 -3.301496E+04 -2.836452E+04 -4.026873E+03  5.878913E+03
       367   1  5.204785E+04  4.968422E+04  2.405085E+04  3.551975E+04  5.370345E+01 -5.908757E+03
       367   2  1.979071E+04  2.815479E+04  1.468811E+04  1.691027E+04 -8.708548E+02 -3.725459E+03
       367   3 -2.621494E+04  2.040102E+04  5.391187E+03  1.386651E+04 -1.795301E+03 -1.543028E+03
       367   4 -4.592409E+04  1.296353E+04  2.386138E+01  8.420777E+03  1.796785E+03 -5.248546E+03
       367   5 -3.904804E+04  6.081504E+03  1.727897E+02  6.360422E+02  8.715392E+02 -3.065422E+03
       367   6 -4.592120E+04  1.297556E+04  3.883448E+02  8.416732E+03 -5.360159E+01 -8.831612E+02
       367   7 -1.438870E+05 -2.375665E+04 -2.400397E+04 -1.867444E+04  3.539574E+03 -4.588446E+03
       367   8 -9.788352E+04 -1.599159E+04 -1.434283E+04 -1.563683E+04  2.613757E+03 -2.405451E+03
       367   9 -6.562708E+04  5.550119E+03 -4.614516E+03  2.967111E+03  1.688037E+03 -2.233177E+02
       367  10  5.204784E+04  4.968418E+04  2.405078E+04  3.551975E+04 -1.212707E-09  2.852100E-09
       367  11  1.979071E+04  2.815477E+04  1.468809E+04  1.691027E+04  2.494632E-10  5.706467E-09
       367  12 -2.621494E+04  2.040102E+04  5.391176E+03  1.386651E+04  3.040109E-09 -2.355017E-09
       367  13 -4.592410E+04  1.296350E+04  2.380354E+01  8.420785E+03 -1.251772E-09  8.082291E-10
       367  14 -3.904804E+04  6.081494E+03  1.727706E+02  6.360443E+02 -1.674774E-10  5.348110E-09
       367  15 -4.592120E+04  1.297556E+04  3.883433E+02  8.416732E+03  2.692292E-10 -1.783066E-09
       367  16 -1.438870E+05 -2.375667E+04 -2.400403E+04 -1.867442E+04 -4.566161E-10 -1.679956E-09
       367  17 -9.788353E+04 -1.599159E+04 -1.434285E+04 -1.563682E+04 -1.263462E-09 -1.541471E-09
       367  18 -6.562709E+04  5.550119E+03 -4.614522E+03  2.967112E+03  1.659458E-11 -1.159633E-08
       367  19  5.204785E+04  4.968422E+04  2.405085E+04  3.551975E+04 -5.370345E+01  5.908757E+03
       367  20  1.979071E+04  2.815479E+04  1.468811E+04  1.691027E+04  8.708548E+02  3.725459E+03
       367  21 -2.621494E+04  2.040102E+04  5.391187E+03  1.386651E+04  1.795301E+03  1.543028E+03
       367  22 -4.592409E+04  1.296353E+04  2.386138E+01  8.420777E+03 -1.796785E+03  5.248546E+03
       367  23 -3.904804E+04  6.081504E+03  1.727897E+02  6.360422E+02 -8.715392E+02  3.065422E+03
       367  24 -4.592120E+04  1.297556E+04  3.883448E+02  8.416732E+03  5.360159E+01  8.831612E+02
       367  25 -1.438870E+05 -2.375665E+04 -2.400397E+04 -1.867444E+04 -3.539574E+03  4.588446E+03
       367  26 -9.788352E+04 -1.599159E+04 -1.434283E+04 -1.563683E+04 -2.613757E+03  2.405451E+03
       367  27 -6.562708E+04  5.550119E+03 -4.614516E+03  2.967111E+03 -1.688037E+03  2.233177E+02
       368   1 -6.134564E+04  7.185383E+03 -3.408710E+03  4.208742E+03 -2.366693E+03 -2.822256E+02
       368   2 -9.363002E+04 -1.437892E+04 -1.246278E+04 -1.443107E+04 -3.686713E+03  1.747587E+03
       368   3 -1.395516E+05 -2.201042E+04 -2.111427E+04 -1.752712E+04 -4.998947E+03  3.757613E+03
       368   4 -4.590265E+04  1.296328E+04  5.339652E+02  8.429887E+03 -6.190032E+02  3.799107E+02
       368   5 -3.907583E+04  6.063522E+03  9.937522E+02  6.322949E+02 -1.954726E+03  2.403687E+03
       368   6 -4.588447E+04  1.309943E+04  1.868615E+03  8.377698E+03 -3.282702E+03  4.407677E+03
       368   7 -3.045950E+04  1.874116E+04  4.476615E+03  1.265111E+04  1.128727E+03  1.042062E+03
       368   8  1.548130E+04  2.650618E+04  1.445007E+04  1.569686E+04 -2.225723E+02  3.059851E+03
       368   9  4.779170E+04  4.821006E+04  2.485097E+04  3.428619E+04 -1.566166E+03  5.057852E+03
       368  10 -6.134565E+04  7.185382E+03 -3.408721E+03  4.208741E+03  2.614392E-09 -7.683096E-09
       368  11 -9.363004E+04 -1.437893E+04 -1.246281E+04 -1.443106E+04  1.975989E-09 -8.876513E-10
       368  12 -1.395516E+05 -2.201044E+04 -2.111435E+04 -1.752711E+04 -6.185564E-10  2.260008E-11
       368  13 -4.590265E+04  1.296328E+04  5.339642E+02  8.429887E+03  1.931330E-09 -5.096272E-09
       368  14 -3.907583E+04  6.063514E+03  9.937341E+02  6.322987E+02 -3.674521E-10 -3.394531E-09
       368  15 -4.588449E+04  1.309940E+04  1.868558E+03  8.377709E+03  1.513535E-09 -2.627691E-09
       368  16 -3.045950E+04  1.874116E+04  4.476610E+03  1.265111E+04  2.295683E-09 -3.481901E-10
       368  17  1.548130E+04  2.650617E+04  1.445005E+04  1.569686E+04 -8.624508E-10 -2.594542E-09
       368  18  4.779169E+04  4.821003E+04  2.485091E+04  3.428619E+04  2.282757E-09 -4.189224E-09
       368  19 -6.134564E+04  7.185383E+03 -3.408710E+03  4.208742E+03  2.366693E+03  2.822256E+02
       368  20 -9.363002E+04 -1.437892E+04 -1.246278E+04 -1.443107E+04  3.686713E+03 -1.747587E+03
       368  21 -1.395516E+05 -2.201042E+04 -2.111427E+04 -1.752712E+04  4.998947E+03 -3.757613E+03
       368  22 -4.590265E+04  1.296328E+04  5.339652E+02  8.429887E+03  6.190032E+02 -3.799107E+02
       368  23 -3.907583E+04  6.063522E+03  9.937522E+02  6.322949E+02  1.954726E+03 -2.403687E+03
       368  24 -4.588447E+04  1.309943E+04  1.868615E+03  8.377698E+03  3.282702E+03 -4.407677E+03
       368  25 -3.045950E+04  1.874116E+04  4.476615E+03  1.265111E+04 -1.128727E+03 -1.042062E+03
       368  26  1.548130E+04  2.650618E+04  1.445007E+04  1.569686E+04  2.225723E+02 -3.059851E+03
       368  27  4.779170E+04  4.821006E+04  2.485097E+04  3.428619E+04  1.566166E+03 -5.057852E+03
       369   1 -1.748290E+05 -3.517764E+04 -2.944942E+04 -2.674128E+04 -5.981310E+03  4.913045E+03
       369   2 -2.070794E+05 -5.719472E+04 -3.705093E+04 -4.595319E+04 -8.697685E+03  6.326870E+03
       369   3 -2.519333E+05 -6.312211E+04 -4.259363E+04 -5.014595E+04 -1.125213E+04  7.315215E+03
       369   4 -4.574680E+04  1.286664E+04  2.454877E+03  8.535164E+03 -4.134463E+03  5.612479E+03
       369   5 -3.931872E+04  5.907389E+03  4.403576E+03  6.018158E+02 -7.186185E+03  6.899048E+03
       369   6 -4.542951E+04  1.510339E+04  8.676587E+03  7.686674E+03 -1.007612E+04  7.760150E+03
       369   7  8.335175E+04  6.091201E+04  3.435790E+04  4.381824E+04 -2.287197E+03  6.312070E+03
       369   8  1.284693E+05  6.901136E+04  4.585581E+04  4.716816E+04 -5.674241E+03  7.471396E+03
       369   9  1.611153E+05  9.333172E+04  5.994323E+04  6.553659E+04 -8.899692E+03  8.205249E+03
       369  10 -1.748290E+05 -3.517767E+04 -2.944953E+04 -2.674126E+04  1.087072E-08  1.337143E-09
       369  11 -2.070795E+05 -5.719478E+04 -3.705114E+04 -4.595315E+04  3.944142E-09 -4.131310E-09
       369  12 -2.519334E+05 -6.312220E+04 -4.259397E+04 -5.014589E+04 -9.181514E-09 -8.082139E-09
       369  13 -4.574682E+04  1.286660E+04  2.454786E+03  8.535183E+03 -6.649247E-10  7.977449E-09
       369  14 -3.931878E+04  5.907324E+03  4.403389E+03  6.018557E+02  1.804066E-09  2.013933E-08
       369  15 -4.542963E+04  1.510330E+04  8.676283E+03  7.686737E+03  1.943607E-09  4.831524E-09
       369  16  8.335173E+04  6.091196E+04  3.435781E+04  4.381825E+04 -8.005492E-09  2.542285E-09
       369  17  1.284692E+05  6.901129E+04  4.585564E+04  4.716819E+04  1.719701E-09  3.141828E-09
       369  18  1.611152E+05  9.333162E+04  5.994296E+04  6.553665E+04  1.011331E-08  6.736661E-09
       369  19 -1.748290E+05 -3.517764E+04 -2.944942E+04 -2.674128E+04  5.981310E+03 -4.913045E+03
       369  20 -2.070794E+05 -5.719472E+04 -3.705093E+04 -4.595319E+04  8.697685E+03 -6.326870E+03
       369  21 -2.519333E+05 -6.312211E+04 -4.259363E+04 -5.014595E+04  1.125213E+04 -7.315215E+03
       369  22 -4.574680E+04  1.286664E+04  2.454877E+03  8.535164E+03  4.134463E+03 -5.612479E+03
       369  23 -3.931872E+04  5.907389E+03  4.403576E+03  6.018158E+02  7.186185E+03 -6.899048E+03
       369  24 -4.542951E+04  1.510339E+04  8.676587E+03  7.686674E+03  1.007612E+04 -7.760150E+03
       369  25  8.335175E+04  6.091201E+04  3.435790E+04  4.381824E+04  2.287197E+03 -6.312070E+03
       369  26  1.284693E+05  6.901136E+04  4.585581E+04  4.716816E+04  5.674241E+03 -7.471396E+03
       369  27  1.611153E+05  9.333172E+04  5.994323E+04  6.553659E+04  8.899692E+03 -8.205249E+03
       370   1 -2.898693E+05 -7.580146E+04 -4.878987E+04 -5.312509E+04 -1.634704E+04  7.995817E+03
       370   2 -3.195402E+05 -1.045775E+05 -5.109347E+04 -8.113687E+04 -1.953252E+04  7.359348E+03
       370   3 -3.497232E+05 -8.683156E+04 -4.205459E+04 -1.027709E+05 -1.925367E+04 -2.434620E+03
       370   4 -4.397621E+04  1.147802E+04  1.089035E+04  9.809369E+03 -1.235862E+04  9.505306E+03
       370   5 -4.203345E+04  4.272400E+03  1.894865E+04  2.761473E+02 -2.274705E+04  6.142291E+03
       370   6 -3.918097E+04  4.500719E+04  4.405799E+04 -2.878262E+03 -2.967235E+04 -6.376421E+03
       370   7  2.019780E+05  9.876078E+04  7.056661E+04  7.276623E+04 -8.368444E+03  1.101538E+04
       370   8  2.355488E+05  1.131294E+05  8.898455E+04  8.172284E+04 -2.596314E+04  4.924580E+03
       370   9  2.714523E+05  1.768579E+05  1.301613E+05  9.706108E+04 -4.009666E+04 -1.032096E+04
       370  10 -2.898696E+05 -7.580160E+04 -4.879049E+04 -5.312499E+04 -7.359658E-09 -2.379464E-09
       370  11 -3.195406E+05 -1.045776E+05 -5.109429E+04 -8.113675E+04 -6.288114E-09  1.391490E-08
       370  12 -3.497236E+05 -8.683166E+04 -4.205530E+04 -1.027709E+05  1.586335E-09 -2.062368E-09
       370  13 -4.397640E+04  1.147788E+04  1.088989E+04  9.809463E+03  3.677270E-10 -5.986834E-09
       370  14 -4.203401E+04  4.272221E+03  1.894760E+04  2.762598E+02  5.804308E-10  4.392696E-09
       370  15 -3.918192E+04  4.500691E+04  4.405626E+04 -2.878415E+03 -1.403926E-09  5.936841E-09
       370  16  2.019779E+05  9.876063E+04  7.056625E+04  7.276630E+04  6.742263E-09  2.715049E-09
       370  17  2.355481E+05  1.131292E+05  8.898324E+04  8.172294E+04  2.891588E-09 -5.737050E-10
       370  18  2.714506E+05  1.768574E+05  1.301580E+05  9.706075E+04 -2.833798E-09 -3.280270E-10
       370  19 -2.898693E+05 -7.580146E+04 -4.878987E+04 -5.312509E+04  1.634704E+04 -7.995817E+03
       370  20 -3.195402E+05 -1.045775E+05 -5.109347E+04 -8.113687E+04  1.953252E+04 -7.359348E+03
       370  21 -3.497232E+05 -8.683156E+04 -4.205459E+04 -1.027709E+05  1.925367E+04  2.434620E+03
       370  22 -4.397621E+04  1.147802E+04  1.089035E+04  9.809369E+03  1.235862E+04 -9.505306E+03
       370  23 -4.203345E+04  4.272400E+03  1.894865E+04  2.761473E+02  2.274705E+04 -6.142291E+03
       370  24 -3.918097E+04  4.500719E+04  4.405799E+04 -2.878262E+03  2.967235E+04  6.376421E+03
       370  25  2.019780E+05  9.876078E+04  7.056661E+04  7.276623E+04  8.368444E+03 -1.101538E+04
       370  26  2.355488E+05  1.131294E+05  8.898455E+04  8.172284E+04  2.596314E+04 -4.924580E+03
       370  27  2.714523E+05  1.768579E+05  1.301613E+05  9.706108E+04  4.009666E+04  1.032096E+04
       371   1  1.161020E+05  4.639181E+04  3.198165E+04 -3.478300E+03 -3.366027E+04 -5.414645E+03
       371   2  8.704800E+04  9.474916E+04  5.451648E+04  5.559710E+03 -2.603595E+04 -1.666689E+04
       371   3  4.302201E+04  8.740224E+04  5.817426E+04  3.059892E+04 -1.844412E+04 -1.706870E+04
       371   4 -3.012637E+05 -5.719283E+04 -6.942467E+04  2.154506E+04 -4.766759E+04 -5.457560E+03
       371   5 -2.929727E+05  1.612891E+03 -3.141521E+04  1.345233E+04 -3.093703E+04 -1.668306E+04
       371   6 -3.012470E+05  3.113388E+03 -1.861741E+04  2.136196E+04 -1.423824E+04 -1.705558E+04
       371   7 -7.184686E+05 -1.607877E+05 -1.708425E+05  4.655144E+04 -6.166551E+04 -5.501619E+03
       371   8 -6.728591E+05 -9.153304E+04 -1.173561E+05  2.133996E+04 -3.583515E+04 -1.669937E+04
       371   9 -6.454053E+05 -8.118321E+04 -9.541641E+04  1.213010E+04 -1.003466E+04 -1.704258E+04
       371  10  1.161008E+05  4.639147E+04  3.197947E+04 -3.478447E+03 -5.705551E-09  6.076741E-10
       371  11  8.704720E+04  9.474868E+04  5.451469E+04  5.559361E+03 -1.040632E-09  9.461471E-09
       371  12  4.302157E+04  8.740184E+04  5.817307E+04  3.059866E+04  1.678152E-09  2.324594E-09
       371  13 -3.012662E+05 -5.719347E+04 -6.942900E+04  2.154485E+04  1.227727E-09 -5.373065E-09
       371  14 -2.929739E+05  1.612335E+03 -3.141754E+04  1.345191E+04 -1.655348E-09 -1.155688E-08
       371  15 -3.012473E+05  3.113022E+03 -1.861834E+04  2.136177E+04 -2.314137E-10  1.046514E-09
       371  16 -7.184727E+05 -1.607888E+05 -1.708497E+05  4.655117E+04  6.196749E-09  1.698068E-10
       371  17 -6.728605E+05 -9.153369E+04 -1.173590E+05  2.133948E+04 -9.085386E-10  8.349682E-09
       371  18 -6.454055E+05 -8.118355E+04 -9.541714E+04  1.212996E+04 -2.165519E-09 -1.000260E-09
       371  19  1.161020E+05  4.639181E+04  3.198165E+04 -3.478300E+03  3.366027E+04  5.414645E+03
       371  20  8.704800E+04  9.474916E+04  5.451648E+04  5.559710E+03  2.603595E+04  1.666689E+04
       371  21  4.302201E+04  8.740224E+04  5.817426E+04  3.059892E+04  1.844412E+04  1.706870E+04
       371  22 -3.012637E+05 -5.719283E+04 -6.942467E+04  2.154506E+04  4.766759E+04  5.457560E+03
       371  23 -2.929727E+05  1.612891E+03 -3.141521E+04  1.345233E+04  3.093703E+04  1.668306E+04
       371  24 -3.012470E+05  3.113388E+03 -1.861741E+04  2.136196E+04  1.423824E+04  1.705558E+04
       371  25 -7.184686E+05 -1.607877E+05 -1.708425E+05  4.655144E+04  6.166551E+04  5.501619E+03
       371  26 -6.728591E+05 -9.153304E+04 -1.173561E+05  2.133996E+04  3.583515E+04  1.669937E+04
       371  27 -6.454053E+05 -8.118321E+04 -9.541641E+04  1.213010E+04  1.003466E+04  1.704258E+04
       372   1  1.492515E+04  7.320003E+04  5.525960E+04  2.105548E+04 -1.252121E+04 -1.482642E+04
       372   2 -2.086548E+04  6.786584E+04  5.376369E+04  1.370889E+04 -8.918019E+03 -1.343793E+04
       372   3 -5.809898E+04  5.905507E+04  4.902981E+04  2.276938E+04 -5.317389E+03 -1.155832E+04
       372   4 -2.978999E+05 -3.393539E+03 -1.487149E+04  2.150906E+04 -1.156717E+04 -1.482384E+04
       372   5 -2.971380E+05  2.522806E+02 -7.983953E+03  1.329897E+04 -7.553311E+03 -1.343374E+04
       372   6 -2.978930E+05  3.491052E+02 -4.621036E+03  2.149648E+04 -3.541807E+03 -1.155244E+04
       372   7 -6.106338E+05 -7.999379E+04 -8.500878E+04  2.196233E+04 -1.061361E+04 -1.482126E+04
       372   8 -5.733395E+05 -6.736647E+04 -6.973640E+04  1.288918E+04 -6.189204E+03 -1.342956E+04
       372   9 -5.376335E+05 -5.836077E+04 -5.827550E+04  2.022403E+04 -1.766904E+03 -1.154656E+04
       372  10  1.492492E+04  7.319976E+04  5.525889E+04  2.105533E+04 -3.858420E-09 -1.588109E-09
       372  11 -2.086561E+04  6.786563E+04  5.376320E+04  1.370879E+04  4.060786E-09  3.349477E-09
       372  12 -5.809905E+04  5.905492E+04  4.902951E+04  2.276933E+04  1.259664E-08  7.519900E-09
       372  13 -2.979001E+05 -3.393811E+03 -1.487216E+04  2.150892E+04  9.795407E-10  7.556929E-09
       372  14 -2.971382E+05  2.520715E+02 -7.984400E+03  1.329889E+04 -6.129794E-11 -2.490243E-08
       372  15 -2.978931E+05  3.489586E+02 -4.621310E+03  2.149645E+04  3.376527E-10  8.241980E-09
       372  16 -6.106340E+05 -7.999405E+04 -8.500940E+04  2.196220E+04  4.284418E-09 -9.852521E-09
       372  17 -5.733396E+05 -6.736668E+04 -6.973681E+04  1.288911E+04 -4.736368E-09 -3.786408E-09
       372  18 -5.376335E+05 -5.836091E+04 -5.827575E+04  2.022401E+04 -1.257807E-08  2.294753E-09
       372  19  1.492515E+04  7.320003E+04  5.525960E+04  2.105548E+04  1.252121E+04  1.482642E+04
       372  20 -2.086548E+04  6.786584E+04  5.376369E+04  1.370889E+04  8.918019E+03  1.343793E+04
       372  21 -5.809898E+04  5.905507E+04  4.902981E+04  2.276938E+04  5.317389E+03  1.155832E+04
       372  22 -2.978999E+05 -3.393539E+03 -1.487149E+04  2.150906E+04  1.156717E+04  1.482384E+04
       372  23 -2.971380E+05  2.522806E+02 -7.983953E+03  1.329897E+04  7.553311E+03  1.343374E+04
       372  24 -2.978930E+05  3.491052E+02 -4.621036E+03  2.149648E+04  3.541807E+03  1.155244E+04
       372  25 -6.106338E+05 -7.999379E+04 -8.500878E+04  2.196233E+04  1.061361E+04  1.482126E+04
       372  26 -5.733395E+05 -6.736647E+04 -6.973640E+04  1.288918E+04  6.189204E+03  1.342956E+04
       372  27 -5.376335E+05 -5.836077E+04 -5.827550E+04  2.022403E+04  1.766904E+03  1.154656E+04
       373   1 -8.923643E+04  5.093094E+04  4.289931E+04  2.209703E+04 -4.457605E+03 -1.035598E+04
       373   2 -1.257098E+05  4.215806E+04  3.635273E+04  1.378694E+04 -3.486068E+03 -8.399843E+03
       373   3 -1.624730E+05  3.327057E+04  2.911366E+04  2.195514E+04 -2.515123E+03 -6.420020E+03
       373   4 -2.976181E+05 -4.696633E+01 -3.552750E+03  2.151619E+04 -2.826875E+03 -1.035046E+04
       373   5 -2.974692E+05  1.232714E+02 -2.010707E+03  1.327650E+04 -1.835781E+03 -8.394078E+03
       373   6 -2.976143E+05  1.756372E+02 -1.174743E+03  2.151538E+04 -8.452228E+02 -6.414002E+03
       373   7 -5.059592E+05 -5.102782E+04 -5.000753E+04  2.093551E+04 -1.196686E+03 -1.034494E+04
       373   8 -4.692010E+05 -4.191353E+04 -4.037599E+04  1.276618E+04 -1.859462E+02 -8.388314E+03
       373   9 -4.327385E+05 -3.292054E+04 -3.146429E+04  2.107571E+04  8.243178E+02 -6.407987E+03
       373  10 -8.923648E+04  5.093082E+04  4.289908E+04  2.209699E+04 -2.629192E-09 -7.969694E-09
       373  11 -1.257098E+05  4.215799E+04  3.635257E+04  1.378691E+04 -4.351343E-09 -8.028282E-09
       373  12 -1.624730E+05  3.327052E+04  2.911357E+04  2.195513E+04 -3.360073E-09 -2.287408E-09
       373  13 -2.976181E+05 -4.708350E+01 -3.552967E+03  2.151616E+04  1.911443E-09 -2.511431E-09
       373  14 -2.974692E+05  1.231949E+02 -2.010845E+03  1.327649E+04 -1.802255E-09 -7.324177E-09
       373  15 -2.976143E+05  1.755929E+02 -1.174821E+03  2.151538E+04  1.053406E-09 -2.142766E-09
       373  16 -5.059592E+05 -5.102793E+04 -5.000773E+04  2.093550E+04  3.376826E-09 -3.650633E-09
       373  17 -4.692010E+05 -4.191360E+04 -4.037612E+04  1.276618E+04  3.318565E-09  5.492216E-09
       373  18 -4.327385E+05 -3.292058E+04 -3.146437E+04  2.107571E+04  2.318110E-09  1.032841E-08
       373  19 -8.923643E+04  5.093094E+04  4.289931E+04  2.209703E+04  4.457605E+03  1.035598E+04
       373  20 -1.257098E+05  4.215806E+04  3.635273E+04  1.378694E+04  3.486068E+03  8.399843E+03
       373  21 -1.624730E+05  3.327057E+04  2.911366E+04  2.195514E+04  2.515123E+03  6.420020E+03
       373  22 -2.976181E+05 -4.696633E+01 -3.552750E+03  2.151619E+04  2.826875E+03  1.035046E+04
       373  23 -2.974692E+05  1.232714E+02 -2.010707E+03  1.327650E+04  1.835781E+03  8.394078E+03
       373  24 -2.976143E+05  1.756372E+02 -1.174743E+03  2.151538E+04  8.452228E+02  6.414002E+03
       373  25 -5.059592E+05 -5.102782E+04 -5.000753E+04  2.093551E+04  1.196686E+03  1.034494E+04
       373  26 -4.692010E+05 -4.191353E+04 -4.037599E+04  1.276618E+04  1.859462E+02  8.388314E+03
       373  27 -4.327385E+05 -3.292054E+04 -3.146429E+04  2.107571E+04 -8.243178E+02  6.407987E+03
       374   1 -1.939241E+05  2.550333E+04  2.213859E+04  2.183568E+04 -2.325929E+03 -5.263222E+03
       374   2 -2.305249E+05  1.650122E+04  1.439564E+04  1.347148E+04 -2.055378E+03 -3.279802E+03
       374   3 -2.672842E+05  7.603401E+03  6.467838E+03  2.161382E+04 -1.785032E+03 -1.294785E+03
       374   4 -2.975827E+05  1.548400E+02 -9.097793E+02  2.152188E+04 -6.617335E+02 -5.257147E+03
       374   5 -2.975020E+05  1.089505E+02 -5.642621E+02  1.326853E+04 -3.899268E+02 -3.273656E+03
       374   6 -2.975812E+05  1.671959E+02 -4.044596E+02  2.152183E+04 -1.183090E+02 -1.288561E+03
       374   7 -4.012313E+05 -2.519437E+04 -2.395881E+04  2.120812E+04  1.002187E+03 -5.251074E+03
       374   8 -3.644749E+05 -1.628363E+04 -1.552444E+04  1.306560E+04  1.275347E+03 -3.267509E+03
       374   9 -3.278774E+05 -7.269071E+03 -7.276806E+03  2.142984E+04  1.548333E+03 -1.282337E+03
       374  10 -1.939241E+05  2.550329E+04  2.213852E+04  2.183567E+04  1.336426E-08 -6.285136E-09
       374  11 -2.305250E+05  1.650121E+04  1.439561E+04  1.347148E+04 -4.112509E-09  9.239754E-10
       374  12 -2.672842E+05  7.603398E+03  6.467829E+03  2.161382E+04 -1.702416E-08  3.690380E-09
       374  13 -2.975827E+05  1.548102E+02 -9.098321E+02  2.152188E+04  1.969147E-09 -1.281878E-09
       374  14 -2.975020E+05  1.089390E+02 -5.642825E+02  1.326853E+04 -2.799847E-09 -7.068191E-09
       374  15 -2.975812E+05  1.671941E+02 -4.044628E+02  2.152183E+04  4.000689E-10 -8.369678E-10
       374  16 -4.012313E+05 -2.519440E+04 -2.395886E+04  2.120813E+04 -1.226114E-08  4.409747E-09
       374  17 -3.644749E+05 -1.628364E+04 -1.552446E+04  1.306560E+04  1.504663E-09  1.385927E-08
       374  18 -3.278774E+05 -7.269074E+03 -7.276814E+03  2.142984E+04  1.676683E-08  1.443211E-09
       374  19 -1.939241E+05  2.550333E+04  2.213859E+04  2.183568E+04  2.325929E+03  5.263222E+03
       374  20 -2.305249E+05  1.650122E+04  1.439564E+04  1.347148E+04  2.055378E+03  3.279802E+03
       374  21 -2.672842E+05  7.603401E+03  6.467838E+03  2.161382E+04  1.785032E+03  1.294785E+03
       374  22 -2.975827E+05  1.548400E+02 -9.097793E+02  2.152188E+04  6.617335E+02  5.257147E+03
       374  23 -2.975020E+05  1.089505E+02 -5.642621E+02  1.326853E+04  3.899268E+02  3.273656E+03
       374  24 -2.975812E+05  1.671959E+02 -4.044596E+02  2.152183E+04  1.183090E+02  1.288561E+03
       374  25 -4.012313E+05 -2.519437E+04 -2.395881E+04  2.120812E+04 -1.002187E+03  5.251074E+03
       374  26 -3.644749E+05 -1.628363E+04 -1.552444E+04  1.306560E+04 -1.275347E+03  3.267509E+03
       374  27 -3.278774E+05 -7.269071E+03 -7.276806E+03  2.142984E+04 -1.548333E+03  1.282337E+03
       375   1 -2.987918E+05 -1.507763E+02 -7.501349E+02  2.152097E+04 -1.718932E+03 -1.392151E+02
       375   2 -3.354030E+05 -9.168292E+03 -8.865489E+03  1.315601E+04 -1.527488E+03  1.845909E+03
       375   3 -3.721622E+05 -1.807508E+04 -1.711301E+04  2.130150E+04 -1.335951E+03  3.829782E+03
       375   4 -2.975787E+05  1.671114E+02 -3.741586E+02  2.152266E+04 -5.214990E+01 -1.329812E+02
       375   5 -2.975044E+05  1.077669E+02 -3.999301E+02  1.326749E+04  1.381945E+02  1.852096E+03
       375   6 -2.975795E+05  1.592827E+02 -5.571976E+02  2.152269E+04  3.286441E+02  3.835929E+03
       375   7 -2.963656E+05  4.850004E+02  1.828031E+00  2.152436E+04  1.614636E+03 -1.267473E+02
       375   8 -2.596044E+05  9.383730E+03  8.065549E+03  1.337897E+04  1.803978E+03  1.858284E+03
       375   9 -2.229917E+05  1.839327E+04  1.599828E+04  2.174391E+04  1.993437E+03  3.842076E+03
       375  10 -2.987918E+05 -1.507771E+02 -7.501405E+02  2.152097E+04  1.677778E-09  1.588130E-09
       375  11 -3.354030E+05 -9.168296E+03 -8.865499E+03  1.315601E+04 -1.436848E-09 -6.956578E-09
       375  12 -3.721622E+05 -1.807510E+04 -1.711304E+04  2.130150E+04 -9.168013E-09 -3.420953E-09
       375  13 -2.975787E+05  1.671113E+02 -3.741586E+02  2.152266E+04  1.766568E-09  7.923921E-09
       375  14 -2.975044E+05  1.077632E+02 -3.999366E+02  1.326749E+04 -2.495177E-09 -8.501226E-09
       375  15 -2.975795E+05  1.592668E+02 -5.572254E+02  2.152269E+04  6.518821E-10 -8.075600E-09
       375  16 -2.963656E+05  4.849997E+02  1.823099E+00  2.152436E+04 -2.091599E-09  1.222526E-09
       375  17 -2.596044E+05  9.383725E+03  8.065536E+03  1.337897E+04  1.261041E-09 -1.721461E-08
       375  18 -2.229917E+05  1.839326E+04  1.599824E+04  2.174390E+04  8.852629E-09 -1.110047E-08
       375  19 -2.987918E+05 -1.507763E+02 -7.501349E+02  2.152097E+04  1.718932E+03  1.392151E+02
       375  20 -3.354030E+05 -9.168292E+03 -8.865489E+03  1.315601E+04  1.527488E+03 -1.845909E+03
       375  21 -3.721622E+05 -1.807508E+04 -1.711301E+04  2.130150E+04  1.335951E+03 -3.829782E+03
       375  22 -2.975787E+05  1.671114E+02 -3.741586E+02  2.152266E+04  5.214990E+01  1.329812E+02
       375  23 -2.975044E+05  1.077669E+02 -3.999301E+02  1.326749E+04 -1.381945E+02 -1.852096E+03
       375  24 -2.975795E+05  1.592827E+02 -5.571976E+02  2.152269E+04 -3.286441E+02 -3.835929E+03
       375  25 -2.963656E+05  4.850004E+02  1.828031E+00  2.152436E+04 -1.614636E+03  1.267473E+02
       375  26 -2.596044E+05  9.383730E+03  8.065549E+03  1.337897E+04 -1.803978E+03 -1.858284E+03
       375  27 -2.229917E+05  1.839327E+04  1.599828E+04  2.174391E+04 -1.993437E+03 -3.842076E+03
       376   1 -4.036689E+05 -2.581351E+04 -2.449296E+04  2.118600E+04 -1.232962E+03  4.986766E+03
       376   2 -4.401939E+05 -3.481761E+04 -3.302590E+04  1.285939E+04 -6.534711E+02  6.967023E+03
       376   3 -4.769388E+05 -4.383819E+04 -4.197329E+04  2.101925E+04 -7.353894E+01  8.925344E+03
       376   4 -2.975959E+05  1.710174E+02 -6.934710E+02  2.151718E+04  4.370366E+02  4.992873E+03
       376   5 -2.974888E+05  1.133162E+02 -1.145636E+03  1.327429E+04  9.981967E+02  6.972912E+03
       376   6 -2.975991E+05  4.257946E+01 -1.999239E+03  2.151764E+04  1.559832E+03  8.931022E+03
       376   7 -1.915125E+05  2.615477E+04  2.310531E+04  2.184840E+04  2.107318E+03  4.998982E+03
       376   8 -1.547648E+05  3.504286E+04  3.073336E+04  1.368928E+04  2.650240E+03  6.978803E+03
       376   9 -1.182293E+05  4.392117E+04  3.797281E+04  2.201615E+04  3.193670E+03  8.936702E+03
       376  10 -4.036689E+05 -2.581353E+04 -2.449301E+04  2.118600E+04 -1.292749E-08  1.305996E-09
       376  11 -4.401939E+05 -3.481766E+04 -3.302599E+04  1.285939E+04 -6.236811E-09 -6.516296E-09
       376  12 -4.769388E+05 -4.383828E+04 -4.197344E+04  2.101925E+04  6.248796E-10 -5.092101E-09
       376  13 -2.975959E+05  1.709906E+02 -6.935182E+02  2.151718E+04  1.431212E-09 -2.975331E-09
       376  14 -2.974888E+05  1.132637E+02 -1.145729E+03  1.327429E+04 -2.502898E-09  3.788572E-09
       376  15 -2.975991E+05  4.249316E+01 -1.999393E+03  2.151763E+04  1.417074E-10  8.709405E-10
       376  16 -1.915125E+05  2.615475E+04  2.310526E+04  2.184839E+04  1.396272E-08  8.084180E-09
       376  17 -1.547648E+05  3.504281E+04  3.073325E+04  1.368926E+04  5.789737E-09 -5.060072E-09
       376  18 -1.182294E+05  4.392108E+04  3.797264E+04  2.201613E+04 -1.142213E-09  7.995141E-09
       376  19 -4.036689E+05 -2.581351E+04 -2.449296E+04  2.118600E+04  1.232962E+03 -4.986766E+03
       376  20 -4.401939E+05 -3.481761E+04 -3.302590E+04  1.285939E+04  6.534711E+02 -6.967023E+03
       376  21 -4.769388E+05 -4.383819E+04 -4.197329E+04  2.101925E+04  7.353894E+01 -8.925344E+03
       376  22 -2.975959E+05  1.710174E+02 -6.934710E+02  2.151718E+04 -4.370366E+02 -4.992873E+03
       376  23 -2.974888E+05  1.133162E+02 -1.145636E+03  1.327429E+04 -9.981967E+02 -6.972912E+03
       376  24 -2.975991E+05  4.257946E+01 -1.999239E+03  2.151764E+04 -1.559832E+03 -8.931022E+03
       376  25 -1.915125E+05  2.615477E+04  2.310531E+04  2.184840E+04 -2.107318E+03 -4.998982E+03
       376  26 -1.547648E+05  3.504286E+04  3.073336E+04  1.368928E+04 -2.650240E+03 -6.978803E+03
       376  27 -1.182293E+05  4.392117E+04  3.797281E+04  2.201615E+04 -3.193670E+03 -8.936702E+03
       377   1 -5.085186E+05 -5.135048E+04 -4.977463E+04  2.057970E+04  1.912043E+02  1.012369E+04
       377   2 -5.445756E+05 -6.035490E+04 -5.975621E+04  1.281497E+04  2.818916E+03  1.200995E+04
       377   3 -5.815903E+05 -7.135978E+04 -7.197678E+04  2.147671E+04  5.448642E+03  1.343797E+04
       377   4 -2.977518E+05  2.639457E+02 -2.593463E+03  2.150203E+04  1.959644E+03  1.012972E+04
       377   5 -2.973088E+05  1.804143E+02 -4.471875E+03  1.329258E+04  4.203475E+03  1.201439E+04
       377   6 -2.977576E+05 -1.836277E+03 -8.321874E+03  2.150923E+04  6.449473E+03  1.344090E+04
       377   7 -8.694354E+04  5.187535E+04  4.458491E+04  2.242464E+04  3.728679E+03  1.013575E+04
       377   8 -4.998495E+04  6.071157E+04  5.080861E+04  1.377034E+04  5.588580E+03  1.201883E+04
       377   9 -1.384981E+04  6.768173E+04  5.532794E+04  2.154169E+04  7.450756E+03  1.344383E+04
       377  10 -5.085186E+05 -5.135059E+04 -4.977483E+04  2.057969E+04  1.466943E-08 -1.911113E-09
       377  11 -5.445756E+05 -6.035506E+04 -5.975649E+04  1.281494E+04  4.201904E-09  1.018188E-08
       377  12 -5.815903E+05 -7.135998E+04 -7.197718E+04  2.147665E+04 -7.045625E-09 -7.954326E-09
       377  13 -2.977518E+05  2.638345E+02 -2.593663E+03  2.150201E+04  1.569433E-09 -1.262014E-08
       377  14 -2.973088E+05  1.802545E+02 -4.472180E+03  1.329254E+04 -8.177891E-10  6.107667E-09
       377  15 -2.977577E+05 -1.836482E+03 -8.322291E+03  2.150916E+04 -2.457539E-10  2.852884E-09
       377  16 -8.694359E+04  5.187523E+04  4.458469E+04  2.242461E+04 -1.417769E-08 -6.822890E-09
       377  17 -4.998502E+04  6.071141E+04  5.080828E+04  1.377028E+04 -4.916876E-09 -1.588328E-08
       377  18 -1.384992E+04  6.768152E+04  5.532749E+04  2.154161E+04  7.028315E-09  3.112476E-09
       377  19 -5.085186E+05 -5.135048E+04 -4.977463E+04  2.057970E+04 -1.912043E+02 -1.012369E+04
       377  20 -5.445756E+05 -6.035490E+04 -5.975621E+04  1.281497E+04 -2.818916E+03 -1.200995E+04
       377  21 -5.815903E+05 -7.135978E+04 -7.197678E+04  2.147671E+04 -5.448642E+03 -1.343797E+04
       377  22 -2.977518E+05  2.639457E+02 -2.593463E+03  2.150203E+04 -1.959644E+03 -1.012972E+04
       377  23 -2.973088E+05  1.804143E+02 -4.471875E+03  1.329258E+04 -4.203475E+03 -1.201439E+04
       377  24 -2.977576E+05 -1.836277E+03 -8.321874E+03  2.150923E+04 -6.449473E+03 -1.344090E+04
       377  25 -8.694354E+04  5.187535E+04  4.458491E+04  2.242464E+04 -3.728679E+03 -1.013575E+04
       377  26 -4.998495E+04  6.071157E+04  5.080861E+04  1.377034E+04 -5.588580E+03 -1.201883E+04
       377  27 -1.384981E+04  6.768173E+04  5.532794E+04  2.154169E+04 -7.450756E+03 -1.344383E+04
       378   1 -6.149372E+05 -7.540527E+04 -8.077702E+04  1.590252E+04  3.906572E+03  1.558614E+04
       378   2 -6.460812E+05 -8.517693E+04 -9.701715E+04  1.749720E+04  2.174814E+04  1.538200E+04
       378   3 -6.879986E+05 -1.284341E+05 -1.332665E+05  3.510267E+04  3.961890E+04  5.046749E+03
       378   4 -2.996278E+05  1.802079E+03 -1.041600E+04  2.138415E+04  7.940781E+03  1.559894E+04
       378   5 -2.949876E+05  9.335943E+02 -1.757695E+04  1.343144E+04  1.728378E+04  1.536705E+04
       378   6 -2.996402E+05 -3.193420E+04 -3.883619E+04  2.148984E+04  2.665735E+04  5.006062E+03
       378   7  1.577432E+04  7.900278E+04  5.993886E+04  2.686852E+04  1.197702E+04  1.561180E+04
       378   8  5.622068E+04  8.703572E+04  6.185540E+04  9.363270E+03  1.281692E+04  1.535216E+04
       378   9  8.885676E+04  6.455542E+04  5.558394E+04  7.868354E+03  1.368770E+04  4.965958E+03
       378  10 -6.149372E+05 -7.540554E+04 -8.077751E+04  1.590247E+04 -2.102973E-09 -3.262543E-09
       378  11 -6.460818E+05 -8.517731E+04 -9.701849E+04  1.749693E+04  4.225860E-09 -1.627515E-09
       378  12 -6.880003E+05 -1.284345E+05 -1.332695E+05  3.510251E+04  7.382266E-09  6.886912E-09
       378  13 -2.996280E+05  1.801800E+03 -1.041657E+04  2.138405E+04  2.266858E-09  7.518601E-09
       378  14 -2.949880E+05  9.332605E+02 -1.757796E+04  1.343123E+04 -1.982920E-09  4.302112E-09
       378  15 -2.996410E+05 -3.193442E+04 -3.883757E+04  2.148973E+04 -1.110605E-11  6.699376E-09
       378  16  1.577411E+04  7.900248E+04  5.993813E+04  2.686837E+04  2.638706E-09  1.058769E-08
       378  17  5.622044E+04  8.703542E+04  6.185465E+04  9.363111E+03 -5.196681E-09  1.730624E-08
       378  18  8.885656E+04  6.455534E+04  5.558354E+04  7.868299E+03 -8.053792E-09  2.173770E-09
       378  19 -6.149372E+05 -7.540527E+04 -8.077702E+04  1.590252E+04 -3.906572E+03 -1.558614E+04
       378  20 -6.460812E+05 -8.517693E+04 -9.701715E+04  1.749720E+04 -2.174814E+04 -1.538200E+04
       378  21 -6.879986E+05 -1.284341E+05 -1.332665E+05  3.510267E+04 -3.961890E+04 -5.046749E+03
       378  22 -2.996278E+05  1.802079E+03 -1.041600E+04  2.138415E+04 -7.940781E+03 -1.559894E+04
       378  23 -2.949876E+05  9.335943E+02 -1.757695E+04  1.343144E+04 -1.728378E+04 -1.536705E+04
       378  24 -2.996402E+05 -3.193420E+04 -3.883619E+04  2.148984E+04 -2.665735E+04 -5.006062E+03
       378  25  1.577432E+04  7.900278E+04  5.993886E+04  2.686852E+04 -1.197702E+04 -1.561180E+04
       378  26  5.622068E+04  8.703572E+04  6.185540E+04  9.363270E+03 -1.281692E+04 -1.535216E+04
       378  27  8.885676E+04  6.455542E+04  5.558394E+04  7.868354E+03 -1.368770E+04 -4.965958E+03
       379   1 -1.986006E+05 -7.834590E+05 -1.927352E+05  1.867054E+05 -8.074600E+03 -5.339587E+04
       379   2 -1.349707E+05 -5.942588E+05 -1.192262E+05  1.587040E+05 -2.423066E+04 -1.996497E+04
       379   3 -8.692584E+04 -4.129441E+05 -7.136236E+04  1.748059E+05 -2.157073E+04  1.353037E+04
       379   4 -1.732229E+04 -5.232044E+04 -1.818480E+04  1.754370E+05 -8.174002E+03 -1.369167E+04
       379   5 -3.974639E+03 -5.087797E+04 -7.980802E+03  1.534058E+05 -2.425433E+04 -9.577362E+03
       379   6 -1.109563E+03 -5.225511E+04 -3.042166E+03  1.754777E+05 -2.152556E+04 -5.409536E+03
       379   7  1.639186E+05  6.793124E+05  1.563340E+05  1.641554E+05 -8.274793E+03  2.605914E+04
       379   8  1.270030E+05  4.927838E+05  1.032493E+05  1.481031E+05 -2.427817E+04  8.191832E+02
       379   9  8.469931E+04  3.085602E+05  6.527360E+04  1.761499E+05 -2.148044E+04 -2.436019E+04
       379  10 -1.986014E+05 -7.834621E+05 -1.927407E+05  1.867050E+05 -2.163682E-09  3.841912E-09
       379  11 -1.349714E+05 -5.942594E+05 -1.192280E+05  1.587036E+05 -4.696379E-09 -1.907999E-09
       379  12 -8.692639E+04 -4.129444E+05 -7.136358E+04  1.748061E+05  1.581424E-09  1.380309E-09
       379  13 -1.732241E+04 -5.232066E+04 -1.818527E+04  1.754369E+05  5.870679E-10 -6.099462E-09
       379  14 -3.975295E+03 -5.087822E+04 -7.982080E+03  1.534056E+05 -1.365551E-10 -2.941911E-09
       379  15 -1.110068E+03 -5.225526E+04 -3.043092E+03  1.754776E+05 -2.128859E-10  3.499686E-09
       379  16  1.639183E+05  6.793116E+05  1.563326E+05  1.641556E+05  1.599038E-09  5.324812E-09
       379  17  1.270024E+05  4.927837E+05  1.032482E+05  1.481031E+05  3.724660E-09  8.227044E-09
       379  18  8.469865E+04  3.085595E+05  6.527162E+04  1.761495E+05 -3.205238E-09 -4.110502E-09
       379  19 -1.986006E+05 -7.834590E+05 -1.927352E+05  1.867054E+05  8.074600E+03  5.339587E+04
       379  20 -1.349707E+05 -5.942588E+05 -1.192262E+05  1.587040E+05  2.423066E+04  1.996497E+04
       379  21 -8.692584E+04 -4.129441E+05 -7.136236E+04  1.748059E+05  2.157073E+04 -1.353037E+04
       379  22 -1.732229E+04 -5.232044E+04 -1.818480E+04  1.754370E+05  8.174002E+03  1.369167E+04
       379  23 -3.974639E+03 -5.087797E+04 -7.980802E+03  1.534058E+05  2.425433E+04  9.577362E+03
       379  24 -1.109563E+03 -5.225511E+04 -3.042166E+03  1.754777E+05  2.152556E+04  5.409536E+03
       379  25  1.639186E+05  6.793124E+05  1.563340E+05  1.641554E+05  8.274793E+03 -2.605914E+04
       379  26  1.270030E+05  4.927838E+05  1.032493E+05  1.481031E+05  2.427817E+04 -8.191832E+02
       379  27  8.469931E+04  3.085602E+05  6.527360E+04  1.761499E+05  2.148044E+04  2.436019E+04
       380   1 -5.795980E+04 -2.884699E+05 -4.609940E+04  1.761052E+05 -1.418806E+04  1.123504E+04
       380   2 -1.286906E+04 -1.035277E+05 -6.838992E+03  1.533826E+05 -3.590085E+03  1.033372E+04
       380   3  3.253856E+04  8.194623E+04  3.316126E+04  1.758809E+05  7.205631E+03  9.432196E+03
       380   4 -1.578813E+03 -5.149133E+04 -1.226240E+03  1.757184E+05 -1.415006E+04 -5.136461E+03
       380   5 -6.501935E+02 -5.176467E+04  2.481085E+03  1.531106E+05 -3.551667E+03 -6.348110E+03
       380   6  6.511207E+02 -5.148489E+04  7.144609E+03  1.757236E+05  7.244377E+03 -7.559707E+03
       380   7  5.479903E+04  1.855420E+05  4.364543E+04  1.753315E+05 -1.411204E+04 -2.151406E+04
       380   8  1.156867E+04  1.590193E+00  1.180210E+04  1.528387E+05 -3.513237E+03 -2.303129E+04
       380   9 -3.123724E+04 -1.848983E+05 -1.887181E+04  1.755663E+05  7.283136E+03 -2.454804E+04
       380  10 -5.796005E+04 -2.884701E+05 -4.610001E+04  1.761053E+05  2.188462E-09  6.519573E-09
       380  11 -1.286910E+04 -1.035278E+05 -6.839217E+03  1.533826E+05 -2.898562E-10 -1.509409E-08
       380  12  3.253848E+04  8.194612E+04  3.316100E+04  1.758809E+05  3.788115E-09 -2.252010E-08
       380  13 -1.579035E+03 -5.149142E+04 -1.226666E+03  1.757184E+05  3.689153E-10 -3.416936E-09
       380  14 -6.502179E+02 -5.176472E+04  2.480985E+03  1.531106E+05  1.786660E-09 -6.059951E-10
       380  15  6.510490E+02 -5.148497E+04  7.144402E+03  1.757236E+05  4.056183E-09  1.483580E-09
       380  16  5.479869E+04  1.855414E+05  4.364419E+04  1.753313E+05 -2.847796E-09  1.843259E-09
       380  17  1.156851E+04  1.017316E+00  1.180108E+04  1.528386E+05  1.564151E-09  1.741926E-08
       380  18 -3.123746E+04 -1.848990E+05 -1.887304E+04  1.755664E+05  9.249257E-10  1.638807E-08
       380  19 -5.795980E+04 -2.884699E+05 -4.609940E+04  1.761052E+05  1.418806E+04 -1.123504E+04
       380  20 -1.286906E+04 -1.035277E+05 -6.838992E+03  1.533826E+05  3.590085E+03 -1.033372E+04
       380  21  3.253856E+04  8.194623E+04  3.316126E+04  1.758809E+05 -7.205631E+03 -9.432196E+03
       380  22 -1.578813E+03 -5.149133E+04 -1.226240E+03  1.757184E+05  1.415006E+04  5.136461E+03
       380  23 -6.501935E+02 -5.176467E+04  2.481085E+03  1.531106E+05  3.551667E+03  6.348110E+03
       380  24  6.511207E+02 -5.148489E+04  7.144609E+03  1.757236E+05 -7.244377E+03  7.559707E+03
       380  25  5.479903E+04  1.855420E+05  4.364543E+04  1.753315E+05  1.411204E+04  2.151406E+04
       380  26  1.156867E+04  1.590193E+00  1.180210E+04  1.528387E+05  3.513237E+03  2.303129E+04
       380  27 -3.123724E+04 -1.848983E+05 -1.887181E+04  1.755663E+05 -7.283136E+03  2.454804E+04
       381   1  6.095192E+04  2.070792E+05  5.936222E+04  1.722653E+05  1.464780E+04  1.038228E+04
       381   2  1.123063E+05  3.866400E+05  1.101340E+05  1.621958E+05  1.886058E+04 -2.501540E+04
       381   3  1.908081E+05  5.779472E+05  1.907978E+05  1.964635E+05  6.759295E+03 -6.046874E+04
       381   4 -3.475310E+02 -4.999361E+04  9.997652E+03  1.755114E+05  1.469236E+04 -8.789633E+03
       381   5  6.126242E+03 -5.367246E+04  1.918587E+04  1.533880E+05  1.884689E+04 -1.872057E+04
       381   6  3.534062E+04 -5.004495E+04  4.059334E+04  1.756002E+05  6.683456E+03 -2.869651E+04
       381   7 -6.165066E+04 -3.070020E+05 -3.936857E+04  1.787562E+05  1.473674E+04 -2.795379E+04
       381   8 -1.000658E+05 -4.938009E+05 -7.177259E+04  1.445866E+05  1.883303E+04 -1.243012E+04
       381   9 -1.201531E+05 -6.776727E+05 -1.096349E+05  1.547582E+05  6.605448E+03  3.043763E+03
       381  10  6.095166E+04  2.070790E+05  5.936161E+04  1.722652E+05  4.357096E-09  1.982077E-08
       381  11  1.123058E+05  3.866392E+05  1.101322E+05  1.621962E+05 -3.274600E-09  5.907291E-09
       381  12  1.908070E+05  5.779433E+05  1.907908E+05  1.964638E+05 -2.686346E-09 -3.490868E-09
       381  13 -3.477836E+02 -4.999375E+04  9.997101E+03  1.755115E+05 -2.123681E-10 -3.467212E-09
       381  14  6.125766E+03 -5.367293E+04  1.918454E+04  1.533883E+05 -8.894996E-11 -2.331105E-09
       381  15  3.534035E+04 -5.004584E+04  4.059171E+04  1.756003E+05 -1.251886E-09 -1.418406E-11
       381  16 -6.165111E+04 -3.070029E+05 -3.937045E+04  1.787565E+05 -2.829258E-10 -9.329314E-09
       381  17 -1.000662E+05 -4.938011E+05 -7.177355E+04  1.445868E+05  1.232203E-09  2.323825E-09
       381  18 -1.201532E+05 -6.776727E+05 -1.096350E+05  1.547582E+05 -2.229206E-10 -6.752403E-10
       381  19  6.095192E+04  2.070792E+05  5.936222E+04  1.722653E+05 -1.464780E+04 -1.038228E+04
       381  20  1.123063E+05  3.866400E+05  1.101340E+05  1.621958E+05 -1.886058E+04  2.501540E+04
       381  21  1.908081E+05  5.779472E+05  1.907978E+05  1.964635E+05 -6.759295E+03  6.046874E+04
       381  22 -3.475310E+02 -4.999361E+04  9.997652E+03  1.755114E+05 -1.469236E+04  8.789633E+03
       381  23  6.126242E+03 -5.367246E+04  1.918587E+04  1.533880E+05 -1.884689E+04  1.872057E+04
       381  24  3.534062E+04 -5.004495E+04  4.059334E+04  1.756002E+05 -6.683456E+03  2.869651E+04
       381  25 -6.165066E+04 -3.070020E+05 -3.936857E+04  1.787562E+05 -1.473674E+04  2.795379E+04
       381  26 -1.000658E+05 -4.938009E+05 -7.177259E+04  1.445866E+05 -1.883303E+04  1.243012E+04
       381  27 -1.201531E+05 -6.776727E+05 -1.096349E+05  1.547582E+05 -6.605448E+03 -3.043763E+03
       382   1  6.752453E+05  2.631127E+05  1.660292E+05  2.456950E+05  6.849614E+04  2.152762E+04
       382   2  6.496848E+05  1.651359E+05  1.031955E+05  2.407443E+05  4.439369E+04  3.166516E+03
       382   3  6.467246E+05  1.470004E+05  8.021985E+04  2.266792E+05  1.729620E+04 -7.273514E+03
       382   4  4.138702E+05  1.348250E+05  9.029846E+04  1.438348E+05  5.899868E+04  1.793016E+04
       382   5  3.982718E+05  6.115050E+04  3.885145E+04  1.614022E+05  4.113949E+04  1.933702E+03
       382   6  4.040479E+05  6.609689E+04  2.232660E+04  1.698522E+05  2.028367E+04 -6.142635E+03
       382   7  1.525674E+05  6.558559E+03  1.456277E+04  4.201950E+04  4.950573E+04  1.433553E+04
       382   8  1.469222E+05 -4.282618E+04 -2.549748E+04  8.209093E+04  3.788674E+04  7.015638E+02
       382   9  1.614275E+05 -1.480591E+04 -3.557120E+04  1.130436E+05  2.326988E+04 -5.012112E+03
       382  10  6.752401E+05  2.631110E+05  1.660195E+05  2.456938E+05 -5.193454E-09  7.890675E-11
       382  11  6.496827E+05  1.651353E+05  1.031918E+05  2.407442E+05 -5.766183E-09  8.017906E-09
       382  12  6.467242E+05  1.470003E+05  8.021919E+04  2.266793E+05  4.282825E-10  9.979324E-09
       382  13  4.138663E+05  1.348238E+05  9.029132E+04  1.438340E+05 -3.012873E-09 -8.918246E-09
       382  14  3.982700E+05  6.115005E+04  3.884826E+04  1.614021E+05 -4.792756E-09 -1.025788E-08
       382  15  4.040475E+05  6.609673E+04  2.232575E+04  1.698523E+05 -2.930379E-09 -1.034031E-09
       382  16  1.525647E+05  6.557680E+03  1.455778E+04  4.201892E+04  5.009949E-09  5.980836E-11
       382  17  1.469207E+05 -4.282657E+04 -2.550018E+04  8.209091E+04 -2.290540E-09 -6.628937E-09
       382  18  1.614270E+05 -1.480608E+04 -3.557227E+04  1.130437E+05 -7.882755E-09  4.418984E-10
       382  19  6.752453E+05  2.631127E+05  1.660292E+05  2.456950E+05 -6.849614E+04 -2.152762E+04
       382  20  6.496848E+05  1.651359E+05  1.031955E+05  2.407443E+05 -4.439369E+04 -3.166516E+03
       382  21  6.467246E+05  1.470004E+05  8.021985E+04  2.266792E+05 -1.729620E+04  7.273514E+03
       382  22  4.138702E+05  1.348250E+05  9.029846E+04  1.438348E+05 -5.899868E+04 -1.793016E+04
       382  23  3.982718E+05  6.115050E+04  3.885145E+04  1.614022E+05 -4.113949E+04 -1.933702E+03
       382  24  4.040479E+05  6.609689E+04  2.232660E+04  1.698522E+05 -2.028367E+04  6.142635E+03
       382  25  1.525674E+05  6.558559E+03  1.456277E+04  4.201950E+04 -4.950573E+04 -1.433553E+04
       382  26  1.469222E+05 -4.282618E+04 -2.549748E+04  8.209093E+04 -3.788674E+04 -7.015638E+02
       382  27  1.614275E+05 -1.480591E+04 -3.557120E+04  1.130436E+05 -2.326988E+04  5.012112E+03
       383   1  6.142749E+05  1.549251E+05  7.080984E+04  2.259226E+05  1.620974E+04 -5.821384E+03
       383   2  5.943459E+05  1.364473E+05  5.614130E+04  2.153178E+05  1.098192E+04 -6.792383E+03
       383   3  5.687516E+05  1.311284E+05  4.646195E+04  2.128610E+05  5.615985E+03 -7.398971E+03
       383   4  4.011619E+05  7.343376E+04  1.779288E+04  1.654010E+05  1.675760E+04 -5.614297E+03
       383   5  4.036950E+05  6.458049E+04  9.042400E+03  1.621999E+05  1.181818E+04 -6.475923E+03
       383   6  4.005059E+05  6.883000E+04  5.053877E+03  1.671464E+05  6.740455E+03 -6.973174E+03
       383   7  1.880936E+05 -8.053886E+03 -3.522761E+04  1.048984E+05  1.730525E+04 -5.407292E+03
       383   8  2.130803E+05 -7.283498E+03 -3.805916E+04  1.090969E+05  1.265417E+04 -6.159572E+03
       383   9  2.322888E+05  6.533653E+03 -3.635614E+04  1.214433E+05  7.864588E+03 -6.547501E+03
       383  10  6.142746E+05  1.549250E+05  7.080929E+04  2.259227E+05  5.260552E-09  1.724796E-08
       383  11  5.943458E+05  1.364472E+05  5.614098E+04  2.153179E+05  3.155691E-09  1.401927E-08
       383  12  5.687515E+05  1.311284E+05  4.646179E+04  2.128610E+05 -3.771346E-09  7.991037E-09
       383  13  4.011616E+05  7.343365E+04  1.779229E+04  1.654010E+05 -2.675587E-09  7.070725E-09
       383  14  4.036948E+05  6.458041E+04  9.042059E+03  1.622000E+05 -3.081943E-09 -9.507769E-09
       383  15  4.005058E+05  6.882993E+04  5.053700E+03  1.671465E+05 -3.712255E-09  9.333817E-09
       383  16  1.880932E+05 -8.053998E+03 -3.522823E+04  1.048985E+05 -1.104716E-08 -2.894781E-09
       383  17  2.130801E+05 -7.283582E+03 -3.805953E+04  1.090970E+05 -6.153255E-09  4.964811E-09
       383  18  2.322887E+05  6.533590E+03 -3.635634E+04  1.214433E+05 -2.222979E-09  1.503095E-08
       383  19  6.142749E+05  1.549251E+05  7.080984E+04  2.259226E+05 -1.620974E+04  5.821384E+03
       383  20  5.943459E+05  1.364473E+05  5.614130E+04  2.153178E+05 -1.098192E+04  6.792383E+03
       383  21  5.687516E+05  1.311284E+05  4.646195E+04  2.128610E+05 -5.615985E+03  7.398971E+03
       383  22  4.011619E+05  7.343376E+04  1.779288E+04  1.654010E+05 -1.675760E+04  5.614297E+03
       383  23  4.036950E+05  6.458049E+04  9.042400E+03  1.621999E+05 -1.181818E+04  6.475923E+03
       383  24  4.005059E+05  6.883000E+04  5.053877E+03  1.671464E+05 -6.740455E+03  6.973174E+03
       383  25  1.880936E+05 -8.053886E+03 -3.522761E+04  1.048984E+05 -1.730525E+04  5.407292E+03
       383  26  2.130803E+05 -7.283498E+03 -3.805916E+04  1.090969E+05 -1.265417E+04  6.159572E+03
       383  27  2.322888E+05  6.533653E+03 -3.635614E+04  1.214433E+05 -7.864588E+03  6.547501E+03
       384   1  5.470804E+05  1.243417E+05  3.999243E+04  2.074315E+05  4.713438E+03 -6.821493E+03
       384   2  5.278909E+05  1.112671E+05  3.259308E+04  1.964734E+05  3.165293E+03 -5.932874E+03
       384   3  5.008374E+05  1.066855E+05  2.607523E+04  1.946720E+05  1.611335E+03 -5.029598E+03
       384   4  4.002447E+05  6.929263E+04  3.861458E+03  1.668081E+05  5.722586E+03 -6.439302E+03
       384   5  4.041584E+05  6.490554E+04  2.092400E+03  1.622838E+05  4.186249E+03 -5.546102E+03
       384   6  4.002058E+05  6.900939E+04  1.195794E+03  1.669163E+05  2.644059E+03 -4.638257E+03
       384   7  2.534295E+05  1.424481E+04 -3.227135E+04  1.261933E+05  6.731478E+03 -6.057208E+03
       384   8  2.804407E+05  1.854494E+04 -2.840953E+04  1.281004E+05  5.206986E+03 -5.159412E+03
       384   9  2.995840E+05  3.133402E+04 -2.368442E+04  1.391646E+05  3.676600E+03 -4.246984E+03
       384  10  5.470804E+05  1.243417E+05  3.999230E+04  2.074315E+05 -2.062072E-08 -4.033204E-09
       384  11  5.278909E+05  1.112670E+05  3.259300E+04  1.964734E+05 -1.001764E-08 -6.603815E-10
       384  12  5.008374E+05  1.066854E+05  2.607517E+04  1.946720E+05  5.018783E-09  7.694573E-09
       384  13  4.002446E+05  6.929258E+04  3.861319E+03  1.668082E+05 -5.122011E-09  7.831701E-09
       384  14  4.041584E+05  6.490550E+04  2.092309E+03  1.622838E+05 -2.423715E-09  3.196042E-10
       384  15  4.002057E+05  6.900937E+04  1.195740E+03  1.669163E+05 -2.087868E-09  5.200181E-10
       384  16  2.534294E+05  1.424476E+04 -3.227150E+04  1.261933E+05  9.928501E-09  1.965744E-08
       384  17  2.804406E+05  1.854491E+04 -2.840963E+04  1.281004E+05 -9.521118E-11  1.950211E-08
       384  18  2.995840E+05  3.133400E+04 -2.368448E+04  1.391646E+05 -8.645936E-09 -3.908925E-10
       384  19  5.470804E+05  1.243417E+05  3.999243E+04  2.074315E+05 -4.713438E+03  6.821493E+03
       384  20  5.278909E+05  1.112671E+05  3.259308E+04  1.964734E+05 -3.165293E+03  5.932874E+03
       384  21  5.008374E+05  1.066855E+05  2.607523E+04  1.946720E+05 -1.611335E+03  5.029598E+03
       384  22  4.002447E+05  6.929263E+04  3.861458E+03  1.668081E+05 -5.722586E+03  6.439302E+03
       384  23  4.041584E+05  6.490554E+04  2.092400E+03  1.622838E+05 -4.186249E+03  5.546102E+03
       384  24  4.002058E+05  6.900939E+04  1.195794E+03  1.669163E+05 -2.644059E+03  4.638257E+03
       384  25  2.534295E+05  1.424481E+04 -3.227135E+04  1.261933E+05 -6.731478E+03  6.057208E+03
       384  26  2.804407E+05  1.854494E+04 -2.840953E+04  1.281004E+05 -5.206986E+03  5.159412E+03
       384  27  2.995840E+05  3.133402E+04 -2.368442E+04  1.391646E+05 -3.676600E+03  4.246984E+03
       385   1  4.800608E+05  9.895173E+04  2.054111E+04  1.889665E+05  1.153720E+03 -4.331656E+03
       385   2  4.610400E+05  8.625678E+04  1.461224E+04  1.780125E+05  3.604261E+02 -3.141145E+03
       385   3  4.339612E+05  8.169976E+04  8.912551E+03  1.762257E+05 -4.328470E+02 -1.950964E+03
       385   4  4.001779E+05  6.902832E+04  9.312288E+02  1.668820E+05  2.179996E+03 -3.942709E+03
       385   5  4.042069E+05  6.495374E+04  6.011766E+02  1.623009E+05  1.386476E+03 -2.752239E+03
       385   6  4.001772E+05  6.901720E+04  5.005291E+02  1.668867E+05  5.929616E+02 -1.562097E+03
       385   7  3.203017E+05  3.910549E+04 -1.867904E+04  1.448003E+05  3.206124E+03 -3.553819E+03
       385   8  3.473770E+05  4.365093E+04 -1.341013E+04  1.465905E+05  2.412424E+03 -2.363371E+03
       385   9  3.663943E+05  5.633466E+04 -7.911619E+03  1.575481E+05  1.618714E+03 -1.173251E+03
       385  10  4.800608E+05  9.895171E+04  2.054107E+04  1.889665E+05 -2.449404E-09  3.204224E-09
       385  11  4.610400E+05  8.625677E+04  1.461222E+04  1.780125E+05  2.097553E-10  7.472647E-09
       385  12  4.339612E+05  8.169976E+04  8.912543E+03  1.762257E+05 -2.557713E-09  9.915540E-09
       385  13  4.001779E+05  6.902830E+04  9.311907E+02  1.668821E+05  1.969536E-10  7.166401E-09
       385  14  4.042069E+05  6.495373E+04  6.011587E+02  1.623009E+05  1.771968E-10  1.996193E-08
       385  15  4.001772E+05  6.901720E+04  5.005239E+02  1.668867E+05 -2.486581E-09 -1.316116E-09
       385  16  3.203017E+05  3.910547E+04 -1.867908E+04  1.448003E+05  6.532229E-10  1.132171E-08
       385  17  3.473770E+05  4.365092E+04 -1.341015E+04  1.465905E+05 -1.751760E-09  1.196902E-08
       385  18  3.663943E+05  5.633466E+04 -7.911626E+03  1.575481E+05 -2.164297E-09  1.050966E-08
       385  19  4.800608E+05  9.895173E+04  2.054111E+04  1.889665E+05 -1.153720E+03  4.331656E+03
       385  20  4.610400E+05  8.625678E+04  1.461224E+04  1.780125E+05 -3.604261E+02  3.141145E+03
       385  21  4.339612E+05  8.169976E+04  8.912551E+03  1.762257E+05  4.328470E+02  1.950964E+03
       385  22  4.001779E+05  6.902832E+04  9.312288E+02  1.668820E+05 -2.179996E+03  3.942709E+03
       385  23  4.042069E+05  6.495374E+04  6.011766E+02  1.623009E+05 -1.386476E+03  2.752239E+03
       385  24  4.001772E+05  6.901720E+04  5.005291E+02  1.668867E+05 -5.929616E+02  1.562097E+03
       385  25  3.203017E+05  3.910549E+04 -1.867904E+04  1.448003E+05 -3.206124E+03  3.553819E+03
       385  26  3.473770E+05  4.365093E+04 -1.341013E+04  1.465905E+05 -2.412424E+03  2.363371E+03
       385  27  3.663943E+05  5.633466E+04 -7.911619E+03  1.575481E+05 -1.618714E+03  1.173251E+03
       386   1  4.133015E+05  7.392855E+04  3.670612E+03  1.705273E+05 -8.044621E+02 -1.224398E+03
       386   2  3.943003E+05  6.125711E+04 -1.746961E+03  1.595792E+05 -1.642674E+03 -5.218134E+01
       386   3  3.672565E+05  5.672173E+04 -6.900373E+03  1.577889E+05 -2.480670E+03  1.119646E+03
       386   4  4.001806E+05  6.901541E+04  5.167185E+02  1.668852E+05  2.209277E+02 -8.356757E+02
       386   5  4.042034E+05  6.495582E+04  6.921762E+02  1.623032E+05 -6.176331E+02  3.363981E+02
       386   6  4.001829E+05  6.903225E+04  1.132050E+03  1.668787E+05 -1.455991E+03  1.508078E+03
       386   7  3.870600E+05  6.410228E+04 -2.637183E+03  1.632431E+05  1.246294E+03 -4.469623E+02
       386   8  4.141065E+05  6.865453E+04  3.131304E+03  1.650272E+05  4.074232E+02  7.249833E+02
       386   9  4.331102E+05  8.134278E+04  9.164354E+03  1.759689E+05 -4.312577E+02  1.896531E+03
       386  10  4.133015E+05  7.392855E+04  3.670608E+03  1.705273E+05  2.051270E-09 -2.525412E-10
       386  11  3.943003E+05  6.125711E+04 -1.746966E+03  1.595792E+05 -2.322092E-09 -1.979942E-08
       386  12  3.672565E+05  5.672173E+04 -6.900387E+03  1.577889E+05 -5.526222E-09 -1.795524E-09
       386  13  4.001806E+05  6.901541E+04  5.167170E+02  1.668852E+05 -8.706973E-10  2.312207E-09
       386  14  4.042034E+05  6.495582E+04  6.921753E+02  1.623032E+05  4.090985E-10  4.564862E-09
       386  15  4.001829E+05  6.903224E+04  1.132042E+03  1.668787E+05 -2.537974E-09 -6.380946E-09
       386  16  3.870600E+05  6.410228E+04 -2.637186E+03  1.632431E+05 -3.806986E-09  5.263609E-09
       386  17  4.141065E+05  6.865453E+04  3.131303E+03  1.650272E+05  3.148795E-09  5.793211E-09
       386  18  4.331102E+05  8.134277E+04  9.164347E+03  1.759689E+05  4.015566E-09  7.878875E-09
       386  19  4.133015E+05  7.392855E+04  3.670612E+03  1.705273E+05  8.044621E+02  1.224398E+03
       386  20  3.943003E+05  6.125711E+04 -1.746961E+03  1.595792E+05  1.642674E+03  5.218134E+01
       386  21  3.672565E+05  5.672173E+04 -6.900373E+03  1.577889E+05  2.480670E+03 -1.119646E+03
       386  22  4.001806E+05  6.901541E+04  5.167185E+02  1.668852E+05 -2.209277E+02  8.356757E+02
       386  23  4.042034E+05  6.495582E+04  6.921762E+02  1.623032E+05  6.176331E+02 -3.363981E+02
       386  24  4.001829E+05  6.903225E+04  1.132050E+03  1.668787E+05  1.455991E+03 -1.508078E+03
       386  25  3.870600E+05  6.410228E+04 -2.637183E+03  1.632431E+05 -1.246294E+03  4.469623E+02
       386  26  4.141065E+05  6.865453E+04  3.131304E+03  1.650272E+05 -4.074232E+02 -7.249833E+02
       386  27  4.331102E+05  8.134278E+04  9.164354E+03  1.759689E+05  4.312577E+02 -1.896531E+03
       387   1  3.465793E+05  4.896289E+04 -1.182200E+04  1.521752E+05 -2.988266E+03  1.796712E+03
       387   2  3.274761E+05  3.619332E+04 -1.629320E+04  1.411224E+05 -4.775586E+03  2.608422E+03
       387   3  3.005904E+05  3.197611E+04 -1.968744E+04  1.391853E+05 -6.557806E+03  3.407262E+03
       387   4  4.002233E+05  6.900343E+04  1.470986E+03  1.669154E+05 -1.958636E+03  2.186998E+03
       387   5  4.041386E+05  6.490546E+04  2.604536E+03  1.622892E+05 -3.756289E+03  2.994726E+03
       387   6  4.002734E+05  6.936196E+04  4.823290E+03  1.667788E+05 -5.548892E+03  3.789567E+03
       387   7  4.538703E+05  8.904426E+04  1.476382E+04  1.816567E+05 -9.289040E+02  2.577322E+03
       387   8  4.808070E+05  9.361808E+04  2.150188E+04  1.834585E+05 -2.736852E+03  3.381083E+03
       387   9  4.999661E+05  1.067485E+05  2.933327E+04  1.943763E+05 -4.539801E+03  4.171940E+03
       387  10  3.465793E+05  4.896288E+04 -1.182202E+04  1.521752E+05  4.563717E-10  1.051975E-08
       387  11  3.274761E+05  3.619330E+04 -1.629326E+04  1.411224E+05  1.715566E-09 -1.958168E-09
       387  12  3.005904E+05  3.197609E+04 -1.968754E+04  1.391854E+05 -4.887802E-09 -2.218662E-09
       387  13  4.002233E+05  6.900342E+04  1.470970E+03  1.669154E+05 -1.873122E-09  3.459349E-09
       387  14  4.041386E+05  6.490544E+04  2.604493E+03  1.622892E+05  4.808662E-09  7.286347E-09
       387  15  4.002733E+05  6.936194E+04  4.823205E+03  1.667788E+05 -5.190361E-10 -2.258692E-10
       387  16  4.538703E+05  8.904425E+04  1.476381E+04  1.816567E+05 -1.927399E-09  9.522790E-10
       387  17  4.808070E+05  9.361806E+04  2.150184E+04  1.834585E+05 -5.436698E-10  4.729941E-09
       387  18  4.999661E+05  1.067485E+05  2.933320E+04  1.943763E+05 -4.942373E-10  5.175254E-09
       387  19  3.465793E+05  4.896289E+04 -1.182200E+04  1.521752E+05  2.988266E+03 -1.796712E+03
       387  20  3.274761E+05  3.619332E+04 -1.629320E+04  1.411224E+05  4.775586E+03 -2.608422E+03
       387  21  3.005904E+05  3.197611E+04 -1.968744E+04  1.391853E+05  6.557806E+03 -3.407262E+03
       387  22  4.002233E+05  6.900343E+04  1.470986E+03  1.669154E+05  1.958636E+03 -2.186998E+03
       387  23  4.041386E+05  6.490546E+04  2.604536E+03  1.622892E+05  3.756289E+03 -2.994726E+03
       387  24  4.002734E+05  6.936196E+04  4.823290E+03  1.667788E+05  5.548892E+03 -3.789567E+03
       387  25  4.538703E+05  8.904426E+04  1.476382E+04  1.816567E+05  9.289040E+02 -2.577322E+03
       387  26  4.808070E+05  9.361808E+04  2.150188E+04  1.834585E+05  2.736852E+03 -3.381083E+03
       387  27  4.999661E+05  1.067485E+05  2.933327E+04  1.943763E+05  4.539801E+03 -4.171940E+03
       388   1  2.794622E+05  2.431859E+04 -2.345315E+04  1.346997E+05 -7.846183E+03  3.827671E+03
       388   2  2.603448E+05  1.029926E+04 -2.411869E+04  1.220710E+05 -1.383948E+04  2.989187E+03
       388   3  2.361028E+05  1.053707E+04 -1.901954E+04  1.172696E+05 -1.971672E+04  1.845808E+03
       388   4  4.006060E+05  6.877883E+04  6.316847E+03  1.671971E+05 -6.741160E+03  4.246348E+03
       388   5  4.035564E+05  6.450875E+04  1.130984E+04  1.621908E+05 -1.297578E+04  3.316272E+03
       388   6  4.014288E+05  7.454229E+04  2.225773E+04  1.650114E+05 -1.909461E+04  2.081217E+03
       388   7  5.217638E+05  1.132397E+05  3.608559E+04  1.997000E+05 -5.635906E+03  4.665109E+03
       388   8  5.467881E+05  1.187198E+05  4.673679E+04  2.023191E+05 -1.211187E+04  3.643441E+03
       388   9  5.667823E+05  1.385502E+05  6.353305E+04  2.127651E+05 -1.847232E+04  2.316701E+03
       388  10  2.794621E+05  2.431856E+04 -2.345329E+04  1.346997E+05  5.001015E-09  1.004021E-08
       388  11  2.603446E+05  1.029919E+04 -2.411907E+04  1.220711E+05 -4.078820E-09  7.226872E-09
       388  12  2.361024E+05  1.053697E+04 -1.902027E+04  1.172696E+05 -4.634070E-09 -5.009238E-09
       388  13  4.006060E+05  6.877880E+04  6.316728E+03  1.671971E+05  3.344590E-09 -5.353546E-09
       388  14  4.035562E+05  6.450869E+04  1.130950E+04  1.621909E+05 -1.219999E-09  8.563103E-10
       388  15  4.014284E+05  7.454219E+04  2.225703E+04  1.650114E+05  3.974019E-09 -3.562425E-09
       388  16  5.217638E+05  1.132397E+05  3.608548E+04  1.997000E+05 -3.617253E-09  2.675201E-09
       388  17  5.467879E+05  1.187197E+05  4.673649E+04  2.023191E+05  8.070357E-09 -1.198576E-08
       388  18  5.667820E+05  1.385501E+05  6.353240E+04  2.127651E+05  9.033492E-09 -4.014771E-09
       388  19  2.794622E+05  2.431859E+04 -2.345315E+04  1.346997E+05  7.846183E+03 -3.827671E+03
       388  20  2.603448E+05  1.029926E+04 -2.411869E+04  1.220710E+05  1.383948E+04 -2.989187E+03
       388  21  2.361028E+05  1.053707E+04 -1.901954E+04  1.172696E+05  1.971672E+04 -1.845808E+03
       388  22  4.006060E+05  6.877883E+04  6.316847E+03  1.671971E+05  6.741160E+03 -4.246348E+03
       388  23  4.035564E+05  6.450875E+04  1.130984E+04  1.621908E+05  1.297578E+04 -3.316272E+03
       388  24  4.014288E+05  7.454229E+04  2.225773E+04  1.650114E+05  1.909461E+04 -2.081217E+03
       388  25  5.217638E+05  1.132397E+05  3.608559E+04  1.997000E+05  5.635906E+03 -4.665109E+03
       388  26  5.467881E+05  1.187198E+05  4.673679E+04  2.023191E+05  1.211187E+04 -3.643441E+03
       388  27  5.667823E+05  1.385502E+05  6.353305E+04  2.127651E+05  1.847232E+04 -2.316701E+03
       389   1  2.081737E+05  4.116236E+03 -1.826923E+04  1.289784E+05 -2.595664E+04  1.179074E+03
       389   2  1.949048E+05 -2.768574E+04 -3.885213E+03  9.299784E+04 -4.693323E+04 -6.676019E+03
       389   3  2.093768E+05  3.581030E+04  5.005702E+04  4.329722E+04 -6.540247E+04 -2.115090E+04
       389   4  4.050234E+05  6.538005E+04  2.792964E+04  1.705950E+05 -2.329587E+04  2.187224E+03
       389   5  3.967948E+05  6.020707E+04  4.860541E+04  1.611750E+05 -4.948987E+04 -7.645500E+03
       389   6  4.173268E+05  1.513443E+05  1.129650E+05  1.380381E+05 -7.317719E+04 -2.409901E+04
       389   7  6.019119E+05  1.266441E+05  7.412608E+04  2.122224E+05 -2.063416E+04  3.195592E+03
       389   8  5.987239E+05  1.481062E+05  1.010923E+05  2.293731E+05 -5.204739E+04 -8.615442E+03
       389   9  6.253189E+05  2.668966E+05  1.758681E+05  2.328110E+05 -8.095462E+04 -2.704929E+04
       389  10  2.081729E+05  4.116054E+03 -1.827050E+04  1.289784E+05  1.089044E-08  3.668689E-09
       389  11  1.949024E+05 -2.768637E+04 -3.889435E+03  9.299759E+04  3.131755E-09  6.761153E-09
       389  12  2.093721E+05  3.580868E+04  5.004815E+04  4.329611E+04 -3.621838E-10  5.638685E-09
       389  13  4.050228E+05  6.537990E+04  2.792861E+04  1.705951E+05  2.495669E-09 -4.921591E-09
       389  14  3.967922E+05  6.020635E+04  4.860070E+04  1.611747E+05  1.558562E-09 -1.972687E-09
       389  15  4.173209E+05  1.513422E+05  1.129538E+05  1.380367E+05 -1.418719E-09 -6.168364E-09
       389  16  6.019114E+05  1.266440E+05  7.412527E+04  2.122225E+05 -7.110974E-09 -7.021341E-09
       389  17  5.987210E+05  1.481054E+05  1.010870E+05  2.293728E+05 -3.952696E-09  1.610046E-09
       389  18  6.253117E+05  2.668940E+05  1.758544E+05  2.328093E+05 -5.369805E-10  1.231033E-10
       389  19  2.081737E+05  4.116236E+03 -1.826923E+04  1.289784E+05  2.595664E+04 -1.179074E+03
       389  20  1.949048E+05 -2.768574E+04 -3.885213E+03  9.299784E+04  4.693323E+04  6.676019E+03
       389  21  2.093768E+05  3.581030E+04  5.005702E+04  4.329722E+04  6.540247E+04  2.115090E+04
       389  22  4.050234E+05  6.538005E+04  2.792964E+04  1.705950E+05  2.329587E+04 -2.187224E+03
       389  23  3.967948E+05  6.020707E+04  4.860541E+04  1.611750E+05  4.948987E+04  7.645500E+03
       389  24  4.173268E+05  1.513443E+05  1.129650E+05  1.380381E+05  7.317719E+04  2.409901E+04
       389  25  6.019119E+05  1.266441E+05  7.412608E+04  2.122224E+05  2.063416E+04 -3.195592E+03
       389  26  5.987239E+05  1.481062E+05  1.010923E+05  2.293731E+05  5.204739E+04  8.615442E+03
       389  27  6.253189E+05  2.668966E+05  1.758681E+05  2.328110E+05  8.095462E+04  2.704929E+04
       390   1 -1.387513E+05 -6.927449E+05 -1.389626E+05  9.308937E+04 -5.337351E+03 -2.518076E+04
       390   2 -8.802614E+04 -5.516074E+05 -8.986959E+04  5.774795E+04 -1.496584E+04 -9.091954E+03
       390   3 -5.399373E+04 -4.162411E+05 -5.535631E+04  8.396198E+04 -1.064985E+04  7.039823E+03
       390   4 -1.473592E+04 -1.947750E+05 -1.735248E+04  8.556672E+04 -5.375472E+03 -1.128993E+04
       390   5  7.145404E+01 -1.928834E+05 -8.343635E+03  5.481011E+04 -1.497106E+04 -6.900632E+03
       390   6  2.249252E+02 -1.947455E+05 -5.779679E+03  8.560787E+04 -1.062554E+04 -2.472218E+03
       390   7  1.092614E+05  3.034216E+05  1.042403E+05  7.803817E+04 -5.413916E+03  2.612025E+03
       390   8  8.816019E+04  1.659602E+05  7.317400E+04  5.187064E+04 -1.497631E+04 -4.708053E+03
       390   9  5.444030E+04  2.679611E+04  4.379420E+04  8.725438E+04 -1.060130E+04 -1.198762E+04
       390  10 -1.387515E+05 -6.927456E+05 -1.389639E+05  9.308926E+04  1.538944E-09  3.123192E-09
       390  11 -8.802641E+04 -5.516076E+05 -8.987017E+04  5.774784E+04  1.583199E-09 -4.320737E-09
       390  12 -5.399387E+04 -4.162412E+05 -5.535662E+04  8.396204E+04 -2.118322E-09 -8.767648E-10
       390  13 -1.473599E+04 -1.947752E+05 -1.735277E+04  8.556667E+04  2.322821E-09 -2.105019E-09
       390  14  7.120061E+01 -1.928835E+05 -8.344145E+03  5.481003E+04 -1.314247E-09 -2.735374E-10
       390  15  2.248024E+02 -1.947455E+05 -5.779902E+03  8.560785E+04 -7.404275E-11 -1.421874E-08
       390  16  1.092613E+05  3.034216E+05  1.042403E+05  7.803818E+04  4.568532E-10 -1.041054E-09
       390  17  8.815994E+04  1.659601E+05  7.317353E+04  5.187058E+04  1.388964E-09  1.071407E-09
       390  18  5.444014E+04  2.679592E+04  4.379372E+04  8.725428E+04  1.920539E-09 -8.444476E-09
       390  19 -1.387513E+05 -6.927449E+05 -1.389626E+05  9.308937E+04  5.337351E+03  2.518076E+04
       390  20 -8.802614E+04 -5.516074E+05 -8.986959E+04  5.774795E+04  1.496584E+04  9.091954E+03
       390  21 -5.399373E+04 -4.162411E+05 -5.535631E+04  8.396198E+04  1.064985E+04 -7.039823E+03
       390  22 -1.473592E+04 -1.947750E+05 -1.735248E+04  8.556672E+04  5.375472E+03  1.128993E+04
       390  23  7.145404E+01 -1.928834E+05 -8.343635E+03  5.481011E+04  1.497106E+04  6.900632E+03
       390  24  2.249252E+02 -1.947455E+05 -5.779679E+03  8.560787E+04  1.062554E+04  2.472218E+03
       390  25  1.092614E+05  3.034216E+05  1.042403E+05  7.803817E+04  5.413916E+03 -2.612025E+03
       390  26  8.816019E+04  1.659602E+05  7.317400E+04  5.187064E+04  1.497631E+04  4.708053E+03
       390  27  5.444030E+04  2.679611E+04  4.379420E+04  8.725438E+04  1.060130E+04  1.198762E+04
       391   1 -2.635597E+04 -2.965354E+05 -2.825582E+04  8.646594E+04 -4.833092E+03  3.981523E+03
       391   2  8.566046E+03 -1.580448E+05  3.207820E+03  5.455387E+04  1.713862E+03  6.335405E+03
       391   3  4.093356E+04 -2.006502E+04  3.259110E+04  8.478199E+04  8.180141E+03  8.689915E+03
       391   4 -1.244155E+03 -1.940228E+05 -5.257309E+03  8.572667E+04 -4.819256E+03 -1.555224E+03
       391   5 -1.742199E+02 -1.937540E+05 -4.775370E+03  5.465583E+04  1.727693E+03  8.659280E+02
       391   6 -1.669347E+03 -1.940257E+05 -6.419736E+03  8.572560E+04  8.193903E+03  3.287201E+03
       391   7  2.386696E+04 -9.150033E+04  1.774065E+04  8.498729E+04 -4.805407E+03 -7.092876E+03
       391   8 -8.914557E+03 -2.294619E+05 -1.275853E+04  5.475780E+04  1.741522E+03 -4.603238E+03
       391   9 -4.427430E+04 -3.679581E+05 -4.543238E+04  8.666895E+04  8.207651E+03 -2.114014E+03
       391  10 -2.635600E+04 -2.965354E+05 -2.825590E+04  8.646596E+04 -2.103121E-09  1.047839E-08
       391  11  8.566032E+03 -1.580448E+05  3.207740E+03  5.455386E+04  3.489234E-09 -7.046496E-09
       391  12  4.093347E+04 -2.006511E+04  3.259084E+04  8.478194E+04 -2.678040E-09 -3.243204E-09
       391  13 -1.244181E+03 -1.940228E+05 -5.257357E+03  8.572667E+04  1.178812E-10 -2.155557E-09
       391  14 -1.742233E+02 -1.937540E+05 -4.775377E+03  5.465583E+04  4.715899E-09 -2.465579E-09
       391  15 -1.669422E+03 -1.940257E+05 -6.419882E+03  8.572558E+04  2.102111E-09 -1.385600E-08
       391  16  2.386692E+04 -9.150039E+04  1.774052E+04  8.498726E+04  2.136350E-09 -4.418551E-09
       391  17 -8.914566E+03 -2.294619E+05 -1.275857E+04  5.475780E+04 -7.162023E-10  4.364441E-09
       391  18 -4.427437E+04 -3.679581E+05 -4.543252E+04  8.666896E+04  2.395232E-09 -7.477343E-09
       391  19 -2.635597E+04 -2.965354E+05 -2.825582E+04  8.646594E+04  4.833092E+03 -3.981523E+03
       391  20  8.566046E+03 -1.580448E+05  3.207820E+03  5.455387E+04 -1.713862E+03 -6.335405E+03
       391  21  4.093356E+04 -2.006502E+04  3.259110E+04  8.478199E+04 -8.180141E+03 -8.689915E+03
       391  22 -1.244155E+03 -1.940228E+05 -5.257309E+03  8.572667E+04  4.819256E+03  1.555224E+03
       391  23 -1.742199E+02 -1.937540E+05 -4.775370E+03  5.465583E+04 -1.727693E+03 -8.659280E+02
       391  24 -1.669347E+03 -1.940257E+05 -6.419736E+03  8.572560E+04 -8.193903E+03 -3.287201E+03
       391  25  2.386696E+04 -9.150033E+04  1.774065E+04  8.498729E+04  4.805407E+03  7.092876E+03
       391  26 -8.914557E+03 -2.294619E+05 -1.275853E+04  5.475780E+04 -1.741522E+03  4.603238E+03
       391  27 -4.427430E+04 -3.679581E+05 -4.543238E+04  8.666895E+04 -8.207651E+03  2.114014E+03
       392   1  7.225829E+04  9.786701E+04  5.801118E+04  8.803161E+04  1.414301E+04  1.436923E+04
       392   2  1.058039E+05  2.377849E+05  8.593724E+04  5.075386E+04  1.812601E+04  7.364011E+03
       392   3  1.206132E+05  3.744683E+05  1.138483E+05  7.492528E+04  6.378316E+03  3.119780E+02
       392   4  5.693151E+02 -1.951511E+05 -7.488740E+03  8.559065E+04  1.416892E+04  4.427532E+03
       392   5  2.235041E+02 -1.923945E+05 -1.168476E+04  5.483348E+04  1.811795E+04  1.063698E+04
       392   6 -2.115859E+04 -1.951869E+05 -2.507481E+04  8.552933E+04  6.331275E+03  1.680088E+04
       392   7 -7.112542E+04 -4.880890E+05 -7.299369E+04  8.315091E+04  1.419491E+04 -5.509526E+03
       392   8 -1.053696E+05 -6.224021E+05 -1.093187E+05  5.891035E+04  1.810993E+04  1.390770E+04
       392   9 -1.629538E+05 -7.645454E+05 -1.640204E+05  9.612382E+04  6.284776E+03  3.327469E+04
       392  10  7.225802E+04  9.786673E+04  5.801041E+04  8.803145E+04 -3.174922E-09  7.293564E-09
       392  11  1.058035E+05  2.377848E+05  8.593652E+04  5.075375E+04  1.515055E-09 -3.394403E-09
       392  12  1.206131E+05  3.744683E+05  1.138482E+05  7.492528E+04  4.288247E-10  2.834211E-09
       392  13  5.690943E+02 -1.951512E+05 -7.489154E+03  8.559060E+04 -3.081724E-09 -3.678790E-11
       392  14  2.231213E+02 -1.923947E+05 -1.168559E+04  5.483332E+04  1.140015E-09  5.283835E-09
       392  15 -2.115871E+04 -1.951872E+05 -2.507541E+04  8.552925E+04 -4.105952E-10 -1.089877E-08
       392  16 -7.112565E+04 -4.880891E+05 -7.299412E+04  8.315097E+04  1.590991E-09 -2.198804E-09
       392  17 -1.053700E+05 -6.224024E+05 -1.093197E+05  5.891015E+04 -1.186143E-09  2.923683E-09
       392  18 -1.629541E+05 -7.645466E+05 -1.640226E+05  9.612365E+04 -1.894721E-09 -9.128237E-09
       392  19  7.225829E+04  9.786701E+04  5.801118E+04  8.803161E+04 -1.414301E+04 -1.436923E+04
       392  20  1.058039E+05  2.377849E+05  8.593724E+04  5.075386E+04 -1.812601E+04 -7.364011E+03
       392  21  1.206132E+05  3.744683E+05  1.138483E+05  7.492528E+04 -6.378316E+03 -3.119780E+02
       392  22  5.693151E+02 -1.951511E+05 -7.488740E+03  8.559065E+04 -1.416892E+04 -4.427532E+03
       392  23  2.235041E+02 -1.923945E+05 -1.168476E+04  5.483348E+04 -1.811795E+04 -1.063698E+04
       392  24 -2.115859E+04 -1.951869E+05 -2.507481E+04  8.552933E+04 -6.331275E+03 -1.680088E+04
       392  25 -7.112542E+04 -4.880890E+05 -7.299369E+04  8.315091E+04 -1.419491E+04  5.509526E+03
       392  26 -1.053696E+05 -6.224021E+05 -1.093187E+05  5.891035E+04 -1.810993E+04 -1.390770E+04
       392  27 -1.629538E+05 -7.645454E+05 -1.640204E+05  9.612382E+04 -6.284776E+03 -3.327469E+04
       393   1  2.365823E+05 -1.113574E+05 -1.040144E+05 -1.564176E+04 -9.681791E+02  6.801686E+03
       393   2  2.756642E+05 -1.202731E+05 -9.912263E+04 -1.275166E+04  4.591086E+03  2.133346E+04
       393   3  3.187855E+05 -1.106752E+05 -9.320030E+04 -2.772239E+04  1.016417E+04  2.215391E+04
       393   4  7.668791E+05  2.037961E+04  2.476397E+04 -2.453565E+04  1.700769E+04  6.818322E+03
       393   5  7.638726E+05 -6.278358E+02  1.119491E+04 -1.559689E+04  1.104359E+04  2.133726E+04
       393   6  7.668984E+05 -1.130354E+03  6.650546E+03 -2.451786E+04  5.092859E+03  2.214980E+04
       393   7  1.297433E+06  1.520964E+05  1.535233E+05 -3.343722E+04  3.499886E+04  6.834436E+03
       393   8  1.252302E+06  1.190011E+05  1.214973E+05 -1.844442E+04  1.750111E+04  2.134100E+04
       393   9  1.215198E+06  1.084009E+05  1.064889E+05 -2.131102E+04  1.792446E+01  2.214564E+04
       393  10  2.365822E+05 -1.113574E+05 -1.040145E+05 -1.564175E+04 -2.209998E-10 -1.671487E-11
       393  11  2.756640E+05 -1.202736E+05 -9.912353E+04 -1.275174E+04 -3.326699E-10  7.586076E-11
       393  12  3.187852E+05 -1.106757E+05 -9.320142E+04 -2.772257E+04  1.379859E-10  2.020335E-11
       393  13  7.668788E+05  2.037948E+04  2.476334E+04 -2.453575E+04  5.569828E-10  1.130191E-10
       393  14  7.638723E+05 -6.283575E+02  1.119383E+04 -1.559708E+04  4.386933E-10  2.076038E-10
       393  15  7.668982E+05 -1.130888E+03  6.649575E+03 -2.451795E+04  9.327601E-10  6.334168E-11
       393  16  1.297432E+06  1.520960E+05  1.535209E+05 -3.343741E+04  4.407587E-10  7.331292E-11
       393  17  1.252302E+06  1.190005E+05  1.214959E+05 -1.844472E+04  1.016823E-09  2.061195E-10
       393  18  1.215198E+06  1.084004E+05  1.064880E+05 -2.131102E+04 -3.004935E-10 -7.682480E-11
       393  19  2.365823E+05 -1.113574E+05 -1.040144E+05 -1.564176E+04  9.681791E+02 -6.801686E+03
       393  20  2.756642E+05 -1.202731E+05 -9.912263E+04 -1.275166E+04 -4.591086E+03 -2.133346E+04
       393  21  3.187855E+05 -1.106752E+05 -9.320030E+04 -2.772239E+04 -1.016417E+04 -2.215391E+04
       393  22  7.668791E+05  2.037961E+04  2.476397E+04 -2.453565E+04 -1.700769E+04 -6.818322E+03
       393  23  7.638726E+05 -6.278358E+02  1.119491E+04 -1.559689E+04 -1.104359E+04 -2.133726E+04
       393  24  7.668984E+05 -1.130354E+03  6.650546E+03 -2.451786E+04 -5.092859E+03 -2.214980E+04
       393  25  1.297433E+06  1.520964E+05  1.535233E+05 -3.343722E+04 -3.499886E+04 -6.834436E+03
       393  26  1.252302E+06  1.190011E+05  1.214973E+05 -1.844442E+04 -1.750111E+04 -2.134100E+04
       393  27  1.215198E+06  1.084009E+05  1.064889E+05 -2.131102E+04 -1.792446E+01 -2.214564E+04
       394   1  3.527183E+05 -9.985031E+04 -8.719939E+04 -2.430721E+04  5.082995E+03  1.951072E+04
       394   2  3.928347E+05 -9.120984E+04 -8.034336E+04 -1.552382E+04  4.158293E+03  1.807678E+04
       394   3  4.334519E+05 -8.135674E+04 -7.256532E+04 -2.486987E+04  3.232797E+03  1.603513E+04
       394   4  7.656940E+05  1.196859E+03  5.313074E+03 -2.458263E+04  4.135598E+03  1.950931E+04
       394   5  7.654049E+05 -1.029846E+02  2.855459E+03 -1.551798E+04  2.699345E+03  1.807545E+04
       394   6  7.657035E+05 -1.018105E+02  1.674359E+03 -2.458210E+04  1.262358E+03  1.603406E+04
       394   7  1.178828E+06  1.022324E+05  9.781477E+04 -2.485825E+04  3.187578E+03  1.950791E+04
       394   8  1.138104E+06  9.099444E+04  8.604556E+04 -1.551216E+04  1.239531E+03  1.807413E+04
       394   9  1.098058E+06  8.114562E+04  7.590711E+04 -2.429418E+04 -7.091244E+02  1.603298E+04
       394  10  3.527182E+05 -9.985073E+04 -8.720016E+04 -2.430729E+04 -3.862803E-10 -1.118416E-11
       394  11  3.928346E+05 -9.121019E+04 -8.034400E+04 -1.552388E+04 -3.387703E-10  9.825258E-11
       394  12  4.334518E+05 -8.135702E+04 -7.256582E+04 -2.486991E+04  6.655790E-11 -1.261142E-10
       394  13  7.656939E+05  1.196446E+03  5.312327E+03 -2.458269E+04  2.868731E-10  3.786148E-11
       394  14  7.654049E+05 -1.033375E+02  2.854831E+03 -1.551802E+04  1.369074E-10  9.822821E-11
       394  15  7.657034E+05 -1.020871E+02  1.673873E+03 -2.458212E+04  4.635733E-10  9.727591E-11
       394  16  1.178828E+06  1.022320E+05  9.781403E+04 -2.485830E+04  5.803280E-10 -9.804543E-11
       394  17  1.138104E+06  9.099409E+04  8.604494E+04 -1.551218E+04  6.539125E-10  1.621139E-10
       394  18  1.098058E+06  8.114535E+04  7.590662E+04 -2.429417E+04 -1.604961E-10  7.931221E-12
       394  19  3.527183E+05 -9.985031E+04 -8.719939E+04 -2.430721E+04 -5.082995E+03 -1.951072E+04
       394  20  3.928347E+05 -9.120984E+04 -8.034336E+04 -1.552382E+04 -4.158293E+03 -1.807678E+04
       394  21  4.334519E+05 -8.135674E+04 -7.256532E+04 -2.486987E+04 -3.232797E+03 -1.603513E+04
       394  22  7.656940E+05  1.196859E+03  5.313074E+03 -2.458263E+04 -4.135598E+03 -1.950931E+04
       394  23  7.654049E+05 -1.029846E+02  2.855459E+03 -1.551798E+04 -2.699345E+03 -1.807545E+04
       394  24  7.657035E+05 -1.018105E+02  1.674359E+03 -2.458210E+04 -1.262358E+03 -1.603406E+04
       394  25  1.178828E+06  1.022324E+05  9.781477E+04 -2.485825E+04 -3.187578E+03 -1.950791E+04
       394  26  1.138104E+06  9.099444E+04  8.604556E+04 -1.551216E+04 -1.239531E+03 -1.807413E+04
       394  27  1.098058E+06  8.114562E+04  7.590711E+04 -2.429418E+04  7.091244E+02 -1.603298E+04
       395   1  4.677842E+05 -7.275409E+04 -6.506104E+04 -2.459438E+04  2.779806E+03  1.471167E+04
       395   2  5.076615E+05 -6.307919E+04 -5.677960E+04 -1.560028E+04  2.418274E+03  1.258391E+04
       395   3  5.476395E+05 -5.332435E+04 -4.823564E+04 -2.456130E+04  2.055964E+03  1.043493E+04
       395   4  7.656008E+05  4.074044E+01  1.297566E+03 -2.454356E+04  1.000763E+03  1.471087E+04
       395   5  7.655524E+05 -2.791192E+01  7.662579E+02 -1.556623E+04  6.211957E+02  1.258339E+04
       395   6  7.656068E+05 -1.327449E+01  5.101057E+02 -2.454356E+04  2.408740E+02  1.043471E+04
       395   7  1.063500E+06  7.282956E+04  6.765063E+04 -2.449273E+04 -7.791240E+02  1.471006E+04
       395   8  1.023505E+06  6.301885E+04  5.830795E+04 -1.553216E+04 -1.176621E+03  1.258287E+04
       395   9  9.836183E+05  5.329457E+04  4.925287E+04 -2.452581E+04 -1.574846E+03  1.043448E+04
       395  10  4.677841E+05 -7.275432E+04 -6.506146E+04 -2.459441E+04 -2.187658E-10 -1.093932E-10
       395  11  5.076615E+05 -6.307936E+04 -5.677991E+04 -1.560030E+04 -5.944581E-11  3.547665E-11
       395  12  5.476395E+05 -5.332446E+04 -4.823585E+04 -2.456132E+04  3.223492E-11 -7.511761E-11
       395  13  7.656007E+05  4.050770E+01  1.297157E+03 -2.454358E+04  1.049845E-10 -6.112113E-11
       395  14  7.655523E+05 -2.808212E+01  7.659596E+02 -1.556623E+04  1.224771E-10  1.377842E-10
       395  15  7.656067E+05 -1.339147E+01  5.099009E+02 -2.454356E+04  4.544588E-11  1.320348E-10
       395  16  1.063500E+06  7.282933E+04  6.765022E+04 -2.449272E+04  2.338865E-10 -2.194658E-11
       395  17  1.023505E+06  6.301868E+04  5.830765E+04 -1.553215E+04  2.466673E-10  1.901402E-11
       395  18  9.836182E+05  5.329445E+04  4.925266E+04 -2.452580E+04 -4.220114E-12 -4.445582E-11
       395  19  4.677842E+05 -7.275409E+04 -6.506104E+04 -2.459438E+04 -2.779806E+03 -1.471167E+04
       395  20  5.076615E+05 -6.307919E+04 -5.677960E+04 -1.560028E+04 -2.418274E+03 -1.258391E+04
       395  21  5.476395E+05 -5.332435E+04 -4.823564E+04 -2.456130E+04 -2.055964E+03 -1.043493E+04
       395  22  7.656008E+05  4.074044E+01  1.297566E+03 -2.454356E+04 -1.000763E+03 -1.471087E+04
       395  23  7.655524E+05 -2.791192E+01  7.662579E+02 -1.556623E+04 -6.211957E+02 -1.258339E+04
       395  24  7.656068E+05 -1.327449E+01  5.101057E+02 -2.454356E+04 -2.408740E+02 -1.043471E+04
       395  25  1.063500E+06  7.282956E+04  6.765063E+04 -2.449273E+04  7.791240E+02 -1.471006E+04
       395  26  1.023505E+06  6.301885E+04  5.830795E+04 -1.553216E+04  1.176621E+03 -1.258287E+04
       395  27  9.836183E+05  5.329457E+04  4.925287E+04 -2.452581E+04  1.574846E+03 -1.043448E+04
       396   1  5.817492E+05 -4.492783E+04 -4.046383E+04 -2.451662E+04  1.957509E+03  9.181417E+03
       396   2  6.213823E+05 -3.525831E+04 -3.176778E+04 -1.558733E+04  1.755524E+03  7.038008E+03
       396   3  6.610518E+05 -2.557780E+04 -2.293632E+04 -2.449263E+04  1.553097E+03  4.897057E+03
       396   4  7.655947E+05 -4.915919E+00  4.421412E+02 -2.451682E+04  1.547730E+02  9.181333E+03
       396   5  7.655792E+05 -6.552284E+00  4.047523E+02 -1.559965E+04 -4.525762E+01  7.038083E+03
       396   6  7.655979E+05  2.398536E+00  5.012834E+02 -2.451682E+04 -2.457170E+02  4.897297E+03
       396   7  9.494716E+05  4.491571E+04  4.134602E+04 -2.451702E+04 -1.648491E+03  9.181249E+03
       396   8  9.097956E+05  3.524379E+04  3.257599E+04 -1.561198E+04 -1.846453E+03  7.038158E+03
       396   9  8.701542E+05  2.558185E+04  2.393821E+04 -2.454101E+04 -2.044831E+03  4.897537E+03
       396  10  5.817492E+05 -4.492792E+04 -4.046400E+04 -2.451664E+04  7.428785E-12 -4.634127E-11
       396  11  6.213822E+05 -3.525836E+04 -3.176788E+04 -1.558734E+04  8.014827E-11  1.576557E-10
       396  12  6.610518E+05 -2.557783E+04 -2.293637E+04 -2.449264E+04 -6.043653E-11 -1.255726E-10
       396  13  7.655947E+05 -5.006478E+00  4.419827E+02 -2.451682E+04 -8.597144E-12  8.192269E-11
       396  14  7.655792E+05 -6.605495E+00  4.046592E+02 -1.559965E+04 -1.731819E-10  5.426178E-11
       396  15  7.655979E+05  2.372756E+00  5.012382E+02 -2.451682E+04 -2.053657E-10  1.407632E-10
       396  16  9.494716E+05  4.491562E+04  4.134585E+04 -2.451701E+04  5.186848E-11 -1.568355E-11
       396  17  9.097956E+05  3.524374E+04  3.257589E+04 -1.561197E+04 -2.783613E-11  8.178141E-11
       396  18  8.701542E+05  2.558183E+04  2.393816E+04 -2.454100E+04 -5.850864E-11 -9.618866E-11
       396  19  5.817492E+05 -4.492783E+04 -4.046383E+04 -2.451662E+04 -1.957509E+03 -9.181417E+03
       396  20  6.213823E+05 -3.525831E+04 -3.176778E+04 -1.558733E+04 -1.755524E+03 -7.038008E+03
       396  21  6.610518E+05 -2.557780E+04 -2.293632E+04 -2.449263E+04 -1.553097E+03 -4.897057E+03
       396  22  7.655947E+05 -4.915919E+00  4.421412E+02 -2.451682E+04 -1.547730E+02 -9.181333E+03
       396  23  7.655792E+05 -6.552284E+00  4.047523E+02 -1.559965E+04  4.525762E+01 -7.038083E+03
       396  24  7.655979E+05  2.398536E+00  5.012834E+02 -2.451682E+04  2.457170E+02 -4.897297E+03
       396  25  9.494716E+05  4.491571E+04  4.134602E+04 -2.451702E+04  1.648491E+03 -9.181249E+03
       396  26  9.097956E+05  3.524379E+04  3.257599E+04 -1.561198E+04  1.846453E+03 -7.038158E+03
       396  27  8.701542E+05  2.558185E+04  2.393821E+04 -2.454101E+04  2.044831E+03 -4.897537E+03
       397   1  6.950131E+05 -1.723218E+04 -1.503295E+04 -2.447865E+04  1.450772E+03  3.652481E+03
       397   2  7.345136E+05 -7.600205E+03 -5.969631E+03 -1.557727E+04  9.744179E+02  1.515965E+03
       397   3  7.740797E+05  2.065843E+03  3.410393E+03 -2.445461E+04  4.979423E+02 -6.189551E+02
       397   4  7.656059E+05  2.172139E+00  6.033004E+02 -2.450445E+04 -3.461889E+02  3.652782E+03
       397   5  7.655742E+05 -7.362009E+00  9.598792E+02 -1.561511E+04 -8.212715E+02  1.516298E+03
       397   6  7.656064E+05  1.705984E+01  1.632341E+03 -2.450444E+04 -1.296446E+03 -6.185845E+02
       397   7  8.362034E+05  1.723619E+04  1.623926E+04 -2.453026E+04 -2.143352E+03  3.653084E+03
       397   8  7.966357E+05  7.585417E+03  7.889341E+03 -1.565296E+04 -2.617050E+03  1.516631E+03
       397   9  7.571332E+05 -2.031727E+03 -1.457039E+02 -2.455428E+04 -3.090810E+03 -6.182136E+02
       397  10  6.950131E+05 -1.723219E+04 -1.503298E+04 -2.447866E+04 -1.901209E-10 -1.734350E-10
       397  11  7.345136E+05 -7.600207E+03 -5.969637E+03 -1.557727E+04  5.236904E-11 -5.687871E-11
       397  12  7.740797E+05  2.065843E+03  3.410392E+03 -2.445461E+04 -1.281190E-10  1.033522E-10
       397  13  7.656059E+05  2.157773E+00  6.032751E+02 -2.450445E+04 -3.047037E-10  1.042610E-10
       397  14  7.655742E+05 -7.364659E+00  9.598736E+02 -1.561511E+04 -1.162684E-10 -1.093850E-10
       397  15  7.656064E+05  1.705898E+01  1.632337E+03 -2.450444E+04 -3.775445E-10  1.389745E-10
       397  16  8.362034E+05  1.723617E+04  1.623922E+04 -2.453025E+04 -9.455297E-11  2.352985E-11
       397  17  7.966357E+05  7.585413E+03  7.889324E+03 -1.565295E+04 -1.586333E-10  1.829266E-11
       397  18  7.571331E+05 -2.031730E+03 -1.457225E+02 -2.455428E+04  1.830981E-10 -1.034137E-11
       397  19  6.950131E+05 -1.723218E+04 -1.503295E+04 -2.447865E+04 -1.450772E+03 -3.652481E+03
       397  20  7.345136E+05 -7.600205E+03 -5.969631E+03 -1.557727E+04 -9.744179E+02 -1.515965E+03
       397  21  7.740797E+05  2.065843E+03  3.410393E+03 -2.445461E+04 -4.979423E+02  6.189551E+02
       397  22  7.656059E+05  2.172139E+00  6.033004E+02 -2.450445E+04  3.461889E+02 -3.652782E+03
       397  23  7.655742E+05 -7.362009E+00  9.598792E+02 -1.561511E+04  8.212715E+02 -1.516298E+03
       397  24  7.656064E+05  1.705984E+01  1.632341E+03 -2.450444E+04  1.296446E+03  6.185845E+02
       397  25  8.362034E+05  1.723619E+04  1.623926E+04 -2.453026E+04  2.143352E+03 -3.653084E+03
       397  26  7.966357E+05  7.585417E+03  7.889341E+03 -1.565296E+04  2.617050E+03 -1.516631E+03
       397  27  7.571332E+05 -2.031727E+03 -1.457039E+02 -2.455428E+04  3.090810E+03  6.182136E+02
       398   1  8.080618E+05  1.036350E+04  1.170383E+04 -2.439076E+04  1.641350E+02 -1.863701E+03
       398   2  8.474586E+05  1.998351E+04  2.197321E+04 -1.553281E+04 -1.680449E+03 -3.996504E+03
       398   3  8.872034E+05  3.004409E+04  3.355128E+04 -2.446905E+04 -3.524883E+03 -6.112785E+03
       398   4  7.656683E+05 -2.164323E+01  2.134011E+03 -2.450794E+04 -1.636357E+03 -1.863347E+03
       398   5  7.654946E+05 -5.179373E+01  3.686528E+03 -1.561074E+04 -3.466861E+03 -3.996247E+03
       398   6  7.656655E+05  3.565107E+02  6.538367E+03 -2.450786E+04 -5.297100E+03 -6.112619E+03
       398   7  7.232766E+05 -1.040691E+04 -7.435913E+03 -2.462511E+04 -3.436726E+03 -1.862992E+03
       398   8  6.835368E+05 -2.008755E+04 -1.460057E+04 -1.568865E+04 -5.253039E+03 -3.995989E+03
       398   9  6.441415E+05 -2.933207E+04 -2.047545E+04 -2.454666E+04 -7.068975E+03 -6.112452E+03
       398  10  8.080618E+05  1.036350E+04  1.170383E+04 -2.439076E+04 -6.327659E-11  4.199092E-11
       398  11  8.474586E+05  1.998349E+04  2.197318E+04 -1.553282E+04  8.896806E-11 -9.691147E-11
       398  12  8.872033E+05  3.004405E+04  3.355119E+04 -2.446907E+04 -1.565879E-10 -2.565124E-11
       398  13  7.656683E+05 -2.164768E+01  2.133999E+03 -2.450794E+04 -1.083737E-10 -3.776423E-11
       398  14  7.654946E+05 -5.181410E+01  3.686475E+03 -1.561075E+04  2.542697E-11 -5.235737E-11
       398  15  7.656655E+05  3.564630E+02  6.538244E+03 -2.450789E+04 -1.460360E-10  8.406996E-11
       398  16  7.232765E+05 -1.040691E+04 -7.435942E+03 -2.462512E+04 -5.401611E-11  3.906407E-11
       398  17  6.835368E+05 -2.008757E+04 -1.460065E+04 -1.568867E+04 -3.512364E-13 -5.639420E-11
       398  18  6.441414E+05 -2.933212E+04 -2.047562E+04 -2.454670E+04  1.217309E-10  2.774734E-11
       398  19  8.080618E+05  1.036350E+04  1.170383E+04 -2.439076E+04 -1.641350E+02  1.863701E+03
       398  20  8.474586E+05  1.998351E+04  2.197321E+04 -1.553281E+04  1.680449E+03  3.996504E+03
       398  21  8.872034E+05  3.004409E+04  3.355128E+04 -2.446905E+04  3.524883E+03  6.112785E+03
       398  22  7.656683E+05 -2.164323E+01  2.134011E+03 -2.450794E+04  1.636357E+03  1.863347E+03
       398  23  7.654946E+05 -5.179373E+01  3.686528E+03 -1.561074E+04  3.466861E+03  3.996247E+03
       398  24  7.656655E+05  3.565107E+02  6.538367E+03 -2.450786E+04  5.297100E+03  6.112619E+03
       398  25  7.232766E+05 -1.040691E+04 -7.435913E+03 -2.462511E+04  3.436726E+03  1.862992E+03
       398  26  6.835368E+05 -2.008755E+04 -1.460057E+04 -1.568865E+04  5.253039E+03  3.995989E+03
       398  27  6.441415E+05 -2.933207E+04 -2.047545E+04 -2.454666E+04  7.068975E+03  6.112452E+03
       399   1  9.217464E+05  3.767117E+04  4.332083E+04 -2.335299E+04 -4.724005E+03 -7.400231E+03
       399   2  9.601513E+05  4.741775E+04  5.831112E+04 -1.613320E+04 -1.247100E+04 -9.455017E+03
       399   3  1.001281E+06  6.396762E+04  8.004335E+04 -2.677487E+04 -2.021813E+04 -1.110187E+04
       399   4  7.661790E+05 -3.739893E+02  8.513437E+03 -2.452289E+04 -6.622895E+03 -7.400139E+03
       399   5  7.648423E+05 -3.279153E+02  1.470269E+04 -1.559197E+04 -1.402478E+04 -9.455186E+03
       399   6  7.661695E+05  6.462911E+03  2.739606E+04 -2.452274E+04 -2.142631E+04 -1.110227E+04
       399   7  6.106342E+05 -3.842079E+04 -2.629546E+04 -2.569249E+04 -8.521315E+03 -7.400041E+03
       399   8  5.695687E+05 -4.807617E+04 -2.890814E+04 -1.505092E+04 -1.557807E+04 -9.455357E+03
       399   9  5.311095E+05 -5.104554E+04 -2.525471E+04 -2.227147E+04 -2.263403E+04 -1.110269E+04
       399  10  9.217463E+05  3.767111E+04  4.332068E+04 -2.335302E+04 -1.330682E-11 -3.370738E-11
       399  11  9.601511E+05  4.741761E+04  5.831066E+04 -1.613329E+04 -7.038615E-15  1.017934E-10
       399  12  1.001280E+06  6.396737E+04  8.004235E+04 -2.677505E+04 -5.413772E-11  5.756915E-11
       399  13  7.661790E+05 -3.740599E+02  8.513252E+03 -2.452293E+04 -1.144544E-10  2.779405E-11
       399  14  7.648420E+05 -3.280640E+02  1.470215E+04 -1.559208E+04  3.527026E-11 -1.366839E-11
       399  15  7.661690E+05  6.462655E+03  2.739497E+04 -2.452293E+04  2.274411E-10  1.865781E-10
       399  16  6.106341E+05 -3.842087E+04 -2.629570E+04 -2.569254E+04  4.519860E-11  3.064869E-11
       399  17  5.695684E+05 -4.807633E+04 -2.890876E+04 -1.505104E+04  4.165880E-11  4.827570E-11
       399  18  5.311089E+05 -5.104581E+04 -2.525591E+04 -2.227168E+04  1.609245E-10  1.125099E-10
       399  19  9.217464E+05  3.767117E+04  4.332083E+04 -2.335299E+04  4.724005E+03  7.400231E+03
       399  20  9.601513E+05  4.741775E+04  5.831112E+04 -1.613320E+04  1.247100E+04  9.455017E+03
       399  21  1.001281E+06  6.396762E+04  8.004335E+04 -2.677487E+04  2.021813E+04  1.110187E+04
       399  22  7.661790E+05 -3.739893E+02  8.513437E+03 -2.452289E+04  6.622895E+03  7.400139E+03
       399  23  7.648423E+05 -3.279153E+02  1.470269E+04 -1.559197E+04  1.402478E+04  9.455186E+03
       399  24  7.661695E+05  6.462911E+03  2.739606E+04 -2.452274E+04  2.142631E+04  1.110227E+04
       399  25  6.106342E+05 -3.842079E+04 -2.629546E+04 -2.569249E+04  8.521315E+03  7.400041E+03
       399  26  5.695687E+05 -4.807617E+04 -2.890814E+04 -1.505092E+04  1.557807E+04  9.455357E+03
       399  27  5.311095E+05 -5.104554E+04 -2.525471E+04 -2.227147E+04  2.263403E+04  1.110269E+04
       400   1  1.041900E+06  6.034535E+04  9.436313E+04 -8.969659E+03 -2.239742E+04 -1.327001E+04
       400   2  1.066196E+06  7.284159E+04  1.277178E+05 -3.177829E+04 -6.087942E+04 -1.341427E+04
       400   3  1.122298E+06  1.924028E+05  2.128728E+05 -7.226525E+04 -9.936719E+04 -4.380300E+03
       400   4  7.723542E+05 -5.524943E+03  3.430197E+04 -2.447475E+04 -2.636694E+04 -1.327019E+04
       400   5  7.570910E+05 -2.881247E+03  5.785457E+04 -1.564999E+04 -5.711861E+04 -1.341557E+04
       400   6  7.723069E+05  1.055123E+05  1.278608E+05 -2.450102E+04 -8.787302E+04 -4.384606E+03
       400   7  5.028762E+05 -7.139925E+04 -2.576356E+04 -3.997304E+04 -3.033477E+04 -1.327017E+04
       400   8  4.480751E+05 -7.860965E+04 -1.201455E+04  4.702240E+02 -5.335964E+04 -1.341668E+04
       400   9  4.224328E+05  1.862142E+04  4.284163E+04  2.323624E+04 -7.638530E+04 -4.387149E+03
       400  10  1.041900E+06  6.034503E+04  9.436186E+04 -8.969898E+03  1.499837E-10  1.096661E-10
       400  11  1.066192E+06  7.284040E+04  1.277105E+05 -3.177895E+04 -2.359730E-10 -3.222561E-11
       400  12  1.122287E+06  1.924001E+05  2.128543E+05 -7.226560E+04 -5.245198E-11 -2.297194E-11
       400  13  7.723534E+05 -5.525319E+03  3.430033E+04 -2.447503E+04  6.748228E-11  2.652155E-10
       400  14  7.570875E+05 -2.882315E+03  5.784811E+04 -1.565060E+04 -4.909736E-11 -2.794237E-11
       400  15  7.722986E+05  1.055102E+05  1.278463E+05 -2.450133E+04  4.174435E-10 -5.238123E-11
       400  16  5.028752E+05 -7.139969E+04 -2.576561E+04 -3.997337E+04  1.026461E-10  2.096131E-10
       400  17  4.480720E+05 -7.861061E+04 -1.202024E+04  4.696475E+02  3.180129E-10  2.864828E-10
       400  18  4.224265E+05  1.861984E+04  4.283063E+04  2.323597E+04 -6.739512E-11  1.448307E-11
       400  19  1.041900E+06  6.034535E+04  9.436313E+04 -8.969659E+03  2.239742E+04  1.327001E+04
       400  20  1.066196E+06  7.284159E+04  1.277178E+05 -3.177829E+04  6.087942E+04  1.341427E+04
       400  21  1.122298E+06  1.924028E+05  2.128728E+05 -7.226525E+04  9.936719E+04  4.380300E+03
       400  22  7.723542E+05 -5.524943E+03  3.430197E+04 -2.447475E+04  2.636694E+04  1.327019E+04
       400  23  7.570910E+05 -2.881247E+03  5.785457E+04 -1.564999E+04  5.711861E+04  1.341557E+04
       400  24  7.723069E+05  1.055123E+05  1.278608E+05 -2.450102E+04  8.787302E+04  4.384606E+03
       400  25  5.028762E+05 -7.139925E+04 -2.576356E+04 -3.997304E+04  3.033477E+04  1.327017E+04
       400  26  4.480751E+05 -7.860965E+04 -1.201455E+04  4.702240E+02  5.335964E+04  1.341668E+04
       400  27  4.224328E+05  1.862142E+04  4.284163E+04  2.323624E+04  7.638530E+04  4.387149E+03
       401   1 -2.354696E+05 -9.899883E+04 -9.570285E+04 -2.090261E+04 -1.019435E+04  5.290722E+03
       401   2 -1.979668E+05 -9.288864E+04 -8.303780E+04 -1.406048E+04 -2.417165E+03  1.649474E+04
       401   3 -1.606632E+05 -8.379284E+04 -7.467870E+04 -2.353902E+04  5.363901E+03  1.686666E+04
       401   4  1.808481E+05  4.505144E+03  5.486105E+03 -2.286528E+04  3.762513E+03  5.294714E+03
       401   5  1.801628E+05 -1.581066E+02  2.476207E+03 -1.470472E+04  2.443534E+03  1.649486E+04
       401   6  1.808565E+05 -2.572848E+02  1.477583E+03 -2.286427E+04  1.128093E+03  1.686589E+04
       401   7  5.973245E+05  1.079965E+05  1.066633E+05 -2.482929E+04  1.772871E+04  5.298618E+03
       401   8  5.584253E+05  9.256261E+04  8.798111E+04 -1.534937E+04  7.307166E+03  1.649497E+04
       401   9  5.224849E+05  8.327036E+04  7.762663E+04 -2.218915E+04 -3.110021E+03  1.686510E+04
       401  10 -2.354698E+05 -9.899889E+04 -9.570310E+04 -2.090256E+04 -5.688064E-11  5.714544E-11
       401  11 -1.979669E+05 -9.288894E+04 -8.303832E+04 -1.406045E+04 -5.048146E-11  3.185716E-11
       401  12 -1.606633E+05 -8.379315E+04 -7.467929E+04 -2.353909E+04 -2.923746E-11  1.287051E-10
       401  13  1.808481E+05  4.505110E+03  5.486026E+03 -2.286530E+04  1.108641E-10 -4.337344E-12
       401  14  1.801628E+05 -1.584004E+02  2.475685E+03 -1.470476E+04 -2.442188E-11  2.204944E-10
       401  15  1.808564E+05 -2.575906E+02  1.477046E+03 -2.286429E+04 -1.107804E-11  1.103931E-10
       401  16  5.973242E+05  1.079964E+05  1.066626E+05 -2.482936E+04  1.733615E-10  2.432768E-10
       401  17  5.584252E+05  9.256231E+04  8.798050E+04 -1.534946E+04  3.385491E-10  3.853136E-11
       401  18  5.224848E+05  8.327006E+04  7.762607E+04 -2.218911E+04 -8.485445E-11 -1.927004E-10
       401  19 -2.354696E+05 -9.899883E+04 -9.570285E+04 -2.090261E+04  1.019435E+04 -5.290722E+03
       401  20 -1.979668E+05 -9.288864E+04 -8.303780E+04 -1.406048E+04  2.417165E+03 -1.649474E+04
       401  21 -1.606632E+05 -8.379284E+04 -7.467870E+04 -2.353902E+04 -5.363901E+03 -1.686666E+04
       401  22  1.808481E+05  4.505144E+03  5.486105E+03 -2.286528E+04 -3.762513E+03 -5.294714E+03
       401  23  1.801628E+05 -1.581066E+02  2.476207E+03 -1.470472E+04 -2.443534E+03 -1.649486E+04
       401  24  1.808565E+05 -2.572848E+02  1.477583E+03 -2.286427E+04 -1.128093E+03 -1.686589E+04
       401  25  5.973245E+05  1.079965E+05  1.066633E+05 -2.482929E+04 -1.772871E+04 -5.298618E+03
       401  26  5.584253E+05  9.256261E+04  8.798111E+04 -1.534937E+04 -7.307166E+03 -1.649497E+04
       401  27  5.224849E+05  8.327036E+04  7.762663E+04 -2.218915E+04  3.110021E+03 -1.686510E+04
       402   1 -1.287493E+05 -7.547304E+04 -6.815623E+04 -2.284916E+04  1.900812E+03  1.461908E+04
       402   2 -9.159326E+04 -6.660698E+04 -6.016539E+04 -1.454696E+04  1.987126E+03  1.320166E+04
       402   3 -5.436350E+04 -5.751361E+04 -5.216785E+04 -2.296078E+04  2.072723E+03  1.129847E+04
       402   4  1.805865E+05  2.607995E+02  1.181675E+03 -2.295238E+04  9.146817E+02  1.461860E+04
       402   5  1.805181E+05 -2.563635E+01  6.400738E+02 -1.459462E+04  5.928617E+02  1.320143E+04
       402   6  1.805923E+05 -1.402326E+01  3.884304E+02 -2.295241E+04  2.703131E+02  1.129860E+04
       402   7  4.900114E+05  7.598811E+04  7.051353E+04 -2.305566E+04 -7.193460E+01  1.461812E+04
       402   8  4.526984E+05  6.655067E+04  6.144088E+04 -1.464229E+04 -8.020073E+02  1.320120E+04
       402   9  4.155995E+05  5.748181E+04  5.294124E+04 -2.294404E+04 -1.532772E+03  1.129872E+04
       402  10 -1.287494E+05 -7.547327E+04 -6.815663E+04 -2.284918E+04 -9.146980E-11  1.478779E-10
       402  11 -9.159331E+04 -6.660717E+04 -6.016572E+04 -1.454698E+04  3.251164E-10  3.058203E-11
       402  12 -5.436354E+04 -5.751375E+04 -5.216810E+04 -2.296080E+04 -2.047291E-11  7.362475E-11
       402  13  1.805864E+05  2.605698E+02  1.181272E+03 -2.295239E+04 -9.604414E-11  8.026293E-11
       402  14  1.805180E+05 -2.582360E+01  6.397456E+02 -1.459462E+04  1.485298E-10 -7.910146E-11
       402  15  1.805923E+05 -1.416037E+01  3.881904E+02 -2.295242E+04 -3.087485E-10  1.068954E-10
       402  16  4.900114E+05  7.598788E+04  7.051312E+04 -2.305566E+04  1.470885E-10 -7.603454E-11
       402  17  4.526984E+05  6.655049E+04  6.144055E+04 -1.464228E+04 -2.020999E-11  5.510774E-11
       402  18  4.155995E+05  5.748167E+04  5.294100E+04 -2.294402E+04  1.620879E-10  6.169760E-11
       402  19 -1.287493E+05 -7.547304E+04 -6.815623E+04 -2.284916E+04 -1.900812E+03 -1.461908E+04
       402  20 -9.159326E+04 -6.660698E+04 -6.016539E+04 -1.454696E+04 -1.987126E+03 -1.320166E+04
       402  21 -5.436350E+04 -5.751361E+04 -5.216785E+04 -2.296078E+04 -2.072723E+03 -1.129847E+04
       402  22  1.805865E+05  2.607995E+02  1.181675E+03 -2.295238E+04 -9.146817E+02 -1.461860E+04
       402  23  1.805181E+05 -2.563635E+01  6.400738E+02 -1.459462E+04 -5.928617E+02 -1.320143E+04
       402  24  1.805923E+05 -1.402326E+01  3.884304E+02 -2.295241E+04 -2.703131E+02 -1.129860E+04
       402  25  4.900114E+05  7.598811E+04  7.051353E+04 -2.305566E+04  7.193460E+01 -1.461812E+04
       402  26  4.526984E+05  6.655067E+04  6.144088E+04 -1.464229E+04  8.020073E+02 -1.320120E+04
       402  27  4.155995E+05  5.748181E+04  5.294124E+04 -2.294404E+04  1.532772E+03 -1.129872E+04
       403   1 -2.248764E+04 -4.963921E+04 -4.493708E+04 -2.290939E+04  1.863653E+03  1.008090E+04
       403   2  1.462345E+04 -4.059313E+04 -3.684187E+04 -1.456010E+04  1.777736E+03  8.099789E+03
       403   3  5.175233E+04 -3.152029E+04 -2.868444E+04 -2.291186E+04  1.691352E+03  6.097756E+03
       403   4  1.805682E+05  1.808759E+01  3.095559E+02 -2.294912E+04  2.083831E+02  1.008113E+04
       403   5  1.805602E+05  8.703847E-01  2.081887E+02 -1.459873E+04  1.048179E+02  8.100200E+03
       403   6  1.805717E+05  1.355740E+01  1.813235E+02 -2.294912E+04  7.893811E-01  6.098351E+03
       403   7  3.836625E+05  4.967258E+04  4.555362E+04 -2.298885E+04 -1.447422E+03  1.008137E+04
       403   8  3.465226E+05  4.059300E+04  3.725652E+04 -1.463736E+04 -1.568543E+03  8.100611E+03
       403   9  3.094065E+05  3.154628E+04  2.904604E+04 -2.298638E+04 -1.690120E+03  6.098946E+03
       403  10 -2.248767E+04 -4.963932E+04 -4.493728E+04 -2.290941E+04  1.331153E-10 -4.000815E-12
       403  11  1.462343E+04 -4.059320E+04 -3.684200E+04 -1.456012E+04  8.629867E-11 -4.976084E-11
       403  12  5.175232E+04 -3.152033E+04 -2.868451E+04 -2.291187E+04 -1.454698E-10 -3.176128E-10
       403  13  1.805682E+05  1.797844E+01  3.093648E+02 -2.294912E+04 -1.460332E-10  4.524434E-12
       403  14  1.805602E+05  7.999186E-01  2.080653E+02 -1.459873E+04 -7.795463E-11  3.276891E-10
       403  15  1.805717E+05  1.351746E+01  1.812536E+02 -2.294912E+04 -7.378099E-10  1.912320E-10
       403  16  3.836624E+05  4.967248E+04  4.555343E+04 -2.298884E+04 -3.442156E-11  1.810508E-11
       403  17  3.465225E+05  4.059293E+04  3.725640E+04 -1.463735E+04 -2.477421E-10 -1.216553E-10
       403  18  3.094065E+05  3.154624E+04  2.904597E+04 -2.298637E+04  1.475175E-11 -6.991244E-11
       403  19 -2.248764E+04 -4.963921E+04 -4.493708E+04 -2.290939E+04 -1.863653E+03 -1.008090E+04
       403  20  1.462345E+04 -4.059313E+04 -3.684187E+04 -1.456010E+04 -1.777736E+03 -8.099789E+03
       403  21  5.175233E+04 -3.152029E+04 -2.868444E+04 -2.291186E+04 -1.691352E+03 -6.097756E+03
       403  22  1.805682E+05  1.808759E+01  3.095559E+02 -2.294912E+04 -2.083831E+02 -1.008113E+04
       403  23  1.805602E+05  8.703847E-01  2.081887E+02 -1.459873E+04 -1.048179E+02 -8.100200E+03
       403  24  1.805717E+05  1.355740E+01  1.813235E+02 -2.294912E+04 -7.893811E-01 -6.098351E+03
       403  25  3.836625E+05  4.967258E+04  4.555362E+04 -2.298885E+04  1.447422E+03 -1.008137E+04
       403  26  3.465226E+05  4.059300E+04  3.725652E+04 -1.463736E+04  1.568543E+03 -8.100611E+03
       403  27  3.094065E+05  3.154628E+04  2.904604E+04 -2.298638E+04  1.690120E+03 -6.098946E+03
       404   1  8.359697E+04 -2.368484E+04 -2.135676E+04 -2.291379E+04  1.650378E+03  4.928136E+03
       404   2  1.206799E+05 -1.464106E+04 -1.312452E+04 -1.457672E+04  1.528739E+03  2.923948E+03
       404   3  1.577678E+05 -5.581341E+03 -4.812980E+03 -2.292412E+04  1.406929E+03  9.191707E+02
       404   4  1.805700E+05  1.585994E+01  1.875546E+02 -2.294547E+04 -3.314075E+01  4.928803E+03
       404   5  1.805685E+05  8.733657E+00  2.457298E+02 -1.460329E+04 -1.553193E+02  2.924676E+03
       404   6  1.805712E+05  1.785942E+01  3.837714E+02 -2.294547E+04 -2.776619E+02  9.199642E+02
       404   7  2.775518E+05  2.371593E+04  2.173129E+04 -2.297716E+04 -1.716920E+03  4.929470E+03
       404   8  2.404603E+05  1.465828E+04  1.361576E+04 -1.462985E+04 -1.839538E+03  2.925403E+03
       404   9  2.033752E+05  5.617025E+03  5.580500E+03 -2.296682E+04 -1.962314E+03  9.207578E+02
       404  10  8.359696E+04 -2.368487E+04 -2.135681E+04 -2.291379E+04  7.468599E-11 -1.296493E-10
       404  11  1.206799E+05 -1.464107E+04 -1.312454E+04 -1.457672E+04  2.284770E-10 -3.741236E-11
       404  12  1.577678E+05 -5.581342E+03 -4.812986E+03 -2.292412E+04 -5.835249E-11 -2.425091E-11
       404  13  1.805700E+05  1.583385E+01  1.875090E+02 -2.294547E+04 -1.826183E-10 -3.755133E-10
       404  14  1.805685E+05  8.724464E+00  2.457137E+02 -1.460328E+04 -5.224024E-10  6.713865E-11
       404  15  1.805712E+05  1.785849E+01  3.837697E+02 -2.294547E+04 -8.644299E-10 -1.486744E-10
       404  16  2.775518E+05  2.371590E+04  2.173124E+04 -2.297716E+04 -2.444030E-10  5.037254E-11
       404  17  2.404603E+05  1.465827E+04  1.361574E+04 -1.462985E+04 -4.958822E-10 -7.704165E-11
       404  18  2.033752E+05  5.617023E+03  5.580491E+03 -2.296682E+04  2.021466E-10 -3.140924E-10
       404  19  8.359697E+04 -2.368484E+04 -2.135676E+04 -2.291379E+04 -1.650378E+03 -4.928136E+03
       404  20  1.206799E+05 -1.464106E+04 -1.312452E+04 -1.457672E+04 -1.528739E+03 -2.923948E+03
       404  21  1.577678E+05 -5.581341E+03 -4.812980E+03 -2.292412E+04 -1.406929E+03 -9.191707E+02
       404  22  1.805700E+05  1.585994E+01  1.875546E+02 -2.294547E+04  3.314075E+01 -4.928803E+03
       404  23  1.805685E+05  8.733657E+00  2.457298E+02 -1.460329E+04  1.553193E+02 -2.924676E+03
       404  24  1.805712E+05  1.785942E+01  3.837714E+02 -2.294547E+04  2.776619E+02 -9.199642E+02
       404  25  2.775518E+05  2.371593E+04  2.173129E+04 -2.297716E+04  1.716920E+03 -4.929470E+03
       404  26  2.404603E+05  1.465828E+04  1.361576E+04 -1.462985E+04  1.839538E+03 -2.925403E+03
       404  27  2.033752E+05  5.617025E+03  5.580500E+03 -2.296682E+04  1.962314E+03 -9.207578E+02
       405   1  1.896105E+05  2.247327E+03  2.615252E+03 -2.293129E+04  1.326772E+03 -2.477629E+02
       405   2  2.266715E+05  1.128102E+04  1.113321E+04 -1.458662E+04  9.106135E+02 -2.252226E+03
       405   3  2.637819E+05  2.035444E+04  1.992802E+04 -2.292537E+04  4.945524E+02 -4.256041E+03
       405   4  1.805809E+05  1.743749E+01  4.934667E+02 -2.294528E+04 -3.578138E+02 -2.469648E+02
       405   5  1.805567E+05  1.282438E+00  8.386232E+02 -1.460353E+04 -7.734559E+02 -2.251479E+03
       405   6  1.805799E+05  2.471553E+01  1.460201E+03 -2.294527E+04 -1.188977E+03 -4.255341E+03
       405   7  1.715514E+05 -2.212456E+03 -1.628314E+03 -2.295927E+04 -2.042375E+03 -2.461667E+02
       405   8  1.344438E+05 -1.127860E+04 -9.456088E+03 -1.462043E+04 -2.457402E+03 -2.250733E+03
       405   9  9.738440E+04 -2.030548E+04 -1.700804E+04 -2.296517E+04 -2.872283E+03 -4.254641E+03
       405  10  1.896105E+05  2.247326E+03  2.615248E+03 -2.293129E+04  1.469401E-10  2.736317E-10
       405  11  2.266715E+05  1.128102E+04  1.113320E+04 -1.458662E+04  1.388269E-10  5.185290E-10
       405  12  2.637819E+05  2.035442E+04  1.992799E+04 -2.292536E+04  2.454347E-10 -3.463033E-10
       405  13  1.805809E+05  1.743739E+01  4.934663E+02 -2.294528E+04 -3.612708E-10  1.275039E-11
       405  14  1.805567E+05  1.276833E+00  8.386125E+02 -1.460353E+04 -3.749836E-10 -3.474471E-10
       405  15  1.805799E+05  2.469571E+01  1.460164E+03 -2.294527E+04 -8.287127E-10  8.652409E-11
       405  16  1.715514E+05 -2.212457E+03 -1.628321E+03 -2.295927E+04 -2.938435E-10  7.692714E-12
       405  17  1.344438E+05 -1.127861E+04 -9.456109E+03 -1.462044E+04 -6.309339E-10 -2.746921E-10
       405  18  9.738439E+04 -2.030550E+04 -1.700809E+04 -2.296518E+04 -3.786013E-10  8.130658E-11
       405  19  1.896105E+05  2.247327E+03  2.615252E+03 -2.293129E+04 -1.326772E+03  2.477629E+02
       405  20  2.266715E+05  1.128102E+04  1.113321E+04 -1.458662E+04 -9.106135E+02  2.252226E+03
       405  21  2.637819E+05  2.035444E+04  1.992802E+04 -2.292537E+04 -4.945524E+02  4.256041E+03
       405  22  1.805809E+05  1.743749E+01  4.934667E+02 -2.294528E+04  3.578138E+02  2.469648E+02
       405  23  1.805567E+05  1.282438E+00  8.386232E+02 -1.460353E+04  7.734559E+02  2.251479E+03
       405  24  1.805799E+05  2.471553E+01  1.460201E+03 -2.294527E+04  1.188977E+03  4.255341E+03
       405  25  1.715514E+05 -2.212456E+03 -1.628314E+03 -2.295927E+04  2.042375E+03  2.461667E+02
       405  26  1.344438E+05 -1.127860E+04 -9.456088E+03 -1.462043E+04  2.457402E+03  2.250733E+03
       405  27  9.738440E+04 -2.030548E+04 -1.700804E+04 -2.296517E+04  2.872283E+03  4.254641E+03
       406   1  2.956881E+05  2.815094E+04  2.770708E+04 -2.287197E+04  1.962873E+02 -5.425216E+03
       406   2  3.326504E+05  3.717467E+04  3.729971E+04 -1.455962E+04 -1.474514E+03 -7.426213E+03
       406   3  3.699294E+05  4.660651E+04  4.808038E+04 -2.294477E+04 -3.144992E+03 -9.406987E+03
       406   4  1.806373E+05 -1.047552E+01  1.919111E+03 -2.294848E+04 -1.494048E+03 -5.424579E+03
       406   5  1.804794E+05 -4.456623E+01  3.329701E+03 -1.459954E+04 -3.147532E+03 -7.425745E+03
       406   6  1.806339E+05  3.266335E+02  5.916620E+03 -2.294834E+04 -4.800594E+03 -9.406681E+03
       406   7  6.559889E+04 -2.817279E+04 -2.386968E+04 -2.302496E+04 -3.184074E+03 -5.423941E+03
       406   8  2.832993E+04 -3.726537E+04 -3.064175E+04 -1.463944E+04 -4.820144E+03 -7.425277E+03
       406   9 -8.628133E+03 -4.595567E+04 -3.624937E+04 -2.295191E+04 -6.455698E+03 -9.406375E+03
       406  10  2.956881E+05  2.815091E+04  2.770702E+04 -2.287197E+04  1.690725E-10 -3.833767E-10
       406  11  3.326504E+05  3.717461E+04  3.729960E+04 -1.455963E+04  2.530521E-10  9.899747E-12
       406  12  3.699293E+05  4.660641E+04  4.808019E+04 -2.294479E+04 -1.284056E-10  1.828743E-10
       406  13  1.806373E+05 -1.050772E+01  1.919051E+03 -2.294848E+04 -6.443461E-10  8.437022E-11
       406  14  1.804794E+05 -4.462811E+01  3.329579E+03 -1.459955E+04 -4.129816E-10 -2.587822E-10
       406  15  1.806339E+05  3.265323E+02  5.916410E+03 -2.294838E+04 -2.904740E-10 -1.263749E-11
       406  16  6.559887E+04 -2.817282E+04 -2.386976E+04 -2.302498E+04 -5.671912E-10  1.336686E-10
       406  17  2.832989E+04 -3.726544E+04 -3.064189E+04 -1.463947E+04 -5.167677E-10  2.548343E-10
       406  18 -8.628202E+03 -4.595578E+04 -3.624962E+04 -2.295196E+04  3.026743E-10  1.513235E-10
       406  19  2.956881E+05  2.815094E+04  2.770708E+04 -2.287197E+04 -1.962873E+02  5.425216E+03
       406  20  3.326504E+05  3.717467E+04  3.729971E+04 -1.455962E+04  1.474514E+03  7.426213E+03
       406  21  3.699294E+05  4.660651E+04  4.808038E+04 -2.294477E+04  3.144992E+03  9.406987E+03
       406  22  1.806373E+05 -1.047552E+01  1.919111E+03 -2.294848E+04  1.494048E+03  5.424579E+03
       406  23  1.804794E+05 -4.456623E+01  3.329701E+03 -1.459954E+04  3.147532E+03  7.425745E+03
       406  24  1.806339E+05  3.266335E+02  5.916620E+03 -2.294834E+04  4.800594E+03  9.406681E+03
       406  25  6.559889E+04 -2.817279E+04 -2.386968E+04 -2.302496E+04  3.184074E+03  5.423941E+03
       406  26  2.832993E+04 -3.726537E+04 -3.064175E+04 -1.463944E+04  4.820144E+03  7.425277E+03
       406  27 -8.628133E+03 -4.595567E+04 -3.624937E+04 -2.295191E+04  6.455698E+03  9.406375E+03
       407   1  4.023003E+05  5.378303E+04  5.717832E+04 -2.192386E+04 -4.202240E+03 -1.062232E+04
       407   2  4.382465E+05  6.289690E+04  7.102847E+04 -1.511287E+04 -1.130060E+04 -1.252690E+04
       407   3  4.766854E+05  7.819891E+04  9.104910E+04 -2.501251E+04 -1.839862E+04 -1.396233E+04
       407   4  1.811003E+05 -3.357911E+02  7.706933E+03 -2.295160E+04 -6.000020E+03 -1.062211E+04
       407   5  1.798848E+05 -3.003428E+02  1.331323E+04 -1.459565E+04 -1.270158E+04 -1.252705E+04
       407   6  1.810938E+05  5.856230E+03  2.481667E+04 -2.295069E+04 -1.940239E+04 -1.396279E+04
       407   7 -4.005423E+04 -5.445794E+04 -4.176752E+04 -2.397898E+04 -7.797166E+03 -1.062189E+04
       407   8 -7.841471E+04 -6.350212E+04 -4.440621E+04 -1.407865E+04 -1.410199E+04 -1.252721E+04
       407   9 -1.144164E+05 -6.649240E+04 -4.142127E+04 -2.088985E+04 -2.040569E+04 -1.396325E+04
       407  10  4.023002E+05  5.378291E+04  5.717807E+04 -2.192389E+04  3.012851E-10  2.291798E-10
       407  11  4.382463E+05  6.289669E+04  7.102793E+04 -1.511298E+04  3.253852E-10 -1.858112E-10
       407  12  4.766850E+05  7.819861E+04  9.104810E+04 -2.501271E+04 -6.438783E-10 -3.955214E-11
       407  13  1.811002E+05 -3.359220E+02  7.706653E+03 -2.295166E+04 -1.189601E-10  2.589187E-10
       407  14  1.798846E+05 -3.005546E+02  1.331263E+04 -1.459578E+04 -1.369161E-10  1.906691E-10
       407  15  1.810934E+05  5.855919E+03  2.481560E+04 -2.295090E+04 -5.340129E-12 -1.366553E-12
       407  16 -4.005432E+04 -5.445808E+04 -4.176785E+04 -2.397904E+04 -2.761498E-10  2.084621E-10
       407  17 -7.841497E+04 -6.350234E+04 -4.440687E+04 -1.407879E+04 -1.195072E-10  1.722710E-12
       407  18 -1.144169E+05 -6.649272E+04 -4.142242E+04 -2.089008E+04  3.762161E-10  3.693292E-12
       407  19  4.023003E+05  5.378303E+04  5.717832E+04 -2.192386E+04  4.202240E+03  1.062232E+04
       407  20  4.382465E+05  6.289690E+04  7.102847E+04 -1.511287E+04  1.130060E+04  1.252690E+04
       407  21  4.766854E+05  7.819891E+04  9.104910E+04 -2.501251E+04  1.839862E+04  1.396233E+04
       407  22  1.811003E+05 -3.357911E+02  7.706933E+03 -2.295160E+04  6.000020E+03  1.062211E+04
       407  23  1.798848E+05 -3.003428E+02  1.331323E+04 -1.459565E+04  1.270158E+04  1.252705E+04
       407  24  1.810938E+05  5.856230E+03  2.481667E+04 -2.295069E+04  1.940239E+04  1.396279E+04
       407  25 -4.005423E+04 -5.445794E+04 -4.176752E+04 -2.397898E+04  7.797166E+03  1.062189E+04
       407  26 -7.841471E+04 -6.350212E+04 -4.440621E+04 -1.407865E+04  1.410199E+04  1.252721E+04
       407  27 -1.144164E+05 -6.649240E+04 -4.142127E+04 -2.088985E+04  2.040569E+04  1.396325E+04
       408   1  5.144666E+05  7.513083E+04  1.041364E+05 -8.839778E+03 -1.972838E+04 -1.617511E+04
       408   2  5.372845E+05  8.670136E+04  1.347940E+05 -2.931411E+04 -5.639741E+04 -1.588452E+04
       408   3  5.892661E+05  1.956239E+05  2.136624E+05 -6.613933E+04 -9.307246E+04 -5.121049E+03
       408   4  1.866961E+05 -5.009600E+03  3.107414E+04 -2.286662E+04 -2.387625E+04 -1.617522E+04
       408   5  1.728646E+05 -2.624964E+03  5.241294E+04 -1.470067E+04 -5.173005E+04 -1.588593E+04
       408   6  1.866810E+05  9.560983E+04  1.158599E+05 -2.288318E+04 -7.958697E+04 -5.124382E+03
       408   7 -1.409738E+05 -8.515657E+04 -4.199463E+04 -3.688597E+04 -2.802196E+04 -1.617514E+04
       408   8 -1.914315E+05 -9.195960E+04 -2.997643E+04 -9.587508E+01 -4.706540E+04 -1.588712E+04
       408   9 -2.157519E+05 -4.409039E+03  1.804744E+04  2.034486E+04 -6.611018E+04 -5.125840E+03
       408  10  5.144661E+05  7.513045E+04  1.041351E+05 -8.840035E+03 -1.150806E-10 -1.831961E-12
       408  11  5.372810E+05  8.670024E+04  1.347875E+05 -2.931483E+04 -1.516506E-10 -6.249699E-11
       408  12  5.892568E+05  1.956216E+05  2.136461E+05 -6.613972E+04 -6.552751E-11 -9.265636E-11
       408  13  1.866954E+05 -5.010034E+03  3.107258E+04 -2.286693E+04 -1.981159E-10  4.724419E-11
       408  14  1.728616E+05 -2.625953E+03  5.240743E+04 -1.470133E+04  1.074144E-10  2.050144E-10
       408  15  1.866741E+05  9.560810E+04  1.158480E+05 -2.288351E+04  3.187803E-10 -4.658450E-11
       408  16 -1.409747E+05 -8.515706E+04 -4.199660E+04 -3.688634E+04  3.127366E-10 -1.670327E-11
       408  17 -1.914339E+05 -9.196047E+04 -2.998107E+04 -9.647736E+01  3.473734E-10 -3.706006E-11
       408  18 -2.157566E+05 -4.410241E+03  1.803917E+04  2.034459E+04  1.909190E-11 -1.249188E-10
       408  19  5.144666E+05  7.513083E+04  1.041364E+05 -8.839778E+03  1.972838E+04  1.617511E+04
       408  20  5.372845E+05  8.670136E+04  1.347940E+05 -2.931411E+04  5.639741E+04  1.588452E+04
       408  21  5.892661E+05  1.956239E+05  2.136624E+05 -6.613933E+04  9.307246E+04  5.121049E+03
       408  22  1.866961E+05 -5.009600E+03  3.107414E+04 -2.286662E+04  2.387625E+04  1.617522E+04
       408  23  1.728646E+05 -2.624964E+03  5.241294E+04 -1.470067E+04  5.173005E+04  1.588593E+04
       408  24  1.866810E+05  9.560983E+04  1.158599E+05 -2.288318E+04  7.958697E+04  5.124382E+03
       408  25 -1.409738E+05 -8.515657E+04 -4.199463E+04 -3.688597E+04  2.802196E+04  1.617514E+04
       408  26 -1.914315E+05 -9.195960E+04 -2.997643E+04 -9.587508E+01  4.706540E+04  1.588712E+04
       408  27 -2.157519E+05 -4.409039E+03  1.804744E+04  2.034486E+04  6.611018E+04  5.125840E+03
       409   1 -1.278789E+06 -1.806825E+05 -1.996287E+05 -6.678435E+04 -9.272021E+04  4.125446E+03
       409   2 -1.227977E+06 -6.942928E+04 -1.204330E+05 -2.941482E+04 -5.678979E+04  1.277263E+04
       409   3 -1.206809E+06 -5.811638E+04 -8.964109E+04 -7.813628E+03 -2.085460E+04  1.273885E+04
       409   4 -9.486188E+05 -9.845985E+04 -1.192408E+05 -2.220153E+04 -8.185785E+04  4.121455E+03
       409   5 -9.344091E+05  2.660367E+03 -5.393773E+04 -1.432629E+04 -5.319647E+04  1.277139E+04
       409   6 -9.485662E+05  5.127052E+03 -3.196842E+04 -2.222154E+04 -2.453287E+04  1.273878E+04
       409   7 -6.183445E+05 -1.623774E+04 -3.885927E+04  2.240509E+04 -7.098971E+04  4.119030E+03
       409   8 -6.407602E+05  7.474493E+04  1.255211E+04  7.694411E+02 -4.960147E+04  1.277033E+04
       409   9 -6.902610E+05  6.836673E+04  2.570022E+04 -3.663551E+04 -2.821267E+04  1.273889E+04
       409  10 -1.278798E+06 -1.806848E+05 -1.996449E+05 -6.678404E+04  2.989723E-11 -6.111450E-12
       409  11 -1.227981E+06 -6.943032E+04 -1.204393E+05 -2.941423E+04  5.075106E-10 -9.179369E-11
       409  12 -1.206809E+06 -5.811667E+04 -8.964222E+04 -7.813414E+03 -1.378477E-10  2.227074E-10
       409  13 -9.486261E+05 -9.846167E+04 -1.192534E+05 -2.220126E+04  3.626391E-10 -7.208112E-11
       409  14 -9.344122E+05  2.659430E+03 -5.394336E+04 -1.432575E+04  4.785230E-10 -3.789211E-10
       409  15 -9.485669E+05  5.126716E+03 -3.196986E+04 -2.222129E+04  2.226511E-10  5.246180E-11
       409  16 -6.183499E+05 -1.623912E+04 -3.886878E+04  2.240533E+04  1.094034E-10 -1.486937E-10
       409  17 -6.407629E+05  7.474409E+04  1.254718E+04  7.699513E+02  2.862574E-10 -3.127337E-10
       409  18 -6.902619E+05  6.836634E+04  2.569842E+04 -3.663522E+04  3.850063E-10  5.705157E-11
       409  19 -1.278789E+06 -1.806825E+05 -1.996287E+05 -6.678435E+04  9.272021E+04 -4.125446E+03
       409  20 -1.227977E+06 -6.942928E+04 -1.204330E+05 -2.941482E+04  5.678979E+04 -1.277263E+04
       409  21 -1.206809E+06 -5.811638E+04 -8.964109E+04 -7.813628E+03  2.085460E+04 -1.273885E+04
       409  22 -9.486188E+05 -9.845985E+04 -1.192408E+05 -2.220153E+04  8.185785E+04 -4.121455E+03
       409  23 -9.344091E+05  2.660367E+03 -5.393773E+04 -1.432629E+04  5.319647E+04 -1.277139E+04
       409  24 -9.485662E+05  5.127052E+03 -3.196842E+04 -2.222154E+04  2.453287E+04 -1.273878E+04
       409  25 -6.183445E+05 -1.623774E+04 -3.885927E+04  2.240509E+04  7.098971E+04 -4.119030E+03
       409  26 -6.407602E+05  7.474493E+04  1.255211E+04  7.694411E+02  4.960147E+04 -1.277033E+04
       409  27 -6.902610E+05  6.836673E+04  2.570022E+04 -3.663551E+04  2.821267E+04 -1.273889E+04
       410   1 -1.169842E+06 -6.170758E+04 -7.648590E+04 -2.444904E+04 -1.885161E+04  1.074044E+04
       410   2 -1.132275E+06 -4.642291E+04 -5.636994E+04 -1.467183E+04 -1.162741E+04  9.254457E+03
       410   3 -1.097226E+06 -3.749060E+04 -4.254892E+04 -2.122272E+04 -4.403330E+03  7.371920E+03
       410   4 -9.428141E+05 -6.057374E+03 -2.553392E+04 -2.234050E+04 -1.993639E+04  1.074010E+04
       410   5 -9.415795E+05  2.946345E+02 -1.370042E+04 -1.417640E+04 -1.304253E+04  9.254339E+03
       410   6 -9.428042E+05  3.532423E+02 -7.930151E+03 -2.234015E+04 -6.149204E+03  7.372047E+03
       410   7 -7.157376E+05  4.958932E+04  2.541479E+04 -2.023118E+04 -2.102155E+04  1.073975E+04
       410   8 -7.508496E+05  4.700970E+04  2.896682E+04 -1.368082E+04 -1.445808E+04  9.254219E+03
       410   9 -7.883605E+05  3.819546E+04  2.668712E+04 -2.345787E+04 -7.895508E+03  7.372181E+03
       410  10 -1.169843E+06 -6.170780E+04 -7.648678E+04 -2.444888E+04  3.139598E-10  2.783187E-10
       410  11 -1.132276E+06 -4.642303E+04 -5.637035E+04 -1.467175E+04 -7.870272E-11  1.079487E-10
       410  12 -1.097226E+06 -3.749066E+04 -4.254906E+04 -2.122269E+04  1.377607E-10  4.359760E-11
       410  13 -9.428145E+05 -6.057605E+03 -2.553488E+04 -2.234033E+04  7.768135E-11  1.872463E-10
       410  14 -9.415797E+05  2.944968E+02 -1.370090E+04 -1.417631E+04  1.162039E-10  5.367139E-11
       410  15 -9.428043E+05  3.531738E+02 -7.930324E+03 -2.234011E+04  2.092151E-10 -2.717078E-11
       410  16 -7.157381E+05  4.958908E+04  2.541375E+04 -2.023099E+04 -2.122304E-10  1.570008E-10
       410  17 -7.508499E+05  4.700955E+04  2.896626E+04 -1.368071E+04  2.621279E-10  9.598637E-11
       410  18 -7.883606E+05  3.819539E+04  2.668690E+04 -2.345782E+04  6.762743E-11  6.008138E-12
       410  19 -1.169842E+06 -6.170758E+04 -7.648590E+04 -2.444904E+04  1.885161E+04 -1.074044E+04
       410  20 -1.132275E+06 -4.642291E+04 -5.636994E+04 -1.467183E+04  1.162741E+04 -9.254457E+03
       410  21 -1.097226E+06 -3.749060E+04 -4.254892E+04 -2.122272E+04  4.403330E+03 -7.371920E+03
       410  22 -9.428141E+05 -6.057374E+03 -2.553392E+04 -2.234050E+04  1.993639E+04 -1.074010E+04
       410  23 -9.415795E+05  2.946345E+02 -1.370042E+04 -1.417640E+04  1.304253E+04 -9.254339E+03
       410  24 -9.428042E+05  3.532423E+02 -7.930151E+03 -2.234015E+04  6.149204E+03 -7.372047E+03
       410  25 -7.157376E+05  4.958932E+04  2.541479E+04 -2.023118E+04  2.102155E+04 -1.073975E+04
       410  26 -7.508496E+05  4.700970E+04  2.896682E+04 -1.368082E+04  1.445808E+04 -9.254219E+03
       410  27 -7.883605E+05  3.819546E+04  2.668712E+04 -2.345787E+04  7.895508E+03 -7.372181E+03
       411   1 -1.065427E+06 -3.046145E+04 -3.352135E+04 -2.230803E+04 -3.284067E+03  6.184637E+03
       411   2 -1.028723E+06 -2.114591E+04 -2.279276E+04 -1.404976E+04 -1.560071E+03  4.229283E+03
       411   3 -9.923471E+05 -1.223431E+04 -1.328992E+04 -2.224459E+04  1.638156E+02  2.253670E+03
       411   4 -9.423286E+05 -3.283347E+02 -6.093676E+03 -2.236808E+04 -4.916290E+03  6.184831E+03
       411   5 -9.421638E+05  5.542106E+01 -3.441588E+03 -1.414156E+04 -3.209026E+03  4.229567E+03
       411   6 -9.423257E+05  3.817920E+01 -2.003462E+03 -2.236799E+04 -1.501971E+03  2.254051E+03
       411   7 -8.192156E+05  2.980375E+04  2.133306E+04 -2.242814E+04 -6.548833E+03  6.185026E+03
       411   8 -8.555973E+05  2.125624E+04  1.590912E+04 -1.423337E+04 -4.858208E+03  4.229852E+03
       411   9 -8.923019E+05  1.231050E+04  9.282843E+03 -2.249141E+04 -3.167890E+03  2.254432E+03
       411  10 -1.065427E+06 -3.046149E+04 -3.352144E+04 -2.230801E+04 -4.874740E-10 -1.084909E-10
       411  11 -1.028723E+06 -2.114593E+04 -2.279280E+04 -1.404975E+04  8.995517E-11 -1.444882E-10
       411  12 -9.923471E+05 -1.223432E+04 -1.328993E+04 -2.224459E+04  3.211178E-10  8.173976E-11
       411  13 -9.423286E+05 -3.283823E+02 -6.093794E+03 -2.236805E+04 -1.722623E-10 -5.079303E-11
       411  14 -9.421638E+05  5.539909E+01 -3.441641E+03 -1.414155E+04 -2.583757E-10 -9.932315E-11
       411  15 -9.423257E+05  3.817314E+01 -2.003476E+03 -2.236799E+04 -3.778058E-10 -1.925221E-10
       411  16 -8.192157E+05  2.980370E+04  2.133290E+04 -2.242811E+04  2.464853E-10 -2.526988E-11
       411  17 -8.555974E+05  2.125622E+04  1.590904E+04 -1.423335E+04 -2.161708E-10 -2.344721E-11
       411  18 -8.923019E+05  1.231049E+04  9.282815E+03 -2.249140E+04  6.534178E-11  1.288738E-10
       411  19 -1.065427E+06 -3.046145E+04 -3.352135E+04 -2.230803E+04  3.284067E+03 -6.184637E+03
       411  20 -1.028723E+06 -2.114591E+04 -2.279276E+04 -1.404976E+04  1.560071E+03 -4.229283E+03
       411  21 -9.923471E+05 -1.223431E+04 -1.328992E+04 -2.224459E+04 -1.638156E+02 -2.253670E+03
       411  22 -9.423286E+05 -3.283347E+02 -6.093676E+03 -2.236808E+04  4.916290E+03 -6.184831E+03
       411  23 -9.421638E+05  5.542106E+01 -3.441588E+03 -1.414156E+04  3.209026E+03 -4.229567E+03
       411  24 -9.423257E+05  3.817920E+01 -2.003462E+03 -2.236799E+04  1.501971E+03 -2.254051E+03
       411  25 -8.192156E+05  2.980375E+04  2.133306E+04 -2.242814E+04  6.548833E+03 -6.185026E+03
       411  26 -8.555973E+05  2.125624E+04  1.590912E+04 -1.423337E+04  4.858208E+03 -4.229852E+03
       411  27 -8.923019E+05  1.231050E+04  9.282843E+03 -2.249141E+04  3.167890E+03 -2.254432E+03
       412   1 -9.608458E+05 -4.526973E+03 -5.591564E+03 -2.232511E+04  4.784124E+02  1.098808E+03
       412   2 -9.242087E+05  4.432717E+03  3.091409E+03 -1.410761E+04  9.414162E+02 -8.815065E+02
       412   3 -8.876443E+05  1.336986E+04  1.146490E+04 -2.236944E+04  1.404496E+03 -2.861978E+03
       412   4 -9.422690E+05  2.038721E+00 -1.543349E+03 -2.237388E+04 -1.182991E+03  1.099210E+03
       412   5 -9.422321E+05  1.858182E+01 -9.371784E+02 -1.413420E+04 -7.201481E+02 -8.811260E+02
       412   6 -9.422691E+05  1.269438E+01 -6.402979E+02 -2.237387E+04 -2.572554E+02 -2.861614E+03
       412   7 -9.236918E+05  4.531029E+03  2.504856E+03 -2.242265E+04 -2.844444E+03  1.099612E+03
       412   8 -9.602551E+05 -4.395574E+03 -4.965775E+03 -1.416078E+04 -2.381665E+03 -8.807454E+02
       412   9 -9.968911E+05 -1.334467E+04 -1.274568E+04 -2.237830E+04 -1.918863E+03 -2.861249E+03
       412  10 -9.608458E+05 -4.526975E+03 -5.591567E+03 -2.232511E+04  2.845133E-10 -3.293148E-11
       412  11 -9.242087E+05  4.432716E+03  3.091405E+03 -1.410761E+04  5.092716E-10  3.067017E-10
       412  12 -8.876443E+05  1.336985E+04  1.146489E+04 -2.236944E+04  8.022832E-11  1.482997E-10
       412  13 -9.422690E+05  2.037047E+00 -1.543354E+03 -2.237388E+04  1.642624E-10  1.768215E-10
       412  14 -9.422321E+05  1.858085E+01 -9.371808E+02 -1.413420E+04 -3.514366E-10 -5.981440E-11
       412  15 -9.422691E+05  1.268558E+01 -6.403134E+02 -2.237387E+04 -5.135844E-10  2.814405E-11
       412  16 -9.236918E+05  4.531026E+03  2.504838E+03 -2.242265E+04 -5.934348E-10 -3.358338E-10
       412  17 -9.602551E+05 -4.395577E+03 -4.965788E+03 -1.416079E+04 -2.259926E-10 -6.055798E-11
       412  18 -9.968911E+05 -1.334468E+04 -1.274570E+04 -2.237831E+04 -9.421937E-11  9.416026E-11
       412  19 -9.608458E+05 -4.526973E+03 -5.591564E+03 -2.232511E+04 -4.784124E+02 -1.098808E+03
       412  20 -9.242087E+05  4.432717E+03  3.091409E+03 -1.410761E+04 -9.414162E+02  8.815065E+02
       412  21 -8.876443E+05  1.336986E+04  1.146490E+04 -2.236944E+04 -1.404496E+03  2.861978E+03
       412  22 -9.422690E+05  2.038721E+00 -1.543349E+03 -2.237388E+04  1.182991E+03 -1.099210E+03
       412  23 -9.422321E+05  1.858182E+01 -9.371784E+02 -1.413420E+04  7.201481E+02  8.811260E+02
       412  24 -9.422691E+05  1.269438E+01 -6.402979E+02 -2.237387E+04  2.572554E+02  2.861614E+03
       412  25 -9.236918E+05  4.531029E+03  2.504856E+03 -2.242265E+04  2.844444E+03 -1.099612E+03
       412  26 -9.602551E+05 -4.395574E+03 -4.965775E+03 -1.416078E+04  2.381665E+03  8.807454E+02
       412  27 -9.968911E+05 -1.334467E+04 -1.274568E+04 -2.237830E+04  1.918863E+03  2.861249E+03
       413   1 -8.562163E+05  2.110625E+04  1.876761E+04 -2.236950E+04  1.512180E+03 -4.014197E+03
       413   2 -8.197155E+05  3.001580E+04  2.682457E+04 -1.416705E+04  1.785481E+03 -5.990136E+03
       413   3 -7.832509E+05  3.891691E+04  3.470108E+04 -2.239068E+04  2.059128E+03 -7.961170E+03
       413   4 -9.422621E+05  1.226509E+01 -5.703136E+02 -2.236208E+04 -1.479526E+02 -4.013880E+03
       413   5 -9.422446E+05  8.636341E+00 -5.620435E+02 -1.414894E+04  1.293893E+02 -5.989949E+03
       413   6 -9.422646E+05 -3.914687E+00 -7.368720E+02 -2.236208E+04  4.070613E+02 -7.961109E+03
       413   7 -1.028301E+06 -2.108223E+04 -1.990870E+04 -2.235465E+04 -1.807857E+03 -4.013562E+03
       413   8 -1.064760E+06 -2.999955E+04 -2.794960E+04 -1.413084E+04 -1.526378E+03 -5.989762E+03
       413   9 -1.101255E+06 -3.892646E+04 -3.617639E+04 -2.233349E+04 -1.244586E+03 -7.961047E+03
       413  10 -8.562163E+05  2.110623E+04  1.876758E+04 -2.236950E+04 -4.665044E-11  1.232057E-10
       413  11 -8.197156E+05  3.001576E+04  2.682450E+04 -1.416704E+04 -1.882788E-10  7.889582E-11
       413  12 -7.832510E+05  3.891684E+04  3.470095E+04 -2.239066E+04  3.411909E-11 -3.151464E-10
       413  13 -9.422621E+05  1.224779E+01 -5.703439E+02 -2.236208E+04  1.204883E-10  3.597954E-10
       413  14 -9.422446E+05  8.597825E+00 -5.621110E+02 -1.414894E+04  2.621009E-10  2.352887E-10
       413  15 -9.422647E+05 -3.982759E+00 -7.369914E+02 -2.236208E+04 -6.656797E-10 -3.684270E-10
       413  16 -1.028301E+06 -2.108224E+04 -1.990874E+04 -2.235466E+04 -1.044417E-10  2.428087E-10
       413  17 -1.064760E+06 -2.999959E+04 -2.794967E+04 -1.413084E+04  1.357183E-10  5.259714E-11
       413  18 -1.101255E+06 -3.892653E+04 -3.617652E+04 -2.233350E+04 -2.814253E-10 -4.538869E-11
       413  19 -8.562163E+05  2.110625E+04  1.876761E+04 -2.236950E+04 -1.512180E+03  4.014197E+03
       413  20 -8.197155E+05  3.001580E+04  2.682457E+04 -1.416705E+04 -1.785481E+03  5.990136E+03
       413  21 -7.832509E+05  3.891691E+04  3.470108E+04 -2.239068E+04 -2.059128E+03  7.961170E+03
       413  22 -9.422621E+05  1.226509E+01 -5.703136E+02 -2.236208E+04  1.479526E+02  4.013880E+03
       413  23 -9.422446E+05  8.636341E+00 -5.620435E+02 -1.414894E+04 -1.293893E+02  5.989949E+03
       413  24 -9.422646E+05 -3.914687E+00 -7.368720E+02 -2.236208E+04 -4.070613E+02  7.961109E+03
       413  25 -1.028301E+06 -2.108223E+04 -1.990870E+04 -2.235465E+04  1.807857E+03  4.013562E+03
       413  26 -1.064760E+06 -2.999955E+04 -2.794960E+04 -1.413084E+04  1.526378E+03  5.989762E+03
       413  27 -1.101255E+06 -3.892646E+04 -3.617639E+04 -2.233349E+04  1.244586E+03  7.961047E+03
       414   1 -7.520253E+05  4.662412E+04  4.172694E+04 -2.238767E+04  2.209600E+03 -9.108959E+03
       414   2 -7.157837E+05  5.546423E+04  4.914813E+04 -1.421549E+04  2.909507E+03 -1.106514E+04
       414   3 -6.796494E+05  6.414282E+04  5.607772E+04 -2.233089E+04  3.610072E+03 -1.298976E+04
       414   4 -9.422841E+05  1.099073E+01 -9.011303E+02 -2.233134E+04  5.545033E+02 -9.109011E+03
       414   5 -9.422298E+05  1.099278E+01 -1.464156E+03 -1.418737E+04  1.280617E+03 -1.106543E+04
       414   6 -9.422892E+05 -1.551833E+02 -2.537255E+03 -2.233135E+04  2.007348E+03 -1.299027E+04
       414   7 -1.132509E+06 -4.660461E+04 -4.353148E+04 -2.227502E+04 -1.100091E+03 -9.109064E+03
       414   8 -1.168628E+06 -5.544573E+04 -5.207967E+04 -1.415926E+04 -3.476849E+02 -1.106572E+04
       414   9 -1.204865E+06 -6.445788E+04 -6.115655E+04 -2.233181E+04  4.052958E+02 -1.299079E+04
       414  10 -7.520254E+05  4.662403E+04  4.172678E+04 -2.238766E+04 -2.348422E-11 -1.631824E-10
       414  11 -7.157837E+05  5.546409E+04  4.914789E+04 -1.421547E+04 -1.004174E-10  2.325115E-10
       414  12 -6.796495E+05  6.414264E+04  5.607737E+04 -2.233085E+04  3.364951E-10 -2.878371E-11
       414  13 -9.422842E+05  1.090159E+01 -9.012868E+02 -2.233134E+04 -3.332271E-10 -1.265638E-10
       414  14 -9.422298E+05  1.086092E+01 -1.464389E+03 -1.418736E+04 -5.602052E-10  1.534359E-10
       414  15 -9.422893E+05 -1.553655E+02 -2.537579E+03 -2.233133E+04  3.955720E-10 -2.572113E-10
       414  16 -1.132509E+06 -4.660470E+04 -4.353164E+04 -2.227503E+04  5.097671E-10  4.141124E-11
       414  17 -1.168628E+06 -5.544586E+04 -5.207990E+04 -1.415927E+04 -5.117209E-10 -2.081966E-11
       414  18 -1.204865E+06 -6.445806E+04 -6.115687E+04 -2.233180E+04 -5.741337E-10  4.193420E-12
       414  19 -7.520253E+05  4.662412E+04  4.172694E+04 -2.238767E+04 -2.209600E+03  9.108959E+03
       414  20 -7.157837E+05  5.546423E+04  4.914813E+04 -1.421549E+04 -2.909507E+03  1.106514E+04
       414  21 -6.796494E+05  6.414282E+04  5.607772E+04 -2.233089E+04 -3.610072E+03  1.298976E+04
       414  22 -9.422841E+05  1.099073E+01 -9.011303E+02 -2.233134E+04 -5.545033E+02  9.109011E+03
       414  23 -9.422298E+05  1.099278E+01 -1.464156E+03 -1.418737E+04 -1.280617E+03  1.106543E+04
       414  24 -9.422892E+05 -1.551833E+02 -2.537255E+03 -2.233135E+04 -2.007348E+03  1.299027E+04
       414  25 -1.132509E+06 -4.660461E+04 -4.353148E+04 -2.227502E+04  1.100091E+03  9.109064E+03
       414  26 -1.168628E+06 -5.544573E+04 -5.207967E+04 -1.415926E+04  3.476849E+02  1.106572E+04
       414  27 -1.204865E+06 -6.445788E+04 -6.115655E+04 -2.233181E+04 -4.052958E+02  1.299079E+04
       415   1 -6.489168E+05  7.203026E+04  6.241573E+04 -2.270224E+04  4.278381E+03 -1.417662E+04
       415   2 -6.127558E+05  8.072720E+04  6.797231E+04 -1.397575E+04  6.664820E+03 -1.599374E+04
       415   3 -5.774775E+05  8.690794E+04  7.135742E+04 -2.130250E+04  9.051996E+03 -1.725750E+04
       415   4 -9.424822E+05  1.252955E+02 -3.286990E+03 -2.227952E+04  2.519714E+03 -1.417733E+04
       415   5 -9.420043E+05  9.402589E+01 -5.662991E+03 -1.425225E+04  5.369259E+03 -1.599469E+04
       415   6 -9.424914E+05 -2.534678E+03 -1.053327E+04 -2.227878E+04  8.219406E+03 -1.725855E+04
       415   7 -1.235967E+06 -7.178555E+04 -6.899514E+04 -2.185702E+04  7.618715E+02 -1.417805E+04
       415   8 -1.271152E+06 -8.054653E+04 -7.930512E+04 -1.452861E+04  4.074379E+03 -1.599564E+04
       415   9 -1.307381E+06 -9.198640E+04 -9.243239E+04 -2.325449E+04  7.387300E+03 -1.725960E+04
       415  10 -6.489168E+05  7.203004E+04  6.241531E+04 -2.270219E+04 -1.187271E-10 -1.042565E-10
       415  11 -6.127559E+05  8.072691E+04  6.797174E+04 -1.397566E+04 -2.764620E-10 -2.092629E-10
       415  12 -5.774777E+05  8.690759E+04  7.135670E+04 -2.130237E+04 -5.217557E-10  2.165645E-10
       415  13 -9.424823E+05  1.250780E+02 -3.287379E+03 -2.227950E+04  1.692796E-10 -3.602052E-10
       415  14 -9.420044E+05  9.374355E+01 -5.663525E+03 -1.425218E+04 -5.430085E-11 -6.071389E-11
       415  15 -9.424916E+05 -2.535016E+03 -1.053395E+04 -2.227867E+04  6.806886E-10  2.000408E-10
       415  16 -1.235967E+06 -7.178576E+04 -6.899551E+04 -2.185701E+04 -7.363214E-11 -2.730734E-10
       415  17 -1.271152E+06 -8.054681E+04 -7.930563E+04 -1.452855E+04  4.051618E-10 -3.388313E-10
       415  18 -1.307381E+06 -9.198673E+04 -9.243306E+04 -2.325439E+04  1.923284E-10  7.098426E-10
       415  19 -6.489168E+05  7.203026E+04  6.241573E+04 -2.270224E+04 -4.278381E+03  1.417662E+04
       415  20 -6.127558E+05  8.072720E+04  6.797231E+04 -1.397575E+04 -6.664820E+03  1.599374E+04
       415  21 -5.774775E+05  8.690794E+04  7.135742E+04 -2.130250E+04 -9.051996E+03  1.725750E+04
       415  22 -9.424822E+05  1.252955E+02 -3.286990E+03 -2.227952E+04 -2.519714E+03  1.417733E+04
       415  23 -9.420043E+05  9.402589E+01 -5.662991E+03 -1.425225E+04 -5.369259E+03  1.599469E+04
       415  24 -9.424914E+05 -2.534678E+03 -1.053327E+04 -2.227878E+04 -8.219406E+03  1.725855E+04
       415  25 -1.235967E+06 -7.178555E+04 -6.899514E+04 -2.185702E+04 -7.618715E+02  1.417805E+04
       415  26 -1.271152E+06 -8.054653E+04 -7.930512E+04 -1.452861E+04 -4.074379E+03  1.599564E+04
       415  27 -1.307381E+06 -9.198640E+04 -9.243239E+04 -2.325449E+04 -7.387300E+03  1.725960E+04
       416   1 -5.491541E+05  9.893210E+04  7.511814E+04 -2.791614E+04  1.455678E+04 -1.956853E+04
       416   2 -5.090663E+05  1.065860E+05  7.504515E+04 -8.058938E+03  1.624864E+04 -1.881432E+04
       416   3 -4.788181E+05  7.536036E+04  6.417238E+04 -3.454899E+03  1.793118E+04 -5.985376E+03
       416   4 -9.448586E+05  2.072823E+03 -1.318330E+04 -2.210883E+04  1.011594E+04 -1.957130E+04
       416   5 -9.390682E+05  1.049766E+03 -2.224842E+04 -1.446778E+04  2.193843E+04 -1.881191E+04
       416   6 -9.448867E+05 -4.062819E+04 -4.916160E+04 -2.208071E+04  3.375114E+04 -5.974093E+03
       416   7 -1.340417E+06 -9.479697E+04 -1.014945E+05 -1.630528E+04  5.677907E+03 -1.957416E+04
       416   8 -1.368898E+06 -1.044990E+05 -1.195538E+05 -2.087215E+04  2.762432E+04 -1.880961E+04
       416   9 -1.410756E+06 -1.566313E+05 -1.625102E+05 -4.069252E+04  4.955923E+04 -5.963755E+03
       416  10 -5.491544E+05  9.893164E+04  7.511703E+04 -2.791591E+04  2.543070E-10  4.949745E-10
       416  11 -5.090667E+05  1.065855E+05  7.504399E+04 -8.058692E+03 -2.833109E-11  4.394147E-10
       416  12 -4.788185E+05  7.536024E+04  6.417171E+04 -3.454812E+03  1.741342E-10  4.772986E-10
       416  13 -9.448588E+05  2.072384E+03 -1.318421E+04 -2.210867E+04  9.158065E-10 -2.952329E-10
       416  14 -9.390688E+05  1.049256E+03 -2.224999E+04 -1.446744E+04  3.234081E-10  4.023745E-10
       416  15 -9.448880E+05 -4.062854E+04 -4.916381E+04 -2.208055E+04  1.275224E-09 -2.755405E-10
       416  16 -1.340417E+06 -9.479739E+04 -1.014953E+05 -1.630519E+04 -4.051285E-11  6.250857E-10
       416  17 -1.368899E+06 -1.044996E+05 -1.195559E+05 -2.087174E+04  8.525022E-10 -2.035644E-10
       416  18 -1.410758E+06 -1.566320E+05 -1.625149E+05 -4.069228E+04 -8.479573E-10  6.672948E-10
       416  19 -5.491541E+05  9.893210E+04  7.511814E+04 -2.791614E+04 -1.455678E+04  1.956853E+04
       416  20 -5.090663E+05  1.065860E+05  7.504515E+04 -8.058938E+03 -1.624864E+04  1.881432E+04
       416  21 -4.788181E+05  7.536036E+04  6.417238E+04 -3.454899E+03 -1.793118E+04  5.985376E+03
       416  22 -9.448586E+05  2.072823E+03 -1.318330E+04 -2.210883E+04 -1.011594E+04  1.957130E+04
       416  23 -9.390682E+05  1.049766E+03 -2.224842E+04 -1.446778E+04 -2.193843E+04  1.881191E+04
       416  24 -9.448867E+05 -4.062819E+04 -4.916160E+04 -2.208071E+04 -3.375114E+04  5.974093E+03
       416  25 -1.340417E+06 -9.479697E+04 -1.014945E+05 -1.630528E+04 -5.677907E+03  1.957416E+04
       416  26 -1.368898E+06 -1.044990E+05 -1.195538E+05 -2.087215E+04 -2.762432E+04  1.880961E+04
       416  27 -1.410756E+06 -1.566313E+05 -1.625102E+05 -4.069252E+04 -4.955923E+04  5.963755E+03
       417   1  1.092747E+06  2.761780E+05  3.580301E+05  1.409086E+05  3.007545E+05  5.349855E+03
       417   2  1.089123E+06 -9.754667E+04  1.261738E+05  3.901785E+04  1.998859E+05  1.558547E+04
       417   3  1.192782E+06 -9.497289E+04  5.404308E+04 -8.497313E+04  9.901164E+04  1.517618E+04
       417   4  1.500321E+06  3.769868E+05  4.569491E+05 -2.979789E+04  3.141083E+05  5.277071E+03
       417   5  1.446084E+06 -1.021737E+04  2.068205E+05 -1.861197E+04  2.041908E+05  1.556901E+04
       417   6  1.500598E+06 -1.972281E+04  1.226141E+05 -2.952787E+04  9.427763E+04  1.518209E+04
       417   7  1.908109E+06  4.778929E+05  5.558724E+05 -2.006166E+05  3.274708E+05  5.197000E+03
       417   8  1.803170E+06  7.711568E+04  2.874609E+05 -7.627521E+04  2.084982E+05  1.555175E+04
       417   9  1.808509E+06  5.553238E+04  1.911808E+05  2.594513E+04  8.954129E+04  1.518715E+04
       417  10  1.092650E+06  2.761538E+05  3.578604E+05  1.409073E+05  6.965015E-10 -9.269324E-10
       417  11  1.089080E+06 -9.755763E+04  1.260984E+05  3.901534E+04 -2.283969E-10  1.468622E-11
       417  12  1.192771E+06 -9.497577E+04  5.402426E+04 -8.497434E+04 -2.218747E-09 -2.472668E-10
       417  13  1.500215E+06  3.769603E+05  4.567641E+05 -2.979922E+04  8.921924E-10  4.300571E-10
       417  14  1.446039E+06 -1.022879E+04  2.067419E+05 -1.861453E+04  7.849544E-10 -9.537073E-11
       417  15  1.500588E+06 -1.972544E+04  1.225970E+05 -2.952902E+04  1.789002E-10 -1.588105E-10
       417  16  1.907994E+06  4.778642E+05  5.556714E+05 -2.006180E+05 -2.942030E-11  3.499426E-10
       417  17  1.803124E+06  7.710379E+04  2.873789E+05 -7.627782E+04  1.992045E-09  1.705216E-10
       417  18  1.808500E+06  5.552999E+04  1.911654E+05  2.594403E+04  2.666782E-09  1.402530E-09
       417  19  1.092747E+06  2.761780E+05  3.580301E+05  1.409086E+05 -3.007545E+05 -5.349855E+03
       417  20  1.089123E+06 -9.754667E+04  1.261738E+05  3.901785E+04 -1.998859E+05 -1.558547E+04
       417  21  1.192782E+06 -9.497289E+04  5.404308E+04 -8.497313E+04 -9.901164E+04 -1.517618E+04
       417  22  1.500321E+06  3.769868E+05  4.569491E+05 -2.979789E+04 -3.141083E+05 -5.277071E+03
       417  23  1.446084E+06 -1.021737E+04  2.068205E+05 -1.861197E+04 -2.041908E+05 -1.556901E+04
       417  24  1.500598E+06 -1.972281E+04  1.226141E+05 -2.952787E+04 -9.427763E+04 -1.518209E+04
       417  25  1.908109E+06  4.778929E+05  5.558724E+05 -2.006166E+05 -3.274708E+05 -5.197000E+03
       417  26  1.803170E+06  7.711568E+04  2.874609E+05 -7.627521E+04 -2.084982E+05 -1.555175E+04
       417  27  1.808509E+06  5.553238E+04  1.911808E+05  2.594513E+04 -8.954129E+04 -1.518715E+04
       418   1  1.213023E+06 -4.180321E+04  3.852356E+04 -2.159669E+04  7.811730E+04  1.256317E+04
       418   2  1.257237E+06 -5.407168E+04  4.270239E+03 -1.672508E+04  5.204376E+04  1.049128E+04
       418   3  1.310884E+06 -4.234537E+04 -7.019832E+03 -3.382699E+04  2.596852E+04  7.950133E+03
       418   4  1.478493E+06  2.308573E+04  9.793587E+04 -2.957629E+04  7.660322E+04  1.256111E+04
       418   5  1.473766E+06 -1.168537E+03  5.259158E+04 -1.858534E+04  5.012395E+04  1.049015E+04
       418   6  1.478533E+06 -1.363536E+03  3.048373E+04 -2.956685E+04  2.364498E+04  7.949500E+03
       418   7  1.744030E+06  8.797012E+04  1.573438E+05 -3.755934E+04  7.508849E+04  1.255909E+04
       418   8  1.690339E+06  5.173145E+04  1.009100E+05 -2.044626E+04  4.820347E+04  1.048903E+04
       418   9  1.646209E+06  3.961646E+04  6.798556E+04 -2.530556E+04  2.132082E+04  7.948835E+03
       418  10  1.213016E+06 -4.180501E+04  3.851182E+04 -2.159748E+04  8.412372E-11  5.342024E-11
       418  11  1.257235E+06 -5.407253E+04  4.264952E+03 -1.672552E+04  2.886463E-10  2.524945E-10
       418  12  1.310883E+06 -4.234561E+04 -7.021216E+03 -3.382715E+04 -5.107729E-10 -2.467791E-10
       418  13  1.478487E+06  2.308399E+04  9.792457E+04 -2.957706E+04  7.858352E-10  1.156410E-09
       418  14  1.473764E+06 -1.169328E+03  5.258666E+04 -1.858577E+04  9.830617E-10  4.614064E-10
       418  15  1.478533E+06 -1.363753E+03  3.048257E+04 -2.956701E+04 -1.847676E-10 -4.861937E-10
       418  16  1.744023E+06  8.796844E+04  1.573329E+05 -3.756009E+04 -1.977334E-10  8.920630E-10
       418  17  1.690336E+06  5.173071E+04  1.009054E+05 -2.044666E+04  8.425196E-10 -1.076517E-11
       418  18  1.646209E+06  3.961627E+04  6.798459E+04 -2.530570E+04  1.187614E-10 -2.752971E-10
       418  19  1.213023E+06 -4.180321E+04  3.852356E+04 -2.159669E+04 -7.811730E+04 -1.256317E+04
       418  20  1.257237E+06 -5.407168E+04  4.270239E+03 -1.672508E+04 -5.204376E+04 -1.049128E+04
       418  21  1.310884E+06 -4.234537E+04 -7.019832E+03 -3.382699E+04 -2.596852E+04 -7.950133E+03
       418  22  1.478493E+06  2.308573E+04  9.793587E+04 -2.957629E+04 -7.660322E+04 -1.256111E+04
       418  23  1.473766E+06 -1.168537E+03  5.259158E+04 -1.858534E+04 -5.012395E+04 -1.049015E+04
       418  24  1.478533E+06 -1.363536E+03  3.048373E+04 -2.956685E+04 -2.364498E+04 -7.949500E+03
       418  25  1.744030E+06  8.797012E+04  1.573438E+05 -3.755934E+04 -7.508849E+04 -1.255909E+04
       418  26  1.690339E+06  5.173145E+04  1.009100E+05 -2.044626E+04 -4.820347E+04 -1.048903E+04
       418  27  1.646209E+06  3.961646E+04  6.798556E+04 -2.530556E+04 -2.132082E+04 -7.948835E+03
       419   1  1.350789E+06 -2.948923E+04 -4.506624E+03 -2.973741E+04  2.106757E+04  6.371651E+03
       419   2  1.398683E+06 -1.911497E+04 -3.961390E+03 -1.895053E+04  1.448395E+04  3.774224E+03
       419   3  1.447835E+06 -7.205469E+03  1.251006E+03 -2.997161E+04  7.899726E+03  1.158720E+03
       419   4  1.476704E+06  1.243919E+03  2.344066E+04 -2.953316E+04  1.889330E+04  6.371017E+03
       419   5  1.476079E+06 -2.090656E+02  1.329439E+04 -1.862915E+04  1.229314E+04  3.773687E+03
       419   6  1.476713E+06 -1.239873E+02  7.825976E+03 -2.953292E+04  5.692865E+03  1.158289E+03
       419   7  1.602635E+06  3.197600E+04  5.138698E+04 -2.932887E+04  1.671861E+04  6.370381E+03
       419   8  1.553481E+06  1.869644E+04  3.054982E+04 -1.830773E+04  1.010206E+04  3.773149E+03
       419   9  1.505592E+06  6.957440E+03  1.440091E+04 -2.909422E+04  3.485902E+03  1.157855E+03
       419  10  1.350789E+06 -2.948939E+04 -4.507533E+03 -2.973752E+04 -7.558084E-10 -4.342375E-10
       419  11  1.398682E+06 -1.911504E+04 -3.961810E+03 -1.895057E+04 -1.725550E-09 -3.455739E-10
       419  12  1.447835E+06 -7.205487E+03  1.250886E+03 -2.997161E+04 -8.814564E-10  4.869349E-10
       419  13  1.476704E+06  1.243779E+03  2.343992E+04 -2.953325E+04 -4.516769E-10 -3.458275E-10
       419  14  1.476079E+06 -2.091214E+02  1.329408E+04 -1.862919E+04  1.160511E-10  2.669386E-10
       419  15  1.476713E+06 -1.239975E+02  7.825913E+03 -2.953293E+04 -5.217880E-10  5.306917E-10
       419  16  1.602634E+06  3.197588E+04  5.138638E+04 -2.932895E+04 -9.904770E-11 -2.216434E-10
       419  17  1.553481E+06  1.869639E+04  3.054960E+04 -1.830776E+04  3.276406E-10  6.231874E-12
       419  18  1.505592E+06  6.957435E+03  1.440089E+04 -2.909423E+04  8.911928E-10  9.557658E-10
       419  19  1.350789E+06 -2.948923E+04 -4.506624E+03 -2.973741E+04 -2.106757E+04 -6.371651E+03
       419  20  1.398683E+06 -1.911497E+04 -3.961390E+03 -1.895053E+04 -1.448395E+04 -3.774224E+03
       419  21  1.447835E+06 -7.205469E+03  1.251006E+03 -2.997161E+04 -7.899726E+03 -1.158720E+03
       419  22  1.476704E+06  1.243919E+03  2.344066E+04 -2.953316E+04 -1.889330E+04 -6.371017E+03
       419  23  1.476079E+06 -2.090656E+02  1.329439E+04 -1.862915E+04 -1.229314E+04 -3.773687E+03
       419  24  1.476713E+06 -1.239873E+02  7.825976E+03 -2.953292E+04 -5.692865E+03 -1.158289E+03
       419  25  1.602635E+06  3.197600E+04  5.138698E+04 -2.932887E+04 -1.671861E+04 -6.370381E+03
       419  26  1.553481E+06  1.869644E+04  3.054982E+04 -1.830773E+04 -1.010206E+04 -3.773149E+03
       419  27  1.505592E+06  6.957440E+03  1.440091E+04 -2.909422E+04 -3.485902E+03 -1.157855E+03
       420   1  1.489177E+06  3.139190E+03  9.058853E+03 -2.970225E+04  6.636990E+03 -3.661942E+02
       420   2  1.537534E+06  1.488230E+04  1.751983E+04 -1.872201E+04  4.720517E+03 -2.982964E+03
       420   3  1.586184E+06  2.672153E+04  2.725394E+04 -2.954063E+04  2.804095E+03 -5.603785E+03
       420   4  1.476498E+06  1.484795E+01  6.095188E+03 -2.953109E+04  4.436747E+03 -3.666205E+02
       420   5  1.476353E+06 -6.086486E+01  3.882144E+03 -1.863159E+04  2.516803E+03 -2.983480E+03
       420   6  1.476498E+06 -3.992569E+01  2.944450E+03 -2.953110E+04  5.970554E+02 -5.604382E+03
       420   7  1.463819E+06 -3.109503E+03  3.131529E+03 -2.935992E+04  2.236549E+03 -3.670482E+02
       420   8  1.415175E+06 -1.500428E+04 -9.755762E+03 -1.854119E+04  3.133027E+02 -2.983998E+03
       420   9  1.366823E+06 -2.680219E+04 -2.136576E+04 -2.952158E+04 -1.609599E+03 -5.604980E+03
       420  10  1.489177E+06  3.139178E+03  9.058770E+03 -2.970225E+04  2.332145E-09  6.121305E-10
       420  11  1.537534E+06  1.488228E+04  1.751978E+04 -1.872200E+04 -6.932967E-09 -1.688097E-10
       420  12  1.586183E+06  2.672149E+04  2.725386E+04 -2.954061E+04 -1.340160E-08 -2.005322E-09
       420  13  1.476498E+06  1.484254E+01  6.095151E+03 -2.953109E+04  1.339145E-10  8.331357E-10
       420  14  1.476353E+06 -6.087612E+01  3.882115E+03 -1.863159E+04  6.445873E-11 -2.823287E-10
       420  15  1.476498E+06 -3.995954E+01  2.944390E+03 -2.953110E+04  1.019265E-09 -1.245716E-09
       420  16  1.463819E+06 -3.109504E+03  3.131520E+03 -2.935992E+04 -1.882117E-09  1.086547E-09
       420  17  1.415175E+06 -1.500429E+04 -9.755779E+03 -1.854118E+04  6.860563E-09 -4.588705E-10
       420  18  1.366823E+06 -2.680222E+04 -2.136583E+04 -2.952158E+04  1.325755E-08 -1.571766E-09
       420  19  1.489177E+06  3.139190E+03  9.058853E+03 -2.970225E+04 -6.636990E+03  3.661942E+02
       420  20  1.537534E+06  1.488230E+04  1.751983E+04 -1.872201E+04 -4.720517E+03  2.982964E+03
       420  21  1.586184E+06  2.672153E+04  2.725394E+04 -2.954063E+04 -2.804095E+03  5.603785E+03
       420  22  1.476498E+06  1.484795E+01  6.095188E+03 -2.953109E+04 -4.436747E+03  3.666205E+02
       420  23  1.476353E+06 -6.086486E+01  3.882144E+03 -1.863159E+04 -2.516803E+03  2.983480E+03
       420  24  1.476498E+06 -3.992569E+01  2.944450E+03 -2.953110E+04 -5.970554E+02  5.604382E+03
       420  25  1.463819E+06 -3.109503E+03  3.131529E+03 -2.935992E+04 -2.236549E+03  3.670482E+02
       420  26  1.415175E+06 -1.500428E+04 -9.755762E+03 -1.854119E+04 -3.133027E+02  2.983998E+03
       420  27  1.366823E+06 -2.680219E+04 -2.136576E+04 -2.952158E+04  1.609599E+03  5.604980E+03
       421   1  1.627877E+06  3.696123E+04  3.671069E+04 -2.953569E+04  2.285657E+03 -7.131674E+03
       421   2  1.676599E+06  4.884021E+04  4.788940E+04 -1.847112E+04  6.819232E+02 -9.764739E+03
       421   3  1.725586E+06  6.078688E+04  6.013518E+04 -2.936237E+04 -9.212047E+02 -1.240616E+04
       421   4  1.476490E+06 -3.981498E+01  2.830072E+03 -2.956605E+04  7.332076E+01 -7.132386E+03
       421   5  1.476354E+06 -6.456885E+01  3.256942E+03 -1.858791E+04 -1.537090E+03 -9.765734E+03
       421   6  1.476483E+06 -2.027618E+01  4.755846E+03 -2.956604E+04 -3.146771E+03 -1.240743E+04
       421   7  1.325123E+06 -3.704241E+04 -3.105198E+04 -2.959640E+04 -2.138482E+03 -7.133098E+03
       421   8  1.276146E+06 -4.897206E+04 -4.137801E+04 -1.870467E+04 -3.755396E+03 -9.766729E+03
       421   9  1.227438E+06 -6.083162E+04 -5.062734E+04 -2.976964E+04 -5.371457E+03 -1.240870E+04
       421  10  1.627877E+06  3.696117E+04  3.671059E+04 -2.953568E+04  1.135104E-08 -1.893534E-09
       421  11  1.676599E+06  4.884011E+04  4.788922E+04 -1.847111E+04  6.789036E-09  2.907357E-10
       421  12  1.725586E+06  6.078672E+04  6.013489E+04 -2.936238E+04 -2.189388E-09  3.553576E-10
       421  13  1.476490E+06 -3.986965E+01  2.829976E+03 -2.956605E+04  9.661094E-10 -8.240389E-10
       421  14  1.476354E+06 -6.467196E+01  3.256758E+03 -1.858792E+04  1.142773E-09  6.860984E-10
       421  15  1.476483E+06 -2.044426E+01  4.755538E+03 -2.956607E+04  6.639615E-10  6.211226E-10
       421  16  1.325123E+06 -3.704247E+04 -3.105208E+04 -2.959641E+04 -1.143468E-08 -9.648306E-10
       421  17  1.276146E+06 -4.897217E+04 -4.137821E+04 -1.870470E+04 -6.203725E-09  2.869770E-10
       421  18  1.227438E+06 -6.083179E+04 -5.062768E+04 -2.976969E+04  1.766642E-09  3.141463E-10
       421  19  1.627877E+06  3.696123E+04  3.671069E+04 -2.953569E+04 -2.285657E+03  7.131674E+03
       421  20  1.676599E+06  4.884021E+04  4.788940E+04 -1.847112E+04 -6.819232E+02  9.764739E+03
       421  21  1.725586E+06  6.078688E+04  6.013518E+04 -2.936237E+04  9.212047E+02  1.240616E+04
       421  22  1.476490E+06 -3.981498E+01  2.830072E+03 -2.956605E+04 -7.332076E+01  7.132386E+03
       421  23  1.476354E+06 -6.456885E+01  3.256942E+03 -1.858791E+04  1.537090E+03  9.765734E+03
       421  24  1.476483E+06 -2.027618E+01  4.755846E+03 -2.956604E+04  3.146771E+03  1.240743E+04
       421  25  1.325123E+06 -3.704241E+04 -3.105198E+04 -2.959640E+04  2.138482E+03  7.133098E+03
       421  26  1.276146E+06 -4.897206E+04 -4.137801E+04 -1.870467E+04  3.755396E+03  9.766729E+03
       421  27  1.227438E+06 -6.083162E+04 -5.062734E+04 -2.976964E+04  5.371457E+03  1.240870E+04
       422   1  1.767914E+06  7.103363E+04  7.105328E+04 -2.921573E+04 -1.870292E+03 -1.395443E+04
       422   2  1.816983E+06  8.304218E+04  8.597652E+04 -1.811212E+04 -6.855700E+03 -1.661802E+04
       422   3  1.867068E+06  9.618799E+04  1.044410E+05 -2.928973E+04 -1.184022E+04 -1.926321E+04
       422   4  1.476644E+06 -1.253553E+02  5.999561E+03 -2.963822E+04 -4.116903E+03 -1.395595E+04
       422   5  1.476131E+06 -1.963202E+02  1.000745E+04 -1.849751E+04 -9.084445E+03 -1.662001E+04
       422   6  1.476630E+06  8.678060E+02  1.754597E+04 -2.963877E+04 -1.405071E+04 -1.926565E+04
       422   7  1.185453E+06 -7.129009E+04 -5.905947E+04 -3.006051E+04 -6.362474E+03 -1.395746E+04
       422   8  1.135387E+06 -8.344268E+04 -6.596887E+04 -1.888270E+04 -1.131198E+04 -1.662199E+04
       422   9  1.086333E+06 -9.446268E+04 -6.935852E+04 -2.998761E+04 -1.625983E+04 -1.926809E+04
       422  10  1.767914E+06  7.103342E+04  7.105291E+04 -2.921575E+04 -2.845446E-10  1.027912E-09
       422  11  1.816982E+06  8.304187E+04  8.597591E+04 -1.811221E+04 -1.135228E-09 -7.116877E-10
       422  12  1.867067E+06  9.618755E+04  1.044400E+05 -2.928992E+04  3.741099E-10 -1.490997E-10
       422  13  1.476644E+06 -1.255692E+02  5.999163E+03 -2.963827E+04  2.133492E-10  4.900008E-10
       422  14  1.476130E+06 -1.966391E+02  1.000678E+04 -1.849763E+04 -6.566971E-10 -1.924504E-11
       422  15  1.476629E+06  8.673543E+02  1.754490E+04 -2.963899E+04  7.193594E-10 -2.250718E-10
       422  16  1.185453E+06 -7.129031E+04 -5.905992E+04 -3.006058E+04  3.916632E-11 -3.818745E-11
       422  17  1.135386E+06 -8.344301E+04 -6.596963E+04 -1.888285E+04  9.652979E-11 -2.124484E-10
       422  18  1.086333E+06 -9.446315E+04 -6.935972E+04 -2.998786E+04 -6.410555E-10 -6.848362E-11
       422  19  1.767914E+06  7.103363E+04  7.105328E+04 -2.921573E+04  1.870292E+03  1.395443E+04
       422  20  1.816983E+06  8.304218E+04  8.597652E+04 -1.811212E+04  6.855700E+03  1.661802E+04
       422  21  1.867068E+06  9.618799E+04  1.044410E+05 -2.928973E+04  1.184022E+04  1.926321E+04
       422  22  1.476644E+06 -1.253553E+02  5.999561E+03 -2.963822E+04  4.116903E+03  1.395595E+04
       422  23  1.476131E+06 -1.963202E+02  1.000745E+04 -1.849751E+04  9.084445E+03  1.662001E+04
       422  24  1.476630E+06  8.678060E+02  1.754597E+04 -2.963877E+04  1.405071E+04  1.926565E+04
       422  25  1.185453E+06 -7.129009E+04 -5.905947E+04 -3.006051E+04  6.362474E+03  1.395746E+04
       422  26  1.135387E+06 -8.344268E+04 -6.596887E+04 -1.888270E+04  1.131198E+04  1.662199E+04
       422  27  1.086333E+06 -9.446268E+04 -6.935852E+04 -2.998761E+04  1.625983E+04  1.926809E+04
       423   1  1.911398E+06  1.047830E+05  1.195025E+05 -2.632122E+04 -1.514110E+04 -2.091807E+04
       423   2  1.958425E+06  1.172691E+05  1.472131E+05 -1.944191E+04 -3.556725E+04 -2.348827E+04
       423   3  2.012768E+06  1.477995E+05  1.927378E+05 -3.531158E+04 -5.599498E+04 -2.529257E+04
       423   4  1.477999E+06 -1.079900E+03  2.279254E+04 -2.973720E+04 -1.760466E+04 -2.092101E+04
       423   5  1.474377E+06 -9.405261E+02  3.926450E+04 -1.837162E+04 -3.737230E+04 -2.349143E+04
       423   6  1.477959E+06  1.713763E+04  7.310423E+04 -2.975573E+04 -5.713988E+04 -2.529598E+04
       423   7  1.044775E+06 -1.069555E+05 -7.392917E+04 -3.315081E+04 -2.006652E+04 -2.092391E+04
       423   8  9.905458E+05 -1.191660E+05 -6.869877E+04 -1.730223E+04 -3.917596E+04 -2.349460E+04
       423   9  9.434164E+05 -1.135435E+05 -4.654735E+04 -2.420477E+04 -5.828379E+04 -2.529940E+04
       423  10  1.911397E+06  1.047825E+05  1.195012E+05 -2.632148E+04 -1.211827E-10 -4.386637E-10
       423  11  1.958424E+06  1.172681E+05  1.472097E+05 -1.944258E+04  1.951925E-10 -1.162938E-09
       423  12  2.012764E+06  1.477979E+05  1.927307E+05 -3.531271E+04  8.983175E-10 -2.006068E-09
       423  13  1.477999E+06 -1.080453E+03  2.279113E+04 -2.973750E+04  3.600806E-10 -5.112228E-10
       423  14  1.474375E+06 -9.414930E+02  3.926084E+04 -1.837233E+04  4.883859E-10 -7.292121E-10
       423  15  1.477956E+06  1.713607E+04  7.309690E+04 -2.975689E+04  1.819539E-09 -1.327378E-09
       423  16  1.044774E+06 -1.069561E+05 -7.393075E+04 -3.315115E+04  8.644334E-10 -1.416028E-10
       423  17  9.905440E+05 -1.191670E+05 -6.870269E+04 -1.730297E+04  1.711092E-09  2.401465E-09
       423  18  9.434126E+05 -1.135451E+05 -4.655493E+04 -2.420596E+04 -5.838855E-10 -6.356307E-10
       423  19  1.911398E+06  1.047830E+05  1.195025E+05 -2.632122E+04  1.514110E+04  2.091807E+04
       423  20  1.958425E+06  1.172691E+05  1.472131E+05 -1.944191E+04  3.556725E+04  2.348827E+04
       423  21  2.012768E+06  1.477995E+05  1.927378E+05 -3.531158E+04  5.599498E+04  2.529257E+04
       423  22  1.477999E+06 -1.079900E+03  2.279254E+04 -2.973720E+04  1.760466E+04  2.092101E+04
       423  23  1.474377E+06 -9.405261E+02  3.926450E+04 -1.837162E+04  3.737230E+04  2.349143E+04
       423  24  1.477959E+06  1.713763E+04  7.310423E+04 -2.975573E+04  5.713988E+04  2.529598E+04
       423  25  1.044775E+06 -1.069555E+05 -7.392917E+04 -3.315081E+04  2.006652E+04  2.092391E+04
       423  26  9.905458E+05 -1.191660E+05 -6.869877E+04 -1.730223E+04  3.917596E+04  2.349460E+04
       423  27  9.434164E+05 -1.135435E+05 -4.654735E+04 -2.420477E+04  5.828379E+04  2.529940E+04
       424   1  2.073547E+06  1.266674E+05  2.203832E+05  1.219506E+04 -6.387032E+04 -2.867461E+04
       424   2  2.084100E+06  1.463969E+05  2.965501E+05 -6.085744E+04 -1.607836E+05 -2.771924E+04
       424   3  2.178514E+06  4.504918E+05  5.068181E+05 -1.569814E+05 -2.577378E+05 -9.153561E+03
       424   4  1.494464E+06 -1.482084E+04  9.151992E+04 -2.969084E+04 -7.032952E+04 -2.868045E+04
       424   5  1.453677E+06 -7.729290E+03  1.543329E+05 -1.839337E+04 -1.523601E+05 -2.771971E+04
       424   6  1.494242E+06  2.812787E+05  3.410134E+05 -3.015465E+04 -2.344204E+05 -9.166942E+03
       424   7  9.156958E+05 -1.563252E+05 -3.736325E+04 -7.153745E+04 -7.678276E+04 -2.868543E+04
       424   8  8.236269E+05 -1.618758E+05  1.209154E+04  2.402717E+04 -1.439449E+05 -2.771904E+04
       424   9  8.104330E+05  1.120922E+05  1.751858E+05  9.653221E+04 -2.111285E+05 -9.170853E+03
       424  10  2.073543E+06  1.266654E+05  2.203740E+05  1.219358E+04  2.111307E-10 -3.072368E-09
       424  11  2.084072E+06  1.463892E+05  2.965003E+05 -6.086102E+04 -1.868830E-09 -4.978931E-09
       424  12  2.178443E+06  4.504740E+05  5.066936E+05 -1.569833E+05 -1.908982E-09 -1.119167E-09
       424  13  1.494458E+06 -1.482305E+04  9.150910E+04 -2.969247E+04 -6.725811E-10 -6.736912E-09
       424  14  1.453652E+06 -7.736329E+03  1.542879E+05 -1.839677E+04  2.244322E-09  2.946578E-09
       424  15  1.494183E+06  2.812639E+05  3.409103E+05 -3.015638E+04  2.455500E-09 -1.205366E-10
       424  16  9.156892E+05 -1.563277E+05 -3.737586E+04 -7.153922E+04  2.303471E-10 -1.879000E-09
       424  17  8.236045E+05 -1.618822E+05  1.205121E+04  2.402395E+04  3.163679E-09  1.984968E-09
       424  18  8.103851E+05  1.120801E+05  1.751020E+05  9.653066E+04  1.449669E-09 -1.624394E-09
       424  19  2.073547E+06  1.266674E+05  2.203832E+05  1.219506E+04  6.387032E+04  2.867461E+04
       424  20  2.084100E+06  1.463969E+05  2.965501E+05 -6.085744E+04  1.607836E+05  2.771924E+04
       424  21  2.178514E+06  4.504918E+05  5.068181E+05 -1.569814E+05  2.577378E+05  9.153561E+03
       424  22  1.494464E+06 -1.482084E+04  9.151992E+04 -2.969084E+04  7.032952E+04  2.868045E+04
       424  23  1.453677E+06 -7.729290E+03  1.543329E+05 -1.839337E+04  1.523601E+05  2.771971E+04
       424  24  1.494242E+06  2.812787E+05  3.410134E+05 -3.015465E+04  2.344204E+05  9.166942E+03
       424  25  9.156958E+05 -1.563252E+05 -3.736325E+04 -7.153745E+04  7.678276E+04  2.868543E+04
       424  26  8.236269E+05 -1.618758E+05  1.209154E+04  2.402717E+04  1.439449E+05  2.771904E+04
       424  27  8.104330E+05  1.120922E+05  1.751858E+05  9.653221E+04  2.111285E+05  9.170853E+03
       425   1  4.771638E+05  1.721127E+05  1.556493E+05  3.075702E+04  2.469111E+04 -1.270311E+04
       425   2  4.147191E+05  1.894322E+05  1.375548E+05  4.052608E+04  4.477363E+03 -4.242507E+04
       425   3  3.486010E+05  1.814286E+05  1.263273E+05  6.453957E+04 -1.577322E+04 -5.025364E+04
       425   4 -4.200375E+05 -4.944104E+04 -5.565944E+04  5.958813E+04 -3.869183E+04 -1.282941E+04
       425   5 -4.152059E+05 -9.356394E+03 -2.681081E+04  5.241170E+04 -2.473715E+04 -4.249234E+04
       425   6 -4.199940E+05 -5.469755E+02 -1.482909E+04  5.948099E+04 -1.082156E+04 -5.024740E+04
       425   7 -1.316488E+06 -2.710469E+05 -2.670081E+05  8.837698E+04 -1.019837E+05 -1.296169E+04
       425   8 -1.244470E+06 -2.081859E+05 -1.912072E+05  6.428075E+04 -5.391343E+04 -4.256078E+04
       425   9 -1.188016E+06 -1.825561E+05 -1.560096E+05  5.442849E+04 -5.875861E+03 -5.024123E+04
       425  10  4.771631E+05  1.721124E+05  1.556479E+05  3.075727E+04  5.663088E-09 -4.299285E-10
       425  11  4.147186E+05  1.894302E+05  1.375514E+05  4.052623E+04 -7.771477E-09 -4.281146E-09
       425  12  3.486000E+05  1.814258E+05  1.263220E+05  6.453893E+04 -2.109206E-08 -4.669279E-09
       425  13 -4.200391E+05 -4.944161E+04 -5.566256E+04  5.958773E+04  8.974697E-12  2.031363E-09
       425  14 -4.152070E+05 -9.358497E+03 -2.681536E+04  5.241086E+04  7.022553E-10 -2.366340E-09
       425  15 -4.199948E+05 -5.497176E+02 -1.483406E+04  5.948055E+04  1.711062E-09 -2.234656E-09
       425  16 -1.316499E+06 -2.710499E+05 -2.670280E+05  8.837591E+04 -5.346891E-09  6.168185E-10
       425  17 -1.244473E+06 -2.081886E+05 -1.912160E+05  6.427890E+04  8.803869E-09 -6.260686E-09
       425  18 -1.188016E+06 -1.825588E+05 -1.560144E+05  5.442825E+04  2.197932E-08 -8.687909E-09
       425  19  4.771638E+05  1.721127E+05  1.556493E+05  3.075702E+04 -2.469111E+04  1.270311E+04
       425  20  4.147191E+05  1.894322E+05  1.375548E+05  4.052608E+04 -4.477363E+03  4.242507E+04
       425  21  3.486010E+05  1.814286E+05  1.263273E+05  6.453957E+04  1.577322E+04  5.025364E+04
       425  22 -4.200375E+05 -4.944104E+04 -5.565944E+04  5.958813E+04  3.869183E+04  1.282941E+04
       425  23 -4.152059E+05 -9.356394E+03 -2.681081E+04  5.241170E+04  2.473715E+04  4.249234E+04
       425  24 -4.199940E+05 -5.469755E+02 -1.482909E+04  5.948099E+04  1.082156E+04  5.024740E+04
       425  25 -1.316488E+06 -2.710469E+05 -2.670081E+05  8.837698E+04  1.019837E+05  1.296169E+04
       425  26 -1.244470E+06 -2.081859E+05 -1.912072E+05  6.428075E+04  5.391343E+04  4.256078E+04
       425  27 -1.188016E+06 -1.825561E+05 -1.560096E+05  5.442849E+04  5.875861E+03  5.024123E+04
       426   1  3.070503E+05  1.696563E+05  1.210539E+05  6.037760E+04 -1.063826E+04 -4.814164E+04
       426   2  2.430037E+05  1.557399E+05  1.120621E+05  5.306842E+04 -1.025516E+04 -4.614282E+04
       426   3  1.786360E+05  1.408896E+05  1.025798E+05  6.138244E+04 -9.878198E+03 -4.238570E+04
       426   4 -4.180228E+05 -1.844183E+03 -1.135425E+04  5.980397E+04 -8.884770E+03 -4.814227E+04
       426   5 -4.176080E+05 -6.045936E+01 -6.267201E+03  5.198906E+04 -5.760671E+03 -4.613574E+04
       426   6 -4.179940E+05  3.130076E+02 -3.575409E+03  5.979842E+04 -2.642624E+03 -4.236999E+04
       426   7 -1.142585E+06 -1.733744E+05 -1.437837E+05  5.923071E+04 -7.133265E+03 -4.814292E+04
       426   8 -1.077794E+06 -1.558851E+05 -1.246132E+05  5.091061E+04 -1.270825E+03 -4.612868E+04
       426   9 -1.014276E+06 -1.402832E+05 -1.097438E+05  5.821572E+04  4.586199E+03 -4.235430E+04
       426  10  3.070495E+05  1.696538E+05  1.210494E+05  6.037718E+04 -3.882299E-08 -6.713937E-09
       426  11  2.430030E+05  1.557376E+05  1.120579E+05  5.306804E+04  8.610088E-09 -9.321678E-10
       426  12  1.786354E+05  1.408876E+05  1.025763E+05  6.138210E+04  4.935533E-08  1.302938E-09
       426  13 -4.180235E+05 -1.846692E+03 -1.135875E+04  5.980363E+04  7.706375E-11 -6.104818E-09
       426  14 -4.176086E+05 -6.275346E+01 -6.271262E+03  5.198885E+04  1.246590E-09 -3.488090E-09
       426  15 -4.179945E+05  3.110783E+02 -3.578795E+03  5.979833E+04  2.560403E-09 -5.206801E-09
       426  16 -1.142586E+06 -1.733769E+05 -1.437881E+05  5.923044E+04  3.912157E-08 -3.628962E-09
       426  17 -1.077795E+06 -1.558873E+05 -1.246172E+05  5.091056E+04 -7.643850E-09 -1.263793E-09
       426  18 -1.014277E+06 -1.402851E+05 -1.097472E+05  5.821588E+04 -4.906367E-08 -2.106757E-09
       426  19  3.070503E+05  1.696563E+05  1.210539E+05  6.037760E+04  1.063826E+04  4.814164E+04
       426  20  2.430037E+05  1.557399E+05  1.120621E+05  5.306842E+04  1.025516E+04  4.614282E+04
       426  21  1.786360E+05  1.408896E+05  1.025798E+05  6.138244E+04  9.878198E+03  4.238570E+04
       426  22 -4.180228E+05 -1.844183E+03 -1.135425E+04  5.980397E+04  8.884770E+03  4.814227E+04
       426  23 -4.176080E+05 -6.045936E+01 -6.267201E+03  5.198906E+04  5.760671E+03  4.613574E+04
       426  24 -4.179940E+05  3.130076E+02 -3.575409E+03  5.979842E+04  2.642624E+03  4.236999E+04
       426  25 -1.142585E+06 -1.733744E+05 -1.437837E+05  5.923071E+04  7.133265E+03  4.814292E+04
       426  26 -1.077794E+06 -1.558851E+05 -1.246132E+05  5.091061E+04  1.270825E+03  4.612868E+04
       426  27 -1.014276E+06 -1.402832E+05 -1.097438E+05  5.821572E+04 -4.586199E+03  4.235430E+04
       427   1  1.360769E+05  1.307044E+05  9.552235E+04  6.110822E+04 -9.079609E+03 -3.966428E+04
       427   2  7.182131E+04  1.155775E+05  8.521554E+04  5.309180E+04 -8.541745E+03 -3.511648E+04
       427   3  7.436004E+03  1.005097E+05  7.455235E+04  6.083668E+04 -8.006102E+03 -3.042512E+04
       427   4 -4.178448E+05  2.517295E+02 -2.720084E+03  5.982999E+04 -2.096573E+03 -3.964832E+04
       427   5 -4.177480E+05  2.872501E+02 -1.559216E+03  5.194887E+04 -1.335644E+03 -3.509859E+04
       427   6 -4.178239E+05  3.431022E+02 -9.101146E+02  5.982976E+04 -5.768825E+02 -3.040522E+04
       427   7 -9.714666E+05 -1.302178E+05 -1.009738E+05  5.855273E+04  4.880415E+03 -3.963238E+04
       427   8 -9.070829E+05 -1.150162E+05 -8.834269E+04  5.080669E+04  5.864940E+03 -3.508071E+04
       427   9 -8.429069E+05 -9.983339E+04 -7.637911E+04  5.882342E+04  6.847396E+03 -3.038534E+04
       427  10  1.360764E+05  1.307027E+05  9.551924E+04  6.110793E+04 -1.824380E-09  4.748646E-09
       427  11  7.182090E+04  1.155762E+05  8.521309E+04  5.309156E+04  3.265901E-09  4.547699E-09
       427  12  7.435687E+03  1.005086E+05  7.455049E+04  6.083648E+04  6.368865E-09  1.381099E-09
       427  13 -4.178452E+05  2.500407E+02 -2.723046E+03  5.982992E+04  1.745933E-10 -3.663643E-09
       427  14 -4.177483E+05  2.859270E+02 -1.561534E+03  5.194883E+04  1.385203E-09  4.218033E-09
       427  15 -4.178241E+05  3.421095E+02 -9.118522E+02  5.982974E+04  2.453568E-09  6.908649E-09
       427  16 -9.714671E+05 -1.302195E+05 -1.009768E+05  5.855288E+04  2.336262E-09  1.249845E-09
       427  17 -9.070833E+05 -1.150175E+05 -8.834506E+04  5.080686E+04 -2.415988E-09  5.991800E-09
       427  18 -8.429072E+05 -9.983439E+04 -7.638093E+04  5.882358E+04 -5.259439E-09  1.704295E-09
       427  19  1.360769E+05  1.307044E+05  9.552235E+04  6.110822E+04  9.079609E+03  3.966428E+04
       427  20  7.182131E+04  1.155775E+05  8.521554E+04  5.309180E+04  8.541745E+03  3.511648E+04
       427  21  7.436004E+03  1.005097E+05  7.455235E+04  6.083668E+04  8.006102E+03  3.042512E+04
       427  22 -4.178448E+05  2.517295E+02 -2.720084E+03  5.982999E+04  2.096573E+03  3.964832E+04
       427  23 -4.177480E+05  2.872501E+02 -1.559216E+03  5.194887E+04  1.335644E+03  3.509859E+04
       427  24 -4.178239E+05  3.431022E+02 -9.101146E+02  5.982976E+04  5.768825E+02  3.040522E+04
       427  25 -9.714666E+05 -1.302178E+05 -1.009738E+05  5.855273E+04 -4.880415E+03  3.963238E+04
       427  26 -9.070829E+05 -1.150162E+05 -8.834269E+04  5.080669E+04 -5.864940E+03  3.508071E+04
       427  27 -8.429069E+05 -9.983339E+04 -7.637911E+04  5.882342E+04 -6.847396E+03  3.038534E+04
       428   1 -3.524741E+04  9.039922E+04  6.689779E+04  6.074056E+04 -7.849982E+03 -2.765101E+04
       428   2 -9.960562E+04  7.522527E+04  5.588381E+04  5.269310E+04 -7.662009E+03 -2.289299E+04
       428   3 -1.640637E+05  6.014631E+04  4.474291E+04  6.043764E+04 -7.475275E+03 -1.812216E+04
       428   4 -4.178028E+05  3.455395E+02 -7.059465E+02  5.983658E+04 -4.382721E+02 -2.763049E+04
       428   5 -4.177418E+05  3.113175E+02 -4.463797E+02  5.194033E+04 -2.308442E+02 -2.287153E+04
       428   6 -4.177893E+05  3.685960E+02 -3.277202E+02  5.983654E+04 -2.463659E+01 -1.809974E+04
       428   7 -8.002149E+05 -8.971614E+04 -6.831487E+04  5.893306E+04  6.969004E+03 -2.760999E+04
       428   8 -7.357790E+05 -7.460817E+04 -5.678011E+04  5.118788E+04  7.196623E+03 -2.285007E+04
       428   9 -6.714518E+05 -5.941264E+04 -4.540055E+04  5.923564E+04  7.423044E+03 -1.807732E+04
       428  10 -3.524768E+04  9.039838E+04  6.689624E+04  6.074039E+04  3.000403E-09  1.339980E-09
       428  11 -9.960583E+04  7.522469E+04  5.588272E+04  5.269296E+04  1.652802E-09  8.733654E-09
       428  12 -1.640638E+05  6.014595E+04  4.474219E+04  6.043753E+04 -2.089731E-09  6.749784E-09
       428  13 -4.178030E+05  3.447198E+02 -7.073812E+02  5.983657E+04 -1.714851E-11  1.605074E-09
       428  14 -4.177420E+05  3.107559E+02 -4.473626E+02  5.194032E+04  1.061365E-09  8.590513E-09
       428  15 -4.177893E+05  3.682443E+02 -3.283357E+02  5.983654E+04  2.461777E-09  1.458597E-09
       428  16 -8.002152E+05 -8.971697E+04 -6.831639E+04  5.893322E+04 -2.351883E-09  7.949330E-10
       428  17 -7.357792E+05 -7.460875E+04 -5.678119E+04  5.118801E+04 -1.497620E-09  2.983972E-09
       428  18 -6.714520E+05 -5.941301E+04 -4.540126E+04  5.923575E+04  2.391281E-09 -5.387614E-10
       428  19 -3.524741E+04  9.039922E+04  6.689779E+04  6.074056E+04  7.849982E+03  2.765101E+04
       428  20 -9.960562E+04  7.522527E+04  5.588381E+04  5.269310E+04  7.662009E+03  2.289299E+04
       428  21 -1.640637E+05  6.014631E+04  4.474291E+04  6.043764E+04  7.475275E+03  1.812216E+04
       428  22 -4.178028E+05  3.455395E+02 -7.059465E+02  5.983658E+04  4.382721E+02  2.763049E+04
       428  23 -4.177418E+05  3.113175E+02 -4.463797E+02  5.194033E+04  2.308442E+02  2.287153E+04
       428  24 -4.177893E+05  3.685960E+02 -3.277202E+02  5.983654E+04  2.463659E+01  1.809974E+04
       428  25 -8.002149E+05 -8.971614E+04 -6.831487E+04  5.893306E+04 -6.969004E+03  2.760999E+04
       428  26 -7.357790E+05 -7.460817E+04 -5.678011E+04  5.118788E+04 -7.196623E+03  2.285007E+04
       428  27 -6.714518E+05 -5.941264E+04 -4.540055E+04  5.923564E+04 -7.423044E+03  1.807732E+04
       429   1 -2.068048E+05  5.002751E+04  3.689744E+04  6.033935E+04 -7.426529E+03 -1.534101E+04
       429   2 -2.712038E+05  3.484042E+04  2.559347E+04  5.226967E+04 -7.264164E+03 -1.056456E+04
       429   3 -3.357164E+05  1.974621E+04  1.417400E+04  6.000860E+04 -7.102347E+03 -5.791904E+03
       429   4 -4.177870E+05  3.731550E+02 -3.098444E+02  5.984017E+04  2.488707E+01 -1.531819E+04
       429   5 -4.177260E+05  3.357601E+02 -3.452145E+02  5.193574E+04  1.809933E+02 -1.054136E+04
       429   6 -4.177808E+05  3.927475E+02 -4.915798E+02  5.984013E+04  3.365688E+02 -5.768306E+03
       429   7 -6.287255E+05 -4.928361E+04 -3.751855E+04  5.934113E+04  7.473844E+03 -1.529539E+04
       429   8 -5.642272E+05 -3.417005E+04 -2.628448E+04  5.160188E+04  7.624444E+03 -1.051816E+04
       429   9 -4.998384E+05 -1.896106E+04 -1.515721E+04  5.967168E+04  7.774529E+03 -5.744709E+03
       429  10 -2.068049E+05  5.002724E+04  3.689689E+04  6.033926E+04  9.031706E-09  1.615986E-09
       429  11 -2.712039E+05  3.484029E+04  2.559316E+04  5.226961E+04  3.334598E-09 -1.692933E-09
       429  12 -3.357165E+05  1.974616E+04  1.417384E+04  6.000856E+04 -5.300076E-09 -4.995197E-10
       429  13 -4.177870E+05  3.729031E+02 -3.102852E+02  5.984017E+04 -3.411063E-10  6.436426E-09
       429  14 -4.177261E+05  3.356408E+02 -3.454233E+02  5.193574E+04  1.693402E-09  9.856224E-10
       429  15 -4.177808E+05  3.927118E+02 -4.916425E+02  5.984013E+04  2.718190E-09 -3.473727E-09
       429  16 -6.287256E+05 -4.928388E+04 -3.751909E+04  5.934122E+04 -8.351595E-09  3.071052E-09
       429  17 -5.642273E+05 -3.417019E+04 -2.628480E+04  5.160194E+04 -3.005988E-09  4.023993E-10
       429  18 -4.998385E+05 -1.896111E+04 -1.515738E+04  5.967172E+04  6.159344E-09 -2.401150E-09
       429  19 -2.068048E+05  5.002751E+04  3.689744E+04  6.033935E+04  7.426529E+03  1.534101E+04
       429  20 -2.712038E+05  3.484042E+04  2.559347E+04  5.226967E+04  7.264164E+03  1.056456E+04
       429  21 -3.357164E+05  1.974621E+04  1.417400E+04  6.000860E+04  7.102347E+03  5.791904E+03
       429  22 -4.177870E+05  3.731550E+02 -3.098444E+02  5.984017E+04 -2.488707E+01  1.531819E+04
       429  23 -4.177260E+05  3.357601E+02 -3.452145E+02  5.193574E+04 -1.809933E+02  1.054136E+04
       429  24 -4.177808E+05  3.927475E+02 -4.915798E+02  5.984013E+04 -3.365688E+02  5.768306E+03
       429  25 -6.287255E+05 -4.928361E+04 -3.751855E+04  5.934113E+04 -7.473844E+03  1.529539E+04
       429  26 -5.642272E+05 -3.417005E+04 -2.628448E+04  5.160188E+04 -7.624444E+03  1.051816E+04
       429  27 -4.998384E+05 -1.896106E+04 -1.515721E+04  5.967168E+04 -7.774529E+03  5.744709E+03
       430   1 -3.784891E+05  9.621324E+03  6.177350E+03  5.989109E+04 -7.021072E+03 -3.010505E+03
       430   2 -4.428583E+05 -5.577616E+03 -5.539235E+03  5.180896E+04 -6.417367E+03  1.734084E+03
       430   3 -5.074171E+05 -2.074543E+04 -1.767525E+04  5.953429E+04 -5.813420E+03  6.408950E+03
       430   4 -4.177929E+05  3.978624E+02 -6.183397E+02  5.983977E+04  4.281255E+02 -2.986772E+03
       430   5 -4.177061E+05  3.578976E+02 -1.029897E+03  5.193612E+04  9.227830E+02  1.757397E+03
       430   6 -4.177941E+05  3.681820E+02 -1.785185E+03  5.983988E+04  1.417743E+03  6.431851E+03
       430   7 -4.570950E+05 -8.825652E+03 -7.413874E+03  5.978845E+04  7.876866E+03 -2.963039E+03
       430   8 -3.925532E+05  6.293405E+03  3.479620E+03  5.206329E+04  8.263222E+03  1.780712E+03
       430   9 -3.281631E+05  2.148138E+04  1.410478E+04  6.014551E+04  8.649920E+03  6.454758E+03
       430  10 -3.784891E+05  9.621301E+03  6.177240E+03  5.989108E+04 -4.276858E-09  4.618105E-09
       430  11 -4.428584E+05 -5.577630E+03 -5.539318E+03  5.180897E+04 -4.686666E-10  3.094102E-09
       430  12 -5.074171E+05 -2.074548E+04 -1.767540E+04  5.953432E+04 -1.305783E-09  1.181484E-09
       430  13 -4.177929E+05  3.978528E+02 -6.183568E+02  5.983977E+04 -2.800462E-10 -2.927363E-10
       430  14 -4.177061E+05  3.578941E+02 -1.029904E+03  5.193612E+04  1.383316E-09  1.990929E-09
       430  15 -4.177941E+05  3.681370E+02 -1.785266E+03  5.983987E+04  2.672415E-09  8.265006E-10
       430  16 -4.570951E+05 -8.825678E+03 -7.414007E+03  5.978847E+04  4.548921E-09  2.556846E-09
       430  17 -3.925533E+05  6.293383E+03  3.479485E+03  5.206328E+04  1.642294E-09 -6.644707E-09
       430  18 -3.281632E+05  2.148131E+04  1.410456E+04  6.014546E+04  1.816986E-09 -5.925378E-10
       430  19 -3.784891E+05  9.621324E+03  6.177350E+03  5.989109E+04  7.021072E+03  3.010505E+03
       430  20 -4.428583E+05 -5.577616E+03 -5.539235E+03  5.180896E+04  6.417367E+03 -1.734084E+03
       430  21 -5.074171E+05 -2.074543E+04 -1.767525E+04  5.953429E+04  5.813420E+03 -6.408950E+03
       430  22 -4.177929E+05  3.978624E+02 -6.183397E+02  5.983977E+04 -4.281255E+02  2.986772E+03
       430  23 -4.177061E+05  3.578976E+02 -1.029897E+03  5.193612E+04 -9.227830E+02 -1.757397E+03
       430  24 -4.177941E+05  3.681820E+02 -1.785185E+03  5.983988E+04 -1.417743E+03 -6.431851E+03
       430  25 -4.570950E+05 -8.825652E+03 -7.413874E+03  5.978845E+04 -7.876866E+03  2.963039E+03
       430  26 -3.925532E+05  6.293405E+03  3.479620E+03  5.206329E+04 -8.263222E+03 -1.780712E+03
       430  27 -3.281631E+05  2.148138E+04  1.410478E+04  6.014551E+04 -8.649920E+03 -6.454758E+03
       431   1 -5.502991E+05 -3.084427E+04 -2.613695E+04  5.925772E+04 -5.585943E+03  9.166543E+03
       431   2 -6.143231E+05 -4.631477E+04 -3.963110E+04  5.160630E+04 -2.198287E+03  1.346118E+04
       431   3 -6.791794E+05 -6.290627E+04 -5.564384E+04  5.970435E+04  1.192207E+03  1.688507E+04
       431   4 -4.178907E+05  4.138635E+02 -2.343546E+03  5.982616E+04  1.771210E+03  9.189660E+03
       431   5 -4.175947E+05  1.617291E+02 -4.097920E+03  5.195374E+04  3.801789E+03  1.347953E+04
       431   6 -4.178997E+05 -9.754440E+02 -7.427679E+03  5.983050E+04  5.835566E+03  1.689880E+04
       431   7 -2.854651E+05  3.167105E+04  2.144938E+04  6.039471E+04  9.129888E+03  9.212787E+03
       431   8 -2.208284E+05  4.663608E+04  3.143388E+04  5.230126E+04  9.803715E+03  1.349789E+04
       431   9 -1.565538E+05  6.095150E+04  4.078573E+04  5.995665E+04  1.048083E+04  1.691252E+04
       431  10 -5.502991E+05 -3.084437E+04 -2.613717E+04  5.925777E+04 -7.533781E-09  6.007317E-09
       431  11 -6.143232E+05 -4.631497E+04 -3.963145E+04  5.160633E+04  2.655021E-09  1.414425E-09
       431  12 -6.791794E+05 -6.290658E+04 -5.564438E+04  5.970433E+04  7.693207E-09  5.319540E-09
       431  13 -4.178907E+05  4.137720E+02 -2.343710E+03  5.982615E+04 -4.036542E-10  2.739875E-09
       431  14 -4.175947E+05  1.615301E+02 -4.098288E+03  5.195370E+04  1.079781E-09  6.064925E-09
       431  15 -4.178999E+05 -9.757598E+02 -7.428280E+03  5.983042E+04  2.506642E-09 -1.861356E-09
       431  16 -2.854652E+05  3.167094E+04  2.144907E+04  6.039464E+04  8.045571E-09  5.954608E-10
       431  17 -2.208286E+05  4.663586E+04  3.143336E+04  5.230115E+04 -1.586760E-09 -9.944774E-10
       431  18 -1.565540E+05  6.095116E+04  4.078498E+04  5.995651E+04 -7.705447E-09 -1.012521E-08
       431  19 -5.502991E+05 -3.084427E+04 -2.613695E+04  5.925772E+04  5.585943E+03 -9.166543E+03
       431  20 -6.143231E+05 -4.631477E+04 -3.963110E+04  5.160630E+04  2.198287E+03 -1.346118E+04
       431  21 -6.791794E+05 -6.290627E+04 -5.564384E+04  5.970435E+04 -1.192207E+03 -1.688507E+04
       431  22 -4.178907E+05  4.138635E+02 -2.343546E+03  5.982616E+04 -1.771210E+03 -9.189660E+03
       431  23 -4.175947E+05  1.617291E+02 -4.097920E+03  5.195374E+04 -3.801789E+03 -1.347953E+04
       431  24 -4.178997E+05 -9.754440E+02 -7.427679E+03  5.983050E+04 -5.835566E+03 -1.689880E+04
       431  25 -2.854651E+05  3.167105E+04  2.144938E+04  6.039471E+04 -9.129888E+03 -9.212787E+03
       431  26 -2.208284E+05  4.663608E+04  3.143388E+04  5.230126E+04 -9.803715E+03 -1.349789E+04
       431  27 -1.565538E+05  6.095150E+04  4.078573E+04  5.995665E+04 -1.048083E+04 -1.691252E+04
       432   1 -7.236608E+05 -7.238349E+04 -6.623892E+04  5.653444E+04  8.713804E+02  1.933546E+04
       432   2 -7.835204E+05 -9.414997E+04 -9.128407E+04  6.000291E+04  2.687330E+04  1.798010E+04
       432   3 -8.527092E+05 -1.393120E+05 -1.391361E+05  7.856236E+04  5.290269E+04  5.769258E+03
       432   4 -4.191898E+05 -1.213781E+02 -9.701137E+03  5.966922E+04  7.097997E+03  1.935368E+04
       432   5 -4.160068E+05 -5.904855E+03 -1.753338E+04  5.217091E+04  1.618606E+04  1.794707E+04
       432   6 -4.192118E+05 -3.213752E+04 -3.641308E+04  5.976427E+04  2.530448E+04  5.686974E+03
       432   7 -1.146289E+05  7.213546E+04  4.683288E+04  6.280551E+04  1.332759E+04  1.937196E+04
       432   8 -4.836378E+04  8.233224E+04  5.621091E+04  4.433408E+04  5.492605E+03  1.791431E+04
       432   9  1.446096E+04  7.502525E+04  6.629992E+04  4.095283E+04 -2.312924E+03  5.606393E+03
       432  10 -7.236609E+05 -7.238389E+04 -6.623962E+04  5.653443E+04 -6.536817E-09  5.606024E-09
       432  11 -7.835213E+05 -9.415051E+04 -9.128604E+04  6.000252E+04 -7.487999E-10 -1.397596E-09
       432  12 -8.527123E+05 -1.393128E+05 -1.391414E+05  7.856212E+04  9.426255E-10 -4.019724E-10
       432  13 -4.191900E+05 -1.217937E+02 -9.701935E+03  5.966911E+04 -5.655785E-10  5.545454E-09
       432  14 -4.160072E+05 -5.905271E+03 -1.753448E+04  5.217068E+04  1.856531E-09 -6.668587E-09
       432  15 -4.192125E+05 -3.213773E+04 -3.641434E+04  5.976415E+04  2.172532E-09  1.974420E-09
       432  16 -1.146292E+05  7.213501E+04  4.683184E+04  6.280530E+04  6.603974E-09 -2.464162E-09
       432  17 -4.836389E+04  8.233189E+04  5.621025E+04  4.433400E+04  1.544151E-09  1.527332E-09
       432  18  1.446094E+04  7.502521E+04  6.629986E+04  4.095284E+04 -2.410075E-10 -1.263594E-09
       432  19 -7.236608E+05 -7.238349E+04 -6.623892E+04  5.653444E+04 -8.713804E+02 -1.933546E+04
       432  20 -7.835204E+05 -9.414997E+04 -9.128407E+04  6.000291E+04 -2.687330E+04 -1.798010E+04
       432  21 -8.527092E+05 -1.393120E+05 -1.391361E+05  7.856236E+04 -5.290269E+04 -5.769258E+03
       432  22 -4.191898E+05 -1.213781E+02 -9.701137E+03  5.966922E+04 -7.097997E+03 -1.935368E+04
       432  23 -4.160068E+05 -5.904855E+03 -1.753338E+04  5.217091E+04 -1.618606E+04 -1.794707E+04
       432  24 -4.192118E+05 -3.213752E+04 -3.641308E+04  5.976427E+04 -2.530448E+04 -5.686974E+03
       432  25 -1.146289E+05  7.213546E+04  4.683288E+04  6.280551E+04 -1.332759E+04 -1.937196E+04
       432  26 -4.836378E+04  8.233224E+04  5.621091E+04  4.433408E+04 -5.492605E+03 -1.791431E+04
       432  27  1.446096E+04  7.502525E+04  6.629992E+04  4.095283E+04  2.312924E+03 -5.606393E+03
       433   1 -8.967536E+04  5.916406E+04  4.728492E+04  5.477644E+01 -2.336233E+04 -5.435394E+03
       433   2 -1.183001E+05  9.550189E+04  6.218644E+04  5.965321E+03 -1.931918E+04 -1.685428E+04
       433   3 -1.583684E+05  8.834565E+04  6.359554E+04  2.687551E+04 -1.530742E+04 -1.738901E+04
       433   4 -5.091612E+05 -4.501265E+04 -5.465559E+04  1.957257E+04 -3.751605E+04 -5.476963E+03
       433   5 -5.026317E+05  1.272895E+03 -2.473370E+04  1.200206E+04 -2.433827E+04 -1.687028E+04
       433   6 -5.091418E+05  2.462474E+03 -1.465778E+04  1.943218E+04 -1.119143E+04 -1.737661E+04
       433   7 -9.284851E+05 -1.492007E+05 -1.566079E+05  3.907703E+04 -5.166023E+04 -5.519436E+03
       433   8 -8.868258E+05 -9.296609E+04 -1.116632E+05  1.803491E+04 -2.935429E+04 -1.688639E+04
       433   9 -8.598003E+05 -8.342886E+04 -9.291873E+04  1.199301E+04 -7.077745E+03 -1.736430E+04
       433  10 -8.967595E+04  5.916388E+04  4.728384E+04  5.467418E+01 -7.900868E-09  1.506154E-09
       433  11 -1.183006E+05  9.550148E+04  6.218521E+04  5.965059E+03 -1.320369E-09  1.020133E-08
       433  12 -1.583688E+05  8.834526E+04  6.359453E+04  2.687530E+04  6.166905E-09  3.745923E-09
       433  13 -5.091627E+05 -4.501306E+04 -5.465830E+04  1.957241E+04  1.643479E-09 -3.318336E-09
       433  14 -5.026324E+05  1.272430E+03 -2.473535E+04  1.200172E+04  2.361993E-09 -7.831093E-09
       433  15 -5.091420E+05  2.462116E+03 -1.465858E+04  1.943202E+04  4.126903E-09  1.515892E-09
       433  16 -9.284880E+05 -1.492015E+05 -1.566129E+05  3.907680E+04  8.727357E-09  9.906370E-10
       433  17 -8.868268E+05 -9.296663E+04 -1.116654E+05  1.803451E+04  3.272592E-09  9.572327E-09
       433  18 -8.598005E+05 -8.342920E+04 -9.291939E+04  1.199291E+04 -6.750025E-09 -4.411035E-10
       433  19 -8.967536E+04  5.916406E+04  4.728492E+04  5.477644E+01  2.336233E+04  5.435394E+03
       433  20 -1.183001E+05  9.550189E+04  6.218644E+04  5.965321E+03  1.931918E+04  1.685428E+04
       433  21 -1.583684E+05  8.834565E+04  6.359554E+04  2.687551E+04  1.530742E+04  1.738901E+04
       433  22 -5.091612E+05 -4.501265E+04 -5.465559E+04  1.957257E+04  3.751605E+04  5.476963E+03
       433  23 -5.026317E+05  1.272895E+03 -2.473370E+04  1.200206E+04  2.433827E+04  1.687028E+04
       433  24 -5.091418E+05  2.462474E+03 -1.465778E+04  1.943218E+04  1.119143E+04  1.737661E+04
       433  25 -9.284851E+05 -1.492007E+05 -1.566079E+05  3.907703E+04  5.166023E+04  5.519436E+03
       433  26 -8.868258E+05 -9.296609E+04 -1.116632E+05  1.803491E+04  2.935429E+04  1.688639E+04
       433  27 -8.598003E+05 -8.342886E+04 -9.291873E+04  1.199301E+04  7.077745E+03  1.736430E+04
       434   1 -1.853972E+05  7.598342E+04  6.029588E+04  1.939479E+04 -9.947018E+03 -1.521141E+04
       434   2 -2.193084E+05  7.036092E+04  5.777637E+04  1.231715E+04 -7.198444E+03 -1.393845E+04
       434   3 -2.543459E+05  6.203357E+04  5.277061E+04  2.073090E+04 -4.452327E+03 -1.217093E+04
       434   4 -5.065085E+05 -2.659469E+03 -1.171015E+04  1.958513E+04 -9.089892E+03 -1.520923E+04
       434   5 -5.059047E+05  2.046050E+02 -6.291779E+03  1.183435E+04 -5.927476E+03 -1.393471E+04
       434   6 -5.065014E+05  2.910456E+02 -3.648293E+03  1.957543E+04 -2.767374E+03 -1.216551E+04
       434   7 -8.275238E+05 -8.130940E+04 -8.372272E+04  1.977530E+04 -8.233204E+03 -1.520705E+04
       434   8 -7.924244E+05 -6.995730E+04 -7.036509E+04  1.135170E+04 -4.657089E+03 -1.393096E+04
       434   9 -7.585975E+05 -6.145580E+04 -6.007120E+04  1.842039E+04 -1.083098E+03 -1.216010E+04
       434  10 -1.853974E+05  7.598314E+04  6.029526E+04  1.939467E+04 -1.686353E-09 -9.072073E-10
       434  11 -2.193086E+05  7.036070E+04  5.777591E+04  1.231707E+04  8.033919E-10  4.345641E-09
       434  12 -2.543460E+05  6.203340E+04  5.277030E+04  2.073086E+04  7.079348E-09  5.434896E-09
       434  13 -5.065087E+05 -2.659740E+03 -1.171074E+04  1.958502E+04  1.166615E-09  1.061219E-08
       434  14 -5.059048E+05  2.043871E+02 -6.292210E+03  1.183428E+04  2.823911E-09 -2.106306E-08
       434  15 -5.065014E+05  2.908847E+02 -3.648586E+03  1.957541E+04  4.248427E-09  6.544353E-09
       434  16 -8.275239E+05 -8.130966E+04 -8.372328E+04  1.977520E+04  3.017519E-09 -9.152857E-09
       434  17 -7.924245E+05 -6.995752E+04 -7.036550E+04  1.135165E+04  1.984977E-09 -2.201133E-09
       434  18 -7.585976E+05 -6.145596E+04 -6.007148E+04  1.842038E+04 -8.482867E-09 -1.922905E-09
       434  19 -1.853972E+05  7.598342E+04  6.029588E+04  1.939479E+04  9.947018E+03  1.521141E+04
       434  20 -2.193084E+05  7.036092E+04  5.777637E+04  1.231715E+04  7.198444E+03  1.393845E+04
       434  21 -2.543459E+05  6.203357E+04  5.277061E+04  2.073090E+04  4.452327E+03  1.217093E+04
       434  22 -5.065085E+05 -2.659469E+03 -1.171015E+04  1.958513E+04  9.089892E+03  1.520923E+04
       434  23 -5.059047E+05  2.046050E+02 -6.291779E+03  1.183435E+04  5.927476E+03  1.393471E+04
       434  24 -5.065014E+05  2.910456E+02 -3.648293E+03  1.957543E+04  2.767374E+03  1.216551E+04
       434  25 -8.275238E+05 -8.130940E+04 -8.372272E+04  1.977530E+04  8.233204E+03  1.520705E+04
       434  26 -7.924244E+05 -6.995730E+04 -7.036509E+04  1.135170E+04  4.657089E+03  1.393096E+04
       434  27 -7.585975E+05 -6.145580E+04 -6.007120E+04  1.842039E+04  1.083098E+03  1.216010E+04
       435   1 -2.838461E+05  5.441090E+04  4.679769E+04  2.020547E+04 -3.744123E+03 -1.103116E+04
       435   2 -3.184049E+05  4.606633E+04  4.033650E+04  1.233412E+04 -2.972751E+03 -9.181147E+03
       435   3 -3.532044E+05  3.764994E+04  3.332661E+04  2.007082E+04 -2.201981E+03 -7.305921E+03
       435   4 -5.062859E+05 -2.064581E+01 -2.811389E+03  1.960435E+04 -2.202980E+03 -1.102609E+04
       435   5 -5.061613E+05  1.064915E+02 -1.609252E+03  1.179986E+04 -1.410724E+03 -9.175825E+03
       435   6 -5.062818E+05  1.583348E+02 -9.703124E+02  1.960371E+04 -6.190278E+02 -7.300336E+03
       435   7 -7.286795E+05 -5.445555E+04 -5.242356E+04  1.900340E+04 -6.623831E+02 -1.102103E+04
       435   8 -6.938849E+05 -4.585574E+04 -4.355721E+04  1.126574E+04  1.508350E+02 -9.170504E+03
       435   9 -6.593375E+05 -3.733487E+04 -3.526871E+04  1.913670E+04  9.635394E+02 -7.294753E+03
       435  10 -2.838461E+05  5.441077E+04  4.679743E+04  2.020543E+04  1.413326E-09 -1.023730E-08
       435  11 -3.184049E+05  4.606623E+04  4.033633E+04  1.233410E+04  1.558334E-09 -2.815102E-09
       435  12 -3.532044E+05  3.764988E+04  3.332650E+04  2.007081E+04  3.367068E-09 -1.564898E-09
       435  13 -5.062859E+05 -2.077764E+01 -2.811627E+03  1.960433E+04  1.998560E-09 -2.155232E-09
       435  14 -5.061613E+05  1.064006E+02 -1.609414E+03  1.179985E+04  2.019629E-09 -4.967023E-09
       435  15 -5.062819E+05  1.582775E+02 -9.704133E+02  1.960371E+04  5.332363E-09  3.325318E-09
       435  16 -7.286795E+05 -5.445568E+04 -5.242379E+04  1.900340E+04 -4.893895E-11 -8.129814E-09
       435  17 -6.938849E+05 -4.585583E+04 -4.355737E+04  1.126574E+04  1.173863E-09  6.109734E-09
       435  18 -6.593375E+05 -3.733493E+04 -3.526881E+04  1.913670E+04 -4.823019E-09  9.781965E-09
       435  19 -2.838461E+05  5.441090E+04  4.679769E+04  2.020547E+04  3.744123E+03  1.103116E+04
       435  20 -3.184049E+05  4.606633E+04  4.033650E+04  1.233412E+04  2.972751E+03  9.181147E+03
       435  21 -3.532044E+05  3.764994E+04  3.332661E+04  2.007082E+04  2.201981E+03  7.305921E+03
       435  22 -5.062859E+05 -2.064581E+01 -2.811389E+03  1.960435E+04  2.202980E+03  1.102609E+04
       435  23 -5.061613E+05  1.064915E+02 -1.609252E+03  1.179986E+04  1.410724E+03  9.175825E+03
       435  24 -5.062818E+05  1.583348E+02 -9.703124E+02  1.960371E+04  6.190278E+02  7.300336E+03
       435  25 -7.286795E+05 -5.445555E+04 -5.242356E+04  1.900340E+04  6.623831E+02  1.102103E+04
       435  26 -6.938849E+05 -4.585574E+04 -4.355721E+04  1.126574E+04 -1.508350E+02  9.170504E+03
       435  27 -6.593375E+05 -3.733487E+04 -3.526871E+04  1.913670E+04 -9.635394E+02  7.294753E+03
       436   1 -3.830350E+05  3.028637E+04  2.665326E+04  1.997219E+04 -2.043759E+03 -6.208897E+03
       436   2 -4.177646E+05  2.174335E+04  1.920330E+04  1.203604E+04 -1.780509E+03 -4.327126E+03
       436   3 -4.526422E+05  1.330005E+04  1.157454E+04  1.976407E+04 -1.517513E+03 -2.442918E+03
       436   4 -5.062587E+05  1.418827E+02 -7.767691E+02  1.961635E+04 -4.656071E+02 -6.203243E+03
       436   5 -5.061830E+05  9.877483E+01 -5.500867E+02  1.178416E+04 -2.003961E+02 -4.321380E+03
       436   6 -5.062569E+05  1.551298E+02 -5.035445E+02  1.961630E+04  6.457668E+01 -2.437075E+03
       436   7 -6.294682E+05 -3.000363E+04 -2.820774E+04  1.926056E+04  1.112235E+03 -6.197591E+03
       436   8 -5.945942E+05 -2.154633E+04 -2.030395E+04  1.153232E+04  1.379494E+03 -4.315635E+03
       436   9 -5.598689E+05 -1.298999E+04 -1.258180E+04  1.946853E+04  1.646531E+03 -2.431232E+03
       436  10 -3.830350E+05  3.028633E+04  2.665318E+04  1.997218E+04 -3.607173E-09 -6.820529E-09
       436  11 -4.177646E+05  2.174332E+04  1.920325E+04  1.203603E+04 -9.974246E-09  2.965818E-09
       436  12 -4.526422E+05  1.330005E+04  1.157452E+04  1.976407E+04 -1.114660E-08 -2.320376E-09
       436  13 -5.062587E+05  1.418413E+02 -7.768418E+02  1.961635E+04  1.826265E-09  8.983567E-09
       436  14 -5.061830E+05  9.875478E+01 -5.501219E+02  1.178416E+04  2.004877E-09 -4.108504E-09
       436  15 -5.062569E+05  1.551234E+02 -5.035556E+02  1.961630E+04  5.394066E-09 -4.860091E-09
       436  16 -6.294682E+05 -3.000368E+04 -2.820781E+04  1.926057E+04  4.675031E-09  3.408203E-09
       436  17 -5.945942E+05 -2.154635E+04 -2.030399E+04  1.153232E+04  1.254984E-08  9.367469E-09
       436  18 -5.598689E+05 -1.299000E+04 -1.258182E+04  1.946853E+04  9.896816E-09 -7.859608E-10
       436  19 -3.830350E+05  3.028637E+04  2.665326E+04  1.997219E+04  2.043759E+03  6.208897E+03
       436  20 -4.177646E+05  2.174335E+04  1.920330E+04  1.203604E+04  1.780509E+03  4.327126E+03
       436  21 -4.526422E+05  1.330005E+04  1.157454E+04  1.976407E+04  1.517513E+03  2.442918E+03
       436  22 -5.062587E+05  1.418827E+02 -7.767691E+02  1.961635E+04  4.656071E+02  6.203243E+03
       436  23 -5.061830E+05  9.877483E+01 -5.500867E+02  1.178416E+04  2.003961E+02  4.321380E+03
       436  24 -5.062569E+05  1.551298E+02 -5.035445E+02  1.961630E+04 -6.457668E+01  2.437075E+03
       436  25 -6.294682E+05 -3.000363E+04 -2.820774E+04  1.926056E+04 -1.112235E+03  6.197591E+03
       436  26 -5.945942E+05 -2.154633E+04 -2.030395E+04  1.153232E+04 -1.379494E+03  4.315635E+03
       436  27 -5.598689E+05 -1.298999E+04 -1.258180E+04  1.946853E+04 -1.646531E+03  2.431232E+03
       437   1 -4.825657E+05  5.935996E+03  4.654944E+03  1.967792E+04 -1.427620E+03 -1.345522E+03
       437   2 -5.173189E+05 -2.624096E+03 -3.230445E+03  1.172775E+04 -1.067412E+03  5.404399E+02
       437   3 -5.522389E+05 -1.109155E+04 -1.136066E+04  1.945777E+04 -7.071971E+02  2.425455E+03
       437   4 -5.062605E+05  1.553751E+02 -5.391530E+02  1.961981E+04  1.549072E+02 -1.339653E+03
       437   5 -5.061765E+05  1.038891E+02 -7.408983E+02  1.177975E+04  5.142733E+02  5.462923E+02
       437   6 -5.062608E+05  1.451340E+02 -1.186969E+03  1.961985E+04  8.736662E+02  2.431296E+03
       437   7 -5.299548E+05 -5.625282E+03 -5.733275E+03  1.956171E+04  1.737374E+03 -1.333784E+03
       437   8 -4.950340E+05  2.831868E+03  1.748650E+03  1.183175E+04  2.095986E+03  5.521450E+02
       437   9 -4.602808E+05  1.138168E+04  8.986602E+03  1.978195E+04  2.454645E+03  2.437137E+03
       437  10 -4.825657E+05  5.935993E+03  4.654937E+03  1.967792E+04 -1.450519E-08  1.206962E-09
       437  11 -5.173189E+05 -2.624097E+03 -3.230448E+03  1.172775E+04 -6.481574E-09 -1.104402E-08
       437  12 -5.522389E+05 -1.109156E+04 -1.136067E+04  1.945777E+04 -5.225951E-10 -4.304750E-09
       437  13 -5.062605E+05  1.553731E+02 -5.391564E+02  1.961981E+04  1.442776E-09  4.308973E-09
       437  14 -5.061765E+05  1.038887E+02 -7.408994E+02  1.177974E+04  1.896551E-09 -1.321190E-08
       437  15 -5.062608E+05  1.451275E+02 -1.186981E+03  1.961985E+04  5.208801E-09 -4.396692E-09
       437  16 -5.299548E+05 -5.625285E+03 -5.733284E+03  1.956171E+04  1.531851E-08 -3.410815E-09
       437  17 -4.950340E+05  2.831866E+03  1.748641E+03  1.183175E+04  1.007449E-08 -1.327320E-08
       437  18 -4.602808E+05  1.138167E+04  8.986579E+03  1.978194E+04 -4.072052E-10 -6.423208E-09
       437  19 -4.825657E+05  5.935996E+03  4.654944E+03  1.967792E+04  1.427620E+03  1.345522E+03
       437  20 -5.173189E+05 -2.624096E+03 -3.230445E+03  1.172775E+04  1.067412E+03 -5.404399E+02
       437  21 -5.522389E+05 -1.109155E+04 -1.136066E+04  1.945777E+04  7.071971E+02 -2.425455E+03
       437  22 -5.062605E+05  1.553751E+02 -5.391530E+02  1.961981E+04 -1.549072E+02  1.339653E+03
       437  23 -5.061765E+05  1.038891E+02 -7.408983E+02  1.177975E+04 -5.142733E+02 -5.462923E+02
       437  24 -5.062608E+05  1.451340E+02 -1.186969E+03  1.961985E+04 -8.736662E+02 -2.431296E+03
       437  25 -5.299548E+05 -5.625282E+03 -5.733275E+03  1.956171E+04 -1.737374E+03  1.333784E+03
       437  26 -4.950340E+05  2.831868E+03  1.748650E+03  1.183175E+04 -2.095986E+03 -5.521450E+02
       437  27 -4.602808E+05  1.138168E+04  8.986602E+03  1.978195E+04 -2.454645E+03 -2.437137E+03
       438   1 -5.821899E+05 -1.842699E+04 -1.858620E+04  1.931619E+04 -4.710926E+02  3.524760E+03
       438   2 -6.167913E+05 -2.696498E+04 -2.734292E+04  1.142393E+04  8.361775E+02  5.408286E+03
       438   3 -6.517490E+05 -3.570034E+04 -3.703264E+04  1.918542E+04  2.143751E+03  7.271743E+03
       438   4 -5.063029E+05  1.724277E+02 -1.531009E+03  1.961361E+04  1.114386E+03  3.530580E+03
       438   5 -5.061273E+05  1.292696E+02 -2.614943E+03  1.178733E+04  2.404994E+03  5.413933E+03
       438   6 -5.063056E+05 -1.080948E+02 -4.619947E+03  1.961464E+04  3.695976E+03  7.277223E+03
       438   7 -4.304106E+05  1.877146E+04  1.552382E+04  1.991106E+04  2.700057E+03  3.536400E+03
       438   8 -3.954519E+05  2.722269E+04  2.211228E+04  1.215080E+04  3.974087E+03  5.419581E+03
       438   9 -3.608424E+05  3.548272E+04  2.779143E+04  2.004395E+04  5.248562E+03  7.282705E+03
       438  10 -5.821899E+05 -1.842701E+04 -1.858622E+04  1.931619E+04 -1.997003E-08 -8.478253E-10
       438  11 -6.167913E+05 -2.696501E+04 -2.734298E+04  1.142393E+04 -4.546321E-09 -3.987443E-09
       438  12 -6.517490E+05 -3.570040E+04 -3.703275E+04  1.918541E+04  1.208293E-08  1.682561E-09
       438  13 -5.063029E+05  1.724140E+02 -1.531035E+03  1.961361E+04  1.830769E-09 -1.918262E-09
       438  14 -5.061273E+05  1.292366E+02 -2.615009E+03  1.178732E+04  1.632486E-09 -1.217697E-10
       438  15 -5.063056E+05 -1.081553E+02 -4.620072E+03  1.961462E+04  4.862353E-09  5.529428E-09
       438  16 -4.304106E+05  1.877144E+04  1.552379E+04  1.991105E+04  2.054406E-08  4.900341E-09
       438  17 -3.954519E+05  2.722265E+04  2.211219E+04  1.215078E+04  8.301267E-09 -9.613041E-10
       438  18 -3.608425E+05  3.548265E+04  2.779128E+04  2.004391E+04 -1.322513E-08  8.882138E-09
       438  19 -5.821899E+05 -1.842699E+04 -1.858620E+04  1.931619E+04  4.710926E+02 -3.524760E+03
       438  20 -6.167913E+05 -2.696498E+04 -2.734292E+04  1.142393E+04 -8.361775E+02 -5.408286E+03
       438  21 -6.517490E+05 -3.570034E+04 -3.703264E+04  1.918542E+04 -2.143751E+03 -7.271743E+03
       438  22 -5.063029E+05  1.724277E+02 -1.531009E+03  1.961361E+04 -1.114386E+03 -3.530580E+03
       438  23 -5.061273E+05  1.292696E+02 -2.614943E+03  1.178733E+04 -2.404994E+03 -5.413933E+03
       438  24 -5.063056E+05 -1.080948E+02 -4.619947E+03  1.961464E+04 -3.695976E+03 -7.277223E+03
       438  25 -4.304106E+05  1.877146E+04  1.552382E+04  1.991106E+04 -2.700057E+03 -3.536400E+03
       438  26 -3.954519E+05  2.722269E+04  2.211228E+04  1.215080E+04 -3.974087E+03 -5.419581E+03
       438  27 -3.608424E+05  3.548272E+04  2.779143E+04  2.004395E+04 -5.248562E+03 -7.282705E+03
       439   1 -6.819294E+05 -4.252919E+04 -4.526468E+04  1.828705E+04  2.955531E+03  8.408182E+03
       439   2 -7.155633E+05 -5.108357E+04 -5.731437E+04  1.164051E+04  8.512892E+03  1.021423E+04
       439   3 -7.512175E+05 -6.435324E+04 -7.419131E+04  2.057608E+04  1.407182E+04  1.161228E+04
       439   4 -5.066649E+05  4.074765E+02 -6.009442E+03  1.959344E+04  4.626861E+03  8.413992E+03
       439   5 -5.056876E+05  3.068740E+02 -1.037856E+04  1.181095E+04  9.843374E+03  1.021862E+04
       439   6 -5.066715E+05 -4.448697E+03 -1.933676E+04  1.961032E+04  1.506176E+04  1.161531E+04
       439   7 -3.313717E+05  4.334205E+04  3.324387E+04  2.090017E+04  6.298658E+03  8.419809E+03
       439   8 -2.957707E+05  5.169431E+04  3.655448E+04  1.198142E+04  1.117430E+04  1.022302E+04
       439   9 -2.620697E+05  5.545176E+04  3.551402E+04  1.864412E+04  1.605208E+04  1.161833E+04
       439  10 -6.819294E+05 -4.252927E+04 -4.526483E+04  1.828703E+04  5.862953E-09 -1.543940E-09
       439  11 -7.155634E+05 -5.108370E+04 -5.731471E+04  1.164044E+04  2.767662E-09  3.616520E-09
       439  12 -7.512178E+05 -6.435343E+04 -7.419194E+04  2.057595E+04  3.854068E-09 -1.996828E-09
       439  13 -5.066649E+05  4.073947E+02 -6.009615E+03  1.959341E+04  2.283830E-09 -5.832510E-09
       439  14 -5.056877E+05  3.067358E+02 -1.037894E+04  1.181087E+04  1.340476E-09  8.670191E-09
       439  15 -5.066718E+05 -4.448903E+03 -1.933744E+04  1.961017E+04  4.791376E-09  1.730679E-09
       439  16 -3.313718E+05  4.334197E+04  3.324366E+04  2.090013E+04 -4.732646E-09  5.935084E-11
       439  17 -2.957708E+05  5.169417E+04  3.655405E+04  1.198132E+04  3.319200E-12 -7.112706E-09
       439  18 -2.620700E+05  5.545155E+04  3.551328E+04  1.864397E+04 -4.788581E-09 -5.152322E-09
       439  19 -6.819294E+05 -4.252919E+04 -4.526468E+04  1.828705E+04 -2.955531E+03 -8.408182E+03
       439  20 -7.155633E+05 -5.108357E+04 -5.731437E+04  1.164051E+04 -8.512892E+03 -1.021423E+04
       439  21 -7.512175E+05 -6.435324E+04 -7.419131E+04  2.057608E+04 -1.407182E+04 -1.161228E+04
       439  22 -5.066649E+05  4.074765E+02 -6.009442E+03  1.959344E+04 -4.626861E+03 -8.413992E+03
       439  23 -5.056876E+05  3.068740E+02 -1.037856E+04  1.181095E+04 -9.843374E+03 -1.021862E+04
       439  24 -5.066715E+05 -4.448697E+03 -1.933676E+04  1.961032E+04 -1.506176E+04 -1.161531E+04
       439  25 -3.313717E+05  4.334205E+04  3.324387E+04  2.090017E+04 -6.298658E+03 -8.419809E+03
       439  26 -2.957707E+05  5.169431E+04  3.655448E+04  1.198142E+04 -1.117430E+04 -1.022302E+04
       439  27 -2.620697E+05  5.545176E+04  3.551402E+04  1.864412E+04 -1.605208E+04 -1.161833E+04
       440   1 -7.853264E+05 -6.322274E+04 -8.544711E+04  7.847214E+03  1.485779E+04  1.359356E+04
       440   2 -8.085264E+05 -7.347479E+04 -1.106060E+05  2.260049E+04  4.409962E+04  1.357499E+04
       440   3 -8.546034E+05 -1.596269E+05 -1.738107E+05  5.262083E+04  7.336721E+04  4.568858E+03
       440   4 -5.110263E+05  4.015965E+03 -2.420834E+04  1.946252E+04  1.853711E+04  1.360579E+04
       440   5 -5.002597E+05  2.090588E+03 -4.084362E+04  1.195426E+04  4.024501E+04  1.356118E+04
       440   6 -5.110519E+05 -7.440715E+04 -9.027771E+04  1.971466E+04  6.198079E+04  4.528897E+03
       440   7 -2.366556E+05  7.125004E+04  3.702582E+04  3.108297E+04  2.221804E+04  1.361815E+04
       440   8 -1.919043E+05  7.764988E+04  2.891278E+04  1.302602E+03  3.638850E+04  1.354750E+04
       440   9 -1.673897E+05  1.080809E+04 -6.752139E+03 -1.320988E+04  5.058808E+04  4.490156E+03
       440  10 -7.853267E+05 -6.322300E+04 -8.544787E+04  7.847052E+03 -1.639768E-08 -5.334011E-09
       440  11 -8.085286E+05 -7.347551E+04 -1.106100E+05  2.260001E+04 -2.954393E-09 -4.537668E-09
       440  12 -8.546092E+05 -1.596283E+05 -1.738209E+05  5.262056E+04  1.069413E-08  2.040853E-09
       440  13 -5.110267E+05  4.015674E+03 -2.420933E+04  1.946232E+04  1.808318E-09 -2.070334E-09
       440  14 -5.002615E+05  2.089955E+03 -4.084701E+04  1.195382E+04  1.534118E-09 -3.457615E-09
       440  15 -5.110560E+05 -7.440821E+04 -9.028497E+04  1.971443E+04  4.050895E-09  4.725456E-12
       440  16 -2.366562E+05  7.124971E+04  3.702455E+04  3.108273E+04  1.733692E-08  9.691825E-10
       440  17 -1.919058E+05  7.764933E+04  2.890994E+04  1.302205E+03  5.320623E-09  9.041633E-09
       440  18 -1.673925E+05  1.080738E+04 -6.756988E+03 -1.321006E+04 -1.239922E-08  4.452922E-10
       440  19 -7.853264E+05 -6.322274E+04 -8.544711E+04  7.847214E+03 -1.485779E+04 -1.359356E+04
       440  20 -8.085264E+05 -7.347479E+04 -1.106060E+05  2.260049E+04 -4.409962E+04 -1.357499E+04
       440  21 -8.546034E+05 -1.596269E+05 -1.738107E+05  5.262083E+04 -7.336721E+04 -4.568858E+03
       440  22 -5.110263E+05  4.015965E+03 -2.420834E+04  1.946252E+04 -1.853711E+04 -1.360579E+04
       440  23 -5.002597E+05  2.090588E+03 -4.084362E+04  1.195426E+04 -4.024501E+04 -1.356118E+04
       440  24 -5.110519E+05 -7.440715E+04 -9.027771E+04  1.971466E+04 -6.198079E+04 -4.528897E+03
       440  25 -2.366556E+05  7.125004E+04  3.702582E+04  3.108297E+04 -2.221804E+04 -1.361815E+04
       440  26 -1.919043E+05  7.764988E+04  2.891278E+04  1.302602E+03 -3.638850E+04 -1.354750E+04
       440  27 -1.673897E+05  1.080809E+04 -6.752139E+03 -1.320988E+04 -5.058808E+04 -4.490156E+03
