    1C
    1UUSER                                                              
    1UDATE              11.october.2022                                 
    1UTIME              17:44:06                                        
    1UHOST                                                              
    1UPGM               CalculiX                                        
    1UVERSION           Version 2.20                             
    1UCOMPILETIME       Sun Jul 31 18:08:37 CEST 2022                    
    1UDIR                                                               
    1UDBN                                                               
    1UMAT    1MESH_MATERIAL                                             
    2C                           841                                     1
 -1         1 0.00000E+00 0.00000E+00 0.00000E+00
 -1         2 1.66667E-02 0.00000E+00 0.00000E+00
 -1         3 3.33333E-02 0.00000E+00 0.00000E+00
 -1         4 5.00000E-02 0.00000E+00 0.00000E+00
 -1         5 6.66667E-02 0.00000E+00 0.00000E+00
 -1         8 0.00000E+00 6.25000E-03 0.00000E+00
 -1         9 1.66667E-02 6.25000E-03 0.00000E+00
 -1        10 3.33333E-02 6.25000E-03 0.00000E+00
 -1        11 5.00000E-02 6.25000E-03 0.00000E+00
 -1        12 6.66667E-02 6.25000E-03 0.00000E+00
 -1        15 0.00000E+00 1.25000E-02 0.00000E+00
 -1        16 1.66667E-02 1.25000E-02 0.00000E+00
 -1        17 3.33333E-02 1.25000E-02 0.00000E+00
 -1        18 5.00000E-02 1.25000E-02 0.00000E+00
 -1        19 6.66667E-02 1.25000E-02 0.00000E+00
 -1        20 8.33333E-02 1.25000E-02 0.00000E+00
 -1        21 1.00000E-01 1.25000E-02 0.00000E+00
 -1        22 0.00000E+00 1.87500E-02 0.00000E+00
 -1        23 1.66667E-02 1.87500E-02 0.00000E+00
 -1        24 3.33333E-02 1.87500E-02 0.00000E+00
 -1        25 5.00000E-02 1.87500E-02 0.00000E+00
 -1        26 6.66667E-02 1.87500E-02 0.00000E+00
 -1        27 8.33333E-02 1.87500E-02 0.00000E+00
 -1        28 1.00000E-01 1.87500E-02 0.00000E+00
 -1        29 0.00000E+00 2.50000E-02 0.00000E+00
 -1        30 1.66667E-02 2.50000E-02 0.00000E+00
 -1        31 3.33333E-02 2.50000E-02 0.00000E+00
 -1        32 5.00000E-02 2.50000E-02 0.00000E+00
 -1        33 6.66667E-02 2.50000E-02 0.00000E+00
 -1        34 8.33333E-02 2.50000E-02 0.00000E+00
 -1        35 1.00000E-01 2.50000E-02 0.00000E+00
 -1        36 1.04167E-03 0.00000E+00 0.00000E+00
 -1        37 2.08333E-03 0.00000E+00 0.00000E+00
 -1        38 3.12500E-03 0.00000E+00 0.00000E+00
 -1        39 4.16667E-03 0.00000E+00 0.00000E+00
 -1        40 5.20833E-03 0.00000E+00 0.00000E+00
 -1        41 6.25000E-03 0.00000E+00 0.00000E+00
 -1        42 7.29167E-03 0.00000E+00 0.00000E+00
 -1        43 8.33333E-03 0.00000E+00 0.00000E+00
 -1        44 9.37500E-03 0.00000E+00 0.00000E+00
 -1        45 1.04167E-02 0.00000E+00 0.00000E+00
 -1        46 1.14583E-02 0.00000E+00 0.00000E+00
 -1        47 1.25000E-02 0.00000E+00 0.00000E+00
 -1        48 1.35417E-02 0.00000E+00 0.00000E+00
 -1        49 1.45833E-02 0.00000E+00 0.00000E+00
 -1        50 1.56250E-02 0.00000E+00 0.00000E+00
 -1        51 0.00000E+00 1.04167E-03 0.00000E+00
 -1        52 0.00000E+00 2.08333E-03 0.00000E+00
 -1        53 0.00000E+00 3.12500E-03 0.00000E+00
 -1        54 0.00000E+00 4.16667E-03 0.00000E+00
 -1        55 0.00000E+00 5.20833E-03 0.00000E+00
 -1        56 1.04167E-03 3.90630E-04 0.00000E+00
 -1        57 2.08333E-03 7.81250E-04 0.00000E+00
 -1        58 3.12500E-03 1.17188E-03 0.00000E+00
 -1        59 4.16667E-03 1.56250E-03 0.00000E+00
 -1        60 5.20833E-03 1.95312E-03 0.00000E+00
 -1        61 6.25000E-03 2.34375E-03 0.00000E+00
 -1        62 7.29167E-03 2.73438E-03 0.00000E+00
 -1        63 8.33333E-03 3.12500E-03 0.00000E+00
 -1        64 9.37500E-03 3.51563E-03 0.00000E+00
 -1        65 1.04167E-02 3.90625E-03 0.00000E+00
 -1        66 1.14583E-02 4.29688E-03 0.00000E+00
 -1        67 1.25000E-02 4.68750E-03 0.00000E+00
 -1        68 1.35417E-02 5.07813E-03 0.00000E+00
 -1        69 1.45833E-02 5.46875E-03 0.00000E+00
 -1        70 1.56250E-02 5.85938E-03 0.00000E+00
 -1        71 1.77083E-02 0.00000E+00 0.00000E+00
 -1        72 1.87500E-02 0.00000E+00 0.00000E+00
 -1        73 1.97917E-02 0.00000E+00 0.00000E+00
 -1        74 2.08333E-02 0.00000E+00 0.00000E+00
 -1        75 2.18750E-02 0.00000E+00 0.00000E+00
 -1        76 2.29167E-02 0.00000E+00 0.00000E+00
 -1        77 2.39583E-02 0.00000E+00 0.00000E+00
 -1        78 2.50000E-02 0.00000E+00 0.00000E+00
 -1        79 2.60417E-02 0.00000E+00 0.00000E+00
 -1        80 2.70833E-02 0.00000E+00 0.00000E+00
 -1        81 2.81250E-02 0.00000E+00 0.00000E+00
 -1        82 2.91667E-02 0.00000E+00 0.00000E+00
 -1        83 3.02083E-02 0.00000E+00 0.00000E+00
 -1        84 3.12500E-02 0.00000E+00 0.00000E+00
 -1        85 3.22917E-02 0.00000E+00 0.00000E+00
 -1        86 1.66667E-02 1.04167E-03 0.00000E+00
 -1        87 1.66667E-02 2.08333E-03 0.00000E+00
 -1        88 1.66667E-02 3.12500E-03 0.00000E+00
 -1        89 1.66667E-02 4.16667E-03 0.00000E+00
 -1        90 1.66667E-02 5.20833E-03 0.00000E+00
 -1        91 1.77083E-02 3.90630E-04 0.00000E+00
 -1        92 1.87500E-02 7.81250E-04 0.00000E+00
 -1        93 1.97917E-02 1.17188E-03 0.00000E+00
 -1        94 2.08333E-02 1.56250E-03 0.00000E+00
 -1        95 2.18750E-02 1.95312E-03 0.00000E+00
 -1        96 2.29167E-02 2.34375E-03 0.00000E+00
 -1        97 2.39583E-02 2.73438E-03 0.00000E+00
 -1        98 2.50000E-02 3.12500E-03 0.00000E+00
 -1        99 2.60417E-02 3.51563E-03 0.00000E+00
 -1       100 2.70833E-02 3.90625E-03 0.00000E+00
 -1       101 2.81250E-02 4.29688E-03 0.00000E+00
 -1       102 2.91667E-02 4.68750E-03 0.00000E+00
 -1       103 3.02083E-02 5.07813E-03 0.00000E+00
 -1       104 3.12500E-02 5.46875E-03 0.00000E+00
 -1       105 3.22917E-02 5.85938E-03 0.00000E+00
 -1       106 3.43750E-02 0.00000E+00 0.00000E+00
 -1       107 3.54167E-02 0.00000E+00 0.00000E+00
 -1       108 3.64583E-02 0.00000E+00 0.00000E+00
 -1       109 3.75000E-02 0.00000E+00 0.00000E+00
 -1       110 3.85417E-02 0.00000E+00 0.00000E+00
 -1       111 3.95833E-02 0.00000E+00 0.00000E+00
 -1       112 4.06250E-02 0.00000E+00 0.00000E+00
 -1       113 4.16667E-02 0.00000E+00 0.00000E+00
 -1       114 4.27083E-02 0.00000E+00 0.00000E+00
 -1       115 4.37500E-02 0.00000E+00 0.00000E+00
 -1       116 4.47917E-02 0.00000E+00 0.00000E+00
 -1       117 4.58333E-02 0.00000E+00 0.00000E+00
 -1       118 4.68750E-02 0.00000E+00 0.00000E+00
 -1       119 4.79167E-02 0.00000E+00 0.00000E+00
 -1       120 4.89583E-02 0.00000E+00 0.00000E+00
 -1       121 3.33333E-02 1.04167E-03 0.00000E+00
 -1       122 3.33333E-02 2.08333E-03 0.00000E+00
 -1       123 3.33333E-02 3.12500E-03 0.00000E+00
 -1       124 3.33333E-02 4.16667E-03 0.00000E+00
 -1       125 3.33333E-02 5.20833E-03 0.00000E+00
 -1       126 3.43750E-02 3.90630E-04 0.00000E+00
 -1       127 3.54167E-02 7.81250E-04 0.00000E+00
 -1       128 3.64583E-02 1.17188E-03 0.00000E+00
 -1       129 3.75000E-02 1.56250E-03 0.00000E+00
 -1       130 3.85417E-02 1.95312E-03 0.00000E+00
 -1       131 3.95833E-02 2.34375E-03 0.00000E+00
 -1       132 4.06250E-02 2.73438E-03 0.00000E+00
 -1       133 4.16667E-02 3.12500E-03 0.00000E+00
 -1       134 4.27083E-02 3.51563E-03 0.00000E+00
 -1       135 4.37500E-02 3.90625E-03 0.00000E+00
 -1       136 4.47917E-02 4.29688E-03 0.00000E+00
 -1       137 4.58333E-02 4.68750E-03 0.00000E+00
 -1       138 4.68750E-02 5.07813E-03 0.00000E+00
 -1       139 4.79167E-02 5.46875E-03 0.00000E+00
 -1       140 4.89583E-02 5.85938E-03 0.00000E+00
 -1       141 5.10417E-02 0.00000E+00 0.00000E+00
 -1       142 5.20833E-02 0.00000E+00 0.00000E+00
 -1       143 5.31250E-02 0.00000E+00 0.00000E+00
 -1       144 5.41667E-02 0.00000E+00 0.00000E+00
 -1       145 5.52083E-02 0.00000E+00 0.00000E+00
 -1       146 5.62500E-02 0.00000E+00 0.00000E+00
 -1       147 5.72917E-02 0.00000E+00 0.00000E+00
 -1       148 5.83333E-02 0.00000E+00 0.00000E+00
 -1       149 5.93750E-02 0.00000E+00 0.00000E+00
 -1       150 6.04167E-02 0.00000E+00 0.00000E+00
 -1       151 6.14583E-02 0.00000E+00 0.00000E+00
 -1       152 6.25000E-02 0.00000E+00 0.00000E+00
 -1       153 6.35417E-02 0.00000E+00 0.00000E+00
 -1       154 6.45833E-02 0.00000E+00 0.00000E+00
 -1       155 6.56250E-02 0.00000E+00 0.00000E+00
 -1       156 5.00000E-02 1.04167E-03 0.00000E+00
 -1       157 5.00000E-02 2.08333E-03 0.00000E+00
 -1       158 5.00000E-02 3.12500E-03 0.00000E+00
 -1       159 5.00000E-02 4.16667E-03 0.00000E+00
 -1       160 5.00000E-02 5.20833E-03 0.00000E+00
 -1       161 5.10417E-02 3.90630E-04 0.00000E+00
 -1       162 5.20833E-02 7.81250E-04 0.00000E+00
 -1       163 5.31250E-02 1.17188E-03 0.00000E+00
 -1       164 5.41667E-02 1.56250E-03 0.00000E+00
 -1       165 5.52083E-02 1.95312E-03 0.00000E+00
 -1       166 5.62500E-02 2.34375E-03 0.00000E+00
 -1       167 5.72917E-02 2.73438E-03 0.00000E+00
 -1       168 5.83333E-02 3.12500E-03 0.00000E+00
 -1       169 5.93750E-02 3.51563E-03 0.00000E+00
 -1       170 6.04167E-02 3.90625E-03 0.00000E+00
 -1       171 6.14583E-02 4.29688E-03 0.00000E+00
 -1       172 6.25000E-02 4.68750E-03 0.00000E+00
 -1       173 6.35417E-02 5.07813E-03 0.00000E+00
 -1       174 6.45833E-02 5.46875E-03 0.00000E+00
 -1       175 6.56250E-02 5.85938E-03 0.00000E+00
 -1       191 6.66667E-02 1.04167E-03 0.00000E+00
 -1       192 6.66667E-02 2.08333E-03 0.00000E+00
 -1       193 6.66667E-02 3.12500E-03 0.00000E+00
 -1       194 6.66667E-02 4.16667E-03 0.00000E+00
 -1       195 6.66667E-02 5.20833E-03 0.00000E+00
 -1       251 1.04167E-03 6.25000E-03 0.00000E+00
 -1       252 2.08333E-03 6.25000E-03 0.00000E+00
 -1       253 3.12500E-03 6.25000E-03 0.00000E+00
 -1       254 4.16667E-03 6.25000E-03 0.00000E+00
 -1       255 5.20833E-03 6.25000E-03 0.00000E+00
 -1       256 6.25000E-03 6.25000E-03 0.00000E+00
 -1       257 7.29167E-03 6.25000E-03 0.00000E+00
 -1       258 8.33333E-03 6.25000E-03 0.00000E+00
 -1       259 9.37500E-03 6.25000E-03 0.00000E+00
 -1       260 1.04167E-02 6.25000E-03 0.00000E+00
 -1       261 1.14583E-02 6.25000E-03 0.00000E+00
 -1       262 1.25000E-02 6.25000E-03 0.00000E+00
 -1       263 1.35417E-02 6.25000E-03 0.00000E+00
 -1       264 1.45833E-02 6.25000E-03 0.00000E+00
 -1       265 1.56250E-02 6.25000E-03 0.00000E+00
 -1       266 0.00000E+00 7.29167E-03 0.00000E+00
 -1       267 0.00000E+00 8.33333E-03 0.00000E+00
 -1       268 0.00000E+00 9.37500E-03 0.00000E+00
 -1       269 0.00000E+00 1.04167E-02 0.00000E+00
 -1       270 0.00000E+00 1.14583E-02 0.00000E+00
 -1       271 1.04167E-03 6.64063E-03 0.00000E+00
 -1       272 2.08333E-03 7.03125E-03 0.00000E+00
 -1       273 3.12500E-03 7.42188E-03 0.00000E+00
 -1       274 4.16667E-03 7.81250E-03 0.00000E+00
 -1       275 5.20833E-03 8.20313E-03 0.00000E+00
 -1       276 6.25000E-03 8.59375E-03 0.00000E+00
 -1       277 7.29167E-03 8.98438E-03 0.00000E+00
 -1       278 8.33333E-03 9.37500E-03 0.00000E+00
 -1       279 9.37500E-03 9.76562E-03 0.00000E+00
 -1       280 1.04167E-02 1.01562E-02 0.00000E+00
 -1       281 1.14583E-02 1.05469E-02 0.00000E+00
 -1       282 1.25000E-02 1.09375E-02 0.00000E+00
 -1       283 1.35417E-02 1.13281E-02 0.00000E+00
 -1       284 1.45833E-02 1.17188E-02 0.00000E+00
 -1       285 1.56250E-02 1.21094E-02 0.00000E+00
 -1       286 1.77083E-02 6.25000E-03 0.00000E+00
 -1       287 1.87500E-02 6.25000E-03 0.00000E+00
 -1       288 1.97917E-02 6.25000E-03 0.00000E+00
 -1       289 2.08333E-02 6.25000E-03 0.00000E+00
 -1       290 2.18750E-02 6.25000E-03 0.00000E+00
 -1       291 2.29167E-02 6.25000E-03 0.00000E+00
 -1       292 2.39583E-02 6.25000E-03 0.00000E+00
 -1       293 2.50000E-02 6.25000E-03 0.00000E+00
 -1       294 2.60417E-02 6.25000E-03 0.00000E+00
 -1       295 2.70833E-02 6.25000E-03 0.00000E+00
 -1       296 2.81250E-02 6.25000E-03 0.00000E+00
 -1       297 2.91667E-02 6.25000E-03 0.00000E+00
 -1       298 3.02083E-02 6.25000E-03 0.00000E+00
 -1       299 3.12500E-02 6.25000E-03 0.00000E+00
 -1       300 3.22917E-02 6.25000E-03 0.00000E+00
 -1       301 1.66667E-02 7.29167E-03 0.00000E+00
 -1       302 1.66667E-02 8.33333E-03 0.00000E+00
 -1       303 1.66667E-02 9.37500E-03 0.00000E+00
 -1       304 1.66667E-02 1.04167E-02 0.00000E+00
 -1       305 1.66667E-02 1.14583E-02 0.00000E+00
 -1       306 1.77083E-02 6.64063E-03 0.00000E+00
 -1       307 1.87500E-02 7.03125E-03 0.00000E+00
 -1       308 1.97917E-02 7.42188E-03 0.00000E+00
 -1       309 2.08333E-02 7.81250E-03 0.00000E+00
 -1       310 2.18750E-02 8.20313E-03 0.00000E+00
 -1       311 2.29167E-02 8.59375E-03 0.00000E+00
 -1       312 2.39583E-02 8.98438E-03 0.00000E+00
 -1       313 2.50000E-02 9.37500E-03 0.00000E+00
 -1       314 2.60417E-02 9.76562E-03 0.00000E+00
 -1       315 2.70833E-02 1.01562E-02 0.00000E+00
 -1       316 2.81250E-02 1.05469E-02 0.00000E+00
 -1       317 2.91667E-02 1.09375E-02 0.00000E+00
 -1       318 3.02083E-02 1.13281E-02 0.00000E+00
 -1       319 3.12500E-02 1.17188E-02 0.00000E+00
 -1       320 3.22917E-02 1.21094E-02 0.00000E+00
 -1       321 3.43750E-02 6.25000E-03 0.00000E+00
 -1       322 3.54167E-02 6.25000E-03 0.00000E+00
 -1       323 3.64583E-02 6.25000E-03 0.00000E+00
 -1       324 3.75000E-02 6.25000E-03 0.00000E+00
 -1       325 3.85417E-02 6.25000E-03 0.00000E+00
 -1       326 3.95833E-02 6.25000E-03 0.00000E+00
 -1       327 4.06250E-02 6.25000E-03 0.00000E+00
 -1       328 4.16667E-02 6.25000E-03 0.00000E+00
 -1       329 4.27083E-02 6.25000E-03 0.00000E+00
 -1       330 4.37500E-02 6.25000E-03 0.00000E+00
 -1       331 4.47917E-02 6.25000E-03 0.00000E+00
 -1       332 4.58333E-02 6.25000E-03 0.00000E+00
 -1       333 4.68750E-02 6.25000E-03 0.00000E+00
 -1       334 4.79167E-02 6.25000E-03 0.00000E+00
 -1       335 4.89583E-02 6.25000E-03 0.00000E+00
 -1       336 3.33333E-02 7.29167E-03 0.00000E+00
 -1       337 3.33333E-02 8.33333E-03 0.00000E+00
 -1       338 3.33333E-02 9.37500E-03 0.00000E+00
 -1       339 3.33333E-02 1.04167E-02 0.00000E+00
 -1       340 3.33333E-02 1.14583E-02 0.00000E+00
 -1       341 3.43750E-02 6.64063E-03 0.00000E+00
 -1       342 3.54167E-02 7.03125E-03 0.00000E+00
 -1       343 3.64583E-02 7.42188E-03 0.00000E+00
 -1       344 3.75000E-02 7.81250E-03 0.00000E+00
 -1       345 3.85417E-02 8.20313E-03 0.00000E+00
 -1       346 3.95833E-02 8.59375E-03 0.00000E+00
 -1       347 4.06250E-02 8.98438E-03 0.00000E+00
 -1       348 4.16667E-02 9.37500E-03 0.00000E+00
 -1       349 4.27083E-02 9.76562E-03 0.00000E+00
 -1       350 4.37500E-02 1.01562E-02 0.00000E+00
 -1       351 4.47917E-02 1.05469E-02 0.00000E+00
 -1       352 4.58333E-02 1.09375E-02 0.00000E+00
 -1       353 4.68750E-02 1.13281E-02 0.00000E+00
 -1       354 4.79167E-02 1.17188E-02 0.00000E+00
 -1       355 4.89583E-02 1.21094E-02 0.00000E+00
 -1       356 5.10417E-02 6.25000E-03 0.00000E+00
 -1       357 5.20833E-02 6.25000E-03 0.00000E+00
 -1       358 5.31250E-02 6.25000E-03 0.00000E+00
 -1       359 5.41667E-02 6.25000E-03 0.00000E+00
 -1       360 5.52083E-02 6.25000E-03 0.00000E+00
 -1       361 5.62500E-02 6.25000E-03 0.00000E+00
 -1       362 5.72917E-02 6.25000E-03 0.00000E+00
 -1       363 5.83333E-02 6.25000E-03 0.00000E+00
 -1       364 5.93750E-02 6.25000E-03 0.00000E+00
 -1       365 6.04167E-02 6.25000E-03 0.00000E+00
 -1       366 6.14583E-02 6.25000E-03 0.00000E+00
 -1       367 6.25000E-02 6.25000E-03 0.00000E+00
 -1       368 6.35417E-02 6.25000E-03 0.00000E+00
 -1       369 6.45833E-02 6.25000E-03 0.00000E+00
 -1       370 6.56250E-02 6.25000E-03 0.00000E+00
 -1       371 5.00000E-02 7.29167E-03 0.00000E+00
 -1       372 5.00000E-02 8.33333E-03 0.00000E+00
 -1       373 5.00000E-02 9.37500E-03 0.00000E+00
 -1       374 5.00000E-02 1.04167E-02 0.00000E+00
 -1       375 5.00000E-02 1.14583E-02 0.00000E+00
 -1       376 5.10417E-02 6.64063E-03 0.00000E+00
 -1       377 5.20833E-02 7.03125E-03 0.00000E+00
 -1       378 5.31250E-02 7.42188E-03 0.00000E+00
 -1       379 5.41667E-02 7.81250E-03 0.00000E+00
 -1       380 5.52083E-02 8.20313E-03 0.00000E+00
 -1       381 5.62500E-02 8.59375E-03 0.00000E+00
 -1       382 5.72917E-02 8.98438E-03 0.00000E+00
 -1       383 5.83333E-02 9.37500E-03 0.00000E+00
 -1       384 5.93750E-02 9.76562E-03 0.00000E+00
 -1       385 6.04167E-02 1.01562E-02 0.00000E+00
 -1       386 6.14583E-02 1.05469E-02 0.00000E+00
 -1       387 6.25000E-02 1.09375E-02 0.00000E+00
 -1       388 6.35417E-02 1.13281E-02 0.00000E+00
 -1       389 6.45833E-02 1.17188E-02 0.00000E+00
 -1       390 6.56250E-02 1.21094E-02 0.00000E+00
 -1       406 6.66667E-02 7.29167E-03 0.00000E+00
 -1       407 6.66667E-02 8.33333E-03 0.00000E+00
 -1       408 6.66667E-02 9.37500E-03 0.00000E+00
 -1       409 6.66667E-02 1.04167E-02 0.00000E+00
 -1       410 6.66667E-02 1.14583E-02 0.00000E+00
 -1       466 1.04167E-03 1.25000E-02 0.00000E+00
 -1       467 2.08333E-03 1.25000E-02 0.00000E+00
 -1       468 3.12500E-03 1.25000E-02 0.00000E+00
 -1       469 4.16667E-03 1.25000E-02 0.00000E+00
 -1       470 5.20833E-03 1.25000E-02 0.00000E+00
 -1       471 6.25000E-03 1.25000E-02 0.00000E+00
 -1       472 7.29167E-03 1.25000E-02 0.00000E+00
 -1       473 8.33333E-03 1.25000E-02 0.00000E+00
 -1       474 9.37500E-03 1.25000E-02 0.00000E+00
 -1       475 1.04167E-02 1.25000E-02 0.00000E+00
 -1       476 1.14583E-02 1.25000E-02 0.00000E+00
 -1       477 1.25000E-02 1.25000E-02 0.00000E+00
 -1       478 1.35417E-02 1.25000E-02 0.00000E+00
 -1       479 1.45833E-02 1.25000E-02 0.00000E+00
 -1       480 1.56250E-02 1.25000E-02 0.00000E+00
 -1       481 0.00000E+00 1.35417E-02 0.00000E+00
 -1       482 0.00000E+00 1.45833E-02 0.00000E+00
 -1       483 0.00000E+00 1.56250E-02 0.00000E+00
 -1       484 0.00000E+00 1.66667E-02 0.00000E+00
 -1       485 0.00000E+00 1.77083E-02 0.00000E+00
 -1       486 1.04167E-03 1.28906E-02 0.00000E+00
 -1       487 2.08333E-03 1.32813E-02 0.00000E+00
 -1       488 3.12500E-03 1.36719E-02 0.00000E+00
 -1       489 4.16667E-03 1.40625E-02 0.00000E+00
 -1       490 5.20833E-03 1.44531E-02 0.00000E+00
 -1       491 6.25000E-03 1.48437E-02 0.00000E+00
 -1       492 7.29167E-03 1.52344E-02 0.00000E+00
 -1       493 8.33333E-03 1.56250E-02 0.00000E+00
 -1       494 9.37500E-03 1.60156E-02 0.00000E+00
 -1       495 1.04167E-02 1.64062E-02 0.00000E+00
 -1       496 1.14583E-02 1.67969E-02 0.00000E+00
 -1       497 1.25000E-02 1.71875E-02 0.00000E+00
 -1       498 1.35417E-02 1.75781E-02 0.00000E+00
 -1       499 1.45833E-02 1.79687E-02 0.00000E+00
 -1       500 1.56250E-02 1.83594E-02 0.00000E+00
 -1       501 1.77083E-02 1.25000E-02 0.00000E+00
 -1       502 1.87500E-02 1.25000E-02 0.00000E+00
 -1       503 1.97917E-02 1.25000E-02 0.00000E+00
 -1       504 2.08333E-02 1.25000E-02 0.00000E+00
 -1       505 2.18750E-02 1.25000E-02 0.00000E+00
 -1       506 2.29167E-02 1.25000E-02 0.00000E+00
 -1       507 2.39583E-02 1.25000E-02 0.00000E+00
 -1       508 2.50000E-02 1.25000E-02 0.00000E+00
 -1       509 2.60417E-02 1.25000E-02 0.00000E+00
 -1       510 2.70833E-02 1.25000E-02 0.00000E+00
 -1       511 2.81250E-02 1.25000E-02 0.00000E+00
 -1       512 2.91667E-02 1.25000E-02 0.00000E+00
 -1       513 3.02083E-02 1.25000E-02 0.00000E+00
 -1       514 3.12500E-02 1.25000E-02 0.00000E+00
 -1       515 3.22917E-02 1.25000E-02 0.00000E+00
 -1       516 1.66667E-02 1.35417E-02 0.00000E+00
 -1       517 1.66667E-02 1.45833E-02 0.00000E+00
 -1       518 1.66667E-02 1.56250E-02 0.00000E+00
 -1       519 1.66667E-02 1.66667E-02 0.00000E+00
 -1       520 1.66667E-02 1.77083E-02 0.00000E+00
 -1       521 1.77083E-02 1.28906E-02 0.00000E+00
 -1       522 1.87500E-02 1.32813E-02 0.00000E+00
 -1       523 1.97917E-02 1.36719E-02 0.00000E+00
 -1       524 2.08333E-02 1.40625E-02 0.00000E+00
 -1       525 2.18750E-02 1.44531E-02 0.00000E+00
 -1       526 2.29167E-02 1.48437E-02 0.00000E+00
 -1       527 2.39583E-02 1.52344E-02 0.00000E+00
 -1       528 2.50000E-02 1.56250E-02 0.00000E+00
 -1       529 2.60417E-02 1.60156E-02 0.00000E+00
 -1       530 2.70833E-02 1.64062E-02 0.00000E+00
 -1       531 2.81250E-02 1.67969E-02 0.00000E+00
 -1       532 2.91667E-02 1.71875E-02 0.00000E+00
 -1       533 3.02083E-02 1.75781E-02 0.00000E+00
 -1       534 3.12500E-02 1.79687E-02 0.00000E+00
 -1       535 3.22917E-02 1.83594E-02 0.00000E+00
 -1       536 3.43750E-02 1.25000E-02 0.00000E+00
 -1       537 3.54167E-02 1.25000E-02 0.00000E+00
 -1       538 3.64583E-02 1.25000E-02 0.00000E+00
 -1       539 3.75000E-02 1.25000E-02 0.00000E+00
 -1       540 3.85417E-02 1.25000E-02 0.00000E+00
 -1       541 3.95833E-02 1.25000E-02 0.00000E+00
 -1       542 4.06250E-02 1.25000E-02 0.00000E+00
 -1       543 4.16667E-02 1.25000E-02 0.00000E+00
 -1       544 4.27083E-02 1.25000E-02 0.00000E+00
 -1       545 4.37500E-02 1.25000E-02 0.00000E+00
 -1       546 4.47917E-02 1.25000E-02 0.00000E+00
 -1       547 4.58333E-02 1.25000E-02 0.00000E+00
 -1       548 4.68750E-02 1.25000E-02 0.00000E+00
 -1       549 4.79167E-02 1.25000E-02 0.00000E+00
 -1       550 4.89583E-02 1.25000E-02 0.00000E+00
 -1       551 3.33333E-02 1.35417E-02 0.00000E+00
 -1       552 3.33333E-02 1.45833E-02 0.00000E+00
 -1       553 3.33333E-02 1.56250E-02 0.00000E+00
 -1       554 3.33333E-02 1.66667E-02 0.00000E+00
 -1       555 3.33333E-02 1.77083E-02 0.00000E+00
 -1       556 3.43750E-02 1.28906E-02 0.00000E+00
 -1       557 3.54167E-02 1.32813E-02 0.00000E+00
 -1       558 3.64583E-02 1.36719E-02 0.00000E+00
 -1       559 3.75000E-02 1.40625E-02 0.00000E+00
 -1       560 3.85417E-02 1.44531E-02 0.00000E+00
 -1       561 3.95833E-02 1.48437E-02 0.00000E+00
 -1       562 4.06250E-02 1.52344E-02 0.00000E+00
 -1       563 4.16667E-02 1.56250E-02 0.00000E+00
 -1       564 4.27083E-02 1.60156E-02 0.00000E+00
 -1       565 4.37500E-02 1.64062E-02 0.00000E+00
 -1       566 4.47917E-02 1.67969E-02 0.00000E+00
 -1       567 4.58333E-02 1.71875E-02 0.00000E+00
 -1       568 4.68750E-02 1.75781E-02 0.00000E+00
 -1       569 4.79167E-02 1.79687E-02 0.00000E+00
 -1       570 4.89583E-02 1.83594E-02 0.00000E+00
 -1       571 5.10417E-02 1.25000E-02 0.00000E+00
 -1       572 5.20833E-02 1.25000E-02 0.00000E+00
 -1       573 5.31250E-02 1.25000E-02 0.00000E+00
 -1       574 5.41667E-02 1.25000E-02 0.00000E+00
 -1       575 5.52083E-02 1.25000E-02 0.00000E+00
 -1       576 5.62500E-02 1.25000E-02 0.00000E+00
 -1       577 5.72917E-02 1.25000E-02 0.00000E+00
 -1       578 5.83333E-02 1.25000E-02 0.00000E+00
 -1       579 5.93750E-02 1.25000E-02 0.00000E+00
 -1       580 6.04167E-02 1.25000E-02 0.00000E+00
 -1       581 6.14583E-02 1.25000E-02 0.00000E+00
 -1       582 6.25000E-02 1.25000E-02 0.00000E+00
 -1       583 6.35417E-02 1.25000E-02 0.00000E+00
 -1       584 6.45833E-02 1.25000E-02 0.00000E+00
 -1       585 6.56250E-02 1.25000E-02 0.00000E+00
 -1       586 5.00000E-02 1.35417E-02 0.00000E+00
 -1       587 5.00000E-02 1.45833E-02 0.00000E+00
 -1       588 5.00000E-02 1.56250E-02 0.00000E+00
 -1       589 5.00000E-02 1.66667E-02 0.00000E+00
 -1       590 5.00000E-02 1.77083E-02 0.00000E+00
 -1       591 5.10417E-02 1.28906E-02 0.00000E+00
 -1       592 5.20833E-02 1.32813E-02 0.00000E+00
 -1       593 5.31250E-02 1.36719E-02 0.00000E+00
 -1       594 5.41667E-02 1.40625E-02 0.00000E+00
 -1       595 5.52083E-02 1.44531E-02 0.00000E+00
 -1       596 5.62500E-02 1.48437E-02 0.00000E+00
 -1       597 5.72917E-02 1.52344E-02 0.00000E+00
 -1       598 5.83333E-02 1.56250E-02 0.00000E+00
 -1       599 5.93750E-02 1.60156E-02 0.00000E+00
 -1       600 6.04167E-02 1.64062E-02 0.00000E+00
 -1       601 6.14583E-02 1.67969E-02 0.00000E+00
 -1       602 6.25000E-02 1.71875E-02 0.00000E+00
 -1       603 6.35417E-02 1.75781E-02 0.00000E+00
 -1       604 6.45833E-02 1.79687E-02 0.00000E+00
 -1       605 6.56250E-02 1.83594E-02 0.00000E+00
 -1       606 6.77083E-02 1.25000E-02 0.00000E+00
 -1       607 6.87500E-02 1.25000E-02 0.00000E+00
 -1       608 6.97917E-02 1.25000E-02 0.00000E+00
 -1       609 7.08333E-02 1.25000E-02 0.00000E+00
 -1       610 7.18750E-02 1.25000E-02 0.00000E+00
 -1       611 7.29167E-02 1.25000E-02 0.00000E+00
 -1       612 7.39583E-02 1.25000E-02 0.00000E+00
 -1       613 7.50000E-02 1.25000E-02 0.00000E+00
 -1       614 7.60417E-02 1.25000E-02 0.00000E+00
 -1       615 7.70833E-02 1.25000E-02 0.00000E+00
 -1       616 7.81250E-02 1.25000E-02 0.00000E+00
 -1       617 7.91667E-02 1.25000E-02 0.00000E+00
 -1       618 8.02083E-02 1.25000E-02 0.00000E+00
 -1       619 8.12500E-02 1.25000E-02 0.00000E+00
 -1       620 8.22917E-02 1.25000E-02 0.00000E+00
 -1       621 6.66667E-02 1.35417E-02 0.00000E+00
 -1       622 6.66667E-02 1.45833E-02 0.00000E+00
 -1       623 6.66667E-02 1.56250E-02 0.00000E+00
 -1       624 6.66667E-02 1.66667E-02 0.00000E+00
 -1       625 6.66667E-02 1.77083E-02 0.00000E+00
 -1       626 6.77083E-02 1.28906E-02 0.00000E+00
 -1       627 6.87500E-02 1.32813E-02 0.00000E+00
 -1       628 6.97917E-02 1.36719E-02 0.00000E+00
 -1       629 7.08333E-02 1.40625E-02 0.00000E+00
 -1       630 7.18750E-02 1.44531E-02 0.00000E+00
 -1       631 7.29167E-02 1.48437E-02 0.00000E+00
 -1       632 7.39583E-02 1.52344E-02 0.00000E+00
 -1       633 7.50000E-02 1.56250E-02 0.00000E+00
 -1       634 7.60417E-02 1.60156E-02 0.00000E+00
 -1       635 7.70833E-02 1.64062E-02 0.00000E+00
 -1       636 7.81250E-02 1.67969E-02 0.00000E+00
 -1       637 7.91667E-02 1.71875E-02 0.00000E+00
 -1       638 8.02083E-02 1.75781E-02 0.00000E+00
 -1       639 8.12500E-02 1.79687E-02 0.00000E+00
 -1       640 8.22917E-02 1.83594E-02 0.00000E+00
 -1       641 8.43750E-02 1.25000E-02 0.00000E+00
 -1       642 8.54167E-02 1.25000E-02 0.00000E+00
 -1       643 8.64583E-02 1.25000E-02 0.00000E+00
 -1       644 8.75000E-02 1.25000E-02 0.00000E+00
 -1       645 8.85417E-02 1.25000E-02 0.00000E+00
 -1       646 8.95833E-02 1.25000E-02 0.00000E+00
 -1       647 9.06250E-02 1.25000E-02 0.00000E+00
 -1       648 9.16667E-02 1.25000E-02 0.00000E+00
 -1       649 9.27083E-02 1.25000E-02 0.00000E+00
 -1       650 9.37500E-02 1.25000E-02 0.00000E+00
 -1       651 9.47917E-02 1.25000E-02 0.00000E+00
 -1       652 9.58333E-02 1.25000E-02 0.00000E+00
 -1       653 9.68750E-02 1.25000E-02 0.00000E+00
 -1       654 9.79167E-02 1.25000E-02 0.00000E+00
 -1       655 9.89583E-02 1.25000E-02 0.00000E+00
 -1       656 8.33333E-02 1.35417E-02 0.00000E+00
 -1       657 8.33333E-02 1.45833E-02 0.00000E+00
 -1       658 8.33333E-02 1.56250E-02 0.00000E+00
 -1       659 8.33333E-02 1.66667E-02 0.00000E+00
 -1       660 8.33333E-02 1.77083E-02 0.00000E+00
 -1       661 8.43750E-02 1.28906E-02 0.00000E+00
 -1       662 8.54167E-02 1.32813E-02 0.00000E+00
 -1       663 8.64583E-02 1.36719E-02 0.00000E+00
 -1       664 8.75000E-02 1.40625E-02 0.00000E+00
 -1       665 8.85417E-02 1.44531E-02 0.00000E+00
 -1       666 8.95833E-02 1.48437E-02 0.00000E+00
 -1       667 9.06250E-02 1.52344E-02 0.00000E+00
 -1       668 9.16667E-02 1.56250E-02 0.00000E+00
 -1       669 9.27083E-02 1.60156E-02 0.00000E+00
 -1       670 9.37500E-02 1.64062E-02 0.00000E+00
 -1       671 9.47917E-02 1.67969E-02 0.00000E+00
 -1       672 9.58333E-02 1.71875E-02 0.00000E+00
 -1       673 9.68750E-02 1.75781E-02 0.00000E+00
 -1       674 9.79167E-02 1.79687E-02 0.00000E+00
 -1       675 9.89583E-02 1.83594E-02 0.00000E+00
 -1       676 1.00000E-01 1.35417E-02 0.00000E+00
 -1       677 1.00000E-01 1.45833E-02 0.00000E+00
 -1       678 1.00000E-01 1.56250E-02 0.00000E+00
 -1       679 1.00000E-01 1.66667E-02 0.00000E+00
 -1       680 1.00000E-01 1.77083E-02 0.00000E+00
 -1       681 1.04167E-03 1.87500E-02 0.00000E+00
 -1       682 2.08333E-03 1.87500E-02 0.00000E+00
 -1       683 3.12500E-03 1.87500E-02 0.00000E+00
 -1       684 4.16667E-03 1.87500E-02 0.00000E+00
 -1       685 5.20833E-03 1.87500E-02 0.00000E+00
 -1       686 6.25000E-03 1.87500E-02 0.00000E+00
 -1       687 7.29167E-03 1.87500E-02 0.00000E+00
 -1       688 8.33333E-03 1.87500E-02 0.00000E+00
 -1       689 9.37500E-03 1.87500E-02 0.00000E+00
 -1       690 1.04167E-02 1.87500E-02 0.00000E+00
 -1       691 1.14583E-02 1.87500E-02 0.00000E+00
 -1       692 1.25000E-02 1.87500E-02 0.00000E+00
 -1       693 1.35417E-02 1.87500E-02 0.00000E+00
 -1       694 1.45833E-02 1.87500E-02 0.00000E+00
 -1       695 1.56250E-02 1.87500E-02 0.00000E+00
 -1       696 0.00000E+00 1.97917E-02 0.00000E+00
 -1       697 0.00000E+00 2.08333E-02 0.00000E+00
 -1       698 0.00000E+00 2.18750E-02 0.00000E+00
 -1       699 0.00000E+00 2.29167E-02 0.00000E+00
 -1       700 0.00000E+00 2.39583E-02 0.00000E+00
 -1       701 1.04167E-03 1.91406E-02 0.00000E+00
 -1       702 2.08333E-03 1.95312E-02 0.00000E+00
 -1       703 3.12500E-03 1.99219E-02 0.00000E+00
 -1       704 4.16667E-03 2.03125E-02 0.00000E+00
 -1       705 5.20833E-03 2.07031E-02 0.00000E+00
 -1       706 6.25000E-03 2.10938E-02 0.00000E+00
 -1       707 7.29167E-03 2.14844E-02 0.00000E+00
 -1       708 8.33333E-03 2.18750E-02 0.00000E+00
 -1       709 9.37500E-03 2.22656E-02 0.00000E+00
 -1       710 1.04167E-02 2.26563E-02 0.00000E+00
 -1       711 1.14583E-02 2.30469E-02 0.00000E+00
 -1       712 1.25000E-02 2.34375E-02 0.00000E+00
 -1       713 1.35417E-02 2.38281E-02 0.00000E+00
 -1       714 1.45833E-02 2.42187E-02 0.00000E+00
 -1       715 1.56250E-02 2.46094E-02 0.00000E+00
 -1       716 1.77083E-02 1.87500E-02 0.00000E+00
 -1       717 1.87500E-02 1.87500E-02 0.00000E+00
 -1       718 1.97917E-02 1.87500E-02 0.00000E+00
 -1       719 2.08333E-02 1.87500E-02 0.00000E+00
 -1       720 2.18750E-02 1.87500E-02 0.00000E+00
 -1       721 2.29167E-02 1.87500E-02 0.00000E+00
 -1       722 2.39583E-02 1.87500E-02 0.00000E+00
 -1       723 2.50000E-02 1.87500E-02 0.00000E+00
 -1       724 2.60417E-02 1.87500E-02 0.00000E+00
 -1       725 2.70833E-02 1.87500E-02 0.00000E+00
 -1       726 2.81250E-02 1.87500E-02 0.00000E+00
 -1       727 2.91667E-02 1.87500E-02 0.00000E+00
 -1       728 3.02083E-02 1.87500E-02 0.00000E+00
 -1       729 3.12500E-02 1.87500E-02 0.00000E+00
 -1       730 3.22917E-02 1.87500E-02 0.00000E+00
 -1       731 1.66667E-02 1.97917E-02 0.00000E+00
 -1       732 1.66667E-02 2.08333E-02 0.00000E+00
 -1       733 1.66667E-02 2.18750E-02 0.00000E+00
 -1       734 1.66667E-02 2.29167E-02 0.00000E+00
 -1       735 1.66667E-02 2.39583E-02 0.00000E+00
 -1       736 1.77083E-02 1.91406E-02 0.00000E+00
 -1       737 1.87500E-02 1.95312E-02 0.00000E+00
 -1       738 1.97917E-02 1.99219E-02 0.00000E+00
 -1       739 2.08333E-02 2.03125E-02 0.00000E+00
 -1       740 2.18750E-02 2.07031E-02 0.00000E+00
 -1       741 2.29167E-02 2.10938E-02 0.00000E+00
 -1       742 2.39583E-02 2.14844E-02 0.00000E+00
 -1       743 2.50000E-02 2.18750E-02 0.00000E+00
 -1       744 2.60417E-02 2.22656E-02 0.00000E+00
 -1       745 2.70833E-02 2.26563E-02 0.00000E+00
 -1       746 2.81250E-02 2.30469E-02 0.00000E+00
 -1       747 2.91667E-02 2.34375E-02 0.00000E+00
 -1       748 3.02083E-02 2.38281E-02 0.00000E+00
 -1       749 3.12500E-02 2.42187E-02 0.00000E+00
 -1       750 3.22917E-02 2.46094E-02 0.00000E+00
 -1       751 3.43750E-02 1.87500E-02 0.00000E+00
 -1       752 3.54167E-02 1.87500E-02 0.00000E+00
 -1       753 3.64583E-02 1.87500E-02 0.00000E+00
 -1       754 3.75000E-02 1.87500E-02 0.00000E+00
 -1       755 3.85417E-02 1.87500E-02 0.00000E+00
 -1       756 3.95833E-02 1.87500E-02 0.00000E+00
 -1       757 4.06250E-02 1.87500E-02 0.00000E+00
 -1       758 4.16667E-02 1.87500E-02 0.00000E+00
 -1       759 4.27083E-02 1.87500E-02 0.00000E+00
 -1       760 4.37500E-02 1.87500E-02 0.00000E+00
 -1       761 4.47917E-02 1.87500E-02 0.00000E+00
 -1       762 4.58333E-02 1.87500E-02 0.00000E+00
 -1       763 4.68750E-02 1.87500E-02 0.00000E+00
 -1       764 4.79167E-02 1.87500E-02 0.00000E+00
 -1       765 4.89583E-02 1.87500E-02 0.00000E+00
 -1       766 3.33333E-02 1.97917E-02 0.00000E+00
 -1       767 3.33333E-02 2.08333E-02 0.00000E+00
 -1       768 3.33333E-02 2.18750E-02 0.00000E+00
 -1       769 3.33333E-02 2.29167E-02 0.00000E+00
 -1       770 3.33333E-02 2.39583E-02 0.00000E+00
 -1       771 3.43750E-02 1.91406E-02 0.00000E+00
 -1       772 3.54167E-02 1.95312E-02 0.00000E+00
 -1       773 3.64583E-02 1.99219E-02 0.00000E+00
 -1       774 3.75000E-02 2.03125E-02 0.00000E+00
 -1       775 3.85417E-02 2.07031E-02 0.00000E+00
 -1       776 3.95833E-02 2.10938E-02 0.00000E+00
 -1       777 4.06250E-02 2.14844E-02 0.00000E+00
 -1       778 4.16667E-02 2.18750E-02 0.00000E+00
 -1       779 4.27083E-02 2.22656E-02 0.00000E+00
 -1       780 4.37500E-02 2.26563E-02 0.00000E+00
 -1       781 4.47917E-02 2.30469E-02 0.00000E+00
 -1       782 4.58333E-02 2.34375E-02 0.00000E+00
 -1       783 4.68750E-02 2.38281E-02 0.00000E+00
 -1       784 4.79167E-02 2.42187E-02 0.00000E+00
 -1       785 4.89583E-02 2.46094E-02 0.00000E+00
 -1       786 5.10417E-02 1.87500E-02 0.00000E+00
 -1       787 5.20833E-02 1.87500E-02 0.00000E+00
 -1       788 5.31250E-02 1.87500E-02 0.00000E+00
 -1       789 5.41667E-02 1.87500E-02 0.00000E+00
 -1       790 5.52083E-02 1.87500E-02 0.00000E+00
 -1       791 5.62500E-02 1.87500E-02 0.00000E+00
 -1       792 5.72917E-02 1.87500E-02 0.00000E+00
 -1       793 5.83333E-02 1.87500E-02 0.00000E+00
 -1       794 5.93750E-02 1.87500E-02 0.00000E+00
 -1       795 6.04167E-02 1.87500E-02 0.00000E+00
 -1       796 6.14583E-02 1.87500E-02 0.00000E+00
 -1       797 6.25000E-02 1.87500E-02 0.00000E+00
 -1       798 6.35417E-02 1.87500E-02 0.00000E+00
 -1       799 6.45833E-02 1.87500E-02 0.00000E+00
 -1       800 6.56250E-02 1.87500E-02 0.00000E+00
 -1       801 5.00000E-02 1.97917E-02 0.00000E+00
 -1       802 5.00000E-02 2.08333E-02 0.00000E+00
 -1       803 5.00000E-02 2.18750E-02 0.00000E+00
 -1       804 5.00000E-02 2.29167E-02 0.00000E+00
 -1       805 5.00000E-02 2.39583E-02 0.00000E+00
 -1       806 5.10417E-02 1.91406E-02 0.00000E+00
 -1       807 5.20833E-02 1.95312E-02 0.00000E+00
 -1       808 5.31250E-02 1.99219E-02 0.00000E+00
 -1       809 5.41667E-02 2.03125E-02 0.00000E+00
 -1       810 5.52083E-02 2.07031E-02 0.00000E+00
 -1       811 5.62500E-02 2.10938E-02 0.00000E+00
 -1       812 5.72917E-02 2.14844E-02 0.00000E+00
 -1       813 5.83333E-02 2.18750E-02 0.00000E+00
 -1       814 5.93750E-02 2.22656E-02 0.00000E+00
 -1       815 6.04167E-02 2.26563E-02 0.00000E+00
 -1       816 6.14583E-02 2.30469E-02 0.00000E+00
 -1       817 6.25000E-02 2.34375E-02 0.00000E+00
 -1       818 6.35417E-02 2.38281E-02 0.00000E+00
 -1       819 6.45833E-02 2.42187E-02 0.00000E+00
 -1       820 6.56250E-02 2.46094E-02 0.00000E+00
 -1       821 6.77083E-02 1.87500E-02 0.00000E+00
 -1       822 6.87500E-02 1.87500E-02 0.00000E+00
 -1       823 6.97917E-02 1.87500E-02 0.00000E+00
 -1       824 7.08333E-02 1.87500E-02 0.00000E+00
 -1       825 7.18750E-02 1.87500E-02 0.00000E+00
 -1       826 7.29167E-02 1.87500E-02 0.00000E+00
 -1       827 7.39583E-02 1.87500E-02 0.00000E+00
 -1       828 7.50000E-02 1.87500E-02 0.00000E+00
 -1       829 7.60417E-02 1.87500E-02 0.00000E+00
 -1       830 7.70833E-02 1.87500E-02 0.00000E+00
 -1       831 7.81250E-02 1.87500E-02 0.00000E+00
 -1       832 7.91667E-02 1.87500E-02 0.00000E+00
 -1       833 8.02083E-02 1.87500E-02 0.00000E+00
 -1       834 8.12500E-02 1.87500E-02 0.00000E+00
 -1       835 8.22917E-02 1.87500E-02 0.00000E+00
 -1       836 6.66667E-02 1.97917E-02 0.00000E+00
 -1       837 6.66667E-02 2.08333E-02 0.00000E+00
 -1       838 6.66667E-02 2.18750E-02 0.00000E+00
 -1       839 6.66667E-02 2.29167E-02 0.00000E+00
 -1       840 6.66667E-02 2.39583E-02 0.00000E+00
 -1       841 6.77083E-02 1.91406E-02 0.00000E+00
 -1       842 6.87500E-02 1.95312E-02 0.00000E+00
 -1       843 6.97917E-02 1.99219E-02 0.00000E+00
 -1       844 7.08333E-02 2.03125E-02 0.00000E+00
 -1       845 7.18750E-02 2.07031E-02 0.00000E+00
 -1       846 7.29167E-02 2.10938E-02 0.00000E+00
 -1       847 7.39583E-02 2.14844E-02 0.00000E+00
 -1       848 7.50000E-02 2.18750E-02 0.00000E+00
 -1       849 7.60417E-02 2.22656E-02 0.00000E+00
 -1       850 7.70833E-02 2.26563E-02 0.00000E+00
 -1       851 7.81250E-02 2.30469E-02 0.00000E+00
 -1       852 7.91667E-02 2.34375E-02 0.00000E+00
 -1       853 8.02083E-02 2.38281E-02 0.00000E+00
 -1       854 8.12500E-02 2.42187E-02 0.00000E+00
 -1       855 8.22917E-02 2.46094E-02 0.00000E+00
 -1       856 8.43750E-02 1.87500E-02 0.00000E+00
 -1       857 8.54167E-02 1.87500E-02 0.00000E+00
 -1       858 8.64583E-02 1.87500E-02 0.00000E+00
 -1       859 8.75000E-02 1.87500E-02 0.00000E+00
 -1       860 8.85417E-02 1.87500E-02 0.00000E+00
 -1       861 8.95833E-02 1.87500E-02 0.00000E+00
 -1       862 9.06250E-02 1.87500E-02 0.00000E+00
 -1       863 9.16667E-02 1.87500E-02 0.00000E+00
 -1       864 9.27083E-02 1.87500E-02 0.00000E+00
 -1       865 9.37500E-02 1.87500E-02 0.00000E+00
 -1       866 9.47917E-02 1.87500E-02 0.00000E+00
 -1       867 9.58333E-02 1.87500E-02 0.00000E+00
 -1       868 9.68750E-02 1.87500E-02 0.00000E+00
 -1       869 9.79167E-02 1.87500E-02 0.00000E+00
 -1       870 9.89583E-02 1.87500E-02 0.00000E+00
 -1       871 8.33333E-02 1.97917E-02 0.00000E+00
 -1       872 8.33333E-02 2.08333E-02 0.00000E+00
 -1       873 8.33333E-02 2.18750E-02 0.00000E+00
 -1       874 8.33333E-02 2.29167E-02 0.00000E+00
 -1       875 8.33333E-02 2.39583E-02 0.00000E+00
 -1       876 8.43750E-02 1.91406E-02 0.00000E+00
 -1       877 8.54167E-02 1.95312E-02 0.00000E+00
 -1       878 8.64583E-02 1.99219E-02 0.00000E+00
 -1       879 8.75000E-02 2.03125E-02 0.00000E+00
 -1       880 8.85417E-02 2.07031E-02 0.00000E+00
 -1       881 8.95833E-02 2.10938E-02 0.00000E+00
 -1       882 9.06250E-02 2.14844E-02 0.00000E+00
 -1       883 9.16667E-02 2.18750E-02 0.00000E+00
 -1       884 9.27083E-02 2.22656E-02 0.00000E+00
 -1       885 9.37500E-02 2.26563E-02 0.00000E+00
 -1       886 9.47917E-02 2.30469E-02 0.00000E+00
 -1       887 9.58333E-02 2.34375E-02 0.00000E+00
 -1       888 9.68750E-02 2.38281E-02 0.00000E+00
 -1       889 9.79167E-02 2.42187E-02 0.00000E+00
 -1       890 9.89583E-02 2.46094E-02 0.00000E+00
 -1       891 1.00000E-01 1.97917E-02 0.00000E+00
 -1       892 1.00000E-01 2.08333E-02 0.00000E+00
 -1       893 1.00000E-01 2.18750E-02 0.00000E+00
 -1       894 1.00000E-01 2.29167E-02 0.00000E+00
 -1       895 1.00000E-01 2.39583E-02 0.00000E+00
 -1       896 1.04167E-03 2.50000E-02 0.00000E+00
 -1       897 2.08333E-03 2.50000E-02 0.00000E+00
 -1       898 3.12500E-03 2.50000E-02 0.00000E+00
 -1       899 4.16667E-03 2.50000E-02 0.00000E+00
 -1       900 5.20833E-03 2.50000E-02 0.00000E+00
 -1       901 6.25000E-03 2.50000E-02 0.00000E+00
 -1       902 7.29167E-03 2.50000E-02 0.00000E+00
 -1       903 8.33333E-03 2.50000E-02 0.00000E+00
 -1       904 9.37500E-03 2.50000E-02 0.00000E+00
 -1       905 1.04167E-02 2.50000E-02 0.00000E+00
 -1       906 1.14583E-02 2.50000E-02 0.00000E+00
 -1       907 1.25000E-02 2.50000E-02 0.00000E+00
 -1       908 1.35417E-02 2.50000E-02 0.00000E+00
 -1       909 1.45833E-02 2.50000E-02 0.00000E+00
 -1       910 1.56250E-02 2.50000E-02 0.00000E+00
 -1       911 1.77083E-02 2.50000E-02 0.00000E+00
 -1       912 1.87500E-02 2.50000E-02 0.00000E+00
 -1       913 1.97917E-02 2.50000E-02 0.00000E+00
 -1       914 2.08333E-02 2.50000E-02 0.00000E+00
 -1       915 2.18750E-02 2.50000E-02 0.00000E+00
 -1       916 2.29167E-02 2.50000E-02 0.00000E+00
 -1       917 2.39583E-02 2.50000E-02 0.00000E+00
 -1       918 2.50000E-02 2.50000E-02 0.00000E+00
 -1       919 2.60417E-02 2.50000E-02 0.00000E+00
 -1       920 2.70833E-02 2.50000E-02 0.00000E+00
 -1       921 2.81250E-02 2.50000E-02 0.00000E+00
 -1       922 2.91667E-02 2.50000E-02 0.00000E+00
 -1       923 3.02083E-02 2.50000E-02 0.00000E+00
 -1       924 3.12500E-02 2.50000E-02 0.00000E+00
 -1       925 3.22917E-02 2.50000E-02 0.00000E+00
 -1       926 3.43750E-02 2.50000E-02 0.00000E+00
 -1       927 3.54167E-02 2.50000E-02 0.00000E+00
 -1       928 3.64583E-02 2.50000E-02 0.00000E+00
 -1       929 3.75000E-02 2.50000E-02 0.00000E+00
 -1       930 3.85417E-02 2.50000E-02 0.00000E+00
 -1       931 3.95833E-02 2.50000E-02 0.00000E+00
 -1       932 4.06250E-02 2.50000E-02 0.00000E+00
 -1       933 4.16667E-02 2.50000E-02 0.00000E+00
 -1       934 4.27083E-02 2.50000E-02 0.00000E+00
 -1       935 4.37500E-02 2.50000E-02 0.00000E+00
 -1       936 4.47917E-02 2.50000E-02 0.00000E+00
 -1       937 4.58333E-02 2.50000E-02 0.00000E+00
 -1       938 4.68750E-02 2.50000E-02 0.00000E+00
 -1       939 4.79167E-02 2.50000E-02 0.00000E+00
 -1       940 4.89583E-02 2.50000E-02 0.00000E+00
 -1       941 5.10417E-02 2.50000E-02 0.00000E+00
 -1       942 5.20833E-02 2.50000E-02 0.00000E+00
 -1       943 5.31250E-02 2.50000E-02 0.00000E+00
 -1       944 5.41667E-02 2.50000E-02 0.00000E+00
 -1       945 5.52083E-02 2.50000E-02 0.00000E+00
 -1       946 5.62500E-02 2.50000E-02 0.00000E+00
 -1       947 5.72917E-02 2.50000E-02 0.00000E+00
 -1       948 5.83333E-02 2.50000E-02 0.00000E+00
 -1       949 5.93750E-02 2.50000E-02 0.00000E+00
 -1       950 6.04167E-02 2.50000E-02 0.00000E+00
 -1       951 6.14583E-02 2.50000E-02 0.00000E+00
 -1       952 6.25000E-02 2.50000E-02 0.00000E+00
 -1       953 6.35417E-02 2.50000E-02 0.00000E+00
 -1       954 6.45833E-02 2.50000E-02 0.00000E+00
 -1       955 6.56250E-02 2.50000E-02 0.00000E+00
 -1       956 6.77083E-02 2.50000E-02 0.00000E+00
 -1       957 6.87500E-02 2.50000E-02 0.00000E+00
 -1       958 6.97917E-02 2.50000E-02 0.00000E+00
 -1       959 7.08333E-02 2.50000E-02 0.00000E+00
 -1       960 7.18750E-02 2.50000E-02 0.00000E+00
 -1       961 7.29167E-02 2.50000E-02 0.00000E+00
 -1       962 7.39583E-02 2.50000E-02 0.00000E+00
 -1       963 7.50000E-02 2.50000E-02 0.00000E+00
 -1       964 7.60417E-02 2.50000E-02 0.00000E+00
 -1       965 7.70833E-02 2.50000E-02 0.00000E+00
 -1       966 7.81250E-02 2.50000E-02 0.00000E+00
 -1       967 7.91667E-02 2.50000E-02 0.00000E+00
 -1       968 8.02083E-02 2.50000E-02 0.00000E+00
 -1       969 8.12500E-02 2.50000E-02 0.00000E+00
 -1       970 8.22917E-02 2.50000E-02 0.00000E+00
 -1       971 8.43750E-02 2.50000E-02 0.00000E+00
 -1       972 8.54167E-02 2.50000E-02 0.00000E+00
 -1       973 8.64583E-02 2.50000E-02 0.00000E+00
 -1       974 8.75000E-02 2.50000E-02 0.00000E+00
 -1       975 8.85417E-02 2.50000E-02 0.00000E+00
 -1       976 8.95833E-02 2.50000E-02 0.00000E+00
 -1       977 9.06250E-02 2.50000E-02 0.00000E+00
 -1       978 9.16667E-02 2.50000E-02 0.00000E+00
 -1       979 9.27083E-02 2.50000E-02 0.00000E+00
 -1       980 9.37500E-02 2.50000E-02 0.00000E+00
 -1       981 9.47917E-02 2.50000E-02 0.00000E+00
 -1       982 9.58333E-02 2.50000E-02 0.00000E+00
 -1       983 9.68750E-02 2.50000E-02 0.00000E+00
 -1       984 9.79167E-02 2.50000E-02 0.00000E+00
 -1       985 9.89583E-02 2.50000E-02 0.00000E+00
 -3
    3C                           440                                     1
 -1         1   12    0    1
 -2         1        37        36
 -1         2   12    0    1
 -2        37        39        38
 -1         3   12    0    1
 -2        39        41        40
 -1         4   12    0    1
 -2        41        43        42
 -1         5   12    0    1
 -2        43        45        44
 -1         6   12    0    1
 -2        45        47        46
 -1         7   12    0    1
 -2        47        49        48
 -1         8   12    0    1
 -2        49         2        50
 -1         9   12    0    1
 -2         1        52        51
 -1        10   12    0    1
 -2        52        54        53
 -1        11   12    0    1
 -2        54         8        55
 -1        12   12    0    1
 -2         1        57        56
 -1        13   12    0    1
 -2        57        59        58
 -1        14   12    0    1
 -2        59        61        60
 -1        15   12    0    1
 -2        61        63        62
 -1        16   12    0    1
 -2        63        65        64
 -1        17   12    0    1
 -2        65        67        66
 -1        18   12    0    1
 -2        67        69        68
 -1        19   12    0    1
 -2        69         9        70
 -1        20   12    0    1
 -2         2        72        71
 -1        21   12    0    1
 -2        72        74        73
 -1        22   12    0    1
 -2        74        76        75
 -1        23   12    0    1
 -2        76        78        77
 -1        24   12    0    1
 -2        78        80        79
 -1        25   12    0    1
 -2        80        82        81
 -1        26   12    0    1
 -2        82        84        83
 -1        27   12    0    1
 -2        84         3        85
 -1        28   12    0    1
 -2         2        87        86
 -1        29   12    0    1
 -2        87        89        88
 -1        30   12    0    1
 -2        89         9        90
 -1        31   12    0    1
 -2         2        92        91
 -1        32   12    0    1
 -2        92        94        93
 -1        33   12    0    1
 -2        94        96        95
 -1        34   12    0    1
 -2        96        98        97
 -1        35   12    0    1
 -2        98       100        99
 -1        36   12    0    1
 -2       100       102       101
 -1        37   12    0    1
 -2       102       104       103
 -1        38   12    0    1
 -2       104        10       105
 -1        39   12    0    1
 -2         3       107       106
 -1        40   12    0    1
 -2       107       109       108
 -1        41   12    0    1
 -2       109       111       110
 -1        42   12    0    1
 -2       111       113       112
 -1        43   12    0    1
 -2       113       115       114
 -1        44   12    0    1
 -2       115       117       116
 -1        45   12    0    1
 -2       117       119       118
 -1        46   12    0    1
 -2       119         4       120
 -1        47   12    0    1
 -2         3       122       121
 -1        48   12    0    1
 -2       122       124       123
 -1        49   12    0    1
 -2       124        10       125
 -1        50   12    0    1
 -2         3       127       126
 -1        51   12    0    1
 -2       127       129       128
 -1        52   12    0    1
 -2       129       131       130
 -1        53   12    0    1
 -2       131       133       132
 -1        54   12    0    1
 -2       133       135       134
 -1        55   12    0    1
 -2       135       137       136
 -1        56   12    0    1
 -2       137       139       138
 -1        57   12    0    1
 -2       139        11       140
 -1        58   12    0    1
 -2         4       142       141
 -1        59   12    0    1
 -2       142       144       143
 -1        60   12    0    1
 -2       144       146       145
 -1        61   12    0    1
 -2       146       148       147
 -1        62   12    0    1
 -2       148       150       149
 -1        63   12    0    1
 -2       150       152       151
 -1        64   12    0    1
 -2       152       154       153
 -1        65   12    0    1
 -2       154         5       155
 -1        66   12    0    1
 -2         4       157       156
 -1        67   12    0    1
 -2       157       159       158
 -1        68   12    0    1
 -2       159        11       160
 -1        69   12    0    1
 -2         4       162       161
 -1        70   12    0    1
 -2       162       164       163
 -1        71   12    0    1
 -2       164       166       165
 -1        72   12    0    1
 -2       166       168       167
 -1        73   12    0    1
 -2       168       170       169
 -1        74   12    0    1
 -2       170       172       171
 -1        75   12    0    1
 -2       172       174       173
 -1        76   12    0    1
 -2       174        12       175
 -1        77   12    0    1
 -2         5       192       191
 -1        78   12    0    1
 -2       192       194       193
 -1        79   12    0    1
 -2       194        12       195
 -1        80   12    0    1
 -2         8       252       251
 -1        81   12    0    1
 -2       252       254       253
 -1        82   12    0    1
 -2       254       256       255
 -1        83   12    0    1
 -2       256       258       257
 -1        84   12    0    1
 -2       258       260       259
 -1        85   12    0    1
 -2       260       262       261
 -1        86   12    0    1
 -2       262       264       263
 -1        87   12    0    1
 -2       264         9       265
 -1        88   12    0    1
 -2         8       267       266
 -1        89   12    0    1
 -2       267       269       268
 -1        90   12    0    1
 -2       269        15       270
 -1        91   12    0    1
 -2         8       272       271
 -1        92   12    0    1
 -2       272       274       273
 -1        93   12    0    1
 -2       274       276       275
 -1        94   12    0    1
 -2       276       278       277
 -1        95   12    0    1
 -2       278       280       279
 -1        96   12    0    1
 -2       280       282       281
 -1        97   12    0    1
 -2       282       284       283
 -1        98   12    0    1
 -2       284        16       285
 -1        99   12    0    1
 -2         9       287       286
 -1       100   12    0    1
 -2       287       289       288
 -1       101   12    0    1
 -2       289       291       290
 -1       102   12    0    1
 -2       291       293       292
 -1       103   12    0    1
 -2       293       295       294
 -1       104   12    0    1
 -2       295       297       296
 -1       105   12    0    1
 -2       297       299       298
 -1       106   12    0    1
 -2       299        10       300
 -1       107   12    0    1
 -2         9       302       301
 -1       108   12    0    1
 -2       302       304       303
 -1       109   12    0    1
 -2       304        16       305
 -1       110   12    0    1
 -2         9       307       306
 -1       111   12    0    1
 -2       307       309       308
 -1       112   12    0    1
 -2       309       311       310
 -1       113   12    0    1
 -2       311       313       312
 -1       114   12    0    1
 -2       313       315       314
 -1       115   12    0    1
 -2       315       317       316
 -1       116   12    0    1
 -2       317       319       318
 -1       117   12    0    1
 -2       319        17       320
 -1       118   12    0    1
 -2        10       322       321
 -1       119   12    0    1
 -2       322       324       323
 -1       120   12    0    1
 -2       324       326       325
 -1       121   12    0    1
 -2       326       328       327
 -1       122   12    0    1
 -2       328       330       329
 -1       123   12    0    1
 -2       330       332       331
 -1       124   12    0    1
 -2       332       334       333
 -1       125   12    0    1
 -2       334        11       335
 -1       126   12    0    1
 -2        10       337       336
 -1       127   12    0    1
 -2       337       339       338
 -1       128   12    0    1
 -2       339        17       340
 -1       129   12    0    1
 -2        10       342       341
 -1       130   12    0    1
 -2       342       344       343
 -1       131   12    0    1
 -2       344       346       345
 -1       132   12    0    1
 -2       346       348       347
 -1       133   12    0    1
 -2       348       350       349
 -1       134   12    0    1
 -2       350       352       351
 -1       135   12    0    1
 -2       352       354       353
 -1       136   12    0    1
 -2       354        18       355
 -1       137   12    0    1
 -2        11       357       356
 -1       138   12    0    1
 -2       357       359       358
 -1       139   12    0    1
 -2       359       361       360
 -1       140   12    0    1
 -2       361       363       362
 -1       141   12    0    1
 -2       363       365       364
 -1       142   12    0    1
 -2       365       367       366
 -1       143   12    0    1
 -2       367       369       368
 -1       144   12    0    1
 -2       369        12       370
 -1       145   12    0    1
 -2        11       372       371
 -1       146   12    0    1
 -2       372       374       373
 -1       147   12    0    1
 -2       374        18       375
 -1       148   12    0    1
 -2        11       377       376
 -1       149   12    0    1
 -2       377       379       378
 -1       150   12    0    1
 -2       379       381       380
 -1       151   12    0    1
 -2       381       383       382
 -1       152   12    0    1
 -2       383       385       384
 -1       153   12    0    1
 -2       385       387       386
 -1       154   12    0    1
 -2       387       389       388
 -1       155   12    0    1
 -2       389        19       390
 -1       156   12    0    1
 -2        12       407       406
 -1       157   12    0    1
 -2       407       409       408
 -1       158   12    0    1
 -2       409        19       410
 -1       159   12    0    1
 -2        15       467       466
 -1       160   12    0    1
 -2       467       469       468
 -1       161   12    0    1
 -2       469       471       470
 -1       162   12    0    1
 -2       471       473       472
 -1       163   12    0    1
 -2       473       475       474
 -1       164   12    0    1
 -2       475       477       476
 -1       165   12    0    1
 -2       477       479       478
 -1       166   12    0    1
 -2       479        16       480
 -1       167   12    0    1
 -2        15       482       481
 -1       168   12    0    1
 -2       482       484       483
 -1       169   12    0    1
 -2       484        22       485
 -1       170   12    0    1
 -2        15       487       486
 -1       171   12    0    1
 -2       487       489       488
 -1       172   12    0    1
 -2       489       491       490
 -1       173   12    0    1
 -2       491       493       492
 -1       174   12    0    1
 -2       493       495       494
 -1       175   12    0    1
 -2       495       497       496
 -1       176   12    0    1
 -2       497       499       498
 -1       177   12    0    1
 -2       499        23       500
 -1       178   12    0    1
 -2        16       502       501
 -1       179   12    0    1
 -2       502       504       503
 -1       180   12    0    1
 -2       504       506       505
 -1       181   12    0    1
 -2       506       508       507
 -1       182   12    0    1
 -2       508       510       509
 -1       183   12    0    1
 -2       510       512       511
 -1       184   12    0    1
 -2       512       514       513
 -1       185   12    0    1
 -2       514        17       515
 -1       186   12    0    1
 -2        16       517       516
 -1       187   12    0    1
 -2       517       519       518
 -1       188   12    0    1
 -2       519        23       520
 -1       189   12    0    1
 -2        16       522       521
 -1       190   12    0    1
 -2       522       524       523
 -1       191   12    0    1
 -2       524       526       525
 -1       192   12    0    1
 -2       526       528       527
 -1       193   12    0    1
 -2       528       530       529
 -1       194   12    0    1
 -2       530       532       531
 -1       195   12    0    1
 -2       532       534       533
 -1       196   12    0    1
 -2       534        24       535
 -1       197   12    0    1
 -2        17       537       536
 -1       198   12    0    1
 -2       537       539       538
 -1       199   12    0    1
 -2       539       541       540
 -1       200   12    0    1
 -2       541       543       542
 -1       201   12    0    1
 -2       543       545       544
 -1       202   12    0    1
 -2       545       547       546
 -1       203   12    0    1
 -2       547       549       548
 -1       204   12    0    1
 -2       549        18       550
 -1       205   12    0    1
 -2        17       552       551
 -1       206   12    0    1
 -2       552       554       553
 -1       207   12    0    1
 -2       554        24       555
 -1       208   12    0    1
 -2        17       557       556
 -1       209   12    0    1
 -2       557       559       558
 -1       210   12    0    1
 -2       559       561       560
 -1       211   12    0    1
 -2       561       563       562
 -1       212   12    0    1
 -2       563       565       564
 -1       213   12    0    1
 -2       565       567       566
 -1       214   12    0    1
 -2       567       569       568
 -1       215   12    0    1
 -2       569        25       570
 -1       216   12    0    1
 -2        18       572       571
 -1       217   12    0    1
 -2       572       574       573
 -1       218   12    0    1
 -2       574       576       575
 -1       219   12    0    1
 -2       576       578       577
 -1       220   12    0    1
 -2       578       580       579
 -1       221   12    0    1
 -2       580       582       581
 -1       222   12    0    1
 -2       582       584       583
 -1       223   12    0    1
 -2       584        19       585
 -1       224   12    0    1
 -2        18       587       586
 -1       225   12    0    1
 -2       587       589       588
 -1       226   12    0    1
 -2       589        25       590
 -1       227   12    0    1
 -2        18       592       591
 -1       228   12    0    1
 -2       592       594       593
 -1       229   12    0    1
 -2       594       596       595
 -1       230   12    0    1
 -2       596       598       597
 -1       231   12    0    1
 -2       598       600       599
 -1       232   12    0    1
 -2       600       602       601
 -1       233   12    0    1
 -2       602       604       603
 -1       234   12    0    1
 -2       604        26       605
 -1       235   12    0    1
 -2        19       607       606
 -1       236   12    0    1
 -2       607       609       608
 -1       237   12    0    1
 -2       609       611       610
 -1       238   12    0    1
 -2       611       613       612
 -1       239   12    0    1
 -2       613       615       614
 -1       240   12    0    1
 -2       615       617       616
 -1       241   12    0    1
 -2       617       619       618
 -1       242   12    0    1
 -2       619        20       620
 -1       243   12    0    1
 -2        19       622       621
 -1       244   12    0    1
 -2       622       624       623
 -1       245   12    0    1
 -2       624        26       625
 -1       246   12    0    1
 -2        19       627       626
 -1       247   12    0    1
 -2       627       629       628
 -1       248   12    0    1
 -2       629       631       630
 -1       249   12    0    1
 -2       631       633       632
 -1       250   12    0    1
 -2       633       635       634
 -1       251   12    0    1
 -2       635       637       636
 -1       252   12    0    1
 -2       637       639       638
 -1       253   12    0    1
 -2       639        27       640
 -1       254   12    0    1
 -2        20       642       641
 -1       255   12    0    1
 -2       642       644       643
 -1       256   12    0    1
 -2       644       646       645
 -1       257   12    0    1
 -2       646       648       647
 -1       258   12    0    1
 -2       648       650       649
 -1       259   12    0    1
 -2       650       652       651
 -1       260   12    0    1
 -2       652       654       653
 -1       261   12    0    1
 -2       654        21       655
 -1       262   12    0    1
 -2        20       657       656
 -1       263   12    0    1
 -2       657       659       658
 -1       264   12    0    1
 -2       659        27       660
 -1       265   12    0    1
 -2        20       662       661
 -1       266   12    0    1
 -2       662       664       663
 -1       267   12    0    1
 -2       664       666       665
 -1       268   12    0    1
 -2       666       668       667
 -1       269   12    0    1
 -2       668       670       669
 -1       270   12    0    1
 -2       670       672       671
 -1       271   12    0    1
 -2       672       674       673
 -1       272   12    0    1
 -2       674        28       675
 -1       273   12    0    1
 -2        21       677       676
 -1       274   12    0    1
 -2       677       679       678
 -1       275   12    0    1
 -2       679        28       680
 -1       276   12    0    1
 -2        22       682       681
 -1       277   12    0    1
 -2       682       684       683
 -1       278   12    0    1
 -2       684       686       685
 -1       279   12    0    1
 -2       686       688       687
 -1       280   12    0    1
 -2       688       690       689
 -1       281   12    0    1
 -2       690       692       691
 -1       282   12    0    1
 -2       692       694       693
 -1       283   12    0    1
 -2       694        23       695
 -1       284   12    0    1
 -2        22       697       696
 -1       285   12    0    1
 -2       697       699       698
 -1       286   12    0    1
 -2       699        29       700
 -1       287   12    0    1
 -2        22       702       701
 -1       288   12    0    1
 -2       702       704       703
 -1       289   12    0    1
 -2       704       706       705
 -1       290   12    0    1
 -2       706       708       707
 -1       291   12    0    1
 -2       708       710       709
 -1       292   12    0    1
 -2       710       712       711
 -1       293   12    0    1
 -2       712       714       713
 -1       294   12    0    1
 -2       714        30       715
 -1       295   12    0    1
 -2        23       717       716
 -1       296   12    0    1
 -2       717       719       718
 -1       297   12    0    1
 -2       719       721       720
 -1       298   12    0    1
 -2       721       723       722
 -1       299   12    0    1
 -2       723       725       724
 -1       300   12    0    1
 -2       725       727       726
 -1       301   12    0    1
 -2       727       729       728
 -1       302   12    0    1
 -2       729        24       730
 -1       303   12    0    1
 -2        23       732       731
 -1       304   12    0    1
 -2       732       734       733
 -1       305   12    0    1
 -2       734        30       735
 -1       306   12    0    1
 -2        23       737       736
 -1       307   12    0    1
 -2       737       739       738
 -1       308   12    0    1
 -2       739       741       740
 -1       309   12    0    1
 -2       741       743       742
 -1       310   12    0    1
 -2       743       745       744
 -1       311   12    0    1
 -2       745       747       746
 -1       312   12    0    1
 -2       747       749       748
 -1       313   12    0    1
 -2       749        31       750
 -1       314   12    0    1
 -2        24       752       751
 -1       315   12    0    1
 -2       752       754       753
 -1       316   12    0    1
 -2       754       756       755
 -1       317   12    0    1
 -2       756       758       757
 -1       318   12    0    1
 -2       758       760       759
 -1       319   12    0    1
 -2       760       762       761
 -1       320   12    0    1
 -2       762       764       763
 -1       321   12    0    1
 -2       764        25       765
 -1       322   12    0    1
 -2        24       767       766
 -1       323   12    0    1
 -2       767       769       768
 -1       324   12    0    1
 -2       769        31       770
 -1       325   12    0    1
 -2        24       772       771
 -1       326   12    0    1
 -2       772       774       773
 -1       327   12    0    1
 -2       774       776       775
 -1       328   12    0    1
 -2       776       778       777
 -1       329   12    0    1
 -2       778       780       779
 -1       330   12    0    1
 -2       780       782       781
 -1       331   12    0    1
 -2       782       784       783
 -1       332   12    0    1
 -2       784        32       785
 -1       333   12    0    1
 -2        25       787       786
 -1       334   12    0    1
 -2       787       789       788
 -1       335   12    0    1
 -2       789       791       790
 -1       336   12    0    1
 -2       791       793       792
 -1       337   12    0    1
 -2       793       795       794
 -1       338   12    0    1
 -2       795       797       796
 -1       339   12    0    1
 -2       797       799       798
 -1       340   12    0    1
 -2       799        26       800
 -1       341   12    0    1
 -2        25       802       801
 -1       342   12    0    1
 -2       802       804       803
 -1       343   12    0    1
 -2       804        32       805
 -1       344   12    0    1
 -2        25       807       806
 -1       345   12    0    1
 -2       807       809       808
 -1       346   12    0    1
 -2       809       811       810
 -1       347   12    0    1
 -2       811       813       812
 -1       348   12    0    1
 -2       813       815       814
 -1       349   12    0    1
 -2       815       817       816
 -1       350   12    0    1
 -2       817       819       818
 -1       351   12    0    1
 -2       819        33       820
 -1       352   12    0    1
 -2        26       822       821
 -1       353   12    0    1
 -2       822       824       823
 -1       354   12    0    1
 -2       824       826       825
 -1       355   12    0    1
 -2       826       828       827
 -1       356   12    0    1
 -2       828       830       829
 -1       357   12    0    1
 -2       830       832       831
 -1       358   12    0    1
 -2       832       834       833
 -1       359   12    0    1
 -2       834        27       835
 -1       360   12    0    1
 -2        26       837       836
 -1       361   12    0    1
 -2       837       839       838
 -1       362   12    0    1
 -2       839        33       840
 -1       363   12    0    1
 -2        26       842       841
 -1       364   12    0    1
 -2       842       844       843
 -1       365   12    0    1
 -2       844       846       845
 -1       366   12    0    1
 -2       846       848       847
 -1       367   12    0    1
 -2       848       850       849
 -1       368   12    0    1
 -2       850       852       851
 -1       369   12    0    1
 -2       852       854       853
 -1       370   12    0    1
 -2       854        34       855
 -1       371   12    0    1
 -2        27       857       856
 -1       372   12    0    1
 -2       857       859       858
 -1       373   12    0    1
 -2       859       861       860
 -1       374   12    0    1
 -2       861       863       862
 -1       375   12    0    1
 -2       863       865       864
 -1       376   12    0    1
 -2       865       867       866
 -1       377   12    0    1
 -2       867       869       868
 -1       378   12    0    1
 -2       869        28       870
 -1       379   12    0    1
 -2        27       872       871
 -1       380   12    0    1
 -2       872       874       873
 -1       381   12    0    1
 -2       874        34       875
 -1       382   12    0    1
 -2        27       877       876
 -1       383   12    0    1
 -2       877       879       878
 -1       384   12    0    1
 -2       879       881       880
 -1       385   12    0    1
 -2       881       883       882
 -1       386   12    0    1
 -2       883       885       884
 -1       387   12    0    1
 -2       885       887       886
 -1       388   12    0    1
 -2       887       889       888
 -1       389   12    0    1
 -2       889        35       890
 -1       390   12    0    1
 -2        28       892       891
 -1       391   12    0    1
 -2       892       894       893
 -1       392   12    0    1
 -2       894        35       895
 -1       393   12    0    1
 -2        29       897       896
 -1       394   12    0    1
 -2       897       899       898
 -1       395   12    0    1
 -2       899       901       900
 -1       396   12    0    1
 -2       901       903       902
 -1       397   12    0    1
 -2       903       905       904
 -1       398   12    0    1
 -2       905       907       906
 -1       399   12    0    1
 -2       907       909       908
 -1       400   12    0    1
 -2       909        30       910
 -1       401   12    0    1
 -2        30       912       911
 -1       402   12    0    1
 -2       912       914       913
 -1       403   12    0    1
 -2       914       916       915
 -1       404   12    0    1
 -2       916       918       917
 -1       405   12    0    1
 -2       918       920       919
 -1       406   12    0    1
 -2       920       922       921
 -1       407   12    0    1
 -2       922       924       923
 -1       408   12    0    1
 -2       924        31       925
 -1       409   12    0    1
 -2        31       927       926
 -1       410   12    0    1
 -2       927       929       928
 -1       411   12    0    1
 -2       929       931       930
 -1       412   12    0    1
 -2       931       933       932
 -1       413   12    0    1
 -2       933       935       934
 -1       414   12    0    1
 -2       935       937       936
 -1       415   12    0    1
 -2       937       939       938
 -1       416   12    0    1
 -2       939        32       940
 -1       417   12    0    1
 -2        32       942       941
 -1       418   12    0    1
 -2       942       944       943
 -1       419   12    0    1
 -2       944       946       945
 -1       420   12    0    1
 -2       946       948       947
 -1       421   12    0    1
 -2       948       950       949
 -1       422   12    0    1
 -2       950       952       951
 -1       423   12    0    1
 -2       952       954       953
 -1       424   12    0    1
 -2       954        33       955
 -1       425   12    0    1
 -2        33       957       956
 -1       426   12    0    1
 -2       957       959       958
 -1       427   12    0    1
 -2       959       961       960
 -1       428   12    0    1
 -2       961       963       962
 -1       429   12    0    1
 -2       963       965       964
 -1       430   12    0    1
 -2       965       967       966
 -1       431   12    0    1
 -2       967       969       968
 -1       432   12    0    1
 -2       969        34       970
 -1       433   12    0    1
 -2        34       972       971
 -1       434   12    0    1
 -2       972       974       973
 -1       435   12    0    1
 -2       974       976       975
 -1       436   12    0    1
 -2       976       978       977
 -1       437   12    0    1
 -2       978       980       979
 -1       438   12    0    1
 -2       980       982       981
 -1       439   12    0    1
 -2       982       984       983
 -1       440   12    0    1
 -2       984        35       985
 -3
    1PSTEP                         1           1           1          
  100CL  101 1.000000000         841                     0    1           1
 -4  DISP        4    1
 -5  D1          1    2    1    0
 -5  D2          1    2    2    0
 -5  D3          1    2    3    0
 -5  ALL         1    2    0    0    1ALL
 -1         1 1.17274E-04 0.00000E+00 0.00000E+00
 -1         2 8.78954E-05 0.00000E+00 0.00000E+00
 -1         3 7.44793E-05 0.00000E+00 0.00000E+00
 -1         4 6.82060E-05 0.00000E+00 0.00000E+00
 -1         5 6.60632E-05 0.00000E+00 0.00000E+00
 -1         8 9.02759E-05-1.14851E-06 0.00000E+00
 -1         9 7.57524E-05 1.57530E-06 0.00000E+00
 -1        10 7.00357E-05-4.61787E-06 0.00000E+00
 -1        11 6.55908E-05-1.05159E-06 0.00000E+00
 -1        12 6.24396E-05 2.14858E-06 0.00000E+00
 -1        15 3.53823E-05-2.38104E-06 0.00000E+00
 -1        16 4.82159E-05 1.70664E-06 0.00000E+00
 -1        17 4.63660E-05-9.25026E-06 0.00000E+00
 -1        18 4.94575E-05-1.95484E-06 0.00000E+00
 -1        19 5.30728E-05 4.22841E-06 0.00000E+00
 -1        20 5.39726E-05 4.43119E-05 0.00000E+00
 -1        21 5.38813E-05 1.08009E-04 0.00000E+00
 -1        22 1.31894E-05-1.50987E-06 0.00000E+00
 -1        23 1.73799E-05 2.51114E-06 0.00000E+00
 -1        24 1.89053E-05-1.03231E-05 0.00000E+00
 -1        25 3.94752E-05-1.54831E-06 0.00000E+00
 -1        26 4.43770E-05 5.50909E-06 0.00000E+00
 -1        27 4.05677E-05 4.27651E-05 0.00000E+00
 -1        28 3.61198E-05 1.06546E-04 0.00000E+00
 -1        29 0.00000E+00 0.00000E+00 0.00000E+00
 -1        30 6.41273E-06 3.07276E-06 0.00000E+00
 -1        31 8.57547E-06-8.89902E-06 0.00000E+00
 -1        32 0.00000E+00 0.00000E+00 0.00000E+00
 -1        33 3.01756E-05 9.58109E-06 0.00000E+00
 -1        34 2.84149E-05 4.26599E-05 0.00000E+00
 -1        35 2.29620E-05 1.05780E-04 0.00000E+00
 -1        36 1.15495E-04 7.54422E-20 0.00000E+00
 -1        37 1.13659E-04 2.42682E-19 0.00000E+00
 -1        38 1.11826E-04 4.22468E-19 0.00000E+00
 -1        39 1.09983E-04 6.68852E-19-2.64698E-23
 -1        40 1.08139E-04 9.24123E-19-5.29396E-23
 -1        41 1.06293E-04 1.13450E-18 2.64698E-23
 -1        42 1.04447E-04 1.19531E-18-5.29396E-23
 -1        43 1.02600E-04 1.11889E-18 2.64698E-23
 -1        44 1.00754E-04 9.85288E-19 0.00000E+00
 -1        45 9.89072E-05 8.55652E-19-2.64698E-23
 -1        46 9.70610E-05 7.58065E-19 5.29396E-23
 -1        47 9.52162E-05 6.07316E-19 0.00000E+00
 -1        48 9.33718E-05 3.81297E-19 0.00000E+00
 -1        49 9.15346E-05 2.34939E-19 0.00000E+00
 -1        50 8.96952E-05 9.66114E-20 5.29396E-23
 -1        51 1.15317E-04-1.95176E-07 0.00000E+00
 -1        52 1.11979E-04-3.80159E-07 0.00000E+00
 -1        53 1.07527E-04-5.64796E-07 0.00000E+00
 -1        54 1.02239E-04-7.51998E-07 0.00000E+00
 -1        55 9.63948E-05-9.43874E-07 4.96308E-24
 -1        56 1.15220E-04-1.11798E-06 5.29396E-23
 -1        57 1.13293E-04-2.80623E-06 0.00000E+00
 -1        58 1.11511E-04-4.86841E-06-5.29396E-23
 -1        59 1.09788E-04-7.12556E-06-2.64698E-23
 -1        60 1.08059E-04-9.37122E-06-5.29396E-23
 -1        61 1.06249E-04-1.14048E-05 0.00000E+00
 -1        62 1.04291E-04-1.30432E-05 0.00000E+00
 -1        63 1.02123E-04-1.41233E-05 0.00000E+00
 -1        64 9.97024E-05-1.45303E-05 5.29396E-23
 -1        65 9.69986E-05-1.41822E-05 0.00000E+00
 -1        66 9.40046E-05-1.30627E-05 5.29396E-23
 -1        67 9.07296E-05-1.11924E-05-2.64698E-23
 -1        68 8.72041E-05-8.65812E-06-5.29396E-23
 -1        69 8.34849E-05-5.57371E-06 0.00000E+00
 -1        70 7.96175E-05-2.11139E-06-5.29396E-23
 -1        71 8.70546E-05-2.53713E-20 0.00000E+00
 -1        72 8.62152E-05-3.77988E-20 0.00000E+00
 -1        73 8.53757E-05-2.57220E-20 0.00000E+00
 -1        74 8.45365E-05 1.60986E-20 1.32349E-23
 -1        75 8.36972E-05 2.29096E-20 0.00000E+00
 -1        76 8.28581E-05 2.47095E-20-1.32349E-23
 -1        77 8.20189E-05-1.87026E-20-2.64698E-23
 -1        78 8.11798E-05-1.48893E-21 0.00000E+00
 -1        79 8.03406E-05 4.12763E-21 0.00000E+00
 -1        80 7.95016E-05-2.03156E-20-1.32349E-23
 -1        81 7.86625E-05 5.00279E-20 0.00000E+00
 -1        82 7.78238E-05 1.03312E-19 0.00000E+00
 -1        83 7.69851E-05 6.99199E-20 0.00000E+00
 -1        84 7.61477E-05 4.73032E-20 1.32349E-23
 -1        85 7.53099E-05-3.88444E-21 2.64698E-23
 -1        86 8.76103E-05 2.30971E-07-6.61744E-24
 -1        87 8.67380E-05 5.07498E-07 4.13590E-25
 -1        88 8.52053E-05 7.80269E-07 1.65436E-24
 -1        89 8.29330E-05 1.05519E-06 8.27181E-25
 -1        90 7.98187E-05 1.33001E-06 0.00000E+00
 -1        91 8.69345E-05-6.77380E-07-2.64698E-23
 -1        92 8.61659E-05-1.89387E-06-1.32349E-23
 -1        93 8.55532E-05-3.52557E-06-2.64698E-23
 -1        94 8.50438E-05-5.43825E-06 1.32349E-23
 -1        95 8.45747E-05-7.45907E-06-2.64698E-23
 -1        96 8.40800E-05-9.41198E-06 0.00000E+00
 -1        97 8.34977E-05-1.11303E-05-2.64698E-23
 -1        98 8.27683E-05-1.24555E-05-1.32349E-23
 -1        99 8.18520E-05-1.32812E-05 2.64698E-23
 -1       100 8.07150E-05-1.35178E-05-1.32349E-23
 -1       101 7.93527E-05-1.31543E-05 2.64698E-23
 -1       102 7.77686E-05-1.22000E-05 0.00000E+00
 -1       103 7.59953E-05-1.07430E-05 2.64698E-23
 -1       104 7.40744E-05-8.88745E-06 1.32349E-23
 -1       105 7.20620E-05-6.79230E-06 0.00000E+00
 -1       106 7.40747E-05-3.17153E-20-1.32349E-23
 -1       107 7.36811E-05-2.06076E-20 6.61744E-24
 -1       108 7.32869E-05 8.31606E-21 0.00000E+00
 -1       109 7.28947E-05 5.67975E-20 0.00000E+00
 -1       110 7.25026E-05 1.09679E-19 1.32349E-23
 -1       111 7.21109E-05 1.80918E-19 6.61744E-24
 -1       112 7.17192E-05 2.13504E-19 1.32349E-23
 -1       113 7.13276E-05 2.14321E-19-6.61744E-24
 -1       114 7.09361E-05 2.06998E-19 0.00000E+00
 -1       115 7.05447E-05 1.89529E-19 0.00000E+00
 -1       116 7.01532E-05 1.41215E-19 0.00000E+00
 -1       117 6.97620E-05 1.00919E-19-6.61744E-24
 -1       118 6.93709E-05 1.15696E-19 0.00000E+00
 -1       119 6.89808E-05 1.07715E-19 6.61744E-24
 -1       120 6.85905E-05 5.33986E-20 0.00000E+00
 -1       121 7.45211E-05-7.65388E-07 0.00000E+00
 -1       122 7.44954E-05-1.53524E-06 0.00000E+00
 -1       123 7.42155E-05-2.30499E-06 0.00000E+00
 -1       124 7.34973E-05-3.07544E-06-1.32349E-23
 -1       125 7.21615E-05-3.84668E-06-2.64698E-23
 -1       126 7.39889E-05-2.61785E-07-1.32349E-23
 -1       127 7.35532E-05-6.50455E-07-6.61744E-24
 -1       128 7.31532E-05-1.13537E-06 0.00000E+00
 -1       129 7.27772E-05-1.68129E-06 0.00000E+00
 -1       130 7.24098E-05-2.24981E-06 0.00000E+00
 -1       131 7.20364E-05-2.80171E-06 0.00000E+00
 -1       132 7.16426E-05-3.29922E-06 0.00000E+00
 -1       133 7.12146E-05-3.70539E-06 0.00000E+00
 -1       134 7.07407E-05-3.98900E-06 1.32349E-23
 -1       135 7.02100E-05-4.12085E-06 6.61744E-24
 -1       136 6.96151E-05-4.08143E-06-1.32349E-23
 -1       137 6.89499E-05-3.85396E-06 0.00000E+00
 -1       138 6.82123E-05-3.43387E-06 0.00000E+00
 -1       139 6.74033E-05-2.81916E-06 0.00000E+00
 -1       140 6.65249E-05-2.02149E-06 1.32349E-23
 -1       141 6.80652E-05-3.02053E-20 0.00000E+00
 -1       142 6.79289E-05-5.18996E-20-3.30872E-24
 -1       143 6.77922E-05-1.16386E-19 3.30872E-24
 -1       144 6.76564E-05-1.51483E-19 1.65436E-24
 -1       145 6.75206E-05-1.57220E-19 0.00000E+00
 -1       146 6.73850E-05-1.38564E-19 1.65436E-24
 -1       147 6.72495E-05-1.52334E-19 0.00000E+00
 -1       148 6.71140E-05-1.85033E-19 0.00000E+00
 -1       149 6.69785E-05-1.95269E-19-3.30872E-24
 -1       150 6.68432E-05-1.78548E-19 0.00000E+00
 -1       151 6.67080E-05-1.28051E-19 0.00000E+00
 -1       152 6.65735E-05-9.11255E-20 1.65436E-24
 -1       153 6.64391E-05-3.91581E-20-3.30872E-24
 -1       154 6.63082E-05 6.16012E-21 0.00000E+00
 -1       155 6.61763E-05 1.58277E-20 3.30872E-24
 -1       156 6.81790E-05-1.76098E-07 0.00000E+00
 -1       157 6.80781E-05-3.49529E-07 0.00000E+00
 -1       158 6.78347E-05-5.23214E-07 0.00000E+00
 -1       159 6.73813E-05-6.97499E-07-3.30872E-24
 -1       160 6.66541E-05-8.71581E-07 0.00000E+00
 -1       161 6.79445E-05-1.32979E-07 0.00000E+00
 -1       162 6.77029E-05-3.22525E-07 3.30872E-24
 -1       163 6.74744E-05-5.47220E-07 6.61744E-24
 -1       164 6.72510E-05-7.85921E-07 0.00000E+00
 -1       165 6.70247E-05-1.01674E-06 0.00000E+00
 -1       166 6.67872E-05-1.21798E-06-3.30872E-24
 -1       167 6.65309E-05-1.36903E-06 0.00000E+00
 -1       168 6.62482E-05-1.44974E-06-3.30872E-24
 -1       169 6.59325E-05-1.44237E-06 6.61744E-24
 -1       170 6.55776E-05-1.32993E-06-3.30872E-24
 -1       171 6.51784E-05-1.09913E-06-6.61744E-24
 -1       172 6.47309E-05-7.37461E-07 0.00000E+00
 -1       173 6.42316E-05-2.37472E-07 6.61744E-24
 -1       174 6.36822E-05 4.08921E-07-1.65436E-24
 -1       175 6.30763E-05 1.20098E-06 0.00000E+00
 -1       191 6.59347E-05 3.57553E-07 0.00000E+00
 -1       192 6.56084E-05 7.16291E-07-6.61744E-24
 -1       193 6.50891E-05 1.07522E-06-1.32349E-23
 -1       194 6.43832E-05 1.43399E-06 0.00000E+00
 -1       195 6.34974E-05 1.79221E-06 0.00000E+00
 -1       251 8.93797E-05 3.20117E-06 0.00000E+00
 -1       252 8.84693E-05 6.26911E-06 0.00000E+00
 -1       253 8.75629E-05 8.04324E-06 2.64698E-23
 -1       254 8.66545E-05 8.54778E-06 0.00000E+00
 -1       255 8.57459E-05 7.93016E-06 2.64698E-23
 -1       256 8.48356E-05 6.36921E-06-1.32349E-23
 -1       257 8.39241E-05 4.13543E-06-2.64698E-23
 -1       258 8.30116E-05 1.51810E-06 0.00000E+00
 -1       259 8.20989E-05-1.15625E-06 0.00000E+00
 -1       260 8.11870E-05-3.55946E-06 1.32349E-23
 -1       261 8.02763E-05-5.38970E-06 2.64698E-23
 -1       262 7.93676E-05-6.36123E-06 0.00000E+00
 -1       263 7.84593E-05-6.27168E-06-2.64698E-23
 -1       264 7.75540E-05-4.94837E-06 0.00000E+00
 -1       265 7.66451E-05-2.33831E-06 0.00000E+00
 -1       266 8.37144E-05-1.34533E-06 6.61744E-24
 -1       267 7.43581E-05-1.55156E-06 0.00000E+00
 -1       268 6.35230E-05-1.77228E-06 0.00000E+00
 -1       269 5.25321E-05-1.99144E-06 1.65436E-24
 -1       270 4.27120E-05-2.19946E-06 0.00000E+00
 -1       271 8.64494E-05 2.42322E-06-5.29396E-23
 -1       272 8.29791E-05 4.82651E-06 0.00000E+00
 -1       273 7.99176E-05 6.15764E-06 0.00000E+00
 -1       274 7.72100E-05 6.51311E-06-2.64698E-23
 -1       275 7.48141E-05 6.03706E-06-5.29396E-23
 -1       276 7.26651E-05 4.89627E-06 2.64698E-23
 -1       277 7.06920E-05 3.28466E-06 5.29396E-23
 -1       278 6.88166E-05 1.41103E-06 2.64698E-23
 -1       279 6.69572E-05-5.05490E-07 0.00000E+00
 -1       280 6.50317E-05-2.24423E-06 0.00000E+00
 -1       281 6.29603E-05-3.59182E-06 5.29396E-23
 -1       282 6.06693E-05-4.34718E-06 2.64698E-23
 -1       283 5.80904E-05-4.33330E-06 0.00000E+00
 -1       284 5.51773E-05-3.39371E-06 2.64698E-23
 -1       285 5.18691E-05-1.41791E-06-5.29396E-23
 -1       286 7.53889E-05 5.46507E-06 0.00000E+00
 -1       287 7.50319E-05 8.03808E-06 6.61744E-24
 -1       288 7.46770E-05 9.39521E-06 0.00000E+00
 -1       289 7.43233E-05 9.65064E-06 6.61744E-24
 -1       290 7.39696E-05 8.96088E-06 0.00000E+00
 -1       291 7.36151E-05 7.49272E-06 0.00000E+00
 -1       292 7.32597E-05 5.44287E-06-1.32349E-23
 -1       293 7.29034E-05 3.01432E-06-6.61744E-24
 -1       294 7.25467E-05 4.24655E-07 0.00000E+00
 -1       295 7.21901E-05-2.10679E-06 0.00000E+00
 -1       296 7.18340E-05-4.36298E-06 0.00000E+00
 -1       297 7.14783E-05-6.12980E-06 0.00000E+00
 -1       298 7.11233E-05-7.21196E-06 0.00000E+00
 -1       299 7.07661E-05-7.42166E-06 0.00000E+00
 -1       300 7.04094E-05-6.60466E-06-1.32349E-23
 -1       301 7.11614E-05 1.58263E-06 0.00000E+00
 -1       302 6.65613E-05 1.60924E-06 1.65436E-24
 -1       303 6.19594E-05 1.63974E-06 1.65436E-24
 -1       304 5.73631E-05 1.67040E-06 4.96308E-24
 -1       305 5.27795E-05 1.69755E-06 6.61744E-24
 -1       306 7.25028E-05 4.82329E-06 0.00000E+00
 -1       307 6.96611E-05 6.81279E-06 0.00000E+00
 -1       308 6.72581E-05 7.64689E-06-5.29396E-23
 -1       309 6.52388E-05 7.43229E-06 0.00000E+00
 -1       310 6.35566E-05 6.31656E-06 0.00000E+00
 -1       311 6.21468E-05 4.46788E-06-2.64698E-23
 -1       312 6.09386E-05 2.07872E-06-5.29396E-23
 -1       313 5.98547E-05-6.44525E-07 0.00000E+00
 -1       314 5.88142E-05-3.48448E-06 5.29396E-23
 -1       315 5.77355E-05-6.22062E-06-2.64698E-23
 -1       316 5.65375E-05-8.63613E-06 0.00000E+00
 -1       317 5.51437E-05-1.05222E-05-2.64698E-23
 -1       318 5.34812E-05-1.16877E-05 0.00000E+00
 -1       319 5.14944E-05-1.19571E-05 0.00000E+00
 -1       320 4.91151E-05-1.11914E-05 0.00000E+00
 -1       321 6.97359E-05-2.33290E-06 0.00000E+00
 -1       322 6.94558E-05-6.44319E-07-6.61744E-24
 -1       323 6.91755E-05 4.95416E-07-1.32349E-23
 -1       324 6.88989E-05 1.13850E-06-3.30872E-24
 -1       325 6.86227E-05 1.35206E-06 6.61744E-24
 -1       326 6.83472E-05 1.20686E-06 0.00000E+00
 -1       327 6.80718E-05 7.84409E-07-6.61744E-24
 -1       328 6.77964E-05 1.68598E-07 3.30872E-24
 -1       329 6.75209E-05-5.50898E-07 0.00000E+00
 -1       330 6.72455E-05-1.28354E-06 0.00000E+00
 -1       331 6.69701E-05-1.93838E-06 0.00000E+00
 -1       332 6.66947E-05-2.42512E-06 0.00000E+00
 -1       333 6.64194E-05-2.65853E-06 0.00000E+00
 -1       334 6.61439E-05-2.55551E-06 3.30872E-24
 -1       335 6.58683E-05-2.04304E-06 6.61744E-24
 -1       336 6.69229E-05-5.39109E-06-2.64698E-23
 -1       337 6.30243E-05-6.16774E-06 1.32349E-23
 -1       338 5.86771E-05-6.94567E-06 2.64698E-23
 -1       339 5.42232E-05-7.72115E-06-1.32349E-23
 -1       340 5.00060E-05-8.49632E-06 0.00000E+00
 -1       341 6.80219E-05-2.48712E-06 0.00000E+00
 -1       342 6.60496E-05-5.09181E-07 1.32349E-23
 -1       343 6.41783E-05 1.20390E-06-2.64698E-23
 -1       344 6.24454E-05 2.54225E-06 0.00000E+00
 -1       345 6.08755E-05 3.44799E-06 0.00000E+00
 -1       346 5.94844E-05 3.87703E-06 1.32349E-23
 -1       347 5.82649E-05 3.84896E-06 0.00000E+00
 -1       348 5.72037E-05 3.39903E-06 0.00000E+00
 -1       349 5.62663E-05 2.61892E-06 0.00000E+00
 -1       350 5.54142E-05 1.61178E-06 0.00000E+00
 -1       351 5.45975E-05 5.10483E-07 0.00000E+00
 -1       352 5.37666E-05-5.48268E-07 0.00000E+00
 -1       353 5.28712E-05-1.43424E-06-2.64698E-23
 -1       354 5.18725E-05-2.01962E-06 1.32349E-23
 -1       355 5.07273E-05-2.22324E-06 0.00000E+00
 -1       356 6.53860E-05 2.32902E-08 6.61744E-24
 -1       357 6.51861E-05 7.77811E-07 0.00000E+00
 -1       358 6.49862E-05 1.24860E-06-6.61744E-24
 -1       359 6.47873E-05 1.47399E-06 0.00000E+00
 -1       360 6.45884E-05 1.49769E-06-6.61744E-24
 -1       361 6.43896E-05 1.36461E-06 0.00000E+00
 -1       362 6.41909E-05 1.12308E-06 6.61744E-24
 -1       363 6.39923E-05 8.22083E-07 0.00000E+00
 -1       364 6.37937E-05 5.11894E-07 6.61744E-24
 -1       365 6.35953E-05 2.42848E-07-3.30872E-24
 -1       366 6.33970E-05 6.43891E-08 0.00000E+00
 -1       367 6.31995E-05 2.53983E-08 0.00000E+00
 -1       368 6.30021E-05 1.71744E-07 0.00000E+00
 -1       369 6.28086E-05 5.48147E-07-8.27181E-25
 -1       370 6.26137E-05 1.19440E-06 0.00000E+00
 -1       371 6.37198E-05-1.20846E-06 0.00000E+00
 -1       372 6.07489E-05-1.36070E-06-3.30872E-24
 -1       373 5.72567E-05-1.51480E-06 0.00000E+00
 -1       374 5.38244E-05-1.66599E-06 0.00000E+00
 -1       375 5.10323E-05-1.81573E-06 1.65436E-24
 -1       376 6.46050E-05-1.54877E-07 0.00000E+00
 -1       377 6.37043E-05 4.82192E-07-6.61744E-24
 -1       378 6.28925E-05 8.84878E-07 0.00000E+00
 -1       379 6.21574E-05 1.07749E-06 6.61744E-24
 -1       380 6.14856E-05 1.10132E-06 1.32349E-23
 -1       381 6.08604E-05 9.99978E-07 6.61744E-24
 -1       382 6.02622E-05 8.26505E-07 0.00000E+00
 -1       383 5.96706E-05 6.35157E-07-6.61744E-24
 -1       384 5.90649E-05 4.81608E-07 0.00000E+00
 -1       385 5.84246E-05 4.20885E-07 6.61744E-24
 -1       386 5.77317E-05 5.00871E-07 0.00000E+00
 -1       387 5.69699E-05 7.67181E-07 6.61744E-24
 -1       388 5.61264E-05 1.25133E-06 1.32349E-23
 -1       389 5.51962E-05 1.98314E-06 0.00000E+00
 -1       390 5.41679E-05 2.96965E-06-6.61744E-24
 -1       406 6.11266E-05 2.49676E-06 1.32349E-23
 -1       407 5.96769E-05 2.84596E-06 6.61744E-24
 -1       408 5.81179E-05 3.19505E-06 1.32349E-23
 -1       409 5.64784E-05 3.54325E-06 0.00000E+00
 -1       410 5.47870E-05 3.88947E-06 6.61744E-24
 -1       466 3.61436E-05 2.47974E-06-1.32349E-23
 -1       467 3.69463E-05 5.40189E-06 0.00000E+00
 -1       468 3.77504E-05 6.80465E-06 0.00000E+00
 -1       469 3.85616E-05 7.06842E-06-1.32349E-23
 -1       470 3.93730E-05 6.46983E-06 2.64698E-23
 -1       471 4.01851E-05 5.26371E-06 1.32349E-23
 -1       472 4.09969E-05 3.64931E-06-2.64698E-23
 -1       473 4.18084E-05 1.81557E-06-1.32349E-23
 -1       474 4.26199E-05-6.86991E-08-2.64698E-23
 -1       475 4.34312E-05-1.83589E-06 0.00000E+00
 -1       476 4.42427E-05-3.30771E-06 2.64698E-23
 -1       477 4.50531E-05-4.29843E-06 0.00000E+00
 -1       478 4.58634E-05-4.57830E-06 2.64698E-23
 -1       479 4.66646E-05-3.89956E-06 0.00000E+00
 -1       480 4.74668E-05-1.92729E-06 0.00000E+00
 -1       481 2.98962E-05-2.24902E-06 1.65436E-24
 -1       482 2.52171E-05-2.10584E-06 1.65436E-24
 -1       483 2.12716E-05-1.96004E-06-3.30872E-24
 -1       484 1.79902E-05-1.81103E-06 1.65436E-24
 -1       485 1.53146E-05-1.66005E-06 0.00000E+00
 -1       486 3.24264E-05 2.87566E-06 0.00000E+00
 -1       487 2.96983E-05 7.42753E-06 0.00000E+00
 -1       488 2.73052E-05 1.11040E-05 0.00000E+00
 -1       489 2.52985E-05 1.37420E-05 1.32349E-23
 -1       490 2.37001E-05 1.52980E-05 0.00000E+00
 -1       491 2.25135E-05 1.57569E-05 0.00000E+00
 -1       492 2.16986E-05 1.52254E-05 2.64698E-23
 -1       493 2.12036E-05 1.38384E-05 0.00000E+00
 -1       494 2.09426E-05 1.18252E-05-2.64698E-23
 -1       495 2.08229E-05 9.43332E-06 1.32349E-23
 -1       496 2.07367E-05 6.95223E-06 0.00000E+00
 -1       497 2.05758E-05 4.67411E-06-1.32349E-23
 -1       498 2.02388E-05 2.86824E-06 2.64698E-23
 -1       499 1.96349E-05 1.79254E-06-1.32349E-23
 -1       500 1.86904E-05 1.61980E-06 0.00000E+00
 -1       501 4.80849E-05 5.42861E-06 6.61744E-24
 -1       502 4.79693E-05 7.59288E-06 0.00000E+00
 -1       503 4.78551E-05 8.38809E-06-3.30872E-24
 -1       504 4.77432E-05 8.00755E-06 0.00000E+00
 -1       505 4.76306E-05 6.65898E-06-3.30872E-24
 -1       506 4.75171E-05 4.55344E-06-1.65436E-24
 -1       507 4.74025E-05 1.91121E-06 0.00000E+00
 -1       508 4.72872E-05-1.04565E-06-1.65436E-24
 -1       509 4.71715E-05-4.09119E-06 3.30872E-24
 -1       510 4.70563E-05-6.99914E-06 1.65436E-24
 -1       511 4.69419E-05-9.54500E-06 0.00000E+00
 -1       512 4.68285E-05-1.15054E-05 0.00000E+00
 -1       513 4.67162E-05-1.26642E-05 3.30872E-24
 -1       514 4.66031E-05-1.28079E-05 3.30872E-24
 -1       515 4.64898E-05-1.17356E-05-6.61744E-24
 -1       516 4.31082E-05 1.82559E-06 0.00000E+00
 -1       517 3.70433E-05 1.96084E-06-1.03398E-25
 -1       518 3.07285E-05 2.09325E-06 0.00000E+00
 -1       519 2.48695E-05 2.22994E-06 0.00000E+00
 -1       520 2.01802E-05 2.37334E-06 0.00000E+00
 -1       521 4.49738E-05 4.88197E-06 2.64698E-23
 -1       522 4.21601E-05 6.73804E-06 0.00000E+00
 -1       523 3.98038E-05 7.38908E-06 5.29396E-23
 -1       524 3.78447E-05 6.95377E-06-2.64698E-23
 -1       525 3.62315E-05 5.59354E-06 5.29396E-23
 -1       526 3.48938E-05 3.49114E-06 0.00000E+00
 -1       527 3.37553E-05 8.54278E-07 0.00000E+00
 -1       528 3.27331E-05-2.09548E-06 0.00000E+00
 -1       529 3.17411E-05-5.12621E-06 5.29396E-23
 -1       530 3.06923E-05-8.00380E-06-2.64698E-23
 -1       531 2.95013E-05-1.04993E-05-5.29396E-23
 -1       532 2.80876E-05-1.23936E-05 0.00000E+00
 -1       533 2.63753E-05-1.34877E-05 0.00000E+00
 -1       534 2.43054E-05-1.36012E-05-2.64698E-23
 -1       535 2.18104E-05-1.25921E-05-2.64698E-23
 -1       536 4.65336E-05-6.40169E-06-1.65436E-24
 -1       537 4.67239E-05-4.22892E-06 0.00000E+00
 -1       538 4.69147E-05-2.65209E-06 0.00000E+00
 -1       539 4.71095E-05-1.59258E-06-3.30872E-24
 -1       540 4.73051E-05-9.73317E-07 0.00000E+00
 -1       541 4.75015E-05-7.18357E-07 0.00000E+00
 -1       542 4.76981E-05-7.52790E-07 6.61744E-24
 -1       543 4.78948E-05-1.00247E-06 3.30872E-24
 -1       544 4.80915E-05-1.39385E-06 0.00000E+00
 -1       545 4.82881E-05-1.85379E-06 0.00000E+00
 -1       546 4.84847E-05-2.30931E-06-6.61744E-24
 -1       547 4.86812E-05-2.68743E-06 0.00000E+00
 -1       548 4.88776E-05-2.91496E-06 0.00000E+00
 -1       549 4.90729E-05-2.91831E-06 0.00000E+00
 -1       550 4.92685E-05-2.62323E-06 3.30872E-24
 -1       551 4.22536E-05-9.42926E-06-4.70459E-24
 -1       552 3.77125E-05-9.60355E-06 8.27181E-25
 -1       553 3.29230E-05-9.77780E-06 0.00000E+00
 -1       554 2.80695E-05-9.95330E-06 0.00000E+00
 -1       555 2.33364E-05-1.01315E-05-1.32349E-23
 -1       556 4.51157E-05-6.61219E-06-2.64698E-23
 -1       557 4.40884E-05-4.55194E-06 0.00000E+00
 -1       558 4.32586E-05-3.01249E-06 0.00000E+00
 -1       559 4.26020E-05-1.93114E-06 0.00000E+00
 -1       560 4.20942E-05-1.24496E-06 0.00000E+00
 -1       561 4.17112E-05-8.90391E-07 0.00000E+00
 -1       562 4.14289E-05-8.03753E-07 0.00000E+00
 -1       563 4.12232E-05-9.21265E-07 6.61744E-24
 -1       564 4.10702E-05-1.17909E-06 0.00000E+00
 -1       565 4.09459E-05-1.51335E-06 0.00000E+00
 -1       566 4.08264E-05-1.86014E-06 6.61744E-24
 -1       567 4.06877E-05-2.15556E-06 3.30872E-24
 -1       568 4.05060E-05-2.33573E-06 4.96308E-24
 -1       569 4.02580E-05-2.33688E-06-2.68834E-24
 -1       570 3.99203E-05-2.09532E-06-3.30872E-24
 -1       571 4.96731E-05-1.31550E-06 1.44757E-24
 -1       572 4.98967E-05-8.64611E-07 2.06795E-24
 -1       573 5.01225E-05-5.70498E-07 4.96308E-24
 -1       574 5.03494E-05-3.99876E-07-3.30872E-24
 -1       575 5.05767E-05-3.19343E-07 3.30872E-24
 -1       576 5.08042E-05-2.95307E-07 0.00000E+00
 -1       577 5.10317E-05-2.94167E-07-6.61744E-24
 -1       578 5.12593E-05-2.82299E-07-3.30872E-24
 -1       579 5.14869E-05-2.26078E-07-1.32349E-23
 -1       580 5.17145E-05-9.18721E-08 0.00000E+00
 -1       581 5.19420E-05 1.53952E-07 0.00000E+00
 -1       582 5.21693E-05 5.45018E-07 1.32349E-23
 -1       583 5.23965E-05 1.11493E-06 0.00000E+00
 -1       584 5.26233E-05 1.89704E-06 0.00000E+00
 -1       585 5.28492E-05 2.92456E-06 0.00000E+00
 -1       586 4.80023E-05-1.88583E-06 0.00000E+00
 -1       587 4.63304E-05-1.81602E-06 0.00000E+00
 -1       588 4.45408E-05-1.74630E-06-1.65436E-24
 -1       589 4.27346E-05-1.67727E-06 0.00000E+00
 -1       590 4.10129E-05-1.60978E-06 0.00000E+00
 -1       591 4.90550E-05-1.23702E-06 0.00000E+00
 -1       592 4.86909E-05-6.44245E-07 0.00000E+00
 -1       593 4.83643E-05-1.56052E-07 0.00000E+00
 -1       594 4.80687E-05 2.47032E-07 0.00000E+00
 -1       595 4.77975E-05 5.84464E-07 0.00000E+00
 -1       596 4.75435E-05 8.75644E-07 1.65436E-24
 -1       597 4.72995E-05 1.13995E-06-3.30872E-24
 -1       598 4.70583E-05 1.39677E-06-1.65436E-24
 -1       599 4.68126E-05 1.66546E-06 0.00000E+00
 -1       600 4.65553E-05 1.96542E-06-1.65436E-24
 -1       601 4.62790E-05 2.31600E-06-1.65436E-24
 -1       602 4.59766E-05 2.73660E-06 1.24077E-24
 -1       603 4.56409E-05 3.24661E-06 3.10193E-24
 -1       604 4.52655E-05 3.86548E-06 1.24077E-24
 -1       605 4.48441E-05 4.61274E-06 0.00000E+00
 -1       606 5.31378E-05 5.94432E-06 0.00000E+00
 -1       607 5.31973E-05 7.81195E-06 0.00000E+00
 -1       608 5.32551E-05 9.82246E-06 0.00000E+00
 -1       609 5.33119E-05 1.19658E-05 0.00000E+00
 -1       610 5.33682E-05 1.42318E-05 0.00000E+00
 -1       611 5.34242E-05 1.66102E-05 0.00000E+00
 -1       612 5.34799E-05 1.90908E-05 0.00000E+00
 -1       613 5.35353E-05 2.16632E-05 6.61744E-24
 -1       614 5.35906E-05 2.43171E-05 0.00000E+00
 -1       615 5.36456E-05 2.70422E-05 0.00000E+00
 -1       616 5.37005E-05 2.98283E-05-3.30872E-24
 -1       617 5.37553E-05 3.26649E-05 0.00000E+00
 -1       618 5.38099E-05 3.55419E-05 0.00000E+00
 -1       619 5.38644E-05 3.84489E-05 0.00000E+00
 -1       620 5.39187E-05 4.13757E-05 0.00000E+00
 -1       621 5.14369E-05 4.44208E-06 0.00000E+00
 -1       622 4.98513E-05 4.65721E-06-1.65436E-24
 -1       623 4.83345E-05 4.87255E-06 3.30872E-24
 -1       624 4.69046E-05 5.08746E-06 1.65436E-24
 -1       625 4.55797E-05 5.30116E-06-1.65436E-24
 -1       626 5.25327E-05 6.01081E-06 0.00000E+00
 -1       627 5.19293E-05 7.95178E-06 0.00000E+00
 -1       628 5.12705E-05 1.00371E-05 0.00000E+00
 -1       629 5.05630E-05 1.22505E-05-6.61744E-24
 -1       630 4.98133E-05 1.45756E-05-6.61744E-24
 -1       631 4.90276E-05 1.69957E-05 0.00000E+00
 -1       632 4.82122E-05 1.94943E-05 0.00000E+00
 -1       633 4.73735E-05 2.20547E-05 0.00000E+00
 -1       634 4.65177E-05 2.46603E-05 0.00000E+00
 -1       635 4.56511E-05 2.72943E-05-1.65436E-24
 -1       636 4.47800E-05 2.99403E-05 0.00000E+00
 -1       637 4.39106E-05 3.25815E-05 0.00000E+00
 -1       638 4.30491E-05 3.52013E-05 0.00000E+00
 -1       639 4.22015E-05 3.77831E-05-4.13590E-25
 -1       640 4.13734E-05 4.03100E-05-4.13590E-25
 -1       641 5.39729E-05 4.73862E-05 8.27181E-25
 -1       642 5.39702E-05 5.08073E-05-2.06795E-25
 -1       643 5.39666E-05 5.45266E-05 0.00000E+00
 -1       644 5.39617E-05 5.84958E-05 0.00000E+00
 -1       645 5.39560E-05 6.26663E-05 0.00000E+00
 -1       646 5.39496E-05 6.69897E-05 0.00000E+00
 -1       647 5.39428E-05 7.14180E-05 0.00000E+00
 -1       648 5.39356E-05 7.59025E-05-2.58494E-26
 -1       649 5.39285E-05 8.03951E-05 5.16988E-26
 -1       650 5.39214E-05 8.48475E-05 0.00000E+00
 -1       651 5.39147E-05 8.92112E-05 1.03398E-25
 -1       652 5.39083E-05 9.34381E-05 1.03398E-25
 -1       653 5.39026E-05 9.74797E-05-4.13590E-25
 -1       654 5.38965E-05 1.01288E-04-2.48154E-24
 -1       655 5.38918E-05 1.04814E-04 0.00000E+00
 -1       656 5.12958E-05 4.40616E-05 0.00000E+00
 -1       657 4.89565E-05 4.37995E-05-3.30872E-24
 -1       658 4.68348E-05 4.35386E-05-6.61744E-24
 -1       659 4.48102E-05 4.32777E-05 3.30872E-24
 -1       660 4.27614E-05 4.30160E-05 3.30872E-24
 -1       661 5.31200E-05 4.74767E-05 6.61744E-24
 -1       662 5.21699E-05 5.09323E-05 3.30872E-24
 -1       663 5.11271E-05 5.46312E-05 0.00000E+00
 -1       664 5.00096E-05 5.85324E-05-3.30872E-24
 -1       665 4.88313E-05 6.25942E-05 0.00000E+00
 -1       666 4.76077E-05 6.67765E-05 3.30872E-24
 -1       667 4.63534E-05 7.10396E-05-6.61744E-24
 -1       668 4.50834E-05 7.53443E-05 0.00000E+00
 -1       669 4.38124E-05 7.96516E-05-6.61744E-24
 -1       670 4.25551E-05 8.39226E-05 0.00000E+00
 -1       671 4.13264E-05 8.81181E-05 0.00000E+00
 -1       672 4.01409E-05 9.21983E-05 0.00000E+00
 -1       673 3.90140E-05 9.61234E-05 0.00000E+00
 -1       674 3.79588E-05 9.98516E-05-3.30872E-24
 -1       675 3.69943E-05 1.03342E-04 3.30872E-24
 -1       676 5.08749E-05 1.07766E-04 6.61744E-24
 -1       677 4.78955E-05 1.07520E-04 3.30872E-24
 -1       678 4.49368E-05 1.07274E-04 0.00000E+00
 -1       679 4.19923E-05 1.07030E-04 0.00000E+00
 -1       680 3.90555E-05 1.06784E-04 6.61744E-24
 -1       681 1.34449E-05 6.29700E-08 0.00000E+00
 -1       682 1.37080E-05 1.09587E-06 0.00000E+00
 -1       683 1.39710E-05 1.68043E-06 0.00000E+00
 -1       684 1.42355E-05 1.90455E-06 0.00000E+00
 -1       685 1.45000E-05 1.84560E-06-6.61744E-24
 -1       686 1.47647E-05 1.57863E-06 0.00000E+00
 -1       687 1.50294E-05 1.17260E-06 6.61744E-24
 -1       688 1.52941E-05 6.95311E-07 0.00000E+00
 -1       689 1.55588E-05 2.12488E-07 0.00000E+00
 -1       690 1.58234E-05-2.10188E-07 0.00000E+00
 -1       691 1.60879E-05-5.05274E-07 0.00000E+00
 -1       692 1.63518E-05-6.04290E-07-3.30872E-24
 -1       693 1.66156E-05-4.33005E-07 6.61744E-24
 -1       694 1.68760E-05 8.50256E-08 0.00000E+00
 -1       695 1.71371E-05 1.03636E-06 0.00000E+00
 -1       696 1.11716E-05-1.26445E-06 0.00000E+00
 -1       697 8.87770E-06-1.01304E-06 0.00000E+00
 -1       698 6.46077E-06-7.62250E-07-6.61744E-24
 -1       699 4.07317E-06-5.09649E-07 3.30872E-24
 -1       700 1.86808E-06-2.56755E-07 6.61744E-24
 -1       701 1.22878E-05 9.26760E-08 0.00000E+00
 -1       702 1.14868E-05 1.38143E-06 0.00000E+00
 -1       703 1.07975E-05 2.37636E-06 0.00000E+00
 -1       704 1.02099E-05 3.09253E-06 0.00000E+00
 -1       705 9.71676E-06 3.55729E-06-6.61744E-24
 -1       706 9.30675E-06 3.79904E-06 3.30872E-24
 -1       707 8.96658E-06 3.85451E-06 0.00000E+00
 -1       708 8.68188E-06 3.76191E-06-3.30872E-24
 -1       709 8.43638E-06 3.56475E-06 0.00000E+00
 -1       710 8.21350E-06 3.30747E-06-3.30872E-24
 -1       711 7.99575E-06 3.03666E-06 6.61744E-24
 -1       712 7.76607E-06 2.79915E-06 0.00000E+00
 -1       713 7.50694E-06 2.64031E-06-6.61744E-24
 -1       714 7.20419E-06 2.60595E-06 0.00000E+00
 -1       715 6.83899E-06 2.73512E-06 0.00000E+00
 -1       716 1.74669E-05 3.71548E-06 8.27181E-25
 -1       717 1.75657E-05 3.87956E-06 4.13590E-25
 -1       718 1.76635E-05 3.17811E-06 0.00000E+00
 -1       719 1.77627E-05 1.78314E-06-1.65436E-24
 -1       720 1.78612E-05-1.41016E-07 3.30872E-24
 -1       721 1.79594E-05-2.43162E-06 1.65436E-24
 -1       722 1.80571E-05-4.92998E-06 0.00000E+00
 -1       723 1.81547E-05-7.47816E-06 0.00000E+00
 -1       724 1.82526E-05-9.91865E-06 0.00000E+00
 -1       725 1.83508E-05-1.20937E-05 0.00000E+00
 -1       726 1.84498E-05-1.38425E-05 0.00000E+00
 -1       727 1.85487E-05-1.50030E-05-8.27181E-25
 -1       728 1.86479E-05-1.54067E-05 8.27181E-25
 -1       729 1.87426E-05-1.48826E-05 0.00000E+00
 -1       730 1.88375E-05-1.32496E-05 6.61744E-24
 -1       731 1.54535E-05 2.59501E-06-8.27181E-25
 -1       732 1.32444E-05 2.68920E-06 0.00000E+00
 -1       733 1.09937E-05 2.78267E-06-1.65436E-24
 -1       734 8.94253E-06 2.87850E-06 0.00000E+00
 -1       735 7.33402E-06 2.97521E-06 0.00000E+00
 -1       736 1.60904E-05 3.83368E-06 1.32349E-23
 -1       737 1.49095E-05 4.79915E-06-6.61744E-24
 -1       738 1.38782E-05 5.37100E-06-2.64698E-23
 -1       739 1.30048E-05 5.51077E-06 0.00000E+00
 -1       740 1.22919E-05 5.22221E-06 0.00000E+00
 -1       741 1.17343E-05 4.51725E-06 0.00000E+00
 -1       742 1.13137E-05 3.44584E-06 0.00000E+00
 -1       743 1.10084E-05 2.06611E-06 0.00000E+00
 -1       744 1.07860E-05 4.64111E-07 0.00000E+00
 -1       745 1.06128E-05-1.26892E-06-1.32349E-23
 -1       746 1.04501E-05-3.03010E-06 0.00000E+00
 -1       747 1.02599E-05-4.71557E-06 0.00000E+00
 -1       748 1.00054E-05-6.22874E-06 2.64698E-23
 -1       749 9.65545E-06-7.47551E-06 0.00000E+00
 -1       750 9.17924E-06-8.38871E-06-1.32349E-23
 -1       751 2.01144E-05-7.24639E-06 0.00000E+00
 -1       752 2.13989E-05-5.13457E-06 0.00000E+00
 -1       753 2.26804E-05-3.74914E-06 0.00000E+00
 -1       754 2.39760E-05-2.88142E-06 1.32349E-23
 -1       755 2.52724E-05-2.39921E-06 5.29396E-23
 -1       756 2.65716E-05-2.18593E-06 2.64698E-23
 -1       757 2.78711E-05-2.16491E-06-5.29396E-23
 -1       758 2.91711E-05-2.26730E-06 0.00000E+00
 -1       759 3.04711E-05-2.44257E-06-5.29396E-23
 -1       760 3.17708E-05-2.64313E-06 2.64698E-23
 -1       761 3.30703E-05-2.82518E-06 5.29396E-23
 -1       762 3.43677E-05-2.94413E-06 0.00000E+00
 -1       763 3.56647E-05-2.94605E-06 0.00000E+00
 -1       764 3.69515E-05-2.77227E-06 1.32349E-23
 -1       765 3.82413E-05-2.33814E-06 0.00000E+00
 -1       766 1.56375E-05-1.01108E-05 0.00000E+00
 -1       767 1.30241E-05-9.86711E-06 0.00000E+00
 -1       768 1.10322E-05-9.62395E-06 0.00000E+00
 -1       769 9.63375E-06-9.37775E-06 0.00000E+00
 -1       770 8.81714E-06-9.12952E-06 0.00000E+00
 -1       771 1.68740E-05-7.37533E-06 0.00000E+00
 -1       772 1.50056E-05-4.90187E-06 0.00000E+00
 -1       773 1.32997E-05-2.86748E-06 0.00000E+00
 -1       774 1.17444E-05-1.23678E-06-1.32349E-23
 -1       775 1.03274E-05 2.57659E-08 0.00000E+00
 -1       776 9.03523E-06 9.56008E-07 0.00000E+00
 -1       777 7.85446E-06 1.58999E-06 0.00000E+00
 -1       778 6.77143E-06 1.96398E-06 0.00000E+00
 -1       779 5.77243E-06 2.11436E-06 2.64698E-23
 -1       780 4.84371E-06 2.07774E-06 1.32349E-23
 -1       781 3.97150E-06 1.89081E-06-2.64698E-23
 -1       782 3.14216E-06 1.59043E-06 1.32349E-23
 -1       783 2.34203E-06 1.21354E-06 0.00000E+00
 -1       784 1.55835E-06 7.97400E-07-1.32349E-23
 -1       785 7.78610E-07 3.79408E-07-2.64698E-23
 -1       786 3.97651E-05-6.69665E-07-3.30872E-24
 -1       787 4.00710E-05 2.09911E-08 0.00000E+00
 -1       788 4.03766E-05 5.52667E-07 6.61744E-24
 -1       789 4.06847E-05 9.53784E-07 0.00000E+00
 -1       790 4.09932E-05 1.25217E-06 6.61744E-24
 -1       791 4.13022E-05 1.47524E-06 3.30872E-24
 -1       792 4.16113E-05 1.65006E-06 6.61744E-24
 -1       793 4.19205E-05 1.80350E-06-3.30872E-24
 -1       794 4.22297E-05 1.96236E-06 0.00000E+00
 -1       795 4.25389E-05 2.15341E-06 3.30872E-24
 -1       796 4.28480E-05 2.40362E-06 0.00000E+00
 -1       797 4.31568E-05 2.74016E-06 0.00000E+00
 -1       798 4.34654E-05 3.19062E-06 0.00000E+00
 -1       799 4.37723E-05 3.78302E-06-3.30872E-24
 -1       800 4.40795E-05 4.54608E-06 0.00000E+00
 -1       801 3.57957E-05-1.27886E-06 6.61744E-24
 -1       802 2.83284E-05-1.01398E-06 3.30872E-24
 -1       803 1.90465E-05-7.63334E-07 0.00000E+00
 -1       804 9.91780E-06-5.14427E-07 0.00000E+00
 -1       805 2.91056E-06-2.49483E-07 0.00000E+00
 -1       806 3.88711E-05-7.59578E-07-6.61744E-24
 -1       807 3.82866E-05-5.07348E-08 0.00000E+00
 -1       808 3.77236E-05 5.94041E-07 1.32349E-23
 -1       809 3.71781E-05 1.18905E-06 0.00000E+00
 -1       810 3.66456E-05 1.74852E-06 0.00000E+00
 -1       811 3.61210E-05 2.28654E-06-3.30872E-24
 -1       812 3.55990E-05 2.81718E-06 6.61744E-24
 -1       813 3.50745E-05 3.35449E-06 0.00000E+00
 -1       814 3.45422E-05 3.91252E-06-6.61744E-24
 -1       815 3.39969E-05 4.50532E-06 0.00000E+00
 -1       816 3.34333E-05 5.14693E-06-6.61744E-24
 -1       817 3.28463E-05 5.85139E-06 3.30872E-24
 -1       818 3.22307E-05 6.63276E-06-6.61744E-24
 -1       819 3.15821E-05 7.50517E-06-1.65436E-24
 -1       820 3.08964E-05 8.48284E-06 6.61744E-24
 -1       821 4.41541E-05 6.73389E-06 3.30872E-24
 -1       822 4.39176E-05 8.23860E-06 0.00000E+00
 -1       823 4.36811E-05 9.99685E-06 0.00000E+00
 -1       824 4.34421E-05 1.19813E-05-3.30872E-24
 -1       825 4.32024E-05 1.41639E-05 6.61744E-24
 -1       826 4.29620E-05 1.65160E-05-3.30872E-24
 -1       827 4.27212E-05 1.90083E-05 0.00000E+00
 -1       828 4.24800E-05 2.16110E-05 3.30872E-24
 -1       829 4.22386E-05 2.42940E-05 0.00000E+00
 -1       830 4.19971E-05 2.70270E-05-3.30872E-24
 -1       831 4.17557E-05 2.97794E-05 6.61744E-24
 -1       832 4.15146E-05 3.25206E-05-3.30872E-24
 -1       833 4.12737E-05 3.52201E-05-6.61744E-24
 -1       834 4.10348E-05 3.78474E-05 0.00000E+00
 -1       835 4.07958E-05 4.03724E-05 3.30872E-24
 -1       836 4.27435E-05 6.17502E-06-1.32349E-23
 -1       837 4.03083E-05 6.86392E-06 0.00000E+00
 -1       838 3.74545E-05 7.55037E-06 0.00000E+00
 -1       839 3.45613E-05 8.23563E-06 0.00000E+00
 -1       840 3.20077E-05 8.92326E-06 0.00000E+00
 -1       841 4.38146E-05 6.70135E-06 0.00000E+00
 -1       842 4.31298E-05 8.19496E-06 0.00000E+00
 -1       843 4.23414E-05 9.96516E-06 0.00000E+00
 -1       844 4.14583E-05 1.19823E-05-1.65436E-24
 -1       845 4.04940E-05 1.42147E-05 0.00000E+00
 -1       846 3.94606E-05 1.66291E-05 1.65436E-24
 -1       847 3.83719E-05 1.91899E-05-3.30872E-24
 -1       848 3.72414E-05 2.18612E-05 1.65436E-24
 -1       849 3.60834E-05 2.46051E-05 3.30872E-24
 -1       850 3.49122E-05 2.73839E-05 1.65436E-24
 -1       851 3.37424E-05 3.01590E-05 3.30872E-24
 -1       852 3.25885E-05 3.28923E-05 1.65436E-24
 -1       853 3.14647E-05 3.55457E-05 0.00000E+00
 -1       854 3.03855E-05 3.80819E-05 0.00000E+00
 -1       855 2.93641E-05 4.04650E-05 0.00000E+00
 -1       856 4.03063E-05 4.53423E-05 3.30872E-24
 -1       857 4.00318E-05 4.83980E-05 0.00000E+00
 -1       858 3.97564E-05 5.18734E-05 6.61744E-24
 -1       859 3.94777E-05 5.57080E-05-3.30872E-24
 -1       860 3.91977E-05 5.98398E-05-6.61744E-24
 -1       861 3.89164E-05 6.42058E-05 0.00000E+00
 -1       862 3.86343E-05 6.87419E-05 0.00000E+00
 -1       863 3.83517E-05 7.33836E-05 3.30872E-24
 -1       864 3.80689E-05 7.80658E-05 6.61744E-24
 -1       865 3.77862E-05 8.27234E-05 0.00000E+00
 -1       866 3.75039E-05 8.72913E-05 0.00000E+00
 -1       867 3.72226E-05 9.17048E-05 0.00000E+00
 -1       868 3.69423E-05 9.58997E-05-6.61744E-24
 -1       869 3.66644E-05 9.98128E-05 0.00000E+00
 -1       870 3.63875E-05 1.03382E-04 0.00000E+00
 -1       871 3.84156E-05 4.27498E-05 0.00000E+00
 -1       872 3.63559E-05 4.27332E-05 0.00000E+00
 -1       873 3.43577E-05 4.27164E-05 0.00000E+00
 -1       874 3.23892E-05 4.26991E-05-4.13590E-25
 -1       875 3.04187E-05 4.26810E-05-8.27181E-25
 -1       876 3.99326E-05 4.54358E-05 6.61744E-24
 -1       877 3.91514E-05 4.85343E-05 3.30872E-24
 -1       878 3.82317E-05 5.19967E-05 0.00000E+00
 -1       879 3.71979E-05 5.57673E-05 6.61744E-24
 -1       880 3.60684E-05 5.97906E-05 1.32349E-23
 -1       881 3.48639E-05 6.40128E-05 6.61744E-24
 -1       882 3.36038E-05 6.83814E-05 0.00000E+00
 -1       883 3.23080E-05 7.28446E-05 0.00000E+00
 -1       884 3.09956E-05 7.73512E-05 0.00000E+00
 -1       885 2.96861E-05 8.18502E-05 0.00000E+00
 -1       886 2.83987E-05 8.62906E-05 1.32349E-23
 -1       887 2.71527E-05 9.06208E-05-6.61744E-24
 -1       888 2.59678E-05 9.47891E-05 0.00000E+00
 -1       889 2.48620E-05 9.87417E-05 3.30872E-24
 -1       890 2.38586E-05 1.02426E-04 0.00000E+00
 -1       891 3.35384E-05 1.06418E-04 0.00000E+00
 -1       892 3.14606E-05 1.06290E-04 1.65436E-24
 -1       893 2.96255E-05 1.06162E-04 0.00000E+00
 -1       894 2.77716E-05 1.06034E-04 1.65436E-24
 -1       895 2.56374E-05 1.05906E-04-1.65436E-24
 -1       896 3.98010E-07 1.45821E-06 0.00000E+00
 -1       897 7.99596E-07 2.50189E-06 0.00000E+00
 -1       898 1.20130E-06 3.20117E-06 0.00000E+00
 -1       899 1.60372E-06 3.62184E-06 6.61744E-24
 -1       900 2.00624E-06 3.81728E-06 0.00000E+00
 -1       901 2.40888E-06 3.83803E-06 0.00000E+00
 -1       902 2.81152E-06 3.72683E-06 1.32349E-23
 -1       903 3.21415E-06 3.52477E-06 6.61744E-24
 -1       904 3.61676E-06 3.26887E-06 0.00000E+00
 -1       905 4.01927E-06 2.99547E-06 0.00000E+00
 -1       906 4.42171E-06 2.74015E-06 0.00000E+00
 -1       907 4.82370E-06 2.53870E-06 6.61744E-24
 -1       908 5.22559E-06 2.42932E-06 0.00000E+00
 -1       909 5.62512E-06 2.45135E-06 6.61744E-24
 -1       910 6.02538E-06 2.65002E-06-6.61744E-24
 -1       911 6.54763E-06 3.41796E-06 3.30872E-24
 -1       912 6.68464E-06 3.38583E-06 0.00000E+00
 -1       913 6.82147E-06 3.03152E-06 0.00000E+00
 -1       914 6.95856E-06 2.40882E-06 1.65436E-24
 -1       915 7.09551E-06 1.56746E-06 3.30872E-24
 -1       916 7.23238E-06 5.56258E-07 0.00000E+00
 -1       917 7.36912E-06-5.78551E-07 0.00000E+00
 -1       918 7.50577E-06-1.79127E-06-1.65436E-24
 -1       919 7.64236E-06-3.03737E-06 3.30872E-24
 -1       920 7.77885E-06-4.27244E-06 0.00000E+00
 -1       921 7.91533E-06-5.45195E-06 3.30872E-24
 -1       922 8.05139E-06-6.53110E-06 1.65436E-24
 -1       923 8.18746E-06-7.46358E-06 0.00000E+00
 -1       924 8.32098E-06-8.20246E-06 8.27181E-25
 -1       925 8.45550E-06-8.69791E-06 1.65436E-24
 -1       926 8.05336E-06-8.86020E-06-1.32349E-23
 -1       927 7.51845E-06-8.65221E-06 0.00000E+00
 -1       928 6.98424E-06-8.28498E-06-1.32349E-23
 -1       929 6.44761E-06-7.77109E-06 0.00000E+00
 -1       930 5.91080E-06-7.13165E-06 1.32349E-23
 -1       931 5.37347E-06-6.38981E-06 0.00000E+00
 -1       932 4.83600E-06-5.57467E-06 1.32349E-23
 -1       933 4.29841E-06-4.71657E-06 0.00000E+00
 -1       934 3.76079E-06-3.84832E-06 0.00000E+00
 -1       935 3.22317E-06-3.00290E-06 6.61744E-24
 -1       936 2.68559E-06-2.21197E-06-1.32349E-23
 -1       937 2.14810E-06-1.50630E-06 0.00000E+00
 -1       938 1.61069E-06-9.11678E-07 0.00000E+00
 -1       939 1.07349E-06-4.52082E-07 0.00000E+00
 -1       940 5.36306E-07-1.43651E-07 0.00000E+00
 -1       941 1.78921E-06 1.32600E-07 0.00000E+00
 -1       942 3.67660E-06 3.95007E-07 0.00000E+00
 -1       943 5.55833E-06 7.51272E-07 0.00000E+00
 -1       944 7.45817E-06 1.17118E-06-2.64698E-23
 -1       945 9.35880E-06 1.63852E-06 0.00000E+00
 -1       946 1.12630E-05 2.13995E-06 0.00000E+00
 -1       947 1.31676E-05 2.66966E-06 0.00000E+00
 -1       948 1.50729E-05 3.22354E-06-2.64698E-23
 -1       949 1.69782E-05 3.80284E-06 0.00000E+00
 -1       950 1.88830E-05 4.41032E-06 0.00000E+00
 -1       951 2.07874E-05 5.05501E-06 5.29396E-23
 -1       952 2.26889E-05 5.74816E-06 0.00000E+00
 -1       953 2.45897E-05 6.51175E-06 5.29396E-23
 -1       954 2.64755E-05 7.37196E-06 2.64698E-23
 -1       955 2.83658E-05 8.37635E-06-2.64698E-23
 -1       956 3.00682E-05 1.10193E-05 0.00000E+00
 -1       957 2.99592E-05 1.26050E-05 1.44757E-24
 -1       958 2.98498E-05 1.43255E-05-1.24077E-24
 -1       959 2.97400E-05 1.61672E-05-1.51865E-24
 -1       960 2.96299E-05 1.81162E-05-3.30872E-24
 -1       961 2.95196E-05 2.01587E-05 1.24077E-24
 -1       962 2.94092E-05 2.22808E-05-1.65436E-24
 -1       963 2.92986E-05 2.44685E-05 1.65436E-24
 -1       964 2.91879E-05 2.67078E-05-1.65436E-24
 -1       965 2.90771E-05 2.89849E-05 0.00000E+00
 -1       966 2.89663E-05 3.12857E-05 3.30872E-24
 -1       967 2.88555E-05 3.35965E-05 0.00000E+00
 -1       968 2.87448E-05 3.59031E-05-3.30872E-24
 -1       969 2.86342E-05 3.81917E-05 1.65436E-24
 -1       970 2.85240E-05 4.04485E-05-3.30872E-24
 -1       971 2.80890E-05 4.50649E-05 0.00000E+00
 -1       972 2.77513E-05 4.79613E-05-3.30872E-24
 -1       973 2.74127E-05 5.12924E-05 0.00000E+00
 -1       974 2.70712E-05 5.49992E-05 0.00000E+00
 -1       975 2.67283E-05 5.90208E-05-1.32349E-23
 -1       976 2.63840E-05 6.32950E-05 0.00000E+00
 -1       977 2.60390E-05 6.77584E-05 1.32349E-23
 -1       978 2.56933E-05 7.23467E-05 0.00000E+00
 -1       979 2.53473E-05 7.69950E-05 0.00000E+00
 -1       980 2.50015E-05 8.16381E-05 0.00000E+00
 -1       981 2.46560E-05 8.62109E-05 0.00000E+00
 -1       982 2.43115E-05 9.06485E-05 0.00000E+00
 -1       983 2.39681E-05 9.48869E-05 0.00000E+00
 -1       984 2.36277E-05 9.88627E-05 0.00000E+00
 -1       985 2.32880E-05 1.02514E-04 6.61744E-24
 -3
    1PSTEP                         2           1           1          
  100CL  101 1.000000000         841                     0    1           1
 -4  STRESS      6    1
 -5  SXX         1    4    1    1
 -5  SYY         1    4    2    2
 -5  SZZ         1    4    3    3
 -5  SXY         1    4    1    2
 -5  SYZ         1    4    2    3
 -5  SZX         1    4    3    1
 -1         1-3.71702E+06-1.16509E+06-7.31565E+05-1.09063E+06-1.89175E-10 2.98799E-09
 -1         2-2.40448E+06-6.92393E+04 3.39459E+03-2.41258E+05-1.80989E-10 7.00311E-11
 -1         3-1.20785E+06-5.56016E+05 2.55124E+04-1.05893E+05-2.90811E-10-1.46701E-09
 -1         4-5.37154E+05-1.58198E+05 7.46815E+02-6.05289E+04-4.75779E-11 1.87458E-09
 -1         5-2.06380E+05 3.43321E+05-1.61585E+05-1.76580E+04 3.48882E-09 2.70632E-09
 -1         8-2.03647E+06-8.17854E+05-3.16942E+05-8.72399E+05 4.36557E-10 2.57569E-09
 -1         9-2.27054E+06-4.81139E+05-3.17060E+05-5.29490E+05 7.66401E-10 1.87720E-09
 -1        10-1.21710E+06-8.29889E+05 9.31184E+03-3.25167E+05-2.18533E-09-1.44789E-09
 -1        11-6.53908E+05-2.42992E+05 3.93070E+02-1.71936E+05-1.78746E-09 2.05637E-09
 -1        12-3.40310E+05 2.91427E+05-1.92459E+05-8.34146E+04 2.84081E-09 1.84868E-09
 -1        15 1.37124E+04-6.41450E+04 3.99894E+03-2.29825E+05 1.67347E-10-1.42245E-09
 -1        16-1.32578E+06-3.29149E+05-1.12772E+05-5.78976E+05 9.74978E-10 3.04620E-09
 -1        17-8.53900E+05-6.75200E+05-1.29491E+05-4.80749E+05-4.31586E-09 8.31885E-10
 -1        18-3.45293E+05-2.19706E+05-1.38920E+05-2.97057E+05 1.26844E-09-1.75593E-09
 -1        19-6.89814E+04 1.52182E+05-8.75280E+04-9.52309E+04 9.23440E-10 1.92874E-09
 -1        20 1.87354E+05-1.27968E+05-1.66101E+04 9.40328E+04 7.97718E-09 1.51704E-09
 -1        21-1.63724E+04-2.88200E+05 3.38132E+04 6.42165E+03 5.65851E-08-4.48147E-09
 -1        22 4.17748E+04 2.42751E+05 1.44914E+03-5.54576E+04-4.18368E-11-5.03860E-10
 -1        23-4.49135E+05-1.56689E+04 3.89485E+03-2.44133E+05-8.29459E-10 1.29876E-09
 -1        24-3.03392E+05-1.02019E+04 2.20150E+05-5.30379E+05-3.87202E-09 6.06330E-10
 -1        25 6.78248E+05 3.01090E+05 2.36157E+05-3.61149E+05 2.43684E-09-1.20175E-09
 -1        26 2.41333E+04 3.72067E+05 3.30859E+04-7.68426E+04 1.45125E-09-6.02692E-10
 -1        27-1.01702E+05-1.18698E+05-5.25644E+04 1.08761E+05 8.25639E-09-6.17001E-09
 -1        28-2.95854E+04-2.08697E+05-1.61434E+03 9.56699E+04 2.77146E-08 6.61185E-10
 -1        29 5.53826E+05 3.89593E+05 1.56571E+03-2.02018E+04 2.12282E-10 6.70298E-10
 -1        30 2.06821E+05 5.26188E+04 2.20120E+03-6.27931E+04 8.45526E-10 3.30147E-10
 -1        31-6.68953E+05 5.55952E+04 4.73775E+03-1.46482E+05-9.89947E-10 6.12999E-10
 -1        32 6.88960E+05 5.36545E+05 5.38387E+05-4.40489E+05 4.02440E-09 4.55475E-09
 -1        33 1.30905E+06 8.10285E+05 4.67311E+05-1.01924E+05-5.64597E-09 1.88720E-09
 -1        34-3.81710E+05-7.38564E+04-4.34217E+04 3.27175E+04 1.53107E-08-2.13913E-09
 -1        35-5.03290E+04-6.69087E+04-1.41240E+03 1.37448E+05 2.64568E-08-4.81668E-09
 -1        36-5.19643E+06 1.44848E+05-3.56651E+05-5.87233E-08-2.43769E-10-6.66478E-09
 -1        37-5.34718E+06-1.68543E+05-2.48981E+05 5.34847E-08-1.18877E-09-5.31509E-09
 -1        38-5.25524E+06 2.14189E+04-9.23472E+04-1.46627E-07-1.63932E-09 1.18234E-09
 -1        39-5.27866E+06-2.48867E+04-5.68847E+04-6.98653E-08-3.30666E-09-5.37784E-09
 -1        40-5.26441E+06 3.16113E+03-2.36813E+04-2.51597E-08-7.44839E-11-6.99129E-09
 -1        41-5.26788E+06-3.70534E+03-1.38579E+04 6.44750E-08 1.81530E-10 2.31375E-09
 -1        42-5.26585E+06 5.07648E+02-6.90251E+03 1.05145E-07 3.51672E-10 3.98745E-09
 -1        43-5.26633E+06-8.99216E+02-5.39772E+03 1.88720E-08-2.28017E-09-1.13920E-08
 -1        44-5.26592E+06 3.86207E+02-5.54412E+03 1.01146E-08-8.12657E-10-6.70411E-10
 -1        45-5.26725E+06-2.60510E+03-9.99748E+03 2.73959E-08 1.71071E-09-8.59927E-10
 -1        46-5.26495E+06 2.19360E+03-1.65869E+04 1.21636E-08-2.09168E-10-1.73986E-09
 -1        47-5.27468E+06-1.72364E+04-3.94843E+04 1.15665E-07-2.42433E-09 8.73251E-09
 -1        48-5.25861E+06 1.48299E+04-6.39929E+04 1.42428E-08 1.07079E-11-1.81899E-11
 -1        49-5.32212E+06-1.16696E+05-1.72418E+05-7.67704E-09-3.12354E-10 2.55568E-09
 -1        50-5.21793E+06 1.00277E+05-2.47064E+05-3.60369E-08-1.50923E-09-5.96629E-10
 -1        51 4.67508E+04-4.68418E+05 8.14403E+04-1.35796E+06 8.73115E-11-1.54250E-09
 -1        52 2.26701E+04-4.64290E+05 4.82990E+04-1.51366E+06-1.30967E-10 2.29920E-09
 -1        53 1.49608E+04-4.84312E+05 3.55719E+04-1.35392E+06-5.52973E-10-5.20959E-09
 -1        54 3.29485E+04-4.82871E+05 5.03720E+04-1.51777E+06-2.61934E-10-3.05590E-09
 -1        55 6.67576E+04-5.00420E+05 8.77338E+04-1.35305E+06 5.82077E-11 4.05271E-09
 -1        56-5.54016E+06-6.27358E+05-4.38894E+05-2.13609E+06 2.61934E-10 8.41101E-09
 -1        57-5.71986E+06-1.01216E+06-2.94592E+05-2.11490E+06 2.41562E-09 2.27010E-09
 -1        58-5.62852E+06-7.62977E+05-1.03220E+05-2.10828E+06 2.27374E-10-6.29007E-09
 -1        59-5.61813E+06-8.51764E+05-6.12013E+04-2.14745E+06-9.67702E-10-8.10633E-09
 -1        60-5.64051E+06-7.82194E+05-2.40998E+04-2.10537E+06 1.43473E-09 6.85759E-10
 -1        61-5.60766E+06-8.25575E+05-1.36372E+04-2.14655E+06-2.77873E-09-3.22893E-09
 -1        62-5.63859E+06-7.88528E+05-6.74236E+03-2.10928E+06 4.51109E-10 1.07450E-08
 -1        63-5.61560E+06-8.12924E+05-5.65271E+03-2.13524E+06-2.86491E-09 9.11723E-09
 -1        64-5.63232E+06-7.94899E+05-6.85282E+03-2.11654E+06-2.29466E-09 7.12771E-09
 -1        65-5.63088E+06-8.02012E+05-1.37888E+04-2.11922E+06 1.94814E-09-3.53430E-09
 -1        66-5.62326E+06-7.99580E+05-2.45711E+04-2.12522E+06-1.09583E-09 7.30324E-09
 -1        67-5.65904E+06-8.11116E+05-6.21604E+04-2.10017E+06-1.03387E-09 7.33053E-10
 -1        68-5.60456E+06-7.86444E+05-1.04976E+05-2.13548E+06-1.13505E-09 2.81216E-09
 -1        69-5.76964E+06-9.67478E+05-2.99495E+05-2.05985E+06 2.07456E-09 4.24552E-09
 -1        70-5.51438E+06-6.48669E+05-4.46139E+05-2.16388E+06-2.79397E-09 1.07684E-09
 -1        71-2.39876E+06-3.43949E+03 8.49259E+03-4.31667E-08 3.92643E-10 2.95950E-09
 -1        72-2.39495E+06 4.00370E+03 5.91721E+03-1.12253E-08-1.09575E-09 1.33064E-08
 -1        73-2.39736E+06-5.08537E+02 2.18769E+03-6.45327E-08-1.04790E-09-3.77747E-09
 -1        74-2.39658E+06 5.89677E+02 1.32822E+03 1.63354E-08 5.63656E-10-9.09682E-09
 -1        75-2.39714E+06-7.37414E+01 5.12608E+02 2.59259E-08 2.29947E-10 7.37151E-09
 -1        76-2.39684E+06 7.71963E+01 2.19827E+02-5.70854E-08-2.90570E-10 1.37370E-08
 -1        77-2.39710E+06-2.56564E+00-4.56905E+01 8.37616E-08 5.58007E-10-9.62899E-10
 -1        78-2.39692E+06-5.42511E+01-3.27696E+02-4.94771E-08-6.15618E-10-6.40298E-10
 -1        79-2.39706E+06 5.64942E+01-7.09974E+02-1.00142E-07-1.20799E-10-1.64931E-09
 -1        80-2.39715E+06-4.57942E+02-1.66597E+03-1.15107E-07-7.91993E-11-1.08929E-09
 -1        81-2.39688E+06 3.96808E+02-2.95314E+03 3.36122E-08-2.73540E-10 1.12311E-09
 -1        82-2.39851E+06-3.13131E+03-7.16004E+03 5.96762E-08-6.52804E-10 5.24506E-09
 -1        83-2.39571E+06 2.69547E+03-1.16493E+04-2.16001E-08-3.67702E-10 1.39789E-09
 -1        84-2.40713E+06-2.12153E+04-3.13812E+04-8.09245E-08-3.38865E-11-4.36921E-09
 -1        85-2.38830E+06 1.82259E+04-4.50003E+04-3.30488E-08-6.46277E-10-3.40697E-09
 -1        86-1.20503E+05 7.63502E+05 3.03526E+05-2.11381E+03 6.98492E-10 1.45315E-09
 -1        87 1.50690E+05 8.95579E+05 2.31682E+05 1.20600E+04 2.32831E-10 1.14028E-10
 -1        88-2.81577E+04 8.07341E+05 1.20388E+05-3.89983E+03 1.10231E-09 6.35123E-09
 -1        89 1.03321E+05 8.73397E+05 1.67667E+05 1.62343E+04 1.12595E-09 6.25903E-09
 -1        90-7.39047E+04 7.85747E+05 1.91559E+05-6.28393E+03 1.70257E-09 3.29328E-09
 -1        91-2.68157E+06-3.56210E+05-4.86309E+04-1.00959E+06-1.54614E-11-3.74166E-09
 -1        92-2.69274E+06-4.11729E+05-3.32542E+04-1.01684E+06-3.49223E-09-2.55022E-09
 -1        93-2.69398E+06-3.70091E+05-1.14157E+04-1.00330E+06 3.66640E-09 3.50155E-10
 -1        94-2.67810E+06-3.95838E+05-6.98683E+03-1.02451E+06 4.49404E-09 5.02587E-09
 -1        95-2.69618E+06-3.71846E+05-2.68719E+03-1.00201E+06 1.06729E-09-3.14833E-09
 -1        96-2.67717E+06-3.92108E+05-1.59931E+03-1.02402E+06-1.19161E-09-9.96952E-10
 -1        97-2.69488E+06-3.73797E+05-8.53067E+02-1.00379E+06-1.16484E-09 3.75624E-09
 -1        98-2.68172E+06-3.86849E+05-8.29664E+02-1.01832E+06-1.76368E-09-3.54746E-09
 -1        99-2.69158E+06-3.77135E+05-1.19946E+03-1.00767E+06-2.48178E-10-1.01375E-09
 -1       100-2.68943E+06-3.80124E+05-2.53052E+03-1.00971E+06 8.87155E-10-4.68953E-09
 -1       101-2.68715E+06-3.80547E+05-4.52722E+03-1.01238E+06-9.92941E-10 1.65051E-09
 -1       102-2.69992E+06-3.77585E+05-1.17501E+04-1.00042E+06 8.28663E-10 3.36354E-09
 -1       103-2.68114E+06-3.79710E+05-1.92885E+04-1.01697E+06-2.56796E-09 3.53157E-09
 -1       104-2.72423E+06-4.05381E+05-5.62607E+04-9.88743E+05-8.50378E-09 2.69029E-09
 -1       105-2.66302E+06-3.53098E+05-8.21366E+04-1.02398E+06-5.90990E-09-1.69894E-09
 -1       106-1.13277E+06-2.78003E+04 6.87120E+04 6.81557E-08-1.48006E-09-5.00586E-09
 -1       107-1.10360E+06 3.23644E+04 4.78993E+04-1.44304E-07 3.32063E-10-3.46336E-09
 -1       108-1.12144E+06-4.11153E+03 1.77882E+04-1.43252E-07-7.60825E-11-9.50422E-10
 -1       109-1.11674E+06 4.77604E+03 1.09234E+04 2.81439E-08-6.57810E-11-4.27735E-09
 -1       110-1.11967E+06-6.04661E+02 4.48838E+03-4.66576E-08-1.47116E-10-6.29370E-10
 -1       111-1.11882E+06 6.93386E+02 2.49311E+03-1.34297E-09-1.70441E-10 6.39056E-09
 -1       112-1.11937E+06-8.16307E+01 9.84569E+02-8.09569E-09 6.90539E-10-8.84086E-10
 -1       113-1.11919E+06 4.65341E+01 2.81855E+02 1.21861E-08-1.11371E-09 4.44328E-09
 -1       114-1.11930E+06 3.53743E+01-3.34595E+02-9.64596E-08 4.27384E-10-4.21488E-09
 -1       115-1.11943E+06-3.66794E+02-1.25006E+03-4.02281E-10-3.55955E-10-1.58275E-09
 -1       116-1.11914E+06 3.27551E+02-2.39079E+03-4.04407E-08-3.25417E-10 3.97074E-09
 -1       117-1.12056E+06-2.59589E+03-5.91448E+03 9.14743E-08-3.90419E-10-9.07824E-09
 -1       118-1.11817E+06 2.23586E+03-9.66023E+03-9.73816E-08-5.61983E-10 1.10504E-10
 -1       119-1.12771E+06-1.76001E+04-2.60416E+04-1.78419E-07-2.41466E-10-3.98904E-09
 -1       120-1.11200E+06 1.51201E+04-3.73474E+04 4.25339E-08-1.46639E-10 8.04539E-09
 -1       121 8.49662E+03-2.19707E+06-2.86346E+04 1.03913E+04-1.47338E-10 5.43037E-09
 -1       122-1.09139E+04-2.20784E+06-1.99526E+04 8.91187E+04-9.09495E-13 2.20007E-09
 -1       123 1.27931E+03-2.20127E+06-9.73216E+03 1.11575E+04-1.57263E-09 5.19594E-09
 -1       124-5.05176E+03-2.20396E+06-1.03794E+04 8.63671E+04-2.23872E-09-5.95628E-09
 -1       125 2.78196E+03-2.20031E+06-1.13215E+04 1.31408E+04-5.41922E-09 4.11092E-09
 -1       126-1.28410E+06-1.93530E+05 3.68607E+04-4.74633E+05 1.48975E-09-6.83031E-09
 -1       127-1.26133E+06-1.65108E+05 2.52451E+04-4.84754E+05-1.08002E-11 3.26690E-09
 -1       128-1.27703E+06-1.80560E+05 8.64436E+03-4.76593E+05-2.20666E-09 7.58519E-10
 -1       129-1.26951E+06-1.80212E+05 5.27343E+03-4.82496E+05-2.63299E-09 2.28272E-09
 -1       130-1.27596E+06-1.78595E+05 1.97280E+03-4.76837E+05 4.49376E-10 3.43573E-09
 -1       131-1.27095E+06-1.82320E+05 1.06409E+03-4.82001E+05 4.91642E-09-3.66265E-09
 -1       132-1.27561E+06-1.78476E+05 3.26015E+02-4.77080E+05 1.13290E-09-1.82172E-09
 -1       133-1.27175E+06-1.82144E+05-6.38749E+01-4.81289E+05-4.09585E-10 2.29960E-09
 -1       134-1.27515E+06-1.78777E+05-4.80170E+02-4.77546E+05-1.06044E-09 1.24783E-09
 -1       135-1.27298E+06-1.81665E+05-1.37691E+03-4.80131E+05-1.69295E-09-8.15987E-09
 -1       136-1.27438E+06-1.78963E+05-2.51947E+03-4.78234E+05-8.78380E-10-5.88057E-09
 -1       137-1.27582E+06-1.83294E+05-6.68691E+03-4.78315E+05 4.44324E-10 3.96585E-09
 -1       138-1.27232E+06-1.77178E+05-1.09670E+04-4.79353E+05 1.01750E-09-6.77119E-10
 -1       139-1.28788E+06-2.00752E+05-3.20007E+04-4.73515E+05 4.08090E-09-3.08410E-09
 -1       140-1.26237E+06-1.61719E+05-4.67239E+04-4.82962E+05-2.26464E-10 3.38332E-09
 -1       141-3.93101E+05-1.12023E+04 2.76844E+04 1.34664E-07 2.07049E-10-3.61615E-09
 -1       142-3.81350E+05 1.30405E+04 1.92942E+04 1.09123E-07 8.81602E-10 3.07409E-10
 -1       143-3.88530E+05-1.65635E+03 7.14594E+03-2.43366E-08 2.67417E-10-4.45152E-09
 -1       144-3.86646E+05 1.92142E+03 4.34942E+03-1.46286E-07-5.62419E-10-5.34732E-09
 -1       145-3.87810E+05-2.40913E+02 1.70347E+03-1.31212E-07 1.46192E-10-1.77488E-09
 -1       146-3.87498E+05 2.57447E+02 7.79561E+02 6.17722E-08 6.59053E-11-1.92131E-11
 -1       147-3.87680E+05-1.36427E+01-3.21634E+01 3.88978E-08-1.84616E-10 4.74603E-09
 -1       148-3.87732E+05-1.34581E+02-8.16451E+02-3.92555E-08 2.63880E-10-2.37731E-09
 -1       149-3.87577E+05 1.47427E+02-1.85059E+03 1.33751E-08-2.16669E-10-9.83164E-10
 -1       150-3.88334E+05-1.20200E+03-4.37893E+03 4.30250E-08-5.06602E-10-1.51806E-09
 -1       151-3.87078E+05 1.04240E+03-7.77638E+03 5.17277E-08 1.76330E-11-1.81399E-09
 -1       152-3.91902E+05-8.22692E+03-1.88463E+04-5.98390E-08-1.57188E-10-1.54796E-09
 -1       153-3.84012E+05 7.08196E+03-3.06614E+04 2.18833E-08 7.88717E-10 4.91127E-11
 -1       154-4.14524E+05-5.57421E+04-8.25248E+04 8.48036E-08 2.54870E-10 1.08139E-09
 -1       155-3.64453E+05 4.78904E+04-1.18282E+05 3.33343E-08 2.36042E-09-1.86265E-09
 -1       156-7.66347E+03-4.97351E+05 2.00368E+04-1.80589E+03 1.19144E-10-7.52152E-10
 -1       157 1.10498E+04-4.88133E+05 1.81297E+04 1.16171E+04-3.14117E-10 4.30936E-09
 -1       158-3.24191E+03-4.95307E+05 1.38499E+04-1.58030E+03 4.01315E-10 1.34122E-09
 -1       159 1.82044E+04-4.84653E+05 2.78264E+04 1.09635E+04-2.21917E-10 4.85787E-09
 -1       160-1.47317E+04-5.00804E+05 3.69100E+04-1.15206E+03 5.00222E-10 8.76162E-09
 -1       161-6.86575E+05-9.34649E+04-7.19923E+03-2.58070E+05 2.65914E-10 2.08274E-10
 -1       162-6.87752E+05-1.02177E+05-4.93828E+03-2.59704E+05 1.34631E-09-6.90818E-10
 -1       163-6.88075E+05-9.58729E+04-1.71036E+03-2.57547E+05-6.00835E-10-7.45331E-10
 -1       164-6.86041E+05-9.93552E+04-1.07936E+03-2.60285E+05 6.67413E-11 1.48179E-09
 -1       165-6.88280E+05-9.62536E+04-4.84036E+02-2.57501E+05-8.48061E-10-2.64762E-10
 -1       166-6.85904E+05-9.88524E+04-4.31466E+02-2.60239E+05 9.68029E-10-2.10720E-09
 -1       167-6.88211E+05-9.63717E+04-4.97604E+02-2.57595E+05-6.93987E-10-2.29397E-09
 -1       168-6.86226E+05-9.87390E+04-1.00337E+03-2.59949E+05-9.86603E-10-7.98485E-09
 -1       169-6.87956E+05-9.63687E+04-1.80538E+03-2.57789E+05-6.61100E-10-2.29875E-09
 -1       170-6.87380E+05-9.96400E+04-4.40072E+03-2.59340E+05-1.04506E-09-1.73520E-09
 -1       171-6.87059E+05-9.54835E+04-7.77474E+03-2.58200E+05-2.64208E-10 1.39380E-09
 -1       172-6.92959E+05-1.07703E+05-2.05025E+04-2.57351E+05 7.45445E-10 3.63934E-09
 -1       173-6.82396E+05-8.83962E+04-3.35407E+04-2.59746E+05-3.05772E-09-1.46611E-09
 -1       174-7.26597E+05-1.64237E+05-9.78406E+04-2.46320E+05-7.09952E-09 7.27323E-09
 -1       175-6.53520E+05-3.95922E+04-1.42755E+05-2.68994E+05 8.29459E-10-2.61207E-09
 -1       191 5.32166E+03 1.02923E+06 9.39793E+03-3.29266E+04-3.34694E-10 1.23327E-09
 -1       192 1.80784E+03 1.03076E+06 5.67681E+03-3.57879E+04 9.14042E-10 1.45519E-09
 -1       193 7.04582E+02 1.02967E+06 4.58981E+03-3.24377E+04-1.56660E-09 1.23691E-10
 -1       194 2.49820E+03 1.03091E+06 6.97470E+03-3.66814E+04 1.20781E-09-5.10772E-09
 -1       195 7.46027E+03 1.02881E+06 1.26157E+04-3.20151E+04-2.64845E-09 4.46198E-09
 -1       251-2.57498E+06 4.74225E+04-1.17789E+05-1.14209E+04-9.56334E-10 2.92493E-09
 -1       252-2.62218E+06-5.54252E+04-8.17344E+04-6.87623E+03-1.45747E-10-7.14499E-09
 -1       253-2.59440E+06 6.91480E+03-3.06718E+04-5.31254E+02-1.03273E-09-4.15275E-09
 -1       254-2.60010E+06-8.19319E+03-1.85715E+04-2.71096E+04 7.43057E-10 7.31961E-09
 -1       255-2.59712E+06 9.66131E+02-7.97110E+03 8.80839E+03-5.04542E-10 8.96625E-09
 -1       256-2.59750E+06-1.10037E+03-4.59269E+03-4.20454E+04-1.47338E-10 4.14252E-09
 -1       257-2.59726E+06 1.34260E+02-2.47972E+03 1.44045E+04-1.39892E-09 8.95795E-10
 -1       258-2.59756E+06-1.47630E+02-2.18219E+03-4.81141E+04-1.11186E-09-1.56307E-09
 -1       259-2.59722E+06 1.47363E+02-2.58551E+03 1.48777E+04-1.57843E-09-1.27773E-09
 -1       260-2.59770E+06-1.16903E+03-4.93949E+03-4.38263E+04 1.41245E-09-3.17584E-09
 -1       261-2.59701E+06 1.05510E+03-8.55199E+03 1.01162E+04 9.74751E-10-2.39334E-09
 -1       262-2.60058E+06-8.81731E+03-2.00628E+04-3.02283E+04-1.18553E-09-3.83784E-09
 -1       263-2.59408E+06 7.47879E+03-3.30561E+04 1.27942E+03-4.54747E-10 1.87720E-09
 -1       264-2.62429E+06-5.98031E+04-8.81945E+04-1.05551E+04-5.06952E-09 6.53654E-09
 -1       265-2.57321E+06 5.11813E+04-1.27052E+05-9.55303E+03-4.52292E-09 2.13186E-09
 -1       266-3.03409E+04-4.79523E+05 6.94788E+04 3.77439E+04 2.51021E-10 1.00190E-08
 -1       267 3.58709E+04-4.47829E+05 4.57281E+04-2.19055E+05 3.22871E-10-4.87603E-10
 -1       268-2.72043E+03-4.63170E+05 9.67734E+03 3.99932E+04 9.27685E-11-2.48880E-09
 -1       269-7.13028E+03-4.69390E+05-1.27246E+04-2.19589E+05 3.03771E-10 3.83079E-09
 -1       270 1.22771E+04-4.58306E+05-3.19368E+04 3.82790E+04-2.00089E-10 9.58516E-09
 -1       271-5.53510E+06-6.70859E+05-4.43000E+05-2.15666E+06-8.73115E-10-7.01402E-09
 -1       272-5.71648E+06-9.99338E+05-2.88801E+05-2.12970E+06 1.09139E-10-1.15979E-08
 -1       273-5.62360E+06-7.86778E+05-1.04512E+05-2.13042E+06 1.01545E-09-1.28057E-09
 -1       274-5.61053E+06-8.62296E+05-5.94815E+04-2.16834E+06 1.25601E-09-4.42378E-09
 -1       275-5.63935E+06-7.96379E+05-2.43960E+04-2.12239E+06 4.99313E-10 3.95812E-09
 -1       276-5.59068E+06-8.52361E+05-1.32985E+04-2.18079E+06 7.22139E-10-9.13133E-10
 -1       277-5.64369E+06-7.95096E+05-6.76443E+03-2.11878E+06 5.26370E-10-2.42608E-10
 -1       278-5.58632E+06-8.53645E+05-5.63643E+03-2.18494E+06 9.15179E-10 7.83689E-09
 -1       279-5.64395E+06-7.94801E+05-6.90433E+03-2.11847E+06 7.28164E-10 9.56288E-09
 -1       280-5.58980E+06-8.53490E+05-1.37280E+04-2.18205E+06 1.17689E-09-1.40062E-10
 -1       281-5.64005E+06-7.95492E+05-2.51984E+04-2.12150E+06 3.23325E-10-1.48248E-09
 -1       282-5.60923E+06-8.64947E+05-6.15553E+04-2.17056E+06 9.68612E-11-8.32188E-10
 -1       283-5.62433E+06-7.84977E+05-1.08107E+05-2.12916E+06-6.32099E-10 6.78119E-09
 -1       284-5.71777E+06-1.00784E+06-2.98837E+05-2.13180E+06 1.68438E-09-3.47063E-09
 -1       285-5.53326E+06-6.64531E+05-4.58322E+05-2.15574E+06-2.01544E-09 8.29459E-09
 -1       286-1.01381E+06-5.98261E+03 1.41154E+04-1.11878E+03 4.27417E-09 4.79213E-09
 -1       287-1.00531E+06 6.71427E+03 1.02778E+04-2.00721E+04 5.39330E-10 2.61025E-09
 -1       288-1.01123E+06-9.44014E+02 3.59568E+03 2.83180E+03 6.39375E-10-2.98314E-09
 -1       289-1.00875E+06 9.87484E+02 2.49165E+03-2.70904E+04-3.50155E-10 9.32459E-10
 -1       290-1.01060E+06-1.75285E+02 9.77547E+02 5.89843E+03-1.25738E-10-2.78197E-09
 -1       291-1.00984E+06 2.50244E+02 8.09200E+02-3.20442E+04 3.00247E-09-6.96772E-09
 -1       292-1.01035E+06-6.31287E+01 6.26828E+02 7.78551E+03 1.73861E-09 5.20481E-09
 -1       293-1.01021E+06 3.10248E+02 1.00474E+03-3.44542E+04 2.49281E-09 3.55959E-09
 -1       294-1.01035E+06-1.48663E+02 1.66496E+03 8.30877E+03 2.30885E-09 9.54753E-09
 -1       295-1.00968E+06 1.12406E+03 3.66332E+03-3.40840E+04 2.47374E-09 1.33105E-09
 -1       296-1.01085E+06-8.81842E+02 6.34789E+03 7.41526E+03 2.04636E-09 4.03838E-09
 -1       297-1.00630E+06 6.77241E+03 1.54572E+04-3.09715E+04 2.87059E-09 6.46878E-10
 -1       298-1.01357E+06-5.83238E+03 2.49041E+04 5.19605E+03 1.34514E-09 3.60160E-09
 -1       299-9.87136E+05 4.54479E+04 6.74534E+04-2.54655E+04 9.09495E-13 6.99401E-10
 -1       300-1.02974E+06-3.91674E+04 9.63043E+04 1.90837E+03 1.63254E-10 8.20000E-09
 -1       301 7.23369E+04 1.20124E+05 1.41864E+05-2.81146E+04 3.86353E-09 2.65072E-09
 -1       302 2.43543E+04 1.45395E+05 8.18744E+04-3.26282E+04-5.74801E-10-2.85549E-09
 -1       303 7.13630E+03 1.29395E+05 5.86194E+04-2.84124E+04 3.34910E-09-1.18155E-09
 -1       304 2.30738E+04 1.44744E+05 7.87698E+04-3.26064E+04 2.37378E-10-1.46247E-09
 -1       305 6.81504E+04 1.20779E+05 1.34266E+05-2.81652E+04 4.06726E-09 8.24230E-10
 -1       306-4.52288E+06-5.50407E+05-3.50615E+05-1.75895E+06 1.93904E-09 2.96859E-09
 -1       307-4.65831E+06-8.17213E+05-2.28376E+05-1.74594E+06 7.69433E-10-2.45927E-09
 -1       308-4.59348E+06-6.41319E+05-8.27883E+04-1.73754E+06-8.02174E-10 3.27418E-09
 -1       309-4.57371E+06-7.10002E+05-4.70519E+04-1.77793E+06-1.83491E-09 6.59293E-09
 -1       310-4.60644E+06-6.48356E+05-1.93621E+04-1.73062E+06 3.54612E-09 5.08135E-09
 -1       311-4.55732E+06-7.03042E+05-1.05346E+04-1.78898E+06 1.73350E-09 2.13799E-09
 -1       312-4.61030E+06-6.46876E+05-5.40463E+03-1.72728E+06-8.46285E-10-4.43174E-09
 -1       313-4.55322E+06-7.04849E+05-4.53965E+03-1.79329E+06-2.66721E-09-6.19102E-09
 -1       314-4.61088E+06-6.46229E+05-5.61783E+03-1.72660E+06-4.54600E-09-2.45609E-09
 -1       315-4.55536E+06-7.05476E+05-1.12224E+04-1.79182E+06-4.53838E-10 1.79625E-11
 -1       316-4.60806E+06-6.46416E+05-2.06175E+04-1.72865E+06-2.87946E-09-3.95266E-09
 -1       317-4.57050E+06-7.15501E+05-5.03500E+04-1.78310E+06-2.76714E-10-2.37196E-09
 -1       318-4.59547E+06-6.37588E+05-8.84600E+04-1.73459E+06 1.39653E-09-2.87037E-09
 -1       319-4.65860E+06-8.32579E+05-2.44297E+05-1.75160E+06 2.47064E-09-1.45519E-11
 -1       320-4.52106E+06-5.39239E+05-3.74882E+05-1.75625E+06-9.89530E-10 2.66300E-09
 -1       321-8.09695E+05-4.71019E+04 1.16330E+05-4.10017E+02-1.36174E-09-4.73665E-09
 -1       322-7.59927E+05 5.47773E+04 8.11752E+04-9.57783E+03-3.13912E-09-1.52340E-09
 -1       323-7.90472E+05-6.97724E+03 3.01172E+04 9.20090E+02-2.00657E-10 5.90262E-09
 -1       324-7.82309E+05 8.07342E+03 1.85716E+04-1.19898E+04 1.39710E-09 2.00998E-09
 -1       325-7.87415E+05-1.03313E+03 7.66447E+03 2.00331E+03-2.20780E-10-2.40880E-09
 -1       326-7.85940E+05 1.19157E+03 4.39699E+03-1.37731E+04-3.57431E-10 8.40373E-10
 -1       327-7.86892E+05-1.54828E+02 1.96886E+03 2.70345E+03-4.03816E-10-3.03544E-10
 -1       328-7.86582E+05 2.01975E+02 1.13913E+03-1.47354E+04-5.08194E-10 3.20398E-10
 -1       329-7.86801E+05-3.59642E+01 6.49929E+02 2.96557E+03 2.16442E-10 3.56371E-09
 -1       330-7.86635E+05 1.42196E+02 6.30534E+02-1.48004E+04-6.89184E-10-2.93333E-09
 -1       331-7.86841E+05-9.38552E+01 7.76303E+02 2.76845E+03-8.69704E-11 3.71188E-10
 -1       332-7.86281E+05 7.03640E+02 1.66511E+03-1.39624E+04 5.11335E-10-2.69634E-09
 -1       333-7.87132E+05-6.05976E+02 2.60417E+03 2.12762E+03-5.31941E-10 9.77366E-10
 -1       334-7.84247E+05 4.70201E+03 7.01012E+03-1.22849E+04 4.71630E-10 3.97654E-09
 -1       335-7.88831E+05-4.06413E+03 9.96228E+03 1.09088E+03-1.17166E-09 8.53561E-09
 -1       336 3.23478E+03-2.19913E+06-1.57041E+04-1.12252E+04-9.97602E-09-2.65391E-09
 -1       337-7.44488E+03-2.20684E+06-2.31256E+04-1.53896E+05-1.35153E-08-2.08274E-10
 -1       338 4.70647E+03-2.19819E+06-3.28884E+04-9.74198E+03-1.20035E-08 8.69136E-10
 -1       339-4.32879E+04-2.22660E+06-7.99274E+04-1.54625E+05-1.54923E-08 5.60988E-09
 -1       340 3.57960E+04-2.17973E+06-1.19564E+05-1.05038E+04-9.76434E-09 3.75803E-09
 -1       341-2.67294E+06-3.53134E+05-8.30298E+04-1.02648E+06 1.56979E-09 6.14818E-10
 -1       342-2.72905E+06-4.11713E+05-5.68804E+04-9.97362E+05 3.16959E-09-6.39375E-10
 -1       343-2.69140E+06-3.79877E+05-1.95286E+04-1.01921E+06 2.38219E-09-3.95994E-09
 -1       344-2.70490E+06-3.83272E+05-1.19576E+04-1.00880E+06 5.47288E-10-4.01087E-10
 -1       345-2.69692E+06-3.81210E+05-4.70529E+03-1.01513E+06-2.13106E-10 7.00766E-10
 -1       346-2.69591E+06-3.84397E+05-2.90569E+03-1.01652E+06-9.17225E-10 6.51141E-10
 -1       347-2.70036E+06-3.78702E+05-1.82040E+03-1.01150E+06-1.39801E-09-1.17791E-09
 -1       348-2.69046E+06-3.89332E+05-2.33485E+03-1.02271E+06 3.65844E-10-6.66077E-10
 -1       349-2.70239E+06-3.76253E+05-3.60030E+03-1.00896E+06-6.55064E-10-2.51327E-09
 -1       350-2.68916E+06-3.94480E+05-8.40291E+03-1.02566E+06-4.89536E-09-4.08056E-09
 -1       351-2.70171E+06-3.73559E+05-1.47050E+04-1.00856E+06-2.73781E-09 7.90351E-10
 -1       352-2.69939E+06-4.10055E+05-3.87443E+04-1.02226E+06-5.98448E-10 5.65342E-09
 -1       353-2.69224E+06-3.60857E+05-6.33577E+04-1.01231E+06-3.07318E-09-4.88217E-09
 -1       354-2.76582E+06-5.14259E+05-1.85001E+05-9.98123E+05-3.03771E-09-7.33053E-10
 -1       355-2.63560E+06-2.70598E+05-2.69877E+05-1.03230E+06-7.01402E-09 6.40284E-10
 -1       356-5.73915E+05-1.19163E+04 2.94091E+04 3.87193E+02 5.73664E-10 1.47338E-09
 -1       357-5.61276E+05 1.38543E+04 2.05194E+04-6.69008E+03-9.51474E-10 5.26802E-09
 -1       358-5.69040E+05-1.76404E+03 7.58536E+03 9.00548E+02-6.15387E-10 1.81262E-09
 -1       359-5.66954E+05 2.03861E+03 4.62610E+03-7.57127E+03 7.06677E-10-4.80645E-09
 -1       360-5.68260E+05-2.57167E+02 1.80146E+03 1.26857E+03-3.68686E-10-3.66981E-10
 -1       361-5.67895E+05 2.73721E+02 8.17821E+02-8.13784E+03-3.45096E-10 3.28555E-10
 -1       362-5.68112E+05-1.36663E+01-5.84412E+01 1.46712E+03-7.03182E-10-9.93475E-09
 -1       363-5.68162E+05-1.48189E+02-9.19692E+02-8.35309E+03 7.71792E-11-3.12116E-09
 -1       364-5.67998E+05 1.64033E+02-2.06283E+03 1.48382E+03 3.28100E-10-7.70910E-09
 -1       365-5.68822E+05-1.33502E+03-4.86979E+03-8.20442E+03 1.26249E-10-1.03283E-08
 -1       366-5.67452E+05 1.15825E+03-8.64907E+03 1.31844E+03-4.76177E-10 2.00180E-09
 -1       367-5.72758E+05-9.15137E+03-2.09496E+04-7.69697E+03 4.78167E-10 1.80989E-10
 -1       368-5.64057E+05 7.87263E+03-3.40984E+04 9.76362E+02 4.30873E-10 6.23913E-10
 -1       369-5.97870E+05-6.19947E+04-9.17529E+04-6.82664E+03-9.32886E-10 3.49246E-09
 -1       370-5.42327E+05 5.32498E+04-1.31536E+05 4.48911E+02 2.40505E-09-1.09139E-09
 -1       371-1.70386E+04-4.29115E+05 3.99473E+04 1.60816E+04 1.64982E-09-1.76533E-09
 -1       372 1.72907E+04-4.12551E+05 2.23531E+04-9.69892E+04 1.43518E-09-4.36717E-09
 -1       373 3.22932E+02-4.20249E+05-1.56472E+03 1.68026E+04-2.37378E-10-4.97380E-11
 -1       374-1.94933E+04-4.29906E+05-2.73682E+04-9.68341E+04 4.36921E-09 5.91291E-09
 -1       375 1.91875E+04-4.11720E+05-4.68015E+04 1.59259E+04-1.81899E-09 5.21140E-09
 -1       376-1.44123E+06-1.79824E+05-6.42637E+04-5.52142E+05-4.10546E-09-2.77942E-09
 -1       377-1.47166E+06-2.38155E+05-4.40218E+04-5.44456E+05-6.86668E-11 3.14094E-09
 -1       378-1.45495E+06-2.01030E+05-1.51144E+04-5.47112E+05 1.15892E-09-1.11049E-09
 -1       379-1.45529E+06-2.13974E+05-9.27393E+03-5.50868E+05 5.73834E-11-2.60570E-09
 -1       380-1.45753E+06-2.03705E+05-3.61230E+03-5.45832E+05-1.84559E-09-3.11366E-09
 -1       381-1.45215E+06-2.11058E+05-2.24289E+03-5.52543E+05 2.34801E-10 1.55092E-09
 -1       382-1.45808E+06-2.03901E+05-1.32378E+03-5.45453E+05 2.54651E-10 1.68097E-09
 -1       383-1.45183E+06-2.10858E+05-1.65666E+03-5.52750E+05-5.52610E-10-6.38056E-09
 -1       384-1.45785E+06-2.03901E+05-2.47400E+03-5.45628E+05 1.24707E-09-1.03682E-09
 -1       385-1.45345E+06-2.11751E+05-5.73297E+03-5.51750E+05 3.11445E-10 2.63185E-09
 -1       386-1.45646E+06-2.03026E+05-1.00237E+04-5.46446E+05 7.29415E-10-4.07044E-09
 -1       387-1.46134E+06-2.21370E+05-2.63633E+04-5.48337E+05 8.23093E-10-6.54745E-09
 -1       388-1.44999E+06-1.94404E+05-4.31165E+04-5.49000E+05-2.26828E-09 2.61753E-09
 -1       389-1.50572E+06-2.92976E+05-1.25798E+05-5.32875E+05-1.02505E-08 7.90169E-09
 -1       390-1.41226E+06-1.32251E+05-1.83539E+05-5.61618E+05 1.10595E-09 3.96540E-09
 -1       406 6.32258E+03 1.00448E+06 1.17567E+04-1.41744E+05-3.34148E-09 1.98997E-09
 -1       407 3.04280E+03 1.00639E+06 1.01710E+04-1.57876E+05 9.05857E-10-6.72389E-09
 -1       408 2.93778E+03 1.00452E+06 1.33034E+04-1.41384E+05-4.35830E-09 2.73030E-09
 -1       409 1.11479E+04 1.00933E+06 2.63940E+04-1.58253E+05 1.06593E-09 6.46287E-09
 -1       410 3.21373E+04 1.00101E+06 5.19177E+04-1.41301E+05-4.80577E-09 5.13455E-09
 -1       466 2.28722E+06-8.64462E+04 2.12961E+05 2.20766E+04 4.49290E-10-2.34286E-09
 -1       467 2.38192E+06 1.00094E+05 1.49273E+05-6.44735E+04 1.73941E-10 4.84215E-09
 -1       468 2.32363E+06-1.27914E+04 5.53032E+04 1.03584E+04 8.76298E-10-3.29965E-09
 -1       469 2.33908E+06 1.47509E+04 3.43405E+04-4.62318E+04 8.37304E-10 2.66346E-09
 -1       470 2.32955E+06-1.89480E+03 1.43923E+04 3.83963E+03 3.30374E-10 2.53112E-09
 -1       471 2.33198E+06 2.28898E+03 8.72376E+03-3.66349E+04-5.57066E-10-1.96189E-09
 -1       472 2.33053E+06-3.30098E+02 4.83056E+03 7.61332E+02-8.57767E-11 5.90944E-10
 -1       473 2.33099E+06 8.52808E+02 4.68309E+03-3.31752E+04 3.73710E-10-3.19653E-09
 -1       474 2.33048E+06-4.29225E+02 5.97160E+03 3.79876E+02 2.83279E-10-4.10705E-09
 -1       475 2.33240E+06 3.21618E+03 1.19348E+04-3.50222E+04 8.04960E-10-5.82077E-09
 -1       476 2.32914E+06-2.69074E+03 2.03317E+04 2.60841E+03 1.24146E-09 3.74712E-10
 -1       477 2.34204E+06 2.11266E+04 4.87784E+04-4.26231E+04-1.19962E-09 8.00355E-11
 -1       478 2.32095E+06-1.82228E+04 7.89556E+04 7.98099E+03-4.34284E-11 2.60115E-09
 -1       479 2.40168E+06 1.43034E+05 2.12626E+05-5.80565E+04-1.77533E-09-6.76664E-10
 -1       480 2.26984E+06-1.23155E+05 3.04292E+05 1.80344E+04-2.34650E-10-2.18279E-09
 -1       481-1.87025E+04 4.34892E+05 4.64955E+04-4.32313E+03 1.58252E-10-6.45741E-11
 -1       482 2.25151E+04 4.55814E+05 3.42336E+04 1.03918E+04-3.61069E-10 5.16332E-09
 -1       483-3.63506E+03 4.42187E+05 1.54434E+04-3.22973E+03-1.35515E-10 2.70188E-09
 -1       484 1.00502E+04 4.49627E+05 1.72891E+04 8.43396E+03-1.21048E-10-4.86466E-10
 -1       485-6.36727E+03 4.41014E+05 1.70588E+04-2.36597E+03 1.09139E-10-3.34217E-09
 -1       486-2.16591E+06-2.41839E+05-2.07773E+05-8.64758E+05-8.40373E-10-9.16771E-10
 -1       487-2.29409E+06-4.00431E+05-1.42257E+05-8.05723E+05 8.69022E-10 2.28647E-09
 -1       488-2.21284E+06-3.08262E+05-4.89086E+04-8.46036E+05-4.08363E-10-1.12050E-09
 -1       489-2.23425E+06-3.28535E+05-2.96591E+04-8.33415E+05-1.58252E-10-4.04498E-09
 -1       490-2.22539E+06-3.12865E+05-1.15366E+04-8.37295E+05-1.44905E-09-5.96128E-09
 -1       491-2.21536E+06-3.27785E+05-6.46002E+03-8.48862E+05-7.02130E-10 2.50111E-10
 -1       492-2.23171E+06-3.08846E+05-3.16262E+03-8.30659E+05-2.31239E-10 9.75433E-10
 -1       493-2.20590E+06-3.35192E+05-2.46881E+03-8.59697E+05 1.69962E-10 9.92912E-10
 -1       494-2.23499E+06-3.05339E+05-2.75704E+03-8.26573E+05 1.63652E-09 3.78679E-09
 -1       495-2.20309E+06-3.40438E+05-5.60842E+03-8.64224E+05-7.64089E-10 3.62206E-09
 -1       496-2.23463E+06-3.03546E+05-9.52925E+03-8.26201E+05-8.96193E-10-8.21274E-10
 -1       497-2.21123E+06-3.48584E+05-2.48502E+04-8.59901E+05 1.90767E-09 6.59838E-10
 -1       498-2.22685E+06-2.97343E+05-4.06997E+04-8.30829E+05-3.76986E-10 1.78625E-09
 -1       499-2.25857E+06-4.10024E+05-1.18456E+05-8.38146E+05 1.00636E-09 2.44290E-09
 -1       500-2.18736E+06-2.42997E+05-1.73172E+05-8.47596E+05-1.88084E-09 1.16415E-10
 -1       501-3.32303E+05-2.82246E+04 6.88897E+04 3.90553E+03 3.49200E-09 2.69574E-09
 -1       502-2.99860E+05 3.25321E+04 4.86049E+04-3.29229E+04 1.17075E-09 1.53159E-09
 -1       503-3.20421E+05-4.23369E+03 1.77852E+04 5.25807E+03 2.42835E-10 2.35013E-09
 -1       504-3.14255E+05 4.83022E+03 1.12196E+04-3.52614E+04 3.86990E-10 1.64437E-09
 -1       505-3.18291E+05-6.57372E+02 4.55507E+03 6.24388E+03 2.06842E-09 3.39173E-09
 -1       506-3.17124E+05 8.49539E+02 2.75884E+03-3.67952E+04 4.14980E-09 4.81549E-09
 -1       507-3.17809E+05-1.24562E+02 1.35454E+03 6.79196E+03 2.93551E-09-2.61423E-10
 -1       508-3.17762E+05 3.65559E+02 1.08343E+03-3.74338E+04 1.28574E-09-1.67589E-10
 -1       509-3.17763E+05-1.01006E+02 1.13210E+03 6.88286E+03 3.12338E-09 5.00225E-09
 -1       510-3.17421E+05 6.95173E+02 2.07501E+03-3.71548E+04 3.11326E-09 3.47654E-10
 -1       511-3.18101E+05-4.84536E+02 3.37399E+03 6.51280E+03 3.08319E-10 2.73269E-09
 -1       512-3.15282E+05 3.59317E+03 8.21424E+03-3.59670E+04 1.95746E-09 5.21231E-09
 -1       513-3.19700E+05-3.10327E+03 1.30096E+04 5.69472E+03 4.68390E-11 2.85490E-09
 -1       514-3.04567E+05 2.38274E+04 3.55627E+04-3.39239E+04-1.72122E-09-2.02999E-09
 -1       515-3.28478E+05-2.06628E+04 5.03346E+04 4.46958E+03-1.37834E-09 5.64614E-09
 -1       516-5.65041E+04 4.23987E+05 1.41480E+05 1.62688E+04 2.90311E-09 4.43106E-09
 -1       517 7.17530E+04 4.84661E+05 1.08240E+05-1.22945E+05 4.20914E-09 1.39534E-08
 -1       518-1.32895E+04 4.44822E+05 5.63375E+04 1.59902E+04 1.82445E-09 5.29974E-09
 -1       519 4.97724E+04 4.75894E+05 7.88997E+04-1.24381E+05 5.35147E-09-3.18209E-10
 -1       520-3.52033E+04 4.33265E+05 8.94852E+04 1.76982E+04 4.36557E-10-2.30011E-09
 -1       521-4.57004E+06-5.53854E+05-3.61945E+05-1.77808E+06 2.75759E-09 1.73168E-09
 -1       522-4.70765E+06-8.31369E+05-2.35741E+05-1.76704E+06 1.26875E-09-5.92991E-10
 -1       523-4.64305E+06-6.47562E+05-8.54600E+04-1.75582E+06 1.38698E-11 1.14596E-09
 -1       524-4.62025E+06-7.20826E+05-4.85508E+04-1.80028E+06-7.43967E-10 1.70894E-09
 -1       525-4.65644E+06-6.54792E+05-1.99510E+04-1.74866E+06 2.40652E-09 1.47520E-09
 -1       526-4.60345E+06-7.13555E+05-1.08014E+04-1.81163E+06 6.89761E-09 5.57066E-09
 -1       527-4.66033E+06-6.53356E+05-5.42564E+03-1.74532E+06-4.71573E-10-1.62140E-09
 -1       528-4.59946E+06-7.15098E+05-4.35470E+03-1.81574E+06-1.58843E-09-1.10151E-09
 -1       529-4.66076E+06-6.52925E+05-5.14631E+03-1.74484E+06 3.24917E-10-6.83485E-10
 -1       530-4.60190E+06-7.15010E+05-1.00664E+04-1.81366E+06 3.94721E-09 1.93631E-09
 -1       531-4.65775E+06-6.53644E+05-1.84329E+04-1.74726E+06 1.65255E-09 3.31147E-09
 -1       532-4.61660E+06-7.22595E+05-4.48881E+04-1.80420E+06 3.52770E-09 2.03090E-09
 -1       533-4.64566E+06-6.46677E+05-7.89292E+04-1.75354E+06 1.58309E-09 1.52795E-10
 -1       534-4.69696E+06-8.25016E+05-2.17799E+05-1.77373E+06 1.37652E-09-2.82671E-09
 -1       535-4.57822E+06-5.60166E+05-3.34402E+05-1.77414E+06-9.34961E-10-7.85803E-10
 -1       536 5.39685E+05-3.95014E+04 1.31264E+05-3.22191E+03 1.70076E-10 4.83124E-09
 -1       537 5.90763E+05 4.84436E+04 8.69415E+04-3.71120E+04-4.06180E-09 4.21278E-09
 -1       538 5.60271E+05-4.74431E+03 3.40746E+04-3.62782E+03-3.69255E-10-2.64663E-09
 -1       539 5.67202E+05 5.56057E+03 1.96928E+04-3.63612E+04 2.27760E-09 4.84215E-09
 -1       540 5.62924E+05-5.98690E+02 8.66517E+03-3.96041E+03 2.83308E-10 2.83353E-09
 -1       541 5.63968E+05 6.27717E+02 4.74782E+03-3.58031E+04-1.41881E-10 2.56989E-09
 -1       542 5.63289E+05-8.17392E+01 2.32398E+03-4.18616E+03-2.21917E-10 2.00009E-09
 -1       543 5.63437E+05 1.11001E+02 1.47203E+03-3.54671E+04 9.14952E-10 4.80640E-09
 -1       544 5.63328E+05-2.51858E+01 1.19256E+03-4.29661E+03-4.10068E-10-4.36557E-11
 -1       545 5.63459E+05 2.32473E+02 1.67505E+03-3.53596E+04 5.41856E-10-2.18044E-10
 -1       546 5.63227E+05-1.64603E+02 2.72941E+03-4.29364E+03 2.53408E-10 3.30488E-10
 -1       547 5.64398E+05 1.71308E+03 5.96662E+03-3.54751E+04-9.52696E-10-3.73956E-09
 -1       548 5.62433E+05-1.40916E+03 1.02571E+04-4.18104E+03 2.85581E-10-3.59250E-10
 -1       549 5.71497E+05 1.45659E+04 2.60928E+04-3.57697E+04-7.20320E-10 4.26462E-09
 -1       550 5.56254E+05-1.18506E+04 3.93648E+04-4.00021E+03-7.18956E-10-3.05772E-09
 -1       551 2.85745E+04-4.66770E+05 4.84293E+04-7.04309E+05 4.51109E-09-4.41287E-09
 -1       552 1.54539E+04-4.60219E+05 3.30694E+04-8.09586E+05 9.42237E-09 2.99588E-09
 -1       553 1.01902E+04-4.66576E+05 3.21042E+04-7.03190E+05 3.94357E-09 3.57795E-09
 -1       554 2.48608E+04-4.56380E+05 5.49660E+04-8.09844E+05 9.61882E-09 3.39787E-09
 -1       555 5.87683E+04-4.72608E+05 1.02056E+05-7.03891E+05 4.39468E-09-1.91721E-09
 -1       556-4.06158E+05-2.07804E+05 2.52801E+04-3.69104E+05 1.82627E-09-3.12866E-10
 -1       557-3.80487E+05-2.36668E+05 1.23609E+04-3.90216E+05 9.16771E-10 7.20593E-09
 -1       558-4.07841E+05-2.16811E+05 5.13165E+03-3.64018E+05-6.33008E-10-1.94632E-10
 -1       559-3.83458E+05-2.40926E+05 2.54253E+03-3.91684E+05 5.23869E-10 3.63843E-09
 -1       560-4.08800E+05-2.16635E+05 1.09584E+03-3.64308E+05 5.02041E-10 4.27644E-09
 -1       561-3.84534E+05-2.40789E+05 5.26280E+02-3.92464E+05 1.89902E-09 3.22825E-09
 -1       562-4.09465E+05-2.16241E+05 1.56919E+02-3.64735E+05 5.84259E-09 1.30603E-08
 -1       563-3.85137E+05-2.40529E+05-6.10605E+01-3.92891E+05 1.01863E-09 4.19459E-09
 -1       564-4.09807E+05-2.16017E+05-3.55505E+02-3.64970E+05 2.93585E-09 4.81668E-09
 -1       565-3.85410E+05-2.40422E+05-8.67002E+02-3.93061E+05 2.81943E-10-1.20635E-08
 -1       566-4.09794E+05-2.15975E+05-1.85443E+03-3.64991E+05 2.54090E-10-1.59889E-09
 -1       567-3.85656E+05-2.40707E+05-4.11134E+03-3.92930E+05-2.98314E-10 1.71713E-09
 -1       568-4.09292E+05-2.16912E+05-8.49930E+03-3.64470E+05-2.09184E-10-4.98767E-09
 -1       569-3.89878E+05-2.46461E+05-2.00709E+04-3.91137E+05 1.21963E-09-3.47791E-09
 -1       570-4.07556E+05-2.34557E+05-4.14431E+04-3.56980E+05-1.30967E-10 2.85399E-09
 -1       571 6.47911E+05 3.37920E+04 5.55517E+04-1.62778E+05 9.34961E-10-2.36469E-09
 -1       572 6.56690E+05 1.10934E+04 2.74393E+04-1.81294E+05 7.53062E-10-5.85715E-10
 -1       573 6.51304E+05 2.12413E+03 1.22384E+04-1.62240E+05 1.31513E-09 1.24237E-09
 -1       574 6.52210E+05 5.97285E+02 6.17545E+03-1.81836E+05 2.23008E-09 7.36691E-10
 -1       575 6.51513E+05-2.42509E+01 2.94006E+03-1.62183E+05 2.18461E-09 4.12183E-09
 -1       576 6.51575E+05-2.68797E+01 1.51576E+03-1.81900E+05 1.45883E-09-2.65572E-10
 -1       577 6.51518E+05-5.72782E+01 7.72979E+02-1.62176E+05 1.85230E-08-1.06047E-09
 -1       578 6.51536E+05-4.92006E+01 4.67608E+02-1.81909E+05 3.76326E-08-5.93900E-09
 -1       579 6.51634E+05-1.00980E+02 3.63830E+02-1.62174E+05 1.69130E-08 1.55524E-09
 -1       580 6.51751E+05-1.51012E+02 4.69775E+02-1.81906E+05 2.21917E-10 4.06726E-09
 -1       581 6.51892E+05-2.38156E+02 7.71151E+02-1.62178E+05-1.09867E-09-3.98722E-09
 -1       582 6.52263E+05-1.85078E+02 1.56675E+03-1.81822E+05 2.60115E-10-8.00355E-10
 -1       583 6.52214E+05 7.72964E+01 3.04500E+03-1.62258E+05 1.90266E-09 7.97627E-10
 -1       584 6.53869E+05 2.19680E+03 6.84199E+03-1.81066E+05-1.99543E-09 6.03904E-10
 -1       585 6.51810E+05 7.76559E+03 1.37987E+04-1.62955E+05 2.21189E-09 3.26690E-09
 -1       586 6.34666E+03 2.04982E+05 9.89839E+03-4.92781E+05 1.98816E-09 7.27596E-10
 -1       587 4.06062E+03 2.06076E+05 8.68848E+03-5.50781E+05 1.96815E-09 1.96451E-09
 -1       588 3.83870E+03 2.04396E+05 1.13685E+04-4.92149E+05 2.36832E-09 3.33330E-10
 -1       589 1.09825E+04 2.08622E+05 2.25714E+04-5.50854E+05 2.45927E-09 4.91855E-09
 -1       590 2.84126E+04 2.02071E+05 4.42660E+04-4.92683E+05 2.27919E-09 7.82165E-11
 -1       591-2.74870E+05-1.07984E+05-4.86008E+04-1.58450E+05-3.22643E-10-1.01863E-09
 -1       592-2.74287E+05-1.01745E+05-2.35797E+04-1.75022E+05-3.59796E-09-4.11228E-09
 -1       593-2.75913E+05-8.79081E+04-9.98977E+03-1.67317E+05 2.27192E-09 8.76980E-09
 -1       594-2.69230E+05-9.47684E+04-4.87304E+03-1.76292E+05-6.21640E-10-6.37414E-10
 -1       595-2.76174E+05-8.69980E+04-2.24085E+03-1.67788E+05-7.88259E-09 5.44492E-09
 -1       596-2.68853E+05-9.44465E+04-1.14225E+03-1.76312E+05-1.55287E-08 5.82804E-09
 -1       597-2.76237E+05-8.70074E+04-6.36314E+02-1.67807E+05-7.00766E-09 4.90400E-09
 -1       598-2.68821E+05-9.44449E+04-5.36495E+02-1.76303E+05-1.04461E-09 2.80306E-09
 -1       599-2.76226E+05-8.70083E+04-7.16884E+02-1.67802E+05-2.52157E-10-4.99313E-10
 -1       600-2.68847E+05-9.44530E+04-1.35517E+03-1.76304E+05-1.90471E-09-7.11134E-09
 -1       601-2.76131E+05-8.70002E+04-2.69414E+03-1.67771E+05-2.13913E-09-3.41970E-10
 -1       602-2.69293E+05-9.48467E+04-5.87995E+03-1.76272E+05-1.47793E-09-4.26053E-09
 -1       603-2.75812E+05-8.81046E+04-1.20606E+04-1.67197E+05 6.14818E-10-2.83944E-09
 -1       604-2.75384E+05-1.03278E+05-2.84697E+04-1.74745E+05-1.93904E-09 1.58070E-09
 -1       605-2.74554E+05-1.12320E+05-5.86755E+04-1.56474E+05-2.47383E-10 4.86398E-09
 -1       606 1.70725E+05-2.29591E+04-3.74956E+04 5.05172E+04-1.20599E-08 3.26327E-09
 -1       607 1.64646E+05-7.55685E+03-1.85062E+04 5.56830E+04-2.71575E-09-9.31323E-10
 -1       608 1.68119E+05-1.45777E+03-8.25995E+03 5.01334E+04 8.21092E-09-1.12595E-09
 -1       609 1.67335E+05-3.15377E+02-4.15307E+03 5.60761E+04-5.12046E-09 2.24918E-09
 -1       610 1.67745E+05 1.28929E+02-1.97413E+03 5.00877E+04-1.37643E-08-1.87492E-09
 -1       611 1.67567E+05 2.11379E+02-9.96136E+02 5.61215E+04-2.47037E-08-5.22050E-10
 -1       612 1.67628E+05 2.17221E+02-4.81125E+02 5.00835E+04-7.93807E-09 1.29921E-09
 -1       613 1.67540E+05 2.54500E+02-2.29776E+02 5.61256E+04-1.36724E-08 3.10547E-09
 -1       614 1.67559E+05 2.33043E+02-8.82782E+01 5.00826E+04-1.64619E-09 3.62888E-10
 -1       615 1.67493E+05 2.77389E+02 1.06591E+01 5.61249E+04 1.02118E-08 2.96404E-09
 -1       616 1.67509E+05 2.56080E+02 1.11268E+02 5.00835E+04-6.24914E-09 1.47611E-09
 -1       617 1.67477E+05 3.31681E+02 2.85259E+02 5.61227E+04 6.27551E-10 2.59888E-09
 -1       618 1.67458E+05 3.83053E+02 5.88916E+02 5.00840E+04 1.12141E-09 5.03451E-09
 -1       619 1.67655E+05 8.64222E+02 1.33423E+03 5.61189E+04 2.76850E-09 3.08273E-09
 -1       620 1.67261E+05 1.94338E+03 2.70785E+03 5.00809E+04 2.15095E-09 1.91449E-09
 -1       621 5.80459E+03 6.20615E+05 1.23055E+04-7.00974E+04-5.08408E-10-1.96451E-10
 -1       622 2.32588E+03 6.22866E+05 9.68282E+03-8.08533E+04 7.02494E-09-6.32917E-09
 -1       623 1.49969E+03 6.21178E+05 1.14073E+04-7.01974E+04-9.37689E-10 3.43061E-09
 -1       624 7.17933E+03 6.25475E+05 2.15854E+04-8.04747E+04 6.19366E-09 4.15548E-09
 -1       625 2.17467E+04 6.18270E+05 4.14080E+04-7.04655E+04-3.26281E-10 2.53567E-09
 -1       626 2.28060E+05 7.50834E+04-2.07770E+04 1.61272E+05-6.41012E-09-1.20326E-08
 -1       627 2.19882E+05 8.76926E+04-9.91549E+03 1.63889E+05-3.70346E-09 2.02635E-09
 -1       628 2.28223E+05 8.47662E+04-4.18244E+03 1.56566E+05 6.54654E-09-5.12046E-10
 -1       629 2.21493E+05 9.15565E+04-2.01495E+03 1.63488E+05-3.99723E-09-1.04039E-08
 -1       630 2.28103E+05 8.53739E+04-9.01159E+02 1.56192E+05-1.49885E-09-5.83373E-09
 -1       631 2.21557E+05 9.18278E+04-4.14276E+02 1.63453E+05-6.68388E-09-3.39674E-09
 -1       632 2.28020E+05 8.54069E+04-1.44274E+02 1.56138E+05-4.03816E-10 2.96268E-10
 -1       633 2.21525E+05 9.18530E+04 3.24247E+01 1.63431E+05-2.87400E-10 3.50838E-09
 -1       634 2.27970E+05 8.54044E+04 2.23416E+02 1.56118E+05 1.10385E-08 1.52731E-08
 -1       635 2.21532E+05 9.18612E+04 5.61369E+02 1.63426E+05 1.79643E-08 1.03682E-09
 -1       636 2.27934E+05 8.54142E+04 1.18670E+03 1.56101E+05-8.42647E-10 1.50794E-09
 -1       637 2.21799E+05 9.21141E+04 2.64848E+03 1.63400E+05 5.87625E-09 2.76395E-09
 -1       638 2.27863E+05 8.61874E+04 5.47341E+03 1.55757E+05 8.32506E-09-7.04858E-10
 -1       639 2.24632E+05 9.65703E+04 1.29924E+04 1.62390E+05-1.89198E-09-4.54747E-10
 -1       640 2.27812E+05 9.92894E+04 2.72088E+04 1.50236E+05 4.19277E-10-1.17370E-09
 -1       641 9.61992E+03 4.82909E+03-1.20009E+04-1.26159E+03-1.08023E-08 1.34605E-09
 -1       642 4.62763E+03-5.58718E+03-8.33844E+03 8.26715E+03-1.85487E-08-5.27507E-11
 -1       643 7.66510E+03 7.03611E+02-3.10396E+03-1.25262E+03-1.63742E-08-1.48452E-09
 -1       644 6.85852E+03-7.69777E+02-1.88098E+03 8.25348E+03-1.46940E-11 5.97365E-09
 -1       645 7.36965E+03 9.33222E+01-7.49077E+02-1.24821E+03 6.02500E-09-3.85853E-10
 -1       646 7.18954E+03-4.58864E+01-3.54257E+02 8.24611E+03-1.82121E-08 1.53068E-09
 -1       647 7.32238E+03-2.79119E+00-2.14644E+01-1.24536E+03 2.05411E-08-2.13817E-10
 -1       648 7.27049E+03 1.15090E+02 2.77276E+02 8.24301E+03 3.85457E-08 1.32974E-09
 -1       649 7.28440E+03-6.30798E+01 6.60577E+02-1.24515E+03 2.23137E-08-4.47858E-09
 -1       650 7.49908E+03 5.01570E+02 1.57923E+03 8.24395E+03 2.84412E-08 2.65106E-09
 -1       651 7.09686E+03-3.87313E+02 2.80572E+03-1.24630E+03 5.66115E-09 2.70506E-09
 -1       652 8.81988E+03 3.03396E+03 6.81289E+03 8.24562E+03-3.65142E-09 8.79481E-09
 -1       653 5.97415E+03-2.57007E+03 1.10704E+04-1.24689E+03 1.67485E-08-4.55429E-09
 -1       654 1.70446E+04 2.01870E+04 2.98203E+04 8.22914E+03-4.97232E-09 2.19097E-09
 -1       655-1.10750E+03-1.73092E+04 4.27307E+04-1.23041E+03 7.96149E-09-6.45923E-09
 -1       656 2.44314E+04-7.35739E+05-8.43301E+04 8.52134E+03 1.10122E-08 1.28739E-09
 -1       657-3.32766E+04-7.68542E+05-6.34508E+04 5.92824E+04 1.35060E-09-2.70450E-09
 -1       658 5.37193E+03-7.46944E+05-3.90084E+04 8.22726E+03 1.18399E-08 1.03626E-08
 -1       659-3.02767E+04-7.67021E+05-5.87515E+04 5.95143E+04 8.84302E-09-3.53507E-09
 -1       660 2.17854E+04-7.37353E+05-7.56980E+04 8.29205E+03 1.00808E-08-4.13252E-09
 -1       661 7.62361E+05 9.23005E+04 6.38384E+04 2.98246E+05 1.67438E-09-4.54747E-10
 -1       662 7.79825E+05 1.48384E+05 4.16171E+04 3.04586E+05-1.45631E-08-1.96724E-09
 -1       663 7.73937E+05 1.10138E+05 1.50854E+04 2.95869E+05-4.85240E-09 3.72893E-11
 -1       664 7.66601E+05 1.26658E+05 8.62548E+03 3.07670E+05 8.96313E-09-1.46554E-09
 -1       665 7.75321E+05 1.12443E+05 3.54802E+03 2.95744E+05-7.07075E-09 4.42469E-10
 -1       666 7.65039E+05 1.23863E+05 1.98071E+03 3.07790E+05 1.17573E-08-2.57580E-09
 -1       667 7.75451E+05 1.12778E+05 1.07146E+03 2.95797E+05 2.18507E-08 1.08037E-09
 -1       668 7.64918E+05 1.23533E+05 1.01343E+03 3.07732E+05-8.32602E-09 2.28368E-11
 -1       669 7.75432E+05 1.12764E+05 1.37976E+03 2.95801E+05 1.75270E-08 1.92676E-09
 -1       670 7.65188E+05 1.24029E+05 2.85816E+03 3.07760E+05 6.22512E-09 2.29011E-09
 -1       671 7.75192E+05 1.12299E+05 5.27177E+03 2.95766E+05-7.03204E-09-1.11459E-09
 -1       672 7.67638E+05 1.28117E+05 1.29127E+04 3.07445E+05 3.17721E-09 6.06087E-09
 -1       673 7.73038E+05 1.08917E+05 2.26208E+04 2.96034E+05-1.70655E-09 3.38787E-09
 -1       674 7.87629E+05 1.60538E+05 6.24212E+04 3.02608E+05-9.28048E-09-6.51198E-09
 -1       675 7.55575E+05 8.22721E+04 9.57795E+04 2.99713E+05 1.16434E-08-3.55431E-09
 -1       676 6.11909E+03-6.89852E+05-2.19693E+04 2.35697E+03 4.09882E-08-3.49229E-09
 -1       677-9.19063E+03-6.98652E+05-1.90526E+04 5.04490E+03 2.53240E-08-2.09970E-09
 -1       678 2.18110E+03-6.92110E+05-1.58076E+04 2.32855E+03 3.34592E-08 1.03256E-09
 -1       679-1.64103E+04-7.02564E+05-3.04714E+04 5.06638E+03 3.08046E-09-8.56346E-10
 -1       680 1.26373E+04-6.85945E+05-4.28732E+04 2.33358E+03 3.20506E-08-4.37726E-09
 -1       681 7.49699E+05-1.72997E+04 4.26921E+04 3.56981E+03 6.59384E-11 5.23869E-10
 -1       682 7.68089E+05 2.00929E+04 2.98471E+04-1.47579E+04-1.20508E-10 9.89530E-10
 -1       683 7.56833E+05-2.56145E+03 1.10925E+04 2.46174E+03 5.97993E-11 1.31695E-09
 -1       684 7.59775E+05 2.96417E+03 6.88658E+03-1.29567E+04 5.04770E-11 3.51065E-10
 -1       685 7.57975E+05-3.80948E+02 2.93157E+03 1.76894E+03 4.45254E-10-9.81117E-11
 -1       686 7.58431E+05 4.62849E+02 1.85059E+03-1.19245E+04 4.76945E-10 5.28161E-10
 -1       687 7.58156E+05-7.58144E+01 1.17128E+03 1.42951E+03-8.13969E-10 7.47917E-11
 -1       688 7.58290E+05 2.34749E+02 1.38231E+03-1.15714E+04-1.63028E-09-3.37188E-10
 -1       689 7.58108E+05-1.50427E+02 2.01622E+03 1.41586E+03-6.12971E-10-9.06084E-11
 -1       690 7.58814E+05 1.14006E+03 4.24551E+03-1.18700E+04 5.88045E-11 1.30717E-09
 -1       691 7.57636E+05-9.75672E+02 7.33435E+03 1.72816E+03 1.56092E-10-2.38015E-09
 -1       692 7.62201E+05 7.67017E+03 1.76509E+04-1.28442E+04 9.16032E-11-2.51930E-10
 -1       693 7.54737E+05-6.61153E+03 2.86436E+04 2.38999E+03 1.10504E-10-1.09503E-09
 -1       694 7.83444E+05 5.19819E+04 7.70754E+04-1.46034E+04-1.37243E-09-1.68257E-09
 -1       695 7.36425E+05-4.46855E+04 1.10462E+05 3.48631E+03-1.14142E-10 1.63709E-09
 -1       696-1.61428E+04 7.22057E+05 3.92667E+04 2.59435E+03 2.41926E-10-1.48407E-09
 -1       697 1.77978E+04 7.38220E+05 2.52165E+04-2.77220E+04 2.75122E-10-8.11035E-10
 -1       698-1.31868E+03 7.29226E+05 5.60223E+03 2.32005E+03-3.25599E-10 1.62916E-09
 -1       699-5.74188E+03 7.27027E+05-6.63855E+03-2.78807E+04-5.05224E-10 3.76811E-09
 -1       700 7.05811E+03 7.33272E+05-1.62747E+04 2.75246E+03-3.03771E-10 1.32957E-09
 -1       701-6.80141E+05-6.28019E+04-9.06967E+04-2.70736E+05 1.29148E-10 0.00000E+00
 -1       702-7.24906E+05-1.43447E+05-6.21305E+04-2.58013E+05 2.41016E-11 1.34969E-09
 -1       703-6.98839E+05-9.34171E+04-2.13224E+04-2.64433E+05 3.22643E-10 3.50155E-10
 -1       704-7.02901E+05-1.08213E+05-1.30382E+04-2.65786E+05 3.50212E-10 2.09639E-10
 -1       705-7.02081E+05-9.76222E+04-4.99695E+03-2.63115E+05 3.79714E-11 1.98952E-10
 -1       706-6.98907E+05-1.03599E+05-2.91280E+03-2.67619E+05-7.53346E-10-1.05388E-10
 -1       707-7.02827E+05-9.79691E+04-1.38704E+03-2.62625E+05-3.32079E-10 1.51942E-10
 -1       708-6.97984E+05-1.03426E+05-1.19615E+03-2.68331E+05-1.50408E-10 7.04496E-10
 -1       709-7.03008E+05-9.77845E+04-1.36151E+03-2.62410E+05-2.70830E-10 4.18851E-10
 -1       710-6.98205E+05-1.04298E+05-2.84822E+03-2.68467E+05-4.42412E-10-1.41614E-09
 -1       711-7.02611E+05-9.71014E+04-4.86026E+03-2.62489E+05 5.09544E-10-7.73070E-12
 -1       712-7.01478E+05-1.09425E+05-1.27013E+04-2.67422E+05-1.52340E-10 3.58568E-10
 -1       713-6.99746E+05-9.27141E+04-2.07449E+04-2.63435E+05-2.63753E-10 1.00954E-10
 -1       714-7.22367E+05-1.44247E+05-6.04786E+04-2.60461E+05 1.32104E-10 1.62800E-10
 -1       715-6.81787E+05-6.26825E+04-8.82630E+04-2.69302E+05 2.83762E-10-7.71252E-10
 -1       716 2.74708E+05-2.79172E+04 6.86331E+04 4.96288E+03 7.96717E-10 8.58563E-10
 -1       717 3.05046E+05 3.24043E+04 4.81109E+04-2.96249E+04 3.81988E-10-1.52795E-10
 -1       718 2.86328E+05-4.15136E+03 1.78099E+04 4.14175E+03-6.04587E-10-9.77707E-10
 -1       719 2.91320E+05 4.85194E+03 1.10935E+04-2.83109E+04-3.26452E-10 2.50111E-10
 -1       720 2.88249E+05-6.27008E+02 4.68285E+03 3.64946E+03 1.99452E-09-1.14278E-09
 -1       721 2.88983E+05 8.41945E+02 2.92246E+03-2.76256E+04 4.20695E-09 2.04375E-09
 -1       722 2.88572E+05-1.27655E+02 1.77782E+03 3.45654E+03 2.46773E-09-1.23265E-10
 -1       723 2.88734E+05 4.40673E+02 1.99092E+03-2.75324E+04 4.89692E-10 1.78067E-09
 -1       724 2.88486E+05-2.21974E+02 2.80416E+03 3.55627E+03 2.47297E-09-2.08490E-09
 -1       725 2.89625E+05 1.64348E+03 5.87831E+03-2.80288E+04 3.58432E-09-8.87212E-10
 -1       726 2.87747E+05-1.36456E+03 1.00480E+04 3.95290E+03 6.04359E-10-3.39696E-10
 -1       727 2.94661E+05 1.05587E+04 2.43253E+04-2.91359E+04 6.60293E-10-1.35060E-10
 -1       728 2.83603E+05-9.13030E+03 3.92554E+04 4.66333E+03-6.03222E-10-6.62112E-10
 -1       729 3.24482E+05 7.13907E+04 1.06044E+05-3.09847E+04-1.18371E-09-6.54836E-10
 -1       730 2.58204E+05-6.15068E+04 1.51578E+05 5.79956E+03 4.67480E-10 1.28057E-09
 -1       731-2.76274E+04 2.68798E+05 6.82815E+04 5.80773E+03 8.98581E-10-2.89333E-10
 -1       732 3.24619E+04 2.97619E+05 4.78718E+04-4.16284E+04 2.04545E-09-1.16649E-09
 -1       733-4.26315E+03 2.80007E+05 1.81659E+04 5.79042E+03 4.98403E-10 1.95860E-09
 -1       734 6.20563E+03 2.85360E+05 1.24008E+04-4.20113E+04 1.35913E-09 2.95495E-09
 -1       735-1.79858E+03 2.81135E+05 6.31603E+03 6.18981E+03-3.06159E-10 1.71281E-09
 -1       736-1.77140E+06-2.03303E+05-1.32542E+05-6.90179E+05-5.36602E-10-1.22236E-09
 -1       737-1.84461E+06-3.13363E+05-9.07973E+04-6.62561E+05-1.45519E-11-2.28920E-09
 -1       738-1.79977E+06-2.47059E+05-3.11479E+04-6.79792E+05-2.86491E-10 1.87356E-10
 -1       739-1.81004E+06-2.64150E+05-1.90241E+04-6.76549E+05-1.45519E-11 2.20621E-09
 -1       740-1.80581E+06-2.51917E+05-7.29840E+03-6.76383E+05-8.46967E-12 6.20275E-10
 -1       741-1.80174E+06-2.59863E+05-4.22217E+03-6.82057E+05 9.00229E-10-1.02432E-10
 -1       742-1.80806E+06-2.51252E+05-2.00383E+03-6.74317E+05-1.17092E-09 4.06885E-10
 -1       743-1.79853E+06-2.61499E+05-1.67567E+03-6.85307E+05-2.43119E-10 8.84981E-11
 -1       744-1.80904E+06-2.50256E+05-1.87053E+03-6.73151E+05 6.18911E-10-2.03727E-10
 -1       745-1.79800E+06-2.63522E+05-3.87080E+03-6.86488E+05 1.20906E-10 2.25140E-09
 -1       746-1.80860E+06-2.49229E+05-6.58913E+03-6.73143E+05-1.06434E-09-3.04453E-10
 -1       747-1.80292E+06-2.69989E+05-1.72155E+04-6.84499E+05-1.18217E-09-3.40833E-10
 -1       748-1.80414E+06-2.43871E+05-2.81254E+04-6.75114E+05 5.19321E-10 3.16504E-10
 -1       749-1.83293E+06-3.15544E+05-8.20197E+04-6.73073E+05 1.59889E-09-1.60071E-10
 -1       750-1.77871E+06-2.04236E+05-1.19731E+05-6.84376E+05-1.06593E-09 1.10595E-09
 -1       751 3.63936E+06-1.84491E+05 4.57589E+05 1.75276E+04-7.64066E-09 2.67755E-09
 -1       752 3.83343E+06 2.14723E+05 3.18903E+05-3.31012E+04-5.06793E-09-4.25644E-09
 -1       753 3.71518E+06-2.72822E+04 1.18785E+05 8.39139E+03-4.27463E-11 9.53150E-10
 -1       754 3.74581E+06 3.16703E+04 7.32065E+04-1.92650E+04 8.56232E-10 4.54384E-09
 -1       755 3.72717E+06-4.02563E+03 3.06285E+04 3.70250E+03 1.34315E-09 1.47338E-10
 -1       756 3.73201E+06 4.71617E+03 1.79970E+04-1.22459E+04 6.61629E-10-8.44921E-10
 -1       757 3.72909E+06-6.51851E+02 9.10346E+03 1.37258E+03 2.30102E-10-1.13687E-12
 -1       758 3.73003E+06 1.19337E+03 7.31215E+03-9.03349E+03 1.60219E-09 1.38429E-09
 -1       759 3.72917E+06-5.33886E+02 7.75718E+03 4.89976E+02 2.13761E-09 1.80398E-09
 -1       760 3.73135E+06 3.65658E+03 1.41746E+04-8.37501E+03-1.61964E-09 3.36991E-09
 -1       761 3.72775E+06-3.08467E+03 2.36202E+04 7.14099E+02 1.44468E-10-3.16504E-10
 -1       762 3.74177E+06 2.42549E+04 5.60550E+04-1.00195E+04 1.68593E-09 1.48430E-09
 -1       763 3.71864E+06-2.08648E+04 9.08745E+04 2.13446E+03 2.81960E-09 1.67347E-09
 -1       764 3.80839E+06 1.64250E+05 2.43764E+05-1.46697E+04 6.87919E-10 2.11367E-09
 -1       765 3.66082E+06-1.41052E+05 3.49776E+05 5.36181E+03-1.04399E-09 4.94765E-10
 -1       766-7.79936E+04 6.88214E+05 1.96483E+05-3.30282E+03-5.60249E-09-2.18802E-09
 -1       767 9.78998E+04 7.74095E+05 1.50821E+05 3.78658E+03 2.63572E-09-1.48003E-09
 -1       768-1.86077E+04 7.16508E+05 7.95260E+04-1.71812E+03-4.09091E-09 5.94127E-10
 -1       769 6.99748E+04 7.60711E+05 1.12991E+05 8.16267E+02 1.00863E-09 1.98435E-09
 -1       770-5.04599E+04 7.01567E+05 1.30490E+05-3.36294E+02-1.60071E-09 2.74076E-09
 -1       771-1.98437E+06-4.12690E+05-9.36047E+04-8.49154E+05-5.80440E-09 2.06637E-09
 -1       772-1.98432E+06-3.99185E+05-4.53622E+04-8.79308E+05-7.85803E-10 1.41881E-09
 -1       773-1.98697E+06-3.73714E+05-1.92735E+04-8.66120E+05-7.87259E-09 4.44561E-09
 -1       774-1.97464E+06-3.86063E+05-9.36914E+03-8.82591E+05-5.67525E-09 1.87356E-08
 -1       775-1.98794E+06-3.71655E+05-4.34023E+03-8.67198E+05-6.90488E-09 3.24326E-09
 -1       776-1.97425E+06-3.85379E+05-2.17585E+03-8.83087E+05-1.40426E-09 6.92307E-09
 -1       777-1.98850E+06-3.71428E+05-1.19599E+03-8.67432E+05-8.73115E-10 1.83081E-09
 -1       778-1.97451E+06-3.85270E+05-9.05539E+02-8.83432E+05-1.31331E-09 1.15642E-09
 -1       779-1.98886E+06-3.71224E+05-1.13231E+03-8.67604E+05-6.58474E-10 1.08059E-09
 -1       780-1.97484E+06-3.85192E+05-2.03887E+03-8.83735E+05 3.92902E-10 1.03091E-09
 -1       781-1.98902E+06-3.71036E+05-4.02390E+03-8.67706E+05-1.96451E-10 1.37152E-09
 -1       782-1.97573E+06-3.85722E+05-8.76175E+03-8.83948E+05-2.64026E-09-2.64299E-09
 -1       783-1.98879E+06-3.72529E+05-1.79689E+04-8.66952E+05-1.43864E-08 5.31145E-10
 -1       784-1.98477E+06-3.98496E+05-4.24632E+04-8.82135E+05-2.65227E-08-2.57387E-09
 -1       785-1.98731E+06-4.08389E+05-8.75286E+04-8.50841E+05-1.01945E-08 3.64162E-09
 -1       786 8.67577E+05-2.96531E+04 9.90176E+04-9.95113E+02 1.02523E-09-2.84126E-09
 -1       787 9.05605E+05 3.66371E+04 6.55201E+04-1.33022E+04-8.68681E-10-3.28146E-09
 -1       788 8.83106E+05-3.51117E+03 2.57359E+04-1.17129E+03-7.77618E-11 9.09495E-10
 -1       789 8.88061E+05 4.25616E+03 1.48485E+04-1.29988E+04-9.77252E-10-1.30967E-10
 -1       790 8.85111E+05-4.20928E+02 6.58218E+03-1.29532E+03 5.80599E-10 9.92259E-10
 -1       791 8.85771E+05 4.90479E+02 3.63531E+03-1.28163E+04 1.14400E-09 4.42486E-09
 -1       792 8.85387E+05-5.50308E+01 1.88024E+03-1.35370E+03 2.63526E-10-2.37412E-09
 -1       793 8.85474E+05 8.50884E+01 1.36219E+03-1.27645E+04 1.77977E-10-6.05405E-09
 -1       794 8.85405E+05-3.74344E+01 1.38801E+03-1.34716E+03-8.32642E-10 1.43568E-09
 -1       795 8.85623E+05 2.94613E+02 2.31232E+03-1.28434E+04 5.14888E-10 4.41759E-10
 -1       796 8.85245E+05-2.54293E+02 4.00767E+03-1.27477E+03-9.06425E-10-4.64752E-10
 -1       797 8.86997E+05 2.54405E+03 8.92949E+03-1.30519E+04-2.18279E-11-2.01726E-09
 -1       798 8.84044E+05-2.10741E+03 1.54317E+04-1.13865E+03-1.04842E-09-4.89308E-10
 -1       799 8.97521E+05 2.19389E+04 3.92615E+04-1.33764E+04-2.95768E-09-4.53883E-09
 -1       800 8.74738E+05-1.77740E+04 5.93100E+04-9.52374E+02-2.38288E-10-3.31420E-09
 -1       801-3.32169E+04 8.32974E+05 1.02599E+05-1.15790E+05 2.26828E-08-1.87720E-09
 -1       802 5.92911E+04 8.71395E+05 9.43476E+04-9.54798E+05 4.46944E-08-1.14705E-08
 -1       803-8.06019E+03 8.43591E+05 7.89332E+04-1.17227E+05 3.99177E-08 1.09342E-08
 -1       804 9.62507E+04 8.94158E+05 1.54055E+05-9.55064E+05 4.22224E-08 4.94674E-09
 -1       805-6.81841E+04 8.12662E+05 2.11210E+05-1.15552E+05 2.15732E-08 7.52334E-09
 -1       806-6.69973E+05-1.69600E+05-6.03311E+04-2.97508E+05-5.27962E-10-4.80213E-10
 -1       807-6.71495E+05-1.54999E+05-2.88049E+04-3.14834E+05-1.12823E-09-8.14907E-10
 -1       808-6.70078E+05-1.40635E+05-1.21414E+04-3.09972E+05 1.99634E-09 8.67203E-10
 -1       809-6.65504E+05-1.44896E+05-5.88769E+03-3.16946E+05-7.98536E-10-7.64595E-09
 -1       810-6.70281E+05-1.38897E+05-2.67914E+03-3.10789E+05 6.85077E-09 1.58427E-08
 -1       811-6.64962E+05-1.44303E+05-1.35356E+03-3.17004E+05 3.74371E-10 2.47928E-09
 -1       812-6.70336E+05-1.38872E+05-7.29213E+02-3.10820E+05 8.07916E-10-5.58430E-10
 -1       813-6.64902E+05-1.44294E+05-5.75273E+02-3.16984E+05 6.70070E-10 1.70076E-10
 -1       814-6.70320E+05-1.38881E+05-7.20468E+02-3.10811E+05 2.22826E-10 1.60890E-09
 -1       815-6.64933E+05-1.44314E+05-1.33005E+03-3.16978E+05-1.09139E-11-3.23143E-09
 -1       816-6.70232E+05-1.38923E+05-2.62771E+03-3.10764E+05-3.35876E-09 2.24827E-09
 -1       817-6.65444E+05-1.44898E+05-5.77200E+03-3.16885E+05-2.69938E-09 1.72076E-09
 -1       818-6.69998E+05-1.40651E+05-1.19027E+04-3.09955E+05 7.62066E-09-2.44472E-09
 -1       819-6.71357E+05-1.54736E+05-2.82325E+04-3.14708E+05 1.24728E-08-1.59889E-08
 -1       820-6.69807E+05-1.69096E+05-5.91326E+04-2.97785E+05 1.22855E-08 4.50018E-09
 -1       821-6.65798E+05 2.47003E+04-8.24598E+04 5.81404E+02-5.97129E-09 2.73212E-09
 -1       822-6.97388E+05-3.05362E+04-5.45687E+04 1.18221E+04-5.34965E-09-4.70754E-09
 -1       823-6.78728E+05 2.91101E+03-2.14362E+04 3.17069E+02 6.42240E-09-4.77212E-09
 -1       824-6.82830E+05-3.51597E+03-1.23612E+04 1.22706E+04-2.53999E-09 3.40333E-09
 -1       825-6.80394E+05 3.44412E+02-5.49661E+03 1.30375E+02-1.34855E-08-5.02814E-09
 -1       826-6.80972E+05-3.57367E+02-3.05372E+03 1.25878E+04-2.31778E-08-5.13296E-10
 -1       827-6.80621E+05 4.71242E+01-1.63014E+03-8.06372E-01-1.29594E-08-5.57247E-09
 -1       828-6.80762E+05-1.61017E+01-1.26813E+03 1.27948E+04-1.62559E-08 2.90983E-09
 -1       829-6.80629E+05 4.26773E+01-1.41771E+03-7.68422E+01-1.03717E-09-6.69070E-09
 -1       830-6.80946E+05-2.59202E+02-2.48943E+03 1.28889E+04 7.33996E-09-3.62263E-09
 -1       831-6.80451E+05 2.82069E+02-4.38913E+03-9.48925E+01-8.30046E-09-5.02837E-09
 -1       832-6.82446E+05-2.75406E+03-9.82950E+03 1.28687E+04-8.31335E-11-2.92903E-09
 -1       833-6.79130E+05 2.32331E+03-1.70138E+04-5.60974E+01 2.04648E-09-1.68802E-09
 -1       834-6.94021E+05-2.41927E+04-4.33175E+04 1.27351E+04 3.12667E-09 2.35286E-09
 -1       835-6.68868E+05 1.96208E+04-6.54410E+04 4.32654E+01 3.48246E-09-6.22458E-09
 -1       836-4.87753E+04 1.97083E+06 1.69839E+05-2.56811E+04-1.78989E-09-1.07411E-09
 -1       837 6.87062E+04 2.03763E+06 1.34067E+05-1.88723E+05 6.11180E-10-7.23048E-10
 -1       838-1.25856E+04 1.99181E+06 9.24194E+04-2.66747E+04-4.20368E-09 3.53776E-09
 -1       839 8.20950E+04 2.04474E+06 1.55213E+05-1.88498E+05-8.76753E-10-2.00157E-09
 -1       840-6.07667E+04 1.96359E+06 2.08659E+05-2.59030E+04-3.09228E-09 5.18503E-09
 -1       841-2.62842E+05-2.08612E+04-4.56823E+04-1.07028E+05 1.52795E-09 1.10595E-09
 -1       842-2.89345E+05-5.74547E+04-3.12789E+04-9.60623E+04 4.63479E-09 5.87079E-10
 -1       843-2.71785E+05-3.67360E+04-1.07367E+04-1.04385E+05 4.89422E-09 8.45830E-10
 -1       844-2.79123E+05-3.88797E+04-6.55313E+03-9.90295E+04 7.63379E-09-1.67347E-09
 -1       845-2.73041E+05-3.92243E+04-2.49311E+03-1.04144E+05-1.07400E-09-1.67381E-09
 -1       846-2.77757E+05-3.59100E+04-1.41136E+03-9.92280E+04-1.03495E-08-6.27173E-09
 -1       847-2.73153E+05-3.96729E+04-5.89718E+02-1.04202E+05-2.60201E-09-6.38778E-10
 -1       848-2.77672E+05-3.53602E+04-3.47223E+02-9.91245E+04 8.22675E-09-5.53369E-10
 -1       849-2.73130E+05-3.97676E+04-2.08403E+02-1.04252E+05 8.64232E-09 1.07433E-09
 -1       850-2.77717E+05-3.53078E+04-2.59466E+02-9.90719E+04 3.60342E-09-4.06786E-09
 -1       851-2.73109E+05-3.97245E+04-3.69638E+02-1.04255E+05 1.67353E-09-3.20877E-09
 -1       852-2.77869E+05-3.57285E+04-9.10112E+02-9.90706E+04-4.25203E-10 2.70404E-10
 -1       853-2.72977E+05-3.93518E+04-1.47537E+03-1.04250E+05 5.42457E-10 2.88208E-09
 -1       854-2.79136E+05-3.83806E+04-4.27641E+03-9.87895E+04 2.35903E-09 8.20484E-09
 -1       855-2.71842E+05-3.71037E+04-6.25129E+03-1.04522E+05 3.94903E-09 3.12616E-09
 -1       856-7.65474E+05 2.22237E+04-7.43824E+04 1.16827E+03-1.09476E-08-2.97587E-09
 -1       857-7.93883E+05-2.74125E+04-4.91824E+04 2.62263E+04-1.19771E-08-1.60435E-09
 -1       858-7.77127E+05 2.60991E+03-1.93395E+04 6.77492E+02-8.39282E-09-4.30555E-09
 -1       859-7.80890E+05-3.01030E+03-1.11323E+04 2.70359E+04 5.04224E-09-3.75621E-09
 -1       860-7.78628E+05 3.14635E+02-4.95011E+03 3.53063E+02 3.87217E-09-8.94897E-09
 -1       861-7.79296E+05-1.32006E+02-2.73075E+03 2.75407E+04-1.46542E-08-6.91216E-11
 -1       862-7.78834E+05 5.57821E+01-1.42982E+03 1.70977E+02 1.73078E-08-1.02220E-08
 -1       863-7.79132E+05 1.91705E+02-1.06211E+03 2.77658E+04 4.44666E-08-9.81936E-09
 -1       864-7.78845E+05 4.81938E+01-1.12233E+03 1.27391E+02 2.40969E-08-8.12257E-09
 -1       865-7.79243E+05 5.03177E+00-1.91133E+03 2.77123E+04 4.28873E-08-7.63131E-09
 -1       866-7.78711E+05 2.20779E+02-3.34544E+03 2.24674E+02 1.01052E-08-7.31734E-09
 -1       867-7.80304E+05-1.91523E+03-7.45770E+03 2.73794E+04 4.49018E-09-3.12343E-09
 -1       868-7.77709E+05 1.75150E+03-1.29264E+04 4.61510E+02 7.91442E-09-1.12163E-08
 -1       869-7.88957E+05-1.82220E+04-3.28553E+04 2.67419E+04-1.14796E-08-4.09409E-09
 -1       870-7.69928E+05 1.48450E+04-4.96920E+04 8.67247E+02 2.33340E-08-3.77258E-09
 -1       871-5.22890E+03-4.14406E+04-8.06484E+03 1.21800E+05 1.54450E-08-5.44787E-09
 -1       872-1.90595E+03-4.27671E+04-2.24396E+03 1.39860E+05 1.40844E-08-1.40744E-09
 -1       873-1.67519E+02-4.23657E+04 2.57155E+03 1.21579E+05 1.07161E-08-2.16460E-10
 -1       874 2.87904E+03-4.03984E+04 9.29374E+03 1.39995E+05 1.09476E-08 1.60878E-09
 -1       875 1.03656E+04-4.39703E+04 2.01548E+04 1.21708E+05 1.03573E-08 1.91244E-09
 -1       876 8.34106E+05 9.81670E+04 7.97600E+04 3.27606E+05-1.40790E-09 4.26371E-09
 -1       877 8.54786E+05 1.69503E+05 5.20101E+04 3.36969E+05-1.58584E-08-1.41335E-09
 -1       878 8.48492E+05 1.20549E+05 1.88399E+04 3.24726E+05-7.83388E-09 3.79896E-09
 -1       879 8.38370E+05 1.42210E+05 1.07742E+04 3.40632E+05 8.95511E-10-3.13275E-09
 -1       880 8.50156E+05 1.23502E+05 4.41313E+03 3.24644E+05-3.17345E-09 1.75987E-10
 -1       881 8.36510E+05 1.38600E+05 2.43918E+03 3.40630E+05 1.38693E-08-2.05210E-09
 -1       882 8.50267E+05 1.23980E+05 1.26186E+03 3.24769E+05 1.15693E-08-4.47886E-09
 -1       883 8.36419E+05 1.38082E+05 1.09666E+03 3.40444E+05 5.67215E-09 6.21750E-09
 -1       884 8.50218E+05 1.24019E+05 1.38965E+03 3.24818E+05 1.89419E-08 8.25025E-09
 -1       885 8.36713E+05 1.38505E+05 2.79699E+03 3.40414E+05 1.71269E-08 3.18164E-09
 -1       886 8.49978E+05 1.23577E+05 5.12433E+03 3.24793E+05-7.42318E-09-6.00494E-09
 -1       887 8.39080E+05 1.42482E+05 1.25279E+04 3.40130E+05-9.77710E-09-6.25073E-09
 -1       888 8.47912E+05 1.20272E+05 2.19366E+04 3.25026E+05-3.40265E-09 3.67436E-09
 -1       889 8.58412E+05 1.73990E+05 6.05315E+04 3.35535E+05 4.06135E-09-4.80213E-10
 -1       890 8.31026E+05 9.43778E+04 9.28662E+04 3.28537E+05 8.14362E-09-5.82077E-11
 -1       891 3.51944E+03-3.60528E+05-1.31554E+04 1.54098E+04 2.53422E-08-3.39242E-10
 -1       892-5.88974E+03-3.65189E+05-1.10960E+04 1.26119E+05 8.68204E-09-1.14233E-09
 -1       893 1.19216E+03-3.61937E+05-8.88839E+03 1.52051E+04 2.31760E-08 1.32729E-11
 -1       894-9.46044E+03-3.67079E+05-1.67249E+04 1.26092E+05 8.64338E-09 1.61720E-09
 -1       895 6.71626E+03-3.58600E+05-2.34750E+04 1.54360E+04 2.38597E-08 2.29102E-09
 -1       896 1.14910E+06-7.81216E+03 1.92727E+04 3.45999E+03-6.70752E-11-2.24736E-09
 -1       897 1.15739E+06 9.06422E+03 1.34876E+04-1.06780E+04-2.11458E-11 1.44018E-09
 -1       898 1.15233E+06-1.15648E+03 5.01573E+03 2.17571E+03 3.38218E-10-1.23305E-09
 -1       899 1.15362E+06 1.33405E+03 3.12937E+03-8.55524E+03 3.32932E-10 6.52619E-10
 -1       900 1.15285E+06-1.72882E+02 1.35488E+03 1.33734E+03-3.36570E-10-4.01258E-10
 -1       901 1.15301E+06 2.12210E+02 9.04428E+02-7.22641E+03-1.60583E-12-1.89672E-10
 -1       902 1.15293E+06-4.00338E+01 6.55612E+02 8.46846E+02 1.01349E-09 4.17980E-10
 -1       903 1.15296E+06 1.49409E+02 9.00028E+02-6.53538E+03 1.15074E-09-3.46120E-10
 -1       904 1.15289E+06-1.07063E+02 1.41815E+03 6.46299E+02 7.40840E-10 3.29237E-10
 -1       905 1.15334E+06 8.25647E+02 3.06106E+03-6.40211E+03 3.37966E-10-4.15184E-10
 -1       906 1.15256E+06-7.08142E+02 5.32652E+03 7.13582E+02 1.29077E-10-1.28239E-10
 -1       907 1.15576E+06 5.58238E+03 1.28254E+04-6.81172E+03 3.48621E-10 1.58934E-10
 -1       908 1.15047E+06-4.80433E+03 2.08401E+04 1.05592E+03 2.47837E-10-2.73758E-10
 -1       909 1.17112E+06 3.78100E+04 5.60329E+04-7.81949E+03-6.38238E-10-1.20872E-09
 -1       910 1.13717E+06-3.24820E+04 8.03418E+04 1.72109E+03 5.05338E-10-1.63345E-09
 -1       911 3.90633E+05-5.22252E+03 1.28614E+04 1.58256E+03 1.69166E-10 3.92902E-10
 -1       912 3.96217E+05 6.06819E+03 9.01057E+03-9.35387E+03 6.80245E-10-3.13776E-11
 -1       913 3.92791E+05-7.76365E+02 3.35347E+03 1.17795E+03-1.72349E-10 7.91033E-10
 -1       914 3.93689E+05 9.06910E+02 2.11049E+03-8.67230E+03-4.10978E-10-5.06645E-10
 -1       915 3.93140E+05-1.18961E+02 9.41988E+02 9.01017E+02 8.82380E-10 1.14616E-09
 -1       916 3.93276E+05 1.65392E+02 6.87014E+02-8.23869E+03 1.99805E-09-1.85156E-09
 -1       917 3.93192E+05-3.55653E+01 5.95165E+02 7.44338E+02 1.26818E-09 1.85798E-09
 -1       918 3.93272E+05 1.72092E+02 9.42350E+02-8.03981E+03 4.30354E-10-1.97161E-09
 -1       919 3.93138E+05-1.22055E+02 1.57711E+03 7.02143E+02 1.35009E-09 2.27760E-09
 -1       920 3.93712E+05 9.54015E+02 3.46780E+03-8.06771E+03 1.20730E-09-2.01709E-09
 -1       921 3.92752E+05-8.09510E+02 6.05839E+03 7.72256E+02 1.19621E-09 2.03772E-09
 -1       922 3.96488E+05 6.37996E+03 1.46149E+04-8.32251E+03 2.13618E-09-1.40903E-09
 -1       923 3.90366E+05-5.48279E+03 2.37489E+04 9.57004E+02-3.87388E-10 1.49885E-09
 -1       924 4.14032E+05 4.31377E+04 6.38916E+04-8.81488E+03-2.62162E-10-1.00408E-09
 -1       925 3.75221E+05-3.70530E+04 9.16124E+04 1.26462E+03 5.45697E-10 1.03319E-09
 -1       926-1.52005E+06 3.23281E+04-7.98403E+04-3.12680E+02 1.79011E-09-2.94676E-10
 -1       927-1.55368E+06-3.76315E+04-5.56845E+04 1.46591E+03-8.05258E-10 2.99224E-10
 -1       928-1.53322E+06 4.77904E+03-2.06877E+04-1.10133E+03 2.96723E-10-6.94854E-10
 -1       929-1.53841E+06-5.55168E+03-1.27195E+04 2.87361E+03 7.19183E-10-5.14547E-10
 -1       930-1.53528E+06 7.02183E+02-5.26717E+03-1.72039E+03-4.85329E-10-1.37402E-09
 -1       931-1.53602E+06-8.10508E+02-3.00254E+03 3.85343E+03-7.80574E-10 1.18735E-09
 -1       932-1.53561E+06 1.01785E+02-1.34613E+03-2.08120E+03 9.60185E-10-1.82075E-09
 -1       933-1.53564E+06-1.18899E+02-7.65328E+02 4.26425E+03 7.27418E-10 1.12652E-09
 -1       934-1.53566E+06 1.95017E+01-4.19031E+02-2.13123E+03 3.29855E-10-1.18538E-09
 -1       935-1.53559E+06-6.42921E+01-3.72321E+02 4.04559E+03 8.99718E-10 7.76373E-10
 -1       936-1.53565E+06 4.66115E+01-4.32351E+02-1.86253E+03-4.38604E-10-1.22155E-09
 -1       937-1.53573E+06-3.66671E+02-8.84403E+02 3.22972E+03 3.81377E-10 6.81553E-11
 -1       938-1.53552E+06 3.15231E+02-1.39500E+03-1.31534E+03 8.53220E-10-1.98060E-09
 -1       939-1.53673E+06-2.49528E+03-3.70115E+03 1.93642E+03 1.57286E-10 4.36330E-10
 -1       940-1.53466E+06 2.14219E+03-5.30677E+03-5.69204E+02-3.30374E-10 2.85127E-10
 -1       941 5.35111E+06-2.48591E+05 6.17773E+05-2.19788E+02 8.55258E-09 5.55883E-09
 -1       942 5.61114E+06 2.89596E+05 4.30087E+05 7.44143E+03 1.03317E-08-4.86034E-09
 -1       943 5.45301E+06-3.67778E+04 1.60443E+05 1.45945E+03 2.93586E-09-1.14960E-09
 -1       944 5.49388E+06 4.27583E+04 9.88312E+04 4.91981E+03 8.82658E-10-3.28691E-09
 -1       945 5.46911E+06-5.42975E+03 4.14370E+04 2.30183E+03 1.93901E-09 2.62662E-09
 -1       946 5.47551E+06 6.38288E+03 2.43919E+04 3.57415E+03 1.45243E-09 1.08048E-08
 -1       947 5.47167E+06-8.84826E+02 1.24572E+04 2.80542E+03 1.31008E-09 6.11681E-09
 -1       948 5.47294E+06 1.66054E+03 1.01954E+04 2.61712E+03 2.54691E-09 4.35779E-09
 -1       949 5.47175E+06-7.61457E+02 1.10548E+04 3.25893E+03 5.98575E-10-8.84711E-09
 -1       950 5.47488E+06 5.26705E+03 2.04225E+04 1.49855E+03 1.01772E-09 6.31735E-09
 -1       951 5.46968E+06-4.44922E+03 3.41406E+04 3.92397E+03-7.57865E-10-8.27822E-09
 -1       952 5.48990E+06 3.50092E+04 8.10316E+04-4.35003E+02-9.11697E-10-3.17959E-09
 -1       953 5.45649E+06-3.01108E+04 1.31406E+05 5.19203E+03-4.43058E-09-5.82077E-11
 -1       954 5.58592E+06 2.37104E+05 3.52162E+05-4.40685E+03-4.88285E-09-1.57161E-09
 -1       955 5.37296E+06-2.03559E+05 5.05590E+05 7.89087E+03-7.81279E-09-9.89530E-10
 -1       956-3.08871E+05-4.89219E+03-9.40770E+03 5.27321E+04-1.03100E-08 2.07910E-09
 -1       957-3.10527E+05-1.47502E+03-4.70187E+03 6.00783E+04-9.27685E-10-9.41782E-10
 -1       958-3.09666E+05-1.36490E+02-2.11466E+03 5.23979E+04 7.26141E-09 6.89397E-10
 -1       959-3.09865E+05 9.88792E+01-1.07008E+03 6.04441E+04-3.59978E-09-1.11049E-09
 -1       960-3.09816E+05 1.66414E+02-5.20331E+02 5.23593E+04-1.25838E-08-2.41062E-09
 -1       961-3.09872E+05 2.19974E+02-2.72141E+02 6.04874E+04-2.00889E-08 4.03816E-10
 -1       962-3.09887E+05 2.04236E+02-1.53226E+02 5.23534E+04-7.06223E-09 1.79261E-09
 -1       963-3.09921E+05 2.51796E+02-1.14844E+02 6.04954E+04-1.27620E-08 2.87582E-09
 -1       964-3.09928E+05 2.28566E+02-1.31884E+02 5.23509E+04-2.31285E-09 1.15642E-09
 -1       965-3.09962E+05 2.71017E+02-2.20527E+02 6.04967E+04 1.18996E-08-1.09139E-09
 -1       966-3.09940E+05 2.40623E+02-4.11375E+02 5.23517E+04-8.05767E-09-8.28095E-10
 -1       967-3.10032E+05 2.16776E+02-8.47922E+02 6.04828E+04-1.57274E-09-4.33829E-10
 -1       968-3.09883E+05 3.91659E+01-1.67039E+03 5.23653E+04 3.28328E-10-1.56433E-09
 -1       969-3.10628E+05-9.96497E+02-3.72472E+03 6.03507E+04-3.24690E-10-3.80282E-09
 -1       970-3.09302E+05-3.70917E+03-7.44741E+03 5.24942E+04 6.25050E-09 7.62157E-10
 -1       971-9.47937E+05 1.95089E+04-6.53534E+04 7.11778E+02-9.65611E-09-3.58705E-09
 -1       972-9.72823E+05-2.40812E+04-4.32032E+04 2.49236E+04-3.72779E-09-6.06633E-10
 -1       973-9.58170E+05 2.28307E+03-1.70008E+04 9.17746E+01-1.00299E-08-4.29009E-09
 -1       974-9.61434E+05-2.63513E+03-9.79273E+03 2.59614E+04 3.06591E-09-7.65453E-09
 -1       975-9.59487E+05 2.70537E+02-4.38437E+03-3.30688E+02-2.45109E-09-6.39966E-09
 -1       976-9.60060E+05-9.93592E+01-2.46698E+03 2.66318E+04-2.28770E-08-3.70147E-09
 -1       977-9.59664E+05 4.79394E+01-1.39320E+03-5.80281E+02 1.73777E-08-7.24248E-09
 -1       978-9.59950E+05 1.74813E+02-1.21764E+03 2.69602E+04 3.42524E-08-7.58052E-09
 -1       979-9.59659E+05 5.82128E+01-1.53348E+03-6.59615E+02 1.14013E-08-7.90286E-09
 -1       980-9.60165E+05-1.33102E+02-2.85578E+03 2.69459E+04 2.06958E-08-8.23547E-09
 -1       981-9.59448E+05 3.34407E+02-5.12557E+03-5.65893E+02-6.50220E-09-5.17912E-09
 -1       982-9.61865E+05-3.09107E+03-1.15254E+04 2.65893E+04 1.15106E-08-2.10343E-09
 -1       983-9.57897E+05 2.71824E+03-1.99908E+04-3.01409E+02 1.31672E-08-4.99131E-09
 -1       984-9.75356E+05-2.83186E+04-5.08780E+04 2.58797E+04-1.21593E-08-3.92993E-09
 -1       985-9.45846E+05 2.30191E+04-7.69114E+04 1.51307E+02 1.25915E-08-4.86762E-09
 -3
 9999
