
 stresses (elem, integ.pnt.,sxx,syy,szz,sxy,sxz,syz) for set ELALL and time  0.1000000E+01

         1   1 -5.323747E+06 -6.421614E+05 -8.352423E+05 -8.424239E+04 -5.682123E+05  7.773326E+01
         1   2 -5.196301E+06  1.448118E+05 -3.568544E+05 -2.165332E+04 -3.734312E+05  1.312961E+01
         1   3 -5.322082E+06  2.286745E+04 -2.331619E+05  4.094760E+04 -1.786587E+05 -1.188104E+01
         1   4 -5.323755E+06 -6.421749E+05 -8.352442E+05  5.961952E-08 -5.682123E+05 -9.154944E-11
         1   5 -5.196302E+06  1.448109E+05 -3.568546E+05 -1.139321E-07 -3.734312E+05 -6.778718E-11
         1   6 -5.322084E+06  2.286428E+04 -2.331623E+05  4.144520E-08 -1.786587E+05 -5.280258E-10
         1   7 -5.323747E+06 -6.421614E+05 -8.352423E+05  8.424239E+04 -5.682123E+05 -7.773326E+01
         1   8 -5.196301E+06  1.448118E+05 -3.568544E+05  2.165332E+04 -3.734312E+05 -1.312961E+01
         1   9 -5.322082E+06  2.286745E+04 -2.331619E+05 -4.094760E+04 -1.786587E+05  1.188104E+01
         1  10 -5.324096E+06 -6.422490E+05 -8.358542E+05 -8.424236E+04 -2.339781E-09  5.210308E-11
         1  11 -5.196452E+06  1.447739E+05 -3.571188E+05 -2.165332E+04 -4.714502E-09 -2.288462E-10
         1  12 -5.322116E+06  2.285879E+04 -2.332224E+05  4.094759E+04 -4.536378E-09  4.715708E-10
         1  13 -5.324104E+06 -6.422625E+05 -8.358562E+05 -9.132610E-09 -1.647722E-26  2.638660E-10
         1  14 -5.196452E+06  1.447731E+05 -3.571189E+05 -9.672906E-08  1.028460E-09  2.113098E-10
         1  15 -5.322118E+06  2.285561E+04 -2.332228E+05  1.348539E-08 -2.176323E-10 -3.810563E-10
         1  16 -5.324096E+06 -6.422490E+05 -8.358542E+05  8.424236E+04  2.386794E-09  3.413136E-10
         1  17 -5.196452E+06  1.447739E+05 -3.571188E+05  2.165332E+04  5.310678E-09  3.835328E-10
         1  18 -5.322116E+06  2.285879E+04 -2.332224E+05 -4.094759E+04  5.951548E-09  1.022941E-09
         1  19 -5.323747E+06 -6.421614E+05 -8.352423E+05 -8.424239E+04  5.682123E+05 -7.773326E+01
         1  20 -5.196301E+06  1.448118E+05 -3.568544E+05 -2.165332E+04  3.734312E+05 -1.312961E+01
         1  21 -5.322082E+06  2.286745E+04 -2.331619E+05  4.094760E+04  1.786587E+05  1.188104E+01
         1  22 -5.323755E+06 -6.421749E+05 -8.352442E+05  7.684041E-08  5.682123E+05  4.134763E-10
         1  23 -5.196302E+06  1.448109E+05 -3.568546E+05 -4.513234E-08  3.734312E+05  4.379755E-10
         1  24 -5.322084E+06  2.286428E+04 -2.331623E+05  1.317070E-07  1.786587E+05 -2.744514E-10
         1  25 -5.323747E+06 -6.421614E+05 -8.352423E+05  8.424239E+04  5.682123E+05  7.773326E+01
         1  26 -5.196301E+06  1.448118E+05 -3.568544E+05  2.165332E+04  3.734312E+05  1.312961E+01
         1  27 -5.322082E+06  2.286745E+04 -2.331619E+05 -4.094760E+04  1.786587E+05 -1.188104E+01
         2   1 -5.275138E+06 -9.472464E+04 -1.927160E+05 -1.182112E+04 -1.404841E+05  2.696830E+00
         2   2 -5.254990E+06  2.141709E+04 -9.235559E+04 -2.818779E+03 -9.219082E+04  4.219971E-01
         2   3 -5.274817E+06  3.288084E+03 -5.719346E+04  6.183595E+03 -4.389643E+04 -4.408033E-01
         2   4 -5.275138E+06 -9.472490E+04 -1.927161E+05 -4.904696E-08 -1.404841E+05  4.215107E-10
         2   5 -5.254990E+06  2.141707E+04 -9.235559E+04 -3.940431E-08 -9.219082E+04  2.625165E-09
         2   6 -5.274817E+06  3.288011E+03 -5.719347E+04  5.622341E-08 -4.389643E+04  1.850288E-10
         2   7 -5.275138E+06 -9.472464E+04 -1.927160E+05  1.182112E+04 -1.404841E+05 -2.696830E+00
         2   8 -5.254990E+06  2.141709E+04 -9.235559E+04  2.818779E+03 -9.219082E+04 -4.219971E-01
         2   9 -5.274817E+06  3.288084E+03 -5.719346E+04 -6.183595E+03 -4.389643E+04  4.408033E-01
         2  10 -5.275160E+06 -9.472999E+04 -1.927534E+05 -1.182112E+04 -3.459837E-09  2.327259E-10
         2  11 -5.254999E+06  2.141478E+04 -9.237170E+04 -2.818779E+03 -3.523733E-09  1.980804E-09
         2  12 -5.274819E+06  3.287561E+03 -5.719711E+04  6.183595E+03 -2.494798E-09 -1.475112E-09
         2  13 -5.275160E+06 -9.473026E+04 -1.927535E+05 -8.343357E-08 -2.164644E-09 -6.216202E-12
         2  14 -5.254999E+06  2.141477E+04 -9.237170E+04  4.656414E-08  1.370880E-09  1.255296E-09
         2  15 -5.274819E+06  3.287489E+03 -5.719712E+04  8.199755E-08  3.045756E-09 -5.468739E-10
         2  16 -5.275160E+06 -9.472999E+04 -1.927534E+05  1.182112E+04  3.577117E-09 -6.191362E-10
         2  17 -5.254999E+06  2.141478E+04 -9.237170E+04  2.818779E+03 -9.790098E-10  1.440938E-09
         2  18 -5.274819E+06  3.287561E+03 -5.719711E+04 -6.183595E+03  5.627039E-10 -1.283602E-09
         2  19 -5.275138E+06 -9.472464E+04 -1.927160E+05 -1.182112E+04  1.404841E+05 -2.696830E+00
         2  20 -5.254990E+06  2.141709E+04 -9.235559E+04 -2.818779E+03  9.219082E+04 -4.219971E-01
         2  21 -5.274817E+06  3.288084E+03 -5.719346E+04  6.183595E+03  4.389643E+04  4.408033E-01
         2  22 -5.275138E+06 -9.472490E+04 -1.927161E+05  5.414023E-08  1.404841E+05 -5.623608E-10
         2  23 -5.254990E+06  2.141707E+04 -9.235559E+04  4.656616E-08  9.219082E+04 -9.102941E-10
         2  24 -5.274817E+06  3.288011E+03 -5.719347E+04  1.249712E-07  4.389643E+04 -1.199766E-09
         2  25 -5.275138E+06 -9.472464E+04 -1.927160E+05  1.182112E+04  1.404841E+05  2.696830E+00
         2  26 -5.254990E+06  2.141709E+04 -9.235559E+04  2.818779E+03  9.219082E+04  4.219971E-01
         2  27 -5.274817E+06  3.288084E+03 -5.719346E+04 -6.183595E+03  4.389643E+04 -4.408033E-01
         3   1 -5.267447E+06 -1.388972E+04 -4.573328E+04 -1.584958E+03 -3.464546E+04  8.917306E-02
         3   2 -5.264145E+06  3.161048E+03 -2.368079E+04 -3.210772E+02 -2.256568E+04  1.176593E-02
         3   3 -5.267383E+06  4.351729E+02 -1.448633E+04  9.427789E+02 -1.048594E+04 -1.605417E-02
         3   4 -5.267447E+06 -1.388973E+04 -4.573328E+04  1.112606E-07 -3.464546E+04  6.109654E-11
         3   5 -5.264145E+06  3.161047E+03 -2.368079E+04  5.281940E-08 -2.256568E+04  6.360683E-10
         3   6 -5.267383E+06  4.351712E+02 -1.448633E+04  2.662315E-08 -1.048594E+04  8.408473E-10
         3   7 -5.267447E+06 -1.388972E+04 -4.573328E+04  1.584958E+03 -3.464546E+04 -8.917306E-02
         3   8 -5.264145E+06  3.161048E+03 -2.368079E+04  3.210772E+02 -2.256568E+04 -1.176594E-02
         3   9 -5.267383E+06  4.351729E+02 -1.448633E+04 -9.427789E+02 -1.048594E+04  1.605418E-02
         3  10 -5.267449E+06 -1.389005E+04 -4.573555E+04 -1.584958E+03 -1.633478E-09 -1.515186E-09
         3  11 -5.264146E+06  3.160910E+03 -2.368176E+04 -3.210772E+02 -5.570470E-11 -6.027217E-10
         3  12 -5.267384E+06  4.351431E+02 -1.448654E+04  9.427789E+02  3.398548E-09 -1.914874E-09
         3  13 -5.267449E+06 -1.389005E+04 -4.573555E+04  1.456842E-07 -1.628200E-09 -2.054093E-10
         3  14 -5.264146E+06  3.160909E+03 -2.368176E+04  1.237060E-09  1.074663E-09  1.757572E-09
         3  15 -5.267384E+06  4.351414E+02 -1.448654E+04  5.453054E-08  6.984789E-09 -5.591343E-10
         3  16 -5.267449E+06 -1.389005E+04 -4.573555E+04  1.584958E+03  1.603294E-09 -1.116293E-09
         3  17 -5.264146E+06  3.160910E+03 -2.368176E+04  3.210772E+02 -6.003636E-09  6.773137E-10
         3  18 -5.267384E+06  4.351431E+02 -1.448654E+04 -9.427789E+02  6.287697E-10  9.002062E-10
         3  19 -5.267447E+06 -1.388972E+04 -4.573328E+04 -1.584958E+03  3.464546E+04 -8.917306E-02
         3  20 -5.264145E+06  3.161048E+03 -2.368079E+04 -3.210772E+02  2.256568E+04 -1.176593E-02
         3  21 -5.267383E+06  4.351729E+02 -1.448633E+04  9.427789E+02  1.048594E+04  1.605418E-02
         3  22 -5.267447E+06 -1.388973E+04 -4.573328E+04  2.534914E-08  3.464546E+04 -6.495292E-10
         3  23 -5.264145E+06  3.161047E+03 -2.368079E+04  9.831532E-09  2.256568E+04  1.797825E-09
         3  24 -5.267383E+06  4.351712E+02 -1.448633E+04  4.590473E-08  1.048594E+04 -1.278657E-09
         3  25 -5.267447E+06 -1.388972E+04 -4.573328E+04  1.584958E+03  3.464546E+04  8.917306E-02
         3  26 -5.264145E+06  3.161048E+03 -2.368079E+04  3.210772E+02  2.256568E+04  1.176593E-02
         3  27 -5.267383E+06  4.351729E+02 -1.448633E+04 -9.427789E+02  1.048594E+04 -1.605418E-02
         4   1 -5.266215E+06 -2.010973E+03 -1.156043E+04 -2.077513E+02 -8.141212E+03  2.746650E-03
         4   2 -5.265585E+06  5.076476E+02 -6.902174E+03 -2.479355E+01 -4.673943E+03  1.881933E-04
         4   3 -5.266204E+06 -1.369306E+02 -5.306499E+03  1.581666E+02 -1.206612E+03 -3.099199E-04
         4   4 -5.266215E+06 -2.010973E+03 -1.156043E+04  3.088757E-08 -8.141212E+03  1.567652E-09
         4   5 -5.265585E+06  5.076476E+02 -6.902174E+03  2.513005E-08 -4.673943E+03  3.781029E-09
         4   6 -5.266204E+06 -1.369306E+02 -5.306499E+03  4.087259E-08 -1.206612E+03  4.064138E-10
         4   7 -5.266215E+06 -2.010973E+03 -1.156043E+04  2.077513E+02 -8.141212E+03 -2.746645E-03
         4   8 -5.265585E+06  5.076476E+02 -6.902174E+03  2.479355E+01 -4.673943E+03 -1.881938E-04
         4   9 -5.266204E+06 -1.369306E+02 -5.306499E+03 -1.581666E+02 -1.206612E+03  3.099206E-04
         4  10 -5.266215E+06 -2.010991E+03 -1.156055E+04 -2.077513E+02  8.908770E-10  9.957447E-10
         4  11 -5.265585E+06  5.076417E+02 -6.902215E+03 -2.479355E+01 -1.935668E-09  1.108939E-09
         4  12 -5.266204E+06 -1.369310E+02 -5.306502E+03  1.581666E+02 -2.500394E-09  8.448341E-10
         4  13 -5.266215E+06 -2.010991E+03 -1.156055E+04 -8.943129E-08 -4.391806E-10 -1.028663E-10
         4  14 -5.265585E+06  5.076417E+02 -6.902215E+03 -7.803366E-08 -2.985925E-09  1.656777E-09
         4  15 -5.266204E+06 -1.369310E+02 -5.306502E+03 -4.086010E-08  1.879894E-09  2.256303E-10
         4  16 -5.266215E+06 -2.010991E+03 -1.156055E+04  2.077513E+02  9.198285E-10 -3.931607E-10
         4  17 -5.265585E+06  5.076417E+02 -6.902215E+03  2.479355E+01  1.911247E-09  2.740722E-09
         4  18 -5.266204E+06 -1.369310E+02 -5.306502E+03 -1.581666E+02  1.382037E-09  9.722776E-10
         4  19 -5.266215E+06 -2.010973E+03 -1.156043E+04 -2.077513E+02  8.141212E+03 -2.746645E-03
         4  20 -5.265585E+06  5.076476E+02 -6.902174E+03 -2.479355E+01  4.673943E+03 -1.881856E-04
         4  21 -5.266204E+06 -1.369306E+02 -5.306499E+03  1.581666E+02  1.206612E+03  3.099223E-04
         4  22 -5.266215E+06 -2.010973E+03 -1.156043E+04  3.097344E-08  8.141212E+03 -1.712974E-09
         4  23 -5.265585E+06  5.076476E+02 -6.902174E+03  7.932965E-09  4.673943E+03 -1.205861E-10
         4  24 -5.266204E+06 -1.369306E+02 -5.306499E+03  4.077205E-08  1.206612E+03 -4.810035E-10
         4  25 -5.266215E+06 -2.010973E+03 -1.156043E+04  2.077513E+02  8.141212E+03  2.746642E-03
         4  26 -5.265585E+06  5.076476E+02 -6.902174E+03  2.479355E+01  4.673943E+03  1.881878E-04
         4  27 -5.266204E+06 -1.369306E+02 -5.306499E+03 -1.581666E+02  1.206612E+03 -3.099258E-04
         5   1 -5.266142E+06 -2.444815E+02 -5.063115E+03 -1.187369E+02 -2.724466E+02  5.253799E-05
         5   2 -5.265661E+06  3.862089E+02 -5.543839E+03  1.856533E+01  2.509716E+03  7.566451E-05
         5   3 -5.266148E+06 -1.388409E+03 -8.448766E+03  1.558677E+02  5.291874E+03  1.339485E-03
         5   4 -5.266142E+06 -2.444815E+02 -5.063115E+03  2.923555E-08 -2.724466E+02 -8.307874E-10
         5   5 -5.265661E+06  3.862089E+02 -5.543839E+03  3.291254E-08  2.509716E+03 -3.773849E-10
         5   6 -5.266148E+06 -1.388409E+03 -8.448766E+03  8.817643E-08  5.291874E+03 -5.224962E-10
         5   7 -5.266142E+06 -2.444815E+02 -5.063115E+03  1.187369E+02 -2.724466E+02 -5.253920E-05
         5   8 -5.265661E+06  3.862089E+02 -5.543839E+03 -1.856533E+01  2.509716E+03 -7.567043E-05
         5   9 -5.266148E+06 -1.388409E+03 -8.448766E+03 -1.558677E+02  5.291874E+03 -1.339479E-03
         5  10 -5.266142E+06 -2.444815E+02 -5.063115E+03 -1.187369E+02 -4.697674E-09 -1.222534E-09
         5  11 -5.265661E+06  3.862071E+02 -5.543851E+03  1.856533E+01  4.064828E-10  8.791568E-11
         5  12 -5.266148E+06 -1.388416E+03 -8.448819E+03  1.558677E+02  1.909116E-09 -1.347471E-10
         5  13 -5.266142E+06 -2.444815E+02 -5.063115E+03 -2.231167E-08 -5.770755E-09 -9.004089E-10
         5  14 -5.265661E+06  3.862071E+02 -5.543851E+03  1.572279E-08  1.312803E-09 -1.137425E-10
         5  15 -5.266148E+06 -1.388416E+03 -8.448819E+03 -1.931314E-08 -3.650582E-09  6.071168E-11
         5  16 -5.266142E+06 -2.444815E+02 -5.063115E+03  1.187369E+02 -1.557672E-10  1.038914E-09
         5  17 -5.265661E+06  3.862071E+02 -5.543851E+03 -1.856533E+01 -1.421631E-09  7.658514E-10
         5  18 -5.266148E+06 -1.388416E+03 -8.448819E+03 -1.558677E+02 -2.178356E-09 -2.449664E-11
         5  19 -5.266142E+06 -2.444815E+02 -5.063115E+03 -1.187369E+02  2.724466E+02 -5.253202E-05
         5  20 -5.265661E+06  3.862089E+02 -5.543839E+03  1.856533E+01 -2.509716E+03 -7.566328E-05
         5  21 -5.266148E+06 -1.388409E+03 -8.448766E+03  1.558677E+02 -5.291874E+03 -1.339478E-03
         5  22 -5.266142E+06 -2.444815E+02 -5.063115E+03  8.089273E-08  2.724466E+02 -5.715767E-10
         5  23 -5.265661E+06  3.862089E+02 -5.543839E+03  2.432761E-08 -2.509716E+03 -1.244821E-10
         5  24 -5.266148E+06 -1.388409E+03 -8.448766E+03  5.589081E-08 -5.291874E+03  3.986777E-10
         5  25 -5.266142E+06 -2.444815E+02 -5.063115E+03  1.187369E+02  2.724466E+02  5.253107E-05
         5  26 -5.265661E+06  3.862089E+02 -5.543839E+03 -1.856533E+01 -2.509716E+03  7.566170E-05
         5  27 -5.266148E+06 -1.388409E+03 -8.448766E+03 -1.558677E+02 -5.291874E+03  1.339479E-03
         6   1 -5.266938E+06  2.806319E+02 -1.037010E+04 -6.527471E+02  6.985926E+03 -7.405247E-03
         6   2 -5.264686E+06  2.193567E+03 -1.658634E+04  2.232994E+02  1.544410E+04  5.600400E-03
         6   3 -5.266982E+06 -9.616525E+03 -3.177486E+04  1.099336E+03  2.390209E+04  4.267130E-02
         6   4 -5.266938E+06  2.806311E+02 -1.037010E+04  5.624280E-08  6.985926E+03 -2.627101E-10
         6   5 -5.264686E+06  2.193567E+03 -1.658634E+04 -6.140308E-08  1.544410E+04  3.707620E-10
         6   6 -5.266982E+06 -9.616528E+03 -3.177486E+04  1.261562E-07  2.390209E+04  1.272196E-09
         6   7 -5.266938E+06  2.806319E+02 -1.037010E+04  6.527471E+02  6.985926E+03  7.405248E-03
         6   8 -5.264686E+06  2.193567E+03 -1.658634E+04 -2.232994E+02  1.544410E+04 -5.600404E-03
         6   9 -5.266982E+06 -9.616525E+03 -3.177486E+04 -1.099336E+03  2.390209E+04 -4.267130E-02
         6  10 -5.266938E+06  2.806187E+02 -1.037019E+04 -6.527471E+02  2.568829E-09 -1.039032E-09
         6  11 -5.264686E+06  2.193503E+03 -1.658679E+04  2.232994E+02 -1.189967E-10  4.643084E-10
         6  12 -5.266983E+06 -9.616680E+03 -3.177594E+04  1.099336E+03  4.976903E-09  8.841206E-11
         6  13 -5.266938E+06  2.806179E+02 -1.037019E+04 -2.972597E-08  1.807405E-09  4.048239E-10
         6  14 -5.264686E+06  2.193502E+03 -1.658679E+04 -2.701499E-08  2.748020E-09  2.711127E-10
         6  15 -5.266983E+06 -9.616683E+03 -3.177594E+04  7.457107E-08  2.665355E-09  4.051043E-10
         6  16 -5.266938E+06  2.806187E+02 -1.037019E+04  6.527471E+02  4.856254E-11 -1.120123E-09
         6  17 -5.264686E+06  2.193503E+03 -1.658679E+04 -2.232994E+02 -8.943252E-10  6.138913E-10
         6  18 -5.266983E+06 -9.616680E+03 -3.177594E+04 -1.099336E+03  7.796512E-10  1.801889E-10
         6  19 -5.266938E+06  2.806319E+02 -1.037010E+04 -6.527471E+02 -6.985926E+03  7.405250E-03
         6  20 -5.264686E+06  2.193567E+03 -1.658634E+04  2.232994E+02 -1.544410E+04 -5.600398E-03
         6  21 -5.266982E+06 -9.616525E+03 -3.177486E+04  1.099336E+03 -2.390209E+04 -4.267131E-02
         6  22 -5.266938E+06  2.806311E+02 -1.037010E+04  2.186639E-08 -6.985926E+03  4.305112E-10
         6  23 -5.264686E+06  2.193567E+03 -1.658634E+04 -3.561045E-08 -1.544410E+04  8.083241E-10
         6  24 -5.266982E+06 -9.616528E+03 -3.177486E+04  9.176821E-08 -2.390209E+04 -1.031208E-09
         6  25 -5.266938E+06  2.806319E+02 -1.037010E+04  6.527471E+02 -6.985926E+03 -7.405250E-03
         6  26 -5.264686E+06  2.193567E+03 -1.658634E+04 -2.232994E+02 -1.544410E+04  5.600403E-03
         6  27 -5.266982E+06 -9.616525E+03 -3.177486E+04 -1.099336E+03 -2.390209E+04  4.267130E-02
         7   1 -5.272081E+06  2.273946E+03 -3.968390E+04 -4.281020E+03  3.032534E+04 -2.108270E-01
         7   2 -5.258352E+06  1.482909E+04 -6.399580E+04  1.952009E+03  6.378550E+04  2.021936E-01
         7   3 -5.272306E+06 -6.558580E+04 -1.334675E+05  8.185113E+03  9.724560E+04  1.292597E+00
         7   4 -5.272081E+06  2.273911E+03 -3.968390E+04  1.012270E-07  3.032534E+04  2.167277E-09
         7   5 -5.258352E+06  1.482908E+04 -6.399581E+04  2.833793E-08  6.378550E+04  6.466752E-10
         7   6 -5.272306E+06 -6.558593E+04 -1.334675E+05  3.927045E-08  9.724560E+04 -1.759727E-09
         7   7 -5.272081E+06  2.273946E+03 -3.968390E+04  4.281020E+03  3.032534E+04  2.108270E-01
         7   8 -5.258352E+06  1.482909E+04 -6.399580E+04 -1.952009E+03  6.378550E+04 -2.021936E-01
         7   9 -5.272306E+06 -6.558580E+04 -1.334675E+05 -8.185113E+03  9.724560E+04 -1.292597E+00
         7  10 -5.272082E+06  2.273696E+03 -3.968564E+04 -4.281020E+03 -1.372427E-10  8.207946E-10
         7  11 -5.258357E+06  1.482798E+04 -6.400352E+04  1.952009E+03 -1.270800E-09  5.532881E-10
         7  12 -5.272316E+06 -6.558837E+04 -1.334854E+05  8.185113E+03  5.961726E-10 -1.560385E-10
         7  13 -5.272082E+06  2.273662E+03 -3.968565E+04  1.527922E-08 -2.009643E-09  2.587329E-10
         7  14 -5.258357E+06  1.482797E+04 -6.400352E+04  1.229108E-07  8.372451E-10  5.047140E-10
         7  15 -5.272316E+06 -6.558849E+04 -1.334854E+05 -1.598749E-09  1.572381E-09 -5.805019E-10
         7  16 -5.272082E+06  2.273696E+03 -3.968564E+04  4.281020E+03 -3.053183E-09  1.043902E-09
         7  17 -5.258357E+06  1.482798E+04 -6.400352E+04 -1.952009E+03  2.401567E-09 -1.318275E-09
         7  18 -5.272316E+06 -6.558837E+04 -1.334854E+05 -8.185113E+03 -3.217209E-10 -8.316118E-10
         7  19 -5.272081E+06  2.273946E+03 -3.968390E+04 -4.281020E+03 -3.032534E+04  2.108270E-01
         7  20 -5.258352E+06  1.482909E+04 -6.399580E+04  1.952009E+03 -6.378550E+04 -2.021936E-01
         7  21 -5.272306E+06 -6.558580E+04 -1.334675E+05  8.185113E+03 -9.724560E+04 -1.292597E+00
         7  22 -5.272081E+06  2.273911E+03 -3.968390E+04  8.407473E-08 -3.032534E+04 -1.007459E-09
         7  23 -5.258352E+06  1.482908E+04 -6.399581E+04  9.711413E-08 -6.378550E+04  1.117912E-09
         7  24 -5.272306E+06 -6.558593E+04 -1.334675E+05  7.358395E-08 -9.724560E+04  1.675649E-10
         7  25 -5.272081E+06  2.273946E+03 -3.968390E+04  4.281020E+03 -3.032534E+04 -2.108270E-01
         7  26 -5.258352E+06  1.482909E+04 -6.399580E+04 -1.952009E+03 -6.378550E+04  2.021936E-01
         7  27 -5.272306E+06 -6.558580E+04 -1.334675E+05 -8.185113E+03 -9.724560E+04  1.292597E+00
         8   1 -5.304810E+06  1.582966E+04 -1.614729E+05 -2.835041E+04  1.236879E+05 -5.694804E+00
         8   2 -5.217730E+06  1.002602E+05 -2.471570E+05  1.499045E+04  2.585401E+05  6.293263E+00
         8   3 -5.305989E+06 -4.446207E+05 -5.784529E+05  5.832607E+04  3.933978E+05  3.726161E+01
         8   4 -5.304811E+06  1.582814E+04 -1.614732E+05 -1.526904E-08  1.236879E+05 -1.212981E-09
         8   5 -5.217731E+06  1.002598E+05 -2.471570E+05 -1.050648E-07  2.585401E+05  1.656449E-09
         8   6 -5.305993E+06 -4.446271E+05 -5.784538E+05 -2.932946E-08  3.933978E+05 -1.002525E-10
         8   7 -5.304810E+06  1.582966E+04 -1.614729E+05  2.835041E+04  1.236879E+05  5.694804E+00
         8   8 -5.217730E+06  1.002602E+05 -2.471570E+05 -1.499045E+04  2.585401E+05 -6.293263E+00
         8   9 -5.305989E+06 -4.446207E+05 -5.784529E+05 -5.832607E+04  3.933978E+05 -3.726161E+01
         8  10 -5.304827E+06  1.582551E+04 -1.615019E+05 -2.835041E+04  1.900856E-09 -1.619064E-10
         8  11 -5.217803E+06  1.002421E+05 -2.472837E+05  1.499045E+04 -3.505979E-09  4.583484E-10
         8  12 -5.306157E+06 -4.446626E+05 -5.787462E+05  5.832606E+04 -8.909788E-10  7.029184E-10
         8  13 -5.304827E+06  1.582399E+04 -1.615022E+05 -4.023100E-08  2.082023E-09 -5.938778E-10
         8  14 -5.217803E+06  1.002416E+05 -2.472837E+05 -1.907329E-08  2.346107E-10  3.091139E-10
         8  15 -5.306160E+06 -4.446691E+05 -5.787471E+05  3.215780E-08 -1.200024E-09  5.929911E-10
         8  16 -5.304827E+06  1.582551E+04 -1.615019E+05  2.835041E+04  1.860946E-09 -5.345367E-10
         8  17 -5.217803E+06  1.002421E+05 -2.472837E+05 -1.499045E+04  3.339368E-09  7.144659E-10
         8  18 -5.306157E+06 -4.446626E+05 -5.787462E+05 -5.832606E+04  2.397084E-09  9.340883E-11
         8  19 -5.304810E+06  1.582966E+04 -1.614729E+05 -2.835041E+04 -1.236879E+05  5.694804E+00
         8  20 -5.217730E+06  1.002602E+05 -2.471570E+05  1.499045E+04 -2.585401E+05 -6.293263E+00
         8  21 -5.305989E+06 -4.446207E+05 -5.784529E+05  5.832607E+04 -3.933978E+05 -3.726161E+01
         8  22 -5.304811E+06  1.582814E+04 -1.614732E+05  3.799348E-08 -1.236879E+05 -2.014411E-10
         8  23 -5.217731E+06  1.002598E+05 -2.471570E+05  6.730669E-09 -2.585401E+05 -5.054335E-10
         8  24 -5.305993E+06 -4.446271E+05 -5.784538E+05  7.685369E-09 -3.933978E+05  8.177095E-10
         8  25 -5.304810E+06  1.582966E+04 -1.614729E+05  2.835041E+04 -1.236879E+05 -5.694804E+00
         8  26 -5.217730E+06  1.002602E+05 -2.471570E+05 -1.499045E+04 -2.585401E+05  6.293263E+00
         8  27 -5.305989E+06 -4.446207E+05 -5.784529E+05 -5.832607E+04 -3.933978E+05  3.726161E+01
         9   1  2.254579E+06  8.066753E+06  2.144941E+06 -1.568874E+06  1.009417E+05  8.396567E+05
         9   2  1.793291E+06  6.881675E+06  1.434752E+06 -1.427862E+06  3.392505E+05  3.927734E+05
         9   3  1.473910E+06  5.793606E+06  1.049366E+06 -1.469848E+06  3.961552E+05 -5.300974E+04
         9   4  1.513207E+05 -5.023430E+05  1.600234E+05 -1.448459E+06  1.031338E+05  1.083747E+05
         9   5  4.931329E+04 -5.128897E+05  8.280260E+04 -1.357235E+06  3.408096E+05  6.740185E+04
         9   6  2.010494E+04 -4.969309E+05  5.093167E+04 -1.448958E+06  3.961549E+05  2.659076E+04
         9   7 -1.956758E+06 -9.002993E+06 -1.827826E+06 -1.329587E+06  1.050693E+05 -6.129923E+05
         9   8 -1.697682E+06 -7.854474E+06 -1.270978E+06 -1.287369E+06  3.423091E+05 -2.542330E+05
         9   9 -1.435664E+06 -6.748304E+06 -9.484936E+05 -1.428201E+06  3.961598E+05  1.054187E+05
         9  10  2.254381E+06  8.066001E+06  2.143613E+06 -1.568942E+06 -6.341480E-10  3.532717E-09
         9  11  1.793126E+06  6.881480E+06  1.434248E+06 -1.427969E+06  4.228025E-09  1.356406E-09
         9  12  1.473741E+06  5.793561E+06  1.049066E+06 -1.469831E+06  1.176149E-09 -1.095627E-09
         9  13  1.513061E+05 -5.023585E+05  1.599812E+05 -1.448468E+06  2.657656E-09 -8.703466E-11
         9  14  4.918731E+04 -5.129258E+05  8.257562E+04 -1.357254E+06  4.649781E-09  1.078933E-11
         9  15  1.993624E+04 -4.969738E+05  5.063539E+04 -1.448966E+06  3.898031E-10 -4.284838E-11
         9  16 -1.956872E+06 -9.003404E+06 -1.828562E+06 -1.329535E+06 -5.954816E-10 -3.848976E-09
         9  17 -1.697825E+06 -7.854575E+06 -1.271320E+06 -1.287298E+06 -7.752830E-09 -1.457163E-09
         9  18 -1.435836E+06 -6.748359E+06 -9.488099E+05 -1.428235E+06  3.965302E-09  1.093487E-09
         9  19  2.254579E+06  8.066753E+06  2.144941E+06 -1.568874E+06 -1.009417E+05 -8.396567E+05
         9  20  1.793291E+06  6.881675E+06  1.434752E+06 -1.427862E+06 -3.392505E+05 -3.927734E+05
         9  21  1.473910E+06  5.793606E+06  1.049366E+06 -1.469848E+06 -3.961552E+05  5.300974E+04
         9  22  1.513207E+05 -5.023430E+05  1.600234E+05 -1.448459E+06 -1.031338E+05 -1.083747E+05
         9  23  4.931329E+04 -5.128897E+05  8.280260E+04 -1.357235E+06 -3.408096E+05 -6.740185E+04
         9  24  2.010494E+04 -4.969309E+05  5.093167E+04 -1.448958E+06 -3.961549E+05 -2.659076E+04
         9  25 -1.956758E+06 -9.002993E+06 -1.827826E+06 -1.329587E+06 -1.050693E+05  6.129923E+05
         9  26 -1.697682E+06 -7.854474E+06 -1.270978E+06 -1.287369E+06 -3.423091E+05  2.542330E+05
         9  27 -1.435664E+06 -6.748304E+06 -9.484936E+05 -1.428201E+06 -3.961598E+05 -1.054187E+05
        10   1  1.301889E+06  5.069435E+06  9.026107E+05 -1.477545E+06  3.679235E+05 -6.565344E+04
        10   2  1.028875E+06  3.926502E+06  6.831109E+05 -1.369969E+06  3.188192E+05 -1.335411E+05
        10   3  7.783091E+05  2.799064E+06  5.131405E+05 -1.458579E+06  2.472566E+05 -2.015412E+05
        10   4  1.894614E+04 -5.000232E+05  4.251982E+04 -1.451914E+06  3.677945E+05  1.922812E+04
        10   5  1.566621E+04 -5.011465E+05  3.569537E+04 -1.353780E+06  3.182657E+05  1.310387E+03
        10   6  2.630875E+04 -4.966399E+05  4.390151E+04 -1.451911E+06  2.461957E+05 -1.683622E+04
        10   7 -1.265497E+06 -6.038622E+06 -8.182511E+05 -1.426450E+06  3.676715E+05  1.033814E+05
        10   8 -9.984396E+05 -4.909080E+06 -6.119900E+05 -1.337665E+06  3.177163E+05  1.352445E+05
        10   9 -7.261642E+05 -3.781315E+06 -4.253678E+05 -1.445251E+06  2.451347E+05  1.669339E+05
        10  10  1.301742E+06  5.069394E+06  9.023486E+05 -1.477526E+06  1.243780E-09  3.829633E-09
        10  11  1.028762E+06  3.926455E+06  6.828871E+05 -1.369935E+06  6.047687E-09 -8.086550E-10
        10  12  7.782328E+05  2.799004E+06  5.129502E+05 -1.458539E+06  3.449363E-10 -5.612970E-09
        10  13  1.880080E+04 -5.000599E+05  4.226491E+04 -1.451919E+06  1.590846E-09  9.795136E-11
        10  14  1.555747E+04 -5.011736E+05  3.550507E+04 -1.353780E+06  5.705624E-09  2.401532E-10
        10  15  2.624362E+04 -4.966564E+05  4.378715E+04 -1.451907E+06  4.715659E-09  2.386307E-11
        10  16 -1.265645E+06 -6.038670E+06 -8.185257E+05 -1.426480E+06  1.347888E-09 -3.794816E-09
        10  17 -9.985530E+05 -4.909127E+06 -6.122147E+05 -1.337700E+06 -3.231453E-09  1.385193E-09
        10  18 -7.262363E+05 -3.781361E+06 -4.255338E+05 -1.445285E+06  7.824089E-10  5.415265E-09
        10  19  1.301889E+06  5.069435E+06  9.026107E+05 -1.477545E+06 -3.679235E+05  6.565344E+04
        10  20  1.028875E+06  3.926502E+06  6.831109E+05 -1.369969E+06 -3.188192E+05  1.335411E+05
        10  21  7.783091E+05  2.799064E+06  5.131405E+05 -1.458579E+06 -2.472566E+05  2.015412E+05
        10  22  1.894614E+04 -5.000232E+05  4.251982E+04 -1.451914E+06 -3.677945E+05 -1.922812E+04
        10  23  1.566621E+04 -5.011465E+05  3.569537E+04 -1.353780E+06 -3.182657E+05 -1.310387E+03
        10  24  2.630875E+04 -4.966399E+05  4.390151E+04 -1.451911E+06 -2.461957E+05  1.683622E+04
        10  25 -1.265497E+06 -6.038622E+06 -8.182511E+05 -1.426450E+06 -3.676715E+05 -1.033814E+05
        10  26 -9.984396E+05 -4.909080E+06 -6.119900E+05 -1.337665E+06 -3.177163E+05 -1.352445E+05
        10  27 -7.261642E+05 -3.781315E+06 -4.253678E+05 -1.445251E+06 -2.451347E+05 -1.669339E+05
        11   1  6.207060E+05  2.094555E+06  4.164623E+05 -1.461236E+06  1.978655E+05 -2.097237E+05
        11   2  3.967925E+05  9.496673E+05  2.897331E+05 -1.305141E+06  1.136182E+05 -2.586336E+05
        11   3  2.459742E+05 -1.709897E+05  2.125938E+05 -1.346819E+06  2.761852E+04 -3.075439E+05
        11   4  3.112741E+04 -4.921850E+05  5.277473E+04 -1.452281E+06  1.967065E+05 -2.447171E+04
        11   5  6.680653E+04 -5.026927E+05  8.760255E+04 -1.353044E+06  1.123760E+05 -6.961675E+04
        11   6  1.750018E+05 -4.910266E+05  1.693085E+05 -1.451502E+06  2.630055E+04 -1.148379E+05
        11   7 -5.587319E+05 -3.072086E+06 -3.108731E+05 -1.443348E+06  1.955493E+05  1.600442E+05
        11   8 -2.632438E+05 -1.952831E+06 -1.144181E+05 -1.400825E+06  1.111025E+05  1.189782E+05
        11   9  1.040867E+05 -8.108552E+05  1.261678E+05 -1.556130E+06  2.491709E+04  7.777328E+04
        11  10  6.206523E+05  2.094498E+06  4.163068E+05 -1.461202E+06  1.565579E-09  3.371357E-09
        11  11  3.967608E+05  9.495922E+05  2.895836E+05 -1.305118E+06  6.538525E-09  1.867980E-10
        11  12  2.459480E+05 -1.710915E+05  2.124147E+05 -1.346812E+06  3.767779E-09 -2.732735E-09
        11  13  3.108573E+04 -4.921960E+05  5.270096E+04 -1.452277E+06 -1.843411E-09  2.303967E-11
        11  14  6.679170E+04 -5.027013E+05  8.756980E+04 -1.353038E+06 -1.234854E-09 -2.467630E-10
        11  15  1.749975E+05 -4.910409E+05  1.692824E+05 -1.451500E+06  4.151296E-10 -1.351970E-10
        11  16 -5.587799E+05 -3.072124E+06 -3.109936E+05 -1.443373E+06 -9.355976E-10 -3.741386E-09
        11  17 -2.632609E+05 -1.952850E+06 -1.144682E+05 -1.400835E+06 -1.439816E-09 -9.057306E-10
        11  18  1.040844E+05 -8.108618E+05  1.261553E+05 -1.556131E+06 -1.106170E-09  2.953025E-09
        11  19  6.207060E+05  2.094555E+06  4.164623E+05 -1.461236E+06 -1.978655E+05  2.097237E+05
        11  20  3.967925E+05  9.496673E+05  2.897331E+05 -1.305141E+06 -1.136182E+05  2.586336E+05
        11  21  2.459742E+05 -1.709897E+05  2.125938E+05 -1.346819E+06 -2.761852E+04  3.075439E+05
        11  22  3.112741E+04 -4.921850E+05  5.277473E+04 -1.452281E+06 -1.967065E+05  2.447171E+04
        11  23  6.680653E+04 -5.026927E+05  8.760255E+04 -1.353044E+06 -1.123760E+05  6.961675E+04
        11  24  1.750018E+05 -4.910266E+05  1.693085E+05 -1.451502E+06 -2.630055E+04  1.148379E+05
        11  25 -5.587319E+05 -3.072086E+06 -3.108731E+05 -1.443348E+06 -1.955493E+05 -1.600442E+05
        11  26 -2.632438E+05 -1.952831E+06 -1.144181E+05 -1.400825E+06 -1.111025E+05 -1.189782E+05
        11  27  1.040867E+05 -8.108552E+05  1.261678E+05 -1.556130E+06 -2.491709E+04 -7.777328E+04
        12   1 -6.071501E+06 -1.803039E+06 -1.178849E+06 -2.106776E+06 -6.802708E+05 -2.514307E+05
        12   2 -5.861989E+06 -7.878385E+05 -5.345469E+05 -2.263284E+06 -4.380985E+05 -1.546503E+05
        12   3 -6.041031E+06 -8.533264E+05 -3.591772E+05 -2.190929E+06 -1.930847E+05 -6.542625E+04
        12   4 -5.788877E+06 -1.549112E+06 -1.071459E+06 -1.879158E+06 -6.778351E+05 -2.507224E+05
        12   5 -5.540165E+06 -6.274302E+05 -4.392187E+05 -2.136087E+06 -4.377840E+05 -1.545676E+05
        12   6 -5.679365E+06 -7.857258E+05 -2.740389E+05 -2.164230E+06 -1.948742E+05 -6.606851E+04
        12   7 -5.506121E+06 -1.295009E+06 -9.640692E+05 -1.651410E+06 -6.753982E+05 -2.500120E+05
        12   8 -5.218236E+06 -4.669907E+05 -3.439007E+05 -2.008823E+06 -4.374693E+05 -1.544847E+05
        12   9 -5.317563E+06 -7.181266E+05 -1.889061E+05 -2.137529E+06 -1.966647E+05 -6.671071E+04
        12  10 -6.072019E+06 -1.803233E+06 -1.179849E+06 -2.106915E+06  2.340381E-09 -2.427810E-10
        12  11 -5.862203E+06 -7.879167E+05 -5.349570E+05 -2.263339E+06 -1.468502E-09  4.673343E-10
        12  12 -6.041072E+06 -8.533412E+05 -3.592562E+05 -2.190939E+06  2.608130E-09  1.036413E-09
        12  13 -5.789392E+06 -1.549305E+06 -1.072451E+06 -1.879296E+06  2.066737E-09 -1.949079E-10
        12  14 -5.540379E+06 -6.275082E+05 -4.396280E+05 -2.136142E+06  1.027049E-09 -2.647025E-11
        12  15 -5.679407E+06 -7.857408E+05 -2.741193E+05 -2.164241E+06  1.293588E-09  1.196195E-09
        12  16 -5.506631E+06 -1.295200E+06 -9.650534E+05 -1.651546E+06 -2.938761E-11  1.685974E-12
        12  17 -5.218450E+06 -4.670685E+05 -3.443092E+05 -2.008878E+06 -1.001360E-09  3.892946E-10
        12  18 -5.317606E+06 -7.181420E+05 -1.889879E+05 -2.137539E+06 -2.808446E-09  1.492539E-09
        12  19 -6.071501E+06 -1.803039E+06 -1.178849E+06 -2.106776E+06  6.802708E+05  2.514307E+05
        12  20 -5.861989E+06 -7.878385E+05 -5.345469E+05 -2.263284E+06  4.380985E+05  1.546503E+05
        12  21 -6.041031E+06 -8.533264E+05 -3.591772E+05 -2.190929E+06  1.930847E+05  6.542625E+04
        12  22 -5.788877E+06 -1.549112E+06 -1.071459E+06 -1.879158E+06  6.778351E+05  2.507224E+05
        12  23 -5.540165E+06 -6.274302E+05 -4.392187E+05 -2.136087E+06  4.377840E+05  1.545676E+05
        12  24 -5.679365E+06 -7.857258E+05 -2.740389E+05 -2.164230E+06  1.948742E+05  6.606851E+04
        12  25 -5.506121E+06 -1.295009E+06 -9.640692E+05 -1.651410E+06  6.753982E+05  2.500120E+05
        12  26 -5.218236E+06 -4.669907E+05 -3.439007E+05 -2.008823E+06  4.374693E+05  1.544847E+05
        12  27 -5.317563E+06 -7.181266E+05 -1.889061E+05 -2.137529E+06  1.966647E+05  6.671071E+04
        13   1 -5.803186E+06 -9.906522E+05 -2.728352E+05 -2.162478E+06 -1.533589E+05 -5.299315E+04
        13   2 -5.747733E+06 -8.126785E+05 -1.367136E+05 -2.145292E+06 -9.814341E+04 -3.361159E+04
        13   3 -5.703931E+06 -8.265107E+05 -8.061636E+04 -2.148821E+06 -4.253124E+04 -1.527210E+04
        13   4 -5.641504E+06 -9.107131E+05 -2.250105E+05 -2.099231E+06 -1.535509E+05 -5.307087E+04
        13   5 -5.628263E+06 -7.629419E+05 -1.032311E+05 -2.108181E+06 -9.862443E+04 -3.379225E+04
        13   6 -5.626601E+06 -8.068992E+05 -6.122639E+04 -2.137848E+06 -4.330550E+04 -1.556034E+04
        13   7 -5.479796E+06 -8.307665E+05 -1.771883E+05 -2.035966E+06 -1.537429E+05 -5.314863E+04
        13   8 -5.508779E+06 -7.132037E+05 -6.975007E+04 -2.071063E+06 -9.910555E+04 -3.397296E+04
        13   9 -5.549265E+06 -7.872880E+05 -4.183688E+04 -2.126874E+06 -4.407986E+04 -1.584860E+04
        13  10 -5.803212E+06 -9.906616E+05 -2.728852E+05 -2.162485E+06  2.745748E-09  1.506902E-09
        13  11 -5.747743E+06 -8.126824E+05 -1.367340E+05 -2.145295E+06 -1.414105E-09  1.424671E-10
        13  12 -5.703933E+06 -8.265115E+05 -8.062024E+04 -2.148821E+06 -9.065791E-10 -8.332722E-10
        13  13 -5.641531E+06 -9.107226E+05 -2.250606E+05 -2.099237E+06  3.907925E-10  1.233967E-09
        13  14 -5.628274E+06 -7.629458E+05 -1.032518E+05 -2.108184E+06 -7.861763E-10  3.168044E-10
        13  15 -5.626603E+06 -8.069000E+05 -6.123041E+04 -2.137848E+06  5.303610E-10 -9.471196E-10
        13  16 -5.479823E+06 -8.307760E+05 -1.772386E+05 -2.035973E+06 -2.177852E-09  1.189445E-09
        13  17 -5.508790E+06 -7.132077E+05 -6.977090E+04 -2.071065E+06  1.048076E-09 -1.215471E-09
        13  18 -5.549267E+06 -7.872888E+05 -4.184105E+04 -2.126875E+06 -2.153874E-09 -1.678103E-10
        13  19 -5.803186E+06 -9.906522E+05 -2.728352E+05 -2.162478E+06  1.533589E+05  5.299315E+04
        13  20 -5.747733E+06 -8.126785E+05 -1.367136E+05 -2.145292E+06  9.814341E+04  3.361159E+04
        13  21 -5.703931E+06 -8.265107E+05 -8.061636E+04 -2.148821E+06  4.253124E+04  1.527210E+04
        13  22 -5.641504E+06 -9.107131E+05 -2.250105E+05 -2.099231E+06  1.535509E+05  5.307087E+04
        13  23 -5.628263E+06 -7.629419E+05 -1.032311E+05 -2.108181E+06  9.862443E+04  3.379225E+04
        13  24 -5.626601E+06 -8.068992E+05 -6.122639E+04 -2.137848E+06  4.330550E+04  1.556034E+04
        13  25 -5.479796E+06 -8.307665E+05 -1.771883E+05 -2.035966E+06  1.537429E+05  5.314863E+04
        13  26 -5.508779E+06 -7.132037E+05 -6.975007E+04 -2.071063E+06  9.910555E+04  3.397296E+04
        13  27 -5.549265E+06 -7.872880E+05 -4.183688E+04 -2.126874E+06  4.407986E+04  1.584860E+04
        14   1 -5.534192E+06 -7.925840E+05 -2.505782E+04 -2.107211E+06 -3.320411E+04 -1.340508E+04
        14   2 -5.502327E+06 -7.306092E+05  1.341240E+04 -2.068485E+06 -2.008600E+04 -1.077411E+04
        14   3 -5.430706E+06 -7.367263E+05  3.733284E+04 -2.081069E+06 -7.012410E+03 -8.017700E+03
        14   4 -5.621376E+06 -8.231626E+05 -4.856069E+04 -2.128341E+06 -3.379429E+04 -1.362560E+04
        14   5 -5.640242E+06 -7.821554E+05 -2.409781E+04 -2.105267E+06 -2.064154E+04 -1.098172E+04
        14   6 -5.619360E+06 -8.092498E+05 -1.421251E+04 -2.133503E+06 -7.534455E+03 -8.212902E+03
        14   7 -5.708552E+06 -8.537412E+05 -7.206432E+04 -2.149468E+06 -3.438438E+04 -1.384609E+04
        14   8 -5.778139E+06 -8.337007E+05 -6.160985E+04 -2.142041E+06 -2.119695E+04 -1.118929E+04
        14   9 -5.807980E+06 -8.817711E+05 -6.576122E+04 -2.185924E+06 -8.056324E+03 -8.408035E+03
        14  10 -5.534193E+06 -7.925845E+05 -2.506026E+04 -2.107211E+06 -1.471860E-09  8.720912E-10
        14  11 -5.502328E+06 -7.306095E+05  1.341141E+04 -2.068485E+06 -3.245101E-09  3.570278E-10
        14  12 -5.430706E+06 -7.367264E+05  3.733262E+04 -2.081069E+06 -2.394368E-09  5.277284E-10
        14  13 -5.621377E+06 -8.231631E+05 -4.856321E+04 -2.128341E+06 -6.549444E-10 -3.516821E-10
        14  14 -5.640243E+06 -7.821556E+05 -2.409885E+04 -2.105267E+06 -3.684208E-10  2.605417E-09
        14  15 -5.619360E+06 -8.092499E+05 -1.421275E+04 -2.133504E+06 -1.597200E-09  4.874240E-10
        14  16 -5.708554E+06 -8.537417E+05 -7.206693E+04 -2.149469E+06 -3.959384E-09  5.809552E-11
        14  17 -5.778139E+06 -8.337010E+05 -6.161094E+04 -2.142041E+06 -8.008312E-09  1.402239E-09
        14  18 -5.807980E+06 -8.817712E+05 -6.576148E+04 -2.185924E+06 -1.819046E-09 -2.447311E-10
        14  19 -5.534192E+06 -7.925840E+05 -2.505782E+04 -2.107211E+06  3.320411E+04  1.340508E+04
        14  20 -5.502327E+06 -7.306092E+05  1.341240E+04 -2.068485E+06  2.008600E+04  1.077411E+04
        14  21 -5.430706E+06 -7.367263E+05  3.733284E+04 -2.081069E+06  7.012410E+03  8.017700E+03
        14  22 -5.621376E+06 -8.231626E+05 -4.856069E+04 -2.128341E+06  3.379429E+04  1.362560E+04
        14  23 -5.640242E+06 -7.821554E+05 -2.409781E+04 -2.105267E+06  2.064154E+04  1.098172E+04
        14  24 -5.619360E+06 -8.092498E+05 -1.421251E+04 -2.133503E+06  7.534455E+03  8.212902E+03
        14  25 -5.708552E+06 -8.537412E+05 -7.206432E+04 -2.149468E+06  3.438438E+04  1.384609E+04
        14  26 -5.778139E+06 -8.337007E+05 -6.160985E+04 -2.142041E+06  2.119695E+04  1.118929E+04
        14  27 -5.807980E+06 -8.817711E+05 -6.576122E+04 -2.185924E+06  8.056324E+03  8.408035E+03
        15   1 -5.298114E+06 -6.865568E+05  7.703372E+04 -2.041623E+06 -4.452666E+03 -8.339363E+03
        15   2 -5.277621E+06 -6.522086E+05  9.166257E+04 -2.011489E+06 -5.744933E+02 -8.830044E+03
        15   3 -5.222899E+06 -6.560135E+05  1.031820E+05 -2.021072E+06  3.095565E+03 -8.758622E+03
        15   4 -5.621427E+06 -8.083449E+05 -1.126428E+04 -2.128796E+06 -5.024774E+03 -8.553551E+03
        15   5 -5.638412E+06 -7.884945E+05 -6.732288E+03 -2.109217E+06 -9.854223E+02 -8.984271E+03
        15   6 -5.621201E+06 -8.068321E+05 -5.439450E+03 -2.129355E+06  2.845549E+03 -8.852809E+03
        15   7 -5.944639E+06 -9.301268E+05 -9.957152E+04 -2.215927E+06 -5.596549E+03 -8.767615E+03
        15   8 -5.999077E+06 -9.247730E+05 -1.051389E+05 -2.206892E+06 -1.396085E+03 -9.138399E+03
        15   9 -6.019351E+06 -9.576417E+05 -1.140754E+05 -2.237575E+06  2.595710E+03 -8.946928E+03
        15  10 -5.298114E+06 -6.865569E+05  7.703355E+04 -2.041623E+06 -2.259754E-09 -1.080549E-09
        15  11 -5.277621E+06 -6.522086E+05  9.166242E+04 -2.011489E+06 -6.802759E-09 -7.984861E-10
        15  12 -5.222899E+06 -6.560136E+05  1.031818E+05 -2.021072E+06 -3.173102E-11 -2.084888E-09
        15  13 -5.621427E+06 -8.083450E+05 -1.126447E+04 -2.128796E+06  6.616039E-10 -5.050836E-10
        15  14 -5.638412E+06 -7.884946E+05 -6.732442E+03 -2.109217E+06  1.712678E-09 -1.204382E-09
        15  15 -5.621201E+06 -8.068322E+05 -5.439612E+03 -2.129355E+06 -8.032873E-10 -2.495933E-09
        15  16 -5.944639E+06 -9.301269E+05 -9.957172E+04 -2.215927E+06  9.022642E-10 -1.979319E-09
        15  17 -5.999077E+06 -9.247731E+05 -1.051390E+05 -2.206892E+06  1.036688E-09  1.840716E-09
        15  18 -6.019351E+06 -9.576418E+05 -1.140756E+05 -2.237575E+06  2.663401E-09 -2.440427E-09
        15  19 -5.298114E+06 -6.865568E+05  7.703372E+04 -2.041623E+06  4.452666E+03  8.339363E+03
        15  20 -5.277621E+06 -6.522086E+05  9.166257E+04 -2.011489E+06  5.744933E+02  8.830044E+03
        15  21 -5.222899E+06 -6.560135E+05  1.031820E+05 -2.021072E+06 -3.095565E+03  8.758622E+03
        15  22 -5.621427E+06 -8.083449E+05 -1.126428E+04 -2.128796E+06  5.024774E+03  8.553551E+03
        15  23 -5.638412E+06 -7.884945E+05 -6.732288E+03 -2.109217E+06  9.854223E+02  8.984271E+03
        15  24 -5.621201E+06 -8.068321E+05 -5.439450E+03 -2.129355E+06 -2.845549E+03  8.852809E+03
        15  25 -5.944639E+06 -9.301268E+05 -9.957152E+04 -2.215927E+06  5.596549E+03  8.767615E+03
        15  26 -5.999077E+06 -9.247730E+05 -1.051389E+05 -2.206892E+06  1.396085E+03  9.138399E+03
        15  27 -6.019351E+06 -9.576417E+05 -1.140754E+05 -2.237575E+06 -2.595710E+03  8.946928E+03
        16   1 -5.151578E+06 -6.223621E+05  1.241459E+05 -1.994934E+06  4.339248E+03 -9.012600E+03
        16   2 -5.144597E+06 -6.101327E+05  1.262501E+05 -1.983859E+06  7.896039E+03 -8.692018E+03
        16   3 -5.125716E+06 -6.132371E+05  1.253589E+05 -1.986212E+06  1.116256E+04 -7.596383E+03
        16   4 -5.626179E+06 -8.017110E+05 -5.420452E+03 -2.123543E+06  3.968943E+03 -9.152137E+03
        16   5 -5.632232E+06 -7.948710E+05 -6.834587E+03 -2.116511E+06  7.747945E+03 -8.748344E+03
        16   6 -5.626430E+06 -8.034115E+05 -1.142352E+04 -2.122907E+06  1.123650E+04 -7.569232E+03
        16   7 -6.100562E+06 -9.810468E+05 -1.350070E+05 -2.252063E+06  3.598953E+03 -9.291556E+03
        16   8 -6.119637E+06 -9.795955E+05 -1.399409E+05 -2.249069E+06  7.599980E+03 -8.804622E+03
        16   9 -6.126903E+06 -9.935713E+05 -1.482290E+05 -2.259503E+06  1.131037E+04 -7.542107E+03
        16  10 -5.151578E+06 -6.223622E+05  1.241457E+05 -1.994934E+06  3.687202E-09 -2.039412E-09
        16  11 -5.144597E+06 -6.101328E+05  1.262499E+05 -1.983859E+06  6.991683E-10  1.623735E-09
        16  12 -5.125716E+06 -6.132372E+05  1.253585E+05 -1.986211E+06  1.071822E-09  5.802508E-10
        16  13 -5.626179E+06 -8.017111E+05 -5.420638E+03 -2.123543E+06 -8.152945E-10 -3.038214E-09
        16  14 -5.632232E+06 -7.948711E+05 -6.834843E+03 -2.116511E+06 -1.853905E-10 -9.101650E-10
        16  15 -5.626430E+06 -8.034116E+05 -1.142387E+04 -2.122907E+06  1.101165E-09  1.839429E-09
        16  16 -6.100562E+06 -9.810469E+05 -1.350072E+05 -2.252063E+06 -4.567555E-09 -2.798430E-09
        16  17 -6.119637E+06 -9.795956E+05 -1.399412E+05 -2.249069E+06 -2.401653E-09  8.050526E-11
        16  18 -6.126903E+06 -9.935714E+05 -1.482293E+05 -2.259503E+06  4.032210E-11  1.674894E-09
        16  19 -5.151578E+06 -6.223621E+05  1.241459E+05 -1.994934E+06 -4.339248E+03  9.012600E+03
        16  20 -5.144597E+06 -6.101327E+05  1.262501E+05 -1.983859E+06 -7.896039E+03  8.692018E+03
        16  21 -5.125716E+06 -6.132371E+05  1.253589E+05 -1.986212E+06 -1.116256E+04  7.596383E+03
        16  22 -5.626179E+06 -8.017110E+05 -5.420452E+03 -2.123543E+06 -3.968943E+03  9.152137E+03
        16  23 -5.632232E+06 -7.948710E+05 -6.834587E+03 -2.116511E+06 -7.747945E+03  8.748344E+03
        16  24 -5.626430E+06 -8.034115E+05 -1.142352E+04 -2.122907E+06 -1.123650E+04  7.569232E+03
        16  25 -6.100562E+06 -9.810468E+05 -1.350070E+05 -2.252063E+06 -3.598953E+03  9.291556E+03
        16  26 -6.119637E+06 -9.795955E+05 -1.399409E+05 -2.249069E+06 -7.599980E+03  8.804622E+03
        16  27 -6.126903E+06 -9.935713E+05 -1.482290E+05 -2.259503E+06 -1.131037E+04  7.542107E+03
        17   1 -5.133017E+06 -6.070631E+05  1.218980E+05 -1.982648E+06  1.340678E+04 -6.731057E+03
        17   2 -5.139205E+06 -6.152086E+05  1.077281E+05 -1.992525E+06  2.573681E+04 -1.879259E+03
        17   3 -5.167282E+06 -6.291543E+05  7.912245E+04 -1.981842E+06  3.777070E+04  3.752382E+03
        17   4 -5.633094E+06 -7.954264E+05 -1.439550E+04 -2.117565E+06  1.333998E+04 -6.756890E+03
        17   5 -5.623170E+06 -7.995524E+05 -2.455309E+04 -2.125197E+06  2.588682E+04 -1.823295E+03
        17   6 -5.635187E+06 -8.095315E+05 -4.932798E+04 -2.112266E+06  3.813773E+04  3.890463E+03
        17   7 -6.132929E+06 -9.837759E+05 -1.507117E+05 -2.252385E+06  1.327324E+04 -6.782702E+03
        17   8 -6.106908E+06 -9.838819E+05 -1.568555E+05 -2.257775E+06  2.603668E+04 -1.767382E+03
        17   9 -6.102878E+06 -9.898939E+05 -1.777983E+05 -2.242600E+06  3.850445E+04  4.028419E+03
        17  10 -5.133017E+06 -6.070632E+05  1.218976E+05 -1.982647E+06  1.165188E-09  1.415134E-09
        17  11 -5.139206E+06 -6.152087E+05  1.077269E+05 -1.992525E+06  3.163129E-09  1.852528E-09
        17  12 -5.167284E+06 -6.291547E+05  7.911972E+04 -1.981842E+06 -2.064243E-09 -1.406423E-10
        17  13 -5.633094E+06 -7.954265E+05 -1.439592E+04 -2.117565E+06 -2.478492E-09  1.922141E-09
        17  14 -5.623171E+06 -7.995526E+05 -2.455437E+04 -2.125197E+06 -5.925710E-09 -6.249910E-10
        17  15 -5.635188E+06 -8.095320E+05 -4.933077E+04 -2.112266E+06 -2.927434E-09  1.517425E-09
        17  16 -6.132929E+06 -9.837760E+05 -1.507121E+05 -2.252385E+06 -5.430430E-09  1.905395E-09
        17  17 -6.106909E+06 -9.838821E+05 -1.568568E+05 -2.257775E+06 -1.081263E-09 -7.761425E-10
        17  18 -6.102880E+06 -9.898943E+05 -1.778012E+05 -2.242600E+06  5.352531E-09  1.479122E-09
        17  19 -5.133017E+06 -6.070631E+05  1.218980E+05 -1.982648E+06 -1.340678E+04  6.731057E+03
        17  20 -5.139205E+06 -6.152086E+05  1.077281E+05 -1.992525E+06 -2.573681E+04  1.879259E+03
        17  21 -5.167282E+06 -6.291543E+05  7.912245E+04 -1.981842E+06 -3.777070E+04 -3.752382E+03
        17  22 -5.633094E+06 -7.954264E+05 -1.439550E+04 -2.117565E+06 -1.333998E+04  6.756890E+03
        17  23 -5.623170E+06 -7.995524E+05 -2.455309E+04 -2.125197E+06 -2.588682E+04  1.823295E+03
        17  24 -5.635187E+06 -8.095315E+05 -4.932798E+04 -2.112266E+06 -3.813773E+04 -3.890463E+03
        17  25 -6.132929E+06 -9.837759E+05 -1.507117E+05 -2.252385E+06 -1.327324E+04  6.782702E+03
        17  26 -6.106908E+06 -9.838819E+05 -1.568555E+05 -2.257775E+06 -2.603668E+04  1.767382E+03
        17  27 -6.102878E+06 -9.898939E+05 -1.777983E+05 -2.242600E+06 -3.850445E+04 -4.028419E+03
        18   1 -5.247772E+06 -6.464941E+05  4.445405E+04 -2.017375E+06  4.674608E+04  7.908727E+03
        18   2 -5.255854E+06 -6.488835E+05 -8.760107E+03 -2.035031E+06  1.014850E+05  3.002420E+04
        18   3 -5.361886E+06 -7.593617E+05 -1.428273E+05 -1.974664E+06  1.559881E+05  5.274301E+04
        18   4 -5.645633E+06 -7.879983E+05 -6.223580E+04 -2.116229E+06  4.699217E+04  8.002319E+03
        18   5 -5.604392E+06 -7.864152E+05 -1.049788E+05 -2.135420E+06  1.018760E+05  3.017108E+04
        18   6 -5.661162E+06 -8.929978E+05 -2.287220E+05 -2.076578E+06  1.565287E+05  5.294186E+04
        18   7 -6.043341E+06 -9.294981E+05 -1.689397E+05 -2.215027E+06  4.723807E+04  8.095851E+03
        18   8 -5.952813E+06 -9.239372E+05 -2.012089E+05 -2.235758E+06  1.022667E+05  3.031786E+04
        18   9 -5.960349E+06 -1.026618E+06 -3.146255E+05 -2.178443E+06  1.570691E+05  5.314055E+04
        18  10 -5.247774E+06 -6.464948E+05  4.444979E+04 -2.017375E+06  2.063874E-09  2.216557E-09
        18  11 -5.255865E+06 -6.488873E+05 -8.781360E+03 -2.035033E+06 -5.208716E-10 -2.044214E-09
        18  12 -5.361913E+06 -7.593713E+05 -1.428787E+05 -1.974670E+06 -1.489634E-09 -3.892698E-09
        18  13 -5.645635E+06 -7.879989E+05 -6.224011E+04 -2.116229E+06  1.842540E-09  9.100633E-10
        18  14 -5.604403E+06 -7.864190E+05 -1.050002E+05 -2.135423E+06 -3.161310E-10 -1.510691E-09
        18  15 -5.661189E+06 -8.930075E+05 -2.287738E+05 -2.076584E+06  2.251614E-09 -2.141919E-09
        18  16 -6.043343E+06 -9.294988E+05 -1.689440E+05 -2.215028E+06  1.181320E-09  1.015608E-09
        18  17 -5.952824E+06 -9.239410E+05 -2.012305E+05 -2.235760E+06  1.546885E-09 -1.327151E-09
        18  18 -5.960377E+06 -1.026628E+06 -3.146777E+05 -2.178450E+06 -1.432075E-09  5.982314E-10
        18  19 -5.247772E+06 -6.464941E+05  4.445405E+04 -2.017375E+06 -4.674608E+04 -7.908727E+03
        18  20 -5.255854E+06 -6.488835E+05 -8.760107E+03 -2.035031E+06 -1.014850E+05 -3.002420E+04
        18  21 -5.361886E+06 -7.593617E+05 -1.428273E+05 -1.974664E+06 -1.559881E+05 -5.274301E+04
        18  22 -5.645633E+06 -7.879983E+05 -6.223580E+04 -2.116229E+06 -4.699217E+04 -8.002319E+03
        18  23 -5.604392E+06 -7.864152E+05 -1.049788E+05 -2.135420E+06 -1.018760E+05 -3.017108E+04
        18  24 -5.661162E+06 -8.929978E+05 -2.287220E+05 -2.076578E+06 -1.565287E+05 -5.294186E+04
        18  25 -6.043341E+06 -9.294981E+05 -1.689397E+05 -2.215027E+06 -4.723807E+04 -8.095851E+03
        18  26 -5.952813E+06 -9.239372E+05 -2.012089E+05 -2.235758E+06 -1.022667E+05 -3.031786E+04
        18  27 -5.960349E+06 -1.026618E+06 -3.146255E+05 -2.178443E+06 -1.570691E+05 -5.314055E+04
        19   1 -5.469198E+06 -7.502565E+05 -2.300020E+05 -2.152665E+06  1.967222E+05  6.949544E+04
        19   2 -5.417233E+06 -5.716679E+05 -4.120056E+05 -2.096579E+06  4.416399E+05  1.647654E+05
        19   3 -5.848726E+06 -1.402307E+06 -1.068878E+06 -1.707266E+06  6.864200E+05  2.603683E+05
        19   4 -5.699111E+06 -7.667533E+05 -2.786284E+05 -2.143585E+06  1.972056E+05  6.970702E+04
        19   5 -5.514315E+06 -6.487259E+05 -4.464835E+05 -2.163835E+06  4.421675E+05  1.649300E+05
        19   6 -5.813089E+06 -1.540072E+06 -1.089287E+06 -1.850793E+06  6.870506E+05  2.603973E+05
        19   7 -5.928963E+06 -7.832430E+05 -3.272544E+05 -2.134514E+06  1.976887E+05  6.991868E+04
        19   8 -5.611384E+06 -7.257692E+05 -4.809618E+05 -2.231079E+06  4.426950E+05  1.650944E+05
        19   9 -5.777397E+06 -1.677723E+06 -1.109681E+06 -1.994315E+06  6.876813E+05  2.604259E+05
        19  10 -5.469241E+06 -7.502723E+05 -2.300846E+05 -2.152676E+06 -3.940194E-09 -1.387968E-09
        19  11 -5.417452E+06 -5.717504E+05 -4.124274E+05 -2.096638E+06 -1.656643E-09  2.957103E-09
        19  12 -5.849255E+06 -1.402509E+06 -1.069902E+06 -1.707411E+06 -7.927031E-10  9.723363E-10
        19  13 -5.699155E+06 -7.667691E+05 -2.787115E+05 -2.143596E+06 -2.174169E-09 -1.971237E-10
        19  14 -5.514534E+06 -6.488085E+05 -4.469064E+05 -2.163894E+06 -6.333034E-09  6.397106E-09
        19  15 -5.813619E+06 -1.540273E+06 -1.090312E+06 -1.850938E+06  3.287589E-09 -4.072592E-10
        19  16 -5.929007E+06 -7.832589E+05 -3.273379E+05 -2.134525E+06 -1.103214E-09  2.663473E-09
        19  17 -5.611603E+06 -7.258521E+05 -4.813858E+05 -2.231138E+06  8.441264E-10 -1.801108E-10
        19  18 -5.777928E+06 -1.677925E+06 -1.110708E+06 -1.994460E+06 -1.625295E-09 -8.796270E-10
        19  19 -5.469198E+06 -7.502565E+05 -2.300020E+05 -2.152665E+06 -1.967222E+05 -6.949544E+04
        19  20 -5.417233E+06 -5.716679E+05 -4.120056E+05 -2.096579E+06 -4.416399E+05 -1.647654E+05
        19  21 -5.848726E+06 -1.402307E+06 -1.068878E+06 -1.707266E+06 -6.864200E+05 -2.603683E+05
        19  22 -5.699111E+06 -7.667533E+05 -2.786284E+05 -2.143585E+06 -1.972056E+05 -6.970702E+04
        19  23 -5.514315E+06 -6.487259E+05 -4.464835E+05 -2.163835E+06 -4.421675E+05 -1.649300E+05
        19  24 -5.813089E+06 -1.540072E+06 -1.089287E+06 -1.850793E+06 -6.870506E+05 -2.603973E+05
        19  25 -5.928963E+06 -7.832430E+05 -3.272544E+05 -2.134514E+06 -1.976887E+05 -6.991868E+04
        19  26 -5.611384E+06 -7.257692E+05 -4.809618E+05 -2.231079E+06 -4.426950E+05 -1.650944E+05
        19  27 -5.777397E+06 -1.677723E+06 -1.109681E+06 -1.994315E+06 -6.876813E+05 -2.604259E+05
        20   1 -2.395627E+06  1.525792E+04  1.986378E+04  2.008362E+03  1.353615E+04  4.395137E-02
        20   2 -2.398641E+06 -3.439554E+03  8.491957E+03  5.160408E+02  8.901994E+03  7.426902E-03
        20   3 -2.395647E+06 -5.435325E+02  5.544315E+03 -9.762522E+02  4.267897E+03 -6.736123E-03
        20   4 -2.395627E+06  1.525791E+04  1.986378E+04  1.976230E-12  1.353615E+04 -1.177119E-10
        20   5 -2.398641E+06 -3.439554E+03  8.491957E+03  2.915685E-08  8.901994E+03  6.074852E-10
        20   6 -2.395647E+06 -5.435343E+02  5.544314E+03  1.096652E-08  4.267897E+03  8.621704E-10
        20   7 -2.395627E+06  1.525792E+04  1.986378E+04 -2.008362E+03  1.353615E+04 -4.395137E-02
        20   8 -2.398641E+06 -3.439554E+03  8.491957E+03 -5.160408E+02  8.901994E+03 -7.426902E-03
        20   9 -2.395647E+06 -5.435325E+02  5.544315E+03  9.762522E+02  4.267897E+03  6.736125E-03
        20  10 -2.395627E+06  1.525787E+04  1.986343E+04  2.008362E+03  1.791493E-09  4.426170E-10
        20  11 -2.398642E+06 -3.439575E+03  8.491808E+03  5.160408E+02 -8.047741E-10  1.423570E-09
        20  12 -2.395647E+06 -5.435375E+02  5.544280E+03 -9.762522E+02  2.720918E-10 -3.291951E-10
        20  13 -2.395627E+06  1.525786E+04  1.986343E+04 -3.441966E-08  2.169356E-10  3.380710E-10
        20  14 -2.398642E+06 -3.439576E+03  8.491808E+03  4.637061E-08  1.075941E-09  5.996255E-10
        20  15 -2.395647E+06 -5.435393E+02  5.544280E+03 -3.638232E-08 -4.363503E-09  2.990200E-10
        20  16 -2.395627E+06  1.525787E+04  1.986343E+04 -2.008362E+03 -2.897699E-09  6.368507E-10
        20  17 -2.398642E+06 -3.439575E+03  8.491808E+03 -5.160408E+02 -1.396979E-09  1.545553E-09
        20  18 -2.395647E+06 -5.435375E+02  5.544280E+03  9.762522E+02  1.111229E-09  3.319857E-10
        20  19 -2.395627E+06  1.525792E+04  1.986378E+04  2.008362E+03 -1.353615E+04 -4.395137E-02
        20  20 -2.398641E+06 -3.439554E+03  8.491957E+03  5.160408E+02 -8.901994E+03 -7.426898E-03
        20  21 -2.395647E+06 -5.435325E+02  5.544315E+03 -9.762522E+02 -4.267897E+03  6.736125E-03
        20  22 -2.395627E+06  1.525791E+04  1.986378E+04  1.724743E-08 -1.353615E+04  6.260114E-10
        20  23 -2.398641E+06 -3.439554E+03  8.491957E+03 -6.552621E-08 -8.901994E+03  8.123044E-10
        20  24 -2.395647E+06 -5.435343E+02  5.544314E+03 -4.113833E-09 -4.267897E+03 -4.486373E-10
        20  25 -2.395627E+06  1.525792E+04  1.986378E+04 -2.008362E+03 -1.353615E+04  4.395137E-02
        20  26 -2.398641E+06 -3.439554E+03  8.491957E+03 -5.160408E+02 -8.901994E+03  7.426901E-03
        20  27 -2.395647E+06 -5.435325E+02  5.544315E+03  9.762522E+02 -4.267897E+03 -6.736127E-03
        21   1 -2.396767E+06  2.250549E+03  4.579802E+03  2.816825E+02  3.357723E+03  1.529114E-03
        21   2 -2.397242E+06 -5.085445E+02  2.187555E+03  6.707299E+01  2.212742E+03  2.399449E-04
        21   3 -2.396770E+06 -7.890077E+01  1.340111E+03 -1.475397E+02  1.067743E+03 -2.546858E-04
        21   4 -2.396767E+06  2.250549E+03  4.579802E+03 -2.976238E-08  3.357723E+03 -2.197277E-10
        21   5 -2.397242E+06 -5.085445E+02  2.187555E+03 -7.123006E-08  2.212742E+03 -1.414532E-09
        21   6 -2.396770E+06 -7.890081E+01  1.340111E+03  9.388329E-08  1.067743E+03 -2.880226E-10
        21   7 -2.396767E+06  2.250549E+03  4.579802E+03 -2.816825E+02  3.357723E+03 -1.529114E-03
        21   8 -2.397242E+06 -5.085445E+02  2.187555E+03 -6.707299E+01  2.212742E+03 -2.399501E-04
        21   9 -2.396770E+06 -7.890077E+01  1.340111E+03  1.475397E+02  1.067743E+03  2.546887E-04
        21  10 -2.396767E+06  2.250546E+03  4.579781E+03  2.816825E+02 -3.127038E-09  1.748161E-10
        21  11 -2.397242E+06 -5.085458E+02  2.187545E+03  6.707299E+01 -3.390364E-09 -2.023311E-10
        21  12 -2.396770E+06 -7.890107E+01  1.340109E+03 -1.475397E+02  2.685483E-09 -4.975762E-10
        21  13 -2.396767E+06  2.250546E+03  4.579781E+03 -6.421166E-08 -3.769488E-09 -2.712973E-10
        21  14 -2.397242E+06 -5.085458E+02  2.187545E+03 -2.372002E-09  2.089581E-10 -8.117242E-10
        21  15 -2.396770E+06 -7.890112E+01  1.340109E+03  1.326352E-07  1.213673E-10 -2.955943E-10
        21  16 -2.396767E+06  2.250546E+03  4.579781E+03 -2.816825E+02  1.513133E-09 -1.253891E-09
        21  17 -2.397242E+06 -5.085458E+02  2.187545E+03 -6.707299E+01  9.675632E-10 -8.804442E-10
        21  18 -2.396770E+06 -7.890107E+01  1.340109E+03  1.475397E+02 -2.237989E-09  1.605158E-10
        21  19 -2.396767E+06  2.250549E+03  4.579802E+03  2.816825E+02 -3.357723E+03 -1.529115E-03
        21  20 -2.397242E+06 -5.085445E+02  2.187555E+03  6.707299E+01 -2.212742E+03 -2.399444E-04
        21  21 -2.396770E+06 -7.890077E+01  1.340111E+03 -1.475397E+02 -1.067743E+03  2.546888E-04
        21  22 -2.396767E+06  2.250549E+03  4.579802E+03  5.628133E-08 -3.357723E+03 -9.809960E-10
        21  23 -2.397242E+06 -5.085445E+02  2.187555E+03  2.345246E-08 -2.212742E+03 -2.077568E-10
        21  24 -2.396770E+06 -7.890081E+01  1.340111E+03  5.949018E-08 -1.067743E+03 -1.689230E-10
        21  25 -2.396767E+06  2.250549E+03  4.579802E+03 -2.816825E+02 -3.357723E+03  1.529110E-03
        21  26 -2.397242E+06 -5.085445E+02  2.187555E+03 -6.707299E+01 -2.212742E+03  2.399460E-04
        21  27 -2.396770E+06 -7.890077E+01  1.340111E+03  1.475397E+02 -1.067743E+03 -2.546912E-04
        22   1 -2.396947E+06  3.300872E+02  1.059800E+03  3.721885E+01  8.515251E+02  5.123901E-05
        22   2 -2.397022E+06 -7.374244E+01  5.125791E+02  7.361560E+00  5.891055E+02  7.011672E-06
        22   3 -2.396948E+06 -1.599012E+01  2.520970E+02 -2.249573E+01  3.266860E+02 -1.187891E-05
        22   4 -2.396947E+06  3.300872E+02  1.059800E+03  4.416741E-08  8.515251E+02  1.333773E-10
        22   5 -2.397022E+06 -7.374244E+01  5.125791E+02 -5.512499E-08  5.891055E+02 -1.278502E-10
        22   6 -2.396948E+06 -1.599013E+01  2.520970E+02  6.968378E-09  3.266860E+02  4.896113E-10
        22   7 -2.396947E+06  3.300872E+02  1.059800E+03 -3.721885E+01  8.515251E+02 -5.123853E-05
        22   8 -2.397022E+06 -7.374244E+01  5.125791E+02 -7.361560E+00  5.891055E+02 -7.014304E-06
        22   9 -2.396948E+06 -1.599012E+01  2.520970E+02  2.249573E+01  3.266860E+02  1.188298E-05
        22  10 -2.396947E+06  3.300870E+02  1.059799E+03  3.721884E+01  3.050670E-09  4.558695E-10
        22  11 -2.397022E+06 -7.374254E+01  5.125785E+02  7.361560E+00  4.878553E-11  1.286241E-10
        22  12 -2.396948E+06 -1.599015E+01  2.520968E+02 -2.249573E+01  2.478313E-09 -2.786659E-10
        22  13 -2.396947E+06  3.300870E+02  1.059799E+03  9.747517E-09  3.359043E-11  1.954379E-10
        22  14 -2.397022E+06 -7.374254E+01  5.125785E+02 -6.373297E-08 -2.577696E-09  3.710253E-10
        22  15 -2.396948E+06 -1.599015E+01  2.520968E+02  5.080551E-10  5.902433E-10 -3.154513E-10
        22  16 -2.396947E+06  3.300870E+02  1.059799E+03 -3.721885E+01 -2.032702E-09  1.013606E-09
        22  17 -2.397022E+06 -7.374254E+01  5.125785E+02 -7.361560E+00  2.641049E-09  8.321990E-10
        22  18 -2.396948E+06 -1.599015E+01  2.520968E+02  2.249573E+01  2.153254E-09 -6.211176E-10
        22  19 -2.396947E+06  3.300872E+02  1.059800E+03  3.721885E+01 -8.515251E+02 -5.123841E-05
        22  20 -2.397022E+06 -7.374244E+01  5.125791E+02  7.361560E+00 -5.891055E+02 -7.009339E-06
        22  21 -2.396948E+06 -1.599012E+01  2.520970E+02 -2.249573E+01 -3.266860E+02  1.187980E-05
        22  22 -2.396947E+06  3.300872E+02  1.059800E+03  2.695720E-08 -8.515251E+02 -7.372805E-11
        22  23 -2.397022E+06 -7.374244E+01  5.125791E+02  2.233851E-08 -5.891055E+02  4.768692E-10
        22  24 -2.396948E+06 -1.599013E+01  2.520970E+02 -2.317035E-08 -3.266860E+02 -1.511089E-09
        22  25 -2.396947E+06  3.300872E+02  1.059800E+03 -3.721884E+01 -8.515251E+02  5.123943E-05
        22  26 -2.397022E+06 -7.374244E+01  5.125791E+02 -7.361560E+00 -5.891055E+02  7.011783E-06
        22  27 -2.396948E+06 -1.599012E+01  2.520970E+02  2.249573E+01 -3.266860E+02 -1.188363E-05
        23   1 -2.396980E+06  4.885123E+01  1.535118E+02  1.639491E+00  2.901124E+02  7.696484E-07
        23   2 -2.396981E+06 -2.565698E+00 -4.568825E+01  1.899252E-01  3.123220E+02  9.536009E-08
        23   3 -2.396981E+06 -3.765909E+01 -2.553102E+02 -1.259619E+00  3.345312E+02 -6.803399E-07
        23   4 -2.396980E+06  4.885123E+01  1.535118E+02 -3.703795E-08  2.901124E+02  4.077279E-10
        23   5 -2.396981E+06 -2.565698E+00 -4.568825E+01  4.466631E-08  3.123220E+02  4.150596E-10
        23   6 -2.396981E+06 -3.765909E+01 -2.553102E+02  6.396802E-08  3.345312E+02 -3.101828E-10
        23   7 -2.396980E+06  4.885123E+01  1.535118E+02 -1.639490E+00  2.901124E+02 -7.670469E-07
        23   8 -2.396981E+06 -2.565698E+00 -4.568825E+01 -1.899249E-01  3.123220E+02 -9.623129E-08
        23   9 -2.396981E+06 -3.765909E+01 -2.553102E+02  1.259619E+00  3.345312E+02  6.802168E-07
        23  10 -2.396980E+06  4.885121E+01  1.535116E+02  1.639490E+00 -7.642583E-11 -5.005638E-10
        23  11 -2.396981E+06 -2.565724E+00 -4.568844E+01  1.899250E-01  2.773785E-09  1.255963E-09
        23  12 -2.396981E+06 -3.765912E+01 -2.553104E+02 -1.259619E+00 -3.486807E-10 -1.434953E-10
        23  13 -2.396980E+06  4.885121E+01  1.535116E+02 -3.702535E-08  1.684895E-09 -1.496250E-10
        23  14 -2.396981E+06 -2.565724E+00 -4.568844E+01  5.327168E-08  1.509311E-09  8.553635E-10
        23  15 -2.396981E+06 -3.765912E+01 -2.553104E+02  3.167375E-08  9.134176E-10  1.916335E-10
        23  16 -2.396980E+06  4.885121E+01  1.535116E+02 -1.639491E+00  1.905369E-09 -7.412386E-10
        23  17 -2.396981E+06 -2.565724E+00 -4.568844E+01 -1.899247E-01  8.873929E-10  4.567373E-10
        23  18 -2.396981E+06 -3.765912E+01 -2.553104E+02  1.259619E+00 -1.701312E-09 -5.862526E-10
        23  19 -2.396980E+06  4.885123E+01  1.535118E+02  1.639490E+00 -2.901124E+02 -7.701732E-07
        23  20 -2.396981E+06 -2.565698E+00 -4.568825E+01  1.899252E-01 -3.123220E+02 -9.326418E-08
        23  21 -2.396981E+06 -3.765909E+01 -2.553102E+02 -1.259619E+00 -3.345312E+02  6.817369E-07
        23  22 -2.396980E+06  4.885123E+01  1.535118E+02 -1.978943E-08 -2.901124E+02 -8.373369E-10
        23  23 -2.396981E+06 -2.565698E+00 -4.568825E+01  1.884339E-08 -3.123220E+02  9.531356E-10
        23  24 -2.396981E+06 -3.765909E+01 -2.553102E+02  6.609364E-08 -3.345312E+02  3.516106E-10
        23  25 -2.396980E+06  4.885123E+01  1.535118E+02 -1.639490E+00 -2.901124E+02  7.675271E-07
        23  26 -2.396981E+06 -2.565698E+00 -4.568825E+01 -1.899251E-01 -3.123220E+02  9.558074E-08
        23  27 -2.396981E+06 -3.765909E+01 -2.553102E+02  1.259619E+00 -3.345312E+02 -6.812189E-07
        24   1 -2.397011E+06  1.465239E+01 -3.744043E+02 -1.802568E+01  3.914033E+02 -1.140681E-05
        24   2 -2.396944E+06  5.649476E+01 -7.099360E+02  2.797739E+00  7.489565E+02  3.388394E-06
        24   3 -2.397012E+06 -2.539730E+02 -1.367000E+03  2.362147E+01  1.106515E+03  4.225870E-05
        24   4 -2.397011E+06  1.465239E+01 -3.744043E+02  6.813770E-08  3.914033E+02 -8.314484E-11
        24   5 -2.396944E+06  5.649476E+01 -7.099360E+02 -2.841367E-08  7.489565E+02  1.476090E-09
        24   6 -2.397012E+06 -2.539730E+02 -1.367000E+03  2.135561E-08  1.106515E+03 -2.050056E-10
        24   7 -2.397011E+06  1.465239E+01 -3.744043E+02  1.802568E+01  3.914033E+02  1.140561E-05
        24   8 -2.396944E+06  5.649476E+01 -7.099360E+02 -2.797739E+00  7.489565E+02 -3.388328E-06
        24   9 -2.397012E+06 -2.539730E+02 -1.367000E+03 -2.362147E+01  1.106515E+03 -4.225692E-05
        24  10 -2.397011E+06  1.465235E+01 -3.744046E+02 -1.802568E+01  6.202778E-10  1.327721E-10
        24  11 -2.396944E+06  5.649461E+01 -7.099370E+02  2.797739E+00 -2.092347E-10  2.824012E-10
        24  12 -2.397012E+06 -2.539733E+02 -1.367002E+03  2.362147E+01  1.469913E-09  1.186399E-10
        24  13 -2.397011E+06  1.465235E+01 -3.744046E+02  1.650340E-08 -2.185456E-09 -1.276594E-10
        24  14 -2.396944E+06  5.649461E+01 -7.099370E+02  2.323167E-08 -1.725956E-09  3.209520E-10
        24  15 -2.397012E+06 -2.539733E+02 -1.367002E+03  4.286694E-08 -2.856180E-09  1.775311E-12
        24  16 -2.397011E+06  1.465235E+01 -3.744046E+02  1.802568E+01  8.890011E-10 -2.510097E-10
        24  17 -2.396944E+06  5.649461E+01 -7.099370E+02 -2.797739E+00  6.425837E-10 -3.992443E-10
        24  18 -2.397012E+06 -2.539733E+02 -1.367002E+03 -2.362147E+01 -1.014131E-09  1.676810E-10
        24  19 -2.397011E+06  1.465239E+01 -3.744043E+02 -1.802568E+01 -3.914033E+02  1.140734E-05
        24  20 -2.396944E+06  5.649476E+01 -7.099360E+02  2.797739E+00 -7.489565E+02 -3.386898E-06
        24  21 -2.397012E+06 -2.539730E+02 -1.367000E+03  2.362147E+01 -1.106515E+03 -4.225640E-05
        24  22 -2.397011E+06  1.465239E+01 -3.744043E+02 -6.994683E-10 -3.914033E+02 -4.536764E-10
        24  23 -2.396944E+06  5.649476E+01 -7.099360E+02 -1.119559E-08 -7.489565E+02 -4.696357E-10
        24  24 -2.397012E+06 -2.539730E+02 -1.367000E+03 -3.030075E-08 -1.106515E+03  1.647157E-10
        24  25 -2.397011E+06  1.465239E+01 -3.744043E+02  1.802568E+01 -3.914033E+02 -1.140652E-05
        24  26 -2.396944E+06  5.649476E+01 -7.099360E+02 -2.797739E+00 -7.489565E+02  3.385027E-06
        24  27 -2.397012E+06 -2.539730E+02 -1.367000E+03 -2.362147E+01 -1.106515E+03  4.225695E-05
        25   1 -2.397163E+06  5.921683E+01 -1.759304E+03 -1.191446E+02  1.388594E+03 -2.674762E-04
        25   2 -2.396756E+06  3.968112E+02 -2.952986E+03  4.025891E+01  2.896792E+03  1.885440E-04
        25   3 -2.397167E+06 -1.748572E+03 -5.752154E+03  1.996626E+02  4.404988E+03  1.421925E-03
        25   4 -2.397163E+06  5.921680E+01 -1.759304E+03  1.409030E-07  1.388594E+03 -5.877752E-10
        25   5 -2.396756E+06  3.968111E+02 -2.952986E+03  4.772127E-08  2.896792E+03  6.777280E-10
        25   6 -2.397167E+06 -1.748572E+03 -5.752155E+03  1.137819E-07  4.404988E+03  2.895860E-10
        25   7 -2.397163E+06  5.921683E+01 -1.759304E+03  1.191446E+02  1.388594E+03  2.674754E-04
        25   8 -2.396756E+06  3.968112E+02 -2.952986E+03 -4.025891E+01  2.896792E+03 -1.885459E-04
        25   9 -2.397167E+06 -1.748572E+03 -5.752154E+03 -1.996626E+02  4.404988E+03 -1.421923E-03
        25  10 -2.397163E+06  5.921631E+01 -1.759308E+03 -1.191446E+02  1.550666E-09  1.047285E-09
        25  11 -2.396756E+06  3.968089E+02 -2.953002E+03  4.025891E+01  4.296540E-10 -1.555690E-10
        25  12 -2.397167E+06 -1.748578E+03 -5.752191E+03  1.996626E+02  5.216549E-11  6.944584E-11
        25  13 -2.397163E+06  5.921628E+01 -1.759308E+03  8.926869E-08  6.011975E-10 -5.931743E-11
        25  14 -2.396756E+06  3.968089E+02 -2.953002E+03  5.632928E-08 -4.332452E-10  3.239303E-10
        25  15 -2.397167E+06 -1.748578E+03 -5.752191E+03  5.351806E-08  1.029245E-10 -1.202043E-10
        25  16 -2.397163E+06  5.921631E+01 -1.759308E+03  1.191446E+02 -4.243486E-10 -8.753543E-11
        25  17 -2.396756E+06  3.968089E+02 -2.953002E+03 -4.025891E+01  2.033937E-09  5.777805E-10
        25  18 -2.397167E+06 -1.748578E+03 -5.752191E+03 -1.996626E+02  4.493857E-10 -1.196799E-10
        25  19 -2.397163E+06  5.921683E+01 -1.759304E+03 -1.191446E+02 -1.388594E+03  2.674783E-04
        25  20 -2.396756E+06  3.968112E+02 -2.952986E+03  4.025891E+01 -2.896792E+03 -1.885427E-04
        25  21 -2.397167E+06 -1.748572E+03 -5.752154E+03  1.996626E+02 -4.404988E+03 -1.421923E-03
        25  22 -2.397163E+06  5.921680E+01 -1.759304E+03  5.485035E-08 -1.388594E+03  3.521252E-10
        25  23 -2.396756E+06  3.968111E+02 -2.952986E+03  4.772337E-08 -2.896792E+03  1.392052E-10
        25  24 -2.397167E+06 -1.748572E+03 -5.752155E+03  9.655228E-08 -4.404988E+03 -7.708147E-10
        25  25 -2.397163E+06  5.921683E+01 -1.759304E+03  1.191446E+02 -1.388594E+03 -2.674786E-04
        25  26 -2.396756E+06  3.968112E+02 -2.952986E+03 -4.025891E+01 -2.896792E+03  1.885430E-04
        25  27 -2.397167E+06 -1.748572E+03 -5.752154E+03 -1.996626E+02 -4.404988E+03  1.421923E-03
        26   1 -2.398099E+06  4.147810E+02 -7.204569E+03 -7.813257E+02  5.572372E+03 -7.038948E-03
        26   2 -2.395595E+06  2.695469E+03 -1.164889E+04  3.558410E+02  1.166816E+04  6.712624E-03
        26   3 -2.398117E+06 -1.192496E+04 -2.429847E+04  1.492990E+03  1.776385E+04  4.287743E-02
        26   4 -2.398099E+06  4.147798E+02 -7.204569E+03  2.559852E-08  5.572372E+03  2.283872E-12
        26   5 -2.395595E+06  2.695468E+03 -1.164889E+04  9.718876E-09  1.166816E+04  2.082209E-10
        26   6 -2.398117E+06 -1.192497E+04 -2.429847E+04  1.320426E-08  1.776385E+04 -4.222236E-10
        26   7 -2.398099E+06  4.147810E+02 -7.204569E+03  7.813257E+02  5.572372E+03  7.038948E-03
        26   8 -2.395595E+06  2.695469E+03 -1.164889E+04 -3.558410E+02  1.166816E+04 -6.712625E-03
        26   9 -2.398117E+06 -1.192496E+04 -2.429847E+04 -1.492990E+03  1.776385E+04 -4.287742E-02
        26  10 -2.398099E+06  4.147726E+02 -7.204628E+03 -7.813257E+02 -9.602948E-10 -3.315817E-10
        26  11 -2.395595E+06  2.695432E+03 -1.164915E+04  3.558410E+02  4.267232E-10  8.407469E-10
        26  12 -2.398118E+06 -1.192505E+04 -2.429907E+04  1.492990E+03  5.546241E-10 -5.933699E-10
        26  13 -2.398099E+06  4.147714E+02 -7.204628E+03  2.560796E-08 -6.718057E-11  9.553782E-12
        26  14 -2.395595E+06  2.695432E+03 -1.164915E+04  1.832325E-08  4.093368E-09  3.474434E-10
        26  15 -2.398118E+06 -1.192505E+04 -2.429907E+04  4.546809E-08 -3.550829E-09 -6.946333E-11
        26  16 -2.398099E+06  4.147726E+02 -7.204628E+03  7.813257E+02 -1.660167E-10  2.144729E-10
        26  17 -2.395595E+06  2.695432E+03 -1.164915E+04 -3.558410E+02 -2.260045E-09  3.920202E-10
        26  18 -2.398118E+06 -1.192505E+04 -2.429907E+04 -1.492990E+03  1.862410E-09  7.166670E-11
        26  19 -2.398099E+06  4.147810E+02 -7.204569E+03 -7.813257E+02 -5.572372E+03  7.038947E-03
        26  20 -2.395595E+06  2.695469E+03 -1.164889E+04  3.558410E+02 -1.166816E+04 -6.712621E-03
        26  21 -2.398117E+06 -1.192496E+04 -2.429847E+04  1.492990E+03 -1.776385E+04 -4.287742E-02
        26  22 -2.398099E+06  4.147798E+02 -7.204569E+03  2.561794E-08 -5.572372E+03 -3.353372E-10
        26  23 -2.395595E+06  2.695468E+03 -1.164889E+04  9.715718E-09 -1.166816E+04  6.776656E-10
        26  24 -2.398117E+06 -1.192497E+04 -2.429847E+04  4.330100E-08 -1.776385E+04  3.552562E-11
        26  25 -2.398099E+06  4.147810E+02 -7.204569E+03  7.813257E+02 -5.572372E+03 -7.038950E-03
        26  26 -2.395595E+06  2.695469E+03 -1.164889E+04 -3.558410E+02 -1.166816E+04  6.712621E-03
        26  27 -2.398117E+06 -1.192496E+04 -2.429847E+04 -1.492990E+03 -1.776385E+04  4.287742E-02
        27   1 -2.404051E+06  2.879872E+03 -2.939968E+04 -5.172705E+03  2.259104E+04 -1.889265E-01
        27   2 -2.388181E+06  1.822557E+04 -4.500114E+04  2.734667E+03  4.715185E+04  2.084642E-01
        27   3 -2.404151E+06 -8.084690E+04 -1.052411E+05  1.064198E+04  7.171322E+04  1.233832E+00
        27   4 -2.404051E+06  2.879821E+03 -2.939969E+04 -7.889345E-08  2.259104E+04 -3.075925E-11
        27   5 -2.388181E+06  1.822556E+04 -4.500114E+04 -3.674852E-08  4.715185E+04  7.070756E-10
        27   6 -2.404152E+06 -8.084711E+04 -1.052411E+05  9.362357E-08  7.171322E+04  3.044676E-11
        27   7 -2.404051E+06  2.879872E+03 -2.939968E+04  5.172705E+03  2.259104E+04  1.889265E-01
        27   8 -2.388181E+06  1.822557E+04 -4.500114E+04 -2.734667E+03  4.715185E+04 -2.084642E-01
        27   9 -2.404151E+06 -8.084690E+04 -1.052411E+05 -1.064198E+04  7.171322E+04 -1.233832E+00
        27  10 -2.404051E+06  2.879734E+03 -2.940065E+04 -5.172705E+03 -3.114295E-09  8.437359E-11
        27  11 -2.388183E+06  1.822497E+04 -4.500533E+04  2.734667E+03 -8.848831E-10  1.353975E-10
        27  12 -2.404157E+06 -8.084828E+04 -1.052508E+05  1.064198E+04  3.151209E-09  6.687467E-10
        27  13 -2.404051E+06  2.879684E+03 -2.940065E+04 -1.133179E-07 -7.608317E-10 -1.575403E-10
        27  14 -2.388183E+06  1.822496E+04 -4.500533E+04 -2.814024E-08 -2.165050E-10  2.774992E-10
        27  15 -2.404157E+06 -8.084850E+04 -1.052508E+05  3.552151E-08 -2.010459E-09  9.749150E-11
        27  16 -2.404051E+06  2.879734E+03 -2.940065E+04  5.172705E+03  1.341806E-09 -1.282731E-10
        27  17 -2.388183E+06  1.822497E+04 -4.500533E+04 -2.734667E+03  1.315129E-09 -1.952897E-10
        27  18 -2.404157E+06 -8.084828E+04 -1.052508E+05 -1.064198E+04 -2.038558E-10  6.616187E-11
        27  19 -2.404051E+06  2.879872E+03 -2.939968E+04 -5.172705E+03 -2.259104E+04  1.889265E-01
        27  20 -2.388181E+06  1.822557E+04 -4.500114E+04  2.734667E+03 -4.715185E+04 -2.084642E-01
        27  21 -2.404151E+06 -8.084690E+04 -1.052411E+05  1.064198E+04 -7.171322E+04 -1.233832E+00
        27  22 -2.404051E+06  2.879821E+03 -2.939969E+04 -1.003031E-08 -2.259104E+04 -1.078251E-10
        27  23 -2.388181E+06  1.822556E+04 -4.500114E+04 -2.813919E-08 -4.715185E+04 -6.417772E-11
        27  24 -2.404152E+06 -8.084711E+04 -1.052411E+05  4.412979E-08 -7.171322E+04  3.395529E-10
        27  25 -2.404051E+06  2.879872E+03 -2.939968E+04  5.172705E+03 -2.259104E+04 -1.889265E-01
        27  26 -2.388181E+06  1.822557E+04 -4.500114E+04 -2.734667E+03 -4.715185E+04  2.084642E-01
        27  27 -2.404151E+06 -8.084690E+04 -1.052411E+05 -1.064198E+04 -7.171322E+04  1.233832E+00
        28   1  5.951125E+05  1.139149E+06  7.578283E+05 -6.494337E+04  1.136660E+03  4.616537E+05
        28   2 -5.120226E+04  1.041158E+06  3.722766E+05 -2.001021E+04  3.652014E+03  2.958041E+05
        28   3  5.906816E+04  1.154434E+06  2.839306E+05  3.971221E+04  3.685768E+03  1.299413E+05
        28   4  5.276359E+05  8.688711E+05  6.905032E+05  5.334515E+03  1.188946E+03  4.608066E+05
        28   5 -1.205249E+05  7.633186E+05  3.033686E+05 -2.107680E+03  3.660756E+03  2.954915E+05
        28   6 -1.202599E+04  8.690203E+05  2.131575E+05  5.246081E+03  3.678412E+03  1.301650E+05
        28   7  4.601723E+05  5.986696E+05  6.231753E+05  7.558184E+04  1.241060E+03  4.599599E+05
        28   8 -1.898522E+05  4.855495E+05  2.344550E+05  1.578686E+04  3.669485E+03  2.951790E+05
        28   9 -8.312176E+04  5.836831E+05  1.423789E+05 -2.920420E+04  3.671029E+03  1.303887E+05
        28  10  5.950554E+05  1.138921E+06  7.574285E+05 -6.494380E+04  1.473871E-09  3.393732E-10
        28  11 -5.122571E+04  1.041065E+06  3.721125E+05 -2.001108E+04  6.369951E-09  5.590656E-10
        28  12  5.906363E+04  1.154416E+06  2.838989E+05  3.971183E+04  3.057288E-09 -7.751490E-11
        28  13  5.275790E+05  8.686434E+05  6.901048E+05  5.334075E+03 -1.767770E-09 -1.501837E-12
        28  14 -1.205483E+05  7.632250E+05  3.032047E+05 -2.108551E+03 -2.617991E-09  3.452051E-11
        28  15 -1.203055E+04  8.690021E+05  2.131257E+05  5.245696E+03  3.116593E-09  3.280281E-11
        28  16  4.601156E+05  5.984426E+05  6.227781E+05  7.558139E+04 -2.858206E-09 -4.608261E-10
        28  17 -1.898755E+05  4.854561E+05  2.342914E+05  1.578598E+04 -4.973311E-09 -5.287921E-10
        28  18 -8.312633E+04  5.836648E+05  1.423470E+05 -2.920459E+04  2.600991E-09  1.122707E-10
        28  19  5.951125E+05  1.139149E+06  7.578283E+05 -6.494337E+04 -1.136660E+03 -4.616537E+05
        28  20 -5.120226E+04  1.041158E+06  3.722766E+05 -2.001021E+04 -3.652014E+03 -2.958041E+05
        28  21  5.906816E+04  1.154434E+06  2.839306E+05  3.971221E+04 -3.685768E+03 -1.299413E+05
        28  22  5.276359E+05  8.688711E+05  6.905032E+05  5.334515E+03 -1.188946E+03 -4.608066E+05
        28  23 -1.205249E+05  7.633186E+05  3.033686E+05 -2.107680E+03 -3.660756E+03 -2.954915E+05
        28  24 -1.202599E+04  8.690203E+05  2.131575E+05  5.246081E+03 -3.678412E+03 -1.301650E+05
        28  25  4.601723E+05  5.986696E+05  6.231753E+05  7.558184E+04 -1.241060E+03 -4.599599E+05
        28  26 -1.898522E+05  4.855495E+05  2.344550E+05  1.578686E+04 -3.669485E+03 -2.951790E+05
        28  27 -8.312176E+04  5.836831E+05  1.423789E+05 -2.920420E+04 -3.671029E+03 -1.303887E+05
        29   1  1.608430E+05  1.172934E+06  2.699175E+05 -6.363144E+03  3.604236E+03  9.445409E+04
        29   2  5.913889E+04  1.157175E+06  2.072141E+05 -5.313147E+03  4.432806E+03  3.113049E+04
        29   3  1.338019E+05  1.194758E+06  2.299943E+05  1.714947E+04  4.312891E+03 -3.219500E+04
        29   4  7.622414E+04  8.338604E+05  1.857083E+05  6.805729E+03  3.606658E+03  9.418384E+04
        29   5 -2.815151E+04  8.072035E+05  1.203823E+05 -3.899349E+03  4.433117E+03  3.107262E+04
        29   6  4.385549E+04  8.338794E+05  1.404248E+05  6.808790E+03  4.313246E+03 -3.203940E+04
        29   7 -8.402665E+03  4.948910E+05  1.014906E+05  1.996745E+04  3.609070E+03  9.391372E+04
        29   8 -1.154511E+05  4.573428E+05  3.354127E+04 -2.486296E+03  4.433429E+03  3.101477E+04
        29   9 -4.610021E+04  4.731186E+05  5.084575E+04 -3.525814E+03  4.313596E+03 -3.188389E+04
        29  10  1.608406E+05  1.172925E+06  2.699007E+05 -6.363417E+03  1.350557E-11 -1.257624E-09
        29  11  5.913861E+04  1.157174E+06  2.072123E+05 -5.313258E+03  5.846766E-09 -1.238923E-09
        29  12  1.338016E+05  1.194757E+06  2.299923E+05  1.714958E+04  2.013920E-09  7.501547E-11
        29  13  7.622175E+04  8.338509E+05  1.856916E+05  6.805456E+03  3.362800E-09  3.471031E-10
        29  14 -2.815179E+04  8.072025E+05  1.203804E+05 -3.899460E+03  7.547356E-09 -5.246769E-11
        29  15  4.385519E+04  8.338783E+05  1.404229E+05  6.808901E+03 -2.430179E-10  1.792317E-10
        29  16 -8.405044E+03  4.948815E+05  1.014740E+05  1.996718E+04  3.768780E-09  1.106273E-09
        29  17 -1.154514E+05  4.573418E+05  3.353943E+04 -2.486407E+03  3.675723E-09  1.476598E-09
        29  18 -4.610051E+04  4.731175E+05  5.084380E+04 -3.525703E+03  2.758242E-09 -2.065093E-10
        29  19  1.608430E+05  1.172934E+06  2.699175E+05 -6.363144E+03 -3.604236E+03 -9.445409E+04
        29  20  5.913889E+04  1.157175E+06  2.072141E+05 -5.313147E+03 -4.432806E+03 -3.113049E+04
        29  21  1.338019E+05  1.194758E+06  2.299943E+05  1.714947E+04 -4.312891E+03  3.219500E+04
        29  22  7.622414E+04  8.338604E+05  1.857083E+05  6.805729E+03 -3.606658E+03 -9.418384E+04
        29  23 -2.815151E+04  8.072035E+05  1.203823E+05 -3.899349E+03 -4.433117E+03 -3.107262E+04
        29  24  4.385549E+04  8.338794E+05  1.404248E+05  6.808790E+03 -4.313246E+03  3.203940E+04
        29  25 -8.402665E+03  4.948910E+05  1.014906E+05  1.996745E+04 -3.609070E+03 -9.391372E+04
        29  26 -1.154511E+05  4.573428E+05  3.354127E+04 -2.486296E+03 -4.433429E+03 -3.101477E+04
        29  27 -4.610021E+04  4.731186E+05  5.084575E+04 -3.525814E+03 -4.313596E+03  3.188389E+04
        30   1  1.088039E+05  1.286488E+06  2.585241E+05 -1.403034E+04  5.430744E+03 -5.759908E+04
        30   2  3.837414E+04  1.236104E+06  3.032098E+05  3.057140E+03  6.911688E+03 -1.627830E+05
        30   3  4.316699E+05  1.317082E+06  5.325964E+05  5.094219E+04  3.287439E+03 -2.679843E+05
        30   4  9.436091E+01  8.512034E+05  1.504696E+05  8.458276E+03  5.430862E+03 -5.829035E+04
        30   5 -7.390119E+04  7.855255E+05  1.915135E+05 -6.289644E+03  6.913507E+03 -1.624284E+05
        30   6  3.158222E+05  8.511166E+05  4.166273E+05  9.758387E+03  3.300094E+03 -2.665811E+05
        30   7 -1.086275E+05  4.160919E+05  4.240123E+04  3.093126E+04  5.430931E+03 -5.898113E+04
        30   8 -1.861913E+05  3.351308E+05  7.980210E+04 -1.562949E+04  6.915317E+03 -1.620740E+05
        30   9  1.999647E+05  3.853517E+05  3.006430E+05 -3.139436E+04  3.312573E+03 -2.651789E+05
        30  10  1.088029E+05  1.286484E+06  2.585178E+05 -1.403009E+04 -3.612893E-09  8.601275E-10
        30  11  3.836699E+04  1.236076E+06  3.031600E+05  3.058045E+03 -3.442610E-09  2.818467E-11
        30  12  4.316507E+05  1.317005E+06  5.324617E+05  5.094290E+04 -6.125625E-10 -3.774027E-10
        30  13  9.341874E+01  8.511998E+05  1.504632E+05  8.458531E+03  2.199829E-09  7.562742E-10
        30  14 -7.390831E+04  7.854972E+05  1.914639E+05 -6.288740E+03  9.567804E-10  7.695141E-11
        30  15  3.158031E+05  8.510403E+05  4.164940E+05  9.759095E+03  2.062976E-09  2.806932E-10
        30  16 -1.086285E+05  4.160882E+05  4.239464E+04  3.093152E+04  2.622191E-09 -1.327936E-09
        30  17 -1.861984E+05  3.351026E+05  7.975268E+04 -1.562859E+04  2.501628E-09  5.021170E-10
        30  18  1.999458E+05  3.852762E+05  3.005109E+05 -3.139366E+04  9.610370E-10  1.037714E-10
        30  19  1.088039E+05  1.286488E+06  2.585241E+05 -1.403034E+04 -5.430744E+03  5.759908E+04
        30  20  3.837414E+04  1.236104E+06  3.032098E+05  3.057140E+03 -6.911688E+03  1.627830E+05
        30  21  4.316699E+05  1.317082E+06  5.325964E+05  5.094219E+04 -3.287439E+03  2.679843E+05
        30  22  9.436091E+01  8.512034E+05  1.504696E+05  8.458276E+03 -5.430862E+03  5.829035E+04
        30  23 -7.390119E+04  7.855255E+05  1.915135E+05 -6.289644E+03 -6.913507E+03  1.624284E+05
        30  24  3.158222E+05  8.511166E+05  4.166273E+05  9.758387E+03 -3.300094E+03  2.665811E+05
        30  25 -1.086275E+05  4.160919E+05  4.240123E+04  3.093126E+04 -5.430931E+03  5.898113E+04
        30  26 -1.861913E+05  3.351308E+05  7.980210E+04 -1.562949E+04 -6.915317E+03  1.620740E+05
        30  27  1.999647E+05  3.853517E+05  3.006430E+05 -3.139436E+04 -3.312573E+03  2.651789E+05
        31   1 -2.920177E+06 -5.553506E+05 -1.805250E+05 -1.054394E+06 -7.641523E+04 -2.735536E+04
        31   2 -2.893793E+06 -4.389562E+05 -1.074064E+05 -1.069812E+06 -4.980808E+04 -1.502409E+04
        31   3 -2.902987E+06 -4.542641E+05 -8.732849E+04 -1.068414E+06 -2.212909E+04 -5.554317E+03
        31   4 -2.705143E+06 -4.638083E+05 -1.191770E+05 -9.854974E+05 -7.580839E+04 -2.712951E+04
        31   5 -2.681474E+06 -3.561942E+05 -4.862875E+04 -1.009552E+06 -4.970463E+04 -1.498570E+04
        31   6 -2.693267E+06 -3.801572E+05 -3.070643E+04 -1.016797E+06 -2.252930E+04 -5.703816E+03
        31   7 -2.490065E+06 -3.722602E+05 -5.783376E+04 -9.165779E+05 -7.520132E+04 -2.690353E+04
        31   8 -2.469112E+06 -2.734291E+05  1.014461E+04 -9.492747E+05 -4.960114E+04 -1.494730E+04
        31   9 -2.483504E+06 -3.060493E+05  2.591174E+04 -9.651649E+05 -2.292966E+04 -5.853363E+03
        31  10 -2.920183E+06 -5.553530E+05 -1.805375E+05 -1.054396E+06 -1.205616E-09 -5.229692E-11
        31  11 -2.893796E+06 -4.389571E+05 -1.074115E+05 -1.069812E+06 -3.746213E-09 -5.586695E-10
        31  12 -2.902987E+06 -4.542642E+05 -8.732947E+04 -1.068414E+06  1.002591E-09 -1.417716E-09
        31  13 -2.705149E+06 -4.638106E+05 -1.191893E+05 -9.854991E+05  2.236249E-09  3.439248E-10
        31  14 -2.681477E+06 -3.561951E+05 -4.863384E+04 -1.009553E+06  1.312731E-10 -5.561052E-10
        31  15 -2.693267E+06 -3.801574E+05 -3.070745E+04 -1.016797E+06 -2.013532E-09 -7.723621E-10
        31  16 -2.490072E+06 -3.722625E+05 -5.784580E+04 -9.165795E+05 -2.103697E-10 -1.456586E-10
        31  17 -2.469115E+06 -2.734300E+05  1.013954E+04 -9.492753E+05  1.336619E-09 -1.163756E-10
        31  18 -2.483505E+06 -3.060495E+05  2.591069E+04 -9.651650E+05 -2.423847E-10 -9.864623E-10
        31  19 -2.920177E+06 -5.553506E+05 -1.805250E+05 -1.054394E+06  7.641523E+04  2.735536E+04
        31  20 -2.893793E+06 -4.389562E+05 -1.074064E+05 -1.069812E+06  4.980808E+04  1.502409E+04
        31  21 -2.902987E+06 -4.542641E+05 -8.732849E+04 -1.068414E+06  2.212909E+04  5.554317E+03
        31  22 -2.705143E+06 -4.638083E+05 -1.191770E+05 -9.854974E+05  7.580839E+04  2.712951E+04
        31  23 -2.681474E+06 -3.561942E+05 -4.862875E+04 -1.009552E+06  4.970463E+04  1.498570E+04
        31  24 -2.693267E+06 -3.801572E+05 -3.070643E+04 -1.016797E+06  2.252930E+04  5.703816E+03
        31  25 -2.490065E+06 -3.722602E+05 -5.783376E+04 -9.165779E+05  7.520132E+04  2.690353E+04
        31  26 -2.469112E+06 -2.734291E+05  1.014461E+04 -9.492747E+05  4.960114E+04  1.494730E+04
        31  27 -2.483504E+06 -3.060493E+05  2.591174E+04 -9.651649E+05  2.292966E+04  5.853363E+03
        32   1 -2.813091E+06 -4.453567E+05 -6.017623E+04 -1.047180E+06 -1.764380E+04 -4.673182E+03
        32   2 -2.805715E+06 -4.125825E+05 -4.217855E+04 -1.033869E+06 -1.140535E+04 -2.519409E+03
        32   3 -2.783238E+06 -4.200729E+05 -3.363309E+04 -1.041893E+06 -4.950613E+03 -9.445486E+02
        32   4 -2.687175E+06 -3.964190E+05 -2.532318E+04 -1.011595E+06 -1.762237E+04 -4.665251E+03
        32   5 -2.693857E+06 -3.700725E+05 -1.141424E+04 -1.003249E+06 -1.148636E+04 -2.549698E+03
        32   6 -2.685416E+06 -3.839678E+05 -6.874605E+03 -1.016239E+06 -5.134261E+03 -1.013097E+03
        32   7 -2.561244E+06 -3.474801E+05  9.528456E+03 -9.760024E+05 -1.760094E+04 -4.657319E+03
        32   8 -2.581986E+06 -3.275618E+05  1.934890E+04 -9.726248E+05 -1.156739E+04 -2.579993E+03
        32   9 -2.587585E+06 -3.478624E+05  1.988294E+04 -9.905819E+05 -5.317940E+03 -1.081656E+03
        32  10 -2.813091E+06 -4.453568E+05 -6.017686E+04 -1.047181E+06  1.258731E-09 -7.060211E-10
        32  11 -2.805715E+06 -4.125825E+05 -4.217881E+04 -1.033869E+06  1.640357E-09  4.586881E-10
        32  12 -2.783238E+06 -4.200729E+05 -3.363314E+04 -1.041893E+06 -2.480687E-09  5.694885E-10
        32  13 -2.687175E+06 -3.964191E+05 -2.532381E+04 -1.011595E+06  3.160152E-09  1.177200E-12
        32  14 -2.693857E+06 -3.700726E+05 -1.141451E+04 -1.003249E+06  4.315292E-09 -1.527130E-09
        32  15 -2.685416E+06 -3.839678E+05 -6.874657E+03 -1.016239E+06 -4.138368E-09  4.854998E-10
        32  16 -2.561244E+06 -3.474803E+05  9.527831E+03 -9.760025E+05 -1.135222E-09 -2.856894E-10
        32  17 -2.581986E+06 -3.275618E+05  1.934863E+04 -9.726248E+05 -2.960797E-09 -1.696631E-10
        32  18 -2.587585E+06 -3.478624E+05  1.988288E+04 -9.905819E+05  3.274240E-10 -2.758537E-11
        32  19 -2.813091E+06 -4.453567E+05 -6.017623E+04 -1.047180E+06  1.764380E+04  4.673182E+03
        32  20 -2.805715E+06 -4.125825E+05 -4.217855E+04 -1.033869E+06  1.140535E+04  2.519409E+03
        32  21 -2.783238E+06 -4.200729E+05 -3.363309E+04 -1.041893E+06  4.950613E+03  9.445486E+02
        32  22 -2.687175E+06 -3.964190E+05 -2.532318E+04 -1.011595E+06  1.762237E+04  4.665251E+03
        32  23 -2.693857E+06 -3.700725E+05 -1.141424E+04 -1.003249E+06  1.148636E+04  2.549698E+03
        32  24 -2.685416E+06 -3.839678E+05 -6.874605E+03 -1.016239E+06  5.134261E+03  1.013097E+03
        32  25 -2.561244E+06 -3.474801E+05  9.528456E+03 -9.760024E+05  1.760094E+04  4.657319E+03
        32  26 -2.581986E+06 -3.275618E+05  1.934890E+04 -9.726248E+05  1.156739E+04  2.579993E+03
        32  27 -2.587585E+06 -3.478624E+05  1.988294E+04 -9.905819E+05  5.317940E+03  1.081656E+03
        33   1 -2.673490E+06 -3.827701E+05 -2.545856E+03 -1.013067E+06 -3.804923E+03 -1.094230E+03
        33   2 -2.668820E+06 -3.616148E+05  4.775818E+03 -9.946483E+05 -2.170509E+03 -1.208349E+03
        33   3 -2.640252E+06 -3.682264E+05  1.032485E+04 -1.004484E+06 -5.357853E+02 -1.322908E+03
        33   4 -2.684223E+06 -3.866176E+05 -5.506689E+03 -1.015752E+06 -3.918628E+03 -1.136665E+03
        33   5 -2.696044E+06 -3.718270E+05 -2.686972E+03 -1.001962E+06 -2.284320E+03 -1.250832E+03
        33   6 -2.683966E+06 -3.848034E+05 -1.639760E+03 -1.016427E+06 -6.497394E+02 -1.365454E+03
        33   7 -2.694957E+06 -3.904650E+05 -8.467536E+03 -1.018437E+06 -4.032332E+03 -1.179099E+03
        33   8 -2.723267E+06 -3.820392E+05 -1.014985E+04 -1.009276E+06 -2.398124E+03 -1.293313E+03
        33   9 -2.727678E+06 -4.013804E+05 -1.360458E+04 -1.028370E+06 -7.636851E+02 -1.407998E+03
        33  10 -2.673490E+06 -3.827701E+05 -2.545886E+03 -1.013067E+06 -3.201883E-09  2.247556E-09
        33  11 -2.668820E+06 -3.616148E+05  4.775806E+03 -9.946483E+05  2.334645E-09  5.407349E-10
        33  12 -2.640252E+06 -3.682264E+05  1.032484E+04 -1.004484E+06  3.696837E-09  4.347086E-10
        33  13 -2.684224E+06 -3.866176E+05 -5.506720E+03 -1.015752E+06 -5.129512E-09 -4.106918E-10
        33  14 -2.696044E+06 -3.718270E+05 -2.686984E+03 -1.001962E+06 -2.013727E-09  2.581681E-09
        33  15 -2.683966E+06 -3.848034E+05 -1.639764E+03 -1.016427E+06 -1.235535E-10  1.939541E-10
        33  16 -2.694957E+06 -3.904650E+05 -8.467569E+03 -1.018437E+06  5.893032E-10  2.121133E-09
        33  17 -2.723267E+06 -3.820392E+05 -1.014986E+04 -1.009276E+06  1.105453E-09  2.710530E-10
        33  18 -2.727678E+06 -4.013804E+05 -1.360459E+04 -1.028370E+06 -2.425482E-09 -6.917983E-10
        33  19 -2.673490E+06 -3.827701E+05 -2.545856E+03 -1.013067E+06  3.804923E+03  1.094230E+03
        33  20 -2.668820E+06 -3.616148E+05  4.775818E+03 -9.946483E+05  2.170509E+03  1.208349E+03
        33  21 -2.640252E+06 -3.682264E+05  1.032485E+04 -1.004484E+06  5.357853E+02  1.322908E+03
        33  22 -2.684223E+06 -3.866176E+05 -5.506689E+03 -1.015752E+06  3.918628E+03  1.136665E+03
        33  23 -2.696044E+06 -3.718270E+05 -2.686972E+03 -1.001962E+06  2.284320E+03  1.250832E+03
        33  24 -2.683966E+06 -3.848034E+05 -1.639760E+03 -1.016427E+06  6.497394E+02  1.365454E+03
        33  25 -2.694957E+06 -3.904650E+05 -8.467536E+03 -1.018437E+06  4.032332E+03  1.179099E+03
        33  26 -2.723267E+06 -3.820392E+05 -1.014985E+04 -1.009276E+06  2.398124E+03  1.293313E+03
        33  27 -2.727678E+06 -4.013804E+05 -1.360458E+04 -1.028370E+06  7.636851E+02  1.407998E+03
        34   1 -2.540719E+06 -3.294311E+05  3.835214E+04 -9.757975E+05 -1.038956E+02 -1.649926E+03
        34   2 -2.537613E+06 -3.145314E+05  4.227898E+04 -9.612107E+05  5.175449E+02 -2.158099E+03
        34   3 -2.515093E+06 -3.195053E+05  4.584330E+04 -9.687859E+05  1.031412E+03 -2.377302E+03
        34   4 -2.685077E+06 -3.838011E+05 -1.317689E+03 -1.014797E+06 -2.460003E+02 -1.703020E+03
        34   5 -2.694765E+06 -3.737790E+05 -8.512008E+02 -1.003745E+06  4.271072E+02 -2.191945E+03
        34   6 -2.685050E+06 -3.836410E+05 -7.883003E+02 -1.014855E+06  9.926198E+02 -2.391867E+03
        34   7 -2.829413E+06 -4.381699E+05 -4.098931E+04 -1.053787E+06 -3.880681E+02 -1.756099E+03
        34   8 -2.851893E+06 -4.330252E+05 -4.398357E+04 -1.046269E+06  3.366949E+02 -2.225781E+03
        34   9 -2.854979E+06 -4.477751E+05 -4.742252E+04 -1.060912E+06  9.538392E+02 -2.406428E+03
        34  10 -2.540719E+06 -3.294311E+05  3.835214E+04 -9.757975E+05  1.215147E-09 -1.715179E-09
        34  11 -2.537613E+06 -3.145314E+05  4.227897E+04 -9.612107E+05 -1.411115E-09  1.357884E-09
        34  12 -2.515093E+06 -3.195053E+05  4.584329E+04 -9.687859E+05  1.633681E-09 -5.381912E-10
        34  13 -2.685077E+06 -3.838012E+05 -1.317695E+03 -1.014797E+06 -1.582909E-09 -3.538460E-10
        34  14 -2.694765E+06 -3.737790E+05 -8.512101E+02 -1.003745E+06  3.282739E-09  1.216614E-09
        34  15 -2.685050E+06 -3.836410E+05 -7.883129E+02 -1.014855E+06  3.553739E-09  1.261932E-09
        34  16 -2.829413E+06 -4.381699E+05 -4.098932E+04 -1.053787E+06 -9.088460E-10 -3.373756E-10
        34  17 -2.851893E+06 -4.330252E+05 -4.398358E+04 -1.046269E+06 -4.391918E-10  1.044855E-09
        34  18 -2.854979E+06 -4.477751E+05 -4.742254E+04 -1.060912E+06 -4.088438E-09 -2.730543E-10
        34  19 -2.540719E+06 -3.294311E+05  3.835214E+04 -9.757975E+05  1.038956E+02  1.649926E+03
        34  20 -2.537613E+06 -3.145314E+05  4.227898E+04 -9.612107E+05 -5.175449E+02  2.158099E+03
        34  21 -2.515093E+06 -3.195053E+05  4.584330E+04 -9.687859E+05 -1.031412E+03  2.377302E+03
        34  22 -2.685077E+06 -3.838011E+05 -1.317689E+03 -1.014797E+06  2.460003E+02  1.703020E+03
        34  23 -2.694765E+06 -3.737790E+05 -8.512008E+02 -1.003745E+06 -4.271072E+02  2.191945E+03
        34  24 -2.685050E+06 -3.836410E+05 -7.883003E+02 -1.014855E+06 -9.926198E+02  2.391867E+03
        34  25 -2.829413E+06 -4.381699E+05 -4.098931E+04 -1.053787E+06  3.880681E+02  1.756099E+03
        34  26 -2.851893E+06 -4.330252E+05 -4.398357E+04 -1.046269E+06 -3.366949E+02  2.225781E+03
        34  27 -2.854979E+06 -4.477751E+05 -4.742252E+04 -1.060912E+06 -9.538392E+02  2.406428E+03
        35   1 -2.457002E+06 -2.938674E+05  6.254131E+04 -9.492933E+05  1.330677E+03 -2.556073E+03
        35   2 -2.456036E+06 -2.881763E+05  6.345579E+04 -9.437248E+05  2.006803E+03 -2.775939E+03
        35   3 -2.447495E+06 -2.904496E+05  6.392137E+04 -9.462728E+05  2.516428E+03 -2.550929E+03
        35   4 -2.687675E+06 -3.808897E+05 -8.201748E+02 -1.011777E+06  1.216466E+03 -2.598908E+03
        35   5 -2.691485E+06 -3.771189E+05 -1.195155E+03 -1.007636E+06  1.972090E+03 -2.789045E+03
        35   6 -2.687736E+06 -3.813287E+05 -2.082428E+03 -1.011612E+06  2.561181E+03 -2.534226E+03
        35   7 -2.918297E+06 -4.679092E+05 -6.418659E+04 -1.074240E+06  1.102301E+03 -2.641726E+03
        35   8 -2.926882E+06 -4.660583E+05 -6.585121E+04 -1.071525E+06  1.937393E+03 -2.802146E+03
        35   9 -2.927922E+06 -4.722046E+05 -6.809152E+04 -1.076928E+06  2.605914E+03 -2.517530E+03
        35  10 -2.457002E+06 -2.938674E+05  6.254129E+04 -9.492933E+05  8.964085E-10 -2.472902E-10
        35  11 -2.456036E+06 -2.881763E+05  6.345577E+04 -9.437248E+05  6.379681E-10 -3.735458E-10
        35  12 -2.447495E+06 -2.904496E+05  6.392135E+04 -9.462728E+05  1.405805E-09  4.765338E-11
        35  13 -2.687675E+06 -3.808897E+05 -8.201903E+02 -1.011777E+06 -2.689836E-09 -1.109193E-09
        35  14 -2.691485E+06 -3.771189E+05 -1.195177E+03 -1.007636E+06 -8.319885E-10 -4.624383E-10
        35  15 -2.687736E+06 -3.813287E+05 -2.082452E+03 -1.011612E+06  6.615329E-11  6.784373E-10
        35  16 -2.918297E+06 -4.679092E+05 -6.418661E+04 -1.074240E+06  5.328950E-10 -4.459450E-10
        35  17 -2.926882E+06 -4.660583E+05 -6.585123E+04 -1.071525E+06 -2.922631E-09 -8.761816E-10
        35  18 -2.927923E+06 -4.722046E+05 -6.809154E+04 -1.076928E+06 -2.877218E-09  1.016152E-09
        35  19 -2.457002E+06 -2.938674E+05  6.254131E+04 -9.492933E+05 -1.330677E+03  2.556073E+03
        35  20 -2.456036E+06 -2.881763E+05  6.345579E+04 -9.437248E+05 -2.006803E+03  2.775939E+03
        35  21 -2.447495E+06 -2.904496E+05  6.392137E+04 -9.462728E+05 -2.516428E+03  2.550929E+03
        35  22 -2.687675E+06 -3.808897E+05 -8.201748E+02 -1.011777E+06 -1.216466E+03  2.598908E+03
        35  23 -2.691485E+06 -3.771189E+05 -1.195155E+03 -1.007636E+06 -1.972090E+03  2.789045E+03
        35  24 -2.687736E+06 -3.813287E+05 -2.082428E+03 -1.011612E+06 -2.561181E+03  2.534226E+03
        35  25 -2.918297E+06 -4.679092E+05 -6.418659E+04 -1.074240E+06 -1.102301E+03  2.641726E+03
        35  26 -2.926882E+06 -4.660583E+05 -6.585121E+04 -1.071525E+06 -1.937393E+03  2.802146E+03
        35  27 -2.927922E+06 -4.722046E+05 -6.809152E+04 -1.076928E+06 -2.605914E+03  2.517530E+03
        36   1 -2.450193E+06 -2.866683E+05  6.352325E+04 -9.428989E+05  2.991674E+03 -2.373200E+03
        36   2 -2.451074E+06 -2.911180E+05  6.032925E+04 -9.480172E+05  5.265574E+03 -1.558784E+03
        36   3 -2.460535E+06 -2.927669E+05  5.436365E+04 -9.437202E+05  7.373630E+03 -3.041632E+02
        36   4 -2.691137E+06 -3.776058E+05 -2.633120E+03 -1.008216E+06  2.945488E+03 -2.390645E+03
        36   5 -2.687061E+06 -3.805308E+05 -4.522754E+03 -1.012348E+06  5.297422E+03 -1.546899E+03
        36   6 -2.691581E+06 -3.806712E+05 -9.246849E+03 -1.007065E+06  7.483506E+03 -2.628610E+02
        36   7 -2.932026E+06 -4.685401E+05 -6.879474E+04 -1.073510E+06  2.899321E+03 -2.408083E+03
        36   8 -2.922994E+06 -4.699404E+05 -6.937986E+04 -1.076658E+06  5.329258E+03 -1.535019E+03
        36   9 -2.922576E+06 -4.685723E+05 -7.286233E+04 -1.070389E+06  7.593337E+03 -2.215762E+02
        36  10 -2.450193E+06 -2.866683E+05  6.352323E+04 -9.428989E+05  6.437850E-10  5.817813E-10
        36  11 -2.451074E+06 -2.911180E+05  6.032919E+04 -9.480171E+05 -1.093553E-09 -6.284833E-10
        36  12 -2.460535E+06 -2.927669E+05  5.436355E+04 -9.437202E+05 -2.740254E-09 -1.009964E-09
        36  13 -2.691137E+06 -3.776058E+05 -2.633147E+03 -1.008216E+06 -2.540376E-09  2.400448E-11
        36  14 -2.687061E+06 -3.805308E+05 -4.522811E+03 -1.012348E+06  2.248876E-09  3.792756E-10
        36  15 -2.691581E+06 -3.806712E+05 -9.246955E+03 -1.007065E+06  9.150052E-10  8.562860E-10
        36  16 -2.932026E+06 -4.685401E+05 -6.879476E+04 -1.073510E+06  1.069198E-09  3.091634E-10
        36  17 -2.922994E+06 -4.699404E+05 -6.937992E+04 -1.076658E+06 -1.700461E-09  3.366863E-10
        36  18 -2.922576E+06 -4.685724E+05 -7.286243E+04 -1.070389E+06 -4.230107E-10  8.282944E-10
        36  19 -2.450193E+06 -2.866683E+05  6.352325E+04 -9.428989E+05 -2.991674E+03  2.373200E+03
        36  20 -2.451074E+06 -2.911180E+05  6.032925E+04 -9.480172E+05 -5.265574E+03  1.558784E+03
        36  21 -2.460535E+06 -2.927669E+05  5.436365E+04 -9.437202E+05 -7.373630E+03  3.041632E+02
        36  22 -2.691137E+06 -3.776058E+05 -2.633120E+03 -1.008216E+06 -2.945488E+03  2.390645E+03
        36  23 -2.687061E+06 -3.805308E+05 -4.522754E+03 -1.012348E+06 -5.297422E+03  1.546899E+03
        36  24 -2.691581E+06 -3.806712E+05 -9.246849E+03 -1.007065E+06 -7.483506E+03  2.628610E+02
        36  25 -2.932026E+06 -4.685401E+05 -6.879474E+04 -1.073510E+06 -2.899321E+03  2.408083E+03
        36  26 -2.922994E+06 -4.699404E+05 -6.937986E+04 -1.076658E+06 -5.329258E+03  1.535019E+03
        36  27 -2.922576E+06 -4.685723E+05 -7.286233E+04 -1.070389E+06 -7.593337E+03  2.215762E+02
        37   1 -2.522840E+06 -3.103967E+05  3.555336E+04 -9.602052E+05  9.066923E+03  6.315742E+02
        37   2 -2.522565E+06 -3.189868E+05  2.439684E+04 -9.730486E+05  1.914635E+04  4.847733E+03
        37   3 -2.554111E+06 -3.381442E+05 -2.547934E+03 -9.561092E+05  2.913275E+04  9.308321E+03
        37   4 -2.695432E+06 -3.745301E+05 -1.160410E+04 -1.005969E+06  9.108796E+03  6.473246E+02
        37   5 -2.681026E+06 -3.796923E+05 -1.928613E+04 -1.016924E+06  1.922953E+04  4.879047E+03
        37   6 -2.698454E+06 -3.954344E+05 -4.279219E+04 -9.980953E+05  2.925747E+04  9.355244E+03
        37   7 -2.867995E+06 -4.386621E+05 -5.876425E+04 -1.051722E+06  9.150655E+03  6.630702E+02
        37   8 -2.839464E+06 -4.403962E+05 -6.297138E+04 -1.060790E+06  1.931268E+04  4.910352E+03
        37   9 -2.842777E+06 -4.527228E+05 -8.303837E+04 -1.040072E+06  2.938215E+04  9.402153E+03
        37  10 -2.522841E+06 -3.103967E+05  3.555320E+04 -9.602053E+05 -5.856616E-09  7.275798E-11
        37  11 -2.522565E+06 -3.189869E+05  2.439610E+04 -9.730487E+05 -7.019748E-09  3.297001E-09
        37  12 -2.554112E+06 -3.381445E+05 -2.549700E+03 -9.561094E+05 -7.283339E-10  1.034077E-09
        37  13 -2.695432E+06 -3.745302E+05 -1.160426E+04 -1.005969E+06 -1.721942E-09  3.475747E-11
        37  14 -2.681027E+06 -3.796925E+05 -1.928687E+04 -1.016924E+06 -2.046535E-09  1.017075E-09
        37  15 -2.698455E+06 -3.954348E+05 -4.279397E+04 -9.980956E+05  4.913571E-10  1.231339E-09
        37  16 -2.867995E+06 -4.386622E+05 -5.876441E+04 -1.051722E+06  3.400260E-09  1.625106E-09
        37  17 -2.839464E+06 -4.403964E+05 -6.297213E+04 -1.060790E+06  1.837304E-09  6.087658E-10
        37  18 -2.842778E+06 -4.527232E+05 -8.304017E+04 -1.040073E+06 -1.002406E-09  4.984149E-10
        37  19 -2.522840E+06 -3.103967E+05  3.555336E+04 -9.602052E+05 -9.066923E+03 -6.315742E+02
        37  20 -2.522565E+06 -3.189868E+05  2.439684E+04 -9.730486E+05 -1.914635E+04 -4.847733E+03
        37  21 -2.554111E+06 -3.381442E+05 -2.547934E+03 -9.561092E+05 -2.913275E+04 -9.308321E+03
        37  22 -2.695432E+06 -3.745301E+05 -1.160410E+04 -1.005969E+06 -9.108796E+03 -6.473246E+02
        37  23 -2.681026E+06 -3.796923E+05 -1.928613E+04 -1.016924E+06 -1.922953E+04 -4.879047E+03
        37  24 -2.698454E+06 -3.954344E+05 -4.279219E+04 -9.980953E+05 -2.925747E+04 -9.355244E+03
        37  25 -2.867995E+06 -4.386621E+05 -5.876425E+04 -1.051722E+06 -9.150655E+03 -6.630702E+02
        37  26 -2.839464E+06 -4.403962E+05 -6.297138E+04 -1.060790E+06 -1.931268E+04 -4.910352E+03
        37  27 -2.842777E+06 -4.527228E+05 -8.303837E+04 -1.040072E+06 -2.938215E+04 -9.402153E+03
        38   1 -2.654071E+06 -3.592932E+05 -3.932447E+04 -1.004317E+06  3.677330E+04  1.274914E+04
        38   2 -2.636570E+06 -3.386147E+05 -7.400524E+04 -1.012176E+06  8.196906E+04  3.059440E+04
        38   3 -2.726390E+06 -4.941075E+05 -1.979110E+05 -9.387513E+05  1.272995E+05  4.808286E+04
        38   4 -2.706371E+06 -3.706042E+05 -5.195349E+04 -1.009904E+06  3.692482E+04  1.280700E+04
        38   5 -2.662896E+06 -3.530815E+05 -8.214417E+04 -1.023935E+06  8.205476E+04  3.062603E+04
        38   6 -2.726731E+06 -5.117222E+05 -2.015092E+05 -9.566789E+05  1.273215E+05  4.808665E+04
        38   7 -2.758668E+06 -3.819152E+05 -6.458266E+04 -1.015490E+06  3.707633E+04  1.286486E+04
        38   8 -2.689220E+06 -3.675481E+05 -9.028318E+04 -1.035692E+06  8.214045E+04  3.065766E+04
        38   9 -2.727071E+06 -5.293352E+05 -2.051072E+05 -9.746063E+05  1.273434E+05  4.809044E+04
        38  10 -2.654072E+06 -3.592937E+05 -3.932733E+04 -1.004318E+06 -8.318336E-10  3.677237E-10
        38  11 -2.636578E+06 -3.386175E+05 -7.401969E+04 -1.012178E+06 -2.812091E-09  2.997690E-09
        38  12 -2.726408E+06 -4.941144E+05 -1.979459E+05 -9.387562E+05 -6.391689E-10  1.405701E-09
        38  13 -2.706372E+06 -3.706047E+05 -5.195637E+04 -1.009904E+06 -6.834989E-10  1.366846E-09
        38  14 -2.662903E+06 -3.530844E+05 -8.215866E+04 -1.023937E+06 -4.071493E-09  3.043923E-09
        38  15 -2.726749E+06 -5.117291E+05 -2.015441E+05 -9.566838E+05 -2.099720E-09  2.148813E-09
        38  16 -2.758669E+06 -3.819158E+05 -6.458557E+04 -1.015490E+06 -1.195047E-09  9.004470E-10
        38  17 -2.689228E+06 -3.675509E+05 -9.029769E+04 -1.035694E+06  4.136902E-11  2.404235E-09
        38  18 -2.727089E+06 -5.293421E+05 -2.051422E+05 -9.746112E+05  1.707514E-09 -5.685969E-10
        38  19 -2.654071E+06 -3.592932E+05 -3.932447E+04 -1.004317E+06 -3.677330E+04 -1.274914E+04
        38  20 -2.636570E+06 -3.386147E+05 -7.400524E+04 -1.012176E+06 -8.196906E+04 -3.059440E+04
        38  21 -2.726390E+06 -4.941075E+05 -1.979110E+05 -9.387513E+05 -1.272995E+05 -4.808286E+04
        38  22 -2.706371E+06 -3.706042E+05 -5.195349E+04 -1.009904E+06 -3.692482E+04 -1.280700E+04
        38  23 -2.662896E+06 -3.530815E+05 -8.214417E+04 -1.023935E+06 -8.205476E+04 -3.062603E+04
        38  24 -2.726731E+06 -5.117222E+05 -2.015092E+05 -9.566789E+05 -1.273215E+05 -4.808665E+04
        38  25 -2.758668E+06 -3.819152E+05 -6.458266E+04 -1.015490E+06 -3.707633E+04 -1.286486E+04
        38  26 -2.689220E+06 -3.675481E+05 -9.028318E+04 -1.035692E+06 -8.214045E+04 -3.065766E+04
        38  27 -2.727071E+06 -5.293352E+05 -2.051072E+05 -9.746063E+05 -1.273434E+05 -4.809044E+04
        39   1 -1.108402E+06  1.233415E+05  1.606066E+05  1.625994E+04  1.095268E+05  2.873534E+00
        39   2 -1.132716E+06 -2.780202E+04  6.869959E+04  4.177963E+03  7.202901E+04  4.855772E-01
        39   3 -1.108480E+06 -4.394154E+03  4.488204E+04 -7.903615E+03  3.453077E+04 -4.403540E-01
        39   4 -1.108402E+06  1.233410E+05  1.606066E+05 -3.454999E-08  1.095268E+05 -4.623945E-10
        39   5 -1.132716E+06 -2.780206E+04  6.869958E+04 -5.532756E-08  7.202901E+04  5.783437E-10
        39   6 -1.108480E+06 -4.394272E+03  4.488203E+04  3.153716E-08  3.453077E+04 -5.070671E-10
        39   7 -1.108402E+06  1.233415E+05  1.606066E+05 -1.625994E+04  1.095268E+05 -2.873534E+00
        39   8 -1.132716E+06 -2.780202E+04  6.869959E+04 -4.177963E+03  7.202901E+04 -4.855772E-01
        39   9 -1.108480E+06 -4.394154E+03  4.488204E+04  7.903615E+03  3.453077E+04  4.403540E-01
        39  10 -1.108415E+06  1.233383E+05  1.605841E+05  1.625994E+04  2.982697E-11  2.954226E-10
        39  11 -1.132722E+06 -2.780342E+04  6.868982E+04  4.177963E+03 -8.423251E-10 -2.252430E-10
        39  12 -1.108481E+06 -4.394475E+03  4.487980E+04 -7.903615E+03 -1.990957E-09  1.057048E-10
        39  13 -1.108415E+06  1.233378E+05  1.605840E+05 -5.177496E-08  5.043884E-11  5.326890E-11
        39  14 -1.132722E+06 -2.780345E+04  6.868981E+04  4.954514E-09  1.695248E-09  2.497618E-10
        39  15 -1.108481E+06 -4.394593E+03  4.487978E+04 -5.457779E-08 -1.657392E-09  2.014698E-10
        39  16 -1.108415E+06  1.233383E+05  1.605841E+05 -1.625994E+04  5.673080E-10  2.806905E-10
        39  17 -1.132722E+06 -2.780342E+04  6.868982E+04 -4.177963E+03 -1.662588E-09  3.853228E-10
        39  18 -1.108481E+06 -4.394475E+03  4.487980E+04  7.903615E+03  7.366347E-10  5.586792E-10
        39  19 -1.108402E+06  1.233415E+05  1.606066E+05  1.625994E+04 -1.095268E+05 -2.873534E+00
        39  20 -1.132716E+06 -2.780202E+04  6.869959E+04  4.177963E+03 -7.202901E+04 -4.855772E-01
        39  21 -1.108480E+06 -4.394154E+03  4.488204E+04 -7.903615E+03 -3.453077E+04  4.403540E-01
        39  22 -1.108402E+06  1.233410E+05  1.606066E+05 -9.733747E-11 -1.095268E+05  4.666875E-10
        39  23 -1.132716E+06 -2.780206E+04  6.869958E+04 -4.671352E-08 -7.202901E+04 -2.767960E-10
        39  24 -1.108480E+06 -4.394272E+03  4.488203E+04  3.153873E-08 -3.453077E+04  8.125997E-10
        39  25 -1.108402E+06  1.233415E+05  1.606066E+05 -1.625994E+04 -1.095268E+05  2.873534E+00
        39  26 -1.132716E+06 -2.780202E+04  6.869959E+04 -4.177963E+03 -7.202901E+04  4.855772E-01
        39  27 -1.108480E+06 -4.394154E+03  4.488204E+04  7.903615E+03 -3.453077E+04 -4.403540E-01
        40   1 -1.117548E+06  1.819280E+04  3.709421E+04  2.281035E+03  2.715311E+04  9.993740E-02
        40   2 -1.121386E+06 -4.111659E+03  1.778668E+04  5.435493E+02  1.784236E+04  1.564836E-02
        40   3 -1.117562E+06 -6.333328E+02  1.099504E+04 -1.193910E+03  8.531786E+03 -1.643564E-02
        40   4 -1.117548E+06  1.819279E+04  3.709420E+04 -2.361938E-08  2.715311E+04 -6.801342E-12
        40   5 -1.121386E+06 -4.111659E+03  1.778668E+04 -1.419129E-08  1.784236E+04  3.034967E-10
        40   6 -1.117562E+06 -6.333355E+02  1.099504E+04  1.461246E-08  8.531786E+03 -4.107771E-10
        40   7 -1.117548E+06  1.819280E+04  3.709421E+04 -2.281035E+03  2.715311E+04 -9.993740E-02
        40   8 -1.121386E+06 -4.111659E+03  1.778668E+04 -5.435493E+02  1.784236E+04 -1.564837E-02
        40   9 -1.117562E+06 -6.333328E+02  1.099504E+04  1.193910E+03  8.531786E+03  1.643564E-02
        40  10 -1.117549E+06  1.819260E+04  3.709282E+04  2.281035E+03  5.932171E-10  3.691341E-10
        40  11 -1.121387E+06 -4.111744E+03  1.778609E+04  5.435493E+02 -2.176454E-09  8.158652E-11
        40  12 -1.117562E+06 -6.333524E+02  1.099490E+04 -1.193910E+03  6.021187E-10  3.334819E-10
        40  13 -1.117549E+06  1.819259E+04  3.709282E+04 -4.084898E-08  2.186652E-09  1.801673E-10
        40  14 -1.121387E+06 -4.111745E+03  1.778609E+04  1.164177E-08  1.076505E-09  1.843727E-10
        40  15 -1.117562E+06 -6.333550E+02  1.099490E+04  9.857873E-08 -1.108456E-09  6.144041E-11
        40  16 -1.117549E+06  1.819260E+04  3.709282E+04 -2.281035E+03 -7.032184E-10  4.606830E-10
        40  17 -1.121387E+06 -4.111744E+03  1.778609E+04 -5.435493E+02  3.623678E-09  8.361346E-11
        40  18 -1.117562E+06 -6.333524E+02  1.099490E+04  1.193910E+03  4.034915E-10 -1.271147E-10
        40  19 -1.117548E+06  1.819280E+04  3.709421E+04  2.281035E+03 -2.715311E+04 -9.993740E-02
        40  20 -1.121386E+06 -4.111659E+03  1.778668E+04  5.435493E+02 -1.784236E+04 -1.564836E-02
        40  21 -1.117562E+06 -6.333328E+02  1.099504E+04 -1.193910E+03 -8.531786E+03  1.643564E-02
        40  22 -1.117548E+06  1.819279E+04  3.709420E+04 -6.403189E-09 -2.715311E+04  5.035145E-10
        40  23 -1.121386E+06 -4.111659E+03  1.778668E+04  2.025384E-08 -1.784236E+04  3.166342E-11
        40  24 -1.117562E+06 -6.333355E+02  1.099504E+04  6.843823E-08 -8.531786E+03  3.720019E-10
        40  25 -1.117548E+06  1.819280E+04  3.709421E+04 -2.281035E+03 -2.715311E+04  9.993740E-02
        40  26 -1.121386E+06 -4.111659E+03  1.778668E+04 -5.435493E+02 -1.784236E+04  1.564836E-02
        40  27 -1.117562E+06 -6.333328E+02  1.099504E+04  1.193910E+03 -8.531786E+03 -1.643564E-02
        41   1 -1.118985E+06  2.667604E+03  8.773015E+03  3.047208E+02  6.748654E+03  3.318145E-03
        41   2 -1.119609E+06 -6.046732E+02  4.488104E+03  6.132087E+01  4.455212E+03  4.408122E-04
        41   3 -1.118988E+06 -9.307078E+01  2.644372E+03 -1.820829E+02  2.161740E+03 -6.351080E-04
        41   4 -1.118985E+06  2.667604E+03  8.773015E+03  3.974487E-08  6.748654E+03 -2.271348E-10
        41   5 -1.119609E+06 -6.046732E+02  4.488104E+03 -3.596831E-09  4.455212E+03  6.252648E-10
        41   6 -1.118988E+06 -9.307084E+01  2.644372E+03  1.123776E-07  2.161740E+03 -1.057575E-10
        41   7 -1.118985E+06  2.667604E+03  8.773015E+03 -3.047208E+02  6.748654E+03 -3.318146E-03
        41   8 -1.119609E+06 -6.046732E+02  4.488104E+03 -6.132087E+01  4.455212E+03 -4.408116E-04
        41   9 -1.118988E+06 -9.307078E+01  2.644372E+03  1.820829E+02  2.161740E+03  6.351092E-04
        41  10 -1.118985E+06  2.667592E+03  8.772930E+03  3.047208E+02 -7.759819E-10  3.863030E-10
        41  11 -1.119609E+06 -6.046785E+02  4.488066E+03  6.132087E+01  3.009190E-09 -2.264280E-11
        41  12 -1.118988E+06 -9.307203E+01  2.644363E+03 -1.820829E+02  2.913392E-09 -3.458754E-10
        41  13 -1.118985E+06  2.667592E+03  8.772930E+03  2.252370E-08  5.043778E-11  9.463396E-11
        41  14 -1.119609E+06 -6.046785E+02  4.488066E+03  2.223489E-08 -1.262188E-09  1.408618E-10
        41  15 -1.118988E+06 -9.307210E+01  2.644363E+03 -2.542042E-08  1.530294E-09 -3.843353E-10
        41  16 -1.118985E+06  2.667592E+03  8.772930E+03 -3.047208E+02  6.070998E-10  4.696742E-12
        41  17 -1.119609E+06 -6.046785E+02  4.488066E+03 -6.132087E+01 -1.226583E-09  3.089332E-10
        41  18 -1.118988E+06 -9.307203E+01  2.644363E+03  1.820829E+02 -1.351850E-09 -3.516311E-10
        41  19 -1.118985E+06  2.667604E+03  8.773015E+03  3.047208E+02 -6.748654E+03 -3.318145E-03
        41  20 -1.119609E+06 -6.046732E+02  4.488104E+03  6.132087E+01 -4.455212E+03 -4.408117E-04
        41  21 -1.118988E+06 -9.307078E+01  2.644372E+03 -1.820829E+02 -2.161740E+03  6.351089E-04
        41  22 -1.118985E+06  2.667604E+03  8.773015E+03  5.697654E-08 -6.748654E+03  3.072498E-10
        41  23 -1.119609E+06 -6.046732E+02  4.488104E+03 -5.527419E-08 -4.455212E+03 -3.999065E-10
        41  24 -1.118988E+06 -9.307084E+01  2.644372E+03  9.020081E-09 -2.161740E+03 -7.284198E-10
        41  25 -1.118985E+06  2.667604E+03  8.773015E+03 -3.047208E+02 -6.748654E+03  3.318145E-03
        41  26 -1.119609E+06 -6.046732E+02  4.488104E+03 -6.132087E+01 -4.455212E+03  4.408100E-04
        41  27 -1.118988E+06 -9.307078E+01  2.644372E+03  1.820829E+02 -2.161740E+03 -6.351106E-04
        42   1 -1.119222E+06  3.879524E+02  2.030897E+03  3.446888E+01  1.739464E+03  9.674358E-05
        42   2 -1.119318E+06 -8.163199E+01  9.845130E+02  4.057791E+00  1.242963E+03  8.139487E-06
        42   3 -1.119222E+06 -4.195159E+01  3.891283E+02 -2.635332E+01  7.464629E+02 -3.174038E-05
        42   4 -1.119222E+06  3.879524E+02  2.030897E+03  3.195943E-08  1.739464E+03  1.925007E-10
        42   5 -1.119318E+06 -8.163199E+01  9.845130E+02 -4.900310E-08  1.242963E+03  7.266678E-10
        42   6 -1.119222E+06 -4.195159E+01  3.891283E+02  5.949651E-08  7.464629E+02 -5.162897E-10
        42   7 -1.119222E+06  3.879524E+02  2.030897E+03 -3.446888E+01  1.739464E+03 -9.674275E-05
        42   8 -1.119318E+06 -8.163199E+01  9.845130E+02 -4.057791E+00  1.242963E+03 -8.138532E-06
        42   9 -1.119222E+06 -4.195159E+01  3.891283E+02  2.635332E+01  7.464629E+02  3.174027E-05
        42  10 -1.119222E+06  3.879516E+02  2.030891E+03  3.446888E+01  2.014174E-09  2.391724E-10
        42  11 -1.119318E+06 -8.163240E+01  9.845101E+02  4.057791E+00 -4.629646E-09  8.917004E-10
        42  12 -1.119222E+06 -4.195174E+01  3.891272E+02 -2.635332E+01 -6.350682E-10 -3.182237E-10
        42  13 -1.119222E+06  3.879516E+02  2.030891E+03 -1.969702E-08  4.215074E-10 -7.084380E-11
        42  14 -1.119318E+06 -8.163240E+01  9.845101E+02  2.669629E-09 -2.191598E-10  7.429951E-10
        42  15 -1.119222E+06 -4.195174E+01  3.891272E+02 -2.663726E-08 -1.497521E-09 -2.875823E-10
        42  16 -1.119222E+06  3.879516E+02  2.030891E+03 -3.446888E+01  4.617956E-10 -2.454279E-10
        42  17 -1.119318E+06 -8.163240E+01  9.845101E+02 -4.057791E+00  9.975053E-10  4.596869E-10
        42  18 -1.119222E+06 -4.195174E+01  3.891272E+02  2.635332E+01  2.135944E-09 -2.119948E-10
        42  19 -1.119222E+06  3.879524E+02  2.030897E+03  3.446888E+01 -1.739464E+03 -9.674246E-05
        42  20 -1.119318E+06 -8.163199E+01  9.845130E+02  4.057791E+00 -1.242963E+03 -8.136783E-06
        42  21 -1.119222E+06 -4.195159E+01  3.891283E+02 -2.635332E+01 -7.464629E+02  3.174094E-05
        42  22 -1.119222E+06  3.879524E+02  2.030897E+03 -3.690428E-08 -1.739464E+03 -4.246021E-10
        42  23 -1.119318E+06 -8.163199E+01  9.845130E+02  8.878840E-08 -1.242963E+03  4.913309E-10
        42  24 -1.119222E+06 -4.195159E+01  3.891283E+02  5.946788E-08 -7.464629E+02  8.231859E-11
        42  25 -1.119222E+06  3.879524E+02  2.030897E+03 -3.446889E+01 -1.739464E+03  9.674219E-05
        42  26 -1.119318E+06 -8.163199E+01  9.845130E+02 -4.057791E+00 -1.242963E+03  8.138083E-06
        42  27 -1.119222E+06 -4.195159E+01  3.891283E+02  2.635332E+01 -7.464629E+02 -3.174156E-05
        43   1 -1.119282E+06  6.168489E+01  1.525620E+02 -1.194939E+01  6.974900E+02 -1.344794E-05
        43   2 -1.119244E+06  3.537465E+01 -3.345780E+02  1.824212E+00  8.672113E+02  2.553360E-06
        43   3 -1.119283E+06 -2.120000E+02 -9.876327E+02  1.559761E+01  1.036930E+03  2.609698E-05
        43   4 -1.119282E+06  6.168489E+01  1.525620E+02  1.180650E-08  6.974900E+02 -2.462115E-10
        43   5 -1.119244E+06  3.537465E+01 -3.345780E+02 -3.198734E-08  8.672113E+02  7.833354E-10
        43   6 -1.119283E+06 -2.120000E+02 -9.876327E+02  1.033765E-08  1.036930E+03 -5.980772E-10
        43   7 -1.119282E+06  6.168489E+01  1.525620E+02  1.194939E+01  6.974900E+02  1.344770E-05
        43   8 -1.119244E+06  3.537465E+01 -3.345780E+02 -1.824212E+00  8.672113E+02 -2.552337E-06
        43   9 -1.119283E+06 -2.120000E+02 -9.876327E+02 -1.559761E+01  1.036930E+03 -2.609709E-05
        43  10 -1.119282E+06  6.168476E+01  1.525611E+02 -1.194939E+01  1.413653E-09 -2.918037E-10
        43  11 -1.119244E+06  3.537445E+01 -3.345795E+02  1.824211E+00  2.241912E-09  7.937987E-10
        43  12 -1.119283E+06 -2.120003E+02 -9.876347E+02  1.559761E+01  8.857206E-11 -1.655717E-11
        43  13 -1.119282E+06  6.168476E+01  1.525611E+02 -3.985181E-08  4.213959E-10 -2.987367E-10
        43  14 -1.119244E+06  3.537445E+01 -3.345795E+02 -3.198681E-08  2.557557E-09  5.414612E-10
        43  15 -1.119283E+06 -2.120003E+02 -9.876347E+02  1.893354E-08 -2.457094E-09 -1.713327E-10
        43  16 -1.119282E+06  6.168476E+01  1.525611E+02  1.194939E+01 -8.922214E-10 -2.386406E-10
        43  17 -1.119244E+06  3.537445E+01 -3.345795E+02 -1.824212E+00  1.997208E-09  4.241590E-10
        43  18 -1.119283E+06 -2.120003E+02 -9.876347E+02 -1.559761E+01 -2.746717E-09  1.115871E-10
        43  19 -1.119282E+06  6.168489E+01  1.525620E+02 -1.194939E+01 -6.974900E+02  1.344771E-05
        43  20 -1.119244E+06  3.537465E+01 -3.345780E+02  1.824211E+00 -8.672113E+02 -2.551457E-06
        43  21 -1.119283E+06 -2.120000E+02 -9.876327E+02  1.559761E+01 -1.036930E+03 -2.609588E-05
        43  22 -1.119282E+06  6.168489E+01  1.525620E+02 -2.261092E-08 -6.974900E+02 -4.270160E-10
        43  23 -1.119244E+06  3.537465E+01 -3.345780E+02 -4.059872E-08 -8.672113E+02  1.105205E-10
        43  24 -1.119283E+06 -2.120000E+02 -9.876327E+02  8.155252E-09 -1.036930E+03  5.564424E-11
        43  25 -1.119282E+06  6.168489E+01  1.525620E+02  1.194939E+01 -6.974900E+02 -1.344970E-05
        43  26 -1.119244E+06  3.537465E+01 -3.345780E+02 -1.824212E+00 -8.672113E+02  2.551949E-06
        43  27 -1.119283E+06 -2.120000E+02 -9.876327E+02 -1.559761E+01 -1.036930E+03  2.609675E-05
        44   1 -1.119415E+06  5.597790E+01 -1.348690E+03 -9.903274E+01  1.247937E+03 -1.994113E-04
        44   2 -1.119079E+06  3.275542E+02 -2.390666E+03  3.308250E+01  2.470298E+03  1.318635E-04
        44   3 -1.119416E+06 -1.450794E+03 -4.741992E+03  1.651998E+02  3.692676E+03  9.842981E-04
        44   4 -1.119415E+06  5.597788E+01 -1.348690E+03  6.039884E-08  1.247937E+03 -7.959266E-10
        44   5 -1.119079E+06  3.275542E+02 -2.390666E+03  1.612937E-08  2.470298E+03  4.437927E-10
        44   6 -1.119416E+06 -1.450794E+03 -4.741992E+03  1.031923E-07  3.692676E+03 -1.263009E-10
        44   7 -1.119415E+06  5.597790E+01 -1.348690E+03  9.903274E+01  1.247937E+03  1.994094E-04
        44   8 -1.119079E+06  3.275542E+02 -2.390666E+03 -3.308250E+01  2.470298E+03 -1.318632E-04
        44   9 -1.119416E+06 -1.450794E+03 -4.741992E+03 -1.651998E+02  3.692676E+03 -9.842987E-04
        44  10 -1.119415E+06  5.597748E+01 -1.348693E+03 -9.903274E+01  2.268728E-09 -8.153062E-10
        44  11 -1.119079E+06  3.275525E+02 -2.390678E+03  3.308250E+01  5.563325E-10 -3.925932E-11
        44  12 -1.119416E+06 -1.450798E+03 -4.742017E+03  1.651998E+02  1.002700E-09  3.201189E-10
        44  13 -1.119415E+06  5.597746E+01 -1.348693E+03  8.736827E-09 -2.574177E-09 -4.159490E-10
        44  14 -1.119079E+06  3.275525E+02 -2.390678E+03  1.613173E-08  5.852329E-09 -1.589502E-10
        44  15 -1.119416E+06 -1.450798E+03 -4.742017E+03  4.505743E-08  3.919345E-09  8.596871E-11
        44  16 -1.119415E+06  5.597748E+01 -1.348693E+03  9.903274E+01 -8.044410E-10 -3.527498E-10
        44  17 -1.119079E+06  3.275525E+02 -2.390678E+03 -3.308250E+01 -1.264019E-09 -3.477900E-10
        44  18 -1.119416E+06 -1.450798E+03 -4.742017E+03 -1.651998E+02  7.295564E-10 -2.319943E-10
        44  19 -1.119415E+06  5.597790E+01 -1.348690E+03 -9.903274E+01 -1.247937E+03  1.994098E-04
        44  20 -1.119079E+06  3.275542E+02 -2.390666E+03  3.308250E+01 -2.470298E+03 -1.318633E-04
        44  21 -1.119416E+06 -1.450794E+03 -4.741992E+03  1.651998E+02 -3.692676E+03 -9.842974E-04
        44  22 -1.119415E+06  5.597788E+01 -1.348690E+03  8.743657E-09 -1.247937E+03 -1.349165E-10
        44  23 -1.119079E+06  3.275542E+02 -2.390666E+03  3.335768E-08 -2.470298E+03 -3.874669E-10
        44  24 -1.119416E+06 -1.450794E+03 -4.741992E+03  9.672550E-08 -3.692676E+03  1.412291E-10
        44  25 -1.119415E+06  5.597790E+01 -1.348690E+03  9.903274E+01 -1.247937E+03 -1.994103E-04
        44  26 -1.119079E+06  3.275542E+02 -2.390666E+03 -3.308250E+01 -2.470298E+03  1.318622E-04
        44  27 -1.119416E+06 -1.450794E+03 -4.741992E+03 -1.651998E+02 -3.692676E+03  9.842973E-04
        45   1 -1.120191E+06  3.451072E+02 -5.957209E+03 -6.493665E+02  4.657677E+03 -4.880178E-03
        45   2 -1.118112E+06  2.235867E+03 -9.659830E+03  2.954992E+02  9.714984E+03  4.632051E-03
        45   3 -1.120199E+06 -9.893498E+03 -2.016433E+04  1.240365E+03  1.477228E+04  2.956464E-02
        45   4 -1.120191E+06  3.451064E+02 -5.957210E+03  1.197667E-07  4.657677E+03 -4.842203E-10
        45   5 -1.118112E+06  2.235866E+03 -9.659830E+03 -9.068471E-08  9.714984E+03  2.692117E-10
        45   6 -1.120199E+06 -9.893500E+03 -2.016433E+04 -3.416801E-08  1.477228E+04  1.077463E-09
        45   7 -1.120191E+06  3.451072E+02 -5.957209E+03  6.493665E+02  4.657677E+03  4.880177E-03
        45   8 -1.118112E+06  2.235867E+03 -9.659830E+03 -2.954992E+02  9.714984E+03 -4.632052E-03
        45   9 -1.120199E+06 -9.893498E+03 -2.016433E+04 -1.240365E+03  1.477228E+04 -2.956464E-02
        45  10 -1.120191E+06  3.451014E+02 -5.957250E+03 -6.493665E+02 -1.824957E-09  2.748959E-10
        45  11 -1.118112E+06  2.235841E+03 -9.660008E+03  2.954992E+02  2.018259E-10  1.764497E-10
        45  12 -1.120199E+06 -9.893556E+03 -2.016474E+04  1.240365E+03 -1.173231E-09  7.086325E-11
        45  13 -1.120191E+06  3.451006E+02 -5.957250E+03  5.948689E-08 -3.362498E-11  6.757054E-11
        45  14 -1.118112E+06  2.235841E+03 -9.660008E+03 -1.317680E-08 -2.354785E-09  2.023212E-10
        45  15 -1.120199E+06 -9.893559E+03 -2.016474E+04  4.764271E-08  1.816518E-09  6.519308E-11
        45  16 -1.120191E+06  3.451014E+02 -5.957250E+03  6.493665E+02 -1.286715E-09  2.642229E-10
        45  17 -1.118112E+06  2.235841E+03 -9.660008E+03 -2.954992E+02  1.143774E-09  9.416244E-11
        45  18 -1.120199E+06 -9.893556E+03 -2.016474E+04 -1.240365E+03  1.976375E-09  3.008735E-11
        45  19 -1.120191E+06  3.451072E+02 -5.957209E+03 -6.493665E+02 -4.657677E+03  4.880179E-03
        45  20 -1.118112E+06  2.235867E+03 -9.659830E+03  2.954992E+02 -9.714984E+03 -4.632052E-03
        45  21 -1.120199E+06 -9.893498E+03 -2.016433E+04  1.240365E+03 -1.477228E+04 -2.956464E-02
        45  22 -1.120191E+06  3.451064E+02 -5.957210E+03  1.542220E-07 -4.657677E+03  6.535927E-10
        45  23 -1.118112E+06  2.235866E+03 -9.659830E+03  1.265987E-08 -9.714984E+03  1.321300E-13
        45  24 -1.120199E+06 -9.893500E+03 -2.016433E+04  5.194920E-08 -1.477228E+04 -9.789933E-10
        45  25 -1.120191E+06  3.451072E+02 -5.957209E+03  6.493665E+02 -4.657677E+03 -4.880178E-03
        45  26 -1.118112E+06  2.235867E+03 -9.659830E+03 -2.954992E+02 -9.714984E+03  4.632052E-03
        45  27 -1.120199E+06 -9.893498E+03 -2.016433E+04 -1.240365E+03 -1.477228E+04  2.956464E-02
        46   1 -1.125130E+06  2.390133E+03 -2.440008E+04 -4.298269E+03  1.878230E+04 -1.302632E-01
        46   2 -1.111948E+06  1.511987E+04 -3.734757E+04  2.272307E+03  3.917460E+04  1.436289E-01
        46   3 -1.125168E+06 -6.707508E+04 -8.731891E+04  8.842666E+03  5.956673E+04  8.498894E-01
        46   4 -1.125130E+06  2.390098E+03 -2.440008E+04 -4.701681E-09  1.878230E+04  9.757608E-10
        46   5 -1.111948E+06  1.511986E+04 -3.734757E+04 -3.856945E-09  3.917460E+04  2.330170E-10
        46   6 -1.125168E+06 -6.707523E+04 -8.731893E+04 -1.937255E-09  5.956673E+04 -3.671853E-10
        46   7 -1.125130E+06  2.390133E+03 -2.440008E+04  4.298269E+03  1.878230E+04  1.302632E-01
        46   8 -1.111948E+06  1.511987E+04 -3.734757E+04 -2.272307E+03  3.917460E+04 -1.436289E-01
        46   9 -1.125168E+06 -6.707508E+04 -8.731891E+04 -8.842666E+03  5.956673E+04 -8.498894E-01
        46  10 -1.125130E+06  2.390038E+03 -2.440074E+04 -4.298269E+03 -3.506669E-10 -7.047239E-11
        46  11 -1.111950E+06  1.511946E+04 -3.735046E+04  2.272307E+03  3.691983E-10 -4.873569E-11
        46  12 -1.125172E+06 -6.707604E+04 -8.732559E+04  8.842666E+03  2.324954E-10 -1.277704E-10
        46  13 -1.125130E+06  2.390003E+03 -2.440075E+04  7.280357E-08  7.670713E-10  2.840773E-13
        46  14 -1.111950E+06  1.511945E+04 -3.735046E+04  5.642717E-08  1.076453E-09  3.157412E-11
        46  15 -1.125172E+06 -6.707618E+04 -8.732561E+04 -1.020464E-07  1.747971E-09  9.793417E-12
        46  16 -1.125130E+06  2.390038E+03 -2.440074E+04  4.298269E+03 -4.919988E-10 -1.967409E-10
        46  17 -1.111950E+06  1.511946E+04 -3.735046E+04 -2.272307E+03  2.622189E-09 -8.582771E-11
        46  18 -1.125172E+06 -6.707604E+04 -8.732559E+04 -8.842666E+03  1.381686E-09  1.247513E-10
        46  19 -1.125130E+06  2.390133E+03 -2.440008E+04 -4.298269E+03 -1.878230E+04  1.302632E-01
        46  20 -1.111948E+06  1.511987E+04 -3.734757E+04  2.272307E+03 -3.917460E+04 -1.436289E-01
        46  21 -1.125168E+06 -6.707508E+04 -8.731891E+04  8.842666E+03 -5.956673E+04 -8.498894E-01
        46  22 -1.125130E+06  2.390098E+03 -2.440008E+04  6.418950E-08 -1.878230E+04 -1.030466E-09
        46  23 -1.111948E+06  1.511986E+04 -3.734757E+04  4.781475E-08 -3.917460E+04 -2.693719E-10
        46  24 -1.125168E+06 -6.707523E+04 -8.731893E+04  3.251253E-08 -5.956673E+04  3.886191E-10
        46  25 -1.125130E+06  2.390133E+03 -2.440008E+04  4.298269E+03 -1.878230E+04 -1.302632E-01
        46  26 -1.111948E+06  1.511987E+04 -3.734757E+04 -2.272307E+03 -3.917460E+04  1.436289E-01
        46  27 -1.125168E+06 -6.707508E+04 -8.731891E+04 -8.842666E+03 -5.956673E+04  8.498894E-01
        47   1 -6.039169E+04 -2.244378E+06 -7.447826E+04  7.219355E+04  6.455607E+01 -4.348575E+04
        47   2  2.629873E+04 -2.125533E+06 -1.123677E+04  1.432311E+04  1.798198E+03 -2.701505E+04
        47   3  4.717499E+04 -2.025281E+06  2.479856E+04  5.184893E+04  5.832299E+03 -1.054054E+04
        47   4 -5.082672E+04 -2.206216E+06 -6.489414E+04  5.809038E+04  6.552113E+01 -4.373539E+04
        47   5  8.497083E+03 -2.196972E+06 -2.863371E+04  1.039002E+04  1.798363E+03 -2.825483E+04
        47   6  2.176847E+03 -2.206160E+06 -1.888765E+04  5.808871E+04  5.832295E+03 -1.277334E+04
        47   7 -4.126110E+04 -2.168052E+06 -5.531002E+04  4.398633E+04  6.649751E+01 -4.398504E+04
        47   8 -9.304884E+03 -2.268407E+06 -4.603100E+04  6.457392E+03  1.798544E+03 -2.949446E+04
        47   9 -4.282354E+04 -2.387009E+06 -6.257617E+04  6.432666E+04  5.832247E+03 -1.500549E+04
        47  10 -6.039220E+04 -2.244380E+06 -7.448183E+04  7.219356E+04 -8.499818E-11 -1.756004E-10
        47  11  2.629853E+04 -2.125534E+06 -1.123815E+04  1.432315E+04 -2.251456E-09 -7.418299E-10
        47  12  4.717492E+04 -2.025281E+06  2.479829E+04  5.184898E+04  5.832027E-10 -3.593185E-10
        47  13 -5.082723E+04 -2.206218E+06 -6.489775E+04  5.809038E+04 -1.942172E-09 -2.640310E-11
        47  14  8.496864E+03 -2.196973E+06 -2.863522E+04  1.039007E+04  1.181327E-10 -4.392084E-11
        47  15  2.176767E+03 -2.206160E+06 -1.888802E+04  5.808877E+04  4.285329E-10  9.537453E-11
        47  16 -4.126162E+04 -2.168054E+06 -5.531367E+04  4.398633E+04 -1.258253E-09  2.060473E-10
        47  17 -9.305122E+03 -2.268408E+06 -4.603265E+04  6.457435E+03  8.603721E-10  7.983717E-10
        47  18 -4.282364E+04 -2.387009E+06 -6.257666E+04  6.432673E+04 -2.618477E-09  2.566461E-10
        47  19 -6.039169E+04 -2.244378E+06 -7.447826E+04  7.219355E+04 -6.455607E+01  4.348575E+04
        47  20  2.629873E+04 -2.125533E+06 -1.123677E+04  1.432311E+04 -1.798198E+03  2.701505E+04
        47  21  4.717499E+04 -2.025281E+06  2.479856E+04  5.184893E+04 -5.832299E+03  1.054054E+04
        47  22 -5.082672E+04 -2.206216E+06 -6.489414E+04  5.809038E+04 -6.552113E+01  4.373539E+04
        47  23  8.497083E+03 -2.196972E+06 -2.863371E+04  1.039002E+04 -1.798363E+03  2.825483E+04
        47  24  2.176847E+03 -2.206160E+06 -1.888765E+04  5.808871E+04 -5.832295E+03  1.277334E+04
        47  25 -4.126110E+04 -2.168052E+06 -5.531002E+04  4.398633E+04 -6.649751E+01  4.398504E+04
        47  26 -9.304884E+03 -2.268407E+06 -4.603100E+04  6.457392E+03 -1.798544E+03  2.949446E+04
        47  27 -4.282354E+04 -2.387009E+06 -6.257617E+04  6.432666E+04 -5.832247E+03  1.500549E+04
        48   1  8.325724E+04 -1.845243E+06  7.110816E+04  5.921661E+04  8.878522E+03 -7.726733E+03
        48   2  1.167708E+05 -1.737550E+06  1.028847E+05  1.121677E+04  1.278129E+04 -3.418419E+03
        48   3  1.400480E+05 -1.632520E+06  1.293811E+05  5.584904E+04  1.506469E+04  8.936261E+02
        48   4 -5.813639E+03 -2.202726E+06 -1.596594E+04  5.747439E+04  8.879095E+03 -9.753944E+03
        48   5  1.292730E+03 -2.201332E+06 -9.718608E+03  1.115606E+04  1.278255E+04 -4.750226E+03
        48   6 -1.961338E+03 -2.202733E+06 -9.236838E+03  5.747445E+04  1.506608E+04  2.564945E+02
        48   7 -9.489396E+04 -2.560092E+06 -1.030493E+05  5.573317E+04  8.879680E+03 -1.177999E+04
        48   8 -1.142011E+05 -2.664916E+06 -1.223374E+05  1.109541E+04  1.278381E+04 -6.081038E+03
        48   9 -1.439947E+05 -2.772649E+06 -1.478783E+05  5.909839E+04  1.506747E+04 -3.800522E+02
        48  10  8.325714E+04 -1.845243E+06  7.110790E+04  5.921667E+04  9.289531E-10  5.560613E-10
        48  11  1.167706E+05 -1.737550E+06  1.028843E+05  1.121681E+04 -3.901639E-09 -2.500208E-10
        48  12  1.400478E+05 -1.632520E+06  1.293806E+05  5.584903E+04 -7.636036E-10 -1.125759E-09
        48  13 -5.813750E+03 -2.202727E+06 -1.596627E+04  5.747446E+04 -5.723856E-10  3.243846E-10
        48  14  1.292549E+03 -2.201332E+06 -9.718958E+03  1.115611E+04  1.889075E-09  3.695105E-10
        48  15 -1.961581E+03 -2.202733E+06 -9.237264E+03  5.747444E+04  7.341923E-10  5.249380E-10
        48  16 -9.489408E+04 -2.560093E+06 -1.030497E+05  5.573326E+04 -4.910154E-10 -6.919435E-10
        48  17 -1.142013E+05 -2.664917E+06 -1.223378E+05  1.109548E+04  5.746200E-09  3.341328E-10
        48  18 -1.439949E+05 -2.772649E+06 -1.478787E+05  5.909840E+04  1.988547E-09  7.785120E-10
        48  19  8.325724E+04 -1.845243E+06  7.110816E+04  5.921661E+04 -8.878522E+03  7.726733E+03
        48  20  1.167708E+05 -1.737550E+06  1.028847E+05  1.121677E+04 -1.278129E+04  3.418419E+03
        48  21  1.400480E+05 -1.632520E+06  1.293811E+05  5.584904E+04 -1.506469E+04 -8.936261E+02
        48  22 -5.813639E+03 -2.202726E+06 -1.596594E+04  5.747439E+04 -8.879095E+03  9.753944E+03
        48  23  1.292730E+03 -2.201332E+06 -9.718608E+03  1.115606E+04 -1.278255E+04  4.750226E+03
        48  24 -1.961338E+03 -2.202733E+06 -9.236838E+03  5.747445E+04 -1.506608E+04 -2.564945E+02
        48  25 -9.489396E+04 -2.560092E+06 -1.030493E+05  5.573317E+04 -8.879680E+03  1.177999E+04
        48  26 -1.142011E+05 -2.664916E+06 -1.223374E+05  1.109541E+04 -1.278381E+04  6.081038E+03
        48  27 -1.439947E+05 -2.772649E+06 -1.478783E+05  5.909839E+04 -1.506747E+04  3.800522E+02
        49   1  1.837569E+05 -1.465315E+06  1.698610E+05  5.759972E+04  2.025738E+04  7.805264E+03
        49   2  2.109069E+05 -1.364634E+06  1.913629E+05  1.073708E+04  2.414751E+04  5.341166E+03
        49   3  2.160708E+05 -1.267686E+06  2.092719E+05  4.932663E+04  8.309314E+03  2.838640E+03
        49   4  2.688524E+01 -2.203335E+06 -9.314228E+03  5.589044E+04  2.026505E+04  1.872847E+03
        49   5  2.825189E+03 -2.200740E+06 -1.127869E+04  1.314195E+04  2.414540E+04  7.912049E+03
        49   6 -1.785777E+04 -2.203376E+06 -2.276048E+04  5.585328E+04  8.285665E+03  1.391302E+04
        49   7 -1.837432E+05 -2.940856E+06 -1.885287E+05  5.418331E+04  2.027276E+04 -4.052525E+03
        49   8 -2.053080E+05 -3.036205E+06 -2.139707E+05  1.554382E+04  2.414332E+04  1.047947E+04
        49   9 -2.518520E+05 -3.138267E+06 -2.548578E+05  6.237047E+04  8.262233E+03  2.497067E+04
        49  10  1.837564E+05 -1.465316E+06  1.698601E+05  5.759959E+04 -2.355078E-09 -5.142390E-10
        49  11  2.109063E+05 -1.364634E+06  1.913617E+05  1.073698E+04  2.395275E-09  1.662402E-10
        49  12  2.160708E+05 -1.267686E+06  2.092717E+05  4.932661E+04  1.095696E-10 -1.310217E-09
        49  13  2.644376E+01 -2.203335E+06 -9.315006E+03  5.589041E+04  2.072658E-09  1.310969E-09
        49  14  2.824547E+03 -2.200740E+06 -1.127990E+04  1.314179E+04  4.484160E-09  8.962997E-10
        49  15 -1.785790E+04 -2.203376E+06 -2.276097E+04  5.585319E+04  2.082139E-09  1.578035E-09
        49  16 -1.837436E+05 -2.940856E+06 -1.885295E+05  5.418337E+04  5.591767E-10  8.701051E-11
        49  17 -2.053086E+05 -3.036206E+06 -2.139720E+05  1.554361E+04  1.499360E-09  8.982485E-11
        49  18 -2.518522E+05 -3.138268E+06 -2.548591E+05  6.237030E+04  1.194350E-09  6.345529E-10
        49  19  1.837569E+05 -1.465315E+06  1.698610E+05  5.759972E+04 -2.025738E+04 -7.805264E+03
        49  20  2.109069E+05 -1.364634E+06  1.913629E+05  1.073708E+04 -2.414751E+04 -5.341166E+03
        49  21  2.160708E+05 -1.267686E+06  2.092719E+05  4.932663E+04 -8.309314E+03 -2.838640E+03
        49  22  2.688524E+01 -2.203335E+06 -9.314228E+03  5.589044E+04 -2.026505E+04 -1.872847E+03
        49  23  2.825189E+03 -2.200740E+06 -1.127869E+04  1.314195E+04 -2.414540E+04 -7.912049E+03
        49  24 -1.785777E+04 -2.203376E+06 -2.276048E+04  5.585328E+04 -8.285665E+03 -1.391302E+04
        49  25 -1.837432E+05 -2.940856E+06 -1.885287E+05  5.418331E+04 -2.027276E+04  4.052525E+03
        49  26 -2.053080E+05 -3.036205E+06 -2.139707E+05  1.554382E+04 -2.414332E+04 -1.047947E+04
        49  27 -2.518520E+05 -3.138267E+06 -2.548578E+05  6.237047E+04 -8.262233E+03 -2.497067E+04
        50   1 -1.319343E+06 -1.336500E+05  7.536239E+04 -5.089407E+05  5.695746E+04  2.167230E+04
        50   2 -1.337265E+06 -2.116115E+05  2.267280E+04 -4.870130E+05  3.651548E+04  1.456531E+04
        50   3 -1.314345E+06 -2.033572E+05  9.862343E+03 -4.933345E+05  1.633467E+04  6.760903E+03
        50   4 -1.259126E+06 -1.187072E+05  9.037834E+04 -5.006084E+05  5.711199E+04  2.172934E+04
        50   5 -1.284039E+06 -1.935216E+05  3.685614E+04 -4.746100E+05  3.654283E+04  1.457540E+04
        50   6 -1.268087E+06 -1.821000E+05  2.331108E+04 -4.768599E+05  1.623503E+04  6.723688E+03
        50   7 -1.198906E+06 -1.037645E+05  1.053940E+05 -4.922757E+05  5.726654E+04  2.178638E+04
        50   8 -1.230810E+06 -1.754316E+05  5.103923E+04 -4.622060E+05  3.657017E+04  1.458550E+04
        50   9 -1.221827E+06 -1.608423E+05  3.675963E+04 -4.603841E+05  1.613538E+04  6.686468E+03
        50  10 -1.319346E+06 -1.336514E+05  7.535539E+04 -5.089417E+05  2.558884E-10  4.449597E-11
        50  11 -1.337267E+06 -2.116121E+05  2.266989E+04 -4.870135E+05  3.184769E-10  5.350915E-10
        50  12 -1.314345E+06 -2.033573E+05  9.861755E+03 -4.933346E+05 -7.704379E-10  5.602261E-10
        50  13 -1.259130E+06 -1.187085E+05  9.037131E+04 -5.006094E+05  1.945909E-10  1.011886E-10
        50  14 -1.284040E+06 -1.935222E+05  3.685323E+04 -4.746104E+05  1.860434E-09 -9.596945E-11
        50  15 -1.268087E+06 -1.821001E+05  2.331050E+04 -4.768600E+05 -1.811363E-09  7.549114E-10
        50  16 -1.198909E+06 -1.037659E+05  1.053869E+05 -4.922767E+05 -5.093773E-10 -2.794647E-10
        50  17 -1.230812E+06 -1.754322E+05  5.103631E+04 -4.622065E+05  2.364054E-10  5.792003E-10
        50  18 -1.221827E+06 -1.608425E+05  3.675905E+04 -4.603842E+05  1.560385E-09  7.161143E-10
        50  19 -1.319343E+06 -1.336500E+05  7.536239E+04 -5.089407E+05 -5.695746E+04 -2.167230E+04
        50  20 -1.337265E+06 -2.116115E+05  2.267280E+04 -4.870130E+05 -3.651548E+04 -1.456531E+04
        50  21 -1.314345E+06 -2.033572E+05  9.862343E+03 -4.933345E+05 -1.633467E+04 -6.760903E+03
        50  22 -1.259126E+06 -1.187072E+05  9.037834E+04 -5.006084E+05 -5.711199E+04 -2.172934E+04
        50  23 -1.284039E+06 -1.935216E+05  3.685614E+04 -4.746100E+05 -3.654283E+04 -1.457540E+04
        50  24 -1.268087E+06 -1.821000E+05  2.331108E+04 -4.768599E+05 -1.623503E+04 -6.723688E+03
        50  25 -1.198906E+06 -1.037645E+05  1.053940E+05 -4.922757E+05 -5.726654E+04 -2.178638E+04
        50  26 -1.230810E+06 -1.754316E+05  5.103923E+04 -4.622060E+05 -3.657017E+04 -1.458550E+04
        50  27 -1.221827E+06 -1.608423E+05  3.675963E+04 -4.603841E+05 -1.613538E+04 -6.686468E+03
        51   1 -1.299736E+06 -1.815437E+05  1.150482E+04 -4.897623E+05  1.276702E+04  5.215356E+03
        51   2 -1.301768E+06 -1.896380E+05  1.900418E+03 -4.830241E+05  8.200566E+03  3.453138E+03
        51   3 -1.292865E+06 -1.895439E+05 -6.069280E+02 -4.857476E+05  3.679492E+03  1.569784E+03
        51   4 -1.270834E+06 -1.717514E+05  1.920525E+04 -4.830603E+05  1.277027E+04  5.216545E+03
        51   5 -1.276967E+06 -1.805516E+05  8.643779E+03 -4.765689E+05  8.181856E+03  3.446122E+03
        51   6 -1.272163E+06 -1.811592E+05  5.196515E+03 -4.795390E+05  3.638860E+03  1.554568E+03
        51   7 -1.241931E+06 -1.619592E+05  2.690561E+04 -4.763581E+05  1.277352E+04  5.217734E+03
        51   8 -1.252167E+06 -1.714651E+05  1.538707E+04 -4.701135E+05  8.163144E+03  3.439107E+03
        51   9 -1.251460E+06 -1.727745E+05  1.099989E+04 -4.733303E+05  3.598227E+03  1.539351E+03
        51  10 -1.299736E+06 -1.815438E+05  1.150447E+04 -4.897623E+05 -1.376483E-09 -7.826306E-12
        51  11 -1.301768E+06 -1.896380E+05  1.900269E+03 -4.830242E+05 -6.088895E-09 -1.092719E-09
        51  12 -1.292865E+06 -1.895439E+05 -6.069582E+02 -4.857476E+05 -2.865142E-10  1.692669E-10
        51  13 -1.270834E+06 -1.717515E+05  1.920489E+04 -4.830604E+05  2.421708E-09  9.298945E-10
        51  14 -1.276967E+06 -1.805516E+05  8.643630E+03 -4.765689E+05 -3.622813E-09 -2.039231E-10
        51  15 -1.272163E+06 -1.811592E+05  5.196485E+03 -4.795390E+05 -4.857415E-11 -1.782424E-10
        51  16 -1.241931E+06 -1.619592E+05  2.690526E+04 -4.763582E+05 -5.354044E-11  1.012046E-09
        51  17 -1.252167E+06 -1.714652E+05  1.538692E+04 -4.701135E+05 -2.967983E-10 -9.828381E-10
        51  18 -1.251460E+06 -1.727745E+05  1.099986E+04 -4.733303E+05 -8.102795E-10 -2.983432E-10
        51  19 -1.299736E+06 -1.815437E+05  1.150482E+04 -4.897623E+05 -1.276702E+04 -5.215356E+03
        51  20 -1.301768E+06 -1.896380E+05  1.900418E+03 -4.830241E+05 -8.200566E+03 -3.453138E+03
        51  21 -1.292865E+06 -1.895439E+05 -6.069280E+02 -4.857476E+05 -3.679492E+03 -1.569784E+03
        51  22 -1.270834E+06 -1.717514E+05  1.920525E+04 -4.830603E+05 -1.277027E+04 -5.216545E+03
        51  23 -1.276967E+06 -1.805516E+05  8.643779E+03 -4.765689E+05 -8.181856E+03 -3.446122E+03
        51  24 -1.272163E+06 -1.811592E+05  5.196515E+03 -4.795390E+05 -3.638860E+03 -1.554568E+03
        51  25 -1.241931E+06 -1.619592E+05  2.690561E+04 -4.763581E+05 -1.277352E+04 -5.217734E+03
        51  26 -1.252167E+06 -1.714651E+05  1.538707E+04 -4.701135E+05 -8.163144E+03 -3.439107E+03
        51  27 -1.251460E+06 -1.727745E+05  1.099989E+04 -4.733303E+05 -3.598227E+03 -1.539351E+03
        52   1 -1.269730E+06 -1.784286E+05  4.968230E+03 -4.795612E+05  2.929061E+03  1.162243E+03
        52   2 -1.269291E+06 -1.760608E+05  3.790471E+03 -4.749860E+05  1.956880E+03  6.372056E+02
        52   3 -1.262434E+06 -1.772409E+05  3.918425E+03 -4.772506E+05  9.873907E+02  1.049623E+02
        52   4 -1.272589E+06 -1.796622E+05  4.141314E+03 -4.804940E+05  2.904371E+03  1.152994E+03
        52   5 -1.275897E+06 -1.785858E+05  1.972687E+03 -4.768131E+05  1.930902E+03  6.274740E+02
        52   6 -1.272787E+06 -1.810570E+05  1.110784E+03 -4.799721E+05  9.601314E+02  9.475039E+01
        52   7 -1.275449E+06 -1.808958E+05  3.314395E+03 -4.814267E+05  2.879681E+03  1.143745E+03
        52   8 -1.282503E+06 -1.811107E+05  1.548927E+02 -4.786402E+05  1.904924E+03  6.177424E+02
        52   9 -1.283139E+06 -1.848731E+05 -1.696872E+03 -4.826936E+05  9.328724E+02  8.453863E+01
        52  10 -1.269730E+06 -1.784286E+05  4.968211E+03 -4.795612E+05 -2.879251E-09 -3.209348E-10
        52  11 -1.269291E+06 -1.760608E+05  3.790464E+03 -4.749860E+05 -3.009052E-09 -7.068027E-10
        52  12 -1.262434E+06 -1.772409E+05  3.918423E+03 -4.772506E+05 -6.872295E-10  5.773131E-10
        52  13 -1.272589E+06 -1.796622E+05  4.141296E+03 -4.804940E+05 -1.613512E-09  1.560078E-10
        52  14 -1.275897E+06 -1.785858E+05  1.972679E+03 -4.768131E+05  3.760262E-09 -8.779694E-10
        52  15 -1.272787E+06 -1.810570E+05  1.110783E+03 -4.799721E+05 -1.710515E-10 -2.141811E-09
        52  16 -1.275449E+06 -1.808958E+05  3.314377E+03 -4.814267E+05 -1.930098E-09  1.359030E-10
        52  17 -1.282503E+06 -1.811107E+05  1.548852E+02 -4.786402E+05 -9.331657E-10 -5.977336E-10
        52  18 -1.283139E+06 -1.848731E+05 -1.696874E+03 -4.826936E+05 -1.894544E-09  8.862944E-10
        52  19 -1.269730E+06 -1.784286E+05  4.968230E+03 -4.795612E+05 -2.929061E+03 -1.162243E+03
        52  20 -1.269291E+06 -1.760608E+05  3.790471E+03 -4.749860E+05 -1.956880E+03 -6.372056E+02
        52  21 -1.262434E+06 -1.772409E+05  3.918425E+03 -4.772506E+05 -9.873907E+02 -1.049623E+02
        52  22 -1.272589E+06 -1.796622E+05  4.141314E+03 -4.804940E+05 -2.904371E+03 -1.152994E+03
        52  23 -1.275897E+06 -1.785858E+05  1.972687E+03 -4.768131E+05 -1.930902E+03 -6.274740E+02
        52  24 -1.272787E+06 -1.810570E+05  1.110784E+03 -4.799721E+05 -9.601314E+02 -9.475039E+01
        52  25 -1.275449E+06 -1.808958E+05  3.314395E+03 -4.814267E+05 -2.879681E+03 -1.143745E+03
        52  26 -1.282503E+06 -1.811107E+05  1.548927E+02 -4.786402E+05 -1.904924E+03 -6.177424E+02
        52  27 -1.283139E+06 -1.848731E+05 -1.696872E+03 -4.826936E+05 -9.328724E+02 -8.453863E+01
        53   1 -1.239673E+06 -1.680952E+05  9.992438E+03 -4.708883E+05  8.628063E+02 -4.859426E+01
        53   2 -1.238952E+06 -1.646596E+05  1.035809E+04 -4.671187E+05  7.448477E+02 -2.620596E+02
        53   3 -1.233185E+06 -1.659058E+05  1.092061E+04 -4.690491E+05  6.148471E+02 -4.433261E+02
        53   4 -1.273004E+06 -1.806873E+05  8.378895E+02 -4.799519E+05  8.332476E+02 -5.966959E+01
        53   5 -1.275544E+06 -1.784676E+05  3.260889E+02 -4.770563E+05  7.210754E+02 -2.709697E+02
        53   6 -1.273039E+06 -1.809308E+05  6.568867E+00 -4.798607E+05  5.968615E+02 -4.500699E+02
        53   7 -1.306334E+06 -1.932793E+05 -8.316723E+03 -4.890150E+05  8.036907E+02 -7.074421E+01
        53   8 -1.312135E+06 -1.922755E+05 -9.706024E+03 -4.869934E+05  6.973046E+02 -2.798791E+02
        53   9 -1.312891E+06 -1.959558E+05 -1.090764E+04 -4.906717E+05  5.788771E+02 -4.568132E+02
        53  10 -1.239673E+06 -1.680952E+05  9.992436E+03 -4.708883E+05  7.607573E-10  1.081337E-09
        53  11 -1.238952E+06 -1.646596E+05  1.035809E+04 -4.671187E+05 -1.992746E-09  3.955665E-10
        53  12 -1.233185E+06 -1.659058E+05  1.092061E+04 -4.690491E+05 -3.697735E-09  5.010343E-11
        53  13 -1.273004E+06 -1.806873E+05  8.378882E+02 -4.799519E+05 -8.755389E-10 -1.340539E-09
        53  14 -1.275544E+06 -1.784676E+05  3.260878E+02 -4.770563E+05  3.104246E-09 -8.510347E-10
        53  15 -1.273039E+06 -1.809308E+05  6.567817E+00 -4.798607E+05 -2.407529E-09  1.416288E-10
        53  16 -1.306334E+06 -1.932793E+05 -8.316725E+03 -4.890150E+05 -2.592063E-10  1.351812E-10
        53  17 -1.312135E+06 -1.922755E+05 -9.706025E+03 -4.869934E+05 -1.541825E-09  4.455470E-10
        53  18 -1.312891E+06 -1.959558E+05 -1.090764E+04 -4.906717E+05  1.779268E-09  4.975846E-10
        53  19 -1.239673E+06 -1.680952E+05  9.992438E+03 -4.708883E+05 -8.628063E+02  4.859426E+01
        53  20 -1.238952E+06 -1.646596E+05  1.035809E+04 -4.671187E+05 -7.448477E+02  2.620596E+02
        53  21 -1.233185E+06 -1.659058E+05  1.092061E+04 -4.690491E+05 -6.148471E+02  4.433261E+02
        53  22 -1.273004E+06 -1.806873E+05  8.378895E+02 -4.799519E+05 -8.332476E+02  5.966959E+01
        53  23 -1.275544E+06 -1.784676E+05  3.260889E+02 -4.770563E+05 -7.210754E+02  2.709697E+02
        53  24 -1.273039E+06 -1.809308E+05  6.568867E+00 -4.798607E+05 -5.968615E+02  4.500699E+02
        53  25 -1.306334E+06 -1.932793E+05 -8.316723E+03 -4.890150E+05 -8.036907E+02  7.074421E+01
        53  26 -1.312135E+06 -1.922755E+05 -9.706024E+03 -4.869934E+05 -6.973046E+02  2.798791E+02
        53  27 -1.312891E+06 -1.959558E+05 -1.090764E+04 -4.906717E+05 -5.788771E+02  4.568132E+02
        54   1 -1.214880E+06 -1.584782E+05  1.591825E+04 -4.636732E+05  6.623070E+02 -5.108407E+02
        54   2 -1.214295E+06 -1.558177E+05  1.618943E+04 -4.610032E+05  9.437082E+02 -5.463218E+02
        54   3 -1.210328E+06 -1.569887E+05  1.620320E+04 -4.622648E+05  1.203054E+03 -5.229094E+02
        54   4 -1.273381E+06 -1.805397E+05 -1.291865E+02 -4.795439E+05  6.348133E+02 -5.211518E+02
        54   5 -1.275092E+06 -1.787681E+05 -4.798717E+02 -4.775236E+05  9.267610E+02 -5.526828E+02
        54   6 -1.273422E+06 -1.808301E+05 -1.096340E+03 -4.794350E+05  1.196651E+03 -5.253181E+02
        54   7 -1.331878E+06 -2.026010E+05 -1.617694E+04 -4.954132E+05  6.073224E+02 -5.314618E+02
        54   8 -1.335885E+06 -2.017183E+05 -1.714950E+04 -4.940426E+05  9.098157E+02 -5.590432E+02
        54   9 -1.336512E+06 -2.046713E+05 -1.839623E+04 -4.966037E+05  1.190249E+03 -5.277266E+02
        54  10 -1.214880E+06 -1.584782E+05  1.591825E+04 -4.636732E+05 -3.653641E-09  3.495723E-10
        54  11 -1.214295E+06 -1.558177E+05  1.618943E+04 -4.610032E+05 -3.327695E-09 -2.670266E-10
        54  12 -1.210328E+06 -1.569887E+05  1.620320E+04 -4.622648E+05 -6.591089E-10 -5.782880E-10
        54  13 -1.273381E+06 -1.805397E+05 -1.291878E+02 -4.795439E+05 -1.504354E-10  4.124699E-10
        54  14 -1.275092E+06 -1.787681E+05 -4.798739E+02 -4.775236E+05 -1.894410E-09 -7.155906E-10
        54  15 -1.273422E+06 -1.808301E+05 -1.096344E+03 -4.794350E+05 -1.969358E-09 -1.227284E-09
        54  16 -1.331878E+06 -2.026010E+05 -1.617694E+04 -4.954131E+05  3.077327E-09  1.490997E-09
        54  17 -1.335885E+06 -2.017183E+05 -1.714950E+04 -4.940426E+05  1.875598E-09  1.055899E-10
        54  18 -1.336512E+06 -2.046713E+05 -1.839623E+04 -4.966037E+05 -1.098914E-09 -1.775942E-09
        54  19 -1.214880E+06 -1.584782E+05  1.591825E+04 -4.636732E+05 -6.623070E+02  5.108407E+02
        54  20 -1.214295E+06 -1.558177E+05  1.618943E+04 -4.610032E+05 -9.437082E+02  5.463218E+02
        54  21 -1.210328E+06 -1.569887E+05  1.620320E+04 -4.622648E+05 -1.203054E+03  5.229094E+02
        54  22 -1.273381E+06 -1.805397E+05 -1.291865E+02 -4.795439E+05 -6.348133E+02  5.211518E+02
        54  23 -1.275092E+06 -1.787681E+05 -4.798717E+02 -4.775236E+05 -9.267610E+02  5.526828E+02
        54  24 -1.273422E+06 -1.808301E+05 -1.096340E+03 -4.794350E+05 -1.196651E+03  5.253181E+02
        54  25 -1.331878E+06 -2.026010E+05 -1.617694E+04 -4.954132E+05 -6.073224E+02  5.314618E+02
        54  26 -1.335885E+06 -2.017183E+05 -1.714950E+04 -4.940426E+05 -9.098157E+02  5.590432E+02
        54  27 -1.336512E+06 -2.046713E+05 -1.839623E+04 -4.966037E+05 -1.190249E+03  5.277266E+02
        55   1 -1.199576E+06 -1.521249E+05  1.894831E+04 -4.590015E+05  1.445567E+03 -4.850953E+02
        55   2 -1.199040E+06 -1.504815E+05  1.813188E+04 -4.576990E+05  2.768856E+03 -7.809566E+01
        55   3 -1.198031E+06 -1.528905E+05  1.567576E+04 -4.575187E+05  4.060198E+03  4.141314E+02
        55   4 -1.273959E+06 -1.800989E+05 -1.433231E+03 -4.791038E+05  1.423743E+03 -4.932918E+02
        55   5 -1.274319E+06 -1.789539E+05 -2.518899E+03 -4.782116E+05  2.762174E+03 -8.061351E+01
        55   6 -1.274210E+06 -1.818646E+05 -5.256423E+03 -4.784416E+05  4.068653E+03  4.172954E+02
        55   7 -1.348336E+06 -2.080726E+05 -2.181530E+04 -4.992040E+05  1.401922E+03 -5.014871E+02
        55   8 -1.349593E+06 -2.074260E+05 -2.317020E+04 -4.987219E+05  2.755493E+03 -8.313104E+01
        55   9 -1.350383E+06 -2.108383E+05 -2.618914E+04 -4.993622E+05  4.077107E+03  4.204589E+02
        55  10 -1.199576E+06 -1.521249E+05  1.894831E+04 -4.590015E+05 -3.286798E-10  7.146929E-11
        55  11 -1.199040E+06 -1.504815E+05  1.813186E+04 -4.576990E+05  2.323234E-09 -9.635386E-10
        55  12 -1.198031E+06 -1.528905E+05  1.567573E+04 -4.575187E+05 -7.770457E-10 -5.259077E-10
        55  13 -1.273959E+06 -1.800989E+05 -1.433235E+03 -4.791038E+05 -2.895971E-09 -8.456655E-10
        55  14 -1.274319E+06 -1.789539E+05 -2.518913E+03 -4.782116E+05  1.951865E-09 -6.830851E-10
        55  15 -1.274210E+06 -1.818646E+05 -5.256454E+03 -4.784416E+05  1.064294E-09 -3.345208E-10
        55  16 -1.348336E+06 -2.080726E+05 -2.181530E+04 -4.992040E+05 -2.852097E-09 -1.606109E-09
        55  17 -1.349593E+06 -2.074260E+05 -2.317022E+04 -4.987219E+05 -2.758221E-09 -6.806631E-10
        55  18 -1.350383E+06 -2.108383E+05 -2.618917E+04 -4.993622E+05  2.189092E-09 -5.493846E-11
        55  19 -1.199576E+06 -1.521249E+05  1.894831E+04 -4.590015E+05 -1.445567E+03  4.850953E+02
        55  20 -1.199040E+06 -1.504815E+05  1.813188E+04 -4.576990E+05 -2.768856E+03  7.809566E+01
        55  21 -1.198031E+06 -1.528905E+05  1.567576E+04 -4.575187E+05 -4.060198E+03 -4.141314E+02
        55  22 -1.273959E+06 -1.800989E+05 -1.433231E+03 -4.791038E+05 -1.423743E+03  4.932918E+02
        55  23 -1.274319E+06 -1.789539E+05 -2.518899E+03 -4.782116E+05 -2.762174E+03  8.061351E+01
        55  24 -1.274210E+06 -1.818646E+05 -5.256423E+03 -4.784416E+05 -4.068653E+03 -4.172954E+02
        55  25 -1.348336E+06 -2.080726E+05 -2.181530E+04 -4.992040E+05 -1.401922E+03  5.014871E+02
        55  26 -1.349593E+06 -2.074260E+05 -2.317020E+04 -4.987219E+05 -2.755493E+03  8.313104E+01
        55  27 -1.350383E+06 -2.108383E+05 -2.618914E+04 -4.993622E+05 -4.077107E+03 -4.204589E+02
        56   1 -1.196569E+06 -1.503826E+05  1.486035E+04 -4.583348E+05  5.080220E+03  7.731011E+02
        56   2 -1.194748E+06 -1.475346E+05  1.035885E+04 -4.578826E+05  1.090072E+04  2.928912E+03
        56   3 -1.200718E+06 -1.610654E+05 -3.125603E+03 -4.523089E+05  1.665859E+04  5.251370E+03
        56   4 -1.275310E+06 -1.794030E+05 -6.591471E+03 -4.790078E+05  5.060035E+03  7.655166E+02
        56   5 -1.272259E+06 -1.771696E+05 -1.096609E+04 -4.793308E+05  1.090974E+04  2.932283E+03
        56   6 -1.277005E+06 -1.913219E+05 -2.434769E+04 -4.745318E+05  1.669682E+04  5.265688E+03
        56   7 -1.354046E+06 -2.084232E+05 -2.804383E+04 -4.996785E+05  5.039854E+03  7.579329E+02
        56   8 -1.349764E+06 -2.068042E+05 -3.229158E+04 -5.007765E+05  1.091875E+04  2.935654E+03
        56   9 -1.353287E+06 -2.215780E+05 -4.557034E+04 -4.967523E+05  1.673505E+04  5.280004E+03
        56  10 -1.196569E+06 -1.503826E+05  1.486030E+04 -4.583348E+05 -7.612846E-10 -6.470523E-10
        56  11 -1.194748E+06 -1.475347E+05  1.035861E+04 -4.578826E+05  1.377760E-09 -1.414251E-09
        56  12 -1.200718E+06 -1.610655E+05 -3.126178E+03 -4.523089E+05 -1.382165E-09 -1.446047E-09
        56  13 -1.275311E+06 -1.794030E+05 -6.591520E+03 -4.790078E+05 -8.987885E-10 -6.023923E-10
        56  14 -1.272259E+06 -1.771697E+05 -1.096633E+04 -4.793308E+05 -2.816156E-09 -1.058788E-09
        56  15 -1.277006E+06 -1.913220E+05 -2.434827E+04 -4.745319E+05 -1.416090E-09 -8.884877E-10
        56  16 -1.354046E+06 -2.084232E+05 -2.804388E+04 -4.996785E+05 -1.014329E-09 -6.014023E-10
        56  17 -1.349764E+06 -2.068043E+05 -3.229182E+04 -5.007765E+05 -2.118606E-09  3.184432E-10
        56  18 -1.353288E+06 -2.215781E+05 -4.557093E+04 -4.967524E+05  2.182471E-09  6.153456E-10
        56  19 -1.196569E+06 -1.503826E+05  1.486035E+04 -4.583348E+05 -5.080220E+03 -7.731011E+02
        56  20 -1.194748E+06 -1.475346E+05  1.035885E+04 -4.578826E+05 -1.090072E+04 -2.928912E+03
        56  21 -1.200718E+06 -1.610654E+05 -3.125603E+03 -4.523089E+05 -1.665859E+04 -5.251370E+03
        56  22 -1.275310E+06 -1.794030E+05 -6.591471E+03 -4.790078E+05 -5.060035E+03 -7.655166E+02
        56  23 -1.272259E+06 -1.771696E+05 -1.096609E+04 -4.793308E+05 -1.090974E+04 -2.932283E+03
        56  24 -1.277005E+06 -1.913219E+05 -2.434769E+04 -4.745318E+05 -1.669682E+04 -5.265688E+03
        56  25 -1.354046E+06 -2.084232E+05 -2.804383E+04 -4.996785E+05 -5.039854E+03 -7.579329E+02
        56  26 -1.349764E+06 -2.068042E+05 -3.229158E+04 -5.007765E+05 -1.091875E+04 -2.935654E+03
        56  27 -1.353287E+06 -2.215780E+05 -4.557034E+04 -4.967523E+05 -1.673505E+04 -5.280004E+03
        57   1 -1.208093E+06 -1.546139E+05 -1.045257E+04 -4.665568E+05  2.126175E+04  6.911904E+03
        57   2 -1.196366E+06 -1.342368E+05 -2.814162E+04 -4.623715E+05  4.698806E+04  1.656738E+04
        57   3 -1.233913E+06 -2.255746E+05 -9.639379E+04 -4.251491E+05  7.245706E+04  2.690625E+04
        57   4 -1.281249E+06 -1.774350E+05 -2.955090E+04 -4.815172E+05  2.119569E+04  6.887259E+03
        57   5 -1.262312E+06 -1.617112E+05 -4.672483E+04 -4.829410E+05  4.704199E+04  1.658741E+04
        57   6 -1.292677E+06 -2.577334E+05 -1.145613E+05 -4.513260E+05  7.263128E+04  2.697035E+04
        57   7 -1.354401E+06 -2.002562E+05 -4.864965E+04 -4.964762E+05  2.112963E+04  6.862615E+03
        57   8 -1.328254E+06 -1.891850E+05 -6.530846E+04 -5.035084E+05  4.709591E+04  1.660745E+04
        57   9 -1.351438E+06 -2.898908E+05 -1.327290E+05 -4.775003E+05  7.280548E+04  2.703444E+04
        57  10 -1.208093E+06 -1.546141E+05 -1.045351E+04 -4.665569E+05 -1.506292E-09  6.571188E-11
        57  11 -1.196368E+06 -1.342377E+05 -2.814629E+04 -4.623721E+05 -2.195240E-09  1.174567E-09
        57  12 -1.233919E+06 -2.255768E+05 -9.640505E+04 -4.251506E+05  1.448642E-09  7.516882E-10
        57  13 -1.281250E+06 -1.774352E+05 -2.955183E+04 -4.815173E+05  2.698149E-09 -9.233671E-10
        57  14 -1.262314E+06 -1.617121E+05 -4.672952E+04 -4.829416E+05 -2.616377E-09 -1.362100E-09
        57  15 -1.292683E+06 -2.577356E+05 -1.145726E+05 -4.513276E+05 -3.539549E-09  1.055300E-09
        57  16 -1.354401E+06 -2.002563E+05 -4.865058E+04 -4.964763E+05  2.591625E-09 -3.584070E-10
        57  17 -1.328256E+06 -1.891859E+05 -6.531315E+04 -5.035090E+05 -2.443085E-10  1.890870E-10
        57  18 -1.351444E+06 -2.898930E+05 -1.327404E+05 -4.775019E+05  1.586545E-09 -9.541959E-11
        57  19 -1.208093E+06 -1.546139E+05 -1.045257E+04 -4.665568E+05 -2.126175E+04 -6.911904E+03
        57  20 -1.196366E+06 -1.342368E+05 -2.814162E+04 -4.623715E+05 -4.698806E+04 -1.656738E+04
        57  21 -1.233913E+06 -2.255746E+05 -9.639379E+04 -4.251491E+05 -7.245706E+04 -2.690625E+04
        57  22 -1.281249E+06 -1.774350E+05 -2.955090E+04 -4.815172E+05 -2.119569E+04 -6.887259E+03
        57  23 -1.262312E+06 -1.617112E+05 -4.672483E+04 -4.829410E+05 -4.704199E+04 -1.658741E+04
        57  24 -1.292677E+06 -2.577334E+05 -1.145613E+05 -4.513260E+05 -7.263128E+04 -2.697035E+04
        57  25 -1.354401E+06 -2.002562E+05 -4.864965E+04 -4.964762E+05 -2.112963E+04 -6.862615E+03
        57  26 -1.328254E+06 -1.891850E+05 -6.530846E+04 -5.035084E+05 -4.709591E+04 -1.660745E+04
        57  27 -1.351438E+06 -2.898908E+05 -1.327290E+05 -4.775003E+05 -7.280548E+04 -2.703444E+04
        58   1 -3.832987E+05  4.970147E+04  6.471251E+04  6.557877E+03  4.416881E+04  4.668360E-01
        58   2 -3.930824E+05 -1.120272E+04  2.768141E+04  1.685065E+03  2.905391E+04  7.890606E-02
        58   3 -3.833096E+05 -1.771315E+03  1.808043E+04 -3.187755E+03  1.393872E+04 -7.161273E-02
        58   4 -3.832987E+05  4.970138E+04  6.471249E+04 -4.313576E-09  4.416881E+04 -9.368188E-10
        58   5 -3.930824E+05 -1.120272E+04  2.768141E+04  2.937676E-08  2.905391E+04 -6.760146E-10
        58   6 -3.833096E+05 -1.771334E+03  1.808043E+04  1.061413E-07  1.393872E+04  5.215722E-10
        58   7 -3.832987E+05  4.970147E+04  6.471251E+04 -6.557877E+03  4.416881E+04 -4.668360E-01
        58   8 -3.930824E+05 -1.120272E+04  2.768141E+04 -1.685065E+03  2.905391E+04 -7.890606E-02
        58   9 -3.833096E+05 -1.771315E+03  1.808043E+04  3.187755E+03  1.393872E+04  7.161274E-02
        58  10 -3.833007E+05  4.970094E+04  6.470884E+04  6.557877E+03  1.986054E-10 -7.445669E-11
        58  11 -3.930833E+05 -1.120295E+04  2.767982E+04  1.685065E+03  1.106704E-09 -1.346553E-10
        58  12 -3.833098E+05 -1.771367E+03  1.808007E+04 -3.187755E+03  7.385622E-10  2.673383E-10
        58  13 -3.833008E+05  4.970086E+04  6.470883E+04 -3.877832E-08 -1.245346E-09 -2.159480E-10
        58  14 -3.930833E+05 -1.120295E+04  2.767982E+04  3.799181E-08 -2.296934E-09 -3.753973E-10
        58  15 -3.833098E+05 -1.771387E+03  1.808006E+04  3.723406E-08  9.687959E-10  5.263529E-11
        58  16 -3.833007E+05  4.970094E+04  6.470884E+04 -6.557877E+03  8.066027E-10 -1.303683E-10
        58  17 -3.930833E+05 -1.120295E+04  2.767982E+04 -1.685065E+03 -6.572518E-10 -5.480573E-10
        58  18 -3.833098E+05 -1.771367E+03  1.808007E+04  3.187755E+03 -5.531929E-10 -1.008225E-10
        58  19 -3.832987E+05  4.970147E+04  6.471251E+04  6.557877E+03 -4.416881E+04 -4.668360E-01
        58  20 -3.930824E+05 -1.120272E+04  2.768141E+04  1.685065E+03 -2.905391E+04 -7.890606E-02
        58  21 -3.833096E+05 -1.771315E+03  1.808043E+04 -3.187755E+03 -1.393872E+04  7.161273E-02
        58  22 -3.832987E+05  4.970138E+04  6.471249E+04  4.288670E-09 -4.416881E+04  4.928224E-10
        58  23 -3.930824E+05 -1.120272E+04  2.768141E+04 -5.077752E-09 -2.905391E+04 -6.950299E-11
        58  24 -3.833096E+05 -1.771334E+03  1.808043E+04  5.662512E-08 -1.393872E+04 -3.840737E-10
        58  25 -3.832987E+05  4.970147E+04  6.471251E+04 -6.557877E+03 -4.416881E+04  4.668360E-01
        58  26 -3.930824E+05 -1.120272E+04  2.768141E+04 -1.685065E+03 -2.905391E+04  7.890606E-02
        58  27 -3.833096E+05 -1.771315E+03  1.808043E+04  3.187755E+03 -1.393872E+04 -7.161273E-02
        59   1 -3.869675E+05  7.330817E+03  1.493819E+04  9.197172E+02  1.096559E+04  1.625442E-02
        59   2 -3.885108E+05 -1.656382E+03  7.145451E+03  2.189926E+02  7.223498E+03  2.549543E-03
        59   3 -3.869694E+05 -2.567221E+02  4.386901E+03 -4.817318E+02  3.481416E+03 -2.702999E-03
        59   4 -3.869675E+05  7.330815E+03  1.493819E+04  7.721346E-08  1.096559E+04  5.110376E-10
        59   5 -3.885108E+05 -1.656382E+03  7.145451E+03  9.585043E-09  7.223498E+03 -5.884326E-10
        59   6 -3.869694E+05 -2.567225E+02  4.386901E+03  3.025530E-08  3.481416E+03 -4.817540E-10
        59   7 -3.869675E+05  7.330817E+03  1.493819E+04 -9.197172E+02  1.096559E+04 -1.625441E-02
        59   8 -3.885108E+05 -1.656382E+03  7.145451E+03 -2.189926E+02  7.223498E+03 -2.549545E-03
        59   9 -3.869694E+05 -2.567221E+02  4.386901E+03  4.817318E+02  3.481416E+03  2.702999E-03
        59  10 -3.869676E+05  7.330785E+03  1.493797E+04  9.197172E+02  9.153739E-11  2.587181E-10
        59  11 -3.885109E+05 -1.656396E+03  7.145353E+03  2.189926E+02 -1.964160E-09  6.233651E-11
        59  12 -3.869694E+05 -2.567253E+02  4.386878E+03 -4.817318E+02  3.466708E-11 -3.353993E-10
        59  13 -3.869676E+05  7.330783E+03  1.493797E+04 -1.754667E-08 -1.282023E-10  3.211537E-10
        59  14 -3.885109E+05 -1.656396E+03  7.145353E+03  9.581104E-09 -2.112282E-10  1.201109E-10
        59  15 -3.869694E+05 -2.567258E+02  4.386878E+03 -2.790040E-08 -4.186148E-10 -3.257252E-10
        59  16 -3.869676E+05  7.330785E+03  1.493797E+04 -9.197172E+02 -2.702654E-09  2.822094E-10
        59  17 -3.885109E+05 -1.656396E+03  7.145353E+03 -2.189926E+02  2.829744E-09  1.786212E-10
        59  18 -3.869694E+05 -2.567253E+02  4.386878E+03  4.817318E+02  1.163574E-09 -2.990058E-10
        59  19 -3.869675E+05  7.330817E+03  1.493819E+04  9.197172E+02 -1.096559E+04 -1.625441E-02
        59  20 -3.885108E+05 -1.656382E+03  7.145451E+03  2.189926E+02 -7.223498E+03 -2.549543E-03
        59  21 -3.869694E+05 -2.567221E+02  4.386901E+03 -4.817318E+02 -3.481416E+03  2.702998E-03
        59  22 -3.869675E+05  7.330815E+03  1.493819E+04  6.859914E-08 -1.096559E+04  8.659932E-11
        59  23 -3.885108E+05 -1.656382E+03  7.145451E+03  5.264986E-08 -7.223498E+03  8.430044E-10
        59  24 -3.869694E+05 -2.567225E+02  4.386901E+03  7.438929E-08 -3.481416E+03 -1.659876E-10
        59  25 -3.869675E+05  7.330817E+03  1.493819E+04 -9.197172E+02 -1.096559E+04  1.625441E-02
        59  26 -3.885108E+05 -1.656382E+03  7.145451E+03 -2.189926E+02 -7.223498E+03  2.549545E-03
        59  27 -3.869694E+05 -2.567221E+02  4.386901E+03  4.817318E+02 -3.481416E+03 -2.702999E-03
        60   1 -3.875455E+05  1.075120E+03  3.476138E+03  1.217733E+02  2.771800E+03  5.439999E-04
        60   2 -3.877911E+05 -2.409165E+02  1.703366E+03  2.414868E+01  1.899651E+03  7.393554E-05
        60   3 -3.875459E+05 -4.895382E+01  8.756546E+02 -7.347454E+01  1.027515E+03 -1.216774E-04
        60   4 -3.875455E+05  1.075120E+03  3.476138E+03  3.686240E-08  2.771800E+03 -5.678038E-11
        60   5 -3.877911E+05 -2.409165E+02  1.703366E+03  2.492423E-08  1.899651E+03  1.258389E-10
        60   6 -3.875459E+05 -4.895383E+01  8.756546E+02  1.260511E-07  1.027515E+03 -2.242449E-10
        60   7 -3.875455E+05  1.075120E+03  3.476138E+03 -1.217733E+02  2.771800E+03 -5.440000E-04
        60   8 -3.877911E+05 -2.409165E+02  1.703366E+03 -2.414868E+01  1.899651E+03 -7.393565E-05
        60   9 -3.875459E+05 -4.895382E+01  8.756546E+02  7.347454E+01  1.027515E+03  1.216770E-04
        60  10 -3.875455E+05  1.075118E+03  3.476123E+03  1.217733E+02  1.010510E-09 -1.845158E-10
        60  11 -3.877911E+05 -2.409175E+02  1.703359E+03  2.414868E+01  3.436187E-09  2.505950E-10
        60  12 -3.875459E+05 -4.895411E+01  8.756526E+02 -7.347454E+01  9.985220E-10  4.109268E-10
        60  13 -3.875455E+05  1.075118E+03  3.476123E+03 -1.481585E-08 -9.281295E-10 -2.656629E-10
        60  14 -3.877911E+05 -2.409175E+02  1.703359E+03 -9.530505E-09  4.307230E-09  2.244453E-10
        60  15 -3.875459E+05 -4.895412E+01  8.756526E+02  7.759285E-08 -1.187461E-09  1.558020E-10
        60  16 -3.875455E+05  1.075118E+03  3.476123E+03 -1.217733E+02  2.767003E-10 -2.114498E-10
        60  17 -3.877911E+05 -2.409175E+02  1.703359E+03 -2.414868E+01 -2.883009E-10  3.413481E-10
        60  18 -3.875459E+05 -4.895411E+01  8.756526E+02  7.347454E+01 -7.489375E-10  4.791509E-11
        60  19 -3.875455E+05  1.075120E+03  3.476138E+03  1.217733E+02 -2.771800E+03 -5.440003E-04
        60  20 -3.877911E+05 -2.409165E+02  1.703366E+03  2.414868E+01 -1.899651E+03 -7.393495E-05
        60  21 -3.875459E+05 -4.895382E+01  8.756546E+02 -7.347454E+01 -1.027515E+03  1.216783E-04
        60  22 -3.875455E+05  1.075120E+03  3.476138E+03 -2.342569E-08 -2.771800E+03 -5.058603E-10
        60  23 -3.877911E+05 -2.409165E+02  1.703366E+03 -2.675728E-08 -1.899651E+03  2.657026E-10
        60  24 -3.875459E+05 -4.895383E+01  8.756546E+02  8.728147E-08 -1.027515E+03  5.059649E-10
        60  25 -3.875455E+05  1.075120E+03  3.476138E+03 -1.217733E+02 -2.771800E+03  5.439994E-04
        60  26 -3.877911E+05 -2.409165E+02  1.703366E+03 -2.414868E+01 -1.899651E+03  7.393551E-05
        60  27 -3.875459E+05 -4.895382E+01  8.756546E+02  7.347454E+01 -1.027515E+03 -1.216771E-04
        61   1 -3.876506E+05  1.585088E+02  5.695024E+02  7.166824E+00  8.969562E+02  1.036090E-05
        61   2 -3.876605E+05 -1.364302E+01 -3.216296E+01  8.066576E-01  9.110698E+02  1.184632E-06
        61   3 -3.876507E+05 -9.986686E+01 -6.215341E+02 -5.553605E+00  9.251836E+02 -8.280431E-06
        61   4 -3.876506E+05  1.585088E+02  5.695024E+02  6.731787E-08  8.969562E+02 -1.856718E-10
        61   5 -3.876605E+05 -1.364302E+01 -3.216296E+01 -1.907284E-08  9.110698E+02  3.430155E-10
        61   6 -3.876507E+05 -9.986686E+01 -6.215341E+02  7.600165E-09  9.251836E+02  2.975837E-10
        61   7 -3.876506E+05  1.585088E+02  5.695024E+02 -7.166824E+00  8.969562E+02 -1.036088E-05
        61   8 -3.876605E+05 -1.364302E+01 -3.216296E+01 -8.066575E-01  9.110698E+02 -1.184225E-06
        61   9 -3.876507E+05 -9.986686E+01 -6.215341E+02  5.553605E+00  9.251836E+02  8.281437E-06
        61  10 -3.876506E+05  1.585086E+02  5.695009E+02  7.166824E+00  6.158252E-11 -1.640551E-11
        61  11 -3.876605E+05 -1.364325E+01 -3.216452E+01  8.066576E-01 -4.516447E-10 -3.992267E-10
        61  12 -3.876507E+05 -9.986709E+01 -6.215357E+02 -5.553605E+00  2.094447E-10  1.287116E-10
        61  13 -3.876506E+05  1.585086E+02  5.695009E+02  2.424340E-08 -2.170435E-09 -6.595797E-11
        61  14 -3.876605E+05 -1.364325E+01 -3.216452E+01  6.771429E-09  7.005511E-11 -1.747558E-10
        61  15 -3.876507E+05 -9.986709E+01 -6.215357E+02 -1.931500E-08 -2.862256E-09  1.272696E-10
        61  16 -3.876506E+05  1.585086E+02  5.695009E+02 -7.166823E+00  9.556833E-10 -1.825632E-10
        61  17 -3.876605E+05 -1.364325E+01 -3.216452E+01 -8.066575E-01  3.014568E-09  2.068628E-11
        61  18 -3.876507E+05 -9.986709E+01 -6.215357E+02  5.553605E+00  8.985287E-10  1.225799E-10
        61  19 -3.876506E+05  1.585088E+02  5.695024E+02  7.166824E+00 -8.969562E+02 -1.036041E-05
        61  20 -3.876605E+05 -1.364302E+01 -3.216296E+01  8.066577E-01 -9.110698E+02 -1.185208E-06
        61  21 -3.876507E+05 -9.986686E+01 -6.215341E+02 -5.553605E+00 -9.251836E+02  8.281009E-06
        61  22 -3.876506E+05  1.585088E+02  5.695024E+02  7.592824E-08 -8.969562E+02  4.691869E-11
        61  23 -3.876605E+05 -1.364302E+01 -3.216296E+01  4.984472E-08 -9.110698E+02 -6.752025E-10
        61  24 -3.876507E+05 -9.986686E+01 -6.215341E+02  3.452912E-08 -9.251836E+02 -3.046887E-11
        61  25 -3.876506E+05  1.585088E+02  5.695024E+02 -7.166824E+00 -8.969562E+02  1.036019E-05
        61  26 -3.876605E+05 -1.364302E+01 -3.216296E+01 -8.066575E-01 -9.110698E+02  1.183859E-06
        61  27 -3.876507E+05 -9.986686E+01 -6.215341E+02  5.553605E+00 -9.251836E+02 -8.281205E-06
        62   1 -3.877331E+05  4.280008E+01 -9.476872E+02 -4.724950E+01  1.067140E+03 -8.126484E-05
        62   2 -3.875576E+05  1.474276E+02 -1.850494E+03  7.261260E+00  1.999841E+03  2.340365E-05
        62   3 -3.877335E+05 -6.673997E+02 -3.590672E+03  6.177206E+01  2.932541E+03  2.919575E-04
        62   4 -3.877331E+05  4.280008E+01 -9.476872E+02  1.344089E-08  1.067140E+03  1.397071E-10
        62   5 -3.875576E+05  1.474276E+02 -1.850494E+03  3.866805E-09  1.999841E+03 -1.842218E-10
        62   6 -3.877335E+05 -6.673997E+02 -3.590672E+03  4.382519E-08  2.932541E+03 -7.882546E-10
        62   7 -3.877331E+05  4.280008E+01 -9.476872E+02  4.724950E+01  1.067140E+03  8.126474E-05
        62   8 -3.875576E+05  1.474276E+02 -1.850494E+03 -7.261259E+00  1.999841E+03 -2.340443E-05
        62   9 -3.877335E+05 -6.673997E+02 -3.590672E+03 -6.177206E+01  2.932541E+03 -2.919593E-04
        62  10 -3.877331E+05  4.279977E+01 -9.476893E+02 -4.724950E+01  1.794553E-10  3.217050E-10
        62  11 -3.875576E+05  1.474265E+02 -1.850501E+03  7.261259E+00  1.628132E-09 -1.516686E-10
        62  12 -3.877335E+05 -6.674020E+02 -3.590688E+03  6.177206E+01  1.359068E-09 -2.943103E-10
        62  13 -3.877331E+05  4.279977E+01 -9.476893E+02 -2.101863E-08  7.884877E-10  2.188009E-10
        62  14 -3.875576E+05  1.474265E+02 -1.850501E+03 -1.336421E-08  8.011040E-10 -2.325287E-11
        62  15 -3.877335E+05 -6.674020E+02 -3.590688E+03 -4.447561E-08 -3.139880E-09 -2.491554E-10
        62  16 -3.877331E+05  4.279977E+01 -9.476893E+02  4.724950E+01  8.336817E-10  1.160165E-10
        62  17 -3.875576E+05  1.474265E+02 -1.850501E+03 -7.261260E+00 -3.500000E-10  7.714011E-11
        62  18 -3.877335E+05 -6.674020E+02 -3.590688E+03 -6.177206E+01 -1.513462E-09 -1.495819E-10
        62  19 -3.877331E+05  4.280008E+01 -9.476872E+02 -4.724950E+01 -1.067140E+03  8.126559E-05
        62  20 -3.875576E+05  1.474276E+02 -1.850494E+03  7.261259E+00 -1.999841E+03 -2.340365E-05
        62  21 -3.877335E+05 -6.673997E+02 -3.590672E+03  6.177206E+01 -2.932541E+03 -2.919584E-04
        62  22 -3.877331E+05  4.280008E+01 -9.476872E+02  3.066703E-08 -1.067140E+03  3.020236E-10
        62  23 -3.875576E+05  1.474276E+02 -1.850494E+03  3.862468E-09 -1.999841E+03  1.606937E-10
        62  24 -3.877335E+05 -6.673997E+02 -3.590672E+03 -8.944530E-09 -2.932541E+03  2.902022E-10
        62  25 -3.877331E+05  4.280008E+01 -9.476872E+02  4.724950E+01 -1.067140E+03 -8.126514E-05
        62  26 -3.875576E+05  1.474276E+02 -1.850494E+03 -7.261260E+00 -1.999841E+03  2.340417E-05
        62  27 -3.877335E+05 -6.673997E+02 -3.590672E+03 -6.177206E+01 -2.932541E+03  2.919584E-04
        63   1 -3.881327E+05  1.562674E+02 -4.627624E+03 -3.139085E+02  3.675301E+03 -1.859435E-03
        63   2 -3.870591E+05  1.042397E+03 -7.776038E+03  1.058531E+02  7.649432E+03  1.305021E-03
        63   3 -3.881343E+05 -4.594469E+03 -1.514366E+04  5.256091E+02  1.162349E+04  9.846550E-03
        63   4 -3.881327E+05  1.562672E+02 -4.627624E+03  9.906529E-08  3.675301E+03 -1.559641E-10
        63   5 -3.870591E+05  1.042397E+03 -7.776038E+03 -2.544410E-08  7.649432E+03  1.333277E-09
        63   6 -3.881343E+05 -4.594470E+03 -1.514366E+04  8.337445E-09  1.162349E+04  1.451224E-10
        63   7 -3.881327E+05  1.562674E+02 -4.627624E+03  3.139085E+02  3.675301E+03  1.859435E-03
        63   8 -3.870591E+05  1.042397E+03 -7.776038E+03 -1.058531E+02  7.649432E+03 -1.305019E-03
        63   9 -3.881343E+05 -4.594469E+03 -1.514366E+04 -5.256091E+02  1.162349E+04 -9.846550E-03
        63  10 -3.881327E+05  1.562637E+02 -4.627649E+03 -3.139085E+02  8.721670E-10 -1.304722E-11
        63  11 -3.870592E+05  1.042382E+03 -7.776148E+03  1.058531E+02 -2.095655E-09  3.310328E-10
        63  12 -3.881344E+05 -4.594506E+03 -1.514392E+04  5.256091E+02 -1.144153E-09 -3.181279E-11
        63  13 -3.881327E+05  1.562635E+02 -4.627649E+03 -4.302879E-09  3.230405E-09 -1.281535E-10
        63  14 -3.870592E+05  1.042382E+03 -7.776148E+03  1.762884E-08 -9.373908E-10  2.730188E-10
        63  15 -3.881344E+05 -4.594506E+03 -1.514392E+04 -6.381253E-08  1.945683E-09  1.077505E-10
        63  16 -3.881327E+05  1.562637E+02 -4.627649E+03  3.139085E+02  1.342730E-09 -1.092358E-10
        63  17 -3.870592E+05  1.042382E+03 -7.776148E+03 -1.058531E+02  9.318527E-11  2.093808E-10
        63  18 -3.881344E+05 -4.594506E+03 -1.514392E+04 -5.256091E+02  1.002944E-09  3.395757E-10
        63  19 -3.881327E+05  1.562674E+02 -4.627624E+03 -3.139085E+02 -3.675301E+03  1.859435E-03
        63  20 -3.870591E+05  1.042397E+03 -7.776038E+03  1.058531E+02 -7.649432E+03 -1.305020E-03
        63  21 -3.881343E+05 -4.594469E+03 -1.514366E+04  5.256091E+02 -1.162349E+04 -9.846550E-03
        63  22 -3.881327E+05  1.562672E+02 -4.627624E+03  3.877640E-08 -3.675301E+03 -9.447027E-11
        63  23 -3.870591E+05  1.042397E+03 -7.776038E+03  4.347361E-08 -7.649432E+03 -8.391638E-10
        63  24 -3.881343E+05 -4.594470E+03 -1.514366E+04 -3.043620E-08 -1.162349E+04  1.286033E-10
        63  25 -3.881327E+05  1.562674E+02 -4.627624E+03  3.139085E+02 -3.675301E+03 -1.859436E-03
        63  26 -3.870591E+05  1.042397E+03 -7.776038E+03 -1.058531E+02 -7.649432E+03  1.305018E-03
        63  27 -3.881343E+05 -4.594469E+03 -1.514366E+04 -5.256091E+02 -1.162349E+04  9.846550E-03
        64   1 -3.905875E+05  1.090596E+03 -1.896772E+04 -2.058166E+03  1.470219E+04 -4.876954E-02
        64   2 -3.839936E+05  7.081826E+03 -3.066121E+04  9.370165E+02  3.075748E+04  4.644936E-02
        64   3 -3.905946E+05 -3.133476E+04 -6.391272E+04  3.932240E+03  4.681288E+04  2.966808E-01
        64   4 -3.905875E+05  1.090588E+03 -1.896772E+04  1.241925E-08  1.470219E+04 -1.751563E-10
        64   5 -3.839936E+05  7.081824E+03 -3.066121E+04 -6.264031E-08  3.075748E+04  4.361223E-10
        64   6 -3.905946E+05 -3.133479E+04 -6.391272E+04  1.013547E-07  4.681288E+04 -1.370622E-09
        64   7 -3.905875E+05  1.090596E+03 -1.896772E+04  2.058166E+03  1.470219E+04  4.876954E-02
        64   8 -3.839936E+05  7.081826E+03 -3.066121E+04 -9.370165E+02  3.075748E+04 -4.644936E-02
        64   9 -3.905946E+05 -3.133476E+04 -6.391272E+04 -3.932240E+03  4.681288E+04 -2.966808E-01
        64  10 -3.905877E+05  1.090538E+03 -1.896812E+04 -2.058166E+03  5.600994E-10 -3.146084E-10
        64  11 -3.839946E+05  7.081571E+03 -3.066299E+04  9.370165E+02  1.556957E-10 -2.769166E-10
        64  12 -3.905970E+05 -3.133535E+04 -6.391684E+04  3.932240E+03  1.376252E-09 -4.329376E-11
        64  13 -3.905877E+05  1.090530E+03 -1.896812E+04 -4.815291E-09  4.205573E-12 -2.144314E-10
        64  14 -3.839946E+05  7.081570E+03 -3.066299E+04  6.276216E-09  1.779636E-26 -4.750775E-10
        64  15 -3.905970E+05 -3.133538E+04 -6.391684E+04  4.446940E-09 -1.835101E-09 -1.028146E-10
        64  16 -3.905877E+05  1.090538E+03 -1.896812E+04  2.058166E+03  4.439435E-10 -7.354055E-11
        64  17 -3.839946E+05  7.081571E+03 -3.066299E+04 -9.370165E+02  3.999523E-11 -6.742381E-10
        64  18 -3.905970E+05 -3.133535E+04 -6.391684E+04 -3.932240E+03 -3.110479E-09 -1.644962E-10
        64  19 -3.905875E+05  1.090596E+03 -1.896772E+04 -2.058166E+03 -1.470219E+04  4.876954E-02
        64  20 -3.839936E+05  7.081826E+03 -3.066121E+04  9.370165E+02 -3.075748E+04 -4.644936E-02
        64  21 -3.905946E+05 -3.133476E+04 -6.391272E+04  3.932240E+03 -4.681288E+04 -2.966808E-01
        64  22 -3.905875E+05  1.090588E+03 -1.896772E+04  3.795544E-09 -1.470219E+04 -2.802628E-10
        64  23 -3.839936E+05  7.081824E+03 -3.066121E+04 -2.818097E-08 -3.075748E+04 -1.335881E-09
        64  24 -3.905946E+05 -3.133479E+04 -6.391272E+04  6.798472E-08 -4.681288E+04  1.160039E-09
        64  25 -3.905875E+05  1.090596E+03 -1.896772E+04  2.058166E+03 -1.470219E+04 -4.876954E-02
        64  26 -3.839936E+05  7.081826E+03 -3.066121E+04 -9.370165E+02 -3.075748E+04  4.644936E-02
        64  27 -3.905946E+05 -3.133476E+04 -6.391272E+04 -3.932240E+03 -4.681288E+04  2.966808E-01
        65   1 -4.062260E+05  7.571867E+03 -7.732014E+04 -1.362531E+04  5.952754E+04 -1.307253E+00
        65   2 -3.644480E+05  4.788689E+04 -1.182996E+05  7.204082E+03  1.241517E+05  1.441447E+00
        65   3 -4.062561E+05 -2.124416E+05 -2.765162E+05  2.803229E+04  1.887772E+05  8.528863E+00
        65   4 -4.062262E+05  7.571518E+03 -7.732019E+04  8.017090E-08  5.952754E+04 -1.403918E-10
        65   5 -3.644480E+05  4.788680E+04 -1.182997E+05 -3.669410E-09  1.241517E+05  3.708744E-09
        65   6 -4.062569E+05 -2.124431E+05 -2.765164E+05  1.801595E-08  1.887772E+05 -1.953856E-09
        65   7 -4.062260E+05  7.571867E+03 -7.732014E+04  1.362531E+04  5.952754E+04  1.307253E+00
        65   8 -3.644480E+05  4.788689E+04 -1.182996E+05 -7.204082E+03  1.241517E+05 -1.441447E+00
        65   9 -4.062561E+05 -2.124416E+05 -2.765162E+05 -2.803229E+04  1.887772E+05 -8.528863E+00
        65  10 -4.062298E+05  7.570915E+03 -7.732680E+04 -1.362531E+04  6.319477E-10 -1.004664E-10
        65  11 -3.644645E+05  4.788275E+04 -1.183286E+05  7.204082E+03 -2.251920E-09 -2.677783E-10
        65  12 -4.062944E+05 -2.124512E+05 -2.765832E+05  2.803229E+04  6.330739E-10 -2.625310E-10
        65  13 -4.062300E+05  7.570566E+03 -7.732685E+04  1.986377E-08  2.550148E-09 -5.207092E-11
        65  14 -3.644646E+05  4.788266E+04 -1.183286E+05  1.356043E-08  7.068220E-10 -2.820749E-10
        65  15 -4.062952E+05 -2.124526E+05 -2.765835E+05 -5.668866E-09 -1.390665E-09 -1.217371E-10
        65  16 -4.062298E+05  7.570915E+03 -7.732680E+04  1.362531E+04 -1.214172E-09  6.136494E-11
        65  17 -3.644645E+05  4.788275E+04 -1.183286E+05 -7.204082E+03 -8.366554E-10 -3.426135E-10
        65  18 -4.062944E+05 -2.124512E+05 -2.765832E+05 -2.803229E+04 -7.854099E-10  2.191902E-11
        65  19 -4.062260E+05  7.571867E+03 -7.732014E+04 -1.362531E+04 -5.952754E+04  1.307253E+00
        65  20 -3.644480E+05  4.788689E+04 -1.182996E+05  7.204082E+03 -1.241517E+05 -1.441447E+00
        65  21 -4.062561E+05 -2.124416E+05 -2.765162E+05  2.803229E+04 -1.887772E+05 -8.528863E+00
        65  22 -4.062262E+05  7.571518E+03 -7.732019E+04  3.708904E-08 -5.952754E+04  5.330764E-11
        65  23 -3.644480E+05  4.788680E+04 -1.182997E+05 -1.228548E-08 -1.241517E+05 -4.286809E-09
        65  24 -4.062569E+05 -2.124431E+05 -2.765164E+05 -5.664227E-09 -1.887772E+05  1.819496E-10
        65  25 -4.062260E+05  7.571867E+03 -7.732014E+04  1.362531E+04 -5.952754E+04 -1.307253E+00
        65  26 -3.644480E+05  4.788689E+04 -1.182996E+05 -7.204082E+03 -1.241517E+05  1.441447E+00
        65  27 -4.062561E+05 -2.124416E+05 -2.765162E+05 -2.803229E+04 -1.887772E+05  8.528863E+00
        66   1  3.918738E+04 -4.640590E+05  4.963905E+04  1.980006E+03  1.090227E+02  2.724426E+04
        66   2  1.056942E+03 -4.624200E+05  2.871116E+04 -2.885241E+03  4.421714E+02  1.634938E+04
        66   3  1.103555E+04 -4.473192E+05  2.691058E+04  8.627507E+03  7.124126E+02  5.454193E+03
        66   4  3.255305E+04 -4.905933E+05  4.301571E+04  6.383234E+03  1.092165E+02  2.717344E+04
        66   5 -7.663581E+03 -4.973271E+05  2.003519E+04 -1.805933E+03  4.422051E+02  1.629100E+04
        66   6  2.279542E+02 -4.906010E+05  1.617386E+04  6.382890E+03  7.124011E+02  5.408397E+03
        66   7  2.591875E+04 -5.171269E+05  3.639234E+04  1.078627E+04  1.094092E+02  2.710261E+04
        66   8 -1.638419E+04 -5.322331E+05  1.135914E+04 -7.266855E+02  4.422385E+02  1.623261E+04
        66   9 -1.057977E+04 -5.338811E+05  5.437006E+03  4.138430E+03  7.123899E+02  5.362603E+03
        66  10  3.918718E+04 -4.640598E+05  4.963765E+04  1.980003E+03 -1.113434E-09 -1.765970E-10
        66  11  1.056870E+03 -4.624203E+05  2.871066E+04 -2.885247E+03 -1.620488E-09 -3.303833E-10
        66  12  1.103554E+04 -4.473193E+05  2.691053E+04  8.627504E+03 -8.045825E-10  2.067320E-10
        66  13  3.255286E+04 -4.905941E+05  4.301432E+04  6.383232E+03  1.045766E-09  5.151999E-11
        66  14 -7.663652E+03 -4.973274E+05  2.003469E+04 -1.805939E+03 -1.188760E-09  1.146476E-11
        66  15  2.279458E+02 -4.906011E+05  1.617381E+04  6.382887E+03  1.522087E-09 -2.501051E-10
        66  16  2.591855E+04 -5.171277E+05  3.639095E+04  1.078627E+04  5.502054E-10  1.789558E-10
        66  17 -1.638426E+04 -5.322334E+05  1.135864E+04 -7.266913E+02  1.965970E-09  3.417692E-10
        66  18 -1.057977E+04 -5.338811E+05  5.436951E+03  4.138427E+03 -1.211974E-09 -1.842772E-10
        66  19  3.918738E+04 -4.640590E+05  4.963905E+04  1.980006E+03 -1.090227E+02 -2.724426E+04
        66  20  1.056942E+03 -4.624200E+05  2.871116E+04 -2.885241E+03 -4.421714E+02 -1.634938E+04
        66  21  1.103555E+04 -4.473192E+05  2.691058E+04  8.627507E+03 -7.124126E+02 -5.454193E+03
        66  22  3.255305E+04 -4.905933E+05  4.301571E+04  6.383234E+03 -1.092165E+02 -2.717344E+04
        66  23 -7.663581E+03 -4.973271E+05  2.003519E+04 -1.805933E+03 -4.422051E+02 -1.629100E+04
        66  24  2.279542E+02 -4.906010E+05  1.617386E+04  6.382890E+03 -7.124011E+02 -5.408397E+03
        66  25  2.591875E+04 -5.171269E+05  3.639234E+04  1.078627E+04 -1.094092E+02 -2.710261E+04
        66  26 -1.638419E+04 -5.322331E+05  1.135914E+04 -7.266855E+02 -4.422385E+02 -1.623261E+04
        66  27 -1.057977E+04 -5.338811E+05  5.437006E+03  4.138430E+03 -7.123899E+02 -5.362603E+03
        67   1  2.727860E+04 -4.009873E+05  3.804715E+04  4.961263E+03  9.362887E+02  2.663846E+03
        67   2  2.153970E+04 -3.960858E+05  3.850275E+04 -1.465368E+03  1.279646E+03 -4.653760E+03
        67   3  3.611961E+04 -3.850615E+05  4.882245E+04  7.677977E+03  1.316503E+03 -1.197148E+04
        67   4  4.478594E+03 -4.922343E+05  1.534135E+04  6.202824E+03  9.363192E+02  2.568535E+03
        67   5 -3.241345E+03 -4.952895E+05  1.384960E+04 -1.580400E+03  1.279672E+03 -4.689267E+03
        67   6  9.348891E+03 -4.922316E+05  2.218149E+04  6.206490E+03  1.316535E+03 -1.194709E+04
        67   7 -1.832203E+04 -5.834736E+05 -7.365064E+03  7.444203E+03  9.363493E+02  2.473237E+03
        67   8 -2.802313E+04 -5.944843E+05 -1.080428E+04 -1.695413E+03  1.279698E+03 -4.724767E+03
        67   9 -1.742269E+04 -5.993912E+05 -4.460321E+03  4.735258E+03  1.316567E+03 -1.192270E+04
        67  10  2.727859E+04 -4.009874E+05  3.804714E+04  4.961261E+03 -5.658792E-10 -5.084932E-10
        67  11  2.153969E+04 -3.960858E+05  3.850270E+04 -1.465363E+03 -3.759726E-09 -7.923497E-10
        67  12  3.611957E+04 -3.850616E+05  4.882218E+04  7.677990E+03 -9.773039E-10  1.638163E-09
        67  13  4.478592E+03 -4.922343E+05  1.534134E+04  6.202822E+03 -2.196605E-09  4.466612E-11
        67  14 -3.241353E+03 -4.952896E+05  1.384956E+04 -1.580395E+03 -5.245071E-09  2.081707E-10
        67  15  9.348851E+03 -4.922317E+05  2.218122E+04  6.206502E+03 -4.732653E-10 -8.881207E-10
        67  16 -1.832203E+04 -5.834736E+05 -7.365077E+03  7.444201E+03 -5.279019E-10  7.328769E-10
        67  17 -2.802313E+04 -5.944844E+05 -1.080432E+04 -1.695408E+03  2.188898E-09  8.057169E-10
        67  18 -1.742273E+04 -5.993913E+05 -4.460592E+03  4.735270E+03  1.624426E-09 -1.465574E-09
        67  19  2.727860E+04 -4.009873E+05  3.804715E+04  4.961263E+03 -9.362887E+02 -2.663846E+03
        67  20  2.153970E+04 -3.960858E+05  3.850275E+04 -1.465368E+03 -1.279646E+03  4.653760E+03
        67  21  3.611961E+04 -3.850615E+05  4.882245E+04  7.677977E+03 -1.316503E+03  1.197148E+04
        67  22  4.478594E+03 -4.922343E+05  1.534135E+04  6.202824E+03 -9.363192E+02 -2.568535E+03
        67  23 -3.241345E+03 -4.952895E+05  1.384960E+04 -1.580400E+03 -1.279672E+03  4.689267E+03
        67  24  9.348891E+03 -4.922316E+05  2.218149E+04  6.206490E+03 -1.316535E+03  1.194709E+04
        67  25 -1.832203E+04 -5.834736E+05 -7.365064E+03  7.444203E+03 -9.363493E+02 -2.473237E+03
        67  26 -2.802313E+04 -5.944843E+05 -1.080428E+04 -1.695413E+03 -1.279698E+03  4.724767E+03
        67  27 -1.742269E+04 -5.993912E+05 -4.460321E+03  4.735258E+03 -1.316567E+03  1.192270E+04
        68   1  3.626402E+04 -3.362881E+05  6.334722E+04  1.558634E+03  1.780413E+03 -1.597857E+04
        68   2  2.490231E+04 -3.420979E+05  7.631720E+04  9.211023E+02  2.289091E+03 -3.648316E+04
        68   3  1.060347E+05 -3.218862E+05  1.258114E+05  1.435965E+04  8.552006E+02 -5.698945E+04
        68   4 -1.600312E+03 -4.878284E+05  2.566557E+04  5.849616E+03  1.780500E+03 -1.625739E+04
        68   5 -1.473065E+04 -5.008000E+05  3.690719E+04 -1.152592E+03  2.289171E+03 -3.638470E+04
        68   6  6.458009E+04 -4.878090E+05  8.441765E+04  5.921411E+03  8.554755E+02 -5.651346E+04
        68   7 -3.946630E+04 -6.393477E+05 -1.201779E+04  1.013955E+04  1.780583E+03 -1.653615E+04
        68   8 -5.436549E+04 -6.594791E+05 -2.504695E+03 -3.225751E+03  2.289250E+03 -3.628626E+04
        68   9  2.312363E+04 -6.537067E+05  4.302183E+04 -2.514561E+03  8.557374E+02 -5.603759E+04
        68  10  3.626395E+04 -3.362884E+05  6.334673E+04  1.558657E+03 -6.428424E-10  5.709456E-10
        68  11  2.490195E+04 -3.420994E+05  7.631468E+04  9.211696E+02 -1.257527E-10 -2.073184E-09
        68  12  1.060339E+05 -3.218897E+05  1.258053E+05  1.435969E+04 -1.247193E-09 -2.977667E-10
        68  13 -1.600386E+03 -4.878287E+05  2.566507E+04  5.849639E+03 -1.138888E-09  6.248851E-11
        68  14 -1.473101E+04 -5.008014E+05  3.690469E+04 -1.152525E+03 -5.005730E-09  4.675250E-10
        68  15  6.457923E+04 -4.878125E+05  8.441165E+04  5.921450E+03 -1.658382E-09 -1.964065E-09
        68  16 -3.946638E+04 -6.393480E+05 -1.201831E+04  1.013958E+04  1.484809E-11  1.320740E-10
        68  17 -5.436585E+04 -6.594806E+05 -2.507182E+03 -3.225684E+03 -7.484511E-10  2.030613E-09
        68  18  2.312279E+04 -6.537101E+05  4.301592E+04 -2.514523E+03 -2.342053E-09  7.689737E-10
        68  19  3.626402E+04 -3.362881E+05  6.334722E+04  1.558634E+03 -1.780413E+03  1.597857E+04
        68  20  2.490231E+04 -3.420979E+05  7.631720E+04  9.211023E+02 -2.289091E+03  3.648316E+04
        68  21  1.060347E+05 -3.218862E+05  1.258114E+05  1.435965E+04 -8.552006E+02  5.698945E+04
        68  22 -1.600312E+03 -4.878284E+05  2.566557E+04  5.849616E+03 -1.780500E+03  1.625739E+04
        68  23 -1.473065E+04 -5.008000E+05  3.690719E+04 -1.152592E+03 -2.289171E+03  3.638470E+04
        68  24  6.458009E+04 -4.878090E+05  8.441765E+04  5.921411E+03 -8.554755E+02  5.651346E+04
        68  25 -3.946630E+04 -6.393477E+05 -1.201779E+04  1.013955E+04 -1.780583E+03  1.653615E+04
        68  26 -5.436549E+04 -6.594791E+05 -2.504695E+03 -3.225751E+03 -2.289250E+03  3.628626E+04
        68  27  2.312363E+04 -6.537067E+05  4.302183E+04 -2.514561E+03 -8.557374E+02  5.603759E+04
        69   1 -7.128482E+05 -1.202056E+05 -2.434690E+04 -2.629743E+05 -1.128484E+04 -4.089477E+03
        69   2 -7.087588E+05 -1.022299E+05 -1.335749E+04 -2.644952E+05 -7.322745E+03 -2.359836E+03
        69   3 -7.089771E+05 -1.047611E+05 -1.021516E+04 -2.647015E+05 -3.235720E+03 -9.631667E+02
        69   4 -6.895607E+05 -1.098934E+05 -1.763814E+04 -2.550815E+05 -1.121683E+04 -4.064010E+03
        69   5 -6.865407E+05 -9.346006E+04 -7.198846E+03 -2.580573E+05 -7.314403E+03 -2.356715E+03
        69   6 -6.878163E+05 -9.752140E+04 -4.559093E+03 -2.597187E+05 -3.287048E+03 -9.824047E+02
        69   7 -6.662728E+05 -9.958123E+04 -1.092945E+04 -2.471883E+05 -1.114882E+04 -4.038543E+03
        69   8 -6.643222E+05 -8.469021E+04 -1.040249E+03 -2.516192E+05 -7.306060E+03 -2.353594E+03
        69   9 -6.666550E+05 -9.028171E+04  1.096936E+03 -2.547357E+05 -3.338378E+03 -1.001643E+03
        69  10 -7.128483E+05 -1.202056E+05 -2.434717E+04 -2.629744E+05 -5.352241E-10  1.705546E-10
        69  11 -7.087589E+05 -1.022299E+05 -1.335760E+04 -2.644952E+05 -1.554577E-09  4.478927E-10
        69  12 -7.089771E+05 -1.047611E+05 -1.021518E+04 -2.647015E+05 -1.365474E-09  1.497021E-09
        69  13 -6.895609E+05 -1.098935E+05 -1.763841E+04 -2.550815E+05  4.611916E-11 -8.043352E-11
        69  14 -6.865408E+05 -9.346008E+04 -7.198957E+03 -2.580573E+05 -1.213376E-09  2.931906E-10
        69  15 -6.878163E+05 -9.752140E+04 -4.559115E+03 -2.597187E+05  2.103701E-09  1.909458E-09
        69  16 -6.662729E+05 -9.958128E+04 -1.092972E+04 -2.471884E+05  9.050703E-11 -2.449608E-10
        69  17 -6.643222E+05 -8.469023E+04 -1.040360E+03 -2.516192E+05 -6.177947E-11  2.006041E-10
        69  18 -6.666550E+05 -9.028171E+04  1.096914E+03 -2.547357E+05  5.621564E-10  1.508795E-09
        69  19 -7.128482E+05 -1.202056E+05 -2.434690E+04 -2.629743E+05  1.128484E+04  4.089477E+03
        69  20 -7.087588E+05 -1.022299E+05 -1.335749E+04 -2.644952E+05  7.322745E+03  2.359836E+03
        69  21 -7.089771E+05 -1.047611E+05 -1.021516E+04 -2.647015E+05  3.235720E+03  9.631667E+02
        69  22 -6.895607E+05 -1.098934E+05 -1.763814E+04 -2.550815E+05  1.121683E+04  4.064010E+03
        69  23 -6.865407E+05 -9.346006E+04 -7.198846E+03 -2.580573E+05  7.314403E+03  2.356715E+03
        69  24 -6.878163E+05 -9.752140E+04 -4.559093E+03 -2.597187E+05  3.287048E+03  9.824047E+02
        69  25 -6.662728E+05 -9.958123E+04 -1.092945E+04 -2.471883E+05  1.114882E+04  4.038543E+03
        69  26 -6.643222E+05 -8.469021E+04 -1.040249E+03 -2.516192E+05  7.306060E+03  2.353594E+03
        69  27 -6.666550E+05 -9.028171E+04  1.096936E+03 -2.547357E+05  3.338378E+03  1.001643E+03
        70   1 -6.946443E+05 -1.026699E+05 -5.845771E+03 -2.608709E+05 -2.555393E+03 -8.213704E+02
        70   2 -6.935866E+05 -9.801233E+04 -3.239290E+03 -2.590952E+05 -1.620432E+03 -5.170564E+02
        70   3 -6.905608E+05 -9.906519E+04 -2.037525E+03 -2.601788E+05 -6.663071E+02 -2.638456E+02
        70   4 -6.871847E+05 -9.963938E+04 -3.761626E+03 -2.586205E+05 -2.558095E+03 -8.223847E+02
        70   5 -6.880404E+05 -9.586804E+04 -1.710264E+03 -2.575345E+05 -1.632301E+03 -5.215059E+02
        70   6 -6.869261E+05 -9.780528E+04 -1.056336E+03 -2.593077E+05 -6.873472E+02 -2.717321E+02
        70   7 -6.797251E+05 -9.660887E+04 -1.677487E+03 -2.563702E+05 -2.560798E+03 -8.233990E+02
        70   8 -6.824941E+05 -9.372375E+04 -1.812423E+02 -2.559738E+05 -1.644170E+03 -5.259555E+02
        70   9 -6.832914E+05 -9.654537E+04 -7.515040E+01 -2.584366E+05 -7.083875E+02 -2.796187E+02
        70  10 -6.946443E+05 -1.026699E+05 -5.845784E+03 -2.608709E+05 -4.966574E-10  1.176833E-09
        70  11 -6.935866E+05 -9.801233E+04 -3.239296E+03 -2.590952E+05  3.682366E-10 -4.569679E-10
        70  12 -6.905608E+05 -9.906519E+04 -2.037526E+03 -2.601788E+05  1.387557E-10 -2.445210E-11
        70  13 -6.871847E+05 -9.963938E+04 -3.761640E+03 -2.586205E+05 -1.547244E-09  1.276383E-09
        70  14 -6.880404E+05 -9.586804E+04 -1.710270E+03 -2.575345E+05 -1.630937E-09  3.515820E-11
        70  15 -6.869261E+05 -9.780528E+04 -1.056337E+03 -2.593077E+05 -1.470133E-09 -2.269806E-10
        70  16 -6.797251E+05 -9.660887E+04 -1.677501E+03 -2.563702E+05 -1.975290E-09  1.346409E-09
        70  17 -6.824941E+05 -9.372375E+04 -1.812479E+02 -2.559738E+05  1.209156E-09 -6.914794E-10
        70  18 -6.832914E+05 -9.654537E+04 -7.515149E+01 -2.584366E+05 -1.374185E-09 -6.132241E-10
        70  19 -6.946443E+05 -1.026699E+05 -5.845771E+03 -2.608709E+05  2.555393E+03  8.213704E+02
        70  20 -6.935866E+05 -9.801233E+04 -3.239290E+03 -2.590952E+05  1.620432E+03  5.170564E+02
        70  21 -6.905608E+05 -9.906519E+04 -2.037525E+03 -2.601788E+05  6.663071E+02  2.638456E+02
        70  22 -6.871847E+05 -9.963938E+04 -3.761626E+03 -2.586205E+05  2.558095E+03  8.223847E+02
        70  23 -6.880404E+05 -9.586804E+04 -1.710264E+03 -2.575345E+05  1.632301E+03  5.215059E+02
        70  24 -6.869261E+05 -9.780528E+04 -1.056336E+03 -2.593077E+05  6.873472E+02  2.717321E+02
        70  25 -6.797251E+05 -9.660887E+04 -1.677487E+03 -2.563702E+05  2.560798E+03  8.233990E+02
        70  26 -6.824941E+05 -9.372375E+04 -1.812423E+02 -2.559738E+05  1.644170E+03  5.259555E+02
        70  27 -6.832914E+05 -9.654537E+04 -7.515040E+01 -2.584366E+05  7.083875E+02  2.796187E+02
        71   1 -6.769463E+05 -9.439076E+04  1.849512E+03 -2.564662E+05 -4.910484E+02 -2.660507E+02
        71   2 -6.763685E+05 -9.177554E+04  2.768792E+03 -2.542685E+05 -2.106996E+02 -2.525932E+02
        71   3 -6.729548E+05 -9.259726E+04  3.389331E+03 -2.554347E+05  6.983262E+01 -2.396197E+02
        71   4 -6.868454E+05 -9.809431E+04 -8.637027E+02 -2.591224E+05 -5.054279E+02 -2.714408E+02
        71   5 -6.882455E+05 -9.624873E+04 -4.839932E+02 -2.574880E+05 -2.251699E+02 -2.580181E+02
        71   6 -6.868095E+05 -9.784007E+04 -4.029462E+02 -2.592176E+05  5.527057E+01 -2.450795E+02
        71   7 -6.967446E+05 -1.017979E+05 -3.576933E+03 -2.617785E+05 -5.198072E+02 -2.768310E+02
        71   8 -7.001223E+05 -1.007219E+05 -3.736797E+03 -2.607075E+05 -2.396399E+02 -2.634428E+02
        71   9 -7.006641E+05 -1.030829E+05 -4.195245E+03 -2.630004E+05  4.070887E+01 -2.505392E+02
        71  10 -6.769463E+05 -9.439076E+04  1.849511E+03 -2.564662E+05 -4.438642E-10  1.893548E-10
        71  11 -6.763685E+05 -9.177554E+04  2.768792E+03 -2.542685E+05 -1.532195E-09 -1.662741E-10
        71  12 -6.729548E+05 -9.259726E+04  3.389330E+03 -2.554347E+05  7.518653E-10  7.059840E-10
        71  13 -6.868454E+05 -9.809431E+04 -8.637034E+02 -2.591224E+05 -2.833599E-09  8.886230E-11
        71  14 -6.882455E+05 -9.624873E+04 -4.839934E+02 -2.574880E+05 -1.301622E-09  3.061525E-10
        71  15 -6.868095E+05 -9.784007E+04 -4.029463E+02 -2.592176E+05  3.229240E-10  7.864098E-10
        71  16 -6.967446E+05 -1.017979E+05 -3.576933E+03 -2.617785E+05 -4.799752E-10 -4.203186E-10
        71  17 -7.001223E+05 -1.007219E+05 -3.736797E+03 -2.607075E+05  9.292002E-10 -1.117137E-09
        71  18 -7.006641E+05 -1.030829E+05 -4.195245E+03 -2.630004E+05 -1.134709E-09  8.874642E-10
        71  19 -6.769463E+05 -9.439076E+04  1.849512E+03 -2.564662E+05  4.910484E+02  2.660507E+02
        71  20 -6.763685E+05 -9.177554E+04  2.768792E+03 -2.542685E+05  2.106996E+02  2.525932E+02
        71  21 -6.729548E+05 -9.259726E+04  3.389331E+03 -2.554347E+05 -6.983262E+01  2.396197E+02
        71  22 -6.868454E+05 -9.809431E+04 -8.637027E+02 -2.591224E+05  5.054279E+02  2.714408E+02
        71  23 -6.882455E+05 -9.624873E+04 -4.839932E+02 -2.574880E+05  2.251699E+02  2.580181E+02
        71  24 -6.868095E+05 -9.784007E+04 -4.029462E+02 -2.592176E+05 -5.527057E+01  2.450795E+02
        71  25 -6.967446E+05 -1.017979E+05 -3.576933E+03 -2.617785E+05  5.198072E+02  2.768310E+02
        71  26 -7.001223E+05 -1.007219E+05 -3.736797E+03 -2.607075E+05  2.396399E+02  2.634428E+02
        71  27 -7.006641E+05 -1.030829E+05 -4.195245E+03 -2.630004E+05 -4.070887E+01  2.505392E+02
        72   1 -6.604453E+05 -8.783867E+04  6.838337E+03 -2.519566E+05  1.570336E+02 -2.637115E+02
        72   2 -6.599698E+05 -8.572546E+04  7.230842E+03 -2.499172E+05  4.374099E+02 -2.510240E+02
        72   3 -6.568943E+05 -8.654671E+04  7.378119E+03 -2.509327E+05  7.126301E+02 -2.245424E+02
        72   4 -6.868718E+05 -9.779662E+04 -4.072871E+02 -2.591235E+05  1.412385E+02 -2.696345E+02
        72   5 -6.881769E+05 -9.636687E+04 -4.975209E+02 -2.575819E+05  4.240807E+02 -2.560236E+02
        72   6 -6.868825E+05 -9.787207E+04 -8.349547E+02 -2.590952E+05  7.017662E+02 -2.286185E+02
        72   7 -7.132977E+05 -1.077545E+05 -7.652961E+03 -2.662901E+05  1.254443E+02 -2.755572E+02
        72   8 -7.163833E+05 -1.070082E+05 -8.225952E+03 -2.652463E+05  4.107522E+02 -2.610229E+02
        72   9 -7.168698E+05 -1.091974E+05 -9.048116E+03 -2.672574E+05  6.909029E+02 -2.326944E+02
        72  10 -6.604453E+05 -8.783867E+04  6.838337E+03 -2.519566E+05 -9.555254E-10  1.027794E-09
        72  11 -6.599698E+05 -8.572546E+04  7.230842E+03 -2.499172E+05  1.055045E-09 -5.975189E-10
        72  12 -6.568943E+05 -8.654671E+04  7.378118E+03 -2.509327E+05  2.053806E-09 -6.876950E-10
        72  13 -6.868718E+05 -9.779662E+04 -4.072872E+02 -2.591235E+05 -1.418612E-09  8.097738E-10
        72  14 -6.881769E+05 -9.636687E+04 -4.975214E+02 -2.575819E+05 -6.107645E-10 -2.305364E-10
        72  15 -6.868825E+05 -9.787207E+04 -8.349558E+02 -2.590952E+05  7.652404E-10 -7.040341E-10
        72  16 -7.132977E+05 -1.077545E+05 -7.652961E+03 -2.662901E+05  9.832142E-11  9.475004E-10
        72  17 -7.163833E+05 -1.070082E+05 -8.225952E+03 -2.652463E+05  1.105658E-11 -5.940387E-10
        72  18 -7.168698E+05 -1.091974E+05 -9.048117E+03 -2.672574E+05 -4.235401E-10 -6.685923E-10
        72  19 -6.604453E+05 -8.783867E+04  6.838337E+03 -2.519566E+05 -1.570336E+02  2.637115E+02
        72  20 -6.599698E+05 -8.572546E+04  7.230842E+03 -2.499172E+05 -4.374099E+02  2.510240E+02
        72  21 -6.568943E+05 -8.654671E+04  7.378119E+03 -2.509327E+05 -7.126301E+02  2.245424E+02
        72  22 -6.868718E+05 -9.779662E+04 -4.072871E+02 -2.591235E+05 -1.412385E+02  2.696345E+02
        72  23 -6.881769E+05 -9.636687E+04 -4.975209E+02 -2.575819E+05 -4.240807E+02  2.560236E+02
        72  24 -6.868825E+05 -9.787207E+04 -8.349547E+02 -2.590952E+05 -7.017662E+02  2.286185E+02
        72  25 -7.132977E+05 -1.077545E+05 -7.652961E+03 -2.662901E+05 -1.254443E+02  2.755572E+02
        72  26 -7.163833E+05 -1.070082E+05 -8.225952E+03 -2.652463E+05 -4.107522E+02  2.610229E+02
        72  27 -7.168698E+05 -1.091974E+05 -9.048116E+03 -2.672574E+05 -6.909029E+02  2.326944E+02
        73   1 -6.463225E+05 -8.231497E+04  1.009874E+04 -2.480145E+05  8.895423E+02 -2.060946E+02
        73   2 -6.458124E+05 -8.045860E+04  9.736224E+03 -2.463148E+05  1.835505E+03  6.823273E+01
        73   3 -6.436691E+05 -8.192069E+04  8.380625E+03 -2.468288E+05  2.772532E+03  3.664296E+02
        73   4 -6.870518E+05 -9.763207E+04 -1.057471E+03 -2.590305E+05  8.746902E+02 -2.116678E+02
        73   5 -6.879234E+05 -9.636390E+04 -1.805150E+03 -2.577768E+05  1.824879E+03  6.424298E+01
        73   6 -6.871625E+05 -9.841505E+04 -3.549314E+03 -2.587369E+05  2.766129E+03  3.640233E+02
        73   7 -7.277795E+05 -1.129491E+05 -1.221382E+04 -2.700458E+05  8.598393E+02 -2.172406E+02
        73   8 -7.300326E+05 -1.122691E+05 -1.334669E+04 -2.692381E+05  1.814253E+03  6.025352E+01
        73   9 -7.306543E+05 -1.149093E+05 -1.547944E+04 -2.706442E+05  2.759728E+03  3.616172E+02
        73  10 -6.463225E+05 -8.231497E+04  1.009874E+04 -2.480145E+05  7.614203E-10 -6.789065E-10
        73  11 -6.458124E+05 -8.045860E+04  9.736218E+03 -2.463148E+05  1.786218E-09 -3.537052E-10
        73  12 -6.436691E+05 -8.192069E+04  8.380610E+03 -2.468288E+05  1.502162E-09  3.764799E-10
        73  13 -6.870518E+05 -9.763207E+04 -1.057473E+03 -2.590305E+05  1.016977E-09 -6.826723E-10
        73  14 -6.879234E+05 -9.636390E+04 -1.805157E+03 -2.577768E+05  1.491593E-09 -4.190653E-10
        73  15 -6.871626E+05 -9.841506E+04 -3.549328E+03 -2.587369E+05  2.259204E-09 -1.947543E-10
        73  16 -7.277795E+05 -1.129491E+05 -1.221383E+04 -2.700458E+05 -1.098856E-09 -6.360677E-10
        73  17 -7.300326E+05 -1.122691E+05 -1.334669E+04 -2.692381E+05 -4.435772E-10 -1.524538E-10
        73  18 -7.306543E+05 -1.149093E+05 -1.547945E+04 -2.706442E+05 -8.621264E-10 -5.047623E-10
        73  19 -6.463225E+05 -8.231497E+04  1.009874E+04 -2.480145E+05 -8.895423E+02  2.060946E+02
        73  20 -6.458124E+05 -8.045860E+04  9.736224E+03 -2.463148E+05 -1.835505E+03 -6.823273E+01
        73  21 -6.436691E+05 -8.192069E+04  8.380625E+03 -2.468288E+05 -2.772532E+03 -3.664296E+02
        73  22 -6.870518E+05 -9.763207E+04 -1.057471E+03 -2.590305E+05 -8.746902E+02  2.116678E+02
        73  23 -6.879234E+05 -9.636390E+04 -1.805150E+03 -2.577768E+05 -1.824879E+03 -6.424298E+01
        73  24 -6.871625E+05 -9.841505E+04 -3.549314E+03 -2.587369E+05 -2.766129E+03 -3.640233E+02
        73  25 -7.277795E+05 -1.129491E+05 -1.221382E+04 -2.700458E+05 -8.598393E+02  2.172406E+02
        73  26 -7.300326E+05 -1.122691E+05 -1.334669E+04 -2.692381E+05 -1.814253E+03 -6.025352E+01
        73  27 -7.306543E+05 -1.149093E+05 -1.547944E+04 -2.706442E+05 -2.759728E+03 -3.616172E+02
        74   1 -6.359622E+05 -7.820921E+04  9.559349E+03 -2.453595E+05  3.463918E+03  5.888097E+02
        74   2 -6.347559E+05 -7.561454E+04  6.575593E+03 -2.438350E+05  7.519129E+03  2.049606E+03
        74   3 -6.355263E+05 -8.219195E+04 -1.517007E+03 -2.420454E+05  1.155878E+04  3.551755E+03
        74   4 -6.876350E+05 -9.737708E+04 -4.538387E+03 -2.590641E+05  3.450357E+03  5.837179E+02
        74   5 -6.870266E+05 -9.547884E+04 -7.774201E+03 -2.581876E+05  7.512671E+03  2.047175E+03
        74   6 -6.883965E+05 -1.027545E+05 -1.612482E+04 -2.570460E+05  1.155942E+04  3.551976E+03
        74   7 -7.393053E+05 -1.165448E+05 -1.863636E+04 -2.727676E+05  3.436797E+03  5.786266E+02
        74   8 -7.392946E+05 -1.153430E+05 -2.212424E+04 -2.725391E+05  7.506213E+03  2.044744E+03
        74   9 -7.412639E+05 -1.233169E+05 -3.073287E+04 -2.720455E+05  1.156005E+04  3.552197E+03
        74  10 -6.359622E+05 -7.820922E+04  9.559326E+03 -2.453595E+05 -1.711664E-09  5.193006E-10
        74  11 -6.347560E+05 -7.561456E+04  6.575479E+03 -2.438350E+05 -1.416869E-09 -4.907039E-11
        74  12 -6.355264E+05 -8.219200E+04 -1.517282E+03 -2.420454E+05 -8.339742E-10 -8.820895E-10
        74  13 -6.876350E+05 -9.737708E+04 -4.538410E+03 -2.590641E+05  3.321852E-09 -1.319381E-10
        74  14 -6.870266E+05 -9.547886E+04 -7.774315E+03 -2.581876E+05 -1.091374E-09 -1.858624E-10
        74  15 -6.883966E+05 -1.027546E+05 -1.612509E+04 -2.570461E+05  9.860869E-10 -2.438869E-10
        74  16 -7.393053E+05 -1.165448E+05 -1.863639E+04 -2.727677E+05  4.720439E-10 -4.664311E-10
        74  17 -7.392947E+05 -1.153430E+05 -2.212435E+04 -2.725391E+05 -2.793275E-09  3.101697E-11
        74  18 -7.412641E+05 -1.233169E+05 -3.073315E+04 -2.720455E+05  4.608402E-10  6.541139E-10
        74  19 -6.359622E+05 -7.820921E+04  9.559349E+03 -2.453595E+05 -3.463918E+03 -5.888097E+02
        74  20 -6.347559E+05 -7.561454E+04  6.575593E+03 -2.438350E+05 -7.519129E+03 -2.049606E+03
        74  21 -6.355263E+05 -8.219195E+04 -1.517007E+03 -2.420454E+05 -1.155878E+04 -3.551755E+03
        74  22 -6.876350E+05 -9.737708E+04 -4.538387E+03 -2.590641E+05 -3.450357E+03 -5.837179E+02
        74  23 -6.870266E+05 -9.547884E+04 -7.774201E+03 -2.581876E+05 -7.512671E+03 -2.047175E+03
        74  24 -6.883965E+05 -1.027545E+05 -1.612482E+04 -2.570460E+05 -1.155942E+04 -3.551976E+03
        74  25 -7.393053E+05 -1.165448E+05 -1.863636E+04 -2.727676E+05 -3.436797E+03 -5.786266E+02
        74  26 -7.392946E+05 -1.153430E+05 -2.212424E+04 -2.725391E+05 -7.506213E+03 -2.044744E+03
        74  27 -7.412639E+05 -1.233169E+05 -3.073287E+04 -2.720455E+05 -1.156005E+04 -3.552197E+03
        75   1 -6.311339E+05 -7.637379E+04 -4.381237E+03 -2.464233E+05  1.460828E+04  4.662696E+03
        75   2 -6.250592E+05 -6.570202E+04 -1.762827E+04 -2.430620E+05  3.246898E+04  1.132930E+04
        75   3 -6.403110E+05 -1.077523E+05 -5.841846E+04 -2.270939E+05  5.028303E+04  1.812062E+04
        75   4 -6.904507E+05 -9.654360E+04 -2.019671E+04 -2.602725E+05  1.458942E+04  4.655670E+03
        75   5 -6.823654E+05 -8.839182E+04 -3.354047E+04 -2.597344E+05  3.247089E+04  1.132995E+04
        75   6 -6.956126E+05 -1.329693E+05 -7.444581E+04 -2.465890E+05  5.030578E+04  1.812873E+04
        75   7 -7.497641E+05 -1.167134E+05 -3.601249E+04 -2.741205E+05  1.457055E+04  4.648644E+03
        75   8 -7.396684E+05 -1.110814E+05 -4.945297E+04 -2.764053E+05  3.247280E+04  1.133059E+04
        75   9 -7.509111E+05 -1.581857E+05 -9.047347E+04 -2.660824E+05  5.032852E+04  1.813683E+04
        75  10 -6.311342E+05 -7.637387E+04 -4.381679E+03 -2.464234E+05  7.411653E-10 -1.024176E-09
        75  11 -6.250604E+05 -6.570244E+04 -1.763050E+04 -2.430623E+05  1.711743E-09 -1.178558E-09
        75  12 -6.403139E+05 -1.077533E+05 -5.842384E+04 -2.270946E+05 -1.363616E-09  8.821450E-10
        75  13 -6.904509E+05 -9.654368E+04 -2.019715E+04 -2.602725E+05 -1.690146E-09 -9.903230E-10
        75  14 -6.823665E+05 -8.839224E+04 -3.354269E+04 -2.597347E+05 -1.515453E-09 -2.056470E-09
        75  15 -6.956154E+05 -1.329703E+05 -7.445119E+04 -2.465897E+05  8.914938E-10  1.737569E-09
        75  16 -7.497643E+05 -1.167135E+05 -3.601293E+04 -2.741205E+05 -5.538667E-10 -4.579043E-10
        75  17 -7.396696E+05 -1.110818E+05 -4.945520E+04 -2.764056E+05 -1.722521E-09 -2.924388E-10
        75  18 -7.509139E+05 -1.581868E+05 -9.047885E+04 -2.660832E+05  1.766855E-09 -5.846343E-10
        75  19 -6.311339E+05 -7.637379E+04 -4.381237E+03 -2.464233E+05 -1.460828E+04 -4.662696E+03
        75  20 -6.250592E+05 -6.570202E+04 -1.762827E+04 -2.430620E+05 -3.246898E+04 -1.132930E+04
        75  21 -6.403110E+05 -1.077523E+05 -5.841846E+04 -2.270939E+05 -5.028303E+04 -1.812062E+04
        75  22 -6.904507E+05 -9.654360E+04 -2.019671E+04 -2.602725E+05 -1.458942E+04 -4.655670E+03
        75  23 -6.823654E+05 -8.839182E+04 -3.354047E+04 -2.597344E+05 -3.247089E+04 -1.132995E+04
        75  24 -6.956126E+05 -1.329693E+05 -7.444581E+04 -2.465890E+05 -5.030578E+04 -1.812873E+04
        75  25 -7.497641E+05 -1.167134E+05 -3.601249E+04 -2.741205E+05 -1.457055E+04 -4.648644E+03
        75  26 -7.396684E+05 -1.110814E+05 -4.945297E+04 -2.764053E+05 -3.247280E+04 -1.133059E+04
        75  27 -7.509111E+05 -1.581857E+05 -9.047347E+04 -2.660824E+05 -5.032852E+04 -1.813683E+04
        76   1 -6.376639E+05 -8.022392E+04 -7.418312E+04 -2.655598E+05  6.410567E+04  2.321089E+04
        76   2 -6.004396E+05 -1.178679E+04 -1.267056E+05 -2.465712E+05  1.430237E+05  5.281945E+04
        76   3 -7.056638E+05 -2.930582E+05 -3.339368E+05 -1.360369E+05  2.216961E+05  8.308671E+04
        76   4 -7.073484E+05 -9.176249E+04 -9.033982E+04 -2.693536E+05  6.403186E+04  2.318504E+04
        76   5 -6.535091E+05 -3.959586E+04 -1.427839E+05 -2.689880E+05  1.430612E+05  5.283130E+04
        76   6 -7.421543E+05 -3.371802E+05 -3.500354E+05 -1.770720E+05  2.218472E+05  8.312993E+04
        76   7 -7.770278E+05 -1.033010E+05 -1.064967E+05 -2.731474E+05  6.395805E+04  2.315920E+04
        76   8 -7.065756E+05 -6.740385E+04 -1.588625E+05 -2.914028E+05  1.430987E+05  5.284316E+04
        76   9 -7.786412E+05 -3.812956E+05 -3.661338E+05 -2.181035E+05  2.219983E+05  8.317313E+04
        76  10 -6.376684E+05 -8.022560E+04 -7.419187E+04 -2.655610E+05 -2.635744E-09  2.177575E-09
        76  11 -6.004623E+05 -1.179529E+04 -1.267493E+05 -2.465773E+05 -1.914708E-09 -1.836055E-09
        76  12 -7.057184E+05 -2.930788E+05 -3.340422E+05 -1.360518E+05  4.957264E-10  1.238708E-10
        76  13 -7.073529E+05 -9.176417E+04 -9.034854E+04 -2.693548E+05 -1.243437E-09  4.412970E-10
        76  14 -6.535318E+05 -3.960436E+04 -1.428277E+05 -2.689941E+05 -9.924850E-10 -1.111952E-09
        76  15 -7.422091E+05 -3.372008E+05 -3.501410E+05 -1.770868E+05 -4.204165E-11  1.865063E-09
        76  16 -7.770324E+05 -1.033027E+05 -1.065054E+05 -2.731486E+05 -2.096355E-10  1.004983E-09
        76  17 -7.065984E+05 -6.741236E+04 -1.589063E+05 -2.914088E+05  1.071305E-09  2.811987E-09
        76  18 -7.786961E+05 -3.813163E+05 -3.662395E+05 -2.181184E+05 -1.960234E-09  3.131640E-10
        76  19 -6.376639E+05 -8.022392E+04 -7.418312E+04 -2.655598E+05 -6.410567E+04 -2.321089E+04
        76  20 -6.004396E+05 -1.178679E+04 -1.267056E+05 -2.465712E+05 -1.430237E+05 -5.281945E+04
        76  21 -7.056638E+05 -2.930582E+05 -3.339368E+05 -1.360369E+05 -2.216961E+05 -8.308671E+04
        76  22 -7.073484E+05 -9.176249E+04 -9.033982E+04 -2.693536E+05 -6.403186E+04 -2.318504E+04
        76  23 -6.535091E+05 -3.959586E+04 -1.427839E+05 -2.689880E+05 -1.430612E+05 -5.283130E+04
        76  24 -7.421543E+05 -3.371802E+05 -3.500354E+05 -1.770720E+05 -2.218472E+05 -8.312993E+04
        76  25 -7.770278E+05 -1.033010E+05 -1.064967E+05 -2.731474E+05 -6.395805E+04 -2.315920E+04
        76  26 -7.065756E+05 -6.740385E+04 -1.588625E+05 -2.914028E+05 -1.430987E+05 -5.284316E+04
        76  27 -7.786412E+05 -3.812956E+05 -3.661338E+05 -2.181035E+05 -2.219983E+05 -8.317313E+04
        77   1  2.839536E+05  2.118225E+06  2.676487E+05 -4.582183E+04  1.529618E+04  1.211819E+05
        77   2  2.539014E+05  2.085552E+06  1.966864E+05 -3.893117E+04  5.325721E+04  6.617477E+04
        77   3  2.401093E+05  2.064150E+06  1.655436E+05 -3.490632E+04  6.854090E+04  1.117593E+04
        77   4  1.667443E+04  1.029544E+06  1.795569E+04 -3.434494E+04  1.531103E+04  1.204986E+04
        77   5  5.370187E+03  1.028265E+06  9.416258E+03 -3.291634E+04  5.328018E+04  7.265798E+03
        77   6  1.636925E+03  1.029567E+06  5.897994E+03 -3.435071E+04  6.855523E+04  2.485556E+03
        77   7 -2.506803E+05 -5.801783E+04 -2.317706E+05 -2.288822E+04  1.532188E+04 -9.689295E+04
        77   8 -2.432204E+05 -2.792592E+04 -1.778824E+05 -2.691194E+04  5.330203E+04 -5.154604E+04
        77   9 -2.368873E+05 -3.949279E+03 -1.537716E+05 -3.379594E+04  6.856957E+04 -6.190926E+03
        77  10  2.839494E+05  2.118209E+06  2.676207E+05 -4.582332E+04 -7.273411E-10  2.310396E-09
        77  11  2.538972E+05  2.085546E+06  1.966729E+05 -3.893400E+04 -1.955855E-09 -9.609971E-10
        77  12  2.401042E+05  2.064149E+06  1.655345E+05 -3.490693E+04  1.142396E-09 -3.573232E-09
        77  13  1.667414E+04  1.029543E+06  1.795498E+04 -3.434509E+04 -1.774716E-09 -1.203788E-11
        77  14  5.367124E+03  1.028264E+06  9.410822E+03 -3.291665E+04 -2.290624E-09  2.392441E-11
        77  15  1.631875E+03  1.029566E+06  5.889146E+03 -3.435085E+04  2.326130E-09 -5.153110E-10
        77  16 -2.506830E+05 -5.802798E+04 -2.317887E+05 -2.288703E+04 -1.719088E-09 -2.349403E-09
        77  17 -2.432242E+05 -2.792954E+04 -1.778928E+05 -2.690973E+04 -5.164150E-10  4.430248E-10
        77  18 -2.368924E+05 -3.950583E+03 -1.537805E+05 -3.379560E+04 -3.011566E-10  3.430182E-09
        77  19  2.839536E+05  2.118225E+06  2.676487E+05 -4.582183E+04 -1.529618E+04 -1.211819E+05
        77  20  2.539014E+05  2.085552E+06  1.966864E+05 -3.893117E+04 -5.325721E+04 -6.617477E+04
        77  21  2.401093E+05  2.064150E+06  1.655436E+05 -3.490632E+04 -6.854090E+04 -1.117593E+04
        77  22  1.667443E+04  1.029544E+06  1.795569E+04 -3.434494E+04 -1.531103E+04 -1.204986E+04
        77  23  5.370187E+03  1.028265E+06  9.416258E+03 -3.291634E+04 -5.328018E+04 -7.265798E+03
        77  24  1.636925E+03  1.029567E+06  5.897994E+03 -3.435071E+04 -6.855523E+04 -2.485556E+03
        77  25 -2.506803E+05 -5.801783E+04 -2.317706E+05 -2.288822E+04 -1.532188E+04  9.689295E+04
        77  26 -2.432204E+05 -2.792592E+04 -1.778824E+05 -2.691194E+04 -5.330203E+04  5.154604E+04
        77  27 -2.368873E+05 -3.949279E+03 -1.537716E+05 -3.379594E+04 -6.856957E+04  6.190926E+03
        78   1  2.348403E+05  2.045747E+06  1.581475E+05 -3.591167E+04  6.998592E+04  9.635173E+03
        78   2  2.271149E+05  2.017809E+06  1.492309E+05 -3.276791E+04  7.108372E+04 -3.807142E+03
        78   3  2.228667E+05  1.992541E+06  1.499319E+05 -3.422821E+04  6.714915E+04 -1.725253E+04
        78   4  1.271997E+03  1.029164E+06  5.068453E+03 -3.473787E+04  7.000084E+04  1.647957E+03
        78   5  7.391694E+02  1.028802E+06  4.598310E+03 -3.243570E+04  7.109292E+04 -6.479751E+02
        78   6  1.754902E+03  1.029181E+06  6.024573E+03 -3.473805E+04  6.714853E+04 -2.947516E+03
        78   7 -2.323453E+05  1.361406E+04 -1.480311E+05 -3.356591E+04  7.001575E+04 -6.326736E+03
        78   8 -2.256817E+05  4.077772E+04 -1.400511E+05 -3.210388E+04  7.110214E+04  2.506381E+03
        78   9 -2.194005E+05  6.675145E+04 -1.378999E+05 -3.524688E+04  6.714789E+04  1.133625E+04
        78  10  2.348350E+05  2.045746E+06  1.581381E+05 -3.591221E+04  1.380164E-09 -5.017322E-10
        78  11  2.271094E+05  2.017808E+06  1.492214E+05 -3.276769E+04  8.283221E-10 -2.915126E-09
        78  12  2.228618E+05  1.992539E+06  1.499228E+05 -3.422728E+04  1.692406E-09 -2.730091E-09
        78  13  1.266732E+03  1.029163E+06  5.059235E+03 -3.473796E+04 -7.321172E-10 -1.072503E-10
        78  14  7.337394E+02  1.028801E+06  4.588807E+03 -3.243567E+04  1.598546E-09 -7.463312E-11
        78  15  1.750056E+03  1.029180E+06  6.016079E+03 -3.473789E+04 -1.834161E-09 -9.744453E-10
        78  16 -2.323506E+05  1.361270E+04 -1.480404E+05 -3.356556E+04  9.175868E-10  1.379652E-10
        78  17 -2.256871E+05  4.077635E+04 -1.400607E+05 -3.210402E+04  3.487773E-10  1.203416E-09
        78  18 -2.194054E+05  6.675011E+04 -1.379086E+05 -3.524749E+04 -1.166552E-09  2.458536E-09
        78  19  2.348403E+05  2.045747E+06  1.581475E+05 -3.591167E+04 -6.998592E+04 -9.635173E+03
        78  20  2.271149E+05  2.017809E+06  1.492309E+05 -3.276791E+04 -7.108372E+04  3.807142E+03
        78  21  2.228667E+05  1.992541E+06  1.499319E+05 -3.422821E+04 -6.714915E+04  1.725253E+04
        78  22  1.271997E+03  1.029164E+06  5.068453E+03 -3.473787E+04 -7.000084E+04 -1.647957E+03
        78  23  7.391694E+02  1.028802E+06  4.598310E+03 -3.243570E+04 -7.109292E+04  6.479751E+02
        78  24  1.754902E+03  1.029181E+06  6.024573E+03 -3.473805E+04 -6.714853E+04  2.947516E+03
        78  25 -2.323453E+05  1.361406E+04 -1.480311E+05 -3.356591E+04 -7.001575E+04  6.326736E+03
        78  26 -2.256817E+05  4.077772E+04 -1.400511E+05 -3.210388E+04 -7.110214E+04 -2.506381E+03
        78  27 -2.194005E+05  6.675145E+04 -1.378999E+05 -3.524688E+04 -6.714789E+04 -1.133625E+04
        79   1  2.204926E+05  1.977680E+06  1.521690E+05 -3.531733E+04  6.388041E+04 -1.886363E+04
        79   2  2.228477E+05  1.946224E+06  1.729096E+05 -2.473875E+04  4.796677E+04 -6.615688E+04
        79   3  2.425742E+05  1.925289E+06  2.287287E+05 -2.022659E+04  1.360471E+04 -1.134730E+05
        79   4  2.297011E+03  1.029790E+06  7.417032E+03 -3.506515E+04  6.387740E+04 -3.964009E+03
        79   5  7.495366E+03  1.028069E+06  1.262593E+04 -3.202253E+04  4.792050E+04 -1.041141E+04
        79   6  2.299810E+04  1.029798E+06  2.460660E+04 -3.504886E+04  1.350384E+04 -1.688184E+04
        79   7 -2.159416E+05  8.279709E+04 -1.373535E+05 -3.481317E+04  6.387439E+04  1.091381E+04
        79   8 -2.079008E+05  1.107440E+05 -1.476760E+05 -3.929504E+04  4.787290E+04  4.525431E+04
        79   9 -1.966276E+05  1.350684E+05 -1.795327E+05 -4.984941E+04  1.339830E+04  7.957160E+04
        79  10  2.204881E+05  1.977678E+06  1.521607E+05 -3.531636E+04  3.284570E-10  1.667689E-09
        79  11  2.228441E+05  1.946218E+06  1.728971E+05 -2.473620E+04  6.597097E-10 -1.238144E-09
        79  12  2.425706E+05  1.925275E+06  2.287043E+05 -2.022534E+04 -1.220896E-09 -6.944010E-10
        79  13  2.292623E+03  1.029789E+06  7.409331E+03 -3.506495E+04 -1.300327E-09 -5.693964E-11
        79  14  7.492870E+03  1.028068E+06  1.262141E+04 -3.202213E+04  2.541488E-09 -1.654754E-11
        79  15  2.299783E+04  1.029797E+06  2.460572E+04 -3.504867E+04  1.787852E-09 -1.481398E-09
        79  16 -2.159460E+05  8.279587E+04 -1.373614E+05 -3.481373E+04 -1.254091E-09 -2.527673E-09
        79  17 -2.079038E+05  1.107412E+05 -1.476842E+05 -3.929679E+04  4.245874E-09 -1.190260E-09
        79  18 -1.966295E+05  1.350616E+05 -1.795449E+05 -4.985027E+04  7.269179E-10  5.351820E-10
        79  19  2.204926E+05  1.977680E+06  1.521690E+05 -3.531733E+04 -6.388041E+04  1.886363E+04
        79  20  2.228477E+05  1.946224E+06  1.729096E+05 -2.473875E+04 -4.796677E+04  6.615688E+04
        79  21  2.425742E+05  1.925289E+06  2.287287E+05 -2.022659E+04 -1.360471E+04  1.134730E+05
        79  22  2.297011E+03  1.029790E+06  7.417032E+03 -3.506515E+04 -6.387740E+04  3.964009E+03
        79  23  7.495366E+03  1.028069E+06  1.262593E+04 -3.202253E+04 -4.792050E+04  1.041141E+04
        79  24  2.299810E+04  1.029798E+06  2.460660E+04 -3.504886E+04 -1.350384E+04  1.688184E+04
        79  25 -2.159416E+05  8.279709E+04 -1.373535E+05 -3.481317E+04 -6.387439E+04 -1.091381E+04
        79  26 -2.079008E+05  1.107440E+05 -1.476760E+05 -3.929504E+04 -4.787290E+04 -4.525431E+04
        79  27 -1.966276E+05  1.350684E+05 -1.795327E+05 -4.984941E+04 -1.339830E+04 -7.957160E+04
        80   1 -3.209288E+06 -3.602540E+05 -4.235133E+05 -3.117141E+04 -1.890330E+05  1.965439E+03
        80   2 -3.178159E+06 -1.036559E+05 -2.679916E+05 -2.016867E+04 -1.236563E+05  7.997336E+03
        80   3 -3.227756E+06 -1.458762E+05 -2.293777E+05  1.002724E+04 -5.825318E+04  7.641743E+03
        80   4 -2.615512E+06 -2.110576E+05 -2.748547E+05 -1.351877E+03 -1.874481E+05  1.963933E+03
        80   5 -2.575144E+06  4.744181E+04 -1.177839E+05 -1.142708E+04 -1.232397E+05  7.996871E+03
        80   6 -2.615222E+06  7.479454E+03 -7.672820E+04 -2.311655E+03 -5.900423E+04  7.640568E+03
        80   7 -2.021412E+06 -6.188471E+04 -1.262225E+05  2.849595E+04 -1.858616E+05  1.962585E+03
        80   8 -1.971797E+06  1.985123E+05  3.239649E+04 -2.677249E+03 -1.228228E+05  7.996419E+03
        80   9 -2.002347E+06  1.608073E+05  7.589309E+04 -1.466301E+04 -5.975601E+04  7.639422E+03
        80  10 -3.209327E+06 -3.602637E+05 -4.235808E+05 -3.117111E+04 -2.287841E-09 -3.680327E-10
        80  11 -3.178176E+06 -1.036601E+05 -2.680206E+05 -2.016788E+04  1.269905E-09  3.129111E-10
        80  12 -3.227759E+06 -1.458771E+05 -2.293842E+05  1.002760E+04  1.670328E-09 -5.777593E-10
        80  13 -2.615550E+06 -2.110671E+05 -2.749211E+05 -1.351580E+03  1.314247E-12  1.113429E-11
        80  14 -2.575160E+06  4.743764E+04 -1.178126E+05 -1.142629E+04 -3.479111E-09  7.202796E-10
        80  15 -2.615226E+06  7.478452E+03 -7.673488E+04 -2.311292E+03  7.738462E-10  1.028194E-09
        80  16 -2.021450E+06 -6.189403E+04 -1.262876E+05  2.849625E+04  2.327605E-09 -6.059749E-10
        80  17 -1.971814E+06  1.985081E+05  3.236793E+04 -2.676457E+03  1.017404E-09 -1.469800E-10
        80  18 -2.002350E+06  1.608063E+05  7.588625E+04 -1.466264E+04 -1.214671E-09  1.129208E-09
        80  19 -3.209288E+06 -3.602540E+05 -4.235133E+05 -3.117141E+04  1.890330E+05 -1.965439E+03
        80  20 -3.178159E+06 -1.036559E+05 -2.679916E+05 -2.016867E+04  1.236563E+05 -7.997336E+03
        80  21 -3.227756E+06 -1.458762E+05 -2.293777E+05  1.002724E+04  5.825318E+04 -7.641743E+03
        80  22 -2.615512E+06 -2.110576E+05 -2.748547E+05 -1.351877E+03  1.874481E+05 -1.963933E+03
        80  23 -2.575144E+06  4.744181E+04 -1.177839E+05 -1.142708E+04  1.232397E+05 -7.996871E+03
        80  24 -2.615222E+06  7.479454E+03 -7.672820E+04 -2.311655E+03  5.900423E+04 -7.640568E+03
        80  25 -2.021412E+06 -6.188471E+04 -1.262225E+05  2.849595E+04  1.858616E+05 -1.962585E+03
        80  26 -1.971797E+06  1.985123E+05  3.239649E+04 -2.677249E+03  1.228228E+05 -7.996419E+03
        80  27 -2.002347E+06  1.608073E+05  7.589309E+04 -1.466301E+04  5.975601E+04 -7.639422E+03
        81   1 -3.207712E+06 -1.835751E+05 -2.150413E+05 -1.568095E+04 -4.671198E+04  6.850195E+03
        81   2 -3.191947E+06 -1.427113E+05 -1.795294E+05 -1.956036E+03 -3.043113E+04  7.646165E+03
        81   3 -3.186535E+06 -1.459129E+05 -1.651066E+05 -8.866390E+03 -1.414850E+04  6.817131E+03
        81   4 -2.599703E+06 -3.122653E+04 -6.340311E+04 -1.081811E+04 -4.644180E+04  6.850016E+03
        81   5 -2.594538E+06  6.937117E+03 -3.064914E+04 -5.320029E+02 -3.045788E+04  7.645620E+03
        81   6 -2.599659E+06  1.111346E+03 -1.876249E+04 -1.087999E+04 -1.447246E+04  6.816723E+03
        81   7 -1.991357E+06  1.210941E+05  8.820716E+04 -5.950646E+03 -4.617133E+04  6.849841E+03
        81   8 -1.996803E+06  1.565586E+05  1.182042E+05  8.933182E+02 -3.048464E+04  7.645075E+03
        81   9 -2.012469E+06  1.481096E+05  1.275557E+05 -1.289551E+04 -1.479672E+04  6.816318E+03
        81  10 -3.207714E+06 -1.835757E+05 -2.150455E+05 -1.568069E+04 -1.996243E-09 -1.067549E-09
        81  11 -3.191948E+06 -1.427116E+05 -1.795312E+05 -1.955848E+03 -6.403743E-09 -7.205442E-10
        81  12 -3.186535E+06 -1.459130E+05 -1.651071E+05 -8.866312E+03  1.878173E-09 -1.325840E-10
        81  13 -2.599705E+06 -3.122716E+04 -6.340727E+04 -1.081785E+04  2.282124E-10  5.633608E-10
        81  14 -2.594539E+06  6.936804E+03 -3.065100E+04 -5.318152E+02 -4.263752E-09 -3.767312E-10
        81  15 -2.599659E+06  1.111239E+03 -1.876298E+04 -1.087991E+04 -8.981930E-10  8.185653E-10
        81  16 -1.991360E+06  1.210935E+05  8.820305E+04 -5.950392E+03 -1.160647E-10  1.223552E-10
        81  17 -1.996804E+06  1.565583E+05  1.182023E+05  8.935060E+02  2.345190E-09 -1.327229E-09
        81  18 -2.012469E+06  1.481095E+05  1.275552E+05 -1.289542E+04 -2.191992E-09  9.210824E-10
        81  19 -3.207712E+06 -1.835751E+05 -2.150413E+05 -1.568095E+04  4.671198E+04 -6.850195E+03
        81  20 -3.191947E+06 -1.427113E+05 -1.795294E+05 -1.956036E+03  3.043113E+04 -7.646165E+03
        81  21 -3.186535E+06 -1.459129E+05 -1.651066E+05 -8.866390E+03  1.414850E+04 -6.817131E+03
        81  22 -2.599703E+06 -3.122653E+04 -6.340311E+04 -1.081811E+04  4.644180E+04 -6.850016E+03
        81  23 -2.594538E+06  6.937117E+03 -3.064914E+04 -5.320029E+02  3.045788E+04 -7.645620E+03
        81  24 -2.599659E+06  1.111346E+03 -1.876249E+04 -1.087999E+04  1.447246E+04 -6.816723E+03
        81  25 -1.991357E+06  1.210941E+05  8.820716E+04 -5.950646E+03  4.617133E+04 -6.849841E+03
        81  26 -1.996803E+06  1.565586E+05  1.182042E+05  8.933182E+02  3.048464E+04 -7.645075E+03
        81  27 -2.012469E+06  1.481096E+05  1.275557E+05 -1.289551E+04  1.479672E+04 -6.816318E+03
        82   1 -3.069161E+06 -1.227989E+05 -1.325839E+05 -1.877157E+04 -1.139892E+04  6.233417E+03
        82   2 -3.041059E+06 -1.102108E+05 -1.185845E+05  9.040769E+03 -7.228483E+03  5.643081E+03
        82   3 -3.013721E+06 -1.040093E+05 -1.086276E+05 -1.745870E+04 -3.060450E+03  4.339774E+03
        82   4 -2.597507E+06 -4.666799E+03 -1.507389E+04 -1.834724E+04 -1.144922E+04  6.233124E+03
        82   5 -2.597141E+06  9.785469E+02 -7.958400E+03  8.808603E+03 -7.412416E+03  5.643015E+03
        82   6 -2.597513E+06  2.638953E+02 -4.789862E+03 -1.834494E+04 -3.378206E+03  4.340153E+03
        82   7 -2.125650E+06  1.134485E+05  1.024194E+05 -1.792256E+04 -1.149955E+04  6.232831E+03
        82   8 -2.153043E+06  1.121530E+05  1.026528E+05  8.576315E+03 -7.596478E+03  5.642949E+03
        82   9 -2.181148E+06  1.045240E+05  9.903485E+04 -1.923171E+04 -3.696174E+03  4.340532E+03
        82  10 -3.069161E+06 -1.227989E+05 -1.325842E+05 -1.877151E+04  2.012421E-09 -2.130714E-10
        82  11 -3.041059E+06 -1.102108E+05 -1.185846E+05  9.040802E+03  3.165692E-09 -8.533339E-10
        82  12 -3.013721E+06 -1.040093E+05 -1.086277E+05 -1.745868E+04 -2.753486E-09  8.369527E-11
        82  13 -2.597507E+06 -4.666876E+03 -1.507421E+04 -1.834718E+04 -2.193518E-09  2.958462E-10
        82  14 -2.597141E+06  9.784979E+02 -7.958563E+03  8.808637E+03  6.847645E-11  4.807085E-10
        82  15 -2.597513E+06  2.638720E+02 -4.789919E+03 -1.834493E+04  5.674529E-10  2.851460E-10
        82  16 -2.125650E+06  1.134484E+05  1.024190E+05 -1.792250E+04 -2.441391E-09  1.714749E-09
        82  17 -2.153043E+06  1.121529E+05  1.026526E+05  8.576350E+03 -4.353251E-09  2.819159E-10
        82  18 -2.181148E+06  1.045239E+05  9.903479E+04 -1.923170E+04  2.222795E-09 -1.176482E-09
        82  19 -3.069161E+06 -1.227989E+05 -1.325839E+05 -1.877157E+04  1.139892E+04 -6.233417E+03
        82  20 -3.041059E+06 -1.102108E+05 -1.185845E+05  9.040769E+03  7.228483E+03 -5.643081E+03
        82  21 -3.013721E+06 -1.040093E+05 -1.086276E+05 -1.745870E+04  3.060450E+03 -4.339774E+03
        82  22 -2.597507E+06 -4.666799E+03 -1.507389E+04 -1.834724E+04  1.144922E+04 -6.233124E+03
        82  23 -2.597141E+06  9.785469E+02 -7.958400E+03  8.808603E+03  7.412416E+03 -5.643015E+03
        82  24 -2.597513E+06  2.638953E+02 -4.789862E+03 -1.834494E+04  3.378206E+03 -4.340153E+03
        82  25 -2.125650E+06  1.134485E+05  1.024194E+05 -1.792256E+04  1.149955E+04 -6.232831E+03
        82  26 -2.153043E+06  1.121530E+05  1.026528E+05  8.576315E+03  7.596478E+03 -5.642949E+03
        82  27 -2.181148E+06  1.045240E+05  9.903485E+04 -1.923171E+04  3.696174E+03 -4.340532E+03
        83   1 -2.815954E+06 -5.536164E+04 -5.829375E+04 -2.257259E+04 -2.392252E+03  3.518517E+03
        83   2 -2.777677E+06 -4.507278E+04 -4.745737E+04  1.470582E+04 -1.102389E+03  2.289087E+03
        83   3 -2.739969E+06 -3.566824E+04 -3.772209E+04 -2.247341E+04  1.859457E+02  8.042545E+02
        83   4 -2.597434E+06 -6.539431E+02 -3.937672E+03 -2.282423E+04 -2.603143E+03  3.518874E+03
        83   5 -2.597157E+06  1.363447E+02 -2.477519E+03  1.440463E+04 -1.361775E+03  2.289647E+03
        83   6 -2.597442E+06  5.096800E+01 -2.084420E+03 -2.282279E+04 -1.220149E+02  8.050558E+02
        83   7 -2.378870E+06  5.405015E+04  5.041482E+04 -2.307594E+04 -2.814108E+03  3.519231E+03
        83   8 -2.416607E+06  4.534300E+04  4.249988E+04  1.410337E+04 -1.621236E+03  2.290208E+03
        83   9 -2.454895E+06  3.576864E+04  3.355171E+04 -2.317224E+04 -4.300464E+02  8.058574E+02
        83  10 -2.815954E+06 -5.536166E+04 -5.829378E+04 -2.257258E+04 -3.602970E-09  6.448189E-11
        83  11 -2.777677E+06 -4.507278E+04 -4.745738E+04  1.470582E+04  1.440038E-09  1.258289E-10
        83  12 -2.739969E+06 -3.566825E+04 -3.772209E+04 -2.247341E+04 -1.147225E-10 -9.063843E-10
        83  13 -2.597434E+06 -6.539582E+02 -3.937708E+03 -2.282423E+04 -4.960964E-11  1.654646E-10
        83  14 -2.597157E+06  1.363386E+02 -2.477533E+03  1.440463E+04 -8.045135E-10  4.898707E-10
        83  15 -2.597442E+06  5.096730E+01 -2.084421E+03 -2.282279E+04 -2.615479E-09  1.400087E-10
        83  16 -2.378870E+06  5.405014E+04  5.041478E+04 -2.307593E+04  1.688417E-09  2.440208E-10
        83  17 -2.416607E+06  4.534300E+04  4.249986E+04  1.410338E+04 -3.411018E-09 -4.810560E-11
        83  18 -2.454895E+06  3.576864E+04  3.355171E+04 -2.317224E+04 -4.526055E-10 -1.895525E-10
        83  19 -2.815954E+06 -5.536164E+04 -5.829375E+04 -2.257259E+04  2.392252E+03 -3.518517E+03
        83  20 -2.777677E+06 -4.507278E+04 -4.745737E+04  1.470582E+04  1.102389E+03 -2.289087E+03
        83  21 -2.739969E+06 -3.566824E+04 -3.772209E+04 -2.247341E+04 -1.859457E+02 -8.042545E+02
        83  22 -2.597434E+06 -6.539431E+02 -3.937672E+03 -2.282423E+04  2.603143E+03 -3.518874E+03
        83  23 -2.597157E+06  1.363447E+02 -2.477519E+03  1.440463E+04  1.361775E+03 -2.289647E+03
        83  24 -2.597442E+06  5.096800E+01 -2.084420E+03 -2.282279E+04  1.220149E+02 -8.050558E+02
        83  25 -2.378870E+06  5.405015E+04  5.041482E+04 -2.307594E+04  2.814108E+03 -3.519231E+03
        83  26 -2.416607E+06  4.534300E+04  4.249988E+04  1.410337E+04  1.621236E+03 -2.290208E+03
        83  27 -2.454895E+06  3.576864E+04  3.355171E+04 -2.317224E+04  4.300464E+02 -8.058574E+02
        84   1 -2.508723E+06  2.229734E+04  2.012031E+04 -2.344850E+04  5.521339E+02 -1.406095E+02
        84   2 -2.469475E+06  3.210584E+04  2.921093E+04  1.465751E+04  1.812879E+03 -1.621472E+03
        84   3 -2.430958E+06  4.098926E+04  3.717693E+04 -2.339530E+04  3.074901E+03 -2.916821E+03
        84   4 -2.597477E+06  4.846591E+01 -2.113828E+03 -2.320129E+04  2.515084E+02 -1.398094E+02
        84   5 -2.597105E+06  1.484240E+02 -2.584321E+03  1.487778E+04  1.547534E+03 -1.620847E+03
        84   6 -2.597472E+06 -6.829079E+02 -4.204087E+03 -2.320293E+04  2.844756E+03 -2.916351E+03
        84   7 -2.686223E+06 -2.220101E+04 -2.434856E+04 -2.295412E+04 -4.907397E+01 -1.390094E+02
        84   8 -2.724720E+06 -3.181023E+04 -3.438079E+04  1.509802E+04  1.282243E+03 -1.620223E+03
        84   9 -2.763961E+06 -4.235717E+04 -4.558718E+04 -2.301060E+04  2.614674E+03 -2.915880E+03
        84  10 -2.508723E+06  2.229734E+04  2.012031E+04 -2.344850E+04 -1.322117E-09 -7.826517E-10
        84  11 -2.469475E+06  3.210584E+04  2.921091E+04  1.465751E+04 -1.206559E-09 -4.857597E-10
        84  12 -2.430958E+06  4.098925E+04  3.717689E+04 -2.339529E+04 -1.090347E-09 -1.503309E-13
        84  13 -2.597477E+06  4.846587E+01 -2.113828E+03 -2.320129E+04 -1.950395E-09  5.032408E-10
        84  14 -2.597105E+06  1.484205E+02 -2.584330E+03  1.487779E+04  3.117780E-10  5.355825E-11
        84  15 -2.597472E+06 -6.829192E+02 -4.204118E+03 -2.320292E+04  6.953548E-10  7.897691E-10
        84  16 -2.686223E+06 -2.220101E+04 -2.434856E+04 -2.295412E+04 -2.811701E-09 -9.867564E-10
        84  17 -2.724720E+06 -3.181023E+04 -3.438080E+04  1.509803E+04  6.200474E-10  1.126420E-09
        84  18 -2.763961E+06 -4.235718E+04 -4.558721E+04 -2.301059E+04 -7.852690E-10 -2.224971E-10
        84  19 -2.508723E+06  2.229734E+04  2.012031E+04 -2.344850E+04 -5.521339E+02  1.406095E+02
        84  20 -2.469475E+06  3.210584E+04  2.921093E+04  1.465751E+04 -1.812879E+03  1.621472E+03
        84  21 -2.430958E+06  4.098926E+04  3.717693E+04 -2.339530E+04 -3.074901E+03  2.916821E+03
        84  22 -2.597477E+06  4.846591E+01 -2.113828E+03 -2.320129E+04 -2.515084E+02  1.398094E+02
        84  23 -2.597105E+06  1.484240E+02 -2.584321E+03  1.487778E+04 -1.547534E+03  1.620847E+03
        84  24 -2.597472E+06 -6.829079E+02 -4.204087E+03 -2.320293E+04 -2.844756E+03  2.916351E+03
        84  25 -2.686223E+06 -2.220101E+04 -2.434856E+04 -2.295412E+04  4.907397E+01  1.390094E+02
        84  26 -2.724720E+06 -3.181023E+04 -3.438079E+04  1.509802E+04 -1.282243E+03  1.620223E+03
        84  27 -2.763961E+06 -4.235717E+04 -4.558718E+04 -2.301060E+04 -2.614674E+03  2.915880E+03
        85   1 -2.223467E+06  9.398144E+04  8.816458E+04 -2.031036E+04  4.003035E+03 -3.779136E+03
        85   2 -2.192736E+06  1.022708E+05  9.215098E+04  9.832811E+03  8.214962E+03 -5.143013E+03
        85   3 -2.163201E+06  1.037263E+05  9.189292E+04 -1.904042E+04  1.242969E+04 -5.842468E+03
        85   4 -2.597615E+06  2.867290E+02 -5.150670E+03 -1.939080E+04  3.678231E+03 -3.778626E+03
        85   5 -2.597002E+06  1.065395E+03 -8.541375E+03  1.011646E+04  8.014895E+03 -5.142958E+03
        85   6 -2.597609E+06 -5.014188E+03 -1.626543E+04 -1.939511E+04  1.235415E+04 -5.842684E+03
        85   7 -2.971635E+06 -9.341856E+04 -9.847648E+04 -1.847173E+04  3.353622E+03 -3.778118E+03
        85   8 -3.001118E+06 -1.001523E+05 -1.092460E+05  1.039997E+04  7.814958E+03 -5.142904E+03
        85   9 -3.031845E+06 -1.137689E+05 -1.244380E+05 -1.974952E+04  1.227867E+04 -5.842901E+03
        85  10 -2.223467E+06  9.398142E+04  8.816452E+04 -2.031035E+04 -5.424757E-10  7.493654E-11
        85  11 -2.192736E+06  1.022707E+05  9.215080E+04  9.832845E+03 -1.659545E-09 -4.597659E-11
        85  12 -2.163202E+06  1.037262E+05  9.189257E+04 -1.904036E+04  3.725701E-10 -9.423385E-10
        85  13 -2.597615E+06  2.867101E+02 -5.150722E+03 -1.939079E+04 -3.014300E-10 -1.074860E-10
        85  14 -2.597002E+06  1.065349E+03 -8.541546E+03  1.011649E+04 -2.298356E-09 -4.182423E-10
        85  15 -2.597609E+06 -5.014266E+03 -1.626578E+04 -1.939505E+04 -1.913373E-09 -5.406943E-10
        85  16 -2.971635E+06 -9.341858E+04 -9.847652E+04 -1.847172E+04 -1.239048E-09 -2.517177E-10
        85  17 -3.001118E+06 -1.001524E+05 -1.092462E+05  1.040000E+04  2.440549E-09  6.716110E-10
        85  18 -3.031845E+06 -1.137690E+05 -1.244383E+05 -1.974946E+04 -1.676136E-10 -2.650671E-10
        85  19 -2.223467E+06  9.398144E+04  8.816458E+04 -2.031036E+04 -4.003035E+03  3.779136E+03
        85  20 -2.192736E+06  1.022708E+05  9.215098E+04  9.832811E+03 -8.214962E+03  5.143013E+03
        85  21 -2.163201E+06  1.037263E+05  9.189292E+04 -1.904042E+04 -1.242969E+04  5.842468E+03
        85  22 -2.597615E+06  2.867290E+02 -5.150670E+03 -1.939080E+04 -3.678231E+03  3.778626E+03
        85  23 -2.597002E+06  1.065395E+03 -8.541375E+03  1.011646E+04 -8.014895E+03  5.142958E+03
        85  24 -2.597609E+06 -5.014188E+03 -1.626543E+04 -1.939511E+04 -1.235415E+04  5.842684E+03
        85  25 -2.971635E+06 -9.341856E+04 -9.847648E+04 -1.847173E+04 -3.353622E+03  3.778118E+03
        85  26 -3.001118E+06 -1.001523E+05 -1.092460E+05  1.039997E+04 -7.814958E+03  5.142904E+03
        85  27 -3.031845E+06 -1.137689E+05 -1.244380E+05 -1.974952E+04 -1.227867E+04  5.842901E+03
        86   1 -2.032945E+06  1.431600E+05  1.210482E+05 -1.466893E+04  1.596776E+04 -6.502285E+03
        86   2 -2.013338E+06  1.528986E+05  1.116178E+05  2.583746E+03  3.290479E+04 -7.447776E+03
        86   3 -2.005150E+06  1.152367E+05  7.982184E+04 -7.319898E+03  4.984186E+04 -6.756374E+03
        86   4 -2.599924E+06  1.215464E+03 -2.024662E+04 -1.232605E+04  1.562068E+04 -6.502517E+03
        86   5 -2.594203E+06  7.499836E+03 -3.303484E+04  1.278739E+03  3.285701E+04 -7.448306E+03
        86   6 -2.599969E+06 -3.369373E+04 -6.841242E+04 -1.227453E+04  5.009299E+04 -6.756732E+03
        86   7 -3.166609E+06 -1.407533E+05 -1.615656E+05 -9.985288E+03  1.527392E+04 -6.502752E+03
        86   8 -3.174761E+06 -1.379244E+05 -1.777128E+05 -2.509438E+01  3.280926E+04 -7.448836E+03
        86   9 -3.194466E+06 -1.826508E+05 -2.166733E+05 -1.722453E+04  5.034387E+04 -6.757095E+03
        86  10 -2.032945E+06  1.431598E+05  1.210476E+05 -1.466885E+04 -1.366116E-10  8.328337E-11
        86  11 -2.013339E+06  1.528983E+05  1.116156E+05  2.583943E+03 -1.110822E-09  2.314074E-10
        86  12 -2.005153E+06  1.152360E+05  7.981707E+04 -7.319627E+03  1.457826E-09 -1.617681E-09
        86  13 -2.599924E+06  1.215353E+03 -2.024716E+04 -1.232596E+04  2.677070E-10  9.103390E-11
        86  14 -2.594205E+06  7.499485E+03 -3.303698E+04  1.278937E+03  9.121929E-10  6.913078E-10
        86  15 -2.599972E+06 -3.369445E+04 -6.841724E+04 -1.227426E+04 -3.469436E-10  1.259343E-11
        86  16 -3.166610E+06 -1.407534E+05 -1.615661E+05 -9.985208E+03  1.346312E-09 -2.768771E-10
        86  17 -3.174762E+06 -1.379248E+05 -1.777150E+05 -2.489730E+01  1.651253E-09  4.259971E-11
        86  18 -3.194469E+06 -1.826516E+05 -2.166782E+05 -1.722425E+04 -2.041740E-09 -1.141611E-09
        86  19 -2.032945E+06  1.431600E+05  1.210482E+05 -1.466893E+04 -1.596776E+04  6.502285E+03
        86  20 -2.013338E+06  1.528986E+05  1.116178E+05  2.583746E+03 -3.290479E+04  7.447776E+03
        86  21 -2.005150E+06  1.152367E+05  7.982184E+04 -7.319898E+03 -4.984186E+04  6.756374E+03
        86  22 -2.599924E+06  1.215464E+03 -2.024662E+04 -1.232605E+04 -1.562068E+04  6.502517E+03
        86  23 -2.594203E+06  7.499836E+03 -3.303484E+04  1.278739E+03 -3.285701E+04  7.448306E+03
        86  24 -2.599969E+06 -3.369373E+04 -6.841242E+04 -1.227453E+04 -5.009299E+04  6.756732E+03
        86  25 -3.166609E+06 -1.407533E+05 -1.615656E+05 -9.985288E+03 -1.527392E+04  6.502752E+03
        86  26 -3.174761E+06 -1.379244E+05 -1.777128E+05 -2.509438E+01 -3.280926E+04  7.448836E+03
        86  27 -3.194466E+06 -1.826508E+05 -2.166733E+05 -1.722453E+04 -5.034387E+04  6.757095E+03
        87   1 -1.996932E+06  1.631262E+05  7.156523E+04 -1.740740E+04  6.445617E+04 -7.666147E+03
        87   2 -1.959753E+06  2.048370E+05  2.568493E+04 -4.155027E+02  1.325364E+05 -8.182644E+03
        87   3 -2.009116E+06 -7.511579E+04 -1.444412E+05  2.903833E+04  2.005922E+05 -2.050555E+03
        87   4 -2.616645E+06  8.077137E+03 -8.277012E+04 -3.796424E+03  6.364867E+04 -7.666868E+03
        87   5 -2.573379E+06  5.120073E+04 -1.270496E+05 -9.559700E+03  1.329415E+05 -8.183564E+03
        87   6 -2.616952E+06 -2.277222E+05 -2.965064E+05 -2.858487E+03  2.022104E+05 -2.053813E+03
        87   7 -3.236008E+06 -1.470002E+05 -2.371343E+05  9.800726E+03  6.284194E+04 -7.667625E+03
        87   8 -3.186662E+06 -1.024637E+05 -2.798124E+05 -1.869509E+04  1.333462E+05 -8.184498E+03
        87   9 -3.224450E+06 -3.803530E+05 -4.485990E+05 -3.472431E+04  2.038269E+05 -2.057243E+03
        87  10 -1.996937E+06  1.631250E+05  7.155729E+04 -1.740700E+04 -5.165631E-11 -6.126870E-10
        87  11 -1.959772E+06  2.048322E+05  2.565168E+04 -4.146288E+02 -1.128114E-09  1.092628E-09
        87  12 -2.009159E+06 -7.512664E+04 -1.445171E+05  2.903866E+04  6.365180E-10 -2.316130E-10
        87  13 -2.616650E+06  8.075981E+03 -8.277788E+04 -3.796030E+03 -2.841386E-11  8.372752E-10
        87  14 -2.573398E+06  5.119589E+04 -1.270831E+05 -9.558823E+03  3.130951E-09  1.236069E-09
        87  15 -2.616996E+06 -2.277332E+05 -2.965835E+05 -2.858152E+03  7.397759E-10  8.232861E-10
        87  16 -3.236012E+06 -1.470013E+05 -2.371418E+05  9.801114E+03 -2.849757E-09 -5.818060E-11
        87  17 -3.186681E+06 -1.024686E+05 -2.798462E+05 -1.869421E+04 -1.152727E-09  2.414816E-09
        87  18 -3.224495E+06 -3.803642E+05 -4.486775E+05 -3.472397E+04 -2.916544E-09  2.904538E-10
        87  19 -1.996932E+06  1.631262E+05  7.156523E+04 -1.740740E+04 -6.445617E+04  7.666147E+03
        87  20 -1.959753E+06  2.048370E+05  2.568493E+04 -4.155027E+02 -1.325364E+05  8.182644E+03
        87  21 -2.009116E+06 -7.511579E+04 -1.444412E+05  2.903833E+04 -2.005922E+05  2.050555E+03
        87  22 -2.616645E+06  8.077137E+03 -8.277012E+04 -3.796424E+03 -6.364867E+04  7.666868E+03
        87  23 -2.573379E+06  5.120073E+04 -1.270496E+05 -9.559700E+03 -1.329415E+05  8.183564E+03
        87  24 -2.616952E+06 -2.277222E+05 -2.965064E+05 -2.858487E+03 -2.022104E+05  2.053813E+03
        87  25 -3.236008E+06 -1.470002E+05 -2.371343E+05  9.800726E+03 -6.284194E+04  7.667625E+03
        87  26 -3.186662E+06 -1.024637E+05 -2.798124E+05 -1.869509E+04 -1.333462E+05  8.184498E+03
        87  27 -3.224450E+06 -3.803530E+05 -4.485990E+05 -3.472431E+04 -2.038269E+05  2.057243E+03
        88   1  5.007617E+05  1.026426E+06  5.374196E+05 -1.377339E+05  6.536193E+03  1.214343E+05
        88   2  2.994283E+05  8.394562E+05  3.971692E+05  2.583056E+04  1.868600E+04  7.931744E+04
        88   3  2.873647E+05  7.128830E+05  3.331855E+05 -1.157676E+05  1.121508E+04  3.706430E+04
        88   4  1.315266E+05 -4.507617E+05  1.691398E+05 -1.144468E+05  6.565239E+03  1.170770E+05
        88   5 -3.023337E+04 -4.808302E+05  6.957415E+04  3.776437E+04  1.869297E+04  7.881583E+04
        88   6 -3.188366E+03 -4.510880E+05  4.372306E+04 -1.152237E+05  1.118315E+04  4.040744E+04
        88   7 -2.378714E+05 -1.925971E+06 -1.993040E+05 -9.121215E+04  6.593998E+03  1.127298E+05
        88   8 -3.600255E+05 -1.799535E+06 -2.581511E+05  4.967577E+04  1.869993E+04  7.831515E+04
        88   9 -2.938432E+05 -1.613830E+06 -2.458409E+05 -1.146778E+05  1.115119E+04  4.374425E+04
        88  10  5.007577E+05  1.026410E+06  5.373918E+05 -1.377345E+05  1.846391E-09  1.396616E-09
        88  11  2.994263E+05  8.394494E+05  3.971568E+05  2.582936E+04  7.234880E-11  8.430744E-10
        88  12  2.873642E+05  7.128814E+05  3.331827E+05 -1.157679E+05  1.614115E-09 -9.518099E-10
        88  13  1.315228E+05 -4.507765E+05  1.691139E+05 -1.144474E+05  3.123192E-09 -1.541145E-11
        88  14 -3.023542E+04 -4.808370E+05  6.956181E+04  3.776319E+04  3.050843E-09  1.673671E-10
        88  15 -3.188939E+03 -4.510897E+05  4.371975E+04 -1.152241E+05  3.723295E-09  6.982453E-11
        88  16 -2.378748E+05 -1.925984E+06 -1.993280E+05 -9.121275E+04  2.399397E-09 -1.450330E-09
        88  17 -3.600275E+05 -1.799541E+06 -2.581633E+05  4.967459E+04  7.055455E-09 -9.182818E-10
        88  18 -2.938439E+05 -1.613832E+06 -2.458447E+05 -1.146782E+05  5.142543E-09  9.450726E-10
        88  19  5.007617E+05  1.026426E+06  5.374196E+05 -1.377339E+05 -6.536193E+03 -1.214343E+05
        88  20  2.994283E+05  8.394562E+05  3.971692E+05  2.583056E+04 -1.868600E+04 -7.931744E+04
        88  21  2.873647E+05  7.128830E+05  3.331855E+05 -1.157676E+05 -1.121508E+04 -3.706430E+04
        88  22  1.315266E+05 -4.507617E+05  1.691398E+05 -1.144468E+05 -6.565239E+03 -1.170770E+05
        88  23 -3.023337E+04 -4.808302E+05  6.957415E+04  3.776437E+04 -1.869297E+04 -7.881583E+04
        88  24 -3.188366E+03 -4.510880E+05  4.372306E+04 -1.152237E+05 -1.118315E+04 -4.040744E+04
        88  25 -2.378714E+05 -1.925971E+06 -1.993040E+05 -9.121215E+04 -6.593998E+03 -1.127298E+05
        88  26 -3.600255E+05 -1.799535E+06 -2.581511E+05  4.967577E+04 -1.869993E+04 -7.831515E+04
        88  27 -2.938432E+05 -1.613830E+06 -2.458409E+05 -1.146778E+05 -1.115119E+04 -4.374425E+04
        89   1  7.965422E+04 -2.306546E+05  9.133692E+04 -1.200831E+05  4.259025E+03  3.262864E+04
        89   2  1.566751E+04 -3.896684E+05  2.794546E+04  3.858072E+04  6.600299E+02  2.751530E+04
        89   3 -2.963837E+04 -5.514596E+05 -2.910889E+04 -1.162470E+05 -3.176667E+03  2.239951E+04
        89   4  2.120786E+04 -4.645473E+05  3.340467E+04 -1.166000E+05  4.252187E+03  3.330113E+04
        89   5 -2.719665E+03 -4.631595E+05  9.676720E+03  3.999464E+04  6.525343E+02  2.823679E+04
        89   6 -7.970228E+03 -4.645758E+05 -7.741008E+03 -1.169042E+05 -3.184864E+03  2.316871E+04
        89   7 -3.724257E+04 -6.983903E+05 -2.453165E+04 -1.131180E+05  4.245354E+03  3.397336E+04
        89   8 -2.110724E+04 -5.366457E+05 -8.592419E+03  4.140839E+04  6.450416E+02  2.895820E+04
        89   9  1.369736E+04 -3.776851E+05  1.362632E+04 -1.175614E+05 -3.193061E+03  2.393801E+04
        89  10  7.965392E+04 -2.306558E+05  9.133489E+04 -1.200832E+05 -1.143647E-09 -1.044795E-10
        89  11  1.566731E+04 -3.896692E+05  2.794403E+04  3.858071E+04  1.054794E-09 -2.936260E-10
        89  12 -2.963852E+04 -5.514601E+05 -2.910985E+04 -1.162469E+05  3.358374E-09 -4.698371E-10
        89  13  2.120754E+04 -4.645485E+05  3.340255E+04 -1.166001E+05  8.046638E-10  8.869444E-11
        89  14 -2.719880E+03 -4.631603E+05  9.675220E+03  3.999462E+04  2.766950E-09 -6.370547E-11
        89  15 -7.970383E+03 -4.645764E+05 -7.742037E+03 -1.169041E+05  1.121900E-09  1.299290E-10
        89  16 -3.724290E+04 -6.983916E+05 -2.453385E+04 -1.131181E+05  5.791965E-10  1.593419E-10
        89  17 -2.110747E+04 -5.366466E+05 -8.593997E+03  4.140838E+04  1.000652E-09  2.529799E-10
        89  18  1.369719E+04 -3.776857E+05  1.362522E+04 -1.175614E+05 -2.951343E-10  5.542513E-10
        89  19  7.965422E+04 -2.306546E+05  9.133692E+04 -1.200831E+05 -4.259025E+03 -3.262864E+04
        89  20  1.566751E+04 -3.896684E+05  2.794546E+04  3.858072E+04 -6.600299E+02 -2.751530E+04
        89  21 -2.963837E+04 -5.514596E+05 -2.910889E+04 -1.162470E+05  3.176667E+03 -2.239951E+04
        89  22  2.120786E+04 -4.645473E+05  3.340467E+04 -1.166000E+05 -4.252187E+03 -3.330113E+04
        89  23 -2.719665E+03 -4.631595E+05  9.676720E+03  3.999464E+04 -6.525343E+02 -2.823679E+04
        89  24 -7.970228E+03 -4.645758E+05 -7.741008E+03 -1.169042E+05  3.184864E+03 -2.316871E+04
        89  25 -3.724257E+04 -6.983903E+05 -2.453165E+04 -1.131180E+05 -4.245354E+03 -3.397336E+04
        89  26 -2.110724E+04 -5.366457E+05 -8.592419E+03  4.140839E+04 -6.450416E+02 -2.895820E+04
        89  27  1.369736E+04 -3.776851E+05  1.362632E+04 -1.175614E+05  3.193061E+03 -2.393801E+04
        90   1 -2.470870E+05 -1.486709E+06 -2.672403E+05 -1.036442E+05 -9.966329E+03  2.170759E+04
        90   2 -2.814427E+05 -1.634752E+06 -3.239101E+05  4.329993E+04 -1.764680E+04  4.240084E+04
        90   3 -3.946047E+05 -1.800860E+06 -4.129560E+05 -1.173608E+05 -6.970452E+03  6.323905E+04
        90   4  7.789002E+03 -4.681679E+05 -1.349401E+04 -1.152649E+05 -9.998261E+03  2.492933E+04
        90   5  1.236408E+04 -4.593392E+05 -3.185061E+04  3.828556E+04 -1.764240E+04  4.213564E+04
        90   6 -6.116508E+04 -4.679317E+05 -8.010770E+04 -1.157343E+05 -6.944468E+03  5.949221E+04
        90   7  2.625872E+05  5.513159E+05  2.401744E+05 -1.269022E+05 -1.003029E+04  2.815634E+04
        90   8  3.060671E+05  7.173303E+05  2.601054E+05  3.326421E+04 -1.763800E+04  4.186988E+04
        90   9  2.721405E+05  8.666108E+05  2.526067E+05 -1.141015E+05 -6.918532E+03  5.573719E+04
        90  10 -2.470873E+05 -1.486709E+06 -2.672414E+05 -1.036440E+05 -1.688901E-09 -4.118612E-10
        90  11 -2.814436E+05 -1.634754E+06 -3.239140E+05  4.330054E+04 -2.667535E-09  8.913443E-11
        90  12 -3.946058E+05 -1.800864E+06 -4.129636E+05 -1.173605E+05  1.110980E-09  4.979129E-10
        90  13  7.788728E+03 -4.681686E+05 -1.349536E+04 -1.152647E+05 -3.953274E-09  1.200973E-10
        90  14  1.236326E+04 -4.593412E+05 -3.185454E+04  3.828616E+04 -5.609069E-09 -1.324801E-10
        90  15 -6.116608E+04 -4.679355E+05 -8.011444E+04 -1.157339E+05 -9.042387E-10 -9.688841E-11
        90  16  2.625868E+05  5.513150E+05  2.401727E+05 -1.269019E+05 -2.235826E-09  4.474717E-10
        90  17  3.060663E+05  7.173284E+05  2.601015E+05  3.326481E+04 -3.674620E-09 -2.689368E-10
        90  18  2.721396E+05  8.666074E+05  2.526008E+05 -1.141011E+05  1.740490E-10 -4.877378E-10
        90  19 -2.470870E+05 -1.486709E+06 -2.672403E+05 -1.036442E+05  9.966329E+03 -2.170759E+04
        90  20 -2.814427E+05 -1.634752E+06 -3.239101E+05  4.329993E+04  1.764680E+04 -4.240084E+04
        90  21 -3.946047E+05 -1.800860E+06 -4.129560E+05 -1.173608E+05  6.970452E+03 -6.323905E+04
        90  22  7.789002E+03 -4.681679E+05 -1.349401E+04 -1.152649E+05  9.998261E+03 -2.492933E+04
        90  23  1.236408E+04 -4.593392E+05 -3.185061E+04  3.828556E+04  1.764240E+04 -4.213564E+04
        90  24 -6.116508E+04 -4.679317E+05 -8.010770E+04 -1.157343E+05  6.944468E+03 -5.949221E+04
        90  25  2.625872E+05  5.513159E+05  2.401744E+05 -1.269022E+05  1.003029E+04 -2.815634E+04
        90  26  3.060671E+05  7.173303E+05  2.601054E+05  3.326421E+04  1.763800E+04 -4.186988E+04
        90  27  2.721405E+05  8.666108E+05  2.526067E+05 -1.141015E+05  6.918532E+03 -5.573719E+04
        91   1 -6.684567E+06 -2.108228E+06 -1.357684E+06 -2.336226E+06 -6.921488E+05 -2.512672E+05
        91   2 -6.512365E+06 -1.097962E+06 -7.169151E+05 -2.481363E+06 -4.486206E+05 -1.350129E+05
        91   3 -6.738399E+06 -1.105892E+06 -5.401897E+05 -2.379532E+06 -1.965448E+05 -4.123037E+04
        91   4 -5.790756E+06 -1.565639E+06 -1.071404E+06 -1.887202E+06 -6.800179E+05 -2.469379E+05
        91   5 -5.535809E+06 -6.710403E+05 -4.432601E+05 -2.157011E+06 -4.452179E+05 -1.337761E+05
        91   6 -5.676777E+06 -7.920122E+05 -2.716644E+05 -2.180047E+06 -2.018422E+05 -4.320396E+04
        91   7 -4.896061E+06 -1.022543E+06 -7.851983E+05 -1.437463E+06 -6.678671E+05 -2.425908E+05
        91   8 -4.558312E+06 -2.439677E+05 -1.696956E+05 -1.832162E+06 -4.418087E+05 -1.325361E+05
        91   9 -4.614046E+06 -4.781528E+05 -3.221996E+03 -1.980299E+06 -2.071494E+05 -4.517939E+04
        91  10 -6.685103E+06 -2.108427E+06 -1.358716E+06 -2.336368E+06 -1.668386E-09 -8.664293E-11
        91  11 -6.512588E+06 -1.098037E+06 -7.173326E+05 -2.481412E+06 -2.704460E-09 -8.939096E-10
        91  12 -6.738442E+06 -1.105904E+06 -5.402664E+05 -2.379539E+06  2.699275E-09 -8.060435E-10
        91  13 -5.791273E+06 -1.565831E+06 -1.072398E+06 -1.887338E+06  5.735871E-09 -2.683568E-10
        91  14 -5.536029E+06 -6.711136E+05 -4.436705E+05 -2.157060E+06  4.099836E-09 -8.076168E-10
        91  15 -5.676821E+06 -7.920253E+05 -2.717453E+05 -2.180055E+06  2.029802E-09 -5.088181E-10
        91  16 -4.896559E+06 -1.022728E+06 -7.861553E+05 -1.437595E+06 -2.804329E-09 -5.107954E-10
        91  17 -4.558528E+06 -2.440397E+05 -1.700989E+05 -1.832209E+06 -9.859240E-10 -9.575583E-10
        91  18 -4.614092E+06 -4.781667E+05 -3.307192E+03 -1.980307E+06 -4.294469E-10 -2.513772E-10
        91  19 -6.684567E+06 -2.108228E+06 -1.357684E+06 -2.336226E+06  6.921488E+05  2.512672E+05
        91  20 -6.512365E+06 -1.097962E+06 -7.169151E+05 -2.481363E+06  4.486206E+05  1.350129E+05
        91  21 -6.738399E+06 -1.105892E+06 -5.401897E+05 -2.379532E+06  1.965448E+05  4.123037E+04
        91  22 -5.790756E+06 -1.565639E+06 -1.071404E+06 -1.887202E+06  6.800179E+05  2.469379E+05
        91  23 -5.535809E+06 -6.710403E+05 -4.432601E+05 -2.157011E+06  4.452179E+05  1.337761E+05
        91  24 -5.676777E+06 -7.920122E+05 -2.716644E+05 -2.180047E+06  2.018422E+05  4.320396E+04
        91  25 -4.896061E+06 -1.022543E+06 -7.851983E+05 -1.437463E+06  6.678671E+05  2.425908E+05
        91  26 -4.558312E+06 -2.439677E+05 -1.696956E+05 -1.832162E+06  4.418087E+05  1.325361E+05
        91  27 -4.614046E+06 -4.781528E+05 -3.221996E+03 -1.980299E+06  2.071494E+05  4.517939E+04
        92   1 -6.545104E+06 -1.280855E+06 -4.714621E+05 -2.391175E+06 -1.616430E+05 -3.265910E+04
        92   2 -6.486674E+06 -1.119350E+06 -3.378768E+05 -2.371698E+06 -1.060507E+05 -1.164102E+04
        92   3 -6.440642E+06 -1.118668E+06 -2.789177E+05 -2.366238E+06 -4.940357E+04  6.589682E+03
        92   4 -5.636833E+06 -9.136802E+05 -2.219171E+05 -2.120067E+06 -1.612393E+05 -3.251669E+04
        92   5 -5.623931E+06 -7.867839E+05 -1.044691E+05 -2.130569E+06 -1.066868E+05 -1.188478E+04
        92   6 -5.623148E+06 -8.203913E+05 -6.072986E+04 -2.155102E+06 -5.108477E+04  5.956097E+03
        92   7 -4.727759E+06 -5.464252E+05  2.755118E+04 -1.848587E+06 -1.608347E+05 -3.237392E+04
        92   8 -4.760462E+06 -4.541659E+05  1.288716E+05 -1.889131E+06 -1.073239E+05 -1.212889E+04
        92   9 -4.805002E+06 -5.220861E+05  1.574001E+05 -1.943716E+06 -5.276840E+04  5.321677E+03
        92  10 -6.545132E+06 -1.280863E+06 -4.715138E+05 -2.391179E+06  8.982363E-10  5.598998E-10
        92  11 -6.486686E+06 -1.119353E+06 -3.378985E+05 -2.371699E+06  2.344894E-09  7.708844E-10
        92  12 -6.440645E+06 -1.118669E+06 -2.789224E+05 -2.366238E+06  1.250985E-09 -7.524725E-10
        92  13 -5.636862E+06 -9.136884E+05 -2.219684E+05 -2.120072E+06  1.523589E-11 -1.912025E-10
        92  14 -5.623943E+06 -7.867871E+05 -1.044910E+05 -2.130570E+06  5.707367E-09  4.307127E-10
        92  15 -5.623151E+06 -8.203920E+05 -6.073487E+04 -2.155102E+06 -1.540823E-09 -1.356128E-10
        92  16 -4.727787E+06 -5.464334E+05  2.750017E+04 -1.848591E+06 -3.874740E-10  5.259930E-10
        92  17 -4.760475E+06 -4.541692E+05  1.288495E+05 -1.889132E+06 -2.599967E-09  2.286233E-10
        92  18 -4.805005E+06 -5.220869E+05  1.573947E+05 -1.943716E+06 -3.147179E-09 -4.522632E-10
        92  19 -6.545104E+06 -1.280855E+06 -4.714621E+05 -2.391175E+06  1.616430E+05  3.265910E+04
        92  20 -6.486674E+06 -1.119350E+06 -3.378768E+05 -2.371698E+06  1.060507E+05  1.164102E+04
        92  21 -6.440642E+06 -1.118668E+06 -2.789177E+05 -2.366238E+06  4.940357E+04 -6.589682E+03
        92  22 -5.636833E+06 -9.136802E+05 -2.219171E+05 -2.120067E+06  1.612393E+05  3.251669E+04
        92  23 -5.623931E+06 -7.867839E+05 -1.044691E+05 -2.130569E+06  1.066868E+05  1.188478E+04
        92  24 -5.623148E+06 -8.203913E+05 -6.072986E+04 -2.155102E+06  5.108477E+04 -5.956097E+03
        92  25 -4.727759E+06 -5.464252E+05  2.755118E+04 -1.848587E+06  1.608347E+05  3.237392E+04
        92  26 -4.760462E+06 -4.541659E+05  1.288716E+05 -1.889131E+06  1.073239E+05  1.212889E+04
        92  27 -4.805002E+06 -5.220861E+05  1.574001E+05 -1.943716E+06  5.276840E+04 -5.321677E+03
        93   1 -6.291389E+06 -1.096733E+06 -2.302439E+05 -2.338412E+06 -4.041387E+04  7.597071E+03
        93   2 -6.231914E+06 -1.020637E+06 -1.838744E+05 -2.283807E+06 -2.657361E+04  9.261550E+03
        93   3 -6.120644E+06 -1.017482E+06 -1.508441E+05 -2.292379E+06 -1.248365E+04  1.024879E+04
        93   4 -5.614265E+06 -8.384460E+05 -4.776539E+04 -2.151883E+06 -4.154636E+04  7.169766E+03
        93   5 -5.639352E+06 -7.963564E+05 -2.436948E+04 -2.122399E+06 -2.796395E+04  8.738760E+03
        93   6 -5.612593E+06 -8.271431E+05 -1.409397E+04 -2.156091E+06 -1.413387E+04  9.630038E+03
        93   7 -4.936696E+06 -5.801290E+05  1.346721E+05 -1.965167E+06 -4.268020E+04  6.741943E+03
        93   8 -5.046449E+06 -5.720552E+05  1.351040E+05 -1.960851E+06 -2.935574E+04  8.215420E+03
        93   9 -5.104292E+06 -6.367903E+05  1.226328E+05 -2.019702E+06 -1.578558E+04  9.010737E+03
        93  10 -6.291390E+06 -1.096734E+06 -2.302471E+05 -2.338412E+06 -1.001919E-09 -1.036999E-09
        93  11 -6.231915E+06 -1.020637E+06 -1.838759E+05 -2.283807E+06 -1.472956E-09 -1.493726E-10
        93  12 -6.120644E+06 -1.017482E+06 -1.508446E+05 -2.292379E+06  2.361404E-09  1.101738E-09
        93  13 -5.614267E+06 -8.384465E+05 -4.776876E+04 -2.151883E+06  3.411160E-10 -9.547380E-10
        93  14 -5.639353E+06 -7.963567E+05 -2.437110E+04 -2.122399E+06  2.065319E-10 -1.461308E-09
        93  15 -5.612593E+06 -8.271432E+05 -1.409452E+04 -2.156091E+06 -2.830460E-09  1.956921E-11
        93  16 -4.936698E+06 -5.801296E+05  1.346686E+05 -1.965167E+06  3.801035E-10 -5.647239E-10
        93  17 -5.046450E+06 -5.720555E+05  1.351022E+05 -1.960851E+06  8.460552E-10 -1.671928E-09
        93  18 -5.104292E+06 -6.367904E+05  1.226322E+05 -2.019702E+06 -2.776470E-09 -1.195010E-09
        93  19 -6.291389E+06 -1.096733E+06 -2.302439E+05 -2.338412E+06  4.041387E+04 -7.597071E+03
        93  20 -6.231914E+06 -1.020637E+06 -1.838744E+05 -2.283807E+06  2.657361E+04 -9.261550E+03
        93  21 -6.120644E+06 -1.017482E+06 -1.508441E+05 -2.292379E+06  1.248365E+04 -1.024879E+04
        93  22 -5.614265E+06 -8.384460E+05 -4.776539E+04 -2.151883E+06  4.154636E+04 -7.169766E+03
        93  23 -5.639352E+06 -7.963564E+05 -2.436948E+04 -2.122399E+06  2.796395E+04 -8.738760E+03
        93  24 -5.612593E+06 -8.271431E+05 -1.409397E+04 -2.156091E+06  1.413387E+04 -9.630038E+03
        93  25 -4.936696E+06 -5.801290E+05  1.346721E+05 -1.965167E+06  4.268020E+04 -6.741943E+03
        93  26 -5.046449E+06 -5.720552E+05  1.351040E+05 -1.960851E+06  2.935574E+04 -8.215420E+03
        93  27 -5.104292E+06 -6.367903E+05  1.226328E+05 -2.019702E+06  1.578558E+04 -9.010737E+03
        94   1 -5.945480E+06 -9.579973E+05 -1.011475E+05 -2.249171E+06 -9.592923E+03  8.630308E+03
        94   2 -5.877419E+06 -8.832810E+05 -6.966237E+04 -2.182103E+06 -4.585920E+03  5.859150E+03
        94   3 -5.741515E+06 -8.795550E+05 -4.131186E+04 -2.193874E+06  4.956732E+02  2.882380E+03
        94   4 -5.609626E+06 -8.311729E+05 -1.115016E+04 -2.157886E+06 -1.118877E+04  8.032677E+03
        94   5 -5.643453E+06 -7.950588E+05 -6.759815E+03 -2.118697E+06 -6.262490E+03  5.231885E+03
        94   6 -5.609434E+06 -8.299173E+05 -5.438098E+03 -2.158349E+06 -1.262302E+03  2.225323E+03
        94   7 -5.273661E+06 -7.043413E+05  7.883754E+04 -2.066555E+06 -1.278558E+04  7.434685E+03
        94   8 -5.409434E+06 -7.068335E+05  5.613780E+04 -2.055269E+06 -7.939758E+03  4.604358E+03
        94   9 -5.477337E+06 -7.802789E+05  3.043386E+04 -2.122816E+06 -3.020681E+03  1.568118E+03
        94  10 -5.945480E+06 -9.579974E+05 -1.011478E+05 -2.249171E+06  5.122659E-09  2.611145E-09
        94  11 -5.877419E+06 -8.832811E+05 -6.966248E+04 -2.182103E+06  2.293567E-09  5.993625E-10
        94  12 -5.741515E+06 -8.795550E+05 -4.131188E+04 -2.193874E+06 -4.794016E-10 -6.914118E-10
        94  13 -5.609626E+06 -8.311730E+05 -1.115051E+04 -2.157886E+06  4.684113E-09  9.804101E-10
        94  14 -5.643453E+06 -7.950588E+05 -6.759940E+03 -2.118697E+06  5.541687E-09  2.128077E-09
        94  15 -5.609434E+06 -8.299173E+05 -5.438111E+03 -2.158349E+06  9.098664E-10  8.065829E-10
        94  16 -5.273661E+06 -7.043414E+05  7.883713E+04 -2.066555E+06 -8.209963E-10 -6.102400E-10
        94  17 -5.409434E+06 -7.068335E+05  5.613764E+04 -2.055269E+06  3.266029E-09  1.413223E-09
        94  18 -5.477337E+06 -7.802789E+05  3.043384E+04 -2.122816E+06 -4.984907E-10  1.821474E-09
        94  19 -5.945480E+06 -9.579973E+05 -1.011475E+05 -2.249171E+06  9.592923E+03 -8.630308E+03
        94  20 -5.877419E+06 -8.832810E+05 -6.966237E+04 -2.182103E+06  4.585920E+03 -5.859150E+03
        94  21 -5.741515E+06 -8.795550E+05 -4.131186E+04 -2.193874E+06 -4.956732E+02 -2.882380E+03
        94  22 -5.609626E+06 -8.311729E+05 -1.115016E+04 -2.157886E+06  1.118877E+04 -8.032677E+03
        94  23 -5.643453E+06 -7.950588E+05 -6.759815E+03 -2.118697E+06  6.262490E+03 -5.231885E+03
        94  24 -5.609434E+06 -8.299173E+05 -5.438098E+03 -2.158349E+06  1.262302E+03 -2.225323E+03
        94  25 -5.273661E+06 -7.043413E+05  7.883754E+04 -2.066555E+06  1.278558E+04 -7.434685E+03
        94  26 -5.409434E+06 -7.068335E+05  5.613780E+04 -2.055269E+06  7.939758E+03 -4.604358E+03
        94  27 -5.477337E+06 -7.802789E+05  3.043386E+04 -2.122816E+06  3.020681E+03 -1.568118E+03
        95   1 -5.553929E+06 -8.094413E+05  9.761032E+03 -2.143879E+06  2.349410E+03  6.519899E+02
        95   2 -5.484985E+06 -7.349314E+05  3.575611E+04 -2.075362E+06  7.375447E+03 -2.379531E+03
        95   3 -5.347277E+06 -7.324340E+05  5.864459E+04 -2.086846E+06  1.234896E+04 -5.262921E+03
        95   4 -5.609229E+06 -8.301391E+05 -5.468267E+03 -2.158611E+06  5.903892E+02 -5.373251E+00
        95   5 -5.643696E+06 -7.947616E+05 -6.901669E+03 -2.118372E+06  5.674730E+03 -3.015553E+03
        95   6 -5.609420E+06 -8.314107E+05 -1.148784E+04 -2.158141E+06  1.070591E+04 -5.877780E+03
        95   7 -5.664525E+06 -8.508368E+05 -2.069788E+04 -2.173341E+06 -1.168462E+03 -6.626748E+02
        95   8 -5.802384E+06 -8.545906E+05 -4.956190E+04 -2.161373E+06  3.974485E+03 -3.651398E+03
        95   9 -5.871499E+06 -9.303839E+05 -8.162687E+04 -2.229409E+06  9.063609E+03 -6.492355E+03
        95  10 -5.553929E+06 -8.094414E+05  9.761021E+03 -2.143879E+06 -1.441210E-09 -7.512348E-10
        95  11 -5.484985E+06 -7.349314E+05  3.575600E+04 -2.075362E+06 -7.342072E-11 -9.045213E-10
        95  12 -5.347277E+06 -7.324341E+05  5.864425E+04 -2.086846E+06  1.678165E-09  1.000627E-10
        95  13 -5.609229E+06 -8.301391E+05 -5.468267E+03 -2.158611E+06 -4.090297E-09 -1.690691E-10
        95  14 -5.643696E+06 -7.947616E+05 -6.901746E+03 -2.118372E+06 -4.579195E-09 -2.288391E-10
        95  15 -5.609420E+06 -8.314107E+05 -1.148812E+04 -2.158141E+06  7.569871E-10  3.254453E-10
        95  16 -5.664525E+06 -8.508368E+05 -2.069788E+04 -2.173341E+06 -3.432186E-09  3.522586E-10
        95  17 -5.802384E+06 -8.545906E+05 -4.956196E+04 -2.161373E+06 -4.387102E-09 -1.722786E-10
        95  18 -5.871499E+06 -9.303840E+05 -8.162710E+04 -2.229409E+06 -7.555336E-10 -3.918289E-10
        95  19 -5.553929E+06 -8.094413E+05  9.761032E+03 -2.143879E+06 -2.349410E+03 -6.519899E+02
        95  20 -5.484985E+06 -7.349314E+05  3.575611E+04 -2.075362E+06 -7.375447E+03  2.379531E+03
        95  21 -5.347277E+06 -7.324340E+05  5.864459E+04 -2.086846E+06 -1.234896E+04  5.262921E+03
        95  22 -5.609229E+06 -8.301391E+05 -5.468267E+03 -2.158611E+06 -5.903892E+02  5.373251E+00
        95  23 -5.643696E+06 -7.947616E+05 -6.901669E+03 -2.118372E+06 -5.674730E+03  3.015553E+03
        95  24 -5.609420E+06 -8.314107E+05 -1.148784E+04 -2.158141E+06 -1.070591E+04  5.877780E+03
        95  25 -5.664525E+06 -8.508368E+05 -2.069788E+04 -2.173341E+06  1.168462E+03  6.626748E+02
        95  26 -5.802384E+06 -8.545906E+05 -4.956190E+04 -2.161373E+06 -3.974485E+03  3.651398E+03
        95  27 -5.871499E+06 -9.303839E+05 -8.162687E+04 -2.229409E+06 -9.063609E+03  6.492355E+03
        96   1 -5.172678E+06 -6.634861E+05  1.036337E+05 -2.039271E+06  1.543961E+04 -6.882175E+03
        96   2 -5.111887E+06 -5.956986E+05  1.168692E+05 -1.977626E+06  2.950157E+04 -6.067882E+03
        96   3 -4.996838E+06 -6.040753E+05  1.166830E+05 -1.982353E+06  4.333867E+04 -4.632429E+03
        96   4 -5.612039E+06 -8.277422E+05 -1.455722E+04 -2.156851E+06  1.374251E+04 -7.517900E+03
        96   5 -5.640000E+06 -7.954664E+05 -2.517784E+04 -2.121491E+06  2.804243E+04 -6.615816E+03
        96   6 -5.613762E+06 -8.394151E+05 -4.941887E+04 -2.152508E+06  4.211544E+04 -5.093127E+03
        96   7 -6.051209E+06 -9.919869E+05 -1.327644E+05 -2.274355E+06  1.204674E+04 -8.153133E+03
        96   8 -6.167839E+06 -9.952168E+05 -1.672491E+05 -2.265243E+06  2.658465E+04 -7.163233E+03
        96   9 -6.230316E+06 -1.074730E+06 -2.155545E+05 -2.322508E+06  4.089354E+04 -5.553315E+03
        96  10 -5.172678E+06 -6.634862E+05  1.036331E+05 -2.039271E+06  1.940233E-09  1.274444E-09
        96  11 -5.111888E+06 -5.956988E+05  1.168674E+05 -1.977626E+06  2.950477E-11 -9.870514E-10
        96  12 -4.996840E+06 -6.040758E+05  1.166794E+05 -1.982353E+06 -2.773431E-09 -3.317540E-10
        96  13 -5.612039E+06 -8.277423E+05 -1.455768E+04 -2.156851E+06 -1.055372E-09  1.509322E-10
        96  14 -5.640000E+06 -7.954667E+05 -2.517941E+04 -2.121490E+06 -8.215690E-09 -1.809890E-09
        96  15 -5.613764E+06 -8.394156E+05 -4.942228E+04 -2.152508E+06 -5.405651E-09 -3.139341E-10
        96  16 -6.051209E+06 -9.919870E+05 -1.327648E+05 -2.274355E+06 -2.106215E-09 -7.199449E-10
        96  17 -6.167840E+06 -9.952171E+05 -1.672505E+05 -2.265243E+06  1.783085E-09 -1.454230E-09
        96  18 -6.230318E+06 -1.074731E+06 -2.155577E+05 -2.322508E+06  1.145253E-10  4.451218E-10
        96  19 -5.172678E+06 -6.634861E+05  1.036337E+05 -2.039271E+06 -1.543961E+04  6.882175E+03
        96  20 -5.111887E+06 -5.956986E+05  1.168692E+05 -1.977626E+06 -2.950157E+04  6.067882E+03
        96  21 -4.996838E+06 -6.040753E+05  1.166830E+05 -1.982353E+06 -4.333867E+04  4.632429E+03
        96  22 -5.612039E+06 -8.277422E+05 -1.455722E+04 -2.156851E+06 -1.374251E+04  7.517900E+03
        96  23 -5.640000E+06 -7.954664E+05 -2.517784E+04 -2.121491E+06 -2.804243E+04  6.615816E+03
        96  24 -5.613762E+06 -8.394151E+05 -4.941887E+04 -2.152508E+06 -4.211544E+04  5.093127E+03
        96  25 -6.051209E+06 -9.919869E+05 -1.327644E+05 -2.274355E+06 -1.204674E+04  8.153133E+03
        96  26 -6.167839E+06 -9.952168E+05 -1.672491E+05 -2.265243E+06 -2.658465E+04  7.163233E+03
        96  27 -6.230316E+06 -1.074730E+06 -2.155545E+05 -2.322508E+06 -4.089354E+04  5.553315E+03
        97   1 -4.855094E+06 -5.426162E+05  1.415654E+05 -1.959368E+06  5.378024E+04 -3.231225E+03
        97   2 -4.805986E+06 -4.693653E+05  1.132073E+05 -1.900112E+06  1.103339E+05  1.467686E+04
        97   3 -4.766528E+06 -5.647794E+05  9.430616E+03 -1.858775E+06  1.658630E+05  3.533608E+04
        97   4 -5.622503E+06 -8.211935E+05 -6.283838E+04 -2.156354E+06  5.200990E+04 -3.897225E+03
        97   5 -5.624605E+06 -7.849790E+05 -1.080699E+05 -2.129287E+06  1.095936E+05  1.439436E+04
        97   6 -5.636637E+06 -9.177513E+05 -2.296231E+05 -2.120133E+06  1.661470E+05  3.543293E+04
        97   7 -6.389342E+06 -1.099748E+06 -2.672939E+05 -2.353123E+06  5.024194E+04 -4.562411E+03
        97   8 -6.442573E+06 -1.100546E+06 -3.294076E+05 -2.358184E+06  1.088543E+05  1.411224E+04
        97   9 -6.506008E+06 -1.270647E+06 -4.687468E+05 -2.381146E+06  1.664303E+05  3.552951E+04
        97  10 -4.855097E+06 -5.426170E+05  1.415599E+05 -1.959368E+06 -5.121779E-10 -4.370963E-10
        97  11 -4.806000E+06 -4.693689E+05  1.131838E+05 -1.900114E+06 -2.267501E-09 -1.107579E-09
        97  12 -4.766558E+06 -5.647882E+05  9.376105E+03 -1.858780E+06 -3.261975E-09 -4.880601E-11
        97  13 -5.622505E+06 -8.211943E+05 -6.284353E+04 -2.156354E+06 -4.146351E-09 -5.161496E-10
        97  14 -5.624618E+06 -7.849825E+05 -1.080931E+05 -2.129288E+06 -8.929365E-10 -1.090525E-09
        97  15 -5.636668E+06 -9.177602E+05 -2.296779E+05 -2.120138E+06 -7.294314E-10  7.177995E-11
        97  16 -6.389345E+06 -1.099749E+06 -2.672987E+05 -2.353123E+06 -1.021407E-09 -1.463481E-09
        97  17 -6.442586E+06 -1.100549E+06 -3.294305E+05 -2.358186E+06  1.765554E-09 -1.118718E-09
        97  18 -6.506038E+06 -1.270656E+06 -4.688018E+05 -2.381151E+06  1.020910E-09 -1.782828E-10
        97  19 -4.855094E+06 -5.426162E+05  1.415654E+05 -1.959368E+06 -5.378024E+04  3.231225E+03
        97  20 -4.805986E+06 -4.693653E+05  1.132073E+05 -1.900112E+06 -1.103339E+05 -1.467686E+04
        97  21 -4.766528E+06 -5.647794E+05  9.430616E+03 -1.858775E+06 -1.658630E+05 -3.533608E+04
        97  22 -5.622503E+06 -8.211935E+05 -6.283838E+04 -2.156354E+06 -5.200990E+04  3.897225E+03
        97  23 -5.624605E+06 -7.849790E+05 -1.080699E+05 -2.129287E+06 -1.095936E+05 -1.439436E+04
        97  24 -5.636637E+06 -9.177513E+05 -2.296231E+05 -2.120133E+06 -1.661470E+05 -3.543293E+04
        97  25 -6.389342E+06 -1.099748E+06 -2.672939E+05 -2.353123E+06 -5.024194E+04  4.562411E+03
        97  26 -6.442573E+06 -1.100546E+06 -3.294076E+05 -2.358184E+06 -1.088543E+05 -1.411224E+04
        97  27 -6.506008E+06 -1.270647E+06 -4.687468E+05 -2.381146E+06 -1.664303E+05 -3.552951E+04
        98   1 -4.638600E+06 -4.906384E+05 -1.964690E+04 -1.992821E+06  2.135836E+05  4.846712E+04
        98   2 -4.576170E+06 -2.435846E+05 -1.900456E+05 -1.834991E+06  4.568580E+05  1.386393E+05
        98   3 -4.916303E+06 -1.049430E+06 -8.253803E+05 -1.427598E+06  6.915852E+05  2.514308E+05
        98   4 -5.677618E+06 -7.921927E+05 -2.810921E+05 -2.182567E+06  2.081727E+05  4.645773E+04
        98   5 -5.533954E+06 -6.647200E+05 -4.586104E+05 -2.156090E+06  4.601220E+05  1.398194E+05
        98   6 -5.795292E+06 -1.592975E+06 -1.108561E+06 -1.879838E+06  7.035490E+05  2.556814E+05
        98   7 -6.715574E+06 -1.093769E+06 -5.426151E+05 -2.372071E+06  2.027716E+05  4.445006E+04
        98   8 -6.490832E+06 -1.085705E+06 -7.272618E+05 -2.476704E+06  4.633798E+05  1.409963E+05
        98   9 -6.673414E+06 -2.135994E+06 -1.391812E+06 -2.331368E+06  7.154935E+05  2.599143E+05
        98  10 -4.638650E+06 -4.906534E+05 -1.973782E+04 -1.992830E+06 -1.975909E-09  9.547932E-10
        98  11 -4.576401E+06 -2.436621E+05 -1.904777E+05 -1.835043E+06 -1.824681E-09  4.553434E-10
        98  12 -4.916838E+06 -1.049628E+06 -8.264067E+05 -1.427738E+06  9.158540E-10 -2.114046E-10
        98  13 -5.677666E+06 -7.922068E+05 -2.811785E+05 -2.182575E+06  7.871469E-11  1.717914E-09
        98  14 -5.534188E+06 -6.647988E+05 -4.590495E+05 -2.156142E+06 -3.166313E-09  4.169423E-09
        98  15 -5.795845E+06 -1.593180E+06 -1.109625E+06 -1.879984E+06 -1.154826E-09  2.190003E-10
        98  16 -6.715619E+06 -1.093782E+06 -5.426971E+05 -2.372078E+06  1.692911E-09  1.332545E-09
        98  17 -6.491070E+06 -1.085785E+06 -7.277080E+05 -2.476757E+06 -1.886799E-09  6.201157E-10
        98  18 -6.673988E+06 -2.136207E+06 -1.392914E+06 -2.331519E+06 -9.574664E-12  1.078750E-09
        98  19 -4.638600E+06 -4.906384E+05 -1.964690E+04 -1.992821E+06 -2.135836E+05 -4.846712E+04
        98  20 -4.576170E+06 -2.435846E+05 -1.900456E+05 -1.834991E+06 -4.568580E+05 -1.386393E+05
        98  21 -4.916303E+06 -1.049430E+06 -8.253803E+05 -1.427598E+06 -6.915852E+05 -2.514308E+05
        98  22 -5.677618E+06 -7.921927E+05 -2.810921E+05 -2.182567E+06 -2.081727E+05 -4.645773E+04
        98  23 -5.533954E+06 -6.647200E+05 -4.586104E+05 -2.156090E+06 -4.601220E+05 -1.398194E+05
        98  24 -5.795292E+06 -1.592975E+06 -1.108561E+06 -1.879838E+06 -7.035490E+05 -2.556814E+05
        98  25 -6.715574E+06 -1.093769E+06 -5.426151E+05 -2.372071E+06 -2.027716E+05 -4.445006E+04
        98  26 -6.490832E+06 -1.085705E+06 -7.272618E+05 -2.476704E+06 -4.633798E+05 -1.409963E+05
        98  27 -6.673414E+06 -2.135994E+06 -1.391812E+06 -2.331368E+06 -7.154935E+05 -2.599143E+05
        99   1 -1.637875E+06 -1.319012E+05 -1.238085E+05 -8.758152E+03  2.101640E+04  3.069429E+03
        99   2 -1.635147E+06 -1.612452E+05 -1.402735E+05 -1.687128E+03  1.454739E+04  8.790187E+03
        99   3 -1.619306E+06 -1.539842E+05 -1.427524E+05 -1.269588E+04  8.104212E+03  7.565707E+03
        99   4 -1.007376E+06  2.585919E+04  3.367291E+04 -1.021137E+04  2.279898E+04  3.076392E+03
        99   5 -1.014055E+06 -5.958544E+03  1.413829E+04 -1.118814E+03  1.499237E+04  8.790994E+03
        99   6 -1.007398E+06 -9.569532E+02  9.510443E+03 -1.010490E+04  7.211725E+03  7.563367E+03
        99   7 -3.765145E+05  1.835896E+05  1.911243E+05 -1.166642E+04  2.458336E+04  3.083344E+03
        99   8 -3.926123E+05  1.492991E+05  1.685212E+05 -5.502028E+02  1.543779E+04  8.791801E+03
        99   9 -3.951493E+05  1.520421E+05  1.617451E+05 -7.511538E+03  6.318354E+03  7.561022E+03
        99  10 -1.637876E+06 -1.319014E+05 -1.238094E+05 -8.758204E+03 -1.966992E-10  1.435586E-10
        99  11 -1.635147E+06 -1.612453E+05 -1.402741E+05 -1.687231E+03  1.973742E-09 -1.590392E-09
        99  12 -1.619306E+06 -1.539843E+05 -1.427526E+05 -1.269593E+04  1.898583E-09 -1.424079E-09
        99  13 -1.007376E+06  2.585904E+04  3.367192E+04 -1.021142E+04  9.424107E-11 -1.451833E-09
        99  14 -1.014055E+06 -5.958687E+03  1.413772E+04 -1.118921E+03 -1.266687E-09 -7.719560E-10
        99  15 -1.007398E+06 -9.570286E+02  9.510238E+03 -1.010494E+04  1.375282E-09 -1.319925E-09
        99  16 -3.765152E+05  1.835894E+05  1.911232E+05 -1.166649E+04  2.106671E-11  1.507047E-09
        99  17 -3.926126E+05  1.492989E+05  1.685206E+05 -5.503121E+02 -5.656024E-10 -2.128479E-09
        99  18 -3.951494E+05  1.520420E+05  1.617450E+05 -7.511576E+03 -1.290352E-09 -1.535652E-09
        99  19 -1.637875E+06 -1.319012E+05 -1.238085E+05 -8.758152E+03 -2.101640E+04 -3.069429E+03
        99  20 -1.635147E+06 -1.612452E+05 -1.402735E+05 -1.687128E+03 -1.454739E+04 -8.790187E+03
        99  21 -1.619306E+06 -1.539842E+05 -1.427524E+05 -1.269588E+04 -8.104212E+03 -7.565707E+03
        99  22 -1.007376E+06  2.585919E+04  3.367291E+04 -1.021137E+04 -2.279898E+04 -3.076392E+03
        99  23 -1.014055E+06 -5.958544E+03  1.413829E+04 -1.118814E+03 -1.499237E+04 -8.790994E+03
        99  24 -1.007398E+06 -9.569532E+02  9.510443E+03 -1.010490E+04 -7.211725E+03 -7.563367E+03
        99  25 -3.765145E+05  1.835896E+05  1.911243E+05 -1.166642E+04 -2.458336E+04 -3.083344E+03
        99  26 -3.926123E+05  1.492991E+05  1.685212E+05 -5.502028E+02 -1.543779E+04 -8.791801E+03
        99  27 -3.951493E+05  1.520421E+05  1.617451E+05 -7.511538E+03 -6.318354E+03 -7.561022E+03
       100   1 -1.545649E+06 -1.303865E+05 -1.256185E+05 -1.348048E+04  5.423931E+03  6.254253E+03
       100   2 -1.531053E+06 -1.308662E+05 -1.256617E+05  2.637161E+03  3.736327E+03  6.650777E+03
       100   3 -1.512741E+06 -1.259381E+05 -1.228197E+05 -1.347869E+04  2.048940E+03  5.798175E+03
       100   4 -1.009494E+06  3.689282E+03  7.832937E+03 -1.328696E+04  5.623437E+03  6.254224E+03
       100   5 -1.011379E+06 -9.270975E+02  3.612294E+03  2.831869E+03  3.695008E+03  6.650392E+03
       100   6 -1.009508E+06 -9.560274E+01  2.442846E+03 -1.328111E+04  1.766838E+03  5.797894E+03
       100   7 -4.730763E+05  1.377434E+05  1.412628E+05 -1.309338E+04  5.823113E+03  6.254196E+03
       100   8 -4.914600E+05  1.289917E+05  1.328660E+05  3.026692E+03  3.653654E+03  6.650008E+03
       100   9 -5.060450E+05  1.257278E+05  1.276864E+05 -1.308337E+04  1.484507E+03  5.797614E+03
       100  10 -1.545649E+06 -1.303866E+05 -1.256186E+05 -1.348051E+04 -4.004327E-10 -9.453221E-10
       100  11 -1.531053E+06 -1.308662E+05 -1.256618E+05  2.637141E+03 -1.443716E-09  5.441291E-12
       100  12 -1.512741E+06 -1.259381E+05 -1.228198E+05 -1.347870E+04 -3.454208E-09 -1.933562E-10
       100  13 -1.009494E+06  3.689231E+03  7.832804E+03 -1.328699E+04  2.370602E-09 -1.332628E-09
       100  14 -1.011379E+06 -9.271487E+02  3.612186E+03  2.831849E+03 -4.196702E-10  1.363274E-09
       100  15 -1.009508E+06 -9.563966E+01  2.442777E+03 -1.328112E+04 -5.485873E-10 -2.952810E-10
       100  16 -4.730763E+05  1.377434E+05  1.412626E+05 -1.309341E+04 -1.166052E-09 -3.472703E-10
       100  17 -4.914601E+05  1.289916E+05  1.328659E+05  3.026673E+03  1.345441E-09  1.201350E-09
       100  18 -5.060450E+05  1.257278E+05  1.276863E+05 -1.308338E+04  4.578843E-11 -2.943367E-10
       100  19 -1.545649E+06 -1.303865E+05 -1.256185E+05 -1.348048E+04 -5.423931E+03 -6.254253E+03
       100  20 -1.531053E+06 -1.308662E+05 -1.256617E+05  2.637161E+03 -3.736327E+03 -6.650777E+03
       100  21 -1.512741E+06 -1.259381E+05 -1.228197E+05 -1.347869E+04 -2.048940E+03 -5.798175E+03
       100  22 -1.009494E+06  3.689282E+03  7.832937E+03 -1.328696E+04 -5.623437E+03 -6.254224E+03
       100  23 -1.011379E+06 -9.270975E+02  3.612294E+03  2.831869E+03 -3.695008E+03 -6.650392E+03
       100  24 -1.009508E+06 -9.560274E+01  2.442846E+03 -1.328111E+04 -1.766838E+03 -5.797894E+03
       100  25 -4.730763E+05  1.377434E+05  1.412628E+05 -1.309338E+04 -5.823113E+03 -6.254196E+03
       100  26 -4.914600E+05  1.289917E+05  1.328660E+05  3.026692E+03 -3.653654E+03 -6.650008E+03
       100  27 -5.060450E+05  1.257278E+05  1.276864E+05 -1.308337E+04 -1.484507E+03 -5.797614E+03
       101   1 -1.399345E+06 -9.685263E+04 -9.488738E+04 -1.555564E+04  1.434936E+03  5.207197E+03
       101   2 -1.377850E+06 -9.197468E+04 -9.035987E+04  6.189889E+03  9.811592E+02  4.616262E+03
       101   3 -1.355149E+06 -8.621754E+04 -8.512945E+04 -1.533353E+04  5.258233E+02  3.685882E+03
       101   4 -1.010037E+06  4.762674E+02  1.920569E+03 -1.573494E+04  1.354730E+03  5.207028E+03
       101   5 -1.010652E+06 -1.668284E+02  9.859066E+02  5.898686E+03  8.356056E+02  4.616239E+03
       101   6 -1.010049E+06  8.067342E+01  7.994426E+02 -1.573503E+04  3.149383E+02  3.686096E+03
       101   7 -6.205918E+05  9.779376E+04  9.871715E+04 -1.591435E+04  1.274473E+03  5.206859E+03
       101   8 -6.433314E+05  9.163088E+04  9.232157E+04  5.607341E+03  6.899656E+02  4.616217E+03
       101   9 -6.648412E+05  8.636991E+04  8.671938E+04 -1.613671E+04  1.039359E+02  3.686311E+03
       101  10 -1.399345E+06 -9.685266E+04 -9.488743E+04 -1.555564E+04 -2.138480E-09 -6.072616E-10
       101  11 -1.377850E+06 -9.197471E+04 -9.035991E+04  6.189886E+03 -1.502167E-09 -6.458222E-10
       101  12 -1.355149E+06 -8.621755E+04 -8.512947E+04 -1.533353E+04 -1.037021E-09 -1.522871E-10
       101  13 -1.010037E+06  4.762378E+02  1.920514E+03 -1.573495E+04 -4.306498E-09 -8.089565E-10
       101  14 -1.010652E+06 -1.668514E+02  9.858653E+02  5.898683E+03 -7.515581E-10 -1.211824E-10
       101  15 -1.010049E+06  8.065881E+01  7.994169E+02 -1.573503E+04  6.000121E-10  1.778744E-09
       101  16 -6.205918E+05  9.779373E+04  9.871710E+04 -1.591435E+04 -1.143758E-09 -7.461693E-10
       101  17 -6.433314E+05  9.163085E+04  9.232153E+04  5.607338E+03  1.467384E-09 -6.100873E-10
       101  18 -6.648412E+05  8.636990E+04  8.671936E+04 -1.613671E+04 -3.344431E-10  3.902115E-10
       101  19 -1.399345E+06 -9.685263E+04 -9.488738E+04 -1.555564E+04 -1.434936E+03 -5.207197E+03
       101  20 -1.377850E+06 -9.197468E+04 -9.035987E+04  6.189889E+03 -9.811592E+02 -4.616262E+03
       101  21 -1.355149E+06 -8.621754E+04 -8.512945E+04 -1.533353E+04 -5.258233E+02 -3.685882E+03
       101  22 -1.010037E+06  4.762674E+02  1.920569E+03 -1.573494E+04 -1.354730E+03 -5.207028E+03
       101  23 -1.010652E+06 -1.668284E+02  9.859066E+02  5.898686E+03 -8.356056E+02 -4.616239E+03
       101  24 -1.010049E+06  8.067342E+01  7.994426E+02 -1.573503E+04 -3.149383E+02 -3.686096E+03
       101  25 -6.205918E+05  9.779376E+04  9.871715E+04 -1.591435E+04 -1.274473E+03 -5.206859E+03
       101  26 -6.433314E+05  9.163088E+04  9.232157E+04  5.607341E+03 -6.899656E+02 -4.616217E+03
       101  27 -6.648412E+05  8.636991E+04  8.671938E+04 -1.613671E+04 -1.039359E+02 -3.686311E+03
       102   1 -1.214506E+06 -5.096648E+04 -5.005951E+04 -1.695311E+04  3.305707E+02  3.117129E+03
       102   2 -1.188982E+06 -4.472443E+04 -4.381002E+04  8.071142E+03  3.353891E+01  2.238692E+03
       102   3 -1.163349E+06 -3.811167E+04 -3.727950E+04 -1.696583E+04 -2.644496E+02  1.246121E+03
       102   4 -1.010268E+06  7.924521E+01  6.738750E+02 -1.724461E+04  1.730278E+02  3.117361E+03
       102   5 -1.010328E+06 -6.111514E+01  6.287973E+02  7.785672E+03 -1.459718E+02  2.239037E+03
       102   6 -1.010275E+06  1.731934E+02  8.801215E+02 -1.724436E+04 -4.659156E+02  1.246594E+03
       102   7 -8.059927E+05  5.112183E+04  5.140413E+04 -1.753619E+04  1.543308E+01  3.117593E+03
       102   8 -8.316444E+05  4.459979E+04  4.506522E+04  7.500135E+03 -3.255342E+02  2.239381E+03
       102   9 -8.571784E+05  3.845628E+04  3.903798E+04 -1.752296E+04 -6.674313E+02  1.247068E+03
       102  10 -1.214506E+06 -5.096649E+04 -5.005953E+04 -1.695311E+04  1.795510E-09  5.452845E-10
       102  11 -1.188982E+06 -4.472443E+04 -4.381003E+04  8.071142E+03 -4.620326E-10 -6.298937E-10
       102  12 -1.163349E+06 -3.811167E+04 -3.727951E+04 -1.696583E+04 -5.730188E-10 -7.909041E-10
       102  13 -1.010268E+06  7.923477E+01  6.738567E+02 -1.724461E+04 -1.499991E-10 -8.922918E-10
       102  14 -1.010328E+06 -6.112052E+01  6.287879E+02  7.785673E+03 -1.829663E-09 -1.248956E-10
       102  15 -1.010275E+06  1.731917E+02  8.801182E+02 -1.724436E+04  2.408270E-09 -1.595560E-09
       102  16 -8.059927E+05  5.112182E+04  5.140412E+04 -1.753619E+04 -1.081529E-09  6.056446E-10
       102  17 -8.316444E+05  4.459979E+04  4.506521E+04  7.500136E+03 -2.137637E-09 -1.226594E-09
       102  18 -8.571784E+05  3.845628E+04  3.903798E+04 -1.752296E+04  1.356807E-09 -2.386537E-09
       102  19 -1.214506E+06 -5.096648E+04 -5.005951E+04 -1.695311E+04 -3.305707E+02 -3.117129E+03
       102  20 -1.188982E+06 -4.472443E+04 -4.381002E+04  8.071142E+03 -3.353891E+01 -2.238692E+03
       102  21 -1.163349E+06 -3.811167E+04 -3.727950E+04 -1.696583E+04  2.644496E+02 -1.246121E+03
       102  22 -1.010268E+06  7.924521E+01  6.738750E+02 -1.724461E+04 -1.730278E+02 -3.117361E+03
       102  23 -1.010328E+06 -6.111514E+01  6.287973E+02  7.785672E+03  1.459718E+02 -2.239037E+03
       102  24 -1.010275E+06  1.731934E+02  8.801215E+02 -1.724436E+04  4.659156E+02 -1.246594E+03
       102  25 -8.059927E+05  5.112183E+04  5.140413E+04 -1.753619E+04 -1.543308E+01 -3.117593E+03
       102  26 -8.316444E+05  4.459979E+04  4.506522E+04  7.500135E+03  3.255342E+02 -2.239381E+03
       102  27 -8.571784E+05  3.845628E+04  3.903798E+04 -1.752296E+04  6.674313E+02 -1.247068E+03
       103   1 -1.009368E+06  3.112699E+02  1.355243E+03 -1.763086E+04 -4.510316E+02  6.428048E+02
       103   2 -9.828421E+05  6.715342E+03  8.494111E+03  8.252682E+03 -1.296111E+03 -3.428728E+02
       103   3 -9.562760E+05  1.408404E+04  1.636070E+04 -1.780690E+04 -2.141051E+03 -1.297390E+03
       103   4 -1.010283E+06  6.646484E+01  1.046103E+03 -1.766340E+04 -6.434295E+02  6.432894E+02
       103   5 -1.010301E+06 -1.486016E+02  1.664930E+03  8.308879E+03 -1.482504E+03 -3.424163E+02
       103   6 -1.010282E+06  5.998987E+02  3.007300E+03 -1.766210E+04 -2.321403E+03 -1.296959E+03
       103   7 -1.011198E+06 -1.783403E+02  7.369639E+02 -1.769594E+04 -8.358272E+02  6.437740E+02
       103   8 -1.037760E+06 -7.012602E+03 -5.164306E+03  8.365075E+03 -1.668888E+03 -3.419598E+02
       103   9 -1.064285E+06 -1.288446E+04 -1.034632E+04 -1.751732E+04 -2.501739E+03 -1.296528E+03
       103  10 -1.009368E+06  3.112694E+02  1.355242E+03 -1.763085E+04 -1.821931E-09  1.542377E-09
       103  11 -9.828421E+05  6.715341E+03  8.494107E+03  8.252681E+03 -6.126486E-10  3.777536E-09
       103  12 -9.562760E+05  1.408404E+04  1.636069E+04 -1.780691E+04 -8.403798E-10 -2.746885E-09
       103  13 -1.010283E+06  6.646428E+01  1.046102E+03 -1.766340E+04  1.814469E-11  4.033077E-10
       103  14 -1.010301E+06 -1.486023E+02  1.664926E+03  8.308879E+03 -2.262848E-09 -7.313118E-10
       103  15 -1.010282E+06  5.998955E+02  3.007287E+03 -1.766211E+04 -2.825150E-09 -4.799084E-10
       103  16 -1.011198E+06 -1.783409E+02  7.369618E+02 -1.769594E+04  9.106442E-10  4.539182E-10
       103  17 -1.037760E+06 -7.012602E+03 -5.164312E+03  8.365075E+03  7.083940E-10  1.446717E-10
       103  18 -1.064285E+06 -1.288447E+04 -1.034634E+04 -1.751732E+04 -2.405205E-09 -6.620495E-10
       103  19 -1.009368E+06  3.112699E+02  1.355243E+03 -1.763086E+04  4.510316E+02 -6.428048E+02
       103  20 -9.828421E+05  6.715342E+03  8.494111E+03  8.252682E+03  1.296111E+03  3.428728E+02
       103  21 -9.562760E+05  1.408404E+04  1.636070E+04 -1.780690E+04  2.141051E+03  1.297390E+03
       103  22 -1.010283E+06  6.646484E+01  1.046103E+03 -1.766340E+04  6.434295E+02 -6.432894E+02
       103  23 -1.010301E+06 -1.486016E+02  1.664930E+03  8.308879E+03  1.482504E+03  3.424163E+02
       103  24 -1.010282E+06  5.998987E+02  3.007300E+03 -1.766210E+04  2.321403E+03  1.296959E+03
       103  25 -1.011198E+06 -1.783403E+02  7.369639E+02 -1.769594E+04  8.358272E+02 -6.437740E+02
       103  26 -1.037760E+06 -7.012602E+03 -5.164306E+03  8.365075E+03  1.668888E+03  3.419598E+02
       103  27 -1.064285E+06 -1.288446E+04 -1.034632E+04 -1.751732E+04  2.501739E+03  1.296528E+03
       104   1 -8.038564E+05  5.148298E+04  5.517429E+04 -1.706118E+04 -2.730874E+03 -1.906698E+03
       104   2 -7.799313E+05  5.683492E+04  6.377223E+04  6.999716E+03 -6.033106E+03 -2.897198E+03
       104   3 -7.540316E+05  6.765566E+04  7.592349E+04 -1.766308E+04 -9.334140E+03 -3.633465E+03
       104   4 -1.009867E+06 -2.271232E+01  3.859669E+03 -1.694992E+04 -2.945975E+03 -1.906240E+03
       104   5 -1.010844E+06 -8.785087E+02  6.350816E+03  7.415482E+03 -6.198367E+03 -2.896949E+03
       104   6 -1.009856E+06  3.726960E+03  1.236164E+04 -1.694392E+04 -9.449428E+03 -3.633384E+03
       104   7 -1.215839E+06 -5.153161E+04 -4.745814E+04 -1.683868E+04 -3.161004E+03 -1.905782E+03
       104   8 -1.241709E+06 -5.859595E+04 -5.107459E+04  7.831116E+03 -6.363565E+03 -2.896700E+03
       104   9 -1.265620E+06 -6.020666E+04 -5.120512E+04 -1.622504E+04 -9.564668E+03 -3.633303E+03
       104  10 -8.038564E+05  5.148298E+04  5.517427E+04 -1.706118E+04 -2.274282E-09 -2.357688E-09
       104  11 -7.799313E+05  5.683490E+04  6.377214E+04  6.999702E+03 -2.420262E-09  2.572159E-10
       104  12 -7.540317E+05  6.765563E+04  7.592330E+04 -1.766310E+04  9.115107E-10 -2.665205E-11
       104  13 -1.009867E+06 -2.271856E+01  3.859646E+03 -1.694993E+04  2.137625E-10 -3.841373E-10
       104  14 -1.010844E+06 -8.785281E+02  6.350728E+03  7.415467E+03 -5.437597E-09 -5.785716E-10
       104  15 -1.009856E+06  3.726922E+03  1.236144E+04 -1.694395E+04 -2.156724E-09 -1.123800E-09
       104  16 -1.215839E+06 -5.153161E+04 -4.745817E+04 -1.683869E+04  8.081237E-10 -3.397872E-10
       104  17 -1.241709E+06 -5.859597E+04 -5.107469E+04  7.831101E+03 -1.213488E-09  2.825661E-09
       104  18 -1.265620E+06 -6.020670E+04 -5.120532E+04 -1.622507E+04 -1.500248E-09 -3.813585E-10
       104  19 -8.038564E+05  5.148298E+04  5.517429E+04 -1.706118E+04  2.730874E+03  1.906698E+03
       104  20 -7.799313E+05  5.683492E+04  6.377223E+04  6.999716E+03  6.033106E+03  2.897198E+03
       104  21 -7.540316E+05  6.765566E+04  7.592349E+04 -1.766308E+04  9.334140E+03  3.633465E+03
       104  22 -1.009867E+06 -2.271232E+01  3.859669E+03 -1.694992E+04  2.945975E+03  1.906240E+03
       104  23 -1.010844E+06 -8.785087E+02  6.350816E+03  7.415482E+03  6.198367E+03  2.896949E+03
       104  24 -1.009856E+06  3.726960E+03  1.236164E+04 -1.694392E+04  9.449428E+03  3.633384E+03
       104  25 -1.215839E+06 -5.153161E+04 -4.745814E+04 -1.683868E+04  3.161004E+03  1.905782E+03
       104  26 -1.241709E+06 -5.859595E+04 -5.107459E+04  7.831116E+03  6.363565E+03  2.896700E+03
       104  27 -1.265620E+06 -6.020666E+04 -5.120512E+04 -1.622504E+04  9.564668E+03  3.633303E+03
       105   1 -6.167414E+05  9.689037E+04  1.128087E+05 -1.389634E+04 -1.168627E+04 -4.294644E+03
       105   2 -6.019279E+05  9.706837E+04  1.272720E+05  4.248306E+03 -2.497147E+04 -5.267804E+03
       105   3 -5.750572E+05  1.335742E+05  1.597225E+05 -1.835242E+04 -3.825547E+04 -5.133596E+03
       105   4 -1.007653E+06 -8.112093E+02  1.553495E+04 -1.517742E+04 -1.197707E+04 -4.294412E+03
       105   5 -1.013651E+06 -5.821984E+03  2.491228E+04  5.196660E+03 -2.504214E+04 -5.268012E+03
       105   6 -1.007623E+06  2.546962E+04  5.213236E+04 -1.517627E+04 -3.810558E+04 -5.134016E+03
       105   7 -1.398425E+06 -9.852428E+04 -8.175023E+04 -1.645765E+04 -1.226768E+04 -4.294177E+03
       105   8 -1.425220E+06 -1.087251E+05 -7.746010E+04  6.144407E+03 -2.511277E+04 -5.268221E+03
       105   9 -1.440019E+06 -8.264896E+04 -5.547182E+04 -1.200233E+04 -3.795578E+04 -5.134434E+03
       105  10 -6.167416E+05  9.689031E+04  1.128084E+05 -1.389638E+04 -2.847787E-09  1.671479E-10
       105  11 -6.019286E+05  9.706817E+04  1.272707E+05  4.248200E+03  1.272713E-09 -3.378897E-10
       105  12 -5.750587E+05  1.335737E+05  1.597197E+05 -1.835258E+04 -1.366634E-09 -1.448211E-10
       105  13 -1.007653E+06 -8.112677E+02  1.553464E+04 -1.517746E+04  2.169867E-09 -3.881635E-11
       105  14 -1.013652E+06 -5.822182E+03  2.491105E+04  5.196554E+03  2.561477E-09  1.041251E-09
       105  15 -1.007625E+06  2.546920E+04  5.212957E+04 -1.517642E+04  1.305080E-09 -1.900270E-13
       105  16 -1.398425E+06 -9.852434E+04 -8.175055E+04 -1.645769E+04 -9.914783E-10 -1.769417E-10
       105  17 -1.425221E+06 -1.087253E+05 -7.746134E+04  6.144300E+03  1.152483E-09  6.889901E-10
       105  18 -1.440021E+06 -8.264938E+04 -5.547458E+04 -1.200248E+04  3.119432E-10  3.257290E-10
       105  19 -6.167414E+05  9.689037E+04  1.128087E+05 -1.389634E+04  1.168627E+04  4.294644E+03
       105  20 -6.019279E+05  9.706837E+04  1.272720E+05  4.248306E+03  2.497147E+04  5.267804E+03
       105  21 -5.750572E+05  1.335742E+05  1.597225E+05 -1.835242E+04  3.825547E+04  5.133596E+03
       105  22 -1.007653E+06 -8.112093E+02  1.553495E+04 -1.517742E+04  1.197707E+04  4.294412E+03
       105  23 -1.013651E+06 -5.821984E+03  2.491228E+04  5.196660E+03  2.504214E+04  5.268012E+03
       105  24 -1.007623E+06  2.546962E+04  5.213236E+04 -1.517627E+04  3.810558E+04  5.134016E+03
       105  25 -1.398425E+06 -9.852428E+04 -8.175023E+04 -1.645765E+04  1.226768E+04  4.294177E+03
       105  26 -1.425220E+06 -1.087251E+05 -7.746010E+04  6.144407E+03  2.511277E+04  5.268221E+03
       105  27 -1.440019E+06 -8.264896E+04 -5.547182E+04 -1.200233E+04  3.795578E+04  5.134434E+03
       106   1 -4.573609E+05  1.281186E+05  1.967484E+05 -1.234130E+03 -4.765092E+04 -6.497192E+03
       106   2 -4.778561E+05  9.876681E+04  2.334467E+05 -3.400497E+03 -1.015210E+05 -7.939405E+03
       106   3 -4.275094E+05  3.149045E+05  3.671042E+05 -3.477499E+04 -1.554042E+05 -3.033526E+03
       106   4 -9.946462E+05 -6.159079E+03  6.313264E+04 -1.250221E+04 -4.850243E+04 -6.497092E+03
       106   5 -1.029930E+06 -3.915154E+04  9.630119E+04  1.912510E+03 -1.011136E+05 -7.940256E+03
       106   6 -9.945331E+05  1.732410E+05  2.256145E+05 -1.288113E+04 -1.537363E+05 -3.035717E+03
       106   7 -1.531669E+06 -1.404580E+05 -7.050466E+04 -2.376054E+04 -4.935320E+04 -6.496961E+03
       106   8 -1.581726E+06 -1.770927E+05 -4.086710E+04  7.220692E+03 -1.007065E+05 -7.941100E+03
       106   9 -1.561264E+06  3.155503E+04  8.410095E+04  8.992553E+03 -1.520700E+05 -3.037794E+03
       106  10 -4.573634E+05  1.281180E+05  1.967440E+05 -1.234380E+03 -4.094032E-09  2.886472E-10
       106  11 -4.778672E+05  9.876397E+04  2.334272E+05 -3.401146E+03 -4.371211E-09  2.497590E-10
       106  12 -4.275354E+05  3.148980E+05  3.670588E+05 -3.477537E+04 -2.451783E-09 -5.784932E-10
       106  13 -9.946487E+05 -6.159757E+03  6.312813E+04 -1.250246E+04 -3.935025E-10  4.291105E-10
       106  14 -1.029941E+06 -3.915436E+04  9.628183E+04  1.911864E+03 -1.734258E-09  2.043660E-09
       106  15 -9.945585E+05  1.732346E+05  2.255700E+05 -1.288151E+04  1.153256E-09 -2.009820E-10
       106  16 -1.531672E+06 -1.404587E+05 -7.050932E+04 -2.376080E+04  2.504277E-10 -4.335982E-10
       106  17 -1.581737E+06 -1.770955E+05 -4.088632E+04  7.220048E+03 -3.109202E-10  1.169224E-10
       106  18 -1.561289E+06  3.154879E+04  8.405737E+04  8.992181E+03  8.138163E-10 -3.708669E-10
       106  19 -4.573609E+05  1.281186E+05  1.967484E+05 -1.234130E+03  4.765092E+04  6.497192E+03
       106  20 -4.778561E+05  9.876681E+04  2.334467E+05 -3.400497E+03  1.015210E+05  7.939405E+03
       106  21 -4.275094E+05  3.149045E+05  3.671042E+05 -3.477499E+04  1.554042E+05  3.033526E+03
       106  22 -9.946462E+05 -6.159079E+03  6.313264E+04 -1.250221E+04  4.850243E+04  6.497092E+03
       106  23 -1.029930E+06 -3.915154E+04  9.630119E+04  1.912510E+03  1.011136E+05  7.940256E+03
       106  24 -9.945331E+05  1.732410E+05  2.256145E+05 -1.288113E+04  1.537363E+05  3.035717E+03
       106  25 -1.531669E+06 -1.404580E+05 -7.050466E+04 -2.376054E+04  4.935320E+04  6.496961E+03
       106  26 -1.581726E+06 -1.770927E+05 -4.086710E+04  7.220692E+03  1.007065E+05  7.941100E+03
       106  27 -1.561264E+06  3.155503E+04  8.410095E+04  8.992553E+03  1.520700E+05  3.037794E+03
       107   1  2.735591E+05  2.089088E+05  2.941072E+05 -1.968730E+05 -3.326089E+02  1.916185E+05
       107   2  8.339546E+04  1.623191E+05  1.507116E+05 -1.095110E+05  9.170707E+02  1.156751E+05
       107   3  2.230487E+04  1.578420E+05  8.902649E+04 -2.678177E+04  4.848138E+02  3.972704E+04
       107   4  2.548056E+05  1.408462E+05  2.774566E+05 -2.989720E+04 -2.662127E+02  1.882457E+05
       107   5  7.229893E+04  1.200855E+05  1.418286E+05 -2.810724E+04  9.326404E+02  1.155793E+05
       107   6  1.827568E+04  1.408591E+05  8.563826E+04 -3.094190E+04  4.704274E+02  4.290478E+04
       107   7  2.361564E+05  7.284759E+04  2.608206E+05  1.370600E+05 -2.016247E+02  1.848734E+05
       107   8  6.122716E+04  7.786773E+04  1.329491E+05  5.329084E+04  9.481858E+02  1.154834E+05
       107   9  1.424653E+04  1.238766E+05  8.225006E+04 -3.510192E+04  4.559982E+02  4.608243E+04
       107  10  2.735493E+05  2.088694E+05  2.940382E+05 -1.968729E+05 -3.960428E-11  1.329968E-09
       107  11  8.339187E+04  1.623047E+05  1.506864E+05 -1.095111E+05  4.136649E-10  7.869818E-11
       107  12  2.230445E+04  1.578403E+05  8.902353E+04 -2.678179E+04 -2.954403E-09 -5.692572E-09
       107  13  2.547961E+05  1.408082E+05  2.773900E+05 -2.989716E+04 -3.404131E-10 -2.355233E-09
       107  14  7.229535E+04  1.200711E+05  1.418035E+05 -2.810732E+04  1.904833E-09 -1.485165E-09
       107  15  1.827518E+04  1.408571E+05  8.563480E+04 -3.094192E+04 -4.820030E-09  1.702360E-09
       107  16  2.361472E+05  7.281089E+04  2.607564E+05  1.370600E+05 -5.312141E-10 -5.125944E-10
       107  17  6.122358E+04  7.785341E+04  1.329240E+05  5.329076E+04  2.872476E-09  1.608667E-09
       107  18  1.424596E+04  1.238743E+05  8.224607E+04 -3.510193E+04 -8.738640E-10  6.343945E-09
       107  19  2.735591E+05  2.089088E+05  2.941072E+05 -1.968730E+05  3.326089E+02 -1.916185E+05
       107  20  8.339546E+04  1.623191E+05  1.507116E+05 -1.095110E+05 -9.170707E+02 -1.156751E+05
       107  21  2.230487E+04  1.578420E+05  8.902649E+04 -2.678177E+04 -4.848138E+02 -3.972704E+04
       107  22  2.548056E+05  1.408462E+05  2.774566E+05 -2.989720E+04  2.662127E+02 -1.882457E+05
       107  23  7.229893E+04  1.200855E+05  1.418286E+05 -2.810724E+04 -9.326404E+02 -1.155793E+05
       107  24  1.827568E+04  1.408591E+05  8.563826E+04 -3.094190E+04 -4.704274E+02 -4.290478E+04
       107  25  2.361564E+05  7.284759E+04  2.608206E+05  1.370600E+05  2.016247E+02 -1.848734E+05
       107  26  6.122716E+04  7.786773E+04  1.329491E+05  5.329084E+04 -9.481858E+02 -1.154834E+05
       107  27  1.424653E+04  1.238766E+05  8.225006E+04 -3.510192E+04 -4.559982E+02 -4.608243E+04
       108   1  1.639250E+04  1.335331E+05  7.193214E+04 -4.002357E+04 -4.712080E+02  2.785595E+04
       108   2  1.104314E+03  1.033316E+05  5.450462E+04 -2.849008E+04 -1.869369E+03 -1.208877E+03
       108   3  2.986299E+03  8.115228E+04  6.027772E+04 -2.201765E+04 -3.144754E+03 -3.027196E+04
       108   4  1.617424E+04  1.334190E+05  7.143933E+04 -3.093933E+04 -4.847038E+02  3.098479E+04
       108   5  7.135545E+03  1.293871E+05  5.861512E+04 -2.841086E+04 -1.882164E+03  1.676082E+03
       108   6  1.530877E+04  1.334185E+05  6.916066E+04 -3.094304E+04 -3.156012E+03 -2.763203E+04
       108   7  1.595629E+04  1.333051E+05  7.094660E+04 -2.185509E+04 -4.981080E+02  3.411364E+04
       108   8  1.316675E+04  1.554432E+05  6.272564E+04 -2.833163E+04 -1.894957E+03  4.561157E+03
       108   9  2.763139E+04  1.856877E+05  7.804357E+04 -3.986920E+04 -3.167345E+03 -2.499188E+04
       108  10  1.639229E+04  1.335322E+05  7.193069E+04 -4.002356E+04 -3.270412E-09  3.362468E-09
       108  11  1.104310E+03  1.033316E+05  5.450461E+04 -2.849008E+04 -6.302754E-10  4.668174E-09
       108  12  2.986043E+03  8.115130E+04  6.027598E+04 -2.201773E+04  7.064552E-10  1.370421E-09
       108  13  1.617398E+04  1.334180E+05  7.143753E+04 -3.093932E+04 -4.425335E-10 -2.368395E-09
       108  14  7.135541E+03  1.293871E+05  5.861511E+04 -2.841085E+04  3.755575E-09 -1.236697E-09
       108  15  1.530855E+04  1.334177E+05  6.915920E+04 -3.094311E+04  1.814307E-09  1.695243E-09
       108  16  1.595597E+04  1.333039E+05  7.094441E+04 -2.185507E+04 -3.539776E-09 -2.759576E-09
       108  17  1.316674E+04  1.554432E+05  6.272559E+04 -2.833162E+04  3.646766E-10 -3.267644E-09
       108  18  2.763121E+04  1.856870E+05  7.804238E+04 -3.986926E+04  2.386482E-11 -2.361301E-10
       108  19  1.639250E+04  1.335331E+05  7.193214E+04 -4.002357E+04  4.712080E+02 -2.785595E+04
       108  20  1.104314E+03  1.033316E+05  5.450462E+04 -2.849008E+04  1.869369E+03  1.208877E+03
       108  21  2.986299E+03  8.115228E+04  6.027772E+04 -2.201765E+04  3.144754E+03  3.027196E+04
       108  22  1.617424E+04  1.334190E+05  7.143933E+04 -3.093933E+04  4.847038E+02 -3.098479E+04
       108  23  7.135545E+03  1.293871E+05  5.861512E+04 -2.841086E+04  1.882164E+03 -1.676082E+03
       108  24  1.530877E+04  1.334185E+05  6.916066E+04 -3.094304E+04  3.156012E+03  2.763203E+04
       108  25  1.595629E+04  1.333051E+05  7.094660E+04 -2.185509E+04  4.981080E+02 -3.411364E+04
       108  26  1.316675E+04  1.554432E+05  6.272564E+04 -2.833163E+04  1.894957E+03 -4.561157E+03
       108  27  2.763139E+04  1.856877E+05  7.804357E+04 -3.986920E+04  3.167345E+03  2.499188E+04
       109   1  1.107987E+03  7.114760E+04  7.011235E+04 -3.459261E+04 -4.001463E+03 -4.187046E+04
       109   2  4.478163E+04  2.645459E+04  1.158444E+05  4.878354E+04 -3.722034E+03 -1.051073E+05
       109   3  2.086299E+05  2.000552E+04  2.327943E+05  1.275977E+05 -6.514630E+02 -1.683280E+05
       109   4  1.728800E+04  1.403353E+05  8.203296E+04 -3.092458E+04 -4.013792E+03 -3.913724E+04
       109   5  6.811670E+04  1.207379E+05  1.342341E+05 -2.815276E+04 -3.696653E+03 -1.079077E+05
       109   6  2.400452E+05  1.403222E+05  2.614858E+05 -2.994374E+04 -5.721538E+02 -1.766652E+05
       109   7  3.346781E+04  2.095277E+05  9.395345E+04 -2.725612E+04 -4.026088E+03 -3.640373E+04
       109   8  9.147339E+04  2.150424E+05  1.526265E+05 -1.051010E+05 -3.670582E+03 -1.107086E+05
       109   9  2.715526E+05  2.607055E+05  2.901897E+05 -1.875160E+05 -4.886244E+02 -1.850040E+05
       109  10  1.107499E+03  7.114571E+04  7.010903E+04 -3.459275E+04 -1.053553E-09  7.121529E-10
       109  11  4.477865E+04  2.644273E+04  1.158236E+05  4.878322E+04 -6.048056E-10  2.215244E-09
       109  12  2.086223E+05  1.997510E+04  2.327411E+05  1.275976E+05  1.798547E-09 -1.430665E-09
       109  13  1.728757E+04  1.403336E+05  8.203006E+04 -3.092470E+04 -1.416014E-09 -2.423826E-09
       109  14  6.811356E+04  1.207254E+05  1.342122E+05 -2.815308E+04 -4.392353E-10 -1.539760E-09
       109  15  2.400369E+05  1.402887E+05  2.614271E+05 -2.994382E+04  3.076495E-10  1.837443E-09
       109  16  3.346744E+04  2.095263E+05  9.395093E+04 -2.725623E+04  1.184878E-11  3.561539E-11
       109  17  9.147009E+04  2.150292E+05  1.526035E+05 -1.051014E+05  1.444115E-09 -4.184476E-10
       109  18  2.715434E+05  2.606687E+05  2.901254E+05 -1.875161E+05 -3.313845E-10  2.167022E-09
       109  19  1.107987E+03  7.114760E+04  7.011235E+04 -3.459261E+04  4.001463E+03  4.187046E+04
       109  20  4.478163E+04  2.645459E+04  1.158444E+05  4.878354E+04  3.722034E+03  1.051073E+05
       109  21  2.086299E+05  2.000552E+04  2.327943E+05  1.275977E+05  6.514630E+02  1.683280E+05
       109  22  1.728800E+04  1.403353E+05  8.203296E+04 -3.092458E+04  4.013792E+03  3.913724E+04
       109  23  6.811670E+04  1.207379E+05  1.342341E+05 -2.815276E+04  3.696653E+03  1.079077E+05
       109  24  2.400452E+05  1.403222E+05  2.614858E+05 -2.994374E+04  5.721538E+02  1.766652E+05
       109  25  3.346781E+04  2.095277E+05  9.395345E+04 -2.725612E+04  4.026088E+03  3.640373E+04
       109  26  9.147339E+04  2.150424E+05  1.526265E+05 -1.051010E+05  3.670582E+03  1.107086E+05
       109  27  2.715526E+05  2.607055E+05  2.901897E+05 -1.875160E+05  4.886244E+02  1.850040E+05
       110   1 -5.739938E+06 -1.809674E+06 -1.159271E+06 -1.991609E+06 -5.526859E+05 -1.970762E+05
       110   2 -5.596460E+06 -1.001726E+06 -6.475610E+05 -2.098088E+06 -3.595958E+05 -9.810745E+04
       110   3 -5.759162E+06 -1.007184E+06 -5.045715E+05 -2.018404E+06 -1.572109E+05 -2.361784E+04
       110   4 -4.720375E+06 -1.261780E+06 -8.472033E+05 -1.550659E+06 -5.393902E+05 -1.922068E+05
       110   5 -4.523715E+06 -5.505536E+05 -3.507304E+05 -1.759362E+06 -3.558517E+05 -9.672577E+04
       110   6 -4.630818E+06 -6.500328E+05 -2.148857E+05 -1.782063E+06 -1.630094E+05 -2.579066E+04
       110   7 -3.699741E+06 -7.134721E+05 -5.352400E+05 -1.108947E+06 -5.260697E+05 -1.873191E+05
       110   8 -3.449846E+06 -9.923596E+04 -5.400829E+04 -1.420076E+06 -3.521000E+05 -9.534047E+04
       110   9 -3.501233E+06 -2.928889E+05  7.470021E+04 -1.545371E+06 -1.688195E+05 -2.796617E+04
       110  10 -5.740280E+06 -1.809799E+06 -1.159925E+06 -1.991697E+06 -7.122874E-10  7.476324E-10
       110  11 -5.596602E+06 -1.001772E+06 -6.478247E+05 -2.098116E+06 -1.985299E-09  2.366080E-09
       110  12 -5.759189E+06 -1.007191E+06 -5.046195E+05 -2.018407E+06 -3.426805E-10  2.246125E-10
       110  13 -4.720700E+06 -1.261899E+06 -8.478248E+05 -1.550743E+06 -5.052047E-11  2.356788E-10
       110  14 -4.523854E+06 -5.505981E+05 -3.509881E+05 -1.759390E+06 -1.607104E-09  1.225782E-10
       110  15 -4.630847E+06 -6.500407E+05 -2.149373E+05 -1.782066E+06 -7.649508E-10 -2.329551E-10
       110  16 -3.700049E+06 -7.135849E+05 -5.358299E+05 -1.109027E+06  1.774447E-09 -7.360485E-10
       110  17 -3.449982E+06 -9.927934E+04 -5.425998E+04 -1.420104E+06  3.119746E-09 -1.588678E-10
       110  18 -3.501264E+06 -2.928975E+05  7.464483E+04 -1.545375E+06 -5.198631E-10 -8.006726E-10
       110  19 -5.739938E+06 -1.809674E+06 -1.159271E+06 -1.991609E+06  5.526859E+05  1.970762E+05
       110  20 -5.596460E+06 -1.001726E+06 -6.475610E+05 -2.098088E+06  3.595958E+05  9.810745E+04
       110  21 -5.759162E+06 -1.007184E+06 -5.045715E+05 -2.018404E+06  1.572109E+05  2.361784E+04
       110  22 -4.720375E+06 -1.261780E+06 -8.472033E+05 -1.550659E+06  5.393902E+05  1.922068E+05
       110  23 -4.523715E+06 -5.505536E+05 -3.507304E+05 -1.759362E+06  3.558517E+05  9.672577E+04
       110  24 -4.630818E+06 -6.500328E+05 -2.148857E+05 -1.782063E+06  1.630094E+05  2.579066E+04
       110  25 -3.699741E+06 -7.134721E+05 -5.352400E+05 -1.108947E+06  5.260697E+05  1.873191E+05
       110  26 -3.449846E+06 -9.923596E+04 -5.400829E+04 -1.420076E+06  3.521000E+05  9.534047E+04
       110  27 -3.501233E+06 -2.928889E+05  7.470021E+04 -1.545371E+06  1.688195E+05  2.796617E+04
       111   1 -5.581262E+06 -1.136746E+06 -4.438136E+05 -2.021638E+06 -1.308165E+05 -1.880622E+04
       111   2 -5.525337E+06 -9.979931E+05 -3.339884E+05 -1.996043E+06 -8.651288E+04 -2.065896E+03
       111   3 -5.468363E+06 -9.966401E+05 -2.832528E+05 -1.993260E+06 -4.111797E+04  1.177965E+04
       111   4 -4.598667E+06 -7.467988E+05 -1.755514E+05 -1.735307E+06 -1.303615E+05 -1.864262E+04
       111   5 -4.593959E+06 -6.413370E+05 -8.273127E+04 -1.737746E+06 -8.715288E+04 -2.310643E+03
       111   6 -4.587926E+06 -6.729597E+05 -4.805317E+04 -1.763007E+06 -4.285793E+04  1.112465E+04
       111   7 -3.615130E+06 -3.567668E+05  9.262330E+04 -1.448554E+06 -1.299055E+05 -1.847862E+04
       111   8 -3.661736E+06 -2.846227E+05  1.684486E+05 -1.479094E+06 -8.779385E+04 -2.555766E+03
       111   9 -3.706736E+06 -3.492439E+05  1.870786E+05 -1.532461E+06 -4.460059E+04  1.046870E+04
       111  10 -5.581281E+06 -1.136751E+06 -4.438467E+05 -2.021640E+06 -2.477093E-09  1.410952E-10
       111  11 -5.525345E+06 -9.979952E+05 -3.340026E+05 -1.996043E+06 -1.203473E-09 -1.797513E-10
       111  12 -5.468365E+06 -9.966407E+05 -2.832562E+05 -1.993260E+06 -9.826412E-10 -1.765662E-09
       111  13 -4.598686E+06 -7.468038E+05 -1.755843E+05 -1.735309E+06 -3.465966E-09 -7.903914E-10
       111  14 -4.593967E+06 -6.413391E+05 -8.274566E+04 -1.737746E+06 -6.359886E-09  1.563310E-10
       111  15 -4.587928E+06 -6.729603E+05 -4.805687E+04 -1.763007E+06 -1.492853E-09 -1.036360E-09
       111  16 -3.615148E+06 -3.567717E+05  9.259074E+04 -1.448556E+06 -3.282450E-09 -8.467054E-10
       111  17 -3.661744E+06 -2.846248E+05  1.684340E+05 -1.479094E+06  2.580495E-09 -3.555338E-10
       111  18 -3.706738E+06 -3.492446E+05  1.870746E+05 -1.532461E+06 -6.563291E-10 -1.102603E-09
       111  19 -5.581262E+06 -1.136746E+06 -4.438136E+05 -2.021638E+06  1.308165E+05  1.880622E+04
       111  20 -5.525337E+06 -9.979931E+05 -3.339884E+05 -1.996043E+06  8.651288E+04  2.065896E+03
       111  21 -5.468363E+06 -9.966401E+05 -2.832528E+05 -1.993260E+06  4.111797E+04 -1.177965E+04
       111  22 -4.598667E+06 -7.467988E+05 -1.755514E+05 -1.735307E+06  1.303615E+05  1.864262E+04
       111  23 -4.593959E+06 -6.413370E+05 -8.273127E+04 -1.737746E+06  8.715288E+04  2.310643E+03
       111  24 -4.587926E+06 -6.729597E+05 -4.805317E+04 -1.763007E+06  4.285793E+04 -1.112465E+04
       111  25 -3.615130E+06 -3.567668E+05  9.262330E+04 -1.448554E+06  1.299055E+05  1.847862E+04
       111  26 -3.661736E+06 -2.846227E+05  1.684486E+05 -1.479094E+06  8.779385E+04  2.555766E+03
       111  27 -3.706736E+06 -3.492439E+05  1.870786E+05 -1.532461E+06  4.460059E+04 -1.046870E+04
       112   1 -5.320325E+06 -9.685437E+05 -2.367315E+05 -1.963709E+06 -3.398029E+04  1.201865E+04
       112   2 -5.261474E+06 -8.955018E+05 -1.952989E+05 -1.908609E+06 -2.271476E+04  1.269828E+04
       112   3 -5.149304E+06 -8.921657E+05 -1.643896E+05 -1.917415E+06 -1.121206E+04  1.272973E+04
       112   4 -4.580536E+06 -6.876749E+05 -3.781191E+04 -1.760956E+06 -3.512012E+04  1.158929E+04
       112   5 -4.606558E+06 -6.483449E+05 -1.933017E+04 -1.730679E+06 -2.410291E+04  1.217729E+04
       112   6 -4.579215E+06 -6.786589E+05 -1.116292E+04 -1.764308E+06 -1.285016E+04  1.211685E+04
       112   7 -3.840218E+06 -4.067726E+05  1.610586E+05 -1.557983E+06 -3.626144E+04  1.115936E+04
       112   8 -3.951226E+06 -4.011627E+05  1.566006E+05 -1.552578E+06 -2.549267E+04  1.165570E+04
       112   9 -4.008810E+06 -4.651338E+05  1.420353E+05 -1.611073E+06 -1.448992E+04  1.150335E+04
       112  10 -5.320326E+06 -9.685442E+05 -2.367340E+05 -1.963709E+06  1.212015E-09 -1.604023E-09
       112  11 -5.261474E+06 -8.955021E+05 -1.953002E+05 -1.908609E+06 -3.289397E-10  1.629543E-09
       112  12 -5.149305E+06 -8.921659E+05 -1.643901E+05 -1.917415E+06  1.625629E-09  2.377782E-10
       112  13 -4.580538E+06 -6.876754E+05 -3.781449E+04 -1.760956E+06 -1.176654E-09 -3.575949E-10
       112  14 -4.606559E+06 -6.483452E+05 -1.933155E+04 -1.730679E+06  4.194848E-09 -1.774435E-10
       112  15 -4.579216E+06 -6.786591E+05 -1.116351E+04 -1.764308E+06  3.478528E-09  2.063954E-09
       112  16 -3.840219E+06 -4.067731E+05  1.610559E+05 -1.557983E+06  7.598614E-11 -2.764049E-10
       112  17 -3.951227E+06 -4.011630E+05  1.565991E+05 -1.552578E+06  1.535837E-09  1.023959E-09
       112  18 -4.008810E+06 -4.651340E+05  1.420346E+05 -1.611073E+06  1.055705E-11  6.404648E-10
       112  19 -5.320325E+06 -9.685437E+05 -2.367315E+05 -1.963709E+06  3.398029E+04 -1.201865E+04
       112  20 -5.261474E+06 -8.955018E+05 -1.952989E+05 -1.908609E+06  2.271476E+04 -1.269828E+04
       112  21 -5.149304E+06 -8.921657E+05 -1.643896E+05 -1.917415E+06  1.121206E+04 -1.272973E+04
       112  22 -4.580536E+06 -6.876749E+05 -3.781191E+04 -1.760956E+06  3.512012E+04 -1.158929E+04
       112  23 -4.606558E+06 -6.483449E+05 -1.933017E+04 -1.730679E+06  2.410291E+04 -1.217729E+04
       112  24 -4.579215E+06 -6.786589E+05 -1.116292E+04 -1.764308E+06  1.285016E+04 -1.211685E+04
       112  25 -3.840218E+06 -4.067726E+05  1.610586E+05 -1.557983E+06  3.626144E+04 -1.115936E+04
       112  26 -3.951226E+06 -4.011627E+05  1.566006E+05 -1.552578E+06  2.549267E+04 -1.165570E+04
       112  27 -4.008810E+06 -4.651338E+05  1.420353E+05 -1.611073E+06  1.448992E+04 -1.150335E+04
       113   1 -4.976427E+06 -8.327604E+05 -1.158726E+05 -1.874511E+06 -8.764974E+03  1.097367E+04
       113   2 -4.909013E+06 -7.592433E+05 -8.561000E+04 -1.808043E+06 -4.458121E+03  7.988394E+03
       113   3 -4.774295E+06 -7.554378E+05 -5.784152E+04 -1.819777E+06 -7.378977E+01  4.786180E+03
       113   4 -4.576566E+06 -6.822162E+05 -8.852337E+03 -1.766138E+06 -1.034331E+04  1.038398E+04
       113   5 -4.610141E+06 -6.468476E+05 -5.397388E+03 -1.727228E+06 -6.121810E+03  7.367583E+03
       113   6 -4.576407E+06 -6.811702E+05 -4.366434E+03 -1.766522E+06 -1.823385E+03  4.134155E+03
       113   7 -4.176550E+06 -5.316624E+05  9.815396E+04 -1.657701E+06 -1.192277E+04  9.793867E+03
       113   8 -4.311183E+06 -5.344471E+05  7.480701E+04 -1.646379E+06 -7.786379E+03  6.746443E+03
       113   9 -4.378483E+06 -6.069012E+05  4.910466E+04 -1.713252E+06 -3.573582E+03  3.481907E+03
       113  10 -4.976427E+06 -8.327605E+05 -1.158729E+05 -1.874511E+06  1.486401E-09 -4.221301E-10
       113  11 -4.909013E+06 -7.592434E+05 -8.561015E+04 -1.808043E+06  2.112167E-09 -1.202646E-09
       113  12 -4.774295E+06 -7.554378E+05 -5.784156E+04 -1.819777E+06 -7.805123E-10 -1.423090E-10
       113  13 -4.576566E+06 -6.822163E+05 -8.852741E+03 -1.766138E+06 -1.279568E-09 -9.393945E-10
       113  14 -4.610141E+06 -6.468476E+05 -5.397560E+03 -1.727228E+06  2.837013E-09  1.404431E-09
       113  15 -4.576407E+06 -6.811703E+05 -4.366472E+03 -1.766522E+06 -9.299947E-10 -6.986980E-10
       113  16 -4.176550E+06 -5.316625E+05  9.815351E+04 -1.657701E+06 -4.427617E-10  4.617717E-10
       113  17 -4.311183E+06 -5.344472E+05  7.480681E+04 -1.646379E+06 -3.221050E-09  5.322474E-10
       113  18 -4.378483E+06 -6.069012E+05  4.910462E+04 -1.713252E+06  5.592890E-10 -1.127444E-10
       113  19 -4.976427E+06 -8.327604E+05 -1.158726E+05 -1.874511E+06  8.764974E+03 -1.097367E+04
       113  20 -4.909013E+06 -7.592433E+05 -8.561000E+04 -1.808043E+06  4.458121E+03 -7.988394E+03
       113  21 -4.774295E+06 -7.554378E+05 -5.784152E+04 -1.819777E+06  7.378977E+01 -4.786180E+03
       113  22 -4.576566E+06 -6.822162E+05 -8.852337E+03 -1.766138E+06  1.034331E+04 -1.038398E+04
       113  23 -4.610141E+06 -6.468476E+05 -5.397388E+03 -1.727228E+06  6.121810E+03 -7.367583E+03
       113  24 -4.576407E+06 -6.811702E+05 -4.366434E+03 -1.766522E+06  1.823385E+03 -4.134155E+03
       113  25 -4.176550E+06 -5.316624E+05  9.815396E+04 -1.657701E+06  1.192277E+04 -9.793867E+03
       113  26 -4.311183E+06 -5.344471E+05  7.480701E+04 -1.646379E+06  7.786379E+03 -6.746443E+03
       113  27 -4.378483E+06 -6.069012E+05  4.910466E+04 -1.713252E+06  3.573582E+03 -3.481907E+03
       114   1 -4.587460E+06 -6.860851E+05 -7.134516E+03 -1.770404E+06  1.595594E+03  2.508357E+03
       114   2 -4.517858E+06 -6.113112E+05  1.928153E+04 -1.701426E+06  5.999994E+03 -7.607237E+02
       114   3 -4.379002E+06 -6.084917E+05  4.314755E+04 -1.713228E+06  1.037570E+04 -3.947595E+03
       114   4 -4.575965E+06 -6.816648E+05 -4.420511E+03 -1.767095E+06 -1.539055E+02  1.856582E+03
       114   5 -4.610660E+06 -6.461961E+05 -5.616520E+03 -1.726513E+06  4.282873E+03 -1.400720E+03
       114   6 -4.576116E+06 -6.826908E+05 -9.388172E+03 -1.766716E+06  8.690423E+03 -4.575957E+03
       114   7 -4.564471E+06 -6.772444E+05 -1.706477E+03 -1.763786E+06 -1.903454E+03  1.204787E+03
       114   8 -4.703453E+06 -6.810807E+05 -3.051549E+04 -1.751596E+06  2.566025E+03 -2.040615E+03
       114   9 -4.773194E+06 -7.568880E+05 -6.192758E+04 -1.820189E+06  7.005725E+03 -5.204101E+03
       114  10 -4.587460E+06 -6.860851E+05 -7.134532E+03 -1.770404E+06 -1.437061E-09 -1.042445E-09
       114  11 -4.517858E+06 -6.113112E+05  1.928146E+04 -1.701426E+06 -5.830664E-10 -2.565994E-09
       114  12 -4.379002E+06 -6.084918E+05  4.314732E+04 -1.713228E+06  7.231742E-10 -1.145482E-09
       114  13 -4.575965E+06 -6.816648E+05 -4.420518E+03 -1.767095E+06 -6.614013E-10 -9.089955E-10
       114  14 -4.610660E+06 -6.461961E+05 -5.616558E+03 -1.726513E+06 -6.485477E-10  3.337620E-09
       114  15 -4.576116E+06 -6.826909E+05 -9.388354E+03 -1.766716E+06  8.780726E-10  2.165066E-10
       114  16 -4.564471E+06 -6.772444E+05 -1.706487E+03 -1.763786E+06  4.059341E-10  1.191950E-09
       114  17 -4.703453E+06 -6.810807E+05 -3.051551E+04 -1.751596E+06  3.632591E-09  1.617553E-09
       114  18 -4.773195E+06 -7.568880E+05 -6.192773E+04 -1.820189E+06 -1.292695E-09  9.801974E-10
       114  19 -4.587460E+06 -6.860851E+05 -7.134516E+03 -1.770404E+06 -1.595594E+03 -2.508357E+03
       114  20 -4.517858E+06 -6.113112E+05  1.928153E+04 -1.701426E+06 -5.999994E+03  7.607237E+02
       114  21 -4.379002E+06 -6.084917E+05  4.314755E+04 -1.713228E+06 -1.037570E+04  3.947595E+03
       114  22 -4.575965E+06 -6.816648E+05 -4.420511E+03 -1.767095E+06  1.539055E+02 -1.856582E+03
       114  23 -4.610660E+06 -6.461961E+05 -5.616520E+03 -1.726513E+06 -4.282873E+03  1.400720E+03
       114  24 -4.576116E+06 -6.826908E+05 -9.388172E+03 -1.766716E+06 -8.690423E+03  4.575957E+03
       114  25 -4.564471E+06 -6.772444E+05 -1.706477E+03 -1.763786E+06  1.903454E+03 -1.204787E+03
       114  26 -4.703453E+06 -6.810807E+05 -3.051549E+04 -1.751596E+06 -2.566025E+03  2.040615E+03
       114  27 -4.773194E+06 -7.568880E+05 -6.192758E+04 -1.820189E+06 -7.005725E+03  5.204101E+03
       115   1 -4.199135E+06 -5.387327E+05  8.988346E+04 -1.664857E+06  1.310357E+04 -5.772644E+03
       115   2 -4.134891E+06 -4.680281E+05  1.064093E+05 -1.600163E+06  2.493403E+04 -5.990722E+03
       115   3 -4.011854E+06 -4.740402E+05  1.119624E+05 -1.606645E+06  3.657852E+04 -5.690572E+03
       115   4 -4.577952E+06 -6.799904E+05 -1.190388E+04 -1.766001E+06  1.136097E+04 -6.422912E+03
       115   5 -4.608020E+06 -6.463949E+05 -2.060075E+04 -1.728634E+06  2.339119E+04 -6.567672E+03
       115   6 -4.579346E+06 -6.895658E+05 -4.043601E+04 -1.762448E+06  3.523371E+04 -6.194677E+03
       115   7 -4.956628E+06 -8.212393E+05 -1.137030E+05 -1.867090E+06  9.619566E+03 -7.072746E+03
       115   8 -5.080931E+06 -8.247480E+05 -1.476303E+05 -1.857015E+06  2.184965E+04 -7.144135E+03
       115   9 -5.146528E+06 -9.050719E+05 -1.928636E+05 -1.918121E+06  3.389024E+04 -6.698271E+03
       115  10 -4.199135E+06 -5.387328E+05  8.988307E+04 -1.664857E+06  6.760106E-10  4.904280E-11
       115  11 -4.134892E+06 -4.680283E+05  1.064081E+05 -1.600163E+06 -3.010498E-09 -1.604784E-09
       115  12 -4.011855E+06 -4.740406E+05  1.119598E+05 -1.606645E+06 -2.019091E-09  1.913555E-10
       115  13 -4.577953E+06 -6.799905E+05 -1.190420E+04 -1.766001E+06  2.013136E-10 -2.406544E-09
       115  14 -4.608021E+06 -6.463951E+05 -2.060187E+04 -1.728634E+06 -2.629627E-09 -1.025162E-09
       115  15 -4.579347E+06 -6.895661E+05 -4.043843E+04 -1.762448E+06 -1.326086E-09 -3.303932E-10
       115  16 -4.956628E+06 -8.212394E+05 -1.137032E+05 -1.867090E+06 -7.725692E-10 -7.233206E-10
       115  17 -5.080931E+06 -8.247482E+05 -1.476313E+05 -1.857015E+06 -4.073921E-09 -2.765452E-09
       115  18 -5.146529E+06 -9.050722E+05 -1.928658E+05 -1.918121E+06 -8.704708E-10 -4.533643E-10
       115  19 -4.199135E+06 -5.387327E+05  8.988346E+04 -1.664857E+06 -1.310357E+04  5.772644E+03
       115  20 -4.134891E+06 -4.680281E+05  1.064093E+05 -1.600163E+06 -2.493403E+04  5.990722E+03
       115  21 -4.011854E+06 -4.740402E+05  1.119624E+05 -1.606645E+06 -3.657852E+04  5.690572E+03
       115  22 -4.577952E+06 -6.799904E+05 -1.190388E+04 -1.766001E+06 -1.136097E+04  6.422912E+03
       115  23 -4.608020E+06 -6.463949E+05 -2.060075E+04 -1.728634E+06 -2.339119E+04  6.567672E+03
       115  24 -4.579346E+06 -6.895658E+05 -4.043601E+04 -1.762448E+06 -3.523371E+04  6.194677E+03
       115  25 -4.956628E+06 -8.212393E+05 -1.137030E+05 -1.867090E+06 -9.619566E+03  7.072746E+03
       115  26 -5.080931E+06 -8.247480E+05 -1.476303E+05 -1.857015E+06 -2.184965E+04  7.144135E+03
       115  27 -5.146528E+06 -9.050719E+05 -1.928636E+05 -1.918121E+06 -3.389024E+04  6.698271E+03
       116   1 -3.855896E+06 -4.090650E+05  1.430961E+05 -1.577376E+06  4.548988E+04 -5.114883E+03
       116   2 -3.800497E+06 -3.329057E+05  1.259408E+05 -1.513692E+06  9.195262E+04  8.467785E+03
       116   3 -3.737272E+06 -4.100000E+05  4.734106E+04 -1.482589E+06  1.374052E+05  2.477370E+04
       116   4 -4.586270E+06 -6.748529E+05 -5.140445E+04 -1.765792E+06  4.356594E+04 -5.835905E+03
       116   5 -4.595762E+06 -6.375930E+05 -8.842149E+04 -1.734726E+06  9.106463E+04  8.131568E+03
       116   6 -4.597694E+06 -7.538860E+05 -1.877725E+05 -1.736239E+06  1.375472E+05  2.481935E+04
       116   7 -5.316128E+06 -9.406188E+05 -2.459514E+05 -1.954011E+06  4.164448E+04 -6.556073E+03
       116   8 -5.390413E+06 -9.422372E+05 -3.028400E+05 -1.955501E+06  9.017783E+04  7.795812E+03
       116   9 -5.457394E+06 -1.097703E+06 -4.229531E+05 -1.989560E+06  1.376889E+05  2.486485E+04
       116  10 -3.855898E+06 -4.090656E+05  1.430922E+05 -1.577376E+06  8.918627E-10  4.599310E-10
       116  11 -3.800506E+06 -3.329081E+05  1.259247E+05 -1.513692E+06  1.579180E-09  8.658488E-11
       116  12 -3.737293E+06 -4.100057E+05  4.730418E+04 -1.482592E+06 -2.255693E-10  9.570314E-11
       116  13 -4.586272E+06 -6.748535E+05 -5.140810E+04 -1.765792E+06  1.015644E-09 -2.707965E-10
       116  14 -4.595771E+06 -6.375953E+05 -8.843732E+04 -1.734726E+06  6.306416E-10  1.185201E-10
       116  15 -4.597715E+06 -7.538918E+05 -1.878095E+05 -1.736242E+06 -2.844520E-09 -1.941264E-10
       116  16 -5.316130E+06 -9.406194E+05 -2.459548E+05 -1.954011E+06 -1.608636E-09 -1.117910E-09
       116  17 -5.390421E+06 -9.422395E+05 -3.028555E+05 -1.955501E+06 -1.603786E-10 -1.677550E-09
       116  18 -5.457415E+06 -1.097709E+06 -4.229903E+05 -1.989563E+06 -1.438202E-09 -9.273763E-10
       116  19 -3.855896E+06 -4.090650E+05  1.430961E+05 -1.577376E+06 -4.548988E+04  5.114883E+03
       116  20 -3.800497E+06 -3.329057E+05  1.259408E+05 -1.513692E+06 -9.195262E+04 -8.467785E+03
       116  21 -3.737272E+06 -4.100000E+05  4.734106E+04 -1.482589E+06 -1.374052E+05 -2.477370E+04
       116  22 -4.586270E+06 -6.748529E+05 -5.140445E+04 -1.765792E+06 -4.356594E+04  5.835905E+03
       116  23 -4.595762E+06 -6.375930E+05 -8.842149E+04 -1.734726E+06 -9.106463E+04 -8.131568E+03
       116  24 -4.597694E+06 -7.538860E+05 -1.877725E+05 -1.736239E+06 -1.375472E+05 -2.481935E+04
       116  25 -5.316128E+06 -9.406188E+05 -2.459514E+05 -1.954011E+06 -4.164448E+04  6.556073E+03
       116  26 -5.390413E+06 -9.422372E+05 -3.028400E+05 -1.955501E+06 -9.017783E+04 -7.795812E+03
       116  27 -5.457394E+06 -1.097703E+06 -4.229531E+05 -1.989560E+06 -1.376889E+05 -2.486485E+04
       117   1 -3.591545E+06 -3.335252E+05  3.462660E+04 -1.580918E+06  1.783687E+05  3.466976E+04
       117   2 -3.525436E+06 -1.154968E+05 -9.874004E+04 -1.436390E+06  3.757054E+05  1.063160E+05
       117   3 -3.771157E+06 -7.731767E+05 -6.101225E+05 -1.106093E+06  5.641179E+05  2.016787E+05
       117   4 -4.631326E+06 -6.511184E+05 -2.298335E+05 -1.787058E+06  1.724650E+05  3.247070E+04
       117   5 -4.521788E+06 -5.393898E+05 -3.750410E+05 -1.756612E+06  3.790022E+05  1.075207E+05
       117   6 -4.726497E+06 -1.306125E+06 -9.060823E+05 -1.540241E+06  5.766188E+05  2.062120E+05
       117   7 -5.670057E+06 -9.687265E+05 -4.943767E+05 -1.992926E+06  1.665721E+05  3.027389E+04
       117   8 -5.517167E+06 -9.631459E+05 -6.514343E+05 -2.076339E+06  3.822927E+05  1.087223E+05
       117   9 -5.680867E+06 -1.838641E+06 -1.202128E+06 -1.973673E+06  5.890979E+05  2.107282E+05
       117  10 -3.591580E+06 -3.335351E+05  3.456414E+04 -1.580923E+06  6.552706E-10 -1.308222E-09
       117  11 -3.525591E+06 -1.155473E+05 -9.902846E+04 -1.436422E+06  3.583138E-09 -4.238134E-09
       117  12 -3.771511E+06 -7.733067E+05 -6.108014E+05 -1.106185E+06 -1.840466E-09 -1.769504E-09
       117  13 -4.631359E+06 -6.511276E+05 -2.298919E+05 -1.787063E+06 -3.196194E-09 -8.521083E-11
       117  14 -4.521947E+06 -5.394413E+05 -3.753351E+05 -1.756645E+06  3.723976E-09 -1.794706E-09
       117  15 -4.726868E+06 -1.306261E+06 -9.067930E+05 -1.540338E+06 -1.357388E-09 -7.891163E-10
       117  16 -5.670088E+06 -9.687351E+05 -4.944311E+05 -1.992930E+06 -1.482011E-09 -7.981239E-10
       117  17 -5.517328E+06 -9.631984E+05 -6.517342E+05 -2.076373E+06 -3.794949E-09  1.734397E-10
       117  18 -5.681255E+06 -1.838784E+06 -1.202871E+06 -1.973773E+06  2.029906E-09 -1.381314E-10
       117  19 -3.591545E+06 -3.335252E+05  3.462660E+04 -1.580918E+06 -1.783687E+05 -3.466976E+04
       117  20 -3.525436E+06 -1.154968E+05 -9.874004E+04 -1.436390E+06 -3.757054E+05 -1.063160E+05
       117  21 -3.771157E+06 -7.731767E+05 -6.101225E+05 -1.106093E+06 -5.641179E+05 -2.016787E+05
       117  22 -4.631326E+06 -6.511184E+05 -2.298335E+05 -1.787058E+06 -1.724650E+05 -3.247070E+04
       117  23 -4.521788E+06 -5.393898E+05 -3.750410E+05 -1.756612E+06 -3.790022E+05 -1.075207E+05
       117  24 -4.726497E+06 -1.306125E+06 -9.060823E+05 -1.540241E+06 -5.766188E+05 -2.062120E+05
       117  25 -5.670057E+06 -9.687265E+05 -4.943767E+05 -1.992926E+06 -1.665721E+05 -3.027389E+04
       117  26 -5.517167E+06 -9.631459E+05 -6.514343E+05 -2.076339E+06 -3.822927E+05 -1.087223E+05
       117  27 -5.680867E+06 -1.838641E+06 -1.202128E+06 -1.973673E+06 -5.890979E+05 -2.107282E+05
       118   1 -1.054594E+06  1.373878E+05  2.005392E+05  2.149890E+04  1.846305E+05  1.794387E+03
       118   2 -1.091201E+06 -1.174143E+05  4.636568E+04  6.265479E+03  1.217537E+05  4.194387E+03
       118   3 -1.045018E+06 -7.665510E+04  7.221857E+03 -1.871277E+04  5.888200E+04  3.496102E+03
       118   4 -7.682470E+05  2.088467E+05  2.719909E+05 -5.528591E+03  1.854763E+05  1.788133E+03
       118   5 -8.097290E+05 -4.710158E+04  1.163040E+05 -4.074362E+02  1.219788E+05  4.193313E+03
       118   6 -7.683494E+05 -7.453328E+03  7.604081E+04 -5.031787E+03  5.848697E+04  3.496700E+03
       118   7 -4.818236E+05  2.803022E+05  3.434368E+05 -3.256861E+04  1.863224E+05  1.781808E+03
       118   8 -5.281844E+05  2.320538E+04  1.862365E+05 -7.083418E+03  1.222040E+05  4.192235E+03
       118   9 -4.916109E+05  6.174338E+04  1.448541E+05  8.655282E+03  5.809175E+04  3.497280E+03
       118  10 -1.054631E+06  1.373786E+05  2.004751E+05  2.149863E+04  1.422816E-10  7.085776E-10
       118  11 -1.091217E+06 -1.174183E+05  4.633774E+04  6.265068E+03  6.211899E-11 -3.157860E-10
       118  12 -1.045022E+06 -7.665605E+04  7.215308E+03 -1.871294E+04  5.355553E-10  7.005806E-11
       118  13 -7.682839E+05  2.088374E+05  2.719261E+05 -5.528859E+03  2.219651E-09  6.405196E-10
       118  14 -8.097450E+05 -4.710560E+04  1.162760E+05 -4.078482E+02  3.522929E-10 -2.031346E-09
       118  15 -7.683531E+05 -7.454261E+03  7.603435E+04 -5.031952E+03  4.612147E-10  1.927552E-10
       118  16 -4.818609E+05  2.802928E+05  3.433715E+05 -3.256888E+04  3.784730E-10 -4.527548E-10
       118  17 -5.282005E+05  2.320135E+04  1.862084E+05 -7.083830E+03 -6.147415E-10 -3.421591E-10
       118  18 -4.916145E+05  6.174246E+04  1.448477E+05  8.655119E+03 -4.790334E-10  5.274762E-11
       118  19 -1.054594E+06  1.373878E+05  2.005392E+05  2.149890E+04 -1.846305E+05 -1.794387E+03
       118  20 -1.091201E+06 -1.174143E+05  4.636568E+04  6.265479E+03 -1.217537E+05 -4.194387E+03
       118  21 -1.045018E+06 -7.665510E+04  7.221857E+03 -1.871277E+04 -5.888200E+04 -3.496102E+03
       118  22 -7.682470E+05  2.088467E+05  2.719909E+05 -5.528591E+03 -1.854763E+05 -1.788133E+03
       118  23 -8.097290E+05 -4.710158E+04  1.163040E+05 -4.074362E+02 -1.219788E+05 -4.193313E+03
       118  24 -7.683494E+05 -7.453328E+03  7.604081E+04 -5.031787E+03 -5.848697E+04 -3.496700E+03
       118  25 -4.818236E+05  2.803022E+05  3.434368E+05 -3.256861E+04 -1.863224E+05 -1.781808E+03
       118  26 -5.281844E+05  2.320538E+04  1.862365E+05 -7.083418E+03 -1.222040E+05 -4.192235E+03
       118  27 -4.916109E+05  6.174338E+04  1.448541E+05  8.655282E+03 -5.809175E+04 -3.497280E+03
       119   1 -1.025409E+06 -2.961887E+04  2.723330E+03 -2.573748E+03  4.588231E+04  2.869841E+03
       119   2 -1.024862E+06 -6.555425E+04 -2.816385E+04  1.689172E+03  3.021626E+04  3.020061E+03
       119   3 -1.010904E+06 -5.784795E+04 -3.783579E+04 -8.268524E+03  1.455071E+04  2.636229E+03
       119   4 -7.837517E+05  3.077416E+04  6.284340E+04 -6.208542E+03  4.597822E+04  2.869603E+03
       119   5 -7.904746E+05 -6.974106E+03  3.011744E+04  9.204027E+02  3.020430E+04  3.019934E+03
       119   6 -7.837710E+05 -1.070854E+03  1.867595E+04 -6.170942E+03  1.443108E+04  2.636158E+03
       119   7 -5.420417E+05  9.116284E+04  1.229591E+05 -9.844769E+03  4.607417E+04  2.869365E+03
       119   8 -5.560369E+05  5.160191E+04  8.839462E+04  1.513320E+02  3.019235E+04  3.019807E+03
       119   9 -5.565915E+05  5.570238E+04  7.518381E+04 -4.072598E+03  1.431140E+04  2.636086E+03
       119  10 -1.025411E+06 -2.961944E+04  2.719352E+03 -2.573855E+03 -2.697117E-09 -1.355422E-09
       119  11 -1.024863E+06 -6.555451E+04 -2.816558E+04  1.689098E+03 -1.116547E-09  1.003133E-09
       119  12 -1.010904E+06 -5.784802E+04 -3.783620E+04 -8.268554E+03 -5.911322E-10 -4.056269E-10
       119  13 -7.837540E+05  3.077358E+04  6.283940E+04 -6.208648E+03  6.553963E-13 -5.144341E-10
       119  14 -7.904756E+05 -6.974361E+03  3.011571E+04  9.203292E+02  2.095174E-09  6.902377E-12
       119  15 -7.837712E+05 -1.070917E+03  1.867554E+04 -6.170973E+03  4.511715E-09 -1.522539E-10
       119  16 -5.420440E+05  9.116226E+04  1.229551E+05 -9.844875E+03  5.942480E-10  3.040301E-10
       119  17 -5.560379E+05  5.160166E+04  8.839289E+04  1.512585E+02  3.772351E-09 -1.580116E-09
       119  18 -5.565917E+05  5.570232E+04  7.518342E+04 -4.072628E+03  4.308495E-10  7.696709E-10
       119  19 -1.025409E+06 -2.961887E+04  2.723330E+03 -2.573748E+03 -4.588231E+04 -2.869841E+03
       119  20 -1.024862E+06 -6.555425E+04 -2.816385E+04  1.689172E+03 -3.021626E+04 -3.020061E+03
       119  21 -1.010904E+06 -5.784795E+04 -3.783579E+04 -8.268524E+03 -1.455071E+04 -2.636229E+03
       119  22 -7.837517E+05  3.077416E+04  6.284340E+04 -6.208542E+03 -4.597822E+04 -2.869603E+03
       119  23 -7.904746E+05 -6.974106E+03  3.011744E+04  9.204027E+02 -3.020430E+04 -3.019934E+03
       119  24 -7.837710E+05 -1.070854E+03  1.867595E+04 -6.170942E+03 -1.443108E+04 -2.636158E+03
       119  25 -5.420417E+05  9.116284E+04  1.229591E+05 -9.844769E+03 -4.607417E+04 -2.869365E+03
       119  26 -5.560369E+05  5.160191E+04  8.839462E+04  1.513320E+02 -3.019235E+04 -3.019807E+03
       119  27 -5.565915E+05  5.570238E+04  7.518381E+04 -4.072598E+03 -1.431140E+04 -2.636086E+03
       120   1 -9.647853E+05 -4.013064E+04 -2.947783E+04 -6.571157E+03  1.142999E+04  2.377363E+03
       120   2 -9.567132E+05 -4.334854E+04 -3.443876E+04  2.101994E+03  7.536864E+03  2.125591E+03
       120   3 -9.463068E+05 -4.015343E+04 -3.521377E+04 -7.318381E+03  3.643415E+03  1.738876E+03
       120   4 -7.862254E+05  4.493279E+03  1.490879E+04 -7.043815E+03  1.139707E+04  2.377300E+03
       120   5 -7.873972E+05 -1.031358E+03  7.665746E+03  2.003411E+03  7.477066E+03  2.125551E+03
       120   6 -7.862308E+05 -1.393164E+02  4.626429E+03 -7.042570E+03  3.556793E+03  1.738870E+03
       120   7 -6.076366E+05  4.911480E+04  5.929302E+04 -7.516611E+03  1.136415E+04  2.377238E+03
       120   8 -6.180552E+05  4.128367E+04  4.976810E+04  1.904801E+03  7.417252E+03  2.125511E+03
       120   9 -6.261315E+05  3.987286E+04  4.446470E+04 -6.766686E+03  3.470149E+03  1.738865E+03
       120  10 -9.647854E+05 -4.013068E+04 -2.947809E+04 -6.571179E+03 -6.157838E-10 -4.990335E-11
       120  11 -9.567132E+05 -4.334856E+04 -3.443887E+04  2.101981E+03 -2.685713E-09  5.876319E-10
       120  12 -9.463068E+05 -4.015343E+04 -3.521380E+04 -7.318386E+03  1.691246E-09 -8.957894E-11
       120  13 -7.862256E+05  4.493238E+03  1.490854E+04 -7.043837E+03 -1.051433E-09  4.656789E-11
       120  14 -7.873973E+05 -1.031377E+03  7.665633E+03  2.003398E+03  2.007816E-09 -7.976721E-11
       120  15 -7.862308E+05 -1.393231E+02  4.626400E+03 -7.042575E+03  1.665219E-09 -1.654618E-11
       120  16 -6.076368E+05  4.911476E+04  5.929277E+04 -7.516633E+03 -5.722235E-10  4.974084E-10
       120  17 -6.180552E+05  4.128365E+04  4.976799E+04  1.904788E+03  2.365160E-09 -8.199358E-10
       120  18 -6.261315E+05  3.987286E+04  4.446467E+04 -6.766691E+03  6.764299E-10  5.387801E-10
       120  19 -9.647853E+05 -4.013064E+04 -2.947783E+04 -6.571157E+03 -1.142999E+04 -2.377363E+03
       120  20 -9.567132E+05 -4.334854E+04 -3.443876E+04  2.101994E+03 -7.536864E+03 -2.125591E+03
       120  21 -9.463068E+05 -4.015343E+04 -3.521377E+04 -7.318381E+03 -3.643415E+03 -1.738876E+03
       120  22 -7.862254E+05  4.493279E+03  1.490879E+04 -7.043815E+03 -1.139707E+04 -2.377300E+03
       120  23 -7.873972E+05 -1.031358E+03  7.665746E+03  2.003411E+03 -7.477066E+03 -2.125551E+03
       120  24 -7.862308E+05 -1.393164E+02  4.626429E+03 -7.042570E+03 -3.556793E+03 -1.738870E+03
       120  25 -6.076366E+05  4.911480E+04  5.929302E+04 -7.516611E+03 -1.136415E+04 -2.377238E+03
       120  26 -6.180552E+05  4.128367E+04  4.976810E+04  1.904801E+03 -7.417252E+03 -2.125511E+03
       120  27 -6.261315E+05  3.987286E+04  4.446470E+04 -6.766686E+03 -3.470149E+03 -1.738865E+03
       121   1 -8.884482E+05 -2.478762E+04 -2.166654E+04 -7.514142E+03  2.875112E+03  1.503871E+03
       121   2 -8.781182E+05 -2.296180E+04 -2.072402E+04  2.744158E+03  1.891587E+03  1.140628E+03
       121   3 -8.673825E+05 -2.018118E+04 -1.889406E+04 -7.609965E+03  9.078755E+02  7.307039E+02
       121   4 -7.866544E+05  6.470573E+02  3.617559E+03 -7.602474E+03  2.810156E+03  1.503879E+03
       121   5 -7.868589E+05 -1.543071E+02  1.969272E+03  2.703524E+03  1.817531E+03  1.140654E+03
       121   6 -7.866563E+05  6.386076E-01  1.214656E+03 -7.602711E+03  8.247365E+02  7.307519E+02
       121   7 -6.848511E+05  2.608095E+04  2.890088E+04 -7.690818E+03  2.745188E+03  1.503886E+03
       121   8 -6.955920E+05  2.265256E+04  2.466194E+04  2.662885E+03  1.743464E+03  1.140680E+03
       121   9 -7.059242E+05  2.018197E+04  2.132288E+04 -7.595456E+03  7.415867E+02  7.307999E+02
       121  10 -8.884482E+05 -2.478762E+04 -2.166656E+04 -7.514146E+03  1.257229E-10 -5.926353E-12
       121  11 -8.781182E+05 -2.296180E+04 -2.072403E+04  2.744156E+03  1.254040E-09  9.209106E-10
       121  12 -8.673825E+05 -2.018118E+04 -1.889406E+04 -7.609965E+03 -5.479831E-10 -3.089612E-10
       121  13 -7.866544E+05  6.470527E+02  3.617540E+03 -7.602477E+03 -2.928364E-09  4.773823E-10
       121  14 -7.868589E+05 -1.543094E+02  1.969263E+03  2.703522E+03 -1.096816E-10 -4.144243E-10
       121  15 -7.866563E+05  6.378514E-01  1.214653E+03 -7.602712E+03 -2.444992E-09 -6.272309E-10
       121  16 -6.848511E+05  2.608095E+04  2.890086E+04 -7.690822E+03 -1.378737E-09 -7.815169E-11
       121  17 -6.955920E+05  2.265256E+04  2.466193E+04  2.662883E+03  1.436634E-09 -5.754053E-10
       121  18 -7.059242E+05  2.018197E+04  2.132288E+04 -7.595457E+03  2.110716E-10 -7.416723E-10
       121  19 -8.884482E+05 -2.478762E+04 -2.166654E+04 -7.514142E+03 -2.875112E+03 -1.503871E+03
       121  20 -8.781182E+05 -2.296180E+04 -2.072402E+04  2.744158E+03 -1.891587E+03 -1.140628E+03
       121  21 -8.673825E+05 -2.018118E+04 -1.889406E+04 -7.609965E+03 -9.078755E+02 -7.307039E+02
       121  22 -7.866544E+05  6.470573E+02  3.617559E+03 -7.602474E+03 -2.810156E+03 -1.503879E+03
       121  23 -7.868589E+05 -1.543071E+02  1.969272E+03  2.703524E+03 -1.817531E+03 -1.140654E+03
       121  24 -7.866563E+05  6.386076E-01  1.214656E+03 -7.602711E+03 -8.247365E+02 -7.307519E+02
       121  25 -6.848511E+05  2.608095E+04  2.890088E+04 -7.690818E+03 -2.745188E+03 -1.503886E+03
       121  26 -6.955920E+05  2.265256E+04  2.466194E+04  2.662885E+03 -1.743464E+03 -1.140680E+03
       121  27 -7.059242E+05  2.018197E+04  2.132288E+04 -7.595456E+03 -7.415867E+02 -7.307999E+02
       122   1 -8.039498E+05 -4.199396E+03 -3.275366E+03 -7.794628E+03  7.048354E+02  4.832971E+02
       122   2 -7.929642E+05 -1.585905E+03 -8.923955E+02  2.967258E+03  3.787767E+02  7.623891E+01
       122   3 -7.819157E+05  1.257536E+03  1.752875E+03 -7.826775E+03  5.270943E+01 -3.266546E+02
       122   4 -7.867307E+05  9.710273E+01  9.727337E+02 -7.812299E+03  6.263211E+02  4.833507E+02
       122   5 -7.867622E+05 -3.595948E+01  6.498988E+02  2.965641E+03  3.010538E+02  7.629290E+01
       122   6 -7.867309E+05  6.083709E+01  5.888573E+02 -7.812323E+03 -2.421629E+01 -3.265999E+02
       122   7 -7.695114E+05  4.393579E+03  5.220811E+03 -7.829970E+03  5.478046E+02  4.834044E+02
       122   8 -7.805602E+05  1.513983E+03  2.192190E+03  2.964025E+03  2.233301E+02  7.634689E+01
       122   9 -7.915460E+05 -1.135863E+03 -5.751620E+02 -7.797872E+03 -1.011414E+02 -3.265452E+02
       122  10 -8.039498E+05 -4.199396E+03 -3.275367E+03 -7.794628E+03 -1.605809E-09 -6.440516E-10
       122  11 -7.929642E+05 -1.585905E+03 -8.923958E+02  2.967258E+03  7.622985E-14  6.173416E-10
       122  12 -7.819157E+05  1.257535E+03  1.752875E+03 -7.826775E+03 -3.836704E-10 -4.715733E-10
       122  13 -7.867307E+05  9.710238E+01  9.727325E+02 -7.812299E+03  1.394824E-09  5.509361E-10
       122  14 -7.867622E+05 -3.595951E+01  6.498986E+02  2.965641E+03  2.484182E-09  9.585658E-10
       122  15 -7.867309E+05  6.083697E+01  5.888571E+02 -7.812323E+03 -4.746887E-09 -7.966029E-10
       122  16 -7.695114E+05  4.393579E+03  5.220810E+03 -7.829970E+03 -1.135555E-09  1.410852E-10
       122  17 -7.805602E+05  1.513983E+03  2.192190E+03  2.964025E+03 -6.878165E-10  3.570765E-10
       122  18 -7.915460E+05 -1.135863E+03 -5.751623E+02 -7.797872E+03 -1.377652E-09  4.059951E-10
       122  19 -8.039498E+05 -4.199396E+03 -3.275366E+03 -7.794628E+03 -7.048354E+02 -4.832971E+02
       122  20 -7.929642E+05 -1.585905E+03 -8.923955E+02  2.967258E+03 -3.787767E+02 -7.623891E+01
       122  21 -7.819157E+05  1.257536E+03  1.752875E+03 -7.826775E+03 -5.270943E+01  3.266546E+02
       122  22 -7.867307E+05  9.710273E+01  9.727337E+02 -7.812299E+03 -6.263211E+02 -4.833507E+02
       122  23 -7.867622E+05 -3.595948E+01  6.498988E+02  2.965641E+03 -3.010538E+02 -7.629290E+01
       122  24 -7.867309E+05  6.083709E+01  5.888573E+02 -7.812323E+03  2.421629E+01  3.265999E+02
       122  25 -7.695114E+05  4.393579E+03  5.220811E+03 -7.829970E+03 -5.478046E+02 -4.834044E+02
       122  26 -7.805602E+05  1.513983E+03  2.192190E+03  2.964025E+03 -2.233301E+02 -7.634689E+01
       122  27 -7.915460E+05 -1.135863E+03 -5.751620E+02 -7.797872E+03  1.011414E+02  3.265452E+02
       123   1 -7.180165E+05  1.718256E+04  1.772442E+04 -7.664725E+03 -4.464202E+01 -5.814583E+02
       123   2 -7.074685E+05  1.973235E+04  2.050249E+04  2.727107E+03 -4.577391E+02 -9.991691E+02
       123   3 -6.967001E+05  2.286676E+04  2.369978E+04 -7.727158E+03 -8.706751E+02 -1.327880E+03
       123   4 -7.866982E+05  1.241741E+01  6.124151E+02 -7.654685E+03 -1.333513E+02 -5.814020E+02
       123   5 -7.868061E+05 -9.345978E+01  7.766539E+02  2.768525E+03 -5.293321E+02 -9.991381E+02
       123   6 -7.866968E+05  3.823204E+02  1.348226E+03 -7.654528E+03 -9.251444E+02 -1.327869E+03
       123   7 -8.553756E+05 -1.715808E+04 -1.649994E+04 -7.644646E+03 -2.220507E+02 -5.813458E+02
       123   8 -8.661380E+05 -1.991974E+04 -1.894965E+04  2.809939E+03 -6.009159E+02 -9.991071E+02
       123   9 -8.766862E+05 -2.210273E+04 -2.100394E+04 -7.581907E+03 -9.796059E+02 -1.327858E+03
       123  10 -7.180165E+05  1.718256E+04  1.772442E+04 -7.664725E+03  1.511825E-09  2.068370E-10
       123  11 -7.074685E+05  1.973235E+04  2.050249E+04  2.727107E+03  1.975310E-09 -8.250267E-11
       123  12 -6.967001E+05  2.286676E+04  2.369978E+04 -7.727159E+03 -1.139398E-09  2.635021E-10
       123  13 -7.866982E+05  1.241704E+01  6.124144E+02 -7.654685E+03 -4.607891E-09 -6.191893E-10
       123  14 -7.868061E+05 -9.346093E+01  7.766515E+02  2.768525E+03 -2.544246E-09 -1.199002E-09
       123  15 -7.866968E+05  3.823182E+02  1.348221E+03 -7.654529E+03  1.047468E-09  4.972664E-10
       123  16 -8.553756E+05 -1.715808E+04 -1.649994E+04 -7.644646E+03 -2.146475E-09  7.930326E-10
       123  17 -8.661380E+05 -1.991975E+04 -1.894966E+04  2.809939E+03 -3.587366E-09 -1.339896E-09
       123  18 -8.766862E+05 -2.210273E+04 -2.100395E+04 -7.581908E+03  1.009258E-09  2.384676E-10
       123  19 -7.180165E+05  1.718256E+04  1.772442E+04 -7.664725E+03  4.464202E+01  5.814583E+02
       123  20 -7.074685E+05  1.973235E+04  2.050249E+04  2.727107E+03  4.577391E+02  9.991691E+02
       123  21 -6.967001E+05  2.286676E+04  2.369978E+04 -7.727158E+03  8.706751E+02  1.327880E+03
       123  22 -7.866982E+05  1.241741E+01  6.124151E+02 -7.654685E+03  1.333513E+02  5.814020E+02
       123  23 -7.868061E+05 -9.345978E+01  7.766539E+02  2.768525E+03  5.293321E+02  9.991381E+02
       123  24 -7.866968E+05  3.823204E+02  1.348226E+03 -7.654528E+03  9.251444E+02  1.327869E+03
       123  25 -8.553756E+05 -1.715808E+04 -1.649994E+04 -7.644646E+03  2.220507E+02  5.813458E+02
       123  26 -8.661380E+05 -1.991974E+04 -1.894965E+04  2.809939E+03  6.009159E+02  9.991071E+02
       123  27 -8.766862E+05 -2.210273E+04 -2.100394E+04 -7.581907E+03  9.796059E+02  1.327858E+03
       124   1 -6.371338E+05  3.724054E+04  3.882276E+04 -7.007421E+03 -1.074257E+03 -1.614531E+03
       124   2 -6.283127E+05  3.907534E+04  4.208130E+04  2.042184E+03 -2.527098E+03 -2.039547E+03
       124   3 -6.181674E+05  4.468277E+04  4.726803E+04 -7.447918E+03 -3.979779E+03 -2.017789E+03
       124   4 -7.864592E+05 -7.949924E+01  1.664140E+03 -7.142064E+03 -1.198535E+03 -1.614516E+03
       124   5 -7.871121E+05 -6.044046E+02  2.605584E+03  2.127718E+03 -2.565349E+03 -2.039578E+03
       124   6 -7.864557E+05  2.628885E+03  5.415778E+03 -7.142500E+03 -3.931981E+03 -2.017817E+03
       124   7 -9.357643E+05 -3.740122E+04 -3.549616E+04 -7.276672E+03 -1.322783E+03 -1.614500E+03
       124   8 -9.458887E+05 -4.028605E+04 -3.687202E+04  2.213231E+03 -2.603590E+03 -2.039609E+03
       124   9 -9.547183E+05 -3.942713E+04 -3.643859E+04 -6.837165E+03 -3.884195E+03 -2.017845E+03
       124  10 -6.371338E+05  3.724054E+04  3.882276E+04 -7.007423E+03 -5.124858E-10  7.048684E-11
       124  11 -6.283127E+05  3.907534E+04  4.208128E+04  2.042180E+03 -6.421943E-10 -3.640801E-10
       124  12 -6.181674E+05  4.468277E+04  4.726799E+04 -7.447924E+03  3.836023E-10 -2.892087E-10
       124  13 -7.864592E+05 -7.950243E+01  1.664132E+03 -7.142065E+03  1.059702E-09  3.702026E-10
       124  14 -7.871121E+05 -6.044108E+02  2.605564E+03  2.127714E+03 -3.368891E-09 -2.999163E-10
       124  15 -7.864557E+05  2.628877E+03  5.415742E+03 -7.142506E+03  2.576485E-09 -2.260666E-10
       124  16 -9.357643E+05 -3.740122E+04 -3.549616E+04 -7.276674E+03  7.995945E-10  7.876595E-10
       124  17 -9.458887E+05 -4.028605E+04 -3.687204E+04  2.213227E+03 -2.190528E-10 -2.192980E-10
       124  18 -9.547184E+05 -3.942714E+04 -3.643863E+04 -6.837172E+03  4.512837E-10  1.762369E-11
       124  19 -6.371338E+05  3.724054E+04  3.882276E+04 -7.007421E+03  1.074257E+03  1.614531E+03
       124  20 -6.283127E+05  3.907534E+04  4.208130E+04  2.042184E+03  2.527098E+03  2.039547E+03
       124  21 -6.181674E+05  4.468277E+04  4.726803E+04 -7.447918E+03  3.979779E+03  2.017789E+03
       124  22 -7.864592E+05 -7.949924E+01  1.664140E+03 -7.142064E+03  1.198535E+03  1.614516E+03
       124  23 -7.871121E+05 -6.044046E+02  2.605584E+03  2.127718E+03  2.565349E+03  2.039578E+03
       124  24 -7.864557E+05  2.628885E+03  5.415778E+03 -7.142500E+03  3.931981E+03  2.017817E+03
       124  25 -9.357643E+05 -3.740122E+04 -3.549616E+04 -7.276672E+03  1.322783E+03  1.614500E+03
       124  26 -9.458887E+05 -4.028605E+04 -3.687202E+04  2.213231E+03  2.603590E+03  2.039609E+03
       124  27 -9.547183E+05 -3.942713E+04 -3.643859E+04 -6.837165E+03  3.884195E+03  2.017845E+03
       125   1 -5.665692E+05  5.396889E+04  6.090144E+04 -5.105206E+03 -4.641089E+03 -2.607326E+03
       125   2 -5.627536E+05  5.241887E+04  6.612465E+04  6.056930E+02 -1.060680E+04 -3.211716E+03
       125   3 -5.513626E+05  7.637548E+04  8.169574E+04 -8.504991E+03 -1.657492E+04 -1.131210E+03
       125   4 -7.850911E+05 -6.378879E+02  6.556246E+03 -6.310208E+03 -5.012968E+03 -2.607510E+03
       125   5 -7.888302E+05 -4.061011E+03  9.964699E+03  1.091125E+03 -1.046176E+04 -3.211695E+03
       125   6 -7.850811E+05  1.793759E+04  2.336442E+04 -6.329458E+03 -1.591287E+04 -1.130588E+03
       125   7 -1.003570E+06 -5.524825E+04 -4.779253E+04 -7.514789E+03 -5.384716E+03 -2.607692E+03
       125   8 -1.014860E+06 -6.054473E+04 -4.619907E+04  1.576371E+03 -1.031676E+04 -3.211674E+03
       125   9 -1.018750E+06 -4.050441E+04 -3.497102E+04 -4.154758E+03 -1.525108E+04 -1.129962E+03
       125  10 -5.665692E+05  5.396887E+04  6.090139E+04 -5.105215E+03 -5.794028E-10 -2.503227E-10
       125  11 -5.627537E+05  5.241883E+04  6.612442E+04  6.056656E+02 -2.345502E-09  5.780936E-10
       125  12 -5.513629E+05  7.637541E+04  8.169522E+04 -8.505006E+03 -6.709799E-10  5.632570E-10
       125  13 -7.850911E+05 -6.379020E+02  6.556186E+03 -6.310218E+03 -1.573235E-09 -5.117394E-10
       125  14 -7.888303E+05 -4.061051E+03  9.964474E+03  1.091097E+03  2.112213E-09  4.011459E-10
       125  15 -7.850814E+05  1.793752E+04  2.336394E+04 -6.329473E+03  2.528003E-09 -2.856342E-10
       125  16 -1.003570E+06 -5.524826E+04 -4.779259E+04 -7.514800E+03  6.517424E-10  4.686599E-11
       125  17 -1.014860E+06 -6.054477E+04 -4.619929E+04  1.576344E+03 -1.166237E-09 -5.242812E-11
       125  18 -1.018750E+06 -4.050448E+04 -3.497146E+04 -4.154772E+03  4.409373E-10  1.178180E-09
       125  19 -5.665692E+05  5.396889E+04  6.090144E+04 -5.105206E+03  4.641089E+03  2.607326E+03
       125  20 -5.627536E+05  5.241887E+04  6.612465E+04  6.056930E+02  1.060680E+04  3.211716E+03
       125  21 -5.513626E+05  7.637548E+04  8.169574E+04 -8.504991E+03  1.657492E+04  1.131210E+03
       125  22 -7.850911E+05 -6.378879E+02  6.556246E+03 -6.310208E+03  5.012968E+03  2.607510E+03
       125  23 -7.888302E+05 -4.061011E+03  9.964699E+03  1.091125E+03  1.046176E+04  3.211695E+03
       125  24 -7.850811E+05  1.793759E+04  2.336442E+04 -6.329458E+03  1.591287E+04  1.130588E+03
       125  25 -1.003570E+06 -5.524825E+04 -4.779253E+04 -7.514789E+03  5.384716E+03  2.607692E+03
       125  26 -1.014860E+06 -6.054473E+04 -4.619907E+04  1.576371E+03  1.031676E+04  3.211674E+03
       125  27 -1.018750E+06 -4.050441E+04 -3.497102E+04 -4.154758E+03  1.525108E+04  1.129962E+03
       126   1  2.402811E+05 -1.175588E+06  2.315649E+05 -9.296163E+04  8.788831E+03  2.760443E+03
       126   2  2.102056E+05 -1.368001E+06  1.858152E+05 -1.202335E+04  2.423981E+04  1.181282E+03
       126   3  1.574736E+05 -1.566170E+06  1.353932E+05 -1.005355E+05  1.678917E+04 -4.727044E+02
       126   4 -1.660442E+04 -2.203342E+06 -2.336544E+04 -9.597734E+04  8.822954E+03 -8.831975E+03
       126   5  3.278333E+03 -2.199557E+06 -1.566071E+04 -1.122289E+04  2.424776E+04 -5.408324E+02
       126   6 -1.227161E+03 -2.203287E+06 -1.950220E+04 -9.593422E+04  1.675740E+04  7.675072E+03
       126   7 -2.735692E+05 -3.230134E+06 -2.783743E+05 -9.898728E+04  8.857221E+03 -2.040517E+04
       126   8 -2.036998E+05 -3.030479E+06 -2.171865E+05 -1.042298E+04  2.425572E+04 -2.260642E+03
       126   9 -1.599578E+05 -2.840033E+06 -1.744268E+05 -9.133723E+04  1.672574E+04  1.581449E+04
       126  10  2.402810E+05 -1.175588E+06  2.315648E+05 -9.296165E+04 -7.504025E-10 -1.398610E-09
       126  11  2.102050E+05 -1.368001E+06  1.858141E+05 -1.202337E+04  1.218417E-09  1.483431E-09
       126  12  1.574733E+05 -1.566170E+06  1.353927E+05 -1.005355E+05  3.101921E-10 -1.365438E-09
       126  13 -1.660453E+04 -2.203342E+06 -2.336574E+04 -9.597727E+04  5.149051E-10  2.588748E-09
       126  14  3.277702E+03 -2.199557E+06 -1.566181E+04 -1.122288E+04  2.807811E-09  1.776114E-09
       126  15 -1.227478E+03 -2.203287E+06 -1.950284E+04 -9.593432E+04  1.767537E-09  2.419571E-09
       126  16 -2.735694E+05 -3.230135E+06 -2.783752E+05 -9.898713E+04  7.813367E-10  8.587241E-10
       126  17 -2.037005E+05 -3.030479E+06 -2.171876E+05 -1.042294E+04 -3.589664E-09 -6.578736E-10
       126  18 -1.599582E+05 -2.840033E+06 -1.744278E+05 -9.133744E+04 -8.057357E-10  3.621785E-10
       126  19  2.402811E+05 -1.175588E+06  2.315649E+05 -9.296163E+04 -8.788831E+03 -2.760443E+03
       126  20  2.102056E+05 -1.368001E+06  1.858152E+05 -1.202335E+04 -2.423981E+04 -1.181282E+03
       126  21  1.574736E+05 -1.566170E+06  1.353932E+05 -1.005355E+05 -1.678917E+04  4.727044E+02
       126  22 -1.660442E+04 -2.203342E+06 -2.336544E+04 -9.597734E+04 -8.822954E+03  8.831975E+03
       126  23  3.278333E+03 -2.199557E+06 -1.566071E+04 -1.122289E+04 -2.424776E+04  5.408324E+02
       126  24 -1.227161E+03 -2.203287E+06 -1.950220E+04 -9.593422E+04 -1.675740E+04 -7.675072E+03
       126  25 -2.735692E+05 -3.230134E+06 -2.783743E+05 -9.898728E+04 -8.857221E+03  2.040517E+04
       126  26 -2.036998E+05 -3.030479E+06 -2.171865E+05 -1.042298E+04 -2.425572E+04  2.260642E+03
       126  27 -1.599578E+05 -2.840033E+06 -1.744268E+05 -9.133723E+04 -1.672574E+04 -1.581449E+04
       127   1  7.794332E+04 -1.890864E+06  5.337782E+04 -9.435787E+04  8.710362E+03  9.001443E+03
       127   2  3.280836E+04 -2.085335E+06 -5.498801E+03 -1.152967E+04  2.999237E+03  2.575756E+04
       127   3 -4.581276E+04 -2.292136E+06 -8.406666E+04 -1.035424E+05 -3.113211E+03  4.250471E+04
       127   4 -6.209087E+01 -2.204280E+06 -2.268739E+04 -9.711075E+04  8.700678E+03  1.134412E+04
       127   5  4.708071E+03 -2.198099E+06 -3.288623E+04 -9.739977E+03  2.988673E+03  2.827022E+04
       127   6 -2.403646E+04 -2.204312E+06 -6.289102E+04 -9.721361E+04 -3.124537E+03  4.519270E+04
       127   7 -7.807470E+04 -2.517607E+06 -9.875967E+04 -9.986213E+04  8.690970E+03  1.368561E+04
       127   8 -2.339314E+04 -2.310852E+06 -6.027456E+04 -7.950603E+03  2.978121E+03  3.078242E+04
       127   9 -2.260570E+03 -2.116479E+06 -4.171587E+04 -9.088395E+04 -3.135807E+03  4.788108E+04
       127  10  7.794322E+04 -1.890864E+06  5.337753E+04 -9.435793E+04 -8.576754E-10 -7.766284E-09
       127  11  3.280817E+04 -2.085336E+06 -5.500069E+03 -1.152973E+04 -8.464348E-10 -1.398148E-09
       127  12 -4.581326E+04 -2.292138E+06 -8.407009E+04 -1.035423E+05  4.122394E-09  1.967538E-10
       127  13 -6.220680E+01 -2.204280E+06 -2.268777E+04 -9.711083E+04  2.209490E-09  4.626518E-09
       127  14  4.707846E+03 -2.198100E+06 -3.288776E+04 -9.740045E+03  1.845860E-10  2.288142E-09
       127  15 -2.403703E+04 -2.204314E+06 -6.289489E+04 -9.721350E+04  5.345190E-09  2.774828E-09
       127  16 -7.807483E+04 -2.517607E+06 -9.876017E+04 -9.986223E+04 -5.815324E-10  6.603514E-09
       127  17 -2.339341E+04 -2.310853E+06 -6.027637E+04 -7.950676E+03  6.308413E-09  2.662842E-09
       127  18 -2.261199E+03 -2.116482E+06 -4.172021E+04 -9.088383E+04  2.010299E-11 -1.399198E-09
       127  19  7.794332E+04 -1.890864E+06  5.337782E+04 -9.435787E+04 -8.710362E+03 -9.001443E+03
       127  20  3.280836E+04 -2.085335E+06 -5.498801E+03 -1.152967E+04 -2.999237E+03 -2.575756E+04
       127  21 -4.581276E+04 -2.292136E+06 -8.406666E+04 -1.035424E+05  3.113211E+03 -4.250471E+04
       127  22 -6.209087E+01 -2.204280E+06 -2.268739E+04 -9.711075E+04 -8.700678E+03 -1.134412E+04
       127  23  4.708071E+03 -2.198099E+06 -3.288623E+04 -9.739977E+03 -2.988673E+03 -2.827022E+04
       127  24 -2.403646E+04 -2.204312E+06 -6.289102E+04 -9.721361E+04  3.124537E+03 -4.519270E+04
       127  25 -7.807470E+04 -2.517607E+06 -9.875967E+04 -9.986213E+04 -8.690970E+03 -1.368561E+04
       127  26 -2.339314E+04 -2.310852E+06 -6.027456E+04 -7.950603E+03 -2.978121E+03 -3.078242E+04
       127  27 -2.260570E+03 -2.116479E+06 -4.171587E+04 -9.088395E+04  3.135807E+03 -4.788108E+04
       128   1 -9.228999E+04 -2.632259E+06 -1.769624E+05 -6.882189E+04 -1.065741E+04  4.992987E+04
       128   2 -1.160866E+05 -2.790472E+06 -2.675523E+05 -2.546607E+04 -1.840865E+04  1.226003E+05
       128   3 -4.165447E+05 -3.028449E+06 -4.750141E+05 -1.545510E+05 -7.447971E+03  1.953179E+05
       128   4  1.101556E+04 -2.218949E+06 -7.623128E+04 -9.635068E+04 -1.069025E+04  5.719849E+04
       128   5  3.581440E+04 -2.179931E+06 -1.195575E+05 -1.051820E+04 -1.840140E+04  1.218668E+05
       128   6 -2.145046E+05 -2.219223E+06 -2.740888E+05 -9.713258E+04 -7.398725E+03  1.866063E+05
       128   7  1.143112E+05 -1.805481E+06  2.448798E+04 -1.238977E+05 -1.072372E+04  6.447195E+04
       128   8  1.876889E+05 -1.569048E+06  2.841041E+04  4.444798E+03 -1.839418E+04  1.211325E+05
       128   9 -1.250084E+04 -1.409391E+06 -7.321032E+04 -3.963844E+04 -7.351140E+03  1.778831E+05
       128  10 -9.229078E+04 -2.632261E+06 -1.769673E+05 -6.882146E+04  9.872749E-10 -3.153236E-09
       128  11 -1.160911E+05 -2.790488E+06 -2.675813E+05 -2.546425E+04 -2.975697E-09  5.658680E-10
       128  12 -4.165551E+05 -3.028490E+06 -4.750863E+05 -1.545498E+05 -1.096769E-09 -4.254709E-10
       128  13  1.101455E+04 -2.218953E+06 -7.623766E+04 -9.635018E+04 -1.247975E-09  4.099427E-09
       128  14  3.581003E+04 -2.179947E+06 -1.195862E+05 -1.051639E+04 -4.592504E-09  2.295355E-09
       128  15 -2.145140E+05 -2.219260E+06 -2.741546E+05 -9.713147E+04  2.691626E-10  1.593883E-09
       128  16  1.143100E+05 -1.805486E+06  2.447993E+04 -1.238972E+05 -7.402417E-10  2.124978E-09
       128  17  1.876846E+05 -1.569064E+06  2.838213E+04  4.446593E+03 -1.561452E-09  3.323731E-10
       128  18 -1.250941E+04 -1.409425E+06 -7.327002E+04 -3.963738E+04  1.328967E-09 -4.404864E-10
       128  19 -9.228999E+04 -2.632259E+06 -1.769624E+05 -6.882189E+04  1.065741E+04 -4.992987E+04
       128  20 -1.160866E+05 -2.790472E+06 -2.675523E+05 -2.546607E+04  1.840865E+04 -1.226003E+05
       128  21 -4.165447E+05 -3.028449E+06 -4.750141E+05 -1.545510E+05  7.447971E+03 -1.953179E+05
       128  22  1.101556E+04 -2.218949E+06 -7.623128E+04 -9.635068E+04  1.069025E+04 -5.719849E+04
       128  23  3.581440E+04 -2.179931E+06 -1.195575E+05 -1.051820E+04  1.840140E+04 -1.218668E+05
       128  24 -2.145046E+05 -2.219223E+06 -2.740888E+05 -9.713258E+04  7.398725E+03 -1.866063E+05
       128  25  1.143112E+05 -1.805481E+06  2.448798E+04 -1.238977E+05  1.072372E+04 -6.447195E+04
       128  26  1.876889E+05 -1.569048E+06  2.841041E+04  4.444798E+03  1.839418E+04 -1.211325E+05
       128  27 -1.250084E+04 -1.409391E+06 -7.321032E+04 -3.963844E+04  7.351140E+03 -1.778831E+05
       129   1 -2.767747E+06 -5.473171E+05 -2.165490E+05 -9.895027E+05 -1.288717E+05 -4.846030E+04
       129   2 -2.728454E+06 -3.787577E+05 -9.923914E+04 -1.046250E+06 -8.319051E+04 -3.052693E+04
       129   3 -2.790910E+06 -3.949641E+05 -7.208644E+04 -1.028417E+06 -3.744826E+04 -1.275862E+04
       129   4 -2.733970E+06 -5.168144E+05 -2.036820E+05 -9.622452E+05 -1.287573E+05 -4.842168E+04
       129   5 -2.672812E+06 -3.531173E+05 -8.303744E+04 -1.026432E+06 -8.310410E+04 -3.049506E+04
       129   6 -2.713392E+06 -3.741709E+05 -5.252395E+04 -1.016040E+06 -3.738801E+04 -1.273523E+04
       129   7 -2.700191E+06 -4.863092E+05 -1.908151E+05 -9.349859E+05 -1.286429E+05 -4.838306E+04
       129   8 -2.617167E+06 -3.274763E+05 -6.683603E+04 -1.006612E+06 -8.301768E+04 -3.046318E+04
       129   9 -2.635869E+06 -3.533779E+05 -3.296184E+04 -1.003663E+06 -3.732774E+04 -1.271184E+04
       129  10 -2.767766E+06 -5.473241E+05 -2.165848E+05 -9.895077E+05  1.500362E-09  4.380015E-10
       129  11 -2.728462E+06 -3.787606E+05 -9.925397E+04 -1.046252E+06 -3.643929E-10  2.767961E-09
       129  12 -2.790912E+06 -3.949647E+05 -7.208940E+04 -1.028417E+06 -8.059543E-10  1.973294E-10
       129  13 -2.733989E+06 -5.168214E+05 -2.037178E+05 -9.622503E+05  2.484899E-09  1.487335E-10
       129  14 -2.672820E+06 -3.531202E+05 -8.305223E+04 -1.026434E+06  2.006664E-09 -8.601457E-10
       129  15 -2.713394E+06 -3.741715E+05 -5.252689E+04 -1.016041E+06  9.192466E-10  7.212208E-10
       129  16 -2.700210E+06 -4.863162E+05 -1.908508E+05 -9.349910E+05  2.492640E-09  1.381143E-09
       129  17 -2.617174E+06 -3.274791E+05 -6.685080E+04 -1.006614E+06 -1.460874E-09  3.510880E-09
       129  18 -2.635870E+06 -3.533784E+05 -3.296478E+04 -1.003663E+06 -2.610387E-09  5.165935E-10
       129  19 -2.767747E+06 -5.473171E+05 -2.165490E+05 -9.895027E+05  1.288717E+05  4.846030E+04
       129  20 -2.728454E+06 -3.787577E+05 -9.923914E+04 -1.046250E+06  8.319051E+04  3.052693E+04
       129  21 -2.790910E+06 -3.949641E+05 -7.208644E+04 -1.028417E+06  3.744826E+04  1.275862E+04
       129  22 -2.733970E+06 -5.168144E+05 -2.036820E+05 -9.622452E+05  1.287573E+05  4.842168E+04
       129  23 -2.672812E+06 -3.531173E+05 -8.303744E+04 -1.026432E+06  8.310410E+04  3.049506E+04
       129  24 -2.713392E+06 -3.741709E+05 -5.252395E+04 -1.016040E+06  3.738801E+04  1.273523E+04
       129  25 -2.700191E+06 -4.863092E+05 -1.908151E+05 -9.349859E+05  1.286429E+05  4.838306E+04
       129  26 -2.617167E+06 -3.274763E+05 -6.683603E+04 -1.006612E+06  8.301768E+04  3.046318E+04
       129  27 -2.635869E+06 -3.533779E+05 -3.296184E+04 -1.003663E+06  3.732774E+04  1.271184E+04
       130   1 -2.844670E+06 -4.548303E+05 -8.215556E+04 -1.044895E+06 -2.966627E+04 -9.488196E+03
       130   2 -2.840187E+06 -4.369402E+05 -6.058850E+04 -1.060422E+06 -1.941128E+04 -5.076140E+03
       130   3 -2.860645E+06 -4.370048E+05 -5.507019E+04 -1.054082E+06 -9.044239E+03 -9.610413E+02
       130   4 -2.705271E+06 -3.994018E+05 -4.327158E+04 -1.004251E+06 -2.955990E+04 -9.448226E+03
       130   5 -2.691280E+06 -3.798587E+05 -1.952637E+04 -1.019165E+06 -1.935586E+04 -5.055301E+03
       130   6 -2.702218E+06 -3.782558E+05 -1.178668E+04 -1.012213E+06 -9.039607E+03 -9.593177E+02
       130   7 -2.565853E+06 -3.439717E+05 -4.389443E+03 -9.635980E+05 -2.945351E+04 -9.408244E+03
       130   8 -2.542353E+06 -3.227757E+05  2.153369E+04 -9.778994E+05 -1.930043E+04 -5.034457E+03
       130   9 -2.543767E+06 -3.195057E+05  3.149451E+04 -9.703351E+05 -9.034974E+03 -9.575936E+02
       130  10 -2.844671E+06 -4.548306E+05 -8.215739E+04 -1.044895E+06  2.412914E-09 -6.787858E-10
       130  11 -2.840188E+06 -4.369404E+05 -6.058926E+04 -1.060422E+06 -2.339863E-10  8.820958E-10
       130  12 -2.860645E+06 -4.370049E+05 -5.507035E+04 -1.054082E+06  2.789513E-09 -1.152871E-09
       130  13 -2.705272E+06 -3.994021E+05 -4.327340E+04 -1.004251E+06  2.323720E-09 -2.776049E-09
       130  14 -2.691281E+06 -3.798588E+05 -1.952713E+04 -1.019165E+06  1.714353E-09 -1.922172E-09
       130  15 -2.702218E+06 -3.782558E+05 -1.178684E+04 -1.012213E+06 -1.257922E-09 -1.668603E-10
       130  16 -2.565854E+06 -3.439720E+05 -4.391248E+03 -9.635983E+05  3.608859E-10 -2.568607E-09
       130  17 -2.542353E+06 -3.227758E+05  2.153294E+04 -9.778995E+05 -1.417502E-09 -9.892533E-10
       130  18 -2.543767E+06 -3.195057E+05  3.149435E+04 -9.703351E+05 -9.804411E-10  2.807419E-10
       130  19 -2.844670E+06 -4.548303E+05 -8.215556E+04 -1.044895E+06  2.966627E+04  9.488196E+03
       130  20 -2.840187E+06 -4.369402E+05 -6.058850E+04 -1.060422E+06  1.941128E+04  5.076140E+03
       130  21 -2.860645E+06 -4.370048E+05 -5.507019E+04 -1.054082E+06  9.044239E+03  9.610413E+02
       130  22 -2.705271E+06 -3.994018E+05 -4.327158E+04 -1.004251E+06  2.955990E+04  9.448226E+03
       130  23 -2.691280E+06 -3.798587E+05 -1.952637E+04 -1.019165E+06  1.935586E+04  5.055301E+03
       130  24 -2.702218E+06 -3.782558E+05 -1.178668E+04 -1.012213E+06  9.039607E+03  9.593177E+02
       130  25 -2.565853E+06 -3.439717E+05 -4.389443E+03 -9.635980E+05  2.945351E+04  9.408244E+03
       130  26 -2.542353E+06 -3.227757E+05  2.153369E+04 -9.778994E+05  1.930043E+04  5.034457E+03
       130  27 -2.543767E+06 -3.195057E+05  3.149451E+04 -9.703351E+05  9.034974E+03  9.575936E+02
       131   1 -2.887711E+06 -4.560289E+05 -6.147147E+04 -1.064728E+06 -7.406518E+03 -1.920130E+02
       131   2 -2.887175E+06 -4.533482E+05 -5.703391E+04 -1.067002E+06 -4.996252E+03  9.782325E+02
       131   3 -2.890117E+06 -4.533578E+05 -5.561673E+04 -1.065991E+06 -2.448669E+03  1.783715E+03
       131   4 -2.698770E+06 -3.840764E+05 -9.435910E+03 -1.012873E+06 -7.334172E+03 -1.648293E+02
       131   5 -2.696815E+06 -3.811924E+05 -4.702322E+03 -1.015096E+06 -4.988494E+03  9.810887E+02
       131   6 -2.698325E+06 -3.809849E+05 -2.937018E+03 -1.014034E+06 -2.505515E+03  1.762296E+03
       131   7 -2.509795E+06 -3.121216E+05  4.259642E+04 -9.610048E+05 -7.261802E+03 -1.376362E+02
       131   8 -2.506420E+06 -3.090345E+05  4.762597E+04 -9.631761E+05 -4.980733E+03  9.839461E+02
       131   9 -2.506496E+06 -3.086100E+05  4.973933E+04 -9.620629E+05 -2.562380E+03  1.740870E+03
       131  10 -2.887712E+06 -4.560289E+05 -6.147157E+04 -1.064728E+06  2.271146E-10  2.261607E-11
       131  11 -2.887175E+06 -4.533482E+05 -5.703396E+04 -1.067002E+06  6.370230E-10  1.005131E-09
       131  12 -2.890117E+06 -4.533578E+05 -5.561675E+04 -1.065991E+06 -2.592575E-09  6.132795E-10
       131  13 -2.698770E+06 -3.840764E+05 -9.436011E+03 -1.012873E+06 -1.149184E-09 -1.188850E-09
       131  14 -2.696815E+06 -3.811924E+05 -4.702371E+03 -1.015096E+06 -5.582085E-10  4.003306E-10
       131  15 -2.698325E+06 -3.809849E+05 -2.937036E+03 -1.014034E+06 -2.457049E-09  9.452306E-10
       131  16 -2.509795E+06 -3.121216E+05  4.259632E+04 -9.610048E+05 -2.109160E-09 -3.382057E-11
       131  17 -2.506420E+06 -3.090345E+05  4.762592E+04 -9.631760E+05 -4.373269E-10  1.302773E-10
       131  18 -2.506496E+06 -3.086100E+05  4.973931E+04 -9.620629E+05  2.315451E-10  9.252874E-10
       131  19 -2.887711E+06 -4.560289E+05 -6.147147E+04 -1.064728E+06  7.406518E+03  1.920130E+02
       131  20 -2.887175E+06 -4.533482E+05 -5.703391E+04 -1.067002E+06  4.996252E+03 -9.782325E+02
       131  21 -2.890117E+06 -4.533578E+05 -5.561673E+04 -1.065991E+06  2.448669E+03 -1.783715E+03
       131  22 -2.698770E+06 -3.840764E+05 -9.435910E+03 -1.012873E+06  7.334172E+03  1.648293E+02
       131  23 -2.696815E+06 -3.811924E+05 -4.702322E+03 -1.015096E+06  4.988494E+03 -9.810887E+02
       131  24 -2.698325E+06 -3.809849E+05 -2.937018E+03 -1.014034E+06  2.505515E+03 -1.762296E+03
       131  25 -2.509795E+06 -3.121216E+05  4.259642E+04 -9.610048E+05  7.261802E+03  1.376362E+02
       131  26 -2.506420E+06 -3.090345E+05  4.762597E+04 -9.631761E+05  4.980733E+03 -9.839461E+02
       131  27 -2.506496E+06 -3.086100E+05  4.973933E+04 -9.620629E+05  2.562380E+03 -1.740870E+03
       132   1 -2.870379E+06 -4.500745E+05 -5.047301E+04 -1.064136E+06 -2.048664E+03  1.853200E+03
       132   2 -2.868844E+06 -4.424186E+05 -4.813117E+04 -1.057251E+06 -1.040077E+03  2.137903E+03
       132   3 -2.858193E+06 -4.450289E+05 -4.671820E+04 -1.060732E+06  8.895997E+01  2.100994E+03
       132   4 -2.695705E+06 -3.839432E+05 -2.470044E+03 -1.016588E+06 -2.034871E+03  1.858328E+03
       132   5 -2.700251E+06 -3.786839E+05 -1.818093E+03 -1.011455E+06 -1.083608E+03  2.121522E+03
       132   6 -2.695669E+06 -3.836789E+05 -2.049235E+03 -1.016687E+06 -1.192343E+01  2.063144E+03
       132   7 -2.521002E+06 -3.178101E+05  4.553011E+04 -9.690270E+05 -2.021074E+03  1.863457E+03
       132   8 -2.531631E+06 -3.149476E+05  4.449232E+04 -9.656471E+05 -1.127153E+03  2.105137E+03
       132   9 -2.533121E+06 -3.223276E+05  4.261722E+04 -9.726326E+05 -1.128359E+02  2.025283E+03
       132  10 -2.870379E+06 -4.500745E+05 -5.047303E+04 -1.064136E+06 -5.562234E-10 -5.070074E-12
       132  11 -2.868844E+06 -4.424186E+05 -4.813118E+04 -1.057251E+06 -5.529809E-10  2.958802E-10
       132  12 -2.858193E+06 -4.450289E+05 -4.671821E+04 -1.060732E+06 -1.014591E-09 -6.077997E-11
       132  13 -2.695705E+06 -3.839432E+05 -2.470058E+03 -1.016588E+06  2.050422E-09  2.790188E-11
       132  14 -2.700251E+06 -3.786839E+05 -1.818104E+03 -1.011455E+06  2.785819E-09 -7.781231E-11
       132  15 -2.695669E+06 -3.836789E+05 -2.049243E+03 -1.016687E+06  2.654032E-10  6.657450E-10
       132  16 -2.521002E+06 -3.178101E+05  4.553010E+04 -9.690270E+05  8.094952E-11  4.201056E-10
       132  17 -2.531631E+06 -3.149476E+05  4.449231E+04 -9.656471E+05  2.356583E-09 -4.898228E-10
       132  18 -2.533121E+06 -3.223276E+05  4.261721E+04 -9.726326E+05  3.118883E-10  1.302634E-10
       132  19 -2.870379E+06 -4.500745E+05 -5.047301E+04 -1.064136E+06  2.048664E+03 -1.853200E+03
       132  20 -2.868844E+06 -4.424186E+05 -4.813117E+04 -1.057251E+06  1.040077E+03 -2.137903E+03
       132  21 -2.858193E+06 -4.450289E+05 -4.671820E+04 -1.060732E+06 -8.895997E+01 -2.100994E+03
       132  22 -2.695705E+06 -3.839432E+05 -2.470044E+03 -1.016588E+06  2.034871E+03 -1.858328E+03
       132  23 -2.700251E+06 -3.786839E+05 -1.818093E+03 -1.011455E+06  1.083608E+03 -2.121522E+03
       132  24 -2.695669E+06 -3.836789E+05 -2.049235E+03 -1.016687E+06  1.192343E+01 -2.063144E+03
       132  25 -2.521002E+06 -3.178101E+05  4.553011E+04 -9.690270E+05  2.021074E+03 -1.863457E+03
       132  26 -2.531631E+06 -3.149476E+05  4.449232E+04 -9.656471E+05  1.127153E+03 -2.105137E+03
       132  27 -2.533121E+06 -3.223276E+05  4.261722E+04 -9.726326E+05  1.128359E+02 -2.025283E+03
       133   1 -2.796144E+06 -4.239859E+05 -3.041047E+04 -1.046647E+06  4.983412E+02  1.964930E+03
       133   2 -2.793063E+06 -4.104907E+05 -2.852891E+04 -1.033510E+06  2.504960E+03  2.297182E+03
       133   3 -2.773700E+06 -4.165720E+05 -2.864305E+04 -1.039689E+06  4.573323E+03  2.463955E+03
       133   4 -2.694012E+06 -3.853178E+05 -2.371639E+03 -1.018835E+06  4.473907E+02  1.945821E+03
       133   5 -2.702257E+06 -3.762344E+05 -3.599523E+03 -1.008916E+06  2.424643E+03  2.267092E+03
       133   6 -2.694215E+06 -3.867211E+05 -6.799495E+03 -1.018313E+06  4.463598E+03  2.422881E+03
       133   7 -2.591871E+06 -3.466490E+05  2.566630E+04 -9.910196E+05  3.964309E+02  1.926709E+03
       133   8 -2.611444E+06 -3.419776E+05  2.132915E+04 -9.843185E+05  2.344313E+03  2.236997E+03
       133   9 -2.614723E+06 -3.568700E+05  1.504350E+04 -9.969336E+05  4.353857E+03  2.381800E+03
       133  10 -2.796144E+06 -4.239859E+05 -3.041047E+04 -1.046647E+06 -1.707809E-09  9.153721E-10
       133  11 -2.793063E+06 -4.104907E+05 -2.852893E+04 -1.033510E+06  4.953403E-10 -1.376228E-09
       133  12 -2.773700E+06 -4.165720E+05 -2.864310E+04 -1.039689E+06 -6.882665E-10 -1.447916E-09
       133  13 -2.694012E+06 -3.853178E+05 -2.371646E+03 -1.018835E+06 -4.451941E-10  7.400926E-10
       133  14 -2.702257E+06 -3.762344E+05 -3.599544E+03 -1.008916E+06 -8.784833E-10 -1.019502E-09
       133  15 -2.694215E+06 -3.867212E+05 -6.799544E+03 -1.018313E+06  9.990073E-10 -1.779603E-09
       133  16 -2.591871E+06 -3.466490E+05  2.566629E+04 -9.910196E+05  3.062803E-09  1.179574E-09
       133  17 -2.611444E+06 -3.419776E+05  2.132914E+04 -9.843185E+05  1.523039E-09  1.669138E-09
       133  18 -2.614723E+06 -3.568700E+05  1.504346E+04 -9.969336E+05 -1.876845E-09 -8.323579E-10
       133  19 -2.796144E+06 -4.239859E+05 -3.041047E+04 -1.046647E+06 -4.983412E+02 -1.964930E+03
       133  20 -2.793063E+06 -4.104907E+05 -2.852891E+04 -1.033510E+06 -2.504960E+03 -2.297182E+03
       133  21 -2.773700E+06 -4.165720E+05 -2.864305E+04 -1.039689E+06 -4.573323E+03 -2.463955E+03
       133  22 -2.694012E+06 -3.853178E+05 -2.371639E+03 -1.018835E+06 -4.473907E+02 -1.945821E+03
       133  23 -2.702257E+06 -3.762344E+05 -3.599523E+03 -1.008916E+06 -2.424643E+03 -2.267092E+03
       133  24 -2.694215E+06 -3.867211E+05 -6.799495E+03 -1.018313E+06 -4.463598E+03 -2.422881E+03
       133  25 -2.591871E+06 -3.466490E+05  2.566630E+04 -9.910196E+05 -3.964309E+02 -1.926709E+03
       133  26 -2.611444E+06 -3.419776E+05  2.132915E+04 -9.843185E+05 -2.344313E+03 -2.236997E+03
       133  27 -2.614723E+06 -3.568700E+05  1.504350E+04 -9.969336E+05 -4.353857E+03 -2.381800E+03
       134   1 -2.689997E+06 -3.845987E+05 -7.542209E+03 -1.019362E+06  5.979259E+03  2.585516E+03
       134   2 -2.684971E+06 -3.670311E+05 -1.009907E+04 -1.003759E+06  1.380885E+04  4.909517E+03
       134   3 -2.666859E+06 -3.837525E+05 -2.235335E+04 -1.007070E+06  2.161076E+04  7.308357E+03
       134   4 -2.694305E+06 -3.855938E+05 -8.644910E+03 -1.019867E+06  5.877255E+03  2.547353E+03
       134   5 -2.701572E+06 -3.735398E+05 -1.470445E+04 -1.008509E+06  1.372002E+04  4.876262E+03
       134   6 -2.695755E+06 -3.957777E+05 -3.047225E+04 -1.016066E+06  2.153494E+04  7.279928E+03
       134   7 -2.698613E+06 -3.865889E+05 -9.747609E+03 -1.020373E+06  5.775252E+03  2.509189E+03
       134   8 -2.718172E+06 -3.800484E+05 -1.930985E+04 -1.013260E+06  1.363119E+04  4.843009E+03
       134   9 -2.724650E+06 -4.078029E+05 -3.859124E+04 -1.025061E+06  2.145912E+04  7.251501E+03
       134  10 -2.689997E+06 -3.845987E+05 -7.542289E+03 -1.019362E+06  1.323039E-09 -8.283659E-10
       134  11 -2.684972E+06 -3.670312E+05 -1.009947E+04 -1.003759E+06  8.182875E-10  6.656497E-10
       134  12 -2.666860E+06 -3.837527E+05 -2.235433E+04 -1.007071E+06 -2.000655E-09  3.585881E-10
       134  13 -2.694305E+06 -3.855938E+05 -8.644987E+03 -1.019867E+06 -2.107786E-09 -1.386078E-10
       134  14 -2.701572E+06 -3.735399E+05 -1.470485E+04 -1.008509E+06  2.805865E-09  2.664768E-09
       134  15 -2.695755E+06 -3.957779E+05 -3.047323E+04 -1.016066E+06 -1.199212E-09 -2.784114E-10
       134  16 -2.698613E+06 -3.865889E+05 -9.747684E+03 -1.020373E+06 -1.491490E-10  4.665625E-10
       134  17 -2.718172E+06 -3.800485E+05 -1.931025E+04 -1.013260E+06  8.176322E-10  1.862174E-09
       134  18 -2.724650E+06 -4.078031E+05 -3.859221E+04 -1.025061E+06  8.743730E-10  3.381779E-10
       134  19 -2.689997E+06 -3.845987E+05 -7.542209E+03 -1.019362E+06 -5.979259E+03 -2.585516E+03
       134  20 -2.684971E+06 -3.670311E+05 -1.009907E+04 -1.003759E+06 -1.380885E+04 -4.909517E+03
       134  21 -2.666859E+06 -3.837525E+05 -2.235335E+04 -1.007070E+06 -2.161076E+04 -7.308357E+03
       134  22 -2.694305E+06 -3.855938E+05 -8.644910E+03 -1.019867E+06 -5.877255E+03 -2.547353E+03
       134  23 -2.701572E+06 -3.735398E+05 -1.470445E+04 -1.008509E+06 -1.372002E+04 -4.876262E+03
       134  24 -2.695755E+06 -3.957777E+05 -3.047225E+04 -1.016066E+06 -2.153494E+04 -7.279928E+03
       134  25 -2.698613E+06 -3.865889E+05 -9.747609E+03 -1.020373E+06 -5.775252E+03 -2.509189E+03
       134  26 -2.718172E+06 -3.800484E+05 -1.930985E+04 -1.013260E+06 -1.363119E+04 -4.843009E+03
       134  27 -2.724650E+06 -4.078029E+05 -3.859124E+04 -1.025061E+06 -2.145912E+04 -7.251501E+03
       135   1 -2.588344E+06 -3.454139E+05 -8.230781E+03 -9.955163E+05  2.751357E+04  9.092130E+03
       135   2 -2.574609E+06 -3.145059E+05 -3.070890E+04 -9.783711E+05  6.137038E+04  2.115988E+04
       135   3 -2.586800E+06 -3.977697E+05 -1.052663E+05 -9.538574E+05  9.502903E+04  3.375778E+04
       135   4 -2.700181E+06 -3.834278E+05 -3.814629E+04 -1.021495E+06  2.736673E+04  9.037375E+03
       135   5 -2.692117E+06 -3.608405E+05 -6.335990E+04 -1.012269E+06  6.131219E+04  2.113781E+04
       135   6 -2.710004E+06 -4.524549E+05 -1.407313E+05 -9.956735E+05  9.505917E+04  3.376749E+04
       135   7 -2.812006E+06 -4.214415E+05 -6.806285E+04 -1.047470E+06  2.721992E+04  8.982628E+03
       135   8 -2.809612E+06 -4.071740E+05 -9.601219E+04 -1.046162E+06  6.125401E+04  2.111575E+04
       135   9 -2.833193E+06 -5.071376E+05 -1.761978E+05 -1.037482E+06  9.508930E+04  3.377719E+04
       135  10 -2.588344E+06 -3.454142E+05 -8.232366E+03 -9.955165E+05 -1.706176E-10  1.391989E-09
       135  11 -2.574613E+06 -3.145074E+05 -3.071686E+04 -9.783722E+05  1.508481E-09  8.442353E-10
       135  12 -2.586810E+06 -3.977734E+05 -1.052855E+05 -9.538600E+05  6.019315E-10 -2.365654E-10
       135  13 -2.700182E+06 -3.834281E+05 -3.814786E+04 -1.021496E+06 -2.188503E-09  2.705032E-10
       135  14 -2.692121E+06 -3.608420E+05 -6.336784E+04 -1.012270E+06 -3.015750E-09 -3.388192E-10
       135  15 -2.710014E+06 -4.524586E+05 -1.407505E+05 -9.956761E+05 -2.491395E-09 -2.556971E-10
       135  16 -2.812007E+06 -4.214418E+05 -6.806440E+04 -1.047471E+06 -1.435373E-09 -7.597546E-10
       135  17 -2.809616E+06 -4.071755E+05 -9.602012E+04 -1.046163E+06 -4.454083E-09 -1.999052E-09
       135  18 -2.833203E+06 -5.071413E+05 -1.762171E+05 -1.037484E+06 -3.228517E-09  1.672578E-11
       135  19 -2.588344E+06 -3.454139E+05 -8.230781E+03 -9.955163E+05 -2.751357E+04 -9.092130E+03
       135  20 -2.574609E+06 -3.145059E+05 -3.070890E+04 -9.783711E+05 -6.137038E+04 -2.115988E+04
       135  21 -2.586800E+06 -3.977697E+05 -1.052663E+05 -9.538574E+05 -9.502903E+04 -3.375778E+04
       135  22 -2.700181E+06 -3.834278E+05 -3.814629E+04 -1.021495E+06 -2.736673E+04 -9.037375E+03
       135  23 -2.692117E+06 -3.608405E+05 -6.335990E+04 -1.012269E+06 -6.131219E+04 -2.113781E+04
       135  24 -2.710004E+06 -4.524549E+05 -1.407313E+05 -9.956735E+05 -9.505917E+04 -3.376749E+04
       135  25 -2.812006E+06 -4.214415E+05 -6.806285E+04 -1.047470E+06 -2.721992E+04 -8.982628E+03
       135  26 -2.809612E+06 -4.071740E+05 -9.601219E+04 -1.046162E+06 -6.125401E+04 -2.111575E+04
       135  27 -2.833193E+06 -5.071376E+05 -1.761978E+05 -1.037482E+06 -9.508930E+04 -3.377719E+04
       136   1 -2.535733E+06 -3.256742E+05 -1.218911E+05 -1.011568E+06  1.213902E+05  4.308548E+04
       136   2 -2.464437E+06 -1.912915E+05 -2.201131E+05 -9.707423E+05  2.705573E+05  9.853609E+04
       136   3 -2.655835E+06 -7.255238E+05 -6.110398E+05 -7.643918E+05  4.188266E+05  1.563931E+05
       136   4 -2.733844E+06 -3.726598E+05 -1.707712E+05 -1.036686E+06  1.210670E+05  4.297106E+04
       136   5 -2.635564E+06 -2.706129E+05 -2.699950E+05 -1.032284E+06  2.706237E+05  9.855293E+04
       136   6 -2.800134E+06 -8.373784E+05 -6.622976E+05 -8.623331E+05  4.192893E+05  1.565183E+05
       136   7 -2.931915E+06 -4.196467E+05 -2.196537E+05 -1.061799E+06  1.207440E+05  4.285665E+04
       136   8 -2.806661E+06 -3.499280E+05 -3.198796E+05 -1.093809E+06  2.706900E+05  9.856975E+04
       136   9 -2.944405E+06 -9.492027E+05 -7.135563E+05 -9.602469E+05  4.197519E+05  1.566434E+05
       136  10 -2.535750E+06 -3.256802E+05 -1.219225E+05 -1.011572E+06 -2.016856E-09  2.377073E-10
       136  11 -2.464518E+06 -1.913218E+05 -2.202696E+05 -9.707638E+05 -3.461719E-09  2.737240E-09
       136  12 -2.656030E+06 -7.255975E+05 -6.114172E+05 -7.644447E+05  1.675836E-10  8.424468E-10
       136  13 -2.733860E+06 -3.726658E+05 -1.708024E+05 -1.036690E+06 -2.491627E-09  5.669910E-10
       136  14 -2.635645E+06 -2.706432E+05 -2.701516E+05 -1.032306E+06 -2.487943E-09  2.415549E-09
       136  15 -2.800331E+06 -8.374523E+05 -6.626759E+05 -8.623861E+05 -6.807893E-10  1.057020E-09
       136  16 -2.931931E+06 -4.196527E+05 -2.196848E+05 -1.061803E+06  1.767373E-09  2.288277E-09
       136  17 -2.806743E+06 -3.499582E+05 -3.200364E+05 -1.093831E+06  6.924098E-10  2.464601E-09
       136  18 -2.944602E+06 -9.492768E+05 -7.139355E+05 -9.603000E+05  7.451429E-10  5.980549E-10
       136  19 -2.535733E+06 -3.256742E+05 -1.218911E+05 -1.011568E+06 -1.213902E+05 -4.308548E+04
       136  20 -2.464437E+06 -1.912915E+05 -2.201131E+05 -9.707423E+05 -2.705573E+05 -9.853609E+04
       136  21 -2.655835E+06 -7.255238E+05 -6.110398E+05 -7.643918E+05 -4.188266E+05 -1.563931E+05
       136  22 -2.733844E+06 -3.726598E+05 -1.707712E+05 -1.036686E+06 -1.210670E+05 -4.297106E+04
       136  23 -2.635564E+06 -2.706129E+05 -2.699950E+05 -1.032284E+06 -2.706237E+05 -9.855293E+04
       136  24 -2.800134E+06 -8.373784E+05 -6.622976E+05 -8.623331E+05 -4.192893E+05 -1.565183E+05
       136  25 -2.931915E+06 -4.196467E+05 -2.196537E+05 -1.061799E+06 -1.207440E+05 -4.285665E+04
       136  26 -2.806661E+06 -3.499280E+05 -3.198796E+05 -1.093809E+06 -2.706900E+05 -9.856975E+04
       136  27 -2.944405E+06 -9.492027E+05 -7.135563E+05 -9.602469E+05 -4.197519E+05 -1.566434E+05
       137   1 -7.187124E+05  1.401121E+04  3.003018E+04  3.235811E+03  4.649185E+04  7.884507E+02
       137   2 -7.251425E+05 -4.969518E+04 -8.161432E+03  2.078447E+03  3.076803E+04  2.163146E+03
       137   3 -7.106416E+05 -3.867776E+04 -1.738617E+04 -6.997548E+03  1.504556E+04  1.795485E+03
       137   4 -5.634038E+05  5.282770E+04  6.878834E+04 -3.601400E+03  4.693414E+04  7.884096E+02
       137   5 -5.739049E+05 -1.191531E+04  2.940728E+04  3.875940E+02  3.087250E+04  2.163116E+03
       137   6 -5.634214E+05 -1.885611E+03  1.922271E+04 -3.541885E+03  1.481230E+04  1.795391E+03
       137   7 -4.080732E+05  9.164256E+04  1.075447E+05 -1.044033E+04  4.737654E+04  7.883588E+02
       137   8 -4.226465E+05  2.586286E+04  6.697427E+04 -1.303676E+03  3.097699E+04  2.163085E+03
       137   9 -4.161815E+05  3.490495E+04  5.582997E+04 -8.540478E+01  1.457900E+04  1.795296E+03
       137  10 -7.187148E+05  1.401062E+04  3.002611E+04  3.235782E+03 -2.155429E-10 -1.296890E-09
       137  11 -7.251435E+05 -4.969544E+04 -8.163221E+03  2.078394E+03 -2.552681E-09 -3.421633E-10
       137  12 -7.106419E+05 -3.867782E+04 -1.738660E+04 -6.997570E+03 -5.391254E-10 -9.560364E-10
       137  13 -5.634062E+05  5.282711E+04  6.878420E+04 -3.601429E+03  8.766744E-10  6.573511E-10
       137  14 -5.739059E+05 -1.191557E+04  2.940547E+04  3.875402E+02 -2.674344E-10 -3.451993E-10
       137  15 -5.634217E+05 -1.885673E+03  1.922229E+04 -3.541907E+03  1.452656E-09 -8.878892E-10
       137  16 -4.080757E+05  9.164196E+04  1.075405E+05 -1.044036E+04 -2.581931E-09  9.545732E-10
       137  17 -4.226476E+05  2.586259E+04  6.697246E+04 -1.303730E+03 -1.159742E-10 -2.603802E-11
       137  18 -4.161817E+05  3.490489E+04  5.582956E+04 -8.542586E+01  1.910229E-09  1.345839E-09
       137  19 -7.187124E+05  1.401121E+04  3.003018E+04  3.235811E+03 -4.649185E+04 -7.884507E+02
       137  20 -7.251425E+05 -4.969518E+04 -8.161432E+03  2.078447E+03 -3.076803E+04 -2.163146E+03
       137  21 -7.106416E+05 -3.867776E+04 -1.738617E+04 -6.997548E+03 -1.504556E+04 -1.795485E+03
       137  22 -5.634038E+05  5.282770E+04  6.878834E+04 -3.601400E+03 -4.693414E+04 -7.884096E+02
       137  23 -5.739049E+05 -1.191531E+04  2.940728E+04  3.875940E+02 -3.087250E+04 -2.163116E+03
       137  24 -5.634214E+05 -1.885611E+03  1.922271E+04 -3.541885E+03 -1.481230E+04 -1.795391E+03
       137  25 -4.080732E+05  9.164256E+04  1.075447E+05 -1.044033E+04 -4.737654E+04 -7.883588E+02
       137  26 -4.226465E+05  2.586286E+04  6.697427E+04 -1.303676E+03 -3.097699E+04 -2.163085E+03
       137  27 -4.161815E+05  3.490495E+04  5.582997E+04 -8.540478E+01 -1.457900E+04 -1.795296E+03
       138   1 -6.881513E+05 -2.240819E+04 -1.417097E+04 -3.036402E+03  1.161135E+04  1.431444E+03
       138   2 -6.848698E+05 -3.070836E+04 -2.121130E+04  1.103802E+03  7.692228E+03  1.484439E+03
       138   3 -6.782079E+05 -2.797970E+04 -2.291817E+04 -4.483944E+03  3.773128E+03  1.253347E+03
       138   4 -5.673251E+05  7.782600E+03  1.587815E+04 -3.965280E+03  1.165069E+04  1.431428E+03
       138   5 -5.690217E+05 -1.763234E+03  7.585672E+03  9.006293E+02  7.676382E+03  1.484414E+03
       138   6 -5.673289E+05 -2.717724E+02  4.664273E+03 -3.961294E+03  3.702128E+03  1.253325E+03
       138   7 -4.464857E+05  3.797229E+04  4.592618E+04 -4.894340E+03  1.169003E+04  1.431412E+03
       138   8 -4.531614E+05  2.718088E+04  3.638164E+04  6.974170E+02  7.660534E+03  1.484388E+03
       138   9 -4.564387E+05  2.743524E+04  3.224580E+04 -3.438551E+03  3.631116E+03  1.253304E+03
       138  10 -6.881514E+05 -2.240822E+04 -1.417123E+04 -3.036416E+03 -3.448504E-09 -5.116913E-10
       138  11 -6.848699E+05 -3.070838E+04 -2.121142E+04  1.103793E+03 -1.302893E-09  9.774413E-11
       138  12 -6.782080E+05 -2.797971E+04 -2.291820E+04 -4.483948E+03  7.887766E-11  1.467582E-10
       138  13 -5.673253E+05  7.782561E+03  1.587789E+04 -3.965293E+03 -1.274579E-09  7.072154E-10
       138  14 -5.690218E+05 -1.763252E+03  7.585557E+03  9.006201E+02 -3.570583E-09  1.090106E-10
       138  15 -5.673289E+05 -2.717778E+02  4.664244E+03 -3.961298E+03 -1.125611E-09  2.313576E-11
       138  16 -4.464859E+05  3.797225E+04  4.592592E+04 -4.894353E+03  1.383428E-09  5.463336E-10
       138  17 -4.531615E+05  2.718086E+04  3.638153E+04  6.974079E+02  7.174010E-10 -2.915884E-10
       138  18 -4.564387E+05  2.743523E+04  3.224577E+04 -3.438555E+03  6.727266E-10  2.399572E-10
       138  19 -6.881513E+05 -2.240819E+04 -1.417097E+04 -3.036402E+03 -1.161135E+04 -1.431444E+03
       138  20 -6.848698E+05 -3.070836E+04 -2.121130E+04  1.103802E+03 -7.692228E+03 -1.484439E+03
       138  21 -6.782079E+05 -2.797970E+04 -2.291817E+04 -4.483944E+03 -3.773128E+03 -1.253347E+03
       138  22 -5.673251E+05  7.782600E+03  1.587815E+04 -3.965280E+03 -1.165069E+04 -1.431428E+03
       138  23 -5.690217E+05 -1.763234E+03  7.585672E+03  9.006293E+02 -7.676382E+03 -1.484414E+03
       138  24 -5.673289E+05 -2.717724E+02  4.664273E+03 -3.961294E+03 -3.702128E+03 -1.253325E+03
       138  25 -4.464857E+05  3.797229E+04  4.592618E+04 -4.894340E+03 -1.169003E+04 -1.431412E+03
       138  26 -4.531614E+05  2.718088E+04  3.638164E+04  6.974170E+02 -7.660534E+03 -1.484388E+03
       138  27 -4.564387E+05  2.743524E+04  3.224580E+04 -3.438551E+03 -3.631116E+03 -1.253304E+03
       139   1 -6.476231E+05 -1.876636E+04 -1.610238E+04 -4.131656E+03  2.973393E+03  1.095385E+03
       139   2 -6.422535E+05 -1.875047E+04 -1.659905E+04  1.296768E+03  2.061678E+03  9.286533E+02
       139   3 -6.363246E+05 -1.713556E+04 -1.609373E+04 -4.324606E+03  1.149904E+03  7.028538E+02
       139   4 -5.679548E+05  1.136807E+03  3.691263E+03 -4.256266E+03  2.947334E+03  1.095374E+03
       139   5 -5.682361E+05 -2.568277E+02  1.801693E+03  1.268620E+03  2.024180E+03  9.286482E+02
       139   6 -5.679560E+05 -4.954968E+01  9.219923E+02 -4.256210E+03  1.100977E+03  7.028576E+02
       139   7 -4.882807E+05  2.103950E+04  2.348443E+04 -4.380891E+03  2.921272E+03  1.095363E+03
       139   8 -4.942137E+05  1.823640E+04  2.020203E+04  1.240469E+03  1.986679E+03  9.286430E+02
       139   9 -4.995832E+05  1.703611E+04  1.793737E+04 -4.187805E+03  1.052044E+03  7.028613E+02
       139  10 -6.476231E+05 -1.876637E+04 -1.610240E+04 -4.131659E+03  1.383750E-09  4.173375E-11
       139  11 -6.422536E+05 -1.875047E+04 -1.659906E+04  1.296766E+03  1.497333E-09 -1.552879E-10
       139  12 -6.363246E+05 -1.713556E+04 -1.609374E+04 -4.324607E+03  2.193224E-09  8.503847E-11
       139  13 -5.679548E+05  1.136803E+03  3.691245E+03 -4.256269E+03 -3.024704E-09  1.515994E-10
       139  14 -5.682361E+05 -2.568297E+02  1.801684E+03  1.268619E+03 -2.158781E-09 -2.797283E-10
       139  15 -5.679560E+05 -4.955054E+01  9.219891E+02 -4.256210E+03 -9.069411E-10  3.986606E-10
       139  16 -4.882808E+05  2.103950E+04  2.348441E+04 -4.380894E+03 -1.033009E-09  2.668408E-10
       139  17 -4.942137E+05  1.823640E+04  2.020202E+04  1.240468E+03 -2.168947E-09 -8.390499E-11
       139  18 -4.995832E+05  1.703611E+04  1.793736E+04 -4.187806E+03 -1.838678E-09 -9.981785E-11
       139  19 -6.476231E+05 -1.876636E+04 -1.610238E+04 -4.131656E+03 -2.973393E+03 -1.095385E+03
       139  20 -6.422535E+05 -1.875047E+04 -1.659905E+04  1.296768E+03 -2.061678E+03 -9.286533E+02
       139  21 -6.363246E+05 -1.713556E+04 -1.609373E+04 -4.324606E+03 -1.149904E+03 -7.028538E+02
       139  22 -5.679548E+05  1.136807E+03  3.691263E+03 -4.256266E+03 -2.947334E+03 -1.095374E+03
       139  23 -5.682361E+05 -2.568277E+02  1.801693E+03  1.268620E+03 -2.024180E+03 -9.286482E+02
       139  24 -5.679560E+05 -4.954968E+01  9.219923E+02 -4.256210E+03 -1.100977E+03 -7.028576E+02
       139  25 -4.882807E+05  2.103950E+04  2.348443E+04 -4.380891E+03 -2.921272E+03 -1.095363E+03
       139  26 -4.942137E+05  1.823640E+04  2.020203E+04  1.240469E+03 -1.986679E+03 -9.286430E+02
       139  27 -4.995832E+05  1.703611E+04  1.793737E+04 -4.187805E+03 -1.052044E+03 -7.028613E+02
       140   1 -6.021647E+05 -8.346193E+03 -7.866203E+03 -4.402624E+03  1.003995E+03  5.658889E+02
       140   2 -5.961602E+05 -7.028368E+03 -7.038046E+03  1.473302E+03  1.033582E+03  3.506633E+02
       140   3 -5.901396E+05 -5.624542E+03 -6.207975E+03 -4.415201E+03  1.063140E+03  1.221903E+02
       140   4 -5.680758E+05  1.674217E+02  5.907947E+02 -4.414994E+03  9.640065E+02  5.658958E+02
       140   5 -5.680843E+05 -1.361653E+01 -5.838967E+01  1.467168E+03  9.910498E+02  3.506734E+02
       140   6 -5.680763E+05 -1.082350E+02 -7.039173E+02 -4.415065E+03  1.018064E+03  1.222039E+02
       140   7 -5.339859E+05  8.680949E+03  9.047706E+03 -4.427365E+03  9.240161E+02  5.659026E+02
       140   8 -5.400077E+05  7.001075E+03  6.921208E+03  1.461034E+03  9.485158E+02  3.506834E+02
       140   9 -5.460125E+05  5.408035E+03  4.800104E+03 -4.414928E+03  9.729859E+02  1.222176E+02
       140  10 -6.021647E+05 -8.346193E+03 -7.866205E+03 -4.402624E+03  1.672444E-09  1.195363E-10
       140  11 -5.961602E+05 -7.028368E+03 -7.038048E+03  1.473302E+03  1.997832E-09  1.213779E-11
       140  12 -5.901396E+05 -5.624542E+03 -6.207977E+03 -4.415201E+03 -9.962362E-11  7.978202E-10
       140  13 -5.680758E+05  1.674211E+02  5.907924E+02 -4.414995E+03  2.170311E-09  1.338038E-10
       140  14 -5.680843E+05 -1.361692E+01 -5.839175E+01  1.467168E+03  3.349960E-09  2.222032E-10
       140  15 -5.680763E+05 -1.082353E+02 -7.039193E+02 -4.415065E+03 -7.642219E-10  1.997554E-10
       140  16 -5.339859E+05  8.680948E+03  9.047703E+03 -4.427366E+03 -3.412999E-09  7.517022E-11
       140  17 -5.400077E+05  7.001075E+03  6.921206E+03  1.461034E+03 -1.834961E-10  1.929392E-10
       140  18 -5.460125E+05  5.408034E+03  4.800102E+03 -4.414928E+03  7.336135E-10  2.171569E-10
       140  19 -6.021647E+05 -8.346193E+03 -7.866203E+03 -4.402624E+03 -1.003995E+03 -5.658889E+02
       140  20 -5.961602E+05 -7.028368E+03 -7.038046E+03  1.473302E+03 -1.033582E+03 -3.506633E+02
       140  21 -5.901396E+05 -5.624542E+03 -6.207975E+03 -4.415201E+03 -1.063140E+03 -1.221903E+02
       140  22 -5.680758E+05  1.674217E+02  5.907947E+02 -4.414994E+03 -9.640065E+02 -5.658958E+02
       140  23 -5.680843E+05 -1.361653E+01 -5.838967E+01  1.467168E+03 -9.910498E+02 -3.506734E+02
       140  24 -5.680763E+05 -1.082350E+02 -7.039173E+02 -4.415065E+03 -1.018064E+03 -1.222039E+02
       140  25 -5.339859E+05  8.680949E+03  9.047706E+03 -4.427365E+03 -9.240161E+02 -5.659026E+02
       140  26 -5.400077E+05  7.001075E+03  6.921208E+03  1.461034E+03 -9.485158E+02 -3.506834E+02
       140  27 -5.460125E+05  5.408035E+03  4.800104E+03 -4.414928E+03 -9.729859E+02 -1.222176E+02
       141   1 -5.547867E+05  3.395754E+03  2.281855E+03 -4.484405E+03  1.222614E+03 -1.516309E+01
       141   2 -5.485446E+05  5.017317E+03  2.766271E+03  1.488014E+03  2.260202E+03 -2.436001E+02
       141   3 -5.426983E+05  5.617266E+03  2.318227E+03 -4.364128E+03  3.297819E+03 -4.616496E+02
       141   4 -5.681679E+05  4.871141E+01 -1.063678E+03 -4.428331E+03  1.177826E+03 -1.514901E+01
       141   5 -5.679699E+05  1.640583E+02 -2.062699E+03  1.483860E+03  2.217376E+03 -2.435887E+02
       141   6 -5.681683E+05 -7.425691E+02 -3.995569E+03 -4.428533E+03  3.256946E+03 -4.616409E+02
       141   7 -5.815489E+05 -3.298345E+03 -4.409224E+03 -4.372259E+03  1.133038E+03 -1.513494E+01
       141   8 -5.873949E+05 -4.689229E+03 -6.891697E+03  1.479707E+03  2.174551E+03 -2.435774E+02
       141   9 -5.936376E+05 -7.102453E+03 -1.030941E+04 -4.492935E+03  3.216074E+03 -4.616322E+02
       141  10 -5.547867E+05  3.395754E+03  2.281852E+03 -4.484405E+03 -1.595067E-09  6.822910E-10
       141  11 -5.485446E+05  5.017316E+03  2.766261E+03  1.488014E+03 -2.500035E-09 -1.140418E-09
       141  12 -5.426984E+05  5.617263E+03  2.318206E+03 -4.364127E+03 -6.955994E-10  5.702237E-10
       141  13 -5.681679E+05  4.871104E+01 -1.063680E+03 -4.428331E+03  1.743121E-09 -4.543217E-10
       141  14 -5.679699E+05  1.640569E+02 -2.062708E+03  1.483861E+03  1.761153E-09 -1.159944E-09
       141  15 -5.681683E+05 -7.425722E+02 -3.995589E+03 -4.428532E+03  8.693212E-10  2.565876E-10
       141  16 -5.815489E+05 -3.298345E+03 -4.409226E+03 -4.372259E+03  1.512482E-09 -4.921971E-10
       141  17 -5.873949E+05 -4.689230E+03 -6.891706E+03  1.479707E+03 -1.380588E-09 -2.554947E-10
       141  18 -5.936376E+05 -7.102456E+03 -1.030943E+04 -4.492934E+03  1.098186E-09  3.197641E-10
       141  19 -5.547867E+05  3.395754E+03  2.281855E+03 -4.484405E+03 -1.222614E+03  1.516309E+01
       141  20 -5.485446E+05  5.017317E+03  2.766271E+03  1.488014E+03 -2.260202E+03  2.436001E+02
       141  21 -5.426983E+05  5.617266E+03  2.318227E+03 -4.364128E+03 -3.297819E+03  4.616496E+02
       141  22 -5.681679E+05  4.871141E+01 -1.063678E+03 -4.428331E+03 -1.177826E+03  1.514901E+01
       141  23 -5.679699E+05  1.640583E+02 -2.062699E+03  1.483860E+03 -2.217376E+03  2.435887E+02
       141  24 -5.681683E+05 -7.425691E+02 -3.995569E+03 -4.428533E+03 -3.256946E+03  4.616409E+02
       141  25 -5.815489E+05 -3.298345E+03 -4.409224E+03 -4.372259E+03 -1.133038E+03  1.513494E+01
       141  26 -5.873949E+05 -4.689229E+03 -6.891697E+03  1.479707E+03 -2.174551E+03  2.435774E+02
       141  27 -5.936376E+05 -7.102453E+03 -1.030941E+04 -4.492935E+03 -3.216074E+03  4.616322E+02
       142   1 -5.084927E+05  1.519912E+04  9.816809E+03 -4.655210E+03  4.131928E+03 -5.998298E+02
       142   2 -5.015756E+05  1.761024E+04  7.720713E+03  1.431403E+03  8.540725E+03 -8.275359E+02
       142   3 -4.970160E+05  1.276906E+04  9.457071E+02 -3.710827E+03  1.294954E+04 -9.989012E+02
       142   4 -5.686052E+05  1.768405E+02 -5.145459E+03 -4.295942E+03  4.082714E+03 -5.998207E+02
       142   5 -5.674265E+05  1.158522E+03 -8.648430E+03  1.318479E+03  8.501906E+03 -8.275391E+02
       142   6 -5.686072E+05 -5.114322E+03 -1.683788E+04 -4.296016E+03  1.292107E+04 -9.989206E+02
       142   7 -6.287145E+05 -1.484571E+04 -2.010800E+04 -3.936709E+03  4.033506E+03 -5.998117E+02
       142   8 -6.332734E+05 -1.529352E+04 -2.501790E+04  1.205567E+03  8.463091E+03 -8.275422E+02
       142   9 -6.401938E+05 -2.299809E+04 -3.462185E+04 -4.881137E+03  1.289261E+04 -9.989399E+02
       142  10 -5.084927E+05  1.519912E+04  9.816776E+03 -4.655208E+03 -8.345581E-10  4.797309E-10
       142  11 -5.015757E+05  1.761022E+04  7.720575E+03  1.431409E+03  1.310890E-09 -3.410856E-10
       142  12 -4.970162E+05  1.276901E+04  9.453898E+02 -3.710816E+03 -1.335597E-10 -3.050434E-10
       142  13 -5.686053E+05  1.768356E+02 -5.145491E+03 -4.295940E+03  2.136708E-09  4.071737E-10
       142  14 -5.674266E+05  1.158502E+03 -8.648568E+03  1.318485E+03 -1.942356E-09 -4.665634E-10
       142  15 -5.686074E+05 -5.114367E+03 -1.683820E+04 -4.296006E+03  3.629495E-10 -7.228661E-11
       142  16 -6.287145E+05 -1.484572E+04 -2.010803E+04 -3.936707E+03 -6.711386E-10  5.109280E-10
       142  17 -6.332735E+05 -1.529354E+04 -2.501803E+04  1.205572E+03  1.679099E-09 -5.685997E-10
       142  18 -6.401940E+05 -2.299813E+04 -3.462216E+04 -4.881127E+03 -5.584713E-10 -1.002067E-10
       142  19 -5.084927E+05  1.519912E+04  9.816809E+03 -4.655210E+03 -4.131928E+03  5.998298E+02
       142  20 -5.015756E+05  1.761024E+04  7.720713E+03  1.431403E+03 -8.540725E+03  8.275359E+02
       142  21 -4.970160E+05  1.276906E+04  9.457071E+02 -3.710827E+03 -1.294954E+04  9.989012E+02
       142  22 -5.686052E+05  1.768405E+02 -5.145459E+03 -4.295942E+03 -4.082714E+03  5.998207E+02
       142  23 -5.674265E+05  1.158522E+03 -8.648430E+03  1.318479E+03 -8.501906E+03  8.275391E+02
       142  24 -5.686072E+05 -5.114322E+03 -1.683788E+04 -4.296016E+03 -1.292107E+04  9.989206E+02
       142  25 -6.287145E+05 -1.484571E+04 -2.010800E+04 -3.936709E+03 -4.033506E+03  5.998117E+02
       142  26 -6.332734E+05 -1.529352E+04 -2.501790E+04  1.205567E+03 -8.463091E+03  8.275422E+02
       142  27 -6.401938E+05 -2.299809E+04 -3.462185E+04 -4.881137E+03 -1.289261E+04  9.989399E+02
       143   1 -4.678086E+05  2.707813E+04  4.663001E+03 -6.307904E+03  1.641498E+04 -1.156743E+03
       143   2 -4.554140E+05  3.501034E+04 -7.099520E+03  2.039100E+03  3.421604E+04 -1.381918E+03
       143   3 -4.575860E+05 -6.430485E+03 -4.277923E+04  4.003025E+02  5.201735E+04 -1.325850E+03
       143   4 -5.713220E+05  1.214405E+03 -2.108551E+04 -4.023958E+03  1.634257E+04 -1.156700E+03
       143   5 -5.640385E+05  7.873189E+03 -3.409755E+04  9.762731E+02  3.419481E+04 -1.381996E+03
       143   6 -5.713333E+05 -3.485472E+04 -7.106537E+04 -4.009480E+03  5.204715E+04 -1.326220E+03
       143   7 -6.748257E+05 -2.465011E+04 -4.683483E+04 -1.740393E+03  1.627017E+04 -1.156658E+03
       143   8 -6.726524E+05 -1.926484E+04 -6.109646E+04 -8.636842E+01  3.417358E+04 -1.382074E+03
       143   9 -6.850689E+05 -6.327986E+04 -9.935247E+04 -8.418455E+03  5.207694E+04 -1.326590E+03
       143  10 -4.678089E+05  2.707806E+04  4.662491E+03 -6.307889E+03  1.269856E-09 -1.840768E-10
       143  11 -4.554152E+05  3.501002E+04 -7.101725E+03  2.039138E+03  6.603236E-10 -8.577061E-10
       143  12 -4.575889E+05 -6.431214E+03 -4.278433E+04  4.003580E+02 -6.369534E-10  1.879026E-10
       143  13 -5.713223E+05  1.214332E+03 -2.108602E+04 -4.023942E+03  4.315255E-09 -1.725757E-10
       143  14 -5.640398E+05  7.872873E+03 -3.409975E+04  9.763112E+02 -1.093755E-09 -8.954467E-10
       143  15 -5.713362E+05 -3.485545E+04 -7.107047E+04 -4.009425E+03  6.992632E-10  3.373824E-10
       143  16 -6.748260E+05 -2.465018E+04 -4.683533E+04 -1.740378E+03 -2.805549E-10 -3.678995E-11
       143  17 -6.726536E+05 -1.926516E+04 -6.109866E+04 -8.633037E+01 -6.574052E-10 -1.799699E-10
       143  18 -6.850718E+05 -6.328059E+04 -9.935758E+04 -8.418400E+03  4.777027E-10  7.531129E-10
       143  19 -4.678086E+05  2.707813E+04  4.663001E+03 -6.307904E+03 -1.641498E+04  1.156743E+03
       143  20 -4.554140E+05  3.501034E+04 -7.099520E+03  2.039100E+03 -3.421604E+04  1.381918E+03
       143  21 -4.575860E+05 -6.430485E+03 -4.277923E+04  4.003025E+02 -5.201735E+04  1.325850E+03
       143  22 -5.713220E+05  1.214405E+03 -2.108551E+04 -4.023958E+03 -1.634257E+04  1.156700E+03
       143  23 -5.640385E+05  7.873189E+03 -3.409755E+04  9.762731E+02 -3.419481E+04  1.381996E+03
       143  24 -5.713333E+05 -3.485472E+04 -7.106537E+04 -4.009480E+03 -5.204715E+04  1.326220E+03
       143  25 -6.748257E+05 -2.465011E+04 -4.683483E+04 -1.740393E+03 -1.627017E+04  1.156658E+03
       143  26 -6.726524E+05 -1.926484E+04 -6.109646E+04 -8.636842E+01 -3.417358E+04  1.382074E+03
       143  27 -6.850689E+05 -6.327986E+04 -9.935247E+04 -8.418455E+03 -5.207694E+04  1.326590E+03
       144   1 -4.474572E+05  4.368450E+04 -5.085580E+04 -1.873158E+04  6.641851E+04 -1.670961E+03
       144   2 -3.969683E+05  8.956978E+04 -9.544922E+04  8.541826E+03  1.379630E+05 -1.948344E+03
       144   3 -4.391822E+05 -1.987709E+05 -2.701418E+05  2.788428E+04  2.095082E+05 -4.912349E+02
       144   4 -5.886958E+05  8.417519E+03 -8.596956E+04 -3.636107E+03  6.618073E+04 -1.669491E+03
       144   5 -5.423329E+05  5.324658E+04 -1.315570E+05  4.473955E+02  1.380423E+05 -1.950094E+03
       144   6 -5.887504E+05 -2.362491E+05 -3.074860E+05 -3.398843E+03  2.099040E+05 -5.013780E+02
       144   7 -7.299158E+05 -2.685010E+04 -1.210847E+05  1.145593E+04  6.594301E+04 -1.668032E+03
       144   8 -6.876781E+05  1.692204E+04 -1.676664E+05 -7.645141E+03  1.381216E+05 -1.951847E+03
       144   9 -7.382961E+05 -2.737253E+05 -3.448314E+05 -3.467443E+04  2.102997E+05 -5.115631E+02
       144  10 -4.474619E+05  4.368331E+04 -5.086410E+04 -1.873150E+04  6.773114E-10 -6.985884E-10
       144  11 -3.969887E+05  8.956466E+04 -9.548502E+04  8.542042E+03 -5.469426E-10 -3.868069E-09
       144  12 -4.392294E+05 -1.987827E+05 -2.702243E+05  2.788437E+04  7.272210E-10 -1.289896E-09
       144  13 -5.887005E+05  8.416339E+03 -8.597780E+04 -3.636018E+03  5.869793E-10 -2.239929E-09
       144  14 -5.423533E+05  5.324145E+04 -1.315929E+05  4.476124E+02 -1.679786E-09  6.181445E-11
       144  15 -5.887977E+05 -2.362609E+05 -3.075689E+05 -3.398758E+03 -1.025094E-09 -5.758853E-10
       144  16 -7.299205E+05 -2.685128E+04 -1.210929E+05  1.145602E+04 -7.725041E-10  1.001134E-10
       144  17 -6.876986E+05  1.691690E+04 -1.677023E+05 -7.644924E+03 -4.865739E-11 -3.128487E-10
       144  18 -7.383437E+05 -2.737372E+05 -3.449146E+05 -3.467434E+04 -8.843130E-10 -1.745630E-09
       144  19 -4.474572E+05  4.368450E+04 -5.085580E+04 -1.873158E+04 -6.641851E+04  1.670961E+03
       144  20 -3.969683E+05  8.956978E+04 -9.544922E+04  8.541826E+03 -1.379630E+05  1.948344E+03
       144  21 -4.391822E+05 -1.987709E+05 -2.701418E+05  2.788428E+04 -2.095082E+05  4.912349E+02
       144  22 -5.886958E+05  8.417519E+03 -8.596956E+04 -3.636107E+03 -6.618073E+04  1.669491E+03
       144  23 -5.423329E+05  5.324658E+04 -1.315570E+05  4.473955E+02 -1.380423E+05  1.950094E+03
       144  24 -5.887504E+05 -2.362491E+05 -3.074860E+05 -3.398843E+03 -2.099040E+05  5.013780E+02
       144  25 -7.299158E+05 -2.685010E+04 -1.210847E+05  1.145593E+04 -6.594301E+04  1.668032E+03
       144  26 -6.876781E+05  1.692204E+04 -1.676664E+05 -7.645141E+03 -1.381216E+05  1.951847E+03
       144  27 -7.382961E+05 -2.737253E+05 -3.448314E+05 -3.467443E+04 -2.102997E+05  5.115631E+02
       145   1  2.240440E+05  1.748648E+05  2.459146E+05 -6.189704E+04  2.779996E+03  7.226091E+04
       145   2  1.127091E+05  9.022863E+04  1.689091E+05  1.255466E+04  7.520563E+03  4.876782E+04
       145   3  1.083031E+05  3.668134E+04  1.341913E+05 -4.777751E+04  4.237785E+03  2.525847E+04
       145   4  7.688835E+04 -4.138464E+05  9.908127E+04 -5.124452E+04  2.783986E+03  7.054383E+04
       145   5 -1.702243E+04 -4.293017E+05  3.995822E+04  1.608467E+04  7.521537E+03  4.861069E+04
       145   6 -4.226693E+03 -4.139156E+05  2.206833E+04 -5.137617E+04  4.233332E+03  2.665865E+04
       145   7 -7.029305E+04 -1.002243E+06 -4.777810E+04 -4.060197E+04  2.787919E+03  6.882835E+04
       145   8 -1.467742E+05 -9.485870E+05 -8.901287E+04  1.961186E+04  7.522509E+03  4.845368E+04
       145   9 -1.167716E+05 -8.643282E+05 -9.006980E+04 -5.497206E+04  4.228862E+03  2.805781E+04
       145  10  2.240426E+05  1.748592E+05  2.459048E+05 -6.189720E+04 -2.259417E-09 -1.320458E-09
       145  11  1.127084E+05  9.022606E+04  1.689046E+05  1.255436E+04 -3.356189E-09 -5.661499E-09
       145  12  1.083029E+05  3.668065E+04  1.341900E+05 -4.777759E+04 -4.891812E-09  2.219103E-09
       145  13  7.688701E+04 -4.138517E+05  9.907190E+04 -5.124468E+04  1.689533E-10  6.485218E-11
       145  14 -1.702312E+04 -4.293043E+05  3.995367E+04  1.608437E+04  1.928146E-09  1.297874E-09
       145  15 -4.226904E+03 -4.139164E+05  2.206696E+04 -5.137626E+04  1.046240E-10 -5.355522E-09
       145  16 -7.029433E+04 -1.002248E+06 -4.778704E+04 -4.060213E+04  1.437445E-09  2.893721E-09
       145  17 -1.467749E+05 -9.485895E+05 -8.901739E+04  1.961157E+04  2.143999E-09  5.629674E-09
       145  18 -1.167719E+05 -8.643291E+05 -9.007132E+04 -5.497216E+04 -1.125074E-09 -9.595410E-10
       145  19  2.240440E+05  1.748648E+05  2.459146E+05 -6.189704E+04 -2.779996E+03 -7.226091E+04
       145  20  1.127091E+05  9.022863E+04  1.689091E+05  1.255466E+04 -7.520563E+03 -4.876782E+04
       145  21  1.083031E+05  3.668134E+04  1.341913E+05 -4.777751E+04 -4.237785E+03 -2.525847E+04
       145  22  7.688835E+04 -4.138464E+05  9.908127E+04 -5.124452E+04 -2.783986E+03 -7.054383E+04
       145  23 -1.702243E+04 -4.293017E+05  3.995822E+04  1.608467E+04 -7.521537E+03 -4.861069E+04
       145  24 -4.226693E+03 -4.139156E+05  2.206833E+04 -5.137617E+04 -4.233332E+03 -2.665865E+04
       145  25 -7.029305E+04 -1.002243E+06 -4.777810E+04 -4.060197E+04 -2.787919E+03 -6.882835E+04
       145  26 -1.467742E+05 -9.485870E+05 -8.901287E+04  1.961186E+04 -7.522509E+03 -4.845368E+04
       145  27 -1.167716E+05 -8.643282E+05 -9.006980E+04 -5.497206E+04 -4.228862E+03 -2.805781E+04
       146   1  2.246828E+04 -3.790734E+05  2.574053E+04 -5.251023E+04  1.252431E+03  2.292979E+04
       146   2 -6.736747E+03 -4.485151E+05 -8.593112E+03  1.614996E+04 -4.428667E+02  2.376821E+04
       146   3 -3.773035E+04 -5.196384E+05 -4.415234E+04 -5.260959E+04 -2.054372E+03  2.460702E+04
       146   4  1.199298E+04 -4.210692E+05  1.540239E+04 -5.186493E+04  1.251322E+03  2.326253E+04
       146   5  3.229993E+02 -4.202305E+05 -1.565189E+03  1.680310E+04 -4.438894E+02  2.408570E+04
       146   6 -1.313182E+04 -4.210735E+05 -1.974577E+04 -5.194822E+04 -2.055321E+03  2.490936E+04
       146   7  1.517563E+03 -4.630634E+05  5.064111E+03 -5.121967E+04  1.250213E+03  2.359525E+04
       146   8  7.382687E+03 -3.919452E+05  5.462676E+03  1.745628E+04 -4.449114E+02  2.440320E+04
       146   9  1.146599E+04 -3.224998E+05  4.660088E+03 -5.128673E+04 -2.056269E+03  2.521174E+04
       146  10  2.246813E+04 -3.790740E+05  2.573954E+04 -5.251025E+04 -3.365424E-09  2.292158E-09
       146  11 -6.736899E+03 -4.485157E+05 -8.594175E+03  1.614997E+04  3.197963E-09 -6.812445E-09
       146  12 -3.773052E+04 -5.196391E+05 -4.415349E+04 -5.260955E+04  1.106460E-09  2.026199E-09
       146  13  1.199284E+04 -4.210698E+05  1.540137E+04 -5.186495E+04  2.002234E-10  4.196541E-11
       146  14  3.228432E+02 -4.202311E+05 -1.566280E+03  1.680311E+04  2.807359E-09  1.819485E-09
       146  15 -1.313199E+04 -4.210742E+05 -1.974694E+04 -5.194817E+04  1.575836E-09 -5.705791E-09
       146  16  1.517412E+03 -4.630640E+05  5.063061E+03 -5.121969E+04 -1.536586E-09  1.318771E-09
       146  17  7.382527E+03 -3.919459E+05  5.461556E+03  1.745629E+04  2.955679E-09  6.744430E-09
       146  18  1.146582E+04 -3.225005E+05  4.658885E+03 -5.128669E+04 -2.014950E-09 -8.035044E-10
       146  19  2.246828E+04 -3.790734E+05  2.574053E+04 -5.251023E+04 -1.252431E+03 -2.292979E+04
       146  20 -6.736747E+03 -4.485151E+05 -8.593112E+03  1.614996E+04  4.428667E+02 -2.376821E+04
       146  21 -3.773035E+04 -5.196384E+05 -4.415234E+04 -5.260959E+04  2.054372E+03 -2.460702E+04
       146  22  1.199298E+04 -4.210692E+05  1.540239E+04 -5.186493E+04 -1.251322E+03 -2.326253E+04
       146  23  3.229993E+02 -4.202305E+05 -1.565189E+03  1.680310E+04  4.438894E+02 -2.408570E+04
       146  24 -1.313182E+04 -4.210735E+05 -1.974577E+04 -5.194822E+04  2.055321E+03 -2.490936E+04
       146  25  1.517563E+03 -4.630634E+05  5.064111E+03 -5.121967E+04 -1.250213E+03 -2.359525E+04
       146  26  7.382687E+03 -3.919452E+05  5.462676E+03  1.745628E+04  4.449114E+02 -2.440320E+04
       146  27  1.146599E+04 -3.224998E+05  4.660088E+03 -5.128673E+04  2.056269E+03 -2.521174E+04
       147   1 -1.213710E+05 -9.339997E+05 -1.526241E+05 -4.452980E+04 -5.114293E+03  2.756359E+04
       147   2 -1.243628E+05 -9.866722E+05 -1.895266E+05  1.380787E+04 -8.525030E+03  5.476263E+04
       147   3 -2.485677E+05 -1.071365E+06 -2.740993E+05 -6.214238E+04 -3.254836E+03  8.197608E+04
       147   4  5.191499E+03 -4.278237E+05 -2.659974E+04 -5.115474E+04 -5.118809E+03  2.905221E+04
       147   5  1.920775E+04 -4.119534E+05 -4.678254E+04  1.592444E+04 -8.523948E+03  5.460779E+04
       147   6 -8.764164E+04 -4.277874E+05 -1.134596E+05 -5.127777E+04 -3.250901E+03  8.018087E+04
       147   7  1.317348E+05  7.858511E+04  9.940544E+04 -5.778491E+04 -5.123355E+03  3.054205E+04
       147   8  1.627535E+05  1.630658E+05  9.593678E+04  1.804314E+04 -8.522869E+03  5.445279E+04
       147   9  7.325361E+04  2.161664E+05  4.714901E+04 -4.040175E+04 -3.247031E+03  7.838376E+04
       147  10 -1.213712E+05 -9.340005E+05 -1.526256E+05 -4.452969E+04  1.875001E-10  3.076213E-09
       147  11 -1.243636E+05 -9.866755E+05 -1.895323E+05  1.380825E+04  2.584296E-09 -4.869673E-09
       147  12 -2.485695E+05 -1.071372E+06 -2.741120E+05 -6.214216E+04  1.597035E-10 -1.796552E-09
       147  13  5.191244E+03 -4.278246E+05 -2.660137E+04 -5.115462E+04 -2.471715E-09 -9.958258E-11
       147  14  1.920687E+04 -4.119566E+05 -4.678829E+04  1.592482E+04 -3.510963E-09  1.100732E-09
       147  15 -8.764338E+04 -4.277943E+05 -1.134717E+05 -5.127756E+04 -6.848318E-10 -2.117778E-09
       147  16  1.317345E+05  7.858411E+04  9.940364E+04 -5.778478E+04 -2.012054E-09  7.081297E-11
       147  17  1.627526E+05  1.630626E+05  9.593107E+04  1.804351E+04  4.285842E-10  4.839488E-09
       147  18  7.325195E+04  2.161598E+05  4.713745E+04 -4.040154E+04  1.378357E-09  2.246941E-09
       147  19 -1.213710E+05 -9.339997E+05 -1.526241E+05 -4.452980E+04  5.114293E+03 -2.756359E+04
       147  20 -1.243628E+05 -9.866722E+05 -1.895266E+05  1.380787E+04  8.525030E+03 -5.476263E+04
       147  21 -2.485677E+05 -1.071365E+06 -2.740993E+05 -6.214238E+04  3.254836E+03 -8.197608E+04
       147  22  5.191499E+03 -4.278237E+05 -2.659974E+04 -5.115474E+04  5.118809E+03 -2.905221E+04
       147  23  1.920775E+04 -4.119534E+05 -4.678254E+04  1.592444E+04  8.523948E+03 -5.460779E+04
       147  24 -8.764164E+04 -4.277874E+05 -1.134596E+05 -5.127777E+04  3.250901E+03 -8.018087E+04
       147  25  1.317348E+05  7.858511E+04  9.940544E+04 -5.778491E+04  5.123355E+03 -3.054205E+04
       147  26  1.627535E+05  1.630658E+05  9.593678E+04  1.804314E+04  8.522869E+03 -5.445279E+04
       147  27  7.325361E+04  2.161664E+05  4.714901E+04 -4.040175E+04  3.247031E+03 -7.838376E+04
       148   1 -1.573701E+06 -3.636834E+05 -1.860546E+05 -5.512404E+05 -1.001769E+05 -3.710976E+04
       148   2 -1.540957E+06 -2.210395E+05 -9.232157E+04 -5.828756E+05 -6.480243E+04 -2.266629E+04
       148   3 -1.570507E+06 -2.376466E+05 -6.843617E+04 -5.753472E+05 -2.897186E+04 -9.433715E+03
       148   4 -1.480152E+06 -3.146360E+05 -1.575553E+05 -5.117799E+05 -9.990155E+04 -3.700892E+04
       148   5 -1.441167E+06 -1.798160E+05 -6.426672E+04 -5.521193E+05 -6.473953E+04 -2.264311E+04
       148   6 -1.464426E+06 -2.041900E+05 -4.064872E+04 -5.532980E+05 -2.912109E+04 -9.489436E+03
       148   7 -1.386594E+06 -2.655854E+05 -1.290568E+05 -4.723132E+05 -9.962614E+04 -3.690804E+04
       148   8 -1.341368E+06 -1.385913E+05 -3.621280E+04 -5.213583E+05 -6.467662E+04 -2.261992E+04
       148   9 -1.358334E+06 -1.707336E+05 -1.286217E+04 -5.312458E+05 -2.927034E+04 -9.545162E+03
       148  10 -1.573713E+06 -3.636876E+05 -1.860761E+05 -5.512434E+05  4.899215E-10 -6.706069E-10
       148  11 -1.540961E+06 -2.210411E+05 -9.233046E+04 -5.828768E+05  2.108472E-09 -2.558213E-09
       148  12 -1.570508E+06 -2.376469E+05 -6.843792E+04 -5.753474E+05 -6.125767E-10 -3.248441E-10
       148  13 -1.480163E+06 -3.146402E+05 -1.575767E+05 -5.117829E+05  1.125703E-09 -4.522233E-10
       148  14 -1.441172E+06 -1.798176E+05 -6.427558E+04 -5.521205E+05 -2.807494E-09 -7.089959E-10
       148  15 -1.464427E+06 -2.041903E+05 -4.065048E+04 -5.532982E+05  5.055783E-10 -3.972111E-10
       148  16 -1.386605E+06 -2.655895E+05 -1.290781E+05 -4.723162E+05 -1.890084E-09  2.348816E-12
       148  17 -1.341373E+06 -1.385930E+05 -3.622164E+04 -5.213595E+05 -1.549952E-09 -2.464669E-10
       148  18 -1.358335E+06 -1.707339E+05 -1.286396E+04 -5.312460E+05 -8.102319E-10  1.224794E-09
       148  19 -1.573701E+06 -3.636834E+05 -1.860546E+05 -5.512404E+05  1.001769E+05  3.710976E+04
       148  20 -1.540957E+06 -2.210395E+05 -9.232157E+04 -5.828756E+05  6.480243E+04  2.266629E+04
       148  21 -1.570507E+06 -2.376466E+05 -6.843617E+04 -5.753472E+05  2.897186E+04  9.433715E+03
       148  22 -1.480152E+06 -3.146360E+05 -1.575553E+05 -5.117799E+05  9.990155E+04  3.700892E+04
       148  23 -1.441167E+06 -1.798160E+05 -6.426672E+04 -5.521193E+05  6.473953E+04  2.264311E+04
       148  24 -1.464426E+06 -2.041900E+05 -4.064872E+04 -5.532980E+05  2.912109E+04  9.489436E+03
       148  25 -1.386594E+06 -2.655854E+05 -1.290568E+05 -4.723132E+05  9.962614E+04  3.690804E+04
       148  26 -1.341368E+06 -1.385913E+05 -3.621280E+04 -5.213583E+05  6.467662E+04  2.261992E+04
       148  27 -1.358334E+06 -1.707336E+05 -1.286217E+04 -5.312458E+05  2.927034E+04  9.545162E+03
       149   1 -1.544134E+06 -2.576326E+05 -5.737728E+04 -5.690286E+05 -2.291409E+04 -7.408351E+03
       149   2 -1.538380E+06 -2.330408E+05 -3.811008E+04 -5.702824E+05 -1.484703E+04 -4.304543E+03
       149   3 -1.537664E+06 -2.367038E+05 -3.128176E+04 -5.710095E+05 -6.684178E+03 -1.455586E+03
       149   4 -1.458559E+06 -2.233410E+05 -3.350208E+04 -5.437464E+05 -2.288211E+04 -7.396435E+03
       149   5 -1.454879E+06 -2.010196E+05 -1.511336E+04 -5.470869E+05 -1.485971E+04 -4.309329E+03
       149   6 -1.456228E+06 -2.069422E+05 -9.126751E+03 -5.499009E+05 -6.741535E+03 -1.477114E+03
       149   7 -1.372977E+06 -1.890488E+05 -9.627587E+03 -5.184610E+05 -2.285012E+04 -7.384517E+03
       149   8 -1.371372E+06 -1.689980E+05  7.882712E+03 -5.238885E+05 -1.487238E+04 -4.314115E+03
       149   9 -1.374786E+06 -1.771802E+05  1.302768E+04 -5.287899E+05 -6.798900E+03 -1.498644E+03
       149  10 -1.544134E+06 -2.576328E+05 -5.737837E+04 -5.690287E+05 -1.973846E-09  6.516079E-10
       149  11 -1.538380E+06 -2.330409E+05 -3.811053E+04 -5.702824E+05 -2.478874E-09 -4.009519E-10
       149  12 -1.537664E+06 -2.367038E+05 -3.128185E+04 -5.710095E+05 -3.435958E-09  3.100872E-10
       149  13 -1.458559E+06 -2.233412E+05 -3.350317E+04 -5.437465E+05  1.020139E-09  7.688010E-10
       149  14 -1.454880E+06 -2.010197E+05 -1.511381E+04 -5.470869E+05 -1.047987E-09 -7.457303E-10
       149  15 -1.456228E+06 -2.069422E+05 -9.126841E+03 -5.499009E+05 -3.985801E-09 -2.664293E-11
       149  16 -1.372978E+06 -1.890490E+05 -9.628673E+03 -5.184612E+05 -6.784327E-10  8.027444E-10
       149  17 -1.371373E+06 -1.689980E+05  7.882261E+03 -5.238886E+05 -1.261517E-09  5.718467E-11
       149  18 -1.374786E+06 -1.771802E+05  1.302759E+04 -5.287899E+05  1.386254E-11 -2.042278E-12
       149  19 -1.544134E+06 -2.576326E+05 -5.737728E+04 -5.690286E+05  2.291409E+04  7.408351E+03
       149  20 -1.538380E+06 -2.330408E+05 -3.811008E+04 -5.702824E+05  1.484703E+04  4.304543E+03
       149  21 -1.537664E+06 -2.367038E+05 -3.128176E+04 -5.710095E+05  6.684178E+03  1.455586E+03
       149  22 -1.458559E+06 -2.233410E+05 -3.350208E+04 -5.437464E+05  2.288211E+04  7.396435E+03
       149  23 -1.454879E+06 -2.010196E+05 -1.511336E+04 -5.470869E+05  1.485971E+04  4.309329E+03
       149  24 -1.456228E+06 -2.069422E+05 -9.126751E+03 -5.499009E+05  6.741535E+03  1.477114E+03
       149  25 -1.372977E+06 -1.890488E+05 -9.627587E+03 -5.184610E+05  2.285012E+04  7.384517E+03
       149  26 -1.371372E+06 -1.689980E+05  7.882712E+03 -5.238885E+05  1.487238E+04  4.314115E+03
       149  27 -1.374786E+06 -1.771802E+05  1.302768E+04 -5.287899E+05  6.798900E+03  1.498644E+03
       150   1 -1.509398E+06 -2.309947E+05 -2.230292E+04 -5.640083E+05 -5.310133E+03 -1.086517E+03
       150   2 -1.507500E+06 -2.226493E+05 -1.734707E+04 -5.594649E+05 -3.368600E+03 -5.170352E+02
       150   3 -1.500160E+06 -2.248034E+05 -1.475204E+04 -5.620465E+05 -1.397683E+03 -2.600174E+01
       150   4 -1.454911E+06 -2.101462E+05 -7.314940E+03 -5.489175E+05 -5.328450E+03 -1.093400E+03
       150   5 -1.457463E+06 -2.036951E+05 -3.611914E+03 -5.458059E+05 -3.400827E+03 -5.291312E+02
       150   6 -1.454569E+06 -2.077405E+05 -2.258494E+03 -5.498192E+05 -1.443837E+03 -4.331526E+01
       150   7 -1.400421E+06 -1.892975E+05  7.672768E+03 -5.338255E+05 -5.346769E+03 -1.100283E+03
       150   8 -1.407423E+06 -1.847408E+05  1.012300E+04 -5.321458E+05 -3.433057E+03 -5.412283E+02
       150   9 -1.408977E+06 -1.906775E+05  1.023485E+04 -5.375911E+05 -1.489993E+03 -6.063014E+01
       150  10 -1.509398E+06 -2.309947E+05 -2.230298E+04 -5.640083E+05 -1.995076E-09 -4.052803E-10
       150  11 -1.507500E+06 -2.226493E+05 -1.734709E+04 -5.594649E+05 -1.566424E-09 -7.488144E-10
       150  12 -1.500160E+06 -2.248034E+05 -1.475204E+04 -5.620465E+05  2.773271E-11  2.390909E-10
       150  13 -1.454911E+06 -2.101462E+05 -7.314996E+03 -5.489175E+05  5.944688E-10 -3.006064E-10
       150  14 -1.457463E+06 -2.036951E+05 -3.611936E+03 -5.458059E+05  1.572190E-09 -7.679735E-10
       150  15 -1.454569E+06 -2.077405E+05 -2.258498E+03 -5.498192E+05 -1.307948E-09  2.824772E-10
       150  16 -1.400421E+06 -1.892975E+05  7.672712E+03 -5.338255E+05 -3.170281E-11 -2.427748E-10
       150  17 -1.407423E+06 -1.847408E+05  1.012298E+04 -5.321458E+05  2.355366E-09 -8.540484E-10
       150  18 -1.408977E+06 -1.906775E+05  1.023485E+04 -5.375911E+05  6.312448E-10  1.512034E-10
       150  19 -1.509398E+06 -2.309947E+05 -2.230292E+04 -5.640083E+05  5.310133E+03  1.086517E+03
       150  20 -1.507500E+06 -2.226493E+05 -1.734707E+04 -5.594649E+05  3.368600E+03  5.170352E+02
       150  21 -1.500160E+06 -2.248034E+05 -1.475204E+04 -5.620465E+05  1.397683E+03  2.600174E+01
       150  22 -1.454911E+06 -2.101462E+05 -7.314940E+03 -5.489175E+05  5.328450E+03  1.093400E+03
       150  23 -1.457463E+06 -2.036951E+05 -3.611914E+03 -5.458059E+05  3.400827E+03  5.291312E+02
       150  24 -1.454569E+06 -2.077405E+05 -2.258494E+03 -5.498192E+05  1.443837E+03  4.331526E+01
       150  25 -1.400421E+06 -1.892975E+05  7.672768E+03 -5.338255E+05  5.346769E+03  1.100283E+03
       150  26 -1.407423E+06 -1.847408E+05  1.012300E+04 -5.321458E+05  3.433057E+03  5.412283E+02
       150  27 -1.408977E+06 -1.906775E+05  1.023485E+04 -5.375911E+05  1.489993E+03  6.063014E+01
       151   1 -1.466590E+06 -2.130320E+05 -5.263117E+03 -5.532489E+05 -1.012649E+03 -3.697382E+01
       151   2 -1.465157E+06 -2.065953E+05 -3.285931E+03 -5.473735E+05 -2.582187E+02  9.828199E+00
       151   3 -1.456159E+06 -2.088214E+05 -2.011638E+03 -5.504152E+05  5.003710E+02  4.557317E+01
       151   4 -1.454238E+06 -2.083260E+05 -1.884833E+03 -5.498447E+05 -1.048812E+03 -5.053727E+01
       151   5 -1.458006E+06 -2.038903E+05 -1.323704E+03 -5.454254E+05 -2.963545E+02 -4.474383E+00
       151   6 -1.454208E+06 -2.081170E+05 -1.463920E+03 -5.499230E+05  4.602544E+02  3.052884E+01
       151   7 -1.441885E+06 -2.036199E+05  1.493442E+03 -5.464405E+05 -1.084976E+03 -6.410105E+01
       151   8 -1.450854E+06 -2.011853E+05  6.385166E+02 -5.434772E+05 -3.344908E+02 -1.877714E+01
       151   9 -1.452258E+06 -2.074127E+05 -9.162029E+02 -5.494309E+05  4.201377E+02  1.548451E+01
       151  10 -1.466590E+06 -2.130320E+05 -5.263119E+03 -5.532489E+05  2.478909E-09  1.706617E-09
       151  11 -1.465157E+06 -2.065953E+05 -3.285931E+03 -5.473735E+05  7.420768E-10  8.823324E-10
       151  12 -1.456159E+06 -2.088214E+05 -2.011639E+03 -5.504152E+05  3.153515E-10 -2.500133E-10
       151  13 -1.454238E+06 -2.083260E+05 -1.884836E+03 -5.498447E+05  7.546295E-10  1.005356E-09
       151  14 -1.458006E+06 -2.038903E+05 -1.323704E+03 -5.454254E+05  3.955054E-09  1.453140E-09
       151  15 -1.454208E+06 -2.081170E+05 -1.463920E+03 -5.499230E+05 -6.784169E-10 -1.734711E-10
       151  16 -1.441885E+06 -2.036199E+05  1.493440E+03 -5.464405E+05 -5.815747E-10  1.249304E-09
       151  17 -1.450854E+06 -2.011853E+05  6.385164E+02 -5.434772E+05  6.402422E-11  6.073778E-10
       151  18 -1.452258E+06 -2.074127E+05 -9.162033E+02 -5.494309E+05  2.708571E-11  9.451097E-11
       151  19 -1.466590E+06 -2.130320E+05 -5.263117E+03 -5.532489E+05  1.012649E+03  3.697382E+01
       151  20 -1.465157E+06 -2.065953E+05 -3.285931E+03 -5.473735E+05  2.582187E+02 -9.828199E+00
       151  21 -1.456159E+06 -2.088214E+05 -2.011638E+03 -5.504152E+05 -5.003710E+02 -4.557317E+01
       151  22 -1.454238E+06 -2.083260E+05 -1.884833E+03 -5.498447E+05  1.048812E+03  5.053727E+01
       151  23 -1.458006E+06 -2.038903E+05 -1.323704E+03 -5.454254E+05  2.963545E+02  4.474383E+00
       151  24 -1.454208E+06 -2.081170E+05 -1.463920E+03 -5.499230E+05 -4.602544E+02 -3.052884E+01
       151  25 -1.441885E+06 -2.036199E+05  1.493442E+03 -5.464405E+05  1.084976E+03  6.410105E+01
       151  26 -1.450854E+06 -2.011853E+05  6.385166E+02 -5.434772E+05  3.344908E+02  1.877714E+01
       151  27 -1.452258E+06 -2.074127E+05 -9.162029E+02 -5.494309E+05 -4.201377E+02 -1.548451E+01
       152   1 -1.422061E+06 -1.957780E+05  7.204682E+03 -5.411639E+05  8.148580E+02  6.035684E+00
       152   2 -1.420643E+06 -1.898508E+05  7.715178E+03 -5.354912E+05  2.154719E+03  2.566679E+02
       152   3 -1.412509E+06 -1.929124E+05  6.873304E+03 -5.379821E+05  3.478101E+03  5.513560E+02
       152   4 -1.454357E+06 -2.079029E+05 -1.658885E+03 -5.498634E+05  7.712602E+02 -1.031584E+01
       152   5 -1.457783E+06 -2.038907E+05 -2.473743E+03 -5.456006E+05  2.118950E+03  2.432477E+02
       152   6 -1.454494E+06 -2.088689E+05 -4.647236E+03 -5.495015E+05  3.450150E+03  5.408644E+02
       152   7 -1.486653E+06 -2.200278E+05 -1.052256E+04 -5.585625E+05  7.276649E+02 -2.666646E+01
       152   8 -1.494922E+06 -2.179305E+05 -1.266281E+04 -5.557095E+05  2.083183E+03  2.298283E+02
       152   9 -1.496478E+06 -2.248254E+05 -1.616798E+04 -5.610202E+05  3.422201E+03  5.303736E+02
       152  10 -1.422061E+06 -1.957780E+05  7.204681E+03 -5.411639E+05  1.458926E-10 -7.255450E-10
       152  11 -1.420643E+06 -1.898508E+05  7.715169E+03 -5.354912E+05  3.350781E-09  6.060314E-10
       152  12 -1.412509E+06 -1.929124E+05  6.873281E+03 -5.379821E+05  5.771646E-10 -1.271518E-10
       152  13 -1.454357E+06 -2.079029E+05 -1.658886E+03 -5.498634E+05  1.841773E-09 -9.985791E-10
       152  14 -1.457783E+06 -2.038907E+05 -2.473751E+03 -5.456006E+05  4.803457E-11  3.794151E-10
       152  15 -1.454494E+06 -2.088689E+05 -4.647259E+03 -5.495015E+05  8.837682E-11 -8.937053E-11
       152  16 -1.486653E+06 -2.200278E+05 -1.052256E+04 -5.585625E+05  3.608746E-10 -1.920300E-10
       152  17 -1.494922E+06 -2.179305E+05 -1.266282E+04 -5.557095E+05 -2.888005E-09 -9.987867E-11
       152  18 -1.496478E+06 -2.248254E+05 -1.616800E+04 -5.610202E+05  2.392921E-09 -2.739391E-10
       152  19 -1.422061E+06 -1.957780E+05  7.204682E+03 -5.411639E+05 -8.148580E+02 -6.035684E+00
       152  20 -1.420643E+06 -1.898508E+05  7.715178E+03 -5.354912E+05 -2.154719E+03 -2.566679E+02
       152  21 -1.412509E+06 -1.929124E+05  6.873304E+03 -5.379821E+05 -3.478101E+03 -5.513560E+02
       152  22 -1.454357E+06 -2.079029E+05 -1.658885E+03 -5.498634E+05 -7.712602E+02  1.031584E+01
       152  23 -1.457783E+06 -2.038907E+05 -2.473743E+03 -5.456006E+05 -2.118950E+03 -2.432477E+02
       152  24 -1.454494E+06 -2.088689E+05 -4.647236E+03 -5.495015E+05 -3.450150E+03 -5.408644E+02
       152  25 -1.486653E+06 -2.200278E+05 -1.052256E+04 -5.585625E+05 -7.276649E+02  2.666646E+01
       152  26 -1.494922E+06 -2.179305E+05 -1.266281E+04 -5.557095E+05 -2.083183E+03 -2.298283E+02
       152  27 -1.496478E+06 -2.248254E+05 -1.616798E+04 -5.610202E+05 -3.422201E+03 -5.303736E+02
       153   1 -1.384178E+06 -1.809090E+05  1.354211E+04 -5.308033E+05  4.413628E+03  7.674673E+02
       153   2 -1.382041E+06 -1.747611E+05  1.040366E+04 -5.260295E+05  9.676621E+03  2.524425E+03
       153   3 -1.378686E+06 -1.841635E+05  6.912337E+02 -5.251933E+05  1.490071E+04  4.385042E+03
       153   4 -1.455295E+06 -2.073349E+05 -5.894769E+03 -5.496859E+05  4.369658E+03  7.509629E+02
       153   5 -1.456394E+06 -2.030157E+05 -1.002289E+04 -5.464202E+05  9.650648E+03  2.514661E+03
       153   6 -1.456279E+06 -2.142511E+05 -2.073988E+04 -5.470920E+05  1.489271E+04  4.382004E+03
       153   7 -1.526407E+06 -2.337605E+05 -2.533205E+04 -5.685665E+05  4.325693E+03  7.344606E+02
       153   8 -1.530741E+06 -2.312699E+05 -3.044992E+04 -5.668087E+05  9.624678E+03  2.504899E+03
       153   9 -1.533866E+06 -2.443383E+05 -4.217155E+04 -5.689881E+05  1.488471E+04  4.378965E+03
       153  10 -1.384178E+06 -1.809090E+05  1.354207E+04 -5.308033E+05 -9.406615E-10 -9.149633E-10
       153  11 -1.382041E+06 -1.747611E+05  1.040347E+04 -5.260295E+05 -4.953992E-09 -4.884579E-11
       153  12 -1.378686E+06 -1.841636E+05  6.907792E+02 -5.251933E+05  3.733843E-09  1.930243E-10
       153  13 -1.455295E+06 -2.073349E+05 -5.894806E+03 -5.496859E+05  1.148736E-09 -2.771276E-10
       153  14 -1.456394E+06 -2.030157E+05 -1.002308E+04 -5.464202E+05  2.904941E-10 -1.092506E-10
       153  15 -1.456279E+06 -2.142512E+05 -2.074034E+04 -5.470920E+05 -2.402569E-09 -5.062338E-10
       153  16 -1.526407E+06 -2.337605E+05 -2.533208E+04 -5.685665E+05  5.723918E-10  5.293676E-10
       153  17 -1.530741E+06 -2.312700E+05 -3.045010E+04 -5.668087E+05 -2.454403E-10  3.439909E-10
       153  18 -1.533866E+06 -2.443384E+05 -4.217200E+04 -5.689882E+05 -2.503215E-09 -2.938932E-10
       153  19 -1.384178E+06 -1.809090E+05  1.354211E+04 -5.308033E+05 -4.413628E+03 -7.674673E+02
       153  20 -1.382041E+06 -1.747611E+05  1.040366E+04 -5.260295E+05 -9.676621E+03 -2.524425E+03
       153  21 -1.378686E+06 -1.841635E+05  6.912337E+02 -5.251933E+05 -1.490071E+04 -4.385042E+03
       153  22 -1.455295E+06 -2.073349E+05 -5.894769E+03 -5.496859E+05 -4.369658E+03 -7.509629E+02
       153  23 -1.456394E+06 -2.030157E+05 -1.002289E+04 -5.464202E+05 -9.650648E+03 -2.514661E+03
       153  24 -1.456279E+06 -2.142511E+05 -2.073988E+04 -5.470920E+05 -1.489271E+04 -4.382004E+03
       153  25 -1.526407E+06 -2.337605E+05 -2.533205E+04 -5.685665E+05 -4.325693E+03 -7.344606E+02
       153  26 -1.530741E+06 -2.312699E+05 -3.044992E+04 -5.668087E+05 -9.624678E+03 -2.504899E+03
       153  27 -1.533866E+06 -2.443383E+05 -4.217155E+04 -5.689881E+05 -1.488471E+04 -4.378965E+03
       154   1 -1.360633E+06 -1.714456E+05  5.423039E+02 -5.268917E+05  1.885735E+04  5.761558E+03
       154   2 -1.352544E+06 -1.562365E+05 -1.613590E+04 -5.210866E+05  4.182497E+04  1.423624E+04
       154   3 -1.369859E+06 -2.108069E+05 -6.821630E+04 -5.013111E+05  6.469149E+04  2.298069E+04
       154   4 -1.459300E+06 -2.058670E+05 -2.596513E+04 -5.507915E+05  1.880669E+04  5.742617E+03
       154   5 -1.449928E+06 -1.943950E+05 -4.311643E+04 -5.489769E+05  4.181918E+04  1.423393E+04
       154   6 -1.465972E+06 -2.527182E+05 -9.570987E+04 -5.331910E+05  6.473061E+04  2.299467E+04
       154   7 -1.557958E+06 -2.402882E+05 -5.247345E+04 -5.746880E+05  1.875603E+04  5.723679E+03
       154   8 -1.547302E+06 -2.325528E+05 -7.009786E+04 -5.768633E+05  4.181340E+04  1.423163E+04
       154   9 -1.562077E+06 -2.946281E+05 -1.232043E+05 -5.650662E+05  6.476973E+04  2.300864E+04
       154  10 -1.360633E+06 -1.714457E+05  5.415715E+02 -5.268918E+05  1.544645E-09 -1.194280E-09
       154  11 -1.352546E+06 -1.562371E+05 -1.613958E+04 -5.210871E+05 -1.024459E-09 -4.666172E-11
       154  12 -1.369863E+06 -2.108086E+05 -6.822518E+04 -5.013123E+05 -7.416801E-10  1.587166E-09
       154  13 -1.459301E+06 -2.058671E+05 -2.596586E+04 -5.507916E+05 -3.004473E-10 -1.050612E-09
       154  14 -1.449930E+06 -1.943956E+05 -4.312011E+04 -5.489774E+05  4.639727E-10 -1.098528E-09
       154  15 -1.465977E+06 -2.527199E+05 -9.571876E+04 -5.331922E+05 -3.019703E-09  2.168744E-09
       154  16 -1.557959E+06 -2.402883E+05 -5.247417E+04 -5.746881E+05 -9.252741E-10 -1.128033E-09
       154  17 -1.547304E+06 -2.325534E+05 -7.010153E+04 -5.768638E+05  3.136086E-09  1.435198E-09
       154  18 -1.562082E+06 -2.946298E+05 -1.232132E+05 -5.650674E+05  6.088568E-10 -9.236751E-10
       154  19 -1.360633E+06 -1.714456E+05  5.423039E+02 -5.268917E+05 -1.885735E+04 -5.761558E+03
       154  20 -1.352544E+06 -1.562365E+05 -1.613590E+04 -5.210866E+05 -4.182497E+04 -1.423624E+04
       154  21 -1.369859E+06 -2.108069E+05 -6.821630E+04 -5.013111E+05 -6.469149E+04 -2.298069E+04
       154  22 -1.459300E+06 -2.058670E+05 -2.596513E+04 -5.507915E+05 -1.880669E+04 -5.742617E+03
       154  23 -1.449928E+06 -1.943950E+05 -4.311643E+04 -5.489769E+05 -4.181918E+04 -1.423393E+04
       154  24 -1.465972E+06 -2.527182E+05 -9.570987E+04 -5.331910E+05 -6.473061E+04 -2.299467E+04
       154  25 -1.557958E+06 -2.402882E+05 -5.247345E+04 -5.746880E+05 -1.875603E+04 -5.723679E+03
       154  26 -1.547302E+06 -2.325528E+05 -7.009786E+04 -5.768633E+05 -4.181340E+04 -1.423163E+04
       154  27 -1.562077E+06 -2.946281E+05 -1.232043E+05 -5.650662E+05 -6.476973E+04 -2.300864E+04
       155   1 -1.362922E+06 -1.734020E+05 -8.739019E+04 -5.491160E+05  8.251877E+04  2.948980E+04
       155   2 -1.315159E+06 -8.555309E+04 -1.549880E+05 -5.249175E+05  1.839236E+05  6.751700E+04
       155   3 -1.450910E+06 -4.471646E+05 -4.215411E+05 -3.825980E+05  2.848783E+05  1.067484E+05
       155   4 -1.481514E+06 -1.992380E+05 -1.161443E+05 -5.619190E+05  8.237938E+04  2.944050E+04
       155   5 -1.412225E+06 -1.322559E+05 -1.835899E+05 -5.616046E+05  1.839841E+05  6.753606E+04
       155   6 -1.526520E+06 -5.148203E+05 -4.501740E+05 -4.431590E+05  2.851425E+05  1.068254E+05
       155   7 -1.600091E+06 -2.250744E+05 -1.448991E+05 -5.747208E+05  8.224003E+04  2.939121E+04
       155   8 -1.509281E+06 -1.789562E+05 -2.121926E+05 -5.982860E+05  1.840447E+05  6.755512E+04
       155   9 -1.602121E+06 -5.824634E+05 -4.788068E+05 -5.037107E+05  2.854068E+05  1.069024E+05
       155  10 -1.362930E+06 -1.734048E+05 -8.740466E+04 -5.491180E+05 -3.083635E-09  2.242137E-09
       155  11 -1.315197E+06 -8.556711E+04 -1.550603E+05 -5.249275E+05 -2.153592E-10 -1.817062E-09
       155  12 -1.451001E+06 -4.471987E+05 -4.217155E+05 -3.826225E+05  6.671195E-10  1.532289E-10
       155  13 -1.481521E+06 -1.992408E+05 -1.161587E+05 -5.619210E+05 -2.080664E-09  3.075089E-10
       155  14 -1.412262E+06 -1.322699E+05 -1.836622E+05 -5.616147E+05  3.456467E-10 -9.893537E-10
       155  15 -1.526611E+06 -5.148545E+05 -4.503487E+05 -4.431836E+05 -4.964448E-10  2.591412E-09
       155  16 -1.600098E+06 -2.250771E+05 -1.449134E+05 -5.747228E+05 -1.040493E-09  9.856651E-10
       155  17 -1.509318E+06 -1.789703E+05 -2.122651E+05 -5.982960E+05 -3.935348E-09  4.016685E-09
       155  18 -1.602212E+06 -5.824977E+05 -4.789819E+05 -5.037353E+05  3.205064E-10  1.010882E-10
       155  19 -1.362922E+06 -1.734020E+05 -8.739019E+04 -5.491160E+05 -8.251877E+04 -2.948980E+04
       155  20 -1.315159E+06 -8.555309E+04 -1.549880E+05 -5.249175E+05 -1.839236E+05 -6.751700E+04
       155  21 -1.450910E+06 -4.471646E+05 -4.215411E+05 -3.825980E+05 -2.848783E+05 -1.067484E+05
       155  22 -1.481514E+06 -1.992380E+05 -1.161443E+05 -5.619190E+05 -8.237938E+04 -2.944050E+04
       155  23 -1.412225E+06 -1.322559E+05 -1.835899E+05 -5.616046E+05 -1.839841E+05 -6.753606E+04
       155  24 -1.526520E+06 -5.148203E+05 -4.501740E+05 -4.431590E+05 -2.851425E+05 -1.068254E+05
       155  25 -1.600091E+06 -2.250744E+05 -1.448991E+05 -5.747208E+05 -8.224003E+04 -2.939121E+04
       155  26 -1.509281E+06 -1.789562E+05 -2.121926E+05 -5.982860E+05 -1.840447E+05 -6.755512E+04
       155  27 -1.602121E+06 -5.824634E+05 -4.788068E+05 -5.037107E+05 -2.854068E+05 -1.069024E+05
       156   1  2.283947E+05  1.857854E+06  2.178972E+05 -1.645438E+05  1.011474E+04  8.345864E+04
       156   2  1.793706E+05  1.735831E+06  1.460879E+05 -1.489283E+05  3.358705E+04  3.727342E+04
       156   3  1.457577E+05  1.623648E+06  1.081512E+05 -1.522496E+05  3.888417E+04 -8.920289E+03
       156   4  1.852689E+04  1.005391E+06  1.981652E+04 -1.511856E+05  1.021408E+04  1.153927E+04
       156   5  6.347414E+03  1.003989E+06  1.176971E+04 -1.417291E+05  3.363639E+04  5.590418E+03
       156   6  2.617307E+03  1.005454E+06  9.714051E+03 -1.512086E+05  3.887458E+04 -3.763603E+02
       156   7 -1.913887E+05  1.536089E+05 -1.782936E+05 -1.378456E+05  1.031041E+04 -6.028228E+04
       156   8 -1.667054E+05  2.726681E+05 -1.225667E+05 -1.345383E+05  3.368504E+04 -2.605632E+04
       156   9 -1.405421E+05  3.876392E+05 -8.873268E+04 -1.501684E+05  3.886501E+04  8.159387E+03
       156  10  2.283927E+05  1.857846E+06  2.178840E+05 -1.645445E+05  9.067221E-10  1.042853E-09
       156  11  1.793690E+05  1.735830E+06  1.460832E+05 -1.489293E+05 -2.099220E-09 -3.367517E-09
       156  12  1.457560E+05  1.623648E+06  1.081482E+05 -1.522493E+05 -1.538046E-09 -2.994640E-09
       156  13  1.852675E+04  1.005391E+06  1.981607E+04 -1.511857E+05  9.672269E-11  1.167764E-11
       156  14  6.346190E+03  1.003989E+06  1.176752E+04 -1.417292E+05  4.470442E-10  1.241927E-10
       156  15  2.615683E+03  1.005454E+06  9.711209E+03 -1.512086E+05 -3.407332E-10 -1.990590E-09
       156  16 -1.913898E+05  1.536049E+05 -1.783007E+05 -1.378451E+05 -1.369309E-09 -2.063909E-09
       156  17 -1.667068E+05  2.726670E+05 -1.225701E+05 -1.345376E+05 -3.143904E-10  3.278741E-10
       156  18 -1.405437E+05  3.876387E+05 -8.873564E+04 -1.501687E+05 -5.205741E-10  2.740796E-09
       156  19  2.283947E+05  1.857854E+06  2.178972E+05 -1.645438E+05 -1.011474E+04 -8.345864E+04
       156  20  1.793706E+05  1.735831E+06  1.460879E+05 -1.489283E+05 -3.358705E+04 -3.727342E+04
       156  21  1.457577E+05  1.623648E+06  1.081512E+05 -1.522496E+05 -3.888417E+04  8.920289E+03
       156  22  1.852689E+04  1.005391E+06  1.981652E+04 -1.511856E+05 -1.021408E+04 -1.153927E+04
       156  23  6.347414E+03  1.003989E+06  1.176971E+04 -1.417291E+05 -3.363639E+04 -5.590418E+03
       156  24  2.617307E+03  1.005454E+06  9.714051E+03 -1.512086E+05 -3.887458E+04  3.763603E+02
       156  25 -1.913887E+05  1.536089E+05 -1.782936E+05 -1.378456E+05 -1.031041E+04  6.028228E+04
       156  26 -1.667054E+05  2.726681E+05 -1.225667E+05 -1.345383E+05 -3.368504E+04  2.605632E+04
       156  27 -1.405421E+05  3.876392E+05 -8.873268E+04 -1.501684E+05 -3.886501E+04 -8.159387E+03
       157   1  1.278641E+05  1.549423E+06  9.430736E+04 -1.533216E+05  3.589442E+04 -1.101916E+04
       157   2  1.006890E+05  1.431213E+06  7.575551E+04 -1.404085E+05  3.073026E+04 -2.249868E+04
       157   3  7.879108E+04  1.315770E+06  6.596939E+04 -1.477219E+05  2.339297E+04 -3.398081E+04
       157   4  2.333453E+03  1.005259E+06  1.004005E+04 -1.514950E+05  3.588295E+04 -1.957090E+03
       157   5  2.944136E+03  1.004313E+06  1.330368E+04 -1.413774E+05  3.070955E+04 -8.626043E+03
       157   6  8.000353E+03  1.005288E+06  2.199943E+04 -1.514867E+05  2.336232E+04 -1.529960E+04
       157   7 -1.232115E+05  4.613910E+05 -7.423377E+04 -1.496700E+05  3.587152E+04  7.097361E+03
       157   8 -9.480907E+04  5.775976E+05 -4.915058E+04 -1.423456E+05  3.068878E+04  5.237467E+03
       157   9 -6.279446E+04  6.949044E+05 -2.197056E+04 -1.552495E+05  2.333144E+04  3.372698E+03
       157  10  1.278627E+05  1.549422E+06  9.430471E+04 -1.533213E+05  2.119829E-10 -6.732165E-08
       157  11  1.006879E+05  1.431212E+06  7.575278E+04 -1.404079E+05 -1.201674E-09 -4.537306E-09
       157  12  7.879018E+04  1.315769E+06  6.596620E+04 -1.477213E+05 -1.327566E-09  6.408198E-08
       157  13  2.332068E+03  1.005259E+06  1.003762E+04 -1.514950E+05  1.064086E-09 -1.362138E-10
       157  14  2.943103E+03  1.004313E+06  1.330176E+04 -1.413772E+05  3.003045E-09 -7.897936E-11
       157  15  7.999704E+03  1.005288E+06  2.199797E+04 -1.514864E+05 -4.813693E-10 -2.343810E-09
       157  16 -1.232129E+05  4.613906E+05 -7.423629E+04 -1.496702E+05  1.054815E-09  6.565532E-08
       157  17 -9.481008E+04  5.775973E+05 -4.915240E+04 -1.423457E+05  1.923742E-09  5.840706E-10
       157  18 -6.279504E+04  6.949043E+05 -2.197160E+04 -1.552496E+05  1.314285E-09 -6.470309E-08
       157  19  1.278641E+05  1.549423E+06  9.430736E+04 -1.533216E+05 -3.589442E+04  1.101916E+04
       157  20  1.006890E+05  1.431213E+06  7.575551E+04 -1.404085E+05 -3.073026E+04  2.249868E+04
       157  21  7.879108E+04  1.315770E+06  6.596939E+04 -1.477219E+05 -2.339297E+04  3.398081E+04
       157  22  2.333453E+03  1.005259E+06  1.004005E+04 -1.514950E+05 -3.588295E+04  1.957090E+03
       157  23  2.944136E+03  1.004313E+06  1.330368E+04 -1.413774E+05 -3.070955E+04  8.626043E+03
       157  24  8.000353E+03  1.005288E+06  2.199943E+04 -1.514867E+05 -2.336232E+04  1.529960E+04
       157  25 -1.232115E+05  4.613910E+05 -7.423377E+04 -1.496700E+05 -3.587152E+04 -7.097361E+03
       157  26 -9.480907E+04  5.775976E+05 -4.915058E+04 -1.423456E+05 -3.068878E+04 -5.237467E+03
       157  27 -6.279446E+04  6.949044E+05 -2.197056E+04 -1.552495E+05 -2.333144E+04 -3.372698E+03
       158   1  6.434617E+04  1.245557E+06  6.173380E+04 -1.504740E+05  1.836993E+04 -3.781277E+04
       158   2  5.931767E+04  1.121946E+06  6.765846E+04 -1.084640E+05  1.015449E+04 -6.343001E+04
       158   3  9.697229E+04  1.012281E+06  1.008940E+05 -8.674635E+04  2.352918E+03 -8.904288E+04
       158   4  1.030194E+04  1.008000E+06  2.873443E+04 -1.515101E+05  1.833819E+04 -1.909101E+04
       158   5  3.213056E+04  1.000941E+06  5.190959E+04 -1.412971E+05  1.012696E+04 -4.562778E+04
       158   6  9.680035E+04  1.007966E+06  1.030305E+05 -1.513707E+05  2.332274E+03 -7.216429E+04
       158   7 -4.374458E+04  7.705005E+05 -4.264300E+03 -1.525457E+05  1.830638E+04 -3.760848E+02
       158   8  4.947060E+03  8.799545E+05  3.616240E+04 -1.741235E+05  1.009756E+04 -2.782884E+04
       158   9  9.664424E+04  1.003660E+06  1.051704E+05 -2.159946E+05  2.308123E+03 -5.528578E+04
       158  10  6.434542E+04  1.245555E+06  6.173048E+04 -1.504734E+05  5.816981E-10  2.589730E-09
       158  11  5.931649E+04  1.121942E+06  6.765072E+04 -1.084635E+05  3.741793E-11 -2.766423E-09
       158  12  9.697016E+04  1.012273E+06  1.008792E+05 -8.674618E+04  4.180616E-10 -1.100976E-09
       158  13  1.030149E+04  1.007999E+06  2.873312E+04 -1.515098E+05 -1.347620E-09 -3.725390E-11
       158  14  3.212989E+04  1.000939E+06  5.190549E+04 -1.412968E+05  1.278857E-09  5.574948E-11
       158  15  9.679895E+04  1.007960E+06  1.030208E+05 -1.513706E+05 -1.353153E-09 -2.040743E-09
       158  16 -4.374494E+04  7.705004E+05 -4.264930E+03 -1.525457E+05  6.705827E-10 -4.150422E-09
       158  17  4.946743E+03  8.799536E+05  3.616076E+04 -1.741233E+05  3.365160E-09 -1.446058E-09
       158  18  9.664341E+04  1.003657E+06  1.051646E+05 -2.159945E+05 -7.818495E-10  6.868073E-10
       158  19  6.434617E+04  1.245557E+06  6.173380E+04 -1.504740E+05 -1.836993E+04  3.781277E+04
       158  20  5.931767E+04  1.121946E+06  6.765846E+04 -1.084640E+05 -1.015449E+04  6.343001E+04
       158  21  9.697229E+04  1.012281E+06  1.008940E+05 -8.674635E+04 -2.352918E+03  8.904288E+04
       158  22  1.030194E+04  1.008000E+06  2.873443E+04 -1.515101E+05 -1.833819E+04  1.909101E+04
       158  23  3.213056E+04  1.000941E+06  5.190959E+04 -1.412971E+05 -1.012696E+04  4.562778E+04
       158  24  9.680035E+04  1.007966E+06  1.030305E+05 -1.513707E+05 -2.332274E+03  7.216429E+04
       158  25 -4.374458E+04  7.705005E+05 -4.264300E+03 -1.525457E+05 -1.830638E+04  3.760848E+02
       158  26  4.947060E+03  8.799545E+05  3.616240E+04 -1.741235E+05 -1.009756E+04  2.782884E+04
       158  27  9.664424E+04  1.003660E+06  1.051704E+05 -2.159946E+05 -2.308123E+03  5.528578E+04
       159   1  1.385675E+06  1.386870E+05  2.549373E+05  8.197834E+03  3.375157E+05  6.385103E+03
       159   2  1.367429E+06 -3.152746E+05 -1.469938E+04  3.250082E+04  2.233624E+05  1.391003E+04
       159   3  1.506967E+06 -2.277549E+05 -7.317065E+04 -6.259108E+04  1.092402E+05  1.023413E+04
       159   4  2.365226E+06  3.822956E+05  4.985790E+05 -3.859451E+04  3.405166E+05  6.372627E+03
       159   5  2.286422E+06 -8.640812E+04  2.129205E+05  2.209037E+04  2.240440E+05  1.390670E+04
       159   6  2.365572E+06 -1.365999E+04  1.397981E+05 -3.660801E+04  1.076139E+05  1.023390E+04
       159   7  3.345651E+06  6.258412E+05  7.421505E+05 -8.546162E+04  3.435219E+05  6.359725E+03
       159   8  3.206180E+06  1.423958E+05  4.404776E+05  1.166380E+04  2.247264E+05  1.390335E+04
       159   9  3.224844E+06  2.003823E+05  3.527122E+05 -1.058943E+04  1.059852E+05  1.023353E+04
       159  10  1.385553E+06  1.386565E+05  2.547236E+05  8.196100E+03  4.569233E-10  1.762193E-10
       159  11  1.367376E+06 -3.152881E+05 -1.479327E+04  3.249832E+04  6.214253E-10 -7.719632E-11
       159  12  1.506954E+06 -2.277582E+05 -7.319322E+04 -6.259198E+04 -6.090133E-10 -3.833718E-10
       159  13  2.365102E+06  3.822646E+05  4.983619E+05 -3.859626E+04 -1.846242E-11 -2.560732E-11
       159  14  2.286369E+06 -8.642174E+04  2.128261E+05  2.208786E+04 -4.446413E-10  5.090255E-10
       159  15  2.365559E+06 -1.366319E+04  1.397762E+05 -3.660890E+04  3.094249E-10 -1.695104E-10
       159  16  3.345524E+06  6.258097E+05  7.419298E+05 -8.546338E+04  1.166464E-09  3.479276E-11
       159  17  3.206126E+06  1.423821E+05  4.403829E+05  1.166129E+04 -1.977986E-09  3.574242E-10
       159  18  3.224832E+06  2.003792E+05  3.526910E+05 -1.059030E+04  7.214325E-10  1.120784E-10
       159  19  1.385675E+06  1.386870E+05  2.549373E+05  8.197834E+03 -3.375157E+05 -6.385103E+03
       159  20  1.367429E+06 -3.152746E+05 -1.469938E+04  3.250082E+04 -2.233624E+05 -1.391003E+04
       159  21  1.506967E+06 -2.277549E+05 -7.317065E+04 -6.259108E+04 -1.092402E+05 -1.023413E+04
       159  22  2.365226E+06  3.822956E+05  4.985790E+05 -3.859451E+04 -3.405166E+05 -6.372627E+03
       159  23  2.286422E+06 -8.640812E+04  2.129205E+05  2.209037E+04 -2.240440E+05 -1.390670E+04
       159  24  2.365572E+06 -1.365999E+04  1.397981E+05 -3.660801E+04 -1.076139E+05 -1.023390E+04
       159  25  3.345651E+06  6.258412E+05  7.421505E+05 -8.546162E+04 -3.435219E+05 -6.359725E+03
       159  26  3.206180E+06  1.423958E+05  4.404776E+05  1.166380E+04 -2.247264E+05 -1.390335E+04
       159  27  3.224844E+06  2.003823E+05  3.527122E+05 -1.058943E+04 -1.059852E+05 -1.023353E+04
       160   1  1.757515E+06 -8.811764E+04 -2.812401E+04 -2.125391E+04  8.442858E+04  7.219507E+03
       160   2  1.783308E+06 -1.472922E+05 -7.851773E+04  1.170729E+04  5.564972E+04  6.903511E+03
       160   3  1.835148E+06 -1.267566E+05 -8.979919E+04 -3.114542E+04  2.686829E+04  5.490775E+03
       160   4  2.336291E+06  5.604581E+04  1.153496E+05 -2.759014E+04  8.453493E+04  7.218311E+03
       160   5  2.323286E+06 -1.277410E+04  5.531322E+04  1.035958E+04  5.552093E+04  6.902884E+03
       160   6  2.336346E+06 -1.880490E+03  3.452628E+04 -2.750019E+04  2.650615E+04  5.490681E+03
       160   7  2.915370E+06  2.001844E+05  2.587982E+05 -3.393238E+04  8.464134E+04  7.217115E+03
       160   8  2.863528E+06  1.217223E+05  1.891225E+05  9.010654E+03  5.539201E+04  6.902257E+03
       160   9  2.837771E+06  1.229769E+05  1.588331E+05 -2.385202E+04  2.614372E+04  5.490583E+03
       160  10  1.757507E+06 -8.811960E+04 -2.813746E+04 -2.125440E+04 -1.242349E-09  9.159811E-11
       160  11  1.783305E+06 -1.472931E+05 -7.852362E+04  1.170698E+04  2.022842E-09  9.411264E-10
       160  12  1.835148E+06 -1.267568E+05 -8.980060E+04 -3.114554E+04  4.536611E-10 -5.525663E-11
       160  13  2.336283E+06  5.604385E+04  1.153361E+05 -2.759063E+04 -2.208502E-09 -1.042266E-10
       160  14  2.323283E+06 -1.277497E+04  5.530735E+04  1.035927E+04 -2.780420E-10 -1.789436E-11
       160  15  2.336345E+06 -1.880710E+03  3.452491E+04 -2.750031E+04 -2.204079E-10  1.337722E-10
       160  16  2.915363E+06  2.001824E+05  2.587847E+05 -3.393287E+04  2.659042E-09  1.634953E-10
       160  17  2.863524E+06  1.217214E+05  1.891166E+05  9.010347E+03 -2.601213E-09 -5.631112E-10
       160  18  2.837770E+06  1.229767E+05  1.588317E+05 -2.385214E+04  8.125370E-10 -8.807401E-11
       160  19  1.757515E+06 -8.811764E+04 -2.812401E+04 -2.125391E+04 -8.442858E+04 -7.219507E+03
       160  20  1.783308E+06 -1.472922E+05 -7.851773E+04  1.170729E+04 -5.564972E+04 -6.903511E+03
       160  21  1.835148E+06 -1.267566E+05 -8.979919E+04 -3.114542E+04 -2.686829E+04 -5.490775E+03
       160  22  2.336291E+06  5.604581E+04  1.153496E+05 -2.759014E+04 -8.453493E+04 -7.218311E+03
       160  23  2.323286E+06 -1.277410E+04  5.531322E+04  1.035958E+04 -5.552093E+04 -6.902884E+03
       160  24  2.336346E+06 -1.880490E+03  3.452628E+04 -2.750019E+04 -2.650615E+04 -5.490681E+03
       160  25  2.915370E+06  2.001844E+05  2.587982E+05 -3.393238E+04 -8.464134E+04 -7.217115E+03
       160  26  2.863528E+06  1.217223E+05  1.891225E+05  9.010654E+03 -5.539201E+04 -6.902257E+03
       160  27  2.837771E+06  1.229769E+05  1.588331E+05 -2.385202E+04 -2.614372E+04 -5.490583E+03
       161   1  2.016749E+06 -7.026933E+04 -5.039029E+04 -2.126225E+04  2.107311E+04  4.555150E+03
       161   2  2.041311E+06 -7.364303E+04 -5.700081E+04  4.210612E+03  1.368678E+04  3.540617E+03
       161   3  2.070296E+06 -6.525337E+04 -5.576792E+04 -2.258210E+04  6.299235E+03  2.649466E+03
       161   4  2.331574E+06  8.135695E+03  2.755683E+04 -2.229004E+04  2.087235E+04  4.555061E+03
       161   5  2.329368E+06 -1.889693E+03  1.439633E+04  3.840069E+03  1.350643E+04  3.540665E+03
       161   6  2.331580E+06 -1.581259E+02  9.062410E+03 -2.229386E+04  6.139616E+03  2.649614E+03
       161   7  2.646488E+06  8.653333E+04  1.054966E+05 -2.331834E+04  2.067148E+04  4.554971E+03
       161   8  2.617501E+06  6.985745E+04  8.578729E+04  3.469371E+03  1.332600E+04  3.540713E+03
       161   9  2.592925E+06  6.493202E+04  7.388765E+04 -2.200548E+04  5.979930E+03  2.649763E+03
       161  10  2.016749E+06 -7.026947E+04 -5.039116E+04 -2.126232E+04 -2.103972E-09 -6.518506E-10
       161  11  2.041311E+06 -7.364309E+04 -5.700118E+04  4.210573E+03 -6.809223E-11 -8.186504E-10
       161  12  2.070296E+06 -6.525339E+04 -5.576801E+04 -2.258211E+04 -2.734810E-10 -4.161966E-10
       161  13  2.331573E+06  8.135556E+03  2.755597E+04 -2.229011E+04 -1.131011E-09 -1.302577E-10
       161  14  2.329368E+06 -1.889755E+03  1.439596E+04  3.840031E+03 -1.504454E-09  5.706816E-11
       161  15  2.331580E+06 -1.581436E+02  9.062326E+03 -2.229387E+04  1.424777E-09 -6.963993E-11
       161  16  2.646487E+06  8.653319E+04  1.054958E+05 -2.331841E+04  1.100744E-09  7.085673E-11
       161  17  2.617500E+06  6.985739E+04  8.578694E+04  3.469333E+03  8.133388E-10 -4.846089E-10
       161  18  2.592925E+06  6.493200E+04  7.388757E+04 -2.200550E+04 -9.918375E-10  4.738613E-10
       161  19  2.016749E+06 -7.026933E+04 -5.039029E+04 -2.126225E+04 -2.107311E+04 -4.555150E+03
       161  20  2.041311E+06 -7.364303E+04 -5.700081E+04  4.210612E+03 -1.368678E+04 -3.540617E+03
       161  21  2.070296E+06 -6.525337E+04 -5.576792E+04 -2.258210E+04 -6.299235E+03 -2.649466E+03
       161  22  2.331574E+06  8.135695E+03  2.755683E+04 -2.229004E+04 -2.087235E+04 -4.555061E+03
       161  23  2.329368E+06 -1.889693E+03  1.439633E+04  3.840069E+03 -1.350643E+04 -3.540665E+03
       161  24  2.331580E+06 -1.581259E+02  9.062410E+03 -2.229386E+04 -6.139616E+03 -2.649614E+03
       161  25  2.646488E+06  8.653333E+04  1.054966E+05 -2.331834E+04 -2.067148E+04 -4.554971E+03
       161  26  2.617501E+06  6.985745E+04  8.578729E+04  3.469371E+03 -1.332600E+04 -3.540713E+03
       161  27  2.592925E+06  6.493202E+04  7.388765E+04 -2.200548E+04 -5.979930E+03 -2.649763E+03
       162   1  2.205682E+06 -2.995507E+04 -2.358089E+04 -1.956164E+04  4.825191E+03  2.138457E+03
       162   2  2.226389E+06 -2.623639E+04 -2.094837E+04  9.038644E+02  2.373839E+03  1.269368E+03
       162   3  2.247858E+06 -2.039566E+04 -1.621173E+04 -1.981249E+04 -7.780664E+01  5.073290E+02
       162   4  2.330783E+06  1.189172E+03  7.348116E+03 -1.982833E+04  4.647467E+03  2.138696E+03
       162   5  2.330404E+06 -3.294223E+02  4.830961E+03  7.617205E+02  2.216298E+03  1.269615E+03
       162   6  2.330783E+06  2.702721E+02  4.403596E+03 -1.982965E+04 -2.150804E+02  5.075759E+02
       162   7  2.455899E+06  3.233225E+04  3.827596E+04 -2.009507E+04  4.469706E+03  2.138935E+03
       162   8  2.434429E+06  2.557674E+04  3.060948E+04  6.195569E+02  2.058731E+03  1.269861E+03
       162   9  2.413713E+06  2.093569E+04  2.501841E+04 -1.984681E+04 -3.523725E+02  5.078228E+02
       162  10  2.205682E+06 -2.995508E+04 -2.358094E+04 -1.956164E+04  1.175061E-10  1.882371E-10
       162  11  2.226389E+06 -2.623639E+04 -2.094838E+04  9.038620E+02 -5.332924E-10 -3.212208E-10
       162  12  2.247858E+06 -2.039566E+04 -1.621173E+04 -1.981249E+04  5.604816E-10 -2.511720E-10
       162  13  2.330783E+06  1.189161E+03  7.348067E+03 -1.982834E+04  1.052378E-10 -5.786954E-11
       162  14  2.330404E+06 -3.294254E+02  4.830949E+03  7.617182E+02 -4.237716E-10  4.407118E-10
       162  15  2.330783E+06  2.702718E+02  4.403595E+03 -1.982965E+04 -6.642345E-10  1.980784E-10
       162  16  2.455899E+06  3.233224E+04  3.827591E+04 -2.009508E+04 -1.063304E-09  4.991194E-10
       162  17  2.434429E+06  2.557674E+04  3.060947E+04  6.195548E+02  1.064038E-09  2.433190E-10
       162  18  2.413713E+06  2.093569E+04  2.501841E+04 -1.984681E+04 -3.884896E-10  2.453067E-11
       162  19  2.205682E+06 -2.995507E+04 -2.358089E+04 -1.956164E+04 -4.825191E+03 -2.138457E+03
       162  20  2.226389E+06 -2.623639E+04 -2.094837E+04  9.038644E+02 -2.373839E+03 -1.269368E+03
       162  21  2.247858E+06 -2.039566E+04 -1.621173E+04 -1.981249E+04  7.780664E+01 -5.073290E+02
       162  22  2.330783E+06  1.189172E+03  7.348116E+03 -1.982833E+04 -4.647467E+03 -2.138696E+03
       162  23  2.330404E+06 -3.294223E+02  4.830961E+03  7.617205E+02 -2.216298E+03 -1.269615E+03
       162  24  2.330783E+06  2.702721E+02  4.403596E+03 -1.982965E+04  2.150804E+02 -5.075759E+02
       162  25  2.455899E+06  3.233225E+04  3.827596E+04 -2.009507E+04 -4.469706E+03 -2.138935E+03
       162  26  2.434429E+06  2.557674E+04  3.060948E+04  6.195569E+02 -2.058731E+03 -1.269861E+03
       162  27  2.413713E+06  2.093569E+04  2.501841E+04 -1.984681E+04  3.523725E+02 -5.078228E+02
       163   1  2.365948E+06  8.931477E+03  1.337282E+04 -1.944285E+04 -8.896237E+02  9.057774E+01
       163   2  2.385874E+06  1.339715E+04  1.972929E+04  2.878892E+02 -3.888032E+03 -6.742218E+02
       163   3  2.406726E+06  2.061691E+04  2.868975E+04 -1.978872E+04 -6.886444E+03 -1.486046E+03
       163   4  2.330823E+06  1.711056E+02  4.603180E+03 -1.952482E+04 -1.033356E+03  9.084422E+01
       163   5  2.330357E+06 -4.290342E+02  5.971443E+03  3.802602E+02 -4.040594E+03 -6.739591E+02
       163   6  2.330820E+06  1.726623E+03  9.950025E+03 -1.952223E+04 -7.047739E+03 -1.485789E+03
       163   7  2.295698E+06 -8.589359E+03 -4.166554E+03 -1.960679E+04 -1.177080E+03  9.111075E+01
       163   8  2.274843E+06 -1.425545E+04 -7.786637E+03  4.726242E+02 -4.193142E+03 -6.736964E+02
       163   9  2.254919E+06 -1.716409E+04 -8.790125E+03 -1.925576E+04 -7.209014E+03 -1.485532E+03
       163  10  2.365948E+06  8.931477E+03  1.337282E+04 -1.944285E+04 -1.102883E-10 -9.131907E-10
       163  11  2.385874E+06  1.339715E+04  1.972926E+04  2.878871E+02 -1.568486E-09 -7.967118E-11
       163  12  2.406726E+06  2.061689E+04  2.868966E+04 -1.978873E+04  8.526700E-10  7.903236E-10
       163  13  2.330823E+06  1.711053E+02  4.603178E+03 -1.952482E+04 -1.762500E-10  5.162899E-10
       163  14  2.330357E+06 -4.290390E+02  5.971411E+03  3.802580E+02  1.206762E-09  7.564374E-10
       163  15  2.330820E+06  1.726607E+03  9.949928E+03 -1.952224E+04  2.553691E-09  5.692039E-10
       163  16  2.295698E+06 -8.589359E+03 -4.166557E+03 -1.960679E+04 -3.136661E-10 -8.376797E-10
       163  17  2.274843E+06 -1.425545E+04 -7.786671E+03  4.726219E+02  1.274074E-09  6.676587E-10
       163  18  2.254919E+06 -1.716411E+04 -8.790227E+03 -1.925577E+04  1.455269E-10 -1.793673E-10
       163  19  2.365948E+06  8.931477E+03  1.337282E+04 -1.944285E+04  8.896237E+02 -9.057774E+01
       163  20  2.385874E+06  1.339715E+04  1.972929E+04  2.878892E+02  3.888032E+03  6.742218E+02
       163  21  2.406726E+06  2.061691E+04  2.868975E+04 -1.978872E+04  6.886444E+03  1.486046E+03
       163  22  2.330823E+06  1.711056E+02  4.603180E+03 -1.952482E+04  1.033356E+03 -9.084422E+01
       163  23  2.330357E+06 -4.290342E+02  5.971443E+03  3.802602E+02  4.040594E+03  6.739591E+02
       163  24  2.330820E+06  1.726623E+03  9.950025E+03 -1.952223E+04  7.047739E+03  1.485789E+03
       163  25  2.295698E+06 -8.589359E+03 -4.166554E+03 -1.960679E+04  1.177080E+03 -9.111075E+01
       163  26  2.274843E+06 -1.425545E+04 -7.786637E+03  4.726242E+02  4.193142E+03  6.736964E+02
       163  27  2.254919E+06 -1.716409E+04 -8.790125E+03 -1.925576E+04  7.209014E+03  1.485532E+03
       164   1  2.535560E+06  5.043654E+04  6.302196E+04 -2.075067E+04 -8.930859E+03 -1.960972E+03
       164   2  2.557151E+06  5.413061E+04  7.686840E+04  2.139434E+03 -1.931995E+04 -2.793034E+03
       164   3  2.584544E+06  7.462542E+04  1.017093E+05 -2.279748E+04 -2.970864E+04 -3.705431E+03
       164   4  2.331894E+06 -2.905956E+02  1.249047E+04 -2.131037E+04 -9.084232E+03 -1.960763E+03
       164   5  2.328983E+06 -2.687614E+03  2.033316E+04  2.608871E+03 -1.948542E+04 -2.792912E+03
       164   6  2.331878E+06  1.172179E+04  3.918181E+04 -2.129997E+04 -2.988581E+04 -3.705441E+03
       164   7  2.128266E+06 -5.102083E+04 -3.804411E+04 -2.186988E+04 -9.237554E+03 -1.960554E+03
       164   8  2.100862E+06 -5.950972E+04 -3.620595E+04  3.078150E+03 -1.965084E+04 -2.792791E+03
       164   9  2.079270E+06 -5.118658E+04 -2.335041E+04 -1.980305E+04 -3.006291E+04 -3.705452E+03
       164  10  2.535560E+06  5.043651E+04  6.302180E+04 -2.075068E+04  2.003740E-10  3.539903E-10
       164  11  2.557151E+06  5.413050E+04  7.686768E+04  2.139391E+03 -2.377246E-09 -4.120578E-10
       164  12  2.584543E+06  7.462517E+04  1.017076E+05 -2.279756E+04  1.450299E-09 -6.050685E-10
       164  13  2.331894E+06 -2.906218E+02  1.249031E+04 -2.131039E+04  2.096540E-10 -4.222173E-10
       164  14  2.328983E+06 -2.687724E+03  2.033243E+04  2.608827E+03  3.059683E-09 -6.543492E-10
       164  15  2.331877E+06  1.172154E+04  3.918011E+04 -2.130006E+04  3.186077E-10 -4.383391E-10
       164  16  2.128266E+06 -5.102085E+04 -3.804428E+04 -2.186990E+04  2.972141E-10 -6.120135E-10
       164  17  2.100862E+06 -5.950983E+04 -3.620669E+04  3.078106E+03  1.236954E-09 -1.192540E-09
       164  18  2.079269E+06 -5.118684E+04 -2.335213E+04 -1.980314E+04  7.358201E-10  4.771640E-10
       164  19  2.535560E+06  5.043654E+04  6.302196E+04 -2.075067E+04  8.930859E+03  1.960972E+03
       164  20  2.557151E+06  5.413061E+04  7.686840E+04  2.139434E+03  1.931995E+04  2.793034E+03
       164  21  2.584544E+06  7.462542E+04  1.017093E+05 -2.279748E+04  2.970864E+04  3.705431E+03
       164  22  2.331894E+06 -2.905956E+02  1.249047E+04 -2.131037E+04  9.084232E+03  1.960763E+03
       164  23  2.328983E+06 -2.687614E+03  2.033316E+04  2.608871E+03  1.948542E+04  2.792912E+03
       164  24  2.331878E+06  1.172179E+04  3.918181E+04 -2.129997E+04  2.988581E+04  3.705441E+03
       164  25  2.128266E+06 -5.102083E+04 -3.804411E+04 -2.186988E+04  9.237554E+03  1.960554E+03
       164  26  2.100862E+06 -5.950972E+04 -3.620595E+04  3.078150E+03  1.965084E+04  2.792791E+03
       164  27  2.079270E+06 -5.118658E+04 -2.335041E+04 -1.980305E+04  3.006291E+04  3.705452E+03
       165   1  2.758673E+06  1.019227E+05  1.532629E+05 -2.050219E+04 -3.756402E+04 -4.533857E+03
       165   2  2.775339E+06  9.498736E+04  1.915717E+05  5.647771E+03 -7.916136E+04 -5.792062E+03
       165   3  2.827467E+06  2.019887E+05  2.856850E+05 -3.544371E+04 -1.207611E+05 -6.105464E+03
       165   4  2.338448E+06 -2.715145E+03  4.907708E+04 -2.560526E+04 -3.788302E+04 -4.533559E+03
       165   5  2.320675E+06 -1.821172E+04  7.895386E+04  7.982589E+03 -7.927178E+04 -5.792654E+03
       165   6  2.338351E+06  8.023723E+04  1.645204E+05 -2.567352E+04 -1.206606E+05 -6.107626E+03
       165   7  1.918383E+06 -1.073661E+05 -5.512186E+04 -3.070487E+04 -3.820179E+04 -4.533256E+03
       165   8  1.866197E+06 -1.314262E+05 -3.367933E+04  1.031569E+04 -7.938210E+04 -5.793247E+03
       165   9  1.849451E+06 -4.153175E+04  4.333810E+04 -1.591105E+04 -1.205602E+05 -6.109786E+03
       165  10  2.758671E+06  1.019223E+05  1.532602E+05 -2.050233E+04 -2.772243E-10  4.485080E-10
       165  11  2.775333E+06  9.498565E+04  1.915599E+05  5.647402E+03 -1.950734E-09  5.176545E-10
       165  12  2.827451E+06  2.019848E+05  2.856577E+05 -3.544431E+04 -6.696660E-10  4.391820E-11
       165  13  2.338446E+06 -2.715550E+03  4.907436E+04 -2.560540E+04 -2.421990E-10 -6.590687E-12
       165  14  2.320668E+06 -1.821344E+04  7.894203E+04  7.982219E+03  7.308301E-11  7.535341E-10
       165  15  2.338335E+06  8.023330E+04  1.644931E+05 -2.567412E+04 -2.971617E-10 -1.551042E-11
       165  16  1.918381E+06 -1.073665E+05 -5.512464E+04 -3.070501E+04 -4.506920E-10  2.534235E-10
       165  17  1.866190E+06 -1.314279E+05 -3.369120E+04  1.031532E+04 -8.217773E-10  1.054211E-09
       165  18  1.849436E+06 -4.153567E+04  4.331080E+04 -1.591164E+04 -6.276871E-10  6.496163E-11
       165  19  2.758673E+06  1.019227E+05  1.532629E+05 -2.050219E+04  3.756402E+04  4.533857E+03
       165  20  2.775339E+06  9.498736E+04  1.915717E+05  5.647771E+03  7.916136E+04  5.792062E+03
       165  21  2.827467E+06  2.019887E+05  2.856850E+05 -3.544371E+04  1.207611E+05  6.105464E+03
       165  22  2.338448E+06 -2.715145E+03  4.907708E+04 -2.560526E+04  3.788302E+04  4.533559E+03
       165  23  2.320675E+06 -1.821172E+04  7.895386E+04  7.982589E+03  7.927178E+04  5.792654E+03
       165  24  2.338351E+06  8.023723E+04  1.645204E+05 -2.567352E+04  1.206606E+05  6.107626E+03
       165  25  1.918383E+06 -1.073661E+05 -5.512186E+04 -3.070487E+04  3.820179E+04  4.533256E+03
       165  26  1.866197E+06 -1.314262E+05 -3.367933E+04  1.031569E+04  7.938210E+04  5.793247E+03
       165  27  1.849451E+06 -4.153175E+04  4.333810E+04 -1.591105E+04  1.205602E+05  6.109786E+03
       166   1  3.114687E+06  1.637343E+05  3.814234E+05  2.495854E+03 -1.521540E+05 -8.746224E+03
       166   2  3.057498E+06  7.296212E+04  4.991978E+05  1.085699E+03 -3.203540E+05 -1.205777E+04
       166   3  3.220382E+06  7.544704E+05  9.203007E+05 -1.053237E+05 -4.885905E+05 -5.814453E+03
       166   4  2.379420E+06 -1.943623E+04  1.992251E+05 -3.337458E+04 -1.535354E+05 -8.740263E+03
       166   5  2.269163E+06 -1.231452E+05  3.041491E+05  1.805311E+04 -3.197134E+05 -1.206647E+04
       166   6  2.378896E+06  5.455872E+05  7.112805E+05 -3.551481E+04 -4.859131E+05 -5.860968E+03
       166   7  1.644644E+06 -2.026423E+05  1.698715E+04 -6.920284E+04 -1.549150E+05 -8.734136E+03
       166   8  1.481389E+06 -3.192977E+05  1.090546E+05  3.499867E+04 -3.190734E+05 -1.207515E+04
       166   9  1.538060E+06  3.366698E+05  5.022103E+05  3.419930E+04 -4.832390E+05 -5.906942E+03
       166  10  3.114663E+06  1.637280E+05  3.813800E+05  2.494784E+03  1.408607E-10  5.281664E-10
       166  11  3.057389E+06  7.293459E+04  4.990056E+05  1.082593E+03 -5.438159E-10 -1.111271E-10
       166  12  3.220127E+06  7.544067E+05  9.198543E+05 -1.053260E+05 -1.242862E-09 -6.344053E-10
       166  13  2.379395E+06 -1.944261E+04  1.991808E+05 -3.337566E+04  1.061414E-09 -5.925826E-11
       166  14  2.269053E+06 -1.231727E+05  3.039575E+05  1.805001E+04 -1.548716E-09 -6.561736E-10
       166  15  2.378643E+06  5.455240E+05  7.108384E+05 -3.551710E+04 -1.625460E-09  6.949806E-12
       166  16  1.644618E+06 -2.026488E+05  1.694204E+04 -6.920393E+04 -1.192071E-09  2.579453E-10
       166  17  1.481280E+06 -3.193251E+05  1.088635E+05  3.499557E+04 -1.501896E-09  6.538574E-10
       166  18  1.537810E+06  3.366073E+05  5.017725E+05  3.419701E+04  1.116251E-10 -3.212242E-10
       166  19  3.114687E+06  1.637343E+05  3.814234E+05  2.495854E+03  1.521540E+05  8.746224E+03
       166  20  3.057498E+06  7.296212E+04  4.991978E+05  1.085699E+03  3.203540E+05  1.205777E+04
       166  21  3.220382E+06  7.544704E+05  9.203007E+05 -1.053237E+05  4.885905E+05  5.814453E+03
       166  22  2.379420E+06 -1.943623E+04  1.992251E+05 -3.337458E+04  1.535354E+05  8.740263E+03
       166  23  2.269163E+06 -1.231452E+05  3.041491E+05  1.805311E+04  3.197134E+05  1.206647E+04
       166  24  2.378896E+06  5.455872E+05  7.112805E+05 -3.551481E+04  4.859131E+05  5.860968E+03
       166  25  1.644644E+06 -2.026423E+05  1.698715E+04 -6.920284E+04  1.549150E+05  8.734136E+03
       166  26  1.481389E+06 -3.192977E+05  1.090546E+05  3.499867E+04  3.190734E+05  1.207515E+04
       166  27  1.538060E+06  3.366698E+05  5.022103E+05  3.419930E+04  4.832390E+05  5.906942E+03
       167   1 -1.538455E+04  6.045318E+04  9.853150E+03 -3.752383E+03 -2.235971E+03  7.128176E+04
       167   2 -1.138786E+05  5.328830E+04 -4.816672E+04 -5.707453E+03 -5.601665E+03  4.671054E+04
       167   3 -9.528327E+04  7.994787E+04 -6.065240E+04  1.160399E+04 -4.644793E+03  2.216096E+04
       167   4  8.222083E+04  4.517287E+05  1.073840E+05  5.538077E+03 -2.240767E+03  7.240011E+04
       167   5 -1.869424E+04  4.347579E+05  4.649819E+04 -4.323918E+03 -5.602585E+03  4.698477E+04
       167   6 -2.411625E+03  4.517384E+05  3.171228E+04  5.079737E+03 -4.642378E+03  2.159146E+04
       167   7  1.798151E+05  8.431433E+05  2.049034E+05  1.483458E+04 -2.245529E+03  7.351915E+04
       167   8  7.647928E+04  8.163596E+05  1.411522E+05 -2.939371E+03 -5.603505E+03  4.725915E+04
       167   9  9.044979E+04  8.236544E+05  1.240666E+05 -1.448290E+03 -4.639952E+03  2.102162E+04
       167  10 -1.538592E+04  6.044772E+04  9.843593E+03 -3.752255E+03  4.196387E-10  8.531394E-10
       167  11 -1.138793E+05  5.328595E+04 -4.817088E+04 -5.707242E+03 -8.510881E-10 -9.244062E-11
       167  12 -9.528343E+04  7.994733E+04 -6.065336E+04  1.160407E+04 -5.733060E-10 -1.274431E-09
       167  13  8.221942E+04  4.517231E+05  1.073742E+05  5.538208E+03  6.694110E-10 -3.044569E-11
       167  14 -1.869486E+04  4.347555E+05  4.649398E+04 -4.323706E+03  4.164438E-10 -1.186492E-12
       167  15 -2.411774E+03  4.517379E+05  3.171136E+04  5.079818E+03 -2.845333E-10 -1.672499E-11
       167  16  1.798136E+05  8.431375E+05  2.048933E+05  1.483472E+04  6.980596E-10 -7.906101E-10
       167  17  7.647865E+04  8.163572E+05  1.411480E+05 -2.939157E+03  4.645296E-09 -4.559280E-12
       167  18  9.044965E+04  8.236539E+05  1.240658E+05 -1.448211E+03 -3.248745E-10  1.259118E-09
       167  19 -1.538455E+04  6.045318E+04  9.853150E+03 -3.752383E+03  2.235971E+03 -7.128176E+04
       167  20 -1.138786E+05  5.328830E+04 -4.816672E+04 -5.707453E+03  5.601665E+03 -4.671054E+04
       167  21 -9.528327E+04  7.994787E+04 -6.065240E+04  1.160399E+04  4.644793E+03 -2.216096E+04
       167  22  8.222083E+04  4.517287E+05  1.073840E+05  5.538077E+03  2.240767E+03 -7.240011E+04
       167  23 -1.869424E+04  4.347579E+05  4.649819E+04 -4.323918E+03  5.602585E+03 -4.698477E+04
       167  24 -2.411625E+03  4.517384E+05  3.171228E+04  5.079737E+03  4.642378E+03 -2.159146E+04
       167  25  1.798151E+05  8.431433E+05  2.049034E+05  1.483458E+04  2.245529E+03 -7.351915E+04
       167  26  7.647928E+04  8.163596E+05  1.411522E+05 -2.939371E+03  5.603505E+03 -4.725915E+04
       167  27  9.044979E+04  8.236544E+05  1.240666E+05 -1.448290E+03  4.639952E+03 -2.102162E+04
       168   1 -6.835992E+04  1.242172E+05 -5.294681E+04  3.512484E+03 -3.814590E+03  1.614670E+04
       168   2 -8.199844E+04  1.281206E+05 -6.251575E+04 -2.655792E+03 -4.063434E+03  8.216314E+03
       168   3 -7.302806E+04  1.395970E+05 -6.109144E+04  6.246687E+03 -3.390385E+03  2.887799E+02
       168   4  1.192755E+04  4.458911E+05  2.697532E+04  4.323903E+03 -3.815008E+03  1.629480E+04
       168   5 -3.628979E+03  4.420899E+05  1.544846E+04 -3.229532E+03 -4.063189E+03  8.183714E+03
       168   6  3.448707E+03  4.458900E+05  1.503641E+04  4.287288E+03 -3.389647E+03  7.558015E+01
       168   7  9.220726E+04  7.676589E+05  1.068897E+05  5.135836E+03 -3.815425E+03  1.644297E+04
       168   8  7.473309E+04  7.561487E+05  9.340530E+04 -3.803484E+03 -4.062944E+03  8.151097E+03
       168   9  7.991844E+04  7.522680E+05  9.115724E+04  2.326985E+03 -3.388908E+03 -1.377247E+02
       168  10 -6.836001E+04  1.242169E+05 -5.294732E+04  3.512534E+03 -2.113915E-09  3.518492E-10
       168  11 -8.199847E+04  1.281205E+05 -6.251591E+04 -2.655766E+03 -1.349285E-09  7.590199E-11
       168  12 -7.302807E+04  1.395970E+05 -6.109146E+04  6.246687E+03  2.999676E-10 -3.832242E-10
       168  13  1.192746E+04  4.458908E+05  2.697480E+04  4.323953E+03 -1.331161E-09  1.782119E-11
       168  14 -3.629015E+03  4.420898E+05  1.544830E+04 -3.229505E+03 -1.057805E-09  4.671918E-11
       168  15  3.448695E+03  4.458900E+05  1.503639E+04  4.287288E+03  1.722292E-10  1.096143E-10
       168  16  9.220717E+04  7.676586E+05  1.068892E+05  5.135886E+03 -1.841361E-09 -3.185562E-10
       168  17  7.473305E+04  7.561486E+05  9.340515E+04 -3.803458E+03 -8.855909E-10  8.313009E-11
       168  18  7.991843E+04  7.522680E+05  9.115722E+04  2.326984E+03 -1.206125E-10  3.458741E-10
       168  19 -6.835992E+04  1.242172E+05 -5.294681E+04  3.512484E+03  3.814590E+03 -1.614670E+04
       168  20 -8.199844E+04  1.281206E+05 -6.251575E+04 -2.655792E+03  4.063434E+03 -8.216314E+03
       168  21 -7.302806E+04  1.395970E+05 -6.109144E+04  6.246687E+03  3.390385E+03 -2.887799E+02
       168  22  1.192755E+04  4.458911E+05  2.697532E+04  4.323903E+03  3.815008E+03 -1.629480E+04
       168  23 -3.628979E+03  4.420899E+05  1.544846E+04 -3.229532E+03  4.063189E+03 -8.183714E+03
       168  24  3.448707E+03  4.458900E+05  1.503641E+04  4.287288E+03  3.389647E+03 -7.558015E+01
       168  25  9.220726E+04  7.676589E+05  1.068897E+05  5.135836E+03  3.815425E+03 -1.644297E+04
       168  26  7.473309E+04  7.561487E+05  9.340530E+04 -3.803484E+03  4.062944E+03 -8.151097E+03
       168  27  7.991844E+04  7.522680E+05  9.115724E+04  2.326985E+03  3.388908E+03  1.377247E+02
       169   1 -6.567436E+04  1.805011E+05 -5.099111E+04  2.240630E+03 -3.511485E+03 -2.906856E+03
       169   2 -7.131080E+04  1.807296E+05 -4.752059E+04 -1.052552E+03 -3.570267E+03 -1.168145E+04
       169   3 -3.716425E+04  1.926352E+05 -2.827352E+04  7.606157E+03 -1.136090E+03 -2.045124E+04
       169   4  7.847188E+02  4.468222E+05  1.512440E+04  3.585991E+03 -3.512088E+03 -2.652371E+03
       169   5 -6.363179E+03  4.409402E+05  1.706168E+04 -2.365558E+03 -3.569631E+03 -1.190910E+04
       169   6  2.634687E+04  4.468148E+05  3.510564E+04  3.634448E+03 -1.134599E+03 -2.116094E+04
       169   7  6.723849E+04  7.132077E+05  8.123462E+04  4.931973E+03 -3.512690E+03 -2.397776E+03
       169   8  5.857937E+04  7.012123E+05  8.163890E+04 -3.679080E+03 -3.568994E+03 -1.213685E+04
       169   9  8.985318E+04  7.010531E+05  9.847995E+04 -3.388592E+02 -1.133099E+03 -2.187093E+04
       169  10 -6.567437E+04  1.805011E+05 -5.099115E+04  2.240621E+03  4.806536E-10 -1.667249E-10
       169  11 -7.131085E+04  1.807294E+05 -4.752087E+04 -1.052585E+03  6.519198E-10  1.939918E-10
       169  12 -3.716436E+04  1.926347E+05 -2.827430E+04  7.606139E+03  1.101421E-10  8.900126E-11
       169  13  7.847036E+02  4.468222E+05  1.512437E+04  3.585983E+03  9.400726E-10 -1.006680E-11
       169  14 -6.363231E+03  4.409401E+05  1.706139E+04 -2.365593E+03  4.099723E-10  3.757379E-11
       169  15  2.634675E+04  4.468144E+05  3.510480E+04  3.634429E+03  2.798286E-10  2.676235E-11
       169  16  6.723847E+04  7.132077E+05  8.123458E+04  4.931966E+03 -1.553174E-09  2.780050E-10
       169  17  5.857932E+04  7.012122E+05  8.163860E+04 -3.679115E+03  1.002113E-09 -1.883770E-10
       169  18  8.985305E+04  7.010526E+05  9.847905E+04 -3.388791E+02  7.138609E-10 -1.672380E-10
       169  19 -6.567436E+04  1.805011E+05 -5.099111E+04  2.240630E+03  3.511485E+03  2.906856E+03
       169  20 -7.131080E+04  1.807296E+05 -4.752059E+04 -1.052552E+03  3.570267E+03  1.168145E+04
       169  21 -3.716425E+04  1.926352E+05 -2.827352E+04  7.606157E+03  1.136090E+03  2.045124E+04
       169  22  7.847188E+02  4.468222E+05  1.512440E+04  3.585991E+03  3.512088E+03  2.652371E+03
       169  23 -6.363179E+03  4.409402E+05  1.706168E+04 -2.365558E+03  3.569631E+03  1.190910E+04
       169  24  2.634687E+04  4.468148E+05  3.510564E+04  3.634448E+03  1.134599E+03  2.116094E+04
       169  25  6.723849E+04  7.132077E+05  8.123462E+04  4.931973E+03  3.512690E+03  2.397776E+03
       169  26  5.857937E+04  7.012123E+05  8.163890E+04 -3.679080E+03  3.568994E+03  1.213685E+04
       169  27  8.985318E+04  7.010531E+05  9.847995E+04 -3.388592E+02  1.133099E+03  2.187093E+04
       170   1 -2.534839E+06 -7.872714E+05 -5.800619E+05 -8.176670E+05 -3.229642E+05 -1.217594E+05
       170   2 -2.433906E+06 -3.554862E+05 -2.838525E+05 -9.501000E+05 -2.089004E+05 -7.507748E+04
       170   3 -2.573824E+06 -3.993577E+05 -2.133772E+05 -9.110305E+05 -9.394209E+04 -3.075545E+04
       170   4 -2.312345E+06 -6.576071E+05 -5.096024E+05 -7.112379E+05 -3.223452E+05 -1.215524E+05
       170   5 -2.165900E+06 -2.418471E+05 -2.078354E+05 -8.647569E+05 -2.086692E+05 -7.499435E+04
       170   6 -2.260155E+06 -3.015419E+05 -1.314301E+05 -8.468022E+05 -9.408939E+04 -3.080756E+04
       170   7 -2.089799E+06 -5.279161E+05 -4.391478E+05 -6.047678E+05 -3.217258E+05 -1.213451E+05
       170   8 -1.897826E+06 -1.281989E+05 -1.318251E+05 -7.793787E+05 -2.084379E+05 -7.491116E+04
       170   9 -1.946390E+06 -2.037270E+05 -4.949076E+04 -7.825480E+05 -9.423676E+04 -3.085970E+04
       170  10 -2.534955E+06 -7.873155E+05 -5.802868E+05 -8.176988E+05 -8.154283E-10 -1.382138E-10
       170  11 -2.433954E+06 -3.555041E+05 -2.839456E+05 -9.501127E+05 -1.282799E-09 -4.948570E-10
       170  12 -2.573834E+06 -3.993611E+05 -2.133956E+05 -9.110328E+05  4.484467E-10 -6.322487E-10
       170  13 -2.312461E+06 -6.576511E+05 -5.098264E+05 -7.112695E+05  2.836814E-09 -3.348686E-10
       170  14 -2.165949E+06 -2.418649E+05 -2.079281E+05 -8.647695E+05  5.639676E-10 -1.113241E-09
       170  15 -2.260165E+06 -3.015453E+05 -1.314486E+05 -8.468045E+05  3.503546E-09  1.089833E-09
       170  16 -2.089915E+06 -5.279598E+05 -4.393708E+05 -6.047993E+05 -2.168752E-11 -5.141314E-10
       170  17 -1.897874E+06 -1.282166E+05 -1.319177E+05 -7.793913E+05  1.454039E-10 -8.382522E-10
       170  18 -1.946400E+06 -2.037304E+05 -4.950931E+04 -7.825504E+05  1.703037E-09  4.677628E-11
       170  19 -2.534839E+06 -7.872714E+05 -5.800619E+05 -8.176670E+05  3.229642E+05  1.217594E+05
       170  20 -2.433906E+06 -3.554862E+05 -2.838525E+05 -9.501000E+05  2.089004E+05  7.507748E+04
       170  21 -2.573824E+06 -3.993577E+05 -2.133772E+05 -9.110305E+05  9.394209E+04  3.075545E+04
       170  22 -2.312345E+06 -6.576071E+05 -5.096024E+05 -7.112379E+05  3.223452E+05  1.215524E+05
       170  23 -2.165900E+06 -2.418471E+05 -2.078354E+05 -8.647569E+05  2.086692E+05  7.499435E+04
       170  24 -2.260155E+06 -3.015419E+05 -1.314301E+05 -8.468022E+05  9.408939E+04  3.080756E+04
       170  25 -2.089799E+06 -5.279161E+05 -4.391478E+05 -6.047678E+05  3.217258E+05  1.213451E+05
       170  26 -1.897826E+06 -1.281989E+05 -1.318251E+05 -7.793787E+05  2.084379E+05  7.491116E+04
       170  27 -1.946390E+06 -2.037270E+05 -4.949076E+04 -7.825480E+05  9.423676E+04  3.085970E+04
       171   1 -2.639029E+06 -5.234282E+05 -2.195582E+05 -9.336985E+05 -7.455825E+04 -2.316202E+04
       171   2 -2.625932E+06 -4.668667E+05 -1.628159E+05 -9.608229E+05 -4.881570E+04 -1.224151E+04
       171   3 -2.658403E+06 -4.707541E+05 -1.459834E+05 -9.508419E+05 -2.270455E+04 -2.291316E+03
       171   4 -2.239474E+06 -3.648615E+05 -1.082303E+05 -8.174954E+05 -7.432793E+04 -2.307574E+04
       171   5 -2.212867E+06 -3.082562E+05 -4.889676E+04 -8.460520E+05 -4.874314E+04 -1.221446E+04
       171   6 -2.231776E+06 -3.120381E+05 -2.932770E+04 -8.375097E+05 -2.278922E+04 -2.323484E+03
       171   7 -1.839766E+06 -2.062818E+05  3.082475E+03 -7.012235E+05 -7.409743E+04 -2.298937E+04
       171   8 -1.799638E+06 -1.496348E+05  6.500666E+04 -7.312119E+05 -4.867052E+04 -1.218738E+04
       171   9 -1.804974E+06 -1.533133E+05  8.731161E+04 -7.241078E+05 -2.287395E+04 -2.355672E+03
       171  10 -2.639035E+06 -5.234303E+05 -2.195697E+05 -9.336999E+05  1.263451E-09  4.074662E-10
       171  11 -2.625935E+06 -4.668675E+05 -1.628207E+05 -9.608233E+05  7.964809E-10 -9.156678E-10
       171  12 -2.658404E+06 -4.707542E+05 -1.459844E+05 -9.508419E+05  1.119881E-09  1.444412E-10
       171  13 -2.239480E+06 -3.648636E+05 -1.082417E+05 -8.174968E+05  4.374865E-10  1.012604E-09
       171  14 -2.212870E+06 -3.082570E+05 -4.890152E+04 -8.460525E+05 -2.965008E-10 -1.051803E-09
       171  15 -2.231777E+06 -3.120383E+05 -2.932869E+04 -8.375097E+05 -3.702018E-10  5.540349E-10
       171  16 -1.839773E+06 -2.062838E+05  3.071126E+03 -7.012249E+05  1.008919E-09 -2.532808E-11
       171  17 -1.799641E+06 -1.496356E+05  6.500191E+04 -7.312124E+05  1.592260E-09 -3.357328E-10
       171  18 -1.804975E+06 -1.533134E+05  8.731061E+04 -7.241078E+05  5.197855E-10  3.839595E-10
       171  19 -2.639029E+06 -5.234282E+05 -2.195582E+05 -9.336985E+05  7.455825E+04  2.316202E+04
       171  20 -2.625932E+06 -4.668667E+05 -1.628159E+05 -9.608229E+05  4.881570E+04  1.224151E+04
       171  21 -2.658403E+06 -4.707541E+05 -1.459834E+05 -9.508419E+05  2.270455E+04  2.291316E+03
       171  22 -2.239474E+06 -3.648615E+05 -1.082303E+05 -8.174954E+05  7.432793E+04  2.307574E+04
       171  23 -2.212867E+06 -3.082562E+05 -4.889676E+04 -8.460520E+05  4.874314E+04  1.221446E+04
       171  24 -2.231776E+06 -3.120381E+05 -2.932770E+04 -8.375097E+05  2.278922E+04  2.323484E+03
       171  25 -1.839766E+06 -2.062818E+05  3.082475E+03 -7.012235E+05  7.409743E+04  2.298937E+04
       171  26 -1.799638E+06 -1.496348E+05  6.500666E+04 -7.312119E+05  4.867052E+04  1.218738E+04
       171  27 -1.804974E+06 -1.533133E+05  8.731161E+04 -7.241078E+05  2.287395E+04  2.355672E+03
       172   1 -2.666323E+06 -4.942398E+05 -1.451550E+05 -9.596498E+05 -1.855446E+04 -6.735944E+02
       172   2 -2.663824E+06 -4.790880E+05 -1.320103E+05 -9.569760E+05 -1.256226E+04  1.834503E+03
       172   3 -2.657736E+06 -4.816172E+05 -1.260270E+05 -9.585693E+05 -6.288202E+03  3.592933E+03
       172   4 -2.224190E+06 -3.256059E+05 -2.340603E+04 -8.379728E+05 -1.845743E+04 -6.373188E+02
       172   5 -2.225435E+06 -3.128583E+05 -1.152145E+04 -8.373168E+05 -1.259531E+04  1.821729E+03
       172   6 -2.223061E+06 -3.177595E+05 -6.690596E+03 -8.409280E+05 -6.451489E+03  3.531327E+03
       172   7 -1.781869E+06 -1.569602E+05  9.832495E+04 -7.162174E+05 -1.836031E+04 -6.010122E+02
       172   8 -1.786862E+06 -1.466175E+05  1.089497E+05 -7.175815E+05 -1.262839E+04  1.808948E+03
       172   9 -1.788205E+06 -1.538916E+05  1.126284E+05 -7.232128E+05 -6.614900E+03  3.469675E+03
       172  10 -2.666323E+06 -4.942399E+05 -1.451556E+05 -9.596498E+05  1.346394E-10 -9.980030E-10
       172  11 -2.663824E+06 -4.790880E+05 -1.320106E+05 -9.569760E+05 -4.893289E-10 -4.509419E-10
       172  12 -2.657736E+06 -4.816172E+05 -1.260271E+05 -9.585692E+05  1.105307E-10  7.080802E-10
       172  13 -2.224190E+06 -3.256060E+05 -2.340668E+04 -8.379728E+05  9.983402E-10  2.543766E-11
       172  14 -2.225435E+06 -3.128583E+05 -1.152175E+04 -8.373168E+05 -7.912454E-10 -1.196986E-09
       172  15 -2.223061E+06 -3.177595E+05 -6.690698E+03 -8.409280E+05  8.700301E-11 -4.096429E-10
       172  16 -1.781870E+06 -1.569603E+05  9.832431E+04 -7.162174E+05  1.362001E-09 -6.780982E-10
       172  17 -1.786862E+06 -1.466176E+05  1.089494E+05 -7.175815E+05  1.137463E-10 -1.352427E-09
       172  18 -1.788205E+06 -1.538916E+05  1.126283E+05 -7.232128E+05  1.913925E-11 -5.880254E-10
       172  19 -2.666323E+06 -4.942398E+05 -1.451550E+05 -9.596498E+05  1.855446E+04  6.735944E+02
       172  20 -2.663824E+06 -4.790880E+05 -1.320103E+05 -9.569760E+05  1.256226E+04 -1.834503E+03
       172  21 -2.657736E+06 -4.816172E+05 -1.260270E+05 -9.585693E+05  6.288202E+03 -3.592933E+03
       172  22 -2.224190E+06 -3.256059E+05 -2.340603E+04 -8.379728E+05  1.845743E+04  6.373188E+02
       172  23 -2.225435E+06 -3.128583E+05 -1.152145E+04 -8.373168E+05  1.259531E+04 -1.821729E+03
       172  24 -2.223061E+06 -3.177595E+05 -6.690596E+03 -8.409280E+05  6.451489E+03 -3.531327E+03
       172  25 -1.781869E+06 -1.569602E+05  9.832495E+04 -7.162174E+05  1.836031E+04  6.010122E+02
       172  26 -1.786862E+06 -1.466175E+05  1.089497E+05 -7.175815E+05  1.262839E+04 -1.808948E+03
       172  27 -1.788205E+06 -1.538916E+05  1.126284E+05 -7.232128E+05  6.614900E+03 -3.469675E+03
       173   1 -2.577917E+06 -4.594954E+05 -1.040890E+05 -9.430597E+05 -5.325543E+03  3.597317E+03
       173   2 -2.573894E+06 -4.379773E+05 -9.707769E+04 -9.234360E+05 -3.479138E+03  3.805924E+03
       173   3 -2.543099E+06 -4.447226E+05 -9.156879E+04 -9.335009E+05 -1.427416E+03  3.462707E+03
       173   4 -2.218378E+06 -3.235282E+05 -5.373211E+03 -8.452833E+05 -5.353593E+03  3.586569E+03
       173   5 -2.231697E+06 -3.088357E+05 -3.153603E+03 -8.306556E+05 -3.605085E+03  3.758583E+03
       173   6 -2.218225E+06 -3.223851E+05 -2.357945E+03 -8.457154E+05 -1.651369E+03  3.378897E+03
       173   7 -1.858715E+06 -1.875536E+05  9.333089E+04 -7.474558E+05 -5.381661E+03  3.575815E+03
       173   8 -1.889387E+06 -1.796875E+05  9.075983E+04 -7.378291E+05 -3.731108E+03  3.711212E+03
       173   9 -1.893250E+06 -2.000419E+05  8.684326E+04 -7.578885E+05 -1.875452E+03  3.295040E+03
       173  10 -2.577917E+06 -4.594954E+05 -1.040891E+05 -9.430597E+05 -8.875437E-10 -1.221135E-10
       173  11 -2.573894E+06 -4.379773E+05 -9.707774E+04 -9.234360E+05 -7.058225E-10  4.907755E-10
       173  12 -2.543099E+06 -4.447227E+05 -9.156882E+04 -9.335009E+05 -1.940279E-10 -1.932596E-10
       173  13 -2.218378E+06 -3.235282E+05 -5.373289E+03 -8.452833E+05 -5.895660E-10 -1.850724E-10
       173  14 -2.231697E+06 -3.088357E+05 -3.153654E+03 -8.306556E+05  2.208417E-09  8.192973E-11
       173  15 -2.218225E+06 -3.223852E+05 -2.357971E+03 -8.457154E+05 -7.507847E-10 -3.008167E-10
       173  16 -1.858715E+06 -1.875536E+05  9.333082E+04 -7.474558E+05  1.546117E-09 -1.643167E-10
       173  17 -1.889387E+06 -1.796875E+05  9.075978E+04 -7.378291E+05  1.191007E-09  1.051375E-10
       173  18 -1.893250E+06 -2.000419E+05  8.684323E+04 -7.578885E+05 -4.201836E-11  1.269014E-09
       173  19 -2.577917E+06 -4.594954E+05 -1.040890E+05 -9.430597E+05  5.325543E+03 -3.597317E+03
       173  20 -2.573894E+06 -4.379773E+05 -9.707769E+04 -9.234360E+05  3.479138E+03 -3.805924E+03
       173  21 -2.543099E+06 -4.447226E+05 -9.156879E+04 -9.335009E+05  1.427416E+03 -3.462707E+03
       173  22 -2.218378E+06 -3.235282E+05 -5.373211E+03 -8.452833E+05  5.353593E+03 -3.586569E+03
       173  23 -2.231697E+06 -3.088357E+05 -3.153603E+03 -8.306556E+05  3.605085E+03 -3.758583E+03
       173  24 -2.218225E+06 -3.223851E+05 -2.357945E+03 -8.457154E+05  1.651369E+03 -3.378897E+03
       173  25 -1.858715E+06 -1.875536E+05  9.333089E+04 -7.474558E+05  5.381661E+03 -3.575815E+03
       173  26 -1.889387E+06 -1.796875E+05  9.075983E+04 -7.378291E+05  3.731108E+03 -3.711212E+03
       173  27 -1.893250E+06 -2.000419E+05  8.684326E+04 -7.578885E+05  1.875452E+03 -3.295040E+03
       174   1 -2.392936E+06 -3.921633E+05 -5.094306E+04 -8.969704E+05 -8.966893E+02  2.965027E+03
       174   2 -2.386432E+06 -3.623493E+05 -4.431004E+04 -8.674635E+05  8.910314E+02  2.588677E+03
       174   3 -2.341517E+06 -3.732375E+05 -3.916871E+04 -8.825085E+05  2.763187E+03  1.983787E+03
       174   4 -2.215640E+06 -3.253207E+05 -2.371265E+03 -8.489438E+05 -1.040353E+03  2.911338E+03
       174   5 -2.234901E+06 -3.053248E+05 -2.755134E+03 -8.265392E+05  7.067817E+02  2.519921E+03
       174   6 -2.215746E+06 -3.260223E+05 -4.598199E+03 -8.486862E+05  2.538276E+03  1.899968E+03
       174   7 -2.038314E+06 -2.584765E+05  4.619762E+04 -8.009049E+05 -1.184061E+03  2.857632E+03
       174   8 -2.083349E+06 -2.482991E+05  3.879767E+04 -7.856059E+05  5.224824E+02  2.451147E+03
       174   9 -2.089960E+06 -2.788062E+05  2.997090E+04 -8.148578E+05  2.313314E+03  1.816131E+03
       174  10 -2.392936E+06 -3.921633E+05 -5.094308E+04 -8.969704E+05 -2.144520E-10  1.752918E-10
       174  11 -2.386432E+06 -3.623493E+05 -4.431005E+04 -8.674635E+05 -7.698015E-10 -4.358178E-10
       174  12 -2.341517E+06 -3.732375E+05 -3.916873E+04 -8.825085E+05 -8.613334E-10  4.734426E-10
       174  13 -2.215640E+06 -3.253207E+05 -2.371283E+03 -8.489438E+05 -1.340145E-10 -3.896503E-10
       174  14 -2.234901E+06 -3.053248E+05 -2.755147E+03 -8.265392E+05 -5.780598E-10 -9.911181E-10
       174  15 -2.215746E+06 -3.260223E+05 -4.598218E+03 -8.486862E+05 -3.169619E-10 -3.718077E-10
       174  16 -2.038314E+06 -2.584765E+05  4.619760E+04 -8.009049E+05 -3.951084E-10 -4.951033E-10
       174  17 -2.083349E+06 -2.482991E+05  3.879766E+04 -7.856059E+05 -1.258983E-10 -1.915104E-09
       174  18 -2.089960E+06 -2.788062E+05  2.997088E+04 -8.148578E+05 -7.590448E-10  2.979073E-11
       174  19 -2.392936E+06 -3.921633E+05 -5.094306E+04 -8.969704E+05  8.966893E+02 -2.965027E+03
       174  20 -2.386432E+06 -3.623493E+05 -4.431004E+04 -8.674635E+05 -8.910314E+02 -2.588677E+03
       174  21 -2.341517E+06 -3.732375E+05 -3.916871E+04 -8.825085E+05 -2.763187E+03 -1.983787E+03
       174  22 -2.215640E+06 -3.253207E+05 -2.371265E+03 -8.489438E+05  1.040353E+03 -2.911338E+03
       174  23 -2.234901E+06 -3.053248E+05 -2.755134E+03 -8.265392E+05 -7.067817E+02 -2.519921E+03
       174  24 -2.215746E+06 -3.260223E+05 -4.598199E+03 -8.486862E+05 -2.538276E+03 -1.899968E+03
       174  25 -2.038314E+06 -2.584765E+05  4.619762E+04 -8.009049E+05  1.184061E+03 -2.857632E+03
       174  26 -2.083349E+06 -2.482991E+05  3.879767E+04 -7.856059E+05 -5.224824E+02 -2.451147E+03
       174  27 -2.089960E+06 -2.788062E+05  2.997090E+04 -8.148578E+05 -2.313314E+03 -1.816131E+03
       175   1 -2.161394E+06 -3.053519E+05  9.193736E+03 -8.355166E+05  3.903841E+03  1.548034E+03
       175   2 -2.153547E+06 -2.729071E+05  1.270343E+04 -8.041314E+05  9.250033E+03  2.222480E+03
       175   3 -2.109082E+06 -2.907495E+05  9.968000E+03 -8.174858E+05  1.451064E+04  3.128267E+03
       175   4 -2.215759E+06 -3.254017E+05 -5.732883E+03 -8.497523E+05  3.675424E+03  1.462937E+03
       175   5 -2.234523E+06 -3.035311E+05 -9.528344E+03 -8.261618E+05  9.062422E+03  2.152531E+03
       175   6 -2.216679E+06 -3.319570E+05 -1.960198E+04 -8.473115E+05  1.436359E+04  3.073384E+03
       175   7 -2.270121E+06 -3.454515E+05 -2.065977E+04 -8.639869E+05  3.447029E+03  1.377848E+03
       175   8 -2.315493E+06 -3.341548E+05 -3.176070E+04 -8.481895E+05  8.874839E+03  2.082592E+03
       175   9 -2.324265E+06 -3.731638E+05 -4.917299E+04 -8.771325E+05  1.421658E+04  3.018513E+03
       175  10 -2.161394E+06 -3.053519E+05  9.193703E+03 -8.355166E+05  4.378918E-12 -1.429628E-10
       175  11 -2.153547E+06 -2.729072E+05  1.270326E+04 -8.041314E+05 -2.693963E-10 -2.224889E-09
       175  12 -2.109083E+06 -2.907496E+05  9.967584E+03 -8.174859E+05  1.285879E-09  1.877417E-10
       175  13 -2.215759E+06 -3.254018E+05 -5.732913E+03 -8.497523E+05 -7.404166E-11  1.602000E-10
       175  14 -2.234523E+06 -3.035312E+05 -9.528507E+03 -8.261618E+05 -5.560474E-10 -1.312917E-09
       175  15 -2.216679E+06 -3.319571E+05 -1.960239E+04 -8.473116E+05  1.390086E-09 -3.135091E-10
       175  16 -2.270121E+06 -3.454515E+05 -2.065980E+04 -8.639869E+05 -9.148658E-10  3.656427E-10
       175  17 -2.315493E+06 -3.341548E+05 -3.176086E+04 -8.481895E+05 -1.250600E-09 -8.281518E-10
       175  18 -2.324265E+06 -3.731638E+05 -4.917339E+04 -8.771326E+05 -2.709823E-10  6.216377E-10
       175  19 -2.161394E+06 -3.053519E+05  9.193736E+03 -8.355166E+05 -3.903841E+03 -1.548034E+03
       175  20 -2.153547E+06 -2.729071E+05  1.270343E+04 -8.041314E+05 -9.250033E+03 -2.222480E+03
       175  21 -2.109082E+06 -2.907495E+05  9.968000E+03 -8.174858E+05 -1.451064E+04 -3.128267E+03
       175  22 -2.215759E+06 -3.254017E+05 -5.732883E+03 -8.497523E+05 -3.675424E+03 -1.462937E+03
       175  23 -2.234523E+06 -3.035311E+05 -9.528344E+03 -8.261618E+05 -9.062422E+03 -2.152531E+03
       175  24 -2.216679E+06 -3.319570E+05 -1.960198E+04 -8.473115E+05 -1.436359E+04 -3.073384E+03
       175  25 -2.270121E+06 -3.454515E+05 -2.065977E+04 -8.639869E+05 -3.447029E+03 -1.377848E+03
       175  26 -2.315493E+06 -3.341548E+05 -3.176070E+04 -8.481895E+05 -8.874839E+03 -2.082592E+03
       175  27 -2.324265E+06 -3.731638E+05 -4.917299E+04 -8.771325E+05 -1.421658E+04 -3.018513E+03
       176   1 -1.948204E+06 -2.224786E+05  4.987226E+04 -7.781017E+05  1.861441E+04  3.782334E+03
       176   2 -1.936343E+06 -1.866037E+05  3.921325E+04 -7.508697E+05  4.050058E+04  1.067760E+04
       176   3 -1.918833E+06 -2.452433E+05 -4.547352E+03 -7.434498E+05  6.195299E+04  1.873896E+04
       176   4 -2.220874E+06 -3.224469E+05 -2.445824E+04 -8.490088E+05  1.830371E+04  3.666396E+03
       176   5 -2.226807E+06 -2.973320E+05 -4.069369E+04 -8.308156E+05  4.038901E+04  1.063565E+04
       176   6 -2.227144E+06 -3.667916E+05 -9.020150E+04 -8.324335E+05  6.203978E+04  1.877065E+04
       176   7 -2.493472E+06 -4.224122E+05 -9.879550E+04 -9.198883E+05  1.799315E+04  3.550510E+03
       176   8 -2.517191E+06 -4.080552E+05 -1.206084E+05 -9.107276E+05  4.027750E+04  1.059372E+04
       176   9 -2.535364E+06 -4.883322E+05 -1.758645E+05 -9.213765E+05  6.212651E+04  1.880232E+04
       176  10 -1.948205E+06 -2.224787E+05  4.987157E+04 -7.781018E+05 -1.947163E-10  3.540502E-10
       176  11 -1.936345E+06 -1.866043E+05  3.920994E+04 -7.508701E+05  6.379068E-10 -9.937856E-10
       176  12 -1.918837E+06 -2.452447E+05 -4.555253E+03 -7.434507E+05  8.342983E-11  1.684595E-10
       176  13 -2.220874E+06 -3.224470E+05 -2.445890E+04 -8.490088E+05  1.765749E-09 -9.810072E-11
       176  14 -2.226809E+06 -2.973326E+05 -4.069698E+04 -8.308160E+05 -1.143231E-09  6.602945E-10
       176  15 -2.227148E+06 -3.667930E+05 -9.020943E+04 -8.324344E+05  2.355774E-09  6.630126E-10
       176  16 -2.493473E+06 -4.224123E+05 -9.879614E+04 -9.198884E+05 -8.356467E-10 -3.120489E-10
       176  17 -2.517193E+06 -4.080558E+05 -1.206117E+05 -9.107280E+05  5.116222E-10 -1.854478E-11
       176  18 -2.535368E+06 -4.883336E+05 -1.758725E+05 -9.213774E+05  1.661161E-09  4.412788E-10
       176  19 -1.948204E+06 -2.224786E+05  4.987226E+04 -7.781017E+05 -1.861441E+04 -3.782334E+03
       176  20 -1.936343E+06 -1.866037E+05  3.921325E+04 -7.508697E+05 -4.050058E+04 -1.067760E+04
       176  21 -1.918833E+06 -2.452433E+05 -4.547352E+03 -7.434498E+05 -6.195299E+04 -1.873896E+04
       176  22 -2.220874E+06 -3.224469E+05 -2.445824E+04 -8.490088E+05 -1.830371E+04 -3.666396E+03
       176  23 -2.226807E+06 -2.973320E+05 -4.069369E+04 -8.308156E+05 -4.038901E+04 -1.063565E+04
       176  24 -2.227144E+06 -3.667916E+05 -9.020150E+04 -8.324335E+05 -6.203978E+04 -1.877065E+04
       176  25 -2.493472E+06 -4.224122E+05 -9.879550E+04 -9.198883E+05 -1.799315E+04 -3.550510E+03
       176  26 -2.517191E+06 -4.080552E+05 -1.206084E+05 -9.107276E+05 -4.027750E+04 -1.059372E+04
       176  27 -2.535364E+06 -4.883322E+05 -1.758645E+05 -9.213765E+05 -6.212651E+04 -1.880232E+04
       177   1 -1.819190E+06 -1.699626E+05  3.932614E+03 -7.583690E+05  7.970091E+04  2.415246E+04
       177   2 -1.772995E+06 -7.693435E+04 -5.765899E+04 -7.252287E+05  1.749800E+05  5.868407E+04
       177   3 -1.884186E+06 -4.208317E+05 -3.058497E+05 -5.960572E+05  2.682417E+05  9.859150E+04
       177   4 -2.244981E+06 -3.128498E+05 -1.094001E+05 -8.555462E+05  7.899213E+04  2.388934E+04
       177   5 -2.187416E+06 -2.430057E+05 -1.732046E+05 -8.476255E+05  1.751728E+05  5.875285E+04
       177   6 -2.287526E+06 -6.104436E+05 -4.244230E+05 -7.436424E+05  2.693372E+05  9.898404E+04
       177   7 -2.670597E+06 -4.557355E+05 -2.227481E+05 -9.526673E+05  7.828387E+04  2.362636E+04
       177   8 -2.601671E+06 -4.090615E+05 -2.887665E+05 -9.699465E+05  1.753653E+05  5.882156E+04
       177   9 -2.690705E+06 -8.000189E+05 -5.430125E+05 -8.911322E+05  2.704318E+05  9.937609E+04
       177  10 -1.819197E+06 -1.699650E+05  3.919536E+03 -7.583706E+05  7.473993E-10 -5.546510E-10
       177  11 -1.773029E+06 -7.694631E+04 -5.772321E+04 -7.252370E+05  8.484225E-10  7.366667E-10
       177  12 -1.884267E+06 -4.208615E+05 -3.060037E+05 -5.960786E+05  3.756633E-10 -1.215943E-10
       177  13 -2.244988E+06 -3.128521E+05 -1.094130E+05 -8.555477E+05  2.002617E-09  2.077565E-10
       177  14 -2.187449E+06 -2.430177E+05 -1.732691E+05 -8.476338E+05 -1.621225E-09  9.017985E-10
       177  15 -2.287607E+06 -6.104737E+05 -4.245783E+05 -7.436639E+05  6.023004E-10  5.606787E-10
       177  16 -2.670604E+06 -4.557377E+05 -2.227607E+05 -9.526688E+05  1.390064E-09  4.410089E-10
       177  17 -2.601705E+06 -4.090735E+05 -2.888311E+05 -9.699549E+05 -5.227747E-10  3.194682E-10
       177  18 -2.690787E+06 -8.000493E+05 -5.431692E+05 -8.911539E+05  1.544461E-10  1.076172E-10
       177  19 -1.819190E+06 -1.699626E+05  3.932614E+03 -7.583690E+05 -7.970091E+04 -2.415246E+04
       177  20 -1.772995E+06 -7.693435E+04 -5.765899E+04 -7.252287E+05 -1.749800E+05 -5.868407E+04
       177  21 -1.884186E+06 -4.208317E+05 -3.058497E+05 -5.960572E+05 -2.682417E+05 -9.859150E+04
       177  22 -2.244981E+06 -3.128498E+05 -1.094001E+05 -8.555462E+05 -7.899213E+04 -2.388934E+04
       177  23 -2.187416E+06 -2.430057E+05 -1.732046E+05 -8.476255E+05 -1.751728E+05 -5.875285E+04
       177  24 -2.287526E+06 -6.104436E+05 -4.244230E+05 -7.436424E+05 -2.693372E+05 -9.898404E+04
       177  25 -2.670597E+06 -4.557355E+05 -2.227481E+05 -9.526673E+05 -7.828387E+04 -2.362636E+04
       177  26 -2.601671E+06 -4.090615E+05 -2.887665E+05 -9.699465E+05 -1.753653E+05 -5.882156E+04
       177  27 -2.690705E+06 -8.000189E+05 -5.430125E+05 -8.911322E+05 -2.704318E+05 -9.937609E+04
       178   1 -1.063441E+06 -6.498203E+04 -2.709739E+04 -3.701118E+03  1.080876E+05  4.020582E+03
       178   2 -1.068197E+06 -2.119338E+05 -1.138033E+05  6.560789E+03  7.201309E+04  1.059804E+04
       178   3 -1.019742E+06 -1.828387E+05 -1.320826E+05 -2.611885E+04  3.596672E+04  8.700861E+03
       178   4 -3.059547E+05  1.242895E+05  1.619346E+05 -1.780835E+04  1.102809E+05  4.026164E+03
       178   5 -3.327016E+05 -2.819248E+04  6.891092E+04  3.908613E+03  7.254072E+04  1.059826E+04
       178   6 -3.060038E+05 -4.447642E+03  4.541292E+04 -1.731287E+04  3.483009E+04  8.698814E+03
       178   7  4.520533E+05  3.135186E+05  3.509235E+05 -3.193334E+04  1.124768E+05  4.031644E+03
       178   8  4.032852E+05  1.555083E+05  2.515847E+05  1.252940E+03  7.306893E+04  1.059848E+04
       178   9  4.081976E+05  1.739054E+05  2.228703E+05 -8.496927E+03  3.369213E+04  8.696736E+03
       178  10 -1.063454E+06 -6.498519E+04 -2.711941E+04 -3.701469E+03  1.689952E-09  4.074598E-10
       178  11 -1.068202E+06 -2.119354E+05 -1.138133E+05  6.560174E+03  2.492231E-09 -1.562836E-09
       178  12 -1.019744E+06 -1.828391E+05 -1.320852E+05 -2.611910E+04  1.502429E-10 -2.553513E-10
       178  13 -3.059677E+05  1.242862E+05  1.619117E+05 -1.780871E+04  2.203679E-09 -1.374467E-09
       178  14 -3.327073E+05 -2.819402E+04  6.890081E+04  3.907994E+03  6.950259E-10 -5.316063E-10
       178  15 -3.060051E+05 -4.448049E+03  4.541050E+04 -1.731311E+04 -4.065368E-11 -7.010621E-10
       178  16  4.520397E+05  3.135152E+05  3.508997E+05 -3.193370E+04 -1.143644E-09  1.351749E-09
       178  17  4.032795E+05  1.555067E+05  2.515745E+05  1.252317E+03 -1.596203E-09 -9.927681E-10
       178  18  4.081964E+05  1.739050E+05  2.228681E+05 -8.497163E+03 -3.881148E-10 -4.657884E-10
       178  19 -1.063441E+06 -6.498203E+04 -2.709739E+04 -3.701118E+03 -1.080876E+05 -4.020582E+03
       178  20 -1.068197E+06 -2.119338E+05 -1.138033E+05  6.560789E+03 -7.201309E+04 -1.059804E+04
       178  21 -1.019742E+06 -1.828387E+05 -1.320826E+05 -2.611885E+04 -3.596672E+04 -8.700861E+03
       178  22 -3.059547E+05  1.242895E+05  1.619346E+05 -1.780835E+04 -1.102809E+05 -4.026164E+03
       178  23 -3.327016E+05 -2.819248E+04  6.891092E+04  3.908613E+03 -7.254072E+04 -1.059826E+04
       178  24 -3.060038E+05 -4.447642E+03  4.541292E+04 -1.731287E+04 -3.483009E+04 -8.698814E+03
       178  25  4.520533E+05  3.135186E+05  3.509235E+05 -3.193334E+04 -1.124768E+05 -4.031644E+03
       178  26  4.032852E+05  1.555083E+05  2.515847E+05  1.252940E+03 -7.306893E+04 -1.059848E+04
       178  27  4.081976E+05  1.739054E+05  2.228703E+05 -8.496927E+03 -3.369213E+04 -8.696736E+03
       179   1 -8.950070E+05 -1.266280E+05 -1.066465E+05 -1.668463E+04  2.714204E+04  6.876383E+03
       179   2 -8.758167E+05 -1.429274E+05 -1.201993E+05  5.712441E+03  1.803989E+04  7.099687E+03
       179   3 -8.465402E+05 -1.332332E+05 -1.208365E+05 -1.935322E+04  8.936345E+03  6.004603E+03
       179   4 -3.155655E+05  1.815623E+04  3.745607E+04 -1.848062E+04  2.733042E+04  6.876081E+03
       179   5 -3.206391E+05 -4.214527E+03  1.780292E+04  5.258583E+03  1.796769E+04  7.099255E+03
       179   6 -3.155882E+05 -5.581018E+02  1.123823E+04 -1.846223E+04  8.603913E+03  6.004525E+03
       179   7  2.641812E+05  1.629152E+05  1.815335E+05 -2.027838E+04  2.751896E+04  6.875777E+03
       179   8  2.348185E+05  1.344752E+05  1.557821E+05  4.804303E+03  1.789541E+04  7.098825E+03
       179   9  2.156199E+05  1.320958E+05  1.432918E+05 -1.757043E+04  8.271193E+03  6.004446E+03
       179  10 -8.950078E+05 -1.266282E+05 -1.066480E+05 -1.668478E+04 -1.561956E-09 -1.268350E-10
       179  11 -8.758170E+05 -1.429276E+05 -1.202001E+05  5.712338E+03  7.728995E-10  3.157024E-10
       179  12 -8.465403E+05 -1.332332E+05 -1.208367E+05 -1.935326E+04  1.127628E-09  5.083807E-10
       179  13 -3.155663E+05  1.815598E+04  3.745458E+04 -1.848077E+04 -1.026849E-09 -3.519109E-10
       179  14 -3.206395E+05 -4.214668E+03  1.780222E+04  5.258480E+03 -1.474107E-10  4.995913E-10
       179  15 -3.155883E+05 -5.581604E+02  1.123802E+04 -1.846227E+04 -2.132721E-09  1.581267E-10
       179  16  2.641803E+05  1.629149E+05  1.815320E+05 -2.027853E+04 -1.359481E-09 -6.668837E-11
       179  17  2.348181E+05  1.344751E+05  1.557814E+05  4.804200E+03 -1.090488E-09 -5.504760E-11
       179  18  2.156198E+05  1.320957E+05  1.432916E+05 -1.757047E+04 -1.216291E-09  5.563473E-10
       179  19 -8.950070E+05 -1.266280E+05 -1.066465E+05 -1.668463E+04 -2.714204E+04 -6.876383E+03
       179  20 -8.758167E+05 -1.429274E+05 -1.201993E+05  5.712441E+03 -1.803989E+04 -7.099687E+03
       179  21 -8.465402E+05 -1.332332E+05 -1.208365E+05 -1.935322E+04 -8.936345E+03 -6.004603E+03
       179  22 -3.155655E+05  1.815623E+04  3.745607E+04 -1.848062E+04 -2.733042E+04 -6.876081E+03
       179  23 -3.206391E+05 -4.214527E+03  1.780292E+04  5.258583E+03 -1.796769E+04 -7.099255E+03
       179  24 -3.155882E+05 -5.581018E+02  1.123823E+04 -1.846223E+04 -8.603913E+03 -6.004525E+03
       179  25  2.641812E+05  1.629152E+05  1.815335E+05 -2.027838E+04 -2.751896E+04 -6.875777E+03
       179  26  2.348185E+05  1.344752E+05  1.557821E+05  4.804303E+03 -1.789541E+04 -7.098825E+03
       179  27  2.156199E+05  1.320958E+05  1.432918E+05 -1.757043E+04 -8.271193E+03 -6.004446E+03
       180   1 -7.008670E+05 -9.320443E+04 -8.636861E+04 -1.864690E+04  6.889429E+03  5.254389E+03
       180   2 -6.758408E+05 -8.995671E+04 -8.429562E+04  6.742051E+03  4.590389E+03  4.470972E+03
       180   3 -6.487567E+05 -8.277170E+04 -7.958454E+04 -1.885993E+04  2.289484E+03  3.447114E+03
       180   4 -3.173324E+05  2.604763E+03  8.913148E+03 -1.924885E+04  6.764502E+03  5.254319E+03
       180   5 -3.183717E+05 -6.493779E+02  4.562750E+03  6.244263E+03  4.418045E+03  4.471093E+03
       180   6 -3.173460E+05  4.105083E+01  2.882379E+03 -1.925172E+04  2.069819E+03  3.447489E+03
       180   7  6.633587E+04  9.840291E+04  1.041839E+05 -1.985114E+04  6.639497E+03  5.254250E+03
       180   8  3.921345E+04  8.864835E+04  9.341155E+04  5.746235E+03  4.245601E+03  4.471215E+03
       180   9  1.416441E+04  8.284554E+04  8.534106E+04 -1.964365E+04  1.850036E+03  3.447865E+03
       180  10 -7.008671E+05 -9.320448E+04 -8.636875E+04 -1.864693E+04  7.352582E-10  6.802838E-11
       180  11 -6.758408E+05 -8.995674E+04 -8.429570E+04  6.742035E+03 -9.408683E-10  1.287221E-10
       180  12 -6.487567E+05 -8.277171E+04 -7.958457E+04 -1.885994E+04 -9.950841E-10 -1.327363E-09
       180  13 -3.173325E+05  2.604721E+03  8.913010E+03 -1.924888E+04 -1.076623E-09  2.073498E-10
       180  14 -3.183717E+05 -6.494046E+02  4.562676E+03  6.244247E+03  3.536544E-09  9.804832E-10
       180  15 -3.173460E+05  4.103692E+01  2.882348E+03 -1.925172E+04 -1.149401E-09  1.986069E-09
       180  16  6.633582E+04  9.840287E+04  1.041838E+05 -1.985117E+04 -1.061753E-09  2.860375E-10
       180  17  3.921343E+04  8.864833E+04  9.341148E+04  5.746220E+03 -9.453523E-10 -1.307691E-09
       180  18  1.416440E+04  8.284552E+04  8.534103E+04 -1.964366E+04  3.561835E-10  2.276968E-11
       180  19 -7.008670E+05 -9.320443E+04 -8.636861E+04 -1.864690E+04 -6.889429E+03 -5.254389E+03
       180  20 -6.758408E+05 -8.995671E+04 -8.429562E+04  6.742051E+03 -4.590389E+03 -4.470972E+03
       180  21 -6.487567E+05 -8.277170E+04 -7.958454E+04 -1.885993E+04 -2.289484E+03 -3.447114E+03
       180  22 -3.173324E+05  2.604763E+03  8.913148E+03 -1.924885E+04 -6.764502E+03 -5.254319E+03
       180  23 -3.183717E+05 -6.493779E+02  4.562750E+03  6.244263E+03 -4.418045E+03 -4.471093E+03
       180  24 -3.173460E+05  4.105083E+01  2.882379E+03 -1.925172E+04 -2.069819E+03 -3.447489E+03
       180  25  6.633587E+04  9.840291E+04  1.041839E+05 -1.985114E+04 -6.639497E+03 -5.254250E+03
       180  26  3.921345E+04  8.864835E+04  9.341155E+04  5.746235E+03 -4.245601E+03 -4.471215E+03
       180  27  1.416441E+04  8.284554E+04  8.534106E+04 -1.964365E+04 -1.850036E+03 -3.447865E+03
       181   1 -4.934149E+05 -4.344986E+04 -4.132623E+04 -1.933388E+04  1.779741E+03  2.827904E+03
       181   2 -4.663932E+05 -3.723998E+04 -3.557476E+04  7.092523E+03  1.103959E+03  1.850733E+03
       181   3 -4.392661E+05 -3.022177E+04 -2.921951E+04 -1.944408E+04  4.274029E+02  8.251267E+02
       181   4 -3.177541E+05  4.158310E+02  2.255252E+03 -1.968859E+04  1.596850E+03  2.828305E+03
       181   5 -3.178103E+05 -1.231665E+02  1.355854E+03  6.792195E+03  9.116016E+02  1.851221E+03
       181   6 -3.177598E+05  1.479038E+02  1.066854E+03 -1.968922E+04  2.256077E+02  8.257095E+02
       181   7 -1.420653E+05  4.427921E+04  4.583443E+04 -2.004339E+04  1.413908E+03  2.828706E+03
       181   8 -1.692074E+05  3.699199E+04  3.828482E+04  6.491808E+03  7.191977E+02  1.851710E+03
       181   9 -1.962400E+05  3.051646E+04  3.135211E+04 -1.993441E+04  2.377291E+01  8.262925E+02
       181  10 -4.934149E+05 -4.344987E+04 -4.132625E+04 -1.933388E+04  2.352647E-09  4.615166E-11
       181  11 -4.663932E+05 -3.723999E+04 -3.557477E+04  7.092521E+03 -1.914226E-09  5.764266E-10
       181  12 -4.392661E+05 -3.022177E+04 -2.921951E+04 -1.944408E+04 -7.741500E-10 -1.073197E-09
       181  13 -3.177541E+05  4.158218E+02  2.255232E+03 -1.968860E+04 -2.200763E-09 -1.434491E-09
       181  14 -3.178103E+05 -1.231704E+02  1.355846E+03  6.792193E+03  3.106928E-09  6.092401E-10
       181  15 -3.177598E+05  1.479031E+02  1.066853E+03 -1.968922E+04  3.019488E-09 -2.049365E-09
       181  16 -1.420653E+05  4.427920E+04  4.583441E+04 -2.004340E+04  8.372365E-10  1.186445E-09
       181  17 -1.692074E+05  3.699199E+04  3.828481E+04  6.491807E+03  6.114409E-10 -6.754785E-10
       181  18 -1.962400E+05  3.051646E+04  3.135211E+04 -1.993441E+04 -1.083216E-09 -3.144794E-09
       181  19 -4.934149E+05 -4.344986E+04 -4.132623E+04 -1.933388E+04 -1.779741E+03 -2.827904E+03
       181  20 -4.663932E+05 -3.723998E+04 -3.557476E+04  7.092523E+03 -1.103959E+03 -1.850733E+03
       181  21 -4.392661E+05 -3.022177E+04 -2.921951E+04 -1.944408E+04 -4.274029E+02 -8.251267E+02
       181  22 -3.177541E+05  4.158310E+02  2.255252E+03 -1.968859E+04 -1.596850E+03 -2.828305E+03
       181  23 -3.178103E+05 -1.231665E+02  1.355854E+03  6.792195E+03 -9.116016E+02 -1.851221E+03
       181  24 -3.177598E+05  1.479038E+02  1.066854E+03 -1.968922E+04 -2.256077E+02 -8.257095E+02
       181  25 -1.420653E+05  4.427921E+04  4.583443E+04 -2.004339E+04 -1.413908E+03 -2.828706E+03
       181  26 -1.692074E+05  3.699199E+04  3.828482E+04  6.491808E+03 -7.191977E+02 -1.851710E+03
       181  27 -1.962400E+05  3.051646E+04  3.135211E+04 -1.993441E+04 -2.377291E+01 -8.262925E+02
       182   1 -2.800762E+05  9.589153E+03  1.047636E+04 -1.982880E+04  2.337680E+02  2.130940E+02
       182   2 -2.527786E+05  1.612747E+04  1.727889E+04  6.741767E+03 -3.431393E+02 -8.110491E+02
       182   3 -2.255778E+05  2.336372E+04  2.456007E+04 -1.997670E+04 -9.197146E+02 -1.803428E+03
       182   4 -3.178009E+05  1.493394E+02  1.015319E+03 -1.976189E+04  3.382342E+01  2.136900E+02
       182   5 -3.177502E+05 -1.007262E+02  1.132315E+03  6.883063E+03 -5.369452E+02 -8.105015E+02
       182   6 -3.177984E+05  3.460644E+02  1.723687E+03 -1.976136E+04 -1.107356E+03 -1.802925E+03
       182   7 -3.555243E+05 -9.290582E+03 -8.445830E+03 -1.969499E+04 -1.661090E+02  2.142860E+02
       182   8 -3.827180E+05 -1.632924E+04 -1.501457E+04  7.024347E+03 -7.307307E+02 -8.099540E+02
       182   9 -4.100112E+05 -2.267223E+04 -2.111333E+04 -1.954604E+04 -1.294970E+03 -1.802422E+03
       182  10 -2.800762E+05  9.589153E+03  1.047636E+04 -1.982880E+04  7.723055E-10  1.394845E-09
       182  11 -2.527786E+05  1.612747E+04  1.727889E+04  6.741767E+03 -2.416946E-09  4.966167E-09
       182  12 -2.255778E+05  2.336372E+04  2.456006E+04 -1.997671E+04 -2.799505E-10 -3.002249E-09
       182  13 -3.178009E+05  1.493393E+02  1.015319E+03 -1.976189E+04  1.080944E-09  3.754010E-14
       182  14 -3.177502E+05 -1.007270E+02  1.132313E+03  6.883063E+03 -2.418383E-10 -5.377384E-10
       182  15 -3.177984E+05  3.460606E+02  1.723678E+03 -1.976136E+04 -4.716201E-11 -4.144324E-10
       182  16 -3.555243E+05 -9.290582E+03 -8.445830E+03 -1.969499E+04 -9.397606E-10  6.391685E-11
       182  17 -3.827180E+05 -1.632924E+04 -1.501458E+04  7.024347E+03  1.647738E-09  2.371444E-10
       182  18 -4.100112E+05 -2.267223E+04 -2.111334E+04 -1.954605E+04 -8.895921E-10 -6.166827E-10
       182  19 -2.800762E+05  9.589153E+03  1.047636E+04 -1.982880E+04 -2.337680E+02 -2.130940E+02
       182  20 -2.527786E+05  1.612747E+04  1.727889E+04  6.741767E+03  3.431393E+02  8.110491E+02
       182  21 -2.255778E+05  2.336372E+04  2.456007E+04 -1.997670E+04  9.197146E+02  1.803428E+03
       182  22 -3.178009E+05  1.493394E+02  1.015319E+03 -1.976189E+04 -3.382342E+01 -2.136900E+02
       182  23 -3.177502E+05 -1.007262E+02  1.132315E+03  6.883063E+03  5.369452E+02  8.105015E+02
       182  24 -3.177984E+05  3.460644E+02  1.723687E+03 -1.976136E+04  1.107356E+03  1.802925E+03
       182  25 -3.555243E+05 -9.290582E+03 -8.445830E+03 -1.969499E+04  1.661090E+02 -2.142860E+02
       182  26 -3.827180E+05 -1.632924E+04 -1.501457E+04  7.024347E+03  7.307307E+02  8.099540E+02
       182  27 -4.100112E+05 -2.267223E+04 -2.111333E+04 -1.954604E+04  1.294970E+03  1.802422E+03
       183   1 -6.753800E+04  6.251709E+04  6.436319E+04 -1.983636E+04 -1.244978E+03 -2.427808E+03
       183   2 -4.160177E+04  6.858330E+04  7.209362E+04  6.025748E+03 -3.023030E+03 -3.460855E+03
       183   3 -1.438329E+04  7.761757E+04  8.178423E+04 -2.006721E+04 -4.799609E+03 -4.280756E+03
       183   4 -3.175117E+05  7.108795E+01  2.161010E+03 -1.946673E+04 -1.464222E+03 -2.427296E+03
       183   5 -3.181437E+05 -4.797485E+02  3.378554E+03  6.513137E+03 -3.200670E+03 -3.460569E+03
       183   6 -3.175010E+05  1.930888E+03  6.528021E+03 -1.946349E+04 -4.935568E+03 -4.280653E+03
       183   7 -5.674286E+05 -6.237961E+04 -6.004586E+04 -1.909722E+04 -1.683378E+03 -2.426784E+03
       183   8 -5.946161E+05 -6.954854E+04 -6.534224E+04  7.000346E+03 -3.378230E+03 -3.460284E+03
       183   9 -6.205352E+05 -7.376269E+04 -6.873506E+04 -1.886004E+04 -5.071460E+03 -4.280550E+03
       183  10 -6.753801E+04  6.251708E+04  6.436318E+04 -1.983636E+04 -6.319246E-10 -3.902222E-09
       183  11 -4.160178E+04  6.858329E+04  7.209358E+04  6.025739E+03 -1.111746E-09  6.314776E-11
       183  12 -1.438332E+04  7.761755E+04  8.178416E+04 -2.006722E+04  6.369189E-10  2.751991E-10
       183  13 -3.175117E+05  7.108105E+01  2.160995E+03 -1.946673E+04 -1.017254E-09 -3.215701E-10
       183  14 -3.181437E+05 -4.797642E+02  3.378512E+03  6.513128E+03 -1.381945E-09 -7.822579E-10
       183  15 -3.175010E+05  1.930862E+03  6.527941E+03 -1.946351E+04  3.846621E-10 -1.896377E-10
       183  16 -5.674286E+05 -6.237962E+04 -6.004588E+04 -1.909722E+04  1.924129E-11 -3.042888E-10
       183  17 -5.946161E+05 -6.954856E+04 -6.534228E+04  7.000336E+03  2.697697E-09  3.119063E-09
       183  18 -6.205353E+05 -7.376272E+04 -6.873514E+04 -1.886006E+04 -3.208824E-09  6.026930E-10
       183  19 -6.753800E+04  6.251709E+04  6.436319E+04 -1.983636E+04  1.244978E+03  2.427808E+03
       183  20 -4.160177E+04  6.858330E+04  7.209362E+04  6.025748E+03  3.023030E+03  3.460855E+03
       183  21 -1.438329E+04  7.761757E+04  8.178423E+04 -2.006721E+04  4.799609E+03  4.280756E+03
       183  22 -3.175117E+05  7.108795E+01  2.161010E+03 -1.946673E+04  1.464222E+03  2.427296E+03
       183  23 -3.181437E+05 -4.797485E+02  3.378554E+03  6.513137E+03  3.200670E+03  3.460569E+03
       183  24 -3.175010E+05  1.930888E+03  6.528021E+03 -1.946349E+04  4.935568E+03  4.280653E+03
       183  25 -5.674286E+05 -6.237961E+04 -6.004586E+04 -1.909722E+04  1.683378E+03  2.426784E+03
       183  26 -5.946161E+05 -6.954854E+04 -6.534224E+04  7.000346E+03  3.378230E+03  3.460284E+03
       183  27 -6.205352E+05 -7.376269E+04 -6.873506E+04 -1.886004E+04  5.071460E+03  4.280550E+03
       184   1  1.382882E+05  1.131366E+05  1.212323E+05 -1.843771E+04 -5.957169E+03 -5.029173E+03
       184   2  1.596721E+05  1.166489E+05  1.321457E+05  5.079314E+03 -1.304567E+04 -6.128180E+03
       184   3  1.884527E+05  1.392877E+05  1.527945E+05 -2.042026E+04 -2.013244E+04 -6.013727E+03
       184   4 -3.161886E+05 -3.631334E+02  8.234980E+03 -1.881382E+04 -6.283333E+03 -5.028942E+03
       184   5 -3.198583E+05 -3.088959E+03  1.302285E+04  5.695266E+03 -1.313410E+04 -6.128432E+03
       184   6 -3.161691E+05  1.327793E+04  2.738625E+04 -1.881457E+04 -1.998286E+04 -6.014071E+03
       184   7 -7.704780E+05 -1.138784E+05 -1.047778E+05 -1.918960E+04 -6.609256E+03 -5.028711E+03
       184   8 -7.991800E+05 -1.228441E+05 -1.061172E+05  6.310774E+03 -1.322246E+04 -6.128685E+03
       184   9 -8.205597E+05 -1.127509E+05 -9.804106E+04 -1.721019E+04 -1.983340E+04 -6.014415E+03
       184  10  1.382881E+05  1.131366E+05  1.212322E+05 -1.843773E+04  1.663450E-09  5.445142E-10
       184  11  1.596719E+05  1.166489E+05  1.321453E+05  5.079250E+03  4.456707E-10 -7.791733E-10
       184  12  1.884523E+05  1.392875E+05  1.527937E+05 -2.042036E+04 -2.264867E-09  2.585140E-10
       184  13 -3.161887E+05 -3.631711E+02  8.234858E+03 -1.881385E+04 -5.128737E-12  1.328933E-10
       184  14 -3.198585E+05 -3.089046E+03  1.302246E+04  5.695201E+03 -2.496727E-09  2.070637E-10
       184  15 -3.161695E+05  1.327779E+04  2.738543E+04 -1.881467E+04  7.994135E-10 -5.738616E-10
       184  16 -7.704780E+05 -1.138785E+05 -1.047779E+05 -1.918962E+04 -3.714706E-09 -5.366946E-10
       184  17 -7.991802E+05 -1.228442E+05 -1.061176E+05  6.310709E+03 -4.508835E-10 -6.146651E-10
       184  18 -8.205602E+05 -1.127511E+05 -9.804187E+04 -1.721029E+04  2.799749E-09 -7.428413E-10
       184  19  1.382882E+05  1.131366E+05  1.212323E+05 -1.843771E+04  5.957169E+03  5.029173E+03
       184  20  1.596721E+05  1.166489E+05  1.321457E+05  5.079314E+03  1.304567E+04  6.128180E+03
       184  21  1.884527E+05  1.392877E+05  1.527945E+05 -2.042026E+04  2.013244E+04  6.013727E+03
       184  22 -3.161886E+05 -3.631334E+02  8.234980E+03 -1.881382E+04  6.283333E+03  5.028942E+03
       184  23 -3.198583E+05 -3.088959E+03  1.302285E+04  5.695266E+03  1.313410E+04  6.128432E+03
       184  24 -3.161691E+05  1.327793E+04  2.738625E+04 -1.881457E+04  1.998286E+04  6.014071E+03
       184  25 -7.704780E+05 -1.138784E+05 -1.047778E+05 -1.918960E+04  6.609256E+03  5.028711E+03
       184  26 -7.991800E+05 -1.228441E+05 -1.061172E+05  6.310774E+03  1.322246E+04  6.128685E+03
       184  27 -8.205597E+05 -1.127509E+05 -9.804106E+04 -1.721019E+04  1.983340E+04  6.014415E+03
       185   1  3.356376E+05  1.577751E+05  1.934356E+05 -1.169845E+04 -2.439767E+04 -7.742680E+03
       185   2  3.387500E+05  1.459996E+05  2.160501E+05  2.246058E+03 -5.349490E+04 -9.536722E+03
       185   3  3.815429E+05  2.633588E+05  2.906111E+05 -2.860645E+04 -8.261116E+04 -3.502168E+03
       185   4 -3.090966E+05 -3.217649E+03  3.322574E+04 -1.780369E+04 -2.547181E+04 -7.743649E+03
       185   5 -3.288020E+05 -2.063589E+04  5.035485E+04  4.471916E+03 -5.303910E+04 -9.536849E+03
       185   6 -3.090574E+05  9.088708E+04  1.184069E+05 -1.805189E+04 -8.062425E+04 -3.498535E+03
       185   7 -9.534535E+05 -1.642415E+05 -1.270152E+05 -2.390264E+04 -2.654482E+04 -7.744597E+03
       185   8 -9.959496E+05 -1.873048E+05 -1.153737E+05  6.695205E+03 -5.258377E+04 -9.536973E+03
       185   9 -9.992250E+05 -8.162010E+04 -5.383313E+04 -7.509365E+03 -7.863951E+04 -3.494833E+03
       185  10  3.356369E+05  1.577749E+05  1.934344E+05 -1.169860E+04 -1.713970E-09  9.865164E-10
       185  11  3.387470E+05  1.459987E+05  2.160445E+05  2.245647E+03  6.997582E-10  2.891341E-10
       185  12  3.815356E+05  2.633570E+05  2.905983E+05 -2.860668E+04  1.714868E-09 -1.147447E-09
       185  13 -3.090973E+05 -3.217888E+03  3.322440E+04 -1.780385E+04 -1.058035E-10  8.520636E-10
       185  14 -3.288051E+05 -2.063675E+04  5.034939E+04  4.471508E+03  1.735738E-09  3.104449E-09
       185  15 -3.090644E+05  9.088532E+04  1.183946E+05 -1.805212E+04 -7.478453E-10 -1.793963E-10
       185  16 -9.534543E+05 -1.642417E+05 -1.270167E+05 -2.390281E+04  1.758705E-09  1.613106E-10
       185  17 -9.959526E+05 -1.873056E+05 -1.153790E+05  6.694801E+03 -5.826335E-10  1.258997E-09
       185  18 -9.992317E+05 -8.162178E+04 -5.384480E+04 -7.509587E+03  1.357716E-09 -1.132802E-09
       185  19  3.356376E+05  1.577751E+05  1.934356E+05 -1.169845E+04  2.439767E+04  7.742680E+03
       185  20  3.387500E+05  1.459996E+05  2.160501E+05  2.246058E+03  5.349490E+04  9.536722E+03
       185  21  3.815429E+05  2.633588E+05  2.906111E+05 -2.860645E+04  8.261116E+04  3.502168E+03
       185  22 -3.090966E+05 -3.217649E+03  3.322574E+04 -1.780369E+04  2.547181E+04  7.743649E+03
       185  23 -3.288020E+05 -2.063589E+04  5.035485E+04  4.471916E+03  5.303910E+04  9.536849E+03
       185  24 -3.090574E+05  9.088708E+04  1.184069E+05 -1.805189E+04  8.062425E+04  3.498535E+03
       185  25 -9.534535E+05 -1.642415E+05 -1.270152E+05 -2.390264E+04  2.654482E+04  7.744597E+03
       185  26 -9.959496E+05 -1.873048E+05 -1.153737E+05  6.695205E+03  5.258377E+04  9.536973E+03
       185  27 -9.992250E+05 -8.162010E+04 -5.383313E+04 -7.509365E+03  7.863951E+04  3.494833E+03
       186   1  3.816409E+05  1.011276E+06  4.563899E+05 -1.012014E+05  1.650206E+03  2.166020E+05
       186   2  5.650434E+04  8.763062E+05  2.536699E+05  6.170025E+03  6.035635E+03  1.379221E+05
       186   3  8.657289E+04  8.396704E+05  1.908016E+05 -5.324505E+04  2.588062E+03  5.920752E+04
       186   4  2.468372E+05  4.728686E+05  3.221762E+05 -6.652629E+04  1.669485E+03  2.149606E+05
       186   5 -5.649729E+04  4.237893E+05  1.414533E+05  1.627654E+04  6.038192E+03  1.378461E+05
       186   6 -4.757207E+03  4.728499E+05  9.958344E+04 -6.770972E+04  2.577576E+03  6.068591E+04
       186   7  1.120160E+05 -6.527382E+04  1.879413E+05 -3.188096E+04  1.688593E+03  2.133206E+05
       186   8 -1.695139E+05 -2.854176E+04  2.922155E+04  2.637594E+04  6.040749E+03  1.377701E+05
       186   9 -9.609653E+04  1.061519E+05  8.355400E+03 -8.216565E+04  2.567018E+03  6.216341E+04
       186  10  3.816283E+05  1.011226E+06  4.563018E+05 -1.012016E+05  1.448847E-09  8.994604E-10
       186  11  5.649921E+04  8.762858E+05  2.536341E+05  6.169355E+03  5.432632E-10  4.855133E-11
       186  12  8.657194E+04  8.396667E+05  1.907950E+05 -5.324517E+04 -2.615013E-10 -1.577215E-09
       186  13  2.468248E+05  4.728190E+05  3.220894E+05 -6.652658E+04  3.484835E-09  1.269910E-09
       186  14 -5.650243E+04  4.237689E+05  1.414176E+05  1.627587E+04  3.238107E-10 -2.789136E-11
       186  15 -4.758202E+03  4.728460E+05  9.957651E+04 -6.770984E+04  1.731254E-09  3.130945E-10
       186  16  1.120037E+05 -6.532268E+04  1.878558E+05 -3.188125E+04  6.446342E-10 -1.530031E-09
       186  17 -1.695191E+05 -2.856215E+04  2.918581E+04  2.637527E+04  6.451928E-09  7.987317E-10
       186  18 -9.609758E+04  1.061477E+05  8.348127E+03 -8.216578E+04 -8.375717E-10  9.856979E-10
       186  19  3.816409E+05  1.011276E+06  4.563899E+05 -1.012014E+05 -1.650206E+03 -2.166020E+05
       186  20  5.650434E+04  8.763062E+05  2.536699E+05  6.170025E+03 -6.035635E+03 -1.379221E+05
       186  21  8.657289E+04  8.396704E+05  1.908016E+05 -5.324505E+04 -2.588062E+03 -5.920752E+04
       186  22  2.468372E+05  4.728686E+05  3.221762E+05 -6.652629E+04 -1.669485E+03 -2.149606E+05
       186  23 -5.649729E+04  4.237893E+05  1.414533E+05  1.627654E+04 -6.038192E+03 -1.378461E+05
       186  24 -4.757207E+03  4.728499E+05  9.958344E+04 -6.770972E+04 -2.577576E+03 -6.068591E+04
       186  25  1.120160E+05 -6.527382E+04  1.879413E+05 -3.188096E+04 -1.688593E+03 -2.133206E+05
       186  26 -1.695139E+05 -2.854176E+04  2.922155E+04  2.637594E+04 -6.040749E+03 -1.377701E+05
       186  27 -9.609653E+04  1.061519E+05  8.355400E+03 -8.216565E+04 -2.567018E+03 -6.216341E+04
       187   1  3.833607E+03  3.257255E+05  5.419962E+04 -7.240198E+04 -7.180287E+02  4.334543E+04
       187   2 -6.708443E+04  2.292190E+05  2.817105E+03  1.649060E+04 -2.850621E+03  1.393701E+04
       187   3 -5.407311E+04  1.554664E+05 -8.863953E+03 -6.080793E+04 -4.368164E+03 -1.546166E+04
       187   4  3.632095E+04  4.561288E+05  8.671223E+04 -6.704842E+04 -7.207969E+02  4.385726E+04
       187   5 -1.328681E+04  4.447618E+05  5.633595E+04  1.599138E+04 -2.852807E+03  1.432424E+04
       187   6  2.104236E+04  4.561570E+05  6.574119E+04 -6.715557E+04 -4.369338E+03 -1.520305E+04
       187   7  6.880714E+04  5.865477E+05  1.192236E+05 -6.169372E+04 -7.235560E+02  4.436920E+04
       187   8  4.050731E+04  6.603466E+05  1.098513E+05  1.549205E+04 -2.854993E+03  1.471159E+04
       187   9  9.615118E+04  7.569298E+05  1.403396E+05 -7.350617E+04 -4.370517E+03 -1.494431E+04
       187  10  3.833102E+03  3.257234E+05  5.419609E+04 -7.240196E+04 -1.521168E-09  4.540816E-10
       187  11 -6.708449E+04  2.292188E+05  2.816725E+03  1.649064E+04 -1.303298E-09  3.287026E-10
       187  12 -5.407319E+04  1.554661E+05 -8.864438E+03 -6.080798E+04 -1.061849E-09 -1.666473E-10
       187  13  3.632043E+04  4.561268E+05  8.670861E+04 -6.704840E+04 -7.479934E-10  1.588375E-09
       187  14 -1.328688E+04  4.447615E+05  5.633555E+04  1.599142E+04 -7.544281E-10  4.404905E-11
       187  15  2.104228E+04  4.561568E+05  6.574072E+04 -6.715562E+04 -1.784178E-09  2.494504E-10
       187  16  6.880661E+04  5.865455E+05  1.192199E+05 -6.169369E+04 -1.788996E-09 -1.280766E-09
       187  17  4.050725E+04  6.603464E+05  1.098509E+05  1.549209E+04 -3.853705E-09  5.622496E-10
       187  18  9.615110E+04  7.569296E+05  1.403392E+05 -7.350622E+04 -8.236060E-10 -1.988522E-10
       187  19  3.833607E+03  3.257255E+05  5.419962E+04 -7.240198E+04  7.180287E+02 -4.334543E+04
       187  20 -6.708443E+04  2.292190E+05  2.817105E+03  1.649060E+04  2.850621E+03 -1.393701E+04
       187  21 -5.407311E+04  1.554664E+05 -8.863953E+03 -6.080793E+04  4.368164E+03  1.546166E+04
       187  22  3.632095E+04  4.561288E+05  8.671223E+04 -6.704842E+04  7.207969E+02 -4.385726E+04
       187  23 -1.328681E+04  4.447618E+05  5.633595E+04  1.599138E+04  2.852807E+03 -1.432424E+04
       187  24  2.104236E+04  4.561570E+05  6.574119E+04 -6.715557E+04  4.369338E+03  1.520305E+04
       187  25  6.880714E+04  5.865477E+05  1.192236E+05 -6.169372E+04  7.235560E+02 -4.436920E+04
       187  26  4.050731E+04  6.603466E+05  1.098513E+05  1.549205E+04  2.854993E+03 -1.471159E+04
       187  27  9.615118E+04  7.569298E+05  1.403396E+05 -7.350617E+04  4.370517E+03  1.494431E+04
       188   1 -1.998853E+05 -3.390585E+05 -1.292034E+05 -7.570155E+04 -8.340304E+03 -2.963087E+04
       188   2 -2.581089E+05 -4.601906E+05 -1.320853E+05  2.502052E+04 -1.266514E+04 -7.599600E+04
       188   3 -9.649728E+04 -5.156926E+05 -4.887065E+04 -4.671746E+04 -4.483725E+03 -1.223112E+05
       188   4  9.460156E+02  4.655709E+05  7.085948E+04 -6.867948E+04 -8.350439E+03 -2.758309E+04
       188   5 -3.515553E+04  4.326311E+05  8.951936E+04  1.770773E+04 -1.266189E+04 -7.640946E+04
       188   6  1.488395E+05  4.656532E+05  1.958944E+05 -6.834835E+04 -4.472852E+03 -1.251927E+05
       188   7  2.017290E+05  1.270788E+06  2.708739E+05 -6.164753E+04 -8.360522E+03 -2.553264E+04
       188   8  1.877382E+05  1.326177E+06  3.110645E+05  1.038505E+04 -1.265863E+04 -7.682344E+04
       188   9  3.941055E+05  1.447873E+06  4.405873E+05 -9.001293E+04 -4.461789E+03 -1.280785E+05
       188  10 -1.998856E+05 -3.390594E+05 -1.292052E+05 -7.570175E+04 -1.000139E-09  5.119154E-10
       188  11 -2.581106E+05 -4.601969E+05 -1.320965E+05  2.501975E+04  2.751949E-09  4.260257E-10
       188  12 -9.650132E+04 -5.157087E+05 -4.889882E+04 -4.671790E+04  1.062738E-09 -2.378751E-10
       188  13  9.457367E+02  4.655701E+05  7.085792E+04 -6.867967E+04  7.216048E-10  1.333848E-09
       188  14 -3.515727E+04  4.326248E+05  8.950810E+04  1.770696E+04  1.107956E-09  9.406148E-13
       188  15  1.488353E+05  4.656364E+05  1.958649E+05 -6.834880E+04  3.621528E-10  1.171853E-10
       188  16  2.017288E+05  1.270787E+06  2.708726E+05 -6.164771E+04 -3.290648E-09 -1.005631E-09
       188  17  1.877364E+05  1.326170E+06  3.110532E+05  1.038427E+04  1.840645E-09  1.269395E-10
       188  18  3.941010E+05  1.447856E+06  4.405565E+05 -9.001339E+04  1.214535E-09  5.682874E-11
       188  19 -1.998853E+05 -3.390585E+05 -1.292034E+05 -7.570155E+04  8.340304E+03  2.963087E+04
       188  20 -2.581089E+05 -4.601906E+05 -1.320853E+05  2.502052E+04  1.266514E+04  7.599600E+04
       188  21 -9.649728E+04 -5.156926E+05 -4.887065E+04 -4.671746E+04  4.483725E+03  1.223112E+05
       188  22  9.460156E+02  4.655709E+05  7.085948E+04 -6.867948E+04  8.350439E+03  2.758309E+04
       188  23 -3.515553E+04  4.326311E+05  8.951936E+04  1.770773E+04  1.266189E+04  7.640946E+04
       188  24  1.488395E+05  4.656532E+05  1.958944E+05 -6.834835E+04  4.472852E+03  1.251927E+05
       188  25  2.017290E+05  1.270788E+06  2.708739E+05 -6.164753E+04  8.360522E+03  2.553264E+04
       188  26  1.877382E+05  1.326177E+06  3.110645E+05  1.038505E+04  1.265863E+04  7.682344E+04
       188  27  3.941055E+05  1.447873E+06  4.405873E+05 -9.001293E+04  4.461789E+03  1.280785E+05
       189   1 -5.846641E+06 -1.863129E+06 -1.202625E+06 -2.025446E+06 -5.708325E+05 -2.032836E+05
       189   2 -5.696285E+06 -1.026492E+06 -6.733067E+05 -2.133017E+06 -3.714409E+05 -1.006943E+05
       189   3 -5.859515E+06 -1.031966E+06 -5.247659E+05 -2.051074E+06 -1.622538E+05 -2.390008E+04
       189   4 -4.772713E+06 -1.289418E+06 -8.745608E+05 -1.564443E+06 -5.568934E+05 -1.981827E+05
       189   5 -4.570980E+06 -5.540168E+05 -3.620664E+05 -1.778535E+06 -3.675552E+05 -9.926194E+04
       189   6 -4.680274E+06 -6.578615E+05 -2.218143E+05 -1.803282E+06 -1.684148E+05 -2.620780E+04
       189   7 -3.697588E+06 -7.152514E+05 -5.466094E+05 -1.102600E+06 -5.429269E+05 -1.930618E+05
       189   8 -3.444434E+06 -8.138193E+04 -5.094426E+04 -1.423438E+06 -3.636612E+05 -9.782566E+04
       189   9 -3.499679E+06 -2.837649E+05  8.102738E+04 -1.555108E+06 -1.745884E+05 -2.851852E+04
       189  10 -5.847005E+06 -1.863262E+06 -1.203322E+06 -2.025540E+06  6.410584E-10 -7.483829E-11
       189  11 -5.696437E+06 -1.026541E+06 -6.735880E+05 -2.133048E+06  4.191101E-09  1.513858E-09
       189  12 -5.859544E+06 -1.031974E+06 -5.248169E+05 -2.051077E+06  1.215612E-09  4.920327E-10
       189  13 -4.773059E+06 -1.289544E+06 -8.752231E+05 -1.564533E+06  1.218193E-09 -2.662045E-10
       189  14 -4.571128E+06 -5.540641E+05 -3.623411E+05 -1.778565E+06  2.727086E-10 -3.716245E-10
       189  15 -4.680305E+06 -6.578700E+05 -2.218693E+05 -1.803286E+06  4.607344E-09  3.156518E-10
       189  16 -3.697917E+06 -7.153714E+05 -5.472375E+05 -1.102684E+06 -6.917085E-10 -6.414808E-12
       189  17 -3.444579E+06 -8.142807E+04 -5.121251E+04 -1.423467E+06  7.175301E-11 -2.137406E-10
       189  18 -3.499712E+06 -2.837741E+05  8.096820E+04 -1.555112E+06  7.916260E-10  7.962330E-12
       189  19 -5.846641E+06 -1.863129E+06 -1.202625E+06 -2.025446E+06  5.708325E+05  2.032836E+05
       189  20 -5.696285E+06 -1.026492E+06 -6.733067E+05 -2.133017E+06  3.714409E+05  1.006943E+05
       189  21 -5.859515E+06 -1.031966E+06 -5.247659E+05 -2.051074E+06  1.622538E+05  2.390008E+04
       189  22 -4.772713E+06 -1.289418E+06 -8.745608E+05 -1.564443E+06  5.568934E+05  1.981827E+05
       189  23 -4.570980E+06 -5.540168E+05 -3.620664E+05 -1.778535E+06  3.675552E+05  9.926194E+04
       189  24 -4.680274E+06 -6.578615E+05 -2.218143E+05 -1.803282E+06  1.684148E+05  2.620780E+04
       189  25 -3.697588E+06 -7.152514E+05 -5.466094E+05 -1.102600E+06  5.429269E+05  1.930618E+05
       189  26 -3.444434E+06 -8.138193E+04 -5.094426E+04 -1.423438E+06  3.636612E+05  9.782566E+04
       189  27 -3.499679E+06 -2.837649E+05  8.102738E+04 -1.555108E+06  1.745884E+05  2.851852E+04
       190   1 -5.668807E+06 -1.163150E+06 -4.601539E+05 -2.052654E+06 -1.350813E+05 -1.915443E+04
       190   2 -5.608336E+06 -1.016888E+06 -3.456518E+05 -2.023448E+06 -8.928205E+04 -1.995031E+03
       190   3 -5.543883E+06 -1.015295E+06 -2.921494E+05 -2.021044E+06 -4.233531E+04  1.211834E+04
       190   4 -4.646985E+06 -7.578821E+05 -1.812149E+05 -1.755166E+06 -1.346538E+05 -1.900190E+04
       190   5 -4.643578E+06 -6.475829E+05 -8.539891E+04 -1.756055E+06 -9.000526E+04 -2.271212E+03
       190   6 -4.635898E+06 -6.816200E+05 -4.958492E+04 -1.783758E+06 -4.421476E+04  1.141134E+04
       190   7 -3.624144E+06 -3.525225E+05  9.762943E+04 -1.457220E+06 -1.342255E+05 -1.884898E+04
       190   8 -3.677914E+06 -2.782159E+05  1.747712E+05 -1.488281E+06 -9.072963E+04 -2.547835E+03
       190   9 -3.727114E+06 -3.479077E+05  1.929074E+05 -1.546162E+06 -4.609723E+04  1.070329E+04
       190  10 -5.668827E+06 -1.163156E+06 -4.601892E+05 -2.052657E+06 -1.030692E-09  8.712685E-10
       190  11 -5.608345E+06 -1.016890E+06 -3.456670E+05 -2.023448E+06  4.347572E-10  3.643144E-10
       190  12 -5.543885E+06 -1.015296E+06 -2.921530E+05 -2.021043E+06 -7.377255E-10 -3.573273E-10
       190  13 -4.647005E+06 -7.578874E+05 -1.812499E+05 -1.755168E+06  1.093152E-09  3.159360E-10
       190  14 -4.643587E+06 -6.475851E+05 -8.541425E+04 -1.756055E+06 -1.719885E-09  6.492150E-10
       190  15 -4.635900E+06 -6.816207E+05 -4.958885E+04 -1.783758E+06 -7.789781E-10 -3.029622E-10
       190  16 -3.624163E+06 -3.525278E+05  9.759468E+04 -1.457222E+06  7.728905E-10  8.504067E-10
       190  17 -3.677923E+06 -2.782182E+05  1.747556E+05 -1.488282E+06  6.627661E-12  6.660635E-10
       190  18 -3.727116E+06 -3.479084E+05  1.929032E+05 -1.546161E+06 -3.157434E-10  1.031075E-09
       190  19 -5.668807E+06 -1.163150E+06 -4.601539E+05 -2.052654E+06  1.350813E+05  1.915443E+04
       190  20 -5.608336E+06 -1.016888E+06 -3.456518E+05 -2.023448E+06  8.928205E+04  1.995031E+03
       190  21 -5.543883E+06 -1.015295E+06 -2.921494E+05 -2.021044E+06  4.233531E+04 -1.211834E+04
       190  22 -4.646985E+06 -7.578821E+05 -1.812149E+05 -1.755166E+06  1.346538E+05  1.900190E+04
       190  23 -4.643578E+06 -6.475829E+05 -8.539891E+04 -1.756055E+06  9.000526E+04  2.271212E+03
       190  24 -4.635898E+06 -6.816200E+05 -4.958492E+04 -1.783758E+06  4.421476E+04 -1.141134E+04
       190  25 -3.624144E+06 -3.525225E+05  9.762943E+04 -1.457220E+06  1.342255E+05  1.884898E+04
       190  26 -3.677914E+06 -2.782159E+05  1.747712E+05 -1.488281E+06  9.072963E+04  2.547835E+03
       190  27 -3.727114E+06 -3.479077E+05  1.929074E+05 -1.546162E+06  4.609723E+04 -1.070329E+04
       191   1 -5.383304E+06 -9.834005E+05 -2.420100E+05 -1.988489E+06 -3.494150E+04  1.224443E+04
       191   2 -5.319655E+06 -9.049236E+05 -1.980727E+05 -1.928757E+06 -2.326437E+04  1.276149E+04
       191   3 -5.198079E+06 -9.013021E+05 -1.649890E+05 -1.938387E+06 -1.134271E+04  1.260890E+04
       191   4 -4.628266E+06 -6.968401E+05 -3.901457E+04 -1.781670E+06 -3.618879E+04  1.177502E+04
       191   5 -4.656570E+06 -6.547804E+05 -1.991823E+04 -1.748722E+06 -2.476795E+04  1.219767E+04
       191   6 -4.626900E+06 -6.875119E+05 -1.145961E+04 -1.785136E+06 -1.310438E+04  1.195036E+04
       191   7 -3.872676E+06 -4.102448E+05  1.639297E+05 -1.574623E+06 -3.743774E+04  1.130498E+04
       191   8 -3.993058E+06 -4.046113E+05  1.581973E+05 -1.568513E+06 -2.627329E+04  1.163320E+04
       191   9 -4.055404E+06 -4.737034E+05  1.420412E+05 -1.631757E+06 -1.486785E+04  1.129115E+04
       191  10 -5.383306E+06 -9.834010E+05 -2.420126E+05 -1.988488E+06 -1.378119E-10  1.412869E-10
       191  11 -5.319656E+06 -9.049240E+05 -1.980740E+05 -1.928757E+06 -1.721937E-09  4.383653E-10
       191  12 -5.198079E+06 -9.013023E+05 -1.649895E+05 -1.938387E+06 -9.992374E-11  9.587710E-11
       191  13 -4.628268E+06 -6.968406E+05 -3.901731E+04 -1.781670E+06 -1.065434E-09 -2.317382E-10
       191  14 -4.656571E+06 -6.547807E+05 -1.991967E+04 -1.748722E+06 -8.785336E-10 -9.450530E-10
       191  15 -4.626900E+06 -6.875121E+05 -1.146020E+04 -1.785136E+06  3.658539E-09  2.132142E-09
       191  16 -3.872677E+06 -4.102453E+05  1.639268E+05 -1.574622E+06 -1.791256E-09 -1.000791E-09
       191  17 -3.993059E+06 -4.046116E+05  1.581957E+05 -1.568512E+06 -1.702210E-09 -3.071146E-10
       191  18 -4.055404E+06 -4.737036E+05  1.420405E+05 -1.631756E+06  2.524549E-09  1.083810E-09
       191  19 -5.383304E+06 -9.834005E+05 -2.420100E+05 -1.988489E+06  3.494150E+04 -1.224443E+04
       191  20 -5.319655E+06 -9.049236E+05 -1.980727E+05 -1.928757E+06  2.326437E+04 -1.276149E+04
       191  21 -5.198079E+06 -9.013021E+05 -1.649890E+05 -1.938387E+06  1.134271E+04 -1.260890E+04
       191  22 -4.628266E+06 -6.968401E+05 -3.901457E+04 -1.781670E+06  3.618879E+04 -1.177502E+04
       191  23 -4.656570E+06 -6.547804E+05 -1.991823E+04 -1.748722E+06  2.476795E+04 -1.219767E+04
       191  24 -4.626900E+06 -6.875119E+05 -1.145961E+04 -1.785136E+06  1.310438E+04 -1.195036E+04
       191  25 -3.872676E+06 -4.102448E+05  1.639297E+05 -1.574623E+06  3.743774E+04 -1.130498E+04
       191  26 -3.993058E+06 -4.046113E+05  1.581973E+05 -1.568513E+06  2.627329E+04 -1.163320E+04
       191  27 -4.055404E+06 -4.737034E+05  1.420412E+05 -1.631757E+06  1.486785E+04 -1.129115E+04
       192   1 -5.012240E+06 -8.371310E+05 -1.128568E+05 -1.892036E+06 -8.791529E+03  1.068811E+04
       192   2 -4.940057E+06 -7.585412E+05 -8.053162E+04 -1.820896E+06 -4.367494E+03  7.409164E+03
       192   3 -4.795858E+06 -7.544531E+05 -5.072272E+04 -1.833509E+06  1.298679E+02  3.924317E+03
       192   4 -4.624242E+06 -6.911150E+05 -9.056167E+03 -1.786940E+06 -1.049086E+04  1.005376E+04
       192   5 -4.660169E+06 -6.533269E+05 -5.419316E+03 -1.745263E+06 -6.147799E+03  6.745351E+03
       192   6 -4.624076E+06 -6.900217E+05 -4.231928E+03 -1.787341E+06 -1.731991E+03  3.230925E+03
       192   7 -4.236098E+06 -5.450903E+05  9.473125E+04 -1.681784E+06 -1.219136E+04  9.418982E+03
       192   8 -4.380205E+06 -5.481083E+05  6.968597E+04 -1.669599E+06 -7.928990E+03  6.081208E+03
       192   9 -4.452267E+06 -6.255888E+05  4.225612E+04 -1.741162E+06 -3.594415E+03  2.537323E+03
       192  10 -5.012240E+06 -8.371311E+05 -1.128572E+05 -1.892036E+06  1.831441E-09  1.097913E-09
       192  11 -4.940057E+06 -7.585412E+05 -8.053176E+04 -1.820896E+06 -1.366395E-09 -2.150366E-09
       192  12 -4.795858E+06 -7.544531E+05 -5.072274E+04 -1.833509E+06 -7.203593E-10 -1.871223E-09
       192  13 -4.624242E+06 -6.911152E+05 -9.056564E+03 -1.786940E+06  1.262918E-09 -4.399874E-10
       192  14 -4.660169E+06 -6.533270E+05 -5.419472E+03 -1.745263E+06  4.359728E-09  1.698805E-09
       192  15 -4.624076E+06 -6.900217E+05 -4.231953E+03 -1.787341E+06  3.712759E-09  1.647759E-09
       192  16 -4.236098E+06 -5.450904E+05  9.473081E+04 -1.681784E+06  1.988895E-09  2.065744E-09
       192  17 -4.380205E+06 -5.481084E+05  6.968579E+04 -1.669599E+06  1.078326E-09  2.420437E-09
       192  18 -4.452267E+06 -6.255888E+05  4.225608E+04 -1.741162E+06  1.215870E-09  3.394046E-10
       192  19 -5.012240E+06 -8.371310E+05 -1.128568E+05 -1.892036E+06  8.791529E+03 -1.068811E+04
       192  20 -4.940057E+06 -7.585412E+05 -8.053162E+04 -1.820896E+06  4.367494E+03 -7.409164E+03
       192  21 -4.795858E+06 -7.544531E+05 -5.072272E+04 -1.833509E+06 -1.298679E+02 -3.924317E+03
       192  22 -4.624242E+06 -6.911150E+05 -9.056167E+03 -1.786940E+06  1.049086E+04 -1.005376E+04
       192  23 -4.660169E+06 -6.533269E+05 -5.419316E+03 -1.745263E+06  6.147799E+03 -6.745351E+03
       192  24 -4.624076E+06 -6.900217E+05 -4.231928E+03 -1.787341E+06  1.731991E+03 -3.230925E+03
       192  25 -4.236098E+06 -5.450903E+05  9.473125E+04 -1.681784E+06  1.219136E+04 -9.418982E+03
       192  26 -4.380205E+06 -5.481083E+05  6.968597E+04 -1.669599E+06  7.928990E+03 -6.081208E+03
       192  27 -4.452267E+06 -6.255888E+05  4.225612E+04 -1.741162E+06  3.594415E+03 -2.537323E+03
       193   1 -4.597252E+06 -6.805153E+05  3.313800E+03 -1.780766E+06  1.829668E+03  1.472017E+03
       193   2 -4.523586E+06 -6.014255E+05  3.159929E+04 -1.707755E+06  6.082720E+03 -2.155513E+03
       193   3 -4.376457E+06 -5.982432E+05  5.756385E+04 -1.720338E+06  1.029719E+04 -5.672663E+03
       193   4 -4.623758E+06 -6.903877E+05 -4.196199E+03 -1.787730E+06 -3.197546E+01  7.788620E+02
       193   5 -4.660548E+06 -6.528923E+05 -5.144352E+03 -1.744759E+06  4.264592E+03 -2.832877E+03
       193   6 -4.623897E+06 -6.913161E+05 -8.448199E+03 -1.787388E+06  8.522050E+03 -6.334361E+03
       193   7 -4.650263E+06 -7.002602E+05 -1.170627E+04 -1.794694E+06 -1.893535E+03  8.573744E+01
       193   8 -4.797492E+06 -7.043581E+05 -4.188969E+04 -1.781755E+06  2.446905E+03 -3.510076E+03
       193   9 -4.871277E+06 -7.843855E+05 -7.446561E+04 -1.854414E+06  6.747694E+03 -6.995767E+03
       193  10 -4.597252E+06 -6.805153E+05  3.313789E+03 -1.780766E+06  7.077257E-11 -3.283874E-10
       193  11 -4.523586E+06 -6.014255E+05  3.159922E+04 -1.707755E+06 -1.418780E-09 -4.252138E-09
       193  12 -4.376457E+06 -5.982432E+05  5.756359E+04 -1.720338E+06  3.165855E-10 -3.668547E-10
       193  13 -4.623758E+06 -6.903877E+05 -4.196200E+03 -1.787730E+06  3.947772E-10 -2.033089E-09
       193  14 -4.660548E+06 -6.528923E+05 -5.144401E+03 -1.744759E+06  2.107523E-09  4.068712E-09
       193  15 -4.623897E+06 -6.913162E+05 -8.448411E+03 -1.787388E+06  2.538584E-09  1.266550E-09
       193  16 -4.650263E+06 -7.002602E+05 -1.170627E+04 -1.794694E+06  9.585741E-10  5.247035E-10
       193  17 -4.797492E+06 -7.043581E+05 -4.188972E+04 -1.781755E+06  2.413234E-09  2.813151E-09
       193  18 -4.871277E+06 -7.843855E+05 -7.446579E+04 -1.854414E+06  1.354605E-09  1.306987E-09
       193  19 -4.597252E+06 -6.805153E+05  3.313800E+03 -1.780766E+06 -1.829668E+03 -1.472017E+03
       193  20 -4.523586E+06 -6.014255E+05  3.159929E+04 -1.707755E+06 -6.082720E+03  2.155513E+03
       193  21 -4.376457E+06 -5.982432E+05  5.756385E+04 -1.720338E+06 -1.029719E+04  5.672663E+03
       193  22 -4.623758E+06 -6.903877E+05 -4.196199E+03 -1.787730E+06  3.197546E+01 -7.788620E+02
       193  23 -4.660548E+06 -6.528923E+05 -5.144352E+03 -1.744759E+06 -4.264592E+03  2.832877E+03
       193  24 -4.623897E+06 -6.913161E+05 -8.448199E+03 -1.787388E+06 -8.522050E+03  6.334361E+03
       193  25 -4.650263E+06 -7.002602E+05 -1.170627E+04 -1.794694E+06  1.893535E+03 -8.573744E+01
       193  26 -4.797492E+06 -7.043581E+05 -4.188969E+04 -1.781755E+06 -2.446905E+03  3.510076E+03
       193  27 -4.871277E+06 -7.843855E+05 -7.446561E+04 -1.854414E+06 -6.747694E+03  6.995767E+03
       194   1 -4.187197E+06 -5.246051E+05  1.072392E+05 -1.668831E+06  1.289846E+04 -7.697362E+03
       194   2 -4.120302E+06 -4.511124E+05  1.258476E+05 -1.601440E+06  2.365878E+04 -8.544756E+03
       194   3 -3.990932E+06 -4.558675E+05  1.347344E+05 -1.608846E+06  3.421124E+04 -8.812541E+03
       194   4 -4.625913E+06 -6.884767E+05 -1.065987E+04 -1.786263E+06  1.106255E+04 -8.382399E+03
       194   5 -4.657750E+06 -6.536246E+05 -1.841109E+04 -1.747266E+06  2.204717E+04 -9.147564E+03
       194   6 -4.627168E+06 -6.970764E+05 -3.606904E+04 -1.783073E+06  3.282224E+04 -9.333490E+03
       194   7 -5.064442E+06 -8.523378E+05 -1.285757E+05 -1.903620E+06  9.228072E+03 -9.066909E+03
       194   8 -5.194917E+06 -8.561198E+05 -1.626953E+05 -1.892977E+06  2.043709E+04 -9.749797E+03
       194   9 -5.263012E+06 -9.382609E+05 -2.069088E+05 -1.957138E+06  3.143481E+04 -9.853847E+03
       194  10 -4.187197E+06 -5.246052E+05  1.072387E+05 -1.668831E+06  2.465645E-09  1.469189E-09
       194  11 -4.120303E+06 -4.511126E+05  1.258464E+05 -1.601440E+06 -1.519865E-09 -4.896221E-10
       194  12 -3.990933E+06 -4.558679E+05  1.347321E+05 -1.608846E+06  9.571267E-10  1.916120E-09
       194  13 -4.625913E+06 -6.884769E+05 -1.066023E+04 -1.786263E+06  4.432422E-10 -4.191057E-10
       194  14 -4.657751E+06 -6.536248E+05 -1.841217E+04 -1.747266E+06 -2.038542E-09 -6.719701E-10
       194  15 -4.627169E+06 -6.970768E+05 -3.607124E+04 -1.783073E+06 -2.387063E-09 -1.958545E-09
       194  16 -5.064442E+06 -8.523379E+05 -1.285760E+05 -1.903620E+06 -1.123557E-09  2.342587E-09
       194  17 -5.194918E+06 -8.561200E+05 -1.626963E+05 -1.892977E+06 -2.241379E-09 -2.223723E-10
       194  18 -5.263013E+06 -9.382613E+05 -2.069109E+05 -1.957138E+06 -1.634174E-09  2.022265E-09
       194  19 -4.187197E+06 -5.246051E+05  1.072392E+05 -1.668831E+06 -1.289846E+04  7.697362E+03
       194  20 -4.120302E+06 -4.511124E+05  1.258476E+05 -1.601440E+06 -2.365878E+04  8.544756E+03
       194  21 -3.990932E+06 -4.558675E+05  1.347344E+05 -1.608846E+06 -3.421124E+04  8.812541E+03
       194  22 -4.625913E+06 -6.884767E+05 -1.065987E+04 -1.786263E+06 -1.106255E+04  8.382399E+03
       194  23 -4.657750E+06 -6.536246E+05 -1.841109E+04 -1.747266E+06 -2.204717E+04  9.147564E+03
       194  24 -4.627168E+06 -6.970764E+05 -3.606904E+04 -1.783073E+06 -3.282224E+04  9.333490E+03
       194  25 -5.064442E+06 -8.523378E+05 -1.285757E+05 -1.903620E+06 -9.228072E+03  9.066909E+03
       194  26 -5.194917E+06 -8.561198E+05 -1.626953E+05 -1.892977E+06 -2.043709E+04  9.749797E+03
       194  27 -5.263012E+06 -9.382609E+05 -2.069088E+05 -1.957138E+06 -3.143481E+04  9.853847E+03
       195   1 -3.830121E+06 -3.887326E+05  1.686111E+05 -1.575835E+06  4.239116E+04 -8.622335E+03
       195   2 -3.774375E+06 -3.136151E+05  1.559090E+05 -1.512366E+06  8.381226E+04  2.952180E+03
       195   3 -3.704435E+06 -3.818119E+05  8.866356E+04 -1.485589E+06  1.241482E+05  1.745016E+04
       195   4 -4.633990E+06 -6.832410E+05 -4.582854E+04 -1.785251E+06  4.038411E+04 -9.375132E+03
       195   5 -4.646051E+06 -6.466881E+05 -7.887932E+04 -1.753716E+06  8.292330E+04  2.615161E+03
       195   6 -4.644200E+06 -7.537638E+05 -1.674265E+05 -1.758871E+06  1.243717E+05  1.752696E+04
       195   7 -5.437232E+06 -9.777208E+05 -2.603246E+05 -1.994426E+06  3.837990E+04 -1.012693E+04
       195   8 -5.516989E+06 -9.797107E+05 -3.137351E+05 -1.994756E+06  8.203566E+04  2.278646E+03
       195   9 -5.583104E+06 -1.125639E+06 -4.235962E+05 -2.031767E+06  1.245947E+05  1.760355E+04
       195  10 -3.830123E+06 -3.887332E+05  1.686076E+05 -1.575834E+06  6.595119E-11  1.421820E-09
       195  11 -3.774382E+06 -3.136170E+05  1.558957E+05 -1.512366E+06  3.402568E-13 -3.039591E-10
       195  12 -3.704452E+06 -3.818164E+05  8.863383E+04 -1.485591E+06 -5.074399E-10 -2.678174E-10
       195  13 -4.633991E+06 -6.832416E+05 -4.583179E+04 -1.785251E+06  1.921263E-09  1.361060E-09
       195  14 -4.646058E+06 -6.466900E+05 -7.889235E+04 -1.753716E+06  1.615717E-09  1.684543E-10
       195  15 -4.644216E+06 -7.537683E+05 -1.674563E+05 -1.758873E+06 -1.200850E-09  1.006661E-10
       195  16 -5.437234E+06 -9.777213E+05 -2.603276E+05 -1.994426E+06  3.269185E-11  8.007123E-10
       195  17 -5.516996E+06 -9.797126E+05 -3.137479E+05 -1.994756E+06 -3.761139E-10 -3.981483E-10
       195  18 -5.583121E+06 -1.125643E+06 -4.236263E+05 -2.031769E+06 -1.090298E-09  5.164582E-10
       195  19 -3.830121E+06 -3.887326E+05  1.686111E+05 -1.575835E+06 -4.239116E+04  8.622335E+03
       195  20 -3.774375E+06 -3.136151E+05  1.559090E+05 -1.512366E+06 -8.381226E+04 -2.952180E+03
       195  21 -3.704435E+06 -3.818119E+05  8.866356E+04 -1.485589E+06 -1.241482E+05 -1.745016E+04
       195  22 -4.633990E+06 -6.832410E+05 -4.582854E+04 -1.785251E+06 -4.038411E+04  9.375132E+03
       195  23 -4.646051E+06 -6.466881E+05 -7.887932E+04 -1.753716E+06 -8.292330E+04 -2.615161E+03
       195  24 -4.644200E+06 -7.537638E+05 -1.674265E+05 -1.758871E+06 -1.243717E+05 -1.752696E+04
       195  25 -5.437232E+06 -9.777208E+05 -2.603246E+05 -1.994426E+06 -3.837990E+04  1.012693E+04
       195  26 -5.516989E+06 -9.797107E+05 -3.137351E+05 -1.994756E+06 -8.203566E+04 -2.278646E+03
       195  27 -5.583104E+06 -1.125639E+06 -4.235962E+05 -2.031767E+06 -1.245947E+05 -1.760355E+04
       196   1 -3.562415E+06 -3.078195E+05  8.069486E+04 -1.568608E+06  1.620094E+05  2.591938E+04
       196   2 -3.501283E+06 -1.104032E+05 -3.729438E+04 -1.437029E+06  3.364297E+05  8.893750E+04
       196   3 -3.714636E+06 -6.958943E+05 -4.908841E+05 -1.142629E+06  5.013240E+05  1.772246E+05
       196   4 -4.675029E+06 -6.612373E+05 -2.049220E+05 -1.803170E+06  1.557857E+05  2.359259E+04
       196   5 -4.579047E+06 -5.603061E+05 -3.344985E+05 -1.774543E+06  3.400504E+05  9.027204E+04
       196   6 -4.760061E+06 -1.245120E+06 -8.079867E+05 -1.582948E+06  5.147874E+05  1.821673E+05
       196   7 -5.786444E+06 -1.014662E+06 -4.906371E+05 -2.037391E+06  1.495741E+05  2.126869E+04
       196   8 -5.655674E+06 -1.010066E+06 -6.318098E+05 -2.111497E+06  3.436637E+05  9.160312E+04
       196   9 -5.804355E+06 -1.793940E+06 -1.125195E+06 -2.022490E+06  5.282249E+05  1.870918E+05
       196  10 -3.562444E+06 -3.078273E+05  8.064395E+04 -1.568611E+06  1.380451E-10 -8.620622E-10
       196  11 -3.501407E+06 -1.104424E+05 -3.752344E+04 -1.437053E+06  8.667920E-10 -3.731397E-09
       196  12 -3.714916E+06 -6.959963E+05 -4.914190E+05 -1.142701E+06 -1.343708E-09 -1.118791E-09
       196  13 -4.675056E+06 -6.612445E+05 -2.049691E+05 -1.803173E+06  3.666008E-10 -1.066136E-10
       196  14 -4.579174E+06 -5.603463E+05 -3.347331E+05 -1.774568E+06 -1.870689E-09 -1.483311E-09
       196  15 -4.760356E+06 -1.245228E+06 -8.085519E+05 -1.583024E+06  1.342973E-09 -4.335844E-10
       196  16 -5.786468E+06 -1.014669E+06 -4.906804E+05 -2.037394E+06 -9.653917E-10  2.148418E-10
       196  17 -5.655804E+06 -1.010107E+06 -6.320500E+05 -2.111523E+06 -2.379664E-09  7.992936E-10
       196  18 -5.804667E+06 -1.794054E+06 -1.125791E+06 -2.022571E+06 -3.628216E-10 -1.901481E-10
       196  19 -3.562415E+06 -3.078195E+05  8.069486E+04 -1.568608E+06 -1.620094E+05 -2.591938E+04
       196  20 -3.501283E+06 -1.104032E+05 -3.729438E+04 -1.437029E+06 -3.364297E+05 -8.893750E+04
       196  21 -3.714636E+06 -6.958943E+05 -4.908841E+05 -1.142629E+06 -5.013240E+05 -1.772246E+05
       196  22 -4.675029E+06 -6.612373E+05 -2.049220E+05 -1.803170E+06 -1.557857E+05 -2.359259E+04
       196  23 -4.579047E+06 -5.603061E+05 -3.344985E+05 -1.774543E+06 -3.400504E+05 -9.027204E+04
       196  24 -4.760061E+06 -1.245120E+06 -8.079867E+05 -1.582948E+06 -5.147874E+05 -1.821673E+05
       196  25 -5.786444E+06 -1.014662E+06 -4.906371E+05 -2.037391E+06 -1.495741E+05 -2.126869E+04
       196  26 -5.655674E+06 -1.010066E+06 -6.318098E+05 -2.111497E+06 -3.436637E+05 -9.160312E+04
       196  27 -5.804355E+06 -1.793940E+06 -1.125195E+06 -2.022490E+06 -5.282249E+05 -1.870918E+05
       197   1 -1.838791E+05  4.605960E+04  1.123987E+05  3.962195E+04  1.969614E+05  7.489849E+03
       197   2 -1.785268E+05 -2.176298E+05 -4.233635E+04  1.390699E+04  1.325973E+05  2.090685E+04
       197   3 -8.794818E+04 -1.782245E+05 -7.916152E+04 -5.350672E+04  6.826841E+04  1.887754E+04
       197   4  5.823589E+05  2.367009E+05  3.018706E+05 -2.439303E+04  2.063525E+05  7.495625E+03
       197   5  5.392452E+05 -3.947891E+04  1.312571E+05 -3.204112E+03  1.352357E+05  2.090771E+04
       197   6  5.824229E+05 -1.158860E+04  8.313813E+04 -2.371050E+04  6.415988E+04  1.887164E+04
       197   7  1.349140E+06  4.273141E+05  4.913014E+05 -8.848747E+04  2.157550E+05  7.499469E+03
       197   8  1.257489E+06  1.386355E+05  3.048138E+05 -2.033534E+04  1.378770E+05  2.090843E+04
       197   9  1.253206E+06  1.550176E+05  2.454060E+05  6.117819E+03  6.004691E+04  1.886534E+04
       197  10 -1.839208E+05  4.604912E+04  1.123257E+05  3.962077E+04 -2.078414E-10  1.133953E-09
       197  11 -1.785458E+05 -2.176350E+05 -4.237022E+04  1.390475E+04  1.093053E-09 -8.512775E-10
       197  12 -8.795328E+04 -1.782261E+05 -7.917095E+04 -5.350776E+04  1.633071E-09  4.330868E-10
       197  13  5.823132E+05  2.366894E+05  3.017905E+05 -2.439427E+04 -1.078792E-09  4.760715E-10
       197  14  5.392255E+05 -3.948428E+04  1.312219E+05 -3.206389E+03 -1.156011E-09 -2.713064E-09
       197  15  5.824184E+05 -1.159009E+04  8.312973E+04 -2.371147E+04 -1.261380E-09  9.123673E-11
       197  16  1.349090E+06  4.273016E+05  4.912140E+05 -8.848877E+04  2.095859E-10 -6.218760E-11
       197  17  1.257468E+06  1.386299E+05  3.047773E+05 -2.033766E+04 -3.140883E-09  1.508826E-11
       197  18  1.253202E+06  1.550162E+05  2.453985E+05  6.116907E+03 -2.259545E-09 -1.054938E-09
       197  19 -1.838791E+05  4.605960E+04  1.123987E+05  3.962195E+04 -1.969614E+05 -7.489849E+03
       197  20 -1.785268E+05 -2.176298E+05 -4.233635E+04  1.390699E+04 -1.325973E+05 -2.090685E+04
       197  21 -8.794818E+04 -1.782245E+05 -7.916152E+04 -5.350672E+04 -6.826841E+04 -1.887754E+04
       197  22  5.823589E+05  2.367009E+05  3.018706E+05 -2.439303E+04 -2.063525E+05 -7.495625E+03
       197  23  5.392452E+05 -3.947891E+04  1.312571E+05 -3.204112E+03 -1.352357E+05 -2.090771E+04
       197  24  5.824229E+05 -1.158860E+04  8.313813E+04 -2.371050E+04 -6.415988E+04 -1.887164E+04
       197  25  1.349140E+06  4.273141E+05  4.913014E+05 -8.848747E+04 -2.157550E+05 -7.499469E+03
       197  26  1.257489E+06  1.386355E+05  3.048138E+05 -2.033534E+04 -1.378770E+05 -2.090843E+04
       197  27  1.253206E+06  1.550176E+05  2.454060E+05  6.117819E+03 -6.004691E+04 -1.886534E+04
       198   1 -2.928996E+04 -1.205312E+05 -7.631967E+04 -1.726553E+04  5.088401E+04  1.553011E+04
       198   2  1.054607E+04 -1.412012E+05 -9.899820E+04 -2.421271E+03  3.390505E+04  1.510581E+04
       198   3  6.201432E+04 -1.265546E+05 -1.016691E+05 -2.729564E+04  1.692530E+04  1.334435E+04
       198   4  5.658641E+05  2.731973E+04  6.807487E+04 -2.350631E+04  5.103446E+04  1.552882E+04
       198   5  5.600112E+05 -4.726381E+03  3.408881E+04 -3.626430E+03  3.346267E+04  1.510429E+04
       198   6  5.658812E+05 -1.370442E+03  2.050827E+04 -2.346269E+04  1.589134E+04  1.334285E+04
       198   7  1.161342E+06  1.751449E+05  2.124439E+05 -2.975321E+04  5.118505E+04  1.552753E+04
       198   8  1.109752E+06  1.317263E+05  1.671541E+05 -4.832744E+03  3.301988E+04  1.510277E+04
       198   9  1.069980E+06  1.237951E+05  1.426674E+05 -1.962666E+04  1.485653E+04  1.334134E+04
       198  10 -2.929280E+04 -1.205322E+05 -7.632499E+04 -1.726617E+04  2.291692E-10 -8.662207E-10
       198  11  1.054478E+04 -1.412017E+05 -9.900079E+04 -2.421683E+03 -7.978599E-10  5.575767E-10
       198  12  6.201397E+04 -1.265549E+05 -1.016700E+05 -2.729583E+04 -2.303938E-10 -4.661204E-10
       198  13  5.658612E+05  2.731877E+04  6.806952E+04 -2.350695E+04  1.067787E-09 -5.505113E-10
       198  14  5.600099E+05 -4.726927E+03  3.408628E+04 -3.626837E+03  3.648359E-10 -6.344838E-10
       198  15  5.658809E+05 -1.370701E+03  2.050746E+04 -2.346286E+04  5.732168E-10 -8.122960E-10
       198  16  1.161339E+06  1.751439E+05  2.124385E+05 -2.975385E+04  1.597579E-09  2.920919E-11
       198  17  1.109751E+06  1.317258E+05  1.671516E+05 -4.833146E+03  9.730692E-10 -1.987782E-09
       198  18  1.069980E+06  1.237949E+05  1.426666E+05 -1.962682E+04 -1.809271E-09 -2.707783E-10
       198  19 -2.928996E+04 -1.205312E+05 -7.631967E+04 -1.726553E+04 -5.088401E+04 -1.553011E+04
       198  20  1.054607E+04 -1.412012E+05 -9.899820E+04 -2.421271E+03 -3.390505E+04 -1.510581E+04
       198  21  6.201432E+04 -1.265546E+05 -1.016691E+05 -2.729564E+04 -1.692530E+04 -1.334435E+04
       198  22  5.658641E+05  2.731973E+04  6.807487E+04 -2.350631E+04 -5.103446E+04 -1.552882E+04
       198  23  5.600112E+05 -4.726381E+03  3.408881E+04 -3.626430E+03 -3.346267E+04 -1.510429E+04
       198  24  5.658812E+05 -1.370442E+03  2.050827E+04 -2.346269E+04 -1.589134E+04 -1.334285E+04
       198  25  1.161342E+06  1.751449E+05  2.124439E+05 -2.975321E+04 -5.118505E+04 -1.552753E+04
       198  26  1.109752E+06  1.317263E+05  1.671541E+05 -4.832744E+03 -3.301988E+04 -1.510277E+04
       198  27  1.069980E+06  1.237951E+05  1.426674E+05 -1.962666E+04 -1.485653E+04 -1.334134E+04
       199   1  1.325429E+05 -1.040064E+05 -8.821822E+04 -2.279109E+04  1.329172E+04  1.214026E+04
       199   2  1.758218E+05 -9.669806E+04 -8.506050E+04 -3.988853E+03  8.967288E+03  1.055530E+04
       199   3  2.209568E+05 -8.531086E+04 -7.801131E+04 -2.367331E+04  4.641018E+03  8.871272E+03
       199   4  5.637079E+05  3.062028E+03  1.612077E+04 -2.320341E+04  1.263536E+04  1.213925E+04
       199   5  5.627811E+05 -5.896091E+02  8.673472E+03 -3.959870E+03  8.265362E+03  1.055458E+04
       199   6  5.637145E+05 -1.561149E+02  5.147212E+03 -2.320150E+04  3.893826E+03  8.870860E+03
       199   7  9.950426E+05  1.101169E+05  1.204464E+05 -2.361605E+04  1.197855E+04  1.213825E+04
       199   8  9.498770E+05  9.550787E+04  1.023967E+05 -3.930882E+03  7.562998E+03  1.055386E+04
       199   9  9.065794E+05  8.499001E+04  8.829726E+04 -2.272942E+04  3.146222E+03  8.870447E+03
       199  10  1.325426E+05 -1.040066E+05 -8.821883E+04 -2.279122E+04  6.968047E-10  4.318433E-10
       199  11  1.758217E+05 -9.669820E+04 -8.506086E+04 -3.988929E+03 -4.787477E-10 -2.280621E-10
       199  12  2.209568E+05 -8.531095E+04 -7.801149E+04 -2.367335E+04 -7.291350E-10  2.378562E-10
       199  13  5.637077E+05  3.061827E+03  1.612019E+04 -2.320353E+04 -1.085562E-09 -1.188413E-10
       199  14  5.627809E+05 -5.897471E+02  8.673134E+03 -3.959940E+03 -4.976662E-10  1.707856E-10
       199  15  5.637145E+05 -1.562035E+02  5.147036E+03 -2.320153E+04  6.036540E-10  1.774748E-10
       199  16  9.950424E+05  1.101167E+05  1.204459E+05 -2.361616E+04 -6.459829E-10 -4.099316E-10
       199  17  9.498769E+05  9.550774E+04  1.023964E+05 -3.930947E+03 -1.591538E-09  1.842128E-10
       199  18  9.065794E+05  8.498992E+04  8.829709E+04 -2.272945E+04 -2.044906E-09  2.922464E-12
       199  19  1.325429E+05 -1.040064E+05 -8.821822E+04 -2.279109E+04 -1.329172E+04 -1.214026E+04
       199  20  1.758218E+05 -9.669806E+04 -8.506050E+04 -3.988853E+03 -8.967288E+03 -1.055530E+04
       199  21  2.209568E+05 -8.531086E+04 -7.801131E+04 -2.367331E+04 -4.641018E+03 -8.871272E+03
       199  22  5.637079E+05  3.062028E+03  1.612077E+04 -2.320341E+04 -1.263536E+04 -1.213925E+04
       199  23  5.627811E+05 -5.896091E+02  8.673472E+03 -3.959870E+03 -8.265362E+03 -1.055458E+04
       199  24  5.637145E+05 -1.561149E+02  5.147212E+03 -2.320150E+04 -3.893826E+03 -8.870860E+03
       199  25  9.950426E+05  1.101169E+05  1.204464E+05 -2.361605E+04 -1.197855E+04 -1.213825E+04
       199  26  9.498770E+05  9.550787E+04  1.023967E+05 -3.930882E+03 -7.562998E+03 -1.055386E+04
       199  27  9.065794E+05  8.499001E+04  8.829726E+04 -2.272942E+04 -3.146222E+03 -8.870447E+03
       200   1  2.914592E+05 -6.718666E+04 -6.173801E+04 -2.299496E+04  3.784438E+03  7.881570E+03
       200   2  3.345702E+05 -5.686280E+04 -5.305542E+04 -4.177731E+03  2.623904E+03  6.229894E+03
       200   3  3.780249E+05 -4.604986E+04 -4.348114E+04 -2.303251E+04  1.462385E+03  4.580814E+03
       200   4  5.633897E+05  3.212788E+02  3.996466E+03 -2.302114E+04  3.070966E+03  7.881341E+03
       200   5  5.632204E+05 -7.853434E+01  2.326970E+03 -4.185576E+03  1.911074E+03  6.229845E+03
       200   6  5.633928E+05  1.060756E+01  1.548534E+03 -2.302115E+04  7.502779E+02  4.580949E+03
       200   7  8.353878E+05  6.782381E+04  6.972563E+04 -2.304733E+04  2.357182E+03  7.881112E+03
       200   8  7.919183E+05  5.670190E+04  5.770560E+04 -4.193421E+03  1.197983E+03  6.229795E+03
       200   9  7.487920E+05  4.606855E+04  4.657572E+04 -2.300980E+04  3.795912E+01  4.581085E+03
       200  10  2.914591E+05 -6.718673E+04 -6.173815E+04 -2.299499E+04  1.391247E-09  3.793134E-10
       200  11  3.345702E+05 -5.686284E+04 -5.305551E+04 -4.177744E+03 -2.394337E-09  7.916427E-11
       200  12  3.780249E+05 -4.604989E+04 -4.348118E+04 -2.303251E+04  5.736123E-10  8.505461E-10
       200  13  5.633897E+05  3.212095E+02  3.996331E+03 -2.302116E+04  8.570375E-10 -4.563128E-11
       200  14  5.632204E+05 -7.857701E+01  2.326890E+03 -4.185585E+03 -1.499671E-09 -2.680803E-10
       200  15  5.633927E+05  1.058487E+01  1.548493E+03 -2.302116E+04 -1.514579E-09  5.101335E-10
       200  16  8.353878E+05  6.782374E+04  6.972551E+04 -2.304735E+04 -8.547861E-11 -3.696238E-10
       200  17  7.919183E+05  5.670186E+04  5.770552E+04 -4.193427E+03 -2.304393E-10 -2.946084E-10
       200  18  7.487920E+05  4.606853E+04  4.657568E+04 -2.300980E+04  2.710896E-09  3.485039E-10
       200  19  2.914592E+05 -6.718666E+04 -6.173801E+04 -2.299496E+04 -3.784438E+03 -7.881570E+03
       200  20  3.345702E+05 -5.686280E+04 -5.305542E+04 -4.177731E+03 -2.623904E+03 -6.229894E+03
       200  21  3.780249E+05 -4.604986E+04 -4.348114E+04 -2.303251E+04 -1.462385E+03 -4.580814E+03
       200  22  5.633897E+05  3.212788E+02  3.996466E+03 -2.302114E+04 -3.070966E+03 -7.881341E+03
       200  23  5.632204E+05 -7.853434E+01  2.326970E+03 -4.185576E+03 -1.911074E+03 -6.229845E+03
       200  24  5.633928E+05  1.060756E+01  1.548534E+03 -2.302115E+04 -7.502779E+02 -4.580949E+03
       200  25  8.353878E+05  6.782381E+04  6.972563E+04 -2.304733E+04 -2.357182E+03 -7.881112E+03
       200  26  7.919183E+05  5.670190E+04  5.770560E+04 -4.193421E+03 -1.197983E+03 -6.229795E+03
       200  27  7.487920E+05  4.606855E+04  4.657572E+04 -2.300980E+04 -3.795912E+01 -4.581085E+03
       201   1  4.476909E+05 -2.865567E+04 -2.654382E+04 -2.289238E+04  1.199635E+03  3.622541E+03
       201   2  4.904719E+05 -1.810848E+04 -1.644450E+04 -4.278540E+03  6.020496E+02  1.983298E+03
       201   3  5.333564E+05 -7.349070E+03 -5.909736E+03 -2.293846E+04  4.150313E+00  3.535736E+02
       201   4  5.633456E+05  3.817577E+01  1.334818E+03 -2.293279E+04  4.889841E+02  3.622764E+03
       201   5  5.632951E+05 -2.482376E+01  1.192842E+03 -4.296026E+03 -1.045815E+02  1.983574E+03
       201   6  5.633464E+05  1.239721E+02  1.483758E+03 -2.293275E+04 -6.984206E+02  3.539081E+02
       201   7  6.790126E+05  2.873105E+04  2.921250E+04 -2.297320E+04 -2.217982E+02  3.622987E+03
       201   8  6.361232E+05  1.805845E+04  1.882981E+04 -4.313512E+03 -8.112951E+02  1.983849E+03
       201   9  5.933372E+05  7.596947E+03  8.877188E+03 -2.292704E+04 -1.401025E+03  3.542427E+02
       201  10  4.476909E+05 -2.865569E+04 -2.654385E+04 -2.289238E+04  1.388538E-09  3.588273E-10
       201  11  4.904719E+05 -1.810849E+04 -1.644451E+04 -4.278541E+03 -7.044792E-10 -8.130177E-10
       201  12  5.333564E+05 -7.349070E+03 -5.909736E+03 -2.293846E+04  4.682184E-10  3.420366E-10
       201  13  5.633456E+05  3.816161E+01  1.334793E+03 -2.293279E+04  1.934357E-09  8.354619E-10
       201  14  5.632951E+05 -2.482799E+01  1.192835E+03 -4.296025E+03 -1.229641E-09 -1.786875E-10
       201  15  5.633464E+05  1.239719E+02  1.483757E+03 -2.293275E+04 -1.131868E-10 -1.594364E-10
       201  16  6.790126E+05  2.873104E+04  2.921248E+04 -2.297320E+04 -8.127454E-10  4.742034E-10
       201  17  6.361232E+05  1.805844E+04  1.882980E+04 -4.313511E+03 -1.013502E-09 -3.851817E-11
       201  18  5.933372E+05  7.596946E+03  8.877184E+03 -2.292704E+04  3.671598E-10  3.142514E-10
       201  19  4.476909E+05 -2.865567E+04 -2.654382E+04 -2.289238E+04 -1.199635E+03 -3.622541E+03
       201  20  4.904719E+05 -1.810848E+04 -1.644450E+04 -4.278540E+03 -6.020496E+02 -1.983298E+03
       201  21  5.333564E+05 -7.349070E+03 -5.909736E+03 -2.293846E+04 -4.150313E+00 -3.535736E+02
       201  22  5.633456E+05  3.817577E+01  1.334818E+03 -2.293279E+04 -4.889841E+02 -3.622764E+03
       201  23  5.632951E+05 -2.482376E+01  1.192842E+03 -4.296026E+03  1.045815E+02 -1.983574E+03
       201  24  5.633464E+05  1.239721E+02  1.483758E+03 -2.293275E+04  6.984206E+02 -3.539081E+02
       201  25  6.790126E+05  2.873105E+04  2.921250E+04 -2.297320E+04  2.217982E+02 -3.622987E+03
       201  26  6.361232E+05  1.805845E+04  1.882981E+04 -4.313512E+03  8.112951E+02 -1.983849E+03
       201  27  5.933372E+05  7.596947E+03  8.877188E+03 -2.292704E+04  1.401025E+03 -3.542427E+02
       202   1  6.028044E+05  9.783240E+03  1.142428E+04 -2.282103E+04 -2.685064E+02 -6.078522E+02
       202   2  6.454194E+05  2.025237E+04  2.264110E+04 -4.348612E+03 -1.672485E+03 -2.244009E+03
       202   3  6.885094E+05  3.198410E+04  3.508111E+04 -2.315990E+04 -3.076239E+03 -3.812395E+03
       202   4  5.634276E+05 -2.024941E+01  1.757476E+03 -2.293523E+04 -9.907087E+02 -6.075109E+02
       202   5  5.631930E+05 -1.641572E+02  2.729687E+03 -4.293050E+03 -2.365250E+03 -2.243749E+03
       202   6  5.634260E+05  9.495089E+02  4.904769E+03 -2.293487E+04 -3.739469E+03 -3.812207E+03
       202   7  5.240521E+05 -9.823854E+03 -7.909437E+03 -2.304943E+04 -1.712865E+03 -6.071694E+02
       202   8  4.809727E+05 -2.058118E+04 -1.718221E+04 -4.237495E+03 -3.057923E+03 -2.243489E+03
       202   9  4.383569E+05 -3.008622E+04 -2.527269E+04 -2.270988E+04 -4.402567E+03 -3.812019E+03
       202  10  6.028044E+05  9.783240E+03  1.142428E+04 -2.282103E+04 -1.901492E-10  1.363978E-09
       202  11  6.454194E+05  2.025237E+04  2.264109E+04 -4.348615E+03 -1.937196E-10 -3.451746E-10
       202  12  6.885094E+05  3.198408E+04  3.508107E+04 -2.315991E+04 -3.996886E-10 -4.844113E-10
       202  13  5.634276E+05 -2.025007E+01  1.757474E+03 -2.293523E+04  2.120158E-10  4.705263E-10
       202  14  5.631929E+05 -1.641642E+02  2.729667E+03 -4.293054E+03 -1.837705E-10 -7.125130E-10
       202  15  5.634260E+05  9.494895E+02  4.904715E+03 -2.293488E+04  1.646642E-09 -6.529641E-10
       202  16  5.240521E+05 -9.823855E+03 -7.909443E+03 -2.304943E+04 -5.300400E-11  1.061474E-09
       202  17  4.809727E+05 -2.058119E+04 -1.718224E+04 -4.237500E+03  2.414154E-09 -7.809136E-10
       202  18  4.383569E+05 -3.008624E+04 -2.527275E+04 -2.270990E+04  1.937167E-10 -1.131896E-09
       202  19  6.028044E+05  9.783240E+03  1.142428E+04 -2.282103E+04  2.685064E+02  6.078522E+02
       202  20  6.454194E+05  2.025237E+04  2.264110E+04 -4.348612E+03  1.672485E+03  2.244009E+03
       202  21  6.885094E+05  3.198410E+04  3.508111E+04 -2.315990E+04  3.076239E+03  3.812395E+03
       202  22  5.634276E+05 -2.024941E+01  1.757476E+03 -2.293523E+04  9.907087E+02  6.075109E+02
       202  23  5.631930E+05 -1.641572E+02  2.729687E+03 -4.293050E+03  2.365250E+03  2.243749E+03
       202  24  5.634260E+05  9.495089E+02  4.904769E+03 -2.293487E+04  3.739469E+03  3.812207E+03
       202  25  5.240521E+05 -9.823854E+03 -7.909437E+03 -2.304943E+04  1.712865E+03  6.071694E+02
       202  26  4.809727E+05 -2.058118E+04 -1.718221E+04 -4.237495E+03  3.057923E+03  2.243489E+03
       202  27  4.383569E+05 -3.008622E+04 -2.527269E+04 -2.270988E+04  4.402567E+03  3.812019E+03
       203   1  7.589423E+05  4.802495E+04  5.350873E+04 -2.201672E+04 -3.839658E+03 -4.888139E+03
       203   2  8.005462E+05  5.772704E+04  6.792023E+04 -4.718518E+03 -9.477064E+03 -6.540741E+03
       203   3  8.456377E+05  7.813511E+04  8.869015E+04 -2.511014E+04 -1.511401E+04 -7.390372E+03
       203   4  5.640776E+05 -3.792561E+02  6.204145E+03 -2.302559E+04 -4.727384E+03 -4.887969E+03
       203   5  5.623610E+05 -1.405746E+03  1.025978E+04 -4.180281E+03 -1.001576E+04 -6.540851E+03
       203   6  5.640715E+05  8.215674E+03  2.043366E+04 -2.302558E+04 -1.530328E+04 -7.390648E+03
       203   7  3.692475E+05 -4.878625E+04 -4.110318E+04 -2.403415E+04 -5.614832E+03 -4.887797E+03
       203   8  3.242276E+05 -6.054269E+04 -4.740473E+04 -3.642249E+03 -1.055424E+04 -6.540962E+03
       203   9  2.825775E+05 -6.170956E+04 -4.782854E+04 -2.094197E+04 -1.549246E+04 -7.390925E+03
       203  10  7.589422E+05  4.802492E+04  5.350865E+04 -2.201673E+04  1.033865E-09 -4.902717E-10
       203  11  8.005461E+05  5.772697E+04  6.791998E+04 -4.718568E+03 -2.843326E-09  4.974913E-10
       203  12  8.456375E+05  7.813499E+04  8.868962E+04 -2.511023E+04  8.023360E-10 -3.337258E-10
       203  13  5.640775E+05 -3.792877E+02  6.204058E+03 -2.302561E+04 -4.611887E-14 -1.916572E-10
       203  14  5.623609E+05 -1.405819E+03  1.025952E+04 -4.180334E+03 -2.042043E-09  4.136901E-10
       203  15  5.640712E+05  8.215552E+03  2.043312E+04 -2.302567E+04 -8.150856E-11 -3.430817E-10
       203  16  3.692475E+05 -4.878628E+04 -4.110328E+04 -2.403417E+04  1.850977E-09 -5.171396E-10
       203  17  3.242275E+05 -6.054276E+04 -4.740502E+04 -3.642304E+03 -1.543202E-09  6.950342E-10
       203  18  2.825772E+05 -6.170968E+04 -4.782909E+04 -2.094206E+04  6.526231E-10 -2.497507E-10
       203  19  7.589423E+05  4.802495E+04  5.350873E+04 -2.201672E+04  3.839658E+03  4.888139E+03
       203  20  8.005462E+05  5.772704E+04  6.792023E+04 -4.718518E+03  9.477064E+03  6.540741E+03
       203  21  8.456377E+05  7.813511E+04  8.869015E+04 -2.511014E+04  1.511401E+04  7.390372E+03
       203  22  5.640776E+05 -3.792561E+02  6.204145E+03 -2.302559E+04  4.727384E+03  4.887969E+03
       203  23  5.623610E+05 -1.405746E+03  1.025978E+04 -4.180281E+03  1.001576E+04  6.540851E+03
       203  24  5.640715E+05  8.215674E+03  2.043366E+04 -2.302558E+04  1.530328E+04  7.390648E+03
       203  25  3.692475E+05 -4.878625E+04 -4.110318E+04 -2.403415E+04  5.614832E+03  4.887797E+03
       203  26  3.242276E+05 -6.054269E+04 -4.740473E+04 -3.642249E+03  1.055424E+04  6.540962E+03
       203  27  2.825775E+05 -6.170956E+04 -4.782854E+04 -2.094197E+04  1.549246E+04  7.390925E+03
       204   1  9.215899E+05  8.406771E+04  1.102800E+05 -1.446313E+04 -1.652203E+04 -9.713215E+03
       204   2  9.527276E+05  8.658110E+04  1.352271E+05 -9.385616E+03 -4.183534E+04 -1.143274E+04
       204   3  1.010406E+06  1.809948E+05  1.996681E+05 -4.269820E+04 -6.715562E+04 -3.958701E+03
       204   4  5.690495E+05 -3.450817E+03  2.495056E+04 -2.316755E+04 -1.924367E+04 -9.713796E+03
       204   5  5.561044E+05 -1.184202E+04  3.936919E+04 -3.996525E+03 -4.056877E+04 -1.143301E+04
       204   6  5.690249E+05  7.100656E+04  9.053234E+04 -2.321603E+04 -6.189894E+04 -3.957217E+03
       204   7  2.166227E+05 -9.097815E+04 -6.038779E+04 -3.186702E+04 -2.196377E+04 -9.714300E+03
       204   8  1.596248E+05 -1.102765E+05 -5.650000E+04  1.389101E+03 -3.930301E+04 -1.143325E+04
       204   9  1.278210E+05 -3.899476E+04 -1.861759E+04 -3.747728E+03 -5.664597E+04 -3.955403E+03
       204  10  9.215896E+05  8.406753E+04  1.102794E+05 -1.446326E+04  4.583089E-10 -5.176330E-10
       204  11  9.527257E+05  8.658049E+04  1.352236E+05 -9.386001E+03  4.544400E-10  1.202632E-10
       204  12  1.010402E+06  1.809936E+05  1.996596E+05 -4.269842E+04 -1.803505E-10  4.336883E-10
       204  13  5.690491E+05 -3.451018E+03  2.494968E+04 -2.316770E+04 -2.573133E-09 -6.949315E-10
       204  14  5.561026E+05 -1.184260E+04  3.936585E+04 -3.996898E+03  4.681058E-10  3.635098E-10
       204  15  5.690208E+05  7.100551E+04  9.052512E+04 -2.321623E+04  2.247159E-10 -5.800300E-11
       204  16  2.166222E+05 -9.097838E+04 -6.038888E+04 -3.186719E+04 -1.160585E-09 -5.150605E-10
       204  17  1.596231E+05 -1.102771E+05 -5.650315E+04  1.388739E+03 -2.725443E-09  3.001414E-10
       204  18  1.278176E+05 -3.899564E+04 -1.862365E+04 -3.747909E+03 -6.981402E-10  9.321690E-10
       204  19  9.215899E+05  8.406771E+04  1.102800E+05 -1.446313E+04  1.652203E+04  9.713215E+03
       204  20  9.527276E+05  8.658110E+04  1.352271E+05 -9.385616E+03  4.183534E+04  1.143274E+04
       204  21  1.010406E+06  1.809948E+05  1.996681E+05 -4.269820E+04  6.715562E+04  3.958701E+03
       204  22  5.690495E+05 -3.450817E+03  2.495056E+04 -2.316755E+04  1.924367E+04  9.713796E+03
       204  23  5.561044E+05 -1.184202E+04  3.936919E+04 -3.996525E+03  4.056877E+04  1.143301E+04
       204  24  5.690249E+05  7.100656E+04  9.053234E+04 -2.321603E+04  6.189894E+04  3.957217E+03
       204  25  2.166227E+05 -9.097815E+04 -6.038779E+04 -3.186702E+04  2.196377E+04  9.714300E+03
       204  26  1.596248E+05 -1.102765E+05 -5.650000E+04  1.389101E+03  3.930301E+04  1.143325E+04
       204  27  1.278210E+05 -3.899476E+04 -1.861759E+04 -3.747728E+03  5.664597E+04  3.955403E+03
       205   1  7.623088E+05  2.261169E+06  7.345525E+05 -8.301184E+05  2.773887E+04  2.360735E+05
       205   2  5.185438E+05  1.578034E+06  4.489047E+05 -7.379017E+05  8.656102E+04  8.665649E+04
       205   3  3.399206E+05  9.302914E+05  2.765289E+05 -7.706283E+05  8.219086E+04 -6.277883E+04
       205   4  8.857994E+04 -4.639419E+05  9.080322E+04 -7.664727E+05  2.855705E+04  5.889741E+04
       205   5  2.879305E+04 -4.702326E+05  4.858187E+04 -7.041739E+05  8.683518E+04  3.432844E+04
       205   6  1.265962E+04 -4.630667E+05  3.319460E+04 -7.668112E+05  8.183889E+04  9.573954E+03
       205   7 -5.856507E+05 -3.182165E+06 -5.533409E+05 -7.030959E+05  2.934120E+04 -1.175078E+05
       205   8 -4.612051E+05 -2.514473E+06 -3.519314E+05 -6.705530E+05  8.710424E+04 -1.783117E+04
       205   9 -3.147039E+05 -1.854513E+06 -2.101891E+05 -7.629997E+05  8.148731E+04  8.176940E+04
       205  10  7.622931E+05  2.261109E+06  7.344466E+05 -8.301237E+05 -5.672193E-10  2.832220E-10
       205  11  5.185337E+05  1.578024E+06  4.488765E+05 -7.379077E+05 -2.474442E-09 -5.144992E-09
       205  12  3.399123E+05  9.302854E+05  2.765089E+05 -7.706241E+05 -5.592533E-10 -3.259298E-09
       205  13  8.857812E+04 -4.639459E+05  9.079516E+04 -7.664740E+05  7.662414E-11  3.489842E-09
       205  14  2.878464E+04 -4.702359E+05  4.856547E+04 -7.041763E+05  1.927369E-09 -1.640713E-09
       205  15  1.265241E+04 -4.630686E+05  3.318184E+04 -7.668119E+05  1.585084E-10  1.457039E-09
       205  16 -5.856554E+05 -3.182180E+06 -5.533686E+05 -7.030931E+05 -1.208245E-11 -8.452723E-10
       205  17 -4.612133E+05 -2.514475E+06 -3.519463E+05 -6.705518E+05  3.702948E-09  5.384044E-10
       205  18 -3.147129E+05 -1.854522E+06 -2.102142E+05 -7.630050E+05 -1.058743E-09  1.459381E-09
       205  19  7.623088E+05  2.261169E+06  7.345525E+05 -8.301184E+05 -2.773887E+04 -2.360735E+05
       205  20  5.185438E+05  1.578034E+06  4.489047E+05 -7.379017E+05 -8.656102E+04 -8.665649E+04
       205  21  3.399206E+05  9.302914E+05  2.765289E+05 -7.706283E+05 -8.219086E+04  6.277883E+04
       205  22  8.857994E+04 -4.639419E+05  9.080322E+04 -7.664727E+05 -2.855705E+04 -5.889741E+04
       205  23  2.879305E+04 -4.702326E+05  4.858187E+04 -7.041739E+05 -8.683518E+04 -3.432844E+04
       205  24  1.265962E+04 -4.630667E+05  3.319460E+04 -7.668112E+05 -8.183889E+04 -9.573954E+03
       205  25 -5.856507E+05 -3.182165E+06 -5.533409E+05 -7.030959E+05 -2.934120E+04  1.175078E+05
       205  26 -4.612051E+05 -2.514473E+06 -3.519314E+05 -6.705530E+05 -8.710424E+04  1.783117E+04
       205  27 -3.147039E+05 -1.854513E+06 -2.101891E+05 -7.629997E+05 -8.148731E+04 -8.176940E+04
       206   1  2.393601E+05  5.027764E+05  1.978797E+05 -7.748649E+05  5.852497E+04 -6.576317E+04
       206   2  8.027798E+04 -1.642013E+05  7.985674E+04 -7.030549E+05  2.222637E+04 -8.476384E+04
       206   3 -6.784878E+04 -8.267131E+05 -2.340787E+04 -7.603355E+05 -1.550675E+04 -1.037586E+05
       206   4  1.225477E+04 -4.650829E+05  3.046131E+04 -7.677097E+05  5.816738E+04  4.473126E+03
       206   5  1.019756E+04 -4.667833E+05  3.208941E+04 -7.031510E+05  2.184795E+04 -1.172982E+04
       206   6  1.862938E+04 -4.649448E+05  4.652570E+04 -7.676797E+05 -1.590662E+04 -2.794582E+04
       206   7 -2.148982E+05 -1.432013E+06 -1.369709E+05 -7.605643E+05  5.781105E+04  7.460335E+04
       206   8 -5.988452E+04 -7.692625E+05 -1.566013E+04 -7.032470E+05  2.146939E+04  6.126990E+04
       206   9  1.051030E+05 -1.030382E+05  1.164748E+05 -7.750282E+05 -1.630814E+04  4.791021E+04
       206  10  2.393552E+05  5.027709E+05  1.978651E+05 -7.748618E+05 -3.814472E-10 -4.883763E-10
       206  11  8.027552E+04 -1.642092E+05  7.984232E+04 -7.030534E+05 -1.279659E-10 -4.995336E-09
       206  12 -6.785193E+04 -8.267248E+05 -2.342859E+04 -7.603368E+05  5.424258E-10 -9.021596E-10
       206  13  1.225113E+04 -4.650838E+05  3.045492E+04 -7.677099E+05  1.706095E-09  4.250954E-09
       206  14  1.019702E+04 -4.667835E+05  3.208826E+04 -7.031508E+05 -4.728301E-09 -2.563898E-09
       206  15  1.862890E+04 -4.649457E+05  4.652375E+04 -7.676801E+05 -2.287735E-10  3.089343E-09
       206  16 -2.149033E+05 -1.432019E+06 -1.369877E+05 -7.605678E+05 -1.076197E-09  2.843923E-10
       206  17 -5.988603E+04 -7.692667E+05 -1.566807E+04 -7.032480E+05 -1.811236E-09 -2.053598E-11
       206  18  1.051021E+05 -1.030407E+05  1.164700E+05 -7.750275E+05  1.755912E-09 -1.240230E-10
       206  19  2.393601E+05  5.027764E+05  1.978797E+05 -7.748649E+05 -5.852497E+04  6.576317E+04
       206  20  8.027798E+04 -1.642013E+05  7.985674E+04 -7.030549E+05 -2.222637E+04  8.476384E+04
       206  21 -6.784878E+04 -8.267131E+05 -2.340787E+04 -7.603355E+05  1.550675E+04  1.037586E+05
       206  22  1.225477E+04 -4.650829E+05  3.046131E+04 -7.677097E+05 -5.816738E+04 -4.473126E+03
       206  23  1.019756E+04 -4.667833E+05  3.208941E+04 -7.031510E+05 -2.184795E+04  1.172982E+04
       206  24  1.862938E+04 -4.649448E+05  4.652570E+04 -7.676797E+05  1.590662E+04  2.794582E+04
       206  25 -2.148982E+05 -1.432013E+06 -1.369709E+05 -7.605643E+05 -5.781105E+04 -7.460335E+04
       206  26 -5.988452E+04 -7.692625E+05 -1.566013E+04 -7.032470E+05 -2.146939E+04 -6.126990E+04
       206  27  1.051030E+05 -1.030382E+05  1.164748E+05 -7.750282E+05  1.630814E+04 -4.791021E+04
       207   1 -1.661356E+05 -1.245118E+06 -8.563752E+04 -7.674795E+05 -4.031329E+04 -1.133068E+05
       207   2 -2.884492E+05 -1.915426E+06 -1.878931E+05 -6.392759E+05 -5.497296E+04 -6.741623E+04
       207   3 -3.321916E+05 -2.572505E+06 -3.006755E+05 -6.370033E+05 -1.963878E+04 -2.140682E+04
       207   4  2.002957E+04 -4.592058E+05  5.859409E+04 -7.670281E+05 -4.071509E+04 -3.596801E+04
       207   5  5.886613E+04 -4.743889E+05  1.021258E+05 -7.037080E+05 -5.485249E+04 -8.831381E+04
       207   6  1.932379E+05 -4.597943E+05  2.033722E+05 -7.662328E+05 -1.905912E+04 -1.404948E+05
       207   7  2.061628E+05  3.273204E+05  2.028229E+05 -7.665750E+05 -4.111645E+04  4.146629E+04
       207   8  4.060677E+05  9.686418E+05  3.920419E+05 -7.682897E+05 -5.472786E+04 -1.092589E+05
       207   9  7.184114E+05  1.657087E+06  7.071675E+05 -8.958987E+05 -1.843095E+04 -2.599868E+05
       207  10 -1.661408E+05 -1.245133E+06 -8.566477E+04 -7.674831E+05  1.501872E-09  2.446567E-09
       207  11 -2.884537E+05 -1.915432E+06 -1.879073E+05 -6.392789E+05  1.679955E-09 -4.283383E-09
       207  12 -3.321921E+05 -2.572506E+06 -3.006771E+05 -6.370037E+05  1.767353E-10 -3.365867E-09
       207  13  2.002744E+04 -4.592076E+05  5.858853E+04 -7.670292E+05  3.402420E-09  3.964268E-09
       207  14  5.886079E+04 -4.743981E+05  1.021054E+05 -7.037119E+05 -3.400033E-09 -2.317925E-09
       207  15  1.932322E+05 -4.598156E+05  2.033344E+05 -7.662350E+05  7.689597E-10  1.898309E-09
       207  16  2.061606E+05  3.273181E+05  2.028166E+05 -7.665736E+05  9.370483E-10 -1.824854E-09
       207  17  4.060612E+05  9.686282E+05  3.920139E+05 -7.682945E+05  3.400136E-09 -2.730455E-10
       207  18  7.183930E+05  1.657014E+06  7.070402E+05 -8.959026E+05  2.199887E-09  2.425483E-09
       207  19 -1.661356E+05 -1.245118E+06 -8.563752E+04 -7.674795E+05  4.031329E+04  1.133068E+05
       207  20 -2.884492E+05 -1.915426E+06 -1.878931E+05 -6.392759E+05  5.497296E+04  6.741623E+04
       207  21 -3.321916E+05 -2.572505E+06 -3.006755E+05 -6.370033E+05  1.963878E+04  2.140682E+04
       207  22  2.002957E+04 -4.592058E+05  5.859409E+04 -7.670281E+05  4.071509E+04  3.596801E+04
       207  23  5.886613E+04 -4.743889E+05  1.021258E+05 -7.037080E+05  5.485249E+04  8.831381E+04
       207  24  1.932379E+05 -4.597943E+05  2.033722E+05 -7.662328E+05  1.905912E+04  1.404948E+05
       207  25  2.061628E+05  3.273204E+05  2.028229E+05 -7.665750E+05  4.111645E+04 -4.146629E+04
       207  26  4.060677E+05  9.686418E+05  3.920419E+05 -7.682897E+05  5.472786E+04  1.092589E+05
       207  27  7.184114E+05  1.657087E+06  7.071675E+05 -8.958987E+05  1.843095E+04  2.599868E+05
       208   1 -2.949662E+06 -1.122094E+06 -5.965163E+05 -1.070393E+06 -1.995074E+05 -3.245670E+04
       208   2 -2.754591E+06 -1.055272E+06 -4.480299E+05 -1.009659E+06 -1.304636E+05  9.486880E+04
       208   3 -2.544856E+06 -1.011801E+06 -3.746949E+05 -9.842811E+05 -3.749750E+04  1.591711E+05
       208   4 -3.892165E+05 -1.875168E+05  5.432867E+04 -3.965364E+05  2.097805E+04  5.087418E+04
       208   5 -4.108736E+05 -2.081584E+05  2.544818E+04 -3.709376E+05 -2.558728E+04  1.344073E+05
       208   6 -3.948967E+05 -2.291907E+05  1.337369E+04 -3.807019E+05 -4.831876E+04  1.550300E+05
       208   7  2.177658E+06  7.474022E+05  7.048325E+05  2.798105E+05  2.424572E+05  1.345545E+05
       208   8  1.938518E+06  6.393926E+05  4.986960E+05  2.700041E+05  7.971557E+04  1.741013E+05
       208   9  1.759980E+06  5.538846E+05  4.012924E+05  2.248457E+05 -5.918050E+04  1.508737E+05
       208  10 -2.949706E+06 -1.122105E+06 -5.965934E+05 -1.070398E+06  1.478447E-09 -7.873687E-11
       208  11 -2.754612E+06 -1.055286E+06 -4.480789E+05 -1.009649E+06 -3.978951E-09 -8.410518E-10
       208  12 -2.544865E+06 -1.011828E+06 -3.747452E+05 -9.842763E+05 -5.299434E-09  3.728999E-10
       208  13 -3.892177E+05 -1.875197E+05  5.432297E+04 -3.965373E+05  1.970189E-09  1.199566E-09
       208  14 -4.108792E+05 -2.081779E+05  2.541301E+04 -3.709349E+05  4.272616E-09 -4.596039E-09
       208  15 -3.949056E+05 -2.292171E+05  1.332415E+04 -3.806959E+05 -2.167726E-09  1.715417E-09
       208  16  2.177591E+06  7.473671E+05  7.046885E+05  2.797843E+05 -1.558716E-09 -2.045515E-09
       208  17  1.938503E+06  6.393584E+05  4.986272E+05  2.699930E+05 -5.547467E-10 -1.726867E-09
       208  18  1.759970E+06  5.538593E+05  4.012431E+05  2.248529E+05  2.406773E-09  1.401949E-09
       208  19 -2.949662E+06 -1.122094E+06 -5.965163E+05 -1.070393E+06  1.995074E+05  3.245670E+04
       208  20 -2.754591E+06 -1.055272E+06 -4.480299E+05 -1.009659E+06  1.304636E+05 -9.486880E+04
       208  21 -2.544856E+06 -1.011801E+06 -3.746949E+05 -9.842811E+05  3.749750E+04 -1.591711E+05
       208  22 -3.892165E+05 -1.875168E+05  5.432867E+04 -3.965364E+05 -2.097805E+04 -5.087418E+04
       208  23 -4.108736E+05 -2.081584E+05  2.544818E+04 -3.709376E+05  2.558728E+04 -1.344073E+05
       208  24 -3.948967E+05 -2.291907E+05  1.337369E+04 -3.807019E+05  4.831876E+04 -1.550300E+05
       208  25  2.177658E+06  7.474022E+05  7.048325E+05  2.798105E+05 -2.424572E+05 -1.345545E+05
       208  26  1.938518E+06  6.393926E+05  4.986960E+05  2.700041E+05 -7.971557E+04 -1.741013E+05
       208  27  1.759980E+06  5.538846E+05  4.012924E+05  2.248457E+05  5.918050E+04 -1.508737E+05
       209   1 -2.421300E+06 -9.633229E+05 -3.497691E+05 -9.481569E+05 -4.290438E+04  1.514876E+05
       209   2 -2.242861E+06 -8.786622E+05 -3.089658E+05 -8.780860E+05 -3.221079E+04  1.488936E+05
       209   3 -2.036268E+06 -8.235307E+05 -2.745005E+05 -8.412359E+05 -1.925413E+04  1.402555E+05
       209   4 -3.956557E+05 -2.298970E+05  9.998002E+03 -3.821720E+05 -4.796572E+04  1.495240E+05
       209   5 -4.108084E+05 -2.170901E+05  5.186274E+03 -3.651823E+05 -4.837044E+04  1.427617E+05
       209   6 -3.956481E+05 -2.316060E+05  2.850080E+03 -3.814200E+05 -4.651866E+04  1.299645E+05
       209   7  1.634333E+06  5.039259E+05  3.696315E+05  1.855417E+05 -5.304487E+04  1.475538E+05
       209   8  1.424808E+06  4.448123E+05  3.192423E+05  1.491393E+05 -6.458099E+04  1.366108E+05
       209   9  1.247828E+06  3.605837E+05  2.801280E+05  7.953303E+04 -7.385974E+04  1.196447E+05
       209  10 -2.421309E+06 -9.633481E+05 -3.498156E+05 -9.481516E+05  3.078237E-09  2.998686E-09
       209  11 -2.242868E+06 -8.786863E+05 -3.090094E+05 -8.780822E+05  5.959361E-10  8.744286E-10
       209  12 -2.036274E+06 -8.235520E+05 -2.745382E+05 -8.412337E+05  8.460256E-10 -6.002117E-11
       209  13 -3.956642E+05 -2.299216E+05  9.951677E+03 -3.821663E+05 -3.947331E-10 -4.685433E-10
       209  14 -4.108164E+05 -2.171126E+05  5.143589E+03 -3.651768E+05  6.168725E-10 -8.071617E-10
       209  15 -3.956549E+05 -2.316247E+05  2.814282E+03 -3.814152E+05 -4.047043E-10 -1.073245E-09
       209  16  1.634324E+06  5.039018E+05  3.695853E+05  1.855480E+05 -2.359862E-09  4.794908E-10
       209  17  1.424799E+06  4.447911E+05  3.191994E+05  1.491464E+05 -3.020650E-10 -1.187289E-09
       209  18  1.247818E+06  3.605669E+05  2.800909E+05  7.954014E+04 -8.098088E-10 -1.420854E-09
       209  19 -2.421300E+06 -9.633229E+05 -3.497691E+05 -9.481569E+05  4.290438E+04 -1.514876E+05
       209  20 -2.242861E+06 -8.786622E+05 -3.089658E+05 -8.780860E+05  3.221079E+04 -1.488936E+05
       209  21 -2.036268E+06 -8.235307E+05 -2.745005E+05 -8.412359E+05  1.925413E+04 -1.402555E+05
       209  22 -3.956557E+05 -2.298970E+05  9.998002E+03 -3.821720E+05  4.796572E+04 -1.495240E+05
       209  23 -4.108084E+05 -2.170901E+05  5.186274E+03 -3.651823E+05  4.837044E+04 -1.427617E+05
       209  24 -3.956481E+05 -2.316060E+05  2.850080E+03 -3.814200E+05  4.651866E+04 -1.299645E+05
       209  25  1.634333E+06  5.039259E+05  3.696315E+05  1.855417E+05  5.304487E+04 -1.475538E+05
       209  26  1.424808E+06  4.448123E+05  3.192423E+05  1.491393E+05  6.458099E+04 -1.366108E+05
       209  27  1.247828E+06  3.605837E+05  2.801280E+05  7.953303E+04  7.385974E+04 -1.196447E+05
       210   1 -1.912902E+06 -7.783739E+05 -2.530022E+05 -8.065813E+05 -1.686304E+04  1.311213E+05
       210   2 -1.735044E+06 -6.938266E+05 -2.209381E+05 -7.357778E+05 -1.074037E+04  1.164717E+05
       210   3 -1.527705E+06 -6.386732E+05 -1.892280E+05 -6.984182E+05 -4.412457E+03  1.012310E+05
       210   4 -3.956627E+05 -2.315664E+05  2.116934E+03 -3.816108E+05 -4.359857E+04  1.210401E+05
       210   5 -4.103659E+05 -2.167839E+05  1.112207E+03 -3.649144E+05 -3.856291E+04  1.059977E+05
       210   6 -3.954232E+05 -2.311827E+05  6.075654E+02 -3.816738E+05 -3.332248E+04  9.036478E+04
       210   7  1.124054E+06  3.154802E+05  2.571848E+05  4.434068E+04 -7.040404E+04  1.109326E+05
       210   8  9.161957E+05  2.604391E+05  2.231236E+05  6.695041E+03 -6.644884E+04  9.549982E+04
       210   9  7.382294E+05  1.764374E+05  1.904144E+05 -6.438633E+04 -6.228863E+04  7.947753E+04
       210  10 -1.912907E+06 -7.783924E+05 -2.530350E+05 -8.065795E+05  1.361117E-09 -4.266047E-10
       210  11 -1.735047E+06 -6.938412E+05 -2.209638E+05 -7.357768E+05 -8.252975E-10  1.132046E-09
       210  12 -1.527707E+06 -6.386842E+05 -1.892473E+05 -6.984179E+05 -1.830832E-09  3.233090E-09
       210  13 -3.956687E+05 -2.315826E+05  2.085840E+03 -3.816065E+05  7.470166E-10 -6.215175E-10
       210  14 -4.103705E+05 -2.167964E+05  1.088306E+03 -3.649111E+05  4.660703E-11 -1.751653E-11
       210  15 -3.954266E+05 -2.311918E+05  5.901386E+02 -3.816714E+05 -2.137015E-09  1.765935E-09
       210  16  1.124045E+06  3.154657E+05  2.571524E+05  4.434696E+04 -2.072698E-10 -9.910806E-10
       210  17  9.161886E+05  2.604281E+05  2.230982E+05  6.700149E+03  1.745127E-10 -1.409200E-09
       210  18  7.382236E+05  1.764296E+05  1.903953E+05 -6.438234E+04  9.304986E-11 -6.204714E-10
       210  19 -1.912902E+06 -7.783739E+05 -2.530022E+05 -8.065813E+05  1.686304E+04 -1.311213E+05
       210  20 -1.735044E+06 -6.938266E+05 -2.209381E+05 -7.357778E+05  1.074037E+04 -1.164717E+05
       210  21 -1.527705E+06 -6.386732E+05 -1.892280E+05 -6.984182E+05  4.412457E+03 -1.012310E+05
       210  22 -3.956627E+05 -2.315664E+05  2.116934E+03 -3.816108E+05  4.359857E+04 -1.210401E+05
       210  23 -4.103659E+05 -2.167839E+05  1.112207E+03 -3.649144E+05  3.856291E+04 -1.059977E+05
       210  24 -3.954232E+05 -2.311827E+05  6.075654E+02 -3.816738E+05  3.332248E+04 -9.036478E+04
       210  25  1.124054E+06  3.154802E+05  2.571848E+05  4.434068E+04  7.040404E+04 -1.109326E+05
       210  26  9.161957E+05  2.604391E+05  2.231236E+05  6.695041E+03  6.644884E+04 -9.549982E+04
       210  27  7.382294E+05  1.764374E+05  1.904144E+05 -6.438633E+04  6.228863E+04 -7.947753E+04
       211   1 -1.404101E+06 -5.938719E+05 -1.677332E+05 -6.638840E+05 -1.089852E+03  9.201494E+04
       211   2 -1.225751E+06 -5.095868E+05 -1.360892E+05 -5.930354E+05  4.852125E+03  7.629330E+04
       211   3 -1.017909E+06 -4.546641E+05 -1.044443E+05 -5.557696E+05  1.080625E+04  6.050990E+04
       211   4 -3.953910E+05 -2.311118E+05  4.278755E+02 -3.817208E+05 -2.996522E+04  8.116959E+04
       211   5 -4.100526E+05 -2.162902E+05  1.615474E+02 -3.649557E+05 -2.413851E+04  6.541484E+04
       211   6 -3.952419E+05 -2.308114E+05 -1.777224E+01 -3.817868E+05 -1.829963E+04  4.959828E+04
       211   7  6.143973E+05  1.317475E+05  1.685645E+05 -9.912950E+04 -5.889019E+04  7.030562E+04
       211   8  4.063583E+05  7.707387E+04  1.363993E+05 -1.365942E+05 -5.316964E+04  5.452119E+04
       211   9  2.278478E+05 -6.916737E+03  1.044044E+05 -2.076380E+05 -4.743685E+04  3.867491E+04
       211  10 -1.404103E+06 -5.938810E+05 -1.677491E+05 -6.638839E+05  5.464419E-08  2.500209E-08
       211  11 -1.225753E+06 -5.095930E+05 -1.361002E+05 -5.930357E+05  1.065962E-08  6.518193E-09
       211  12 -1.017911E+06 -4.546680E+05 -1.044514E+05 -5.557701E+05 -4.850035E-08 -1.663605E-08
       211  13 -3.953937E+05 -2.311191E+05  4.138111E+02 -3.817188E+05  1.681927E-09  3.707173E-09
       211  14 -4.100543E+05 -2.162950E+05  1.524139E+02 -3.649544E+05  8.543023E-09  5.831499E-09
       211  15 -3.952429E+05 -2.308141E+05 -2.302282E+01 -3.817861E+05  2.649081E-09  2.614307E-09
       211  16  6.143922E+05  1.317412E+05  1.685487E+05 -9.912617E+04 -4.885902E-08 -1.770977E-08
       211  17  4.063545E+05  7.706992E+04  1.363885E+05 -1.365918E+05  1.021085E-08  5.321175E-09
       211  18  2.278450E+05 -6.918946E+03  1.043974E+05 -2.076366E+05  5.614507E-08  2.182262E-08
       211  19 -1.404101E+06 -5.938719E+05 -1.677332E+05 -6.638840E+05  1.089852E+03 -9.201494E+04
       211  20 -1.225751E+06 -5.095868E+05 -1.360892E+05 -5.930354E+05 -4.852125E+03 -7.629330E+04
       211  21 -1.017909E+06 -4.546641E+05 -1.044443E+05 -5.557696E+05 -1.080625E+04 -6.050990E+04
       211  22 -3.953910E+05 -2.311118E+05  4.278755E+02 -3.817208E+05  2.996522E+04 -8.116959E+04
       211  23 -4.100526E+05 -2.162902E+05  1.615474E+02 -3.649557E+05  2.413851E+04 -6.541484E+04
       211  24 -3.952419E+05 -2.308114E+05 -1.777224E+01 -3.817868E+05  1.829963E+04 -4.959828E+04
       211  25  6.143973E+05  1.317475E+05  1.685645E+05 -9.912950E+04  5.889019E+04 -7.030562E+04
       211  26  4.063583E+05  7.707387E+04  1.363993E+05 -1.365942E+05  5.316964E+04 -5.452119E+04
       211  27  2.278478E+05 -6.916737E+03  1.044044E+05 -2.076380E+05  4.743685E+04 -3.867491E+04
       212   1 -8.940570E+05 -4.099458E+05 -8.289853E+04 -5.212515E+05  1.427770E+04  5.130425E+04
       212   2 -7.153659E+05 -3.257983E+05 -5.130360E+04 -4.503928E+05  2.034437E+04  3.554710E+04
       212   3 -5.072491E+05 -2.710209E+05 -1.980342E+04 -4.131846E+05  2.639839E+04  1.981214E+04
       212   4 -3.952257E+05 -2.307706E+05 -1.158498E+02 -3.818072E+05 -1.483694E+04  4.039343E+04
       212   5 -4.098842E+05 -2.160163E+05 -3.574050E+02 -3.649897E+05 -8.732726E+03  2.465416E+04
       212   6 -3.951664E+05 -2.306430E+05 -7.272454E+02 -3.818370E+05 -2.641218E+03  8.937088E+03
       212   7  1.038732E+05 -5.156968E+04  8.266442E+04 -2.422573E+05 -4.397641E+04  2.947329E+04
       212   8 -1.043028E+05 -1.062248E+05  5.058963E+04 -2.795471E+05 -3.782486E+04  1.375558E+04
       212   9 -2.830696E+05 -1.902637E+05  1.835186E+04 -3.504839E+05 -3.168609E+04 -1.939947E+03
       212  10 -8.940579E+05 -4.099487E+05 -8.290387E+04 -5.212521E+05 -3.759026E-09 -9.567989E-10
       212  11 -7.153667E+05 -3.257998E+05 -5.130676E+04 -4.503934E+05  6.988230E-09  1.067970E-09
       212  12 -5.072500E+05 -2.710215E+05 -1.980547E+04 -4.131850E+05  7.079586E-09  2.096847E-10
       212  13 -3.952263E+05 -2.307724E+05 -1.193287E+02 -3.818067E+05  3.890948E-09  1.307569E-09
       212  14 -4.098845E+05 -2.160170E+05 -3.586902E+02 -3.649895E+05  8.658837E-09  2.385736E-09
       212  15 -3.951664E+05 -2.306431E+05 -7.274086E+02 -3.818370E+05  1.864930E-09 -3.499866E-12
       212  16  1.038709E+05 -5.157113E+04  8.265916E+04 -2.422562E+05  9.755978E-09  3.698778E-09
       212  17 -1.043044E+05 -1.062254E+05  5.058659E+04 -2.795467E+05  9.783406E-09  3.094000E-09
       212  18 -2.830707E+05 -1.902640E+05  1.834996E+04 -3.504840E+05 -1.369170E-09 -5.219417E-10
       212  19 -8.940570E+05 -4.099458E+05 -8.289853E+04 -5.212515E+05 -1.427770E+04 -5.130425E+04
       212  20 -7.153659E+05 -3.257983E+05 -5.130360E+04 -4.503928E+05 -2.034437E+04 -3.554710E+04
       212  21 -5.072491E+05 -2.710209E+05 -1.980342E+04 -4.131846E+05 -2.639839E+04 -1.981214E+04
       212  22 -3.952257E+05 -2.307706E+05 -1.158498E+02 -3.818072E+05  1.483694E+04 -4.039343E+04
       212  23 -4.098842E+05 -2.160163E+05 -3.574050E+02 -3.649897E+05  8.732726E+03 -2.465416E+04
       212  24 -3.951664E+05 -2.306430E+05 -7.272454E+02 -3.818370E+05  2.641218E+03 -8.937088E+03
       212  25  1.038732E+05 -5.156968E+04  8.266442E+04 -2.422573E+05  4.397641E+04 -2.947329E+04
       212  26 -1.043028E+05 -1.062248E+05  5.058963E+04 -2.795471E+05  3.782486E+04 -1.375558E+04
       212  27 -2.830696E+05 -1.902637E+05  1.835186E+04 -3.504839E+05  3.168609E+04  1.939947E+03
       213   1 -3.832524E+05 -2.263419E+05  1.608203E+03 -3.786680E+05  3.001825E+04  1.068021E+04
       213   2 -2.044461E+05 -1.422591E+05  3.282213E+04 -3.077687E+05  3.619770E+04 -4.818979E+03
       213   3  3.728510E+03 -8.756193E+04  6.379285E+04 -2.705049E+05  4.225605E+04 -1.998833E+04
       213   4 -3.951966E+05 -2.306306E+05 -9.956619E+02 -3.818492E+05  9.453536E+02 -2.069422E+02
       213   5 -4.098259E+05 -2.159693E+05 -1.856705E+03 -3.649929E+05  7.726300E+03 -1.548343E+04
       213   6 -3.952509E+05 -2.308201E+05 -3.441763E+03 -3.817904E+05  1.438602E+04 -3.043002E+04
       213   7 -4.071388E+05 -2.349187E+05 -3.595946E+03 -3.850298E+05 -2.812725E+04 -1.109400E+04
       213   8 -6.151601E+05 -2.896751E+05 -3.653350E+04 -4.221993E+05 -2.073525E+04 -2.614420E+04
       213   9 -7.940592E+05 -3.740621E+05 -7.067724E+04 -4.930085E+05 -1.346500E+04 -4.086460E+04
       213  10 -3.832534E+05 -2.263423E+05  1.606294E+03 -3.786682E+05 -8.526997E-10 -2.321615E-09
       213  11 -2.044476E+05 -1.422594E+05  3.281963E+04 -3.077685E+05 -1.410907E-09 -1.677698E-09
       213  12  3.726486E+03 -8.756283E+04  6.378874E+04 -2.705042E+05 -1.884660E-09 -5.351790E-10
       213  13 -3.951966E+05 -2.306306E+05 -9.956636E+02 -3.818492E+05  1.222178E-09 -1.336200E-09
       213  14 -4.098260E+05 -2.159695E+05 -1.857267E+03 -3.649928E+05  5.845598E-10 -8.552605E-10
       213  15 -3.952513E+05 -2.308212E+05 -3.443891E+03 -3.817900E+05 -4.498959E-10 -9.881589E-11
       213  16 -4.071397E+05 -2.349190E+05 -3.597666E+03 -3.850301E+05  1.233831E-09  5.628150E-10
       213  17 -6.151608E+05 -2.896760E+05 -3.653560E+04 -4.221998E+05  2.158914E-09  1.080312E-10
       213  18 -7.940598E+05 -3.740639E+05 -7.068072E+04 -4.930090E+05  2.319119E-09  1.070101E-09
       213  19 -3.832524E+05 -2.263419E+05  1.608203E+03 -3.786680E+05 -3.001825E+04 -1.068021E+04
       213  20 -2.044461E+05 -1.422591E+05  3.282213E+04 -3.077687E+05 -3.619770E+04  4.818979E+03
       213  21  3.728510E+03 -8.756193E+04  6.379285E+04 -2.705049E+05 -4.225605E+04  1.998833E+04
       213  22 -3.951966E+05 -2.306306E+05 -9.956619E+02 -3.818492E+05 -9.453536E+02  2.069422E+02
       213  23 -4.098259E+05 -2.159693E+05 -1.856705E+03 -3.649929E+05 -7.726300E+03  1.548343E+04
       213  24 -3.952509E+05 -2.308201E+05 -3.441763E+03 -3.817904E+05 -1.438602E+04  3.043002E+04
       213  25 -4.071388E+05 -2.349187E+05 -3.595946E+03 -3.850298E+05  2.812725E+04  1.109400E+04
       213  26 -6.151601E+05 -2.896751E+05 -3.653350E+04 -4.221993E+05  2.073525E+04  2.614420E+04
       213  27 -7.940592E+05 -3.740621E+05 -7.067724E+04 -4.930085E+05  1.346500E+04  4.086460E+04
       214   1  1.278926E+05 -4.296559E+04  8.463861E+04 -2.361926E+05  4.656763E+04 -2.861769E+04
       214   2  3.057775E+05  4.148720E+04  1.154485E+05 -1.642294E+05  4.961056E+04 -4.295588E+04
       214   3  5.127389E+05  9.555986E+04  1.474496E+05 -1.252101E+05  5.136959E+04 -5.385531E+04
       214   4 -3.955231E+05 -2.308062E+05 -4.600886E+03 -3.818304E+05  1.838302E+04 -3.918042E+04
       214   5 -4.097383E+05 -2.169458E+05 -8.491217E+03 -3.646357E+05  2.775567E+04 -5.115449E+04
       214   6 -3.961690E+05 -2.347266E+05 -1.620719E+04 -3.804027E+05  3.584424E+04 -5.968733E+04
       214   7 -9.186404E+05 -4.186173E+05 -9.384297E+04 -5.273514E+05 -9.776036E+03 -4.973363E+04
       214   8 -1.124710E+06 -4.753278E+05 -1.324440E+05 -5.648256E+05  5.927562E+03 -5.934301E+04
       214   9 -1.304216E+06 -5.649359E+05 -1.798941E+05 -6.352488E+05  2.034293E+04 -6.551022E+04
       214  10  1.278900E+05 -4.296705E+04  8.463300E+04 -2.361915E+05  1.767844E-10  5.667580E-10
       214  11  3.057743E+05  4.148456E+04  1.154404E+05 -1.642277E+05 -4.889414E-10 -1.930738E-10
       214  12  5.127353E+05  9.555603E+04  1.474392E+05 -1.252078E+05 -2.636110E-09  4.622776E-10
       214  13 -3.955239E+05 -2.308079E+05 -4.604404E+03 -3.818298E+05 -1.886649E-10  4.257017E-10
       214  14 -4.097398E+05 -2.169488E+05 -8.497579E+03 -3.646345E+05 -2.325953E-11 -1.011819E-10
       214  15 -3.961713E+05 -2.347308E+05 -1.621630E+04 -3.804010E+05  9.791807E-10  2.513685E-10
       214  16 -9.186412E+05 -4.186200E+05 -9.384781E+04 -5.273518E+05 -2.473822E-09  2.862291E-10
       214  17 -1.124711E+06 -4.753316E+05 -1.324507E+05 -5.648253E+05 -6.995294E-10  3.160304E-10
       214  18 -1.304218E+06 -5.649406E+05 -1.799029E+05 -6.352477E+05  2.172213E-10  2.602230E-10
       214  19  1.278926E+05 -4.296559E+04  8.463861E+04 -2.361926E+05 -4.656763E+04  2.861769E+04
       214  20  3.057775E+05  4.148720E+04  1.154485E+05 -1.642294E+05 -4.961056E+04  4.295588E+04
       214  21  5.127389E+05  9.555986E+04  1.474496E+05 -1.252101E+05 -5.136959E+04  5.385531E+04
       214  22 -3.955231E+05 -2.308062E+05 -4.600886E+03 -3.818304E+05 -1.838302E+04  3.918042E+04
       214  23 -4.097383E+05 -2.169458E+05 -8.491217E+03 -3.646357E+05 -2.775567E+04  5.115449E+04
       214  24 -3.961690E+05 -2.347266E+05 -1.620719E+04 -3.804027E+05 -3.584424E+04  5.968733E+04
       214  25 -9.186404E+05 -4.186173E+05 -9.384297E+04 -5.273514E+05  9.776036E+03  4.973363E+04
       214  26 -1.124710E+06 -4.753278E+05 -1.324440E+05 -5.648256E+05 -5.927562E+03  5.934301E+04
       214  27 -1.304216E+06 -5.649359E+05 -1.798941E+05 -6.352488E+05 -2.034293E+04  6.551022E+04
       215   1  6.390564E+05  1.385385E+05  1.674979E+05 -9.436758E+04  5.966611E+04 -5.849477E+04
       215   2  7.996722E+05  2.293703E+05  2.101396E+05  1.280295E+02  1.207759E+04 -6.750243E+04
       215   3  9.832423E+05  2.661230E+05  2.783848E+05  7.309943E+04 -4.902943E+04 -4.062023E+04
       215   4 -3.990836E+05 -2.346226E+05 -2.163567E+04 -3.808969E+05  4.082576E+04 -6.557444E+04
       215   5 -4.088221E+05 -2.346940E+05 -4.139666E+04 -3.575235E+05  5.945522E+04 -4.973319E+04
       215   6 -4.087756E+05 -3.020108E+05 -8.802051E+04 -3.556932E+05  6.456691E+04  2.042885E+03
       215   7 -1.436099E+06 -6.076888E+05 -2.108084E+05 -6.669834E+05  2.201888E+04 -7.264176E+04
       215   8 -1.615786E+06 -6.985834E+05 -2.929945E+05 -7.145099E+05  1.067329E+05 -3.200575E+04
       215   9 -1.798811E+06 -8.698852E+05 -4.545201E+05 -7.835544E+05  1.778801E+05  4.457806E+04
       215  10  6.390516E+05  1.385338E+05  1.674848E+05 -9.436477E+04 -2.255007E-09  8.521986E-10
       215  11  7.996708E+05  2.293654E+05  2.101308E+05  1.286857E+02  1.785584E-09  1.601142E-10
       215  12  9.832393E+05  2.661206E+05  2.783772E+05  7.309783E+04  3.684194E-09  5.157926E-10
       215  13 -3.990866E+05 -2.346277E+05 -2.164687E+04 -3.808947E+05 -8.193131E-10  4.890721E-10
       215  14 -4.088265E+05 -2.346976E+05 -4.140794E+04 -3.575211E+05  2.115696E-09  6.546786E-10
       215  15 -4.087801E+05 -3.020120E+05 -8.802835E+04 -3.556933E+05  6.273290E-10  2.187033E-10
       215  16 -1.436101E+06 -6.076946E+05 -2.108192E+05 -6.669821E+05  1.579995E-09  5.906741E-10
       215  17 -1.615799E+06 -6.985876E+05 -2.930179E+05 -7.145071E+05  2.089488E-09  4.290881E-10
       215  18 -1.798846E+06 -8.698958E+05 -4.545835E+05 -7.835609E+05 -6.207300E-10 -3.168007E-10
       215  19  6.390564E+05  1.385385E+05  1.674979E+05 -9.436758E+04 -5.966611E+04  5.849477E+04
       215  20  7.996722E+05  2.293703E+05  2.101396E+05  1.280295E+02 -1.207759E+04  6.750243E+04
       215  21  9.832423E+05  2.661230E+05  2.783848E+05  7.309943E+04  4.902943E+04  4.062023E+04
       215  22 -3.990836E+05 -2.346226E+05 -2.163567E+04 -3.808969E+05 -4.082576E+04  6.557444E+04
       215  23 -4.088221E+05 -2.346940E+05 -4.139666E+04 -3.575235E+05 -5.945522E+04  4.973319E+04
       215  24 -4.087756E+05 -3.020108E+05 -8.802051E+04 -3.556932E+05 -6.456691E+04 -2.042885E+03
       215  25 -1.436099E+06 -6.076888E+05 -2.108084E+05 -6.669834E+05 -2.201888E+04  7.264176E+04
       215  26 -1.615786E+06 -6.985834E+05 -2.929945E+05 -7.145099E+05 -1.067329E+05  3.200575E+04
       215  27 -1.798811E+06 -8.698852E+05 -4.545201E+05 -7.835544E+05 -1.778801E+05 -4.457806E+04
       216   1 -4.926699E+05 -1.790678E+05 -1.553804E+05 -1.044773E+05 -2.173205E+04  1.418014E+04
       216   2 -3.598169E+05 -2.042311E+05 -1.282122E+05 -1.275532E+05  3.717500E+03  4.722939E+04
       216   3 -2.209448E+05 -1.925632E+05 -1.084062E+05 -1.723866E+05  2.919552E+04  5.588362E+04
       216   4  6.546469E+05  1.035509E+05  1.110036E+05 -1.736126E+05  7.816683E+04  1.423305E+04
       216   5  6.470440E+05  3.383140E+04  5.556810E+04 -1.627197E+05  4.976769E+04  4.724063E+04
       216   6  6.547665E+05  1.025140E+04  3.014646E+04 -1.735779E+05  2.139204E+04  5.587421E+04
       216   7  1.803211E+06  3.861002E+05  3.773394E+05 -2.428766E+05  1.782490E+05  1.426368E+04
       216   8  1.654897E+06  2.718425E+05  2.393161E+05 -1.979447E+05  9.589052E+04  4.724666E+04
       216   9  1.531241E+06  2.130280E+05  1.686801E+05 -1.747709E+05  1.357794E+04  5.586484E+04
       216  10 -4.926704E+05 -1.790681E+05 -1.553817E+05 -1.044770E+05  1.712787E-09  2.426240E-10
       216  11 -3.598175E+05 -2.042335E+05 -1.282164E+05 -1.275533E+05 -1.540391E-10  1.029892E-09
       216  12 -2.209466E+05 -1.925668E+05 -1.084137E+05 -1.723879E+05 -3.578650E-09  1.446626E-09
       216  13  6.546402E+05  1.035490E+05  1.109918E+05 -1.736135E+05 -8.733395E-10  6.550167E-10
       216  14  6.470408E+05  3.382834E+04  5.555925E+04 -1.627216E+05 -3.032153E-10  5.811436E-10
       216  15  6.547651E+05  1.024792E+04  3.013973E+04 -1.735788E+05  1.646843E-09  9.632101E-10
       216  16  1.803177E+06  3.860915E+05  3.772794E+05 -2.428787E+05 -3.497662E-10  4.921336E-10
       216  17  1.654887E+06  2.718376E+05  2.392947E+05 -1.979484E+05  2.753123E-09  4.273898E-10
       216  18  1.531240E+06  2.130246E+05  1.686739E+05 -1.747715E+05  3.977143E-09  1.701209E-09
       216  19 -4.926699E+05 -1.790678E+05 -1.553804E+05 -1.044773E+05  2.173205E+04 -1.418014E+04
       216  20 -3.598169E+05 -2.042311E+05 -1.282122E+05 -1.275532E+05 -3.717500E+03 -4.722939E+04
       216  21 -2.209448E+05 -1.925632E+05 -1.084062E+05 -1.723866E+05 -2.919552E+04 -5.588362E+04
       216  22  6.546469E+05  1.035509E+05  1.110036E+05 -1.736126E+05 -7.816683E+04 -1.423305E+04
       216  23  6.470440E+05  3.383140E+04  5.556810E+04 -1.627197E+05 -4.976769E+04 -4.724063E+04
       216  24  6.547665E+05  1.025140E+04  3.014646E+04 -1.735779E+05 -2.139204E+04 -5.587421E+04
       216  25  1.803211E+06  3.861002E+05  3.773394E+05 -2.428766E+05 -1.782490E+05 -1.426368E+04
       216  26  1.654897E+06  2.718425E+05  2.393161E+05 -1.979447E+05 -9.589052E+04 -4.724666E+04
       216  27  1.531241E+06  2.130280E+05  1.686801E+05 -1.747709E+05 -1.357794E+04 -5.586484E+04
       217   1 -1.378955E+05 -1.743894E+05 -9.886740E+04 -1.697378E+05  2.598797E+04  5.282343E+04
       217   2 -2.703824E+03 -1.475653E+05 -8.290111E+04 -1.603477E+05  2.656514E+04  4.744640E+04
       217   3  1.331878E+05 -1.179324E+05 -6.659321E+04 -1.744283E+05  2.714090E+04  3.903762E+04
       217   4  6.517950E+05  7.792545E+03  2.257106E+04 -1.739651E+05  1.748019E+04  5.281531E+04
       217   5  6.509059E+05  2.139157E+03  1.224052E+04 -1.622306E+05  1.135674E+04  4.743997E+04
       217   6  6.518587E+05  4.557448E+02  6.899235E+03 -1.739646E+05  5.231792E+03  3.903456E+04
       217   7  1.442109E+06  1.899444E+05  1.439959E+05 -1.781980E+05  8.962002E+03  5.280731E+04
       217   8  1.304947E+06  1.518241E+05  1.073759E+05 -1.641155E+05 -3.867006E+03  4.743364E+04
       217   9  1.170803E+06  1.188321E+05  8.038971E+04 -1.735005E+05 -1.669483E+04  3.903148E+04
       217  10 -1.378970E+05 -1.743926E+05 -9.887391E+04 -1.697389E+05 -2.093958E-09  1.728588E-09
       217  11 -2.705187E+03 -1.475680E+05 -8.290667E+04 -1.603487E+05 -3.436278E-09  1.497990E-09
       217  12  1.331866E+05 -1.179343E+05 -6.659746E+04 -1.744292E+05 -4.351811E-09  1.036951E-09
       217  13  6.517940E+05  7.789467E+03  2.256524E+04 -1.739659E+05 -8.861851E-10  2.156837E-09
       217  14  6.509052E+05  2.136705E+03  1.223605E+04 -1.622310E+05 -7.351984E-10  1.892261E-09
       217  15  6.518583E+05  4.541007E+02  6.896320E+03 -1.739648E+05 -2.152724E-09  1.897218E-09
       217  16  1.442108E+06  1.899414E+05  1.439905E+05 -1.781984E+05 -1.533699E-09  1.694183E-09
       217  17  1.304946E+06  1.518217E+05  1.073716E+05 -1.641154E+05  2.746400E-09  1.904006E-09
       217  18  1.170802E+06  1.188304E+05  8.038632E+04 -1.735000E+05  4.258063E-09  2.996464E-09
       217  19 -1.378955E+05 -1.743894E+05 -9.886740E+04 -1.697378E+05 -2.598797E+04 -5.282343E+04
       217  20 -2.703824E+03 -1.475653E+05 -8.290111E+04 -1.603477E+05 -2.656514E+04 -4.744640E+04
       217  21  1.331878E+05 -1.179324E+05 -6.659321E+04 -1.744283E+05 -2.714090E+04 -3.903762E+04
       217  22  6.517950E+05  7.792545E+03  2.257106E+04 -1.739651E+05 -1.748019E+04 -5.281531E+04
       217  23  6.509059E+05  2.139157E+03  1.224052E+04 -1.622306E+05 -1.135674E+04 -4.743997E+04
       217  24  6.518587E+05  4.557448E+02  6.899235E+03 -1.739646E+05 -5.231792E+03 -3.903456E+04
       217  25  1.442109E+06  1.899444E+05  1.439959E+05 -1.781980E+05 -8.962002E+03 -5.280731E+04
       217  26  1.304947E+06  1.518241E+05  1.073759E+05 -1.641155E+05  3.867006E+03 -4.743364E+04
       217  27  1.170803E+06  1.188321E+05  8.038971E+04 -1.735005E+05  1.669483E+04 -3.903148E+04
       218   1  2.174265E+05 -9.861133E+04 -5.562023E+04 -1.740923E+05  2.619846E+04  3.313904E+04
       218   2  3.528064E+05 -6.801613E+04 -3.861199E+04 -1.622999E+05  2.557371E+04  2.299190E+04
       218   3  4.883498E+05 -3.724920E+04 -2.114751E+04 -1.741797E+05  2.494722E+04  1.246964E+04
       218   4  6.515291E+05  3.338538E+02  5.211849E+03 -1.740100E+05  4.203550E+03  3.313776E+04
       218   5  6.513980E+05 -2.138157E+01  2.938372E+03 -1.621743E+05  2.747091E+03  2.299262E+04
       218   6  6.515574E+05 -5.983636E+01  1.696928E+03 -1.740101E+05  1.289034E+03  1.247243E+04
       218   7  1.085824E+06  9.927091E+04  6.604330E+04 -1.739276E+05 -1.780606E+04  3.313647E+04
       218   8  9.500810E+05  6.796970E+04  4.448959E+04 -1.620487E+05 -2.009001E+04  2.299334E+04
       218   9  8.147931E+05  3.712864E+04  2.454313E+04 -1.738405E+05 -2.237509E+04  1.247521E+04
       218  10  2.174255E+05 -9.861270E+04 -5.562358E+04 -1.740930E+05 -4.851697E-09  1.518749E-09
       218  11  3.528055E+05 -6.801688E+04 -3.861421E+04 -1.623004E+05 -2.827796E-09  2.410063E-09
       218  12  4.883491E+05 -3.724953E+04 -2.114897E+04 -1.741799E+05 -6.684163E-09  2.013545E-09
       218  13  6.515288E+05  3.326695E+02  5.209751E+03 -1.740101E+05  1.868145E-09  2.231234E-09
       218  14  6.513978E+05 -2.195148E+01  2.937364E+03 -1.621744E+05 -5.476106E-10  2.109821E-09
       218  15  6.515573E+05 -6.000391E+01  1.696632E+03 -1.740101E+05  1.200930E-09  1.521722E-09
       218  16  1.085823E+06  9.926964E+04  6.604065E+04 -1.739271E+05  4.448856E-09  2.967852E-09
       218  17  9.500805E+05  6.796903E+04  4.448784E+04 -1.620483E+05  5.523269E-09  1.601213E-09
       218  18  8.147925E+05  3.712834E+04  2.454190E+04 -1.738403E+05  6.402239E-09  1.060415E-09
       218  19  2.174265E+05 -9.861133E+04 -5.562023E+04 -1.740923E+05 -2.619846E+04 -3.313904E+04
       218  20  3.528064E+05 -6.801613E+04 -3.861199E+04 -1.622999E+05 -2.557371E+04 -2.299190E+04
       218  21  4.883498E+05 -3.724920E+04 -2.114751E+04 -1.741797E+05 -2.494722E+04 -1.246964E+04
       218  22  6.515291E+05  3.338538E+02  5.211849E+03 -1.740100E+05 -4.203550E+03 -3.313776E+04
       218  23  6.513980E+05 -2.138157E+01  2.938372E+03 -1.621743E+05 -2.747091E+03 -2.299262E+04
       218  24  6.515574E+05 -5.983636E+01  1.696928E+03 -1.740101E+05 -1.289034E+03 -1.247243E+04
       218  25  1.085824E+06  9.927091E+04  6.604330E+04 -1.739276E+05  1.780606E+04 -3.313647E+04
       218  26  9.500810E+05  6.796970E+04  4.448959E+04 -1.620487E+05  2.009001E+04 -2.299334E+04
       218  27  8.147931E+05  3.712864E+04  2.454313E+04 -1.738405E+05  2.237509E+04 -1.247521E+04
       219   1  5.726956E+05 -1.794829E+04 -9.442560E+03 -1.741305E+05  2.469059E+04  6.221856E+03
       219   2  7.081277E+05  1.279911E+04  8.445933E+03 -1.622449E+05  2.439836E+04 -4.509422E+03
       219   3  8.436328E+05  4.354646E+04  2.652913E+04 -1.740545E+05  2.410641E+04 -1.527979E+04
       219   4  6.515116E+05 -4.795785E+01  1.297632E+03 -1.740154E+05  1.021164E+03  6.225136E+03
       219   5  6.514754E+05 -5.726170E+01  7.709689E+02 -1.621678E+05  6.397894E+02 -4.506509E+03
       219   6  6.515065E+05 -5.136968E+01  4.986048E+02 -1.740155E+05  2.587638E+02 -1.527727E+04
       219   7  7.303351E+05  1.785241E+04  1.203986E+04 -1.739003E+05 -2.265113E+04  6.228407E+03
       219   8  5.948276E+05 -1.291347E+04 -6.901907E+03 -1.620907E+05 -2.311671E+04 -4.503601E+03
       219   9  4.594189E+05 -4.365049E+04 -2.553015E+04 -1.739765E+05 -2.358185E+04 -1.527476E+04
       219  10  5.726950E+05 -1.794850E+04 -9.443778E+03 -1.741306E+05 -2.148065E-08  2.425908E-09
       219  11  7.081271E+05  1.279893E+04  8.444777E+03 -1.622448E+05 -5.391577E-08  5.966998E-09
       219  12  8.436321E+05  4.354605E+04  2.652760E+04 -1.740542E+05 -8.361923E-08  1.050882E-08
       219  13  6.515116E+05 -4.799976E+01  1.297557E+03 -1.740154E+05 -1.085556E-09 -2.425915E-09
       219  14  6.514754E+05 -5.728363E+01  7.709299E+02 -1.621678E+05  1.498202E-09 -1.442212E-08
       219  15  6.515064E+05 -5.162039E+01  4.981659E+02 -1.740155E+05 -2.966702E-10 -2.509351E-08
       219  16  7.303345E+05  1.785223E+04  1.203883E+04 -1.739002E+05  2.114328E-08  1.602697E-09
       219  17  5.948271E+05 -1.291364E+04 -6.902949E+03 -1.620908E+05  5.576450E-08  4.616614E-09
       219  18  4.594183E+05 -4.365089E+04 -2.553163E+04 -1.739767E+05  8.383596E-08  9.210823E-09
       219  19  5.726956E+05 -1.794829E+04 -9.442560E+03 -1.741305E+05 -2.469059E+04 -6.221856E+03
       219  20  7.081277E+05  1.279911E+04  8.445933E+03 -1.622449E+05 -2.439836E+04  4.509422E+03
       219  21  8.436328E+05  4.354646E+04  2.652913E+04 -1.740545E+05 -2.410641E+04  1.527979E+04
       219  22  6.515116E+05 -4.795785E+01  1.297632E+03 -1.740154E+05 -1.021164E+03 -6.225136E+03
       219  23  6.514754E+05 -5.726170E+01  7.709689E+02 -1.621678E+05 -6.397894E+02  4.506509E+03
       219  24  6.515065E+05 -5.136968E+01  4.986048E+02 -1.740155E+05 -2.587638E+02  1.527727E+04
       219  25  7.303351E+05  1.785241E+04  1.203986E+04 -1.739003E+05  2.265113E+04 -6.228407E+03
       219  26  5.948276E+05 -1.291347E+04 -6.901907E+03 -1.620907E+05  2.311671E+04  4.503601E+03
       219  27  4.594189E+05 -4.365049E+04 -2.553015E+04 -1.739765E+05  2.358185E+04  1.527476E+04
       220   1  9.280298E+05  6.281206E+04  3.850167E+04 -1.740418E+05  2.402554E+04 -2.156304E+04
       220   2  1.063530E+06  9.352849E+04  5.681732E+04 -1.621416E+05  2.372235E+04 -3.232268E+04
       220   3  1.199122E+06  1.242639E+05  7.534304E+04 -1.739426E+05  2.342156E+04 -4.302488E+04
       220   4  6.514957E+05 -5.932751E+01  4.238078E+02 -1.740170E+05  1.747458E+02 -2.156147E+04
       220   5  6.514507E+05 -9.562830E+01  3.620730E+02 -1.621659E+05 -3.862969E+00 -3.232394E+04
       220   6  6.514576E+05 -1.342188E+02  4.225091E+02 -1.740170E+05 -1.800131E+02 -4.302897E+04
       220   7  3.750404E+05 -6.293377E+04 -3.765279E+04 -1.739922E+05 -2.366591E+04 -2.155990E+04
       220   8  2.395451E+05 -9.372685E+04 -5.609290E+04 -1.621902E+05 -2.371506E+04 -3.232519E+04
       220   9  1.040985E+05 -1.245451E+05 -7.449913E+04 -1.740913E+05 -2.376174E+04 -4.303305E+04
       220  10  9.280291E+05  6.281141E+04  3.849972E+04 -1.740414E+05  8.310470E-08  9.762151E-09
       220  11  1.063529E+06  9.352721E+04  5.681430E+04 -1.621410E+05  5.397245E-08  3.776082E-09
       220  12  1.199121E+06  1.242617E+05  7.533853E+04 -1.739418E+05  1.666323E-08  7.391514E-11
       220  13  6.514956E+05 -5.982689E+01  4.229338E+02 -1.740170E+05  4.080930E-10 -2.539671E-08
       220  14  6.514504E+05 -9.675061E+01  3.601089E+02 -1.621659E+05  3.162998E-09 -1.550575E-08
       220  15  6.514571E+05 -1.362076E+02  4.190286E+02 -1.740170E+05  1.478997E-09 -4.217184E-09
       220  16  3.750396E+05 -6.293441E+04 -3.765471E+04 -1.739926E+05 -8.436906E-08  9.294180E-09
       220  17  2.395442E+05 -9.372813E+04 -5.609592E+04 -1.621908E+05 -5.202494E-08  4.245068E-09
       220  18  1.040974E+05 -1.245472E+05 -7.450367E+04 -1.740921E+05 -1.660884E-08  1.366775E-10
       220  19  9.280298E+05  6.281206E+04  3.850167E+04 -1.740418E+05 -2.402554E+04  2.156304E+04
       220  20  1.063530E+06  9.352849E+04  5.681732E+04 -1.621416E+05 -2.372235E+04  3.232268E+04
       220  21  1.199122E+06  1.242639E+05  7.534304E+04 -1.739426E+05 -2.342156E+04  4.302488E+04
       220  22  6.514957E+05 -5.932751E+01  4.238078E+02 -1.740170E+05 -1.747458E+02  2.156147E+04
       220  23  6.514507E+05 -9.562830E+01  3.620730E+02 -1.621659E+05  3.862969E+00  3.232394E+04
       220  24  6.514576E+05 -1.342188E+02  4.225091E+02 -1.740170E+05  1.800131E+02  4.302897E+04
       220  25  3.750404E+05 -6.293377E+04 -3.765279E+04 -1.739922E+05  2.366591E+04  2.155990E+04
       220  26  2.395451E+05 -9.372685E+04 -5.609290E+04 -1.621902E+05  2.371506E+04  3.232519E+04
       220  27  1.040985E+05 -1.245451E+05 -7.449913E+04 -1.740913E+05  2.376174E+04  4.303305E+04
       221   1  1.283637E+06  1.435404E+05  8.756169E+04 -1.738946E+05  2.333231E+04 -4.925438E+04
       221   2  1.419154E+06  1.743438E+05  1.067213E+05 -1.619675E+05  2.180099E+04 -5.966034E+04
       221   3  1.555022E+06  2.054157E+05  1.269622E+05 -1.737252E+05  2.027353E+04 -6.954465E+04
       221   4  6.514574E+05 -1.641369E+02  4.997852E+02 -1.740135E+05 -2.611637E+02 -4.926084E+04
       221   5  6.513542E+05 -2.191016E+02  7.706807E+02 -1.621702E+05 -6.402425E+02 -5.967175E+04
       221   6  6.513863E+05 -2.041942E+02  1.323438E+03 -1.740135E+05 -1.015151E+03 -6.956070E+04
       221   7  1.968408E+04 -1.438859E+05 -8.656455E+04 -1.741322E+05 -2.383173E+04 -4.926729E+04
       221   8 -1.158469E+05 -1.748076E+05 -1.051849E+05 -1.623727E+05 -2.305501E+04 -5.968316E+04
       221   9 -2.514221E+05 -2.058600E+05 -1.243236E+05 -1.743013E+05 -2.227428E+04 -6.957675E+04
       221  10  1.283636E+06  1.435377E+05  8.755611E+04 -1.738937E+05 -5.972925E-08  7.346267E-11
       221  11  1.419152E+06  1.743399E+05  1.067138E+05 -1.619665E+05  3.478005E-09 -2.865186E-10
       221  12  1.555021E+06  2.054104E+05  1.269524E+05 -1.737240E+05  6.934509E-08 -7.538734E-11
       221  13  6.514568E+05 -1.667435E+02  4.952235E+02 -1.740135E+05 -1.088827E-09 -4.787770E-10
       221  14  6.513533E+05 -2.229265E+02  7.639866E+02 -1.621703E+05  8.312569E-10 -2.245641E-10
       221  15  6.513850E+05 -2.093920E+02  1.314340E+03 -1.740135E+05  2.218311E-09  4.038784E-10
       221  16  1.968282E+04 -1.438887E+05 -8.657018E+04 -1.741331E+05  6.218487E-08 -1.121727E-09
       221  17 -1.158485E+05 -1.748116E+05 -1.051926E+05 -1.623738E+05 -4.061425E-09 -5.282000E-10
       221  18 -2.514240E+05 -2.058653E+05 -1.243337E+05 -1.743026E+05 -7.131826E-08  1.524634E-09
       221  19  1.283637E+06  1.435404E+05  8.756169E+04 -1.738946E+05 -2.333231E+04  4.925438E+04
       221  20  1.419154E+06  1.743438E+05  1.067213E+05 -1.619675E+05 -2.180099E+04  5.966034E+04
       221  21  1.555022E+06  2.054157E+05  1.269622E+05 -1.737252E+05 -2.027353E+04  6.954465E+04
       221  22  6.514574E+05 -1.641369E+02  4.997852E+02 -1.740135E+05  2.611637E+02  4.926084E+04
       221  23  6.513542E+05 -2.191016E+02  7.706807E+02 -1.621702E+05  6.402425E+02  5.967175E+04
       221  24  6.513863E+05 -2.041942E+02  1.323438E+03 -1.740135E+05  1.015151E+03  6.956070E+04
       221  25  1.968408E+04 -1.438859E+05 -8.656455E+04 -1.741322E+05  2.383173E+04  4.926729E+04
       221  26 -1.158469E+05 -1.748076E+05 -1.051849E+05 -1.623727E+05  2.305501E+04  5.968316E+04
       221  27 -2.514221E+05 -2.058600E+05 -1.243236E+05 -1.743013E+05  2.227428E+04  6.957675E+04
       222   1  1.639973E+06  2.249347E+05  1.403041E+05 -1.734905E+05  1.990450E+04 -7.528663E+04
       222   2  1.774794E+06  2.568474E+05  1.646161E+05 -1.621993E+05  9.031646E+03 -8.274757E+04
       222   3  1.911828E+06  2.913676E+05  1.966793E+05 -1.743080E+05 -1.842790E+03 -8.598314E+04
       222   4  6.514540E+05 -2.147078E+02  1.740808E+03 -1.739502E+05 -1.271520E+03 -7.530614E+04
       222   5  6.511148E+05  1.211527E+02  3.053451E+03 -1.622494E+05 -2.790289E+03 -8.276857E+04
       222   6  6.513505E+05  1.445599E+03  5.634519E+03 -1.739509E+05 -4.308208E+03 -8.600165E+04
       222   7 -3.360763E+05 -2.254074E+05 -1.368336E+05 -1.744091E+05 -2.241537E+04 -7.532562E+04
       222   8 -4.712920E+05 -2.566625E+05 -1.585283E+05 -1.622993E+05 -1.459178E+04 -8.278959E+04
       222   9 -6.075389E+05 -2.885522E+05 -1.854432E+05 -1.735946E+05 -6.768823E+03 -8.602019E+04
       222  10  1.639971E+06  2.249285E+05  1.402927E+05 -1.734893E+05  5.712325E-09  6.043496E-10
       222  11  1.774792E+06  2.568400E+05  1.646031E+05 -1.621987E+05  5.541174E-09  2.257594E-09
       222  12  1.911826E+06  2.913596E+05  1.966653E+05 -1.743081E+05  3.187639E-09  1.663103E-09
       222  13  6.514525E+05 -2.207998E+02  1.730145E+03 -1.739503E+05 -2.600162E-11  1.236110E-09
       222  14  6.511130E+05  1.137919E+02  3.040559E+03 -1.622496E+05  5.288902E-10  1.824923E-09
       222  15  6.513485E+05  1.437650E+03  5.620581E+03 -1.739512E+05 -7.689686E-10  1.656239E-09
       222  16 -3.360783E+05 -2.254136E+05 -1.368452E+05 -1.744104E+05 -3.587656E-09  2.170128E-09
       222  17 -4.712940E+05 -2.566699E+05 -1.585416E+05 -1.623003E+05 -2.364957E-09  3.362062E-09
       222  18 -6.075409E+05 -2.885601E+05 -1.854572E+05 -1.735951E+05 -3.644850E-09  1.911521E-09
       222  19  1.639973E+06  2.249347E+05  1.403041E+05 -1.734905E+05 -1.990450E+04  7.528663E+04
       222  20  1.774794E+06  2.568474E+05  1.646161E+05 -1.621993E+05 -9.031646E+03  8.274757E+04
       222  21  1.911828E+06  2.913676E+05  1.966793E+05 -1.743080E+05  1.842790E+03  8.598314E+04
       222  22  6.514540E+05 -2.147078E+02  1.740808E+03 -1.739502E+05  1.271520E+03  7.530614E+04
       222  23  6.511148E+05  1.211527E+02  3.053451E+03 -1.622494E+05  2.790289E+03  8.276857E+04
       222  24  6.513505E+05  1.445599E+03  5.634519E+03 -1.739509E+05  4.308208E+03  8.600165E+04
       222  25 -3.360763E+05 -2.254074E+05 -1.368336E+05 -1.744091E+05  2.241537E+04  7.532562E+04
       222  26 -4.712920E+05 -2.566625E+05 -1.585283E+05 -1.622993E+05  1.459178E+04  8.278959E+04
       222  27 -6.075389E+05 -2.885522E+05 -1.854432E+05 -1.735946E+05  6.768823E+03  8.602019E+04
       223   1  1.999563E+06  3.131271E+05  2.177118E+05 -1.728622E+05 -3.793346E+03 -8.776769E+04
       223   2  2.127427E+06  3.560625E+05  2.799311E+05 -1.706998E+05 -8.615365E+04 -7.150911E+04
       223   3  2.272359E+06  4.236559E+05  4.018637E+05 -1.895207E+05 -1.685964E+05 -2.124717E+04
       223   4  6.520767E+05  2.014264E+03  7.527919E+03 -1.734099E+05 -5.284819E+03 -8.778695E+04
       223   5  6.499962E+05  7.864159E+03  1.384380E+04 -1.629306E+05 -1.233021E+04 -7.145218E+04
       223   6  6.519405E+05  2.534883E+04  2.768258E+04 -1.734309E+05 -1.943456E+04 -2.107907E+04
       223   7 -6.936030E+05 -3.091874E+05 -2.026991E+05 -1.739564E+05 -6.773175E+03 -8.780624E+04
       223   8 -8.253021E+05 -3.404526E+05 -2.523081E+05 -1.551806E+05  6.132294E+04 -7.139336E+04
       223   9 -9.660091E+05 -3.731291E+05 -3.465900E+05 -1.573836E+05  1.293421E+05 -2.090307E+04
       223  10  1.999561E+06  3.131188E+05  2.176973E+05 -1.728625E+05  3.079013E-09  2.063637E-10
       223  11  2.127417E+06  3.560550E+05  2.799076E+05 -1.707048E+05 -1.049462E-09 -2.726560E-09
       223  12  2.272328E+06  4.236478E+05  4.018096E+05 -1.895236E+05 -1.658197E-09 -8.520348E-10
       223  13  6.520746E+05  2.005979E+03  7.513380E+03 -1.734102E+05 -6.971222E-10 -2.781622E-09
       223  14  6.499946E+05  7.858634E+03  1.383392E+04 -1.629313E+05  2.305286E-09  2.823941E-09
       223  15  6.519400E+05  2.534825E+04  2.768104E+04 -1.734312E+05 -5.530175E-10  3.900026E-12
       223  16 -6.936051E+05 -3.091957E+05 -2.027137E+05 -1.739568E+05 -2.201732E-09  6.623780E-10
       223  17 -8.253075E+05 -3.404591E+05 -2.523247E+05 -1.551771E+05  2.376717E-09  2.240944E-09
       223  18 -9.660272E+05 -3.731341E+05 -3.466223E+05 -1.573814E+05  4.156103E-09 -1.027619E-09
       223  19  1.999563E+06  3.131271E+05  2.177118E+05 -1.728622E+05  3.793346E+03  8.776769E+04
       223  20  2.127427E+06  3.560625E+05  2.799311E+05 -1.706998E+05  8.615365E+04  7.150911E+04
       223  21  2.272359E+06  4.236559E+05  4.018637E+05 -1.895207E+05  1.685964E+05  2.124717E+04
       223  22  6.520767E+05  2.014264E+03  7.527919E+03 -1.734099E+05  5.284819E+03  8.778695E+04
       223  23  6.499962E+05  7.864159E+03  1.384380E+04 -1.629306E+05  1.233021E+04  7.145218E+04
       223  24  6.519405E+05  2.534883E+04  2.768258E+04 -1.734309E+05  1.943456E+04  2.107907E+04
       223  25 -6.936030E+05 -3.091874E+05 -2.026991E+05 -1.739564E+05  6.773175E+03  8.780624E+04
       223  26 -8.253021E+05 -3.404526E+05 -2.523081E+05 -1.551806E+05 -6.132294E+04  7.139336E+04
       223  27 -9.660091E+05 -3.731291E+05 -3.465900E+05 -1.573836E+05 -1.293421E+05  2.090307E+04
       224   1  4.067130E+05  1.784502E+06  3.890150E+05 -5.396683E+05  1.519421E+04  1.156599E+05
       224   2  2.833546E+05  1.365486E+06  2.339428E+05 -4.996526E+05  4.595137E+04  3.421673E+04
       224   3  1.806100E+05  9.622872E+05  1.369309E+05 -5.285322E+05  4.217620E+04 -4.719505E+04
       224   4  1.666342E+04  2.049019E+05  1.669467E+04 -5.271838E+05  1.538560E+04  9.721410E+03
       224   5  6.418384E+03  2.038412E+05  9.946993E+03 -4.927449E+05  4.601470E+04  4.724012E+03
       224   6  3.567993E+03  2.052180E+05  8.277950E+03 -5.272059E+05  4.208300E+04 -2.968126E+02
       224   7 -3.735578E+05 -1.372384E+06 -3.557555E+05 -5.147293E+05  1.557308E+04 -9.594965E+04
       224   8 -2.705974E+05 -9.565060E+05 -2.141082E+05 -4.858494E+05  4.607745E+04 -2.471488E+04
       224   9 -1.735032E+05 -5.512830E+05 -1.203855E+05 -5.258809E+05  4.198991E+04  4.654614E+04
       224  10  4.067092E+05  1.784488E+06  3.889895E+05 -5.396697E+05 -1.426428E-10  2.125908E-09
       224  11  2.833520E+05  1.365484E+06  2.339367E+05 -4.996538E+05 -1.491613E-09  2.328603E-10
       224  12  1.806075E+05  9.622843E+05  1.369234E+05 -5.285306E+05  6.171519E-10 -4.269069E-09
       224  13  1.666314E+04  2.049017E+05  1.669404E+04 -5.271839E+05 -2.703107E-10 -1.073940E-09
       224  14  6.416104E+03  2.038406E+05  9.942971E+03 -4.927451E+05  1.195335E-09 -9.955487E-10
       224  15  3.566091E+03  2.052176E+05  8.274622E+03 -5.272059E+05  2.591578E-09 -4.522895E-10
       224  16 -3.735606E+05 -1.372394E+06 -3.557733E+05 -5.147281E+05 -1.432676E-10 -2.601928E-09
       224  17 -2.705998E+05 -9.565072E+05 -2.141134E+05 -4.858484E+05  1.512942E-09  7.309275E-10
       224  18 -1.735056E+05 -5.512858E+05 -1.203929E+05 -5.258825E+05 -7.640767E-10  5.451755E-09
       224  19  4.067130E+05  1.784502E+06  3.890150E+05 -5.396683E+05 -1.519421E+04 -1.156599E+05
       224  20  2.833546E+05  1.365486E+06  2.339428E+05 -4.996526E+05 -4.595137E+04 -3.421673E+04
       224  21  1.806100E+05  9.622872E+05  1.369309E+05 -5.285322E+05 -4.217620E+04  4.719505E+04
       224  22  1.666342E+04  2.049019E+05  1.669467E+04 -5.271838E+05 -1.538560E+04 -9.721410E+03
       224  23  6.418384E+03  2.038412E+05  9.946993E+03 -4.927449E+05 -4.601470E+04 -4.724012E+03
       224  24  3.567993E+03  2.052180E+05  8.277950E+03 -5.272059E+05 -4.208300E+04  2.968126E+02
       224  25 -3.735578E+05 -1.372384E+06 -3.557555E+05 -5.147293E+05 -1.557308E+04  9.594965E+04
       224  26 -2.705974E+05 -9.565060E+05 -2.141082E+05 -4.858494E+05 -4.607745E+04  2.471488E+04
       224  27 -1.735032E+05 -5.512830E+05 -1.203855E+05 -5.258809E+05 -4.198991E+04 -4.654614E+04
       225   1  1.198886E+05  7.036769E+05  9.266257E+04 -5.294063E+05  2.827326E+04 -4.945983E+04
       225   2  2.395906E+04  2.921119E+05  2.422190E+04 -4.909802E+05  6.439158E+03 -5.615769E+04
       225   3 -6.785356E+04 -1.175725E+05 -3.889395E+04 -5.237158E+05 -1.584150E+04 -6.285312E+04
       225   4  3.397724E+03  2.050783E+05  8.566102E+03 -5.277079E+05  2.817308E+04 -1.679495E+03
       225   5  3.840255E+03  2.043193E+05  1.136121E+04 -4.921233E+05  6.335918E+03 -7.405265E+03
       225   6  8.236915E+03  2.051019E+05  1.880008E+04 -5.276990E+05 -1.594796E+04 -1.313272E+04
       225   7 -1.131050E+05 -2.932706E+05 -7.552971E+04 -5.260108E+05  2.807312E+04  4.606375E+04
       225   8 -1.627763E+04  1.165396E+05 -1.490684E+03 -4.932661E+05  6.232488E+03  4.134055E+04
       225   9  8.432300E+04  5.278832E+05  7.649944E+04 -5.316843E+05 -1.605503E+04  3.661279E+04
       225  10  1.198871E+05  7.036741E+05  9.265648E+04 -5.294051E+05  2.168015E-09  1.680592E-09
       225  11  2.395817E+04  2.921085E+05  2.421590E+04 -4.909800E+05 -2.499148E-10  8.943224E-10
       225  12 -6.785489E+04 -1.175768E+05 -3.890185E+04 -5.237166E+05  1.349281E-10 -3.034734E-09
       225  13  3.396871E+03  2.050781E+05  8.564605E+03 -5.277079E+05 -2.012964E-10 -1.233159E-09
       225  14  3.840197E+03  2.043192E+05  1.136103E+04 -4.921232E+05  3.968385E-09 -1.422330E-09
       225  15  8.236595E+03  2.051017E+05  1.879928E+04 -5.276992E+05 -8.508232E-10 -5.473741E-10
       225  16 -1.131064E+05 -2.932731E+05 -7.553519E+04 -5.260118E+05  5.542795E-10 -2.222405E-09
       225  17 -1.627813E+04  1.165377E+05 -1.493969E+03 -4.932663E+05 -8.336395E-10 -2.981719E-10
       225  18  8.432236E+04  5.278817E+05  7.649645E+04 -5.316838E+05  8.794026E-10  4.136160E-09
       225  19  1.198886E+05  7.036769E+05  9.266257E+04 -5.294063E+05 -2.827326E+04  4.945983E+04
       225  20  2.395906E+04  2.921119E+05  2.422190E+04 -4.909802E+05 -6.439158E+03  5.615769E+04
       225  21 -6.785356E+04 -1.175725E+05 -3.889395E+04 -5.237158E+05  1.584150E+04  6.285312E+04
       225  22  3.397724E+03  2.050783E+05  8.566102E+03 -5.277079E+05 -2.817308E+04  1.679495E+03
       225  23  3.840255E+03  2.043193E+05  1.136121E+04 -4.921233E+05 -6.335918E+03  7.405265E+03
       225  24  8.236915E+03  2.051019E+05  1.880008E+04 -5.276990E+05  1.594796E+04  1.313272E+04
       225  25 -1.131050E+05 -2.932706E+05 -7.552971E+04 -5.260108E+05 -2.807312E+04 -4.606375E+04
       225  26 -1.627763E+04  1.165396E+05 -1.490684E+03 -4.932661E+05 -6.232488E+03 -4.134055E+04
       225  27  8.432300E+04  5.278832E+05  7.649944E+04 -5.316843E+05  1.605503E+04 -3.661279E+04
       226   1 -1.263485E+05 -3.732649E+05 -7.704959E+04 -5.253219E+05 -3.017120E+04 -6.533136E+04
       226   2 -2.074021E+05 -7.839398E+05 -1.488673E+05 -4.631937E+05 -3.699250E+04 -1.970794E+04
       226   3 -2.634331E+05 -1.194220E+06 -2.441837E+05 -4.702684E+05 -1.289009E+04  2.590938E+04
       226   4  1.012627E+04  2.073960E+05  2.455440E+04 -5.272647E+05 -3.027258E+04 -1.640358E+04
       226   5  2.846114E+04  2.012307E+05  4.429895E+04 -4.926130E+05 -3.694898E+04 -3.900948E+04
       226   6  8.364434E+04  2.071207E+05  8.792476E+04 -5.271391E+05 -1.272838E+04 -6.159128E+04
       226   7  1.465840E+05  7.883923E+05  1.261553E+05 -5.292091E+05 -3.037419E+04  3.256862E+04
       226   8  2.642691E+05  1.187334E+06  2.374202E+05 -5.220793E+05 -3.690369E+04 -5.834098E+04
       226   9  4.305965E+05  1.610290E+06  4.199271E+05 -5.841375E+05 -1.255088E+04 -1.492886E+05
       226  10 -1.263507E+05 -3.732698E+05 -7.705933E+04 -5.253234E+05  2.751929E-09 -4.920125E-10
       226  11 -2.074037E+05 -7.839405E+05 -1.488706E+05 -4.631942E+05 -9.707099E-11  1.012061E-09
       226  12 -2.634334E+05 -1.194220E+06 -2.441852E+05 -4.702682E+05  1.611457E-10 -6.814500E-10
       226  13  1.012521E+04  2.073955E+05  2.455217E+04 -5.272651E+05  4.046568E-10 -1.429928E-09
       226  14  2.845926E+04  2.012287E+05  4.429352E+04 -4.926142E+05  1.270853E-09 -1.407022E-09
       226  15  8.364314E+04  2.071166E+05  8.791733E+04 -5.271397E+05 -1.720377E-09 -3.369024E-10
       226  16  1.465828E+05  7.883909E+05  1.261516E+05 -5.292083E+05 -6.644044E-10 -7.489260E-11
       226  17  2.642667E+05  1.187330E+06  2.374113E+05 -5.220811E+05 -2.968554E-09 -3.910137E-11
       226  18  4.305904E+05  1.610266E+06  4.198850E+05 -5.841390E+05  7.892540E-10  1.590987E-09
       226  19 -1.263485E+05 -3.732649E+05 -7.704959E+04 -5.253219E+05  3.017120E+04  6.533136E+04
       226  20 -2.074021E+05 -7.839398E+05 -1.488673E+05 -4.631937E+05  3.699250E+04  1.970794E+04
       226  21 -2.634331E+05 -1.194220E+06 -2.441837E+05 -4.702684E+05  1.289009E+04 -2.590938E+04
       226  22  1.012627E+04  2.073960E+05  2.455440E+04 -5.272647E+05  3.027258E+04  1.640358E+04
       226  23  2.846114E+04  2.012307E+05  4.429895E+04 -4.926130E+05  3.694898E+04  3.900948E+04
       226  24  8.364434E+04  2.071207E+05  8.792476E+04 -5.271391E+05  1.272838E+04  6.159128E+04
       226  25  1.465840E+05  7.883923E+05  1.261553E+05 -5.292091E+05  3.037419E+04 -3.256862E+04
       226  26  2.642691E+05  1.187334E+06  2.374202E+05 -5.220793E+05  3.690369E+04  5.834098E+04
       226  27  4.305965E+05  1.610290E+06  4.199271E+05 -5.841375E+05  1.255088E+04  1.492886E+05
       227   1 -8.020197E+05 -4.230032E+05 -2.456486E+05 -3.400375E+05 -1.163552E+05 -3.471153E+04
       227   2 -7.494586E+05 -3.073684E+05 -1.491918E+05 -3.168639E+05 -7.243129E+04  2.522492E+03
       227   3 -7.146955E+05 -2.519770E+05 -1.045652E+05 -2.915275E+05 -2.328534E+04  2.589236E+04
       227   4 -2.870046E+05 -1.750912E+05 -1.033405E+05 -1.426323E+05 -7.018305E+04 -1.737281E+04
       227   5 -2.750530E+05 -1.080129E+05 -4.859329E+04 -1.585416E+05 -5.176818E+04  1.028028E+04
       227   6 -2.758258E+05 -9.610068E+04 -2.543018E+04 -1.722957E+05 -2.813854E+04  2.406707E+04
       227   7  2.282739E+05  7.289016E+04  3.895043E+04  5.493641E+04 -2.396998E+04 -8.379416E+00
       227   8  1.995856E+05  9.138229E+04  5.199424E+04 -1.006274E+02 -3.108824E+04  1.804656E+04
       227   9  1.632496E+05  5.979314E+04  5.369914E+04 -5.298536E+04 -3.299544E+04  2.224046E+04
       227  10 -8.020346E+05 -4.230081E+05 -2.456763E+05 -3.400408E+05 -9.971514E-10 -6.487472E-10
       227  11 -7.494642E+05 -3.073698E+05 -1.492017E+05 -3.168638E+05  3.933170E-09  1.430104E-09
       227  12 -7.146962E+05 -2.519779E+05 -1.045675E+05 -2.915270E+05  2.513259E-09  2.004101E-09
       227  13 -2.870100E+05 -1.750928E+05 -1.033503E+05 -1.426333E+05  1.087002E-09  1.330985E-09
       227  14 -2.750559E+05 -1.080137E+05 -4.859853E+04 -1.585412E+05  3.973121E-09  1.275918E-09
       227  15 -2.758268E+05 -9.610152E+04 -2.543276E+04 -1.722952E+05  2.074064E-09 -1.623599E-09
       227  16  2.282733E+05  7.289000E+04  3.894935E+04  5.493641E+04  3.154372E-09  1.075922E-09
       227  17  1.995845E+05  9.138168E+04  5.199181E+04 -1.001757E+02  8.652385E-10 -5.479488E-10
       227  18  1.632483E+05  5.979232E+04  5.369616E+04 -5.298477E+04 -7.592874E-09 -4.038350E-09
       227  19 -8.020197E+05 -4.230032E+05 -2.456486E+05 -3.400375E+05  1.163552E+05  3.471153E+04
       227  20 -7.494586E+05 -3.073684E+05 -1.491918E+05 -3.168639E+05  7.243129E+04 -2.522492E+03
       227  21 -7.146955E+05 -2.519770E+05 -1.045652E+05 -2.915275E+05  2.328534E+04 -2.589236E+04
       227  22 -2.870046E+05 -1.750912E+05 -1.033405E+05 -1.426323E+05  7.018305E+04  1.737281E+04
       227  23 -2.750530E+05 -1.080129E+05 -4.859329E+04 -1.585416E+05  5.176818E+04 -1.028028E+04
       227  24 -2.758258E+05 -9.610068E+04 -2.543018E+04 -1.722957E+05  2.813854E+04 -2.406707E+04
       227  25  2.282739E+05  7.289016E+04  3.895043E+04  5.493641E+04  2.396998E+04  8.379416E+00
       227  26  1.995856E+05  9.138229E+04  5.199424E+04 -1.006274E+02  3.108824E+04 -1.804656E+04
       227  27  1.632496E+05  5.979314E+04  5.369914E+04 -5.298536E+04  3.299544E+04 -2.224046E+04
       228   1 -6.695224E+05 -2.415434E+05 -9.013928E+04 -2.842433E+05 -2.100035E+04  2.462691E+04
       228   2 -6.148694E+05 -2.108522E+05 -6.837880E+04 -2.628870E+05 -1.254904E+04  2.483097E+04
       228   3 -5.535648E+05 -1.923936E+05 -5.306797E+04 -2.511105E+05 -3.599512E+03  2.370796E+04
       228   4 -2.727506E+05 -9.597262E+04 -1.904787E+04 -1.713225E+05 -2.457567E+04  2.328201E+04
       228   5 -2.760026E+05 -8.791377E+04 -9.987508E+03 -1.673493E+05 -1.856435E+04  2.257063E+04
       228   6 -2.721211E+05 -9.160273E+04 -5.439743E+03 -1.729572E+05 -1.205562E+04  2.053229E+04
       228   7  1.241833E+05  4.961286E+04  5.203713E+04 -5.833495E+04 -2.815340E+04  2.193617E+04
       228   8  6.298622E+04  3.503637E+04  4.840064E+04 -7.176259E+04 -2.458315E+04  2.030896E+04
       228   9  9.410001E+03  9.197038E+03  4.218752E+04 -9.477002E+04 -2.051589E+04  1.735508E+04
       228  10 -6.695231E+05 -2.415442E+05 -9.014125E+04 -2.842429E+05 -7.309871E-09 -2.414012E-09
       228  11 -6.148697E+05 -2.108529E+05 -6.838025E+04 -2.628867E+05  1.004255E-08  3.191981E-09
       228  12 -5.535650E+05 -1.923943E+05 -5.306905E+04 -2.511104E+05  1.255293E-08  3.609803E-09
       228  13 -2.727514E+05 -9.597336E+04 -1.905003E+04 -1.713220E+05  3.057969E-09  6.283980E-10
       228  14 -2.760031E+05 -8.791441E+04 -9.989113E+03 -1.673489E+05  1.353413E-08  1.800371E-09
       228  15 -2.721214E+05 -9.160322E+04 -5.440808E+03 -1.729570E+05  5.213770E-09  1.088277E-09
       228  16  1.241823E+05  4.961213E+04  5.203474E+04 -5.833446E+04  7.813946E-09  7.115718E-10
       228  17  6.298546E+04  3.503577E+04  4.839873E+04 -7.176219E+04  9.331618E-09  2.307152E-09
       228  18  9.409469E+03  9.196601E+03  4.218616E+04 -9.476974E+04 -7.324921E-09 -1.859137E-09
       228  19 -6.695224E+05 -2.415434E+05 -9.013928E+04 -2.842433E+05  2.100035E+04 -2.462691E+04
       228  20 -6.148694E+05 -2.108522E+05 -6.837880E+04 -2.628870E+05  1.254904E+04 -2.483097E+04
       228  21 -5.535648E+05 -1.923936E+05 -5.306797E+04 -2.511105E+05  3.599512E+03 -2.370796E+04
       228  22 -2.727506E+05 -9.597262E+04 -1.904787E+04 -1.713225E+05  2.457567E+04 -2.328201E+04
       228  23 -2.760026E+05 -8.791377E+04 -9.987508E+03 -1.673493E+05  1.856435E+04 -2.257063E+04
       228  24 -2.721211E+05 -9.160273E+04 -5.439743E+03 -1.729572E+05  1.205562E+04 -2.053229E+04
       228  25  1.241833E+05  4.961286E+04  5.203713E+04 -5.833495E+04  2.815340E+04 -2.193617E+04
       228  26  6.298622E+04  3.503637E+04  4.840064E+04 -7.176259E+04  2.458315E+04 -2.030896E+04
       228  27  9.410001E+03  9.197038E+03  4.218752E+04 -9.477002E+04  2.051589E+04 -1.735508E+04
       229   1 -5.153943E+05 -1.790843E+05 -4.501138E+04 -2.408305E+05 -1.958039E+03  2.123855E+04
       229   2 -4.610664E+05 -1.533617E+05 -3.323788E+04 -2.193760E+05  1.118358E+03  1.715597E+04
       229   3 -3.980723E+05 -1.367723E+05 -2.252333E+04 -2.081209E+05  4.241978E+03  1.294584E+04
       229   4 -2.718521E+05 -9.162143E+04 -4.082536E+03 -1.728635E+05 -1.029380E+04  1.810861E+04
       229   5 -2.761910E+05 -8.699639E+04 -2.240380E+03 -1.677922E+05 -7.452021E+03  1.393865E+04
       229   6 -2.718210E+05 -9.145793E+04 -1.271159E+03 -1.729213E+05 -4.563168E+03  9.641112E+03
       229   7 -2.824662E+04 -4.152668E+03  3.684505E+04 -1.048715E+05 -1.863303E+04  1.497738E+04
       229   8 -9.128014E+04 -2.062801E+04  2.875628E+04 -1.161943E+05 -1.602506E+04  1.072033E+04
       229   9 -1.455540E+05 -4.614251E+04  1.998054E+04 -1.377153E+05 -1.337012E+04  6.335706E+03
       229  10 -5.153944E+05 -1.790848E+05 -4.501223E+04 -2.408304E+05  1.189637E-08  4.075496E-09
       229  11 -4.610665E+05 -1.533620E+05 -3.323844E+04 -2.193760E+05  1.389823E-08  5.612781E-09
       229  12 -3.980724E+05 -1.367724E+05 -2.252367E+04 -2.081209E+05  1.708878E-08  2.735923E-09
       229  13 -2.718523E+05 -9.162181E+04 -4.083351E+03 -1.728633E+05 -3.444546E-10  2.045827E-09
       229  14 -2.761911E+05 -8.699661E+04 -2.240850E+03 -1.677921E+05  1.916019E-09  9.191000E-09
       229  15 -2.718211E+05 -9.145804E+04 -1.271373E+03 -1.729213E+05  3.112308E-09  1.552988E-08
       229  16 -2.824705E+04 -4.153002E+03  3.684398E+04 -1.048713E+05 -1.086226E-08 -4.452792E-09
       229  17 -9.128045E+04 -2.062820E+04  2.875558E+04 -1.161941E+05 -9.059794E-09 -7.103385E-09
       229  18 -1.455542E+05 -4.614260E+04  1.998013E+04 -1.377153E+05 -7.860208E-09 -6.997572E-09
       229  19 -5.153943E+05 -1.790843E+05 -4.501138E+04 -2.408305E+05  1.958039E+03 -2.123855E+04
       229  20 -4.610664E+05 -1.533617E+05 -3.323788E+04 -2.193760E+05 -1.118358E+03 -1.715597E+04
       229  21 -3.980723E+05 -1.367723E+05 -2.252333E+04 -2.081209E+05 -4.241978E+03 -1.294584E+04
       229  22 -2.718521E+05 -9.162143E+04 -4.082536E+03 -1.728635E+05  1.029380E+04 -1.810861E+04
       229  23 -2.761910E+05 -8.699639E+04 -2.240380E+03 -1.677922E+05  7.452021E+03 -1.393865E+04
       229  24 -2.718210E+05 -9.145793E+04 -1.271159E+03 -1.729213E+05  4.563168E+03 -9.641112E+03
       229  25 -2.824662E+04 -4.152668E+03  3.684505E+04 -1.048715E+05  1.863303E+04 -1.497738E+04
       229  26 -9.128014E+04 -2.062801E+04  2.875628E+04 -1.161943E+05  1.602506E+04 -1.072033E+04
       229  27 -1.455540E+05 -4.614251E+04  1.998054E+04 -1.377153E+05  1.337012E+04 -6.335706E+03
       230   1 -3.604260E+05 -1.232421E+05 -1.566302E+04 -1.976453E+05  5.463322E+03  1.022592E+04
       230   2 -3.061873E+05 -9.774098E+04 -5.644931E+03 -1.761447E+05  7.595015E+03  5.571991E+03
       230   3 -2.430733E+05 -8.117134E+04  4.120691E+03 -1.648579E+05  9.730674E+03  9.071840E+02
       230   4 -2.717891E+05 -9.146378E+04 -9.856850E+02 -1.729089E+05 -3.331177E+03  6.925421E+03
       230   5 -2.762258E+05 -8.700331E+04 -6.366404E+02 -1.677992E+05 -1.219959E+03  2.263899E+03
       230   6 -2.717884E+05 -9.147122E+04 -5.245445E+02 -1.729053E+05  8.951857E+02 -2.408502E+03
       230   7 -1.831426E+05 -5.968427E+04  1.369206E+04 -1.481688E+05 -1.212710E+04  3.624389E+03
       230   8 -2.462631E+05 -7.626541E+04  4.372009E+03 -1.594533E+05 -1.003543E+04 -1.044379E+03
       230   9 -3.005025E+05 -1.017709E+05 -5.169465E+03 -1.809524E+05 -7.939873E+03 -5.724027E+03
       230  10 -3.604261E+05 -1.232422E+05 -1.566327E+04 -1.976454E+05 -5.202608E-09 -7.009469E-09
       230  11 -3.061874E+05 -9.774103E+04 -5.645098E+03 -1.761447E+05 -9.984524E-09 -7.640422E-09
       230  12 -2.430734E+05 -8.117137E+04  4.120511E+03 -1.648579E+05 -1.127895E-08 -6.975325E-09
       230  13 -2.717891E+05 -9.146384E+04 -9.857960E+02 -1.729089E+05  4.118722E-09  1.520764E-08
       230  14 -2.762258E+05 -8.700331E+04 -6.366528E+02 -1.677992E+05  1.027969E-09  8.913335E-09
       230  15 -2.717884E+05 -9.147122E+04 -5.245569E+02 -1.729053E+05  9.416602E-10  1.994746E-09
       230  16 -1.831428E+05 -5.968432E+04  1.369176E+04 -1.481688E+05  1.563206E-08  2.417603E-09
       230  17 -2.462632E+05 -7.626544E+04  4.371818E+03 -1.594533E+05  1.472460E-08  5.566034E-09
       230  18 -3.005025E+05 -1.017710E+05 -5.169646E+03 -1.809524E+05  1.161736E-08  5.893966E-09
       230  19 -3.604260E+05 -1.232421E+05 -1.566302E+04 -1.976453E+05 -5.463322E+03 -1.022592E+04
       230  20 -3.061873E+05 -9.774098E+04 -5.644931E+03 -1.761447E+05 -7.595015E+03 -5.571991E+03
       230  21 -2.430733E+05 -8.117134E+04  4.120691E+03 -1.648579E+05 -9.730674E+03 -9.071840E+02
       230  22 -2.717891E+05 -9.146378E+04 -9.856850E+02 -1.729089E+05  3.331177E+03 -6.925421E+03
       230  23 -2.762258E+05 -8.700331E+04 -6.366404E+02 -1.677992E+05  1.219959E+03 -2.263899E+03
       230  24 -2.717884E+05 -9.147122E+04 -5.245445E+02 -1.729053E+05 -8.951857E+02  2.408502E+03
       230  25 -1.831426E+05 -5.968427E+04  1.369206E+04 -1.481688E+05  1.212710E+04 -3.624389E+03
       230  26 -2.462631E+05 -7.626541E+04  4.372009E+03 -1.594533E+05  1.003543E+04  1.044379E+03
       230  27 -3.005025E+05 -1.017709E+05 -5.169465E+03 -1.809524E+05  7.939873E+03  5.724027E+03
       231   1 -2.054799E+05 -6.762105E+04  1.066967E+04 -1.543727E+05  1.086787E+04 -1.851979E+03
       231   2 -1.512406E+05 -4.211955E+04  2.014480E+04 -1.328742E+05  1.299811E+04 -6.516744E+03
       231   3 -8.812500E+04 -2.554257E+04  2.937248E+04 -1.215897E+05  1.512369E+04 -1.116784E+04
       231   4 -2.717910E+05 -9.147186E+04 -5.389862E+02 -1.729056E+05  2.032198E+03 -5.167828E+03
       231   5 -2.762270E+05 -8.700532E+04 -7.169078E+02 -1.677996E+05  4.186959E+03 -9.823845E+03
       231   6 -2.717950E+05 -9.146847E+04 -1.161799E+03 -1.729088E+05  6.337034E+03 -1.446623E+04
       231   7 -3.380965E+05 -1.153219E+05 -1.174723E+04 -1.914364E+05 -6.802374E+03 -8.483266E+03
       231   8 -4.011966E+05 -1.318895E+05 -2.157867E+04 -2.027183E+05 -4.622307E+03 -1.313024E+04
       231   9 -4.554308E+05 -1.573917E+05 -3.169712E+04 -2.242143E+05 -2.446950E+03 -1.776362E+04
       231  10 -2.054801E+05 -6.762109E+04  1.066944E+04 -1.543726E+05 -2.927532E-09 -2.334281E-09
       231  11 -1.512408E+05 -4.211964E+04  2.014440E+04 -1.328742E+05 -3.848853E-09 -5.146068E-10
       231  12 -8.812528E+04 -2.554276E+04  2.937182E+04 -1.215896E+05  4.970289E-10 -1.475863E-09
       231  13 -2.717910E+05 -9.147189E+04 -5.390441E+02 -1.729056E+05 -1.787319E-10 -2.054269E-10
       231  14 -2.762270E+05 -8.700543E+04 -7.171220E+02 -1.677995E+05 -3.206145E-10 -7.748515E-10
       231  15 -2.717951E+05 -9.146870E+04 -1.162268E+03 -1.729088E+05  5.017625E-10 -7.978847E-10
       231  16 -3.380965E+05 -1.153220E+05 -1.174745E+04 -1.914365E+05  3.253222E-09  1.448831E-09
       231  17 -4.011966E+05 -1.318897E+05 -2.157903E+04 -2.027183E+05  3.355658E-09  5.439651E-10
       231  18 -4.554309E+05 -1.573920E+05 -3.169772E+04 -2.242143E+05  1.296014E-09 -5.053786E-10
       231  19 -2.054799E+05 -6.762105E+04  1.066967E+04 -1.543727E+05 -1.086787E+04  1.851979E+03
       231  20 -1.512406E+05 -4.211955E+04  2.014480E+04 -1.328742E+05 -1.299811E+04  6.516744E+03
       231  21 -8.812500E+04 -2.554257E+04  2.937248E+04 -1.215897E+05 -1.512369E+04  1.116784E+04
       231  22 -2.717910E+05 -9.147186E+04 -5.389862E+02 -1.729056E+05 -2.032198E+03  5.167828E+03
       231  23 -2.762270E+05 -8.700532E+04 -7.169078E+02 -1.677996E+05 -4.186959E+03  9.823845E+03
       231  24 -2.717950E+05 -9.146847E+04 -1.161799E+03 -1.729088E+05 -6.337034E+03  1.446623E+04
       231  25 -3.380965E+05 -1.153219E+05 -1.174723E+04 -1.914364E+05  6.802374E+03  8.483266E+03
       231  26 -4.011966E+05 -1.318895E+05 -2.157867E+04 -2.027183E+05  4.622307E+03  1.313024E+04
       231  27 -4.554308E+05 -1.573917E+05 -3.169712E+04 -2.242143E+05  2.446950E+03  1.776362E+04
       232   1 -5.054752E+04 -1.200658E+04  3.559476E+04 -1.111434E+05  1.640212E+04 -1.386324E+04
       232   2  3.722885E+03  1.350470E+04  4.417422E+04 -8.961984E+04  1.923881E+04 -1.816181E+04
       232   3  6.671513E+04  2.994824E+04  5.192010E+04 -7.829130E+04  2.202065E+04 -2.231139E+04
       232   4 -2.718369E+05 -9.146333E+04 -1.514052E+03 -1.729243E+05  7.603025E+03 -1.716675E+04
       232   5 -2.761898E+05 -8.700329E+04 -2.693733E+03 -1.677907E+05  1.071294E+04 -2.136378E+04
       232   6 -2.718784E+05 -9.166587E+04 -4.923872E+03 -1.728540E+05  1.376787E+04 -2.541181E+04
       232   7 -4.930738E+05 -1.709151E+05 -3.862375E+04 -2.346844E+05 -1.192739E+03 -2.046902E+04
       232   8 -5.560172E+05 -1.875028E+05 -4.956291E+04 -2.459281E+05  2.191194E+03 -2.456421E+04
       232   9 -6.103459E+05 -2.132671E+05 -6.176944E+04 -2.673673E+05  5.519966E+03 -2.851041E+04
       232  10 -5.054786E+04 -1.200686E+04  3.559389E+04 -1.111432E+05 -8.941507E-10 -1.428969E-09
       232  11  3.722399E+03  1.350425E+04  4.417290E+04 -8.961956E+04  8.518071E-10 -1.125586E-09
       232  12  6.671447E+04  2.994757E+04  5.191825E+04 -7.829090E+04  2.359690E-10 -5.843187E-10
       232  13 -2.718370E+05 -9.146366E+04 -1.514714E+03 -1.729242E+05  2.312367E-09 -5.272869E-10
       232  14 -2.761901E+05 -8.700381E+04 -2.694806E+03 -1.677905E+05  3.165036E-09 -2.180960E-10
       232  15 -2.718788E+05 -9.166661E+04 -4.925442E+03 -1.728537E+05 -2.588654E-09 -7.632957E-10
       232  16 -4.930740E+05 -1.709156E+05 -3.862454E+04 -2.346845E+05  2.444472E-09 -5.404444E-11
       232  17 -5.560174E+05 -1.875035E+05 -4.956405E+04 -2.459281E+05  8.245463E-10 -7.863306E-10
       232  18 -6.103462E+05 -2.132680E+05 -6.177103E+04 -2.673672E+05 -2.724410E-09 -2.215526E-10
       232  19 -5.054752E+04 -1.200658E+04  3.559476E+04 -1.111434E+05 -1.640212E+04  1.386324E+04
       232  20  3.722885E+03  1.350470E+04  4.417422E+04 -8.961984E+04 -1.923881E+04  1.816181E+04
       232  21  6.671513E+04  2.994824E+04  5.192010E+04 -7.829130E+04 -2.202065E+04  2.231139E+04
       232  22 -2.718369E+05 -9.146333E+04 -1.514052E+03 -1.729243E+05 -7.603025E+03  1.716675E+04
       232  23 -2.761898E+05 -8.700329E+04 -2.693733E+03 -1.677907E+05 -1.071294E+04  2.136378E+04
       232  24 -2.718784E+05 -9.166587E+04 -4.923872E+03 -1.728540E+05 -1.376787E+04  2.541181E+04
       232  25 -4.930738E+05 -1.709151E+05 -3.862375E+04 -2.346844E+05  1.192739E+03  2.046902E+04
       232  26 -5.560172E+05 -1.875028E+05 -4.956291E+04 -2.459281E+05 -2.191194E+03  2.456421E+04
       232  27 -6.103459E+05 -2.132671E+05 -6.176944E+04 -2.673673E+05 -5.519966E+03  2.851041E+04
       233   1  1.043657E+05  4.325082E+04  5.699969E+04 -6.826895E+04  2.407187E+04 -2.460729E+04
       233   2  1.577910E+05  6.914838E+04  6.244857E+04 -4.494866E+04  2.872312E+04 -2.717382E+04
       233   3  2.185485E+05  8.328132E+04  6.470815E+04 -3.107315E+04  3.279488E+04 -2.819366E+04
       233   4 -2.722004E+05 -9.164322E+04 -6.563252E+03 -1.729653E+05  1.567841E+04 -2.776128E+04
       233   5 -2.759642E+05 -8.811607E+04 -1.205660E+04 -1.672551E+05  2.317542E+04 -2.926044E+04
       233   6 -2.729652E+05 -9.692070E+04 -2.299709E+04 -1.709923E+05  3.009241E+04 -2.921241E+04
       233   7 -6.486198E+05 -2.265250E+05 -7.013078E+04 -2.776035E+05  7.290271E+03 -3.091330E+04
       233   8 -7.095220E+05 -2.453623E+05 -8.656767E+04 -2.894820E+05  1.763181E+04 -3.134551E+04
       233   9 -7.642240E+05 -2.770977E+05 -1.107103E+05 -3.108074E+05  2.739221E+04 -3.023028E+04
       233  10  1.043650E+05  4.325001E+04  5.699746E+04 -6.826848E+04 -2.719986E-10 -9.382266E-10
       233  11  1.577899E+05  6.914737E+04  6.244564E+04 -4.494803E+04  1.558219E-10 -9.539644E-10
       233  12  2.185471E+05  8.328018E+04  6.470464E+04 -3.107241E+04 -3.924477E-10 -8.315543E-10
       233  13 -2.722009E+05 -9.164412E+04 -6.565162E+03 -1.729650E+05  1.079820E-09 -4.532137E-10
       233  14 -2.759650E+05 -8.811713E+04 -1.205922E+04 -1.672545E+05  1.127021E-09 -1.287669E-10
       233  15 -2.729664E+05 -9.692186E+04 -2.300039E+04 -1.709916E+05  1.991444E-09 -8.706374E-10
       233  16 -6.486201E+05 -2.265261E+05 -7.013268E+04 -2.776034E+05  1.598382E-09  3.009291E-10
       233  17 -7.095226E+05 -2.453634E+05 -8.657010E+04 -2.894816E+05  2.091977E-09 -6.956263E-11
       233  18 -7.642251E+05 -2.770989E+05 -1.107135E+05 -3.108068E+05 -1.996544E-09  3.130554E-10
       233  19  1.043657E+05  4.325082E+04  5.699969E+04 -6.826895E+04 -2.407187E+04  2.460729E+04
       233  20  1.577910E+05  6.914838E+04  6.244857E+04 -4.494866E+04 -2.872312E+04  2.717382E+04
       233  21  2.185485E+05  8.328132E+04  6.470815E+04 -3.107315E+04 -3.279488E+04  2.819366E+04
       233  22 -2.722004E+05 -9.164322E+04 -6.563252E+03 -1.729653E+05 -1.567841E+04  2.776128E+04
       233  23 -2.759642E+05 -8.811607E+04 -1.205660E+04 -1.672551E+05 -2.317542E+04  2.926044E+04
       233  24 -2.729652E+05 -9.692070E+04 -2.299709E+04 -1.709923E+05 -3.009241E+04  2.921241E+04
       233  25 -6.486198E+05 -2.265250E+05 -7.013078E+04 -2.776035E+05 -7.290271E+03  3.091330E+04
       233  26 -7.095220E+05 -2.453623E+05 -8.656767E+04 -2.894820E+05 -1.763181E+04  3.134551E+04
       233  27 -7.642240E+05 -2.770977E+05 -1.107103E+05 -3.108074E+05 -2.739221E+04  3.023028E+04
       234   1  2.578725E+05  9.272927E+04  6.528815E+04 -2.680204E+04  3.838552E+04 -2.803819E+04
       234   2  2.905326E+05  1.255487E+05  6.073441E+04  3.265263E+04  3.691260E+04 -2.195628E+04
       234   3  3.119239E+05  9.952756E+04  4.165113E+04  9.680096E+04  2.936220E+04  2.838228E+02
       234   4 -2.766699E+05 -9.708085E+04 -3.070253E+04 -1.721743E+05  3.419072E+04 -2.961799E+04
       234   5 -2.748315E+05 -1.123699E+05 -5.866938E+04 -1.566126E+05  6.248649E+04 -1.234815E+04
       234   6 -2.901843E+05 -1.924356E+05 -1.247696E+05 -1.363561E+05  8.470044E+04  2.108668E+04
       234   7 -8.109109E+05 -2.868663E+05 -1.267027E+05 -3.174308E+05  2.999979E+04 -3.119640E+04
       234   8 -8.398513E+05 -3.502259E+05 -1.780845E+05 -3.457045E+05  8.803500E+04 -2.752803E+03
       234   9 -8.919001E+05 -4.842853E+05 -2.912038E+05 -3.692749E+05  1.399785E+05  4.185202E+04
       234  10  2.578707E+05  9.272803E+04  6.528391E+04 -2.680117E+04  3.868775E-10 -8.605637E-11
       234  11  2.905310E+05  1.255479E+05  6.073094E+04  3.265328E+04  4.747391E-10 -1.959075E-10
       234  12  3.119230E+05  9.952732E+04  4.164951E+04  9.680095E+04 -1.237826E-09 -8.710162E-10
       234  13 -2.766713E+05 -9.708211E+04 -3.070638E+04 -1.721734E+05  3.946867E-10  5.162726E-10
       234  14 -2.748358E+05 -1.123711E+05 -5.867700E+04 -1.566120E+05  7.791708E-10 -3.775892E-09
       234  15 -2.901921E+05 -1.924380E+05 -1.247840E+05 -1.363575E+05  5.656435E-10  1.520073E-09
       234  16 -8.109121E+05 -2.868676E+05 -1.267062E+05 -3.174300E+05 -1.450152E-09  2.466737E-10
       234  17 -8.398596E+05 -3.502280E+05 -1.780991E+05 -3.457043E+05 -8.342013E-11  1.690251E-09
       234  18 -8.919216E+05 -4.842925E+05 -2.912440E+05 -3.692796E+05  1.320341E-09 -4.126021E-10
       234  19  2.578725E+05  9.272927E+04  6.528815E+04 -2.680204E+04 -3.838552E+04  2.803819E+04
       234  20  2.905326E+05  1.255487E+05  6.073441E+04  3.265263E+04 -3.691260E+04  2.195628E+04
       234  21  3.119239E+05  9.952756E+04  4.165113E+04  9.680096E+04 -2.936220E+04 -2.838228E+02
       234  22 -2.766699E+05 -9.708085E+04 -3.070253E+04 -1.721743E+05 -3.419072E+04  2.961799E+04
       234  23 -2.748315E+05 -1.123699E+05 -5.866938E+04 -1.566126E+05 -6.248649E+04  1.234815E+04
       234  24 -2.901843E+05 -1.924356E+05 -1.247696E+05 -1.363561E+05 -8.470044E+04 -2.108668E+04
       234  25 -8.109109E+05 -2.868663E+05 -1.267027E+05 -3.174308E+05 -2.999979E+04  3.119640E+04
       234  26 -8.398513E+05 -3.502259E+05 -1.780845E+05 -3.457045E+05 -8.803500E+04  2.752803E+03
       234  27 -8.919001E+05 -4.842853E+05 -2.912038E+05 -3.692749E+05 -1.399785E+05 -4.185202E+04
       235   1  1.020308E+06  1.402377E+05  1.219637E+05  7.667176E+03  3.030392E+04 -1.164024E+04
       235   2  9.801881E+05  1.677269E+05  1.068310E+05  2.768937E+04  1.020096E+04 -4.035241E+04
       235   3  9.366701E+05  1.710516E+05  9.876635E+04  5.353310E+04 -9.925870E+03 -5.127831E+04
       235   4  1.650549E+05 -6.988533E+04 -7.486525E+04  5.350903E+04 -5.271887E+04 -1.177605E+04
       235   5  1.701774E+05 -2.293108E+04 -3.748369E+04  5.054037E+04 -3.350719E+04 -4.043358E+04
       235   6  1.650707E+05 -6.982486E+03 -2.032310E+04  5.339302E+04 -1.432074E+04 -5.129267E+04
       235   7 -6.895026E+05 -2.800477E+05 -2.717156E+05  9.928705E+04 -1.356283E+05 -1.192421E+04
       235   8 -6.391884E+05 -2.136222E+05 -1.818157E+05  7.336047E+04 -7.716001E+04 -4.051801E+04
       235   9 -6.059343E+05 -1.850454E+05 -1.394259E+05  5.325282E+04 -1.871035E+04 -5.130705E+04
       235  10  1.020307E+06  1.402373E+05  1.219617E+05  7.667460E+03  5.403506E-09 -7.833960E-10
       235  11  9.801875E+05  1.677251E+05  1.068278E+05  2.768970E+04  2.037647E-09 -4.025779E-09
       235  12  9.366693E+05  1.710487E+05  9.876123E+04  5.353269E+04  4.814896E-10 -3.277968E-09
       235  13  1.650519E+05 -6.988623E+04 -7.487073E+04  5.350853E+04 -1.003184E-09  7.877400E-10
       235  14  1.701758E+05 -2.293314E+04 -3.748887E+04  5.053928E+04  2.696238E-09 -2.931196E-09
       235  15  1.650698E+05 -6.985366E+03 -2.032843E+04  5.339243E+04  1.642313E-09 -2.392472E-10
       235  16 -6.895224E+05 -2.800528E+05 -2.717504E+05  9.928575E+04 -3.818390E-09 -2.627737E-11
       235  17 -6.391952E+05 -2.136256E+05 -1.818300E+05  7.335795E+04 -6.372023E-11 -6.166347E-09
       235  18 -6.059353E+05 -1.850484E+05 -1.394316E+05  5.325205E+04  4.423493E-10 -5.925840E-09
       235  19  1.020308E+06  1.402377E+05  1.219637E+05  7.667176E+03 -3.030392E+04  1.164024E+04
       235  20  9.801881E+05  1.677269E+05  1.068310E+05  2.768937E+04 -1.020096E+04  4.035241E+04
       235  21  9.366701E+05  1.710516E+05  9.876635E+04  5.353310E+04  9.925870E+03  5.127831E+04
       235  22  1.650549E+05 -6.988533E+04 -7.486525E+04  5.350903E+04  5.271887E+04  1.177605E+04
       235  23  1.701774E+05 -2.293108E+04 -3.748369E+04  5.054037E+04  3.350719E+04  4.043358E+04
       235  24  1.650707E+05 -6.982486E+03 -2.032310E+04  5.339302E+04  1.432074E+04  5.129267E+04
       235  25 -6.895026E+05 -2.800477E+05 -2.717156E+05  9.928705E+04  1.356283E+05  1.192421E+04
       235  26 -6.391884E+05 -2.136222E+05 -1.818157E+05  7.336047E+04  7.716001E+04  4.051801E+04
       235  27 -6.059343E+05 -1.850454E+05 -1.394259E+05  5.325282E+04  1.871035E+04  5.130705E+04
       236   1  9.116036E+05  1.658448E+05  9.648276E+04  5.181203E+04 -7.793787E+03 -5.170828E+04
       236   2  8.701948E+05  1.590202E+05  9.200508E+04  4.987504E+04 -8.540459E+03 -5.236902E+04
       236   3  8.284339E+05  1.504046E+05  8.756836E+04  5.502907E+04 -9.292002E+03 -5.081877E+04
       236   4  1.670841E+05 -5.291862E+03 -1.521815E+04  5.368231E+04 -1.168440E+04 -5.172189E+04
       236   5  1.676942E+05 -1.440797E+03 -8.256570E+03  5.013115E+04 -7.547219E+03 -5.237293E+04
       236   6  1.671028E+05 -2.292743E+02 -4.644818E+03  5.367158E+04 -3.414865E+03 -5.081169E+04
       236   7 -5.768797E+05 -1.764547E+05 -1.269299E+05  5.554998E+04 -1.557053E+04 -5.173554E+04
       236   8 -5.343082E+05 -1.619241E+05 -1.085255E+05  5.038670E+04 -6.555050E+03 -5.237685E+04
       236   9 -4.937851E+05 -1.508826E+05 -9.686331E+04  5.231536E+04  2.456296E+03 -5.080463E+04
       236  10  9.116028E+05  1.658419E+05  9.647762E+04  5.181170E+04 -4.947823E-09 -3.839139E-09
       236  11  8.701940E+05  1.590172E+05  9.199979E+04  4.987468E+04 -1.431130E-09  2.285430E-09
       236  12  8.284331E+05  1.504018E+05  8.756334E+04  5.502869E+04  2.257340E-09  2.282464E-09
       236  13  1.670832E+05 -5.294771E+03 -1.522344E+04  5.368182E+04 -5.604691E-13 -2.429504E-09
       236  14  1.676934E+05 -1.443758E+03 -8.261832E+03  5.013083E+04  4.197336E-12  2.114867E-10
       236  15  1.671021E+05 -2.320501E+02 -4.649692E+03  5.367144E+04  9.981558E-11 -1.727158E-09
       236  16 -5.768806E+05 -1.764577E+05 -1.269354E+05  5.554933E+04  5.348215E-09 -6.035901E-10
       236  17 -5.343089E+05 -1.619271E+05 -1.085307E+05  5.038642E+04  1.714326E-09  1.016350E-09
       236  18 -4.937858E+05 -1.508854E+05 -9.686817E+04  5.231546E+04  9.410250E-10  6.015192E-10
       236  19  9.116036E+05  1.658448E+05  9.648276E+04  5.181203E+04  7.793787E+03  5.170828E+04
       236  20  8.701948E+05  1.590202E+05  9.200508E+04  4.987504E+04  8.540459E+03  5.236902E+04
       236  21  8.284339E+05  1.504046E+05  8.756836E+04  5.502907E+04  9.292002E+03  5.081877E+04
       236  22  1.670841E+05 -5.291862E+03 -1.521815E+04  5.368231E+04  1.168440E+04  5.172189E+04
       236  23  1.676942E+05 -1.440797E+03 -8.256570E+03  5.013115E+04  7.547219E+03  5.237293E+04
       236  24  1.671028E+05 -2.292743E+02 -4.644818E+03  5.367158E+04  3.414865E+03  5.081169E+04
       236  25 -5.768797E+05 -1.764547E+05 -1.269299E+05  5.554998E+04  1.557053E+04  5.173554E+04
       236  26 -5.343082E+05 -1.619241E+05 -1.085255E+05  5.038670E+04  6.555050E+03  5.237685E+04
       236  27 -4.937851E+05 -1.508826E+05 -9.686331E+04  5.231536E+04 -2.456296E+03  5.080463E+04
       237   1  8.026362E+05  1.444812E+05  8.455809E+04  5.480002E+04 -8.663242E+03 -4.918064E+04
       237   2  7.611482E+05  1.351667E+05  7.976214E+04  5.118584E+04 -8.293513E+03 -4.635720E+04
       237   3  7.195775E+05  1.257767E+05  7.470219E+04  5.481354E+04 -7.925429E+03 -4.325956E+04
       237   4  1.673339E+05 -1.212710E+02 -3.507290E+03  5.370589E+04 -2.725188E+03 -4.917275E+04
       237   5  1.674371E+05  1.402941E+02 -1.973528E+03  5.008436E+04 -1.750455E+03 -4.634685E+04
       237   6  1.673506E+05  2.213443E+02 -1.124191E+03  5.370510E+04 -7.773447E+02 -4.324664E+04
       237   7 -4.675590E+05 -1.447415E+05 -9.157734E+04  5.261271E+04  3.207067E+03 -4.916487E+04
       237   8 -4.259161E+05 -1.349015E+05 -8.371299E+04  4.898377E+04  4.786632E+03 -4.633653E+04
       237   9 -3.845665E+05 -1.253474E+05 -7.695372E+04  5.259752E+04  6.364674E+03 -4.323373E+04
       237  10  8.026354E+05  1.444786E+05  8.455341E+04  5.479968E+04  1.051018E-09  3.685978E-09
       237  11  7.611476E+05  1.351644E+05  7.975797E+04  5.118553E+04  4.017882E-09  2.878905E-09
       237  12  7.195769E+05  1.257747E+05  7.469855E+04  5.481326E+04  5.484102E-09 -2.932951E-10
       237  13  1.673333E+05 -1.238697E+02 -3.511848E+03  5.370579E+04  9.326062E-10 -2.586765E-09
       237  14  1.674365E+05  1.379865E+02 -1.977571E+03  5.008429E+04  5.349536E-10  2.483455E-09
       237  15  1.673501E+05  2.193357E+02 -1.127707E+03  5.370508E+04  1.741294E-09  3.608898E-09
       237  16 -4.675596E+05 -1.447441E+05 -9.158190E+04  5.261284E+04 -1.022656E-10  1.547630E-09
       237  17 -4.259167E+05 -1.349039E+05 -8.371707E+04  4.898395E+04 -1.734579E-09  3.147646E-09
       237  18 -3.845671E+05 -1.253494E+05 -7.695731E+04  5.259774E+04 -5.228744E-09  9.199855E-10
       237  19  8.026362E+05  1.444812E+05  8.455809E+04  5.480002E+04  8.663242E+03  4.918064E+04
       237  20  7.611482E+05  1.351667E+05  7.976214E+04  5.118584E+04  8.293513E+03  4.635720E+04
       237  21  7.195775E+05  1.257767E+05  7.470219E+04  5.481354E+04  7.925429E+03  4.325956E+04
       237  22  1.673339E+05 -1.212710E+02 -3.507290E+03  5.370589E+04  2.725188E+03  4.917275E+04
       237  23  1.674371E+05  1.402941E+02 -1.973528E+03  5.008436E+04  1.750455E+03  4.634685E+04
       237  24  1.673506E+05  2.213443E+02 -1.124191E+03  5.370510E+04  7.773447E+02  4.324664E+04
       237  25 -4.675590E+05 -1.447415E+05 -9.157734E+04  5.261271E+04 -3.207067E+03  4.916487E+04
       237  26 -4.259161E+05 -1.349015E+05 -8.371299E+04  4.898377E+04 -4.786632E+03  4.633653E+04
       237  27 -3.845665E+05 -1.253474E+05 -7.695372E+04  5.259752E+04 -6.364674E+03  4.323373E+04
       238   1  6.937331E+05  1.198606E+05  7.123352E+04  5.474838E+04 -7.759219E+03 -4.136598E+04
       238   2  6.522544E+05  1.104255E+05  6.591097E+04  5.104669E+04 -7.601570E+03 -3.811181E+04
       238   3  6.107379E+05  1.010272E+05  6.048652E+04  5.460034E+04 -7.444904E+03 -3.482412E+04
       238   4  1.673862E+05  2.255358E+02 -8.501700E+02  5.370818E+04 -6.048287E+02 -4.135238E+04
       238   5  1.674196E+05  2.247195E+02 -4.809989E+02  5.008033E+04 -3.735932E+02 -3.809702E+04
       238   6  1.673999E+05  2.477024E+02 -2.652344E+02  5.370815E+04 -1.433318E+02 -3.480814E+04
       238   7 -3.586792E+05 -1.194216E+05 -7.293664E+04  5.266873E+04  6.543775E+03 -4.133880E+04
       238   8 -3.171764E+05 -1.099863E+05 -6.687528E+04  4.911461E+04  6.848999E+03 -3.808225E+04
       238   9 -2.757383E+05 -1.005404E+05 -6.101890E+04  5.281649E+04  7.153266E+03 -3.479216E+04
       238  10  6.937326E+05  1.198587E+05  7.123019E+04  5.474812E+04  6.567447E-08 -2.759695E-10
       238  11  6.522540E+05  1.104240E+05  6.590813E+04  5.104646E+04 -6.803152E-10  6.908193E-09
       238  12  6.107375E+05  1.010259E+05  6.048413E+04  5.460013E+04 -6.850368E-08  4.998173E-09
       238  13  1.673857E+05  2.236993E+02 -8.533844E+02  5.370816E+04  2.916001E-11  7.424852E-10
       238  14  1.674192E+05  2.231608E+02 -4.837268E+02  5.008032E+04  1.243376E-09  6.791879E-09
       238  15  1.673996E+05  2.464012E+02 -2.675115E+02  5.370814E+04 -1.246726E-09  1.177716E-09
       238  16 -3.586797E+05 -1.194234E+05 -7.293993E+04  5.266894E+04 -6.584081E-08  8.581007E-10
       238  17 -3.171768E+05 -1.099879E+05 -6.687810E+04  4.911482E+04  1.604765E-10  2.103699E-09
       238  18 -2.757387E+05 -1.005417E+05 -6.102127E+04  5.281669E+04  6.800404E-08  8.516723E-10
       238  19  6.937331E+05  1.198606E+05  7.123352E+04  5.474838E+04  7.759219E+03  4.136598E+04
       238  20  6.522544E+05  1.104255E+05  6.591097E+04  5.104669E+04  7.601570E+03  3.811181E+04
       238  21  6.107379E+05  1.010272E+05  6.048652E+04  5.460034E+04  7.444904E+03  3.482412E+04
       238  22  1.673862E+05  2.255358E+02 -8.501700E+02  5.370818E+04  6.048287E+02  4.135238E+04
       238  23  1.674196E+05  2.247195E+02 -4.809989E+02  5.008033E+04  3.735932E+02  3.809702E+04
       238  24  1.673999E+05  2.477024E+02 -2.652344E+02  5.370815E+04  1.433318E+02  3.480814E+04
       238  25 -3.586792E+05 -1.194216E+05 -7.293664E+04  5.266873E+04 -6.543775E+03  4.133880E+04
       238  26 -3.171764E+05 -1.099863E+05 -6.687528E+04  4.911461E+04 -6.848999E+03  3.808225E+04
       238  27 -2.757383E+05 -1.005404E+05 -6.101890E+04  5.281649E+04 -7.153266E+03  3.479216E+04
       239   1  5.848992E+05  9.512603E+04  5.686785E+04  5.455431E+04 -7.407352E+03 -3.289979E+04
       239   2  5.434412E+05  8.570051E+04  5.136253E+04  5.085138E+04 -7.379026E+03 -2.959373E+04
       239   3  5.019533E+05  7.631613E+04  4.583735E+04  5.440596E+04 -7.351406E+03 -2.628414E+04
       239   4  1.674087E+05  2.505787E+02 -1.930485E+02  5.370863E+04 -1.060263E+02 -3.288327E+04
       239   5  1.674302E+05  2.375379E+02 -8.830421E+01  5.007974E+04 -7.013188E+01 -2.957639E+04
       239   6  1.674193E+05  2.645168E+02 -8.638812E+00  5.370861E+04 -3.494191E+01 -2.626599E+04
       239   7 -2.499046E+05 -9.463244E+04 -5.725557E+04  5.286342E+04  7.190616E+03 -3.286677E+04
       239   8 -2.084370E+05 -8.523157E+04 -5.154044E+04  4.930849E+04  7.234539E+03 -2.955907E+04
       239   9 -1.670009E+05 -7.579196E+04 -4.585563E+04  5.301158E+04  7.277760E+03 -2.624785E+04
       239  10  5.848988E+05  9.512485E+04  5.686571E+04  5.455412E+04  1.050200E-08 -2.920543E-11
       239  11  5.434409E+05  8.569955E+04  5.136078E+04  5.085120E+04  8.656242E-11 -1.841103E-09
       239  12  5.019531E+05  7.631537E+04  4.583595E+04  5.440581E+04 -8.285993E-09 -1.806667E-09
       239  13  1.674084E+05  2.494175E+02 -1.950807E+02  5.370862E+04  1.193917E-09  6.220120E-09
       239  14  1.674300E+05  2.365984E+02 -8.994819E+01  5.007973E+04 -1.011565E-09 -1.085153E-09
       239  15  1.674191E+05  2.637759E+02 -9.935376E+00  5.370861E+04  7.639772E-10 -2.844572E-09
       239  16 -2.499049E+05 -9.463361E+04 -5.725770E+04  5.286361E+04 -9.671099E-09  2.873112E-09
       239  17 -2.084373E+05 -8.523253E+04 -5.154218E+04  4.930866E+04  1.734891E-09 -9.929772E-10
       239  18 -1.670011E+05 -7.579271E+04 -4.585702E+04  5.301174E+04  8.495151E-09 -3.295694E-09
       239  19  5.848992E+05  9.512603E+04  5.686785E+04  5.455431E+04  7.407352E+03  3.289979E+04
       239  20  5.434412E+05  8.570051E+04  5.136253E+04  5.085138E+04  7.379026E+03  2.959373E+04
       239  21  5.019533E+05  7.631613E+04  4.583735E+04  5.440596E+04  7.351406E+03  2.628414E+04
       239  22  1.674087E+05  2.505787E+02 -1.930485E+02  5.370863E+04  1.060263E+02  3.288327E+04
       239  23  1.674302E+05  2.375379E+02 -8.830421E+01  5.007974E+04  7.013188E+01  2.957639E+04
       239  24  1.674193E+05  2.645168E+02 -8.638812E+00  5.370861E+04  3.494191E+01  2.626599E+04
       239  25 -2.499046E+05 -9.463244E+04 -5.725557E+04  5.286342E+04 -7.190616E+03  3.286677E+04
       239  26 -2.084370E+05 -8.523157E+04 -5.154044E+04  4.930849E+04 -7.234539E+03  2.955907E+04
       239  27 -1.670009E+05 -7.579196E+04 -4.585563E+04  5.301158E+04 -7.277760E+03  2.624785E+04
       240   1  4.761281E+05  7.041988E+04  4.219067E+04  5.435917E+04 -7.356837E+03 -2.435684E+04
       240   2  4.346842E+05  6.100265E+04  3.667417E+04  5.064839E+04 -7.417450E+03 -2.104642E+04
       240   3  3.932194E+05  5.164055E+04  3.119723E+04  5.419126E+04 -7.478551E+03 -1.773728E+04
       240   4  1.674247E+05  2.681121E+02  2.782433E+01  5.370775E+04 -4.121655E+01 -2.433830E+04
       240   5  1.674396E+05  2.583387E+02  1.111525E+02  5.008079E+04 -1.048852E+02 -2.102732E+04
       240   6  1.674323E+05  3.042702E+02  2.360215E+02  5.370767E+04 -1.690455E+02 -1.771763E+04
       240   7 -1.411817E+05 -6.988778E+04 -4.213581E+04  5.305660E+04  7.270933E+03 -2.431976E+04
       240   8 -9.973235E+04 -6.048906E+04 -3.645242E+04  4.951341E+04  7.204676E+03 -2.100822E+04
       240   9 -5.830288E+04 -5.103421E+04 -3.072554E+04  5.322422E+04  7.137923E+03 -1.769797E+04
       240  10  4.761279E+05  7.041923E+04  4.218945E+04  5.435902E+04 -1.169275E-09  5.078877E-09
       240  11  4.346840E+05  6.100216E+04  3.667324E+04  5.064826E+04 -5.046988E-09  2.820410E-09
       240  12  3.932192E+05  5.164020E+04  3.119654E+04  5.419116E+04 -4.575185E-09  2.692997E-09
       240  13  1.674246E+05  2.674760E+02  2.671110E+01  5.370775E+04 -1.083621E-09  1.744769E-09
       240  14  1.674395E+05  2.578639E+02  1.103215E+02  5.008079E+04  5.321495E-10  1.373984E-09
       240  15  1.674322E+05  3.039331E+02  2.354315E+02  5.370766E+04 -8.473552E-10  2.720022E-09
       240  16 -1.411819E+05 -6.988843E+04 -4.213702E+04  5.305674E+04  4.417802E-09  1.423343E-09
       240  17 -9.973252E+04 -6.048955E+04 -3.645335E+04  4.951353E+04  3.303340E-09 -6.637939E-09
       240  18 -5.830302E+04 -5.103456E+04 -3.072623E+04  5.322432E+04  3.389792E-09 -1.169033E-09
       240  19  4.761281E+05  7.041988E+04  4.219067E+04  5.435917E+04  7.356837E+03  2.435684E+04
       240  20  4.346842E+05  6.100265E+04  3.667417E+04  5.064839E+04  7.417450E+03  2.104642E+04
       240  21  3.932194E+05  5.164055E+04  3.119723E+04  5.419126E+04  7.478551E+03  1.773728E+04
       240  22  1.674247E+05  2.681121E+02  2.782433E+01  5.370775E+04  4.121655E+01  2.433830E+04
       240  23  1.674396E+05  2.583387E+02  1.111525E+02  5.008079E+04  1.048852E+02  2.102732E+04
       240  24  1.674323E+05  3.042702E+02  2.360215E+02  5.370767E+04  1.690455E+02  1.771763E+04
       240  25 -1.411817E+05 -6.988778E+04 -4.213581E+04  5.305660E+04 -7.270933E+03  2.431976E+04
       240  26 -9.973235E+04 -6.048906E+04 -3.645242E+04  4.951341E+04 -7.204676E+03  2.100822E+04
       240  27 -5.830288E+04 -5.103421E+04 -3.072554E+04  5.322422E+04 -7.137923E+03  1.769797E+04
       241   1  3.674174E+05  4.575232E+04  2.760033E+04  5.415550E+04 -7.530000E+03 -1.581144E+04
       241   2  3.259536E+05  3.641413E+04  2.225811E+04  5.032570E+04 -7.807727E+03 -1.250955E+04
       241   3  2.845370E+05  2.730535E+04  1.713909E+04  5.374604E+04 -8.085697E+03 -9.219308E+03
       241   4  1.674502E+05  3.143765E+02  3.224030E+02  5.370695E+04 -2.214420E+02 -1.579152E+04
       241   5  1.674278E+05  3.838244E+02  5.887229E+02  5.008133E+04 -5.251351E+02 -1.248936E+04
       241   6  1.674547E+05  6.870790E+02  1.095948E+03  5.370594E+04 -8.290858E+02 -9.198869E+03
       241   7 -3.247620E+04 -4.512527E+04 -2.695573E+04  5.325853E+04  7.084870E+03 -1.577160E+04
       241   8  8.927657E+03 -3.564755E+04 -2.108073E+04  4.983701E+04  6.755683E+03 -1.246919E+04
       241   9  5.038639E+04 -2.593177E+04 -1.494714E+04  5.366583E+04  6.426219E+03 -9.178428E+03
       241  10  3.674173E+05  4.575203E+04  2.759975E+04  5.415541E+04 -5.728893E-09  6.440223E-09
       241  11  3.259535E+05  3.641394E+04  2.225770E+04  5.032562E+04 -4.147470E-10  8.843032E-10
       241  12  2.845369E+05  2.730524E+04  1.713881E+04  5.374598E+04  5.962791E-09  4.931252E-09
       241  13  1.674502E+05  3.141087E+02  3.219342E+02  5.370695E+04 -2.157957E-09  3.877969E-09
       241  14  1.674278E+05  3.836568E+02  5.884292E+02  5.008133E+04 -5.431513E-10  4.136097E-09
       241  15  1.674546E+05  6.869880E+02  1.095787E+03  5.370593E+04  3.353363E-10 -7.151523E-10
       241  16 -3.247632E+04 -4.512556E+04 -2.695629E+04  5.325862E+04  6.324846E-09  2.817533E-09
       241  17  8.927567E+03 -3.564773E+04 -2.108111E+04  4.983708E+04 -6.276402E-10  1.540649E-09
       241  18  5.038632E+04 -2.593187E+04 -1.494738E+04  5.366588E+04 -9.577690E-09 -7.506945E-09
       241  19  3.674174E+05  4.575232E+04  2.760033E+04  5.415550E+04  7.530000E+03  1.581144E+04
       241  20  3.259536E+05  3.641413E+04  2.225811E+04  5.032570E+04  7.807727E+03  1.250955E+04
       241  21  2.845370E+05  2.730535E+04  1.713909E+04  5.374604E+04  8.085697E+03  9.219308E+03
       241  22  1.674502E+05  3.143765E+02  3.224030E+02  5.370695E+04  2.214420E+02  1.579152E+04
       241  23  1.674278E+05  3.838244E+02  5.887229E+02  5.008133E+04  5.251351E+02  1.248936E+04
       241  24  1.674547E+05  6.870790E+02  1.095948E+03  5.370594E+04  8.290858E+02  9.198869E+03
       241  25 -3.247620E+04 -4.512527E+04 -2.695573E+04  5.325853E+04 -7.084870E+03  1.577160E+04
       241  26  8.927657E+03 -3.564755E+04 -2.108073E+04  4.983701E+04 -6.755683E+03  1.246919E+04
       241  27  5.038639E+04 -2.593177E+04 -1.494714E+04  5.366583E+04 -6.426219E+03  9.178428E+03
       242   1  2.588640E+05  2.152711E+04  1.380966E+04  5.383398E+04 -8.277882E+03 -7.304792E+03
       242   2  2.171059E+05  1.323011E+04  9.354210E+03  4.845637E+04 -9.465814E+03 -4.070301E+03
       242   3  1.760158E+05  7.184177E+03  6.218969E+03  5.031832E+04 -1.065354E+04 -9.283729E+02
       242   4  1.676008E+05  8.101349E+02  1.466087E+03  5.370449E+04 -1.024318E+03 -7.284231E+03
       242   5  1.672502E+05  1.943317E+03  2.707509E+03  5.007836E+04 -2.416812E+03 -4.050243E+03
       242   6  1.676018E+05  5.363324E+03  5.411202E+03  5.369173E+04 -3.809166E+03 -9.088304E+02
       242   7  7.634619E+04 -1.990717E+04 -1.087736E+04  5.357502E+04  6.228230E+03 -7.263671E+03
       242   8  1.173972E+05 -9.343546E+03 -3.939024E+03  5.170021E+04  4.631651E+03 -4.030147E+03
       242   9  1.591881E+05  3.542536E+03  4.603618E+03  5.706508E+04  3.035119E+03 -8.892135E+02
       242  10  2.588639E+05  2.152703E+04  1.380943E+04  5.383393E+04 -2.910902E-09  5.859396E-09
       242  11  2.171058E+05  1.323007E+04  9.354010E+03  4.845634E+04 -3.232012E-09  2.161993E-09
       242  12  1.760157E+05  7.184146E+03  6.218755E+03  5.031832E+04 -2.807609E-10  8.802953E-10
       242  13  1.676008E+05  8.100776E+02  1.465985E+03  5.370449E+04 -9.629468E-10  7.544828E-09
       242  14  1.672502E+05  1.943298E+03  2.707467E+03  5.007835E+04  9.625759E-10 -8.173206E-09
       242  15  1.676018E+05  5.363319E+03  5.411173E+03  5.369172E+04 -7.770701E-10  3.219977E-09
       242  16  7.634613E+04 -1.990724E+04 -1.087754E+04  5.357506E+04  2.534841E-09 -8.552928E-10
       242  17  1.173971E+05 -9.343569E+03 -3.939095E+03  5.170022E+04  2.550108E-09  3.424540E-10
       242  18  1.591881E+05  3.542532E+03  4.603600E+03  5.706508E+04 -4.788779E-10 -9.700894E-10
       242  19  2.588640E+05  2.152711E+04  1.380966E+04  5.383398E+04  8.277882E+03  7.304792E+03
       242  20  2.171059E+05  1.323011E+04  9.354210E+03  4.845637E+04  9.465814E+03  4.070301E+03
       242  21  1.760158E+05  7.184177E+03  6.218969E+03  5.031832E+04  1.065354E+04  9.283729E+02
       242  22  1.676008E+05  8.101349E+02  1.466087E+03  5.370449E+04  1.024318E+03  7.284231E+03
       242  23  1.672502E+05  1.943317E+03  2.707509E+03  5.007836E+04  2.416812E+03  4.050243E+03
       242  24  1.676018E+05  5.363324E+03  5.411202E+03  5.369173E+04  3.809166E+03  9.088304E+02
       242  25  7.634619E+04 -1.990717E+04 -1.087736E+04  5.357502E+04 -6.228230E+03  7.263671E+03
       242  26  1.173972E+05 -9.343546E+03 -3.939024E+03  5.170021E+04 -4.631651E+03  4.030147E+03
       242  27  1.591881E+05  3.542536E+03  4.603618E+03  5.706508E+04 -3.035119E+03  8.892135E+02
       243   1 -2.259208E+04  4.474513E+05 -1.697040E+04 -8.952462E+04 -3.769872E+03 -1.134609E+04
       243   2 -5.024577E+04  3.811790E+05 -2.885476E+04 -7.629639E+04 -1.453137E+04 -1.075298E+04
       243   3 -6.893316E+04  3.170292E+05 -3.890243E+04 -7.607049E+04 -2.179146E+04 -1.015406E+04
       243   4  2.004377E+04  6.221950E+05  2.182519E+04 -7.658236E+04 -3.810546E+03  1.329043E+04
       243   5  5.806312E+03  6.205349E+05  1.230490E+04 -7.009556E+04 -1.455939E+04  6.987676E+03
       243   6  1.730003E+03  6.221895E+05  9.406360E+03 -7.660991E+04 -2.180747E+04  6.907893E+02
       243   7  6.267851E+04  7.969688E+05  6.062125E+04 -6.363641E+04 -3.850188E+03  3.793380E+04
       243   8  6.185565E+04  8.599477E+05  5.346383E+04 -6.389224E+04 -1.458705E+04  2.473495E+04
       243   9  7.238861E+04  9.274427E+05  5.771325E+04 -7.714957E+04 -2.182349E+04  1.154077E+04
       243  10 -2.259213E+04  4.474511E+05 -1.697067E+04 -8.952466E+04  9.134034E-10 -1.259264E-09
       243  11 -5.024603E+04  3.811788E+05 -2.885538E+04 -7.629651E+04  5.477542E-10 -4.553921E-09
       243  12 -6.893370E+04  3.170290E+05 -3.890352E+04 -7.607066E+04  9.236111E-10 -6.344019E-11
       243  13  2.004370E+04  6.221948E+05  2.182483E+04 -7.658232E+04 -6.852408E-10 -1.708719E-09
       243  14  5.806071E+03  6.205348E+05  1.230441E+04 -7.009548E+04  2.376395E-10 -3.366592E-09
       243  15  1.729492E+03  6.221894E+05  9.405465E+03 -7.660990E+04  1.059020E-09  1.468230E-11
       243  16  6.267811E+04  7.969673E+05  6.061852E+04 -6.363629E+04 -1.033912E-10  1.936738E-09
       243  17  6.185526E+04  8.599470E+05  5.346228E+04 -6.389195E+04  2.085660E-09  2.174400E-09
       243  18  7.238806E+04  9.274425E+05  5.771210E+04 -7.714937E+04 -6.554888E-10  1.927690E-09
       243  19 -2.259208E+04  4.474513E+05 -1.697040E+04 -8.952462E+04  3.769872E+03  1.134609E+04
       243  20 -5.024577E+04  3.811790E+05 -2.885476E+04 -7.629639E+04  1.453137E+04  1.075298E+04
       243  21 -6.893316E+04  3.170292E+05 -3.890243E+04 -7.607049E+04  2.179146E+04  1.015406E+04
       243  22  2.004377E+04  6.221950E+05  2.182519E+04 -7.658236E+04  3.810546E+03 -1.329043E+04
       243  23  5.806312E+03  6.205349E+05  1.230490E+04 -7.009556E+04  1.455939E+04 -6.987676E+03
       243  24  1.730003E+03  6.221895E+05  9.406360E+03 -7.660991E+04  2.180747E+04 -6.907893E+02
       243  25  6.267851E+04  7.969688E+05  6.062125E+04 -6.363641E+04  3.850188E+03 -3.793380E+04
       243  26  6.185565E+04  8.599477E+05  5.346383E+04 -6.389224E+04  1.458705E+04 -2.473495E+04
       243  27  7.238861E+04  9.274427E+05  5.771325E+04 -7.714957E+04  2.182349E+04 -1.154077E+04
       244   1 -7.859574E+04  2.753955E+05 -4.524021E+04 -7.723326E+04 -2.495591E+04 -1.182275E+04
       244   2 -9.371215E+04  2.096188E+05 -5.346927E+04 -6.910166E+04 -2.957620E+04 -1.368283E+04
       244   3 -1.061145E+05  1.447378E+05 -5.981819E+04 -7.365277E+04 -3.224222E+04 -1.553914E+04
       244   4  1.557455E+03  6.217938E+05  9.316450E+03 -7.653681E+04 -2.497158E+04 -7.992631E+02
       244   5  1.506049E+03  6.210047E+05  1.140906E+04 -7.019326E+04 -2.958488E+04 -6.509676E+03
       244   6  4.835756E+03  6.217739E+05  1.805252E+04 -7.653168E+04 -3.224455E+04 -1.221651E+04
       244   7  8.170478E+04  9.683119E+05  6.387060E+04 -7.583991E+04 -2.498722E+04  1.023015E+04
       244   8  9.671590E+04  1.032559E+06  7.628338E+04 -7.128554E+04 -2.959357E+04  6.680583E+02
       244   9  1.157744E+05  1.099035E+06  9.591681E+04 -7.941279E+04 -3.224690E+04 -8.891414E+03
       244  10 -7.859644E+04  2.753951E+05 -4.524164E+04 -7.723350E+04  1.009443E-09  6.192417E-10
       244  11 -9.371314E+04  2.096183E+05 -5.347126E+04 -6.910199E+04  2.354900E-09 -4.269321E-09
       244  12 -1.061157E+05  1.447373E+05 -5.982060E+04 -7.365317E+04 -2.795703E-10 -1.572625E-09
       244  13  1.556785E+03  6.217937E+05  9.315277E+03 -7.653683E+04 -7.830947E-10 -1.641059E-09
       244  14  1.505098E+03  6.210044E+05  1.140733E+04 -7.019342E+04  6.151436E-10 -3.338615E-09
       244  15  4.834600E+03  6.217735E+05  1.805028E+04 -7.653200E+04 -1.636967E-09 -4.682619E-10
       244  16  8.170409E+04  9.683117E+05  6.386923E+04 -7.583970E+04 -1.761411E-09  8.292122E-11
       244  17  9.671496E+04  1.032559E+06  7.628173E+04 -7.128553E+04 -8.465260E-10  2.372149E-09
       244  18  1.157733E+05  1.099035E+06  9.591470E+04 -7.941302E+04  4.786525E-10  3.371170E-09
       244  19 -7.859574E+04  2.753955E+05 -4.524021E+04 -7.723326E+04  2.495591E+04  1.182275E+04
       244  20 -9.371215E+04  2.096188E+05 -5.346927E+04 -6.910166E+04  2.957620E+04  1.368283E+04
       244  21 -1.061145E+05  1.447378E+05 -5.981819E+04 -7.365277E+04  3.224222E+04  1.553914E+04
       244  22  1.557455E+03  6.217938E+05  9.316450E+03 -7.653681E+04  2.497158E+04  7.992631E+02
       244  23  1.506049E+03  6.210047E+05  1.140906E+04 -7.019326E+04  2.958488E+04  6.509676E+03
       244  24  4.835756E+03  6.217739E+05  1.805252E+04 -7.653168E+04  3.224455E+04  1.221651E+04
       244  25  8.170478E+04  9.683119E+05  6.387060E+04 -7.583991E+04  2.498722E+04 -1.023015E+04
       244  26  9.671590E+04  1.032559E+06  7.628338E+04 -7.128554E+04  2.959357E+04 -6.680583E+02
       244  27  1.157744E+05  1.099035E+06  9.591681E+04 -7.941279E+04  3.224690E+04  8.891414E+03
       245   1 -1.156283E+05  1.049025E+05 -6.314435E+04 -7.717570E+04 -3.383758E+04 -1.915353E+04
       245   2 -1.165174E+05  3.572159E+04 -6.756989E+04 -4.563204E+04 -2.850500E+04 -1.160061E+04
       245   3 -8.389865E+04 -2.606301E+04 -6.853026E+04 -2.573280E+04 -8.551291E+03 -4.033642E+03
       245   4  5.455799E+03  6.241710E+05  2.323050E+04 -7.630866E+04 -3.384029E+04 -1.529370E+04
       245   5  2.175839E+04  6.179604E+05  4.141228E+04 -7.044153E+04 -2.847065E+04 -3.652567E+04
       245   6  7.654345E+04  6.241247E+05  8.303228E+04 -7.621663E+04 -8.486812E+03 -5.774319E+04
       245   7  1.265260E+05  1.143706E+06  1.095972E+05 -7.544076E+04 -3.384300E+04 -1.143075E+04
       245   8  1.600172E+05  1.200530E+06  1.503825E+05 -9.527475E+04 -2.843434E+04 -6.147351E+04
       245   9  2.369667E+05  1.274714E+06  2.345784E+05 -1.267536E+05 -8.413639E+03 -1.115086E+05
       245  10 -1.156297E+05  1.049018E+05 -6.314719E+04 -7.717622E+04  3.043464E-10 -9.577701E-10
       245  11 -1.165183E+05  3.572123E+04 -6.757167E+04 -4.563231E+04  2.992395E-09 -3.523264E-09
       245  12 -8.389873E+04 -2.606305E+04 -6.853042E+04 -2.573282E+04  7.003217E-10 -1.965147E-10
       245  13  5.454506E+03  6.241705E+05  2.322791E+04 -7.630907E+04 -3.638980E-10 -1.398098E-09
       245  14  2.175716E+04  6.179588E+05  4.140826E+04 -7.044237E+04  4.244876E-10 -2.542551E-09
       245  15  7.654248E+04  6.241211E+05  8.302589E+04 -7.621702E+04  4.214032E-10 -2.622236E-10
       245  16  1.265247E+05  1.143705E+06  1.095948E+05 -7.544108E+04  3.389187E-10  1.546126E-09
       245  17  1.600153E+05  1.200525E+06  1.503739E+05 -9.527615E+04  1.750383E-09  2.446527E-09
       245  18  2.369633E+05  1.274700E+06  2.345549E+05 -1.267543E+05 -1.469543E-09  1.950285E-09
       245  19 -1.156283E+05  1.049025E+05 -6.314435E+04 -7.717570E+04  3.383758E+04  1.915353E+04
       245  20 -1.165174E+05  3.572159E+04 -6.756989E+04 -4.563204E+04  2.850500E+04  1.160061E+04
       245  21 -8.389865E+04 -2.606301E+04 -6.853026E+04 -2.573280E+04  8.551291E+03  4.033642E+03
       245  22  5.455799E+03  6.241710E+05  2.323050E+04 -7.630866E+04  3.384029E+04  1.529370E+04
       245  23  2.175839E+04  6.179604E+05  4.141228E+04 -7.044153E+04  2.847065E+04  3.652567E+04
       245  24  7.654345E+04  6.241247E+05  8.303228E+04 -7.621663E+04  8.486812E+03  5.774319E+04
       245  25  1.265260E+05  1.143706E+06  1.095972E+05 -7.544076E+04  3.384300E+04  1.143075E+04
       245  26  1.600172E+05  1.200530E+06  1.503825E+05 -9.527475E+04  2.843434E+04  6.147351E+04
       245  27  2.369667E+05  1.274714E+06  2.345784E+05 -1.267536E+05  8.413639E+03  1.115086E+05
       246   1  1.019853E+06  3.294117E+05  1.553386E+05  3.685579E+05  5.028958E+04  6.099894E+03
       246   2  9.590361E+05  3.301325E+05  1.201909E+05  3.528039E+05  3.328820E+04 -3.098795E+04
       246   3  8.910147E+05  3.271860E+05  1.021939E+05  3.489379E+05  9.400652E+03 -4.978188E+04
       246   4  2.178726E+05  5.310667E+04 -4.357595E+04  1.731943E+05 -2.424045E+04 -2.199229E+04
       246   5  2.275695E+05  7.504318E+04 -2.076827E+04  1.610897E+05 -3.368356E+03 -4.481414E+04
       246   6  2.225556E+05  8.580701E+04 -1.079943E+04  1.608753E+05  1.060947E+04 -4.933203E+04
       246   7 -5.834332E+05 -2.231631E+05 -2.425062E+05 -2.194017E+04 -9.866182E+04 -5.005084E+04
       246   8 -5.033235E+05 -1.800027E+05 -1.617402E+05 -3.041538E+04 -3.997774E+04 -5.862432E+04
       246   9 -4.454266E+05 -1.555261E+05 -1.238040E+05 -2.699748E+04  1.181691E+04 -4.888271E+04
       246  10  1.019850E+06  3.294110E+05  1.553338E+05  3.685577E+05 -1.149833E-07 -4.434758E-08
       246  11  9.590347E+05  3.301312E+05  1.201870E+05  3.528047E+05 -1.060990E-08 -1.097801E-08
       246  12  8.910139E+05  3.271833E+05  1.021891E+05  3.489383E+05  1.108493E-07  4.235536E-08
       246  13  2.178719E+05  5.310599E+04 -4.357797E+04  1.731939E+05 -4.484892E-09 -7.933740E-10
       246  14  2.275690E+05  7.504102E+04 -2.077207E+04  1.610895E+05 -2.215437E-08 -9.447570E-09
       246  15  2.225548E+05  8.580436E+04 -1.080421E+04  1.608757E+05 -1.479840E-08 -5.884951E-09
       246  16 -5.834443E+05 -2.231684E+05 -2.425292E+05 -2.194415E+04  1.018160E-07  3.795710E-08
       246  17 -5.033262E+05 -1.800068E+05 -1.617497E+05 -3.041727E+04 -2.528420E-08 -1.246343E-08
       246  18 -4.454274E+05 -1.555287E+05 -1.238088E+05 -2.699701E+04 -1.282508E-07 -5.264013E-08
       246  19  1.019853E+06  3.294117E+05  1.553386E+05  3.685579E+05 -5.028958E+04 -6.099894E+03
       246  20  9.590361E+05  3.301325E+05  1.201909E+05  3.528039E+05 -3.328820E+04  3.098795E+04
       246  21  8.910147E+05  3.271860E+05  1.021939E+05  3.489379E+05 -9.400652E+03  4.978188E+04
       246  22  2.178726E+05  5.310667E+04 -4.357595E+04  1.731943E+05  2.424045E+04  2.199229E+04
       246  23  2.275695E+05  7.504318E+04 -2.076827E+04  1.610897E+05  3.368356E+03  4.481414E+04
       246  24  2.225556E+05  8.580701E+04 -1.079943E+04  1.608753E+05 -1.060947E+04  4.933203E+04
       246  25 -5.834332E+05 -2.231631E+05 -2.425062E+05 -2.194017E+04  9.866182E+04  5.005084E+04
       246  26 -5.033235E+05 -1.800027E+05 -1.617402E+05 -3.041538E+04  3.997774E+04  5.862432E+04
       246  27 -4.454266E+05 -1.555261E+05 -1.238040E+05 -2.699748E+04 -1.181691E+04  4.888271E+04
       247   1  8.561026E+05  3.132864E+05  9.620722E+04  3.379971E+05  1.094083E+04 -4.813569E+04
       247   2  8.026446E+05  2.905063E+05  8.619421E+04  3.179467E+05  8.446882E+03 -4.764647E+04
       247   3  7.416278E+05  2.748231E+05  7.753145E+04  3.068362E+05  5.198503E+03 -4.516032E+04
       247   4  2.235528E+05  8.671897E+04 -8.027373E+03  1.613425E+05  1.147212E+04 -4.794101E+04
       247   5  2.279169E+05  8.473302E+04 -4.179039E+03  1.564418E+05  1.311060E+04 -4.589171E+04
       247   6  2.239015E+05  8.902554E+04 -2.254032E+03  1.604807E+05  1.399414E+04 -4.184444E+04
       247   7 -4.085781E+05 -1.398117E+05 -1.122735E+05 -1.514634E+04  1.200286E+04 -4.774654E+04
       247   8 -3.464592E+05 -1.210073E+05 -9.455904E+04 -4.923824E+03  1.776979E+04 -4.413865E+04
       247   9 -2.935357E+05 -9.674314E+04 -8.204329E+04  1.423999E+04  2.278203E+04 -3.853149E+04
       247  10  8.561018E+05  3.132839E+05  9.620264E+04  3.379976E+05  3.323752E-10  1.699774E-09
       247  11  8.026439E+05  2.905039E+05  8.618981E+04  3.179470E+05  7.608017E-10  1.265959E-09
       247  12  7.416273E+05  2.748209E+05  7.752756E+04  3.068364E+05 -2.601970E-09  2.938907E-09
       247  13  2.235520E+05  8.671646E+04 -8.031940E+03  1.613429E+05 -5.382160E-09 -1.427169E-09
       247  14  2.279162E+05  8.473071E+04 -4.183320E+03  1.564423E+05  6.825300E-10  2.399010E-10
       247  15  2.239008E+05  8.902361E+04 -2.257691E+03  1.604812E+05 -2.562212E-09 -2.878080E-09
       247  16 -4.085789E+05 -1.398142E+05 -1.122781E+05 -1.514588E+04 -4.726379E-09 -6.256934E-09
       247  17 -3.464600E+05 -1.210094E+05 -9.456329E+04 -4.923192E+03 -1.606694E-09 -2.345907E-09
       247  18 -2.935367E+05 -9.674488E+04 -8.204706E+04  1.424069E+04 -6.045322E-09 -3.724877E-09
       247  19  8.561026E+05  3.132864E+05  9.620722E+04  3.379971E+05 -1.094083E+04  4.813569E+04
       247  20  8.026446E+05  2.905063E+05  8.619421E+04  3.179467E+05 -8.446882E+03  4.764647E+04
       247  21  7.416278E+05  2.748231E+05  7.753145E+04  3.068362E+05 -5.198503E+03  4.516032E+04
       247  22  2.235528E+05  8.671897E+04 -8.027373E+03  1.613425E+05 -1.147212E+04  4.794101E+04
       247  23  2.279169E+05  8.473302E+04 -4.179039E+03  1.564418E+05 -1.311060E+04  4.589171E+04
       247  24  2.239015E+05  8.902554E+04 -2.254032E+03  1.604807E+05 -1.399414E+04  4.184444E+04
       247  25 -4.085781E+05 -1.398117E+05 -1.122735E+05 -1.514634E+04 -1.200286E+04  4.774654E+04
       247  26 -3.464592E+05 -1.210073E+05 -9.455904E+04 -4.923824E+03 -1.776979E+04  4.413865E+04
       247  27 -2.935357E+05 -9.674314E+04 -8.204329E+04  1.423999E+04 -2.278203E+04  3.853149E+04
       248   1  7.060302E+05  2.618899E+05  7.211476E+04  2.967178E+05  4.621262E+03 -4.247957E+04
       248   2  6.531990E+05  2.377808E+05  6.385647E+04  2.763250E+05  2.993450E+03 -3.815815E+04
       248   3  5.926500E+05  2.213953E+05  5.559841E+04  2.647210E+05  1.282531E+03 -3.362022E+04
       248   4  2.240002E+05  8.909319E+04 -1.682355E+03  1.605377E+05  1.334008E+04 -3.919167E+04
       248   5  2.279267E+05  8.535210E+04 -9.011074E+02  1.561193E+05  1.216008E+04 -3.469969E+04
       248   6  2.240418E+05  8.924576E+04 -4.753960E+02  1.604888E+05  1.089694E+04 -2.999108E+04
       248   7 -2.577727E+05 -8.367616E+04 -7.548086E+04  2.445886E+04  2.205165E+04 -3.590651E+04
       248   8 -1.971499E+05 -6.705697E+04 -6.566080E+04  3.599107E+04  2.132008E+04 -3.124373E+04
       248   9 -1.444237E+05 -4.289062E+04 -5.655188E+04  5.631371E+04  2.050543E+04 -2.636416E+04
       248  10  7.060296E+05  2.618879E+05  7.211133E+04  2.967179E+05 -1.503893E-09  7.837516E-09
       248  11  6.531986E+05  2.377792E+05  6.385372E+04  2.763251E+05 -2.456290E-09 -2.663589E-09
       248  12  5.926497E+05  2.213940E+05  5.559628E+04  2.647211E+05 -3.612683E-09  2.274065E-09
       248  13  2.239996E+05  8.909150E+04 -1.685576E+03  1.605382E+05 -1.296962E-09  5.809531E-10
       248  14  2.279262E+05  8.535077E+04 -9.036483E+02  1.561196E+05  3.152472E-10 -6.129748E-09
       248  15  2.240414E+05  8.924476E+04 -4.773097E+02  1.604891E+05 -4.750556E-10  1.507739E-09
       248  16 -2.577735E+05 -8.367767E+04 -7.548420E+04  2.445949E+04 -5.611307E-09 -3.593447E-09
       248  17 -1.971506E+05 -6.705814E+04 -6.566349E+04  3.599161E+04 -1.087355E-09 -2.596871E-10
       248  18 -1.444244E+05 -4.289148E+04 -5.655398E+04  5.631415E+04  2.513147E-10  1.322996E-09
       248  19  7.060302E+05  2.618899E+05  7.211476E+04  2.967178E+05 -4.621262E+03  4.247957E+04
       248  20  6.531990E+05  2.377808E+05  6.385647E+04  2.763250E+05 -2.993450E+03  3.815815E+04
       248  21  5.926500E+05  2.213953E+05  5.559841E+04  2.647210E+05 -1.282531E+03  3.362022E+04
       248  22  2.240002E+05  8.909319E+04 -1.682355E+03  1.605377E+05 -1.334008E+04  3.919167E+04
       248  23  2.279267E+05  8.535210E+04 -9.011074E+02  1.561193E+05 -1.216008E+04  3.469969E+04
       248  24  2.240418E+05  8.924576E+04 -4.753960E+02  1.604888E+05 -1.089694E+04  2.999108E+04
       248  25 -2.577727E+05 -8.367616E+04 -7.548086E+04  2.445886E+04 -2.205165E+04  3.590651E+04
       248  26 -1.971499E+05 -6.705697E+04 -6.566080E+04  3.599107E+04 -2.132008E+04  3.124373E+04
       248  27 -1.444237E+05 -4.289062E+04 -5.655188E+04  5.631371E+04 -2.050543E+04  2.636416E+04
       249   1  5.570430E+05  2.085851E+05  5.004944E+04  2.546687E+05  3.360976E+02 -3.088041E+04
       249   2  5.042911E+05  1.844522E+05  4.173789E+04  2.342630E+05 -1.392695E+03 -2.621767E+04
       249   3  4.438060E+05  1.680624E+05  3.340842E+04  2.226430E+05 -3.130479E+03 -2.153345E+04
       249   4  2.240578E+05  8.925304E+04 -3.418277E+02  1.604951E+05  9.940199E+03 -2.725436E+04
       249   5  2.279372E+05  8.539453E+04 -1.449103E+02  1.561021E+05  8.255552E+03 -2.257392E+04
       249   6  2.240709E+05  8.926988E+04 -1.575136E+00  1.604934E+05  6.561920E+03 -1.787200E+04
       249   7 -1.088070E+05 -3.006677E+04 -5.073409E+04  6.636919E+04  1.953886E+04 -2.363038E+04
       249   8 -4.833195E+04 -1.365403E+04 -4.202782E+04  7.797454E+04  1.789920E+04 -1.893190E+04
       249   9  4.390967E+03  1.048375E+04 -3.341105E+04  9.836538E+04  1.625058E+04 -1.421197E+04
       249  10  5.570427E+05  2.085840E+05  5.004765E+04  2.546687E+05  3.816800E-09  3.807254E-09
       249  11  5.042909E+05  1.844514E+05  4.173660E+04  2.342630E+05  3.024463E-09  4.072390E-09
       249  12  4.438058E+05  1.680619E+05  3.340753E+04  2.226430E+05  3.483512E-09  3.864939E-10
       249  13  2.240575E+05  8.925222E+04 -3.434095E+02  1.604953E+05 -1.849748E-09  2.705969E-09
       249  14  2.279370E+05  8.539397E+04 -1.459961E+02  1.561023E+05 -2.748723E-09 -4.623583E-09
       249  15  2.240707E+05  8.926953E+04 -2.256381E+00  1.604935E+05  4.657669E-10 -1.144519E-09
       249  16 -1.088076E+05 -3.006748E+04 -5.073586E+04  6.636957E+04 -6.116017E-09 -1.344213E-09
       249  17 -4.833239E+04 -1.365450E+04 -4.202909E+04  7.797481E+04 -3.938642E-09 -3.377242E-09
       249  18  4.390629E+03  1.048346E+04 -3.341193E+04  9.836556E+04 -4.444265E-09 -2.960647E-09
       249  19  5.570430E+05  2.085851E+05  5.004944E+04  2.546687E+05 -3.360976E+02  3.088041E+04
       249  20  5.042911E+05  1.844522E+05  4.173789E+04  2.342630E+05  1.392695E+03  2.621767E+04
       249  21  4.438060E+05  1.680624E+05  3.340842E+04  2.226430E+05  3.130479E+03  2.153345E+04
       249  22  2.240578E+05  8.925304E+04 -3.418277E+02  1.604951E+05 -9.940199E+03  2.725436E+04
       249  23  2.279372E+05  8.539453E+04 -1.449103E+02  1.561021E+05 -8.255552E+03  2.257392E+04
       249  24  2.240709E+05  8.926988E+04 -1.575136E+00  1.604934E+05 -6.561920E+03  1.787200E+04
       249  25 -1.088070E+05 -3.006677E+04 -5.073409E+04  6.636919E+04 -1.953886E+04  2.363038E+04
       249  26 -4.833195E+04 -1.365403E+04 -4.202782E+04  7.797454E+04 -1.789920E+04  1.893190E+04
       249  27  4.390967E+03  1.048375E+04 -3.341105E+04  9.836538E+04 -1.625058E+04  1.421197E+04
       250   1  4.082161E+05  1.552674E+05  2.782400E+04  2.126009E+05 -4.164302E+03 -1.880711E+04
       250   2  3.554818E+05  1.311415E+05  1.952366E+04  1.922083E+05 -6.022964E+03 -1.416191E+04
       250   3  2.950251E+05  1.147601E+05  1.129202E+04  1.806028E+05 -7.878355E+03 -9.526442E+03
       250   4  2.240805E+05  8.927234E+04  6.441300E+01  1.604960E+05  5.526049E+03 -1.514599E+04
       250   5  2.279431E+05  8.539859E+04  2.232706E+02  1.561037E+05  3.647005E+03 -1.050798E+04
       250   6  2.240851E+05  8.927347E+04  4.669950E+02  1.604975E+05  1.771233E+03 -5.879725E+03
       250   7  3.997959E+04  2.328020E+04 -2.769584E+04  1.084052E+05  1.521348E+04 -1.148597E+04
       250   8  1.004214E+05  3.965718E+04 -1.907715E+04  1.200058E+05  1.331494E+04 -6.854821E+03
       250   9  1.531506E+05  6.378744E+04 -1.035771E+04  1.403944E+05  1.141966E+04 -2.233448E+03
       250  10  4.082160E+05  1.552670E+05  2.782331E+04  2.126008E+05 -2.825340E-09  1.145653E-09
       250  11  3.554817E+05  1.311413E+05  1.952321E+04  1.922082E+05  1.066183E-08  1.200626E-08
       250  12  2.950250E+05  1.147600E+05  1.129173E+04  1.806028E+05  1.555795E-08  6.719008E-09
       250  13  2.240805E+05  8.927208E+04  6.392446E+01  1.604961E+05  5.937092E-09  1.964571E-09
       250  14  2.279431E+05  8.539847E+04  2.230381E+02  1.561037E+05  1.269179E-08  5.798798E-09
       250  15  2.240850E+05  8.927344E+04  4.669241E+02  1.604975E+05  3.255291E-09  5.661723E-09
       250  16  3.997931E+04  2.327999E+04 -2.769652E+04  1.084053E+05  1.480827E-08  1.128129E-09
       250  17  1.004212E+05  3.965708E+04 -1.907758E+04  1.200059E+05  1.187547E-08  5.820600E-10
       250  18  1.531505E+05  6.378740E+04 -1.035796E+04  1.403944E+05 -3.105408E-09 -4.829037E-09
       250  19  4.082161E+05  1.552674E+05  2.782400E+04  2.126009E+05  4.164302E+03  1.880711E+04
       250  20  3.554818E+05  1.311415E+05  1.952366E+04  1.922083E+05  6.022964E+03  1.416191E+04
       250  21  2.950251E+05  1.147601E+05  1.129202E+04  1.806028E+05  7.878355E+03  9.526442E+03
       250  22  2.240805E+05  8.927234E+04  6.441300E+01  1.604960E+05 -5.526049E+03  1.514599E+04
       250  23  2.279431E+05  8.539859E+04  2.232706E+02  1.561037E+05 -3.647005E+03  1.050798E+04
       250  24  2.240851E+05  8.927347E+04  4.669950E+02  1.604975E+05 -1.771233E+03  5.879725E+03
       250  25  3.997959E+04  2.328020E+04 -2.769584E+04  1.084052E+05 -1.521348E+04  1.148597E+04
       250  26  1.004214E+05  3.965718E+04 -1.907715E+04  1.200058E+05 -1.331494E+04  6.854821E+03
       250  27  1.531506E+05  6.378744E+04 -1.035771E+04  1.403944E+05 -1.141966E+04  2.233448E+03
       251   1  2.594478E+05  1.019749E+05  5.802920E+03  1.705858E+05 -8.999820E+03 -6.842074E+03
       251   2  2.067111E+05  7.783367E+04 -2.204704E+03  1.501682E+05 -1.111316E+04 -2.368276E+03
       251   3  1.463255E+05  6.151509E+04 -9.914100E+03  1.385224E+05 -1.318578E+04  1.998173E+03
       251   4  2.241067E+05  8.927116E+04  6.384661E+02  1.605051E+05  6.530655E+02 -3.194002E+03
       251   5  2.279207E+05  8.540955E+04  1.186217E+03  1.560927E+05 -1.682844E+03  1.195594E+03
       251   6  2.241260E+05  8.941407E+04  2.208097E+03  1.604506E+05 -3.978075E+03  5.477849E+03
       251   7  1.887676E+05  7.656778E+04 -4.525481E+03  1.504251E+05  1.030526E+04  4.538049E+02
       251   8  2.491311E+05  9.298556E+04  4.577511E+03  1.620174E+05  7.747816E+03  4.759590E+03
       251   9  3.019342E+05  1.173141E+05  1.433082E+04  1.823816E+05  5.230958E+03  8.958026E+03
       251  10  2.594477E+05  1.019749E+05  5.802680E+03  1.705858E+05 -4.985415E-09 -2.883417E-10
       251  11  2.067109E+05  7.783363E+04 -2.204946E+03  1.501682E+05 -4.383379E-09  3.994737E-09
       251  12  1.463253E+05  6.151504E+04 -9.914434E+03  1.385225E+05  3.509410E-09  2.241256E-09
       251  13  2.241067E+05  8.927115E+04  6.384461E+02  1.605051E+05 -4.242107E-09  6.209436E-09
       251  14  2.279207E+05  8.540955E+04  1.186209E+03  1.560927E+05 -1.990126E-09  3.451587E-09
       251  15  2.241260E+05  8.941403E+04  2.208011E+03  1.604506E+05 -1.147054E-09 -4.259322E-09
       251  16  1.887675E+05  7.656775E+04 -4.525680E+03  1.504251E+05  3.743495E-09  7.149771E-10
       251  17  2.491310E+05  9.298552E+04  4.577356E+03  1.620174E+05  6.525690E-10  6.091662E-09
       251  18  3.019342E+05  1.173140E+05  1.433062E+04  1.823816E+05  1.587743E-09  1.639961E-09
       251  19  2.594478E+05  1.019749E+05  5.802920E+03  1.705858E+05  8.999820E+03  6.842074E+03
       251  20  2.067111E+05  7.783367E+04 -2.204704E+03  1.501682E+05  1.111316E+04  2.368276E+03
       251  21  1.463255E+05  6.151509E+04 -9.914100E+03  1.385224E+05  1.318578E+04 -1.998173E+03
       251  22  2.241067E+05  8.927116E+04  6.384661E+02  1.605051E+05 -6.530655E+02  3.194002E+03
       251  23  2.279207E+05  8.540955E+04  1.186217E+03  1.560927E+05  1.682844E+03 -1.195594E+03
       251  24  2.241260E+05  8.941407E+04  2.208097E+03  1.604506E+05  3.978075E+03 -5.477849E+03
       251  25  1.887676E+05  7.656778E+04 -4.525481E+03  1.504251E+05 -1.030526E+04 -4.538049E+02
       251  26  2.491311E+05  9.298556E+04  4.577511E+03  1.620174E+05 -7.747816E+03 -4.759590E+03
       251  27  3.019342E+05  1.173141E+05  1.433082E+04  1.823816E+05 -5.230958E+03 -8.958026E+03
       252   1  1.107122E+05  4.884114E+04 -1.497358E+04  1.286656E+05 -1.461527E+04  4.467813E+03
       252   2  5.851910E+04  2.448994E+04 -2.195035E+04  1.072383E+05 -1.684217E+04  8.172760E+03
       252   3 -7.325574E+02  9.210389E+03 -2.800849E+04  9.419138E+04 -1.869658E+04  1.089312E+04
       252   4  2.242895E+05  8.944654E+04  2.958083E+03  1.604857E+05 -5.371271E+03  7.961017E+03
       252   5  2.278255E+05  8.618052E+04  5.473482E+03  1.557390E+05 -9.635284E+03  1.089559E+04
       252   6  2.247029E+05  9.238881E+04  1.052152E+04  1.593710E+05 -1.352692E+04  1.284570E+04
       252   7  3.378807E+05  1.300533E+05  2.088986E+04  1.923113E+05  3.874513E+03  1.145489E+04
       252   8  3.971618E+05  1.478739E+05  3.289664E+04  2.042519E+05 -2.426360E+03  1.361920E+04
       252   9  4.501898E+05  1.755719E+05  4.904948E+04  2.245722E+05 -8.355315E+03  1.479904E+04
       252  10  1.107120E+05  4.884106E+04 -1.497402E+04  1.286657E+05  6.790639E-09 -4.308924E-10
       252  11  5.851878E+04  2.448979E+04 -2.195101E+04  1.072384E+05 -3.708623E-10 -1.993332E-09
       252  12 -7.329647E+02  9.210167E+03 -2.800937E+04  9.419155E+04 -1.436497E-09 -9.284810E-09
       252  13  2.242894E+05  8.944646E+04  2.957910E+03  1.604858E+05 -2.679089E-09  2.459854E-09
       252  14  2.278254E+05  8.618037E+04  5.473085E+03  1.557390E+05 -1.420494E-09 -4.591174E-09
       252  15  2.247027E+05  9.238858E+04  1.052087E+04  1.593712E+05 -1.171021E-09 -6.665939E-09
       252  16  3.378807E+05  1.300532E+05  2.088959E+04  1.923113E+05 -1.881446E-09  2.705222E-09
       252  17  3.971617E+05  1.478737E+05  3.289628E+04  2.042519E+05 -6.347768E-10 -3.440910E-09
       252  18  4.501896E+05  1.755716E+05  4.904894E+04  2.245723E+05  8.432869E-10 -1.623748E-09
       252  19  1.107122E+05  4.884114E+04 -1.497358E+04  1.286656E+05  1.461527E+04 -4.467813E+03
       252  20  5.851910E+04  2.448994E+04 -2.195035E+04  1.072383E+05  1.684217E+04 -8.172760E+03
       252  21 -7.325574E+02  9.210389E+03 -2.800849E+04  9.419138E+04  1.869658E+04 -1.089312E+04
       252  22  2.242895E+05  8.944654E+04  2.958083E+03  1.604857E+05  5.371271E+03 -7.961017E+03
       252  23  2.278255E+05  8.618052E+04  5.473482E+03  1.557390E+05  9.635284E+03 -1.089559E+04
       252  24  2.247029E+05  9.238881E+04  1.052152E+04  1.593710E+05  1.352692E+04 -1.284570E+04
       252  25  3.378807E+05  1.300533E+05  2.088986E+04  1.923113E+05 -3.874513E+03 -1.145489E+04
       252  26  3.971618E+05  1.478739E+05  3.289664E+04  2.042519E+05  2.426360E+03 -1.361920E+04
       252  27  4.501898E+05  1.755719E+05  4.904948E+04  2.245722E+05  8.355315E+03 -1.479904E+04
       253   1 -3.666899E+04 -1.837634E+03 -3.154574E+04  8.587258E+04 -2.131557E+04  1.200888E+04
       253   2 -7.889819E+04 -2.883937E+04 -3.654756E+04  4.835075E+04 -1.603574E+04  1.189615E+04
       253   3 -1.213934E+05 -2.886024E+04 -3.947759E+04  1.336268E+04 -7.352843E+03  2.768589E+03
       253   4  2.263786E+05  9.317683E+04  1.415602E+04  1.595505E+05 -1.581573E+04  1.408592E+04
       253   5  2.277176E+05  9.926982E+04  2.720959E+04  1.501866E+05 -2.917430E+04  6.931815E+03
       253   6  2.324777E+05  1.360293E+05  5.710658E+04  1.433569E+05 -3.913116E+04 -9.234509E+03
       253   7  4.895042E+05  1.881999E+05  5.985715E+04  2.332588E+05 -1.031332E+04  1.616393E+04
       253   8  5.344312E+05  2.273954E+05  9.096244E+04  2.520718E+05 -4.231978E+04  1.964031E+03
       253   9  5.864681E+05  3.009449E+05  1.536816E+05  2.734225E+05 -7.092849E+04 -2.124889E+04
       253  10 -3.666951E+04 -1.837910E+03 -3.154687E+04  8.587279E+04 -2.738282E-09 -6.518459E-09
       253  11 -7.889851E+04 -2.883959E+04 -3.654831E+04  4.835090E+04 -1.031073E-09  4.274504E-09
       253  12 -1.213935E+05 -2.886027E+04 -3.947771E+04  1.336270E+04 -3.872382E-10  2.850306E-09
       253  13  2.263782E+05  9.317655E+04  1.415518E+04  1.595507E+05 -1.515302E-10  2.077568E-09
       253  14  2.277167E+05  9.926954E+04  2.720790E+04  1.501868E+05 -3.530175E-09  4.324327E-09
       253  15  2.324760E+05  1.360288E+05  5.710355E+04  1.433566E+05  1.124064E-09  5.221250E-09
       253  16  4.895040E+05  1.881996E+05  5.985646E+04  2.332590E+05  2.996104E-09  9.499050E-10
       253  17  5.344293E+05  2.273949E+05  9.095907E+04  2.520719E+05 -5.345999E-10 -1.462113E-09
       253  18  5.864626E+05  3.009431E+05  1.536713E+05  2.734213E+05  1.652433E-09 -3.499608E-09
       253  19 -3.666899E+04 -1.837634E+03 -3.154574E+04  8.587258E+04  2.131557E+04 -1.200888E+04
       253  20 -7.889819E+04 -2.883937E+04 -3.654756E+04  4.835075E+04  1.603574E+04 -1.189615E+04
       253  21 -1.213934E+05 -2.886024E+04 -3.947759E+04  1.336268E+04  7.352843E+03 -2.768589E+03
       253  22  2.263786E+05  9.317683E+04  1.415602E+04  1.595505E+05  1.581573E+04 -1.408592E+04
       253  23  2.277176E+05  9.926982E+04  2.720959E+04  1.501866E+05  2.917430E+04 -6.931815E+03
       253  24  2.324777E+05  1.360293E+05  5.710658E+04  1.433569E+05  3.913116E+04  9.234509E+03
       253  25  4.895042E+05  1.881999E+05  5.985715E+04  2.332588E+05  1.031332E+04 -1.616393E+04
       253  26  5.344312E+05  2.273954E+05  9.096244E+04  2.520718E+05  4.231978E+04 -1.964031E+03
       253  27  5.864681E+05  3.009449E+05  1.536816E+05  2.734225E+05  7.092849E+04  2.124889E+04
       254   1  1.751973E+05  2.091562E+04  1.432777E+04  2.033517E+03 -1.865479E+04 -8.576224E+02
       254   2  1.734461E+05  4.572581E+04  2.866799E+04 -1.608173E+03 -1.247234E+04 -2.357482E+03
       254   3  1.634405E+05  4.026191E+04  3.144266E+04  6.229506E+03 -6.295763E+03 -1.918208E+03
       254   4  5.439208E+03 -2.148053E+04 -2.800325E+04  4.510441E+03 -1.912885E+04 -8.590790E+02
       254   5  9.599061E+03  4.830785E+03 -1.199881E+04 -1.261551E+03 -1.257559E+04 -2.357857E+03
       254   6  5.437859E+03  7.993300E+02 -7.819674E+03  4.446028E+03 -6.028132E+03 -1.917321E+03
       254   7 -1.642927E+05 -6.387883E+04 -7.033644E+04  6.986669E+03 -1.960278E+04 -8.605397E+02
       254   8 -1.542236E+05 -3.606625E+04 -5.266761E+04 -9.150393E+02 -1.267881E+04 -2.358232E+03
       254   9 -1.525421E+05 -3.866512E+04 -4.708387E+04  2.662985E+03 -5.760568E+03 -1.916434E+03
       254  10  1.751969E+05  2.091553E+04  1.432712E+04  2.033504E+03 -2.052687E-09  2.216334E-09
       254  11  1.734459E+05  4.572576E+04  2.866769E+04 -1.608196E+03  2.941376E-09  1.284398E-08
       254  12  1.634404E+05  4.026190E+04  3.144258E+04  6.229496E+03  1.950612E-11  5.927695E-09
       254  13  5.438815E+03 -2.148063E+04 -2.800394E+04  4.510427E+03 -1.082081E-09 -3.315212E-09
       254  14  9.598890E+03  4.830736E+03 -1.199911E+04 -1.261575E+03  1.174182E-09 -7.587201E-09
       254  15  5.437819E+03  7.993163E+02 -7.819749E+03  4.446019E+03 -1.349904E-09  2.267360E-09
       254  16 -1.642931E+05 -6.387893E+04 -7.033716E+04  6.986655E+03  2.212448E-09  1.785532E-09
       254  17 -1.542238E+05 -3.606630E+04 -5.266792E+04 -9.150634E+02 -1.005216E-09  1.133666E-08
       254  18 -1.525421E+05 -3.866513E+04 -4.708394E+04  2.662977E+03 -1.375514E-10 -8.935684E-10
       254  19  1.751973E+05  2.091562E+04  1.432777E+04  2.033517E+03  1.865479E+04  8.576224E+02
       254  20  1.734461E+05  4.572581E+04  2.866799E+04 -1.608173E+03  1.247234E+04  2.357482E+03
       254  21  1.634405E+05  4.026191E+04  3.144266E+04  6.229506E+03  6.295763E+03  1.918208E+03
       254  22  5.439208E+03 -2.148053E+04 -2.800325E+04  4.510441E+03  1.912885E+04  8.590790E+02
       254  23  9.599061E+03  4.830785E+03 -1.199881E+04 -1.261551E+03  1.257559E+04  2.357857E+03
       254  24  5.437859E+03  7.993300E+02 -7.819674E+03  4.446028E+03  6.028132E+03  1.917321E+03
       254  25 -1.642927E+05 -6.387883E+04 -7.033644E+04  6.986669E+03  1.960278E+04  8.605397E+02
       254  26 -1.542236E+05 -3.606625E+04 -5.266761E+04 -9.150393E+02  1.267881E+04  2.358232E+03
       254  27 -1.525421E+05 -3.866512E+04 -4.708387E+04  2.662985E+03  5.760568E+03  1.916434E+03
       255   1  1.308855E+05  2.778111E+04  2.431838E+04  4.388440E+03 -4.711468E+03 -1.490239E+03
       255   2  1.256930E+05  3.017478E+04  2.621613E+04 -1.021287E+03 -3.142292E+03 -1.519344E+03
       255   3  1.191985E+05  2.816840E+04  2.599314E+04  4.988084E+03 -1.574266E+03 -1.264351E+03
       255   4  6.998664E+03 -3.149143E+03 -6.466210E+03  4.462736E+03 -4.744753E+03 -1.490378E+03
       255   5  7.654170E+03  7.044883E+02 -3.102929E+03 -1.252703E+03 -3.121306E+03 -1.519285E+03
       255   6  6.997731E+03  1.481635E+02 -1.898398E+03  4.451100E+03 -1.498998E+03 -1.264073E+03
       255   7 -1.168742E+05 -3.408055E+04 -3.725195E+04  4.537005E+03 -4.778030E+03 -1.490516E+03
       255   8 -1.103721E+05 -2.876685E+04 -3.242303E+04 -1.484087E+03 -3.100325E+03 -1.519226E+03
       255   9 -1.051916E+05 -2.787302E+04 -2.979088E+04  3.914202E+03 -1.423742E+03 -1.263795E+03
       255  10  1.308854E+05  2.778111E+04  2.431834E+04  4.388434E+03 -1.036696E-09 -1.611483E-09
       255  11  1.256930E+05  3.017477E+04  2.621611E+04 -1.021291E+03  7.934214E-10  1.609909E-09
       255  12  1.191985E+05  2.816840E+04  2.599313E+04  4.988083E+03  1.375794E-09  6.291433E-09
       255  13  6.998640E+03 -3.149152E+03 -6.466256E+03  4.462731E+03 -1.905734E-11  1.104115E-08
       255  14  7.654159E+03  7.044832E+02 -3.102952E+03 -1.252707E+03 -1.552908E-09 -2.250341E-08
       255  15  6.997728E+03  1.481612E+02 -1.898405E+03  4.451099E+03  1.209731E-09  1.070839E-08
       255  16 -1.168742E+05 -3.408056E+04 -3.725200E+04  4.537000E+03  1.456364E-09 -1.061449E-08
       255  17 -1.103721E+05 -2.876685E+04 -3.242305E+04 -1.484091E+03 -2.379464E-09 -2.097920E-09
       255  18 -1.051916E+05 -2.787302E+04 -2.979088E+04  3.914201E+03 -1.896750E-09  1.259299E-09
       255  19  1.308855E+05  2.778111E+04  2.431838E+04  4.388440E+03  4.711468E+03  1.490239E+03
       255  20  1.256930E+05  3.017478E+04  2.621613E+04 -1.021287E+03  3.142292E+03  1.519344E+03
       255  21  1.191985E+05  2.816840E+04  2.599314E+04  4.988084E+03  1.574266E+03  1.264351E+03
       255  22  6.998664E+03 -3.149143E+03 -6.466210E+03  4.462736E+03  4.744753E+03  1.490378E+03
       255  23  7.654170E+03  7.044883E+02 -3.102929E+03 -1.252703E+03  3.121306E+03  1.519285E+03
       255  24  6.997731E+03  1.481635E+02 -1.898398E+03  4.451100E+03  1.498998E+03  1.264073E+03
       255  25 -1.168742E+05 -3.408055E+04 -3.725195E+04  4.537005E+03  4.778030E+03  1.490516E+03
       255  26 -1.103721E+05 -2.876685E+04 -3.242303E+04 -1.484087E+03  3.100325E+03  1.519226E+03
       255  27 -1.051916E+05 -2.787302E+04 -2.979088E+04  3.914202E+03  1.423742E+03  1.263795E+03
       256   1  8.536933E+04  1.907048E+04  1.788751E+04  4.630251E+03 -1.224032E+03 -1.091820E+03
       256   2  7.967448E+04  1.814841E+04  1.721482E+04 -1.037994E+03 -8.499637E+02 -9.077292E+02
       256   3  7.371414E+04  1.666334E+04  1.614225E+04  4.691564E+03 -4.761242E+02 -6.823117E+02
       256   4  7.232187E+03 -4.361751E+02 -1.509963E+03  4.451655E+03 -1.192836E+03 -1.091705E+03
       256   5  7.365317E+03  9.365026E+01 -7.487105E+02 -1.248276E+03 -8.108754E+02 -9.075765E+02
       256   6  7.231609E+03  5.907286E+01 -3.928295E+02  4.449680E+03 -4.291396E+02 -6.821192E+02
       256   7 -7.089941E+04 -1.994329E+04 -2.090789E+04  4.273075E+03 -1.161645E+03 -1.091590E+03
       256   8 -6.493910E+04 -1.796151E+04 -1.871263E+04 -1.458537E+03 -7.717916E+02 -9.074239E+02
       256   9 -5.924691E+04 -1.654552E+04 -1.692824E+04  4.207819E+03 -3.821601E+02 -6.819267E+02
       256  10  8.536933E+04  1.907048E+04  1.788750E+04  4.630250E+03 -3.058977E-11 -5.405443E-09
       256  11  7.967448E+04  1.814841E+04  1.721482E+04 -1.037995E+03  8.861340E-10 -3.702673E-09
       256  12  7.371414E+04  1.666334E+04  1.614225E+04  4.691563E+03  2.148930E-09 -4.087779E-09
       256  13  7.232185E+03 -4.361768E+02 -1.509968E+03  4.451653E+03  2.155291E-09 -1.549204E-09
       256  14  7.365316E+03  9.364920E+01 -7.487133E+02 -1.248276E+03  1.608857E-09 -5.181092E-09
       256  15  7.231609E+03  5.907231E+01 -3.928307E+02  4.449680E+03 -1.070786E-09 -5.044670E-09
       256  16 -7.089941E+04 -1.994329E+04 -2.090790E+04  4.273074E+03  3.266426E-09 -4.317498E-09
       256  17 -6.493910E+04 -1.796151E+04 -1.871264E+04 -1.458538E+03 -3.053025E-09  9.213617E-09
       256  18 -5.924691E+04 -1.654552E+04 -1.692825E+04  4.207819E+03 -3.420345E-10  1.051251E-08
       256  19  8.536933E+04  1.907048E+04  1.788751E+04  4.630251E+03  1.224032E+03  1.091820E+03
       256  20  7.967448E+04  1.814841E+04  1.721482E+04 -1.037994E+03  8.499637E+02  9.077292E+02
       256  21  7.371414E+04  1.666334E+04  1.614225E+04  4.691564E+03  4.761242E+02  6.823117E+02
       256  22  7.232187E+03 -4.361751E+02 -1.509963E+03  4.451655E+03  1.192836E+03  1.091705E+03
       256  23  7.365317E+03  9.365026E+01 -7.487105E+02 -1.248276E+03  8.108754E+02  9.075765E+02
       256  24  7.231609E+03  5.907286E+01 -3.928295E+02  4.449680E+03  4.291396E+02  6.821192E+02
       256  25 -7.089941E+04 -1.994329E+04 -2.090789E+04  4.273075E+03  1.161645E+03  1.091590E+03
       256  26 -6.493910E+04 -1.796151E+04 -1.871263E+04 -1.458537E+03  7.717916E+02  9.074239E+02
       256  27 -5.924691E+04 -1.654552E+04 -1.692824E+04  4.207819E+03  3.821601E+02  6.819267E+02
       257   1  3.972419E+04  8.066575E+03  7.778007E+03  4.547224E+03 -4.109886E+02 -5.477219E+02
       257   2  3.395419E+04  6.647432E+03  6.595240E+03 -1.160502E+03 -4.013243E+02 -3.333095E+02
       257   3  2.807811E+04  5.274482E+03  5.393885E+03  4.518325E+03 -3.917064E+02 -1.137638E+02
       257   4  7.268444E+03 -3.399248E+01 -2.675605E+02  4.448107E+03 -3.703089E+02 -5.475513E+02
       257   5  7.321473E+03 -2.746453E+00 -2.141850E+01 -1.245417E+03 -3.596608E+02 -3.331321E+02
       257   6  7.268231E+03  7.452127E+01  2.054510E+02  4.447643E+03 -3.490588E+02 -1.135797E+02
       257   7 -2.518635E+04 -8.134638E+03 -8.313207E+03  4.348995E+03 -3.296314E+02 -5.473806E+02
       257   8 -1.931060E+04 -6.652978E+03 -6.638131E+03 -1.330328E+03 -3.179990E+02 -3.329549E+02
       257   9 -1.354126E+04 -5.125472E+03 -4.983015E+03  4.376964E+03 -3.064127E+02 -1.133955E+02
       257  10  3.972419E+04  8.066574E+03  7.778006E+03  4.547224E+03 -3.614313E-09 -9.541072E-09
       257  11  3.395419E+04  6.647432E+03  6.595240E+03 -1.160503E+03 -5.466179E-10  6.178561E-09
       257  12  2.807811E+04  5.274481E+03  5.393884E+03  4.518325E+03 -2.908208E-10 -2.542364E-09
       257  13  7.268444E+03 -3.399284E+01 -2.675613E+02  4.448107E+03 -1.079305E-09  1.535133E-09
       257  14  7.321473E+03 -2.746607E+00 -2.141895E+01 -1.245417E+03 -3.509944E-11 -2.952207E-09
       257  15  7.268231E+03  7.452122E+01  2.054508E+02  4.447643E+03  2.171195E-09 -8.830589E-09
       257  16 -2.518635E+04 -8.134639E+03 -8.313208E+03  4.348994E+03  3.147396E-09  3.399642E-09
       257  17 -1.931060E+04 -6.652978E+03 -6.638131E+03 -1.330328E+03  4.990401E-10  1.343782E-08
       257  18 -1.354126E+04 -5.125472E+03 -4.983015E+03  4.376964E+03  1.005815E-10 -1.353318E-09
       257  19  3.972419E+04  8.066575E+03  7.778007E+03  4.547224E+03  4.109886E+02  5.477219E+02
       257  20  3.395419E+04  6.647432E+03  6.595240E+03 -1.160502E+03  4.013243E+02  3.333095E+02
       257  21  2.807811E+04  5.274482E+03  5.393885E+03  4.518325E+03  3.917064E+02  1.137638E+02
       257  22  7.268444E+03 -3.399248E+01 -2.675605E+02  4.448107E+03  3.703089E+02  5.475513E+02
       257  23  7.321473E+03 -2.746452E+00 -2.141850E+01 -1.245417E+03  3.596608E+02  3.331321E+02
       257  24  7.268231E+03  7.452127E+01  2.054510E+02  4.447643E+03  3.490588E+02  1.135797E+02
       257  25 -2.518635E+04 -8.134638E+03 -8.313207E+03  4.348995E+03  3.296314E+02  5.473806E+02
       257  26 -1.931060E+04 -6.652978E+03 -6.638131E+03 -1.330328E+03  3.179990E+02  3.329549E+02
       257  27 -1.354126E+04 -5.125472E+03 -4.983015E+03  4.376964E+03  3.064127E+02  1.133955E+02
       258   1 -5.902328E+03 -3.279107E+03 -2.970467E+03  4.421707E+03 -4.405236E+02  1.565384E+01
       258   2 -1.173897E+04 -4.813183E+03 -4.065574E+03 -1.308971E+03 -7.734926E+02  2.337099E+02
       258   3 -1.754591E+04 -5.924369E+03 -4.862657E+03  4.345504E+03 -1.106415E+03  4.468751E+02
       258   4  7.298542E+03  2.072315E+01  3.275650E+02  4.447910E+03 -3.979194E+02  1.583818E+01
       258   5  7.283750E+03 -6.305759E+01  6.605630E+02 -1.245200E+03 -7.318374E+02  2.338882E+02
       258   6  7.298698E+03  2.761913E+02  1.292216E+03  4.446819E+03 -1.065712E+03  4.470477E+02
       258   7  2.049957E+04  3.320540E+03  3.625584E+03  4.474113E+03 -3.553142E+02  1.602252E+01
       258   8  2.630680E+04  4.687041E+03  5.386673E+03 -1.181428E+03 -6.901809E+02  2.340666E+02
       258   9  3.214386E+04  6.476705E+03  7.447043E+03  4.548138E+03 -1.025008E+03  4.472202E+02
       258  10 -5.902329E+03 -3.279107E+03 -2.970467E+03  4.421707E+03 -1.242773E-09 -6.929868E-09
       258  11 -1.173897E+04 -4.813184E+03 -4.065575E+03 -1.308970E+03  1.041375E-09 -8.895564E-09
       258  12 -1.754591E+04 -5.924369E+03 -4.862660E+03  4.345504E+03 -3.006303E-09 -6.531104E-09
       258  13  7.298542E+03  2.072311E+01  3.275647E+02  4.447910E+03  1.101556E-09  4.471098E-09
       258  14  7.283749E+03 -6.305779E+01  6.605619E+02 -1.245200E+03 -2.151776E-09 -7.348041E-09
       258  15  7.298696E+03  2.761908E+02  1.292213E+03  4.446820E+03  2.180002E-09 -6.892661E-09
       258  16  2.049957E+04  3.320540E+03  3.625584E+03  4.474113E+03  3.020882E-09 -6.075356E-09
       258  17  2.630680E+04  4.687041E+03  5.386672E+03 -1.181428E+03 -1.476230E-09 -1.993826E-08
       258  18  3.214386E+04  6.476705E+03  7.447040E+03  4.548138E+03  3.261958E-09 -1.234217E-08
       258  19 -5.902328E+03 -3.279107E+03 -2.970467E+03  4.421707E+03  4.405236E+02 -1.565384E+01
       258  20 -1.173897E+04 -4.813183E+03 -4.065574E+03 -1.308971E+03  7.734926E+02 -2.337099E+02
       258  21 -1.754591E+04 -5.924369E+03 -4.862657E+03  4.345504E+03  1.106415E+03 -4.468751E+02
       258  22  7.298542E+03  2.072315E+01  3.275650E+02  4.447910E+03  3.979194E+02 -1.583818E+01
       258  23  7.283750E+03 -6.305759E+01  6.605630E+02 -1.245200E+03  7.318374E+02 -2.338882E+02
       258  24  7.298698E+03  2.761913E+02  1.292216E+03  4.446819E+03  1.065712E+03 -4.470477E+02
       258  25  2.049957E+04  3.320540E+03  3.625584E+03  4.474113E+03  3.553142E+02 -1.602252E+01
       258  26  2.630680E+04  4.687041E+03  5.386673E+03 -1.181428E+03  6.901809E+02 -2.340666E+02
       258  27  3.214386E+04  6.476705E+03  7.447043E+03  4.548138E+03  1.025008E+03 -4.472202E+02
       259   1 -5.141481E+04 -1.471944E+04 -1.297309E+04  4.375988E+03 -1.381045E+03  5.798285E+02
       259   2 -5.759642E+04 -1.654119E+04 -1.326621E+04 -1.484351E+03 -2.808864E+03  7.978546E+02
       259   3 -6.306632E+04 -1.591854E+04 -1.203622E+04  4.041360E+03 -4.236475E+03  9.765382E+02
       259   4  7.449547E+03 -1.779008E+01  1.670145E+03  4.450062E+03 -1.334346E+03  5.800227E+02
       259   5  7.093312E+03 -3.870582E+02  2.805811E+03 -1.246369E+03 -2.769850E+03  7.980099E+02
       259   6  7.450091E+03  1.689290E+03  5.469842E+03  4.443178E+03 -4.205160E+03  9.766559E+02
       259   7  6.631705E+04  1.468360E+04  1.631312E+04  4.524141E+03 -1.287642E+03  5.802170E+02
       259   8  7.178684E+04  1.576675E+04  1.887752E+04 -1.008365E+03 -2.730833E+03  7.981653E+02
       259   9  7.797101E+04  1.929674E+04  2.297553E+04  4.845036E+03 -4.173842E+03  9.767735E+02
       259  10 -5.141482E+04 -1.471944E+04 -1.297309E+04  4.375988E+03 -4.542894E-09 -3.672281E-09
       259  11 -5.759643E+04 -1.654119E+04 -1.326623E+04 -1.484349E+03  1.449852E-09 -7.704043E-09
       259  12 -6.306634E+04 -1.591854E+04 -1.203626E+04  4.041364E+03  1.486491E-09  2.536356E-09
       259  13  7.449545E+03 -1.779092E+01  1.670141E+03  4.450063E+03  2.167081E-09 -9.728497E-10
       259  14  7.093303E+03 -3.870610E+02  2.805795E+03 -1.246367E+03 -1.110988E-09  4.473365E-09
       259  15  7.450072E+03  1.689285E+03  5.469807E+03  4.443181E+03 -1.916742E-09  7.873748E-09
       259  16  6.631705E+04  1.468360E+04  1.631311E+04  4.524141E+03  6.810325E-09  1.996716E-09
       259  17  7.178684E+04  1.576675E+04  1.887751E+04 -1.008363E+03 -1.714986E-09 -3.864638E-09
       259  18  7.797099E+04  1.929674E+04  2.297550E+04  4.845039E+03 -2.806741E-09  1.123026E-08
       259  19 -5.141481E+04 -1.471944E+04 -1.297309E+04  4.375988E+03  1.381045E+03 -5.798285E+02
       259  20 -5.759642E+04 -1.654119E+04 -1.326621E+04 -1.484351E+03  2.808864E+03 -7.978546E+02
       259  21 -6.306632E+04 -1.591854E+04 -1.203622E+04  4.041360E+03  4.236475E+03 -9.765382E+02
       259  22  7.449547E+03 -1.779008E+01  1.670145E+03  4.450062E+03  1.334346E+03 -5.800227E+02
       259  23  7.093312E+03 -3.870582E+02  2.805811E+03 -1.246369E+03  2.769850E+03 -7.980099E+02
       259  24  7.450091E+03  1.689290E+03  5.469842E+03  4.443178E+03  4.205160E+03 -9.766559E+02
       259  25  6.631705E+04  1.468360E+04  1.631312E+04  4.524141E+03  1.287642E+03 -5.802170E+02
       259  26  7.178684E+04  1.576675E+04  1.887752E+04 -1.008365E+03  2.730833E+03 -7.981653E+02
       259  27  7.797101E+04  1.929674E+04  2.297553E+04  4.845036E+03  4.173842E+03 -9.767735E+02
       260   1 -9.622204E+04 -2.646580E+04 -1.914187E+04  4.890820E+03 -5.392688E+03  1.141791E+03
       260   2 -1.044323E+05 -3.013961E+04 -1.635496E+04 -1.897011E+03 -1.113944E+04  1.369336E+03
       260   3 -1.078786E+05 -1.769841E+04 -5.800328E+03  2.683814E+03 -1.688507E+04  1.326754E+03
       260   4  8.350030E+03 -3.562354E+02  6.855943E+03  4.458376E+03 -5.319368E+03  1.142074E+03
       260   5  5.964465E+03 -2.569367E+03  1.107028E+04 -1.247022E+03 -1.111889E+04  1.369391E+03
       260   6  8.351131E+03  1.134013E+04  2.308799E+04  4.416102E+03 -1.691735E+04  1.326583E+03
       260   7  1.129320E+05  2.575251E+04  3.285294E+04  4.025849E+03 -5.246036E+03  1.142357E+03
       260   8  1.163723E+05  2.499996E+04  3.849461E+04 -5.969282E+02 -1.109834E+04  1.369447E+03
       260   9  1.245931E+05  4.037766E+04  5.197530E+04  6.148703E+03 -1.694963E+04  1.326412E+03
       260  10 -9.622207E+04 -2.646581E+04 -1.914193E+04  4.890825E+03  3.434186E-09  5.142195E-09
       260  11 -1.044324E+05 -3.013965E+04 -1.635519E+04 -1.896999E+03 -1.867074E-09  7.411042E-09
       260  12 -1.078789E+05 -1.769849E+04 -5.800867E+03  2.683832E+03 -5.372183E-10 -3.212426E-09
       260  13  8.350000E+03 -3.562444E+02  6.855887E+03  4.458381E+03 -1.082085E-09 -8.367765E-09
       260  14  5.964332E+03 -2.569402E+03  1.107005E+04 -1.247010E+03 -1.587997E-09  5.666311E-09
       260  15  8.350823E+03  1.134005E+04  2.308745E+04  4.416120E+03 -2.520068E-10 -3.017622E-11
       260  16  1.129320E+05  2.575250E+04  3.285288E+04  4.025854E+03 -4.047895E-09 -2.163743E-09
       260  17  1.163721E+05  2.499993E+04  3.849438E+04 -5.969159E+02 -2.326510E-09 -1.665158E-08
       260  18  1.245928E+05  4.037758E+04  5.197476E+04  6.148721E+03 -5.408965E-10  2.706365E-09
       260  19 -9.622204E+04 -2.646580E+04 -1.914187E+04  4.890820E+03  5.392688E+03 -1.141791E+03
       260  20 -1.044323E+05 -3.013961E+04 -1.635496E+04 -1.897011E+03  1.113944E+04 -1.369336E+03
       260  21 -1.078786E+05 -1.769841E+04 -5.800328E+03  2.683814E+03  1.688507E+04 -1.326754E+03
       260  22  8.350030E+03 -3.562354E+02  6.855943E+03  4.458376E+03  5.319368E+03 -1.142074E+03
       260  23  5.964465E+03 -2.569367E+03  1.107028E+04 -1.247022E+03  1.111889E+04 -1.369391E+03
       260  24  8.351131E+03  1.134013E+04  2.308799E+04  4.416102E+03  1.691735E+04 -1.326583E+03
       260  25  1.129320E+05  2.575251E+04  3.285294E+04  4.025849E+03  5.246036E+03 -1.142357E+03
       260  26  1.163723E+05  2.499996E+04  3.849461E+04 -5.969282E+02  1.109834E+04 -1.369447E+03
       260  27  1.245931E+05  4.037766E+04  5.197530E+04  6.148703E+03  1.694963E+04 -1.326412E+03
       261   1 -1.363380E+05 -4.020702E+04 -9.420993E+03  9.018350E+03 -2.177155E+04  1.722489E+03
       261   2 -1.572797E+05 -5.631754E+04  3.957461E+03 -4.210837E+03 -4.474957E+04  2.067441E+03
       261   3 -1.479747E+05  3.618692E+04  5.947417E+04 -6.235545E+03 -6.772111E+04  5.676721E+02
       261   4  1.402092E+04 -2.700446E+03  2.793814E+04  4.490617E+03 -2.151665E+04  1.723520E+03
       261   5 -1.128089E+03 -1.730843E+04  4.272649E+04 -1.231073E+03 -4.485404E+04  2.066881E+03
       261   6  1.402428E+04  7.674623E+04  9.989499E+04  4.251534E+03 -6.818519E+04  5.651701E+02
       261   7  1.644004E+05  3.480451E+04  6.529559E+04 -3.823147E+01 -2.126169E+04  1.724547E+03
       261   8  1.550457E+05  2.169889E+04  8.149369E+04  1.749424E+03 -4.495854E+04  2.066321E+03
       261   9  1.760473E+05  1.173040E+05  1.403139E+05  1.474133E+04 -6.864939E+04  5.626529E+02
       261  10 -1.363385E+05 -4.020715E+04 -9.421889E+03  9.018380E+03  1.622952E-09 -3.537316E-09
       261  11 -1.572819E+05 -5.631809E+04  3.953689E+03 -4.210762E+03  4.644261E-10  3.111251E-09
       261  12 -1.479797E+05  3.618569E+04  5.946555E+04 -6.235514E+03  3.147591E-09  1.000472E-08
       261  13  1.402042E+04 -2.700573E+03  2.793726E+04  4.490647E+03 -1.085545E-09  1.826125E-09
       261  14 -1.130251E+03 -1.730897E+04  4.272270E+04 -1.230998E+03  1.162713E-09  1.063336E-08
       261  15  1.401929E+04  7.674498E+04  9.988625E+04  4.251565E+03 -2.811536E-09  5.874293E-09
       261  16  1.643999E+05  3.480439E+04  6.529473E+04 -3.820195E+01 -2.215710E-10  1.019087E-08
       261  17  1.550435E+05  2.169835E+04  8.148989E+04  1.749499E+03 -3.982304E-09  8.035833E-09
       261  18  1.760423E+05  1.173027E+05  1.403050E+05  1.474137E+04 -1.782004E-09 -1.350290E-09
       261  19 -1.363380E+05 -4.020702E+04 -9.420993E+03  9.018350E+03  2.177155E+04 -1.722489E+03
       261  20 -1.572797E+05 -5.631754E+04  3.957461E+03 -4.210837E+03  4.474957E+04 -2.067441E+03
       261  21 -1.479747E+05  3.618692E+04  5.947417E+04 -6.235545E+03  6.772111E+04 -5.676721E+02
       261  22  1.402092E+04 -2.700446E+03  2.793814E+04  4.490617E+03  2.151665E+04 -1.723520E+03
       261  23 -1.128089E+03 -1.730843E+04  4.272649E+04 -1.231073E+03  4.485404E+04 -2.066881E+03
       261  24  1.402428E+04  7.674623E+04  9.989499E+04  4.251534E+03  6.818519E+04 -5.651701E+02
       261  25  1.644004E+05  3.480451E+04  6.529559E+04 -3.823147E+01  2.126169E+04 -1.724547E+03
       261  26  1.550457E+05  2.169889E+04  8.149369E+04  1.749424E+03  4.495854E+04 -2.066321E+03
       261  27  1.760473E+05  1.173040E+05  1.403139E+05  1.474133E+04  6.864939E+04 -5.626529E+02
       262   1 -2.530016E+05 -1.190075E+06 -2.925824E+05  7.994786E+04 -3.373397E+03 -1.280868E+05
       262   2 -6.455936E+04 -1.093486E+06 -1.709351E+05  2.045870E+04 -1.020103E+04 -7.855166E+04
       262   3 -6.644366E+04 -1.050401E+06 -1.290625E+05  2.124427E+04 -7.658671E+03 -2.898747E+04
       262   4 -1.458546E+05 -7.622257E+05 -1.864817E+05  3.847063E+04 -3.377616E+03 -1.232269E+05
       262   5  2.443703E+04 -7.358077E+05 -8.432772E+04  8.526935E+03 -1.020124E+04 -7.770693E+04
       262   6  5.158024E+03 -7.621671E+05 -5.911927E+04  3.886091E+04 -7.652524E+03 -3.216374E+04
       262   7 -3.871490E+04 -3.342062E+05 -8.039373E+04 -3.035161E+03 -3.382486E+03 -1.183637E+05
       262   8  1.134246E+05 -3.780124E+05  2.270567E+03 -3.411665E+03 -1.020148E+04 -7.686169E+04
       262   9  7.675480E+04 -4.738562E+05  1.081813E+04  5.648579E+04 -7.646560E+03 -3.534148E+04
       262  10 -2.530061E+05 -1.190093E+06 -2.926134E+05  7.994752E+04  2.655341E-09 -5.763653E-10
       262  11 -6.456113E+04 -1.093492E+06 -1.709470E+05  2.045805E+04  2.782201E-09  6.449604E-09
       262  12 -6.644395E+04 -1.050402E+06 -1.290642E+05  2.124409E+04 -9.727786E-10 -8.375519E-09
       262  13 -1.458587E+05 -7.622421E+05 -1.865103E+05  3.847030E+04  5.329441E-09  5.910561E-09
       262  14  2.443530E+04 -7.358142E+05 -8.433927E+04  8.526296E+03  4.592155E-09 -5.308071E-09
       262  15  5.157683E+03 -7.621682E+05 -5.912133E+04  3.886071E+04  1.308906E-09  7.109968E-10
       262  16 -3.871868E+04 -3.342212E+05 -8.042010E+04 -3.035483E+03  4.181029E-09 -3.546850E-09
       262  17  1.134229E+05 -3.780187E+05  2.259262E+03 -3.412297E+03  6.073006E-09  2.549495E-09
       262  18  7.675440E+04 -4.738576E+05  1.081567E+04  5.648558E+04 -1.263039E-09  4.045466E-09
       262  19 -2.530016E+05 -1.190075E+06 -2.925824E+05  7.994786E+04  3.373397E+03  1.280868E+05
       262  20 -6.455936E+04 -1.093486E+06 -1.709351E+05  2.045870E+04  1.020103E+04  7.855166E+04
       262  21 -6.644366E+04 -1.050401E+06 -1.290625E+05  2.124427E+04  7.658671E+03  2.898747E+04
       262  22 -1.458546E+05 -7.622257E+05 -1.864817E+05  3.847063E+04  3.377616E+03  1.232269E+05
       262  23  2.443703E+04 -7.358077E+05 -8.432772E+04  8.526935E+03  1.020124E+04  7.770693E+04
       262  24  5.158024E+03 -7.621671E+05 -5.911927E+04  3.886091E+04  7.652524E+03  3.216374E+04
       262  25 -3.871490E+04 -3.342062E+05 -8.039373E+04 -3.035161E+03  3.382486E+03  1.183637E+05
       262  26  1.134246E+05 -3.780124E+05  2.270567E+03 -3.411665E+03  1.020148E+04  7.686169E+04
       262  27  7.675480E+04 -4.738562E+05  1.081813E+04  5.648579E+04  7.646560E+03  3.534148E+04
       263   1 -5.958581E+04 -9.268694E+05 -9.450502E+04  4.551076E+04 -4.663965E+03 -2.172281E+04
       263   2 -2.019535E+04 -8.497300E+05 -6.393718E+04  8.501542E+03 -2.826494E+03 -1.461852E+03
       263   3 -2.230441E+04 -7.852782E+05 -5.688075E+04  3.308140E+04 -6.325066E+02  1.880157E+04
       263   4 -1.637213E+04 -7.532500E+05 -5.237567E+04  3.901826E+04 -4.662162E+03 -2.246022E+04
       263   5  5.372720E+03 -7.469166E+05 -3.900602E+04  8.226482E+03 -2.824702E+03 -2.349152E+03
       263   6 -1.435170E+04 -7.532470E+05 -4.903968E+04  3.902386E+04 -6.303603E+02  1.776209E+04
       263   7  2.683949E+04 -5.796028E+05 -1.024848E+04  3.252394E+04 -4.660344E+03 -2.319782E+04
       263   8  3.094001E+04 -6.440935E+05 -1.407561E+04  7.951382E+03 -2.822909E+03 -3.236598E+03
       263   9 -6.398923E+03 -7.212148E+05 -4.119866E+04  4.496663E+04 -6.282339E+02  1.672255E+04
       263  10 -5.958596E+04 -9.268699E+05 -9.450594E+04  4.551068E+04 -5.283983E-10 -4.759623E-10
       263  11 -2.019536E+04 -8.497300E+05 -6.393720E+04  8.501538E+03  1.677587E-09  6.393955E-09
       263  12 -2.230451E+04 -7.852785E+05 -5.688142E+04  3.308141E+04  8.109764E-10 -3.215290E-09
       263  13 -1.637229E+04 -7.532505E+05 -5.237666E+04  3.901817E+04  1.001889E-09  3.475744E-09
       263  14  5.372710E+03 -7.469166E+05 -3.900604E+04  8.226477E+03 -2.709836E-09 -5.687718E-09
       263  15 -1.435178E+04 -7.532473E+05 -4.904028E+04  3.902387E+04 -2.792307E-09 -1.078092E-09
       263  16  2.683932E+04 -5.796034E+05 -1.024953E+04  3.252385E+04 -1.442107E-09 -3.326710E-09
       263  17  3.094000E+04 -6.440935E+05 -1.407564E+04  7.951374E+03  1.504512E-09 -2.055016E-09
       263  18 -6.398999E+03 -7.212151E+05 -4.119919E+04  4.496664E+04 -2.416747E-09 -5.247106E-10
       263  19 -5.958581E+04 -9.268694E+05 -9.450502E+04  4.551076E+04  4.663965E+03  2.172281E+04
       263  20 -2.019535E+04 -8.497300E+05 -6.393718E+04  8.501542E+03  2.826494E+03  1.461852E+03
       263  21 -2.230441E+04 -7.852782E+05 -5.688075E+04  3.308140E+04  6.325066E+02 -1.880157E+04
       263  22 -1.637213E+04 -7.532500E+05 -5.237567E+04  3.901826E+04  4.662162E+03  2.246022E+04
       263  23  5.372720E+03 -7.469166E+05 -3.900602E+04  8.226482E+03  2.824702E+03  2.349152E+03
       263  24 -1.435170E+04 -7.532470E+05 -4.903968E+04  3.902386E+04  6.303603E+02 -1.776209E+04
       263  25  2.683949E+04 -5.796028E+05 -1.024848E+04  3.252394E+04  4.660344E+03  2.319782E+04
       263  26  3.094001E+04 -6.440935E+05 -1.407561E+04  7.951382E+03  2.822909E+03  3.236598E+03
       263  27 -6.398923E+03 -7.212148E+05 -4.119866E+04  4.496663E+04  6.282339E+02 -1.672255E+04
       264   1  2.480477E+04 -6.776742E+05 -3.415286E+04  5.504539E+04  1.849339E+03  2.908409E+04
       264   2  6.003131E+04 -5.836489E+05 -3.851841E+04 -1.951493E+03  4.415997E+03  6.761816E+04
       264   3 -7.312863E+04 -5.363857E+05 -1.100035E+05  2.244133E+03  1.580441E+03  1.061457E+05
       264   4  4.162784E+03 -7.609100E+05 -5.442783E+04  3.903294E+04  1.852985E+03  2.677405E+04
       264   5  2.178533E+04 -7.373406E+05 -7.569996E+04  8.294071E+03  4.417139E+03  6.762979E+04
       264   6 -1.294080E+05 -7.609588E+05 -1.657197E+05  3.875022E+04  1.581744E+03  1.084745E+05
       264   7 -1.647874E+04 -8.441388E+05 -7.470315E+04  2.302265E+04  1.856751E+03  2.446433E+04
       264   8 -1.646201E+04 -8.910104E+05 -1.128831E+05  1.853710E+04  4.418281E+03  6.764142E+04
       264   9 -1.856862E+05 -9.854833E+05 -2.214389E+05  7.524311E+04  1.583322E+03  1.108025E+05
       264  10  2.480454E+04 -6.776751E+05 -3.415446E+04  5.504535E+04 -2.897550E-09 -2.480804E-09
       264  11  6.003006E+04 -5.836538E+05 -3.852705E+04 -1.951734E+03  2.590596E-09  6.177444E-09
       264  12 -7.313166E+04 -5.363978E+05 -1.100247E+05  2.243998E+03  1.523768E-09  3.022270E-10
       264  13  4.162588E+03 -7.609107E+05 -5.442919E+04  3.903290E+04  1.355897E-09  3.232919E-09
       264  14  2.178407E+04 -7.373455E+05 -7.570860E+04  8.293830E+03  2.591500E-09 -6.636379E-09
       264  15 -1.294112E+05 -7.609715E+05 -1.657418E+05  3.875009E+04  4.910577E-10  3.505540E-11
       264  16 -1.647890E+04 -8.441395E+05 -7.470428E+04  2.302261E+04 -3.358937E-09 -3.013615E-09
       264  17 -1.646326E+04 -8.910154E+05 -1.128918E+05  1.853686E+04  2.096276E-09  3.907604E-10
       264  18 -1.856895E+05 -9.854965E+05 -2.214620E+05  7.524297E+04  4.580362E-10 -4.523976E-10
       264  19  2.480477E+04 -6.776742E+05 -3.415286E+04  5.504539E+04 -1.849339E+03 -2.908409E+04
       264  20  6.003131E+04 -5.836489E+05 -3.851841E+04 -1.951493E+03 -4.415997E+03 -6.761816E+04
       264  21 -7.312863E+04 -5.363857E+05 -1.100035E+05  2.244133E+03 -1.580441E+03 -1.061457E+05
       264  22  4.162784E+03 -7.609100E+05 -5.442783E+04  3.903294E+04 -1.852985E+03 -2.677405E+04
       264  23  2.178533E+04 -7.373406E+05 -7.569996E+04  8.294071E+03 -4.417139E+03 -6.762979E+04
       264  24 -1.294080E+05 -7.609588E+05 -1.657197E+05  3.875022E+04 -1.581744E+03 -1.084745E+05
       264  25 -1.647874E+04 -8.441388E+05 -7.470315E+04  2.302265E+04 -1.856751E+03 -2.446433E+04
       264  26 -1.646201E+04 -8.910104E+05 -1.128831E+05  1.853710E+04 -4.418281E+03 -6.764142E+04
       264  27 -1.856862E+05 -9.854833E+05 -2.214389E+05  7.524311E+04 -1.583322E+03 -1.108025E+05
       265   1  1.051639E+06  3.539914E+05  2.304276E+05  3.670352E+05  1.020538E+05  3.560397E+04
       265   2  1.015121E+06  1.958584E+05  1.328127E+05  3.758793E+05  6.650926E+04  1.631510E+04
       265   3  1.023925E+06  1.962950E+05  1.026924E+05  3.632868E+05  2.867445E+04  3.083239E+03
       265   4  7.926243E+05  2.269180E+05  1.540456E+05  2.664476E+05  9.872824E+04  3.433998E+04
       265   5  7.622662E+05  9.228604E+04  6.383176E+04  2.982054E+05  6.565041E+04  1.598873E+04
       265   6  7.767628E+05  1.157698E+05  3.918048E+04  3.085206E+05  3.028116E+04  3.692261E+03
       265   7  5.336784E+05  9.986423E+04  7.765772E+04  1.659031E+05  9.540420E+04  3.307697E+04
       265   8  5.094734E+05 -1.127907E+04 -5.154821E+03  2.205612E+05  6.479195E+04  1.566254E+04
       265   9  5.296591E+05  3.524458E+04 -2.433647E+04  2.537722E+05  3.188716E+04  4.301101E+03
       265  10  1.051627E+06  3.539872E+05  2.304057E+05  3.670323E+05  3.575923E-09  6.799698E-09
       265  11  1.015117E+06  1.958570E+05  1.328039E+05  3.758784E+05 -2.042080E-09 -7.762029E-09
       265  12  1.023924E+06  1.962948E+05  1.026908E+05  3.632867E+05 -5.095158E-09  1.097947E-08
       265  13  7.926136E+05  2.269141E+05  1.540251E+05  2.664449E+05  7.533869E-10 -5.600572E-09
       265  14  7.622616E+05  9.228461E+04  6.382320E+04  2.982045E+05  2.670283E-10  5.192733E-09
       265  15  7.767618E+05  1.157696E+05  3.917873E+04  3.085205E+05  6.030029E-10  1.371479E-09
       265  16  5.336683E+05  9.986062E+04  7.763857E+04  1.659005E+05 -1.238944E-09  5.893998E-09
       265  17  5.094688E+05 -1.128046E+04 -5.163163E+03  2.205604E+05  2.611642E-09 -7.759889E-09
       265  18  5.296580E+05  3.524429E+04 -2.433842E+04  2.537721E+05  1.984837E-09  6.952043E-09
       265  19  1.051639E+06  3.539914E+05  2.304276E+05  3.670352E+05 -1.020538E+05 -3.560397E+04
       265  20  1.015121E+06  1.958584E+05  1.328127E+05  3.758793E+05 -6.650926E+04 -1.631510E+04
       265  21  1.023925E+06  1.962950E+05  1.026924E+05  3.632868E+05 -2.867445E+04 -3.083239E+03
       265  22  7.926243E+05  2.269180E+05  1.540456E+05  2.664476E+05 -9.872824E+04 -3.433998E+04
       265  23  7.622662E+05  9.228604E+04  6.383176E+04  2.982054E+05 -6.565041E+04 -1.598873E+04
       265  24  7.767628E+05  1.157698E+05  3.918048E+04  3.085206E+05 -3.028116E+04 -3.692261E+03
       265  25  5.336784E+05  9.986423E+04  7.765772E+04  1.659031E+05 -9.540420E+04 -3.307697E+04
       265  26  5.094734E+05 -1.127907E+04 -5.154821E+03  2.205612E+05 -6.479195E+04 -1.566254E+04
       265  27  5.296591E+05  3.524458E+04 -2.433647E+04  2.537722E+05 -3.188716E+04 -4.301101E+03
       266   1  9.713180E+05  2.109238E+05  8.601047E+04  3.569222E+05  2.408758E+04  2.933502E+03
       266   2  9.551622E+05  1.795393E+05  6.369233E+04  3.465585E+05  1.586669E+04  1.147280E+02
       266   3  9.332002E+05  1.791022E+05  5.219377E+04  3.471023E+05  7.435156E+03 -2.148105E+03
       266   4  7.718978E+05  1.322372E+05  3.200337E+04  2.987732E+05  2.407476E+04  2.928356E+03
       266   5  7.738713E+05  1.101300E+05  1.508646E+04  2.958430E+05  1.608151E+04  1.960076E+02
       266   6  7.699953E+05  1.189286E+05  8.811514E+03  3.038198E+05  7.877338E+03 -1.980495E+03
       266   7  5.725159E+05  5.355393E+04 -2.200729E+04  2.406413E+05  2.406194E+04  2.923212E+03
       266   8  5.926122E+05  4.072309E+04 -3.352225E+04  2.451409E+05  1.629626E+04  2.772601E+02
       266   9  6.068163E+05  5.875640E+04 -3.457294E+04  2.605475E+05  8.319390E+03 -1.812931E+03
       266  10  9.713174E+05  2.109236E+05  8.600936E+04  3.569221E+05 -3.456622E-10  1.493516E-09
       266  11  9.551619E+05  1.795392E+05  6.369186E+04  3.465585E+05 -8.713810E-10 -5.695082E-09
       266  12  9.332002E+05  1.791022E+05  5.219366E+04  3.471023E+05 -5.060222E-09  1.056368E-08
       266  13  7.718972E+05  1.322370E+05  3.200226E+04  2.987731E+05 -3.437872E-10  2.710553E-09
       266  14  7.738710E+05  1.101300E+05  1.508597E+04  2.958430E+05  4.342516E-09  1.688737E-08
       266  15  7.699952E+05  1.189286E+05  8.811390E+03  3.038198E+05  1.173093E-09 -1.789341E-09
       266  16  5.725153E+05  5.355377E+04 -2.200840E+04  2.406413E+05 -2.254936E-09 -7.343986E-09
       266  17  5.926119E+05  4.072302E+04 -3.352275E+04  2.451409E+05  6.512391E-10 -4.395875E-09
       266  18  6.068163E+05  5.875638E+04 -3.457308E+04  2.605475E+05  3.299385E-09  1.350881E-08
       266  19  9.713180E+05  2.109238E+05  8.601047E+04  3.569222E+05 -2.408758E+04 -2.933502E+03
       266  20  9.551622E+05  1.795393E+05  6.369233E+04  3.465585E+05 -1.586669E+04 -1.147280E+02
       266  21  9.332002E+05  1.791022E+05  5.219377E+04  3.471023E+05 -7.435156E+03  2.148105E+03
       266  22  7.718978E+05  1.322372E+05  3.200337E+04  2.987732E+05 -2.407476E+04 -2.928356E+03
       266  23  7.738713E+05  1.101300E+05  1.508646E+04  2.958430E+05 -1.608151E+04 -1.960076E+02
       266  24  7.699953E+05  1.189286E+05  8.811514E+03  3.038198E+05 -7.877338E+03  1.980495E+03
       266  25  5.725159E+05  5.355393E+04 -2.200729E+04  2.406413E+05 -2.406194E+04 -2.923212E+03
       266  26  5.926122E+05  4.072309E+04 -3.352225E+04  2.451409E+05 -1.629626E+04 -2.772601E+02
       266  27  6.068163E+05  5.875640E+04 -3.457294E+04  2.605475E+05 -8.319390E+03  1.812931E+03
       267   1  8.968838E+05  1.693443E+05  4.101014E+04  3.379581E+05  6.099641E+03 -2.027092E+03
       267   2  8.838521E+05  1.536098E+05  3.259060E+04  3.256920E+05  3.991212E+03 -1.984155E+03
       267   3  8.588757E+05  1.529757E+05  2.610649E+04  3.276097E+05  1.866494E+03 -1.898869E+03
       267   4  7.694111E+05  1.207684E+05  6.926535E+03  3.025200E+05  6.388701E+03 -1.917518E+03
       267   5  7.752732E+05  1.124363E+05  3.548698E+03  2.957256E+05  4.297807E+03 -1.867878E+03
       267   6  7.691874E+05  1.192017E+05  2.092844E+03  3.031150E+05  2.190563E+03 -1.775908E+03
       267   7  6.419538E+05  7.219349E+04 -2.715857E+04  2.670883E+05  6.677697E+03 -1.807970E+03
       267   8  6.667056E+05  7.126351E+04 -2.549427E+04  2.657638E+05  4.604343E+03 -1.751624E+03
       267   9  6.795068E+05  8.542810E+04 -2.192151E+04  2.786236E+05  2.514580E+03 -1.652967E+03
       267  10  8.968838E+05  1.693443E+05  4.101006E+04  3.379581E+05 -1.565193E-09  4.863058E-09
       267  11  8.838521E+05  1.536098E+05  3.259056E+04  3.256920E+05 -2.902757E-09 -2.212446E-09
       267  12  8.588757E+05  1.529757E+05  2.610647E+04  3.276097E+05 -2.476857E-09 -8.807149E-09
       267  13  7.694111E+05  1.207684E+05  6.926452E+03  3.025200E+05  1.123597E-09  7.410519E-10
       267  14  7.752732E+05  1.124363E+05  3.548657E+03  2.957256E+05 -4.034203E-10 -1.046006E-08
       267  15  7.691874E+05  1.192017E+05  2.092829E+03  3.031150E+05 -1.323191E-10  7.875803E-09
       267  16  6.419537E+05  7.219347E+04 -2.715866E+04  2.670883E+05 -1.606630E-09 -2.187874E-09
       267  17  6.667056E+05  7.126350E+04 -2.549432E+04  2.657638E+05 -8.110431E-10  1.026982E-08
       267  18  6.795068E+05  8.542810E+04 -2.192152E+04  2.786236E+05 -4.261627E-09 -2.466197E-10
       267  19  8.968838E+05  1.693443E+05  4.101014E+04  3.379581E+05 -6.099641E+03  2.027092E+03
       267  20  8.838521E+05  1.536098E+05  3.259060E+04  3.256920E+05 -3.991212E+03  1.984155E+03
       267  21  8.588757E+05  1.529757E+05  2.610649E+04  3.276097E+05 -1.866494E+03  1.898869E+03
       267  22  7.694111E+05  1.207684E+05  6.926535E+03  3.025200E+05 -6.388701E+03  1.917518E+03
       267  23  7.752732E+05  1.124363E+05  3.548698E+03  2.957256E+05 -4.297807E+03  1.867878E+03
       267  24  7.691874E+05  1.192017E+05  2.092844E+03  3.031150E+05 -2.190563E+03  1.775908E+03
       267  25  6.419538E+05  7.219349E+04 -2.715857E+04  2.670883E+05 -6.677697E+03  1.807970E+03
       267  26  6.667056E+05  7.126351E+04 -2.549427E+04  2.657638E+05 -4.604343E+03  1.751624E+03
       267  27  6.795068E+05  8.542810E+04 -2.192151E+04  2.786236E+05 -2.514580E+03  1.652967E+03
       268   1  8.253624E+05  1.406732E+05  1.663582E+04  3.184333E+05  1.397550E+03 -1.553504E+03
       268   2  8.129504E+05  1.269919E+05  1.111016E+04  3.061265E+05  5.676296E+02 -9.925615E+02
       268   3  7.879813E+05  1.263423E+05  6.063927E+03  3.081300E+05 -2.625538E+02 -4.310894E+02
       268   4  7.691425E+05  1.193623E+05  1.668428E+03  3.029087E+05  1.707431E+03 -1.435903E+03
       268   5  7.754107E+05  1.127717E+05  1.071508E+03  2.957819E+05  8.777702E+02 -8.748458E+02
       268   6  7.691214E+05  1.192129E+05  9.538725E+02  3.029656E+05  4.782676E+01 -3.132640E+02
       268   7  7.129258E+05  9.805159E+04 -1.329920E+04  2.873853E+05  2.017281E+03 -1.318314E+03
       268   8  7.378724E+05  9.855160E+04 -8.967271E+03  2.854379E+05  1.187890E+03 -7.571380E+02
       268   9  7.502618E+05  1.120835E+05 -4.156226E+03  2.978012E+05  3.581976E+02 -1.954422E+02
       268  10  8.253624E+05  1.406732E+05  1.663581E+04  3.184333E+05  5.044873E-09 -9.830609E-09
       268  11  8.129504E+05  1.269919E+05  1.111016E+04  3.061265E+05  2.856999E-09  3.182532E-09
       268  12  7.879813E+05  1.263423E+05  6.063927E+03  3.081300E+05  8.910767E-10  6.772774E-10
       268  13  7.691425E+05  1.193623E+05  1.668418E+03  3.029087E+05 -6.462749E-10 -1.255835E-09
       268  14  7.754107E+05  1.127717E+05  1.071505E+03  2.957819E+05 -1.221655E-10 -1.984236E-08
       268  15  7.691214E+05  1.192129E+05  9.538723E+02  3.029656E+05 -2.164663E-10 -1.008358E-08
       268  16  7.129258E+05  9.805159E+04 -1.329921E+04  2.873853E+05 -9.295220E-09  7.776081E-09
       268  17  7.378724E+05  9.855160E+04 -8.967274E+03  2.854379E+05 -6.064362E-09 -2.674578E-09
       268  18  7.502618E+05  1.120835E+05 -4.156226E+03  2.978012E+05  7.208676E-10 -7.451785E-09
       268  19  8.253624E+05  1.406732E+05  1.663582E+04  3.184333E+05 -1.397550E+03  1.553504E+03
       268  20  8.129504E+05  1.269919E+05  1.111016E+04  3.061265E+05 -5.676296E+02  9.925615E+02
       268  21  7.879813E+05  1.263423E+05  6.063927E+03  3.081300E+05  2.625538E+02  4.310894E+02
       268  22  7.691425E+05  1.193623E+05  1.668428E+03  3.029087E+05 -1.707431E+03  1.435903E+03
       268  23  7.754107E+05  1.127717E+05  1.071508E+03  2.957819E+05 -8.777702E+02  8.748458E+02
       268  24  7.691214E+05  1.192129E+05  9.538725E+02  3.029656E+05 -4.782676E+01  3.132640E+02
       268  25  7.129258E+05  9.805159E+04 -1.329920E+04  2.873853E+05 -2.017281E+03  1.318314E+03
       268  26  7.378724E+05  9.855160E+04 -8.967271E+03  2.854379E+05 -1.187890E+03  7.571380E+02
       268  27  7.502618E+05  1.120835E+05 -4.156226E+03  2.978012E+05 -3.581976E+02  1.954422E+02
       269   1  7.549983E+05  1.138724E+05 -2.835848E+03  2.991230E+05 -5.940856E+02 -4.655934E+01
       269   2  7.426044E+05  1.003383E+05 -7.388396E+03  2.867516E+05 -1.579240E+03  4.557230E+02
       269   3  7.177276E+05  9.993669E+04 -1.131589E+04  2.886568E+05 -2.563945E+03  9.571527E+02
       269   4  7.691326E+05  1.191986E+05  1.008036E+03  3.029719E+05 -2.837911E+02  7.123465E+01
       269   5  7.753922E+05  1.127581E+05  1.379777E+03  2.957859E+05 -1.269343E+03  5.733498E+02
       269   6  7.691684E+05  1.194501E+05  2.376844E+03  3.028763E+05 -2.254467E+03  1.074605E+03
       269   7  7.832671E+05  1.245248E+05  4.851903E+03  3.068208E+05  2.651106E+01  1.890315E+02
       269   8  8.081809E+05  1.251780E+05  1.014785E+04  3.048206E+05 -9.594284E+02  6.909833E+02
       269   9  8.206117E+05  1.389635E+05  1.606932E+04  3.170967E+05 -1.944962E+03  1.192068E+03
       269  10  7.549983E+05  1.138724E+05 -2.835849E+03  2.991230E+05  4.998136E-10 -9.125473E-09
       269  11  7.426044E+05  1.003383E+05 -7.388401E+03  2.867516E+05  2.314110E-09  4.747639E-09
       269  12  7.177276E+05  9.993669E+04 -1.131591E+04  2.886568E+05  1.460519E-09 -9.415173E-09
       269  13  7.691326E+05  1.191986E+05  1.008036E+03  3.029719E+05 -7.305075E-10 -1.206485E-09
       269  14  7.753922E+05  1.127581E+05  1.379774E+03  2.957859E+05  5.713203E-09 -1.917830E-08
       269  15  7.691684E+05  1.194501E+05  2.376832E+03  3.028763E+05  4.467225E-09  4.812016E-09
       269  16  7.832671E+05  1.245248E+05  4.851903E+03  3.068208E+05  1.675952E-09 -8.277316E-09
       269  17  8.081809E+05  1.251780E+05  1.014784E+04  3.048206E+05  2.311972E-09 -7.593223E-09
       269  18  8.206117E+05  1.389635E+05  1.606931E+04  3.170967E+05  3.111117E-09 -1.583446E-08
       269  19  7.549983E+05  1.138724E+05 -2.835848E+03  2.991230E+05  5.940856E+02  4.655934E+01
       269  20  7.426044E+05  1.003383E+05 -7.388396E+03  2.867516E+05  1.579240E+03 -4.557230E+02
       269  21  7.177276E+05  9.993669E+04 -1.131589E+04  2.886568E+05  2.563945E+03 -9.571527E+02
       269  22  7.691326E+05  1.191986E+05  1.008036E+03  3.029719E+05  2.837911E+02 -7.123465E+01
       269  23  7.753922E+05  1.127581E+05  1.379777E+03  2.957859E+05  1.269343E+03 -5.733498E+02
       269  24  7.691684E+05  1.194501E+05  2.376844E+03  3.028763E+05  2.254467E+03 -1.074605E+03
       269  25  7.832671E+05  1.245248E+05  4.851903E+03  3.068208E+05 -2.651106E+01 -1.890315E+02
       269  26  8.081809E+05  1.251780E+05  1.014785E+04  3.048206E+05  9.594284E+02 -6.909833E+02
       269  27  8.206117E+05  1.389635E+05  1.606932E+04  3.170967E+05  1.944962E+03 -1.192068E+03
       270   1  6.843169E+05  8.729165E+04 -1.968633E+04  2.800664E+05 -3.197230E+03  1.239492E+03
       270   2  6.714380E+05  7.292792E+04 -2.247701E+04  2.670914E+05 -6.166812E+03  1.003060E+03
       270   3  6.471442E+05  7.467967E+04 -2.242005E+04  2.680290E+05 -9.120138E+03  7.245534E+02
       270   4  7.692698E+05  1.191727E+05  3.043849E+03  3.031518E+05 -2.873765E+03  1.362231E+03
       270   5  7.751441E+05  1.122925E+05  5.272190E+03  2.957478E+05 -5.860850E+03  1.119105E+03
       270   6  7.696067E+05  1.215310E+05  1.036178E+04  3.022561E+05 -8.831764E+03  8.338736E+02
       270   7  8.542298E+05  1.510542E+05  2.577345E+04  3.262401E+05 -2.550250E+03  1.484987E+03
       270   8  8.788606E+05  1.516579E+05  3.302048E+04  3.244084E+05 -5.554830E+03  1.235172E+03
       270   9  8.920837E+05  1.683833E+05  4.314229E+04  3.364893E+05 -8.543328E+03  9.432182E+02
       270  10  6.843169E+05  8.729164E+04 -1.968635E+04  2.800664E+05 -8.913873E-09 -1.561601E-08
       270  11  6.714380E+05  7.292791E+04 -2.247709E+04  2.670914E+05 -8.124897E-09 -6.468814E-09
       270  12  6.471441E+05  7.467965E+04 -2.242021E+04  2.680291E+05  4.628020E-09 -3.952991E-09
       270  13  7.692698E+05  1.191727E+05  3.043830E+03  3.031518E+05  4.378697E-10 -3.308529E-09
       270  14  7.751441E+05  1.122925E+05  5.272123E+03  2.957478E+05 -1.070302E-09 -1.090686E-10
       270  15  7.696066E+05  1.215309E+05  1.036163E+04  3.022561E+05 -2.081006E-09 -1.381088E-11
       270  16  8.542298E+05  1.510542E+05  2.577343E+04  3.262402E+05  8.701147E-09  1.274326E-08
       270  17  8.788606E+05  1.516579E+05  3.302042E+04  3.244084E+05 -6.508813E-10  3.571607E-08
       270  18  8.920836E+05  1.683832E+05  4.314215E+04  3.364893E+05 -1.225295E-08  1.886947E-09
       270  19  6.843169E+05  8.729165E+04 -1.968633E+04  2.800664E+05  3.197230E+03 -1.239492E+03
       270  20  6.714380E+05  7.292792E+04 -2.247701E+04  2.670914E+05  6.166812E+03 -1.003060E+03
       270  21  6.471442E+05  7.467967E+04 -2.242005E+04  2.680290E+05  9.120138E+03 -7.245534E+02
       270  22  7.692698E+05  1.191727E+05  3.043849E+03  3.031518E+05  2.873765E+03 -1.362231E+03
       270  23  7.751441E+05  1.122925E+05  5.272190E+03  2.957478E+05  5.860850E+03 -1.119105E+03
       270  24  7.696067E+05  1.215310E+05  1.036178E+04  3.022561E+05  8.831764E+03 -8.338736E+02
       270  25  8.542298E+05  1.510542E+05  2.577345E+04  3.262401E+05  2.550250E+03 -1.484987E+03
       270  26  8.788606E+05  1.516579E+05  3.302048E+04  3.244084E+05  5.554830E+03 -1.235172E+03
       270  27  8.920837E+05  1.683833E+05  4.314229E+04  3.364893E+05  8.543328E+03 -9.432182E+02
       271   1  6.117549E+05  6.100406E+04 -2.885830E+04  2.628946E+05 -1.139393E+04  4.866310E+02
       271   2  5.970483E+05  4.110937E+04 -2.464161E+04  2.463539E+05 -2.331601E+04 -3.101565E+03
       271   3  5.802896E+05  6.074780E+04 -4.643594E+03  2.385045E+05 -3.503091E+04 -7.234501E+03
       271   4  7.705405E+05  1.187103E+05  1.319546E+04  3.041403E+05 -1.095532E+04  6.529352E+02
       271   5  7.729738E+05  1.089096E+05  2.262090E+04  2.960080E+05 -2.310130E+04 -3.020345E+03
       271   6  7.733962E+05  1.386810E+05  4.800145E+04  2.965669E+05 -3.504051E+04 -7.238601E+03
       271   7  9.293500E+05  1.764175E+05  5.524696E+04  3.453952E+05 -1.051658E+04  8.192817E+02
       271   8  9.489292E+05  1.767120E+05  6.988067E+04  3.456749E+05 -2.288652E+04 -2.939099E+03
       271   9  9.665392E+05  2.166180E+05  1.006432E+05  3.546462E+05 -3.505012E+04 -7.242702E+03
       271  10  6.117548E+05  6.100402E+04 -2.885854E+04  2.628946E+05  1.894200E-09 -2.997140E-09
       271  11  5.970477E+05  4.110922E+04 -2.464265E+04  2.463538E+05  8.223388E-10  9.540892E-09
       271  12  5.802882E+05  6.074741E+04 -4.645995E+03  2.385042E+05  4.652792E-09  8.719323E-09
       271  13  7.705404E+05  1.187103E+05  1.319524E+04  3.041403E+05 -3.537257E-09 -1.068941E-08
       271  14  7.729733E+05  1.089094E+05  2.261988E+04  2.960079E+05  3.042472E-09  1.442777E-08
       271  15  7.733948E+05  1.386806E+05  4.799905E+04  2.965667E+05  1.556271E-09 -3.107783E-09
       271  16  9.293499E+05  1.764175E+05  5.524675E+04  3.453952E+05 -4.452648E-09 -4.414839E-09
       271  17  9.489286E+05  1.767119E+05  6.987968E+04  3.456748E+05  3.136593E-09  6.198064E-09
       271  18  9.665379E+05  2.166177E+05  1.006408E+05  3.546460E+05 -1.439120E-09 -8.165787E-09
       271  19  6.117549E+05  6.100406E+04 -2.885830E+04  2.628946E+05  1.139393E+04 -4.866310E+02
       271  20  5.970483E+05  4.110937E+04 -2.464161E+04  2.463539E+05  2.331601E+04  3.101565E+03
       271  21  5.802896E+05  6.074780E+04 -4.643594E+03  2.385045E+05  3.503091E+04  7.234501E+03
       271  22  7.705405E+05  1.187103E+05  1.319546E+04  3.041403E+05  1.095532E+04 -6.529352E+02
       271  23  7.729738E+05  1.089096E+05  2.262090E+04  2.960080E+05  2.310130E+04  3.020345E+03
       271  24  7.733962E+05  1.386810E+05  4.800145E+04  2.965669E+05  3.504051E+04  7.238601E+03
       271  25  9.293500E+05  1.764175E+05  5.524696E+04  3.453952E+05  1.051658E+04 -8.192817E+02
       271  26  9.489292E+05  1.767120E+05  6.988067E+04  3.456749E+05  2.288652E+04  2.939099E+03
       271  27  9.665392E+05  2.166180E+05  1.006432E+05  3.546462E+05  3.505012E+04  7.242702E+03
       272   1  5.342188E+05  4.004478E+04 -3.347912E+03  2.630863E+05 -4.565809E+04 -9.695476E+03
       272   2  5.109202E+05 -2.221152E+04  2.819560E+04  2.201962E+05 -9.610930E+04 -2.770125E+04
       272   3  5.615609E+05  1.451220E+05  1.561868E+05  1.370277E+05 -1.443138E+05 -5.163569E+04
       272   4  7.807690E+05  1.138978E+05  5.876834E+04  3.110940E+05 -4.408021E+04 -9.096293E+03
       272   5  7.554792E+05  8.225421E+04  9.576176E+04  2.996718E+05 -9.695327E+04 -2.802325E+04
       272   6  8.045704E+05  2.806213E+05  2.310909E+05  2.479810E+05 -1.475799E+05 -5.288391E+04
       272   7  1.027378E+06  1.877501E+05  1.208802E+05  3.591165E+05 -4.250163E+04 -8.496970E+03
       272   8  1.000095E+06  1.867280E+05  1.633221E+05  3.791771E+05 -9.779759E+04 -2.834542E+04
       272   9  1.047640E+06  4.161473E+05  3.059888E+05  3.589793E+05 -1.508472E+05 -5.413320E+04
       272  10  5.342165E+05  4.004412E+04 -3.352002E+03  2.630860E+05  6.840747E-09  1.040017E-08
       272  11  5.109101E+05 -2.221482E+04  2.817682E+04  2.201940E+05 -6.784261E-10  9.305966E-09
       272  12  5.615379E+05  1.451135E+05  1.561427E+05  1.370217E+05  1.172059E-09  2.309284E-09
       272  13  7.807669E+05  1.138972E+05  5.876454E+04  3.110937E+05  9.414442E-10 -5.928111E-09
       272  14  7.554689E+05  8.225085E+04  9.574265E+04  2.996696E+05 -1.928624E-09 -8.093197E-10
       272  15  8.045463E+05  2.806125E+05  2.310448E+05  2.479747E+05 -1.486022E-09 -1.398269E-08
       272  16  1.027377E+06  1.877495E+05  1.208767E+05  3.591162E+05 -4.704044E-09 -9.470665E-09
       272  17  1.000085E+06  1.867246E+05  1.633027E+05  3.791748E+05 -1.951753E-09  4.769232E-09
       272  18  1.047615E+06  4.161381E+05  3.059406E+05  3.589728E+05 -1.826460E-09 -7.637572E-10
       272  19  5.342188E+05  4.004478E+04 -3.347912E+03  2.630863E+05  4.565809E+04  9.695476E+03
       272  20  5.109202E+05 -2.221152E+04  2.819560E+04  2.201962E+05  9.610930E+04  2.770125E+04
       272  21  5.615609E+05  1.451220E+05  1.561868E+05  1.370277E+05  1.443138E+05  5.163569E+04
       272  22  7.807690E+05  1.138978E+05  5.876834E+04  3.110940E+05  4.408021E+04  9.096293E+03
       272  23  7.554792E+05  8.225421E+04  9.576176E+04  2.996718E+05  9.695327E+04  2.802325E+04
       272  24  8.045704E+05  2.806213E+05  2.310909E+05  2.479810E+05  1.475799E+05  5.288391E+04
       272  25  1.027378E+06  1.877501E+05  1.208802E+05  3.591165E+05  4.250163E+04  8.496970E+03
       272  26  1.000095E+06  1.867280E+05  1.633221E+05  3.791771E+05  9.779759E+04  2.834542E+04
       272  27  1.047640E+06  4.161473E+05  3.059888E+05  3.589793E+05  1.508472E+05  5.413320E+04
       273   1 -4.395723E+04 -7.288597E+05 -5.419114E+04  1.402542E+04 -2.016788E+02 -2.943101E+04
       273   2 -1.023343E+03 -7.184719E+05 -2.890875E+04  5.183372E+03 -7.782209E+02 -1.731643E+04
       273   3 -5.474757E+03 -7.214893E+05 -2.336267E+04 -5.377522E+02 -6.691886E+02 -5.199657E+03
       273   4 -3.580410E+04 -6.965012E+05 -4.616084E+04  3.864804E+03 -2.023007E+02 -2.905010E+04
       273   5  6.119134E+03 -6.898184E+05 -2.196852E+04  2.356944E+03 -7.783867E+02 -1.723099E+04
       273   6  7.093935E+02 -6.964890E+05 -1.730648E+04  3.970234E+03 -6.686258E+02 -5.409777E+03
       273   7 -2.765067E+04 -6.641415E+05 -3.813057E+04 -6.296341E+03 -2.029351E+02 -2.866916E+04
       273   8  1.326158E+04 -6.611642E+05 -1.502835E+04 -4.696150E+02 -7.785533E+02 -1.714555E+04
       273   9  6.893575E+03 -6.714881E+05 -1.125032E+04  8.478403E+03 -6.680660E+02 -5.619906E+03
       273  10 -4.395747E+04 -7.288606E+05 -5.419277E+04  1.402541E+04  3.542017E-10 -3.216973E-09
       273  11 -1.023424E+03 -7.184722E+05 -2.890932E+04  5.183362E+03  9.232314E-10  3.519547E-09
       273  12 -5.474764E+03 -7.214893E+05 -2.336272E+04 -5.377550E+02  1.291951E-09  7.555483E-10
       273  13 -3.580433E+04 -6.965021E+05 -4.616243E+04  3.864800E+03  2.075612E-09 -6.192959E-09
       273  14  6.119053E+03 -6.898188E+05 -2.196908E+04  2.356933E+03 -4.572894E-10 -8.376456E-09
       273  15  7.093851E+02 -6.964890E+05 -1.730654E+04  3.970231E+03 -5.400834E-10  6.646065E-10
       273  16 -2.765089E+04 -6.641424E+05 -3.813212E+04 -6.296346E+03  8.193614E-10  5.359723E-09
       273  17  1.326150E+04 -6.611645E+05 -1.502891E+04 -4.696258E+02  1.642882E-09  1.080524E-08
       273  18  6.893566E+03 -6.714881E+05 -1.125038E+04  8.478400E+03 -2.585746E-09 -3.994359E-09
       273  19 -4.395723E+04 -7.288597E+05 -5.419114E+04  1.402542E+04  2.016788E+02  2.943101E+04
       273  20 -1.023343E+03 -7.184719E+05 -2.890875E+04  5.183372E+03  7.782209E+02  1.731643E+04
       273  21 -5.474757E+03 -7.214893E+05 -2.336267E+04 -5.377522E+02  6.691886E+02  5.199657E+03
       273  22 -3.580410E+04 -6.965012E+05 -4.616084E+04  3.864804E+03  2.023007E+02  2.905010E+04
       273  23  6.119134E+03 -6.898184E+05 -2.196852E+04  2.356944E+03  7.783867E+02  1.723099E+04
       273  24  7.093935E+02 -6.964890E+05 -1.730648E+04  3.970234E+03  6.686258E+02  5.409777E+03
       273  25 -2.765067E+04 -6.641415E+05 -3.813057E+04 -6.296341E+03  2.029351E+02  2.866916E+04
       273  26  1.326158E+04 -6.611642E+05 -1.502835E+04 -4.696150E+02  7.785533E+02  1.714555E+04
       273  27  6.893575E+03 -6.714881E+05 -1.125032E+04  8.478403E+03  6.680660E+02  5.619906E+03
       274   1 -8.462064E+03 -7.135331E+05 -2.108339E+04  6.195347E+03 -4.917777E+02 -2.432193E+03
       274   2 -1.562774E+03 -7.071407E+05 -1.945910E+04  2.071157E+03 -4.307260E+02  5.738474E+03
       274   3 -1.138146E+04 -7.059702E+05 -2.733317E+04  1.219057E+03 -3.176808E+02  1.390932E+04
       274   4 -3.758349E+03 -6.946835E+05 -1.650438E+04  3.971255E+03 -4.916965E+02 -2.457390E+03
       274   5  2.181150E+03 -6.920757E+05 -1.580685E+04  2.328404E+03 -4.305881E+02  5.690995E+03
       274   6 -8.593256E+03 -6.946859E+05 -2.459205E+04  3.957654E+03 -3.174215E+02  1.383951E+04
       274   7  9.453587E+02 -6.758336E+05 -1.192539E+04  1.747096E+03 -4.916152E+02 -2.482587E+03
       274   8  5.925058E+03 -6.770105E+05 -1.215462E+04  2.585657E+03 -4.304503E+02  5.643516E+03
       274   9 -5.805037E+03 -6.834014E+05 -2.185093E+04  6.696300E+03 -3.171628E+02  1.376970E+04
       274  10 -8.462066E+03 -7.135331E+05 -2.108340E+04  6.195346E+03 -4.852568E-10  7.774471E-09
       274  11 -1.562783E+03 -7.071407E+05 -1.945916E+04  2.071159E+03 -4.234230E-10  1.087164E-09
       274  12 -1.138151E+04 -7.059704E+05 -2.733353E+04  1.219061E+03 -1.377021E-09  2.989273E-10
       274  13 -3.758351E+03 -6.946835E+05 -1.650439E+04  3.971254E+03 -9.371326E-10 -1.815685E-09
       274  14  2.181141E+03 -6.920757E+05 -1.580691E+04  2.328406E+03 -1.579288E-09 -5.248919E-09
       274  15 -8.593307E+03 -6.946861E+05 -2.459241E+04  3.957657E+03 -3.154202E-09 -2.559096E-09
       274  16  9.453568E+02 -6.758336E+05 -1.192540E+04  1.747095E+03 -7.024217E-10 -5.644077E-09
       274  17  5.925049E+03 -6.770105E+05 -1.215468E+04  2.585659E+03  2.188100E-09  4.401312E-09
       274  18 -5.805088E+03 -6.834016E+05 -2.185129E+04  6.696303E+03  6.669913E-10  9.436986E-10
       274  19 -8.462064E+03 -7.135331E+05 -2.108339E+04  6.195347E+03  4.917777E+02  2.432193E+03
       274  20 -1.562774E+03 -7.071407E+05 -1.945910E+04  2.071157E+03  4.307260E+02 -5.738474E+03
       274  21 -1.138146E+04 -7.059702E+05 -2.733317E+04  1.219057E+03  3.176808E+02 -1.390932E+04
       274  22 -3.758349E+03 -6.946835E+05 -1.650438E+04  3.971255E+03  4.916965E+02  2.457390E+03
       274  23  2.181150E+03 -6.920757E+05 -1.580685E+04  2.328404E+03  4.305881E+02 -5.690995E+03
       274  24 -8.593256E+03 -6.946859E+05 -2.459205E+04  3.957654E+03  3.174215E+02 -1.383951E+04
       274  25  9.453587E+02 -6.758336E+05 -1.192539E+04  1.747096E+03  4.916152E+02  2.482587E+03
       274  26  5.925058E+03 -6.770105E+05 -1.215462E+04  2.585657E+03  4.304503E+02 -5.643516E+03
       274  27 -5.805037E+03 -6.834014E+05 -2.185093E+04  6.696300E+03  3.171628E+02 -1.376970E+04
       275   1  1.849368E+03 -7.046322E+05 -2.993224E+04  1.332112E+04 -2.202073E+02  1.855335E+04
       275   2  1.236022E+04 -6.871891E+05 -4.317724E+04 -3.527244E+03 -1.448769E+02  4.168982E+04
       275   3 -7.484484E+04 -6.971739E+05 -9.591995E+04 -1.724324E+04 -1.755970E+02  6.482596E+04
       275   4  3.160148E+03 -6.996170E+05 -2.871161E+04  4.010401E+03 -2.202499E+02  1.846978E+04
       275   5  1.263684E+04 -6.859120E+05 -4.287358E+04  2.333454E+03 -1.443750E+02  4.165158E+04
       275   6 -7.561108E+04 -6.996435E+05 -9.656493E+04  3.788402E+03 -1.734186E+02  6.483289E+04
       275   7  4.471252E+03 -6.946016E+05 -2.749093E+04 -5.300390E+03 -2.202900E+02  1.838622E+04
       275   8  1.291358E+04 -6.846349E+05 -4.256990E+04  8.194164E+03 -1.438737E+02  4.161334E+04
       275   9 -7.637565E+04 -7.021121E+05 -9.720968E+04  2.481996E+04 -1.712398E+02  6.483983E+04
       275  10  1.849275E+03 -7.046326E+05 -2.993289E+04  1.332112E+04 -1.487557E-09  6.850761E-09
       275  11  1.235976E+04 -6.871909E+05 -4.318051E+04 -3.527239E+03 -1.783135E-09 -2.437136E-09
       275  12 -7.484597E+04 -6.971785E+05 -9.592786E+04 -1.724323E+04 -1.433122E-09 -5.872810E-09
       275  13  3.160056E+03 -6.996174E+05 -2.871225E+04  4.010404E+03 -1.429232E-09 -1.701007E-09
       275  14  1.263637E+04 -6.859139E+05 -4.287684E+04  2.333459E+03 -3.037561E-09 -6.071367E-09
       275  15 -7.561221E+04 -6.996480E+05 -9.657284E+04  3.788411E+03 -9.536279E-10 -4.683589E-09
       275  16  4.471161E+03 -6.946019E+05 -2.749157E+04 -5.300387E+03 -3.588084E-09 -5.657060E-09
       275  17  1.291311E+04 -6.846367E+05 -4.257316E+04  8.194169E+03 -2.458197E-09  8.664808E-09
       275  18 -7.637678E+04 -7.021166E+05 -9.721759E+04  2.481997E+04 -1.544035E-09  6.878346E-09
       275  19  1.849368E+03 -7.046322E+05 -2.993224E+04  1.332112E+04  2.202073E+02 -1.855335E+04
       275  20  1.236022E+04 -6.871891E+05 -4.317724E+04 -3.527244E+03  1.448769E+02 -4.168982E+04
       275  21 -7.484484E+04 -6.971739E+05 -9.591995E+04 -1.724324E+04  1.755970E+02 -6.482596E+04
       275  22  3.160148E+03 -6.996170E+05 -2.871161E+04  4.010401E+03  2.202499E+02 -1.846978E+04
       275  23  1.263684E+04 -6.859120E+05 -4.287358E+04  2.333454E+03  1.443750E+02 -4.165158E+04
       275  24 -7.561108E+04 -6.996435E+05 -9.656493E+04  3.788402E+03  1.734186E+02 -6.483289E+04
       275  25  4.471252E+03 -6.946016E+05 -2.749093E+04 -5.300390E+03  2.202900E+02 -1.838622E+04
       275  26  1.291358E+04 -6.846349E+05 -4.256990E+04  8.194164E+03  1.438737E+02 -4.161334E+04
       275  27 -7.637565E+04 -7.021121E+05 -9.720968E+04  2.481996E+04  1.712398E+02 -6.483983E+04
       276   1  4.975535E+05  9.919953E+03  3.320572E+04  1.594421E+03  6.740224E+04  1.378251E+03
       276   2  4.942126E+05 -8.100483E+04 -2.066049E+04  5.932866E+03  4.466967E+04  3.678426E+03
       276   3  5.215081E+05 -6.350346E+04 -3.251118E+04 -1.314383E+04  2.194052E+04  2.905714E+03
       276   4  7.649618E+05  7.665134E+04  9.984293E+04 -8.200262E+03  6.816650E+04  1.378375E+03
       276   5  7.496104E+05 -1.729642E+04  4.269038E+04  3.570694E+03  4.483461E+04  3.678352E+03
       276   6  7.649866E+05 -2.738068E+03  2.795631E+04 -8.072786E+03  2.150661E+04  2.905452E+03
       276   7  1.032435E+06  1.433777E+05  1.664748E+05 -1.799919E+04  6.893108E+04  1.378475E+03
       276   8  1.005067E+06  4.640713E+04  1.060364E+05  1.207532E+03  4.499962E+04  3.678276E+03
       276   9  1.008519E+06  5.802297E+04  8.841938E+04 -2.999765E+03  2.107252E+04  2.905182E+03
       276  10  4.975486E+05  9.918733E+03  3.319719E+04  1.594347E+03 -1.383033E-10  5.860017E-11
       276  11  4.942104E+05 -8.100538E+04 -2.066427E+04  5.932734E+03  1.133250E-10  9.227491E-12
       276  12  5.215076E+05 -6.350360E+04 -3.251210E+04 -1.314388E+04  1.878109E-10 -1.146610E-10
       276  13  7.649568E+05  7.665009E+04  9.983421E+04 -8.200338E+03 -1.693709E-11  6.889857E-11
       276  14  7.496082E+05 -1.729697E+04  4.268658E+04  3.570561E+03 -1.556933E-10 -3.576013E-11
       276  15  7.649861E+05 -2.738201E+03  2.795542E+04 -8.072836E+03 -4.573026E-10 -2.815304E-10
       276  16  1.032430E+06  1.433764E+05  1.664659E+05 -1.799926E+04 -2.930992E-11 -8.366623E-12
       276  17  1.005065E+06  4.640657E+04  1.060326E+05  1.207398E+03  6.629860E-12  4.660528E-11
       276  18  1.008518E+06  5.802285E+04  8.841853E+04 -2.999814E+03  1.692635E-10 -4.140852E-10
       276  19  4.975535E+05  9.919953E+03  3.320572E+04  1.594421E+03 -6.740224E+04 -1.378251E+03
       276  20  4.942126E+05 -8.100483E+04 -2.066049E+04  5.932866E+03 -4.466967E+04 -3.678426E+03
       276  21  5.215081E+05 -6.350346E+04 -3.251118E+04 -1.314383E+04 -2.194052E+04 -2.905714E+03
       276  22  7.649618E+05  7.665134E+04  9.984293E+04 -8.200262E+03 -6.816650E+04 -1.378375E+03
       276  23  7.496104E+05 -1.729642E+04  4.269038E+04  3.570694E+03 -4.483461E+04 -3.678352E+03
       276  24  7.649866E+05 -2.738068E+03  2.795631E+04 -8.072786E+03 -2.150661E+04 -2.905452E+03
       276  25  1.032435E+06  1.433777E+05  1.664748E+05 -1.799919E+04 -6.893108E+04 -1.378475E+03
       276  26  1.005067E+06  4.640713E+04  1.060364E+05  1.207532E+03 -4.499962E+04 -3.678276E+03
       276  27  1.008519E+06  5.802297E+04  8.841938E+04 -2.999765E+03 -2.107252E+04 -2.905182E+03
       277   1  5.788676E+05 -3.373260E+04 -2.169463E+04 -5.883523E+03  1.685933E+04  2.180154E+03
       277   2  5.862712E+05 -4.509911E+04 -3.122844E+04  2.749431E+03  1.112324E+04  2.178845E+03
       277   3  5.986627E+05 -4.046580E+04 -3.298134E+04 -7.957583E+03  5.387057E+03  1.783311E+03
       277   4  7.592709E+05  1.127857E+04  2.310120E+04 -7.211584E+03  1.690097E+04  2.180103E+03
       277   5  7.567726E+05 -2.559697E+03  1.109352E+04  2.461872E+03  1.108763E+04  2.178788E+03
       277   6  7.592742E+05 -3.871294E+02  6.918772E+03 -7.204291E+03  5.274299E+03  1.783276E+03
       277   7  9.397038E+05  5.628731E+04  6.789459E+04 -8.540036E+03  1.694262E+04  2.180052E+03
       277   8  9.273004E+05  3.997754E+04  5.341332E+04  2.174232E+03  1.105202E+04  2.178730E+03
       277   9  9.199090E+05  3.968961E+04  4.681695E+04 -6.450806E+03  5.161511E+03  1.783240E+03
       277  10  5.788673E+05 -3.373268E+04 -2.169517E+04 -5.883552E+03 -3.207607E-10 -2.382919E-10
       277  11  5.862711E+05 -4.509915E+04 -3.122868E+04  2.749411E+03 -4.059764E-10 -1.086085E-10
       277  12  5.986627E+05 -4.046581E+04 -3.298140E+04 -7.957590E+03 -2.750198E-11 -6.799706E-11
       277  13  7.592706E+05  1.127849E+04  2.310065E+04 -7.211614E+03 -5.302320E-10 -3.677476E-10
       277  14  7.567725E+05 -2.559735E+03  1.109328E+04  2.461852E+03  9.207526E-11 -2.261439E-10
       277  15  7.592741E+05 -3.871403E+02  6.918714E+03 -7.204299E+03 -2.490733E-10 -9.679527E-11
       277  16  9.397035E+05  5.628723E+04  6.789404E+04 -8.540066E+03  2.551757E-10 -4.865179E-10
       277  17  9.273003E+05  3.997750E+04  5.341308E+04  2.174212E+03  7.540829E-10 -1.553968E-11
       277  18  9.199090E+05  3.968960E+04  4.681690E+04 -6.450813E+03 -9.289405E-11  8.774228E-11
       277  19  5.788676E+05 -3.373260E+04 -2.169463E+04 -5.883523E+03 -1.685933E+04 -2.180154E+03
       277  20  5.862712E+05 -4.509911E+04 -3.122844E+04  2.749431E+03 -1.112324E+04 -2.178845E+03
       277  21  5.986627E+05 -4.046580E+04 -3.298134E+04 -7.957583E+03 -5.387057E+03 -1.783311E+03
       277  22  7.592709E+05  1.127857E+04  2.310120E+04 -7.211584E+03 -1.690097E+04 -2.180103E+03
       277  23  7.567726E+05 -2.559697E+03  1.109352E+04  2.461872E+03 -1.108763E+04 -2.178788E+03
       277  24  7.592742E+05 -3.871294E+02  6.918772E+03 -7.204291E+03 -5.274299E+03 -1.783276E+03
       277  25  9.397038E+05  5.628731E+04  6.789459E+04 -8.540036E+03 -1.694262E+04 -2.180052E+03
       277  26  9.273004E+05  3.997754E+04  5.341332E+04  2.174232E+03 -1.105202E+04 -2.178730E+03
       277  27  9.199090E+05  3.968961E+04  4.681695E+04 -6.450806E+03 -5.161511E+03 -1.783240E+03
       278   1  6.513322E+05 -2.505342E+04 -2.100205E+04 -6.461622E+03  4.199309E+03  1.514881E+03
       278   2  6.595229E+05 -2.493220E+04 -2.149727E+04  1.818557E+03  2.706452E+03  1.225001E+03
       278   3  6.685677E+05 -2.244264E+04 -2.041560E+04 -6.741255E+03  1.213468E+03  9.085785E+02
       278   4  7.583570E+05  1.644171E+03  5.544007E+03 -6.650867E+03  4.146630E+03  1.514863E+03
       278   5  7.579295E+05 -3.803491E+02  2.931995E+03  1.769030E+03  2.648443E+03  1.224998E+03
       278   6  7.583569E+05 -3.576945E+01  1.900416E+03 -6.650897E+03  1.150150E+03  9.085905E+02
       278   7  8.653922E+05  2.834090E+04  3.208921E+04 -6.840145E+03  4.093942E+03  1.514846E+03
       278   8  8.563449E+05  2.417078E+04  2.736054E+04  1.719495E+03  2.590425E+03  1.224994E+03
       278   9  8.481534E+05  2.237049E+04  2.421583E+04 -6.560525E+03  1.086822E+03  9.086025E+02
       278  10  6.513321E+05 -2.505343E+04 -2.100208E+04 -6.461627E+03 -3.780188E-10  5.869212E-11
       278  11  6.595229E+05 -2.493221E+04 -2.149729E+04  1.818554E+03 -1.671616E-10 -7.798942E-11
       278  12  6.685677E+05 -2.244264E+04 -2.041561E+04 -6.741256E+03 -1.634731E-10  1.399854E-10
       278  13  7.583570E+05  1.644164E+03  5.543970E+03 -6.650872E+03 -3.394198E-11 -7.699109E-11
       278  14  7.579295E+05 -3.803526E+02  2.931979E+03  1.769027E+03  2.693107E-10 -1.313154E-10
       278  15  7.583569E+05 -3.577069E+01  1.900412E+03 -6.650898E+03 -3.273408E-10 -7.280568E-11
       278  16  8.653922E+05  2.834090E+04  3.208917E+04 -6.840150E+03  7.431571E-11  5.139732E-11
       278  17  8.563449E+05  2.417078E+04  2.736052E+04  1.719493E+03  7.761126E-10  1.467424E-10
       278  18  8.481534E+05  2.237049E+04  2.421583E+04 -6.560526E+03  9.829420E-12  3.238682E-11
       278  19  6.513322E+05 -2.505342E+04 -2.100205E+04 -6.461622E+03 -4.199309E+03 -1.514881E+03
       278  20  6.595229E+05 -2.493220E+04 -2.149727E+04  1.818557E+03 -2.706452E+03 -1.225001E+03
       278  21  6.685677E+05 -2.244264E+04 -2.041560E+04 -6.741255E+03 -1.213468E+03 -9.085785E+02
       278  22  7.583570E+05  1.644171E+03  5.544007E+03 -6.650867E+03 -4.146630E+03 -1.514863E+03
       278  23  7.579295E+05 -3.803491E+02  2.931995E+03  1.769030E+03 -2.648443E+03 -1.224998E+03
       278  24  7.583569E+05 -3.576945E+01  1.900416E+03 -6.650897E+03 -1.150150E+03 -9.085905E+02
       278  25  8.653922E+05  2.834090E+04  3.208921E+04 -6.840145E+03 -4.093942E+03 -1.514846E+03
       278  26  8.563449E+05  2.417078E+04  2.736054E+04  1.719495E+03 -2.590425E+03 -1.224994E+03
       278  27  8.481534E+05  2.237049E+04  2.421583E+04 -6.560525E+03 -1.086822E+03 -9.086025E+02
       279   1  7.165120E+05 -1.016146E+04 -8.736562E+03 -6.338284E+03  8.927985E+02  7.217934E+02
       279   2  7.244075E+05 -8.485751E+03 -7.196950E+03  1.443604E+03  3.033853E+02  4.174537E+02
       279   3  7.324908E+05 -6.335022E+03 -5.156777E+03 -6.392260E+03 -2.860843E+02  1.187897E+02
       279   4  7.582107E+05  2.367044E+02  1.589356E+03 -6.379228E+03  8.337629E+02  7.218125E+02
       279   5  7.581168E+05 -7.574310E+01  1.171288E+03  1.429597E+03  2.454069E+02  4.174768E+02
       279   6  7.582104E+05  8.660654E+01  1.253000E+03 -6.379276E+03 -3.429980E+02  1.188168E+02
       279   7  7.999109E+05  1.063474E+04  1.191514E+04 -6.420176E+03  7.747233E+02  7.218316E+02
       279   8  7.918272E+05  8.334180E+03  9.539442E+03  1.415589E+03  1.874253E+02  4.174999E+02
       279   9  7.839306E+05  6.508185E+03  7.662727E+03 -6.366292E+03 -3.999140E+02  1.188439E+02
       279  10  7.165120E+05 -1.016146E+04 -8.736565E+03 -6.338284E+03  9.190397E-12 -9.281223E-11
       279  11  7.244075E+05 -8.485751E+03 -7.196950E+03  1.443604E+03  2.867050E-11 -5.916064E-10
       279  12  7.324908E+05 -6.335022E+03 -5.156777E+03 -6.392260E+03 -6.131315E-10 -5.056741E-10
       279  13  7.582107E+05  2.367037E+02  1.589353E+03 -6.379229E+03 -2.183661E-10  4.697533E-11
       279  14  7.581168E+05 -7.574330E+01  1.171288E+03  1.429597E+03 -1.607244E-10  4.697376E-10
       279  15  7.582104E+05  8.660649E+01  1.253000E+03 -6.379276E+03 -9.607202E-12  5.356925E-10
       279  16  7.999109E+05  1.063474E+04  1.191514E+04 -6.420176E+03 -3.827151E-10  4.506627E-11
       279  17  7.918272E+05  8.334179E+03  9.539441E+03  1.415589E+03  1.137804E-09 -3.662152E-10
       279  18  7.839306E+05  6.508185E+03  7.662727E+03 -6.366292E+03 -1.164328E-10 -4.664062E-10
       279  19  7.165120E+05 -1.016146E+04 -8.736562E+03 -6.338284E+03 -8.927985E+02 -7.217934E+02
       279  20  7.244075E+05 -8.485751E+03 -7.196950E+03  1.443604E+03 -3.033853E+02 -4.174537E+02
       279  21  7.324908E+05 -6.335022E+03 -5.156777E+03 -6.392260E+03  2.860843E+02 -1.187897E+02
       279  22  7.582107E+05  2.367044E+02  1.589356E+03 -6.379228E+03 -8.337629E+02 -7.218125E+02
       279  23  7.581168E+05 -7.574310E+01  1.171288E+03  1.429597E+03 -2.454069E+02 -4.174768E+02
       279  24  7.582104E+05  8.660654E+01  1.253000E+03 -6.379276E+03  3.429980E+02 -1.188168E+02
       279  25  7.999109E+05  1.063474E+04  1.191514E+04 -6.420176E+03 -7.747233E+02 -7.218316E+02
       279  26  7.918272E+05  8.334180E+03  9.539442E+03  1.415589E+03 -1.874253E+02 -4.174999E+02
       279  27  7.839306E+05  6.508185E+03  7.662727E+03 -6.366292E+03  3.999140E+02 -1.188439E+02
       280   1  7.787370E+05  5.136586E+03  6.515515E+03 -6.329008E+03 -5.267279E+02 -5.334412E+01
       280   2  7.865241E+05  6.948340E+03  9.079596E+03  1.399612E+03 -1.541369E+03 -3.519570E+02
       280   3  7.946678E+05  9.701164E+03  1.253667E+04 -6.440194E+03 -2.555990E+03 -6.543469E+02
       280   4  7.582481E+05  2.011898E+01  1.404370E+03 -6.368411E+03 -5.838286E+02 -5.331655E+01
       280   5  7.580697E+05 -1.503774E+02  2.016158E+03  1.415943E+03 -1.599155E+03 -3.519330E+02
       280   6  7.582479E+05  6.203469E+02  3.521450E+03 -6.368175E+03 -2.614449E+03 -6.543265E+02
       280   7  7.377596E+05 -5.096380E+03 -3.706808E+03 -6.407813E+03 -6.409274E+02 -5.328897E+01
       280   8  7.296159E+05 -7.249156E+03 -5.047342E+03  1.432272E+03 -1.656939E+03 -3.519090E+02
       280   9  7.218292E+05 -8.460569E+03 -5.493866E+03 -6.296159E+03 -2.672904E+03 -6.543061E+02
       280  10  7.787370E+05  5.136586E+03  6.515515E+03 -6.329008E+03  4.510949E-10 -5.833687E-10
       280  11  7.865241E+05  6.948340E+03  9.079592E+03  1.399612E+03 -2.080612E-10  7.952624E-11
       280  12  7.946678E+05  9.701162E+03  1.253665E+04 -6.440196E+03 -1.764448E-10  3.259356E-10
       280  13  7.582481E+05  2.011889E+01  1.404369E+03 -6.368411E+03  4.197963E-10  7.449570E-10
       280  14  7.580697E+05 -1.503783E+02  2.016153E+03  1.415942E+03 -5.731181E-10  4.973933E-10
       280  15  7.582479E+05  6.203447E+02  3.521437E+03 -6.368176E+03 -5.199257E-11  1.859949E-10
       280  16  7.377596E+05 -5.096380E+03 -3.706809E+03 -6.407813E+03 -3.414881E-10 -6.177387E-10
       280  17  7.296159E+05 -7.249157E+03 -5.047347E+03  1.432272E+03  9.486070E-10 -1.336945E-10
       280  18  7.218291E+05 -8.460572E+03 -5.493880E+03 -6.296161E+03 -2.376444E-10 -7.638556E-11
       280  19  7.787370E+05  5.136586E+03  6.515515E+03 -6.329008E+03  5.267279E+02  5.334412E+01
       280  20  7.865241E+05  6.948340E+03  9.079596E+03  1.399612E+03  1.541369E+03  3.519570E+02
       280  21  7.946678E+05  9.701164E+03  1.253667E+04 -6.440194E+03  2.555990E+03  6.543469E+02
       280  22  7.582481E+05  2.011898E+01  1.404370E+03 -6.368411E+03  5.838286E+02  5.331655E+01
       280  23  7.580697E+05 -1.503774E+02  2.016158E+03  1.415943E+03  1.599155E+03  3.519330E+02
       280  24  7.582479E+05  6.203469E+02  3.521450E+03 -6.368175E+03  2.614449E+03  6.543265E+02
       280  25  7.377596E+05 -5.096380E+03 -3.706808E+03 -6.407813E+03  6.409274E+02  5.328897E+01
       280  26  7.296159E+05 -7.249156E+03 -5.047342E+03  1.432272E+03  1.656939E+03  3.519090E+02
       280  27  7.218292E+05 -8.460569E+03 -5.493866E+03 -6.296159E+03  2.672904E+03  6.543061E+02
       281   1  8.428500E+05  2.088488E+04  2.538775E+04 -6.348192E+03 -3.273835E+03 -8.397126E+02
       281   2  8.503542E+05  2.216598E+04  3.035989E+04  1.616739E+03 -7.029032E+03 -1.153988E+03
       281   3  8.599279E+05  2.954082E+04  3.930943E+04 -7.111217E+03 -1.078411E+04 -1.441742E+03
       281   4  7.586267E+05 -1.309403E+02  4.455864E+03 -6.618406E+03 -3.336695E+03 -8.396969E+02
       281   5  7.575914E+05 -9.751583E+02  7.334397E+03  1.728250E+03 -7.086300E+03 -1.153989E+03
       281   6  7.586250E+05  4.273941E+03  1.418693E+04 -6.618137E+03 -1.083574E+04 -1.441763E+03
       281   7  6.744098E+05 -2.114729E+04 -1.647655E+04 -6.888582E+03 -3.399547E+03 -8.396811E+02
       281   8  6.648364E+05 -2.411694E+04 -1.569174E+04  1.839744E+03 -7.143559E+03 -1.153990E+03
       281   9  6.573313E+05 -2.099371E+04 -1.093634E+04 -6.125138E+03 -1.088736E+04 -1.441784E+03
       281  10  8.428500E+05  2.088487E+04  2.538773E+04 -6.348194E+03  2.503315E-11 -1.460602E-10
       281  11  8.503542E+05  2.216597E+04  3.035979E+04  1.616732E+03  2.632947E-10 -2.405998E-10
       281  12  8.599278E+05  2.954079E+04  3.930921E+04 -7.111229E+03  1.238575E-10 -7.262750E-11
       281  13  7.586267E+05 -1.309441E+02  4.455842E+03 -6.618408E+03  3.376253E-10 -1.527013E-10
       281  14  7.575913E+05 -9.751732E+02  7.334300E+03  1.728243E+03  3.291916E-10 -2.244643E-10
       281  15  7.586248E+05  4.273907E+03  1.418671E+04 -6.618150E+03  9.067734E-11 -1.646137E-10
       281  16  6.744098E+05 -2.114729E+04 -1.647657E+04 -6.888585E+03 -2.904596E-10 -7.139392E-11
       281  17  6.648363E+05 -2.411696E+04 -1.569183E+04  1.839738E+03 -1.384196E-10 -3.373037E-10
       281  18  6.573312E+05 -2.099374E+04 -1.093656E+04 -6.125151E+03 -3.842365E-10 -8.405990E-11
       281  19  8.428500E+05  2.088488E+04  2.538775E+04 -6.348192E+03  3.273835E+03  8.397126E+02
       281  20  8.503542E+05  2.216598E+04  3.035989E+04  1.616739E+03  7.029032E+03  1.153988E+03
       281  21  8.599279E+05  2.954082E+04  3.930943E+04 -7.111217E+03  1.078411E+04  1.441742E+03
       281  22  7.586267E+05 -1.309403E+02  4.455864E+03 -6.618406E+03  3.336695E+03  8.396969E+02
       281  23  7.575914E+05 -9.751583E+02  7.334397E+03  1.728250E+03  7.086300E+03  1.153989E+03
       281  24  7.586250E+05  4.273941E+03  1.418693E+04 -6.618137E+03  1.083574E+04  1.441763E+03
       281  25  6.744098E+05 -2.114729E+04 -1.647655E+04 -6.888582E+03  3.399547E+03  8.396811E+02
       281  26  6.648364E+05 -2.411694E+04 -1.569174E+04  1.839744E+03  7.143559E+03  1.153990E+03
       281  27  6.573313E+05 -2.099371E+04 -1.093634E+04 -6.125138E+03  1.088736E+04  1.441784E+03
       282   1  9.152345E+05  3.748212E+04  5.608131E+04 -5.218929E+03 -1.361372E+04 -1.706754E+03
       282   2  9.187311E+05  3.431187E+04  6.935506E+04  1.556945E+03 -2.869418E+04 -2.101960E+03
       282   3  9.347627E+05  7.256407E+04  1.028370E+05 -1.075632E+04 -4.377517E+04 -2.117474E+03
       282   4  7.609465E+05 -1.011517E+03  1.775882E+04 -7.146019E+03 -1.372352E+04 -1.706746E+03
       282   5  7.546782E+05 -6.610132E+03  2.864233E+04  2.390229E+03 -2.872752E+04 -2.102046E+03
       282   6  7.609348E+05  2.920633E+04  5.968480E+04 -7.162892E+03 -4.373182E+04 -2.117744E+03
       282   7  6.066801E+05 -3.950692E+04 -2.056545E+04 -9.072631E+03 -1.383329E+04 -1.706737E+03
       282   8  5.906497E+05 -4.753415E+04 -1.207241E+04  3.223292E+03 -2.876085E+04 -2.102132E+03
       282   9  5.871342E+05 -1.415362E+04  1.653036E+04 -3.570470E+03 -4.368848E+04 -2.118014E+03
       282  10  9.152343E+05  3.748206E+04  5.608095E+04 -5.218947E+03  1.201468E-10 -8.129615E-11
       282  11  9.187302E+05  3.431164E+04  6.935350E+04  1.556897E+03 -6.066974E-10  3.745040E-10
       282  12  9.347607E+05  7.256355E+04  1.028334E+05 -1.075640E+04 -4.430395E-10  6.213336E-11
       282  13  7.609463E+05 -1.011570E+03  1.775846E+04 -7.146038E+03  1.847323E-10 -4.418589E-11
       282  14  7.546773E+05 -6.610358E+03  2.864077E+04  2.390181E+03  3.382340E-11  2.301633E-10
       282  15  7.609327E+05  2.920581E+04  5.968120E+04 -7.162967E+03 -4.967376E-10 -9.699612E-11
       282  16  6.066799E+05 -3.950697E+04 -2.056581E+04 -9.072650E+03 -2.479101E-10 -8.178544E-11
       282  17  5.906488E+05 -4.753437E+04 -1.207397E+04  3.223243E+03  1.334047E-10 -1.445497E-10
       282  18  5.871322E+05 -1.415414E+04  1.652677E+04 -3.570545E+03  3.878853E-10  9.149132E-11
       282  19  9.152345E+05  3.748212E+04  5.608131E+04 -5.218929E+03  1.361372E+04  1.706754E+03
       282  20  9.187311E+05  3.431187E+04  6.935506E+04  1.556945E+03  2.869418E+04  2.101960E+03
       282  21  9.347627E+05  7.256407E+04  1.028370E+05 -1.075632E+04  4.377517E+04  2.117474E+03
       282  22  7.609465E+05 -1.011517E+03  1.775882E+04 -7.146019E+03  1.372352E+04  1.706746E+03
       282  23  7.546782E+05 -6.610132E+03  2.864233E+04  2.390229E+03  2.872752E+04  2.102046E+03
       282  24  7.609348E+05  2.920633E+04  5.968480E+04 -7.162892E+03  4.373182E+04  2.117744E+03
       282  25  6.066801E+05 -3.950692E+04 -2.056545E+04 -9.072631E+03  1.383329E+04  1.706737E+03
       282  26  5.906497E+05 -4.753415E+04 -1.207241E+04  3.223292E+03  2.876085E+04  2.102132E+03
       282  27  5.871342E+05 -1.415362E+04  1.653036E+04 -3.570470E+03  4.368848E+04  2.118014E+03
       283   1  1.011488E+06  5.179874E+04  1.307849E+05  4.882128E+03 -5.520898E+04 -2.836114E+03
       283   2  9.839956E+05  1.706540E+04  1.718491E+05 -3.024462E+03 -1.161174E+05 -3.645808E+03
       283   3  1.035064E+06  2.628644E+05  3.227707E+05 -3.417841E+04 -1.770298E+05 -1.494894E+03
       283   4  7.756045E+05 -7.068466E+03  7.221881E+04 -7.979912E+03 -5.562518E+04 -2.835371E+03
       283   5  7.363281E+05 -4.468587E+04  1.104375E+05  3.488554E+03 -1.159440E+05 -3.646951E+03
       283   6  7.755406E+05  1.981850E+05  2.581359E+05 -8.289532E+03 -1.762656E+05 -1.501201E+03
       283   7  5.397715E+05 -6.593922E+04  1.364869E+04 -2.083708E+04 -5.604121E+04 -2.834610E+03
       283   8  4.887163E+05 -1.064416E+05  4.902135E+04  9.998956E+03 -1.157706E+05 -3.648090E+03
       283   9  5.160798E+05  1.335030E+05  1.934964E+05  1.758851E+04 -1.755016E+05 -1.507447E+03
       283  10  1.011485E+06  5.179791E+04  1.307791E+05  4.882002E+03 -3.782550E-10  2.064644E-10
       283  11  9.839811E+05  1.706177E+04  1.718238E+05 -3.024802E+03 -2.367319E-10  8.467416E-11
       283  12  1.035030E+06  2.628560E+05  3.227119E+05 -3.417862E+04 -6.721061E-10 -3.026984E-10
       283  13  7.756012E+05 -7.069304E+03  7.221299E+04 -7.980039E+03  2.567013E-10  3.610193E-11
       283  14  7.363137E+05 -4.468948E+04  1.104123E+05  3.488213E+03 -4.525218E-11 -6.019779E-11
       283  15  7.755072E+05  1.981766E+05  2.580776E+05 -8.289745E+03 -1.556370E-09  3.609660E-11
       283  16  5.397682E+05 -6.594007E+04  1.364278E+04 -2.083721E+04  7.549397E-10  9.388818E-12
       283  17  4.887019E+05 -1.064452E+05  4.899616E+04  9.998616E+03  1.085124E-09  5.486241E-10
       283  18  5.160467E+05  1.334948E+05  1.934386E+05  1.758830E+04  2.408515E-10  7.678264E-11
       283  19  1.011488E+06  5.179874E+04  1.307849E+05  4.882128E+03  5.520898E+04  2.836114E+03
       283  20  9.839956E+05  1.706540E+04  1.718491E+05 -3.024462E+03  1.161174E+05  3.645808E+03
       283  21  1.035064E+06  2.628644E+05  3.227707E+05 -3.417841E+04  1.770298E+05  1.494894E+03
       283  22  7.756045E+05 -7.068466E+03  7.221881E+04 -7.979912E+03  5.562518E+04  2.835371E+03
       283  23  7.363281E+05 -4.468587E+04  1.104375E+05  3.488554E+03  1.159440E+05  3.646951E+03
       283  24  7.755406E+05  1.981850E+05  2.581359E+05 -8.289532E+03  1.762656E+05  1.501201E+03
       283  25  5.397715E+05 -6.593922E+04  1.364869E+04 -2.083708E+04  5.604121E+04  2.834610E+03
       283  26  4.887163E+05 -1.064416E+05  4.902135E+04  9.998956E+03  1.157706E+05  3.648090E+03
       283  27  5.160798E+05  1.335030E+05  1.934964E+05  1.758851E+04  1.755016E+05  1.507447E+03
       284   1  1.096982E+05  8.855395E+05  1.310427E+05 -2.535618E+04  6.094365E+02  6.564349E+04
       284   2  1.645985E+04  8.526678E+05  7.166100E+04 -7.383053E+01  1.832768E+03  4.376769E+04
       284   3  2.467833E+04  8.479374E+05  5.186120E+04 -1.142873E+04  1.001812E+03  2.188783E+04
       284   4  7.232979E+04  7.360331E+05  9.378409E+04 -1.565227E+04  6.112650E+02  6.520886E+04
       284   5 -1.614244E+04  7.220055E+05  3.926240E+04  2.595098E+03  1.833040E+03  4.373252E+04
       284   6 -3.215558E+03  7.360565E+05  2.405245E+04 -1.579501E+04  1.000832E+03  2.225146E+04
       284   7  3.496009E+04  5.865473E+05  5.652383E+04 -5.950689E+03  6.130803E+02  6.477433E+04
       284   8 -4.874598E+04  5.913587E+05  6.862529E+03  5.263473E+03  1.833312E+03  4.369736E+04
       284   9 -3.111031E+04  6.241869E+05 -3.757230E+03 -2.016050E+04  9.998471E+02  2.261503E+04
       284  10  1.096970E+05  8.855348E+05  1.310346E+05 -2.535621E+04 -1.115994E-10 -1.530527E-10
       284  11  1.645933E+04  8.526657E+05  7.165740E+04 -7.389511E+01  1.789023E-10  8.003137E-11
       284  12  2.467820E+04  8.479369E+05  5.186030E+04 -1.142875E+04  1.433225E-09  2.547398E-10
       284  13  7.232865E+04  7.360286E+05  9.377611E+04 -1.565230E+04  6.827840E-10 -1.329777E-10
       284  14 -1.614296E+04  7.220035E+05  3.925880E+04  2.595034E+03 -2.203018E-09  3.071849E-10
       284  15 -3.215692E+03  7.360559E+05  2.405152E+04 -1.579503E+04  1.609066E-09 -3.080269E-11
       284  16  3.495896E+04  5.865428E+05  5.651595E+04 -5.950721E+03 -3.137958E-10  9.389998E-11
       284  17 -4.874650E+04  5.913567E+05  6.858938E+03  5.263409E+03 -8.247381E-10 -3.941028E-11
       284  18 -3.111045E+04  6.241864E+05 -3.758192E+03 -2.016052E+04  1.040365E-09 -3.366976E-10
       284  19  1.096982E+05  8.855395E+05  1.310427E+05 -2.535618E+04 -6.094365E+02 -6.564349E+04
       284  20  1.645985E+04  8.526678E+05  7.166100E+04 -7.383053E+01 -1.832768E+03 -4.376769E+04
       284  21  2.467833E+04  8.479374E+05  5.186120E+04 -1.142873E+04 -1.001812E+03 -2.188783E+04
       284  22  7.232979E+04  7.360331E+05  9.378409E+04 -1.565227E+04 -6.112650E+02 -6.520886E+04
       284  23 -1.614244E+04  7.220055E+05  3.926240E+04  2.595098E+03 -1.833040E+03 -4.373252E+04
       284  24 -3.215558E+03  7.360565E+05  2.405245E+04 -1.579501E+04 -1.000832E+03 -2.225146E+04
       284  25  3.496009E+04  5.865473E+05  5.652383E+04 -5.950689E+03 -6.130803E+02 -6.477433E+04
       284  26 -4.874598E+04  5.913587E+05  6.862529E+03  5.263473E+03 -1.833312E+03 -4.369736E+04
       284  27 -3.111031E+04  6.241869E+05 -3.757230E+03 -2.016050E+04 -9.998471E+02 -2.261503E+04
       285   1  1.198529E+04  7.347211E+05  1.990007E+04 -1.654140E+04  2.293915E+02  1.829426E+04
       285   2 -4.778906E+03  7.153091E+05  2.157178E+03  1.881294E+03 -2.135317E+02  1.536538E+04
       285   3 -1.320138E+04  6.981589E+05 -1.163683E+04 -1.541023E+04 -6.168127E+02  1.243671E+04
       285   4  1.088597E+04  7.303168E+05  1.883274E+04 -1.551822E+04  2.292102E+02  1.838460E+04
       285   5 -1.318721E+03  7.291891E+05  5.601619E+03  2.320285E+03 -2.137107E+02  1.544823E+04
       285   6 -5.180338E+03  7.303245E+05 -3.675156E+03 -1.555537E+04 -6.169854E+02  1.251199E+04
       285   7  9.786648E+03  7.259125E+05  1.776542E+04 -1.449504E+04  2.290293E+02  1.847494E+04
       285   8  2.141449E+03  7.430693E+05  9.046046E+03  2.759287E+03 -2.138897E+02  1.553108E+04
       285   9  2.840622E+03  7.624911E+05  4.286436E+03 -1.570051E+04 -6.171580E+02  1.258726E+04
       285  10  1.198520E+04  7.347207E+05  1.989944E+04 -1.654140E+04  4.006035E-10 -4.304183E-10
       285  11 -4.778969E+03  7.153088E+05  2.156735E+03  1.881296E+03  5.377208E-10 -3.557779E-10
       285  12 -1.320142E+04  6.981588E+05 -1.163712E+04 -1.541022E+04 -9.307950E-10  2.967904E-10
       285  13  1.088588E+04  7.303164E+05  1.883211E+04 -1.551822E+04  9.287015E-10 -6.901921E-12
       285  14 -1.318785E+03  7.291889E+05  5.601171E+03  2.320288E+03  1.709608E-09 -1.799898E-10
       285  15 -5.180380E+03  7.303244E+05 -3.675451E+03 -1.555536E+04  1.645740E-09 -1.865109E-10
       285  16  9.786556E+03  7.259121E+05  1.776478E+04 -1.449504E+04  7.088909E-10  5.155378E-10
       285  17  2.141384E+03  7.430690E+05  9.045594E+03  2.759290E+03 -1.717068E-09  3.736892E-10
       285  18  2.840579E+03  7.624909E+05  4.286138E+03 -1.570050E+04 -2.155351E-10 -1.527766E-10
       285  19  1.198529E+04  7.347211E+05  1.990007E+04 -1.654140E+04 -2.293915E+02 -1.829426E+04
       285  20 -4.778906E+03  7.153091E+05  2.157178E+03  1.881294E+03  2.135317E+02 -1.536538E+04
       285  21 -1.320138E+04  6.981589E+05 -1.163683E+04 -1.541023E+04  6.168127E+02 -1.243671E+04
       285  22  1.088597E+04  7.303168E+05  1.883274E+04 -1.551822E+04 -2.292102E+02 -1.838460E+04
       285  23 -1.318721E+03  7.291891E+05  5.601619E+03  2.320285E+03  2.137107E+02 -1.544823E+04
       285  24 -5.180338E+03  7.303245E+05 -3.675156E+03 -1.555537E+04  6.169854E+02 -1.251199E+04
       285  25  9.786648E+03  7.259125E+05  1.776542E+04 -1.449504E+04 -2.290293E+02 -1.847494E+04
       285  26  2.141449E+03  7.430693E+05  9.046046E+03  2.759287E+03  2.138897E+02 -1.553108E+04
       285  27  2.840622E+03  7.624911E+05  4.286436E+03 -1.570051E+04  6.171580E+02 -1.258726E+04
       286   1 -3.223075E+04  5.867285E+05 -4.202371E+04 -1.369159E+04 -1.440575E+03  1.307536E+04
       286   2 -3.270451E+04  5.737913E+05 -5.580883E+04  1.834316E+03 -2.370076E+03  2.247908E+04
       286   3 -7.756515E+04  5.485498E+05 -8.680745E+04 -1.994707E+04 -9.242504E+02  3.188699E+04
       286   4  2.811658E+03  7.270950E+05 -7.131440E+03 -1.586958E+04 -1.441494E+03  1.348043E+04
       286   5  7.059681E+03  7.332155E+05 -1.627284E+04  2.752466E+03 -2.369900E+03  2.242986E+04
       286   6 -3.299423E+04  7.271133E+05 -4.230914E+04 -1.593233E+04 -9.231534E+02  3.138377E+04
       286   7  3.785261E+04  8.674793E+05  2.775936E+04 -1.804806E+04 -1.442415E+03  1.388559E+04
       286   8  4.682198E+04  8.926627E+05  2.326127E+04  3.670863E+03 -2.369725E+03  2.238062E+04
       286   9  1.157437E+04  9.057057E+05  2.186788E+03 -1.191644E+04 -9.220631E+02  3.088041E+04
       286  10 -3.223080E+04  5.867283E+05 -4.202404E+04 -1.369157E+04 -3.939575E-11 -2.533720E-10
       286  11 -3.270466E+04  5.737908E+05 -5.580979E+04  1.834359E+03  4.558060E-10 -1.863642E-10
       286  12 -7.756543E+04  5.485487E+05 -8.680936E+04 -1.994704E+04 -2.496858E-10  1.451314E-10
       286  13  2.811607E+03  7.270948E+05 -7.131785E+03 -1.586957E+04 -1.349666E-09  9.746207E-11
       286  14  7.059541E+03  7.332149E+05 -1.627379E+04  2.752509E+03  2.860519E-10 -1.249818E-10
       286  15 -3.299449E+04  7.271123E+05 -4.231099E+04 -1.593231E+04 -6.434472E-10  7.308953E-11
       286  16  3.785255E+04  8.674791E+05  2.775900E+04 -1.804804E+04  6.322112E-10  9.033297E-11
       286  17  4.682184E+04  8.926621E+05  2.326032E+04  3.670906E+03 -7.512278E-10  2.520768E-11
       286  18  1.157411E+04  9.057047E+05  2.184997E+03 -1.191641E+04 -1.057704E-09 -1.052923E-10
       286  19 -3.223075E+04  5.867285E+05 -4.202371E+04 -1.369159E+04  1.440575E+03 -1.307536E+04
       286  20 -3.270451E+04  5.737913E+05 -5.580883E+04  1.834316E+03  2.370076E+03 -2.247908E+04
       286  21 -7.756515E+04  5.485498E+05 -8.680745E+04 -1.994707E+04  9.242504E+02 -3.188699E+04
       286  22  2.811658E+03  7.270950E+05 -7.131440E+03 -1.586958E+04  1.441494E+03 -1.348043E+04
       286  23  7.059681E+03  7.332155E+05 -1.627284E+04  2.752466E+03  2.369900E+03 -2.242986E+04
       286  24 -3.299423E+04  7.271133E+05 -4.230914E+04 -1.593233E+04  9.231534E+02 -3.138377E+04
       286  25  3.785261E+04  8.674793E+05  2.775936E+04 -1.804806E+04  1.442415E+03 -1.388559E+04
       286  26  4.682198E+04  8.926627E+05  2.326127E+04  3.670863E+03  2.369725E+03 -2.238062E+04
       286  27  1.157437E+04  9.057057E+05  2.186788E+03 -1.191644E+04  9.220631E+02 -3.088041E+04
       287   1 -8.460180E+05 -3.134498E+05 -2.565457E+05 -2.628790E+05 -1.413392E+05 -5.258103E+04
       287   2 -8.000096E+05 -1.130920E+05 -1.245377E+05 -3.084962E+05 -9.138529E+04 -3.237681E+04
       287   3 -8.431106E+05 -1.362084E+05 -9.103053E+04 -2.974190E+05 -4.089761E+04 -1.358770E+04
       287   4 -7.357422E+05 -2.523906E+05 -2.223268E+05 -2.130392E+05 -1.410148E+05 -5.246424E+04
       287   5 -6.801257E+05 -6.280124E+04 -9.070539E+04 -2.707304E+05 -9.130718E+04 -3.234832E+04
       287   6 -7.135537E+05 -9.661231E+04 -5.737544E+04 -2.717325E+05 -4.106498E+04 -1.364996E+04
       287   7 -6.254538E+05 -1.913260E+05 -1.881092E+05 -1.631901E+05 -1.406902E+05 -5.234740E+04
       287   8 -5.602280E+05 -1.250877E+04 -5.687448E+04 -2.329576E+05 -9.122905E+04 -3.231982E+04
       287   9 -5.839806E+05 -5.701641E+04 -2.372163E+04 -2.460418E+05 -4.123238E+04 -1.371223E+04
       287  10 -8.460403E+05 -3.134581E+05 -2.565885E+05 -2.628850E+05 -4.130955E-10 -1.072646E-10
       287  11 -8.000189E+05 -1.130954E+05 -1.245554E+05 -3.084986E+05 -1.041894E-09 -4.012769E-10
       287  12 -8.431124E+05 -1.362091E+05 -9.103403E+04 -2.974195E+05  8.183409E-10 -2.181930E-10
       287  13 -7.357643E+05 -2.523989E+05 -2.223694E+05 -2.130452E+05  4.651573E-10 -1.240458E-10
       287  14 -6.801349E+05 -6.280461E+04 -9.072305E+04 -2.707327E+05  5.304300E-10 -3.441839E-10
       287  15 -7.135556E+05 -9.661296E+04 -5.737896E+04 -2.717330E+05 -3.542805E-10 -2.910335E-10
       287  16 -6.254758E+05 -1.913342E+05 -1.881516E+05 -1.631960E+05 -2.749050E-10 -1.435835E-10
       287  17 -5.602372E+05 -1.251213E+04 -5.689210E+04 -2.329600E+05  9.951284E-10 -3.760540E-10
       287  18 -5.839825E+05 -5.701707E+04 -2.372519E+04 -2.460423E+05 -1.933120E-11 -2.294543E-10
       287  19 -8.460180E+05 -3.134498E+05 -2.565457E+05 -2.628790E+05  1.413392E+05  5.258103E+04
       287  20 -8.000096E+05 -1.130920E+05 -1.245377E+05 -3.084962E+05  9.138529E+04  3.237681E+04
       287  21 -8.431106E+05 -1.362084E+05 -9.103053E+04 -2.974190E+05  4.089761E+04  1.358770E+04
       287  22 -7.357422E+05 -2.523906E+05 -2.223268E+05 -2.130392E+05  1.410148E+05  5.246424E+04
       287  23 -6.801257E+05 -6.280124E+04 -9.070539E+04 -2.707304E+05  9.130718E+04  3.234832E+04
       287  24 -7.135537E+05 -9.661231E+04 -5.737544E+04 -2.717325E+05  4.106498E+04  1.364996E+04
       287  25 -6.254538E+05 -1.913260E+05 -1.881092E+05 -1.631901E+05  1.406902E+05  5.234740E+04
       287  26 -5.602280E+05 -1.250877E+04 -5.687448E+04 -2.329576E+05  9.122905E+04  3.231982E+04
       287  27 -5.839806E+05 -5.701641E+04 -2.372163E+04 -2.460418E+05  4.123238E+04  1.371223E+04
       288   1 -8.172058E+05 -1.679340E+05 -7.838540E+04 -2.907742E+05 -3.232507E+04 -1.062780E+04
       288   2 -8.096899E+05 -1.359843E+05 -5.184616E+04 -2.953117E+05 -2.097491E+04 -6.212910E+03
       288   3 -8.129244E+05 -1.402224E+05 -4.283084E+04 -2.948906E+05 -9.526111E+03 -2.059901E+03
       288   4 -7.058262E+05 -1.230661E+05 -4.728364E+04 -2.575959E+05 -3.228318E+04 -1.061224E+04
       288   5 -6.988140E+05 -9.341284E+04 -2.132096E+04 -2.644243E+05 -2.097810E+04 -6.214161E+03
       288   6 -7.025411E+05 -9.993486E+04 -1.284403E+04 -2.662948E+05 -9.574399E+03 -2.078041E+03
       288   7 -5.944347E+05 -7.819702E+04 -1.618308E+04 -2.244122E+05 -3.224129E+04 -1.059667E+04
       288   8 -5.879264E+05 -5.084059E+04  9.203105E+03 -2.335320E+05 -2.098130E+04 -6.215411E+03
       288   9 -5.921460E+05 -5.964683E+04  1.714172E+04 -2.376945E+05 -9.622697E+03 -2.096185E+03
       288  10 -8.172070E+05 -1.679344E+05 -7.838758E+04 -2.907745E+05  6.530463E-11  1.027198E-11
       288  11 -8.096904E+05 -1.359844E+05 -5.184706E+04 -2.953118E+05 -4.560956E-10  3.662190E-10
       288  12 -8.129245E+05 -1.402224E+05 -4.283102E+04 -2.948906E+05  2.169634E-10  1.381528E-10
       288  13 -7.058273E+05 -1.230665E+05 -4.728581E+04 -2.575962E+05 -2.076427E-11 -9.780589E-11
       288  14 -6.988145E+05 -9.341300E+04 -2.132186E+04 -2.644244E+05  3.995191E-10 -7.077065E-11
       288  15 -7.025412E+05 -9.993489E+04 -1.284421E+04 -2.662948E+05  2.663826E-10 -1.123502E-12
       288  16 -5.944359E+05 -7.819742E+04 -1.618525E+04 -2.244124E+05  2.516560E-10 -3.330834E-11
       288  17 -5.879269E+05 -5.084075E+04  9.202204E+03 -2.335321E+05  1.270054E-10 -1.202585E-10
       288  18 -5.921461E+05 -5.964686E+04  1.714153E+04 -2.376945E+05 -1.598725E-10 -7.949842E-11
       288  19 -8.172058E+05 -1.679340E+05 -7.838540E+04 -2.907742E+05  3.232507E+04  1.062780E+04
       288  20 -8.096899E+05 -1.359843E+05 -5.184616E+04 -2.953117E+05  2.097491E+04  6.212910E+03
       288  21 -8.129244E+05 -1.402224E+05 -4.283084E+04 -2.948906E+05  9.526111E+03  2.059901E+03
       288  22 -7.058262E+05 -1.230661E+05 -4.728364E+04 -2.575959E+05  3.228318E+04  1.061224E+04
       288  23 -6.988140E+05 -9.341284E+04 -2.132096E+04 -2.644243E+05  2.097810E+04  6.214161E+03
       288  24 -7.025411E+05 -9.993486E+04 -1.284403E+04 -2.662948E+05  9.574399E+03  2.078041E+03
       288  25 -5.944347E+05 -7.819702E+04 -1.618308E+04 -2.244122E+05  3.224129E+04  1.059667E+04
       288  26 -5.879264E+05 -5.084059E+04  9.203105E+03 -2.335320E+05  2.098130E+04  6.215411E+03
       288  27 -5.921460E+05 -5.964683E+04  1.714172E+04 -2.376945E+05  9.622697E+03  2.096185E+03
       289   1 -7.931536E+05 -1.393017E+05 -3.559453E+04 -2.899854E+05 -7.611508E+03 -1.449058E+03
       289   2 -7.913399E+05 -1.314170E+05 -2.948388E+04 -2.874822E+05 -4.973688E+03 -5.466076E+02
       289   3 -7.869700E+05 -1.331196E+05 -2.664129E+04 -2.890766E+05 -2.306706E+03  2.780190E+02
       289   4 -7.010139E+05 -1.041157E+05 -1.026837E+04 -2.645130E+05 -7.619248E+03 -1.451986E+03
       289   5 -7.020518E+05 -9.761759E+04 -4.996089E+03 -2.631048E+05 -4.995025E+03 -5.546337E+02
       289   6 -7.005308E+05 -1.007035E+05 -2.980685E+03 -2.657942E+05 -2.341656E+03  2.648916E+02
       289   7 -6.088661E+05 -6.892924E+04  1.505700E+04 -2.390371E+05 -7.626989E+03 -1.454914E+03
       289   8 -6.127563E+05 -6.381774E+04  1.949096E+04 -2.387242E+05 -5.016365E+03 -5.626610E+02
       289   9 -6.140845E+05 -6.828703E+04  2.067921E+04 -2.425089E+05 -2.376612E+03  2.517622E+02
       289  10 -7.931537E+05 -1.393017E+05 -3.559464E+04 -2.899854E+05 -2.506098E-10  4.481168E-12
       289  11 -7.913399E+05 -1.314170E+05 -2.948393E+04 -2.874822E+05 -1.169410E-10  7.401917E-11
       289  12 -7.869700E+05 -1.331196E+05 -2.664130E+04 -2.890766E+05  3.520127E-10 -1.523507E-10
       289  13 -7.010140E+05 -1.041158E+05 -1.026849E+04 -2.645130E+05  5.542717E-11 -5.087583E-11
       289  14 -7.020519E+05 -9.761760E+04 -4.996137E+03 -2.631048E+05 -1.297604E-11  1.201257E-10
       289  15 -7.005308E+05 -1.007035E+05 -2.980696E+03 -2.657942E+05 -5.387224E-10 -2.353978E-10
       289  16 -6.088661E+05 -6.892926E+04  1.505689E+04 -2.390371E+05  1.504730E-10 -5.933553E-11
       289  17 -6.127563E+05 -6.381775E+04  1.949092E+04 -2.387243E+05 -4.698844E-10 -2.627802E-11
       289  18 -6.140845E+05 -6.828703E+04  2.067920E+04 -2.425089E+05  1.888024E-10  1.265043E-10
       289  19 -7.931536E+05 -1.393017E+05 -3.559453E+04 -2.899854E+05  7.611508E+03  1.449058E+03
       289  20 -7.913399E+05 -1.314170E+05 -2.948388E+04 -2.874822E+05  4.973688E+03  5.466076E+02
       289  21 -7.869700E+05 -1.331196E+05 -2.664129E+04 -2.890766E+05  2.306706E+03 -2.780190E+02
       289  22 -7.010139E+05 -1.041157E+05 -1.026837E+04 -2.645130E+05  7.619248E+03  1.451986E+03
       289  23 -7.020518E+05 -9.761759E+04 -4.996089E+03 -2.631048E+05  4.995025E+03  5.546337E+02
       289  24 -7.005308E+05 -1.007035E+05 -2.980685E+03 -2.657942E+05  2.341656E+03 -2.648916E+02
       289  25 -6.088661E+05 -6.892924E+04  1.505700E+04 -2.390371E+05  7.626989E+03  1.454914E+03
       289  26 -6.127563E+05 -6.381774E+04  1.949096E+04 -2.387242E+05  5.016365E+03  5.626610E+02
       289  27 -6.140845E+05 -6.828703E+04  2.067921E+04 -2.425089E+05  2.376612E+03 -2.517622E+02
       290   1 -7.632697E+05 -1.254173E+05 -1.970094E+04 -2.830124E+05 -1.838597E+03  3.463736E+02
       290   2 -7.621590E+05 -1.203735E+05 -1.765517E+04 -2.787566E+05 -1.071344E+03  4.729369E+02
       290   3 -7.555733E+05 -1.220010E+05 -1.635830E+04 -2.809917E+05 -2.908277E+02  5.640516E+02
       290   4 -7.000877E+05 -1.015173E+05 -2.387986E+03 -2.657768E+05 -1.860923E+03  3.379891E+02
       290   5 -7.027951E+05 -9.796434E+04 -1.386708E+03 -2.626132E+05 -1.099966E+03  4.621951E+02
       290   6 -7.000264E+05 -1.010813E+05 -1.129290E+03 -2.659404E+05 -3.257519E+02  5.509520E+02
       290   7 -6.369018E+05 -7.761709E+04  1.492462E+04 -2.485397E+05 -1.883251E+03  3.296036E+02
       290   8 -6.434278E+05 -7.555501E+04  1.488145E+04 -2.464685E+05 -1.128591E+03  4.514521E+02
       290   9 -6.444765E+05 -8.016153E+04  1.409944E+04 -2.508880E+05 -3.606795E+02  5.378511E+02
       290  10 -7.632697E+05 -1.254173E+05 -1.970095E+04 -2.830124E+05  7.335275E-11 -1.701055E-10
       290  11 -7.621590E+05 -1.203735E+05 -1.765518E+04 -2.787566E+05 -2.060191E-10 -2.744318E-11
       290  12 -7.555733E+05 -1.220010E+05 -1.635830E+04 -2.809917E+05  3.054126E-11  3.386071E-11
       290  13 -7.000877E+05 -1.015173E+05 -2.387993E+03 -2.657768E+05  1.478529E-10 -1.294091E-10
       290  14 -7.027951E+05 -9.796434E+04 -1.386710E+03 -2.626132E+05  5.635002E-10 -5.567274E-12
       290  15 -7.000264E+05 -1.010813E+05 -1.129291E+03 -2.659404E+05  2.330122E-10 -8.703380E-12
       290  16 -6.369018E+05 -7.761709E+04  1.492461E+04 -2.485397E+05  3.336525E-11 -1.532390E-10
       290  17 -6.434278E+05 -7.555501E+04  1.488144E+04 -2.464685E+05  9.839303E-11 -6.106588E-11
       290  18 -6.444765E+05 -8.016153E+04  1.409944E+04 -2.508880E+05  9.287019E-11  2.255358E-10
       290  19 -7.632697E+05 -1.254173E+05 -1.970094E+04 -2.830124E+05  1.838597E+03 -3.463736E+02
       290  20 -7.621590E+05 -1.203735E+05 -1.765517E+04 -2.787566E+05  1.071344E+03 -4.729369E+02
       290  21 -7.555733E+05 -1.220010E+05 -1.635830E+04 -2.809917E+05  2.908277E+02 -5.640516E+02
       290  22 -7.000877E+05 -1.015173E+05 -2.387986E+03 -2.657768E+05  1.860923E+03 -3.379891E+02
       290  23 -7.027951E+05 -9.796434E+04 -1.386708E+03 -2.626132E+05  1.099966E+03 -4.621951E+02
       290  24 -7.000264E+05 -1.010813E+05 -1.129290E+03 -2.659404E+05  3.257519E+02 -5.509520E+02
       290  25 -6.369018E+05 -7.761709E+04  1.492462E+04 -2.485397E+05  1.883251E+03 -3.296036E+02
       290  26 -6.434278E+05 -7.555501E+04  1.488145E+04 -2.464685E+05  1.128591E+03 -4.514521E+02
       290  27 -6.444765E+05 -8.016153E+04  1.409944E+04 -2.508880E+05  3.606795E+02 -5.378511E+02
       291   1 -7.282719E+05 -1.119804E+05 -8.897793E+03 -2.738631E+05 -6.840716E+01  5.260120E+02
       291   2 -7.270964E+05 -1.068709E+05 -7.969246E+03 -2.689416E+05  6.937267E+02  6.146212E+02
       291   3 -7.198002E+05 -1.090865E+05 -7.779180E+03 -2.712937E+05  1.459651E+03  6.930716E+02
       291   4 -6.998836E+05 -1.012363E+05 -1.127609E+03 -2.661105E+05 -9.853248E+01  5.147159E+02
       291   5 -7.029732E+05 -9.777956E+04 -1.361387E+03 -2.623967E+05  6.618036E+02  6.026533E+02
       291   6 -6.999419E+05 -1.016476E+05 -2.332205E+03 -2.659565E+05  1.425926E+03  6.804304E+02
       291   7 -6.714946E+05 -9.049212E+04  6.642494E+03 -2.583576E+05 -1.286593E+02  5.034192E+02
       291   8 -6.788496E+05 -8.868821E+04  5.246419E+03 -2.558515E+05  6.298791E+02  5.906850E+02
       291   9 -6.800832E+05 -9.420866E+04  3.114740E+03 -2.606192E+05  1.392199E+03  6.677887E+02
       291  10 -7.282719E+05 -1.119804E+05 -8.897794E+03 -2.738631E+05  1.317500E-10 -1.872499E-10
       291  11 -7.270964E+05 -1.068709E+05 -7.969248E+03 -2.689416E+05 -2.430452E-10  7.118304E-11
       291  12 -7.198002E+05 -1.090865E+05 -7.779184E+03 -2.712937E+05 -5.025434E-10 -5.779043E-11
       291  13 -6.998836E+05 -1.012363E+05 -1.127610E+03 -2.661105E+05  1.987225E-10  6.757979E-11
       291  14 -7.029732E+05 -9.777956E+04 -1.361389E+03 -2.623967E+05 -2.360437E-10 -2.180856E-10
       291  15 -6.999419E+05 -1.016476E+05 -2.332210E+03 -2.659565E+05 -7.075061E-11  2.600112E-11
       291  16 -6.714946E+05 -9.049212E+04  6.642493E+03 -2.583576E+05  6.355789E-12  1.701708E-11
       291  17 -6.788496E+05 -8.868821E+04  5.246417E+03 -2.558515E+05  2.595707E-10  3.425393E-10
       291  18 -6.800832E+05 -9.420866E+04  3.114735E+03 -2.606192E+05 -4.871381E-11  1.925500E-10
       291  19 -7.282719E+05 -1.119804E+05 -8.897793E+03 -2.738631E+05  6.840716E+01 -5.260120E+02
       291  20 -7.270964E+05 -1.068709E+05 -7.969246E+03 -2.689416E+05 -6.937267E+02 -6.146212E+02
       291  21 -7.198002E+05 -1.090865E+05 -7.779180E+03 -2.712937E+05 -1.459651E+03 -6.930716E+02
       291  22 -6.998836E+05 -1.012363E+05 -1.127609E+03 -2.661105E+05  9.853248E+01 -5.147159E+02
       291  23 -7.029732E+05 -9.777956E+04 -1.361387E+03 -2.623967E+05 -6.618036E+02 -6.026533E+02
       291  24 -6.999419E+05 -1.016476E+05 -2.332205E+03 -2.659565E+05 -1.425926E+03 -6.804304E+02
       291  25 -6.714946E+05 -9.049212E+04  6.642494E+03 -2.583576E+05  1.286593E+02 -5.034192E+02
       291  26 -6.788496E+05 -8.868821E+04  5.246419E+03 -2.558515E+05 -6.298791E+02 -5.906850E+02
       291  27 -6.800832E+05 -9.420866E+04  3.114740E+03 -2.606192E+05 -1.392199E+03 -6.677887E+02
       292   1 -6.910262E+05 -9.791780E+04 -4.470230E+02 -2.640383E+05  1.941288E+03  7.422095E+02
       292   2 -6.893494E+05 -9.202774E+04 -1.220703E+03 -2.588009E+05  4.533076E+03  1.499837E+03
       292   3 -6.832094E+05 -9.753481E+04 -5.180200E+03 -2.599470E+05  7.113880E+03  2.286775E+03
       292   4 -7.001113E+05 -1.011377E+05 -2.911403E+03 -2.662890E+05  1.904957E+03  7.285933E+02
       292   5 -7.025763E+05 -9.709649E+04 -4.860014E+03 -2.624762E+05  4.501957E+03  1.488172E+03
       292   6 -7.005791E+05 -1.044535E+05 -9.998629E+03 -2.650468E+05  7.087954E+03  2.277051E+03
       292   7 -7.091964E+05 -1.043575E+05 -5.375790E+03 -2.685396E+05  1.868626E+03  7.149772E+02
       292   8 -7.158030E+05 -1.021652E+05 -8.499339E+03 -2.661514E+05  4.470840E+03  1.476507E+03
       292   9 -7.179486E+05 -1.113722E+05 -1.481708E+04 -2.701465E+05  7.062029E+03  2.267327E+03
       292  10 -6.910262E+05 -9.791780E+04 -4.470311E+02 -2.640383E+05 -2.642010E-10  1.061871E-11
       292  11 -6.893494E+05 -9.202775E+04 -1.220746E+03 -2.588009E+05 -1.116610E-10  2.796062E-10
       292  12 -6.832095E+05 -9.753483E+04 -5.180305E+03 -2.599470E+05  1.067122E-10 -2.044719E-10
       292  13 -7.001113E+05 -1.011377E+05 -2.911411E+03 -2.662890E+05  2.380437E-10  1.951646E-10
       292  14 -7.025763E+05 -9.709649E+04 -4.860056E+03 -2.624762E+05  3.485232E-10  1.558300E-10
       292  15 -7.005792E+05 -1.044536E+05 -9.998734E+03 -2.650468E+05 -1.190741E-10  1.461793E-10
       292  16 -7.091964E+05 -1.043575E+05 -5.375798E+03 -2.685396E+05 -8.700991E-11  5.533719E-10
       292  17 -7.158030E+05 -1.021652E+05 -8.499381E+03 -2.661514E+05 -1.232232E-10  4.492269E-11
       292  18 -7.179486E+05 -1.113723E+05 -1.481718E+04 -2.701465E+05  1.627768E-10  1.448697E-10
       292  19 -6.910262E+05 -9.791780E+04 -4.470230E+02 -2.640383E+05 -1.941288E+03 -7.422095E+02
       292  20 -6.893494E+05 -9.202774E+04 -1.220703E+03 -2.588009E+05 -4.533076E+03 -1.499837E+03
       292  21 -6.832094E+05 -9.753481E+04 -5.180200E+03 -2.599470E+05 -7.113880E+03 -2.286775E+03
       292  22 -7.001113E+05 -1.011377E+05 -2.911403E+03 -2.662890E+05 -1.904957E+03 -7.285933E+02
       292  23 -7.025763E+05 -9.709649E+04 -4.860014E+03 -2.624762E+05 -4.501957E+03 -1.488172E+03
       292  24 -7.005791E+05 -1.044535E+05 -9.998629E+03 -2.650468E+05 -7.087954E+03 -2.277051E+03
       292  25 -7.091964E+05 -1.043575E+05 -5.375790E+03 -2.685396E+05 -1.868626E+03 -7.149772E+02
       292  26 -7.158030E+05 -1.021652E+05 -8.499339E+03 -2.661514E+05 -4.470840E+03 -1.476507E+03
       292  27 -7.179486E+05 -1.113722E+05 -1.481708E+04 -2.701465E+05 -7.062029E+03 -2.267327E+03
       293   1 -6.553373E+05 -8.445257E+04 -2.381209E+01 -2.558306E+05  9.059512E+03  2.866935E+03
       293   2 -6.506604E+05 -7.356013E+04 -7.179277E+03 -2.494305E+05  2.015416E+04  6.803511E+03
       293   3 -6.534097E+05 -1.010060E+05 -3.135002E+04 -2.418274E+05  3.118231E+04  1.091820E+04
       293   4 -7.018394E+05 -1.006184E+05 -1.250661E+04 -2.670443E+05  9.007901E+03  2.847608E+03
       293   5 -6.997128E+05 -9.270939E+04 -2.074424E+04 -2.634228E+05  2.013367E+04  6.795796E+03
       293   6 -7.050194E+05 -1.231466E+05 -4.602293E+04 -2.585983E+05  3.119288E+04  1.092199E+04
       293   7 -7.483395E+05 -1.167842E+05 -2.498960E+04 -2.782572E+05  8.956294E+03  2.828283E+03
       293   8 -7.487628E+05 -1.118585E+05 -3.430942E+04 -2.774142E+05  2.011318E+04  6.788082E+03
       293   9 -7.566266E+05 -1.452869E+05 -6.069610E+04 -2.753680E+05  3.120346E+04  1.092578E+04
       293  10 -6.553374E+05 -8.445260E+04 -2.398197E+01 -2.558307E+05 -5.907816E-12 -2.953920E-11
       293  11 -6.506609E+05 -7.356029E+04 -7.180129E+03 -2.494306E+05 -1.678373E-10 -3.751388E-10
       293  12 -6.534108E+05 -1.010064E+05 -3.135208E+04 -2.418276E+05  2.030534E-10 -1.530801E-10
       293  13 -7.018395E+05 -1.006184E+05 -1.250677E+04 -2.670443E+05  2.784361E-10  7.964050E-11
       293  14 -6.997132E+05 -9.270955E+04 -2.074509E+04 -2.634229E+05  3.312076E-10 -3.233776E-11
       293  15 -7.050205E+05 -1.231470E+05 -4.602499E+04 -2.585986E+05 -3.333955E-10 -1.131507E-10
       293  16 -7.483396E+05 -1.167842E+05 -2.498977E+04 -2.782572E+05  2.504335E-10 -2.166184E-10
       293  17 -7.487632E+05 -1.118586E+05 -3.431027E+04 -2.774143E+05  1.928818E-12  1.959984E-11
       293  18 -7.566277E+05 -1.452873E+05 -6.069816E+04 -2.753683E+05 -5.314918E-11  9.944315E-11
       293  19 -6.553373E+05 -8.445257E+04 -2.381209E+01 -2.558306E+05 -9.059512E+03 -2.866935E+03
       293  20 -6.506604E+05 -7.356013E+04 -7.179277E+03 -2.494305E+05 -2.015416E+04 -6.803511E+03
       293  21 -6.534097E+05 -1.010060E+05 -3.135002E+04 -2.418274E+05 -3.118231E+04 -1.091820E+04
       293  22 -7.018394E+05 -1.006184E+05 -1.250661E+04 -2.670443E+05 -9.007901E+03 -2.847608E+03
       293  23 -6.997128E+05 -9.270939E+04 -2.074424E+04 -2.634228E+05 -2.013367E+04 -6.795796E+03
       293  24 -7.050194E+05 -1.231466E+05 -4.602293E+04 -2.585983E+05 -3.119288E+04 -1.092199E+04
       293  25 -7.483395E+05 -1.167842E+05 -2.498960E+04 -2.782572E+05 -8.956294E+03 -2.828283E+03
       293  26 -7.487628E+05 -1.118585E+05 -3.430942E+04 -2.774142E+05 -2.011318E+04 -6.788082E+03
       293  27 -7.566266E+05 -1.452869E+05 -6.069610E+04 -2.753680E+05 -3.120346E+04 -1.092578E+04
       294   1 -6.277411E+05 -7.472707E+04 -3.445407E+04 -2.588993E+05  3.989673E+04  1.390670E+04
       294   2 -6.039081E+05 -2.850996E+04 -6.600453E+04 -2.431973E+05  8.865445E+04  3.191039E+04
       294   3 -6.627323E+05 -2.037294E+05 -1.930812E+05 -1.769926E+05  1.370148E+05  5.097615E+04
       294   4 -7.123902E+05 -9.754749E+04 -5.584383E+04 -2.725226E+05  3.975154E+04  1.385295E+04
       294   5 -6.817646E+05 -6.268117E+04 -8.827177E+04 -2.692939E+05  8.869393E+04  3.192434E+04
       294   6 -7.338440E+05 -2.493055E+05 -2.163819E+05 -2.155594E+05  1.372394E+05  5.105531E+04
       294   7 -7.970323E+05 -1.203681E+05 -7.723409E+04 -2.861446E+05  3.960637E+04  1.379920E+04
       294   8 -7.596150E+05 -9.685135E+04 -1.105396E+05 -2.953873E+05  8.873339E+04  3.193828E+04
       294   9 -8.049497E+05 -2.948775E+05 -2.396831E+05 -2.541212E+05  1.374640E+05  5.113445E+04
       294  10 -6.277429E+05 -7.472771E+04 -3.445743E+04 -2.588997E+05  3.568749E-10  9.533179E-12
       294  11 -6.039169E+05 -2.851317E+04 -6.602123E+04 -2.431996E+05 -1.119593E-10 -4.011022E-11
       294  12 -6.627531E+05 -2.037372E+05 -1.931214E+05 -1.769983E+05 -2.432637E-11  6.072426E-12
       294  13 -7.123920E+05 -9.754812E+04 -5.584717E+04 -2.725230E+05  1.175958E-10 -7.742064E-12
       294  14 -6.817733E+05 -6.268438E+04 -8.828849E+04 -2.692962E+05  7.792144E-11  3.231024E-10
       294  15 -7.338649E+05 -2.493134E+05 -2.164223E+05 -2.155651E+05 -6.825292E-11  1.878402E-10
       294  16 -7.970340E+05 -1.203687E+05 -7.723741E+04 -2.861450E+05 -3.653713E-10  1.521572E-11
       294  17 -7.596237E+05 -9.685456E+04 -1.105563E+05 -2.953896E+05 -7.445072E-10  3.014118E-10
       294  18 -8.049707E+05 -2.948854E+05 -2.397235E+05 -2.541269E+05 -2.841038E-11 -6.890539E-11
       294  19 -6.277411E+05 -7.472707E+04 -3.445407E+04 -2.588993E+05 -3.989673E+04 -1.390670E+04
       294  20 -6.039081E+05 -2.850996E+04 -6.600453E+04 -2.431973E+05 -8.865445E+04 -3.191039E+04
       294  21 -6.627323E+05 -2.037294E+05 -1.930812E+05 -1.769926E+05 -1.370148E+05 -5.097615E+04
       294  22 -7.123902E+05 -9.754749E+04 -5.584383E+04 -2.725226E+05 -3.975154E+04 -1.385295E+04
       294  23 -6.817646E+05 -6.268117E+04 -8.827177E+04 -2.692939E+05 -8.869393E+04 -3.192434E+04
       294  24 -7.338440E+05 -2.493055E+05 -2.163819E+05 -2.155594E+05 -1.372394E+05 -5.105531E+04
       294  25 -7.970323E+05 -1.203681E+05 -7.723409E+04 -2.861446E+05 -3.960637E+04 -1.379920E+04
       294  26 -7.596150E+05 -9.685135E+04 -1.105396E+05 -2.953873E+05 -8.873339E+04 -3.193828E+04
       294  27 -8.049497E+05 -2.948775E+05 -2.396831E+05 -2.541212E+05 -1.374640E+05 -5.113445E+04
       295   1 -2.137829E+05 -4.831766E+03  3.270382E+04 -7.074914E+02  1.081736E+05  2.594611E+03
       295   2 -2.171527E+05 -1.506379E+05 -5.340130E+04  8.907579E+03  7.180584E+04  7.024445E+03
       295   3 -1.701572E+05 -1.216966E+05 -7.173974E+04 -2.412382E+04  3.544283E+04  5.560547E+03
       295   4  2.997705E+05  1.234291E+05  1.607652E+05 -1.644224E+04  1.096613E+05  2.593755E+03
       295   5  2.745062E+05 -2.790380E+04  6.863574E+04  4.965706E+03  7.213457E+04  7.023829E+03
       295   6  2.997701E+05 -4.361973E+03  4.503805E+04 -1.627087E+04  3.461399E+04  5.560840E+03
       295   7  8.135636E+05  2.516711E+05  2.888069E+05 -3.219008E+04  1.111502E+05  2.592825E+03
       295   8  7.663845E+05  9.481221E+04  1.906547E+05  1.020672E+03  7.246354E+04  7.023210E+03
       295   9  7.698979E+05  1.129564E+05  1.617994E+05 -8.411966E+03  3.378451E+04  5.561112E+03
       295  10 -2.137955E+05 -4.834916E+03  3.268181E+04 -7.077174E+02 -2.299052E-10  1.307086E-10
       295  11 -2.171583E+05 -1.506393E+05 -5.341108E+04  8.907173E+03 -9.977940E-10 -4.536089E-10
       295  12 -1.701585E+05 -1.216970E+05 -7.174216E+04 -2.412398E+04 -1.992953E-10 -7.850374E-11
       295  13  2.997576E+05  1.234259E+05  1.607426E+05 -1.644247E+04  5.231274E-10 -2.613103E-10
       295  14  2.745006E+05 -2.790525E+04  6.862587E+04  4.965298E+03 -1.077030E-09 -2.079612E-10
       295  15  2.997688E+05 -4.362328E+03  4.503574E+04 -1.627103E+04  7.148647E-10  3.728083E-12
       295  16  8.135503E+05  2.516678E+05  2.887837E+05 -3.219032E+04  5.250009E-11  4.473114E-10
       295  17  7.663788E+05  9.481075E+04  1.906448E+05  1.020262E+03  9.943750E-10 -1.387662E-10
       295  18  7.698967E+05  1.129560E+05  1.617972E+05 -8.412117E+03  2.547694E-10  5.499806E-11
       295  19 -2.137829E+05 -4.831766E+03  3.270382E+04 -7.074914E+02 -1.081736E+05 -2.594611E+03
       295  20 -2.171527E+05 -1.506379E+05 -5.340130E+04  8.907579E+03 -7.180584E+04 -7.024445E+03
       295  21 -1.701572E+05 -1.216966E+05 -7.173974E+04 -2.412382E+04 -3.544283E+04 -5.560547E+03
       295  22  2.997705E+05  1.234291E+05  1.607652E+05 -1.644224E+04 -1.096613E+05 -2.593755E+03
       295  23  2.745062E+05 -2.790380E+04  6.863574E+04  4.965706E+03 -7.213457E+04 -7.023829E+03
       295  24  2.997701E+05 -4.361973E+03  4.503805E+04 -1.627087E+04 -3.461399E+04 -5.560840E+03
       295  25  8.135636E+05  2.516711E+05  2.888069E+05 -3.219008E+04 -1.111502E+05 -2.592825E+03
       295  26  7.663845E+05  9.481221E+04  1.906547E+05  1.020672E+03 -7.246354E+04 -7.023210E+03
       295  27  7.698979E+05  1.129564E+05  1.617994E+05 -8.411966E+03 -3.378451E+04 -5.561112E+03
       296   1 -5.760289E+04 -6.875138E+04 -4.929276E+04 -1.321996E+04  2.710132E+04  4.180339E+03
       296   2 -4.158220E+04 -8.598538E+04 -6.360415E+04  4.928866E+03  1.792199E+04  4.175371E+03
       296   3 -1.717239E+04 -7.736126E+04 -6.532648E+04 -1.645749E+04  8.740766E+03  3.346668E+03
       296   4  2.904408E+05  1.814724E+04  3.718347E+04 -1.561954E+04  2.718879E+04  4.180048E+03
       296   5  2.862314E+05 -4.144768E+03  1.781507E+04  4.142247E+03  1.784666E+04  4.175291E+03
       296   6  2.904348E+05 -5.577552E+02  1.114373E+04 -1.562978E+04  8.502929E+03  3.346945E+03
       296   7  6.385943E+05  1.050368E+05  1.236506E+05 -1.802045E+04  2.727630E+04  4.179756E+03
       296   8  6.141426E+05  7.768779E+04  9.922625E+04  3.355236E+03  1.777128E+04  4.175212E+03
       296   9  5.981278E+05  7.623865E+04  8.760686E+04 -1.480163E+04  8.264973E+03  3.347221E+03
       296  10 -5.760368E+04 -6.875160E+04 -4.929418E+04 -1.322005E+04  2.497847E-10 -5.146677E-11
       296  11 -4.158255E+04 -8.598549E+04 -6.360478E+04  4.928806E+03 -1.459487E-10 -1.243066E-10
       296  12 -1.717247E+04 -7.736130E+04 -6.532664E+04 -1.645752E+04 -2.923107E-10  9.628577E-10
       296  13  2.904400E+05  1.814702E+04  3.718204E+04 -1.561963E+04 -5.732785E-11  2.456499E-12
       296  14  2.862311E+05 -4.144872E+03  1.781444E+04  4.142187E+03  1.179842E-09 -1.237171E-09
       296  15  2.904347E+05 -5.577867E+02  1.114357E+04 -1.562981E+04  1.267725E-09  7.412411E-10
       296  16  6.385935E+05  1.050366E+05  1.236492E+05 -1.802054E+04  1.473182E-10 -1.896403E-10
       296  17  6.141422E+05  7.768768E+04  9.922562E+04  3.355176E+03  7.026197E-10 -3.586490E-10
       296  18  5.981277E+05  7.623862E+04  8.760671E+04 -1.480165E+04  3.444187E-10  4.664090E-10
       296  19 -5.760289E+04 -6.875138E+04 -4.929276E+04 -1.321996E+04 -2.710132E+04 -4.180339E+03
       296  20 -4.158220E+04 -8.598538E+04 -6.360415E+04  4.928866E+03 -1.792199E+04 -4.175371E+03
       296  21 -1.717239E+04 -7.736126E+04 -6.532648E+04 -1.645749E+04 -8.740766E+03 -3.346668E+03
       296  22  2.904408E+05  1.814724E+04  3.718347E+04 -1.561954E+04 -2.718879E+04 -4.180048E+03
       296  23  2.862314E+05 -4.144768E+03  1.781507E+04  4.142247E+03 -1.784666E+04 -4.175291E+03
       296  24  2.904348E+05 -5.577552E+02  1.114373E+04 -1.562978E+04 -8.502929E+03 -3.346945E+03
       296  25  6.385943E+05  1.050368E+05  1.236506E+05 -1.802045E+04 -2.727630E+04 -4.179756E+03
       296  26  6.141426E+05  7.768779E+04  9.922625E+04  3.355236E+03 -1.777128E+04 -4.175212E+03
       296  27  5.981278E+05  7.623865E+04  8.760686E+04 -1.480163E+04 -8.264973E+03 -3.347221E+03
       297   1  9.634539E+04 -4.538682E+04 -3.887199E+04 -1.467485E+04  6.795607E+03  2.784835E+03
       297   2  1.149904E+05 -4.386811E+04 -3.834105E+04  3.971657E+03  4.419673E+03  2.157298E+03
       297   3  1.349660E+05 -3.842640E+04 -3.527500E+04 -1.514236E+04  2.042966E+03  1.429145E+03
       297   4  2.888808E+05  2.669138E+03  8.902659E+03 -1.522785E+04  6.685325E+03  2.784972E+03
       297   5  2.882121E+05 -6.251387E+02  4.684431E+03  3.649716E+03  4.289404E+03  2.157523E+03
       297   6  2.888769E+05  6.483257E+00  3.014645E+03 -1.523257E+04  1.892785E+03  1.429469E+03
       297   7  4.814499E+05  5.072231E+04  5.667454E+04 -1.578101E+04  6.575009E+03  2.785108E+03
       297   8  4.614611E+05  4.261558E+04  4.770767E+04  3.327698E+03  4.159100E+03  2.157748E+03
       297   9  4.428092E+05  3.843759E+04  4.130252E+04 -1.532280E+04  1.742566E+03  1.429794E+03
       297  10  9.634534E+04 -4.538684E+04 -3.887209E+04 -1.467486E+04  4.204633E-10  2.132349E-10
       297  11  1.149904E+05 -4.386812E+04 -3.834109E+04  3.971650E+03  9.804993E-10 -1.935092E-11
       297  12  1.349660E+05 -3.842640E+04 -3.527501E+04 -1.514236E+04 -4.048231E-10 -8.693004E-10
       297  13  2.888808E+05  2.669118E+03  8.902561E+03 -1.522787E+04 -7.808216E-12  3.180163E-10
       297  14  2.882121E+05 -6.251486E+02  4.684388E+03  3.649708E+03 -3.472620E-10  7.025551E-10
       297  15  2.888769E+05  6.480101E+00  3.014634E+03 -1.523258E+04  1.639089E-09  2.102909E-09
       297  16  4.814499E+05  5.072229E+04  5.667444E+04 -1.578102E+04 -3.617365E-10  2.291510E-10
       297  17  4.614611E+05  4.261557E+04  4.770763E+04  3.327691E+03  4.971997E-10 -1.784453E-09
       297  18  4.428092E+05  3.843758E+04  4.130251E+04 -1.532280E+04  2.455983E-10  6.714541E-11
       297  19  9.634539E+04 -4.538682E+04 -3.887199E+04 -1.467485E+04 -6.795607E+03 -2.784835E+03
       297  20  1.149904E+05 -4.386811E+04 -3.834105E+04  3.971657E+03 -4.419673E+03 -2.157298E+03
       297  21  1.349660E+05 -3.842640E+04 -3.527500E+04 -1.514236E+04 -2.042966E+03 -1.429145E+03
       297  22  2.888808E+05  2.669138E+03  8.902659E+03 -1.522785E+04 -6.685325E+03 -2.784972E+03
       297  23  2.882121E+05 -6.251387E+02  4.684431E+03  3.649716E+03 -4.289404E+03 -2.157523E+03
       297  24  2.888769E+05  6.483257E+00  3.014645E+03 -1.523257E+04 -1.892785E+03 -1.429469E+03
       297  25  4.814499E+05  5.072231E+04  5.667454E+04 -1.578101E+04 -6.575009E+03 -2.785108E+03
       297  26  4.614611E+05  4.261558E+04  4.770767E+04  3.327698E+03 -4.159100E+03 -2.157748E+03
       297  27  4.428092E+05  3.843759E+04  4.130252E+04 -1.532280E+04 -1.742566E+03 -1.429794E+03
       298   1  2.461201E+05 -1.016223E+04 -8.004527E+03 -1.495702E+04  1.526402E+03  9.951039E+02
       298   2  2.650235E+05 -6.001976E+03 -4.067066E+03  3.504607E+03  6.349536E+02  2.924578E+02
       298   3  2.840376E+05 -9.841066E+02  6.198144E+02 -1.510080E+04 -2.566073E+02 -4.220272E+02
       298   4  2.886127E+05  4.333092E+02  2.490735E+03 -1.507643E+04  1.392234E+03  9.954210E+02
       298   5  2.885569E+05 -1.276138E+02  1.777764E+03  3.456736E+03  4.984624E+02  2.927873E+02
       298   6  2.886122E+05  1.695587E+02  1.815883E+03 -1.507705E+04 -3.953940E+02 -4.216841E+02
       298   7  3.311069E+05  1.102871E+04  1.298586E+04 -1.519584E+04  1.258056E+03  9.957382E+02
       298   8  3.120908E+05  5.746707E+03  7.622552E+03  3.408863E+03  3.619661E+02  2.931167E+02
       298   9  2.931867E+05  1.323222E+03  3.011951E+03 -1.505330E+04 -5.341816E+02 -4.213411E+02
       298  10  2.461201E+05 -1.016223E+04 -8.004533E+03 -1.495702E+04  4.964460E-10  4.051352E-10
       298  11  2.650235E+05 -6.001976E+03 -4.067067E+03  3.504607E+03  1.416199E-09  1.665527E-10
       298  12  2.840376E+05 -9.841068E+02  6.198140E+02 -1.510080E+04  3.250131E-10 -8.687973E-10
       298  13  2.886127E+05  4.333076E+02  2.490730E+03 -1.507643E+04 -5.088052E-10 -1.256142E-09
       298  14  2.885569E+05 -1.276140E+02  1.777763E+03  3.456736E+03  4.858435E-10  2.241514E-10
       298  15  2.886122E+05  1.695585E+02  1.815883E+03 -1.507705E+04  2.615995E-09 -1.984861E-09
       298  16  3.311069E+05  1.102871E+04  1.298586E+04 -1.519584E+04  2.216902E-10  1.241668E-09
       298  17  3.120908E+05  5.746706E+03  7.622551E+03  3.408863E+03  4.783249E-10 -9.879164E-10
       298  18  2.931867E+05  1.323222E+03  3.011950E+03 -1.505330E+04 -4.095367E-10 -2.706298E-09
       298  19  2.461201E+05 -1.016223E+04 -8.004527E+03 -1.495702E+04 -1.526402E+03 -9.951039E+02
       298  20  2.650235E+05 -6.001976E+03 -4.067066E+03  3.504607E+03 -6.349536E+02 -2.924578E+02
       298  21  2.840376E+05 -9.841066E+02  6.198144E+02 -1.510080E+04  2.566073E+02  4.220272E+02
       298  22  2.886127E+05  4.333092E+02  2.490735E+03 -1.507643E+04 -1.392234E+03 -9.954210E+02
       298  23  2.885569E+05 -1.276138E+02  1.777764E+03  3.456736E+03 -4.984624E+02 -2.927873E+02
       298  24  2.886122E+05  1.695587E+02  1.815883E+03 -1.507705E+04  3.953940E+02  4.216841E+02
       298  25  3.311069E+05  1.102871E+04  1.298586E+04 -1.519584E+04 -1.258056E+03 -9.957382E+02
       298  26  3.120908E+05  5.746707E+03  7.622552E+03  3.408863E+03 -3.619661E+02 -2.931167E+02
       298  27  2.931867E+05  1.323222E+03  3.011951E+03 -1.505330E+04  5.341816E+02  4.213411E+02
       299   1  3.950438E+05  2.666310E+04  2.848444E+04 -1.528969E+04 -6.060505E+02 -8.405584E+02
       299   2  4.139664E+05  3.110501E+04  3.397459E+04  3.340309E+03 -2.021046E+03 -1.554084E+03
       299   3  4.333418E+05  3.696258E+04  4.072124E+04 -1.545499E+04 -3.435731E+03 -2.267622E+03
       299   4  2.886841E+05  1.042073E+02  2.009951E+03 -1.515716E+04 -7.436672E+02 -8.402338E+02
       299   5  2.884595E+05 -2.209873E+02  2.804980E+03  3.556496E+03 -2.158418E+03 -1.553801E+03
       299   6  2.886871E+05  8.695386E+02  4.856487E+03 -1.515562E+04 -3.572816E+03 -2.267377E+03
       299   7  1.823346E+05 -2.645553E+04 -2.446539E+04 -1.502464E+04 -8.812604E+02 -8.399092E+02
       299   8  1.629668E+05 -3.154816E+04 -2.836580E+04  3.772647E+03 -2.295763E+03 -1.553517E+03
       299   9  1.440514E+05 -3.522507E+04 -3.100982E+04 -1.485630E+04 -3.709868E+03 -2.267133E+03
       299  10  3.950438E+05  2.666309E+04  2.848444E+04 -1.528969E+04 -5.706309E-10  7.667028E-10
       299  11  4.139664E+05  3.110500E+04  3.397457E+04  3.340307E+03  1.003648E-11  3.841481E-09
       299  12  4.333418E+05  3.696257E+04  4.072121E+04 -1.545500E+04  1.365348E-09 -2.171500E-09
       299  13  2.886841E+05  1.042064E+02  2.009948E+03 -1.515716E+04  1.076759E-09 -8.040331E-12
       299  14  2.884595E+05 -2.209911E+02  2.804967E+03  3.556493E+03  7.935922E-11 -2.995057E-10
       299  15  2.886871E+05  8.695297E+02  4.856454E+03 -1.515563E+04  9.615939E-10 -6.825874E-11
       299  16  1.823346E+05 -2.645553E+04 -2.446539E+04 -1.502464E+04  8.978893E-10  1.707365E-11
       299  17  1.629668E+05 -3.154817E+04 -2.836582E+04  3.772644E+03  8.918855E-10  2.309339E-10
       299  18  1.440514E+05 -3.522508E+04 -3.100986E+04 -1.485631E+04 -1.574903E-09  4.726423E-11
       299  19  3.950438E+05  2.666310E+04  2.848444E+04 -1.528969E+04  6.060505E+02  8.405584E+02
       299  20  4.139664E+05  3.110501E+04  3.397459E+04  3.340309E+03  2.021046E+03  1.554084E+03
       299  21  4.333418E+05  3.696258E+04  4.072124E+04 -1.545499E+04  3.435731E+03  2.267622E+03
       299  22  2.886841E+05  1.042073E+02  2.009951E+03 -1.515716E+04  7.436672E+02  8.402338E+02
       299  23  2.884595E+05 -2.209873E+02  2.804980E+03  3.556496E+03  2.158418E+03  1.553801E+03
       299  24  2.886871E+05  8.695386E+02  4.856487E+03 -1.515562E+04  3.572816E+03  2.267377E+03
       299  25  1.823346E+05 -2.645553E+04 -2.446539E+04 -1.502464E+04  8.812604E+02  8.399092E+02
       299  26  1.629668E+05 -3.154816E+04 -2.836580E+04  3.772647E+03  2.295763E+03  1.553517E+03
       299  27  1.440514E+05 -3.522507E+04 -3.100982E+04 -1.485630E+04  3.709868E+03  2.267133E+03
       300   1  5.475539E+05  6.435553E+04  7.035640E+04 -1.544306E+04 -4.420857E+03 -2.713742E+03
       300   2  5.658142E+05  6.805572E+04  7.911945E+04  3.531137E+03 -9.590838E+03 -3.456697E+03
       300   3  5.873182E+05  8.020368E+04  9.344977E+04 -1.634619E+04 -1.476004E+04 -4.090234E+03
       300   4  2.892911E+05 -1.103859E+02  6.162056E+03 -1.547606E+04 -4.574555E+03 -2.713526E+03
       300   5  2.876740E+05 -1.359761E+03  1.005207E+04  3.953213E+03 -9.721479E+03 -3.456615E+03
       300   6  2.892973E+05  5.836661E+03  1.949513E+04 -1.547010E+04 -1.486746E+04 -4.090269E+03
       300   7  3.108886E+04 -6.458131E+04 -5.803728E+04 -1.550903E+04 -4.728189E+03 -2.713311E+03
       300   8  9.603928E+03 -7.078105E+04 -5.902109E+04  4.375124E+03 -9.852061E+03 -3.456533E+03
       300   9 -8.642968E+03 -6.853701E+04 -5.446615E+04 -1.459441E+04 -1.497483E+04 -4.090305E+03
       300  10  5.475538E+05  6.435552E+04  7.035635E+04 -1.544307E+04 -2.767316E-11 -1.797225E-09
       300  11  5.658141E+05  6.805569E+04  7.911926E+04  3.531110E+03  9.335774E-10  6.344985E-10
       300  12  5.873180E+05  8.020360E+04  9.344933E+04 -1.634623E+04  8.071220E-10 -6.618392E-11
       300  13  2.892911E+05 -1.103994E+02  6.162003E+03 -1.547607E+04 -1.125003E-09 -3.200326E-10
       300  14  2.876739E+05 -1.359799E+03  1.005187E+04  3.953186E+03 -2.195330E-10 -4.910430E-10
       300  15  2.892971E+05  5.836584E+03  1.949468E+04 -1.547015E+04  4.143763E-11 -4.254895E-10
       300  16  3.108884E+04 -6.458132E+04 -5.803733E+04 -1.550904E+04 -6.615892E-11 -6.048822E-10
       300  17  9.603820E+03 -7.078108E+04 -5.902130E+04  4.375097E+03 -3.199561E-10  4.957768E-10
       300  18 -8.643213E+03 -6.853708E+04 -5.446660E+04 -1.459446E+04 -1.508546E-09  4.286294E-10
       300  19  5.475539E+05  6.435553E+04  7.035640E+04 -1.544306E+04  4.420857E+03  2.713742E+03
       300  20  5.658142E+05  6.805572E+04  7.911945E+04  3.531137E+03  9.590838E+03  3.456697E+03
       300  21  5.873182E+05  8.020368E+04  9.344977E+04 -1.634619E+04  1.476004E+04  4.090234E+03
       300  22  2.892911E+05 -1.103859E+02  6.162056E+03 -1.547606E+04  4.574555E+03  2.713526E+03
       300  23  2.876740E+05 -1.359761E+03  1.005207E+04  3.953213E+03  9.721479E+03  3.456615E+03
       300  24  2.892973E+05  5.836661E+03  1.949513E+04 -1.547010E+04  1.486746E+04  4.090269E+03
       300  25  3.108886E+04 -6.458131E+04 -5.803728E+04 -1.550903E+04  4.728189E+03  2.713311E+03
       300  26  9.603928E+03 -7.078105E+04 -5.902109E+04  4.375124E+03  9.852061E+03  3.456533E+03
       300  27 -8.642968E+03 -6.853701E+04 -5.446615E+04 -1.459441E+04  1.497483E+04  4.090305E+03
       301   1  7.101608E+05  1.028581E+05  1.281775E+05 -1.362930E+04 -1.858892E+04 -4.701372E+03
       301   2  7.221454E+05  1.003540E+05  1.481740E+05  3.488759E+03 -3.937585E+04 -5.595825E+03
       301   3  7.525511E+05  1.547988E+05  1.962286E+05 -2.083469E+04 -6.016260E+04 -5.509585E+03
       301   4  2.926376E+05 -1.340756E+03  2.444785E+04 -1.604366E+04 -1.884855E+04 -4.701325E+03
       301   5  2.834419E+05 -9.118766E+03  3.926264E+04  4.664131E+03 -3.943421E+04 -5.596153E+03
       301   6  2.926442E+05  4.003869E+04  8.200992E+04 -1.607133E+04 -6.001900E+04 -5.510220E+03
       301   7 -1.247276E+05 -1.055527E+05 -7.929487E+04 -1.845638E+04 -1.910800E+04 -4.701277E+03
       301   8 -1.550869E+05 -1.186060E+05 -6.966314E+04  5.838669E+03 -3.949253E+04 -5.596482E+03
       301   9 -1.670709E+05 -7.473715E+04 -3.222456E+04 -1.131153E+04 -5.987548E+04 -5.510853E+03
       301  10  7.101604E+05  1.028580E+05  1.281768E+05 -1.362937E+04  4.127393E-10 -4.478273E-10
       301  11  7.221437E+05  1.003536E+05  1.481711E+05  3.488582E+03 -2.810570E-10 -2.129633E-10
       301  12  7.525472E+05  1.547978E+05  1.962218E+05 -2.083496E+04 -3.808132E-10 -3.757205E-10
       301  13  2.926372E+05 -1.340876E+03  2.444714E+04 -1.604374E+04  1.764184E-12  5.395551E-10
       301  14  2.834403E+05 -9.119216E+03  3.925966E+04  4.663953E+03 -1.179377E-09 -8.993053E-10
       301  15  2.926403E+05  4.003769E+04  8.200310E+04 -1.607160E+04 -1.120773E-09 -1.028823E-09
       301  16 -1.247280E+05 -1.055528E+05 -7.929560E+04 -1.845645E+04 -7.203620E-10  1.060298E-09
       301  17 -1.550886E+05 -1.186064E+05 -6.966613E+04  5.838491E+03  6.313622E-10 -4.184788E-10
       301  18 -1.670747E+05 -7.473814E+04 -3.223135E+04 -1.131179E+04  1.076056E-09  2.267549E-10
       301  19  7.101608E+05  1.028581E+05  1.281775E+05 -1.362930E+04  1.858892E+04  4.701372E+03
       301  20  7.221454E+05  1.003540E+05  1.481740E+05  3.488759E+03  3.937585E+04  5.595825E+03
       301  21  7.525511E+05  1.547988E+05  1.962286E+05 -2.083469E+04  6.016260E+04  5.509585E+03
       301  22  2.926376E+05 -1.340756E+03  2.444785E+04 -1.604366E+04  1.884855E+04  4.701325E+03
       301  23  2.834419E+05 -9.118766E+03  3.926264E+04  4.664131E+03  3.943421E+04  5.596153E+03
       301  24  2.926442E+05  4.003869E+04  8.200992E+04 -1.607133E+04  6.001900E+04  5.510220E+03
       301  25 -1.247276E+05 -1.055527E+05 -7.929487E+04 -1.845638E+04  1.910800E+04  4.701277E+03
       301  26 -1.550869E+05 -1.186060E+05 -6.966314E+04  5.838669E+03  3.949253E+04  5.596482E+03
       301  27 -1.670709E+05 -7.473715E+04 -3.222456E+04 -1.131153E+04  5.987548E+04  5.510853E+03
       302   1  9.014162E+05  1.371630E+05  2.454120E+05  1.150663E+03 -7.541806E+04 -7.153570E+03
       302   2  8.695883E+05  9.107474E+04  3.032774E+05 -2.430602E+03 -1.596472E+05 -8.995723E+03
       302   3  9.481987E+05  4.305998E+05  5.129651E+05 -5.216118E+04 -2.438980E+05 -3.753593E+03
       302   4  3.130286E+05 -9.709215E+03  9.929603E+04 -1.683958E+04 -7.638212E+04 -7.153042E+03
       302   5  2.578838E+05 -6.149110E+04  1.515513E+05  5.806580E+03 -1.591790E+05 -8.997608E+03
       302   6  3.130301E+05  2.722904E+05  3.547411E+05 -1.769622E+04 -2.419941E+05 -3.761922E+03
       302   7 -2.750445E+05 -1.566062E+05 -4.684566E+04 -3.481287E+04 -7.734525E+04 -7.152458E+03
       302   8 -3.534811E+05 -2.140847E+05 -2.027031E+02  1.403546E+04 -1.587112E+05 -8.999483E+03
       302   9 -3.217703E+05  1.139553E+05  1.964875E+05  1.673324E+04 -2.400921E+05 -3.770049E+03
       302  10  9.014101E+05  1.371614E+05  2.454013E+05  1.150229E+03 -2.393135E-10  5.493382E-10
       302  11  8.695609E+05  9.106782E+04  3.032294E+05 -2.431758E+03 -1.103919E-09  3.044556E-10
       302  12  9.481349E+05  4.305839E+05  5.128535E+05 -5.216192E+04  1.046266E-11 -2.330848E-10
       302  13  3.130223E+05 -9.710835E+03  9.928498E+04 -1.684002E+04 -9.723668E-10  1.528143E-09
       302  14  2.578566E+05 -6.149799E+04  1.515035E+05  5.805427E+03  1.318585E-10  3.837351E-09
       302  15  3.129673E+05  2.722747E+05  3.546311E+05 -1.769695E+04 -1.548083E-09 -2.714456E-10
       302  16 -2.750510E+05 -1.566079E+05 -4.685701E+04 -3.481331E+04  2.906300E-10  4.727081E-10
       302  17 -3.535082E+05 -2.140915E+05 -2.502127E+02  1.403431E+04  5.978936E-10 -1.258734E-10
       302  18 -3.218322E+05  1.139398E+05  1.963791E+05  1.673251E+04  8.087652E-10 -1.361005E-09
       302  19  9.014162E+05  1.371630E+05  2.454120E+05  1.150663E+03  7.541806E+04  7.153570E+03
       302  20  8.695883E+05  9.107474E+04  3.032774E+05 -2.430602E+03  1.596472E+05  8.995723E+03
       302  21  9.481987E+05  4.305998E+05  5.129651E+05 -5.216118E+04  2.438980E+05  3.753593E+03
       302  22  3.130286E+05 -9.709215E+03  9.929603E+04 -1.683958E+04  7.638212E+04  7.153042E+03
       302  23  2.578838E+05 -6.149110E+04  1.515513E+05  5.806580E+03  1.591790E+05  8.997608E+03
       302  24  3.130301E+05  2.722904E+05  3.547411E+05 -1.769622E+04  2.419941E+05  3.761922E+03
       302  25 -2.750445E+05 -1.566062E+05 -4.684566E+04 -3.481287E+04  7.734525E+04  7.152458E+03
       302  26 -3.534811E+05 -2.140847E+05 -2.027031E+02  1.403546E+04  1.587112E+05  8.999483E+03
       302  27 -3.217703E+05  1.139553E+05  1.964875E+05  1.673324E+04  2.400921E+05  3.770049E+03
       303   1  1.631622E+05  4.556483E+05  1.999593E+05 -3.887501E+04  6.189589E+02  1.091605E+05
       303   2  5.740626E+03  4.024077E+05  1.014186E+05  1.462072E+03  1.881048E+03  7.139848E+04
       303   3  2.190003E+04  3.973242E+05  7.082055E+04 -1.502935E+04  6.705854E+02  3.363222E+04
       303   4  1.224179E+05  2.928045E+05  1.593559E+05 -2.249171E+04  6.226806E+02  1.086761E+05
       303   5 -2.762803E+04  2.687660E+05  6.827042E+04  5.808941E+03  1.881554E+03  7.139780E+04
       303   6 -4.156374E+03  2.928127E+05  4.480486E+04 -2.271888E+04  6.691027E+02  3.411345E+04
       303   7  8.167250E+04  1.299853E+05  1.187507E+05 -6.112704E+03  6.263775E+02  1.081919E+05
       303   8 -6.099795E+04  1.351406E+05  3.512089E+04  1.015488E+04  1.882059E+03  7.139712E+04
       303   9 -3.021337E+04  1.883112E+05  1.878838E+04 -3.040710E+04  6.676079E+02  3.459460E+04
       303  10  1.631590E+05  4.556355E+05  1.999369E+05 -3.887506E+04 -1.776613E-10 -2.766098E-10
       303  11  5.739255E+03  4.024022E+05  1.014090E+05  1.461964E+03 -7.352161E-10  1.365400E-11
       303  12  2.189973E+04  3.973230E+05  7.081842E+04 -1.502937E+04  1.370909E-09  3.091275E-10
       303  13  1.224147E+05  2.927918E+05  1.593337E+05 -2.249177E+04  6.709470E-10  4.311131E-10
       303  14 -2.762940E+04  2.687605E+05  6.826084E+04  5.808833E+03 -2.287310E-09  6.650844E-11
       303  15 -4.156687E+03  2.928115E+05  4.480267E+04 -2.271889E+04  2.808129E-10  8.193653E-11
       303  16  8.166936E+04  1.299727E+05  1.187287E+05 -6.112759E+03 -1.141065E-10  3.317136E-11
       303  17 -6.099932E+04  1.351351E+05  3.511130E+04  1.015477E+04 -4.667187E-10  3.345078E-10
       303  18 -3.021369E+04  1.883100E+05  1.878613E+04 -3.040712E+04  1.891915E-10 -3.807905E-10
       303  19  1.631622E+05  4.556483E+05  1.999593E+05 -3.887501E+04 -6.189589E+02 -1.091605E+05
       303  20  5.740626E+03  4.024077E+05  1.014186E+05  1.462072E+03 -1.881048E+03 -7.139848E+04
       303  21  2.190003E+04  3.973242E+05  7.082055E+04 -1.502935E+04 -6.705854E+02 -3.363222E+04
       303  22  1.224179E+05  2.928045E+05  1.593559E+05 -2.249171E+04 -6.226806E+02 -1.086761E+05
       303  23 -2.762803E+04  2.687660E+05  6.827042E+04  5.808941E+03 -1.881554E+03 -7.139780E+04
       303  24 -4.156374E+03  2.928127E+05  4.480486E+04 -2.271888E+04 -6.691027E+02 -3.411345E+04
       303  25  8.167250E+04  1.299853E+05  1.187507E+05 -6.112704E+03 -6.263775E+02 -1.081919E+05
       303  26 -6.099795E+04  1.351406E+05  3.512089E+04  1.015488E+04 -1.882059E+03 -7.139712E+04
       303  27 -3.021337E+04  1.883112E+05  1.878838E+04 -3.040710E+04 -6.676079E+02 -3.459460E+04
       304   1  1.842603E+03  2.186448E+05  2.089439E+04 -2.481815E+04 -4.462273E+02  2.653949E+04
       304   2 -2.779812E+04  1.856898E+05 -5.250860E+03  5.418811E+03 -1.247327E+03  1.707237E+04
       304   3 -3.064857E+04  1.604407E+05 -1.858263E+04 -2.120250E+04 -1.770823E+03  7.606608E+03
       304   4  1.811439E+04  2.838392E+05  3.713744E+04 -2.261835E+04 -4.465430E+02  2.672639E+04
       304   5 -4.262700E+03  2.799855E+05  1.816497E+04  5.790685E+03 -1.247574E+03  1.720515E+04
       304   6  1.579924E+02  2.838459E+05  1.204289E+04 -2.265792E+04 -1.770968E+03  7.684832E+03
       304   7  3.438588E+04  3.490375E+05  5.338018E+04 -2.041832E+04 -4.468573E+02  2.691331E+04
       304   8  1.927205E+04  3.742894E+05  4.158013E+04  6.162620E+03 -1.247822E+03  1.733795E+04
       304   9  3.096342E+04  4.072649E+05  4.266727E+04 -2.411363E+04 -1.771113E+03  7.763072E+03
       304  10  1.842414E+03  2.186440E+05  2.089306E+04 -2.481814E+04  2.715283E-10 -3.522620E-10
       304  11 -2.779820E+04  1.856895E+05 -5.251410E+03  5.418828E+03 -2.584510E-10 -4.898372E-11
       304  12 -3.064859E+04  1.604407E+05 -1.858274E+04 -2.120249E+04 -8.119487E-10  3.019105E-10
       304  13  1.811420E+04  2.838384E+05  3.713610E+04 -2.261834E+04  4.183301E-10  5.926180E-10
       304  14 -4.262781E+03  2.799852E+05  1.816441E+04  5.790702E+03  8.203827E-10 -1.438035E-10
       304  15  1.579732E+02  2.838458E+05  1.204277E+04 -2.265791E+04  1.602537E-09  8.773648E-11
       304  16  3.438569E+04  3.490367E+05  5.337882E+04 -2.041831E+04  1.629161E-10  8.467044E-11
       304  17  1.927197E+04  3.742891E+05  4.157956E+04  6.162637E+03 -1.442558E-09  4.699360E-10
       304  18  3.096340E+04  4.072648E+05  4.266715E+04 -2.411362E+04 -2.855905E-10 -5.027398E-10
       304  19  1.842603E+03  2.186448E+05  2.089439E+04 -2.481815E+04  4.462273E+02 -2.653949E+04
       304  20 -2.779812E+04  1.856898E+05 -5.250860E+03  5.418811E+03  1.247327E+03 -1.707237E+04
       304  21 -3.064857E+04  1.604407E+05 -1.858263E+04 -2.120250E+04  1.770823E+03 -7.606608E+03
       304  22  1.811439E+04  2.838392E+05  3.713744E+04 -2.261835E+04  4.465430E+02 -2.672639E+04
       304  23 -4.262700E+03  2.799855E+05  1.816497E+04  5.790685E+03  1.247574E+03 -1.720515E+04
       304  24  1.579924E+02  2.838459E+05  1.204289E+04 -2.265792E+04  1.770968E+03 -7.684832E+03
       304  25  3.438588E+04  3.490375E+05  5.338018E+04 -2.041832E+04  4.468573E+02 -2.691331E+04
       304  26  1.927205E+04  3.742894E+05  4.158013E+04  6.162620E+03  1.247822E+03 -1.733795E+04
       304  27  3.096342E+04  4.072649E+05  4.266727E+04 -2.411363E+04  1.771113E+03 -7.763072E+03
       305   1 -7.108898E+04 -1.205228E+04 -6.326747E+04 -2.319646E+04 -3.166413E+03  4.949348E+03
       305   2 -8.287055E+04 -4.377716E+04 -7.428586E+04  6.601120E+03 -4.698681E+03  2.453627E+03
       305   3 -8.364794E+04 -7.178921E+04 -8.080168E+04 -2.192093E+04 -1.715756E+03 -3.690804E+01
       305   4  2.574387E+03  2.829645E+05  1.008137E+04 -2.296822E+04 -3.167587E+03  5.679756E+03
       305   5 -1.791988E+03  2.810407E+05  6.322231E+03  6.190255E+03 -4.698360E+03  2.315796E+03
       305   6  4.993656E+03  2.829778E+05  7.666868E+03 -2.296896E+04 -1.714969E+03 -1.043087E+03
       305   7  7.623122E+04  5.780602E+05  8.342371E+04 -2.273984E+04 -3.168760E+03  6.410511E+03
       305   8  7.927867E+04  6.059543E+05  8.692244E+04  5.779202E+03 -4.698039E+03  2.177892E+03
       305   9  9.362578E+04  6.378590E+05  9.612596E+04 -2.401757E+04 -1.714178E+03 -2.049840E+03
       305  10 -7.108900E+04 -1.205231E+04 -6.326754E+04 -2.319644E+04  3.691730E-10 -1.654573E-11
       305  11 -8.287058E+04 -4.377717E+04 -7.428591E+04  6.601129E+03 -1.475703E-10 -5.237289E-11
       305  12 -8.364795E+04 -7.178921E+04 -8.080169E+04 -2.192093E+04 -2.772954E-10  7.164143E-11
       305  13  2.574367E+03  2.829645E+05  1.008130E+04 -2.296821E+04 -5.580941E-10  5.685030E-10
       305  14 -1.792013E+03  2.810407E+05  6.322179E+03  6.190263E+03  2.557355E-11 -1.856210E-10
       305  15  4.993652E+03  2.829778E+05  7.666860E+03 -2.296896E+04 -1.895630E-10  3.005638E-11
       305  16  7.623120E+04  5.780602E+05  8.342361E+04 -2.273983E+04  4.050122E-10 -2.704422E-10
       305  17  7.927864E+04  6.059542E+05  8.692239E+04  5.779211E+03 -4.743066E-10  8.262247E-11
       305  18  9.362578E+04  6.378590E+05  9.612595E+04 -2.401757E+04 -6.750633E-10 -1.522268E-10
       305  19 -7.108898E+04 -1.205228E+04 -6.326747E+04 -2.319646E+04  3.166413E+03 -4.949348E+03
       305  20 -8.287055E+04 -4.377716E+04 -7.428586E+04  6.601120E+03  4.698681E+03 -2.453627E+03
       305  21 -8.364794E+04 -7.178921E+04 -8.080168E+04 -2.192093E+04  1.715756E+03  3.690804E+01
       305  22  2.574387E+03  2.829645E+05  1.008137E+04 -2.296822E+04  3.167587E+03 -5.679756E+03
       305  23 -1.791988E+03  2.810407E+05  6.322231E+03  6.190255E+03  4.698360E+03 -2.315796E+03
       305  24  4.993656E+03  2.829778E+05  7.666868E+03 -2.296896E+04  1.714969E+03  1.043087E+03
       305  25  7.623122E+04  5.780602E+05  8.342371E+04 -2.273984E+04  3.168760E+03 -6.410511E+03
       305  26  7.927867E+04  6.059543E+05  8.692244E+04  5.779202E+03  4.698039E+03 -2.177892E+03
       305  27  9.362578E+04  6.378590E+05  9.612596E+04 -2.401757E+04  1.714178E+03  2.049840E+03
       306   1 -1.971318E+06 -5.463012E+05 -3.619066E+05 -6.594733E+05 -2.062330E+05 -7.697433E+04
       306   2 -1.905615E+06 -2.613292E+05 -1.708446E+05 -7.341384E+05 -1.332249E+05 -4.789034E+04
       306   3 -1.980926E+06 -2.924881E+05 -1.237583E+05 -7.137746E+05 -5.970654E+04 -2.016748E+04
       306   4 -1.858103E+06 -4.752266E+05 -3.250560E+05 -5.997762E+05 -2.058929E+05 -7.685793E+04
       306   5 -1.771347E+06 -2.032991E+05 -1.325656E+05 -6.901575E+05 -1.331176E+05 -4.785193E+04
       306   6 -1.825534E+06 -2.474161E+05 -8.384479E+04 -6.855185E+05 -5.982946E+04 -2.021212E+04
       306   7 -1.744873E+06 -4.041426E+05 -2.882066E+05 -5.400671E+05 -2.055527E+05 -7.674147E+04
       306   8 -1.637061E+06 -1.452665E+05 -9.428834E+04 -6.461674E+05 -1.330103E+05 -4.781350E+04
       306   9 -1.670118E+06 -2.023447E+05 -4.393314E+04 -6.572570E+05 -5.995240E+04 -2.025676E+04
       306  10 -1.971365E+06 -5.463191E+05 -3.619979E+05 -6.594861E+05  2.356156E-10 -1.662879E-11
       306  11 -1.905635E+06 -2.613364E+05 -1.708824E+05 -7.341436E+05 -7.516784E-10  4.137657E-10
       306  12 -1.980930E+06 -2.924895E+05 -1.237658E+05 -7.137756E+05  2.053610E-10 -9.476896E-10
       306  13 -1.858150E+06 -4.752444E+05 -3.251471E+05 -5.997890E+05  2.330305E-09 -6.079699E-10
       306  14 -1.771367E+06 -2.033063E+05 -1.326033E+05 -6.901626E+05  5.766722E-10 -5.677522E-10
       306  15 -1.825538E+06 -2.474175E+05 -8.385231E+04 -6.855194E+05 -1.187234E-09 -1.765212E-12
       306  16 -1.744920E+06 -4.041603E+05 -2.882973E+05 -5.400798E+05 -1.354895E-10 -3.137268E-10
       306  17 -1.637081E+06 -1.452737E+05 -9.432600E+04 -6.461726E+05 -2.075855E-10 -7.750741E-10
       306  18 -1.670122E+06 -2.023461E+05 -4.394069E+04 -6.572580E+05  2.504431E-10 -3.781134E-11
       306  19 -1.971318E+06 -5.463012E+05 -3.619066E+05 -6.594733E+05  2.062330E+05  7.697433E+04
       306  20 -1.905615E+06 -2.613292E+05 -1.708446E+05 -7.341384E+05  1.332249E+05  4.789034E+04
       306  21 -1.980926E+06 -2.924881E+05 -1.237583E+05 -7.137746E+05  5.970654E+04  2.016748E+04
       306  22 -1.858103E+06 -4.752266E+05 -3.250560E+05 -5.997762E+05  2.058929E+05  7.685793E+04
       306  23 -1.771347E+06 -2.032991E+05 -1.325656E+05 -6.901575E+05  1.331176E+05  4.785193E+04
       306  24 -1.825534E+06 -2.474161E+05 -8.384479E+04 -6.855185E+05  5.982946E+04  2.021212E+04
       306  25 -1.744873E+06 -4.041426E+05 -2.882066E+05 -5.400671E+05  2.055527E+05  7.674147E+04
       306  26 -1.637061E+06 -1.452665E+05 -9.428834E+04 -6.461674E+05  1.330103E+05  4.781350E+04
       306  27 -1.670118E+06 -2.023447E+05 -4.393314E+04 -6.572570E+05  5.995240E+04  2.025676E+04
       307   1 -1.981159E+06 -3.543909E+05 -1.159744E+05 -7.155887E+05 -4.720507E+04 -1.553445E+04
       307   2 -1.971330E+06 -3.128998E+05 -7.844109E+04 -7.274515E+05 -3.068756E+04 -8.934737E+03
       307   3 -1.984092E+06 -3.173332E+05 -6.650924E+04 -7.240681E+05 -1.401683E+04 -2.741395E+03
       307   4 -1.813404E+06 -2.869083E+05 -6.908396E+04 -6.657974E+05 -4.711718E+04 -1.550183E+04
       307   5 -1.799706E+06 -2.470480E+05 -3.114553E+04 -6.797685E+05 -3.066828E+04 -8.927602E+03
       307   6 -1.808581E+06 -2.530905E+05 -1.874872E+04 -6.784948E+05 -1.406606E+04 -2.759866E+03
       307   7 -1.645621E+06 -2.194231E+05 -2.219616E+04 -6.159935E+05 -4.702927E+04 -1.546919E+04
       307   8 -1.628054E+06 -1.811943E+05  1.614735E+04 -6.320735E+05 -3.064899E+04 -8.920464E+03
       307   9 -1.633040E+06 -1.888465E+05  2.900903E+04 -6.329101E+05 -1.411531E+04 -2.778343E+03
       307  10 -1.981162E+06 -3.543918E+05 -1.159790E+05 -7.155893E+05 -7.771156E-10 -4.782900E-11
       307  11 -1.971331E+06 -3.129001E+05 -7.844302E+04 -7.274517E+05 -1.490556E-10 -1.216206E-09
       307  12 -1.984092E+06 -3.173332E+05 -6.650962E+04 -7.240682E+05 -7.085129E-10 -4.871531E-10
       307  13 -1.813406E+06 -2.869092E+05 -6.908860E+04 -6.657980E+05 -3.654084E-10 -1.421316E-10
       307  14 -1.799707E+06 -2.470484E+05 -3.114745E+04 -6.797687E+05 -1.747795E-09  3.533753E-10
       307  15 -1.808581E+06 -2.530905E+05 -1.874911E+04 -6.784948E+05 -4.465278E-10 -2.717602E-10
       307  16 -1.645623E+06 -2.194239E+05 -2.220078E+04 -6.159941E+05  2.838785E-10  5.922224E-10
       307  17 -1.628055E+06 -1.811947E+05  1.614543E+04 -6.320737E+05  5.864354E-11 -1.669891E-10
       307  18 -1.633040E+06 -1.888466E+05  2.900864E+04 -6.329101E+05 -2.319993E-10 -2.991983E-11
       307  19 -1.981159E+06 -3.543909E+05 -1.159744E+05 -7.155887E+05  4.720507E+04  1.553445E+04
       307  20 -1.971330E+06 -3.128998E+05 -7.844109E+04 -7.274515E+05  3.068756E+04  8.934737E+03
       307  21 -1.984092E+06 -3.173332E+05 -6.650924E+04 -7.240681E+05  1.401683E+04  2.741395E+03
       307  22 -1.813404E+06 -2.869083E+05 -6.908396E+04 -6.657974E+05  4.711718E+04  1.550183E+04
       307  23 -1.799706E+06 -2.470480E+05 -3.114553E+04 -6.797685E+05  3.066828E+04  8.927602E+03
       307  24 -1.808581E+06 -2.530905E+05 -1.874872E+04 -6.784948E+05  1.406606E+04  2.759866E+03
       307  25 -1.645621E+06 -2.194231E+05 -2.219616E+04 -6.159935E+05  4.702927E+04  1.546919E+04
       307  26 -1.628054E+06 -1.811943E+05  1.614735E+04 -6.320735E+05  3.064899E+04  8.920464E+03
       307  27 -1.633040E+06 -1.888465E+05  2.900903E+04 -6.329101E+05  1.411531E+04  2.778343E+03
       308   1 -1.974414E+06 -3.246665E+05 -6.150390E+04 -7.235926E+05 -1.127603E+04 -1.760828E+03
       308   2 -1.972221E+06 -3.148644E+05 -5.299312E+04 -7.216678E+05 -7.452078E+03 -3.109764E+02
       308   3 -1.968450E+06 -3.167396E+05 -4.923827E+04 -7.230548E+05 -3.535981E+03  8.928381E+02
       308   4 -1.805302E+06 -2.602360E+05 -1.498283E+04 -6.770790E+05 -1.125367E+04 -1.752501E+03
       308   5 -1.805741E+06 -2.519052E+05 -7.295965E+03 -6.763580E+05 -7.472828E+03 -3.188004E+02
       308   6 -1.804593E+06 -2.552419E+05 -4.329814E+03 -6.789492E+05 -3.599861E+03  8.688826E+02
       308   7 -1.636163E+06 -1.958038E+05  3.153558E+04 -6.305541E+05 -1.123131E+04 -1.744172E+03
       308   8 -1.639235E+06 -1.889444E+05  3.839866E+04 -6.310374E+05 -7.493583E+03 -3.266267E+02
       308   9 -1.640709E+06 -1.937428E+05  4.057625E+04 -6.348331E+05 -3.663760E+03  8.449203E+02
       308  10 -1.974414E+06 -3.246665E+05 -6.150415E+04 -7.235926E+05 -2.076302E-10  3.706532E-11
       308  11 -1.972221E+06 -3.148644E+05 -5.299323E+04 -7.216678E+05  3.138716E-10 -4.862893E-10
       308  12 -1.968450E+06 -3.167396E+05 -4.923830E+04 -7.230548E+05 -1.806009E-10 -1.704773E-10
       308  13 -1.805302E+06 -2.602360E+05 -1.498307E+04 -6.770791E+05 -5.423532E-10 -2.119977E-10
       308  14 -1.805741E+06 -2.519052E+05 -7.296070E+03 -6.763581E+05  9.016084E-10 -2.692492E-10
       308  15 -1.804593E+06 -2.552419E+05 -4.329840E+03 -6.789492E+05  1.068469E-10  2.078775E-10
       308  16 -1.636163E+06 -1.958038E+05  3.153533E+04 -6.305541E+05  2.252991E-10 -1.314659E-10
       308  17 -1.639235E+06 -1.889444E+05  3.839855E+04 -6.310374E+05 -2.317746E-10  2.910858E-10
       308  18 -1.640709E+06 -1.937428E+05  4.057622E+04 -6.348331E+05 -9.558713E-11  8.058180E-10
       308  19 -1.974414E+06 -3.246665E+05 -6.150390E+04 -7.235926E+05  1.127603E+04  1.760828E+03
       308  20 -1.972221E+06 -3.148644E+05 -5.299312E+04 -7.216678E+05  7.452078E+03  3.109764E+02
       308  21 -1.968450E+06 -3.167396E+05 -4.923827E+04 -7.230548E+05  3.535981E+03 -8.928381E+02
       308  22 -1.805302E+06 -2.602360E+05 -1.498283E+04 -6.770790E+05  1.125367E+04  1.752501E+03
       308  23 -1.805741E+06 -2.519052E+05 -7.295965E+03 -6.763580E+05  7.472828E+03  3.188004E+02
       308  24 -1.804593E+06 -2.552419E+05 -4.329814E+03 -6.789492E+05  3.599861E+03 -8.688826E+02
       308  25 -1.636163E+06 -1.958038E+05  3.153558E+04 -6.305541E+05  1.123131E+04  1.744172E+03
       308  26 -1.639235E+06 -1.889444E+05  3.839866E+04 -6.310374E+05  7.493583E+03  3.266267E+02
       308  27 -1.640709E+06 -1.937428E+05  4.057625E+04 -6.348331E+05  3.663760E+03 -8.449203E+02
       309   1 -1.933267E+06 -3.065716E+05 -3.919074E+04 -7.153915E+05 -2.883036E+03  9.789762E+02
       309   2 -1.931386E+06 -2.977679E+05 -3.584765E+04 -7.077300E+05 -1.760187E+03  1.176656E+03
       309   3 -1.919500E+06 -3.005864E+05 -3.357799E+04 -7.117415E+05 -5.756251E+02  1.208799E+03
       309   4 -1.803020E+06 -2.573763E+05 -3.465275E+03 -6.800019E+05 -2.903534E+03  9.712749E+02
       309   5 -1.807979E+06 -2.512401E+05 -2.002555E+03 -6.742883E+05 -1.810149E+03  1.157947E+03
       309   6 -1.802929E+06 -2.567198E+05 -1.589691E+03 -6.802477E+05 -6.550701E+02  1.179093E+03
       309   7 -1.672757E+06 -2.081801E+05  3.225864E+04 -6.446055E+05 -2.924037E+03  9.635719E+02
       309   8 -1.684558E+06 -2.047115E+05  3.184113E+04 -6.408407E+05 -1.860122E+03  1.139234E+03
       309   9 -1.686344E+06 -2.128525E+05  3.039734E+04 -6.487486E+05 -7.345314E+02  1.149381E+03
       309  10 -1.933267E+06 -3.065716E+05 -3.919076E+04 -7.153915E+05 -5.291987E-10  5.105183E-10
       309  11 -1.931386E+06 -2.977679E+05 -3.584766E+04 -7.077300E+05 -4.645812E-11 -1.088878E-09
       309  12 -1.919500E+06 -3.005864E+05 -3.357800E+04 -7.117415E+05 -3.365797E-10 -9.563793E-10
       309  13 -1.803020E+06 -2.573763E+05 -3.465292E+03 -6.800019E+05  2.431697E-10  2.710334E-10
       309  14 -1.807979E+06 -2.512401E+05 -2.002563E+03 -6.742883E+05 -4.770230E-10  6.961803E-10
       309  15 -1.802929E+06 -2.567198E+05 -1.589694E+03 -6.802477E+05  1.342380E-09  1.219538E-09
       309  16 -1.672757E+06 -2.081801E+05  3.225862E+04 -6.446055E+05 -3.758745E-10  1.941904E-10
       309  17 -1.684558E+06 -2.047115E+05  3.184112E+04 -6.408407E+05  2.553504E-10  5.052124E-10
       309  18 -1.686344E+06 -2.128525E+05  3.039733E+04 -6.487486E+05  2.702860E-10 -5.561788E-10
       309  19 -1.933267E+06 -3.065716E+05 -3.919074E+04 -7.153915E+05  2.883036E+03 -9.789762E+02
       309  20 -1.931386E+06 -2.977679E+05 -3.584765E+04 -7.077300E+05  1.760187E+03 -1.176656E+03
       309  21 -1.919500E+06 -3.005864E+05 -3.357799E+04 -7.117415E+05  5.756251E+02 -1.208799E+03
       309  22 -1.803020E+06 -2.573763E+05 -3.465275E+03 -6.800019E+05  2.903534E+03 -9.712749E+02
       309  23 -1.807979E+06 -2.512401E+05 -2.002555E+03 -6.742883E+05  1.810149E+03 -1.157947E+03
       309  24 -1.802929E+06 -2.567198E+05 -1.589691E+03 -6.802477E+05  6.550701E+02 -1.179093E+03
       309  25 -1.672757E+06 -2.081801E+05  3.225864E+04 -6.446055E+05  2.924037E+03 -9.635719E+02
       309  26 -1.684558E+06 -2.047115E+05  3.184113E+04 -6.408407E+05  1.860122E+03 -1.139234E+03
       309  27 -1.686344E+06 -2.128525E+05  3.039734E+04 -6.487486E+05  7.345314E+02 -1.149381E+03
       310   1 -1.863891E+06 -2.808528E+05 -1.848719E+04 -6.979345E+05 -2.539477E+02  1.074122E+03
       310   2 -1.861444E+06 -2.700023E+05 -1.626027E+04 -6.873104E+05  8.405805E+02  1.092777E+03
       310   3 -1.845482E+06 -2.743114E+05 -1.505274E+04 -6.925874E+05  1.958742E+03  1.047952E+03
       310   4 -1.802152E+06 -2.575498E+05 -1.578555E+03 -6.811696E+05 -3.096579E+02  1.053302E+03
       310   5 -1.808949E+06 -2.502430E+05 -1.870230E+03 -6.731180E+05  7.735687E+02  1.067745E+03
       310   6 -1.802230E+06 -2.580934E+05 -3.172300E+03 -6.809674E+05  1.880411E+03  1.018706E+03
       310   7 -1.740410E+06 -2.342466E+05  1.532975E+04 -6.644031E+05 -3.653744E+02  1.032480E+03
       310   8 -1.756452E+06 -2.304836E+05  1.251957E+04 -6.589244E+05  7.065506E+02  1.042711E+03
       310   9 -1.758976E+06 -2.418754E+05  8.707968E+03 -6.693468E+05  1.802074E+03  9.894564E+02
       310  10 -1.863891E+06 -2.808528E+05 -1.848719E+04 -6.979345E+05 -9.097110E-10 -7.278037E-11
       310  11 -1.861444E+06 -2.700023E+05 -1.626028E+04 -6.873104E+05 -1.143746E-09 -7.422145E-10
       310  12 -1.845482E+06 -2.743114E+05 -1.505275E+04 -6.925874E+05 -6.872297E-11  1.507402E-09
       310  13 -1.802152E+06 -2.575499E+05 -1.578557E+03 -6.811696E+05 -3.959379E-10 -9.118125E-10
       310  14 -1.808949E+06 -2.502430E+05 -1.870233E+03 -6.731180E+05  1.119571E-10 -2.300326E-10
       310  15 -1.802230E+06 -2.580935E+05 -3.172308E+03 -6.809674E+05  1.041605E-09  1.791171E-09
       310  16 -1.740410E+06 -2.342466E+05  1.532975E+04 -6.644031E+05 -1.621431E-11 -1.276756E-10
       310  17 -1.756452E+06 -2.304836E+05  1.251957E+04 -6.589244E+05  1.038269E-10  2.589963E-09
       310  18 -1.758976E+06 -2.418754E+05  8.707960E+03 -6.693468E+05 -7.640349E-10 -5.298728E-10
       310  19 -1.863891E+06 -2.808528E+05 -1.848719E+04 -6.979345E+05  2.539477E+02 -1.074122E+03
       310  20 -1.861444E+06 -2.700023E+05 -1.626027E+04 -6.873104E+05 -8.405805E+02 -1.092777E+03
       310  21 -1.845482E+06 -2.743114E+05 -1.505274E+04 -6.925874E+05 -1.958742E+03 -1.047952E+03
       310  22 -1.802152E+06 -2.575498E+05 -1.578555E+03 -6.811696E+05  3.096579E+02 -1.053302E+03
       310  23 -1.808949E+06 -2.502430E+05 -1.870230E+03 -6.731180E+05 -7.735687E+02 -1.067745E+03
       310  24 -1.802230E+06 -2.580934E+05 -3.172300E+03 -6.809674E+05 -1.880411E+03 -1.018706E+03
       310  25 -1.740410E+06 -2.342466E+05  1.532975E+04 -6.644031E+05  3.653744E+02 -1.032480E+03
       310  26 -1.756452E+06 -2.304836E+05  1.251957E+04 -6.589244E+05 -7.065506E+02 -1.042711E+03
       310  27 -1.758976E+06 -2.418754E+05  8.707968E+03 -6.693468E+05 -1.802074E+03 -9.894564E+02
       311   1 -1.781566E+06 -2.499225E+05  1.733291E+03 -6.761746E+05  2.652191E+03  1.004997E+03
       311   2 -1.778374E+06 -2.377612E+05  1.693325E+03 -6.648448E+05  6.218042E+03  1.866333E+03
       311   3 -1.763561E+06 -2.466367E+05 -2.666233E+03 -6.686340E+05  9.754382E+03  2.807036E+03
       311   4 -1.802383E+06 -2.574827E+05 -3.954059E+03 -6.815092E+05  2.571023E+03  9.746958E+02
       311   5 -1.808509E+06 -2.492168E+05 -6.588755E+03 -6.731093E+05  6.150934E+03  1.841272E+03
       311   6 -1.803018E+06 -2.619908E+05 -1.355440E+04 -6.798284E+05  9.701283E+03  2.787192E+03
       311   7 -1.823199E+06 -2.650429E+05 -9.641442E+03 -6.868436E+05  2.489857E+03  9.443953E+02
       311   8 -1.838644E+06 -2.606724E+05 -1.487092E+04 -6.813734E+05  6.083831E+03  1.816212E+03
       311   9 -1.842473E+06 -2.773448E+05 -2.444273E+04 -6.910221E+05  9.648187E+03  2.767349E+03
       311  10 -1.781566E+06 -2.499225E+05  1.733276E+03 -6.761746E+05  3.012464E-10  1.769044E-09
       311  11 -1.778374E+06 -2.377612E+05  1.693245E+03 -6.648448E+05 -5.189321E-10  6.791607E-10
       311  12 -1.763561E+06 -2.466367E+05 -2.666427E+03 -6.686340E+05  4.342529E-11  1.838302E-09
       311  13 -1.802383E+06 -2.574827E+05 -3.954073E+03 -6.815092E+05  9.817105E-10 -9.092538E-11
       311  14 -1.808509E+06 -2.492168E+05 -6.588833E+03 -6.731093E+05 -1.715822E-09  2.846899E-10
       311  15 -1.803018E+06 -2.619908E+05 -1.355460E+04 -6.798284E+05 -5.742881E-10  8.173785E-11
       311  16 -1.823199E+06 -2.650429E+05 -9.641456E+03 -6.868436E+05  4.301832E-10 -1.666132E-09
       311  17 -1.838644E+06 -2.606724E+05 -1.487099E+04 -6.813734E+05 -8.502161E-10 -2.282715E-09
       311  18 -1.842473E+06 -2.773448E+05 -2.444292E+04 -6.910222E+05  9.005888E-10  4.411774E-10
       311  19 -1.781566E+06 -2.499225E+05  1.733291E+03 -6.761746E+05 -2.652191E+03 -1.004997E+03
       311  20 -1.778374E+06 -2.377612E+05  1.693325E+03 -6.648448E+05 -6.218042E+03 -1.866333E+03
       311  21 -1.763561E+06 -2.466367E+05 -2.666233E+03 -6.686340E+05 -9.754382E+03 -2.807036E+03
       311  22 -1.802383E+06 -2.574827E+05 -3.954059E+03 -6.815092E+05 -2.571023E+03 -9.746958E+02
       311  23 -1.808509E+06 -2.492168E+05 -6.588755E+03 -6.731093E+05 -6.150934E+03 -1.841272E+03
       311  24 -1.803018E+06 -2.619908E+05 -1.355440E+04 -6.798284E+05 -9.701283E+03 -2.787192E+03
       311  25 -1.823199E+06 -2.650429E+05 -9.641442E+03 -6.868436E+05 -2.489857E+03 -9.443953E+02
       311  26 -1.838644E+06 -2.606724E+05 -1.487092E+04 -6.813734E+05 -6.083831E+03 -1.816212E+03
       311  27 -1.842473E+06 -2.773448E+05 -2.444273E+04 -6.910221E+05 -9.648187E+03 -2.767349E+03
       312   1 -1.705436E+06 -2.205827E+05  1.006478E+04 -6.569112E+05  1.244894E+04  3.497753E+03
       312   2 -1.698569E+06 -2.032418E+05  9.676608E+02 -6.456195E+05  2.751477E+04  8.662745E+03
       312   3 -1.698257E+06 -2.413674E+05 -3.118200E+04 -6.366897E+05  4.242790E+04  1.423657E+04
       312   4 -1.805190E+06 -2.562974E+05 -1.694785E+04 -6.819808E+05  1.233787E+04  3.456295E+03
       312   5 -1.804063E+06 -2.438590E+05 -2.812428E+04 -6.750845E+05  2.747454E+04  8.647643E+03
       312   6 -1.809507E+06 -2.869062E+05 -6.241262E+04 -6.705494E+05  4.245835E+04  1.424763E+04
       312   7 -1.904935E+06 -2.920117E+05 -4.396136E+04 -7.070470E+05  1.222681E+04  3.414843E+03
       312   8 -1.909546E+06 -2.844754E+05 -5.721723E+04 -7.045448E+05  2.743433E+04  8.632544E+03
       312   9 -1.920745E+06 -3.324435E+05 -9.364439E+04 -7.044034E+05  4.248880E+04  1.425869E+04
       312  10 -1.705436E+06 -2.205828E+05  1.006447E+04 -6.569112E+05 -1.837486E-10  7.456741E-10
       312  11 -1.698570E+06 -2.032420E+05  9.660922E+02 -6.456197E+05 -8.793714E-10 -2.193112E-09
       312  12 -1.698259E+06 -2.413681E+05 -3.118578E+04 -6.366902E+05 -8.106135E-10 -8.854070E-10
       312  13 -1.805190E+06 -2.562974E+05 -1.694816E+04 -6.819809E+05  1.015625E-09  9.894592E-10
       312  14 -1.804064E+06 -2.438593E+05 -2.812584E+04 -6.750847E+05 -6.732259E-10 -2.904751E-10
       312  15 -1.809509E+06 -2.869069E+05 -6.241641E+04 -6.705499E+05 -3.024552E-10 -5.204045E-10
       312  16 -1.904935E+06 -2.920117E+05 -4.396166E+04 -7.070470E+05 -5.331516E-10 -4.463696E-10
       312  17 -1.909546E+06 -2.844757E+05 -5.721879E+04 -7.045450E+05  1.076832E-09  4.422060E-10
       312  18 -1.920747E+06 -3.324442E+05 -9.364817E+04 -7.044039E+05 -2.128283E-10  1.510936E-10
       312  19 -1.705436E+06 -2.205827E+05  1.006478E+04 -6.569112E+05 -1.244894E+04 -3.497753E+03
       312  20 -1.698569E+06 -2.032418E+05  9.676608E+02 -6.456195E+05 -2.751477E+04 -8.662745E+03
       312  21 -1.698257E+06 -2.413674E+05 -3.118200E+04 -6.366897E+05 -4.242790E+04 -1.423657E+04
       312  22 -1.805190E+06 -2.562974E+05 -1.694785E+04 -6.819808E+05 -1.233787E+04 -3.456295E+03
       312  23 -1.804063E+06 -2.438590E+05 -2.812428E+04 -6.750845E+05 -2.747454E+04 -8.647643E+03
       312  24 -1.809507E+06 -2.869062E+05 -6.241262E+04 -6.705494E+05 -4.245835E+04 -1.424763E+04
       312  25 -1.904935E+06 -2.920117E+05 -4.396136E+04 -7.070470E+05 -1.222681E+04 -3.414843E+03
       312  26 -1.909546E+06 -2.844754E+05 -5.721723E+04 -7.045448E+05 -2.743433E+04 -8.632544E+03
       312  27 -1.920745E+06 -3.324435E+05 -9.364439E+04 -7.044034E+05 -4.248880E+04 -1.425869E+04
       313   1 -1.657279E+06 -2.020593E+05 -3.343497E+04 -6.568751E+05  5.435680E+04  1.821155E+04
       313   2 -1.625126E+06 -1.398500E+05 -7.638739E+04 -6.360368E+05  1.204324E+05  4.245088E+04
       313   3 -1.705514E+06 -3.775673E+05 -2.488825E+05 -5.460645E+05  1.857540E+05  6.871132E+04
       313   4 -1.820398E+06 -2.512220E+05 -7.572863E+04 -6.883572E+05  5.408857E+04  1.811250E+04
       313   5 -1.778653E+06 -2.042312E+05 -1.197483E+05 -6.843559E+05  1.205105E+05  4.247848E+04
       313   6 -1.849547E+06 -4.572824E+05 -2.936109E+05 -6.112126E+05  1.861792E+05  6.886114E+04
       313   7 -1.983492E+06 -3.003852E+05 -1.180244E+05 -7.198330E+05  5.382042E+04  1.801347E+04
       313   8 -1.932158E+06 -2.686095E+05 -1.631114E+05 -7.326636E+05  1.205885E+05  4.250607E+04
       313   9 -1.993559E+06 -5.369879E+05 -3.383412E+05 -6.763445E+05  1.866044E+05  6.901087E+04
       313  10 -1.657283E+06 -2.020604E+05 -3.344116E+04 -6.568759E+05 -1.141967E-10  2.114504E-10
       313  11 -1.625142E+06 -1.398558E+05 -7.641812E+04 -6.360409E+05 -4.562284E-10 -6.419624E-10
       313  12 -1.705552E+06 -3.775817E+05 -2.489564E+05 -5.460748E+05 -7.707877E-11 -1.911193E-10
       313  13 -1.820402E+06 -2.512231E+05 -7.573476E+04 -6.883580E+05 -1.084836E-09 -2.425288E-10
       313  14 -1.778670E+06 -2.042371E+05 -1.197790E+05 -6.843600E+05 -9.291908E-11 -2.322051E-10
       313  15 -1.849586E+06 -4.572969E+05 -2.936852E+05 -6.112229E+05 -4.720619E-11 -3.971474E-10
       313  16 -1.983495E+06 -3.003863E+05 -1.180305E+05 -7.198338E+05 -8.266932E-11  1.459823E-10
       313  17 -1.932174E+06 -2.686154E+05 -1.631422E+05 -7.326678E+05  2.845617E-10  1.878409E-10
       313  18 -1.993597E+06 -5.370024E+05 -3.384159E+05 -6.763549E+05  3.842796E-10  3.239306E-10
       313  19 -1.657279E+06 -2.020593E+05 -3.343497E+04 -6.568751E+05 -5.435680E+04 -1.821155E+04
       313  20 -1.625126E+06 -1.398500E+05 -7.638739E+04 -6.360368E+05 -1.204324E+05 -4.245088E+04
       313  21 -1.705514E+06 -3.775673E+05 -2.488825E+05 -5.460645E+05 -1.857540E+05 -6.871132E+04
       313  22 -1.820398E+06 -2.512220E+05 -7.572863E+04 -6.883572E+05 -5.408857E+04 -1.811250E+04
       313  23 -1.778653E+06 -2.042312E+05 -1.197483E+05 -6.843559E+05 -1.205105E+05 -4.247848E+04
       313  24 -1.849547E+06 -4.572824E+05 -2.936109E+05 -6.112126E+05 -1.861792E+05 -6.886114E+04
       313  25 -1.983492E+06 -3.003852E+05 -1.180244E+05 -7.198330E+05 -5.382042E+04 -1.801347E+04
       313  26 -1.932158E+06 -2.686095E+05 -1.631114E+05 -7.326636E+05 -1.205885E+05 -4.250607E+04
       313  27 -1.993559E+06 -5.369879E+05 -3.383412E+05 -6.763445E+05 -1.866044E+05 -6.901087E+04
       314   1  3.304585E+06  6.964748E+05  9.447835E+05  8.677475E+04  7.285249E+05  4.771047E+03
       314   2  3.180209E+06 -2.984363E+05  3.438585E+05  4.456564E+04  4.800924E+05  7.742230E+03
       314   3  3.379590E+06 -1.343653E+05  1.945010E+05 -7.122385E+04  2.316394E+05  5.232963E+03
       314   4  3.799959E+06  8.188588E+05  1.067631E+06 -2.057718E+04  7.301901E+05  4.649499E+03
       314   5  3.638804E+06 -1.845428E+05  4.572084E+05  1.754447E+04  4.805118E+05  7.721519E+03
       314   6  3.801356E+06 -2.923026E+04  2.989555E+05 -1.792351E+04  2.308279E+05  5.250917E+03
       314   7  4.295580E+06  9.412680E+05  1.190467E+06 -1.280145E+05  7.318565E+05  4.527464E+03
       314   8  4.097590E+06 -7.066218E+04  5.705432E+05 -9.496704E+03  4.809313E+05  7.700784E+03
       314   9  4.223289E+06  7.590201E+04  4.033982E+05  3.541282E+04  2.300159E+05  5.268721E+03
       314  10  3.304017E+06  6.963333E+05  9.437914E+05  8.677198E+04 -5.834539E-10  2.301188E-09
       314  11  3.179963E+06 -2.984978E+05  3.434275E+05  4.456265E+04 -6.039952E-10  1.973685E-09
       314  12  3.379533E+06 -1.343796E+05  1.944007E+05 -7.122482E+04  1.640871E-09 -3.955341E-10
       314  13  3.799390E+06  8.187167E+05  1.066635E+06 -2.057992E+04  5.004985E-10  1.639847E-09
       314  14  3.638557E+06 -1.846044E+05  4.567770E+05  1.754149E+04 -8.676873E-10 -1.089052E-10
       314  15  3.801299E+06 -2.924448E+04  2.988559E+05 -1.792449E+04 -9.209785E-10  1.057427E-10
       314  16  4.295009E+06  9.411254E+05  1.189467E+06 -1.280172E+05 -4.813977E-10  1.245638E-09
       314  17  4.097343E+06 -7.072380E+04  5.701113E+05 -9.499681E+03 -4.865954E-10  1.922318E-09
       314  18  4.223233E+06  7.588790E+04  4.032994E+05  3.541184E+04 -2.189697E-09 -5.693580E-12
       314  19  3.304585E+06  6.964748E+05  9.447835E+05  8.677475E+04 -7.285249E+05 -4.771047E+03
       314  20  3.180209E+06 -2.984363E+05  3.438585E+05  4.456564E+04 -4.800924E+05 -7.742230E+03
       314  21  3.379590E+06 -1.343653E+05  1.945010E+05 -7.122385E+04 -2.316394E+05 -5.232963E+03
       314  22  3.799959E+06  8.188588E+05  1.067631E+06 -2.057718E+04 -7.301901E+05 -4.649499E+03
       314  23  3.638804E+06 -1.845428E+05  4.572084E+05  1.754447E+04 -4.805118E+05 -7.721519E+03
       314  24  3.801356E+06 -2.923026E+04  2.989555E+05 -1.792351E+04 -2.308279E+05 -5.250917E+03
       314  25  4.295580E+06  9.412680E+05  1.190467E+06 -1.280145E+05 -7.318565E+05 -4.527464E+03
       314  26  4.097590E+06 -7.066218E+04  5.705432E+05 -9.496704E+03 -4.809313E+05 -7.700784E+03
       314  27  4.223289E+06  7.590201E+04  4.033982E+05  3.541282E+04 -2.300159E+05 -5.268721E+03
       315   1  3.474551E+06  5.460234E+04  1.812948E+05  3.754245E+03  1.814073E+05  3.557992E+03
       315   2  3.468933E+06 -8.845415E+04  5.789414E+04  1.181522E+04  1.192656E+05  3.239866E+03
       315   3  3.514646E+06 -6.045161E+04  1.768255E+04 -1.906813E+04  5.712458E+04  2.507560E+03
       315   4  3.740462E+06  1.206761E+05  2.470803E+05 -1.116803E+04  1.814557E+05  3.553553E+03
       315   5  3.714939E+06 -2.728219E+04  1.187591E+05  8.392412E+03  1.192099E+05  3.239036E+03
       315   6  3.740741E+06 -4.201164E+03  7.367340E+04 -1.099035E+04  5.696692E+04  2.508125E+03
       315   7  4.006438E+06  1.867454E+05  3.128606E+05 -2.609670E+04  1.815040E+05  3.549114E+03
       315   8  3.960999E+06  3.388532E+04  1.796196E+05  4.968236E+03  1.191543E+05  3.238207E+03
       315   9  3.966883E+06  5.204572E+04  1.296605E+05 -2.909657E+03  5.680920E+04  2.508685E+03
       315  10  3.474516E+06  5.459355E+04  1.812333E+05  3.753726E+03 -5.477031E-10 -1.086315E-09
       315  11  3.468918E+06 -8.845795E+04  5.786754E+04  1.181491E+04 -6.960330E-10  8.604296E-10
       315  12  3.514643E+06 -6.045249E+04  1.767644E+04 -1.906824E+04 -4.836048E-10 -8.166796E-10
       315  13  3.740427E+06  1.206673E+05  2.470187E+05 -1.116855E+04  1.365686E-10 -1.029221E-09
       315  14  3.714923E+06 -2.728599E+04  1.187325E+05  8.392101E+03 -8.427277E-10 -1.847295E-10
       315  15  3.740738E+06 -4.202036E+03  7.366732E+04 -1.099047E+04 -2.125860E-09 -1.269536E-09
       315  16  4.006403E+06  1.867366E+05  3.127991E+05 -2.609721E+04  5.336243E-11 -1.360479E-10
       315  17  3.960983E+06  3.388152E+04  1.795931E+05  4.967926E+03 -1.109780E-09 -1.226163E-09
       315  18  3.966879E+06  5.204485E+04  1.296544E+05 -2.909771E+03 -3.012811E-10 -5.535185E-10
       315  19  3.474551E+06  5.460234E+04  1.812948E+05  3.754245E+03 -1.814073E+05 -3.557992E+03
       315  20  3.468933E+06 -8.845415E+04  5.789414E+04  1.181522E+04 -1.192656E+05 -3.239866E+03
       315  21  3.514646E+06 -6.045161E+04  1.768255E+04 -1.906813E+04 -5.712458E+04 -2.507560E+03
       315  22  3.740462E+06  1.206761E+05  2.470803E+05 -1.116803E+04 -1.814557E+05 -3.553553E+03
       315  23  3.714939E+06 -2.728219E+04  1.187591E+05  8.392412E+03 -1.192099E+05 -3.239036E+03
       315  24  3.740741E+06 -4.201164E+03  7.367340E+04 -1.099035E+04 -5.696692E+04 -2.508125E+03
       315  25  4.006438E+06  1.867454E+05  3.128606E+05 -2.609670E+04 -1.815040E+05 -3.549114E+03
       315  26  3.960999E+06  3.388532E+04  1.796196E+05  4.968236E+03 -1.191543E+05 -3.238207E+03
       315  27  3.966883E+06  5.204572E+04  1.296605E+05 -2.909657E+03 -5.680920E+04 -2.508685E+03
       316   1  3.592145E+06 -1.689756E+04  2.455224E+04 -5.294802E+03  4.505436E+04  2.056208E+03
       316   2  3.599184E+06 -3.580380E+04 -9.962410E+02  4.079876E+03  2.936403E+04  1.570140E+03
       316   3  3.614684E+06 -2.953648E+04 -1.004968E+04 -8.487248E+03  1.367316E+04  1.230593E+03
       316   4  3.731171E+06  1.766525E+04  5.891333E+04 -7.272797E+03  4.495477E+04  2.055981E+03
       316   5  3.726972E+06 -4.024872E+03  3.062646E+04  3.702582E+03  2.928956E+04  1.570076E+03
       316   6  3.731227E+06 -5.488153E+02  1.881455E+04 -7.263497E+03  1.362409E+04  1.230599E+03
       316   7  3.870215E+06  5.222664E+04  9.327300E+04 -9.251235E+03  4.485515E+04  2.055754E+03
       316   8  3.854775E+06  2.775284E+04  6.224796E+04  3.325210E+03  2.921507E+04  1.570012E+03
       316   9  3.847782E+06  2.843784E+04  4.767778E+04 -6.039519E+03  1.357501E+04  1.230605E+03
       316  10  3.592143E+06 -1.689811E+04  2.454844E+04 -5.294877E+03  3.777088E-10 -1.460269E-09
       316  11  3.599183E+06 -3.580403E+04 -9.978566E+02  4.079839E+03  6.164258E-10  1.052091E-10
       316  12  3.614683E+06 -2.953653E+04 -1.005004E+04 -8.487261E+03  1.740758E-10  1.032266E-09
       316  13  3.731169E+06  1.766471E+04  5.890955E+04 -7.272872E+03 -4.714377E-10 -6.651603E-10
       316  14  3.726971E+06 -4.025103E+03  3.062486E+04  3.702545E+03  4.023292E-10  2.229123E-11
       316  15  3.731226E+06 -5.488664E+02  1.881420E+04 -7.263511E+03 -1.144408E-09  3.988393E-10
       316  16  3.870213E+06  5.222610E+04  9.326924E+04 -9.251310E+03 -8.333440E-10 -8.320548E-10
       316  17  3.854774E+06  2.775261E+04  6.224636E+04  3.325173E+03  3.486916E-11 -1.031797E-09
       316  18  3.847782E+06  2.843779E+04  4.767743E+04 -6.039532E+03 -1.381678E-09  6.309268E-10
       316  19  3.592145E+06 -1.689756E+04  2.455224E+04 -5.294802E+03 -4.505436E+04 -2.056208E+03
       316  20  3.599184E+06 -3.580380E+04 -9.962410E+02  4.079876E+03 -2.936403E+04 -1.570140E+03
       316  21  3.614684E+06 -2.953648E+04 -1.004968E+04 -8.487248E+03 -1.367316E+04 -1.230593E+03
       316  22  3.731171E+06  1.766525E+04  5.891333E+04 -7.272797E+03 -4.495477E+04 -2.055981E+03
       316  23  3.726972E+06 -4.024872E+03  3.062646E+04  3.702582E+03 -2.928956E+04 -1.570076E+03
       316  24  3.731227E+06 -5.488153E+02  1.881455E+04 -7.263497E+03 -1.362409E+04 -1.230599E+03
       316  25  3.870215E+06  5.222664E+04  9.327300E+04 -9.251235E+03 -4.485515E+04 -2.055754E+03
       316  26  3.854775E+06  2.775284E+04  6.224796E+04  3.325210E+03 -2.921507E+04 -1.570012E+03
       316  27  3.847782E+06  2.843784E+04  4.767778E+04 -6.039519E+03 -1.357501E+04 -1.230605E+03
       317   1  3.664123E+06 -1.375314E+04 -1.152932E+03 -5.136663E+03  1.062633E+04  1.041605E+03
       317   2  3.670254E+06 -1.523469E+04 -5.408973E+03  1.405137E+03  6.019216E+03  7.087850E+02
       317   3  3.678021E+06 -1.265532E+04 -5.658417E+03 -5.599906E+03  1.412002E+03  4.892986E+02
       317   4  3.729707E+06  2.550116E+03  1.504616E+04 -5.400807E+03  1.055199E+04  1.041590E+03
       317   5  3.728896E+06 -6.516551E+02  9.103103E+03  1.372644E+03  5.966308E+03  7.087826E+02
       317   6  3.729717E+06  2.035578E+02  7.151528E+03 -5.400666E+03  1.380576E+03  4.893008E+02
       317   7  3.795295E+06  1.885306E+04  3.124493E+04 -5.664978E+03  1.047765E+04  1.041575E+03
       317   8  3.787541E+06  1.393113E+04  2.361492E+04  1.340148E+03  5.913394E+03  7.087801E+02
       317   9  3.781415E+06  1.306223E+04  1.996128E+04 -5.201409E+03  1.349147E+03  4.893029E+02
       317  10  3.664123E+06 -1.375317E+04 -1.153145E+03 -5.136672E+03 -9.428014E-12  1.863510E-10
       317  11  3.670254E+06 -1.523470E+04 -5.409042E+03  1.405134E+03 -3.537373E-09 -3.890778E-10
       317  12  3.678021E+06 -1.265532E+04 -5.658421E+03 -5.599907E+03 -2.485068E-09  1.943924E-09
       317  13  3.729707E+06  2.550086E+03  1.504595E+04 -5.400815E+03 -7.053056E-10  3.690757E-10
       317  14  3.728896E+06 -6.516651E+02  9.103036E+03  1.372641E+03 -6.753352E-10 -3.470782E-10
       317  15  3.729717E+06  2.035570E+02  7.151524E+03 -5.400667E+03  1.328836E-09  6.558882E-10
       317  16  3.795295E+06  1.885303E+04  3.124473E+04 -5.664987E+03  1.414003E-09  8.563687E-10
       317  17  3.787541E+06  1.393112E+04  2.361486E+04  1.340145E+03  9.886825E-10 -9.267351E-10
       317  18  3.781415E+06  1.306223E+04  1.996127E+04 -5.201410E+03  2.615188E-09  6.295838E-10
       317  19  3.664123E+06 -1.375314E+04 -1.152932E+03 -5.136663E+03 -1.062633E+04 -1.041605E+03
       317  20  3.670254E+06 -1.523469E+04 -5.408973E+03  1.405137E+03 -6.019216E+03 -7.087850E+02
       317  21  3.678021E+06 -1.265532E+04 -5.658417E+03 -5.599906E+03 -1.412002E+03 -4.892986E+02
       317  22  3.729707E+06  2.550116E+03  1.504616E+04 -5.400807E+03 -1.055199E+04 -1.041590E+03
       317  23  3.728896E+06 -6.516551E+02  9.103103E+03  1.372644E+03 -5.966308E+03 -7.087826E+02
       317  24  3.729717E+06  2.035578E+02  7.151528E+03 -5.400666E+03 -1.380576E+03 -4.893008E+02
       317  25  3.795295E+06  1.885306E+04  3.124493E+04 -5.664978E+03 -1.047765E+04 -1.041575E+03
       317  26  3.787541E+06  1.393113E+04  2.361492E+04  1.340148E+03 -5.913394E+03 -7.087801E+02
       317  27  3.781415E+06  1.306223E+04  1.996128E+04 -5.201409E+03 -1.349147E+03 -4.893029E+02
       318   1  3.712314E+06 -4.003498E+03  2.637816E+03 -4.526603E+03  1.515700E+02  3.737739E+02
       318   2  3.716960E+06 -3.523337E+03  4.781686E+03  4.659604E+02 -3.759109E+03  1.446613E+02
       318   3  3.722939E+06  2.854477E+02  1.029167E+04 -4.910505E+03 -7.669777E+03 -5.192487E+01
       318   4  3.729651E+06  3.037313E+02  6.907599E+03 -4.694625E+03  1.041301E+02  3.737810E+02
       318   5  3.728981E+06 -5.338888E+02  7.756735E+03  4.900548E+02 -3.800348E+03  1.446684E+02
       318   6  3.729644E+06  1.956031E+03  1.196768E+04 -4.694283E+03 -7.704783E+03 -5.192042E+01
       318   7  3.746989E+06  4.610938E+03  1.117736E+04 -4.862652E+03  5.668876E+01  3.737881E+02
       318   8  3.741003E+06  2.455549E+03  1.073177E+04  5.141496E+02 -3.841588E+03  1.446754E+02
       318   9  3.736349E+06  3.626612E+03  1.364369E+04 -4.478059E+03 -7.739789E+03 -5.191601E+01
       318  10  3.712314E+06 -4.003498E+03  2.637816E+03 -4.526603E+03 -2.708813E-10 -6.014708E-10
       318  11  3.716960E+06 -3.523341E+03  4.781660E+03  4.659609E+02  3.371196E-10  3.351990E-10
       318  12  3.722939E+06  2.854320E+02  1.029156E+04 -4.910505E+03  3.507947E-11 -7.339263E-10
       318  13  3.729651E+06  3.037312E+02  6.907598E+03 -4.694625E+03 -1.143324E-09  7.538337E-10
       318  14  3.728981E+06 -5.338927E+02  7.756708E+03  4.900552E+02 -8.067785E-10 -5.946764E-10
       318  15  3.729644E+06  1.956016E+03  1.196757E+04 -4.694284E+03  3.699831E-09 -6.722694E-10
       318  16  3.746989E+06  4.610938E+03  1.117736E+04 -4.862652E+03 -8.313864E-10  6.962629E-10
       318  17  3.741003E+06  2.455545E+03  1.073175E+04  5.141501E+02 -4.122191E-10 -8.241600E-10
       318  18  3.736349E+06  3.626596E+03  1.364358E+04 -4.478059E+03  3.368802E-10  4.234020E-10
       318  19  3.712314E+06 -4.003498E+03  2.637816E+03 -4.526603E+03 -1.515700E+02 -3.737739E+02
       318  20  3.716960E+06 -3.523337E+03  4.781686E+03  4.659604E+02  3.759109E+03 -1.446613E+02
       318  21  3.722939E+06  2.854477E+02  1.029167E+04 -4.910505E+03  7.669777E+03  5.192487E+01
       318  22  3.729651E+06  3.037313E+02  6.907599E+03 -4.694625E+03 -1.041301E+02 -3.737810E+02
       318  23  3.728981E+06 -5.338888E+02  7.756735E+03  4.900548E+02  3.800348E+03 -1.446684E+02
       318  24  3.729644E+06  1.956031E+03  1.196768E+04 -4.694283E+03  7.704783E+03  5.192042E+01
       318  25  3.746989E+06  4.610938E+03  1.117736E+04 -4.862652E+03 -5.668876E+01 -3.737881E+02
       318  26  3.741003E+06  2.455549E+03  1.073177E+04  5.141496E+02  3.841588E+03 -1.446754E+02
       318  27  3.736349E+06  3.626612E+03  1.364369E+04 -4.478059E+03  7.739789E+03  5.191601E+01
       319   1  3.755022E+06  5.633321E+03  2.075164E+04 -3.948418E+03 -1.008863E+04 -1.606264E+02
       319   2  3.757539E+06  4.370558E+03  3.103640E+04  3.955816E+02 -2.216351E+04 -3.658448E+02
       319   3  3.766440E+06  2.241203E+04  5.397421E+04 -6.436000E+03 -3.423879E+04 -5.845597E+02
       319   4  3.730772E+06 -3.997413E+02  1.473452E+04 -4.874332E+03 -1.012703E+04 -1.606043E+02
       319   5  3.727558E+06 -3.084771E+03  2.361815E+04  7.141854E+02 -2.220401E+04 -3.658513E+02
       319   6  3.730728E+06  1.353532E+04  4.515675E+04 -4.872888E+03 -3.428127E+04 -5.846431E+02
       319   7  3.706522E+06 -6.432844E+03  8.717349E+03 -5.800210E+03 -1.016544E+04 -1.605821E+02
       319   8  3.697577E+06 -1.054017E+04  1.619983E+04  1.032774E+03 -2.224451E+04 -3.658578E+02
       319   9  3.695018E+06  4.658524E+03  3.633920E+04 -3.309864E+03 -3.432376E+04 -5.847267E+02
       319  10  3.755022E+06  5.633294E+03  2.075145E+04 -3.948419E+03  8.947389E-11  2.880806E-10
       319  11  3.757539E+06  4.370427E+03  3.103548E+04  3.955751E+02  6.804234E-10 -2.325863E-10
       319  12  3.766439E+06  2.241172E+04  5.397202E+04 -6.436016E+03  4.935813E-10 -2.414568E-10
       319  13  3.730772E+06 -3.997686E+02  1.473433E+04 -4.874333E+03  2.726842E-09 -4.545013E-10
       319  14  3.727557E+06 -3.084903E+03  2.361723E+04  7.141789E+02  4.173937E-09 -4.244467E-10
       319  15  3.730727E+06  1.353501E+04  4.515456E+04 -4.872904E+03 -1.050023E-09 -4.674181E-11
       319  16  3.706522E+06 -6.432872E+03  8.717156E+03 -5.800212E+03 -2.565657E-10 -1.716760E-09
       319  17  3.697577E+06 -1.054030E+04  1.619891E+04  1.032767E+03  2.789991E-09 -1.407347E-09
       319  18  3.695016E+06  4.658209E+03  3.633700E+04 -3.309881E+03  6.320585E-10 -2.139349E-10
       319  19  3.755022E+06  5.633321E+03  2.075164E+04 -3.948418E+03  1.008863E+04  1.606264E+02
       319  20  3.757539E+06  4.370558E+03  3.103640E+04  3.955816E+02  2.216351E+04  3.658448E+02
       319  21  3.766440E+06  2.241203E+04  5.397421E+04 -6.436000E+03  3.423879E+04  5.845597E+02
       319  22  3.730772E+06 -3.997413E+02  1.473452E+04 -4.874332E+03  1.012703E+04  1.606043E+02
       319  23  3.727558E+06 -3.084771E+03  2.361815E+04  7.141854E+02  2.220401E+04  3.658513E+02
       319  24  3.730728E+06  1.353532E+04  4.515675E+04 -4.872888E+03  3.428127E+04  5.846431E+02
       319  25  3.706522E+06 -6.432844E+03  8.717349E+03 -5.800210E+03  1.016544E+04  1.605821E+02
       319  26  3.697577E+06 -1.054017E+04  1.619983E+04  1.032774E+03  2.224451E+04  3.658578E+02
       319  27  3.695018E+06  4.658524E+03  3.633920E+04 -3.309864E+03  3.432376E+04  5.847267E+02
       320   1  3.813137E+06  1.548167E+04  7.500799E+04  8.253149E+01 -4.340784E+04 -7.717837E+02
       320   2  3.801936E+06 -1.052800E+02  1.115114E+05 -6.337923E+02 -9.106607E+04 -1.067848E+03
       320   3  3.829628E+06  1.151690E+05  2.116380E+05 -1.765715E+04 -1.387260E+05 -1.182575E+03
       320   4  3.737992E+06 -3.206263E+03  5.639731E+04 -6.009237E+03 -4.347902E+04 -7.713621E+02
       320   5  3.718437E+06 -2.086665E+04  9.085657E+04  2.134813E+03 -9.109688E+04 -1.068264E+03
       320   6  3.737772E+06  9.233656E+04  1.889175E+05 -6.028165E+03 -1.387158E+05 -1.185170E+03
       320   7  3.662852E+06 -2.189447E+04  3.778622E+04 -1.210027E+04 -4.355020E+04 -7.709391E+02
       320   8  3.634944E+06 -4.162852E+04  7.020125E+04  4.903047E+03 -9.112769E+04 -1.068680E+03
       320   9  3.645924E+06  6.950401E+04  1.661965E+05  5.599111E+03 -1.387056E+05 -1.187765E+03
       320  10  3.813135E+06  1.548116E+04  7.500447E+04  8.250455E+01  2.006689E-09  3.410999E-10
       320  11  3.801927E+06 -1.074909E+02  1.114959E+05 -6.338705E+02  8.757476E-10 -1.008979E-09
       320  12  3.829607E+06  1.151638E+05  2.116021E+05 -1.765729E+04 -1.632621E-09 -1.317218E-09
       320  13  3.737990E+06 -3.206768E+03  5.639377E+04 -6.009264E+03 -3.705380E-10 -1.053187E-10
       320  14  3.718428E+06 -2.086887E+04  9.084107E+04  2.134735E+03  6.689188E-10 -3.707194E-10
       320  15  3.737751E+06  9.233143E+04  1.888816E+05 -6.028298E+03 -1.090337E-09 -8.758008E-12
       320  16  3.662850E+06 -2.189498E+04  3.778268E+04 -1.210030E+04 -8.604710E-10 -2.594942E-10
       320  17  3.634935E+06 -4.163073E+04  7.018573E+04  4.902969E+03 -5.459639E-10 -1.190402E-09
       320  18  3.645904E+06  6.949888E+04  1.661605E+05  5.598979E+03  7.388496E-10 -2.145376E-11
       320  19  3.813137E+06  1.548167E+04  7.500799E+04  8.253149E+01  4.340784E+04  7.717837E+02
       320  20  3.801936E+06 -1.052800E+02  1.115114E+05 -6.337923E+02  9.106607E+04  1.067848E+03
       320  21  3.829628E+06  1.151690E+05  2.116380E+05 -1.765715E+04  1.387260E+05  1.182575E+03
       320  22  3.737992E+06 -3.206263E+03  5.639731E+04 -6.009237E+03  4.347902E+04  7.713621E+02
       320  23  3.718437E+06 -2.086665E+04  9.085657E+04  2.134813E+03  9.109688E+04  1.068264E+03
       320  24  3.737772E+06  9.233656E+04  1.889175E+05 -6.028165E+03  1.387158E+05  1.185170E+03
       320  25  3.662852E+06 -2.189447E+04  3.778622E+04 -1.210027E+04  4.355020E+04  7.709391E+02
       320  26  3.634944E+06 -4.162852E+04  7.020125E+04  4.903047E+03  9.112769E+04  1.068680E+03
       320  27  3.645924E+06  6.950401E+04  1.661965E+05  5.599111E+03  1.387056E+05  1.187765E+03
       321   1  3.938873E+06  1.618153E+04  2.668130E+05  3.187007E+04 -1.761294E+05 -1.820302E+03
       321   2  3.829548E+06 -9.908692E+04  3.913198E+05 -1.588958E+04 -3.675143E+05 -2.614909E+03
       321   3  3.966427E+06  6.715925E+05  8.615147E+05 -9.197404E+04 -5.588901E+05 -1.260827E+03
       321   4  3.784142E+06 -2.232756E+04  2.285114E+05 -8.523650E+03 -1.764469E+05 -1.809049E+03
       321   5  3.660487E+06 -1.410890E+05  3.495428E+05  5.366809E+03 -3.673789E+05 -2.627424E+03
       321   6  3.783019E+06  6.261340E+05  8.160167E+05 -9.057225E+03 -5.582972E+05 -1.334644E+03
       321   7  3.629436E+06 -6.083233E+04  1.902088E+05 -4.890735E+04 -1.767643E+05 -1.797752E+03
       321   8  3.491453E+06 -1.830914E+05  3.077639E+05  2.661743E+04 -3.672435E+05 -2.639932E+03
       321   9  3.599657E+06  5.806987E+05  7.705197E+05  7.383523E+04 -5.577044E+05 -1.408323E+03
       321  10  3.938840E+06  1.617326E+04  2.667550E+05  3.186981E+04 -8.511679E-10  2.084540E-10
       321  11  3.829404E+06 -9.912290E+04  3.910676E+05 -1.589035E+04 -4.136267E-10  7.034435E-11
       321  12  3.966093E+06  6.715093E+05  8.609314E+05 -9.197462E+04  1.788434E-09  4.010627E-10
       321  13  3.784109E+06 -2.233586E+04  2.284532E+05 -8.523907E+03 -3.692770E-09 -7.633443E-11
       321  14  3.660343E+06 -1.411249E+05  3.492907E+05  5.366033E+03 -1.045185E-09 -9.628450E-11
       321  15  3.782686E+06  6.260510E+05  8.154344E+05 -9.057825E+03 -4.348774E-10 -3.153251E-10
       321  16  3.629402E+06 -6.084067E+04  1.901505E+05 -4.890761E+04  1.136989E-11  6.064595E-11
       321  17  3.491308E+06 -1.831274E+05  3.075119E+05  2.661665E+04 -6.213659E-10 -6.492181E-10
       321  18  3.599324E+06  5.806158E+05  7.699386E+05  7.383461E+04  1.353316E-09  7.354138E-10
       321  19  3.938873E+06  1.618153E+04  2.668130E+05  3.187007E+04  1.761294E+05  1.820302E+03
       321  20  3.829548E+06 -9.908692E+04  3.913198E+05 -1.588958E+04  3.675143E+05  2.614909E+03
       321  21  3.966427E+06  6.715925E+05  8.615147E+05 -9.197404E+04  5.588901E+05  1.260827E+03
       321  22  3.784142E+06 -2.232756E+04  2.285114E+05 -8.523650E+03  1.764469E+05  1.809049E+03
       321  23  3.660487E+06 -1.410890E+05  3.495428E+05  5.366809E+03  3.673789E+05  2.627424E+03
       321  24  3.783019E+06  6.261340E+05  8.160167E+05 -9.057225E+03  5.582972E+05  1.334644E+03
       321  25  3.629436E+06 -6.083233E+04  1.902088E+05 -4.890735E+04  1.767643E+05  1.797752E+03
       321  26  3.491453E+06 -1.830914E+05  3.077639E+05  2.661743E+04  3.672435E+05  2.639932E+03
       321  27  3.599657E+06  5.806987E+05  7.705197E+05  7.383523E+04  5.577044E+05  1.408323E+03
       322   1  2.628614E+05  4.415937E+05  3.680490E+05 -4.178766E+04 -2.477502E+03  2.966302E+05
       322   2 -1.551755E+05  3.784465E+05  1.196201E+05 -1.413996E+04 -4.880409E+03  1.902426E+05
       322   3 -8.356837E+04  4.523742E+05  6.304620E+04  2.467905E+04 -3.985215E+03  8.385913E+04
       322   4  3.411360E+05  7.565888E+05  4.464746E+05  2.848309E+03 -2.458920E+03  2.975837E+05
       322   5 -7.799894E+04  6.880709E+05  1.964174E+05 -3.307124E+03 -4.877516E+03  1.905126E+05
       322   6 -7.505040E+03  7.566783E+05  1.386205E+05  1.710688E+03 -3.987165E+03  8.344670E+04
       322   7  4.194107E+05  1.071678E+06  5.248938E+05  4.750698E+04 -2.440210E+03  2.985378E+05
       322   8 -8.290970E+02  9.977826E+05  2.732076E+05  7.531178E+03 -4.874615E+03  1.907828E+05
       322   9  6.855329E+04  1.061067E+06  2.141882E+05 -2.126888E+04 -3.989083E+03  8.303405E+04
       322  10  2.628378E+05  4.414993E+05  3.678837E+05 -4.178707E+04 -3.203610E-10  1.101222E-09
       322  11 -1.551852E+05  3.784076E+05  1.195521E+05 -1.413921E+04 -1.205670E-10 -6.557705E-10
       322  12 -8.357027E+04  4.523667E+05  6.303296E+04  2.467932E+04  1.620885E-09  1.262151E-09
       322  13  3.411122E+05  7.564938E+05  4.463083E+05  2.848898E+03  1.182655E-09 -3.884228E-10
       322  14 -7.800870E+04  6.880320E+05  1.963492E+05 -3.306376E+03 -3.438626E-09  1.236460E-09
       322  15 -7.506923E+03  7.566708E+05  1.386074E+05  1.710956E+03  8.648333E-10 -9.518721E-10
       322  16  4.193868E+05  1.071583E+06  5.247266E+05  4.750757E+04 -1.664944E-10 -2.104321E-10
       322  17 -8.388718E+02  9.977436E+05  2.731393E+05  7.531926E+03 -2.101067E-09 -2.896123E-09
       322  18  6.855142E+04  1.061060E+06  2.141752E+05 -2.126862E+04 -2.622126E-11 -1.000133E-09
       322  19  2.628614E+05  4.415937E+05  3.680490E+05 -4.178766E+04  2.477502E+03 -2.966302E+05
       322  20 -1.551755E+05  3.784465E+05  1.196201E+05 -1.413996E+04  4.880409E+03 -1.902426E+05
       322  21 -8.356837E+04  4.523742E+05  6.304620E+04  2.467905E+04  3.985215E+03 -8.385913E+04
       322  22  3.411360E+05  7.565888E+05  4.464746E+05  2.848309E+03  2.458920E+03 -2.975837E+05
       322  23 -7.799894E+04  6.880709E+05  1.964174E+05 -3.307124E+03  4.877516E+03 -1.905126E+05
       322  24 -7.505040E+03  7.566783E+05  1.386205E+05  1.710688E+03  3.987165E+03 -8.344670E+04
       322  25  4.194107E+05  1.071678E+06  5.248938E+05  4.750698E+04  2.440210E+03 -2.985378E+05
       322  26 -8.290970E+02  9.977826E+05  2.732076E+05  7.531178E+03  4.874615E+03 -1.907828E+05
       322  27  6.855329E+04  1.061067E+06  2.141882E+05 -2.126888E+04  3.989083E+03 -8.303405E+04
       323   1 -2.139594E+04  4.509001E+05  5.076951E+04 -7.268944E+03 -3.374100E+03  5.986293E+04
       323   2 -8.864098E+04  4.357210E+05  9.848081E+03 -1.924003E+03 -3.633419E+03  1.833785E+04
       323   3 -3.931370E+04  4.557126E+05  2.522360E+04  8.209619E+03 -3.111088E+03 -2.318599E+04
       323   4  4.920845E+04  7.339997E+05  1.210809E+05  7.080919E+02 -3.373528E+03  6.002335E+04
       323   5 -1.860343E+04  7.164107E+05  7.952370E+04 -1.718158E+03 -3.633290E+03  1.833131E+04
       323   6  3.015753E+04  7.340062E+05  9.436166E+04  6.440959E+02 -3.110521E+03 -2.335934E+04
       323   7  1.198071E+05  1.017172E+06  1.913863E+05  8.688803E+03 -3.372951E+03  6.018384E+04
       323   8  5.142823E+04  9.971718E+05  1.491934E+05 -1.512190E+03 -3.633160E+03  1.832476E+04
       323   9  9.962317E+04  1.012370E+06  1.634940E+05 -6.924797E+03 -3.109950E+03 -2.353276E+04
       323  10 -2.139691E+04  4.508963E+05  5.076276E+04 -7.268782E+03  6.100316E-10  1.759416E-10
       323  11 -8.864109E+04  4.357206E+05  9.847425E+03 -1.923949E+03 -4.395155E-10 -6.252306E-10
       323  12 -3.931386E+04  4.557120E+05  2.522258E+04  8.209561E+03 -9.762618E-10  7.475400E-10
       323  13  4.920747E+04  7.339959E+05  1.210741E+05  7.082550E+02  5.335826E-10  2.736692E-10
       323  14 -1.860353E+04  7.164103E+05  7.952305E+04 -1.718104E+03  4.267148E-10  1.225980E-09
       323  15  3.015737E+04  7.340056E+05  9.436062E+04  6.440374E+02  6.970292E-10 -4.267186E-10
       323  16  1.198061E+05  1.017168E+06  1.913795E+05  8.688966E+03  1.222095E-09  3.299591E-10
       323  17  5.142812E+04  9.971715E+05  1.491928E+05 -1.512137E+03 -1.217553E-09 -1.100725E-09
       323  18  9.962301E+04  1.012370E+06  1.634929E+05 -6.924856E+03  4.407353E-10 -4.806599E-10
       323  19 -2.139594E+04  4.509001E+05  5.076951E+04 -7.268944E+03  3.374100E+03 -5.986293E+04
       323  20 -8.864098E+04  4.357210E+05  9.848081E+03 -1.924003E+03  3.633419E+03 -1.833785E+04
       323  21 -3.931370E+04  4.557126E+05  2.522360E+04  8.209619E+03  3.111088E+03  2.318599E+04
       323  22  4.920845E+04  7.339997E+05  1.210809E+05  7.080919E+02  3.373528E+03 -6.002335E+04
       323  23 -1.860343E+04  7.164107E+05  7.952370E+04 -1.718158E+03  3.633290E+03 -1.833131E+04
       323  24  3.015753E+04  7.340062E+05  9.436166E+04  6.440959E+02  3.110521E+03  2.335934E+04
       323  25  1.198071E+05  1.017172E+06  1.913863E+05  8.688803E+03  3.372951E+03 -6.018384E+04
       323  26  5.142823E+04  9.971718E+05  1.491934E+05 -1.512190E+03  3.633160E+03 -1.832476E+04
       323  27  9.962317E+04  1.012370E+06  1.634940E+05 -6.924797E+03  3.109950E+03  2.353276E+04
       324   1 -6.812769E+04  4.742005E+05  3.412519E+04 -1.502845E+04 -3.434191E+03 -4.136205E+04
       324   2 -1.183138E+05  4.295428E+05  6.300213E+04  6.967809E+03 -3.734154E+03 -1.117590E+05
       324   3  1.481871E+05  4.737836E+05  2.169951E+05  2.866025E+04 -1.261302E+03 -1.821528E+05
       324   4 -3.507224E+02  7.459738E+05  1.015796E+05 -4.976692E+02 -3.435378E+03 -4.103772E+04
       324   5 -5.045984E+04  7.014621E+05  1.304649E+05 -3.337140E+02 -3.732634E+03 -1.119955E+05
       324   6  2.161403E+05  7.459085E+05  2.848168E+05 -4.746314E+02 -1.252665E+03 -1.829501E+05
       324   7  6.742151E+04  1.017814E+06  1.690286E+05  1.403949E+04 -3.436550E+03 -4.071325E+04
       324   8  1.738877E+04  9.734486E+05  1.979222E+05 -7.638427E+03 -3.731110E+03 -1.122320E+05
       324   9  2.840911E+05  1.018102E+06  3.526333E+05 -2.962228E+04 -1.243957E+03 -1.837477E+05
       324  10 -6.812816E+04  4.741987E+05  3.412195E+04 -1.502857E+04 -4.255088E-10 -2.368694E-10
       324  11 -1.183171E+05  4.295294E+05  6.297865E+04  6.967473E+03 -3.156383E-10 -1.488199E-10
       324  12  1.481782E+05  4.737479E+05  2.169328E+05  2.866006E+04 -2.132113E-10  8.764829E-10
       324  13 -3.511865E+02  7.459719E+05  1.015764E+05 -4.977827E+02 -3.356898E-10  3.891183E-10
       324  14 -5.046321E+04  7.014486E+05  1.304413E+05 -3.340505E+02 -8.943118E-10 -2.546637E-10
       324  15  2.161313E+05  7.458726E+05  2.847540E+05 -4.748159E+02 -4.498172E-10 -5.208818E-11
       324  16  6.742106E+04  1.017813E+06  1.690255E+05  1.403938E+04  1.319580E-09  1.708162E-10
       324  17  1.738538E+04  9.734351E+05  1.978985E+05 -7.638764E+03 -8.430057E-10 -8.487620E-10
       324  18  2.840820E+05  1.018066E+06  3.525700E+05 -2.962246E+04 -3.700344E-10 -4.477110E-10
       324  19 -6.812769E+04  4.742005E+05  3.412519E+04 -1.502845E+04  3.434191E+03  4.136205E+04
       324  20 -1.183138E+05  4.295428E+05  6.300213E+04  6.967809E+03  3.734154E+03  1.117590E+05
       324  21  1.481871E+05  4.737836E+05  2.169951E+05  2.866025E+04  1.261302E+03  1.821528E+05
       324  22 -3.507224E+02  7.459738E+05  1.015796E+05 -4.976692E+02  3.435378E+03  4.103772E+04
       324  23 -5.045984E+04  7.014621E+05  1.304649E+05 -3.337140E+02  3.732634E+03  1.119955E+05
       324  24  2.161403E+05  7.459085E+05  2.848168E+05 -4.746314E+02  1.252665E+03  1.829501E+05
       324  25  6.742151E+04  1.017814E+06  1.690286E+05  1.403949E+04  3.436550E+03  4.071325E+04
       324  26  1.738877E+04  9.734486E+05  1.979222E+05 -7.638427E+03  3.731110E+03  1.122320E+05
       324  27  2.840911E+05  1.018102E+06  3.526333E+05 -2.962228E+04  1.243957E+03  1.837477E+05
       325   1 -3.934497E+06 -1.371629E+06 -7.111975E+05 -1.455634E+06 -3.196633E+05 -8.606074E+04
       325   2 -3.834417E+06 -1.142196E+06 -4.742007E+05 -1.416899E+06 -2.083039E+05  3.962051E+04
       325   3 -3.779004E+06 -1.034418E+06 -3.701292E+05 -1.371092E+06 -7.814897E+04  1.158734E+05
       325   4 -2.011472E+06 -5.405699E+05 -1.988558E+05 -8.183672E+05 -1.406593E+05 -1.836498E+04
       325   5 -1.987251E+06 -4.130528E+05 -9.350793E+04 -8.504675E+05 -1.197568E+05  7.305750E+04
       325   6 -1.989535E+06 -3.889998E+05 -4.888953E+04 -8.755387E+05 -8.012034E+04  1.150856E+05
       325   7 -8.476074E+04  2.910811E+05  3.132858E+05 -1.791793E+05  3.894980E+04  4.963695E+04
       325   8 -1.365247E+05  3.165417E+05  2.870405E+05 -2.824106E+05 -3.092543E+04  1.066201E+05
       325   9 -1.966457E+05  2.567262E+05  2.722493E+05 -3.786418E+05 -8.209779E+04  1.142955E+05
       325  10 -3.934609E+06 -1.371665E+06 -7.114049E+05 -1.455656E+06 -1.105759E-10 -1.151780E-09
       325  11 -3.834464E+06 -1.142209E+06 -4.742856E+05 -1.416892E+06  4.286821E-09 -1.267911E-10
       325  12 -3.779014E+06 -1.034434E+06 -3.701659E+05 -1.371085E+06  5.671119E-09  2.516844E-09
       325  13 -2.011493E+06 -5.405756E+05 -1.988938E+05 -8.183693E+05  1.533409E-09  1.874266E-09
       325  14 -1.987268E+06 -4.130623E+05 -9.354493E+04 -8.504604E+05 -2.142028E-09 -2.928783E-09
       325  15 -1.989545E+06 -3.890158E+05 -4.892645E+04 -8.755312E+05  6.804299E-11 -2.312731E-09
       325  16 -8.476303E+04  2.910781E+05  3.132784E+05 -1.791808E+05 -5.411252E-10  1.655895E-09
       325  17 -1.365288E+05  3.165292E+05  2.870174E+05 -2.824079E+05 -3.865512E-09 -1.066207E-09
       325  18 -1.966564E+05  2.567104E+05  2.722121E+05 -3.786343E+05 -5.858187E-09 -3.793811E-09
       325  19 -3.934497E+06 -1.371629E+06 -7.111975E+05 -1.455634E+06  3.196633E+05  8.606074E+04
       325  20 -3.834417E+06 -1.142196E+06 -4.742007E+05 -1.416899E+06  2.083039E+05 -3.962051E+04
       325  21 -3.779004E+06 -1.034418E+06 -3.701292E+05 -1.371092E+06  7.814897E+04 -1.158734E+05
       325  22 -2.011472E+06 -5.405699E+05 -1.988558E+05 -8.183672E+05  1.406593E+05  1.836498E+04
       325  23 -1.987251E+06 -4.130528E+05 -9.350793E+04 -8.504675E+05  1.197568E+05 -7.305750E+04
       325  24 -1.989535E+06 -3.889998E+05 -4.888953E+04 -8.755387E+05  8.012034E+04 -1.150856E+05
       325  25 -8.476074E+04  2.910811E+05  3.132858E+05 -1.791793E+05 -3.894980E+04 -4.963695E+04
       325  26 -1.365247E+05  3.165417E+05  2.870405E+05 -2.824106E+05  3.092543E+04 -1.066201E+05
       325  27 -1.966457E+05  2.567262E+05  2.722493E+05 -3.786418E+05  8.209779E+04 -1.142955E+05
       326   1 -3.694768E+06 -1.014962E+06 -3.406389E+05 -1.358073E+06 -7.650092E+04  1.144563E+05
       326   2 -3.594776E+06 -9.569380E+05 -2.946497E+05 -1.319100E+06 -5.773654E+04  1.204302E+05
       326   3 -3.483423E+06 -9.222571E+05 -2.642235E+05 -1.297350E+06 -3.717680E+04  1.216392E+05
       326   4 -1.983301E+06 -3.890199E+05 -3.662544E+04 -8.740148E+05 -7.395708E+04  1.153750E+05
       326   5 -1.989165E+06 -3.739221E+05 -1.923089E+04 -8.669920E+05 -6.389481E+04  1.180677E+05
       326   6 -1.981935E+06 -3.804197E+05 -1.044850E+04 -8.771939E+05 -5.204333E+04  1.160009E+05
       326   7 -2.687210E+05  2.372216E+05  2.672932E+05 -3.886975E+05 -7.140571E+04  1.162968E+05
       326   8 -3.808070E+05  2.093538E+05  2.561136E+05 -4.137836E+05 -7.007008E+04  1.156988E+05
       326   9 -4.780500E+05  1.616379E+05  2.432638E+05 -4.560849E+05 -6.694814E+04  1.103483E+05
       326  10 -3.694778E+06 -1.014978E+06 -3.406745E+05 -1.358066E+06 -6.782774E-11  3.666434E-09
       326  11 -3.594783E+06 -9.569545E+05 -2.946832E+05 -1.319094E+06  2.861432E-08  1.510580E-08
       326  12 -3.483429E+06 -9.222733E+05 -2.642538E+05 -1.297346E+06  6.697510E-08  2.395759E-08
       326  13 -1.983311E+06 -3.890356E+05 -3.666070E+04 -8.740080E+05  1.120700E-09 -1.266482E-09
       326  14 -1.989173E+06 -3.739382E+05 -1.926473E+04 -8.669859E+05  1.868209E-09  8.751038E-09
       326  15 -1.981942E+06 -3.804349E+05 -1.047884E+04 -8.771890E+05  1.638391E-08  2.083911E-08
       326  16 -2.687301E+05  2.372057E+05  2.672583E+05 -3.886908E+05 -2.789181E-09 -5.047413E-09
       326  17 -3.808158E+05  2.093382E+05  2.560792E+05 -4.137771E+05 -2.488797E-08 -1.568245E-08
       326  18 -4.780581E+05  1.616237E+05  2.432326E+05 -4.560789E+05 -3.272338E-08 -1.636273E-08
       326  19 -3.694768E+06 -1.014962E+06 -3.406389E+05 -1.358073E+06  7.650092E+04 -1.144563E+05
       326  20 -3.594776E+06 -9.569380E+05 -2.946497E+05 -1.319100E+06  5.773654E+04 -1.204302E+05
       326  21 -3.483423E+06 -9.222571E+05 -2.642235E+05 -1.297350E+06  3.717680E+04 -1.216392E+05
       326  22 -1.983301E+06 -3.890199E+05 -3.662544E+04 -8.740148E+05  7.395708E+04 -1.153750E+05
       326  23 -1.989165E+06 -3.739221E+05 -1.923089E+04 -8.669920E+05  6.389481E+04 -1.180677E+05
       326  24 -1.981935E+06 -3.804197E+05 -1.044850E+04 -8.771939E+05  5.204333E+04 -1.160009E+05
       326  25 -2.687210E+05  2.372216E+05  2.672932E+05 -3.886975E+05  7.140571E+04 -1.162968E+05
       326  26 -3.808070E+05  2.093538E+05  2.561136E+05 -4.137836E+05  7.007008E+04 -1.156988E+05
       326  27 -4.780500E+05  1.616379E+05  2.432638E+05 -4.560849E+05  6.694814E+04 -1.103483E+05
       327   1 -3.413087E+06 -8.975034E+05 -2.489999E+05 -1.278362E+06 -3.429003E+04  1.171990E+05
       327   2 -3.312842E+06 -8.493602E+05 -2.265126E+05 -1.238509E+06 -2.816363E+04  1.102022E+05
       327   3 -3.196409E+06 -8.182329E+05 -2.063626E+05 -1.217480E+06 -2.186127E+04  1.027145E+05
       327   4 -1.981339E+06 -3.804804E+05 -7.847614E+03 -8.771133E+05 -4.878200E+04  1.117075E+05
       327   5 -1.989421E+06 -3.717951E+05 -4.321605E+03 -8.677769E+05 -4.354930E+04  1.043827E+05
       327   6 -1.981154E+06 -3.799472E+05 -2.422010E+03 -8.772658E+05 -3.814145E+04  9.656746E+04
       327   7 -5.473779E+05  1.367564E+05  2.332573E+05 -4.749878E+05 -6.330985E+04  1.062025E+05
       327   8 -6.641147E+05  1.059503E+05  2.178282E+05 -4.962972E+05 -5.897009E+04  9.855003E+04
       327   9 -7.643151E+05  5.848827E+04  2.014826E+05 -5.364240E+05 -5.445566E+04  9.040763E+04
       327  10 -3.413092E+06 -8.975185E+05 -2.490279E+05 -1.278359E+06 -2.907126E-08 -1.613811E-08
       327  11 -3.312846E+06 -8.493734E+05 -2.265369E+05 -1.238507E+06 -2.536769E-08 -1.392508E-08
       327  12 -3.196412E+06 -8.182444E+05 -2.063833E+05 -1.217478E+06 -5.402647E-09 -4.571094E-09
       327  13 -1.981345E+06 -3.804944E+05 -7.875505E+03 -8.771090E+05  1.649003E-08  2.097463E-08
       327  14 -1.989426E+06 -3.718073E+05 -4.345617E+03 -8.677732E+05  2.586788E-09  8.878880E-09
       327  15 -1.981158E+06 -3.799575E+05 -2.442245E+03 -8.772628E+05 -2.177600E-09  2.236068E-09
       327  16 -5.473852E+05  1.367433E+05  2.332286E+05 -4.749823E+05  6.265166E-08  2.270895E-08
       327  17 -6.641210E+05  1.059390E+05  2.178034E+05 -4.962925E+05  2.979832E-08  1.208159E-08
       327  18 -7.643205E+05  5.847871E+04  2.014617E+05 -5.364200E+05  3.138083E-09  1.869352E-09
       327  19 -3.413087E+06 -8.975034E+05 -2.489999E+05 -1.278362E+06  3.429003E+04 -1.171990E+05
       327  20 -3.312842E+06 -8.493602E+05 -2.265126E+05 -1.238509E+06  2.816363E+04 -1.102022E+05
       327  21 -3.196409E+06 -8.182329E+05 -2.063626E+05 -1.217480E+06  2.186127E+04 -1.027145E+05
       327  22 -1.981339E+06 -3.804804E+05 -7.847614E+03 -8.771133E+05  4.878200E+04 -1.117075E+05
       327  23 -1.989421E+06 -3.717951E+05 -4.321605E+03 -8.677769E+05  4.354930E+04 -1.043827E+05
       327  24 -1.981154E+06 -3.799472E+05 -2.422010E+03 -8.772658E+05  3.814145E+04 -9.656746E+04
       327  25 -5.473779E+05  1.367564E+05  2.332573E+05 -4.749878E+05  6.330985E+04 -1.062025E+05
       327  26 -6.641147E+05  1.059503E+05  2.178282E+05 -4.962972E+05  5.897009E+04 -9.855003E+04
       327  27 -7.643151E+05  5.848827E+04  2.014826E+05 -5.364240E+05  5.445566E+04 -9.040763E+04
       328   1 -3.126387E+06 -7.928813E+05 -1.935058E+05 -1.197945E+06 -1.954172E+04  9.766623E+04
       328   2 -3.025171E+06 -7.448554E+05 -1.746118E+05 -1.157648E+06 -1.545832E+04  8.902031E+04
       328   3 -2.907197E+06 -7.135668E+05 -1.562246E+05 -1.136439E+06 -1.135466E+04  8.029979E+04
       328   4 -1.981028E+06 -3.799506E+05 -1.868333E+03 -8.772970E+05 -3.583284E+04  9.151996E+04
       328   5 -1.989363E+06 -3.715050E+05 -1.184352E+03 -8.677687E+05 -3.188450E+04  8.283057E+04
       328   6 -1.980927E+06 -3.797704E+05 -9.017549E+02 -8.773316E+05 -2.791604E+04  7.406656E+04
       328   7 -8.342750E+05  3.310841E+04  1.897342E+05 -5.560943E+05 -5.215588E+04  8.536171E+04
       328   8 -9.524056E+05  1.954044E+03  1.722174E+05 -5.774333E+05 -4.833993E+04  7.662987E+04
       328   9 -1.053729E+06 -4.588342E+04  1.544034E+05 -6.178576E+05 -4.450394E+04  6.782338E+04
       328  10 -3.126390E+06 -7.928916E+05 -1.935244E+05 -1.197944E+06 -2.512783E-09 -1.467460E-09
       328  11 -3.025173E+06 -7.448640E+05 -1.746271E+05 -1.157647E+06 -4.943847E-10 -1.926945E-09
       328  12 -2.907198E+06 -7.135738E+05 -1.562370E+05 -1.136438E+06 -5.351382E-10 -1.622300E-09
       328  13 -1.981032E+06 -3.799599E+05 -1.886466E+03 -8.772943E+05 -3.585778E-11 -3.200697E-11
       328  14 -1.989366E+06 -3.715126E+05 -1.199139E+03 -8.677666E+05  1.529057E-09 -1.278638E-09
       328  15 -1.980930E+06 -3.797765E+05 -9.135153E+02 -8.773300E+05 -4.534182E-11 -1.015847E-09
       328  16 -8.342798E+05  3.309986E+04  1.897154E+05 -5.560907E+05  3.170171E-09  8.588668E-10
       328  17 -9.524097E+05  1.947120E+03  1.722020E+05 -5.774303E+05  1.126578E-09  2.633919E-11
       328  18 -1.053732E+06 -4.588889E+04  1.543911E+05 -6.178552E+05  9.742280E-10 -5.629032E-10
       328  19 -3.126387E+06 -7.928813E+05 -1.935058E+05 -1.197945E+06  1.954172E+04 -9.766623E+04
       328  20 -3.025171E+06 -7.448554E+05 -1.746118E+05 -1.157648E+06  1.545832E+04 -8.902031E+04
       328  21 -2.907197E+06 -7.135668E+05 -1.562246E+05 -1.136439E+06  1.135466E+04 -8.029979E+04
       328  22 -1.981028E+06 -3.799506E+05 -1.868333E+03 -8.772970E+05  3.583284E+04 -9.151996E+04
       328  23 -1.989363E+06 -3.715050E+05 -1.184352E+03 -8.677687E+05  3.188450E+04 -8.283057E+04
       328  24 -1.980927E+06 -3.797704E+05 -9.017549E+02 -8.773316E+05  2.791604E+04 -7.406656E+04
       328  25 -8.342750E+05  3.310841E+04  1.897342E+05 -5.560943E+05  5.215588E+04 -8.536171E+04
       328  26 -9.524056E+05  1.954044E+03  1.722174E+05 -5.774333E+05  4.833993E+04 -7.662987E+04
       328  27 -1.053729E+06 -4.588342E+04  1.544034E+05 -6.178576E+05  4.450394E+04 -6.782338E+04
       329   1 -2.836585E+06 -6.879946E+05 -1.438442E+05 -1.116747E+06 -9.190080E+03  7.510837E+04
       329   2 -2.734444E+06 -6.396924E+05 -1.258149E+05 -1.076193E+06 -5.187949E+03  6.627791E+04
       329   3 -2.615459E+06 -6.082405E+05 -1.082120E+05 -1.054908E+06 -1.183441E+03  5.742585E+04
       329   4 -1.980878E+06 -3.797603E+05 -8.954741E+02 -8.773739E+05 -2.578809E+04  6.886511E+04
       329   5 -1.989255E+06 -3.712539E+05 -1.125954E+03 -8.677572E+05 -2.182476E+04  6.002542E+04
       329   6 -1.980795E+06 -3.795901E+05 -1.753820E+03 -8.774118E+05 -1.785917E+04  5.116411E+04
       329   7 -1.124387E+06 -7.145192E+04  1.420362E+05 -6.376902E+05 -4.241049E+04  6.261271E+04
       329   8 -1.243475E+06 -1.027608E+05  1.235492E+05 -6.590863E+05 -3.848276E+04  5.376498E+04
       329   9 -1.345706E+06 -1.509016E+05  1.046934E+05 -6.997461E+05 -3.455289E+04  4.489562E+04
       329  10 -2.836587E+06 -6.880007E+05 -1.438549E+05 -1.116746E+06 -1.506499E-10 -1.368686E-09
       329  11 -2.734446E+06 -6.396972E+05 -1.258232E+05 -1.076193E+06  9.790670E-11 -8.288850E-10
       329  12 -2.615460E+06 -6.082441E+05 -1.082182E+05 -1.054908E+06 -1.250628E-09 -4.067728E-10
       329  13 -1.980880E+06 -3.797656E+05 -9.056245E+02 -8.773725E+05  4.361642E-10 -8.084530E-10
       329  14 -1.989257E+06 -3.712579E+05 -1.133611E+03 -8.677562E+05  8.346473E-10 -4.858986E-10
       329  15 -1.980796E+06 -3.795930E+05 -1.759333E+03 -8.774110E+05 -2.832659E-10 -1.768641E-10
       329  16 -1.124390E+06 -7.145661E+04  1.420255E+05 -6.376881E+05  1.030023E-09 -5.237151E-10
       329  17 -1.243478E+06 -1.027643E+05  1.235410E+05 -6.590847E+05  1.402735E-09 -2.285357E-10
       329  18 -1.345708E+06 -1.509041E+05  1.046874E+05 -6.997449E+05  5.888972E-10  1.203485E-10
       329  19 -2.836585E+06 -6.879946E+05 -1.438442E+05 -1.116747E+06  9.190080E+03 -7.510837E+04
       329  20 -2.734444E+06 -6.396924E+05 -1.258149E+05 -1.076193E+06  5.187949E+03 -6.627791E+04
       329  21 -2.615459E+06 -6.082405E+05 -1.082120E+05 -1.054908E+06  1.183441E+03 -5.742585E+04
       329  22 -1.980878E+06 -3.797603E+05 -8.954741E+02 -8.773739E+05  2.578809E+04 -6.886511E+04
       329  23 -1.989255E+06 -3.712539E+05 -1.125954E+03 -8.677572E+05  2.182476E+04 -6.002542E+04
       329  24 -1.980795E+06 -3.795901E+05 -1.753820E+03 -8.774118E+05  1.785917E+04 -5.116411E+04
       329  25 -1.124387E+06 -7.145192E+04  1.420362E+05 -6.376902E+05  4.241049E+04 -6.261271E+04
       329  26 -1.243475E+06 -1.027608E+05  1.235492E+05 -6.590863E+05  3.848276E+04 -5.376498E+04
       329  27 -1.345706E+06 -1.509016E+05  1.046934E+05 -6.997461E+05  3.455289E+04 -4.489562E+04
       330   1 -2.544337E+06 -5.825557E+05 -9.626956E+04 -1.035173E+06  1.168357E+03  5.226712E+04
       330   2 -2.441444E+06 -5.340546E+05 -7.962853E+04 -9.943847E+05  6.492492E+03  4.390974E+04
       330   3 -2.321937E+06 -5.027754E+05 -6.448050E+04 -9.729823E+05  1.179550E+04  3.560041E+04
       330   4 -1.980824E+06 -3.795739E+05 -2.274977E+03 -8.774718E+05 -1.553983E+04  4.599575E+04
       330   5 -1.989108E+06 -3.710371E+05 -4.023105E+03 -8.677373E+05 -1.012700E+04  3.767483E+04
       330   6 -1.980812E+06 -3.797416E+05 -7.336878E+03 -8.773938E+05 -4.735653E+03  2.940182E+04
       330   7 -1.416963E+06 -1.765573E+05  9.171476E+04 -7.196337E+05 -3.226436E+04  3.971823E+04
       330   8 -1.536549E+06 -2.079976E+05  7.157916E+04 -7.410020E+05 -2.675948E+04  3.143502E+04
       330   9 -1.639562E+06 -2.566956E+05  4.980504E+04 -7.817555E+05 -2.127649E+04  2.319958E+04
       330  10 -2.544338E+06 -5.825586E+05 -9.627470E+04 -1.035173E+06  7.885393E-10  1.113643E-10
       330  11 -2.441445E+06 -5.340567E+05 -7.963223E+04 -9.943849E+05  2.047028E-10 -1.354081E-09
       330  12 -2.321937E+06 -5.027768E+05 -6.448315E+04 -9.729827E+05  1.773361E-09 -1.930436E-09
       330  13 -1.980824E+06 -3.795762E+05 -2.279402E+03 -8.774712E+05 -9.420033E-10 -3.651804E-10
       330  14 -1.989108E+06 -3.710386E+05 -4.025962E+03 -8.677370E+05 -4.431685E-10 -1.051507E-09
       330  15 -1.980813E+06 -3.797425E+05 -7.338543E+03 -8.773937E+05 -7.476250E-10 -2.087105E-09
       330  16 -1.416964E+06 -1.765593E+05  9.170984E+04 -7.196327E+05 -5.872215E-10 -3.800900E-10
       330  17 -1.536550E+06 -2.079988E+05  7.157596E+04 -7.410014E+05 -7.200414E-10 -7.817292E-10
       330  18 -1.639563E+06 -2.566963E+05  4.980318E+04 -7.817551E+05 -1.509603E-09 -1.293481E-09
       330  19 -2.544337E+06 -5.825557E+05 -9.626956E+04 -1.035173E+06 -1.168357E+03 -5.226712E+04
       330  20 -2.441444E+06 -5.340546E+05 -7.962853E+04 -9.943847E+05 -6.492492E+03 -4.390974E+04
       330  21 -2.321937E+06 -5.027754E+05 -6.448050E+04 -9.729823E+05 -1.179550E+04 -3.560041E+04
       330  22 -1.980824E+06 -3.795739E+05 -2.274977E+03 -8.774718E+05  1.553983E+04 -4.599575E+04
       330  23 -1.989108E+06 -3.710371E+05 -4.023105E+03 -8.677373E+05  1.012700E+04 -3.767483E+04
       330  24 -1.980812E+06 -3.797416E+05 -7.336878E+03 -8.773938E+05  4.735653E+03 -2.940182E+04
       330  25 -1.416963E+06 -1.765573E+05  9.171476E+04 -7.196337E+05  3.226436E+04 -3.971823E+04
       330  26 -1.536549E+06 -2.079976E+05  7.157916E+04 -7.410020E+05  2.675948E+04 -3.143502E+04
       330  27 -1.639562E+06 -2.566956E+05  4.980504E+04 -7.817555E+05  2.127649E+04 -2.319958E+04
       331   1 -2.250431E+06 -4.774308E+05 -5.435391E+04 -9.538506E+05  1.518866E+04  3.085390E+04
       331   2 -2.148192E+06 -4.283634E+05 -4.360017E+04 -9.100857E+05  2.631002E+04  2.508191E+04
       331   3 -2.031867E+06 -4.012385E+05 -4.003323E+04 -8.847723E+05  3.718686E+04  1.996208E+04
       331   4 -1.981255E+06 -3.797135E+05 -9.781826E+03 -8.776045E+05 -1.417981E+03  2.462835E+04
       331   5 -1.988722E+06 -3.725130E+05 -1.796902E+04 -8.669187E+05  1.090134E+04  1.930636E+04
       331   6 -1.982354E+06 -3.874942E+05 -3.429555E+04 -8.746904E+05  2.297487E+04  1.463583E+04
       331   7 -1.712003E+06 -2.819893E+05  3.478894E+04 -8.013276E+05 -1.803211E+04  1.839992E+04
       331   8 -1.829224E+06 -3.166600E+05  7.662633E+03 -8.237413E+05 -4.511546E+03  1.352933E+04
       331   9 -1.932838E+06 -3.737495E+05 -2.855682E+04 -8.646077E+05  8.761542E+03  9.309293E+03
       331  10 -2.250432E+06 -4.774319E+05 -5.435614E+04 -9.538510E+05 -3.084742E-08 -1.623798E-08
       331  11 -2.148193E+06 -4.283643E+05 -4.360266E+04 -9.100862E+05 -3.725567E-09 -9.989043E-09
       331  12 -2.031869E+06 -4.012393E+05 -4.003659E+04 -8.847729E+05  2.078135E-08 -1.282863E-09
       331  13 -1.981255E+06 -3.797141E+05 -9.782969E+03 -8.776044E+05 -9.295087E-10 -7.146457E-10
       331  14 -1.988722E+06 -3.725134E+05 -1.796994E+04 -8.669189E+05 -8.466660E-09  1.941937E-09
       331  15 -1.982355E+06 -3.874946E+05 -3.429695E+04 -8.746907E+05 -1.578572E-08  5.836136E-09
       331  16 -1.712003E+06 -2.819897E+05  3.478770E+04 -8.013273E+05  3.143525E-08  1.019908E-08
       331  17 -1.829224E+06 -3.166602E+05  7.662251E+03 -8.237412E+05 -1.553768E-09 -5.199136E-09
       331  18 -1.932838E+06 -3.737497E+05 -2.855712E+04 -8.646077E+05 -3.553771E-08 -2.253765E-08
       331  19 -2.250431E+06 -4.774308E+05 -5.435391E+04 -9.538506E+05 -1.518866E+04 -3.085390E+04
       331  20 -2.148192E+06 -4.283634E+05 -4.360017E+04 -9.100857E+05 -2.631002E+04 -2.508191E+04
       331  21 -2.031867E+06 -4.012385E+05 -4.003323E+04 -8.847723E+05 -3.718686E+04 -1.996208E+04
       331  22 -1.981255E+06 -3.797135E+05 -9.781826E+03 -8.776045E+05  1.417981E+03 -2.462835E+04
       331  23 -1.988722E+06 -3.725130E+05 -1.796902E+04 -8.669187E+05 -1.090134E+04 -1.930636E+04
       331  24 -1.982354E+06 -3.874942E+05 -3.429555E+04 -8.746904E+05 -2.297487E+04 -1.463583E+04
       331  25 -1.712003E+06 -2.819893E+05  3.478894E+04 -8.013276E+05  1.803211E+04 -1.839992E+04
       331  26 -1.829224E+06 -3.166600E+05  7.662633E+03 -8.237413E+05  4.511546E+03 -1.352933E+04
       331  27 -1.932838E+06 -3.737495E+05 -2.855682E+04 -8.646077E+05 -8.761542E+03 -9.309293E+03
       332   1 -1.958441E+06 -3.823535E+05 -3.827463E+04 -8.745625E+05  4.480063E+04  1.726270E+04
       332   2 -1.885255E+06 -3.242035E+05 -5.576216E+04 -7.747648E+05  7.932411E+04  2.492547E+04
       332   3 -1.830628E+06 -3.650325E+05 -1.201839E+05 -6.733358E+05  1.112650E+05  3.949468E+04
       332   4 -1.987684E+06 -3.878913E+05 -4.579312E+04 -8.766863E+05  2.994415E+04  1.169579E+04
       332   5 -1.987234E+06 -4.083939E+05 -8.753613E+04 -8.508187E+05  7.713873E+04  2.409896E+04
       332   6 -2.007893E+06 -5.304260E+05 -1.862893E+05 -8.233335E+05  1.217449E+05  4.340019E+04
       332   7 -2.016926E+06 -3.934289E+05 -5.331076E+04 -8.788099E+05  1.508837E+04  6.128792E+03
       332   8 -2.089195E+06 -4.925637E+05 -1.193093E+05 -9.268556E+05  7.495377E+04  2.327301E+04
       332   9 -2.185093E+06 -6.957344E+05 -2.523902E+05 -9.732701E+05  1.322212E+05  4.730009E+04
       332  10 -1.958443E+06 -3.823543E+05 -3.827897E+04 -8.745631E+05  2.366835E-08  2.433675E-09
       332  11 -1.885262E+06 -3.242058E+05 -5.577520E+04 -7.747664E+05  3.389679E-09  1.293948E-11
       332  12 -1.830642E+06 -3.650375E+05 -1.202102E+05 -6.733394E+05 -1.900271E-08 -6.762120E-09
       332  13 -1.987685E+06 -3.878916E+05 -4.579507E+04 -8.766866E+05 -1.525650E-08  6.820941E-09
       332  14 -1.987241E+06 -4.083961E+05 -8.754845E+04 -8.508202E+05 -4.029617E-09  6.655489E-09
       332  15 -2.007909E+06 -5.304320E+05 -1.863208E+05 -8.233378E+05  2.036003E-11  2.064496E-09
       332  16 -2.016927E+06 -3.934290E+05 -5.331126E+04 -8.788100E+05 -3.575324E-08 -2.303359E-08
       332  17 -2.089201E+06 -4.925658E+05 -1.193209E+05 -9.268571E+05 -3.440187E-09 -7.325354E-09
       332  18 -2.185113E+06 -6.957415E+05 -2.524275E+05 -9.732752E+05  2.115581E-08  6.472165E-09
       332  19 -1.958441E+06 -3.823535E+05 -3.827463E+04 -8.745625E+05 -4.480063E+04 -1.726270E+04
       332  20 -1.885255E+06 -3.242035E+05 -5.576216E+04 -7.747648E+05 -7.932411E+04 -2.492547E+04
       332  21 -1.830628E+06 -3.650325E+05 -1.201839E+05 -6.733358E+05 -1.112650E+05 -3.949468E+04
       332  22 -1.987684E+06 -3.878913E+05 -4.579312E+04 -8.766863E+05 -2.994415E+04 -1.169579E+04
       332  23 -1.987234E+06 -4.083939E+05 -8.753613E+04 -8.508187E+05 -7.713873E+04 -2.409896E+04
       332  24 -2.007893E+06 -5.304260E+05 -1.862893E+05 -8.233335E+05 -1.217449E+05 -4.340019E+04
       332  25 -2.016926E+06 -3.934289E+05 -5.331076E+04 -8.788099E+05 -1.508837E+04 -6.128792E+03
       332  26 -2.089195E+06 -4.925637E+05 -1.193093E+05 -9.268556E+05 -7.495377E+04 -2.327301E+04
       332  27 -2.185093E+06 -6.957344E+05 -2.523902E+05 -9.732701E+05 -1.322212E+05 -4.730009E+04
       333   1  6.822750E+05  1.244641E+05  1.738085E+05  4.077954E+04  1.529914E+05  2.089392E+03
       333   2  6.676947E+05 -7.921487E+04  5.071038E+04  1.278562E+04  1.013158E+05  5.814265E+03
       333   3  7.171463E+05 -5.398970E+04  1.848578E+04 -3.031180E+04  4.964074E+04  5.101748E+03
       333   4  8.996248E+05  1.785277E+05  2.275270E+05 -8.622110E+03  1.556227E+05  2.079482E+03
       333   5  8.674916E+05 -2.965605E+04  9.899719E+04 -9.910291E+02  1.020093E+05  5.812402E+03
       333   6  8.997014E+05 -8.644237E+03  6.266247E+04 -8.463433E+03  4.839792E+04  5.102636E+03
       333   7  1.117023E+06  2.325969E+05  2.812432E+05 -5.804106E+04  1.582549E+05  2.069156E+03
       333   8  1.067325E+06  1.990056E+04  1.472813E+05 -1.477213E+04  1.027029E+05  5.810508E+03
       333   9  1.082288E+06  3.670058E+04  1.068370E+05  1.339137E+04  4.715474E+04  5.103436E+03
       333  10  6.822499E+05  1.244578E+05  1.737646E+05  4.077928E+04  7.627697E-10 -8.542306E-10
       333  11  6.676836E+05 -7.921766E+04  5.069105E+04  1.278514E+04  2.049169E-09  1.050282E-10
       333  12  7.171436E+05 -5.399039E+04  1.848111E+04 -3.031200E+04 -1.408809E-09 -1.065486E-09
       333  13  8.995988E+05  1.785212E+05  2.274815E+05 -8.622371E+03  8.062146E-10  6.221952E-10
       333  14  8.674804E+05 -2.965888E+04  9.897760E+04 -9.915064E+02  3.046427E-10 -1.714747E-10
       333  15  8.996989E+05 -8.644893E+03  6.265803E+04 -8.463632E+03  7.307818E-10 -9.406141E-10
       333  16  1.116996E+06  2.325902E+05  2.811962E+05 -5.804133E+04  7.948328E-10  4.733404E-10
       333  17  1.067314E+06  1.989770E+04  1.472614E+05 -1.477261E+04  1.911401E-10  6.006548E-11
       333  18  1.082286E+06  3.669996E+04  1.068328E+05  1.339117E+04  2.574841E-09  1.258901E-09
       333  19  6.822750E+05  1.244641E+05  1.738085E+05  4.077954E+04 -1.529914E+05 -2.089392E+03
       333  20  6.676947E+05 -7.921487E+04  5.071038E+04  1.278562E+04 -1.013158E+05 -5.814265E+03
       333  21  7.171463E+05 -5.398970E+04  1.848578E+04 -3.031180E+04 -4.964074E+04 -5.101748E+03
       333  22  8.996248E+05  1.785277E+05  2.275270E+05 -8.622110E+03 -1.556227E+05 -2.079482E+03
       333  23  8.674916E+05 -2.965605E+04  9.899719E+04 -9.910291E+02 -1.020093E+05 -5.812402E+03
       333  24  8.997014E+05 -8.644237E+03  6.266247E+04 -8.463433E+03 -4.839792E+04 -5.102636E+03
       333  25  1.117023E+06  2.325969E+05  2.812432E+05 -5.804106E+04 -1.582549E+05 -2.069156E+03
       333  26  1.067325E+06  1.990056E+04  1.472813E+05 -1.477213E+04 -1.027029E+05 -5.810508E+03
       333  27  1.082288E+06  3.670058E+04  1.068370E+05  1.339137E+04 -4.715474E+04 -5.103436E+03
       334   1  7.319902E+05 -1.785370E+04  1.367870E+04 -3.145592E+03  3.851883E+04  4.066788E+03
       334   2  7.442851E+05 -3.795410E+04 -7.853892E+03  9.028582E+01  2.542380E+04  3.816151E+03
       334   3  7.650020E+05 -3.135786E+04 -1.418373E+04 -1.102512E+04  1.232855E+04  3.183332E+03
       334   4  8.872639E+05  2.069515E+04  5.132242E+04 -8.351897E+03  3.850262E+04  4.066387E+03
       334   5  8.830463E+05 -3.510257E+03  2.573458E+04 -1.170865E+03  2.523927E+04  3.815960E+03
       334   6  8.872776E+05 -9.933062E+02  1.546346E+04 -8.340803E+03  1.197605E+04  3.183223E+03
       334   7  1.042560E+06  5.924233E+04  8.896442E+04 -1.355951E+04  3.848640E+04  4.065987E+03
       334   8  1.021825E+06  3.093218E+04  5.932167E+04 -2.432301E+03  2.505470E+04  3.815770E+03
       334   9  1.009567E+06  2.937018E+04  4.510958E+04 -5.655958E+03  1.162348E+04  3.183111E+03
       334  10  7.319886E+05 -1.785411E+04  1.367589E+04 -3.145718E+03 -8.852894E-10 -5.923549E-10
       334  11  7.442844E+05 -3.795429E+04 -7.855133E+03  9.020770E+01  6.139452E-10  7.871234E-10
       334  12  7.650018E+05 -3.135791E+04 -1.418404E+04 -1.102515E+04  5.777870E-10 -5.807001E-10
       334  13  8.872623E+05  2.069474E+04  5.131961E+04 -8.352024E+03  6.586360E-10  8.220985E-10
       334  14  8.830457E+05 -3.510444E+03  2.573336E+04 -1.170943E+03  1.023168E-09  6.992053E-10
       334  15  8.872774E+05 -9.933556E+02  1.546317E+04 -8.340833E+03  2.860994E-10 -9.011319E-10
       334  16  1.042558E+06  5.924192E+04  8.896161E+04 -1.355964E+04  1.340651E-09  7.464522E-10
       334  17  1.021825E+06  3.093200E+04  5.932047E+04 -2.432378E+03  2.013990E-10  3.882236E-13
       334  18  1.009567E+06  2.937013E+04  4.510931E+04 -5.655988E+03 -9.150190E-10 -5.819179E-10
       334  19  7.319902E+05 -1.785370E+04  1.367870E+04 -3.145592E+03 -3.851883E+04 -4.066788E+03
       334  20  7.442851E+05 -3.795410E+04 -7.853892E+03  9.028582E+01 -2.542380E+04 -3.816151E+03
       334  21  7.650020E+05 -3.135786E+04 -1.418373E+04 -1.102512E+04 -1.232855E+04 -3.183332E+03
       334  22  8.872639E+05  2.069515E+04  5.132242E+04 -8.351897E+03 -3.850262E+04 -4.066387E+03
       334  23  8.830463E+05 -3.510257E+03  2.573458E+04 -1.170865E+03 -2.523927E+04 -3.815960E+03
       334  24  8.872776E+05 -9.933062E+02  1.546346E+04 -8.340803E+03 -1.197605E+04 -3.183223E+03
       334  25  1.042560E+06  5.924233E+04  8.896442E+04 -1.355951E+04 -3.848640E+04 -4.065987E+03
       334  26  1.021825E+06  3.093218E+04  5.932167E+04 -2.432301E+03 -2.505470E+04 -3.815770E+03
       334  27  1.009567E+06  2.937018E+04  4.510958E+04 -5.655958E+03 -1.162348E+04 -3.183111E+03
       335   1  7.896426E+05 -2.146531E+04 -1.103706E+04 -7.781352E+03  9.764421E+03  2.764508E+03
       335   2  8.050075E+05 -2.029259E+04 -1.279886E+04 -1.235674E+03  6.461517E+03  2.183862E+03
       335   3  8.215935E+05 -1.602782E+04 -1.163545E+04 -8.586381E+03  3.158482E+03  1.575277E+03
       335   4  8.856716E+05  2.364036E+03  1.217110E+04 -8.243599E+03  9.520752E+03  2.764399E+03
       335   5  8.850615E+05 -4.205539E+02  6.582141E+03 -1.295115E+03  6.205295E+03  2.183779E+03
       335   6  8.856745E+05 -1.111091E+02  3.926798E+03 -8.242898E+03  2.889793E+03  1.575218E+03
       335   7  9.817090E+05  2.619270E+04  3.537860E+04 -8.705920E+03  9.277045E+03  2.764291E+03
       335   8  9.651214E+05  1.945101E+04  2.596268E+04 -1.354564E+03  5.949041E+03  2.183697E+03
       335   9  9.497592E+05  1.580530E+04  1.948875E+04 -7.899380E+03  2.621076E+03  1.575159E+03
       335  10  7.896425E+05 -2.146534E+04 -1.103726E+04 -7.781373E+03  1.439143E-10 -1.208710E-09
       335  11  8.050075E+05 -2.029261E+04 -1.279894E+04 -1.235686E+03  6.480153E-11 -4.868291E-10
       335  12  8.215935E+05 -1.602783E+04 -1.163548E+04 -8.586385E+03 -5.403830E-10  2.297765E-10
       335  13  8.856715E+05  2.364003E+03  1.217091E+04 -8.243621E+03  9.962066E-10 -8.063180E-10
       335  14  8.850615E+05 -4.205693E+02  6.582059E+03 -1.295126E+03 -5.387119E-10  1.106532E-10
       335  15  8.856745E+05 -1.111140E+02  3.926777E+03 -8.242902E+03 -1.312797E-09 -7.996357E-11
       335  16  9.817090E+05  2.619267E+04  3.537842E+04 -8.705940E+03 -1.013225E-09 -3.001773E-10
       335  17  9.651214E+05  1.945100E+04  2.596260E+04 -1.354574E+03 -5.090459E-10  1.466535E-10
       335  18  9.497592E+05  1.580530E+04  1.948874E+04 -7.899383E+03  2.830130E-10  5.157591E-10
       335  19  7.896426E+05 -2.146531E+04 -1.103706E+04 -7.781352E+03 -9.764421E+03 -2.764508E+03
       335  20  8.050075E+05 -2.029259E+04 -1.279886E+04 -1.235674E+03 -6.461517E+03 -2.183862E+03
       335  21  8.215935E+05 -1.602782E+04 -1.163545E+04 -8.586381E+03 -3.158482E+03 -1.575277E+03
       335  22  8.856716E+05  2.364036E+03  1.217110E+04 -8.243599E+03 -9.520752E+03 -2.764399E+03
       335  23  8.850615E+05 -4.205539E+02  6.582141E+03 -1.295115E+03 -6.205295E+03 -2.183779E+03
       335  24  8.856745E+05 -1.111091E+02  3.926798E+03 -8.242898E+03 -2.889793E+03 -1.575218E+03
       335  25  9.817090E+05  2.619270E+04  3.537860E+04 -8.705920E+03 -9.277045E+03 -2.764291E+03
       335  26  9.651214E+05  1.945101E+04  2.596268E+04 -1.354564E+03 -5.949041E+03 -2.183697E+03
       335  27  9.497592E+05  1.580530E+04  1.948875E+04 -7.899380E+03 -2.621076E+03 -1.575159E+03
       336   1  8.470054E+05 -9.274321E+03 -6.176078E+03 -8.173961E+03  2.518710E+03  1.218711E+03
       336   2  8.626248E+05 -5.694035E+03 -3.619636E+03 -1.363713E+03  1.582644E+03  6.190296E+02
       336   3  8.784658E+05 -1.741400E+03 -3.599332E+02 -8.239154E+03  6.465088E+02  1.849005E+01
       336   4  8.854525E+05  2.596801E+02  3.083802E+03 -8.196341E+03  2.259715E+03  1.218663E+03
       336   5  8.853421E+05 -5.499534E+01  1.880168E+03 -1.353492E+03  1.323221E+03  6.189876E+02
       336   6  8.854530E+05  2.693072E+00  1.380006E+03 -8.196300E+03  3.866806E+02  1.845502E+01
       336   7  9.239009E+05  9.793573E+03  1.234358E+04 -8.218722E+03  2.000704E+03  1.218614E+03
       336   8  9.080600E+05  5.584006E+03  7.379936E+03 -1.343271E+03  1.063788E+03  6.189456E+02
       336   9  8.924403E+05  1.746782E+03  3.119942E+03 -8.153446E+03  1.268495E+02  1.841996E+01
       336  10  8.470054E+05 -9.274324E+03 -6.176093E+03 -8.173964E+03 -7.763762E-10  1.523033E-10
       336  11  8.626248E+05 -5.694036E+03 -3.619642E+03 -1.363714E+03 -2.192489E-10 -1.249149E-10
       336  12  8.784658E+05 -1.741400E+03 -3.599339E+02 -8.239154E+03 -1.328359E-09 -2.425323E-10
       336  13  8.854525E+05  2.596771E+02  3.083789E+03 -8.196343E+03  9.055318E-11  2.099197E-10
       336  14  8.853421E+05 -5.499623E+01  1.880164E+03 -1.353493E+03  3.788287E-10 -1.898873E-10
       336  15  8.854530E+05  2.693032E+00  1.380006E+03 -8.196300E+03 -1.650853E-10  8.424228E-11
       336  16  9.239009E+05  9.793571E+03  1.234357E+04 -8.218724E+03  1.128327E-09  4.220778E-10
       336  17  9.080600E+05  5.584006E+03  7.379933E+03 -1.343272E+03  1.279641E-09 -2.059494E-10
       336  18  8.924403E+05  1.746782E+03  3.119942E+03 -8.153446E+03  1.999613E-09  2.643600E-10
       336  19  8.470054E+05 -9.274321E+03 -6.176078E+03 -8.173961E+03 -2.518710E+03 -1.218711E+03
       336  20  8.626248E+05 -5.694035E+03 -3.619636E+03 -1.363713E+03 -1.582644E+03 -6.190296E+02
       336  21  8.784658E+05 -1.741400E+03 -3.599332E+02 -8.239154E+03 -6.465088E+02 -1.849005E+01
       336  22  8.854525E+05  2.596801E+02  3.083802E+03 -8.196341E+03 -2.259715E+03 -1.218663E+03
       336  23  8.853421E+05 -5.499534E+01  1.880168E+03 -1.353492E+03 -1.323221E+03 -6.189876E+02
       336  24  8.854530E+05  2.693072E+00  1.380006E+03 -8.196300E+03 -3.866806E+02 -1.845502E+01
       336  25  9.239009E+05  9.793573E+03  1.234358E+04 -8.218722E+03 -2.000704E+03 -1.218614E+03
       336  26  9.080600E+05  5.584006E+03  7.379936E+03 -1.343271E+03 -1.063788E+03 -6.189456E+02
       336  27  8.924403E+05  1.746782E+03  3.119942E+03 -8.153446E+03 -1.268495E+02 -1.841996E+01
       337   1  9.039122E+05  4.613429E+03  5.810665E+03 -8.178034E+03  4.054099E+02 -3.312929E+02
       337   2  9.195906E+05  8.459409E+03  9.675002E+03 -1.341999E+03 -2.854355E+02 -9.323363E+02
       337   3  9.354282E+05  1.255110E+04  1.405161E+04 -8.215109E+03 -9.762492E+02 -1.533353E+03
       337   4  8.854391E+05  1.837843E+01  1.290177E+03 -8.201536E+03  1.455079E+02 -3.313292E+02
       337   5  8.853594E+05 -3.735863E+01  1.388006E+03 -1.346953E+03 -5.452999E+02 -9.323830E+02
       337   6  8.854388E+05  1.526337E+02  1.998114E+03 -8.201561E+03 -1.236059E+03 -1.533409E+03
       337   7  8.669664E+05 -4.576697E+03 -3.230336E+03 -8.225038E+03 -1.143864E+02 -3.313655E+02
       337   8  8.511294E+05 -8.534212E+03 -6.899074E+03 -1.351907E+03 -8.051501E+02 -9.324296E+02
       337   9  8.354516E+05 -1.224601E+04 -1.005556E+04 -8.188014E+03 -1.495847E+03 -1.533466E+03
       337  10  9.039122E+05  4.613429E+03  5.810665E+03 -8.178034E+03 -2.989850E-09 -1.232182E-10
       337  11  9.195906E+05  8.459408E+03  9.675000E+03 -1.342000E+03 -1.000077E-09  2.644143E-10
       337  12  9.354282E+05  1.255109E+04  1.405160E+04 -8.215110E+03 -1.475127E-10 -2.960236E-10
       337  13  8.854391E+05  1.837831E+01  1.290177E+03 -8.201536E+03  7.227088E-10  4.264099E-10
       337  14  8.853594E+05 -3.735964E+01  1.388004E+03 -1.346954E+03 -9.764599E-10  2.715779E-10
       337  15  8.854388E+05  1.526308E+02  1.998106E+03 -8.201562E+03 -1.152222E-09 -8.222303E-11
       337  16  8.669664E+05 -4.576697E+03 -3.230336E+03 -8.225038E+03  1.038129E-09  3.792702E-10
       337  17  8.511294E+05 -8.534213E+03 -6.899077E+03 -1.351908E+03  1.186247E-10 -2.631029E-10
       337  18  8.354516E+05 -1.224601E+04 -1.005557E+04 -8.188016E+03  4.452487E-10  6.577898E-11
       337  19  9.039122E+05  4.613429E+03  5.810665E+03 -8.178034E+03 -4.054099E+02  3.312929E+02
       337  20  9.195906E+05  8.459409E+03  9.675002E+03 -1.341999E+03  2.854355E+02  9.323363E+02
       337  21  9.354282E+05  1.255110E+04  1.405161E+04 -8.215109E+03  9.762492E+02  1.533353E+03
       337  22  8.854391E+05  1.837843E+01  1.290177E+03 -8.201536E+03 -1.455079E+02  3.313292E+02
       337  23  8.853594E+05 -3.735863E+01  1.388006E+03 -1.346953E+03  5.452999E+02  9.323830E+02
       337  24  8.854388E+05  1.526337E+02  1.998114E+03 -8.201561E+03  1.236059E+03  1.533409E+03
       337  25  8.669664E+05 -4.576697E+03 -3.230336E+03 -8.225038E+03  1.143864E+02  3.313655E+02
       337  26  8.511294E+05 -8.534212E+03 -6.899074E+03 -1.351907E+03  8.051501E+02  9.324296E+02
       337  27  8.354516E+05 -1.224601E+04 -1.005556E+04 -8.188014E+03  1.495847E+03  1.533466E+03
       338   1  9.612842E+05  1.873639E+04  2.084489E+04 -8.048960E+03 -1.367438E+03 -1.891348E+03
       338   2  9.769659E+05  2.252474E+04  2.622366E+04 -1.300796E+03 -3.398579E+03 -2.502203E+03
       338   3  9.933980E+05  2.816742E+04  3.339147E+04 -8.522608E+03 -5.429622E+03 -3.084079E+03
       338   4  8.855689E+05 -6.673382E+01  2.467358E+03 -8.259377E+03 -1.637560E+03 -1.891420E+03
       338   5  8.851938E+05 -2.537867E+02  4.007935E+03 -1.274564E+03 -3.655902E+03 -2.502299E+03
       338   6  8.855670E+05  1.411519E+03  7.328961E+03 -8.259851E+03 -5.674096E+03 -3.084200E+03
       338   7  8.098587E+05 -1.887028E+04 -1.591058E+04 -8.469769E+03 -1.907648E+03 -1.891491E+03
       338   8  7.934293E+05 -2.303293E+04 -1.820839E+04 -1.248336E+03 -3.913188E+03 -2.502396E+03
       338   9  7.777465E+05 -2.534523E+04 -1.873438E+04 -7.997141E+03 -5.918527E+03 -3.084320E+03
       338  10  9.612842E+05  1.873639E+04  2.084488E+04 -8.048962E+03  8.727451E-10 -1.221311E-10
       338  11  9.769659E+05  2.252473E+04  2.622362E+04 -1.300803E+03  1.418128E-09 -3.521047E-10
       338  12  9.933980E+05  2.816740E+04  3.339140E+04 -8.522621E+03  9.344754E-10  6.678357E-10
       338  13  8.855689E+05 -6.673838E+01  2.467347E+03 -8.259380E+03  1.225404E-09 -1.151048E-10
       338  14  8.851938E+05 -2.537970E+02  4.007898E+03 -1.274571E+03 -8.498686E-10 -6.228691E-11
       338  15  8.855669E+05  1.411500E+03  7.328883E+03 -8.259865E+03 -5.087352E-10  9.417638E-11
       338  16  8.098587E+05 -1.887028E+04 -1.591060E+04 -8.469772E+03 -6.189954E-10 -2.177092E-11
       338  17  7.934293E+05 -2.303294E+04 -1.820843E+04 -1.248344E+03 -1.030795E-09 -6.301653E-11
       338  18  7.777465E+05 -2.534525E+04 -1.873447E+04 -7.997155E+03  1.095128E-10  2.246226E-10
       338  19  9.612842E+05  1.873639E+04  2.084489E+04 -8.048960E+03  1.367438E+03  1.891348E+03
       338  20  9.769659E+05  2.252474E+04  2.622366E+04 -1.300796E+03  3.398579E+03  2.502203E+03
       338  21  9.933980E+05  2.816742E+04  3.339147E+04 -8.522608E+03  5.429622E+03  3.084079E+03
       338  22  8.855689E+05 -6.673382E+01  2.467358E+03 -8.259377E+03  1.637560E+03  1.891420E+03
       338  23  8.851938E+05 -2.537867E+02  4.007935E+03 -1.274564E+03  3.655902E+03  2.502299E+03
       338  24  8.855670E+05  1.411519E+03  7.328961E+03 -8.259851E+03  5.674096E+03  3.084200E+03
       338  25  8.098587E+05 -1.887028E+04 -1.591058E+04 -8.469769E+03  1.907648E+03  1.891491E+03
       338  26  7.934293E+05 -2.303293E+04 -1.820839E+04 -1.248336E+03  3.913188E+03  2.502396E+03
       338  27  7.777465E+05 -2.534523E+04 -1.873438E+04 -7.997141E+03  5.918527E+03  3.084320E+03
       339   1  1.020794E+06  3.273594E+04  4.183763E+04 -6.739609E+03 -6.791476E+03 -3.508190E+03
       339   2  1.034874E+06  3.534281E+04  5.195064E+04 -1.865301E+03 -1.492133E+04 -4.143456E+03
       339   3  1.054071E+06  5.398218E+04  7.136915E+04 -1.145641E+04 -2.305160E+04 -4.374265E+03
       339   4  8.865304E+05 -5.987798E+02  9.293059E+03 -8.367379E+03 -7.151195E+03 -3.508361E+03
       339   5  8.839826E+05 -2.106136E+03  1.543184E+04 -1.138310E+03 -1.510441E+04 -4.143631E+03
       339   6  8.865217E+05  1.239050E+04  3.075521E+04 -8.374784E+03 -2.305781E+04 -4.374462E+03
       339   7  7.522827E+05 -3.393481E+04 -2.325281E+04 -9.994798E+03 -7.510836E+03 -3.508531E+03
       339   8  7.331117E+05 -3.955675E+04 -2.108860E+04 -4.114993E+02 -1.528743E+04 -4.143807E+03
       339   9  7.189984E+05 -2.920319E+04 -9.860738E+03 -5.293993E+03 -2.306401E+04 -4.374660E+03
       339  10  1.020794E+06  3.273591E+04  4.183752E+04 -6.739629E+03  1.018580E-09  3.897740E-10
       339  11  1.034874E+06  3.534273E+04  5.195019E+04 -1.865350E+03  1.305717E-09 -8.011181E-10
       339  12  1.054070E+06  5.398201E+04  7.136812E+04 -1.145649E+04 -2.532989E-09 -8.867829E-10
       339  13  8.865303E+05 -5.988067E+02  9.292940E+03 -8.367400E+03 -1.952839E-09  4.044894E-13
       339  14  8.839824E+05 -2.106216E+03  1.543137E+04 -1.138361E+03 -1.085420E-09 -9.070096E-10
       339  15  8.865211E+05  1.239034E+04  3.075418E+04 -8.374865E+03 -1.324993E-09 -7.548437E-10
       339  16  7.522826E+05 -3.393484E+04 -2.325294E+04 -9.994819E+03 -1.579367E-09 -1.154734E-10
       339  17  7.331115E+05 -3.955683E+04 -2.108907E+04 -4.115503E+02  1.434466E-09  7.672440E-10
       339  18  7.189978E+05 -2.920336E+04 -9.861773E+03 -5.294075E+03  1.707082E-09 -1.272612E-10
       339  19  1.020794E+06  3.273594E+04  4.183763E+04 -6.739609E+03  6.791476E+03  3.508190E+03
       339  20  1.034874E+06  3.534281E+04  5.195064E+04 -1.865301E+03  1.492133E+04  4.143456E+03
       339  21  1.054071E+06  5.398218E+04  7.136915E+04 -1.145641E+04  2.305160E+04  4.374265E+03
       339  22  8.865304E+05 -5.987798E+02  9.293059E+03 -8.367379E+03  7.151195E+03  3.508361E+03
       339  23  8.839826E+05 -2.106136E+03  1.543184E+04 -1.138310E+03  1.510441E+04  4.143631E+03
       339  24  8.865217E+05  1.239050E+04  3.075521E+04 -8.374784E+03  2.305781E+04  4.374462E+03
       339  25  7.522827E+05 -3.393481E+04 -2.325281E+04 -9.994798E+03  7.510836E+03  3.508531E+03
       339  26  7.331117E+05 -3.955675E+04 -2.108860E+04 -4.114993E+02  1.528743E+04  4.143807E+03
       339  27  7.189984E+05 -2.920319E+04 -9.860738E+03 -5.293993E+03  2.306401E+04  4.374660E+03
       340   1  1.089105E+06  4.325913E+04  8.475168E+04  4.637342E+03 -2.768317E+04 -5.448399E+03
       340   2  1.087201E+06  3.494498E+04  1.106610E+05 -9.141827E+03 -6.184514E+04 -6.149733E+03
       340   3  1.124231E+06  1.642688E+05  1.932143E+05 -3.813514E+04 -9.601223E+04 -2.148797E+03
       340   4  8.939760E+05 -5.186123E+03  3.754689E+04 -8.504249E+03 -2.898700E+04 -5.448805E+03
       340   5  8.746556E+05 -1.777336E+04  5.930313E+04 -9.497236E+02 -6.110611E+04 -6.150085E+03
       340   6  8.939278E+05  1.069468E+05  1.362997E+05 -8.608417E+03 -9.322923E+04 -2.150732E+03
       340   7  6.988820E+05 -5.363352E+04 -9.660543E+03 -2.164171E+04 -3.029043E+04 -5.449157E+03
       340   8  6.621514E+05 -7.049474E+04  7.942030E+03  7.239562E+03 -6.036732E+04 -6.150419E+03
       340   9  6.636743E+05  4.962407E+04  7.938168E+04  2.090734E+04 -9.044725E+04 -2.152403E+03
       340  10  1.089104E+06  4.325890E+04  8.475019E+04  4.637221E+03  1.322683E-10 -1.278087E-09
       340  11  1.087197E+06  3.494391E+04  1.106538E+05 -9.142134E+03  1.772022E-09 -2.838725E-09
       340  12  1.124222E+06  1.642663E+05  1.931970E+05 -3.813530E+04 -1.755845E-10 -8.741689E-10
       340  13  8.939751E+05 -5.186380E+03  3.754526E+04 -8.504377E+03 -5.752535E-10 -3.405020E-09
       340  14  8.746515E+05 -1.777440E+04  5.929605E+04 -9.500261E+02  9.309725E-10  1.059290E-09
       340  15  8.939185E+05  1.069444E+05  1.362834E+05 -8.608579E+03  9.996936E-10 -3.264365E-10
       340  16  6.988810E+05 -5.363380E+04 -9.662321E+03 -2.164184E+04 -9.035719E-10 -8.988179E-10
       340  17  6.621475E+05 -7.049576E+04  7.935119E+03  7.239263E+03  1.164466E-09  4.289915E-10
       340  18  6.636655E+05  4.962187E+04  7.936632E+04  2.090719E+04  1.655867E-09 -1.278425E-09
       340  19  1.089105E+06  4.325913E+04  8.475168E+04  4.637342E+03  2.768317E+04  5.448399E+03
       340  20  1.087201E+06  3.494498E+04  1.106610E+05 -9.141827E+03  6.184514E+04  6.149733E+03
       340  21  1.124231E+06  1.642688E+05  1.932143E+05 -3.813514E+04  9.601223E+04  2.148797E+03
       340  22  8.939760E+05 -5.186123E+03  3.754689E+04 -8.504249E+03  2.898700E+04  5.448805E+03
       340  23  8.746556E+05 -1.777336E+04  5.930313E+04 -9.497236E+02  6.110611E+04  6.150085E+03
       340  24  8.939278E+05  1.069468E+05  1.362997E+05 -8.608417E+03  9.322923E+04  2.150732E+03
       340  25  6.988820E+05 -5.363352E+04 -9.660543E+03 -2.164171E+04  3.029043E+04  5.449157E+03
       340  26  6.621514E+05 -7.049474E+04  7.942030E+03  7.239562E+03  6.036732E+04  6.150419E+03
       340  27  6.636743E+05  4.962407E+04  7.938168E+04  2.090734E+04  9.044725E+04  2.152403E+03
       341   1  1.465798E+06  6.064980E+06  1.504868E+06 -6.800988E+05  4.292036E+04  1.967960E+05
       341   2  9.662085E+05  4.852497E+06  1.075306E+06 -1.445464E+05  1.168564E+05  8.961407E+04
       341   3  7.180632E+05  3.730148E+06  7.802865E+05 -6.174201E+05  7.395005E+04 -1.797966E+04
       341   4  1.719594E+05  8.598201E+05  2.211535E+05 -6.197541E+05  4.313443E+04  1.386550E+05
       341   5 -3.219808E+04  8.202033E+05  1.035837E+05 -1.156196E+05  1.169448E+05  8.278437E+04
       341   6  7.140432E+03  8.611283E+05  8.578389E+04 -6.202601E+05  7.358940E+04  2.629704E+04
       341   7 -1.123880E+06 -4.320866E+06 -1.064551E+06 -5.598821E+05  4.333845E+04  8.099339E+04
       341   8 -1.031786E+06 -3.197304E+06 -8.692983E+05 -8.685902E+04  1.170330E+05  7.599723E+04
       341   9 -7.043823E+05 -2.000401E+06 -6.093027E+05 -6.230673E+05  7.322746E+04  7.037049E+04
       341  10  1.465786E+06  6.064938E+06  1.504793E+06 -6.801056E+05  9.924050E-12  2.060666E-09
       341  11  9.661917E+05  4.852485E+06  1.075265E+06 -1.445548E+05 -2.353121E-09  2.357979E-09
       341  12  7.180572E+05  3.730146E+06  7.802756E+05 -6.174190E+05 -1.660820E-09  4.994688E-09
       341  13  1.719522E+05  8.597990E+05  2.211139E+05 -6.197589E+05  2.063060E-09 -3.134704E-11
       341  14 -3.221461E+04  8.201923E+05  1.035452E+05 -1.156274E+05 -7.420825E-10  2.767227E-09
       341  15  7.134427E+03  8.611261E+05  8.577241E+04 -6.202616E+05  1.291446E-09  9.766795E-10
       341  16 -1.123884E+06 -4.320873E+06 -1.064567E+06 -5.598850E+05  5.515401E-10 -3.180051E-09
       341  17 -1.031802E+06 -3.197314E+06 -8.693350E+05 -8.686620E+04  2.211679E-09  1.174450E-09
       341  18 -7.043894E+05 -2.000408E+06 -6.093221E+05 -6.230715E+05  1.271039E-09  1.126568E-09
       341  19  1.465798E+06  6.064980E+06  1.504868E+06 -6.800988E+05 -4.292036E+04 -1.967960E+05
       341  20  9.662085E+05  4.852497E+06  1.075306E+06 -1.445464E+05 -1.168564E+05 -8.961407E+04
       341  21  7.180632E+05  3.730148E+06  7.802865E+05 -6.174201E+05 -7.395005E+04  1.797966E+04
       341  22  1.719594E+05  8.598201E+05  2.211535E+05 -6.197541E+05 -4.313443E+04 -1.386550E+05
       341  23 -3.219808E+04  8.202033E+05  1.035837E+05 -1.156196E+05 -1.169448E+05 -8.278437E+04
       341  24  7.140432E+03  8.611283E+05  8.578389E+04 -6.202601E+05 -7.358940E+04 -2.629704E+04
       341  25 -1.123880E+06 -4.320866E+06 -1.064551E+06 -5.598821E+05 -4.333845E+04 -8.099339E+04
       341  26 -1.031786E+06 -3.197304E+06 -8.692983E+05 -8.685902E+04 -1.170330E+05 -7.599723E+04
       341  27 -7.043823E+05 -2.000401E+06 -6.093027E+05 -6.230673E+05 -7.322746E+04 -7.037049E+04
       342   1  2.730100E+05  1.838736E+06  3.200491E+05 -6.353847E+05  2.921192E+04 -3.627272E+03
       342   2 -4.847004E+04  6.803900E+05  3.955967E+04 -1.146641E+05 -4.075250E+03 -4.425118E+04
       342   3 -2.759101E+05 -4.688856E+05 -1.956395E+05 -5.969164E+05 -3.678316E+04 -8.478223E+04
       342   4  2.681930E+04  8.470839E+05  8.067737E+04 -6.187690E+05  2.907635E+04  1.104867E+04
       342   5 -8.028346E+03  8.431214E+05  7.895687E+04 -1.172003E+05 -4.203768E+03 -2.982841E+04
       342   6  5.128414E+04  8.470227E+05  1.227740E+05 -6.185559E+05 -3.690616E+04 -7.068661E+04
       342   7 -2.194424E+05 -1.436711E+05 -1.587639E+05 -6.021773E+05  2.894144E+04  2.570128E+04
       342   8  3.241154E+04  1.005877E+06  1.183529E+05 -1.197372E+05 -4.332387E+03 -1.540187E+04
       342   9  3.783529E+05  2.164514E+06  4.410640E+05 -6.402371E+05 -3.703000E+04 -5.656108E+04
       342  10  2.730091E+05  1.838736E+06  3.200475E+05 -6.353846E+05 -3.125844E-09  9.690635E-09
       342  11 -4.847059E+04  6.803879E+05  3.955596E+04 -1.146642E+05  4.751819E-09  4.414931E-09
       342  12 -2.759135E+05 -4.688937E+05 -1.956556E+05 -5.969189E+05 -7.216708E-09  9.754688E-11
       342  13  2.681836E+04  8.470835E+05  8.067555E+04 -6.187692E+05 -1.109732E-09 -2.428452E-11
       342  14 -8.028603E+03  8.431204E+05  7.895516E+04 -1.172004E+05  7.542572E-09  4.529777E-09
       342  15  5.128133E+04  8.470169E+05  1.227620E+05 -6.185580E+05  4.911649E-09  9.860292E-10
       342  16 -2.194434E+05 -1.436721E+05 -1.587667E+05 -6.021779E+05  1.337996E-09 -1.426831E-08
       342  17  3.241146E+04  1.005877E+06  1.183525E+05 -1.197373E+05 -5.044111E-09  8.837801E-11
       342  18  3.783506E+05  2.164510E+06  4.410554E+05 -6.402388E+05 -1.845612E-09  7.199642E-09
       342  19  2.730100E+05  1.838736E+06  3.200491E+05 -6.353847E+05 -2.921192E+04  3.627272E+03
       342  20 -4.847004E+04  6.803900E+05  3.955967E+04 -1.146641E+05  4.075250E+03  4.425118E+04
       342  21 -2.759101E+05 -4.688856E+05 -1.956395E+05 -5.969164E+05  3.678316E+04  8.478223E+04
       342  22  2.681930E+04  8.470839E+05  8.067737E+04 -6.187690E+05 -2.907635E+04 -1.104867E+04
       342  23 -8.028346E+03  8.431214E+05  7.895687E+04 -1.172003E+05  4.203768E+03  2.982841E+04
       342  24  5.128414E+04  8.470227E+05  1.227740E+05 -6.185559E+05  3.690616E+04  7.068661E+04
       342  25 -2.194424E+05 -1.436711E+05 -1.587639E+05 -6.021773E+05 -2.894144E+04 -2.570128E+04
       342  26  3.241154E+04  1.005877E+06  1.183529E+05 -1.197372E+05  4.332387E+03  1.540187E+04
       342  27  3.783529E+05  2.164514E+06  4.410640E+05 -6.402371E+05  3.703000E+04  5.656108E+04
       343   1 -7.981795E+05 -2.308937E+06 -6.285078E+05 -6.469971E+05 -8.189324E+04 -1.400272E+05
       343   2 -1.148298E+06 -3.546456E+06 -8.399925E+05 -7.104409E+04 -1.257943E+05 -2.017390E+05
       343   3 -9.997552E+05 -4.631444E+06 -8.828652E+05 -5.056704E+05 -4.608165E+04 -2.627647E+05
       343   4 -6.020893E+03  8.782931E+05  1.454939E+05 -6.207533E+05 -8.225187E+04 -9.473553E+04
       343   5 -6.701497E+04  7.977632E+05  2.122921E+05 -1.152586E+05 -1.256854E+05 -2.103244E+05
       343   6  3.782702E+05  8.768139E+05  4.842019E+05 -6.197884E+05 -4.587262E+04 -3.253517E+05
       343   7  7.853973E+05  4.074822E+06  9.187710E+05 -5.943503E+05 -8.260567E+04 -4.921035E+04
       343   8  1.012889E+06  5.159280E+06  1.263220E+06 -1.597624E+05 -1.255758E+05 -2.189658E+05
       343   9  1.754066E+06  6.412771E+06  1.849025E+06 -7.348974E+05 -4.564186E+04 -3.884863E+05
       343  10 -7.981920E+05 -2.308960E+06 -6.285574E+05 -6.470064E+05 -4.273120E-09  4.591470E-09
       343  11 -1.148326E+06 -3.546505E+06 -8.400992E+05 -7.106458E+04  4.495692E-09  4.930103E-09
       343  12 -9.997762E+05 -4.631519E+06 -8.830000E+05 -5.056802E+05  1.972261E-09  1.515925E-09
       343  13 -6.030577E+03  8.782816E+05  1.454643E+05 -6.207595E+05 -7.804425E-09  2.488915E-10
       343  14 -6.704380E+04  7.977115E+05  2.121794E+05 -1.152798E+05  3.193236E-09  2.405729E-09
       343  15  3.782396E+05  8.766998E+05  4.839992E+05 -6.198005E+05  5.048485E-10  2.263496E-10
       343  16  7.853893E+05  4.074817E+06  9.187536E+05 -5.943536E+05  2.819514E-09 -8.491511E-09
       343  17  1.012860E+06  5.159224E+06  1.263101E+06 -1.597845E+05  8.917819E-11 -2.863697E-09
       343  18  1.754024E+06  6.412610E+06  1.848740E+06 -7.349117E+05 -1.155408E-09 -4.635745E-10
       343  19 -7.981795E+05 -2.308937E+06 -6.285078E+05 -6.469971E+05  8.189324E+04  1.400272E+05
       343  20 -1.148298E+06 -3.546456E+06 -8.399925E+05 -7.104409E+04  1.257943E+05  2.017390E+05
       343  21 -9.997552E+05 -4.631444E+06 -8.828652E+05 -5.056704E+05  4.608165E+04  2.627647E+05
       343  22 -6.020893E+03  8.782931E+05  1.454939E+05 -6.207533E+05  8.225187E+04  9.473553E+04
       343  23 -6.701497E+04  7.977632E+05  2.122921E+05 -1.152586E+05  1.256854E+05  2.103244E+05
       343  24  3.782702E+05  8.768139E+05  4.842019E+05 -6.197884E+05  4.587262E+04  3.253517E+05
       343  25  7.853973E+05  4.074822E+06  9.187710E+05 -5.943503E+05  8.260567E+04  4.921035E+04
       343  26  1.012889E+06  5.159280E+06  1.263220E+06 -1.597624E+05  1.255758E+05  2.189658E+05
       343  27  1.754066E+06  6.412771E+06  1.849025E+06 -7.348974E+05  4.564186E+04  3.884863E+05
       344   1 -1.029765E+06 -4.455876E+05 -2.276126E+05 -4.434774E+05 -1.196325E+05 -3.888386E+04
       344   2 -9.900281E+05 -3.211610E+05 -1.288409E+05 -4.225150E+05 -7.368295E+04 -7.653317E+03
       344   3 -9.717310E+05 -2.585612E+05 -8.281236E+04 -3.958210E+05 -2.419797E+04  1.419689E+04
       344   4 -6.855769E+05 -2.462118E+05 -1.266477E+05 -2.768032E+05 -8.470740E+04 -2.577111E+04
       344   5 -6.700345E+05 -1.696198E+05 -6.032984E+04 -2.975497E+05 -5.812274E+04 -1.810392E+03
       344   6 -6.720787E+05 -1.510016E+05 -3.138012E+04 -3.125706E+05 -2.800683E+04  1.276431E+04
       344   7 -3.412632E+05 -4.677165E+04 -2.568940E+04 -1.100313E+05 -4.976201E+04 -1.264071E+04
       344   8 -3.499317E+05 -1.804773E+04  8.176757E+03 -1.725181E+05 -4.255407E+04  4.037929E+03
       344   9 -3.723284E+05 -4.343238E+04  2.005031E+04 -2.292821E+05 -3.181768E+04  1.133099E+04
       344  10 -1.029781E+06 -4.455931E+05 -2.276424E+05 -4.434811E+05  1.113828E-09  9.209473E-11
       344  11 -9.900340E+05 -3.211625E+05 -1.288512E+05 -4.225155E+05 -3.041225E-09 -5.955709E-10
       344  12 -9.717317E+05 -2.585616E+05 -8.281384E+04 -3.958207E+05 -2.557393E-09  4.427229E-10
       344  13 -6.855848E+05 -2.462145E+05 -1.266624E+05 -2.768049E+05 -1.170742E-09  5.162888E-10
       344  14 -6.700381E+05 -1.696207E+05 -6.033621E+04 -2.975498E+05  6.700682E-10 -4.567137E-10
       344  15 -6.720795E+05 -1.510020E+05 -3.138190E+04 -3.125703E+05 -1.148013E-09 -9.814656E-10
       344  16 -3.412659E+05 -4.677249E+04 -2.569436E+04 -1.100318E+05 -4.534632E-10 -1.348547E-09
       344  17 -3.499337E+05 -1.804824E+04  8.173322E+03 -1.725180E+05  1.868869E-09 -1.467816E-09
       344  18 -3.723296E+05 -4.343279E+04  2.004816E+04 -2.292818E+05  1.324599E-09 -5.816095E-10
       344  19 -1.029765E+06 -4.455876E+05 -2.276126E+05 -4.434774E+05  1.196325E+05  3.888386E+04
       344  20 -9.900281E+05 -3.211610E+05 -1.288409E+05 -4.225150E+05  7.368295E+04  7.653317E+03
       344  21 -9.717310E+05 -2.585612E+05 -8.281236E+04 -3.958210E+05  2.419797E+04 -1.419689E+04
       344  22 -6.855769E+05 -2.462118E+05 -1.266477E+05 -2.768032E+05  8.470740E+04  2.577111E+04
       344  23 -6.700345E+05 -1.696198E+05 -6.032984E+04 -2.975497E+05  5.812274E+04  1.810392E+03
       344  24 -6.720787E+05 -1.510016E+05 -3.138012E+04 -3.125706E+05  2.800683E+04 -1.276431E+04
       344  25 -3.412632E+05 -4.677165E+04 -2.568940E+04 -1.100313E+05  4.976201E+04  1.264071E+04
       344  26 -3.499317E+05 -1.804773E+04  8.176757E+03 -1.725181E+05  4.255407E+04 -4.037929E+03
       344  27 -3.723284E+05 -4.343238E+04  2.005031E+04 -2.292821E+05  3.181768E+04 -1.133099E+04
       345   1 -9.344162E+05 -2.485962E+05 -6.842042E+04 -3.903874E+05 -2.050144E+04  1.401466E+04
       345   2 -8.896891E+05 -2.209950E+05 -4.735555E+04 -3.732713E+05 -1.143624E+04  1.492467E+04
       345   3 -8.412003E+05 -2.042132E+05 -3.358766E+04 -3.627494E+05 -1.985127E+03  1.480855E+04
       345   4 -6.684679E+05 -1.491229E+05 -2.332501E+04 -3.120382E+05 -2.396319E+04  1.271270E+04
       345   5 -6.700885E+05 -1.406325E+05 -1.214052E+04 -3.099749E+05 -1.701445E+04  1.282794E+04
       345   6 -6.675282E+05 -1.425406E+05 -6.571997E+03 -3.145068E+05 -9.680430E+03  1.191697E+04
       345   7 -4.024470E+05 -4.964224E+04  2.176772E+04 -2.336578E+05 -2.742648E+04  1.141010E+04
       345   8 -4.504358E+05 -6.026433E+04  2.307371E+04 -2.466572E+05 -2.259475E+04  1.073039E+04
       345   9 -4.938212E+05 -8.086412E+04  2.044401E+04 -2.662509E+05 -1.737810E+04  9.024525E+03
       345  10 -9.344167E+05 -2.485965E+05 -6.842158E+04 -3.903871E+05 -6.133191E-10  1.897426E-09
       345  11 -8.896893E+05 -2.209953E+05 -4.735622E+04 -3.732711E+05  1.453783E-09  2.852415E-09
       345  12 -8.412004E+05 -2.042134E+05 -3.358808E+04 -3.627494E+05 -1.183533E-09  2.827631E-09
       345  13 -6.684685E+05 -1.491232E+05 -2.332640E+04 -3.120379E+05  1.320543E-09  8.499754E-10
       345  14 -6.700888E+05 -1.406327E+05 -1.214138E+04 -3.099747E+05  5.889300E-09  3.360525E-10
       345  15 -6.675283E+05 -1.425408E+05 -6.572439E+03 -3.145067E+05  2.612801E-09  4.215027E-10
       345  16 -4.024479E+05 -4.964258E+04  2.176606E+04 -2.336575E+05  1.675709E-09 -2.844836E-10
       345  17 -4.504364E+05 -6.026459E+04  2.307253E+04 -2.466570E+05  1.461074E-10  5.177330E-10
       345  18 -4.938216E+05 -8.086429E+04  2.044329E+04 -2.662507E+05 -4.511768E-09 -1.501006E-09
       345  19 -9.344162E+05 -2.485962E+05 -6.842042E+04 -3.903874E+05  2.050144E+04 -1.401466E+04
       345  20 -8.896891E+05 -2.209950E+05 -4.735555E+04 -3.732713E+05  1.143624E+04 -1.492467E+04
       345  21 -8.412003E+05 -2.042132E+05 -3.358766E+04 -3.627494E+05  1.985127E+03 -1.480855E+04
       345  22 -6.684679E+05 -1.491229E+05 -2.332501E+04 -3.120382E+05  2.396319E+04 -1.271270E+04
       345  23 -6.700885E+05 -1.406325E+05 -1.214052E+04 -3.099749E+05  1.701445E+04 -1.282794E+04
       345  24 -6.675282E+05 -1.425406E+05 -6.571997E+03 -3.145068E+05  9.680430E+03 -1.191697E+04
       345  25 -4.024470E+05 -4.964224E+04  2.176772E+04 -2.336578E+05  2.742648E+04 -1.141010E+04
       345  26 -4.504358E+05 -6.026433E+04  2.307371E+04 -2.466572E+05  2.259475E+04 -1.073039E+04
       345  27 -4.938212E+05 -8.086412E+04  2.044401E+04 -2.662509E+05  1.737810E+04 -9.024525E+03
       346   1 -8.104977E+05 -1.936260E+05 -2.700388E+04 -3.545870E+05 -3.087691E+02  1.292516E+04
       346   2 -7.658861E+05 -1.729718E+05 -1.734532E+04 -3.375261E+05  2.676624E+03  9.750289E+03
       346   3 -7.151027E+05 -1.591455E+05 -8.939494E+03 -3.278713E+05  5.704057E+03  6.462980E+03
       346   4 -6.671741E+05 -1.424494E+05 -4.918283E+03 -3.144182E+05 -7.968066E+03  1.004739E+04
       346   5 -6.702562E+05 -1.388912E+05 -2.679107E+03 -3.107767E+05 -5.214772E+03  6.785624E+03
       346   6 -6.671229E+05 -1.421148E+05 -1.508529E+03 -3.145421E+05 -2.419575E+03  3.411391E+03
       346   7 -5.238281E+05 -9.127073E+04  1.716724E+04 -2.742406E+05 -1.562923E+04  7.168924E+03
       346   8 -5.746169E+05 -1.048099E+05  1.198707E+04 -2.840236E+05 -1.310740E+04  3.820499E+03
       346   9 -6.191412E+05 -1.250840E+05  5.922518E+03 -3.012121E+05 -1.054377E+04  3.595947E+02
       346  10 -8.104978E+05 -1.936261E+05 -2.700420E+04 -3.545870E+05 -1.070277E-08  1.651134E-10
       346  11 -7.658862E+05 -1.729720E+05 -1.734551E+04 -3.375261E+05  1.510969E-08  5.298323E-09
       346  12 -7.151027E+05 -1.591455E+05 -8.939634E+03 -3.278714E+05  2.056766E-08  3.810947E-09
       346  13 -6.671742E+05 -1.424496E+05 -4.918592E+03 -3.144181E+05  6.560941E-09  3.344260E-09
       346  14 -6.702563E+05 -1.388913E+05 -2.679245E+03 -3.107767E+05  1.631835E-08  6.324508E-09
       346  15 -6.671229E+05 -1.421148E+05 -1.508561E+03 -3.145421E+05  6.503001E-09  2.508351E-09
       346  16 -5.238284E+05 -9.127085E+04  1.716669E+04 -2.742405E+05  1.626432E-08  5.257813E-09
       346  17 -5.746171E+05 -1.048099E+05  1.198672E+04 -2.840235E+05  1.576702E-08  6.417521E-09
       346  18 -6.191413E+05 -1.250840E+05  5.922309E+03 -3.012121E+05 -7.126325E-09  1.493942E-09
       346  19 -8.104977E+05 -1.936260E+05 -2.700388E+04 -3.545870E+05  3.087691E+02 -1.292516E+04
       346  20 -7.658861E+05 -1.729718E+05 -1.734532E+04 -3.375261E+05 -2.676624E+03 -9.750289E+03
       346  21 -7.151027E+05 -1.591455E+05 -8.939494E+03 -3.278713E+05 -5.704057E+03 -6.462980E+03
       346  22 -6.671741E+05 -1.424494E+05 -4.918283E+03 -3.144182E+05  7.968066E+03 -1.004739E+04
       346  23 -6.702562E+05 -1.388912E+05 -2.679107E+03 -3.107767E+05  5.214772E+03 -6.785624E+03
       346  24 -6.671229E+05 -1.421148E+05 -1.508529E+03 -3.145421E+05  2.419575E+03 -3.411391E+03
       346  25 -5.238281E+05 -9.127073E+04  1.716724E+04 -2.742406E+05  1.562923E+04 -7.168924E+03
       346  26 -5.746169E+05 -1.048099E+05  1.198707E+04 -2.840236E+05  1.310740E+04 -3.820499E+03
       346  27 -6.191412E+05 -1.250840E+05  5.922518E+03 -3.012121E+05  1.054377E+04 -3.595947E+02
       347   1 -6.850133E+05 -1.484289E+05 -3.812895E+03 -3.194789E+05  6.780628E+03  4.250787E+03
       347   2 -6.405082E+05 -1.281755E+05  3.771809E+03 -3.023753E+05  8.643629E+03  4.586623E+02
       347   3 -5.895595E+05 -1.144414E+05  1.106686E+04 -2.927075E+05  1.051047E+04 -3.343407E+03
       347   4 -6.670809E+05 -1.421192E+05 -1.161828E+03 -3.145249E+05 -1.339438E+03  1.200600E+03
       347   5 -6.703039E+05 -1.388656E+05 -7.294221E+02 -3.108048E+05  5.025887E+02 -2.599517E+03
       347   6 -6.670828E+05 -1.421281E+05 -5.706096E+02 -3.145219E+05  2.348415E+03 -6.409583E+03
       347   7 -6.491477E+05 -1.358094E+05  1.489582E+03 -3.095707E+05 -9.459850E+03 -1.849715E+03
       347   8 -7.000987E+05 -1.495557E+05 -5.230433E+03 -3.192340E+05 -7.638090E+03 -5.657558E+03
       347   9 -7.445995E+05 -1.698141E+05 -1.220788E+04 -3.363337E+05 -5.812563E+03 -9.475356E+03
       347  10 -6.850134E+05 -1.484290E+05 -3.813016E+03 -3.194789E+05 -2.425094E-11 -3.574353E-09
       347  11 -6.405083E+05 -1.281755E+05  3.771668E+03 -3.023753E+05 -1.328424E-09  2.733016E-10
       347  12 -5.895596E+05 -1.144415E+05  1.106664E+04 -2.927074E+05 -9.131508E-10  1.885298E-09
       347  13 -6.670809E+05 -1.421192E+05 -1.161834E+03 -3.145249E+05 -7.243096E-10  1.903895E-10
       347  14 -6.703039E+05 -1.388656E+05 -7.294353E+02 -3.108048E+05 -8.629889E-10 -9.359070E-11
       347  15 -6.670828E+05 -1.421282E+05 -5.706971E+02 -3.145219E+05 -1.307995E-09  1.735255E-09
       347  16 -6.491478E+05 -1.358094E+05  1.489407E+03 -3.095707E+05 -6.807964E-11  3.892194E-09
       347  17 -7.000988E+05 -1.495557E+05 -5.230603E+03 -3.192340E+05 -5.129663E-10  7.797638E-10
       347  18 -7.445996E+05 -1.698142E+05 -1.220811E+04 -3.363337E+05  9.238842E-10  8.512476E-10
       347  19 -6.850133E+05 -1.484289E+05 -3.812895E+03 -3.194789E+05 -6.780628E+03 -4.250787E+03
       347  20 -6.405082E+05 -1.281755E+05  3.771809E+03 -3.023753E+05 -8.643629E+03 -4.586623E+02
       347  21 -5.895595E+05 -1.144414E+05  1.106686E+04 -2.927075E+05 -1.051047E+04  3.343407E+03
       347  22 -6.670809E+05 -1.421192E+05 -1.161828E+03 -3.145249E+05  1.339438E+03 -1.200600E+03
       347  23 -6.703039E+05 -1.388656E+05 -7.294221E+02 -3.108048E+05 -5.025887E+02  2.599517E+03
       347  24 -6.670828E+05 -1.421281E+05 -5.706096E+02 -3.145219E+05 -2.348415E+03  6.409583E+03
       347  25 -6.491477E+05 -1.358094E+05  1.489582E+03 -3.095707E+05  9.459850E+03  1.849715E+03
       347  26 -7.000987E+05 -1.495557E+05 -5.230433E+03 -3.192340E+05  7.638090E+03  5.657558E+03
       347  27 -7.445995E+05 -1.698141E+05 -1.220788E+04 -3.363337E+05  5.812563E+03  9.475356E+03
       348   1 -5.595512E+05 -1.037015E+05  1.583252E+04 -2.843014E+05  1.146918E+04 -5.608569E+03
       348   2 -5.150736E+05 -8.345717E+04  2.281636E+04 -2.672020E+05  1.327299E+04 -9.429111E+03
       348   3 -4.641437E+05 -6.971811E+04  2.955895E+04 -2.575339E+05  1.507055E+04 -1.323188E+04
       348   4 -6.670851E+05 -1.421294E+05 -5.690657E+02 -3.145207E+05  3.307889E+03 -8.674624E+03
       348   5 -6.703092E+05 -1.388767E+05 -7.206049E+02 -3.108042E+05  5.147852E+03 -1.248206E+04
       348   6 -6.670905E+05 -1.421366E+05 -1.142111E+03 -3.145199E+05  6.981550E+03 -1.627176E+04
       348   7 -7.746050E+05 -1.805556E+05 -1.697016E+04 -3.447346E+05 -4.851811E+03 -1.174008E+04
       348   8 -8.255186E+05 -1.942937E+05 -2.425760E+04 -3.543961E+05 -2.975142E+03 -1.553421E+04
       348   9 -8.699949E+05 -2.145516E+05 -3.184410E+04 -3.714890E+05 -1.104755E+03 -1.931063E+04
       348  10 -5.595514E+05 -1.037016E+05  1.583221E+04 -2.843014E+05  7.815879E-10  1.088681E-09
       348  11 -5.150738E+05 -8.345731E+04  2.281586E+04 -2.672019E+05 -5.919524E-10  8.771634E-10
       348  12 -4.641440E+05 -6.971836E+04  2.955819E+04 -2.575338E+05 -2.304673E-09  6.681899E-11
       348  13 -6.670851E+05 -1.421295E+05 -5.692276E+02 -3.145207E+05 -4.941090E-10  1.815880E-09
       348  14 -6.703093E+05 -1.388769E+05 -7.209474E+02 -3.108042E+05 -2.077730E-09  4.730271E-10
       348  15 -6.670906E+05 -1.421369E+05 -1.142700E+03 -3.145199E+05  1.330182E-10  4.471099E-10
       348  16 -7.746050E+05 -1.805557E+05 -1.697047E+04 -3.447347E+05 -9.183695E-10  6.002968E-10
       348  17 -8.255186E+05 -1.942939E+05 -2.425807E+04 -3.543962E+05 -8.055654E-10  2.929727E-09
       348  18 -8.699950E+05 -2.145520E+05 -3.184480E+04 -3.714891E+05 -3.972079E-10  1.363505E-09
       348  19 -5.595512E+05 -1.037015E+05  1.583252E+04 -2.843014E+05 -1.146918E+04  5.608569E+03
       348  20 -5.150736E+05 -8.345717E+04  2.281636E+04 -2.672020E+05 -1.327299E+04  9.429111E+03
       348  21 -4.641437E+05 -6.971811E+04  2.955895E+04 -2.575339E+05 -1.507055E+04  1.323188E+04
       348  22 -6.670851E+05 -1.421294E+05 -5.690657E+02 -3.145207E+05 -3.307889E+03  8.674624E+03
       348  23 -6.703092E+05 -1.388767E+05 -7.206049E+02 -3.108042E+05 -5.147852E+03  1.248206E+04
       348  24 -6.670905E+05 -1.421366E+05 -1.142111E+03 -3.145199E+05 -6.981550E+03  1.627176E+04
       348  25 -7.746050E+05 -1.805556E+05 -1.697016E+04 -3.447346E+05  4.851811E+03  1.174008E+04
       348  26 -8.255186E+05 -1.942937E+05 -2.425760E+04 -3.543961E+05  2.975142E+03  1.553421E+04
       348  27 -8.699949E+05 -2.145516E+05 -3.184410E+04 -3.714890E+05  1.104755E+03  1.931063E+04
       349   1 -4.341689E+05 -5.899914E+04  3.400241E+04 -2.491736E+05  1.614774E+04 -1.543498E+04
       349   2 -3.897286E+05 -3.874798E+04  4.013199E+04 -2.320056E+05  1.856363E+04 -1.890295E+04
       349   3 -3.390065E+05 -2.519387E+04  4.548303E+04 -2.222267E+05  2.091851E+04 -2.220648E+04
       349   4 -6.671366E+05 -1.421342E+05 -1.481270E+03 -3.145340E+05  8.055426E+03 -1.847652E+04
       349   5 -6.702727E+05 -1.389238E+05 -2.628083E+03 -3.107767E+05  1.080996E+04 -2.181809E+04
       349   6 -6.671966E+05 -1.424782E+05 -4.822326E+03 -3.144098E+05  1.350338E+04 -2.499522E+04
       349   7 -9.000452E+05 -2.252635E+05 -3.696539E+04 -3.798712E+05 -3.367684E+01 -2.151685E+04
       349   8 -9.507297E+05 -2.390906E+05 -4.538848E+04 -3.895137E+05  3.060039E+03 -2.473183E+04
       349   9 -9.952659E+05 -2.597495E+05 -5.512787E+04 -4.065458E+05  6.092483E+03 -2.778236E+04
       349  10 -4.341693E+05 -5.899947E+04  3.400148E+04 -2.491733E+05 -3.100732E-09 -6.550996E-10
       349  11 -3.897291E+05 -3.874845E+04  4.013067E+04 -2.320053E+05 -2.329678E-09 -2.496018E-10
       349  12 -3.390071E+05 -2.519452E+04  4.548129E+04 -2.222264E+05 -1.747412E-09 -4.029595E-11
       349  13 -6.671367E+05 -1.421346E+05 -1.482033E+03 -3.145339E+05 -2.017832E-09  1.300118E-09
       349  14 -6.702730E+05 -1.389244E+05 -2.629196E+03 -3.107765E+05 -4.862341E-10  2.292443E-09
       349  15 -6.671969E+05 -1.424789E+05 -4.823842E+03 -3.144095E+05 -1.723758E-09  7.094152E-10
       349  16 -9.000453E+05 -2.252640E+05 -3.696626E+04 -3.798712E+05  9.555451E-10  3.284326E-09
       349  17 -9.507298E+05 -2.390912E+05 -4.538965E+04 -3.895136E+05  2.294810E-09  2.918435E-09
       349  18 -9.952661E+05 -2.597503E+05 -5.512939E+04 -4.065456E+05  1.082619E-09  2.192165E-09
       349  19 -4.341689E+05 -5.899914E+04  3.400241E+04 -2.491736E+05 -1.614774E+04  1.543498E+04
       349  20 -3.897286E+05 -3.874798E+04  4.013199E+04 -2.320056E+05 -1.856363E+04  1.890295E+04
       349  21 -3.390065E+05 -2.519387E+04  4.548303E+04 -2.222267E+05 -2.091851E+04  2.220648E+04
       349  22 -6.671366E+05 -1.421342E+05 -1.481270E+03 -3.145340E+05 -8.055426E+03  1.847652E+04
       349  23 -6.702727E+05 -1.389238E+05 -2.628083E+03 -3.107767E+05 -1.080996E+04  2.181809E+04
       349  24 -6.671966E+05 -1.424782E+05 -4.822326E+03 -3.144098E+05 -1.350338E+04  2.499522E+04
       349  25 -9.000452E+05 -2.252635E+05 -3.696539E+04 -3.798712E+05  3.367684E+01  2.151685E+04
       349  26 -9.507297E+05 -2.390906E+05 -4.538848E+04 -3.895137E+05 -3.060039E+03  2.473183E+04
       349  27 -9.952659E+05 -2.597495E+05 -5.512787E+04 -4.065458E+05 -6.092483E+03  2.778236E+04
       350   1 -3.090396E+05 -1.476618E+04  4.886113E+04 -2.142208E+05  2.264668E+04 -2.401214E+04
       350   2 -2.658240E+05  5.829757E+03  5.207136E+04 -1.947770E+05  2.665854E+04 -2.577713E+04
       350   3 -2.178049E+05  1.676618E+04  5.221837E+04 -1.818846E+05  3.011159E+04 -2.605330E+04
       350   4 -6.675496E+05 -1.425628E+05 -6.441881E+03 -3.144858E+05  1.518036E+04 -2.682070E+04
       350   5 -6.701106E+05 -1.406590E+05 -1.190054E+04 -3.099983E+05  2.226471E+04 -2.743171E+04
       350   6 -6.684819E+05 -1.490268E+05 -2.286128E+04 -3.120641E+05  2.878983E+04 -2.655342E+04
       350   7 -1.025925E+06 -2.703478E+05 -6.174786E+04 -4.146976E+05  7.718502E+03 -2.962761E+04
       350   8 -1.074224E+06 -2.871307E+05 -7.587603E+04 -4.251493E+05  1.787389E+04 -2.908513E+04
       350   9 -1.118942E+06 -3.147967E+05 -9.794587E+04 -4.421541E+05  2.746909E+04 -2.705314E+04
       350  10 -3.090403E+05 -1.476694E+04  4.885908E+04 -2.142203E+05 -4.895569E-09 -1.012015E-09
       350  11 -2.658249E+05  5.828853E+03  5.206878E+04 -1.947765E+05 -3.510058E-08 -1.014886E-08
       350  12 -2.178061E+05  1.676521E+04  5.221539E+04 -1.818840E+05 -6.989476E-08 -1.874467E-08
       350  13 -6.675500E+05 -1.425637E+05 -6.443665E+03 -3.144855E+05  4.279292E-10 -6.391210E-10
       350  14 -6.701114E+05 -1.406599E+05 -1.190288E+04 -3.099978E+05  3.345645E-09 -7.274957E-09
       350  15 -6.684830E+05 -1.490278E+05 -2.286416E+04 -3.120635E+05  1.196361E-09 -1.447349E-08
       350  16 -1.025925E+06 -2.703488E+05 -6.174962E+04 -4.146974E+05  6.143493E-09  3.450555E-09
       350  17 -1.074224E+06 -2.871316E+05 -7.587822E+04 -4.251489E+05  3.432715E-08  1.672690E-08
       350  18 -1.118943E+06 -3.147977E+05 -9.794866E+04 -4.421535E+05  5.405457E-08  2.240140E-08
       350  19 -3.090396E+05 -1.476618E+04  4.886113E+04 -2.142208E+05 -2.264668E+04  2.401214E+04
       350  20 -2.658240E+05  5.829757E+03  5.207136E+04 -1.947770E+05 -2.665854E+04  2.577713E+04
       350  21 -2.178049E+05  1.676618E+04  5.221837E+04 -1.818846E+05 -3.011159E+04  2.605330E+04
       350  22 -6.675496E+05 -1.425628E+05 -6.441881E+03 -3.144858E+05 -1.518036E+04  2.682070E+04
       350  23 -6.701106E+05 -1.406590E+05 -1.190054E+04 -3.099983E+05 -2.226471E+04  2.743171E+04
       350  24 -6.684819E+05 -1.490268E+05 -2.286128E+04 -3.120641E+05 -2.878983E+04  2.655342E+04
       350  25 -1.025925E+06 -2.703478E+05 -6.174786E+04 -4.146976E+05 -7.718502E+03  2.962761E+04
       350  26 -1.074224E+06 -2.871307E+05 -7.587603E+04 -4.251493E+05 -1.787389E+04  2.908513E+04
       350  27 -1.118942E+06 -3.147967E+05 -9.794587E+04 -4.421541E+05 -2.746909E+04  2.705314E+04
       351   1 -1.875400E+05  2.331771E+04  5.136034E+04 -1.773434E+05  3.442993E+04 -2.551784E+04
       351   2 -1.654333E+05  4.899911E+04  4.452999E+04 -1.221079E+05  3.465831E+04 -1.866378E+04
       351   3 -1.551168E+05  2.364110E+04  2.337994E+04 -6.107244E+04  2.976515E+04  1.797966E+03
       351   4 -6.720740E+05 -1.508175E+05 -3.075500E+04 -3.125247E+05  3.260439E+04 -2.620759E+04
       351   5 -6.700110E+05 -1.691396E+05 -5.913042E+04 -2.978937E+05  6.094251E+04 -8.780116E+03
       351   6 -6.853318E+05 -2.441055E+05 -1.241271E+05 -2.774616E+05  8.415543E+04  2.225974E+04
       351   7 -1.156357E+06 -3.249292E+05 -1.128763E+05 -4.476071E+05  3.078035E+04 -2.689678E+04
       351   8 -1.174308E+06 -3.872195E+05 -1.627972E+05 -4.735328E+05  8.720339E+04  1.091121E+03
       351   9 -1.215233E+06 -5.117460E+05 -2.716403E+05 -4.936509E+05  1.384933E+05  4.268652E+04
       351  10 -1.875414E+05  2.331669E+04  5.135689E+04 -1.773426E+05  4.289735E-08  2.350568E-08
       351  11 -1.654347E+05  4.899842E+04  4.452707E+04 -1.221074E+05  3.742344E-08  2.016286E-08
       351  12 -1.551178E+05  2.364086E+04  2.337827E+04 -6.107248E+04  1.270173E-08  7.300334E-09
       351  13 -6.720754E+05 -1.508185E+05 -3.075829E+04 -3.125240E+05  5.332856E-09 -1.509850E-08
       351  14 -6.700150E+05 -1.691407E+05 -5.913755E+04 -2.978933E+05  1.257899E-08 -4.256192E-09
       351  15 -6.853395E+05 -2.441079E+05 -1.241414E+05 -2.774631E+05  4.452046E-09  1.262367E-09
       351  16 -1.156358E+06 -3.249302E+05 -1.128794E+05 -4.476064E+05 -5.051136E-08 -1.753481E-08
       351  17 -1.174316E+06 -3.872216E+05 -1.628115E+05 -4.735328E+05 -2.441968E-08 -5.635613E-09
       351  18 -1.215254E+06 -5.117532E+05 -2.716799E+05 -4.936557E+05 -5.502387E-09 -2.845399E-09
       351  19 -1.875400E+05  2.331771E+04  5.136034E+04 -1.773434E+05 -3.442993E+04  2.551784E+04
       351  20 -1.654333E+05  4.899911E+04  4.452999E+04 -1.221079E+05 -3.465831E+04  1.866378E+04
       351  21 -1.551168E+05  2.364110E+04  2.337994E+04 -6.107244E+04 -2.976515E+04 -1.797966E+03
       351  22 -6.720740E+05 -1.508175E+05 -3.075500E+04 -3.125247E+05 -3.260439E+04  2.620759E+04
       351  23 -6.700110E+05 -1.691396E+05 -5.913042E+04 -2.978937E+05 -6.094251E+04  8.780116E+03
       351  24 -6.853318E+05 -2.441055E+05 -1.241271E+05 -2.774616E+05 -8.415543E+04 -2.225974E+04
       351  25 -1.156357E+06 -3.249292E+05 -1.128763E+05 -4.476071E+05 -3.078035E+04  2.689678E+04
       351  26 -1.174308E+06 -3.872195E+05 -1.627972E+05 -4.735328E+05 -8.720339E+04 -1.091121E+03
       351  27 -1.215233E+06 -5.117460E+05 -2.716403E+05 -4.936509E+05 -1.384933E+05 -4.268652E+04
       352   1 -3.801092E+05 -7.090248E+04 -1.122082E+05 -3.367581E+04 -1.257728E+05 -2.966082E+03
       352   2 -3.689664E+05  9.844574E+04 -1.060262E+04 -1.068373E+04 -8.381519E+04 -8.626911E+03
       352   3 -4.108167E+05  7.730821E+04  1.608878E+04  2.556733E+04 -4.186736E+04 -7.975280E+03
       352   4 -6.926089E+05 -1.488069E+05 -1.895629E+05  7.306777E+03 -1.295523E+05 -2.978722E+03
       352   5 -6.658386E+05  2.470318E+04 -8.246139E+04  5.858221E+02 -8.489051E+04 -8.630150E+03
       352   6 -6.925594E+05  7.205340E+03 -5.218001E+04  7.124166E+03 -4.023729E+04 -7.971805E+03
       352   7 -1.005016E+06 -2.267122E+05 -2.669239E+05  4.826868E+04 -1.333298E+05 -2.991868E+03
       352   8 -9.626300E+05 -4.904536E+04 -1.543264E+05  1.184994E+04 -8.596532E+04 -8.633430E+03
       352   9 -9.742288E+05 -6.290209E+04 -1.204543E+05 -1.131062E+04 -3.860795E+04 -7.968427E+03
       352  10 -3.801262E+05 -7.090674E+04 -1.122379E+05 -3.367611E+04 -9.384649E-10  5.502189E-10
       352  11 -3.689739E+05  9.844377E+04 -1.061597E+04 -1.068431E+04  5.807918E-10 -7.230347E-10
       352  12 -4.108186E+05  7.730767E+04  1.608537E+04  2.556706E+04  1.116793E-09 -2.925390E-09
       352  13 -6.926270E+05 -1.488114E+05 -1.895945E+05  7.306466E+03 -6.928636E-10  1.639835E-09
       352  14 -6.658464E+05  2.470116E+04 -8.247509E+04  5.852319E+02 -2.689766E-09  2.753794E-10
       352  15 -6.925611E+05  7.204836E+03 -5.218318E+04  7.123908E+03 -1.691794E-09 -1.472121E-10
       352  16 -1.005035E+06 -2.267170E+05 -2.669573E+05  4.826836E+04 -5.548952E-10  1.346088E-09
       352  17 -9.626380E+05 -4.904742E+04 -1.543405E+05  1.184934E+04 -1.614600E-10 -2.277512E-09
       352  18 -9.742304E+05 -6.290256E+04 -1.204573E+05 -1.131087E+04 -1.983376E-10 -4.323954E-09
       352  19 -3.801092E+05 -7.090248E+04 -1.122082E+05 -3.367581E+04  1.257728E+05  2.966082E+03
       352  20 -3.689664E+05  9.844574E+04 -1.060262E+04 -1.068373E+04  8.381519E+04  8.626911E+03
       352  21 -4.108167E+05  7.730821E+04  1.608878E+04  2.556733E+04  4.186736E+04  7.975280E+03
       352  22 -6.926089E+05 -1.488069E+05 -1.895629E+05  7.306777E+03  1.295523E+05  2.978722E+03
       352  23 -6.658386E+05  2.470318E+04 -8.246139E+04  5.858221E+02  8.489051E+04  8.630150E+03
       352  24 -6.925594E+05  7.205340E+03 -5.218001E+04  7.124166E+03  4.023729E+04  7.971805E+03
       352  25 -1.005016E+06 -2.267122E+05 -2.669239E+05  4.826868E+04  1.333298E+05  2.991868E+03
       352  26 -9.626300E+05 -4.904536E+04 -1.543264E+05  1.184994E+04  8.596532E+04  8.633430E+03
       352  27 -9.742288E+05 -6.290209E+04 -1.204543E+05 -1.131062E+04  3.860795E+04  7.968427E+03
       353   1 -4.260533E+05  4.643701E+04  1.947227E+04  3.324301E+03 -3.192075E+04 -6.693533E+03
       353   2 -4.388196E+05  6.255626E+04  3.673222E+04 -4.498421E+02 -2.112470E+04 -6.621197E+03
       353   3 -4.585152E+05  5.648760E+04  4.141923E+04  9.913187E+03 -1.032996E+04 -5.973920E+03
       353   4 -6.822309E+05 -1.725560E+04 -4.274050E+04  7.401172E+03 -3.201226E+04 -6.694087E+03
       353   5 -6.787389E+05  2.914468E+03 -2.143232E+04  3.171348E+02 -2.097208E+04 -6.621126E+03
       353   6 -6.822214E+05  8.493789E+02 -1.287041E+04  7.370654E+03 -9.932947E+03 -5.973240E+03
       353   7 -9.383484E+05 -8.095297E+04 -1.049580E+05  1.147633E+04 -3.210373E+04 -6.694643E+03
       353   8 -9.186054E+05 -5.673155E+04 -7.960102E+04  1.083791E+03 -2.081953E+04 -6.621055E+03
       353   9 -9.058820E+05 -5.479250E+04 -6.716366E+04  4.829019E+03 -9.536071E+03 -5.972563E+03
       353  10 -4.260544E+05  4.643669E+04  1.947027E+04  3.324129E+03 -2.873215E-09 -4.745400E-09
       353  11 -4.388201E+05  6.255610E+04  3.673130E+04 -4.499548E+02 -1.474333E-09  1.492361E-09
       353  12 -4.585153E+05  5.648753E+04  4.141896E+04  9.913137E+03 -1.895777E-09  3.011767E-09
       353  13 -6.822320E+05 -1.725592E+04 -4.274252E+04  7.401000E+03 -1.318620E-09 -3.393455E-09
       353  14 -6.787393E+05  2.914302E+03 -2.143323E+04  3.170230E+02 -1.067257E-09 -5.536356E-10
       353  15 -6.822216E+05  8.493141E+02 -1.287066E+04  7.370607E+03  7.544053E-10 -8.283565E-10
       353  16 -9.383495E+05 -8.095329E+04 -1.049600E+05  1.147616E+04  6.546018E-10 -1.804437E-09
       353  17 -9.186059E+05 -5.673171E+04 -7.960191E+04  1.083680E+03  1.279699E-09 -2.901182E-10
       353  18 -9.058821E+05 -5.479256E+04 -6.716390E+04  4.828973E+03  3.073565E-09  1.832604E-09
       353  19 -4.260533E+05  4.643701E+04  1.947227E+04  3.324301E+03  3.192075E+04  6.693533E+03
       353  20 -4.388196E+05  6.255626E+04  3.673222E+04 -4.498421E+02  2.112470E+04  6.621197E+03
       353  21 -4.585152E+05  5.648760E+04  4.141923E+04  9.913187E+03  1.032996E+04  5.973920E+03
       353  22 -6.822309E+05 -1.725560E+04 -4.274050E+04  7.401172E+03  3.201226E+04  6.694087E+03
       353  23 -6.787389E+05  2.914468E+03 -2.143232E+04  3.171348E+02  2.097208E+04  6.621126E+03
       353  24 -6.822214E+05  8.493789E+02 -1.287041E+04  7.370654E+03  9.932947E+03  5.973240E+03
       353  25 -9.383484E+05 -8.095297E+04 -1.049580E+05  1.147633E+04  3.210373E+04  6.694643E+03
       353  26 -9.186054E+05 -5.673155E+04 -7.960102E+04  1.083791E+03  2.081953E+04  6.621055E+03
       353  27 -9.058820E+05 -5.479250E+04 -6.716366E+04  4.829019E+03  9.536071E+03  5.972563E+03
       354   1 -4.841961E+05  4.694047E+04  3.752269E+04  7.427352E+03 -8.138009E+03 -5.518103E+03
       354   2 -5.006755E+05  4.502713E+04  3.808206E+04  3.602280E+02 -5.399421E+03 -4.918438E+03
       354   3 -5.181718E+05  4.059699E+04  3.622171E+04  8.087361E+03 -2.661306E+03 -4.257067E+03
       354   4 -6.808966E+05 -1.955280E+03 -1.013649E+04  7.529615E+03 -7.893193E+03 -5.517718E+03
       354   5 -6.803843E+05  3.463802E+02 -5.494439E+03  1.301668E+02 -5.128754E+03 -4.917941E+03
       354   6 -6.808942E+05  1.263046E+02 -3.290636E+03  7.525251E+03 -2.364714E+03 -4.256453E+03
       354   7 -8.775616E+05 -5.085388E+04 -5.779845E+04  7.631828E+03 -7.648455E+03 -5.517334E+03
       354   8 -8.600636E+05 -4.433674E+04 -4.907327E+04 -9.984367E+01 -4.858166E+03 -4.917445E+03
       354   9 -8.435923E+05 -4.034633E+04 -4.280490E+04  6.963276E+03 -2.068199E+03 -4.255839E+03
       354  10 -4.841962E+05  4.694042E+04  3.752251E+04  7.427316E+03 -3.277102E-09  4.537335E-09
       354  11 -5.006756E+05  4.502709E+04  3.808196E+04  3.602066E+02 -1.423912E-09  3.583049E-09
       354  12 -5.181718E+05  4.059697E+04  3.622166E+04  8.087352E+03  4.494155E-09 -4.898493E-10
       354  13 -6.808967E+05 -1.955330E+03 -1.013666E+04  7.529580E+03  4.996263E-10 -1.295838E-09
       354  14 -6.803844E+05  3.463471E+02 -5.494534E+03  1.301464E+02 -1.091806E-09  3.322805E-09
       354  15 -6.808942E+05  1.262836E+02 -3.290680E+03  7.525243E+03 -9.743490E-11  5.799597E-09
       354  16 -8.775617E+05 -5.085392E+04 -5.779862E+04  7.631794E+03  4.783642E-09  3.104388E-09
       354  17 -8.600637E+05 -4.433677E+04 -4.907336E+04 -9.986291E+01  1.778839E-09  2.801722E-09
       354  18 -8.435923E+05 -4.034635E+04 -4.280494E+04  6.963268E+03 -3.385091E-09  2.844358E-09
       354  19 -4.841961E+05  4.694047E+04  3.752269E+04  7.427352E+03  8.138009E+03  5.518103E+03
       354  20 -5.006755E+05  4.502713E+04  3.808206E+04  3.602280E+02  5.399421E+03  4.918438E+03
       354  21 -5.181718E+05  4.059699E+04  3.622171E+04  8.087361E+03  2.661306E+03  4.257067E+03
       354  22 -6.808966E+05 -1.955280E+03 -1.013649E+04  7.529615E+03  7.893193E+03  5.517718E+03
       354  23 -6.803843E+05  3.463802E+02 -5.494439E+03  1.301668E+02  5.128754E+03  4.917941E+03
       354  24 -6.808942E+05  1.263046E+02 -3.290636E+03  7.525251E+03  2.364714E+03  4.256453E+03
       354  25 -8.775616E+05 -5.085388E+04 -5.779845E+04  7.631828E+03  7.648455E+03  5.517334E+03
       354  26 -8.600636E+05 -4.433674E+04 -4.907327E+04 -9.984367E+01  4.858166E+03  4.917445E+03
       354  27 -8.435923E+05 -4.034633E+04 -4.280490E+04  6.963276E+03  2.068199E+03  4.255839E+03
       355   1 -5.460698E+05  3.328230E+04  2.999844E+04  7.845757E+03 -2.120650E+03 -3.863196E+03
       355   2 -5.634806E+05  2.916822E+04  2.677141E+04  2.186802E+02 -1.316364E+03 -3.199157E+03
       355   3 -5.811297E+05  2.480718E+04  2.294342E+04  7.855750E+03 -5.123297E+02 -2.523058E+03
       355   4 -6.807180E+05 -1.860184E+02 -2.601377E+03  7.631436E+03 -1.837138E+03 -3.862578E+03
       355   5 -6.805977E+05  4.796344E+01 -1.629237E+03 -9.892047E-01 -1.027807E+03 -3.198490E+03
       355   6 -6.807171E+05  3.401808E+01 -1.261708E+03  7.630911E+03 -2.187044E+02 -2.522340E+03
       355   7 -8.153496E+05 -3.365567E+04 -3.520250E+04  7.417153E+03 -1.553688E+03 -3.861961E+03
       355   8 -7.977022E+05 -2.907330E+04 -3.003087E+04 -2.206247E+02 -7.393041E+02 -3.197823E+03
       355   9 -7.802955E+05 -2.473988E+04 -2.546755E+04  7.406103E+03  7.487397E+01 -2.521622E+03
       355  10 -5.460698E+05  3.328228E+04  2.999841E+04  7.845750E+03  4.563259E-09 -1.235877E-09
       355  11 -5.634806E+05  2.916821E+04  2.677139E+04  2.186768E+02 -1.592738E-10  6.875782E-09
       355  12 -5.811297E+05  2.480717E+04  2.294340E+04  7.855749E+03 -6.805490E-11  5.634537E-09
       355  13 -6.807180E+05 -1.860353E+02 -2.601411E+03  7.631431E+03  1.247542E-09  8.762974E-10
       355  14 -6.805977E+05  4.795218E+01 -1.629258E+03 -9.918529E-01  5.804956E-10  4.164152E-09
       355  15 -6.807171E+05  3.401124E+01 -1.261720E+03  7.630911E+03  1.213294E-09  7.848804E-10
       355  16 -8.153496E+05 -3.365568E+04 -3.520253E+04  7.417148E+03 -3.230888E-09  1.958634E-09
       355  17 -7.977022E+05 -2.907331E+04 -3.003089E+04 -2.206266E+02  3.731122E-10 -2.055734E-09
       355  18 -7.802955E+05 -2.473988E+04 -2.546756E+04  7.406103E+03  4.678138E-10 -1.210940E-09
       355  19 -5.460698E+05  3.328230E+04  2.999844E+04  7.845757E+03  2.120650E+03  3.863196E+03
       355  20 -5.634806E+05  2.916822E+04  2.677141E+04  2.186802E+02  1.316364E+03  3.199157E+03
       355  21 -5.811297E+05  2.480718E+04  2.294342E+04  7.855750E+03  5.123297E+02  2.523058E+03
       355  22 -6.807180E+05 -1.860184E+02 -2.601377E+03  7.631436E+03  1.837138E+03  3.862578E+03
       355  23 -6.805977E+05  4.796344E+01 -1.629237E+03 -9.892047E-01  1.027807E+03  3.198490E+03
       355  24 -6.807171E+05  3.401808E+01 -1.261708E+03  7.630911E+03  2.187044E+02  2.522340E+03
       355  25 -8.153496E+05 -3.365567E+04 -3.520250E+04  7.417153E+03  1.553688E+03  3.861961E+03
       355  26 -7.977022E+05 -2.907330E+04 -3.003087E+04 -2.206247E+02  7.393041E+02  3.197823E+03
       355  27 -7.802955E+05 -2.473988E+04 -2.546755E+04  7.406103E+03 -7.487397E+01  2.521622E+03
       356   1 -6.098970E+05  1.762352E+04  1.589476E+04  7.802230E+03 -2.888634E+02 -2.126445E+03
       356   2 -6.276189E+05  1.321598E+04  1.143018E+04  2.405644E+01  4.141151E+02 -1.444405E+03
       356   3 -6.455762E+05  8.619643E+03  6.439885E+03  7.783716E+03  1.116993E+03 -7.606923E+02
       356   4 -6.807148E+05  2.572921E+01 -1.224539E+03  7.691754E+03  4.418148E+00 -2.125707E+03
       356   5 -6.805969E+05  4.285454E+01 -1.417467E+03 -7.699933E+01  7.080610E+02 -1.443649E+03
       356   6 -6.807147E+05 -1.288635E+02 -2.136508E+03  7.692163E+03  1.411623E+03 -7.599158E+02
       356   7 -7.515280E+05 -1.757243E+04 -1.834420E+04  7.581288E+03  2.976663E+02 -2.124969E+03
       356   8 -7.335725E+05 -1.313048E+04 -1.426532E+04 -1.780481E+02  1.001982E+03 -1.442892E+03
       356   9 -7.158521E+05 -8.877461E+03 -1.071299E+04  7.600615E+03  1.706236E+03 -7.591393E+02
       356  10 -6.098970E+05  1.762351E+04  1.589475E+04  7.802230E+03  3.719837E-09  2.824582E-09
       356  11 -6.276189E+05  1.321598E+04  1.143018E+04  2.405693E+01  1.421298E-09  8.463212E-10
       356  12 -6.455762E+05  8.619642E+03  6.439882E+03  7.783717E+03  1.053963E-09 -4.106324E-09
       356  13 -6.807148E+05  2.572436E+01 -1.224547E+03  7.691754E+03 -1.828574E-10  6.816870E-09
       356  14 -6.805969E+05  4.285217E+01 -1.417472E+03 -7.699851E+01 -4.015463E-09  2.398002E-10
       356  15 -6.807147E+05 -1.288646E+02 -2.136513E+03  7.692164E+03 -1.014922E-09 -3.417722E-09
       356  16 -7.515280E+05 -1.757243E+04 -1.834421E+04  7.581288E+03 -2.412923E-09  3.717711E-09
       356  17 -7.335725E+05 -1.313048E+04 -1.426532E+04 -1.780469E+02 -4.846526E-10 -2.262414E-09
       356  18 -7.158521E+05 -8.877463E+03 -1.071300E+04  7.600616E+03  2.439894E-09 -4.229307E-09
       356  19 -6.098970E+05  1.762352E+04  1.589476E+04  7.802230E+03  2.888634E+02  2.126445E+03
       356  20 -6.276189E+05  1.321598E+04  1.143018E+04  2.405644E+01 -4.141151E+02  1.444405E+03
       356  21 -6.455762E+05  8.619643E+03  6.439885E+03  7.783716E+03 -1.116993E+03  7.606923E+02
       356  22 -6.807148E+05  2.572921E+01 -1.224539E+03  7.691754E+03 -4.418148E+00  2.125707E+03
       356  23 -6.805969E+05  4.285454E+01 -1.417467E+03 -7.699933E+01 -7.080610E+02  1.443649E+03
       356  24 -6.807147E+05 -1.288635E+02 -2.136508E+03  7.692163E+03 -1.411623E+03  7.599158E+02
       356  25 -7.515280E+05 -1.757243E+04 -1.834420E+04  7.581288E+03 -2.976663E+02  2.124969E+03
       356  26 -7.335725E+05 -1.313048E+04 -1.426532E+04 -1.780481E+02 -1.001982E+03  1.442892E+03
       356  27 -7.158521E+05 -8.877461E+03 -1.071299E+04  7.600615E+03 -1.706236E+03  7.591393E+02
       357   1 -6.748017E+05  1.609049E+03 -1.254552E+03  7.497174E+03  1.540085E+03 -3.562901E+02
       357   2 -6.922752E+05 -2.666181E+03 -7.264193E+03 -6.794107E+01  3.759139E+03  3.352328E+02
       357   3 -7.106347E+05 -8.918616E+03 -1.523578E+04  7.972273E+03  5.978214E+03  1.000006E+03
       357   4 -6.808584E+05  1.154227E+02 -2.668231E+03  7.705453E+03  1.841824E+03 -3.554891E+02
       357   5 -6.804170E+05  2.820866E+02 -4.388905E+03 -9.504250E+01  4.049370E+03  3.359980E+02
       357   6 -6.808598E+05 -1.526391E+03 -8.063442E+03  7.709779E+03  6.257000E+03  1.000735E+03
       357   7 -6.869151E+05 -1.378206E+03 -4.081912E+03  7.913731E+03  2.143560E+03 -3.546879E+02
       357   8 -6.685586E+05  3.230344E+03 -1.513628E+03 -1.221445E+02  4.339606E+03  3.367631E+02
       357   9 -6.510840E+05  5.865770E+03 -8.911657E+02  7.447272E+03  6.535799E+03  1.001463E+03
       357  10 -6.748017E+05  1.609048E+03 -1.254557E+03  7.497175E+03 -5.529862E-10  1.759453E-09
       357  11 -6.922752E+05 -2.666185E+03 -7.264220E+03 -6.794209E+01 -1.814279E-09  3.126478E-09
       357  12 -7.106348E+05 -8.918627E+03 -1.523585E+04  7.972269E+03 -2.775078E-10  5.230753E-11
       357  13 -6.808584E+05  1.154217E+02 -2.668238E+03  7.705454E+03  3.748279E-10 -1.528801E-09
       357  14 -6.804170E+05  2.820821E+02 -4.388936E+03 -9.504360E+01 -3.763926E-09  1.547871E-09
       357  15 -6.808598E+05 -1.526403E+03 -8.063517E+03  7.709774E+03 -9.384348E-10  1.298622E-09
       357  16 -6.869151E+05 -1.378207E+03 -4.081921E+03  7.913731E+03  6.623963E-10  2.859952E-10
       357  17 -6.685586E+05  3.230339E+03 -1.513663E+03 -1.221457E+02  1.749877E-09 -6.844362E-09
       357  18 -6.510841E+05  5.865757E+03 -8.912480E+02  7.447267E+03  2.904263E-09 -3.596679E-10
       357  19 -6.748017E+05  1.609049E+03 -1.254552E+03  7.497174E+03 -1.540085E+03  3.562901E+02
       357  20 -6.922752E+05 -2.666181E+03 -7.264193E+03 -6.794107E+01 -3.759139E+03 -3.352328E+02
       357  21 -7.106347E+05 -8.918616E+03 -1.523578E+04  7.972273E+03 -5.978214E+03 -1.000006E+03
       357  22 -6.808584E+05  1.154227E+02 -2.668231E+03  7.705453E+03 -1.841824E+03  3.554891E+02
       357  23 -6.804170E+05  2.820866E+02 -4.388905E+03 -9.504250E+01 -4.049370E+03 -3.359980E+02
       357  24 -6.808598E+05 -1.526391E+03 -8.063442E+03  7.709779E+03 -6.257000E+03 -1.000735E+03
       357  25 -6.869151E+05 -1.378206E+03 -4.081912E+03  7.913731E+03 -2.143560E+03  3.546879E+02
       357  26 -6.685586E+05  3.230344E+03 -1.513628E+03 -1.221445E+02 -4.339606E+03 -3.367631E+02
       357  27 -6.510840E+05  5.865770E+03 -8.911657E+02  7.447272E+03 -6.535799E+03 -1.001463E+03
       358   1 -7.406925E+05 -1.393998E+04 -2.453788E+04  5.800217E+03  7.519555E+03  1.445338E+03
       358   2 -7.556335E+05 -1.670119E+04 -3.556774E+04  6.620681E+02  1.641058E+04  2.150056E+03
       358   3 -7.762342E+05 -3.710106E+04 -5.681987E+04  1.100985E+04  2.530204E+04  2.555188E+03
       358   4 -6.819157E+05  6.975162E+02 -1.023055E+04  7.668684E+03  7.878958E+03  1.446292E+03
       358   5 -6.791007E+05  2.323663E+03 -1.701297E+04 -5.616818E+01  1.664163E+04  2.150608E+03
       358   6 -6.819228E+05 -1.366533E+04 -3.392745E+04  7.704897E+03  2.540498E+04  2.555279E+03
       358   7 -6.231357E+05  1.533477E+04  4.076519E+03  9.537327E+03  8.238394E+03  1.447248E+03
       358   8 -6.025626E+05  2.134809E+04  1.541380E+03 -7.744968E+02  1.687270E+04  2.151158E+03
       358   9 -5.876033E+05  9.769788E+03 -1.103566E+04  4.399438E+03  2.550794E+04  2.555370E+03
       358  10 -7.406925E+05 -1.394000E+04 -2.453799E+04  5.800208E+03 -1.883304E-09  5.988852E-09
       358  11 -7.556338E+05 -1.670127E+04 -3.556826E+04  6.620397E+02 -2.996477E-10  4.483178E-09
       358  12 -7.762349E+05 -3.710124E+04 -5.682109E+04  1.100979E+04  2.591971E-09  2.080113E-09
       358  13 -6.819157E+05  6.974973E+02 -1.023068E+04  7.668675E+03  1.382019E-09  3.427923E-09
       358  14 -6.791010E+05  2.323584E+03 -1.701350E+04 -5.619701E+01  5.363456E-10  2.453279E-09
       358  15 -6.819235E+05 -1.366551E+04 -3.392867E+04  7.704845E+03 -1.122313E-09 -2.276650E-09
       358  16 -6.231358E+05  1.533475E+04  4.076387E+03  9.537317E+03  2.979650E-09  2.059504E-09
       358  17 -6.025629E+05  2.134801E+04  1.540836E+03 -7.745260E+02  7.463864E-10 -1.569619E-09
       358  18 -5.876040E+05  9.769606E+03 -1.103689E+04  4.399386E+03 -1.717789E-09 -4.863207E-09
       358  19 -7.406925E+05 -1.393998E+04 -2.453788E+04  5.800217E+03 -7.519555E+03 -1.445338E+03
       358  20 -7.556335E+05 -1.670119E+04 -3.556774E+04  6.620681E+02 -1.641058E+04 -2.150056E+03
       358  21 -7.762342E+05 -3.710106E+04 -5.681987E+04  1.100985E+04 -2.530204E+04 -2.555188E+03
       358  22 -6.819157E+05  6.975162E+02 -1.023055E+04  7.668684E+03 -7.878958E+03 -1.446292E+03
       358  23 -6.791007E+05  2.323663E+03 -1.701297E+04 -5.616818E+01 -1.664163E+04 -2.150608E+03
       358  24 -6.819228E+05 -1.366533E+04 -3.392745E+04  7.704897E+03 -2.540498E+04 -2.555279E+03
       358  25 -6.231357E+05  1.533477E+04  4.076519E+03  9.537327E+03 -8.238394E+03 -1.447248E+03
       358  26 -6.025626E+05  2.134809E+04  1.541380E+03 -7.744968E+02 -1.687270E+04 -2.151158E+03
       358  27 -5.876033E+05  9.769788E+03 -1.103566E+04  4.399438E+03 -2.550794E+04 -2.555370E+03
       359   1 -8.129228E+05 -2.487671E+04 -7.121578E+04 -7.060202E+03  3.092100E+04  3.444395E+03
       359   2 -8.090228E+05 -1.516915E+04 -9.936689E+04  8.969718E+03  6.778867E+04  4.206825E+03
       359   3 -8.479605E+05 -1.572978E+05 -1.895127E+05  4.027897E+04  1.046638E+05  1.638854E+03
       359   4 -6.901240E+05  5.748171E+03 -4.141931E+04  7.543053E+03  3.193418E+04  3.447567E+03
       359   5 -6.688544E+05  1.962055E+04 -6.544338E+04  4.494988E+01  6.737050E+04  4.204774E+03
       359   6 -6.901644E+05 -1.180780E+05 -1.504572E+05  7.827047E+03  1.028154E+05  1.629112E+03
       359   7 -5.673110E+05  3.637273E+04 -1.162382E+04  2.214920E+04  3.294755E+04  3.450788E+03
       359   8 -5.286679E+05  5.440912E+04 -3.152123E+04 -8.881852E+03  6.695223E+04  4.202736E+03
       359   9 -5.323434E+05 -7.885595E+04 -1.114031E+05 -2.463315E+04  1.009665E+05  1.619565E+03
       359  10 -8.129238E+05 -2.487698E+04 -7.121760E+04 -7.060288E+03 -1.214374E-09  2.042732E-09
       359  11 -8.090277E+05 -1.517040E+04 -9.937557E+04  8.969488E+03  1.049567E-10  1.502716E-09
       359  12 -8.479723E+05 -1.573008E+05 -1.895333E+05  4.027883E+04  2.110215E-09  6.172551E-10
       359  13 -6.901251E+05  5.747884E+03 -4.142125E+04  7.542964E+03  8.354841E-10  3.761924E-09
       359  14 -6.688593E+05  1.961932E+04 -6.545195E+04  4.472167E+01 -6.012923E-10 -1.350629E-09
       359  15 -6.901758E+05 -1.180808E+05 -1.504771E+05  7.826912E+03 -1.040724E-11  4.376880E-09
       359  16 -5.673122E+05  3.637243E+04 -1.162588E+04  2.214911E+04  1.644353E-09  3.621935E-09
       359  17 -5.286727E+05  5.440790E+04 -3.152969E+04 -8.882079E+03  1.330105E-10  2.438179E-09
       359  18 -5.323543E+05 -7.885870E+04 -1.114223E+05 -2.463328E+04 -8.515206E-10 -3.262426E-10
       359  19 -8.129228E+05 -2.487671E+04 -7.121578E+04 -7.060202E+03 -3.092100E+04 -3.444395E+03
       359  20 -8.090228E+05 -1.516915E+04 -9.936689E+04  8.969718E+03 -6.778867E+04 -4.206825E+03
       359  21 -8.479605E+05 -1.572978E+05 -1.895127E+05  4.027897E+04 -1.046638E+05 -1.638854E+03
       359  22 -6.901240E+05  5.748171E+03 -4.141931E+04  7.543053E+03 -3.193418E+04 -3.447567E+03
       359  23 -6.688544E+05  1.962055E+04 -6.544338E+04  4.494988E+01 -6.737050E+04 -4.204774E+03
       359  24 -6.901644E+05 -1.180780E+05 -1.504572E+05  7.827047E+03 -1.028154E+05 -1.629112E+03
       359  25 -5.673110E+05  3.637273E+04 -1.162382E+04  2.214920E+04 -3.294755E+04 -3.450788E+03
       359  26 -5.286679E+05  5.440912E+04 -3.152123E+04 -8.881852E+03 -6.695223E+04 -4.202736E+03
       359  27 -5.323434E+05 -7.885595E+04 -1.114031E+05 -2.463315E+04 -1.009665E+05 -1.619565E+03
       360   1  5.575841E+05  3.105037E+06  6.368157E+05 -2.058754E+05  8.708150E+03  2.533546E+05
       360   2  1.627922E+05  2.823688E+06  3.756787E+05 -4.924698E+04  2.449623E+04  1.511383E+05
       360   3  1.466717E+05  2.650341E+06  2.755545E+05 -8.934175E+04  1.619633E+04  4.891062E+04
       360   4  2.881333E+05  2.023132E+06  3.696613E+05 -1.237763E+05  8.759803E+03  2.411056E+05
       360   5 -4.874241E+04  1.970140E+06  1.698344E+05 -2.564486E+04  2.450713E+04  1.494731E+05
       360   6 -8.493160E+03  2.023455E+06  1.238870E+05 -1.242277E+05  1.617109E+04  5.779080E+04
       360   7  1.862029E+04  9.423005E+05  1.024244E+05 -4.181930E+04  8.808298E+03  2.288775E+05
       360   8 -2.603281E+05  1.117256E+06 -3.606167E+04 -2.074839E+03  2.451793E+04  1.478100E+05
       360   9 -1.636820E+05  1.396929E+06 -2.780764E+04 -1.590782E+05  1.614484E+04  6.666204E+04
       360  10  5.575669E+05  3.104968E+06  6.366955E+05 -2.058772E+05 -1.640214E-09 -1.245838E-09
       360  11  1.627855E+05  2.823664E+06  3.756348E+05 -4.924996E+04 -1.765194E-09 -7.537402E-11
       360  12  1.466708E+05  2.650338E+06  2.755496E+05 -8.934239E+04 -5.897344E-10  6.610578E-10
       360  13  2.881176E+05  2.023070E+06  3.695523E+05 -1.237780E+05  5.148375E-10 -1.766537E-09
       360  14 -4.874903E+04  1.970116E+06  1.697914E+05 -2.564781E+04 -2.138495E-09 -4.435603E-09
       360  15 -8.494334E+03  2.023451E+06  1.238803E+05 -1.242285E+05 -1.151002E-09  5.503641E-09
       360  16  1.860617E+04  9.422443E+05  1.023260E+05 -4.182093E+04  6.094479E-12 -1.431703E-10
       360  17 -2.603346E+05  1.117233E+06 -3.610377E+04 -2.077757E+03 -1.407336E-10  1.163686E-09
       360  18 -1.636835E+05  1.396924E+06 -2.781647E+04 -1.590791E+05 -2.618381E-09 -1.391641E-09
       360  19  5.575841E+05  3.105037E+06  6.368157E+05 -2.058754E+05 -8.708150E+03 -2.533546E+05
       360  20  1.627922E+05  2.823688E+06  3.756787E+05 -4.924698E+04 -2.449623E+04 -1.511383E+05
       360  21  1.466717E+05  2.650341E+06  2.755545E+05 -8.934175E+04 -1.619633E+04 -4.891062E+04
       360  22  2.881333E+05  2.023132E+06  3.696613E+05 -1.237763E+05 -8.759803E+03 -2.411056E+05
       360  23 -4.874241E+04  1.970140E+06  1.698344E+05 -2.564486E+04 -2.450713E+04 -1.494731E+05
       360  24 -8.493160E+03  2.023455E+06  1.238870E+05 -1.242277E+05 -1.617109E+04 -5.779080E+04
       360  25  1.862029E+04  9.423005E+05  1.024244E+05 -4.181930E+04 -8.808298E+03 -2.288775E+05
       360  26 -2.603281E+05  1.117256E+06 -3.606167E+04 -2.074839E+03 -2.451793E+04 -1.478100E+05
       360  27 -1.636820E+05  1.396929E+06 -2.780764E+04 -1.590782E+05 -1.614484E+04 -6.666204E+04
       361   1  9.759854E+04  2.270791E+06  1.763797E+05 -1.376893E+05  7.398238E+03  3.439965E+04
       361   2 -2.201426E+03  2.033591E+06  1.025403E+05 -2.621738E+04  1.185731E+03 -1.335435E+04
       361   3 -3.879667E+03  1.825862E+06  8.397261E+04 -1.078858E+05 -5.165117E+03 -6.109279E+04
       361   4  3.198218E+04  2.006401E+06  1.125328E+05 -1.232509E+05  7.391560E+03  3.711065E+04
       361   5 -1.258541E+04  1.991689E+06  9.241240E+04 -2.666980E+04  1.178037E+03 -1.057480E+04
       361   6  4.096370E+04  2.006392E+06  1.275254E+05 -1.232245E+05 -5.171706E+03 -5.826153E+04
       361   7 -3.363851E+04  1.742076E+06  4.868099E+04 -1.088186E+05  7.385006E+03  3.982051E+04
       361   8 -2.296951E+04  1.949790E+06  8.228439E+04 -2.712219E+04  1.170340E+03 -7.795437E+03
       361   9  8.580556E+04  2.186953E+06  1.710761E+05 -1.385677E+05 -5.178434E+03 -5.542945E+04
       361  10  9.759816E+04  2.270790E+06  1.763774E+05 -1.376895E+05 -1.607355E-09 -5.113863E-09
       361  11 -2.201475E+03  2.033590E+06  1.025400E+05 -2.621736E+04  9.655039E-10 -4.182706E-09
       361  12 -3.880694E+03  1.825858E+06  8.396557E+04 -1.078861E+05 -2.716036E-09  2.197845E-09
       361  13  3.198175E+04  2.006400E+06  1.125301E+05 -1.232511E+05 -1.448144E-09 -2.712479E-09
       361  14 -1.258544E+04  1.991689E+06  9.241219E+04 -2.666979E+04  1.225072E-09 -6.642466E-09
       361  15  4.096276E+04  2.006388E+06  1.275190E+05 -1.232248E+05  1.854623E-09  5.635074E-09
       361  16 -3.363900E+04  1.742074E+06  4.867792E+04 -1.088188E+05 -1.526214E-09  2.601276E-09
       361  17 -2.296953E+04  1.949789E+06  8.228428E+04 -2.712218E+04 -1.393171E-09  6.339173E-09
       361  18  8.580471E+04  2.186949E+06  1.710703E+05 -1.385679E+05 -2.760190E-09 -2.713850E-09
       361  19  9.759854E+04  2.270791E+06  1.763797E+05 -1.376893E+05 -7.398238E+03 -3.439965E+04
       361  20 -2.201426E+03  2.033591E+06  1.025403E+05 -2.621738E+04 -1.185731E+03  1.335435E+04
       361  21 -3.879667E+03  1.825862E+06  8.397261E+04 -1.078858E+05  5.165117E+03  6.109279E+04
       361  22  3.198218E+04  2.006401E+06  1.125328E+05 -1.232509E+05 -7.391560E+03 -3.711065E+04
       361  23 -1.258541E+04  1.991689E+06  9.241240E+04 -2.666980E+04 -1.178037E+03  1.057480E+04
       361  24  4.096370E+04  2.006392E+06  1.275254E+05 -1.232245E+05  5.171706E+03  5.826153E+04
       361  25 -3.363851E+04  1.742076E+06  4.868099E+04 -1.088186E+05 -7.385006E+03 -3.982051E+04
       361  26 -2.296951E+04  1.949790E+06  8.228439E+04 -2.712219E+04 -1.170340E+03  7.795437E+03
       361  27  8.580556E+04  2.186953E+06  1.710761E+05 -1.385677E+05  5.178434E+03  5.542945E+04
       362   1 -1.471821E+05  1.487142E+06  1.374734E+04 -1.678658E+05 -1.367794E+04 -9.054072E+04
       362   2 -2.511964E+05  1.195469E+06  2.334594E+04  3.423178E+03 -2.196517E+04 -1.934708E+05
       362   3  1.137929E+05  1.034420E+06  2.171580E+05 -2.113642E+04 -7.871917E+03 -2.963100E+05
       362   4 -1.301161E+04  2.029205E+06  1.450174E+05 -1.240914E+05 -1.370689E+04 -8.205944E+04
       362   5 -6.074946E+04  1.962985E+06  2.086185E+05 -2.586194E+04 -2.195182E+04 -1.948058E+05
       362   6  3.618772E+05  2.028819E+06  4.630491E+05 -1.234464E+05 -7.804305E+03 -3.074999E+05
       362   7  1.211448E+05  2.571540E+06  2.762676E+05 -8.027866E+04 -1.373462E+04 -7.357076E+04
       362   8  1.296576E+05  2.731039E+06  3.938494E+05 -5.518302E+04 -2.193835E+04 -1.961424E+05
       362   9  6.099266E+05  3.024137E+06  7.088727E+05 -2.259197E+05 -7.733098E+03 -3.187074E+05
       362  10 -1.471845E+05  1.487133E+06  1.373162E+04 -1.678668E+05 -1.567634E-09  2.123423E-09
       362  11 -2.512069E+05  1.195429E+06  2.327483E+04  3.419756E+03  5.164409E-10 -1.246165E-09
       362  12  1.137693E+05  1.034326E+06  2.169932E+05 -2.113830E+04 -6.616338E-10 -2.525080E-09
       362  13 -1.301361E+04  2.029198E+06  1.450044E+05 -1.240923E+05 -2.088220E-09 -2.354191E-09
       362  14 -6.076012E+04  1.962944E+06  2.085465E+05 -2.586538E+04  1.544411E-09 -4.272016E-09
       362  15  3.618518E+05  2.028718E+06  4.628718E+05 -1.234483E+05 -6.488173E-10  3.194776E-09
       362  16  1.211432E+05  2.571534E+06  2.762571E+05 -8.027947E+04 -1.008951E-09 -5.648124E-09
       362  17  1.296468E+05  2.730997E+06  3.937765E+05 -5.518648E+04 -1.242091E-09  2.900582E-09
       362  18  6.098994E+05  3.024028E+06  7.086827E+05 -2.259217E+05 -1.077443E-09  2.519326E-09
       362  19 -1.471821E+05  1.487142E+06  1.374734E+04 -1.678658E+05  1.367794E+04  9.054072E+04
       362  20 -2.511964E+05  1.195469E+06  2.334594E+04  3.423178E+03  2.196517E+04  1.934708E+05
       362  21  1.137929E+05  1.034420E+06  2.171580E+05 -2.113642E+04  7.871917E+03  2.963100E+05
       362  22 -1.301161E+04  2.029205E+06  1.450174E+05 -1.240914E+05  1.370689E+04  8.205944E+04
       362  23 -6.074946E+04  1.962985E+06  2.086185E+05 -2.586194E+04  2.195182E+04  1.948058E+05
       362  24  3.618772E+05  2.028819E+06  4.630491E+05 -1.234464E+05  7.804305E+03  3.074999E+05
       362  25  1.211448E+05  2.571540E+06  2.762676E+05 -8.027866E+04  1.373462E+04  7.357076E+04
       362  26  1.296576E+05  2.731039E+06  3.938494E+05 -5.518302E+04  2.193835E+04  1.961424E+05
       362  27  6.099266E+05  3.024137E+06  7.088727E+05 -2.259197E+05  7.733098E+03  3.187074E+05
       363   1 -1.612788E+05 -7.414518E+04 -7.767668E+04 -4.967153E+04 -7.036667E+04 -2.717191E+04
       363   2 -1.389474E+05  2.350024E+04 -1.225190E+04 -7.576984E+04 -4.490939E+04 -1.894095E+04
       363   3 -1.655242E+05  1.296245E+04  3.916557E+03 -6.852141E+04 -1.999760E+04 -9.262198E+03
       363   4 -2.928859E+05 -1.142114E+05 -1.119418E+05 -7.559487E+04 -7.069757E+04 -2.729782E+04
       363   5 -2.628425E+05 -2.086037E+04 -4.568237E+04 -1.070283E+05 -4.498543E+04 -1.896983E+04
       363   6 -2.817665E+05 -3.575630E+04 -2.888934E+04 -1.051126E+05 -1.981842E+04 -9.194513E+03
       363   7 -4.244758E+05 -1.542778E+05 -1.462081E+05 -1.015138E+05 -7.102840E+04 -2.742370E+04
       363   8 -3.867228E+05 -6.522039E+04 -7.911413E+04 -1.382813E+05 -4.506145E+04 -1.899871E+04
       363   9 -3.979958E+05 -8.447339E+04 -6.169652E+04 -1.416974E+05 -1.963928E+04 -9.126846E+03
       363  10 -1.612843E+05 -7.414731E+04 -7.768738E+04 -4.967307E+04  7.806760E-10  2.906732E-11
       363  11 -1.389496E+05  2.349931E+04 -1.225637E+04 -7.577053E+04  2.666616E-09 -9.895156E-10
       363  12 -1.655247E+05  1.296225E+04  3.915644E+03 -6.852156E+04  2.233627E-09  1.396538E-10
       363  13 -2.928915E+05 -1.142136E+05 -1.119526E+05 -7.559642E+04  1.395192E-09  1.674913E-09
       363  14 -2.628448E+05 -2.086130E+04 -4.568686E+04 -1.070290E+05  1.257497E-09 -9.705154E-10
       363  15 -2.817670E+05 -3.575650E+04 -2.889024E+04 -1.051128E+05  3.969765E-09 -3.102239E-09
       363  16 -4.244814E+05 -1.542799E+05 -1.462190E+05 -1.015154E+05 -7.087316E-12  1.897192E-10
       363  17 -3.867251E+05 -6.522132E+04 -7.911863E+04 -1.382820E+05 -8.221713E-11 -3.389473E-09
       363  18 -3.979962E+05 -8.447358E+04 -6.169740E+04 -1.416975E+05  1.131312E-09 -3.384748E-09
       363  19 -1.612788E+05 -7.414518E+04 -7.767668E+04 -4.967153E+04  7.036667E+04  2.717191E+04
       363  20 -1.389474E+05  2.350024E+04 -1.225190E+04 -7.576984E+04  4.490939E+04  1.894095E+04
       363  21 -1.655242E+05  1.296245E+04  3.916557E+03 -6.852141E+04  1.999760E+04  9.262198E+03
       363  22 -2.928859E+05 -1.142114E+05 -1.119418E+05 -7.559487E+04  7.069757E+04  2.729782E+04
       363  23 -2.628425E+05 -2.086037E+04 -4.568237E+04 -1.070283E+05  4.498543E+04  1.896983E+04
       363  24 -2.817665E+05 -3.575630E+04 -2.888934E+04 -1.051126E+05  1.981842E+04  9.194513E+03
       363  25 -4.244758E+05 -1.542778E+05 -1.462081E+05 -1.015138E+05  7.102840E+04  2.742370E+04
       363  26 -3.867228E+05 -6.522039E+04 -7.911413E+04 -1.382813E+05  4.506145E+04  1.899871E+04
       363  27 -3.979958E+05 -8.447339E+04 -6.169652E+04 -1.416974E+05  1.963928E+04  9.126846E+03
       364   1 -1.750537E+05 -1.103541E+04  4.213781E+03 -7.080701E+04 -1.551172E+04 -7.252478E+03
       364   2 -1.722270E+05  6.134764E+02  1.648292E+04 -7.752519E+04 -9.807697E+03 -5.192872E+03
       364   3 -1.806856E+05 -1.751211E+01  1.999082E+04 -7.500321E+04 -4.191753E+03 -2.899513E+03
       364   4 -2.782542E+05 -4.870099E+04 -2.380811E+04 -9.756875E+04 -1.554493E+04 -7.265057E+03
       364   5 -2.717790E+05 -3.673450E+04 -1.073555E+04 -1.043830E+05 -9.799830E+03 -5.189928E+03
       364   6 -2.765983E+05 -3.705768E+04 -6.457911E+03 -1.019568E+05 -4.142778E+03 -2.881041E+03
       364   7 -3.814446E+05 -8.636619E+04 -5.183098E+04 -1.243266E+05 -1.557814E+04 -7.277634E+03
       364   8 -3.713216E+05 -7.408197E+04 -3.795493E+04 -1.312370E+05 -9.791964E+03 -5.186986E+03
       364   9 -3.725022E+05 -7.409721E+04 -3.290749E+04 -1.289066E+05 -4.093812E+03 -2.862572E+03
       364  10 -1.750539E+05 -1.103553E+04  4.213229E+03 -7.080711E+04 -7.721221E-11 -1.602533E-09
       364  11 -1.722271E+05  6.134216E+02  1.648269E+04 -7.752523E+04 -3.539063E-09 -2.090654E-09
       364  12 -1.806856E+05 -1.752586E+01  1.999077E+04 -7.500322E+04  7.820087E-11 -1.481302E-10
       364  13 -2.782544E+05 -4.870111E+04 -2.380867E+04 -9.756884E+04  2.512067E-09  5.366625E-10
       364  14 -2.717791E+05 -3.673455E+04 -1.073578E+04 -1.043830E+05  7.756923E-10 -8.019574E-09
       364  15 -2.765983E+05 -3.705769E+04 -6.457959E+03 -1.019568E+05  3.189803E-10  2.971485E-09
       364  16 -3.814449E+05 -8.636631E+04 -5.183154E+04 -1.243267E+05  2.316788E-09 -3.983131E-09
       364  17 -3.713217E+05 -7.408202E+04 -3.795516E+04 -1.312370E+05  2.210826E-09  1.349278E-09
       364  18 -3.725023E+05 -7.409723E+04 -3.290754E+04 -1.289066E+05  8.607861E-10  3.233521E-09
       364  19 -1.750537E+05 -1.103541E+04  4.213781E+03 -7.080701E+04  1.551172E+04  7.252478E+03
       364  20 -1.722270E+05  6.134764E+02  1.648292E+04 -7.752519E+04  9.807697E+03  5.192872E+03
       364  21 -1.806856E+05 -1.751211E+01  1.999082E+04 -7.500321E+04  4.191753E+03  2.899513E+03
       364  22 -2.782542E+05 -4.870099E+04 -2.380811E+04 -9.756875E+04  1.554493E+04  7.265057E+03
       364  23 -2.717790E+05 -3.673450E+04 -1.073555E+04 -1.043830E+05  9.799830E+03  5.189928E+03
       364  24 -2.765983E+05 -3.705768E+04 -6.457911E+03 -1.019568E+05  4.142778E+03  2.881041E+03
       364  25 -3.814446E+05 -8.636619E+04 -5.183098E+04 -1.243266E+05  1.557814E+04  7.277634E+03
       364  26 -3.713216E+05 -7.408197E+04 -3.795493E+04 -1.312370E+05  9.791964E+03  5.186986E+03
       364  27 -3.725022E+05 -7.409721E+04 -3.290749E+04 -1.289066E+05  4.093812E+03  2.862572E+03
       365   1 -1.997031E+05 -1.011122E+04  1.574929E+04 -8.001432E+04 -3.233403E+03 -2.413842E+03
       365   2 -1.999373E+05 -1.157301E+04  1.753990E+04 -8.418888E+04 -1.985025E+03 -1.828195E+03
       365   3 -2.061308E+05 -1.059562E+04  1.770869E+04 -8.216705E+04 -7.544737E+02 -1.195471E+03
       365   4 -2.761348E+05 -3.886512E+04 -5.158876E+03 -1.007171E+05 -3.219294E+03 -2.408528E+03
       365   5 -2.730315E+05 -3.922258E+04 -2.492577E+03 -1.041405E+05 -1.962609E+03 -1.819740E+03
       365   6 -2.758894E+05 -3.714260E+04 -1.454841E+03 -1.013673E+05 -7.237433E+02 -1.183869E+03
       365   7 -3.525608E+05 -6.761866E+04 -2.606755E+04 -1.214177E+05 -3.205186E+03 -2.403215E+03
       365   8 -3.461206E+05 -6.687184E+04 -2.252554E+04 -1.240900E+05 -1.940196E+03 -1.811286E+03
       365   9 -3.456433E+05 -6.368931E+04 -2.061884E+04 -1.205656E+05 -6.930166E+02 -1.172269E+03
       365  10 -1.997031E+05 -1.011123E+04  1.574925E+04 -8.001433E+04  3.521920E-09  4.925840E-09
       365  11 -1.999373E+05 -1.157301E+04  1.753989E+04 -8.418888E+04  2.931397E-09 -1.297911E-09
       365  12 -2.061308E+05 -1.059562E+04  1.770869E+04 -8.216705E+04  1.916222E-09 -2.134290E-09
       365  13 -2.761348E+05 -3.886513E+04 -5.158907E+03 -1.007171E+05  5.958551E-10  2.375165E-09
       365  14 -2.730315E+05 -3.922258E+04 -2.492591E+03 -1.041405E+05  6.198917E-09 -4.722793E-09
       365  15 -2.758894E+05 -3.714260E+04 -1.454844E+03 -1.013673E+05  5.658912E-10  4.355717E-11
       365  16 -3.525608E+05 -6.761867E+04 -2.606758E+04 -1.214177E+05 -1.074604E-09  2.066552E-09
       365  17 -3.461206E+05 -6.687184E+04 -2.252555E+04 -1.240900E+05 -5.915405E-10  5.431393E-09
       365  18 -3.456433E+05 -6.368932E+04 -2.061884E+04 -1.205656E+05  3.725363E-10  2.470166E-09
       365  19 -1.997031E+05 -1.011122E+04  1.574929E+04 -8.001432E+04  3.233403E+03  2.413842E+03
       365  20 -1.999373E+05 -1.157301E+04  1.753990E+04 -8.418888E+04  1.985025E+03  1.828195E+03
       365  21 -2.061308E+05 -1.059562E+04  1.770869E+04 -8.216705E+04  7.544737E+02  1.195471E+03
       365  22 -2.761348E+05 -3.886512E+04 -5.158876E+03 -1.007171E+05  3.219294E+03  2.408528E+03
       365  23 -2.730315E+05 -3.922258E+04 -2.492577E+03 -1.041405E+05  1.962609E+03  1.819740E+03
       365  24 -2.758894E+05 -3.714260E+04 -1.454841E+03 -1.013673E+05  7.237433E+02  1.183869E+03
       365  25 -3.525608E+05 -6.761866E+04 -2.606755E+04 -1.214177E+05  3.205186E+03  2.403215E+03
       365  26 -3.461206E+05 -6.687184E+04 -2.252554E+04 -1.240900E+05  1.940196E+03  1.811286E+03
       365  27 -3.456433E+05 -6.368931E+04 -2.061884E+04 -1.205656E+05  6.930166E+02  1.172269E+03
       366   1 -2.281155E+05 -1.926781E+04  1.193840E+04 -8.806267E+04 -5.655826E+02 -1.022320E+03
       366   2 -2.288565E+05 -2.288897E+04  1.155365E+04 -9.207852E+04 -3.187188E+02 -7.718353E+02
       366   3 -2.350413E+05 -2.160304E+04  1.084828E+04 -9.001534E+04 -7.701030E+01 -5.078074E+02
       366   4 -2.758804E+05 -3.734293E+04 -1.142154E+03 -1.011102E+05 -5.420287E+02 -1.013425E+03
       366   5 -2.731405E+05 -3.967102E+04 -5.895421E+02 -1.041971E+05 -2.927525E+02 -7.620255E+02
       366   6 -2.758449E+05 -3.709253E+04 -3.594935E+02 -1.012049E+05 -4.863006E+01 -4.970816E+02
       366   7 -3.236432E+05 -5.541793E+04 -1.422292E+04 -1.141569E+05 -5.184768E+02 -1.004531E+03
       366   8 -3.174226E+05 -5.645296E+04 -1.273291E+04 -1.163149E+05 -2.667883E+02 -7.522165E+02
       366   9 -3.166469E+05 -5.258190E+04 -1.156741E+04 -1.123938E+05 -2.025190E+01 -4.863566E+02
       366  10 -2.281155E+05 -1.926781E+04  1.193840E+04 -8.806267E+04  2.819678E-09  4.405221E-09
       366  11 -2.288565E+05 -2.288897E+04  1.155365E+04 -9.207852E+04  5.138599E-10 -2.268498E-09
       366  12 -2.350413E+05 -2.160304E+04  1.084828E+04 -9.001534E+04 -3.259691E-10  6.822709E-09
       366  13 -2.758804E+05 -3.734294E+04 -1.142157E+03 -1.011102E+05 -4.592901E-10  9.477957E-10
       366  14 -2.731405E+05 -3.967102E+04 -5.895433E+02 -1.041971E+05  2.125289E-09  4.305522E-09
       366  15 -2.758449E+05 -3.709253E+04 -3.594940E+02 -1.012049E+05 -2.903052E-09 -1.614412E-09
       366  16 -3.236432E+05 -5.541793E+04 -1.422292E+04 -1.141569E+05 -1.981618E-09  3.700879E-09
       366  17 -3.174226E+05 -5.645296E+04 -1.273291E+04 -1.163149E+05 -1.669555E-09 -3.259836E-10
       366  18 -3.166469E+05 -5.258190E+04 -1.156741E+04 -1.123938E+05 -2.041407E-09 -1.260701E-09
       366  19 -2.281155E+05 -1.926781E+04  1.193840E+04 -8.806267E+04  5.655826E+02  1.022320E+03
       366  20 -2.288565E+05 -2.288897E+04  1.155365E+04 -9.207852E+04  3.187188E+02  7.718353E+02
       366  21 -2.350413E+05 -2.160304E+04  1.084828E+04 -9.001534E+04  7.701030E+01  5.078074E+02
       366  22 -2.758804E+05 -3.734293E+04 -1.142154E+03 -1.011102E+05  5.420287E+02  1.013425E+03
       366  23 -2.731405E+05 -3.967102E+04 -5.895421E+02 -1.041971E+05  2.927525E+02  7.620255E+02
       366  24 -2.758449E+05 -3.709253E+04 -3.594935E+02 -1.012049E+05  4.863006E+01  4.970816E+02
       366  25 -3.236432E+05 -5.541793E+04 -1.422292E+04 -1.141569E+05  5.184768E+02  1.004531E+03
       366  26 -3.174226E+05 -5.645296E+04 -1.273291E+04 -1.163149E+05  2.667883E+02  7.522165E+02
       366  27 -3.166469E+05 -5.258190E+04 -1.156741E+04 -1.123938E+05  2.025190E+01  4.863566E+02
       367   1 -2.583218E+05 -3.044110E+04  4.503326E+03 -9.633581E+04 -5.516593E+01 -3.967386E+02
       367   2 -2.591495E+05 -3.446954E+04  3.622200E+03 -1.004214E+05 -5.898656E+00 -2.070777E+02
       367   3 -2.654927E+05 -3.314027E+04  2.633958E+03 -9.829067E+04  4.316596E+01 -1.690391E+01
       367   4 -2.758739E+05 -3.708840E+04 -2.956736E+02 -1.011379E+05 -2.831577E+01 -3.865888E+02
       367   5 -2.731160E+05 -3.976564E+04 -2.083747E+02 -1.042467E+05  2.104125E+01 -1.968928E+02
       367   6 -2.758736E+05 -3.708516E+04 -2.282463E+02 -1.011391E+05  7.019621E+01 -6.683608E+00
       367   7 -2.934258E+05 -4.373569E+04 -5.094706E+03 -1.059398E+05 -1.466413E+00 -3.764393E+02
       367   8 -2.870824E+05 -4.506173E+04 -4.038969E+03 -1.080718E+05  4.798049E+01 -1.867081E+02
       367   9 -2.862543E+05 -4.103004E+04 -3.090461E+03 -1.039875E+05  9.722596E+01  3.536508E+00
       367  10 -2.583218E+05 -3.044110E+04  4.503325E+03 -9.633581E+04  1.236329E-09  1.861698E-09
       367  11 -2.591495E+05 -3.446954E+04  3.622200E+03 -1.004214E+05 -1.255871E-09 -4.679343E-09
       367  12 -2.654927E+05 -3.314027E+04  2.633958E+03 -9.829067E+04  2.931368E-09  7.715992E-10
       367  13 -2.758739E+05 -3.708840E+04 -2.956739E+02 -1.011379E+05 -1.224832E-09 -6.481849E-11
       367  14 -2.731160E+05 -3.976564E+04 -2.083748E+02 -1.042467E+05  1.046083E-09 -8.878213E-10
       367  15 -2.758736E+05 -3.708516E+04 -2.282463E+02 -1.011391E+05  2.721147E-09  2.082779E-09
       367  16 -2.934258E+05 -4.373569E+04 -5.094706E+03 -1.059398E+05 -8.290531E-10  6.328753E-10
       367  17 -2.870824E+05 -4.506173E+04 -4.038969E+03 -1.080718E+05  1.142668E-09  9.850345E-09
       367  18 -2.862543E+05 -4.103004E+04 -3.090461E+03 -1.039875E+05  2.395197E-09 -3.784134E-09
       367  19 -2.583218E+05 -3.044110E+04  4.503326E+03 -9.633581E+04  5.516593E+01  3.967386E+02
       367  20 -2.591495E+05 -3.446954E+04  3.622200E+03 -1.004214E+05  5.898656E+00  2.070777E+02
       367  21 -2.654927E+05 -3.314027E+04  2.633958E+03 -9.829067E+04 -4.316596E+01  1.690391E+01
       367  22 -2.758739E+05 -3.708840E+04 -2.956736E+02 -1.011379E+05  2.831577E+01  3.865888E+02
       367  23 -2.731160E+05 -3.976564E+04 -2.083747E+02 -1.042467E+05 -2.104125E+01  1.968928E+02
       367  24 -2.758736E+05 -3.708516E+04 -2.282463E+02 -1.011391E+05 -7.019621E+01  6.683608E+00
       367  25 -2.934258E+05 -4.373569E+04 -5.094706E+03 -1.059398E+05  1.466413E+00  3.764393E+02
       367  26 -2.870824E+05 -4.506173E+04 -4.038969E+03 -1.080718E+05 -4.798049E+01  1.867081E+02
       367  27 -2.862543E+05 -4.103004E+04 -3.090461E+03 -1.039875E+05 -9.722596E+01 -3.536508E+00
       368   1 -2.891320E+05 -4.209732E+04 -3.905461E+03 -1.048047E+05  4.473706E+01  9.063804E+01
       368   2 -2.899361E+05 -4.610220E+04 -4.986826E+03 -1.088562E+05  1.820371E+02  3.198571E+02
       368   3 -2.963451E+05 -4.500386E+04 -6.308429E+03 -1.066414E+05  3.286848E+02  5.243905E+02
       368   4 -2.758809E+05 -3.705482E+04 -2.539657E+02 -1.011608E+05  7.483456E+01  1.020179E+02
       368   5 -2.730953E+05 -3.972255E+04 -3.695954E+02 -1.042502E+05  2.077031E+02  3.295600E+02
       368   6 -2.759139E+05 -3.728618E+04 -7.219365E+02 -1.010733E+05  3.499205E+02  5.324174E+02
       368   7 -2.626296E+05 -3.201231E+04  3.397510E+03 -9.751688E+04  1.049328E+02  1.133981E+02
       368   8 -2.562543E+05 -3.334287E+04  4.247610E+03 -9.964409E+04  2.333699E+02  3.392632E+02
       368   9 -2.554822E+05 -2.956846E+04  4.864524E+03 -9.550505E+04  3.711571E+02  5.404445E+02
       368  10 -2.891320E+05 -4.209732E+04 -3.905461E+03 -1.048047E+05  1.878080E-09  1.621999E-09
       368  11 -2.899361E+05 -4.610220E+04 -4.986827E+03 -1.088562E+05  5.035306E-10 -5.286463E-09
       368  12 -2.963451E+05 -4.500386E+04 -6.308430E+03 -1.066414E+05  6.292277E-10 -7.380227E-10
       368  13 -2.758809E+05 -3.705482E+04 -2.539657E+02 -1.011608E+05  2.429051E-09 -9.362945E-10
       368  14 -2.730953E+05 -3.972255E+04 -3.695956E+02 -1.042502E+05  4.360423E-09 -5.524314E-10
       368  15 -2.759139E+05 -3.728618E+04 -7.219373E+02 -1.010733E+05  8.257504E-10 -1.554471E-09
       368  16 -2.626296E+05 -3.201231E+04  3.397510E+03 -9.751688E+04  9.984916E-10 -4.030684E-09
       368  17 -2.562543E+05 -3.334287E+04  4.247609E+03 -9.964409E+04 -2.681686E-09 -2.930546E-09
       368  18 -2.554822E+05 -2.956846E+04  4.864523E+03 -9.550505E+04 -2.257936E-09 -7.758416E-11
       368  19 -2.891320E+05 -4.209732E+04 -3.905461E+03 -1.048047E+05 -4.473706E+01 -9.063804E+01
       368  20 -2.899361E+05 -4.610220E+04 -4.986826E+03 -1.088562E+05 -1.820371E+02 -3.198571E+02
       368  21 -2.963451E+05 -4.500386E+04 -6.308429E+03 -1.066414E+05 -3.286848E+02 -5.243905E+02
       368  22 -2.758809E+05 -3.705482E+04 -2.539657E+02 -1.011608E+05 -7.483456E+01 -1.020179E+02
       368  23 -2.730953E+05 -3.972255E+04 -3.695954E+02 -1.042502E+05 -2.077031E+02 -3.295600E+02
       368  24 -2.759139E+05 -3.728618E+04 -7.219365E+02 -1.010733E+05 -3.499205E+02 -5.324174E+02
       368  25 -2.626296E+05 -3.201231E+04  3.397510E+03 -9.751688E+04 -1.049328E+02 -1.133981E+02
       368  26 -2.562543E+05 -3.334287E+04  4.247610E+03 -9.964409E+04 -2.333699E+02 -3.392632E+02
       368  27 -2.554822E+05 -2.956846E+04  4.864524E+03 -9.550505E+04 -3.711571E+02 -5.404445E+02
       369   1 -3.194819E+05 -5.367242E+04 -1.286768E+04 -1.132935E+05  3.988491E+02  6.768179E+02
       369   2 -3.200516E+05 -5.715243E+04 -1.437661E+04 -1.170886E+05  1.148060E+03  1.149485E+03
       369   3 -3.268153E+05 -5.766235E+04 -1.710987E+04 -1.143359E+05  1.954824E+03  1.469891E+03
       369   4 -2.759452E+05 -3.706536E+04 -8.943383E+02 -1.012732E+05  4.423557E+02  6.932607E+02
       369   5 -2.729646E+05 -3.935000E+04 -1.475118E+03 -1.042460E+05  1.164266E+03  1.155605E+03
       369   6 -2.761726E+05 -3.865903E+04 -3.258510E+03 -1.006711E+05  1.943731E+03  1.465695E+03
       369   7 -2.324066E+05 -2.045820E+04  1.107883E+04 -8.925206E+04  4.858657E+02  7.097048E+02
       369   8 -2.258755E+05 -2.154745E+04  1.142616E+04 -9.140251E+04  1.180472E+03  1.161725E+03
       369   9 -2.255275E+05 -1.965559E+04  1.059260E+04 -8.700532E+04  1.932637E+03  1.461499E+03
       369  10 -3.194819E+05 -5.367242E+04 -1.286768E+04 -1.132935E+05  9.805674E-10  3.634830E-09
       369  11 -3.200516E+05 -5.715244E+04 -1.437661E+04 -1.170886E+05 -1.064466E-09 -2.397732E-09
       369  12 -3.268153E+05 -5.766235E+04 -1.710988E+04 -1.143359E+05  1.615915E-09 -5.131714E-09
       369  13 -2.759452E+05 -3.706537E+04 -8.943396E+02 -1.012732E+05  7.328597E-10  1.230518E-09
       369  14 -2.729646E+05 -3.935000E+04 -1.475123E+03 -1.042460E+05 -2.332634E-10 -3.393924E-09
       369  15 -2.761726E+05 -3.865903E+04 -3.258521E+03 -1.006711E+05 -3.019535E-09 -8.005748E-09
       369  16 -2.324066E+05 -2.045820E+04  1.107882E+04 -8.925206E+04  2.061218E-09  3.903009E-09
       369  17 -2.258755E+05 -2.154745E+04  1.142616E+04 -9.140251E+04 -2.564278E-09  9.430530E-09
       369  18 -2.255275E+05 -1.965559E+04  1.059259E+04 -8.700532E+04  1.836438E-09 -3.024433E-09
       369  19 -3.194819E+05 -5.367242E+04 -1.286768E+04 -1.132935E+05 -3.988491E+02 -6.768179E+02
       369  20 -3.200516E+05 -5.715243E+04 -1.437661E+04 -1.170886E+05 -1.148060E+03 -1.149485E+03
       369  21 -3.268153E+05 -5.766235E+04 -1.710987E+04 -1.143359E+05 -1.954824E+03 -1.469891E+03
       369  22 -2.759452E+05 -3.706536E+04 -8.943383E+02 -1.012732E+05 -4.423557E+02 -6.932607E+02
       369  23 -2.729646E+05 -3.935000E+04 -1.475118E+03 -1.042460E+05 -1.164266E+03 -1.155605E+03
       369  24 -2.761726E+05 -3.865903E+04 -3.258510E+03 -1.006711E+05 -1.943731E+03 -1.465695E+03
       369  25 -2.324066E+05 -2.045820E+04  1.107883E+04 -8.925206E+04 -4.858657E+02 -7.097048E+02
       369  26 -2.258755E+05 -2.154745E+04  1.142616E+04 -9.140251E+04 -1.180472E+03 -1.161725E+03
       369  27 -2.255275E+05 -1.965559E+04  1.059260E+04 -8.700532E+04 -1.932637E+03 -1.461499E+03
       370   1 -3.485401E+05 -6.487355E+04 -2.382151E+04 -1.221303E+05  2.324697E+03  1.870647E+03
       370   2 -3.477046E+05 -6.550206E+04 -2.696863E+04 -1.249242E+05  5.860104E+03  3.485456E+03
       370   3 -3.579253E+05 -7.658629E+04 -3.700763E+04 -1.181881E+05  9.761224E+03  4.131605E+03
       370   4 -2.765795E+05 -3.695210E+04 -3.950165E+03 -1.017770E+05  2.455916E+03  1.920206E+03
       370   5 -2.718330E+05 -3.710201E+04 -6.250543E+03 -1.045192E+05  5.817690E+03  3.469428E+03
       370   6 -2.781076E+05 -4.767200E+04 -1.530441E+04 -9.773169E+04  9.545174E+03  4.050038E+03
       370   7 -2.046139E+05 -9.030235E+03  1.592073E+04 -8.142141E+04  2.587152E+03  1.969771E+03
       370   8 -1.959560E+05 -8.701667E+03  1.446701E+04 -8.411203E+04  5.775270E+03  3.453397E+03
       370   9 -1.982839E+05 -1.875753E+04  6.398190E+03 -7.727298E+04  9.329092E+03  3.968461E+03
       370  10 -3.485401E+05 -6.487356E+04 -2.382153E+04 -1.221303E+05 -1.739162E-09  1.551859E-10
       370  11 -3.477046E+05 -6.550208E+04 -2.696871E+04 -1.249242E+05  6.952864E-10  5.188284E-09
       370  12 -3.579254E+05 -7.658634E+04 -3.700784E+04 -1.181882E+05  2.384462E-10  6.313803E-09
       370  13 -2.765795E+05 -3.695210E+04 -3.950184E+03 -1.017770E+05 -1.945433E-12 -4.322723E-09
       370  14 -2.718331E+05 -3.710203E+04 -6.250629E+03 -1.045192E+05  6.199714E-10  4.387097E-09
       370  15 -2.781077E+05 -4.767204E+04 -1.530461E+04 -9.773172E+04  7.720754E-10  2.793025E-09
       370  16 -2.046139E+05 -9.030241E+03  1.592071E+04 -8.142142E+04  2.990341E-09  2.194895E-09
       370  17 -1.959560E+05 -8.701689E+03  1.446693E+04 -8.411205E+04 -4.941493E-10 -1.575012E-09
       370  18 -1.982840E+05 -1.875757E+04  6.397997E+03 -7.727301E+04 -2.817645E-09  1.126292E-09
       370  19 -3.485401E+05 -6.487355E+04 -2.382151E+04 -1.221303E+05 -2.324697E+03 -1.870647E+03
       370  20 -3.477046E+05 -6.550206E+04 -2.696863E+04 -1.249242E+05 -5.860104E+03 -3.485456E+03
       370  21 -3.579253E+05 -7.658629E+04 -3.700763E+04 -1.181881E+05 -9.761224E+03 -4.131605E+03
       370  22 -2.765795E+05 -3.695210E+04 -3.950165E+03 -1.017770E+05 -2.455916E+03 -1.920206E+03
       370  23 -2.718330E+05 -3.710201E+04 -6.250543E+03 -1.045192E+05 -5.817690E+03 -3.469428E+03
       370  24 -2.781076E+05 -4.767200E+04 -1.530441E+04 -9.773169E+04 -9.545174E+03 -4.050038E+03
       370  25 -2.046139E+05 -9.030235E+03  1.592073E+04 -8.142141E+04 -2.587152E+03 -1.969771E+03
       370  26 -1.959560E+05 -8.701667E+03  1.446701E+04 -8.411203E+04 -5.775270E+03 -3.453397E+03
       370  27 -1.982839E+05 -1.875753E+04  6.398190E+03 -7.727298E+04 -9.329092E+03 -3.968461E+03
       371   1 -2.474088E+05  1.060155E+03 -3.667223E+04 -2.004641E+04 -1.102771E+05 -5.146112E+03
       371   2 -2.580744E+05  1.483091E+05  4.847675E+04 -8.218458E+03 -7.473265E+04 -1.478351E+04
       371   3 -3.159423E+05  1.244455E+05  6.776901E+04  3.326490E+04 -3.921834E+04 -1.335576E+04
       371   4 -7.897006E+05 -1.341051E+05 -1.709076E+05  1.617669E+04 -1.167933E+05 -5.168388E+03
       371   5 -7.656375E+05  2.223750E+04 -7.437210E+04  1.174663E+03 -7.650231E+04 -1.479034E+04
       371   6 -7.896443E+05  6.564651E+03 -4.703294E+04  1.583004E+04 -3.623916E+04 -1.334623E+04
       371   7 -1.331722E+06 -2.692873E+05 -3.051640E+05  5.236794E+04 -1.233037E+05 -5.191437E+03
       371   8 -1.272965E+06 -1.038526E+05 -1.972394E+05  1.055992E+04 -7.827051E+04 -1.479723E+04
       371   9 -1.263141E+06 -1.113316E+05 -1.618509E+05 -1.591635E+03 -3.326224E+04 -1.333686E+04
       371  10 -2.474219E+05  1.056860E+03 -3.669514E+04 -2.004687E+04 -4.976748E-09  2.479404E-09
       371  11 -2.580805E+05  1.483073E+05  4.846584E+04 -8.219347E+03  9.224087E-10  1.125595E-08
       371  12 -3.159440E+05  1.244449E+05  6.776579E+04  3.326448E+04  4.795478E-09  6.076198E-09
       371  13 -7.897153E+05 -1.341088E+05 -1.709333E+05  1.617620E+04  7.494896E-10 -2.054152E-09
       371  14 -7.656438E+05  2.223569E+04 -7.438352E+04  1.173752E+03  1.897822E-09 -3.373004E-09
       371  15 -7.896458E+05  6.564107E+03 -4.703574E+04  1.582965E+04  2.095156E-09  7.944791E-10
       371  16 -1.331738E+06 -2.692915E+05 -3.051927E+05  5.236743E+04  4.609089E-09  1.897160E-09
       371  17 -1.272971E+06 -1.038545E+05 -1.972514E+05  1.055899E+04 -4.028180E-10  9.542132E-09
       371  18 -1.263142E+06 -1.113320E+05 -1.618533E+05 -1.591993E+03 -3.820408E-09 -8.271662E-10
       371  19 -2.474088E+05  1.060155E+03 -3.667223E+04 -2.004641E+04  1.102771E+05  5.146112E+03
       371  20 -2.580744E+05  1.483091E+05  4.847675E+04 -8.218458E+03  7.473265E+04  1.478351E+04
       371  21 -3.159423E+05  1.244455E+05  6.776901E+04  3.326490E+04  3.921834E+04  1.335576E+04
       371  22 -7.897006E+05 -1.341051E+05 -1.709076E+05  1.617669E+04  1.167933E+05  5.168388E+03
       371  23 -7.656375E+05  2.223750E+04 -7.437210E+04  1.174663E+03  7.650231E+04  1.479034E+04
       371  24 -7.896443E+05  6.564651E+03 -4.703294E+04  1.583004E+04  3.623916E+04  1.334623E+04
       371  25 -1.331722E+06 -2.692873E+05 -3.051640E+05  5.236794E+04  1.233037E+05  5.191437E+03
       371  26 -1.272965E+06 -1.038526E+05 -1.972394E+05  1.055992E+04  7.827051E+04  1.479723E+04
       371  27 -1.263141E+06 -1.113316E+05 -1.618509E+05 -1.591635E+03  3.326224E+04  1.333686E+04
       372   1 -3.635226E+05  8.814252E+04  6.269019E+04  1.339574E+04 -2.879408E+04 -1.093770E+04
       372   2 -3.963314E+05  9.730350E+04  7.300583E+04  6.951899E+02 -1.926895E+04 -1.052521E+04
       372   3 -4.353761E+05  8.668215E+04  7.216380E+04  1.926633E+04 -9.748946E+03 -9.104747E+03
       372   4 -7.803642E+05 -1.549456E+04 -3.853050E+04  1.634101E+04 -2.883398E+04 -1.093849E+04
       372   5 -7.771995E+05  2.618728E+03 -1.933033E+04  6.771845E+02 -1.887963E+04 -1.052430E+04
       372   6 -7.803516E+05  8.679833E+02 -1.159173E+04  1.628647E+04 -8.929872E+03 -9.101938E+03
       372   7 -1.197047E+06 -1.191444E+05 -1.397637E+05  1.928416E+04 -2.887384E+04 -1.093928E+04
       372   8 -1.157935E+06 -9.207669E+04 -1.116770E+05  6.590742E+02 -1.849055E+04 -1.052338E+04
       372   9 -1.125218E+06 -8.495491E+04 -9.535587E+04  1.330818E+04 -8.111250E+03 -9.099136E+03
       372  10 -3.635235E+05  8.814217E+04  6.268841E+04  1.339548E+04 -4.675964E-09 -1.864570E-09
       372  11 -3.963318E+05  9.730328E+04  7.300492E+04  6.950265E+02 -4.671377E-09  4.807473E-09
       372  12 -4.353762E+05  8.668203E+04  7.216347E+04  1.926626E+04  3.298955E-09  9.181122E-09
       372  13 -7.803651E+05 -1.549491E+04 -3.853229E+04  1.634075E+04  1.169276E-09  1.169591E-08
       372  14 -7.771999E+05  2.618513E+03 -1.933121E+04  6.770244E+02  2.785561E-09 -2.277910E-08
       372  15 -7.803517E+05  8.678729E+02 -1.159204E+04  1.628641E+04  1.061253E-09  9.756168E-09
       372  16 -1.197048E+06 -1.191447E+05 -1.397655E+05  1.928391E+04  7.668765E-09 -8.455620E-09
       372  17 -1.157935E+06 -9.207690E+04 -1.116778E+05  6.589174E+02  3.074281E-09 -2.566529E-09
       372  18 -1.125218E+06 -8.495501E+04 -9.535615E+04  1.330812E+04 -7.774265E-10  2.385218E-09
       372  19 -3.635226E+05  8.814252E+04  6.269019E+04  1.339574E+04  2.879408E+04  1.093770E+04
       372  20 -3.963314E+05  9.730350E+04  7.300583E+04  6.951899E+02  1.926895E+04  1.052521E+04
       372  21 -4.353761E+05  8.668215E+04  7.216380E+04  1.926633E+04  9.748946E+03  9.104747E+03
       372  22 -7.803642E+05 -1.549456E+04 -3.853050E+04  1.634101E+04  2.883398E+04  1.093849E+04
       372  23 -7.771995E+05  2.618728E+03 -1.933033E+04  6.771845E+02  1.887963E+04  1.052430E+04
       372  24 -7.803516E+05  8.679833E+02 -1.159173E+04  1.628647E+04  8.929872E+03  9.101938E+03
       372  25 -1.197047E+06 -1.191444E+05 -1.397637E+05  1.928416E+04  2.887384E+04  1.093928E+04
       372  26 -1.157935E+06 -9.207669E+04 -1.116770E+05  6.590742E+02  1.849055E+04  1.052338E+04
       372  27 -1.125218E+06 -8.495491E+04 -9.535587E+04  1.330818E+04  8.111250E+03  9.099136E+03
       373   1 -4.936838E+05  6.929843E+04  6.001040E+04  1.703360E+04 -7.648481E+03 -8.138302E+03
       373   2 -5.303626E+05  6.205322E+04  5.526050E+04  1.054075E+03 -5.208995E+03 -6.801958E+03
       373   3 -5.681099E+05  5.274605E+04  4.835610E+04  1.748620E+04 -2.770873E+03 -5.359774E+03
       373   4 -7.791777E+05 -1.668991E+03 -9.132509E+03  1.656254E+04 -7.096378E+03 -8.136386E+03
       373   5 -7.786369E+05  3.184083E+02 -4.946195E+03  3.525205E+02 -4.612244E+03 -6.799699E+03
       373   6 -7.791735E+05  2.357030E+02 -2.945983E+03  1.655498E+04 -2.129329E+03 -5.357152E+03
       373   7 -1.064597E+06 -7.264239E+04 -7.828128E+04  1.609162E+04 -6.544528E+03 -8.134469E+03
       373   8 -1.026855E+06 -6.142093E+04 -6.515734E+04 -3.488101E+02 -4.015731E+03 -6.797441E+03
       373   9 -9.901964E+05 -5.227792E+04 -5.425129E+04  1.562402E+04 -1.488001E+03 -5.354531E+03
       373  10 -4.936839E+05  6.929834E+04  6.001016E+04  1.703355E+04  2.113145E-09 -3.695995E-09
       373  11 -5.303627E+05  6.205316E+04  5.526037E+04  1.054047E+03 -9.207993E-10 -3.356540E-09
       373  12 -5.681099E+05  5.274602E+04  4.835603E+04  1.748619E+04  2.723631E-09 -6.273981E-09
       373  13 -7.791778E+05 -1.669076E+03 -9.132729E+03  1.656249E+04  2.093111E-09 -2.039319E-09
       373  14 -7.786369E+05  3.183529E+02 -4.946322E+03  3.524952E+02  2.856425E-10 -6.988435E-09
       373  15 -7.791735E+05  2.356710E+02 -2.946046E+03  1.655497E+04  1.904590E-09 -5.828189E-09
       373  16 -1.064597E+06 -7.264247E+04 -7.828149E+04  1.609157E+04 -1.851721E-09 -8.007518E-09
       373  17 -1.026855E+06 -6.142098E+04 -6.515746E+04 -3.488321E+02  2.533463E-09  6.078928E-09
       373  18 -9.901964E+05 -5.227795E+04 -5.425135E+04  1.562402E+04 -1.532268E-10  9.535087E-09
       373  19 -4.936838E+05  6.929843E+04  6.001040E+04  1.703360E+04  7.648481E+03  8.138302E+03
       373  20 -5.303626E+05  6.205322E+04  5.526050E+04  1.054075E+03  5.208995E+03  6.801958E+03
       373  21 -5.681099E+05  5.274605E+04  4.835610E+04  1.748620E+04  2.770873E+03  5.359774E+03
       373  22 -7.791777E+05 -1.668991E+03 -9.132509E+03  1.656254E+04  7.096378E+03  8.136386E+03
       373  23 -7.786369E+05  3.184083E+02 -4.946195E+03  3.525205E+02  4.612244E+03  6.799699E+03
       373  24 -7.791735E+05  2.357030E+02 -2.945983E+03  1.655498E+04  2.129329E+03  5.357152E+03
       373  25 -1.064597E+06 -7.264239E+04 -7.828128E+04  1.609162E+04  6.544528E+03  8.134469E+03
       373  26 -1.026855E+06 -6.142093E+04 -6.515734E+04 -3.488101E+02  4.015731E+03  6.797441E+03
       373  27 -9.901964E+05 -5.227792E+04 -5.425129E+04  1.562402E+04  1.488001E+03  5.354531E+03
       374   1 -6.291333E+05  3.720055E+04  3.391516E+04  1.716768E+04 -2.279303E+03 -4.505036E+03
       374   2 -6.668787E+05  2.789084E+04  2.571629E+04  5.449265E+02 -1.580629E+03 -3.061936E+03
       374   3 -7.050590E+05  1.857865E+04  1.698869E+04  1.698502E+04 -8.824552E+02 -1.603208E+03
       374   4 -7.790249E+05 -5.095657E+01 -2.323075E+03  1.670266E+04 -1.660811E+03 -4.502420E+03
       374   5 -7.788055E+05  5.657255E+01 -1.428974E+03  1.705889E+02 -9.555604E+02 -3.059216E+03
       374   6 -7.790235E+05  1.605291E+02 -1.068188E+03  1.670174E+04 -2.507674E+02 -1.600377E+03
       374   7 -9.288960E+05 -3.730411E+04 -3.856293E+04  1.623772E+04 -1.042468E+03 -4.499805E+03
       374   8 -8.907208E+05 -2.777862E+04 -2.857514E+04 -2.036936E+02 -3.306043E+02 -3.056496E+03
       374   9 -8.529830E+05 -1.825799E+04 -1.912546E+04  1.641848E+04  3.808452E+02 -1.597547E+03
       374  10 -6.291333E+05  3.720053E+04  3.391512E+04  1.716768E+04 -2.122579E-09 -1.210482E-08
       374  11 -6.668787E+05  2.789083E+04  2.571627E+04  5.449226E+02 -4.782453E-09  6.399539E-09
       374  12 -7.050590E+05  1.857864E+04  1.698868E+04  1.698502E+04 -2.435238E-09  5.322371E-10
       374  13 -7.790250E+05 -5.097907E+01 -2.323118E+03  1.670265E+04  3.355542E-09 -3.971254E-10
       374  14 -7.788055E+05  5.656225E+01 -1.428993E+03  1.705865E+02  2.175792E-09 -1.183638E-08
       374  15 -7.790235E+05  1.605264E+02 -1.068193E+03  1.670174E+04  2.320771E-09 -3.795384E-09
       374  16 -9.288960E+05 -3.730413E+04 -3.856297E+04  1.623772E+04  1.425252E-09  2.931287E-09
       374  17 -8.907208E+05 -2.777863E+04 -2.857516E+04 -2.036944E+02  6.090740E-09  1.286728E-08
       374  18 -8.529830E+05 -1.825800E+04 -1.912547E+04  1.641848E+04  4.187735E-09  3.276631E-09
       374  19 -6.291333E+05  3.720055E+04  3.391516E+04  1.716768E+04  2.279303E+03  4.505036E+03
       374  20 -6.668787E+05  2.789084E+04  2.571629E+04  5.449265E+02  1.580629E+03  3.061936E+03
       374  21 -7.050590E+05  1.857865E+04  1.698869E+04  1.698502E+04  8.824552E+02  1.603208E+03
       374  22 -7.790249E+05 -5.095657E+01 -2.323075E+03  1.670266E+04  1.660811E+03  4.502420E+03
       374  23 -7.788055E+05  5.657255E+01 -1.428974E+03  1.705889E+02  9.555604E+02  3.059216E+03
       374  24 -7.790235E+05  1.605291E+02 -1.068188E+03  1.670174E+04  2.507674E+02  1.600377E+03
       374  25 -9.288960E+05 -3.730411E+04 -3.856293E+04  1.623772E+04  1.042468E+03  4.499805E+03
       374  26 -8.907208E+05 -2.777862E+04 -2.857514E+04 -2.036936E+02  3.306043E+02  3.056496E+03
       374  27 -8.529830E+05 -1.825799E+04 -1.912546E+04  1.641848E+04 -3.808452E+02  1.597547E+03
       375   1 -7.669789E+05  3.119611E+03  1.788770E+03  1.675714E+04 -6.986196E+02 -7.497361E+02
       375   2 -8.049066E+05 -6.442669E+03 -7.452382E+03  3.855579E+01 -1.432323E+02  7.120519E+02
       375   3 -8.432558E+05 -1.592524E+04 -1.711402E+04  1.653984E+04  4.122390E+02  2.165888E+03
       375   4 -7.790187E+05  1.490674E+02 -1.013798E+03  1.673666E+04 -6.709418E+01 -7.468833E+02
       375   5 -7.788075E+05  4.826529E+01 -1.122198E+03  1.270479E+02  4.848526E+02  7.148683E+02
       375   6 -7.790191E+05  2.774265E+01 -1.648734E+03  1.673721E+04  1.036918E+03  2.168674E+03
       375   7 -7.910583E+05 -2.821487E+03 -3.816374E+03  1.671619E+04  5.644190E+02 -7.440305E+02
       375   8 -7.527078E+05  6.539150E+03  5.207938E+03  2.155430E+02  1.112964E+03  7.176848E+02
       375   9 -7.147787E+05  1.598042E+04  1.381626E+04  1.693459E+04  1.661661E+03  2.171459E+03
       375  10 -7.669789E+05  3.119611E+03  1.788768E+03  1.675714E+04 -6.686227E-10  5.451890E-10
       375  11 -8.049066E+05 -6.442669E+03 -7.452383E+03  3.855587E+01 -5.361046E-09 -4.796028E-09
       375  12 -8.432558E+05 -1.592524E+04 -1.711403E+04  1.653984E+04 -8.365901E-09 -3.259446E-09
       375  13 -7.790187E+05  1.490668E+02 -1.013799E+03  1.673666E+04  1.820145E-09  9.624411E-09
       375  14 -7.788075E+05  4.826468E+01 -1.122200E+03  1.270476E+02 -5.022865E-10 -8.045360E-09
       375  15 -7.790191E+05  2.773731E+01 -1.648745E+03  1.673721E+04  2.391440E-09 -1.095244E-08
       375  16 -7.910583E+05 -2.821487E+03 -3.816375E+03  1.671619E+04  1.304663E-09  1.100810E-09
       375  17 -7.527078E+05  6.539149E+03  5.207935E+03  2.155424E+02  6.941209E-09 -1.855415E-08
       375  18 -7.147787E+05  1.598041E+04  1.381625E+04  1.693459E+04  1.272308E-08 -9.908969E-09
       375  19 -7.669789E+05  3.119611E+03  1.788770E+03  1.675714E+04  6.986196E+02  7.497361E+02
       375  20 -8.049066E+05 -6.442669E+03 -7.452382E+03  3.855579E+01  1.432323E+02 -7.120519E+02
       375  21 -8.432558E+05 -1.592524E+04 -1.711402E+04  1.653984E+04 -4.122390E+02 -2.165888E+03
       375  22 -7.790187E+05  1.490674E+02 -1.013798E+03  1.673666E+04  6.709418E+01  7.468833E+02
       375  23 -7.788075E+05  4.826529E+01 -1.122198E+03  1.270479E+02 -4.848526E+02 -7.148683E+02
       375  24 -7.790191E+05  2.774265E+01 -1.648734E+03  1.673721E+04 -1.036918E+03 -2.168674E+03
       375  25 -7.910583E+05 -2.821487E+03 -3.816374E+03  1.671619E+04 -5.644190E+02  7.440305E+02
       375  26 -7.527078E+05  6.539150E+03  5.207938E+03  2.155430E+02 -1.112964E+03 -7.176848E+02
       375  27 -7.147787E+05  1.598042E+04  1.381626E+04  1.693459E+04 -1.661661E+03 -2.171459E+03
       376   1 -9.050934E+05 -3.114090E+04 -3.271631E+04  1.606901E+04  7.193572E+02  3.026453E+03
       376   2 -9.424051E+05 -4.049582E+04 -4.305354E+04 -2.655879E+02  2.432845E+03  4.483904E+03
       376   3 -9.805750E+05 -5.114020E+04 -5.489674E+04  1.627322E+04  4.147186E+03  5.853840E+03
       376   4 -7.791179E+05  2.167894E+02 -2.042179E+03  1.665798E+04  1.364091E+03  3.029278E+03
       376   5 -7.786932E+05  2.224383E+02 -3.343660E+03  2.242421E+02  3.040203E+03  4.486448E+03
       376   6 -7.791207E+05 -1.054373E+03 -6.124567E+03  1.666337E+04  4.717271E+03  5.856117E+03
       376   7 -6.531279E+05  3.157331E+04  2.863080E+04  1.724706E+04  2.008956E+03  3.032104E+03
       376   8 -6.149567E+05  4.093872E+04  3.636429E+04  7.141756E+02  3.647721E+03  4.488992E+03
       376   9 -5.776292E+05  4.902848E+04  4.264469E+04  1.705361E+04  5.287540E+03  5.858393E+03
       376  10 -9.050934E+05 -3.114091E+04 -3.271632E+04  1.606901E+04 -6.323919E-09 -6.836254E-10
       376  11 -9.424051E+05 -4.049584E+04 -4.305359E+04 -2.655967E+02  9.811471E-10 -6.582759E-09
       376  12 -9.805750E+05 -5.114025E+04 -5.489684E+04  1.627320E+04  5.606134E-09 -4.765267E-10
       376  13 -7.791179E+05  2.167790E+02 -2.042199E+03  1.665798E+04  3.429145E-09 -6.643258E-09
       376  14 -7.786932E+05  2.224143E+02 -3.343715E+03  2.242312E+02  1.054929E-09 -3.468392E-10
       376  15 -7.791207E+05 -1.054416E+03 -6.124673E+03  1.666335E+04  9.348905E-10  5.501628E-09
       376  16 -6.531279E+05  3.157330E+04  2.863077E+04  1.724705E+04  7.020531E-09  5.389533E-09
       376  17 -6.149568E+05  4.093870E+04  3.636422E+04  7.141624E+02  3.865947E-09 -1.448038E-08
       376  18 -5.776293E+05  4.902844E+04  4.264457E+04  1.705359E+04 -2.835308E-09  6.974169E-09
       376  19 -9.050934E+05 -3.114090E+04 -3.271631E+04  1.606901E+04 -7.193572E+02 -3.026453E+03
       376  20 -9.424051E+05 -4.049582E+04 -4.305354E+04 -2.655879E+02 -2.432845E+03 -4.483904E+03
       376  21 -9.805750E+05 -5.114020E+04 -5.489674E+04  1.627322E+04 -4.147186E+03 -5.853840E+03
       376  22 -7.791179E+05  2.167894E+02 -2.042179E+03  1.665798E+04 -1.364091E+03 -3.029278E+03
       376  23 -7.786932E+05  2.224383E+02 -3.343660E+03  2.242421E+02 -3.040203E+03 -4.486448E+03
       376  24 -7.791207E+05 -1.054373E+03 -6.124567E+03  1.666337E+04 -4.717271E+03 -5.856117E+03
       376  25 -6.531279E+05  3.157331E+04  2.863080E+04  1.724706E+04 -2.008956E+03 -3.032104E+03
       376  26 -6.149567E+05  4.093872E+04  3.636429E+04  7.141756E+02 -3.647721E+03 -4.488992E+03
       376  27 -5.776292E+05  4.902848E+04  4.264469E+04  1.705361E+04 -5.287540E+03 -5.858393E+03
       377   1 -1.041967E+06 -6.457828E+04 -7.143730E+04  1.431853E+04  5.143141E+03  6.813965E+03
       377   2 -1.076558E+06 -7.256165E+04 -8.539354E+04  2.464289E+02  1.216370E+04  8.260432E+03
       377   3 -1.115549E+06 -9.378187E+04 -1.072737E+05  1.821791E+04  1.918800E+04  8.837116E+03
       377   4 -7.799019E+05  6.409256E+02 -7.760528E+03  1.646197E+04  5.944279E+03  6.817088E+03
       377   5 -7.777390E+05  1.756965E+03 -1.292062E+04  4.611281E+02  1.259245E+04  8.261831E+03
       377   6 -7.799108E+05 -1.029533E+04 -2.574277E+04  1.650302E+04  1.924477E+04  8.836934E+03
       377   7 -5.177741E+05  6.585508E+04  5.591127E+04  1.860625E+04  6.745755E+03  6.820217E+03
       377   8 -4.788385E+05  7.606902E+04  5.954586E+04  6.758519E+02  1.302140E+04  8.263230E+03
       377   9 -4.441692E+05  7.318294E+04  5.577998E+04  1.478710E+04  1.930158E+04  8.836753E+03
       377  10 -1.041967E+06 -6.457833E+04 -7.143743E+04  1.431850E+04  8.604395E-09  8.218320E-10
       377  11 -1.076558E+06 -7.256176E+04 -8.539395E+04  2.463480E+02 -1.775558E-09  6.810617E-09
       377  12 -1.115550E+06 -9.378205E+04 -1.072745E+05  1.821777E+04 -1.369546E-09 -9.199932E-09
       377  13 -7.799019E+05  6.408662E+02 -7.760682E+03  1.646194E+04  3.841192E-09 -6.525962E-09
       377  14 -7.777392E+05  1.756849E+03 -1.292105E+04  4.610443E+02 -1.382819E-09  5.050863E-09
       377  15 -7.799113E+05 -1.029551E+04 -2.574361E+04  1.650288E+04  1.160862E-10 -3.081570E-09
       377  16 -5.177741E+05  6.585502E+04  5.591110E+04  1.860622E+04 -8.364499E-09  8.943438E-10
       377  17 -4.788387E+05  7.606890E+04  5.954541E+04  6.757652E+02  2.380174E-09 -1.475794E-08
       377  18 -4.441696E+05  7.318276E+04  5.577913E+04  1.478696E+04  2.881132E-09 -8.524225E-10
       377  19 -1.041967E+06 -6.457828E+04 -7.143730E+04  1.431853E+04 -5.143141E+03 -6.813965E+03
       377  20 -1.076558E+06 -7.256165E+04 -8.539354E+04  2.464289E+02 -1.216370E+04 -8.260432E+03
       377  21 -1.115549E+06 -9.378187E+04 -1.072737E+05  1.821791E+04 -1.918800E+04 -8.837116E+03
       377  22 -7.799019E+05  6.409256E+02 -7.760528E+03  1.646197E+04 -5.944279E+03 -6.817088E+03
       377  23 -7.777390E+05  1.756965E+03 -1.292062E+04  4.611281E+02 -1.259245E+04 -8.261831E+03
       377  24 -7.799108E+05 -1.029533E+04 -2.574277E+04  1.650302E+04 -1.924477E+04 -8.836934E+03
       377  25 -5.177741E+05  6.585508E+04  5.591127E+04  1.860625E+04 -6.745755E+03 -6.820217E+03
       377  26 -4.788385E+05  7.606902E+04  5.954586E+04  6.758519E+02 -1.302140E+04 -8.263230E+03
       377  27 -4.441692E+05  7.318294E+04  5.577998E+04  1.478710E+04 -1.930158E+04 -8.836753E+03
       378   1 -1.180285E+06 -9.369911E+04 -1.270116E+05  4.130483E+03  2.151885E+04  1.104101E+04
       378   2 -1.199289E+06 -9.183063E+04 -1.536335E+05  6.786238E+03  5.252805E+04  1.252383E+04
       378   3 -1.251209E+06 -2.055169E+05 -2.293563E+05  4.016067E+04  8.356425E+04  4.425336E+03
       378   4 -7.861021E+05  4.440310E+03 -3.141853E+04  1.608785E+04  2.418900E+04  1.105041E+04
       378   5 -7.700326E+05  1.485555E+04 -4.968227E+04  8.706073E+02  5.108122E+04  1.251800E+04
       378   6 -7.861420E+05 -8.952641E+04 -1.141615E+05  1.637243E+04  7.800250E+04  4.405403E+03
       378   7 -3.917771E+05  1.025688E+05  6.416341E+04  2.805272E+04  2.686083E+04  1.105991E+04
       378   8 -3.406076E+05  1.215284E+05  5.425569E+04 -5.049269E+03  4.963338E+04  1.251220E+04
       378   9 -3.208767E+05  2.645010E+04  1.017714E+03 -7.433827E+03  7.243656E+04  4.385906E+03
       378  10 -1.180285E+06 -9.369936E+04 -1.270127E+05  4.130292E+03  4.303520E-09 -4.001510E-09
       378  11 -1.199292E+06 -9.183154E+04 -1.536390E+05  6.785707E+03  3.747735E-09  9.926644E-09
       378  12 -1.251216E+06 -2.055188E+05 -2.293695E+05  4.016038E+04  2.979248E-09  1.181067E-08
       378  13 -7.861028E+05  4.440021E+03 -3.141986E+04  1.608764E+04  1.859710E-09 -8.027972E-10
       378  14 -7.700355E+05  1.485468E+04 -4.968748E+04  8.700922E+02 -2.160892E-09  2.389274E-09
       378  15 -7.861485E+05 -8.952807E+04 -1.141730E+05  1.637215E+04  1.300860E-09  1.757513E-09
       378  16 -3.917779E+05  1.025685E+05  6.416183E+04  2.805248E+04 -4.582473E-09  3.304029E-12
       378  17 -3.406103E+05  1.215275E+05  5.425076E+04 -5.049769E+03 -3.725791E-09  2.490238E-09
       378  18 -3.208824E+05  2.644867E+04  1.007812E+03 -7.434083E+03 -1.830048E-09 -3.244385E-10
       378  19 -1.180285E+06 -9.369911E+04 -1.270116E+05  4.130483E+03 -2.151885E+04 -1.104101E+04
       378  20 -1.199289E+06 -9.183063E+04 -1.536335E+05  6.786238E+03 -5.252805E+04 -1.252383E+04
       378  21 -1.251209E+06 -2.055169E+05 -2.293563E+05  4.016067E+04 -8.356425E+04 -4.425336E+03
       378  22 -7.861021E+05  4.440310E+03 -3.141853E+04  1.608785E+04 -2.418900E+04 -1.105041E+04
       378  23 -7.700326E+05  1.485555E+04 -4.968227E+04  8.706073E+02 -5.108122E+04 -1.251800E+04
       378  24 -7.861420E+05 -8.952641E+04 -1.141615E+05  1.637243E+04 -7.800250E+04 -4.405403E+03
       378  25 -3.917771E+05  1.025688E+05  6.416341E+04  2.805272E+04 -2.686083E+04 -1.105991E+04
       378  26 -3.406076E+05  1.215284E+05  5.425569E+04 -5.049269E+03 -4.963338E+04 -1.251220E+04
       378  27 -3.208767E+05  2.645010E+04  1.017714E+03 -7.433827E+03 -7.243656E+04 -4.385906E+03
       379   1 -1.550487E+05 -6.004425E+05 -1.492524E+05  1.440081E+05 -6.188835E+03 -5.238675E+04
       379   2 -1.104706E+05 -4.824694E+05 -9.317847E+04  1.276053E+05 -1.957521E+04 -2.299146E+04
       379   3 -7.860290E+04 -3.713649E+05 -5.942614E+04  1.325770E+05 -2.010813E+04  6.439193E+03
       379   4 -1.715448E+04 -4.285934E+04 -1.785526E+04  1.324698E+05 -6.264605E+03 -1.354169E+04
       379   5 -5.218658E+03 -4.159847E+04 -8.057799E+03  1.217976E+05 -1.959999E+04 -9.417222E+03
       379   6 -1.598093E+03 -4.282587E+04 -3.019356E+03  1.325003E+05 -2.008556E+04 -5.263696E+03
       379   7  1.207188E+05  5.150135E+05  1.135261E+05  1.209212E+05 -6.341789E+03  2.533809E+04
       379   8  1.000220E+05  3.994599E+05  7.705454E+04  1.159858E+05 -1.962500E+04  4.166445E+03
       379   9  7.540102E+04  2.858195E+05  5.338430E+04  1.324235E+05 -2.006300E+04 -1.697259E+04
       379  10 -1.550495E+05 -6.004454E+05 -1.492576E+05  1.440078E+05  9.153411E-10  3.867459E-09
       379  11 -1.104712E+05 -4.824700E+05 -9.318019E+04  1.276049E+05 -6.913989E-10  4.479059E-09
       379  12 -7.860335E+04 -3.713651E+05 -5.942698E+04  1.325771E+05  5.251849E-10 -6.916299E-10
       379  13 -1.715457E+04 -4.285955E+04 -1.785568E+04  1.324697E+05  1.190946E-09  3.675664E-09
       379  14 -5.219095E+03 -4.159867E+04 -8.058687E+03  1.217974E+05 -3.264686E-09 -3.537505E-09
       379  15 -1.598533E+03 -4.282601E+04 -3.020166E+03  1.325002E+05 -1.159404E-10  3.874556E-09
       379  16  1.207186E+05  5.150128E+05  1.135249E+05  1.209214E+05  1.102125E-10 -1.494937E-09
       379  17  1.000216E+05  3.994597E+05  7.705378E+04  1.159858E+05 -2.213463E-11 -3.004122E-09
       379  18  7.540051E+04  2.858191E+05  5.338300E+04  1.324233E+05 -2.652839E-09 -3.893136E-09
       379  19 -1.550487E+05 -6.004425E+05 -1.492524E+05  1.440081E+05  6.188835E+03  5.238675E+04
       379  20 -1.104706E+05 -4.824694E+05 -9.317847E+04  1.276053E+05  1.957521E+04  2.299146E+04
       379  21 -7.860290E+04 -3.713649E+05 -5.942614E+04  1.325770E+05  2.010813E+04 -6.439193E+03
       379  22 -1.715448E+04 -4.285934E+04 -1.785526E+04  1.324698E+05  6.264605E+03  1.354169E+04
       379  23 -5.218658E+03 -4.159847E+04 -8.057799E+03  1.217976E+05  1.959999E+04  9.417222E+03
       379  24 -1.598093E+03 -4.282587E+04 -3.019356E+03  1.325003E+05  2.008556E+04  5.263696E+03
       379  25  1.207188E+05  5.150135E+05  1.135261E+05  1.209212E+05  6.341789E+03 -2.533809E+04
       379  26  1.000220E+05  3.994599E+05  7.705454E+04  1.159858E+05  1.962500E+04 -4.166445E+03
       379  27  7.540102E+04  2.858195E+05  5.338430E+04  1.324235E+05  2.006300E+04  1.697259E+04
       380   1 -6.112999E+04 -2.974078E+05 -4.423789E+04  1.332929E+05 -1.619512E+04  6.261452E+03
       380   2 -3.274056E+04 -1.830260E+05 -1.962191E+04  1.224005E+05 -1.013632E+04  6.304337E+03
       380   3 -3.914555E+03 -6.840990E+04  5.105380E+03  1.337452E+05 -3.408991E+03  6.348001E+03
       380   4 -1.451345E+03 -4.216488E+04 -1.149158E+03  1.326879E+05 -1.617402E+04 -5.001736E+03
       380   5 -1.666352E+02 -4.238465E+04  2.571244E+03  1.215725E+05 -1.011339E+04 -6.275122E+03
       380   6  1.783896E+03 -4.215393E+04  7.317485E+03  1.326939E+05 -3.384318E+03 -7.547742E+03
       380   7  5.822394E+04  2.131425E+05  4.193797E+04  1.320827E+05 -1.615291E+04 -1.626941E+04
       380   8  3.240640E+04  9.827678E+04  2.476450E+04  1.207444E+05 -1.009043E+04 -1.885732E+04
       380   9  7.482435E+03 -1.589680E+04  9.530338E+03  1.316426E+05 -3.359598E+03 -2.144403E+04
       380  10 -6.113028E+04 -2.974079E+05 -4.423845E+04  1.332930E+05  9.395971E-10  5.514896E-09
       380  11 -3.274068E+04 -1.830261E+05 -1.962218E+04  1.224005E+05  1.250153E-10  3.554094E-09
       380  12 -3.914578E+03 -6.840995E+04  5.105282E+03  1.337452E+05  1.443626E-09 -2.830106E-09
       380  13 -1.451632E+03 -4.216497E+04 -1.149696E+03  1.326878E+05 -4.080925E-10  4.390270E-09
       380  14 -1.667555E+02 -4.238472E+04  2.570978E+03  1.215724E+05  2.064045E-09 -7.022966E-09
       380  15  1.783869E+03 -4.215399E+04  7.317357E+03  1.326939E+05  7.523293E-10  3.912319E-09
       380  16  5.822359E+04  2.131422E+05  4.193698E+04  1.320824E+05 -3.362776E-09 -5.222852E-09
       380  17  3.240619E+04  9.827637E+04  2.476364E+04  1.207442E+05 -1.354955E-09 -2.994443E-09
       380  18  7.482300E+03 -1.589730E+04  9.529453E+03  1.316426E+05 -2.444642E-09  5.947669E-10
       380  19 -6.112999E+04 -2.974078E+05 -4.423789E+04  1.332929E+05  1.619512E+04 -6.261452E+03
       380  20 -3.274056E+04 -1.830260E+05 -1.962191E+04  1.224005E+05  1.013632E+04 -6.304337E+03
       380  21 -3.914555E+03 -6.840990E+04  5.105380E+03  1.337452E+05  3.408991E+03 -6.348001E+03
       380  22 -1.451345E+03 -4.216488E+04 -1.149158E+03  1.326879E+05  1.617402E+04  5.001736E+03
       380  23 -1.666352E+02 -4.238465E+04  2.571244E+03  1.215725E+05  1.011339E+04  6.275122E+03
       380  24  1.783896E+03 -4.215393E+04  7.317485E+03  1.326939E+05  3.384318E+03  7.547742E+03
       380  25  5.822394E+04  2.131425E+05  4.193797E+04  1.320827E+05  1.615291E+04  1.626941E+04
       380  26  3.240640E+04  9.827678E+04  2.476450E+04  1.207444E+05  1.009043E+04  1.885732E+04
       380  27  7.482435E+03 -1.589680E+04  9.530338E+03  1.316426E+05  3.359598E+03  2.144403E+04
       381   1  1.351606E+04  5.864046E+03  2.071246E+04  1.317796E+05  1.041136E+03  5.267061E+03
       381   2  4.910761E+04  1.162094E+05  5.393174E+04  1.335420E+05  4.917544E+03 -1.816291E+04
       381   3  1.060737E+05  2.350738E+05  1.077735E+05  1.571941E+05  2.143119E+03 -4.161088E+04
       381   4  2.098475E+03 -4.086775E+04  1.037459E+04  1.326089E+05  1.066175E+03 -8.823307E+03
       381   5  1.036584E+04 -4.399309E+04  2.015433E+04  1.216986E+05  4.919802E+03 -1.916258E+04
       381   6  3.773945E+04 -4.087893E+04  4.146927E+04  1.326763E+05  2.122764E+03 -2.951563E+04
       381   7 -9.319149E+03 -8.759708E+04  3.733566E+01  1.334382E+05  1.091177E+03 -2.291263E+04
       381   8 -2.837705E+04 -2.041710E+05 -1.362444E+04  1.098583E+05  4.922099E+03 -2.016200E+04
       381   9 -3.059799E+04 -3.167603E+05 -2.483952E+04  1.081694E+05  2.101449E+03 -1.742573E+04
       381  10  1.351605E+04  5.864016E+03  2.071240E+04  1.317796E+05  1.822130E-09  3.329853E-09
       381  11  4.910750E+04  1.162090E+05  5.393107E+04  1.335421E+05 -4.915296E-10  5.580078E-09
       381  12  1.060733E+05  2.350719E+05  1.077703E+05  1.571942E+05 -6.262267E-10 -3.444670E-10
       381  13  2.098453E+03 -4.086784E+04  1.037444E+04  1.326089E+05 -2.668244E-09  5.365653E-09
       381  14  1.036571E+04 -4.399349E+04  2.015360E+04  1.216987E+05  2.273289E-09 -4.336727E-09
       381  15  3.773921E+04 -4.087987E+04  4.146762E+04  1.326763E+05 -4.093446E-10  3.569626E-09
       381  16 -9.319291E+03 -8.759765E+04  3.634671E+01  1.334382E+05 -3.281614E-09 -2.513301E-09
       381  17 -2.837719E+04 -2.041714E+05 -1.362525E+04  1.098584E+05  1.499663E-09 -4.456771E-09
       381  18 -3.059808E+04 -3.167607E+05 -2.484010E+04  1.081695E+05  5.528959E-10 -6.545936E-09
       381  19  1.351606E+04  5.864046E+03  2.071246E+04  1.317796E+05 -1.041136E+03 -5.267061E+03
       381  20  4.910761E+04  1.162094E+05  5.393174E+04  1.335420E+05 -4.917544E+03  1.816291E+04
       381  21  1.060737E+05  2.350738E+05  1.077735E+05  1.571941E+05 -2.143119E+03  4.161088E+04
       381  22  2.098475E+03 -4.086775E+04  1.037459E+04  1.326089E+05 -1.066175E+03  8.823307E+03
       381  23  1.036584E+04 -4.399309E+04  2.015433E+04  1.216986E+05 -4.919802E+03  1.916258E+04
       381  24  3.773945E+04 -4.087893E+04  4.146927E+04  1.326763E+05 -2.122764E+03  2.951563E+04
       381  25 -9.319149E+03 -8.759708E+04  3.733566E+01  1.334382E+05 -1.091177E+03  2.291263E+04
       381  26 -2.837705E+04 -2.041710E+05 -1.362444E+04  1.098583E+05 -4.922099E+03  2.016200E+04
       381  27 -3.059799E+04 -3.167603E+05 -2.483952E+04  1.081694E+05 -2.101449E+03  1.742573E+04
       382   1  1.255525E+06  4.488141E+05  3.044555E+05  4.310533E+05  1.285089E+05  4.413105E+04
       382   2  1.208197E+06  2.494525E+05  1.814554E+05  4.405038E+05  8.399821E+04  1.870391E+04
       382   3  1.216100E+06  2.499666E+05  1.432230E+05  4.250657E+05  3.615337E+04  2.108932E+03
       382   4  8.711039E+05  2.672251E+05  1.924983E+05  2.888274E+05  1.236114E+05  4.227188E+04
       382   5  8.339434E+05  9.814457E+04  7.975391E+04  3.275350E+05  8.270438E+04  1.821262E+04
       382   6  8.513421E+05  1.282911E+05  4.896408E+04  3.413430E+05  3.846085E+04  2.982665E+03
       382   7  4.868313E+05  8.567205E+04  8.052764E+04  1.466900E+05  1.187173E+05  4.041467E+04
       382   8  4.598260E+05 -5.314877E+04 -2.196006E+04  2.146296E+05  8.141139E+04  1.772171E+04
       382   9  4.867111E+05  6.616527E+03 -4.530586E+04  2.576610E+05  4.076684E+04  3.855985E+03
       382  10  1.255507E+06  4.488076E+05  3.044208E+05  4.310487E+05  5.102417E-09  4.895859E-09
       382  11  1.208189E+06  2.494502E+05  1.814416E+05  4.405025E+05 -5.278012E-10 -6.658922E-09
       382  12  1.216098E+06  2.499662E+05  1.432205E+05  4.250656E+05 -3.688715E-09  9.815979E-09
       382  13  8.710870E+05  2.672191E+05  1.924663E+05  2.888232E+05  5.334400E-10 -4.621087E-09
       382  14  8.339359E+05  9.814238E+04  7.974045E+04  3.275338E+05  7.964454E-10  8.917826E-09
       382  15  8.513406E+05  1.282906E+05  4.896128E+04  3.413429E+05 -4.158289E-10  6.313004E-09
       382  16  4.868158E+05  8.566652E+04  8.049811E+04  1.466861E+05 -2.615230E-09  3.738695E-09
       382  17  4.598188E+05 -5.315088E+04 -2.197309E+04  2.146285E+05 -2.155404E-09 -4.382527E-09
       382  18  4.867093E+05  6.616065E+03 -4.530900E+04  2.576609E+05  4.277113E-09  5.529776E-09
       382  19  1.255525E+06  4.488141E+05  3.044555E+05  4.310533E+05 -1.285089E+05 -4.413105E+04
       382  20  1.208197E+06  2.494525E+05  1.814554E+05  4.405038E+05 -8.399821E+04 -1.870391E+04
       382  21  1.216100E+06  2.499666E+05  1.432230E+05  4.250657E+05 -3.615337E+04 -2.108932E+03
       382  22  8.711039E+05  2.672251E+05  1.924983E+05  2.888274E+05 -1.236114E+05 -4.227188E+04
       382  23  8.339434E+05  9.814457E+04  7.975391E+04  3.275350E+05 -8.270438E+04 -1.821262E+04
       382  24  8.513421E+05  1.282911E+05  4.896408E+04  3.413430E+05 -3.846085E+04 -2.982665E+03
       382  25  4.868313E+05  8.567205E+04  8.052764E+04  1.466900E+05 -1.187173E+05 -4.041467E+04
       382  26  4.598260E+05 -5.314877E+04 -2.196006E+04  2.146296E+05 -8.141139E+04 -1.772171E+04
       382  27  4.867111E+05  6.616527E+03 -4.530586E+04  2.576610E+05 -4.076684E+04 -3.855985E+03
       383   1  1.146669E+06  2.667937E+05  1.214204E+05  4.160470E+05  3.066816E+04  2.292056E+03
       383   2  1.125163E+06  2.262278E+05  9.298787E+04  4.018437E+05  2.036424E+04 -1.280000E+03
       383   3  1.095188E+06  2.256391E+05  7.812392E+04  4.027622E+05  9.754890E+03 -4.045823E+03
       383   4  8.453071E+05  1.488064E+05  3.999112E+04  3.290950E+05  3.061174E+04  2.270144E+03
       383   5  8.483872E+05  1.205376E+05  1.884374E+04  3.246835E+05  2.063914E+04 -1.176182E+03
       383   6  8.429362E+05  1.321870E+05  1.100767E+04  3.353932E+05  1.036062E+04 -3.816386E+03
       383   7  5.440322E+05  3.082646E+04 -4.144625E+04  2.421815E+05  3.055534E+04  2.248243E+03
       383   8  5.716852E+05  1.485273E+04 -5.530704E+04  2.475545E+05  2.091391E+04 -1.072418E+03
       383   9  5.907459E+05  3.873827E+04 -5.611394E+04  2.680486E+05  1.096607E+04 -3.587047E+03
       383  10  1.146668E+06  2.667934E+05  1.214186E+05  4.160469E+05  3.628106E-09  2.723564E-09
       383  11  1.125163E+06  2.262277E+05  9.298709E+04  4.018437E+05 -4.694931E-10 -6.278852E-09
       383  12  1.095188E+06  2.256391E+05  7.812372E+04  4.027623E+05 -6.003837E-09  8.610817E-09
       383  13  8.453061E+05  1.488061E+05  3.998936E+04  3.290949E+05  6.373135E-10  4.707689E-09
       383  14  8.483867E+05  1.205375E+05  1.884294E+04  3.246835E+05  2.904682E-09  2.004876E-08
       383  15  8.429361E+05  1.321869E+05  1.100744E+04  3.353932E+05 -1.734946E-09  3.309310E-09
       383  16  5.440312E+05  3.082620E+04 -4.144801E+04  2.421815E+05 -4.747289E-09 -1.042203E-08
       383  17  5.716847E+05  1.485262E+04 -5.530786E+04  2.475545E+05  1.967391E-09 -6.324537E-09
       383  18  5.907458E+05  3.873822E+04 -5.611419E+04  2.680486E+05  7.259886E-09  1.085984E-08
       383  19  1.146669E+06  2.667937E+05  1.214204E+05  4.160470E+05 -3.066816E+04 -2.292056E+03
       383  20  1.125163E+06  2.262278E+05  9.298787E+04  4.018437E+05 -2.036424E+04  1.280000E+03
       383  21  1.095188E+06  2.256391E+05  7.812392E+04  4.027622E+05 -9.754890E+03  4.045823E+03
       383  22  8.453071E+05  1.488064E+05  3.999112E+04  3.290950E+05 -3.061174E+04 -2.270144E+03
       383  23  8.483872E+05  1.205376E+05  1.884374E+04  3.246835E+05 -2.063914E+04  1.176182E+03
       383  24  8.429362E+05  1.321870E+05  1.100767E+04  3.353932E+05 -1.036062E+04  3.816386E+03
       383  25  5.440322E+05  3.082646E+04 -4.144625E+04  2.421815E+05 -3.055534E+04 -2.248243E+03
       383  26  5.716852E+05  1.485273E+04 -5.530704E+04  2.475545E+05 -2.091391E+04  1.072418E+03
       383  27  5.907459E+05  3.873827E+04 -5.611394E+04  2.680486E+05 -1.096607E+04  3.587047E+03
       384   1  1.046826E+06  2.122507E+05  6.333061E+04  3.904495E+05  8.096090E+03 -3.823452E+03
       384   2  1.029500E+06  1.914941E+05  5.239121E+04  3.741064E+05  5.447352E+03 -3.711410E+03
       384   3  9.962289E+05  1.906590E+05  4.387199E+04  3.766832E+05  2.776317E+03 -3.541911E+03
       384   4  8.422523E+05  1.344275E+05  8.646854E+03  3.337071E+05  8.478417E+03 -3.678632E+03
       384   5  8.500879E+05  1.234945E+05  4.415244E+03  3.246172E+05  5.853720E+03 -3.557361E+03
       384   6  8.419747E+05  1.324792E+05  2.585587E+03  3.344473E+05  3.206625E+03 -3.378661E+03
       384   7  6.377183E+05  5.660688E+04 -4.604071E+04  2.769814E+05  8.860606E+03 -3.533866E+03
       384   8  6.707070E+05  5.549679E+04 -4.356360E+04  2.751407E+05  6.259959E+03 -3.403360E+03
       384   9  6.877435E+05  7.430073E+04 -3.870291E+04  2.922207E+05  3.636814E+03 -3.215456E+03
       384  10  1.046826E+06  2.122507E+05  6.333046E+04  3.904496E+05 -3.020728E-10  3.482287E-09
       384  11  1.029500E+06  1.914941E+05  5.239113E+04  3.741065E+05 -7.043249E-10 -1.647523E-09
       384  12  9.962289E+05  1.906590E+05  4.387195E+04  3.766832E+05 -3.573161E-09 -7.351749E-09
       384  13  8.422523E+05  1.344275E+05  8.646694E+03  3.337072E+05  3.399743E-10  5.796726E-09
       384  14  8.500879E+05  1.234945E+05  4.415156E+03  3.246172E+05  4.011890E-09 -5.960758E-09
       384  15  8.419747E+05  1.324792E+05  2.585546E+03  3.344473E+05 -5.902071E-10  1.286373E-08
       384  16  6.377182E+05  5.660685E+04 -4.604088E+04  2.769815E+05 -2.575718E-09 -3.545420E-09
       384  17  6.707070E+05  5.549677E+04 -4.356370E+04  2.751407E+05  3.216248E-09  1.103017E-08
       384  18  6.877434E+05  7.430071E+04 -3.870295E+04  2.922207E+05  9.145098E-10  3.510281E-09
       384  19  1.046826E+06  2.122507E+05  6.333061E+04  3.904495E+05 -8.096090E+03  3.823452E+03
       384  20  1.029500E+06  1.914941E+05  5.239121E+04  3.741064E+05 -5.447352E+03  3.711410E+03
       384  21  9.962289E+05  1.906590E+05  4.387199E+04  3.766832E+05 -2.776317E+03  3.541911E+03
       384  22  8.422523E+05  1.344275E+05  8.646854E+03  3.337071E+05 -8.478417E+03  3.678632E+03
       384  23  8.500879E+05  1.234945E+05  4.415244E+03  3.246172E+05 -5.853720E+03  3.557361E+03
       384  24  8.419747E+05  1.324792E+05  2.585587E+03  3.344473E+05 -3.206625E+03  3.378661E+03
       384  25  6.377183E+05  5.660688E+04 -4.604071E+04  2.769814E+05 -8.860606E+03  3.533866E+03
       384  26  6.707070E+05  5.549679E+04 -4.356360E+04  2.751407E+05 -6.259959E+03  3.403360E+03
       384  27  6.877435E+05  7.430073E+04 -3.870291E+04  2.922207E+05 -3.636814E+03  3.215456E+03
       385   1  9.519307E+05  1.743092E+05  3.135969E+04  3.644886E+05  2.185736E+03 -3.072391E+03
       385   2  9.355892E+05  1.563136E+05  2.408964E+04  3.482805E+05  1.168250E+03 -2.303072E+03
       385   3  9.026940E+05  1.554512E+05  1.738746E+04  3.509226E+05  1.518365E+02 -1.537185E+03
       385   4  8.419551E+05  1.326347E+05  2.042730E+03  3.341395E+05  2.595358E+03 -2.916933E+03
       385   5  8.502189E+05  1.239735E+05  1.262326E+03  3.247505E+05  1.576597E+03 -2.148047E+03
       385   6  8.419287E+05  1.324459E+05  1.050951E+03  3.342116E+05  5.588792E+02 -1.382602E+03
       385   7  7.319914E+05  9.096104E+04 -2.727522E+04  3.037953E+05  3.004900E+03 -2.761505E+03
       385   8  7.648557E+05  9.163377E+04 -2.156562E+04  3.012233E+05  1.984883E+03 -1.993046E+03
       385   9  7.811669E+05  1.094408E+05 -1.528593E+04  3.175020E+05  9.658790E+02 -1.228034E+03
       385  10  9.519307E+05  1.743092E+05  3.135967E+04  3.644886E+05  1.063045E-10 -1.198808E-08
       385  11  9.355892E+05  1.563136E+05  2.408962E+04  3.482805E+05 -1.478995E-09 -1.572520E-09
       385  12  9.026940E+05  1.554512E+05  1.738746E+04  3.509226E+05 -1.977147E-09 -3.039128E-09
       385  13  8.419551E+05  1.326347E+05  2.042701E+03  3.341395E+05 -2.359997E-09  3.182995E-09
       385  14  8.502189E+05  1.239735E+05  1.262313E+03  3.247505E+05  4.207665E-09 -2.003691E-08
       385  15  8.419287E+05  1.324459E+05  1.050946E+03  3.342116E+05  1.521134E-09 -8.527710E-09
       385  16  7.319913E+05  9.096103E+04 -2.727525E+04  3.037953E+05 -3.794546E-09  9.852458E-09
       385  17  7.648557E+05  9.163376E+04 -2.156564E+04  3.012233E+05 -5.002844E-10 -4.125728E-09
       385  18  7.811669E+05  1.094408E+05 -1.528593E+04  3.175020E+05  1.991682E-09  4.936739E-10
       385  19  9.519307E+05  1.743092E+05  3.135969E+04  3.644886E+05 -2.185736E+03  3.072391E+03
       385  20  9.355892E+05  1.563136E+05  2.408964E+04  3.482805E+05 -1.168250E+03  2.303072E+03
       385  21  9.026940E+05  1.554512E+05  1.738746E+04  3.509226E+05 -1.518365E+02  1.537185E+03
       385  22  8.419551E+05  1.326347E+05  2.042730E+03  3.341395E+05 -2.595358E+03  2.916933E+03
       385  23  8.502189E+05  1.239735E+05  1.262326E+03  3.247505E+05 -1.576597E+03  2.148047E+03
       385  24  8.419287E+05  1.324459E+05  1.050951E+03  3.342116E+05 -5.588792E+02  1.382602E+03
       385  25  7.319914E+05  9.096104E+04 -2.727522E+04  3.037953E+05 -3.004900E+03  2.761505E+03
       385  26  7.648557E+05  9.163377E+04 -2.156562E+04  3.012233E+05 -1.984883E+03  1.993046E+03
       385  27  7.811669E+05  1.094408E+05 -1.528593E+04  3.175020E+05 -9.658790E+02  1.228034E+03
       386   1  8.594886E+05  1.390668E+05  5.671440E+03  3.390525E+05 -2.454885E+02 -1.019076E+03
       386   2  8.433331E+05  1.214187E+05 -4.402524E+02  3.229132E+05 -1.323721E+03 -2.821447E+02
       386   3  8.107914E+05  1.207946E+05 -5.927084E+03  3.254323E+05 -2.400232E+03  4.504673E+02
       386   4  8.419645E+05  1.324046E+05  1.072117E+03  3.341758E+05  1.611436E+02 -8.646296E+02
       386   5  8.501750E+05  1.240127E+05  1.389598E+03  3.248010E+05 -9.188615E+02 -1.283779E+02
       386   6  8.419988E+05  1.326449E+05  2.333327E+03  3.340844E+05 -1.997174E+03  6.035457E+02
       386   7  8.244407E+05  1.257425E+05 -3.527231E+03  3.292992E+05  5.677630E+02 -7.101886E+02
       386   8  8.570168E+05  1.266067E+05  3.219443E+03  3.266889E+05 -5.139973E+02  2.539055E+01
       386   9  8.732071E+05  1.444952E+05  1.059363E+04  3.427369E+05 -1.594095E+03  7.566322E+02
       386  10  8.594886E+05  1.390668E+05  5.671438E+03  3.390525E+05  2.783266E-09 -9.103265E-09
       386  11  8.433331E+05  1.214187E+05 -4.402558E+02  3.229132E+05  3.355166E-09 -5.213947E-10
       386  12  8.107914E+05  1.207946E+05 -5.927095E+03  3.254323E+05  4.432399E-10 -1.322652E-08
       386  13  8.419645E+05  1.324046E+05  1.072115E+03  3.341758E+05  1.880081E-09  4.504428E-09
       386  14  8.501749E+05  1.240127E+05  1.389596E+03  3.248010E+05 -1.860462E-10 -2.232232E-08
       386  15  8.419988E+05  1.326449E+05  2.333319E+03  3.340844E+05  2.562709E-09  5.365393E-09
       386  16  8.244406E+05  1.257425E+05 -3.527233E+03  3.292992E+05  3.348481E-09  6.510381E-10
       386  17  8.570168E+05  1.266067E+05  3.219442E+03  3.266889E+05  6.372414E-09 -1.003676E-08
       386  18  8.732071E+05  1.444952E+05  1.059363E+04  3.427369E+05  4.608302E-09 -1.676694E-08
       386  19  8.594886E+05  1.390668E+05  5.671440E+03  3.390525E+05  2.454885E+02  1.019076E+03
       386  20  8.433331E+05  1.214187E+05 -4.402524E+02  3.229132E+05  1.323721E+03  2.821447E+02
       386  21  8.107914E+05  1.207946E+05 -5.927084E+03  3.254323E+05  2.400232E+03 -4.504673E+02
       386  22  8.419645E+05  1.324046E+05  1.072117E+03  3.341758E+05 -1.611436E+02  8.646296E+02
       386  23  8.501750E+05  1.240127E+05  1.389598E+03  3.248010E+05  9.188615E+02  1.283779E+02
       386  24  8.419988E+05  1.326449E+05  2.333327E+03  3.340844E+05  1.997174E+03 -6.035457E+02
       386  25  8.244407E+05  1.257425E+05 -3.527231E+03  3.292992E+05 -5.677630E+02  7.101886E+02
       386  26  8.570168E+05  1.266067E+05  3.219443E+03  3.266889E+05  5.139973E+02 -2.539055E+01
       386  27  8.732071E+05  1.444952E+05  1.059363E+04  3.427369E+05  1.594095E+03 -7.566322E+02
       387   1  7.673831E+05  1.043408E+05 -1.704448E+04  3.140552E+05 -3.078502E+03  8.716649E+02
       387   2  7.507874E+05  8.592270E+04 -2.140345E+04  2.973587E+05 -6.057417E+03  8.971610E+02
       387   3  7.188658E+05  8.738430E+04 -2.300075E+04  2.989367E+05 -9.016653E+03  8.718401E+02
       387   4  8.421030E+05  1.323705E+05  2.973310E+03  3.343439E+05 -2.659041E+03  1.030950E+03
       387   5  8.499271E+05  1.235702E+05  5.124703E+03  3.247729E+05 -5.658982E+03  1.048399E+03
       387   6  8.424292E+05  1.346533E+05  1.005422E+04  3.334762E+05 -8.639354E+03  1.014991E+03
       387   7  9.168283E+05  1.604006E+05  2.299066E+04  3.546349E+05 -2.239523E+03  1.190257E+03
       387   8  9.490764E+05  1.612183E+05  3.165203E+04  3.521911E+05 -5.260476E+03  1.199664E+03
       387   9  9.660074E+05  1.819234E+05  4.310785E+04  3.680218E+05 -8.261972E+03  1.158174E+03
       387  10  7.673831E+05  1.043408E+05 -1.704450E+04  3.140552E+05 -6.216946E-09 -1.632919E-08
       387  11  7.507874E+05  8.592269E+04 -2.140352E+04  2.973587E+05 -8.269678E-09 -1.037456E-08
       387  12  7.188657E+05  8.738427E+04 -2.300090E+04  2.989368E+05  6.343085E-09 -7.116484E-09
       387  13  8.421029E+05  1.323705E+05  2.973294E+03  3.343439E+05  7.351106E-10 -2.159220E-09
       387  14  8.499271E+05  1.235702E+05  5.124641E+03  3.247729E+05 -5.081594E-09 -2.528379E-09
       387  15  8.424292E+05  1.346533E+05  1.005408E+04  3.334762E+05 -1.592308E-09 -2.090229E-09
       387  16  9.168283E+05  1.604006E+05  2.299065E+04  3.546349E+05  9.811736E-09  1.207495E-08
       387  17  9.490763E+05  1.612183E+05  3.165197E+04  3.521911E+05  3.283056E-09  4.060699E-08
       387  18  9.660073E+05  1.819234E+05  4.310772E+04  3.680218E+05 -1.011709E-08  7.056003E-09
       387  19  7.673831E+05  1.043408E+05 -1.704448E+04  3.140552E+05  3.078502E+03 -8.716649E+02
       387  20  7.507874E+05  8.592270E+04 -2.140345E+04  2.973587E+05  6.057417E+03 -8.971610E+02
       387  21  7.188658E+05  8.738430E+04 -2.300075E+04  2.989367E+05  9.016653E+03 -8.718401E+02
       387  22  8.421030E+05  1.323705E+05  2.973310E+03  3.343439E+05  2.659041E+03 -1.030950E+03
       387  23  8.499271E+05  1.235702E+05  5.124703E+03  3.247729E+05  5.658982E+03 -1.048399E+03
       387  24  8.424292E+05  1.346533E+05  1.005422E+04  3.334762E+05  8.639354E+03 -1.014991E+03
       387  25  9.168283E+05  1.604006E+05  2.299066E+04  3.546349E+05  2.239523E+03 -1.190257E+03
       387  26  9.490764E+05  1.612183E+05  3.165203E+04  3.521911E+05  5.260476E+03 -1.199664E+03
       387  27  9.660074E+05  1.819234E+05  4.310785E+04  3.680218E+05  8.261972E+03 -1.158174E+03
       388   1  6.734420E+05  6.993392E+04 -3.225360E+04  2.909219E+05 -1.131656E+04  7.951912E+02
       388   2  6.549781E+05  4.606339E+04 -2.984591E+04  2.706874E+05 -2.293227E+04 -2.408618E+03
       388   3  6.301932E+05  6.485498E+04 -1.216771E+04  2.637677E+05 -3.430480E+04 -6.250969E+03
       388   4  8.433182E+05  1.319405E+05  1.280178E+04  3.353260E+05 -1.076308E+04  1.005192E+03
       388   5  8.478392E+05  1.202631E+05  2.193723E+04  3.249966E+05 -2.264092E+04 -2.298296E+03
       388   6  8.460875E+05  1.512939E+05  4.654702E+04  3.279815E+05 -3.427611E+04 -6.240566E+03
       388   7  1.013222E+06  1.939483E+05  5.785457E+04  3.797408E+05 -1.020943E+04  1.215251E+03
       388   8  1.040736E+06  1.944655E+05  7.371709E+04  3.793210E+05 -2.234947E+04 -2.187934E+03
       388   9  1.062027E+06  2.377375E+05  1.052577E+05  3.922161E+05 -3.424741E+04 -6.230157E+03
       388  10  6.734418E+05  6.993388E+04 -3.225384E+04  2.909219E+05  4.554849E-09 -1.113531E-09
       388  11  6.549775E+05  4.606325E+04 -2.984691E+04  2.706874E+05  3.144400E-09  1.046846E-08
       388  12  6.301919E+05  6.485462E+04 -1.216999E+04  2.637675E+05  1.482699E-09  9.278537E-09
       388  13  8.433180E+05  1.319405E+05  1.280156E+04  3.353260E+05  1.509611E-09 -1.032560E-08
       388  14  8.478387E+05  1.202630E+05  2.193626E+04  3.249966E+05 -3.623876E-09  1.247693E-08
       388  15  8.460862E+05  1.512936E+05  4.654474E+04  3.279813E+05  3.270104E-09  2.051511E-10
       388  16  1.013222E+06  1.939482E+05  5.785437E+04  3.797408E+05 -3.227959E-09 -1.516558E-09
       388  17  1.040736E+06  1.944654E+05  7.371614E+04  3.793210E+05  7.900524E-09  7.950747E-09
       388  18  1.062026E+06  2.377371E+05  1.052554E+05  3.922159E+05  2.635849E-09  5.803600E-09
       388  19  6.734420E+05  6.993392E+04 -3.225360E+04  2.909219E+05  1.131656E+04 -7.951912E+02
       388  20  6.549781E+05  4.606339E+04 -2.984591E+04  2.706874E+05  2.293227E+04  2.408618E+03
       388  21  6.301932E+05  6.485498E+04 -1.216771E+04  2.637677E+05  3.430480E+04  6.250969E+03
       388  22  8.433182E+05  1.319405E+05  1.280178E+04  3.353260E+05  1.076308E+04 -1.005192E+03
       388  23  8.478392E+05  1.202631E+05  2.193723E+04  3.249966E+05  2.264092E+04  2.298296E+03
       388  24  8.460875E+05  1.512939E+05  4.654702E+04  3.279815E+05  3.427611E+04  6.240566E+03
       388  25  1.013222E+06  1.939483E+05  5.785457E+04  3.797408E+05  1.020943E+04 -1.215251E+03
       388  26  1.040736E+06  1.944655E+05  7.371709E+04  3.793210E+05  2.234947E+04  2.187934E+03
       388  27  1.062027E+06  2.377375E+05  1.052577E+05  3.922161E+05  3.424741E+04  6.230157E+03
       389   1  5.740017E+05  4.049759E+04 -1.397303E+04  2.844945E+05 -4.506002E+04 -8.427520E+03
       389   2  5.470018E+05 -2.465162E+04  1.485878E+04  2.385333E+05 -9.359759E+04 -2.541736E+04
       389   3  5.871417E+05  1.372528E+05  1.368356E+05  1.586189E+05 -1.394993E+05 -4.936002E+04
       389   4  8.531974E+05  1.273144E+05  5.698919E+04  3.421229E+05 -4.316954E+04 -7.709662E+03
       389   5  8.309105E+05  9.435807E+04  9.285125E+04  3.284867E+05 -9.454600E+04 -2.577901E+04
       389   6  8.762836E+05  2.889521E+05  2.240729E+05  2.809074E+05 -1.432876E+05 -5.080558E+04
       389   7  1.132469E+06  2.141308E+05  1.279456E+05  3.997719E+05 -4.127811E+04 -6.991590E+03
       389   8  1.114896E+06  2.133776E+05  1.708360E+05  4.184788E+05 -9.549487E+04 -2.614088E+04
       389   9  1.165508E+06  4.406811E+05  3.113013E+05  4.032539E+05 -1.470778E+05 -5.225250E+04
       389  10  5.739995E+05  4.049697E+04 -1.397698E+04  2.844942E+05  4.551030E-09  4.844126E-09
       389  11  5.469922E+05 -2.465466E+04  1.484113E+04  2.385313E+05  2.228994E-09  9.928006E-09
       389  12  5.871202E+05  1.372449E+05  1.367945E+05  1.586133E+05  1.291700E-09  6.105966E-09
       389  13  8.531954E+05  1.273139E+05  5.698559E+04  3.421226E+05 -5.180556E-10 -5.711111E-10
       389  14  8.309007E+05  9.435496E+04  9.283323E+04  3.284848E+05  2.200511E-09 -2.348151E-09
       389  15  8.762608E+05  2.889439E+05  2.240295E+05  2.809016E+05 -1.014227E-09  4.988419E-09
       389  16  1.132467E+06  2.141303E+05  1.279423E+05  3.997716E+05 -1.620454E-09 -1.638169E-09
       389  17  1.114886E+06  2.133744E+05  1.708176E+05  4.184768E+05  1.193904E-09  1.507397E-09
       389  18  1.165484E+06  4.406724E+05  3.112556E+05  4.032477E+05  1.273537E-09 -2.873330E-09
       389  19  5.740017E+05  4.049759E+04 -1.397303E+04  2.844945E+05  4.506002E+04  8.427520E+03
       389  20  5.470018E+05 -2.465162E+04  1.485878E+04  2.385333E+05  9.359759E+04  2.541736E+04
       389  21  5.871417E+05  1.372528E+05  1.368356E+05  1.586189E+05  1.394993E+05  4.936002E+04
       389  22  8.531974E+05  1.273144E+05  5.698919E+04  3.421229E+05  4.316954E+04  7.709662E+03
       389  23  8.309105E+05  9.435807E+04  9.285125E+04  3.284867E+05  9.454600E+04  2.577901E+04
       389  24  8.762836E+05  2.889521E+05  2.240729E+05  2.809074E+05  1.432876E+05  5.080558E+04
       389  25  1.132469E+06  2.141308E+05  1.279456E+05  3.997719E+05  4.127811E+04  6.991590E+03
       389  26  1.114896E+06  2.133776E+05  1.708360E+05  4.184788E+05  9.549487E+04  2.614088E+04
       389  27  1.165508E+06  4.406811E+05  3.113013E+05  4.032539E+05  1.470778E+05  5.225250E+04
       390   1 -1.937204E+05 -1.051644E+06 -1.981277E+05  8.904154E+04 -5.721236E+03 -2.521713E+04
       390   2 -1.292075E+05 -8.947933E+05 -1.423620E+05  1.798232E+04 -1.558230E+04 -1.145614E+04
       390   3 -9.476003E+04 -7.460413E+05 -1.028627E+05  7.949489E+04 -9.851809E+03  2.343586E+03
       390   4 -2.200419E+04 -3.642197E+05 -2.774737E+04  8.166491E+04 -5.739911E+03 -1.762578E+04
       390   5  3.537562E+03 -3.607345E+05 -1.313713E+04  1.540975E+04 -1.558333E+04 -1.058396E+04
       390   6  1.971874E+02 -3.641940E+05 -1.011176E+04  8.172057E+04 -9.840892E+03 -3.506973E+03
       390   7  1.496768E+05  3.236345E+05  1.425979E+05  7.428034E+04 -5.758757E+03 -1.002600E+04
       390   8  1.362618E+05  1.735852E+05  1.160672E+05  1.283509E+04 -1.558437E+04 -9.711022E+03
       390   9  9.514372E+04  1.778657E+04  8.262872E+04  8.394767E+04 -9.830020E+03 -9.361122E+03
       390  10 -1.937206E+05 -1.051645E+06 -1.981289E+05  8.904143E+04 -4.564950E-10 -1.602163E-09
       390  11 -1.292078E+05 -8.947935E+05 -1.423627E+05  1.798218E+04 -8.992651E-10 -2.105341E-09
       390  12 -9.476013E+04 -7.460413E+05 -1.028628E+05  7.949491E+04  1.647732E-09  4.680829E-09
       390  13 -2.200430E+04 -3.642201E+05 -2.774801E+04  8.166483E+04  7.180468E-10 -1.437087E-08
       390  14  3.537272E+03 -3.607347E+05 -1.313780E+04  1.540962E+04 -1.687834E-09 -4.090418E-09
       390  15  1.970801E+02 -3.641941E+05 -1.011197E+04  8.172054E+04  2.388865E-09 -1.040008E-09
       390  16  1.496768E+05  3.236344E+05  1.425977E+05  7.428030E+04  9.652060E-11  3.750143E-09
       390  17  1.362615E+05  1.735851E+05  1.160666E+05  1.283497E+04  2.505927E-09  2.220180E-09
       390  18  9.514359E+04  1.778645E+04  8.262837E+04  8.394760E+04  1.414601E-09  1.343269E-09
       390  19 -1.937204E+05 -1.051644E+06 -1.981277E+05  8.904154E+04  5.721236E+03  2.521713E+04
       390  20 -1.292075E+05 -8.947933E+05 -1.423620E+05  1.798232E+04  1.558230E+04  1.145614E+04
       390  21 -9.476003E+04 -7.460413E+05 -1.028627E+05  7.949489E+04  9.851809E+03 -2.343586E+03
       390  22 -2.200419E+04 -3.642197E+05 -2.774737E+04  8.166491E+04  5.739911E+03  1.762578E+04
       390  23  3.537562E+03 -3.607345E+05 -1.313713E+04  1.540975E+04  1.558333E+04  1.058396E+04
       390  24  1.971874E+02 -3.641940E+05 -1.011176E+04  8.172057E+04  9.840892E+03  3.506973E+03
       390  25  1.496768E+05  3.236345E+05  1.425979E+05  7.428034E+04  5.758757E+03  1.002600E+04
       390  26  1.362618E+05  1.735852E+05  1.160672E+05  1.283509E+04  1.558437E+04  9.711022E+03
       390  27  9.514372E+04  1.778657E+04  8.262872E+04  8.394767E+04  9.830020E+03  9.361122E+03
       391   1 -3.571482E+04 -4.964337E+05 -4.180242E+04  8.331562E+04 -3.928858E+03  1.647770E+02
       391   2  6.156221E+03 -3.419592E+05 -4.047990E+03  1.503292E+04  5.408266E+02  4.727377E+03
       391   3  3.805612E+04 -1.899372E+05  2.836470E+04  8.009136E+04  4.942271E+03  9.291193E+03
       391   4 -2.596660E+03 -3.631651E+05 -9.572668E+03  8.187613E+04 -3.925507E+03 -1.783472E+03
       391   5  1.192770E+03 -3.619260E+05 -8.887377E+03  1.520309E+04  5.442044E+02  2.808579E+03
       391   6 -4.992617E+03 -3.631665E+05 -1.356291E+04  8.187183E+04  4.945635E+03  7.400738E+03
       391   7  3.052020E+04 -2.298802E+05  2.265583E+04  8.043634E+04 -3.922148E+03 -3.732139E+03
       391   8 -3.770710E+03 -3.818924E+05 -1.372678E+04  1.537324E+04  5.475812E+02  8.898435E+02
       391   9 -4.804354E+04 -5.363684E+05 -5.549266E+04  8.365181E+04  4.948989E+03  5.510809E+03
       391  10 -3.571483E+04 -4.964337E+05 -4.180245E+04  8.331562E+04  6.831725E-10  2.929557E-09
       391  11  6.156215E+03 -3.419592E+05 -4.048032E+03  1.503292E+04 -7.993261E-10 -1.151873E-09
       391  12  3.805607E+04 -1.899373E+05  2.836449E+04  8.009132E+04 -9.851228E-10 -1.038972E-09
       391  13 -2.596677E+03 -3.631651E+05 -9.572703E+03  8.187612E+04  3.059152E-09 -6.143174E-09
       391  14  1.192767E+03 -3.619260E+05 -8.887393E+03  1.520308E+04  1.524665E-09 -3.939841E-09
       391  15 -4.992658E+03 -3.631666E+05 -1.356306E+04  8.187180E+04  1.666250E-09 -2.767812E-09
       391  16  3.052018E+04 -2.298802E+05  2.265577E+04  8.043633E+04  4.079517E-10  2.736853E-10
       391  17 -3.770710E+03 -3.818924E+05 -1.372678E+04  1.537324E+04 -1.815722E-09  1.409753E-09
       391  18 -4.804358E+04 -5.363684E+05 -5.549276E+04  8.365179E+04  1.620971E-11  1.990730E-09
       391  19 -3.571482E+04 -4.964337E+05 -4.180242E+04  8.331562E+04  3.928858E+03 -1.647770E+02
       391  20  6.156221E+03 -3.419592E+05 -4.047990E+03  1.503292E+04 -5.408266E+02 -4.727377E+03
       391  21  3.805612E+04 -1.899372E+05  2.836470E+04  8.009136E+04 -4.942271E+03 -9.291193E+03
       391  22 -2.596660E+03 -3.631651E+05 -9.572668E+03  8.187613E+04  3.925507E+03  1.783472E+03
       391  23  1.192770E+03 -3.619260E+05 -8.887377E+03  1.520309E+04 -5.442044E+02 -2.808579E+03
       391  24 -4.992617E+03 -3.631665E+05 -1.356291E+04  8.187183E+04 -4.945635E+03 -7.400738E+03
       391  25  3.052020E+04 -2.298802E+05  2.265583E+04  8.043634E+04  3.922148E+03  3.732139E+03
       391  26 -3.770710E+03 -3.818924E+05 -1.372678E+04  1.537324E+04 -5.475812E+02 -8.898435E+02
       391  27 -4.804354E+04 -5.363684E+05 -5.549266E+04  8.365181E+04 -4.948989E+03 -5.510809E+03
       392   1  1.062481E+05  5.616792E+04  8.666393E+04  8.620396E+04  1.094872E+04  1.597830E+04
       392   2  1.493518E+05  2.152727E+05  1.153784E+05  1.123474E+04  1.669321E+04  2.160292E+04
       392   3  1.399787E+05  3.618425E+05  1.275794E+05  6.868303E+04  6.080639E+03  2.719074E+04
       392   4  1.399374E+03 -3.657229E+05 -1.573343E+04  8.170688E+04  1.096017E+04  9.951993E+03
       392   5  6.736985E+03 -3.588401E+05 -2.345406E+04  1.543763E+04  1.669197E+04  2.263469E+04
       392   6 -4.165275E+04 -3.657540E+05 -5.260293E+04  8.159539E+04  6.060195E+03  3.527897E+04
       392   7 -1.034624E+05 -7.874510E+05 -1.181435E+05  7.721293E+04  1.097172E+04  3.929766E+03
       392   8 -1.359019E+05 -9.326517E+05 -1.623102E+05  1.963679E+04  1.669073E+04  2.366550E+04
       392   9 -2.233233E+05 -1.092869E+06 -2.328244E+05  9.449289E+04  6.040076E+03  4.335772E+04
       392  10  1.062479E+05  5.616761E+04  8.666322E+04  8.620382E+04 -5.780035E-10 -1.855320E-09
       392  11  1.493514E+05  2.152722E+05  1.153770E+05  1.123445E+04 -1.153434E-09 -6.506295E-09
       392  12  1.399785E+05  3.618417E+05  1.275780E+05  6.868290E+04 -7.975426E-10 -5.302665E-09
       392  13  1.399218E+03 -3.657230E+05 -1.573384E+04  8.170679E+04 -1.146301E-09 -4.389543E-09
       392  14  6.736548E+03 -3.588408E+05 -2.345555E+04  1.543733E+04  1.448787E-10 -5.126751E-09
       392  15 -4.165313E+04 -3.657553E+05 -5.260534E+04  8.159521E+04 -1.959821E-09 -1.767172E-09
       392  16 -1.034625E+05 -7.874510E+05 -1.181438E+05  7.721289E+04  1.319443E-09  8.629920E-10
       392  17 -1.359024E+05 -9.326524E+05 -1.623117E+05  1.963647E+04 -1.046110E-09  4.261252E-09
       392  18 -2.233238E+05 -1.092871E+06 -2.328280E+05  9.449268E+04 -9.917877E-10  7.771753E-09
       392  19  1.062481E+05  5.616792E+04  8.666393E+04  8.620396E+04 -1.094872E+04 -1.597830E+04
       392  20  1.493518E+05  2.152727E+05  1.153784E+05  1.123474E+04 -1.669321E+04 -2.160292E+04
       392  21  1.399787E+05  3.618425E+05  1.275794E+05  6.868303E+04 -6.080639E+03 -2.719074E+04
       392  22  1.399374E+03 -3.657229E+05 -1.573343E+04  8.170688E+04 -1.096017E+04 -9.951993E+03
       392  23  6.736985E+03 -3.588401E+05 -2.345406E+04  1.543763E+04 -1.669197E+04 -2.263469E+04
       392  24 -4.165275E+04 -3.657540E+05 -5.260293E+04  8.159539E+04 -6.060195E+03 -3.527897E+04
       392  25 -1.034624E+05 -7.874510E+05 -1.181435E+05  7.721293E+04 -1.097172E+04 -3.929766E+03
       392  26 -1.359019E+05 -9.326517E+05 -1.623102E+05  1.963679E+04 -1.669073E+04 -2.366550E+04
       392  27 -2.233233E+05 -1.092869E+06 -2.328244E+05  9.449289E+04 -6.040076E+03 -4.335772E+04
       393   1  9.502557E+05 -1.672590E+04 -6.164977E+03 -1.496242E+03  3.020508E+04  1.017527E+03
       393   2  9.528187E+05 -5.672951E+04 -2.937025E+04  4.458872E+03  2.012465E+04  2.805434E+03
       393   3  9.692685E+05 -4.781907E+04 -3.372143E+04 -8.129918E+03  1.004705E+04  2.228306E+03
       393   4  1.155985E+06  3.460533E+04  4.508233E+04 -5.837869E+03  3.078587E+04  1.018158E+03
       393   5  1.149014E+06 -7.809963E+03  1.927326E+04  3.460277E+03  2.024775E+04  2.805488E+03
       393   6  1.156004E+06 -1.240149E+03  1.263124E+04 -5.785044E+03  9.712609E+03  2.228003E+03
       393   7  1.361753E+06  8.593345E+04  9.632647E+04 -1.018095E+04  3.136686E+04  1.018780E+03
       393   8  1.345244E+06  4.110671E+04  6.791390E+04  2.461357E+03  2.037089E+04  2.805542E+03
       393   9  1.342770E+06  4.533618E+04  5.898131E+04 -3.439472E+03  9.378072E+03  2.227698E+03
       393  10  9.502547E+05 -1.672614E+04 -6.166691E+03 -1.496267E+03  1.722450E-10  1.475735E-10
       393  11  9.528183E+05 -5.672963E+04 -2.937102E+04  4.458826E+03  1.684125E-10  1.703498E-10
       393  12  9.692684E+05 -4.781910E+04 -3.372162E+04 -8.129936E+03  2.149347E-10  4.063080E-10
       393  13  1.155984E+06  3.460508E+04  4.508055E+04 -5.837894E+03  8.765286E-10  4.566420E-11
       393  14  1.149013E+06 -7.810081E+03  1.927247E+04  3.460232E+03 -1.978669E-12  3.900988E-11
       393  15  1.156003E+06 -1.240179E+03  1.263105E+04 -5.785061E+03  1.752759E-10  1.073891E-11
       393  16  1.361752E+06  8.593319E+04  9.632462E+04 -1.018097E+04 -6.413776E-10  9.251570E-12
       393  17  1.345243E+06  4.110659E+04  6.791311E+04  2.461311E+03 -5.189535E-10  1.883792E-10
       393  18  1.342770E+06  4.533615E+04  5.898113E+04 -3.439489E+03 -1.287680E-10  1.227159E-10
       393  19  9.502557E+05 -1.672590E+04 -6.164977E+03 -1.496242E+03 -3.020508E+04 -1.017527E+03
       393  20  9.528187E+05 -5.672951E+04 -2.937025E+04  4.458872E+03 -2.012465E+04 -2.805434E+03
       393  21  9.692685E+05 -4.781907E+04 -3.372143E+04 -8.129918E+03 -1.004705E+04 -2.228306E+03
       393  22  1.155985E+06  3.460533E+04  4.508233E+04 -5.837869E+03 -3.078587E+04 -1.018158E+03
       393  23  1.149014E+06 -7.809963E+03  1.927326E+04  3.460277E+03 -2.024775E+04 -2.805488E+03
       393  24  1.156004E+06 -1.240149E+03  1.263124E+04 -5.785044E+03 -9.712609E+03 -2.228003E+03
       393  25  1.361753E+06  8.593345E+04  9.632647E+04 -1.018095E+04 -3.136686E+04 -1.018780E+03
       393  26  1.345244E+06  4.110671E+04  6.791390E+04  2.461357E+03 -2.037089E+04 -2.805542E+03
       393  27  1.342770E+06  4.533618E+04  5.898131E+04 -3.439472E+03 -9.378072E+03 -2.227698E+03
       394   1  1.014430E+06 -2.957454E+04 -2.405760E+04 -4.207358E+03  7.600774E+03  1.672062E+03
       394   2  1.020395E+06 -3.404110E+04 -2.770153E+04  2.274783E+03  5.025575E+03  1.679900E+03
       394   3  1.028650E+06 -3.129517E+04 -2.783711E+04 -5.129346E+03  2.450411E+03  1.408152E+03
       394   4  1.153412E+06  5.086657E+03  1.043777E+04 -4.769185E+03  7.630669E+03  1.672053E+03
       394   5  1.152264E+06 -1.155418E+03  5.016481E+03  2.175752E+03  5.001203E+03  1.679863E+03
       394   6  1.153415E+06 -1.764269E+02  3.140631E+03 -4.765391E+03  2.371802E+03  1.408110E+03
       394   7  1.292411E+06  3.974641E+04  4.493170E+04 -5.331142E+03  7.660572E+03  1.672043E+03
       394   8  1.284148E+06  3.172896E+04  3.773320E+04  2.076698E+03  4.976826E+03  1.679827E+03
       394   9  1.278193E+06  3.094115E+04  3.411721E+04 -4.401363E+03  2.293177E+03  1.408068E+03
       394  10  1.014430E+06 -2.957456E+04 -2.405771E+04 -4.207368E+03  1.220165E-10 -1.688029E-11
       394  11  1.020395E+06 -3.404111E+04 -2.770158E+04  2.274776E+03 -3.082598E-11  2.984457E-10
       394  12  1.028650E+06 -3.129517E+04 -2.783712E+04 -5.129349E+03 -8.302466E-11  1.727275E-10
       394  13  1.153412E+06  5.086639E+03  1.043766E+04 -4.769196E+03  3.963311E-10 -1.044424E-10
       394  14  1.152264E+06 -1.155428E+03  5.016428E+03  2.175745E+03 -8.192567E-11  1.450591E-10
       394  15  1.153415E+06 -1.764306E+02  3.140617E+03 -4.765394E+03  1.326383E-10  1.829903E-10
       394  16  1.292411E+06  3.974639E+04  4.493158E+04 -5.331152E+03 -4.045818E-10 -3.568232E-10
       394  17  1.284148E+06  3.172895E+04  3.773314E+04  2.076691E+03 -2.451244E-10  1.139558E-10
       394  18  1.278193E+06  3.094115E+04  3.411719E+04 -4.401366E+03  8.471857E-11 -2.175800E-10
       394  19  1.014430E+06 -2.957454E+04 -2.405760E+04 -4.207358E+03 -7.600774E+03 -1.672062E+03
       394  20  1.020395E+06 -3.404110E+04 -2.770153E+04  2.274783E+03 -5.025575E+03 -1.679900E+03
       394  21  1.028650E+06 -3.129517E+04 -2.783711E+04 -5.129346E+03 -2.450411E+03 -1.408152E+03
       394  22  1.153412E+06  5.086657E+03  1.043777E+04 -4.769185E+03 -7.630669E+03 -1.672053E+03
       394  23  1.152264E+06 -1.155418E+03  5.016481E+03  2.175752E+03 -5.001203E+03 -1.679863E+03
       394  24  1.153415E+06 -1.764269E+02  3.140631E+03 -4.765391E+03 -2.371802E+03 -1.408110E+03
       394  25  1.292411E+06  3.974641E+04  4.493170E+04 -5.331142E+03 -7.660572E+03 -1.672043E+03
       394  26  1.284148E+06  3.172896E+04  3.773320E+04  2.076698E+03 -4.976826E+03 -1.679827E+03
       394  27  1.278193E+06  3.094115E+04  3.411721E+04 -4.401363E+03 -2.293177E+03 -1.408068E+03
       395   1  1.064748E+06 -2.126625E+04 -1.935995E+04 -4.025521E+03  1.896054E+03  1.220121E+03
       395   2  1.070104E+06 -2.079334E+04 -1.916305E+04  1.348163E+03  1.203672E+03  1.026002E+03
       395   3  1.075873E+06 -1.925074E+04 -1.823739E+04 -4.143628E+03  5.112262E+02  8.322601E+02
       395   4  1.152997E+06  7.387184E+02  2.523067E+03 -4.095394E+03  1.858906E+03  1.220102E+03
       395   5  1.152791E+06 -1.724582E+02  1.355231E+03  1.337382E+03  1.166510E+03  1.025989E+03
       395   6  1.152998E+06 -1.400729E+01  9.161134E+02 -4.095227E+03  4.740554E+02  8.322547E+02
       395   7  1.241254E+06  2.274311E+04  2.440551E+04 -4.165277E+03  1.821752E+03  1.220082E+03
       395   8  1.235485E+06  2.044791E+04  2.187300E+04  1.326600E+03  1.129342E+03  1.025977E+03
       395   9  1.230128E+06  1.922228E+04  2.006917E+04 -4.046820E+03  4.368800E+02  8.322494E+02
       395  10  1.064748E+06 -2.126625E+04 -1.935996E+04 -4.025523E+03 -7.482739E-10  2.585266E-10
       395  11  1.070104E+06 -2.079334E+04 -1.916305E+04  1.348162E+03 -4.525688E-11  1.021830E-10
       395  12  1.075873E+06 -1.925074E+04 -1.823739E+04 -4.143628E+03  7.684298E-10 -9.523295E-11
       395  13  1.152997E+06  7.387159E+02  2.523058E+03 -4.095396E+03  1.885688E-11  1.040326E-10
       395  14  1.152791E+06 -1.724597E+02  1.355226E+03  1.337381E+03  5.028894E-11  3.144485E-11
       395  15  1.152998E+06 -1.400810E+01  9.161116E+02 -4.095227E+03 -2.928359E-11  2.858237E-10
       395  16  1.241254E+06  2.274310E+04  2.440550E+04 -4.165279E+03  5.276842E-10  9.499653E-12
       395  17  1.235485E+06  2.044791E+04  2.187300E+04  1.326599E+03  1.365989E-11 -9.742940E-11
       395  18  1.230128E+06  1.922228E+04  2.006917E+04 -4.046820E+03 -7.241136E-10  3.041751E-10
       395  19  1.064748E+06 -2.126625E+04 -1.935995E+04 -4.025521E+03 -1.896054E+03 -1.220121E+03
       395  20  1.070104E+06 -2.079334E+04 -1.916305E+04  1.348163E+03 -1.203672E+03 -1.026002E+03
       395  21  1.075873E+06 -1.925074E+04 -1.823739E+04 -4.143628E+03 -5.112262E+02 -8.322601E+02
       395  22  1.152997E+06  7.387184E+02  2.523067E+03 -4.095394E+03 -1.858906E+03 -1.220102E+03
       395  23  1.152791E+06 -1.724582E+02  1.355231E+03  1.337382E+03 -1.166510E+03 -1.025989E+03
       395  24  1.152998E+06 -1.400729E+01  9.161134E+02 -4.095227E+03 -4.740554E+02 -8.322547E+02
       395  25  1.241254E+06  2.274311E+04  2.440551E+04 -4.165277E+03 -1.821752E+03 -1.220082E+03
       395  26  1.235485E+06  2.044791E+04  2.187300E+04  1.326600E+03 -1.129342E+03 -1.025977E+03
       395  27  1.230128E+06  1.922228E+04  2.006917E+04 -4.046820E+03 -4.368800E+02 -8.322494E+02
       396   1  1.105266E+06 -1.178007E+04 -1.101974E+04 -3.684811E+03  3.569284E+02  7.176092E+02
       396   2  1.109864E+06 -1.076599E+04 -1.001732E+04  8.533785E+02  2.373326E+01  5.305832E+02
       396   3  1.114577E+06 -9.504271E+03 -8.734169E+03 -3.707949E+03 -3.094980E+02  3.643879E+02
       396   4  1.152933E+06  1.037345E+02  7.922887E+02 -3.702846E+03  3.189802E+02  7.176090E+02
       396   5  1.152875E+06 -3.991856E+01  6.556914E+02  8.468949E+02 -1.023175E+01  5.305860E+02
       396   6  1.152932E+06  6.335896E+01  7.970298E+02 -3.702841E+03 -3.394772E+02  3.643931E+02
       396   7  1.200601E+06  1.198737E+04  1.260415E+04 -3.720882E+03  2.810290E+02  7.176087E+02
       396   8  1.195888E+06  1.068602E+04  1.132856E+04  8.404110E+02 -4.419910E+01  5.305888E+02
       396   9  1.191289E+06  9.630879E+03  1.032812E+04 -3.697733E+03 -3.694583E+02  3.643983E+02
       396  10  1.105266E+06 -1.178007E+04 -1.101975E+04 -3.684811E+03  7.878796E-12  2.373200E-11
       396  11  1.109864E+06 -1.076599E+04 -1.001732E+04  8.533785E+02 -6.013503E-10  4.308659E-10
       396  12  1.114577E+06 -9.504271E+03 -8.734169E+03 -3.707948E+03 -6.281490E-10  2.413997E-11
       396  13  1.152933E+06  1.037339E+02  7.922875E+02 -3.702846E+03 -2.329905E-11  5.523618E-11
       396  14  1.152875E+06 -3.991887E+01  6.556909E+02  8.468949E+02  4.908955E-11 -1.873882E-10
       396  15  1.152932E+06  6.335879E+01  7.970294E+02 -3.702841E+03 -1.676617E-11 -6.072414E-10
       396  16  1.200601E+06  1.198737E+04  1.260415E+04 -3.720882E+03  1.155099E-10  3.654633E-11
       396  17  1.195888E+06  1.068602E+04  1.132856E+04  8.404110E+02  8.120876E-10  4.785440E-10
       396  18  1.191289E+06  9.630878E+03  1.032812E+04 -3.697733E+03  7.015337E-10  5.562759E-10
       396  19  1.105266E+06 -1.178007E+04 -1.101974E+04 -3.684811E+03 -3.569284E+02 -7.176092E+02
       396  20  1.109864E+06 -1.076599E+04 -1.001732E+04  8.533785E+02 -2.373326E+01 -5.305832E+02
       396  21  1.114577E+06 -9.504271E+03 -8.734169E+03 -3.707949E+03  3.094980E+02 -3.643879E+02
       396  22  1.152933E+06  1.037345E+02  7.922887E+02 -3.702846E+03 -3.189802E+02 -7.176090E+02
       396  23  1.152875E+06 -3.991856E+01  6.556914E+02  8.468949E+02  1.023175E+01 -5.305860E+02
       396  24  1.152932E+06  6.335896E+01  7.970298E+02 -3.702841E+03  3.394772E+02 -3.643931E+02
       396  25  1.200601E+06  1.198737E+04  1.260415E+04 -3.720882E+03 -2.810290E+02 -7.176087E+02
       396  26  1.195888E+06  1.068602E+04  1.132856E+04  8.404110E+02  4.419910E+01 -5.305888E+02
       396  27  1.191289E+06  9.630879E+03  1.032812E+04 -3.697733E+03  3.694583E+02 -3.643983E+02
       397   1  1.140397E+06 -3.129325E+03 -2.171485E+03 -3.506378E+03 -4.631545E+02  2.694688E+02
       397   2  1.144556E+06 -2.171912E+03 -6.366326E+02  6.426753E+02 -1.179185E+03  1.017577E+02
       397   3  1.148971E+06 -5.451381E+02  1.530099E+03 -3.585730E+03 -1.895224E+03 -5.726392E+01
       397   4  1.152964E+06  1.779056E+00  9.326660E+02 -3.542436E+03 -4.962729E+02  2.694765E+02
       397   5  1.152836E+06 -1.070602E+02  1.418074E+03  6.463505E+02 -1.210641E+03  1.017655E+02
       397   6  1.152963E+06  4.531701E+02  2.534208E+03 -3.542314E+03 -1.925013E+03 -5.725600E+01
       397   7  1.165531E+06  3.132872E+03  4.036805E+03 -3.578494E+03 -5.293920E+02  2.694843E+02
       397   8  1.161116E+06  1.957786E+03  3.472776E+03  6.500257E+02 -1.242097E+03  1.017734E+02
       397   9  1.156956E+06  1.451477E+03  3.538315E+03 -3.498899E+03 -1.954802E+03 -5.724809E+01
       397  10  1.140397E+06 -3.129326E+03 -2.171485E+03 -3.506378E+03  4.473415E-10  3.918189E-10
       397  11  1.144556E+06 -2.171912E+03 -6.366352E+02  6.426754E+02  5.813006E-10  4.779356E-10
       397  12  1.148971E+06 -5.451390E+02  1.530093E+03 -3.585730E+03 -5.228166E-11 -1.860790E-10
       397  13  1.152964E+06  1.778912E+00  9.326654E+02 -3.542435E+03 -2.980023E-10 -8.100219E-10
       397  14  1.152836E+06 -1.070606E+02  1.418072E+03  6.463506E+02 -6.868135E-11 -2.743588E-10
       397  15  1.152963E+06  4.531691E+02  2.534201E+03 -3.542314E+03 -1.252768E-10  1.365967E-11
       397  16  1.165531E+06  3.132872E+03  4.036804E+03 -3.578494E+03 -4.363138E-10  4.550250E-10
       397  17  1.161116E+06  1.957786E+03  3.472773E+03  6.500258E+02 -2.911142E-10  7.260826E-10
       397  18  1.156956E+06  1.451476E+03  3.538308E+03 -3.498899E+03 -1.912383E-11  4.187481E-10
       397  19  1.140397E+06 -3.129326E+03 -2.171485E+03 -3.506378E+03  4.631545E+02 -2.694688E+02
       397  20  1.144556E+06 -2.171912E+03 -6.366326E+02  6.426753E+02  1.179185E+03 -1.017577E+02
       397  21  1.148971E+06 -5.451381E+02  1.530099E+03 -3.585730E+03  1.895224E+03  5.726392E+01
       397  22  1.152964E+06  1.779056E+00  9.326660E+02 -3.542436E+03  4.962729E+02 -2.694765E+02
       397  23  1.152836E+06 -1.070602E+02  1.418074E+03  6.463505E+02  1.210641E+03 -1.017655E+02
       397  24  1.152963E+06  4.531701E+02  2.534208E+03 -3.542314E+03  1.925013E+03  5.725600E+01
       397  25  1.165531E+06  3.132872E+03  4.036805E+03 -3.578494E+03  5.293920E+02 -2.694843E+02
       397  26  1.161116E+06  1.957786E+03  3.472776E+03  6.500257E+02  1.242097E+03 -1.017734E+02
       397  27  1.156956E+06  1.451477E+03  3.538315E+03 -3.498899E+03  1.954802E+03  5.724809E+01
       398   1  1.174320E+06  5.161410E+03  8.464051E+03 -3.387409E+03 -2.412635E+03 -1.524408E+02
       398   2  1.177999E+06  5.650603E+03  1.165306E+04  6.374923E+02 -5.138082E+03 -3.171798E+02
       398   3  1.183139E+06  1.057206E+04  1.772206E+04 -3.957040E+03 -7.863494E+03 -4.687546E+02
       398   4  1.153232E+06 -9.995614E+01  3.217889E+03 -3.596391E+03 -2.445646E+03 -1.524317E+02
       398   5  1.152499E+06 -7.081164E+02  5.326222E+03  7.136348E+02 -5.168462E+03 -3.171746E+02
       398   6  1.153229E+06  3.115657E+03  1.031283E+04 -3.595798E+03 -7.891225E+03 -4.687555E+02
       398   7  1.132144E+06 -5.361355E+03 -2.028306E+03 -3.805366E+03 -2.478656E+03 -1.524225E+02
       398   8  1.127000E+06 -7.066884E+03 -1.000667E+03  7.897743E+02 -5.198841E+03 -3.171694E+02
       398   9  1.123319E+06 -4.340814E+03  2.903530E+03 -3.234573E+03 -7.918954E+03 -4.687564E+02
       398  10  1.174320E+06  5.161408E+03  8.464040E+03 -3.387410E+03 -2.306027E-10  2.358747E-10
       398  11  1.177999E+06  5.650596E+03  1.165301E+04  6.374910E+02  1.224063E-11 -1.007707E-10
       398  12  1.183139E+06  1.057204E+04  1.772194E+04 -3.957043E+03  7.761844E-11 -3.573165E-10
       398  13  1.153232E+06 -9.995776E+01  3.217877E+03 -3.596392E+03  1.757316E-11  6.498264E-11
       398  14  1.152499E+06 -7.081237E+02  5.326172E+03  7.136335E+02 -3.673744E-10 -1.411339E-10
       398  15  1.153229E+06  3.115640E+03  1.031271E+04 -3.595801E+03  7.441450E-13 -8.202348E-11
       398  16  1.132144E+06 -5.361357E+03 -2.028318E+03 -3.805366E+03  3.553348E-10 -2.042383E-11
       398  17  1.127000E+06 -7.066892E+03 -1.000718E+03  7.897729E+02  3.056242E-11  7.547225E-11
       398  18  1.123319E+06 -4.340831E+03  2.903412E+03 -3.234576E+03 -2.771830E-10  2.529716E-10
       398  19  1.174320E+06  5.161410E+03  8.464051E+03 -3.387409E+03  2.412635E+03  1.524408E+02
       398  20  1.177999E+06  5.650603E+03  1.165306E+04  6.374923E+02  5.138082E+03  3.171798E+02
       398  21  1.183139E+06  1.057206E+04  1.772206E+04 -3.957040E+03  7.863494E+03  4.687546E+02
       398  22  1.153232E+06 -9.995614E+01  3.217889E+03 -3.596391E+03  2.445646E+03  1.524317E+02
       398  23  1.152499E+06 -7.081164E+02  5.326222E+03  7.136348E+02  5.168462E+03  3.171746E+02
       398  24  1.153229E+06  3.115657E+03  1.031283E+04 -3.595798E+03  7.891225E+03  4.687555E+02
       398  25  1.132144E+06 -5.361355E+03 -2.028306E+03 -3.805366E+03  2.478656E+03  1.524225E+02
       398  26  1.127000E+06 -7.066884E+03 -1.000667E+03  7.897743E+02  5.198841E+03  3.171694E+02
       398  27  1.123319E+06 -4.340814E+03  2.903530E+03 -3.234573E+03  7.918954E+03  4.687564E+02
       399   1  1.212068E+06  1.352029E+04  2.710504E+04 -2.478281E+03 -9.936875E+03 -5.984503E+02
       399   2  1.212616E+06  1.070832E+04  3.627118E+04  4.175915E+02 -2.088473E+04 -7.949654E+02
       399   3  1.222144E+06  3.802387E+04  6.009247E+04 -6.540372E+03 -3.183286E+04 -8.287203E+02
       399   4  1.154900E+06 -7.372808E+02  1.290714E+04 -3.870420E+03 -9.989933E+03 -5.984238E+02
       399   5  1.150405E+06 -4.804252E+03  2.083841E+04  1.056017E+03 -2.090554E+04 -7.949909E+02
       399   6  1.154885E+06  2.125233E+04  4.340352E+04 -3.871395E+03 -3.182133E+04 -8.288620E+02
       399   7  1.097736E+06 -1.499509E+04 -1.291000E+03 -5.262432E+03 -1.004299E+04 -5.983971E+02
       399   8  1.088198E+06 -2.031711E+04  5.405350E+03  1.694379E+03 -2.092635E+04 -7.950165E+02
       399   9  1.087630E+06  4.480465E+03  2.671424E+04 -1.202706E+03 -3.180980E+04 -8.290037E+02
       399  10  1.212067E+06  1.352026E+04  2.710485E+04 -2.478286E+03 -1.767862E-10  1.553276E-10
       399  11  1.212616E+06  1.070820E+04  3.627036E+04  4.175781E+02  3.346453E-10  2.165851E-10
       399  12  1.222143E+06  3.802360E+04  6.009057E+04 -6.540393E+03  1.070226E-10 -1.225576E-10
       399  13  1.154900E+06 -7.373079E+02  1.290695E+04 -3.870425E+03 -3.104807E-10  8.964174E-11
       399  14  1.150405E+06 -4.804369E+03  2.083759E+04  1.056004E+03  1.191602E-10  1.109083E-10
       399  15  1.154884E+06  2.125205E+04  4.340162E+04 -3.871416E+03 -1.863560E-11  7.274971E-11
       399  16  1.097736E+06 -1.499511E+04 -1.291190E+03 -5.262436E+03  5.296976E-11  5.082264E-11
       399  17  1.088197E+06 -2.031723E+04  5.404527E+03  1.694366E+03 -4.135101E-10  6.597220E-10
       399  18  1.087628E+06  4.480193E+03  2.671234E+04 -1.202727E+03 -7.927873E-11  3.073930E-11
       399  19  1.212068E+06  1.352029E+04  2.710504E+04 -2.478281E+03  9.936875E+03  5.984503E+02
       399  20  1.212616E+06  1.070832E+04  3.627118E+04  4.175915E+02  2.088473E+04  7.949654E+02
       399  21  1.222144E+06  3.802387E+04  6.009247E+04 -6.540372E+03  3.183286E+04  8.287203E+02
       399  22  1.154900E+06 -7.372808E+02  1.290714E+04 -3.870420E+03  9.989933E+03  5.984238E+02
       399  23  1.150405E+06 -4.804252E+03  2.083841E+04  1.056017E+03  2.090554E+04  7.949909E+02
       399  24  1.154885E+06  2.125233E+04  4.340352E+04 -3.871395E+03  3.182133E+04  8.288620E+02
       399  25  1.097736E+06 -1.499509E+04 -1.291000E+03 -5.262432E+03  1.004299E+04  5.983971E+02
       399  26  1.088198E+06 -2.031711E+04  5.405350E+03  1.694379E+03  2.092635E+04  7.950165E+02
       399  27  1.087630E+06  4.480465E+03  2.671424E+04 -1.202706E+03  3.180980E+04  8.290037E+02
       400   1  1.265322E+06  1.975354E+04  7.728024E+04  4.874824E+03 -4.027767E+04 -1.163211E+03
       400   2  1.243168E+06 -6.043329E+03  1.066174E+05 -3.149868E+03 -8.441432E+04 -1.534469E+03
       400   3  1.277813E+06  1.721330E+05  2.156644E+05 -2.347438E+04 -1.285513E+05 -5.890284E+02
       400   4  1.165525E+06 -5.136352E+03  5.250921E+04 -4.394535E+03 -4.046992E+04 -1.162647E+03
       400   5  1.137102E+06 -3.248367E+04  8.032636E+04  1.721836E+03 -8.434716E+04 -1.535129E+03
       400   6  1.165444E+06  1.441151E+05  1.876833E+05 -4.461061E+03 -1.282242E+05 -5.928211E+02
       400   7  1.065737E+06 -3.002667E+04  2.773749E+04 -1.366241E+04 -4.066214E+04 -1.162078E+03
       400   8  1.031047E+06 -5.892476E+04  5.403450E+04  6.592707E+03 -8.428001E+04 -1.535789E+03
       400   9  1.053086E+06  1.160976E+05  1.597014E+05  1.454883E+04 -1.278973E+05 -5.965944E+02
       400  10  1.265320E+06  1.975311E+04  7.727720E+04  4.874786E+03  1.524329E-10  9.569876E-11
       400  11  1.243160E+06 -6.045239E+03  1.066040E+05 -3.149972E+03 -4.750191E-12  3.184748E-11
       400  12  1.277795E+06  1.721285E+05  2.156334E+05 -2.347445E+04  1.126254E-11 -1.742659E-10
       400  13  1.165523E+06 -5.136792E+03  5.250614E+04 -4.394573E+03  8.308203E-11 -7.554748E-11
       400  14  1.137095E+06 -3.248558E+04  8.031301E+04  1.721732E+03  2.773935E-10 -1.150033E-10
       400  15  1.165426E+06  1.441107E+05  1.876524E+05 -4.461122E+03  2.387533E-11  2.200034E-11
       400  16  1.065735E+06 -3.002711E+04  2.773438E+04 -1.366244E+04 -3.319106E-11 -7.175817E-11
       400  17  1.031039E+06 -5.892666E+04  5.402117E+04  6.592603E+03  2.411151E-11  3.700039E-10
       400  18  1.053069E+06  1.160932E+05  1.596707E+05  1.454876E+04  2.024234E-10  1.283853E-10
       400  19  1.265322E+06  1.975354E+04  7.728024E+04  4.874824E+03  4.027767E+04  1.163211E+03
       400  20  1.243168E+06 -6.043329E+03  1.066174E+05 -3.149868E+03  8.441432E+04  1.534469E+03
       400  21  1.277813E+06  1.721330E+05  2.156644E+05 -2.347438E+04  1.285513E+05  5.890284E+02
       400  22  1.165525E+06 -5.136352E+03  5.250921E+04 -4.394535E+03  4.046992E+04  1.162647E+03
       400  23  1.137102E+06 -3.248367E+04  8.032636E+04  1.721836E+03  8.434716E+04  1.535129E+03
       400  24  1.165444E+06  1.441151E+05  1.876833E+05 -4.461061E+03  1.282242E+05  5.928211E+02
       400  25  1.065737E+06 -3.002667E+04  2.773749E+04 -1.366241E+04  4.066214E+04  1.162078E+03
       400  26  1.031047E+06 -5.892476E+04  5.403450E+04  6.592707E+03  8.428001E+04  1.535789E+03
       400  27  1.053086E+06  1.160976E+05  1.597014E+05  1.454883E+04  1.278973E+05  5.965944E+02
       401   1  2.098428E+05 -2.319934E+04 -1.613009E+04 -2.240138E+03  2.001412E+04  8.859599E+02
       401   2  2.121971E+05 -4.974073E+04 -3.140520E+04  2.346822E+03  1.339091E+04  2.527217E+03
       401   3  2.238307E+05 -4.361112E+04 -3.415126E+04 -6.685088E+03  6.768315E+03  2.054418E+03
       401   4  3.952610E+05  2.311451E+04  3.009852E+04 -5.231284E+03  2.053703E+04  8.860682E+02
       401   5  3.905887E+05 -5.220651E+03  1.286227E+04  1.582804E+03  1.350597E+04  2.527171E+03
       401   6  3.952639E+05 -8.189982E+02  8.435556E+03 -5.221755E+03  6.475612E+03  2.054437E+03
       401   7  5.807104E+05  6.942580E+04  7.632455E+04 -8.223326E+03  2.106011E+04  8.861714E+02
       401   8  5.690091E+05  3.929704E+04  5.712737E+04  8.185660E+02  1.362107E+04  2.527126E+03
       401   9  5.667238E+05  4.197093E+04  5.102018E+04 -3.758017E+03  6.182829E+03  2.054456E+03
       401  10  2.098423E+05 -2.319945E+04 -1.613084E+04 -2.240152E+03  1.905350E-10  3.422115E-11
       401  11  2.121969E+05 -4.974079E+04 -3.140555E+04  2.346794E+03  9.077417E-11 -9.576484E-11
       401  12  2.238306E+05 -4.361114E+04 -3.415136E+04 -6.685099E+03  2.000366E-10 -1.731962E-10
       401  13  3.952605E+05  2.311439E+04  3.009773E+04 -5.231298E+03  2.012214E-10 -1.768607E-10
       401  14  3.905885E+05 -5.220707E+03  1.286191E+04  1.582777E+03  2.693151E-10 -2.432117E-10
       401  15  3.952639E+05 -8.190139E+02  8.435470E+03 -5.221766E+03 -1.685364E-10 -2.014177E-10
       401  16  5.807099E+05  6.942568E+04  7.632372E+04 -8.223341E+03 -1.544483E-10  1.031777E-10
       401  17  5.690089E+05  3.929699E+04  5.712701E+04  8.185383E+02 -7.202022E-11 -2.478672E-10
       401  18  5.667238E+05  4.197091E+04  5.102010E+04 -3.758028E+03  2.519585E-11  5.963438E-11
       401  19  2.098428E+05 -2.319934E+04 -1.613009E+04 -2.240138E+03 -2.001412E+04 -8.859599E+02
       401  20  2.121971E+05 -4.974073E+04 -3.140520E+04  2.346822E+03 -1.339091E+04 -2.527217E+03
       401  21  2.238307E+05 -4.361112E+04 -3.415126E+04 -6.685088E+03 -6.768315E+03 -2.054418E+03
       401  22  3.952610E+05  2.311451E+04  3.009852E+04 -5.231284E+03 -2.053703E+04 -8.860682E+02
       401  23  3.905887E+05 -5.220651E+03  1.286227E+04  1.582804E+03 -1.350597E+04 -2.527171E+03
       401  24  3.952639E+05 -8.189982E+02  8.435556E+03 -5.221755E+03 -6.475612E+03 -2.054437E+03
       401  25  5.807104E+05  6.942580E+04  7.632455E+04 -8.223326E+03 -2.106011E+04 -8.861714E+02
       401  26  5.690091E+05  3.929704E+04  5.712737E+04  8.185660E+02 -1.362107E+04 -2.527126E+03
       401  27  5.667238E+05  4.197093E+04  5.102018E+04 -3.758017E+03 -6.182829E+03 -2.054456E+03
       402   1  2.604208E+05 -2.982441E+04 -2.609622E+04 -4.444655E+03  5.050329E+03  1.583376E+03
       402   2  2.658672E+05 -3.244665E+04 -2.815505E+04  1.324184E+03  3.347873E+03  1.616403E+03
       402   3  2.728540E+05 -3.023252E+04 -2.787456E+04 -5.059743E+03  1.645168E+03  1.361340E+03
       402   4  3.935339E+05  3.402666E+03  6.972099E+03 -4.897755E+03  5.084983E+03  1.583342E+03
       402   5  3.927590E+05 -7.753716E+02  3.354266E+03  1.178035E+03  3.326864E+03  1.616391E+03
       402   6  3.935337E+05 -1.079300E+02  2.114017E+03 -4.898780E+03  1.568512E+03  1.361375E+03
       402   7  5.266630E+05  3.662842E+04  4.003909E+04 -5.350950E+03  5.119645E+03  1.583307E+03
       402   8  5.196654E+05  3.089470E+04  3.486238E+04  1.031857E+03  3.305851E+03  1.616380E+03
       402   9  5.142266E+05  3.001557E+04  3.210150E+04 -4.737783E+03  1.491841E+03  1.361411E+03
       402  10  2.604208E+05 -2.982442E+04 -2.609627E+04 -4.444661E+03  1.624066E-10 -1.274636E-10
       402  11  2.658672E+05 -3.244666E+04 -2.815507E+04  1.324180E+03 -7.103360E-11 -2.327376E-10
       402  12  2.728540E+05 -3.023252E+04 -2.787457E+04 -5.059745E+03 -7.959971E-11  2.876579E-10
       402  13  3.935338E+05  3.402656E+03  6.972046E+03 -4.897761E+03  3.349560E-10  8.819589E-11
       402  14  3.927590E+05 -7.753774E+02  3.354241E+03  1.178030E+03  2.762227E-10 -4.005506E-10
       402  15  3.935337E+05 -1.079326E+02  2.114009E+03 -4.898782E+03 -3.611355E-10  1.716882E-10
       402  16  5.266630E+05  3.662841E+04  4.003904E+04 -5.350957E+03  3.079772E-10  1.685858E-10
       402  17  5.196654E+05  3.089470E+04  3.486235E+04  1.031853E+03  3.043640E-10 -9.330759E-11
       402  18  5.142266E+05  3.001557E+04  3.210150E+04 -4.737785E+03 -7.673687E-11  4.073807E-11
       402  19  2.604208E+05 -2.982441E+04 -2.609622E+04 -4.444655E+03 -5.050329E+03 -1.583376E+03
       402  20  2.658672E+05 -3.244665E+04 -2.815505E+04  1.324184E+03 -3.347873E+03 -1.616403E+03
       402  21  2.728540E+05 -3.023252E+04 -2.787456E+04 -5.059743E+03 -1.645168E+03 -1.361340E+03
       402  22  3.935339E+05  3.402666E+03  6.972099E+03 -4.897755E+03 -5.084983E+03 -1.583342E+03
       402  23  3.927590E+05 -7.753716E+02  3.354266E+03  1.178035E+03 -3.326864E+03 -1.616391E+03
       402  24  3.935337E+05 -1.079300E+02  2.114017E+03 -4.898780E+03 -1.568512E+03 -1.361375E+03
       402  25  5.266630E+05  3.662842E+04  4.003909E+04 -5.350950E+03 -5.119645E+03 -1.583307E+03
       402  26  5.196654E+05  3.089470E+04  3.486238E+04  1.031857E+03 -3.305851E+03 -1.616380E+03
       402  27  5.142266E+05  3.001557E+04  3.210150E+04 -4.737783E+03 -1.491841E+03 -1.361411E+03
       403   1  3.072407E+05 -2.096549E+04 -1.964038E+04 -4.570253E+03  1.254876E+03  1.184684E+03
       403   2  3.128109E+05 -2.016203E+04 -1.900092E+04  9.662334E+02  7.792537E+02  1.000706E+03
       403   3  3.186529E+05 -1.861827E+04 -1.786189E+04 -4.653047E+03  3.035341E+02  7.880435E+02
       403   4  3.932522E+05  4.996545E+02  1.706056E+03 -4.676558E+03  1.222337E+03  1.184699E+03
       403   5  3.931156E+05 -1.185598E+02  9.423361E+02  9.010895E+02  7.411464E+02  1.000732E+03
       403   6  3.932518E+05  4.441538E+00  6.819924E+02 -4.676939E+03  2.598628E+02  7.880821E+02
       403   7  4.792705E+05  2.196424E+04  2.305194E+04 -4.782876E+03  1.189793E+03  1.184713E+03
       403   8  4.734262E+05  1.992442E+04  2.088511E+04  8.359385E+02  7.030341E+02  1.000757E+03
       403   9  4.678557E+05  1.862674E+04  1.922546E+04 -4.700833E+03  2.161863E+02  7.881206E+02
       403  10  3.072407E+05 -2.096549E+04 -1.964039E+04 -4.570254E+03  1.487353E-10  9.875643E-11
       403  11  3.128109E+05 -2.016203E+04 -1.900092E+04  9.662328E+02 -5.547742E-11  8.040569E-11
       403  12  3.186529E+05 -1.861827E+04 -1.786189E+04 -4.653047E+03 -2.745554E-10 -4.326831E-10
       403  13  3.932522E+05  4.996526E+02  1.706050E+03 -4.676559E+03 -3.946597E-10  5.617667E-11
       403  14  3.931156E+05 -1.185610E+02  9.423331E+02  9.010889E+02 -1.065648E-10  2.519277E-10
       403  15  3.932518E+05  4.440852E+00  6.819911E+02 -4.676940E+03 -2.730350E-10  9.008824E-10
       403  16  4.792704E+05  2.196424E+04  2.305194E+04 -4.782877E+03  2.629505E-10 -4.087459E-11
       403  17  4.734262E+05  1.992442E+04  2.088510E+04  8.359380E+02  3.598363E-10 -7.536292E-10
       403  18  4.678557E+05  1.862674E+04  1.922546E+04 -4.700833E+03  4.785855E-10 -9.390511E-11
       403  19  3.072407E+05 -2.096549E+04 -1.964038E+04 -4.570253E+03 -1.254876E+03 -1.184684E+03
       403  20  3.128109E+05 -2.016203E+04 -1.900092E+04  9.662334E+02 -7.792537E+02 -1.000706E+03
       403  21  3.186529E+05 -1.861827E+04 -1.786189E+04 -4.653047E+03 -3.035341E+02 -7.880435E+02
       403  22  3.932522E+05  4.996545E+02  1.706056E+03 -4.676558E+03 -1.222337E+03 -1.184699E+03
       403  23  3.931156E+05 -1.185598E+02  9.423361E+02  9.010895E+02 -7.411464E+02 -1.000732E+03
       403  24  3.932518E+05  4.441538E+00  6.819924E+02 -4.676939E+03 -2.598628E+02 -7.880821E+02
       403  25  4.792705E+05  2.196424E+04  2.305194E+04 -4.782876E+03 -1.189793E+03 -1.184713E+03
       403  26  4.734262E+05  1.992442E+04  2.088511E+04  8.359385E+02 -7.030341E+02 -1.000757E+03
       403  27  4.678557E+05  1.862674E+04  1.922546E+04 -4.700833E+03 -2.161863E+02 -7.881206E+02
       404   1  3.509572E+05 -1.046605E+04 -9.856066E+03 -4.505164E+03  1.809468E+02  6.609838E+02
       404   2  3.563371E+05 -9.228769E+03 -8.552323E+03  7.768833E+02 -1.180292E+02  4.572132E+02
       404   3  3.617937E+05 -7.762335E+03 -7.000751E+03 -4.532843E+03 -4.170325E+02  2.554876E+02
       404   4  3.932095E+05  7.623758E+01  6.200388E+02 -4.551466E+03  1.415545E+02  6.610232E+02
       404   5  3.931710E+05 -3.548049E+01  5.952173E+02  7.444082E+02 -1.570449E+02  4.572554E+02
       404   6  3.932092E+05  8.190378E+01  8.179752E+02 -4.551452E+03 -4.556690E+02  2.555327E+02
       404   7  4.354634E+05  1.061839E+04  1.109601E+04 -4.597771E+03  1.021596E+02  6.610626E+02
       404   8  4.300061E+05  9.157706E+03  9.742656E+03  7.119315E+02 -1.960629E+02  4.572976E+02
       404   9  4.246256E+05  7.926068E+03  8.636627E+03 -4.570061E+03 -4.943074E+02  2.555777E+02
       404  10  3.509572E+05 -1.046605E+04 -9.856067E+03 -4.505164E+03 -2.099304E-10  5.669350E-11
       404  11  3.563371E+05 -9.228769E+03 -8.552323E+03  7.768833E+02 -3.301533E-10  3.716660E-11
       404  12  3.617937E+05 -7.762335E+03 -7.000751E+03 -4.532842E+03 -2.879931E-10 -4.634778E-10
       404  13  3.932095E+05  7.623710E+01  6.200379E+02 -4.551466E+03 -6.320574E-10 -5.821408E-10
       404  14  3.931710E+05 -3.548072E+01  5.952168E+02  7.444082E+02 -2.690003E-10  1.125386E-10
       404  15  3.932092E+05  8.190365E+01  8.179747E+02 -4.551452E+03 -3.048220E-10 -9.074847E-10
       404  16  4.354634E+05  1.061839E+04  1.109601E+04 -4.597771E+03  7.052793E-10  6.006438E-10
       404  17  4.300061E+05  9.157706E+03  9.742655E+03  7.119315E+02  6.245682E-10 -3.250805E-10
       404  18  4.246256E+05  7.926068E+03  8.636626E+03 -4.570061E+03  2.768753E-10 -1.344940E-09
       404  19  3.509572E+05 -1.046605E+04 -9.856066E+03 -4.505164E+03 -1.809468E+02 -6.609838E+02
       404  20  3.563371E+05 -9.228769E+03 -8.552323E+03  7.768833E+02  1.180292E+02 -4.572132E+02
       404  21  3.617937E+05 -7.762335E+03 -7.000751E+03 -4.532843E+03  4.170325E+02 -2.554876E+02
       404  22  3.932095E+05  7.623758E+01  6.200388E+02 -4.551466E+03 -1.415545E+02 -6.610232E+02
       404  23  3.931710E+05 -3.548049E+01  5.952173E+02  7.444082E+02  1.570449E+02 -4.572554E+02
       404  24  3.932092E+05  8.190378E+01  8.179752E+02 -4.551452E+03  4.556690E+02 -2.555327E+02
       404  25  4.354634E+05  1.061839E+04  1.109601E+04 -4.597771E+03 -1.021596E+02 -6.610626E+02
       404  26  4.300061E+05  9.157706E+03  9.742656E+03  7.119315E+02  1.960629E+02 -4.572976E+02
       404  27  4.246256E+05  7.926068E+03  8.636627E+03 -4.570061E+03  4.943074E+02 -2.555777E+02
       405   1  3.931193E+05 -2.611453E+01  9.773407E+02 -4.479745E+03 -5.806887E+02  1.377876E+02
       405   2  3.983265E+05  1.177744E+03  2.870291E+03  6.917068E+02 -1.375894E+03 -6.351406E+01
       405   3  4.037995E+05  3.153591E+03  5.467380E+03 -4.576387E+03 -2.171110E+03 -2.615054E+02
       405   4  3.932515E+05  3.601217E+00  9.932560E+02 -4.517872E+03 -6.198552E+02  1.378347E+02
       405   5  3.931187E+05 -1.220548E+02  1.577028E+03  7.022119E+02 -1.414419E+03 -6.346826E+01
       405   6  3.932513E+05  5.241547E+02  2.864483E+03 -4.517255E+03 -2.208986E+03 -2.614609E+02
       405   7  3.933837E+05  3.331697E+01  1.009171E+03 -4.555999E+03 -6.590217E+02  1.378818E+02
       405   8  3.879108E+05 -1.421855E+03  2.837631E+02  7.127170E+02 -1.452943E+03 -6.342247E+01
       405   9  3.827032E+05 -2.105290E+03  2.615786E+02 -4.458123E+03 -2.246862E+03 -2.614165E+02
       405  10  3.931193E+05 -2.611464E+01  9.773400E+02 -4.479745E+03 -8.323408E-10  4.831218E-10
       405  11  3.983265E+05  1.177743E+03  2.870287E+03  6.917067E+02 -4.933360E-10  1.860435E-09
       405  12  4.037995E+05  3.153590E+03  5.467371E+03 -4.576388E+03  4.255008E-10 -1.009954E-09
       405  13  3.932515E+05  3.601094E+00  9.932553E+02 -4.517872E+03 -6.215006E-10 -8.409524E-11
       405  14  3.931186E+05 -1.220554E+02  1.577024E+03  7.022119E+02 -9.522367E-11 -3.342061E-10
       405  15  3.932513E+05  5.241533E+02  2.864474E+03 -4.517255E+03 -3.201417E-10  6.879703E-11
       405  16  3.933837E+05  3.331683E+01  1.009171E+03 -4.555999E+03  1.030208E-09 -1.291052E-11
       405  17  3.879108E+05 -1.421856E+03  2.837591E+02  7.127169E+02  9.089831E-10 -1.567917E-10
       405  18  3.827032E+05 -2.105291E+03  2.615689E+02 -4.458123E+03 -3.811167E-10 -3.350401E-10
       405  19  3.931193E+05 -2.611453E+01  9.773407E+02 -4.479745E+03  5.806887E+02 -1.377876E+02
       405  20  3.983265E+05  1.177744E+03  2.870291E+03  6.917068E+02  1.375894E+03  6.351406E+01
       405  21  4.037995E+05  3.153591E+03  5.467380E+03 -4.576387E+03  2.171110E+03  2.615054E+02
       405  22  3.932515E+05  3.601217E+00  9.932560E+02 -4.517872E+03  6.198552E+02 -1.378347E+02
       405  23  3.931187E+05 -1.220548E+02  1.577028E+03  7.022119E+02  1.414419E+03  6.346826E+01
       405  24  3.932513E+05  5.241547E+02  2.864483E+03 -4.517255E+03  2.208986E+03  2.614609E+02
       405  25  3.933837E+05  3.331697E+01  1.009171E+03 -4.555999E+03  6.590217E+02 -1.378818E+02
       405  26  3.879108E+05 -1.421855E+03  2.837631E+02  7.127170E+02  1.452943E+03  6.342247E+01
       405  27  3.827032E+05 -2.105290E+03  2.615786E+02 -4.458123E+03  2.246862E+03  2.614165E+02
       406   1  4.355441E+05  1.037446E+04  1.409206E+04 -4.368649E+03 -2.756233E+03 -3.832687E+02
       406   2  4.401834E+05  1.103378E+04  1.784175E+04  6.518766E+02 -5.858208E+03 -5.867467E+02
       406   3  4.464827E+05  1.676569E+04  2.487560E+04 -5.017830E+03 -8.960153E+03 -7.640180E+02
       406   4  3.935606E+05 -1.062800E+02  3.649466E+03 -4.574678E+03 -2.798387E+03 -3.832203E+02
       406   5  3.927306E+05 -8.093876E+02  6.058139E+03  7.723300E+02 -5.895118E+03 -5.867103E+02
       406   6  3.935597E+05  3.559403E+03  1.174753E+04 -4.570943E+03 -8.991792E+03 -7.639960E+02
       406   7  3.515786E+05 -1.058715E+04 -6.793264E+03 -4.780692E+03 -2.840538E+03 -3.831718E+02
       406   8  3.452797E+05 -1.265273E+04 -5.725637E+03  8.927748E+02 -5.932025E+03 -5.866740E+02
       406   9  3.406393E+05 -9.647093E+03 -1.380745E+03 -4.124093E+03 -9.023428E+03 -7.639740E+02
       406  10  4.355441E+05  1.037446E+04  1.409205E+04 -4.368650E+03 -2.608371E-10 -1.328464E-09
       406  11  4.401834E+05  1.103377E+04  1.784168E+04  6.518738E+02  9.574461E-11 -8.418101E-11
       406  12  4.464826E+05  1.676567E+04  2.487544E+04 -5.017836E+03  8.963452E-11  3.642392E-10
       406  13  3.935605E+05 -1.062822E+02  3.649451E+03 -4.574679E+03 -6.833640E-10 -1.132635E-10
       406  14  3.927305E+05 -8.093973E+02  6.058074E+03  7.723273E+02  7.068874E-11 -2.998067E-10
       406  15  3.935596E+05  3.559381E+03  1.174738E+04 -4.570948E+03 -6.367913E-11 -8.924903E-12
       406  16  3.515786E+05 -1.058715E+04 -6.793279E+03 -4.780693E+03  7.830797E-10 -6.811956E-11
       406  17  3.452797E+05 -1.265274E+04 -5.725703E+03  8.927720E+02  2.078859E-10  1.415849E-09
       406  18  3.406392E+05 -9.647115E+03 -1.380899E+03 -4.124099E+03 -4.099237E-10  3.429905E-10
       406  19  4.355441E+05  1.037446E+04  1.409206E+04 -4.368649E+03  2.756233E+03  3.832687E+02
       406  20  4.401834E+05  1.103378E+04  1.784175E+04  6.518766E+02  5.858208E+03  5.867467E+02
       406  21  4.464827E+05  1.676569E+04  2.487560E+04 -5.017830E+03  8.960153E+03  7.640180E+02
       406  22  3.935606E+05 -1.062800E+02  3.649466E+03 -4.574678E+03  2.798387E+03  3.832203E+02
       406  23  3.927306E+05 -8.093876E+02  6.058139E+03  7.723300E+02  5.895118E+03  5.867103E+02
       406  24  3.935597E+05  3.559403E+03  1.174753E+04 -4.570943E+03  8.991792E+03  7.639960E+02
       406  25  3.515786E+05 -1.058715E+04 -6.793264E+03 -4.780692E+03  2.840538E+03  3.831718E+02
       406  26  3.452797E+05 -1.265273E+04 -5.725637E+03  8.927748E+02  5.932025E+03  5.866740E+02
       406  27  3.406393E+05 -9.647093E+03 -1.380745E+03 -4.124093E+03  9.023428E+03  7.639740E+02
       407   1  4.812010E+05  2.056277E+04  3.601205E+04 -3.194224E+03 -1.131441E+04 -9.225349E+02
       407   2  4.818798E+05  1.736362E+04  4.647471E+04  1.768604E+02 -2.379741E+04 -1.151484E+03
       407   3  4.928180E+05  4.854605E+04  7.366389E+04 -7.801388E+03 -3.628018E+04 -1.151009E+03
       407   4  3.954691E+05 -8.326965E+02  1.470708E+04 -4.726034E+03 -1.138157E+04 -9.224502E+02
       407   5  3.903400E+05 -5.482470E+03  2.374715E+04  9.571573E+02 -2.381889E+04 -1.151505E+03
       407   6  3.954640E+05  2.424418E+04  4.948387E+04 -4.709097E+03 -3.625587E+04 -1.151215E+03
       407   7  3.097438E+05 -2.222871E+04 -6.598437E+03 -6.257632E+03 -1.144872E+04 -9.223652E+02
       407   8  2.988078E+05 -2.832919E+04  1.018977E+03  1.737341E+03 -2.384037E+04 -1.151526E+03
       407   9  2.981187E+05 -5.835818E+01  2.530314E+04 -1.617290E+03 -3.623156E+04 -1.151420E+03
       407  10  4.812009E+05  2.056274E+04  3.601181E+04 -3.194232E+03 -4.752345E-10  4.677727E-10
       407  11  4.818792E+05  1.736347E+04  4.647364E+04  1.768383E+02 -2.147971E-11 -9.607227E-10
       407  12  4.928166E+05  4.854570E+04  7.366142E+04 -7.801421E+03 -1.179933E-11 -2.444783E-10
       407  13  3.954689E+05 -8.327322E+02  1.470684E+04 -4.726043E+03 -3.849633E-10  7.276002E-10
       407  14  3.903393E+05 -5.482624E+03  2.374609E+04  9.571352E+02 -6.780989E-10  1.381807E-09
       407  15  3.954626E+05  2.424383E+04  4.948140E+04 -4.709131E+03 -2.239103E-10 -1.811085E-10
       407  16  3.097437E+05 -2.222874E+04 -6.598685E+03 -6.257640E+03  9.301346E-10  3.651517E-10
       407  17  2.988071E+05 -2.832934E+04  1.017907E+03  1.737318E+03  8.136223E-10  2.296360E-11
       407  18  2.981173E+05 -5.871180E+01  2.530067E+04 -1.617324E+03 -2.106979E-11 -1.658821E-10
       407  19  4.812010E+05  2.056277E+04  3.601205E+04 -3.194224E+03  1.131441E+04  9.225349E+02
       407  20  4.818798E+05  1.736362E+04  4.647471E+04  1.768604E+02  2.379741E+04  1.151484E+03
       407  21  4.928180E+05  4.854605E+04  7.366389E+04 -7.801388E+03  3.628018E+04  1.151009E+03
       407  22  3.954691E+05 -8.326965E+02  1.470708E+04 -4.726034E+03  1.138157E+04  9.224502E+02
       407  23  3.903400E+05 -5.482470E+03  2.374715E+04  9.571573E+02  2.381889E+04  1.151505E+03
       407  24  3.954640E+05  2.424418E+04  4.948387E+04 -4.709097E+03  3.625587E+04  1.151215E+03
       407  25  3.097438E+05 -2.222871E+04 -6.598437E+03 -6.257632E+03  1.144872E+04  9.223652E+02
       407  26  2.988078E+05 -2.832919E+04  1.018977E+03  1.737341E+03  2.384037E+04  1.151526E+03
       407  27  2.981187E+05 -5.835818E+01  2.530314E+04 -1.617290E+03  3.623156E+04  1.151420E+03
       408   1  5.403721E+05  2.727372E+04  9.284748E+04  5.513806E+03 -4.587649E+04 -1.543657E+03
       408   2  5.143416E+05 -2.325599E+03  1.261195E+05 -4.347633E+03 -9.622504E+04 -1.941756E+03
       408   3  5.531549E+05  2.007427E+05  2.503514E+05 -2.668138E+04 -1.465737E+05 -6.684920E+02
       408   4  4.075914E+05 -5.850227E+03  5.986976E+04 -4.981956E+03 -4.611193E+04 -1.542768E+03
       408   5  3.751787E+05 -3.705482E+04  9.159333E+04  1.265736E+03 -9.613000E+04 -1.942679E+03
       408   6  4.075661E+05  1.643776E+05  2.140620E+05 -4.957934E+03 -1.461476E+05 -6.736744E+02
       408   7  2.748271E+05 -3.897508E+04  2.689078E+04 -1.547547E+04 -4.634732E+04 -1.541871E+03
       408   8  2.360335E+05 -7.178537E+04  5.706573E+04  6.877848E+03 -9.603498E+04 -1.943601E+03
       408   9  2.619976E+05  1.280128E+05  1.777712E+05  1.676042E+04 -1.457216E+05 -6.788281E+02
       408  10  5.403698E+05  2.727315E+04  9.284352E+04  5.513749E+03 -7.330215E-11 -1.542890E-10
       408  11  5.143317E+05 -2.328086E+03  1.261021E+05 -4.347784E+03 -8.915853E-12 -3.146541E-11
       408  12  5.531318E+05  2.007369E+05  2.503111E+05 -2.668146E+04 -1.104960E-10 -1.868033E-10
       408  13  4.075892E+05 -5.850800E+03  5.986576E+04 -4.982014E+03 -4.508280E-10 -7.158456E-10
       408  14  3.751688E+05 -3.705730E+04  9.157597E+04  1.265585E+03 -2.087815E-10 -9.576712E-10
       408  15  4.075432E+05  1.643719E+05  2.140219E+05 -4.958013E+03 -2.357590E-11  2.314840E-10
       408  16  2.748248E+05 -3.897566E+04  2.688674E+04 -1.547553E+04  9.649983E-11 -4.791565E-10
       408  17  2.360236E+05 -7.178785E+04  5.704840E+04  6.877698E+03  2.143260E-10 -4.107120E-10
       408  18  2.619748E+05  1.280071E+05  1.777313E+05  1.676034E+04  1.354036E-10 -1.679999E-10
       408  19  5.403721E+05  2.727372E+04  9.284748E+04  5.513806E+03  4.587649E+04  1.543657E+03
       408  20  5.143416E+05 -2.325599E+03  1.261195E+05 -4.347633E+03  9.622504E+04  1.941756E+03
       408  21  5.531549E+05  2.007427E+05  2.503514E+05 -2.668138E+04  1.465737E+05  6.684920E+02
       408  22  4.075914E+05 -5.850227E+03  5.986976E+04 -4.981956E+03  4.611193E+04  1.542768E+03
       408  23  3.751787E+05 -3.705482E+04  9.159333E+04  1.265736E+03  9.613000E+04  1.942679E+03
       408  24  4.075661E+05  1.643776E+05  2.140620E+05 -4.957934E+03  1.461476E+05  6.736744E+02
       408  25  2.748271E+05 -3.897508E+04  2.689078E+04 -1.547547E+04  4.634732E+04  1.541871E+03
       408  26  2.360335E+05 -7.178537E+04  5.706573E+04  6.877848E+03  9.603498E+04  1.943601E+03
       408  27  2.619976E+05  1.280128E+05  1.777712E+05  1.676042E+04  1.457216E+05  6.788281E+02
       409   1 -1.467856E+06 -1.232900E+05 -1.665932E+05 -1.862197E+04 -1.270924E+05 -3.760281E+02
       409   2 -1.440231E+06  5.226865E+04 -6.001482E+04 -5.161648E+03 -8.366230E+04 -1.130795E+03
       409   3 -1.468980E+06  2.491288E+04 -3.247096E+04  9.477579E+03 -4.023290E+04 -9.923974E+02
       409   4 -1.548246E+06 -1.434136E+05 -1.866781E+05  2.776143E+02 -1.273105E+05 -3.799073E+02
       409   5 -1.519986E+06  3.232697E+04 -7.984635E+04 -3.121750E+02 -8.371452E+04 -1.131467E+03
       409   6 -1.548136E+06  5.109700E+03 -5.217179E+04  2.764184E+02 -4.011922E+04 -9.917808E+02
       409   7 -1.628630E+06 -1.635363E+05 -2.067633E+05  1.917475E+04 -1.275285E+05 -3.838002E+02
       409   8 -1.599735E+06  1.238491E+04 -9.967835E+04  4.536674E+03 -8.376673E+04 -1.132139E+03
       409   9 -1.627286E+06 -1.469364E+04 -7.187304E+04 -8.923566E+03 -4.000556E+04 -9.911675E+02
       409  10 -1.467874E+06 -1.232943E+05 -1.666236E+05 -1.862201E+04 -8.503911E-11  9.583375E-11
       409  11 -1.440239E+06  5.226676E+04 -6.002800E+04 -5.161725E+03  9.116509E-10 -4.636180E-10
       409  12 -1.468982E+06  2.491245E+04 -3.247401E+04  9.477547E+03  8.242884E-10 -1.183531E-10
       409  13 -1.548264E+06 -1.434179E+05 -1.867086E+05  2.775753E+02 -2.227870E-10  7.458875E-11
       409  14 -1.519994E+06  3.232508E+04 -7.985956E+04 -3.122513E+02  5.500302E-10  1.827180E-10
       409  15 -1.548137E+06  5.109265E+03 -5.217482E+04  2.763863E+02  1.751745E-10  2.460650E-10
       409  16 -1.628647E+06 -1.635407E+05 -2.067940E+05  1.917471E+04 -3.472944E-11  1.089581E-10
       409  17 -1.599743E+06  1.238301E+04 -9.969158E+04  4.536597E+03 -9.562580E-11 -7.574513E-11
       409  18 -1.627287E+06 -1.469407E+04 -7.187606E+04 -8.923598E+03 -4.074548E-10 -4.555199E-11
       409  19 -1.467856E+06 -1.232900E+05 -1.665932E+05 -1.862197E+04  1.270924E+05  3.760281E+02
       409  20 -1.440231E+06  5.226865E+04 -6.001482E+04 -5.161648E+03  8.366230E+04  1.130795E+03
       409  21 -1.468980E+06  2.491288E+04 -3.247096E+04  9.477579E+03  4.023290E+04  9.923974E+02
       409  22 -1.548246E+06 -1.434136E+05 -1.866781E+05  2.776143E+02  1.273105E+05  3.799073E+02
       409  23 -1.519986E+06  3.232697E+04 -7.984635E+04 -3.121750E+02  8.371452E+04  1.131467E+03
       409  24 -1.548136E+06  5.109700E+03 -5.217179E+04  2.764184E+02  4.011922E+04  9.917808E+02
       409  25 -1.628630E+06 -1.635363E+05 -2.067633E+05  1.917475E+04  1.275285E+05  3.838002E+02
       409  26 -1.599735E+06  1.238491E+04 -9.967835E+04  4.536674E+03  8.376673E+04  1.132139E+03
       409  27 -1.627286E+06 -1.469364E+04 -7.187304E+04 -8.923566E+03  4.000556E+04  9.911675E+02
       410   1 -1.466398E+06 -3.346205E+03 -2.539632E+04 -1.717765E+03 -3.152173E+04 -8.360865E+02
       410   2 -1.464012E+06  2.207021E+04 -3.483882E+03 -1.711319E+03 -2.072713E+04 -8.947908E+02
       410   3 -1.470498E+06  1.751907E+04  3.903968E+03  2.324984E+03 -9.932763E+03 -7.757367E+02
       410   4 -1.537602E+06 -2.115425E+04 -4.312355E+04  9.172758E+02 -3.154817E+04 -8.362358E+02
       410   5 -1.533152E+06  4.779296E+03 -2.068690E+04 -1.101263E+03 -2.072062E+04 -8.948154E+02
       410   6 -1.537581E+06  7.376998E+02 -1.279895E+04  9.101186E+02 -9.893259E+03 -7.756986E+02
       410   7 -1.608801E+06 -3.896265E+04 -6.085115E+04  3.552013E+03 -3.157461E+04 -8.363853E+02
       410   8 -1.602288E+06 -1.251198E+04 -3.789028E+04 -4.912759E+02 -2.071411E+04 -8.948401E+02
       410   9 -1.604660E+06 -1.604400E+04 -2.950221E+04 -5.045940E+02 -9.853759E+03 -7.756607E+02
       410  10 -1.466399E+06 -3.346474E+03 -2.539819E+04 -1.717786E+03  4.482462E-10  8.729469E-11
       410  11 -1.464012E+06  2.207010E+04 -3.484692E+03 -1.711334E+03 -1.619546E-10  4.718065E-10
       410  12 -1.470498E+06  1.751904E+04  3.903781E+03  2.324978E+03  6.702015E-10 -2.715668E-10
       410  13 -1.537603E+06 -2.115452E+04 -4.312542E+04  9.172546E+02  1.852478E-10  5.534096E-10
       410  14 -1.533152E+06  4.779179E+03 -2.068771E+04 -1.101278E+03  2.024988E-10  9.151288E-10
       410  15 -1.537581E+06  7.376728E+02 -1.279914E+04  9.101124E+02  7.396374E-10 -3.558392E-11
       410  16 -1.608802E+06 -3.896292E+04 -6.085303E+04  3.551992E+03 -4.087183E-10  2.531902E-10
       410  17 -1.602288E+06 -1.251210E+04 -3.789109E+04 -4.912909E+02  4.969020E-10 -1.504827E-10
       410  18 -1.604660E+06 -1.604403E+04 -2.950240E+04 -5.046002E+02 -7.109620E-10  1.360819E-10
       410  19 -1.466398E+06 -3.346205E+03 -2.539632E+04 -1.717765E+03  3.152173E+04  8.360865E+02
       410  20 -1.464012E+06  2.207021E+04 -3.483882E+03 -1.711319E+03  2.072713E+04  8.947908E+02
       410  21 -1.470498E+06  1.751907E+04  3.903968E+03  2.324984E+03  9.932763E+03  7.757367E+02
       410  22 -1.537602E+06 -2.115425E+04 -4.312355E+04  9.172758E+02  3.154817E+04  8.362358E+02
       410  23 -1.533152E+06  4.779296E+03 -2.068690E+04 -1.101263E+03  2.072062E+04  8.948154E+02
       410  24 -1.537581E+06  7.376998E+02 -1.279895E+04  9.101186E+02  9.893259E+03  7.756986E+02
       410  25 -1.608801E+06 -3.896265E+04 -6.085115E+04  3.552013E+03  3.157461E+04  8.363853E+02
       410  26 -1.602288E+06 -1.251198E+04 -3.789028E+04 -4.912759E+02  2.071411E+04  8.948401E+02
       410  27 -1.604660E+06 -1.604400E+04 -2.950221E+04 -5.045940E+02  9.853759E+03  7.756607E+02
       411   1 -1.484460E+06  9.770576E+03  2.578411E+03  1.076525E+03 -7.828159E+03 -6.952655E+02
       411   2 -1.486932E+06  1.277626E+04  6.746361E+03 -1.768046E+03 -5.148847E+03 -6.123974E+02
       411   3 -1.490846E+06  1.138451E+04  8.068999E+03  1.643952E+03 -2.469563E+03 -4.726831E+02
       411   4 -1.535932E+06 -3.101206E+03 -1.022475E+04  1.408889E+03 -7.817592E+03 -6.952674E+02
       411   5 -1.535208E+06  7.023322E+02 -5.266778E+03 -1.720365E+03 -5.127584E+03 -6.123869E+02
       411   6 -1.535928E+06  1.063829E+02 -3.161720E+03  1.406977E+03 -2.437590E+03 -4.726607E+02
       411   7 -1.587402E+06 -1.597319E+04 -2.302810E+04  1.741224E+03 -7.807025E+03 -6.952692E+02
       411   8 -1.583482E+06 -1.137177E+04 -1.728009E+04 -1.672689E+03 -5.106322E+03 -6.123764E+02
       411   9 -1.581009E+06 -1.117189E+04 -1.439259E+04  1.170020E+03 -2.405619E+03 -4.726383E+02
       411  10 -1.484460E+06  9.770559E+03  2.578295E+03  1.076521E+03 -7.670336E-10 -1.905988E-12
       411  11 -1.486932E+06  1.277625E+04  6.746311E+03 -1.768048E+03 -4.151892E-10 -2.142892E-10
       411  12 -1.490846E+06  1.138450E+04  8.068987E+03  1.643951E+03  2.775132E-10 -5.570622E-10
       411  13 -1.535932E+06 -3.101223E+03 -1.022486E+04  1.408884E+03  3.655738E-10  5.758437E-11
       411  14 -1.535208E+06  7.023247E+02 -5.266828E+03 -1.720368E+03 -1.427325E-10  1.307998E-10
       411  15 -1.535928E+06  1.063810E+02 -3.161732E+03  1.406976E+03  1.779662E-10 -1.428665E-11
       411  16 -1.587402E+06 -1.597320E+04 -2.302822E+04  1.741220E+03 -1.045211E-11 -3.311237E-10
       411  17 -1.583482E+06 -1.137178E+04 -1.728014E+04 -1.672691E+03  3.649453E-10 -9.386207E-10
       411  18 -1.581009E+06 -1.117189E+04 -1.439260E+04  1.170019E+03  2.309910E-10 -1.179638E-09
       411  19 -1.484460E+06  9.770576E+03  2.578411E+03  1.076525E+03  7.828159E+03  6.952655E+02
       411  20 -1.486932E+06  1.277626E+04  6.746361E+03 -1.768046E+03  5.148847E+03  6.123974E+02
       411  21 -1.490846E+06  1.138451E+04  8.068999E+03  1.643952E+03  2.469563E+03  4.726831E+02
       411  22 -1.535932E+06 -3.101206E+03 -1.022475E+04  1.408889E+03  7.817592E+03  6.952674E+02
       411  23 -1.535208E+06  7.023322E+02 -5.266778E+03 -1.720365E+03  5.127584E+03  6.123869E+02
       411  24 -1.535928E+06  1.063829E+02 -3.161720E+03  1.406977E+03  2.437590E+03  4.726607E+02
       411  25 -1.587402E+06 -1.597319E+04 -2.302810E+04  1.741224E+03  7.807025E+03  6.952692E+02
       411  26 -1.583482E+06 -1.137177E+04 -1.728009E+04 -1.672689E+03  5.106322E+03  6.123764E+02
       411  27 -1.581009E+06 -1.117189E+04 -1.439259E+04  1.170020E+03  2.405619E+03  4.726383E+02
       412   1 -1.511549E+06  5.581802E+03  3.513549E+03  1.666920E+03 -1.951906E+03 -3.870068E+02
       412   2 -1.515278E+06  5.168220E+03  3.694902E+03 -2.074147E+03 -1.277824E+03 -2.558062E+02
       412   3 -1.519266E+06  4.117421E+03  3.274834E+03  1.739475E+03 -6.037721E+02 -1.060225E+02
       412   4 -1.535665E+06 -4.477489E+02 -2.477513E+03  1.696358E+03 -1.928594E+03 -3.869899E+02
       412   5 -1.535535E+06  1.018124E+02 -1.346029E+03 -2.081173E+03 -1.250975E+03 -2.557852E+02
       412   6 -1.535664E+06  1.352901E+01 -8.184439E+02  1.696001E+03 -5.733814E+02 -1.059972E+02
       412   7 -1.559781E+06 -6.477343E+03 -8.468620E+03  1.725795E+03 -1.905283E+03 -3.869729E+02
       412   8 -1.555791E+06 -4.964626E+03 -6.386990E+03 -2.088199E+03 -1.224126E+03 -2.557642E+02
       412   9 -1.552062E+06 -4.090383E+03 -4.911742E+03  1.652527E+03 -5.429916E+02 -1.059718E+02
       412  10 -1.511549E+06  5.581801E+03  3.513542E+03  1.666920E+03  2.333326E-10 -5.378984E-10
       412  11 -1.515278E+06  5.168219E+03  3.694899E+03 -2.074147E+03  1.289033E-10  1.802725E-10
       412  12 -1.519266E+06  4.117421E+03  3.274833E+03  1.739475E+03  2.268115E-10 -4.217441E-10
       412  13 -1.535665E+06 -4.477501E+02 -2.477521E+03  1.696358E+03  8.842411E-10 -8.382623E-10
       412  14 -1.535535E+06  1.018119E+02 -1.346032E+03 -2.081173E+03 -2.784155E-10  6.478355E-10
       412  15 -1.535664E+06  1.352891E+01 -8.184445E+02  1.696001E+03 -2.298320E-10 -2.069956E-10
       412  16 -1.559781E+06 -6.477345E+03 -8.468627E+03  1.725794E+03 -1.032617E-09  1.245342E-09
       412  17 -1.555791E+06 -4.964626E+03 -6.386993E+03 -2.088199E+03  1.083428E-10  1.062213E-09
       412  18 -1.552062E+06 -4.090384E+03 -4.911743E+03  1.652527E+03 -3.814541E-10  1.060321E-09
       412  19 -1.511549E+06  5.581802E+03  3.513549E+03  1.666920E+03  1.951906E+03  3.870068E+02
       412  20 -1.515278E+06  5.168220E+03  3.694902E+03 -2.074147E+03  1.277824E+03  2.558062E+02
       412  21 -1.519266E+06  4.117421E+03  3.274834E+03  1.739475E+03  6.037721E+02  1.060225E+02
       412  22 -1.535665E+06 -4.477489E+02 -2.477513E+03  1.696358E+03  1.928594E+03  3.869899E+02
       412  23 -1.535535E+06  1.018124E+02 -1.346029E+03 -2.081173E+03  1.250975E+03  2.557852E+02
       412  24 -1.535664E+06  1.352901E+01 -8.184439E+02  1.696001E+03  5.733814E+02  1.059972E+02
       412  25 -1.559781E+06 -6.477343E+03 -8.468620E+03  1.725795E+03  1.905283E+03  3.869729E+02
       412  26 -1.555791E+06 -4.964626E+03 -6.386990E+03 -2.088199E+03  1.224126E+03  2.557642E+02
       412  27 -1.552062E+06 -4.090383E+03 -4.911742E+03  1.652527E+03  5.429916E+02  1.059718E+02
       413   1 -1.542437E+06 -1.766244E+03 -2.360404E+03  1.725593E+03 -4.701222E+02 -1.364938E+01
       413   2 -1.546350E+06 -2.672813E+03 -3.097765E+03 -2.136841E+03 -2.585465E+02  1.353299E+02
       413   3 -1.550338E+06 -3.703617E+03 -4.007257E+03  1.735378E+03 -4.695984E+01  2.734094E+02
       413   4 -1.535623E+06 -5.954354E+01 -6.523920E+02  1.736137E+03 -4.405652E+02 -1.362448E+01
       413   5 -1.535586E+06  1.950960E+01 -4.190004E+02 -2.131200E+03 -2.310766E+02  1.353523E+02
       413   6 -1.535623E+06 -2.532247E+01 -3.563008E+02  1.736107E+03 -2.157559E+01  2.734295E+02
       413   7 -1.528809E+06  1.647153E+03  1.055616E+03  1.746680E+03 -4.110079E+02 -1.359957E+01
       413   8 -1.524821E+06  2.711823E+03  2.259755E+03 -2.125560E+03 -2.036062E+02  1.353748E+02
       413   9 -1.520907E+06  3.652955E+03  3.294639E+03  1.736836E+03  3.809254E+00  2.734496E+02
       413  10 -1.542437E+06 -1.766244E+03 -2.360404E+03  1.725593E+03  8.909763E-10  5.888203E-11
       413  11 -1.546350E+06 -2.672813E+03 -3.097765E+03 -2.136840E+03  6.048273E-10  4.086389E-10
       413  12 -1.550338E+06 -3.703617E+03 -4.007257E+03  1.735378E+03  4.133986E-10  4.484975E-10
       413  13 -1.535623E+06 -5.954359E+01 -6.523924E+02  1.736137E+03  9.694720E-10 -1.570996E-09
       413  14 -1.535586E+06  1.950957E+01 -4.190005E+02 -2.131200E+03  4.874999E-10 -9.407555E-10
       413  15 -1.535623E+06 -2.532255E+01 -3.563009E+02  1.736107E+03 -6.630898E-10  1.239996E-09
       413  16 -1.528809E+06  1.647153E+03  1.055616E+03  1.746680E+03 -1.202136E-09  4.617206E-10
       413  17 -1.524821E+06  2.711823E+03  2.259755E+03 -2.125560E+03 -3.298496E-10 -4.039277E-11
       413  18 -1.520907E+06  3.652955E+03  3.294639E+03  1.736836E+03 -4.820297E-10  2.304628E-10
       413  19 -1.542437E+06 -1.766244E+03 -2.360404E+03  1.725593E+03  4.701222E+02  1.364938E+01
       413  20 -1.546350E+06 -2.672813E+03 -3.097765E+03 -2.136841E+03  2.585465E+02 -1.353299E+02
       413  21 -1.550338E+06 -3.703617E+03 -4.007257E+03  1.735378E+03  4.695984E+01 -2.734094E+02
       413  22 -1.535623E+06 -5.954354E+01 -6.523920E+02  1.736137E+03  4.405652E+02  1.362448E+01
       413  23 -1.535586E+06  1.950960E+01 -4.190004E+02 -2.131200E+03  2.310766E+02 -1.353523E+02
       413  24 -1.535623E+06 -2.532247E+01 -3.563008E+02  1.736107E+03  2.157559E+01 -2.734295E+02
       413  25 -1.528809E+06  1.647153E+03  1.055616E+03  1.746680E+03  4.110079E+02  1.359957E+01
       413  26 -1.524821E+06  2.711823E+03  2.259755E+03 -2.125560E+03  2.036062E+02 -1.353748E+02
       413  27 -1.520907E+06  3.652955E+03  3.294639E+03  1.736836E+03 -3.809254E+00 -2.734496E+02
       414   1 -1.572362E+06 -9.188051E+03 -9.509457E+03  1.485253E+03  1.015457E+01  3.629554E+02
       414   2 -1.575767E+06 -1.000530E+04 -1.043349E+04 -1.878865E+03  2.390424E+02  5.075886E+02
       414   3 -1.579277E+06 -1.112041E+04 -1.158129E+04  1.524438E+03  4.679887E+02  6.022794E+02
       414   4 -1.535629E+06  1.836162E+00 -3.559032E+02  1.521119E+03  4.262412E+01  3.629795E+02
       414   5 -1.535578E+06  4.671362E+01 -4.322266E+02 -1.862510E+03  2.619539E+02  5.076030E+02
       414   6 -1.535629E+06 -2.045795E+02 -7.256431E+02  1.521254E+03  4.813432E+02  6.022855E+02
       414   7 -1.498896E+06  9.191621E+03  8.797549E+03  1.556986E+03  7.509559E+01  3.630036E+02
       414   8 -1.495387E+06  1.009861E+04  9.568918E+03 -1.846154E+03  2.848668E+02  5.076174E+02
       414   9 -1.491980E+06  1.071111E+04  1.012987E+04  1.518071E+03  4.946986E+02  6.022916E+02
       414  10 -1.572362E+06 -9.188051E+03 -9.509458E+03  1.485253E+03  8.588518E-10 -3.297796E-10
       414  11 -1.575767E+06 -1.000530E+04 -1.043349E+04 -1.878865E+03  7.390360E-11  9.683591E-11
       414  12 -1.579277E+06 -1.112041E+04 -1.158130E+04  1.524438E+03  3.583531E-10 -3.191900E-10
       414  13 -1.535629E+06  1.836021E+00 -3.559035E+02  1.521119E+03 -2.374486E-10  7.338014E-10
       414  14 -1.535578E+06  4.671333E+01 -4.322272E+02 -1.862510E+03 -9.677018E-10  1.360349E-09
       414  15 -1.535629E+06 -2.045800E+02 -7.256443E+02  1.521254E+03  3.483210E-10 -4.684509E-10
       414  16 -1.498896E+06  9.191621E+03  8.797549E+03  1.556986E+03 -3.626944E-10 -2.431871E-10
       414  17 -1.495387E+06  1.009861E+04  9.568917E+03 -1.846155E+03 -1.068364E-09  9.359798E-10
       414  18 -1.491980E+06  1.071110E+04  1.012986E+04  1.518070E+03 -5.181666E-10 -4.911165E-10
       414  19 -1.572362E+06 -9.188051E+03 -9.509457E+03  1.485253E+03 -1.015457E+01 -3.629554E+02
       414  20 -1.575767E+06 -1.000530E+04 -1.043349E+04 -1.878865E+03 -2.390424E+02 -5.075886E+02
       414  21 -1.579277E+06 -1.112041E+04 -1.158129E+04  1.524438E+03 -4.679887E+02 -6.022794E+02
       414  22 -1.535629E+06  1.836162E+00 -3.559032E+02  1.521119E+03 -4.262412E+01 -3.629795E+02
       414  23 -1.535578E+06  4.671362E+01 -4.322266E+02 -1.862510E+03 -2.619539E+02 -5.076030E+02
       414  24 -1.535629E+06 -2.045795E+02 -7.256431E+02  1.521254E+03 -4.813432E+02 -6.022855E+02
       414  25 -1.498896E+06  9.191621E+03  8.797549E+03  1.556986E+03 -7.509559E+01 -3.630036E+02
       414  26 -1.495387E+06  1.009861E+04  9.568918E+03 -1.846154E+03 -2.848668E+02 -5.076174E+02
       414  27 -1.491980E+06  1.071111E+04  1.012987E+04  1.518071E+03 -4.946986E+02 -6.022916E+02
       415   1 -1.596939E+06 -1.526084E+04 -1.612590E+04  9.629672E+02  5.853019E+02  6.897153E+02
       415   2 -1.599105E+06 -1.560560E+04 -1.723408E+04 -1.297293E+03  1.346748E+03  8.178052E+02
       415   3 -1.601844E+06 -1.794056E+04 -1.933148E+04  1.240198E+03  2.108291E+03  7.750201E+02
       415   4 -1.535733E+06  5.025467E+01 -8.838611E+02  1.083236E+03  6.261750E+02  6.897360E+02
       415   5 -1.535450E+06  3.154892E+02 -1.394669E+03 -1.315321E+03  1.354943E+03  8.178039E+02
       415   6 -1.535734E+06 -1.403691E+03 -2.871878E+03  1.083843E+03  2.083811E+03  7.750043E+02
       415   7 -1.474523E+06  1.536107E+04  1.435789E+04  1.203516E+03  6.670521E+02  6.897567E+02
       415   8 -1.471791E+06  1.623627E+04  1.444444E+04 -1.333351E+03  1.363139E+03  8.178026E+02
       415   9 -1.469620E+06  1.513285E+04  1.358739E+04  9.274716E+02  2.059328E+03  7.749885E+02
       415  10 -1.596939E+06 -1.526084E+04 -1.612590E+04  9.629669E+02 -1.983378E-10  3.828332E-10
       415  11 -1.599105E+06 -1.560560E+04 -1.723409E+04 -1.297294E+03 -1.950975E-10 -8.703078E-11
       415  12 -1.601844E+06 -1.794056E+04 -1.933149E+04  1.240196E+03 -1.364701E-10 -1.464710E-10
       415  13 -1.535733E+06  5.025406E+01 -8.838628E+02  1.083236E+03  3.420022E-10 -3.999742E-10
       415  14 -1.535450E+06  3.154880E+02 -1.394674E+03 -1.315322E+03 -3.110579E-10 -8.291834E-11
       415  15 -1.535734E+06 -1.403693E+03 -2.871888E+03  1.083842E+03  3.441486E-10 -1.387788E-10
       415  16 -1.474523E+06  1.536107E+04  1.435789E+04  1.203516E+03 -4.180720E-10 -4.483503E-10
       415  17 -1.471791E+06  1.623627E+04  1.444444E+04 -1.333352E+03 -2.862779E-11 -5.207052E-10
       415  18 -1.469620E+06  1.513285E+04  1.358739E+04  9.274704E+02 -5.407630E-11  4.296084E-10
       415  19 -1.596939E+06 -1.526084E+04 -1.612590E+04  9.629672E+02 -5.853019E+02 -6.897153E+02
       415  20 -1.599105E+06 -1.560560E+04 -1.723408E+04 -1.297293E+03 -1.346748E+03 -8.178052E+02
       415  21 -1.601844E+06 -1.794056E+04 -1.933148E+04  1.240198E+03 -2.108291E+03 -7.750201E+02
       415  22 -1.535733E+06  5.025467E+01 -8.838611E+02  1.083236E+03 -6.261750E+02 -6.897360E+02
       415  23 -1.535450E+06  3.154892E+02 -1.394669E+03 -1.315321E+03 -1.354943E+03 -8.178039E+02
       415  24 -1.535734E+06 -1.403691E+03 -2.871878E+03  1.083843E+03 -2.083811E+03 -7.750043E+02
       415  25 -1.474523E+06  1.536107E+04  1.435789E+04  1.203516E+03 -6.670521E+02 -6.897567E+02
       415  26 -1.471791E+06  1.623627E+04  1.444444E+04 -1.333351E+03 -1.363139E+03 -8.178026E+02
       415  27 -1.469620E+06  1.513285E+04  1.358739E+04  9.274716E+02 -2.059328E+03 -7.749885E+02
       416   1 -1.613036E+06 -1.882298E+04 -2.253663E+04 -1.434518E+02  2.539739E+03  9.402932E+02
       416   2 -1.612263E+06 -1.728388E+04 -2.462330E+04 -2.596343E+02  5.602703E+03  1.096176E+03
       416   3 -1.615219E+06 -2.923418E+04 -3.207124E+04  1.735538E+03  8.665743E+03  3.751274E+02
       416   4 -1.536429E+06  3.395016E+02 -3.468481E+03  4.859740E+02  2.653660E+03  9.403271E+02
       416   5 -1.534583E+06  2.142591E+03 -5.306125E+03 -5.691654E+02  5.548902E+03  1.096152E+03
       416   6 -1.536436E+06 -9.513647E+03 -1.238787E+04  4.870516E+02  8.444227E+03  3.750858E+02
       416   7 -1.459816E+06  1.950154E+04  1.559922E+04  1.115477E+03  2.767596E+03  9.403613E+02
       416   8 -1.456897E+06  2.156861E+04  1.401060E+04 -8.787356E+02  5.495094E+03  1.096129E+03
       416   9 -1.457649E+06  1.020642E+04  7.295021E+03 -7.615936E+02  8.222683E+03  3.750451E+02
       416  10 -1.613036E+06 -1.882298E+04 -2.253664E+04 -1.434537E+02  3.227772E-10 -2.420076E-10
       416  11 -1.612263E+06 -1.728389E+04 -2.462336E+04 -2.596392E+02  2.458395E-10 -2.015828E-10
       416  12 -1.615219E+06 -2.923420E+04 -3.207138E+04  1.735535E+03 -1.404499E-10 -9.588718E-11
       416  13 -1.536429E+06  3.394988E+02 -3.468496E+03  4.859720E+02  1.324792E-09 -4.582432E-10
       416  14 -1.534583E+06  2.142581E+03 -5.306185E+03 -5.691703E+02 -3.118966E-14  1.350053E-10
       416  15 -1.536437E+06 -9.513666E+03 -1.238801E+04  4.870491E+02  1.764034E-10 -4.461543E-12
       416  16 -1.459816E+06  1.950154E+04  1.559921E+04  1.115475E+03 -9.868615E-11  1.257016E-10
       416  17 -1.456897E+06  2.156860E+04  1.401054E+04 -8.787405E+02  1.265929E-10  5.148988E-10
       416  18 -1.457649E+06  1.020641E+04  7.294893E+03 -7.615961E+02 -5.013096E-10  7.741857E-11
       416  19 -1.613036E+06 -1.882298E+04 -2.253663E+04 -1.434518E+02 -2.539739E+03 -9.402932E+02
       416  20 -1.612263E+06 -1.728388E+04 -2.462330E+04 -2.596343E+02 -5.602703E+03 -1.096176E+03
       416  21 -1.615219E+06 -2.923418E+04 -3.207124E+04  1.735538E+03 -8.665743E+03 -3.751274E+02
       416  22 -1.536429E+06  3.395016E+02 -3.468481E+03  4.859740E+02 -2.653660E+03 -9.403271E+02
       416  23 -1.534583E+06  2.142591E+03 -5.306125E+03 -5.691654E+02 -5.548902E+03 -1.096152E+03
       416  24 -1.536436E+06 -9.513647E+03 -1.238787E+04  4.870516E+02 -8.444227E+03 -3.750858E+02
       416  25 -1.459816E+06  1.950154E+04  1.559922E+04  1.115477E+03 -2.767596E+03 -9.403613E+02
       416  26 -1.456897E+06  2.156861E+04  1.401060E+04 -8.787356E+02 -5.495094E+03 -1.096129E+03
       416  27 -1.457649E+06  1.020642E+04  7.295021E+03 -7.615936E+02 -8.222683E+03 -3.750451E+02
       417   1  5.633277E+06  1.120862E+06  1.456510E+06  1.520084E+05  9.860703E+05  1.015522E+01
       417   2  5.412260E+06 -2.333446E+05  6.323234E+05  3.746183E+04  6.489650E+05 -7.187730E+02
       417   3  5.624576E+06 -2.550652E+04  4.171326E+05 -6.585223E+04  3.118188E+05 -5.814733E+02
       417   4  5.565673E+06  1.104011E+06  1.439756E+06  5.317963E+03  9.858300E+05 -2.208821E+02
       417   5  5.350440E+06 -2.487076E+05  6.170702E+05 -2.232256E+02  6.489021E+05 -7.578486E+02
       417   6  5.568530E+06 -3.937304E+04  4.032992E+05  5.436685E+03  3.119300E+05 -5.459405E+02
       417   7  5.498120E+06  1.087240E+06  1.423012E+06 -1.413567E+05  9.855897E+05 -4.518285E+02
       417   8  5.288627E+06 -2.640656E+05  6.018174E+05 -3.790456E+04  6.488392E+05 -7.969201E+02
       417   9  5.512497E+06 -5.322086E+04  3.894683E+05  7.671922E+04  3.120413E+05 -5.103795E+02
       417  10  5.632241E+06  1.120604E+06  1.454700E+06  1.520085E+05 -4.295044E-10 -1.235569E-09
       417  11  5.411811E+06 -2.334564E+05  6.315390E+05  3.746221E+04  2.233794E-09 -2.318301E-09
       417  12  5.624472E+06 -2.553232E+04  4.169515E+05 -6.585209E+04 -2.179740E-09 -2.634030E-09
       417  13  5.564637E+06  1.103753E+06  1.437946E+06  5.318140E+03  2.003572E-09 -9.363591E-10
       417  14  5.349991E+06 -2.488194E+05  6.162859E+05 -2.228306E+02  1.940037E-09 -2.864989E-09
       417  15  5.568426E+06 -3.939887E+04  4.031180E+05  5.436822E+03 -2.044352E-09 -2.347387E-09
       417  16  5.497084E+06  1.086982E+06  1.421203E+06 -1.413564E+05  1.375963E-09 -1.383223E-09
       417  17  5.288178E+06 -2.641774E+05  6.010332E+05 -3.790415E+04  2.505352E-09 -3.181006E-09
       417  18  5.512393E+06 -5.324671E+04  3.892870E+05  7.671935E+04  4.037794E-09 -6.515485E-10
       417  19  5.633277E+06  1.120862E+06  1.456510E+06  1.520084E+05 -9.860703E+05 -1.015522E+01
       417  20  5.412260E+06 -2.333446E+05  6.323234E+05  3.746183E+04 -6.489650E+05  7.187730E+02
       417  21  5.624576E+06 -2.550652E+04  4.171326E+05 -6.585223E+04 -3.118188E+05  5.814733E+02
       417  22  5.565673E+06  1.104011E+06  1.439756E+06  5.317963E+03 -9.858300E+05  2.208821E+02
       417  23  5.350440E+06 -2.487076E+05  6.170702E+05 -2.232256E+02 -6.489021E+05  7.578486E+02
       417  24  5.568530E+06 -3.937304E+04  4.032992E+05  5.436685E+03 -3.119300E+05  5.459405E+02
       417  25  5.498120E+06  1.087240E+06  1.423012E+06 -1.413567E+05 -9.855897E+05  4.518285E+02
       417  26  5.288627E+06 -2.640656E+05  6.018174E+05 -3.790456E+04 -6.488392E+05  7.969201E+02
       417  27  5.512497E+06 -5.322086E+04  3.894683E+05  7.671922E+04 -3.120413E+05  5.103795E+02
       418   1  5.519604E+06  1.710256E+05  3.415589E+05  2.457786E+04  2.452273E+05 -3.243122E+02
       418   2  5.483024E+06 -2.925641E+04  1.678790E+05  6.367234E+03  1.611209E+05 -3.195612E+02
       418   3  5.514867E+06  1.192580E+03  1.063126E+05 -6.707849E+03  7.701804E+04 -2.733036E+02
       418   4  5.486638E+06  1.628275E+05  3.334167E+05  3.998921E+03  2.452227E+05 -3.323721E+02
       418   5  5.452710E+06 -3.678449E+04  1.603933E+05  1.459128E+03  1.611274E+05 -3.208208E+02
       418   6  5.487207E+06 -5.662088E+03  9.947982E+04  4.054743E+03  7.703539E+04 -2.719722E+02
       418   7  5.453674E+06  1.546308E+05  3.252746E+05 -1.657894E+04  2.452181E+05 -3.404321E+02
       418   8  5.422397E+06 -4.431254E+04  1.529075E+05 -3.448741E+03  1.611339E+05 -3.220806E+02
       418   9  5.459547E+06 -1.251638E+04  9.264702E+04  1.481686E+04  7.705274E+04 -2.706401E+02
       418  10  5.519540E+06  1.710096E+05  3.414469E+05  2.457793E+04 -2.297474E-09 -9.594398E-10
       418  11  5.482997E+06 -2.926331E+04  1.678306E+05  6.367276E+03  1.552642E-09 -1.037779E-10
       418  12  5.514861E+06  1.191005E+03  1.063016E+05 -6.707832E+03  4.767180E-10 -4.817292E-11
       418  13  5.486574E+06  1.628115E+05  3.333047E+05  3.998987E+03  2.133591E-09 -3.685751E-10
       418  14  5.452683E+06 -3.679138E+04  1.603449E+05  1.459169E+03  2.804153E-09  7.380945E-10
       418  15  5.487200E+06 -5.663664E+03  9.946877E+04  4.054760E+03 -2.195962E-09 -1.148474E-10
       418  16  5.453610E+06  1.546149E+05  3.251626E+05 -1.657887E+04  1.344839E-09 -5.597326E-10
       418  17  5.422370E+06 -4.431944E+04  1.528591E+05 -3.448699E+03  1.191295E-09 -9.531893E-10
       418  18  5.459540E+06 -1.251796E+04  9.263596E+04  1.481688E+04 -7.212315E-10 -1.427392E-10
       418  19  5.519604E+06  1.710256E+05  3.415589E+05  2.457786E+04 -2.452273E+05  3.243122E+02
       418  20  5.483024E+06 -2.925641E+04  1.678790E+05  6.367234E+03 -1.611209E+05  3.195612E+02
       418  21  5.514867E+06  1.192580E+03  1.063126E+05 -6.707849E+03 -7.701804E+04  2.733036E+02
       418  22  5.486638E+06  1.628275E+05  3.334167E+05  3.998921E+03 -2.452227E+05  3.323721E+02
       418  23  5.452710E+06 -3.678449E+04  1.603933E+05  1.459128E+03 -1.611274E+05  3.208208E+02
       418  24  5.487207E+06 -5.662088E+03  9.947982E+04  4.054743E+03 -7.703539E+04  2.719722E+02
       418  25  5.453674E+06  1.546308E+05  3.252746E+05 -1.657894E+04 -2.452181E+05  3.404321E+02
       418  26  5.422397E+06 -4.431254E+04  1.529075E+05 -3.448741E+03 -1.611339E+05  3.220806E+02
       418  27  5.459547E+06 -1.251638E+04  9.264702E+04  1.481686E+04 -7.705274E+04  2.706401E+02
       419   1  5.491717E+06  2.817602E+04  8.386495E+04  6.118301E+03  6.078047E+04 -2.240493E+02
       419   2  5.485072E+06 -1.399460E+03  4.544276E+04  2.862488E+03  3.958531E+04 -1.769672E+02
       419   3  5.489642E+06  3.017097E+03  2.922856E+04  1.731988E+03  1.839092E+04 -1.656354E+02
       419   4  5.474386E+06  2.387262E+04  7.958919E+04  3.358869E+03  6.079376E+04 -2.243113E+02
       419   5  5.468835E+06 -5.430170E+03  4.143218E+04  2.301684E+03  3.959218E+04 -1.769994E+02
       419   6  5.474500E+06 -7.393270E+02  2.548803E+04  3.369796E+03  1.839134E+04 -1.655872E+02
       419   7  5.457055E+06  1.956922E+04  7.531341E+04  5.995142E+02  6.080705E+04 -2.245733E+02
       419   8  5.452598E+06 -9.460898E+03  3.742159E+04  1.740894E+03  3.959905E+04 -1.770317E+02
       419   9  5.459358E+06 -4.495758E+03  2.174749E+04  5.007565E+03  1.839176E+04 -1.655390E+02
       419  10  5.491713E+06  2.817504E+04  8.385807E+04  6.118312E+03 -1.494505E-09 -5.860060E-10
       419  11  5.485071E+06 -1.399876E+03  4.543984E+04  2.862494E+03 -4.494590E-09 -9.435698E-10
       419  12  5.489642E+06  3.017007E+03  2.922793E+04  1.731991E+03  7.177549E-11  6.547518E-10
       419  13  5.474382E+06  2.387163E+04  7.958231E+04  3.358880E+03 -1.937655E-09 -3.539613E-12
       419  14  5.468833E+06 -5.430586E+03  4.142926E+04  2.301690E+03 -1.355511E-10  1.387513E-09
       419  15  5.474500E+06 -7.394168E+02  2.548740E+04  3.369799E+03 -3.691830E-09 -8.910244E-10
       419  16  5.457051E+06  1.956824E+04  7.530652E+04  5.995252E+02 -1.443117E-09 -2.351901E-10
       419  17  5.452596E+06 -9.461315E+03  3.741867E+04  1.740900E+03 -2.173208E-09 -7.320769E-10
       419  18  5.459357E+06 -4.495848E+03  2.174686E+04  5.007567E+03 -6.225199E-10  1.474196E-09
       419  19  5.491717E+06  2.817602E+04  8.386495E+04  6.118301E+03 -6.078047E+04  2.240493E+02
       419  20  5.485072E+06 -1.399460E+03  4.544276E+04  2.862488E+03 -3.958531E+04  1.769672E+02
       419  21  5.489642E+06  3.017097E+03  2.922856E+04  1.731988E+03 -1.839092E+04  1.656354E+02
       419  22  5.474386E+06  2.387262E+04  7.958919E+04  3.358869E+03 -6.079376E+04  2.243113E+02
       419  23  5.468835E+06 -5.430170E+03  4.143218E+04  2.301684E+03 -3.959218E+04  1.769994E+02
       419  24  5.474500E+06 -7.393270E+02  2.548803E+04  3.369796E+03 -1.839134E+04  1.655872E+02
       419  25  5.457055E+06  1.956922E+04  7.531341E+04  5.995142E+02 -6.080705E+04  2.245733E+02
       419  26  5.452598E+06 -9.460898E+03  3.742159E+04  1.740894E+03 -3.959905E+04  1.770317E+02
       419  27  5.459358E+06 -4.495758E+03  2.174749E+04  5.007565E+03 -1.839176E+04  1.655390E+02
       420   1  5.484158E+06  6.353178E+03  2.330690E+04  3.331904E+03  1.421250E+04 -1.540152E+02
       420   2  5.482911E+06  1.973234E+03  1.530072E+04  2.852291E+03  7.941837E+03 -1.326966E+02
       420   3  5.483852E+06  3.115432E+03  1.273107E+04  2.690073E+03  1.671135E+03 -1.482232E+02
       420   4  5.472480E+06  3.454919E+03  2.042515E+04  2.963185E+03  1.422061E+04 -1.540195E+02
       420   5  5.471396E+06 -8.848467E+02  1.245639E+04  2.805278E+03  7.942926E+03 -1.326968E+02
       420   6  5.472500E+06  2.988005E+02  9.929059E+03  2.964771E+03  1.665203E+03 -1.482258E+02
       420   7  5.460803E+06  5.566500E+02  1.754338E+04  2.594473E+03  1.422872E+04 -1.540239E+02
       420   8  5.459881E+06 -3.742938E+03  9.612039E+03  2.758265E+03  7.944016E+03 -1.326969E+02
       420   9  5.461149E+06 -2.517841E+03  7.127043E+03  3.239464E+03  1.659271E+03 -1.482284E+02
       420  10  5.484158E+06  6.353124E+03  2.330653E+04  3.331906E+03  1.845911E-10 -1.114937E-09
       420  11  5.482911E+06  1.973218E+03  1.530061E+04  2.852292E+03  4.425522E-11  1.295230E-09
       420  12  5.483852E+06  3.115432E+03  1.273106E+04  2.690073E+03 -1.449300E-09 -1.760442E-09
       420  13  5.472480E+06  3.454865E+03  2.042477E+04  2.963187E+03 -5.390817E-10 -1.121766E-10
       420  14  5.471396E+06 -8.848635E+02  1.245627E+04  2.805278E+03 -1.391357E-09 -9.351628E-10
       420  15  5.472500E+06  2.987998E+02  9.929054E+03  2.964771E+03  1.351100E-09  9.625431E-12
       420  16  5.460803E+06  5.565962E+02  1.754300E+04  2.594475E+03  4.302192E-10  9.038778E-11
       420  17  5.459881E+06 -3.742954E+03  9.611921E+03  2.758266E+03 -1.688264E-09 -1.013409E-09
       420  18  5.461149E+06 -2.517841E+03  7.127038E+03  3.239464E+03  5.785143E-10 -2.277946E-09
       420  19  5.484158E+06  6.353178E+03  2.330690E+04  3.331904E+03 -1.421250E+04  1.540152E+02
       420  20  5.482911E+06  1.973234E+03  1.530072E+04  2.852291E+03 -7.941837E+03  1.326966E+02
       420  21  5.483852E+06  3.115432E+03  1.273107E+04  2.690073E+03 -1.671135E+03  1.482232E+02
       420  22  5.472480E+06  3.454919E+03  2.042515E+04  2.963185E+03 -1.422061E+04  1.540195E+02
       420  23  5.471396E+06 -8.848467E+02  1.245639E+04  2.805278E+03 -7.942926E+03  1.326968E+02
       420  24  5.472500E+06  2.988005E+02  9.929059E+03  2.964771E+03 -1.665203E+03  1.482258E+02
       420  25  5.460803E+06  5.566500E+02  1.754338E+04  2.594473E+03 -1.422872E+04  1.540239E+02
       420  26  5.459881E+06 -3.742938E+03  9.612039E+03  2.758265E+03 -7.944016E+03  1.326969E+02
       420  27  5.461149E+06 -2.517841E+03  7.127043E+03  3.239464E+03 -1.659271E+03  1.482284E+02
       421   1  5.485192E+06  3.573223E+03  1.282753E+04  2.845655E+03 -1.200643E+02 -1.535794E+02
       421   2  5.484906E+06  2.571706E+03  1.437139E+04  3.227995E+03 -5.680085E+03 -1.629235E+02
       421   3  5.486527E+06  6.323144E+03  2.070029E+04  2.295087E+03 -1.124011E+04 -2.143562E+02
       421   4  5.472438E+06  4.073185E+02  9.677257E+03  2.601881E+03 -1.172116E+02 -1.535780E+02
       421   5  5.471477E+06 -7.614667E+02  1.105416E+04  3.258783E+03 -5.685264E+03 -1.629269E+02
       421   6  5.472423E+06  2.824149E+03  1.722173E+04  2.600435E+03 -1.125331E+04 -2.143698E+02
       421   7  5.459683E+06 -2.758598E+03  6.526968E+03  2.358112E+03 -1.143590E+02 -1.535765E+02
       421   8  5.458047E+06 -4.094653E+03  7.736921E+03  3.289571E+03 -5.690443E+03 -1.629304E+02
       421   9  5.458320E+06 -6.748606E+02  1.374315E+04  2.905777E+03 -1.126652E+04 -2.143835E+02
       421  10  5.485192E+06  3.573223E+03  1.282753E+04  2.845655E+03 -1.626966E-09  1.142996E-09
       421  11  5.484906E+06  2.571698E+03  1.437133E+04  3.227994E+03  2.480078E-09  2.747956E-09
       421  12  5.486527E+06  6.323110E+03  2.070006E+04  2.295085E+03  4.940298E-10 -1.114867E-09
       421  13  5.472438E+06  4.073185E+02  9.677257E+03  2.601881E+03  4.513637E-09  1.430350E-09
       421  14  5.471477E+06 -7.614753E+02  1.105410E+04  3.258783E+03  4.082649E-09  1.598701E-09
       421  15  5.472423E+06  2.824115E+03  1.722149E+04  2.600433E+03  7.922667E-10 -5.007977E-10
       421  16  5.459683E+06 -2.758598E+03  6.526968E+03  2.358112E+03  2.082619E-09  2.037833E-09
       421  17  5.458047E+06 -4.094662E+03  7.736860E+03  3.289570E+03 -1.243219E-09 -8.071380E-12
       421  18  5.458320E+06 -6.748944E+02  1.374291E+04  2.905775E+03 -1.065082E-09  3.591424E-11
       421  19  5.485192E+06  3.573223E+03  1.282753E+04  2.845655E+03  1.200643E+02  1.535794E+02
       421  20  5.484906E+06  2.571706E+03  1.437139E+04  3.227995E+03  5.680085E+03  1.629235E+02
       421  21  5.486527E+06  6.323144E+03  2.070029E+04  2.295087E+03  1.124011E+04  2.143562E+02
       421  22  5.472438E+06  4.073185E+02  9.677257E+03  2.601881E+03  1.172116E+02  1.535780E+02
       421  23  5.471477E+06 -7.614667E+02  1.105416E+04  3.258783E+03  5.685264E+03  1.629269E+02
       421  24  5.472423E+06  2.824149E+03  1.722173E+04  2.600435E+03  1.125331E+04  2.143698E+02
       421  25  5.459683E+06 -2.758598E+03  6.526968E+03  2.358112E+03  1.143590E+02  1.535765E+02
       421  26  5.458047E+06 -4.094653E+03  7.736921E+03  3.289571E+03  5.690443E+03  1.629304E+02
       421  27  5.458320E+06 -6.748606E+02  1.374315E+04  2.905777E+03  1.126652E+04  2.143835E+02
       422   1  5.495239E+06  4.675769E+03  2.648497E+04  3.427360E+03 -1.474414E+04 -2.426421E+02
       422   2  5.492490E+06  1.279502E+03  3.983876E+04  3.479299E+03 -3.220107E+04 -2.987756E+02
       422   3  5.498952E+06  2.574009E+04  7.145088E+04 -1.852866E+02 -4.965804E+04 -4.028966E+02
       422   4  5.474058E+06 -5.839175E+02  2.125033E+04  2.072337E+03 -1.474794E+04 -2.426132E+02
       422   5  5.469404E+06 -4.449490E+03  3.413709E+04  3.923820E+03 -3.221360E+04 -2.988077E+02
       422   6  5.473964E+06  1.954388E+04  6.528871E+04  2.058735E+03 -4.967924E+04 -4.030908E+02
       422   7  5.452876E+06 -5.843630E+03  1.601567E+04  7.173601E+02 -1.475175E+04 -2.425843E+02
       422   8  5.446319E+06 -1.017852E+04  2.843539E+04  4.368324E+03 -3.222613E+04 -2.988398E+02
       422   9  5.448977E+06  1.334764E+04  5.912649E+04  4.302667E+03 -4.970044E+04 -4.032852E+02
       422  10  5.495239E+06  4.675711E+03  2.648456E+04  3.427357E+03  1.258464E-09  2.752683E-10
       422  11  5.492489E+06  1.279227E+03  3.983682E+04  3.479291E+03 -4.413734E-09 -1.454773E-09
       422  12  5.498950E+06  2.573944E+04  7.144629E+04 -1.853026E+02  2.115073E-09  4.065998E-10
       422  13  5.474058E+06 -5.839754E+02  2.124993E+04  2.072334E+03  1.339128E-09  3.623324E-10
       422  14  5.469403E+06 -4.449766E+03  3.413516E+04  3.923812E+03 -8.938793E-10  1.940159E-09
       422  15  5.473962E+06  1.954323E+04  6.528411E+04  2.058719E+03 -3.760419E-10 -3.218084E-10
       422  16  5.452876E+06 -5.843688E+03  1.601526E+04  7.173572E+02 -2.025318E-09 -1.193462E-09
       422  17  5.446318E+06 -1.017880E+04  2.843345E+04  4.368316E+03 -1.522719E-09  9.959369E-10
       422  18  5.448974E+06  1.334699E+04  5.912189E+04  4.302651E+03 -2.432832E-10 -9.477009E-10
       422  19  5.495239E+06  4.675769E+03  2.648497E+04  3.427360E+03  1.474414E+04  2.426421E+02
       422  20  5.492490E+06  1.279502E+03  3.983876E+04  3.479299E+03  3.220107E+04  2.987756E+02
       422  21  5.498952E+06  2.574009E+04  7.145088E+04 -1.852866E+02  4.965804E+04  4.028966E+02
       422  22  5.474058E+06 -5.839175E+02  2.125033E+04  2.072337E+03  1.474794E+04  2.426132E+02
       422  23  5.469404E+06 -4.449490E+03  3.413709E+04  3.923820E+03  3.221360E+04  2.988077E+02
       422  24  5.473964E+06  1.954388E+04  6.528871E+04  2.058735E+03  4.967924E+04  4.030908E+02
       422  25  5.452876E+06 -5.843630E+03  1.601567E+04  7.173601E+02  1.475175E+04  2.425843E+02
       422  26  5.446319E+06 -1.017852E+04  2.843539E+04  4.368324E+03  3.222613E+04  2.988398E+02
       422  27  5.448977E+06  1.334764E+04  5.912649E+04  4.302667E+03  4.970044E+04  4.032852E+02
       423   1  5.526261E+06  5.754658E+03  9.187771E+04  9.917917E+03 -6.296886E+04 -4.998035E+02
       423   2  5.502250E+06 -1.869433E+04  1.427401E+05  1.206799E+03 -1.318647E+05 -6.806344E+02
       423   3  5.534291E+06  1.457625E+05  2.854168E+05 -1.585134E+04 -2.007644E+05 -7.957223E+02
       423   4  5.484461E+06 -4.636328E+03  8.154511E+04  1.076947E+03 -6.299771E+04 -4.989388E+02
       423   5  5.456200E+06 -3.011526E+04  1.313716E+05  5.192079E+03 -1.318769E+05 -6.814916E+02
       423   6  5.483993E+06  1.333158E+05  2.730059E+05  9.604874E+02 -2.007594E+05 -8.011223E+02
       423   7  5.442663E+06 -1.502715E+04  7.121242E+04 -7.763432E+03 -6.302657E+04 -4.980732E+02
       423   8  5.410153E+06 -4.153629E+04  1.200029E+05  9.177065E+03 -1.318891E+05 -6.823490E+02
       423   9  5.433697E+06  1.208699E+05  2.605949E+05  1.777096E+04 -2.007545E+05 -8.065224E+02
       423  10  5.526257E+06  5.753605E+03  9.187033E+04  9.917891E+03 -2.445200E-10  2.402129E-10
       423  11  5.502231E+06 -1.869895E+04  1.427077E+05  1.206727E+03 -1.749048E-09 -2.658781E-10
       423  12  5.534248E+06  1.457518E+05  2.853417E+05 -1.585147E+04  1.239500E-09 -6.904078E-10
       423  13  5.484457E+06 -4.637382E+03  8.153772E+04  1.076922E+03 -8.829230E-11 -4.365573E-10
       423  14  5.456182E+06 -3.011988E+04  1.313392E+05  5.192007E+03 -2.026495E-10  7.110761E-10
       423  15  5.483950E+06  1.333051E+05  2.729308E+05  9.603582E+02  1.087985E-09 -6.017528E-10
       423  16  5.442659E+06 -1.502821E+04  7.120502E+04 -7.763457E+03 -1.724062E-10 -3.395516E-10
       423  17  5.410134E+06 -4.154091E+04  1.199705E+05  9.176993E+03  5.281042E-09  2.418135E-09
       423  18  5.433654E+06  1.208592E+05  2.605198E+05  1.777083E+04  2.556192E-09  3.951732E-10
       423  19  5.526261E+06  5.754658E+03  9.187771E+04  9.917917E+03  6.296886E+04  4.998035E+02
       423  20  5.502250E+06 -1.869433E+04  1.427401E+05  1.206799E+03  1.318647E+05  6.806344E+02
       423  21  5.534291E+06  1.457625E+05  2.854168E+05 -1.585134E+04  2.007644E+05  7.957223E+02
       423  22  5.484461E+06 -4.636328E+03  8.154511E+04  1.076947E+03  6.299771E+04  4.989388E+02
       423  23  5.456200E+06 -3.011526E+04  1.313716E+05  5.192079E+03  1.318769E+05  6.814916E+02
       423  24  5.483993E+06  1.333158E+05  2.730059E+05  9.604874E+02  2.007594E+05  8.011223E+02
       423  25  5.442663E+06 -1.502715E+04  7.121242E+04 -7.763432E+03  6.302657E+04  4.980732E+02
       423  26  5.410153E+06 -4.153629E+04  1.200029E+05  9.177065E+03  1.318891E+05  6.823490E+02
       423  27  5.433697E+06  1.208699E+05  2.605949E+05  1.777096E+04  2.007545E+05  8.065224E+02
       424   1  5.637363E+06 -1.068874E+04  3.515481E+05  5.753347E+04 -2.551926E+05 -1.233614E+03
       424   2  5.467978E+06 -1.800024E+05  5.286692E+05 -2.288274E+04 -5.313853E+05 -1.897262E+03
       424   3  5.653467E+06  9.296243E+05  1.204452E+06 -1.220415E+05 -8.075573E+05 -1.304475E+03
       424   4  5.551050E+06 -3.224756E+04  3.302016E+05 -9.064943E+02 -2.553697E+05 -1.209991E+03
       424   5  5.372422E+06 -2.036369E+05  5.051135E+05  7.894615E+03 -5.312975E+05 -1.923370E+03
       424   6  5.548662E+06  9.039437E+05  1.178557E+06 -2.024207E+03 -8.072003E+05 -1.458959E+03
       424   7  5.464752E+06 -5.379423E+04  3.088564E+05 -5.933839E+04 -2.555468E+05 -1.186333E+03
       424   8  5.276875E+06 -2.272686E+05  4.815577E+05  3.866727E+04 -5.312096E+05 -1.949473E+03
       424   9  5.443896E+06  8.783160E+05  1.152669E+06  1.179730E+05 -8.068434E+05 -1.613329E+03
       424  10  5.637293E+06 -1.070603E+04  3.514268E+05  5.753321E+04  2.404151E-10 -1.344572E-10
       424  11  5.467677E+06 -1.800773E+05  5.281433E+05 -2.288356E+04 -2.063246E-09 -5.359633E-10
       424  12  5.652772E+06  9.294511E+05  1.203237E+06 -1.220424E+05  5.338482E-10  4.629818E-10
       424  13  5.550981E+06 -3.226488E+04  3.300802E+05 -9.067427E+02 -5.187985E-09 -3.670807E-09
       424  14  5.372121E+06 -2.037119E+05  5.045877E+05  7.893795E+03  3.525099E-09  4.211460E-09
       424  15  5.547967E+06  9.037707E+05  1.177343E+06 -2.025153E+03 -2.493659E-10  1.022458E-09
       424  16  5.464682E+06 -5.381157E+04  3.087348E+05 -5.933863E+04  1.687256E-09 -1.632236E-10
       424  17  5.276574E+06 -2.273436E+05  4.810320E+05  3.866644E+04  3.160175E-09  3.152207E-09
       424  18  5.443202E+06  8.781431E+05  1.151456E+06  1.179720E+05 -1.546188E-09 -4.431896E-10
       424  19  5.637363E+06 -1.068874E+04  3.515481E+05  5.753347E+04  2.551926E+05  1.233614E+03
       424  20  5.467978E+06 -1.800024E+05  5.286692E+05 -2.288274E+04  5.313853E+05  1.897262E+03
       424  21  5.653467E+06  9.296243E+05  1.204452E+06 -1.220415E+05  8.075573E+05  1.304475E+03
       424  22  5.551050E+06 -3.224756E+04  3.302016E+05 -9.064943E+02  2.553697E+05  1.209991E+03
       424  23  5.372422E+06 -2.036369E+05  5.051135E+05  7.894615E+03  5.312975E+05  1.923370E+03
       424  24  5.548662E+06  9.039437E+05  1.178557E+06 -2.024207E+03  8.072003E+05  1.458959E+03
       424  25  5.464752E+06 -5.379423E+04  3.088564E+05 -5.933839E+04  2.555468E+05  1.186333E+03
       424  26  5.276875E+06 -2.272686E+05  4.815577E+05  3.866727E+04  5.312096E+05  1.949473E+03
       424  27  5.443896E+06  8.783160E+05  1.152669E+06  1.179730E+05  8.068434E+05  1.613329E+03
       425   1  4.444798E+05  1.686982E+05  1.564155E+05  4.637821E+04  5.237933E+04 -1.034893E+04
       425   2  3.930626E+05  1.616059E+05  1.208046E+05  4.800076E+04  2.423037E+04 -3.537096E+04
       425   3  3.445787E+05  1.515272E+05  1.027912E+05  5.805946E+04 -3.935082E+03 -4.363073E+04
       425   4 -3.106691E+05 -1.736181E+04 -1.899783E+04  5.696478E+04 -1.330872E+04 -1.044003E+04
       425   5 -3.092564E+05 -4.868969E+03 -9.395092E+03  5.273421E+04 -8.446491E+03 -3.542299E+04
       425   6 -3.106445E+05 -1.095573E+03 -5.115175E+03  5.693960E+04 -3.603970E+03 -4.363445E+04
       425   7 -1.065282E+06 -2.034593E+05 -1.944333E+05  6.753820E+04 -7.891746E+04 -1.053343E+04
       425   8 -1.011095E+06 -1.713714E+05 -1.396115E+05  5.746198E+04 -4.108736E+04 -3.547555E+04
       425   9 -9.654430E+05 -1.537405E+05 -1.130342E+05  5.582079E+04 -3.273194E+03 -4.363817E+04
       425  10  4.444768E+05  1.686973E+05  1.564102E+05  4.637865E+04  3.746744E-09 -8.176661E-10
       425  11  3.930617E+05  1.616044E+05  1.208011E+05  4.800145E+04  3.226052E-09 -3.321546E-09
       425  12  3.445782E+05  1.515252E+05  1.027876E+05  5.805932E+04  3.466004E-10 -2.136512E-09
       425  13 -3.106693E+05 -1.736198E+04 -1.899836E+04  5.696467E+04 -6.305521E-10  7.429705E-10
       425  14 -3.092568E+05 -4.870335E+03 -9.397583E+03  5.273397E+04 -3.752024E-10 -2.550081E-09
       425  15 -3.106450E+05 -1.097621E+03 -5.118777E+03  5.693948E+04 -6.185735E-10 -5.227344E-10
       425  16 -1.065289E+06 -2.034610E+05 -1.944452E+05  6.753753E+04 -4.623449E-09 -1.736789E-10
       425  17 -1.011097E+06 -1.713732E+05 -1.396170E+05  5.746080E+04 -2.196448E-09 -4.790086E-09
       425  18 -9.654435E+05 -1.537425E+05 -1.130378E+05  5.582067E+04  6.810841E-10 -4.915277E-09
       425  19  4.444798E+05  1.686982E+05  1.564155E+05  4.637821E+04 -5.237933E+04  1.034893E+04
       425  20  3.930626E+05  1.616059E+05  1.208046E+05  4.800076E+04 -2.423037E+04  3.537096E+04
       425  21  3.445787E+05  1.515272E+05  1.027912E+05  5.805946E+04  3.935082E+03  4.363073E+04
       425  22 -3.106691E+05 -1.736181E+04 -1.899783E+04  5.696478E+04  1.330872E+04  1.044003E+04
       425  23 -3.092564E+05 -4.868969E+03 -9.395092E+03  5.273421E+04  8.446491E+03  3.542299E+04
       425  24 -3.106445E+05 -1.095573E+03 -5.115175E+03  5.693960E+04  3.603970E+03  4.363445E+04
       425  25 -1.065282E+06 -2.034593E+05 -1.944333E+05  6.753820E+04  7.891746E+04  1.053343E+04
       425  26 -1.011095E+06 -1.713714E+05 -1.396115E+05  5.746198E+04  4.108736E+04  3.547555E+04
       425  27 -9.654430E+05 -1.537405E+05 -1.130342E+05  5.582079E+04  3.273194E+03  4.363817E+04
       426   1  3.125852E+05  1.437070E+05  9.673328E+04  5.746890E+04 -2.669291E+03 -4.298856E+04
       426   2  2.625327E+05  1.321757E+05  8.692657E+04  5.294638E+04 -5.219002E+03 -4.221722E+04
       426   3  2.128148E+05  1.207037E+05  7.879262E+04  5.804035E+04 -7.772476E+03 -3.961448E+04
       426   4 -3.100798E+05 -9.403128E+02 -3.856489E+03  5.720432E+04 -2.942652E+03 -4.299305E+04
       426   5 -3.099236E+05 -1.242231E+02 -2.110176E+03  5.239484E+04 -1.887176E+03 -4.221510E+04
       426   6 -3.100605E+05  1.254225E+02 -1.194405E+03  5.720242E+04 -8.356040E+02 -3.960489E+04
       426   7 -9.323600E+05 -1.456072E+05 -1.044568E+05  5.693985E+04 -3.215747E+03 -4.299754E+04
       426   8 -8.820528E+05 -1.324402E+05 -9.115454E+04  5.184368E+04  1.441696E+03 -4.221299E+04
       426   9 -8.326620E+05 -1.204660E+05 -8.118717E+04  5.636508E+04  6.095654E+03 -3.959531E+04
       426  10  3.125847E+05  1.437050E+05  9.672979E+04  5.746881E+04 -3.278428E-09 -3.398649E-09
       426  11  2.625322E+05  1.321738E+05  8.692317E+04  5.294620E+04  4.317880E-11  8.460665E-10
       426  12  2.128143E+05  1.207020E+05  7.878956E+04  5.804010E+04 -1.729867E-09  2.258642E-09
       426  13 -3.100803E+05 -9.422997E+02 -3.859979E+03  5.720422E+04  2.698391E-12 -2.599324E-09
       426  14 -3.099241E+05 -1.261375E+02 -2.113531E+03  5.239477E+04 -1.519366E-09 -3.906062E-10
       426  15 -3.100609E+05  1.237382E+02 -1.197354E+03  5.720239E+04 -3.078838E-09 -2.017002E-09
       426  16 -9.323605E+05 -1.456092E+05 -1.044603E+05  5.693974E+04  3.873586E-09 -8.311830E-11
       426  17 -8.820533E+05 -1.324421E+05 -9.115789E+04  5.184373E+04 -1.306483E-10  1.152070E-09
       426  18 -8.326625E+05 -1.204677E+05 -8.119019E+04  5.636528E+04  6.085759E-10  2.193978E-10
       426  19  3.125852E+05  1.437070E+05  9.673328E+04  5.746890E+04  2.669291E+03  4.298856E+04
       426  20  2.625327E+05  1.321757E+05  8.692657E+04  5.294638E+04  5.219002E+03  4.221722E+04
       426  21  2.128148E+05  1.207037E+05  7.879262E+04  5.804035E+04  7.772476E+03  3.961448E+04
       426  22 -3.100798E+05 -9.403128E+02 -3.856489E+03  5.720432E+04  2.942652E+03  4.299305E+04
       426  23 -3.099236E+05 -1.242231E+02 -2.110176E+03  5.239484E+04  1.887176E+03  4.221510E+04
       426  24 -3.100605E+05  1.254225E+02 -1.194405E+03  5.720242E+04  8.356040E+02  3.960489E+04
       426  25 -9.323600E+05 -1.456072E+05 -1.044568E+05  5.693985E+04  3.215747E+03  4.299754E+04
       426  26 -8.820528E+05 -1.324402E+05 -9.115454E+04  5.184368E+04 -1.441696E+03  4.221299E+04
       426  27 -8.326620E+05 -1.204660E+05 -8.118717E+04  5.636508E+04 -6.095654E+03  3.959531E+04
       427   1  1.811545E+05  1.133267E+05  7.385726E+04  5.796804E+04 -7.530653E+03 -3.750388E+04
       427   2  1.312256E+05  1.017959E+05  6.635813E+04  5.303858E+04 -7.674586E+03 -3.391253E+04
       427   3  8.130492E+04  9.033415E+04  5.896141E+04  5.786163E+04 -7.819921E+03 -3.012015E+04
       427   4 -3.100033E+05  1.352427E+02 -9.064007E+02  5.723280E+04 -6.578642E+02 -3.749374E+04
       427   5 -3.099643E+05  1.733570E+02 -5.185344E+02  5.235628E+04 -4.064780E+02 -3.390063E+04
       427   6 -3.099884E+05  2.119422E+02 -3.029941E+02  5.723267E+04 -1.565040E+02 -3.010642E+04
       427   7 -8.009193E+05 -1.130677E+05 -7.567498E+04  5.649806E+04  6.209701E+03 -3.748361E+04
       427   8 -7.509590E+05 -1.014584E+05 -6.739903E+04  5.167439E+04  6.856669E+03 -3.388874E+04
       427   9 -7.011280E+05 -8.991755E+04 -5.957034E+04  5.660405E+04  7.502273E+03 -3.009269E+04
       427  10  1.811540E+05  1.133251E+05  7.385451E+04  5.796781E+04 -3.062041E-09  3.709395E-09
       427  11  1.312253E+05  1.017946E+05  6.635586E+04  5.303837E+04  1.729996E-09  2.565406E-09
       427  12  8.130461E+04  9.033316E+04  5.895959E+04  5.786144E+04  4.457262E-09 -6.792762E-10
       427  13 -3.100037E+05  1.337333E+02 -9.090429E+02  5.723279E+04 -1.373417E-09 -2.655012E-09
       427  14 -3.099646E+05  1.721230E+02 -5.206940E+02  5.235627E+04 -1.048943E-09  3.132447E-09
       427  15 -3.099886E+05  2.109690E+02 -3.046972E+02  5.723267E+04  8.221012E-11  3.064536E-09
       427  16 -8.009197E+05 -1.130692E+05 -7.567769E+04  5.649825E+04  3.033739E-09  1.471599E-09
       427  17 -7.509593E+05 -1.014597E+05 -6.740128E+04  5.167458E+04 -2.753306E-09  3.343729E-09
       427  18 -7.011283E+05 -8.991854E+04 -5.957215E+04  5.660423E+04 -3.045063E-09 -4.435842E-10
       427  19  1.811545E+05  1.133267E+05  7.385726E+04  5.796804E+04  7.530653E+03  3.750388E+04
       427  20  1.312256E+05  1.017959E+05  6.635813E+04  5.303858E+04  7.674586E+03  3.391253E+04
       427  21  8.130492E+04  9.033415E+04  5.896141E+04  5.786163E+04  7.819921E+03  3.012015E+04
       427  22 -3.100033E+05  1.352427E+02 -9.064007E+02  5.723280E+04  6.578642E+02  3.749374E+04
       427  23 -3.099643E+05  1.733570E+02 -5.185344E+02  5.235628E+04  4.064780E+02  3.390063E+04
       427  24 -3.099884E+05  2.119422E+02 -3.029941E+02  5.723267E+04  1.565040E+02  3.010642E+04
       427  25 -8.009193E+05 -1.130677E+05 -7.567498E+04  5.649806E+04 -6.209701E+03  3.748361E+04
       427  26 -7.509590E+05 -1.014584E+05 -6.739903E+04  5.167439E+04 -6.856669E+03  3.388874E+04
       427  27 -7.011280E+05 -8.991755E+04 -5.957034E+04  5.660405E+04 -7.502273E+03  3.009269E+04
       428   1  4.966540E+04  8.300969E+04  5.402894E+04  5.781682E+04 -7.770037E+03 -2.784738E+04
       428   2 -2.806085E+02  7.150814E+04  4.661976E+04  5.285429E+04 -7.744757E+03 -2.394559E+04
       428   3 -5.025711E+04  6.005345E+04  3.919360E+04  5.766510E+04 -7.720281E+03 -2.002186E+04
       428   4 -3.099790E+05  2.165750E+02 -2.361894E+02  5.723729E+04 -1.121606E+02 -2.783312E+04
       428   5 -3.099531E+05  2.076268E+02 -1.525082E+02  5.235047E+04 -4.408510E+01 -2.393049E+04
       428   6 -3.099685E+05  2.379608E+02 -1.159415E+02  5.723727E+04  2.318746E+01 -2.000591E+04
       428   7 -6.694935E+05 -8.258267E+04 -5.450372E+04  5.665805E+04  7.541455E+03 -2.781887E+04
       428   8 -6.195293E+05 -7.109743E+04 -4.692651E+04  5.184686E+04  7.652897E+03 -2.391540E+04
       428   9 -5.696122E+05 -5.958072E+04 -3.942664E+04  5.680958E+04  7.763544E+03 -1.998997E+04
       428  10  4.966512E+04  8.300884E+04  5.402737E+04  5.781664E+04  1.093974E-11 -1.766808E-10
       428  11 -2.808268E+02  7.150751E+04  4.661857E+04  5.285414E+04  1.539828E-09  6.430476E-09
       428  12 -5.025728E+04  6.005301E+04  3.919273E+04  5.766498E+04 -1.445534E-09  5.027365E-09
       428  13 -3.099792E+05  2.157433E+02 -2.376450E+02  5.723729E+04  1.627146E-09  9.308107E-10
       428  14 -3.099533E+05  2.070120E+02 -1.535842E+02  5.235047E+04  3.071626E-10  5.680244E-09
       428  15 -3.099686E+05  2.375311E+02 -1.166935E+02  5.723727E+04 -6.275352E-10  1.877861E-09
       428  16 -6.694938E+05 -8.258351E+04 -5.450528E+04  5.665821E+04  1.593617E-09  5.192180E-10
       428  17 -6.195295E+05 -7.109806E+04 -4.692769E+04  5.184700E+04 -2.183943E-09  3.055964E-09
       428  18 -5.696123E+05 -5.958117E+04 -3.942751E+04  5.680970E+04  1.179706E-09  7.032504E-10
       428  19  4.966540E+04  8.300969E+04  5.402894E+04  5.781682E+04  7.770037E+03  2.784738E+04
       428  20 -2.806085E+02  7.150814E+04  4.661976E+04  5.285429E+04  7.744757E+03  2.394559E+04
       428  21 -5.025711E+04  6.005345E+04  3.919360E+04  5.766510E+04  7.720281E+03  2.002186E+04
       428  22 -3.099790E+05  2.165750E+02 -2.361894E+02  5.723729E+04  1.121606E+02  2.783312E+04
       428  23 -3.099531E+05  2.076268E+02 -1.525082E+02  5.235047E+04  4.408510E+01  2.393049E+04
       428  24 -3.099685E+05  2.379608E+02 -1.159415E+02  5.723727E+04 -2.318746E+01  2.000591E+04
       428  25 -6.694935E+05 -8.258267E+04 -5.450372E+04  5.665805E+04 -7.541455E+03  2.781887E+04
       428  26 -6.195293E+05 -7.109743E+04 -4.692651E+04  5.184686E+04 -7.652897E+03  2.391540E+04
       428  27 -5.696122E+05 -5.958072E+04 -3.942664E+04  5.680958E+04 -7.763544E+03  1.998997E+04
       429   1 -8.191347E+04  5.272983E+04  3.421789E+04  5.761551E+04 -7.704750E+03 -1.773056E+04
       429   2 -1.318740E+05  4.122671E+04  2.673955E+04  5.263789E+04 -7.637549E+03 -1.379763E+04
       429   3 -1.818816E+05  2.976207E+04  1.921208E+04  5.744215E+04 -7.570780E+03 -9.869778E+03
       429   4 -3.099669E+05  2.422460E+02 -1.125428E+02  5.723914E+04  3.921903E+01 -1.771426E+04
       429   5 -3.099403E+05  2.296765E+02 -1.317835E+02  5.234810E+04  9.615909E+01 -1.378092E+04
       429   6 -3.099609E+05  2.576328E+02 -1.929632E+02  5.723912E+04  1.526730E+02 -9.852653E+03
       429   7 -5.379680E+05 -5.224777E+04 -3.444379E+04  5.686287E+04  7.780456E+03 -1.769797E+04
       429   8 -4.879747E+05 -4.076883E+04 -2.700353E+04  5.205839E+04  7.827737E+03 -1.376421E+04
       429   9 -4.380235E+05 -2.924756E+04 -1.959812E+04  5.703612E+04  7.874595E+03 -9.835531E+03
       429  10 -8.191361E+04  5.272947E+04  3.421718E+04  5.761540E+04  1.039896E-08  6.943238E-10
       429  11 -1.318741E+05  4.122649E+04  2.673908E+04  5.263780E+04  3.118006E-09 -1.801508E-09
       429  12 -1.818817E+05  2.976195E+04  1.921179E+04  5.744209E+04 -7.240271E-09 -1.629202E-09
       429  13 -3.099670E+05  2.419091E+02 -1.131324E+02  5.723914E+04  8.429412E-10  6.253825E-09
       429  14 -3.099404E+05  2.294725E+02 -1.321403E+02  5.234810E+04 -4.106629E-10  1.354367E-09
       429  15 -3.099609E+05  2.575286E+02 -1.931457E+02  5.723912E+04 -6.525860E-10 -3.060763E-09
       429  16 -5.379681E+05 -5.224813E+04 -3.444449E+04  5.686298E+04 -9.694923E-09  2.276615E-09
       429  17 -4.879748E+05 -4.076905E+04 -2.700400E+04  5.205847E+04 -2.971251E-09 -1.831075E-09
       429  18 -4.380236E+05 -2.924768E+04 -1.959842E+04  5.703618E+04  7.946561E-09 -2.475545E-09
       429  19 -8.191347E+04  5.272983E+04  3.421789E+04  5.761551E+04  7.704750E+03  1.773056E+04
       429  20 -1.318740E+05  4.122671E+04  2.673955E+04  5.263789E+04  7.637549E+03  1.379763E+04
       429  21 -1.818816E+05  2.976207E+04  1.921208E+04  5.744215E+04  7.570780E+03  9.869778E+03
       429  22 -3.099669E+05  2.422460E+02 -1.125428E+02  5.723914E+04 -3.921903E+01  1.771426E+04
       429  23 -3.099403E+05  2.296765E+02 -1.317835E+02  5.234810E+04 -9.615909E+01  1.378092E+04
       429  24 -3.099609E+05  2.576328E+02 -1.929632E+02  5.723912E+04 -1.526730E+02  9.852653E+03
       429  25 -5.379680E+05 -5.224777E+04 -3.444379E+04  5.686287E+04 -7.780456E+03  1.769797E+04
       429  26 -4.879747E+05 -4.076883E+04 -2.700353E+04  5.205839E+04 -7.827737E+03  1.376421E+04
       429  27 -4.380235E+05 -2.924756E+04 -1.959812E+04  5.703612E+04 -7.874595E+03  9.835531E+03
       430   1 -2.135550E+05  2.243307E+04  1.417285E+04  5.738034E+04 -7.539403E+03 -7.581869E+03
       430   2 -2.634990E+05  1.091009E+04  6.491803E+03  5.240315E+04 -7.200164E+03 -3.690495E+03
       430   3 -3.135414E+05 -6.269756E+02 -1.429597E+03  5.720484E+04 -6.860911E+03  1.278882E+02
       430   4 -3.099659E+05  2.613470E+02 -2.447346E+02  5.723840E+04  1.869738E+02 -7.564575E+03
       430   5 -3.099272E+05  2.406871E+02 -4.115310E+02  5.234898E+04  3.823016E+02 -3.673413E+03
       430   6 -3.099644E+05  2.310107E+02 -7.188568E+02  5.723848E+04  5.776699E+02  1.447569E+02
       430   7 -4.063674E+05 -2.191079E+04 -1.466228E+04  5.709648E+04  7.912199E+03 -7.547284E+03
       430   8 -3.563531E+05 -1.042878E+04 -7.314690E+03  5.229482E+04  7.964223E+03 -3.656330E+03
       430   9 -3.063872E+05  1.089026E+03 -7.909380E+00  5.727212E+04  8.016292E+03  1.616264E+02
       430  10 -2.135551E+05  2.243300E+04  1.417264E+04  5.738030E+04 -2.907916E-09  3.258232E-09
       430  11 -2.634991E+05  1.091006E+04  6.491680E+03  5.240313E+04 -1.455918E-09  1.635885E-09
       430  12 -3.135415E+05 -6.269882E+02 -1.429685E+03  5.720484E+04 -2.884136E-09  2.212953E-09
       430  13 -3.099660E+05  2.612856E+02 -2.448422E+02  5.723840E+04 -5.483157E-10  2.353269E-09
       430  14 -3.099272E+05  2.406726E+02 -4.115566E+02  5.234898E+04 -1.124731E-09  1.692809E-09
       430  15 -3.099644E+05  2.310106E+02 -7.188574E+02  5.723848E+04  9.737892E-11  2.107984E-09
       430  16 -4.063675E+05 -2.191087E+04 -1.466250E+04  5.709652E+04  3.587579E-09  2.322838E-09
       430  17 -3.563532E+05 -1.042882E+04 -7.314834E+03  5.229484E+04 -1.023477E-12 -5.009990E-09
       430  18 -3.063873E+05  1.089009E+03 -8.030247E+00  5.727212E+04  3.147932E-09  5.580383E-10
       430  19 -2.135550E+05  2.243307E+04  1.417285E+04  5.738034E+04  7.539403E+03  7.581869E+03
       430  20 -2.634990E+05  1.091009E+04  6.491803E+03  5.240315E+04  7.200164E+03  3.690495E+03
       430  21 -3.135414E+05 -6.269756E+02 -1.429597E+03  5.720484E+04  6.860911E+03 -1.278882E+02
       430  22 -3.099659E+05  2.613470E+02 -2.447346E+02  5.723840E+04 -1.869738E+02  7.564575E+03
       430  23 -3.099272E+05  2.406871E+02 -4.115310E+02  5.234898E+04 -3.823016E+02  3.673413E+03
       430  24 -3.099644E+05  2.310107E+02 -7.188568E+02  5.723848E+04 -5.776699E+02 -1.447569E+02
       430  25 -4.063674E+05 -2.191079E+04 -1.466228E+04  5.709648E+04 -7.912199E+03  7.547284E+03
       430  26 -3.563531E+05 -1.042878E+04 -7.314690E+03  5.229482E+04 -7.964223E+03  3.656330E+03
       430  27 -3.063872E+05  1.089026E+03 -7.909380E+00  5.727212E+04 -8.016292E+03 -1.616264E+02
       431   1 -3.452871E+05 -7.985560E+03 -6.730072E+03  5.708001E+04 -6.746584E+03  2.357770E+03
       431   2 -3.950313E+05 -1.976392E+04 -1.549807E+04  5.237913E+04 -4.595827E+03  5.819908E+03
       431   3 -4.452722E+05 -3.221115E+04 -2.584926E+04  5.741080E+04 -2.443672E+03  8.609230E+03
       431   4 -3.100077E+05  2.301490E+02 -9.473388E+02  5.722794E+04  7.160872E+02  2.374666E+03
       431   5 -3.098744E+05  3.947621E+01 -1.670275E+03  5.236262E+04  1.543186E+03  5.833640E+03
       431   6 -3.100108E+05 -5.902176E+02 -3.057015E+03  5.722977E+04  2.371868E+03  8.619843E+03
       431   7 -2.747271E+05  8.445824E+03  4.835568E+03  5.737589E+04  8.179168E+03  2.391566E+03
       431   8 -2.247101E+05  1.984252E+04  1.215746E+04  5.234610E+04  7.683013E+03  5.847369E+03
       431   9 -1.747313E+05  3.102976E+04  1.973474E+04  5.704869E+04  7.188424E+03  8.630453E+03
       431  10 -3.452871E+05 -7.985578E+03 -6.730168E+03  5.708002E+04 -3.523689E-09  5.084930E-09
       431  11 -3.950314E+05 -1.976396E+04 -1.549818E+04  5.237915E+04  4.417314E-09  1.892090E-09
       431  12 -4.452723E+05 -3.221123E+04 -2.584941E+04  5.741082E+04  4.576900E-09  2.727943E-09
       431  13 -3.100077E+05  2.301428E+02 -9.473503E+02  5.722794E+04 -1.082242E-09  3.091654E-09
       431  14 -3.098744E+05  3.943903E+01 -1.670344E+03  5.236261E+04 -3.160744E-10  4.405101E-09
       431  15 -3.100109E+05 -5.902989E+02 -3.057165E+03  5.722976E+04  7.716540E-10  4.275647E-10
       431  16 -2.747271E+05  8.445800E+03  4.835431E+03  5.737587E+04  5.104945E-09  3.630029E-09
       431  17 -2.247102E+05  1.984247E+04  1.215729E+04  5.234607E+04 -2.242630E-09  3.785386E-09
       431  18 -1.747314E+05  3.102967E+04  1.973450E+04  5.704864E+04 -5.805423E-09 -4.339007E-09
       431  19 -3.452871E+05 -7.985560E+03 -6.730072E+03  5.708001E+04  6.746584E+03 -2.357770E+03
       431  20 -3.950313E+05 -1.976392E+04 -1.549807E+04  5.237913E+04  4.595827E+03 -5.819908E+03
       431  21 -4.452722E+05 -3.221115E+04 -2.584926E+04  5.741080E+04  2.443672E+03 -8.609230E+03
       431  22 -3.100077E+05  2.301490E+02 -9.473388E+02  5.722794E+04 -7.160872E+02 -2.374666E+03
       431  23 -3.098744E+05  3.947621E+01 -1.670275E+03  5.236262E+04 -1.543186E+03 -5.833640E+03
       431  24 -3.100108E+05 -5.902176E+02 -3.057015E+03  5.722977E+04 -2.371868E+03 -8.619843E+03
       431  25 -2.747271E+05  8.445824E+03  4.835568E+03  5.737589E+04 -8.179168E+03 -2.391566E+03
       431  26 -2.247101E+05  1.984252E+04  1.215746E+04  5.234610E+04 -7.683013E+03 -5.847369E+03
       431  27 -1.747313E+05  3.102976E+04  1.973474E+04  5.704869E+04 -7.188424E+03 -8.630453E+03
       432   1 -4.777328E+05 -3.990675E+04 -3.269116E+04  5.659090E+04 -2.144751E+03  1.030000E+04
       432   2 -5.255800E+05 -5.526615E+04 -4.899419E+04  5.652733E+04  1.379773E+04  9.814888E+03
       432   3 -5.778069E+05 -7.965960E+04 -7.794922E+04  6.577128E+04  2.975157E+04  3.166687E+03
       432   4 -3.104580E+05 -7.073852E+02 -4.055856E+03  5.713259E+04  2.892975E+03  1.031096E+04
       432   5 -3.093254E+05 -3.706621E+03 -7.445522E+03  5.249279E+04  6.715450E+03  9.799014E+03
       432   6 -3.104671E+05 -1.363263E+04 -1.506484E+04  5.716067E+04  1.055053E+04  3.124730E+03
       432   7 -1.431556E+05  3.849051E+04  2.457861E+04  5.767441E+04  7.932017E+03  1.032192E+04
       432   8 -9.302549E+04  4.785023E+04  3.410119E+04  4.845678E+04 -3.692451E+02  9.783234E+03
       432   9 -4.306049E+04  5.238972E+04  4.781606E+04  4.854628E+04 -8.658737E+03  3.083316E+03
       432  10 -4.777328E+05 -3.990687E+04 -3.269137E+04  5.659092E+04 -2.773638E-09  2.694535E-09
       432  11 -5.255803E+05 -5.526631E+04 -4.899473E+04  5.652722E+04  7.767323E-10 -2.471587E-09
       432  12 -5.778079E+05 -7.965984E+04 -7.795090E+04  6.577120E+04  1.351401E-10 -6.023009E-10
       432  13 -3.104580E+05 -7.075016E+02 -4.056071E+03  5.713257E+04 -2.155550E-10  3.391258E-09
       432  14 -3.093254E+05 -3.706736E+03 -7.445787E+03  5.249273E+04 -6.056305E-10 -6.333087E-09
       432  15 -3.104672E+05 -1.363267E+04 -1.506507E+04  5.716064E+04 -6.756156E-10  3.312389E-10
       432  16 -1.431557E+05  3.849037E+04  2.457829E+04  5.767435E+04  2.312152E-09 -2.698572E-10
       432  17 -9.302551E+04  4.785013E+04  3.410101E+04  4.845678E+04 -1.413519E-09 -8.212830E-10
       432  18 -4.306057E+04  5.238969E+04  4.781590E+04  4.854631E+04  4.900973E-10  6.452295E-10
       432  19 -4.777328E+05 -3.990675E+04 -3.269116E+04  5.659090E+04  2.144751E+03 -1.030000E+04
       432  20 -5.255800E+05 -5.526615E+04 -4.899419E+04  5.652733E+04 -1.379773E+04 -9.814888E+03
       432  21 -5.778069E+05 -7.965960E+04 -7.794922E+04  6.577128E+04 -2.975157E+04 -3.166687E+03
       432  22 -3.104580E+05 -7.073852E+02 -4.055856E+03  5.713259E+04 -2.892975E+03 -1.031096E+04
       432  23 -3.093254E+05 -3.706621E+03 -7.445522E+03  5.249279E+04 -6.715450E+03 -9.799014E+03
       432  24 -3.104671E+05 -1.363263E+04 -1.506484E+04  5.716067E+04 -1.055053E+04 -3.124730E+03
       432  25 -1.431556E+05  3.849051E+04  2.457861E+04  5.767441E+04 -7.932017E+03 -1.032192E+04
       432  26 -9.302549E+04  4.785023E+04  3.410119E+04  4.845678E+04  3.692451E+02 -9.783234E+03
       432  27 -4.306049E+04  5.238972E+04  4.781606E+04  4.854628E+04  8.658737E+03 -3.083316E+03
       433   1 -4.147433E+05  2.046130E+04 -1.285809E+04 -1.666099E+04 -9.590095E+04 -5.216950E+03
       433   2 -4.270200E+05  1.489927E+05  6.080837E+04 -7.441424E+03 -6.534886E+04 -1.513436E+04
       433   3 -4.805802E+05  1.273428E+05  7.710353E+04  3.022761E+04 -3.482503E+04 -1.376806E+04
       433   4 -9.692141E+05 -1.178091E+05 -1.501401E+05  1.508523E+04 -1.025841E+05 -5.236943E+03
       433   5 -9.481013E+05  1.952408E+04 -6.534061E+04  7.174662E+02 -6.718851E+04 -1.514084E+04
       433   6 -9.691524E+05  5.764131E+03 -4.131575E+04  1.480114E+04 -3.181923E+04 -1.375917E+04
       433   7 -1.523403E+06 -2.560987E+05 -2.874444E+05  4.680289E+04 -1.092613E+05 -5.257631E+03
       433   8 -1.468934E+06 -1.099641E+05 -1.915091E+05  8.869324E+03 -6.902661E+04 -1.514736E+04
       433   9 -1.457506E+06 -1.158312E+05 -1.597521E+05 -6.133124E+02 -2.881578E+04 -1.375042E+04
       433  10 -4.147532E+05  2.045880E+04 -1.287543E+04 -1.666139E+04 -4.704473E-09  1.406200E-09
       433  11 -4.270246E+05  1.489913E+05  6.079991E+04 -7.442220E+03 -1.921922E-09  1.002771E-08
       433  12 -4.805816E+05  1.273422E+05  7.710090E+04  3.022723E+04  2.308962E-09  7.575601E-09
       433  13 -9.692254E+05 -1.178120E+05 -1.501600E+05  1.508479E+04  6.117439E-10 -1.308621E-09
       433  14 -9.481063E+05  1.952262E+04 -6.534954E+04  7.166466E+02  6.036076E-10 -6.815398E-09
       433  15 -9.691536E+05  5.763656E+03 -4.131801E+04  1.480078E+04 -3.225496E-10  3.231313E-09
       433  16 -1.523416E+06 -2.561019E+05 -2.874669E+05  4.680242E+04  3.786059E-09  2.558912E-09
       433  17 -1.468939E+06 -1.099657E+05 -1.915185E+05  8.868481E+03  1.031714E-09  9.701183E-09
       433  18 -1.457507E+06 -1.158316E+05 -1.597540E+05 -6.136318E+02 -2.020233E-09 -1.801498E-09
       433  19 -4.147433E+05  2.046130E+04 -1.285809E+04 -1.666099E+04  9.590095E+04  5.216950E+03
       433  20 -4.270200E+05  1.489927E+05  6.080837E+04 -7.441424E+03  6.534886E+04  1.513436E+04
       433  21 -4.805802E+05  1.273428E+05  7.710353E+04  3.022761E+04  3.482503E+04  1.376806E+04
       433  22 -9.692141E+05 -1.178091E+05 -1.501401E+05  1.508523E+04  1.025841E+05  5.236943E+03
       433  23 -9.481013E+05  1.952408E+04 -6.534061E+04  7.174662E+02  6.718851E+04  1.514084E+04
       433  24 -9.691524E+05  5.764131E+03 -4.131575E+04  1.480114E+04  3.181923E+04  1.375917E+04
       433  25 -1.523403E+06 -2.560987E+05 -2.874444E+05  4.680289E+04  1.092613E+05  5.257631E+03
       433  26 -1.468934E+06 -1.099641E+05 -1.915091E+05  8.869324E+03  6.902661E+04  1.514736E+04
       433  27 -1.457506E+06 -1.158312E+05 -1.597521E+05 -6.133124E+02  2.881578E+04  1.375042E+04
       434   1 -5.276152E+05  9.416449E+04  7.141414E+04  1.292563E+04 -2.524607E+04 -1.134607E+04
       434   2 -5.600122E+05  1.013143E+05  7.957363E+04  2.353985E+02 -1.693900E+04 -1.099236E+04
       434   3 -5.978421E+05  9.111454E+04  7.798342E+04  1.810743E+04 -8.636949E+03 -9.603795E+03
       434   4 -9.610075E+05 -1.361458E+04 -3.384919E+04  1.539625E+04 -2.531603E+04 -1.134694E+04
       434   5 -9.582431E+05  2.292726E+03 -1.699084E+04  9.144152E+01 -1.656768E+04 -1.099159E+04
       434   6 -9.609941E+05  7.672605E+02 -1.019403E+04  1.535031E+04 -7.823886E+03 -9.601149E+03
       434   7 -1.394228E+06 -1.214074E+05 -1.391261E+05  1.786501E+04 -2.538593E+04 -1.134782E+04
       434   8 -1.356329E+06 -9.674049E+04 -1.135668E+05 -5.254478E+01 -1.619660E+04 -1.099082E+04
       434   9 -1.324025E+06 -8.958970E+04 -9.838101E+04  1.259471E+04 -7.011297E+03 -9.598509E+03
       434  10 -5.276159E+05  9.416418E+04  7.141270E+04  1.292540E+04  6.640185E-11 -5.932824E-10
       434  11 -5.600126E+05  1.013141E+05  7.957286E+04  2.352485E+02 -1.534177E-09  2.705478E-09
       434  12 -5.978423E+05  9.111442E+04  7.798310E+04  1.810736E+04  4.100209E-10  6.037337E-09
       434  13 -9.610082E+05 -1.361489E+04 -3.385064E+04  1.539602E+04 -1.736296E-10  1.239644E-08
       434  14 -9.582435E+05  2.292522E+03 -1.699159E+04  9.129481E+01  2.371425E-09 -1.938333E-08
       434  15 -9.609942E+05  7.671450E+02 -1.019432E+04  1.535025E+04 -8.915645E-10  9.363998E-09
       434  16 -1.394229E+06 -1.214078E+05 -1.391276E+05  1.786478E+04  1.507269E-09 -6.728776E-09
       434  17 -1.356329E+06 -9.674069E+04 -1.135675E+05 -5.268823E+01  3.174111E-09 -1.721934E-09
       434  18 -1.324026E+06 -8.958981E+04 -9.838128E+04  1.259465E+04 -1.876552E-09  1.710758E-09
       434  19 -5.276152E+05  9.416449E+04  7.141414E+04  1.292563E+04  2.524607E+04  1.134607E+04
       434  20 -5.600122E+05  1.013143E+05  7.957363E+04  2.353985E+02  1.693900E+04  1.099236E+04
       434  21 -5.978421E+05  9.111454E+04  7.798342E+04  1.810743E+04  8.636949E+03  9.603795E+03
       434  22 -9.610075E+05 -1.361458E+04 -3.384919E+04  1.539625E+04  2.531603E+04  1.134694E+04
       434  23 -9.582431E+05  2.292726E+03 -1.699084E+04  9.144152E+01  1.656768E+04  1.099159E+04
       434  24 -9.609941E+05  7.672605E+02 -1.019403E+04  1.535031E+04  7.823886E+03  9.601149E+03
       434  25 -1.394228E+06 -1.214074E+05 -1.391261E+05  1.786501E+04  2.538593E+04  1.134782E+04
       434  26 -1.356329E+06 -9.674049E+04 -1.135668E+05 -5.254478E+01  1.619660E+04  1.099082E+04
       434  27 -1.324025E+06 -8.958970E+04 -9.838101E+04  1.259471E+04  7.011297E+03  9.598509E+03
       435   1 -6.553505E+05  7.427497E+04  6.575686E+04  1.624774E+04 -6.752863E+03 -8.648426E+03
       435   2 -6.916877E+05  6.687896E+04  6.057557E+04  4.167137E+02 -4.602349E+03 -7.333826E+03
       435   3 -7.289604E+05  5.769604E+04  5.350211E+04  1.664545E+04 -2.453262E+03 -5.905485E+03
       435   4 -9.599685E+05 -1.462848E+03 -8.040250E+03  1.570234E+04 -6.211495E+03 -8.646643E+03
       435   5 -9.594937E+05  2.749234E+02 -4.379876E+03 -3.312207E+02 -4.012869E+03 -7.331682E+03
       435   6 -9.599640E+05  2.170583E+02 -2.645618E+03  1.569585E+04 -1.815544E+03 -5.902957E+03
       435   7 -1.264502E+06 -7.720747E+04 -8.184405E+04  1.515712E+04 -5.670392E+03 -8.644861E+03
       435   8 -1.227234E+06 -6.633439E+04 -6.934050E+04 -1.078896E+03 -3.423643E+03 -7.329540E+03
       435   9 -1.190919E+06 -5.726585E+04 -5.879721E+04  1.474656E+04 -1.178063E+03 -5.900431E+03
       435  10 -6.553505E+05  7.427487E+04  6.575664E+04  1.624770E+04  4.747082E-09 -6.330685E-09
       435  11 -6.916878E+05  6.687890E+04  6.057543E+04  4.166865E+02  1.195918E-09 -6.364691E-09
       435  12 -7.289604E+05  5.769600E+04  5.350203E+04  1.664543E+04  5.937008E-10 -4.905438E-09
       435  13 -9.599685E+05 -1.462939E+03 -8.040464E+03  1.570230E+04  5.383249E-10 -3.256092E-09
       435  14 -9.594938E+05  2.748614E+02 -4.380008E+03 -3.312444E+02  3.519168E-10 -6.107457E-09
       435  15 -9.599640E+05  2.170200E+02 -2.645690E+03  1.569584E+04  3.801925E-10 -5.383829E-09
       435  16 -1.264502E+06 -7.720756E+04 -8.184425E+04  1.515708E+04 -4.006065E-09 -9.182523E-09
       435  17 -1.227234E+06 -6.633445E+04 -6.934062E+04 -1.078916E+03 -3.276516E-10  5.946999E-09
       435  18 -1.190919E+06 -5.726589E+04 -5.879728E+04  1.474656E+04 -4.096961E-10  1.078480E-08
       435  19 -6.553505E+05  7.427497E+04  6.575686E+04  1.624774E+04  6.752863E+03  8.648426E+03
       435  20 -6.916877E+05  6.687896E+04  6.057557E+04  4.167137E+02  4.602349E+03  7.333826E+03
       435  21 -7.289604E+05  5.769604E+04  5.350211E+04  1.664545E+04  2.453262E+03  5.905485E+03
       435  22 -9.599685E+05 -1.462848E+03 -8.040250E+03  1.570234E+04  6.211495E+03  8.646643E+03
       435  23 -9.594937E+05  2.749234E+02 -4.379876E+03 -3.312207E+02  4.012869E+03  7.331682E+03
       435  24 -9.599640E+05  2.170583E+02 -2.645618E+03  1.569585E+04  1.815544E+03  5.902957E+03
       435  25 -1.264502E+06 -7.720747E+04 -8.184405E+04  1.515712E+04  5.670392E+03  8.644861E+03
       435  26 -1.227234E+06 -6.633439E+04 -6.934050E+04 -1.078896E+03  3.423643E+03  7.329540E+03
       435  27 -1.190919E+06 -5.726585E+04 -5.879721E+04  1.474656E+04  1.178063E+03  5.900431E+03
       436   1 -7.896144E+05  4.228113E+04  3.905962E+04  1.641894E+04 -2.006744E+03 -5.055930E+03
       436   2 -8.272417E+05  3.297791E+04  3.072176E+04 -1.475449E+02 -1.328483E+03 -3.619999E+03
       436   3 -8.652832E+05  2.368982E+04  2.187571E+04  1.624052E+04 -6.508074E+02 -2.164340E+03
       436   4 -9.598396E+05 -3.496020E+01 -2.118740E+03  1.589723E+04 -1.392296E+03 -5.053397E+03
       436   5 -9.596303E+05  4.903379E+01 -1.392058E+03 -5.806475E+02 -7.057009E+02 -3.617341E+03
       436   6 -9.598380E+05  1.467534E+02 -1.179388E+03  1.589646E+04 -1.965023E+01 -2.161550E+03
       436   7 -1.130038E+06 -4.235317E+04 -4.329918E+04  1.537563E+04 -7.780159E+02 -5.050865E+03
       436   8 -1.092003E+06 -3.288113E+04 -3.350714E+04 -1.013675E+03 -8.305151E+01 -3.614684E+03
       436   9 -1.054385E+06 -2.339697E+04 -2.423514E+04  1.555244E+04  6.114110E+02 -2.158759E+03
       436  10 -7.896144E+05  4.228110E+04  3.905956E+04  1.641894E+04  1.897735E-09 -7.324497E-09
       436  11 -8.272417E+05  3.297790E+04  3.072173E+04 -1.475488E+02 -5.084165E-09  1.088520E-08
       436  12 -8.652832E+05  2.368981E+04  2.187570E+04  1.624052E+04 -3.780007E-09  3.865988E-10
       436  13 -9.598396E+05 -3.498813E+01 -2.118791E+03  1.589723E+04  5.195853E-10  5.508978E-09
       436  14 -9.596303E+05  4.901961E+01 -1.392084E+03 -5.806495E+02  2.024885E-09 -6.314970E-09
       436  15 -9.598380E+05  1.467484E+02 -1.179397E+03  1.589646E+04  3.771959E-10 -6.090695E-09
       436  16 -1.130038E+06 -4.235320E+04 -4.329923E+04  1.537563E+04 -9.436998E-10  6.825865E-09
       436  17 -1.092003E+06 -3.288114E+04 -3.350717E+04 -1.013675E+03  5.674167E-09  1.271353E-08
       436  18 -1.054385E+06 -2.339697E+04 -2.423515E+04  1.555244E+04  3.659600E-09  1.123284E-09
       436  19 -7.896144E+05  4.228113E+04  3.905962E+04  1.641894E+04  2.006744E+03  5.055930E+03
       436  20 -8.272417E+05  3.297791E+04  3.072176E+04 -1.475449E+02  1.328483E+03  3.619999E+03
       436  21 -8.652832E+05  2.368982E+04  2.187571E+04  1.624052E+04  6.508074E+02  2.164340E+03
       436  22 -9.598396E+05 -3.496020E+01 -2.118740E+03  1.589723E+04  1.392296E+03  5.053397E+03
       436  23 -9.596303E+05  4.903379E+01 -1.392058E+03 -5.806475E+02  7.057009E+02  3.617341E+03
       436  24 -9.598380E+05  1.467534E+02 -1.179388E+03  1.589646E+04  1.965023E+01  2.161550E+03
       436  25 -1.130038E+06 -4.235317E+04 -4.329918E+04  1.537563E+04  7.780159E+02  5.050865E+03
       436  26 -1.092003E+06 -3.288113E+04 -3.350714E+04 -1.013675E+03  8.305151E+01  3.614684E+03
       436  27 -1.054385E+06 -2.339697E+04 -2.423514E+04  1.555244E+04 -6.114110E+02  2.158759E+03
       437   1 -9.271721E+05  8.252999E+03  6.601796E+03  1.603631E+04 -4.394928E+02 -1.311188E+03
       437   2 -9.650946E+05 -1.305618E+03 -2.863353E+03 -6.826996E+02  3.200995E+02  1.514718E+02
       437   3 -1.003489E+06 -1.088000E+04 -1.290587E+04  1.583873E+04  1.079680E+03  1.607997E+03
       437   4 -9.598481E+05  1.488264E+02 -1.207618E+03  1.595985E+04  1.915099E+02 -1.308364E+03
       437   5 -9.596119E+05  5.824516E+01 -1.533369E+03 -6.599172E+02  9.484346E+02  1.542767E+02
       437   6 -9.598485E+05 -4.767301E+01 -2.434669E+03  1.596073E+04  1.705394E+03  1.610789E+03
       437   7 -9.925232E+05 -7.955423E+03 -9.017106E+03  1.588339E+04  8.224795E+02 -1.305541E+03
       437   8 -9.541291E+05  1.422106E+03 -2.033848E+02 -6.371347E+02  1.576775E+03  1.570817E+02
       437   9 -9.162067E+05  1.078452E+04  8.036397E+03  1.608273E+04  2.331152E+03  1.613581E+03
       437  10 -9.271721E+05  8.252997E+03  6.601792E+03  1.603631E+04 -7.211846E-09 -1.607891E-09
       437  11 -9.650946E+05 -1.305618E+03 -2.863353E+03 -6.826996E+02 -4.435097E-10 -7.599298E-09
       437  12 -1.003489E+06 -1.088001E+04 -1.290588E+04  1.583873E+04 -1.468303E-09 -6.393339E-09
       437  13 -9.598481E+05  1.488246E+02 -1.207621E+03  1.595985E+04 -1.183253E-09  5.228324E-09
       437  14 -9.596119E+05  5.824489E+01 -1.533370E+03 -6.599174E+02 -5.220616E-10 -4.716935E-09
       437  15 -9.598485E+05 -4.767658E+01 -2.434679E+03  1.596073E+04  2.403670E-10 -1.491345E-09
       437  16 -9.925232E+05 -7.955425E+03 -9.017110E+03  1.588340E+04  6.116382E-09 -2.788619E-09
       437  17 -9.541292E+05  1.422105E+03 -2.033895E+02 -6.371349E+02  4.088547E-09 -1.825079E-08
       437  18 -9.162067E+05  1.078451E+04  8.036382E+03  1.608273E+04  8.771828E-10 -1.230440E-08
       437  19 -9.271721E+05  8.252999E+03  6.601796E+03  1.603631E+04  4.394928E+02  1.311188E+03
       437  20 -9.650946E+05 -1.305618E+03 -2.863353E+03 -6.826996E+02 -3.200995E+02 -1.514718E+02
       437  21 -1.003489E+06 -1.088000E+04 -1.290587E+04  1.583873E+04 -1.079680E+03 -1.607997E+03
       437  22 -9.598481E+05  1.488264E+02 -1.207618E+03  1.595985E+04 -1.915099E+02  1.308364E+03
       437  23 -9.596119E+05  5.824516E+01 -1.533369E+03 -6.599172E+02 -9.484346E+02 -1.542767E+02
       437  24 -9.598485E+05 -4.767301E+01 -2.434669E+03  1.596073E+04 -1.705394E+03 -1.610789E+03
       437  25 -9.925232E+05 -7.955423E+03 -9.017106E+03  1.588339E+04 -8.224795E+02  1.305541E+03
       437  26 -9.541291E+05  1.422106E+03 -2.033848E+02 -6.371347E+02 -1.576775E+03 -1.570817E+02
       437  27 -9.162067E+05  1.078452E+04  8.036397E+03  1.608273E+04 -2.331152E+03 -1.613581E+03
       438   1 -1.065475E+06 -2.601832E+04 -2.877842E+04  1.527053E+04  1.550744E+03  2.470182E+03
       438   2 -1.102650E+06 -3.529582E+04 -3.987328E+04 -9.712954E+02  4.159660E+03  3.933193E+03
       438   3 -1.141026E+06 -4.671620E+04 -5.327373E+04  1.569525E+04  6.769306E+03  5.310995E+03
       438   4 -9.600113E+05  2.437423E+02 -3.074438E+03  1.588353E+04  2.195633E+03  2.473021E+03
       438   5 -9.594162E+05  3.356852E+02 -5.124081E+03 -5.662620E+02  4.768314E+03  3.935768E+03
       438   6 -9.600149E+05 -1.708326E+03 -9.453416E+03  1.589185E+04  7.341882E+03  5.313318E+03
       438   7 -8.545374E+05  2.650498E+04  2.262873E+04  1.649662E+04  2.840631E+03  2.475861E+03
       438   8 -8.161632E+05  3.596569E+04  2.962364E+04 -1.611549E+02  5.377108E+03  3.938344E+03
       438   9 -7.789743E+05  4.329714E+04  3.436454E+04  1.608849E+04  7.914624E+03  5.315642E+03
       438  10 -1.065475E+06 -2.601832E+04 -2.877843E+04  1.527053E+04 -6.725186E-09  9.132849E-10
       438  11 -1.102650E+06 -3.529584E+04 -3.987335E+04 -9.713086E+02 -4.062555E-09 -7.375807E-09
       438  12 -1.141026E+06 -4.671624E+04 -5.327387E+04  1.569522E+04  1.758922E-09  1.364378E-09
       438  13 -9.600113E+05  2.437345E+02 -3.074459E+03  1.588353E+04  2.828685E-11  1.959502E-09
       438  14 -9.594162E+05  3.356625E+02 -5.124153E+03 -5.662771E+02 -2.288331E-12  2.684168E-09
       438  15 -9.600150E+05 -1.708371E+03 -9.453571E+03  1.589182E+04 -1.208869E-09  5.067676E-09
       438  16 -8.545374E+05  2.650497E+04  2.262871E+04  1.649662E+04  6.125105E-09  5.877686E-09
       438  17 -8.161632E+05  3.596566E+04  2.962356E+04 -1.611720E+02  7.517327E-09 -3.929869E-09
       438  18 -7.789744E+05  4.329710E+04  3.436437E+04  1.608845E+04 -1.820959E-09  8.734577E-09
       438  19 -1.065475E+06 -2.601832E+04 -2.877842E+04  1.527053E+04 -1.550744E+03 -2.470182E+03
       438  20 -1.102650E+06 -3.529582E+04 -3.987328E+04 -9.712954E+02 -4.159660E+03 -3.933193E+03
       438  21 -1.141026E+06 -4.671620E+04 -5.327373E+04  1.569525E+04 -6.769306E+03 -5.310995E+03
       438  22 -9.600113E+05  2.437423E+02 -3.074438E+03  1.588353E+04 -2.195633E+03 -2.473021E+03
       438  23 -9.594162E+05  3.356852E+02 -5.124081E+03 -5.662620E+02 -4.768314E+03 -3.935768E+03
       438  24 -9.600149E+05 -1.708326E+03 -9.453416E+03  1.589185E+04 -7.341882E+03 -5.313318E+03
       438  25 -8.545374E+05  2.650498E+04  2.262873E+04  1.649662E+04 -2.840631E+03 -2.475861E+03
       438  26 -8.161632E+05  3.596569E+04  2.962364E+04 -1.611549E+02 -5.377108E+03 -3.938344E+03
       438  27 -7.789743E+05  4.329714E+04  3.436454E+04  1.608849E+04 -7.914624E+03 -5.315642E+03
       439   1 -1.202852E+06 -5.924000E+04 -7.072696E+04  1.284587E+04  8.446506E+03  6.268500E+03
       439   2 -1.236199E+06 -6.649889E+04 -8.749132E+04 -1.075660E+02  1.909094E+04  7.727404E+03
       439   3 -1.276283E+06 -9.435849E+04 -1.163886E+05  1.893054E+04  2.973873E+04  8.349838E+03
       439   4 -9.612383E+05  9.113858E+02 -1.199798E+04  1.566156E+04  9.239914E+03  6.271667E+03
       439   5 -9.579088E+05  2.722955E+03 -1.998567E+04 -3.016051E+02  1.952765E+04  7.728872E+03
       439   6 -9.612525E+05 -1.599878E+04 -3.985401E+04  1.572605E+04  2.981936E+04  8.349672E+03
       439   7 -7.195715E+05  6.105850E+04  4.672677E+04  1.847830E+04  1.003363E+04  6.274840E+03
       439   8 -6.795480E+05  7.193911E+04  4.751439E+04 -4.958012E+02  1.996455E+04  7.730339E+03
       439   9 -6.461308E+05  6.235367E+04  3.667337E+04  1.251984E+04  2.990002E+04  8.349505E+03
       439  10 -1.202852E+06 -5.924006E+04 -7.072717E+04  1.284583E+04  8.940757E-09  2.769387E-09
       439  11 -1.236199E+06 -6.649905E+04 -8.749212E+04 -1.076849E+02 -3.041591E-09  8.110068E-09
       439  12 -1.276284E+06 -9.435880E+04 -1.163904E+05  1.893034E+04 -4.991169E-09 -7.582477E-09
       439  13 -9.612384E+05  9.113206E+02 -1.199822E+04  1.566152E+04  1.704380E-10 -8.997428E-09
       439  14 -9.579093E+05  2.722788E+03 -1.998650E+04 -3.017267E+02 -4.846436E-10  1.083439E-08
       439  15 -9.612535E+05 -1.599909E+04 -3.985582E+04  1.572585E+04  2.211916E-10 -4.372697E-09
       439  16 -7.195716E+05  6.105843E+04  4.672650E+04  1.847825E+04 -9.729046E-09 -3.626197E-09
       439  17 -6.795484E+05  7.193893E+04  4.751352E+04 -4.959255E+02  4.395805E-09 -1.802415E-08
       439  18 -6.461318E+05  6.235336E+04  3.667156E+04  1.251964E+04  5.179773E-09  3.484442E-09
       439  19 -1.202852E+06 -5.924000E+04 -7.072696E+04  1.284587E+04 -8.446506E+03 -6.268500E+03
       439  20 -1.236199E+06 -6.649889E+04 -8.749132E+04 -1.075660E+02 -1.909094E+04 -7.727404E+03
       439  21 -1.276283E+06 -9.435849E+04 -1.163886E+05  1.893054E+04 -2.973873E+04 -8.349838E+03
       439  22 -9.612383E+05  9.113858E+02 -1.199798E+04  1.566156E+04 -9.239914E+03 -6.271667E+03
       439  23 -9.579088E+05  2.722955E+03 -1.998567E+04 -3.016051E+02 -1.952765E+04 -7.728872E+03
       439  24 -9.612525E+05 -1.599878E+04 -3.985401E+04  1.572605E+04 -2.981936E+04 -8.349672E+03
       439  25 -7.195715E+05  6.105850E+04  4.672677E+04  1.847830E+04 -1.003363E+04 -6.274840E+03
       439  26 -6.795480E+05  7.193911E+04  4.751439E+04 -4.958012E+02 -1.996455E+04 -7.730339E+03
       439  27 -6.461308E+05  6.235367E+04  3.667337E+04  1.251984E+04 -2.990002E+04 -8.349505E+03
       440   1 -1.344084E+06 -8.618488E+04 -1.391949E+05 -2.680017E+03  3.490049E+04  1.049661E+04
       440   2 -1.353970E+06 -7.836752E+04 -1.757308E+05  9.911689E+03  8.046711E+04  1.201775E+04
       440   3 -1.414495E+06 -2.492212E+05 -2.866484E+05  5.308472E+04  1.260596E+05  4.370798E+03
       440   4 -9.708587E+05  6.816626E+03 -4.864995E+04  1.522079E+04  3.747906E+04  1.050650E+04
       440   5 -9.459321E+05  2.302721E+04 -7.690710E+04  1.567378E+02  7.911447E+04  1.201134E+04
       440   6 -9.709296E+05 -1.386893E+05 -1.767783E+05  1.567575E+04  1.207787E+05  4.346693E+03
       440   7 -5.975048E+05  9.980904E+04  4.188514E+04  3.313230E+04  4.005917E+04  1.051653E+04
       440   8 -5.377414E+05  1.244101E+05  2.190472E+04 -9.604783E+03  7.776092E+04  1.200499E+04
       440   9 -5.271821E+05 -2.816666E+04 -6.692204E+04 -2.176015E+04  1.154940E+05  4.323235E+03
       440  10 -1.344086E+06 -8.618532E+04 -1.391974E+05 -2.680313E+03  2.096059E-09 -7.972113E-09
       440  11 -1.353977E+06 -7.836942E+04 -1.757433E+05  9.910910E+03  4.499964E-09  6.371635E-09
       440  12 -1.414512E+06 -2.492255E+05 -2.866783E+05  5.308427E+04  2.892864E-09  9.286895E-09
       440  13 -9.708602E+05  6.816129E+03 -4.865280E+04  1.522047E+04  1.062608E-09  3.885110E-09
       440  14 -9.459389E+05  2.302537E+04 -7.691915E+04  1.559722E+02  1.058935E-09  6.370577E-09
       440  15 -9.709453E+05 -1.386932E+05 -1.768058E+05  1.567533E+04 -2.598218E-10  3.680062E-09
       440  16 -5.975065E+05  9.980849E+04  4.188192E+04  3.313196E+04 -3.010990E-09  7.863834E-09
       440  17 -5.377479E+05  1.244083E+05  2.189307E+04 -9.605535E+03 -2.673582E-09  3.820609E-09
       440  18 -5.271964E+05 -2.817026E+04 -6.694716E+04 -2.176055E+04 -3.956744E-09  5.929741E-10
       440  19 -1.344084E+06 -8.618488E+04 -1.391949E+05 -2.680017E+03 -3.490049E+04 -1.049661E+04
       440  20 -1.353970E+06 -7.836752E+04 -1.757308E+05  9.911689E+03 -8.046711E+04 -1.201775E+04
       440  21 -1.414495E+06 -2.492212E+05 -2.866484E+05  5.308472E+04 -1.260596E+05 -4.370798E+03
       440  22 -9.708587E+05  6.816626E+03 -4.864995E+04  1.522079E+04 -3.747906E+04 -1.050650E+04
       440  23 -9.459321E+05  2.302721E+04 -7.690710E+04  1.567378E+02 -7.911447E+04 -1.201134E+04
       440  24 -9.709296E+05 -1.386893E+05 -1.767783E+05  1.567575E+04 -1.207787E+05 -4.346693E+03
       440  25 -5.975048E+05  9.980904E+04  4.188514E+04  3.313230E+04 -4.005917E+04 -1.051653E+04
       440  26 -5.377414E+05  1.244101E+05  2.190472E+04 -9.604783E+03 -7.776092E+04 -1.200499E+04
       440  27 -5.271821E+05 -2.816666E+04 -6.692204E+04 -2.176015E+04 -1.154940E+05 -4.323235E+03
