    1C
    1UUSER                                                              
    1UDATE              11.october.2022                                 
    1UTIME              17:30:58                                        
    1UHOST                                                              
    1UPGM               CalculiX                                        
    1UVERSION           Version 2.20                             
    1UCOMPILETIME       Sun Jul 31 18:08:37 CEST 2022                    
    1UDIR                                                               
    1UDBN                                                               
    1UMAT    1MESH_MATERIAL                                             
    2C                           841                                     1
 -1         1 0.00000E+00 0.00000E+00 0.00000E+00
 -1         2 1.66667E-02 0.00000E+00 0.00000E+00
 -1         3 3.33333E-02 0.00000E+00 0.00000E+00
 -1         4 5.00000E-02 0.00000E+00 0.00000E+00
 -1         5 6.66667E-02 0.00000E+00 0.00000E+00
 -1         8 0.00000E+00 6.25000E-03 0.00000E+00
 -1         9 1.66667E-02 6.25000E-03 0.00000E+00
 -1        10 3.33333E-02 6.25000E-03 0.00000E+00
 -1        11 5.00000E-02 6.25000E-03 0.00000E+00
 -1        12 6.66667E-02 6.25000E-03 0.00000E+00
 -1        15 0.00000E+00 1.25000E-02 0.00000E+00
 -1        16 1.66667E-02 1.25000E-02 0.00000E+00
 -1        17 3.33333E-02 1.25000E-02 0.00000E+00
 -1        18 5.00000E-02 1.25000E-02 0.00000E+00
 -1        19 6.66667E-02 1.25000E-02 0.00000E+00
 -1        20 8.33333E-02 1.25000E-02 0.00000E+00
 -1        21 1.00000E-01 1.25000E-02 0.00000E+00
 -1        22 0.00000E+00 1.87500E-02 0.00000E+00
 -1        23 1.66667E-02 1.87500E-02 0.00000E+00
 -1        24 3.33333E-02 1.87500E-02 0.00000E+00
 -1        25 5.00000E-02 1.87500E-02 0.00000E+00
 -1        26 6.66667E-02 1.87500E-02 0.00000E+00
 -1        27 8.33333E-02 1.87500E-02 0.00000E+00
 -1        28 1.00000E-01 1.87500E-02 0.00000E+00
 -1        29 0.00000E+00 2.50000E-02 0.00000E+00
 -1        30 1.66667E-02 2.50000E-02 0.00000E+00
 -1        31 3.33333E-02 2.50000E-02 0.00000E+00
 -1        32 5.00000E-02 2.50000E-02 0.00000E+00
 -1        33 6.66667E-02 2.50000E-02 0.00000E+00
 -1        34 8.33333E-02 2.50000E-02 0.00000E+00
 -1        35 1.00000E-01 2.50000E-02 0.00000E+00
 -1        36 1.04167E-03 0.00000E+00 0.00000E+00
 -1        37 2.08333E-03 0.00000E+00 0.00000E+00
 -1        38 3.12500E-03 0.00000E+00 0.00000E+00
 -1        39 4.16667E-03 0.00000E+00 0.00000E+00
 -1        40 5.20833E-03 0.00000E+00 0.00000E+00
 -1        41 6.25000E-03 0.00000E+00 0.00000E+00
 -1        42 7.29167E-03 0.00000E+00 0.00000E+00
 -1        43 8.33333E-03 0.00000E+00 0.00000E+00
 -1        44 9.37500E-03 0.00000E+00 0.00000E+00
 -1        45 1.04167E-02 0.00000E+00 0.00000E+00
 -1        46 1.14583E-02 0.00000E+00 0.00000E+00
 -1        47 1.25000E-02 0.00000E+00 0.00000E+00
 -1        48 1.35417E-02 0.00000E+00 0.00000E+00
 -1        49 1.45833E-02 0.00000E+00 0.00000E+00
 -1        50 1.56250E-02 0.00000E+00 0.00000E+00
 -1        51 0.00000E+00 1.04167E-03 0.00000E+00
 -1        52 0.00000E+00 2.08333E-03 0.00000E+00
 -1        53 0.00000E+00 3.12500E-03 0.00000E+00
 -1        54 0.00000E+00 4.16667E-03 0.00000E+00
 -1        55 0.00000E+00 5.20833E-03 0.00000E+00
 -1        56 1.04167E-03 3.90630E-04 0.00000E+00
 -1        57 2.08333E-03 7.81250E-04 0.00000E+00
 -1        58 3.12500E-03 1.17188E-03 0.00000E+00
 -1        59 4.16667E-03 1.56250E-03 0.00000E+00
 -1        60 5.20833E-03 1.95312E-03 0.00000E+00
 -1        61 6.25000E-03 2.34375E-03 0.00000E+00
 -1        62 7.29167E-03 2.73438E-03 0.00000E+00
 -1        63 8.33333E-03 3.12500E-03 0.00000E+00
 -1        64 9.37500E-03 3.51563E-03 0.00000E+00
 -1        65 1.04167E-02 3.90625E-03 0.00000E+00
 -1        66 1.14583E-02 4.29688E-03 0.00000E+00
 -1        67 1.25000E-02 4.68750E-03 0.00000E+00
 -1        68 1.35417E-02 5.07813E-03 0.00000E+00
 -1        69 1.45833E-02 5.46875E-03 0.00000E+00
 -1        70 1.56250E-02 5.85938E-03 0.00000E+00
 -1        71 1.77083E-02 0.00000E+00 0.00000E+00
 -1        72 1.87500E-02 0.00000E+00 0.00000E+00
 -1        73 1.97917E-02 0.00000E+00 0.00000E+00
 -1        74 2.08333E-02 0.00000E+00 0.00000E+00
 -1        75 2.18750E-02 0.00000E+00 0.00000E+00
 -1        76 2.29167E-02 0.00000E+00 0.00000E+00
 -1        77 2.39583E-02 0.00000E+00 0.00000E+00
 -1        78 2.50000E-02 0.00000E+00 0.00000E+00
 -1        79 2.60417E-02 0.00000E+00 0.00000E+00
 -1        80 2.70833E-02 0.00000E+00 0.00000E+00
 -1        81 2.81250E-02 0.00000E+00 0.00000E+00
 -1        82 2.91667E-02 0.00000E+00 0.00000E+00
 -1        83 3.02083E-02 0.00000E+00 0.00000E+00
 -1        84 3.12500E-02 0.00000E+00 0.00000E+00
 -1        85 3.22917E-02 0.00000E+00 0.00000E+00
 -1        86 1.66667E-02 1.04167E-03 0.00000E+00
 -1        87 1.66667E-02 2.08333E-03 0.00000E+00
 -1        88 1.66667E-02 3.12500E-03 0.00000E+00
 -1        89 1.66667E-02 4.16667E-03 0.00000E+00
 -1        90 1.66667E-02 5.20833E-03 0.00000E+00
 -1        91 1.77083E-02 3.90630E-04 0.00000E+00
 -1        92 1.87500E-02 7.81250E-04 0.00000E+00
 -1        93 1.97917E-02 1.17188E-03 0.00000E+00
 -1        94 2.08333E-02 1.56250E-03 0.00000E+00
 -1        95 2.18750E-02 1.95312E-03 0.00000E+00
 -1        96 2.29167E-02 2.34375E-03 0.00000E+00
 -1        97 2.39583E-02 2.73438E-03 0.00000E+00
 -1        98 2.50000E-02 3.12500E-03 0.00000E+00
 -1        99 2.60417E-02 3.51563E-03 0.00000E+00
 -1       100 2.70833E-02 3.90625E-03 0.00000E+00
 -1       101 2.81250E-02 4.29688E-03 0.00000E+00
 -1       102 2.91667E-02 4.68750E-03 0.00000E+00
 -1       103 3.02083E-02 5.07813E-03 0.00000E+00
 -1       104 3.12500E-02 5.46875E-03 0.00000E+00
 -1       105 3.22917E-02 5.85938E-03 0.00000E+00
 -1       106 3.43750E-02 0.00000E+00 0.00000E+00
 -1       107 3.54167E-02 0.00000E+00 0.00000E+00
 -1       108 3.64583E-02 0.00000E+00 0.00000E+00
 -1       109 3.75000E-02 0.00000E+00 0.00000E+00
 -1       110 3.85417E-02 0.00000E+00 0.00000E+00
 -1       111 3.95833E-02 0.00000E+00 0.00000E+00
 -1       112 4.06250E-02 0.00000E+00 0.00000E+00
 -1       113 4.16667E-02 0.00000E+00 0.00000E+00
 -1       114 4.27083E-02 0.00000E+00 0.00000E+00
 -1       115 4.37500E-02 0.00000E+00 0.00000E+00
 -1       116 4.47917E-02 0.00000E+00 0.00000E+00
 -1       117 4.58333E-02 0.00000E+00 0.00000E+00
 -1       118 4.68750E-02 0.00000E+00 0.00000E+00
 -1       119 4.79167E-02 0.00000E+00 0.00000E+00
 -1       120 4.89583E-02 0.00000E+00 0.00000E+00
 -1       121 3.33333E-02 1.04167E-03 0.00000E+00
 -1       122 3.33333E-02 2.08333E-03 0.00000E+00
 -1       123 3.33333E-02 3.12500E-03 0.00000E+00
 -1       124 3.33333E-02 4.16667E-03 0.00000E+00
 -1       125 3.33333E-02 5.20833E-03 0.00000E+00
 -1       126 3.43750E-02 3.90630E-04 0.00000E+00
 -1       127 3.54167E-02 7.81250E-04 0.00000E+00
 -1       128 3.64583E-02 1.17188E-03 0.00000E+00
 -1       129 3.75000E-02 1.56250E-03 0.00000E+00
 -1       130 3.85417E-02 1.95312E-03 0.00000E+00
 -1       131 3.95833E-02 2.34375E-03 0.00000E+00
 -1       132 4.06250E-02 2.73438E-03 0.00000E+00
 -1       133 4.16667E-02 3.12500E-03 0.00000E+00
 -1       134 4.27083E-02 3.51563E-03 0.00000E+00
 -1       135 4.37500E-02 3.90625E-03 0.00000E+00
 -1       136 4.47917E-02 4.29688E-03 0.00000E+00
 -1       137 4.58333E-02 4.68750E-03 0.00000E+00
 -1       138 4.68750E-02 5.07813E-03 0.00000E+00
 -1       139 4.79167E-02 5.46875E-03 0.00000E+00
 -1       140 4.89583E-02 5.85938E-03 0.00000E+00
 -1       141 5.10417E-02 0.00000E+00 0.00000E+00
 -1       142 5.20833E-02 0.00000E+00 0.00000E+00
 -1       143 5.31250E-02 0.00000E+00 0.00000E+00
 -1       144 5.41667E-02 0.00000E+00 0.00000E+00
 -1       145 5.52083E-02 0.00000E+00 0.00000E+00
 -1       146 5.62500E-02 0.00000E+00 0.00000E+00
 -1       147 5.72917E-02 0.00000E+00 0.00000E+00
 -1       148 5.83333E-02 0.00000E+00 0.00000E+00
 -1       149 5.93750E-02 0.00000E+00 0.00000E+00
 -1       150 6.04167E-02 0.00000E+00 0.00000E+00
 -1       151 6.14583E-02 0.00000E+00 0.00000E+00
 -1       152 6.25000E-02 0.00000E+00 0.00000E+00
 -1       153 6.35417E-02 0.00000E+00 0.00000E+00
 -1       154 6.45833E-02 0.00000E+00 0.00000E+00
 -1       155 6.56250E-02 0.00000E+00 0.00000E+00
 -1       156 5.00000E-02 1.04167E-03 0.00000E+00
 -1       157 5.00000E-02 2.08333E-03 0.00000E+00
 -1       158 5.00000E-02 3.12500E-03 0.00000E+00
 -1       159 5.00000E-02 4.16667E-03 0.00000E+00
 -1       160 5.00000E-02 5.20833E-03 0.00000E+00
 -1       161 5.10417E-02 3.90630E-04 0.00000E+00
 -1       162 5.20833E-02 7.81250E-04 0.00000E+00
 -1       163 5.31250E-02 1.17188E-03 0.00000E+00
 -1       164 5.41667E-02 1.56250E-03 0.00000E+00
 -1       165 5.52083E-02 1.95312E-03 0.00000E+00
 -1       166 5.62500E-02 2.34375E-03 0.00000E+00
 -1       167 5.72917E-02 2.73438E-03 0.00000E+00
 -1       168 5.83333E-02 3.12500E-03 0.00000E+00
 -1       169 5.93750E-02 3.51563E-03 0.00000E+00
 -1       170 6.04167E-02 3.90625E-03 0.00000E+00
 -1       171 6.14583E-02 4.29688E-03 0.00000E+00
 -1       172 6.25000E-02 4.68750E-03 0.00000E+00
 -1       173 6.35417E-02 5.07813E-03 0.00000E+00
 -1       174 6.45833E-02 5.46875E-03 0.00000E+00
 -1       175 6.56250E-02 5.85938E-03 0.00000E+00
 -1       191 6.66667E-02 1.04167E-03 0.00000E+00
 -1       192 6.66667E-02 2.08333E-03 0.00000E+00
 -1       193 6.66667E-02 3.12500E-03 0.00000E+00
 -1       194 6.66667E-02 4.16667E-03 0.00000E+00
 -1       195 6.66667E-02 5.20833E-03 0.00000E+00
 -1       251 1.04167E-03 6.25000E-03 0.00000E+00
 -1       252 2.08333E-03 6.25000E-03 0.00000E+00
 -1       253 3.12500E-03 6.25000E-03 0.00000E+00
 -1       254 4.16667E-03 6.25000E-03 0.00000E+00
 -1       255 5.20833E-03 6.25000E-03 0.00000E+00
 -1       256 6.25000E-03 6.25000E-03 0.00000E+00
 -1       257 7.29167E-03 6.25000E-03 0.00000E+00
 -1       258 8.33333E-03 6.25000E-03 0.00000E+00
 -1       259 9.37500E-03 6.25000E-03 0.00000E+00
 -1       260 1.04167E-02 6.25000E-03 0.00000E+00
 -1       261 1.14583E-02 6.25000E-03 0.00000E+00
 -1       262 1.25000E-02 6.25000E-03 0.00000E+00
 -1       263 1.35417E-02 6.25000E-03 0.00000E+00
 -1       264 1.45833E-02 6.25000E-03 0.00000E+00
 -1       265 1.56250E-02 6.25000E-03 0.00000E+00
 -1       266 0.00000E+00 7.29167E-03 0.00000E+00
 -1       267 0.00000E+00 8.33333E-03 0.00000E+00
 -1       268 0.00000E+00 9.37500E-03 0.00000E+00
 -1       269 0.00000E+00 1.04167E-02 0.00000E+00
 -1       270 0.00000E+00 1.14583E-02 0.00000E+00
 -1       271 1.04167E-03 6.64063E-03 0.00000E+00
 -1       272 2.08333E-03 7.03125E-03 0.00000E+00
 -1       273 3.12500E-03 7.42188E-03 0.00000E+00
 -1       274 4.16667E-03 7.81250E-03 0.00000E+00
 -1       275 5.20833E-03 8.20313E-03 0.00000E+00
 -1       276 6.25000E-03 8.59375E-03 0.00000E+00
 -1       277 7.29167E-03 8.98438E-03 0.00000E+00
 -1       278 8.33333E-03 9.37500E-03 0.00000E+00
 -1       279 9.37500E-03 9.76562E-03 0.00000E+00
 -1       280 1.04167E-02 1.01562E-02 0.00000E+00
 -1       281 1.14583E-02 1.05469E-02 0.00000E+00
 -1       282 1.25000E-02 1.09375E-02 0.00000E+00
 -1       283 1.35417E-02 1.13281E-02 0.00000E+00
 -1       284 1.45833E-02 1.17188E-02 0.00000E+00
 -1       285 1.56250E-02 1.21094E-02 0.00000E+00
 -1       286 1.77083E-02 6.25000E-03 0.00000E+00
 -1       287 1.87500E-02 6.25000E-03 0.00000E+00
 -1       288 1.97917E-02 6.25000E-03 0.00000E+00
 -1       289 2.08333E-02 6.25000E-03 0.00000E+00
 -1       290 2.18750E-02 6.25000E-03 0.00000E+00
 -1       291 2.29167E-02 6.25000E-03 0.00000E+00
 -1       292 2.39583E-02 6.25000E-03 0.00000E+00
 -1       293 2.50000E-02 6.25000E-03 0.00000E+00
 -1       294 2.60417E-02 6.25000E-03 0.00000E+00
 -1       295 2.70833E-02 6.25000E-03 0.00000E+00
 -1       296 2.81250E-02 6.25000E-03 0.00000E+00
 -1       297 2.91667E-02 6.25000E-03 0.00000E+00
 -1       298 3.02083E-02 6.25000E-03 0.00000E+00
 -1       299 3.12500E-02 6.25000E-03 0.00000E+00
 -1       300 3.22917E-02 6.25000E-03 0.00000E+00
 -1       301 1.66667E-02 7.29167E-03 0.00000E+00
 -1       302 1.66667E-02 8.33333E-03 0.00000E+00
 -1       303 1.66667E-02 9.37500E-03 0.00000E+00
 -1       304 1.66667E-02 1.04167E-02 0.00000E+00
 -1       305 1.66667E-02 1.14583E-02 0.00000E+00
 -1       306 1.77083E-02 6.64063E-03 0.00000E+00
 -1       307 1.87500E-02 7.03125E-03 0.00000E+00
 -1       308 1.97917E-02 7.42188E-03 0.00000E+00
 -1       309 2.08333E-02 7.81250E-03 0.00000E+00
 -1       310 2.18750E-02 8.20313E-03 0.00000E+00
 -1       311 2.29167E-02 8.59375E-03 0.00000E+00
 -1       312 2.39583E-02 8.98438E-03 0.00000E+00
 -1       313 2.50000E-02 9.37500E-03 0.00000E+00
 -1       314 2.60417E-02 9.76562E-03 0.00000E+00
 -1       315 2.70833E-02 1.01562E-02 0.00000E+00
 -1       316 2.81250E-02 1.05469E-02 0.00000E+00
 -1       317 2.91667E-02 1.09375E-02 0.00000E+00
 -1       318 3.02083E-02 1.13281E-02 0.00000E+00
 -1       319 3.12500E-02 1.17188E-02 0.00000E+00
 -1       320 3.22917E-02 1.21094E-02 0.00000E+00
 -1       321 3.43750E-02 6.25000E-03 0.00000E+00
 -1       322 3.54167E-02 6.25000E-03 0.00000E+00
 -1       323 3.64583E-02 6.25000E-03 0.00000E+00
 -1       324 3.75000E-02 6.25000E-03 0.00000E+00
 -1       325 3.85417E-02 6.25000E-03 0.00000E+00
 -1       326 3.95833E-02 6.25000E-03 0.00000E+00
 -1       327 4.06250E-02 6.25000E-03 0.00000E+00
 -1       328 4.16667E-02 6.25000E-03 0.00000E+00
 -1       329 4.27083E-02 6.25000E-03 0.00000E+00
 -1       330 4.37500E-02 6.25000E-03 0.00000E+00
 -1       331 4.47917E-02 6.25000E-03 0.00000E+00
 -1       332 4.58333E-02 6.25000E-03 0.00000E+00
 -1       333 4.68750E-02 6.25000E-03 0.00000E+00
 -1       334 4.79167E-02 6.25000E-03 0.00000E+00
 -1       335 4.89583E-02 6.25000E-03 0.00000E+00
 -1       336 3.33333E-02 7.29167E-03 0.00000E+00
 -1       337 3.33333E-02 8.33333E-03 0.00000E+00
 -1       338 3.33333E-02 9.37500E-03 0.00000E+00
 -1       339 3.33333E-02 1.04167E-02 0.00000E+00
 -1       340 3.33333E-02 1.14583E-02 0.00000E+00
 -1       341 3.43750E-02 6.64063E-03 0.00000E+00
 -1       342 3.54167E-02 7.03125E-03 0.00000E+00
 -1       343 3.64583E-02 7.42188E-03 0.00000E+00
 -1       344 3.75000E-02 7.81250E-03 0.00000E+00
 -1       345 3.85417E-02 8.20313E-03 0.00000E+00
 -1       346 3.95833E-02 8.59375E-03 0.00000E+00
 -1       347 4.06250E-02 8.98438E-03 0.00000E+00
 -1       348 4.16667E-02 9.37500E-03 0.00000E+00
 -1       349 4.27083E-02 9.76562E-03 0.00000E+00
 -1       350 4.37500E-02 1.01562E-02 0.00000E+00
 -1       351 4.47917E-02 1.05469E-02 0.00000E+00
 -1       352 4.58333E-02 1.09375E-02 0.00000E+00
 -1       353 4.68750E-02 1.13281E-02 0.00000E+00
 -1       354 4.79167E-02 1.17188E-02 0.00000E+00
 -1       355 4.89583E-02 1.21094E-02 0.00000E+00
 -1       356 5.10417E-02 6.25000E-03 0.00000E+00
 -1       357 5.20833E-02 6.25000E-03 0.00000E+00
 -1       358 5.31250E-02 6.25000E-03 0.00000E+00
 -1       359 5.41667E-02 6.25000E-03 0.00000E+00
 -1       360 5.52083E-02 6.25000E-03 0.00000E+00
 -1       361 5.62500E-02 6.25000E-03 0.00000E+00
 -1       362 5.72917E-02 6.25000E-03 0.00000E+00
 -1       363 5.83333E-02 6.25000E-03 0.00000E+00
 -1       364 5.93750E-02 6.25000E-03 0.00000E+00
 -1       365 6.04167E-02 6.25000E-03 0.00000E+00
 -1       366 6.14583E-02 6.25000E-03 0.00000E+00
 -1       367 6.25000E-02 6.25000E-03 0.00000E+00
 -1       368 6.35417E-02 6.25000E-03 0.00000E+00
 -1       369 6.45833E-02 6.25000E-03 0.00000E+00
 -1       370 6.56250E-02 6.25000E-03 0.00000E+00
 -1       371 5.00000E-02 7.29167E-03 0.00000E+00
 -1       372 5.00000E-02 8.33333E-03 0.00000E+00
 -1       373 5.00000E-02 9.37500E-03 0.00000E+00
 -1       374 5.00000E-02 1.04167E-02 0.00000E+00
 -1       375 5.00000E-02 1.14583E-02 0.00000E+00
 -1       376 5.10417E-02 6.64063E-03 0.00000E+00
 -1       377 5.20833E-02 7.03125E-03 0.00000E+00
 -1       378 5.31250E-02 7.42188E-03 0.00000E+00
 -1       379 5.41667E-02 7.81250E-03 0.00000E+00
 -1       380 5.52083E-02 8.20313E-03 0.00000E+00
 -1       381 5.62500E-02 8.59375E-03 0.00000E+00
 -1       382 5.72917E-02 8.98438E-03 0.00000E+00
 -1       383 5.83333E-02 9.37500E-03 0.00000E+00
 -1       384 5.93750E-02 9.76562E-03 0.00000E+00
 -1       385 6.04167E-02 1.01562E-02 0.00000E+00
 -1       386 6.14583E-02 1.05469E-02 0.00000E+00
 -1       387 6.25000E-02 1.09375E-02 0.00000E+00
 -1       388 6.35417E-02 1.13281E-02 0.00000E+00
 -1       389 6.45833E-02 1.17188E-02 0.00000E+00
 -1       390 6.56250E-02 1.21094E-02 0.00000E+00
 -1       406 6.66667E-02 7.29167E-03 0.00000E+00
 -1       407 6.66667E-02 8.33333E-03 0.00000E+00
 -1       408 6.66667E-02 9.37500E-03 0.00000E+00
 -1       409 6.66667E-02 1.04167E-02 0.00000E+00
 -1       410 6.66667E-02 1.14583E-02 0.00000E+00
 -1       466 1.04167E-03 1.25000E-02 0.00000E+00
 -1       467 2.08333E-03 1.25000E-02 0.00000E+00
 -1       468 3.12500E-03 1.25000E-02 0.00000E+00
 -1       469 4.16667E-03 1.25000E-02 0.00000E+00
 -1       470 5.20833E-03 1.25000E-02 0.00000E+00
 -1       471 6.25000E-03 1.25000E-02 0.00000E+00
 -1       472 7.29167E-03 1.25000E-02 0.00000E+00
 -1       473 8.33333E-03 1.25000E-02 0.00000E+00
 -1       474 9.37500E-03 1.25000E-02 0.00000E+00
 -1       475 1.04167E-02 1.25000E-02 0.00000E+00
 -1       476 1.14583E-02 1.25000E-02 0.00000E+00
 -1       477 1.25000E-02 1.25000E-02 0.00000E+00
 -1       478 1.35417E-02 1.25000E-02 0.00000E+00
 -1       479 1.45833E-02 1.25000E-02 0.00000E+00
 -1       480 1.56250E-02 1.25000E-02 0.00000E+00
 -1       481 0.00000E+00 1.35417E-02 0.00000E+00
 -1       482 0.00000E+00 1.45833E-02 0.00000E+00
 -1       483 0.00000E+00 1.56250E-02 0.00000E+00
 -1       484 0.00000E+00 1.66667E-02 0.00000E+00
 -1       485 0.00000E+00 1.77083E-02 0.00000E+00
 -1       486 1.04167E-03 1.28906E-02 0.00000E+00
 -1       487 2.08333E-03 1.32813E-02 0.00000E+00
 -1       488 3.12500E-03 1.36719E-02 0.00000E+00
 -1       489 4.16667E-03 1.40625E-02 0.00000E+00
 -1       490 5.20833E-03 1.44531E-02 0.00000E+00
 -1       491 6.25000E-03 1.48437E-02 0.00000E+00
 -1       492 7.29167E-03 1.52344E-02 0.00000E+00
 -1       493 8.33333E-03 1.56250E-02 0.00000E+00
 -1       494 9.37500E-03 1.60156E-02 0.00000E+00
 -1       495 1.04167E-02 1.64062E-02 0.00000E+00
 -1       496 1.14583E-02 1.67969E-02 0.00000E+00
 -1       497 1.25000E-02 1.71875E-02 0.00000E+00
 -1       498 1.35417E-02 1.75781E-02 0.00000E+00
 -1       499 1.45833E-02 1.79687E-02 0.00000E+00
 -1       500 1.56250E-02 1.83594E-02 0.00000E+00
 -1       501 1.77083E-02 1.25000E-02 0.00000E+00
 -1       502 1.87500E-02 1.25000E-02 0.00000E+00
 -1       503 1.97917E-02 1.25000E-02 0.00000E+00
 -1       504 2.08333E-02 1.25000E-02 0.00000E+00
 -1       505 2.18750E-02 1.25000E-02 0.00000E+00
 -1       506 2.29167E-02 1.25000E-02 0.00000E+00
 -1       507 2.39583E-02 1.25000E-02 0.00000E+00
 -1       508 2.50000E-02 1.25000E-02 0.00000E+00
 -1       509 2.60417E-02 1.25000E-02 0.00000E+00
 -1       510 2.70833E-02 1.25000E-02 0.00000E+00
 -1       511 2.81250E-02 1.25000E-02 0.00000E+00
 -1       512 2.91667E-02 1.25000E-02 0.00000E+00
 -1       513 3.02083E-02 1.25000E-02 0.00000E+00
 -1       514 3.12500E-02 1.25000E-02 0.00000E+00
 -1       515 3.22917E-02 1.25000E-02 0.00000E+00
 -1       516 1.66667E-02 1.35417E-02 0.00000E+00
 -1       517 1.66667E-02 1.45833E-02 0.00000E+00
 -1       518 1.66667E-02 1.56250E-02 0.00000E+00
 -1       519 1.66667E-02 1.66667E-02 0.00000E+00
 -1       520 1.66667E-02 1.77083E-02 0.00000E+00
 -1       521 1.77083E-02 1.28906E-02 0.00000E+00
 -1       522 1.87500E-02 1.32813E-02 0.00000E+00
 -1       523 1.97917E-02 1.36719E-02 0.00000E+00
 -1       524 2.08333E-02 1.40625E-02 0.00000E+00
 -1       525 2.18750E-02 1.44531E-02 0.00000E+00
 -1       526 2.29167E-02 1.48437E-02 0.00000E+00
 -1       527 2.39583E-02 1.52344E-02 0.00000E+00
 -1       528 2.50000E-02 1.56250E-02 0.00000E+00
 -1       529 2.60417E-02 1.60156E-02 0.00000E+00
 -1       530 2.70833E-02 1.64062E-02 0.00000E+00
 -1       531 2.81250E-02 1.67969E-02 0.00000E+00
 -1       532 2.91667E-02 1.71875E-02 0.00000E+00
 -1       533 3.02083E-02 1.75781E-02 0.00000E+00
 -1       534 3.12500E-02 1.79687E-02 0.00000E+00
 -1       535 3.22917E-02 1.83594E-02 0.00000E+00
 -1       536 3.43750E-02 1.25000E-02 0.00000E+00
 -1       537 3.54167E-02 1.25000E-02 0.00000E+00
 -1       538 3.64583E-02 1.25000E-02 0.00000E+00
 -1       539 3.75000E-02 1.25000E-02 0.00000E+00
 -1       540 3.85417E-02 1.25000E-02 0.00000E+00
 -1       541 3.95833E-02 1.25000E-02 0.00000E+00
 -1       542 4.06250E-02 1.25000E-02 0.00000E+00
 -1       543 4.16667E-02 1.25000E-02 0.00000E+00
 -1       544 4.27083E-02 1.25000E-02 0.00000E+00
 -1       545 4.37500E-02 1.25000E-02 0.00000E+00
 -1       546 4.47917E-02 1.25000E-02 0.00000E+00
 -1       547 4.58333E-02 1.25000E-02 0.00000E+00
 -1       548 4.68750E-02 1.25000E-02 0.00000E+00
 -1       549 4.79167E-02 1.25000E-02 0.00000E+00
 -1       550 4.89583E-02 1.25000E-02 0.00000E+00
 -1       551 3.33333E-02 1.35417E-02 0.00000E+00
 -1       552 3.33333E-02 1.45833E-02 0.00000E+00
 -1       553 3.33333E-02 1.56250E-02 0.00000E+00
 -1       554 3.33333E-02 1.66667E-02 0.00000E+00
 -1       555 3.33333E-02 1.77083E-02 0.00000E+00
 -1       556 3.43750E-02 1.28906E-02 0.00000E+00
 -1       557 3.54167E-02 1.32813E-02 0.00000E+00
 -1       558 3.64583E-02 1.36719E-02 0.00000E+00
 -1       559 3.75000E-02 1.40625E-02 0.00000E+00
 -1       560 3.85417E-02 1.44531E-02 0.00000E+00
 -1       561 3.95833E-02 1.48437E-02 0.00000E+00
 -1       562 4.06250E-02 1.52344E-02 0.00000E+00
 -1       563 4.16667E-02 1.56250E-02 0.00000E+00
 -1       564 4.27083E-02 1.60156E-02 0.00000E+00
 -1       565 4.37500E-02 1.64062E-02 0.00000E+00
 -1       566 4.47917E-02 1.67969E-02 0.00000E+00
 -1       567 4.58333E-02 1.71875E-02 0.00000E+00
 -1       568 4.68750E-02 1.75781E-02 0.00000E+00
 -1       569 4.79167E-02 1.79687E-02 0.00000E+00
 -1       570 4.89583E-02 1.83594E-02 0.00000E+00
 -1       571 5.10417E-02 1.25000E-02 0.00000E+00
 -1       572 5.20833E-02 1.25000E-02 0.00000E+00
 -1       573 5.31250E-02 1.25000E-02 0.00000E+00
 -1       574 5.41667E-02 1.25000E-02 0.00000E+00
 -1       575 5.52083E-02 1.25000E-02 0.00000E+00
 -1       576 5.62500E-02 1.25000E-02 0.00000E+00
 -1       577 5.72917E-02 1.25000E-02 0.00000E+00
 -1       578 5.83333E-02 1.25000E-02 0.00000E+00
 -1       579 5.93750E-02 1.25000E-02 0.00000E+00
 -1       580 6.04167E-02 1.25000E-02 0.00000E+00
 -1       581 6.14583E-02 1.25000E-02 0.00000E+00
 -1       582 6.25000E-02 1.25000E-02 0.00000E+00
 -1       583 6.35417E-02 1.25000E-02 0.00000E+00
 -1       584 6.45833E-02 1.25000E-02 0.00000E+00
 -1       585 6.56250E-02 1.25000E-02 0.00000E+00
 -1       586 5.00000E-02 1.35417E-02 0.00000E+00
 -1       587 5.00000E-02 1.45833E-02 0.00000E+00
 -1       588 5.00000E-02 1.56250E-02 0.00000E+00
 -1       589 5.00000E-02 1.66667E-02 0.00000E+00
 -1       590 5.00000E-02 1.77083E-02 0.00000E+00
 -1       591 5.10417E-02 1.28906E-02 0.00000E+00
 -1       592 5.20833E-02 1.32813E-02 0.00000E+00
 -1       593 5.31250E-02 1.36719E-02 0.00000E+00
 -1       594 5.41667E-02 1.40625E-02 0.00000E+00
 -1       595 5.52083E-02 1.44531E-02 0.00000E+00
 -1       596 5.62500E-02 1.48437E-02 0.00000E+00
 -1       597 5.72917E-02 1.52344E-02 0.00000E+00
 -1       598 5.83333E-02 1.56250E-02 0.00000E+00
 -1       599 5.93750E-02 1.60156E-02 0.00000E+00
 -1       600 6.04167E-02 1.64062E-02 0.00000E+00
 -1       601 6.14583E-02 1.67969E-02 0.00000E+00
 -1       602 6.25000E-02 1.71875E-02 0.00000E+00
 -1       603 6.35417E-02 1.75781E-02 0.00000E+00
 -1       604 6.45833E-02 1.79687E-02 0.00000E+00
 -1       605 6.56250E-02 1.83594E-02 0.00000E+00
 -1       606 6.77083E-02 1.25000E-02 0.00000E+00
 -1       607 6.87500E-02 1.25000E-02 0.00000E+00
 -1       608 6.97917E-02 1.25000E-02 0.00000E+00
 -1       609 7.08333E-02 1.25000E-02 0.00000E+00
 -1       610 7.18750E-02 1.25000E-02 0.00000E+00
 -1       611 7.29167E-02 1.25000E-02 0.00000E+00
 -1       612 7.39583E-02 1.25000E-02 0.00000E+00
 -1       613 7.50000E-02 1.25000E-02 0.00000E+00
 -1       614 7.60417E-02 1.25000E-02 0.00000E+00
 -1       615 7.70833E-02 1.25000E-02 0.00000E+00
 -1       616 7.81250E-02 1.25000E-02 0.00000E+00
 -1       617 7.91667E-02 1.25000E-02 0.00000E+00
 -1       618 8.02083E-02 1.25000E-02 0.00000E+00
 -1       619 8.12500E-02 1.25000E-02 0.00000E+00
 -1       620 8.22917E-02 1.25000E-02 0.00000E+00
 -1       621 6.66667E-02 1.35417E-02 0.00000E+00
 -1       622 6.66667E-02 1.45833E-02 0.00000E+00
 -1       623 6.66667E-02 1.56250E-02 0.00000E+00
 -1       624 6.66667E-02 1.66667E-02 0.00000E+00
 -1       625 6.66667E-02 1.77083E-02 0.00000E+00
 -1       626 6.77083E-02 1.28906E-02 0.00000E+00
 -1       627 6.87500E-02 1.32813E-02 0.00000E+00
 -1       628 6.97917E-02 1.36719E-02 0.00000E+00
 -1       629 7.08333E-02 1.40625E-02 0.00000E+00
 -1       630 7.18750E-02 1.44531E-02 0.00000E+00
 -1       631 7.29167E-02 1.48437E-02 0.00000E+00
 -1       632 7.39583E-02 1.52344E-02 0.00000E+00
 -1       633 7.50000E-02 1.56250E-02 0.00000E+00
 -1       634 7.60417E-02 1.60156E-02 0.00000E+00
 -1       635 7.70833E-02 1.64062E-02 0.00000E+00
 -1       636 7.81250E-02 1.67969E-02 0.00000E+00
 -1       637 7.91667E-02 1.71875E-02 0.00000E+00
 -1       638 8.02083E-02 1.75781E-02 0.00000E+00
 -1       639 8.12500E-02 1.79687E-02 0.00000E+00
 -1       640 8.22917E-02 1.83594E-02 0.00000E+00
 -1       641 8.43750E-02 1.25000E-02 0.00000E+00
 -1       642 8.54167E-02 1.25000E-02 0.00000E+00
 -1       643 8.64583E-02 1.25000E-02 0.00000E+00
 -1       644 8.75000E-02 1.25000E-02 0.00000E+00
 -1       645 8.85417E-02 1.25000E-02 0.00000E+00
 -1       646 8.95833E-02 1.25000E-02 0.00000E+00
 -1       647 9.06250E-02 1.25000E-02 0.00000E+00
 -1       648 9.16667E-02 1.25000E-02 0.00000E+00
 -1       649 9.27083E-02 1.25000E-02 0.00000E+00
 -1       650 9.37500E-02 1.25000E-02 0.00000E+00
 -1       651 9.47917E-02 1.25000E-02 0.00000E+00
 -1       652 9.58333E-02 1.25000E-02 0.00000E+00
 -1       653 9.68750E-02 1.25000E-02 0.00000E+00
 -1       654 9.79167E-02 1.25000E-02 0.00000E+00
 -1       655 9.89583E-02 1.25000E-02 0.00000E+00
 -1       656 8.33333E-02 1.35417E-02 0.00000E+00
 -1       657 8.33333E-02 1.45833E-02 0.00000E+00
 -1       658 8.33333E-02 1.56250E-02 0.00000E+00
 -1       659 8.33333E-02 1.66667E-02 0.00000E+00
 -1       660 8.33333E-02 1.77083E-02 0.00000E+00
 -1       661 8.43750E-02 1.28906E-02 0.00000E+00
 -1       662 8.54167E-02 1.32813E-02 0.00000E+00
 -1       663 8.64583E-02 1.36719E-02 0.00000E+00
 -1       664 8.75000E-02 1.40625E-02 0.00000E+00
 -1       665 8.85417E-02 1.44531E-02 0.00000E+00
 -1       666 8.95833E-02 1.48437E-02 0.00000E+00
 -1       667 9.06250E-02 1.52344E-02 0.00000E+00
 -1       668 9.16667E-02 1.56250E-02 0.00000E+00
 -1       669 9.27083E-02 1.60156E-02 0.00000E+00
 -1       670 9.37500E-02 1.64062E-02 0.00000E+00
 -1       671 9.47917E-02 1.67969E-02 0.00000E+00
 -1       672 9.58333E-02 1.71875E-02 0.00000E+00
 -1       673 9.68750E-02 1.75781E-02 0.00000E+00
 -1       674 9.79167E-02 1.79687E-02 0.00000E+00
 -1       675 9.89583E-02 1.83594E-02 0.00000E+00
 -1       676 1.00000E-01 1.35417E-02 0.00000E+00
 -1       677 1.00000E-01 1.45833E-02 0.00000E+00
 -1       678 1.00000E-01 1.56250E-02 0.00000E+00
 -1       679 1.00000E-01 1.66667E-02 0.00000E+00
 -1       680 1.00000E-01 1.77083E-02 0.00000E+00
 -1       681 1.04167E-03 1.87500E-02 0.00000E+00
 -1       682 2.08333E-03 1.87500E-02 0.00000E+00
 -1       683 3.12500E-03 1.87500E-02 0.00000E+00
 -1       684 4.16667E-03 1.87500E-02 0.00000E+00
 -1       685 5.20833E-03 1.87500E-02 0.00000E+00
 -1       686 6.25000E-03 1.87500E-02 0.00000E+00
 -1       687 7.29167E-03 1.87500E-02 0.00000E+00
 -1       688 8.33333E-03 1.87500E-02 0.00000E+00
 -1       689 9.37500E-03 1.87500E-02 0.00000E+00
 -1       690 1.04167E-02 1.87500E-02 0.00000E+00
 -1       691 1.14583E-02 1.87500E-02 0.00000E+00
 -1       692 1.25000E-02 1.87500E-02 0.00000E+00
 -1       693 1.35417E-02 1.87500E-02 0.00000E+00
 -1       694 1.45833E-02 1.87500E-02 0.00000E+00
 -1       695 1.56250E-02 1.87500E-02 0.00000E+00
 -1       696 0.00000E+00 1.97917E-02 0.00000E+00
 -1       697 0.00000E+00 2.08333E-02 0.00000E+00
 -1       698 0.00000E+00 2.18750E-02 0.00000E+00
 -1       699 0.00000E+00 2.29167E-02 0.00000E+00
 -1       700 0.00000E+00 2.39583E-02 0.00000E+00
 -1       701 1.04167E-03 1.91406E-02 0.00000E+00
 -1       702 2.08333E-03 1.95312E-02 0.00000E+00
 -1       703 3.12500E-03 1.99219E-02 0.00000E+00
 -1       704 4.16667E-03 2.03125E-02 0.00000E+00
 -1       705 5.20833E-03 2.07031E-02 0.00000E+00
 -1       706 6.25000E-03 2.10938E-02 0.00000E+00
 -1       707 7.29167E-03 2.14844E-02 0.00000E+00
 -1       708 8.33333E-03 2.18750E-02 0.00000E+00
 -1       709 9.37500E-03 2.22656E-02 0.00000E+00
 -1       710 1.04167E-02 2.26563E-02 0.00000E+00
 -1       711 1.14583E-02 2.30469E-02 0.00000E+00
 -1       712 1.25000E-02 2.34375E-02 0.00000E+00
 -1       713 1.35417E-02 2.38281E-02 0.00000E+00
 -1       714 1.45833E-02 2.42187E-02 0.00000E+00
 -1       715 1.56250E-02 2.46094E-02 0.00000E+00
 -1       716 1.77083E-02 1.87500E-02 0.00000E+00
 -1       717 1.87500E-02 1.87500E-02 0.00000E+00
 -1       718 1.97917E-02 1.87500E-02 0.00000E+00
 -1       719 2.08333E-02 1.87500E-02 0.00000E+00
 -1       720 2.18750E-02 1.87500E-02 0.00000E+00
 -1       721 2.29167E-02 1.87500E-02 0.00000E+00
 -1       722 2.39583E-02 1.87500E-02 0.00000E+00
 -1       723 2.50000E-02 1.87500E-02 0.00000E+00
 -1       724 2.60417E-02 1.87500E-02 0.00000E+00
 -1       725 2.70833E-02 1.87500E-02 0.00000E+00
 -1       726 2.81250E-02 1.87500E-02 0.00000E+00
 -1       727 2.91667E-02 1.87500E-02 0.00000E+00
 -1       728 3.02083E-02 1.87500E-02 0.00000E+00
 -1       729 3.12500E-02 1.87500E-02 0.00000E+00
 -1       730 3.22917E-02 1.87500E-02 0.00000E+00
 -1       731 1.66667E-02 1.97917E-02 0.00000E+00
 -1       732 1.66667E-02 2.08333E-02 0.00000E+00
 -1       733 1.66667E-02 2.18750E-02 0.00000E+00
 -1       734 1.66667E-02 2.29167E-02 0.00000E+00
 -1       735 1.66667E-02 2.39583E-02 0.00000E+00
 -1       736 1.77083E-02 1.91406E-02 0.00000E+00
 -1       737 1.87500E-02 1.95312E-02 0.00000E+00
 -1       738 1.97917E-02 1.99219E-02 0.00000E+00
 -1       739 2.08333E-02 2.03125E-02 0.00000E+00
 -1       740 2.18750E-02 2.07031E-02 0.00000E+00
 -1       741 2.29167E-02 2.10938E-02 0.00000E+00
 -1       742 2.39583E-02 2.14844E-02 0.00000E+00
 -1       743 2.50000E-02 2.18750E-02 0.00000E+00
 -1       744 2.60417E-02 2.22656E-02 0.00000E+00
 -1       745 2.70833E-02 2.26563E-02 0.00000E+00
 -1       746 2.81250E-02 2.30469E-02 0.00000E+00
 -1       747 2.91667E-02 2.34375E-02 0.00000E+00
 -1       748 3.02083E-02 2.38281E-02 0.00000E+00
 -1       749 3.12500E-02 2.42187E-02 0.00000E+00
 -1       750 3.22917E-02 2.46094E-02 0.00000E+00
 -1       751 3.43750E-02 1.87500E-02 0.00000E+00
 -1       752 3.54167E-02 1.87500E-02 0.00000E+00
 -1       753 3.64583E-02 1.87500E-02 0.00000E+00
 -1       754 3.75000E-02 1.87500E-02 0.00000E+00
 -1       755 3.85417E-02 1.87500E-02 0.00000E+00
 -1       756 3.95833E-02 1.87500E-02 0.00000E+00
 -1       757 4.06250E-02 1.87500E-02 0.00000E+00
 -1       758 4.16667E-02 1.87500E-02 0.00000E+00
 -1       759 4.27083E-02 1.87500E-02 0.00000E+00
 -1       760 4.37500E-02 1.87500E-02 0.00000E+00
 -1       761 4.47917E-02 1.87500E-02 0.00000E+00
 -1       762 4.58333E-02 1.87500E-02 0.00000E+00
 -1       763 4.68750E-02 1.87500E-02 0.00000E+00
 -1       764 4.79167E-02 1.87500E-02 0.00000E+00
 -1       765 4.89583E-02 1.87500E-02 0.00000E+00
 -1       766 3.33333E-02 1.97917E-02 0.00000E+00
 -1       767 3.33333E-02 2.08333E-02 0.00000E+00
 -1       768 3.33333E-02 2.18750E-02 0.00000E+00
 -1       769 3.33333E-02 2.29167E-02 0.00000E+00
 -1       770 3.33333E-02 2.39583E-02 0.00000E+00
 -1       771 3.43750E-02 1.91406E-02 0.00000E+00
 -1       772 3.54167E-02 1.95312E-02 0.00000E+00
 -1       773 3.64583E-02 1.99219E-02 0.00000E+00
 -1       774 3.75000E-02 2.03125E-02 0.00000E+00
 -1       775 3.85417E-02 2.07031E-02 0.00000E+00
 -1       776 3.95833E-02 2.10938E-02 0.00000E+00
 -1       777 4.06250E-02 2.14844E-02 0.00000E+00
 -1       778 4.16667E-02 2.18750E-02 0.00000E+00
 -1       779 4.27083E-02 2.22656E-02 0.00000E+00
 -1       780 4.37500E-02 2.26563E-02 0.00000E+00
 -1       781 4.47917E-02 2.30469E-02 0.00000E+00
 -1       782 4.58333E-02 2.34375E-02 0.00000E+00
 -1       783 4.68750E-02 2.38281E-02 0.00000E+00
 -1       784 4.79167E-02 2.42187E-02 0.00000E+00
 -1       785 4.89583E-02 2.46094E-02 0.00000E+00
 -1       786 5.10417E-02 1.87500E-02 0.00000E+00
 -1       787 5.20833E-02 1.87500E-02 0.00000E+00
 -1       788 5.31250E-02 1.87500E-02 0.00000E+00
 -1       789 5.41667E-02 1.87500E-02 0.00000E+00
 -1       790 5.52083E-02 1.87500E-02 0.00000E+00
 -1       791 5.62500E-02 1.87500E-02 0.00000E+00
 -1       792 5.72917E-02 1.87500E-02 0.00000E+00
 -1       793 5.83333E-02 1.87500E-02 0.00000E+00
 -1       794 5.93750E-02 1.87500E-02 0.00000E+00
 -1       795 6.04167E-02 1.87500E-02 0.00000E+00
 -1       796 6.14583E-02 1.87500E-02 0.00000E+00
 -1       797 6.25000E-02 1.87500E-02 0.00000E+00
 -1       798 6.35417E-02 1.87500E-02 0.00000E+00
 -1       799 6.45833E-02 1.87500E-02 0.00000E+00
 -1       800 6.56250E-02 1.87500E-02 0.00000E+00
 -1       801 5.00000E-02 1.97917E-02 0.00000E+00
 -1       802 5.00000E-02 2.08333E-02 0.00000E+00
 -1       803 5.00000E-02 2.18750E-02 0.00000E+00
 -1       804 5.00000E-02 2.29167E-02 0.00000E+00
 -1       805 5.00000E-02 2.39583E-02 0.00000E+00
 -1       806 5.10417E-02 1.91406E-02 0.00000E+00
 -1       807 5.20833E-02 1.95312E-02 0.00000E+00
 -1       808 5.31250E-02 1.99219E-02 0.00000E+00
 -1       809 5.41667E-02 2.03125E-02 0.00000E+00
 -1       810 5.52083E-02 2.07031E-02 0.00000E+00
 -1       811 5.62500E-02 2.10938E-02 0.00000E+00
 -1       812 5.72917E-02 2.14844E-02 0.00000E+00
 -1       813 5.83333E-02 2.18750E-02 0.00000E+00
 -1       814 5.93750E-02 2.22656E-02 0.00000E+00
 -1       815 6.04167E-02 2.26563E-02 0.00000E+00
 -1       816 6.14583E-02 2.30469E-02 0.00000E+00
 -1       817 6.25000E-02 2.34375E-02 0.00000E+00
 -1       818 6.35417E-02 2.38281E-02 0.00000E+00
 -1       819 6.45833E-02 2.42187E-02 0.00000E+00
 -1       820 6.56250E-02 2.46094E-02 0.00000E+00
 -1       821 6.77083E-02 1.87500E-02 0.00000E+00
 -1       822 6.87500E-02 1.87500E-02 0.00000E+00
 -1       823 6.97917E-02 1.87500E-02 0.00000E+00
 -1       824 7.08333E-02 1.87500E-02 0.00000E+00
 -1       825 7.18750E-02 1.87500E-02 0.00000E+00
 -1       826 7.29167E-02 1.87500E-02 0.00000E+00
 -1       827 7.39583E-02 1.87500E-02 0.00000E+00
 -1       828 7.50000E-02 1.87500E-02 0.00000E+00
 -1       829 7.60417E-02 1.87500E-02 0.00000E+00
 -1       830 7.70833E-02 1.87500E-02 0.00000E+00
 -1       831 7.81250E-02 1.87500E-02 0.00000E+00
 -1       832 7.91667E-02 1.87500E-02 0.00000E+00
 -1       833 8.02083E-02 1.87500E-02 0.00000E+00
 -1       834 8.12500E-02 1.87500E-02 0.00000E+00
 -1       835 8.22917E-02 1.87500E-02 0.00000E+00
 -1       836 6.66667E-02 1.97917E-02 0.00000E+00
 -1       837 6.66667E-02 2.08333E-02 0.00000E+00
 -1       838 6.66667E-02 2.18750E-02 0.00000E+00
 -1       839 6.66667E-02 2.29167E-02 0.00000E+00
 -1       840 6.66667E-02 2.39583E-02 0.00000E+00
 -1       841 6.77083E-02 1.91406E-02 0.00000E+00
 -1       842 6.87500E-02 1.95312E-02 0.00000E+00
 -1       843 6.97917E-02 1.99219E-02 0.00000E+00
 -1       844 7.08333E-02 2.03125E-02 0.00000E+00
 -1       845 7.18750E-02 2.07031E-02 0.00000E+00
 -1       846 7.29167E-02 2.10938E-02 0.00000E+00
 -1       847 7.39583E-02 2.14844E-02 0.00000E+00
 -1       848 7.50000E-02 2.18750E-02 0.00000E+00
 -1       849 7.60417E-02 2.22656E-02 0.00000E+00
 -1       850 7.70833E-02 2.26563E-02 0.00000E+00
 -1       851 7.81250E-02 2.30469E-02 0.00000E+00
 -1       852 7.91667E-02 2.34375E-02 0.00000E+00
 -1       853 8.02083E-02 2.38281E-02 0.00000E+00
 -1       854 8.12500E-02 2.42187E-02 0.00000E+00
 -1       855 8.22917E-02 2.46094E-02 0.00000E+00
 -1       856 8.43750E-02 1.87500E-02 0.00000E+00
 -1       857 8.54167E-02 1.87500E-02 0.00000E+00
 -1       858 8.64583E-02 1.87500E-02 0.00000E+00
 -1       859 8.75000E-02 1.87500E-02 0.00000E+00
 -1       860 8.85417E-02 1.87500E-02 0.00000E+00
 -1       861 8.95833E-02 1.87500E-02 0.00000E+00
 -1       862 9.06250E-02 1.87500E-02 0.00000E+00
 -1       863 9.16667E-02 1.87500E-02 0.00000E+00
 -1       864 9.27083E-02 1.87500E-02 0.00000E+00
 -1       865 9.37500E-02 1.87500E-02 0.00000E+00
 -1       866 9.47917E-02 1.87500E-02 0.00000E+00
 -1       867 9.58333E-02 1.87500E-02 0.00000E+00
 -1       868 9.68750E-02 1.87500E-02 0.00000E+00
 -1       869 9.79167E-02 1.87500E-02 0.00000E+00
 -1       870 9.89583E-02 1.87500E-02 0.00000E+00
 -1       871 8.33333E-02 1.97917E-02 0.00000E+00
 -1       872 8.33333E-02 2.08333E-02 0.00000E+00
 -1       873 8.33333E-02 2.18750E-02 0.00000E+00
 -1       874 8.33333E-02 2.29167E-02 0.00000E+00
 -1       875 8.33333E-02 2.39583E-02 0.00000E+00
 -1       876 8.43750E-02 1.91406E-02 0.00000E+00
 -1       877 8.54167E-02 1.95312E-02 0.00000E+00
 -1       878 8.64583E-02 1.99219E-02 0.00000E+00
 -1       879 8.75000E-02 2.03125E-02 0.00000E+00
 -1       880 8.85417E-02 2.07031E-02 0.00000E+00
 -1       881 8.95833E-02 2.10938E-02 0.00000E+00
 -1       882 9.06250E-02 2.14844E-02 0.00000E+00
 -1       883 9.16667E-02 2.18750E-02 0.00000E+00
 -1       884 9.27083E-02 2.22656E-02 0.00000E+00
 -1       885 9.37500E-02 2.26563E-02 0.00000E+00
 -1       886 9.47917E-02 2.30469E-02 0.00000E+00
 -1       887 9.58333E-02 2.34375E-02 0.00000E+00
 -1       888 9.68750E-02 2.38281E-02 0.00000E+00
 -1       889 9.79167E-02 2.42187E-02 0.00000E+00
 -1       890 9.89583E-02 2.46094E-02 0.00000E+00
 -1       891 1.00000E-01 1.97917E-02 0.00000E+00
 -1       892 1.00000E-01 2.08333E-02 0.00000E+00
 -1       893 1.00000E-01 2.18750E-02 0.00000E+00
 -1       894 1.00000E-01 2.29167E-02 0.00000E+00
 -1       895 1.00000E-01 2.39583E-02 0.00000E+00
 -1       896 1.04167E-03 2.50000E-02 0.00000E+00
 -1       897 2.08333E-03 2.50000E-02 0.00000E+00
 -1       898 3.12500E-03 2.50000E-02 0.00000E+00
 -1       899 4.16667E-03 2.50000E-02 0.00000E+00
 -1       900 5.20833E-03 2.50000E-02 0.00000E+00
 -1       901 6.25000E-03 2.50000E-02 0.00000E+00
 -1       902 7.29167E-03 2.50000E-02 0.00000E+00
 -1       903 8.33333E-03 2.50000E-02 0.00000E+00
 -1       904 9.37500E-03 2.50000E-02 0.00000E+00
 -1       905 1.04167E-02 2.50000E-02 0.00000E+00
 -1       906 1.14583E-02 2.50000E-02 0.00000E+00
 -1       907 1.25000E-02 2.50000E-02 0.00000E+00
 -1       908 1.35417E-02 2.50000E-02 0.00000E+00
 -1       909 1.45833E-02 2.50000E-02 0.00000E+00
 -1       910 1.56250E-02 2.50000E-02 0.00000E+00
 -1       911 1.77083E-02 2.50000E-02 0.00000E+00
 -1       912 1.87500E-02 2.50000E-02 0.00000E+00
 -1       913 1.97917E-02 2.50000E-02 0.00000E+00
 -1       914 2.08333E-02 2.50000E-02 0.00000E+00
 -1       915 2.18750E-02 2.50000E-02 0.00000E+00
 -1       916 2.29167E-02 2.50000E-02 0.00000E+00
 -1       917 2.39583E-02 2.50000E-02 0.00000E+00
 -1       918 2.50000E-02 2.50000E-02 0.00000E+00
 -1       919 2.60417E-02 2.50000E-02 0.00000E+00
 -1       920 2.70833E-02 2.50000E-02 0.00000E+00
 -1       921 2.81250E-02 2.50000E-02 0.00000E+00
 -1       922 2.91667E-02 2.50000E-02 0.00000E+00
 -1       923 3.02083E-02 2.50000E-02 0.00000E+00
 -1       924 3.12500E-02 2.50000E-02 0.00000E+00
 -1       925 3.22917E-02 2.50000E-02 0.00000E+00
 -1       926 3.43750E-02 2.50000E-02 0.00000E+00
 -1       927 3.54167E-02 2.50000E-02 0.00000E+00
 -1       928 3.64583E-02 2.50000E-02 0.00000E+00
 -1       929 3.75000E-02 2.50000E-02 0.00000E+00
 -1       930 3.85417E-02 2.50000E-02 0.00000E+00
 -1       931 3.95833E-02 2.50000E-02 0.00000E+00
 -1       932 4.06250E-02 2.50000E-02 0.00000E+00
 -1       933 4.16667E-02 2.50000E-02 0.00000E+00
 -1       934 4.27083E-02 2.50000E-02 0.00000E+00
 -1       935 4.37500E-02 2.50000E-02 0.00000E+00
 -1       936 4.47917E-02 2.50000E-02 0.00000E+00
 -1       937 4.58333E-02 2.50000E-02 0.00000E+00
 -1       938 4.68750E-02 2.50000E-02 0.00000E+00
 -1       939 4.79167E-02 2.50000E-02 0.00000E+00
 -1       940 4.89583E-02 2.50000E-02 0.00000E+00
 -1       941 5.10417E-02 2.50000E-02 0.00000E+00
 -1       942 5.20833E-02 2.50000E-02 0.00000E+00
 -1       943 5.31250E-02 2.50000E-02 0.00000E+00
 -1       944 5.41667E-02 2.50000E-02 0.00000E+00
 -1       945 5.52083E-02 2.50000E-02 0.00000E+00
 -1       946 5.62500E-02 2.50000E-02 0.00000E+00
 -1       947 5.72917E-02 2.50000E-02 0.00000E+00
 -1       948 5.83333E-02 2.50000E-02 0.00000E+00
 -1       949 5.93750E-02 2.50000E-02 0.00000E+00
 -1       950 6.04167E-02 2.50000E-02 0.00000E+00
 -1       951 6.14583E-02 2.50000E-02 0.00000E+00
 -1       952 6.25000E-02 2.50000E-02 0.00000E+00
 -1       953 6.35417E-02 2.50000E-02 0.00000E+00
 -1       954 6.45833E-02 2.50000E-02 0.00000E+00
 -1       955 6.56250E-02 2.50000E-02 0.00000E+00
 -1       956 6.77083E-02 2.50000E-02 0.00000E+00
 -1       957 6.87500E-02 2.50000E-02 0.00000E+00
 -1       958 6.97917E-02 2.50000E-02 0.00000E+00
 -1       959 7.08333E-02 2.50000E-02 0.00000E+00
 -1       960 7.18750E-02 2.50000E-02 0.00000E+00
 -1       961 7.29167E-02 2.50000E-02 0.00000E+00
 -1       962 7.39583E-02 2.50000E-02 0.00000E+00
 -1       963 7.50000E-02 2.50000E-02 0.00000E+00
 -1       964 7.60417E-02 2.50000E-02 0.00000E+00
 -1       965 7.70833E-02 2.50000E-02 0.00000E+00
 -1       966 7.81250E-02 2.50000E-02 0.00000E+00
 -1       967 7.91667E-02 2.50000E-02 0.00000E+00
 -1       968 8.02083E-02 2.50000E-02 0.00000E+00
 -1       969 8.12500E-02 2.50000E-02 0.00000E+00
 -1       970 8.22917E-02 2.50000E-02 0.00000E+00
 -1       971 8.43750E-02 2.50000E-02 0.00000E+00
 -1       972 8.54167E-02 2.50000E-02 0.00000E+00
 -1       973 8.64583E-02 2.50000E-02 0.00000E+00
 -1       974 8.75000E-02 2.50000E-02 0.00000E+00
 -1       975 8.85417E-02 2.50000E-02 0.00000E+00
 -1       976 8.95833E-02 2.50000E-02 0.00000E+00
 -1       977 9.06250E-02 2.50000E-02 0.00000E+00
 -1       978 9.16667E-02 2.50000E-02 0.00000E+00
 -1       979 9.27083E-02 2.50000E-02 0.00000E+00
 -1       980 9.37500E-02 2.50000E-02 0.00000E+00
 -1       981 9.47917E-02 2.50000E-02 0.00000E+00
 -1       982 9.58333E-02 2.50000E-02 0.00000E+00
 -1       983 9.68750E-02 2.50000E-02 0.00000E+00
 -1       984 9.79167E-02 2.50000E-02 0.00000E+00
 -1       985 9.89583E-02 2.50000E-02 0.00000E+00
 -3
    3C                           440                                     1
 -1         1   12    0    1
 -2         1        37        36
 -1         2   12    0    1
 -2        37        39        38
 -1         3   12    0    1
 -2        39        41        40
 -1         4   12    0    1
 -2        41        43        42
 -1         5   12    0    1
 -2        43        45        44
 -1         6   12    0    1
 -2        45        47        46
 -1         7   12    0    1
 -2        47        49        48
 -1         8   12    0    1
 -2        49         2        50
 -1         9   12    0    1
 -2         1        52        51
 -1        10   12    0    1
 -2        52        54        53
 -1        11   12    0    1
 -2        54         8        55
 -1        12   12    0    1
 -2         1        57        56
 -1        13   12    0    1
 -2        57        59        58
 -1        14   12    0    1
 -2        59        61        60
 -1        15   12    0    1
 -2        61        63        62
 -1        16   12    0    1
 -2        63        65        64
 -1        17   12    0    1
 -2        65        67        66
 -1        18   12    0    1
 -2        67        69        68
 -1        19   12    0    1
 -2        69         9        70
 -1        20   12    0    1
 -2         2        72        71
 -1        21   12    0    1
 -2        72        74        73
 -1        22   12    0    1
 -2        74        76        75
 -1        23   12    0    1
 -2        76        78        77
 -1        24   12    0    1
 -2        78        80        79
 -1        25   12    0    1
 -2        80        82        81
 -1        26   12    0    1
 -2        82        84        83
 -1        27   12    0    1
 -2        84         3        85
 -1        28   12    0    1
 -2         2        87        86
 -1        29   12    0    1
 -2        87        89        88
 -1        30   12    0    1
 -2        89         9        90
 -1        31   12    0    1
 -2         2        92        91
 -1        32   12    0    1
 -2        92        94        93
 -1        33   12    0    1
 -2        94        96        95
 -1        34   12    0    1
 -2        96        98        97
 -1        35   12    0    1
 -2        98       100        99
 -1        36   12    0    1
 -2       100       102       101
 -1        37   12    0    1
 -2       102       104       103
 -1        38   12    0    1
 -2       104        10       105
 -1        39   12    0    1
 -2         3       107       106
 -1        40   12    0    1
 -2       107       109       108
 -1        41   12    0    1
 -2       109       111       110
 -1        42   12    0    1
 -2       111       113       112
 -1        43   12    0    1
 -2       113       115       114
 -1        44   12    0    1
 -2       115       117       116
 -1        45   12    0    1
 -2       117       119       118
 -1        46   12    0    1
 -2       119         4       120
 -1        47   12    0    1
 -2         3       122       121
 -1        48   12    0    1
 -2       122       124       123
 -1        49   12    0    1
 -2       124        10       125
 -1        50   12    0    1
 -2         3       127       126
 -1        51   12    0    1
 -2       127       129       128
 -1        52   12    0    1
 -2       129       131       130
 -1        53   12    0    1
 -2       131       133       132
 -1        54   12    0    1
 -2       133       135       134
 -1        55   12    0    1
 -2       135       137       136
 -1        56   12    0    1
 -2       137       139       138
 -1        57   12    0    1
 -2       139        11       140
 -1        58   12    0    1
 -2         4       142       141
 -1        59   12    0    1
 -2       142       144       143
 -1        60   12    0    1
 -2       144       146       145
 -1        61   12    0    1
 -2       146       148       147
 -1        62   12    0    1
 -2       148       150       149
 -1        63   12    0    1
 -2       150       152       151
 -1        64   12    0    1
 -2       152       154       153
 -1        65   12    0    1
 -2       154         5       155
 -1        66   12    0    1
 -2         4       157       156
 -1        67   12    0    1
 -2       157       159       158
 -1        68   12    0    1
 -2       159        11       160
 -1        69   12    0    1
 -2         4       162       161
 -1        70   12    0    1
 -2       162       164       163
 -1        71   12    0    1
 -2       164       166       165
 -1        72   12    0    1
 -2       166       168       167
 -1        73   12    0    1
 -2       168       170       169
 -1        74   12    0    1
 -2       170       172       171
 -1        75   12    0    1
 -2       172       174       173
 -1        76   12    0    1
 -2       174        12       175
 -1        77   12    0    1
 -2         5       192       191
 -1        78   12    0    1
 -2       192       194       193
 -1        79   12    0    1
 -2       194        12       195
 -1        80   12    0    1
 -2         8       252       251
 -1        81   12    0    1
 -2       252       254       253
 -1        82   12    0    1
 -2       254       256       255
 -1        83   12    0    1
 -2       256       258       257
 -1        84   12    0    1
 -2       258       260       259
 -1        85   12    0    1
 -2       260       262       261
 -1        86   12    0    1
 -2       262       264       263
 -1        87   12    0    1
 -2       264         9       265
 -1        88   12    0    1
 -2         8       267       266
 -1        89   12    0    1
 -2       267       269       268
 -1        90   12    0    1
 -2       269        15       270
 -1        91   12    0    1
 -2         8       272       271
 -1        92   12    0    1
 -2       272       274       273
 -1        93   12    0    1
 -2       274       276       275
 -1        94   12    0    1
 -2       276       278       277
 -1        95   12    0    1
 -2       278       280       279
 -1        96   12    0    1
 -2       280       282       281
 -1        97   12    0    1
 -2       282       284       283
 -1        98   12    0    1
 -2       284        16       285
 -1        99   12    0    1
 -2         9       287       286
 -1       100   12    0    1
 -2       287       289       288
 -1       101   12    0    1
 -2       289       291       290
 -1       102   12    0    1
 -2       291       293       292
 -1       103   12    0    1
 -2       293       295       294
 -1       104   12    0    1
 -2       295       297       296
 -1       105   12    0    1
 -2       297       299       298
 -1       106   12    0    1
 -2       299        10       300
 -1       107   12    0    1
 -2         9       302       301
 -1       108   12    0    1
 -2       302       304       303
 -1       109   12    0    1
 -2       304        16       305
 -1       110   12    0    1
 -2         9       307       306
 -1       111   12    0    1
 -2       307       309       308
 -1       112   12    0    1
 -2       309       311       310
 -1       113   12    0    1
 -2       311       313       312
 -1       114   12    0    1
 -2       313       315       314
 -1       115   12    0    1
 -2       315       317       316
 -1       116   12    0    1
 -2       317       319       318
 -1       117   12    0    1
 -2       319        17       320
 -1       118   12    0    1
 -2        10       322       321
 -1       119   12    0    1
 -2       322       324       323
 -1       120   12    0    1
 -2       324       326       325
 -1       121   12    0    1
 -2       326       328       327
 -1       122   12    0    1
 -2       328       330       329
 -1       123   12    0    1
 -2       330       332       331
 -1       124   12    0    1
 -2       332       334       333
 -1       125   12    0    1
 -2       334        11       335
 -1       126   12    0    1
 -2        10       337       336
 -1       127   12    0    1
 -2       337       339       338
 -1       128   12    0    1
 -2       339        17       340
 -1       129   12    0    1
 -2        10       342       341
 -1       130   12    0    1
 -2       342       344       343
 -1       131   12    0    1
 -2       344       346       345
 -1       132   12    0    1
 -2       346       348       347
 -1       133   12    0    1
 -2       348       350       349
 -1       134   12    0    1
 -2       350       352       351
 -1       135   12    0    1
 -2       352       354       353
 -1       136   12    0    1
 -2       354        18       355
 -1       137   12    0    1
 -2        11       357       356
 -1       138   12    0    1
 -2       357       359       358
 -1       139   12    0    1
 -2       359       361       360
 -1       140   12    0    1
 -2       361       363       362
 -1       141   12    0    1
 -2       363       365       364
 -1       142   12    0    1
 -2       365       367       366
 -1       143   12    0    1
 -2       367       369       368
 -1       144   12    0    1
 -2       369        12       370
 -1       145   12    0    1
 -2        11       372       371
 -1       146   12    0    1
 -2       372       374       373
 -1       147   12    0    1
 -2       374        18       375
 -1       148   12    0    1
 -2        11       377       376
 -1       149   12    0    1
 -2       377       379       378
 -1       150   12    0    1
 -2       379       381       380
 -1       151   12    0    1
 -2       381       383       382
 -1       152   12    0    1
 -2       383       385       384
 -1       153   12    0    1
 -2       385       387       386
 -1       154   12    0    1
 -2       387       389       388
 -1       155   12    0    1
 -2       389        19       390
 -1       156   12    0    1
 -2        12       407       406
 -1       157   12    0    1
 -2       407       409       408
 -1       158   12    0    1
 -2       409        19       410
 -1       159   12    0    1
 -2        15       467       466
 -1       160   12    0    1
 -2       467       469       468
 -1       161   12    0    1
 -2       469       471       470
 -1       162   12    0    1
 -2       471       473       472
 -1       163   12    0    1
 -2       473       475       474
 -1       164   12    0    1
 -2       475       477       476
 -1       165   12    0    1
 -2       477       479       478
 -1       166   12    0    1
 -2       479        16       480
 -1       167   12    0    1
 -2        15       482       481
 -1       168   12    0    1
 -2       482       484       483
 -1       169   12    0    1
 -2       484        22       485
 -1       170   12    0    1
 -2        15       487       486
 -1       171   12    0    1
 -2       487       489       488
 -1       172   12    0    1
 -2       489       491       490
 -1       173   12    0    1
 -2       491       493       492
 -1       174   12    0    1
 -2       493       495       494
 -1       175   12    0    1
 -2       495       497       496
 -1       176   12    0    1
 -2       497       499       498
 -1       177   12    0    1
 -2       499        23       500
 -1       178   12    0    1
 -2        16       502       501
 -1       179   12    0    1
 -2       502       504       503
 -1       180   12    0    1
 -2       504       506       505
 -1       181   12    0    1
 -2       506       508       507
 -1       182   12    0    1
 -2       508       510       509
 -1       183   12    0    1
 -2       510       512       511
 -1       184   12    0    1
 -2       512       514       513
 -1       185   12    0    1
 -2       514        17       515
 -1       186   12    0    1
 -2        16       517       516
 -1       187   12    0    1
 -2       517       519       518
 -1       188   12    0    1
 -2       519        23       520
 -1       189   12    0    1
 -2        16       522       521
 -1       190   12    0    1
 -2       522       524       523
 -1       191   12    0    1
 -2       524       526       525
 -1       192   12    0    1
 -2       526       528       527
 -1       193   12    0    1
 -2       528       530       529
 -1       194   12    0    1
 -2       530       532       531
 -1       195   12    0    1
 -2       532       534       533
 -1       196   12    0    1
 -2       534        24       535
 -1       197   12    0    1
 -2        17       537       536
 -1       198   12    0    1
 -2       537       539       538
 -1       199   12    0    1
 -2       539       541       540
 -1       200   12    0    1
 -2       541       543       542
 -1       201   12    0    1
 -2       543       545       544
 -1       202   12    0    1
 -2       545       547       546
 -1       203   12    0    1
 -2       547       549       548
 -1       204   12    0    1
 -2       549        18       550
 -1       205   12    0    1
 -2        17       552       551
 -1       206   12    0    1
 -2       552       554       553
 -1       207   12    0    1
 -2       554        24       555
 -1       208   12    0    1
 -2        17       557       556
 -1       209   12    0    1
 -2       557       559       558
 -1       210   12    0    1
 -2       559       561       560
 -1       211   12    0    1
 -2       561       563       562
 -1       212   12    0    1
 -2       563       565       564
 -1       213   12    0    1
 -2       565       567       566
 -1       214   12    0    1
 -2       567       569       568
 -1       215   12    0    1
 -2       569        25       570
 -1       216   12    0    1
 -2        18       572       571
 -1       217   12    0    1
 -2       572       574       573
 -1       218   12    0    1
 -2       574       576       575
 -1       219   12    0    1
 -2       576       578       577
 -1       220   12    0    1
 -2       578       580       579
 -1       221   12    0    1
 -2       580       582       581
 -1       222   12    0    1
 -2       582       584       583
 -1       223   12    0    1
 -2       584        19       585
 -1       224   12    0    1
 -2        18       587       586
 -1       225   12    0    1
 -2       587       589       588
 -1       226   12    0    1
 -2       589        25       590
 -1       227   12    0    1
 -2        18       592       591
 -1       228   12    0    1
 -2       592       594       593
 -1       229   12    0    1
 -2       594       596       595
 -1       230   12    0    1
 -2       596       598       597
 -1       231   12    0    1
 -2       598       600       599
 -1       232   12    0    1
 -2       600       602       601
 -1       233   12    0    1
 -2       602       604       603
 -1       234   12    0    1
 -2       604        26       605
 -1       235   12    0    1
 -2        19       607       606
 -1       236   12    0    1
 -2       607       609       608
 -1       237   12    0    1
 -2       609       611       610
 -1       238   12    0    1
 -2       611       613       612
 -1       239   12    0    1
 -2       613       615       614
 -1       240   12    0    1
 -2       615       617       616
 -1       241   12    0    1
 -2       617       619       618
 -1       242   12    0    1
 -2       619        20       620
 -1       243   12    0    1
 -2        19       622       621
 -1       244   12    0    1
 -2       622       624       623
 -1       245   12    0    1
 -2       624        26       625
 -1       246   12    0    1
 -2        19       627       626
 -1       247   12    0    1
 -2       627       629       628
 -1       248   12    0    1
 -2       629       631       630
 -1       249   12    0    1
 -2       631       633       632
 -1       250   12    0    1
 -2       633       635       634
 -1       251   12    0    1
 -2       635       637       636
 -1       252   12    0    1
 -2       637       639       638
 -1       253   12    0    1
 -2       639        27       640
 -1       254   12    0    1
 -2        20       642       641
 -1       255   12    0    1
 -2       642       644       643
 -1       256   12    0    1
 -2       644       646       645
 -1       257   12    0    1
 -2       646       648       647
 -1       258   12    0    1
 -2       648       650       649
 -1       259   12    0    1
 -2       650       652       651
 -1       260   12    0    1
 -2       652       654       653
 -1       261   12    0    1
 -2       654        21       655
 -1       262   12    0    1
 -2        20       657       656
 -1       263   12    0    1
 -2       657       659       658
 -1       264   12    0    1
 -2       659        27       660
 -1       265   12    0    1
 -2        20       662       661
 -1       266   12    0    1
 -2       662       664       663
 -1       267   12    0    1
 -2       664       666       665
 -1       268   12    0    1
 -2       666       668       667
 -1       269   12    0    1
 -2       668       670       669
 -1       270   12    0    1
 -2       670       672       671
 -1       271   12    0    1
 -2       672       674       673
 -1       272   12    0    1
 -2       674        28       675
 -1       273   12    0    1
 -2        21       677       676
 -1       274   12    0    1
 -2       677       679       678
 -1       275   12    0    1
 -2       679        28       680
 -1       276   12    0    1
 -2        22       682       681
 -1       277   12    0    1
 -2       682       684       683
 -1       278   12    0    1
 -2       684       686       685
 -1       279   12    0    1
 -2       686       688       687
 -1       280   12    0    1
 -2       688       690       689
 -1       281   12    0    1
 -2       690       692       691
 -1       282   12    0    1
 -2       692       694       693
 -1       283   12    0    1
 -2       694        23       695
 -1       284   12    0    1
 -2        22       697       696
 -1       285   12    0    1
 -2       697       699       698
 -1       286   12    0    1
 -2       699        29       700
 -1       287   12    0    1
 -2        22       702       701
 -1       288   12    0    1
 -2       702       704       703
 -1       289   12    0    1
 -2       704       706       705
 -1       290   12    0    1
 -2       706       708       707
 -1       291   12    0    1
 -2       708       710       709
 -1       292   12    0    1
 -2       710       712       711
 -1       293   12    0    1
 -2       712       714       713
 -1       294   12    0    1
 -2       714        30       715
 -1       295   12    0    1
 -2        23       717       716
 -1       296   12    0    1
 -2       717       719       718
 -1       297   12    0    1
 -2       719       721       720
 -1       298   12    0    1
 -2       721       723       722
 -1       299   12    0    1
 -2       723       725       724
 -1       300   12    0    1
 -2       725       727       726
 -1       301   12    0    1
 -2       727       729       728
 -1       302   12    0    1
 -2       729        24       730
 -1       303   12    0    1
 -2        23       732       731
 -1       304   12    0    1
 -2       732       734       733
 -1       305   12    0    1
 -2       734        30       735
 -1       306   12    0    1
 -2        23       737       736
 -1       307   12    0    1
 -2       737       739       738
 -1       308   12    0    1
 -2       739       741       740
 -1       309   12    0    1
 -2       741       743       742
 -1       310   12    0    1
 -2       743       745       744
 -1       311   12    0    1
 -2       745       747       746
 -1       312   12    0    1
 -2       747       749       748
 -1       313   12    0    1
 -2       749        31       750
 -1       314   12    0    1
 -2        24       752       751
 -1       315   12    0    1
 -2       752       754       753
 -1       316   12    0    1
 -2       754       756       755
 -1       317   12    0    1
 -2       756       758       757
 -1       318   12    0    1
 -2       758       760       759
 -1       319   12    0    1
 -2       760       762       761
 -1       320   12    0    1
 -2       762       764       763
 -1       321   12    0    1
 -2       764        25       765
 -1       322   12    0    1
 -2        24       767       766
 -1       323   12    0    1
 -2       767       769       768
 -1       324   12    0    1
 -2       769        31       770
 -1       325   12    0    1
 -2        24       772       771
 -1       326   12    0    1
 -2       772       774       773
 -1       327   12    0    1
 -2       774       776       775
 -1       328   12    0    1
 -2       776       778       777
 -1       329   12    0    1
 -2       778       780       779
 -1       330   12    0    1
 -2       780       782       781
 -1       331   12    0    1
 -2       782       784       783
 -1       332   12    0    1
 -2       784        32       785
 -1       333   12    0    1
 -2        25       787       786
 -1       334   12    0    1
 -2       787       789       788
 -1       335   12    0    1
 -2       789       791       790
 -1       336   12    0    1
 -2       791       793       792
 -1       337   12    0    1
 -2       793       795       794
 -1       338   12    0    1
 -2       795       797       796
 -1       339   12    0    1
 -2       797       799       798
 -1       340   12    0    1
 -2       799        26       800
 -1       341   12    0    1
 -2        25       802       801
 -1       342   12    0    1
 -2       802       804       803
 -1       343   12    0    1
 -2       804        32       805
 -1       344   12    0    1
 -2        25       807       806
 -1       345   12    0    1
 -2       807       809       808
 -1       346   12    0    1
 -2       809       811       810
 -1       347   12    0    1
 -2       811       813       812
 -1       348   12    0    1
 -2       813       815       814
 -1       349   12    0    1
 -2       815       817       816
 -1       350   12    0    1
 -2       817       819       818
 -1       351   12    0    1
 -2       819        33       820
 -1       352   12    0    1
 -2        26       822       821
 -1       353   12    0    1
 -2       822       824       823
 -1       354   12    0    1
 -2       824       826       825
 -1       355   12    0    1
 -2       826       828       827
 -1       356   12    0    1
 -2       828       830       829
 -1       357   12    0    1
 -2       830       832       831
 -1       358   12    0    1
 -2       832       834       833
 -1       359   12    0    1
 -2       834        27       835
 -1       360   12    0    1
 -2        26       837       836
 -1       361   12    0    1
 -2       837       839       838
 -1       362   12    0    1
 -2       839        33       840
 -1       363   12    0    1
 -2        26       842       841
 -1       364   12    0    1
 -2       842       844       843
 -1       365   12    0    1
 -2       844       846       845
 -1       366   12    0    1
 -2       846       848       847
 -1       367   12    0    1
 -2       848       850       849
 -1       368   12    0    1
 -2       850       852       851
 -1       369   12    0    1
 -2       852       854       853
 -1       370   12    0    1
 -2       854        34       855
 -1       371   12    0    1
 -2        27       857       856
 -1       372   12    0    1
 -2       857       859       858
 -1       373   12    0    1
 -2       859       861       860
 -1       374   12    0    1
 -2       861       863       862
 -1       375   12    0    1
 -2       863       865       864
 -1       376   12    0    1
 -2       865       867       866
 -1       377   12    0    1
 -2       867       869       868
 -1       378   12    0    1
 -2       869        28       870
 -1       379   12    0    1
 -2        27       872       871
 -1       380   12    0    1
 -2       872       874       873
 -1       381   12    0    1
 -2       874        34       875
 -1       382   12    0    1
 -2        27       877       876
 -1       383   12    0    1
 -2       877       879       878
 -1       384   12    0    1
 -2       879       881       880
 -1       385   12    0    1
 -2       881       883       882
 -1       386   12    0    1
 -2       883       885       884
 -1       387   12    0    1
 -2       885       887       886
 -1       388   12    0    1
 -2       887       889       888
 -1       389   12    0    1
 -2       889        35       890
 -1       390   12    0    1
 -2        28       892       891
 -1       391   12    0    1
 -2       892       894       893
 -1       392   12    0    1
 -2       894        35       895
 -1       393   12    0    1
 -2        29       897       896
 -1       394   12    0    1
 -2       897       899       898
 -1       395   12    0    1
 -2       899       901       900
 -1       396   12    0    1
 -2       901       903       902
 -1       397   12    0    1
 -2       903       905       904
 -1       398   12    0    1
 -2       905       907       906
 -1       399   12    0    1
 -2       907       909       908
 -1       400   12    0    1
 -2       909        30       910
 -1       401   12    0    1
 -2        30       912       911
 -1       402   12    0    1
 -2       912       914       913
 -1       403   12    0    1
 -2       914       916       915
 -1       404   12    0    1
 -2       916       918       917
 -1       405   12    0    1
 -2       918       920       919
 -1       406   12    0    1
 -2       920       922       921
 -1       407   12    0    1
 -2       922       924       923
 -1       408   12    0    1
 -2       924        31       925
 -1       409   12    0    1
 -2        31       927       926
 -1       410   12    0    1
 -2       927       929       928
 -1       411   12    0    1
 -2       929       931       930
 -1       412   12    0    1
 -2       931       933       932
 -1       413   12    0    1
 -2       933       935       934
 -1       414   12    0    1
 -2       935       937       936
 -1       415   12    0    1
 -2       937       939       938
 -1       416   12    0    1
 -2       939        32       940
 -1       417   12    0    1
 -2        32       942       941
 -1       418   12    0    1
 -2       942       944       943
 -1       419   12    0    1
 -2       944       946       945
 -1       420   12    0    1
 -2       946       948       947
 -1       421   12    0    1
 -2       948       950       949
 -1       422   12    0    1
 -2       950       952       951
 -1       423   12    0    1
 -2       952       954       953
 -1       424   12    0    1
 -2       954        33       955
 -1       425   12    0    1
 -2        33       957       956
 -1       426   12    0    1
 -2       957       959       958
 -1       427   12    0    1
 -2       959       961       960
 -1       428   12    0    1
 -2       961       963       962
 -1       429   12    0    1
 -2       963       965       964
 -1       430   12    0    1
 -2       965       967       966
 -1       431   12    0    1
 -2       967       969       968
 -1       432   12    0    1
 -2       969        34       970
 -1       433   12    0    1
 -2        34       972       971
 -1       434   12    0    1
 -2       972       974       973
 -1       435   12    0    1
 -2       974       976       975
 -1       436   12    0    1
 -2       976       978       977
 -1       437   12    0    1
 -2       978       980       979
 -1       438   12    0    1
 -2       980       982       981
 -1       439   12    0    1
 -2       982       984       983
 -1       440   12    0    1
 -2       984        35       985
 -3
    1PSTEP                         1           1           1          
  100CL  101 1.000000000         841                     0    1           1
 -4  DISP        4    1
 -5  D1          1    2    1    0
 -5  D2          1    2    2    0
 -5  D3          1    2    3    0
 -5  ALL         1    2    0    0    1ALL
 -1         1 5.56252E-05 0.00000E+00 0.00000E+00
 -1         2 4.51593E-05 0.00000E+00 0.00000E+00
 -1         3 4.18239E-05 0.00000E+00 0.00000E+00
 -1         4 4.13428E-05 0.00000E+00 0.00000E+00
 -1         5 4.12418E-05 0.00000E+00 0.00000E+00
 -1         8 3.41427E-05-1.60227E-06 0.00000E+00
 -1         9 3.75790E-05 1.08396E-06 0.00000E+00
 -1        10 3.77730E-05 9.08519E-08 0.00000E+00
 -1        11 3.89831E-05 1.11927E-07 0.00000E+00
 -1        12 3.99316E-05 3.47429E-06 0.00000E+00
 -1        15 1.82963E-05-1.85081E-06 0.00000E+00
 -1        16 2.29073E-05 1.39276E-06 0.00000E+00
 -1        17 2.64227E-05 1.64505E-07 0.00000E+00
 -1        18 3.05045E-05 6.60462E-08 0.00000E+00
 -1        19 3.50329E-05 6.91009E-06 0.00000E+00
 -1        20 3.66616E-05 6.24965E-05 0.00000E+00
 -1        21 3.66262E-05 1.18880E-04 0.00000E+00
 -1        22 8.56322E-06-1.17837E-06 0.00000E+00
 -1        23 1.10207E-05 1.75305E-06 0.00000E+00
 -1        24 1.30210E-05 1.87808E-07 0.00000E+00
 -1        25 1.72633E-05 1.15785E-07 0.00000E+00
 -1        26 2.09029E-05 9.26274E-06 0.00000E+00
 -1        27 1.83822E-05 6.18564E-05 0.00000E+00
 -1        28 1.72910E-05 1.18300E-04 0.00000E+00
 -1        29 0.00000E+00 0.00000E+00 0.00000E+00
 -1        30 4.28024E-06 2.15876E-06 0.00000E+00
 -1        31 5.18348E-06 8.61887E-07 0.00000E+00
 -1        32 0.00000E+00 0.00000E+00 0.00000E+00
 -1        33 5.01446E-06 1.06993E-05 0.00000E+00
 -1        34 1.74676E-06 6.16603E-05 0.00000E+00
 -1        35-5.59560E-07 1.17962E-04 0.00000E+00
 -1        36 5.49718E-05 4.19546E-21 0.00000E+00
 -1        37 5.43161E-05 5.69762E-21 0.00000E+00
 -1        38 5.36601E-05 6.79612E-21 0.00000E+00
 -1        39 5.30039E-05 9.84014E-21 0.00000E+00
 -1        40 5.23476E-05 9.15854E-21-2.64698E-23
 -1        41 5.16913E-05 7.92108E-21 0.00000E+00
 -1        42 5.10349E-05 1.36187E-20 2.64698E-23
 -1        43 5.03786E-05 1.44128E-20-1.32349E-23
 -1        44 4.97223E-05 1.22357E-20-2.64698E-23
 -1        45 4.90660E-05 1.49223E-20 0.00000E+00
 -1        46 4.84100E-05 1.74568E-20 2.64698E-23
 -1        47 4.77543E-05 1.44062E-20 0.00000E+00
 -1        48 4.70991E-05 1.28378E-20 0.00000E+00
 -1        49 4.64459E-05 8.64900E-21 6.61744E-24
 -1        50 4.57942E-05 2.36905E-21 1.32349E-23
 -1        51 5.40757E-05-2.79871E-07-4.13590E-24
 -1        52 5.10940E-05-5.46093E-07 3.72231E-24
 -1        53 4.71411E-05-8.12477E-07 0.00000E+00
 -1        54 4.26861E-05-1.07831E-06 0.00000E+00
 -1        55 3.81981E-05-1.34317E-06-1.32349E-23
 -1        56 5.46759E-05-3.63756E-07 2.64698E-23
 -1        57 5.37057E-05-7.21587E-07 0.00000E+00
 -1        58 5.27261E-05-1.05751E-06-2.64698E-23
 -1        59 5.17325E-05-1.36158E-06 1.32349E-23
 -1        60 5.07225E-05-1.62314E-06-2.64698E-23
 -1        61 4.96924E-05-1.83212E-06 0.00000E+00
 -1        62 4.86386E-05-1.97854E-06-2.64698E-23
 -1        63 4.75577E-05-2.05263E-06 0.00000E+00
 -1        64 4.64461E-05-2.04478E-06 0.00000E+00
 -1        65 4.53003E-05-1.94559E-06-1.32349E-23
 -1        66 4.41171E-05-1.74582E-06-2.64698E-23
 -1        67 4.28933E-05-1.43644E-06 1.32349E-23
 -1        68 4.16263E-05-1.00862E-06 0.00000E+00
 -1        69 4.03155E-05-4.52998E-07 0.00000E+00
 -1        70 3.89564E-05 2.38035E-07 1.32349E-23
 -1        71 4.49471E-05-8.33798E-22 6.61744E-24
 -1        72 4.47376E-05 5.74063E-22-3.30872E-24
 -1        73 4.45284E-05-2.40213E-21-6.61744E-24
 -1        74 4.43194E-05-7.00457E-21 0.00000E+00
 -1        75 4.41106E-05-1.14780E-20 0.00000E+00
 -1        76 4.39018E-05-1.14862E-20 0.00000E+00
 -1        77 4.36930E-05-1.03728E-20-6.61744E-24
 -1        78 4.34843E-05-1.23134E-20 3.30872E-24
 -1        79 4.32756E-05-1.22770E-20 0.00000E+00
 -1        80 4.30669E-05-1.26145E-20 3.30872E-24
 -1        81 4.28583E-05-1.55973E-20-6.61744E-24
 -1        82 4.26497E-05-1.71061E-20 0.00000E+00
 -1        83 4.24414E-05-1.32200E-20 0.00000E+00
 -1        84 4.22336E-05-7.86980E-21-3.30872E-24
 -1        85 4.20262E-05-4.53295E-21 0.00000E+00
 -1        86 4.46848E-05 1.66470E-07 0.00000E+00
 -1        87 4.36896E-05 3.52604E-07 0.00000E+00
 -1        88 4.23266E-05 5.39624E-07 0.00000E+00
 -1        89 4.07507E-05 7.26837E-07 0.00000E+00
 -1        90 3.91168E-05 9.13267E-07 0.00000E+00
 -1        91 4.47693E-05-1.69412E-07 0.00000E+00
 -1        92 4.43803E-05-3.59287E-07 6.61744E-24
 -1        93 4.39944E-05-5.58620E-07 0.00000E+00
 -1        94 4.36079E-05-7.58458E-07 0.00000E+00
 -1        95 4.32180E-05-9.49594E-07 0.00000E+00
 -1        96 4.28212E-05-1.12298E-06 0.00000E+00
 -1        97 4.24144E-05-1.26957E-06 1.32349E-23
 -1        98 4.19942E-05-1.38039E-06 0.00000E+00
 -1        99 4.15572E-05-1.44648E-06-1.32349E-23
 -1       100 4.11001E-05-1.45894E-06 0.00000E+00
 -1       101 4.06197E-05-1.40888E-06-1.32349E-23
 -1       102 4.01128E-05-1.28748E-06 6.61744E-24
 -1       103 3.95762E-05-1.08597E-06 0.00000E+00
 -1       104 3.90078E-05-7.95361E-07-6.61744E-24
 -1       105 3.84037E-05-4.07275E-07 0.00000E+00
 -1       106 4.17904E-05 3.45803E-21-1.65436E-24
 -1       107 4.17598E-05 4.35242E-21 0.00000E+00
 -1       108 4.17294E-05 2.04934E-22 8.27181E-25
 -1       109 4.16994E-05-4.34104E-21 0.00000E+00
 -1       110 4.16694E-05-4.73416E-21 8.27181E-25
 -1       111 4.16395E-05-6.79570E-21 0.00000E+00
 -1       112 4.16096E-05-4.46740E-21 0.00000E+00
 -1       113 4.15797E-05-6.89476E-21-4.13590E-25
 -1       114 4.15499E-05-4.23723E-21 8.27181E-25
 -1       115 4.15200E-05-3.70928E-21 0.00000E+00
 -1       116 4.14902E-05-2.38538E-21 0.00000E+00
 -1       117 4.14604E-05-4.10013E-21-4.13590E-25
 -1       118 4.14306E-05-1.58777E-21 0.00000E+00
 -1       119 4.14009E-05-9.55600E-22 0.00000E+00
 -1       120 4.13713E-05 6.46028E-22 0.00000E+00
 -1       121 4.15759E-05 1.22672E-08 4.13590E-25
 -1       122 4.10516E-05 2.92657E-08 0.00000E+00
 -1       123 4.03296E-05 4.63974E-08 0.00000E+00
 -1       124 3.94894E-05 6.33528E-08 1.03398E-25
 -1       125 3.86108E-05 7.99450E-08 0.00000E+00
 -1       126 4.16826E-05-8.25362E-08 3.30872E-24
 -1       127 4.15497E-05-1.95657E-07 0.00000E+00
 -1       128 4.14244E-05-3.29607E-07-3.30872E-24
 -1       129 4.13033E-05-4.75468E-07 0.00000E+00
 -1       130 4.11831E-05-6.24204E-07-3.30872E-24
 -1       131 4.10607E-05-7.66840E-07 1.65436E-24
 -1       132 4.09325E-05-8.94410E-07 3.30872E-24
 -1       133 4.07953E-05-9.97957E-07 1.65436E-24
 -1       134 4.06458E-05-1.06853E-06-3.30872E-24
 -1       135 4.04806E-05-1.09720E-06-1.65436E-24
 -1       136 4.02963E-05-1.07504E-06 0.00000E+00
 -1       137 4.00898E-05-9.93122E-07 1.65436E-24
 -1       138 3.98578E-05-8.42558E-07 0.00000E+00
 -1       139 3.95973E-05-6.14334E-07 0.00000E+00
 -1       140 3.93049E-05-2.99714E-07 3.30872E-24
 -1       141 4.13348E-05-5.57158E-22 2.06795E-25
 -1       142 4.13269E-05-1.45170E-21 0.00000E+00
 -1       143 4.13189E-05 3.58443E-21 0.00000E+00
 -1       144 4.13109E-05 4.39538E-21 0.00000E+00
 -1       145 4.13029E-05 3.93019E-21 0.00000E+00
 -1       146 4.12949E-05 2.16789E-21-1.03398E-25
 -1       147 4.12869E-05 4.01870E-21 2.06795E-25
 -1       148 4.12790E-05 4.74879E-21-1.03398E-25
 -1       149 4.12710E-05 8.07701E-21 0.00000E+00
 -1       150 4.12632E-05 1.48558E-20 5.16988E-26
 -1       151 4.12554E-05 1.51681E-20 0.00000E+00
 -1       152 4.12480E-05 1.17975E-20 0.00000E+00
 -1       153 4.12411E-05 9.59271E-21 0.00000E+00
 -1       154 4.12358E-05 6.60643E-21-8.27181E-25
 -1       155 4.12317E-05 1.78692E-21-3.30872E-24
 -1       156 4.12222E-05 1.80562E-08 0.00000E+00
 -1       157 4.09497E-05 3.71999E-08 0.00000E+00
 -1       158 4.05571E-05 5.63592E-08 0.00000E+00
 -1       159 4.00769E-05 7.54472E-08-8.27181E-25
 -1       160 3.95415E-05 9.44214E-08 0.00000E+00
 -1       161 4.13274E-05 1.82628E-08-1.22785E-25
 -1       162 4.12981E-05 7.32334E-08 8.40105E-26
 -1       163 4.12559E-05 1.62822E-07 9.04729E-26
 -1       164 4.12016E-05 2.84796E-07-9.04729E-26
 -1       165 4.11359E-05 4.36937E-07 5.16988E-26
 -1       166 4.10597E-05 6.17020E-07 7.75482E-26
 -1       167 4.09739E-05 8.22819E-07-2.06795E-25
 -1       168 4.08793E-05 1.05211E-06-7.75482E-26
 -1       169 4.07768E-05 1.30267E-06 0.00000E+00
 -1       170 4.06671E-05 1.57228E-06 1.93870E-26
 -1       171 4.05513E-05 1.85873E-06 0.00000E+00
 -1       172 4.04303E-05 2.15986E-06 0.00000E+00
 -1       173 4.03050E-05 2.47349E-06 0.00000E+00
 -1       174 4.01776E-05 2.79784E-06 0.00000E+00
 -1       175 4.00482E-05 3.13046E-06-3.30872E-24
 -1       191 4.11830E-05 5.70815E-07-1.32349E-23
 -1       192 4.10461E-05 1.15324E-06-6.61744E-24
 -1       193 4.08416E-05 1.73672E-06 1.32349E-23
 -1       194 4.05805E-05 2.32026E-06-6.61744E-24
 -1       195 4.02735E-05 2.90280E-06-1.32349E-23
 -1       251 3.43371E-05 9.15415E-07 0.00000E+00
 -1       252 3.45500E-05 2.70904E-06-1.24077E-24
 -1       253 3.47654E-05 3.86529E-06 8.27181E-25
 -1       254 3.49832E-05 4.47302E-06 0.00000E+00
 -1       255 3.52018E-05 4.62071E-06 3.30872E-24
 -1       256 3.54208E-05 4.39673E-06 0.00000E+00
 -1       257 3.56399E-05 3.88929E-06-6.61744E-24
 -1       258 3.58589E-05 3.18645E-06 0.00000E+00
 -1       259 3.60779E-05 2.37618E-06 6.61744E-24
 -1       260 3.62969E-05 1.54642E-06 0.00000E+00
 -1       261 3.65157E-05 7.85083E-07 0.00000E+00
 -1       262 3.67342E-05 1.80105E-07 0.00000E+00
 -1       263 3.69522E-05-1.80491E-07-6.61744E-24
 -1       264 3.71682E-05-2.08644E-07 0.00000E+00
 -1       265 3.73826E-05 1.83947E-07 0.00000E+00
 -1       266 3.10280E-05-1.65085E-06 0.00000E+00
 -1       267 2.79679E-05-1.69362E-06 0.00000E+00
 -1       268 2.50636E-05-1.73539E-06 0.00000E+00
 -1       269 2.24163E-05-1.77565E-06 1.65436E-24
 -1       270 2.01274E-05-1.81474E-06 0.00000E+00
 -1       271 3.26368E-05 7.71351E-07 1.32349E-23
 -1       272 3.13625E-05 2.47945E-06 0.00000E+00
 -1       273 3.03070E-05 3.60325E-06 0.00000E+00
 -1       274 2.94398E-05 4.22103E-06 0.00000E+00
 -1       275 2.87323E-05 4.41222E-06 2.64698E-23
 -1       276 2.81546E-05 4.25665E-06-6.61744E-24
 -1       277 2.76768E-05 3.83458E-06 0.00000E+00
 -1       278 2.72685E-05 3.22668E-06 0.00000E+00
 -1       279 2.68996E-05 2.51381E-06 0.00000E+00
 -1       280 2.65396E-05 1.77704E-06 0.00000E+00
 -1       281 2.61585E-05 1.09748E-06-1.32349E-23
 -1       282 2.57260E-05 5.56159E-07-6.61744E-24
 -1       283 2.52120E-05 2.33980E-07 0.00000E+00
 -1       284 2.45880E-05 2.11916E-07-6.61744E-24
 -1       285 2.38230E-05 5.69799E-07 0.00000E+00
 -1       286 3.75814E-05 2.11256E-06-3.30872E-24
 -1       287 3.75927E-05 2.77678E-06 0.00000E+00
 -1       288 3.76049E-05 3.12250E-06 0.00000E+00
 -1       289 3.76182E-05 3.19694E-06 0.00000E+00
 -1       290 3.76317E-05 3.04720E-06 0.00000E+00
 -1       291 3.76454E-05 2.72046E-06 0.00000E+00
 -1       292 3.76592E-05 2.26387E-06-4.13590E-25
 -1       293 3.76730E-05 1.72458E-06 1.03398E-25
 -1       294 3.76867E-05 1.14976E-06-4.13590E-25
 -1       295 3.77004E-05 5.86562E-07-8.27181E-25
 -1       296 3.77141E-05 8.21325E-08 0.00000E+00
 -1       297 3.77278E-05-3.16368E-07 0.00000E+00
 -1       298 3.77412E-05-5.61779E-07 0.00000E+00
 -1       299 3.77541E-05-6.06992E-07 0.00000E+00
 -1       300 3.77664E-05-4.04817E-07-4.13590E-25
 -1       301 3.55879E-05 1.12760E-06 1.65436E-24
 -1       302 3.30771E-05 1.18084E-06 0.00000E+00
 -1       303 3.02988E-05 1.23465E-06 0.00000E+00
 -1       304 2.75081E-05 1.28894E-06 0.00000E+00
 -1       305 2.49602E-05 1.34334E-06 0.00000E+00
 -1       306 3.65742E-05 1.90607E-06 0.00000E+00
 -1       307 3.56753E-05 2.38596E-06 0.00000E+00
 -1       308 3.48839E-05 2.57550E-06 2.64698E-23
 -1       309 3.41816E-05 2.52108E-06-1.32349E-23
 -1       310 3.35523E-05 2.27015E-06 0.00000E+00
 -1       311 3.29786E-05 1.87013E-06-2.64698E-23
 -1       312 3.24428E-05 1.36860E-06-2.64698E-23
 -1       313 3.19270E-05 8.13275E-07-1.32349E-23
 -1       314 3.14135E-05 2.51970E-07 2.64698E-23
 -1       315 3.08844E-05-2.67503E-07 0.00000E+00
 -1       316 3.03219E-05-6.97397E-07 1.32349E-23
 -1       317 2.97084E-05-9.90061E-07-6.61744E-24
 -1       318 2.90264E-05-1.09802E-06-1.32349E-23
 -1       319 2.82600E-05-9.73638E-07 0.00000E+00
 -1       320 2.73907E-05-5.70471E-07-1.32349E-23
 -1       321 3.78392E-05 6.58509E-07 0.00000E+00
 -1       322 3.79140E-05 1.02279E-06-2.06795E-25
 -1       323 3.79895E-05 1.21056E-06-4.13590E-25
 -1       324 3.80660E-05 1.24942E-06 0.00000E+00
 -1       325 3.81428E-05 1.16687E-06 0.00000E+00
 -1       326 3.82198E-05 9.90438E-07-8.27181E-25
 -1       327 3.82968E-05 7.47630E-07-1.65436E-24
 -1       328 3.83739E-05 4.65945E-07 0.00000E+00
 -1       329 3.84509E-05 1.72879E-07-3.30872E-24
 -1       330 3.85280E-05-1.04083E-07 0.00000E+00
 -1       331 3.86050E-05-3.37445E-07 0.00000E+00
 -1       332 3.86820E-05-4.99707E-07 0.00000E+00
 -1       333 3.87588E-05-5.63360E-07 0.00000E+00
 -1       334 3.88352E-05-5.00905E-07 0.00000E+00
 -1       335 3.89112E-05-2.84785E-07-1.65436E-24
 -1       336 3.64688E-05 1.00025E-07-1.65436E-24
 -1       337 3.46183E-05 1.14209E-07 0.00000E+00
 -1       338 3.24540E-05 1.28210E-07 2.06795E-25
 -1       339 3.02105E-05 1.42061E-07 0.00000E+00
 -1       340 2.81224E-05 1.55865E-07 0.00000E+00
 -1       341 3.71752E-05 5.09686E-07 0.00000E+00
 -1       342 3.66425E-05 7.16747E-07 0.00000E+00
 -1       343 3.61747E-05 7.48012E-07 1.32349E-23
 -1       344 3.57592E-05 6.35823E-07 6.61744E-24
 -1       345 3.53848E-05 4.13135E-07 0.00000E+00
 -1       346 3.50392E-05 1.12756E-07 6.61744E-24
 -1       347 3.47103E-05-2.32453E-07 0.00000E+00
 -1       348 3.43858E-05-5.89602E-07 0.00000E+00
 -1       349 3.40535E-05-9.25790E-07 0.00000E+00
 -1       350 3.37011E-05-1.20815E-06 6.61744E-24
 -1       351 3.33163E-05-1.40385E-06 1.32349E-23
 -1       352 3.28871E-05-1.48012E-06 0.00000E+00
 -1       353 3.24013E-05-1.40428E-06 0.00000E+00
 -1       354 3.18481E-05-1.14349E-06 0.00000E+00
 -1       355 3.12147E-05-6.65664E-07 0.00000E+00
 -1       356 3.90372E-05 5.82666E-07-2.06795E-25
 -1       357 3.90946E-05 9.72448E-07 4.13590E-25
 -1       358 3.91522E-05 1.29097E-06-1.65436E-24
 -1       359 3.92102E-05 1.54821E-06-8.27181E-25
 -1       360 3.92683E-05 1.75410E-06 0.00000E+00
 -1       361 3.93266E-05 1.91859E-06 0.00000E+00
 -1       362 3.93848E-05 2.05165E-06 0.00000E+00
 -1       363 3.94431E-05 2.16320E-06-8.27181E-25
 -1       364 3.95014E-05 2.26320E-06-1.65436E-24
 -1       365 3.95598E-05 2.36157E-06 8.27181E-25
 -1       366 3.96183E-05 2.46826E-06 0.00000E+00
 -1       367 3.96771E-05 2.59322E-06 0.00000E+00
 -1       368 3.97362E-05 2.74638E-06 0.00000E+00
 -1       369 3.97967E-05 2.93767E-06-1.65436E-24
 -1       370 3.98582E-05 3.17706E-06 6.61744E-24
 -1       371 3.80440E-05 1.04710E-07 0.00000E+00
 -1       372 3.67079E-05 9.74832E-08 0.00000E+00
 -1       373 3.51296E-05 8.99727E-08 0.00000E+00
 -1       374 3.34655E-05 8.22641E-08 8.27181E-25
 -1       375 3.18721E-05 7.45641E-08-1.65436E-24
 -1       376 3.87537E-05 4.95324E-07 0.00000E+00
 -1       377 3.85762E-05 7.31820E-07 0.00000E+00
 -1       378 3.84412E-05 8.54389E-07 0.00000E+00
 -1       379 3.83364E-05 8.95569E-07 1.65436E-24
 -1       380 3.82498E-05 8.87993E-07 0.00000E+00
 -1       381 3.81692E-05 8.64261E-07 0.00000E+00
 -1       382 3.80825E-05 8.56975E-07 3.30872E-24
 -1       383 3.79773E-05 8.98728E-07-8.27181E-25
 -1       384 3.78415E-05 1.02210E-06-1.65436E-24
 -1       385 3.76630E-05 1.25967E-06 0.00000E+00
 -1       386 3.74294E-05 1.64398E-06 1.65436E-24
 -1       387 3.71289E-05 2.20760E-06 8.27181E-25
 -1       388 3.67492E-05 2.98303E-06-1.65436E-24
 -1       389 3.62794E-05 4.00308E-06 0.00000E+00
 -1       390 3.57066E-05 5.29994E-06 0.00000E+00
 -1       406 3.96350E-05 4.04073E-06 1.32349E-23
 -1       407 3.92105E-05 4.61785E-06 0.00000E+00
 -1       408 3.85981E-05 5.19573E-06 0.00000E+00
 -1       409 3.77376E-05 5.77308E-06 0.00000E+00
 -1       410 3.65688E-05 6.34874E-06-1.32349E-23
 -1       466 1.85714E-05-6.54113E-07 0.00000E+00
 -1       467 1.88594E-05 1.59369E-07 1.65436E-24
 -1       468 1.91486E-05 6.42699E-07-6.61744E-24
 -1       469 1.94394E-05 8.50046E-07-3.30872E-24
 -1       470 1.97306E-05 8.35373E-07 0.00000E+00
 -1       471 2.00221E-05 6.52533E-07-3.30872E-24
 -1       472 2.03137E-05 3.55298E-07 6.61744E-24
 -1       473 2.06053E-05-2.64192E-09 0.00000E+00
 -1       474 2.08969E-05-3.67637E-07-6.61744E-24
 -1       475 2.11884E-05-6.86033E-07 0.00000E+00
 -1       476 2.14799E-05-9.04154E-07 0.00000E+00
 -1       477 2.17709E-05-9.68256E-07 0.00000E+00
 -1       478 2.20614E-05-8.24511E-07-1.32349E-23
 -1       479 2.23500E-05-4.19002E-07 0.00000E+00
 -1       480 2.26370E-05 3.02409E-07 0.00000E+00
 -1       481 1.66720E-05-1.74269E-06 0.00000E+00
 -1       482 1.49437E-05-1.63011E-06 0.00000E+00
 -1       483 1.31897E-05-1.51723E-06-3.30872E-24
 -1       484 1.14892E-05-1.40395E-06-8.27181E-25
 -1       485 9.92096E-06-1.29046E-06 1.65436E-24
 -1       486 1.75085E-05-6.92706E-07 6.61744E-24
 -1       487 1.68148E-05 1.70124E-07 0.00000E+00
 -1       488 1.62162E-05 7.77181E-07-1.32349E-23
 -1       489 1.56985E-05 1.16383E-06 0.00000E+00
 -1       490 1.52496E-05 1.36615E-06-1.32349E-23
 -1       491 1.48560E-05 1.42011E-06-6.61744E-24
 -1       492 1.45045E-05 1.36175E-06-1.32349E-23
 -1       493 1.41815E-05 1.22718E-06-6.61744E-24
 -1       494 1.38735E-05 1.05257E-06 0.00000E+00
 -1       495 1.35670E-05 8.74136E-07-6.61744E-24
 -1       496 1.32484E-05 7.28080E-07 6.61744E-24
 -1       497 1.29044E-05 6.50614E-07 3.30872E-24
 -1       498 1.25214E-05 6.77907E-07 0.00000E+00
 -1       499 1.20871E-05 8.46303E-07-3.30872E-24
 -1       500 1.15874E-05 1.19156E-06 0.00000E+00
 -1       501 2.31130E-05 2.44413E-06 8.27181E-25
 -1       502 2.33323E-05 3.06564E-06 8.27181E-25
 -1       503 2.35530E-05 3.31630E-06 0.00000E+00
 -1       504 2.37752E-05 3.25646E-06-1.65436E-24
 -1       505 2.39978E-05 2.94629E-06-6.61744E-24
 -1       506 2.42207E-05 2.44583E-06-3.30872E-24
 -1       507 2.44436E-05 1.81510E-06 0.00000E+00
 -1       508 2.46665E-05 1.11402E-06 0.00000E+00
 -1       509 2.48894E-05 4.02476E-07 6.61744E-24
 -1       510 2.51123E-05-2.59622E-07-3.30872E-24
 -1       511 2.53351E-05-8.12381E-07 0.00000E+00
 -1       512 2.55576E-05-1.19582E-06 0.00000E+00
 -1       513 2.57797E-05-1.34990E-06 0.00000E+00
 -1       514 2.60001E-05-1.21453E-06-3.30872E-24
 -1       515 2.62190E-05-7.29404E-07 0.00000E+00
 -1       516 2.10760E-05 1.44841E-06 0.00000E+00
 -1       517 1.88915E-05 1.50967E-06 0.00000E+00
 -1       518 1.65730E-05 1.57109E-06-4.13590E-25
 -1       519 1.43414E-05 1.63284E-06-4.13590E-25
 -1       520 1.24178E-05 1.69490E-06 0.00000E+00
 -1       521 2.19439E-05 2.30536E-06 2.64698E-23
 -1       522 2.10906E-05 2.85946E-06 0.00000E+00
 -1       523 2.03504E-05 3.10779E-06 1.32349E-23
 -1       524 1.97048E-05 3.09699E-06-6.61744E-24
 -1       525 1.91378E-05 2.87486E-06-1.32349E-23
 -1       526 1.86318E-05 2.48905E-06 0.00000E+00
 -1       527 1.81689E-05 1.98744E-06 1.32349E-23
 -1       528 1.77314E-05 1.41801E-06 0.00000E+00
 -1       529 1.73013E-05 8.28835E-07-1.32349E-23
 -1       530 1.68606E-05 2.68031E-07 0.00000E+00
 -1       531 1.63914E-05-2.16340E-07-1.32349E-23
 -1       532 1.58760E-05-5.76276E-07 0.00000E+00
 -1       533 1.52966E-05-7.63928E-07 1.32349E-23
 -1       534 1.46368E-05-7.31326E-07 0.00000E+00
 -1       535 1.38782E-05-4.31479E-07-1.32349E-23
 -1       536 2.66599E-05 1.09784E-06 8.27181E-25
 -1       537 2.69139E-05 1.67347E-06 1.65436E-24
 -1       538 2.71694E-05 1.94054E-06-6.61744E-24
 -1       539 2.74268E-05 1.94927E-06 0.00000E+00
 -1       540 2.76848E-05 1.74970E-06 0.00000E+00
 -1       541 2.79431E-05 1.39178E-06-3.30872E-24
 -1       542 2.82015E-05 9.25383E-07 0.00000E+00
 -1       543 2.84600E-05 4.00318E-07-3.30872E-24
 -1       544 2.87185E-05-1.33624E-07-6.61744E-24
 -1       545 2.89769E-05-6.26676E-07 0.00000E+00
 -1       546 2.92353E-05-1.02904E-06 0.00000E+00
 -1       547 2.94934E-05-1.29085E-06 0.00000E+00
 -1       548 2.97511E-05-1.36221E-06 6.61744E-24
 -1       549 3.00074E-05-1.19312E-06 3.30872E-24
 -1       550 3.02624E-05-7.33415E-07 6.61744E-24
 -1       551 2.45495E-05 1.65552E-07 0.00000E+00
 -1       552 2.21968E-05 1.71291E-07 0.00000E+00
 -1       553 1.96147E-05 1.77057E-07 0.00000E+00
 -1       554 1.70565E-05 1.82733E-07 0.00000E+00
 -1       555 1.47752E-05 1.88249E-07 0.00000E+00
 -1       556 2.55876E-05 9.15457E-07-1.32349E-23
 -1       557 2.48615E-05 1.32366E-06 6.61744E-24
 -1       558 2.42416E-05 1.44380E-06 0.00000E+00
 -1       559 2.37087E-05 1.32668E-06 0.00000E+00
 -1       560 2.32450E-05 1.02370E-06 0.00000E+00
 -1       561 2.28313E-05 5.86140E-07 0.00000E+00
 -1       562 2.24487E-05 6.53841E-08-1.32349E-23
 -1       563 2.20779E-05-4.87129E-07 6.61744E-24
 -1       564 2.16998E-05-1.01994E-06 0.00000E+00
 -1       565 2.12950E-05-1.48162E-06 0.00000E+00
 -1       566 2.08445E-05-1.82078E-06-1.32349E-23
 -1       567 2.03292E-05-1.98614E-06 6.61744E-24
 -1       568 1.97300E-05-1.92652E-06 0.00000E+00
 -1       569 1.90292E-05-1.59071E-06 3.30872E-24
 -1       570 1.82077E-05-9.28114E-07-6.61744E-24
 -1       571 3.07710E-05 8.96353E-07 1.65436E-24
 -1       572 3.10516E-05 1.46788E-06 3.30872E-24
 -1       573 3.13340E-05 1.82375E-06-6.61744E-24
 -1       574 3.16180E-05 2.00818E-06 0.00000E+00
 -1       575 3.19025E-05 2.06529E-06 6.61744E-24
 -1       576 3.21874E-05 2.03921E-06-3.30872E-24
 -1       577 3.24723E-05 1.97405E-06-6.61744E-24
 -1       578 3.27574E-05 1.91389E-06 0.00000E+00
 -1       579 3.30424E-05 1.90282E-06 0.00000E+00
 -1       580 3.33275E-05 1.98495E-06 0.00000E+00
 -1       581 3.36125E-05 2.20442E-06 0.00000E+00
 -1       582 3.38974E-05 2.60545E-06 0.00000E+00
 -1       583 3.41822E-05 3.23233E-06 0.00000E+00
 -1       584 3.44666E-05 4.12933E-06 0.00000E+00
 -1       585 3.47505E-05 5.34093E-06 1.32349E-23
 -1       586 2.88389E-05 7.47851E-08 0.00000E+00
 -1       587 2.66761E-05 8.46432E-08 0.00000E+00
 -1       588 2.42254E-05 9.40523E-08 0.00000E+00
 -1       589 2.16986E-05 1.02970E-07 0.00000E+00
 -1       590 1.93080E-05 1.11587E-07 0.00000E+00
 -1       591 2.98566E-05 8.10247E-07 0.00000E+00
 -1       592 2.92755E-05 1.33498E-06 0.00000E+00
 -1       593 2.87585E-05 1.68509E-06 0.00000E+00
 -1       594 2.82898E-05 1.90197E-06 6.61744E-24
 -1       595 2.78550E-05 2.02742E-06 0.00000E+00
 -1       596 2.74386E-05 2.10306E-06-6.61744E-24
 -1       597 2.70252E-05 2.17052E-06-1.32349E-23
 -1       598 2.65992E-05 2.27140E-06 0.00000E+00
 -1       599 2.61451E-05 2.44729E-06-6.61744E-24
 -1       600 2.56472E-05 2.73972E-06-3.30872E-24
 -1       601 2.50902E-05 3.19017E-06 0.00000E+00
 -1       602 2.44586E-05 3.84002E-06-3.30872E-24
 -1       603 2.37370E-05 4.73058E-06-6.61744E-24
 -1       604 2.29114E-05 5.90327E-06 1.65436E-24
 -1       605 2.19662E-05 7.39899E-06 0.00000E+00
 -1       606 3.51470E-05 8.97336E-06 0.00000E+00
 -1       607 3.52535E-05 1.13854E-05 6.61744E-24
 -1       608 3.53585E-05 1.41129E-05 0.00000E+00
 -1       609 3.54620E-05 1.71211E-05 0.00000E+00
 -1       610 3.55645E-05 2.03754E-05 0.00000E+00
 -1       611 3.56662E-05 2.38410E-05 0.00000E+00
 -1       612 3.57673E-05 2.74831E-05-6.61744E-24
 -1       613 3.58678E-05 3.12673E-05 0.00000E+00
 -1       614 3.59679E-05 3.51588E-05 0.00000E+00
 -1       615 3.60677E-05 3.91229E-05 1.65436E-24
 -1       616 3.61674E-05 4.31251E-05-3.30872E-24
 -1       617 3.62669E-05 4.71307E-05-1.65436E-24
 -1       618 3.63665E-05 5.11052E-05-1.65436E-24
 -1       619 3.64659E-05 5.50140E-05 0.00000E+00
 -1       620 3.65652E-05 5.88224E-05-8.27181E-25
 -1       621 3.29673E-05 7.30126E-06-1.32349E-23
 -1       622 3.06888E-05 7.69781E-06-6.61744E-24
 -1       623 2.82698E-05 8.09428E-06-1.32349E-23
 -1       624 2.57836E-05 8.48966E-06 0.00000E+00
 -1       625 2.33037E-05 8.88342E-06 0.00000E+00
 -1       626 3.44838E-05 9.05303E-06 0.00000E+00
 -1       627 3.38031E-05 1.15396E-05 0.00000E+00
 -1       628 3.30057E-05 1.43345E-05 0.00000E+00
 -1       629 3.21057E-05 1.74004E-05 3.30872E-24
 -1       630 3.11171E-05 2.07002E-05 0.00000E+00
 -1       631 3.00541E-05 2.41967E-05-3.30872E-24
 -1       632 2.89304E-05 2.78530E-05 0.00000E+00
 -1       633 2.77603E-05 3.16322E-05-3.30872E-24
 -1       634 2.65575E-05 3.54972E-05 0.00000E+00
 -1       635 2.53362E-05 3.94113E-05 0.00000E+00
 -1       636 2.41101E-05 4.33375E-05-6.61744E-24
 -1       637 2.28932E-05 4.72391E-05 0.00000E+00
 -1       638 2.16993E-05 5.10790E-05 0.00000E+00
 -1       639 2.05417E-05 5.48202E-05 0.00000E+00
 -1       640 1.94343E-05 5.84258E-05-1.65436E-24
 -1       641 3.66608E-05 6.60543E-05 4.13590E-25
 -1       642 3.66589E-05 6.96264E-05 0.00000E+00
 -1       643 3.66568E-05 7.32088E-05 0.00000E+00
 -1       644 3.66546E-05 7.67975E-05 0.00000E+00
 -1       645 3.66523E-05 8.03885E-05 0.00000E+00
 -1       646 3.66500E-05 8.39776E-05 0.00000E+00
 -1       647 3.66477E-05 8.75609E-05-1.03398E-25
 -1       648 3.66455E-05 9.11344E-05-3.87741E-26
 -1       649 3.66432E-05 9.46938E-05 5.16988E-26
 -1       650 3.66411E-05 9.82353E-05-5.16988E-26
 -1       651 3.66390E-05 1.01755E-04 0.00000E+00
 -1       652 3.66369E-05 1.05248E-04 0.00000E+00
 -1       653 3.66348E-05 1.08711E-04-4.13590E-25
 -1       654 3.66327E-05 1.12140E-04 0.00000E+00
 -1       655 3.66304E-05 1.15531E-04 8.27181E-25
 -1       656 3.33388E-05 6.23932E-05 0.00000E+00
 -1       657 3.02348E-05 6.22848E-05 0.00000E+00
 -1       658 2.72687E-05 6.21765E-05-3.30872E-24
 -1       659 2.43589E-05 6.20682E-05 0.00000E+00
 -1       660 2.14238E-05 6.19601E-05 8.27181E-25
 -1       661 3.54116E-05 6.60805E-05 0.00000E+00
 -1       662 3.41623E-05 6.96711E-05 0.00000E+00
 -1       663 3.29125E-05 7.32633E-05-3.30872E-24
 -1       664 3.16639E-05 7.68534E-05 1.65436E-24
 -1       665 3.04177E-05 8.04372E-05 3.30872E-24
 -1       666 2.91755E-05 8.40108E-05 0.00000E+00
 -1       667 2.79387E-05 8.75701E-05 3.30872E-24
 -1       668 2.67089E-05 9.11111E-05 0.00000E+00
 -1       669 2.54874E-05 9.46299E-05 0.00000E+00
 -1       670 2.42759E-05 9.81226E-05-1.65436E-24
 -1       671 2.30758E-05 1.01585E-04 0.00000E+00
 -1       672 2.18885E-05 1.05013E-04 0.00000E+00
 -1       673 2.07156E-05 1.08403E-04 1.65436E-24
 -1       674 1.95581E-05 1.11750E-04 0.00000E+00
 -1       675 1.84177E-05 1.15051E-04 8.27181E-25
 -1       676 3.33346E-05 1.18784E-04 0.00000E+00
 -1       677 3.00812E-05 1.18687E-04 0.00000E+00
 -1       678 2.68582E-05 1.18589E-04-3.30872E-24
 -1       679 2.36575E-05 1.18492E-04 1.65436E-24
 -1       680 2.04711E-05 1.18394E-04 0.00000E+00
 -1       681 8.71334E-06-2.19895E-07-1.65436E-24
 -1       682 8.86722E-06 4.68110E-07-1.65436E-24
 -1       683 9.02156E-06 9.20859E-07 3.30872E-24
 -1       684 9.17637E-06 1.17443E-06 0.00000E+00
 -1       685 9.33134E-06 1.26478E-06 0.00000E+00
 -1       686 9.48639E-06 1.22787E-06 1.65436E-24
 -1       687 9.64147E-06 1.09960E-06 0.00000E+00
 -1       688 9.79655E-06 9.15867E-07 0.00000E+00
 -1       689 9.95162E-06 7.12520E-07 0.00000E+00
 -1       690 1.01066E-05 5.25421E-07 0.00000E+00
 -1       691 1.02616E-05 3.90429E-07-6.61744E-24
 -1       692 1.04164E-05 3.43423E-07 0.00000E+00
 -1       693 1.05708E-05 4.20307E-07 0.00000E+00
 -1       694 1.07243E-05 6.56993E-07-1.65436E-24
 -1       695 1.08769E-05 1.08949E-06 0.00000E+00
 -1       696 7.23554E-06-9.87553E-07-6.61744E-24
 -1       697 5.76154E-06-7.91434E-07 0.00000E+00
 -1       698 4.22079E-06-5.94863E-07-6.61744E-24
 -1       699 2.69355E-06-3.97488E-07-3.30872E-24
 -1       700 1.26012E-06-1.99661E-07-6.61744E-24
 -1       701 8.02703E-06-2.21703E-07 0.00000E+00
 -1       702 7.55613E-06 5.28851E-07 0.00000E+00
 -1       703 7.15243E-06 1.09835E-06 6.61744E-24
 -1       704 6.80718E-06 1.50874E-06-3.30872E-24
 -1       705 6.51290E-06 1.78245E-06 0.00000E+00
 -1       706 6.26134E-06 1.94173E-06 0.00000E+00
 -1       707 6.04426E-06 2.00888E-06 0.00000E+00
 -1       708 5.85334E-06 2.00622E-06 3.30872E-24
 -1       709 5.68023E-06 1.95606E-06 0.00000E+00
 -1       710 5.51657E-06 1.88079E-06 0.00000E+00
 -1       711 5.35403E-06 1.80277E-06 0.00000E+00
 -1       712 5.18432E-06 1.74439E-06 1.65436E-24
 -1       713 4.99917E-06 1.72805E-06 0.00000E+00
 -1       714 4.79100E-06 1.77636E-06 0.00000E+00
 -1       715 4.55101E-06 1.91149E-06 0.00000E+00
 -1       716 1.11384E-05 2.36350E-06 8.27181E-25
 -1       717 1.12637E-05 2.66490E-06-1.24077E-24
 -1       718 1.13897E-05 2.70249E-06 0.00000E+00
 -1       719 1.15165E-05 2.52255E-06-8.27181E-25
 -1       720 1.16436E-05 2.17123E-06-3.30872E-24
 -1       721 1.17707E-05 1.69470E-06 1.65436E-24
 -1       722 1.18979E-05 1.13907E-06 0.00000E+00
 -1       723 1.20252E-05 5.50455E-07 1.65436E-24
 -1       724 1.21524E-05-2.50559E-08 0.00000E+00
 -1       725 1.22796E-05-5.41354E-07 1.65436E-24
 -1       726 1.24067E-05-9.52338E-07 6.61744E-24
 -1       727 1.25336E-05-1.21186E-06 0.00000E+00
 -1       728 1.26601E-05-1.27373E-06 3.30872E-24
 -1       729 1.27852E-05-1.09177E-06 0.00000E+00
 -1       730 1.29092E-05-6.19654E-07 0.00000E+00
 -1       731 9.92537E-06 1.81612E-06 0.00000E+00
 -1       732 8.64936E-06 1.88395E-06 0.00000E+00
 -1       733 7.31937E-06 1.95214E-06 1.65436E-24
 -1       734 6.06300E-06 2.02089E-06 6.20385E-25
 -1       735 5.00788E-06 2.08996E-06 1.13737E-24
 -1       736 1.04323E-05 2.33474E-06-6.61744E-24
 -1       737 9.90337E-06 2.71832E-06 0.00000E+00
 -1       738 9.43761E-06 2.93084E-06 0.00000E+00
 -1       739 9.02575E-06 2.99544E-06 0.00000E+00
 -1       740 8.66004E-06 2.93588E-06 1.32349E-23
 -1       741 8.33178E-06 2.77573E-06 6.61744E-24
 -1       742 8.03226E-06 2.53865E-06 0.00000E+00
 -1       743 7.75264E-06 2.24834E-06 0.00000E+00
 -1       744 7.48408E-06 1.92852E-06 0.00000E+00
 -1       745 7.21770E-06 1.60295E-06 0.00000E+00
 -1       746 6.94464E-06 1.29540E-06-1.32349E-23
 -1       747 6.65612E-06 1.02964E-06 0.00000E+00
 -1       748 6.34335E-06 8.29404E-07 6.61744E-24
 -1       749 5.99823E-06 7.18589E-07 3.30872E-24
 -1       750 5.61150E-06 7.20647E-07 6.61744E-24
 -1       751 1.32668E-05 9.63705E-07 1.24077E-24
 -1       752 1.35311E-05 1.37118E-06 0.00000E+00
 -1       753 1.37970E-05 1.46619E-06-6.61744E-24
 -1       754 1.40650E-05 1.30577E-06-3.30872E-24
 -1       755 1.43336E-05 9.46794E-07-6.61744E-24
 -1       756 1.46025E-05 4.46033E-07 0.00000E+00
 -1       757 1.48716E-05-1.39806E-07 6.61744E-24
 -1       758 1.51407E-05-7.54063E-07-3.30872E-24
 -1       759 1.54098E-05-1.34009E-06 0.00000E+00
 -1       760 1.56789E-05-1.84123E-06-3.30872E-24
 -1       761 1.59479E-05-2.20079E-06 0.00000E+00
 -1       762 1.62166E-05-2.36196E-06 0.00000E+00
 -1       763 1.64848E-05-2.26785E-06-6.61744E-24
 -1       764 1.67510E-05-1.86147E-06 3.30872E-24
 -1       765 1.70155E-05-1.08558E-06 0.00000E+00
 -1       766 1.16816E-05 2.92130E-07 0.00000E+00
 -1       767 1.01561E-05 4.07579E-07 8.27181E-25
 -1       768 8.59362E-06 5.23622E-07 0.00000E+00
 -1       769 7.14423E-06 6.39910E-07 6.20385E-25
 -1       770 5.95802E-06 7.55942E-07 0.00000E+00
 -1       771 1.20131E-05 7.74848E-07 0.00000E+00
 -1       772 1.10780E-05 1.09059E-06 0.00000E+00
 -1       773 1.02243E-05 1.18131E-06 0.00000E+00
 -1       774 9.43741E-06 1.08629E-06-1.32349E-23
 -1       775 8.70425E-06 8.45629E-07 2.64698E-23
 -1       776 8.01027E-06 4.99158E-07 0.00000E+00
 -1       777 7.34079E-06 8.67892E-08 0.00000E+00
 -1       778 6.68093E-06-3.51509E-07 0.00000E+00
 -1       779 6.01581E-06-7.75751E-07-2.64698E-23
 -1       780 5.33051E-06-1.14599E-06-1.32349E-23
 -1       781 4.61016E-06-1.42231E-06-2.64698E-23
 -1       782 3.84011E-06-1.56491E-06 1.32349E-23
 -1       783 3.00574E-06-1.53409E-06-1.32349E-23
 -1       784 2.09395E-06-1.29002E-06-6.61744E-24
 -1       785 1.08996E-06-7.93623E-07 0.00000E+00
 -1       786 1.74743E-05 1.35076E-06-1.13737E-24
 -1       787 1.77003E-05 2.22906E-06-1.65436E-24
 -1       788 1.79277E-05 2.80742E-06-3.30872E-24
 -1       789 1.81570E-05 3.14367E-06 0.00000E+00
 -1       790 1.83868E-05 3.29547E-06 6.61744E-24
 -1       791 1.86169E-05 3.32044E-06-3.30872E-24
 -1       792 1.88472E-05 3.27616E-06 0.00000E+00
 -1       793 1.90775E-05 3.22016E-06 0.00000E+00
 -1       794 1.93079E-05 3.20994E-06-6.61744E-24
 -1       795 1.95382E-05 3.30308E-06-3.30872E-24
 -1       796 1.97684E-05 3.55715E-06 0.00000E+00
 -1       797 1.99984E-05 4.02984E-06 3.30872E-24
 -1       798 2.02280E-05 4.77893E-06 6.61744E-24
 -1       799 2.04564E-05 5.86227E-06 0.00000E+00
 -1       800 2.06836E-05 7.33797E-06 0.00000E+00
 -1       801 1.49064E-05 9.64236E-08 0.00000E+00
 -1       802 1.18480E-05 7.93734E-08 0.00000E+00
 -1       803 8.45673E-06 6.15241E-08-1.65436E-24
 -1       804 5.10433E-06 4.32230E-08 0.00000E+00
 -1       805 2.16266E-06 2.52667E-08 0.00000E+00
 -1       806 1.63358E-05 1.25676E-06 0.00000E+00
 -1       807 1.54862E-05 2.14316E-06 6.61744E-24
 -1       808 1.47140E-05 2.81876E-06 0.00000E+00
 -1       809 1.40043E-05 3.32343E-06 0.00000E+00
 -1       810 1.33430E-05 3.69752E-06 0.00000E+00
 -1       811 1.27154E-05 3.98123E-06 6.61744E-24
 -1       812 1.21065E-05 4.21481E-06 0.00000E+00
 -1       813 1.15012E-05 4.43853E-06 0.00000E+00
 -1       814 1.08845E-05 4.69266E-06 0.00000E+00
 -1       815 1.02414E-05 5.01742E-06 6.61744E-24
 -1       816 9.55675E-06 5.45301E-06 0.00000E+00
 -1       817 8.81574E-06 6.03957E-06 0.00000E+00
 -1       818 8.00352E-06 6.81711E-06 1.32349E-23
 -1       819 7.10645E-06 7.82579E-06 3.30872E-24
 -1       820 6.10950E-06 9.10521E-06 0.00000E+00
 -1       821 2.07581E-05 1.16451E-05-1.39587E-24
 -1       822 2.06032E-05 1.42658E-05-1.65436E-24
 -1       823 2.04469E-05 1.71006E-05 3.30872E-24
 -1       824 2.02889E-05 2.01239E-05 1.65436E-24
 -1       825 2.01302E-05 2.33107E-05 3.30872E-24
 -1       826 1.99708E-05 2.66354E-05 0.00000E+00
 -1       827 1.98110E-05 3.00725E-05 0.00000E+00
 -1       828 1.96509E-05 3.35967E-05-1.65436E-24
 -1       829 1.94905E-05 3.71823E-05-3.30872E-24
 -1       830 1.93300E-05 4.08038E-05 0.00000E+00
 -1       831 1.91696E-05 4.44357E-05-3.30872E-24
 -1       832 1.90094E-05 4.80524E-05 0.00000E+00
 -1       833 1.88495E-05 5.16282E-05 0.00000E+00
 -1       834 1.86907E-05 5.51378E-05 0.00000E+00
 -1       835 1.85328E-05 5.85555E-05 0.00000E+00
 -1       836 1.83730E-05 9.49864E-06 0.00000E+00
 -1       837 1.56165E-05 9.74172E-06 0.00000E+00
 -1       838 1.27675E-05 9.98480E-06 0.00000E+00
 -1       839 9.96091E-06 1.02274E-05-1.65436E-24
 -1       840 7.33196E-06 1.04695E-05 1.65436E-24
 -1       841 2.00431E-05 1.16518E-05 0.00000E+00
 -1       842 1.90935E-05 1.42743E-05 0.00000E+00
 -1       843 1.80645E-05 1.71065E-05 0.00000E+00
 -1       844 1.69655E-05 2.01234E-05 0.00000E+00
 -1       845 1.58060E-05 2.33002E-05 0.00000E+00
 -1       846 1.45954E-05 2.66118E-05 0.00000E+00
 -1       847 1.33431E-05 3.00333E-05 0.00000E+00
 -1       848 1.20587E-05 3.35399E-05 0.00000E+00
 -1       849 1.07515E-05 3.71066E-05-1.65436E-24
 -1       850 9.43092E-06 4.07083E-05 0.00000E+00
 -1       851 8.10640E-06 4.43204E-05 0.00000E+00
 -1       852 6.78736E-06 4.79179E-05-4.13590E-25
 -1       853 5.48311E-06 5.14757E-05-4.13590E-25
 -1       854 4.20273E-06 5.49688E-05 0.00000E+00
 -1       855 2.95580E-06 5.83725E-05 0.00000E+00
 -1       856 1.83182E-05 6.51352E-05 4.13590E-25
 -1       857 1.82508E-05 6.85158E-05 0.00000E+00
 -1       858 1.81828E-05 7.19837E-05-1.65436E-24
 -1       859 1.81143E-05 7.55243E-05 8.27181E-25
 -1       860 1.80454E-05 7.91227E-05 1.65436E-24
 -1       861 1.79764E-05 8.27642E-05-8.27181E-25
 -1       862 1.79072E-05 8.64341E-05 0.00000E+00
 -1       863 1.78379E-05 9.01175E-05-8.27181E-25
 -1       864 1.77687E-05 9.37997E-05 1.65436E-24
 -1       865 1.76995E-05 9.74658E-05 8.27181E-25
 -1       866 1.76305E-05 1.01101E-04 1.65436E-24
 -1       867 1.75616E-05 1.04691E-04 0.00000E+00
 -1       868 1.74930E-05 1.08221E-04 0.00000E+00
 -1       869 1.74248E-05 1.11675E-04 8.27181E-25
 -1       870 1.73570E-05 1.15040E-04 1.65436E-24
 -1       871 1.54433E-05 6.18256E-05 0.00000E+00
 -1       872 1.26984E-05 6.17937E-05 0.00000E+00
 -1       873 1.00525E-05 6.17618E-05 8.27181E-25
 -1       874 7.40919E-06 6.17294E-05 6.20385E-25
 -1       875 4.67236E-06 6.16965E-05-1.44757E-24
 -1       876 1.72701E-05 6.51583E-05-3.30872E-24
 -1       877 1.61339E-05 6.85393E-05 0.00000E+00
 -1       878 1.49727E-05 7.19871E-05 0.00000E+00
 -1       879 1.37910E-05 7.54910E-05 0.00000E+00
 -1       880 1.25924E-05 7.90399E-05 0.00000E+00
 -1       881 1.13809E-05 8.26231E-05-1.65436E-24
 -1       882 1.01605E-05 8.62297E-05-3.30872E-24
 -1       883 8.93536E-06 8.98490E-05 0.00000E+00
 -1       884 7.70949E-06 9.34702E-05 3.30872E-24
 -1       885 6.48700E-06 9.70825E-05 0.00000E+00
 -1       886 5.27188E-06 1.00675E-04 3.30872E-24
 -1       887 4.06821E-06 1.04237E-04 0.00000E+00
 -1       888 2.87995E-06 1.07758E-04 3.30872E-24
 -1       889 1.71073E-06 1.11227E-04 0.00000E+00
 -1       890 5.64858E-07 1.14632E-04 1.65436E-24
 -1       891 1.42388E-05 1.18244E-04 1.65436E-24
 -1       892 1.12957E-05 1.18187E-04 0.00000E+00
 -1       893 8.40323E-06 1.18131E-04 1.65436E-24
 -1       894 5.50240E-06 1.18074E-04-8.27181E-25
 -1       895 2.53429E-06 1.18017E-04 0.00000E+00
 -1       896 2.66398E-07 9.12187E-07 6.61744E-24
 -1       897 5.34571E-07 1.59762E-06-3.30872E-24
 -1       898 8.03009E-07 2.08233E-06 0.00000E+00
 -1       899 1.07170E-06 2.39298E-06 0.00000E+00
 -1       900 1.34048E-06 2.55611E-06 6.61744E-24
 -1       901 1.60931E-06 2.59820E-06 0.00000E+00
 -1       902 1.87815E-06 2.54568E-06 0.00000E+00
 -1       903 2.14699E-06 2.42491E-06-3.30872E-24
 -1       904 2.41581E-06 2.26222E-06-6.61744E-24
 -1       905 2.68457E-06 2.08390E-06-3.30872E-24
 -1       906 2.95326E-06 1.91624E-06 0.00000E+00
 -1       907 3.22174E-06 1.78555E-06-3.30872E-24
 -1       908 3.48991E-06 1.71814E-06 6.61744E-24
 -1       909 3.75703E-06 1.74034E-06-3.30872E-24
 -1       910 4.02332E-06 1.87856E-06 0.00000E+00
 -1       911 4.33754E-06 2.44641E-06-8.27181E-25
 -1       912 4.39492E-06 2.59015E-06 0.00000E+00
 -1       913 4.45233E-06 2.60990E-06-8.27181E-25
 -1       914 4.50974E-06 2.52609E-06-8.27181E-25
 -1       915 4.56714E-06 2.35908E-06 1.65436E-24
 -1       916 4.62453E-06 2.12929E-06-8.27181E-25
 -1       917 4.68191E-06 1.85710E-06 1.65436E-24
 -1       918 4.73928E-06 1.56289E-06-8.27181E-25
 -1       919 4.79663E-06 1.26703E-06 0.00000E+00
 -1       920 4.85394E-06 9.89913E-07 8.27181E-25
 -1       921 4.91118E-06 7.51912E-07 0.00000E+00
 -1       922 4.96827E-06 5.73417E-07 0.00000E+00
 -1       923 5.02509E-06 4.74820E-07 0.00000E+00
 -1       924 5.08102E-06 4.76499E-07 0.00000E+00
 -1       925 5.13623E-06 5.98879E-07 2.06795E-25
 -1       926 4.86923E-06 1.06328E-06 0.00000E+00
 -1       927 4.54617E-06 1.05042E-06-6.61744E-24
 -1       928 4.22232E-06 8.61071E-07 0.00000E+00
 -1       929 3.89745E-06 5.33972E-07 0.00000E+00
 -1       930 3.57226E-06 1.07880E-07 0.00000E+00
 -1       931 3.24685E-06-3.78315E-07 0.00000E+00
 -1       932 2.92135E-06-8.85708E-07 0.00000E+00
 -1       933 2.59582E-06-1.37536E-06 6.61744E-24
 -1       934 2.27030E-06-1.80835E-06-1.32349E-23
 -1       935 1.94483E-06-2.14580E-06-6.61744E-24
 -1       936 1.61942E-06-2.34888E-06-6.61744E-24
 -1       937 1.29413E-06-2.37890E-06 3.30872E-24
 -1       938 9.68969E-07-2.19723E-06-6.61744E-24
 -1       939 6.44274E-07-1.76549E-06 0.00000E+00
 -1       940 3.19836E-07-1.04539E-06 0.00000E+00
 -1       941 2.88075E-07 1.07575E-06 1.65436E-24
 -1       942 5.99711E-07 1.89995E-06 0.00000E+00
 -1       943 9.13568E-07 2.51441E-06 6.61744E-24
 -1       944 1.23014E-06 2.96167E-06-3.30872E-24
 -1       945 1.54756E-06 3.28412E-06 0.00000E+00
 -1       946 1.86551E-06 3.52409E-06-3.30872E-24
 -1       947 2.18368E-06 3.72389E-06-1.32349E-23
 -1       948 2.50194E-06 3.92577E-06-1.32349E-23
 -1       949 2.82021E-06 4.17199E-06 1.32349E-23
 -1       950 3.13839E-06 4.50484E-06 0.00000E+00
 -1       951 3.45638E-06 4.96668E-06-1.32349E-23
 -1       952 3.77393E-06 5.59995E-06 0.00000E+00
 -1       953 4.09075E-06 6.44719E-06-1.32349E-23
 -1       954 4.40548E-06 7.55106E-06-3.30872E-24
 -1       955 4.71839E-06 8.95446E-06-6.61744E-24
 -1       956 4.81997E-06 1.28495E-05-1.65436E-24
 -1       957 4.61846E-06 1.52599E-05-3.30872E-24
 -1       958 4.41558E-06 1.79055E-05-3.30872E-24
 -1       959 4.21147E-06 2.07598E-05-1.65436E-24
 -1       960 4.00662E-06 2.37966E-05 0.00000E+00
 -1       961 3.80117E-06 2.69896E-05 0.00000E+00
 -1       962 3.59527E-06 3.03120E-05 0.00000E+00
 -1       963 3.38902E-06 3.37376E-05 0.00000E+00
 -1       964 3.18252E-06 3.72395E-05 6.61744E-24
 -1       965 2.97586E-06 4.07914E-05-3.30872E-24
 -1       966 2.76917E-06 4.43665E-05 6.61744E-24
 -1       967 2.56260E-06 4.79382E-05-3.30872E-24
 -1       968 2.35630E-06 5.14800E-05-6.61744E-24
 -1       969 2.15073E-06 5.49652E-05 3.30872E-24
 -1       970 1.94606E-06 5.83673E-05-6.61744E-24
 -1       971 1.60553E-06 6.49193E-05 0.00000E+00
 -1       972 1.46168E-06 6.82761E-05 1.65436E-24
 -1       973 1.31736E-06 7.17175E-05-3.30872E-24
 -1       974 1.17254E-06 7.52300E-05 0.00000E+00
 -1       975 1.02745E-06 7.87999E-05-3.30872E-24
 -1       976 8.82164E-07 8.24137E-05-1.65436E-24
 -1       977 7.36752E-07 8.60576E-05 3.30872E-24
 -1       978 5.91277E-07 8.97182E-05-1.65436E-24
 -1       979 4.45800E-07 9.33816E-05 0.00000E+00
 -1       980 3.00383E-07 9.70343E-05 1.65436E-24
 -1       981 1.55095E-07 1.00663E-04 0.00000E+00
 -1       982 1.00488E-08 1.04253E-04 0.00000E+00
 -1       983-1.34648E-07 1.07791E-04-3.30872E-24
 -1       984-2.78554E-07 1.11265E-04-1.65436E-24
 -1       985-4.21752E-07 1.14659E-04 0.00000E+00
 -3
    1PSTEP                         2           1           1          
  100CL  101 1.000000000         841                     0    1           1
 -4  STRESS      6    1
 -5  SXX         1    4    1    1
 -5  SYY         1    4    2    2
 -5  SZZ         1    4    3    3
 -5  SXY         1    4    1    2
 -5  SYZ         1    4    2    3
 -5  SZX         1    4    3    1
 -1         1-1.37002E+06-4.41746E+05-2.05297E+04-6.12541E+05 1.29755E-10 1.11565E-09
 -1         2-7.95542E+05 2.78805E+04 1.34232E+03-1.54292E+05-8.25366E-11 3.85444E-09
 -1         3-2.47651E+05-1.91929E+04 5.22977E+02-6.82395E+04-1.72804E-11 2.46837E-09
 -1         4-2.80151E+04 9.69924E+03 1.18478E+02-1.44137E+04-8.35030E-11-4.63348E-09
 -1         5 7.62118E+04 7.30005E+05-1.95395E+04-1.17366E+04 6.11180E-10-5.64455E-11
 -1         8-1.71801E+05-2.71643E+05 4.68668E+03-4.58368E+05 2.91038E-11 2.41198E-09
 -1         9-4.99746E+05-3.82324E+04-4.46776E+03-3.87089E+05-2.38288E-10 2.01787E-09
 -1        10-2.65415E+05-5.69906E+04 8.38381E+02-2.19742E+05-2.24645E-10-2.20704E-10
 -1        11-2.41222E+04-1.55257E+04 1.98285E+02-9.87903E+04 3.09304E-10 7.60489E-10
 -1        12 1.12062E+05 7.39940E+05-1.76199E+04 3.90292E+04 1.97065E-09-7.90232E-10
 -1        15 1.55277E+04 1.65624E+04 8.09189E+02-1.64805E+05 3.09228E-11-9.00400E-10
 -1        16-1.87049E+05-4.72688E+04-2.49431E+03-3.47485E+05 3.88051E-11-4.54747E-10
 -1        17-2.10848E+05-7.98821E+04 8.00246E+03-3.50870E+05 2.29193E-10 3.90476E-10
 -1        18-3.84102E+04-5.31611E+04-8.38411E+02-2.54903E+05-5.37815E-10 1.01015E-09
 -1        19 2.90336E+05 4.28422E+05-6.03741E+03 3.10783E+04 3.62191E-09 1.35212E-09
 -1        20 1.14282E+05-4.84024E+04-3.64525E+03 7.34528E+04 9.99307E-11-9.44056E-10
 -1        21-1.08652E+04-1.17418E+05-4.86725E+02 1.01896E+04 2.98051E-08-6.55220E-10
 -1        22 3.33604E+04 1.82429E+05 4.36459E+02-1.13063E+05 6.63931E-11-1.58252E-10
 -1        23-1.18215E+05 1.55675E+02 6.02909E+02-2.12715E+05 7.12438E-12 3.05287E-10
 -1        24-3.00511E+05-4.94709E+04 1.25288E+04-3.43454E+05-1.72198E-10 4.99616E-10
 -1        25-1.30001E+05-6.85104E+04 1.78970E+04-3.53419E+05 1.38577E-09 8.93730E-10
 -1        26-3.52467E+04 2.39298E+05 3.15028E+03-1.10186E+05 1.22039E-09 1.79413E-09
 -1        27 1.84943E+04-2.69696E+04-5.31886E+03 1.20573E+05 1.15118E-08-6.88791E-10
 -1        28-7.28784E+02-8.32110E+04-4.34837E+02 5.00167E+04-5.34556E-10-1.47697E-09
 -1        29 3.73943E+05 2.96275E+05 8.85995E+02-8.81555E+04 4.58726E-11 4.33829E-10
 -1        30 1.31078E+05 3.28202E+04 5.72302E+02-1.05320E+05 5.06333E-11-3.63798E-12
 -1        31-3.63284E+05 1.56237E+04 1.07571E+03-1.60770E+05-4.80114E-11-6.91216E-10
 -1        32-4.19105E+05-8.52571E+04 2.06809E+04-3.41819E+05-1.83505E-09 1.21872E-09
 -1        33-1.44379E+05 1.06662E+05 2.29066E+04-1.59472E+05 1.13394E-09-1.67574E-10
 -1        34-2.16512E+05-2.10872E+04 1.91353E+03 7.83551E+04 9.13894E-09-2.01828E-09
 -1        35-3.71209E+04-2.96864E+04-3.46234E+02 7.14826E+04 9.52809E-09-1.46004E-09
 -1        36-1.87376E+06-1.67703E+03-1.50668E+04-2.08252E-09-4.65920E-10 4.48381E-10
 -1        37-1.87754E+06-2.16849E+03-8.40054E+03 5.18514E-09-8.66533E-10-2.93858E-09
 -1        38-1.87551E+06-1.23591E+01-3.73752E+03-6.25364E-09 5.33723E-10-9.29504E-10
 -1        39-1.87565E+06-8.39467E+01-1.96898E+03-9.98887E-09 3.85450E-10-2.62887E-09
 -1        40-1.87563E+06 1.76426E+01-1.02201E+03-1.59890E-08 8.78422E-12 1.01562E-09
 -1        41-1.87552E+06 2.09044E+00-6.74606E+02-4.06990E-09 2.71028E-10 5.21244E-09
 -1        42-1.87564E+06 1.33457E+01-6.34285E+02-4.89094E-09-3.03486E-10 1.37460E-09
 -1        43-1.87553E+06 7.97004E+00-9.44208E+02-6.58795E-09 5.20073E-10 4.17583E-09
 -1        44-1.87562E+06 3.47984E+01-1.68811E+03-1.56196E-08 1.54578E-10 7.07814E-10
 -1        45-1.87566E+06 5.17214E-01-3.37076E+03 7.17262E-09-1.21881E-09-3.96085E-10
 -1        46-1.87551E+06 1.10661E+02-6.57939E+03-3.04331E-09 1.51364E-10-1.91199E-09
 -1        47-1.87665E+06-6.01887E+02-1.36749E+04-5.37500E-09-9.06550E-10-3.31761E-09
 -1        48-1.87465E+06-9.16619E+01-2.64588E+04-4.76876E-09 5.08106E-10-8.25821E-10
 -1        49-1.89010E+06-1.54536E+04-5.97758E+04 9.69430E-09-6.12308E-10 6.00994E-09
 -1        50-1.86213E+06-1.19406E+04-1.07296E+05-6.75573E-09 4.72468E-10 3.14321E-09
 -1        51 1.99808E+04-7.36904E+05 9.47746E+04-7.33446E+05 2.91038E-11 2.77942E-09
 -1        52 1.75410E+04-7.19631E+05 4.95490E+04-9.95474E+05-1.09139E-10 2.28465E-09
 -1        53 5.44907E+03-7.35987E+05 1.71077E+04-7.30908E+05 3.60160E-10 2.12094E-09
 -1        54 6.05539E+03-7.40954E+05-2.11086E+03-9.96954E+05 8.73115E-11-2.83353E-09
 -1        55-2.51986E+02-7.32967E+05-2.16962E+04-7.31892E+05 2.31012E-10 1.10776E-09
 -1        56-2.41650E+06-3.52933E+05-9.70875E+04-9.13164E+05-1.59162E-09-5.56611E-10
 -1        57-2.43844E+06-3.68015E+05-5.31331E+04-9.23709E+05-6.23004E-11 7.82165E-11
 -1        58-2.42664E+06-3.48408E+05-2.19991E+04-9.19586E+05 8.04448E-10-3.56795E-09
 -1        59-2.42473E+06-3.52987E+05-1.10249E+04-9.24208E+05-5.34783E-10-3.46517E-10
 -1        60-2.42738E+06-3.48498E+05-5.09621E+03-9.19920E+05 3.28782E-10 4.07751E-09
 -1        61-2.42382E+06-3.52201E+05-2.69368E+03-9.24029E+05-5.50017E-10 5.41559E-09
 -1        62-2.42742E+06-3.48597E+05-1.67154E+03-9.19972E+05-2.46928E-10 8.50605E-10
 -1        63-2.42382E+06-3.52091E+05-1.71836E+03-9.23909E+05 2.49929E-09 2.75725E-09
 -1        64-2.42734E+06-3.48629E+05-2.66491E+03-9.20019E+05 1.61435E-10 1.04137E-10
 -1        65-2.42414E+06-3.52062E+05-5.32249E+03-9.23846E+05-3.77213E-09-4.73278E-09
 -1        66-2.42707E+06-3.48553E+05-1.06994E+04-9.20051E+05-8.64475E-10 2.40198E-09
 -1        67-2.42633E+06-3.53495E+05-2.34908E+04-9.23910E+05 1.15915E-09 9.33687E-09
 -1        68-2.42534E+06-3.48502E+05-4.70261E+04-9.19466E+05 2.58183E-10 4.89308E-09
 -1        69-2.45595E+06-3.85338E+05-1.13661E+05-9.22459E+05 1.22691E-09-2.54840E-09
 -1        70-2.40346E+06-3.58318E+05-2.07642E+05-9.05885E+05 4.40195E-10-1.70257E-09
 -1        71-5.99140E+05 1.94482E+03 1.74124E+04-1.47238E-08-1.46950E-09 2.36105E-09
 -1        72-5.94521E+05 2.50439E+03 9.69472E+03 1.19519E-08-1.35475E-10-1.05751E-09
 -1        73-5.97107E+05 1.52160E+01 4.28744E+03 6.75574E-09 5.77106E-10-1.79011E-09
 -1        74-5.96701E+05 9.75990E+01 2.20404E+03-8.00640E-10 5.92824E-10 4.83874E-09
 -1        75-5.96965E+05-1.72778E+01 1.03645E+03-1.11254E-08 1.00616E-10 6.70667E-09
 -1        76-5.96863E+05 5.52107E-01 4.81719E+02-1.34057E-08 2.15958E-10-1.97295E-09
 -1        77-5.96945E+05-2.88676E+00 1.44361E+02-4.14700E-09-1.93270E-10-8.13003E-10
 -1        78-5.96894E+05 9.47753E-01-1.12013E+02 9.84885E-09 6.28456E-10-4.28008E-09
 -1        79-5.96934E+05 8.59687E+00-4.19821E+02-5.15400E-09 4.64293E-10 2.58180E-09
 -1        80-5.96939E+05-2.21581E-01-9.61325E+02-1.31476E-08-1.04049E-09 3.15987E-09
 -1        81-5.96900E+05 3.24814E+01-1.93733E+03-1.20141E-08-9.08015E-11 3.76065E-09
 -1        82-5.97234E+05-1.78602E+02-4.05725E+03 1.69199E-08 2.44209E-10-2.01590E-09
 -1        83-5.96641E+05-2.76479E+01-7.86361E+03 5.18433E-09 2.40669E-10 9.64519E-10
 -1        84-6.01226E+05-4.58798E+03-1.77647E+04 5.92877E-09-3.04262E-10 1.24533E-09
 -1        85-5.92914E+05-3.56116E+03-3.18951E+04-6.96991E-09-7.97032E-10-9.73159E-10
 -1        86 1.41797E+04 5.36294E+05 1.33918E+05-1.70341E+05 6.54836E-11 2.44472E-09
 -1        87 1.96021E+04 5.70924E+05 8.43190E+04-2.55971E+05 4.11546E-10-1.53523E-09
 -1        88 6.11874E+02 5.49722E+05 5.67822E+04-1.69720E+05 2.35559E-10 1.43700E-10
 -1        89 1.65332E+04 5.66997E+05 7.34456E+04-2.56354E+05 5.42059E-10-2.43654E-09
 -1        90 1.20912E+04 5.38460E+05 1.10220E+05-1.69913E+05 3.16504E-10 2.70211E-09
 -1        91-1.00529E+06-1.49835E+05-3.51335E+04-3.84444E+05-1.82808E-10 3.60524E-09
 -1        92-1.01131E+06-1.57176E+05-1.92251E+04-3.90454E+05-5.63432E-10-2.35013E-09
 -1        93-1.00899E+06-1.48159E+05-7.96608E+03-3.86750E+05-6.37783E-11 4.69504E-09
 -1        94-1.00632E+06-1.51778E+05-3.99345E+03-3.90672E+05 1.25965E-10 3.00304E-10
 -1        95-1.00927E+06-1.48183E+05-1.84746E+03-3.86864E+05 5.08180E-11-2.32342E-09
 -1        96-1.00598E+06-1.51509E+05-9.78189E+02-3.90625E+05 7.35781E-10-3.91685E-09
 -1        97-1.00929E+06-1.48212E+05-6.08973E+02-3.86874E+05-2.41698E-10 3.46972E-10
 -1        98-1.00597E+06-1.51482E+05-6.29994E+02-3.90595E+05-2.73985E-11-4.35398E-09
 -1        99-1.00927E+06-1.48219E+05-9.79871E+02-3.86884E+05 6.29370E-10-2.14527E-09
 -1       100-1.00607E+06-1.51485E+05-1.95787E+03-3.90585E+05 4.98403E-10 4.00826E-09
 -1       101-1.00917E+06-1.48185E+05-3.93605E+03-3.86886E+05-2.00407E-09 2.58706E-09
 -1       102-1.00686E+06-1.52024E+05-8.63662E+03-3.90618E+05-9.48603E-10-4.60113E-09
 -1       103-1.00853E+06-1.48164E+05-1.72854E+04-3.86661E+05 1.53250E-10-3.25144E-09
 -1       104-1.01774E+06-1.63674E+05-4.17443E+04-3.90049E+05 7.65567E-10-8.00355E-11
 -1       105-1.00044E+06-1.51847E+05-7.62895E+04-3.81697E+05-9.28594E-10 2.62298E-09
 -1       106-8.76860E+04 2.00851E+03 1.79653E+04-1.86828E-08-1.16536E-10 2.00180E-09
 -1       107-8.29665E+04 2.58275E+03 1.00054E+04-1.17100E-08-2.55640E-10 1.46792E-09
 -1       108-8.55859E+04 1.56389E+01 4.43054E+03 8.42215E-09-2.68456E-10 4.72482E-10
 -1       109-8.52138E+04 1.00478E+02 2.28727E+03 7.30269E-09-5.52185E-10-2.34047E-09
 -1       110-8.54398E+04-1.83665E+01 1.09474E+03-3.44649E-11 5.12588E-10-1.55836E-09
 -1       111-8.53794E+04 5.10192E-02 5.48129E+02 4.80771E-09 2.66820E-10-5.02627E-09
 -1       112-8.54205E+04-5.11358E+00 2.49232E+02 7.95833E-09-5.98311E-10-1.72849E-09
 -1       113-8.54040E+04-7.52815E-01 8.89178E+01 1.18118E-08 7.47518E-10-5.70638E-09
 -1       114-8.54152E+04 5.81752E-01-3.05804E+01-6.28371E-09-2.90179E-10-2.23545E-09
 -1       115-8.54171E+04-3.19549E-01-1.67500E+02 1.40507E-08 8.33026E-10 9.20011E-10
 -1       116-8.54074E+04 6.30474E+00-3.79866E+02-2.80487E-09-3.85098E-10-1.43746E-09
 -1       117-8.54778E+04-3.62944E+01-8.16980E+02-6.96142E-09 2.05556E-10 2.76282E-09
 -1       118-8.53545E+04-5.70921E+00-1.59332E+03 5.87640E-10 1.41459E-10-7.91658E-10
 -1       119-8.62881E+04-9.30961E+02-3.60463E+03 7.87372E-09 3.70863E-10-3.29089E-09
 -1       120-8.45973E+04-7.23799E+02-6.47425E+03-1.05924E-08-6.58577E-10-2.68687E-09
 -1       121 3.42568E+03 4.97696E+04 3.31366E+04-8.72340E+04-5.82077E-11 1.37152E-09
 -1       122 4.85029E+03 5.83382E+04 2.19415E+04-1.31221E+05 7.71252E-10-3.03044E-09
 -1       123 1.68527E+02 5.29153E+04 1.66833E+04-8.68976E+04 5.63887E-11 1.01318E-09
 -1       124 5.74453E+03 5.88241E+04 2.44199E+04-1.31456E+05 1.09139E-09-1.97542E-09
 -1       125 4.27509E+03 4.87831E+04 3.85996E+04-8.69911E+04 2.72848E-11 1.15779E-09
 -1       126-3.79652E+05-6.06386E+04-1.57787E+04-1.50312E+05-5.46720E-10-2.36469E-10
 -1       127-3.80603E+05-6.56885E+04-8.63372E+03-1.55029E+05 1.38289E-09 3.65071E-09
 -1       128-3.81334E+05-5.98659E+04-3.57914E+03-1.51330E+05 3.10024E-10-1.70769E-09
 -1       129-3.78350E+05-6.32842E+04-1.79487E+03-1.55150E+05-8.62286E-10 3.14941E-10
 -1       130-3.81462E+05-5.98739E+04-8.31693E+02-1.51380E+05 1.52815E-09 2.20223E-09
 -1       131-3.78194E+05-6.31670E+04-4.42800E+02-1.55133E+05 4.57493E-09 6.43649E-09
 -1       132-3.81473E+05-5.98852E+04-2.80424E+02-1.51382E+05 2.12583E-09 9.92031E-10
 -1       133-3.78185E+05-6.31598E+04-2.97707E+02-1.55124E+05-3.54589E-10 5.05111E-09
 -1       134-3.81463E+05-5.98864E+04-4.69881E+02-1.51384E+05-3.01270E-10-5.68434E-12
 -1       135-3.78226E+05-6.31663E+04-9.43595E+02-1.55122E+05 7.51015E-10-1.08184E-09
 -1       136-3.81416E+05-5.98700E+04-1.89915E+03-1.51381E+05-8.23093E-11-9.77934E-10
 -1       137-3.78596E+05-6.34304E+04-4.16592E+03-1.55140E+05 8.62428E-10-3.12048E-09
 -1       138-3.81105E+05-5.98600E+04-8.33852E+03-1.51268E+05 7.41238E-11-4.28327E-09
 -1       139-3.83862E+05-6.90228E+04-2.01291E+04-1.54834E+05 1.18484E-09-1.99225E-09
 -1       140-3.77170E+05-6.16709E+04-3.67900E+04-1.48899E+05 6.14477E-10-2.20643E-09
 -1       141-2.28337E+04-4.25059E+01-3.84917E+02-1.40731E-08-2.37854E-10-9.71852E-10
 -1       142-2.29321E+04-5.46633E+01-2.22278E+02-3.53214E-09 5.50050E-10-1.67933E-09
 -1       143-2.28779E+04 1.16431E-01-1.14845E+02-3.91954E-09 1.78360E-10-2.51129E-09
 -1       144-2.28859E+04-1.68603E+00-9.16208E+01 3.25849E-10-7.61430E-11-1.25029E-09
 -1       145-2.28799E+04 2.21449E+00-1.08412E+02 3.40255E-10-2.63968E-10-2.54423E-09
 -1       146-2.28883E+04 1.74232E+00-1.85569E+02 8.05355E-10-1.00013E-10 1.68824E-09
 -1       147-2.28756E+04 7.40591E+00-3.48044E+02-5.62685E-09 2.03021E-10 9.68129E-10
 -1       148-2.29122E+04 5.94127E+00-7.01622E+02-2.04837E-09 2.66967E-10-4.08789E-09
 -1       149-2.28560E+04 2.83548E+01-1.37724E+03-1.22248E-08-2.68090E-10-1.80847E-09
 -1       150-2.30270E+04 3.83486E-01-2.81774E+03-1.45580E-08 3.05369E-11-2.00532E-09
 -1       151-2.27608E+04 9.29665E+01-5.53201E+03-6.93112E-09 1.85142E-10 7.81256E-10
 -1       152-2.38566E+04-5.04694E+02-1.15090E+04 7.67358E-09 7.19343E-11 2.43267E-09
 -1       153-2.20259E+04-7.83070E+01-2.22685E+04-1.76087E-09-7.88906E-11 1.46156E-09
 -1       154-3.51474E+04-1.29773E+04-5.02764E+04 5.96719E-09-1.05048E-11 1.08412E-09
 -1       155-1.14576E+04-1.00832E+04-9.02369E+04-4.20187E-09 4.28574E-10-1.73168E-09
 -1       156 7.81841E+02 5.50888E+04 7.71288E+03-3.55383E+04 2.79215E-10-6.42103E-10
 -1       157 1.11791E+03 5.70892E+04 5.18397E+03-5.33609E+04 2.61934E-10-1.70212E-09
 -1       158 3.13019E+01 5.58076E+04 4.06915E+03-3.53644E+04 7.20775E-10-3.17505E-09
 -1       159 1.45028E+03 5.72924E+04 6.12868E+03-5.35332E+04 2.77623E-10 3.63320E-09
 -1       160 1.08897E+03 5.47343E+04 9.79210E+03-3.53644E+04 1.01863E-09 3.95698E-09
 -1       161-2.03095E+04-1.28634E+03-2.45704E+02-5.49392E+03-1.02546E-10 6.03450E-10
 -1       162-2.11349E+04-5.51483E+02-1.38759E+02-4.63597E+03-5.20686E-11-2.12171E-09
 -1       163-2.03108E+04-1.29846E+03-6.71977E+01-5.53861E+03-2.05546E-10-3.53987E-09
 -1       164-2.11280E+04-4.87832E+02-5.32324E+01-4.60903E+03 5.25233E-10-8.04221E-10
 -1       165-2.03125E+04-1.29910E+03-6.57780E+01-5.54138E+03-2.29647E-11-1.41546E-09
 -1       166-2.11318E+04-4.83760E+02-1.19341E+02-4.60944E+03-5.95719E-10-3.11539E-09
 -1       167-2.03084E+04-1.29485E+03-2.35925E+02-5.54221E+03 5.34328E-11 3.00253E-09
 -1       168-2.11518E+04-4.83951E+02-5.01645E+02-4.61726E+03 1.34924E-09-9.29163E-10
 -1       169-2.02915E+04-1.27815E+03-1.02858E+03-5.54216E+03 1.82820E-09 3.69948E-09
 -1       170-2.12556E+04-5.13548E+02-2.21775E+03-4.64955E+03 2.61139E-09-2.74235E-09
 -1       171-2.01995E+04-1.21568E+03-4.53549E+03-5.52936E+03-2.87827E-09-3.77054E-09
 -1       172-2.21342E+04-1.17246E+03-9.99283E+03-4.74506E+03 1.01693E-10 6.25118E-09
 -1       173-1.94899E+04-1.15969E+03-2.00125E+04-5.24423E+03-2.13322E-09 1.35606E-09
 -1       174-3.46067E+04-1.47744E+04-4.83238E+04-4.24725E+03-2.23122E-09-2.81489E-09
 -1       175-1.02137E+04-5.33007E+03-8.83011E+04 6.27447E+02 5.09317E-10-2.54659E-11
 -1       191 1.68855E+04 1.67089E+06 8.02438E+04-1.75216E+04-2.11003E-10-1.78761E-09
 -1       192 1.00294E+04 1.68974E+06 4.98215E+04-2.35388E+04 2.72848E-10-3.78759E-09
 -1       193 5.51847E+02 1.67850E+06 3.57167E+04-1.74287E+04-8.99831E-10-2.08183E-09
 -1       194 9.59767E+03 1.68932E+06 4.83127E+04-2.36507E+04 4.47471E-10-2.48133E-09
 -1       195 1.61087E+04 1.67127E+06 7.68163E+04-1.73984E+04-1.06593E-09 1.15983E-09
 -1       251 6.16342E+05 1.06566E+04 1.06711E+05-9.70389E+04-1.52795E-10-1.02409E-09
 -1       252 6.44741E+05 1.43882E+04 5.95565E+04-1.45264E+05-1.60071E-10 7.47605E-10
 -1       253 6.28051E+05-6.19357E+02 2.62809E+04-9.62584E+04 2.94676E-10 2.78851E-09
 -1       254 6.30196E+05 1.71402E+02 1.36797E+04-1.45917E+05-3.78350E-10-1.97360E-10
 -1       255 6.28306E+05-3.59335E+02 6.60710E+03-9.63042E+04 6.11180E-10-1.33696E-10
 -1       256 6.28454E+05-1.81260E+01 3.56101E+03-1.45831E+05 6.35737E-10-4.42651E-09
 -1       257 6.28034E+05-2.89134E+00 2.05004E+03-9.63501E+04-9.09495E-11-1.53614E-09
 -1       258 6.27946E+05 1.86289E+02 1.71114E+03-1.45766E+05-6.51198E-10 6.94854E-10
 -1       259 6.27889E+05 1.04463E+02 2.12285E+03-9.63699E+04-2.94449E-11 3.05499E-09
 -1       260 6.28019E+05 2.19641E+02 3.71046E+03-1.45758E+05 7.26004E-10-4.53838E-10
 -1       261 6.27868E+05-3.79723E+01 6.94631E+03-9.63582E+04 1.33514E-09-1.74805E-09
 -1       262 6.29358E+05 6.73468E+02 1.42960E+04-1.45780E+05-1.53432E-09 1.50249E-09
 -1       263 6.27284E+05-6.97808E+01 2.75252E+04-9.63453E+04-8.07631E-10 5.03042E-09
 -1       264 6.44016E+05 1.57479E+04 6.21751E+04-1.45274E+05 1.61890E-10 1.13505E-09
 -1       265 6.14764E+05 1.19333E+04 1.11511E+05-9.69073E+04-4.69299E-10-4.80213E-10
 -1       266 4.64559E+03-1.10368E+05 3.50672E+04-1.10125E+05-2.81943E-10 2.54022E-09
 -1       267 5.98763E+03-1.01349E+05 1.82735E+04-1.66899E+05 6.79847E-11 1.48430E-09
 -1       268 4.86894E+02-1.05849E+05 5.50278E+03-1.10139E+05 4.54747E-13-1.40790E-09
 -1       269-1.03315E+03-1.06817E+05-2.90788E+03-1.66377E+05 3.16504E-10-2.40107E-10
 -1       270-1.40358E+03-1.03518E+05-1.14082E+04-1.10682E+05-4.22006E-10 3.61251E-09
 -1       271-1.33481E+06-2.51984E+05-1.03579E+05-5.73485E+05 1.89175E-10 6.91216E-10
 -1       272-1.33431E+06-2.91319E+05-5.65838E+04-6.11711E+05-4.82032E-10 1.43791E-09
 -1       273-1.34664E+06-2.46222E+05-2.35360E+04-5.79985E+05-3.33603E-09-5.86806E-09
 -1       274-1.31960E+06-2.75932E+05-1.17280E+04-6.13626E+05 2.03727E-10-3.48882E-09
 -1       275-1.34797E+06-2.45884E+05-5.42379E+03-5.80386E+05 4.36557E-11-6.84850E-10
 -1       276-1.31881E+06-2.75217E+05-2.74598E+03-6.14100E+05 4.07454E-10-4.00723E-09
 -1       277-1.34838E+06-2.45705E+05-1.53880E+03-5.80456E+05 6.56655E-10-5.82531E-10
 -1       278-1.31885E+06-2.75204E+05-1.28390E+03-6.14379E+05 1.48702E-10 1.44939E-09
 -1       279-1.34849E+06-2.45604E+05-1.72522E+03-5.80480E+05 5.94810E-10 1.50385E-09
 -1       280-1.31899E+06-2.75248E+05-3.27690E+03-6.14452E+05-2.71712E-10-2.24645E-10
 -1       281-1.34830E+06-2.45572E+05-6.52001E+03-5.80450E+05 9.68612E-10 3.44153E-09
 -1       282-1.32017E+06-2.76161E+05-1.42653E+04-6.14345E+05-6.59384E-11-6.91216E-11
 -1       283-1.34703E+06-2.45712E+05-2.85764E+04-5.80018E+05 4.18368E-10-2.83762E-10
 -1       284-1.33809E+06-2.95207E+05-6.89442E+04-6.12770E+05 2.72848E-10-1.08048E-09
 -1       285-1.33312E+06-2.52251E+05-1.26072E+05-5.71934E+05-2.11003E-10 6.18456E-10
 -1       286 3.34880E+04 5.76210E+03 5.42890E+04-5.18462E+04 1.08048E-09 1.91540E-09
 -1       287 4.78226E+04 7.59685E+03 3.02691E+04-7.74479E+04 6.00267E-10-2.34286E-09
 -1       288 3.96281E+04-1.07943E+02 1.33836E+04-5.14247E+04-2.12822E-10 1.40699E-09
 -1       289 4.07165E+04 2.33844E+02 6.94394E+03-7.78657E+04-8.58563E-10 4.23324E-09
 -1       290 3.99098E+04-9.08931E+01 3.35252E+03-5.14091E+04 7.29415E-10 2.62389E-10
 -1       291 4.00240E+04 3.35064E+01 1.76777E+03-7.78812E+04 9.05857E-10-3.04817E-09
 -1       292 3.98722E+04 1.60434E+01 9.64771E+02-5.14102E+04 7.63066E-10-2.83944E-09
 -1       293 3.98735E+04 7.74945E+01 7.03262E+02-7.78802E+04 1.01011E-09-4.22006E-10
 -1       294 3.98508E+04 3.95795E+01 7.55882E+02-5.14102E+04-1.73259E-10-3.86535E-10
 -1       295 3.99172E+04 7.53398E+01 1.22703E+03-7.78802E+04 1.00817E-09 4.94310E-10
 -1       296 3.98579E+04-1.45261E+01 2.24381E+03-5.14102E+04 3.19233E-10-9.13133E-10
 -1       297 4.03596E+04 2.14113E+02 4.59275E+03-7.78663E+04 3.79259E-10-5.02951E-10
 -1       298 3.96765E+04-2.81777E+01 8.82942E+03-5.14236E+04 6.96673E-10 2.57387E-10
 -1       299 4.50646E+04 5.05234E+03 1.99467E+04-7.75226E+04 1.11868E-10-6.91512E-09
 -1       300 3.56569E+04 3.81855E+03 3.57645E+04-5.17616E+04-4.14730E-10-1.54614E-09
 -1       301 1.61168E+04 1.63217E+05 6.98962E+04-4.00935E+05-1.05501E-10 1.49157E-10
 -1       302 1.15788E+04 1.78247E+05 4.13490E+04-5.44499E+05-5.74801E-10-8.59472E-10
 -1       303 2.49716E+03 1.68727E+05 2.56195E+04-4.00047E+05-1.05683E-09-3.04021E-09
 -1       304 8.04224E+03 1.74848E+05 2.90998E+04-5.44537E+05 3.49246E-10 1.00317E-09
 -1       305 9.76823E+03 1.66381E+05 4.20654E+04-4.00904E+05-1.12504E-09 2.07365E-09
 -1       306-1.54718E+06-2.58585E+05-1.19244E+05-6.21549E+05-2.75122E-10 2.06637E-09
 -1       307-1.56232E+06-2.88834E+05-6.52330E+04-6.48116E+05 5.72982E-10 1.38698E-09
 -1       308-1.56010E+06-2.52583E+05-2.70315E+04-6.29173E+05 1.81899E-12 2.52840E-10
 -1       309-1.54525E+06-2.70800E+05-1.35114E+04-6.49393E+05 4.14730E-10-2.90856E-09
 -1       310-1.56122E+06-2.52507E+05-6.19881E+03-6.29526E+05 3.73802E-10 1.95041E-09
 -1       311-1.54406E+06-2.69979E+05-3.15584E+03-6.49482E+05-1.22782E-11 1.24140E-09
 -1       312-1.56143E+06-2.52512E+05-1.73966E+03-6.29535E+05 2.81034E-10-1.83979E-09
 -1       313-1.54395E+06-2.69962E+05-1.43676E+03-6.49525E+05 1.65073E-09-2.15732E-09
 -1       314-1.56143E+06-2.52505E+05-1.89171E+03-6.29534E+05-1.18246E-09-4.43288E-09
 -1       315-1.54409E+06-2.69991E+05-3.56006E+03-6.49506E+05-1.03955E-09-4.09818E-09
 -1       316-1.56121E+06-2.52477E+05-7.05685E+03-6.29522E+05-2.69210E-10 4.00178E-10
 -1       317-1.54545E+06-2.70945E+05-1.54277E+04-6.49454E+05-8.58563E-10 2.32558E-09
 -1       318-1.55996E+06-2.52534E+05-3.08716E+04-6.29113E+05 1.13687E-10 1.90630E-09
 -1       319-1.56492E+06-2.91616E+05-7.45292E+04-6.48107E+05 5.50244E-10 7.82165E-11
 -1       320-1.54527E+06-2.59310E+05-1.36215E+05-6.20351E+05-8.79936E-10-3.12866E-10
 -1       321 2.14129E+05 5.88071E+03 5.34292E+04-3.02509E+04-2.12822E-10 3.59250E-09
 -1       322 2.28151E+05 7.61415E+03 2.97678E+04-4.52467E+04-9.74978E-10 1.30422E-09
 -1       323 2.20309E+05-5.86406E-01 1.31824E+04-3.00262E+04-2.94676E-10 1.36151E-09
 -1       324 2.21369E+05 2.78421E+02 6.82636E+03-4.54652E+04 1.46883E-10 6.56655E-10
 -1       325 2.20693E+05-6.43731E+01 3.29669E+03-3.00215E+04 6.13909E-10 2.67028E-09
 -1       326 2.20819E+05 1.14186E+01 1.71850E+03-4.54664E+04 5.54792E-11 2.46564E-09
 -1       327 2.20721E+05-6.72212E+00 9.12193E+02-3.00256E+04-9.30640E-10 1.97247E-09
 -1       328 2.20733E+05 2.03943E+01 6.13213E+02-4.54617E+04 4.78678E-10-4.88376E-09
 -1       329 2.20722E+05 3.37941E+00 5.92883E+02-3.00263E+04 7.05427E-10 2.27078E-09
 -1       330 2.20762E+05 1.88701E+01 9.00692E+02-4.54628E+04 1.37220E-09 2.15505E-09
 -1       331 2.20716E+05-2.53913E+01 1.61266E+03-3.00245E+04-6.36646E-10 1.11709E-09
 -1       332 2.21038E+05 1.37893E+02 3.27834E+03-4.54610E+04-4.01133E-09 3.29328E-09
 -1       333 2.20550E+05-7.11584E+00 6.29905E+03-3.00279E+04-9.13133E-10 3.27407E-09
 -1       334 2.24311E+05 3.62177E+03 1.42121E+04-4.52670E+04 2.86673E-09 5.12955E-10
 -1       335 2.17627E+05 2.77843E+03 2.54932E+04-3.02224E+04-2.68301E-10 5.62068E-10
 -1       336 4.33683E+03 4.63351E+04 3.83133E+04-2.56741E+05-1.34605E-10 2.58660E-09
 -1       337 6.94351E+03 5.54357E+04 2.49888E+04-3.86883E+05 2.25737E-09-5.15683E-10
 -1       338 1.12861E+03 4.92645E+04 1.80764E+04-2.56021E+05 5.45697E-11-7.77618E-10
 -1       339 7.24082E+03 5.50620E+04 2.52529E+04-3.87040E+05 2.61207E-09-5.37511E-10
 -1       340 4.81685E+03 4.57189E+04 3.89623E+04-2.56577E+05-4.72937E-11 3.25599E-09
 -1       341-9.78420E+05-1.65400E+05-7.55339E+04-3.95621E+05-5.58884E-10-4.42742E-09
 -1       342-9.86925E+05-1.85677E+05-4.13235E+04-4.13745E+05-1.11731E-09-2.25418E-09
 -1       343-9.86567E+05-1.61628E+05-1.71246E+04-4.00462E+05-3.80169E-10 7.96717E-10
 -1       344-9.76116E+05-1.74227E+05-8.56490E+03-4.14473E+05-8.16726E-10-2.88765E-09
 -1       345-9.87238E+05-1.61614E+05-3.93273E+03-4.00692E+05-6.93944E-10-8.98126E-11
 -1       346-9.75368E+05-1.73690E+05-2.01579E+03-4.14471E+05-3.44244E-10-1.80762E-11
 -1       347-9.87338E+05-1.61641E+05-1.13222E+03-4.00701E+05 5.27962E-10-1.92767E-09
 -1       348-9.75301E+05-1.73668E+05-9.75301E+02-4.14464E+05 5.50187E-10 2.45132E-09
 -1       349-9.87323E+05-1.61648E+05-1.33093E+03-4.00702E+05-2.72848E-10 5.93445E-10
 -1       350-9.75396E+05-1.73686E+05-2.53844E+03-4.14443E+05 1.48248E-10-3.41015E-09
 -1       351-9.87172E+05-1.61624E+05-5.04837E+03-4.00691E+05 5.84805E-10-3.05590E-10
 -1       352-9.76365E+05-1.74377E+05-1.10411E+04-4.14431E+05 3.58341E-10 2.25691E-09
 -1       353-9.86300E+05-1.61642E+05-2.20946E+04-4.00392E+05-4.52019E-10 1.08594E-09
 -1       354-9.90301E+05-1.89178E+05-5.33293E+04-4.13518E+05 2.41016E-09-2.03909E-09
 -1       355-9.75809E+05-1.66475E+05-9.74667E+04-3.94116E+05 1.49339E-09-1.48066E-09
 -1       356 1.64225E+05 2.24534E+03 2.02497E+04-1.09044E+04 1.43245E-10-3.03771E-10
 -1       357 1.69530E+05 2.89340E+03 1.12735E+04-1.63136E+04-1.51203E-10 1.87356E-09
 -1       358 1.66585E+05 5.15485E+00 4.97861E+03-1.08178E+04-9.95897E-11 1.10549E-09
 -1       359 1.66981E+05 1.02306E+02 2.54672E+03-1.63991E+04-2.81034E-10-3.53430E-09
 -1       360 1.66743E+05-2.63377E+01 1.16982E+03-1.08161E+04 5.67979E-10-1.64778E-09
 -1       361 1.66781E+05-4.76716E+00 4.87365E+02-1.64000E+04 1.09048E-09 3.44357E-10
 -1       362 1.66763E+05-3.68891E+00 2.30876E+01-1.08170E+04-7.95808E-12 2.24554E-09
 -1       363 1.66730E+05 1.65812E-01-4.26095E+02-1.63985E+04 3.16959E-10-3.77440E-11
 -1       364 1.66782E+05 1.99077E+01-1.07126E+03-1.08176E+04-7.75813E-10-1.80216E-09
 -1       365 1.66628E+05-3.30394E+00-2.31177E+03-1.63981E+04-5.66729E-11 2.05364E-09
 -1       366 1.66864E+05 7.41206E+01-4.59726E+03-1.08174E+04-5.45356E-10 9.11086E-10
 -1       367 1.65939E+05-4.26575E+02-9.59410E+03-1.63964E+04-1.45519E-10-1.33014E-10
 -1       368 1.67483E+05-7.18032E+01-1.85780E+04-1.08195E+04 1.97133E-10-2.13822E-09
 -1       369 1.56529E+05-1.08362E+04-4.19479E+04-1.63334E+04-1.95928E-09-1.51886E-10
 -1       370 1.76310E+05-8.42926E+03-7.52961E+04-1.08733E+04 7.02130E-10 3.99450E-09
 -1       371 3.39388E+02-1.77801E+04 2.45995E+03-1.71048E+05 1.80535E-09 2.09002E-09
 -1       372 1.04003E+03-1.75750E+04 2.10905E+03-2.57721E+05 9.53150E-10 2.19370E-09
 -1       373 5.20223E+02-1.81229E+04 2.25251E+03-1.70536E+05 2.80488E-09 1.40972E-10
 -1       374 1.84685E+03-1.73075E+04 4.16619E+03-2.57892E+05 9.56788E-10 1.80353E-09
 -1       375 1.16828E+03-1.87622E+04 7.01491E+03-1.70874E+05 2.71586E-09 1.97906E-09
 -1       376-1.74765E+05-4.86245E+04-1.68768E+04-9.56771E+04 2.82853E-10 3.16504E-09
 -1       377-1.67564E+05-6.22393E+04-9.23112E+03-1.10162E+05-1.53250E-10-1.74521E-09
 -1       378-1.76684E+05-4.76866E+04-3.83478E+03-9.66925E+04 3.35604E-10-3.63343E-10
 -1       379-1.65106E+05-5.97478E+04-1.93143E+03-1.10427E+05 1.27966E-09 6.53063E-09
 -1       380-1.76842E+05-4.76776E+04-9.17834E+02-9.67502E+04-4.78622E-10 1.52602E-09
 -1       381-1.64946E+05-5.96253E+04-5.35715E+02-1.10424E+05-2.40959E-10 2.29966E-09
 -1       382-1.76849E+05-4.76896E+04-4.31128E+02-9.67494E+04 9.94987E-10 2.24554E-09
 -1       383-1.64921E+05-5.96265E+04-5.99424E+02-1.10404E+05-8.09678E-10 2.26237E-09
 -1       384-1.76807E+05-4.77011E+04-1.08938E+03-9.67334E+04-7.23048E-10-1.13278E-09
 -1       385-1.64970E+05-5.96744E+04-2.26483E+03-1.10383E+05 7.31234E-10-3.58523E-09
 -1       386-1.76652E+05-4.76756E+04-4.60859E+03-9.66912E+04-2.08183E-09 1.87356E-09
 -1       387-1.65790E+05-6.03557E+04-1.01157E+04-1.10387E+05-2.03363E-09-1.56069E-09
 -1       388-1.75848E+05-4.76923E+04-2.02690E+04-9.63755E+04-2.92493E-09-3.29055E-09
 -1       389-1.78503E+05-7.39248E+04-4.88848E+04-1.09527E+05-6.60657E-09-5.16502E-09
 -1       390-1.66185E+05-5.21608E+04-8.93607E+04-9.05982E+04 2.90811E-09-4.25644E-10
 -1       406 1.56474E+04 1.65626E+06 7.59146E+04 9.31108E+04-1.07320E-09-2.86673E-09
 -1       407 9.25258E+03 1.67429E+06 4.91161E+04 1.27515E+05 9.11314E-10-1.43336E-09
 -1       408 3.13542E+02 1.66346E+06 3.86323E+04 9.31635E+04-2.87537E-09-1.65346E-09
 -1       409 1.13583E+04 1.67690E+06 5.71002E+04 1.27021E+05 1.10754E-09 2.27556E-09
 -1       410 1.94130E+04 1.65474E+06 9.40059E+04 9.36646E+04-5.12227E-09 3.41970E-10
 -1       466 8.25719E+05 8.44694E+03 7.86432E+04-5.91318E+04 1.16415E-10-3.30874E-09
 -1       467 8.46380E+05 1.10451E+04 4.38429E+04-8.87131E+04-2.68301E-10-9.27685E-10
 -1       468 8.34676E+05-1.09841E+02 1.94144E+04-5.87474E+04-2.00089E-10-7.94898E-10
 -1       469 8.36185E+05 3.49130E+02 1.00881E+04-8.90332E+04 9.82254E-11-7.60338E-10
 -1       470 8.35137E+05-1.24442E+02 4.91523E+03-5.87799E+04-2.69210E-10 9.89530E-10
 -1       471 8.35258E+05 2.09091E+01 2.66255E+03-8.89775E+04 4.16549E-10 2.39197E-10
 -1       472 8.35122E+05-3.80080E+00 1.59645E+03-5.88047E+04-6.45741E-11-4.36103E-10
 -1       473 8.35109E+05 5.22846E+01 1.41730E+03-8.89510E+04-2.53664E-10-1.50521E-10
 -1       474 8.35110E+05-5.17096E+00 1.87802E+03-5.88066E+04 2.81943E-10 5.33419E-10
 -1       475 8.35278E+05 3.07834E+01 3.38107E+03-8.89723E+04 6.91216E-11-9.62245E-10
 -1       476 8.35087E+05-1.36113E+02 6.39678E+03-5.87830E+04-3.07409E-10-1.63232E-09
 -1       477 8.36413E+05 5.05081E+02 1.32022E+04-8.90207E+04-3.41061E-10 1.90340E-10
 -1       478 8.34414E+05-6.62949E+01 2.54590E+04-5.87564E+04-1.32786E-10-5.56611E-10
 -1       479 8.49651E+05 1.45917E+04 5.74855E+04-8.87015E+04-1.30967E-10-6.58929E-10
 -1       480 8.22582E+05 1.12255E+04 1.03157E+05-5.91415E+04-8.98581E-10-2.48838E-09
 -1       481 3.55776E+03 3.26099E+05 3.00464E+04-8.68347E+04 2.20098E-10 6.17092E-10
 -1       482 4.75571E+03 3.33775E+05 1.77788E+04-1.30807E+05 7.82165E-11 1.30910E-09
 -1       483 3.18753E+02 3.29434E+05 9.95156E+03-8.66840E+04-9.36780E-11 1.55569E-09
 -1       484 2.19829E+03 3.31601E+05 9.86832E+03-1.30711E+05 1.16415E-10-3.12411E-10
 -1       485 1.41771E+03 3.28500E+05 1.27092E+04-8.69384E+04 9.79981E-11-1.42427E-09
 -1       486-7.88161E+05-1.42092E+05-8.85829E+04-3.27275E+05-7.83302E-11-3.27418E-10
 -1       487-7.99094E+05-1.64891E+05-4.84577E+04-3.47414E+05 2.18279E-10 8.57654E-10
 -1       488-7.97757E+05-1.37632E+05-2.00881E+04-3.32953E+05-9.63155E-10 1.78534E-09
 -1       489-7.86428E+05-1.51483E+05-1.00351E+04-3.48328E+05 3.01952E-10 1.67938E-09
 -1       490-7.98577E+05-1.37596E+05-4.59677E+03-3.33237E+05 1.60071E-09-1.94723E-09
 -1       491-7.85575E+05-1.50852E+05-2.31483E+03-3.48367E+05 1.98270E-10 1.12141E-09
 -1       492-7.98727E+05-1.37602E+05-1.22687E+03-3.33253E+05-2.89219E-10 2.59752E-09
 -1       493-7.85506E+05-1.50835E+05-9.21328E+02-3.48407E+05-7.09406E-11-4.38092E-10
 -1       494-7.98752E+05-1.37587E+05-1.10096E+03-3.33255E+05-5.29894E-10-4.32010E-11
 -1       495-7.85577E+05-1.50859E+05-1.98782E+03-3.48429E+05-4.09841E-10 2.20552E-11
 -1       496-7.98659E+05-1.37553E+05-3.89245E+03-3.33243E+05-5.59339E-11 1.63027E-09
 -1       497-7.86312E+05-1.51402E+05-8.48752E+03-3.48442E+05-1.37788E-10 8.60382E-10
 -1       498-7.97995E+05-1.37562E+05-1.69710E+04-3.33007E+05 2.11003E-10 1.04410E-09
 -1       499-7.97010E+05-1.62757E+05-4.09549E+04-3.47724E+05 1.91903E-10 2.50111E-10
 -1       500-7.89912E+05-1.41306E+05-7.48583E+04-3.28198E+05 1.79853E-10-1.01863E-10
 -1       501 6.28952E+05 8.98755E+03 8.39970E+04-6.61515E+04 8.73115E-10 6.18456E-11
 -1       502 6.51041E+05 1.18067E+04 4.68311E+04-9.90568E+04-1.60071E-10 9.16771E-10
 -1       503 6.38469E+05-1.15161E+02 2.07270E+04-6.56963E+04-1.09139E-10-7.40329E-10
 -1       504 6.40081E+05 4.11121E+02 1.07673E+04-9.94560E+04 4.17458E-10-2.67391E-10
 -1       505 6.38926E+05-1.04532E+02 5.23275E+03-6.57198E+04 2.16460E-10 2.38197E-09
 -1       506 6.39048E+05 8.24811E+01 2.81430E+03-9.94113E+04 9.01309E-10 1.60571E-09
 -1       507 6.38892E+05 3.95672E+01 1.64619E+03-6.57428E+04 5.87534E-10-5.44333E-10
 -1       508 6.38868E+05 1.25912E+02 1.39421E+03-9.93868E+04 9.27855E-10 3.41197E-09
 -1       509 6.38880E+05 4.42820E+01 1.76905E+03-6.57446E+04 4.58840E-10 2.53794E-09
 -1       510 6.39035E+05 9.83875E+01 3.12603E+03-9.94039E+04 9.29504E-10 2.30330E-09
 -1       511 6.38883E+05-9.36280E+01 5.87710E+03-6.57254E+04-2.12822E-10 1.14483E-09
 -1       512 6.40136E+05 5.01960E+02 1.21170E+04-9.94419E+04 1.62072E-09 5.04770E-10
 -1       513 6.38320E+05-6.96605E+01 2.33491E+04-6.57047E+04 1.32786E-10 1.20417E-09
 -1       514 6.52391E+05 1.33766E+04 5.27406E+04-9.90556E+04-5.60249E-10 3.92447E-10
 -1       515 6.27546E+05 1.02272E+04 9.46201E+04-6.61447E+04 2.58296E-10-2.11730E-09
 -1       516 5.17217E+03 1.81866E+05 4.13840E+04-2.41849E+05 5.43878E-10-7.03949E-10
 -1       517 7.55781E+03 1.91895E+05 2.59475E+04-3.64708E+05 3.85626E-10 5.61658E-09
 -1       518 1.09421E+03 1.85886E+05 1.71003E+04-2.41346E+05 3.00133E-10 3.71892E-09
 -1       519 5.95169E+03 1.91103E+05 2.15798E+04-3.64544E+05 7.47605E-10 1.44064E-09
 -1       520 3.61640E+03 1.83682E+05 3.17461E+04-2.42023E+05 1.97360E-10-7.60338E-10
 -1       521-1.38569E+06-2.36721E+05-1.29425E+05-5.60972E+05-5.12046E-10-3.20142E-10
 -1       522-1.40346E+06-2.68253E+05-7.08048E+04-5.88331E+05 1.12777E-09-7.93079E-10
 -1       523-1.39969E+06-2.30233E+05-2.93399E+04-5.69280E+05 3.67618E-09 6.65386E-09
 -1       524-1.38496E+06-2.48647E+05-1.46578E+04-5.89675E+05-6.47560E-10 1.86310E-09
 -1       525-1.40091E+06-2.30161E+05-6.70980E+03-5.69675E+05-3.16504E-10-3.16049E-10
 -1       526-1.38368E+06-2.47744E+05-3.38117E+03-5.89758E+05 1.05638E-09 7.11310E-10
 -1       527-1.40113E+06-2.30168E+05-1.79525E+03-5.69690E+05-9.39963E-10-5.87306E-10
 -1       528-1.38357E+06-2.47724E+05-1.35767E+03-5.89809E+05-1.40403E-09-9.79981E-10
 -1       529-1.40115E+06-2.30157E+05-1.63605E+03-5.69689E+05-9.46955E-10 1.22100E-09
 -1       530-1.38367E+06-2.47752E+05-2.96505E+03-5.89802E+05-3.40378E-10 4.90218E-10
 -1       531-1.40098E+06-2.30137E+05-5.81732E+03-5.69675E+05 1.23691E-10 1.07048E-09
 -1       532-1.38478E+06-2.48539E+05-1.26849E+04-5.89750E+05 5.09317E-11 7.37145E-10
 -1       533-1.39993E+06-2.30193E+05-2.53715E+04-5.69334E+05 2.63753E-10 1.64437E-09
 -1       534-1.40079E+06-2.65485E+05-6.12338E+04-5.88580E+05-6.68479E-11 3.05590E-10
 -1       535-1.38780E+06-2.35823E+05-1.11927E+05-5.62167E+05 1.12323E-10 5.67525E-10
 -1       536 7.27693E+05 1.14163E+04 1.04548E+05-5.49939E+04 2.47383E-10-2.03727E-09
 -1       537 7.55126E+05 1.48269E+04 5.82565E+04-8.23764E+04-1.23873E-09-4.23734E-09
 -1       538 7.39707E+05-4.52417E+01 2.58005E+04-5.46171E+04 1.63709E-10-1.27329E-09
 -1       539 7.41742E+05 5.34118E+02 1.33780E+04-8.26955E+04-2.79215E-10 1.84264E-09
 -1       540 7.40402E+05-1.26629E+02 6.48164E+03-5.46391E+04 1.36424E-10 2.73758E-10
 -1       541 7.40603E+05 4.72280E+01 3.42662E+03-8.26527E+04-9.80435E-10 1.08184E-09
 -1       542 7.40427E+05 5.42058E+00 1.90537E+03-5.46618E+04-4.67480E-10 3.32875E-10
 -1       543 7.40424E+05 7.38238E+01 1.44292E+03-8.26287E+04 1.34122E-10 8.74024E-10
 -1       544 7.40426E+05 1.60467E+01 1.63354E+03-5.46635E+04 1.00044E-11 2.00498E-09
 -1       545 7.40546E+05 5.80091E+01 2.72979E+03-8.26439E+04-5.85715E-10-5.11591E-10
 -1       546 7.40414E+05-8.73238E+01 5.04747E+03-5.46463E+04 3.85626E-10-1.21349E-09
 -1       547 7.41444E+05 4.23446E+02 1.03550E+04-8.26819E+04 3.60160E-10 7.58462E-10
 -1       548 7.39900E+05-4.06947E+01 1.99368E+04-5.46242E+04-7.31234E-10 2.53385E-09
 -1       549 7.51831E+05 1.14405E+04 4.50054E+04-8.23809E+04-1.05501E-10 4.07590E-09
 -1       550 7.30654E+05 8.78240E+03 8.07449E+04-5.49718E+04-1.20235E-09 2.41562E-09
 -1       551 8.95340E+03 2.54562E+04 3.77553E+04-3.97264E+05-8.36735E-11-1.10231E-09
 -1       552 7.31732E+03 3.30119E+04 2.45401E+04-5.39754E+05 2.41562E-09 3.33239E-09
 -1       553 2.21437E+03 2.77224E+04 1.90778E+04-3.96423E+05 5.09317E-11 2.03295E-09
 -1       554 8.21658E+03 3.41152E+04 2.79309E+04-5.39690E+05 2.49202E-09 5.63887E-10
 -1       555 1.05589E+04 2.47985E+04 4.54378E+04-3.97329E+05 3.55612E-10 3.31056E-10
 -1       556-1.21447E+06-2.39356E+05-1.04590E+05-5.17590E+05-7.39533E-10 6.03904E-10
 -1       557-1.21978E+06-2.57014E+05-5.50918E+04-5.48961E+05 5.31145E-10-1.64164E-09
 -1       558-1.22354E+06-2.24066E+05-2.31826E+04-5.27543E+05 3.41970E-09 1.75169E-09
 -1       559-1.20631E+06-2.43393E+05-1.14658E+04-5.49884E+05-4.51109E-10-1.98111E-09
 -1       560-1.22442E+06-2.23681E+05-5.28983E+03-5.27972E+05-1.07320E-09 3.69664E-09
 -1       561-1.20550E+06-2.42854E+05-2.67676E+03-5.49926E+05-1.84809E-09-3.44050E-09
 -1       562-1.22459E+06-2.23698E+05-1.45686E+03-5.28003E+05 2.86946E-10-8.11269E-10
 -1       563-1.20544E+06-2.42839E+05-1.16608E+03-5.49934E+05 2.30216E-12 3.00588E-10
 -1       564-1.22457E+06-2.23711E+05-1.49325E+03-5.27997E+05-1.22600E-09-1.94996E-09
 -1       565-1.20548E+06-2.42855E+05-2.77051E+03-5.49879E+05-2.00998E-09-4.35148E-09
 -1       566-1.22435E+06-2.23721E+05-5.49238E+03-5.27956E+05-3.54703E-10-1.28239E-09
 -1       567-1.20630E+06-2.43415E+05-1.19027E+04-5.49794E+05 2.63753E-11 1.25874E-09
 -1       568-1.22340E+06-2.24140E+05-2.40690E+04-5.27499E+05-6.78483E-10 1.11686E-09
 -1       569-1.22030E+06-2.57542E+05-5.71910E+04-5.48783E+05 1.07684E-09-1.72440E-09
 -1       570-1.21395E+06-2.40032E+05-1.08567E+05-5.17173E+05 1.32786E-10 4.32919E-10
 -1       571 8.06151E+05 1.95309E+04 8.98331E+04-6.94244E+04 1.36060E-09 3.56522E-10
 -1       572 8.27359E+05 1.12117E+04 4.83385E+04-9.38693E+04 1.76078E-09-3.68436E-09
 -1       573 8.15461E+05 2.11441E+02 2.16490E+04-6.90416E+04 1.65528E-10 1.91176E-09
 -1       574 8.16984E+05 2.77623E+02 1.11236E+04-9.42152E+04-1.47520E-09-3.03498E-09
 -1       575 8.15988E+05-1.37488E+02 5.37229E+03-6.90413E+04-2.61025E-10-1.87811E-09
 -1       576 8.16138E+05-1.70691E+01 2.74917E+03-9.42119E+04-6.47333E-10-1.13596E-09
 -1       577 8.16038E+05-3.13839E+01 1.36504E+03-6.90464E+04-3.41799E-10 1.65255E-09
 -1       578 8.16041E+05-7.56955E+00 7.35288E+02-9.42156E+04 6.57337E-10-5.30690E-10
 -1       579 8.16104E+05-3.97388E+01 4.32258E+02-6.90380E+04 7.77618E-10-2.00089E-10
 -1       580 8.16150E+05-6.98610E+01 3.75450E+02-9.42464E+04 5.52973E-10 3.87035E-09
 -1       581 8.16236E+05-1.34026E+02 4.70103E+02-6.90154E+04-1.51158E-09 5.59339E-10
 -1       582 8.16444E+05-1.75307E+02 8.69588E+02-9.42740E+04-4.03816E-10-3.38332E-10
 -1       583 8.16410E+05-2.56394E+02 1.60437E+03-6.90095E+04 7.27596E-12-8.57199E-10
 -1       584 8.17578E+05 4.68825E+02 3.61825E+03-9.38392E+04-5.25506E-09-3.09501E-09
 -1       585 8.15984E+05 1.00360E+03 6.65322E+03-6.94530E+04 2.05182E-09 3.88900E-09
 -1       586 3.36465E+03 3.58201E+04 1.37034E+04-3.32922E+05 4.45289E-09-1.06593E-09
 -1       587 3.63802E+03 3.79238E+04 1.05339E+04-4.52034E+05 4.10728E-09-4.22006E-10
 -1       588 1.71404E+03 3.56134E+04 1.07334E+04-3.32093E+05 6.06087E-09 2.26464E-09
 -1       589 6.36497E+03 3.96987E+04 1.89978E+04-4.52225E+05 4.28190E-09 4.37012E-10
 -1       590 8.28552E+03 3.28592E+04 3.30031E+04-3.32716E+05 5.71890E-09 4.69299E-10
 -1       591-8.08371E+05-1.69141E+05-8.28569E+04-3.54018E+05-6.56655E-10-6.01722E-09
 -1       592-8.12078E+05-1.83714E+05-4.36553E+04-3.79505E+05-1.56797E-09-2.18961E-09
 -1       593-8.15445E+05-1.57113E+05-1.83631E+04-3.61935E+05-4.82032E-11 3.45608E-11
 -1       594-8.01392E+05-1.72870E+05-9.09246E+03-3.80083E+05 3.13321E-10 4.49381E-09
 -1       595-8.16065E+05-1.56868E+05-4.20176E+03-3.62263E+05-3.74712E-10-1.35196E-09
 -1       596-8.00716E+05-1.72440E+05-2.15067E+03-3.80029E+05 7.30324E-10-7.30324E-10
 -1       597-8.16146E+05-1.56922E+05-1.21455E+03-3.62271E+05-6.91216E-10-4.32692E-09
 -1       598-8.00631E+05-1.72432E+05-1.05211E+03-3.79976E+05 1.00044E-09-1.05501E-10
 -1       599-8.16082E+05-1.56957E+05-1.44774E+03-3.62250E+05-5.27507E-11 4.50200E-10
 -1       600-8.00660E+05-1.72459E+05-2.75599E+03-3.79905E+05-3.28555E-09-4.91673E-09
 -1       601-8.15856E+05-1.56962E+05-5.49965E+03-3.62199E+05-1.67165E-09 1.63891E-09
 -1       602-8.01475E+05-1.73032E+05-1.19305E+04-3.79851E+05 2.85127E-09-3.71165E-09
 -1       603-8.14949E+05-1.57355E+05-2.41271E+04-3.61743E+05 2.71029E-10-3.73620E-09
 -1       604-8.15491E+05-1.87213E+05-5.73139E+04-3.78935E+05-1.81353E-09 2.00089E-11
 -1       605-8.05564E+05-1.73197E+05-1.08790E+05-3.51353E+05 2.26646E-09 2.88128E-09
 -1       606 3.12540E+05-9.66206E+03-4.38451E+04 5.57765E+04-1.22200E-08 3.30965E-09
 -1       607 3.02102E+05-5.37842E+03-2.35631E+04 7.46312E+04-1.64800E-09 3.98541E-09
 -1       608 3.07686E+05-4.55890E+01-1.05882E+04 5.53115E+04 1.09867E-08 3.40242E-09
 -1       609 3.06736E+05 1.59236E+02-5.41443E+03 7.50866E+04-6.16910E-09-6.49743E-09
 -1       610 3.07181E+05 3.00480E+02-2.61566E+03 5.52974E+04-1.84937E-08 1.34924E-09
 -1       611 3.06872E+05 4.54756E+02-1.29135E+03 7.50869E+04-3.57795E-08 1.99725E-09
 -1       612 3.07001E+05 3.56600E+02-5.77133E+02 5.53069E+04-1.44046E-08 2.31739E-09
 -1       613 3.06780E+05 5.28684E+02-1.61791E+02 7.50704E+04-1.91376E-08 1.41745E-09
 -1       614 3.06905E+05 3.94831E+02 1.67267E+02 5.53120E+04-1.36970E-09 1.22282E-09
 -1       615 3.06742E+05 5.63725E+02 5.94996E+02 7.50609E+04 1.27156E-08 1.67392E-09
 -1       616 3.06851E+05 3.92481E+02 1.28638E+03 5.53154E+04-1.11154E-08 3.54294E-09
 -1       617 3.06922E+05 6.52600E+02 2.72685E+03 7.50472E+04-1.59434E-09 5.73982E-09
 -1       618 3.06714E+05 4.82585E+02 5.33563E+03 5.53248E+04-2.73758E-10 4.43288E-09
 -1       619 3.09500E+05 3.34444E+03 1.19294E+04 7.48332E+04 1.60890E-09-8.32642E-10
 -1       620 3.04439E+05 5.23232E+03 2.21685E+04 5.55051E+04 4.38649E-09-1.35333E-09
 -1       621 9.07400E+03 1.14455E+06 4.40881E+04-1.18042E+05-6.90670E-09-2.43381E-09
 -1       622 6.09893E+03 1.15460E+06 3.24855E+04-1.59276E+05 2.14641E-09-2.39834E-09
 -1       623 1.03068E+03 1.14785E+06 3.21518E+04-1.17748E+05-8.12543E-09-3.04590E-09
 -1       624 1.30172E+04 1.16074E+06 5.58701E+04-1.59417E+05 3.80533E-09 1.61803E-09
 -1       625 2.15298E+04 1.13803E+06 9.72684E+04-1.17851E+05-7.20320E-09-2.85900E-09
 -1       626 5.26457E+05 1.11817E+05-1.03103E+04 2.50647E+05-4.50200E-09 1.95723E-09
 -1       627 5.10760E+05 1.25320E+05-5.40804E+03 2.64738E+05 6.24277E-09 2.07729E-09
 -1       628 5.25732E+05 1.13082E+05-2.29979E+03 2.49206E+05 4.99858E-09-3.15049E-09
 -1       629 5.11564E+05 1.27048E+05-1.11241E+03 2.64886E+05 4.13183E-09-3.23985E-09
 -1       630 5.25529E+05 1.13196E+05-4.96560E+02 2.49081E+05 7.74162E-09-6.98810E-09
 -1       631 5.11511E+05 1.27146E+05-1.79962E+02 2.64773E+05-1.19690E-08 4.25712E-09
 -1       632 5.25413E+05 1.13257E+05 2.84890E+01 2.49034E+05-1.31040E-08-2.30830E-09
 -1       633 5.11459E+05 1.27167E+05 2.66240E+02 2.64694E+05-4.40741E-09 3.13992E-09
 -1       634 5.25341E+05 1.13279E+05 6.34485E+02 2.49009E+05-4.47108E-09 2.88924E-09
 -1       635 5.11492E+05 1.27182E+05 1.41042E+03 2.64682E+05 3.97267E-09 7.59746E-09
 -1       636 5.25276E+05 1.13238E+05 2.90542E+03 2.49002E+05 7.43466E-09 7.72343E-09
 -1       637 5.12010E+05 1.27475E+05 6.36731E+03 2.64771E+05 2.52451E-08-1.10413E-09
 -1       638 5.24924E+05 1.13344E+05 1.28738E+04 2.48805E+05-2.56478E-10-9.09495E-11
 -1       639 5.19657E+05 1.35020E+05 3.06252E+04 2.64484E+05-3.92424E-09 4.40195E-10
 -1       640 5.20112E+05 1.21700E+05 5.81141E+04 2.43316E+05-1.52795E-09-2.65936E-09
 -1       641 1.19374E+04-7.62718E+02-7.09298E+03 4.47476E+03-1.81186E-08-3.55135E-09
 -1       642 1.00600E+04-9.73780E+02-3.94959E+03 6.70433E+03-1.19826E-08-2.71916E-09
 -1       643 1.11072E+04 2.44350E+01-1.74702E+03 4.45181E+03-3.72791E-09-2.81227E-09
 -1       644 1.09468E+04 6.71575E+00-8.98023E+02 6.72237E+03-4.47597E-09-2.99707E-09
 -1       645 1.10491E+04 3.77974E+01-4.22095E+02 4.45066E+03 7.40300E-10-6.32463E-09
 -1       646 1.10130E+04 4.61237E+01-1.95640E+02 6.72343E+03-6.83792E-09-4.77357E-09
 -1       647 1.10413E+04 3.16345E+01-5.75096E+01 4.45057E+03 9.83482E-09-3.26486E-09
 -1       648 1.10265E+04 4.54334E+01 4.84361E+01 6.72368E+03 3.40112E-08-1.27829E-09
 -1       649 1.10377E+04 2.62145E+01 1.76423E+02 4.45044E+03 1.29589E-08-6.57997E-09
 -1       650 1.10471E+04 4.49977E+01 4.02858E+02 6.72360E+03 1.62577E-08-1.41145E-09
 -1       651 1.10246E+04 1.51973E+01 8.10948E+02 4.45071E+03-4.83624E-09-4.47017E-09
 -1       652 1.11727E+04 1.18219E+02 1.69821E+03 6.72148E+03-1.57683E-08-7.77709E-09
 -1       653 1.09178E+04 3.90321E+01 3.29063E+03 4.45225E+03 1.07943E-08-4.28986E-09
 -1       654 1.28459E+04 1.96035E+03 7.43296E+03 6.67488E+03-1.67847E-09-4.45652E-10
 -1       655 9.35896E+03 1.51842E+03 1.33456E+04 4.48676E+03 1.94223E-09-2.23599E-09
 -1       656-4.81737E+03-2.96420E+05-3.90458E+04 9.01306E+04 2.04091E-09 3.26690E-09
 -1       657-6.38759E+03-3.06414E+05-2.46052E+04 1.35368E+05 4.22165E-09 4.15639E-09
 -1       658-5.76978E+02-3.00725E+05-1.67035E+04 8.98764E+04 2.02499E-09-4.61114E-10
 -1       659-5.44351E+03-3.05715E+05-2.17937E+04 1.35488E+05-4.90218E-09-2.38612E-09
 -1       660-3.98909E+03-2.97364E+05-3.28746E+04 9.00206E+04 2.00635E-09-6.62112E-10
 -1       661 2.25546E+05 3.62204E+04 1.64511E+04 8.87382E+04 4.59636E-09-2.75577E-10
 -1       662 2.28450E+05 3.95884E+04 9.00140E+03 9.14670E+04-2.40925E-08-3.42425E-10
 -1       663 2.27270E+05 3.54420E+04 3.73192E+03 8.98334E+04-1.73773E-08-6.49152E-10
 -1       664 2.26122E+05 3.70626E+04 1.87053E+03 9.15676E+04-2.03213E-08-1.90949E-09
 -1       665 2.27403E+05 3.54517E+04 8.63797E+02 8.98866E+04 1.09990E-08 6.76067E-10
 -1       666 2.25960E+05 3.69409E+04 4.53757E+02 9.15524E+04 2.13170E-08 3.31687E-09
 -1       667 2.27420E+05 3.54605E+04 2.74939E+02 8.98885E+04 1.49209E-08 8.73172E-10
 -1       668 2.25947E+05 3.69374E+04 2.72824E+02 9.15525E+04-1.61515E-08-3.23905E-09
 -1       669 2.27419E+05 3.54556E+04 4.11801E+02 8.98876E+04 3.85285E-09-5.89830E-09
 -1       670 2.25979E+05 3.69498E+04 8.16668E+02 9.15667E+04 4.93133E-08-3.70028E-09
 -1       671 2.27390E+05 3.54320E+04 1.63643E+03 8.98822E+04 1.28891E-08-2.80784E-09
 -1       672 2.26293E+05 3.71873E+04 3.58923E+03 9.16045E+04-2.25186E-08-1.94666E-09
 -1       673 2.27137E+05 3.54095E+04 7.18031E+03 8.97794E+04-5.94036E-09-1.07957E-09
 -1       674 2.30801E+05 4.20324E+04 1.73329E+04 9.13921E+04 2.18074E-08-2.65663E-09
 -1       675 2.23795E+05 3.69293E+04 3.16815E+04 8.76964E+04 1.34021E-08 7.49424E-10
 -1       676-1.57945E+03-2.64754E+05-1.45320E+04 9.59000E+03 4.25462E-09 1.36629E-09
 -1       677-2.15938E+03-2.68506E+05-9.76903E+03 1.39987E+04-1.20611E-08-3.61206E-09
 -1       678-8.71789E+01-2.66211E+05-7.70528E+03 9.55362E+03 6.72560E-09 3.94243E-09
 -1       679-2.75016E+03-2.69048E+05-1.16365E+04 1.40460E+04-7.07485E-09 2.75179E-10
 -1       680-2.05746E+03-2.64222E+05-1.86193E+04 9.54000E+03 1.52813E-08-3.33847E-09
 -1       681 4.41375E+05 2.32322E+03 2.24316E+04-3.94315E+04 2.91038E-11 3.79032E-10
 -1       682 4.47282E+05 3.08727E+03 1.25171E+04-5.90860E+04 1.93722E-10-5.08408E-10
 -1       683 4.43884E+05-7.97116E+01 5.53884E+03-3.91595E+04 5.63887E-11 4.97948E-10
 -1       684 4.44301E+05 6.57758E+01 2.89059E+03-5.93447E+04 8.00355E-11 1.90994E-10
 -1       685 4.43978E+05-5.61536E+01 1.42357E+03-3.91660E+04 1.24601E-10 1.85992E-10
 -1       686 4.43991E+05-3.53567E+00 8.09600E+02-5.93289E+04 3.81988E-11 3.66981E-10
 -1       687 4.43949E+05-5.79930E+00 5.52807E+02-3.91757E+04-2.81943E-11 4.12911E-10
 -1       688 4.43931E+05 1.75357E+01 6.04521E+02-5.93166E+04-4.88285E-11 9.19954E-10
 -1       689 4.43931E+05-5.35563E+00 9.28814E+02-3.91784E+04-1.96792E-10 2.89674E-10
 -1       690 4.44008E+05 1.46281E+01 1.76841E+03-5.93201E+04 3.49019E-10-2.90584E-10
 -1       691 4.43902E+05-6.49275E+01 3.40141E+03-3.91720E+04-5.54792E-11-1.05933E-09
 -1       692 4.44587E+05 2.83938E+02 7.04626E+03-5.93273E+04 2.13731E-11-2.98371E-10
 -1       693 4.43520E+05-1.04996E+01 1.36061E+04-3.91706E+04-2.00089E-11-6.86668E-10
 -1       694 4.51622E+05 7.83654E+03 3.07251E+04-5.90932E+04-9.59517E-10-1.23691E-09
 -1       695 4.37167E+05 6.04031E+03 5.51407E+04-3.94192E+04-8.56744E-10-1.34605E-10
 -1       696 4.08151E+03 5.63898E+05 3.41396E+04-8.85913E+04 7.63976E-11-6.07542E-10
 -1       697 5.30833E+03 5.72642E+05 1.80931E+04-1.33222E+05 2.06569E-10-5.35465E-10
 -1       698 2.81168E+02 5.67954E+05 6.12042E+03-8.84039E+04-2.54090E-10 1.62856E-09
 -1       699-7.87783E+02 5.67148E+05-1.09187E+03-1.33203E+05-3.16959E-10 1.83718E-09
 -1       700-9.08445E+02 5.69460E+05-7.87068E+03-8.86220E+04-2.97405E-10 1.69621E-09
 -1       701-4.00734E+05-7.62274E+04-6.38412E+04-1.69653E+05 5.45697E-12-3.27418E-10
 -1       702-4.09905E+05-9.14032E+04-3.49265E+04-1.82735E+05-2.29193E-10 1.41881E-09
 -1       703-4.07611E+05-7.30431E+04-1.44786E+04-1.73753E+05-1.00044E-11 1.04592E-09
 -1       704-4.00777E+05-8.17211E+04-7.23658E+03-1.83330E+05 1.89175E-10-3.23780E-10
 -1       705-4.08173E+05-7.30421E+04-3.31708E+03-1.73959E+05 5.82077E-11 6.76437E-10
 -1       706-4.00160E+05-8.12567E+04-1.67663E+03-1.83324E+05 8.82210E-11-3.89718E-10
 -1       707-4.08266E+05-7.30586E+04-8.99176E+02-1.73972E+05 1.12323E-10-5.86624E-10
 -1       708-4.00111E+05-8.12399E+04-6.94146E+02-1.83339E+05 1.20735E-10 5.89566E-10
 -1       709-4.08283E+05-7.30475E+04-8.53753E+02-1.73975E+05-7.75344E-11-7.96945E-11
 -1       710-4.00172E+05-8.12598E+04-1.56073E+03-1.83366E+05-2.35332E-10 4.32237E-10
 -1       711-4.08224E+05-7.30081E+04-3.06506E+03-1.73967E+05-1.23634E-10 3.36513E-10
 -1       712-4.00757E+05-8.16954E+04-6.68968E+03-1.83415E+05-1.91562E-11-3.11957E-10
 -1       713-4.07734E+05-7.29868E+04-1.33731E+04-1.73779E+05-1.09594E-09-3.56067E-09
 -1       714-4.09160E+05-9.06972E+04-3.22779E+04-1.82958E+05 2.95586E-11-2.57387E-10
 -1       715-4.01440E+05-7.58677E+04-5.89887E+04-1.69947E+05 2.56932E-10-4.00178E-11
 -1       716 3.58997E+05 5.09594E+03 4.73816E+04-5.07816E+04 4.16549E-10 1.47247E-09
 -1       717 3.71439E+05 6.69535E+03 2.64199E+04-7.60369E+04 3.34694E-10-5.07498E-10
 -1       718 3.64371E+05-3.86792E+01 1.16990E+04-5.04476E+04 1.78261E-10 6.28461E-10
 -1       719 3.65268E+05 2.60303E+02 6.08457E+03-7.63572E+04 1.11868E-10 9.29504E-10
 -1       720 3.64636E+05-3.95566E+01 2.97474E+03-5.04495E+04 4.43833E-10 6.05269E-10
 -1       721 3.64703E+05 6.61446E+01 1.63114E+03-7.63485E+04 6.63931E-10 8.50378E-10
 -1       722 3.64627E+05 3.16303E+01 1.01470E+03-5.04571E+04 6.84167E-10 1.33696E-09
 -1       723 3.64627E+05 7.88227E+01 9.60757E+02-7.63422E+04 9.09665E-10 6.79393E-10
 -1       724 3.64630E+05 1.80520E+01 1.34003E+03-5.04559E+04 2.58296E-10 2.10093E-10
 -1       725 3.64775E+05 5.13720E+01 2.46544E+03-7.63536E+04 6.56200E-10 3.40606E-10
 -1       726 3.64626E+05-8.91635E+01 4.69177E+03-5.04454E+04-5.63887E-11-7.41693E-10
 -1       727 3.65632E+05 3.89331E+02 9.70485E+03-7.63664E+04 7.08496E-10-9.04436E-10
 -1       728 3.64146E+05-4.84164E+01 1.87211E+04-5.04419E+04 3.01952E-10-1.94177E-10
 -1       729 3.75398E+05 1.07481E+04 4.22937E+04-7.60202E+04-5.31145E-10 7.16227E-10
 -1       730 3.55458E+05 8.24152E+03 7.58900E+04-5.08146E+04 1.38243E-10-2.94676E-10
 -1       731 3.77210E+03 1.96126E+05 3.15641E+04-1.39684E+05 2.43745E-10-6.59384E-10
 -1       732 5.08567E+03 2.04136E+05 1.79351E+04-2.10695E+05 2.39197E-10-8.46740E-10
 -1       733 3.65484E+02 1.99674E+05 8.58341E+03-1.39417E+05 2.04636E-10 1.23964E-09
 -1       734 1.16663E+03 2.00905E+05 5.91957E+03-2.10558E+05 2.31012E-10 2.01635E-09
 -1       735 4.55989E+02 1.99859E+05 5.21926E+03-1.39827E+05 2.06455E-10 1.17143E-09
 -1       736-8.30176E+05-1.38352E+05-7.83028E+04-3.31468E+05-4.37922E-10 4.80213E-10
 -1       737-8.42750E+05-1.55639E+05-4.28402E+04-3.45971E+05-1.04774E-09-4.50837E-09
 -1       738-8.38576E+05-1.34479E+05-1.77492E+04-3.36507E+05-1.60981E-10-1.40517E-09
 -1       739-8.31551E+05-1.43749E+05-8.86968E+03-3.46675E+05-2.31466E-10-1.98270E-10
 -1       740-8.39263E+05-1.34476E+05-4.05452E+03-3.36745E+05 5.00222E-10 6.98492E-10
 -1       741-8.30767E+05-1.43192E+05-2.03516E+03-3.46669E+05 5.61386E-10 1.23009E-10
 -1       742-8.39376E+05-1.34500E+05-1.06051E+03-3.36752E+05 2.05046E-09 6.71639E-09
 -1       743-8.30689E+05-1.43179E+05-7.63631E+02-3.46685E+05-4.13706E-10 4.87830E-10
 -1       744-8.39392E+05-1.34493E+05-8.67598E+02-3.36750E+05-2.77623E-10-6.64613E-10
 -1       745-8.30739E+05-1.43200E+05-1.52838E+03-3.46703E+05-5.25233E-11-8.21728E-10
 -1       746-8.39328E+05-1.34463E+05-2.97080E+03-3.36743E+05 5.07498E-10 1.71440E-10
 -1       747-8.31310E+05-1.43612E+05-6.46774E+03-3.46728E+05 5.12955E-10 1.39153E-09
 -1       748-8.38838E+05-1.34456E+05-1.29235E+04-3.36568E+05 1.84627E-10 1.27966E-09
 -1       749-8.39466E+05-1.52273E+05-3.11928E+04-3.46226E+05-1.55751E-11 8.84029E-10
 -1       750-8.32722E+05-1.37278E+05-5.70098E+04-3.32905E+05-1.26192E-10 6.23913E-10
 -1       751 7.56992E+05 1.26394E+04 1.15489E+05-6.25829E+04 2.54659E-10 4.91127E-10
 -1       752 7.87269E+05 1.64173E+04 6.43526E+04-9.37681E+04-7.78527E-10-2.06637E-09
 -1       753 7.70250E+05-1.48153E+01 2.85076E+04-6.21903E+04-2.60115E-10 7.69433E-10
 -1       754 7.72480E+05 6.33680E+02 1.47866E+04-9.41038E+04-7.55790E-10 2.23099E-09
 -1       755 7.71021E+05-1.07499E+02 7.17786E+03-6.22114E+04 2.82853E-10-1.27693E-09
 -1       756 7.71239E+05 8.70983E+01 3.81467E+03-9.40663E+04 2.87400E-10-4.02906E-10
 -1       757 7.71066E+05 2.43021E+01 2.16107E+03-6.22298E+04-3.88582E-10-9.10404E-10
 -1       758 7.71082E+05 9.54938E+01 1.70502E+03-9.40547E+04-7.11680E-11-7.71252E-10
 -1       759 7.71093E+05 8.75788E+00 2.01923E+03-6.22233E+04 3.81988E-11-3.08773E-10
 -1       760 7.71295E+05 4.66793E+01 3.45819E+03-9.40892E+04-1.16052E-09 1.93950E-09
 -1       761 7.71111E+05-1.50530E+02 6.43814E+03-6.21949E+04 3.05590E-10 1.53341E-09
 -1       762 7.72500E+05 4.85481E+02 1.32463E+04-9.41492E+04 6.86668E-10 1.06627E-09
 -1       763 7.70488E+05-1.18021E+02 2.55104E+04-6.21611E+04 2.36469E-11 3.27418E-10
 -1       764 7.85858E+05 1.45635E+04 5.76168E+04-9.37838E+04 1.14778E-09 1.18962E-09
 -1       765 7.58687E+05 1.11548E+04 1.03370E+05-6.26039E+04-1.33150E-09 2.05182E-09
 -1       766 8.61670E+03 3.34114E+05 7.69961E+04-1.64480E+05-4.00178E-11 7.62157E-10
 -1       767 1.17736E+04 3.53914E+05 4.92199E+04-2.48064E+05 2.09548E-09-2.94676E-10
 -1       768 5.80086E+02 3.42119E+05 3.44924E+04-1.64198E+05-7.27596E-12 1.34696E-09
 -1       769 1.07502E+04 3.53573E+05 4.66079E+04-2.47855E+05 1.68438E-09-1.71349E-09
 -1       770 7.56397E+03 3.35359E+05 7.12100E+04-1.64707E+05-9.45874E-11 1.09139E-11
 -1       771-1.76079E+06-3.12278E+05-1.54682E+05-7.03690E+05-1.38516E-09 1.41154E-09
 -1       772-1.78159E+06-3.25651E+05-8.15146E+04-7.35301E+05 4.32919E-10 1.57343E-10
 -1       773-1.77379E+06-2.90028E+05-3.42667E+04-7.18541E+05 1.02773E-10-1.26784E-09
 -1       774-1.76166E+06-3.05305E+05-1.69535E+04-7.36214E+05-1.59525E-09-2.88492E-09
 -1       775-1.77493E+06-2.89568E+05-7.80424E+03-7.19118E+05 9.08585E-10 8.01947E-10
 -1       776-1.76036E+06-3.04529E+05-3.93230E+03-7.36152E+05 1.44610E-09 7.41636E-10
 -1       777-1.77513E+06-2.89637E+05-2.09501E+03-7.19132E+05-3.85626E-10-1.53000E-09
 -1       778-1.76023E+06-3.04516E+05-1.59591E+03-7.36136E+05-8.26674E-10-1.15051E-09
 -1       779-1.77512E+06-2.89651E+05-1.93515E+03-7.19131E+05-9.96806E-10-1.70985E-10
 -1       780-1.76034E+06-3.04519E+05-3.50890E+03-7.36106E+05-2.08138E-09-3.04135E-09
 -1       781-1.77491E+06-2.89620E+05-6.90104E+03-7.19118E+05-6.27551E-10-1.72713E-09
 -1       782-1.76147E+06-3.05190E+05-1.49509E+04-7.36106E+05 5.12046E-10-2.21917E-09
 -1       783-1.77386E+06-2.90056E+05-3.02059E+04-7.18607E+05-3.75621E-10 2.01908E-09
 -1       784-1.77908E+06-3.23058E+05-7.18371E+04-7.35182E+05 1.45974E-10-1.28057E-09
 -1       785-1.76231E+06-3.09737E+05-1.36319E+05-7.05568E+05 1.33832E-09-2.29920E-09
 -1       786 6.48281E+05 1.00202E+04 9.25315E+04-6.31308E+04 1.90630E-09-1.22236E-09
 -1       787 6.72571E+05 1.30460E+04 5.15665E+04-9.47726E+04-5.15683E-10-5.00222E-11
 -1       788 6.58862E+05-8.18588E+01 2.28331E+04-6.27396E+04-1.85537E-09 3.18323E-10
 -1       789 6.60662E+05 4.22991E+02 1.18325E+04-9.51105E+04-1.05683E-09 4.91127E-10
 -1       790 6.59456E+05-1.37269E+02 5.71800E+03-6.27549E+04 1.23691E-10 2.00998E-10
 -1       791 6.59645E+05-3.91876E+00 2.98737E+03-9.50854E+04-5.82077E-11-1.36606E-09
 -1       792 6.59492E+05-2.80502E+01 1.59286E+03-6.27663E+04 1.64732E-10-8.94943E-10
 -1       793 6.59524E+05-3.21589E+00 1.08138E+03-9.50829E+04-2.18051E-10-2.08638E-09
 -1       794 6.59542E+05-4.74034E+01 1.05298E+03-6.27577E+04-2.46473E-10-1.14687E-09
 -1       795 6.59696E+05-7.09015E+01 1.61708E+03-9.51211E+04 4.29281E-10 2.85900E-09
 -1       796 6.59639E+05-1.81084E+02 2.88596E+03-6.27277E+04-1.31513E-09-1.19326E-09
 -1       797 6.60407E+05 2.95193E+01 5.89947E+03-9.51736E+04-1.34241E-09-9.34506E-10
 -1       798 6.59508E+05-2.75005E+02 1.13070E+04-6.27035E+04-6.22094E-10-8.21274E-10
 -1       799 6.66616E+05 6.15291E+03 2.55875E+04-9.47774E+04-6.41012E-09 2.04682E-09
 -1       800 6.54453E+05 4.58186E+03 4.58386E+04-6.31494E+04 1.40062E-09 3.89264E-09
 -1       801 4.00256E+03-3.49768E+04 2.74079E+04-4.06262E+05 3.90537E-09-9.02219E-10
 -1       802 7.78553E+03-2.99969E+04 2.09200E+04-6.12737E+05 2.24463E-09-2.24827E-09
 -1       803 2.66485E+03-3.42820E+04 1.99254E+04-4.05279E+05 5.52245E-09 1.90039E-09
 -1       804 1.19227E+04-2.57411E+04 3.44858E+04-6.12650E+05 1.09139E-09-1.72440E-09
 -1       805 7.19089E+03-3.84582E+04 5.70608E+04-4.06348E+05 4.59295E-09 9.56788E-10
 -1       806-1.10052E+06-2.11127E+05-9.52140E+04-4.61281E+05 3.10138E-10-2.67755E-09
 -1       807-1.10761E+06-2.25020E+05-5.01664E+04-4.87256E+05-1.01500E-09 7.74889E-10
 -1       808-1.10864E+06-1.97317E+05-2.11011E+04-4.70377E+05-3.51065E-10 1.20417E-09
 -1       809-1.09532E+06-2.12568E+05-1.04433E+04-4.87945E+05 3.83807E-10-1.99179E-09
 -1       810-1.10938E+06-1.97017E+05-4.82047E+03-4.70751E+05 1.04774E-09-1.68438E-09
 -1       811-1.09455E+06-2.12081E+05-2.45044E+03-4.87922E+05-3.11047E-10 1.21281E-09
 -1       812-1.10950E+06-1.97056E+05-1.35152E+03-4.70767E+05 1.32559E-10-3.62888E-10
 -1       813-1.09448E+06-2.12069E+05-1.11510E+03-4.87905E+05-1.08997E-09 1.25965E-10
 -1       814-1.10948E+06-1.97070E+05-1.46671E+03-4.70760E+05-2.14641E-10 6.11180E-10
 -1       815-1.09454E+06-2.12083E+05-2.75129E+03-4.87868E+05 1.52204E-09-1.96906E-09
 -1       816-1.10928E+06-1.97054E+05-5.46282E+03-4.70731E+05-1.30603E-09 5.42968E-10
 -1       817-1.09540E+06-2.12633E+05-1.18540E+04-4.87844E+05 1.67074E-09-1.57343E-09
 -1       818-1.10842E+06-1.97424E+05-2.39627E+04-4.70302E+05 3.94721E-10-5.23869E-10
 -1       819-1.10935E+06-2.26746E+05-5.69559E+04-4.87005E+05-4.35102E-09 4.11092E-10
 -1       820-1.09916E+06-2.13115E+05-1.08101E+05-4.59974E+05-5.49517E-09 1.89175E-09
 -1       821-4.33390E+05-6.80930E+03-6.12838E+04 2.66652E+04-1.39589E-08 2.56114E-09
 -1       822-4.49456E+05-8.66083E+03-3.41312E+04 4.02676E+04-5.62068E-09-1.18962E-09
 -1       823-4.40626E+05 3.43013E+01-1.51385E+04 2.63646E+04 1.05756E-08-1.27420E-09
 -1       824-4.41908E+05-1.37206E+02-7.83309E+03 4.05713E+04-5.56520E-09-2.10230E-09
 -1       825-4.41185E+05 1.98235E+02-3.80353E+03 2.63304E+04-1.80544E-08 1.27829E-09
 -1       826-4.41430E+05 2.50558E+02-1.99748E+03 4.06172E+04-3.28591E-08 3.21756E-09
 -1       827-4.41291E+05 1.89869E+02-1.10532E+03 2.63159E+04-1.67147E-08 4.97948E-10
 -1       828-4.41415E+05 2.84454E+02-8.18847E+02 4.06395E+04-1.79803E-08 1.50612E-09
 -1       829-4.41318E+05 2.03972E+02-9.12927E+02 2.63075E+04-1.35765E-09 1.13073E-09
 -1       830-4.41477E+05 2.90470E+02-1.51151E+03 4.06483E+04 1.53370E-08 1.04728E-09
 -1       831-4.41278E+05 2.35322E+02-2.79698E+03 2.63067E+04-8.14168E-09 2.16085E-09
 -1       832-4.41876E+05 3.42410E+01-5.73009E+03 4.06372E+04 1.27397E-09 1.11470E-10
 -1       833-4.40900E+05 1.37829E+02-1.10499E+04 2.63200E+04-1.80717E-09-1.01409E-09
 -1       834-4.47431E+05-6.16989E+03-2.49232E+04 4.04815E+04 3.34512E-09 7.00311E-10
 -1       835-4.35639E+05-4.84371E+03-4.47399E+04 2.64965E+04 3.53157E-09 8.98581E-10
 -1       836 6.34812E+03 7.06811E+05 5.51216E+04-1.49623E+05 1.38243E-10-1.67711E-09
 -1       837 9.06707E+03 7.20655E+05 3.86314E+04-2.24794E+05-8.78572E-10-1.05001E-09
 -1       838 9.27094E+02 7.11932E+05 3.30207E+04-1.49332E+05 1.31877E-09 3.13230E-09
 -1       839 1.35832E+04 7.24953E+05 5.30844E+04-2.24720E+05-1.84809E-09-1.16279E-09
 -1       840 9.96690E+03 7.02816E+05 8.67570E+04-1.49688E+05 7.71252E-10 1.81535E-09
 -1       841 6.71607E+04 2.68308E+04-8.66746E+03 4.92660E+04-2.73758E-09 1.62254E-09
 -1       842 5.60158E+04 3.47244E+04-4.73072E+03 5.87385E+04-5.65524E-09-3.64400E-09
 -1       843 6.63612E+04 2.71097E+04-1.96949E+03 4.84693E+04 6.67023E-09-1.25738E-09
 -1       844 5.69930E+04 3.62495E+04-9.70952E+02 5.88279E+04-5.70071E-09-5.73709E-09
 -1       845 6.62564E+04 2.71290E+04-4.32458E+02 4.84065E+04-3.46972E-09-3.30601E-10
 -1       846 5.70192E+04 3.63382E+04-1.77943E+02 5.88039E+04-1.22382E-08-5.62363E-09
 -1       847 6.62163E+04 2.71436E+04-2.00780E+01 4.83868E+04-7.35599E-09 4.66144E-10
 -1       848 5.70042E+04 3.63543E+04 1.28930E+02 5.87841E+04-4.03088E-09 1.40485E-08
 -1       849 6.61911E+04 2.71470E+04 3.42047E+02 4.83758E+04 3.43744E-09 4.01781E-09
 -1       850 5.70298E+04 3.63703E+04 7.76538E+02 5.87856E+04 3.84648E-09-2.76009E-09
 -1       851 6.61548E+04 2.71269E+04 1.60405E+03 4.83697E+04 1.21909E-09-4.54042E-09
 -1       852 5.73524E+04 3.65984E+04 3.54257E+03 5.88197E+04 1.46762E-08-3.12866E-09
 -1       853 6.59094E+04 2.71021E+04 7.09480E+03 4.82786E+04 6.12272E-09 4.51655E-09
 -1       854 6.18952E+04 4.13200E+04 1.71365E+04 5.85573E+04-3.36331E-09 3.33466E-09
 -1       855 6.25703E+04 2.86465E+04 3.13189E+04 4.62987E+04-1.02841E-09 2.81398E-09
 -1       856-1.77142E+05-2.06527E+03-1.92346E+04 1.56091E+04-1.40071E-08-1.03864E-09
 -1       857-1.82220E+05-2.61788E+03-1.07122E+04 2.36308E+04-6.04496E-09-3.09228E-11
 -1       858-1.79408E+05 8.01311E+01-4.74842E+03 1.54816E+04-3.88673E-09 7.53971E-10
 -1       859-1.79841E+05 5.26869E+01-2.45606E+03 2.37535E+04 3.46245E-09 8.44921E-10
 -1       860-1.79577E+05 1.26482E+02-1.18776E+03 1.54717E+04 4.65570E-09-9.38371E-10
 -1       861-1.79680E+05 1.68481E+02-6.17870E+02 2.37643E+04-1.89834E-08 1.93950E-10
 -1       862-1.79603E+05 1.18091E+02-3.28758E+02 1.54701E+04 1.15466E-08-2.91948E-10
 -1       863-1.79662E+05 1.72636E+02-2.21871E+02 2.37658E+04 4.02874E-08-1.29285E-09
 -1       864-1.79605E+05 1.15619E+02-2.17629E+02 1.54701E+04 1.27752E-08-4.21551E-10
 -1       865-1.79664E+05 1.68166E+02-3.33578E+02 2.37636E+04 1.78848E-08 5.33760E-10
 -1       866-1.79589E+05 1.16055E+02-6.02017E+02 1.54723E+04 3.42015E-09-4.00746E-10
 -1       867-1.79734E+05 1.06123E+02-1.22275E+03 2.37530E+04 7.18501E-11 1.98395E-09
 -1       868-1.79498E+05 8.75612E+01-2.35526E+03 1.54812E+04 1.26438E-08-2.01939E-09
 -1       869-1.80897E+05-1.22295E+03-5.30462E+03 2.36278E+04-1.13014E-08 7.91232E-10
 -1       870-1.78368E+05-9.81659E+02-9.52544E+03 1.56049E+04 1.40062E-08 1.53614E-09
 -1       871-3.10622E+03-7.97758E+04-9.20529E+03 1.51252E+05 4.63297E-09 1.12959E-09
 -1       872-2.25722E+03-8.17815E+04-3.39207E+03 2.05419E+05-3.92902E-10 2.61934E-10
 -1       873-7.46759E+02-8.11485E+04 1.55791E+03 1.50929E+05 9.47603E-09 2.08382E-09
 -1       874 9.87909E+02-7.88057E+04 7.67879E+03 2.05424E+05-1.12141E-09-2.92130E-09
 -1       875 2.71814E+03-8.27692E+04 1.59522E+04 1.51275E+05 8.89122E-09 9.94987E-10
 -1       876 2.95045E+05 5.19245E+04 3.04371E+04 1.21127E+05 4.74824E-09-4.88399E-09
 -1       877 2.99240E+05 5.93490E+04 1.66530E+04 1.27526E+05-1.11681E-08-3.57795E-09
 -1       878 2.98270E+05 5.04463E+04 6.90152E+03 1.23102E+05 4.21551E-10-2.22099E-09
 -1       879 2.94884E+05 5.47191E+04 3.45486E+03 1.27749E+05-1.77079E-08-3.08421E-09
 -1       880 2.98508E+05 5.04692E+04 1.58574E+03 1.23197E+05 8.82255E-09 3.96835E-09
 -1       881 2.94580E+05 5.44927E+04 8.13369E+02 1.27711E+05 1.63396E-08-1.34630E-09
 -1       882 2.98534E+05 5.04927E+04 4.54971E+02 1.23202E+05 2.29437E-08 4.17353E-09
 -1       883 2.94552E+05 5.44818E+04 3.88399E+02 1.27700E+05 2.22053E-09 3.73393E-09
 -1       884 2.98532E+05 5.04915E+04 5.23633E+02 1.23202E+05-7.42855E-09 1.56092E-10
 -1       885 2.94591E+05 5.44947E+04 9.95300E+02 1.27713E+05 5.22541E-08 7.57677E-09
 -1       886 2.98497E+05 5.04634E+04 1.97323E+03 1.23196E+05 1.50242E-08-4.46744E-09
 -1       887 2.94971E+05 5.47784E+04 4.31630E+03 1.27760E+05-4.64197E-08-1.28107E-08
 -1       888 2.98197E+05 5.04348E+04 8.62943E+03 1.23075E+05-7.51083E-09 2.66027E-09
 -1       889 3.00405E+05 6.05867E+04 2.08279E+04 1.27496E+05 6.12999E-09-7.85803E-09
 -1       890 2.94174E+05 5.22691E+04 3.80677E+04 1.20587E+05 1.27702E-08 3.10865E-09
 -1       891-1.14310E+03-1.49931E+05-7.15066E+03 6.48571E+04 4.13092E-09 3.87354E-09
 -1       892-1.56361E+03-1.51628E+05-4.75294E+03 9.76110E+04-5.20004E-09-2.31194E-09
 -1       893-3.73957E+02-1.50696E+05-3.67668E+03 6.47088E+04 3.75621E-10 2.66942E-09
 -1       894-1.79331E+03-1.51820E+05-5.45948E+03 9.75937E+04-8.05721E-09 1.04524E-09
 -1       895-1.33662E+03-1.49713E+05-8.69928E+03 6.48728E+04-5.00575E-09 1.48339E-09
 -1       896 7.68517E+05 9.99335E+02 1.01085E+04-2.89583E+04 8.73115E-11-1.70076E-10
 -1       897 7.71152E+05 1.35044E+03 5.64802E+03-4.34728E+04-1.45519E-10-9.36780E-11
 -1       898 7.69628E+05-6.87362E+01 2.50041E+03-2.87566E+04-3.11047E-10-1.21190E-10
 -1       899 7.69774E+05 3.45895E+00 1.31920E+03-4.36514E+04 4.09273E-12 1.01409E-10
 -1       900 7.69651E+05-4.41961E+01 6.71279E+02-2.87770E+04 1.09139E-11 2.41698E-10
 -1       901 7.69610E+05-1.40302E+01 4.31121E+02-4.36123E+04-7.91260E-11 9.27685E-11
 -1       902 7.69621E+05-1.18936E+01 3.78831E+02-2.87959E+04-1.02773E-10-6.00267E-11
 -1       903 7.69571E+05 5.19283E+00 5.39850E+02-4.35840E+04 2.07820E-10-2.69210E-10
 -1       904 7.69593E+05-1.07122E+01 9.45000E+02-2.88053E+04-1.39380E-10 2.11912E-10
 -1       905 7.69634E+05 1.44300E+01 1.87458E+03-4.35767E+04-7.04858E-11-3.42425E-10
 -1       906 7.69535E+05-5.58074E+01 3.64883E+03-2.88032E+04-1.16643E-10 7.95808E-12
 -1       907 7.70201E+05 3.34017E+02 7.57426E+03-4.35835E+04-1.43245E-11 2.41968E-10
 -1       908 7.69075E+05 3.83490E+01 1.46426E+04-2.87981E+04 5.72982E-11 2.11003E-10
 -1       909 7.77673E+05 8.49928E+03 3.30490E+04-4.34493E+04-2.32831E-10-4.93401E-10
 -1       910 7.62174E+05 6.60055E+03 5.93295E+04-2.89443E+04-8.00355E-11-4.62023E-10
 -1       911 1.64329E+05-5.05526E+00 3.55595E+02-2.24130E+04-3.63798E-11 7.09406E-11
 -1       912 1.64419E+05 2.59461E+01 2.07819E+02-3.35435E+04 4.36557E-11 2.77623E-10
 -1       913 1.64336E+05-1.81593E+01 9.68023E+01-2.22603E+04-3.18323E-10 3.35376E-11
 -1       914 1.64323E+05-3.66757E-01 7.04710E+01-3.36998E+04-4.08818E-10-6.77119E-10
 -1       915 1.64312E+05-2.29708E-01 6.86918E+01-2.22567E+04 5.63887E-11-5.92536E-10
 -1       916 1.64293E+05 1.28499E+01 1.09329E+02-3.37016E+04 1.38016E-10-3.90401E-10
 -1       917 1.64297E+05 6.88323E+00 1.97626E+02-2.22585E+04 1.23237E-10 1.22782E-11
 -1       918 1.64296E+05 1.61252E+01 3.94901E+02-3.36998E+04 8.44054E-11 3.68800E-10
 -1       919 1.64286E+05-4.42029E+00 7.71933E+02-2.22585E+04-4.13820E-11 1.70530E-12
 -1       920 1.64369E+05 1.44380E+01 1.57792E+03-3.37013E+04 1.13459E-10-5.32964E-10
 -1       921 1.64244E+05-4.96993E+01 3.09482E+03-2.22569E+04 6.91216E-11 1.85963E-10
 -1       922 1.64861E+05 2.81782E+02 6.44005E+03-3.36992E+04 5.41149E-11 4.89734E-10
 -1       923 1.63858E+05 2.76528E+01 1.24569E+04-2.22603E+04 3.00133E-11 2.14641E-10
 -1       924 1.71227E+05 7.23518E+03 2.81297E+04-3.35429E+04-9.04947E-11 6.20730E-10
 -1       925 1.57988E+05 5.60833E+03 5.05012E+04-2.24188E+04 4.00178E-11-3.16504E-10
 -1       926-9.23359E+05-6.36084E+03-5.62574E+04-4.22524E+04 5.71163E-10 3.31056E-10
 -1       927-9.38027E+05-8.12042E+03-3.13275E+04-6.33977E+04 1.61890E-10 7.78300E-10
 -1       928-9.30024E+05-6.22788E+01-1.38837E+04-4.19782E+04-4.00178E-11-1.93722E-10
 -1       929-9.31115E+05-2.82114E+02-7.17911E+03-6.37184E+04-8.25366E-10-8.62542E-10
 -1       930-9.30537E+05 8.83786E+01-3.47190E+03-4.19387E+04 9.50422E-11 1.47793E-10
 -1       931-9.30653E+05 6.25660E+01-1.80936E+03-6.37632E+04-4.63842E-11-1.84173E-10
 -1       932-9.30606E+05 5.94478E+01-9.71417E+02-4.19327E+04-2.84672E-10-1.47566E-10
 -1       933-9.30574E+05 5.88085E+01-6.72394E+02-6.37547E+04 2.37378E-10 2.38742E-10
 -1       934-9.30578E+05 2.83865E+01-6.89487E+02-4.19471E+04 1.82808E-10-2.77396E-11
 -1       935-9.30512E+05 7.66618E+00-1.07963E+03-6.37028E+04-9.51786E-10-1.42791E-10
 -1       936-9.30470E+05-1.23005E+01-1.97517E+03-4.19847E+04 1.30967E-10 1.89630E-10
 -1       937-9.30639E+05-2.51343E+02-4.00467E+03-6.35937E+04 2.91038E-10-5.02041E-10
 -1       938-9.30095E+05-1.65190E+02-7.73380E+03-4.20565E+04-2.36469E-11-9.71795E-10
 -1       939-9.34312E+05-4.67262E+03-1.73837E+04-6.31051E+04 1.03319E-09-1.02318E-10
 -1       940-9.26299E+05-3.73684E+03-3.12448E+04-4.24613E+04-5.82077E-10 9.91349E-10
 -1       941 8.93042E+05 1.64447E+04 1.48396E+05-4.61885E+04 1.09139E-09 0.00000E+00
 -1       942 9.31909E+05 2.11550E+04 8.26495E+04-6.94752E+04-9.15861E-10-1.79352E-09
 -1       943 9.10266E+05 3.13184E+01 3.66329E+04-4.58962E+04-3.71074E-10 3.81988E-11
 -1       944 9.13198E+05 7.53726E+02 1.89780E+04-6.96981E+04-1.21418E-10-8.53106E-10
 -1       945 9.11397E+05-1.92750E+02 9.19776E+03-4.59144E+04 4.44743E-10 4.09273E-10
 -1       946 9.11763E+05-3.30488E+01 4.83925E+03-6.96719E+04 7.88532E-10 1.24783E-09
 -1       947 9.11524E+05-7.33027E+01 2.66169E+03-4.59239E+04 6.09219E-10 9.24047E-10
 -1       948 9.11605E+05-4.79482E+01 1.95856E+03-6.96743E+04 1.70076E-10 7.62157E-10
 -1       949 9.11563E+05-8.43843E+01 2.14626E+03-4.59124E+04-7.53062E-10-1.39926E-09
 -1       950 9.11782E+05-8.08761E+01 3.52857E+03-6.97185E+04 1.45383E-09 1.25192E-09
 -1       951 9.11543E+05-2.12383E+02 6.49109E+03-4.58790E+04-1.78261E-09-1.17001E-09
 -1       952 9.12894E+05 4.09735E+02 1.33014E+04-6.97840E+04-1.95632E-09-3.71756E-10
 -1       953 9.10835E+05-1.16560E+02 2.56081E+04-4.58452E+04-8.78572E-10-4.29281E-10
 -1       954 9.26121E+05 1.46073E+04 5.77909E+04-6.95138E+04-6.32735E-09-3.50155E-11
 -1       955 8.98878E+05 1.12836E+04 1.03708E+05-4.62034E+04 1.67893E-09 2.54659E-10
 -1       956-5.68989E+05-9.15356E+03-4.18256E+04 4.00954E+04-1.31586E-08-8.32188E-10
 -1       957-5.78870E+05-5.14055E+03-2.24906E+04 5.42838E+04-2.92766E-09-3.99041E-09
 -1       958-5.73525E+05-4.05869E+01-1.00977E+04 3.96981E+04 9.85347E-09-4.10091E-09
 -1       959-5.74323E+05 8.97741E+01-5.18617E+03 5.47003E+04-5.02041E-09-4.22824E-09
 -1       960-5.73930E+05 2.37960E+02-2.53427E+03 3.96539E+04-1.81553E-08-3.36468E-09
 -1       961-5.74109E+05 3.25595E+02-1.33022E+03 5.47583E+04-3.21452E-08-2.68710E-09
 -1       962-5.74045E+05 2.57636E+02-7.44100E+02 3.96372E+04-1.46620E-08-2.55295E-09
 -1       963-5.74150E+05 3.68134E+02-5.58267E+02 5.47842E+04-1.81558E-08-3.40106E-09
 -1       964-5.74092E+05 2.86694E+02-6.35094E+02 3.96269E+04-6.24459E-09-4.89626E-09
 -1       965-5.74218E+05 3.91826E+02-1.06004E+03 5.47958E+04 1.82719E-08-6.70070E-09
 -1       966-5.74076E+05 3.21735E+02-1.97078E+03 3.96249E+04-8.32395E-09-3.78373E-09
 -1       967-5.74479E+05 2.60719E+02-4.02669E+03 5.47839E+04-2.53851E-09-5.28780E-09
 -1       968-5.73827E+05 1.51241E+02-7.82291E+03 3.96400E+04-1.24692E-09-3.94130E-09
 -1       969-5.78095E+05-3.75668E+03-1.74506E+04 5.45964E+04 2.35741E-09-5.51415E-09
 -1       970-5.70357E+05-6.88858E+03-3.24391E+04 3.98462E+04 4.18913E-09-4.68208E-09
 -1       971-3.95970E+05-1.56247E+03-1.46551E+04 1.36119E+04-9.99989E-09-3.50610E-10
 -1       972-3.99821E+05-1.97510E+03-8.16328E+03 2.09832E+04-1.55851E-08 1.18916E-10
 -1       973-3.97697E+05 7.29348E+01-3.62324E+03 1.34871E+04-1.75228E-08-4.99767E-10
 -1       974-3.98012E+05 6.16539E+01-1.88279E+03 2.11097E+04 5.91376E-09 5.84350E-11
 -1       975-3.97827E+05 1.10069E+02-9.28533E+02 1.34741E+04 1.91494E-09-1.41722E-09
 -1       976-3.97894E+05 1.51710E+02-5.18924E+02 2.11256E+04-1.75399E-08 1.05388E-10
 -1       977-3.97847E+05 1.06253E+02-3.45707E+02 1.34706E+04 1.60336E-08-1.45735E-09
 -1       978-3.97889E+05 1.56982E+02-3.63524E+02 2.11294E+04 3.40637E-08-1.78102E-09
 -1       979-3.97844E+05 1.10844E+02-5.48924E+02 1.34702E+04 1.73077E-08-2.00578E-09
 -1       980-3.97923E+05 1.52440E+02-1.03884E+03 2.11264E+04 2.77963E-08-1.36379E-09
 -1       981-3.97806E+05 1.29359E+02-1.99980E+03 1.34736E+04 9.62677E-09-7.67841E-10
 -1       982-3.98208E+05-3.58123E+01-4.13857E+03 2.11123E+04 3.06636E-09-3.10642E-10
 -1       983-3.97532E+05 5.97344E+01-8.00052E+03 1.34854E+04 1.31740E-08-1.91562E-09
 -1       984-4.02242E+05-4.52682E+03-1.80555E+04 2.09952E+04-3.63980E-09-7.58519E-10
 -1       985-3.93729E+05-3.54298E+03-3.24151E+04 1.36157E+04 1.89862E-08-1.21327E-09
 -3
 9999
