
 stresses (elem, integ.pnt.,sxx,syy,szz,sxy,sxz,syz) for set ELALL and time  0.1000000E+01

         1   1 -1.877113E+06 -2.767247E+04 -3.248371E+04 -1.455029E+04 -2.236886E+04  5.257741E-01
         1   2 -1.873666E+06 -1.676902E+03 -1.506634E+04 -5.484728E+03 -1.445317E+04  1.280562E-01
         1   3 -1.877087E+06  9.942069E+02 -8.645139E+03  3.581048E+03 -6.537364E+03 -3.781793E-02
         1   4 -1.877114E+06 -2.767287E+04 -3.248376E+04  1.244062E-08 -2.236886E+04 -3.057046E-10
         1   5 -1.873666E+06 -1.676959E+03 -1.506635E+04  9.954003E-09 -1.445317E+04 -6.709322E-10
         1   6 -1.877087E+06  9.941828E+02 -8.645142E+03  1.069572E-08 -6.537364E+03 -8.914835E-11
         1   7 -1.877113E+06 -2.767247E+04 -3.248371E+04  1.455029E+04 -2.236886E+04 -5.257741E-01
         1   8 -1.873666E+06 -1.676902E+03 -1.506634E+04  5.484728E+03 -1.445317E+04 -1.280562E-01
         1   9 -1.877087E+06  9.942069E+02 -8.645139E+03 -3.581048E+03 -6.537364E+03  3.781793E-02
         1  10 -1.877114E+06 -2.767260E+04 -3.248465E+04 -1.455029E+04  3.908684E-10 -1.563905E-10
         1  11 -1.873666E+06 -1.676959E+03 -1.506674E+04 -5.484728E+03  2.211911E-09 -2.280172E-10
         1  12 -1.877087E+06  9.941954E+02 -8.645220E+03  3.581048E+03 -8.023715E-10 -8.521148E-10
         1  13 -1.877114E+06 -2.767300E+04 -3.248471E+04  5.897607E-09  1.042539E-09 -1.232743E-10
         1  14 -1.873666E+06 -1.677015E+03 -1.506675E+04  5.563219E-09 -1.086714E-09 -4.833810E-10
         1  15 -1.877087E+06  9.941712E+02 -8.645223E+03  1.462210E-09  9.096151E-10 -7.487622E-10
         1  16 -1.877114E+06 -2.767260E+04 -3.248465E+04  1.455029E+04  7.116151E-10 -1.563863E-10
         1  17 -1.873666E+06 -1.676959E+03 -1.506674E+04  5.484728E+03 -1.950432E-09 -6.117232E-10
         1  18 -1.877087E+06  9.941954E+02 -8.645220E+03 -3.581048E+03  4.277961E-10 -7.240659E-10
         1  19 -1.877113E+06 -2.767247E+04 -3.248371E+04 -1.455029E+04  2.236886E+04 -5.257741E-01
         1  20 -1.873666E+06 -1.676902E+03 -1.506634E+04 -5.484728E+03  1.445317E+04 -1.280562E-01
         1  21 -1.877087E+06  9.942069E+02 -8.645139E+03  3.581048E+03  6.537364E+03  3.781793E-02
         1  22 -1.877114E+06 -2.767287E+04 -3.248376E+04  1.009719E-08  2.236886E+04  3.653575E-11
         1  23 -1.873666E+06 -1.676959E+03 -1.506635E+04 -9.924933E-10  1.445317E+04 -3.149964E-10
         1  24 -1.877087E+06  9.941828E+02 -8.645142E+03  8.621294E-09  6.537364E+03 -1.439829E-09
         1  25 -1.877113E+06 -2.767247E+04 -3.248371E+04  1.455029E+04  2.236886E+04  5.257741E-01
         1  26 -1.873666E+06 -1.676902E+03 -1.506634E+04  5.484728E+03  1.445317E+04  1.280562E-01
         1  27 -1.877087E+06  9.942069E+02 -8.645139E+03 -3.581048E+03  6.537364E+03 -3.781794E-02
         2   1 -1.875679E+06 -1.182362E+03 -6.791209E+03 -3.911001E+02 -5.352799E+03  3.381838E-03
         2   2 -1.875419E+06 -1.235049E+01 -3.737338E+03 -7.490731E+01 -3.485848E+03  4.218091E-04
         2   3 -1.875676E+06  6.731426E+01 -2.174263E+03  2.412850E+02 -1.618892E+03 -6.310032E-04
         2   4 -1.875679E+06 -1.182363E+03 -6.791210E+03  4.577685E-09 -5.352799E+03  9.569337E-11
         2   5 -1.875419E+06 -1.235050E+01 -3.737338E+03 -3.057888E-09 -3.485848E+03  1.740939E-12
         2   6 -1.875676E+06  6.731415E+01 -2.174263E+03 -1.277047E-09 -1.618892E+03  9.478825E-10
         2   7 -1.875679E+06 -1.182362E+03 -6.791209E+03  3.911001E+02 -5.352799E+03 -3.381838E-03
         2   8 -1.875419E+06 -1.235049E+01 -3.737338E+03  7.490731E+01 -3.485848E+03 -4.218090E-04
         2   9 -1.875676E+06  6.731426E+01 -2.174263E+03 -2.412850E+02 -1.618892E+03  6.310050E-04
         2  10 -1.875679E+06 -1.182370E+03 -6.791264E+03 -3.911001E+02 -1.907454E-09 -7.900086E-10
         2  11 -1.875419E+06 -1.235377E+01 -3.737361E+03 -7.490731E+01  3.656834E-10 -1.283774E-10
         2  12 -1.875676E+06  6.731356E+01 -2.174268E+03  2.412850E+02 -1.331342E-09  6.967795E-10
         2  13 -1.875679E+06 -1.182370E+03 -6.791264E+03 -3.624153E-09 -1.151408E-09 -3.857939E-10
         2  14 -1.875419E+06 -1.235378E+01 -3.737361E+03  3.176169E-10 -9.534478E-10  5.285437E-10
         2  15 -1.875676E+06  6.731345E+01 -2.174268E+03  1.022499E-09  3.638442E-10  6.442465E-10
         2  16 -1.875679E+06 -1.182370E+03 -6.791264E+03  3.911001E+02  7.052831E-10  4.649009E-11
         2  17 -1.875419E+06 -1.235377E+01 -3.737361E+03  7.490731E+01  8.450464E-10  1.346197E-09
         2  18 -1.875676E+06  6.731356E+01 -2.174268E+03 -2.412850E+02  3.557417E-10  6.071772E-10
         2  19 -1.875679E+06 -1.182362E+03 -6.791209E+03 -3.911001E+02  5.352799E+03 -3.381840E-03
         2  20 -1.875419E+06 -1.235049E+01 -3.737338E+03 -7.490731E+01  3.485848E+03 -4.218092E-04
         2  21 -1.875676E+06  6.731426E+01 -2.174263E+03  2.412850E+02  1.618892E+03  6.310046E-04
         2  22 -1.875679E+06 -1.182363E+03 -6.791210E+03  9.693041E-09  5.352799E+03 -8.312857E-10
         2  23 -1.875419E+06 -1.235050E+01 -3.737338E+03 -2.759644E-09  3.485848E+03  1.127942E-09
         2  24 -1.875676E+06  6.731415E+01 -2.174263E+03  7.118012E-09  1.618892E+03  3.200058E-10
         2  25 -1.875679E+06 -1.182362E+03 -6.791209E+03  3.911001E+02  5.352799E+03  3.381838E-03
         2  26 -1.875419E+06 -1.235049E+01 -3.737338E+03  7.490731E+01  3.485848E+03  4.218114E-04
         2  27 -1.875676E+06  6.731426E+01 -2.174263E+03 -2.412850E+02  1.618892E+03 -6.310040E-04
         3   1 -1.875579E+06 -2.974016E+01 -1.682148E+03  4.958114E+01 -1.278889E+03 -1.024297E-04
         3   2 -1.875539E+06  1.764209E+01 -1.021952E+03  3.540123E+01 -7.734130E+02 -4.422837E-05
         3   3 -1.875579E+06  1.139883E+01 -7.049887E+02  2.122154E+01 -2.679441E+02 -9.185794E-06
         3   4 -1.875579E+06 -2.974016E+01 -1.682148E+03 -2.675294E-09 -1.278889E+03  1.221766E-09
         3   5 -1.875539E+06  1.764209E+01 -1.021952E+03 -1.512634E-08 -7.734130E+02  6.781387E-10
         3   6 -1.875579E+06  1.139883E+01 -7.049887E+02 -7.142942E-09 -2.679441E+02 -4.512636E-11
         3   7 -1.875579E+06 -2.974016E+01 -1.682148E+03 -4.958114E+01 -1.278889E+03  1.024319E-04
         3   8 -1.875539E+06  1.764209E+01 -1.021952E+03 -3.540123E+01 -7.734130E+02  4.422989E-05
         3   9 -1.875579E+06  1.139883E+01 -7.049887E+02 -2.122154E+01 -2.679441E+02  9.185431E-06
         3  10 -1.875579E+06 -2.974060E+01 -1.682151E+03  4.958114E+01  6.076065E-11  7.969097E-10
         3  11 -1.875539E+06  1.764193E+01 -1.021954E+03  3.540123E+01  3.104658E-10  6.532872E-10
         3  12 -1.875579E+06  1.139881E+01 -7.049888E+02  2.122154E+01 -2.066338E-09 -2.528590E-11
         3  13 -1.875579E+06 -2.974060E+01 -1.682151E+03 -4.959932E-09 -9.497689E-10  3.421882E-10
         3  14 -1.875539E+06  1.764193E+01 -1.021954E+03 -5.455599E-09 -2.690398E-09  6.713089E-11
         3  15 -1.875579E+06  1.139881E+01 -7.049888E+02 -3.286068E-09 -1.748759E-09  1.933470E-10
         3  16 -1.875579E+06 -2.974060E+01 -1.682151E+03 -4.958114E+01  4.079811E-11 -2.128464E-10
         3  17 -1.875539E+06  1.764193E+01 -1.021954E+03 -3.540123E+01  7.211220E-10 -4.039792E-10
         3  18 -1.875579E+06  1.139881E+01 -7.049888E+02 -2.122154E+01  9.699515E-10  5.332002E-10
         3  19 -1.875579E+06 -2.974016E+01 -1.682148E+03  4.958114E+01  1.278889E+03  1.024313E-04
         3  20 -1.875539E+06  1.764209E+01 -1.021952E+03  3.540123E+01  7.734130E+02  4.422978E-05
         3  21 -1.875579E+06  1.139883E+01 -7.049887E+02  2.122154E+01  2.679441E+02  9.185617E-06
         3  22 -1.875579E+06 -2.974016E+01 -1.682148E+03  5.711361E-09  1.278889E+03 -5.726682E-10
         3  23 -1.875539E+06  1.764209E+01 -1.021952E+03 -5.482903E-09  7.734130E+02 -5.814857E-10
         3  24 -1.875579E+06  1.139883E+01 -7.049887E+02  1.926507E-09  2.679441E+02  3.938910E-10
         3  25 -1.875579E+06 -2.974016E+01 -1.682148E+03 -4.958114E+01  1.278889E+03 -1.024326E-04
         3  26 -1.875539E+06  1.764209E+01 -1.021952E+03 -3.540123E+01  7.734130E+02 -4.423088E-05
         3  27 -1.875579E+06  1.139883E+01 -7.049887E+02 -2.122154E+01  2.679441E+02 -9.184974E-06
         4   1 -1.875570E+06  7.414945E+00 -6.336137E+02  9.293376E+00 -1.469122E+02 -2.206440E-06
         4   2 -1.875549E+06  1.334506E+01 -6.342511E+02 -1.097613E+01  1.662225E+02 -2.948390E-06
         4   3 -1.875570E+06  1.385951E+01 -8.405690E+02 -3.124595E+01  4.793618E+02 -2.419577E-05
         4   4 -1.875570E+06  7.414945E+00 -6.336137E+02  1.295782E-08 -1.469122E+02 -8.475369E-10
         4   5 -1.875549E+06  1.334506E+01 -6.342511E+02  2.767364E-09  1.662225E+02 -1.417541E-09
         4   6 -1.875570E+06  1.385951E+01 -8.405690E+02  1.436326E-09  4.793618E+02 -5.763449E-11
         4   7 -1.875570E+06  7.414945E+00 -6.336137E+02 -9.293376E+00 -1.469122E+02  2.205011E-06
         4   8 -1.875549E+06  1.334506E+01 -6.342511E+02  1.097613E+01  1.662225E+02  2.945770E-06
         4   9 -1.875570E+06  1.385951E+01 -8.405690E+02  3.124595E+01  4.793618E+02  2.419580E-05
         4  10 -1.875570E+06  7.414939E+00 -6.336137E+02  9.293376E+00 -1.300976E-09 -2.728743E-10
         4  11 -1.875549E+06  1.334505E+01 -6.342511E+02 -1.097613E+01 -7.712332E-10 -2.933804E-10
         4  12 -1.875570E+06  1.385945E+01 -8.405694E+02 -3.124595E+01 -1.545381E-09  3.110567E-10
         4  13 -1.875570E+06  7.414939E+00 -6.336137E+02  4.079702E-09 -1.687706E-10 -1.662231E-11
         4  14 -1.875549E+06  1.334505E+01 -6.342511E+02  3.872928E-09 -1.529479E-09 -4.112700E-10
         4  15 -1.875570E+06  1.385945E+01 -8.405694E+02 -3.345690E-09 -1.417968E-09  1.666517E-10
         4  16 -1.875570E+06  7.414939E+00 -6.336137E+02 -9.293376E+00 -1.625403E-09  2.890527E-10
         4  17 -1.875549E+06  1.334505E+01 -6.342511E+02  1.097613E+01 -2.561871E-10 -5.633508E-10
         4  18 -1.875570E+06  1.385945E+01 -8.405694E+02  3.124595E+01  1.885421E-09  7.883379E-11
         4  19 -1.875570E+06  7.414945E+00 -6.336137E+02  9.293376E+00  1.469122E+02  2.206006E-06
         4  20 -1.875549E+06  1.334506E+01 -6.342511E+02 -1.097613E+01 -1.662225E+02  2.948133E-06
         4  21 -1.875570E+06  1.385951E+01 -8.405690E+02 -3.124595E+01 -4.793618E+02  2.419646E-05
         4  22 -1.875570E+06  7.414945E+00 -6.336137E+02  1.454726E-08  1.469122E+02  8.083202E-10
         4  23 -1.875549E+06  1.334506E+01 -6.342511E+02 -5.799912E-09 -1.662225E+02  5.494406E-10
         4  24 -1.875570E+06  1.385951E+01 -8.405690E+02  9.071956E-09 -4.793618E+02  4.036664E-10
         4  25 -1.875570E+06  7.414945E+00 -6.336137E+02 -9.293376E+00  1.469122E+02 -2.204307E-06
         4  26 -1.875549E+06  1.334506E+01 -6.342511E+02  1.097613E+01 -1.662225E+02 -2.946864E-06
         4  27 -1.875570E+06  1.385951E+01 -8.405690E+02  3.124595E+01 -4.793618E+02 -2.419569E-05
         5   1 -1.875587E+06  1.344336E+01 -1.035830E+03 -3.915074E+01  6.494935E+02 -4.107650E-05
         5   2 -1.875530E+06  3.479638E+01 -1.688026E+03 -8.965221E+01  1.483070E+03 -2.147863E-04
         5   3 -1.875588E+06  3.336405E+01 -2.889842E+03 -1.401537E+02  2.316646E+03 -5.245040E-04
         5   4 -1.875587E+06  1.344336E+01 -1.035830E+03 -5.203223E-09  6.494935E+02  9.208654E-10
         5   5 -1.875530E+06  3.479636E+01 -1.688026E+03 -1.652452E-09  1.483070E+03  6.498377E-10
         5   6 -1.875588E+06  3.336402E+01 -2.889842E+03  1.910919E-09  2.316646E+03 -1.193479E-09
         5   7 -1.875587E+06  1.344336E+01 -1.035830E+03  3.915074E+01  6.494935E+02  4.107820E-05
         5   8 -1.875530E+06  3.479638E+01 -1.688026E+03  8.965221E+01  1.483070E+03  2.147877E-04
         5   9 -1.875588E+06  3.336405E+01 -2.889842E+03  1.401537E+02  2.316646E+03  5.245015E-04
         5  10 -1.875587E+06  1.344325E+01 -1.035831E+03 -3.915074E+01 -1.553439E-09  1.629569E-10
         5  11 -1.875530E+06  3.479578E+01 -1.688030E+03 -8.965221E+01 -6.375104E-10 -5.274381E-10
         5  12 -1.875588E+06  3.336261E+01 -2.889852E+03 -1.401537E+02  7.313483E-10 -1.041121E-10
         5  13 -1.875587E+06  1.344324E+01 -1.035831E+03 -4.175370E-09 -9.570667E-10  5.663387E-10
         5  14 -1.875530E+06  3.479577E+01 -1.688030E+03 -1.858281E-09 -3.143726E-09  2.150621E-10
         5  15 -1.875588E+06  3.336257E+01 -2.889852E+03 -3.290953E-09 -4.800887E-10 -8.170506E-10
         5  16 -1.875587E+06  1.344325E+01 -1.035831E+03  3.915074E+01 -6.580566E-10  9.676268E-10
         5  17 -1.875530E+06  3.479578E+01 -1.688030E+03  8.965221E+01  2.272936E-09  9.497811E-10
         5  18 -1.875588E+06  3.336261E+01 -2.889852E+03  1.401537E+02  2.103400E-10 -1.487800E-09
         5  19 -1.875587E+06  1.344336E+01 -1.035830E+03 -3.915074E+01 -6.494935E+02  4.107689E-05
         5  20 -1.875530E+06  3.479638E+01 -1.688026E+03 -8.965221E+01 -1.483070E+03  2.147859E-04
         5  21 -1.875588E+06  3.336405E+01 -2.889842E+03 -1.401537E+02 -2.316646E+03  5.245037E-04
         5  22 -1.875587E+06  1.344336E+01 -1.035830E+03  1.146624E-09 -6.494935E+02  1.870463E-10
         5  23 -1.875530E+06  3.479636E+01 -1.688026E+03  5.483718E-09 -1.483070E+03 -2.540803E-10
         5  24 -1.875588E+06  3.336402E+01 -2.889842E+03  7.395253E-09 -2.316646E+03 -4.427207E-10
         5  25 -1.875587E+06  1.344336E+01 -1.035830E+03  3.915074E+01 -6.494935E+02 -4.107659E-05
         5  26 -1.875530E+06  3.479638E+01 -1.688026E+03  8.965221E+01 -1.483070E+03 -2.147863E-04
         5  27 -1.875588E+06  3.336405E+01 -2.889842E+03  1.401537E+02 -2.316646E+03 -5.245048E-04
         6   1 -1.875678E+06  5.872479E+01 -3.793076E+03 -2.170418E+02  2.919893E+03 -1.023751E-03
         6   2 -1.875420E+06  1.106509E+02 -6.579098E+03 -2.943113E+02  6.174790E+03 -2.935709E-03
         6   3 -1.875682E+06 -2.167258E+02 -1.158378E+04 -3.715800E+02  9.429621E+03 -5.660184E-03
         6   4 -1.875678E+06  5.872470E+01 -3.793076E+03  3.315540E-09  2.919893E+03 -1.211442E-09
         6   5 -1.875420E+06  1.106507E+02 -6.579098E+03 -3.612488E-10  6.174790E+03  2.675362E-10
         6   6 -1.875682E+06 -2.167260E+02 -1.158378E+04  6.597470E-09  9.429621E+03 -5.111585E-10
         6   7 -1.875678E+06  5.872479E+01 -3.793076E+03  2.170418E+02  2.919893E+03  1.023749E-03
         6   8 -1.875420E+06  1.106509E+02 -6.579098E+03  2.943113E+02  6.174790E+03  2.935710E-03
         6   9 -1.875682E+06 -2.167258E+02 -1.158378E+04  3.715800E+02  9.429621E+03  5.660183E-03
         6  10 -1.875678E+06  5.872249E+01 -3.793092E+03 -2.170418E+02 -2.733525E-09  3.370794E-10
         6  11 -1.875420E+06  1.106406E+02 -6.579170E+03 -2.943113E+02 -5.066137E-10  3.447649E-10
         6  12 -1.875682E+06 -2.167497E+02 -1.158394E+04 -3.715800E+02  2.215154E-09 -4.050533E-10
         6  13 -1.875678E+06  5.872240E+01 -3.793092E+03  5.176169E-10 -2.355321E-09 -7.514891E-10
         6  14 -1.875420E+06  1.106405E+02 -6.579170E+03 -2.454768E-09 -1.783633E-09  1.047645E-10
         6  15 -1.875682E+06 -2.167500E+02 -1.158394E+04 -7.621498E-09 -1.825386E-09 -3.672690E-10
         6  16 -1.875678E+06  5.872249E+01 -3.793092E+03  2.170418E+02  1.597870E-09 -1.759773E-09
         6  17 -1.875420E+06  1.106406E+02 -6.579170E+03  2.943113E+02 -1.546058E-09 -2.040622E-10
         6  18 -1.875682E+06 -2.167497E+02 -1.158394E+04  3.715800E+02 -1.940711E-09 -2.240915E-10
         6  19 -1.875678E+06  5.872479E+01 -3.793076E+03 -2.170418E+02 -2.919893E+03  1.023753E-03
         6  20 -1.875420E+06  1.106509E+02 -6.579098E+03 -2.943113E+02 -6.174790E+03  2.935710E-03
         6  21 -1.875682E+06 -2.167258E+02 -1.158378E+04 -3.715800E+02 -9.429621E+03  5.660183E-03
         6  22 -1.875678E+06  5.872470E+01 -3.793076E+03  1.067564E-08 -2.919893E+03 -2.884250E-10
         6  23 -1.875420E+06  1.106507E+02 -6.579098E+03 -4.550386E-09 -6.174790E+03 -4.684901E-12
         6  24 -1.875682E+06 -2.167260E+02 -1.158378E+04 -1.340831E-09 -9.429621E+03 -2.250667E-10
         6  25 -1.875678E+06  5.872479E+01 -3.793076E+03  2.170418E+02 -2.919893E+03 -1.023753E-03
         6  26 -1.875420E+06  1.106509E+02 -6.579098E+03  2.943113E+02 -6.174790E+03 -2.935710E-03
         6  27 -1.875682E+06 -2.167258E+02 -1.158378E+04  3.715800E+02 -9.429621E+03 -5.660184E-03
         7   1 -1.876382E+06  4.740800E+02 -1.518888E+04 -1.735882E+03  1.178836E+04 -3.305658E-02
         7   2 -1.874557E+06 -9.173009E+01 -2.645842E+04  5.233073E+02  2.500696E+04  2.113978E-02
         7   3 -1.876402E+06 -8.426948E+03 -4.829453E+04  2.782552E+03  3.822552E+04  1.718224E-01
         7   4 -1.876382E+06  4.740743E+02 -1.518888E+04  1.733084E-09  1.178836E+04 -4.229148E-10
         7   5 -1.874557E+06 -9.173061E+01 -2.645842E+04 -5.609437E-09  2.500696E+04  8.059240E-10
         7   6 -1.876402E+06 -8.426962E+03 -4.829453E+04  6.707035E-09  3.822552E+04  1.332235E-10
         7   7 -1.876382E+06  4.740800E+02 -1.518888E+04  1.735882E+03  1.178836E+04  3.305658E-02
         7   8 -1.874557E+06 -9.173009E+01 -2.645842E+04 -5.233073E+02  2.500696E+04 -2.113978E-02
         7   9 -1.876402E+06 -8.426948E+03 -4.829453E+04 -2.782552E+03  3.822552E+04 -1.718224E-01
         7  10 -1.876382E+06  4.740425E+02 -1.518914E+04 -1.735882E+03 -2.182284E-09 -2.346752E-11
         7  11 -1.874558E+06 -9.189859E+01 -2.645959E+04  5.233073E+02 -9.984823E-11  1.142343E-09
         7  12 -1.876404E+06 -8.427342E+03 -4.829728E+04  2.782551E+03  1.634501E-09 -3.479869E-10
         7  13 -1.876382E+06  4.740369E+02 -1.518914E+04 -1.033346E-09 -3.059482E-09 -2.011220E-10
         7  14 -1.874558E+06 -9.189910E+01 -2.645959E+04 -7.749195E-09 -1.160616E-09  6.652579E-10
         7  15 -1.876404E+06 -8.427356E+03 -4.829729E+04 -1.029710E-09  7.445690E-10 -7.592738E-11
         7  16 -1.876382E+06  4.740425E+02 -1.518914E+04  1.735882E+03  2.737159E-09 -4.040697E-10
         7  17 -1.874558E+06 -9.189859E+01 -2.645959E+04 -5.233073E+02  1.656216E-09  2.168059E-10
         7  18 -1.876404E+06 -8.427342E+03 -4.829728E+04 -2.782551E+03 -9.131126E-10  1.707953E-10
         7  19 -1.876382E+06  4.740800E+02 -1.518888E+04 -1.735882E+03 -1.178836E+04  3.305658E-02
         7  20 -1.874557E+06 -9.173009E+01 -2.645842E+04  5.233073E+02 -2.500696E+04 -2.113977E-02
         7  21 -1.876402E+06 -8.426948E+03 -4.829453E+04  2.782552E+03 -3.822552E+04 -1.718224E-01
         7  22 -1.876382E+06  4.740743E+02 -1.518888E+04  1.595754E-09 -1.178836E+04  2.171865E-11
         7  23 -1.874557E+06 -9.173061E+01 -2.645842E+04 -5.584259E-09 -2.500696E+04  4.650328E-10
         7  24 -1.876402E+06 -8.426962E+03 -4.829453E+04  2.304238E-09 -3.822552E+04 -2.489406E-10
         7  25 -1.876382E+06  4.740800E+02 -1.518888E+04  1.735882E+03 -1.178836E+04 -3.305658E-02
         7  26 -1.874557E+06 -9.173009E+01 -2.645842E+04 -5.233073E+02 -2.500696E+04  2.113978E-02
         7  27 -1.876402E+06 -8.426948E+03 -4.829453E+04 -2.782552E+03 -3.822552E+04  1.718224E-01
         8   1 -1.886435E+06  7.085107E+03 -6.152868E+04 -2.552336E+04  4.665001E+04 -1.923444E+00
         8   2 -1.862054E+06 -1.194799E+04 -1.073080E+05  3.908282E+04  1.030439E+05  6.505489E+00
         8   3 -1.886609E+06 -1.971713E+05 -2.314221E+05  1.036852E+05  1.594382E+05  2.670472E+01
         8   4 -1.886436E+06  7.083879E+03 -6.152886E+04  4.856141E-09  4.665001E+04  3.273057E-10
         8   5 -1.862056E+06 -1.195087E+04 -1.073084E+05 -6.282942E-09  1.030439E+05  1.509305E-09
         8   6 -1.886620E+06 -1.971915E+05 -2.314250E+05 -3.456374E-09  1.594382E+05  6.137288E-10
         8   7 -1.886435E+06  7.085107E+03 -6.152868E+04  2.552336E+04  4.665001E+04  1.923444E+00
         8   8 -1.862054E+06 -1.194799E+04 -1.073080E+05 -3.908282E+04  1.030439E+05 -6.505489E+00
         8   9 -1.886609E+06 -1.971713E+05 -2.314221E+05 -1.036852E+05  1.594382E+05 -2.670472E+01
         8  10 -1.886437E+06  7.084520E+03 -6.153278E+04 -2.552336E+04 -1.461989E-09 -7.882041E-10
         8  11 -1.862066E+06 -1.195086E+04 -1.073281E+05  3.908282E+04 -1.440104E-09  3.665020E-10
         8  12 -1.886636E+06 -1.971781E+05 -2.314700E+05  1.036852E+05 -1.106278E-10  2.767394E-10
         8  13 -1.886438E+06  7.083292E+03 -6.153296E+04 -1.194484E-10  1.680167E-11 -1.225392E-10
         8  14 -1.862067E+06 -1.195373E+04 -1.073285E+05 -5.141753E-09  6.626698E-11  6.099554E-10
         8  15 -1.886647E+06 -1.971984E+05 -2.314729E+05 -2.058657E-09 -4.074795E-10  3.105708E-10
         8  16 -1.886437E+06  7.084520E+03 -6.153278E+04  2.552336E+04  1.287473E-09  4.550433E-10
         8  17 -1.862066E+06 -1.195086E+04 -1.073281E+05 -3.908282E+04  3.838226E-10  8.921137E-10
         8  18 -1.886636E+06 -1.971781E+05 -2.314700E+05 -1.036852E+05 -2.292905E-11  2.855541E-10
         8  19 -1.886435E+06  7.085107E+03 -6.152868E+04 -2.552336E+04 -4.665001E+04  1.923444E+00
         8  20 -1.862054E+06 -1.194799E+04 -1.073080E+05  3.908282E+04 -1.030439E+05 -6.505489E+00
         8  21 -1.886609E+06 -1.971713E+05 -2.314221E+05  1.036852E+05 -1.594382E+05 -2.670472E+01
         8  22 -1.886436E+06  7.083879E+03 -6.152886E+04  2.394206E-09 -4.665001E+04 -5.987120E-10
         8  23 -1.862056E+06 -1.195087E+04 -1.073084E+05  4.617594E-09 -1.030439E+05 -1.965276E-10
         8  24 -1.886620E+06 -1.971915E+05 -2.314250E+05  6.401367E-10 -1.594382E+05  1.773149E-11
         8  25 -1.886435E+06  7.085107E+03 -6.152868E+04  2.552336E+04 -4.665001E+04 -1.923444E+00
         8  26 -1.862054E+06 -1.194799E+04 -1.073080E+05 -3.908282E+04 -1.030439E+05  6.505489E+00
         8  27 -1.886609E+06 -1.971713E+05 -2.314221E+05 -1.036852E+05 -1.594382E+05  2.670472E+01
         9   1  1.575011E+06  4.906878E+06  1.553689E+06 -9.990207E+05  6.900865E+04  4.290042E+05
         9   2  1.114766E+06  3.772737E+06  1.045139E+06 -7.826920E+05  2.127464E+05  1.842311E+05
         9   3  8.262282E+05  2.716752E+06  7.385123E+05 -8.782293E+05  2.072238E+05 -6.015639E+04
         9   4  1.801629E+05 -7.329173E+05  2.061569E+05 -8.888110E+05  6.964002E+04  1.443130E+05
         9   5  2.109700E+04 -7.533106E+05  9.567919E+04 -7.330925E+05  2.131242E+05  9.476053E+04
         9   6  7.315232E+02 -7.298884E+05  5.262477E+04 -8.892541E+05  2.069012E+05  4.513517E+04
         9   7 -1.216900E+06 -6.343487E+06 -1.143311E+06 -7.795684E+05  7.017533E+04 -1.378231E+05
         9   8 -1.073874E+06 -5.260042E+06 -8.548951E+05 -6.838353E+05  2.134896E+05  5.927048E+03
         9   9 -8.254845E+05 -4.165178E+06 -6.338146E+05 -9.001983E+05  2.065736E+05  1.498554E+05
         9  10  1.574957E+06  4.906681E+06  1.553337E+06 -9.990445E+05 -5.069082E-10 -1.519238E-09
         9  11  1.114708E+06  3.772689E+06  1.044991E+06 -7.827235E+05  2.636877E-09  1.664298E-10
         9  12  8.261812E+05  2.716737E+06  7.384249E+05 -8.782193E+05  1.474000E-09  2.005322E-09
         9  13  1.801520E+05 -7.329410E+05  2.061086E+05 -8.888191E+05 -4.109112E-10 -6.713928E-11
         9  14  2.104580E+04 -7.533324E+05  9.557686E+04 -7.331087E+05 -1.221030E-09 -3.921088E-11
         9  15  6.850041E+02 -7.299020E+05  5.254045E+04 -8.892616E+05 -1.262964E-10  3.086559E-11
         9  16 -1.216910E+06 -6.343509E+06 -1.143356E+06 -7.795606E+05  6.548748E-10  1.356919E-09
         9  17 -1.073923E+06 -5.260054E+06 -8.549808E+05 -6.838363E+05 -6.657437E-10 -2.741815E-10
         9  18 -8.255364E+05 -4.165214E+06 -6.339375E+05 -9.002233E+05 -1.881201E-10 -1.890684E-09
         9  19  1.575011E+06  4.906878E+06  1.553689E+06 -9.990207E+05 -6.900865E+04 -4.290042E+05
         9  20  1.114766E+06  3.772737E+06  1.045139E+06 -7.826920E+05 -2.127464E+05 -1.842311E+05
         9  21  8.262282E+05  2.716752E+06  7.385123E+05 -8.782293E+05 -2.072238E+05  6.015639E+04
         9  22  1.801629E+05 -7.329173E+05  2.061569E+05 -8.888110E+05 -6.964002E+04 -1.443130E+05
         9  23  2.109700E+04 -7.533106E+05  9.567919E+04 -7.330925E+05 -2.131242E+05 -9.476053E+04
         9  24  7.315232E+02 -7.298884E+05  5.262477E+04 -8.892541E+05 -2.069012E+05 -4.513517E+04
         9  25 -1.216900E+06 -6.343487E+06 -1.143311E+06 -7.795684E+05 -7.017533E+04  1.378231E+05
         9  26 -1.073874E+06 -5.260042E+06 -8.548951E+05 -6.838353E+05 -2.134896E+05 -5.927048E+03
         9  27 -8.254845E+05 -4.165178E+06 -6.338146E+05 -9.001983E+05 -2.065736E+05 -1.498554E+05
        10   1  6.530573E+05  1.936265E+06  5.718510E+05 -9.004779E+05  1.607667E+05 -3.619125E+04
        10   2  3.832627E+05  8.406154E+05  3.266892E+05 -7.360524E+05  1.012064E+05 -5.122575E+04
        10   3  1.209159E+05 -2.520438E+05  9.254474E+04 -8.920696E+05  3.679005E+04 -6.634567E+04
        10   4  1.194811E+04 -7.384916E+05  3.920446E+04 -8.910859E+05  1.604969E+05  3.799980E+04
        10   5  5.586176E+03 -7.383361E+05  1.718843E+04 -7.308606E+05  1.008549E+05  2.925282E+04
        10   6  5.662202E+03 -7.374011E+05  1.887809E+03 -8.911226E+05  3.634750E+04  2.039494E+04
        10   7 -6.295958E+05 -3.406410E+06 -4.937794E+05 -8.817234E+05  1.602287E+05  1.118782E+05
        10   8 -3.722373E+05 -2.314885E+06 -2.924083E+05 -7.256782E+05  1.005042E+05  1.095313E+05
        10   9 -1.096011E+05 -1.222514E+06 -8.875093E+04 -8.901760E+05  3.590498E+04  1.070694E+05
        10  10  6.530292E+05  1.936257E+06  5.718000E+05 -9.004732E+05  5.195972E-10  8.716631E-10
        10  11  3.832511E+05  8.406098E+05  3.266651E+05 -7.360483E+05  1.055025E-09  8.320780E-10
        10  12  1.209133E+05 -2.520489E+05  9.253394E+04 -8.920677E+05 -1.724435E-09  6.336485E-10
        10  13  1.192006E+04 -7.385001E+05  3.915331E+04 -8.910908E+05 -3.168767E-10  6.614617E-11
        10  14  5.575022E+03 -7.383398E+05  1.716770E+04 -7.308629E+05  6.773159E-10  7.436675E-11
        10  15  5.660671E+03 -7.374019E+05  1.884540E+03 -8.911232E+05 -1.145555E-10 -1.328773E-11
        10  16 -6.296268E+05 -3.406431E+06 -4.938514E+05 -8.817378E+05  1.059995E-09 -7.628722E-10
        10  17 -3.722514E+05 -2.314900E+06 -2.924500E+05 -7.256871E+05  9.557818E-10 -5.625158E-10
        10  18 -1.096056E+05 -1.222527E+06 -8.877496E+04 -8.901791E+05  1.314460E-09 -4.849842E-10
        10  19  6.530573E+05  1.936265E+06  5.718510E+05 -9.004779E+05 -1.607667E+05  3.619125E+04
        10  20  3.832627E+05  8.406154E+05  3.266892E+05 -7.360524E+05 -1.012064E+05  5.122575E+04
        10  21  1.209159E+05 -2.520438E+05  9.254474E+04 -8.920696E+05 -3.679005E+04  6.634567E+04
        10  22  1.194811E+04 -7.384916E+05  3.920446E+04 -8.910859E+05 -1.604969E+05 -3.799980E+04
        10  23  5.586176E+03 -7.383361E+05  1.718843E+04 -7.308606E+05 -1.008549E+05 -2.925282E+04
        10  24  5.662202E+03 -7.374011E+05  1.887809E+03 -8.911226E+05 -3.634750E+04 -2.039494E+04
        10  25 -6.295958E+05 -3.406410E+06 -4.937794E+05 -8.817234E+05 -1.602287E+05 -1.118782E+05
        10  26 -3.722373E+05 -2.314885E+06 -2.924083E+05 -7.256782E+05 -1.005042E+05 -1.095313E+05
        10  27 -1.096011E+05 -1.222514E+06 -8.875093E+04 -8.901760E+05 -3.590498E+04 -1.070694E+05
        11   1 -6.051673E+04 -1.022293E+06 -6.813475E+04 -8.835040E+05 -8.292691E+03 -7.991690E+04
        11   2 -3.338453E+05 -2.101923E+06 -3.212656E+05 -7.379403E+05 -5.066659E+04  2.288840E+04
        11   3 -6.558613E+05 -3.208164E+06 -6.543204E+05 -9.095212E+05 -2.225924E+04  1.257283E+05
        11   4  8.696674E+03 -7.401500E+05 -4.869733E+03 -8.903309E+05 -8.805836E+03  2.003481E+04
        11   5 -1.163424E+02 -7.347592E+05 -2.157988E+04 -7.318739E+05 -5.069754E+04  3.131697E+04
        11   6 -4.156366E+04 -7.411152E+05 -5.447238E+04 -8.905371E+05 -2.187481E+04  4.281723E+04
        11   7  7.791016E+04 -4.579114E+05  5.842786E+04 -8.971609E+05 -9.321037E+03  1.200315E+05
        11   8  3.334878E+05  6.341597E+05  2.779925E+05 -7.257909E+05 -5.072828E+04  3.976385E+04
        11   9  5.722910E+05  1.731527E+06  5.449611E+05 -8.714671E+05 -2.149643E+04 -4.042395E+04
        11  10 -6.051852E+04 -1.022300E+06 -6.814690E+04 -8.835046E+05 -1.081285E-10  4.343210E-10
        11  11 -3.338482E+05 -2.101925E+06 -3.212714E+05 -7.379393E+05  3.770661E-09  7.741932E-12
        11  12 -6.558661E+05 -3.208181E+06 -6.543512E+05 -9.095190E+05  1.071464E-09 -7.010405E-11
        11  13  8.696484E+03 -7.401504E+05 -4.870633E+03 -8.903308E+05 -2.136749E-09  7.637682E-11
        11  14 -1.193621E+02 -7.347610E+05 -2.158655E+04 -7.318726E+05 -5.174278E-11  1.667148E-11
        11  15 -4.156466E+04 -7.411173E+05 -5.447672E+04 -8.905364E+05  8.089892E-10  1.523376E-12
        11  16  7.790620E+04 -4.579269E+05  5.840061E+04 -8.971600E+05  9.818143E-10 -4.431149E-10
        11  17  3.334846E+05  6.341573E+05  2.779848E+05 -7.257893E+05 -1.981641E-10  4.051926E-11
        11  18  5.722901E+05  1.731525E+06  5.449571E+05 -8.714678E+05  3.336919E-10  1.125302E-10
        11  19 -6.051673E+04 -1.022293E+06 -6.813475E+04 -8.835040E+05  8.292691E+03  7.991690E+04
        11  20 -3.338453E+05 -2.101923E+06 -3.212656E+05 -7.379403E+05  5.066659E+04 -2.288840E+04
        11  21 -6.558613E+05 -3.208164E+06 -6.543204E+05 -9.095212E+05  2.225924E+04 -1.257283E+05
        11  22  8.696674E+03 -7.401500E+05 -4.869733E+03 -8.903309E+05  8.805836E+03 -2.003481E+04
        11  23 -1.163424E+02 -7.347592E+05 -2.157988E+04 -7.318739E+05  5.069754E+04 -3.131697E+04
        11  24 -4.156366E+04 -7.411152E+05 -5.447238E+04 -8.905371E+05  2.187481E+04 -4.281723E+04
        11  25  7.791016E+04 -4.579114E+05  5.842786E+04 -8.971609E+05  9.321037E+03 -1.200315E+05
        11  26  3.334878E+05  6.341597E+05  2.779925E+05 -7.257909E+05  5.072828E+04 -3.976385E+04
        11  27  5.722910E+05  1.731527E+06  5.449611E+05 -8.714671E+05  2.149643E+04  4.042395E+04
        12   1 -2.385171E+06 -5.750721E+05 -2.177363E+05 -9.330951E+05 -1.393315E+05 -5.266645E+04
        12   2 -2.366133E+06 -3.656559E+05 -9.079251E+04 -9.318092E+05 -8.724883E+04 -3.459821E+04
        12   3 -2.406176E+06 -3.122339E+05 -4.375466E+04 -8.973309E+05 -3.521138E+04 -1.640376E+04
        12   4 -2.458112E+06 -5.166024E+05 -2.203466E+05 -8.644506E+05 -1.406831E+05 -5.319769E+04
        12   5 -2.416396E+06 -3.529240E+05 -9.709825E+04 -9.131193E+05 -8.848833E+04 -3.506866E+04
        12   6 -2.433792E+06 -3.452823E+05 -5.385205E+04 -9.285973E+05 -3.633603E+04 -1.682383E+04
        12   7 -2.531030E+06 -4.581023E+05 -2.229520E+05 -7.958130E+05 -1.420345E+05 -5.372934E+04
        12   8 -2.466655E+06 -3.401888E+05 -1.034033E+05 -8.944312E+05 -8.972771E+04 -3.553922E+04
        12   9 -2.461405E+06 -3.783270E+05 -6.394926E+04 -9.598619E+05 -3.746064E+04 -1.724377E+04
        12  10 -2.385193E+06 -5.750803E+05 -2.177782E+05 -9.331011E+05  9.697275E-10  5.047634E-11
        12  11 -2.366141E+06 -3.656593E+05 -9.080914E+04 -9.318116E+05 -2.176259E-09 -1.056718E-09
        12  12 -2.406178E+06 -3.122346E+05 -4.375751E+04 -8.973314E+05 -2.015403E-09 -7.543590E-10
        12  13 -2.458134E+06 -5.166108E+05 -2.203893E+05 -8.644567E+05 -1.835056E-09 -5.881475E-10
        12  14 -2.416405E+06 -3.529274E+05 -9.711535E+04 -9.131218E+05 -2.665922E-09 -1.545544E-09
        12  15 -2.433793E+06 -3.452829E+05 -5.385507E+04 -9.285978E+05 -9.744446E-10 -6.342299E-10
        12  16 -2.531052E+06 -4.581109E+05 -2.229956E+05 -7.958191E+05 -3.865150E-09 -1.348659E-09
        12  17 -2.466664E+06 -3.401924E+05 -1.034209E+05 -8.944338E+05 -3.818346E-09 -1.899678E-09
        12  18 -2.461406E+06 -3.783277E+05 -6.395247E+04 -9.598624E+05  9.056410E-10 -5.817407E-10
        12  19 -2.385171E+06 -5.750721E+05 -2.177363E+05 -9.330951E+05  1.393315E+05  5.266645E+04
        12  20 -2.366133E+06 -3.656559E+05 -9.079251E+04 -9.318092E+05  8.724883E+04  3.459821E+04
        12  21 -2.406176E+06 -3.122339E+05 -4.375466E+04 -8.973309E+05  3.521138E+04  1.640376E+04
        12  22 -2.458112E+06 -5.166024E+05 -2.203466E+05 -8.644506E+05  1.406831E+05  5.319769E+04
        12  23 -2.416396E+06 -3.529240E+05 -9.709825E+04 -9.131193E+05  8.848833E+04  3.506866E+04
        12  24 -2.433792E+06 -3.452823E+05 -5.385205E+04 -9.285973E+05  3.633603E+04  1.682383E+04
        12  25 -2.531030E+06 -4.581023E+05 -2.229520E+05 -7.958130E+05  1.420345E+05  5.372934E+04
        12  26 -2.466655E+06 -3.401888E+05 -1.034033E+05 -8.944312E+05  8.972771E+04  3.553922E+04
        12  27 -2.461405E+06 -3.783270E+05 -6.394926E+04 -9.598619E+05  3.746064E+04  1.724377E+04
        13   1 -2.367851E+06 -3.392783E+05 -2.899173E+04 -9.064134E+05 -2.835537E+04 -1.456027E+04
        13   2 -2.352187E+06 -3.214805E+05 -5.057240E+03 -8.997435E+05 -1.684072E+04 -1.151348E+04
        13   3 -2.336335E+06 -3.158276E+05  8.550104E+03 -8.966978E+05 -5.329643E+03 -8.455121E+03
        13   4 -2.427003E+06 -3.584770E+05 -4.216407E+04 -9.198547E+05 -2.950687E+04 -1.499229E+04
        13   5 -2.426520E+06 -3.483915E+05 -2.199853E+04 -9.195420E+05 -1.798161E+04 -1.194143E+04
        13   6 -2.425851E+06 -3.504536E+05 -1.216900E+04 -9.228536E+05 -6.460236E+03 -8.879217E+03
        13   7 -2.486152E+06 -3.776756E+05 -5.533659E+04 -9.332949E+05 -3.065826E+04 -1.542428E+04
        13   8 -2.500847E+06 -3.753019E+05 -3.894003E+04 -9.393382E+05 -1.912233E+04 -1.236932E+04
        13   9 -2.515359E+06 -3.850784E+05 -3.288835E+04 -9.490055E+05 -7.590639E+03 -9.303235E+03
        13  10 -2.367852E+06 -3.392788E+05 -2.899364E+04 -9.064137E+05  9.157915E-10  6.412361E-10
        13  11 -2.352187E+06 -3.214807E+05 -5.058026E+03 -8.997437E+05  3.549438E-09  1.216771E-09
        13  12 -2.336335E+06 -3.158277E+05  8.549916E+03 -8.966978E+05  2.122835E-09  1.046728E-10
        13  13 -2.427004E+06 -3.584775E+05 -4.216614E+04 -9.198551E+05  9.797077E-10  2.493883E-10
        13  14 -2.426520E+06 -3.483917E+05 -2.199941E+04 -9.195422E+05 -7.781893E-11  5.393284E-10
        13  15 -2.425851E+06 -3.504537E+05 -1.216922E+04 -9.228536E+05  1.097749E-09 -2.245282E-10
        13  16 -2.486153E+06 -3.776762E+05 -5.533881E+04 -9.332953E+05  4.837124E-10 -1.708223E-10
        13  17 -2.500847E+06 -3.753022E+05 -3.894101E+04 -9.393384E+05 -1.162718E-09 -1.315236E-10
        13  18 -2.515359E+06 -3.850785E+05 -3.288862E+04 -9.490056E+05 -6.679958E-10 -3.058457E-10
        13  19 -2.367851E+06 -3.392783E+05 -2.899173E+04 -9.064134E+05  2.835537E+04  1.456027E+04
        13  20 -2.352187E+06 -3.214805E+05 -5.057240E+03 -8.997435E+05  1.684072E+04  1.151348E+04
        13  21 -2.336335E+06 -3.158276E+05  8.550104E+03 -8.966978E+05  5.329643E+03  8.455121E+03
        13  22 -2.427003E+06 -3.584770E+05 -4.216407E+04 -9.198547E+05  2.950687E+04  1.499229E+04
        13  23 -2.426520E+06 -3.483915E+05 -2.199853E+04 -9.195420E+05  1.798161E+04  1.194143E+04
        13  24 -2.425851E+06 -3.504536E+05 -1.216900E+04 -9.228536E+05  6.460236E+03  8.879217E+03
        13  25 -2.486152E+06 -3.776756E+05 -5.533659E+04 -9.332949E+05  3.065826E+04  1.542428E+04
        13  26 -2.500847E+06 -3.753019E+05 -3.894003E+04 -9.393382E+05  1.912233E+04  1.236932E+04
        13  27 -2.515359E+06 -3.850784E+05 -3.288835E+04 -9.490055E+05  7.590639E+03  9.303235E+03
        14   1 -2.322150E+06 -3.126053E+05  1.452754E+04 -8.937641E+05 -3.383672E+03 -8.452336E+03
        14   2 -2.307685E+06 -3.040251E+05  2.235114E+04 -8.868213E+05 -4.446514E+02 -8.590155E+03
        14   3 -2.289316E+06 -3.002393E+05  2.818659E+04 -8.849057E+05  2.490674E+03 -8.717468E+03
        14   4 -2.425337E+06 -3.510270E+05 -9.223411E+03 -9.223380E+05 -4.508376E+03 -8.874289E+03
        14   5 -2.427266E+06 -3.484808E+05 -5.094969E+03 -9.198791E+05 -1.558997E+03 -9.008322E+03
        14   6 -2.425292E+06 -3.507310E+05 -2.962950E+03 -9.224477E+05  1.386607E+03 -9.131874E+03
        14   7 -2.528514E+06 -3.894484E+05 -3.297546E+04 -9.509078E+05 -5.632891E+03 -9.296170E+03
        14   8 -2.546833E+06 -3.929358E+05 -3.254237E+04 -9.529314E+05 -2.673120E+03 -9.426405E+03
        14   9 -2.561250E+06 -4.012217E+05 -3.411399E+04 -9.599825E+05  2.827952E+02 -9.546184E+03
        14  10 -2.322150E+06 -3.126054E+05  1.452739E+04 -8.937642E+05 -5.625447E-10 -1.048513E-09
        14  11 -2.307685E+06 -3.040252E+05  2.235100E+04 -8.868213E+05  1.755729E-09 -2.653907E-11
        14  12 -2.289316E+06 -3.002393E+05  2.818643E+04 -8.849057E+05  5.201005E-09 -3.222561E-10
        14  13 -2.425337E+06 -3.510271E+05 -9.223598E+03 -9.223380E+05 -1.736283E-10 -2.681712E-10
        14  14 -2.427266E+06 -3.484809E+05 -5.095126E+03 -9.198791E+05 -2.361447E-09  3.959202E-10
        14  15 -2.425292E+06 -3.507311E+05 -2.963110E+03 -9.224477E+05 -1.954893E-09 -4.397063E-11
        14  16 -2.528514E+06 -3.894485E+05 -3.297568E+04 -9.509079E+05  1.570705E-09  4.765770E-10
        14  17 -2.546833E+06 -3.929359E+05 -3.254255E+04 -9.529315E+05  7.541597E-10  6.116362E-10
        14  18 -2.561250E+06 -4.012218E+05 -3.411416E+04 -9.599825E+05 -2.834851E-09  1.328823E-10
        14  19 -2.322150E+06 -3.126053E+05  1.452754E+04 -8.937641E+05  3.383672E+03  8.452336E+03
        14  20 -2.307685E+06 -3.040251E+05  2.235114E+04 -8.868213E+05  4.446514E+02  8.590155E+03
        14  21 -2.289316E+06 -3.002393E+05  2.818659E+04 -8.849057E+05 -2.490674E+03  8.717468E+03
        14  22 -2.425337E+06 -3.510270E+05 -9.223411E+03 -9.223380E+05  4.508376E+03  8.874289E+03
        14  23 -2.427266E+06 -3.484808E+05 -5.094969E+03 -9.198791E+05  1.558997E+03  9.008322E+03
        14  24 -2.425292E+06 -3.507310E+05 -2.962950E+03 -9.224477E+05 -1.386607E+03  9.131874E+03
        14  25 -2.528514E+06 -3.894484E+05 -3.297546E+04 -9.509078E+05  5.632891E+03  9.296170E+03
        14  26 -2.546833E+06 -3.929358E+05 -3.254237E+04 -9.529314E+05  2.673120E+03  9.426405E+03
        14  27 -2.561250E+06 -4.012217E+05 -3.411399E+04 -9.599825E+05 -2.827952E+02  9.546184E+03
        15   1 -2.276862E+06 -2.956784E+05  3.174108E+04 -8.814989E+05  3.152612E+03 -9.177395E+03
        15   2 -2.263016E+06 -2.876980E+05  3.600696E+04 -8.747181E+05  4.366654E+03 -9.925638E+03
        15   3 -2.245036E+06 -2.839930E+05  3.965948E+04 -8.728232E+05  5.576199E+03 -1.066117E+04
        15   4 -2.425258E+06 -3.507196E+05 -2.352637E+03 -9.223780E+05  2.059078E+03 -9.587913E+03
        15   5 -2.427323E+06 -3.485814E+05 -1.670227E+03 -9.199349E+05  3.285942E+03 -1.033146E+04
        15   6 -2.425258E+06 -3.507211E+05 -1.611496E+03 -9.223777E+05  4.508294E+03 -1.106230E+04
        15   7 -2.573629E+06 -4.057585E+05 -3.644736E+04 -9.632476E+05  9.658406E+02 -9.998320E+03
        15   8 -2.591603E+06 -4.094625E+05 -3.934905E+04 -9.651405E+05  2.205546E+03 -1.073717E+04
        15   9 -2.605449E+06 -4.174471E+05 -4.288482E+04 -9.719192E+05  3.440722E+03 -1.146331E+04
        15  10 -2.276862E+06 -2.956785E+05  3.174090E+04 -8.814988E+05  1.595942E-09 -3.828247E-10
        15  11 -2.263016E+06 -2.876981E+05  3.600674E+04 -8.747181E+05 -4.886092E-10  7.419392E-11
        15  12 -2.245036E+06 -2.839931E+05  3.965921E+04 -8.728231E+05 -1.287545E-09  9.648504E-10
        15  13 -2.425258E+06 -3.507197E+05 -2.352817E+03 -9.223779E+05 -8.800465E-10 -5.692520E-10
        15  14 -2.427323E+06 -3.485815E+05 -1.670448E+03 -9.199348E+05  2.039180E-10 -3.430203E-10
        15  15 -2.425258E+06 -3.507213E+05 -1.611763E+03 -9.223776E+05  2.045386E-09  1.633440E-09
        15  16 -2.573629E+06 -4.057586E+05 -3.644755E+04 -9.632476E+05 -3.826965E-09 -5.683756E-10
        15  17 -2.591603E+06 -4.094626E+05 -3.934927E+04 -9.651405E+05  2.256575E-09 -4.837871E-10
        15  18 -2.605449E+06 -4.174472E+05 -4.288509E+04 -9.719191E+05  3.629694E-09  2.455225E-09
        15  19 -2.276862E+06 -2.956784E+05  3.174108E+04 -8.814989E+05 -3.152612E+03  9.177395E+03
        15  20 -2.263016E+06 -2.876980E+05  3.600696E+04 -8.747181E+05 -4.366654E+03  9.925638E+03
        15  21 -2.245036E+06 -2.839930E+05  3.965948E+04 -8.728232E+05 -5.576199E+03  1.066117E+04
        15  22 -2.425258E+06 -3.507196E+05 -2.352637E+03 -9.223780E+05 -2.059078E+03  9.587913E+03
        15  23 -2.427323E+06 -3.485814E+05 -1.670227E+03 -9.199349E+05 -3.285942E+03  1.033146E+04
        15  24 -2.425258E+06 -3.507211E+05 -1.611496E+03 -9.223777E+05 -4.508294E+03  1.106230E+04
        15  25 -2.573629E+06 -4.057585E+05 -3.644736E+04 -9.632476E+05 -9.658406E+02  9.998320E+03
        15  26 -2.591603E+06 -4.094625E+05 -3.934905E+04 -9.651405E+05 -2.205546E+03  1.073717E+04
        15  27 -2.605449E+06 -4.174471E+05 -4.288482E+04 -9.719192E+05 -3.440722E+03  1.146331E+04
        16   1 -2.233132E+06 -2.795225E+05  4.232629E+04 -8.695148E+05  6.070465E+03 -1.115952E+04
        16   2 -2.219790E+06 -2.718582E+05  4.489111E+04 -8.630160E+05  7.758809E+03 -1.168311E+04
        16   3 -2.202550E+06 -2.683305E+05  4.647330E+04 -8.612253E+05  9.441006E+03 -1.218948E+04
        16   4 -2.425312E+06 -3.506867E+05 -1.789022E+03 -9.223403E+05  5.016222E+03 -1.155561E+04
        16   5 -2.427260E+06 -3.486144E+05 -2.662605E+03 -9.199878E+05  6.721807E+03 -1.207288E+04
        16   6 -2.425315E+06 -3.506822E+05 -4.532741E+03 -9.223433E+05  8.421217E+03 -1.257292E+04
        16   7 -2.617453E+06 -4.218477E+05 -4.590648E+04 -9.751504E+05  3.962341E+03 -1.195157E+04
        16   8 -2.634686E+06 -4.253675E+05 -5.021919E+04 -9.769420E+05  5.685182E+03 -1.246249E+04
        16   9 -2.648030E+06 -4.330308E+05 -5.554244E+04 -9.834416E+05  7.401821E+03 -1.295622E+04
        16  10 -2.233133E+06 -2.795226E+05  4.232598E+04 -8.695147E+05  7.093989E-09  3.328041E-09
        16  11 -2.219790E+06 -2.718583E+05  4.489074E+04 -8.630160E+05 -3.834817E-09 -2.540509E-09
        16  12 -2.202550E+06 -2.683306E+05  4.647285E+04 -8.612252E+05 -1.905343E-08 -8.280613E-09
        16  13 -2.425312E+06 -3.506868E+05 -1.789319E+03 -9.223402E+05  4.019800E-09  2.228241E-09
        16  14 -2.427260E+06 -3.486146E+05 -2.662964E+03 -9.199877E+05  9.620622E-10  1.968010E-10
        16  15 -2.425315E+06 -3.506824E+05 -4.533171E+03 -9.223432E+05 -1.349109E-09 -2.756816E-09
        16  16 -2.617453E+06 -4.218478E+05 -4.590678E+04 -9.751504E+05 -3.482576E-09  9.180509E-10
        16  17 -2.634687E+06 -4.253677E+05 -5.021954E+04 -9.769419E+05  9.625867E-09  2.901813E-09
        16  18 -2.648030E+06 -4.330310E+05 -5.554286E+04 -9.834415E+05  1.048435E-08  2.934439E-09
        16  19 -2.233132E+06 -2.795225E+05  4.232629E+04 -8.695148E+05 -6.070465E+03  1.115952E+04
        16  20 -2.219790E+06 -2.718582E+05  4.489111E+04 -8.630160E+05 -7.758809E+03  1.168311E+04
        16  21 -2.202550E+06 -2.683305E+05  4.647330E+04 -8.612253E+05 -9.441006E+03  1.218948E+04
        16  22 -2.425312E+06 -3.506867E+05 -1.789022E+03 -9.223403E+05 -5.016222E+03  1.155561E+04
        16  23 -2.427260E+06 -3.486144E+05 -2.662605E+03 -9.199878E+05 -6.721807E+03  1.207288E+04
        16  24 -2.425315E+06 -3.506822E+05 -4.532741E+03 -9.223433E+05 -8.421217E+03  1.257292E+04
        16  25 -2.617453E+06 -4.218477E+05 -4.590648E+04 -9.751504E+05 -3.962341E+03  1.195157E+04
        16  26 -2.634686E+06 -4.253675E+05 -5.021919E+04 -9.769420E+05 -5.685182E+03  1.246249E+04
        16  27 -2.648030E+06 -4.330308E+05 -5.554244E+04 -9.834416E+05 -7.401821E+03  1.295622E+04
        17   1 -2.191245E+06 -2.641119E+05  4.775400E+04 -8.582392E+05  1.051206E+04 -1.244115E+04
        17   2 -2.178254E+06 -2.567357E+05  4.628445E+04 -8.519490E+05  1.616717E+04 -1.140919E+04
        17   3 -2.162382E+06 -2.541185E+05  4.065298E+04 -8.501101E+05  2.180741E+04 -1.033665E+04
        17   4 -2.425512E+06 -3.506012E+05 -5.964684E+03 -9.223699E+05  9.503865E+03 -1.282033E+04
        17   5 -2.427000E+06 -3.485396E+05 -1.069607E+04 -9.200257E+05  1.519862E+04 -1.177364E+04
        17   6 -2.425614E+06 -3.512454E+05 -1.962216E+04 -9.221331E+05  2.087837E+04 -1.068641E+04
        17   7 -2.659723E+06 -4.370864E+05 -5.968701E+04 -9.864785E+05  8.496080E+03 -1.319936E+04
        17   8 -2.675682E+06 -4.403386E+05 -6.768048E+04 -9.880772E+05  1.423050E+04 -1.213793E+04
        17   9 -2.688776E+06 -4.483667E+05 -7.990145E+04 -9.941277E+05  1.994976E+04 -1.103600E+04
        17  10 -2.191245E+06 -2.641121E+05  4.775350E+04 -8.582391E+05  8.877934E-09  2.038387E-09
        17  11 -2.178254E+06 -2.567359E+05  4.628372E+04 -8.519489E+05  4.887894E-09  2.117777E-09
        17  12 -2.162382E+06 -2.541188E+05  4.065188E+04 -8.501099E+05 -4.724687E-09 -1.956935E-10
        17  13 -2.425512E+06 -3.506014E+05 -5.965163E+03 -9.223698E+05 -3.699152E-09 -3.109164E-09
        17  14 -2.427000E+06 -3.485398E+05 -1.069676E+04 -9.200256E+05 -1.318919E-09 -8.475000E-10
        17  15 -2.425615E+06 -3.512457E+05 -1.962319E+04 -9.221329E+05  1.239832E-09  6.564928E-10
        17  16 -2.659724E+06 -4.370866E+05 -5.968748E+04 -9.864784E+05 -1.643991E-08 -7.733938E-09
        17  17 -2.675683E+06 -4.403388E+05 -6.768114E+04 -9.880771E+05 -4.835796E-09 -3.361056E-09
        17  18 -2.688776E+06 -4.483669E+05 -7.990242E+04 -9.941275E+05  4.399084E-09  1.395933E-09
        17  19 -2.191245E+06 -2.641119E+05  4.775400E+04 -8.582392E+05 -1.051206E+04  1.244115E+04
        17  20 -2.178254E+06 -2.567357E+05  4.628445E+04 -8.519490E+05 -1.616717E+04  1.140919E+04
        17  21 -2.162382E+06 -2.541185E+05  4.065298E+04 -8.501101E+05 -2.180741E+04  1.033665E+04
        17  22 -2.425512E+06 -3.506012E+05 -5.964684E+03 -9.223699E+05 -9.503865E+03  1.282033E+04
        17  23 -2.427000E+06 -3.485396E+05 -1.069607E+04 -9.200257E+05 -1.519862E+04  1.177364E+04
        17  24 -2.425614E+06 -3.512454E+05 -1.962216E+04 -9.221331E+05 -2.087837E+04  1.068641E+04
        17  25 -2.659723E+06 -4.370864E+05 -5.968701E+04 -9.864785E+05 -8.496080E+03  1.319936E+04
        17  26 -2.675682E+06 -4.403386E+05 -6.768048E+04 -9.880772E+05 -1.423050E+04  1.213793E+04
        17  27 -2.688776E+06 -4.483667E+05 -7.990145E+04 -9.941277E+05 -1.994976E+04  1.103600E+04
        18   1 -2.150812E+06 -2.507935E+05  3.686444E+04 -8.504258E+05  2.577286E+04 -9.495940E+03
        18   2 -2.139102E+06 -2.410514E+05  1.893770E+04 -8.392680E+05  4.932263E+04 -1.513454E+03
        18   3 -2.132826E+06 -2.512365E+05 -2.069388E+04 -8.290216E+05  7.269589E+04  6.940125E+03
        18   4 -2.426814E+06 -3.499192E+05 -2.595127E+04 -9.231191E+05  2.474002E+04 -9.884699E+03
        18   5 -2.425288E+06 -3.484900E+05 -4.702250E+04 -9.194481E+05  4.876398E+04 -1.724380E+03
        18   6 -2.429295E+06 -3.670885E+05 -9.018326E+04 -9.166887E+05  7.261090E+04  6.906537E+03
        18   7 -2.702742E+06 -4.490409E+05 -8.877245E+04 -9.957838E+05  2.370768E+04 -1.027329E+04
        18   8 -2.711393E+06 -4.559222E+05 -1.129885E+05 -9.995943E+05  4.820560E+04 -1.935200E+03
        18   9 -2.725677E+06 -4.829312E+05 -1.596788E+05 -1.004316E+06  7.252595E+04  6.872964E+03
        18  10 -2.150813E+06 -2.507937E+05  3.686302E+04 -8.504256E+05 -5.369726E-10  1.623013E-09
        18  11 -2.139104E+06 -2.410520E+05  1.893311E+04 -8.392680E+05  1.410307E-09 -2.658284E-10
        18  12 -2.132831E+06 -2.512380E+05 -2.070394E+04 -8.290220E+05 -1.058885E-09 -5.079136E-10
        18  13 -2.426815E+06 -3.499194E+05 -2.595261E+04 -9.231189E+05 -1.329847E-09  4.192233E-10
        18  14 -2.425291E+06 -3.484906E+05 -4.702699E+04 -9.194481E+05 -1.252663E-09 -3.861322E-10
        18  15 -2.429301E+06 -3.670899E+05 -9.019330E+04 -9.166891E+05 -1.916151E-09 -6.741753E-11
        18  16 -2.702743E+06 -4.490412E+05 -8.877371E+04 -9.957836E+05 -9.244144E-11 -6.536256E-10
        18  17 -2.711396E+06 -4.559229E+05 -1.129929E+05 -9.995942E+05 -6.494224E-10 -6.857959E-10
        18  18 -2.725682E+06 -4.829327E+05 -1.596888E+05 -1.004317E+06  1.013702E-09  6.900363E-10
        18  19 -2.150812E+06 -2.507935E+05  3.686444E+04 -8.504258E+05 -2.577286E+04  9.495940E+03
        18  20 -2.139102E+06 -2.410514E+05  1.893770E+04 -8.392680E+05 -4.932263E+04  1.513454E+03
        18  21 -2.132826E+06 -2.512365E+05 -2.069388E+04 -8.290216E+05 -7.269589E+04 -6.940125E+03
        18  22 -2.426814E+06 -3.499192E+05 -2.595127E+04 -9.231191E+05 -2.474002E+04  9.884699E+03
        18  23 -2.425288E+06 -3.484900E+05 -4.702250E+04 -9.194481E+05 -4.876398E+04  1.724380E+03
        18  24 -2.429295E+06 -3.670885E+05 -9.018326E+04 -9.166887E+05 -7.261090E+04 -6.906537E+03
        18  25 -2.702742E+06 -4.490409E+05 -8.877245E+04 -9.957838E+05 -2.370768E+04  1.027329E+04
        18  26 -2.711393E+06 -4.559222E+05 -1.129885E+05 -9.995943E+05 -4.820560E+04  1.935200E+03
        18  27 -2.725677E+06 -4.829312E+05 -1.596788E+05 -1.004316E+06 -7.252595E+04 -6.872964E+03
        19   1 -2.097243E+06 -2.591110E+05 -4.374541E+04 -8.903537E+05  8.982372E+04  1.205774E+04
        19   2 -2.129865E+06 -1.891951E+05 -1.313637E+05 -7.611270E+05  1.898475E+05  5.220669E+04
        19   3 -2.293729E+06 -4.441351E+05 -3.822802E+05 -5.530324E+05  2.862742E+05  1.019295E+05
        19   4 -2.443945E+06 -3.387285E+05 -1.151917E+05 -9.352465E+05  8.713050E+04  1.105215E+04
        19   5 -2.403459E+06 -3.583765E+05 -2.076989E+05 -9.059069E+05  1.969350E+05  5.484713E+04
        19   6 -2.496268E+06 -7.049758E+05 -4.713355E+05 -7.976633E+05  3.031528E+05  1.081748E+05
        19   7 -2.790520E+06 -4.183480E+05 -1.866423E+05 -9.801241E+05  8.443892E+04  1.004664E+04
        19   8 -2.676964E+06 -5.275019E+05 -2.840384E+05 -1.050615E+06  2.040191E+05  5.748433E+04
        19   9 -2.698681E+06 -9.655827E+05 -5.603777E+05 -1.042180E+06  3.200255E+05  1.144052E+05
        19  10 -2.097251E+06 -2.591133E+05 -4.376090E+04 -8.903546E+05 -4.427781E-10  1.334703E-10
        19  11 -2.129904E+06 -1.892078E+05 -1.314368E+05 -7.611350E+05 -1.567025E-11  3.912270E-11
        19  12 -2.293820E+06 -4.441684E+05 -3.824544E+05 -5.530559E+05  7.569561E-10 -4.495853E-11
        19  13 -2.443953E+06 -3.387307E+05 -1.152062E+05 -9.352472E+05  1.184071E-09  1.534182E-10
        19  14 -2.403501E+06 -3.583903E+05 -2.077778E+05 -9.059156E+05 -2.009267E-09 -8.500798E-12
        19  15 -2.496370E+06 -7.050132E+05 -4.715311E+05 -7.976898E+05  4.340858E-10  3.980585E-10
        19  16 -2.790528E+06 -4.183500E+05 -1.866560E+05 -9.801248E+05 -4.442945E-11  3.744957E-10
        19  17 -2.677010E+06 -5.275167E+05 -2.841232E+05 -1.050624E+06  5.522979E-10 -5.077006E-10
        19  18 -2.698795E+06 -9.656245E+05 -5.605959E+05 -1.042210E+06  7.581182E-10 -1.445794E-10
        19  19 -2.097243E+06 -2.591110E+05 -4.374541E+04 -8.903537E+05 -8.982372E+04 -1.205774E+04
        19  20 -2.129865E+06 -1.891951E+05 -1.313637E+05 -7.611270E+05 -1.898475E+05 -5.220669E+04
        19  21 -2.293729E+06 -4.441351E+05 -3.822802E+05 -5.530324E+05 -2.862742E+05 -1.019295E+05
        19  22 -2.443945E+06 -3.387285E+05 -1.151917E+05 -9.352465E+05 -8.713050E+04 -1.105215E+04
        19  23 -2.403459E+06 -3.583765E+05 -2.076989E+05 -9.059069E+05 -1.969350E+05 -5.484713E+04
        19  24 -2.496268E+06 -7.049758E+05 -4.713355E+05 -7.976633E+05 -3.031528E+05 -1.081748E+05
        19  25 -2.790520E+06 -4.183480E+05 -1.866423E+05 -9.801241E+05 -8.443892E+04 -1.004664E+04
        19  26 -2.676964E+06 -5.275019E+05 -2.840384E+05 -1.050615E+06 -2.040191E+05 -5.748433E+04
        19  27 -2.698681E+06 -9.655827E+05 -5.603777E+05 -1.042180E+06 -3.200255E+05 -1.144052E+05
        20   1 -5.951402E+05  3.197845E+04  3.753804E+04  1.683522E+04  2.588327E+04  7.025288E-01
        20   2 -5.991103E+05  1.944203E+03  1.741092E+04  6.346668E+03  1.673248E+04  1.712117E-01
        20   3 -5.951503E+05 -1.147091E+03  9.981536E+03 -4.141629E+03  7.581817E+03 -5.062545E-02
        20   4 -5.951405E+05  3.197792E+04  3.753796E+04  7.299820E-08  2.588327E+04 -1.030903E-09
        20   5 -5.991103E+05  1.944127E+03  1.741091E+04  3.586456E-09  1.673248E+04 -2.367055E-09
        20   6 -5.951503E+05 -1.147123E+03  9.981531E+03 -5.761089E-08  7.581817E+03 -2.627663E-10
        20   7 -5.951402E+05  3.197845E+04  3.753804E+04 -1.683522E+04  2.588327E+04 -7.025288E-01
        20   8 -5.991103E+05  1.944203E+03  1.741092E+04 -6.346668E+03  1.673248E+04 -1.712117E-01
        20   9 -5.951503E+05 -1.147091E+03  9.981536E+03  4.141629E+03  7.581817E+03  5.062545E-02
        20  10 -5.951409E+05  3.197827E+04  3.753678E+04  1.683522E+04 -1.833899E-08 -6.046190E-10
        20  11 -5.991106E+05  1.944128E+03  1.741040E+04  6.346668E+03  1.995127E-09 -1.557634E-09
        20  12 -5.951503E+05 -1.147106E+03  9.981428E+03 -4.141629E+03  1.969772E-08 -4.803180E-10
        20  13 -5.951412E+05  3.197774E+04  3.753670E+04 -6.028818E-09  2.925928E-11 -5.733361E-10
        20  14 -5.991106E+05  1.944052E+03  1.741038E+04 -1.808617E-09  2.153457E-09 -1.460318E-09
        20  15 -5.951504E+05 -1.147138E+03  9.981423E+03  7.964411E-10 -9.317105E-10 -6.629249E-10
        20  16 -5.951409E+05  3.197827E+04  3.753678E+04 -1.683522E+04  1.719112E-08 -5.140776E-10
        20  17 -5.991106E+05  1.944128E+03  1.741040E+04 -6.346668E+03 -2.410894E-09 -1.358466E-09
        20  18 -5.951503E+05 -1.147106E+03  9.981428E+03  4.141629E+03 -2.109688E-08 -8.187778E-10
        20  19 -5.951402E+05  3.197845E+04  3.753804E+04  1.683522E+04 -2.588327E+04 -7.025288E-01
        20  20 -5.991103E+05  1.944203E+03  1.741092E+04  6.346668E+03 -1.673248E+04 -1.712117E-01
        20  21 -5.951503E+05 -1.147091E+03  9.981536E+03 -4.141629E+03 -7.581817E+03  5.062545E-02
        20  22 -5.951405E+05  3.197792E+04  3.753796E+04 -7.644834E-08 -2.588327E+04 -1.156436E-10
        20  23 -5.991103E+05  1.944127E+03  1.741091E+04 -8.281474E-09 -1.673248E+04 -5.680884E-10
        20  24 -5.951503E+05 -1.147123E+03  9.981531E+03  6.930214E-08 -7.581817E+03 -1.041882E-09
        20  25 -5.951402E+05  3.197845E+04  3.753804E+04 -1.683522E+04 -2.588327E+04  7.025288E-01
        20  26 -5.991103E+05  1.944203E+03  1.741092E+04 -6.346668E+03 -1.673248E+04  1.712117E-01
        20  27 -5.951503E+05 -1.147091E+03  9.981536E+03  4.141629E+03 -7.581817E+03 -5.062545E-02
        21   1 -5.967791E+05  1.365796E+03  7.832829E+03  4.509555E+02  6.213407E+03  4.517406E-03
        21   2 -5.970767E+05  1.519871E+01  4.287184E+03  8.419923E+01  4.070683E+03  5.525876E-04
        21   3 -5.967802E+05 -7.658657E+01  2.452307E+03 -2.825631E+02  1.927934E+03 -8.782795E-04
        21   4 -5.967791E+05  1.365796E+03  7.832829E+03  8.633408E-09  6.213407E+03  5.880131E-10
        21   5 -5.970767E+05  1.519870E+01  4.287184E+03  8.870320E-09  4.070683E+03  5.587126E-11
        21   6 -5.967802E+05 -7.658672E+01  2.452307E+03  4.123233E-09  1.927934E+03  7.887763E-10
        21   7 -5.967791E+05  1.365796E+03  7.832829E+03 -4.509555E+02  6.213407E+03 -4.517405E-03
        21   8 -5.970767E+05  1.519871E+01  4.287184E+03 -8.419923E+01  4.070683E+03 -5.525875E-04
        21   9 -5.967802E+05 -7.658657E+01  2.452307E+03  2.825631E+02  1.927934E+03  8.782810E-04
        21  10 -5.967792E+05  1.365786E+03  7.832756E+03  4.509555E+02  1.420289E-09  4.710524E-10
        21  11 -5.970767E+05  1.519426E+01  4.287153E+03  8.419923E+01  1.295530E-09  7.281540E-10
        21  12 -5.967803E+05 -7.658757E+01  2.452300E+03 -2.825631E+02  1.267247E-09  1.033267E-10
        21  13 -5.967792E+05  1.365785E+03  7.832756E+03 -3.004399E-09  9.965272E-11  1.098294E-10
        21  14 -5.970767E+05  1.519424E+01  4.287153E+03 -1.986969E-10 -3.984642E-09  5.947615E-10
        21  15 -5.967803E+05 -7.658772E+01  2.452300E+03 -3.321227E-09 -2.013133E-11  6.525164E-10
        21  16 -5.967792E+05  1.365786E+03  7.832756E+03 -4.509555E+02 -1.416084E-09 -2.069904E-10
        21  17 -5.970767E+05  1.519426E+01  4.287153E+03 -8.419923E+01 -2.713173E-09  4.680268E-10
        21  18 -5.967803E+05 -7.658757E+01  2.452300E+03  2.825631E+02 -1.756786E-09  1.201423E-09
        21  19 -5.967791E+05  1.365796E+03  7.832829E+03  4.509555E+02 -6.213407E+03 -4.517405E-03
        21  20 -5.970767E+05  1.519871E+01  4.287184E+03  8.419923E+01 -4.070683E+03 -5.525861E-04
        21  21 -5.967802E+05 -7.658657E+01  2.452307E+03 -2.825631E+02 -1.927934E+03  8.782799E-04
        21  22 -5.967791E+05  1.365796E+03  7.832829E+03 -8.190332E-09 -6.213407E+03 -3.716960E-10
        21  23 -5.970767E+05  1.519870E+01  4.287184E+03 -1.196581E-08 -4.070683E+03  1.140015E-09
        21  24 -5.967802E+05 -7.658672E+01  2.452307E+03 -3.770198E-09 -1.927934E+03  5.149581E-10
        21  25 -5.967791E+05  1.365796E+03  7.832829E+03 -4.509555E+02 -6.213407E+03  4.517404E-03
        21  26 -5.970767E+05  1.519871E+01  4.287184E+03 -8.419923E+01 -4.070683E+03  5.525883E-04
        21  27 -5.967802E+05 -7.658657E+01  2.452307E+03  2.825631E+02 -1.927934E+03 -8.782787E-04
        22   1 -5.968940E+05  3.526063E+01  1.862555E+03 -6.132982E+01  1.547462E+03 -1.530089E-04
        22   2 -5.969352E+05 -1.727775E+01  1.036395E+03 -4.982215E+01  1.034466E+03 -8.309289E-05
        22   3 -5.968942E+05 -8.506146E+00  5.597879E+02 -3.831448E+01  5.214702E+02 -3.221078E-05
        22   4 -5.968940E+05  3.526063E+01  1.862555E+03  5.182240E-09  1.547462E+03  6.857206E-10
        22   5 -5.969352E+05 -1.727775E+01  1.036395E+03  2.211894E-09  1.034466E+03 -2.152635E-10
        22   6 -5.968942E+05 -8.506148E+00  5.597879E+02  2.202514E-09  5.214702E+02  3.652474E-10
        22   7 -5.968940E+05  3.526063E+01  1.862555E+03  6.132982E+01  1.547462E+03  1.530103E-04
        22   8 -5.969352E+05 -1.727775E+01  1.036395E+03  4.982215E+01  1.034466E+03  8.309238E-05
        22   9 -5.968942E+05 -8.506146E+00  5.597879E+02  3.831448E+01  5.214702E+02  3.221157E-05
        22  10 -5.968940E+05  3.525999E+01  1.862551E+03 -6.132982E+01  4.391630E-10 -7.249770E-11
        22  11 -5.969352E+05 -1.727804E+01  1.036393E+03 -4.982215E+01  4.157484E-10  4.513916E-10
        22  12 -5.968942E+05 -8.506219E+00  5.597874E+02 -3.831448E+01 -8.225608E-11  9.255130E-10
        22  13 -5.968940E+05  3.525998E+01  1.862551E+03 -2.484063E-09 -1.681964E-11  4.427886E-10
        22  14 -5.969352E+05 -1.727804E+01  1.036393E+03 -5.293003E-10  1.618777E-10  1.583276E-10
        22  15 -5.968942E+05 -8.506221E+00  5.597874E+02  1.438078E-09 -3.739467E-09  1.529173E-10
        22  16 -5.968940E+05  3.525999E+01  1.862551E+03  6.132982E+01 -2.102242E-09  9.972782E-10
        22  17 -5.969352E+05 -1.727804E+01  1.036393E+03  4.982215E+01 -1.465694E-10 -1.670449E-10
        22  18 -5.968942E+05 -8.506219E+00  5.597874E+02  3.831448E+01  2.150263E-10 -6.107534E-10
        22  19 -5.968940E+05  3.526063E+01  1.862555E+03 -6.132982E+01 -1.547462E+03  1.530087E-04
        22  20 -5.969352E+05 -1.727775E+01  1.036395E+03 -4.982215E+01 -1.034466E+03  8.309376E-05
        22  21 -5.968942E+05 -8.506146E+00  5.597879E+02 -3.831448E+01 -5.214702E+02  3.221266E-05
        22  22 -5.968940E+05  3.526063E+01  1.862555E+03 -4.788869E-09 -1.547462E+03  1.933773E-10
        22  23 -5.969352E+05 -1.727775E+01  1.036395E+03 -5.415515E-09 -1.034466E+03  4.790440E-10
        22  24 -5.968942E+05 -8.506148E+00  5.597879E+02  5.122450E-09 -5.214702E+02 -5.831070E-11
        22  25 -5.968940E+05  3.526063E+01  1.862555E+03  6.132982E+01 -1.547462E+03 -1.530083E-04
        22  26 -5.969352E+05 -1.727775E+01  1.036395E+03  4.982215E+01 -1.034466E+03 -8.309277E-05
        22  27 -5.968942E+05 -8.506146E+00  5.597879E+02  3.831448E+01 -5.214702E+02 -3.221292E-05
        23   1 -5.969102E+05 -4.535773E+00  3.949457E+02 -2.620627E+01  4.352554E+02 -1.838837E-05
        23   2 -5.969153E+05 -2.886673E+00  1.443529E+02 -2.230689E+01  3.639184E+02 -1.308758E-05
        23   3 -5.969103E+05  1.730391E+00 -5.902333E+01 -1.840757E+01  2.925825E+02 -8.683117E-06
        23   4 -5.969102E+05 -4.535774E+00  3.949457E+02  2.513483E-09  4.352554E+02  4.335126E-10
        23   5 -5.969153E+05 -2.886674E+00  1.443529E+02  2.147252E-09  3.639184E+02 -2.314201E-10
        23   6 -5.969103E+05  1.730391E+00 -5.902333E+01  3.403453E-09  2.925825E+02  1.203207E-10
        23   7 -5.969102E+05 -4.535773E+00  3.949457E+02  2.620627E+01  4.352554E+02  1.838928E-05
        23   8 -5.969153E+05 -2.886673E+00  1.443529E+02  2.230689E+01  3.639184E+02  1.308714E-05
        23   9 -5.969103E+05  1.730391E+00 -5.902333E+01  1.840757E+01  2.925825E+02  8.683271E-06
        23  10 -5.969102E+05 -4.535824E+00  3.949453E+02 -2.620627E+01 -3.715136E-10  7.994274E-10
        23  11 -5.969153E+05 -2.886709E+00  1.443526E+02 -2.230689E+01  2.541654E-09  1.945969E-10
        23  12 -5.969103E+05  1.730368E+00 -5.902349E+01 -1.840757E+01 -2.423809E-09  8.855383E-11
        23  13 -5.969102E+05 -4.535825E+00  3.949453E+02  2.323211E-09 -1.162937E-10  2.691356E-12
        23  14 -5.969153E+05 -2.886710E+00  1.443526E+02 -4.796732E-09 -1.507190E-09 -2.156799E-10
        23  15 -5.969103E+05  1.730368E+00 -5.902349E+01 -7.701412E-11 -3.348641E-10  3.528790E-10
        23  16 -5.969102E+05 -4.535824E+00  3.949453E+02  2.620627E+01 -5.762936E-10 -7.956240E-10
        23  17 -5.969153E+05 -2.886709E+00  1.443526E+02  2.230689E+01 -1.357055E-09 -6.598881E-10
        23  18 -5.969103E+05  1.730368E+00 -5.902349E+01  1.840757E+01 -3.556332E-10  6.120052E-10
        23  19 -5.969102E+05 -4.535773E+00  3.949457E+02 -2.620627E+01 -4.352554E+02  1.839011E-05
        23  20 -5.969153E+05 -2.886673E+00  1.443529E+02 -2.230689E+01 -3.639184E+02  1.308816E-05
        23  21 -5.969103E+05  1.730391E+00 -5.902333E+01 -1.840757E+01 -2.925825E+02  8.683314E-06
        23  22 -5.969102E+05 -4.535774E+00  3.949457E+02 -9.978663E-12 -4.352554E+02 -4.345833E-10
        23  23 -5.969153E+05 -2.886674E+00  1.443529E+02 -9.053134E-09 -3.639184E+02 -2.068423E-10
        23  24 -5.969103E+05  1.730391E+00 -5.902333E+01 -1.010795E-09 -2.925825E+02  5.840812E-10
        23  25 -5.969102E+05 -4.535773E+00  3.949457E+02  2.620627E+01 -4.352554E+02 -1.839096E-05
        23  26 -5.969153E+05 -2.886673E+00  1.443529E+02  2.230689E+01 -3.639184E+02 -1.308846E-05
        23  27 -5.969103E+05  1.730391E+00 -5.902333E+01  1.840757E+01 -2.925825E+02 -8.682143E-06
        24   1 -5.969189E+05  1.510296E+00 -1.635827E+02 -1.934653E+01  3.127894E+02 -9.755748E-06
        24   2 -5.969047E+05  8.596447E+00 -4.197994E+02 -3.164620E+01  5.201985E+02 -2.654031E-05
        24   3 -5.969190E+05  9.379208E+00 -8.127192E+02 -4.394605E+01  7.276107E+02 -5.155285E-05
        24   4 -5.969189E+05  1.510295E+00 -1.635827E+02 -9.621314E-10  3.127894E+02  6.886534E-10
        24   5 -5.969047E+05  8.596445E+00 -4.197994E+02 -2.679174E-09  5.201985E+02  5.116392E-10
        24   6 -5.969190E+05  9.379205E+00 -8.127192E+02  1.787725E-10  7.276107E+02 -1.382988E-09
        24   7 -5.969189E+05  1.510296E+00 -1.635827E+02  1.934653E+01  3.127894E+02  9.757064E-06
        24   8 -5.969047E+05  8.596447E+00 -4.197994E+02  3.164620E+01  5.201985E+02  2.654118E-05
        24   9 -5.969190E+05  9.379208E+00 -8.127192E+02  4.394605E+01  7.276107E+02  5.155010E-05
        24  10 -5.969189E+05  1.510269E+00 -1.635829E+02 -1.934653E+01 -6.555365E-10  3.996181E-10
        24  11 -5.969047E+05  8.596375E+00 -4.197999E+02 -3.164620E+01 -7.294729E-10  6.146540E-10
        24  12 -5.969190E+05  9.379066E+00 -8.127202E+02 -4.394605E+01  8.108322E-10 -3.302308E-10
        24  13 -5.969189E+05  1.510269E+00 -1.635829E+02  1.702988E-10 -1.076715E-09  7.465052E-10
        24  14 -5.969047E+05  8.596373E+00 -4.197999E+02 -4.485570E-09 -7.001491E-10  4.931577E-10
        24  15 -5.969190E+05  9.379062E+00 -8.127202E+02  4.325914E-09 -7.317124E-10 -5.613935E-10
        24  16 -5.969189E+05  1.510269E+00 -1.635829E+02  1.934653E+01  1.575138E-09  1.080008E-09
        24  17 -5.969047E+05  8.596375E+00 -4.197999E+02  3.164620E+01  3.400276E-11  3.611118E-10
        24  18 -5.969190E+05  9.379066E+00 -8.127202E+02  4.394605E+01 -1.382096E-09 -8.249053E-10
        24  19 -5.969189E+05  1.510296E+00 -1.635827E+02 -1.934653E+01 -3.127894E+02  9.756631E-06
        24  20 -5.969047E+05  8.596447E+00 -4.197994E+02 -3.164620E+01 -5.201985E+02  2.654162E-05
        24  21 -5.969190E+05  9.379208E+00 -8.127192E+02 -4.394605E+01 -7.276107E+02  5.155235E-05
        24  22 -5.969189E+05  1.510295E+00 -1.635827E+02  2.363676E-09 -3.127894E+02  7.928653E-10
        24  23 -5.969047E+05  8.596445E+00 -4.197994E+02  4.472033E-09 -5.201985E+02  5.079654E-10
        24  24 -5.969190E+05  9.379205E+00 -8.127192E+02  6.439495E-09 -7.276107E+02  2.544351E-10
        24  25 -5.969189E+05  1.510296E+00 -1.635827E+02  1.934653E+01 -3.127894E+02 -9.755025E-06
        24  26 -5.969047E+05  8.596447E+00 -4.197994E+02  3.164620E+01 -5.201985E+02 -2.654063E-05
        24  27 -5.969190E+05  9.379208E+00 -8.127192E+02  4.394605E+01 -7.276107E+02 -5.155185E-05
        25   1 -5.969467E+05  1.681854E+01 -1.093053E+03 -6.657518E+01  8.997913E+02 -9.657964E-05
        25   2 -5.968704E+05  3.248008E+01 -1.937237E+03 -8.896094E+01  1.858650E+03 -2.665766E-04
        25   3 -5.969471E+05 -6.433611E+01 -3.434244E+03 -1.113467E+02  2.817507E+03 -5.057864E-04
        25   4 -5.969467E+05  1.681853E+01 -1.093053E+03 -2.138731E-09  8.997913E+02 -1.548419E-09
        25   5 -5.968704E+05  3.248007E+01 -1.937237E+03 -2.824649E-09  1.858650E+03  8.625428E-11
        25   6 -5.969471E+05 -6.433614E+01 -3.434244E+03  1.605939E-09  2.817507E+03  5.642701E-10
        25   7 -5.969467E+05  1.681854E+01 -1.093053E+03  6.657518E+01  8.997913E+02  9.657644E-05
        25   8 -5.968704E+05  3.248008E+01 -1.937237E+03  8.896094E+01  1.858650E+03  2.665767E-04
        25   9 -5.969471E+05 -6.433611E+01 -3.434244E+03  1.113467E+02  2.817507E+03  5.057875E-04
        25  10 -5.969467E+05  1.681832E+01 -1.093054E+03 -6.657518E+01 -2.071344E-09 -6.150382E-10
        25  11 -5.968704E+05  3.247915E+01 -1.937243E+03 -8.896094E+01 -1.086309E-09 -7.052949E-11
        25  12 -5.969471E+05 -6.433825E+01 -3.434259E+03 -1.113467E+02  2.703963E-10  3.564006E-10
        25  13 -5.969467E+05  1.681832E+01 -1.093054E+03  2.806621E-10 -2.045628E-09 -7.487118E-10
        25  14 -5.968704E+05  3.247914E+01 -1.937243E+03 -2.670118E-09 -1.078008E-10 -4.938431E-11
        25  15 -5.969471E+05 -6.433827E+01 -3.434259E+03 -1.852394E-09 -3.013552E-10  2.877522E-10
        25  16 -5.969467E+05  1.681832E+01 -1.093054E+03  6.657518E+01  2.323702E-09 -9.084434E-10
        25  17 -5.968704E+05  3.247915E+01 -1.937243E+03  8.896094E+01  4.985798E-10 -7.750669E-12
        25  18 -5.969471E+05 -6.433825E+01 -3.434259E+03  1.113467E+02  1.795115E-10  2.334994E-10
        25  19 -5.969467E+05  1.681854E+01 -1.093053E+03 -6.657518E+01 -8.997913E+02  9.657845E-05
        25  20 -5.968704E+05  3.248008E+01 -1.937237E+03 -8.896094E+01 -1.858650E+03  2.665766E-04
        25  21 -5.969471E+05 -6.433611E+01 -3.434244E+03 -1.113467E+02 -2.817507E+03  5.057871E-04
        25  22 -5.969467E+05  1.681853E+01 -1.093053E+03  5.350591E-10 -8.997913E+02  5.083410E-11
        25  23 -5.968704E+05  3.248007E+01 -1.937237E+03 -2.517690E-09 -1.858650E+03 -1.798818E-10
        25  24 -5.969471E+05 -6.433614E+01 -3.434244E+03  1.695292E-09 -2.817507E+03  1.563259E-11
        25  25 -5.969467E+05  1.681854E+01 -1.093053E+03  6.657518E+01 -8.997913E+02 -9.657834E-05
        25  26 -5.968704E+05  3.248008E+01 -1.937237E+03  8.896094E+01 -1.858650E+03 -2.665769E-04
        25  27 -5.969471E+05 -6.433611E+01 -3.434244E+03  1.113467E+02 -2.817507E+03 -5.057872E-04
        26   1 -5.971550E+05  1.406218E+02 -4.509225E+03 -5.167535E+02  3.518040E+03 -2.930957E-03
        26   2 -5.966115E+05 -2.763680E+01 -7.863274E+03  1.548524E+02  7.448187E+03  1.859488E-03
        26   3 -5.971570E+05 -2.502103E+03 -1.435433E+04  8.264501E+02  1.137825E+04  1.516063E-02
        26   4 -5.971550E+05  1.406213E+02 -4.509225E+03  3.053562E-09  3.518040E+03  5.215929E-10
        26   5 -5.966115E+05 -2.763684E+01 -7.863274E+03 -8.908914E-10  7.448187E+03  3.371197E-10
        26   6 -5.971570E+05 -2.502104E+03 -1.435433E+04  6.828341E-10  1.137825E+04 -2.728741E-10
        26   7 -5.971550E+05  1.406218E+02 -4.509225E+03  5.167535E+02  3.518040E+03  2.930958E-03
        26   8 -5.966115E+05 -2.763680E+01 -7.863274E+03 -1.548524E+02  7.448187E+03 -1.859487E-03
        26   9 -5.971570E+05 -2.502103E+03 -1.435433E+04 -8.264501E+02  1.137825E+04 -1.516063E-02
        26  10 -5.971550E+05  1.406184E+02 -4.509248E+03 -5.167535E+02 -8.391638E-10  2.938635E-10
        26  11 -5.966116E+05 -2.765171E+01 -7.863378E+03  1.548524E+02  7.076315E-11  7.728342E-11
        26  12 -5.971571E+05 -2.502138E+03 -1.435457E+04  8.264501E+02  3.834107E-10  4.640947E-13
        26  13 -5.971550E+05  1.406179E+02 -4.509248E+03 -1.650279E-10 -1.068301E-09  3.396928E-10
        26  14 -5.966116E+05 -2.765175E+01 -7.863378E+03 -9.623771E-10 -1.399989E-09  2.690208E-10
        26  15 -5.971571E+05 -2.502139E+03 -1.435457E+04  9.257678E-10 -9.219186E-10 -1.162875E-10
        26  16 -5.971550E+05  1.406184E+02 -4.509248E+03  5.167535E+02 -1.623383E-09  3.750959E-10
        26  17 -5.966116E+05 -2.765171E+01 -7.863378E+03 -1.548524E+02 -1.066484E-09  4.841503E-10
        26  18 -5.971571E+05 -2.502138E+03 -1.435457E+04 -8.264501E+02  5.726108E-10 -2.525947E-10
        26  19 -5.971550E+05  1.406218E+02 -4.509225E+03 -5.167535E+02 -3.518040E+03  2.930958E-03
        26  20 -5.966115E+05 -2.763680E+01 -7.863274E+03  1.548524E+02 -7.448187E+03 -1.859488E-03
        26  21 -5.971570E+05 -2.502103E+03 -1.435433E+04  8.264501E+02 -1.137825E+04 -1.516063E-02
        26  22 -5.971550E+05  1.406213E+02 -4.509225E+03  4.167070E-09 -3.518040E+03  1.664874E-10
        26  23 -5.966115E+05 -2.763684E+01 -7.863274E+03 -1.031759E-09 -7.448187E+03  1.845278E-10
        26  24 -5.971570E+05 -2.502104E+03 -1.435433E+04  8.448117E-09 -1.137825E+04  4.326834E-11
        26  25 -5.971550E+05  1.406218E+02 -4.509225E+03  5.167535E+02 -3.518040E+03 -2.930958E-03
        26  26 -5.966115E+05 -2.763680E+01 -7.863274E+03 -1.548524E+02 -7.448187E+03  1.859488E-03
        26  27 -5.971570E+05 -2.502103E+03 -1.435433E+04 -8.264501E+02 -1.137825E+04  1.516063E-02
        27   1 -6.001406E+05  2.101811E+03 -1.828887E+04 -7.587294E+03  1.388571E+04 -1.698565E-01
        27   2 -5.928858E+05 -3.561338E+03 -3.189490E+04  1.162754E+04  3.065087E+04  5.745823E-01
        27   3 -6.001571E+05 -5.858058E+04 -6.876155E+04  3.084232E+04  4.741631E+04  2.357755E+00
        27   4 -6.001406E+05  2.101702E+03 -1.828889E+04  5.248278E-10  1.388571E+04 -4.479894E-10
        27   5 -5.928859E+05 -3.561592E+03 -3.189494E+04 -1.269209E-09  3.065087E+04 -1.881264E-10
        27   6 -6.001581E+05 -5.858237E+04 -6.876180E+04  8.914097E-09  4.741631E+04 -7.022315E-11
        27   7 -6.001406E+05  2.101811E+03 -1.828887E+04  7.587294E+03  1.388571E+04  1.698565E-01
        27   8 -5.928858E+05 -3.561338E+03 -3.189490E+04 -1.162754E+04  3.065087E+04 -5.745823E-01
        27   9 -6.001571E+05 -5.858058E+04 -6.876155E+04 -3.084232E+04  4.741631E+04 -2.357755E+00
        27  10 -6.001408E+05  2.101759E+03 -1.828923E+04 -7.587294E+03  3.122293E-10 -1.343074E-10
        27  11 -5.928868E+05 -3.561590E+03 -3.189667E+04  1.162754E+04  4.813479E-10 -3.510219E-10
        27  12 -6.001595E+05 -5.858118E+04 -6.876578E+04  3.084232E+04  6.311103E-10 -1.509859E-10
        27  13 -6.001408E+05  2.101651E+03 -1.828925E+04 -7.179856E-10 -1.313655E-09 -4.873878E-10
        27  14 -5.928869E+05 -3.561845E+03 -3.189671E+04 -6.078736E-09 -3.175943E-10 -7.401236E-10
        27  15 -6.001605E+05 -5.858297E+04 -6.876603E+04  3.636781E-09 -1.041804E-09 -2.725863E-10
        27  16 -6.001408E+05  2.101759E+03 -1.828923E+04  7.587294E+03 -1.268041E-09 -8.686502E-10
        27  17 -5.928868E+05 -3.561590E+03 -3.189667E+04 -1.162754E+04 -1.584497E-09 -1.143738E-09
        27  18 -6.001595E+05 -5.858118E+04 -6.876578E+04 -3.084232E+04 -2.575538E-10 -4.004682E-10
        27  19 -6.001406E+05  2.101811E+03 -1.828887E+04 -7.587294E+03 -1.388571E+04  1.698565E-01
        27  20 -5.928858E+05 -3.561338E+03 -3.189490E+04  1.162754E+04 -3.065087E+04 -5.745823E-01
        27  21 -6.001571E+05 -5.858058E+04 -6.876155E+04  3.084232E+04 -4.741631E+04 -2.357755E+00
        27  22 -6.001406E+05  2.101702E+03 -1.828889E+04  1.852904E-10 -1.388571E+04 -5.216767E-10
        27  23 -5.928859E+05 -3.561592E+03 -3.189494E+04 -5.507752E-09 -3.065087E+04 -1.286444E-09
        27  24 -6.001581E+05 -5.858237E+04 -6.876180E+04  5.222345E-09 -4.741631E+04 -4.748476E-10
        27  25 -6.001406E+05  2.101811E+03 -1.828887E+04  7.587294E+03 -1.388571E+04 -1.698565E-01
        27  26 -5.928858E+05 -3.561338E+03 -3.189490E+04 -1.162754E+04 -3.065087E+04  5.745823E-01
        27  27 -6.001571E+05 -5.858058E+04 -6.876155E+04 -3.084232E+04 -4.741631E+04  2.357755E+00
        28   1  6.623088E+05  2.278804E+06  6.920781E+05 -3.475606E+05  2.128869E+04  2.616864E+05
        28   2  3.557094E+05  1.939654E+06  4.377491E+05 -2.186510E+05  6.521835E+04  1.400760E+05
        28   3  2.585968E+05  1.669015E+06  3.148370E+05 -1.919402E+05  6.289837E+04  1.851884E+04
        28   4  2.373774E+05  5.643666E+05  2.795974E+05 -2.212250E+05  2.138225E+04  1.872673E+05
        28   5  1.427001E+04  5.346774E+05  1.339807E+05 -1.702296E+05  6.525939E+04  1.170208E+05
        28   6 -7.993875E+03  5.646869E+05  8.436789E+04 -2.214034E+05  6.287016E+04  4.676171E+04
        28   7 -1.877054E+05 -1.147342E+06 -1.330636E+05 -9.523781E+04  2.144580E+04  1.130518E+05
        28   8 -3.272905E+05 -8.684448E+05 -1.699013E+05 -1.219183E+05  6.529690E+04  9.401681E+04
        28   9 -2.746586E+05 -5.384859E+05 -1.461651E+05 -2.508129E+05  6.283926E+04  7.495521E+04
        28  10  6.622900E+05  2.278730E+06  6.919490E+05 -3.475651E+05  1.012511E-10  1.954571E-10
        28  11  3.556996E+05  1.939632E+06  4.377043E+05 -2.186583E+05 -1.370601E-12 -5.101755E-10
        28  12  2.585925E+05  1.669013E+06  3.148290E+05 -1.919412E+05 -1.651856E-09 -1.927239E-10
        28  13  2.373675E+05  5.643289E+05  2.795307E+05 -2.212282E+05  7.989758E-11 -4.298314E-11
        28  14  1.426176E+04  5.346616E+05  1.339470E+05 -1.702357E+05  1.834660E-09  1.535248E-11
        28  15 -7.998708E+03  5.646835E+05  8.435635E+04 -2.214058E+05  9.313236E-10  2.570684E-10
        28  16 -1.877094E+05 -1.147356E+06 -1.330885E+05 -9.523976E+04  1.175555E-09 -2.146471E-10
        28  17 -3.272975E+05 -8.684555E+05 -1.699259E+05 -1.219233E+05 -1.126292E-09  1.618391E-10
        28  18 -2.746643E+05 -5.384930E+05 -1.461831E+05 -2.508166E+05 -3.642984E-10  2.588903E-10
        28  19  6.623088E+05  2.278804E+06  6.920781E+05 -3.475606E+05 -2.128869E+04 -2.616864E+05
        28  20  3.557094E+05  1.939654E+06  4.377491E+05 -2.186510E+05 -6.521835E+04 -1.400760E+05
        28  21  2.585968E+05  1.669015E+06  3.148370E+05 -1.919402E+05 -6.289837E+04 -1.851884E+04
        28  22  2.373774E+05  5.643666E+05  2.795974E+05 -2.212250E+05 -2.138225E+04 -1.872673E+05
        28  23  1.427001E+04  5.346774E+05  1.339807E+05 -1.702296E+05 -6.525939E+04 -1.170208E+05
        28  24 -7.993875E+03  5.646869E+05  8.436789E+04 -2.214034E+05 -6.287016E+04 -4.676171E+04
        28  25 -1.877054E+05 -1.147342E+06 -1.330636E+05 -9.523781E+04 -2.144580E+04 -1.130518E+05
        28  26 -3.272905E+05 -8.684448E+05 -1.699013E+05 -1.219183E+05 -6.529690E+04 -9.401681E+04
        28  27 -2.746586E+05 -5.384859E+05 -1.461651E+05 -2.508129E+05 -6.283926E+04 -7.495521E+04
        29   1  2.219896E+05  1.430102E+06  2.556367E+05 -2.277328E+05  4.919462E+04  1.788785E+04
        29   2  1.388552E+05  1.122116E+06  1.757490E+05 -1.704259E+05  3.352006E+04 -1.216010E+04
        29   3  7.311660E+04  8.222460E+05  1.196835E+05 -2.173390E+05  1.639263E+04 -4.220615E+04
        29   4  1.008093E+04  5.532283E+05  7.205400E+04 -2.218197E+05  4.917641E+04  3.443582E+04
        29   5  6.297460E+02  5.494053E+05  5.679204E+04 -1.697097E+05  3.349432E+04  6.021165E+03
        29   6  8.307500E+03  5.533366E+05  6.424175E+04 -2.218232E+05  1.635893E+04 -2.240574E+04
        29   7 -2.018766E+05 -3.229188E+05 -1.115704E+05 -2.159147E+05  4.915850E+04  5.096082E+04
        29   8 -1.376164E+05 -2.299462E+04 -6.218158E+04 -1.689941E+05  3.346862E+04  2.418597E+04
        29   9 -5.650587E+04  2.844966E+05  8.797584E+03 -2.263053E+05  1.632493E+04 -2.613754E+03
        29  10  2.219869E+05  1.430101E+06  2.556315E+05 -2.277336E+05 -1.622868E-09  1.131005E-09
        29  11  1.388540E+05  1.122116E+06  1.757466E+05 -1.704256E+05 -1.448310E-09 -3.953416E-10
        29  12  7.311584E+04  8.222441E+05  1.196797E+05 -2.173385E+05 -1.462337E-09 -8.544992E-10
        29  13  1.007801E+04  5.532264E+05  7.204722E+04 -2.218211E+05  1.441077E-09 -2.874874E-10
        29  14  6.285313E+02  5.494049E+05  5.678986E+04 -1.697099E+05 -1.412463E-09  4.003177E-11
        29  15  8.307078E+03  5.533360E+05  6.424031E+04 -2.218229E+05 -2.490602E-09  3.870436E-10
        29  16 -2.018799E+05 -3.229222E+05 -1.115798E+05 -2.159167E+05  1.327948E-09 -1.080657E-09
        29  17 -1.376178E+05 -2.299554E+04 -6.218478E+04 -1.689947E+05  1.188811E-09 -3.278695E-10
        29  18 -5.650616E+04  2.844966E+05  8.797070E+03 -2.263053E+05  4.030919E-10  1.042690E-09
        29  19  2.219896E+05  1.430102E+06  2.556367E+05 -2.277328E+05 -4.919462E+04 -1.788785E+04
        29  20  1.388552E+05  1.122116E+06  1.757490E+05 -1.704259E+05 -3.352006E+04  1.216010E+04
        29  21  7.311660E+04  8.222460E+05  1.196835E+05 -2.173390E+05 -1.639263E+04  4.220615E+04
        29  22  1.008093E+04  5.532283E+05  7.205400E+04 -2.218197E+05 -4.917641E+04 -3.443582E+04
        29  23  6.297460E+02  5.494053E+05  5.679204E+04 -1.697097E+05 -3.349432E+04 -6.021165E+03
        29  24  8.307500E+03  5.533366E+05  6.424175E+04 -2.218232E+05 -1.635893E+04  2.240574E+04
        29  25 -2.018766E+05 -3.229188E+05 -1.115704E+05 -2.159147E+05 -4.915850E+04 -5.096082E+04
        29  26 -1.376164E+05 -2.299462E+04 -6.218158E+04 -1.689941E+05 -3.346862E+04 -2.418597E+04
        29  27 -5.650587E+04  2.844966E+05  8.797584E+03 -2.263053E+05 -1.632493E+04  2.613754E+03
        30   1  4.290022E+03  6.049345E+05  8.027168E+04 -2.460453E+05  4.204195E+03 -5.690011E+04
        30   2 -5.161741E+04  2.790126E+05  5.164898E+04 -1.310638E+05 -8.571838E+03 -9.576039E+04
        30   3  5.126700E+04 -2.338628E+03  8.795294E+04 -1.194291E+05 -4.257830E+03 -1.345782E+05
        30   4 -5.892207E+03  5.622366E+05  7.253188E+04 -2.216875E+05  4.160167E+03 -3.328584E+04
        30   5  1.208338E+04  5.383383E+05  1.102027E+05 -1.698799E+05 -8.573452E+03 -9.105436E+04
        30   6  1.920748E+05  5.621399E+05  2.258891E+05 -2.213881E+05 -4.212466E+03 -1.487994E+05
        30   7 -1.607202E+04  5.195429E+05  6.479442E+04 -1.973313E+05  4.117989E+03 -9.673146E+03
        30   8  7.578518E+04  7.977297E+05  1.687530E+05 -2.087124E+05 -8.575654E+03 -8.634637E+04
        30   9  3.328980E+05  1.126931E+06  3.638082E+05 -3.234399E+05 -4.162462E+03 -1.630335E+05
        30  10  4.289135E+03  6.049310E+05  8.026557E+04 -2.460451E+05 -2.223947E-09  2.368769E-09
        30  11 -5.161995E+04  2.790027E+05  5.163162E+04 -1.310645E+05 -9.309493E-10 -6.525964E-10
        30  12  5.126212E+04 -2.358080E+03  8.791887E+04 -1.194296E+05 -7.940526E-10 -2.154281E-09
        30  13 -5.892523E+03  5.622354E+05  7.252977E+04 -2.216874E+05 -1.721457E-09 -4.182519E-10
        30  14  1.208108E+04  5.383294E+05  1.101870E+05 -1.698806E+05  2.102433E-09 -5.072317E-11
        30  15  1.920688E+05  5.621162E+05  2.258474E+05 -2.213886E+05  2.671498E-10  3.340808E-10
        30  16 -1.607206E+04  5.195428E+05  6.479421E+04 -1.973313E+05 -9.588487E-10 -2.435364E-09
        30  17  7.578311E+04  7.977217E+05  1.687389E+05 -2.087130E+05 -1.010379E-10 -2.109960E-11
        30  18  3.328909E+05  1.126903E+06  3.637583E+05 -3.234405E+05  5.773086E-10  2.244886E-09
        30  19  4.290022E+03  6.049345E+05  8.027168E+04 -2.460453E+05 -4.204195E+03  5.690011E+04
        30  20 -5.161741E+04  2.790126E+05  5.164898E+04 -1.310638E+05  8.571838E+03  9.576039E+04
        30  21  5.126700E+04 -2.338628E+03  8.795294E+04 -1.194291E+05  4.257830E+03  1.345782E+05
        30  22 -5.892207E+03  5.622366E+05  7.253188E+04 -2.216875E+05 -4.160167E+03  3.328584E+04
        30  23  1.208338E+04  5.383383E+05  1.102027E+05 -1.698799E+05  8.573452E+03  9.105436E+04
        30  24  1.920748E+05  5.621399E+05  2.258891E+05 -2.213881E+05  4.212466E+03  1.487994E+05
        30  25 -1.607202E+04  5.195429E+05  6.479442E+04 -1.973313E+05 -4.117989E+03  9.673146E+03
        30  26  7.578518E+04  7.977297E+05  1.687530E+05 -2.087124E+05  8.575654E+03  8.634637E+04
        30  27  3.328980E+05  1.126931E+06  3.638082E+05 -3.234399E+05  4.162462E+03  1.630335E+05
        31   1 -1.053290E+06 -2.540682E+05 -9.479983E+04 -4.094650E+05 -5.349405E+04 -1.925255E+04
        31   2 -1.038621E+06 -1.735937E+05 -4.509570E+04 -4.053481E+05 -3.347361E+04 -1.026169E+04
        31   3 -1.043397E+06 -1.521323E+05 -2.572151E+04 -3.918236E+05 -1.280344E+04 -3.002896E+03
        31   4 -1.019159E+06 -2.101284E+05 -7.968752E+04 -3.681163E+05 -5.125638E+04 -1.841684E+04
        31   5 -1.005243E+06 -1.498284E+05 -3.513334E+04 -3.844260E+05 -3.302439E+04 -1.009402E+04
        31   6 -1.010415E+06 -1.481857E+05 -1.948939E+04 -3.913286E+05 -1.414253E+04 -3.504772E+03
        31   7 -9.850257E+05 -1.661829E+05 -6.457518E+04 -3.267652E+05 -4.901862E+04 -1.758081E+04
        31   8 -9.718633E+05 -1.260621E+05 -2.517116E+04 -3.635027E+05 -3.257515E+04 -9.926327E+03
        31   9 -9.774321E+05 -1.442392E+05 -1.325727E+04 -3.908337E+05 -1.548169E+04 -4.006631E+03
        31  10 -1.053293E+06 -2.540694E+05 -9.480592E+04 -4.094659E+05  1.062241E-10  9.268843E-12
        31  11 -1.038622E+06 -1.735941E+05 -4.509801E+04 -4.053484E+05 -1.637147E-10  5.075310E-12
        31  12 -1.043397E+06 -1.521323E+05 -2.572183E+04 -3.918236E+05 -2.385539E-10 -7.152539E-11
        31  13 -1.019162E+06 -2.101295E+05 -7.969311E+04 -3.681170E+05  4.765127E-11 -1.662270E-11
        31  14 -1.005244E+06 -1.498288E+05 -3.513559E+04 -3.844262E+05  1.517796E-10 -8.830118E-11
        31  15 -1.010415E+06 -1.481858E+05 -1.948979E+04 -3.913286E+05 -5.693618E-10 -2.258160E-10
        31  16 -9.850283E+05 -1.661838E+05 -6.458029E+04 -3.267659E+05 -6.370430E-10 -8.365187E-11
        31  17 -9.718645E+05 -1.260625E+05 -2.517334E+04 -3.635030E+05  8.477354E-10 -4.544310E-10
        31  18 -9.774323E+05 -1.442392E+05 -1.325776E+04 -3.908338E+05  1.289497E-09 -4.768306E-10
        31  19 -1.053290E+06 -2.540682E+05 -9.479983E+04 -4.094650E+05  5.349405E+04  1.925255E+04
        31  20 -1.038621E+06 -1.735937E+05 -4.509570E+04 -4.053481E+05  3.347361E+04  1.026169E+04
        31  21 -1.043397E+06 -1.521323E+05 -2.572151E+04 -3.918236E+05  1.280344E+04  3.002896E+03
        31  22 -1.019159E+06 -2.101284E+05 -7.968752E+04 -3.681163E+05  5.125638E+04  1.841684E+04
        31  23 -1.005243E+06 -1.498284E+05 -3.513334E+04 -3.844260E+05  3.302439E+04  1.009402E+04
        31  24 -1.010415E+06 -1.481857E+05 -1.948939E+04 -3.913286E+05  1.414253E+04  3.504772E+03
        31  25 -9.850257E+05 -1.661829E+05 -6.457518E+04 -3.267652E+05  4.901862E+04  1.758081E+04
        31  26 -9.718633E+05 -1.260621E+05 -2.517116E+04 -3.635027E+05  3.257515E+04  9.926327E+03
        31  27 -9.774321E+05 -1.442392E+05 -1.325727E+04 -3.908337E+05  1.548169E+04  4.006631E+03
        32   1 -1.022724E+06 -1.594280E+05 -1.886044E+04 -3.932692E+05 -1.063316E+04 -2.975928E+03
        32   2 -1.009393E+06 -1.485432E+05 -8.126433E+03 -3.870825E+05 -6.197290E+03 -2.310438E+03
        32   3 -9.936604E+05 -1.444140E+05 -1.195704E+03 -3.849003E+05 -1.730691E+03 -1.726143E+03
        32   4 -1.007936E+06 -1.529713E+05 -1.526001E+04 -3.881905E+05 -1.149424E+04 -3.298802E+03
        32   5 -1.008940E+06 -1.481520E+05 -7.965762E+03 -3.867309E+05 -7.142165E+03 -2.664713E+03
        32   6 -1.007525E+06 -1.500719E+05 -4.408248E+03 -3.892760E+05 -2.759520E+03 -2.111884E+03
        32   7 -9.931478E+05 -1.465145E+05 -1.165955E+04 -3.831117E+05 -1.235536E+04 -3.621690E+03
        32   8 -1.008486E+06 -1.477609E+05 -7.805088E+03 -3.863794E+05 -8.087038E+03 -3.018988E+03
        32   9 -1.021389E+06 -1.557296E+05 -7.620731E+03 -3.936515E+05 -3.788307E+03 -2.497606E+03
        32  10 -1.022724E+06 -1.594280E+05 -1.886067E+04 -3.932692E+05 -1.155684E-09 -3.060109E-10
        32  11 -1.009393E+06 -1.485432E+05 -8.126515E+03 -3.870825E+05  2.112581E-09 -4.949633E-10
        32  12 -9.936604E+05 -1.444140E+05 -1.195716E+03 -3.849003E+05  5.603498E-10 -9.750528E-11
        32  13 -1.007936E+06 -1.529713E+05 -1.526028E+04 -3.881905E+05 -8.262768E-10 -9.351644E-11
        32  14 -1.008940E+06 -1.481520E+05 -7.965871E+03 -3.867310E+05  6.727824E-10 -1.164278E-10
        32  15 -1.007525E+06 -1.500719E+05 -4.408270E+03 -3.892760E+05  5.330913E-10 -5.404927E-11
        32  16 -9.931479E+05 -1.465145E+05 -1.165986E+04 -3.831117E+05  2.914740E-09 -1.715087E-10
        32  17 -1.008486E+06 -1.477609E+05 -7.805228E+03 -3.863794E+05  1.420319E-09  1.863968E-11
        32  18 -1.021389E+06 -1.557296E+05 -7.620770E+03 -3.936515E+05 -1.687336E-10 -1.676927E-10
        32  19 -1.022724E+06 -1.594280E+05 -1.886044E+04 -3.932692E+05  1.063316E+04  2.975928E+03
        32  20 -1.009393E+06 -1.485432E+05 -8.126433E+03 -3.870825E+05  6.197290E+03  2.310438E+03
        32  21 -9.936604E+05 -1.444140E+05 -1.195704E+03 -3.849003E+05  1.730691E+03  1.726143E+03
        32  22 -1.007936E+06 -1.529713E+05 -1.526001E+04 -3.881905E+05  1.149424E+04  3.298802E+03
        32  23 -1.008940E+06 -1.481520E+05 -7.965762E+03 -3.867309E+05  7.142165E+03  2.664713E+03
        32  24 -1.007525E+06 -1.500719E+05 -4.408248E+03 -3.892760E+05  2.759520E+03  2.111884E+03
        32  25 -9.931478E+05 -1.465145E+05 -1.165955E+04 -3.831117E+05  1.235536E+04  3.621690E+03
        32  26 -1.008486E+06 -1.477609E+05 -7.805088E+03 -3.863794E+05  8.087038E+03  3.018988E+03
        32  27 -1.021389E+06 -1.557296E+05 -7.620731E+03 -3.936515E+05  3.788307E+03  2.497606E+03
        33   1 -9.817192E+05 -1.407318E+05  2.577768E+03 -3.819802E+05 -9.157582E+02 -2.078660E+03
        33   2 -9.687447E+05 -1.331451E+05  7.425180E+03 -3.756490E+05  3.742042E+02 -2.707705E+03
        33   3 -9.519821E+05 -1.296716E+05  1.154778E+04 -3.738623E+05  1.665033E+03 -3.338823E+03
        33   4 -1.007333E+06 -1.502853E+05 -3.341737E+03 -3.890972E+05 -1.921646E+03 -2.455807E+03
        33   5 -1.009219E+06 -1.481755E+05 -1.847146E+03 -3.868448E+05 -6.338958E+02 -3.085716E+03
        33   6 -1.007317E+06 -1.501785E+05 -1.075555E+03 -3.891370E+05  6.547031E+02 -3.717707E+03
        33   7 -1.032945E+06 -1.598388E+05 -9.261336E+03 -3.962140E+05 -2.927496E+03 -2.832940E+03
        33   8 -1.049692E+06 -1.632060E+05 -1.111973E+04 -3.980401E+05 -1.641938E+03 -3.463704E+03
        33   9 -1.062650E+06 -1.706855E+05 -1.369938E+04 -4.044108E+05 -3.555486E+02 -4.096560E+03
        33  10 -9.817192E+05 -1.407318E+05  2.577758E+03 -3.819802E+05  1.187698E-09  9.436818E-11
        33  11 -9.687447E+05 -1.331451E+05  7.425166E+03 -3.756490E+05  1.557526E-09  3.754420E-10
        33  12 -9.519821E+05 -1.296716E+05  1.154775E+04 -3.738623E+05  3.817277E-10  3.260997E-10
        33  13 -1.007333E+06 -1.502853E+05 -3.341755E+03 -3.890972E+05 -8.742359E-10  3.586585E-11
        33  14 -1.009219E+06 -1.481755E+05 -1.847165E+03 -3.868448E+05 -1.411489E-09  4.493810E-11
        33  15 -1.007317E+06 -1.501785E+05 -1.075582E+03 -3.891370E+05  1.175966E-10  8.191533E-10
        33  16 -1.032945E+06 -1.598388E+05 -9.261367E+03 -3.962141E+05 -6.341368E-10 -2.363169E-10
        33  17 -1.049692E+06 -1.632060E+05 -1.111976E+04 -3.980401E+05 -8.560529E-10  1.241300E-10
        33  18 -1.062650E+06 -1.706855E+05 -1.369941E+04 -4.044108E+05  2.265321E-10  9.809052E-10
        33  19 -9.817192E+05 -1.407318E+05  2.577768E+03 -3.819802E+05  9.157582E+02  2.078660E+03
        33  20 -9.687447E+05 -1.331451E+05  7.425180E+03 -3.756490E+05 -3.742042E+02  2.707705E+03
        33  21 -9.519821E+05 -1.296716E+05  1.154778E+04 -3.738623E+05 -1.665033E+03  3.338823E+03
        33  22 -1.007333E+06 -1.502853E+05 -3.341737E+03 -3.890972E+05  1.921646E+03  2.455807E+03
        33  23 -1.009219E+06 -1.481755E+05 -1.847146E+03 -3.868448E+05  6.338958E+02  3.085716E+03
        33  24 -1.007317E+06 -1.501785E+05 -1.075555E+03 -3.891370E+05 -6.547031E+02  3.717707E+03
        33  25 -1.032945E+06 -1.598388E+05 -9.261336E+03 -3.962140E+05  2.927496E+03  2.832940E+03
        33  26 -1.049692E+06 -1.632060E+05 -1.111973E+04 -3.980401E+05  1.641938E+03  3.463704E+03
        33  27 -1.062650E+06 -1.706855E+05 -1.369938E+04 -4.044108E+05  3.555486E+02  4.096560E+03
        34   1 -9.406086E+05 -1.254821E+05  1.446163E+04 -3.707537E+05  2.035236E+03 -3.848942E+03
        34   2 -9.277817E+05 -1.180682E+05  1.803607E+04 -3.644426E+05  2.701511E+03 -4.710815E+03
        34   3 -9.110607E+05 -1.146045E+05  2.138459E+04 -3.626531E+05  3.367032E+03 -5.570416E+03
        34   4 -1.007300E+06 -1.501799E+05 -8.549323E+02 -3.891182E+05  1.027915E+03 -4.226722E+03
        34   5 -1.009247E+06 -1.482051E+05 -6.087871E+02 -3.868574E+05  1.696477E+03 -5.087785E+03
        34   6 -1.007300E+06 -1.501808E+05 -5.903185E+02 -3.891181E+05  2.364280E+03 -5.946582E+03
        34   7 -1.073985E+06 -1.748768E+05 -1.617146E+04 -4.074806E+05  2.072880E+01 -4.604451E+03
        34   8 -1.090705E+06 -1.783412E+05 -1.925386E+04 -4.092693E+05  6.915954E+02 -5.464698E+03
        34   9 -1.103531E+06 -1.857564E+05 -2.256577E+04 -4.155792E+05  1.361699E+03 -6.322683E+03
        34  10 -9.406086E+05 -1.254821E+05  1.446159E+04 -3.707536E+05  1.590193E-10  7.384696E-10
        34  11 -9.277817E+05 -1.180682E+05  1.803602E+04 -3.644426E+05  1.714512E-09  3.133348E-10
        34  12 -9.110607E+05 -1.146046E+05  2.138451E+04 -3.626531E+05 -2.397646E-11 -3.483971E-10
        34  13 -1.007300E+06 -1.501799E+05 -8.549679E+02 -3.891182E+05 -3.029551E-10  4.376074E-10
        34  14 -1.009247E+06 -1.482051E+05 -6.088411E+02 -3.868574E+05  2.632123E-09 -2.150253E-10
        34  15 -1.007300E+06 -1.501809E+05 -5.903954E+02 -3.891181E+05  1.282883E-09 -4.257587E-11
        34  16 -1.073985E+06 -1.748768E+05 -1.617150E+04 -4.074806E+05  8.622087E-10  1.666201E-10
        34  17 -1.090705E+06 -1.783412E+05 -1.925392E+04 -4.092693E+05  2.069748E-09 -5.083556E-10
        34  18 -1.103531E+06 -1.857564E+05 -2.256585E+04 -4.155792E+05  1.206869E-09  3.329496E-10
        34  19 -9.406086E+05 -1.254821E+05  1.446163E+04 -3.707537E+05 -2.035236E+03  3.848942E+03
        34  20 -9.277817E+05 -1.180682E+05  1.803607E+04 -3.644426E+05 -2.701511E+03  4.710815E+03
        34  21 -9.110607E+05 -1.146045E+05  2.138459E+04 -3.626531E+05 -3.367032E+03  5.570416E+03
        34  22 -1.007300E+06 -1.501799E+05 -8.549323E+02 -3.891182E+05 -1.027915E+03  4.226722E+03
        34  23 -1.009247E+06 -1.482051E+05 -6.087871E+02 -3.868574E+05 -1.696477E+03  5.087785E+03
        34  24 -1.007300E+06 -1.501808E+05 -5.903185E+02 -3.891181E+05 -2.364280E+03  5.946582E+03
        34  25 -1.073985E+06 -1.748768E+05 -1.617146E+04 -4.074806E+05 -2.072880E+01  4.604451E+03
        34  26 -1.090705E+06 -1.783412E+05 -1.925386E+04 -4.092693E+05 -6.915954E+02  5.464698E+03
        34  27 -1.103531E+06 -1.857564E+05 -2.256577E+04 -4.155792E+05 -1.361699E+03  6.322683E+03
        35   1 -8.998055E+05 -1.104166E+05  2.399534E+04 -3.595563E+05  3.679581E+03 -6.097108E+03
        35   2 -8.870883E+05 -1.030754E+05  2.696724E+04 -3.533115E+05  4.524461E+03 -6.881981E+03
        35   3 -8.705394E+05 -9.965417E+04  2.957716E+04 -3.515472E+05  5.367718E+03 -7.662036E+03
        35   4 -1.007315E+06 -1.501731E+05 -6.563338E+02 -3.891096E+05  2.679922E+03 -6.472156E+03
        35   5 -1.009231E+06 -1.482122E+05 -9.789895E+02 -3.868696E+05  3.529627E+03 -7.255304E+03
        35   6 -1.007316E+06 -1.501725E+05 -1.667586E+03 -3.891105E+05  4.377696E+03 -8.033635E+03
        35   7 -1.114813E+06 -1.899290E+05 -2.530896E+04 -4.186584E+05  1.680444E+03 -6.847137E+03
        35   8 -1.131358E+06 -1.933480E+05 -2.892631E+04 -4.204219E+05  2.535003E+03 -7.628548E+03
        35   9 -1.144074E+06 -2.006895E+05 -3.291357E+04 -4.266663E+05  3.387910E+03 -8.405146E+03
        35  10 -8.998055E+05 -1.104167E+05  2.399524E+04 -3.595563E+05 -1.797771E-09 -2.728252E-10
        35  11 -8.870884E+05 -1.030755E+05  2.696711E+04 -3.533114E+05 -8.214565E-10 -3.030752E-10
        35  12 -8.705394E+05 -9.965424E+04  2.957699E+04 -3.515472E+05 -3.931751E-09 -5.770088E-10
        35  13 -1.007315E+06 -1.501731E+05 -6.564260E+02 -3.891096E+05 -1.823838E-10  3.458260E-10
        35  14 -1.009231E+06 -1.482123E+05 -9.791118E+02 -3.868696E+05  9.975621E-10  8.790273E-10
        35  15 -1.007316E+06 -1.501726E+05 -1.667743E+03 -3.891105E+05 -2.912853E-09  7.705392E-10
        35  16 -1.114813E+06 -1.899290E+05 -2.530905E+04 -4.186584E+05  1.256052E-09  1.128086E-09
        35  17 -1.131358E+06 -1.933481E+05 -2.892643E+04 -4.204219E+05  9.871354E-10  1.883809E-09
        35  18 -1.144074E+06 -2.006895E+05 -3.291372E+04 -4.266663E+05  3.689216E-09  2.069224E-09
        35  19 -8.998055E+05 -1.104166E+05  2.399534E+04 -3.595563E+05 -3.679581E+03  6.097108E+03
        35  20 -8.870883E+05 -1.030754E+05  2.696724E+04 -3.533115E+05 -4.524461E+03  6.881981E+03
        35  21 -8.705394E+05 -9.965417E+04  2.957716E+04 -3.515472E+05 -5.367718E+03  7.662036E+03
        35  22 -1.007315E+06 -1.501731E+05 -6.563338E+02 -3.891096E+05 -2.679922E+03  6.472156E+03
        35  23 -1.009231E+06 -1.482122E+05 -9.789895E+02 -3.868696E+05 -3.529627E+03  7.255304E+03
        35  24 -1.007316E+06 -1.501725E+05 -1.667586E+03 -3.891105E+05 -4.377696E+03  8.033635E+03
        35  25 -1.114813E+06 -1.899290E+05 -2.530896E+04 -4.186584E+05 -1.680444E+03  6.847137E+03
        35  26 -1.131358E+06 -1.933480E+05 -2.892631E+04 -4.204219E+05 -2.535003E+03  7.628548E+03
        35  27 -1.144074E+06 -2.006895E+05 -3.291357E+04 -4.266663E+05 -3.387910E+03  8.405146E+03
        36   1 -8.594425E+05 -9.553631E+04  3.169275E+04 -3.485521E+05  5.897039E+03 -8.100743E+03
        36   2 -8.467784E+05 -8.825477E+04  3.320453E+04 -3.423442E+05  8.195257E+03 -8.320014E+03
        36   3 -8.306280E+05 -8.514419E+04  3.319313E+04 -3.405497E+05  1.048573E+04 -8.517965E+03
        36   4 -1.007383E+06 -1.501483E+05 -2.194515E+03 -3.891263E+05  4.906965E+03 -8.472419E+03
        36   5 -1.009142E+06 -1.481796E+05 -3.934536E+03 -3.868754E+05  7.226622E+03 -8.683750E+03
        36   6 -1.007419E+06 -1.503862E+05 -7.215041E+03 -3.890381E+05  9.538493E+03 -8.873774E+03
        36   7 -1.155301E+06 -2.047583E+05 -3.608299E+04 -4.296914E+05  3.917153E+03 -8.843996E+03
        36   8 -1.171479E+06 -2.081026E+05 -4.107535E+04 -4.313960E+05  6.258262E+03 -9.047383E+03
        36   9 -1.184180E+06 -2.156264E+05 -4.762557E+04 -4.375140E+05  8.591546E+03 -9.229476E+03
        36  10 -8.594426E+05 -9.553639E+04  3.169256E+04 -3.485521E+05 -1.867356E-08 -7.225383E-09
        36  11 -8.467785E+05 -8.825486E+04  3.320428E+04 -3.423441E+05  1.849518E-09 -1.495648E-09
        36  12 -8.306282E+05 -8.514430E+04  3.319279E+04 -3.405497E+05  1.938523E-08  6.003742E-09
        36  13 -1.007383E+06 -1.501484E+05 -2.194695E+03 -3.891263E+05  2.129696E-09 -3.493291E-10
        36  14 -1.009142E+06 -1.481797E+05 -3.934776E+03 -3.868754E+05  1.495218E-09 -1.888156E-09
        36  15 -1.007419E+06 -1.503864E+05 -7.215360E+03 -3.890380E+05 -5.083602E-10 -1.099700E-09
        36  16 -1.155301E+06 -2.047584E+05 -3.608317E+04 -4.296914E+05  2.184839E-08  6.668382E-09
        36  17 -1.171479E+06 -2.081027E+05 -4.107558E+04 -4.313959E+05  2.646961E-09 -2.420772E-09
        36  18 -1.184180E+06 -2.156265E+05 -4.762587E+04 -4.375140E+05 -1.810189E-08 -8.197288E-09
        36  19 -8.594425E+05 -9.553631E+04  3.169275E+04 -3.485521E+05 -5.897039E+03  8.100743E+03
        36  20 -8.467784E+05 -8.825477E+04  3.320453E+04 -3.423442E+05 -8.195257E+03  8.320014E+03
        36  21 -8.306280E+05 -8.514419E+04  3.319313E+04 -3.405497E+05 -1.048573E+04  8.517965E+03
        36  22 -1.007383E+06 -1.501483E+05 -2.194515E+03 -3.891263E+05 -4.906965E+03  8.472419E+03
        36  23 -1.009142E+06 -1.481796E+05 -3.934536E+03 -3.868754E+05 -7.226622E+03  8.683750E+03
        36  24 -1.007419E+06 -1.503862E+05 -7.215041E+03 -3.890381E+05 -9.538493E+03  8.873774E+03
        36  25 -1.155301E+06 -2.047583E+05 -3.608299E+04 -4.296914E+05 -3.917153E+03  8.843996E+03
        36  26 -1.171479E+06 -2.081026E+05 -4.107535E+04 -4.313960E+05 -6.258262E+03  9.047383E+03
        36  27 -1.184180E+06 -2.156264E+05 -4.762557E+04 -4.375140E+05 -8.591546E+03  9.229476E+03
        37   1 -8.193752E+05 -8.132927E+04  3.345234E+04 -3.387453E+05  1.213218E+04 -8.552300E+03
        37   2 -8.071240E+05 -7.314061E+04  2.897386E+04 -3.307232E+05  2.081909E+04 -6.236549E+03
        37   3 -7.943836E+05 -7.466789E+04  1.667241E+04 -3.258352E+05  2.937636E+04 -3.574733E+03
        37   4 -1.007857E+06 -1.499039E+05 -9.541615E+03 -3.894035E+05  1.109680E+04 -8.941251E+03
        37   5 -1.008515E+06 -1.481597E+05 -1.728303E+04 -3.866561E+05  2.013817E+04 -6.492592E+03
        37   6 -1.008755E+06 -1.562034E+05 -3.313059E+04 -3.870429E+05  2.904966E+04 -3.697947E+03
        37   7 -1.196303E+06 -2.184762E+05 -5.253789E+04 -4.400477E+05  1.006176E+04 -9.330079E+03
        37   8 -1.209864E+06 -2.231755E+05 -6.354247E+04 -4.425721E+05  1.945750E+04 -6.748543E+03
        37   9 -1.223079E+06 -2.377344E+05 -8.293636E+04 -4.482307E+05  2.872308E+04 -3.821112E+03
        37  10 -8.193754E+05 -8.132939E+04  3.345192E+04 -3.387452E+05  8.400723E-10  2.348080E-10
        37  11 -8.071245E+05 -7.314077E+04  2.897298E+04 -3.307231E+05  8.937073E-10  1.154348E-09
        37  12 -7.943845E+05 -7.466813E+04  1.667076E+04 -3.258352E+05  1.566268E-09  1.499041E-09
        37  13 -1.007857E+06 -1.499040E+05 -9.541997E+03 -3.894034E+05 -9.556396E-10 -1.035534E-10
        37  14 -1.008515E+06 -1.481599E+05 -1.728388E+04 -3.866560E+05 -1.587577E-09  1.102518E-09
        37  15 -1.008756E+06 -1.562037E+05 -3.313220E+04 -3.870428E+05 -5.987177E-10  6.729735E-10
        37  16 -1.196303E+06 -2.184763E+05 -5.253825E+04 -4.400476E+05 -2.247779E-09 -3.349057E-10
        37  17 -1.209865E+06 -2.231756E+05 -6.354326E+04 -4.425720E+05 -4.897697E-10  2.680557E-10
        37  18 -1.223080E+06 -2.377346E+05 -8.293794E+04 -4.482306E+05 -6.185212E-10  8.104812E-11
        37  19 -8.193752E+05 -8.132927E+04  3.345234E+04 -3.387453E+05 -1.213218E+04  8.552300E+03
        37  20 -8.071240E+05 -7.314061E+04  2.897386E+04 -3.307232E+05 -2.081909E+04  6.236549E+03
        37  21 -7.943836E+05 -7.466789E+04  1.667241E+04 -3.258352E+05 -2.937636E+04  3.574733E+03
        37  22 -1.007857E+06 -1.499039E+05 -9.541615E+03 -3.894035E+05 -1.109680E+04  8.941251E+03
        37  23 -1.008515E+06 -1.481597E+05 -1.728303E+04 -3.866561E+05 -2.013817E+04  6.492592E+03
        37  24 -1.008755E+06 -1.562034E+05 -3.313059E+04 -3.870429E+05 -2.904966E+04  3.697947E+03
        37  25 -1.196303E+06 -2.184762E+05 -5.253789E+04 -4.400477E+05 -1.006176E+04  9.330079E+03
        37  26 -1.209864E+06 -2.231755E+05 -6.354247E+04 -4.425721E+05 -1.945750E+04  6.748543E+03
        37  27 -1.223079E+06 -2.377344E+05 -8.293636E+04 -4.482307E+05 -2.872308E+04  3.821112E+03
        38   1 -7.742049E+05 -7.490337E+04  9.714302E+03 -3.463480E+05  3.694164E+04 -1.913139E+03
        38   2 -7.783496E+05 -4.464175E+04 -1.955318E+04 -2.950890E+05  6.961849E+04  1.193771E+04
        38   3 -8.275054E+05 -1.351629E+05 -1.056670E+05 -2.175795E+05  9.957898E+04  3.302454E+04
        38   4 -1.014173E+06 -1.457752E+05 -4.231693E+04 -3.938153E+05  3.462421E+04 -2.782772E+03
        38   5 -1.000442E+06 -1.518543E+05 -7.629179E+04 -3.817060E+05  7.475444E+04  1.386326E+04
        38   6 -1.033223E+06 -2.802306E+05 -1.730409E+05 -3.433406E+05  1.121681E+05  3.774104E+04
        38   7 -1.254085E+06 -2.166476E+05 -9.435175E+04 -4.412684E+05  3.230774E+04 -3.652215E+03
        38   8 -1.222483E+06 -2.590525E+05 -1.330342E+05 -4.682913E+05  7.988842E+04  1.578754E+04
        38   9 -1.238886E+06 -4.252519E+05 -2.404167E+05 -4.690532E+05  1.247528E+05  4.245236E+04
        38  10 -7.742064E+05 -7.490374E+04  9.711728E+03 -3.463480E+05  1.203434E-09  9.949176E-10
        38  11 -7.783548E+05 -4.464321E+04 -1.956257E+04 -2.950897E+05  7.254141E-10  8.309138E-10
        38  12 -8.275163E+05 -1.351667E+05 -1.056877E+05 -2.175821E+05  6.845881E-11  4.029515E-10
        38  13 -1.014175E+06 -1.457755E+05 -4.231920E+04 -3.938152E+05 -1.229238E-09  4.810581E-10
        38  14 -1.000448E+06 -1.518560E+05 -7.630267E+04 -3.817068E+05 -4.301839E-10 -2.543248E-10
        38  15 -1.033237E+06 -2.802355E+05 -1.730672E+05 -3.433440E+05 -1.373073E-09 -8.680957E-11
        38  16 -1.254087E+06 -2.166479E+05 -9.435374E+04 -4.412683E+05 -1.458382E-09 -7.354871E-11
        38  17 -1.222490E+06 -2.590545E+05 -1.330467E+05 -4.682923E+05  4.159310E-10 -1.102396E-10
        38  18 -1.238904E+06 -4.252581E+05 -2.404494E+05 -4.690575E+05  1.326750E-10  4.553825E-11
        38  19 -7.742049E+05 -7.490337E+04  9.714302E+03 -3.463480E+05 -3.694164E+04  1.913139E+03
        38  20 -7.783496E+05 -4.464175E+04 -1.955318E+04 -2.950890E+05 -6.961849E+04 -1.193771E+04
        38  21 -8.275054E+05 -1.351629E+05 -1.056670E+05 -2.175795E+05 -9.957898E+04 -3.302454E+04
        38  22 -1.014173E+06 -1.457752E+05 -4.231693E+04 -3.938153E+05 -3.462421E+04  2.782772E+03
        38  23 -1.000442E+06 -1.518543E+05 -7.629179E+04 -3.817060E+05 -7.475444E+04 -1.386326E+04
        38  24 -1.033223E+06 -2.802306E+05 -1.730409E+05 -3.433406E+05 -1.121681E+05 -3.774104E+04
        38  25 -1.254085E+06 -2.166476E+05 -9.435175E+04 -4.412684E+05 -3.230774E+04  3.652215E+03
        38  26 -1.222483E+06 -2.590525E+05 -1.330342E+05 -4.682913E+05 -7.988842E+04 -1.578754E+04
        38  27 -1.238886E+06 -4.252519E+05 -2.404167E+05 -4.690532E+05 -1.247528E+05 -4.245236E+04
        39   1 -8.359249E+04  3.298725E+04  3.872228E+04  1.737525E+04  2.670976E+04  7.476256E-01
        39   2 -8.768211E+04  2.007862E+03  1.796379E+04  6.550898E+03  1.726687E+04  1.822212E-01
        39   3 -8.359434E+04 -1.182786E+03  1.030117E+04 -4.273347E+03  7.823968E+03 -5.386126E-02
        39   4 -8.359281E+04  3.298669E+04  3.872220E+04  6.030786E-09  2.670976E+04 -2.218596E-10
        39   5 -8.768216E+04  2.007781E+03  1.796378E+04 -1.145391E-09  1.726687E+04 -4.569141E-10
        39   6 -8.359436E+04 -1.182820E+03  1.030116E+04  6.218118E-09  7.823968E+03 -3.330756E-11
        39   7 -8.359249E+04  3.298725E+04  3.872228E+04 -1.737525E+04  2.670976E+04 -7.476256E-01
        39   8 -8.768211E+04  2.007862E+03  1.796379E+04 -6.550898E+03  1.726687E+04 -1.822212E-01
        39   9 -8.359434E+04 -1.182786E+03  1.030117E+04  4.273347E+03  7.823968E+03  5.386126E-02
        39  10 -8.359326E+04  3.298706E+04  3.872094E+04  1.737525E+04  1.053567E-09 -1.483163E-10
        39  11 -8.768243E+04  2.007782E+03  1.796323E+04  6.550898E+03 -6.624353E-10 -3.876769E-10
        39  12 -8.359441E+04 -1.182802E+03  1.030105E+04 -4.273347E+03 -1.612848E-10 -2.368562E-10
        39  13 -8.359358E+04  3.298649E+04  3.872086E+04  6.518266E-10 -3.025116E-29  1.132081E-11
        39  14 -8.768248E+04  2.007701E+03  1.796322E+04 -6.021016E-09  5.881753E-10 -3.004425E-11
        39  15 -8.359443E+04 -1.182837E+03  1.030105E+04  4.533836E-09 -2.021347E-09 -1.917800E-10
        39  16 -8.359326E+04  3.298706E+04  3.872094E+04 -1.737525E+04  2.128249E-11  1.708203E-10
        39  17 -8.768243E+04  2.007782E+03  1.796323E+04 -6.550898E+03  4.294170E-10  3.428390E-10
        39  18 -8.359441E+04 -1.182802E+03  1.030105E+04  4.273347E+03  3.514644E-10 -1.445089E-10
        39  19 -8.359249E+04  3.298725E+04  3.872228E+04  1.737525E+04 -2.670976E+04 -7.476256E-01
        39  20 -8.768211E+04  2.007862E+03  1.796379E+04  6.550898E+03 -1.726687E+04 -1.822212E-01
        39  21 -8.359434E+04 -1.182786E+03  1.030117E+04 -4.273347E+03 -7.823968E+03  5.386126E-02
        39  22 -8.359281E+04  3.298669E+04  3.872220E+04  6.044457E-09 -2.670976E+04  2.434219E-10
        39  23 -8.768216E+04  2.007781E+03  1.796378E+04  3.101860E-09 -1.726687E+04  3.975704E-10
        39  24 -8.359436E+04 -1.182820E+03  1.030116E+04  6.083508E-09 -7.823968E+03 -3.501454E-10
        39  25 -8.359249E+04  3.298725E+04  3.872228E+04 -1.737525E+04 -2.670976E+04  7.476256E-01
        39  26 -8.768211E+04  2.007862E+03  1.796379E+04 -6.550898E+03 -1.726687E+04  1.822212E-01
        39  27 -8.359434E+04 -1.182786E+03  1.030117E+04  4.273347E+03 -7.823968E+03 -5.386126E-02
        40   1 -8.527511E+04  1.408567E+03  8.085308E+03  4.653806E+02  6.410954E+03  4.806327E-03
        40   2 -8.558167E+04  1.562089E+01  4.430274E+03  8.717619E+01  4.196340E+03  5.893197E-04
        40   3 -8.527529E+04 -7.919268E+01  2.541718E+03 -2.910232E+02  1.981766E+03 -9.291003E-04
        40   4 -8.527511E+04  1.408567E+03  8.085308E+03 -5.212068E-10  6.410954E+03  3.963464E-10
        40   5 -8.558167E+04  1.562087E+01  4.430274E+03 -3.021838E-10  4.196340E+03  2.551846E-10
        40   6 -8.527529E+04 -7.919284E+01  2.541718E+03 -3.179615E-09  1.981766E+03 -9.444140E-10
        40   7 -8.527511E+04  1.408567E+03  8.085308E+03 -4.653806E+02  6.410954E+03 -4.806327E-03
        40   8 -8.558167E+04  1.562089E+01  4.430274E+03 -8.717619E+01  4.196340E+03 -5.893192E-04
        40   9 -8.527529E+04 -7.919268E+01  2.541718E+03  2.910232E+02  1.981766E+03  9.290984E-04
        40  10 -8.527516E+04  1.408556E+03  8.085231E+03  4.653806E+02  2.187065E-10 -3.414387E-10
        40  11 -8.558169E+04  1.561616E+01  4.430241E+03  8.717619E+01  8.952417E-10 -6.140293E-10
        40  12 -8.527530E+04 -7.919373E+01  2.541711E+03 -2.910232E+02  2.240258E-10 -1.922027E-10
        40  13 -8.527516E+04  1.408556E+03  8.085231E+03 -5.043823E-10  1.081150E-09 -2.385305E-10
        40  14 -8.558169E+04  1.561614E+01  4.430241E+03 -9.487946E-09  1.615411E-09 -2.642178E-10
        40  15 -8.527530E+04 -7.919389E+01  2.541711E+03 -5.547765E-09  4.191776E-10 -4.569583E-10
        40  16 -8.527516E+04  1.408556E+03  8.085231E+03 -4.653806E+02  4.271640E-11 -1.518163E-10
        40  17 -8.558169E+04  1.561616E+01  4.430241E+03 -8.717619E+01 -8.077489E-11  8.758759E-11
        40  18 -8.527530E+04 -7.919373E+01  2.541711E+03  2.910232E+02 -1.096410E-09 -7.281415E-10
        40  19 -8.527511E+04  1.408567E+03  8.085308E+03  4.653806E+02 -6.410954E+03 -4.806328E-03
        40  20 -8.558167E+04  1.562089E+01  4.430274E+03  8.717619E+01 -4.196340E+03 -5.893210E-04
        40  21 -8.527529E+04 -7.919268E+01  2.541718E+03 -2.910232E+02 -1.981766E+03  9.290999E-04
        40  22 -8.527511E+04  1.408567E+03  8.085308E+03  2.742728E-09 -6.410954E+03 -8.742779E-10
        40  23 -8.558167E+04  1.562087E+01  4.430274E+03 -3.659388E-10 -4.196340E+03 -7.839276E-10
        40  24 -8.527529E+04 -7.919284E+01  2.541718E+03  3.255059E-09 -1.981766E+03  2.940053E-11
        40  25 -8.527511E+04  1.408567E+03  8.085308E+03 -4.653806E+02 -6.410954E+03  4.806326E-03
        40  26 -8.558167E+04  1.562089E+01  4.430274E+03 -8.717619E+01 -4.196340E+03  5.893194E-04
        40  27 -8.527529E+04 -7.919268E+01  2.541718E+03  2.910232E+02 -1.981766E+03 -9.290998E-04
        41   1 -8.539230E+04  3.616357E+01  1.936595E+03 -6.270975E+01  1.586605E+03 -1.602830E-04
        41   2 -8.543552E+04 -1.836651E+01  1.094677E+03 -4.997115E+01  1.044695E+03 -8.409839E-05
        41   3 -8.539233E+04 -9.576715E+00  6.214411E+02 -3.723236E+01  5.027782E+02 -3.015505E-05
        41   4 -8.539230E+04  3.616356E+01  1.936595E+03  6.214214E-09  1.586605E+03 -9.428798E-10
        41   5 -8.543552E+04 -1.836652E+01  1.094677E+03  1.244477E-08  1.044695E+03  5.673987E-10
        41   6 -8.539233E+04 -9.576718E+00  6.214411E+02  6.694539E-09  5.027782E+02  1.501079E-09
        41   7 -8.539230E+04  3.616357E+01  1.936595E+03  6.270975E+01  1.586605E+03  1.602811E-04
        41   8 -8.543552E+04 -1.836651E+01  1.094677E+03  4.997115E+01  1.044695E+03  8.409951E-05
        41   9 -8.539233E+04 -9.576715E+00  6.214411E+02  3.723236E+01  5.027782E+02  3.015807E-05
        41  10 -8.539230E+04  3.616289E+01  1.936590E+03 -6.270975E+01 -6.075390E-10  3.100252E-10
        41  11 -8.543552E+04 -1.836680E+01  1.094675E+03 -4.997115E+01  2.171888E-10  6.631463E-10
        41  12 -8.539233E+04 -9.576783E+00  6.214407E+02 -3.723236E+01  1.012930E-09  2.541267E-10
        41  13 -8.539230E+04  3.616289E+01  1.936590E+03  7.808571E-11  1.051661E-12 -1.901466E-10
        41  14 -8.543552E+04 -1.836681E+01  1.094675E+03  7.152897E-09 -1.630885E-09  5.200991E-10
        41  15 -8.539233E+04 -9.576785E+00  6.214407E+02  5.074274E-09  1.606616E-09  4.398794E-10
        41  16 -8.539230E+04  3.616289E+01  1.936590E+03  6.270975E+01  1.393982E-09 -6.897838E-10
        41  17 -8.543552E+04 -1.836680E+01  1.094675E+03  4.997115E+01 -2.648038E-09  3.788177E-10
        41  18 -8.539233E+04 -9.576783E+00  6.214407E+02  3.723236E+01 -8.844203E-10  6.197044E-10
        41  19 -8.539230E+04  3.616357E+01  1.936595E+03 -6.270975E+01 -1.586605E+03  1.602836E-04
        41  20 -8.543552E+04 -1.836651E+01  1.094677E+03 -4.997115E+01 -1.044695E+03  8.409970E-05
        41  21 -8.539233E+04 -9.576715E+00  6.214411E+02 -3.723236E+01 -5.027782E+02  3.015557E-05
        41  22 -8.539230E+04  3.616356E+01  1.936595E+03  1.479195E-09 -1.586605E+03  5.628744E-10
        41  23 -8.543552E+04 -1.836652E+01  1.094677E+03 -4.601123E-09 -1.044695E+03  4.694485E-10
        41  24 -8.539233E+04 -9.576718E+00  6.214411E+02  9.513226E-09 -5.027782E+02 -6.229417E-10
        41  25 -8.539230E+04  3.616357E+01  1.936595E+03  6.270975E+01 -1.586605E+03 -1.602825E-04
        41  26 -8.543552E+04 -1.836651E+01  1.094677E+03  4.997115E+01 -1.044695E+03 -8.409876E-05
        41  27 -8.539233E+04 -9.576715E+00  6.214411E+02  3.723236E+01 -5.027782E+02 -3.015682E-05
        42   1 -8.540777E+04 -5.376004E+00  4.652427E+02 -2.444877E+01  4.045512E+02 -1.593329E-05
        42   2 -8.541624E+04 -5.113380E+00  2.492189E+02 -1.709523E+01  2.813985E+02 -7.751019E-06
        42   3 -8.540778E+04 -1.231884E+00  1.142860E+02 -9.741686E+00  1.582459E+02 -2.483233E-06
        42   4 -8.540777E+04 -5.376005E+00  4.652427E+02  6.818512E-09  4.045512E+02  6.015254E-10
        42   5 -8.541624E+04 -5.113380E+00  2.492189E+02  2.040032E-09  2.813985E+02 -1.076849E-09
        42   6 -8.540778E+04 -1.231884E+00  1.142860E+02  2.216819E-10  1.582459E+02  3.031015E-10
        42   7 -8.540777E+04 -5.376004E+00  4.652427E+02  2.444877E+01  4.045512E+02  1.593448E-05
        42   8 -8.541624E+04 -5.113380E+00  2.492189E+02  1.709523E+01  2.813985E+02  7.748854E-06
        42   9 -8.540778E+04 -1.231884E+00  1.142860E+02  9.741686E+00  1.582459E+02  2.483832E-06
        42  10 -8.540777E+04 -5.376048E+00  4.652424E+02 -2.444877E+01  6.307643E-10 -4.483607E-10
        42  11 -8.541624E+04 -5.113401E+00  2.492188E+02 -1.709523E+01  3.635142E-10 -9.391433E-10
        42  12 -8.540778E+04 -1.231890E+00  1.142860E+02 -9.741686E+00 -1.870595E-09  1.389510E-10
        42  13 -8.540777E+04 -5.376049E+00  4.652424E+02  8.640061E-09  2.457781E-11 -1.213143E-10
        42  14 -8.541624E+04 -5.113401E+00  2.492188E+02 -6.520778E-09 -2.168267E-09 -5.999098E-10
        42  15 -8.540778E+04 -1.231891E+00  1.142860E+02 -4.988832E-09 -1.544388E-11  2.531068E-10
        42  16 -8.540777E+04 -5.376048E+00  4.652424E+02  2.444877E+01 -1.196680E-10  2.055559E-10
        42  17 -8.541624E+04 -5.113401E+00  2.492188E+02  1.709523E+01 -8.700434E-10 -2.545880E-10
        42  18 -8.540778E+04 -1.231891E+00  1.142860E+02  9.741686E+00  3.782734E-11  3.686965E-10
        42  19 -8.540777E+04 -5.376004E+00  4.652427E+02 -2.444877E+01 -4.045512E+02  1.593239E-05
        42  20 -8.541624E+04 -5.113380E+00  2.492189E+02 -1.709523E+01 -2.813985E+02  7.749161E-06
        42  21 -8.540778E+04 -1.231884E+00  1.142860E+02 -9.741686E+00 -1.582459E+02  2.483498E-06
        42  22 -8.540777E+04 -5.376005E+00  4.652427E+02  1.369071E-08 -4.045512E+02 -8.440345E-10
        42  23 -8.541624E+04 -5.113380E+00  2.492189E+02 -5.927492E-09 -2.813985E+02 -1.173273E-10
        42  24 -8.540778E+04 -1.231884E+00  1.142860E+02 -2.123500E-09 -1.582459E+02  2.041559E-10
        42  25 -8.540777E+04 -5.376004E+00  4.652427E+02  2.444877E+01 -4.045512E+02 -1.593408E-05
        42  26 -8.541624E+04 -5.113380E+00  2.492189E+02  1.709523E+01 -2.813985E+02 -7.749375E-06
        42  27 -8.540778E+04 -1.231884E+00  1.142860E+02  9.741686E+00 -1.582459E+02 -2.483102E-06
        43   1 -8.541203E+04 -1.340692E+00  6.242448E+01 -8.996068E+00  1.421991E+02 -2.059996E-06
        43   2 -8.541093E+04  5.817282E-01 -3.057876E+01 -9.679605E+00  1.573209E+02 -2.453140E-06
        43   3 -8.541204E+04  1.529684E+00 -1.336723E+02 -1.036313E+01  1.724425E+02 -2.878127E-06
        43   4 -8.541203E+04 -1.340692E+00  6.242448E+01  7.466767E-09  1.421991E+02  8.882948E-10
        43   5 -8.541093E+04  5.817281E-01 -3.057876E+01 -3.496561E-09  1.573209E+02  1.697633E-10
        43   6 -8.541204E+04  1.529684E+00 -1.336723E+02 -1.670604E-09  1.724425E+02  4.245136E-10
        43   7 -8.541203E+04 -1.340692E+00  6.242448E+01  8.996068E+00  1.421991E+02  2.061773E-06
        43   8 -8.541093E+04  5.817282E-01 -3.057876E+01  9.679605E+00  1.573209E+02  2.453474E-06
        43   9 -8.541204E+04  1.529684E+00 -1.336723E+02  1.036313E+01  1.724425E+02  2.878968E-06
        43  10 -8.541203E+04 -1.340698E+00  6.242444E+01 -8.996068E+00 -3.183037E-10  2.161260E-10
        43  11 -8.541093E+04  5.817216E-01 -3.057881E+01 -9.679605E+00 -1.102823E-09 -4.381289E-10
        43  12 -8.541204E+04  1.529676E+00 -1.336724E+02 -1.036313E+01 -2.201016E-09  6.855917E-10
        43  13 -8.541203E+04 -1.340698E+00  6.242444E+01  3.863537E-09 -1.051329E-09  3.260372E-10
        43  14 -8.541093E+04  5.817214E-01 -3.057881E+01 -2.569421E-10  5.693346E-10 -2.892097E-10
        43  15 -8.541204E+04  1.529676E+00 -1.336724E+02 -5.453833E-09 -3.176363E-10  3.928344E-10
        43  16 -8.541203E+04 -1.340698E+00  6.242444E+01  8.996068E+00 -2.379823E-09  4.377792E-10
        43  17 -8.541093E+04  5.817216E-01 -3.057881E+01  9.679605E+00 -2.279149E-10 -1.385105E-10
        43  18 -8.541204E+04  1.529676E+00 -1.336724E+02  1.036313E+01 -1.698682E-10  9.448143E-11
        43  19 -8.541203E+04 -1.340692E+00  6.242448E+01 -8.996068E+00 -1.421991E+02  2.060438E-06
        43  20 -8.541093E+04  5.817282E-01 -3.057876E+01 -9.679605E+00 -1.573209E+02  2.452277E-06
        43  21 -8.541204E+04  1.529684E+00 -1.336723E+02 -1.036313E+01 -1.724425E+02  2.879497E-06
        43  22 -8.541203E+04 -1.340692E+00  6.242448E+01  5.644992E-09 -1.421991E+02 -2.362344E-10
        43  23 -8.541093E+04  5.817281E-01 -3.057876E+01 -3.477894E-09 -1.573209E+02 -7.494822E-10
        43  24 -8.541204E+04  1.529684E+00 -1.336723E+02 -8.893520E-10 -1.724425E+02  3.609785E-10
        43  25 -8.541203E+04 -1.340692E+00  6.242448E+01  8.996068E+00 -1.421991E+02 -2.060905E-06
        43  26 -8.541093E+04  5.817282E-01 -3.057876E+01  9.679605E+00 -1.573209E+02 -2.453772E-06
        43  27 -8.541204E+04  1.529684E+00 -1.336723E+02  1.036313E+01 -1.724425E+02 -2.878775E-06
        44   1 -8.541825E+04  2.981191E+00 -1.982320E+02 -1.480051E+01  2.024168E+02 -4.825853E-06
        44   2 -8.540317E+04  6.304621E+00 -3.798459E+02 -1.889380E+01  3.904717E+02 -1.188573E-05
        44   3 -8.541827E+04 -1.313529E+01 -6.895932E+02 -2.298715E+01  5.785294E+02 -2.142336E-05
        44   4 -8.541825E+04  2.981190E+00 -1.982320E+02  6.193733E-09  2.024168E+02 -2.384865E-11
        44   5 -8.540317E+04  6.304620E+00 -3.798459E+02 -1.616931E-10  3.904717E+02 -1.016064E-09
        44   6 -8.541827E+04 -1.313529E+01 -6.895932E+02  2.097065E-09  5.785294E+02  1.874234E-10
        44   7 -8.541825E+04  2.981191E+00 -1.982320E+02  1.480051E+01  2.024168E+02  4.825798E-06
        44   8 -8.540317E+04  6.304621E+00 -3.798459E+02  1.889380E+01  3.904717E+02  1.188369E-05
        44   9 -8.541827E+04 -1.313529E+01 -6.895932E+02  2.298715E+01  5.785294E+02  2.142371E-05
        44  10 -8.541825E+04  2.981180E+00 -1.982321E+02 -1.480051E+01  8.374421E-10  7.765399E-10
        44  11 -8.540317E+04  6.304580E+00 -3.798462E+02 -1.889380E+01 -3.874187E-11 -3.097963E-10
        44  12 -8.541827E+04 -1.313538E+01 -6.895939E+02 -2.298715E+01 -6.781439E-10  3.556738E-12
        44  13 -8.541825E+04  2.981179E+00 -1.982321E+02  2.573150E-09 -1.108827E-09  4.029512E-10
        44  14 -8.540317E+04  6.304579E+00 -3.798462E+02 -2.385503E-09 -2.738600E-09 -3.810914E-10
        44  15 -8.541827E+04 -1.313538E+01 -6.895939E+02 -1.422052E-09  9.559872E-10 -7.882794E-11
        44  16 -8.541825E+04  2.981180E+00 -1.982321E+02  1.480051E+01 -1.871099E-09  2.954308E-11
        44  17 -8.540317E+04  6.304580E+00 -3.798462E+02  1.889380E+01 -1.092162E-09 -4.511319E-10
        44  18 -8.541827E+04 -1.313538E+01 -6.895939E+02  2.298715E+01  8.714841E-10 -1.622120E-10
        44  19 -8.541825E+04  2.981191E+00 -1.982320E+02 -1.480051E+01 -2.024168E+02  4.827407E-06
        44  20 -8.540317E+04  6.304621E+00 -3.798459E+02 -1.889380E+01 -3.904717E+02  1.188512E-05
        44  21 -8.541827E+04 -1.313529E+01 -6.895932E+02 -2.298715E+01 -5.785294E+02  2.142336E-05
        44  22 -8.541825E+04  2.981190E+00 -1.982320E+02  6.493230E-09 -2.024168E+02  8.302993E-10
        44  23 -8.540317E+04  6.304620E+00 -3.798459E+02 -3.024839E-10 -3.904717E+02  2.548857E-10
        44  24 -8.541827E+04 -1.313529E+01 -6.895932E+02  2.596735E-09 -5.785294E+02 -3.442633E-10
        44  25 -8.541825E+04  2.981191E+00 -1.982320E+02  1.480051E+01 -2.024168E+02 -4.825742E-06
        44  26 -8.540317E+04  6.304621E+00 -3.798459E+02  1.889380E+01 -3.904717E+02 -1.188460E-05
        44  27 -8.541827E+04 -1.313529E+01 -6.895932E+02  2.298715E+01 -5.785294E+02 -2.142405E-05
        45   1 -8.546060E+04  2.842740E+01 -9.097639E+02 -1.052448E+02  7.196061E+02 -1.220044E-04
        45   2 -8.535028E+04 -5.704793E+00 -1.593238E+03  3.119937E+01  1.516068E+03  7.619856E-05
        45   3 -8.546066E+04 -5.077365E+02 -2.912269E+03  1.676436E+02  2.312528E+03  6.245353E-04
        45   4 -8.546060E+04  2.842738E+01 -9.097639E+02  9.026851E-09  7.196061E+02  6.866835E-10
        45   5 -8.535028E+04 -5.704795E+00 -1.593238E+03  2.394125E-09  1.516068E+03  2.757485E-10
        45   6 -8.546066E+04 -5.077365E+02 -2.912269E+03 -1.411642E-09  2.312528E+03  6.143451E-10
        45   7 -8.546060E+04  2.842740E+01 -9.097639E+02  1.052448E+02  7.196061E+02  1.220058E-04
        45   8 -8.535028E+04 -5.704793E+00 -1.593238E+03 -3.119937E+01  1.516068E+03 -7.619805E-05
        45   9 -8.546066E+04 -5.077365E+02 -2.912269E+03 -1.676436E+02  2.312528E+03 -6.245341E-04
        45  10 -8.546060E+04  2.842726E+01 -9.097649E+02 -1.052448E+02  1.443571E-09  1.295757E-10
        45  11 -8.535028E+04 -5.705410E+00 -1.593243E+03  3.119937E+01  1.028914E-09 -4.804831E-11
        45  12 -8.546066E+04 -5.077379E+02 -2.912279E+03  1.676436E+02 -2.368944E-09  7.004184E-10
        45  13 -8.546060E+04  2.842724E+01 -9.097649E+02  3.610088E-09 -1.051660E-12  1.737870E-10
        45  14 -8.535028E+04 -5.705412E+00 -1.593243E+03 -2.798158E-10 -5.538332E-10  1.514893E-10
        45  15 -8.546066E+04 -5.077379E+02 -2.912279E+03 -2.015319E-09  6.825049E-10  2.978770E-10
        45  16 -8.546060E+04  2.842726E+01 -9.097649E+02  1.052448E+02 -6.623930E-10  2.177343E-10
        45  17 -8.535028E+04 -5.705410E+00 -1.593243E+03 -3.119937E+01 -7.596804E-10  3.466438E-10
        45  18 -8.546066E+04 -5.077379E+02 -2.912279E+03 -1.676436E+02  6.227888E-10 -1.064733E-10
        45  19 -8.546060E+04  2.842740E+01 -9.097639E+02 -1.052448E+02 -7.196061E+02  1.220047E-04
        45  20 -8.535028E+04 -5.704793E+00 -1.593238E+03  3.119937E+01 -1.516068E+03 -7.619869E-05
        45  21 -8.546066E+04 -5.077365E+02 -2.912269E+03  1.676436E+02 -2.312528E+03 -6.245339E-04
        45  22 -8.546060E+04  2.842738E+01 -9.097639E+02  3.577618E-09 -7.196061E+02 -3.392240E-10
        45  23 -8.535028E+04 -5.704795E+00 -1.593238E+03 -5.646232E-09 -1.516068E+03  2.871384E-11
        45  24 -8.546066E+04 -5.077365E+02 -2.912269E+03  8.419749E-09 -2.312528E+03 -1.734274E-11
        45  25 -8.546060E+04  2.842740E+01 -9.097639E+02  1.052448E+02 -7.196061E+02 -1.220054E-04
        45  26 -8.535028E+04 -5.704793E+00 -1.593238E+03 -3.119937E+01 -1.516068E+03  7.619874E-05
        45  27 -8.546066E+04 -5.077365E+02 -2.912269E+03 -1.676436E+02 -2.312528E+03  6.245339E-04
        46   1 -8.606650E+04  4.263334E+02 -3.711467E+03 -1.540432E+03  2.821496E+03 -7.001717E-03
        46   2 -8.459308E+04 -7.236975E+02 -6.473941E+03  2.361226E+03  6.224869E+03  2.367823E-02
        46   3 -8.606696E+04 -1.188978E+04 -1.395637E+04  6.262813E+03  9.628193E+03  9.713955E-02
        46   4 -8.606650E+04  4.263289E+02 -3.711467E+03 -2.431774E-10  2.821496E+03  1.569213E-10
        46   5 -8.459308E+04 -7.237079E+02 -6.473943E+03  1.149875E-09  6.224869E+03 -1.084695E-09
        46   6 -8.606701E+04 -1.188985E+04 -1.395638E+04  4.292792E-09  9.628193E+03 -5.172317E-10
        46   7 -8.606650E+04  4.263334E+02 -3.711467E+03  1.540432E+03  2.821496E+03  7.001717E-03
        46   8 -8.459308E+04 -7.236975E+02 -6.473941E+03 -2.361226E+03  6.224869E+03 -2.367823E-02
        46   9 -8.606696E+04 -1.188978E+04 -1.395637E+04 -6.262813E+03  9.628193E+03 -9.713956E-02
        46  10 -8.606651E+04  4.263313E+02 -3.711482E+03 -1.540432E+03 -1.210073E-09  4.436874E-10
        46  11 -8.459312E+04 -7.237079E+02 -6.474014E+03  2.361226E+03 -3.835606E-10 -7.732692E-10
        46  12 -8.606706E+04 -1.188980E+04 -1.395655E+04  6.262813E+03 -7.811841E-10 -4.025581E-10
        46  13 -8.606651E+04  4.263268E+02 -3.711482E+03  2.643614E-09 -1.015777E-09 -1.212138E-11
        46  14 -8.459312E+04 -7.237184E+02 -6.474016E+03 -1.585192E-09  1.934547E-27 -6.719276E-10
        46  15 -8.606711E+04 -1.188987E+04 -1.395656E+04  1.186354E-09  9.525314E-10 -3.011568E-10
        46  16 -8.606651E+04  4.263313E+02 -3.711482E+03  1.540432E+03 -6.584834E-10 -4.644137E-10
        46  17 -8.459312E+04 -7.237079E+02 -6.474014E+03 -2.361226E+03  1.368663E-10 -5.701721E-10
        46  18 -8.606706E+04 -1.188980E+04 -1.395655E+04 -6.262813E+03  1.760151E-09 -2.017645E-10
        46  19 -8.606650E+04  4.263334E+02 -3.711467E+03 -1.540432E+03 -2.821496E+03  7.001717E-03
        46  20 -8.459308E+04 -7.236975E+02 -6.473941E+03  2.361226E+03 -6.224869E+03 -2.367823E-02
        46  21 -8.606696E+04 -1.188978E+04 -1.395637E+04  6.262813E+03 -9.628193E+03 -9.713956E-02
        46  22 -8.606650E+04  4.263289E+02 -3.711467E+03  1.091602E-08 -2.821496E+03 -1.802946E-10
        46  23 -8.459308E+04 -7.237079E+02 -6.473943E+03  5.264903E-10 -6.224869E+03 -2.590738E-10
        46  24 -8.606701E+04 -1.188985E+04 -1.395638E+04  3.735122E-09 -9.628193E+03 -8.526464E-11
        46  25 -8.606650E+04  4.263334E+02 -3.711467E+03  1.540432E+03 -2.821496E+03 -7.001718E-03
        46  26 -8.459308E+04 -7.236975E+02 -6.473941E+03 -2.361226E+03 -6.224869E+03  2.367823E-02
        46  27 -8.606696E+04 -1.188978E+04 -1.395637E+04 -6.262813E+03 -9.628193E+03  9.713956E-02
        47   1  2.819599E+05  9.602384E+05  2.857776E+05 -1.442060E+05  1.136004E+04  8.435185E+04
        47   2  1.845769E+05  7.941246E+05  1.942849E+05 -9.906843E+04  3.473801E+04  3.999569E+04
        47   3  1.408183E+05  6.472957E+05  1.450658E+05 -1.063424E+05  3.372405E+04 -4.351891E+03
        47   4  5.780930E+04  5.659279E+04  6.818389E+04 -1.134095E+05  1.137537E+04  4.501160E+04
        47   5  3.455182E+03  4.932513E+04  3.316011E+04 -8.721586E+04  3.474729E+04  2.764122E+04
        47   6 -1.918688E+03  5.666493E+04  2.171091E+04 -1.134324E+05  3.371681E+04  1.026760E+04
        47   7 -1.663965E+05 -8.463012E+05 -1.494617E+05 -8.265788E+04  1.138681E+04  5.728298E+03
        47   8 -1.777026E+05 -6.949535E+05 -1.279969E+05 -7.537760E+04  3.475612E+04  1.530134E+04
        47   9 -1.446776E+05 -5.336356E+05 -1.016624E+05 -1.205154E+05  3.370923E+04  2.487342E+04
        47  10  2.819579E+05  9.602308E+05  2.857640E+05 -1.442068E+05 -5.041539E-10 -9.222844E-10
        47  11  1.845752E+05  7.941226E+05  1.942796E+05 -9.906955E+04 -3.031095E-09 -1.367967E-09
        47  12  1.408171E+05  6.472954E+05  1.450636E+05 -1.063423E+05 -1.308433E-09 -5.181782E-10
        47  13  5.780862E+04  5.659058E+04  6.817984E+04 -1.134100E+05 -2.160307E-10  4.903324E-11
        47  14  3.453680E+03  4.932398E+04  3.315640E+04 -8.721664E+04 -8.725743E-10  7.498529E-12
        47  15 -1.919937E+03  5.666451E+04  2.170857E+04 -1.134326E+05 -5.504667E-10  1.637326E-10
        47  16 -1.663966E+05 -8.463013E+05 -1.494620E+05 -8.265793E+04  1.117591E-09  9.149269E-10
        47  17 -1.777039E+05 -6.949541E+05 -1.279996E+05 -7.537803E+04  7.238085E-10  7.481534E-10
        47  18 -1.446790E+05 -5.336365E+05 -1.016657E+05 -1.205160E+05 -7.604063E-10  4.764217E-10
        47  19  2.819599E+05  9.602384E+05  2.857776E+05 -1.442060E+05 -1.136004E+04 -8.435185E+04
        47  20  1.845769E+05  7.941246E+05  1.942849E+05 -9.906843E+04 -3.473801E+04 -3.999569E+04
        47  21  1.408183E+05  6.472957E+05  1.450658E+05 -1.063424E+05 -3.372405E+04  4.351891E+03
        47  22  5.780930E+04  5.659279E+04  6.818389E+04 -1.134095E+05 -1.137537E+04 -4.501160E+04
        47  23  3.455182E+03  4.932513E+04  3.316011E+04 -8.721586E+04 -3.474729E+04 -2.764122E+04
        47  24 -1.918688E+03  5.666493E+04  2.171091E+04 -1.134324E+05 -3.371681E+04 -1.026760E+04
        47  25 -1.663965E+05 -8.463012E+05 -1.494617E+05 -8.265788E+04 -1.138681E+04 -5.728298E+03
        47  26 -1.777026E+05 -6.949535E+05 -1.279969E+05 -7.537760E+04 -3.475612E+04 -1.530134E+04
        47  27 -1.446776E+05 -5.336356E+05 -1.016624E+05 -1.205154E+05 -3.370923E+04 -2.487342E+04
        48   1  1.169971E+05  5.277621E+05  1.183931E+05 -1.153612E+05  2.664521E+04 -1.423352E+03
        48   2  7.685694E+04  3.703241E+05  8.268109E+04 -8.704337E+04  1.859622E+04 -1.066980E+04
        48   3  4.190225E+04  2.153497E+05  5.426636E+04 -1.123207E+05  9.736374E+03 -1.991756E+04
        48   4  2.413261E+03  5.395270E+04  1.913308E+04 -1.136910E+05  2.664040E+04  7.024510E+03
        48   5  1.740016E+02  5.282521E+04  1.668656E+04 -8.689256E+04  1.858929E+04 -1.322545E+03
        48   6  2.967182E+03  5.398328E+04  2.091635E+04 -1.136906E+05  9.727099E+03 -9.673158E+03
        48   7 -1.121849E+05 -4.196445E+05 -8.013918E+04 -1.120220E+05  2.663563E+04  1.546603E+04
        48   8 -7.651530E+04 -2.645781E+05 -4.931317E+04 -8.674181E+04  1.858237E+04  8.020012E+03
        48   9 -3.596947E+04 -1.073583E+05 -1.243467E+04 -1.150602E+05  9.717777E+03  5.686329E+02
        48  10  1.169963E+05  5.277620E+05  1.183918E+05 -1.153612E+05 -3.023369E-09  2.639796E-10
        48  11  7.685654E+04  3.703239E+05  8.268023E+04 -8.704321E+04 -2.786853E-09 -6.613654E-10
        48  12  4.190204E+04  2.153493E+05  5.426544E+04 -1.123205E+05 -8.152743E-10  1.026575E-09
        48  13  2.412486E+03  5.395246E+04  1.913166E+04 -1.136911E+05 -1.353033E-09  3.024345E-10
        48  14  1.736300E+02  5.282511E+04  1.668590E+04 -8.689254E+04 -8.754161E-10 -1.836089E-11
        48  15  2.967055E+03  5.398316E+04  2.091600E+04 -1.136906E+05  3.518724E-10  2.329791E-10
        48  16 -1.121857E+05 -4.196449E+05 -8.014096E+04 -1.120223E+05 -5.299037E-11 -2.477274E-10
        48  17 -7.651569E+04 -2.645783E+05 -4.931394E+04 -8.674193E+04 -3.888589E-10 -7.232359E-10
        48  18 -3.596957E+04 -1.073583E+05 -1.243484E+04 -1.150602E+05  5.913456E-10 -1.137995E-09
        48  19  1.169971E+05  5.277621E+05  1.183931E+05 -1.153612E+05 -2.664521E+04  1.423352E+03
        48  20  7.685694E+04  3.703241E+05  8.268109E+04 -8.704337E+04 -1.859622E+04  1.066980E+04
        48  21  4.190225E+04  2.153497E+05  5.426636E+04 -1.123207E+05 -9.736374E+03  1.991756E+04
        48  22  2.413261E+03  5.395270E+04  1.913308E+04 -1.136910E+05 -2.664040E+04 -7.024510E+03
        48  23  1.740016E+02  5.282521E+04  1.668656E+04 -8.689256E+04 -1.858929E+04  1.322545E+03
        48  24  2.967182E+03  5.398328E+04  2.091635E+04 -1.136906E+05 -9.727099E+03  9.673158E+03
        48  25 -1.121849E+05 -4.196445E+05 -8.013918E+04 -1.120220E+05 -2.663563E+04 -1.546603E+04
        48  26 -7.651530E+04 -2.645781E+05 -4.931317E+04 -8.674181E+04 -1.858237E+04 -8.020012E+03
        48  27 -3.596947E+04 -1.073583E+05 -1.243467E+04 -1.150602E+05 -9.717777E+03 -5.686329E+02
        49   1  8.598494E+03  1.023156E+05  3.317489E+04 -1.223682E+05  3.484668E+03 -2.529605E+04
        49   2 -2.286011E+04 -6.158250E+04  1.341326E+04 -7.324458E+04 -3.317926E+03 -3.647766E+04
        49   3  1.796285E+03 -2.100527E+05  1.494059E+04 -7.734271E+04 -1.910377E+03 -4.765047E+04
        49   4 -2.189108E+03  5.725127E+04  2.439308E+04 -1.136189E+05  3.472936E+03 -1.324387E+04
        49   5  4.274103E+03  4.876182E+04  3.859639E+04 -8.698231E+04 -3.319749E+03 -3.349432E+04
        49   6  6.841831E+04  5.723936E+04  8.038029E+04 -1.135612E+05 -1.902169E+03 -5.373868E+04
        49   7 -1.297647E+04  1.218935E+04  1.561177E+04 -1.048704E+05  3.461543E+03 -1.192552E+03
        49   8  3.140818E+04  1.591179E+05  6.377887E+04 -1.007225E+05 -3.321703E+03 -3.051045E+04
        49   9  1.350400E+05  3.245994E+05  1.458156E+05 -1.497952E+05 -1.893253E+03 -5.982951E+04
        49  10  8.598309E+03  1.023149E+05  3.317366E+04 -1.223681E+05 -1.126667E-09  1.346137E-09
        49  11 -2.286048E+04 -6.158393E+04  1.341074E+04 -7.324468E+04  6.276910E-10 -1.231196E-09
        49  12  1.795671E+03 -2.100552E+05  1.493631E+04 -7.734279E+04 -7.901828E-11 -1.027305E-09
        49  13 -2.189168E+03  5.725108E+04  2.439273E+04 -1.136189E+05  1.268367E-09  4.005826E-10
        49  14  4.273790E+03  4.876062E+04  3.859426E+04 -8.698240E+04  2.296236E-09 -5.432494E-12
        49  15  6.841753E+04  5.723626E+04  8.037485E+04 -1.135613E+05 -2.434928E-10  2.353867E-10
        49  16 -1.297648E+04  1.218935E+04  1.561174E+04 -1.048704E+05 -9.092634E-10 -1.384873E-09
        49  17  3.140792E+04  1.591169E+05  6.377710E+04 -1.007226E+05 -1.520803E-10 -3.304500E-10
        49  18  1.350390E+05  3.245956E+05  1.458089E+05 -1.497953E+05  6.406307E-10  9.162996E-10
        49  19  8.598494E+03  1.023156E+05  3.317489E+04 -1.223682E+05 -3.484668E+03  2.529605E+04
        49  20 -2.286011E+04 -6.158250E+04  1.341326E+04 -7.324458E+04  3.317926E+03  3.647766E+04
        49  21  1.796285E+03 -2.100527E+05  1.494059E+04 -7.734271E+04  1.910377E+03  4.765047E+04
        49  22 -2.189108E+03  5.725127E+04  2.439308E+04 -1.136189E+05 -3.472936E+03  1.324387E+04
        49  23  4.274103E+03  4.876182E+04  3.859639E+04 -8.698231E+04  3.319749E+03  3.349432E+04
        49  24  6.841831E+04  5.723936E+04  8.038029E+04 -1.135612E+05  1.902169E+03  5.373868E+04
        49  25 -1.297647E+04  1.218935E+04  1.561177E+04 -1.048704E+05 -3.461543E+03  1.192552E+03
        49  26  3.140818E+04  1.591179E+05  6.377887E+04 -1.007225E+05  3.321703E+03  3.051045E+04
        49  27  1.350400E+05  3.245994E+05  1.458156E+05 -1.497952E+05  1.893253E+03  5.982951E+04
        50   1 -4.573464E+05 -1.299675E+05 -5.771243E+04 -1.783334E+05 -2.691794E+04 -8.820066E+03
        50   2 -4.435275E+05 -8.945094E+04 -3.184377E+04 -1.731254E+05 -1.682551E+04 -2.464702E+03
        50   3 -4.366865E+05 -7.785428E+04 -2.095633E+04 -1.660874E+05 -5.814550E+03  1.441864E+03
        50   4 -3.848323E+05 -8.874934E+04 -3.577815E+04 -1.441788E+05 -2.332563E+04 -7.473803E+03
        50   5 -3.796367E+05 -6.063607E+04 -1.577788E+04 -1.503059E+05 -1.576239E+04 -2.066284E+03
        50   6 -3.809165E+05 -6.094017E+04 -8.753222E+03 -1.546036E+05 -7.280737E+03  8.921699E+02
        50   7 -3.123139E+05 -4.752917E+04 -1.384470E+04 -1.100205E+05 -1.973292E+04 -6.127188E+03
        50   8 -3.157420E+05 -3.182045E+04  2.876179E+02 -1.274842E+05 -1.469915E+04 -1.667801E+03
        50   9 -3.251429E+05 -4.402591E+04  3.449838E+03 -1.431189E+05 -8.747081E+03  3.424397E+02
        50  10 -4.573472E+05 -1.299678E+05 -5.771394E+04 -1.783336E+05  5.025150E-10  2.554181E-11
        50  11 -4.435278E+05 -8.945102E+04 -3.184431E+04 -1.731254E+05  5.926480E-10 -6.263148E-10
        50  12 -4.366865E+05 -7.785429E+04 -2.095639E+04 -1.660873E+05  1.521968E-09  7.399163E-11
        50  13 -3.848329E+05 -8.874955E+04 -3.577928E+04 -1.441789E+05  1.007568E-09 -4.659004E-10
        50  14 -3.796370E+05 -6.063614E+04 -1.577835E+04 -1.503060E+05  3.170962E-09 -4.232335E-10
        50  15 -3.809165E+05 -6.094019E+04 -8.753323E+03 -1.546036E+05  4.592684E-09  6.139504E-10
        50  16 -3.123143E+05 -4.752932E+04 -1.384551E+04 -1.100206E+05 -5.783248E-11 -7.722692E-10
        50  17 -3.157422E+05 -3.182051E+04  2.872064E+02 -1.274843E+05  9.574413E-10 -5.827744E-10
        50  18 -3.251430E+05 -4.402593E+04  3.449694E+03 -1.431189E+05  5.056512E-09  1.157464E-09
        50  19 -4.573464E+05 -1.299675E+05 -5.771243E+04 -1.783334E+05  2.691794E+04  8.820066E+03
        50  20 -4.435275E+05 -8.945094E+04 -3.184377E+04 -1.731254E+05  1.682551E+04  2.464702E+03
        50  21 -4.366865E+05 -7.785428E+04 -2.095633E+04 -1.660874E+05  5.814550E+03 -1.441864E+03
        50  22 -3.848323E+05 -8.874934E+04 -3.577815E+04 -1.441788E+05  2.332563E+04  7.473803E+03
        50  23 -3.796367E+05 -6.063607E+04 -1.577788E+04 -1.503059E+05  1.576239E+04  2.066284E+03
        50  24 -3.809165E+05 -6.094017E+04 -8.753222E+03 -1.546036E+05  7.280737E+03 -8.921699E+02
        50  25 -3.123139E+05 -4.752917E+04 -1.384470E+04 -1.100205E+05  1.973292E+04  6.127188E+03
        50  26 -3.157420E+05 -3.182045E+04  2.876179E+02 -1.274842E+05  1.469915E+04  1.667801E+03
        50  27 -3.251429E+05 -4.402591E+04  3.449838E+03 -1.431189E+05  8.747081E+03 -3.424397E+02
        51   1 -4.211603E+05 -7.884736E+04 -1.648329E+04 -1.650380E+05 -5.141552E+03  8.569171E+02
        51   2 -4.081547E+05 -6.988537E+04 -9.761085E+03 -1.588045E+05 -2.905911E+03  7.574628E+02
        51   3 -3.919350E+05 -6.612227E+04 -4.810671E+03 -1.568340E+05 -6.270098E+02  5.426779E+02
        51   4 -3.797886E+05 -6.310140E+04 -6.853933E+03 -1.532107E+05 -5.931486E+03  5.607418E+02
        51   5 -3.813154E+05 -5.986282E+04 -3.578881E+03 -1.513230E+05 -3.814866E+03  4.166855E+02
        51   6 -3.796047E+05 -6.179941E+04 -1.981168E+03 -1.536984E+05 -1.655063E+03  1.572790E+02
        51   7 -3.384150E+05 -4.735524E+04  2.775351E+03 -1.413826E+05 -6.721479E+03  2.645427E+02
        51   8 -3.544755E+05 -4.984032E+04  2.603205E+03 -1.438414E+05 -4.723855E+03  7.589526E+01
        51   9 -3.672745E+05 -5.747666E+04  8.482513E+02 -1.505628E+05 -2.683115E+03 -2.281181E+02
        51  10 -4.211603E+05 -7.884737E+04 -1.648334E+04 -1.650380E+05  2.742761E-09  1.110891E-09
        51  11 -4.081547E+05 -6.988538E+04 -9.761102E+03 -1.588045E+05 -2.451667E-11  2.068217E-10
        51  12 -3.919350E+05 -6.612227E+04 -4.810672E+03 -1.568340E+05  2.649403E-10 -1.156975E-10
        51  13 -3.797886E+05 -6.310141E+04 -6.854000E+03 -1.532107E+05  3.963702E-09  9.476317E-10
        51  14 -3.813154E+05 -5.986283E+04 -3.578908E+03 -1.513230E+05  5.150889E-10  3.404498E-10
        51  15 -3.796047E+05 -6.179942E+04 -1.981173E+03 -1.536984E+05  1.094244E-09 -4.222245E-10
        51  16 -3.384151E+05 -4.735525E+04  2.775266E+03 -1.413826E+05  2.250173E-09  7.824332E-10
        51  17 -3.544756E+05 -4.984032E+04  2.603163E+03 -1.438414E+05 -2.757437E-09  4.525166E-10
        51  18 -3.672745E+05 -5.747666E+04  8.482377E+02 -1.505628E+05 -5.515687E-10 -6.825430E-10
        51  19 -4.211603E+05 -7.884736E+04 -1.648329E+04 -1.650380E+05  5.141552E+03 -8.569171E+02
        51  20 -4.081547E+05 -6.988537E+04 -9.761085E+03 -1.588045E+05  2.905911E+03 -7.574628E+02
        51  21 -3.919350E+05 -6.612227E+04 -4.810671E+03 -1.568340E+05  6.270098E+02 -5.426779E+02
        51  22 -3.797886E+05 -6.310140E+04 -6.853933E+03 -1.532107E+05  5.931486E+03 -5.607418E+02
        51  23 -3.813154E+05 -5.986282E+04 -3.578881E+03 -1.513230E+05  3.814866E+03 -4.166855E+02
        51  24 -3.796047E+05 -6.179941E+04 -1.981168E+03 -1.536984E+05  1.655063E+03 -1.572790E+02
        51  25 -3.384150E+05 -4.735524E+04  2.775351E+03 -1.413826E+05  6.721479E+03 -2.645427E+02
        51  26 -3.544755E+05 -4.984032E+04  2.603205E+03 -1.438414E+05  4.723855E+03 -7.589526E+01
        51  27 -3.672745E+05 -5.747666E+04  8.482513E+02 -1.505628E+05  2.683115E+03  2.281181E+02
        52   1 -3.803710E+05 -6.217136E+04 -1.649242E+03 -1.538230E+05 -1.635652E+02  6.076334E+01
        52   2 -3.675212E+05 -5.469746E+04  2.355221E+03 -1.475138E+05  6.193137E+02 -7.485579E+02
        52   3 -3.508142E+05 -5.122821E+04  6.030275E+03 -1.457180E+05  1.404132E+03 -1.562899E+03
        52   4 -3.795172E+05 -6.189668E+04 -1.502322E+03 -1.536201E+05 -1.159941E+03 -3.127567E+02
        52   5 -3.814426E+05 -5.987079E+04 -8.315897E+02 -1.513722E+05 -3.822785E+02 -1.124053E+03
        52   6 -3.795102E+05 -6.184869E+04 -4.861587E+02 -1.536379E+05  3.973104E+02 -1.940373E+03
        52   7 -3.786633E+05 -6.162200E+04 -1.355394E+03 -1.534171E+05 -2.156337E+03 -6.862845E+02
        52   8 -3.953641E+05 -6.504421E+04 -4.018474E+03 -1.552306E+05 -1.383863E+03 -1.499546E+03
        52   9 -4.082057E+05 -7.246925E+04 -7.002752E+03 -1.615577E+05 -6.094744E+02 -2.317832E+03
        52  10 -3.803710E+05 -6.217136E+04 -1.649242E+03 -1.538230E+05 -3.812908E-09 -1.115278E-09
        52  11 -3.675212E+05 -5.469746E+04  2.355219E+03 -1.475138E+05  8.531045E-09  4.292766E-09
        52  12 -3.508142E+05 -5.122822E+04  6.030267E+03 -1.457180E+05  2.165229E-08  9.396405E-09
        52  13 -3.795172E+05 -6.189668E+04 -1.502325E+03 -1.536201E+05  6.705883E-10 -2.609381E-10
        52  14 -3.814426E+05 -5.987080E+04 -8.315924E+02 -1.513722E+05  4.390246E-09  1.341950E-09
        52  15 -3.795102E+05 -6.184869E+04 -4.861661E+02 -1.536379E+05  8.414151E-09  3.625579E-09
        52  16 -3.786633E+05 -6.162200E+04 -1.355403E+03 -1.534171E+05  4.312382E-09  6.013509E-10
        52  17 -3.953641E+05 -6.504421E+04 -4.018482E+03 -1.552306E+05 -3.905533E-09 -1.760224E-09
        52  18 -4.082057E+05 -7.246925E+04 -7.002763E+03 -1.615577E+05 -6.727257E-09 -2.056660E-09
        52  19 -3.803710E+05 -6.217136E+04 -1.649242E+03 -1.538230E+05  1.635652E+02 -6.076334E+01
        52  20 -3.675212E+05 -5.469746E+04  2.355221E+03 -1.475138E+05 -6.193137E+02  7.485579E+02
        52  21 -3.508142E+05 -5.122821E+04  6.030275E+03 -1.457180E+05 -1.404132E+03  1.562899E+03
        52  22 -3.795172E+05 -6.189668E+04 -1.502322E+03 -1.536201E+05  1.159941E+03  3.127567E+02
        52  23 -3.814426E+05 -5.987079E+04 -8.315897E+02 -1.513722E+05  3.822785E+02  1.124053E+03
        52  24 -3.795102E+05 -6.184869E+04 -4.861587E+02 -1.536379E+05 -3.973104E+02  1.940373E+03
        52  25 -3.786633E+05 -6.162200E+04 -1.355394E+03 -1.534171E+05  2.156337E+03  6.862845E+02
        52  26 -3.953641E+05 -6.504421E+04 -4.018474E+03 -1.552306E+05  1.383863E+03  1.499546E+03
        52  27 -4.082057E+05 -7.246925E+04 -7.002752E+03 -1.615577E+05  6.094744E+02  2.317832E+03
        53   1 -3.394936E+05 -4.704489E+04  8.811311E+03 -1.426194E+05  1.687256E+03 -2.103280E+03
        53   2 -3.266905E+05 -3.963778E+04  1.224324E+04 -1.363090E+05  2.191072E+03 -3.023598E+03
        53   3 -3.099761E+05 -3.616807E+04  1.557060E+04 -1.345088E+05  2.694796E+03 -3.943501E+03
        53   4 -3.795013E+05 -6.185069E+04 -3.879576E+02 -1.536312E+05  6.822515E+02 -2.480084E+03
        53   5 -3.814570E+05 -5.988250E+04 -2.803231E+02 -1.513760E+05  1.186460E+03 -3.400284E+03
        53   6 -3.795016E+05 -6.185160E+04 -2.775108E+02 -1.536309E+05  1.690578E+03 -4.320076E+03
        53   7 -4.195066E+05 -7.665602E+04 -9.587071E+03 -1.646421E+05 -3.226591E+02 -2.856853E+03
        53   8 -4.362201E+05 -8.012684E+04 -1.280398E+04 -1.664416E+05  1.819512E+02 -3.776932E+03
        53   9 -4.490230E+05 -8.753502E+04 -1.612612E+04 -1.727512E+05  6.864728E+02 -4.696610E+03
        53  10 -3.394936E+05 -4.704490E+04  8.811297E+03 -1.426194E+05 -6.842059E-09 -1.436167E-09
        53  11 -3.266905E+05 -3.963780E+04  1.224321E+04 -1.363090E+05 -4.187937E-10 -1.315783E-09
        53  12 -3.099761E+05 -3.616809E+04  1.557056E+04 -1.345088E+05  5.470843E-09  1.042780E-09
        53  13 -3.795013E+05 -6.185070E+04 -3.879700E+02 -1.536312E+05  7.769703E-09  3.773086E-09
        53  14 -3.814570E+05 -5.988251E+04 -2.803474E+02 -1.513760E+05  3.596871E-09  2.004760E-09
        53  15 -3.795016E+05 -6.185162E+04 -2.775512E+02 -1.536309E+05  2.217147E-09 -1.253105E-10
        53  16 -4.195066E+05 -7.665603E+04 -9.587087E+03 -1.646421E+05  2.127926E-08  9.236472E-09
        53  17 -4.362201E+05 -8.012686E+04 -1.280400E+04 -1.664416E+05  8.811381E-09  5.287265E-09
        53  18 -4.490230E+05 -8.753504E+04 -1.612616E+04 -1.727512E+05 -3.702935E-09 -9.853961E-10
        53  19 -3.394936E+05 -4.704489E+04  8.811311E+03 -1.426194E+05 -1.687256E+03  2.103280E+03
        53  20 -3.266905E+05 -3.963778E+04  1.224324E+04 -1.363090E+05 -2.191072E+03  3.023598E+03
        53  21 -3.099761E+05 -3.616807E+04  1.557060E+04 -1.345088E+05 -2.694796E+03  3.943501E+03
        53  22 -3.795013E+05 -6.185069E+04 -3.879576E+02 -1.536312E+05 -6.822515E+02  2.480084E+03
        53  23 -3.814570E+05 -5.988250E+04 -2.803231E+02 -1.513760E+05 -1.186460E+03  3.400284E+03
        53  24 -3.795016E+05 -6.185160E+04 -2.775108E+02 -1.536309E+05 -1.690578E+03  4.320076E+03
        53  25 -4.195066E+05 -7.665602E+04 -9.587071E+03 -1.646421E+05  3.226591E+02  2.856853E+03
        53  26 -4.362201E+05 -8.012684E+04 -1.280398E+04 -1.664416E+05 -1.819512E+02  3.776932E+03
        53  27 -4.490230E+05 -8.753502E+04 -1.612612E+04 -1.727512E+05 -6.864728E+02  4.696610E+03
        54   1 -2.986951E+05 -3.198040E+04  1.821558E+04 -1.314116E+05  2.955113E+03 -4.490842E+03
        54   2 -2.859202E+05 -2.459317E+04  2.137187E+04 -1.251200E+05  3.550890E+03 -5.374000E+03
        54   3 -2.692570E+05 -2.113800E+04  2.435397E+04 -1.233286E+05  4.146093E+03 -6.255311E+03
        54   4 -3.795072E+05 -6.184992E+04 -3.113220E+02 -1.536292E+05  1.951733E+03 -4.867137E+03
        54   5 -3.814517E+05 -5.988404E+04 -4.694760E+02 -1.513791E+05  2.549357E+03 -5.749665E+03
        54   6 -3.795084E+05 -6.185063E+04 -8.032735E+02 -1.536294E+05  3.146400E+03 -6.630347E+03
        54   7 -4.603127E+05 -9.171895E+04 -1.883865E+04 -1.758440E+05  9.484943E+02 -5.243378E+03
        54   8 -4.769738E+05 -9.517411E+04 -2.231134E+04 -1.776344E+05  1.547994E+03 -6.125267E+03
        54   9 -4.897470E+05 -1.025621E+05 -2.596113E+04 -1.839251E+05  2.146905E+03 -7.005309E+03
        54  10 -2.986951E+05 -3.198043E+04  1.821553E+04 -1.314116E+05  3.737692E-10 -7.008908E-10
        54  11 -2.859202E+05 -2.459321E+04  2.137180E+04 -1.251200E+05  1.058476E-10 -2.454095E-10
        54  12 -2.692570E+05 -2.113804E+04  2.435386E+04 -1.233286E+05  4.107431E-10  3.359447E-10
        54  13 -3.795072E+05 -6.184995E+04 -3.113736E+02 -1.536291E+05  3.330287E-10 -4.359562E-10
        54  14 -3.814517E+05 -5.988407E+04 -4.695503E+02 -1.513791E+05 -5.441618E-11 -2.650445E-10
        54  15 -3.795084E+05 -6.185068E+04 -8.033746E+02 -1.536294E+05  3.364132E-10  4.477683E-10
        54  16 -4.603127E+05 -9.171898E+04 -1.883870E+04 -1.758440E+05 -2.539259E-11 -1.350144E-10
        54  17 -4.769738E+05 -9.517415E+04 -2.231142E+04 -1.776344E+05  2.755495E-09 -5.519329E-11
        54  18 -4.897470E+05 -1.025622E+05 -2.596123E+04 -1.839250E+05  5.946444E-10  6.384613E-10
        54  19 -2.986951E+05 -3.198040E+04  1.821558E+04 -1.314116E+05 -2.955113E+03  4.490842E+03
        54  20 -2.859202E+05 -2.459317E+04  2.137187E+04 -1.251200E+05 -3.550890E+03  5.374000E+03
        54  21 -2.692570E+05 -2.113800E+04  2.435397E+04 -1.233286E+05 -4.146093E+03  6.255311E+03
        54  22 -3.795072E+05 -6.184992E+04 -3.113220E+02 -1.536292E+05 -1.951733E+03  4.867137E+03
        54  23 -3.814517E+05 -5.988404E+04 -4.694760E+02 -1.513791E+05 -2.549357E+03  5.749665E+03
        54  24 -3.795084E+05 -6.185063E+04 -8.032735E+02 -1.536294E+05 -3.146400E+03  6.630347E+03
        54  25 -4.603127E+05 -9.171895E+04 -1.883865E+04 -1.758440E+05 -9.484943E+02  5.243378E+03
        54  26 -4.769738E+05 -9.517411E+04 -2.231134E+04 -1.776344E+05 -1.547994E+03  6.125267E+03
        54  27 -4.897470E+05 -1.025621E+05 -2.596113E+04 -1.839251E+05 -2.146905E+03  7.005309E+03
        55   1 -2.580221E+05 -1.697239E+04  2.676856E+04 -1.202709E+05  4.514583E+03 -6.760856E+03
        55   2 -2.452448E+05 -9.597193E+03  2.923119E+04 -1.139828E+05  5.806448E+03 -7.373417E+03
        55   3 -2.287340E+05 -6.279785E+03  3.096508E+04 -1.121698E+05  7.092423E+03 -7.969673E+03
        55   4 -3.795383E+05 -6.184066E+04 -1.057709E+03 -1.536384E+05  3.512261E+03 -7.136925E+03
        55   5 -3.814122E+05 -5.986808E+04 -1.898037E+03 -1.513793E+05  4.820702E+03 -7.743362E+03
        55   6 -3.795564E+05 -6.195687E+04 -3.480432E+03 -1.535956E+05  6.123227E+03 -8.333500E+03
        55   7 -5.010406E+05 -1.067081E+05 -2.888516E+04 -1.870002E+05  2.510145E+03 -7.512918E+03
        55   8 -5.175615E+05 -1.101378E+05 -3.302861E+04 -1.887684E+05  3.835188E+03 -8.113220E+03
        55   9 -5.303559E+05 -1.176323E+05 -3.792746E+04 -1.950122E+05  5.154285E+03 -8.697231E+03
        55  10 -2.580221E+05 -1.697245E+04  2.676844E+04 -1.202709E+05  2.070048E-09  7.252581E-10
        55  11 -2.452449E+05 -9.597260E+03  2.923102E+04 -1.139827E+05  1.389270E-09 -3.216764E-10
        55  12 -2.287341E+05 -6.279867E+03  3.096487E+04 -1.121697E+05  2.664325E-10 -3.747689E-10
        55  13 -3.795384E+05 -6.184072E+04 -1.057828E+03 -1.536384E+05  2.009553E-09  4.036820E-10
        55  14 -3.814123E+05 -5.986815E+04 -1.898193E+03 -1.513793E+05  2.312233E-09 -1.168417E-10
        55  15 -3.795564E+05 -6.195695E+04 -3.480633E+03 -1.535956E+05 -5.303530E-10  1.663800E-10
        55  16 -5.010406E+05 -1.067082E+05 -2.888528E+04 -1.870002E+05  3.287369E-10  9.293744E-11
        55  17 -5.175616E+05 -1.101378E+05 -3.302876E+04 -1.887684E+05 -4.007153E-10  2.490087E-10
        55  18 -5.303560E+05 -1.176324E+05 -3.792765E+04 -1.950122E+05  7.415657E-10  8.786990E-10
        55  19 -2.580221E+05 -1.697239E+04  2.676856E+04 -1.202709E+05 -4.514583E+03  6.760856E+03
        55  20 -2.452448E+05 -9.597193E+03  2.923119E+04 -1.139828E+05 -5.806448E+03  7.373417E+03
        55  21 -2.287340E+05 -6.279785E+03  3.096508E+04 -1.121698E+05 -7.092423E+03  7.969673E+03
        55  22 -3.795383E+05 -6.184066E+04 -1.057709E+03 -1.536384E+05 -3.512261E+03  7.136925E+03
        55  23 -3.814122E+05 -5.986808E+04 -1.898037E+03 -1.513793E+05 -4.820702E+03  7.743362E+03
        55  24 -3.795564E+05 -6.195687E+04 -3.480432E+03 -1.535956E+05 -6.123227E+03  8.333500E+03
        55  25 -5.010406E+05 -1.067081E+05 -2.888516E+04 -1.870002E+05 -2.510145E+03  7.512918E+03
        55  26 -5.175615E+05 -1.101378E+05 -3.302861E+04 -1.887684E+05 -3.835188E+03  8.113220E+03
        55  27 -5.303559E+05 -1.176323E+05 -3.792746E+04 -1.950122E+05 -5.154285E+03  8.697231E+03
        56   1 -2.173944E+05 -2.249423E+03  3.248470E+04 -1.096765E+05  8.042943E+03 -8.276489E+03
        56   2 -2.047891E+05  5.584580E+03  3.209936E+04 -1.025015E+05  1.225870E+04 -7.678838E+03
        56   3 -1.898575E+05  6.710284E+03  2.806238E+04 -9.919226E+04  1.635796E+04 -6.770022E+03
        56   4 -3.797662E+05 -6.172613E+04 -4.602716E+03 -1.537732E+05  6.990136E+03 -8.671744E+03
        56   5 -3.811125E+05 -5.985900E+04 -8.336588E+03 -1.512708E+05  1.152619E+04 -7.954023E+03
        56   6 -3.801966E+05 -6.476419E+04 -1.597676E+04 -1.526343E+05  1.594565E+04 -6.925133E+03
        56   7 -5.421107E+05 -1.212006E+05 -4.169160E+04 -1.978592E+05  5.937633E+03 -9.066887E+03
        56   8 -5.574046E+05 -1.253002E+05 -4.877461E+04 -2.000275E+05  1.079390E+04 -8.229123E+03
        56   9 -5.705006E+05 -1.362361E+05 -6.001866E+04 -2.060615E+05  1.553349E+04 -7.080191E+03
        56  10 -2.173945E+05 -2.249514E+03  3.248445E+04 -1.096765E+05 -5.225770E-10  2.409282E-10
        56  11 -2.047893E+05  5.584476E+03  3.209897E+04 -1.025014E+05  1.225272E-09 -3.644130E-10
        56  12 -1.898578E+05  6.710163E+03  2.806179E+04 -9.919217E+04  8.897488E-10 -1.829289E-10
        56  13 -3.797663E+05 -6.172623E+04 -4.602949E+03 -1.537732E+05  9.880282E-10  2.911934E-10
        56  14 -3.811126E+05 -5.985910E+04 -8.336956E+03 -1.512708E+05  2.627939E-10  3.078035E-10
        56  15 -3.801969E+05 -6.476431E+04 -1.597733E+04 -1.526342E+05  6.600658E-10  1.457822E-10
        56  16 -5.421107E+05 -1.212007E+05 -4.169182E+04 -1.978591E+05  4.503100E-10  2.596009E-10
        56  17 -5.574048E+05 -1.253003E+05 -4.877496E+04 -2.000274E+05  1.882810E-09 -1.307813E-10
        56  18 -5.705008E+05 -1.362362E+05 -6.001921E+04 -2.060614E+05 -1.125861E-10 -4.634521E-10
        56  19 -2.173944E+05 -2.249423E+03  3.248470E+04 -1.096765E+05 -8.042943E+03  8.276489E+03
        56  20 -2.047891E+05  5.584580E+03  3.209936E+04 -1.025015E+05 -1.225870E+04  7.678838E+03
        56  21 -1.898575E+05  6.710284E+03  2.806238E+04 -9.919226E+04 -1.635796E+04  6.770022E+03
        56  22 -3.797662E+05 -6.172613E+04 -4.602716E+03 -1.537732E+05 -6.990136E+03  8.671744E+03
        56  23 -3.811125E+05 -5.985900E+04 -8.336588E+03 -1.512708E+05 -1.152619E+04  7.954023E+03
        56  24 -3.801966E+05 -6.476419E+04 -1.597676E+04 -1.526343E+05 -1.594565E+04  6.925133E+03
        56  25 -5.421107E+05 -1.212006E+05 -4.169160E+04 -1.978592E+05 -5.937633E+03  9.066887E+03
        56  26 -5.574046E+05 -1.253002E+05 -4.877461E+04 -2.000275E+05 -1.079390E+04  8.229123E+03
        56  27 -5.705006E+05 -1.362361E+05 -6.001866E+04 -2.060615E+05 -1.553349E+04  7.080191E+03
        57   1 -1.741309E+05  8.827131E+03  2.597784E+04 -1.073908E+05  2.105575E+04 -6.156169E+03
        57   2 -1.695613E+05  2.730432E+04  1.430437E+04 -7.951160E+04  3.344160E+04 -2.095329E+02
        57   3 -1.840790E+05 -1.376316E+04 -2.223142E+04 -4.122930E+04  4.335749E+04  1.231573E+04
        57   4 -3.828341E+05 -5.971815E+04 -2.040658E+04 -1.558733E+05  1.882711E+04 -6.992835E+03
        57   5 -3.771897E+05 -6.167472E+04 -3.678774E+04 -1.489113E+05  3.800523E+04  1.502815E+03
        57   6 -3.919870E+05 -1.245355E+05 -8.342072E+04 -1.315441E+05  5.471258E+04  1.657699E+04
        57   7 -5.914937E+05 -1.282623E+05 -6.679364E+04 -2.043419E+05  1.659928E+04 -7.829274E+03
        57   8 -5.847737E+05 -1.506461E+05 -8.788278E+04 -2.182881E+05  4.256719E+04  3.214312E+03
        57   9 -5.998485E+05 -2.352894E+05 -1.446130E+05 -2.218266E+05  6.606345E+04  2.083515E+04
        57  10 -1.741314E+05  8.826971E+03  2.597694E+04 -1.073907E+05  1.285344E-09 -1.707753E-10
        57  11 -1.695625E+05  2.730402E+04  1.430227E+04 -7.951159E+04 -6.378087E-10 -2.645109E-10
        57  12 -1.840810E+05 -1.376382E+04 -2.223524E+04 -4.122973E+04 -8.981217E-10  1.634574E-10
        57  13 -3.828345E+05 -5.971830E+04 -2.040733E+04 -1.558732E+05  1.441929E-09 -7.905484E-10
        57  14 -3.771912E+05 -6.167511E+04 -3.679046E+04 -1.489113E+05  2.086243E-09 -1.043967E-10
        57  15 -3.919903E+05 -1.245366E+05 -8.342686E+04 -1.315449E+05  1.941766E-09 -1.016748E-10
        57  16 -5.914941E+05 -1.282625E+05 -6.679428E+04 -2.043418E+05  5.744894E-10 -3.179242E-10
        57  17 -5.847757E+05 -1.506466E+05 -8.788621E+04 -2.182882E+05  1.637113E-09 -1.245063E-10
        57  18 -5.998533E+05 -2.352910E+05 -1.446220E+05 -2.218277E+05 -2.440148E-11  6.766101E-11
        57  19 -1.741309E+05  8.827131E+03  2.597784E+04 -1.073908E+05 -2.105575E+04  6.156169E+03
        57  20 -1.695613E+05  2.730432E+04  1.430437E+04 -7.951160E+04 -3.344160E+04  2.095329E+02
        57  21 -1.840790E+05 -1.376316E+04 -2.223142E+04 -4.122930E+04 -4.335749E+04 -1.231573E+04
        57  22 -3.828341E+05 -5.971815E+04 -2.040658E+04 -1.558733E+05 -1.882711E+04  6.992835E+03
        57  23 -3.771897E+05 -6.167472E+04 -3.678774E+04 -1.489113E+05 -3.800523E+04 -1.502815E+03
        57  24 -3.919870E+05 -1.245355E+05 -8.342072E+04 -1.315441E+05 -5.471258E+04 -1.657699E+04
        57  25 -5.914937E+05 -1.282623E+05 -6.679364E+04 -2.043419E+05 -1.659928E+04  7.829274E+03
        57  26 -5.847737E+05 -1.506461E+05 -8.788278E+04 -2.182881E+05 -4.256719E+04 -3.214312E+03
        57  27 -5.998485E+05 -2.352894E+05 -1.446130E+05 -2.218266E+05 -6.606345E+04 -2.083515E+04
        58   1 -2.291938E+04 -6.995167E+02 -8.218420E+02 -3.687423E+02 -5.621776E+02  3.339149E-04
        58   2 -2.283255E+04 -4.249799E+01 -3.848948E+02 -1.393251E+02 -3.599665E+02  8.078390E-05
        58   3 -2.291937E+04  2.524385E+01 -2.269211E+02  9.009555E+01 -1.577524E+02 -2.289258E-05
        58   4 -2.291938E+04 -6.995169E+02 -8.218420E+02  6.025652E-09 -5.621776E+02 -3.450641E-10
        58   5 -2.283255E+04 -4.249803E+01 -3.848948E+02  2.841666E-09 -3.599665E+02 -4.425082E-10
        58   6 -2.291937E+04  2.524383E+01 -2.269211E+02  6.167023E-11 -1.577524E+02  1.152029E-09
        58   7 -2.291938E+04 -6.995167E+02 -8.218420E+02  3.687423E+02 -5.621776E+02 -3.339156E-04
        58   8 -2.283255E+04 -4.249799E+01 -3.848948E+02  1.393251E+02 -3.599665E+02 -8.078479E-05
        58   9 -2.291937E+04  2.524385E+01 -2.269211E+02 -9.009555E+01 -1.577524E+02  2.289489E-05
        58  10 -2.291938E+04 -6.995168E+02 -8.218426E+02 -3.687423E+02 -3.932846E-10 -5.345760E-10
        58  11 -2.283255E+04 -4.249803E+01 -3.848951E+02 -1.393251E+02  8.473491E-10 -1.065050E-09
        58  12 -2.291937E+04  2.524384E+01 -2.269211E+02  9.009555E+01 -1.649105E-09  4.371401E-10
        58  13 -2.291938E+04 -6.995170E+02 -8.218426E+02 -5.536613E-10 -1.084922E-09 -1.425245E-10
        58  14 -2.283255E+04 -4.249806E+01 -3.848951E+02 -3.019094E-09  5.302611E-10 -2.356731E-10
        58  15 -2.291937E+04  2.524383E+01 -2.269211E+02 -1.715021E-09 -3.967164E-10  2.836073E-10
        58  16 -2.291938E+04 -6.995168E+02 -8.218426E+02  3.687423E+02 -9.544010E-10  2.513416E-10
        58  17 -2.283255E+04 -4.249803E+01 -3.848951E+02  1.393251E+02  2.090629E-10  5.941571E-10
        58  18 -2.291937E+04  2.524384E+01 -2.269211E+02 -9.009555E+01  2.618004E-10  1.290850E-10
        58  19 -2.291938E+04 -6.995167E+02 -8.218420E+02 -3.687423E+02  5.621776E+02 -3.339160E-04
        58  20 -2.283255E+04 -4.249799E+01 -3.848948E+02 -1.393251E+02  3.599665E+02 -8.078604E-05
        58  21 -2.291937E+04  2.524385E+01 -2.269211E+02  9.009555E+01  1.577524E+02  2.289346E-05
        58  22 -2.291938E+04 -6.995169E+02 -8.218420E+02  3.636797E-09  5.621776E+02  6.036603E-11
        58  23 -2.283255E+04 -4.249803E+01 -3.848948E+02 -6.187542E-09  3.599665E+02 -2.950367E-11
        58  24 -2.291937E+04  2.524383E+01 -2.269211E+02 -8.001554E-10  1.577524E+02 -5.843760E-10
        58  25 -2.291938E+04 -6.995167E+02 -8.218420E+02  3.687423E+02  5.621776E+02  3.339161E-04
        58  26 -2.283255E+04 -4.249799E+01 -3.848948E+02  1.393251E+02  3.599665E+02  8.078597E-05
        58  27 -2.291937E+04  2.524385E+01 -2.269211E+02 -9.009555E+01  1.577524E+02 -2.289463E-05
        59   1 -2.288398E+04 -2.973508E+01 -1.830718E+02 -1.044929E+01 -1.259612E+02  2.121795E-06
        59   2 -2.287680E+04  1.166995E-01 -1.148388E+02 -3.137902E+00 -6.867796E+01  3.466977E-07
        59   3 -2.288398E+04  2.362263E+00 -9.080231E+01  4.173487E+00 -1.139475E+01 -7.714899E-08
        59   4 -2.288398E+04 -2.973508E+01 -1.830718E+02  4.246427E-09 -1.259612E+02  1.147698E-09
        59   5 -2.287680E+04  1.166995E-01 -1.148388E+02  1.940133E-09 -6.867796E+01 -4.466085E-10
        59   6 -2.288398E+04  2.362263E+00 -9.080231E+01  4.749453E-09 -1.139475E+01 -3.289698E-10
        59   7 -2.288398E+04 -2.973508E+01 -1.830718E+02  1.044929E+01 -1.259612E+02 -2.119502E-06
        59   8 -2.287680E+04  1.166995E-01 -1.148388E+02  3.137902E+00 -6.867796E+01 -3.475925E-07
        59   9 -2.288398E+04  2.362263E+00 -9.080231E+01 -4.173487E+00 -1.139475E+01  7.648753E-08
        59  10 -2.288398E+04 -2.973508E+01 -1.830718E+02 -1.044929E+01 -7.545594E-10  9.653655E-10
        59  11 -2.287680E+04  1.166983E-01 -1.148388E+02 -3.137902E+00  1.046091E-09  1.891733E-10
        59  12 -2.288398E+04  2.362263E+00 -9.080231E+01  4.173487E+00  5.097188E-10 -2.427734E-10
        59  13 -2.288398E+04 -2.973508E+01 -1.830718E+02  3.077733E-09 -6.944800E-12  4.563777E-10
        59  14 -2.287680E+04  1.166982E-01 -1.148388E+02 -2.977394E-09 -1.212623E-11  1.794345E-10
        59  15 -2.288398E+04  2.362263E+00 -9.080231E+01 -4.185919E-09 -3.953392E-10 -2.718161E-11
        59  16 -2.288398E+04 -2.973508E+01 -1.830718E+02  1.044929E+01 -1.394845E-09 -5.238018E-11
        59  17 -2.287680E+04  1.166983E-01 -1.148388E+02  3.137902E+00  1.874724E-11  1.703611E-10
        59  18 -2.288398E+04  2.362263E+00 -9.080231E+01 -4.173487E+00  6.540354E-11  1.875157E-10
        59  19 -2.288398E+04 -2.973508E+01 -1.830718E+02 -1.044929E+01  1.259612E+02 -2.119859E-06
        59  20 -2.287680E+04  1.166995E-01 -1.148388E+02 -3.137902E+00  6.867796E+01 -3.463172E-07
        59  21 -2.288398E+04  2.362263E+00 -9.080231E+01  4.173487E+00  1.139475E+01  7.666295E-08
        59  22 -2.288398E+04 -2.973508E+01 -1.830718E+02  6.216864E-09  1.259612E+02 -2.352997E-10
        59  23 -2.287680E+04  1.166995E-01 -1.148388E+02 -5.740664E-09  6.867796E+01  8.053593E-10
        59  24 -2.288398E+04  2.362263E+00 -9.080231E+01  2.764392E-09  1.139475E+01  2.744770E-10
        59  25 -2.288398E+04 -2.973508E+01 -1.830718E+02  1.044929E+01  1.259612E+02  2.119391E-06
        59  26 -2.287680E+04  1.166995E-01 -1.148388E+02  3.137902E+00  6.867796E+01  3.479258E-07
        59  27 -2.288398E+04  2.362263E+00 -9.080231E+01 -4.173487E+00  1.139475E+01 -7.611300E-08
        60   1 -2.288243E+04 -1.868450E-01 -8.989745E+01 -8.911429E-01  4.778135E+00 -7.068208E-09
        60   2 -2.287873E+04  2.214398E+00 -1.084058E+02 -4.042786E+00  5.835113E+01 -3.804655E-07
        60   3 -2.288243E+04  2.927377E+00 -1.622154E+02 -7.194382E+00  1.119233E+02 -1.298155E-06
        60   4 -2.288243E+04 -1.868450E-01 -8.989745E+01  2.088854E-09  4.778135E+00 -5.009880E-12
        60   5 -2.287873E+04  2.214398E+00 -1.084058E+02 -4.555329E-09  5.835113E+01 -3.461256E-10
        60   6 -2.288243E+04  2.927377E+00 -1.622154E+02 -2.314654E-09  1.119233E+02 -1.046759E-09
        60   7 -2.288243E+04 -1.868450E-01 -8.989745E+01  8.911429E-01  4.778135E+00  7.057173E-09
        60   8 -2.287873E+04  2.214398E+00 -1.084058E+02  4.042786E+00  5.835113E+01  3.797695E-07
        60   9 -2.288243E+04  2.927377E+00 -1.622154E+02  7.194382E+00  1.119233E+02  1.296062E-06
        60  10 -2.288243E+04 -1.868451E-01 -8.989745E+01 -8.911429E-01 -5.792460E-10 -3.519786E-10
        60  11 -2.287873E+04  2.214397E+00 -1.084058E+02 -4.042786E+00 -1.591061E-09 -3.907357E-10
        60  12 -2.288243E+04  2.927374E+00 -1.622154E+02 -7.194382E+00 -2.740155E-10 -2.306780E-10
        60  13 -2.288243E+04 -1.868451E-01 -8.989745E+01 -1.294922E-10  7.997891E-12 -1.473269E-10
        60  14 -2.287873E+04  2.214397E+00 -1.084058E+02  8.267979E-10 -1.076964E-09 -2.624992E-10
        60  15 -2.288243E+04  2.927374E+00 -1.622154E+02  1.679045E-10  1.519307E-10 -1.666422E-10
        60  16 -2.288243E+04 -1.868451E-01 -8.989745E+01  8.911429E-01 -1.023809E-09  5.766256E-11
        60  17 -2.287873E+04  2.214397E+00 -1.084058E+02  4.042786E+00  1.079558E-09 -1.337564E-10
        60  18 -2.288243E+04  2.927374E+00 -1.622154E+02  7.194382E+00  2.760807E-10 -1.026275E-10
        60  19 -2.288243E+04 -1.868451E-01 -8.989745E+01 -8.911429E-01 -4.778135E+00  6.360673E-09
        60  20 -2.287873E+04  2.214398E+00 -1.084058E+02 -4.042786E+00 -5.835113E+01  3.796829E-07
        60  21 -2.288243E+04  2.927377E+00 -1.622154E+02 -7.194382E+00 -1.119233E+02  1.297694E-06
        60  22 -2.288243E+04 -1.868451E-01 -8.989745E+01  4.113553E-09 -4.778135E+00 -2.895445E-10
        60  23 -2.287873E+04  2.214398E+00 -1.084058E+02 -7.916722E-10 -5.835113E+01 -1.785628E-10
        60  24 -2.288243E+04  2.927377E+00 -1.622154E+02  3.323237E-09 -1.119233E+02  7.134141E-10
        60  25 -2.288243E+04 -1.868450E-01 -8.989745E+01  8.911429E-01 -4.778135E+00 -6.943806E-09
        60  26 -2.287873E+04  2.214398E+00 -1.084058E+02  4.042786E+00 -5.835113E+01 -3.800401E-07
        60  27 -2.288243E+04  2.927377E+00 -1.622154E+02  7.194382E+00 -1.119233E+02 -1.296270E-06
        61   1 -2.288587E+04  2.475005E+00 -2.066712E+02 -8.452519E+00  1.454415E+02 -1.981049E-06
        61   2 -2.287443E+04  7.405539E+00 -3.480259E+02 -1.998692E+01  3.173585E+02 -1.021679E-05
        61   3 -2.288587E+04  1.035041E+01 -6.018039E+02 -3.152150E+01  4.892780E+02 -2.484187E-05
        61   4 -2.288587E+04  2.475005E+00 -2.066712E+02  8.950797E-09  1.454415E+02 -8.384383E-10
        61   5 -2.287443E+04  7.405538E+00 -3.480259E+02 -1.195823E-09  3.173585E+02  3.507261E-10
        61   6 -2.288587E+04  1.035041E+01 -6.018039E+02  2.389083E-09  4.892780E+02  8.272536E-10
        61   7 -2.288587E+04  2.475005E+00 -2.066712E+02  8.452519E+00  1.454415E+02  1.979369E-06
        61   8 -2.287443E+04  7.405539E+00 -3.480259E+02  1.998692E+01  3.173585E+02  1.021748E-05
        61   9 -2.288587E+04  1.035041E+01 -6.018039E+02  3.152150E+01  4.892780E+02  2.484353E-05
        61  10 -2.288587E+04  2.475000E+00 -2.066712E+02 -8.452519E+00 -2.920862E-10  4.184868E-12
        61  11 -2.287443E+04  7.405512E+00 -3.480260E+02 -1.998692E+01  3.995533E-10  3.739134E-10
        61  12 -2.288587E+04  1.035035E+01 -6.018044E+02 -3.152150E+01 -5.635854E-10  5.128532E-10
        61  13 -2.288587E+04  2.475000E+00 -2.066712E+02  2.573214E-09 -1.076964E-09 -9.913632E-12
        61  14 -2.287443E+04  7.405511E+00 -3.480260E+02 -4.923261E-09  5.426031E-10  2.041739E-10
        61  15 -2.288587E+04  1.035034E+01 -6.018044E+02 -1.026594E-08  3.953776E-10  2.750430E-10
        61  16 -2.288587E+04  2.475000E+00 -2.066712E+02  8.452519E+00 -5.213355E-10 -2.407909E-11
        61  17 -2.287443E+04  7.405512E+00 -3.480260E+02  1.998692E+01 -1.199034E-09  3.552274E-11
        61  18 -2.288587E+04  1.035035E+01 -6.018044E+02  3.152150E+01  6.146580E-11  3.871915E-11
        61  19 -2.288587E+04  2.475005E+00 -2.066712E+02 -8.452519E+00 -1.454415E+02  1.981062E-06
        61  20 -2.287443E+04  7.405539E+00 -3.480259E+02 -1.998692E+01 -3.173585E+02  1.021754E-05
        61  21 -2.288587E+04  1.035041E+01 -6.018039E+02 -3.152150E+01 -4.892780E+02  2.484289E-05
        61  22 -2.288587E+04  2.475005E+00 -2.066712E+02  2.657351E-09 -1.454415E+02  8.183249E-10
        61  23 -2.287443E+04  7.405538E+00 -3.480259E+02 -7.573867E-09 -3.173585E+02  5.679846E-11
        61  24 -2.288587E+04  1.035041E+01 -6.018039E+02  2.387604E-09 -4.892780E+02 -2.775147E-10
        61  25 -2.288587E+04  2.475005E+00 -2.066712E+02  8.452519E+00 -1.454415E+02 -1.979423E-06
        61  26 -2.287443E+04  7.405539E+00 -3.480259E+02  1.998692E+01 -3.173585E+02 -1.021742E-05
        61  27 -2.288587E+04  1.035041E+01 -6.018039E+02  3.152150E+01 -4.892780E+02 -2.484345E-05
        62   1 -2.290153E+04  9.950616E+00 -7.925617E+02 -3.740543E+01  6.159042E+02 -3.710920E-05
        62   2 -2.285487E+04  2.835321E+01 -1.377169E+03 -7.850268E+01  1.296433E+03 -1.639366E-04
        62   3 -2.290154E+04  2.787676E+01 -2.409559E+03 -1.196000E+02  1.976962E+03 -3.808637E-04
        62   4 -2.290153E+04  9.950613E+00 -7.925617E+02 -4.529635E-09  6.159042E+02  3.441986E-10
        62   5 -2.285487E+04  2.835320E+01 -1.377169E+03  2.818366E-09  1.296433E+03 -4.419446E-10
        62   6 -2.290154E+04  2.787673E+01 -2.409559E+03  8.012278E-09  1.976962E+03  1.395273E-10
        62   7 -2.290153E+04  9.950616E+00 -7.925617E+02  3.740543E+01  6.159042E+02  3.710989E-05
        62   8 -2.285487E+04  2.835321E+01 -1.377169E+03  7.850268E+01  1.296433E+03  1.639357E-04
        62   9 -2.290154E+04  2.787676E+01 -2.409559E+03  1.196000E+02  1.976962E+03  3.808640E-04
        62  10 -2.290153E+04  9.950514E+00 -7.925624E+02 -3.740543E+01  8.748329E-10  3.050215E-10
        62  11 -2.285487E+04  2.835276E+01 -1.377172E+03 -7.850268E+01 -1.818289E-10 -1.713229E-10
        62  12 -2.290154E+04  2.787571E+01 -2.409566E+03 -1.196000E+02 -7.833502E-10 -3.084072E-10
        62  13 -2.290153E+04  9.950511E+00 -7.925624E+02 -1.469941E-09 -1.632462E-11  7.698856E-11
        62  14 -2.285487E+04  2.835275E+01 -1.377172E+03 -4.382955E-10  5.221569E-10 -2.594144E-10
        62  15 -2.290154E+04  2.787568E+01 -2.409566E+03  2.747675E-09 -3.100379E-09 -9.857774E-11
        62  16 -2.290153E+04  9.950514E+00 -7.925624E+02  3.740543E+01 -7.040268E-11 -1.508626E-10
        62  17 -2.285487E+04  2.835276E+01 -1.377172E+03  7.850268E+01  1.777477E-10 -3.475911E-10
        62  18 -2.290154E+04  2.787571E+01 -2.409566E+03  1.196000E+02 -8.939073E-10  1.117513E-10
        62  19 -2.290153E+04  9.950616E+00 -7.925617E+02 -3.740543E+01 -6.159042E+02  3.710980E-05
        62  20 -2.285487E+04  2.835321E+01 -1.377169E+03 -7.850268E+01 -1.296433E+03  1.639363E-04
        62  21 -2.290154E+04  2.787676E+01 -2.409559E+03 -1.196000E+02 -1.976962E+03  3.808631E-04
        62  22 -2.290153E+04  9.950613E+00 -7.925617E+02  5.120004E-10 -6.159042E+02 -1.903640E-10
        62  23 -2.285487E+04  2.835320E+01 -1.377169E+03 -1.540929E-09 -1.296433E+03 -7.729430E-11
        62  24 -2.290154E+04  2.787673E+01 -2.409559E+03  3.945062E-09 -1.976962E+03 -3.394753E-10
        62  25 -2.290153E+04  9.950616E+00 -7.925617E+02  3.740543E+01 -6.159042E+02 -3.711020E-05
        62  26 -2.285487E+04  2.835321E+01 -1.377169E+03  7.850268E+01 -1.296433E+03 -1.639364E-04
        62  27 -2.290154E+04  2.787676E+01 -2.409559E+03  1.196000E+02 -1.976962E+03 -3.808638E-04
        63   1 -2.297772E+04  4.911860E+01 -3.177065E+03 -1.841999E+02  2.482034E+03 -7.364396E-04
        63   2 -2.275965E+04  9.295870E+01 -5.531760E+03 -2.492653E+02  5.220584E+03 -2.096143E-03
        63   3 -2.297774E+04 -1.814890E+02 -9.748948E+03 -3.143299E+02  7.959082E+03 -4.029849E-03
        63   4 -2.297772E+04  4.911854E+01 -3.177065E+03  2.603103E-09  2.482034E+03  6.401126E-10
        63   5 -2.275965E+04  9.295858E+01 -5.531760E+03 -6.134530E-09  5.220584E+03  7.050848E-10
        63   6 -2.297774E+04 -1.814892E+02 -9.748948E+03 -2.352301E-09  7.959082E+03  4.443841E-10
        63   7 -2.297772E+04  4.911860E+01 -3.177065E+03  1.841999E+02  2.482034E+03  7.364408E-04
        63   8 -2.275965E+04  9.295870E+01 -5.531760E+03  2.492653E+02  5.220584E+03  2.096144E-03
        63   9 -2.297774E+04 -1.814890E+02 -9.748948E+03  3.143299E+02  7.959082E+03  4.029850E-03
        63  10 -2.297773E+04  4.911695E+01 -3.177077E+03 -1.841999E+02 -4.523669E-10 -1.496205E-10
        63  11 -2.275968E+04  9.295138E+01 -5.531811E+03 -2.492653E+02  6.606428E-12  1.450477E-10
        63  12 -2.297781E+04 -1.815060E+02 -9.749067E+03 -3.143299E+02 -7.894396E-10  1.731101E-10
        63  13 -2.297773E+04  4.911688E+01 -3.177077E+03  1.577440E-09 -2.154712E-09  9.990479E-11
        63  14 -2.275968E+04  9.295126E+01 -5.531811E+03 -1.823149E-09 -1.607607E-09  1.944827E-10
        63  15 -2.297781E+04 -1.815062E+02 -9.749067E+03 -6.839594E-09 -2.284484E-09  1.258631E-10
        63  16 -2.297773E+04  4.911695E+01 -3.177077E+03  1.841999E+02 -1.966486E-09  3.492566E-10
        63  17 -2.275968E+04  9.295138E+01 -5.531811E+03  2.492653E+02  1.695604E-11  2.444949E-10
        63  18 -2.297781E+04 -1.815060E+02 -9.749067E+03  3.143299E+02  5.831013E-10  7.795013E-11
        63  19 -2.297772E+04  4.911860E+01 -3.177065E+03 -1.841999E+02 -2.482034E+03  7.364393E-04
        63  20 -2.275965E+04  9.295870E+01 -5.531760E+03 -2.492653E+02 -5.220584E+03  2.096143E-03
        63  21 -2.297774E+04 -1.814890E+02 -9.748948E+03 -3.143299E+02 -7.959082E+03  4.029849E-03
        63  22 -2.297772E+04  4.911854E+01 -3.177065E+03 -2.678657E-09 -2.482034E+03 -4.403826E-10
        63  23 -2.275965E+04  9.295858E+01 -5.531760E+03 -5.050137E-09 -5.220584E+03 -3.168457E-10
        63  24 -2.297774E+04 -1.814892E+02 -9.748948E+03 -1.522537E-10 -7.959082E+03 -1.807135E-10
        63  25 -2.297772E+04  4.911860E+01 -3.177065E+03  1.841999E+02 -2.482034E+03 -7.364402E-04
        63  26 -2.275965E+04  9.295870E+01 -5.531760E+03  2.492653E+02 -5.220584E+03 -2.096144E-03
        63  27 -2.297774E+04 -1.814890E+02 -9.748948E+03  3.143299E+02 -7.959082E+03 -4.029850E-03
        64   1 -2.356525E+04  3.982044E+02 -1.278515E+04 -1.461707E+03  9.947650E+03 -2.342185E-02
        64   2 -2.202516E+04 -7.834437E+01 -2.226804E+04  4.385733E+02  2.107973E+04  1.489177E-02
        64   3 -2.356502E+04 -7.077719E+03 -4.062844E+04  2.338897E+03  3.221181E+04  1.213572E-01
        64   4 -2.356525E+04  3.982003E+02 -1.278515E+04 -3.346184E-09  9.947650E+03 -5.109070E-11
        64   5 -2.202516E+04 -7.834473E+01 -2.226804E+04 -2.547414E-09  2.107973E+04 -7.677658E-10
        64   6 -2.356503E+04 -7.077730E+03 -4.062845E+04 -2.960427E-09  3.221181E+04 -7.622138E-10
        64   7 -2.356525E+04  3.982044E+02 -1.278515E+04  1.461707E+03  9.947650E+03  2.342185E-02
        64   8 -2.202516E+04 -7.834437E+01 -2.226804E+04 -4.385733E+02  2.107973E+04 -1.489177E-02
        64   9 -2.356502E+04 -7.077719E+03 -4.062844E+04 -2.338897E+03  3.221181E+04 -1.213572E-01
        64  10 -2.356535E+04  3.981778E+02 -1.278533E+04 -1.461707E+03  9.030920E-11 -5.225999E-11
        64  11 -2.202564E+04 -7.846366E+01 -2.226888E+04  4.385733E+02 -2.490046E-10 -1.650199E-10
        64  12 -2.356613E+04 -7.077998E+03 -4.063039E+04  2.338897E+03 -4.545973E-10  5.295917E-10
        64  13 -2.356536E+04  3.981738E+02 -1.278533E+04 -2.370310E-09 -1.079582E-09 -4.098190E-11
        64  14 -2.202564E+04 -7.846403E+01 -2.226888E+04  3.370304E-09 -3.232414E-09 -2.274834E-10
        64  15 -2.356614E+04 -7.078008E+03 -4.063040E+04  4.946031E-10 -2.558256E-09 -8.772051E-11
        64  16 -2.356535E+04  3.981778E+02 -1.278533E+04  1.461707E+03 -6.327466E-10 -2.853715E-11
        64  17 -2.202564E+04 -7.846366E+01 -2.226888E+04 -4.385733E+02 -5.719368E-10 -2.928840E-10
        64  18 -2.356613E+04 -7.077998E+03 -4.063039E+04 -2.338897E+03 -5.014352E-10 -7.099262E-10
        64  19 -2.356525E+04  3.982044E+02 -1.278515E+04 -1.461707E+03 -9.947650E+03  2.342185E-02
        64  20 -2.202516E+04 -7.834437E+01 -2.226804E+04  4.385733E+02 -2.107973E+04 -1.489177E-02
        64  21 -2.356502E+04 -7.077719E+03 -4.062844E+04  2.338897E+03 -3.221181E+04 -1.213572E-01
        64  22 -2.356525E+04  3.982003E+02 -1.278515E+04  1.835422E-09 -9.947650E+03 -3.045703E-11
        64  23 -2.202516E+04 -7.834473E+01 -2.226804E+04 -9.446310E-10 -2.107973E+04  3.127248E-10
        64  24 -2.356503E+04 -7.077730E+03 -4.062845E+04  5.827358E-10 -3.221181E+04  5.862853E-10
        64  25 -2.356525E+04  3.982044E+02 -1.278515E+04  1.461707E+03 -9.947650E+03 -2.342185E-02
        64  26 -2.202516E+04 -7.834437E+01 -2.226804E+04 -4.385733E+02 -2.107973E+04  1.489177E-02
        64  27 -2.356502E+04 -7.077719E+03 -4.062844E+04 -2.338897E+03 -3.221181E+04  1.213572E-01
        65   1 -3.200856E+04  5.944648E+03 -5.175887E+04 -2.147370E+04  3.931139E+04 -1.359786E+00
        65   2 -1.146652E+04 -1.008812E+04 -9.024468E+04  3.292123E+04  8.676430E+04  4.600943E+00
        65   3 -3.199998E+04 -1.657302E+05 -1.945197E+05  8.731346E+04  1.342175E+05  1.887671E+01
        65   4 -3.200906E+04  5.943781E+03 -5.175899E+04 -4.560251E-09  3.931139E+04 -5.032636E-10
        65   5 -1.146769E+04 -1.009015E+04 -9.024497E+04 -2.860200E-09  8.676430E+04 -1.894848E-10
        65   6 -3.200817E+04 -1.657445E+05 -1.945218E+05  4.359153E-09  1.342175E+05 -4.741429E-10
        65   7 -3.200856E+04  5.944648E+03 -5.175887E+04  2.147370E+04  3.931139E+04  1.359786E+00
        65   8 -1.146652E+04 -1.008812E+04 -9.024468E+04 -3.292123E+04  8.676430E+04 -4.600943E+00
        65   9 -3.199998E+04 -1.657302E+05 -1.945197E+05 -8.731346E+04  1.342175E+05 -1.887671E+01
        65  10 -3.201022E+04  5.944233E+03 -5.176177E+04 -2.147370E+04 -4.461176E-10  5.065588E-10
        65  11 -1.147461E+04 -1.009014E+04 -9.025883E+04  3.292123E+04 -1.074677E-09 -3.211595E-10
        65  12 -3.201933E+04 -1.657350E+05 -1.945536E+05  8.731346E+04 -3.028108E-10 -1.903977E-10
        65  13 -3.201072E+04  5.943366E+03 -5.176190E+04 -2.436004E-09 -5.111869E-12 -1.103355E-11
        65  14 -1.147577E+04 -1.009218E+04 -9.025912E+04 -3.942773E-09  3.008308E-12 -5.756728E-11
        65  15 -3.202752E+04 -1.657494E+05 -1.945556E+05 -3.830539E-09 -1.334432E-10 -2.515720E-11
        65  16 -3.201022E+04  5.944233E+03 -5.176177E+04  2.147370E+04 -3.758066E-10 -5.072263E-10
        65  17 -1.147461E+04 -1.009014E+04 -9.025883E+04 -3.292123E+04 -5.386227E-10  9.256917E-11
        65  18 -3.201933E+04 -1.657350E+05 -1.945536E+05 -8.731346E+04 -5.412342E-10  2.040853E-10
        65  19 -3.200856E+04  5.944648E+03 -5.175887E+04 -2.147370E+04 -3.931139E+04  1.359786E+00
        65  20 -1.146652E+04 -1.008812E+04 -9.024468E+04  3.292123E+04 -8.676430E+04 -4.600943E+00
        65  21 -3.199998E+04 -1.657302E+05 -1.945197E+05  8.731346E+04 -1.342175E+05 -1.887671E+01
        65  22 -3.200906E+04  5.943781E+03 -5.175899E+04 -1.379901E-09 -3.931139E+04  4.826522E-10
        65  23 -1.146769E+04 -1.009015E+04 -9.024497E+04 -2.864530E-09 -8.676430E+04  7.396121E-11
        65  24 -3.200817E+04 -1.657445E+05 -1.945218E+05  1.437797E-09 -1.342175E+05  2.422419E-10
        65  25 -3.200856E+04  5.944648E+03 -5.175887E+04  2.147370E+04 -3.931139E+04 -1.359786E+00
        65  26 -1.146652E+04 -1.008812E+04 -9.024468E+04 -3.292123E+04 -8.676430E+04  4.600943E+00
        65  27 -3.199998E+04 -1.657302E+05 -1.945197E+05 -8.731346E+04 -1.342175E+05  1.887671E+01
        66   1  1.310215E+05  5.309018E+05  1.298612E+05 -5.326521E+04  6.211285E+03  3.194878E+04
        66   2  1.003069E+05  4.642989E+05  9.607449E+04 -3.829443E+04  1.940639E+04  1.393375E+04
        66   3  8.336842E+04  4.035183E+05  7.746085E+04 -4.450858E+04  1.995738E+04 -4.080064E+03
        66   4  1.339086E+04  5.664482E+04  1.580475E+04 -4.612591E+04  6.214395E+03  1.038624E+04
        66   5  7.909273E+02  5.495375E+04  7.720291E+03 -3.553467E+04  1.940905E+04  6.343487E+03
        66   6 -4.522021E+02  5.666098E+04  5.114037E+03 -4.612863E+04  1.995609E+04  2.300117E+03
        66   7 -1.042557E+05 -4.174053E+05 -9.826597E+04 -3.899207E+04  6.217011E+03 -1.115991E+04
        66   8 -9.873599E+04 -3.542339E+05 -8.064358E+04 -3.277673E+04  1.941164E+04 -1.241847E+03
        66   9 -8.428047E+04 -2.900824E+05 -6.723926E+04 -4.774774E+04  1.995477E+04  8.676794E+03
        66  10  1.310211E+05  5.309007E+05  1.298593E+05 -5.326537E+04  1.138824E-10  1.305997E-09
        66  11  1.003064E+05  4.642986E+05  9.607342E+04 -3.829465E+04 -1.602407E-10  1.204376E-10
        66  12  8.336798E+04  4.035182E+05  7.746007E+04 -4.450851E+04  1.451629E-10 -9.747902E-10
        66  13  1.339079E+04  5.664469E+04  1.580448E+04 -4.612596E+04 -6.950043E-10  1.355256E-12
        66  14  7.905120E+02  5.495361E+04  7.719507E+03 -3.553476E+04 -1.786704E-09  2.337675E-12
        66  15 -4.526312E+02  5.666087E+04  5.113279E+03 -4.612866E+04  3.601768E-10 -2.349201E-11
        66  16 -1.042557E+05 -4.174055E+05 -9.826628E+04 -3.899201E+04  9.192517E-10 -1.286460E-09
        66  17 -9.873640E+04 -3.542340E+05 -8.064429E+04 -3.277671E+04  9.052783E-10 -7.981516E-11
        66  18 -8.428092E+04 -2.900826E+05 -6.724015E+04 -4.774788E+04  1.498418E-09  1.453509E-09
        66  19  1.310215E+05  5.309018E+05  1.298612E+05 -5.326521E+04 -6.211285E+03 -3.194878E+04
        66  20  1.003069E+05  4.642989E+05  9.607449E+04 -3.829443E+04 -1.940639E+04 -1.393375E+04
        66  21  8.336842E+04  4.035183E+05  7.746085E+04 -4.450858E+04 -1.995738E+04  4.080064E+03
        66  22  1.339086E+04  5.664482E+04  1.580475E+04 -4.612591E+04 -6.214395E+03 -1.038624E+04
        66  23  7.909273E+02  5.495375E+04  7.720291E+03 -3.553467E+04 -1.940905E+04 -6.343487E+03
        66  24 -4.522021E+02  5.666098E+04  5.114037E+03 -4.612863E+04 -1.995609E+04 -2.300117E+03
        66  25 -1.042557E+05 -4.174053E+05 -9.826597E+04 -3.899207E+04 -6.217011E+03  1.115991E+04
        66  26 -9.873599E+04 -3.542339E+05 -8.064358E+04 -3.277673E+04 -1.941164E+04  1.241847E+03
        66  27 -8.428047E+04 -2.900824E+05 -6.723926E+04 -4.774774E+04 -1.995477E+04 -8.676794E+03
        67   1  7.290761E+04  3.552926E+05  6.716799E+04 -4.669301E+04  1.693894E+04 -1.605465E+03
        67   2  5.694777E+04  2.913951E+05  5.305198E+04 -3.542617E+04  1.379803E+04 -4.307941E+03
        67   3  4.233271E+04  2.281825E+05  4.102922E+04 -4.596687E+04  1.005445E+04 -7.011293E+03
        67   4  5.467198E+02  5.603796E+04  4.547074E+03 -4.626642E+04  1.693834E+04  1.531454E+03
        67   5  3.417730E+01  5.575969E+04  4.071256E+03 -3.536238E+04  1.379674E+04 -5.047584E+02
        67   6  7.512953E+02  5.604719E+04  5.226698E+03 -4.626634E+04  1.005234E+04 -2.542113E+03
        67   7 -7.181989E+04 -2.431320E+05 -5.807878E+04 -4.584002E+04  1.693774E+04  4.666886E+03
        67   8 -5.688294E+04 -1.798231E+05 -4.491246E+04 -3.529860E+04  1.379544E+04  3.297006E+03
        67   9 -4.083199E+04 -1.160601E+05 -3.057737E+04 -4.656573E+04  1.005022E+04  1.925850E+03
        67  10  7.290730E+04  3.552926E+05  6.716744E+04 -4.669299E+04 -1.516830E-09  1.169344E-09
        67  11  5.694756E+04  2.913950E+05  5.305159E+04 -3.542612E+04 -3.791438E-10 -4.606711E-10
        67  12  4.233258E+04  2.281824E+05  4.102893E+04 -4.596681E+04 -2.058111E-09 -2.292485E-09
        67  13  5.464111E+02  5.603789E+04  4.546531E+03 -4.626644E+04  1.285794E-10  8.257052E-12
        67  14  3.397283E+01  5.575964E+04  4.070898E+03 -3.536237E+04  1.255341E-09  1.006394E-11
        67  15  7.511850E+02  5.604716E+04  5.226496E+03 -4.626632E+04 -7.337966E-10 -5.136771E-11
        67  16 -7.182021E+04 -2.431321E+05 -5.807936E+04 -4.584009E+04 -7.105571E-10 -9.994562E-10
        67  17 -5.688315E+04 -1.798232E+05 -4.491283E+04 -3.529864E+04  4.214156E-10  5.704356E-10
        67  18 -4.083210E+04 -1.160601E+05 -3.057757E+04 -4.656575E+04 -1.542205E-09  3.048301E-09
        67  19  7.290761E+04  3.552926E+05  6.716799E+04 -4.669301E+04 -1.693894E+04  1.605465E+03
        67  20  5.694777E+04  2.913951E+05  5.305198E+04 -3.542617E+04 -1.379803E+04  4.307941E+03
        67  21  4.233271E+04  2.281825E+05  4.102922E+04 -4.596687E+04 -1.005445E+04  7.011293E+03
        67  22  5.467198E+02  5.603796E+04  4.547074E+03 -4.626642E+04 -1.693834E+04 -1.531454E+03
        67  23  3.417730E+01  5.575969E+04  4.071256E+03 -3.536238E+04 -1.379674E+04  5.047584E+02
        67  24  7.512953E+02  5.604719E+04  5.226698E+03 -4.626634E+04 -1.005234E+04  2.542113E+03
        67  25 -7.181989E+04 -2.431320E+05 -5.807878E+04 -4.584002E+04 -1.693774E+04 -4.666886E+03
        67  26 -5.688294E+04 -1.798231E+05 -4.491246E+04 -3.529860E+04 -1.379544E+04 -3.297006E+03
        67  27 -4.083199E+04 -1.160601E+05 -3.057737E+04 -4.656573E+04 -1.005022E+04 -1.925850E+03
        68   1  2.955973E+04  1.817797E+05  3.186450E+04 -4.853793E+04  7.646581E+03 -7.909736E+03
        68   2  1.587649E+04  1.161465E+05  2.233866E+04 -3.190945E+04  3.909957E+03 -1.235884E+04
        68   3  1.675334E+04  5.471283E+04  1.934315E+04 -3.707969E+04  7.983857E+02 -1.680742E+04
        68   4 -5.644659E+02  5.688322E+04  6.137081E+03 -4.626630E+04  7.644233E+03 -3.435649E+03
        68   5  1.088929E+03  5.472713E+04  9.791561E+03 -3.536252E+04  3.907962E+03 -8.574864E+03
        68   6  1.742261E+04  5.688518E+04  2.045539E+04 -4.625695E+04  7.968423E+02 -1.371397E+04
        68   7 -3.068962E+04 -6.799845E+04 -1.959110E+04 -4.399513E+04  7.641918E+03  1.037553E+03
        68   8 -1.369882E+04 -6.688609E+03 -2.755680E+03 -3.881525E+04  3.905925E+03 -4.791258E+03
        68   9  1.809219E+04  5.905773E+04  2.156770E+04 -5.543423E+04  7.952075E+02 -1.062051E+04
        68  10  2.955965E+04  1.817797E+05  3.186427E+04 -4.853788E+04 -2.360497E-09  3.284141E-09
        68  11  1.587644E+04  1.161463E+05  2.233835E+04 -3.190941E+04 -1.033450E-09  1.539524E-09
        68  12  1.675327E+04  5.471252E+04  1.934262E+04 -3.707968E+04 -6.810825E-10 -6.119079E-10
        68  13 -5.645319E+02  5.688319E+04  6.136949E+03 -4.626628E+04 -1.298101E-09 -4.434038E-13
        68  14  1.088893E+03  5.472705E+04  9.791395E+03 -3.536250E+04 -2.083100E-09 -3.845166E-12
        68  15  1.742256E+04  5.688497E+04  2.045503E+04 -4.625694E+04 -1.171633E-09 -7.347433E-11
        68  16 -3.068968E+04 -6.799847E+04 -1.959121E+04 -4.399513E+04 -1.314566E-09 -3.035124E-09
        68  17 -1.369884E+04 -6.688638E+03 -2.755752E+03 -3.881523E+04  3.231517E-10 -1.414068E-09
        68  18  1.809216E+04  5.905761E+04  2.156749E+04 -5.543423E+04  2.967367E-10  1.502460E-09
        68  19  2.955973E+04  1.817797E+05  3.186450E+04 -4.853793E+04 -7.646581E+03  7.909736E+03
        68  20  1.587649E+04  1.161465E+05  2.233866E+04 -3.190945E+04 -3.909957E+03  1.235884E+04
        68  21  1.675334E+04  5.471283E+04  1.934315E+04 -3.707969E+04 -7.983857E+02  1.680742E+04
        68  22 -5.644659E+02  5.688322E+04  6.137081E+03 -4.626630E+04 -7.644233E+03  3.435649E+03
        68  23  1.088929E+03  5.472713E+04  9.791561E+03 -3.536252E+04 -3.907962E+03  8.574864E+03
        68  24  1.742261E+04  5.688518E+04  2.045539E+04 -4.625695E+04 -7.968423E+02  1.371397E+04
        68  25 -3.068962E+04 -6.799845E+04 -1.959110E+04 -4.399513E+04 -7.641918E+03 -1.037553E+03
        68  26 -1.369882E+04 -6.688609E+03 -2.755680E+03 -3.881525E+04 -3.905925E+03  4.791258E+03
        68  27  1.809219E+04  5.905773E+04  2.156770E+04 -5.543423E+04 -7.952075E+02  1.062051E+04
        69   1  6.720879E+04  3.160342E+04  2.264291E+04  1.892379E+04  4.553136E+03  1.751132E+02
        69   2  6.367491E+04  2.977420E+04  1.954904E+04  1.748792E+04  3.258060E+03 -3.754572E+03
        69   3  5.960491E+04  2.895996E+04  1.828135E+04  1.716264E+04  1.035018E+03 -5.209736E+03
        69   4 -2.086627E+04 -1.246372E+03 -5.513944E+02 -4.860665E+03  1.526981E+02 -1.475150E+03
        69   5 -2.031455E+04 -1.286796E+03 -2.453747E+02 -5.496087E+03  1.415838E+03 -4.445545E+03
        69   6 -2.080557E+04 -8.187051E+02 -1.394050E+02 -5.020826E+03  1.750964E+03 -4.941262E+03
        69   7 -1.089328E+05 -3.409534E+04 -2.374602E+04 -2.864182E+04 -4.247006E+03 -3.125141E+03
        69   8 -1.042967E+05 -3.234718E+04 -2.004018E+04 -2.847719E+04 -4.261060E+02 -5.136415E+03
        69   9 -1.012099E+05 -3.059701E+04 -1.856068E+04 -2.720175E+04  2.466813E+03 -4.672826E+03
        69  10  6.720876E+04  3.160341E+04  2.264288E+04  1.892379E+04  1.106562E-09  2.825435E-11
        69  11  6.367489E+04  2.977418E+04  1.954899E+04  1.748793E+04  8.317680E-10 -5.719370E-11
        69  12  5.960490E+04  2.895993E+04  1.828130E+04  1.716265E+04 -9.377904E-11  2.948289E-10
        69  13 -2.086627E+04 -1.246375E+03 -5.513986E+02 -4.860665E+03  1.091708E-09 -8.651147E-11
        69  14 -2.031456E+04 -1.286818E+03 -2.454156E+02 -5.496082E+03  1.157787E-09 -2.467761E-10
        69  15 -2.080558E+04 -8.187321E+02 -1.394566E+02 -5.020819E+03 -1.415670E-10 -6.600099E-11
        69  16 -1.089328E+05 -3.409536E+04 -2.374607E+04 -2.864183E+04  3.056611E-10 -2.182757E-10
        69  17 -1.042967E+05 -3.234720E+04 -2.004023E+04 -2.847719E+04  2.273653E-09 -3.592846E-10
        69  18 -1.012099E+05 -3.059703E+04 -1.856073E+04 -2.720174E+04 -1.415756E-09 -2.143982E-10
        69  19  6.720879E+04  3.160342E+04  2.264291E+04  1.892379E+04 -4.553136E+03 -1.751132E+02
        69  20  6.367491E+04  2.977420E+04  1.954904E+04  1.748792E+04 -3.258060E+03  3.754572E+03
        69  21  5.960491E+04  2.895996E+04  1.828135E+04  1.716264E+04 -1.035018E+03  5.209736E+03
        69  22 -2.086627E+04 -1.246372E+03 -5.513944E+02 -4.860665E+03 -1.526981E+02  1.475150E+03
        69  23 -2.031455E+04 -1.286796E+03 -2.453747E+02 -5.496087E+03 -1.415838E+03  4.445545E+03
        69  24 -2.080557E+04 -8.187051E+02 -1.394050E+02 -5.020826E+03 -1.750964E+03  4.941262E+03
        69  25 -1.089328E+05 -3.409534E+04 -2.374602E+04 -2.864182E+04  4.247006E+03  3.125141E+03
        69  26 -1.042967E+05 -3.234718E+04 -2.004018E+04 -2.847719E+04  4.261060E+02  5.136415E+03
        69  27 -1.012099E+05 -3.059701E+04 -1.856068E+04 -2.720175E+04 -2.466813E+03  4.672826E+03
        70   1  5.676946E+04  2.785400E+04  1.775248E+04  1.635455E+04  1.620303E+03 -4.636255E+03
        70   2  5.357311E+04  2.601175E+04  1.684981E+04  1.478946E+04  1.500677E+03 -4.579840E+03
        70   3  4.941581E+04  2.514801E+04  1.601224E+04  1.434366E+04  1.337442E+03 -4.407217E+03
        70   4 -2.080852E+04 -8.319705E+02 -1.119600E+02 -4.976780E+03  1.652051E+03 -4.624402E+03
        70   5 -2.031471E+04 -1.298918E+03 -6.703329E+01 -5.540293E+03  1.652564E+03 -4.522917E+03
        70   6 -2.080557E+04 -8.111840E+02 -5.216182E+01 -4.984568E+03  1.609464E+03 -4.305217E+03
        70   7 -9.838032E+04 -2.951743E+04 -1.797676E+04 -2.630563E+04  1.683795E+03 -4.612550E+03
        70   8 -9.419655E+04 -2.860900E+04 -1.698410E+04 -2.586770E+04  1.804429E+03 -4.466002E+03
        70   9 -9.102121E+04 -2.676971E+04 -1.611667E+04 -2.431058E+04  1.881450E+03 -4.203231E+03
        70  10  5.676946E+04  2.785398E+04  1.775243E+04  1.635456E+04 -3.236344E-10  3.613402E-10
        70  11  5.357311E+04  2.601173E+04  1.684977E+04  1.478947E+04  1.638012E-09 -2.243356E-10
        70  12  4.941580E+04  2.514799E+04  1.601220E+04  1.434367E+04 -8.484238E-11  6.572036E-11
        70  13 -2.080853E+04 -8.319942E+02 -1.120053E+02 -4.976773E+03 -2.171982E-09  5.062422E-11
        70  14 -2.031471E+04 -1.298941E+03 -6.707687E+01 -5.540287E+03  4.623452E-11 -2.949313E-10
        70  15 -2.080558E+04 -8.112046E+02 -5.220152E+01 -4.984562E+03 -6.936922E-10  1.325571E-10
        70  16 -9.838033E+04 -2.951746E+04 -1.797680E+04 -2.630563E+04 -2.363946E-09 -3.911098E-10
        70  17 -9.419656E+04 -2.860902E+04 -1.698415E+04 -2.586770E+04  2.131297E-10  3.126717E-10
        70  18 -9.102122E+04 -2.676973E+04 -1.611671E+04 -2.431058E+04 -1.230819E-09  1.281583E-10
        70  19  5.676946E+04  2.785400E+04  1.775248E+04  1.635455E+04 -1.620303E+03  4.636255E+03
        70  20  5.357311E+04  2.601175E+04  1.684981E+04  1.478946E+04 -1.500677E+03  4.579840E+03
        70  21  4.941581E+04  2.514801E+04  1.601224E+04  1.434366E+04 -1.337442E+03  4.407217E+03
        70  22 -2.080852E+04 -8.319705E+02 -1.119600E+02 -4.976780E+03 -1.652051E+03  4.624402E+03
        70  23 -2.031471E+04 -1.298918E+03 -6.703329E+01 -5.540293E+03 -1.652564E+03  4.522917E+03
        70  24 -2.080557E+04 -8.111840E+02 -5.216182E+01 -4.984568E+03 -1.609464E+03  4.305217E+03
        70  25 -9.838032E+04 -2.951743E+04 -1.797676E+04 -2.630563E+04 -1.683795E+03  4.612550E+03
        70  26 -9.419655E+04 -2.860900E+04 -1.698410E+04 -2.586770E+04 -1.804429E+03  4.466002E+03
        70  27 -9.102121E+04 -2.676971E+04 -1.611667E+04 -2.431058E+04 -1.881450E+03  4.203231E+03
        71   1  4.660309E+04  2.410182E+04  1.535039E+04  1.357026E+04  1.322244E+03 -4.243191E+03
        71   2  4.342068E+04  2.225733E+04  1.450397E+04  1.199799E+04  1.261070E+03 -3.998257E+03
        71   3  3.925850E+04  2.139122E+04  1.363816E+04  1.154498E+04  1.197809E+03 -3.747829E+03
        71   4 -2.080499E+04 -8.117725E+02 -5.193563E+01 -4.982232E+03  1.562183E+03 -4.153220E+03
        71   5 -2.031434E+04 -1.299103E+03 -6.541826E+01 -5.542333E+03  1.506686E+03 -3.906144E+03
        71   6 -2.080462E+04 -8.091950E+02 -1.028170E+02 -4.983196E+03  1.449103E+03 -3.653574E+03
        71   7 -8.820943E+04 -2.572537E+04 -1.545481E+04 -2.353313E+04  1.802098E+03 -4.063258E+03
        71   8 -8.404595E+04 -2.485548E+04 -1.463526E+04 -2.308119E+04  1.752278E+03 -3.814040E+03
        71   9 -8.086459E+04 -2.300951E+04 -1.384416E+04 -2.151004E+04  1.700373E+03 -3.559328E+03
        71  10  4.660309E+04  2.410180E+04  1.535035E+04  1.357026E+04  1.437331E-09  3.905835E-10
        71  11  4.342067E+04  2.225731E+04  1.450394E+04  1.199799E+04 -1.424890E-10  7.334833E-11
        71  12  3.925850E+04  2.139120E+04  1.363813E+04  1.154498E+04  1.776303E-09 -1.251199E-10
        71  13 -2.080500E+04 -8.117917E+02 -5.197263E+01 -4.982226E+03 -1.109825E-09  2.546002E-11
        71  14 -2.031434E+04 -1.299120E+03 -6.545120E+01 -5.542329E+03  4.924693E-10  6.563574E-11
        71  15 -2.080463E+04 -8.092099E+02 -1.028460E+02 -4.983192E+03  4.805290E-10 -2.276367E-10
        71  16 -8.820944E+04 -2.572539E+04 -1.545484E+04 -2.353312E+04 -1.817344E-09 -9.851913E-11
        71  17 -8.404595E+04 -2.485550E+04 -1.463529E+04 -2.308118E+04 -1.364504E-09  1.707999E-10
        71  18 -8.086459E+04 -2.300953E+04 -1.384419E+04 -2.151003E+04 -8.287082E-10 -5.139296E-10
        71  19  4.660309E+04  2.410182E+04  1.535039E+04  1.357026E+04 -1.322244E+03  4.243191E+03
        71  20  4.342068E+04  2.225733E+04  1.450397E+04  1.199799E+04 -1.261070E+03  3.998257E+03
        71  21  3.925850E+04  2.139122E+04  1.363816E+04  1.154498E+04 -1.197809E+03  3.747829E+03
        71  22 -2.080499E+04 -8.117725E+02 -5.193563E+01 -4.982232E+03 -1.562183E+03  4.153220E+03
        71  23 -2.031434E+04 -1.299103E+03 -6.541826E+01 -5.542333E+03 -1.506686E+03  3.906144E+03
        71  24 -2.080462E+04 -8.091950E+02 -1.028170E+02 -4.983196E+03 -1.449103E+03  3.653574E+03
        71  25 -8.820943E+04 -2.572537E+04 -1.545481E+04 -2.353313E+04 -1.802098E+03  4.063258E+03
        71  26 -8.404595E+04 -2.485548E+04 -1.463526E+04 -2.308119E+04 -1.752278E+03  3.814040E+03
        71  27 -8.086459E+04 -2.300951E+04 -1.384416E+04 -2.151004E+04 -1.700373E+03  3.559328E+03
        72   1  3.644278E+04  2.034685E+04  1.294030E+04  1.077169E+04  1.166022E+03 -3.598592E+03
        72   2  3.327148E+04  1.850020E+04  1.201017E+04  9.194436E+03  1.192391E+03 -3.312862E+03
        72   3  2.910525E+04  1.762968E+04  1.099282E+04  8.733503E+03  1.218637E+03 -3.026846E+03
        72   4 -2.080799E+04 -8.096846E+02 -1.335781E+02 -4.983826E+03  1.415832E+03 -3.504888E+03
        72   5 -2.030992E+04 -1.295051E+03 -2.358172E+02 -5.542959E+03  1.442490E+03 -3.219041E+03
        72   6 -2.080687E+04 -8.042728E+02 -4.254905E+02 -4.985702E+03  1.469026E+03 -2.932908E+03
        72   7 -7.805483E+04 -2.196573E+04 -1.320750E+04 -2.073784E+04  1.665614E+03 -3.411194E+03
        72   8 -7.388825E+04 -2.109001E+04 -1.248194E+04 -2.027914E+04  1.692564E+03 -3.125230E+03
        72   9 -7.071670E+04 -1.923811E+04 -1.184403E+04 -1.870395E+04  1.719394E+03 -2.838978E+03
        72  10  3.644277E+04  2.034684E+04  1.294028E+04  1.077169E+04  5.365157E-10 -4.001133E-10
        72  11  3.327147E+04  1.850018E+04  1.201015E+04  9.194440E+03  2.308949E-09 -1.530992E-10
        72  12  2.910524E+04  1.762967E+04  1.099280E+04  8.733506E+03  1.673221E-09  1.087874E-09
        72  13 -2.080800E+04 -8.096983E+02 -1.336050E+02 -4.983822E+03 -8.803085E-10 -5.363695E-10
        72  14 -2.030993E+04 -1.295062E+03 -2.358406E+02 -5.542955E+03  6.812393E-10 -6.393042E-10
        72  15 -2.080688E+04 -8.042826E+02 -4.255107E+02 -4.985698E+03  8.567872E-10  8.240151E-10
        72  16 -7.805484E+04 -2.196575E+04 -1.320753E+04 -2.073784E+04 -1.344381E-10 -7.670520E-10
        72  17 -7.388826E+04 -2.109002E+04 -1.248196E+04 -2.027914E+04  2.330022E-09 -5.618971E-10
        72  18 -7.071671E+04 -1.923812E+04 -1.184405E+04 -1.870395E+04 -1.045163E-09  4.331166E-11
        72  19  3.644278E+04  2.034685E+04  1.294030E+04  1.077169E+04 -1.166022E+03  3.598592E+03
        72  20  3.327148E+04  1.850020E+04  1.201017E+04  9.194436E+03 -1.192391E+03  3.312862E+03
        72  21  2.910525E+04  1.762968E+04  1.099282E+04  8.733503E+03 -1.218637E+03  3.026846E+03
        72  22 -2.080799E+04 -8.096846E+02 -1.335781E+02 -4.983826E+03 -1.415832E+03  3.504888E+03
        72  23 -2.030992E+04 -1.295051E+03 -2.358172E+02 -5.542959E+03 -1.442490E+03  3.219041E+03
        72  24 -2.080687E+04 -8.042728E+02 -4.254905E+02 -4.985702E+03 -1.469026E+03  2.932908E+03
        72  25 -7.805483E+04 -2.196573E+04 -1.320750E+04 -2.073784E+04 -1.665614E+03  3.411194E+03
        72  26 -7.388825E+04 -2.109001E+04 -1.248194E+04 -2.027914E+04 -1.692564E+03  3.125230E+03
        72  27 -7.071670E+04 -1.923811E+04 -1.184403E+04 -1.870395E+04 -1.719394E+03  2.838978E+03
        73   1  2.628188E+04  1.658060E+04  1.018298E+04  7.952833E+03  1.248620E+03 -2.854775E+03
        73   2  2.315403E+04  1.473167E+04  8.894302E+03  6.364648E+03  1.669856E+03 -2.420373E+03
        73   3  1.897266E+04  1.383425E+04  7.220111E+03  5.878129E+03  2.091049E+03 -1.985900E+03
        73   4 -2.081946E+04 -8.062590E+02 -5.676738E+02 -4.990300E+03  1.498954E+03 -2.760853E+03
        73   5 -2.029202E+04 -1.278214E+03 -1.028433E+03 -5.542533E+03  1.920229E+03 -2.326429E+03
        73   6 -2.081816E+04 -7.986297E+02 -1.874751E+03 -4.993062E+03  2.341467E+03 -1.891932E+03
        73   7 -6.791830E+04 -1.819285E+04 -1.131840E+04 -1.793246E+04  1.749266E+03 -2.666939E+03
        73   8 -6.373617E+04 -1.728796E+04 -1.095129E+04 -1.744895E+04  2.170583E+03 -2.232492E+03
        73   9 -6.060762E+04 -1.543148E+04 -1.096978E+04 -1.586368E+04  2.591869E+03 -1.797969E+03
        73  10  2.628187E+04  1.658059E+04  1.018297E+04  7.952836E+03  1.992627E-08  8.960876E-09
        73  11  2.315402E+04  1.473166E+04  8.894285E+03  6.364651E+03  1.864690E-09  1.617056E-09
        73  12  1.897265E+04  1.383424E+04  7.220096E+03  5.878132E+03 -1.932038E-08 -6.919036E-09
        73  13 -2.081947E+04 -8.062678E+02 -5.676924E+02 -4.990297E+03 -4.049441E-10  1.679683E-09
        73  14 -2.029202E+04 -1.278221E+03 -1.028451E+03 -5.542530E+03  1.745257E-09  1.619406E-09
        73  15 -2.081816E+04 -7.986350E+02 -1.874768E+03 -4.993058E+03  1.033578E-09  1.153395E-09
        73  16 -6.791831E+04 -1.819286E+04 -1.131842E+04 -1.793246E+04 -1.987518E-08 -6.395847E-09
        73  17 -6.373618E+04 -1.728797E+04 -1.095131E+04 -1.744895E+04  2.977125E-09  2.633595E-09
        73  18 -6.060763E+04 -1.543149E+04 -1.096980E+04 -1.586368E+04  1.997568E-08  9.236303E-09
        73  19  2.628188E+04  1.658060E+04  1.018298E+04  7.952833E+03 -1.248620E+03  2.854775E+03
        73  20  2.315403E+04  1.473167E+04  8.894302E+03  6.364648E+03 -1.669856E+03  2.420373E+03
        73  21  1.897266E+04  1.383425E+04  7.220111E+03  5.878129E+03 -2.091049E+03  1.985900E+03
        73  22 -2.081946E+04 -8.062590E+02 -5.676738E+02 -4.990300E+03 -1.498954E+03  2.760853E+03
        73  23 -2.029202E+04 -1.278214E+03 -1.028433E+03 -5.542533E+03 -1.920229E+03  2.326429E+03
        73  24 -2.081816E+04 -7.986297E+02 -1.874751E+03 -4.993062E+03 -2.341467E+03  1.891932E+03
        73  25 -6.791830E+04 -1.819285E+04 -1.131840E+04 -1.793246E+04 -1.749266E+03  2.666939E+03
        73  26 -6.373617E+04 -1.728796E+04 -1.095129E+04 -1.744895E+04 -2.170583E+03  2.232492E+03
        73  27 -6.060762E+04 -1.543148E+04 -1.096978E+04 -1.586368E+04 -2.591869E+03  1.797969E+03
        74   1  1.613886E+04  1.275856E+04  5.926457E+03  5.018404E+03  2.400675E+03 -1.708873E+03
        74   2  1.316368E+04  1.095219E+04  3.063691E+03  3.483157E+03  4.573687E+03 -6.166948E+02
        74   3  8.783876E+03  9.740878E+03 -1.575102E+03  3.052264E+03  6.746452E+03  4.760205E+02
        74   4 -2.088303E+04 -7.842221E+02 -2.500502E+03 -5.027640E+03  2.650954E+03 -1.614952E+03
        74   5 -2.019952E+04 -1.215726E+03 -4.535246E+03 -5.529488E+03  4.824424E+03 -5.225958E+02
        74   6 -2.092077E+04 -1.052309E+03 -8.346450E+03 -4.927006E+03  6.997654E+03  5.703002E+02
        74   7 -5.790353E+04 -1.432691E+04 -1.092755E+04 -1.507314E+04  2.901217E+03 -1.521036E+03
        74   8 -5.356150E+04 -1.338353E+04 -1.213423E+04 -1.454166E+04  5.075146E+03 -4.285024E+02
        74   9 -5.062435E+04 -1.184537E+04 -1.511781E+04 -1.290588E+04  7.248841E+03  6.645746E+02
        74  10  1.613885E+04  1.275856E+04  5.926441E+03  5.018407E+03  3.805346E-10 -7.498885E-10
        74  11  1.316365E+04  1.095219E+04  3.063651E+03  3.483159E+03 -4.456781E-09 -3.238329E-09
        74  12  8.783827E+03  9.740866E+03 -1.575188E+03  3.052262E+03 -2.477339E-09 -2.038367E-09
        74  13 -2.088304E+04 -7.842268E+02 -2.500520E+03 -5.027637E+03 -9.260600E-10 -4.027289E-10
        74  14 -2.019955E+04 -1.215732E+03 -4.535290E+03 -5.529486E+03 -4.100281E-09 -2.719362E-09
        74  15 -2.092082E+04 -1.052322E+03 -8.346543E+03 -4.927009E+03 -2.270031E-09 -1.089252E-09
        74  16 -5.790354E+04 -1.432691E+04 -1.092757E+04 -1.507313E+04 -1.969775E-09 -2.384467E-10
        74  17 -5.356153E+04 -1.338354E+04 -1.213428E+04 -1.454166E+04 -3.098188E-09 -2.555744E-09
        74  18 -5.062440E+04 -1.184538E+04 -1.511791E+04 -1.290589E+04  2.255564E-10  3.539575E-10
        74  19  1.613886E+04  1.275856E+04  5.926457E+03  5.018404E+03 -2.400675E+03  1.708873E+03
        74  20  1.316368E+04  1.095219E+04  3.063691E+03  3.483157E+03 -4.573687E+03  6.166948E+02
        74  21  8.783876E+03  9.740878E+03 -1.575102E+03  3.052264E+03 -6.746452E+03 -4.760205E+02
        74  22 -2.088303E+04 -7.842221E+02 -2.500502E+03 -5.027640E+03 -2.650954E+03  1.614952E+03
        74  23 -2.019952E+04 -1.215726E+03 -4.535246E+03 -5.529488E+03 -4.824424E+03  5.225958E+02
        74  24 -2.092077E+04 -1.052309E+03 -8.346450E+03 -4.927006E+03 -6.997654E+03 -5.703002E+02
        74  25 -5.790353E+04 -1.432691E+04 -1.092755E+04 -1.507314E+04 -2.901217E+03  1.521036E+03
        74  26 -5.356150E+04 -1.338353E+04 -1.213423E+04 -1.454166E+04 -5.075146E+03  4.285024E+02
        74  27 -5.062435E+04 -1.184537E+04 -1.511781E+04 -1.290588E+04 -7.248841E+03 -6.645746E+02
        75   1  6.336613E+03  8.379987E+03 -4.942307E+03  8.557414E+02  8.253300E+03  1.201707E+03
        75   2  3.179427E+03  7.774095E+03 -1.473522E+04  1.569387E+03  1.826319E+04  5.239195E+03
        75   3 -4.834676E+03  1.181541E+03 -3.389866E+04  4.756409E+03  2.826915E+04  9.287144E+03
        75   4 -2.140640E+04 -5.148430E+02 -1.104509E+04 -5.373616E+03  8.501649E+03  1.294938E+03
        75   5 -1.948958E+04 -1.159712E+03 -2.001196E+04 -5.244238E+03  1.852193E+04  5.336289E+03
        75   6 -2.243174E+04 -7.793489E+03 -3.835776E+04 -2.641472E+03  2.853834E+04  9.388043E+03
        75   7 -4.914881E+04 -9.409716E+03 -1.714797E+04 -1.160278E+04  8.749988E+03  1.388166E+03
        75   8 -4.215813E+04 -1.009349E+04 -2.528875E+04 -1.205765E+04  1.878066E+04  5.433378E+03
        75   9 -4.002847E+04 -1.676840E+04 -4.281687E+04 -1.003913E+04  2.880752E+04  9.488937E+03
        75  10  6.336540E+03  8.379968E+03 -4.942438E+03  8.557334E+02  3.036592E-09  5.567705E-11
        75  11  3.179061E+03  7.773976E+03 -1.473590E+04  1.569310E+03  1.200498E-09 -8.920637E-10
        75  12 -4.835557E+03  1.181234E+03 -3.390032E+04  4.756198E+03 -1.361925E-09 -1.615993E-09
        75  13 -2.140648E+04 -5.148642E+02 -1.104523E+04 -5.373625E+03 -2.078697E-09 -2.523854E-10
        75  14 -1.948995E+04 -1.159835E+03 -2.001266E+04 -5.244318E+03 -1.795066E-09 -1.331874E-09
        75  15 -2.243264E+04 -7.793802E+03 -3.835945E+04 -2.641688E+03 -6.601268E-10 -1.046036E-09
        75  16 -4.914890E+04 -9.409739E+03 -1.714812E+04 -1.160279E+04 -2.633150E-09 -1.042630E-09
        75  17 -4.215852E+04 -1.009362E+04 -2.528947E+04 -1.205773E+04 -2.924034E-10 -1.627332E-09
        75  18 -4.002939E+04 -1.676872E+04 -4.281860E+04 -1.003935E+04 -6.406920E-10 -9.762843E-10
        75  19  6.336613E+03  8.379987E+03 -4.942307E+03  8.557414E+02 -8.253300E+03 -1.201707E+03
        75  20  3.179427E+03  7.774095E+03 -1.473522E+04  1.569387E+03 -1.826319E+04 -5.239195E+03
        75  21 -4.834676E+03  1.181541E+03 -3.389866E+04  4.756409E+03 -2.826915E+04 -9.287144E+03
        75  22 -2.140640E+04 -5.148430E+02 -1.104509E+04 -5.373616E+03 -8.501649E+03 -1.294938E+03
        75  23 -1.948958E+04 -1.159712E+03 -2.001196E+04 -5.244238E+03 -1.852193E+04 -5.336289E+03
        75  24 -2.243174E+04 -7.793489E+03 -3.835776E+04 -2.641472E+03 -2.853834E+04 -9.388043E+03
        75  25 -4.914881E+04 -9.409716E+03 -1.714797E+04 -1.160278E+04 -8.749988E+03 -1.388166E+03
        75  26 -4.215813E+04 -1.009349E+04 -2.528875E+04 -1.205765E+04 -1.878066E+04 -5.433378E+03
        75  27 -4.002847E+04 -1.676840E+04 -4.281687E+04 -1.003913E+04 -2.880752E+04 -9.488937E+03
        76   1  3.138794E+03 -4.865065E+03 -4.521247E+04 -2.337909E+04  3.429513E+04  1.169141E+04
        76   2 -1.820123E+04  2.031196E+04 -8.530864E+04  2.805640E+04  8.102495E+04  2.959365E+04
        76   3 -9.821858E+04 -9.102706E+04 -1.978379E+05  1.154937E+05  1.276706E+05  4.772166E+04
        76   4 -2.862684E+04  4.181972E+03 -4.899369E+04 -1.057691E+04  3.450339E+04  1.177101E+04
        76   5 -1.022315E+04 -5.338044E+03 -8.830952E+04  6.255428E+02  8.145937E+04  2.975201E+04
        76   6 -5.055013E+04 -1.514279E+05 -2.002382E+05  4.783312E+04  1.283341E+05  4.795047E+04
        76   7 -6.039046E+04  1.323046E+04 -5.277464E+04  2.224571E+03  3.471164E+04  1.185064E+04
        76   8 -2.243090E+03 -3.098374E+04 -9.130983E+04 -2.680499E+04  8.189380E+04  2.991032E+04
        76   9 -2.865738E+03 -2.118002E+05 -2.026345E+05 -1.982919E+04  1.289978E+05  4.817908E+04
        76  10  3.137494E+03 -4.865528E+03 -4.521494E+04 -2.337941E+04  3.246499E-10 -7.913175E-10
        76  11 -1.820852E+04  2.030925E+04 -8.532263E+04  2.805447E+04  5.619266E-10 -2.054288E-11
        76  12 -9.823670E+04 -9.103389E+04 -1.978728E+05  1.154888E+05 -7.100774E-10  1.062427E-10
        76  13 -2.862816E+04  4.181504E+03 -4.899619E+04 -1.057723E+04  1.371430E-09 -1.760500E-09
        76  14 -1.023051E+04 -5.340777E+03 -8.832365E+04  6.235907E+02 -1.036027E-09  2.976598E-10
        76  15 -5.056843E+04 -1.514348E+05 -2.002735E+05  4.782816E+04  1.242386E-09  1.999836E-10
        76  16 -6.039179E+04  1.322998E+04 -5.277717E+04  2.224240E+03  7.885506E-10 -3.904542E-10
        76  17 -2.250533E+03 -3.098651E+04 -9.132412E+04 -2.680696E+04 -1.590726E-09 -1.896762E-10
        76  18 -2.884233E+03 -2.118072E+05 -2.026701E+05 -1.983419E+04 -1.349100E-10 -1.598845E-11
        76  19  3.138794E+03 -4.865065E+03 -4.521247E+04 -2.337909E+04 -3.429513E+04 -1.169141E+04
        76  20 -1.820123E+04  2.031196E+04 -8.530864E+04  2.805640E+04 -8.102495E+04 -2.959365E+04
        76  21 -9.821858E+04 -9.102706E+04 -1.978379E+05  1.154937E+05 -1.276706E+05 -4.772166E+04
        76  22 -2.862684E+04  4.181972E+03 -4.899369E+04 -1.057691E+04 -3.450339E+04 -1.177101E+04
        76  23 -1.022315E+04 -5.338044E+03 -8.830952E+04  6.255428E+02 -8.145937E+04 -2.975201E+04
        76  24 -5.055013E+04 -1.514279E+05 -2.002382E+05  4.783312E+04 -1.283341E+05 -4.795047E+04
        76  25 -6.039046E+04  1.323046E+04 -5.277464E+04  2.224571E+03 -3.471164E+04 -1.185064E+04
        76  26 -2.243090E+03 -3.098374E+04 -9.130983E+04 -2.680499E+04 -8.189380E+04 -2.991032E+04
        76  27 -2.865738E+03 -2.118002E+05 -2.026345E+05 -1.982919E+04 -1.289978E+05 -4.817908E+04
        77   1  2.095596E+05  1.960525E+06  2.288717E+05 -1.019317E+05  3.769573E+03  1.251890E+05
        77   2  7.652944E+04  1.918100E+06  1.315865E+05 -5.040759E+04  1.226526E+04  7.421395E+04
        77   3  5.081964E+04  1.909112E+06  9.425026E+04 -6.015280E+03  1.371650E+04  2.324090E+04
        77   4  1.418473E+05  1.686623E+06  1.637330E+05 -2.106555E+04  3.786761E+03  1.095703E+05
        77   5  1.687940E+04  1.670751E+06  8.023301E+04 -1.750915E+04  1.227025E+04  6.775314E+04
        77   6 -2.339156E+03  1.686742E+06  5.034955E+04 -2.108140E+04  1.371587E+04  2.593520E+04
        77   7  7.415420E+04  1.412803E+06  9.859355E+04  5.976488E+04  3.799898E+03  9.395834E+04
        77   8 -4.277044E+04  1.423463E+06  2.887695E+04  1.537601E+04  1.227456E+04  6.129485E+04
        77   9 -5.550008E+04  1.464419E+06  6.446577E+03 -3.614201E+04  1.371512E+04  2.862855E+04
        77  10  2.095554E+05  1.960509E+06  2.288423E+05 -1.019321E+05  1.191161E-10 -7.245949E-10
        77  11  7.652780E+04  1.918094E+06  1.315759E+05 -5.040832E+04  1.399477E-09 -1.645796E-09
        77  12  5.081929E+04  1.909112E+06  9.424889E+04 -6.015536E+03 -6.638162E-10 -2.763557E-09
        77  13  1.418441E+05  1.686610E+06  1.637105E+05 -2.106588E+04  1.007916E-09 -7.634462E-11
        77  14  1.687801E+04  1.670746E+06  8.022412E+04 -1.750982E+04 -1.589102E-09 -1.769334E-12
        77  15 -2.339538E+03  1.686741E+06  5.034794E+04 -2.108168E+04  1.134757E-09 -5.170117E-11
        77  16  7.415182E+04  1.412794E+06  9.857697E+04  5.976460E+04  3.901855E-10  7.762989E-10
        77  17 -4.277161E+04  1.423459E+06  2.886962E+04  1.537540E+04 -2.415479E-09  1.295110E-09
        77  18 -5.550051E+04  1.464418E+06  6.444686E+03 -3.614233E+04 -1.696251E-09  2.699426E-09
        77  19  2.095596E+05  1.960525E+06  2.288717E+05 -1.019317E+05 -3.769573E+03 -1.251890E+05
        77  20  7.652944E+04  1.918100E+06  1.315865E+05 -5.040759E+04 -1.226526E+04 -7.421395E+04
        77  21  5.081964E+04  1.909112E+06  9.425026E+04 -6.015280E+03 -1.371650E+04 -2.324090E+04
        77  22  1.418473E+05  1.686623E+06  1.637330E+05 -2.106555E+04 -3.786761E+03 -1.095703E+05
        77  23  1.687940E+04  1.670751E+06  8.023301E+04 -1.750915E+04 -1.227025E+04 -6.775314E+04
        77  24 -2.339156E+03  1.686742E+06  5.034955E+04 -2.108140E+04 -1.371587E+04 -2.593520E+04
        77  25  7.415420E+04  1.412803E+06  9.859355E+04  5.976488E+04 -3.799898E+03 -9.395834E+04
        77  26 -4.277044E+04  1.423463E+06  2.887695E+04  1.537601E+04 -1.227456E+04 -6.129485E+04
        77  27 -5.550008E+04  1.464419E+06  6.446577E+03 -3.614201E+04 -1.371512E+04 -2.862855E+04
        78   1  5.397113E+04  1.884913E+06  8.351325E+04 -2.401705E+04  1.257602E+04  1.750728E+04
        78   2  4.322980E+04  1.857155E+06  7.068842E+04 -1.747015E+04  1.141178E+04 -1.035262E+03
        78   3  4.151054E+04  1.834061E+06  7.216616E+04 -1.836405E+04  9.704458E+03 -1.957743E+04
        78   4  5.131606E+03  1.680658E+06  4.316726E+04 -2.114801E+04  1.257620E+04  1.866771E+04
        78   5  5.531871E+02  1.678389E+06  3.571552E+04 -1.742772E+04  1.141160E+04  8.353290E+02
        78   6  4.875507E+03  1.680661E+06  4.207708E+04 -2.114825E+04  9.704012E+03 -1.699740E+04
        78   7 -4.371042E+04  1.476442E+06  2.819235E+03 -1.827993E+04  1.257640E+04  1.982777E+04
        78   8 -4.212534E+04  1.499653E+06  7.410993E+02 -1.738530E+04  1.141142E+04  2.705394E+03
        78   9 -3.176090E+04  1.527285E+06  1.198690E+04 -2.393174E+04  9.703544E+03 -1.441800E+04
        78  10  5.397088E+04  1.884913E+06  8.351238E+04 -2.401723E+04 -1.016757E-09 -2.404675E-08
        78  11  4.322966E+04  1.857155E+06  7.068817E+04 -1.747014E+04  7.177554E-10 -3.192560E-09
        78  12  4.151033E+04  1.834060E+06  7.216526E+04 -1.836390E+04  9.910805E-10  1.809747E-08
        78  13  5.131343E+03  1.680657E+06  4.316631E+04 -2.114820E+04 -2.484944E-10 -2.811132E-10
        78  14  5.530470E+02  1.678389E+06  3.571527E+04 -1.742773E+04  3.045873E-09  7.280491E-11
        78  15  4.875329E+03  1.680661E+06  4.207636E+04 -2.114811E+04  3.064587E-10 -2.947659E-11
        78  16 -4.371069E+04  1.476442E+06  2.818200E+03 -1.828013E+04 -1.535954E-09  2.416722E-08
        78  17 -4.212548E+04  1.499653E+06  7.408406E+02 -1.738532E+04  3.991575E-10  2.154497E-09
        78  18 -3.176106E+04  1.527284E+06  1.198633E+04 -2.393162E+04 -1.232809E-09 -1.806841E-08
        78  19  5.397113E+04  1.884913E+06  8.351325E+04 -2.401705E+04 -1.257602E+04 -1.750728E+04
        78  20  4.322980E+04  1.857155E+06  7.068842E+04 -1.747015E+04 -1.141178E+04  1.035262E+03
        78  21  4.151054E+04  1.834061E+06  7.216616E+04 -1.836405E+04 -9.704458E+03  1.957743E+04
        78  22  5.131606E+03  1.680658E+06  4.316726E+04 -2.114801E+04 -1.257620E+04 -1.866771E+04
        78  23  5.531871E+02  1.678389E+06  3.571552E+04 -1.742772E+04 -1.141160E+04 -8.353290E+02
        78  24  4.875507E+03  1.680661E+06  4.207708E+04 -2.114825E+04 -9.704012E+03  1.699740E+04
        78  25 -4.371042E+04  1.476442E+06  2.819235E+03 -1.827993E+04 -1.257640E+04 -1.982777E+04
        78  26 -4.212534E+04  1.499653E+06  7.410993E+02 -1.738530E+04 -1.141142E+04 -2.705394E+03
        78  27 -3.176090E+04  1.527285E+06  1.198690E+04 -2.393174E+04 -9.703544E+03  1.441800E+04
        79   1  3.020025E+04  1.822180E+06  7.519783E+04 -3.554776E+04  8.723733E+03 -2.614369E+04
        79   2  4.257479E+04  1.781532E+06  9.914251E+04  1.394478E+04  6.173973E+03 -6.867374E+04
        79   3  1.562089E+05  1.771706E+06  1.760377E+05  5.594609E+04  1.693536E+03 -1.112025E+05
        79   4 -2.213098E+03  1.686419E+06  4.867713E+04 -2.116748E+04  8.722658E+03 -2.406695E+04
        79   5  1.610083E+04  1.671172E+06  7.680443E+04 -1.740138E+04  6.176032E+03 -6.409175E+04
        79   6  1.352413E+05  1.686311E+06  1.561488E+05 -2.112592E+04  1.704816E+03 -1.041165E+05
        79   7 -3.462677E+04  1.550676E+06  2.215567E+04 -6.790411E+03  8.721679E+03 -2.199065E+04
        79   8 -1.037018E+04  1.560827E+06  5.446633E+04 -4.874188E+04  6.177629E+03 -5.951055E+04
        79   9  1.142955E+05  1.600937E+06  1.362627E+05 -9.818729E+04  1.714343E+03 -9.703159E+04
        79  10  3.019998E+04  1.822180E+06  7.519641E+04 -3.554758E+04  1.856201E-09 -4.799799E-08
        79  11  4.257349E+04  1.781527E+06  9.913360E+04  1.394512E+04  1.729954E-09 -2.685239E-09
        79  12  1.562056E+05  1.771693E+06  1.760146E+05  5.594624E+04  6.556894E-10  4.380609E-08
        79  13 -2.213335E+03  1.686419E+06  4.867590E+04 -2.116731E+04  1.221724E-09 -3.444231E-10
        79  14  1.609969E+04  1.671168E+06  7.679666E+04 -1.740106E+04  3.444805E-10  3.743890E-10
        79  15  1.352384E+05  1.686300E+06  1.561285E+05 -2.112578E+04 -1.435609E-11  8.141957E-11
        79  16 -3.462698E+04  1.550675E+06  2.215462E+04 -6.790256E+03 -2.099250E-09  4.805747E-08
        79  17 -1.037117E+04  1.560823E+06  5.445962E+04 -4.874158E+04 -1.039004E-09  1.470745E-09
        79  18  1.142929E+05  1.600927E+06  1.362450E+05 -9.818716E+04 -1.891578E-10 -4.375675E-08
        79  19  3.020025E+04  1.822180E+06  7.519783E+04 -3.554776E+04 -8.723733E+03  2.614369E+04
        79  20  4.257479E+04  1.781532E+06  9.914251E+04  1.394478E+04 -6.173973E+03  6.867374E+04
        79  21  1.562089E+05  1.771706E+06  1.760377E+05  5.594609E+04 -1.693536E+03  1.112025E+05
        79  22 -2.213098E+03  1.686419E+06  4.867713E+04 -2.116748E+04 -8.722658E+03  2.406695E+04
        79  23  1.610083E+04  1.671172E+06  7.680443E+04 -1.740138E+04 -6.176032E+03  6.409175E+04
        79  24  1.352413E+05  1.686311E+06  1.561488E+05 -2.112592E+04 -1.704816E+03  1.041165E+05
        79  25 -3.462677E+04  1.550676E+06  2.215567E+04 -6.790411E+03 -8.721679E+03  2.199065E+04
        79  26 -1.037018E+04  1.560827E+06  5.446633E+04 -4.874188E+04 -6.177629E+03  5.951055E+04
        79  27  1.142955E+05  1.600937E+06  1.362627E+05 -9.818729E+04 -1.714343E+03  9.703159E+04
        80   1 -1.492914E+06 -3.326144E+05 -2.812256E+05 -2.639801E+04  5.640547E+04  2.951815E+04
        80   2 -1.336888E+06 -4.631959E+05 -3.131271E+05 -6.089225E+04  6.172504E+04  9.437949E+04
        80   3 -1.141401E+06 -4.383318E+05 -3.094563E+05 -1.530222E+05  6.719776E+04  1.034415E+05
        80   4  6.381667E+05  1.955387E+05  2.305949E+05 -1.259478E+05  1.589835E+05  2.975902E+04
        80   5  6.133054E+05  1.085031E+04  1.068614E+05 -9.693343E+04  1.026818E+05  9.443500E+04
        80   6  6.384304E+05 -7.972310E+03  6.138192E+04 -1.255347E+05  4.653683E+04  1.033919E+05
        80   7  2.773456E+06  7.234059E+05  7.421383E+05 -2.258435E+05  2.619121E+05  2.996659E+04
        80   8  2.567083E+06  4.846527E+05  5.266336E+05 -1.330911E+05  1.437653E+05  9.448567E+04
        80   9  2.421264E+06  4.221882E+05  4.320478E+05 -9.796770E+04  2.581743E+04  1.033406E+05
        80  10 -1.492918E+06 -3.326162E+05 -2.812332E+05 -2.639935E+04  5.702629E-10 -1.010894E-10
        80  11 -1.336895E+06 -4.632065E+05 -3.131510E+05 -6.089695E+04  7.016699E-10 -4.104228E-10
        80  12 -1.141409E+06 -4.383446E+05 -3.094849E+05 -1.530278E+05 -1.105610E-10 -9.529411E-11
        80  13  6.381393E+05  1.955310E+05  2.305458E+05 -1.259516E+05 -4.101842E-12 -3.816542E-11
        80  14  6.132917E+05  1.083791E+04  1.068248E+05 -9.694124E+04  1.080901E-09 -6.032849E-11
        80  15  6.384252E+05 -7.984374E+03  6.135776E+04 -1.255386E+05 -1.880975E-10 -1.994787E-10
        80  16  2.773382E+06  7.233866E+05  7.420082E+05 -2.258498E+05  1.067716E-09  9.244494E-11
        80  17  2.567058E+06  4.846376E+05  5.265781E+05 -1.331020E+05  1.789796E-09  1.011015E-10
        80  18  2.421261E+06  4.221765E+05  4.320265E+05 -9.796985E+04  6.446993E-10 -2.751622E-10
        80  19 -1.492914E+06 -3.326144E+05 -2.812256E+05 -2.639801E+04 -5.640547E+04 -2.951815E+04
        80  20 -1.336888E+06 -4.631959E+05 -3.131271E+05 -6.089225E+04 -6.172504E+04 -9.437949E+04
        80  21 -1.141401E+06 -4.383318E+05 -3.094563E+05 -1.530222E+05 -6.719776E+04 -1.034415E+05
        80  22  6.381667E+05  1.955387E+05  2.305949E+05 -1.259478E+05 -1.589835E+05 -2.975902E+04
        80  23  6.133054E+05  1.085031E+04  1.068614E+05 -9.693343E+04 -1.026818E+05 -9.443500E+04
        80  24  6.384304E+05 -7.972310E+03  6.138192E+04 -1.255347E+05 -4.653683E+04 -1.033919E+05
        80  25  2.773456E+06  7.234059E+05  7.421383E+05 -2.258435E+05 -2.619121E+05 -2.996659E+04
        80  26  2.567083E+06  4.846527E+05  5.266336E+05 -1.330911E+05 -1.437653E+05 -9.448567E+04
        80  27  2.421264E+06  4.221882E+05  4.320478E+05 -9.796770E+04 -2.581743E+04 -1.033406E+05
        81   1 -1.020478E+06 -3.912540E+05 -2.966245E+05 -1.248673E+05  4.445794E+04  9.400146E+04
        81   2 -8.484894E+05 -3.568021E+05 -2.800308E+05 -9.669848E+04  3.439747E+04  8.678580E+04
        81   3 -6.726858E+05 -3.151552E+05 -2.549175E+05 -1.282018E+05  2.432203E+04  7.678706E+04
        81   4  6.283662E+05  7.565254E+03  4.816752E+04 -1.260892E+05  3.811810E+04  9.397479E+04
        81   5  6.262916E+05 -5.088172E+02  2.636893E+04 -9.625469E+04  2.495690E+04  8.676259E+04
        81   6  6.285308E+05 -8.598056E+02  1.522470E+04 -1.260831E+05  1.178352E+04  7.677046E+04
        81   7  2.279783E+06  4.062107E+05  3.928090E+05 -1.273150E+05  3.176158E+04  9.394820E+04
        81   8  2.103133E+06  3.556462E+05  3.326501E+05 -9.581007E+04  1.549422E+04  8.673941E+04
        81   9  1.931352E+06  3.133281E+05  2.852750E+05 -1.239600E+05 -7.808549E+02  7.675381E+04
        81  10 -1.020482E+06 -3.912641E+05 -2.966448E+05 -1.248707E+05 -2.212671E-10  2.269753E-10
        81  11 -8.484927E+05 -3.568105E+05 -2.800472E+05 -9.670089E+04  6.113779E-10  4.584822E-10
        81  12 -6.726881E+05 -3.151617E+05 -2.549297E+05 -1.282033E+05 -5.121121E-10 -4.285888E-10
        81  13  6.283623E+05  7.555377E+03  4.814819E+04 -1.260921E+05 -5.357611E-10 -1.458226E-10
        81  14  6.262889E+05 -5.170704E+02  2.635361E+04 -9.625643E+04 -1.112391E-09 -1.310035E-10
        81  15  6.285291E+05 -8.661737E+02  1.521336E+04 -1.260839E+05 -1.290155E-09 -5.927720E-10
        81  16  2.279780E+06  4.062009E+05  3.927905E+05 -1.273174E+05 -3.046537E-10 -3.069980E-10
        81  17  2.103131E+06  3.556380E+05  3.326355E+05 -9.581115E+04 -1.347976E-09 -1.808958E-10
        81  18  1.931350E+06  3.133218E+05  2.852640E+05 -1.239599E+05 -1.323761E-09 -5.389556E-10
        81  19 -1.020478E+06 -3.912540E+05 -2.966245E+05 -1.248673E+05 -4.445794E+04 -9.400146E+04
        81  20 -8.484894E+05 -3.568021E+05 -2.800308E+05 -9.669848E+04 -3.439747E+04 -8.678580E+04
        81  21 -6.726858E+05 -3.151552E+05 -2.549175E+05 -1.282018E+05 -2.432203E+04 -7.678706E+04
        81  22  6.283662E+05  7.565254E+03  4.816752E+04 -1.260892E+05 -3.811810E+04 -9.397479E+04
        81  23  6.262916E+05 -5.088172E+02  2.636893E+04 -9.625469E+04 -2.495690E+04 -8.676259E+04
        81  24  6.285308E+05 -8.598056E+02  1.522470E+04 -1.260831E+05 -1.178352E+04 -7.677046E+04
        81  25  2.279783E+06  4.062107E+05  3.928090E+05 -1.273150E+05 -3.176158E+04 -9.394820E+04
        81  26  2.103133E+06  3.556462E+05  3.326501E+05 -9.581007E+04 -1.549422E+04 -8.673941E+04
        81  27  1.931352E+06  3.133281E+05  2.852750E+05 -1.239600E+05  7.808549E+02 -7.675381E+04
        82   1 -5.445978E+05 -2.831310E+05 -2.309945E+05 -1.266257E+05  2.122161E+04  7.024372E+04
        82   2 -3.719167E+05 -2.415824E+05 -2.004281E+05 -9.657726E+04  1.808618E+04  5.947037E+04
        82   3 -1.984489E+05 -1.996556E+05 -1.676623E+05 -1.260320E+05  1.493829E+04  4.857096E+04
        82   4  6.278142E+05 -1.238570E+02  1.162122E+04 -1.260482E+05  9.417716E+03  7.023182E+04
        82   5  6.274760E+05 -3.086019E+02  6.647467E+03 -9.629953E+04  6.136117E+03  5.946434E+04
        82   6  6.279223E+05 -8.841034E+01  3.972150E+03 -1.260484E+05  2.842916E+03  4.857098E+04
        82   7  1.801529E+06  2.827963E+05  2.541629E+05 -1.254695E+05 -2.408106E+03  7.021992E+04
        82   8  1.627815E+06  2.409019E+05  2.136692E+05 -9.602126E+04 -5.832862E+03  5.945830E+04
        82   9  1.454940E+06  1.994355E+05  1.755698E+05 -1.260647E+05 -9.268290E+03  4.857100E+04
        82  10 -5.445996E+05 -2.831364E+05 -2.310046E+05 -1.266269E+05 -1.363410E-09 -6.202356E-10
        82  11 -3.719180E+05 -2.415863E+05 -2.004353E+05 -9.657813E+04  3.867351E-10  3.084256E-10
        82  12 -1.984498E+05 -1.996582E+05 -1.676672E+05 -1.260326E+05  1.068617E-09  4.238953E-10
        82  13  6.278128E+05 -1.291792E+02  1.161178E+04 -1.260487E+05 -1.074424E-09 -4.138095E-10
        82  14  6.274751E+05 -3.124103E+02  6.640749E+03 -9.629983E+04  5.385699E-10  4.041512E-10
        82  15  6.279217E+05 -9.094659E+01  3.967700E+03 -1.260485E+05 -4.071790E-10  6.512782E-10
        82  16  1.801528E+06  2.827910E+05  2.541536E+05 -1.254693E+05  3.465512E-10 -3.331992E-10
        82  17  1.627814E+06  2.408981E+05  2.136625E+05 -9.602098E+04  1.759151E-09  7.166532E-10
        82  18  1.454940E+06  1.994329E+05  1.755652E+05 -1.260643E+05 -1.432916E-09  7.353927E-10
        82  19 -5.445978E+05 -2.831310E+05 -2.309945E+05 -1.266257E+05 -2.122161E+04 -7.024372E+04
        82  20 -3.719167E+05 -2.415824E+05 -2.004281E+05 -9.657726E+04 -1.808618E+04 -5.947037E+04
        82  21 -1.984489E+05 -1.996556E+05 -1.676623E+05 -1.260320E+05 -1.493829E+04 -4.857096E+04
        82  22  6.278142E+05 -1.238570E+02  1.162122E+04 -1.260482E+05 -9.417716E+03 -7.023182E+04
        82  23  6.274760E+05 -3.086019E+02  6.647467E+03 -9.629953E+04 -6.136117E+03 -5.946434E+04
        82  24  6.279223E+05 -8.841034E+01  3.972150E+03 -1.260484E+05 -2.842916E+03 -4.857098E+04
        82  25  1.801529E+06  2.827963E+05  2.541629E+05 -1.254695E+05  2.408106E+03 -7.021992E+04
        82  26  1.627815E+06  2.409019E+05  2.136692E+05 -9.602126E+04  5.832862E+03 -5.945830E+04
        82  27  1.454940E+06  1.994355E+05  1.755698E+05 -1.260647E+05  9.268290E+03 -4.857100E+04
        83   1 -7.026817E+04 -1.684403E+05 -1.410278E+05 -1.259099E+05  1.424916E+04  4.219877E+04
        83   2  1.022386E+05 -1.268234E+05 -1.067803E+05 -9.618986E+04  1.323032E+04  3.128331E+04
        83   3  2.749316E+05 -8.512317E+04 -7.184950E+04 -1.258082E+05  1.220501E+04  2.036884E+04
        83   4  6.278241E+05 -3.395796E+01  3.109090E+03 -1.260124E+05  2.199820E+03  4.220156E+04
        83   5  6.277748E+05  1.145854E+01  2.061108E+03 -9.634468E+04  1.179436E+03  3.128920E+04
        83   6  6.278803E+05  1.413184E+02  1.696603E+03 -1.260123E+05  1.528741E+02  2.037792E+04
        83   7  1.326379E+06  1.683417E+05  1.472202E+05 -1.261148E+05 -9.862837E+03  4.220435E+04
        83   8  1.153573E+06  1.268289E+05  1.108881E+05 -9.649957E+04 -1.088147E+04  3.129508E+04
        83   9  9.809472E+05  8.539795E+04  7.523639E+04 -1.262166E+05 -1.190600E+04  2.038700E+04
        83  10 -7.026887E+04 -1.684423E+05 -1.410316E+05 -1.259104E+05  1.419305E-09  1.670967E-10
        83  11  1.022382E+05 -1.268245E+05 -1.067825E+05 -9.619019E+04  1.395665E-09 -1.931815E-10
        83  12  2.749313E+05 -8.512366E+04 -7.185056E+04 -1.258084E+05 -9.444553E-10 -6.303663E-10
        83  13  6.278236E+05 -3.587230E+01  3.105733E+03 -1.260124E+05 -1.065667E-09  1.184317E-10
        83  14  6.277745E+05  1.040656E+01  2.059265E+03 -9.634471E+04  1.595832E-09  4.739376E-12
        83  15  6.278802E+05  1.408724E+02  1.695823E+03 -1.260123E+05  2.185399E-10 -3.375386E-10
        83  16  1.326378E+06  1.683397E+05  1.472167E+05 -1.261145E+05 -1.233392E-09  4.065049E-10
        83  17  1.153572E+06  1.268278E+05  1.108860E+05 -9.649930E+04  1.031083E-09 -2.755875E-10
        83  18  9.809470E+05  8.539746E+04  7.523535E+04 -1.262164E+05  6.399879E-11 -4.488446E-10
        83  19 -7.026817E+04 -1.684403E+05 -1.410278E+05 -1.259099E+05 -1.424916E+04 -4.219877E+04
        83  20  1.022386E+05 -1.268234E+05 -1.067803E+05 -9.618986E+04 -1.323032E+04 -3.128331E+04
        83  21  2.749316E+05 -8.512317E+04 -7.184950E+04 -1.258082E+05 -1.220501E+04 -2.036884E+04
        83  22  6.278241E+05 -3.395796E+01  3.109090E+03 -1.260124E+05 -2.199820E+03 -4.220156E+04
        83  23  6.277748E+05  1.145854E+01  2.061108E+03 -9.634468E+04 -1.179436E+03 -3.128920E+04
        83  24  6.278803E+05  1.413184E+02  1.696603E+03 -1.260123E+05 -1.528741E+02 -2.037792E+04
        83  25  1.326379E+06  1.683417E+05  1.472202E+05 -1.261148E+05  9.862837E+03 -4.220435E+04
        83  26  1.153573E+06  1.268289E+05  1.108881E+05 -9.649957E+04  1.088147E+04 -3.129508E+04
        83  27  9.809472E+05  8.539795E+04  7.523639E+04 -1.262166E+05  1.190600E+04 -2.038700E+04
        84   1  4.029890E+05 -5.402104E+04 -4.440410E+04 -1.258589E+05  1.188640E+04  1.401873E+04
        84   2  5.753957E+05 -1.254970E+04 -8.735144E+03 -9.626088E+04  1.082476E+04  3.115045E+03
        84   3  7.478979E+05  2.901866E+04  2.762191E+04 -1.259269E+05  9.762226E+03 -7.782927E+03
        84   4  6.278764E+05  1.521919E+02  1.701998E+03 -1.259965E+05 -1.621277E+02  1.402886E+04
        84   5  6.278459E+05  1.050603E+02  2.122738E+03 -9.636452E+04 -1.219102E+03  3.125432E+03
        84   6  6.278817E+05  1.557507E+02  3.228828E+03 -1.259964E+05 -2.276688E+03 -7.772182E+03
        84   7  8.528121E+05  5.432233E+04  4.780594E+04 -1.261340E+05 -1.221494E+04  1.403899E+04
        84   8  6.802990E+05  1.275973E+04  1.298102E+04 -9.646816E+04 -1.326396E+04  3.135822E+03
        84   9  5.078795E+05 -2.870798E+04 -2.116447E+04 -1.260658E+05 -1.431332E+04 -7.761433E+03
        84  10  4.029888E+05 -5.402129E+04 -4.440473E+04 -1.258591E+05 -8.903927E-10 -3.624487E-10
        84  11  5.753956E+05 -1.254974E+04 -8.735383E+03 -9.626091E+04  7.839291E-10  1.422247E-10
        84  12  7.478978E+05  2.901857E+04  2.762162E+04 -1.259269E+05 -1.340021E-09  5.627497E-10
        84  13  6.278763E+05  1.519805E+02  1.701628E+03 -1.259964E+05 -1.125603E-09 -3.816635E-11
        84  14  6.278459E+05  1.050494E+02  2.122717E+03 -9.636452E+04 -1.105465E-09  1.822091E-10
        84  15  6.278817E+05  1.556844E+02  3.228704E+03 -1.259964E+05 -7.545386E-10  4.709047E-10
        84  16  8.528118E+05  5.432208E+04  4.780529E+04 -1.261339E+05 -8.554828E-10 -2.620231E-10
        84  17  6.802988E+05  1.275967E+04  1.298067E+04 -9.646813E+04  1.606423E-09  2.479752E-10
        84  18  5.078793E+05 -2.870810E+04 -2.116497E+04 -1.260659E+05  2.811486E-10  2.053264E-11
        84  19  4.029890E+05 -5.402104E+04 -4.440410E+04 -1.258589E+05 -1.188640E+04 -1.401873E+04
        84  20  5.753957E+05 -1.254970E+04 -8.735144E+03 -9.626088E+04 -1.082476E+04 -3.115045E+03
        84  21  7.478979E+05  2.901866E+04  2.762191E+04 -1.259269E+05 -9.762226E+03  7.782927E+03
        84  22  6.278764E+05  1.521919E+02  1.701998E+03 -1.259965E+05  1.621277E+02 -1.402886E+04
        84  23  6.278459E+05  1.050603E+02  2.122738E+03 -9.636452E+04  1.219102E+03 -3.125432E+03
        84  24  6.278817E+05  1.557507E+02  3.228828E+03 -1.259964E+05  2.276688E+03  7.772182E+03
        84  25  8.528121E+05  5.432233E+04  4.780594E+04 -1.261340E+05  1.221494E+04 -1.403899E+04
        84  26  6.802990E+05  1.275973E+04  1.298102E+04 -9.646816E+04  1.326396E+04 -3.135822E+03
        84  27  5.078795E+05 -2.870798E+04 -2.116447E+04 -1.260658E+05  1.431332E+04  7.761433E+03
        85   1  8.760850E+05  6.006571E+04  5.594590E+04 -1.259447E+05  9.120502E+03 -1.413459E+04
        85   2  1.048430E+06  1.014624E+05  9.406950E+04 -9.625285E+04  5.561058E+03 -2.500311E+04
        85   3  1.221348E+06  1.433336E+05  1.346117E+05 -1.258632E+05  2.005643E+03 -3.577437E+04
        85   4  6.279744E+05  1.221051E+02  4.124862E+03 -1.260055E+05 -2.948693E+03 -1.412449E+04
        85   5  6.276869E+05 -2.861576E+01  6.953020E+03 -9.635303E+04 -6.399887E+03 -2.499566E+04
        85   6  6.279283E+05  2.792041E+02  1.212748E+04 -1.260051E+05 -9.846096E+03 -3.576943E+04
        85   7  3.799224E+05 -5.982535E+04 -4.769904E+04 -1.260664E+05 -1.501315E+04 -1.411438E+04
        85   8  2.071112E+05 -1.015307E+05 -8.017255E+04 -9.645309E+04 -1.835287E+04 -2.498820E+04
        85   9  3.484181E+04 -1.427974E+05 -1.103752E+05 -1.261469E+05 -2.168672E+04 -3.576448E+04
        85  10  8.760848E+05  6.006547E+04  5.594537E+04 -1.259446E+05 -1.344191E-09  6.734065E-10
        85  11  1.048430E+06  1.014617E+05  9.406827E+04 -9.625274E+04  8.636107E-11  4.046820E-10
        85  12  1.221348E+06  1.433322E+05  1.346093E+05 -1.258631E+05  2.185152E-09 -1.105875E-09
        85  13  6.279744E+05  1.218884E+02  4.124470E+03 -1.260056E+05  1.100454E-09  4.342694E-10
        85  14  6.276867E+05 -2.929788E+01  6.951768E+03 -9.635316E+04 -4.817853E-10  4.298630E-10
        85  15  6.279278E+05  2.778037E+02  1.212489E+04 -1.260054E+05  1.613048E-10 -9.051834E-10
        85  16  3.799221E+05 -5.982563E+04 -4.769984E+04 -1.260665E+05  9.584934E-10  4.225013E-10
        85  17  2.071106E+05 -1.015315E+05 -8.017435E+04 -9.645346E+04 -6.287780E-10  7.589217E-10
        85  18  3.484096E+04 -1.427989E+05 -1.103785E+05 -1.261475E+05 -2.833033E-10 -3.508677E-10
        85  19  8.760850E+05  6.006571E+04  5.594590E+04 -1.259447E+05 -9.120502E+03  1.413459E+04
        85  20  1.048430E+06  1.014624E+05  9.406950E+04 -9.625285E+04 -5.561058E+03  2.500311E+04
        85  21  1.221348E+06  1.433336E+05  1.346117E+05 -1.258632E+05 -2.005643E+03  3.577437E+04
        85  22  6.279744E+05  1.221051E+02  4.124862E+03 -1.260055E+05  2.948693E+03  1.412449E+04
        85  23  6.276869E+05 -2.861576E+01  6.953020E+03 -9.635303E+04  6.399887E+03  2.499566E+04
        85  24  6.279283E+05  2.792041E+02  1.212748E+04 -1.260051E+05  9.846096E+03  3.576943E+04
        85  25  3.799224E+05 -5.982535E+04 -4.769904E+04 -1.260664E+05  1.501315E+04  1.411438E+04
        85  26  2.071112E+05 -1.015307E+05 -8.017255E+04 -9.645309E+04  1.835287E+04  2.498820E+04
        85  27  3.484181E+04 -1.427974E+05 -1.103752E+05 -1.261469E+05  2.168672E+04  3.576448E+04
        86   1  1.350513E+06  1.737190E+05  1.657736E+05 -1.244698E+05  6.649012E+01 -4.223908E+04
        86   2  1.521450E+06  2.158664E+05  2.133014E+05 -9.699908E+04 -1.598685E+04 -5.242319E+04
        86   3  1.696808E+06  2.665081E+05  2.734232E+05 -1.288721E+05 -3.203552E+04 -6.056713E+04
        86   4  6.286648E+05 -4.631938E+02  1.587876E+04 -1.260153E+05 -1.232307E+04 -4.223624E+04
        86   5  6.266117E+05 -2.895851E+01  2.755603E+04 -9.633973E+04 -2.610282E+04 -5.242635E+04
        86   6  6.285627E+05  8.514752E+03  5.026378E+04 -1.260125E+05 -3.987351E+04 -6.057494E+04
        86   7 -9.269090E+04 -1.746784E+05 -1.340440E+05 -1.275589E+05 -2.469849E+04 -4.223333E+04
        86   8 -2.674698E+05 -2.159751E+05 -1.582327E+05 -9.568124E+04 -3.620446E+04 -5.242954E+04
        86   9 -4.386052E+05 -2.495514E+05 -1.729586E+05 -1.231578E+05 -4.769821E+04 -6.058282E+04
        86  10  1.350513E+06  1.737171E+05  1.657702E+05 -1.244698E+05 -1.291697E-09 -1.402798E-09
        86  11  1.521449E+06  2.158634E+05  2.132958E+05 -9.699976E+04 -2.348386E-10 -4.296369E-10
        86  12  1.696806E+06  2.665039E+05  2.734144E+05 -1.288737E+05 -7.595465E-10  4.050494E-12
        86  13  6.286641E+05 -4.651509E+02  1.587513E+04 -1.260158E+05 -6.480044E-11 -1.153087E-09
        86  14  6.266102E+05 -3.209375E+01  2.754958E+04 -9.634083E+04  5.666786E-10 -5.683996E-10
        86  15  6.285600E+05  8.510384E+03  5.025389E+04 -1.260145E+05  1.735313E-09  1.635151E-10
        86  16 -9.269203E+04 -1.746805E+05 -1.340485E+05 -1.275598E+05  2.296626E-09 -1.142469E-09
        86  17 -2.674720E+05 -2.159784E+05 -1.582404E+05 -9.568277E+04  7.982200E-10 -6.691397E-10
        86  18 -4.386086E+05 -2.495559E+05 -1.729697E+05 -1.231602E+05  1.110214E-09  2.842379E-10
        86  19  1.350513E+06  1.737190E+05  1.657736E+05 -1.244698E+05 -6.649012E+01  4.223908E+04
        86  20  1.521450E+06  2.158664E+05  2.133014E+05 -9.699908E+04  1.598685E+04  5.242319E+04
        86  21  1.696808E+06  2.665081E+05  2.734232E+05 -1.288721E+05  3.203552E+04  6.056713E+04
        86  22  6.286648E+05 -4.631938E+02  1.587876E+04 -1.260153E+05  1.232307E+04  4.223624E+04
        86  23  6.266117E+05 -2.895851E+01  2.755603E+04 -9.633973E+04  2.610282E+04  5.242635E+04
        86  24  6.285627E+05  8.514752E+03  5.026378E+04 -1.260125E+05  3.987351E+04  6.057494E+04
        86  25 -9.269090E+04 -1.746784E+05 -1.340440E+05 -1.275589E+05  2.469849E+04  4.223333E+04
        86  26 -2.674698E+05 -2.159751E+05 -1.582327E+05 -9.568124E+04  3.620446E+04  5.242954E+04
        86  27 -4.386052E+05 -2.495514E+05 -1.729586E+05 -1.231578E+05  4.769821E+04  6.058282E+04
        87   1  1.837366E+06  2.815821E+05  3.135021E+05 -9.882183E+04 -3.031407E+04 -6.912865E+04
        87   2  1.982138E+06  3.442789E+05  4.062985E+05 -1.370121E+05 -1.342100E+05 -6.539497E+04
        87   3  2.186053E+06  5.874848E+05  6.118437E+05 -2.329407E+05 -2.381871E+05 -2.084774E+04
        87   4  6.390411E+05 -7.645439E+03  6.404283E+04 -1.256210E+05 -4.866923E+04 -6.914020E+04
        87   5  6.132433E+05  1.202051E+04  1.115713E+05 -9.682302E+04 -1.072964E+05 -6.539986E+04
        87   6  6.388359E+05  2.045513E+05  2.405837E+05 -1.257469E+05 -1.659691E+05 -2.082779E+04
        87   7 -5.579252E+05 -2.969614E+05 -1.854937E+05 -1.523676E+05 -6.698956E+04 -6.915018E+04
        87   8 -7.538898E+05 -3.203543E+05 -1.832624E+05 -5.672365E+04 -8.044107E+04 -6.540130E+04
        87   9 -9.061586E+05 -1.785096E+05 -1.308202E+05 -1.882081E+04 -9.392947E+04 -2.078298E+04
        87  10  1.837363E+06  2.815767E+05  3.134914E+05 -9.882351E+04  5.595550E-10  1.028662E-10
        87  11  1.982117E+06  3.442695E+05  4.062567E+05 -1.370192E+05 -8.059583E-10  6.444787E-11
        87  12  2.185992E+06  5.874691E+05  6.117366E+05 -2.329447E+05 -4.520199E-10 -1.434755E-10
        87  13  6.390372E+05 -7.651210E+03  6.402939E+04 -1.256237E+05 -9.983522E-14  2.337590E-10
        87  14  6.132298E+05  1.201283E+04  1.115416E+05 -9.682867E+04  5.121625E-10 -1.611876E-10
        87  15  6.388063E+05  2.045435E+05  2.405312E+05 -1.257497E+05  5.473184E-10 -6.224404E-11
        87  16 -5.579313E+05 -2.969678E+05 -1.855111E+05 -1.523713E+05  1.094737E-10  4.502529E-10
        87  17 -7.538979E+05 -3.203607E+05 -1.832826E+05 -5.672789E+04  9.625326E-10  9.213961E-11
        87  18 -9.061682E+05 -1.785125E+05 -1.308377E+05 -1.882238E+04  1.180856E-10 -7.337033E-11
        87  19  1.837366E+06  2.815821E+05  3.135021E+05 -9.882183E+04  3.031407E+04  6.912865E+04
        87  20  1.982138E+06  3.442789E+05  4.062985E+05 -1.370121E+05  1.342100E+05  6.539497E+04
        87  21  2.186053E+06  5.874848E+05  6.118437E+05 -2.329407E+05  2.381871E+05  2.084774E+04
        87  22  6.390411E+05 -7.645439E+03  6.404283E+04 -1.256210E+05  4.866923E+04  6.914020E+04
        87  23  6.132433E+05  1.202051E+04  1.115713E+05 -9.682302E+04  1.072964E+05  6.539986E+04
        87  24  6.388359E+05  2.045513E+05  2.405837E+05 -1.257469E+05  1.659691E+05  2.082779E+04
        87  25 -5.579252E+05 -2.969614E+05 -1.854937E+05 -1.523676E+05  6.698956E+04  6.915018E+04
        87  26 -7.538898E+05 -3.203543E+05 -1.832624E+05 -5.672365E+04  8.044107E+04  6.540130E+04
        87  27 -9.061586E+05 -1.785096E+05 -1.308202E+05 -1.882081E+04  9.392947E+04  2.078298E+04
        88   1  7.996523E+04 -5.026369E+04  9.118361E+04 -1.785860E+05 -1.936599E+03  4.640923E+04
        88   2 -3.047021E+04 -2.569319E+05  5.589985E+03 -1.227534E+05 -1.002348E+04  2.449154E+04
        88   3 -8.477471E+04 -4.471572E+05 -5.181937E+04 -1.349071E+05 -2.123045E+04  2.573461E+03
        88   4  6.638740E+04 -1.024747E+05  7.679559E+04 -1.440080E+05 -1.956767E+03  5.369401E+04
        88   5  4.645140E+03 -1.103940E+05  3.506397E+04 -1.101190E+05 -1.005553E+04  3.521973E+04
        88   6 -1.565995E+03 -1.024973E+05  1.913174E+04 -1.442085E+05 -2.127262E+04  1.673850E+04
        88   7  5.281384E+04 -1.546806E+05  6.240817E+04 -1.094328E+05 -1.976124E+03  6.097816E+04
        88   8  3.975984E+04  3.616510E+04  6.453738E+04 -9.748158E+04 -1.008715E+04  4.595039E+04
        88   9  8.163563E+04  2.422759E+05  9.007725E+04 -1.535150E+05 -2.131521E+04  3.091128E+04
        88  10  7.996465E+04 -5.026601E+04  9.117955E+04 -1.785860E+05 -2.221312E-10  1.624154E-09
        88  11 -3.047048E+04 -2.569326E+05  5.588669E+03 -1.227532E+05  3.378623E-10 -4.556646E-10
        88  12 -8.477520E+04 -4.471573E+05 -5.182023E+04 -1.349071E+05 -6.044403E-10 -2.526712E-09
        88  13  6.638662E+04 -1.024778E+05  7.679016E+04 -1.440079E+05 -1.490722E-09  5.468039E-11
        88  14  4.644698E+03 -1.103953E+05  3.506145E+04 -1.101187E+05  5.333508E-10 -6.217825E-11
        88  15 -1.566556E+03 -1.024978E+05  1.913036E+04 -1.442082E+05 -1.111964E-10  2.819426E-11
        88  16  5.281284E+04 -1.546846E+05  6.240118E+04 -1.094327E+05  5.901705E-11 -1.628883E-09
        88  17  3.975916E+04  3.616280E+04  6.453323E+04 -9.748121E+04  4.134190E-10  4.301419E-10
        88  18  8.163489E+04  2.422748E+05  9.007461E+04 -1.535144E+05  5.088611E-10  2.425680E-09
        88  19  7.996523E+04 -5.026369E+04  9.118361E+04 -1.785860E+05  1.936599E+03 -4.640923E+04
        88  20 -3.047021E+04 -2.569319E+05  5.589985E+03 -1.227534E+05  1.002348E+04 -2.449154E+04
        88  21 -8.477471E+04 -4.471572E+05 -5.181937E+04 -1.349071E+05  2.123045E+04 -2.573461E+03
        88  22  6.638740E+04 -1.024747E+05  7.679559E+04 -1.440080E+05  1.956767E+03 -5.369401E+04
        88  23  4.645140E+03 -1.103940E+05  3.506397E+04 -1.101190E+05  1.005553E+04 -3.521973E+04
        88  24 -1.565995E+03 -1.024973E+05  1.913174E+04 -1.442085E+05  2.127262E+04 -1.673850E+04
        88  25  5.281384E+04 -1.546806E+05  6.240817E+04 -1.094328E+05  1.976124E+03 -6.097816E+04
        88  26  3.975984E+04  3.616510E+04  6.453738E+04 -9.748158E+04  1.008715E+04 -4.595039E+04
        88  27  8.163563E+04  2.422759E+05  9.007725E+04 -1.535150E+05  2.131521E+04 -3.091128E+04
        89   1 -1.153376E+05 -5.982114E+05 -8.815973E+04 -1.438146E+05 -2.881211E+04  3.504611E+02
        89   2 -1.664042E+05 -7.967787E+05 -1.381264E+05 -1.089706E+05 -4.045864E+04 -4.894378E+02
        89   3 -2.158007E+05 -9.950983E+05 -1.872147E+05 -1.422699E+05 -5.033632E+04 -1.316230E+03
        89   4  3.644808E+03 -1.059153E+05  1.425688E+04 -1.441950E+05 -2.885147E+04  1.418421E+04
        89   5  5.117592E+02 -1.062334E+05  5.522349E+03 -1.101315E+05 -4.048788E+04  1.139066E+04
        89   6 -6.096763E+02 -1.060006E+05 -9.745127E+02 -1.442065E+05 -5.035649E+04  8.609983E+03
        89   7  1.226118E+05  3.866109E+05  1.166609E+05 -1.445755E+05 -2.889082E+04  2.802874E+04
        89   8  1.673974E+05  5.847641E+05  1.491454E+05 -1.112934E+05 -4.051714E+04  2.328375E+04
        89   9  2.145307E+05  7.838454E+05  1.852221E+05 -1.461453E+05 -5.037671E+04  1.855019E+04
        89  10 -1.153385E+05 -5.982116E+05 -8.816129E+04 -1.438146E+05 -7.331647E-10  6.326987E-10
        89  11 -1.664060E+05 -7.967791E+05 -1.381295E+05 -1.089706E+05 -8.217013E-11  3.816569E-10
        89  12 -2.158034E+05 -9.950989E+05 -1.872195E+05 -1.422700E+05  5.495606E-10 -1.157127E-10
        89  13  3.643860E+03 -1.059157E+05  1.425494E+04 -1.441947E+05  1.064511E-09  1.109164E-10
        89  14  5.099643E+02 -1.062340E+05  5.519025E+03 -1.101311E+05  1.347573E-10  4.185635E-11
        89  15 -6.124189E+02 -1.060014E+05 -9.794165E+02 -1.442061E+05  1.867324E-09  8.814093E-11
        89  16  1.226107E+05  3.866098E+05  1.166579E+05 -1.445748E+05 -1.079960E-10 -6.489411E-10
        89  17  1.673955E+05  5.847631E+05  1.491413E+05 -1.112926E+05 -1.509342E-10 -3.609263E-10
        89  18  2.145279E+05  7.838444E+05  1.852167E+05 -1.461445E+05  2.657373E-10  2.436200E-10
        89  19 -1.153376E+05 -5.982114E+05 -8.815973E+04 -1.438146E+05  2.881211E+04 -3.504611E+02
        89  20 -1.664042E+05 -7.967787E+05 -1.381264E+05 -1.089706E+05  4.045864E+04  4.894378E+02
        89  21 -2.158007E+05 -9.950983E+05 -1.872147E+05 -1.422699E+05  5.033632E+04  1.316230E+03
        89  22  3.644808E+03 -1.059153E+05  1.425688E+04 -1.441950E+05  2.885147E+04 -1.418421E+04
        89  23  5.117592E+02 -1.062334E+05  5.522349E+03 -1.101315E+05  4.048788E+04 -1.139066E+04
        89  24 -6.096763E+02 -1.060006E+05 -9.745127E+02 -1.442065E+05  5.035649E+04 -8.609983E+03
        89  25  1.226118E+05  3.866109E+05  1.166609E+05 -1.445755E+05  2.889082E+04 -2.802874E+04
        89  26  1.673974E+05  5.847641E+05  1.491454E+05 -1.112934E+05  4.051714E+04 -2.328375E+04
        89  27  2.145307E+05  7.838454E+05  1.852221E+05 -1.461453E+05  5.037671E+04 -1.855019E+04
        90   1 -2.496069E+05 -1.144969E+06 -2.205078E+05 -1.387219E+05 -5.968616E+04 -1.087647E+04
        90   2 -3.012866E+05 -1.337185E+06 -2.777288E+05 -1.133684E+05 -5.849379E+04  3.745705E+04
        90   3 -3.796785E+05 -1.542290E+06 -3.731197E+05 -1.542349E+05 -1.890160E+04  8.583230E+04
        90   4  1.415815E+03 -1.074180E+05 -3.839206E+03 -1.437652E+05 -5.972646E+04  8.857146E+03
        90   5 -1.318915E+03 -1.047150E+05 -1.133572E+04 -1.106819E+05 -5.843822E+04  1.488802E+04
        90   6 -2.338453E+04 -1.075683E+05 -2.757720E+04 -1.438147E+05 -1.878333E+04  2.097806E+04
        90   7  2.523700E+05  9.311539E+05  2.127713E+05 -1.488164E+05 -5.976703E+04  2.862324E+04
        90   8  2.985488E+05  1.129184E+06  2.549694E+05 -1.079891E+05 -5.838290E+04 -7.725315E+03
        90   9  3.327619E+05  1.329049E+06  3.178344E+05 -1.333692E+05 -1.866740E+04 -4.402583E+04
        90  10 -2.496108E+05 -1.144970E+06 -2.205147E+05 -1.387224E+05 -6.421889E-10  7.460057E-10
        90  11 -3.012907E+05 -1.337187E+06 -2.777379E+05 -1.133667E+05 -2.880427E-10  2.719756E-11
        90  12 -3.796808E+05 -1.542298E+06 -3.731343E+05 -1.542335E+05  3.288269E-10 -5.781066E-10
        90  13  1.411964E+03 -1.074191E+05 -3.846056E+03 -1.437648E+05 -7.738632E-10  5.939000E-11
        90  14 -1.322641E+03 -1.047162E+05 -1.134256E+04 -1.106812E+05 -1.091147E-09  1.428047E-10
        90  15 -2.338503E+04 -1.075688E+05 -2.757869E+04 -1.438144E+05  4.706128E-10  3.217626E-13
        90  16  2.523659E+05  9.311521E+05  2.127631E+05 -1.488150E+05 -3.760131E-10 -6.686826E-10
        90  17  2.985452E+05  1.129183E+06  2.549629E+05 -1.079894E+05 -8.122588E-10  1.273414E-10
        90  18  3.327610E+05  1.329047E+06  3.178301E+05 -1.333699E+05  3.267686E-10  6.048141E-10
        90  19 -2.496069E+05 -1.144969E+06 -2.205078E+05 -1.387219E+05  5.968616E+04  1.087647E+04
        90  20 -3.012866E+05 -1.337185E+06 -2.777288E+05 -1.133684E+05  5.849379E+04 -3.745705E+04
        90  21 -3.796785E+05 -1.542290E+06 -3.731197E+05 -1.542349E+05  1.890160E+04 -8.583230E+04
        90  22  1.415815E+03 -1.074180E+05 -3.839206E+03 -1.437652E+05  5.972646E+04 -8.857146E+03
        90  23 -1.318915E+03 -1.047150E+05 -1.133572E+04 -1.106819E+05  5.843822E+04 -1.488802E+04
        90  24 -2.338453E+04 -1.075683E+05 -2.757720E+04 -1.438147E+05  1.878333E+04 -2.097806E+04
        90  25  2.523700E+05  9.311539E+05  2.127713E+05 -1.488164E+05  5.976703E+04 -2.862324E+04
        90  26  2.985488E+05  1.129184E+06  2.549694E+05 -1.079891E+05  5.838290E+04  7.725315E+03
        90  27  3.327619E+05  1.329049E+06  3.178344E+05 -1.333692E+05  1.866740E+04  4.402583E+04
        91   1 -2.934107E+06 -1.123868E+06 -6.678623E+05 -1.061394E+06 -2.378289E+05 -6.209044E+04
        91   2 -2.813294E+06 -8.365725E+05 -4.594340E+05 -1.016290E+06 -1.547275E+05  3.020070E+04
        91   3 -2.736921E+06 -7.517745E+05 -3.743062E+05 -9.666560E+05 -5.385517E+04  7.560308E+04
        91   4 -1.367013E+06 -4.394940E+05 -2.344510E+05 -5.377640E+05 -1.590719E+05 -3.237314E+04
        91   5 -1.336573E+06 -2.521756E+05 -1.034633E+05 -5.742871E+05 -1.241097E+05  4.172929E+04
        91   6 -1.340840E+06 -2.575487E+05 -5.731849E+04 -6.063322E+05 -7.142163E+04  6.896664E+04
        91   7  2.024943E+05  2.452758E+05  1.987562E+05 -1.285220E+04 -8.009635E+04 -2.543712E+03
        91   8  1.423304E+05  3.324569E+05  2.523500E+05 -1.312928E+05 -9.341229E+04  5.329218E+04
        91   9  5.720428E+04  2.367818E+05  2.595451E+05 -2.452820E+05 -8.903118E+04  6.231574E+04
        91  10 -2.934169E+06 -1.123888E+06 -6.679765E+05 -1.061406E+06  1.008675E-09  6.286580E-11
        91  11 -2.813320E+06 -8.365799E+05 -4.594809E+05 -1.016286E+06  3.589448E-10  1.626258E-10
        91  12 -2.736926E+06 -7.517815E+05 -3.743224E+05 -9.666527E+05 -7.688203E-10 -1.335525E-09
        91  13 -1.367040E+06 -4.395020E+05 -2.345006E+05 -5.377681E+05 -1.426819E-09  2.299047E-10
        91  14 -1.336590E+06 -2.521816E+05 -1.034956E+05 -5.742829E+05  1.295554E-09  2.285877E-10
        91  15 -1.340846E+06 -2.575552E+05 -5.733701E+04 -6.063282E+05 -4.170263E-10 -4.523167E-10
        91  16  2.024874E+05  2.452740E+05  1.987441E+05 -1.285237E+04  1.101308E-09  3.121898E-10
        91  17  1.423203E+05  3.324515E+05  2.523283E+05 -1.312888E+05 -4.116456E-10  3.781958E-10
        91  18  5.719473E+04  2.367755E+05  2.595229E+05 -2.452775E+05  9.623353E-10  3.491639E-10
        91  19 -2.934107E+06 -1.123868E+06 -6.678623E+05 -1.061394E+06  2.378289E+05  6.209044E+04
        91  20 -2.813294E+06 -8.365725E+05 -4.594340E+05 -1.016290E+06  1.547275E+05 -3.020070E+04
        91  21 -2.736921E+06 -7.517745E+05 -3.743062E+05 -9.666560E+05  5.385517E+04 -7.560308E+04
        91  22 -1.367013E+06 -4.394940E+05 -2.344510E+05 -5.377640E+05  1.590719E+05  3.237314E+04
        91  23 -1.336573E+06 -2.521756E+05 -1.034633E+05 -5.742871E+05  1.241097E+05 -4.172929E+04
        91  24 -1.340840E+06 -2.575487E+05 -5.731849E+04 -6.063322E+05  7.142163E+04 -6.896664E+04
        91  25  2.024943E+05  2.452758E+05  1.987562E+05 -1.285220E+04  8.009635E+04  2.543712E+03
        91  26  1.423304E+05  3.324569E+05  2.523500E+05 -1.312928E+05  9.341229E+04 -5.329218E+04
        91  27  5.720428E+04  2.367818E+05  2.595451E+05 -2.452820E+05  8.903118E+04 -6.231574E+04
        92   1 -2.609870E+06 -7.491935E+05 -3.405300E+05 -9.527988E+05 -5.663897E+04  6.524737E+04
        92   2 -2.496474E+06 -6.730954E+05 -2.875032E+05 -8.977474E+05 -4.035961E+04  6.492959E+04
        92   3 -2.353029E+06 -6.401106E+05 -2.472037E+05 -8.804656E+05 -2.323987E+04  6.235552E+04
        92   4 -1.333118E+06 -2.720269E+05 -4.489229E+04 -5.976573E+05 -6.133821E+04  6.346262E+04
        92   5 -1.347691E+06 -2.462966E+05 -2.346829E+04 -5.804056E+05 -4.735686E+04  6.228507E+04
        92   6 -1.331765E+06 -2.632088E+05 -1.292622E+04 -6.009270E+05 -3.253907E+04  5.885214E+04
        92   7 -5.473726E+04  2.052649E+05  2.506325E+05 -2.418457E+05 -6.604791E+04  6.167389E+04
        92   8 -1.975807E+05  1.806029E+05  2.404784E+05 -2.625244E+05 -5.436821E+04  5.963526E+04
        92   9 -3.094471E+05  1.137712E+05  2.212837E+05 -3.209657E+05 -4.185497E+04  5.534257E+04
        92  10 -2.609875E+06 -7.491989E+05 -3.405440E+05 -9.527958E+05 -1.875207E-08 -9.085424E-09
        92  11 -2.496477E+06 -6.731003E+05 -2.875142E+05 -8.977453E+05 -2.395989E-09 -3.595173E-09
        92  12 -2.353030E+06 -6.401149E+05 -2.472121E+05 -8.804644E+05  1.509993E-08  5.737034E-09
        92  13 -1.333124E+06 -2.720322E+05 -4.490693E+04 -5.976542E+05 -1.833152E-09 -1.942784E-09
        92  14 -1.347694E+06 -2.463014E+05 -2.347979E+04 -5.804032E+05 -2.620822E-09 -3.582592E-09
        92  15 -1.331767E+06 -2.632128E+05 -1.293472E+04 -6.009254E+05 -3.805375E-10 -1.188422E-09
        92  16 -5.474296E+04  2.052596E+05  2.506172E+05 -2.418424E+05  1.514869E-08  5.321766E-09
        92  17 -1.975848E+05  1.805983E+05  2.404662E+05 -2.625218E+05 -5.733920E-09 -3.592368E-09
        92  18 -3.094498E+05  1.137675E+05  2.212747E+05 -3.209639E+05 -1.865565E-08 -8.341067E-09
        92  19 -2.609870E+06 -7.491935E+05 -3.405300E+05 -9.527988E+05  5.663897E+04 -6.524737E+04
        92  20 -2.496474E+06 -6.730954E+05 -2.875032E+05 -8.977474E+05  4.035961E+04 -6.492959E+04
        92  21 -2.353029E+06 -6.401106E+05 -2.472037E+05 -8.804656E+05  2.323987E+04 -6.235552E+04
        92  22 -1.333118E+06 -2.720269E+05 -4.489229E+04 -5.976573E+05  6.133821E+04 -6.346262E+04
        92  23 -1.347691E+06 -2.462966E+05 -2.346829E+04 -5.804056E+05  4.735686E+04 -6.228507E+04
        92  24 -1.331765E+06 -2.632088E+05 -1.292622E+04 -6.009270E+05  3.253907E+04 -5.885214E+04
        92  25 -5.473726E+04  2.052649E+05  2.506325E+05 -2.418457E+05  6.604791E+04 -6.167389E+04
        92  26 -1.975807E+05  1.806029E+05  2.404784E+05 -2.625244E+05  5.436821E+04 -5.963526E+04
        92  27 -3.094471E+05  1.137712E+05  2.212837E+05 -3.209657E+05  4.185497E+04 -5.534257E+04
        93   1 -2.251216E+06 -6.044997E+05 -2.203272E+05 -8.536331E+05 -2.003779E+04  5.764833E+04
        93   2 -2.137076E+06 -5.376909E+05 -1.860774E+05 -7.973088E+05 -1.399513E+04  5.017155E+04
        93   3 -1.988099E+06 -5.064455E+05 -1.539958E+05 -7.811524E+05 -7.908473E+03  4.255292E+04
        93   4 -1.331081E+06 -2.639445E+05 -9.796613E+03 -6.005688E+05 -2.877249E+04  5.436056E+04
        93   5 -1.348431E+06 -2.459118E+05 -5.391883E+03 -5.805681E+05 -2.287130E+04  4.683534E+04
        93   6 -1.330936E+06 -2.634117E+05 -3.040724E+03 -6.007381E+05 -1.692682E+04  3.916818E+04
        93   7 -4.100943E+05  7.667411E+04  2.006780E+05 -3.471605E+05 -3.752128E+04  5.106752E+04
        93   8 -5.591638E+05  4.591266E+04  1.752519E+05 -3.635756E+05 -3.175971E+04  4.349454E+04
        93   9 -6.733434E+05 -2.034740E+04  1.478846E+05 -4.201499E+05 -2.595551E+04  3.577958E+04
        93  10 -2.251217E+06 -6.045034E+05 -2.203342E+05 -8.536322E+05  1.544040E-09  1.242361E-09
        93  11 -2.137076E+06 -5.376936E+05 -1.860825E+05 -7.973082E+05  1.416037E-09  6.340826E-10
        93  12 -1.988099E+06 -5.064475E+05 -1.539993E+05 -7.811522E+05  8.296410E-10  5.617470E-10
        93  13 -1.331082E+06 -2.639479E+05 -9.803716E+03 -6.005676E+05  5.616227E-10  1.587217E-10
        93  14 -1.348432E+06 -2.459143E+05 -5.396984E+03 -5.805672E+05 -2.823068E-10  2.912634E-10
        93  15 -1.330937E+06 -2.634134E+05 -3.044143E+03 -6.007376E+05  2.304422E-10  7.700330E-10
        93  16 -4.100966E+05  7.667093E+04  2.006705E+05 -3.471590E+05 -1.533338E-10 -1.309954E-09
        93  17 -5.591654E+05  4.591036E+04  1.752464E+05 -3.635744E+05 -1.115069E-09 -3.989880E-10
        93  18 -6.733445E+05 -2.034895E+04  1.478810E+05 -4.201491E+05 -1.246260E-09  5.521350E-10
        93  19 -2.251216E+06 -6.044997E+05 -2.203272E+05 -8.536331E+05  2.003779E+04 -5.764833E+04
        93  20 -2.137076E+06 -5.376909E+05 -1.860774E+05 -7.973088E+05  1.399513E+04 -5.017155E+04
        93  21 -1.988099E+06 -5.064455E+05 -1.539958E+05 -7.811524E+05  7.908473E+03 -4.255292E+04
        93  22 -1.331081E+06 -2.639445E+05 -9.796613E+03 -6.005688E+05  2.877249E+04 -5.436056E+04
        93  23 -1.348431E+06 -2.459118E+05 -5.391883E+03 -5.805681E+05  2.287130E+04 -4.683534E+04
        93  24 -1.330936E+06 -2.634117E+05 -3.040724E+03 -6.007381E+05  1.692682E+04 -3.916818E+04
        93  25 -4.100943E+05  7.667411E+04  2.006780E+05 -3.471605E+05  3.752128E+04 -5.106752E+04
        93  26 -5.591638E+05  4.591266E+04  1.752519E+05 -3.635756E+05  3.175971E+04 -4.349454E+04
        93  27 -6.733434E+05 -2.034740E+04  1.478846E+05 -4.201499E+05  2.595551E+04 -3.577958E+04
        94   1 -1.886500E+06 -4.688702E+05 -1.291942E+05 -7.534336E+05 -5.552505E+03  3.762363E+04
        94   2 -1.771313E+06 -4.020179E+05 -9.835467E+04 -6.966019E+05 -1.481426E+03  2.916081E+04
        94   3 -1.620728E+06 -3.706228E+05 -6.809270E+04 -6.804022E+05  2.593990E+03  2.067259E+04
        94   4 -1.330805E+06 -2.634886E+05 -2.366736E+03 -6.007950E+05 -1.456979E+04  3.424154E+04
        94   5 -1.348467E+06 -2.457042E+05 -1.529632E+03 -5.804895E+05 -1.052438E+04  2.577162E+04
        94   6 -1.330750E+06 -2.633726E+05 -1.250812E+03 -6.008214E+05 -6.474865E+03  1.727635E+04
        94   7 -7.747935E+05 -5.808186E+04  1.244422E+05 -4.480295E+05 -2.359594E+04  3.085614E+04
        94   8 -9.254422E+05 -8.937781E+04  9.528345E+04 -4.643050E+05 -1.957399E+04  2.237993E+04
        94   9 -1.040692E+06 -1.561181E+05  6.558439E+04 -5.212079E+05 -1.554817E+04  1.387845E+04
        94  10 -1.886500E+06 -4.688717E+05 -1.291969E+05 -7.534335E+05  1.258935E-09  7.480509E-10
        94  11 -1.771313E+06 -4.020188E+05 -9.835627E+04 -6.966019E+05  3.092767E-10  2.645377E-10
        94  12 -1.620728E+06 -3.706232E+05 -6.809351E+04 -6.804022E+05  4.536281E-10  2.069846E-10
        94  13 -1.330805E+06 -2.634899E+05 -2.369337E+03 -6.007946E+05  1.490367E-09  6.843797E-10
        94  14 -1.348467E+06 -2.457050E+05 -1.531087E+03 -5.804893E+05  4.337049E-10  5.828588E-10
        94  15 -1.330750E+06 -2.633730E+05 -1.251451E+03 -6.008214E+05 -1.108527E-09 -6.223752E-12
        94  16 -7.747943E+05 -5.808303E+04  1.244393E+05 -4.480289E+05 -1.361960E-09  8.007658E-10
        94  17 -9.254428E+05 -8.937845E+04  9.528178E+04 -4.643046E+05 -1.389514E-10  6.306583E-10
        94  18 -1.040693E+06 -1.561184E+05  6.558357E+04 -5.212078E+05 -5.333670E-10 -5.456147E-10
        94  19 -1.886500E+06 -4.688702E+05 -1.291942E+05 -7.534336E+05  5.552505E+03 -3.762363E+04
        94  20 -1.771313E+06 -4.020179E+05 -9.835467E+04 -6.966019E+05  1.481426E+03 -2.916081E+04
        94  21 -1.620728E+06 -3.706228E+05 -6.809270E+04 -6.804022E+05 -2.593990E+03 -2.067259E+04
        94  22 -1.330805E+06 -2.634886E+05 -2.366736E+03 -6.007950E+05  1.456979E+04 -3.424154E+04
        94  23 -1.348467E+06 -2.457042E+05 -1.529632E+03 -5.804895E+05  1.052438E+04 -2.577162E+04
        94  24 -1.330750E+06 -2.633726E+05 -1.250812E+03 -6.008214E+05  6.474865E+03 -1.727635E+04
        94  25 -7.747935E+05 -5.808186E+04  1.244422E+05 -4.480295E+05  2.359594E+04 -3.085614E+04
        94  26 -9.254422E+05 -8.937781E+04  9.528345E+04 -4.643050E+05  1.957399E+04 -2.237993E+04
        94  27 -1.040692E+06 -1.561181E+05  6.558439E+04 -5.212079E+05  1.554817E+04 -1.387845E+04
        95   1 -1.518560E+06 -3.327516E+05 -4.385075E+04 -6.524752E+05  4.733566E+03  1.563385E+04
        95   2 -1.402831E+06 -2.657545E+05 -1.418618E+04 -5.954516E+05  8.888404E+03  7.153593E+03
        95   3 -1.251672E+06 -2.343430E+05  1.482783E+04 -5.792363E+05  1.304249E+04 -1.325587E+03
        95   4 -1.330732E+06 -2.633952E+05 -1.292003E+03 -6.008598E+05 -4.346475E+03  1.223433E+04
        95   5 -1.348434E+06 -2.455924E+05 -1.725127E+03 -5.804543E+05 -1.913739E+02  3.754419E+03
        95   6 -1.330724E+06 -2.633765E+05 -2.808374E+03 -6.008643E+05  3.962772E+03 -4.724451E+03
        95   7 -1.142868E+06 -1.940356E+05  4.126520E+04 -5.492298E+05 -1.342957E+04  8.833676E+03
        95   8 -1.294035E+06 -2.254297E+05  1.073629E+04 -5.654556E+05 -9.272138E+03  3.548736E+02
        95   9 -1.409770E+06 -2.924101E+05 -2.044504E+04 -6.224901E+05 -5.115872E+03 -8.122915E+03
        95  10 -1.518560E+06 -3.327519E+05 -4.385125E+04 -6.524752E+05  2.819108E-11 -3.096312E-10
        95  11 -1.402831E+06 -2.657546E+05 -1.418642E+04 -5.954517E+05  1.582857E-09 -4.257966E-10
        95  12 -1.251672E+06 -2.343430E+05  1.482750E+04 -5.792363E+05 -7.954702E-10  5.093761E-10
        95  13 -1.330732E+06 -2.633954E+05 -1.292319E+03 -6.008598E+05 -1.048238E-09 -2.964402E-10
        95  14 -1.348434E+06 -2.455924E+05 -1.725154E+03 -5.804543E+05  5.719953E-10 -1.780504E-10
        95  15 -1.330724E+06 -2.633766E+05 -2.808445E+03 -6.008642E+05 -2.651551E-10  8.722411E-11
        95  16 -1.142868E+06 -1.940357E+05  4.126472E+04 -5.492297E+05  3.928227E-10 -5.847478E-10
        95  17 -1.294035E+06 -2.254298E+05  1.073612E+04 -5.654556E+05  1.217489E-09  2.693638E-10
        95  18 -1.409770E+06 -2.924102E+05 -2.044521E+04 -6.224901E+05  6.784210E-10 -1.962526E-10
        95  19 -1.518560E+06 -3.327516E+05 -4.385075E+04 -6.524752E+05 -4.733566E+03 -1.563385E+04
        95  20 -1.402831E+06 -2.657545E+05 -1.418618E+04 -5.954516E+05 -8.888404E+03 -7.153593E+03
        95  21 -1.251672E+06 -2.343430E+05  1.482783E+04 -5.792363E+05 -1.304249E+04  1.325587E+03
        95  22 -1.330732E+06 -2.633952E+05 -1.292003E+03 -6.008598E+05  4.346475E+03 -1.223433E+04
        95  23 -1.348434E+06 -2.455924E+05 -1.725127E+03 -5.804543E+05  1.913739E+02 -3.754419E+03
        95  24 -1.330724E+06 -2.633765E+05 -2.808374E+03 -6.008643E+05 -3.962772E+03  4.724451E+03
        95  25 -1.142868E+06 -1.940356E+05  4.126520E+04 -5.492298E+05  1.342957E+04 -8.833676E+03
        95  26 -1.294035E+06 -2.254297E+05  1.073629E+04 -5.654556E+05  9.272138E+03 -3.548736E+02
        95  27 -1.409770E+06 -2.924101E+05 -2.044504E+04 -6.224901E+05  5.115872E+03  8.122915E+03
        96   1 -1.149477E+06 -1.964602E+05  3.826355E+04 -5.513448E+05  1.551297E+04 -6.248354E+03
        96   2 -1.033791E+06 -1.295495E+05  6.545318E+04 -4.943056E+05  2.195975E+04 -1.383167E+04
        96   3 -8.831831E+05 -9.864326E+04  9.016313E+04 -4.779683E+05  2.837737E+04 -2.132509E+04
        96   4 -1.330829E+06 -2.633429E+05 -3.660279E+03 -6.008929E+05  6.417252E+03 -9.653695E+03
        96   5 -1.348322E+06 -2.455671E+05 -6.515442E+03 -5.804565E+05  1.295330E+04 -1.720546E+04
        96   6 -1.330926E+06 -2.638151E+05 -1.192115E+04 -6.007294E+05  1.945946E+04 -2.466754E+04
        96   7 -1.512146E+06 -3.302219E+05 -4.558510E+04 -6.504268E+05 -2.675424E+03 -1.305790E+04
        96   8 -1.662750E+06 -3.615761E+05 -7.848942E+04 -6.665666E+05  3.951885E+03 -2.057737E+04
        96   9 -1.778466E+06 -4.289717E+05 -1.140180E+05 -7.234092E+05  1.054855E+04 -2.800737E+04
        96  10 -1.149477E+06 -1.964603E+05  3.826302E+04 -5.513447E+05  6.341469E-10  6.115038E-10
        96  11 -1.033792E+06 -1.295499E+05  6.545192E+04 -4.943054E+05  3.968972E-09  8.586136E-10
        96  12 -8.831841E+05 -9.864396E+04  9.016076E+04 -4.779678E+05  3.319426E-09  6.714487E-10
        96  13 -1.330829E+06 -2.633430E+05 -3.660532E+03 -6.008928E+05  2.140038E-09  8.197314E-10
        96  14 -1.348322E+06 -2.455674E+05 -6.516313E+03 -5.804563E+05  4.428849E-09  1.520770E-09
        96  15 -1.330926E+06 -2.638158E+05 -1.192300E+04 -6.007290E+05  1.200787E-09  3.155544E-10
        96  16 -1.512146E+06 -3.302221E+05 -4.558544E+04 -6.504269E+05  3.011725E-09  7.421666E-10
        96  17 -1.662750E+06 -3.615766E+05 -7.849024E+04 -6.665665E+05  3.278861E-09  1.006841E-09
        96  18 -1.778466E+06 -4.289725E+05 -1.140197E+05 -7.234089E+05  4.158623E-10  3.041943E-10
        96  19 -1.149477E+06 -1.964602E+05  3.826355E+04 -5.513448E+05 -1.551297E+04  6.248354E+03
        96  20 -1.033791E+06 -1.295495E+05  6.545318E+04 -4.943056E+05 -2.195975E+04  1.383167E+04
        96  21 -8.831831E+05 -9.864326E+04  9.016313E+04 -4.779683E+05 -2.837737E+04  2.132509E+04
        96  22 -1.330829E+06 -2.633429E+05 -3.660279E+03 -6.008929E+05 -6.417252E+03  9.653695E+03
        96  23 -1.348322E+06 -2.455671E+05 -6.515442E+03 -5.804565E+05 -1.295330E+04  1.720546E+04
        96  24 -1.330926E+06 -2.638151E+05 -1.192115E+04 -6.007294E+05 -1.945946E+04  2.466754E+04
        96  25 -1.512146E+06 -3.302219E+05 -4.558510E+04 -6.504268E+05  2.675424E+03  1.305790E+04
        96  26 -1.662750E+06 -3.615761E+05 -7.848942E+04 -6.665666E+05 -3.951885E+03  2.057737E+04
        96  27 -1.778466E+06 -4.289717E+05 -1.140180E+05 -7.234092E+05 -1.054855E+04  2.800737E+04
        97   1 -7.808976E+05 -6.124194E+04  1.104437E+05 -4.519613E+05  3.296995E+04 -2.554354E+04
        97   2 -6.665607E+05  6.917652E+03  1.277909E+05 -3.921195E+05  4.880735E+04 -2.898504E+04
        97   3 -5.220854E+05  3.032977E+04  1.331155E+05 -3.705857E+05  6.404228E+04 -3.079140E+04
        97   4 -1.331682E+06 -2.629869E+05 -1.575063E+04 -6.012740E+05  2.362954E+04 -2.904608E+04
        97   5 -1.347354E+06 -2.457295E+05 -2.855191E+04 -5.801474E+05  4.113651E+04 -3.186588E+04
        97   6 -1.333245E+06 -2.735655E+05 -5.471218E+04 -5.973407E+05  5.803775E+04 -3.305076E+04
        97   7 -1.882165E+06 -4.647121E+05 -1.419658E+05 -7.504669E+05  1.429807E+04 -3.254535E+04
        97   8 -2.027685E+06 -4.983423E+05 -1.849261E+05 -7.679868E+05  3.347477E+04 -3.474329E+04
        97   9 -2.143745E+06 -5.774079E+05 -2.425845E+05 -8.238231E+05  5.204172E+04 -3.530685E+04
        97  10 -7.808989E+05 -6.124293E+04  1.104405E+05 -4.519606E+05 -5.095017E-10 -2.226154E-10
        97  11 -6.665635E+05  6.916111E+03  1.277848E+05 -3.921184E+05  4.861595E-10  1.760566E-10
        97  12 -5.220901E+05  3.032765E+04  1.331060E+05 -3.705841E+05  1.674600E-09  2.375217E-10
        97  13 -1.331682E+06 -2.629880E+05 -1.575327E+04 -6.012735E+05  1.109078E-09 -1.111349E-12
        97  14 -1.347356E+06 -2.457311E+05 -2.855699E+04 -5.801463E+05 -1.136075E-09  3.497601E-10
        97  15 -1.333249E+06 -2.735675E+05 -5.472056E+04 -5.973391E+05  9.877217E-10  6.614073E-11
        97  16 -1.882165E+06 -4.647133E+05 -1.419681E+05 -7.504666E+05 -1.198729E-09  2.415995E-10
        97  17 -2.027686E+06 -4.983439E+05 -1.849304E+05 -7.679859E+05 -6.399644E-10  5.812761E-10
        97  18 -2.143748E+06 -5.774100E+05 -2.425920E+05 -8.238216E+05 -7.940316E-10  1.060950E-10
        97  19 -7.808976E+05 -6.124194E+04  1.104437E+05 -4.519613E+05 -3.296995E+04  2.554354E+04
        97  20 -6.665607E+05  6.917652E+03  1.277909E+05 -3.921195E+05 -4.880735E+04  2.898504E+04
        97  21 -5.220854E+05  3.032977E+04  1.331155E+05 -3.705857E+05 -6.404228E+04  3.079140E+04
        97  22 -1.331682E+06 -2.629869E+05 -1.575063E+04 -6.012740E+05 -2.362954E+04  2.904608E+04
        97  23 -1.347354E+06 -2.457295E+05 -2.855191E+04 -5.801474E+05 -4.113651E+04  3.186588E+04
        97  24 -1.333245E+06 -2.735655E+05 -5.471218E+04 -5.973407E+05 -5.803775E+04  3.305076E+04
        97  25 -1.882165E+06 -4.647121E+05 -1.419658E+05 -7.504669E+05 -1.429807E+04  3.254535E+04
        97  26 -2.027685E+06 -4.983423E+05 -1.849261E+05 -7.679868E+05 -3.347477E+04  3.474329E+04
        97  27 -2.143745E+06 -5.774079E+05 -2.425845E+05 -8.238231E+05 -5.204172E+04  3.530685E+04
        98   1 -4.053838E+05  6.111339E+04  1.403762E+05 -3.810263E+05  8.477518E+04 -3.143730E+04
        98   2 -3.206486E+05  1.650731E+05  1.211177E+05 -2.514606E+05  1.159326E+05 -1.720304E+04
        98   3 -2.774054E+05  4.661899E+04  2.627319E+04 -1.103067E+05  1.342568E+05  3.117021E+04
        98   4 -1.342427E+06 -2.561226E+05 -6.987001E+04 -6.082190E+05  6.936629E+04 -3.722575E+04
        98   5 -1.333931E+06 -2.523695E+05 -1.260302E+05 -5.723314E+05  1.356982E+05 -9.791579E+03
        98   6 -1.374056E+06 -4.782404E+05 -2.857878E+05 -5.248399E+05  1.891771E+05  5.179773E+04
        98   7 -2.278586E+06 -5.733259E+05 -2.801692E+05 -8.351118E+05  5.398272E+04 -4.300657E+04
        98   8 -2.346181E+06 -6.696701E+05 -3.732527E+05 -8.926994E+05  1.554286E+05 -2.396659E+03
        98   9 -2.469502E+06 -1.002791E+06 -5.979496E+05 -9.386364E+05  2.439911E+05  7.236028E+04
        98  10 -4.053918E+05  6.111041E+04  1.403608E+05 -3.810242E+05 -7.908372E-10  5.324312E-11
        98  11 -3.206631E+05  1.650691E+05  1.210918E+05 -2.514590E+05 -8.919168E-10  1.568143E-11
        98  12 -2.774250E+05  4.661311E+04  2.623748E+04 -1.103101E+05 -3.408616E-10  3.392154E-11
        98  13 -1.342433E+06 -2.561253E+05 -6.988166E+04 -6.082169E+05 -3.621650E-10 -6.361200E-11
        98  14 -1.333951E+06 -2.523745E+05 -1.260650E+05 -5.723303E+05 -8.504135E-10  4.531179E-11
        98  15 -1.374096E+06 -4.782529E+05 -2.858603E+05 -5.248478E+05  2.355443E-11  5.427646E-10
        98  16 -2.278589E+06 -5.733286E+05 -2.801782E+05 -8.351099E+05  1.365242E-09  5.881139E-11
        98  17 -2.346207E+06 -6.696766E+05 -3.732983E+05 -8.926991E+05  2.552867E-11 -2.955110E-10
        98  18 -2.469568E+06 -1.002813E+06 -5.980719E+05 -9.386506E+05 -7.488378E-11 -1.256507E-10
        98  19 -4.053838E+05  6.111339E+04  1.403762E+05 -3.810263E+05 -8.477518E+04  3.143730E+04
        98  20 -3.206486E+05  1.650731E+05  1.211177E+05 -2.514606E+05 -1.159326E+05  1.720304E+04
        98  21 -2.774054E+05  4.661899E+04  2.627319E+04 -1.103067E+05 -1.342568E+05 -3.117021E+04
        98  22 -1.342427E+06 -2.561226E+05 -6.987001E+04 -6.082190E+05 -6.936629E+04  3.722575E+04
        98  23 -1.333931E+06 -2.523695E+05 -1.260302E+05 -5.723314E+05 -1.356982E+05  9.791579E+03
        98  24 -1.374056E+06 -4.782404E+05 -2.857878E+05 -5.248399E+05 -1.891771E+05 -5.179773E+04
        98  25 -2.278586E+06 -5.733259E+05 -2.801692E+05 -8.351118E+05 -5.398272E+04  4.300657E+04
        98  26 -2.346181E+06 -6.696701E+05 -3.732527E+05 -8.926994E+05 -1.554286E+05  2.396659E+03
        98  27 -2.469502E+06 -1.002791E+06 -5.979496E+05 -9.386364E+05 -2.439911E+05 -7.236028E+04
        99   1 -1.031217E+06 -1.673858E+05 -1.414415E+05 -1.529087E+04  2.921148E+04  1.481987E+04
        99   2 -9.483123E+05 -2.327368E+05 -1.570117E+05 -3.258109E+04  3.180597E+04  4.739445E+04
        99   3 -8.457150E+05 -2.192303E+05 -1.545115E+05 -8.025102E+04  3.443284E+04  5.172651E+04
        99   4  4.522921E+04  9.960975E+04  1.171703E+05 -6.704498E+04  8.079205E+04  1.486880E+04
        99   5  3.272517E+04  5.810492E+03  5.432554E+04 -5.181657E+04  5.221150E+04  4.740357E+04
        99   6  4.528489E+04 -3.788051E+03  3.117921E+04 -6.696310E+04  2.366496E+04  5.171625E+04
        99   7  1.122749E+06  3.665326E+05  3.757113E+05 -1.188895E+05  1.324617E+05  1.490909E+04
        99   8  1.014670E+06  2.442961E+05  2.656080E+05 -7.108304E+04  7.264881E+04  4.741142E+04
        99   9  9.370374E+05  2.116042E+05  2.168268E+05 -5.365583E+04  1.288184E+04  5.170555E+04
        99  10 -1.031218E+06 -1.673863E+05 -1.414435E+05 -1.529122E+04  6.439725E-10  1.157524E-10
        99  11 -9.483140E+05 -2.327395E+05 -1.570178E+05 -3.258230E+04  1.970554E-09 -5.051415E-10
        99  12 -8.457170E+05 -2.192335E+05 -1.545188E+05 -8.025246E+04 -6.348393E-10 -9.133059E-11
        99  13  4.522215E+04  9.960776E+04  1.171577E+05 -6.704595E+04 -1.723521E-12 -3.136152E-10
        99  14  3.272164E+04  5.807347E+03  5.431619E+04 -5.181856E+04 -2.075956E-15  2.316794E-12
        99  15  4.528357E+04 -3.791073E+03  3.117314E+04 -6.696409E+04 -1.254797E-10  2.231542E-10
        99  16  1.122730E+06  3.665277E+05  3.756780E+05 -1.188911E+05  1.992014E-10  4.752998E-10
        99  17  1.014663E+06  2.442923E+05  2.655938E+05 -7.108581E+04  1.863609E-10  1.952492E-11
        99  18  9.370365E+05  2.116013E+05  2.168214E+05 -5.365637E+04 -3.427991E-10  3.039696E-10
        99  19 -1.031217E+06 -1.673858E+05 -1.414415E+05 -1.529087E+04 -2.921148E+04 -1.481987E+04
        99  20 -9.483123E+05 -2.327368E+05 -1.570117E+05 -3.258109E+04 -3.180597E+04 -4.739445E+04
        99  21 -8.457150E+05 -2.192303E+05 -1.545115E+05 -8.025102E+04 -3.443284E+04 -5.172651E+04
        99  22  4.522921E+04  9.960975E+04  1.171703E+05 -6.704498E+04 -8.079205E+04 -1.486880E+04
        99  23  3.272517E+04  5.810492E+03  5.432554E+04 -5.181657E+04 -5.221150E+04 -4.740357E+04
        99  24  4.528489E+04 -3.788051E+03  3.117921E+04 -6.696310E+04 -2.366496E+04 -5.171625E+04
        99  25  1.122749E+06  3.665326E+05  3.757113E+05 -1.188895E+05 -1.324617E+05 -1.490909E+04
        99  26  1.014670E+06  2.442961E+05  2.656080E+05 -7.108304E+04 -7.264881E+04 -4.741142E+04
        99  27  9.370374E+05  2.116042E+05  2.168268E+05 -5.365583E+04 -1.288184E+04 -5.170555E+04
       100   1 -7.813460E+05 -1.946650E+05 -1.473670E+05 -6.611908E+04  2.291120E+04  4.680524E+04
       100   2 -6.897897E+05 -1.762374E+05 -1.380936E+05 -5.127354E+04  1.778870E+04  4.288354E+04
       100   3 -5.964877E+05 -1.541417E+05 -1.245281E+05 -6.814844E+04  1.266182E+04  3.754279E+04
       100   4  4.018563E+04  4.082259E+03  2.447014E+04 -6.728117E+04  1.938777E+04  4.679920E+04
       100   5  3.920325E+04 -8.090870E+01  1.340479E+04 -5.142189E+04  1.269192E+04  4.287882E+04
       100   6  4.022728E+04 -3.057346E+02  7.719425E+03 -6.728060E+04  5.992412E+03  3.754019E+04
       100   7  8.623561E+05  2.027863E+05  1.962698E+05 -6.844484E+04  1.585973E+04  4.679318E+04
       100   8  7.686998E+05  1.760418E+05  1.648742E+05 -5.157041E+04  7.589241E+03  4.287411E+04
       100   9  6.773266E+05  1.535045E+05  1.399450E+05 -6.641182E+04 -6.837238E+02  3.753757E+04
       100  10 -7.813472E+05 -1.946675E+05 -1.473721E+05 -6.611994E+04  1.425432E-09 -4.833563E-11
       100  11 -6.897905E+05 -1.762394E+05 -1.380977E+05 -5.127416E+04  2.741835E-10 -1.130968E-10
       100  12 -5.964883E+05 -1.541433E+05 -1.245311E+05 -6.814882E+04  2.169102E-10 -1.125094E-09
       100  13  4.018464E+04  4.079806E+03  2.446532E+04 -6.728190E+04 -1.077334E-09 -1.256663E-10
       100  14  3.920258E+04 -8.292635E+01  1.340104E+04 -5.142233E+04  5.496585E-10 -8.166373E-12
       100  15  4.022687E+04 -3.072576E+02  7.716709E+03 -6.728078E+04 -2.699860E-10 -8.458410E-10
       100  16  8.623553E+05  2.027839E+05  1.962653E+05 -6.844544E+04 -2.564314E-10  2.880001E-10
       100  17  7.686993E+05  1.760398E+05  1.648706E+05 -5.157067E+04  7.529046E-11 -3.816699E-10
       100  18  6.773262E+05  1.535030E+05  1.399423E+05 -6.641180E+04  5.156077E-11 -5.082630E-10
       100  19 -7.813460E+05 -1.946650E+05 -1.473670E+05 -6.611908E+04 -2.291120E+04 -4.680524E+04
       100  20 -6.897897E+05 -1.762374E+05 -1.380936E+05 -5.127354E+04 -1.778870E+04 -4.288354E+04
       100  21 -5.964877E+05 -1.541417E+05 -1.245281E+05 -6.814844E+04 -1.266182E+04 -3.754279E+04
       100  22  4.018563E+04  4.082259E+03  2.447014E+04 -6.728117E+04 -1.938777E+04 -4.679920E+04
       100  23  3.920325E+04 -8.090870E+01  1.340479E+04 -5.142189E+04 -1.269192E+04 -4.287882E+04
       100  24  4.022728E+04 -3.057346E+02  7.719425E+03 -6.728060E+04 -5.992412E+03 -3.754019E+04
       100  25  8.623561E+05  2.027863E+05  1.962698E+05 -6.844484E+04 -1.585973E+04 -4.679318E+04
       100  26  7.686998E+05  1.760418E+05  1.648742E+05 -5.157041E+04 -7.589241E+03 -4.287411E+04
       100  27  6.773266E+05  1.535045E+05  1.399450E+05 -6.641182E+04  6.837238E+02 -3.753757E+04
       101   1 -5.281754E+05 -1.371006E+05 -1.116790E+05 -6.743822E+04  1.109694E+04  3.406136E+04
       101   2 -4.359210E+05 -1.149503E+05 -9.523016E+04 -5.147593E+04  9.514060E+03  2.830847E+04
       101   3 -3.433605E+05 -9.260365E+04 -7.769083E+04 -6.728913E+04  7.927970E+03  2.248466E+04
       101   4  3.986822E+04  5.615125E+01  5.890904E+03 -6.729326E+04  4.791624E+03  3.405990E+04
       101   5  3.972612E+04 -7.936081E+01  3.361564E+03 -5.140628E+04  3.128676E+03  2.830852E+04
       101   6  3.989543E+04 -4.455538E+00  1.977606E+03 -6.729335E+04  1.462753E+03  2.248627E+04
       101   7  6.082179E+05  1.371925E+05  1.234434E+05 -6.714814E+04 -1.519373E+03  3.405844E+04
       101   8  5.155878E+05  1.147772E+05  1.019411E+05 -5.133656E+04 -3.261519E+03  2.830856E+04
       101   9  4.232905E+05  9.258542E+04  8.163815E+04 -6.729754E+04 -5.006390E+03  2.248788E+04
       101  10 -5.281759E+05 -1.371019E+05 -1.116814E+05 -6.743852E+04  4.639186E-10 -8.752570E-10
       101  11 -4.359213E+05 -1.149512E+05 -9.523183E+04 -5.147614E+04  2.462859E-09  1.925079E-10
       101  12 -3.433607E+05 -9.260421E+04 -7.769190E+04 -6.728928E+04 -7.240636E-10  4.001786E-10
       101  13  3.986788E+04  5.489933E+01  5.888681E+03 -6.729339E+04 -1.075019E-09 -4.754688E-10
       101  14  3.972589E+04 -8.022400E+01  3.360039E+03 -5.140635E+04 -5.490343E-10  2.821994E-10
       101  15  3.989529E+04 -4.999088E+00  1.976651E+03 -6.729337E+04 -2.442725E-09  8.047936E-10
       101  16  6.082176E+05  1.371912E+05  1.234412E+05 -6.714810E+04 -2.152890E-10 -9.908585E-11
       101  17  5.155876E+05  1.147764E+05  1.019396E+05 -5.133649E+04  5.266267E-10  5.523560E-10
       101  18  4.232904E+05  9.258487E+04  8.163716E+04 -6.729745E+04 -5.394888E-10  4.120679E-10
       101  19 -5.281754E+05 -1.371006E+05 -1.116790E+05 -6.743822E+04 -1.109694E+04 -3.406136E+04
       101  20 -4.359210E+05 -1.149503E+05 -9.523016E+04 -5.147593E+04 -9.514060E+03 -2.830847E+04
       101  21 -3.433605E+05 -9.260365E+04 -7.769083E+04 -6.728913E+04 -7.927970E+03 -2.248466E+04
       101  22  3.986822E+04  5.615125E+01  5.890904E+03 -6.729326E+04 -4.791624E+03 -3.405990E+04
       101  23  3.972612E+04 -7.936081E+01  3.361564E+03 -5.140628E+04 -3.128676E+03 -2.830852E+04
       101  24  3.989543E+04 -4.455538E+00  1.977606E+03 -6.729335E+04 -1.462753E+03 -2.248627E+04
       101  25  6.082179E+05  1.371925E+05  1.234434E+05 -6.714814E+04  1.519373E+03 -3.405844E+04
       101  26  5.155878E+05  1.147772E+05  1.019411E+05 -5.133656E+04  3.261519E+03 -2.830856E+04
       101  27  4.232905E+05  9.258542E+04  8.163815E+04 -6.729754E+04  5.006390E+03 -2.248788E+04
       102   1 -2.747772E+05 -7.590935E+04 -6.342220E+04 -6.726115E+04  7.591103E+03  1.907676E+04
       102   2 -1.823995E+05 -5.364044E+04 -4.508092E+04 -5.136795E+04  7.115883E+03  1.323345E+04
       102   3 -8.996380E+04 -3.133447E+04 -2.642673E+04 -6.724590E+04  6.639203E+03  7.386840E+03
       102   4  3.984794E+04  1.556536E+01  1.531364E+03 -6.729254E+04  1.143997E+03  1.907905E+04
       102   5  3.982838E+04  1.866216E+01  9.667085E+02 -5.140731E+04  6.645320E+02  1.323643E+04
       102   6  3.986064E+04  6.033163E+01  7.182700E+02 -6.729254E+04  1.836773E+02  7.390553E+03
       102   7  3.545671E+05  7.593424E+04  6.647974E+04 -6.732394E+04 -5.306321E+03  1.908133E+04
       102   8  2.621031E+05  5.367466E+04  4.701181E+04 -5.144667E+04 -5.789089E+03  1.323942E+04
       102   9  1.697011E+05  3.145408E+04  2.786249E+04 -6.733919E+04 -6.273177E+03  7.394268E+03
       102  10 -2.747774E+05 -7.590976E+04 -6.342299E+04 -6.726127E+04 -3.119196E-10  4.880110E-10
       102  11 -1.823996E+05 -5.364064E+04 -4.508135E+04 -5.136802E+04 -4.031221E-10  3.407668E-10
       102  12 -8.996386E+04 -3.133454E+04 -2.642691E+04 -6.724594E+04 -1.149298E-09  4.786855E-10
       102  13  3.984784E+04  1.517411E+01  1.530677E+03 -6.729256E+04 -2.148899E-09  3.836859E-11
       102  14  3.982833E+04  1.847389E+01  9.663784E+02 -5.140731E+04 -1.084111E-09  2.999165E-10
       102  15  3.986063E+04  6.027297E+01  7.181673E+02 -6.729254E+04 -5.762739E-12  1.520440E-10
       102  16  3.545670E+05  7.593385E+04  6.647900E+04 -6.732386E+04 -1.388311E-09  2.236204E-10
       102  17  2.621031E+05  5.367446E+04  4.701141E+04 -5.144661E+04 -2.110419E-09 -1.425274E-12
       102  18  1.697011E+05  3.145401E+04  2.786231E+04 -6.733915E+04  4.636815E-10 -1.549788E-10
       102  19 -2.747772E+05 -7.590935E+04 -6.342220E+04 -6.726115E+04 -7.591103E+03 -1.907676E+04
       102  20 -1.823995E+05 -5.364044E+04 -4.508092E+04 -5.136795E+04 -7.115883E+03 -1.323345E+04
       102  21 -8.996380E+04 -3.133447E+04 -2.642673E+04 -6.724590E+04 -6.639203E+03 -7.386840E+03
       102  22  3.984794E+04  1.556536E+01  1.531364E+03 -6.729254E+04 -1.143997E+03 -1.907905E+04
       102  23  3.982838E+04  1.866216E+01  9.667085E+02 -5.140731E+04 -6.645320E+02 -1.323643E+04
       102  24  3.986064E+04  6.033163E+01  7.182700E+02 -6.729254E+04 -1.836773E+02 -7.390553E+03
       102  25  3.545671E+05  7.593424E+04  6.647974E+04 -6.732394E+04  5.306321E+03 -1.908133E+04
       102  26  2.621031E+05  5.367466E+04  4.701181E+04 -5.144667E+04  5.789089E+03 -1.323942E+04
       102  27  1.697011E+05  3.145408E+04  2.786249E+04 -6.733919E+04  6.273177E+03 -7.394268E+03
       103   1 -2.132789E+04 -1.466067E+04 -1.175203E+04 -6.727241E+04  6.510164E+03  3.983201E+03
       103   2  7.107390E+04  7.579190E+03  7.226436E+03 -5.140104E+04  6.130936E+03 -1.862588E+03
       103   3  1.635067E+05  2.985669E+04  2.645122E+04 -6.730001E+04  5.751845E+03 -7.705596E+03
       103   4  3.985657E+04  6.218163E+01  6.781178E+02 -6.729254E+04  5.453027E+01  3.987102E+03
       103   5  3.984521E+04  3.976039E+01  7.558503E+02 -5.140731E+04 -3.221099E+02 -1.858804E+03
       103   6  3.985478E+04  5.464168E+01  1.077865E+03 -6.729253E+04 -6.985584E+02 -7.701899E+03
       103   7  1.010447E+05  1.478482E+04  1.310822E+04 -6.731266E+04 -6.401727E+03  3.991003E+03
       103   8  8.617520E+03 -7.499709E+03 -5.714632E+03 -5.141359E+04 -6.774836E+03 -1.855019E+03
       103   9 -8.378250E+04 -2.974835E+04 -2.429615E+04 -6.728505E+04 -7.147700E+03 -7.698202E+03
       103  10 -2.132794E+04 -1.466069E+04 -1.175214E+04 -6.727243E+04  3.529003E-10  4.259747E-10
       103  11  7.107386E+04  7.579176E+03  7.226359E+03 -5.140103E+04 -8.267240E-10 -5.244792E-12
       103  12  1.635066E+05  2.985662E+04  2.645105E+04 -6.729998E+04 -1.461497E-09 -6.035350E-10
       103  13  3.985656E+04  6.216456E+01  6.780879E+02 -6.729254E+04 -2.155494E-09  2.282245E-10
       103  14  3.984520E+04  3.975665E+01  7.558436E+02 -5.140731E+04 -1.065967E-09 -8.495559E-10
       103  15  3.985476E+04  5.457785E+01  1.077753E+03 -6.729254E+04 -1.256849E-11 -1.948869E-10
       103  16  1.010446E+05  1.478479E+04  1.310812E+04 -6.731264E+04  3.538352E-10  1.905614E-10
       103  17  8.617469E+03 -7.499725E+03 -5.714725E+03 -5.141360E+04  1.020089E-09 -5.023019E-10
       103  18 -8.378257E+04 -2.974843E+04 -2.429636E+04 -6.728509E+04 -9.313310E-10 -2.388721E-10
       103  19 -2.132789E+04 -1.466067E+04 -1.175203E+04 -6.727241E+04 -6.510164E+03 -3.983201E+03
       103  20  7.107390E+04  7.579190E+03  7.226436E+03 -5.140104E+04 -6.130936E+03  1.862588E+03
       103  21  1.635067E+05  2.985669E+04  2.645122E+04 -6.730001E+04 -5.751845E+03  7.705596E+03
       103  22  3.985657E+04  6.218163E+01  6.781178E+02 -6.729254E+04 -5.453027E+01 -3.987102E+03
       103  23  3.984521E+04  3.976039E+01  7.558503E+02 -5.140731E+04  3.221099E+02  1.858804E+03
       103  24  3.985478E+04  5.464168E+01  1.077865E+03 -6.729253E+04  6.985584E+02  7.701899E+03
       103  25  1.010447E+05  1.478482E+04  1.310822E+04 -6.731266E+04  6.401727E+03 -3.991003E+03
       103  26  8.617520E+03 -7.499709E+03 -5.714632E+03 -5.141359E+04  6.774836E+03  1.855019E+03
       103  27 -8.378250E+04 -2.974835E+04 -2.429615E+04 -6.728505E+04  7.147700E+03  7.698202E+03
       104   1  2.321933E+05  4.651544E+04  4.144037E+04 -6.730329E+04  5.545148E+03 -1.111155E+04
       104   2  3.245366E+05  6.872675E+04  6.124677E+04 -5.140262E+04  4.364848E+03 -1.693647E+04
       104   3  4.170731E+05  9.110045E+04  8.185795E+04 -6.727144E+04  3.186176E+03 -2.270258E+04
       104   4  3.988415E+04  4.278261E+01  1.354981E+03 -6.729253E+04 -9.208223E+02 -1.110815E+04
       104   5  3.978908E+04 -1.031038E+01  2.246976E+03 -5.140731E+04 -2.036121E+03 -1.693404E+04
       104   6  3.986786E+04  8.825506E+01  3.899093E+03 -6.729246E+04 -3.149623E+03 -2.270106E+04
       104   7 -1.523899E+05 -4.643222E+04 -3.873228E+04 -6.728177E+04 -7.384823E+03 -1.110475E+04
       104   8 -2.448816E+05 -6.875250E+04 -5.675707E+04 -5.141198E+04 -8.434206E+03 -1.693160E+04
       104   9 -3.372025E+05 -9.093292E+04 -7.406732E+04 -6.731345E+04 -9.481641E+03 -2.269954E+04
       104  10  2.321932E+05  4.651530E+04  4.144008E+04 -6.730324E+04  1.090861E-10 -6.506926E-11
       104  11  3.245365E+05  6.872644E+04  6.124619E+04 -5.140256E+04  1.105996E-09  4.841163E-10
       104  12  4.170730E+05  9.109989E+04  8.185697E+04 -6.727138E+04 -2.211670E-11  4.416771E-11
       104  13  3.988411E+04  4.264988E+01  1.354748E+03 -6.729254E+04 -1.083596E-09  1.500779E-10
       104  14  3.978900E+04 -1.061943E+01  2.246429E+03 -5.140734E+04  1.084059E-09 -2.845614E-10
       104  15  3.986771E+04  8.769899E+01  3.898106E+03 -6.729252E+04  8.122018E-10 -4.453365E-10
       104  16 -1.523900E+05 -4.643236E+04 -3.873262E+04 -6.728183E+04 -6.410542E-10 -2.061641E-10
       104  17 -2.448817E+05 -6.875282E+04 -5.675775E+04 -5.141210E+04 -1.747688E-09 -9.784675E-11
       104  18 -3.372027E+05 -9.093350E+04 -7.406846E+04 -6.731362E+04 -5.096427E-10 -4.872752E-10
       104  19  2.321933E+05  4.651544E+04  4.144037E+04 -6.730329E+04 -5.545148E+03  1.111155E+04
       104  20  3.245366E+05  6.872675E+04  6.124677E+04 -5.140262E+04 -4.364848E+03  1.693647E+04
       104  21  4.170731E+05  9.110045E+04  8.185795E+04 -6.727144E+04 -3.186176E+03  2.270258E+04
       104  22  3.988415E+04  4.278261E+01  1.354981E+03 -6.729253E+04  9.208223E+02  1.110815E+04
       104  23  3.978908E+04 -1.031038E+01  2.246976E+03 -5.140731E+04  2.036121E+03  1.693404E+04
       104  24  3.986786E+04  8.825506E+01  3.899093E+03 -6.729246E+04  3.149623E+03  2.270106E+04
       104  25 -1.523899E+05 -4.643222E+04 -3.873228E+04 -6.728177E+04  7.384823E+03  1.110475E+04
       104  26 -2.448816E+05 -6.875250E+04 -5.675707E+04 -5.141198E+04  8.434206E+03  1.693160E+04
       104  27 -3.372025E+05 -9.093292E+04 -7.406732E+04 -6.731345E+04  9.481641E+03  2.269954E+04
       105   1  4.860271E+05  1.075332E+05  9.773729E+04 -6.680806E+04  2.693286E+03 -2.616818E+04
       105   2  5.777470E+05  1.299718E+05  1.206608E+05 -5.164900E+04 -3.027689E+03 -3.158990E+04
       105   3  6.709892E+05  1.552410E+05  1.480271E+05 -6.820973E+04 -8.746346E+03 -3.583741E+04
       105   4  4.010423E+04 -1.505069E+02  5.099705E+03 -6.728169E+04 -3.945025E+03 -2.616736E+04
       105   5  3.944304E+04 -1.337638E+01  8.840918E+03 -5.142070E+04 -8.365430E+03 -3.159105E+04
       105   6  4.007345E+04  2.731064E+03  1.612523E+04 -6.728108E+04 -1.278270E+04 -3.584003E+04
       105   7 -4.056304E+05 -1.078468E+05 -8.754860E+04 -6.775494E+04 -1.057865E+04 -2.616653E+04
       105   8 -4.985866E+05 -1.300170E+05 -1.029948E+05 -5.119257E+04 -1.369862E+04 -3.159221E+04
       105   9 -5.904661E+05 -1.498043E+05 -1.157987E+05 -6.635338E+04 -1.681503E+04 -3.584267E+04
       105  10  4.860269E+05  1.075324E+05  9.773599E+04 -6.680801E+04 -1.148228E-09  3.165106E-10
       105  11  5.777467E+05  1.299707E+05  1.206590E+05 -5.164908E+04  4.949893E-10  6.332274E-10
       105  12  6.709888E+05  1.552396E+05  1.480246E+05 -6.820998E+04 -1.168909E-09  1.042905E-10
       105  13  4.010403E+04 -1.512463E+02  5.098389E+03 -6.728177E+04  7.989240E-13  6.703908E-11
       105  14  3.944270E+04 -1.446688E+01  8.838911E+03 -5.142091E+04 -1.090326E-09  7.079171E-10
       105  15  4.007293E+04  2.729641E+03  1.612251E+04 -6.728145E+04 -6.698002E-10  4.660030E-10
       105  16 -4.056307E+05 -1.078476E+05 -8.755009E+04 -6.775516E+04  1.542735E-09 -1.970576E-10
       105  17 -4.985871E+05 -1.300181E+05 -1.029970E+05 -5.119292E+04  1.783299E-10  3.326099E-10
       105  18 -5.904668E+05 -1.498058E+05 -1.158016E+05 -6.635386E+04 -1.415328E-10  7.957374E-10
       105  19  4.860271E+05  1.075332E+05  9.773729E+04 -6.680806E+04 -2.693286E+03  2.616818E+04
       105  20  5.777470E+05  1.299718E+05  1.206608E+05 -5.164900E+04  3.027689E+03  3.158990E+04
       105  21  6.709892E+05  1.552410E+05  1.480271E+05 -6.820973E+04  8.746346E+03  3.583741E+04
       105  22  4.010423E+04 -1.505069E+02  5.099705E+03 -6.728169E+04  3.945025E+03  2.616736E+04
       105  23  3.944304E+04 -1.337638E+01  8.840918E+03 -5.142070E+04  8.365430E+03  3.159105E+04
       105  24  4.007345E+04  2.731064E+03  1.612523E+04 -6.728108E+04  1.278270E+04  3.584003E+04
       105  25 -4.056304E+05 -1.078468E+05 -8.754860E+04 -6.775494E+04  1.057865E+04  2.616653E+04
       105  26 -4.985866E+05 -1.300170E+05 -1.029948E+05 -5.119257E+04  1.369862E+04  3.159221E+04
       105  27 -5.904661E+05 -1.498043E+05 -1.157987E+05 -6.635338E+04  1.681503E+04  3.584267E+04
       106   1  7.437703E+05  1.667267E+05  1.664425E+05 -5.843677E+04 -5.559743E+03 -4.049015E+04
       106   2  8.260268E+05  1.960064E+05  2.061571E+05 -6.463220E+04 -5.019934E+04 -3.791658E+04
       106   3  9.292506E+05  2.852121E+05  2.899306E+05 -1.014063E+05 -9.486232E+04 -1.198681E+04
       106   4  4.343381E+04 -2.456472E+03  2.054451E+04 -6.702154E+04 -1.560281E+04 -4.049422E+04
       106   5  3.516147E+04  3.850787E+03  3.578948E+04 -5.174416E+04 -3.440871E+04 -3.791660E+04
       106   6  4.338866E+04  6.564137E+04  7.718674E+04 -6.704326E+04 -5.322957E+04 -1.197244E+04
       106   7 -6.564384E+05 -1.716706E+05 -1.253800E+05 -7.559646E+04 -2.563474E+04 -4.049801E+04
       106   8 -7.551159E+05 -1.883451E+05 -1.346140E+05 -3.887277E+04 -1.863788E+04 -3.791596E+04
       106   9 -8.417492E+05 -1.539810E+05 -1.356057E+05 -3.272945E+04 -1.165588E+04 -1.195346E+04
       106  10  7.437698E+05  1.667249E+05  1.664393E+05 -5.843695E+04 -1.756095E-10 -1.649368E-10
       106  11  8.260238E+05  1.960041E+05  2.061497E+05 -6.463373E+04 -1.315841E-09 -5.330983E-11
       106  12  9.292409E+05  2.852095E+05  2.899134E+05 -1.014072E+05  2.960720E-10 -1.201218E-10
       106  13  4.343310E+04 -2.458298E+03  2.054097E+04 -6.702205E+04 -2.153754E-09  2.252039E-10
       106  14  3.515981E+04  3.848925E+03  3.578455E+04 -5.174521E+04  1.631291E-09  3.204530E-10
       106  15  4.338558E+04  6.564046E+04  7.718114E+04 -6.704377E+04  8.133000E-10 -1.948764E-10
       106  16 -6.564396E+05 -1.716725E+05 -1.253843E+05 -7.559729E+04 -3.772301E-10  4.973166E-10
       106  17 -7.551166E+05 -1.883468E+05 -1.346173E+05 -3.887334E+04  2.973775E-09 -3.442531E-10
       106  18 -8.417494E+05 -1.539812E+05 -1.356062E+05 -3.272957E+04  1.191047E-09 -4.416197E-10
       106  19  7.437703E+05  1.667267E+05  1.664425E+05 -5.843677E+04  5.559743E+03  4.049015E+04
       106  20  8.260268E+05  1.960064E+05  2.061571E+05 -6.463220E+04  5.019934E+04  3.791658E+04
       106  21  9.292506E+05  2.852121E+05  2.899306E+05 -1.014063E+05  9.486232E+04  1.198681E+04
       106  22  4.343381E+04 -2.456472E+03  2.054451E+04 -6.702154E+04  1.560281E+04  4.049422E+04
       106  23  3.516147E+04  3.850787E+03  3.578948E+04 -5.174416E+04  3.440871E+04  3.791660E+04
       106  24  4.338866E+04  6.564137E+04  7.718674E+04 -6.704326E+04  5.322957E+04  1.197244E+04
       106  25 -6.564384E+05 -1.716706E+05 -1.253800E+05 -7.559646E+04  2.563474E+04  4.049801E+04
       106  26 -7.551159E+05 -1.883451E+05 -1.346140E+05 -3.887277E+04  1.863788E+04  3.791596E+04
       106  27 -8.417492E+05 -1.539810E+05 -1.356057E+05 -3.272945E+04  1.165588E+04  1.195346E+04
       107   1  6.843537E+05  2.421593E+06  6.845348E+05 -5.615839E+05  2.504774E+04  2.010181E+05
       107   2  4.142932E+05  1.804120E+06  4.180701E+05 -4.327514E+05  7.358486E+04  8.534762E+04
       107   3  2.529202E+05  1.228885E+06  2.538292E+05 -4.751414E+05  6.122953E+04 -3.029890E+04
       107   4  1.274864E+05  1.748256E+05  1.451657E+05 -4.862913E+05  2.529879E+04  9.852778E+04
       107   5  1.626545E+04  1.609792E+05  7.001609E+04 -4.008310E+05  7.366119E+04  6.213850E+04
       107   6  1.862314E+02  1.754499E+05  4.229742E+04 -4.865784E+05  6.107403E+04  2.565799E+04
       107   7 -4.297217E+05 -2.067298E+06 -3.945197E+05 -4.112673E+05  2.552564E+04 -3.594704E+03
       107   8 -3.819332E+05 -1.479618E+06 -2.781892E+05 -3.689939E+05  7.373527E+04  3.898957E+04
       107   9 -2.526138E+05 -8.769206E+05 -1.692791E+05 -4.979945E+05  6.091630E+04  8.152192E+04
       107  10  6.843422E+05  2.421549E+06  6.844580E+05 -5.615879E+05  2.129285E-10  1.720619E-09
       107  11  4.142854E+05  1.804111E+06  4.180463E+05 -4.327564E+05  9.900779E-10 -7.789435E-10
       107  12  2.529160E+05  1.228883E+06  2.538205E+05 -4.751399E+05  5.140313E-11 -1.410241E-09
       107  13  1.274831E+05  1.748150E+05  1.451463E+05 -4.862933E+05  9.579492E-11  1.053094E-09
       107  14  1.625859E+04  1.609736E+05  6.999862E+04 -4.008347E+05  1.493965E-09  5.258451E-10
       107  15  1.820472E+02  1.754482E+05  4.228917E+04 -4.865797E+05 -1.162720E-09 -5.825699E-11
       107  16 -4.297224E+05 -2.067298E+06 -3.945209E+05 -4.112673E+05 -6.228375E-11 -1.674150E-09
       107  17 -3.819394E+05 -1.479621E+06 -2.782023E+05 -3.689962E+05  9.620196E-11  1.466877E-09
       107  18 -2.526196E+05 -8.769288E+05 -1.692986E+05 -4.979985E+05 -1.138059E-10  1.882238E-09
       107  19  6.843537E+05  2.421593E+06  6.845348E+05 -5.615839E+05 -2.504774E+04 -2.010181E+05
       107  20  4.142932E+05  1.804120E+06  4.180701E+05 -4.327514E+05 -7.358486E+04 -8.534762E+04
       107  21  2.529202E+05  1.228885E+06  2.538292E+05 -4.751414E+05 -6.122953E+04  3.029890E+04
       107  22  1.274864E+05  1.748256E+05  1.451657E+05 -4.862913E+05 -2.529879E+04 -9.852778E+04
       107  23  1.626545E+04  1.609792E+05  7.001609E+04 -4.008310E+05 -7.366119E+04 -6.213850E+04
       107  24  1.862314E+02  1.754499E+05  4.229742E+04 -4.865784E+05 -6.107403E+04 -2.565799E+04
       107  25 -4.297217E+05 -2.067298E+06 -3.945197E+05 -4.112673E+05 -2.552564E+04  3.594704E+03
       107  26 -3.819332E+05 -1.479618E+06 -2.781892E+05 -3.689939E+05 -7.373527E+04 -3.898957E+04
       107  27 -2.526138E+05 -8.769206E+05 -1.692791E+05 -4.979945E+05 -6.091630E+04 -8.152192E+04
       108   1  1.595667E+05  8.043390E+05  1.629604E+05 -4.906460E+05  3.628964E+04 -2.403843E+04
       108   2  1.180537E+04  2.074946E+05  3.324179E+04 -4.002023E+05  2.597393E+03 -3.705348E+04
       108   3 -1.287959E+05 -3.864480E+05 -8.649175E+04 -4.842090E+05 -3.121489E+04 -5.005811E+04
       108   4  7.131424E+03  1.698630E+05  3.498941E+04 -4.872456E+05  3.615909E+04  1.962143E+04
       108   5  2.502584E+03  1.686006E+05  2.561614E+04 -4.000247E+05  2.466218E+03  6.751345E+03
       108   6  5.029570E+03  1.698781E+05  2.613942E+04 -4.872521E+05 -3.134760E+04 -6.120223E+03
       108   7 -1.453277E+05 -4.642256E+05 -9.299509E+04 -4.838483E+05  3.602894E+04  6.323757E+04
       108   8 -6.799260E+03  1.297122E+05  1.799762E+04 -3.998471E+05  2.335063E+03  5.055348E+04
       108   9  1.388369E+05  7.265031E+05  1.387618E+05 -4.902976E+05 -3.148067E+04  3.785631E+04
       108  10  1.595651E+05  8.043380E+05  1.629568E+05 -4.906453E+05 -1.440302E-09  2.325755E-09
       108  11  1.180499E+04  2.074931E+05  3.323920E+04 -4.002022E+05 -9.472944E-10 -2.355592E-10
       108  12 -1.287976E+05 -3.864510E+05 -8.649830E+04 -4.842103E+05  2.379344E-10  2.873220E-10
       108  13  7.129915E+03  1.698622E+05  3.498622E+04 -4.872462E+05  3.483875E-10  1.846859E-09
       108  14  2.502565E+03  1.686005E+05  2.561604E+04 -4.000247E+05 -5.888292E-11  7.093193E-10
       108  15  5.028504E+03  1.698777E+05  2.613750E+04 -4.872523E+05  8.867896E-10  3.973077E-11
       108  16 -1.453302E+05 -4.642303E+05 -9.300506E+04 -4.838502E+05 -1.067007E-09 -2.359080E-09
       108  17 -6.799952E+03  1.297094E+05  1.799281E+04 -3.998472E+05 -8.702997E-10  9.757185E-10
       108  18  1.388355E+05  7.265013E+05  1.387573E+05 -4.902967E+05 -9.555072E-10  3.424989E-10
       108  19  1.595667E+05  8.043390E+05  1.629604E+05 -4.906460E+05 -3.628964E+04  2.403843E+04
       108  20  1.180537E+04  2.074946E+05  3.324179E+04 -4.002023E+05 -2.597393E+03  3.705348E+04
       108  21 -1.287959E+05 -3.864480E+05 -8.649175E+04 -4.842090E+05  3.121489E+04  5.005811E+04
       108  22  7.131424E+03  1.698630E+05  3.498941E+04 -4.872456E+05 -3.615909E+04 -1.962143E+04
       108  23  2.502584E+03  1.686006E+05  2.561614E+04 -4.000247E+05 -2.466218E+03 -6.751345E+03
       108  24  5.029570E+03  1.698781E+05  2.613942E+04 -4.872521E+05  3.134760E+04  6.120223E+03
       108  25 -1.453277E+05 -4.642256E+05 -9.299509E+04 -4.838483E+05 -3.602894E+04 -6.323757E+04
       108  26 -6.799260E+03  1.297122E+05  1.799762E+04 -3.998471E+05 -2.335063E+03 -5.055348E+04
       108  27  1.388369E+05  7.265031E+05  1.387618E+05 -4.902976E+05  3.148067E+04 -3.785631E+04
       109   1 -2.330070E+05 -8.017266E+05 -1.675094E+05 -4.921373E+05 -5.607639E+04 -6.630965E+04
       109   2 -3.694846E+05 -1.398738E+06 -2.899852E+05 -3.812441E+05 -6.979220E+04 -1.175635E+04
       109   3 -4.640415E+05 -1.992297E+06 -4.376442E+05 -4.417487E+05 -2.442303E+04  4.283630E+04
       109   4  1.183048E+03  1.728207E+05  2.872405E+04 -4.865926E+05 -5.623568E+04 -1.055286E+04
       109   5  9.908275E+03  1.643440E+05  4.218104E+04 -4.008347E+05 -6.972614E+04 -3.247391E+04
       109   6  7.379345E+04  1.722290E+05  8.357845E+04 -4.864256E+05 -2.420347E+04 -5.430294E+04
       109   7  2.353162E+05  1.148281E+06  2.249206E+05 -4.810379E+05 -5.639381E+04  4.528985E+04
       109   8  3.891439E+05  1.729734E+06  3.742092E+05 -4.204734E+05 -6.965888E+04 -5.324285E+04
       109   9  6.112986E+05  2.341074E+06  6.045034E+05 -5.312554E+05 -2.397040E+04 -1.517802E+05
       109  10 -2.330115E+05 -8.017321E+05 -1.675236E+05 -4.921403E+05 -1.606311E-10  2.404234E-09
       109  11 -3.694899E+05 -1.398740E+06 -2.899946E+05 -3.812447E+05  1.219055E-10  1.774507E-10
       109  12 -4.640427E+05 -1.992299E+06 -4.376488E+05 -4.417478E+05  4.992008E-10 -6.882175E-11
       109  13  1.179621E+03  1.728197E+05  2.871789E+04 -4.865930E+05 -1.150571E-09  1.807738E-09
       109  14  9.902769E+03  1.643416E+05  4.216991E+04 -4.008365E+05  3.498228E-10  6.907343E-10
       109  15  7.379203E+04  1.722257E+05  8.357180E+04 -4.864267E+05 -4.872382E-11  1.328092E-10
       109  16  2.353122E+05  1.148278E+06  2.249108E+05 -4.810359E+05 -1.456538E-10 -2.389249E-09
       109  17  3.891379E+05  1.729729E+06  3.741947E+05 -4.204763E+05 -5.766952E-10  6.835161E-10
       109  18  6.112919E+05  2.341050E+06  6.044592E+05 -5.312583E+05  9.692607E-10  4.219983E-10
       109  19 -2.330070E+05 -8.017266E+05 -1.675094E+05 -4.921373E+05  5.607639E+04  6.630965E+04
       109  20 -3.694846E+05 -1.398738E+06 -2.899852E+05 -3.812441E+05  6.979220E+04  1.175635E+04
       109  21 -4.640415E+05 -1.992297E+06 -4.376442E+05 -4.417487E+05  2.442303E+04 -4.283630E+04
       109  22  1.183048E+03  1.728207E+05  2.872405E+04 -4.865926E+05  5.623568E+04  1.055286E+04
       109  23  9.908275E+03  1.643440E+05  4.218104E+04 -4.008347E+05  6.972614E+04  3.247391E+04
       109  24  7.379345E+04  1.722290E+05  8.357845E+04 -4.864256E+05  2.420347E+04  5.430294E+04
       109  25  2.353162E+05  1.148281E+06  2.249206E+05 -4.810379E+05  5.639381E+04 -4.528985E+04
       109  26  3.891439E+05  1.729734E+06  3.742092E+05 -4.204734E+05  6.965888E+04  5.324285E+04
       109  27  6.112986E+05  2.341074E+06  6.045034E+05 -5.312554E+05  2.397040E+04  1.517802E+05
       110   1 -2.356276E+06 -8.599841E+05 -4.934372E+05 -8.869996E+05 -2.176376E+05 -6.771531E+04
       110   2 -2.282104E+06 -5.705103E+05 -3.000135E+05 -8.635889E+05 -1.393415E+05 -7.583431E+03
       110   3 -2.271616E+06 -4.910232E+05 -2.245441E+05 -8.149190E+05 -5.191062E+04  2.832321E+04
       110   4 -1.591849E+06 -4.661729E+05 -2.704216E+05 -5.696880E+05 -1.775790E+05 -5.269242E+04
       110   5 -1.547567E+06 -2.586545E+05 -1.192287E+05 -6.217545E+05 -1.241872E+05 -1.900892E+03
       110   6 -1.561931E+06 -2.560547E+05 -6.611311E+04 -6.485909E+05 -6.167454E+04  2.465313E+04
       110   7 -8.268160E+05 -7.215333E+04 -4.745304E+04 -2.519693E+05 -1.374662E+05 -3.763184E+04
       110   8 -8.124850E+05  5.328785E+04  6.151593E+04 -3.796418E+05 -1.090134E+05  3.791403E+03
       110   9 -8.517442E+05 -2.107419E+04  9.228577E+04 -4.821004E+05 -7.145054E+04  2.097962E+04
       110  10 -2.356329E+06 -8.600018E+05 -4.935353E+05 -8.870115E+05  1.670795E-12  2.913445E-11
       110  11 -2.282125E+06 -5.705156E+05 -3.000503E+05 -8.635898E+05  5.880983E-10 -2.932643E-10
       110  12 -2.271619E+06 -4.910248E+05 -2.245507E+05 -8.149178E+05 -9.126519E-10 -6.370498E-10
       110  13 -1.591883E+06 -4.661844E+05 -2.704862E+05 -5.696955E+05 -1.949404E-11 -3.494181E-10
       110  14 -1.547583E+06 -2.586586E+05 -1.192578E+05 -6.217547E+05  1.520157E-09 -5.827410E-10
       110  15 -1.561935E+06 -2.560564E+05 -6.612141E+04 -6.485897E+05  1.114932E-09 -3.089551E-10
       110  16 -8.268367E+05 -7.215993E+04 -4.749126E+04 -2.519735E+05  2.545497E-11 -3.728956E-10
       110  17 -8.124978E+05  5.328464E+04  6.149354E+04 -3.796414E+05  2.409515E-09 -2.653127E-11
       110  18 -8.517498E+05 -2.107603E+04  9.227534E+04 -4.820991E+05  1.223610E-09  1.515316E-10
       110  19 -2.356276E+06 -8.599841E+05 -4.934372E+05 -8.869996E+05  2.176376E+05  6.771531E+04
       110  20 -2.282104E+06 -5.705103E+05 -3.000135E+05 -8.635889E+05  1.393415E+05  7.583431E+03
       110  21 -2.271616E+06 -4.910232E+05 -2.245441E+05 -8.149190E+05  5.191062E+04 -2.832321E+04
       110  22 -1.591849E+06 -4.661729E+05 -2.704216E+05 -5.696880E+05  1.775790E+05  5.269242E+04
       110  23 -1.547567E+06 -2.586545E+05 -1.192287E+05 -6.217545E+05  1.241872E+05  1.900892E+03
       110  24 -1.561931E+06 -2.560547E+05 -6.611311E+04 -6.485909E+05  6.167454E+04 -2.465313E+04
       110  25 -8.268160E+05 -7.215333E+04 -4.745304E+04 -2.519693E+05  1.374662E+05  3.763184E+04
       110  26 -8.124850E+05  5.328785E+04  6.151593E+04 -3.796418E+05  1.090134E+05 -3.791403E+03
       110  27 -8.517442E+05 -2.107419E+04  9.228577E+04 -4.821004E+05  7.145054E+04 -2.097962E+04
       111   1 -2.180995E+06 -5.085343E+05 -1.973544E+05 -8.143281E+05 -4.874422E+04  2.427287E+04
       111   2 -2.112800E+06 -4.579717E+05 -1.540286E+05 -7.820099E+05 -3.256965E+04  2.626741E+04
       111   3 -2.029471E+06 -4.375592E+05 -1.243091E+05 -7.713076E+05 -1.595826E+04  2.709641E+04
       111   4 -1.553317E+06 -2.725072E+05 -5.176757E+04 -6.382027E+05 -5.185418E+04  2.310121E+04
       111   5 -1.560279E+06 -2.525908E+05 -2.701600E+04 -6.292459E+05 -3.686729E+04  2.465155E+04
       111   6 -1.551871E+06 -2.625818E+05 -1.491668E+04 -6.419067E+05 -2.144579E+04  2.503603E+04
       111   7 -9.252400E+05 -3.644634E+04  9.379348E+04 -4.619118E+05 -5.496757E+04  2.192822E+04
       111   8 -1.007449E+06 -4.718588E+04  9.997671E+04 -4.763565E+05 -4.116910E+04  2.303413E+04
       111   9 -1.074043E+06 -8.758848E+04  9.446068E+04 -5.124149E+05 -2.693792E+04  2.297396E+04
       111  10 -2.180998E+06 -5.085355E+05 -1.973600E+05 -8.143272E+05  3.681160E-11 -1.240293E-10
       111  11 -2.112802E+06 -4.579727E+05 -1.540319E+05 -7.820093E+05 -5.726479E-10 -3.421081E-11
       111  12 -2.029471E+06 -4.375601E+05 -1.243109E+05 -7.713073E+05 -3.368280E-10  6.576194E-10
       111  13 -1.553320E+06 -2.725085E+05 -5.177364E+04 -6.382018E+05 -7.961578E-10 -2.584003E-10
       111  14 -1.560280E+06 -2.525918E+05 -2.701970E+04 -6.292452E+05  2.876730E-09  1.673018E-12
       111  15 -1.551872E+06 -2.625825E+05 -1.491872E+04 -6.419062E+05 -1.462501E-09  2.235688E-10
       111  16 -9.252434E+05 -3.644766E+04  9.378689E+04 -4.619108E+05  3.381547E-10 -7.068257E-11
       111  17 -1.007451E+06 -4.718691E+04  9.997253E+04 -4.763557E+05  1.408221E-10 -1.377209E-10
       111  18 -1.074044E+06 -8.758924E+04  9.445833E+04 -5.124144E+05  3.820961E-10  1.006078E-10
       111  19 -2.180995E+06 -5.085343E+05 -1.973544E+05 -8.143281E+05  4.874422E+04 -2.427287E+04
       111  20 -2.112800E+06 -4.579717E+05 -1.540286E+05 -7.820099E+05  3.256965E+04 -2.626741E+04
       111  21 -2.029471E+06 -4.375592E+05 -1.243091E+05 -7.713076E+05  1.595826E+04 -2.709641E+04
       111  22 -1.553317E+06 -2.725072E+05 -5.176757E+04 -6.382027E+05  5.185418E+04 -2.310121E+04
       111  23 -1.560279E+06 -2.525908E+05 -2.701600E+04 -6.292459E+05  3.686729E+04 -2.465155E+04
       111  24 -1.551871E+06 -2.625818E+05 -1.491668E+04 -6.419067E+05  2.144579E+04 -2.503603E+04
       111  25 -9.252400E+05 -3.644634E+04  9.379348E+04 -4.619118E+05  5.496757E+04 -2.192822E+04
       111  26 -1.007449E+06 -4.718588E+04  9.997671E+04 -4.763565E+05  4.116910E+04 -2.303413E+04
       111  27 -1.074043E+06 -8.758848E+04  9.446068E+04 -5.124149E+05  2.693792E+04 -2.297396E+04
       112   1 -1.968151E+06 -4.173951E+05 -1.065950E+05 -7.557732E+05 -1.300245E+04  2.471503E+04
       112   2 -1.900243E+06 -3.777018E+05 -8.382261E+04 -7.224755E+05 -7.937973E+03  2.082883E+04
       112   3 -1.812078E+06 -3.593396E+05 -6.352538E+04 -7.130297E+05 -2.848875E+03  1.687145E+04
       112   4 -1.551151E+06 -2.633707E+05 -1.129328E+04 -6.413858E+05 -1.819810E+04  2.276508E+04
       112   5 -1.561245E+06 -2.525018E+05 -6.192748E+03 -6.295337E+05 -1.320496E+04  1.885332E+04
       112   6 -1.551073E+06 -2.629494E+05 -3.509312E+03 -6.415352E+05 -8.187610E+03  1.487026E+04
       112   7 -1.133980E+06 -1.093343E+05  8.399632E+04 -5.269287E+05 -2.339752E+04  2.081372E+04
       112   8 -1.222131E+06 -1.272933E+05  7.142959E+04 -5.365453E+05 -1.847507E+04  1.687665E+04
       112   9 -1.289998E+06 -1.665536E+05  5.650274E+04 -5.700128E+05 -1.352882E+04  1.286814E+04
       112  10 -1.968151E+06 -4.173958E+05 -1.065964E+05 -7.557730E+05  1.949579E-09  1.181686E-09
       112  11 -1.900244E+06 -3.777023E+05 -8.382354E+04 -7.224754E+05  4.979104E-09  8.602348E-10
       112  12 -1.812078E+06 -3.593399E+05 -6.352593E+04 -7.130297E+05  1.781789E-09 -1.054049E-10
       112  13 -1.551152E+06 -2.633713E+05 -1.129488E+04 -6.413855E+05 -2.334682E-10  6.056686E-10
       112  14 -1.561245E+06 -2.525022E+05 -6.193743E+03 -6.295335E+05  2.974938E-09  7.705384E-10
       112  15 -1.551073E+06 -2.629496E+05 -3.509853E+03 -6.415351E+05  5.135119E-10 -3.312926E-10
       112  16 -1.133980E+06 -1.093349E+05  8.399448E+04 -5.269283E+05  7.078163E-10  3.037631E-10
       112  17 -1.222132E+06 -1.272937E+05  7.142841E+04 -5.365451E+05  1.302112E-09  2.016741E-10
       112  18 -1.289998E+06 -1.665538E+05  5.650208E+04 -5.700126E+05 -1.313767E-09 -5.855839E-10
       112  19 -1.968151E+06 -4.173951E+05 -1.065950E+05 -7.557732E+05  1.300245E+04 -2.471503E+04
       112  20 -1.900243E+06 -3.777018E+05 -8.382261E+04 -7.224755E+05  7.937973E+03 -2.082883E+04
       112  21 -1.812078E+06 -3.593396E+05 -6.352538E+04 -7.130297E+05  2.848875E+03 -1.687145E+04
       112  22 -1.551151E+06 -2.633707E+05 -1.129328E+04 -6.413858E+05  1.819810E+04 -2.276508E+04
       112  23 -1.561245E+06 -2.525018E+05 -6.192748E+03 -6.295337E+05  1.320496E+04 -1.885332E+04
       112  24 -1.551073E+06 -2.629494E+05 -3.509312E+03 -6.415352E+05  8.187610E+03 -1.487026E+04
       112  25 -1.133980E+06 -1.093343E+05  8.399632E+04 -5.269287E+05  2.339752E+04 -2.081372E+04
       112  26 -1.222131E+06 -1.272933E+05  7.142959E+04 -5.365453E+05  1.847507E+04 -1.687665E+04
       112  27 -1.289998E+06 -1.665536E+05  5.650274E+04 -5.700128E+05  1.352882E+04 -1.286814E+04
       113   1 -1.751864E+06 -3.371532E+05 -4.845722E+04 -6.966349E+05 -1.207607E+03  1.404828E+04
       113   2 -1.683706E+06 -2.976895E+05 -2.974834E+04 -6.630638E+05  1.607903E+03  9.197821E+03
       113   3 -1.594726E+06 -2.792045E+05 -1.169747E+04 -6.535314E+05  4.426021E+03  4.338067E+03
       113   4 -1.550961E+06 -2.629976E+05 -2.718241E+03 -6.415273E+05 -6.543147E+03  1.204878E+04
       113   5 -1.561365E+06 -2.525000E+05 -1.738652E+03 -6.295090E+05 -3.737114E+03  7.195210E+03
       113   6 -1.550952E+06 -2.629792E+05 -1.409457E+03 -6.415313E+05 -9.286268E+02  2.332350E+03
       113   7 -1.350016E+06 -1.888387E+05  4.301840E+04 -5.864031E+05 -1.188058E+04  1.004858E+04
       113   8 -1.439010E+06 -2.073099E+05  2.626983E+04 -5.959485E+05 -9.083224E+03  5.192190E+03
       113   9 -1.507176E+06 -2.467541E+05  8.878265E+03 -6.295306E+05 -6.283561E+03  3.265252E+02
       113  10 -1.751864E+06 -3.371534E+05 -4.845760E+04 -6.966349E+05 -2.421730E-09 -1.905512E-09
       113  11 -1.683706E+06 -2.976896E+05 -2.974851E+04 -6.630638E+05  7.744796E-09  3.201491E-09
       113  12 -1.594726E+06 -2.792045E+05 -1.169755E+04 -6.535314E+05  1.315552E-08  5.736146E-09
       113  13 -1.550961E+06 -2.629977E+05 -2.718594E+03 -6.415273E+05 -2.837907E-09 -8.472992E-10
       113  14 -1.561365E+06 -2.525001E+05 -1.738776E+03 -6.295090E+05 -1.747824E-10  4.912383E-10
       113  15 -1.550952E+06 -2.629792E+05 -1.409469E+03 -6.415313E+05 -2.042655E-09  7.937545E-10
       113  16 -1.350016E+06 -1.888388E+05  4.301795E+04 -5.864030E+05  1.286573E-09  5.313008E-10
       113  17 -1.439010E+06 -2.073099E+05  2.626962E+04 -5.959485E+05 -9.064569E-09 -3.125498E-09
       113  18 -1.507176E+06 -2.467541E+05  8.878190E+03 -6.295306E+05 -1.762332E-08 -4.266507E-09
       113  19 -1.751864E+06 -3.371532E+05 -4.845722E+04 -6.966349E+05  1.207607E+03 -1.404828E+04
       113  20 -1.683706E+06 -2.976895E+05 -2.974834E+04 -6.630638E+05 -1.607903E+03 -9.197821E+03
       113  21 -1.594726E+06 -2.792045E+05 -1.169747E+04 -6.535314E+05 -4.426021E+03 -4.338067E+03
       113  22 -1.550961E+06 -2.629976E+05 -2.718241E+03 -6.415273E+05  6.543147E+03 -1.204878E+04
       113  23 -1.561365E+06 -2.525000E+05 -1.738652E+03 -6.295090E+05  3.737114E+03 -7.195210E+03
       113  24 -1.550952E+06 -2.629792E+05 -1.409457E+03 -6.415313E+05  9.286268E+02 -2.332350E+03
       113  25 -1.350016E+06 -1.888387E+05  4.301840E+04 -5.864031E+05  1.188058E+04 -1.004858E+04
       113  26 -1.439010E+06 -2.073099E+05  2.626983E+04 -5.959485E+05  9.083224E+03 -5.192190E+03
       113  27 -1.507176E+06 -2.467541E+05  8.878265E+03 -6.295306E+05  6.283561E+03 -3.265252E+02
       114   1 -1.534415E+06 -2.568347E+05  2.612156E+03 -6.370239E+05  5.795744E+03  1.404693E+03
       114   2 -1.466211E+06 -2.173738E+05  1.988663E+04 -6.034332E+05  8.672915E+03 -3.433499E+03
       114   3 -1.377188E+06 -1.988998E+05  3.645887E+04 -5.938930E+05  1.154803E+04 -8.263621E+03
       114   4 -1.550953E+06 -2.629813E+05 -1.437030E+03 -6.415346E+05  4.401889E+02 -6.013295E+02
       114   5 -1.561362E+06 -2.524922E+05 -1.890832E+03 -6.295063E+05  3.324991E+03 -5.437070E+03
       114   6 -1.550958E+06 -2.629931E+05 -3.053089E+03 -6.415319E+05  6.207599E+03 -1.026476E+04
       114   7 -1.567490E+06 -2.691279E+05 -5.486204E+03 -6.460452E+05 -4.915315E+03 -2.607333E+03
       114   8 -1.656504E+06 -2.876106E+05 -2.366921E+04 -6.555761E+05 -2.022131E+03 -7.440342E+03
       114   9 -1.724701E+06 -3.270852E+05 -4.256757E+04 -6.891593E+05  8.687158E+02 -1.226532E+04
       114  10 -1.534415E+06 -2.568347E+05  2.612089E+03 -6.370239E+05 -1.682066E-08 -5.448990E-09
       114  11 -1.466211E+06 -2.173738E+05  1.988646E+04 -6.034332E+05 -1.073695E-08 -4.180267E-09
       114  12 -1.377188E+06 -1.988999E+05  3.645849E+04 -5.938929E+05  7.355002E-10 -2.090772E-10
       114  13 -1.550953E+06 -2.629813E+05 -1.437031E+03 -6.415346E+05 -4.837683E-09  3.892796E-10
       114  14 -1.561362E+06 -2.524923E+05 -1.890908E+03 -6.295063E+05 -1.439799E-09 -9.387028E-10
       114  15 -1.550959E+06 -2.629933E+05 -3.053359E+03 -6.415319E+05  1.562771E-09 -1.073213E-09
       114  16 -1.567490E+06 -2.691279E+05 -5.486262E+03 -6.460453E+05  1.163145E-08  5.995007E-09
       114  17 -1.656504E+06 -2.876107E+05 -2.366932E+04 -6.555761E+05  4.476847E-09  1.571962E-09
       114  18 -1.724701E+06 -3.270853E+05 -4.256786E+04 -6.891593E+05 -1.459757E-09 -2.181626E-09
       114  19 -1.534415E+06 -2.568347E+05  2.612156E+03 -6.370239E+05 -5.795744E+03 -1.404693E+03
       114  20 -1.466211E+06 -2.173738E+05  1.988663E+04 -6.034332E+05 -8.672915E+03  3.433499E+03
       114  21 -1.377188E+06 -1.988998E+05  3.645887E+04 -5.938930E+05 -1.154803E+04  8.263621E+03
       114  22 -1.550953E+06 -2.629813E+05 -1.437030E+03 -6.415346E+05 -4.401889E+02  6.013295E+02
       114  23 -1.561362E+06 -2.524922E+05 -1.890832E+03 -6.295063E+05 -3.324991E+03  5.437070E+03
       114  24 -1.550958E+06 -2.629931E+05 -3.053089E+03 -6.415319E+05 -6.207599E+03  1.026476E+04
       114  25 -1.567490E+06 -2.691279E+05 -5.486204E+03 -6.460452E+05  4.915315E+03  2.607333E+03
       114  26 -1.656504E+06 -2.876106E+05 -2.366921E+04 -6.555761E+05  2.022131E+03  7.440342E+03
       114  27 -1.724701E+06 -3.270852E+05 -4.256757E+04 -6.891593E+05 -8.687158E+02  1.226532E+04
       115   1 -1.317144E+06 -1.766153E+05  4.982265E+04 -5.775195E+05  1.326389E+04 -1.106012E+04
       115   2 -1.249146E+06 -1.373022E+05  6.437360E+04 -5.440102E+05  1.864466E+04 -1.491232E+04
       115   3 -1.160936E+06 -1.193929E+05  7.622005E+04 -5.343874E+05  2.400257E+04 -1.869638E+04
       115   4 -1.551084E+06 -2.629459E+05 -3.971605E+03 -6.415521E+05  7.918620E+03 -1.306350E+04
       115   5 -1.561222E+06 -2.524712E+05 -7.052059E+03 -6.295239E+05  1.336702E+04 -1.689144E+04
       115   6 -1.551167E+06 -2.634142E+05 -1.289138E+04 -6.413843E+05  1.879216E+04 -2.065139E+04
       115   7 -1.784964E+06 -3.492704E+05 -5.776790E+04 -7.055612E+05  2.575666E+03 -1.506603E+04
       115   8 -1.873198E+06 -3.676322E+05 -7.848349E+04 -7.149976E+05  8.092307E+03 -1.886947E+04
       115   9 -1.941249E+06 -4.074256E+05 -1.020138E+05 -7.483206E+05  1.358526E+04 -2.260509E+04
       115  10 -1.317144E+06 -1.766154E+05  4.982209E+04 -5.775194E+05 -1.225208E-09 -8.961151E-10
       115  11 -1.249146E+06 -1.373025E+05  6.437253E+04 -5.440100E+05 -1.753177E-09 -6.697446E-10
       115  12 -1.160937E+06 -1.193934E+05  7.621831E+04 -5.343871E+05  1.095259E-10 -2.241602E-10
       115  13 -1.551084E+06 -2.629461E+05 -3.972043E+03 -6.415520E+05  2.090571E-10 -8.028228E-10
       115  14 -1.561222E+06 -2.524715E+05 -7.052931E+03 -6.295237E+05  1.076549E-09 -5.853378E-10
       115  15 -1.551168E+06 -2.634147E+05 -1.289284E+04 -6.413840E+05  4.222212E-11 -9.138913E-10
       115  16 -1.784964E+06 -3.492706E+05 -5.776834E+04 -7.055611E+05  2.692277E-09 -4.254874E-10
       115  17 -1.873198E+06 -3.676326E+05 -7.848428E+04 -7.149974E+05  1.778709E-10 -4.282331E-10
       115  18 -1.941250E+06 -4.074262E+05 -1.020151E+05 -7.483204E+05  1.012383E-09 -1.486318E-09
       115  19 -1.317144E+06 -1.766153E+05  4.982265E+04 -5.775195E+05 -1.326389E+04  1.106012E+04
       115  20 -1.249146E+06 -1.373022E+05  6.437360E+04 -5.440102E+05 -1.864466E+04  1.491232E+04
       115  21 -1.160936E+06 -1.193929E+05  7.622005E+04 -5.343874E+05 -2.400257E+04  1.869638E+04
       115  22 -1.551084E+06 -2.629459E+05 -3.971605E+03 -6.415521E+05 -7.918620E+03  1.306350E+04
       115  23 -1.561222E+06 -2.524712E+05 -7.052059E+03 -6.295239E+05 -1.336702E+04  1.689144E+04
       115  24 -1.551167E+06 -2.634142E+05 -1.289138E+04 -6.413843E+05 -1.879216E+04  2.065139E+04
       115  25 -1.784964E+06 -3.492704E+05 -5.776790E+04 -7.055612E+05 -2.575666E+03  1.506603E+04
       115  26 -1.873198E+06 -3.676322E+05 -7.848349E+04 -7.149976E+05 -8.092307E+03  1.886947E+04
       115  27 -1.941249E+06 -4.074256E+05 -1.020138E+05 -7.483206E+05 -1.358526E+04  2.260509E+04
       116   1 -1.100833E+06 -9.767943E+04  8.618769E+04 -5.201314E+05  2.783392E+04 -2.075045E+04
       116   2 -1.034078E+06 -5.696620E+04  9.000844E+04 -4.835726E+05  4.405046E+04 -2.008950E+04
       116   3 -9.524475E+05 -4.731024E+04  8.029092E+04 -4.684217E+05  5.984748E+04 -1.829722E+04
       116   4 -1.551979E+06 -2.625252E+05 -1.703536E+04 -6.419960E+05  2.233862E+04 -2.281315E+04
       116   5 -1.560119E+06 -2.525401E+05 -3.085767E+04 -6.291762E+05  3.970837E+04 -2.172149E+04
       116   6 -1.553623E+06 -2.738501E+05 -5.914296E+04 -6.377683E+05  5.665646E+04 -1.949890E+04
       116   7 -2.002921E+06 -4.273572E+05 -1.202718E+05 -7.637801E+05  1.684767E+04 -2.487427E+04
       116   8 -2.085880E+06 -4.480921E+05 -1.517418E+05 -7.746661E+05  3.537028E+04 -2.335198E+04
       116   9 -2.154431E+06 -5.003583E+05 -1.986004E+05 -8.069625E+05  5.346881E+04 -2.069927E+04
       116  10 -1.100834E+06 -9.768010E+04  8.618543E+04 -5.201310E+05 -8.822391E-10 -6.292418E-10
       116  11 -1.034081E+06 -5.696715E+04  9.000404E+04 -4.835719E+05 -2.631830E-10 -3.840046E-10
       116  12 -9.524514E+05 -4.731156E+04  8.028356E+04 -4.684208E+05  8.664358E-10  7.051902E-10
       116  13 -1.551980E+06 -2.625259E+05 -1.703728E+04 -6.419956E+05  3.899501E-10 -7.678174E-10
       116  14 -1.560121E+06 -2.525410E+05 -3.086152E+04 -6.291755E+05  1.487053E-10 -1.572208E-10
       116  15 -1.553626E+06 -2.738513E+05 -5.914972E+04 -6.377674E+05  1.924867E-10  2.496061E-10
       116  16 -2.002921E+06 -4.273579E+05 -1.202735E+05 -7.637797E+05  1.060660E-09 -8.803773E-10
       116  17 -2.085882E+06 -4.480930E+05 -1.517452E+05 -7.746654E+05  1.559983E-10  2.072515E-10
       116  18 -2.154435E+06 -5.003595E+05 -1.986066E+05 -8.069616E+05 -1.256746E-09  4.543686E-11
       116  19 -1.100833E+06 -9.767943E+04  8.618769E+04 -5.201314E+05 -2.783392E+04  2.075045E+04
       116  20 -1.034078E+06 -5.696620E+04  9.000844E+04 -4.835726E+05 -4.405046E+04  2.008950E+04
       116  21 -9.524475E+05 -4.731024E+04  8.029092E+04 -4.684217E+05 -5.984748E+04  1.829722E+04
       116  22 -1.551979E+06 -2.625252E+05 -1.703536E+04 -6.419960E+05 -2.233862E+04  2.281315E+04
       116  23 -1.560119E+06 -2.525401E+05 -3.085767E+04 -6.291762E+05 -3.970837E+04  2.172149E+04
       116  24 -1.553623E+06 -2.738501E+05 -5.914296E+04 -6.377683E+05 -5.665646E+04  1.949890E+04
       116  25 -2.002921E+06 -4.273572E+05 -1.202718E+05 -7.637801E+05 -1.684767E+04  2.487427E+04
       116  26 -2.085880E+06 -4.480921E+05 -1.517418E+05 -7.746661E+05 -3.537028E+04  2.335198E+04
       116  27 -2.154431E+06 -5.003583E+05 -1.986004E+05 -8.069625E+05 -5.346881E+04  2.069927E+04
       117   1 -8.767461E+05 -3.285549E+04  7.680264E+04 -4.938638E+05  7.727309E+04 -1.694862E+04
       117   2 -8.407190E+05  4.680576E+04  3.836303E+04 -3.810869E+05  1.247239E+05  3.680183E+03
       117   3 -8.694989E+05 -1.000473E+05 -9.285282E+04 -2.364835E+05  1.633383E+05  4.783321E+04
       117   4 -1.563419E+06 -2.550973E+05 -7.553477E+04 -6.496940E+05  6.761496E+04 -2.057586E+04
       117   5 -1.545636E+06 -2.593868E+05 -1.362091E+05 -6.205489E+05  1.392687E+05  9.132445E+03
       117   6 -1.597582E+06 -4.951796E+05 -3.089541E+05 -5.595605E+05  2.020751E+05  6.236164E+04
       117   7 -2.249625E+06 -4.773318E+05 -2.279022E+05 -8.053796E+05  5.796834E+04 -2.420003E+04
       117   8 -2.250048E+06 -5.654881E+05 -3.108174E+05 -8.597430E+05  1.537953E+05  1.457529E+04
       117   9 -2.325095E+06 -8.900742E+05 -5.250942E+05 -8.822319E+05  2.407615E+05  7.685208E+04
       117  10 -8.767526E+05 -3.285741E+04  7.679087E+04 -4.938627E+05  5.069616E-11  6.939037E-10
       117  11 -8.407357E+05  4.680156E+04  3.833373E+04 -3.810872E+05 -2.310070E-10  1.699400E-09
       117  12 -8.695282E+05 -1.000569E+05 -9.290734E+04 -2.364897E+05  1.074941E-09  1.247723E-09
       117  13 -1.563424E+06 -2.550990E+05 -7.554417E+04 -6.496928E+05  7.581399E-10  6.870801E-10
       117  14 -1.545657E+06 -2.593921E+05 -1.362458E+05 -6.205499E+05  8.227891E-10  5.281051E-10
       117  15 -1.597627E+06 -4.951948E+05 -3.090384E+05 -5.595707E+05  4.398128E-10  2.314598E-10
       117  16 -2.249628E+06 -4.773333E+05 -2.279096E+05 -8.053785E+05 -4.330184E-10  4.673805E-10
       117  17 -2.250073E+06 -5.654947E+05 -3.108624E+05 -8.597448E+05 -4.992244E-10  8.972374E-10
       117  18 -2.325159E+06 -8.900962E+05 -5.252147E+05 -8.822468E+05 -1.505436E-09  1.170123E-10
       117  19 -8.767461E+05 -3.285549E+04  7.680264E+04 -4.938638E+05 -7.727309E+04  1.694862E+04
       117  20 -8.407190E+05  4.680576E+04  3.836303E+04 -3.810869E+05 -1.247239E+05 -3.680183E+03
       117  21 -8.694989E+05 -1.000473E+05 -9.285282E+04 -2.364835E+05 -1.633383E+05 -4.783321E+04
       117  22 -1.563419E+06 -2.550973E+05 -7.553477E+04 -6.496940E+05 -6.761496E+04  2.057586E+04
       117  23 -1.545636E+06 -2.593868E+05 -1.362091E+05 -6.205489E+05 -1.392687E+05 -9.132445E+03
       117  24 -1.597582E+06 -4.951796E+05 -3.089541E+05 -5.595605E+05 -2.020751E+05 -6.236164E+04
       117  25 -2.249625E+06 -4.773318E+05 -2.279022E+05 -8.053796E+05 -5.796834E+04  2.420003E+04
       117  26 -2.250048E+06 -5.654881E+05 -3.108174E+05 -8.597430E+05 -1.537953E+05 -1.457529E+04
       117  27 -2.325095E+06 -8.900742E+05 -5.250942E+05 -8.822319E+05 -2.407615E+05 -7.685208E+04
       118   1 -3.775282E+05 -5.158495E+04 -2.977131E+04  1.227252E+04  5.064964E+04  8.291091E+03
       118   2 -3.339380E+05 -1.272563E+05 -6.454651E+04 -1.092536E+04  4.005872E+04  2.642254E+04
       118   3 -2.689400E+05 -1.232319E+05 -7.248246E+04 -5.193814E+04  2.947623E+04  2.871026E+04
       118   4  2.260750E+05  9.806111E+04  1.151940E+05 -3.916269E+04  7.946104E+04  8.302676E+03
       118   5  2.138783E+05  5.892928E+03  5.343540E+04 -3.023424E+04  5.136422E+04  2.642433E+04
       118   6  2.261029E+05 -3.582802E+03  3.065295E+04 -3.911842E+04  2.327774E+04  2.870746E+04
       118   7  8.300194E+05  2.476911E+05  2.601380E+05 -9.064817E+04  1.083003E+05  8.309483E+03
       118   8  7.619778E+05  1.390239E+05  1.714004E+05 -4.956042E+04  6.267956E+04  2.642541E+04
       118   9  7.213783E+05  1.160513E+05  1.337751E+05 -2.628831E+04  1.707437E+04  2.870441E+04
       118  10 -3.775309E+05 -5.158571E+04 -2.977627E+04  1.227219E+04  8.172682E-10  2.866117E-11
       118  11 -3.339399E+05 -1.272574E+05 -6.455084E+04 -1.092621E+04  1.722812E-09 -7.434746E-10
       118  12 -2.689412E+05 -1.232330E+05 -7.248565E+04 -5.193882E+04 -1.167070E-09 -6.011978E-10
       118  13  2.260682E+05  9.805934E+04  1.151820E+05 -3.916322E+04  4.537792E-14 -7.458539E-11
       118  14  2.138753E+05  5.891470E+03  5.342913E+04 -3.023533E+04 -1.186309E-09 -9.682237E-10
       118  15  2.261021E+05 -3.583833E+03  3.065038E+04 -3.911896E+04 -1.474966E-09 -2.689156E-10
       118  16  8.300068E+05  2.476879E+05  2.601158E+05 -9.064889E+04 -1.570715E-10 -1.705346E-10
       118  17  7.619734E+05  1.390221E+05  1.713917E+05 -4.956176E+04  9.171199E-10 -3.158447E-10
       118  18  7.213778E+05  1.160503E+05  1.337730E+05 -2.628871E+04 -1.828626E-10 -1.699174E-10
       118  19 -3.775282E+05 -5.158495E+04 -2.977131E+04  1.227252E+04 -5.064964E+04 -8.291091E+03
       118  20 -3.339380E+05 -1.272563E+05 -6.454651E+04 -1.092536E+04 -4.005872E+04 -2.642254E+04
       118  21 -2.689400E+05 -1.232319E+05 -7.248246E+04 -5.193814E+04 -2.947623E+04 -2.871026E+04
       118  22  2.260750E+05  9.806111E+04  1.151940E+05 -3.916269E+04 -7.946104E+04 -8.302676E+03
       118  23  2.138783E+05  5.892928E+03  5.343540E+04 -3.023424E+04 -5.136422E+04 -2.642433E+04
       118  24  2.261029E+05 -3.582802E+03  3.065295E+04 -3.911842E+04 -2.327774E+04 -2.870746E+04
       118  25  8.300194E+05  2.476911E+05  2.601380E+05 -9.064817E+04 -1.083003E+05 -8.309483E+03
       118  26  7.619778E+05  1.390239E+05  1.714004E+05 -4.956042E+04 -6.267956E+04 -2.642541E+04
       118  27  7.213783E+05  1.160513E+05  1.337751E+05 -2.628831E+04 -1.707437E+04 -2.870441E+04
       119   1 -2.333343E+05 -1.057582E+05 -7.095771E+04 -3.797707E+04  2.120018E+04  2.587034E+04
       119   2 -1.801772E+05 -9.669585E+04 -6.998261E+04 -2.979930E+04  1.549029E+04  2.353482E+04
       119   3 -1.253000E+05 -8.392148E+04 -6.434995E+04 -4.014783E+04  9.778883E+03  2.040459E+04
       119   4  2.210978E+05  4.133759E+03  2.406020E+04 -3.928745E+04  1.907163E+04  2.586843E+04
       119   5  2.201703E+05  7.513432E+00  1.318812E+04 -3.002457E+04  1.248017E+04  2.353339E+04
       119   6  2.211122E+05 -2.550379E+02  7.583215E+03 -3.928716E+04  5.887684E+03  2.040385E+04
       119   7  6.757253E+05  1.140125E+05  1.190667E+05 -4.059881E+04  1.694155E+04  2.586654E+04
       119   8  6.206696E+05  9.670069E+04  9.635012E+04 -3.024998E+04  9.468131E+03  2.353196E+04
       119   9  5.676382E+05  8.340379E+04  7.950988E+04 -3.842600E+04  1.994350E+03  2.040311E+04
       119  10 -2.333350E+05 -1.057590E+05 -7.095982E+04 -3.797751E+04 -8.476776E-10 -5.152935E-10
       119  11 -1.801776E+05 -9.669651E+04 -6.998410E+04 -2.979960E+04  2.140539E-11  1.211006E-10
       119  12 -1.253002E+05 -8.392196E+04 -6.435092E+04 -4.014799E+04 -2.426021E-10 -2.174737E-10
       119  13  2.210972E+05  4.132943E+03  2.405826E+04 -3.928785E+04 -1.084372E-09 -3.154787E-10
       119  14  2.201700E+05  6.876855E+00  1.318679E+04 -3.002480E+04  1.075001E-09 -1.388360E-10
       119  15  2.211121E+05 -2.554943E+02  7.582367E+03 -3.928726E+04  8.187946E-11  5.476996E-11
       119  16  6.757248E+05  1.140117E+05  1.190649E+05 -4.059917E+04  4.776442E-10 -5.207124E-11
       119  17  6.206694E+05  9.670007E+04  9.634891E+04 -3.025016E+04  5.120218E-10 -5.101879E-10
       119  18  5.676381E+05  8.340334E+04  7.950909E+04 -3.842603E+04 -9.531956E-11  3.554466E-10
       119  19 -2.333343E+05 -1.057582E+05 -7.095771E+04 -3.797707E+04 -2.120018E+04 -2.587034E+04
       119  20 -1.801772E+05 -9.669585E+04 -6.998261E+04 -2.979930E+04 -1.549029E+04 -2.353482E+04
       119  21 -1.253000E+05 -8.392148E+04 -6.434995E+04 -4.014783E+04 -9.778883E+03 -2.040459E+04
       119  22  2.210978E+05  4.133759E+03  2.406020E+04 -3.928745E+04 -1.907163E+04 -2.586843E+04
       119  23  2.201703E+05  7.513432E+00  1.318812E+04 -3.002457E+04 -1.248017E+04 -2.353339E+04
       119  24  2.211122E+05 -2.550379E+02  7.583215E+03 -3.928716E+04 -5.887684E+03 -2.040385E+04
       119  25  6.757253E+05  1.140125E+05  1.190667E+05 -4.059881E+04 -1.694155E+04 -2.586654E+04
       119  26  6.206696E+05  9.670069E+04  9.635012E+04 -3.024998E+04 -9.468131E+03 -2.353196E+04
       119  27  5.676382E+05  8.340379E+04  7.950988E+04 -3.842600E+04 -1.994350E+03 -2.040311E+04
       120   1 -8.554687E+04 -7.383908E+04 -5.757815E+04 -3.946343E+04  8.392762E+03  1.837424E+04
       120   2 -3.174577E+04 -6.099065E+04 -4.899596E+04 -3.014354E+04  6.803465E+03  1.501520E+04
       120   3  2.232423E+04 -4.795573E+04 -3.932933E+04 -3.936650E+04  5.213092E+03  1.161742E+04
       120   4  2.207629E+05  9.211651E+01  5.787134E+03 -3.929103E+04  4.707531E+03  1.837385E+04
       120   5  2.206309E+05 -6.112162E+01  3.299096E+03 -3.001986E+04  3.074557E+03  1.501528E+04
       120   6  2.207716E+05 -2.047111E+01  1.925173E+03 -3.929109E+04  1.440640E+03  1.161799E+04
       120   7  5.271617E+05  7.401738E+04  6.914738E+04 -3.911854E+04  1.020512E+03  1.837347E+04
       120   8  4.730680E+05  6.086438E+04  5.559074E+04 -2.989613E+04 -6.558411E+02  1.501536E+04
       120   9  4.192562E+05  4.791229E+04  4.317757E+04 -3.921565E+04 -2.332997E+03  1.161855E+04
       120  10 -8.554704E+04 -7.383946E+04 -5.757892E+04 -3.946356E+04 -8.009268E-10 -4.939917E-11
       120  11 -3.174588E+04 -6.099091E+04 -4.899647E+04 -3.014362E+04  1.104374E-09  7.005751E-10
       120  12  2.232416E+04 -4.795588E+04 -3.932963E+04 -3.936655E+04 -8.704169E-10  4.739960E-10
       120  13  2.207628E+05  9.174799E+01  5.786458E+03 -3.929110E+04 -2.135218E-09  3.373405E-10
       120  14  2.206309E+05 -6.136628E+01  3.298654E+03 -3.001990E+04  4.189538E-11  4.842980E-10
       120  15  2.207715E+05 -2.061662E+01  1.924915E+03 -3.929110E+04 -1.173718E-10  2.578204E-10
       120  16  5.271616E+05  7.401702E+04  6.914674E+04 -3.911856E+04 -5.569729E-10  7.420568E-10
       120  17  4.730679E+05  6.086413E+04  5.559032E+04 -2.989612E+04  9.695362E-10  5.183565E-10
       120  18  4.192562E+05  4.791214E+04  4.317731E+04 -3.921563E+04 -1.273573E-09  3.493584E-10
       120  19 -8.554687E+04 -7.383908E+04 -5.757815E+04 -3.946343E+04 -8.392762E+03 -1.837424E+04
       120  20 -3.174577E+04 -6.099065E+04 -4.899596E+04 -3.014354E+04 -6.803465E+03 -1.501520E+04
       120  21  2.232423E+04 -4.795573E+04 -3.932933E+04 -3.936650E+04 -5.213092E+03 -1.161742E+04
       120  22  2.207629E+05  9.211651E+01  5.787134E+03 -3.929103E+04 -4.707531E+03 -1.837385E+04
       120  23  2.206309E+05 -6.112162E+01  3.299096E+03 -3.001986E+04 -3.074557E+03 -1.501528E+04
       120  24  2.207716E+05 -2.047111E+01  1.925173E+03 -3.929109E+04 -1.440640E+03 -1.161799E+04
       120  25  5.271617E+05  7.401738E+04  6.914738E+04 -3.911854E+04 -1.020512E+03 -1.837347E+04
       120  26  4.730680E+05  6.086438E+04  5.559074E+04 -2.989613E+04  6.558411E+02 -1.501536E+04
       120  27  4.192562E+05  4.791229E+04  4.317757E+04 -3.921565E+04  2.332997E+03 -1.161855E+04
       121   1  6.231859E+04 -3.821712E+04 -3.119023E+04 -3.932935E+04  4.893315E+03  9.630036E+03
       121   2  1.161868E+05 -2.523494E+04 -2.073755E+04 -3.004529E+04  4.443554E+03  6.222512E+03
       121   3  1.701141E+05 -1.223375E+04 -9.989266E+03 -3.928935E+04  3.993372E+03  2.813592E+03
       121   4  2.207266E+05 -5.686611E+00  1.483170E+03 -3.928787E+04  1.131907E+03  9.630803E+03
       121   5  2.207001E+05 -6.126985E+00  9.125800E+02 -3.002391E+04  6.803514E+02  6.223469E+03
       121   6  2.207301E+05  1.287906E+01  6.388044E+02 -3.928787E+04  2.284127E+02  2.814750E+03
       121   7  3.791585E+05  3.820417E+04  3.415528E+04 -3.924637E+04 -2.630444E+03  9.631569E+03
       121   8  3.252238E+05  2.522200E+04  2.256217E+04 -3.000252E+04 -3.083474E+03  6.224426E+03
       121   9  2.713487E+05  1.225935E+04  1.126678E+04 -3.928639E+04 -3.536849E+03  2.815908E+03
       121  10  6.231854E+04 -3.821723E+04 -3.119045E+04 -3.932938E+04  6.186678E-10 -1.555378E-10
       121  11  1.161867E+05 -2.523498E+04 -2.073766E+04 -3.004531E+04 -1.012734E-09 -5.104819E-10
       121  12  1.701141E+05 -1.223376E+04 -9.989311E+03 -3.928935E+04 -1.744704E-09  1.714970E-10
       121  13  2.207266E+05 -5.786566E+00  1.482993E+03 -3.928787E+04 -1.158884E-09 -2.322095E-12
       121  14  2.207001E+05 -6.168704E+00  9.125063E+02 -3.002391E+04 -1.037373E-09 -9.220651E-10
       121  15  2.207301E+05  1.287054E+01  6.387894E+02 -3.928787E+04 -3.702542E-10 -4.549393E-11
       121  16  3.791584E+05  3.820407E+04  3.415509E+04 -3.924635E+04 -1.626781E-09 -5.264409E-10
       121  17  3.252237E+05  2.522195E+04  2.256208E+04 -3.000250E+04 -1.184084E-09 -7.098011E-10
       121  18  2.713486E+05  1.225934E+04  1.126675E+04 -3.928639E+04  8.041342E-10 -2.817357E-11
       121  19  6.231859E+04 -3.821712E+04 -3.119023E+04 -3.932935E+04 -4.893315E+03 -9.630036E+03
       121  20  1.161868E+05 -2.523494E+04 -2.073755E+04 -3.004529E+04 -4.443554E+03 -6.222512E+03
       121  21  1.701141E+05 -1.223375E+04 -9.989266E+03 -3.928935E+04 -3.993372E+03 -2.813592E+03
       121  22  2.207266E+05 -5.686611E+00  1.483170E+03 -3.928787E+04 -1.131907E+03 -9.630803E+03
       121  23  2.207001E+05 -6.126985E+00  9.125800E+02 -3.002391E+04 -6.803514E+02 -6.223469E+03
       121  24  2.207301E+05  1.287906E+01  6.388044E+02 -3.928787E+04 -2.284127E+02 -2.814750E+03
       121  25  3.791585E+05  3.820417E+04  3.415528E+04 -3.924637E+04  2.630444E+03 -9.631569E+03
       121  26  3.252238E+05  2.522200E+04  2.256217E+04 -3.000252E+04  3.083474E+03 -6.224426E+03
       121  27  2.713487E+05  1.225935E+04  1.126678E+04 -3.928639E+04  3.536849E+03 -2.815908E+03
       122   1  2.101338E+05 -2.514684E+03 -1.470917E+03 -3.929383E+04  3.881926E+03  8.292222E+02
       122   2  2.640120E+05  1.045580E+04  9.562811E+03 -3.002315E+04  3.586471E+03 -2.579172E+03
       122   3  3.179241E+05  2.344080E+04  2.078938E+04 -3.927793E+04  3.291154E+03 -5.986099E+03
       122   4  2.207251E+05  1.311532E+01  5.793512E+02 -3.928734E+04  1.170411E+02  8.304151E+02
       122   5  2.207086E+05  3.519000E+00  5.929175E+02 -3.002457E+04 -1.769051E+02 -2.578066E+03
       122   6  2.207237E+05  8.534386E+00  7.985505E+02 -3.928734E+04 -4.706880E+02 -5.985069E+03
       122   7  2.313166E+05  2.540916E+03  2.629668E+03 -3.928084E+04 -3.647906E+03  8.316079E+02
       122   8  1.774069E+05 -1.044887E+04 -8.377025E+03 -3.002599E+04 -3.940023E+03 -2.576959E+03
       122   9  1.235323E+05 -2.342432E+04 -1.919273E+04 -3.929674E+04 -4.231952E+03 -5.984039E+03
       122  10  2.101338E+05 -2.514689E+03 -1.470947E+03 -3.929384E+04  4.942073E-10  5.175585E-10
       122  11  2.640120E+05  1.045579E+04  9.562775E+03 -3.002315E+04 -1.003113E-09  8.241782E-10
       122  12  3.179240E+05  2.344076E+04  2.078929E+04 -3.927791E+04 -2.582464E-09  1.493819E-09
       122  13  2.207251E+05  1.311457E+01  5.793499E+02 -3.928734E+04 -2.235836E-09  8.376136E-10
       122  14  2.207086E+05  3.511854E+00  5.929050E+02 -3.002457E+04  9.996059E-10  8.877544E-10
       122  15  2.207237E+05  8.495856E+00  7.984828E+02 -3.928734E+04 -1.636343E-09  9.651927E-10
       122  16  2.313166E+05  2.540911E+03  2.629641E+03 -3.928084E+04 -5.524691E-10  5.060285E-10
       122  17  1.774069E+05 -1.044889E+04 -8.377067E+03 -3.002600E+04  1.540819E-09  5.152989E-10
       122  18  1.235322E+05 -2.342436E+04 -1.919283E+04 -3.929676E+04  1.124193E-09  1.098295E-09
       122  19  2.101338E+05 -2.514684E+03 -1.470917E+03 -3.929383E+04 -3.881926E+03 -8.292222E+02
       122  20  2.640120E+05  1.045580E+04  9.562811E+03 -3.002315E+04 -3.586471E+03  2.579172E+03
       122  21  3.179241E+05  2.344080E+04  2.078938E+04 -3.927793E+04 -3.291154E+03  5.986099E+03
       122  22  2.207251E+05  1.311532E+01  5.793512E+02 -3.928734E+04 -1.170411E+02 -8.304151E+02
       122  23  2.207086E+05  3.519000E+00  5.929175E+02 -3.002457E+04  1.769051E+02  2.578066E+03
       122  24  2.207237E+05  8.534386E+00  7.985505E+02 -3.928734E+04  4.706880E+02  5.985069E+03
       122  25  2.313166E+05  2.540916E+03  2.629668E+03 -3.928084E+04  3.647906E+03 -8.316079E+02
       122  26  1.774069E+05 -1.044887E+04 -8.377025E+03 -3.002599E+04  3.940023E+03  2.576959E+03
       122  27  1.235323E+05 -2.342432E+04 -1.919273E+04 -3.929674E+04  4.231952E+03  5.984039E+03
       123   1  3.579840E+05  3.315376E+04  2.955705E+04 -3.926832E+04  3.138874E+03 -7.972429E+03
       123   2  4.118429E+05  4.611670E+04  4.121700E+04 -2.998193E+04  2.300161E+03 -1.136963E+04
       123   3  4.658423E+05  5.918314E+04  5.344863E+04 -3.922697E+04  1.462064E+03 -1.473169E+04
       123   4  2.207436E+05  9.304872E-01  9.878521E+02 -3.928873E+04 -6.329616E+02 -7.971530E+03
       123   5  2.206752E+05 -2.350637E+01  1.614055E+03 -3.002283E+04 -1.432806E+03 -1.136910E+04
       123   6  2.207371E+05  4.881198E+01  2.784934E+03 -3.928870E+04 -2.231962E+03 -1.473151E+04
       123   7  8.352094E+04 -3.315309E+04 -2.758232E+04 -3.930913E+04 -4.403978E+03 -7.970631E+03
       123   8  2.954217E+04 -4.616602E+04 -3.799082E+04 -3.006371E+04 -5.164643E+03 -1.136858E+04
       123   9 -2.431113E+04 -5.908931E+04 -4.788196E+04 -3.935041E+04 -5.924555E+03 -1.473134E+04
       123  10  3.579840E+05  3.315369E+04  2.955691E+04 -3.926830E+04  5.245503E-09  1.423572E-09
       123  11  4.118429E+05  4.611656E+04  4.121674E+04 -2.998191E+04 -1.572760E-08 -1.018985E-09
       123  12  4.658422E+05  5.918291E+04  5.344822E+04 -3.922695E+04 -3.242277E-08 -3.075624E-09
       123  13  2.207436E+05  8.621356E-01  9.877319E+02 -3.928873E+04  8.768983E-11  1.015021E-09
       123  14  2.206752E+05 -2.364574E+01  1.613808E+03 -3.002284E+04 -3.111870E-09 -9.826323E-10
       123  15  2.207370E+05  4.857757E+01  2.784517E+03 -3.928873E+04 -1.912334E-09 -3.177587E-09
       123  16  8.352091E+04 -3.315316E+04 -2.758248E+04 -3.930916E+04 -7.279018E-09  1.447680E-09
       123  17  2.954211E+04 -4.616616E+04 -3.799112E+04 -3.006376E+04  1.611154E-08 -7.692146E-10
       123  18 -2.431122E+04 -5.908956E+04 -4.788244E+04 -3.935048E+04  3.192679E-08 -3.415475E-09
       123  19  3.579840E+05  3.315376E+04  2.955705E+04 -3.926832E+04 -3.138874E+03  7.972429E+03
       123  20  4.118429E+05  4.611670E+04  4.121700E+04 -2.998193E+04 -2.300161E+03  1.136963E+04
       123  21  4.658423E+05  5.918314E+04  5.344863E+04 -3.922697E+04 -1.462064E+03  1.473169E+04
       123  22  2.207436E+05  9.304872E-01  9.878521E+02 -3.928873E+04  6.329616E+02  7.971530E+03
       123  23  2.206752E+05 -2.350637E+01  1.614055E+03 -3.002283E+04  1.432806E+03  1.136910E+04
       123  24  2.207371E+05  4.881198E+01  2.784934E+03 -3.928870E+04  2.231962E+03  1.473151E+04
       123  25  8.352094E+04 -3.315309E+04 -2.758232E+04 -3.930913E+04  4.403978E+03  7.970631E+03
       123  26  2.954217E+04 -4.616602E+04 -3.799082E+04 -3.006371E+04  5.164643E+03  1.136858E+04
       123  27 -2.431113E+04 -5.908931E+04 -4.788196E+04 -3.935041E+04  5.924555E+03  1.473134E+04
       124   1  5.061086E+05  6.874410E+04  6.286495E+04 -3.889724E+04  1.080915E+03 -1.675602E+04
       124   2  5.595921E+05  8.188444E+04  7.674031E+04 -3.014973E+04 -2.863307E+03 -1.991040E+04
       124   3  6.141168E+05  9.700894E+04  9.368424E+04 -3.992113E+04 -6.806804E+03 -2.234833E+04
       124   4  2.209040E+05 -1.182937E+02  3.637228E+03 -3.928597E+04 -2.799135E+03 -1.675613E+04
       124   5  2.204473E+05 -1.262455E+00  6.303446E+03 -3.002619E+04 -5.950369E+03 -1.991116E+04
       124   6  2.208921E+05  1.963216E+03  1.148902E+04 -3.928589E+04 -9.100543E+03 -2.234956E+04
       124   7 -6.422361E+04 -6.898585E+04 -5.559488E+04 -3.967453E+04 -6.677435E+03 -1.675623E+04
       124   8 -1.185887E+05 -8.189427E+04 -6.413967E+04 -2.990271E+04 -9.035774E+03 -1.991193E+04
       124   9 -1.721864E+05 -9.309239E+04 -7.071474E+04 -3.865105E+04 -1.139285E+04 -2.235080E+04
       124  10  5.061085E+05  6.874380E+04  6.286442E+04 -3.889722E+04  3.159596E-08 -3.349074E-09
       124  11  5.595920E+05  8.188401E+04  7.673955E+04 -3.014977E+04  1.490453E-08 -1.050352E-09
       124  12  6.141166E+05  9.700839E+04  9.368321E+04 -3.992126E+04 -7.592955E-09  1.789712E-09
       124  13  2.209039E+05 -1.185974E+02  3.636686E+03 -3.928601E+04 -1.082165E-09 -3.384924E-09
       124  14  2.204471E+05 -1.697729E+00  6.302634E+03 -3.002628E+04 -4.268655E-09 -8.671087E-10
       124  15  2.208919E+05  1.962657E+03  1.148793E+04 -3.928605E+04 -3.030480E-10  1.867625E-09
       124  16 -6.422373E+04 -6.898616E+04 -5.559549E+04 -3.967462E+04 -3.312517E-08 -3.521416E-09
       124  17 -1.185889E+05 -8.189472E+04 -6.414057E+04 -2.990286E+04 -1.420733E-08 -7.279291E-10
       124  18 -1.721867E+05 -9.309296E+04 -7.071592E+04 -3.865126E+04  7.601016E-09  2.036793E-09
       124  19  5.061086E+05  6.874410E+04  6.286495E+04 -3.889724E+04 -1.080915E+03  1.675602E+04
       124  20  5.595921E+05  8.188444E+04  7.674031E+04 -3.014973E+04  2.863307E+03  1.991040E+04
       124  21  6.141168E+05  9.700894E+04  9.368424E+04 -3.992113E+04  6.806804E+03  2.234833E+04
       124  22  2.209040E+05 -1.182937E+02  3.637228E+03 -3.928597E+04  2.799135E+03  1.675613E+04
       124  23  2.204473E+05 -1.262455E+00  6.303446E+03 -3.002619E+04  5.950369E+03  1.991116E+04
       124  24  2.208921E+05  1.963216E+03  1.148902E+04 -3.928589E+04  9.100543E+03  2.234956E+04
       124  25 -6.422361E+04 -6.898585E+04 -5.559488E+04 -3.967453E+04  6.677435E+03  1.675623E+04
       124  26 -1.185887E+05 -8.189427E+04 -6.413967E+04 -2.990271E+04  9.035774E+03  1.991193E+04
       124  27 -1.721864E+05 -9.309239E+04 -7.071474E+04 -3.865105E+04  1.139285E+04  2.235080E+04
       125   1  6.570826E+05  1.030649E+05  1.049884E+05 -3.301207E+04 -5.142344E+03 -2.510045E+04
       125   2  7.041131E+05  1.210309E+05  1.303129E+05 -3.942198E+04 -3.433040E+04 -2.337202E+04
       125   3  7.655603E+05  1.812019E+05  1.851925E+05 -6.368743E+04 -6.352796E+04 -7.367241E+03
       125   4  2.232825E+05 -1.723638E+03  1.463486E+04 -3.913490E+04 -1.110912E+04 -2.510251E+04
       125   5  2.174288E+05  2.790183E+03  2.550165E+04 -3.021437E+04 -2.451306E+04 -2.337125E+04
       125   6  2.232616E+05  4.678768E+04  5.497907E+04 -3.914868E+04 -3.792359E+04 -7.360027E+03
       125   7 -2.103394E+05 -1.065240E+05 -7.572885E+04 -4.525338E+04 -1.707180E+04 -2.510446E+04
       125   8 -2.690327E+05 -1.154658E+05 -7.932312E+04 -2.101407E+04 -1.470329E+04 -2.337019E+04
       125   9 -3.187654E+05 -8.764531E+04 -7.525240E+04 -1.463143E+04 -1.234147E+04 -7.350789E+03
       125  10  6.570824E+05  1.030643E+05  1.049871E+05 -3.301217E+04  2.066768E-09  2.082723E-09
       125  11  7.041117E+05  1.210300E+05  1.303097E+05 -3.942263E+04  3.487901E-10  5.011944E-10
       125  12  7.655559E+05  1.812008E+05  1.851848E+05 -6.368781E+04  2.302612E-10  1.525597E-10
       125  13  2.232822E+05 -1.724348E+03  1.463345E+04 -3.913512E+04 -2.303324E-09  1.691449E-09
       125  14  2.174280E+05  2.789436E+03  2.549949E+04 -3.021483E+04  5.363567E-10  2.686110E-10
       125  15  2.232600E+05  4.678723E+04  5.497627E+04 -3.914890E+04  6.502929E-10 -3.063180E-10
       125  16 -2.103399E+05 -1.065248E+05 -7.573058E+04 -4.525372E+04 -3.509537E-09  1.858985E-09
       125  17 -2.690331E+05 -1.154664E+05 -7.932455E+04 -2.101435E+04 -2.440571E-09 -2.098930E-10
       125  18 -3.187656E+05 -8.764541E+04 -7.525278E+04 -1.463151E+04  6.773968E-10  1.108296E-10
       125  19  6.570826E+05  1.030649E+05  1.049884E+05 -3.301207E+04  5.142344E+03  2.510045E+04
       125  20  7.041131E+05  1.210309E+05  1.303129E+05 -3.942198E+04  3.433040E+04  2.337202E+04
       125  21  7.655603E+05  1.812019E+05  1.851925E+05 -6.368743E+04  6.352796E+04  7.367241E+03
       125  22  2.232825E+05 -1.723638E+03  1.463486E+04 -3.913490E+04  1.110912E+04  2.510251E+04
       125  23  2.174288E+05  2.790183E+03  2.550165E+04 -3.021437E+04  2.451306E+04  2.337125E+04
       125  24  2.232616E+05  4.678768E+04  5.497907E+04 -3.914868E+04  3.792359E+04  7.360027E+03
       125  25 -2.103394E+05 -1.065240E+05 -7.572885E+04 -4.525338E+04  1.707180E+04  2.510446E+04
       125  26 -2.690327E+05 -1.154658E+05 -7.932312E+04 -2.101407E+04  1.470329E+04  2.337019E+04
       125  27 -3.187654E+05 -8.764531E+04 -7.525240E+04 -1.463143E+04  1.234147E+04  7.350789E+03
       126   1  5.491797E+05  1.992390E+06  5.474737E+05 -3.720754E+05  2.261859E+04  1.310777E+05
       126   2  3.628525E+05  1.517621E+06  3.584277E+05 -2.720309E+05  6.656993E+04  5.181265E+04
       126   3  2.446299E+05  1.070411E+06  2.379107E+05 -3.273222E+05  5.710197E+04 -2.744721E+04
       126   4  6.809014E+04  5.295903E+04  7.958057E+04 -3.343096E+05  2.273837E+04  5.292491E+04
       126   5  4.460793E+03  4.457590E+04  3.841899E+04 -2.566925E+05  6.661534E+04  3.285130E+04
       126   6 -1.216885E+03  5.337442E+04  2.483107E+04 -3.344160E+05  5.702156E+04  1.272237E+04
       126   7 -4.132656E+05 -1.883023E+06 -3.885581E+05 -2.966600E+05  2.284891E+04 -2.498537E+04
       126   8 -3.540737E+05 -1.426437E+06 -2.817179E+05 -2.413896E+05  6.665988E+04  1.393420E+04
       126   9 -2.471288E+05 -9.626819E+05 -1.883001E+05 -3.414974E+05  5.694015E+04  5.282728E+04
       126  10  5.491745E+05  1.992371E+06  5.474405E+05 -3.720777E+05  2.700921E-10  4.368619E-10
       126  11  3.628470E+05  1.517617E+06  3.584143E+05 -2.720337E+05  2.758742E-09 -2.218838E-09
       126  12  2.446262E+05  1.070409E+06  2.379032E+05 -3.273209E+05  2.405846E-12 -4.351432E-10
       126  13  6.808883E+04  5.295589E+04  7.957433E+04 -3.343106E+05  1.053694E-09  4.285247E-10
       126  14  4.455737E+03  4.457354E+04  3.840862E+04 -2.566943E+05  5.999939E-10  3.254161E-11
       126  15 -1.220420E+03  5.337337E+04  2.482466E+04 -3.344166E+05 -5.242147E-10  5.631003E-10
       126  16 -4.132663E+05 -1.883024E+06 -3.885602E+05 -2.966595E+05 -2.015837E-10 -4.744316E-10
       126  17 -3.540785E+05 -1.426438E+06 -2.817266E+05 -2.413904E+05  5.165596E-11 -4.446656E-10
       126  18 -2.471331E+05 -9.626858E+05 -1.883114E+05 -3.414998E+05 -7.423064E-10  1.828646E-10
       126  19  5.491797E+05  1.992390E+06  5.474737E+05 -3.720754E+05 -2.261859E+04 -1.310777E+05
       126  20  3.628525E+05  1.517621E+06  3.584277E+05 -2.720309E+05 -6.656993E+04 -5.181265E+04
       126  21  2.446299E+05  1.070411E+06  2.379107E+05 -3.273222E+05 -5.710197E+04  2.744721E+04
       126  22  6.809014E+04  5.295903E+04  7.958057E+04 -3.343096E+05 -2.273837E+04 -5.292491E+04
       126  23  4.460793E+03  4.457590E+04  3.841899E+04 -2.566925E+05 -6.661534E+04 -3.285130E+04
       126  24 -1.216885E+03  5.337442E+04  2.483107E+04 -3.344160E+05 -5.702156E+04 -1.272237E+04
       126  25 -4.132656E+05 -1.883023E+06 -3.885581E+05 -2.966600E+05 -2.284891E+04  2.498537E+04
       126  26 -3.540737E+05 -1.426437E+06 -2.817179E+05 -2.413896E+05 -6.665988E+04 -1.393420E+04
       126  27 -2.471288E+05 -9.626819E+05 -1.883001E+05 -3.414974E+05 -5.694015E+04 -5.282728E+04
       127   1  1.668996E+05  7.233914E+05  1.631420E+05 -3.375828E+05  3.716746E+04 -1.794548E+04
       127   2  5.255354E+04  2.620366E+05  6.233054E+04 -2.563386E+05  1.252756E+04 -2.762767E+04
       127   3 -5.578645E+04 -1.970312E+05 -3.086723E+04 -3.330079E+05 -1.265545E+04 -3.730994E+04
       127   4  3.985435E+03  5.011945E+04  2.158563E+04 -3.349644E+05  3.710781E+04  8.994817E+03
       127   5  1.134525E+03  4.915805E+04  1.807792E+04 -2.560066E+05  1.246395E+04 -9.071476E+01
       127   6  4.199763E+03  5.017990E+04  2.177857E+04 -3.349641E+05 -1.272372E+04 -9.183211E+03
       127   7 -1.589575E+05 -6.227231E+05 -1.199934E+05 -3.323485E+05  3.704835E+04  3.590638E+04
       127   8 -5.028697E+04 -1.636760E+05 -2.617434E+04 -2.556746E+05  1.240036E+04  2.743697E+04
       127   9  6.418244E+04  2.974503E+05  7.442382E+04 -3.369210E+05 -1.279216E+04  1.895455E+04
       127  10  1.668981E+05  7.233907E+05  1.631388E+05 -3.375823E+05 -1.139302E-09  8.007308E-10
       127  11  5.255317E+04  2.620357E+05  6.232881E+04 -2.563383E+05 -1.593438E-09 -2.413270E-09
       127  12 -5.578700E+04 -1.970327E+05 -3.087015E+04 -3.330083E+05 -1.145964E-10  7.093805E-10
       127  13  3.983935E+03  5.011900E+04  2.158289E+04 -3.349646E+05  1.044730E-09  9.471535E-10
       127  14  1.134358E+03  4.915800E+04  1.807763E+04 -2.560066E+05  3.126214E-09 -9.050841E-11
       127  15  4.199566E+03  5.017976E+04  2.177810E+04 -3.349642E+05 -1.452494E-09  6.241854E-10
       127  16 -1.589593E+05 -6.227248E+05 -1.199984E+05 -3.323495E+05 -4.618798E-10 -8.120020E-10
       127  17 -5.028734E+04 -1.636768E+05 -2.617605E+04 -2.556749E+05 -1.662909E-09 -1.495902E-09
       127  18  6.418217E+04  2.974499E+05  7.442284E+04 -3.369208E+05 -3.538510E-10 -9.891426E-10
       127  19  1.668996E+05  7.233914E+05  1.631420E+05 -3.375828E+05 -3.716746E+04  1.794548E+04
       127  20  5.255354E+04  2.620366E+05  6.233054E+04 -2.563386E+05 -1.252756E+04  2.762767E+04
       127  21 -5.578645E+04 -1.970312E+05 -3.086723E+04 -3.330079E+05  1.265545E+04  3.730994E+04
       127  22  3.985435E+03  5.011945E+04  2.158563E+04 -3.349644E+05 -3.710781E+04 -8.994817E+03
       127  23  1.134525E+03  4.915805E+04  1.807792E+04 -2.560066E+05 -1.246395E+04  9.071476E+01
       127  24  4.199763E+03  5.017990E+04  2.177857E+04 -3.349641E+05  1.272372E+04  9.183211E+03
       127  25 -1.589575E+05 -6.227231E+05 -1.199934E+05 -3.323485E+05 -3.704835E+04 -3.590638E+04
       127  26 -5.028697E+04 -1.636760E+05 -2.617434E+04 -2.556746E+05 -1.240036E+04 -2.743697E+04
       127  27  6.418244E+04  2.974503E+05  7.442382E+04 -3.369210E+05  1.279216E+04 -1.895455E+04
       128   1 -1.439700E+05 -5.367817E+05 -9.940511E+04 -3.423053E+05 -3.199656E+04 -5.134706E+04
       128   2 -2.503535E+05 -1.001486E+06 -1.899261E+05 -2.412975E+05 -4.556735E+04 -2.475926E+04
       128   3 -3.061476E+05 -1.457082E+06 -2.852169E+05 -2.962028E+05 -1.648937E+04  1.870786E+03
       128   4 -1.028590E+03  5.346582E+04  2.510114E+04 -3.345407E+05 -3.208622E+04 -1.294405E+04
       128   5  4.881583E+03  4.479670E+04  3.901706E+04 -2.565362E+05 -4.554364E+04 -3.341024E+04
       128   6  6.951283E+04  5.316970E+04  8.083501E+04 -3.344118E+05 -1.638670E+04 -5.381460E+04
       128   7  1.418914E+05  6.440457E+05  1.495933E+05 -3.267683E+05 -3.217486E+04  2.549494E+04
       128   8  2.600444E+05  1.092106E+06  2.678944E+05 -2.718001E+05 -4.551954E+04 -4.207560E+04
       128   9  4.450128E+05  1.565517E+06  4.467350E+05 -3.727127E+05 -1.627733E+04 -1.096351E+05
       128  10 -1.439719E+05 -5.367848E+05 -9.941200E+04 -3.423066E+05  2.114617E-10  1.064543E-09
       128  11 -2.503559E+05 -1.001487E+06 -1.899312E+05 -2.412985E+05  2.269346E-09 -2.595799E-09
       128  12 -3.061479E+05 -1.457082E+06 -2.852175E+05 -2.962028E+05  1.231328E-09 -7.088292E-10
       128  13 -1.029741E+03  5.346536E+04  2.509889E+04 -3.345410E+05 -1.234852E-09  9.855454E-10
       128  14  4.879055E+03  4.479494E+04  3.901106E+04 -2.565374E+05 -7.815906E-10 -2.660841E-11
       128  15  6.951177E+04  5.316652E+04  8.082906E+04 -3.344125E+05 -8.455818E-10  4.100158E-10
       128  16  1.418902E+05  6.440447E+05  1.495901E+05 -3.267677E+05 -8.623802E-10 -1.141104E-09
       128  17  2.600417E+05  1.092103E+06  2.678871E+05 -2.718017E+05 -1.481179E-09 -6.584352E-10
       128  18  4.450093E+05  1.565504E+06  4.467119E+05 -3.727142E+05 -6.743324E-10  4.346359E-10
       128  19 -1.439700E+05 -5.367817E+05 -9.940511E+04 -3.423053E+05  3.199656E+04  5.134706E+04
       128  20 -2.503535E+05 -1.001486E+06 -1.899261E+05 -2.412975E+05  4.556735E+04  2.475926E+04
       128  21 -3.061476E+05 -1.457082E+06 -2.852169E+05 -2.962028E+05  1.648937E+04 -1.870786E+03
       128  22 -1.028590E+03  5.346582E+04  2.510114E+04 -3.345407E+05  3.208622E+04  1.294405E+04
       128  23  4.881583E+03  4.479670E+04  3.901706E+04 -2.565362E+05  4.554364E+04  3.341024E+04
       128  24  6.951283E+04  5.316970E+04  8.083501E+04 -3.344118E+05  1.638670E+04  5.381460E+04
       128  25  1.418914E+05  6.440457E+05  1.495933E+05 -3.267683E+05  3.217486E+04 -2.549494E+04
       128  26  2.600444E+05  1.092106E+06  2.678944E+05 -2.718001E+05  4.551954E+04  4.207560E+04
       128  27  4.450128E+05  1.565517E+06  4.467350E+05 -3.727127E+05  1.627733E+04  1.096351E+05
       129   1 -1.484492E+06 -5.446258E+05 -3.109594E+05 -5.629723E+05 -1.373311E+05 -4.282237E+04
       129   2 -1.433008E+06 -3.587072E+05 -1.874124E+05 -5.458268E+05 -8.762623E+04 -5.292509E+03
       129   3 -1.420433E+06 -3.071634E+05 -1.384597E+05 -5.143458E+05 -3.219630E+04  1.702101E+04
       129   4 -1.005861E+06 -2.975887E+05 -1.712842E+05 -3.635574E+05 -1.124772E+05 -3.350502E+04
       129   5 -9.785513E+05 -1.654233E+05 -7.552684E+04 -3.956922E+05 -7.844755E+04 -1.851803E+03
       129   6 -9.870047E+05 -1.644760E+05 -4.188836E+04 -4.135040E+05 -3.869854E+04  1.457991E+04
       129   7 -5.269954E+05 -5.047042E+04 -3.162824E+04 -1.639835E+05 -8.760243E+04 -2.417304E+04
       129   8 -5.238859E+05  2.789462E+04  3.634364E+04 -2.454504E+05 -6.926153E+04  1.592573E+03
       129   9 -5.533856E+05 -2.178292E+04  5.467223E+04 -3.126014E+05 -4.520575E+04  1.213742E+04
       129  10 -1.484512E+06 -5.446328E+05 -3.109984E+05 -5.629771E+05 -1.661240E-09  6.816895E-11
       129  11 -1.433016E+06 -3.587093E+05 -1.874269E+05 -5.458272E+05  1.249865E-10  4.159602E-10
       129  12 -1.420434E+06 -3.071640E+05 -1.384622E+05 -5.143454E+05  4.096050E-10 -3.889131E-10
       129  13 -1.005875E+06 -2.975933E+05 -1.713101E+05 -3.635604E+05  4.689717E-10  1.036387E-09
       129  14 -9.785579E+05 -1.654249E+05 -7.553843E+04 -3.956923E+05  2.036058E-10 -1.403153E-10
       129  15 -9.870063E+05 -1.644766E+05 -4.189158E+04 -4.135036E+05 -8.254670E-10 -5.067131E-10
       129  16 -5.270038E+05 -5.047311E+04 -3.164377E+04 -1.639852E+05  1.346475E-10  7.154390E-10
       129  17 -5.238910E+05  2.789333E+04  3.633461E+04 -2.454503E+05 -3.615987E-10  4.044988E-10
       129  18 -5.533878E+05 -2.178363E+04  5.466812E+04 -3.126010E+05 -3.766439E-09 -5.764303E-10
       129  19 -1.484492E+06 -5.446258E+05 -3.109594E+05 -5.629723E+05  1.373311E+05  4.282237E+04
       129  20 -1.433008E+06 -3.587072E+05 -1.874124E+05 -5.458268E+05  8.762623E+04  5.292509E+03
       129  21 -1.420433E+06 -3.071634E+05 -1.384597E+05 -5.143458E+05  3.219630E+04 -1.702101E+04
       129  22 -1.005861E+06 -2.975887E+05 -1.712842E+05 -3.635574E+05  1.124772E+05  3.350502E+04
       129  23 -9.785513E+05 -1.654233E+05 -7.552684E+04 -3.956922E+05  7.844755E+04  1.851803E+03
       129  24 -9.870047E+05 -1.644760E+05 -4.188836E+04 -4.135040E+05  3.869854E+04 -1.457991E+04
       129  25 -5.269954E+05 -5.047042E+04 -3.162824E+04 -1.639835E+05  8.760243E+04  2.417304E+04
       129  26 -5.238859E+05  2.789462E+04  3.634364E+04 -2.454504E+05  6.926153E+04 -1.592573E+03
       129  27 -5.533856E+05 -2.178292E+04  5.467223E+04 -3.126014E+05  4.520575E+04 -1.213742E+04
       130   1 -1.359202E+06 -3.168346E+05 -1.203289E+05 -5.129292E+05 -3.009264E+04  1.428307E+04
       130   2 -1.311759E+06 -2.824139E+05 -9.180643E+04 -4.903916E+05 -1.972891E+04  1.521317E+04
       130   3 -1.253469E+06 -2.683714E+05 -7.189656E+04 -4.830330E+05 -9.093686E+03  1.541831E+04
       130   4 -9.815610E+05 -1.748735E+05 -3.279831E+04 -4.068967E+05 -3.240442E+04  1.341426E+04
       130   5 -9.866071E+05 -1.616267E+05 -1.711845E+04 -4.004778E+05 -2.278345E+04  1.406640E+04
       130   6 -9.806602E+05 -1.686076E+05 -9.457407E+03 -4.092385E+05 -1.289194E+04  1.399342E+04
       130   7 -6.037767E+05 -3.290073E+04  5.472254E+04 -3.008046E+05 -3.471773E+04  1.254485E+04
       130   8 -6.613504E+05 -4.083173E+04  5.756222E+04 -3.105212E+05 -2.583972E+04  1.291899E+04
       130   9 -7.077786E+05 -6.883929E+04  5.297640E+04 -3.354150E+05 -1.669198E+04  1.256788E+04
       130  10 -1.359203E+06 -3.168351E+05 -1.203310E+05 -5.129289E+05 -3.329367E-09 -1.060680E-09
       130  11 -1.311759E+06 -2.824143E+05 -9.180760E+04 -4.903913E+05 -6.941330E-10  3.005868E-10
       130  12 -1.253469E+06 -2.683717E+05 -7.189716E+04 -4.830328E+05 -5.997563E-11  1.478553E-10
       130  13 -9.815622E+05 -1.748740E+05 -3.280062E+04 -4.068963E+05 -4.071705E-09 -6.953350E-10
       130  14 -9.866077E+05 -1.616270E+05 -1.711979E+04 -4.004776E+05 -3.325044E-10 -2.277592E-11
       130  15 -9.806604E+05 -1.686078E+05 -9.458088E+03 -4.092384E+05  1.847510E-10  1.137932E-10
       130  16 -6.037781E+05 -3.290123E+04  5.471997E+04 -3.008043E+05 -2.036717E-09 -2.150262E-10
       130  17 -6.613512E+05 -4.083209E+04  5.756065E+04 -3.105209E+05  2.707214E-09 -3.820537E-10
       130  18 -7.077789E+05 -6.883953E+04  5.297558E+04 -3.354149E+05  9.082757E-10  1.380713E-10
       130  19 -1.359202E+06 -3.168346E+05 -1.203289E+05 -5.129292E+05  3.009264E+04 -1.428307E+04
       130  20 -1.311759E+06 -2.824139E+05 -9.180643E+04 -4.903916E+05  1.972891E+04 -1.521317E+04
       130  21 -1.253469E+06 -2.683714E+05 -7.189656E+04 -4.830330E+05  9.093686E+03 -1.541831E+04
       130  22 -9.815610E+05 -1.748735E+05 -3.279831E+04 -4.068967E+05  3.240442E+04 -1.341426E+04
       130  23 -9.866071E+05 -1.616267E+05 -1.711845E+04 -4.004778E+05  2.278345E+04 -1.406640E+04
       130  24 -9.806602E+05 -1.686076E+05 -9.457407E+03 -4.092385E+05  1.289194E+04 -1.399342E+04
       130  25 -6.037767E+05 -3.290073E+04  5.472254E+04 -3.008046E+05  3.471773E+04 -1.254485E+04
       130  26 -6.613504E+05 -4.083173E+04  5.756222E+04 -3.105212E+05  2.583972E+04 -1.291899E+04
       130  27 -7.077786E+05 -6.883929E+04  5.297640E+04 -3.354150E+05  1.669198E+04 -1.256788E+04
       131   1 -1.211035E+06 -2.542633E+05 -5.982802E+04 -4.721921E+05 -7.156784E+03  1.373010E+04
       131   2 -1.164036E+06 -2.268500E+05 -4.438469E+04 -4.491461E+05 -3.836449E+03  1.096541E+04
       131   3 -1.103007E+06 -2.141632E+05 -3.051062E+04 -4.426051E+05 -5.020558E+02  8.161444E+03
       131   4 -9.802212E+05 -1.690931E+05 -7.161519E+03 -4.088904E+05 -1.076554E+04  1.237663E+04
       131   5 -9.872169E+05 -1.616081E+05 -3.931128E+03 -4.006827E+05 -7.485098E+03  9.597405E+03
       131   6 -9.801780E+05 -1.688418E+05 -2.238142E+03 -4.089811E+05 -4.190795E+03  6.778852E+03
       131   7 -7.493522E+05 -8.391845E+04  4.550191E+04 -3.455668E+05 -1.437578E+04  1.102262E+04
       131   8 -8.103656E+05 -9.636363E+04  3.652057E+04 -3.522066E+05 -1.113489E+04  8.228977E+03
       131   9 -8.573342E+05 -1.235193E+05  2.603339E+04 -3.753510E+05 -7.880328E+03  5.395964E+03
       131  10 -1.211035E+06 -2.542635E+05 -5.982847E+04 -4.721920E+05  2.114102E-09  1.303356E-10
       131  11 -1.164036E+06 -2.268502E+05 -4.438494E+04 -4.491461E+05 -6.016844E-10 -1.781479E-10
       131  12 -1.103007E+06 -2.141632E+05 -3.051074E+04 -4.426050E+05  3.064568E-10 -5.919155E-10
       131  13 -9.802213E+05 -1.690933E+05 -7.162024E+03 -4.088903E+05 -1.075155E-09 -6.518350E-11
       131  14 -9.872170E+05 -1.616082E+05 -3.931406E+03 -4.006827E+05 -3.978670E-10 -3.620402E-10
       131  15 -9.801780E+05 -1.688418E+05 -2.238261E+03 -4.089811E+05  4.368217E-10 -1.992053E-10
       131  16 -7.493525E+05 -8.391864E+04  4.550130E+04 -3.455666E+05 -9.758714E-10 -2.754721E-10
       131  17 -8.103657E+05 -9.636373E+04  3.652021E+04 -3.522065E+05 -1.254492E-09 -6.693783E-10
       131  18 -8.573343E+05 -1.235193E+05  2.603321E+04 -3.753510E+05 -1.762932E-09  1.983519E-10
       131  19 -1.211035E+06 -2.542633E+05 -5.982802E+04 -4.721921E+05  7.156784E+03 -1.373010E+04
       131  20 -1.164036E+06 -2.268500E+05 -4.438469E+04 -4.491461E+05  3.836449E+03 -1.096541E+04
       131  21 -1.103007E+06 -2.141632E+05 -3.051062E+04 -4.426051E+05  5.020558E+02 -8.161444E+03
       131  22 -9.802212E+05 -1.690931E+05 -7.161519E+03 -4.088904E+05  1.076554E+04 -1.237663E+04
       131  23 -9.872169E+05 -1.616081E+05 -3.931128E+03 -4.006827E+05  7.485098E+03 -9.597405E+03
       131  24 -9.801780E+05 -1.688418E+05 -2.238142E+03 -4.089811E+05  4.190795E+03 -6.778852E+03
       131  25 -7.493522E+05 -8.391845E+04  4.550191E+04 -3.455668E+05  1.437578E+04 -1.102262E+04
       131  26 -8.103656E+05 -9.636363E+04  3.652057E+04 -3.522066E+05  1.113489E+04 -8.228977E+03
       131  27 -8.573342E+05 -1.235193E+05  2.603339E+04 -3.753510E+05  7.880328E+03 -5.395964E+03
       132   1 -1.061461E+06 -1.988415E+05 -2.016651E+04 -4.312685E+05  6.006941E+02  6.202786E+03
       132   2 -1.014472E+06 -1.716507E+05 -7.347441E+03 -4.081205E+05  2.504786E+03  2.845815E+03
       132   3 -9.531317E+05 -1.589164E+05  5.045243E+03 -4.015353E+05  4.409712E+03 -5.137160E+02
       132   4 -9.801175E+05 -1.688627E+05 -1.740042E+03 -4.089634E+05 -3.082192E+03  4.822544E+03
       132   5 -9.872908E+05 -1.616333E+05 -1.132114E+03 -4.006817E+05 -1.180824E+03  1.464622E+03
       132   6 -9.801163E+05 -1.688601E+05 -9.484623E+02 -4.089640E+05  7.213147E+02 -1.895862E+03
       132   7 -8.987670E+05 -1.388836E+05  1.668600E+04 -3.866556E+05 -6.765593E+03  3.442109E+03
       132   8 -9.601090E+05 -1.516159E+05  5.083172E+03 -3.932426E+05 -4.866585E+03  8.337237E+01
       132   9 -1.007100E+06 -1.788036E+05 -6.942070E+03 -4.163923E+05 -2.966867E+03 -3.277927E+03
       132  10 -1.061461E+06 -1.988415E+05 -2.016658E+04 -4.312685E+05  4.163078E-10  4.776857E-11
       132  11 -1.014472E+06 -1.716507E+05 -7.347469E+03 -4.081205E+05 -2.313325E-09 -1.023655E-10
       132  12 -9.531317E+05 -1.589164E+05  5.045206E+03 -4.015353E+05 -7.346924E-10  2.358062E-10
       132  13 -9.801175E+05 -1.688628E+05 -1.740103E+03 -4.089633E+05  1.635508E-10 -2.577047E-10
       132  14 -9.872908E+05 -1.616333E+05 -1.132121E+03 -4.006817E+05  4.126893E-10  3.947481E-10
       132  15 -9.801163E+05 -1.688601E+05 -9.484700E+02 -4.089640E+05 -1.134630E-09 -5.348908E-10
       132  16 -8.987671E+05 -1.388836E+05  1.668589E+04 -3.866556E+05 -1.165468E-09  3.149686E-10
       132  17 -9.601091E+05 -1.516159E+05  5.083127E+03 -3.932426E+05  6.736424E-10  4.654902E-10
       132  18 -1.007100E+06 -1.788037E+05 -6.942106E+03 -4.163923E+05 -3.037669E-11  4.126927E-11
       132  19 -1.061461E+06 -1.988415E+05 -2.016651E+04 -4.312685E+05 -6.006941E+02 -6.202786E+03
       132  20 -1.014472E+06 -1.716507E+05 -7.347441E+03 -4.081205E+05 -2.504786E+03 -2.845815E+03
       132  21 -9.531317E+05 -1.589164E+05  5.045243E+03 -4.015353E+05 -4.409712E+03  5.137160E+02
       132  22 -9.801175E+05 -1.688627E+05 -1.740042E+03 -4.089634E+05  3.082192E+03 -4.822544E+03
       132  23 -9.872908E+05 -1.616333E+05 -1.132114E+03 -4.006817E+05  1.180824E+03 -1.464622E+03
       132  24 -9.801163E+05 -1.688601E+05 -9.484623E+02 -4.089640E+05 -7.213147E+02  1.895862E+03
       132  25 -8.987670E+05 -1.388836E+05  1.668600E+04 -3.866556E+05  6.765593E+03 -3.442109E+03
       132  26 -9.601090E+05 -1.516159E+05  5.083172E+03 -3.932426E+05  4.866585E+03 -8.337237E+01
       132  27 -1.007100E+06 -1.788036E+05 -6.942070E+03 -4.163923E+05  2.966867E+03  3.277927E+03
       133   1 -9.116384E+05 -1.435224E+05  1.486753E+04 -3.901618E+05  5.348320E+03 -2.533270E+03
       133   2 -8.647028E+05 -1.163708E+05  2.671243E+04 -3.670384E+05  7.341762E+03 -5.855550E+03
       133   3 -8.034425E+05 -1.036611E+05  3.806472E+04 -3.604578E+05  9.333613E+03 -9.171666E+03
       133   4 -9.801227E+05 -1.688570E+05 -9.833624E+02 -4.089599E+05  1.661323E+03 -3.914964E+03
       133   5 -9.872864E+05 -1.616405E+05 -1.329837E+03 -4.006868E+05  3.660741E+03 -7.235337E+03
       133   6 -9.801282E+05 -1.688674E+05 -2.173360E+03 -4.089578E+05  5.658499E+03 -1.054955E+04
       133   7 -1.048603E+06 -1.941917E+05 -1.683477E+04 -4.277564E+05 -2.025281E+03 -5.296512E+03
       133   8 -1.109856E+06 -2.069095E+05 -2.937339E+04 -4.343295E+05 -1.952875E+01 -8.614844E+03
       133   9 -1.156784E+06 -2.340719E+05 -4.241380E+04 -4.574456E+05  1.984492E+03 -1.192702E+04
       133  10 -9.116384E+05 -1.435224E+05  1.486746E+04 -3.901617E+05  7.840770E-10 -1.743006E-10
       133  11 -8.647029E+05 -1.163708E+05  2.671226E+04 -3.670384E+05 -3.874504E-10 -4.257901E-10
       133  12 -8.034426E+05 -1.036612E+05  3.806440E+04 -3.604577E+05 -6.727935E-10 -4.179744E-10
       133  13 -9.801227E+05 -1.688571E+05 -9.833964E+02 -4.089599E+05  5.197969E-10  1.589641E-10
       133  14 -9.872864E+05 -1.616405E+05 -1.329961E+03 -4.006868E+05  1.429112E-09 -7.876886E-10
       133  15 -9.801283E+05 -1.688675E+05 -2.173629E+03 -4.089578E+05 -1.070457E-09 -4.613786E-10
       133  16 -1.048603E+06 -1.941917E+05 -1.683483E+04 -4.277565E+05  1.065059E-09  1.031504E-10
       133  17 -1.109856E+06 -2.069096E+05 -2.937353E+04 -4.343295E+05 -2.825296E-10 -3.574991E-10
       133  18 -1.156784E+06 -2.340720E+05 -4.241408E+04 -4.574456E+05 -1.498874E-10  1.337375E-10
       133  19 -9.116384E+05 -1.435224E+05  1.486753E+04 -3.901618E+05 -5.348320E+03  2.533270E+03
       133  20 -8.647028E+05 -1.163708E+05  2.671243E+04 -3.670384E+05 -7.341762E+03  5.855550E+03
       133  21 -8.034425E+05 -1.036611E+05  3.806472E+04 -3.604578E+05 -9.333613E+03  9.171666E+03
       133  22 -9.801227E+05 -1.688570E+05 -9.833624E+02 -4.089599E+05 -1.661323E+03  3.914964E+03
       133  23 -9.872864E+05 -1.616405E+05 -1.329837E+03 -4.006868E+05 -3.660741E+03  7.235337E+03
       133  24 -9.801282E+05 -1.688674E+05 -2.173360E+03 -4.089578E+05 -5.658499E+03  1.054955E+04
       133  25 -1.048603E+06 -1.941917E+05 -1.683477E+04 -4.277564E+05  2.025281E+03  5.296512E+03
       133  26 -1.109856E+06 -2.069095E+05 -2.937339E+04 -4.343295E+05  1.952875E+01  8.614844E+03
       133  27 -1.156784E+06 -2.340719E+05 -4.241380E+04 -4.574456E+05 -1.984492E+03  1.192702E+04
       134   1 -7.621341E+05 -8.833289E+04  4.722266E+04 -3.491881E+05  1.053069E+04 -1.108880E+04
       134   2 -7.153059E+05 -6.126428E+04  5.714619E+04 -3.261100E+05  1.432764E+04 -1.370212E+04
       134   3 -6.545782E+05 -4.894318E+04  6.513746E+04 -3.194679E+05  1.810807E+04 -1.626703E+04
       134   4 -9.802156E+05 -1.688355E+05 -2.834536E+03 -4.089744E+05  6.850684E+03 -1.246882E+04
       134   5 -9.871868E+05 -1.616207E+05 -5.044637E+03 -4.006964E+05  1.069600E+04 -1.506465E+04
       134   6 -9.802720E+05 -1.691638E+05 -9.226080E+03 -4.088558E+05  1.452457E+04 -1.761216E+04
       134   7 -1.198247E+06 -2.493338E+05 -5.289418E+04 -4.687408E+05  3.172124E+03 -1.384829E+04
       134   8 -1.258993E+06 -2.619714E+05 -6.724004E+04 -4.752526E+05  7.066090E+03 -1.642654E+04
       134   9 -1.305861E+06 -2.893771E+05 -8.359694E+04 -4.982013E+05  1.094309E+04 -1.895654E+04
       134  10 -7.621343E+05 -8.833305E+04  4.722222E+04 -3.491881E+05 -1.191378E-09  3.418102E-12
       134  11 -7.153061E+05 -6.126454E+04  5.714545E+04 -3.261099E+05  1.494942E-10  7.397354E-10
       134  12 -6.545786E+05 -4.894355E+04  6.513635E+04 -3.194676E+05  2.561521E-09  2.755383E-10
       134  13 -9.802157E+05 -1.688357E+05 -2.834917E+03 -4.089744E+05 -7.810397E-10  3.436521E-10
       134  14 -9.871870E+05 -1.616210E+05 -5.045279E+03 -4.006963E+05  1.298972E-09  8.383168E-10
       134  15 -9.802723E+05 -1.691642E+05 -9.227059E+03 -4.088556E+05  2.579644E-09  5.696712E-10
       134  16 -1.198247E+06 -2.493340E+05 -5.289456E+04 -4.687408E+05  9.987702E-10  5.120596E-10
       134  17 -1.258993E+06 -2.619717E+05 -6.724064E+04 -4.752525E+05  2.305593E-09  4.111820E-10
       134  18 -1.305861E+06 -2.893776E+05 -8.359784E+04 -4.982011E+05  2.292549E-09  7.418800E-10
       134  19 -7.621341E+05 -8.833289E+04  4.722266E+04 -3.491881E+05 -1.053069E+04  1.108880E+04
       134  20 -7.153059E+05 -6.126428E+04  5.714619E+04 -3.261100E+05 -1.432764E+04  1.370212E+04
       134  21 -6.545782E+05 -4.894318E+04  6.513746E+04 -3.194679E+05 -1.810807E+04  1.626703E+04
       134  22 -9.802156E+05 -1.688355E+05 -2.834536E+03 -4.089744E+05 -6.850684E+03  1.246882E+04
       134  23 -9.871868E+05 -1.616207E+05 -5.044637E+03 -4.006964E+05 -1.069600E+04  1.506465E+04
       134  24 -9.802720E+05 -1.691638E+05 -9.226080E+03 -4.088558E+05 -1.452457E+04  1.761216E+04
       134  25 -1.198247E+06 -2.493338E+05 -5.289418E+04 -4.687408E+05 -3.172124E+03  1.384829E+04
       134  26 -1.258993E+06 -2.619714E+05 -6.724004E+04 -4.752526E+05 -7.066090E+03  1.642654E+04
       134  27 -1.305861E+06 -2.893771E+05 -8.359694E+04 -4.982013E+05 -1.094309E+04  1.895654E+04
       135   1 -6.131385E+05 -3.400583E+04  7.188384E+04 -3.097066E+05  2.083961E+04 -1.765344E+04
       135   2 -5.670281E+05 -5.843791E+03  7.418826E+04 -2.843755E+05  3.234892E+04 -1.704854E+04
       135   3 -5.107880E+05  6.257847E+02  6.684140E+04 -2.737690E+05  4.354193E+04 -1.559382E+04
       135   4 -9.808426E+05 -1.685382E+05 -1.219374E+04 -4.093066E+05  1.703547E+04 -1.908183E+04
       135   5 -9.863992E+05 -1.616457E+05 -2.208521E+04 -4.004314E+05  2.941428E+04 -1.815168E+04
       135   6 -9.820044E+05 -1.766227E+05 -4.232284E+04 -4.062824E+05  4.147581E+04 -1.637184E+04
       135   7 -1.348409E+06 -3.030604E+05 -9.627961E+04 -5.088524E+05  1.323381E+04 -2.050931E+04
       135   8 -1.405594E+06 -3.174341E+05 -1.183704E+05 -5.164155E+05  2.648178E+04 -1.925402E+04
       135   9 -1.453001E+06 -3.538539E+05 -1.515030E+05 -5.387039E+05  3.941136E+04 -1.714920E+04
       135  10 -6.131390E+05 -3.400628E+04  7.188243E+04 -3.097063E+05  4.562059E-09 -1.342451E-10
       135  11 -5.670293E+05 -5.844383E+03  7.418574E+04 -2.843750E+05  3.127009E-09 -6.405615E-10
       135  12 -5.107901E+05  6.250147E+02  6.683738E+04 -2.737684E+05 -6.205331E-10  7.699804E-12
       135  13 -9.808430E+05 -1.685386E+05 -1.219497E+04 -4.093063E+05  4.368055E-09 -5.072051E-11
       135  14 -9.864002E+05 -1.616463E+05 -2.208745E+04 -4.004310E+05 -2.864463E-10  1.031719E-11
       135  15 -9.820063E+05 -1.766235E+05 -4.232658E+04 -4.062818E+05  1.989978E-09  5.743351E-10
       135  16 -1.348409E+06 -3.030609E+05 -9.628073E+04 -5.088522E+05  1.383608E-09  2.135636E-10
       135  17 -1.405595E+06 -3.174347E+05 -1.183724E+05 -5.164151E+05 -6.862210E-10 -3.592899E-10
       135  18 -1.453003E+06 -3.538547E+05 -1.515064E+05 -5.387033E+05  5.964077E-10 -1.827505E-10
       135  19 -6.131385E+05 -3.400583E+04  7.188384E+04 -3.097066E+05 -2.083961E+04  1.765344E+04
       135  20 -5.670281E+05 -5.843791E+03  7.418826E+04 -2.843755E+05 -3.234892E+04  1.704854E+04
       135  21 -5.107880E+05  6.257847E+02  6.684140E+04 -2.737690E+05 -4.354193E+04  1.559382E+04
       135  22 -9.808426E+05 -1.685382E+05 -1.219374E+04 -4.093066E+05 -1.703547E+04  1.908183E+04
       135  23 -9.863992E+05 -1.616457E+05 -2.208521E+04 -4.004314E+05 -2.941428E+04  1.815168E+04
       135  24 -9.820044E+05 -1.766227E+05 -4.232284E+04 -4.062824E+05 -4.147581E+04  1.637184E+04
       135  25 -1.348409E+06 -3.030604E+05 -9.627961E+04 -5.088524E+05 -1.323381E+04  2.050931E+04
       135  26 -1.405594E+06 -3.174341E+05 -1.183704E+05 -5.164155E+05 -2.648178E+04  1.925402E+04
       135  27 -1.453001E+06 -3.538539E+05 -1.515030E+05 -5.387039E+05 -3.941136E+04  1.714920E+04
       136   1 -4.579784E+05  1.042169E+04  6.396183E+04 -2.923623E+05  5.629293E+04 -1.451817E+04
       136   2 -4.336123E+05  6.660786E+04  3.632219E+04 -2.123999E+05  8.906443E+04  2.801318E+02
       136   3 -4.558901E+05 -3.861830E+04 -5.688455E+04 -1.091615E+05  1.151476E+05  3.287980E+04
       136   4 -9.890095E+05 -1.632251E+05 -5.405428E+04 -4.148317E+05  4.932166E+04 -1.713687E+04
       136   5 -9.760228E+05 -1.665181E+05 -9.746103E+04 -3.942301E+05  1.004379E+05  4.546683E+03
       136   6 -1.013380E+06 -3.349596E+05 -2.210301E+05 -3.503427E+05  1.448593E+05  4.403067E+04
       136   7 -1.519760E+06 -3.368659E+05 -1.720880E+05 -5.372124E+05  4.235684E+04 -1.975379E+04
       136   8 -1.518130E+06 -3.995907E+05 -2.312642E+05 -5.759031E+05  1.118004E+05  8.807655E+03
       136   9 -1.570531E+06 -6.311680E+05 -3.851962E+05 -5.912904E+05  1.745410E+05  5.515983E+04
       136  10 -4.579819E+05  1.042062E+04  6.395548E+04 -2.923616E+05 -1.150166E-09  7.892789E-10
       136  11 -4.336209E+05  6.660573E+04  3.630727E+04 -2.123999E+05 -2.898557E-10  1.014578E-09
       136  12 -4.559046E+05 -3.862302E+04 -5.691152E+04 -1.091646E+05 -1.273829E-11  9.732149E-10
       136  13 -9.890122E+05 -1.632260E+05 -5.405941E+04 -4.148310E+05  6.546491E-10 -4.276400E-10
       136  14 -9.760336E+05 -1.665209E+05 -9.748005E+04 -3.942305E+05  6.009868E-10  5.023569E-10
       136  15 -1.013403E+06 -3.349674E+05 -2.210733E+05 -3.503478E+05  6.544527E-10  3.443895E-12
       136  16 -1.519762E+06 -3.368668E+05 -1.720921E+05 -5.372117E+05  5.388800E-10 -1.763168E-10
       136  17 -1.518143E+06 -3.995942E+05 -2.312879E+05 -5.759039E+05 -4.829584E-10 -3.763372E-10
       136  18 -1.570565E+06 -6.311795E+05 -3.852593E+05 -5.912982E+05 -5.715499E-10 -1.423776E-10
       136  19 -4.579784E+05  1.042169E+04  6.396183E+04 -2.923623E+05 -5.629293E+04  1.451817E+04
       136  20 -4.336123E+05  6.660786E+04  3.632219E+04 -2.123999E+05 -8.906443E+04 -2.801318E+02
       136  21 -4.558901E+05 -3.861830E+04 -5.688455E+04 -1.091615E+05 -1.151476E+05 -3.287980E+04
       136  22 -9.890095E+05 -1.632251E+05 -5.405428E+04 -4.148317E+05 -4.932166E+04  1.713687E+04
       136  23 -9.760228E+05 -1.665181E+05 -9.746103E+04 -3.942301E+05 -1.004379E+05 -4.546683E+03
       136  24 -1.013380E+06 -3.349596E+05 -2.210301E+05 -3.503427E+05 -1.448593E+05 -4.403067E+04
       136  25 -1.519760E+06 -3.368659E+05 -1.720880E+05 -5.372124E+05 -4.235684E+04  1.975379E+04
       136  26 -1.518130E+06 -3.995907E+05 -2.312642E+05 -5.759031E+05 -1.118004E+05 -8.807655E+03
       136  27 -1.570531E+06 -6.311680E+05 -3.851962E+05 -5.912904E+05 -1.745410E+05 -5.515983E+04
       137   1 -6.949704E+04 -2.189899E+04 -1.354856E+04  5.396914E+03  1.866278E+04  3.292321E+03
       137   2 -5.388759E+04 -5.074433E+04 -2.668801E+04 -3.581782E+03  1.490469E+04  1.054369E+04
       137   3 -3.023383E+04 -4.944847E+04 -2.984290E+04 -1.896977E+04  1.114936E+04  1.155619E+04
       137   4  1.687943E+05  3.717503E+04  4.365708E+04 -1.411384E+04  3.012126E+04  3.296940E+03
       137   5  1.641789E+05  2.247069E+03  2.025010E+04 -1.090157E+04  1.947280E+04  1.054508E+04
       137   6  1.687999E+05 -1.349976E+03  1.160922E+04 -1.409811E+04  8.827271E+03  1.155520E+04
       137   7  4.071387E+05  9.624643E+04  1.008594E+05 -3.363212E+04  4.158411E+04  3.300838E+03
       137   8  3.822903E+05  5.523556E+04  6.718552E+04 -1.822398E+04  2.404249E+04  1.054637E+04
       137   9  3.678712E+05  4.674609E+04  5.305918E+04 -9.224878E+03  6.504448E+03  1.155417E+04
       137  10 -6.949742E+04 -2.189909E+04 -1.354923E+04  5.396864E+03  6.407371E-10 -6.508714E-10
       137  11 -5.388786E+04 -5.074451E+04 -2.668864E+04 -3.581908E+03 -5.489951E-10 -1.139488E-10
       137  12 -3.023399E+04 -4.944865E+04 -2.984338E+04 -1.896987E+04 -1.614024E-09  1.221423E-10
       137  13  1.687933E+05  3.717478E+04  4.365535E+04 -1.411392E+04  1.131131E-09  2.158847E-10
       137  14  1.641785E+05  2.246847E+03  2.024918E+04 -1.090174E+04  1.673416E-09 -8.113975E-11
       137  15  1.687998E+05 -1.350141E+03  1.160882E+04 -1.409820E+04  7.688004E-11  1.719540E-11
       137  16  4.071369E+05  9.624595E+04  1.008561E+05 -3.363223E+04 -1.492462E-09  2.636976E-10
       137  17  3.822896E+05  5.523528E+04  6.718423E+04 -1.822418E+04  1.126794E-09  1.181833E-10
       137  18  3.678711E+05  4.674593E+04  5.305885E+04 -9.224939E+03  1.674407E-09  1.098303E-09
       137  19 -6.949704E+04 -2.189899E+04 -1.354856E+04  5.396914E+03 -1.866278E+04 -3.292321E+03
       137  20 -5.388759E+04 -5.074433E+04 -2.668801E+04 -3.581782E+03 -1.490469E+04 -1.054369E+04
       137  21 -3.023383E+04 -4.944847E+04 -2.984290E+04 -1.896977E+04 -1.114936E+04 -1.155619E+04
       137  22  1.687943E+05  3.717503E+04  4.365708E+04 -1.411384E+04 -3.012126E+04 -3.296940E+03
       137  23  1.641789E+05  2.247069E+03  2.025010E+04 -1.090157E+04 -1.947280E+04 -1.054508E+04
       137  24  1.687999E+05 -1.349976E+03  1.160922E+04 -1.409811E+04 -8.827271E+03 -1.155520E+04
       137  25  4.071387E+05  9.624643E+04  1.008594E+05 -3.363212E+04 -4.158411E+04 -3.300838E+03
       137  26  3.822903E+05  5.523556E+04  6.718552E+04 -1.822398E+04 -2.404249E+04 -1.054637E+04
       137  27  3.678712E+05  4.674609E+04  5.305918E+04 -9.224878E+03 -6.504448E+03 -1.155417E+04
       138   1 -1.742985E+04 -4.299756E+04 -2.942498E+04 -1.368660E+04  7.953874E+03  1.050194E+04
       138   2  1.780853E+03 -3.979020E+04 -2.924493E+04 -1.075470E+04  5.811284E+03  9.692436E+03
       138   3  2.163268E+04 -3.518189E+04 -2.731692E+04 -1.452016E+04  3.668538E+03  8.569753E+03
       138   4  1.669038E+05  1.572624E+03  9.108112E+03 -1.416605E+04  7.235260E+03  1.050147E+04
       138   5  1.665546E+05  6.517002E+00  4.979438E+03 -1.081721E+04  4.746253E+03  9.691952E+03
       138   6  1.669061E+05 -9.875681E+01  2.838844E+03 -1.416561E+04  2.257156E+03  8.569290E+03
       138   7  3.512695E+05  4.614064E+04  4.763932E+04 -1.464565E+04  6.516435E+03  1.050101E+04
       138   8  3.313541E+05  3.980151E+04  3.920232E+04 -1.087975E+04  3.680944E+03  9.691467E+03
       138   9  3.121995E+05  3.498304E+04  3.299346E+04 -1.381098E+04  8.454506E+02  8.568826E+03
       138  10 -1.742995E+04 -4.299770E+04 -2.942531E+04 -1.368666E+04  8.502768E-11  4.403440E-10
       138  11  1.780791E+03 -3.979031E+04 -2.924517E+04 -1.075475E+04  1.594733E-09  3.464985E-10
       138  12  2.163265E+04 -3.518198E+04 -2.731708E+04 -1.452019E+04 -9.659196E-10 -7.281688E-10
       138  13  1.669037E+05  1.572492E+03  9.107806E+03 -1.416611E+04 -3.174757E-09  1.042495E-09
       138  14  1.665546E+05  6.410079E+00  4.979219E+03 -1.081725E+04 -3.680005E-09  5.165462E-10
       138  15  1.669061E+05 -9.883704E+01  2.838696E+03 -1.416563E+04 -3.425586E-09 -6.580657E-10
       138  16  3.512695E+05  4.614051E+04  4.763904E+04 -1.464570E+04 -8.495920E-10  7.492128E-10
       138  17  3.313540E+05  3.980140E+04  3.920212E+04 -1.087977E+04 -1.310864E-09  3.421895E-11
       138  18  3.121995E+05  3.498296E+04  3.299332E+04 -1.381099E+04 -2.419507E-10 -7.514485E-11
       138  19 -1.742985E+04 -4.299756E+04 -2.942498E+04 -1.368660E+04 -7.953874E+03 -1.050194E+04
       138  20  1.780853E+03 -3.979020E+04 -2.924493E+04 -1.075470E+04 -5.811284E+03 -9.692436E+03
       138  21  2.163268E+04 -3.518189E+04 -2.731692E+04 -1.452016E+04 -3.668538E+03 -8.569753E+03
       138  22  1.669038E+05  1.572624E+03  9.108112E+03 -1.416605E+04 -7.235260E+03 -1.050147E+04
       138  23  1.665546E+05  6.517002E+00  4.979438E+03 -1.081721E+04 -4.746253E+03 -9.691952E+03
       138  24  1.669061E+05 -9.875681E+01  2.838844E+03 -1.416561E+04 -2.257156E+03 -8.569290E+03
       138  25  3.512695E+05  4.614064E+04  4.763932E+04 -1.464565E+04 -6.516435E+03 -1.050101E+04
       138  26  3.313541E+05  3.980151E+04  3.920232E+04 -1.087975E+04 -3.680944E+03 -9.691467E+03
       138  27  3.121995E+05  3.498304E+04  3.299346E+04 -1.381098E+04 -8.454506E+02 -8.568826E+03
       139   1  3.600212E+04 -3.153138E+04 -2.491152E+04 -1.426009E+04  3.147753E+03  7.834226E+03
       139   2  5.545780E+04 -2.688731E+04 -2.188428E+04 -1.089089E+04  2.585711E+03  6.621317E+03
       139   3  7.500952E+04 -2.217727E+04 -1.847318E+04 -1.422492E+04  2.023517E+03  5.393056E+03
       139   4  1.667732E+05  3.181675E+01  2.147260E+03 -1.416705E+04  1.817483E+03  7.833836E+03
       139   5  1.667245E+05 -2.570819E+01  1.170266E+03 -1.081547E+04  1.238370E+03  6.620997E+03
       139   6  1.667746E+05 -1.421829E+01  5.889948E+02 -1.416705E+04  6.591227E+02  5.392810E+03
       139   7  2.975605E+05  3.159393E+04  2.920512E+04 -1.407399E+04  4.869377E+02  7.833446E+03
       139   8  2.780029E+05  2.683511E+04  2.422415E+04 -1.074003E+04 -1.092081E+02  6.620678E+03
       139   9  2.585477E+05  2.214830E+04  1.965072E+04 -1.410916E+04 -7.054698E+02  5.392563E+03
       139  10  3.600209E+04 -3.153144E+04 -2.491166E+04 -1.426011E+04 -2.363642E-09 -9.566580E-10
       139  11  5.545778E+04 -2.688736E+04 -2.188438E+04 -1.089090E+04 -6.728408E-10 -4.098288E-10
       139  12  7.500951E+04 -2.217731E+04 -1.847324E+04 -1.422493E+04 -6.128813E-11  3.069943E-10
       139  13  1.667732E+05  3.174996E+01  2.147138E+03 -1.416706E+04  1.019050E-09 -4.589124E-10
       139  14  1.667245E+05 -2.575568E+01  1.170180E+03 -1.081547E+04 -1.077083E-09  2.287593E-10
       139  15  1.667746E+05 -1.424964E+01  5.889393E+02 -1.416705E+04 -2.375814E-10  2.176642E-10
       139  16  2.975605E+05  3.159386E+04  2.920501E+04 -1.407400E+04  9.455230E-10  1.094998E-10
       139  17  2.780029E+05  2.683507E+04  2.422406E+04 -1.074003E+04 -3.534493E-10  1.857974E-10
       139  18  2.585477E+05  2.214827E+04  1.965066E+04 -1.410916E+04 -1.089412E-09  6.024027E-10
       139  19  3.600212E+04 -3.153138E+04 -2.491152E+04 -1.426009E+04 -3.147753E+03 -7.834226E+03
       139  20  5.545780E+04 -2.688731E+04 -2.188428E+04 -1.089089E+04 -2.585711E+03 -6.621317E+03
       139  21  7.500952E+04 -2.217727E+04 -1.847318E+04 -1.422492E+04 -2.023517E+03 -5.393056E+03
       139  22  1.667732E+05  3.181675E+01  2.147260E+03 -1.416705E+04 -1.817483E+03 -7.833836E+03
       139  23  1.667245E+05 -2.570819E+01  1.170266E+03 -1.081547E+04 -1.238370E+03 -6.620997E+03
       139  24  1.667746E+05 -1.421829E+01  5.889948E+02 -1.416705E+04 -6.591227E+02 -5.392810E+03
       139  25  2.975605E+05  3.159393E+04  2.920512E+04 -1.407399E+04 -4.869377E+02 -7.833446E+03
       139  26  2.780029E+05  2.683511E+04  2.422415E+04 -1.074003E+04  1.092081E+02 -6.620678E+03
       139  27  2.585477E+05  2.214830E+04  1.965072E+04 -1.410916E+04  7.054698E+02 -5.392563E+03
       140   1  8.946868E+04 -1.865617E+04 -1.558242E+04 -1.420844E+04  1.932055E+03  4.674336E+03
       140   2  1.089546E+05 -1.395594E+04 -1.195001E+04 -1.085625E+04  1.921366E+03  3.442250E+03
       140   3  1.284458E+05 -9.254807E+03 -8.309619E+03 -1.420395E+04  1.910600E+03  2.209624E+03
       140   4  1.667542E+05 -9.393423E+00  3.767288E+02 -1.416632E+04  5.720330E+02  4.674125E+03
       140   5  1.667522E+05 -3.514764E+00  2.322115E+01 -1.081639E+04  5.607113E+02  3.442077E+03
       140   6  1.667550E+05  3.309685E+00 -3.219474E+02 -1.416632E+04  5.493130E+02  2.209491E+03
       140   7  2.440455E+05  1.863701E+04  1.633557E+04 -1.412419E+04 -7.881551E+02  4.673914E+03
       140   8  2.245530E+05  1.394870E+04  1.199628E+04 -1.077652E+04 -8.000678E+02  3.441905E+03
       140   9  2.050655E+05  9.261334E+03  7.665651E+03 -1.412869E+04 -8.120567E+02  2.209358E+03
       140  10  8.946867E+04 -1.865620E+04 -1.558247E+04 -1.420845E+04  4.123497E-10  5.142450E-11
       140  11  1.089546E+05 -1.395595E+04 -1.195004E+04 -1.085625E+04 -1.334469E-10 -3.951798E-10
       140  12  1.284458E+05 -9.254814E+03 -8.309635E+03 -1.420396E+04 -2.588149E-10 -3.685053E-10
       140  13  1.667542E+05 -9.416973E+00  3.766871E+02 -1.416632E+04 -1.083394E-09  2.587883E-10
       140  14  1.667522E+05 -3.527572E+00  2.319829E+01 -1.081639E+04 -1.107135E-09 -3.370868E-10
       140  15  1.667550E+05  3.304361E+00 -3.219571E+02 -1.416632E+04  1.010035E-09 -9.815544E-11
       140  16  2.440455E+05  1.863699E+04  1.633552E+04 -1.412419E+04 -1.166847E-09  4.222620E-10
       140  17  2.245530E+05  1.394868E+04  1.199626E+04 -1.077652E+04  8.696506E-10 -3.331663E-10
       140  18  2.050655E+05  9.261329E+03  7.665640E+03 -1.412869E+04  1.592399E-09  7.192331E-11
       140  19  8.946868E+04 -1.865617E+04 -1.558242E+04 -1.420844E+04 -1.932055E+03 -4.674336E+03
       140  20  1.089546E+05 -1.395594E+04 -1.195001E+04 -1.085625E+04 -1.921366E+03 -3.442250E+03
       140  21  1.284458E+05 -9.254807E+03 -8.309619E+03 -1.420395E+04 -1.910600E+03 -2.209624E+03
       140  22  1.667542E+05 -9.393423E+00  3.767288E+02 -1.416632E+04 -5.720330E+02 -4.674125E+03
       140  23  1.667522E+05 -3.514764E+00  2.322115E+01 -1.081639E+04 -5.607113E+02 -3.442077E+03
       140  24  1.667550E+05  3.309685E+00 -3.219474E+02 -1.416632E+04 -5.493130E+02 -2.209491E+03
       140  25  2.440455E+05  1.863701E+04  1.633557E+04 -1.412419E+04  7.881551E+02 -4.673914E+03
       140  26  2.245530E+05  1.394870E+04  1.199628E+04 -1.077652E+04  8.000678E+02 -3.441905E+03
       140  27  2.050655E+05  9.261334E+03  7.665651E+03 -1.412869E+04  8.120567E+02 -2.209358E+03
       141   1  1.429008E+05 -5.740854E+03 -5.410880E+03 -1.420605E+04  1.987406E+03  1.492111E+03
       141   2  1.624199E+05 -1.031096E+03 -1.972966E+03 -1.088752E+04  2.516328E+03  2.597426E+02
       141   3  1.818683E+05  3.661890E+03  1.116906E+03 -1.426656E+04  3.045259E+03 -9.720747E+02
       141   4  1.667383E+05  3.017588E+00 -5.248853E+02 -1.416581E+04  6.262814E+02  1.491991E+03
       141   5  1.667740E+05  1.991347E+01 -1.071203E+03 -1.081703E+04  1.155792E+03  2.596251E+02
       141   6  1.667384E+05  1.994895E+01 -1.965979E+03 -1.416582E+04  1.685297E+03 -9.721884E+02
       141   7  1.905763E+05  5.746855E+03  4.361086E+03 -1.412557E+04 -7.348941E+02  1.491871E+03
       141   8  1.711280E+05  1.070922E+03 -1.694349E+02 -1.074654E+04 -2.047525E+02  2.595073E+02
       141   9  1.516087E+05 -3.622005E+03 -5.048868E+03 -1.406508E+04  3.253667E+02 -9.723025E+02
       141  10  1.429008E+05 -5.740858E+03 -5.410891E+03 -1.420606E+04  5.054886E-10 -1.744448E-10
       141  11  1.624199E+05 -1.031097E+03 -1.972978E+03 -1.088752E+04  1.420052E-09  2.154558E-10
       141  12  1.818683E+05  3.661886E+03  1.116887E+03 -1.426656E+04 -4.614064E-10 -9.566873E-11
       141  13  1.667383E+05  3.015092E+00 -5.248903E+02 -1.416581E+04  2.285295E-09  2.080082E-10
       141  14  1.667740E+05  1.991304E+01 -1.071206E+03 -1.081703E+04  1.195659E-09 -2.077118E-10
       141  15  1.667384E+05  1.994717E+01 -1.965986E+03 -1.416582E+04 -2.469122E-10 -1.775121E-10
       141  16  1.905763E+05  5.746852E+03  4.361081E+03 -1.412557E+04 -7.241247E-10  2.369746E-11
       141  17  1.711280E+05  1.070922E+03 -1.694351E+02 -1.074654E+04  3.438656E-09 -6.269921E-10
       141  18  1.516087E+05 -3.622006E+03 -5.048870E+03 -1.406508E+04 -5.036894E-10 -2.137972E-10
       141  19  1.429008E+05 -5.740854E+03 -5.410880E+03 -1.420605E+04 -1.987406E+03 -1.492111E+03
       141  20  1.624199E+05 -1.031096E+03 -1.972966E+03 -1.088752E+04 -2.516328E+03 -2.597426E+02
       141  21  1.818683E+05  3.661890E+03  1.116906E+03 -1.426656E+04 -3.045259E+03  9.720747E+02
       141  22  1.667383E+05  3.017588E+00 -5.248853E+02 -1.416581E+04 -6.262814E+02 -1.491991E+03
       141  23  1.667740E+05  1.991347E+01 -1.071203E+03 -1.081703E+04 -1.155792E+03 -2.596251E+02
       141  24  1.667384E+05  1.994895E+01 -1.965979E+03 -1.416582E+04 -1.685297E+03  9.721884E+02
       141  25  1.905763E+05  5.746855E+03  4.361086E+03 -1.412557E+04  7.348941E+02 -1.491871E+03
       141  26  1.711280E+05  1.070922E+03 -1.694349E+02 -1.074654E+04  2.047525E+02 -2.595073E+02
       141  27  1.516087E+05 -3.622005E+03 -5.048868E+03 -1.406508E+04 -3.253667E+02  9.723025E+02
       142   1  1.962761E+05  7.193471E+03  3.566749E+03 -1.431962E+04  3.462853E+03 -1.690064E+03
       142   2  2.159437E+05  1.192435E+04  5.574858E+03 -1.102174E+04  5.726312E+03 -2.918372E+03
       142   3  2.352534E+05  1.639028E+04  6.044106E+03 -1.442254E+04  7.989860E+03 -4.135119E+03
       142   4  1.666740E+05  3.749006E+01 -2.617325E+03 -1.416608E+04  2.099740E+03 -1.690186E+03
       142   5  1.668540E+05  7.424236E+01 -4.596944E+03 -1.081673E+04  4.375790E+03 -2.918527E+03
       142   6  1.666737E+05 -1.560862E+02 -8.124211E+03 -1.416608E+04  6.651861E+03 -4.135303E+03
       142   7  1.370728E+05 -7.118546E+03 -8.801439E+03 -1.401255E+04  7.366906E+02 -1.690310E+03
       142   8  1.177666E+05 -1.177602E+04 -1.476887E+04 -1.061173E+04  3.025373E+03 -2.918682E+03
       142   9  9.809850E+04 -1.670274E+04 -2.229278E+04 -1.390965E+04  5.314007E+03 -4.135488E+03
       142  10  1.962761E+05  7.193465E+03  3.566721E+03 -1.431961E+04  8.188501E-10 -7.941562E-11
       142  11  2.159437E+05  1.192433E+04  5.574781E+03 -1.102173E+04 -2.897949E-10 -4.291145E-10
       142  12  2.352533E+05  1.639024E+04  6.043954E+03 -1.442251E+04 -5.544225E-10 -2.219548E-10
       142  13  1.666740E+05  3.748581E+01 -2.617338E+03 -1.416608E+04 -2.109957E-12  1.125000E-10
       142  14  1.668540E+05  7.422808E+01 -4.596996E+03 -1.081672E+04 -5.854301E-11  2.715749E-10
       142  15  1.666737E+05 -1.561165E+02 -8.124326E+03 -1.416606E+04  6.493371E-10  3.593206E-10
       142  16  1.370728E+05 -7.118549E+03 -8.801446E+03 -1.401255E+04  5.248013E-10  1.286923E-10
       142  17  1.177666E+05 -1.177603E+04 -1.476890E+04 -1.061173E+04  1.670175E-09  3.892551E-10
       142  18  9.809847E+04 -1.670277E+04 -2.229286E+04 -1.390963E+04 -1.233106E-09  6.342310E-10
       142  19  1.962761E+05  7.193471E+03  3.566749E+03 -1.431962E+04 -3.462853E+03  1.690064E+03
       142  20  2.159437E+05  1.192435E+04  5.574858E+03 -1.102174E+04 -5.726312E+03  2.918372E+03
       142  21  2.352534E+05  1.639028E+04  6.044106E+03 -1.442254E+04 -7.989860E+03  4.135119E+03
       142  22  1.666740E+05  3.749006E+01 -2.617325E+03 -1.416608E+04 -2.099740E+03  1.690186E+03
       142  23  1.668540E+05  7.424236E+01 -4.596944E+03 -1.081673E+04 -4.375790E+03  2.918527E+03
       142  24  1.666737E+05 -1.560862E+02 -8.124211E+03 -1.416608E+04 -6.651861E+03  4.135303E+03
       142  25  1.370728E+05 -7.118546E+03 -8.801439E+03 -1.401255E+04 -7.366906E+02  1.690310E+03
       142  26  1.177666E+05 -1.177602E+04 -1.476887E+04 -1.061173E+04 -3.025373E+03  2.918682E+03
       142  27  9.809850E+04 -1.670274E+04 -2.229278E+04 -1.390965E+04 -5.314007E+03  4.135488E+03
       143   1  2.492502E+05  2.038893E+04  6.603784E+03 -1.537636E+04  9.708561E+03 -4.865122E+03
       143   2  2.700152E+05  2.469509E+04  2.730525E+03 -1.044040E+04  1.873926E+04 -6.012685E+03
       143   3  2.882622E+05  2.360323E+04 -8.367666E+03 -1.219428E+04  2.777033E+04 -6.926241E+03
       143   4  1.661835E+05  3.271137E+02 -1.066037E+04 -1.416441E+04  8.309863E+03 -4.865329E+03
       143   5  1.674657E+05 -7.127951E+01 -1.857707E+04 -1.081894E+04  1.759751E+04 -6.012952E+03
       143   6  1.661839E+05 -5.912983E+03 -3.389816E+04 -1.416347E+04  2.688526E+04 -6.926594E+03
       143   7  8.312338E+04 -1.973514E+04 -2.792489E+04 -1.295263E+04  6.911349E+03 -4.865541E+03
       143   8  6.492610E+04 -2.483831E+04 -3.988523E+04 -1.119742E+04  1.645594E+04 -6.013217E+03
       143   9  4.411969E+04 -3.543014E+04 -5.942947E+04 -1.613226E+04  2.600035E+04 -6.926941E+03
       143  10  2.492501E+05  2.038888E+04  6.603562E+03 -1.537632E+04 -2.566424E-10  6.963846E-12
       143  11  2.700148E+05  2.469495E+04  2.729797E+03 -1.044031E+04  1.046538E-10  1.249346E-10
       143  12  2.882614E+05  2.360297E+04 -8.369205E+03 -1.219413E+04  2.759346E-10 -6.936001E-10
       143  13  1.661834E+05  3.270698E+02 -1.066054E+04 -1.416438E+04 -2.317448E-11  1.463046E-10
       143  14  1.674653E+05 -7.140144E+01 -1.857772E+04 -1.081886E+04 -2.154056E-09  6.927284E-11
       143  15  1.661831E+05 -5.913228E+03 -3.389961E+04 -1.416332E+04 -1.589357E-09 -8.282595E-10
       143  16  8.312332E+04 -1.973517E+04 -2.792503E+04 -1.295260E+04  6.962341E-11  5.579197E-10
       143  17  6.492580E+04 -2.483843E+04 -3.988581E+04 -1.119734E+04  7.939805E-10  3.429414E-10
       143  18  4.411895E+04 -3.543037E+04 -5.943084E+04 -1.613211E+04 -2.262433E-10 -8.206970E-10
       143  19  2.492502E+05  2.038893E+04  6.603784E+03 -1.537636E+04 -9.708561E+03  4.865122E+03
       143  20  2.700152E+05  2.469509E+04  2.730525E+03 -1.044040E+04 -1.873926E+04  6.012685E+03
       143  21  2.882622E+05  2.360323E+04 -8.367666E+03 -1.219428E+04 -2.777033E+04  6.926241E+03
       143  22  1.661835E+05  3.271137E+02 -1.066037E+04 -1.416441E+04 -8.309863E+03  4.865329E+03
       143  23  1.674657E+05 -7.127951E+01 -1.857707E+04 -1.081894E+04 -1.759751E+04  6.012952E+03
       143  24  1.661839E+05 -5.912983E+03 -3.389816E+04 -1.416347E+04 -2.688526E+04  6.926594E+03
       143  25  8.312338E+04 -1.973514E+04 -2.792489E+04 -1.295263E+04 -6.911349E+03  4.865541E+03
       143  26  6.492610E+04 -2.483831E+04 -3.988523E+04 -1.119742E+04 -1.645594E+04  6.013217E+03
       143  27  4.411969E+04 -3.543014E+04 -5.942947E+04 -1.613226E+04 -2.600035E+04  6.926941E+03
       144   1  2.958629E+05  3.797671E+04 -1.469217E+04 -3.201425E+04  3.489343E+04 -7.893033E+03
       144   2  3.321027E+05  2.946018E+04 -4.170810E+04  1.662691E+04  6.935447E+04 -7.434764E+03
       144   3  3.349867E+05 -9.462258E+04 -1.200351E+05  5.882847E+04  1.038157E+05 -2.315005E+03
       144   4  1.591382E+05  4.948812E+03 -4.318597E+04 -1.411667E+04  3.281009E+04 -7.892584E+03
       144   5  1.762744E+05 -8.432500E+03 -7.529988E+04 -1.087888E+04  7.240561E+04 -7.437212E+03
       144   6  1.591500E+05 -1.382949E+05 -1.622990E+05 -1.408024E+04  1.119998E+05 -2.324861E+03
       144   7  2.243176E+04 -2.807907E+04 -7.168061E+04  3.776897E+03  3.072720E+04 -7.892254E+03
       144   8  2.047055E+04 -4.632393E+04 -1.088926E+05 -3.837767E+04  7.545599E+04 -7.439931E+03
       144   9 -1.664688E+04 -1.819495E+05 -2.045619E+05 -8.696823E+04  1.201816E+05 -2.336642E+03
       144  10  2.958616E+05  3.797632E+04 -1.469457E+04 -3.201403E+04 -1.432217E-09 -9.544139E-10
       144  11  3.320975E+05  2.945883E+04 -4.171723E+04  1.662733E+04 -9.304702E-10 -8.459275E-10
       144  12  3.349752E+05 -9.462548E+04 -1.200554E+05  5.882867E+04 -4.360792E-10 -2.334423E-10
       144  13  1.591370E+05  4.948456E+03 -4.318811E+04 -1.411647E+04 -1.273272E-09 -1.692958E-09
       144  14  1.762688E+05 -8.433967E+03 -7.530983E+04 -1.087844E+04  1.820531E-09  3.909242E-10
       144  15  1.591365E+05 -1.382983E+05 -1.623225E+05 -1.408003E+04  4.353064E-10  6.945992E-11
       144  16  2.243072E+04 -2.807939E+04 -7.168250E+04  3.777092E+03  4.528481E-10 -1.087079E-09
       144  17  2.046442E+04 -4.632552E+04 -1.089035E+05 -3.837722E+04  7.757171E-10  9.749004E-11
       144  18 -1.666239E+04 -1.819533E+05 -2.045890E+05 -8.696800E+04 -2.183475E-10 -1.641079E-10
       144  19  2.958629E+05  3.797671E+04 -1.469217E+04 -3.201425E+04 -3.489343E+04  7.893033E+03
       144  20  3.321027E+05  2.946018E+04 -4.170810E+04  1.662691E+04 -6.935447E+04  7.434764E+03
       144  21  3.349867E+05 -9.462258E+04 -1.200351E+05  5.882847E+04 -1.038157E+05  2.315005E+03
       144  22  1.591382E+05  4.948812E+03 -4.318597E+04 -1.411667E+04 -3.281009E+04  7.892584E+03
       144  23  1.762744E+05 -8.432500E+03 -7.529988E+04 -1.087888E+04 -7.240561E+04  7.437212E+03
       144  24  1.591500E+05 -1.382949E+05 -1.622990E+05 -1.408024E+04 -1.119998E+05  2.324861E+03
       144  25  2.243176E+04 -2.807907E+04 -7.168061E+04  3.776897E+03 -3.072720E+04  7.892254E+03
       144  26  2.047055E+04 -4.632393E+04 -1.088926E+05 -3.837767E+04 -7.545599E+04  7.439931E+03
       144  27 -1.664688E+04 -1.819495E+05 -2.045619E+05 -8.696823E+04 -1.201816E+05  2.336642E+03
       145   1  3.469929E+05  1.362931E+06  3.379954E+05 -2.259497E+05  1.646212E+04  5.966331E+04
       145   2  2.607647E+05  1.051465E+06  2.347998E+05 -1.728039E+05  4.880364E+04  1.647877E+04
       145   3  1.857323E+05  7.485486E+05  1.624919E+05 -2.230665E+05  4.326065E+04 -2.671257E+04
       145   4  4.361299E+03 -1.819593E+04  4.862755E+03 -2.227422E+05  1.652005E+04  3.003048E+03
       145   5  4.054153E+02 -1.870090E+04  2.517161E+03 -1.710356E+05  4.882802E+04  1.726759E+03
       145   6  3.944846E+02 -1.799546E+04  2.003398E+03 -2.227468E+05  4.322226E+04  4.223944E+02
       145   7 -3.384078E+05 -1.397574E+06 -3.283943E+05 -2.195412E+05  1.657747E+04 -5.353183E+04
       145   8 -2.600295E+05 -1.087793E+06 -2.298330E+05 -1.692699E+05  4.885234E+04 -1.300019E+04
       145   9 -1.849806E+05 -7.839828E+05 -1.585150E+05 -2.224272E+05  4.318386E+04  2.752442E+04
       145  10  3.469917E+05  1.362927E+06  3.379882E+05 -2.259505E+05 -5.522931E-10  1.479696E-09
       145  11  2.607621E+05  1.051464E+06  2.347948E+05 -1.728046E+05  1.568255E-09  1.377276E-09
       145  12  1.857301E+05  7.485473E+05  1.624871E+05 -2.230655E+05  1.071968E-09  1.065327E-09
       145  13  4.361004E+03 -1.819602E+04  4.862225E+03 -2.227423E+05 -8.908317E-10 -1.213676E-11
       145  14  4.028543E+02 -1.870154E+04  2.512675E+03 -1.710357E+05  2.199792E-09  3.574268E-11
       145  15  3.924784E+02 -1.799596E+04  1.999887E+03 -2.227468E+05  2.224770E-10 -1.273663E-10
       145  16 -3.384088E+05 -1.397577E+06 -3.284002E+05 -2.195405E+05  1.070129E-09 -1.146023E-09
       145  17 -2.600322E+05 -1.087794E+06 -2.298378E+05 -1.692694E+05 -6.494767E-10 -1.119607E-09
       145  18 -1.849828E+05 -7.839841E+05 -1.585200E+05 -2.224281E+05  6.108036E-10  1.004589E-09
       145  19  3.469929E+05  1.362931E+06  3.379954E+05 -2.259497E+05 -1.646212E+04 -5.966331E+04
       145  20  2.607647E+05  1.051465E+06  2.347998E+05 -1.728039E+05 -4.880364E+04 -1.647877E+04
       145  21  1.857323E+05  7.485486E+05  1.624919E+05 -2.230665E+05 -4.326065E+04  2.671257E+04
       145  22  4.361299E+03 -1.819593E+04  4.862755E+03 -2.227422E+05 -1.652005E+04 -3.003048E+03
       145  23  4.054153E+02 -1.870090E+04  2.517161E+03 -1.710356E+05 -4.882802E+04 -1.726759E+03
       145  24  3.944846E+02 -1.799546E+04  2.003398E+03 -2.227468E+05 -4.322226E+04 -4.223944E+02
       145  25 -3.384078E+05 -1.397574E+06 -3.283943E+05 -2.195412E+05 -1.657747E+04  5.353183E+04
       145  26 -2.600295E+05 -1.087793E+06 -2.298330E+05 -1.692699E+05 -4.885234E+04  1.300019E+04
       145  27 -1.849806E+05 -7.839828E+05 -1.585150E+05 -2.224272E+05 -4.318386E+04 -2.752442E+04
       146   1  1.307727E+05  5.192411E+05  1.148410E+05 -2.239379E+05  2.985682E+04 -1.763725E+04
       146   2  5.622341E+04  2.123905E+05  5.019056E+04 -1.707719E+05  1.353452E+04 -1.943444E+04
       146   3 -1.727476E+04 -9.420475E+04 -1.311740E+04 -2.228576E+05 -3.377472E+03 -2.123590E+04
       146   4  7.419116E+02 -1.818943E+04  1.961922E+03 -2.231538E+05  2.982919E+04  6.927132E+01
       146   5  5.245516E+02 -1.819430E+04  2.254899E+03 -1.705265E+05  1.350383E+04 -1.080176E+03
       146   6  1.251279E+03 -1.814577E+04  3.443007E+03 -2.231530E+05 -3.411635E+03 -2.234740E+03
       146   7 -1.293073E+05 -5.553466E+05 -1.109321E+05 -2.223703E+05  2.980158E+04  1.776072E+04
       146   8 -5.517751E+04 -2.487280E+05 -4.568241E+04 -1.702811E+05  1.347314E+04  1.726739E+04
       146   9  1.977713E+04  5.791940E+04  2.000442E+04 -2.234485E+05 -3.445813E+03  1.676872E+04
       146  10  1.307717E+05  5.192406E+05  1.148387E+05 -2.239374E+05  6.903098E-10  6.057767E-10
       146  11  5.622311E+04  2.123900E+05  5.018951E+04 -1.707717E+05 -4.808270E-10  1.319902E-09
       146  12 -1.727490E+04 -9.420524E+04 -1.311827E+04 -2.228577E+05  1.229296E-10  1.882827E-09
       146  13  7.409561E+02 -1.818966E+04  1.960250E+03 -2.231538E+05  2.253002E-09  3.200405E-11
       146  14  5.243555E+02 -1.819435E+04  2.254554E+03 -1.705265E+05  1.070840E-09 -1.266562E-11
       146  15  1.251265E+03 -1.814578E+04  3.442975E+03 -2.231530E+05  2.116631E-10 -2.104444E-10
       146  16 -1.293083E+05 -5.553471E+05 -1.109344E+05 -2.223707E+05 -1.562831E-10  9.678641E-11
       146  17 -5.517778E+04 -2.487284E+05 -4.568332E+04 -1.702813E+05 -2.798466E-11 -1.019835E-09
       146  18  1.977704E+04  5.791910E+04  2.000387E+04 -2.234484E+05  9.957023E-10  6.240175E-10
       146  19  1.307727E+05  5.192411E+05  1.148410E+05 -2.239379E+05 -2.985682E+04  1.763725E+04
       146  20  5.622341E+04  2.123905E+05  5.019056E+04 -1.707719E+05 -1.353452E+04  1.943444E+04
       146  21 -1.727476E+04 -9.420475E+04 -1.311740E+04 -2.228576E+05  3.377472E+03  2.123590E+04
       146  22  7.419116E+02 -1.818943E+04  1.961922E+03 -2.231538E+05 -2.982919E+04 -6.927132E+01
       146  23  5.245516E+02 -1.819430E+04  2.254899E+03 -1.705265E+05 -1.350383E+04  1.080176E+03
       146  24  1.251279E+03 -1.814577E+04  3.443007E+03 -2.231530E+05  3.411635E+03  2.234740E+03
       146  25 -1.293073E+05 -5.553466E+05 -1.109321E+05 -2.223703E+05 -2.980158E+04 -1.776072E+04
       146  26 -5.517751E+04 -2.487280E+05 -4.568241E+04 -1.702811E+05 -1.347314E+04 -1.726739E+04
       146  27  1.977713E+04  5.791940E+04  2.000442E+04 -2.234485E+05  3.445813E+03 -1.676872E+04
       147   1 -7.360333E+04 -3.221558E+05 -6.029866E+04 -2.241448E+05 -1.616426E+04 -2.810737E+04
       147   2 -1.473651E+05 -6.279850E+05 -1.265522E+05 -1.676494E+05 -2.601268E+04 -2.947703E+03
       147   3 -2.150230E+05 -9.356889E+05 -2.077314E+05 -2.151916E+05 -9.701192E+03  2.223023E+04
       147   4  2.392720E+02 -1.749958E+04  4.224603E+03 -2.228852E+05 -1.620839E+04 -2.859166E+03
       147   5  1.191433E+03 -1.907882E+04  7.035066E+03 -1.708614E+05 -2.600516E+04 -6.561792E+03
       147   6  1.326081E+04 -1.761390E+04  1.497108E+04 -2.228665E+05 -9.653983E+03 -1.023333E+04
       147   7  7.407622E+04  2.872456E+05  6.874498E+04 -2.216249E+05 -1.625241E+04  2.240124E+04
       147   8  1.497232E+05  5.901746E+05  1.405998E+05 -1.740764E+05 -2.599761E+04 -1.017938E+04
       147   9  2.414835E+05  9.012340E+05  2.376167E+05 -2.305525E+05 -9.606012E+03 -4.274479E+04
       147  10 -7.360383E+04 -3.221568E+05 -6.030064E+04 -2.241452E+05  7.276930E-11 -5.353242E-10
       147  11 -1.473658E+05 -6.279852E+05 -1.265535E+05 -1.676495E+05  9.743812E-10  8.713790E-10
       147  12 -2.150232E+05 -9.356895E+05 -2.077325E+05 -2.151914E+05 -2.856266E-10  1.863647E-09
       147  13  2.389877E+02 -1.749966E+04  4.224093E+03 -2.228852E+05  4.350913E-10 -2.207690E-11
       147  14  1.190695E+03 -1.907905E+04  7.033714E+03 -1.708616E+05 -1.064560E-09 -1.265083E-11
       147  15  1.326068E+04 -1.761403E+04  1.497071E+04 -2.228666E+05  1.072108E-09 -1.363771E-10
       147  16  7.407580E+04  2.872450E+05  6.874354E+04 -2.216246E+05  1.411400E-09  1.232310E-09
       147  17  1.497225E+05  5.901743E+05  1.405984E+05 -1.740767E+05 -2.960571E-10 -4.852249E-10
       147  18  2.414829E+05  9.012320E+05  2.376131E+05 -2.305528E+05  2.125790E-10  1.484766E-11
       147  19 -7.360333E+04 -3.221558E+05 -6.029866E+04 -2.241448E+05  1.616426E+04  2.810737E+04
       147  20 -1.473651E+05 -6.279850E+05 -1.265522E+05 -1.676494E+05  2.601268E+04  2.947703E+03
       147  21 -2.150230E+05 -9.356889E+05 -2.077314E+05 -2.151916E+05  9.701192E+03 -2.223023E+04
       147  22  2.392720E+02 -1.749958E+04  4.224603E+03 -2.228852E+05  1.620839E+04  2.859166E+03
       147  23  1.191433E+03 -1.907882E+04  7.035066E+03 -1.708614E+05  2.600516E+04  6.561792E+03
       147  24  1.326081E+04 -1.761390E+04  1.497108E+04 -2.228665E+05  9.653983E+03  1.023333E+04
       147  25  7.407622E+04  2.872456E+05  6.874498E+04 -2.216249E+05  1.625241E+04 -2.240124E+04
       147  26  1.497232E+05  5.901746E+05  1.405998E+05 -1.740764E+05  2.599761E+04  1.017938E+04
       147  27  2.414835E+05  9.012340E+05  2.376167E+05 -2.305525E+05  9.606012E+03  4.274479E+04
       148   1 -5.529227E+05 -2.403999E+05 -1.411228E+05 -2.130668E+05 -4.414930E+04 -1.036119E+04
       148   2 -5.040992E+05 -1.763295E+05 -9.587989E+04 -1.918113E+05 -2.773473E+04  8.809244E+03
       148   3 -4.547019E+05 -1.547013E+05 -7.377728E+04 -1.797687E+05 -7.059969E+03  1.664305E+04
       148   4 -1.755011E+05 -8.354965E+04 -3.823876E+04 -9.474524E+04 -2.652739E+04 -3.746522E+03
       148   5 -1.748479E+05 -4.863117E+04 -1.687020E+04 -9.571261E+04 -2.181710E+04  1.102930E+04
       148   6 -1.712980E+05 -5.382684E+04 -9.356978E+03 -1.058957E+05 -1.285003E+04  1.446982E+04
       148   7  2.020621E+05  7.331937E+04  6.463433E+04  2.364534E+04 -8.893605E+03  2.873678E+03
       148   8  1.545124E+05  7.907808E+04  6.213204E+04  4.339201E+02 -1.589604E+04  1.325077E+04
       148   9  1.121863E+05  4.705212E+04  5.505823E+04 -3.199247E+04 -1.864296E+04  1.229561E+04
       148  10 -5.529248E+05 -2.404006E+05 -1.411266E+05 -2.130672E+05  6.555923E-10 -5.413210E-10
       148  11 -5.041000E+05 -1.763298E+05 -9.588148E+04 -1.918111E+05  1.157413E-09 -4.577354E-10
       148  12 -4.547020E+05 -1.547016E+05 -7.377789E+04 -1.797686E+05 -1.679230E-10 -3.461487E-10
       148  13 -1.755019E+05 -8.354986E+04 -3.824011E+04 -9.474532E+04  9.951201E-10  4.239605E-10
       148  14 -1.748485E+05 -4.863142E+04 -1.687132E+04 -9.571241E+04 -6.236040E-10 -3.493979E-10
       148  15 -1.712983E+05 -5.382711E+04 -9.357681E+03 -1.058955E+05 -2.020408E-09 -3.430486E-10
       148  16  2.020620E+05  7.331934E+04  6.463417E+04  2.364536E+04  5.359392E-10  1.343326E-10
       148  17  1.545121E+05  7.907783E+04  6.213124E+04  4.340897E+02  8.442610E-10  3.876296E-10
       148  18  1.121859E+05  4.705187E+04  5.505730E+04 -3.199228E+04  6.887628E-10  4.708567E-10
       148  19 -5.529227E+05 -2.403999E+05 -1.411228E+05 -2.130668E+05  4.414930E+04  1.036119E+04
       148  20 -5.040992E+05 -1.763295E+05 -9.587989E+04 -1.918113E+05  2.773473E+04 -8.809244E+03
       148  21 -4.547019E+05 -1.547013E+05 -7.377728E+04 -1.797687E+05  7.059969E+03 -1.664305E+04
       148  22 -1.755011E+05 -8.354965E+04 -3.823876E+04 -9.474524E+04  2.652739E+04  3.746522E+03
       148  23 -1.748479E+05 -4.863117E+04 -1.687020E+04 -9.571261E+04  2.181710E+04 -1.102930E+04
       148  24 -1.712980E+05 -5.382684E+04 -9.356978E+03 -1.058957E+05  1.285003E+04 -1.446982E+04
       148  25  2.020621E+05  7.331937E+04  6.463433E+04  2.364534E+04  8.893605E+03 -2.873678E+03
       148  26  1.545124E+05  7.907808E+04  6.213204E+04  4.339201E+02  1.589604E+04 -1.325077E+04
       148  27  1.121863E+05  4.705212E+04  5.505823E+04 -3.199247E+04  1.864296E+04 -1.229561E+04
       149   1 -4.087900E+05 -1.450342E+05 -6.249817E+04 -1.706529E+05 -7.979249E+03  1.306251E+04
       149   2 -3.619777E+05 -1.163067E+05 -4.634644E+04 -1.477815E+05 -4.426720E+03  1.115667E+04
       149   3 -3.017046E+05 -1.033113E+05 -3.242367E+04 -1.410181E+05 -6.746622E+02  8.717270E+03
       149   4 -1.700237E+05 -5.620273E+04 -7.329300E+03 -1.044908E+05 -1.063796E+04  1.206456E+04
       149   5 -1.767052E+05 -4.768636E+04 -3.832808E+03 -9.669941E+04 -7.635925E+03  9.952590E+03
       149   6 -1.698192E+05 -5.479267E+04 -2.128325E+03 -1.050170E+05 -4.434604E+03  7.307071E+03
       149   7  6.879819E+04  3.263255E+04  4.783535E+04 -3.830577E+04 -1.329778E+04  1.106619E+04
       149   8  8.601761E+03  2.093660E+04  3.867858E+04 -4.560337E+04 -1.084617E+04  8.748124E+03
       149   9 -3.791566E+04 -6.272491E+03  2.816613E+04 -6.900877E+04 -8.195435E+03  5.896543E+03
       149  10 -4.087901E+05 -1.450344E+05 -6.249861E+04 -1.706528E+05 -6.879950E-10 -2.063567E-10
       149  11 -3.619778E+05 -1.163069E+05 -4.634672E+04 -1.477815E+05 -3.194994E-10  3.214343E-10
       149  12 -3.017046E+05 -1.033114E+05 -3.242381E+04 -1.410181E+05 -6.271816E-10  7.842055E-10
       149  13 -1.700239E+05 -5.620292E+04 -7.329786E+03 -1.044907E+05 -1.065734E-09 -1.067990E-10
       149  14 -1.767053E+05 -4.768648E+04 -3.833103E+03 -9.669935E+04 -1.371375E-10  3.321459E-10
       149  15 -1.698192E+05 -5.479274E+04 -2.128462E+03 -1.050170E+05  2.434649E-09  1.031608E-09
       149  16  6.879796E+04  3.263237E+04  4.783478E+04 -3.830565E+04  5.633464E-10 -2.136522E-10
       149  17  8.601614E+03  2.093649E+04  3.867822E+04 -4.560329E+04  5.022123E-10  4.859909E-10
       149  18 -3.791574E+04 -6.272546E+03  2.816594E+04 -6.900873E+04  5.210104E-09  1.352437E-09
       149  19 -4.087900E+05 -1.450342E+05 -6.249817E+04 -1.706529E+05  7.979249E+03 -1.306251E+04
       149  20 -3.619777E+05 -1.163067E+05 -4.634644E+04 -1.477815E+05  4.426720E+03 -1.115667E+04
       149  21 -3.017046E+05 -1.033113E+05 -3.242367E+04 -1.410181E+05  6.746622E+02 -8.717270E+03
       149  22 -1.700237E+05 -5.620273E+04 -7.329300E+03 -1.044908E+05  1.063796E+04 -1.206456E+04
       149  23 -1.767052E+05 -4.768636E+04 -3.832808E+03 -9.669941E+04  7.635925E+03 -9.952590E+03
       149  24 -1.698192E+05 -5.479267E+04 -2.128325E+03 -1.050170E+05  4.434604E+03 -7.307071E+03
       149  25  6.879819E+04  3.263255E+04  4.783535E+04 -3.830577E+04  1.329778E+04 -1.106619E+04
       149  26  8.601761E+03  2.093660E+04  3.867858E+04 -4.560337E+04  1.084617E+04 -8.748124E+03
       149  27 -3.791566E+04 -6.272491E+03  2.816613E+04 -6.900877E+04  8.195435E+03 -5.896543E+03
       150   1 -2.602889E+05 -8.831457E+04 -2.217450E+04 -1.298296E+05  2.667182E+02  6.677208E+03
       150   2 -2.136562E+05 -6.125613E+04 -9.337333E+03 -1.068454E+05  2.067301E+03  3.349254E+03
       150   3 -1.527905E+05 -4.859641E+04  3.120348E+03 -1.002677E+05  3.877159E+03 -3.986650E+00
       150   4 -1.697219E+05 -5.490039E+04 -1.621324E+03 -1.049394E+05 -3.346939E+03  5.322032E+03
       150   5 -1.768352E+05 -4.767524E+04 -9.177120E+02 -9.674609E+04 -1.572517E+03  1.984354E+03
       150   6 -1.697128E+05 -5.484364E+04 -5.726627E+02 -1.049602E+05  2.111265E+02 -1.378611E+03
       150   7 -7.914677E+04 -2.148560E+04  1.893136E+04 -8.004594E+04 -6.961167E+03  3.966642E+03
       150   8 -1.400128E+05 -3.409429E+04  7.501843E+03 -8.664626E+04 -5.212559E+03  6.193706E+02
       150   9 -1.866347E+05 -6.109079E+04 -4.265604E+03 -1.096526E+05 -3.454775E+03 -2.753187E+03
       150  10 -2.602889E+05 -8.831462E+04 -2.217458E+04 -1.298296E+05  2.870752E-09  1.396253E-09
       150  11 -2.136562E+05 -6.125614E+04 -9.337362E+03 -1.068454E+05  9.989576E-10 -4.190664E-10
       150  12 -1.527905E+05 -4.859641E+04  3.120320E+03 -1.002677E+05 -4.486853E-10 -4.865459E-10
       150  13 -1.697220E+05 -5.490042E+04 -1.621398E+03 -1.049394E+05  1.918377E-09  8.014330E-10
       150  14 -1.768352E+05 -4.767525E+04 -9.177241E+02 -9.674609E+04 -2.112411E-09 -4.826999E-10
       150  15 -1.697128E+05 -5.484364E+04 -5.726663E+02 -1.049602E+05 -3.689627E-10 -4.266548E-10
       150  16 -7.914683E+04 -2.148563E+04  1.893124E+04 -8.004592E+04  1.468939E-09  1.678587E-10
       150  17 -1.400128E+05 -3.409430E+04  7.501791E+03 -8.664625E+04 -2.187971E-09 -4.380846E-10
       150  18 -1.866347E+05 -6.109080E+04 -4.265641E+03 -1.096526E+05 -1.671552E-09 -4.637836E-10
       150  19 -2.602889E+05 -8.831457E+04 -2.217450E+04 -1.298296E+05 -2.667182E+02 -6.677208E+03
       150  20 -2.136562E+05 -6.125613E+04 -9.337333E+03 -1.068454E+05 -2.067301E+03 -3.349254E+03
       150  21 -1.527905E+05 -4.859641E+04  3.120348E+03 -1.002677E+05 -3.877159E+03  3.986650E+00
       150  22 -1.697219E+05 -5.490039E+04 -1.621324E+03 -1.049394E+05  3.346939E+03 -5.322032E+03
       150  23 -1.768352E+05 -4.767524E+04 -9.177120E+02 -9.674609E+04  1.572517E+03 -1.984354E+03
       150  24 -1.697128E+05 -5.484364E+04 -5.726627E+02 -1.049602E+05 -2.111265E+02  1.378611E+03
       150  25 -7.914677E+04 -2.148560E+04  1.893136E+04 -8.004594E+04  6.961167E+03 -3.966642E+03
       150  26 -1.400128E+05 -3.409429E+04  7.501843E+03 -8.664626E+04  5.212559E+03 -6.193706E+02
       150  27 -1.866347E+05 -6.109079E+04 -4.265604E+03 -1.096526E+05  3.454775E+03  2.753187E+03
       151   1 -1.116131E+05 -3.333977E+04  1.297412E+04 -8.897612E+04  4.731600E+03 -2.037284E+03
       151   2 -6.501915E+04 -6.358246E+03  2.513467E+04 -6.598206E+04  6.274290E+03 -5.497083E+03
       151   3 -4.130241E+03  6.298051E+03  3.713501E+04 -5.939362E+04  7.817626E+03 -8.957091E+03
       151   4 -1.697035E+05 -5.484707E+04 -4.856713E+02 -1.049535E+05  1.072602E+03 -3.409330E+03
       151   5 -1.768519E+05 -4.768820E+04 -4.306489E+02 -9.674915E+04  2.614757E+03 -6.869616E+03
       151   6 -1.697096E+05 -5.485566E+04 -5.358222E+02 -1.049524E+05  4.157522E+03 -1.033008E+04
       151   7 -2.277911E+05 -7.635433E+04 -1.394580E+04 -1.209297E+05 -2.586061E+03 -4.781251E+03
       151   8 -2.886717E+05 -8.901705E+04 -2.599663E+04 -1.275111E+05 -1.044048E+03 -8.241875E+03
       151   9 -3.352586E+05 -1.160062E+05 -3.820761E+04 -1.504993E+05  4.985389E+02 -1.170266E+04
       151  10 -1.116132E+05 -3.333978E+04  1.297407E+04 -8.897611E+04 -1.443900E-09  3.956036E-11
       151  11 -6.501920E+04 -6.358289E+03  2.513454E+04 -6.598203E+04  2.146605E-10  8.003840E-10
       151  12 -4.130328E+03  6.297948E+03  3.713474E+04 -5.939357E+04  3.318803E-09 -3.106777E-10
       151  13 -1.697035E+05 -5.484708E+04 -4.856953E+02 -1.049535E+05  1.007542E-09  2.776021E-10
       151  14 -1.768519E+05 -4.768825E+04 -4.307504E+02 -9.674914E+04  1.878472E-10  8.424320E-10
       151  15 -1.697096E+05 -5.485577E+04 -5.360552E+02 -1.049524E+05 -1.273049E-09 -2.674257E-10
       151  16 -2.277911E+05 -7.635436E+04 -1.394585E+04 -1.209297E+05 -1.324355E-09  4.254123E-10
       151  17 -2.886717E+05 -8.901713E+04 -2.599676E+04 -1.275111E+05 -1.857522E-09  8.648745E-10
       151  18 -3.352586E+05 -1.160064E+05 -3.820787E+04 -1.504993E+05 -2.260286E-09 -2.845108E-10
       151  19 -1.116131E+05 -3.333977E+04  1.297412E+04 -8.897612E+04 -4.731600E+03  2.037284E+03
       151  20 -6.501915E+04 -6.358246E+03  2.513467E+04 -6.598206E+04 -6.274290E+03  5.497083E+03
       151  21 -4.130241E+03  6.298051E+03  3.713501E+04 -5.939362E+04 -7.817626E+03  8.957091E+03
       151  22 -1.697035E+05 -5.484707E+04 -4.856713E+02 -1.049535E+05 -1.072602E+03  3.409330E+03
       151  23 -1.768519E+05 -4.768820E+04 -4.306489E+02 -9.674915E+04 -2.614757E+03  6.869616E+03
       151  24 -1.697096E+05 -5.485566E+04 -5.358222E+02 -1.049524E+05 -4.157522E+03  1.033008E+04
       151  25 -2.277911E+05 -7.635433E+04 -1.394580E+04 -1.209297E+05  2.586061E+03  4.781251E+03
       151  26 -2.886717E+05 -8.901705E+04 -2.599663E+04 -1.275111E+05  1.044048E+03  8.241875E+03
       151  27 -3.352586E+05 -1.160062E+05 -3.820761E+04 -1.504993E+05 -4.985389E+02  1.170266E+04
       152   1  3.699766E+04  2.155877E+04  4.678102E+04 -4.810050E+04  8.688650E+03 -1.098090E+04
       152   2  8.355805E+04  4.851996E+04  5.843902E+04 -2.511794E+04  1.055255E+04 -1.431730E+04
       152   3  1.443785E+05  6.115069E+04  6.970014E+04 -1.852882E+04  1.241624E+04 -1.764934E+04
       152   4 -1.697195E+05 -5.485605E+04 -6.509887E+02 -1.049510E+05  5.029370E+03 -1.235385E+04
       152   5 -1.768534E+05 -4.770185E+04 -1.085109E+03 -9.675080E+04  6.897129E+03 -1.568947E+04
       152   6 -1.697300E+05 -5.487928E+04 -1.918929E+03 -1.049455E+05  8.764632E+03 -1.902074E+04
       152   7 -3.763954E+05 -1.312683E+05 -4.808623E+04 -1.617847E+05  1.371383E+03 -1.372632E+04
       152   8 -4.372004E+05 -1.439199E+05 -6.061465E+04 -1.683572E+05  3.243322E+03 -1.706104E+04
       152   9 -4.837458E+05 -1.709042E+05 -7.354614E+04 -1.913239E+05  5.114958E+03 -2.039142E+04
       152  10  3.699755E+04  2.155862E+04  4.678065E+04 -4.810042E+04  9.390983E-10 -1.521938E-09
       152  11  8.355788E+04  4.851971E+04  5.843843E+04 -2.511782E+04  1.808516E-10 -1.574093E-10
       152  12  1.443783E+05  6.115032E+04  6.969926E+04 -1.852864E+04 -1.408010E-09 -7.288602E-10
       152  13 -1.697195E+05 -5.485622E+04 -6.513230E+02 -1.049510E+05 -2.126578E-09 -5.240720E-10
       152  14 -1.768535E+05 -4.770212E+04 -1.085661E+03 -9.675071E+04 -7.685559E-10 -8.217677E-10
       152  15 -1.697302E+05 -5.487969E+04 -1.919754E+03 -1.049454E+05 -1.987713E-09 -2.586130E-10
       152  16 -3.763954E+05 -1.312685E+05 -4.808659E+04 -1.617847E+05 -2.854370E-10 -1.802182E-10
       152  17 -4.372005E+05 -1.439203E+05 -6.061522E+04 -1.683571E+05 -1.048068E-09 -9.604859E-11
       152  18 -4.837459E+05 -1.709047E+05 -7.354697E+04 -1.913238E+05 -2.774501E-09 -8.547358E-10
       152  19  3.699766E+04  2.155877E+04  4.678102E+04 -4.810050E+04 -8.688650E+03  1.098090E+04
       152  20  8.355805E+04  4.851996E+04  5.843902E+04 -2.511794E+04 -1.055255E+04  1.431730E+04
       152  21  1.443785E+05  6.115069E+04  6.970014E+04 -1.852882E+04 -1.241624E+04  1.764934E+04
       152  22 -1.697195E+05 -5.485605E+04 -6.509887E+02 -1.049510E+05 -5.029370E+03  1.235385E+04
       152  23 -1.768534E+05 -4.770185E+04 -1.085109E+03 -9.675080E+04 -6.897129E+03  1.568947E+04
       152  24 -1.697300E+05 -5.487928E+04 -1.918929E+03 -1.049455E+05 -8.764632E+03  1.902074E+04
       152  25 -3.763954E+05 -1.312683E+05 -4.808623E+04 -1.617847E+05 -1.371383E+03  1.372632E+04
       152  26 -4.372004E+05 -1.439199E+05 -6.061465E+04 -1.683572E+05 -3.243322E+03  1.706104E+04
       152  27 -4.837458E+05 -1.709042E+05 -7.354614E+04 -1.913239E+05 -5.114958E+03  2.039142E+04
       153   1  1.854287E+05  7.637926E+04  7.882136E+04 -7.311085E+03  1.357092E+04 -1.956658E+04
       153   2  2.320216E+05  1.033595E+05  8.884507E+04  1.571019E+04  1.713805E+04 -2.223990E+04
       153   3  2.925343E+05  1.156778E+05  9.711974E+04  2.238609E+04  2.068816E+04 -2.486210E+04
       153   4 -1.698044E+05 -5.486289E+04 -2.544599E+03 -1.049735E+05  9.907988E+03 -2.094274E+04
       153   5 -1.767870E+05 -4.768523E+04 -4.600954E+03 -9.674368E+04  1.352592E+04 -2.359795E+04
       153   6 -1.698622E+05 -5.517974E+04 -8.447052E+03 -1.048603E+05  1.712663E+04 -2.620211E+04
       153   7 -5.249048E+05 -1.860933E+05 -8.391717E+04 -2.025832E+05  6.247394E+03 -2.231802E+04
       153   8 -5.854240E+05 -1.987159E+05 -9.805687E+04 -2.091288E+05  9.916401E+03 -2.495502E+04
       153   9 -6.320434E+05 -2.260209E+05 -1.140276E+05 -2.320200E+05  1.356799E+04 -2.754104E+04
       153  10  1.854284E+05  7.637880E+04  7.882029E+04 -7.310872E+03 -4.338529E-09 -9.162703E-10
       153  11  2.320212E+05  1.033588E+05  8.884359E+04  1.571050E+04  3.074459E-10  1.263970E-09
       153  12  2.925337E+05  1.156770E+05  9.711777E+04  2.238650E+04  2.122296E-09  1.882892E-09
       153  13 -1.698046E+05 -5.486339E+04 -2.545608E+03 -1.049733E+05 -2.248846E-09 -4.867983E-11
       153  14 -1.767873E+05 -4.768587E+04 -4.602344E+03 -9.674342E+04 -1.973728E-09  2.588119E-09
       153  15 -1.698627E+05 -5.518056E+04 -8.448893E+03 -1.048600E+05  1.052221E-10  2.756183E-10
       153  16 -5.249050E+05 -1.860939E+05 -8.391818E+04 -2.025831E+05 -3.373688E-10  7.206146E-10
       153  17 -5.854243E+05 -1.987166E+05 -9.805822E+04 -2.091287E+05  3.273014E-10 -2.145445E-10
       153  18 -6.320438E+05 -2.260218E+05 -1.140294E+05 -2.320197E+05 -2.220897E-09 -7.151351E-10
       153  19  1.854287E+05  7.637926E+04  7.882136E+04 -7.311085E+03 -1.357092E+04  1.956658E+04
       153  20  2.320216E+05  1.033595E+05  8.884507E+04  1.571019E+04 -1.713805E+04  2.223990E+04
       153  21  2.925343E+05  1.156778E+05  9.711974E+04  2.238609E+04 -2.068816E+04  2.486210E+04
       153  22 -1.698044E+05 -5.486289E+04 -2.544599E+03 -1.049735E+05 -9.907988E+03  2.094274E+04
       153  23 -1.767870E+05 -4.768523E+04 -4.600954E+03 -9.674368E+04 -1.352592E+04  2.359795E+04
       153  24 -1.698622E+05 -5.517974E+04 -8.447052E+03 -1.048603E+05 -1.712663E+04  2.620211E+04
       153  25 -5.249048E+05 -1.860933E+05 -8.391717E+04 -2.025832E+05 -6.247394E+03  2.231802E+04
       153  26 -5.854240E+05 -1.987159E+05 -9.805687E+04 -2.091288E+05 -9.916401E+03  2.495502E+04
       153  27 -6.320434E+05 -2.260209E+05 -1.140276E+05 -2.320200E+05 -1.356799E+04  2.754104E+04
       154   1  3.338959E+05  1.306154E+05  1.040771E+05  3.227958E+04  2.333926E+04 -2.628720E+04
       154   2  3.800695E+05  1.587653E+05  1.072590E+05  5.749393E+04  3.372835E+04 -2.603359E+04
       154   3  4.368541E+05  1.658827E+05  1.018120E+05  6.786343E+04  4.373689E+04 -2.475889E+04
       154   4 -1.703650E+05 -5.462414E+04 -1.117121E+04 -1.052888E+05  1.949910E+04 -2.773261E+04
       154   5 -1.760982E+05 -4.770969E+04 -2.025241E+04 -9.647523E+04  3.093434E+04 -2.708709E+04
       154   6 -1.714346E+05 -6.204162E+04 -3.879792E+04 -1.025092E+05  4.198800E+04 -2.542038E+04
       154   7 -6.743744E+05 -2.398468E+05 -1.264371E+05 -2.427564E+05  1.566230E+04 -2.917677E+04
       154   8 -7.319580E+05 -2.541617E+05 -1.477849E+05 -2.503188E+05  2.814304E+04 -2.813957E+04
       154   9 -7.793533E+05 -2.899361E+05 -1.794329E+05 -2.727288E+05  4.024097E+04 -2.608117E+04
       154  10  3.338951E+05  1.306146E+05  1.040748E+05  3.228008E+04  1.004995E-09 -7.190226E-10
       154  11  3.800681E+05  1.587643E+05  1.072556E+05  5.749464E+04 -6.962684E-11 -8.366891E-12
       154  12  4.368519E+05  1.658815E+05  1.018072E+05  6.786430E+04 -2.277750E-09 -1.394232E-09
       154  13 -1.703656E+05 -5.462507E+04 -1.117337E+04 -1.052884E+05  1.194936E-10  2.931805E-10
       154  14 -1.760995E+05 -4.771073E+04 -2.025559E+04 -9.647455E+04 -2.175581E-09 -6.594947E-12
       154  15 -1.714367E+05 -6.204279E+04 -3.880245E+04 -1.025084E+05 -4.271659E-09 -6.372447E-10
       154  16 -6.743749E+05 -2.398478E+05 -1.264392E+05 -2.427560E+05 -1.670143E-09 -5.140717E-11
       154  17 -7.319591E+05 -2.541628E+05 -1.477879E+05 -2.503181E+05  3.398108E-12  1.630616E-10
       154  18 -7.793552E+05 -2.899373E+05 -1.794372E+05 -2.727279E+05 -3.981645E-09 -1.189362E-09
       154  19  3.338959E+05  1.306154E+05  1.040771E+05  3.227958E+04 -2.333926E+04  2.628720E+04
       154  20  3.800695E+05  1.587653E+05  1.072590E+05  5.749393E+04 -3.372835E+04  2.603359E+04
       154  21  4.368541E+05  1.658827E+05  1.018120E+05  6.786343E+04 -4.373689E+04  2.475889E+04
       154  22 -1.703650E+05 -5.462414E+04 -1.117121E+04 -1.052888E+05 -1.949910E+04  2.773261E+04
       154  23 -1.760982E+05 -4.770969E+04 -2.025241E+04 -9.647523E+04 -3.093434E+04  2.708709E+04
       154  24 -1.714346E+05 -6.204162E+04 -3.879792E+04 -1.025092E+05 -4.198800E+04  2.542038E+04
       154  25 -6.743744E+05 -2.398468E+05 -1.264371E+05 -2.427564E+05 -1.566230E+04  2.917677E+04
       154  26 -7.319580E+05 -2.541617E+05 -1.477849E+05 -2.503188E+05 -2.814304E+04  2.813957E+04
       154  27 -7.793533E+05 -2.899361E+05 -1.794329E+05 -2.727288E+05 -4.024097E+04  2.608117E+04
       155   1  4.890749E+05  1.762171E+05  9.979641E+04  5.196102E+04  5.712316E+04 -2.374944E+04
       155   2  5.153284E+05  2.303426E+05  7.677208E+04  1.271534E+05  8.114665E+04 -1.086030E+04
       155   3  5.011575E+05  1.366370E+05 -1.922742E+03  2.224476E+05  9.702512E+04  2.365175E+04
       155   4 -1.778632E+05 -4.977228E+04 -4.955187E+04 -1.103354E+05  4.939232E+04 -2.666098E+04
       155   5 -1.665799E+05 -5.222111E+04 -8.934328E+04 -9.078919E+04  9.573579E+04 -5.374019E+03
       155   6 -2.002086E+05 -2.070301E+05 -2.025411E+05 -5.112862E+04  1.339265E+05  3.754147E+04
       155   7 -8.443561E+05 -2.757456E+05 -1.989277E+05 -2.724803E+05  4.167050E+04 -2.956979E+04
       155   8 -8.480150E+05 -3.347158E+05 -2.554905E+05 -3.084999E+05  1.103074E+05  1.039154E+02
       155   9 -9.010645E+05 -5.505498E+05 -4.031958E+05 -3.243860E+05  1.707816E+05  5.140186E+04
       155  10  4.890712E+05  1.762156E+05  9.978922E+04  5.196211E+04 -3.601374E-09 -7.143142E-10
       155  11  5.153213E+05  2.303407E+05  7.675949E+04  1.271541E+05 -8.924446E-10 -1.150808E-10
       155  12  5.011472E+05  1.366338E+05 -1.941467E+03  2.224458E+05 -1.767797E-09  2.825336E-10
       155  13 -1.778661E+05 -4.977370E+04 -4.955779E+04 -1.103344E+05 -3.373725E-09 -5.201843E-09
       155  14 -1.665897E+05 -5.222360E+04 -8.936056E+04 -9.078877E+04 -2.924528E-10  2.137621E-09
       155  15 -2.002282E+05 -2.070365E+05 -2.025775E+05 -5.113268E+04  1.657631E-11 -2.209073E-10
       155  16 -8.443582E+05 -2.757470E+05 -1.989326E+05 -2.724793E+05 -2.136736E-09 -5.814945E-10
       155  17 -8.480281E+05 -3.347191E+05 -2.555134E+05 -3.084999E+05  1.316608E-10 -2.778623E-10
       155  18 -9.010965E+05 -5.505605E+05 -4.032556E+05 -3.243931E+05  1.340983E-09 -5.651237E-10
       155  19  4.890749E+05  1.762171E+05  9.979641E+04  5.196102E+04 -5.712316E+04  2.374944E+04
       155  20  5.153284E+05  2.303426E+05  7.677208E+04  1.271534E+05 -8.114665E+04  1.086030E+04
       155  21  5.011575E+05  1.366370E+05 -1.922742E+03  2.224476E+05 -9.702512E+04 -2.365175E+04
       155  22 -1.778632E+05 -4.977228E+04 -4.955187E+04 -1.103354E+05 -4.939232E+04  2.666098E+04
       155  23 -1.665799E+05 -5.222111E+04 -8.934328E+04 -9.078919E+04 -9.573579E+04  5.374019E+03
       155  24 -2.002086E+05 -2.070301E+05 -2.025411E+05 -5.112862E+04 -1.339265E+05 -3.754147E+04
       155  25 -8.443561E+05 -2.757456E+05 -1.989277E+05 -2.724803E+05 -4.167050E+04  2.956979E+04
       155  26 -8.480150E+05 -3.347158E+05 -2.554905E+05 -3.084999E+05 -1.103074E+05 -1.039154E+02
       155  27 -9.010645E+05 -5.505498E+05 -4.031958E+05 -3.243860E+05 -1.707816E+05 -5.140186E+04
       156   1  1.973683E+05  1.935419E+06  2.139258E+05  3.821343E+04  6.035808E+03  1.272776E+05
       156   2  1.124425E+05  2.059764E+06  1.568926E+05  6.220766E+04  2.337152E+04  8.063193E+04
       156   3  1.274722E+05  2.215246E+06  1.551811E+05  1.275755E+05  3.523462E+04  3.397809E+04
       156   4  1.323647E+05  1.670945E+06  1.530447E+05  1.138279E+05  6.055587E+03  1.011944E+05
       156   5  1.564733E+04  1.656037E+06  7.590795E+04  9.311892E+04  2.338185E+04  6.166182E+04
       156   6 -2.324400E+03  1.671014E+06  4.916889E+04  1.137763E+05  3.524050E+04  2.212991E+04
       156   7  6.737796E+04  1.406548E+06  9.216465E+04  1.894099E+05  6.069037E+03  7.512216E+04
       156   8 -8.115412E+04  1.252468E+06 -5.083146E+03  1.240097E+05  2.339030E+04  4.270376E+04
       156   9 -1.321379E+05  1.127066E+06 -5.685674E+04  9.998947E+04  3.524692E+04  1.029185E+04
       156  10  1.973639E+05  1.935402E+06  2.138953E+05  3.821281E+04 -1.029885E-09  2.729398E-09
       156  11  1.124402E+05  2.059757E+06  1.568794E+05  6.220615E+04  1.536426E-09 -9.324924E-10
       156  12  1.274706E+05  2.215245E+06  1.551766E+05  1.275745E+05 -3.529438E-10 -2.527180E-09
       156  13  1.323619E+05  1.670934E+06  1.530255E+05  1.138274E+05 -1.467395E-09 -2.989830E-10
       156  14  1.564572E+04  1.656033E+06  7.589979E+04  9.311776E+04 -5.365053E-10  3.769471E-10
       156  15 -2.325865E+03  1.671013E+06  4.916563E+04  1.137757E+05  1.155975E-09 -1.188770E-10
       156  16  6.737641E+04  1.406542E+06  9.215400E+04  1.894095E+05  8.763636E-11 -2.442217E-09
       156  17 -8.115520E+04  1.252466E+06 -5.087593E+03  1.240089E+05  2.883270E-09 -5.051616E-10
       156  18 -1.321393E+05  1.127066E+06 -5.685928E+04  9.998918E+04 -1.502673E-09  2.624761E-09
       156  19  1.973683E+05  1.935419E+06  2.139258E+05  3.821343E+04 -6.035808E+03 -1.272776E+05
       156  20  1.124425E+05  2.059764E+06  1.568926E+05  6.220766E+04 -2.337152E+04 -8.063193E+04
       156  21  1.274722E+05  2.215246E+06  1.551811E+05  1.275755E+05 -3.523462E+04 -3.397809E+04
       156  22  1.323647E+05  1.670945E+06  1.530447E+05  1.138279E+05 -6.055587E+03 -1.011944E+05
       156  23  1.564733E+04  1.656037E+06  7.590795E+04  9.311892E+04 -2.338185E+04 -6.166182E+04
       156  24 -2.324400E+03  1.671014E+06  4.916889E+04  1.137763E+05 -3.524050E+04 -2.212991E+04
       156  25  6.737796E+04  1.406548E+06  9.216465E+04  1.894099E+05 -6.069037E+03 -7.512216E+04
       156  26 -8.115412E+04  1.252468E+06 -5.083146E+03  1.240097E+05 -2.339030E+04 -4.270376E+04
       156  27 -1.321379E+05  1.127066E+06 -5.685674E+04  9.998947E+04 -3.524692E+04 -1.029185E+04
       157   1  1.578011E+05  2.307525E+06  1.689988E+05  1.105050E+05  4.076539E+04  2.835266E+04
       157   2  1.870917E+05  2.445420E+06  1.916898E+05  9.279745E+04  4.993123E+04  5.955607E+03
       157   3  2.265017E+05  2.588960E+06  2.314986E+05  1.162576E+05  5.672223E+04 -1.644223E+04
       157   4  4.527991E+03  1.665469E+06  4.325589E+04  1.137438E+05  4.077473E+04  1.489672E+04
       157   5  3.426511E+02  1.662884E+06  3.865128E+04  9.315872E+04  4.994286E+04 -4.394302E+03
       157   6  5.747516E+03  1.665396E+06  4.902470E+04  1.137438E+05  5.673486E+04 -2.368125E+04
       157   7 -1.487698E+05  1.023807E+06 -8.250618E+04  1.169793E+05  4.078393E+04  1.454348E+03
       157   8 -1.864430E+05  8.809344E+05 -1.144162E+05  9.351957E+04  4.995448E+04 -1.473149E+04
       157   9 -2.150582E+05  7.426447E+05 -1.334909E+05  1.112339E+05  5.674756E+04 -3.090974E+04
       157  10  1.577991E+05  2.307524E+06  1.689942E+05  1.105041E+05 -1.964529E-11 -3.241539E-11
       157  11  1.870890E+05  2.445419E+06  1.916851E+05  9.279722E+04 -4.680628E-11 -1.736751E-09
       157  12  2.264981E+05  2.588959E+06  2.314921E+05  1.162584E+05 -1.719838E-09 -2.489082E-10
       157  13  4.526145E+03  1.665468E+06  4.325235E+04  1.137433E+05  1.559825E-10 -8.425126E-10
       157  14  3.399655E+02  1.662884E+06  3.864655E+04  9.315890E+04  3.434696E-10  5.119558E-10
       157  15  5.743907E+03  1.665395E+06  4.901760E+04  1.137449E+05 -1.924902E-10 -4.239132E-11
       157  16 -1.487716E+05  1.023806E+06 -8.250931E+04  1.169792E+05 -9.881049E-10  4.152967E-10
       157  17 -1.864458E+05  8.809335E+05 -1.144213E+05  9.352016E+04 -4.709140E-10 -1.252983E-09
       157  18 -2.150619E+05  7.426428E+05 -1.334988E+05  1.112353E+05  1.966131E-10  1.625019E-10
       157  19  1.578011E+05  2.307525E+06  1.689988E+05  1.105050E+05 -4.076539E+04 -2.835266E+04
       157  20  1.870917E+05  2.445420E+06  1.916898E+05  9.279745E+04 -4.993123E+04 -5.955607E+03
       157  21  2.265017E+05  2.588960E+06  2.314986E+05  1.162576E+05 -5.672223E+04  1.644223E+04
       157  22  4.527991E+03  1.665469E+06  4.325589E+04  1.137438E+05 -4.077473E+04 -1.489672E+04
       157  23  3.426511E+02  1.662884E+06  3.865128E+04  9.315872E+04 -4.994286E+04  4.394302E+03
       157  24  5.747516E+03  1.665396E+06  4.902470E+04  1.137438E+05 -5.673486E+04  2.368125E+04
       157  25 -1.487698E+05  1.023807E+06 -8.250618E+04  1.169793E+05 -4.078393E+04 -1.454348E+03
       157  26 -1.864430E+05  8.809344E+05 -1.144162E+05  9.351957E+04 -4.995448E+04  1.473149E+04
       157  27 -2.150582E+05  7.426447E+05 -1.334909E+05  1.112339E+05 -5.674756E+04  3.090974E+04
       158   1  2.414723E+05  2.696165E+06  2.601737E+05  9.469118E+04  6.294117E+04 -1.741298E+04
       158   2  2.995009E+05  2.815785E+06  3.355140E+05  1.312950E+05  5.738416E+04 -1.103724E+05
       158   3  4.899510E+05  2.980907E+06  5.043759E+05  2.077176E+05  1.809093E+04 -2.034155E+05
       158   4 -3.187324E+03  1.672677E+06  5.803268E+04  1.133961E+05  6.296255E+04 -3.196203E+04
       158   5  1.947216E+04  1.653579E+06  9.404483E+04  9.359685E+04  5.736336E+04 -8.098134E+04
       158   6  1.670706E+05  1.672440E+06  1.932240E+05  1.136048E+05  1.801622E+04 -1.300584E+05
       158   7 -2.479090E+05  6.501876E+05 -1.441588E+05  1.320698E+05  6.298309E+04 -4.648764E+04
       158   8 -2.606363E+05  4.926520E+05 -1.474943E+05  5.597049E+04  5.733900E+04 -5.164411E+04
       158   9 -1.558964E+05  3.655671E+05 -1.180225E+05  1.969083E+04  1.791930E+04 -5.685435E+04
       158  10  2.414680E+05  2.696163E+06  2.601657E+05  9.469206E+04 -2.372481E-09  7.531609E-12
       158  11  2.994941E+05  2.815771E+06  3.354850E+05  1.313001E+05 -1.335889E-09 -2.375271E-09
       158  12  4.899396E+05  2.980863E+06  5.042979E+05  2.077206E+05 -3.937030E-11  1.484246E-09
       158  13 -3.191858E+03  1.672674E+06  5.802331E+04  1.133977E+05 -1.993454E-09 -1.052595E-09
       158  14  1.946687E+04  1.653571E+06  9.402635E+04  9.360059E+04 -3.459791E-09  1.655609E-09
       158  15  1.670657E+05  1.672421E+06  1.931917E+05  1.136067E+05 -3.250745E-11  6.216298E-10
       158  16 -2.479138E+05  6.501842E+05 -1.441703E+05  1.320722E+05 -1.081693E-09  1.426435E-10
       158  17 -2.606406E+05  4.926482E+05 -1.475055E+05  5.597288E+04 -1.260002E-09 -3.264300E-09
       158  18 -1.558976E+05  3.655635E+05 -1.180292E+05  1.969165E+04 -1.119026E-09 -1.553948E-09
       158  19  2.414723E+05  2.696165E+06  2.601737E+05  9.469118E+04 -6.294117E+04  1.741298E+04
       158  20  2.995009E+05  2.815785E+06  3.355140E+05  1.312950E+05 -5.738416E+04  1.103724E+05
       158  21  4.899510E+05  2.980907E+06  5.043759E+05  2.077176E+05 -1.809093E+04  2.034155E+05
       158  22 -3.187324E+03  1.672677E+06  5.803268E+04  1.133961E+05 -6.296255E+04  3.196203E+04
       158  23  1.947216E+04  1.653579E+06  9.404483E+04  9.359685E+04 -5.736336E+04  8.098134E+04
       158  24  1.670706E+05  1.672440E+06  1.932240E+05  1.136048E+05 -1.801622E+04  1.300584E+05
       158  25 -2.479090E+05  6.501876E+05 -1.441588E+05  1.320698E+05 -6.298309E+04  4.648764E+04
       158  26 -2.606363E+05  4.926520E+05 -1.474943E+05  5.597049E+04 -5.733900E+04  5.164411E+04
       158  27 -1.558964E+05  3.655671E+05 -1.180225E+05  1.969083E+04 -1.791930E+04  5.685435E+04
       159   1 -3.001481E+05 -1.389559E+05 -1.048098E+05 -1.662009E+03  6.268964E+04  1.565352E+04
       159   2 -2.081305E+05 -2.424540E+05 -1.437473E+05 -3.110795E+04  5.448060E+04  4.974611E+04
       159   3 -8.562868E+04 -2.297884E+05 -1.482400E+05 -9.585283E+04  4.630804E+04  5.382063E+04
       159   4  8.428513E+05  1.442307E+05  1.696248E+05 -7.680321E+04  1.170380E+05  1.570845E+04
       159   5  8.248302E+05  8.497068E+03  7.867795E+04 -5.908742E+04  7.564334E+04  4.975682E+04
       159   6  8.429772E+05 -5.428775E+03  4.515733E+04 -7.666202E+04  3.428862E+04  5.380842E+04
       159   7  1.987065E+06  4.273456E+05  4.439809E+05 -1.520836E+05  1.714859E+05  1.575019E+04
       159   8  1.858796E+06  2.593813E+05  3.010427E+05 -8.711428E+04  9.684072E+04  4.976562E+04
       159   9  1.772400E+06  2.188774E+05  2.385080E+05 -5.744211E+04  2.225149E+04  5.379547E+04
       159  10 -3.001524E+05 -1.389572E+05 -1.048176E+05 -1.662799E+03 -4.097234E-11  7.320938E-12
       159  11 -2.081344E+05 -2.424574E+05 -1.437575E+05 -3.111014E+04  4.230851E-10  4.036850E-11
       159  12 -8.563176E+04 -2.297921E+05 -1.482495E+05 -9.585483E+04  7.926066E-11  1.115719E-11
       159  13  8.428365E+05  1.442268E+05  1.695987E+05 -7.680469E+04  3.658924E-10  4.215300E-11
       159  14  8.248234E+05  8.492874E+03  7.866256E+04 -5.909045E+04 -9.368307E-10  6.236972E-11
       159  15  8.429751E+05 -5.432200E+03  4.514968E+04 -7.666351E+04  2.534594E-10 -7.447266E-11
       159  16  1.987034E+06  4.273374E+05  4.439254E+05 -1.520858E+05  2.750789E-10  9.016238E-11
       159  17  1.858785E+06  2.593761E+05  3.010204E+05 -8.711816E+04 -4.723163E-10  2.005043E-10
       159  18  1.772398E+06  2.188741E+05  2.385016E+05 -5.744307E+04 -1.405959E-10 -1.821098E-10
       159  19 -3.001481E+05 -1.389559E+05 -1.048098E+05 -1.662009E+03 -6.268964E+04 -1.565352E+04
       159  20 -2.081305E+05 -2.424540E+05 -1.437473E+05 -3.110795E+04 -5.448060E+04 -4.974611E+04
       159  21 -8.562868E+04 -2.297884E+05 -1.482400E+05 -9.585283E+04 -4.630804E+04 -5.382063E+04
       159  22  8.428513E+05  1.442307E+05  1.696248E+05 -7.680321E+04 -1.170380E+05 -1.570845E+04
       159  23  8.248302E+05  8.497068E+03  7.867795E+04 -5.908742E+04 -7.564334E+04 -4.975682E+04
       159  24  8.429772E+05 -5.428775E+03  4.515733E+04 -7.666202E+04 -3.428862E+04 -5.380842E+04
       159  25  1.987065E+06  4.273456E+05  4.439809E+05 -1.520836E+05 -1.714859E+05 -1.575019E+04
       159  26  1.858796E+06  2.593813E+05  3.010427E+05 -8.711428E+04 -9.684072E+04 -4.976562E+04
       159  27  1.772400E+06  2.188774E+05  2.385080E+05 -5.744211E+04 -2.225149E+04 -5.379547E+04
       160   1 -1.312999E+04 -1.991990E+05 -1.419433E+05 -7.524129E+04  3.238640E+04  4.828945E+04
       160   2  9.168680E+04 -1.793486E+05 -1.347499E+05 -5.855337E+04  2.433805E+04  4.362193E+04
       160   3  1.990841E+05 -1.541010E+05 -1.209254E+05 -7.825965E+04  1.628437E+04  3.745865E+04
       160   4  8.355949E+05  5.949926E+03  3.544586E+04 -7.694075E+04  2.808927E+04  4.828225E+04
       160   5  8.341955E+05 -8.186317E+01  1.943576E+04 -5.874430E+04  1.837727E+04  4.361620E+04
       160   6  8.356500E+05 -4.318915E+02  1.120393E+04 -7.693914E+04  8.661293E+03  3.745523E+04
       160   7  1.685001E+06  2.110528E+05  2.127952E+05 -7.864260E+04  2.378634E+04  4.827507E+04
       160   8  1.577226E+06  1.791498E+05  1.735915E+05 -5.893548E+04  1.240947E+04  4.361048E+04
       160   9  1.472599E+06  1.532115E+05  1.433114E+05 -7.561724E+04  1.030528E+03  3.745178E+04
       160  10 -1.313174E+04 -1.992018E+05 -1.419496E+05 -7.524255E+04 -1.852906E-10 -1.574871E-10
       160  11  9.168565E+04 -1.793508E+05 -1.347546E+05 -5.855422E+04  2.009290E-10 -1.011428E-10
       160  12  1.990834E+05 -1.541026E+05 -1.209286E+05 -7.826014E+04 -1.339481E-09  1.905183E-10
       160  13  8.355934E+05  5.947210E+03  3.543999E+04 -7.694184E+04  1.200377E-10 -1.989575E-10
       160  14  8.341946E+05 -8.399738E+01  1.943155E+04 -5.874495E+04 -1.725607E-09 -1.421198E-10
       160  15  8.356495E+05 -4.334187E+02  1.120115E+04 -7.693940E+04 -2.295804E-10  9.118537E-11
       160  16  1.684999E+06  2.110502E+05  2.127897E+05 -7.864353E+04 -2.878313E-10 -1.960232E-10
       160  17  1.577225E+06  1.791478E+05  1.735876E+05 -5.893592E+04  6.523375E-11 -8.444675E-11
       160  18  1.472599E+06  1.532100E+05  1.433087E+05 -7.561727E+04  2.702112E-10 -1.145711E-10
       160  19 -1.312999E+04 -1.991990E+05 -1.419433E+05 -7.524129E+04 -3.238640E+04 -4.828945E+04
       160  20  9.168680E+04 -1.793486E+05 -1.347499E+05 -5.855337E+04 -2.433805E+04 -4.362193E+04
       160  21  1.990841E+05 -1.541010E+05 -1.209254E+05 -7.825965E+04 -1.628437E+04 -3.745865E+04
       160  22  8.355949E+05  5.949926E+03  3.544586E+04 -7.694075E+04 -2.808927E+04 -4.828225E+04
       160  23  8.341955E+05 -8.186317E+01  1.943576E+04 -5.874430E+04 -1.837727E+04 -4.361620E+04
       160  24  8.356500E+05 -4.318915E+02  1.120393E+04 -7.693914E+04 -8.661293E+03 -3.745523E+04
       160  25  1.685001E+06  2.110528E+05  2.127952E+05 -7.864260E+04 -2.378634E+04 -4.827507E+04
       160  26  1.577226E+06  1.791498E+05  1.735915E+05 -5.893548E+04 -1.240947E+04 -4.361048E+04
       160  27  1.472599E+06  1.532115E+05  1.433114E+05 -7.561724E+04 -1.030528E+03 -3.745178E+04
       161   1  2.771395E+05 -1.345137E+05 -1.067841E+05 -7.719662E+04  1.414061E+04  3.348250E+04
       161   2  3.824888E+05 -1.092813E+05 -8.877304E+04 -5.896055E+04  1.178131E+04  2.690362E+04
       161   3  4.882714E+05 -8.377715E+04 -6.914725E+04 -7.699974E+04  9.418435E+03  2.025764E+04
       161   4  8.351327E+05  8.761443E+01  8.563555E+03 -7.691354E+04  6.916017E+03  3.348041E+04
       161   5  8.349297E+05 -1.139780E+02  4.923267E+03 -5.877675E+04  4.480090E+03  2.690315E+04
       161   6  8.351634E+05 -2.979042E+01  2.950199E+03 -7.691366E+04  2.040984E+03  2.025885E+04
       161   7  1.393421E+06  1.346692E+05  1.238945E+05 -7.663017E+04 -3.149597E+02  3.347831E+04
       161   8  1.287564E+06  1.090404E+05  9.860865E+04 -5.859281E+04 -2.826356E+03  2.690267E+04
       161   9  1.182169E+06  8.370995E+04  7.504127E+04 -7.682752E+04 -5.340517E+03  2.026005E+04
       161  10  2.771389E+05 -1.345149E+05 -1.067865E+05 -7.719701E+04 -4.829506E-10  3.259244E-11
       161  11  3.824885E+05 -1.092821E+05 -8.877466E+04 -5.896081E+04  2.865828E-11 -2.833869E-10
       161  12  4.882712E+05 -8.377761E+04 -6.914819E+04 -7.699990E+04 -3.846111E-10  1.989552E-10
       161  13  8.351323E+05  8.639741E+01  8.561357E+03 -7.691372E+04 -1.077146E-09 -9.785117E-14
       161  14  8.349295E+05 -1.147609E+02  4.921869E+03 -5.877685E+04  3.121803E-12 -1.668395E-10
       161  15  8.351633E+05 -3.023243E+01  2.949420E+03 -7.691370E+04 -3.489144E-10  2.243609E-10
       161  16  1.393421E+06  1.346680E+05  1.238924E+05 -7.663016E+04 -6.913885E-10 -1.596497E-10
       161  17  1.287564E+06  1.090397E+05  9.860727E+04 -5.859275E+04  6.629446E-10 -5.810014E-11
       161  18  1.182169E+06  8.370950E+04  7.504044E+04 -7.682743E+04  1.827213E-10  1.500565E-10
       161  19  2.771395E+05 -1.345137E+05 -1.067841E+05 -7.719662E+04 -1.414061E+04 -3.348250E+04
       161  20  3.824888E+05 -1.092813E+05 -8.877304E+04 -5.896055E+04 -1.178131E+04 -2.690362E+04
       161  21  4.882714E+05 -8.377715E+04 -6.914725E+04 -7.699974E+04 -9.418435E+03 -2.025764E+04
       161  22  8.351327E+05  8.761443E+01  8.563555E+03 -7.691354E+04 -6.916017E+03 -3.348041E+04
       161  23  8.349297E+05 -1.139780E+02  4.923267E+03 -5.877675E+04 -4.480090E+03 -2.690315E+04
       161  24  8.351634E+05 -2.979042E+01  2.950199E+03 -7.691366E+04 -2.040984E+03 -2.025885E+04
       161  25  1.393421E+06  1.346692E+05  1.238945E+05 -7.663017E+04  3.149597E+02 -3.347831E+04
       161  26  1.287564E+06  1.090404E+05  9.860865E+04 -5.859281E+04  2.826356E+03 -2.690267E+04
       161  27  1.182169E+06  8.370995E+04  7.504127E+04 -7.682752E+04  5.340517E+03 -2.026005E+04
       162   1  5.664531E+05 -6.475864E+04 -5.300573E+04 -7.693339E+04  8.913926E+03  1.637437E+04
       162   2  6.717008E+05 -3.940902E+04 -3.221907E+04 -5.880944E+04  8.124541E+03  9.719017E+03
       162   3  7.770578E+05 -1.402513E+04 -1.091437E+04 -7.687128E+04  7.333846E+03  3.063233E+03
       162   4  8.350983E+05 -3.776782E+00  2.331994E+03 -7.689399E+04  1.561562E+03  1.637626E+04
       162   5  8.350551E+05 -2.287196E+00  1.597411E+03 -5.880140E+04  7.707888E+02  9.721479E+03
       162   6  8.351091E+05  3.384993E+01  1.381366E+03 -7.689401E+04 -2.116415E+01  3.066309E+03
       162   7  1.103812E+06  6.474657E+04  5.766604E+04 -7.685457E+04 -5.793925E+03  1.637814E+04
       162   8  9.984347E+05  3.940279E+04  3.541265E+04 -5.879334E+04 -6.584863E+03  9.723939E+03
       162   9  8.931638E+05  1.409265E+04  1.367712E+04 -7.691674E+04 -7.376851E+03  3.069385E+03
       162  10  5.664530E+05 -6.475895E+04 -5.300638E+04 -7.693350E+04  4.889401E-10  3.865574E-10
       162  11  6.717007E+05 -3.940914E+04 -3.221938E+04 -5.880951E+04  5.826390E-10  5.036155E-11
       162  12  7.770577E+05 -1.402516E+04 -1.091449E+04 -7.687129E+04 -2.223180E-10 -1.706661E-10
       162  13  8.350982E+05 -4.065533E+00  2.331485E+03 -7.689401E+04 -7.119183E-12  3.007575E-10
       162  14  8.350551E+05 -2.388880E+00  1.597232E+03 -5.880140E+04 -5.436340E-10  1.245952E-10
       162  15  8.351091E+05  3.383983E+01  1.381349E+03 -7.689401E+04 -1.163617E-09 -1.689059E-10
       162  16  1.103812E+06  6.474627E+04  5.766547E+04 -7.685450E+04 -3.868129E-10  2.470898E-10
       162  17  9.984347E+05  3.940267E+04  3.541239E+04 -5.879329E+04 -1.205197E-10  1.792662E-11
       162  18  8.931637E+05  1.409262E+04  1.367700E+04 -7.691672E+04 -9.512486E-10 -4.577556E-10
       162  19  5.664531E+05 -6.475864E+04 -5.300573E+04 -7.693339E+04 -8.913926E+03 -1.637437E+04
       162  20  6.717008E+05 -3.940902E+04 -3.221907E+04 -5.880944E+04 -8.124541E+03 -9.719017E+03
       162  21  7.770578E+05 -1.402513E+04 -1.091437E+04 -7.687128E+04 -7.333846E+03 -3.063233E+03
       162  22  8.350983E+05 -3.776782E+00  2.331994E+03 -7.689399E+04 -1.561562E+03 -1.637626E+04
       162  23  8.350551E+05 -2.287196E+00  1.597411E+03 -5.880140E+04 -7.707888E+02 -9.721479E+03
       162  24  8.351091E+05  3.384993E+01  1.381366E+03 -7.689401E+04  2.116415E+01 -3.066309E+03
       162  25  1.103812E+06  6.474657E+04  5.766604E+04 -7.685457E+04  5.793925E+03 -1.637814E+04
       162  26  9.984347E+05  3.940279E+04  3.541265E+04 -5.879334E+04  6.584863E+03 -9.723939E+03
       162  27  8.931638E+05  1.409265E+04  1.367712E+04 -7.691674E+04  7.376851E+03 -3.069385E+03
       163   1  8.552153E+05  4.939128E+03  5.873915E+03 -7.688562E+04  7.076042E+03 -8.102052E+02
       163   2  9.604584E+05  3.024276E+04  2.783497E+04 -5.876095E+04  6.144398E+03 -7.464203E+03
       163   3  1.065825E+06  5.558565E+04  5.040557E+04 -7.681422E+04  5.213497E+03 -1.411716E+04
       163   4  8.351132E+05  3.439254E+01  1.433236E+03 -7.689249E+04 -2.789818E+02 -8.070873E+02
       163   5  8.350526E+05 -4.208150E+00  1.878514E+03 -5.880328E+04 -1.209894E+03 -7.461563E+03
       163   6  8.351047E+05 -3.060697E+00  2.933136E+03 -7.689247E+04 -2.139911E+03 -1.411496E+04
       163   7  8.150115E+05 -4.870341E+03 -3.007264E+03 -7.689937E+04 -7.633770E+03 -8.039691E+02
       163   8  7.096618E+05 -3.025215E+04 -2.407859E+04 -5.884561E+04 -8.562729E+03 -7.458921E+03
       163   9  6.044351E+05 -5.559509E+04 -4.454195E+04 -7.697068E+04 -9.490639E+03 -1.411276E+04
       163  10  8.552153E+05  4.939114E+03  5.873820E+03 -7.688561E+04 -6.446093E-10  8.005082E-11
       163  11  9.604583E+05  3.024269E+04  2.783479E+04 -5.876091E+04 -3.974561E-10  3.460808E-10
       163  12  1.065825E+06  5.558543E+04  5.040515E+04 -7.681417E+04  8.050257E-10  2.748677E-10
       163  13  8.351132E+05  3.439182E+01  1.433235E+03 -7.689249E+04 -6.756786E-10 -2.427374E-11
       163  14  8.350526E+05 -4.268352E+00  1.878407E+03 -5.880329E+04 -1.080422E-09  3.475305E-10
       163  15  8.351046E+05 -3.275954E+00  2.932753E+03 -7.689250E+04 -8.086559E-10  1.119103E-10
       163  16  8.150115E+05 -4.870357E+03 -3.007375E+03 -7.689937E+04  2.573889E-10 -2.691717E-10
       163  17  7.096617E+05 -3.025222E+04 -2.407883E+04 -5.884566E+04  2.244093E-10  3.041278E-10
       163  18  6.044350E+05 -5.559533E+04 -4.454250E+04 -7.697079E+04 -4.737510E-10 -1.099483E-10
       163  19  8.552153E+05  4.939128E+03  5.873915E+03 -7.688562E+04 -7.076042E+03  8.102052E+02
       163  20  9.604584E+05  3.024276E+04  2.783497E+04 -5.876095E+04 -6.144398E+03  7.464203E+03
       163  21  1.065825E+06  5.558565E+04  5.040557E+04 -7.681422E+04 -5.213497E+03  1.411716E+04
       163  22  8.351132E+05  3.439254E+01  1.433236E+03 -7.689249E+04  2.789818E+02  8.070873E+02
       163  23  8.350526E+05 -4.208150E+00  1.878514E+03 -5.880328E+04  1.209894E+03  7.461563E+03
       163  24  8.351047E+05 -3.060697E+00  2.933136E+03 -7.689247E+04  2.139911E+03  1.411496E+04
       163  25  8.150115E+05 -4.870341E+03 -3.007264E+03 -7.689937E+04  7.633770E+03  8.039691E+02
       163  26  7.096618E+05 -3.025215E+04 -2.407859E+04 -5.884561E+04  8.562729E+03  7.458921E+03
       163  27  6.044351E+05 -5.559509E+04 -4.454195E+04 -7.697068E+04  9.490639E+03  1.411276E+04
       164   1  1.144174E+06  7.453781E+04  6.799626E+04 -7.677278E+04  4.629745E+03 -1.799767E+04
       164   2  1.249461E+06  9.984671E+04  9.221033E+04 -5.853723E+04  1.383872E+03 -2.463811E+04
       164   3  1.355313E+06  1.255404E+05  1.186368E+05 -7.656235E+04 -1.859547E+03 -3.121336E+04
       164   4  8.351911E+05 -3.385290E+01  3.772432E+03 -7.691110E+04 -2.748204E+03 -1.799606E+04
       164   5  8.349056E+05 -1.273106E+02  6.403364E+03 -5.877993E+04 -5.920579E+03 -2.463804E+04
       164   6  8.351625E+05  1.526965E+02  1.119766E+04 -7.691092E+04 -9.089967E+03 -3.121478E+04
       164   7  5.262991E+05 -7.461156E+04 -6.045642E+04 -7.704933E+04 -1.012255E+04 -1.799445E+04
       164   8  4.205125E+05 -1.001122E+05 -7.941274E+04 -5.902245E+04 -1.322024E+04 -2.463798E+04
       164   9  3.152684E+05 -1.252521E+05 -9.625595E+04 -7.725916E+04 -1.631444E+04 -3.121620E+04
       164  10  1.144173E+06  7.453746E+04  6.799561E+04 -7.677272E+04 -1.492503E-10  5.929825E-11
       164  11  1.249461E+06  9.984606E+04  9.220919E+04 -5.853720E+04  3.695293E-10 -2.821296E-11
       164  12  1.355312E+06  1.255394E+05  1.186350E+05 -7.656240E+04  3.400516E-10 -3.111126E-10
       164  13  8.351911E+05 -3.420284E+01  3.771809E+03 -7.691114E+04 -5.114389E-10 -1.880670E-10
       164  14  8.349054E+05 -1.279721E+02  6.402157E+03 -5.878005E+04  1.161240E-09 -2.895110E-10
       164  15  8.351621E+05  1.516276E+02  1.119567E+04 -7.691114E+04 -1.517140E-10 -3.361497E-10
       164  16  5.262989E+05 -7.461193E+04 -6.045722E+04 -7.704947E+04 -3.571949E-10 -4.041258E-10
       164  17  4.205122E+05 -1.001129E+05 -7.941421E+04 -5.902271E+04 -3.281378E-10 -4.788442E-10
       164  18  3.152679E+05 -1.252532E+05 -9.625829E+04 -7.725957E+04  1.187528E-10 -2.998299E-10
       164  19  1.144174E+06  7.453781E+04  6.799626E+04 -7.677278E+04 -4.629745E+03  1.799767E+04
       164  20  1.249461E+06  9.984671E+04  9.221033E+04 -5.853723E+04 -1.383872E+03  2.463811E+04
       164  21  1.355313E+06  1.255404E+05  1.186368E+05 -7.656235E+04  1.859547E+03  3.121336E+04
       164  22  8.351911E+05 -3.385290E+01  3.772432E+03 -7.691110E+04  2.748204E+03  1.799606E+04
       164  23  8.349056E+05 -1.273106E+02  6.403364E+03 -5.877993E+04  5.920579E+03  2.463804E+04
       164  24  8.351625E+05  1.526965E+02  1.119766E+04 -7.691092E+04  9.089967E+03  3.121478E+04
       164  25  5.262991E+05 -7.461156E+04 -6.045642E+04 -7.704933E+04  1.012255E+04  1.799445E+04
       164  26  4.205125E+05 -1.001122E+05 -7.941274E+04 -5.902245E+04  1.322024E+04  2.463798E+04
       164  27  3.152684E+05 -1.252521E+05 -9.625595E+04 -7.725916E+04  1.631444E+04  3.121620E+04
       165   1  1.434597E+06  1.439148E+05  1.388721E+05 -7.524141E+04 -3.757588E+03 -3.518170E+04
       165   2  1.538728E+06  1.699626E+05  1.717027E+05 -5.910903E+04 -1.810556E+04 -4.135326E+04
       165   3  1.646815E+06  2.037357E+05  2.158226E+05 -7.933340E+04 -3.245238E+04 -4.607993E+04
       165   4  8.358389E+05 -5.229432E+02  1.466523E+04 -7.693187E+04 -1.137396E+04 -3.518436E+04
       165   5  8.339768E+05 -4.119278E+01  2.547731E+04 -5.875319E+04 -2.411101E+04 -4.135819E+04
       165   6  8.357844E+05  7.892618E+03  4.647080E+04 -7.693342E+04 -3.684448E+04 -4.608642E+04
       165   7  2.374200E+05 -1.449833E+05 -1.095610E+05 -7.862065E+04 -1.898312E+04 -3.518698E+04
       165   8  1.296948E+05 -1.700765E+05 -1.207750E+05 -5.839776E+04 -3.010975E+04 -4.136313E+04
       165   9  2.537449E+04 -1.879924E+05 -1.229173E+05 -7.453664E+04 -4.123092E+04 -4.609294E+04
       165  10  1.434596E+06  1.439134E+05  1.388698E+05 -7.524152E+04 -1.345353E-10 -4.263082E-10
       165  11  1.538727E+06  1.699607E+05  1.716988E+05 -5.910963E+04  5.197812E-10 -1.870517E-10
       165  12  1.646813E+06  2.037331E+05  2.158166E+05 -7.933461E+04 -1.629375E-09  3.642930E-10
       165  13  8.358384E+05 -5.243078E+02  1.466266E+04 -7.693219E+04 -6.216621E-11 -3.339068E-10
       165  14  8.339757E+05 -4.318619E+01  2.547300E+04 -5.875399E+04 -1.346005E-09 -1.927617E-11
       165  15  8.357824E+05  7.889972E+03  4.646425E+04 -7.693479E+04 -9.683135E-10  2.540491E-10
       165  16  2.374193E+05 -1.449848E+05 -1.095640E+05 -7.862119E+04  1.028926E-10 -7.383562E-11
       165  17  1.296934E+05 -1.700786E+05 -1.207799E+05 -5.839876E+04  1.108671E-10  9.077157E-11
       165  18  2.537209E+04 -1.879951E+05 -1.229245E+05 -7.453817E+04  8.019018E-10  2.924517E-10
       165  19  1.434597E+06  1.439148E+05  1.388721E+05 -7.524141E+04  3.757588E+03  3.518170E+04
       165  20  1.538728E+06  1.699626E+05  1.717027E+05 -5.910903E+04  1.810556E+04  4.135326E+04
       165  21  1.646815E+06  2.037357E+05  2.158226E+05 -7.933340E+04  3.245238E+04  4.607993E+04
       165  22  8.358389E+05 -5.229432E+02  1.466523E+04 -7.693187E+04  1.137396E+04  3.518436E+04
       165  23  8.339768E+05 -4.119278E+01  2.547731E+04 -5.875319E+04  2.411101E+04  4.135819E+04
       165  24  8.357844E+05  7.892618E+03  4.647080E+04 -7.693342E+04  3.684448E+04  4.608642E+04
       165  25  2.374200E+05 -1.449833E+05 -1.095610E+05 -7.862065E+04  1.898312E+04  3.518698E+04
       165  26  1.296948E+05 -1.700765E+05 -1.207750E+05 -5.839776E+04  3.010975E+04  4.136313E+04
       165  27  2.537449E+04 -1.879924E+05 -1.229173E+05 -7.453664E+04  4.123092E+04  4.609294E+04
       166   1  1.736385E+06  2.080160E+05  2.445696E+05 -5.168902E+04 -3.310472E+04 -5.154583E+04
       166   2  1.817196E+06  2.528048E+05  3.173027E+05 -9.615401E+04 -1.194891E+05 -4.786570E+04
       166   3  1.950791E+06  4.627042E+05  4.875156E+05 -1.759494E+05 -2.059286E+05 -1.518457E+04
       166   4  8.454587E+05 -7.013833E+03  5.920458E+04 -7.666213E+04 -4.497320E+04 -5.155653E+04
       166   5  8.217489E+05  1.126601E+04  1.031800E+05 -5.908591E+04 -9.920611E+04 -4.786197E+04
       166   6  8.453178E+05  1.892139E+05  2.224220E+05 -7.682871E+04 -1.534749E+05 -1.516268E+04
       166   7 -4.471656E+04 -2.220917E+05 -1.262032E+05 -1.015989E+05 -5.682492E+04 -5.156628E+04
       166   8 -1.727651E+05 -2.303323E+05 -1.109985E+05 -2.207805E+04 -7.895502E+04 -4.785583E+04
       166   9 -2.590124E+05 -8.432635E+04 -4.274261E+04  2.211504E+04 -1.011137E+05 -1.512408E+04
       166  10  1.736383E+06  2.080128E+05  2.445626E+05 -5.169039E+04 -1.097768E-10  5.559530E-10
       166  11  1.817180E+06  2.527985E+05  3.172716E+05 -9.615861E+04  1.652749E-10 -1.421257E-10
       166  12  1.950746E+06  4.626926E+05  4.874358E+05 -1.759519E+05  7.952471E-10  3.173536E-12
       166  13  8.454558E+05 -7.017230E+03  5.919578E+04 -7.666400E+04 -1.436754E-09  3.546637E-10
       166  14  8.217378E+05  1.126091E+04  1.031572E+05 -5.908973E+04 -7.016415E-10  2.758539E-11
       166  15  8.452925E+05  1.892074E+05  2.223773E+05 -7.683058E+04  8.565655E-11  7.664911E-11
       166  16 -4.472074E+04 -2.220954E+05 -1.262142E+05 -1.016013E+05  8.526751E-11  2.886125E-10
       166  17 -1.727724E+05 -2.303364E+05 -1.110145E+05 -2.208110E+04 -4.487840E-10  8.742304E-10
       166  18 -2.590235E+05 -8.432934E+04 -4.276226E+04  2.211381E+04 -1.200353E-10  1.962138E-10
       166  19  1.736385E+06  2.080160E+05  2.445696E+05 -5.168902E+04  3.310472E+04  5.154583E+04
       166  20  1.817196E+06  2.528048E+05  3.173027E+05 -9.615401E+04  1.194891E+05  4.786570E+04
       166  21  1.950791E+06  4.627042E+05  4.875156E+05 -1.759494E+05  2.059286E+05  1.518457E+04
       166  22  8.454587E+05 -7.013833E+03  5.920458E+04 -7.666213E+04  4.497320E+04  5.155653E+04
       166  23  8.217489E+05  1.126601E+04  1.031800E+05 -5.908591E+04  9.920611E+04  4.786197E+04
       166  24  8.453178E+05  1.892139E+05  2.224220E+05 -7.682871E+04  1.534749E+05  1.516268E+04
       166  25 -4.471656E+04 -2.220917E+05 -1.262032E+05 -1.015989E+05  5.682492E+04  5.156628E+04
       166  26 -1.727651E+05 -2.303323E+05 -1.109985E+05 -2.207805E+04  7.895502E+04  4.785583E+04
       166  27 -2.590124E+05 -8.432635E+04 -4.274261E+04  2.211504E+04  1.011137E+05  1.512408E+04
       167   1  1.631854E+05  7.695005E+05  1.697077E+05 -1.422018E+05  4.381210E+03  5.841235E+04
       167   2  7.202848E+04  6.066312E+05  9.169559E+04 -9.798983E+04  1.174511E+04  2.881277E+04
       167   3  2.916900E+04  4.595243E+05  4.497766E+04 -1.063145E+05  6.601444E+03 -7.983566E+02
       167   4  5.457776E+04  3.326725E+05  6.376838E+04 -1.130459E+05  4.408453E+03  4.340428E+04
       167   5  3.561234E+03  3.260126E+05  3.004778E+04 -8.682424E+04  1.174798E+04  2.763488E+04
       167   6 -1.542181E+03  3.327077E+05  1.803758E+04 -1.131362E+05  6.579084E+03  1.184652E+04
       167   7 -5.404059E+04 -1.039792E+05 -4.218343E+04 -8.391049E+04  4.434298E+03  2.840673E+04
       167   8 -6.491082E+04  4.546789E+04 -3.160476E+04 -7.566372E+04  1.175080E+04  2.645752E+04
       167   9 -3.225415E+04  2.059067E+05 -8.902800E+03 -1.199565E+05  6.556444E+03  2.448886E+04
       167  10  1.631844E+05  7.694968E+05  1.697013E+05 -1.422020E+05  2.466884E-10  1.246031E-09
       167  11  7.202811E+04  6.066303E+05  9.169377E+04 -9.799010E+04 -3.231646E-10 -1.201206E-10
       167  12  2.916896E+04  4.595243E+05  4.497758E+04 -1.063145E+05 -7.159006E-10 -1.788315E-09
       167  13  5.457724E+04  3.326705E+05  6.376481E+04 -1.130461E+05  2.792743E-10 -6.481537E-11
       167  14  3.560881E+03  3.260118E+05  3.004609E+04 -8.682450E+04  1.166266E-09  1.574545E-11
       167  15 -1.542265E+03  3.327076E+05  1.803723E+04 -1.131363E+05  7.783965E-10 -1.347844E-11
       167  16 -5.404083E+04 -1.039800E+05 -4.218499E+04 -8.391059E+04  6.567362E-10 -1.244663E-09
       167  17 -6.491116E+04  4.546710E+04 -3.160633E+04 -7.566397E+04  2.062819E-09  3.057324E-10
       167  18 -3.225435E+04  2.059060E+05 -8.904007E+03 -1.199567E+05  1.628954E-10  1.765846E-09
       167  19  1.631854E+05  7.695005E+05  1.697077E+05 -1.422018E+05 -4.381210E+03 -5.841235E+04
       167  20  7.202848E+04  6.066312E+05  9.169559E+04 -9.798983E+04 -1.174511E+04 -2.881277E+04
       167  21  2.916900E+04  4.595243E+05  4.497766E+04 -1.063145E+05 -6.601444E+03  7.983566E+02
       167  22  5.457776E+04  3.326725E+05  6.376838E+04 -1.130459E+05 -4.408453E+03 -4.340428E+04
       167  23  3.561234E+03  3.260126E+05  3.004778E+04 -8.682424E+04 -1.174798E+04 -2.763488E+04
       167  24 -1.542181E+03  3.327077E+05  1.803758E+04 -1.131362E+05 -6.579084E+03 -1.184652E+04
       167  25 -5.404059E+04 -1.039792E+05 -4.218343E+04 -8.391049E+04 -4.434298E+03 -2.840673E+04
       167  26 -6.491082E+04  4.546789E+04 -3.160476E+04 -7.566372E+04 -1.175080E+04 -2.645752E+04
       167  27 -3.225415E+04  2.059067E+05 -8.902800E+03 -1.199565E+05 -6.556444E+03 -2.448886E+04
       168   1  5.466968E+03  3.413702E+05  1.749690E+04 -1.142119E+05  1.753734E+02 -3.918002E+02
       168   2 -3.433595E+04  1.858983E+05 -1.987350E+04 -8.658416E+04 -8.392271E+03 -4.977326E+03
       168   3 -7.109019E+04  3.160809E+04 -5.354945E+04 -1.121037E+05 -1.659389E+04 -9.559815E+03
       168   4  2.650218E+03  3.300152E+05  1.478415E+04 -1.132509E+05  1.580735E+02  9.281551E+03
       168   5  3.201657E+02  3.293939E+05  9.951903E+03 -8.667905E+04 -8.408131E+03  4.290664E+03
       168   6  1.110388E+03  3.300021E+05  9.096491E+03 -1.132535E+05 -1.660841E+04 -6.982828E+02
       168   7 -1.664880E+02  3.186606E+05  1.207175E+04 -1.122899E+05  1.408033E+02  1.895473E+04
       168   8  3.497501E+04  4.729092E+05  3.977650E+04 -8.677396E+04 -8.423991E+03  1.356076E+04
       168   9  7.330529E+04  6.284804E+05  7.173775E+04 -1.144039E+05 -1.662296E+04  8.167440E+03
       168  10  5.466968E+03  3.413702E+05  1.749690E+04 -1.142119E+05 -1.044937E-09  6.837379E-10
       168  11 -3.433603E+04  1.858983E+05 -1.987368E+04 -8.658419E+04  1.031741E-10 -1.486834E-10
       168  12 -7.109051E+04  3.160792E+04 -5.355014E+04 -1.121038E+05 -3.977439E-10 -8.932797E-10
       168  13  2.650195E+03  3.300151E+05  1.478399E+04 -1.132509E+05 -5.533126E-10  7.533054E-11
       168  14  3.200849E+02  3.293939E+05  9.951736E+03 -8.667902E+04  3.821026E-10  1.506143E-11
       168  15  1.110092E+03  3.300020E+05  9.095972E+03 -1.132535E+05 -5.325227E-10  8.779199E-11
       168  16 -1.665844E+02  3.186602E+05  1.207107E+04 -1.122899E+05 -9.110440E-11 -6.793165E-10
       168  17  3.497489E+04  4.729090E+05  3.977602E+04 -8.677386E+04 -6.424690E-10  2.937250E-10
       168  18  7.330498E+04  6.284803E+05  7.173711E+04 -1.144037E+05  1.657372E-10  9.794305E-10
       168  19  5.466968E+03  3.413702E+05  1.749690E+04 -1.142119E+05 -1.753734E+02  3.918002E+02
       168  20 -3.433595E+04  1.858983E+05 -1.987350E+04 -8.658416E+04  8.392271E+03  4.977326E+03
       168  21 -7.109019E+04  3.160809E+04 -5.354945E+04 -1.121037E+05  1.659389E+04  9.559815E+03
       168  22  2.650218E+03  3.300152E+05  1.478415E+04 -1.132509E+05 -1.580735E+02 -9.281551E+03
       168  23  3.201657E+02  3.293939E+05  9.951903E+03 -8.667905E+04  8.408131E+03 -4.290664E+03
       168  24  1.110388E+03  3.300021E+05  9.096491E+03 -1.132535E+05  1.660841E+04  6.982828E+02
       168  25 -1.664880E+02  3.186606E+05  1.207175E+04 -1.122899E+05 -1.408033E+02 -1.895473E+04
       168  26  3.497501E+04  4.729092E+05  3.977650E+04 -8.677396E+04  8.423991E+03 -1.356076E+04
       168  27  7.330529E+04  6.284804E+05  7.173775E+04 -1.144039E+05  1.662296E+04 -8.167440E+03
       169   1 -1.004847E+05 -8.316483E+04 -7.721700E+04 -1.151518E+05 -2.338275E+04 -1.602059E+04
       169   2 -1.366539E+05 -2.390309E+05 -1.104032E+05 -8.205787E+04 -2.599543E+04 -7.660361E+02
       169   3 -1.587049E+05 -3.934178E+05 -1.500137E+05 -1.011867E+05 -8.765401E+03  1.450870E+04
       169   4 -3.607980E+02  3.308792E+05  9.453323E+03 -1.130538E+05 -2.340442E+04 -2.215179E+03
       169   5  1.435808E+03  3.282245E+05  1.272436E+04 -8.692940E+04 -2.598174E+04 -8.863316E+03
       169   6  2.114619E+04  3.308223E+05  2.477750E+04 -1.130234E+05 -8.724842E+03 -1.548720E+04
       169   7  9.975221E+04  7.450857E+05  9.611484E+04 -1.109542E+05 -2.342599E+04  1.159929E+04
       169   8  1.395043E+05  8.957818E+05  1.358329E+05 -9.180531E+04 -2.596792E+04 -1.696790E+04
       169   9  2.009600E+05  1.055544E+06  1.995346E+05 -1.248737E+05 -8.683166E+03 -4.551797E+04
       169  10 -1.004853E+05 -8.316526E+04 -7.721851E+04 -1.151521E+05 -9.748580E-10  2.386337E-10
       169  11 -1.366546E+05 -2.390310E+05 -1.104044E+05 -8.205789E+04  1.291616E-10  2.343449E-10
       169  12 -1.587050E+05 -3.934181E+05 -1.500143E+05 -1.011866E+05  2.032612E-10 -1.516127E-10
       169  13 -3.613876E+02  3.308790E+05  9.452284E+03 -1.130538E+05  2.762389E-10 -2.933228E-11
       169  14  1.435062E+03  3.282242E+05  1.272294E+04 -8.692958E+04  1.251528E-10 -1.667179E-11
       169  15  2.114605E+04  3.308220E+05  2.477690E+04 -1.130235E+05  3.304028E-10  6.515346E-12
       169  16  9.975158E+04  7.450854E+05  9.611356E+04 -1.109540E+05 -2.681001E-10 -8.557343E-11
       169  17  1.395035E+05  8.957813E+05  1.358311E+05 -9.180566E+04  7.101183E-10 -1.956168E-10
       169  18  2.009593E+05  1.055542E+06  1.995306E+05 -1.248740E+05  3.101658E-10  2.168937E-11
       169  19 -1.004847E+05 -8.316483E+04 -7.721700E+04 -1.151518E+05  2.338275E+04  1.602059E+04
       169  20 -1.366539E+05 -2.390309E+05 -1.104032E+05 -8.205787E+04  2.599543E+04  7.660361E+02
       169  21 -1.587049E+05 -3.934178E+05 -1.500137E+05 -1.011867E+05  8.765401E+03 -1.450870E+04
       169  22 -3.607980E+02  3.308792E+05  9.453323E+03 -1.130538E+05  2.340442E+04  2.215179E+03
       169  23  1.435808E+03  3.282245E+05  1.272436E+04 -8.692940E+04  2.598174E+04  8.863316E+03
       169  24  2.114619E+04  3.308223E+05  2.477750E+04 -1.130234E+05  8.724842E+03  1.548720E+04
       169  25  9.975221E+04  7.450857E+05  9.611484E+04 -1.109542E+05  2.342599E+04 -1.159929E+04
       169  26  1.395043E+05  8.957818E+05  1.358329E+05 -9.180531E+04  2.596792E+04  1.696790E+04
       169  27  2.009600E+05  1.055544E+06  1.995346E+05 -1.248737E+05  8.683166E+03  4.551797E+04
       170   1 -1.485558E+06 -6.253751E+05 -3.918759E+05 -5.512974E+05 -1.672241E+05 -5.073056E+04
       170   2 -1.428470E+06 -4.088914E+05 -2.450271E+05 -5.332308E+05 -1.075605E+05 -1.578212E+03
       170   3 -1.418774E+06 -3.492667E+05 -1.879401E+05 -4.968742E+05 -4.010054E+04  2.690211E+04
       170   4 -8.211114E+05 -2.964098E+05 -2.008245E+05 -2.889723E+05 -1.325185E+05 -3.769283E+04
       170   5 -7.884723E+05 -1.421396E+05 -8.856637E+04 -3.274315E+05 -9.414147E+04  3.461146E+03
       170   6 -7.989413E+05 -1.404256E+05 -4.911699E+04 -3.476211E+05 -4.797740E+04  2.393842E+04
       170   7 -1.562223E+05  3.268503E+04 -9.811103E+03 -2.636252E+04 -9.777254E+04 -2.462877E+04
       170   8 -1.480636E+05  1.246716E+05  6.786394E+04 -1.214280E+05 -8.070739E+04  8.507743E+03
       170   9 -1.787218E+05  6.842899E+04  8.968293E+04 -1.982381E+05 -5.586284E+04  2.097217E+04
       170  10 -1.485589E+06 -6.253854E+05 -3.919334E+05 -5.513043E+05  6.762339E-11  3.092767E-12
       170  11 -1.428483E+06 -4.088945E+05 -2.450489E+05 -5.332309E+05  9.256872E-10 -2.088810E-10
       170  12 -1.418775E+06 -3.492679E+05 -1.879445E+05 -4.968733E+05 -2.586325E-10 -2.507145E-10
       170  13 -8.211307E+05 -2.964161E+05 -2.008602E+05 -2.889764E+05  3.893944E-10 -7.194120E-11
       170  14 -7.884819E+05 -1.421420E+05 -8.858307E+04 -3.274312E+05 -8.829153E-11 -2.273738E-10
       170  15 -7.989439E+05 -1.404269E+05 -4.912239E+04 -3.476202E+05  4.506081E-10  1.406585E-11
       170  16 -1.562328E+05  3.268181E+04 -9.830212E+03 -2.636446E+04 -2.308796E-10 -1.540388E-10
       170  17 -1.480707E+05  1.246698E+05  6.785156E+04 -1.214275E+05  6.121837E-10 -1.108908E-10
       170  18 -1.787252E+05  6.842768E+04  8.967624E+04 -1.982372E+05  9.582135E-11  2.993292E-10
       170  19 -1.485558E+06 -6.253751E+05 -3.918759E+05 -5.512974E+05  1.672241E+05  5.073056E+04
       170  20 -1.428470E+06 -4.088914E+05 -2.450271E+05 -5.332308E+05  1.075605E+05  1.578212E+03
       170  21 -1.418774E+06 -3.492667E+05 -1.879401E+05 -4.968742E+05  4.010054E+04 -2.690211E+04
       170  22 -8.211114E+05 -2.964098E+05 -2.008245E+05 -2.889723E+05  1.325185E+05  3.769283E+04
       170  23 -7.884723E+05 -1.421396E+05 -8.856637E+04 -3.274315E+05  9.414147E+04 -3.461146E+03
       170  24 -7.989413E+05 -1.404256E+05 -4.911699E+04 -3.476211E+05  4.797740E+04 -2.393842E+04
       170  25 -1.562223E+05  3.268503E+04 -9.811103E+03 -2.636252E+04  9.777254E+04  2.462877E+04
       170  26 -1.480636E+05  1.246716E+05  6.786394E+04 -1.214280E+05  8.070739E+04 -8.507743E+03
       170  27 -1.787218E+05  6.842899E+04  8.968293E+04 -1.982381E+05  5.586284E+04 -2.097217E+04
       171   1 -1.350097E+06 -3.617897E+05 -1.675677E+05 -4.960218E+05 -3.840130E+04  2.336619E+04
       171   2 -1.298117E+06 -3.234449E+05 -1.349254E+05 -4.713583E+05 -2.628035E+04  2.496593E+04
       171   3 -1.234505E+06 -3.079125E+05 -1.124793E+05 -4.631893E+05 -1.379046E+04  2.558097E+04
       171   4 -7.925434E+05 -1.526260E+05 -3.845831E+04 -3.398926E+05 -4.058292E+04  2.254326E+04
       171   5 -7.979283E+05 -1.376417E+05 -2.007483E+04 -3.330219E+05 -2.946884E+04  2.376576E+04
       171   6 -7.914802E+05 -1.452653E+05 -1.108155E+04 -3.426468E+05 -1.798703E+04  2.400350E+04
       171   7 -2.346817E+05  5.656157E+04  9.062904E+04 -1.836352E+05 -4.276664E+04  2.171951E+04
       171   8 -2.974882E+05  4.818067E+04  9.475907E+04 -1.945833E+05 -3.266012E+04  2.256454E+04
       171   9 -3.482556E+05  1.739663E+04  9.030402E+04 -2.220253E+05 -2.218688E+04  2.242482E+04
       171  10 -1.350098E+06 -3.617906E+05 -1.675715E+05 -4.960211E+05  1.150489E-09  1.051071E-10
       171  11 -1.298118E+06 -3.234458E+05 -1.349279E+05 -4.713577E+05  1.966714E-09 -5.387062E-10
       171  12 -1.234506E+06 -3.079132E+05 -1.124809E+05 -4.631890E+05  1.929881E-09  9.429872E-11
       171  13 -7.925453E+05 -1.526270E+05 -3.846236E+04 -3.398919E+05  1.326168E-10 -3.135350E-10
       171  14 -7.979294E+05 -1.376425E+05 -2.007752E+04 -3.330213E+05  2.894015E-10 -9.380493E-10
       171  15 -7.914807E+05 -1.452660E+05 -1.108324E+04 -3.426465E+05  1.106837E-09 -6.752447E-12
       171  16 -2.346838E+05  5.656057E+04  9.062471E+04 -1.836345E+05 -1.125173E-09 -6.710674E-10
       171  17 -2.974895E+05  4.817984E+04  9.475611E+04 -1.945827E+05  6.625356E-11 -1.231381E-09
       171  18 -3.482563E+05  1.739596E+04  9.030215E+04 -2.220249E+05 -1.312874E-09 -3.381210E-10
       171  19 -1.350097E+06 -3.617897E+05 -1.675677E+05 -4.960218E+05  3.840130E+04 -2.336619E+04
       171  20 -1.298117E+06 -3.234449E+05 -1.349254E+05 -4.713583E+05  2.628035E+04 -2.496593E+04
       171  21 -1.234505E+06 -3.079125E+05 -1.124793E+05 -4.631893E+05  1.379046E+04 -2.558097E+04
       171  22 -7.925434E+05 -1.526260E+05 -3.845831E+04 -3.398926E+05  4.058292E+04 -2.254326E+04
       171  23 -7.979283E+05 -1.376417E+05 -2.007483E+04 -3.330219E+05  2.946884E+04 -2.376576E+04
       171  24 -7.914802E+05 -1.452653E+05 -1.108155E+04 -3.426468E+05  1.798703E+04 -2.400350E+04
       171  25 -2.346817E+05  5.656157E+04  9.062904E+04 -1.836352E+05  4.276664E+04 -2.171951E+04
       171  26 -2.974882E+05  4.818067E+04  9.475907E+04 -1.945833E+05  3.266012E+04 -2.256454E+04
       171  27 -3.482556E+05  1.739663E+04  9.030402E+04 -2.220253E+05  2.218688E+04 -2.242482E+04
       172   1 -1.187948E+06 -2.925371E+05 -9.908979E+04 -4.513323E+05 -1.161149E+04  2.373862E+04
       172   2 -1.136431E+06 -2.624149E+05 -8.189052E+04 -4.260454E+05 -7.822188E+03  2.077780E+04
       172   3 -1.069517E+06 -2.484712E+05 -6.652275E+04 -4.188377E+05 -4.013903E+03  1.776188E+04
       172   4 -7.909599E+05 -1.458360E+05 -8.386353E+03 -3.422427E+05 -1.555045E+04  2.225855E+04
       172   5 -7.986330E+05 -1.375966E+05 -4.590625E+03 -3.332583E+05 -1.181643E+04  1.927788E+04
       172   6 -7.909016E+05 -1.455237E+05 -2.581557E+03 -3.423535E+05 -8.063679E+03  1.624205E+04
       172   7 -3.938140E+05  8.767897E+02  8.230670E+04 -2.330893E+05 -1.949214E+04  2.077746E+04
       172   8 -4.607217E+05 -1.277015E+04  7.270146E+04 -2.404253E+05 -1.581301E+04  1.777708E+04
       172   9 -5.122101E+05 -4.257119E+04  6.135405E+04 -2.658384E+05 -1.211540E+04  1.472149E+04
       172  10 -1.187948E+06 -2.925377E+05 -9.909111E+04 -4.513320E+05  1.934402E-08  8.002452E-09
       172  11 -1.136431E+06 -2.624154E+05 -8.189144E+04 -4.260453E+05 -2.438437E-09  1.562861E-09
       172  12 -1.069517E+06 -2.484715E+05 -6.652337E+04 -4.188377E+05 -2.100348E-08 -6.333898E-09
       172  13 -7.909603E+05 -1.458366E+05 -8.387738E+03 -3.422424E+05 -6.054522E-10  9.465534E-10
       172  14 -7.986332E+05 -1.375970E+05 -4.591585E+03 -3.332581E+05 -1.723866E-09  1.591351E-09
       172  15 -7.909017E+05 -1.455240E+05 -2.582175E+03 -3.423534E+05 -1.452085E-09  7.065548E-10
       172  16 -3.938145E+05  8.762244E+02  8.230517E+04 -2.330890E+05 -2.099816E-08 -6.248326E-09
       172  17 -4.607221E+05 -1.277056E+04  7.270040E+04 -2.404251E+05 -2.479003E-09  1.625091E-09
       172  18 -5.122103E+05 -4.257147E+04  6.135337E+04 -2.658383E+05  1.862211E-08  7.865118E-09
       172  19 -1.187948E+06 -2.925371E+05 -9.908979E+04 -4.513323E+05  1.161149E+04 -2.373862E+04
       172  20 -1.136431E+06 -2.624149E+05 -8.189052E+04 -4.260454E+05  7.822188E+03 -2.077780E+04
       172  21 -1.069517E+06 -2.484712E+05 -6.652275E+04 -4.188377E+05  4.013903E+03 -1.776188E+04
       172  22 -7.909599E+05 -1.458360E+05 -8.386353E+03 -3.422427E+05  1.555045E+04 -2.225855E+04
       172  23 -7.986330E+05 -1.375966E+05 -4.590625E+03 -3.332583E+05  1.181643E+04 -1.927788E+04
       172  24 -7.909016E+05 -1.455237E+05 -2.581557E+03 -3.423535E+05  8.063679E+03 -1.624205E+04
       172  25 -3.938140E+05  8.767897E+02  8.230670E+04 -2.330893E+05  1.949214E+04 -2.077746E+04
       172  26 -4.607217E+05 -1.277015E+04  7.270146E+04 -2.404253E+05  1.581301E+04 -1.777708E+04
       172  27 -5.122101E+05 -4.257119E+04  6.135405E+04 -2.658384E+05  1.211540E+04 -1.472149E+04
       173   1 -1.023903E+06 -2.316495E+05 -5.511674E+04 -4.063905E+05 -2.785361E+03  1.561765E+04
       173   2 -9.722748E+05 -2.017387E+05 -4.093506E+04 -3.809385E+05 -6.975802E+02  1.192840E+04
       173   3 -9.048519E+05 -1.877254E+05 -2.721515E+04 -3.736816E+05  1.391831E+03  8.232328E+03
       173   4 -7.908241E+05 -1.455548E+05 -1.984453E+03 -3.423434E+05 -6.829238E+03  1.410046E+04
       173   5 -7.987145E+05 -1.375973E+05 -1.225451E+03 -3.332469E+05 -4.748345E+03  1.040908E+04
       173   6 -7.908142E+05 -1.455364E+05 -9.230188E+02 -3.423471E+05 -2.665895E+03  6.710871E+03
       173   7 -5.576888E+05 -5.945550E+04  5.114472E+04 -2.782739E+05 -1.087479E+04  1.258264E+04
       173   8 -6.251233E+05 -7.345346E+04  3.848239E+04 -2.855431E+05 -8.800353E+03  8.889289E+03
       173   9 -6.767633E+05 -1.033464E+05  2.536832E+04 -3.110073E+05 -6.724431E+03  5.189109E+03
       173  10 -1.023903E+06 -2.316498E+05 -5.511721E+04 -4.063905E+05 -1.970096E-09 -4.627648E-10
       173  11 -9.722749E+05 -2.017388E+05 -4.093533E+04 -3.809385E+05 -6.342248E-10 -9.553956E-10
       173  12 -9.048520E+05 -1.877254E+05 -2.721529E+04 -3.736816E+05 -6.648068E-10 -8.085437E-10
       173  13 -7.908242E+05 -1.455550E+05 -1.984914E+03 -3.423433E+05 -1.348333E-10 -7.505920E-11
       173  14 -7.987145E+05 -1.375974E+05 -1.225697E+03 -3.332469E+05  3.199724E-10 -4.517310E-10
       173  15 -7.908142E+05 -1.455364E+05 -9.231167E+02 -3.423471E+05  1.110288E-10 -3.745999E-10
       173  16 -5.576890E+05 -5.945571E+04  5.114420E+04 -2.782737E+05  1.302913E-09  4.686614E-10
       173  17 -6.251234E+05 -7.345357E+04  3.848209E+04 -2.855430E+05  1.462358E-09  4.677017E-11
       173  18 -6.767634E+05 -1.033465E+05  2.536818E+04 -3.110073E+05  1.688729E-09  1.662294E-10
       173  19 -1.023903E+06 -2.316495E+05 -5.511674E+04 -4.063905E+05  2.785361E+03 -1.561765E+04
       173  20 -9.722748E+05 -2.017387E+05 -4.093506E+04 -3.809385E+05  6.975802E+02 -1.192840E+04
       173  21 -9.048519E+05 -1.877254E+05 -2.721515E+04 -3.736816E+05 -1.391831E+03 -8.232328E+03
       173  22 -7.908241E+05 -1.455548E+05 -1.984453E+03 -3.423434E+05  6.829238E+03 -1.410046E+04
       173  23 -7.987145E+05 -1.375973E+05 -1.225451E+03 -3.332469E+05  4.748345E+03 -1.040908E+04
       173  24 -7.908142E+05 -1.455364E+05 -9.230188E+02 -3.423471E+05  2.665895E+03 -6.710871E+03
       173  25 -5.576888E+05 -5.945550E+04  5.114472E+04 -2.782739E+05  1.087479E+04 -1.258264E+04
       173  26 -6.251233E+05 -7.345346E+04  3.848239E+04 -2.855431E+05  8.800353E+03 -8.889289E+03
       173  27 -6.767633E+05 -1.033464E+05  2.536832E+04 -3.110073E+05  6.724431E+03 -5.189109E+03
       174   1 -8.591873E+05 -1.707911E+05 -1.634901E+04 -3.611727E+05  2.404102E+03  6.001695E+03
       174   2 -8.074507E+05 -1.408416E+05 -3.104736E+03 -3.356741E+05  4.425368E+03  2.274953E+03
       174   3 -7.398961E+05 -1.268125E+05  9.727458E+03 -3.284060E+05  6.446119E+03 -1.450535E+03
       174   4 -7.908070E+05 -1.455414E+05 -9.017044E+02 -3.423543E+05 -1.656095E+03  4.479468E+03
       174   5 -7.987139E+05 -1.375798E+05 -1.100872E+03 -3.332387E+05  3.662821E+02  7.531650E+02
       174   6 -7.908066E+05 -1.455391E+05 -1.712935E+03 -3.423551E+05  2.388090E+03 -2.971901E+03
       174   7 -7.224224E+05 -1.202914E+05  1.454525E+04 -3.235340E+05 -5.716754E+03  2.957067E+03
       174   8 -7.899769E+05 -1.343179E+05  9.030570E+02 -3.308033E+05 -3.692866E+03 -7.686467E+02
       174   9 -8.417146E+05 -1.642656E+05 -1.315351E+04 -3.563032E+05 -1.669601E+03 -4.493141E+03
       174  10 -8.591874E+05 -1.707912E+05 -1.634908E+04 -3.611728E+05 -3.757163E-10 -5.700817E-10
       174  11 -8.074507E+05 -1.408416E+05 -3.104783E+03 -3.356741E+05  3.072625E-10 -4.649948E-10
       174  12 -7.398962E+05 -1.268125E+05  9.727375E+03 -3.284060E+05 -4.542328E-11 -5.015664E-10
       174  13 -7.908070E+05 -1.455414E+05 -9.017472E+02 -3.423543E+05  1.008931E-10 -3.512048E-10
       174  14 -7.987139E+05 -1.375798E+05 -1.100874E+03 -3.332387E+05 -4.477841E-10 -3.821994E-10
       174  15 -7.908066E+05 -1.455391E+05 -1.712962E+03 -3.423551E+05 -1.956670E-10 -3.143708E-10
       174  16 -7.224224E+05 -1.202915E+05  1.454518E+04 -3.235340E+05  2.430233E-10 -2.284232E-10
       174  17 -7.899769E+05 -1.343179E+05  9.030302E+02 -3.308033E+05 -1.614838E-10 -4.115090E-10
       174  18 -8.417146E+05 -1.642656E+05 -1.315355E+04 -3.563032E+05  1.550238E-10 -1.340753E-10
       174  19 -8.591873E+05 -1.707911E+05 -1.634901E+04 -3.611727E+05 -2.404102E+03 -6.001695E+03
       174  20 -8.074507E+05 -1.408416E+05 -3.104736E+03 -3.356741E+05 -4.425368E+03 -2.274953E+03
       174  21 -7.398961E+05 -1.268125E+05  9.727458E+03 -3.284060E+05 -6.446119E+03  1.450535E+03
       174  22 -7.908070E+05 -1.455414E+05 -9.017044E+02 -3.423543E+05  1.656095E+03 -4.479468E+03
       174  23 -7.987139E+05 -1.375798E+05 -1.100872E+03 -3.332387E+05 -3.662821E+02 -7.531650E+02
       174  24 -7.908066E+05 -1.455391E+05 -1.712935E+03 -3.423551E+05 -2.388090E+03  2.971901E+03
       174  25 -7.224224E+05 -1.202914E+05  1.454525E+04 -3.235340E+05  5.716754E+03 -2.957067E+03
       174  26 -7.899769E+05 -1.343179E+05  9.030570E+02 -3.308033E+05  3.692866E+03  7.686467E+02
       174  27 -8.417146E+05 -1.642656E+05 -1.315351E+04 -3.563032E+05  1.669601E+03  4.493141E+03
       175   1 -6.942463E+05 -1.098862E+05  2.007527E+04 -3.159448E+05  7.637410E+03 -3.616633E+03
       175   2 -6.424734E+05 -7.994290E+04  3.182247E+04 -2.904264E+05  1.100960E+04 -6.820423E+03
       175   3 -5.751778E+05 -6.618835E+04  4.207746E+04 -2.831007E+05  1.436820E+04 -9.985347E+03
       175   4 -7.908642E+05 -1.455219E+05 -2.209969E+03 -3.423769E+05  3.571613E+03 -5.141039E+03
       175   5 -7.986413E+05 -1.375475E+05 -3.891186E+03 -3.332348E+05  6.983075E+03 -8.330528E+03
       175   6 -7.909066E+05 -1.457702E+05 -7.095920E+03 -3.422871E+05  1.038075E+04 -1.148120E+04
       175   7 -8.874728E+05 -1.811569E+05 -2.449576E+04 -3.688052E+05 -4.934966E+02 -6.665189E+03
       175   8 -9.547841E+05 -1.951501E+05 -3.960626E+04 -3.760332E+05  2.957667E+03 -9.840218E+03
       175   9 -1.006587E+06 -2.253481E+05 -5.627193E+04 -4.014543E+05  6.394827E+03 -1.297649E+04
       175  10 -6.942464E+05 -1.098862E+05  2.007514E+04 -3.159448E+05 -2.127728E-10 -3.954936E-10
       175  11 -6.424736E+05 -7.994298E+04  3.182216E+04 -2.904264E+05  1.455128E-10 -5.925320E-11
       175  12 -5.751781E+05 -6.618851E+04  4.207688E+04 -2.831006E+05  1.614956E-10  2.386839E-11
       175  13 -7.908643E+05 -1.455219E+05 -2.210043E+03 -3.423769E+05 -5.241194E-10 -1.802456E-10
       175  14 -7.986413E+05 -1.375476E+05 -3.891408E+03 -3.332348E+05  6.117741E-10  5.415013E-13
       175  15 -7.909068E+05 -1.457704E+05 -7.096370E+03 -3.422870E+05 -3.248381E-10 -3.242948E-11
       175  16 -8.874728E+05 -1.811569E+05 -2.449585E+04 -3.688052E+05  3.569388E-10  8.197356E-12
       175  17 -9.547842E+05 -1.951502E+05 -3.960645E+04 -3.760332E+05  7.805079E-11  4.064114E-11
       175  18 -1.006587E+06 -2.253483E+05 -5.627232E+04 -4.014542E+05 -1.195256E-10 -1.058016E-10
       175  19 -6.942463E+05 -1.098862E+05  2.007527E+04 -3.159448E+05 -7.637410E+03  3.616633E+03
       175  20 -6.424734E+05 -7.994290E+04  3.182247E+04 -2.904264E+05 -1.100960E+04  6.820423E+03
       175  21 -5.751778E+05 -6.618835E+04  4.207746E+04 -2.831007E+05 -1.436820E+04  9.985347E+03
       175  22 -7.908642E+05 -1.455219E+05 -2.209969E+03 -3.423769E+05 -3.571613E+03  5.141039E+03
       175  23 -7.986413E+05 -1.375475E+05 -3.891186E+03 -3.332348E+05 -6.983075E+03  8.330528E+03
       175  24 -7.909066E+05 -1.457702E+05 -7.095920E+03 -3.422871E+05 -1.038075E+04  1.148120E+04
       175  25 -8.874728E+05 -1.811569E+05 -2.449576E+04 -3.688052E+05  4.934966E+02  6.665189E+03
       175  26 -9.547841E+05 -1.951501E+05 -3.960626E+04 -3.760332E+05 -2.957667E+03  9.840218E+03
       175  27 -1.006587E+06 -2.253481E+05 -5.627193E+04 -4.014543E+05 -6.394827E+03  1.297649E+04
       176   1 -5.293336E+05 -4.952704E+04  5.058216E+04 -2.717677E+05  1.676214E+04 -1.174709E+04
       176   2 -4.780285E+05 -1.870042E+04  5.650812E+04 -2.444816E+05  2.594618E+04 -1.249631E+04
       176   3 -4.140507E+05 -9.393684E+03  5.509731E+04 -2.340952E+05  3.485242E+04 -1.249847E+04
       176   4 -7.913381E+05 -1.452941E+05 -9.372387E+03 -3.426372E+05  1.257643E+04 -1.331768E+04
       176   5 -7.980419E+05 -1.375618E+05 -1.696509E+04 -3.330248E+05  2.252698E+04 -1.378023E+04
       176   6 -7.922312E+05 -1.515054E+05 -3.250594E+04 -3.403148E+05  3.219886E+04 -1.349584E+04
       176   7 -1.053276E+06 -2.410571E+05 -6.933186E+04 -4.134799E+05  8.392612E+03 -1.488758E+04
       176   8 -1.117954E+06 -2.564157E+05 -9.044539E+04 -4.215264E+05  1.910968E+04 -1.506343E+04
       176   9 -1.170269E+06 -2.936054E+05 -1.201189E+05 -4.464749E+05  2.954705E+04 -1.449254E+04
       176  10 -5.293339E+05 -4.952727E+04  5.058137E+04 -2.717676E+05 -9.357599E-11  4.073601E-11
       176  11 -4.780293E+05 -1.870076E+04  5.650656E+04 -2.444814E+05  1.125286E-10  1.575613E-10
       176  12 -4.140521E+05 -9.394177E+03  5.509474E+04 -2.340948E+05  2.454042E-10  2.091361E-10
       176  13 -7.913384E+05 -1.452943E+05 -9.373017E+03 -3.426371E+05 -7.537746E-11  3.010544E-11
       176  14 -7.980425E+05 -1.375621E+05 -1.696640E+04 -3.330246E+05 -2.947286E-10  1.318464E-10
       176  15 -7.922324E+05 -1.515059E+05 -3.250823E+04 -3.403145E+05  1.230258E-10  5.817579E-12
       176  16 -1.053276E+06 -2.410573E+05 -6.933241E+04 -4.134798E+05  4.142899E-10  4.487474E-12
       176  17 -1.117954E+06 -2.564161E+05 -9.044650E+04 -4.215262E+05 -2.826953E-10  1.337317E-10
       176  18 -1.170270E+06 -2.936059E+05 -1.201210E+05 -4.464746E+05 -2.633644E-10  1.500224E-11
       176  19 -5.293336E+05 -4.952704E+04  5.058216E+04 -2.717677E+05 -1.676214E+04  1.174709E+04
       176  20 -4.780285E+05 -1.870042E+04  5.650812E+04 -2.444816E+05 -2.594618E+04  1.249631E+04
       176  21 -4.140507E+05 -9.393684E+03  5.509731E+04 -2.340952E+05 -3.485242E+04  1.249847E+04
       176  22 -7.913381E+05 -1.452941E+05 -9.372387E+03 -3.426372E+05 -1.257643E+04  1.331768E+04
       176  23 -7.980419E+05 -1.375618E+05 -1.696509E+04 -3.330248E+05 -2.252698E+04  1.378023E+04
       176  24 -7.922312E+05 -1.515054E+05 -3.250594E+04 -3.403148E+05 -3.219886E+04  1.349584E+04
       176  25 -1.053276E+06 -2.410571E+05 -6.933186E+04 -4.134799E+05 -8.392612E+03  1.488758E+04
       176  26 -1.117954E+06 -2.564157E+05 -9.044539E+04 -4.215264E+05 -1.910968E+04  1.506343E+04
       176  27 -1.170269E+06 -2.936054E+05 -1.201189E+05 -4.464749E+05 -2.954705E+04  1.449254E+04
       177   1 -3.593819E+05  3.366308E+03  5.613439E+04 -2.444800E+05  4.553413E+04 -1.230473E+04
       177   2 -3.248197E+05  5.572583E+04  3.951121E+04 -1.753043E+05  6.878500E+04 -2.302991E+03
       177   3 -3.208144E+05 -2.028687E+04 -2.577622E+04 -9.379616E+04  8.613002E+04  2.342450E+04
       177   4 -7.976255E+05 -1.412061E+05 -4.151492E+04 -3.468646E+05  3.854340E+04 -1.492953E+04
       177   5 -7.900608E+05 -1.413312E+05 -7.485047E+04 -3.282767E+05  7.801319E+04  1.158319E+03
       177   6 -8.163110E+05 -2.731092E+05 -1.697406E+05 -2.973505E+05  1.115725E+05  3.297314E+04
       177   7 -1.235674E+06 -2.857727E+05 -1.391752E+05 -4.491867E+05  3.155807E+04 -1.755281E+04
       177   8 -1.255083E+06 -3.383535E+05 -1.892280E+05 -4.811378E+05  8.723385E+04  4.615887E+03
       177   9 -1.311558E+06 -5.258486E+05 -3.137257E+05 -5.007379E+05  1.369929E+05  4.250660E+04
       177  10 -3.593842E+05  3.365589E+03  5.613021E+04 -2.444795E+05 -1.136155E-10  5.111498E-11
       177  11 -3.248248E+05  5.572455E+04  3.950231E+04 -1.753042E+05 -4.776325E-10 -2.125067E-10
       177  12 -3.208225E+05 -2.028945E+04 -2.579121E+04 -9.379778E+04  1.613236E-10 -4.924784E-12
       177  13 -7.976272E+05 -1.412068E+05 -4.151814E+04 -3.468641E+05  6.213265E-10  2.370015E-11
       177  14 -7.900673E+05 -1.413329E+05 -7.486193E+04 -3.282768E+05 -1.628549E-10  1.535804E-10
       177  15 -8.163247E+05 -2.731137E+05 -1.697660E+05 -2.973535E+05  3.991680E-10  3.406875E-10
       177  16 -1.235676E+06 -2.857733E+05 -1.391777E+05 -4.491862E+05 -1.542944E-10  7.872296E-11
       177  17 -1.255092E+06 -3.383556E+05 -1.892424E+05 -4.811381E+05 -5.030910E-10  1.323143E-10
       177  18 -1.311579E+06 -5.258556E+05 -3.137644E+05 -5.007426E+05 -1.208292E-10  5.364073E-11
       177  19 -3.593819E+05  3.366308E+03  5.613439E+04 -2.444800E+05 -4.553413E+04  1.230473E+04
       177  20 -3.248197E+05  5.572583E+04  3.951121E+04 -1.753043E+05 -6.878500E+04  2.302991E+03
       177  21 -3.208144E+05 -2.028687E+04 -2.577622E+04 -9.379616E+04 -8.613002E+04 -2.342450E+04
       177  22 -7.976255E+05 -1.412061E+05 -4.151492E+04 -3.468646E+05 -3.854340E+04  1.492953E+04
       177  23 -7.900608E+05 -1.413312E+05 -7.485047E+04 -3.282767E+05 -7.801319E+04 -1.158319E+03
       177  24 -8.163110E+05 -2.731092E+05 -1.697406E+05 -2.973505E+05 -1.115725E+05 -3.297314E+04
       177  25 -1.235674E+06 -2.857727E+05 -1.391752E+05 -4.491867E+05 -3.155807E+04  1.755281E+04
       177  26 -1.255083E+06 -3.383535E+05 -1.892280E+05 -4.811378E+05 -8.723385E+04 -4.615887E+03
       177  27 -1.311558E+06 -5.258486E+05 -3.137257E+05 -5.007379E+05 -1.369929E+05 -4.250660E+04
       178   1 -6.335259E+05 -1.633361E+05 -1.263600E+05 -5.424938E+03  6.406696E+04  1.754075E+04
       178   2 -5.304444E+05 -2.724470E+05 -1.654377E+05 -3.610916E+04  5.703694E+04  5.579989E+04
       178   3 -3.950392E+05 -2.576914E+05 -1.688972E+05 -1.060074E+05  5.004430E+04  6.041859E+04
       178   4  6.471360E+05  1.540881E+05  1.812176E+05 -8.576340E+04  1.250149E+05  1.759415E+04
       178   5  6.278554E+05  9.051688E+03  8.404280E+04 -6.609854E+04  8.080532E+04  5.580713E+04
       178   6  6.472668E+05 -5.800207E+03  4.823834E+04 -8.563888E+04  3.663805E+04  6.040685E+04
       178   7  1.929322E+06  4.714196E+05  4.886962E+05 -1.662686E+05  1.860879E+05  1.763173E+04
       178   8  1.787419E+06  2.904659E+05  3.334471E+05 -9.614485E+04  1.046173E+05  5.581206E+04
       178   9  1.690602E+06  2.460234E+05  2.653150E+05 -6.523566E+04  2.320962E+04  6.039424E+04
       178  10 -6.335304E+05 -1.633375E+05 -1.263683E+05 -5.425843E+03  6.966713E-10  1.592672E-10
       178  11 -5.304487E+05 -2.724512E+05 -1.654497E+05 -3.611173E+04  6.827501E-10 -3.209208E-10
       178  12 -3.950429E+05 -2.576960E+05 -1.689088E+05 -1.060098E+05 -2.509715E-10 -2.432853E-10
       178  13  6.471191E+05  1.540836E+05  1.811877E+05 -8.576517E+04  1.350511E-09 -3.378055E-10
       178  14  6.278476E+05  9.046591E+03  8.402468E+04 -6.610217E+04  1.227877E-09 -1.717129E-10
       178  15  6.472644E+05 -5.804486E+03  4.822896E+04 -8.564066E+04 -3.544517E-11 -4.425216E-10
       178  16  1.929285E+06  4.714100E+05  4.886308E+05 -1.662713E+05  4.129446E-10  3.946119E-10
       178  17  1.787407E+06  2.904596E+05  3.334208E+05 -9.614955E+04  2.777723E-10 -3.802810E-10
       178  18  1.690601E+06  2.460193E+05  2.653072E+05 -6.523679E+04 -5.548119E-10 -4.002814E-10
       178  19 -6.335259E+05 -1.633361E+05 -1.263600E+05 -5.424938E+03 -6.406696E+04 -1.754075E+04
       178  20 -5.304444E+05 -2.724470E+05 -1.654377E+05 -3.610916E+04 -5.703694E+04 -5.579989E+04
       178  21 -3.950392E+05 -2.576914E+05 -1.688972E+05 -1.060074E+05 -5.004430E+04 -6.041859E+04
       178  22  6.471360E+05  1.540881E+05  1.812176E+05 -8.576340E+04 -1.250149E+05 -1.759415E+04
       178  23  6.278554E+05  9.051688E+03  8.404280E+04 -6.609854E+04 -8.080532E+04 -5.580713E+04
       178  24  6.472668E+05 -5.800207E+03  4.823834E+04 -8.563888E+04 -3.663805E+04 -6.040685E+04
       178  25  1.929322E+06  4.714196E+05  4.886962E+05 -1.662686E+05 -1.860879E+05 -1.763173E+04
       178  26  1.787419E+06  2.904659E+05  3.334471E+05 -9.614485E+04 -1.046173E+05 -5.581206E+04
       178  27  1.690602E+06  2.460234E+05  2.653150E+05 -6.523566E+04 -2.320962E+04 -6.039424E+04
       179   1 -3.139963E+05 -2.241466E+05 -1.614555E+05 -8.401487E+04  3.477605E+04  5.425164E+04
       179   2 -1.971840E+05 -2.017487E+05 -1.526984E+05 -6.534841E+04  2.627403E+04  4.906747E+04
       179   3 -7.761642E+04 -1.735759E+05 -1.369137E+05 -8.723479E+04  1.776483E+04  4.220381E+04
       179   4  6.393783E+05  6.364038E+03  3.786179E+04 -8.596729E+04  3.001509E+04  5.424392E+04
       179   5  6.378818E+05 -7.973685E+01  2.075428E+04 -6.569270E+04  1.964475E+04  4.906210E+04
       179   6  6.394444E+05 -4.297030E+02  1.196206E+04 -8.596728E+04  9.268794E+03  4.220185E+04
       179   7  1.593612E+06  2.368166E+05  2.371288E+05 -8.792275E+04  2.524691E+04  5.423625E+04
       179   8  1.473608E+06  2.015449E+05  1.941690E+05 -6.603743E+04  1.300668E+04  4.905675E+04
       179   9  1.356992E+06  1.726839E+05  1.608100E+05 -8.469822E+04  7.631056E+02  4.219986E+04
       179  10 -3.139984E+05 -2.241501E+05 -1.614633E+05 -8.401639E+04 -2.845440E-11 -1.080609E-10
       179  11 -1.971854E+05 -2.017514E+05 -1.527042E+05 -6.534945E+04  6.879723E-10  2.160609E-10
       179  12 -7.761724E+04 -1.735779E+05 -1.369176E+05 -8.723540E+04 -4.443035E-10  7.822641E-11
       179  13  6.393765E+05  6.360636E+03  3.785457E+04 -8.596860E+04 -5.445892E-10 -4.301179E-10
       179  14  6.378807E+05 -8.242599E+01  2.074903E+04 -6.569348E+04 -3.327703E-10  5.744199E-11
       179  15  6.394438E+05 -4.316392E+02  1.195855E+04 -8.596760E+04 -2.623746E-10  2.603836E-10
       179  16  1.593611E+06  2.368132E+05  2.371221E+05 -8.792386E+04  2.756203E-10 -5.394776E-10
       179  17  1.473607E+06  2.015423E+05  1.941642E+05 -6.603795E+04 -7.197920E-11 -4.099630E-10
       179  18  1.356992E+06  1.726820E+05  1.608066E+05 -8.469825E+04  4.715573E-10  4.444900E-10
       179  19 -3.139963E+05 -2.241466E+05 -1.614555E+05 -8.401487E+04 -3.477605E+04 -5.425164E+04
       179  20 -1.971840E+05 -2.017487E+05 -1.526984E+05 -6.534841E+04 -2.627403E+04 -4.906747E+04
       179  21 -7.761642E+04 -1.735759E+05 -1.369137E+05 -8.723479E+04 -1.776483E+04 -4.220381E+04
       179  22  6.393783E+05  6.364038E+03  3.786179E+04 -8.596729E+04 -3.001509E+04 -5.424392E+04
       179  23  6.378818E+05 -7.973685E+01  2.075428E+04 -6.569270E+04 -1.964475E+04 -4.906210E+04
       179  24  6.394444E+05 -4.297030E+02  1.196206E+04 -8.596728E+04 -9.268794E+03 -4.220185E+04
       179  25  1.593612E+06  2.368166E+05  2.371288E+05 -8.792275E+04 -2.524691E+04 -5.423625E+04
       179  26  1.473608E+06  2.015449E+05  1.941690E+05 -6.603743E+04 -1.300668E+04 -4.905675E+04
       179  27  1.356992E+06  1.726839E+05  1.608100E+05 -8.469822E+04 -7.631056E+02 -4.219986E+04
       180   1  9.421759E+03 -1.517555E+05 -1.210231E+05 -8.611905E+04  1.545798E+04  3.777056E+04
       180   2  1.269260E+05 -1.236022E+05 -1.007646E+05 -6.579802E+04  1.295085E+04  3.043404E+04
       180   3  2.448823E+05 -9.513456E+04 -7.878734E+04 -8.594386E+04  1.043918E+04  2.302014E+04
       180   4  6.388903E+05  1.281055E+02  9.138622E+03 -8.594867E+04  7.405094E+03  3.777015E+04
       180   5  6.386828E+05 -9.114425E+01  5.243101E+03 -6.571633E+04  4.809417E+03  3.043570E+04
       180   6  6.389286E+05  1.960651E+01  3.126370E+03 -8.594886E+04  2.209659E+03  2.302395E+04
       180   7  1.268734E+06  1.519867E+05  1.392791E+05 -8.577806E+04 -6.558154E+02  3.776973E+04
       180   8  1.150688E+06  1.234034E+05  1.112368E+05 -6.563453E+04 -3.338611E+03  3.043736E+04
       180   9  1.033122E+06  9.516393E+04  8.503183E+04 -8.595384E+04 -6.024994E+03  2.302775E+04
       180  10  9.421119E+03 -1.517571E+05 -1.210262E+05 -8.611953E+04  1.399908E-09 -2.408540E-10
       180  11  1.269255E+05 -1.236032E+05 -1.007666E+05 -6.579834E+04  8.924708E-10 -3.713491E-10
       180  12  2.448820E+05 -9.513516E+04 -7.878855E+04 -8.594405E+04 -7.602158E-10 -3.845500E-10
       180  13  6.388899E+05  1.265584E+02  9.135838E+03 -8.594890E+04 -4.512666E-11  1.448624E-10
       180  14  6.386825E+05 -9.214549E+01  5.241317E+03 -6.571645E+04 -1.477793E-09 -3.394930E-10
       180  15  6.389284E+05  1.903579E+01  3.125364E+03 -8.594891E+04 -6.464588E-10  2.963827E-10
       180  16  1.268734E+06  1.519852E+05  1.392764E+05 -8.577804E+04 -1.410718E-09  4.572795E-10
       180  17  1.150687E+06  1.234024E+05  1.112350E+05 -6.563445E+04 -2.570929E-10 -3.601566E-10
       180  18  1.033122E+06  9.516335E+04  8.503077E+04 -8.595373E+04 -4.370426E-10 -2.203041E-10
       180  19  9.421759E+03 -1.517555E+05 -1.210231E+05 -8.611905E+04 -1.545798E+04 -3.777056E+04
       180  20  1.269260E+05 -1.236022E+05 -1.007646E+05 -6.579802E+04 -1.295085E+04 -3.043404E+04
       180  21  2.448823E+05 -9.513456E+04 -7.878734E+04 -8.594386E+04 -1.043918E+04 -2.302014E+04
       180  22  6.388903E+05  1.281055E+02  9.138622E+03 -8.594867E+04 -7.405094E+03 -3.777015E+04
       180  23  6.386828E+05 -9.114425E+01  5.243101E+03 -6.571633E+04 -4.809417E+03 -3.043570E+04
       180  24  6.389286E+05  1.960651E+01  3.126370E+03 -8.594886E+04 -2.209659E+03 -2.302395E+04
       180  25  1.268734E+06  1.519867E+05  1.392791E+05 -8.577806E+04  6.558154E+02 -3.776973E+04
       180  26  1.150688E+06  1.234034E+05  1.112368E+05 -6.563453E+04  3.338611E+03 -3.043736E+04
       180  27  1.033122E+06  9.516393E+04  8.503183E+04 -8.595384E+04  6.024994E+03 -2.302775E+04
       181   1  3.321148E+05 -7.390887E+04 -6.075151E+04 -8.589623E+04  9.904673E+03  1.868676E+04
       181   2  4.495797E+05 -4.562223E+04 -3.753853E+04 -6.570143E+04  9.089214E+03  1.125911E+04
       181   3  5.671313E+05 -1.727423E+04 -1.379245E+04 -8.589045E+04  8.272108E+03  3.830137E+03
       181   4  6.388577E+05  4.876914E+01  2.457279E+03 -8.593066E+04  1.701554E+03  1.869142E+04
       181   5  6.388268E+05  4.158071E+01  1.647517E+03 -6.573912E+04  8.836459E+02  1.126452E+04
       181   6  6.388716E+05  9.731276E+01  1.372986E+03 -8.593067E+04  6.423884E+01  3.836343E+03
       181   7  9.456899E+05  7.400051E+04  6.566126E+04 -8.596509E+04 -6.505544E+03  1.869609E+04
       181   8  8.281080E+05  4.570316E+04  4.083187E+04 -6.577681E+04 -7.324379E+03  1.126993E+04
       181   9  7.106169E+05  1.746855E+04  1.653839E+04 -8.597088E+04 -8.144563E+03  3.842550E+03
       181  10  3.321146E+05 -7.390927E+04 -6.075235E+04 -8.589638E+04  2.990244E-10  1.072267E-11
       181  11  4.495796E+05 -4.562239E+04 -3.753892E+04 -6.570151E+04  1.346062E-09  1.097632E-10
       181  12  5.671313E+05 -1.727426E+04 -1.379261E+04 -8.589048E+04 -1.987352E-10  5.927680E-10
       181  13  6.388576E+05  4.839308E+01  2.456617E+03 -8.593069E+04 -2.128256E-11 -2.733904E-10
       181  14  6.388268E+05  4.144420E+01  1.647277E+03 -6.573912E+04 -5.702279E-10  1.796729E-10
       181  15  6.388716E+05  9.729695E+01  1.372958E+03 -8.593067E+04 -5.490909E-10 -4.909217E-11
       181  16  9.456897E+05  7.400013E+04  6.566053E+04 -8.596499E+04 -1.171085E-09  2.693009E-10
       181  17  8.281080E+05  4.570301E+04  4.083153E+04 -6.577674E+04 -1.279070E-09 -7.718611E-11
       181  18  7.106168E+05  1.746852E+04  1.653823E+04 -8.597086E+04  6.059866E-10 -7.732934E-10
       181  19  3.321148E+05 -7.390887E+04 -6.075151E+04 -8.589623E+04 -9.904673E+03 -1.868676E+04
       181  20  4.495797E+05 -4.562223E+04 -3.753853E+04 -6.570143E+04 -9.089214E+03 -1.125911E+04
       181  21  5.671313E+05 -1.727423E+04 -1.379245E+04 -8.589045E+04 -8.272108E+03 -3.830137E+03
       181  22  6.388577E+05  4.876914E+01  2.457279E+03 -8.593066E+04 -1.701554E+03 -1.869142E+04
       181  23  6.388268E+05  4.158071E+01  1.647517E+03 -6.573912E+04 -8.836459E+02 -1.126452E+04
       181  24  6.388716E+05  9.731276E+01  1.372986E+03 -8.593067E+04 -6.423884E+01 -3.836343E+03
       181  25  9.456899E+05  7.400051E+04  6.566126E+04 -8.596509E+04  6.505544E+03 -1.869609E+04
       181  26  8.281080E+05  4.570316E+04  4.083187E+04 -6.577681E+04  7.324379E+03 -1.126993E+04
       181  27  7.106169E+05  1.746855E+04  1.653839E+04 -8.597088E+04  8.144563E+03 -3.842550E+03
       182   1  6.543646E+05  3.898076E+03  4.915041E+03 -8.593108E+04  8.016861E+03 -4.935809E+02
       182   2  7.718306E+05  3.213129E+04  2.930435E+04 -6.574230E+04  7.135608E+03 -7.920367E+03
       182   3  8.893896E+05  6.043020E+04  5.426863E+04 -8.592974E+04  6.255243E+03 -1.534524E+04
       182   4  6.388731E+05  9.807888E+01  1.395223E+03 -8.592925E+04 -1.910932E+02 -4.873047E+02
       182   5  6.388293E+05  4.538397E+01  1.769627E+03 -6.574088E+04 -1.070857E+03 -7.914658E+03
       182   6  6.388633E+05  5.842869E+01  2.717823E+03 -8.592924E+04 -1.949572E+03 -1.534005E+04
       182   7  6.233820E+05 -3.701899E+03 -2.124358E+03 -8.592743E+04 -8.398845E+03 -4.810286E+02
       182   8  5.058449E+05 -3.204161E+04 -2.576580E+04 -6.573945E+04 -9.275596E+03 -7.908948E+03
       182   9  3.883965E+05 -6.031725E+04 -4.883610E+04 -8.592873E+04 -1.015114E+04 -1.533486E+04
       182  10  6.543645E+05  3.898058E+03  4.914920E+03 -8.593107E+04 -1.553959E-10  1.127473E-09
       182  11  7.718305E+05  3.213121E+04  2.930413E+04 -6.574225E+04 -2.442486E-10  1.123172E-09
       182  12  8.893895E+05  6.042993E+04  5.426811E+04 -8.592966E+04  5.408103E-10 -5.704603E-10
       182  13  6.388731E+05  9.807862E+01  1.395222E+03 -8.592925E+04 -7.381311E-10  2.565939E-10
       182  14  6.388293E+05  4.531637E+01  1.769507E+03 -6.574088E+04 -2.875656E-10 -3.069860E-10
       182  15  6.388632E+05  5.817490E+01  2.717374E+03 -8.592927E+04 -1.735058E-09  2.279594E-11
       182  16  6.233819E+05 -3.701918E+03 -2.124491E+03 -8.592744E+04  1.444003E-10 -2.717257E-10
       182  17  5.058448E+05 -3.204170E+04 -2.576608E+04 -6.573951E+04 -4.099387E-10 -3.172848E-10
       182  18  3.883964E+05 -6.031754E+04 -4.883673E+04 -8.592886E+04 -7.632839E-10 -3.031444E-11
       182  19  6.543646E+05  3.898076E+03  4.915041E+03 -8.593108E+04 -8.016861E+03  4.935809E+02
       182  20  7.718306E+05  3.213129E+04  2.930435E+04 -6.574230E+04 -7.135608E+03  7.920367E+03
       182  21  8.893896E+05  6.043020E+04  5.426863E+04 -8.592974E+04 -6.255243E+03  1.534524E+04
       182  22  6.388731E+05  9.807888E+01  1.395223E+03 -8.592925E+04  1.910932E+02  4.873047E+02
       182  23  6.388293E+05  4.538397E+01  1.769627E+03 -6.574088E+04  1.070857E+03  7.914658E+03
       182  24  6.388633E+05  5.842869E+01  2.717823E+03 -8.592924E+04  1.949572E+03  1.534005E+04
       182  25  6.233820E+05 -3.701899E+03 -2.124358E+03 -8.592743E+04  8.398845E+03  4.810286E+02
       182  26  5.058449E+05 -3.204161E+04 -2.576580E+04 -6.573945E+04  9.275596E+03  7.908948E+03
       182  27  3.883965E+05 -6.031725E+04 -4.883610E+04 -8.592873E+04  1.015114E+04  1.533486E+04
       183   1  9.767965E+05  8.158584E+04  7.372863E+04 -8.591446E+04  5.716847E+03 -1.967534E+04
       183   2  1.094283E+06  1.098108E+05  1.002069E+05 -6.561497E+04  2.715152E+03 -2.708287E+04
       183   3  1.212282E+06  1.384188E+05  1.287329E+05 -8.575843E+04 -2.834605E+02 -3.441593E+04
       183   4  6.389429E+05  2.826394E+01  3.482201E+03 -8.594439E+04 -2.513700E+03 -1.967087E+04
       183   5  6.386830E+05 -8.298422E+01  5.885176E+03 -6.572190E+04 -5.431834E+03 -2.708031E+04
       183   6  6.389086E+05  1.755558E+02  1.027949E+04 -8.594416E+04 -8.346336E+03 -3.441523E+04
       183   7  3.011974E+05 -8.153654E+04 -6.677023E+04 -8.597429E+04 -1.073985E+04 -1.966639E+04
       183   8  1.832795E+05 -1.099898E+05 -8.844756E+04 -6.582871E+04 -1.357295E+04 -2.707776E+04
       183   9  6.584655E+04 -1.380885E+05 -1.081915E+05 -8.612966E+04 -1.640190E+04 -3.441452E+04
       183  10  9.767963E+05  8.158542E+04  7.372784E+04 -8.591437E+04  1.451187E-10 -8.486010E-10
       183  11  1.094283E+06  1.098100E+05  1.002055E+05 -6.561492E+04  3.613466E-10 -5.061310E-10
       183  12  1.212282E+06  1.384176E+05  1.287307E+05 -8.575844E+04 -1.489986E-09  3.681069E-10
       183  13  6.389428E+05  2.784660E+01  3.481461E+03 -8.594443E+04 -2.740603E-10 -2.714136E-10
       183  14  6.386828E+05 -8.377987E+01  5.883742E+03 -6.572202E+04 -1.989772E-09 -8.227251E-10
       183  15  6.389083E+05  1.742649E+02  1.027713E+04 -8.594439E+04 -9.275302E-10  2.896751E-10
       183  16  3.011972E+05 -8.153698E+04 -6.677117E+04 -8.597446E+04  5.464472E-10 -2.785713E-10
       183  17  1.832792E+05 -1.099907E+05 -8.844929E+04 -6.582901E+04  4.836898E-10 -4.950111E-11
       183  18  6.584595E+04 -1.380898E+05 -1.081942E+05 -8.613012E+04  2.343749E-09  4.859575E-10
       183  19  9.767965E+05  8.158584E+04  7.372863E+04 -8.591446E+04 -5.716847E+03  1.967534E+04
       183  20  1.094283E+06  1.098108E+05  1.002069E+05 -6.561497E+04 -2.715152E+03  2.708287E+04
       183  21  1.212282E+06  1.384188E+05  1.287329E+05 -8.575843E+04  2.834605E+02  3.441593E+04
       183  22  6.389429E+05  2.826394E+01  3.482201E+03 -8.594439E+04  2.513700E+03  1.967087E+04
       183  23  6.386830E+05 -8.298422E+01  5.885176E+03 -6.572190E+04  5.431834E+03  2.708031E+04
       183  24  6.389086E+05  1.755558E+02  1.027949E+04 -8.594416E+04  8.346336E+03  3.441523E+04
       183  25  3.011974E+05 -8.153654E+04 -6.677023E+04 -8.597429E+04  1.073985E+04  1.966639E+04
       183  26  1.832795E+05 -1.099898E+05 -8.844756E+04 -6.582871E+04  1.357295E+04  2.707776E+04
       183  27  6.584655E+04 -1.380885E+05 -1.081915E+05 -8.612966E+04  1.640190E+04  3.441452E+04
       184   1  1.300543E+06  1.590354E+05  1.506114E+05 -8.455482E+04 -1.955767E+03 -3.883920E+04
       184   2  1.416896E+06  1.879311E+05  1.850524E+05 -6.616082E+04 -1.542978E+04 -4.571559E+04
       184   3  1.536954E+06  2.239926E+05  2.300756E+05 -8.828250E+04 -2.890089E+04 -5.098677E+04
       184   4  6.395311E+05 -4.487398E+02  1.346064E+04 -8.596060E+04 -1.044362E+04 -3.883989E+04
       184   5  6.378050E+05 -3.888960E+01  2.337233E+04 -6.570098E+04 -2.212937E+04 -4.571960E+04
       184   6  6.394686E+05  7.234014E+03  4.263626E+04 -8.595984E+04 -3.380974E+04 -5.099320E+04
       184   7 -2.106721E+04 -1.599605E+05 -1.237137E+05 -8.736480E+04 -1.892260E+04 -3.884055E+04
       184   8 -1.407119E+05 -1.880473E+05 -1.383407E+05 -6.524170E+04 -2.882070E+04 -4.572364E+04
       184   9 -2.572566E+05 -2.095759E+05 -1.448476E+05 -8.364056E+04 -3.871160E+04 -5.099967E+04
       184  10  1.300542E+06  1.590338E+05  1.506086E+05 -8.455488E+04  7.230023E-10  6.287964E-10
       184  11  1.416895E+06  1.879287E+05  1.850480E+05 -6.616139E+04  7.663668E-10 -1.159064E-10
       184  12  1.536952E+06  2.239896E+05  2.300692E+05 -8.828369E+04 -2.447026E-10 -1.997053E-10
       184  13  6.395306E+05 -4.503895E+02  1.345760E+04 -8.596093E+04 -1.107626E-09  7.073664E-10
       184  14  6.378039E+05 -4.126628E+01  2.336748E+04 -6.570180E+04 -1.307209E-09 -4.293812E-11
       184  15  6.394667E+05  7.230914E+03  4.262922E+04 -8.596123E+04 -1.703565E-10  1.844126E-11
       184  16 -2.106800E+04 -1.599622E+05 -1.237172E+05 -8.736539E+04 -1.103999E-09  8.492657E-10
       184  17 -1.407134E+05 -1.880498E+05 -1.383462E+05 -6.524276E+04 -1.203605E-09  1.665624E-10
       184  18 -2.572589E+05 -2.095791E+05 -1.448553E+05 -8.364215E+04  6.259878E-10  1.056023E-10
       184  19  1.300543E+06  1.590354E+05  1.506114E+05 -8.455482E+04  1.955767E+03  3.883920E+04
       184  20  1.416896E+06  1.879311E+05  1.850524E+05 -6.616082E+04  1.542978E+04  4.571559E+04
       184  21  1.536954E+06  2.239926E+05  2.300756E+05 -8.828250E+04  2.890089E+04  5.098677E+04
       184  22  6.395311E+05 -4.487398E+02  1.346064E+04 -8.596060E+04  1.044362E+04  3.883989E+04
       184  23  6.378050E+05 -3.888960E+01  2.337233E+04 -6.570098E+04  2.212937E+04  4.571960E+04
       184  24  6.394686E+05  7.234014E+03  4.263626E+04 -8.595984E+04  3.380974E+04  5.099320E+04
       184  25 -2.106721E+04 -1.599605E+05 -1.237137E+05 -8.736480E+04  1.892260E+04  3.884055E+04
       184  26 -1.407119E+05 -1.880473E+05 -1.383407E+05 -6.524170E+04  2.882070E+04  4.572364E+04
       184  27 -2.572566E+05 -2.095759E+05 -1.448476E+05 -8.364056E+04  3.871160E+04  5.099967E+04
       185   1  1.634801E+06  2.316487E+05  2.595960E+05 -6.283463E+04 -2.807557E+04 -5.706376E+04
       185   2  1.729203E+06  2.779084E+05  3.318858E+05 -1.001539E+05 -1.134570E+05 -5.298817E+04
       185   3  1.873188E+06  4.767829E+05  4.978957E+05 -1.767178E+05 -1.988951E+05 -1.676384E+04
       185   4  6.483486E+05 -6.455862E+03  5.432122E+04 -8.564682E+04 -4.126860E+04 -5.707351E+04
       185   5  6.265474E+05  1.028210E+04  9.465640E+04 -6.608773E+04 -9.101450E+04 -5.298781E+04
       185   6  6.482161E+05  1.735926E+05  2.040811E+05 -8.576188E+04 -1.407956E+05 -1.674323E+04
       185   7 -3.371828E+05 -2.446203E+05 -1.510060E+05 -1.084223E+05 -5.444101E+04 -5.708231E+04
       185   8 -4.749648E+05 -2.574193E+05 -1.426418E+05 -3.208283E+04 -6.861109E+04 -5.298500E+04
       185   9 -5.753597E+05 -1.296734E+05 -8.982266E+04  5.014161E+03 -8.280973E+04 -1.670564E+04
       185  10  1.634799E+06  2.316450E+05  2.595884E+05 -6.283592E+04 -9.271554E-10  4.823935E-10
       185  11  1.729189E+06  2.779020E+05  3.318564E+05 -1.001588E+05  6.551002E-10  1.047599E-09
       185  12  1.873146E+06  4.767720E+05  4.978210E+05 -1.767205E+05 -2.886854E-10  2.122596E-10
       185  13  6.483459E+05 -6.459818E+03  5.431190E+04 -8.564872E+04 -7.410800E-10  7.007396E-10
       185  14  6.265378E+05  1.027686E+04  9.463557E+04 -6.609161E+04  4.883546E-10  1.762222E-09
       185  15  6.481948E+05  1.735870E+05  2.040434E+05 -8.576378E+04  1.772505E-10  1.393943E-10
       185  16 -3.371868E+05 -2.446246E+05 -1.510177E+05 -1.084248E+05  4.143168E-10  4.442614E-10
       185  17 -4.749706E+05 -2.574236E+05 -1.426559E+05 -3.208576E+04 -2.073681E-10  4.019837E-10
       185  18 -5.753671E+05 -1.296755E+05 -8.983608E+04  5.013046E+03 -1.087206E-10 -2.870224E-10
       185  19  1.634801E+06  2.316487E+05  2.595960E+05 -6.283463E+04  2.807557E+04  5.706376E+04
       185  20  1.729203E+06  2.779084E+05  3.318858E+05 -1.001539E+05  1.134570E+05  5.298817E+04
       185  21  1.873188E+06  4.767829E+05  4.978957E+05 -1.767178E+05  1.988951E+05  1.676384E+04
       185  22  6.483486E+05 -6.455862E+03  5.432122E+04 -8.564682E+04  4.126860E+04  5.707351E+04
       185  23  6.265474E+05  1.028210E+04  9.465640E+04 -6.608773E+04  9.101450E+04  5.298781E+04
       185  24  6.482161E+05  1.735926E+05  2.040811E+05 -8.576188E+04  1.407956E+05  1.674323E+04
       185  25 -3.371828E+05 -2.446203E+05 -1.510060E+05 -1.084223E+05  5.444101E+04  5.708231E+04
       185  26 -4.749648E+05 -2.574193E+05 -1.426418E+05 -3.208283E+04  6.861109E+04  5.298500E+04
       185  27 -5.753597E+05 -1.296734E+05 -8.982266E+04  5.014161E+03  8.280973E+04  1.670564E+04
       186   1  4.198033E+05  1.580491E+06  4.231132E+05 -3.560097E+05  1.480296E+04  1.089960E+05
       186   2  2.373577E+05  1.133784E+06  2.497548E+05 -2.579822E+05  4.118716E+04  4.385757E+04
       186   3  1.252226E+05  7.129036E+05  1.362256E+05 -3.067575E+05  2.832893E+04 -2.129713E+04
       186   4  7.454403E+04  1.900520E+05  8.663348E+04 -3.151361E+05  1.490941E+04  5.818891E+04
       186   5  5.225380E+03  1.810914E+05  4.142836E+04 -2.418097E+05  4.120843E+04  3.650416E+04
       186   6 -1.239051E+03  1.903108E+05  2.598097E+04 -3.152828E+05  2.824296E+04  1.475697E+04
       186   7 -2.708493E+05 -1.198614E+06 -2.499748E+05 -2.743530E+05  1.500932E+04  7.494895E+03
       186   8 -2.269665E+05 -7.707517E+05 -1.669527E+05 -2.256617E+05  4.122934E+04  2.916185E+04
       186   9 -1.277173E+05 -3.320215E+05 -8.427416E+04 -3.238007E+05  2.815596E+04  5.078123E+04
       186  10  4.197998E+05  1.580478E+06  4.230905E+05 -3.560110E+05  6.998943E-10  1.433779E-09
       186  11  2.373554E+05  1.133781E+06  2.497480E+05 -2.579836E+05 -5.878559E-10 -1.257815E-09
       186  12  1.252216E+05  7.129029E+05  1.362233E+05 -3.067570E+05 -8.650483E-10 -2.482039E-09
       186  13  7.454289E+04  1.900483E+05  8.662670E+04 -3.151368E+05  1.480751E-09 -3.779886E-10
       186  14  5.223198E+03  1.810895E+05  4.142266E+04 -2.418109E+05 -2.042432E-10  1.119474E-11
       186  15 -1.239966E+03  1.903103E+05  2.597906E+04 -3.152832E+05  2.505395E-11  5.071235E-10
       186  16 -2.708496E+05 -1.198614E+06 -2.499753E+05 -2.743531E+05  1.583719E-10 -1.398132E-09
       186  17 -2.269686E+05 -7.707531E+05 -1.669575E+05 -2.256626E+05  2.544417E-09  6.384889E-10
       186  18 -1.277189E+05 -3.320245E+05 -8.428050E+04 -3.238018E+05 -5.760088E-10  2.669989E-09
       186  19  4.198033E+05  1.580491E+06  4.231132E+05 -3.560097E+05 -1.480296E+04 -1.089960E+05
       186  20  2.373577E+05  1.133784E+06  2.497548E+05 -2.579822E+05 -4.118716E+04 -4.385757E+04
       186  21  1.252226E+05  7.129036E+05  1.362256E+05 -3.067575E+05 -2.832893E+04  2.129713E+04
       186  22  7.454403E+04  1.900520E+05  8.663348E+04 -3.151361E+05 -1.490941E+04 -5.818891E+04
       186  23  5.225380E+03  1.810914E+05  4.142836E+04 -2.418097E+05 -4.120843E+04 -3.650416E+04
       186  24 -1.239051E+03  1.903108E+05  2.598097E+04 -3.152828E+05 -2.824296E+04 -1.475697E+04
       186  25 -2.708493E+05 -1.198614E+06 -2.499748E+05 -2.743530E+05 -1.500932E+04 -7.494895E+03
       186  26 -2.269665E+05 -7.707517E+05 -1.669527E+05 -2.256617E+05 -4.122934E+04 -2.916185E+04
       186  27 -1.277173E+05 -3.320215E+05 -8.427416E+04 -3.238007E+05 -2.815596E+04 -5.078123E+04
       187   1  5.280862E+04  3.861492E+05  6.467349E+04 -3.175134E+05  1.012611E+04 -1.565936E+04
       187   2 -5.536886E+04 -4.798691E+04 -3.149436E+04 -2.409983E+05 -1.363176E+04 -2.359635E+04
       187   3 -1.580508E+05 -4.802062E+05 -1.213103E+05 -3.131546E+05 -3.679265E+04 -3.152072E+04
       187   4  4.410647E+03  1.867311E+05  2.208405E+04 -3.156643E+05  1.005979E+04  1.092600E+04
       187   5  1.100173E+03  1.857728E+05  1.710215E+04 -2.413321E+05 -1.369299E+04  2.322068E+03
       187   6  3.411238E+03  1.866688E+05  1.894083E+04 -3.156664E+05 -3.684947E+04 -6.274541E+03
       187   7 -4.398954E+04 -1.264805E+04 -2.050503E+04 -3.138157E+05  9.993616E+03  3.750295E+04
       187   8  5.756609E+04  4.195856E+05  6.569818E+04 -2.416660E+05 -1.375424E+04  2.825008E+04
       187   9  1.648450E+05  8.539654E+05  1.591694E+05 -3.181807E+05 -3.690646E+04  1.899834E+04
       187  10  5.280845E+04  3.861489E+05  6.467283E+04 -3.175132E+05 -1.501412E-09  7.493933E-10
       187  11 -5.536921E+04 -4.798755E+04 -3.149575E+04 -2.409986E+05  4.203245E-10 -1.291270E-09
       187  12 -1.580525E+05 -4.802077E+05 -1.213147E+05 -3.131555E+05 -1.485939E-10 -1.179808E-09
       187  13  4.410506E+03  1.867310E+05  2.208363E+04 -3.156644E+05 -5.322884E-10 -5.966994E-10
       187  14  1.099971E+03  1.857727E+05  1.710179E+04 -2.413321E+05  8.055504E-10 -4.129213E-11
       187  15  3.409769E+03  1.866684E+05  1.893821E+04 -3.156666E+05 -7.496705E-10  5.255088E-10
       187  16 -4.399002E+04 -1.264958E+04 -2.050786E+04 -3.138160E+05 -4.243832E-10 -8.018503E-10
       187  17  5.756568E+04  4.195847E+05  6.569633E+04 -2.416657E+05 -6.750311E-10  1.635858E-10
       187  18  1.648435E+05  8.539647E+05  1.591662E+05 -3.181801E+05  2.724628E-10  1.307774E-09
       187  19  5.280862E+04  3.861492E+05  6.467349E+04 -3.175134E+05 -1.012611E+04  1.565936E+04
       187  20 -5.536886E+04 -4.798691E+04 -3.149436E+04 -2.409983E+05  1.363176E+04  2.359635E+04
       187  21 -1.580508E+05 -4.802062E+05 -1.213103E+05 -3.131546E+05  3.679265E+04  3.152072E+04
       187  22  4.410647E+03  1.867311E+05  2.208405E+04 -3.156643E+05 -1.005979E+04 -1.092600E+04
       187  23  1.100173E+03  1.857728E+05  1.710215E+04 -2.413321E+05  1.369299E+04 -2.322068E+03
       187  24  3.411238E+03  1.866688E+05  1.894083E+04 -3.156664E+05  3.684947E+04  6.274541E+03
       187  25 -4.398954E+04 -1.264805E+04 -2.050503E+04 -3.138157E+05 -9.993616E+03 -3.750295E+04
       187  26  5.756609E+04  4.195856E+05  6.569818E+04 -2.416660E+05  1.375424E+04 -2.825008E+04
       187  27  1.648450E+05  8.539654E+05  1.591694E+05 -3.181807E+05  3.690646E+04 -1.899834E+04
       188   1 -2.403676E+05 -8.007783E+05 -1.863280E+05 -3.206174E+05 -5.556229E+04 -4.743126E+04
       188   2 -3.419081E+05 -1.236435E+06 -2.767010E+05 -2.290911E+05 -6.441641E+04 -7.590126E+03
       188   3 -4.056795E+05 -1.667619E+06 -3.836135E+05 -2.838371E+05 -2.202133E+04  3.228081E+04
       188   4 -7.951415E+02  1.892732E+05  2.125632E+04 -3.151476E+05 -5.564089E+04 -9.528366E+03
       188   5  3.731796E+03  1.820423E+05  3.184481E+04 -2.419816E+05 -6.437210E+04 -2.620024E+04
       188   6  5.580381E+04  1.888925E+05  6.514644E+04 -3.150562E+05 -2.190921E+04 -4.281421E+04
       188   7  2.387153E+05  1.180255E+06  2.287915E+05 -3.096682E+05 -5.571875E+04  2.843407E+04
       188   8  3.492389E+05  1.602409E+06  3.402715E+05 -2.549008E+05 -6.432709E+04 -4.485233E+04
       188   9  5.170413E+05  2.048573E+06  5.136808E+05 -3.463673E+05 -2.178974E+04 -1.181333E+05
       188  10 -2.403715E+05 -8.007816E+05 -1.863381E+05 -3.206196E+05 -2.451673E-10  5.192626E-10
       188  11 -3.419126E+05 -1.236436E+06 -2.767089E+05 -2.290915E+05  5.660850E-10 -6.630235E-10
       188  12 -4.056803E+05 -1.667620E+06 -3.836163E+05 -2.838365E+05  1.272826E-10 -8.711828E-10
       188  13 -7.984910E+02  1.892723E+05  2.125033E+04 -3.151481E+05  1.206208E-09 -4.301869E-10
       188  14  3.727161E+03  1.820405E+05  3.183573E+04 -2.419829E+05  1.230985E-09  3.333606E-11
       188  15  5.580280E+04  1.888904E+05  6.514209E+04 -3.150570E+05  6.026405E-10  1.920044E-10
       188  16  2.387118E+05  1.180253E+06  2.287841E+05 -3.096669E+05 -5.447527E-10 -3.044509E-10
       188  17  3.492339E+05  1.602406E+06  3.402599E+05 -2.549031E+05  5.972569E-10 -2.255438E-10
       188  18  5.170370E+05  2.048558E+06  5.136537E+05 -3.463694E+05  5.218138E-10  7.016748E-10
       188  19 -2.403676E+05 -8.007783E+05 -1.863280E+05 -3.206174E+05  5.556229E+04  4.743126E+04
       188  20 -3.419081E+05 -1.236435E+06 -2.767010E+05 -2.290911E+05  6.441641E+04  7.590126E+03
       188  21 -4.056795E+05 -1.667619E+06 -3.836135E+05 -2.838371E+05  2.202133E+04 -3.228081E+04
       188  22 -7.951415E+02  1.892732E+05  2.125632E+04 -3.151476E+05  5.564089E+04  9.528366E+03
       188  23  3.731796E+03  1.820423E+05  3.184481E+04 -2.419816E+05  6.437210E+04  2.620024E+04
       188  24  5.580381E+04  1.888925E+05  6.514644E+04 -3.150562E+05  2.190921E+04  4.281421E+04
       188  25  2.387153E+05  1.180255E+06  2.287915E+05 -3.096682E+05  5.571875E+04 -2.843407E+04
       188  26  3.492389E+05  1.602409E+06  3.402715E+05 -2.549008E+05  6.432709E+04  4.485233E+04
       188  27  5.170413E+05  2.048573E+06  5.136808E+05 -3.463673E+05  2.178974E+04  1.181333E+05
       189   1 -2.229343E+06 -8.754157E+05 -5.261434E+05 -8.386379E+05 -2.345024E+05 -7.341848E+04
       189   2 -2.154106E+06 -5.643991E+05 -3.186360E+05 -8.156916E+05 -1.502257E+05 -9.540787E+03
       189   3 -2.149307E+06 -4.795320E+05 -2.382833E+05 -7.635661E+05 -5.642737E+04  2.909414E+04
       189   4 -1.434956E+06 -4.612506E+05 -2.934990E+05 -5.038038E+05 -1.925823E+05 -5.770000E+04
       189   5 -1.386136E+06 -2.368022E+05 -1.294106E+05 -5.612049E+05 -1.342567E+05 -3.553147E+03
       189   6 -1.402497E+06 -2.332132E+05 -7.176101E+04 -5.894597E+05 -6.642431E+04  2.533596E+04
       189   7 -6.399119E+05 -4.684917E+04 -6.090518E+04 -1.685215E+05 -1.506032E+05 -4.193969E+04
       189   8 -6.175702E+05  9.089178E+04  5.977096E+04 -3.064112E+05 -1.182663E+05  2.445345E+03
       189   9 -6.551324E+05  1.311843E+04  9.472590E+04 -4.151748E+05 -7.643427E+04  2.157413E+04
       189  10 -2.229403E+06 -8.754363E+05 -5.262574E+05 -8.386518E+05  1.179326E-09  4.355315E-11
       189  11 -2.154131E+06 -5.644052E+05 -3.186788E+05 -8.156928E+05  1.741101E-11 -2.586551E-10
       189  12 -2.149310E+06 -4.795338E+05 -2.382909E+05 -7.635648E+05  1.676222E-09  5.744977E-10
       189  13 -1.434996E+06 -4.612642E+05 -2.935752E+05 -5.038128E+05  7.726714E-11 -4.830887E-10
       189  14 -1.386155E+06 -2.368070E+05 -1.294446E+05 -5.612053E+05  3.466755E-10 -8.929363E-10
       189  15 -1.402502E+06 -2.332150E+05 -7.177051E+04 -5.894584E+05  8.393974E-10 -2.233900E-10
       189  16 -6.399367E+05 -4.685715E+04 -6.095116E+04 -1.685266E+05 -2.705761E-10 -5.613465E-10
       189  17 -6.175852E+05  9.088801E+04  5.974464E+04 -3.064110E+05 -1.014200E-09 -6.141479E-10
       189  18 -6.551388E+05  1.311636E+04  9.471404E+04 -4.151734E+05 -7.644703E-10 -8.590789E-10
       189  19 -2.229343E+06 -8.754157E+05 -5.261434E+05 -8.386379E+05  2.345024E+05  7.341848E+04
       189  20 -2.154106E+06 -5.643991E+05 -3.186360E+05 -8.156916E+05  1.502257E+05  9.540787E+03
       189  21 -2.149307E+06 -4.795320E+05 -2.382833E+05 -7.635661E+05  5.642737E+04 -2.909414E+04
       189  22 -1.434956E+06 -4.612506E+05 -2.934990E+05 -5.038038E+05  1.925823E+05  5.770000E+04
       189  23 -1.386136E+06 -2.368022E+05 -1.294106E+05 -5.612049E+05  1.342567E+05  3.553147E+03
       189  24 -1.402497E+06 -2.332132E+05 -7.176101E+04 -5.894597E+05  6.642431E+04 -2.533596E+04
       189  25 -6.399119E+05 -4.684917E+04 -6.090518E+04 -1.685215E+05  1.506032E+05  4.193969E+04
       189  26 -6.175702E+05  9.089178E+04  5.977096E+04 -3.064112E+05  1.182663E+05 -2.445345E+03
       189  27 -6.551324E+05  1.311843E+04  9.472590E+04 -4.151748E+05  7.643427E+04 -2.157413E+04
       190   1 -2.055595E+06 -5.002318E+05 -2.098212E+05 -7.641714E+05 -5.281934E+04  2.510857E+04
       190   2 -1.986864E+06 -4.484267E+05 -1.642237E+05 -7.316928E+05 -3.544379E+04  2.759029E+04
       190   3 -1.903314E+06 -4.277085E+05 -1.333477E+05 -7.208138E+05 -1.761363E+04  2.885933E+04
       190   4 -1.393167E+06 -2.510471E+05 -5.618925E+04 -5.781603E+05 -5.587732E+04  2.395583E+04
       190   5 -1.399915E+06 -2.302453E+05 -2.932247E+04 -5.693700E+05 -3.973630E+04  2.597585E+04
       190   6 -1.391601E+06 -2.402773E+05 -1.618468E+04 -5.821808E+05 -2.314307E+04  2.678281E+04
       190   7 -7.302951E+05 -1.824772E+03  9.741395E+04 -3.919648E+05 -5.893885E+04  2.280172E+04
       190   8 -8.126189E+05 -1.203680E+04  1.055563E+05 -4.069057E+05 -4.403322E+04  2.435975E+04
       190   9 -8.796250E+05 -5.282800E+04  1.009611E+05 -4.434437E+05 -2.867747E+04  2.470448E+04
       190  10 -2.055598E+06 -5.002332E+05 -2.098277E+05 -7.641704E+05  1.881872E-08  8.381049E-09
       190  11 -1.986865E+06 -4.484279E+05 -1.642275E+05 -7.316921E+05  4.827539E-09  3.792660E-09
       190  12 -1.903315E+06 -4.277095E+05 -1.333499E+05 -7.208134E+05 -1.366552E-08 -5.520779E-09
       190  13 -1.393171E+06 -2.510486E+05 -5.619621E+04 -5.781593E+05  1.949017E-09  1.306844E-09
       190  14 -1.399917E+06 -2.302465E+05 -2.932670E+04 -5.693692E+05  4.140034E-09  3.702682E-09
       190  15 -1.391602E+06 -2.402783E+05 -1.618704E+04 -5.821803E+05  1.075126E-09  1.170088E-09
       190  16 -7.302990E+05 -1.826262E+03  9.740644E+04 -3.919638E+05 -1.407751E-08 -5.159923E-09
       190  17 -8.126212E+05 -1.203796E+04  1.055515E+05 -4.069048E+05  5.024211E-09  3.609140E-09
       190  18 -8.796261E+05 -5.282888E+04  1.009584E+05 -4.434431E+05  1.829589E-08  7.982621E-09
       190  19 -2.055595E+06 -5.002318E+05 -2.098212E+05 -7.641714E+05  5.281934E+04 -2.510857E+04
       190  20 -1.986864E+06 -4.484267E+05 -1.642237E+05 -7.316928E+05  3.544379E+04 -2.759029E+04
       190  21 -1.903314E+06 -4.277085E+05 -1.333477E+05 -7.208138E+05  1.761363E+04 -2.885933E+04
       190  22 -1.393167E+06 -2.510471E+05 -5.618925E+04 -5.781603E+05  5.587732E+04 -2.395583E+04
       190  23 -1.399915E+06 -2.302453E+05 -2.932247E+04 -5.693700E+05  3.973630E+04 -2.597585E+04
       190  24 -1.391601E+06 -2.402773E+05 -1.618468E+04 -5.821808E+05  2.314307E+04 -2.678281E+04
       190  25 -7.302951E+05 -1.824772E+03  9.741395E+04 -3.919648E+05  5.893885E+04 -2.280172E+04
       190  26 -8.126189E+05 -1.203680E+04  1.055563E+05 -4.069057E+05  4.403322E+04 -2.435975E+04
       190  27 -8.796250E+05 -5.282800E+04  1.009611E+05 -4.434437E+05  2.867747E+04 -2.470448E+04
       191   1 -1.841496E+06 -4.075718E+05 -1.152424E+05 -7.052381E+05 -1.448565E+04  2.651904E+04
       191   2 -1.773174E+06 -3.676125E+05 -9.192322E+04 -6.717504E+05 -9.154602E+03  2.270261E+04
       191   3 -1.684516E+06 -3.491454E+05 -7.127835E+04 -6.622501E+05 -3.798343E+03  1.881284E+04
       191   4 -1.390827E+06 -2.411259E+05 -1.224836E+04 -5.816069E+05 -1.970905E+04  2.455835E+04
       191   5 -1.400957E+06 -2.301586E+05 -6.702542E+03 -5.696935E+05 -1.445119E+04  2.071579E+04
       191   6 -1.390742E+06 -2.406683E+05 -3.771369E+03 -5.817693E+05 -9.168568E+03  1.679976E+04
       191   7 -9.399567E+05 -7.466600E+04  9.073165E+04 -4.578943E+05 -2.493654E+04  2.259613E+04
       191   8 -1.028600E+06 -9.269449E+04  7.850904E+04 -4.675805E+05 -1.975122E+04  1.872769E+04
       191   9 -1.096880E+06 -1.321843E+05  6.373044E+04 -5.012531E+05 -1.454159E+04  1.478564E+04
       191  10 -1.841496E+06 -4.075727E+05 -1.152441E+05 -7.052378E+05  1.965897E-10 -1.324179E-09
       191  11 -1.773174E+06 -3.676131E+05 -9.192434E+04 -6.717502E+05 -1.127506E-09 -9.638160E-10
       191  12 -1.684516E+06 -3.491458E+05 -7.127904E+04 -6.622500E+05 -2.518798E-09 -3.867027E-10
       191  13 -1.390827E+06 -2.411267E+05 -1.225022E+04 -5.816066E+05 -9.637142E-10 -6.489388E-10
       191  14 -1.400957E+06 -2.301591E+05 -6.703740E+03 -5.696932E+05  1.733277E-09 -4.474277E-10
       191  15 -1.390742E+06 -2.406687E+05 -3.772056E+03 -5.817691E+05  3.038638E-10  1.310989E-10
       191  16 -9.399575E+05 -7.466671E+04  9.072952E+04 -4.578938E+05  7.532221E-10  3.228298E-10
       191  17 -1.028601E+06 -9.269497E+04  7.850765E+04 -4.675803E+05  7.201223E-10 -3.154575E-10
       191  18 -1.096880E+06 -1.321846E+05  6.372963E+04 -5.012529E+05  9.871085E-10  1.719067E-10
       191  19 -1.841496E+06 -4.075718E+05 -1.152424E+05 -7.052381E+05  1.448565E+04 -2.651904E+04
       191  20 -1.773174E+06 -3.676125E+05 -9.192322E+04 -6.717504E+05  9.154602E+03 -2.270261E+04
       191  21 -1.684516E+06 -3.491454E+05 -7.127835E+04 -6.622501E+05  3.798343E+03 -1.881284E+04
       191  22 -1.390827E+06 -2.411259E+05 -1.224836E+04 -5.816069E+05  1.970905E+04 -2.455835E+04
       191  23 -1.400957E+06 -2.301586E+05 -6.702542E+03 -5.696935E+05  1.445119E+04 -2.071579E+04
       191  24 -1.390742E+06 -2.406683E+05 -3.771369E+03 -5.817693E+05  9.168568E+03 -1.679976E+04
       191  25 -9.399567E+05 -7.466600E+04  9.073165E+04 -4.578943E+05  2.493654E+04 -2.259613E+04
       191  26 -1.028600E+06 -9.269449E+04  7.850904E+04 -4.675805E+05  1.975122E+04 -1.872769E+04
       191  27 -1.096880E+06 -1.321843E+05  6.373044E+04 -5.012531E+05  1.454159E+04 -1.478564E+04
       192   1 -1.623948E+06 -3.268409E+05 -5.605118E+04 -6.457629E+05 -2.114173E+03  1.598616E+04
       192   2 -1.555381E+06 -2.871451E+05 -3.711305E+04 -6.119922E+05  7.406026E+02  1.111661E+04
       192   3 -1.465872E+06 -2.685508E+05 -1.885375E+04 -6.024014E+05  3.598000E+03  6.237062E+03
       192   4 -1.390621E+06 -2.407184E+05 -2.899596E+03 -5.817584E+05 -7.480973E+03  1.397494E+04
       192   5 -1.401084E+06 -2.301580E+05 -1.793888E+03 -5.696696E+05 -4.636310E+03  9.102150E+03
       192   6 -1.390610E+06 -2.406971E+05 -1.358630E+03 -5.817627E+05 -1.789164E+03  4.219345E+03
       192   7 -1.157239E+06 -1.545918E+05  5.024852E+04 -5.177318E+05 -1.284996E+04  1.196290E+04
       192   8 -1.246764E+06 -1.731693E+05  3.352368E+04 -5.273375E+05 -1.001466E+04  7.087152E+03
       192   9 -1.315342E+06 -2.128430E+05  1.613610E+04 -5.611218E+05 -7.177006E+03  2.201374E+03
       192  10 -1.623948E+06 -3.268412E+05 -5.605167E+04 -6.457629E+05 -6.195783E-10  4.421018E-10
       192  11 -1.555381E+06 -2.871452E+05 -3.711328E+04 -6.119922E+05 -8.757940E-11 -5.235249E-11
       192  12 -1.465872E+06 -2.685509E+05 -1.885385E+04 -6.024014E+05  1.418225E-10 -6.082584E-10
       192  13 -1.390621E+06 -2.407186E+05 -2.900068E+03 -5.817583E+05 -3.183542E-10  1.228421E-10
       192  14 -1.401084E+06 -2.301581E+05 -1.794084E+03 -5.696696E+05  1.199289E-09  2.188630E-10
       192  15 -1.390610E+06 -2.406971E+05 -1.358670E+03 -5.817627E+05  4.772791E-10 -4.500566E-10
       192  16 -1.157239E+06 -1.545920E+05  5.024794E+04 -5.177317E+05  4.382607E-10  9.269022E-11
       192  17 -1.246764E+06 -1.731694E+05  3.352340E+04 -5.273375E+05 -4.664577E-10 -7.492810E-11
       192  18 -1.315342E+06 -2.128430E+05  1.613599E+04 -5.611218E+05 -3.493657E-11 -6.548936E-10
       192  19 -1.623948E+06 -3.268409E+05 -5.605118E+04 -6.457629E+05  2.114173E+03 -1.598616E+04
       192  20 -1.555381E+06 -2.871451E+05 -3.711305E+04 -6.119922E+05 -7.406026E+02 -1.111661E+04
       192  21 -1.465872E+06 -2.685508E+05 -1.885375E+04 -6.024014E+05 -3.598000E+03 -6.237062E+03
       192  22 -1.390621E+06 -2.407184E+05 -2.899596E+03 -5.817584E+05  7.480973E+03 -1.397494E+04
       192  23 -1.401084E+06 -2.301580E+05 -1.793888E+03 -5.696696E+05  4.636310E+03 -9.102150E+03
       192  24 -1.390610E+06 -2.406971E+05 -1.358630E+03 -5.817627E+05  1.789164E+03 -4.219345E+03
       192  25 -1.157239E+06 -1.545918E+05  5.024852E+04 -5.177318E+05  1.284996E+04 -1.196290E+04
       192  26 -1.246764E+06 -1.731693E+05  3.352368E+04 -5.273375E+05  1.001466E+04 -7.087152E+03
       192  27 -1.315342E+06 -2.128430E+05  1.613610E+04 -5.611218E+05  7.177006E+03 -2.201374E+03
       193   1 -1.405205E+06 -2.460579E+05 -4.409483E+03 -5.858014E+05  4.962606E+03  3.281159E+03
       193   2 -1.336549E+06 -2.063367E+05  1.313124E+04 -5.519845E+05  7.727664E+03 -1.636781E+03
       193   3 -1.246923E+06 -1.877331E+05  3.006263E+04 -5.423754E+05  1.049127E+04 -6.549298E+03
       193   4 -1.390603E+06 -2.407017E+05 -1.331150E+03 -5.817687E+05 -4.267539E+02  1.262719E+03
       193   5 -1.401086E+06 -2.301461E+05 -1.635744E+03 -5.696622E+05  2.343328E+03 -3.653600E+03
       193   6 -1.390608E+06 -2.407105E+05 -2.554064E+03 -5.817670E+05  5.111833E+03 -8.564505E+03
       193   7 -1.376001E+06 -2.353454E+05  1.747321E+03 -5.777358E+05 -5.816284E+03 -7.557848E+02
       193   8 -1.465619E+06 -2.539552E+05 -1.640294E+04 -5.873384E+05 -3.040418E+03 -5.670197E+03
       193   9 -1.534272E+06 -2.936864E+05 -3.517199E+04 -6.211502E+05 -2.662538E+02 -1.057921E+04
       193  10 -1.405205E+06 -2.460579E+05 -4.409549E+03 -5.858015E+05 -1.636282E-10 -3.543230E-10
       193  11 -1.336550E+06 -2.063367E+05  1.313112E+04 -5.519845E+05 -9.238598E-10 -8.139269E-10
       193  12 -1.246923E+06 -1.877332E+05  3.006234E+04 -5.423754E+05  5.191868E-10 -4.414312E-11
       193  13 -1.390603E+06 -2.407017E+05 -1.331153E+03 -5.817687E+05  1.034471E-10 -2.957080E-10
       193  14 -1.401086E+06 -2.301461E+05 -1.635780E+03 -5.696622E+05 -2.886635E-10  1.508382E-10
       193  15 -1.390608E+06 -2.407106E+05 -2.554250E+03 -5.817669E+05 -2.888569E-10  1.269749E-10
       193  16 -1.376001E+06 -2.353455E+05  1.747256E+03 -5.777358E+05  4.500788E-10 -6.438314E-10
       193  17 -1.465619E+06 -2.539553E+05 -1.640301E+04 -5.873384E+05  1.127930E-09  4.221644E-10
       193  18 -1.534272E+06 -2.936865E+05 -3.517220E+04 -6.211502E+05 -1.386483E-10  7.051506E-11
       193  19 -1.405205E+06 -2.460579E+05 -4.409483E+03 -5.858014E+05 -4.962606E+03 -3.281159E+03
       193  20 -1.336549E+06 -2.063367E+05  1.313124E+04 -5.519845E+05 -7.727664E+03  1.636781E+03
       193  21 -1.246923E+06 -1.877331E+05  3.006263E+04 -5.423754E+05 -1.049127E+04  6.549298E+03
       193  22 -1.390603E+06 -2.407017E+05 -1.331150E+03 -5.817687E+05  4.267539E+02 -1.262719E+03
       193  23 -1.401086E+06 -2.301461E+05 -1.635744E+03 -5.696622E+05 -2.343328E+03  3.653600E+03
       193  24 -1.390608E+06 -2.407105E+05 -2.554064E+03 -5.817670E+05 -5.111833E+03  8.564505E+03
       193  25 -1.376001E+06 -2.353454E+05  1.747321E+03 -5.777358E+05  5.816284E+03  7.557848E+02
       193  26 -1.465619E+06 -2.539552E+05 -1.640294E+04 -5.873384E+05  3.040418E+03  5.670197E+03
       193  27 -1.534272E+06 -2.936864E+05 -3.517199E+04 -6.211502E+05  2.662538E+02  1.057921E+04
       194   1 -1.186411E+06 -1.652836E+05  4.370710E+04 -5.258633E+05  1.211990E+04 -9.403474E+03
       194   2 -1.117908E+06 -1.256730E+05  5.896324E+04 -4.920989E+05  1.690121E+04 -1.352692E+04
       194   3 -1.028917E+06 -1.075236E+05  7.199717E+04 -4.824123E+05  2.166100E+04 -1.758646E+04
       194   4 -1.390707E+06 -2.406729E+05 -3.296884E+03 -5.817840E+05  6.733904E+03 -1.142152E+04
       194   5 -1.400976E+06 -2.301303E+05 -5.813019E+03 -5.696741E+05  1.157899E+04 -1.552208E+04
       194   6 -1.390778E+06 -2.410628E+05 -1.060260E+04 -5.816451E+05  1.640220E+04 -1.955886E+04
       194   7 -1.594959E+06 -3.160587E+05 -5.030321E+04 -6.376875E+05  1.349867E+03 -1.343883E+04
       194   8 -1.683964E+06 -3.345817E+05 -7.059448E+04 -6.472170E+05  6.259419E+03 -1.751626E+04
       194   9 -1.752509E+06 -3.745931E+05 -9.321149E+04 -6.808256E+05  1.114669E+04 -2.153003E+04
       194  10 -1.186412E+06 -1.652838E+05  4.370665E+04 -5.258632E+05  2.638404E-11 -1.364337E-10
       194  11 -1.117908E+06 -1.256733E+05  5.896236E+04 -4.920987E+05  4.411166E-10  1.711840E-11
       194  12 -1.028917E+06 -1.075241E+05  7.199571E+04 -4.824120E+05  1.665081E-10  1.585705E-10
       194  13 -1.390707E+06 -2.406731E+05 -3.297214E+03 -5.817840E+05 -2.799984E-10 -1.050643E-10
       194  14 -1.400976E+06 -2.301306E+05 -5.813724E+03 -5.696739E+05  6.891475E-10 -2.455064E-10
       194  15 -1.390778E+06 -2.410633E+05 -1.060382E+04 -5.816449E+05  8.692151E-10 -1.144133E-10
       194  16 -1.594959E+06 -3.160589E+05 -5.030355E+04 -6.376875E+05  2.528405E-11  1.492692E-10
       194  17 -1.683964E+06 -3.345821E+05 -7.059513E+04 -6.472169E+05  2.220529E-10  2.818140E-10
       194  18 -1.752509E+06 -3.745936E+05 -9.321260E+04 -6.808254E+05 -2.285668E-10 -1.869667E-10
       194  19 -1.186411E+06 -1.652836E+05  4.370710E+04 -5.258633E+05 -1.211990E+04  9.403474E+03
       194  20 -1.117908E+06 -1.256730E+05  5.896324E+04 -4.920989E+05 -1.690121E+04  1.352692E+04
       194  21 -1.028917E+06 -1.075236E+05  7.199717E+04 -4.824123E+05 -2.166100E+04  1.758646E+04
       194  22 -1.390707E+06 -2.406729E+05 -3.296884E+03 -5.817840E+05 -6.733904E+03  1.142152E+04
       194  23 -1.400976E+06 -2.301303E+05 -5.813019E+03 -5.696741E+05 -1.157899E+04  1.552208E+04
       194  24 -1.390778E+06 -2.410628E+05 -1.060260E+04 -5.816451E+05 -1.640220E+04  1.955886E+04
       194  25 -1.594959E+06 -3.160587E+05 -5.030321E+04 -6.376875E+05 -1.349867E+03  1.343883E+04
       194  26 -1.683964E+06 -3.345817E+05 -7.059448E+04 -6.472170E+05 -6.259419E+03  1.751626E+04
       194  27 -1.752509E+06 -3.745931E+05 -9.321149E+04 -6.808256E+05 -1.114669E+04  2.153003E+04
       195   1 -9.683689E+05 -8.554256E+04  8.283211E+04 -4.676344E+05  2.507001E+04 -1.982714E+04
       195   2 -9.009184E+05 -4.478825E+04  8.929034E+04 -4.313740E+05  3.856509E+04 -2.025620E+04
       195   3 -8.173327E+05 -3.338366E+04  8.476304E+04 -4.171407E+05  5.165360E+04 -1.958918E+04
       195   4 -1.391446E+06 -2.403312E+05 -1.400452E+04 -5.821442E+05  1.953166E+04 -2.190516E+04
       195   5 -1.400074E+06 -2.301986E+05 -2.535877E+04 -5.693910E+05  3.414680E+04 -2.191597E+04
       195   6 -1.392799E+06 -2.496452E+05 -4.859455E+04 -5.786691E+05  4.835360E+04 -2.083094E+04
       195   7 -1.814344E+06 -3.951075E+05 -1.108529E+05 -6.965830E+05  1.399742E+04 -2.398168E+04
       195   8 -1.898978E+06 -4.155892E+05 -1.400240E+05 -7.073059E+05  2.973237E+04 -2.357428E+04
       195   9 -1.967929E+06 -4.658783E+05 -1.819737E+05 -7.400584E+05  4.505693E+04 -2.207141E+04
       195  10 -9.683697E+05 -8.554315E+04  8.283019E+04 -4.676340E+05  3.799453E-10  2.217462E-10
       195  11 -9.009201E+05 -4.478909E+04  8.928678E+04 -4.313733E+05  1.051094E-09  3.092796E-10
       195  12 -8.173357E+05 -3.338479E+04  8.475730E+04 -4.171399E+05  8.114396E-10  1.261745E-10
       195  13 -1.391447E+06 -2.403318E+05 -1.400614E+04 -5.821439E+05  1.404687E-10  2.625856E-10
       195  14 -1.400076E+06 -2.301994E+05 -2.536187E+04 -5.693904E+05 -4.058345E-11  4.902070E-11
       195  15 -1.392802E+06 -2.496463E+05 -4.859976E+04 -5.786683E+05  1.043176E-10 -6.600623E-11
       195  16 -1.814344E+06 -3.951082E+05 -1.108543E+05 -6.965828E+05 -1.572763E-10 -1.880260E-10
       195  17 -1.898979E+06 -4.155901E+05 -1.400267E+05 -7.073053E+05 -1.208978E-09 -1.114030E-10
       195  18 -1.967932E+06 -4.658793E+05 -1.819784E+05 -7.400576E+05 -7.188917E-10 -9.405773E-11
       195  19 -9.683689E+05 -8.554256E+04  8.283211E+04 -4.676344E+05 -2.507001E+04  1.982714E+04
       195  20 -9.009184E+05 -4.478825E+04  8.929034E+04 -4.313740E+05 -3.856509E+04  2.025620E+04
       195  21 -8.173327E+05 -3.338366E+04  8.476304E+04 -4.171407E+05 -5.165360E+04  1.958918E+04
       195  22 -1.391446E+06 -2.403312E+05 -1.400452E+04 -5.821442E+05 -1.953166E+04  2.190516E+04
       195  23 -1.400074E+06 -2.301986E+05 -2.535877E+04 -5.693910E+05 -3.414680E+04  2.191597E+04
       195  24 -1.392799E+06 -2.496452E+05 -4.859455E+04 -5.786691E+05 -4.835360E+04  2.083094E+04
       195  25 -1.814344E+06 -3.951075E+05 -1.108529E+05 -6.965830E+05 -1.399742E+04  2.398168E+04
       195  26 -1.898978E+06 -4.155892E+05 -1.400240E+05 -7.073059E+05 -2.973237E+04  2.357428E+04
       195  27 -1.967929E+06 -4.658783E+05 -1.819737E+05 -7.400584E+05 -4.505693E+04  2.207141E+04
       196   1 -7.439466E+05 -1.733225E+04  8.438376E+04 -4.349060E+05  6.724791E+04 -1.891534E+04
       196   2 -7.019862E+05  5.535746E+04  5.684703E+04 -3.362346E+05  1.025237E+05 -3.179292E+03
       196   3 -7.087709E+05 -6.104136E+04 -4.400315E+04 -2.157022E+05  1.292146E+05  3.541290E+04
       196   4 -1.400881E+06 -2.342104E+05 -6.206076E+04 -5.884256E+05  5.765929E+04 -2.251607E+04
       196   5 -1.388145E+06 -2.358841E+05 -1.119136E+05 -5.623465E+05  1.164734E+05  2.050996E+03
       196   6 -1.428917E+06 -4.314623E+05 -2.538242E+05 -5.143958E+05  1.666929E+05  4.947611E+04
       196   7 -2.057388E+06 -4.510792E+05 -2.085332E+05 -7.418072E+05  4.808160E+04 -2.611373E+04
       196   8 -2.073827E+06 -5.270488E+05 -2.807083E+05 -7.882147E+05  1.304063E+05  7.272885E+03
       196   9 -2.148519E+06 -8.016948E+05 -4.636843E+05 -8.127258E+05  2.041231E+05  6.350607E+04
       196  10 -7.439515E+05 -1.733385E+04  8.437458E+04 -4.349050E+05 -3.285356E-10 -4.041542E-10
       196  11 -7.019975E+05  5.535463E+04  5.682724E+04 -3.362343E+05 -1.773625E-10  1.191703E-09
       196  12 -7.087892E+05 -6.104720E+04 -4.403692E+04 -2.157059E+05  6.307055E-10  9.740800E-10
       196  13 -1.400884E+06 -2.342118E+05 -6.206797E+04 -5.884245E+05  7.260016E-12  1.093793E-10
       196  14 -1.388160E+06 -2.358878E+05 -1.119391E+05 -5.623467E+05  8.383275E-10  1.721492E-10
       196  15 -1.428948E+06 -4.314724E+05 -2.538811E+05 -5.144025E+05  1.394341E-10  9.049785E-11
       196  16 -2.057391E+06 -4.510806E+05 -2.085388E+05 -7.418062E+05  8.701523E-10  4.514809E-10
       196  17 -2.073845E+06 -5.270534E+05 -2.807404E+05 -7.882154E+05 -4.595089E-11  3.347303E-10
       196  18 -2.148565E+06 -8.017104E+05 -4.637705E+05 -8.127363E+05 -5.001401E-10  3.818790E-11
       196  19 -7.439466E+05 -1.733225E+04  8.438376E+04 -4.349060E+05 -6.724791E+04  1.891534E+04
       196  20 -7.019862E+05  5.535746E+04  5.684703E+04 -3.362346E+05 -1.025237E+05  3.179292E+03
       196  21 -7.087709E+05 -6.104136E+04 -4.400315E+04 -2.157022E+05 -1.292146E+05 -3.541290E+04
       196  22 -1.400881E+06 -2.342104E+05 -6.206076E+04 -5.884256E+05 -5.765929E+04  2.251607E+04
       196  23 -1.388145E+06 -2.358841E+05 -1.119136E+05 -5.623465E+05 -1.164734E+05 -2.050996E+03
       196  24 -1.428917E+06 -4.314623E+05 -2.538242E+05 -5.143958E+05 -1.666929E+05 -4.947611E+04
       196  25 -2.057388E+06 -4.510792E+05 -2.085332E+05 -7.418072E+05 -4.808160E+04  2.611373E+04
       196  26 -2.073827E+06 -5.270488E+05 -2.807083E+05 -7.882147E+05 -1.304063E+05 -7.272885E+03
       196  27 -2.148519E+06 -8.016948E+05 -4.636843E+05 -8.127258E+05 -2.041231E+05 -6.350607E+04
       197   1 -3.152237E+05 -7.228649E+04 -3.053841E+04  2.907280E+04  1.047761E+05  1.464708E+04
       197   2 -2.371710E+05 -2.227735E+05 -1.030325E+05 -1.730493E+04  8.074181E+04  4.645030E+04
       197   3 -1.165183E+05 -2.166642E+05 -1.206684E+05 -9.638018E+04  5.673053E+04  5.027474E+04
       197   4  7.507881E+05  1.917997E+05  2.254135E+05 -7.135435E+04  1.555292E+05  1.467567E+04
       197   5  7.269106E+05  1.145324E+04  1.045674E+05 -5.493947E+04  1.005383E+05  4.645342E+04
       197   6  7.509143E+05 -7.073117E+03  5.999740E+04 -7.121436E+04  4.557765E+04  5.026714E+04
       197   7  1.817868E+06  4.558429E+05  4.812999E+05 -1.719548E+05  2.063690E+05  1.468783E+04
       197   8  1.691869E+06  2.456246E+05  3.121150E+05 -9.263339E+04  1.203651E+05  4.645415E+04
       197   9  1.619060E+06  2.024725E+05  2.406226E+05 -4.601283E+04  3.440941E+04  5.025865E+04
       197  10 -3.152355E+05 -7.228967E+04 -3.055945E+04  2.907157E+04 -1.311592E-09  2.335429E-10
       197  11 -2.371786E+05 -2.227776E+05 -1.030488E+05 -1.730795E+04  1.187722E-09 -3.904636E-10
       197  12 -1.165224E+05 -2.166678E+05 -1.206792E+05 -9.638248E+04  6.253795E-10  2.172107E-10
       197  13  7.507621E+05  1.917930E+05  2.253677E+05 -7.135619E+04  2.971385E-10  1.129703E-10
       197  14  7.268992E+05  1.144821E+04  1.045444E+05 -5.494323E+04 -1.291418E-09 -9.510317E-10
       197  15  7.509114E+05 -7.076389E+03  5.998875E+04 -7.121621E+04  4.584070E-11  1.015505E-10
       197  16  1.817822E+06  4.558313E+05  4.812197E+05 -1.719573E+05  1.010280E-10 -7.368700E-12
       197  17  1.691853E+06  2.456184E+05  3.120838E+05 -9.263789E+04  4.141767E-10 -2.650044E-11
       197  18  1.619058E+06  2.024694E+05  2.406157E+05 -4.601422E+04 -6.700655E-10 -4.065988E-10
       197  19 -3.152237E+05 -7.228649E+04 -3.053841E+04  2.907280E+04 -1.047761E+05 -1.464708E+04
       197  20 -2.371710E+05 -2.227735E+05 -1.030325E+05 -1.730493E+04 -8.074181E+04 -4.645030E+04
       197  21 -1.165183E+05 -2.166642E+05 -1.206684E+05 -9.638018E+04 -5.673053E+04 -5.027474E+04
       197  22  7.507881E+05  1.917997E+05  2.254135E+05 -7.135435E+04 -1.555292E+05 -1.467567E+04
       197  23  7.269106E+05  1.145324E+04  1.045674E+05 -5.493947E+04 -1.005383E+05 -4.645342E+04
       197  24  7.509143E+05 -7.073117E+03  5.999740E+04 -7.121436E+04 -4.557765E+04 -5.026714E+04
       197  25  1.817868E+06  4.558429E+05  4.812999E+05 -1.719548E+05 -2.063690E+05 -1.468783E+04
       197  26  1.691869E+06  2.456246E+05  3.121150E+05 -9.263339E+04 -1.203651E+05 -4.645415E+04
       197  27  1.619060E+06  2.024725E+05  2.406226E+05 -4.601283E+04 -3.440941E+04 -5.025865E+04
       198   1 -5.229627E+04 -1.837607E+05 -1.187446E+05 -6.896038E+04  4.129785E+04  4.514257E+04
       198   2  4.433798E+04 -1.678177E+05 -1.185012E+05 -5.418037E+04  2.994906E+04  4.082776E+04
       198   3  1.444186E+05 -1.445766E+05 -1.090109E+05 -7.313196E+04  1.859510E+04  3.511762E+04
       198   4  7.411119E+05  8.031396E+03  4.709346E+04 -7.147884E+04  3.734014E+04  4.513691E+04
       198   5  7.392853E+05 -2.083212E+01  2.581823E+04 -5.461411E+04  2.443569E+04  4.082373E+04
       198   6  7.411615E+05 -5.100771E+02  1.486039E+04 -7.147836E+04  1.152786E+04  3.511589E+04
       198   7  1.535115E+06  1.997833E+05  2.128967E+05 -7.400058E+04  3.337743E+04  4.513129E+04
       198   8  1.434690E+06  1.677453E+05  1.701114E+05 -5.504834E+04  1.891624E+04  4.081970E+04
       198   9  1.338242E+06  1.435338E+05  1.387124E+05 -6.982312E+04  4.453932E+03  3.511413E+04
       198  10 -5.229865E+04 -1.837634E+05 -1.187517E+05 -6.896189E+04 -7.305446E-10  3.501747E-11
       198  11  4.433657E+04 -1.678197E+05 -1.185060E+05 -5.418135E+04 -7.575033E-10  3.048948E-10
       198  12  1.444179E+05 -1.445780E+05 -1.090139E+05 -7.313248E+04 -1.313241E-09  2.430650E-10
       198  13  7.411098E+05  8.028834E+03  4.708701E+04 -7.148020E+04 -1.005671E-09  6.160684E-11
       198  14  7.392842E+05 -2.278250E+01  2.581398E+04 -5.461491E+04 -1.112634E-09  5.219404E-10
       198  15  7.411610E+05 -5.114374E+02  1.485782E+04 -7.147869E+04 -5.228693E-10  5.061581E-10
       198  16  1.535113E+06  1.997808E+05  2.128908E+05 -7.400179E+04  9.101827E-10  1.151928E-10
       198  17  1.434689E+06  1.677435E+05  1.701076E+05 -5.504896E+04 -3.594825E-10  5.113989E-10
       198  18  1.338241E+06  1.435325E+05  1.387101E+05 -6.982325E+04  2.776429E-10  3.808179E-10
       198  19 -5.229627E+04 -1.837607E+05 -1.187446E+05 -6.896038E+04 -4.129785E+04 -4.514257E+04
       198  20  4.433798E+04 -1.678177E+05 -1.185012E+05 -5.418037E+04 -2.994906E+04 -4.082776E+04
       198  21  1.444186E+05 -1.445766E+05 -1.090109E+05 -7.313196E+04 -1.859510E+04 -3.511762E+04
       198  22  7.411119E+05  8.031396E+03  4.709346E+04 -7.147884E+04 -3.734014E+04 -4.513691E+04
       198  23  7.392853E+05 -2.083212E+01  2.581823E+04 -5.461411E+04 -2.443569E+04 -4.082373E+04
       198  24  7.411615E+05 -5.100771E+02  1.486039E+04 -7.147836E+04 -1.152786E+04 -3.511589E+04
       198  25  1.535115E+06  1.997833E+05  2.128967E+05 -7.400058E+04 -3.337743E+04 -4.513129E+04
       198  26  1.434690E+06  1.677453E+05  1.701114E+05 -5.504834E+04 -1.891624E+04 -4.081970E+04
       198  27  1.338242E+06  1.435338E+05  1.387124E+05 -6.982312E+04 -4.453932E+03 -3.511413E+04
       199   1  2.165970E+05 -1.262100E+05 -9.696117E+04 -7.176272E+04  1.591052E+04  3.143051E+04
       199   2  3.142318E+05 -1.029110E+05 -8.173739E+04 -5.483835E+04  1.277119E+04  2.533016E+04
       199   3  4.124082E+05 -7.923619E+04 -6.436929E+04 -7.156505E+04  9.628512E+03  1.916648E+04
       199   4  7.404765E+05  1.735662E+02  1.134699E+04 -7.146100E+04  9.213253E+03  3.142985E+04
       199   5  7.402188E+05 -1.173595E+02  6.488626E+03 -5.463625E+04  6.000963E+03  2.533093E+04
       199   6  7.405038E+05 -2.020513E+01  3.823324E+03 -7.146120E+04  2.785814E+03  1.916873E+04
       199   7  1.264616E+06  1.265398E+05  1.196405E+05 -7.115899E+04  2.510432E+03  3.142919E+04
       199   8  1.166378E+06  1.026648E+05  9.470495E+04 -5.443399E+04 -7.738238E+02  2.533169E+04
       199   9  1.068701E+06  7.918896E+04  7.201021E+04 -7.135728E+04 -4.060438E+03  1.917098E+04
       199  10  2.165964E+05 -1.262112E+05 -9.696350E+04 -7.176312E+04 -9.303873E-10  1.754244E-10
       199  11  3.142315E+05 -1.029117E+05 -8.173891E+04 -5.483861E+04  1.214684E-09  9.986362E-11
       199  12  4.124080E+05 -7.923661E+04 -6.437015E+04 -7.156520E+04  6.241866E-10 -1.882284E-10
       199  13  7.404762E+05  1.724823E+02  1.134497E+04 -7.146123E+04 -1.091321E-09  2.852400E-10
       199  14  7.402186E+05 -1.180585E+02  6.487353E+03 -5.463637E+04  1.690169E-10  3.227112E-11
       199  15  7.405037E+05 -2.060192E+01  3.822618E+03 -7.146124E+04 -5.796794E-10 -6.031701E-10
       199  16  1.264616E+06  1.265388E+05  1.196386E+05 -7.115905E+04  7.193800E-10  2.252616E-10
       199  17  1.166378E+06  1.026641E+05  9.470375E+04 -5.443398E+04  4.757389E-10  1.475545E-10
       199  18  1.068701E+06  7.918856E+04  7.200949E+04 -7.135722E+04 -4.182773E-10 -5.137520E-10
       199  19  2.165970E+05 -1.262100E+05 -9.696117E+04 -7.176272E+04 -1.591052E+04 -3.143051E+04
       199  20  3.142318E+05 -1.029110E+05 -8.173739E+04 -5.483835E+04 -1.277119E+04 -2.533016E+04
       199  21  4.124082E+05 -7.923619E+04 -6.436929E+04 -7.156505E+04 -9.628512E+03 -1.916648E+04
       199  22  7.404765E+05  1.735662E+02  1.134699E+04 -7.146100E+04 -9.213253E+03 -3.142985E+04
       199  23  7.402188E+05 -1.173595E+02  6.488626E+03 -5.463625E+04 -6.000963E+03 -2.533093E+04
       199  24  7.405038E+05 -2.020513E+01  3.823324E+03 -7.146120E+04 -2.785814E+03 -1.916873E+04
       199  25  1.264616E+06  1.265398E+05  1.196405E+05 -7.115899E+04 -2.510432E+03 -3.142919E+04
       199  26  1.166378E+06  1.026648E+05  9.470495E+04 -5.443399E+04  7.738238E+02 -2.533169E+04
       199  27  1.068701E+06  7.918896E+04  7.201021E+04 -7.135728E+04  4.060438E+03 -1.917098E+04
       200   1  4.849049E+05 -6.158550E+04 -4.967091E+04 -7.149027E+04  8.988960E+03  1.556425E+04
       200   2  5.825324E+05 -3.807233E+04 -3.077105E+04 -5.467620E+04  8.046197E+03  9.390179E+03
       200   3  6.802767E+05 -1.451009E+04 -1.125298E+04 -7.143176E+04  7.102243E+03  3.215422E+03
       200   4  7.404162E+05  1.094258E+01  2.973405E+03 -7.144327E+04  2.169030E+03  1.556709E+04
       200   5  7.403672E+05  6.820469E+00  1.906252E+03 -5.465871E+04  1.224672E+03  9.393539E+03
       200   6  7.404260E+05  5.249205E+01  1.458296E+03 -7.144329E+04  2.792685E+02  3.219333E+03
       200   7  9.959896E+05  6.160329E+04  5.561439E+04 -7.139624E+04 -4.653656E+03  1.556993E+04
       200   8  8.982257E+05  3.808442E+04  3.458237E+04 -5.464122E+04 -5.598555E+03  9.396898E+03
       200   9  8.005789E+05  1.461487E+04  1.416954E+04 -7.145481E+04 -6.544357E+03  3.223243E+03
       200  10  4.849047E+05 -6.158578E+04 -4.967152E+04 -7.149038E+04 -4.162029E-10 -4.762168E-10
       200  11  5.825323E+05 -3.807245E+04 -3.077133E+04 -5.467626E+04 -7.804699E-10  2.874441E-10
       200  12  6.802766E+05 -1.451012E+04 -1.125309E+04 -7.143178E+04 -6.875065E-10  7.941966E-10
       200  13  7.404162E+05  1.068100E+01  2.972940E+03 -7.144330E+04  1.641734E-10 -1.940375E-10
       200  14  7.403672E+05  6.725280E+00  1.906083E+03 -5.465872E+04  7.189812E-10 -3.480472E-10
       200  15  7.404260E+05  5.248090E+01  1.458276E+03 -7.144329E+04 -8.683462E-10 -1.907007E-12
       200  16  9.959895E+05  6.160303E+04  5.561389E+04 -7.139619E+04  1.850188E-09 -1.329307E-09
       200  17  8.982257E+05  3.808432E+04  3.458215E+04 -5.464118E+04 -2.153083E-10 -2.262064E-11
       200  18  8.005788E+05  1.461485E+04  1.416944E+04 -7.145480E+04  1.044932E-09 -3.824037E-10
       200  19  4.849049E+05 -6.158550E+04 -4.967091E+04 -7.149027E+04 -8.988960E+03 -1.556425E+04
       200  20  5.825324E+05 -3.807233E+04 -3.077105E+04 -5.467620E+04 -8.046197E+03 -9.390179E+03
       200  21  6.802767E+05 -1.451009E+04 -1.125298E+04 -7.143176E+04 -7.102243E+03 -3.215422E+03
       200  22  7.404162E+05  1.094258E+01  2.973405E+03 -7.144327E+04 -2.169030E+03 -1.556709E+04
       200  23  7.403672E+05  6.820469E+00  1.906252E+03 -5.465871E+04 -1.224672E+03 -9.393539E+03
       200  24  7.404260E+05  5.249205E+01  1.458296E+03 -7.144329E+04 -2.792685E+02 -3.219333E+03
       200  25  9.959896E+05  6.160329E+04  5.561439E+04 -7.139624E+04  4.653656E+03 -1.556993E+04
       200  26  8.982257E+05  3.808442E+04  3.458237E+04 -5.464122E+04  5.598555E+03 -9.396898E+03
       200  27  8.005789E+05  1.461487E+04  1.416954E+04 -7.145481E+04  6.544357E+03 -3.223243E+03
       201   1  7.527775E+05  3.085498E+03  4.224999E+03 -7.145237E+04  6.839364E+03 -3.782243E+02
       201   2  8.504137E+05  2.656024E+04  2.441228E+04 -5.465367E+04  6.027528E+03 -6.551290E+03
       201   3  9.481425E+05  5.008017E+04  4.512932E+04 -7.141758E+04  5.216310E+03 -1.272309E+04
       201   4  7.404217E+05  5.289405E+01  1.407527E+03 -7.144192E+04  1.643136E+01 -3.742646E+02
       201   5  7.403758E+05  1.680287E+01  1.633909E+03 -5.466043E+04 -7.943442E+02 -6.547720E+03
       201   6  7.404149E+05  2.662249E+01  2.389949E+03 -7.144191E+04 -1.604378E+03 -1.271988E+04
       201   7  7.280661E+05 -2.979696E+03 -1.409780E+03 -7.143146E+04 -6.806367E+03 -3.703051E+02
       201   8  6.303495E+05 -2.652737E+04 -2.114494E+04 -5.466718E+04 -7.615029E+03 -6.544150E+03
       201   9  5.327282E+05 -5.002961E+04 -4.035156E+04 -7.146622E+04 -8.422827E+03 -1.271667E+04
       201  10  7.527775E+05  3.085485E+03  4.224911E+03 -7.145237E+04 -2.046710E-10  9.889654E-11
       201  11  8.504136E+05  2.656018E+04  2.441213E+04 -5.465364E+04  1.519350E-09 -8.017186E-10
       201  12  9.481424E+05  5.007998E+04  4.512897E+04 -7.141753E+04 -1.718866E-09 -5.344593E-11
       201  13  7.404217E+05  5.289390E+01  1.407527E+03 -7.144192E+04  1.482774E-10  6.814368E-10
       201  14  7.403758E+05  1.675665E+01  1.633828E+03 -5.466043E+04 -1.287241E-09  3.211365E-10
       201  15  7.404148E+05  2.644799E+01  2.389640E+03 -7.144192E+04 -1.377192E-09 -6.783003E-10
       201  16  7.280660E+05 -2.979708E+03 -1.409867E+03 -7.143147E+04 -7.995975E-10  1.353003E-10
       201  17  6.303495E+05 -2.652743E+04 -2.114513E+04 -5.466722E+04 -2.250052E-10  7.099371E-10
       201  18  5.327281E+05 -5.002981E+04 -4.035200E+04 -7.146630E+04 -3.053171E-11 -1.964698E-10
       201  19  7.527775E+05  3.085498E+03  4.224999E+03 -7.145237E+04 -6.839364E+03  3.782243E+02
       201  20  8.504137E+05  2.656024E+04  2.441228E+04 -5.465367E+04 -6.027528E+03  6.551290E+03
       201  21  9.481425E+05  5.008017E+04  4.512932E+04 -7.141758E+04 -5.216310E+03  1.272309E+04
       201  22  7.404217E+05  5.289405E+01  1.407527E+03 -7.144192E+04 -1.643136E+01  3.742646E+02
       201  23  7.403758E+05  1.680287E+01  1.633909E+03 -5.466043E+04  7.943442E+02  6.547720E+03
       201  24  7.404149E+05  2.662249E+01  2.389949E+03 -7.144191E+04  1.604378E+03  1.271988E+04
       201  25  7.280661E+05 -2.979696E+03 -1.409780E+03 -7.143146E+04  6.806367E+03  3.703051E+02
       201  26  6.303495E+05 -2.652737E+04 -2.114494E+04 -5.466718E+04  7.615029E+03  6.544150E+03
       201  27  5.327282E+05 -5.002961E+04 -4.035156E+04 -7.146622E+04  8.422827E+03  1.271667E+04
       202   1  1.020802E+06  6.766592E+04  6.130404E+04 -7.139565E+04  4.746304E+03 -1.632270E+04
       202   2  1.118480E+06  9.114292E+04  8.334930E+04 -5.451376E+04  2.173444E+03 -2.248158E+04
       202   3  1.216597E+06  1.149375E+05  1.071484E+05 -7.125467E+04 -3.973436E+02 -2.857939E+04
       202   4  7.404809E+05  1.992254E+00  3.024324E+03 -7.145551E+04 -2.096378E+03 -1.631998E+04
       202   5  7.402608E+05 -7.998918E+01  5.052978E+03 -5.464340E+04 -4.600868E+03 -2.248018E+04
       202   6  7.404569E+05  1.441099E+02  8.788686E+03 -7.145534E+04 -7.102892E+03 -2.857926E+04
       202   7  4.602343E+05 -6.766690E+04 -5.525953E+04 -7.151532E+04 -8.936026E+03 -1.631726E+04
       202   8  3.621767E+05 -9.131193E+04 -7.325094E+04 -5.477294E+04 -1.137113E+04 -2.247878E+04
       202   9  2.645314E+05 -1.146635E+05 -8.958308E+04 -7.165584E+04 -1.380339E+04 -2.857913E+04
       202  10  1.020802E+06  6.766562E+04  6.130350E+04 -7.139559E+04 -1.243427E-09  7.881441E-10
       202  11  1.118480E+06  9.114237E+04  8.334834E+04 -5.451372E+04  1.116889E-09  1.596454E-10
       202  12  1.216597E+06  1.149366E+05  1.071468E+05 -7.125468E+04 -8.676126E-10  8.285442E-10
       202  13  7.404808E+05  1.704966E+00  3.023815E+03 -7.145553E+04 -1.461708E-09 -1.875907E-10
       202  14  7.402606E+05 -8.053773E+01  5.051988E+03 -5.464348E+04 -9.119018E-10 -1.388455E-10
       202  15  7.404566E+05  1.432190E+02  8.787055E+03 -7.145551E+04  1.740983E-10  3.779399E-10
       202  16  4.602341E+05 -6.766721E+04 -5.526018E+04 -7.151544E+04  7.286140E-10  3.094588E-10
       202  17  3.621764E+05 -9.131251E+04 -7.325214E+04 -5.477314E+04  1.108754E-09  8.445612E-11
       202  18  2.645310E+05 -1.146645E+05 -8.958497E+04 -7.165615E+04  4.849449E-10 -3.849149E-10
       202  19  1.020802E+06  6.766592E+04  6.130404E+04 -7.139565E+04 -4.746304E+03  1.632270E+04
       202  20  1.118480E+06  9.114292E+04  8.334930E+04 -5.451376E+04 -2.173444E+03  2.248158E+04
       202  21  1.216597E+06  1.149375E+05  1.071484E+05 -7.125467E+04  3.973436E+02  2.857939E+04
       202  22  7.404809E+05  1.992254E+00  3.024324E+03 -7.145551E+04  2.096378E+03  1.631998E+04
       202  23  7.402608E+05 -7.998918E+01  5.052978E+03 -5.464340E+04  4.600868E+03  2.248018E+04
       202  24  7.404569E+05  1.441099E+02  8.788686E+03 -7.145534E+04  7.102892E+03  2.857926E+04
       202  25  4.602343E+05 -6.766690E+04 -5.525953E+04 -7.151532E+04  8.936026E+03  1.631726E+04
       202  26  3.621767E+05 -9.131193E+04 -7.325094E+04 -5.477294E+04  1.137113E+04  2.247878E+04
       202  27  2.645314E+05 -1.146635E+05 -8.958308E+04 -7.165584E+04  1.380339E+04  2.857913E+04
       203   1  1.290002E+06  1.320708E+05  1.254052E+05 -7.023090E+04 -1.834737E+03 -3.225810E+04
       203   2  1.386773E+06  1.561345E+05  1.542666E+05 -5.498729E+04 -1.329465E+04 -3.797918E+04
       203   3  1.486676E+06  1.862981E+05  1.921260E+05 -7.344523E+04 -2.475281E+04 -4.236670E+04
       203   4  7.409864E+05 -3.858208E+02  1.149769E+04 -7.147293E+04 -8.894966E+03 -3.225896E+04
       203   5  7.395289E+05 -1.947610E+01  1.995261E+04 -5.462112E+04 -1.887093E+04 -3.798226E+04
       203   6  7.409413E+05  6.194234E+03  3.638324E+04 -7.147275E+04 -2.884337E+04 -4.237137E+04
       203   7  1.922557E+05 -1.328615E+05 -1.024261E+05 -7.271382E+04 -1.594907E+04 -3.225979E+04
       203   8  9.268066E+04 -1.562000E+05 -1.143842E+05 -5.425532E+04 -2.444150E+04 -3.798535E+04
       203   9 -4.268667E+03 -1.739451E+05 -1.193902E+05 -6.950266E+04 -3.292910E+04 -4.237607E+04
       203  10  1.290002E+06  1.320697E+05  1.254032E+05 -7.023094E+04  5.899555E-10  2.859013E-10
       203  11  1.386773E+06  1.561329E+05  1.542636E+05 -5.498770E+04  6.269742E-10 -8.783571E-10
       203  12  1.486675E+06  1.862960E+05  1.921215E+05 -7.344607E+04 -4.348869E-10 -4.093131E-10
       203  13  7.409860E+05 -3.869599E+02  1.149558E+04 -7.147316E+04 -5.478333E-10 -8.040941E-11
       203  14  7.395281E+05 -2.112132E+01  1.994923E+04 -5.462169E+04  1.176884E-10 -7.321615E-10
       203  15  7.409399E+05  6.192082E+03  3.637830E+04 -7.147373E+04  2.671103E-10 -5.704509E-10
       203  16  1.922551E+05 -1.328627E+05 -1.024285E+05 -7.271423E+04 -6.661460E-11 -5.731533E-10
       203  17  9.267963E+04 -1.562018E+05 -1.143880E+05 -5.425606E+04 -2.852261E-10 -5.234370E-10
       203  18 -4.270314E+03 -1.739473E+05 -1.193956E+05 -6.950379E+04 -1.894663E-10 -4.375239E-10
       203  19  1.290002E+06  1.320708E+05  1.254052E+05 -7.023090E+04  1.834737E+03  3.225810E+04
       203  20  1.386773E+06  1.561345E+05  1.542666E+05 -5.498729E+04  1.329465E+04  3.797918E+04
       203  21  1.486676E+06  1.862981E+05  1.921260E+05 -7.344523E+04  2.475281E+04  4.236670E+04
       203  22  7.409864E+05 -3.858208E+02  1.149769E+04 -7.147293E+04  8.894966E+03  3.225896E+04
       203  23  7.395289E+05 -1.947610E+01  1.995261E+04 -5.462112E+04  1.887093E+04  3.798226E+04
       203  24  7.409413E+05  6.194234E+03  3.638324E+04 -7.147275E+04  2.884337E+04  4.237137E+04
       203  25  1.922557E+05 -1.328615E+05 -1.024261E+05 -7.271382E+04  1.594907E+04  3.225979E+04
       203  26  9.268066E+04 -1.562000E+05 -1.143842E+05 -5.425532E+04  2.444150E+04  3.798535E+04
       203  27 -4.268667E+03 -1.739451E+05 -1.193902E+05 -6.950266E+04  3.292910E+04  4.237607E+04
       204   1  1.568283E+06  1.923901E+05  2.169368E+05 -5.176993E+04 -2.422640E+04 -4.742267E+04
       204   2  1.646462E+06  2.312690E+05  2.779518E+05 -8.404127E+04 -9.629939E+04 -4.403925E+04
       204   3  1.766751E+06  4.002066E+05  4.183777E+05 -1.489919E+05 -1.684113E+05 -1.392372E+04
       204   4  7.485152E+05 -5.478672E+03  4.635019E+04 -7.122212E+04 -3.520760E+04 -4.742996E+04
       204   5  7.299486E+05  8.819633E+03  8.076855E+04 -5.493087E+04 -7.766082E+04 -4.403821E+04
       204   6  7.484069E+05  1.481384E+05  1.741162E+05 -7.131203E+04 -1.201386E+05 -1.390781E+04
       204   7 -7.061626E+04 -2.033887E+05 -1.242726E+05 -9.064827E+04 -4.617455E+04 -4.743657E+04
       204   8 -1.857742E+05 -2.136814E+05 -1.164622E+05 -2.586403E+04 -5.904927E+04 -4.403543E+04
       204   9 -2.689716E+05 -1.039809E+05 -7.020671E+04  6.240064E+03 -7.194457E+04 -1.387985E+04
       204  10  1.568281E+06  1.923876E+05  2.169315E+05 -5.177085E+04  1.711522E-10  9.671686E-11
       204  11  1.646451E+06  2.312644E+05  2.779308E+05 -8.404468E+04  1.328860E-09  1.750514E-10
       204  12  1.766720E+06  4.001988E+05  4.183242E+05 -1.489938E+05  6.639933E-11  4.438646E-10
       204  13  7.485133E+05 -5.481421E+03  4.634364E+04 -7.122347E+04 -9.401337E-10 -9.064569E-10
       204  14  7.299416E+05  8.815933E+03  8.075358E+04 -5.493363E+04 -1.176119E-09  1.268800E-11
       204  15  7.483914E+05  1.481343E+05  1.740888E+05 -7.131338E+04  1.953696E-09 -2.934073E-10
       204  16 -7.061915E+04 -2.033917E+05 -1.242809E+05 -9.065003E+04  4.718750E-11 -6.107991E-10
       204  17 -1.857785E+05 -2.136844E+05 -1.164724E+05 -2.586612E+04 -1.085883E-09 -6.067051E-10
       204  18 -2.689772E+05 -1.039825E+05 -7.021680E+04  6.239259E+03  3.223825E-10  7.060551E-10
       204  19  1.568283E+06  1.923901E+05  2.169368E+05 -5.176993E+04  2.422640E+04  4.742267E+04
       204  20  1.646462E+06  2.312690E+05  2.779518E+05 -8.404127E+04  9.629939E+04  4.403925E+04
       204  21  1.766751E+06  4.002066E+05  4.183777E+05 -1.489919E+05  1.684113E+05  1.392372E+04
       204  22  7.485152E+05 -5.478672E+03  4.635019E+04 -7.122212E+04  3.520760E+04  4.742996E+04
       204  23  7.299486E+05  8.819633E+03  8.076855E+04 -5.493087E+04  7.766082E+04  4.403821E+04
       204  24  7.484069E+05  1.481384E+05  1.741162E+05 -7.131203E+04  1.201386E+05  1.390781E+04
       204  25 -7.061626E+04 -2.033887E+05 -1.242726E+05 -9.064827E+04  4.617455E+04  4.743657E+04
       204  26 -1.857742E+05 -2.136814E+05 -1.164622E+05 -2.586403E+04  5.904927E+04  4.403543E+04
       204  27 -2.689716E+05 -1.039809E+05 -7.020671E+04  6.240064E+03  7.194457E+04  1.387985E+04
       205   1  5.917973E+05  2.145219E+06  5.846065E+05 -5.231116E+05  2.326103E+04  1.450806E+05
       205   2  3.764873E+05  1.539686E+06  3.597175E+05 -4.150659E+05  6.723987E+04  5.057624E+04
       205   3  2.246139E+05  9.623501E+05  2.120107E+05 -4.770205E+05  5.364538E+04 -4.391664E+04
       205   4  6.767497E+04  3.075520E+04  7.652974E+04 -4.821322E+05  2.346941E+04  5.071930E+04
       205   5  9.085592E+03  2.354693E+04  3.786459E+04 -3.972009E+05  6.729924E+04  3.110286E+04
       205   6  1.068417E+03  3.131913E+04  2.455954E+04 -4.822733E+05  5.349884E+04  1.140617E+04
       205   7 -4.567619E+05 -2.079603E+06 -4.318307E+05 -4.412890E+05  2.366583E+04 -4.332295E+04
       205   8 -3.584639E+05 -1.490428E+06 -2.841182E+05 -3.793781E+05  6.735759E+04  1.167617E+04
       205   9 -2.225289E+05 -8.988797E+05 -1.629245E+05 -4.875172E+05  5.335123E+04  6.664772E+04
       205  10  5.917911E+05  2.145196E+06  5.845660E+05 -5.231143E+05  5.577913E-10  1.090216E-09
       205  11  3.764818E+05  1.539682E+06  3.597042E+05 -4.150687E+05 -9.537109E-11 -1.994336E-09
       205  12  2.246103E+05  9.623473E+05  2.120017E+05 -4.770186E+05  7.483564E-10 -1.890561E-09
       205  13  6.767368E+04  3.075229E+04  7.652387E+04 -4.821332E+05  8.580863E-10  1.349255E-09
       205  14  9.080466E+03  2.354468E+04  3.785425E+04 -3.972025E+05  8.716871E-10 -9.394811E-10
       205  15  1.065308E+03  3.131822E+04  2.455392E+04 -4.822737E+05 -2.018510E-10  1.195450E-09
       205  16 -4.567630E+05 -2.079605E+06 -4.318353E+05 -4.412881E+05  1.894291E-11 -1.409531E-09
       205  17 -3.584688E+05 -1.490429E+06 -2.841270E+05 -3.793787E+05  2.239423E-09  6.590419E-10
       205  18 -2.225331E+05 -8.988853E+05 -1.629383E+05 -4.875200E+05 -1.083278E-09  7.373205E-11
       205  19  5.917973E+05  2.145219E+06  5.846065E+05 -5.231116E+05 -2.326103E+04 -1.450806E+05
       205  20  3.764873E+05  1.539686E+06  3.597175E+05 -4.150659E+05 -6.723987E+04 -5.057624E+04
       205  21  2.246139E+05  9.623501E+05  2.120107E+05 -4.770205E+05 -5.364538E+04  4.391664E+04
       205  22  6.767497E+04  3.075520E+04  7.652974E+04 -4.821322E+05 -2.346941E+04 -5.071930E+04
       205  23  9.085592E+03  2.354693E+04  3.786459E+04 -3.972009E+05 -6.729924E+04 -3.110286E+04
       205  24  1.068417E+03  3.131913E+04  2.455954E+04 -4.822733E+05 -5.349884E+04 -1.140617E+04
       205  25 -4.567619E+05 -2.079603E+06 -4.318307E+05 -4.412890E+05 -2.366583E+04  4.332295E+04
       205  26 -3.584639E+05 -1.490428E+06 -2.841182E+05 -3.793781E+05 -6.735759E+04 -1.167617E+04
       205  27 -2.225289E+05 -8.988797E+05 -1.629245E+05 -4.875172E+05 -5.335123E+04 -6.664772E+04
       206   1  1.286993E+05  5.441668E+05  1.260702E+05 -4.853600E+05  2.894599E+04 -3.604914E+04
       206   2 -1.571159E+04 -4.735719E+04  4.383874E+03 -3.962346E+05 -4.668141E+03 -4.533331E+04
       206   3 -1.547465E+05 -6.368165E+05 -1.101620E+05 -4.801566E+05 -3.805114E+04 -5.460617E+04
       206   4  4.683463E+03  2.850775E+04  2.153292E+04 -4.829237E+05  2.882205E+04  7.711554E+03
       206   5  2.219958E+03  2.760194E+04  1.907518E+04 -3.964009E+05 -4.789152E+03 -1.888604E+03
       206   6  5.205368E+03  2.847958E+04  2.398258E+04 -4.829221E+05 -3.817017E+04 -1.148586E+04
       206   7 -1.193478E+05 -4.868943E+05 -8.301097E+04 -4.804891E+05  2.869838E+04  5.143661E+04
       206   8  2.015218E+04  1.025705E+05  3.377331E+04 -3.965672E+05 -4.910178E+03  4.156123E+04
       206   9  1.651309E+05  6.942018E+05  1.581114E+05 -4.856901E+05 -3.828950E+04  3.167980E+04
       206  10  1.286980E+05  5.441652E+05  1.260662E+05 -4.853592E+05  7.475101E-11  2.238770E-09
       206  11 -1.571217E+04 -4.735940E+04  4.379970E+03 -3.962348E+05  9.139672E-10 -3.056100E-09
       206  12 -1.547489E+05 -6.368201E+05 -1.101704E+05 -4.801583E+05  3.133827E-10 -3.012765E-09
       206  13  4.682555E+03  2.850746E+04  2.153125E+04 -4.829239E+05 -1.357172E-10  2.286180E-09
       206  14  2.219932E+03  2.760193E+04  1.907513E+04 -3.964009E+05 -2.586375E-09 -1.091253E-09
       206  15  5.203767E+03  2.847904E+04  2.397959E+04 -4.829224E+05 -2.871673E-10  1.242120E-09
       206  16 -1.193494E+05 -4.868973E+05 -8.301750E+04 -4.804903E+05 -1.531591E-09 -2.641218E-09
       206  17  2.015169E+04  1.025687E+05  3.377002E+04 -3.965670E+05 -1.487610E-09  8.195762E-10
       206  18  1.651290E+05  6.942004E+05  1.581068E+05 -4.856891E+05  3.349629E-10  1.223260E-09
       206  19  1.286993E+05  5.441668E+05  1.260702E+05 -4.853600E+05 -2.894599E+04  3.604914E+04
       206  20 -1.571159E+04 -4.735719E+04  4.383874E+03 -3.962346E+05  4.668141E+03  4.533331E+04
       206  21 -1.547465E+05 -6.368165E+05 -1.101620E+05 -4.801566E+05  3.805114E+04  5.460617E+04
       206  22  4.683463E+03  2.850775E+04  2.153292E+04 -4.829237E+05 -2.882205E+04 -7.711554E+03
       206  23  2.219958E+03  2.760194E+04  1.907518E+04 -3.964009E+05  4.789152E+03  1.888604E+03
       206  24  5.205368E+03  2.847958E+04  2.398258E+04 -4.829221E+05  3.817017E+04  1.148586E+04
       206  25 -1.193478E+05 -4.868943E+05 -8.301097E+04 -4.804891E+05 -2.869838E+04 -5.143661E+04
       206  26  2.015218E+04  1.025705E+05  3.377331E+04 -3.965672E+05  4.910178E+03 -4.156123E+04
       206  27  1.651309E+05  6.942018E+05  1.581114E+05 -4.856901E+05  3.828950E+04 -3.167980E+04
       207   1 -2.588295E+05 -1.048142E+06 -1.887443E+05 -4.889058E+05 -6.276526E+04 -7.110501E+04
       207   2 -3.929858E+05 -1.640950E+06 -3.073318E+05 -3.759259E+05 -7.508827E+04 -1.528711E+04
       207   3 -4.791999E+05 -2.228790E+06 -4.503871E+05 -4.327800E+05 -2.594633E+04  4.055531E+04
       207   4  7.052520E+02  3.202764E+04  2.832271E+04 -4.822272E+05 -6.290832E+04 -1.562483E+04
       207   5  1.071560E+04  2.251352E+04  4.556645E+04 -3.972532E+05 -7.501825E+04 -3.934014E+04
       207   6  8.242753E+04  3.140831E+04  9.359742E+04 -4.820608E+05 -2.574293E+04 -6.297780E+04
       207   7  2.601699E+05  1.113318E+06  2.453419E+05 -4.755356E+05 -6.305002E+04  3.995013E+04
       207   8  4.142393E+05  1.688592E+06  3.983092E+05 -4.186364E+05 -7.494670E+04 -6.345666E+04
       207   9  6.436967E+05  2.296320E+06  6.372594E+05 -5.315183E+05 -2.552355E+04 -1.668871E+05
       207  10 -2.588351E+05 -1.048148E+06 -1.887613E+05 -4.889093E+05  1.616754E-10  1.600576E-09
       207  11 -3.929920E+05 -1.640952E+06 -3.073428E+05 -3.759268E+05  1.713145E-09 -2.040687E-09
       207  12 -4.792011E+05 -2.228792E+06 -4.503915E+05 -4.327791E+05  1.490470E-10 -2.150122E-09
       207  13  7.009357E+02  3.202632E+04  2.831481E+04 -4.822279E+05  8.489761E-10  2.085353E-09
       207  14  1.070914E+04  2.251035E+04  4.555296E+04 -3.972556E+05 -1.547652E-09 -7.934702E-10
       207  15  8.242575E+04  3.140387E+04  9.358872E+04 -4.820621E+05  9.265743E-11  7.111725E-10
       207  16  2.601652E+05  1.113315E+06  2.453314E+05 -4.755335E+05 -3.161985E-10 -1.834183E-09
       207  17  4.142322E+05  1.688587E+06  3.982911E+05 -4.186402E+05  2.089853E-09  1.992265E-10
       207  18  6.436886E+05  2.296290E+06  6.372060E+05 -5.315217E+05  4.880196E-10  8.616875E-10
       207  19 -2.588295E+05 -1.048142E+06 -1.887443E+05 -4.889058E+05  6.276526E+04  7.110501E+04
       207  20 -3.929858E+05 -1.640950E+06 -3.073318E+05 -3.759259E+05  7.508827E+04  1.528711E+04
       207  21 -4.791999E+05 -2.228790E+06 -4.503871E+05 -4.327800E+05  2.594633E+04 -4.055531E+04
       207  22  7.052520E+02  3.202764E+04  2.832271E+04 -4.822272E+05  6.290832E+04  1.562483E+04
       207  23  1.071560E+04  2.251352E+04  4.556645E+04 -3.972532E+05  7.501825E+04  3.934014E+04
       207  24  8.242753E+04  3.140831E+04  9.359742E+04 -4.820608E+05  2.574293E+04  6.297780E+04
       207  25  2.601699E+05  1.113318E+06  2.453419E+05 -4.755356E+05  6.305002E+04 -3.995013E+04
       207  26  4.142393E+05  1.688592E+06  3.983092E+05 -4.186364E+05  7.494670E+04  6.345666E+04
       207  27  6.436967E+05  2.296320E+06  6.372594E+05 -5.315183E+05  2.552355E+04  1.668871E+05
       208   1 -2.176034E+06 -8.636269E+05 -4.963123E+05 -8.343137E+05 -2.121608E+05 -6.272642E+04
       208   2 -2.084327E+06 -6.007109E+05 -3.097623E+05 -7.979925E+05 -1.348440E+05  3.874604E+03
       208   3 -2.039834E+06 -5.115394E+05 -2.315206E+05 -7.493401E+05 -4.679482E+04  4.201419E+04
       208   4 -1.248156E+06 -4.139069E+05 -2.331921E+05 -4.775533E+05 -1.552789E+05 -4.138021E+04
       208   5 -1.215060E+06 -2.394461E+05 -1.045606E+05 -5.178843E+05 -1.123357E+05  1.231645E+04
       208   6 -1.222262E+06 -2.317885E+05 -5.684535E+04 -5.459156E+05 -5.868065E+04  3.754565E+04
       208   7 -3.194204E+05  3.604273E+04  2.985705E+04 -1.202569E+05 -9.830482E+04 -1.997599E+04
       208   8 -3.450277E+05  1.219313E+05  1.005895E+05 -2.373968E+05 -8.979328E+04  2.077477E+04
       208   9 -4.040047E+05  4.799582E+04  1.177947E+05 -3.422522E+05 -7.058355E+04  3.307174E+04
       208  10 -2.176083E+06 -8.636433E+05 -4.964047E+05 -8.343244E+05  1.331077E-09  7.283640E-11
       208  11 -2.084346E+06 -6.007158E+05 -3.097966E+05 -7.979921E+05  1.664734E-09 -6.222944E-10
       208  12 -2.039836E+06 -5.115419E+05 -2.315281E+05 -7.493385E+05 -4.193500E-11  9.532517E-10
       208  13 -1.248182E+06 -4.139152E+05 -2.332408E+05 -4.775585E+05 -7.576960E-11 -3.864462E-10
       208  14 -1.215073E+06 -2.394497E+05 -1.045846E+05 -5.178832E+05 -4.661871E-10 -5.574343E-10
       208  15 -1.222266E+06 -2.317909E+05 -5.685448E+04 -5.459139E+05  8.947527E-10  1.638180E-10
       208  16 -3.194309E+05  3.603970E+04  2.983813E+04 -1.202585E+05 -2.788869E-10 -3.232256E-10
       208  17 -3.450365E+05  1.219287E+05  1.005736E+05 -2.373953E+05  1.829027E-09 -1.101748E-09
       208  18 -4.040103E+05  4.799331E+04  1.177833E+05 -3.422503E+05  2.981007E-10 -5.670967E-10
       208  19 -2.176034E+06 -8.636269E+05 -4.963123E+05 -8.343137E+05  2.121608E+05  6.272642E+04
       208  20 -2.084327E+06 -6.007109E+05 -3.097623E+05 -7.979925E+05  1.348440E+05 -3.874604E+03
       208  21 -2.039834E+06 -5.115394E+05 -2.315206E+05 -7.493401E+05  4.679482E+04 -4.201419E+04
       208  22 -1.248156E+06 -4.139069E+05 -2.331921E+05 -4.775533E+05  1.552789E+05  4.138021E+04
       208  23 -1.215060E+06 -2.394461E+05 -1.045606E+05 -5.178843E+05  1.123357E+05 -1.231645E+04
       208  24 -1.222262E+06 -2.317885E+05 -5.684535E+04 -5.459156E+05  5.868065E+04 -3.754565E+04
       208  25 -3.194204E+05  3.604273E+04  2.985705E+04 -1.202569E+05  9.830482E+04  1.997599E+04
       208  26 -3.450277E+05  1.219313E+05  1.005895E+05 -2.373968E+05  8.979328E+04 -2.077477E+04
       208  27 -4.040047E+05  4.799582E+04  1.177947E+05 -3.422522E+05  7.058355E+04 -3.307174E+04
       209   1 -1.942963E+06 -5.130253E+05 -2.033724E+05 -7.420622E+05 -4.495604E+04  3.677961E+04
       209   2 -1.853293E+06 -4.561855E+05 -1.593551E+05 -7.018806E+05 -2.953240E+04  3.693657E+04
       209   3 -1.745088E+06 -4.289348E+05 -1.272463E+05 -6.865179E+05 -1.351643E+04  3.550954E+04
       209   4 -1.214912E+06 -2.423907E+05 -4.397460E+04 -5.386849E+05 -4.999740E+04  3.488163E+04
       209   5 -1.223817E+06 -2.240824E+05 -2.316464E+04 -5.276526E+05 -3.647697E+04  3.432692E+04
       209   6 -1.213814E+06 -2.349785E+05 -1.274119E+04 -5.414411E+05 -2.236688E+04  3.218813E+04
       209   7 -4.863226E+05  2.828845E+04  1.153912E+05 -3.350870E+05 -5.504516E+04  3.298121E+04
       209   8 -5.939399E+05  8.051972E+03  1.130021E+05 -3.532623E+05 -4.342913E+04  3.171441E+04
       209   9 -6.822567E+05 -4.100208E+04  1.017467E+05 -3.962513E+05 -3.122547E+04  2.886372E+04
       209  10 -1.942966E+06 -5.130273E+05 -2.033787E+05 -7.420609E+05  2.117790E-08  1.007180E-08
       209  11 -1.853294E+06 -4.561872E+05 -1.593593E+05 -7.018797E+05  5.217705E-09  3.822595E-09
       209  12 -1.745089E+06 -4.289362E+05 -1.272490E+05 -6.865175E+05 -1.764219E-08 -6.095444E-09
       209  13 -1.214915E+06 -2.423927E+05 -4.398158E+04 -5.386835E+05  2.675615E-09  1.779550E-09
       209  14 -1.223819E+06 -2.240840E+05 -2.316935E+04 -5.276516E+05  5.840114E-09  3.603737E-09
       209  15 -1.213815E+06 -2.349797E+05 -1.274408E+04 -5.414405E+05  2.475587E-09  1.664630E-09
       209  16 -4.863261E+05  2.828647E+04  1.153835E+05 -3.350856E+05 -1.759093E-08 -6.104819E-09
       209  17 -5.939422E+05  8.050387E+03  1.129967E+05 -3.532612E+05  4.579123E-09  3.451808E-09
       209  18 -6.822580E+05 -4.100323E+04  1.017433E+05 -3.962506E+05  2.100657E-08  9.551058E-09
       209  19 -1.942963E+06 -5.130253E+05 -2.033724E+05 -7.420622E+05  4.495604E+04 -3.677961E+04
       209  20 -1.853293E+06 -4.561855E+05 -1.593551E+05 -7.018806E+05  2.953240E+04 -3.693657E+04
       209  21 -1.745088E+06 -4.289348E+05 -1.272463E+05 -6.865179E+05  1.351643E+04 -3.550954E+04
       209  22 -1.214912E+06 -2.423907E+05 -4.397460E+04 -5.386849E+05  4.999740E+04 -3.488163E+04
       209  23 -1.223817E+06 -2.240824E+05 -2.316464E+04 -5.276526E+05  3.647697E+04 -3.432692E+04
       209  24 -1.213814E+06 -2.349785E+05 -1.274119E+04 -5.414411E+05  2.236688E+04 -3.218813E+04
       209  25 -4.863226E+05  2.828845E+04  1.153912E+05 -3.350870E+05  5.504516E+04 -3.298121E+04
       209  26 -5.939399E+05  8.051972E+03  1.130021E+05 -3.532623E+05  4.342913E+04 -3.171441E+04
       209  27 -6.822567E+05 -4.100208E+04  1.017467E+05 -3.962513E+05  3.122547E+04 -2.886372E+04
       210   1 -1.671916E+06 -4.036453E+05 -1.080722E+05 -6.672948E+05 -1.049578E+04  3.181769E+04
       210   2 -1.582587E+06 -3.550387E+05 -8.231958E+04 -6.265007E+05 -5.095882E+03  2.578957E+04
       210   3 -1.470777E+06 -3.296873E+05 -5.868976E+04 -6.120046E+05  3.381871E+02  1.966334E+04
       210   4 -1.213254E+06 -2.354205E+05 -9.613568E+03 -5.411006E+05 -1.898694E+04  2.863251E+04
       210   5 -1.224468E+06 -2.236789E+05 -5.284729E+03 -5.279907E+05 -1.370416E+04  2.256226E+04
       210   6 -1.213191E+06 -2.351698E+05 -2.985271E+03 -5.411825E+05 -8.387721E+03  1.639379E+04
       210   7 -7.543730E+05 -6.717762E+04  8.883411E+04 -4.148195E+05 -2.748494E+04  2.544477E+04
       210   8 -8.662171E+05 -9.230842E+04  7.174337E+04 -4.294281E+05 -2.231784E+04  1.933293E+04
       210   9 -9.555381E+05 -1.406470E+05  5.271567E+04 -4.703333E+05 -1.711755E+04  1.312278E+04
       210  10 -1.671917E+06 -4.036464E+05 -1.080743E+05 -6.672946E+05  4.713514E-09  5.573750E-10
       210  11 -1.582587E+06 -3.550395E+05 -8.232087E+04 -6.265006E+05 -5.948448E-09 -4.963785E-09
       210  12 -1.470777E+06 -3.296877E+05 -5.869049E+04 -6.120046E+05 -1.848724E-08 -8.567255E-09
       210  13 -1.213254E+06 -2.354214E+05 -9.615785E+03 -5.411001E+05  1.044985E-09 -3.039519E-11
       210  14 -1.224468E+06 -2.236795E+05 -5.286038E+03 -5.279905E+05 -8.486206E-10 -2.395120E-09
       210  15 -1.213191E+06 -2.351701E+05 -2.985908E+03 -5.411824E+05 -4.227777E-09 -3.138023E-09
       210  16 -7.543739E+05 -6.717851E+04  8.883147E+04 -4.148190E+05 -3.033457E-09 -1.035824E-09
       210  17 -8.662177E+05 -9.230895E+04  7.174174E+04 -4.294277E+05  7.437349E-09  8.583460E-10
       210  18 -9.555385E+05 -1.406473E+05  5.271480E+04 -4.703331E+05  1.169942E-08  3.420122E-09
       210  19 -1.671916E+06 -4.036453E+05 -1.080722E+05 -6.672948E+05  1.049578E+04 -3.181769E+04
       210  20 -1.582587E+06 -3.550387E+05 -8.231958E+04 -6.265007E+05  5.095882E+03 -2.578957E+04
       210  21 -1.470777E+06 -3.296873E+05 -5.868976E+04 -6.120046E+05 -3.381871E+02 -1.966334E+04
       210  22 -1.213254E+06 -2.354205E+05 -9.613568E+03 -5.411006E+05  1.898694E+04 -2.863251E+04
       210  23 -1.224468E+06 -2.236789E+05 -5.284729E+03 -5.279907E+05  1.370416E+04 -2.256226E+04
       210  24 -1.213191E+06 -2.351698E+05 -2.985271E+03 -5.411825E+05  8.387721E+03 -1.639379E+04
       210  25 -7.543730E+05 -6.717762E+04  8.883411E+04 -4.148195E+05  2.748494E+04 -2.544477E+04
       210  26 -8.662171E+05 -9.230842E+04  7.174337E+04 -4.294281E+05  2.231784E+04 -1.933293E+04
       210  27 -9.555381E+05 -1.406470E+05  5.271567E+04 -4.703333E+05  1.711755E+04 -1.312278E+04
       211   1 -1.398510E+06 -3.031385E+05 -4.185542E+04 -5.921985E+05  2.335799E+03  1.562856E+04
       211   2 -1.309081E+06 -2.546857E+05 -1.963078E+04 -5.512305E+05  5.767143E+03  8.705244E+03
       211   3 -1.196770E+06 -2.292343E+05  2.042548E+03 -5.366352E+05  9.200527E+03  1.774571E+03
       211   4 -1.213109E+06 -2.351883E+05 -2.304127E+03 -5.411698E+05 -6.378247E+03  1.236415E+04
       211   5 -1.224543E+06 -2.236873E+05 -1.456596E+03 -5.279805E+05 -2.956220E+03  5.437780E+03
       211   6 -1.213103E+06 -2.351866E+05 -1.152872E+03 -5.411679E+05  4.677221E+02 -1.495991E+03
       211   7 -1.027674E+06 -1.672357E+05  3.724518E+04 -4.901274E+05 -1.509504E+04  9.098719E+03
       211   8 -1.139997E+06 -1.926883E+05  1.671750E+04 -5.047276E+05 -1.168087E+04  2.169836E+03
       211   9 -1.229435E+06 -2.411388E+05 -4.348009E+03 -5.457005E+05 -8.264896E+03 -4.766483E+03
       211  10 -1.398510E+06 -3.031387E+05 -4.185589E+04 -5.921985E+05  3.319007E-08  1.237612E-08
       211  11 -1.309081E+06 -2.546858E+05 -1.963099E+04 -5.512305E+05  3.875386E-09  4.523467E-09
       211  12 -1.196770E+06 -2.292343E+05  2.042382E+03 -5.366352E+05 -2.616578E-08 -8.334777E-09
       211  13 -1.213109E+06 -2.351884E+05 -2.304491E+03 -5.411697E+05 -4.873876E-09 -1.598362E-09
       211  14 -1.224543E+06 -2.236874E+05 -1.456668E+03 -5.279805E+05 -2.337214E-09  8.663783E-10
       211  15 -1.213103E+06 -2.351866E+05 -1.152877E+03 -5.411679E+05  1.178682E-10  1.691751E-09
       211  16 -1.027674E+06 -1.672359E+05  3.724459E+04 -4.901273E+05 -4.273281E-08 -1.576548E-08
       211  17 -1.139997E+06 -1.926883E+05  1.671724E+04 -5.047276E+05 -9.984704E-09 -1.484709E-09
       211  18 -1.229436E+06 -2.411389E+05 -4.348180E+03 -5.457006E+05  2.522378E-08  1.100115E-08
       211  19 -1.398510E+06 -3.031385E+05 -4.185542E+04 -5.921985E+05 -2.335799E+03 -1.562856E+04
       211  20 -1.309081E+06 -2.546857E+05 -1.963078E+04 -5.512305E+05 -5.767143E+03 -8.705244E+03
       211  21 -1.196770E+06 -2.292343E+05  2.042548E+03 -5.366352E+05 -9.200527E+03 -1.774571E+03
       211  22 -1.213109E+06 -2.351883E+05 -2.304127E+03 -5.411698E+05  6.378247E+03 -1.236415E+04
       211  23 -1.224543E+06 -2.236873E+05 -1.456596E+03 -5.279805E+05  2.956220E+03 -5.437780E+03
       211  24 -1.213103E+06 -2.351866E+05 -1.152872E+03 -5.411679E+05 -4.677221E+02  1.495991E+03
       211  25 -1.027674E+06 -1.672357E+05  3.724518E+04 -4.901274E+05  1.509504E+04 -9.098719E+03
       211  26 -1.139997E+06 -1.926883E+05  1.671750E+04 -5.047276E+05  1.168087E+04 -2.169836E+03
       211  27 -1.229435E+06 -2.411388E+05 -4.348009E+03 -5.457005E+05  8.264896E+03  4.766483E+03
       212   1 -1.124522E+06 -2.026045E+05  1.820859E+04 -5.167736E+05  1.096307E+04 -2.349539E+03
       212   2 -1.035150E+06 -1.541918E+05  3.922691E+04 -4.758189E+05  1.439079E+04 -9.276852E+03
       212   3 -9.229059E+05 -1.287609E+05  5.969899E+04 -4.612155E+05  1.781589E+04 -1.619268E+04
       212   4 -1.213108E+06 -2.351848E+05 -1.158812E+03 -5.411634E+05  2.231634E+03 -5.619761E+03
       212   5 -1.224546E+06 -2.237024E+05 -1.492050E+03 -5.279846E+05  5.672037E+03 -1.254331E+04
       212   6 -1.213125E+06 -2.352056E+05 -2.381392E+03 -5.411616E+05  9.109671E+03 -1.945537E+04
       212   7 -1.301685E+06 -2.677643E+05 -2.052635E+04 -5.655499E+05 -6.498450E+03 -8.889477E+03
       212   8 -1.413905E+06 -2.932098E+05 -4.221256E+04 -5.801354E+05 -3.043812E+03 -1.580867E+04
       212   9 -1.503255E+06 -3.416428E+05 -6.446568E+04 -6.210728E+05  4.079080E+02 -2.271639E+04
       212  10 -1.124522E+06 -2.026046E+05  1.820835E+04 -5.167736E+05 -9.732110E-10  5.823640E-10
       212  11 -1.035150E+06 -1.541919E+05  3.922636E+04 -4.758188E+05  2.191882E-10 -9.435645E-10
       212  12 -9.229063E+05 -1.287613E+05  5.969790E+04 -4.612152E+05 -1.059108E-09 -7.933338E-10
       212  13 -1.213108E+06 -2.351848E+05 -1.158881E+03 -5.411634E+05 -3.828186E-11  4.076357E-10
       212  14 -1.224546E+06 -2.237026E+05 -1.492406E+03 -5.279845E+05 -1.211018E-09 -5.150008E-10
       212  15 -1.213125E+06 -2.352061E+05 -2.382258E+03 -5.411615E+05 -1.950185E-10 -2.645320E-10
       212  16 -1.301685E+06 -2.677644E+05 -2.052658E+04 -5.655500E+05  1.164672E-10  8.089910E-10
       212  17 -1.413905E+06 -2.932101E+05 -4.221305E+04 -5.801354E+05  1.740485E-10 -1.829909E-10
       212  18 -1.503255E+06 -3.416433E+05 -6.446665E+04 -6.210728E+05  1.469017E-09 -1.324390E-10
       212  19 -1.124522E+06 -2.026045E+05  1.820859E+04 -5.167736E+05 -1.096307E+04  2.349539E+03
       212  20 -1.035150E+06 -1.541918E+05  3.922691E+04 -4.758189E+05 -1.439079E+04  9.276852E+03
       212  21 -9.229059E+05 -1.287609E+05  5.969899E+04 -4.612155E+05 -1.781589E+04  1.619268E+04
       212  22 -1.213108E+06 -2.351848E+05 -1.158812E+03 -5.411634E+05 -2.231634E+03  5.619761E+03
       212  23 -1.224546E+06 -2.237024E+05 -1.492050E+03 -5.279846E+05 -5.672037E+03  1.254331E+04
       212  24 -1.213125E+06 -2.352056E+05 -2.381392E+03 -5.411616E+05 -9.109671E+03  1.945537E+04
       212  25 -1.301685E+06 -2.677643E+05 -2.052635E+04 -5.655499E+05  6.498450E+03  8.889477E+03
       212  26 -1.413905E+06 -2.932098E+05 -4.221256E+04 -5.801354E+05  3.043812E+03  1.580867E+04
       212  27 -1.503255E+06 -3.416428E+05 -6.446568E+04 -6.210728E+05 -4.079080E+02  2.271639E+04
       213   1 -8.508739E+05 -1.021950E+05  7.511993E+04 -4.414274E+05  1.985039E+04 -2.020572E+04
       213   2 -7.617519E+05 -5.394926E+04  9.401011E+04 -4.005866E+05  2.512997E+04 -2.636639E+04
       213   3 -6.501500E+05 -2.886611E+04  1.109042E+05 -3.859731E+05  3.037256E+04 -3.241626E+04
       213   4 -1.213217E+06 -2.351818E+05 -3.090243E+03 -5.411646E+05  1.113292E+04 -2.347363E+04
       213   5 -1.224474E+06 -2.237246E+05 -5.482988E+03 -5.280030E+05  1.654298E+04 -2.958780E+04
       213   6 -1.213289E+06 -2.354594E+05 -9.976860E+03 -5.410753E+05  2.191556E+04 -3.559124E+04
       213   7 -1.575428E+06 -3.681592E+05 -8.130849E+04 -6.408489E+05  2.420891E+03 -2.673951E+04
       213   8 -1.686980E+06 -3.934836E+05 -1.049887E+05 -6.553326E+05  7.962866E+03 -3.280663E+04
       213   9 -1.776105E+06 -4.420275E+05 -1.308760E+05 -6.960481E+05  1.346684E+04 -3.876313E+04
       213  10 -8.508744E+05 -1.021955E+05  7.511842E+04 -4.414271E+05 -5.188298E-10  3.014145E-11
       213  11 -7.617528E+05 -5.395017E+04  9.400762E+04 -4.005860E+05 -7.687823E-10  5.031081E-10
       213  12 -6.501513E+05 -2.886749E+04  1.109005E+05 -3.859723E+05  3.775967E-10  2.330487E-11
       213  13 -1.213217E+06 -2.351824E+05 -3.091511E+03 -5.411644E+05 -3.136156E-11  1.172914E-10
       213  14 -1.224474E+06 -2.237256E+05 -5.485146E+03 -5.280026E+05  1.584741E-09  4.361016E-10
       213  15 -1.213290E+06 -2.354609E+05 -9.980141E+03 -5.410747E+05  2.236532E-09 -1.232113E-10
       213  16 -1.575428E+06 -3.681600E+05 -8.130984E+04 -6.408489E+05  1.310480E-09  2.190418E-10
       213  17 -1.686980E+06 -3.934848E+05 -1.049908E+05 -6.553324E+05  1.730743E-09 -6.621565E-11
       213  18 -1.776106E+06 -4.420292E+05 -1.308791E+05 -6.960477E+05  7.074167E-11 -3.600197E-10
       213  19 -8.508739E+05 -1.021950E+05  7.511993E+04 -4.414274E+05 -1.985039E+04  2.020572E+04
       213  20 -7.617519E+05 -5.394926E+04  9.401011E+04 -4.005866E+05 -2.512997E+04  2.636639E+04
       213  21 -6.501500E+05 -2.886611E+04  1.109042E+05 -3.859731E+05 -3.037256E+04  3.241626E+04
       213  22 -1.213217E+06 -2.351818E+05 -3.090243E+03 -5.411646E+05 -1.113292E+04  2.347363E+04
       213  23 -1.224474E+06 -2.237246E+05 -5.482988E+03 -5.280030E+05 -1.654298E+04  2.958780E+04
       213  24 -1.213289E+06 -2.354594E+05 -9.976860E+03 -5.410753E+05 -2.191556E+04  3.559124E+04
       213  25 -1.575428E+06 -3.681592E+05 -8.130849E+04 -6.408489E+05 -2.420891E+03  2.673951E+04
       213  26 -1.686980E+06 -3.934836E+05 -1.049887E+05 -6.553326E+05 -7.962866E+03  3.280663E+04
       213  27 -1.776105E+06 -4.420275E+05 -1.308760E+05 -6.960481E+05 -1.346684E+04  3.876313E+04
       214   1 -5.782419E+05 -2.761153E+03  1.236470E+05 -3.674816E+05  3.421353E+04 -3.578997E+04
       214   2 -4.902815E+05  4.619202E+04  1.344807E+05 -3.245171E+05  4.664119E+04 -3.845653E+04
       214   3 -3.831921E+05  6.619703E+04  1.362073E+05 -3.062135E+05  5.842215E+04 -3.938169E+04
       214   4 -1.213882E+06 -2.349991E+05 -1.322448E+04 -5.414241E+05  2.536218E+04 -3.911466E+04
       214   5 -1.223804E+06 -2.241663E+05 -2.404541E+04 -5.276575E+05  3.988516E+04 -4.099848E+04
       214   6 -1.215027E+06 -2.427057E+05 -4.564454E+04 -5.385576E+05  5.375941E+04 -4.114049E+04
       214   7 -1.849107E+06 -4.672042E+05 -1.501179E+05 -7.152021E+05  1.652068E+04 -4.243570E+04
       214   8 -1.956779E+06 -4.944809E+05 -1.826028E+05 -7.305769E+05  3.313776E+04 -4.353718E+04
       214   9 -2.046165E+06 -5.515527E+05 -2.275395E+05 -7.706159E+05  4.910336E+04 -4.289674E+04
       214  10 -5.782435E+05 -2.762842E+03  1.236424E+05 -3.674806E+05  1.364920E-09 -2.717459E-10
       214  11 -4.902843E+05  4.618985E+04  1.344738E+05 -3.245157E+05  4.890940E-10 -4.909409E-10
       214  12 -3.831962E+05  6.619445E+04  1.361979E+05 -3.062116E+05 -1.976477E-09  1.124631E-09
       214  13 -1.213883E+06 -2.350009E+05 -1.322856E+04 -5.414233E+05  9.127310E-10 -3.216802E-10
       214  14 -1.223806E+06 -2.241685E+05 -2.405155E+04 -5.276562E+05  1.403453E-09 -1.484471E-10
       214  15 -1.215030E+06 -2.427083E+05 -4.565315E+04 -5.385558E+05  1.126391E-09  5.245860E-10
       214  16 -1.849108E+06 -4.672062E+05 -1.501218E+05 -7.152015E+05 -6.887711E-10 -3.171823E-10
       214  17 -1.956781E+06 -4.944833E+05 -1.826085E+05 -7.305757E+05  6.658480E-10  7.708464E-11
       214  18 -2.046168E+06 -5.515553E+05 -2.275475E+05 -7.706142E+05  1.609760E-09  1.021497E-09
       214  19 -5.782419E+05 -2.761153E+03  1.236470E+05 -3.674816E+05 -3.421353E+04  3.578997E+04
       214  20 -4.902815E+05  4.619202E+04  1.344807E+05 -3.245171E+05 -4.664119E+04  3.845653E+04
       214  21 -3.831921E+05  6.619703E+04  1.362073E+05 -3.062135E+05 -5.842215E+04  3.938169E+04
       214  22 -1.213882E+06 -2.349991E+05 -1.322448E+04 -5.414241E+05 -2.536218E+04  3.911466E+04
       214  23 -1.223804E+06 -2.241663E+05 -2.404541E+04 -5.276575E+05 -3.988516E+04  4.099848E+04
       214  24 -1.215027E+06 -2.427057E+05 -4.564454E+04 -5.385576E+05 -5.375941E+04  4.114049E+04
       214  25 -1.849107E+06 -4.672042E+05 -1.501179E+05 -7.152021E+05 -1.652068E+04  4.243570E+04
       214  26 -1.956779E+06 -4.944809E+05 -1.826028E+05 -7.305769E+05 -3.313776E+04  4.353718E+04
       214  27 -2.046165E+06 -5.515527E+05 -2.275395E+05 -7.706159E+05 -4.910336E+04  4.289674E+04
       215   1 -3.007166E+05  8.558565E+04  1.379895E+05 -3.143969E+05  7.492552E+04 -3.920511E+04
       215   2 -2.434505E+05  1.603681E+05  1.198107E+05 -2.074009E+05  9.240142E+04 -2.622039E+04
       215   3 -2.214290E+05  7.076419E+04  4.774201E+04 -8.643104E+04  9.811629E+04  1.801708E+04
       215   4 -1.222673E+06 -2.316879E+05 -5.900328E+04 -5.460409E+05  6.273226E+04 -4.379307E+04
       215   5 -1.214705E+06 -2.401460E+05 -1.085310E+05 -5.175435E+05  1.180457E+05 -1.659066E+04
       215   6 -1.249595E+06 -4.206638E+05 -2.420391E+05 -4.750575E+05  1.615820E+05  4.188215E+04
       215   7 -2.143768E+06 -5.489204E+05 -2.560439E+05 -7.773800E+05  5.055855E+04 -4.837480E+04
       215   8 -2.184998E+06 -6.405208E+05 -3.369340E+05 -8.272165E+05  1.436464E+05 -6.981633E+03
       215   9 -2.276684E+06 -9.118125E+05 -5.318976E+05 -8.630302E+05  2.249320E+05  6.567669E+04
       215  10 -3.007231E+05  8.558250E+04  1.379761E+05 -3.143945E+05  4.516879E-10  1.827704E-09
       215  11 -2.434598E+05  1.603651E+05  1.197934E+05 -2.073990E+05  3.088845E-11  1.712341E-09
       215  12 -2.214394E+05  7.076126E+04  4.772330E+04 -8.643246E+04  9.814845E-10  3.383700E-10
       215  13 -1.222678E+06 -2.316910E+05 -5.901429E+04 -5.460386E+05  1.015586E-10  5.743521E-10
       215  14 -1.214720E+06 -2.401500E+05 -1.085578E+05 -5.175420E+05 -7.026642E-10  3.346213E-11
       215  15 -1.249624E+06 -4.206727E+05 -2.420916E+05 -4.750630E+05 -4.227645E-10  7.744568E-10
       215  16 -2.143771E+06 -5.489236E+05 -2.560531E+05 -7.773780E+05 -7.535138E-10  5.307893E-10
       215  17 -2.185020E+06 -6.405264E+05 -3.369730E+05 -8.272157E+05 -2.197554E-09  6.084171E-10
       215  18 -2.276739E+06 -9.118308E+05 -5.320012E+05 -8.630421E+05 -9.106739E-10 -4.680190E-10
       215  19 -3.007166E+05  8.558565E+04  1.379895E+05 -3.143969E+05 -7.492552E+04  3.920511E+04
       215  20 -2.434505E+05  1.603681E+05  1.198107E+05 -2.074009E+05 -9.240142E+04  2.622039E+04
       215  21 -2.214290E+05  7.076419E+04  4.774201E+04 -8.643104E+04 -9.811629E+04 -1.801708E+04
       215  22 -1.222673E+06 -2.316879E+05 -5.900328E+04 -5.460409E+05 -6.273226E+04  4.379307E+04
       215  23 -1.214705E+06 -2.401460E+05 -1.085310E+05 -5.175435E+05 -1.180457E+05  1.659066E+04
       215  24 -1.249595E+06 -4.206638E+05 -2.420391E+05 -4.750575E+05 -1.615820E+05 -4.188215E+04
       215  25 -2.143768E+06 -5.489204E+05 -2.560439E+05 -7.773800E+05 -5.055855E+04  4.837480E+04
       215  26 -2.184998E+06 -6.405208E+05 -3.369340E+05 -8.272165E+05 -1.436464E+05  6.981633E+03
       215  27 -2.276684E+06 -9.118125E+05 -5.318976E+05 -8.630302E+05 -2.249320E+05 -6.567669E+04
       216   1 -9.979773E+04 -6.311432E+04 -2.979025E+04  9.390965E+03  8.032473E+04  1.264221E+04
       216   2 -1.179912E+04 -1.778399E+05 -8.039597E+04 -3.183075E+04  6.445041E+04  4.034087E+04
       216   3  1.079754E+05 -1.745274E+05 -9.112566E+04 -1.021646E+05  4.859387E+04  4.412146E+04
       216   4  8.240573E+05  1.654244E+05  1.904449E+05 -8.398098E+04  1.318719E+05  1.266991E+04
       216   5  8.055687E+05  1.955419E+04  8.984326E+04 -6.937670E+04  8.494674E+04  4.034549E+04
       216   6  8.241756E+05 -2.988670E+03  5.062189E+04 -8.387638E+04  3.804424E+04  4.411442E+04
       216   7  1.748719E+06  3.939359E+05  4.106349E+05 -1.774926E+05  1.834953E+05  1.268209E+04
       216   8  1.623572E+06  2.169113E+05  2.600481E+05 -1.069730E+05  1.054695E+05  4.034762E+04
       216   9  1.540867E+06  1.685201E+05  1.923447E+05 -6.556659E+04  2.748268E+04  4.410677E+04
       216  10 -9.980470E+04 -6.311622E+04 -2.980268E+04  9.390147E+03 -1.887149E-09 -8.200008E-10
       216  11 -1.180401E+04 -1.778428E+05 -8.040684E+04 -3.183284E+04  8.473461E-09  1.088946E-09
       216  12  1.079723E+05 -1.745301E+05 -9.113375E+04 -1.021664E+05  1.491393E-08  2.229229E-09
       216  13  8.240387E+05  1.654196E+05  1.904120E+05 -8.398233E+04  2.893116E-10  6.082233E-10
       216  14  8.055605E+05  1.955051E+04  8.982665E+04 -6.937946E+04  2.882303E-10  5.424982E-10
       216  15  8.241735E+05 -2.991149E+03  5.061551E+04 -8.387773E+04  1.441182E-10  1.546363E-09
       216  16  1.748683E+06  3.939267E+05  4.105715E+05 -1.774945E+05  2.571546E-09  5.296943E-10
       216  17  1.623560E+06  2.169066E+05  2.600242E+05 -1.069764E+05 -6.596349E-09  5.771954E-10
       216  18  1.540866E+06  1.685179E+05  1.923397E+05 -6.556757E+04 -1.480501E-08  2.548273E-09
       216  19 -9.979773E+04 -6.311432E+04 -2.979025E+04  9.390965E+03 -8.032473E+04 -1.264221E+04
       216  20 -1.179912E+04 -1.778399E+05 -8.039597E+04 -3.183075E+04 -6.445041E+04 -4.034087E+04
       216  21  1.079754E+05 -1.745274E+05 -9.112566E+04 -1.021646E+05 -4.859387E+04 -4.412146E+04
       216  22  8.240573E+05  1.654244E+05  1.904449E+05 -8.398098E+04 -1.318719E+05 -1.266991E+04
       216  23  8.055687E+05  1.955419E+04  8.984326E+04 -6.937670E+04 -8.494674E+04 -4.034549E+04
       216  24  8.241756E+05 -2.988670E+03  5.062189E+04 -8.387638E+04 -3.804424E+04 -4.411442E+04
       216  25  1.748719E+06  3.939359E+05  4.106349E+05 -1.774926E+05 -1.834953E+05 -1.268209E+04
       216  26  1.623572E+06  2.169113E+05  2.600481E+05 -1.069730E+05 -1.054695E+05 -4.034762E+04
       216  27  1.540867E+06  1.685201E+05  1.923447E+05 -6.556659E+04 -2.748268E+04 -4.410677E+04
       217   1  1.734333E+05 -1.478854E+05 -8.804231E+04 -8.232464E+04  3.670598E+04  3.956592E+04
       217   2  2.753623E+05 -1.288091E+05 -8.401107E+04 -6.881621E+04  2.780722E+04  3.461834E+04
       217   3  3.797864E+05 -1.047481E+05 -7.292074E+04 -8.552712E+04  1.890463E+04  2.820936E+04
       217   4  8.165684E+05  6.136258E+03  3.927772E+04 -8.414724E+04  3.126501E+04  3.956077E+04
       217   5  8.151839E+05  2.252712E+02  2.165745E+04 -6.903803E+04  2.046115E+04  3.461438E+04
       217   6  8.166107E+05 -3.735583E+02  1.241176E+04 -8.414627E+04  9.654902E+03  2.820720E+04
       217   7  1.460099E+06  1.601328E+05  1.665775E+05 -8.597177E+04  2.581851E+04  3.955565E+04
       217   8  1.355285E+06  1.292421E+05  1.273122E+05 -6.926004E+04  1.310883E+04  3.461044E+04
       217   9  1.253618E+06  1.039896E+05  9.773546E+04 -8.276442E+04  3.988121E+02  2.820499E+04
       217  10  1.734314E+05 -1.478875E+05 -8.804779E+04 -8.232581E+04 -1.730710E-08  2.425970E-09
       217  11  2.753612E+05 -1.288106E+05 -8.401478E+04 -6.881698E+04 -8.668439E-09  6.048050E-10
       217  12  3.797858E+05 -1.047490E+05 -7.292291E+04 -8.552755E+04  3.915889E-09 -1.570339E-09
       217  13  8.165669E+05  6.134315E+03  3.927294E+04 -8.414823E+04  8.182054E-10  2.743507E-09
       217  14  8.151831E+05  2.238717E+02  2.165441E+04 -6.903860E+04 -1.715433E-09  6.768552E-10
       217  15  8.166104E+05 -3.744381E+02  1.241009E+04 -8.414649E+04 -1.321353E-09 -1.441996E-09
       217  16  1.460098E+06  1.601310E+05  1.665733E+05 -8.597259E+04  1.725764E-08  2.279822E-09
       217  17  1.355284E+06  1.292408E+05  1.273096E+05 -6.926041E+04  8.038328E-09  5.018014E-10
       217  18  1.253618E+06  1.039887E+05  9.773397E+04 -8.276443E+04 -4.677512E-09 -1.029416E-09
       217  19  1.734333E+05 -1.478854E+05 -8.804231E+04 -8.232464E+04 -3.670598E+04 -3.956592E+04
       217  20  2.753623E+05 -1.288091E+05 -8.401107E+04 -6.881621E+04 -2.780722E+04 -3.461834E+04
       217  21  3.797864E+05 -1.047481E+05 -7.292074E+04 -8.552712E+04 -1.890463E+04 -2.820936E+04
       217  22  8.165684E+05  6.136258E+03  3.927772E+04 -8.414724E+04 -3.126501E+04 -3.956077E+04
       217  23  8.151839E+05  2.252712E+02  2.165745E+04 -6.903803E+04 -2.046115E+04 -3.461438E+04
       217  24  8.166107E+05 -3.735583E+02  1.241176E+04 -8.414627E+04 -9.654902E+03 -2.820720E+04
       217  25  1.460099E+06  1.601328E+05  1.665775E+05 -8.597177E+04 -2.581851E+04 -3.955565E+04
       217  26  1.355285E+06  1.292421E+05  1.273122E+05 -6.926004E+04 -1.310883E+04 -3.461044E+04
       217  27  1.253618E+06  1.039896E+05  9.773546E+04 -8.276442E+04 -3.988121E+02 -2.820499E+04
       218   1  4.512971E+05 -8.704531E+04 -6.138275E+04 -8.458110E+04  1.665607E+04  2.406898E+04
       218   2  5.540055E+05 -6.266316E+04 -4.558676E+04 -6.934956E+04  1.411172E+04  1.713663E+04
       218   3  6.571290E+05 -3.806487E+04 -2.807642E+04 -8.433731E+04  1.156533E+04  1.011789E+04
       218   4  8.160923E+05  2.806328E+01  9.443230E+03 -8.414692E+04  7.725467E+03  2.406775E+04
       218   5  8.158888E+05 -1.341432E+02  5.374138E+03 -6.903771E+04  5.067001E+03  1.713642E+04
       218   6  8.161109E+05 -5.981804E+01  3.097916E+03 -8.414706E+04  2.406900E+03  1.011874E+04
       218   7  1.181015E+06  8.709353E+04  8.026323E+04 -8.371247E+04 -1.210260E+03  2.406652E+04
       218   8  1.077838E+06  6.239081E+04  5.633209E+04 -6.872573E+04 -3.981445E+03  1.713619E+04
       218   9  9.751172E+05  3.794376E+04  3.427135E+04 -8.395676E+04 -6.753821E+03  1.011958E+04
       218  10  4.512966E+05 -8.704600E+04 -6.138436E+04 -8.458143E+04 -3.259357E-09 -1.425885E-09
       218  11  5.540052E+05 -6.266353E+04 -4.558769E+04 -6.934975E+04 -1.158973E-09 -2.673971E-10
       218  12  6.571288E+05 -3.806502E+04 -2.807686E+04 -8.433740E+04  9.843810E-10 -4.683780E-10
       218  13  8.160921E+05  2.742499E+01  9.442029E+03 -8.414707E+04 -1.893353E-09 -1.258247E-09
       218  14  8.158887E+05 -1.344655E+02  5.373538E+03 -6.903778E+04  1.085781E-09 -2.686663E-10
       218  15  8.161109E+05 -5.992959E+01  3.097712E+03 -8.414708E+04 -3.321191E-10 -8.972081E-11
       218  16  1.181015E+06  8.709291E+04  8.026214E+04 -8.371245E+04  8.112671E-10 -1.073478E-09
       218  17  1.077838E+06  6.239049E+04  5.633151E+04 -6.872568E+04  5.544875E-10 -2.712197E-10
       218  18  9.751171E+05  3.794364E+04  3.427107E+04 -8.395671E+04 -7.507282E-10 -3.990221E-11
       218  19  4.512971E+05 -8.704531E+04 -6.138275E+04 -8.458110E+04 -1.665607E+04 -2.406898E+04
       218  20  5.540055E+05 -6.266316E+04 -4.558676E+04 -6.934956E+04 -1.411172E+04 -1.713663E+04
       218  21  6.571290E+05 -3.806487E+04 -2.807642E+04 -8.433731E+04 -1.156533E+04 -1.011789E+04
       218  22  8.160923E+05  2.806328E+01  9.443230E+03 -8.414692E+04 -7.725467E+03 -2.406775E+04
       218  23  8.158888E+05 -1.341432E+02  5.374138E+03 -6.903771E+04 -5.067001E+03 -1.713642E+04
       218  24  8.161109E+05 -5.981804E+01  3.097916E+03 -8.414706E+04 -2.406900E+03 -1.011874E+04
       218  25  1.181015E+06  8.709353E+04  8.026323E+04 -8.371247E+04  1.210260E+03 -2.406652E+04
       218  26  1.077838E+06  6.239081E+04  5.633209E+04 -6.872573E+04  3.981445E+03 -1.713619E+04
       218  27  9.751172E+05  3.794376E+04  3.427135E+04 -8.395676E+04  6.753821E+03 -1.011958E+04
       219   1  7.289379E+05 -2.078175E+04 -1.432936E+04 -8.428170E+04  1.104991E+04  6.009635E+03
       219   2  8.317376E+05  3.726272E+03  4.423132E+03 -6.913468E+04  1.038295E+04 -1.037237E+03
       219   3  9.346414E+05  2.824440E+04  2.361214E+04 -8.418889E+04  9.715970E+03 -8.089542E+03
       219   4  8.160408E+05 -3.936367E+01  2.355355E+03 -8.414323E+04  1.912214E+03  6.010769E+03
       219   5  8.159936E+05 -3.123844E+01  1.364799E+03 -6.904260E+04  1.237332E+03 -1.036180E+03
       219   6  8.160401E+05 -1.158436E+01  8.156544E+02 -8.414326E+04  5.625431E+02 -8.088533E+03
       219   7  9.031512E+05  2.070262E+04  1.904004E+04 -8.400474E+04 -7.226733E+03  6.011900E+03
       219   8  8.002501E+05 -3.788719E+03 -1.693233E+03 -6.895052E+04 -7.908056E+03 -1.035126E+03
       219   9  6.974525E+05 -2.826836E+04 -2.198117E+04 -8.409763E+04 -8.589178E+03 -8.087525E+03
       219  10  7.289378E+05 -2.078182E+04 -1.432966E+04 -8.428175E+04 -6.147741E-11 -8.280263E-10
       219  11  8.317374E+05  3.726242E+03  4.422928E+03 -6.913467E+04 -1.107786E-09 -5.266772E-10
       219  12  9.346413E+05  2.824430E+04  2.361184E+04 -8.418883E+04 -2.606143E-09  4.473174E-10
       219  13  8.160408E+05 -3.940347E+01  2.355280E+03 -8.414324E+04 -5.723047E-10 -5.304068E-10
       219  14  8.159936E+05 -3.124000E+01  1.364794E+03 -6.904260E+04 -1.224694E-09 -1.839907E-10
       219  15  8.160401E+05 -1.165473E+01  8.155309E+02 -8.414326E+04 -5.689648E-10  5.117639E-10
       219  16  9.031511E+05  2.070257E+04  1.903987E+04 -8.400470E+04 -3.339609E-10 -1.295969E-10
       219  17  8.002501E+05 -3.788737E+03 -1.693352E+03 -6.895053E+04  2.571642E-09  1.651701E-10
       219  18  6.974524E+05 -2.826845E+04 -2.198143E+04 -8.409769E+04  1.086086E-09  6.598036E-10
       219  19  7.289379E+05 -2.078175E+04 -1.432936E+04 -8.428170E+04 -1.104991E+04 -6.009635E+03
       219  20  8.317376E+05  3.726272E+03  4.423132E+03 -6.913468E+04 -1.038295E+04  1.037237E+03
       219  21  9.346414E+05  2.824440E+04  2.361214E+04 -8.418889E+04 -9.715970E+03  8.089542E+03
       219  22  8.160408E+05 -3.936367E+01  2.355355E+03 -8.414323E+04 -1.912214E+03 -6.010769E+03
       219  23  8.159936E+05 -3.123844E+01  1.364799E+03 -6.904260E+04 -1.237332E+03  1.036180E+03
       219  24  8.160401E+05 -1.158436E+01  8.156544E+02 -8.414326E+04 -5.625431E+02  8.088533E+03
       219  25  9.031512E+05  2.070262E+04  1.904004E+04 -8.400474E+04  7.226733E+03 -6.011900E+03
       219  26  8.002501E+05 -3.788719E+03 -1.693233E+03 -6.895052E+04  7.908056E+03  1.035126E+03
       219  27  6.974525E+05 -2.826836E+04 -2.198117E+04 -8.409763E+04  8.589178E+03  8.087525E+03
       220   1  1.006528E+06  4.550296E+04  3.793119E+04 -8.419324E+04  9.586174E+03 -1.219620E+04
       220   2  1.109469E+06  7.000489E+04  5.748106E+04 -6.904134E+04  9.368635E+03 -1.925139E+04
       220   3  1.212474E+06  9.450424E+04  7.717660E+04 -8.412018E+04  9.152977E+03 -2.630424E+04
       220   4  8.160265E+05 -1.524985E+01  6.446141E+02 -8.414999E+04  4.290765E+02 -1.219556E+04
       220   5  8.159906E+05 -3.558044E+01  4.349864E+02 -6.903420E+04  2.139336E+02 -1.925194E+04
       220   6  8.160073E+05 -5.842095E+01  3.693441E+02 -8.415000E+04  7.068734E-01 -2.630594E+04
       220   7  6.255596E+05 -4.553559E+04 -3.664339E+04 -8.410676E+04 -8.725276E+03 -1.219493E+04
       220   8  5.225947E+05 -7.008115E+04 -5.661485E+04 -6.902706E+04 -8.936542E+03 -1.925248E+04
       220   9  4.196919E+05 -9.463040E+04 -7.644497E+04 -8.417979E+04 -9.145859E+03 -2.630764E+04
       220  10  1.006528E+06  4.550277E+04  3.793074E+04 -8.419314E+04 -2.367784E-09  6.938462E-10
       220  11  1.109469E+06  7.000447E+04  5.748020E+04 -6.904120E+04 -5.785935E-10  4.696222E-10
       220  12  1.212473E+06  9.450347E+04  7.717514E+04 -8.411998E+04 -1.255173E-09  1.575693E-10
       220  13  8.160264E+05 -1.540968E+01  6.443341E+02 -8.414999E+04  1.136629E-09  7.417762E-10
       220  14  8.159905E+05 -3.597860E+01  4.342896E+02 -6.903420E+04  5.979599E-10  6.091447E-10
       220  15  8.160071E+05 -5.916432E+01  3.680431E+02 -8.415000E+04 -1.258659E-09  1.068324E-10
       220  16  6.255594E+05 -4.553577E+04 -3.664381E+04 -8.410685E+04  4.367508E-10  7.760578E-10
       220  17  5.225945E+05 -7.008157E+04 -5.661569E+04 -6.902719E+04  2.611984E-10  7.062662E-10
       220  18  4.196916E+05 -9.463117E+04 -7.644643E+04 -8.417998E+04  1.255134E-09 -3.779778E-11
       220  19  1.006528E+06  4.550296E+04  3.793119E+04 -8.419324E+04 -9.586174E+03  1.219620E+04
       220  20  1.109469E+06  7.000489E+04  5.748106E+04 -6.904134E+04 -9.368635E+03  1.925139E+04
       220  21  1.212474E+06  9.450424E+04  7.717660E+04 -8.412018E+04 -9.152977E+03  2.630424E+04
       220  22  8.160265E+05 -1.524985E+01  6.446141E+02 -8.414999E+04 -4.290765E+02  1.219556E+04
       220  23  8.159906E+05 -3.558044E+01  4.349864E+02 -6.903420E+04 -2.139336E+02  1.925194E+04
       220  24  8.160073E+05 -5.842095E+01  3.693441E+02 -8.415000E+04 -7.068734E-01  2.630594E+04
       220  25  6.255596E+05 -4.553559E+04 -3.664339E+04 -8.410676E+04  8.725276E+03  1.219493E+04
       220  26  5.225947E+05 -7.008115E+04 -5.661485E+04 -6.902706E+04  8.936542E+03  1.925248E+04
       220  27  4.196919E+05 -9.463040E+04 -7.644497E+04 -8.417979E+04  9.145859E+03  2.630764E+04
       221   1  1.284536E+06  1.117851E+05  9.170479E+04 -8.411238E+04  9.119344E+03 -3.041991E+04
       221   2  1.387736E+06  1.363333E+05  1.116592E+05 -6.886092E+04  8.739923E+03 -3.744070E+04
       221   3  1.491089E+06  1.609114E+05  1.318875E+05 -8.391995E+04  8.364111E+03 -4.435077E+04
       221   4  8.160095E+05 -7.200491E+01  3.815709E+02 -8.416790E+04 -6.676468E+01 -3.042265E+04
       221   5  8.159308E+05 -1.185981E+02  4.810620E+02 -6.901181E+04 -3.028623E+02 -3.744570E+04
       221   6  8.159719E+05 -1.592172E+02  7.556429E+02 -8.416788E+04 -5.352928E+02 -4.435796E+04
       221   7  3.476939E+05 -1.119422E+05 -9.095178E+04 -8.422338E+04 -9.246105E+03 -3.042539E+04
       221   8  2.444392E+05 -1.365900E+05 -1.107122E+05 -6.916256E+04 -9.337519E+03 -3.745071E+04
       221   9  1.412912E+05 -1.612570E+05 -1.303975E+05 -8.441555E+04 -9.425252E+03 -4.436514E+04
       221  10  1.284535E+06  1.117840E+05  9.170290E+04 -8.411215E+04 -3.405530E-10  1.694765E-13
       221  11  1.387735E+06  1.363318E+05  1.116564E+05 -6.886066E+04  7.207850E-10 -1.003909E-09
       221  12  1.491089E+06  1.609093E+05  1.318837E+05 -8.391965E+04 -5.545294E-10  3.341986E-12
       221  13  8.160093E+05 -7.299916E+01  3.798309E+02 -8.416790E+04  1.144748E-09 -1.908547E-10
       221  14  8.159305E+05 -1.201044E+02  4.784259E+02 -6.901182E+04 -2.945235E-10 -7.167309E-10
       221  15  8.159713E+05 -1.613310E+02  7.519434E+02 -8.416790E+04  2.355139E-10 -5.802116E-10
       221  16  3.476935E+05 -1.119432E+05 -9.095369E+04 -8.422360E+04 -3.848363E-10 -5.745461E-10
       221  17  2.444388E+05 -1.365915E+05 -1.107150E+05 -6.916284E+04  9.591024E-10 -6.388309E-10
       221  18  1.412906E+05 -1.612592E+05 -1.304014E+05 -8.441589E+04 -9.461499E-11 -4.047658E-10
       221  19  1.284536E+06  1.117851E+05  9.170479E+04 -8.411238E+04 -9.119344E+03  3.041991E+04
       221  20  1.387736E+06  1.363333E+05  1.116592E+05 -6.886092E+04 -8.739923E+03  3.744070E+04
       221  21  1.491089E+06  1.609114E+05  1.318875E+05 -8.391995E+04 -8.364111E+03  4.435077E+04
       221  22  8.160095E+05 -7.200491E+01  3.815709E+02 -8.416790E+04  6.676468E+01  3.042265E+04
       221  23  8.159308E+05 -1.185981E+02  4.810620E+02 -6.901181E+04  3.028623E+02  3.744570E+04
       221  24  8.159719E+05 -1.592172E+02  7.556429E+02 -8.416788E+04  5.352928E+02  4.435796E+04
       221  25  3.476939E+05 -1.119422E+05 -9.095178E+04 -8.422338E+04  9.246105E+03  3.042539E+04
       221  26  2.444392E+05 -1.365900E+05 -1.107122E+05 -6.916256E+04  9.337519E+03  3.745071E+04
       221  27  1.412912E+05 -1.612570E+05 -1.303975E+05 -8.441555E+04  9.425252E+03  4.436514E+04
       222   1  1.563541E+06  1.782299E+05  1.466610E+05 -8.378406E+04  8.644592E+03 -4.851322E+04
       222   2  1.666905E+06  2.030163E+05  1.679219E+05 -6.855509E+04  5.321621E+03 -5.473092E+04
       222   3  1.771106E+06  2.286189E+05  1.915914E+05 -8.365595E+04  2.001165E+03 -5.901200E+04
       222   4  8.160111E+05 -2.093849E+02  9.709384E+02 -8.417229E+04 -6.848706E+02 -4.852230E+04
       222   5  8.157876E+05 -2.219677E+02  1.629702E+03 -6.900624E+04 -1.491957E+03 -5.474162E+04
       222   6  8.159545E+05  1.462763E+02  2.953490E+03 -8.417255E+04 -2.295953E+03 -5.902303E+04
       222   7  6.901591E+04 -1.786820E+05 -1.447454E+05 -8.456008E+04 -1.000337E+04 -4.853137E+04
       222   8 -3.463667E+04 -2.035037E+05 -1.646970E+05 -6.945683E+04 -8.296417E+03 -5.475232E+04
       222   9 -1.383264E+05 -2.283816E+05 -1.857292E+05 -8.468847E+04 -6.586611E+03 -5.903405E+04
       222  10  1.563541E+06  1.782273E+05  1.466565E+05 -8.378372E+04 -5.080241E-10  2.307494E-10
       222  11  1.666904E+06  2.030130E+05  1.679162E+05 -6.855485E+04  1.828379E-09 -3.833986E-10
       222  12  1.771105E+06  2.286151E+05  1.915849E+05 -8.365585E+04  1.874461E-09 -1.376400E-09
       222  13  8.160104E+05 -2.119142E+02  9.665114E+02 -8.417232E+04 -5.217294E-10 -1.443100E-10
       222  14  8.157868E+05 -2.251875E+02  1.624064E+03 -6.900630E+04 -1.607291E-09 -3.995682E-10
       222  15  8.159536E+05  1.425325E+02  2.946931E+03 -8.417265E+04 -3.439206E-10 -1.625707E-09
       222  16  6.901517E+04 -1.786846E+05 -1.447501E+05 -8.456047E+04  4.651089E-10 -2.057475E-10
       222  17 -3.463755E+04 -2.035069E+05 -1.647028E+05 -6.945719E+04  7.880967E-10  1.497328E-09
       222  18 -1.383274E+05 -2.283854E+05 -1.857358E+05 -8.468878E+04 -4.060661E-10 -8.518301E-10
       222  19  1.563541E+06  1.782299E+05  1.466610E+05 -8.378406E+04 -8.644592E+03  4.851322E+04
       222  20  1.666905E+06  2.030163E+05  1.679219E+05 -6.855509E+04 -5.321621E+03  5.473092E+04
       222  21  1.771106E+06  2.286189E+05  1.915914E+05 -8.365595E+04 -2.001165E+03  5.901200E+04
       222  22  8.160111E+05 -2.093849E+02  9.709384E+02 -8.417229E+04  6.848706E+02  4.852230E+04
       222  23  8.157876E+05 -2.219677E+02  1.629702E+03 -6.900624E+04  1.491957E+03  5.474162E+04
       222  24  8.159545E+05  1.462763E+02  2.953490E+03 -8.417255E+04  2.295953E+03  5.902303E+04
       222  25  6.901591E+04 -1.786820E+05 -1.447454E+05 -8.456008E+04  1.000337E+04  4.853137E+04
       222  26 -3.463667E+04 -2.035037E+05 -1.646970E+05 -6.945683E+04  8.296417E+03  5.475232E+04
       222  27 -1.383264E+05 -2.283816E+05 -1.857292E+05 -8.468847E+04  6.586611E+03  5.903405E+04
       223   1  1.845613E+06  2.455481E+05  2.069112E+05 -8.162941E+04  8.299407E+03 -6.371892E+04
       223   2  1.945201E+06  2.736605E+05  2.412300E+05 -7.120371E+04 -3.642376E+04 -5.645078E+04
       223   3  2.055050E+06  3.182695E+05  3.087961E+05 -8.954307E+04 -8.121215E+04 -1.745689E+04
       223   4  8.165320E+05 -5.763684E+02  3.806347E+03 -8.382085E+04 -2.802605E+03 -6.373856E+04
       223   5  8.149339E+05  1.070599E+03  6.705570E+03 -6.944614E+04 -6.294393E+03 -5.642036E+04
       223   6  8.164542E+05  1.208360E+04  1.428047E+04 -8.383695E+04 -9.842629E+03 -1.735080E+04
       223   7 -2.115380E+05 -2.467649E+05 -1.993499E+05 -8.600877E+04 -1.388664E+04 -6.375814E+04
       223   8 -3.141249E+05 -2.715998E+05 -2.278852E+05 -6.769212E+04  2.378119E+04 -5.638975E+04
       223   9 -4.207268E+05 -2.942098E+05 -2.803233E+05 -7.814268E+04  6.138559E+04 -1.724330E+04
       223  10  1.845612E+06  2.455437E+05  2.069034E+05 -8.162898E+04  2.345821E-10 -2.342186E-09
       223  11  1.945199E+06  2.736568E+05  2.412215E+05 -7.120537E+04 -1.053778E-09 -3.565351E-09
       223  12  2.055043E+06  3.182674E+05  3.087832E+05 -8.954421E+04 -1.927373E-09 -9.683010E-10
       223  13  8.165309E+05 -5.807348E+02  3.798694E+03 -8.382099E+04 -1.893961E-09 -6.185607E-09
       223  14  8.149330E+05  1.067169E+03  6.699512E+03 -6.944642E+04 -1.962405E-10  2.341773E-09
       223  15  8.164540E+05  1.208326E+04  1.427972E+04 -8.383709E+04  1.155860E-09  1.631685E-10
       223  16 -2.115393E+05 -2.467693E+05 -1.993580E+05 -8.600949E+04 -6.870621E-10 -2.272149E-09
       223  17 -3.141263E+05 -2.716034E+05 -2.278922E+05 -6.769104E+04 -7.676950E-11  1.065067E-09
       223  18 -4.207309E+05 -2.942111E+05 -2.803309E+05 -7.814182E+04  1.451299E-09 -1.732633E-09
       223  19  1.845613E+06  2.455481E+05  2.069112E+05 -8.162941E+04 -8.299407E+03  6.371892E+04
       223  20  1.945201E+06  2.736605E+05  2.412300E+05 -7.120371E+04  3.642376E+04  5.645078E+04
       223  21  2.055050E+06  3.182695E+05  3.087961E+05 -8.954307E+04  8.121215E+04  1.745689E+04
       223  22  8.165320E+05 -5.763684E+02  3.806347E+03 -8.382085E+04  2.802605E+03  6.373856E+04
       223  23  8.149339E+05  1.070599E+03  6.705570E+03 -6.944614E+04  6.294393E+03  5.642036E+04
       223  24  8.164542E+05  1.208360E+04  1.428047E+04 -8.383695E+04  9.842629E+03  1.735080E+04
       223  25 -2.115380E+05 -2.467649E+05 -1.993499E+05 -8.600877E+04  1.388664E+04  6.375814E+04
       223  26 -3.141249E+05 -2.715998E+05 -2.278852E+05 -6.769212E+04 -2.378119E+04  5.638975E+04
       223  27 -4.207268E+05 -2.942098E+05 -2.803233E+05 -7.814268E+04 -6.138559E+04  1.724330E+04
       224   1  5.376069E+05  2.110053E+06  5.238202E+05 -4.197517E+05  2.414426E+04  1.148632E+05
       224   2  3.838996E+05  1.605407E+06  3.455910E+05 -3.406074E+05  7.191942E+04  3.525048E+04
       224   3  2.608108E+05  1.118911E+06  2.267256E+05 -4.034309E+05  6.390666E+04 -4.436601E+04
       224   4  2.388186E+04  3.626143E+04  2.656535E+04 -4.038555E+05  2.432796E+04  1.672155E+04
       224   5  3.504490E+03  3.380683E+04  1.381905E+04 -3.328866E+05  7.198746E+04  9.645024E+03
       224   6  1.233447E+03  3.675039E+04  1.019980E+04 -4.038997E+05  6.379703E+04  2.500199E+03
       224   7 -4.901493E+05 -2.033579E+06 -4.709581E+05 -3.880095E+05  2.450705E+04 -8.109451E+04
       224   8 -3.770494E+05 -1.535465E+06 -3.180901E+05 -3.251839E+05  7.205497E+04 -1.589677E+04
       224   9 -2.584146E+05 -1.044289E+06 -2.063769E+05 -4.043667E+05  6.368722E+04  4.928646E+04
       224  10  5.376028E+05  2.110039E+06  5.237944E+05 -4.197540E+05  1.647015E-10  1.413255E-09
       224  11  3.838937E+05  1.605404E+06  3.455790E+05 -3.406095E+05 -2.872434E-10 -2.829251E-09
       224  12  2.608059E+05  1.118908E+06  2.267142E+05 -4.034286E+05 -4.109885E-10 -3.928282E-09
       224  13  2.388115E+04  3.626097E+04  2.656371E+04 -4.038558E+05  3.936480E-10  1.123572E-12
       224  14  3.498900E+03  3.380534E+04  1.380914E+04 -3.328872E+05  5.917309E-10 -7.936396E-10
       224  15  1.229074E+03  3.674930E+04  1.019214E+04 -4.038998E+05 -4.079602E-10  2.739085E-10
       224  16 -4.901517E+05 -2.033587E+06 -4.709716E+05 -3.880079E+05  7.090604E-10 -2.018563E-09
       224  17 -3.770551E+05 -1.535466E+06 -3.181004E+05 -3.251829E+05  8.435175E-10  5.219216E-09
       224  18 -2.584196E+05 -1.044292E+06 -2.063891E+05 -4.043693E+05 -2.292405E-10  3.262890E-09
       224  19  5.376069E+05  2.110053E+06  5.238202E+05 -4.197517E+05 -2.414426E+04 -1.148632E+05
       224  20  3.838996E+05  1.605407E+06  3.455910E+05 -3.406074E+05 -7.191942E+04 -3.525048E+04
       224  21  2.608108E+05  1.118911E+06  2.267256E+05 -4.034309E+05 -6.390666E+04  4.436601E+04
       224  22  2.388186E+04  3.626143E+04  2.656535E+04 -4.038555E+05 -2.432796E+04 -1.672155E+04
       224  23  3.504490E+03  3.380683E+04  1.381905E+04 -3.328866E+05 -7.198746E+04 -9.645024E+03
       224  24  1.233447E+03  3.675039E+04  1.019980E+04 -4.038997E+05 -6.379703E+04 -2.500199E+03
       224  25 -4.901493E+05 -2.033579E+06 -4.709581E+05 -3.880095E+05 -2.450705E+04  8.109451E+04
       224  26 -3.770494E+05 -1.535465E+06 -3.180901E+05 -3.251839E+05 -7.205497E+04  1.589677E+04
       224  27 -2.584146E+05 -1.044289E+06 -2.063769E+05 -4.043667E+05 -6.368722E+04 -4.928646E+04
       225   1  1.786585E+05  7.697713E+05  1.568633E+05 -4.066385E+05  4.308508E+04 -3.463714E+04
       225   2  5.886690E+04  2.744269E+05  5.756735E+04 -3.324343E+05  1.538949E+04 -4.099096E+04
       225   3 -5.751710E+04 -2.196883E+05 -3.693769E+04 -4.031797E+05 -1.303650E+04 -4.734797E+04
       225   4  2.517007E+03  3.586304E+04  9.747978E+03 -4.045522E+05  4.299482E+04  8.295314E+02
       225   5  1.720492E+03  3.548556E+04  1.073361E+04 -3.320742E+05  1.529327E+04 -4.587566E+03
       225   6  4.181967E+03  3.593826E+04  1.586322E+04 -4.045480E+05 -1.313948E+04 -1.001269E+04
       225   7 -1.736569E+05 -6.975290E+05 -1.373900E+05 -4.024679E+05  4.290473E+04  3.625515E+04
       225   8 -5.542865E+04 -2.033982E+05 -3.609791E+04 -3.317141E+05  1.519707E+04  3.180212E+04
       225   9  6.587765E+04  2.916298E+05  6.866584E+04 -4.059167E+05 -1.324261E+04  2.733770E+04
       225  10  1.786561E+05  7.697695E+05  1.568576E+05 -4.066373E+05 -2.794000E-10  5.313929E-11
       225  11  5.886620E+04  2.744250E+05  5.756375E+04 -3.324338E+05  1.313606E-09 -3.973659E-09
       225  12 -5.751789E+04 -2.196908E+05 -3.694223E+04 -4.031802E+05  6.798405E-10 -2.608297E-09
       225  13  2.515021E+03  3.586254E+04  9.744503E+03 -4.045522E+05 -1.294706E-09  3.242879E-11
       225  14  1.720235E+03  3.548547E+04  1.073313E+04 -3.320741E+05  1.684657E-09 -1.078123E-09
       225  15  4.181754E+03  3.593811E+04  1.586270E+04 -4.045481E+05 -9.344374E-11  3.101530E-10
       225  16 -1.736592E+05 -6.975309E+05 -1.373959E+05 -4.024691E+05 -1.607122E-09 -1.161386E-09
       225  17 -5.542917E+04 -2.033993E+05 -3.610024E+04 -3.317145E+05  8.632725E-10  6.292131E-09
       225  18  6.587727E+04  2.916290E+05  6.866411E+04 -4.059164E+05 -3.429417E-10  1.712228E-09
       225  19  1.786585E+05  7.697713E+05  1.568633E+05 -4.066385E+05 -4.308508E+04  3.463714E+04
       225  20  5.886690E+04  2.744269E+05  5.756735E+04 -3.324343E+05 -1.538949E+04  4.099096E+04
       225  21 -5.751710E+04 -2.196883E+05 -3.693769E+04 -4.031797E+05  1.303650E+04  4.734797E+04
       225  22  2.517007E+03  3.586304E+04  9.747978E+03 -4.045522E+05 -4.299482E+04 -8.295314E+02
       225  23  1.720492E+03  3.548556E+04  1.073361E+04 -3.320742E+05 -1.529327E+04  4.587566E+03
       225  24  4.181967E+03  3.593826E+04  1.586322E+04 -4.045480E+05  1.313948E+04  1.001269E+04
       225  25 -1.736569E+05 -6.975290E+05 -1.373900E+05 -4.024679E+05 -4.290473E+04 -3.625515E+04
       225  26 -5.542865E+04 -2.033982E+05 -3.609791E+04 -3.317141E+05 -1.519707E+04 -3.180212E+04
       225  27  6.587765E+04  2.916298E+05  6.866584E+04 -4.059167E+05  1.324261E+04 -2.733770E+04
       226   1 -1.442142E+05 -5.643916E+05 -1.027375E+05 -4.093970E+05 -3.361506E+04 -5.878032E+04
       226   2 -2.570684E+05 -1.060799E+06 -2.003269E+05 -3.170472E+05 -4.730757E+04 -1.918801E+04
       226   3 -3.342490E+05 -1.553579E+06 -3.149127E+05 -3.673794E+05 -1.710215E+04  2.044435E+04
       226   4  8.529852E+02  3.863560E+04  1.955687E+04 -4.040617E+05 -3.373780E+04 -1.278964E+04
       226   5  8.355481E+03  3.184534E+04  3.306075E+04 -3.326703E+05 -4.727487E+04 -3.003789E+04
       226   6  6.137756E+04  3.829421E+04  6.904799E+04 -4.039290E+05 -1.695174E+04 -4.721443E+04
       226   7  1.458988E+05  6.420138E+05  1.418403E+05 -3.987207E+05 -3.385967E+04  3.324491E+04
       226   8  2.737023E+05  1.125616E+06  2.663799E+05 -3.483204E+05 -4.724166E+04 -4.090657E+04
       226   9  4.568262E+05  1.632501E+06  4.528453E+05 -4.405708E+05 -1.679359E+04 -1.150463E+05
       226  10 -1.442163E+05 -5.643956E+05 -1.027461E+05 -4.093986E+05  1.388592E-09  1.034170E-09
       226  11 -2.570709E+05 -1.060800E+06 -2.003318E+05 -3.170479E+05  1.780545E-09 -2.966380E-09
       226  12 -3.342495E+05 -1.553579E+06 -3.149140E+05 -3.673791E+05  3.449406E-10 -2.724370E-09
       226  13  8.517186E+02  3.863512E+04  1.955443E+04 -4.040620E+05  9.762835E-10 -1.376447E-11
       226  14  8.352838E+03  3.184377E+04  3.305485E+04 -3.326714E+05 -1.358967E-09 -9.046198E-10
       226  15  6.137666E+04  3.829174E+04  6.904326E+04 -4.039296E+05  6.324603E-10  2.531695E-10
       226  16  1.458973E+05  6.420123E+05  1.418360E+05 -3.987198E+05 -3.215711E-10 -2.016598E-09
       226  17  2.736995E+05  1.125613E+06  2.663726E+05 -3.483219E+05  7.094224E-10  5.196957E-09
       226  18  4.568223E+05  1.632487E+06  4.528200E+05 -4.405724E+05  4.293837E-10  2.025582E-09
       226  19 -1.442142E+05 -5.643916E+05 -1.027375E+05 -4.093970E+05  3.361506E+04  5.878032E+04
       226  20 -2.570684E+05 -1.060799E+06 -2.003269E+05 -3.170472E+05  4.730757E+04  1.918801E+04
       226  21 -3.342490E+05 -1.553579E+06 -3.149127E+05 -3.673794E+05  1.710215E+04 -2.044435E+04
       226  22  8.529852E+02  3.863560E+04  1.955687E+04 -4.040617E+05  3.373780E+04  1.278964E+04
       226  23  8.355481E+03  3.184534E+04  3.306075E+04 -3.326703E+05  4.727487E+04  3.003789E+04
       226  24  6.137756E+04  3.829421E+04  6.904799E+04 -4.039290E+05  1.695174E+04  4.721443E+04
       226  25  1.458988E+05  6.420138E+05  1.418403E+05 -3.987207E+05  3.385967E+04 -3.324491E+04
       226  26  2.737023E+05  1.125616E+06  2.663799E+05 -3.483204E+05  4.724166E+04  4.090657E+04
       226  27  4.568262E+05  1.632501E+06  4.528453E+05 -4.405708E+05  1.679359E+04  1.150463E+05
       227   1 -1.433067E+06 -6.126805E+05 -3.574369E+05 -5.680602E+05 -1.585092E+05 -4.869161E+04
       227   2 -1.358713E+06 -4.040524E+05 -2.139458E+05 -5.379356E+05 -9.969650E+04 -3.051659E+03
       227   3 -1.320161E+06 -3.329562E+05 -1.526703E+05 -4.989283E+05 -3.379894E+04  2.378947E+04
       227   4 -8.344527E+05 -3.078097E+05 -1.847647E+05 -3.226115E+05 -1.222108E+05 -3.507103E+04
       227   5 -8.085937E+05 -1.691808E+05 -8.284629E+04 -3.541363E+05 -8.613807E+04  2.034983E+03
       227   6 -8.139810E+05 -1.635172E+05 -4.505127E+04 -3.767963E+05 -4.299151E+04  2.033503E+04
       227   7 -2.354757E+05 -2.819837E+03 -1.212196E+04 -7.692030E+04 -8.587445E+04 -2.142442E+04
       227   8 -2.581675E+05  6.574250E+04  4.823218E+04 -1.701779E+05 -7.256664E+04  7.128241E+03
       227   9 -3.075386E+05  5.932167E+03  6.255442E+04 -2.545769E+05 -5.219225E+04  1.687816E+04
       227  10 -1.433095E+06 -6.126898E+05 -3.574887E+05 -5.680664E+05 -2.026788E-10  7.344633E-13
       227  11 -1.358724E+06 -4.040551E+05 -2.139645E+05 -5.379359E+05  6.545135E-10 -3.232645E-10
       227  12 -1.320163E+06 -3.329571E+05 -1.526735E+05 -4.989276E+05 -7.164204E-10 -6.896777E-10
       227  13 -8.344691E+05 -3.078151E+05 -1.847952E+05 -3.226149E+05  1.893519E-09 -8.962509E-11
       227  14 -8.086017E+05 -1.691828E+05 -8.286026E+04 -3.541361E+05  6.654197E-10 -3.215480E-10
       227  15 -8.139831E+05 -1.635181E+05 -4.505552E+04 -3.767956E+05  2.670227E-09 -1.182610E-09
       227  16 -2.354837E+05 -2.822311E+03 -1.213668E+04 -7.692179E+04  1.106966E-09 -1.217104E-09
       227  17 -2.581732E+05  6.574104E+04  4.822218E+04 -1.701774E+05  3.113049E-09 -1.709428E-09
       227  18 -3.075416E+05  5.931130E+03  6.254877E+04 -2.545762E+05  1.343721E-09  8.249871E-11
       227  19 -1.433067E+06 -6.126805E+05 -3.574369E+05 -5.680602E+05  1.585092E+05  4.869161E+04
       227  20 -1.358713E+06 -4.040524E+05 -2.139458E+05 -5.379356E+05  9.969650E+04  3.051659E+03
       227  21 -1.320161E+06 -3.329562E+05 -1.526703E+05 -4.989283E+05  3.379894E+04 -2.378947E+04
       227  22 -8.344527E+05 -3.078097E+05 -1.847647E+05 -3.226115E+05  1.222108E+05  3.507103E+04
       227  23 -8.085937E+05 -1.691808E+05 -8.284629E+04 -3.541363E+05  8.613807E+04 -2.034983E+03
       227  24 -8.139810E+05 -1.635172E+05 -4.505127E+04 -3.767963E+05  4.299151E+04 -2.033503E+04
       227  25 -2.354757E+05 -2.819837E+03 -1.212196E+04 -7.692030E+04  8.587445E+04  2.142442E+04
       227  26 -2.581675E+05  6.574250E+04  4.823218E+04 -1.701779E+05  7.256664E+04 -7.128241E+03
       227  27 -3.075386E+05  5.932167E+03  6.255442E+04 -2.545769E+05  5.219225E+04 -1.687816E+04
       228   1 -1.241836E+06 -3.335164E+05 -1.299020E+05 -4.926865E+05 -3.146017E+04  2.002084E+04
       228   2 -1.168802E+06 -2.874996E+05 -9.482990E+04 -4.599361E+05 -1.932372E+04  1.960485E+04
       228   3 -1.080558E+06 -2.654104E+05 -6.900064E+04 -4.474419E+05 -6.797230E+03  1.814876E+04
       228   4 -8.082090E+05 -1.718677E+05 -3.485036E+04 -3.710007E+05 -3.612195E+04  1.826827E+04
       228   5 -8.155130E+05 -1.571136E+05 -1.835720E+04 -3.619607E+05 -2.523939E+04  1.738274E+04
       228   6 -8.073628E+05 -1.660358E+05 -1.010672E+04 -3.731791E+05 -1.396828E+04  1.545684E+04
       228   7 -3.743939E+05 -1.020412E+04  6.018915E+04 -2.492371E+05 -4.078723E+04  1.651436E+04
       228   8 -4.620972E+05 -2.671744E+04  5.810832E+04 -2.639339E+05 -3.115869E+04  1.515925E+04
       228   9 -5.340896E+05 -6.665487E+04  4.878359E+04 -2.988859E+05 -2.114279E+04  1.276365E+04
       228  10 -1.241837E+06 -3.335171E+05 -1.299046E+05 -4.926859E+05 -2.334524E-09 -5.312957E-10
       228  11 -1.168802E+06 -2.875001E+05 -9.483132E+04 -4.599358E+05 -3.016642E-09  7.576275E-12
       228  12 -1.080558E+06 -2.654107E+05 -6.900135E+04 -4.474418E+05  9.247971E-10  2.003442E-10
       228  13 -8.082105E+05 -1.718684E+05 -3.485344E+04 -3.710001E+05  2.938810E-10 -2.115743E-10
       228  14 -8.155137E+05 -1.571141E+05 -1.835896E+04 -3.619603E+05 -1.440638E-09  4.982372E-10
       228  15 -8.073631E+05 -1.660361E+05 -1.010754E+04 -3.731789E+05  1.897969E-09  2.687797E-10
       228  16 -3.743957E+05 -1.020486E+04  6.018551E+04 -2.492365E+05  7.731293E-10  1.844118E-10
       228  17 -4.620983E+05 -2.671795E+04  5.810606E+04 -2.639335E+05  2.404188E-09  6.372351E-10
       228  18 -5.340901E+05 -6.665516E+04  4.878244E+04 -2.988856E+05  4.420575E-09  3.475599E-10
       228  19 -1.241836E+06 -3.335164E+05 -1.299020E+05 -4.926865E+05  3.146017E+04 -2.002084E+04
       228  20 -1.168802E+06 -2.874996E+05 -9.482990E+04 -4.599361E+05  1.932372E+04 -1.960485E+04
       228  21 -1.080558E+06 -2.654104E+05 -6.900064E+04 -4.474419E+05  6.797230E+03 -1.814876E+04
       228  22 -8.082090E+05 -1.718677E+05 -3.485036E+04 -3.710007E+05  3.612195E+04 -1.826827E+04
       228  23 -8.155130E+05 -1.571136E+05 -1.835720E+04 -3.619607E+05  2.523939E+04 -1.738274E+04
       228  24 -8.073628E+05 -1.660358E+05 -1.010672E+04 -3.731791E+05  1.396828E+04 -1.545684E+04
       228  25 -3.743939E+05 -1.020412E+04  6.018915E+04 -2.492371E+05  4.078723E+04 -1.651436E+04
       228  26 -4.620972E+05 -2.671744E+04  5.810832E+04 -2.639339E+05  3.115869E+04 -1.515925E+04
       228  27 -5.340896E+05 -6.665487E+04  4.878359E+04 -2.988859E+05  2.114279E+04 -1.276365E+04
       229   1 -1.021139E+06 -2.448335E+05 -5.348651E+04 -4.317818E+05 -4.331135E+03  1.516490E+04
       229   2 -9.486501E+05 -2.054165E+05 -3.270652E+04 -3.986669E+05 -7.928120E+00  1.023208E+04
       229   3 -8.579222E+05 -1.848725E+05 -1.360214E+04 -3.868741E+05  4.336966E+03  5.239549E+03
       229   4 -8.069339E+05 -1.663724E+05 -7.627173E+03 -3.728846E+05 -1.125884E+04  1.256490E+04
       229   5 -8.160414E+05 -1.568609E+05 -4.200844E+03 -3.622515E+05 -7.007564E+03  7.605628E+03
       229   6 -8.069025E+05 -1.662082E+05 -2.392410E+03 -3.729426E+05 -2.734928E+03  2.586562E+03
       229   7 -5.926815E+05 -8.790768E+04  3.822973E+04 -3.139688E+05 -1.818912E+04  9.963935E+03
       229   8 -6.834152E+05 -1.083042E+05  2.430388E+04 -3.258290E+05 -1.400879E+04  4.978582E+03
       229   9 -7.558806E+05 -1.475438E+05  8.817276E+03 -3.590101E+05 -9.807401E+03 -6.663735E+01
       229  10 -1.021139E+06 -2.448338E+05 -5.348698E+04 -4.317818E+05  3.938694E-09  5.592521E-10
       229  11 -9.486502E+05 -2.054166E+05 -3.270671E+04 -3.986669E+05  1.767047E-09 -7.389599E-10
       229  12 -8.579222E+05 -1.848725E+05 -1.360223E+04 -3.868741E+05 -1.686792E-09 -6.894500E-10
       229  13 -8.069340E+05 -1.663726E+05 -7.627708E+03 -3.728845E+05  2.124898E-09 -1.519630E-10
       229  14 -8.160415E+05 -1.568610E+05 -4.201045E+03 -3.622514E+05 -8.100435E-10 -4.140058E-10
       229  15 -8.069026E+05 -1.662082E+05 -2.392437E+03 -3.729426E+05 -8.307594E-10  1.568739E-10
       229  16 -5.926819E+05 -8.790787E+04  3.822892E+04 -3.139686E+05  2.430093E-09 -6.625115E-10
       229  17 -6.834154E+05 -1.083043E+05  2.430347E+04 -3.258290E+05 -4.885491E-10 -7.033117E-10
       229  18 -7.558807E+05 -1.475438E+05  8.817095E+03 -3.590101E+05  3.445297E-10  9.947146E-10
       229  19 -1.021139E+06 -2.448335E+05 -5.348651E+04 -4.317818E+05  4.331135E+03 -1.516490E+04
       229  20 -9.486501E+05 -2.054165E+05 -3.270652E+04 -3.986669E+05  7.928120E+00 -1.023208E+04
       229  21 -8.579222E+05 -1.848725E+05 -1.360214E+04 -3.868741E+05 -4.336966E+03 -5.239549E+03
       229  22 -8.069339E+05 -1.663724E+05 -7.627173E+03 -3.728846E+05  1.125884E+04 -1.256490E+04
       229  23 -8.160414E+05 -1.568609E+05 -4.200844E+03 -3.622515E+05  7.007564E+03 -7.605628E+03
       229  24 -8.069025E+05 -1.662082E+05 -2.392410E+03 -3.729426E+05  2.734928E+03 -2.586562E+03
       229  25 -5.926815E+05 -8.790768E+04  3.822973E+04 -3.139688E+05  1.818912E+04 -9.963935E+03
       229  26 -6.834152E+05 -1.083042E+05  2.430388E+04 -3.258290E+05  1.400879E+04 -4.978582E+03
       229  27 -7.558806E+05 -1.475438E+05  8.817276E+03 -3.590101E+05  9.807401E+03  6.663735E+01
       230   1 -7.993961E+05 -1.633519E+05  8.683599E+00 -3.707928E+05  5.950363E+03  1.971787E+03
       230   2 -7.270521E+05 -1.241358E+05  1.793834E+04 -3.376148E+05  8.741325E+03 -3.624984E+03
       230   3 -6.361782E+05 -1.035454E+05  3.541442E+04 -3.257517E+05  1.153319E+04 -9.222284E+03
       230   4 -8.068493E+05 -1.662165E+05 -1.859226E+03 -3.729186E+05 -1.108716E+03 -6.763361E+02
       230   5 -8.161141E+05 -1.569152E+05 -1.214222E+03 -3.622558E+05  1.680901E+03 -6.274011E+03
       230   6 -8.068572E+05 -1.662410E+05 -1.022160E+03 -3.729113E+05  4.471321E+03 -1.187222E+04
       230   7 -8.143023E+05 -1.690810E+05 -3.726940E+03 -3.750444E+05 -8.167753E+03 -3.324442E+03
       230   8 -9.051683E+05 -1.896940E+05 -2.036712E+04 -3.868936E+05 -5.378455E+03 -8.922637E+03
       230   9 -9.775064E+05 -2.289341E+05 -3.746020E+04 -4.200590E+05 -2.588452E+03 -1.452137E+04
       230  10 -7.993961E+05 -1.633520E+05  8.609643E+00 -3.707928E+05 -2.942860E-10  6.235359E-10
       230  11 -7.270522E+05 -1.241358E+05  1.793817E+04 -3.376148E+05 -4.554371E-09 -5.596955E-10
       230  12 -6.361784E+05 -1.035456E+05  3.541401E+04 -3.257516E+05 -4.908989E-09 -1.341805E-10
       230  13 -8.068493E+05 -1.662165E+05 -1.859229E+03 -3.729186E+05 -1.112336E-09  6.587180E-11
       230  14 -8.161141E+05 -1.569152E+05 -1.214302E+03 -3.622558E+05 -4.176726E-09 -1.064793E-09
       230  15 -8.068572E+05 -1.662411E+05 -1.022462E+03 -3.729113E+05 -1.555193E-09  1.945594E-10
       230  16 -8.143024E+05 -1.690810E+05 -3.727087E+03 -3.750444E+05 -3.085872E-09 -3.942040E-10
       230  17 -9.051683E+05 -1.896941E+05 -2.036733E+04 -3.868936E+05 -2.004084E-09 -1.031144E-09
       230  18 -9.775065E+05 -2.289343E+05 -3.746061E+04 -4.200590E+05  1.229388E-09  5.055095E-10
       230  19 -7.993961E+05 -1.633519E+05  8.683599E+00 -3.707928E+05 -5.950363E+03 -1.971787E+03
       230  20 -7.270521E+05 -1.241358E+05  1.793834E+04 -3.376148E+05 -8.741325E+03  3.624984E+03
       230  21 -6.361782E+05 -1.035454E+05  3.541442E+04 -3.257517E+05 -1.153319E+04  9.222284E+03
       230  22 -8.068493E+05 -1.662165E+05 -1.859226E+03 -3.729186E+05  1.108716E+03  6.763361E+02
       230  23 -8.161141E+05 -1.569152E+05 -1.214222E+03 -3.622558E+05 -1.680901E+03  6.274011E+03
       230  24 -8.068572E+05 -1.662410E+05 -1.022160E+03 -3.729113E+05 -4.471321E+03  1.187222E+04
       230  25 -8.143023E+05 -1.690810E+05 -3.726940E+03 -3.750444E+05  8.167753E+03  3.324442E+03
       230  26 -9.051683E+05 -1.896940E+05 -2.036712E+04 -3.868936E+05  5.378455E+03  8.922637E+03
       230  27 -9.775064E+05 -2.289341E+05 -3.746020E+04 -4.200590E+05  2.588452E+03  1.452137E+04
       231   1 -5.778032E+05 -8.200254E+04  4.843859E+04 -3.096590E+05  1.297479E+04 -1.254798E+04
       231   2 -5.056237E+05 -4.285665E+04  6.529831E+04 -2.765328E+05  1.586264E+04 -1.809810E+04
       231   3 -4.149464E+05 -2.230034E+04  8.163512E+04 -2.646697E+05  1.874814E+04 -2.363592E+04
       231   4 -8.068708E+05 -1.662371E+05 -1.061711E+03 -3.729009E+05  5.917047E+03 -1.519686E+04
       231   5 -8.161253E+05 -1.569563E+05 -1.443708E+03 -3.622653E+05  8.818504E+03 -2.074316E+04
       231   6 -8.068911E+05 -1.662686E+05 -2.359266E+03 -3.728960E+05  1.171751E+04 -2.627719E+04
       231   7 -1.035883E+06 -2.504668E+05 -5.056443E+04 -4.361209E+05 -1.137835E+03 -1.784467E+04
       231   8 -1.126529E+06 -2.710481E+05 -6.819109E+04 -4.479584E+05  1.778171E+03 -2.338680E+04
       231   9 -1.198682E+06 -3.102256E+05 -8.636303E+04 -4.810602E+05  4.691629E+03 -2.891669E+04
       231  10 -5.778034E+05 -8.200276E+04  4.843798E+04 -3.096588E+05  2.634657E-09  2.122901E-09
       231  11 -5.056241E+05 -4.285707E+04  6.529722E+04 -2.765326E+05 -5.197154E-09 -3.180950E-09
       231  12 -4.149470E+05 -2.230103E+04  8.163341E+04 -2.646694E+05 -1.849839E-08 -8.035965E-09
       231  13 -8.068709E+05 -1.662374E+05 -1.062210E+03 -3.729008E+05 -2.019214E-10  9.777981E-10
       231  14 -8.161255E+05 -1.569568E+05 -1.444662E+03 -3.622652E+05 -7.626935E-10  2.615114E-10
       231  15 -8.068914E+05 -1.662694E+05 -2.360820E+03 -3.728958E+05 -1.980560E-09 -2.274694E-09
       231  16 -1.035883E+06 -2.504672E+05 -5.056503E+04 -4.361209E+05 -2.895222E-09 -2.036533E-10
       231  17 -1.126529E+06 -2.710487E+05 -6.819212E+04 -4.479584E+05  6.151367E-09  3.840259E-09
       231  18 -1.198682E+06 -3.102265E+05 -8.636464E+04 -4.810601E+05  1.163833E-08  4.144552E-09
       231  19 -5.778032E+05 -8.200254E+04  4.843859E+04 -3.096590E+05 -1.297479E+04  1.254798E+04
       231  20 -5.056237E+05 -4.285665E+04  6.529831E+04 -2.765328E+05 -1.586264E+04  1.809810E+04
       231  21 -4.149464E+05 -2.230034E+04  8.163512E+04 -2.646697E+05 -1.874814E+04  2.363592E+04
       231  22 -8.068708E+05 -1.662371E+05 -1.061711E+03 -3.729009E+05 -5.917047E+03  1.519686E+04
       231  23 -8.161253E+05 -1.569563E+05 -1.443708E+03 -3.622653E+05 -8.818504E+03  2.074316E+04
       231  24 -8.068911E+05 -1.662686E+05 -2.359266E+03 -3.728960E+05 -1.171751E+04  2.627719E+04
       231  25 -1.035883E+06 -2.504668E+05 -5.056443E+04 -4.361209E+05  1.137835E+03  1.784467E+04
       231  26 -1.126529E+06 -2.710481E+05 -6.819109E+04 -4.479584E+05 -1.778171E+03  2.338680E+04
       231  27 -1.198682E+06 -3.102256E+05 -8.636303E+04 -4.810602E+05 -4.691629E+03  2.891669E+04
       232   1 -3.568119E+05 -8.334690E+02  9.393283E+04 -2.486671E+05  2.048073E+04 -2.684196E+04
       232   2 -2.848361E+05  3.818617E+04  1.087096E+05 -2.156343E+05  2.525984E+04 -3.161373E+04
       232   3 -1.947474E+05  5.841009E+04  1.214834E+05 -2.037630E+05  3.000462E+04 -3.628334E+04
       232   4 -8.069827E+05 -1.662496E+05 -3.078301E+03 -3.729048E+05  1.343864E+04 -2.948860E+04
       232   5 -8.160589E+05 -1.569741E+05 -5.488218E+03 -3.622781E+05  1.833803E+04 -3.421737E+04
       232   6 -8.070522E+05 -1.665201E+05 -9.997321E+03 -3.728171E+05  2.320269E+04 -3.884406E+04
       232   7 -1.256947E+06 -3.316495E+05 -1.001010E+05 -4.970597E+05  6.402060E+03 -3.213318E+04
       232   8 -1.346993E+06 -3.521110E+05 -1.197016E+05 -5.088061E+05  1.142265E+04 -3.681861E+04
       232   9 -1.418971E+06 -3.914186E+05 -1.414983E+05 -5.417166E+05  1.640806E+04 -4.140204E+04
       232  10 -3.568126E+05 -8.343548E+02  9.393069E+04 -2.486666E+05  9.861185E-09  3.918549E-09
       232  11 -2.848370E+05  3.818492E+04  1.087065E+05 -2.156336E+05  6.273559E-09  4.193932E-09
       232  12 -1.947487E+05  5.840843E+04  1.214793E+05 -2.037622E+05 -4.318509E-10 -1.074338E-09
       232  13 -8.069831E+05 -1.662506E+05 -3.080274E+03 -3.729045E+05 -3.307088E-09 -1.563585E-09
       232  14 -8.160596E+05 -1.569754E+05 -5.491049E+03 -3.622776E+05  3.265240E-10  9.292892E-10
       232  15 -8.070531E+05 -1.665219E+05 -1.000117E+04 -3.728163E+05  1.232843E-09  8.929064E-11
       232  16 -1.256947E+06 -3.316507E+05 -1.001030E+05 -4.970595E+05 -1.714705E-08 -7.102943E-09
       232  17 -1.346993E+06 -3.521124E+05 -1.197044E+05 -5.088057E+05 -6.892455E-09 -2.819714E-09
       232  18 -1.418972E+06 -3.914205E+05 -1.415020E+05 -5.417161E+05 -2.392632E-12  2.491431E-09
       232  19 -3.568119E+05 -8.334690E+02  9.393283E+04 -2.486671E+05 -2.048073E+04  2.684196E+04
       232  20 -2.848361E+05  3.818617E+04  1.087096E+05 -2.156343E+05 -2.525984E+04  3.161373E+04
       232  21 -1.947474E+05  5.841009E+04  1.214834E+05 -2.037630E+05 -3.000462E+04  3.628334E+04
       232  22 -8.069827E+05 -1.662496E+05 -3.078301E+03 -3.729048E+05 -1.343864E+04  2.948860E+04
       232  23 -8.160589E+05 -1.569741E+05 -5.488218E+03 -3.622781E+05 -1.833803E+04  3.421737E+04
       232  24 -8.070522E+05 -1.665201E+05 -9.997321E+03 -3.728171E+05 -2.320269E+04  3.884406E+04
       232  25 -1.256947E+06 -3.316495E+05 -1.001010E+05 -4.970597E+05 -6.402060E+03  3.213318E+04
       232  26 -1.346993E+06 -3.521110E+05 -1.197016E+05 -5.088061E+05 -1.142265E+04  3.681861E+04
       232  27 -1.418971E+06 -3.914186E+05 -1.414983E+05 -5.417166E+05 -1.640806E+04  4.140204E+04
       233   1 -1.366214E+05  7.944602E+04  1.311303E+05 -1.890415E+05  3.353553E+04 -3.885499E+04
       233   2 -6.559579E+04  1.192780E+05  1.378615E+05 -1.538033E+05  4.561288E+04 -4.012565E+04
       233   3  2.020734E+04  1.344589E+05  1.353747E+05 -1.382114E+05  5.707819E+04 -3.975375E+04
       233   4 -8.076299E+05 -1.660670E+05 -1.325392E+04 -3.731780E+05  2.635543E+04 -4.155942E+04
       233   5 -8.153855E+05 -1.573864E+05 -2.410194E+04 -3.619165E+05  4.040958E+04 -4.208951E+04
       233   6 -8.087678E+05 -1.737583E+05 -4.574533E+04 -3.703067E+05  5.384987E+04 -4.097657E+04
       233   7 -1.478186E+06 -4.115469E+05 -1.576654E+05 -5.571334E+05  1.918367E+04 -4.426077E+04
       233   8 -1.564607E+06 -4.340058E+05 -1.860990E+05 -5.697991E+05  3.521303E+04 -4.405082E+04
       233   9 -1.637046E+06 -4.819173E+05 -2.269067E+05 -6.021161E+05  5.062618E+04 -4.219762E+04
       233  10 -1.366230E+05  7.944410E+04  1.311253E+05 -1.890404E+05 -4.415220E-10 -1.883329E-09
       233  11 -6.559845E+04  1.192757E+05  1.378546E+05 -1.538018E+05 -4.006592E-09 -2.032770E-09
       233  12  2.020342E+04  1.344563E+05  1.353656E+05 -1.382096E+05 -3.133130E-09 -1.051936E-09
       233  13 -8.076311E+05 -1.660691E+05 -1.325846E+04 -3.731771E+05 -2.081931E-09 -1.167963E-09
       233  14 -8.153877E+05 -1.573887E+05 -2.410834E+04 -3.619151E+05 -1.869723E-09  6.244314E-10
       233  15 -8.087714E+05 -1.737608E+05 -4.575393E+04 -3.703049E+05 -4.251943E-10 -2.777964E-09
       233  16 -1.478187E+06 -4.115491E+05 -1.576698E+05 -5.571327E+05 -3.280669E-09  1.568787E-09
       233  17 -1.564609E+06 -4.340082E+05 -1.861050E+05 -5.697978E+05 -4.209609E-09 -4.484181E-10
       233  18 -1.637049E+06 -4.819199E+05 -2.269148E+05 -6.021144E+05  1.687972E-10  1.779937E-10
       233  19 -1.366214E+05  7.944602E+04  1.311303E+05 -1.890415E+05 -3.353553E+04  3.885499E+04
       233  20 -6.559579E+04  1.192780E+05  1.378615E+05 -1.538033E+05 -4.561288E+04  4.012565E+04
       233  21  2.020734E+04  1.344589E+05  1.353747E+05 -1.382114E+05 -5.707819E+04  3.975375E+04
       233  22 -8.076299E+05 -1.660670E+05 -1.325392E+04 -3.731780E+05 -2.635543E+04  4.155942E+04
       233  23 -8.153855E+05 -1.573864E+05 -2.410194E+04 -3.619165E+05 -4.040958E+04  4.208951E+04
       233  24 -8.087678E+05 -1.737583E+05 -4.574533E+04 -3.703067E+05 -5.384987E+04  4.097657E+04
       233  25 -1.478186E+06 -4.115469E+05 -1.576654E+05 -5.571334E+05 -1.918367E+04  4.426077E+04
       233  26 -1.564607E+06 -4.340058E+05 -1.860990E+05 -5.697991E+05 -3.521303E+04  4.405082E+04
       233  27 -1.637046E+06 -4.819173E+05 -2.269067E+05 -6.021161E+05 -5.062618E+04  4.219762E+04
       234   1  8.914679E+04  1.487504E+05  1.341267E+05 -1.502155E+05  7.288890E+04 -3.885476E+04
       234   2  1.298068E+05  2.147424E+05  1.113343E+05 -5.056737E+04  9.224032E+04 -2.438094E+04
       234   3  1.304545E+05  1.198769E+05  3.288622E+04  6.801225E+04  1.004395E+05  1.966352E+04
       234   4 -8.163850E+05 -1.627638E+05 -5.913441E+04 -3.778604E+05  6.252419E+04 -4.276438E+04
       234   5 -8.062875E+05 -1.733107E+05 -1.087595E+05 -3.517071E+05  1.176924E+05 -1.480142E+04
       234   6 -8.434055E+05 -3.519791E+05 -2.425177E+05 -3.066061E+05  1.616941E+05  4.274717E+04
       234   7 -1.721085E+06 -4.742380E+05 -2.524413E+05 -6.052113E+05  5.217581E+04 -4.666881E+04
       234   8 -1.741482E+06 -5.612283E+05 -3.289081E+05 -6.524048E+05  1.431026E+05 -5.241972E+03
       234   9 -1.816283E+06 -8.235634E+05 -5.179866E+05 -6.806202E+05  2.228422E+05  6.576457E+04
       234  10  8.914068E+04  1.487474E+05  1.341139E+05 -1.502132E+05 -1.622269E-09 -1.177276E-09
       234  11  1.297975E+05  2.147395E+05  1.113172E+05 -5.056556E+04 -6.519150E-10  5.674320E-10
       234  12  1.304435E+05  1.198738E+05  3.286654E+04  6.801066E+04  1.824525E-09 -2.589987E-09
       234  13 -8.163897E+05 -1.627668E+05 -5.914520E+04 -3.778582E+05  2.771538E-10 -9.869660E-10
       234  14 -8.063025E+05 -1.733147E+05 -1.087859E+05 -3.517057E+05  2.742305E-10 -4.092856E-09
       234  15 -8.434341E+05 -3.519881E+05 -2.425703E+05 -3.066116E+05 -1.139821E-09  3.099086E-09
       234  16 -1.721089E+06 -4.742411E+05 -2.524506E+05 -6.052093E+05  1.745643E-09  1.378616E-09
       234  17 -1.741504E+06 -5.612338E+05 -3.289467E+05 -6.524042E+05 -8.724157E-10  4.881059E-09
       234  18 -1.816338E+06 -8.235815E+05 -5.180884E+05 -6.806320E+05 -1.811701E-09  1.180460E-09
       234  19  8.914679E+04  1.487504E+05  1.341267E+05 -1.502155E+05 -7.288890E+04  3.885476E+04
       234  20  1.298068E+05  2.147424E+05  1.113343E+05 -5.056737E+04 -9.224032E+04  2.438094E+04
       234  21  1.304545E+05  1.198769E+05  3.288622E+04  6.801225E+04 -1.004395E+05 -1.966352E+04
       234  22 -8.163850E+05 -1.627638E+05 -5.913441E+04 -3.778604E+05 -6.252419E+04  4.276438E+04
       234  23 -8.062875E+05 -1.733107E+05 -1.087595E+05 -3.517071E+05 -1.176924E+05  1.480142E+04
       234  24 -8.434055E+05 -3.519791E+05 -2.425177E+05 -3.066061E+05 -1.616941E+05 -4.274717E+04
       234  25 -1.721085E+06 -4.742380E+05 -2.524413E+05 -6.052113E+05 -5.217581E+04  4.666881E+04
       234  26 -1.741482E+06 -5.612283E+05 -3.289081E+05 -6.524048E+05 -1.431026E+05  5.241972E+03
       234  27 -1.816283E+06 -8.235634E+05 -5.179866E+05 -6.806202E+05 -2.228422E+05 -6.576457E+04
       235   1  1.489480E+06  2.128594E+05  1.893546E+05  2.298960E+04  5.348639E+03 -1.688187E+04
       235   2  1.413129E+06  2.560705E+05  1.845629E+05  3.914232E+04 -1.098255E+04 -5.541750E+04
       235   3  1.325801E+06  2.463740E+05  1.772355E+05  7.745574E+04 -2.736430E+04 -6.367456E+04
       235   4  3.026292E+05 -8.048795E+04 -9.275665E+04  6.697253E+04 -6.421852E+04 -1.701872E+04
       235   5  3.115625E+05 -9.599679E+03 -4.379598E+04  5.579948E+04 -4.125910E+04 -5.549180E+04
       235   6  3.026717E+05  1.511793E+03 -2.464925E+04  6.679048E+04 -1.835176E+04 -6.366047E+04
       235   7 -8.829169E+05 -3.739266E+05 -3.749470E+05  1.108705E+05 -1.336535E+05 -1.716556E+04
       235   8 -7.888540E+05 -2.753452E+05 -2.722174E+05  7.242598E+04 -7.148289E+04 -5.556779E+04
       235   9 -7.194567E+05 -2.434135E+05 -2.265850E+05  5.614249E+04 -9.353717E+03 -6.364667E+04
       235  10  1.489480E+06  2.128591E+05  1.893540E+05  2.298967E+04 -2.056146E-09 -1.222144E-10
       235  11  1.413128E+06  2.560672E+05  1.845569E+05  3.914183E+04  9.816101E-09 -2.842955E-09
       235  12  1.325799E+06  2.463695E+05  1.772265E+05  7.745434E+04  2.122329E-08 -2.009261E-09
       235  13  3.026246E+05 -8.048937E+04 -9.276494E+04  6.697165E+04  1.038648E-10  1.856704E-09
       235  14  3.115599E+05 -9.603443E+03 -4.380497E+04  5.579764E+04  5.412530E-10 -1.456183E-09
       235  15  3.026703E+05  1.507350E+03 -2.465750E+04  6.678954E+04  5.782298E-10  1.722816E-09
       235  16 -8.829361E+05 -3.739317E+05 -3.749812E+05  1.108686E+05  1.396142E-09  9.249530E-10
       235  17 -7.888603E+05 -2.753499E+05 -2.722328E+05  7.242278E+04 -8.043136E-09 -5.106619E-09
       235  18 -7.194579E+05 -2.434179E+05 -2.265927E+05  5.614201E+04 -1.959979E-08 -5.428250E-09
       235  19  1.489480E+06  2.128594E+05  1.893546E+05  2.298960E+04 -5.348639E+03  1.688187E+04
       235  20  1.413129E+06  2.560705E+05  1.845629E+05  3.914232E+04  1.098255E+04  5.541750E+04
       235  21  1.325801E+06  2.463740E+05  1.772355E+05  7.745574E+04  2.736430E+04  6.367456E+04
       235  22  3.026292E+05 -8.048795E+04 -9.275665E+04  6.697253E+04  6.421852E+04  1.701872E+04
       235  23  3.115625E+05 -9.599679E+03 -4.379598E+04  5.579948E+04  4.125910E+04  5.549180E+04
       235  24  3.026717E+05  1.511793E+03 -2.464925E+04  6.679048E+04  1.835176E+04  6.366047E+04
       235  25 -8.829169E+05 -3.739266E+05 -3.749470E+05  1.108705E+05  1.336535E+05  1.716556E+04
       235  26 -7.888540E+05 -2.753452E+05 -2.722174E+05  7.242598E+04  7.148289E+04  5.556779E+04
       235  27 -7.194567E+05 -2.434135E+05 -2.265850E+05  5.614249E+04  9.353717E+03  6.364667E+04
       236   1  1.271565E+06  2.280926E+05  1.714743E+05  6.807294E+04 -1.758807E+04 -5.986743E+04
       236   2  1.190817E+06  2.111334E+05  1.621328E+05  5.699448E+04 -1.472136E+04 -5.699912E+04
       236   3  1.109176E+06  1.921607E+05  1.504225E+05  6.964253E+04 -1.186360E+04 -5.227576E+04
       236   4  3.063644E+05 -2.888293E+03 -1.912999E+04  6.717570E+04 -1.506206E+04 -5.986841E+04
       236   5  3.070445E+05 -8.546838E+00 -1.056038E+04  5.530664E+04 -9.794576E+03 -5.699195E+04
       236   6  3.064086E+05  4.395254E+02 -6.028691E+03  6.716624E+04 -4.535649E+03 -5.225916E+04
       236   7 -6.579458E+05 -2.339257E+05 -2.097800E+05  6.627928E+04 -1.253987E+04 -5.986939E+04
       236   8 -5.759797E+05 -2.111974E+05 -1.832909E+05  5.362071E+04 -4.874639E+03 -5.698480E+04
       236   9 -4.957414E+05 -1.913203E+05 -1.625103E+05  6.469274E+04  2.783055E+03 -5.224262E+04
       236  10  1.271564E+06  2.280886E+05  1.714670E+05  6.807209E+04 -2.434628E-08 -3.372060E-09
       236  11  1.190816E+06  2.111299E+05  1.621263E+05  5.699380E+04 -1.108127E-08  3.463205E-09
       236  12  1.109175E+06  1.921577E+05  1.504171E+05  6.964203E+04  1.770597E-09  4.031241E-09
       236  13  3.063632E+05 -2.892203E+03 -1.913715E+04  6.717498E+04  1.132624E-09 -1.968968E-09
       236  14  3.070435E+05 -1.206092E+01 -1.056667E+04  5.530619E+04  1.083732E-09  1.212825E-10
       236  15  3.064079E+05  4.365868E+02 -6.033862E+03  6.716605E+04  2.360486E-09 -2.683049E-09
       236  16 -6.579469E+05 -2.339295E+05 -2.097870E+05  6.627868E+04  2.445004E-08  9.296599E-10
       236  17 -5.759806E+05 -2.112009E+05 -1.832970E+05  5.362049E+04  1.349072E-08  2.321678E-09
       236  18 -4.957422E+05 -1.913232E+05 -1.625155E+05  6.469286E+04 -9.430393E-10  6.720212E-10
       236  19  1.271565E+06  2.280926E+05  1.714743E+05  6.807294E+04  1.758807E+04  5.986743E+04
       236  20  1.190817E+06  2.111334E+05  1.621328E+05  5.699448E+04  1.472136E+04  5.699912E+04
       236  21  1.109176E+06  1.921607E+05  1.504225E+05  6.964253E+04  1.186360E+04  5.227576E+04
       236  22  3.063644E+05 -2.888293E+03 -1.912999E+04  6.717570E+04  1.506206E+04  5.986841E+04
       236  23  3.070445E+05 -8.546838E+00 -1.056038E+04  5.530664E+04  9.794576E+03  5.699195E+04
       236  24  3.064086E+05  4.395254E+02 -6.028691E+03  6.716624E+04  4.535649E+03  5.225916E+04
       236  25 -6.579458E+05 -2.339257E+05 -2.097800E+05  6.627928E+04  1.253987E+04  5.986939E+04
       236  26 -5.759797E+05 -2.111974E+05 -1.832909E+05  5.362071E+04  4.874639E+03  5.698480E+04
       236  27 -4.957414E+05 -1.913203E+05 -1.625103E+05  6.469274E+04 -2.783055E+03  5.224262E+04
       237   1  1.052687E+06  1.783699E+05  1.404566E+05  6.912400E+04 -1.053115E+04 -4.900400E+04
       237   2  9.718358E+05  1.591067E+05  1.267620E+05  5.707313E+04 -9.399103E+03 -4.361206E+04
       237   3  8.907505E+05  1.399160E+05  1.123214E+05  6.878804E+04 -8.270923E+03 -3.810981E+04
       237   4  3.066600E+05  2.674826E+02 -4.584763E+03  6.717688E+04 -3.607144E+03 -4.898719E+04
       237   5  3.068096E+05  3.212409E+02 -2.600531E+03  5.529302E+04 -2.333741E+03 -4.359278E+04
       237   6  3.066941E+05  4.230787E+02 -1.461310E+03  6.717644E+04 -1.064060E+03 -3.808797E+04
       237   7 -4.388336E+05 -1.778682E+05 -1.496523E+05  6.523172E+04  3.308740E+03 -4.897042E+04
       237   8 -3.577924E+05 -1.584907E+05 -1.319839E+05  5.351449E+04  4.724232E+03 -4.357353E+04
       237   9 -2.770351E+05 -1.390903E+05 -1.152601E+05  6.556609E+04  6.136180E+03 -3.806616E+04
       237  10  1.052687E+06  1.783673E+05  1.404519E+05  6.912359E+04 -2.645179E-09  4.775700E-09
       237  11  9.718352E+05  1.591047E+05  1.267583E+05  5.707280E+04  2.688400E-09  2.321185E-09
       237  12  8.907500E+05  1.399145E+05  1.123185E+05  6.878779E+04  4.547747E-09 -2.106103E-09
       237  13  3.066594E+05  2.649018E+02 -4.589297E+03  6.717674E+04 -2.273538E-10 -3.629382E-09
       237  14  3.068091E+05  3.191985E+02 -2.604113E+03  5.529294E+04  5.308739E-10  3.266266E-09
       237  15  3.066937E+05  4.215204E+02 -1.464038E+03  6.717640E+04  2.109496E-10  4.948854E-09
       237  16 -4.388342E+05 -1.778708E+05 -1.496568E+05  6.523185E+04  2.089205E-09  3.175568E-09
       237  17 -3.577930E+05 -1.584927E+05 -1.319875E+05  5.351466E+04  1.125097E-09  5.373346E-09
       237  18 -2.770356E+05 -1.390919E+05 -1.152628E+05  6.556628E+04 -4.852644E-09  1.810947E-10
       237  19  1.052687E+06  1.783699E+05  1.404566E+05  6.912400E+04  1.053115E+04  4.900400E+04
       237  20  9.718358E+05  1.591067E+05  1.267620E+05  5.707313E+04  9.399103E+03  4.361206E+04
       237  21  8.907505E+05  1.399160E+05  1.123214E+05  6.878804E+04  8.270923E+03  3.810981E+04
       237  22  3.066600E+05  2.674826E+02 -4.584763E+03  6.717688E+04  3.607144E+03  4.898719E+04
       237  23  3.068096E+05  3.212409E+02 -2.600531E+03  5.529302E+04  2.333741E+03  4.359278E+04
       237  24  3.066941E+05  4.230787E+02 -1.461310E+03  6.717644E+04  1.064060E+03  3.808797E+04
       237  25 -4.388336E+05 -1.778682E+05 -1.496523E+05  6.523172E+04 -3.308740E+03  4.897042E+04
       237  26 -3.577924E+05 -1.584907E+05 -1.319839E+05  5.351449E+04 -4.724232E+03  4.357353E+04
       237  27 -2.770351E+05 -1.390903E+05 -1.152601E+05  6.556609E+04 -6.136180E+03  3.806616E+04
       238   1  8.342368E+05  1.263422E+05  1.012963E+05  6.863085E+04 -8.021645E+03 -3.487846E+04
       238   2  7.534989E+05  1.070249E+05  8.629665E+04  5.656386E+04 -7.762040E+03 -2.934279E+04
       238   3  6.726024E+05  8.787462E+04  7.112531E+04  6.822579E+04 -7.504779E+03 -2.380294E+04
       238   4  3.067287E+05  4.272611E+02 -1.089744E+03  6.716825E+04 -8.433732E+02 -3.485567E+04
       238   5  3.068237E+05  3.659918E+02 -5.704160E+02  5.530326E+04 -5.790461E+02 -2.931860E+04
       238   6  3.067517E+05  4.709047E+02 -2.265344E+02  6.716818E+04 -3.170279E+02 -2.377732E+04
       238   7 -2.205123E+05 -1.255042E+05 -1.034887E+05  6.570669E+04  6.328942E+03 -3.483291E+04
       238   8 -1.396599E+05 -1.063048E+05 -8.744674E+04  5.404341E+04  6.598900E+03 -2.929443E+04
       238   9 -5.897052E+04 -8.694081E+04 -7.158457E+04  6.611108E+04  6.866584E+03 -2.375172E+04
       238  10  8.342364E+05  1.263408E+05  1.012939E+05  6.863062E+04  4.494599E-10 -8.205967E-10
       238  11  7.534986E+05  1.070239E+05  8.629492E+04  5.656367E+04 -2.044730E-10  9.833741E-09
       238  12  6.726022E+05  8.787399E+04  7.112414E+04  6.822565E+04 -1.480092E-10  1.029870E-08
       238  13  3.067284E+05  4.259562E+02 -1.092029E+03  6.716823E+04 -2.183777E-09  3.252067E-11
       238  14  3.068235E+05  3.650685E+02 -5.720322E+02  5.530324E+04 -1.950425E-09  7.476278E-09
       238  15  3.067516E+05  4.702975E+02 -2.275971E+02  6.716817E+04  5.745318E-11  3.303922E-09
       238  16 -2.205127E+05 -1.255055E+05 -1.034911E+05  6.570686E+04 -1.310674E-09 -2.462617E-10
       238  17 -1.396602E+05 -1.063057E+05 -8.744843E+04  5.404356E+04  3.228083E-09  1.098666E-09
       238  18 -5.897072E+04 -8.694143E+04 -7.158572E+04  6.611121E+04  2.441486E-09  7.993292E-10
       238  19  8.342368E+05  1.263422E+05  1.012963E+05  6.863085E+04  8.021645E+03  3.487846E+04
       238  20  7.534989E+05  1.070249E+05  8.629665E+04  5.656386E+04  7.762040E+03  2.934279E+04
       238  21  6.726024E+05  8.787462E+04  7.112531E+04  6.822579E+04  7.504779E+03  2.380294E+04
       238  22  3.067287E+05  4.272611E+02 -1.089744E+03  6.716825E+04  8.433732E+02  3.485567E+04
       238  23  3.068237E+05  3.659918E+02 -5.704160E+02  5.530326E+04  5.790461E+02  2.931860E+04
       238  24  3.067517E+05  4.709047E+02 -2.265344E+02  6.716818E+04  3.170279E+02  2.377732E+04
       238  25 -2.205123E+05 -1.255042E+05 -1.034887E+05  6.570669E+04 -6.328942E+03  3.483291E+04
       238  26 -1.396599E+05 -1.063048E+05 -8.744674E+04  5.404341E+04 -6.598900E+03  2.929443E+04
       238  27 -5.897052E+04 -8.694081E+04 -7.158457E+04  6.611108E+04 -6.866584E+03  2.375172E+04
       239   1  6.161563E+05  7.432157E+04  5.987740E+04  6.806883E+04 -7.484130E+03 -2.057822E+04
       239   2  5.355102E+05  5.500591E+04  4.464158E+04  5.599841E+04 -7.581907E+03 -1.504132E+04
       239   3  4.547143E+05  3.586830E+04  2.945868E+04  6.763716E+04 -7.680831E+03 -9.508503E+03
       239   4  3.067624E+05  4.778659E+02 -9.180424E+01  6.716370E+04 -2.998861E+02 -2.055198E+04
       239   5  3.068453E+05  3.973360E+02  1.689282E+02  5.530885E+04 -4.033330E+02 -1.501439E+04
       239   6  3.067742E+05  4.964678E+02  4.868175E+02  6.716367E+04 -5.079383E+02 -9.480873E+03
       239   7 -2.539475E+03 -7.337152E+04 -6.006531E+04  6.625894E+04  6.880861E+03 -2.052575E+04
       239   8  7.823061E+04 -5.421433E+04 -4.430601E+04  5.461950E+04  6.772657E+03 -1.498747E+04
       239   9  1.588552E+05 -3.487666E+04 -2.848591E+04  6.669028E+04  6.663283E+03 -9.453251E+03
       239  10  6.161561E+05  7.432110E+04  5.987650E+04  6.806870E+04  1.331557E-08  4.213258E-09
       239  11  5.355100E+05  5.500565E+04  4.464105E+04  5.599832E+04  5.508100E-09 -9.482518E-10
       239  12  4.547142E+05  3.586819E+04  2.945840E+04  6.763710E+04 -5.360688E-09 -3.490302E-09
       239  13  3.067623E+05  4.774122E+02 -9.259826E+01  6.716369E+04  1.278696E-09  1.083242E-08
       239  14  3.068452E+05  3.970939E+02  1.685042E+02  5.530885E+04 -4.256555E-10 -6.582723E-10
       239  15  3.067742E+05  4.963712E+02  4.866481E+02  6.716367E+04 -8.999374E-10 -4.393329E-09
       239  16 -2.539639E+03 -7.337198E+04 -6.006619E+04  6.625905E+04 -1.386798E-08  4.842834E-09
       239  17  7.823050E+04 -5.421459E+04 -4.430652E+04  5.461959E+04 -1.362356E-09 -9.219575E-10
       239  18  1.588551E+05 -3.487677E+04 -2.848616E+04  6.669033E+04  5.459369E-09 -2.415907E-09
       239  19  6.161563E+05  7.432157E+04  5.987740E+04  6.806883E+04  7.484130E+03  2.057822E+04
       239  20  5.355102E+05  5.500591E+04  4.464158E+04  5.599841E+04  7.581907E+03  1.504132E+04
       239  21  4.547143E+05  3.586830E+04  2.945868E+04  6.763716E+04  7.680831E+03  9.508503E+03
       239  22  3.067624E+05  4.778659E+02 -9.180424E+01  6.716370E+04  2.998861E+02  2.055198E+04
       239  23  3.068453E+05  3.973360E+02  1.689282E+02  5.530885E+04  4.033330E+02  1.501439E+04
       239  24  3.067742E+05  4.964678E+02  4.868175E+02  6.716367E+04  5.079383E+02  9.480873E+03
       239  25 -2.539475E+03 -7.337152E+04 -6.006531E+04  6.625894E+04 -6.880861E+03  2.052575E+04
       239  26  7.823061E+04 -5.421433E+04 -4.430601E+04  5.461950E+04 -6.772657E+03  1.498747E+04
       239  27  1.588552E+05 -3.487666E+04 -2.848591E+04  6.669028E+04 -6.663283E+03  9.453251E+03
       240   1  3.983279E+05  2.231565E+04  1.828985E+04  6.748211E+04 -7.809646E+03 -6.285536E+03
       240   2  3.176898E+05  2.981501E+03  3.374483E+03  5.542280E+04 -8.401437E+03 -7.734743E+02
       240   3  2.369660E+05 -1.612643E+04 -1.115788E+04  6.706043E+04 -8.993025E+03  4.688181E+03
       240   4  3.067932E+05  4.949213E+02  6.926600E+02  6.716091E+04 -6.272701E+02 -6.257644E+03
       240   5  3.068338E+05  3.925473E+02  1.286202E+03  5.531236E+04 -1.284849E+03 -7.458123E+02
       240   6  3.067936E+05  5.280860E+02  2.308352E+03  6.716076E+04 -1.942297E+03  4.715630E+03
       240   7  2.152666E+05 -2.132627E+04 -1.690473E+04  6.683976E+04  6.554072E+03 -6.229757E+03
       240   8  2.959779E+05 -2.196386E+03 -8.018941E+02  5.520193E+04  5.831618E+03 -7.181526E+02
       240   9  3.766261E+05  1.718234E+04  1.577454E+04  6.726110E+04  5.109207E+03  4.743080E+03
       240  10  3.983278E+05  2.231559E+04  1.828967E+04  6.748207E+04 -5.804394E-09  2.927163E-09
       240  11  3.176897E+05  2.981481E+03  3.374349E+03  5.542279E+04 -3.976751E-09  4.098782E-09
       240  12  2.369659E+05 -1.612648E+04 -1.115807E+04  6.706047E+04 -2.908805E-09  4.067645E-09
       240  13  3.067932E+05  4.948791E+02  6.925857E+02  6.716091E+04 -1.091993E-09  6.055118E-10
       240  14  3.068338E+05  3.925462E+02  1.286198E+03  5.531236E+04 -1.090036E-09  4.531174E-09
       240  15  3.067936E+05  5.280611E+02  2.308303E+03  6.716077E+04 -1.049879E-09  4.418510E-09
       240  16  2.152666E+05 -2.132633E+04 -1.690488E+04  6.683979E+04  4.898089E-09  4.234423E-09
       240  17  2.959779E+05 -2.196395E+03 -8.019590E+02  5.520193E+04  3.366585E-09 -7.178270E-09
       240  18  3.766260E+05  1.718231E+04  1.577445E+04  6.726108E+04  2.260452E-09 -1.884973E-09
       240  19  3.983279E+05  2.231565E+04  1.828985E+04  6.748211E+04  7.809646E+03  6.285536E+03
       240  20  3.176898E+05  2.981501E+03  3.374483E+03  5.542280E+04  8.401437E+03  7.734743E+02
       240  21  2.369660E+05 -1.612643E+04 -1.115788E+04  6.706043E+04  8.993025E+03 -4.688181E+03
       240  22  3.067932E+05  4.949213E+02  6.926600E+02  6.716091E+04  6.272701E+02  6.257644E+03
       240  23  3.068338E+05  3.925473E+02  1.286202E+03  5.531236E+04  1.284849E+03  7.458123E+02
       240  24  3.067936E+05  5.280860E+02  2.308352E+03  6.716076E+04  1.942297E+03 -4.715630E+03
       240  25  2.152666E+05 -2.132627E+04 -1.690473E+04  6.683976E+04 -6.554072E+03  6.229757E+03
       240  26  2.959779E+05 -2.196386E+03 -8.018941E+02  5.520193E+04 -5.831618E+03  7.181526E+02
       240  27  3.766261E+05  1.718234E+04  1.577454E+04  6.726110E+04 -5.109207E+03 -4.743080E+03
       241   1  1.806727E+05 -2.977965E+04 -2.179007E+04  6.711594E+04 -9.653298E+03  7.923023E+03
       241   2  9.980950E+04 -4.900573E+04 -3.529044E+04  5.464601E+04 -1.127476E+04  1.308284E+04
       241   3  1.927799E+04 -6.692385E+04 -4.746323E+04  6.583363E+04 -1.289204E+04  1.742491E+04
       241   4  3.069221E+05  4.294228E+02  3.046642E+03  6.715328E+04 -2.427560E+03  7.950974E+03
       241   5  3.066626E+05  4.846827E+02  5.336797E+03  5.532168E+04 -5.110206E+03  1.310607E+04
       241   6  3.069108E+05  2.031747E+03  9.690332E+03  6.714705E+04 -7.788850E+03  1.744358E+04
       241   7  4.331870E+05  3.063756E+04  2.788277E+04  6.719063E+04  4.799616E+03  7.978922E+03
       241   8  5.135567E+05  4.997253E+04  4.596210E+04  5.599755E+04  1.056362E+03  1.312932E+04
       241   9  5.946228E+05  7.098231E+04  6.683987E+04  6.846102E+04 -2.683343E+03  1.746227E+04
       241  10  1.806725E+05 -2.977974E+04 -2.179036E+04  6.711600E+04 -9.787796E-09  9.218813E-09
       241  11  9.980931E+04 -4.900595E+04 -3.529100E+04  5.464613E+04 -6.917339E-11  4.009447E-09
       241  12  1.927773E+04 -6.692422E+04 -4.746411E+04  6.583381E+04  7.780628E-09  5.561757E-09
       241  13  3.069221E+05  4.293533E+02  3.046512E+03  6.715330E+04 -2.170918E-09  6.666289E-09
       241  14  3.066625E+05  4.844912E+02  5.336425E+03  5.532174E+04  5.205743E-10  2.685017E-09
       241  15  3.069107E+05  2.031404E+03  9.689646E+03  6.714716E+04  2.105846E-09 -8.732585E-10
       241  16  4.331870E+05  3.063749E+04  2.788261E+04  6.719060E+04  8.187981E-09  3.457479E-09
       241  17  5.135567E+05  4.997235E+04  4.596177E+04  5.599754E+04  1.391765E-09  4.278866E-09
       241  18  5.946227E+05  7.098198E+04  6.683929E+04  6.846106E+04 -7.772879E-09 -8.576246E-09
       241  19  1.806727E+05 -2.977965E+04 -2.179007E+04  6.711594E+04  9.653298E+03 -7.923023E+03
       241  20  9.980950E+04 -4.900573E+04 -3.529044E+04  5.464601E+04  1.127476E+04 -1.308284E+04
       241  21  1.927799E+04 -6.692385E+04 -4.746323E+04  6.583363E+04  1.289204E+04 -1.742491E+04
       241  22  3.069221E+05  4.294228E+02  3.046642E+03  6.715328E+04  2.427560E+03 -7.950974E+03
       241  23  3.066626E+05  4.846827E+02  5.336797E+03  5.532168E+04  5.110206E+03 -1.310607E+04
       241  24  3.069108E+05  2.031747E+03  9.690332E+03  6.714705E+04  7.788850E+03 -1.744358E+04
       241  25  4.331870E+05  3.063756E+04  2.788277E+04  6.719063E+04 -4.799616E+03 -7.978922E+03
       241  26  5.135567E+05  4.997253E+04  4.596210E+04  5.599755E+04 -1.056362E+03 -1.312932E+04
       241  27  5.946228E+05  7.098231E+04  6.683987E+04  6.846102E+04  2.683343E+03 -1.746227E+04
       242   1 -3.578904E+04 -8.278926E+04 -5.596801E+04  7.048521E+04 -1.742422E+04  2.087003E+04
       242   2 -1.195753E+05 -9.736015E+04 -6.658093E+04  4.496977E+04 -1.171201E+04  2.036225E+04
       242   3 -1.973569E+05 -8.428882E+04 -7.403435E+04  4.231744E+04 -5.954401E+03  6.518729E+03
       242   4  3.087899E+05 -2.263806E+02  1.249233E+04  6.700146E+04 -9.474453E+03  2.089898E+04
       242   5  3.042796E+05  5.240861E+03  2.217435E+04  5.549571E+04 -2.104741E+04  2.032707E+04
       242   6  3.087628E+05  4.134010E+04  4.701339E+04  6.685097E+04 -3.257476E+04  6.423797E+03
       242   7  6.534826E+05  8.232935E+04  8.094701E+04  6.351564E+04 -1.520367E+03  2.092784E+04
       242   8  7.283048E+05  1.078308E+05  1.109200E+05  6.602879E+04 -3.038908E+04  2.029159E+04
       242   9  8.151201E+05  1.669530E+05  1.680460E+05  9.140439E+04 -5.921672E+04  6.326801E+03
       242  10 -3.578948E+04 -8.278981E+04 -5.596940E+04  7.048550E+04 -2.726506E-08  1.440029E-09
       242  11 -1.195756E+05 -9.736064E+04 -6.658197E+04  4.496996E+04 -5.255484E-10 -1.032827E-09
       242  12 -1.973570E+05 -8.428888E+04 -7.403450E+04  4.231747E+04  2.294417E-08 -2.297687E-10
       242  13  3.087897E+05 -2.268738E+02  1.249134E+04  6.700162E+04  1.264542E-09  7.577206E-09
       242  14  3.042790E+05  5.240298E+03  2.217274E+04  5.549605E+04 -7.884214E-10 -7.376955E-09
       242  15  3.087617E+05  4.133977E+04  4.701132E+04  6.685114E+04  3.225168E-09  6.401179E-09
       242  16  6.534824E+05  8.232888E+04  8.094618E+04  6.351567E+04  2.670015E-08  1.116908E-09
       242  17  7.283037E+05  1.078301E+05  1.109175E+05  6.602929E+04  2.814912E-09  2.326729E-09
       242  18  8.151163E+05  1.669520E+05  1.680394E+05  9.140469E+04 -2.165505E-08 -2.926019E-09
       242  19 -3.578904E+04 -8.278926E+04 -5.596801E+04  7.048521E+04  1.742422E+04 -2.087003E+04
       242  20 -1.195753E+05 -9.736015E+04 -6.658093E+04  4.496977E+04  1.171201E+04 -2.036225E+04
       242  21 -1.973569E+05 -8.428882E+04 -7.403435E+04  4.231744E+04  5.954401E+03 -6.518729E+03
       242  22  3.087899E+05 -2.263806E+02  1.249233E+04  6.700146E+04  9.474453E+03 -2.089898E+04
       242  23  3.042796E+05  5.240861E+03  2.217435E+04  5.549571E+04  2.104741E+04 -2.032707E+04
       242  24  3.087628E+05  4.134010E+04  4.701339E+04  6.685097E+04  3.257476E+04 -6.423797E+03
       242  25  6.534826E+05  8.232935E+04  8.094701E+04  6.351564E+04  1.520367E+03 -2.092784E+04
       242  26  7.283048E+05  1.078308E+05  1.109200E+05  6.602879E+04  3.038908E+04 -2.029159E+04
       242  27  8.151201E+05  1.669530E+05  1.680460E+05  9.140439E+04  5.921672E+04 -6.326801E+03
       243   1  2.840567E+05  2.000511E+06  2.881657E+05 -1.858482E+05  1.019717E+04  9.613979E+04
       243   2  1.719615E+05  1.817651E+06  1.855816E+05 -1.363804E+05  3.147103E+04  4.393530E+04
       243   3  1.200998E+05  1.656482E+06  1.319569E+05 -1.359631E+05  3.018822E+04 -8.295682E+03
       243   4  7.394728E+04  1.152375E+06  8.524410E+04 -1.424606E+05  1.029061E+04  5.395544E+04
       243   5  9.096107E+03  1.144124E+06  4.410417E+04 -1.180165E+05  3.150284E+04  3.108305E+04
       243   6 -5.653176E+02  1.152486E+06  3.162455E+04 -1.426188E+05  3.015150E+04  8.168918E+03
       243   7 -1.362063E+05  3.049037E+05 -1.177206E+05 -9.913197E+04  1.037824E+04  1.182829E+04
       243   8 -1.537970E+05  4.710266E+05 -9.739787E+04 -9.967263E+04  3.153390E+04  1.824448E+04
       243   9 -1.212456E+05  6.487341E+05 -6.871945E+04 -1.492689E+05  3.011442E+04  2.462045E+04
       243  10  2.840541E+05  2.000501E+06  2.881482E+05 -1.858490E+05  3.904882E-10  1.408169E-09
       243  11  1.719599E+05  1.817648E+06  1.855761E+05 -1.363815E+05  1.201473E-09 -4.865193E-09
       243  12  1.200988E+05  1.656481E+06  1.319551E+05 -1.359629E+05 -2.391039E-11  8.928940E-11
       243  13  7.394639E+04  1.152372E+06  8.523844E+04 -1.424610E+05  1.852970E-09 -1.729660E-09
       243  14  9.094782E+03  1.144123E+06  4.410049E+04 -1.180173E+05  6.164095E-10  2.094354E-09
       243  15 -5.663123E+02  1.152486E+06  3.162271E+04 -1.426190E+05  6.176226E-10  2.303353E-10
       243  16 -1.362065E+05  3.049035E+05 -1.177211E+05 -9.913207E+04 -9.231147E-10 -3.905246E-10
       243  17 -1.537982E+05  4.710259E+05 -9.740037E+04 -9.967309E+04  1.926377E-09 -3.232326E-09
       243  18 -1.212468E+05  6.487332E+05 -6.872229E+04 -1.492695E+05 -1.648337E-11 -2.428371E-10
       243  19  2.840567E+05  2.000511E+06  2.881657E+05 -1.858482E+05 -1.019717E+04 -9.613979E+04
       243  20  1.719615E+05  1.817651E+06  1.855816E+05 -1.363804E+05 -3.147103E+04 -4.393530E+04
       243  21  1.200998E+05  1.656482E+06  1.319569E+05 -1.359631E+05 -3.018822E+04  8.295682E+03
       243  22  7.394728E+04  1.152375E+06  8.524410E+04 -1.424606E+05 -1.029061E+04 -5.395544E+04
       243  23  9.096107E+03  1.144124E+06  4.410417E+04 -1.180165E+05 -3.150284E+04 -3.108305E+04
       243  24 -5.653176E+02  1.152486E+06  3.162455E+04 -1.426188E+05 -3.015150E+04 -8.168918E+03
       243  25 -1.362063E+05  3.049037E+05 -1.177206E+05 -9.913197E+04 -1.037824E+04 -1.182829E+04
       243  26 -1.537970E+05  4.710266E+05 -9.739787E+04 -9.967263E+04 -3.153390E+04 -1.824448E+04
       243  27 -1.212456E+05  6.487341E+05 -6.871945E+04 -1.492689E+05 -3.011442E+04 -2.462045E+04
       244   1  9.486868E+04  1.532803E+06  1.062304E+05 -1.458776E+05  2.293004E+04 -8.550353E+03
       244   2  5.156178E+04  1.359279E+06  7.355945E+04 -1.179286E+05  1.357352E+04 -2.545953E+04
       244   3  1.663481E+04  1.189806E+06  5.390707E+04 -1.401812E+05  3.573925E+03 -4.236784E+04
       244   4  3.082441E+03  1.149673E+06  2.992222E+04 -1.428470E+05  2.290267E+04  3.231267E+03
       244   5  1.033042E+03  1.147743E+06  3.215093E+04 -1.177411E+05  1.354303E+04 -1.283888E+04
       244   6  7.221026E+03  1.149690E+06  4.681902E+04 -1.428371E+05  3.540275E+03 -2.891261E+04
       244   7 -8.871266E+04  7.666835E+05 -4.639274E+04 -1.398183E+05  2.287540E+04  1.500578E+04
       244   8 -4.949830E+04  9.362498E+05 -9.259144E+03 -1.175537E+05  1.351254E+04 -2.224312E+02
       244   9 -2.192720E+03  1.109577E+06  3.973160E+04 -1.454928E+05  3.506510E+03 -1.545823E+04
       244  10  9.486809E+04  1.532803E+06  1.062292E+05 -1.458775E+05 -1.010032E-09 -4.385568E-10
       244  11  5.156141E+04  1.359278E+06  7.355789E+04 -1.179283E+05 -7.657816E-10 -4.981025E-09
       244  12  1.663431E+04  1.189804E+06  5.390368E+04 -1.401810E+05 -3.610057E-10  3.412933E-09
       244  13  3.081874E+03  1.149673E+06  2.992121E+04 -1.428471E+05 -8.236349E-10 -2.464461E-09
       244  14  1.032801E+03  1.147742E+06  3.215028E+04 -1.177410E+05 -2.881112E-10  2.346150E-09
       244  15  7.220789E+03  1.149689E+06  4.681743E+04 -1.428370E+05 -7.081773E-10  1.681799E-10
       244  16 -8.871328E+04  7.666831E+05 -4.639415E+04 -1.398185E+05 -9.765999E-10  1.707361E-09
       244  17 -4.949850E+04  9.362498E+05 -9.259488E+03 -1.175537E+05  6.334131E-10 -5.100852E-09
       244  18 -2.192797E+03  1.109576E+06  3.973112E+04 -1.454928E+05  8.510007E-10 -3.661804E-09
       244  19  9.486868E+04  1.532803E+06  1.062304E+05 -1.458776E+05 -2.293004E+04  8.550353E+03
       244  20  5.156178E+04  1.359279E+06  7.355945E+04 -1.179286E+05 -1.357352E+04  2.545953E+04
       244  21  1.663481E+04  1.189806E+06  5.390707E+04 -1.401812E+05 -3.573925E+03  4.236784E+04
       244  22  3.082441E+03  1.149673E+06  2.992222E+04 -1.428470E+05 -2.290267E+04 -3.231267E+03
       244  23  1.033042E+03  1.147743E+06  3.215093E+04 -1.177411E+05 -1.354303E+04  1.283888E+04
       244  24  7.221026E+03  1.149690E+06  4.681902E+04 -1.428371E+05 -3.540275E+03  2.891261E+04
       244  25 -8.871266E+04  7.666835E+05 -4.639274E+04 -1.398183E+05 -2.287540E+04 -1.500578E+04
       244  26 -4.949830E+04  9.362498E+05 -9.259144E+03 -1.175537E+05 -1.351254E+04  2.224312E+02
       244  27 -2.192720E+03  1.109577E+06  3.973160E+04 -1.454928E+05 -3.506510E+03  1.545823E+04
       245   1 -2.158719E+04  1.077296E+06  4.056092E+04 -1.615803E+05 -3.475076E+03 -5.263822E+04
       245   2 -3.955310E+04  8.877087E+05  4.295910E+04 -7.684845E+04 -9.542556E+03 -8.786037E+04
       245   3  7.118054E+04  7.346588E+05  1.003889E+05 -4.155845E+04 -3.662954E+03 -1.230453E+05
       245   4 -2.277092E+03  1.157542E+06  5.752767E+04 -1.427490E+05 -3.516165E+03 -3.691443E+04
       245   5  2.152015E+04  1.137900E+06  9.725232E+04 -1.178254E+05 -9.537019E+03 -8.766463E+04
       245   6  1.766636E+05  1.157418E+06  2.027541E+05 -1.423280E+05 -3.606227E+03 -1.383878E+05
       245   7  1.703406E+04  1.237795E+06  7.449518E+04 -1.239152E+05 -3.556299E+03 -2.118864E+04
       245   8  8.259549E+04  1.388153E+06  1.515427E+05 -1.588190E+05 -9.531510E+03 -8.746880E+04
       245   9  2.821715E+05  1.580362E+06  3.051127E+05 -2.431663E+05 -3.544553E+03 -1.537405E+05
       245  10 -2.158795E+04  1.077293E+06  4.055570E+04 -1.615804E+05  1.438357E-10 -4.796541E-11
       245  11 -3.955526E+04  8.877004E+05  4.294444E+04 -7.684912E+04  4.893662E-10 -5.758934E-09
       245  12  7.117646E+04  7.346426E+05  1.003605E+05 -4.155881E+04  5.602007E-10  1.352654E-09
       245  13 -2.277470E+03  1.157540E+06  5.752509E+04 -1.427491E+05  1.046252E-09 -2.684819E-09
       245  14  2.151799E+04  1.137892E+06  9.723773E+04 -1.178260E+05 -2.674890E-09  2.795260E-09
       245  15  1.766584E+05  1.157397E+06  2.027182E+05 -1.423284E+05  3.108461E-10  3.326774E-10
       245  16  1.703393E+04  1.237794E+06  7.449432E+04 -1.239153E+05 -9.082647E-10  8.272345E-10
       245  17  8.259334E+04  1.388145E+06  1.515282E+05 -1.588196E+05 -3.146769E-10 -4.349355E-09
       245  18  2.821651E+05  1.580336E+06  3.050684E+05 -2.431668E+05  1.903791E-10 -8.854640E-10
       245  19 -2.158719E+04  1.077296E+06  4.056092E+04 -1.615803E+05  3.475076E+03  5.263822E+04
       245  20 -3.955310E+04  8.877087E+05  4.295910E+04 -7.684845E+04  9.542556E+03  8.786037E+04
       245  21  7.118054E+04  7.346588E+05  1.003889E+05 -4.155845E+04  3.662954E+03  1.230453E+05
       245  22 -2.277092E+03  1.157542E+06  5.752767E+04 -1.427490E+05  3.516165E+03  3.691443E+04
       245  23  2.152015E+04  1.137900E+06  9.725232E+04 -1.178254E+05  9.537019E+03  8.766463E+04
       245  24  1.766636E+05  1.157418E+06  2.027541E+05 -1.423280E+05  3.606227E+03  1.383878E+05
       245  25  1.703406E+04  1.237795E+06  7.449518E+04 -1.239152E+05  3.556299E+03  2.118864E+04
       245  26  8.259549E+04  1.388153E+06  1.515427E+05 -1.588190E+05  9.531510E+03  8.746880E+04
       245  27  2.821715E+05  1.580362E+06  3.051127E+05 -2.431663E+05  3.544553E+03  1.537405E+05
       246   1  1.521495E+06  4.730215E+05  2.391317E+05  5.308040E+05  4.965344E+04  1.345986E+03
       246   2  1.451067E+06  4.509192E+05  1.995933E+05  5.027204E+05  3.389000E+04 -4.364843E+04
       246   3  1.365867E+06  4.371968E+05  1.791861E+05  4.960823E+05  7.559578E+03 -6.059978E+04
       246   4  5.136496E+05  1.036808E+05 -2.283342E+04  2.644163E+05 -8.947064E+03 -2.076051E+04
       246   5  5.257036E+05  1.117558E+05 -1.027065E+04  2.503468E+05  9.394934E+03 -5.290220E+04
       246   6  5.162279E+05  1.214565E+05 -5.566913E+03  2.577254E+05  1.715736E+04 -5.698154E+04
       246   7 -4.931819E+05 -2.655971E+05 -2.848615E+05 -1.579112E+03 -6.744178E+04 -4.282944E+04
       246   8 -3.987890E+05 -2.273416E+05 -2.201843E+05 -1.681977E+03 -1.506023E+04 -6.214131E+04
       246   9 -3.326791E+05 -1.942219E+05 -1.903621E+05  1.966885E+04  2.674096E+04 -5.336874E+04
       246  10  1.521493E+06  4.730209E+05  2.391271E+05  5.308039E+05  1.213198E-09  9.105956E-10
       246  11  1.451066E+06  4.509168E+05  1.995876E+05  5.027216E+05 -2.168320E-09 -2.265406E-09
       246  12  1.365866E+06  4.371928E+05  1.791791E+05  4.960827E+05 -3.569809E-09 -1.436815E-09
       246  13  5.136494E+05  1.036803E+05 -2.283438E+04  2.644162E+05 -4.852487E-10  2.020749E-09
       246  14  5.257028E+05  1.117527E+05 -1.027607E+04  2.503472E+05  3.892241E-11 -2.037651E-09
       246  15  5.162267E+05  1.214530E+05 -5.573570E+03  2.577262E+05 -8.692840E-12  1.718216E-10
       246  16 -4.931873E+05 -2.656003E+05 -2.848735E+05 -1.581439E+03 -3.519962E-10  1.159472E-09
       246  17 -3.987902E+05 -2.273458E+05 -2.201920E+05 -1.682731E+03  1.736644E-09 -4.749917E-09
       246  18 -3.326806E+05 -1.942251E+05 -1.903688E+05  1.967000E+04  1.194490E-09  1.275837E-09
       246  19  1.521495E+06  4.730215E+05  2.391317E+05  5.308040E+05 -4.965344E+04 -1.345986E+03
       246  20  1.451067E+06  4.509192E+05  1.995933E+05  5.027204E+05 -3.389000E+04  4.364843E+04
       246  21  1.365867E+06  4.371968E+05  1.791861E+05  4.960823E+05 -7.559578E+03  6.059978E+04
       246  22  5.136496E+05  1.036808E+05 -2.283342E+04  2.644163E+05  8.947064E+03  2.076051E+04
       246  23  5.257036E+05  1.117558E+05 -1.027065E+04  2.503468E+05 -9.394934E+03  5.290220E+04
       246  24  5.162279E+05  1.214565E+05 -5.566913E+03  2.577254E+05 -1.715736E+04  5.698154E+04
       246  25 -4.931819E+05 -2.655971E+05 -2.848615E+05 -1.579112E+03  6.744178E+04  4.282944E+04
       246  26 -3.987890E+05 -2.273416E+05 -2.201843E+05 -1.681977E+03  1.506023E+04  6.214131E+04
       246  27 -3.326791E+05 -1.942219E+05 -1.903621E+05  1.966885E+04 -2.674096E+04  5.336874E+04
       247   1  1.314386E+06  4.151015E+05  1.693481E+05  4.802584E+05  1.347651E+04 -5.369455E+04
       247   2  1.249233E+06  3.802538E+05  1.538771E+05  4.504644E+05  1.160968E+04 -5.090165E+04
       247   3  1.167455E+06  3.619122E+05  1.388933E+05  4.397859E+05  9.160577E+03 -4.657871E+04
       247   4  5.166890E+05  1.207042E+05 -4.307808E+03  2.587178E+05  1.627288E+04 -5.264441E+04
       247   5  5.252629E+05  1.130392E+05 -2.276672E+03  2.490145E+05  1.626583E+04 -4.914665E+04
       247   6  5.168374E+05  1.215128E+05 -1.231414E+03  2.584264E+05  1.567609E+04 -4.411789E+04
       247   7 -2.803700E+05 -1.736440E+05 -1.780033E+05  3.743620E+04  1.906539E+04 -5.159574E+04
       247   8 -1.981788E+05 -1.541334E+05 -1.584617E+05  4.777932E+04  2.091614E+04 -4.739386E+04
       247   9 -1.333507E+05 -1.188515E+05 -1.413806E+05  7.724119E+04  2.218425E+04 -4.165987E+04
       247  10  1.314385E+06  4.150983E+05  1.693424E+05  4.802590E+05 -3.336525E-10  7.074105E-10
       247  11  1.249233E+06  3.802510E+05  1.538720E+05  4.504649E+05 -8.237840E-09  1.978217E-09
       247  12  1.167454E+06  3.619099E+05  1.388891E+05  4.397863E+05 -1.144674E-08 -1.736786E-11
       247  13  5.166880E+05  1.207011E+05 -4.313515E+03  2.587185E+05 -3.058832E-09  5.718467E-09
       247  14  5.252620E+05  1.130365E+05 -2.281710E+03  2.490152E+05 -8.435554E-09 -1.687323E-08
       247  15  5.168366E+05  1.215107E+05 -1.235535E+03  2.584269E+05 -5.306120E-09  5.935931E-09
       247  16 -2.803711E+05 -1.736469E+05 -1.780089E+05  3.743699E+04 -6.289073E-09 -5.858431E-10
       247  17 -1.981799E+05 -1.541360E+05 -1.584668E+05  4.778012E+04 -7.560656E-09  1.925045E-09
       247  18 -1.333517E+05 -1.188535E+05 -1.413848E+05  7.724193E+04  5.663806E-09  2.267963E-09
       247  19  1.314386E+06  4.151015E+05  1.693481E+05  4.802584E+05 -1.347651E+04  5.369455E+04
       247  20  1.249233E+06  3.802538E+05  1.538771E+05  4.504644E+05 -1.160968E+04  5.090165E+04
       247  21  1.167455E+06  3.619122E+05  1.388933E+05  4.397859E+05 -9.160577E+03  4.657871E+04
       247  22  5.166890E+05  1.207042E+05 -4.307808E+03  2.587178E+05 -1.627288E+04  5.264441E+04
       247  23  5.252629E+05  1.130392E+05 -2.276672E+03  2.490145E+05 -1.626583E+04  4.914665E+04
       247  24  5.168374E+05  1.215128E+05 -1.231414E+03  2.584264E+05 -1.567609E+04  4.411789E+04
       247  25 -2.803700E+05 -1.736440E+05 -1.780033E+05  3.743620E+04 -1.906539E+04  5.159574E+04
       247  26 -1.981788E+05 -1.541334E+05 -1.584617E+05  4.777932E+04 -2.091614E+04  4.739386E+04
       247  27 -1.333507E+05 -1.188515E+05 -1.413806E+05  7.724119E+04 -2.218425E+04  4.165987E+04
       248   1  1.115231E+06  3.424470E+05  1.275528E+05  4.252086E+05  8.549251E+03 -4.327951E+04
       248   2  1.050672E+06  3.072773E+05  1.124577E+05  3.954432E+05  6.776810E+03 -3.814023E+04
       248   3  9.694277E+05  2.888376E+05  9.726645E+04  3.846176E+05  4.972265E+03 -3.292492E+04
       248   4  5.168921E+05  1.214803E+05 -9.228195E+02  2.584536E+05  1.468111E+04 -4.096249E+04
       248   5  5.252671E+05  1.131695E+05 -4.851625E+02  2.489729E+05  1.300123E+04 -3.578628E+04
       248   6  5.169322E+05  1.215709E+05 -2.175939E+02  2.584313E+05  1.128923E+04 -3.053395E+04
       248   7 -8.107931E+04 -9.945507E+04 -1.294178E+05  9.184721E+04  2.080655E+04 -3.864791E+04
       248   8  1.428818E+02 -8.091542E+04 -1.134438E+05  1.026164E+05  1.921996E+04 -3.343449E+04
       248   9  6.464147E+04 -4.568004E+04 -9.771425E+04  1.323286E+05  1.760127E+04 -2.814486E+04
       248  10  1.115231E+06  3.424450E+05  1.275492E+05  4.252089E+05 -1.723475E-08 -5.524165E-09
       248  11  1.050671E+06  3.072758E+05  1.124549E+05  3.954434E+05 -1.463660E-08 -8.893700E-09
       248  12  9.694274E+05  2.888364E+05  9.726437E+04  3.846177E+05  8.071780E-10 -9.753542E-10
       248  13  5.168914E+05  1.214785E+05 -9.263788E+02  2.584541E+05 -2.681936E-09  5.079571E-10
       248  14  5.252666E+05  1.131681E+05 -4.878876E+02  2.489733E+05 -4.767274E-09 -1.001483E-08
       248  15  5.169318E+05  1.215698E+05 -2.195860E+02  2.584316E+05  1.763395E-10 -2.094005E-09
       248  16 -8.108018E+04 -9.945679E+04 -1.294214E+05  9.184786E+04  1.292735E-08  9.990047E-09
       248  17  1.421847E+02 -8.091672E+04 -1.134466E+05  1.026169E+05  4.633243E-09  6.679251E-10
       248  18  6.464093E+04 -4.568098E+04 -9.771632E+04  1.323290E+05 -1.563044E-09 -8.517803E-09
       248  19  1.115231E+06  3.424470E+05  1.275528E+05  4.252086E+05 -8.549251E+03  4.327951E+04
       248  20  1.050672E+06  3.072773E+05  1.124577E+05  3.954432E+05 -6.776810E+03  3.814023E+04
       248  21  9.694277E+05  2.888376E+05  9.726645E+04  3.846176E+05 -4.972265E+03  3.292492E+04
       248  22  5.168921E+05  1.214803E+05 -9.228195E+02  2.584536E+05 -1.468111E+04  4.096249E+04
       248  23  5.252671E+05  1.131695E+05 -4.851625E+02  2.489729E+05 -1.300123E+04  3.578628E+04
       248  24  5.169322E+05  1.215709E+05 -2.175939E+02  2.584313E+05 -1.128923E+04  3.053395E+04
       248  25 -8.107931E+04 -9.945507E+04 -1.294178E+05  9.184721E+04 -2.080655E+04  3.864791E+04
       248  26  1.428818E+02 -8.091542E+04 -1.134438E+05  1.026164E+05 -1.921996E+04  3.343449E+04
       248  27  6.464147E+04 -4.568004E+04 -9.771425E+04  1.323286E+05 -1.760127E+04  2.814486E+04
       249   1  9.174050E+05  2.695412E+05  8.572076E+04  3.701350E+05  3.884366E+03 -2.988180E+04
       249   2  8.531244E+05  2.344416E+05  7.050524E+04  3.404510E+05  1.909117E+03 -2.471203E+04
       249   3  7.721900E+05  2.160281E+05  5.530648E+04  3.296283E+05 -6.782339E+01 -1.954310E+04
       249   4  5.169521E+05  1.215663E+05 -1.288476E+02  2.584170E+05  1.017344E+04 -2.750044E+04
       249   5  5.252926E+05  1.132431E+05  3.260868E+01  2.489831E+05  8.197194E+03 -2.232986E+04
       249   6  5.169732E+05  1.216061E+05  2.111766E+02  2.584087E+05  6.219251E+03 -1.716010E+04
       249   7  1.166623E+05 -2.639527E+04 -8.598748E+04  1.467652E+05  1.645813E+04 -2.512075E+04
       249   8  1.975713E+05 -7.945813E+03 -7.044573E+04  1.575599E+05  1.448166E+04 -1.994906E+04
       249   9  2.618245E+05  2.719023E+04 -5.488725E+04  1.872165E+05  1.250349E+04 -1.477818E+04
       249  10  9.174048E+05  2.695403E+05  8.571906E+04  3.701351E+05  1.571352E-08  6.249943E-09
       249  11  8.531243E+05  2.344409E+05  7.050408E+04  3.404511E+05  8.481353E-09  9.339562E-09
       249  12  7.721899E+05  2.160277E+05  5.530576E+04  3.296283E+05 -5.515286E-10  5.567970E-09
       249  13  5.169518E+05  1.215654E+05 -1.304638E+02  2.584172E+05  7.409675E-10  1.219460E-09
       249  14  5.252924E+05  1.132426E+05  3.154508E+01  2.489833E+05 -1.218444E-09  2.244135E-09
       249  15  5.169731E+05  1.216058E+05  2.105504E+02  2.584088E+05 -3.515719E-09  5.552612E-10
       249  16  1.166618E+05 -2.639602E+04 -8.598918E+04  1.467655E+05 -1.330591E-08 -5.010195E-09
       249  17  1.975709E+05 -7.946297E+03 -7.044687E+04  1.575602E+05 -1.214843E-08 -4.115155E-09
       249  18  2.618242E+05  2.718995E+04 -5.488796E+04  1.872167E+05 -2.640432E-09  3.939719E-09
       249  19  9.174050E+05  2.695412E+05  8.572076E+04  3.701350E+05 -3.884366E+03  2.988180E+04
       249  20  8.531244E+05  2.344416E+05  7.050524E+04  3.404510E+05 -1.909117E+03  2.471203E+04
       249  21  7.721900E+05  2.160281E+05  5.530648E+04  3.296283E+05  6.782339E+01  1.954310E+04
       249  22  5.169521E+05  1.215663E+05 -1.288476E+02  2.584170E+05 -1.017344E+04  2.750044E+04
       249  23  5.252926E+05  1.132431E+05  3.260868E+01  2.489831E+05 -8.197194E+03  2.232986E+04
       249  24  5.169732E+05  1.216061E+05  2.111766E+02  2.584087E+05 -6.219251E+03  1.716010E+04
       249  25  1.166623E+05 -2.639527E+04 -8.598748E+04  1.467652E+05 -1.645813E+04  2.512075E+04
       249  26  1.975713E+05 -7.945813E+03 -7.044573E+04  1.575599E+05 -1.448166E+04  1.994906E+04
       249  27  2.618245E+05  2.719023E+04 -5.488725E+04  1.872165E+05 -1.250349E+04  1.477818E+04
       250   1  7.203197E+05  1.967733E+05  4.380490E+04  3.151825E+05 -1.249011E+03 -1.654725E+04
       250   2  6.561643E+05  1.617087E+05  2.877697E+04  2.855556E+05 -3.519039E+03 -1.149516E+04
       250   3  5.754007E+05  1.433155E+05  1.398149E+04  2.747581E+05 -5.788103E+03 -6.447616E+03
       250   4  5.169904E+05  1.216056E+05  3.177747E+02  2.584035E+05  5.033373E+03 -1.416551E+04
       250   5  5.252992E+05  1.132715E+05  6.352096E+02  2.489898E+05  2.757706E+03 -9.115074E+03
       250   6  5.169967E+05  1.216102E+05  1.189899E+03  2.584042E+05  4.829638E+02 -4.069186E+03
       250   7  3.137018E+05  4.644082E+04 -4.317195E+04  2.016412E+05  1.131358E+04 -1.178461E+04
       250   8  3.944511E+05  6.483562E+04 -2.750751E+04  2.124311E+05  9.033046E+03 -6.735523E+03
       250   9  4.585963E+05  9.990528E+04 -1.160173E+04  2.420518E+05  6.753394E+03 -1.690999E+03
       250  10  7.203196E+05  1.967730E+05  4.380438E+04  3.151825E+05 -2.320770E-09  6.953027E-09
       250  11  6.561642E+05  1.617086E+05  2.877670E+04  2.855555E+05  2.605789E-09  4.173050E-09
       250  12  5.754006E+05  1.433154E+05  1.398135E+04  2.747581E+05  7.784847E-09 -2.319747E-09
       250  13  5.169903E+05  1.216054E+05  3.173499E+02  2.584036E+05 -7.803829E-10  2.697020E-09
       250  14  5.252991E+05  1.132714E+05  6.350391E+02  2.489898E+05 -3.632598E-10  9.524179E-09
       250  15  5.169967E+05  1.216102E+05  1.189867E+03  2.584042E+05  3.814354E-10  4.117085E-09
       250  16  3.137016E+05  4.644063E+04 -4.317245E+04  2.016413E+05 -4.039349E-10  4.706878E-10
       250  17  3.944510E+05  6.483555E+04 -2.750775E+04  2.124311E+05 -2.871490E-09  7.793858E-09
       250  18  4.585962E+05  9.990527E+04 -1.160182E+04  2.420518E+05 -4.683761E-09 -5.046117E-09
       250  19  7.203197E+05  1.967733E+05  4.380490E+04  3.151825E+05  1.249011E+03  1.654725E+04
       250  20  6.561643E+05  1.617087E+05  2.877697E+04  2.855556E+05  3.519039E+03  1.149516E+04
       250  21  5.754007E+05  1.433155E+05  1.398149E+04  2.747581E+05  5.788103E+03  6.447616E+03
       250  22  5.169904E+05  1.216056E+05  3.177747E+02  2.584035E+05 -5.033373E+03  1.416551E+04
       250  23  5.252992E+05  1.132715E+05  6.352096E+02  2.489898E+05 -2.757706E+03  9.115074E+03
       250  24  5.169967E+05  1.216102E+05  1.189899E+03  2.584042E+05 -4.829638E+02  4.069186E+03
       250  25  3.137018E+05  4.644082E+04 -4.317195E+04  2.016412E+05 -1.131358E+04  1.178461E+04
       250  26  3.944511E+05  6.483562E+04 -2.750751E+04  2.124311E+05 -9.033046E+03  6.735523E+03
       250  27  4.585963E+05  9.990528E+04 -1.160173E+04  2.420518E+05 -6.753394E+03  1.690999E+03
       251   1  5.236086E+05  1.240949E+05  2.793252E+03  2.603733E+05 -7.171042E+03 -3.529894E+03
       251   2  4.593702E+05  8.901092E+04 -1.125583E+04  2.307546E+05 -1.051593E+04  1.092187E+03
       251   3  3.787232E+05  7.075336E+04 -2.422985E+04  2.199725E+05 -1.384296E+04  5.669016E+03
       251   4  5.170379E+05  1.216051E+05  1.595639E+03  2.584217E+05 -8.896491E+02 -1.147482E+03
       251   5  5.252438E+05  1.132312E+05  2.905298E+03  2.489869E+05 -4.290195E+03  3.453229E+03
       251   6  5.170467E+05  1.216938E+05  5.333916E+03  2.583863E+05 -7.673088E+03  8.008656E+03
       251   7  5.104673E+05  1.191154E+05  3.982057E+02  2.564702E+05  5.391629E+03  1.234884E+03
       251   8  5.911220E+05  1.374518E+05  1.706634E+04  2.672210E+05  1.936251E+03  5.814538E+03
       251   9  6.553908E+05  1.726362E+05  3.489702E+04  2.968082E+05 -1.501686E+03  1.034887E+04
       251  10  5.236086E+05  1.240948E+05  2.793133E+03  2.603733E+05  6.872155E-09  1.146861E-09
       251  11  4.593700E+05  8.901089E+04 -1.125604E+04  2.307546E+05 -4.053848E-10 -1.135935E-08
       251  12  3.787230E+05  7.075327E+04 -2.423027E+04  2.199725E+05 -6.804399E-09 -7.285901E-09
       251  13  5.170379E+05  1.216051E+05  1.595635E+03  2.584217E+05  1.851609E-09  3.360432E-09
       251  14  5.252438E+05  1.132311E+05  2.905241E+03  2.489869E+05  1.919074E-09 -2.377659E-09
       251  15  5.170466E+05  1.216937E+05  5.333685E+03  2.583863E+05 -1.301592E-09 -2.681589E-09
       251  16  5.104673E+05  1.191154E+05  3.981483E+02  2.564702E+05 -1.469657E-09 -5.880225E-09
       251  17  5.911220E+05  1.374518E+05  1.706627E+04  2.672210E+05  3.035242E-09 -5.551169E-09
       251  18  6.553907E+05  1.726361E+05  3.489681E+04  2.968082E+05  6.432350E-09  6.780189E-09
       251  19  5.236086E+05  1.240949E+05  2.793252E+03  2.603733E+05  7.171042E+03  3.529894E+03
       251  20  4.593702E+05  8.901092E+04 -1.125583E+04  2.307546E+05  1.051593E+04 -1.092187E+03
       251  21  3.787232E+05  7.075336E+04 -2.422985E+04  2.199725E+05  1.384296E+04 -5.669016E+03
       251  22  5.170379E+05  1.216051E+05  1.595639E+03  2.584217E+05  8.896491E+02  1.147482E+03
       251  23  5.252438E+05  1.132312E+05  2.905298E+03  2.489869E+05  4.290195E+03 -3.453229E+03
       251  24  5.170467E+05  1.216938E+05  5.333916E+03  2.583863E+05  7.673088E+03 -8.008656E+03
       251  25  5.104673E+05  1.191154E+05  3.982057E+02  2.564702E+05 -5.391629E+03 -1.234884E+03
       251  26  5.911220E+05  1.374518E+05  1.706634E+04  2.672210E+05 -1.936251E+03 -5.814538E+03
       251  27  6.553908E+05  1.726362E+05  3.489702E+04  2.968082E+05  1.501686E+03 -1.034887E+04
       252   1  3.267090E+05  5.171755E+04 -3.406152E+04  2.062612E+05 -1.619889E+04  8.253612E+03
       252   2  2.625563E+05  1.602349E+04 -4.392056E+04  1.753540E+05 -2.349090E+04  1.101711E+04
       252   3  1.837629E+05  3.941307E+02 -4.879957E+04  1.626109E+05 -3.046328E+04  1.294345E+04
       252   4  5.173358E+05  1.214644E+05  7.084404E+03  2.586108E+05 -9.823594E+03  1.067081E+04
       252   5  5.248387E+05  1.133336E+05  1.287601E+04  2.487682E+05 -1.813562E+04  1.304660E+04
       252   6  5.178963E+05  1.254672E+05  2.445412E+04  2.570866E+05 -2.612876E+04  1.458516E+04
       252   7  7.079995E+05  1.912140E+05  4.822837E+04  3.109751E+05 -3.446183E+03  1.308878E+04
       252   8  7.871900E+05  2.106492E+05  6.966838E+04  3.222105E+05 -1.277793E+04  1.507701E+04
       252   9  8.521405E+05  2.505492E+05  9.770047E+04  3.516085E+05 -2.179174E+04  1.622784E+04
       252  10  3.267087E+05  5.171740E+04 -3.406214E+04  2.062614E+05  5.096776E-09 -1.403159E-09
       252  11  2.625556E+05  1.602322E+04 -4.392183E+04  1.753542E+05 -4.745704E-10 -1.587141E-10
       252  12  1.837618E+05  3.937015E+02 -4.880163E+04  1.626112E+05 -5.944363E-09 -4.996090E-09
       252  13  5.173357E+05  1.214642E+05  7.084008E+03  2.586109E+05 -6.257061E-10  2.695809E-09
       252  14  5.248383E+05  1.133333E+05  1.287507E+04  2.487683E+05  3.073620E-09  2.069243E-08
       252  15  5.178955E+05  1.254668E+05  2.445244E+04  2.570869E+05  2.521146E-09 -1.830386E-09
       252  16  7.079995E+05  1.912138E+05  4.822802E+04  3.109751E+05 -5.448902E-09  5.935946E-09
       252  17  7.871898E+05  2.106489E+05  6.966764E+04  3.222107E+05  1.185599E-09  7.240847E-09
       252  18  8.521399E+05  2.505487E+05  9.769908E+04  3.516088E+05  4.725997E-09  1.336236E-08
       252  19  3.267090E+05  5.171755E+04 -3.406152E+04  2.062612E+05  1.619889E+04 -8.253612E+03
       252  20  2.625563E+05  1.602349E+04 -4.392056E+04  1.753540E+05  2.349090E+04 -1.101711E+04
       252  21  1.837629E+05  3.941307E+02 -4.879957E+04  1.626109E+05  3.046328E+04 -1.294345E+04
       252  22  5.173358E+05  1.214644E+05  7.084404E+03  2.586108E+05  9.823594E+03 -1.067081E+04
       252  23  5.248387E+05  1.133336E+05  1.287601E+04  2.487682E+05  1.813562E+04 -1.304660E+04
       252  24  5.178963E+05  1.254672E+05  2.445412E+04  2.570866E+05  2.612876E+04 -1.458516E+04
       252  25  7.079995E+05  1.912140E+05  4.822837E+04  3.109751E+05  3.446183E+03 -1.308878E+04
       252  26  7.871900E+05  2.106492E+05  6.966838E+04  3.222105E+05  1.277793E+04 -1.507701E+04
       252  27  8.521405E+05  2.505492E+05  9.770047E+04  3.516085E+05  2.179174E+04 -1.622784E+04
       253   1  1.255405E+05 -1.505206E+04 -5.290136E+04  1.631418E+05 -3.927437E+04  1.369993E+04
       253   2  7.704336E+04 -6.510470E+04 -4.700822E+04  9.759781E+04 -5.100553E+04  8.087607E+03
       253   3  4.332759E+04 -2.193334E+04 -1.086384E+04  2.975164E+04 -5.693999E+04 -1.283045E+04
       253   4  5.219185E+05  1.196336E+05  3.161816E+04  2.611946E+05 -3.123932E+04  1.674412E+04
       253   5  5.199162E+05  1.216630E+05  5.811620E+04  2.432186E+05 -6.156519E+04  4.083826E+03
       253   6  5.363506E+05  2.205584E+05  1.295870E+05  2.229435E+05 -8.609885E+04 -2.387898E+04
       253   7  9.184597E+05  2.543276E+05  1.161302E+05  3.593031E+05 -2.319864E+04  1.979006E+04
       253   8  9.629875E+05  3.084622E+05  1.632271E+05  3.889401E+05 -7.213299E+04  7.602540E+01
       253   9  1.029614E+06  4.631179E+05  2.700171E+05  4.162891E+05 -1.152826E+05 -3.494357E+04
       253  10  1.255388E+05 -1.505268E+04 -5.290461E+04  1.631423E+05  3.227327E-09  1.903728E-09
       253  11  7.704055E+04 -6.510546E+04 -4.701323E+04  9.759815E+04  5.149759E-09  2.700054E-09
       253  12  4.332407E+04 -2.193439E+04 -1.087024E+04  2.975105E+04  3.832504E-09  4.528940E-10
       253  13  5.219174E+05  1.196331E+05  3.161580E+04  2.611950E+05 -7.808151E-11 -8.063568E-10
       253  14  5.199122E+05  1.216620E+05  5.810905E+04  2.432189E+05 -5.268785E-09 -2.374225E-09
       253  15  5.363425E+05  2.205558E+05  1.295720E+05  2.229419E+05  6.173783E-10  3.427323E-09
       253  16  9.184590E+05  2.543270E+05  1.161284E+05  3.593035E+05 -6.066216E-09  1.242408E-08
       253  17  9.629819E+05  3.084608E+05  1.632174E+05  3.889401E+05 -8.023192E-09 -7.659456E-09
       253  18  1.029599E+06  4.631131E+05  2.699899E+05  4.162858E+05 -4.186262E-09 -1.534080E-09
       253  19  1.255405E+05 -1.505206E+04 -5.290136E+04  1.631418E+05  3.927437E+04 -1.369993E+04
       253  20  7.704336E+04 -6.510470E+04 -4.700822E+04  9.759781E+04  5.100553E+04 -8.087607E+03
       253  21  4.332759E+04 -2.193334E+04 -1.086384E+04  2.975164E+04  5.693999E+04  1.283045E+04
       253  22  5.219185E+05  1.196336E+05  3.161816E+04  2.611946E+05  3.123932E+04 -1.674412E+04
       253  23  5.199162E+05  1.216630E+05  5.811620E+04  2.432186E+05  6.156519E+04 -4.083826E+03
       253  24  5.363506E+05  2.205584E+05  1.295870E+05  2.229435E+05  8.609885E+04  2.387898E+04
       253  25  9.184597E+05  2.543276E+05  1.161302E+05  3.593031E+05  2.319864E+04 -1.979006E+04
       253  26  9.629875E+05  3.084622E+05  1.632271E+05  3.889401E+05  7.213299E+04 -7.602540E+01
       253  27  1.029614E+06  4.631179E+05  2.700171E+05  4.162891E+05  1.152826E+05  3.494357E+04
       254   1  5.706110E+04 -1.441678E+03 -4.038379E+03 -9.000429E+02 -8.508239E+03 -6.195993E+02
       254   2  5.058584E+04  8.618384E+03  1.267416E+03  1.987693E+03 -6.168430E+03 -1.826882E+03
       254   3  4.110636E+04  7.967003E+03  2.370402E+03  7.563323E+03 -3.832964E+03 -1.772185E+03
       254   4  1.031226E+04 -1.298560E+04 -1.528904E+04  5.841704E+03 -1.054603E+04 -6.266580E+02
       254   5  1.193558E+04 -7.625397E+02 -7.092584E+03  4.474651E+03 -6.813181E+03 -1.829125E+03
       254   6  1.031252E+04  5.067858E+02 -4.066542E+03  5.795537E+03 -3.084633E+03 -1.769609E+03
       254   7 -3.643448E+04 -2.452950E+04 -2.653981E+04  1.258294E+04 -1.258367E+04 -6.337612E+02
       254   8 -2.671326E+04 -1.014354E+04 -1.545267E+04  6.961451E+03 -7.457892E+03 -1.831373E+03
       254   9 -2.048043E+04 -6.953480E+03 -1.050353E+04  4.027840E+03 -2.336338E+03 -1.767037E+03
       254  10  5.706102E+04 -1.441698E+03 -4.038516E+03 -9.000472E+02 -1.013973E-08  3.617990E-09
       254  11  5.058580E+04  8.618370E+03  1.267339E+03  1.987684E+03 -1.184336E-09  1.393712E-08
       254  12  4.110635E+04  7.966996E+03  2.370369E+03  7.563317E+03  6.378878E-09  4.989369E-09
       254  13  1.031214E+04 -1.298563E+04 -1.528925E+04  5.841699E+03  9.106318E-10 -4.335366E-09
       254  14  1.193553E+04 -7.625557E+02 -7.092677E+03  4.474641E+03  5.959833E-10 -1.184997E-08
       254  15  1.031250E+04  5.067799E+02 -4.066566E+03  5.795533E+03  3.486190E-09  3.161350E-10
       254  16 -3.643465E+04 -2.452954E+04 -2.654011E+04  1.258293E+04  9.915624E-09 -7.045418E-10
       254  17 -2.671332E+04 -1.014356E+04 -1.545278E+04  6.961440E+03  1.952138E-09  9.920805E-09
       254  18 -2.048044E+04 -6.953485E+03 -1.050355E+04  4.027837E+03 -6.392559E-09 -1.882366E-09
       254  19  5.706110E+04 -1.441678E+03 -4.038379E+03 -9.000429E+02  8.508239E+03  6.195993E+02
       254  20  5.058584E+04  8.618384E+03  1.267416E+03  1.987693E+03  6.168430E+03  1.826882E+03
       254  21  4.110636E+04  7.967003E+03  2.370402E+03  7.563323E+03  3.832964E+03  1.772185E+03
       254  22  1.031226E+04 -1.298560E+04 -1.528904E+04  5.841704E+03  1.054603E+04  6.266580E+02
       254  23  1.193558E+04 -7.625397E+02 -7.092584E+03  4.474651E+03  6.813181E+03  1.829125E+03
       254  24  1.031252E+04  5.067858E+02 -4.066542E+03  5.795537E+03  3.084633E+03  1.769609E+03
       254  25 -3.643448E+04 -2.452950E+04 -2.653981E+04  1.258294E+04  1.258367E+04  6.337612E+02
       254  26 -2.671326E+04 -1.014354E+04 -1.545267E+04  6.961451E+03  7.457892E+03  1.831373E+03
       254  27 -2.048043E+04 -6.953480E+03 -1.050353E+04  4.027840E+03  2.336338E+03  1.767037E+03
       255   1  3.584977E+04  5.499557E+03  2.021023E+03  5.696473E+03 -2.952126E+03 -1.409450E+03
       255   2  2.803668E+04  4.115446E+03  1.778634E+03  4.461482E+03 -2.150275E+03 -9.909512E+02
       255   3  1.997544E+04  2.249728E+03  8.882737E+02  5.952015E+03 -1.348671E+03 -5.089778E+02
       255   4  1.097608E+04 -5.162484E+02 -3.191250E+03  5.815342E+03 -2.528110E+03 -1.407996E+03
       255   5  1.110637E+04  2.445376E+01 -1.746917E+03  4.451563E+03 -1.656220E+03 -9.892511E+02
       255   6  1.097616E+04  7.134878E+01 -9.992489E+02  5.813315E+03 -7.845682E+02 -5.070311E+02
       255   7 -1.389702E+04 -6.532093E+03 -8.403556E+03  5.934206E+03 -2.104111E+03 -1.406541E+03
       255   8 -5.823669E+03 -4.066557E+03 -5.272482E+03  4.441643E+03 -1.162178E+03 -9.875509E+02
       255   9  1.976956E+03 -2.107036E+03 -2.886775E+03  5.674617E+03 -2.204731E+02 -5.050847E+02
       255  10  3.584976E+04  5.499552E+03  2.021003E+03  5.696470E+03 -2.959239E-09 -2.739753E-10
       255  11  2.803667E+04  4.115444E+03  1.778623E+03  4.461480E+03  2.980515E-09  7.670376E-09
       255  12  1.997544E+04  2.249727E+03  8.882698E+02  5.952014E+03  9.522669E-09  1.051166E-08
       255  13  1.097607E+04 -5.162522E+02 -3.191266E+03  5.815339E+03  1.984519E-09  1.294818E-08
       255  14  1.110636E+04  2.445197E+01 -1.746924E+03  4.451561E+03  1.693050E-09 -2.211961E-08
       255  15  1.097616E+04  7.134834E+01 -9.992505E+02  5.813315E+03  2.427453E-09  4.566161E-09
       255  16 -1.389703E+04 -6.532096E+03 -8.403568E+03  5.934203E+03  2.754880E-09 -9.652916E-09
       255  17 -5.823671E+03 -4.066558E+03 -5.272486E+03  4.441642E+03 -1.590574E-09 -3.320048E-09
       255  18  1.976956E+03 -2.107036E+03 -2.886775E+03  5.674617E+03 -7.408733E-09 -4.328065E-10
       255  19  3.584977E+04  5.499557E+03  2.021023E+03  5.696473E+03  2.952126E+03  1.409450E+03
       255  20  2.803668E+04  4.115446E+03  1.778634E+03  4.461482E+03  2.150275E+03  9.909512E+02
       255  21  1.997544E+04  2.249728E+03  8.882737E+02  5.952015E+03  1.348671E+03  5.089778E+02
       255  22  1.097608E+04 -5.162484E+02 -3.191250E+03  5.815342E+03  2.528110E+03  1.407996E+03
       255  23  1.110637E+04  2.445376E+01 -1.746917E+03  4.451563E+03  1.656220E+03  9.892511E+02
       255  24  1.097616E+04  7.134878E+01 -9.992489E+02  5.813315E+03  7.845682E+02  5.070311E+02
       255  25 -1.389702E+04 -6.532093E+03 -8.403556E+03  5.934206E+03  2.104111E+03  1.406541E+03
       255  26 -5.823669E+03 -4.066557E+03 -5.272482E+03  4.441643E+03  1.162178E+03  9.875509E+02
       255  27  1.976956E+03 -2.107036E+03 -2.886775E+03  5.674617E+03  2.204731E+02  5.050847E+02
       256   1  1.412598E+04  7.719522E+02 -1.329529E+02  5.847501E+03 -1.178250E+03 -2.127675E+02
       256   2  6.216506E+03 -1.128527E+03 -1.422275E+03  4.458128E+03 -9.745084E+02  2.857138E+02
       256   3 -1.744631E+03 -3.034629E+03 -2.851484E+03  5.796570E+03 -7.707748E+02  7.873828E+02
       256   4  1.102246E+04  2.583206E+01 -7.588727E+02  5.814351E+03 -6.304658E+02 -2.108763E+02
       256   5  1.104855E+04  3.779769E+01 -4.220721E+02  4.450411E+03 -4.232058E+02  2.876157E+02
       256   6  1.102243E+04  4.356297E+01 -2.275715E+02  5.814286E+03 -2.159511E+02  7.892956E+02
       256   7  7.918946E+03 -7.202886E+02 -1.384792E+03  5.781201E+03 -8.268453E+01 -2.089852E+02
       256   8  1.588062E+04  1.204121E+03  5.781307E+02  4.442695E+03  1.281009E+02  2.895175E+02
       256   9  2.378965E+04  3.121744E+03  2.396334E+03  5.832003E+03  3.388839E+02  7.912084E+02
       256  10  1.412598E+04  7.719518E+02 -1.329556E+02  5.847501E+03 -2.372645E-09 -4.598317E-10
       256  11  6.216505E+03 -1.128527E+03 -1.422277E+03  4.458128E+03  1.755490E-08 -3.944290E-09
       256  12 -1.744632E+03 -3.034629E+03 -2.851487E+03  5.796570E+03  2.810114E-08 -3.391250E-09
       256  13  1.102246E+04  2.583190E+01 -7.588735E+02  5.814351E+03  9.240328E-10 -1.030604E-09
       256  14  1.104855E+04  3.779756E+01 -4.220726E+02  4.450411E+03  1.156122E-09 -4.162900E-09
       256  15  1.102243E+04  4.356229E+01 -2.275728E+02  5.814286E+03  2.087593E-09  1.872590E-09
       256  16  7.918945E+03 -7.202886E+02 -1.384792E+03  5.781201E+03  1.097051E-09 -7.952436E-09
       256  17  1.588062E+04  1.204121E+03  5.781305E+02  4.442695E+03 -1.480252E-08  1.370903E-09
       256  18  2.378965E+04  3.121744E+03  2.396332E+03  5.832003E+03 -2.872929E-08  9.687525E-09
       256  19  1.412598E+04  7.719522E+02 -1.329529E+02  5.847501E+03  1.178250E+03  2.127675E+02
       256  20  6.216506E+03 -1.128527E+03 -1.422275E+03  4.458128E+03  9.745084E+02 -2.857138E+02
       256  21 -1.744631E+03 -3.034629E+03 -2.851484E+03  5.796570E+03  7.707748E+02 -7.873828E+02
       256  22  1.102246E+04  2.583206E+01 -7.588727E+02  5.814351E+03  6.304658E+02  2.108763E+02
       256  23  1.104855E+04  3.779769E+01 -4.220721E+02  4.450411E+03  4.232058E+02 -2.876157E+02
       256  24  1.102243E+04  4.356297E+01 -2.275715E+02  5.814286E+03  2.159511E+02 -7.892956E+02
       256  25  7.918946E+03 -7.202886E+02 -1.384792E+03  5.781201E+03  8.268453E+01  2.089852E+02
       256  26  1.588062E+04  1.204121E+03  5.781307E+02  4.442695E+03 -1.281009E+02 -2.895175E+02
       256  27  2.378965E+04  3.121744E+03  2.396334E+03  5.832003E+03 -3.388839E+02 -7.912084E+02
       257   1 -7.632346E+03 -4.467925E+03 -4.047524E+03  5.776350E+03 -7.359311E+02  1.079906E+03
       257   2 -1.555652E+04 -6.390001E+03 -5.567978E+03  4.390216E+03 -7.093909E+02  1.581909E+03
       257   3 -2.350314E+04 -8.294525E+03 -7.107090E+03  5.732205E+03 -6.828371E+02  2.084058E+03
       257   4  1.102899E+04  4.192009E+01 -1.601744E+02  5.814376E+03 -1.819240E+02  1.081814E+03
       257   5  1.104019E+04  3.166930E+01 -5.747785E+01  4.450321E+03 -1.552253E+02  1.583809E+03
       257   6  1.102885E+04  3.894679E+01  2.645079E+01  5.814382E+03 -1.285127E+02  2.085951E+03
       257   7  2.969065E+04  4.551743E+03  3.727157E+03  5.852402E+03  3.720995E+02  1.083721E+03
       257   8  3.763756E+04  6.453295E+03  5.452985E+03  4.510428E+03  3.989637E+02  1.585710E+03
       257   9  4.556197E+04  8.372343E+03  7.159928E+03  5.896563E+03  4.258421E+02  2.087845E+03
       257  10 -7.632347E+03 -4.467927E+03 -4.047527E+03  5.776351E+03 -3.264831E-08 -4.864228E-09
       257  11 -1.555652E+04 -6.390004E+03 -5.567984E+03  4.390217E+03 -3.985339E-09  4.137179E-10
       257  12 -2.350314E+04 -8.294529E+03 -7.107099E+03  5.732206E+03  2.450272E-08  2.425787E-09
       257  13  1.102899E+04  4.191882E+01 -1.601766E+02  5.814376E+03 -1.002702E-10  4.329734E-09
       257  14  1.104019E+04  3.166660E+01 -5.748261E+01  4.450322E+03 -3.144788E-09 -2.308327E-09
       257  15  1.102885E+04  3.894211E+01  2.644259E+01  5.814382E+03  2.210552E-09  6.801308E-10
       257  16  2.969065E+04  4.551742E+03  3.727155E+03  5.852402E+03  3.094898E-08  2.889801E-09
       257  17  3.763756E+04  6.453292E+03  5.452980E+03  4.510428E+03  4.718788E-09  5.791748E-09
       257  18  4.556197E+04  8.372338E+03  7.159920E+03  5.896562E+03 -2.459958E-08  1.661766E-09
       257  19 -7.632346E+03 -4.467925E+03 -4.047524E+03  5.776350E+03  7.359311E+02 -1.079906E+03
       257  20 -1.555652E+04 -6.390001E+03 -5.567978E+03  4.390216E+03  7.093909E+02 -1.581909E+03
       257  21 -2.350314E+04 -8.294525E+03 -7.107090E+03  5.732205E+03  6.828371E+02 -2.084058E+03
       257  22  1.102899E+04  4.192009E+01 -1.601744E+02  5.814376E+03  1.819240E+02 -1.081814E+03
       257  23  1.104019E+04  3.166930E+01 -5.747785E+01  4.450321E+03  1.552253E+02 -1.583809E+03
       257  24  1.102885E+04  3.894679E+01  2.645079E+01  5.814382E+03  1.285127E+02 -2.085951E+03
       257  25  2.969065E+04  4.551743E+03  3.727157E+03  5.852402E+03 -3.720995E+02 -1.083721E+03
       257  26  3.763756E+04  6.453295E+03  5.452985E+03  4.510428E+03 -3.989637E+02 -1.585710E+03
       257  27  4.556197E+04  8.372343E+03  7.159928E+03  5.896563E+03 -4.258421E+02 -2.087845E+03
       258   1 -2.939396E+04 -9.726197E+03 -8.327275E+03  5.717554E+03 -6.926469E+02  2.376301E+03
       258   2 -3.732671E+04 -1.165070E+04 -9.843808E+03  4.338404E+03 -7.811395E+02  2.878005E+03
       258   3 -4.526532E+04 -1.355395E+04 -1.130302E+04  5.687889E+03 -8.696023E+02  3.379329E+03
       258   4  1.103244E+04  3.897162E+01  6.985778E+01  5.814496E+03 -1.382535E+02  2.378188E+03
       258   5  1.103530E+04  2.633170E+01  1.765089E+02  4.450189E+03 -2.271801E+02  2.879878E+03
       258   6  1.103219E+04  3.499018E+01  3.407473E+02  5.814505E+03 -3.160781E+02  3.381187E+03
       258   7  5.146038E+04  9.804036E+03  8.466903E+03  5.911443E+03  4.161755E+02  2.380076E+03
       258   8  5.939952E+04  1.170321E+04  1.019670E+04  4.561982E+03  3.268216E+02  2.881751E+03
       258   9  6.733271E+04  1.362373E+04  1.198434E+04  5.941130E+03  2.374954E+02  3.383046E+03
       258  10 -2.939396E+04 -9.726203E+03 -8.327287E+03  5.717555E+03 -3.172867E-08  4.769682E-09
       258  11 -3.732671E+04 -1.165071E+04 -9.843825E+03  4.338406E+03 -2.448044E-08 -6.072309E-09
       258  12 -4.526533E+04 -1.355396E+04 -1.130304E+04  5.687891E+03 -1.524127E-08 -1.143895E-08
       258  13  1.103244E+04  3.896554E+01  6.984712E+01  5.814496E+03 -1.166670E-09  1.218569E-08
       258  14  1.103530E+04  2.632278E+01  1.764932E+02  4.450190E+03 -2.057168E-09  5.596381E-10
       258  15  1.103219E+04  3.497788E+01  3.407256E+02  5.814506E+03  4.917602E-10 -6.368752E-09
       258  16  5.146038E+04  9.804030E+03  8.466892E+03  5.911443E+03  3.035013E-08  3.199449E-09
       258  17  5.939952E+04  1.170321E+04  1.019668E+04  4.561981E+03  2.349893E-08 -1.512630E-08
       258  18  6.733271E+04  1.362372E+04  1.198432E+04  5.941129E+03  1.512270E-08 -1.239943E-08
       258  19 -2.939396E+04 -9.726197E+03 -8.327275E+03  5.717554E+03  6.926469E+02 -2.376301E+03
       258  20 -3.732671E+04 -1.165070E+04 -9.843808E+03  4.338404E+03  7.811395E+02 -2.878005E+03
       258  21 -4.526532E+04 -1.355395E+04 -1.130302E+04  5.687889E+03  8.696022E+02 -3.379329E+03
       258  22  1.103244E+04  3.897161E+01  6.985778E+01  5.814496E+03  1.382535E+02 -2.378188E+03
       258  23  1.103530E+04  2.633170E+01  1.765089E+02  4.450189E+03  2.271801E+02 -2.879878E+03
       258  24  1.103219E+04  3.499018E+01  3.407473E+02  5.814505E+03  3.160781E+02 -3.381187E+03
       258  25  5.146038E+04  9.804036E+03  8.466903E+03  5.911443E+03 -4.161755E+02 -2.380076E+03
       258  26  5.939952E+04  1.170321E+04  1.019670E+04  4.561982E+03 -3.268216E+02 -2.881751E+03
       258  27  6.733271E+04  1.362373E+04  1.198434E+04  5.941130E+03 -2.374954E+02 -3.383046E+03
       259   1 -5.114880E+04 -1.498894E+04 -1.244919E+04  5.682391E+03 -9.448657E+02  3.671778E+03
       259   2 -5.910801E+04 -1.691751E+04 -1.372129E+04  4.308701E+03 -1.339202E+03  4.169771E+03
       259   3 -6.702186E+04 -1.878209E+04 -1.472607E+04  5.662667E+03 -1.733476E+03  4.659765E+03
       259   4  1.104380E+04  3.177122E+01  4.580532E+02  5.814328E+03 -3.892694E+02  3.673633E+03
       259   5  1.102015E+04  1.544440E+01  8.111045E+02  4.450451E+03 -7.924761E+02  4.171577E+03
       259   6  1.104344E+04  6.468233E+01  1.437641E+03  5.814211E+03 -1.195625E+03  4.661522E+03
       259   7  7.324006E+04  1.505223E+04  1.336509E+04  5.946276E+03  1.663815E+02  3.675488E+03
       259   8  8.115297E+04  1.694809E+04  1.534323E+04  4.592214E+03 -2.456892E+02  4.173383E+03
       259   9  8.911452E+04  1.891107E+04  1.760102E+04  5.965769E+03 -6.577070E+02  4.663280E+03
       259  10 -5.114881E+04 -1.498895E+04 -1.244922E+04  5.682393E+03  4.305851E-09 -3.408891E-09
       259  11 -5.910801E+04 -1.691753E+04 -1.372132E+04  4.308706E+03  5.275962E-09 -8.547809E-09
       259  12 -6.702187E+04 -1.878211E+04 -1.472612E+04  5.662673E+03  3.779521E-09 -9.854591E-10
       259  13  1.104379E+04  3.175669E+01  4.580275E+02  5.814329E+03 -1.883404E-10 -2.351734E-09
       259  14  1.102015E+04  1.542555E+01  8.110706E+02  4.450454E+03  1.694553E-09  6.427436E-09
       259  15  1.104344E+04  6.465861E+01  1.437597E+03  5.814215E+03  2.357321E-09  1.313411E-08
       259  16  7.324006E+04  1.505222E+04  1.336506E+04  5.946275E+03 -5.838806E-09  1.644667E-09
       259  17  8.115297E+04  1.694807E+04  1.534320E+04  4.592215E+03 -4.009398E-09 -8.370748E-09
       259  18  8.911452E+04  1.891104E+04  1.760098E+04  5.965772E+03 -2.717416E-09  1.974271E-09
       259  19 -5.114880E+04 -1.498894E+04 -1.244919E+04  5.682391E+03  9.448657E+02 -3.671778E+03
       259  20 -5.910801E+04 -1.691751E+04 -1.372129E+04  4.308701E+03  1.339202E+03 -4.169771E+03
       259  21 -6.702186E+04 -1.878209E+04 -1.472607E+04  5.662667E+03  1.733476E+03 -4.659765E+03
       259  22  1.104380E+04  3.177122E+01  4.580532E+02  5.814328E+03  3.892694E+02 -3.673633E+03
       259  23  1.102015E+04  1.544440E+01  8.111045E+02  4.450451E+03  7.924761E+02 -4.171577E+03
       259  24  1.104344E+04  6.468233E+01  1.437641E+03  5.814211E+03  1.195625E+03 -4.661522E+03
       259  25  7.324006E+04  1.505223E+04  1.336509E+04  5.946276E+03 -1.663815E+02 -3.675488E+03
       259  26  8.115297E+04  1.694809E+04  1.534323E+04  4.592214E+03  2.456892E+02 -4.173383E+03
       259  27  8.911452E+04  1.891107E+04  1.760102E+04  5.965769E+03  6.577070E+02 -4.663280E+03
       260   1 -7.283585E+04 -2.029872E+04 -1.553502E+04  5.817014E+03 -2.068828E+03  4.959480E+03
       260   2 -8.097716E+04 -2.215712E+04 -1.579319E+04  4.156745E+03 -3.539156E+03  5.399354E+03
       260   3 -8.870946E+04 -2.306327E+04 -1.486091E+04  5.215296E+03 -5.008901E+03  5.679838E+03
       260   4  1.113046E+04 -2.116882E+01  1.887577E+03  5.813203E+03 -1.490022E+03  4.961361E+03
       260   5  1.091050E+04  3.944678E+01  3.290783E+03  4.451974E+03 -3.136517E+03  5.400625E+03
       260   6  1.113000E+04  1.082810E+03  6.006645E+03  5.809537E+03 -4.782448E+03  5.680509E+03
       260   7  9.510345E+04  2.025593E+04  1.930979E+04  5.809386E+03 -9.111378E+02  4.963242E+03
       260   8  1.028062E+05  2.223547E+04  2.237430E+04  4.747242E+03 -2.733819E+03  5.401896E+03
       260   9  1.109789E+05  2.522825E+04  2.687365E+04  6.403867E+03 -4.555959E+03  5.681181E+03
       260  10 -7.283586E+04 -2.029874E+04 -1.553508E+04  5.817022E+03  1.195998E-08 -3.103536E-10
       260  11 -8.097718E+04 -2.215715E+04 -1.579327E+04  4.156760E+03  1.949501E-09  9.146732E-09
       260  12 -8.870950E+04 -2.306331E+04 -1.486102E+04  5.215319E+03 -6.394231E-09 -2.952683E-09
       260  13  1.113045E+04 -2.119585E+01  1.887527E+03  5.813209E+03  1.981959E-09 -8.545696E-09
       260  14  1.091048E+04  3.941282E+01  3.290710E+03  4.451988E+03 -2.584526E-09  3.386797E-09
       260  15  1.112997E+04  1.082769E+03  6.006541E+03  5.809559E+03  1.381037E-09 -5.827224E-09
       260  16  9.510344E+04  2.025590E+04  1.930974E+04  5.809390E+03 -1.242897E-08 -5.018780E-09
       260  17  1.028061E+05  2.223544E+04  2.237423E+04  4.747254E+03 -4.033798E-10 -1.944106E-08
       260  18  1.109789E+05  2.522821E+04  2.687355E+04  6.403888E+03  8.960099E-09 -1.293715E-09
       260  19 -7.283585E+04 -2.029872E+04 -1.553502E+04  5.817014E+03  2.068828E+03 -4.959480E+03
       260  20 -8.097716E+04 -2.215712E+04 -1.579319E+04  4.156745E+03  3.539156E+03 -5.399354E+03
       260  21 -8.870946E+04 -2.306327E+04 -1.486091E+04  5.215296E+03  5.008901E+03 -5.679838E+03
       260  22  1.113046E+04 -2.116882E+01  1.887577E+03  5.813203E+03  1.490022E+03 -4.961361E+03
       260  23  1.091050E+04  3.944678E+01  3.290783E+03  4.451974E+03  3.136517E+03 -5.400625E+03
       260  24  1.113000E+04  1.082810E+03  6.006645E+03  5.809537E+03  4.782448E+03 -5.680509E+03
       260  25  9.510345E+04  2.025593E+04  1.930979E+04  5.809386E+03  9.111378E+02 -4.963242E+03
       260  26  1.028062E+05  2.223547E+04  2.237430E+04  4.747242E+03  2.733819E+03 -5.401896E+03
       260  27  1.109789E+05  2.522825E+04  2.687365E+04  6.403867E+03  4.555959E+03 -5.681181E+03
       261   1 -9.347544E+04 -2.639763E+04 -1.438079E+04  8.697418E+03 -6.874554E+03  6.135514E+03
       261   2 -1.041189E+05 -2.609725E+04 -1.106636E+04 -6.593654E+02 -1.038773E+04  5.482781E+03
       261   3 -1.093070E+05 -5.740086E+03 -4.520451E+02 -7.499695E+03 -1.389065E+04  1.660389E+03
       261   4  1.237909E+04 -8.427691E+02  7.653002E+03  5.784956E+03 -5.833787E+03  6.138872E+03
       261   5  9.348081E+03  1.518638E+03  1.334517E+04  4.485711E+03 -1.284691E+04  5.474661E+03
       261   6  1.237873E+04  2.454223E+04  2.876686E+04  5.702758E+03 -1.984982E+04  1.640960E+03
       261   7  1.182443E+05  2.471142E+04  2.968619E+04  2.871981E+03 -4.792846E+03  6.142221E+03
       261   8  1.228272E+05  2.913378E+04  3.775599E+04  9.631732E+03 -1.530654E+04  5.466500E+03
       261   9  1.340785E+05  5.482413E+04  5.798493E+04  1.890780E+04 -2.581017E+04  1.621279E+03
       261  10 -9.347550E+04 -2.639769E+04 -1.438095E+04  8.697452E+03 -3.620292E-09 -2.301172E-10
       261  11 -1.041190E+05 -2.609731E+04 -1.106662E+04 -6.593195E+02  5.886422E-09 -1.950759E-09
       261  12 -1.093073E+05 -5.740141E+03 -4.524130E+02 -7.499676E+03  8.854149E-09  8.454915E-09
       261  13  1.237904E+04 -8.428187E+02  7.652867E+03  5.784985E+03  1.947751E-09  8.714467E-10
       261  14  9.347896E+03  1.518561E+03  1.334481E+04  4.485768E+03 -9.933263E-10  5.052232E-09
       261  15  1.237830E+04  2.454212E+04  2.876611E+04  5.702784E+03  1.980555E-09  8.885844E-09
       261  16  1.182442E+05  2.471137E+04  2.968607E+04  2.872005E+03  3.398375E-09 -4.412242E-10
       261  17  1.228270E+05  2.913368E+04  3.775549E+04  9.631799E+03 -2.917100E-09  1.218129E-08
       261  18  1.340778E+05  5.482395E+04  5.798368E+04  1.890783E+04 -8.174914E-09  2.057616E-09
       261  19 -9.347544E+04 -2.639763E+04 -1.438079E+04  8.697418E+03  6.874554E+03 -6.135514E+03
       261  20 -1.041189E+05 -2.609725E+04 -1.106636E+04 -6.593654E+02  1.038773E+04 -5.482781E+03
       261  21 -1.093070E+05 -5.740086E+03 -4.520451E+02 -7.499695E+03  1.389065E+04 -1.660389E+03
       261  22  1.237909E+04 -8.427691E+02  7.653002E+03  5.784956E+03  5.833787E+03 -6.138872E+03
       261  23  9.348081E+03  1.518638E+03  1.334517E+04  4.485711E+03  1.284691E+04 -5.474661E+03
       261  24  1.237873E+04  2.454223E+04  2.876686E+04  5.702758E+03  1.984982E+04 -1.640960E+03
       261  25  1.182443E+05  2.471142E+04  2.968619E+04  2.871981E+03  4.792846E+03 -6.142221E+03
       261  26  1.228272E+05  2.913378E+04  3.775599E+04  9.631732E+03  1.530654E+04 -5.466500E+03
       261  27  1.340785E+05  5.482413E+04  5.798493E+04  1.890780E+04  2.581017E+04 -1.621279E+03
       262   1 -2.566601E+05 -1.055785E+06 -2.626831E+05  1.551433E+05 -8.821961E+03 -8.553958E+04
       262   2 -1.483251E+05 -8.854873E+05 -1.669289E+05  1.053187E+05 -2.690068E+04 -4.243545E+04
       262   3 -1.025193E+05 -7.359222E+05 -1.148424E+05  1.092545E+05 -2.438446E+04  7.488204E+02
       262   4 -6.984925E+04 -3.051160E+05 -8.133657E+04  1.169114E+05 -8.914319E+03 -5.443515E+04
       262   5 -4.798195E+03 -2.966858E+05 -3.902839E+04  9.013925E+04 -2.692321E+04 -3.401570E+04
       262   6  1.699406E+03 -3.050478E+05 -2.459434E+04  1.171314E+05 -2.434275E+04 -1.352850E+04
       262   7  1.169261E+05  4.460736E+05  9.997389E+04  7.863328E+04 -9.010461E+03 -2.329316E+04
       262   8  1.387065E+05  2.924418E+05  8.885178E+04  7.494542E+04 -2.694613E+04 -2.558806E+04
       262   9  1.059066E+05  1.260029E+05  6.564423E+04  1.250140E+05 -2.430143E+04 -2.781558E+04
       262  10 -2.566621E+05 -1.055793E+06 -2.626970E+05  1.551427E+05 -6.726675E-10  3.764121E-09
       262  11 -1.483263E+05 -8.854894E+05 -1.669336E+05  1.053178E+05 -3.109003E-09  3.379927E-09
       262  12 -1.025200E+05 -7.359223E+05 -1.148436E+05  1.092545E+05 -2.472163E-10 -7.070839E-10
       262  13 -6.985014E+04 -3.051192E+05 -8.134229E+04  1.169110E+05  7.005291E-10  1.099583E-09
       262  14 -4.799284E+03 -2.966872E+05 -3.903192E+04  9.013851E+04 -2.750378E-09 -2.204439E-10
       262  15  1.698721E+03 -3.050481E+05 -2.459580E+04  1.171311E+05  4.959439E-10  4.066538E-10
       262  16  1.169259E+05  4.460730E+05  9.997272E+04  7.863311E+04 -4.060787E-10 -4.934370E-10
       262  17  1.387056E+05  2.924409E+05  8.884919E+04  7.494487E+04  2.991836E-09 -1.963393E-09
       262  18  1.059058E+05  1.260019E+05  6.564167E+04  1.250134E+05 -1.484520E-09 -4.845490E-09
       262  19 -2.566601E+05 -1.055785E+06 -2.626831E+05  1.551433E+05  8.821961E+03  8.553958E+04
       262  20 -1.483251E+05 -8.854873E+05 -1.669289E+05  1.053187E+05  2.690068E+04  4.243545E+04
       262  21 -1.025193E+05 -7.359222E+05 -1.148424E+05  1.092545E+05  2.438446E+04 -7.488204E+02
       262  22 -6.984925E+04 -3.051160E+05 -8.133657E+04  1.169114E+05  8.914319E+03  5.443515E+04
       262  23 -4.798195E+03 -2.966858E+05 -3.902839E+04  9.013925E+04  2.692321E+04  3.401570E+04
       262  24  1.699406E+03 -3.050478E+05 -2.459434E+04  1.171314E+05  2.434275E+04  1.352850E+04
       262  25  1.169261E+05  4.460736E+05  9.997389E+04  7.863328E+04  9.010461E+03  2.329316E+04
       262  26  1.387065E+05  2.924418E+05  8.885178E+04  7.494542E+04  2.694613E+04  2.558806E+04
       262  27  1.059066E+05  1.260029E+05  6.564423E+04  1.250140E+05  2.430143E+04  2.781558E+04
       263   1 -7.890321E+04 -6.130816E+05 -8.646263E+04  1.194984E+05 -1.734707E+04 -7.741105E+02
       263   2 -3.714048E+04 -4.520230E+05 -4.816940E+04  9.022671E+04 -8.885797E+03  8.027858E+03
       263   3 -7.461231E+02 -2.930146E+05 -1.685644E+04  1.158912E+05 -3.574580E+01  1.683168E+04
       263   4 -3.508613E+03 -3.017435E+05 -2.105302E+04  1.173387E+05 -1.732106E+04 -9.924123E+03
       263   5 -5.752956E+02 -3.007362E+05 -1.670169E+04  8.987154E+04 -8.859304E+03 -1.549250E+03
       263   6 -2.933719E+03 -3.017284E+05 -1.903124E+04  1.173402E+05 -8.840356E+00  6.825290E+03
       263   7  7.187981E+04  9.686455E+03  4.435147E+04  1.151780E+05 -1.729500E+04 -1.907865E+04
       263   8  3.598848E+04 -1.494275E+05  1.476511E+04  8.951630E+04 -8.832802E+03 -1.112865E+04
       263   9 -5.121259E+03 -3.104418E+05 -2.120567E+04  1.187892E+05  1.801853E+01 -3.180955E+03
       263  10 -7.890354E+04 -6.130817E+05 -8.646320E+04  1.194984E+05  9.375999E-10 -7.424113E-10
       263  11 -3.714058E+04 -4.520231E+05 -4.816967E+04  9.022677E+04 -1.279743E-09 -9.654513E-10
       263  12 -7.461992E+02 -2.930149E+05 -1.685697E+04  1.158912E+05 -3.095423E-10 -1.080167E-09
       263  13 -3.508962E+03 -3.017437E+05 -2.105377E+04  1.173386E+05 -7.884704E-10  1.077605E-09
       263  14 -5.753805E+02 -3.007362E+05 -1.670184E+04  8.987153E+04 -3.050208E-09 -3.794155E-09
       263  15 -2.933731E+03 -3.017284E+05 -1.903133E+04  1.173402E+05 -3.552867E-10 -1.024110E-09
       263  16  7.187939E+04  9.685984E+03  4.435023E+04  1.151777E+05 -1.170911E-09  5.012016E-09
       263  17  3.598836E+04 -1.494277E+05  1.476473E+04  8.951622E+04 -1.891793E-10 -2.271991E-09
       263  18 -5.121262E+03 -3.104418E+05 -2.120569E+04  1.187892E+05  4.623967E-10 -2.412856E-09
       263  19 -7.890321E+04 -6.130816E+05 -8.646263E+04  1.194984E+05  1.734707E+04  7.741105E+02
       263  20 -3.714048E+04 -4.520230E+05 -4.816940E+04  9.022671E+04  8.885797E+03 -8.027858E+03
       263  21 -7.461231E+02 -2.930146E+05 -1.685644E+04  1.158912E+05  3.574580E+01 -1.683168E+04
       263  22 -3.508613E+03 -3.017435E+05 -2.105302E+04  1.173387E+05  1.732106E+04  9.924123E+03
       263  23 -5.752956E+02 -3.007362E+05 -1.670169E+04  8.987154E+04  8.859304E+03  1.549250E+03
       263  24 -2.933719E+03 -3.017284E+05 -1.903124E+04  1.173402E+05  8.840356E+00 -6.825290E+03
       263  25  7.187981E+04  9.686455E+03  4.435147E+04  1.151780E+05  1.729500E+04  1.907865E+04
       263  26  3.598848E+04 -1.494275E+05  1.476511E+04  8.951630E+04  8.832802E+03  1.112865E+04
       263  27 -5.121259E+03 -3.104418E+05 -2.120567E+04  1.187892E+05 -1.801853E+01  3.180955E+03
       264   1  3.234540E+04 -1.762911E+05  5.696669E+03  1.242290E+05  6.590023E+03  2.311676E+04
       264   2  6.611170E+04 -1.048985E+04  3.023132E+04  7.790503E+04  1.197817E+04  2.616764E+04
       264   3  5.372500E+04  1.438328E+05  4.133606E+04  8.581247E+04  4.503126E+03  2.918110E+04
       264   4  1.316649E+03 -3.043919E+05 -2.154664E+04  1.172254E+05  6.625070E+03  1.005628E+04
       264   5 -3.984149E+03 -2.974222E+05 -3.286942E+04  9.002182E+04  1.197590E+04  2.730059E+04
       264   6 -5.791485E+04 -3.044288E+05 -6.748736E+04  1.170555E+05  4.461018E+03  4.450627E+04
       264   7 -2.971288E+04 -4.324768E+05 -4.879021E+04  1.102233E+05  6.660415E+03 -3.001536E+03
       264   8 -7.408499E+04 -5.842773E+05 -9.597512E+04  1.021330E+05  1.197366E+04  2.843302E+04
       264   9 -1.695658E+05 -7.525043E+05 -1.763239E+05  1.482760E+05  4.420438E+03  5.982039E+04
       264  10  3.234521E+04 -1.762916E+05  5.695583E+03  1.242289E+05  1.886939E-09  2.391551E-09
       264  11  6.611136E+04 -1.049063E+04  3.022977E+04  7.790478E+04  2.362708E-09  5.298120E-09
       264  12  5.372475E+04  1.438318E+05  4.133442E+04  8.581237E+04  5.677199E-10  5.572796E-10
       264  13  1.316575E+03 -3.043920E+05 -2.154691E+04  1.172254E+05  1.219324E-09  1.109254E-09
       264  14 -3.984503E+03 -2.974231E+05 -3.287109E+04  9.002156E+04 -7.557879E-10 -3.848016E-09
       264  15 -5.791540E+04 -3.044309E+05 -6.749112E+04  1.170553E+05  4.570663E-10  1.224396E-10
       264  16 -2.971293E+04 -4.324768E+05 -4.879031E+04  1.102233E+05 -9.542641E-10  2.231649E-09
       264  17 -7.408536E+04 -5.842782E+05 -9.597691E+04  1.021327E+05  3.109664E-09 -1.190896E-09
       264  18 -1.695668E+05 -7.525082E+05 -1.763307E+05  1.482758E+05  1.597042E-09 -6.194460E-09
       264  19  3.234540E+04 -1.762911E+05  5.696669E+03  1.242290E+05 -6.590023E+03 -2.311676E+04
       264  20  6.611170E+04 -1.048985E+04  3.023132E+04  7.790503E+04 -1.197817E+04 -2.616764E+04
       264  21  5.372500E+04  1.438328E+05  4.133606E+04  8.581247E+04 -4.503126E+03 -2.918110E+04
       264  22  1.316649E+03 -3.043919E+05 -2.154664E+04  1.172254E+05 -6.625070E+03 -1.005628E+04
       264  23 -3.984149E+03 -2.974222E+05 -3.286942E+04  9.002182E+04 -1.197590E+04 -2.730059E+04
       264  24 -5.791485E+04 -3.044288E+05 -6.748736E+04  1.170555E+05 -4.461018E+03 -4.450627E+04
       264  25 -2.971288E+04 -4.324768E+05 -4.879021E+04  1.102233E+05 -6.660415E+03  3.001536E+03
       264  26 -7.408499E+04 -5.842773E+05 -9.597512E+04  1.021330E+05 -1.197366E+04 -2.843302E+04
       264  27 -1.695658E+05 -7.525043E+05 -1.763239E+05  1.482760E+05 -4.420438E+03 -5.982039E+04
       265   1  2.408901E+05  8.235903E+04  4.248695E+04  9.838078E+04  2.463964E+04  9.083354E+03
       265   2  2.344178E+05  4.491942E+04  1.952993E+04  9.670269E+04  1.539422E+04  5.157560E+03
       265   3  2.371206E+05  3.491773E+04  1.059299E+04  9.045256E+04  5.918487E+03  1.840183E+03
       265   4  2.321327E+05  6.432788E+04  3.729422E+04  8.097009E+04  2.394328E+04  8.818772E+03
       265   5  2.255342E+05  3.621783E+04  1.644965E+04  8.873356E+04  1.532674E+04  5.131826E+03
       265   6  2.279863E+05  3.542070E+04  9.126768E+03  9.192487E+04  6.479767E+03  2.052901E+03
       265   7  2.233761E+05  4.629838E+04  3.210170E+04  6.356015E+04  2.324694E+04  8.554240E+03
       265   8  2.166508E+05  2.751651E+04  1.336938E+04  8.076462E+04  1.525926E+04  5.106094E+03
       265   9  2.188521E+05  3.592370E+04  7.660537E+03  9.339717E+04  7.041042E+03  2.265627E+03
       265  10  2.408894E+05  8.235878E+04  4.248565E+04  9.838060E+04  4.985150E-10 -4.039053E-09
       265  11  2.344175E+05  4.491932E+04  1.952944E+04  9.670263E+04 -5.804841E-10  4.380672E-09
       265  12  2.371205E+05  3.491771E+04  1.059292E+04  9.045256E+04 -2.238879E-09 -7.826984E-10
       265  13  2.321321E+05  6.432765E+04  3.729300E+04  8.096992E+04 -3.229136E-10 -5.242944E-09
       265  14  2.255340E+05  3.621773E+04  1.644916E+04  8.873350E+04  1.590561E-09 -2.127353E-09
       265  15  2.279863E+05  3.542068E+04  9.126681E+03  9.192486E+04 -2.839525E-09 -6.353750E-10
       265  16  2.233755E+05  4.629816E+04  3.210054E+04  6.355999E+04 -1.193581E-09  2.747107E-09
       265  17  2.166506E+05  2.751641E+04  1.336890E+04  8.076456E+04  1.309857E-09  2.173705E-09
       265  18  2.188520E+05  3.592369E+04  7.660434E+03  9.339715E+04 -6.261119E-10  2.647967E-09
       265  19  2.408901E+05  8.235903E+04  4.248695E+04  9.838078E+04 -2.463964E+04 -9.083354E+03
       265  20  2.344178E+05  4.491942E+04  1.952993E+04  9.670269E+04 -1.539422E+04 -5.157560E+03
       265  21  2.371206E+05  3.491773E+04  1.059299E+04  9.045256E+04 -5.918487E+03 -1.840183E+03
       265  22  2.321327E+05  6.432788E+04  3.729422E+04  8.097009E+04 -2.394328E+04 -8.818772E+03
       265  23  2.255342E+05  3.621783E+04  1.644965E+04  8.873356E+04 -1.532674E+04 -5.131826E+03
       265  24  2.279863E+05  3.542070E+04  9.126768E+03  9.192487E+04 -6.479767E+03 -2.052901E+03
       265  25  2.233761E+05  4.629838E+04  3.210170E+04  6.356015E+04 -2.324694E+04 -8.554240E+03
       265  26  2.166508E+05  2.751651E+04  1.336938E+04  8.076462E+04 -1.525926E+04 -5.106094E+03
       265  27  2.188521E+05  3.592370E+04  7.660537E+03  9.339717E+04 -7.041042E+03 -2.265627E+03
       266   1  2.277523E+05  3.845095E+04  7.447137E+03  9.117002E+04  4.856139E+03  1.772937E+03
       266   2  2.218768E+05  3.354273E+04  2.523928E+03  8.843962E+04  2.793499E+03  1.442569E+03
       266   3  2.149693E+05  3.169830E+04 -6.277489E+02  8.744739E+04  7.200589E+02  1.140847E+03
       266   4  2.268370E+05  3.764517E+04  7.146304E+03  9.044175E+04  5.249328E+03  1.921916E+03
       266   5  2.272591E+05  3.544017E+04  3.731698E+03  8.982892E+04  3.216286E+03  1.602764E+03
       266   6  2.266433E+05  3.629308E+04  2.065165E+03  9.095424E+04  1.172428E+03  1.312250E+03
       266   7  2.259216E+05  3.683939E+04  6.845471E+03  8.971347E+04  5.642517E+03  2.070894E+03
       266   8  2.326414E+05  3.733761E+04  4.939462E+03  9.121823E+04  3.639075E+03  1.762961E+03
       266   9  2.383173E+05  4.088784E+04  4.758051E+03  9.446113E+04  1.624804E+03  1.483656E+03
       266  10  2.277523E+05  3.845094E+04  7.447087E+03  9.117002E+04  5.732002E-09  1.541897E-09
       266  11  2.218768E+05  3.354272E+04  2.523909E+03  8.843962E+04  4.599694E-09  4.760459E-09
       266  12  2.149693E+05  3.169830E+04 -6.277523E+02  8.744739E+04 -8.003155E-10 -6.997660E-09
       266  13  2.268370E+05  3.764516E+04  7.146245E+03  9.044174E+04 -2.254643E-09  1.146999E-08
       266  14  2.272591E+05  3.544017E+04  3.731674E+03  8.982892E+04 -2.016309E-09  1.537013E-08
       266  15  2.266433E+05  3.629308E+04  2.065159E+03  9.095423E+04 -2.457854E-09  3.163256E-09
       266  16  2.259216E+05  3.683938E+04  6.845403E+03  8.971346E+04 -6.300625E-09 -5.687523E-09
       266  17  2.326414E+05  3.733760E+04  4.939432E+03  9.121823E+04 -1.862452E-09 -6.202054E-10
       266  18  2.383173E+05  4.088784E+04  4.758042E+03  9.446112E+04 -1.311945E-09 -5.827729E-09
       266  19  2.277523E+05  3.845095E+04  7.447137E+03  9.117002E+04 -4.856139E+03 -1.772937E+03
       266  20  2.218768E+05  3.354273E+04  2.523928E+03  8.843962E+04 -2.793499E+03 -1.442569E+03
       266  21  2.149693E+05  3.169830E+04 -6.277489E+02  8.744739E+04 -7.200589E+02 -1.140847E+03
       266  22  2.268370E+05  3.764517E+04  7.146304E+03  9.044175E+04 -5.249328E+03 -1.921916E+03
       266  23  2.272591E+05  3.544017E+04  3.731698E+03  8.982892E+04 -3.216286E+03 -1.602764E+03
       266  24  2.266433E+05  3.629308E+04  2.065165E+03  9.095424E+04 -1.172428E+03 -1.312250E+03
       266  25  2.259216E+05  3.683939E+04  6.845471E+03  8.971347E+04 -5.642517E+03 -2.070894E+03
       266  26  2.326414E+05  3.733761E+04  4.939462E+03  9.121823E+04 -3.639075E+03 -1.762961E+03
       266  27  2.383173E+05  4.088784E+04  4.758051E+03  9.446113E+04 -1.624804E+03 -1.483656E+03
       267   1  2.096975E+05  3.008306E+04 -2.319734E+03  8.615311E+04  3.405423E+02  1.287010E+03
       267   2  2.039712E+05  2.670643E+04 -4.502488E+03  8.334435E+04 -2.549438E+02  1.553898E+03
       267   3  1.965618E+05  2.516595E+04 -6.346151E+03  8.253303E+04 -8.509851E+02  1.822288E+03
       267   4  2.265531E+05  3.639309E+04  1.565152E+03  9.087104E+04  7.851260E+02  1.455460E+03
       267   5  2.273911E+05  3.544982E+04  8.637614E+02  8.988188E+04  1.911819E+02  1.722926E+03
       267   6  2.265458E+05  3.634247E+04  5.002794E+02  9.089021E+04 -4.033208E+02  1.991893E+03
       267   7  2.434090E+05  4.270317E+04  5.450048E+03  9.558911E+04  1.229725E+03  1.623916E+03
       267   8  2.508117E+05  4.419329E+04  6.229995E+03  9.641967E+04  6.373273E+02  1.891962E+03
       267   9  2.565308E+05  4.751906E+04  7.346653E+03  9.924776E+04  4.436713E+01  2.161507E+03
       267  10  2.096975E+05  3.008306E+04 -2.319737E+03  8.615311E+04 -1.826481E-09 -4.415411E-09
       267  11  2.039712E+05  2.670642E+04 -4.502492E+03  8.334435E+04  2.900237E-09 -5.930913E-09
       267  12  1.965617E+05  2.516595E+04 -6.346158E+03  8.253303E+04  3.703048E-09 -3.274272E-09
       267  13  2.265531E+05  3.639308E+04  1.565147E+03  9.087104E+04 -4.465211E-10 -6.857718E-09
       267  14  2.273911E+05  3.544982E+04  8.637557E+02  8.988188E+04  1.970121E-09 -4.937048E-09
       267  15  2.265458E+05  3.634246E+04  5.002716E+02  9.089021E+04  3.198298E-09 -3.122178E-10
       267  16  2.434090E+05  4.270317E+04  5.450040E+03  9.558911E+04 -2.178689E-09 -6.016891E-09
       267  17  2.508117E+05  4.419328E+04  6.229988E+03  9.641966E+04 -9.123046E-10  3.899226E-09
       267  18  2.565308E+05  4.751905E+04  7.346644E+03  9.924776E+04 -7.070619E-10 -1.933547E-09
       267  19  2.096975E+05  3.008306E+04 -2.319734E+03  8.615311E+04 -3.405423E+02 -1.287010E+03
       267  20  2.039712E+05  2.670643E+04 -4.502488E+03  8.334435E+04  2.549438E+02 -1.553898E+03
       267  21  1.965618E+05  2.516595E+04 -6.346151E+03  8.253303E+04  8.509851E+02 -1.822288E+03
       267  22  2.265531E+05  3.639309E+04  1.565152E+03  9.087104E+04 -7.851260E+02 -1.455460E+03
       267  23  2.273911E+05  3.544982E+04  8.637614E+02  8.988188E+04 -1.911819E+02 -1.722926E+03
       267  24  2.265458E+05  3.634247E+04  5.002794E+02  9.089021E+04  4.033208E+02 -1.991893E+03
       267  25  2.434090E+05  4.270317E+04  5.450048E+03  9.558911E+04 -1.229725E+03 -1.623916E+03
       267  26  2.508117E+05  4.419329E+04  6.229995E+03  9.641967E+04 -6.373273E+02 -1.891962E+03
       267  27  2.565308E+05  4.751906E+04  7.346653E+03  9.924776E+04 -4.436713E+01 -2.161507E+03
       268   1  1.915162E+05  2.330147E+04 -7.645262E+03  8.114488E+04 -1.020505E+03  2.046213E+03
       268   2  1.858118E+05  1.997913E+04 -9.248259E+03  7.832327E+04 -1.321692E+03  2.427266E+03
       268   3  1.783608E+05  1.843077E+04 -1.074789E+04  7.750502E+04 -1.622982E+03  2.808681E+03
       268   4  2.265342E+05  3.634604E+04  3.953691E+02  9.088492E+04 -5.729533E+02  2.215768E+03
       268   5  2.274073E+05  3.545862E+04  2.750070E+02  8.988339E+04 -8.737823E+02  2.596944E+03
       268   6  2.265338E+05  3.634506E+04  2.577247E+02  9.088515E+04 -1.174717E+03  2.978482E+03
       268   7  2.615533E+05  4.939064E+04  8.435861E+03  1.006254E+05 -1.253770E+02  2.385333E+03
       268   8  2.690046E+05  5.093824E+04  9.798159E+03  1.014442E+05 -4.258398E+02  2.766634E+03
       268   9  2.747094E+05  5.425964E+04  1.126327E+04  1.042663E+05 -7.264111E+02  3.148298E+03
       268  10  1.915162E+05  2.330146E+04 -7.645272E+03  8.114488E+04  5.556500E-09 -1.914729E-09
       268  11  1.858118E+05  1.997912E+04 -9.248274E+03  7.832327E+04  3.425461E-09 -4.095182E-10
       268  12  1.783608E+05  1.843076E+04 -1.074791E+04  7.750502E+04 -6.556995E-09 -5.536881E-09
       268  13  2.265342E+05  3.634604E+04  3.953593E+02  9.088492E+04  6.819362E-10 -7.571153E-09
       268  14  2.274073E+05  3.545861E+04  2.749929E+02  8.988339E+04  1.895836E-09  2.444768E-09
       268  15  2.265338E+05  3.634505E+04  2.577054E+02  9.088515E+04 -2.284054E-09 -5.633280E-09
       268  16  2.615533E+05  4.939063E+04  8.435851E+03  1.006254E+05 -3.185339E-09  4.277522E-09
       268  17  2.690046E+05  5.093823E+04  9.798144E+03  1.014442E+05 -1.003986E-09 -1.071878E-08
       268  18  2.747094E+05  5.425963E+04  1.126325E+04  1.042663E+05  5.564442E-09  1.667524E-08
       268  19  1.915162E+05  2.330147E+04 -7.645262E+03  8.114488E+04  1.020505E+03 -2.046213E+03
       268  20  1.858118E+05  1.997913E+04 -9.248259E+03  7.832327E+04  1.321692E+03 -2.427266E+03
       268  21  1.783608E+05  1.843077E+04 -1.074789E+04  7.750502E+04  1.622982E+03 -2.808681E+03
       268  22  2.265342E+05  3.634604E+04  3.953691E+02  9.088492E+04  5.729533E+02 -2.215768E+03
       268  23  2.274073E+05  3.545862E+04  2.750070E+02  8.988339E+04  8.737823E+02 -2.596944E+03
       268  24  2.265338E+05  3.634506E+04  2.577247E+02  9.088515E+04  1.174717E+03 -2.978482E+03
       268  25  2.615533E+05  4.939064E+04  8.435861E+03  1.006254E+05  1.253770E+02 -2.385333E+03
       268  26  2.690046E+05  5.093824E+04  9.798159E+03  1.014442E+05  4.258398E+02 -2.766634E+03
       268  27  2.747094E+05  5.425964E+04  1.126327E+04  1.042663E+05  7.264111E+02 -3.148298E+03
       269   1  1.733247E+05  1.655329E+04 -1.191997E+04  7.611357E+04 -1.764038E+03  3.043917E+03
       269   2  1.675977E+05  1.322287E+04 -1.327668E+04  7.328746E+04 -2.133476E+03  3.400244E+03
       269   3  1.601310E+05  1.167538E+04 -1.447840E+04  7.247274E+04 -2.502909E+03  3.756692E+03
       269   4  2.265351E+05  3.634640E+04  2.823978E+02  9.088717E+04 -1.315355E+03  3.213867E+03
       269   5  2.274048E+05  3.545366E+04  4.120025E+02  8.988194E+04 -1.684703E+03  3.570210E+03
       269   6  2.265346E+05  3.634382E+04  6.965196E+02  9.088807E+04 -2.054048E+03  3.926672E+03
       269   7  2.797485E+05  5.613973E+04  1.248457E+04  1.056619E+05 -8.666295E+02  3.383834E+03
       269   8  2.872153E+05  5.768466E+04  1.410040E+04  1.064778E+05 -1.235885E+03  3.740193E+03
       269   9  2.929422E+05  6.101245E+04  1.587103E+04  1.093051E+05 -1.605138E+03  4.096671E+03
       269  10  1.733246E+05  1.655328E+04 -1.191999E+04  7.611358E+04 -5.020547E-09  2.584563E-09
       269  11  1.675977E+05  1.322286E+04 -1.327671E+04  7.328747E+04 -2.682725E-09  9.715837E-10
       269  12  1.601310E+05  1.167537E+04 -1.447844E+04  7.247275E+04  4.932378E-09 -9.433552E-09
       269  13  2.265351E+05  3.634639E+04  2.823751E+02  9.088718E+04 -1.968348E-09  1.052309E-08
       269  14  2.274048E+05  3.545365E+04  4.119732E+02  8.988194E+04 -4.042701E-09 -1.008821E-08
       269  15  2.265346E+05  3.634381E+04  6.964827E+02  9.088808E+04  9.019168E-11 -4.721919E-09
       269  16  2.797485E+05  5.613972E+04  1.248455E+04  1.056619E+05  2.154411E-09  1.483459E-08
       269  17  2.872153E+05  5.768464E+04  1.410037E+04  1.064778E+05 -3.004037E-09 -3.296267E-09
       269  18  2.929422E+05  6.101243E+04  1.587100E+04  1.093051E+05 -4.191162E-09 -2.719237E-10
       269  19  1.733247E+05  1.655329E+04 -1.191997E+04  7.611357E+04  1.764038E+03 -3.043917E+03
       269  20  1.675977E+05  1.322287E+04 -1.327668E+04  7.328746E+04  2.133476E+03 -3.400244E+03
       269  21  1.601310E+05  1.167538E+04 -1.447840E+04  7.247274E+04  2.502909E+03 -3.756692E+03
       269  22  2.265351E+05  3.634640E+04  2.823978E+02  9.088717E+04  1.315355E+03 -3.213867E+03
       269  23  2.274048E+05  3.545366E+04  4.120025E+02  8.988194E+04  1.684703E+03 -3.570210E+03
       269  24  2.265346E+05  3.634382E+04  6.965196E+02  9.088807E+04  2.054048E+03 -3.926672E+03
       269  25  2.797485E+05  5.613973E+04  1.248457E+04  1.056619E+05  8.666295E+02 -3.383834E+03
       269  26  2.872153E+05  5.768466E+04  1.410040E+04  1.064778E+05  1.235885E+03 -3.740193E+03
       269  27  2.929422E+05  6.101245E+04  1.587103E+04  1.093051E+05  1.605138E+03 -4.096671E+03
       270   1  1.550836E+05  9.801689E+03 -1.546013E+04  7.110558E+04 -2.734986E+03  3.958897E+03
       270   2  1.492833E+05  6.444514E+03 -1.623159E+04  6.825154E+04 -3.707947E+03  4.085678E+03
       270   3  1.418607E+05  5.000754E+03 -1.636754E+04  6.741324E+04 -4.678211E+03  4.205450E+03
       270   4  2.265559E+05  3.633964E+04  9.149992E+02  9.090158E+04 -2.283539E+03  4.129844E+03
       270   5  2.273729E+05  3.542971E+04  1.636589E+03  8.987560E+04 -3.263855E+03  4.253818E+03
       270   6  2.265691E+05  3.643471E+04  2.999512E+03  9.086540E+04 -4.241479E+03  4.370779E+03
       270   7  2.980336E+05  6.287814E+04  1.728991E+04  1.106998E+05 -1.832034E+03  4.300813E+03
       270   8  3.054689E+05  6.441547E+04  1.950443E+04  1.115022E+05 -2.819700E+03  4.421980E+03
       270   9  3.112848E+05  6.786922E+04  2.236609E+04  1.143205E+05 -3.804683E+03  4.536133E+03
       270  10  1.550836E+05  9.801670E+03 -1.546017E+04  7.110558E+04  7.918661E-10 -6.759746E-09
       270  11  1.492833E+05  6.444492E+03 -1.623165E+04  6.825155E+04 -5.180439E-09 -9.933030E-09
       270  12  1.418606E+05  5.000729E+03 -1.636761E+04  6.741325E+04 -1.137258E-08  1.813881E-09
       270  13  2.265558E+05  3.633962E+04  9.149573E+02  9.090158E+04  6.387764E-11 -6.047286E-09
       270  14  2.273729E+05  3.542969E+04  1.636535E+03  8.987561E+04  3.819896E-10 -1.482015E-08
       270  15  2.265691E+05  3.643468E+04  2.999442E+03  9.086541E+04 -2.815192E-09 -1.347259E-09
       270  16  2.980336E+05  6.287812E+04  1.728987E+04  1.106998E+05  1.173617E-09  5.478532E-11
       270  17  3.054689E+05  6.441544E+04  1.950438E+04  1.115022E+05  6.881592E-09 -1.000245E-08
       270  18  3.112848E+05  6.786919E+04  2.236602E+04  1.143205E+05  7.419373E-09 -2.373627E-09
       270  19  1.550836E+05  9.801689E+03 -1.546013E+04  7.110558E+04  2.734986E+03 -3.958897E+03
       270  20  1.492833E+05  6.444514E+03 -1.623159E+04  6.825154E+04  3.707947E+03 -4.085678E+03
       270  21  1.418607E+05  5.000754E+03 -1.636754E+04  6.741324E+04  4.678211E+03 -4.205450E+03
       270  22  2.265559E+05  3.633964E+04  9.149992E+02  9.090158E+04  2.283539E+03 -4.129844E+03
       270  23  2.273729E+05  3.542971E+04  1.636589E+03  8.987560E+04  3.263855E+03 -4.253818E+03
       270  24  2.265691E+05  3.643471E+04  2.999512E+03  9.086540E+04  4.241479E+03 -4.370779E+03
       270  25  2.980336E+05  6.287814E+04  1.728991E+04  1.106998E+05  1.832034E+03 -4.300813E+03
       270  26  3.054689E+05  6.441547E+04  1.950443E+04  1.115022E+05  2.819700E+03 -4.421980E+03
       270  27  3.112848E+05  6.786922E+04  2.236609E+04  1.143205E+05  3.804683E+03 -4.536133E+03
       271   1  1.366503E+05  3.224959E+03 -1.659840E+04  6.651812E+04 -5.382678E+03  4.241952E+03
       271   2  1.309023E+05 -5.808990E+02 -1.491817E+04  6.285579E+04 -8.986487E+03  3.318670E+03
       271   3  1.247407E+05 -1.438008E+02 -1.000442E+04  6.071890E+04 -1.252930E+04  2.234536E+03
       271   4  2.267421E+05  3.624350E+04  3.966336E+03  9.102745E+04 -4.900642E+03  4.424424E+03
       271   5  2.271183E+05  3.540708E+04  7.180306E+03  8.977168E+04 -8.671326E+03  3.437917E+03
       271   6  2.271138E+05  3.884631E+04  1.375970E+04  9.004122E+04 -1.238108E+04  2.290540E+03
       271   7  3.168414E+05  6.926240E+04  2.453039E+04  1.155399E+05 -4.418533E+03  4.606923E+03
       271   8  3.233436E+05  7.139581E+04  2.927816E+04  1.166914E+05 -8.356112E+03  3.557184E+03
       271   9  3.294980E+05  7.783759E+04  3.752328E+04  1.193682E+05 -1.223283E+04  2.346555E+03
       271  10  1.366503E+05  3.224932E+03 -1.659848E+04  6.651814E+04  3.972333E-09  4.362406E-09
       271  11  1.309022E+05 -5.809325E+02 -1.491834E+04  6.285581E+04  2.835131E-09 -4.356393E-09
       271  12  1.247406E+05 -1.438483E+02 -1.000472E+04  6.071892E+04 -1.890104E-09 -5.994153E-09
       271  13  2.267420E+05  3.624347E+04  3.966254E+03  9.102747E+04 -3.594448E-09 -1.023894E-08
       271  14  2.271182E+05  3.540705E+04  7.180142E+03  8.977170E+04 -4.646941E-11  4.441605E-10
       271  15  2.271137E+05  3.884626E+04  1.375941E+04  9.004124E+04 -2.346592E-09 -1.431974E-09
       271  16  3.168414E+05  6.926237E+04  2.453031E+04  1.155399E+05 -9.417236E-09  6.813959E-10
       271  17  3.233435E+05  7.139578E+04  2.927801E+04  1.166914E+05 -6.872469E-09  7.073752E-10
       271  18  3.294978E+05  7.783755E+04  3.752299E+04  1.193682E+05 -4.141697E-09  1.654219E-09
       271  19  1.366503E+05  3.224959E+03 -1.659840E+04  6.651812E+04  5.382678E+03 -4.241952E+03
       271  20  1.309023E+05 -5.808990E+02 -1.491817E+04  6.285579E+04  8.986487E+03 -3.318670E+03
       271  21  1.247407E+05 -1.438008E+02 -1.000442E+04  6.071890E+04  1.252930E+04 -2.234536E+03
       271  22  2.267421E+05  3.624350E+04  3.966336E+03  9.102745E+04  4.900642E+03 -4.424424E+03
       271  23  2.271183E+05  3.540708E+04  7.180306E+03  8.977168E+04  8.671326E+03 -3.437917E+03
       271  24  2.271138E+05  3.884631E+04  1.375970E+04  9.004122E+04  1.238108E+04 -2.290540E+03
       271  25  3.168414E+05  6.926240E+04  2.453039E+04  1.155399E+05  4.418533E+03 -4.606923E+03
       271  26  3.233436E+05  7.139581E+04  2.927816E+04  1.166914E+05  8.356112E+03 -3.557184E+03
       271  27  3.294980E+05  7.783759E+04  3.752328E+04  1.193682E+05  1.223283E+04 -2.346555E+03
       272   1  1.156553E+05 -2.240904E+02 -7.245551E+03  6.903926E+04 -1.582364E+04  1.548782E+03
       272   2  1.166832E+05 -1.337179E+04  4.589021E+03  4.740756E+04 -2.887843E+04 -4.141527E+03
       272   3  1.361265E+05  2.370797E+04  3.964599E+04  1.507464E+04 -4.063041E+04 -1.327327E+04
       272   4  2.293454E+05  3.454463E+04  1.757498E+04  9.287788E+04 -1.472276E+04  1.965673E+03
       272   5  2.237737E+05  3.692419E+04  3.167894E+04  8.768651E+04 -3.133912E+04 -5.073707E+03
       272   6  2.373185E+05  9.023009E+04  7.182603E+04  7.179563E+04 -4.665259E+04 -1.555503E+04
       272   7  3.430488E+05  6.931355E+04  4.239487E+04  1.167201E+05 -1.362165E+04  2.382615E+03
       272   8  3.308749E+05  8.722266E+04  5.876770E+04  1.279721E+05 -3.380024E+04 -6.006155E+03
       272   9  3.385204E+05  1.567595E+05  1.040047E+05  1.285258E+05 -5.267570E+04 -1.783783E+04
       272  10  1.156550E+05 -2.241602E+02 -7.246026E+03  6.903928E+04  2.594318E-09  2.525259E-11
       272  11  1.166823E+05 -1.337203E+04  4.587422E+03  4.740747E+04 -6.278453E-10  3.830714E-09
       272  12  1.361247E+05  2.370734E+04  3.964256E+04  1.507420E+04 -4.603274E-09 -9.895305E-10
       272  13  2.293451E+05  3.454457E+04  1.757456E+04  9.287790E+04 -1.796527E-09 -7.244580E-09
       272  14  2.237726E+05  3.692390E+04  3.167704E+04  8.768638E+04  8.384615E-10 -6.897994E-09
       272  15  2.373161E+05  9.022925E+04  7.182149E+04  7.179505E+04  1.763573E-09 -4.292204E-10
       272  16  3.430486E+05  6.931349E+04  4.239451E+04  1.167201E+05 -7.490516E-09 -5.014121E-09
       272  17  3.308737E+05  8.722232E+04  5.876549E+04  1.279719E+05  2.326056E-09 -1.020106E-08
       272  18  3.385173E+05  1.567584E+05  1.039989E+05  1.285250E+05  5.930950E-09 -1.895150E-09
       272  19  1.156553E+05 -2.240904E+02 -7.245551E+03  6.903926E+04  1.582364E+04 -1.548782E+03
       272  20  1.166832E+05 -1.337179E+04  4.589021E+03  4.740756E+04  2.887843E+04  4.141527E+03
       272  21  1.361265E+05  2.370797E+04  3.964599E+04  1.507464E+04  4.063041E+04  1.327327E+04
       272  22  2.293454E+05  3.454463E+04  1.757498E+04  9.287788E+04  1.472276E+04 -1.965673E+03
       272  23  2.237737E+05  3.692419E+04  3.167894E+04  8.768651E+04  3.133912E+04  5.073707E+03
       272  24  2.373185E+05  9.023009E+04  7.182603E+04  7.179563E+04  4.665259E+04  1.555503E+04
       272  25  3.430488E+05  6.931355E+04  4.239487E+04  1.167201E+05  1.362165E+04 -2.382615E+03
       272  26  3.308749E+05  8.722266E+04  5.876770E+04  1.279721E+05  3.380024E+04  6.006155E+03
       272  27  3.385204E+05  1.567595E+05  1.040047E+05  1.285258E+05  5.267570E+04  1.783783E+04
       273   1 -5.484812E+04 -3.867043E+05 -5.832130E+04  2.573890E+04 -1.484619E+03 -2.492794E+04
       273   2 -2.664098E+04 -3.676083E+05 -3.675096E+04  1.489824E+04 -4.843368E+03 -1.382576E+04
       273   3 -2.034723E+04 -3.553956E+05 -2.788835E+04  9.232625E+03 -5.030204E+03 -2.713017E+03
       273   4 -2.525144E+04 -2.678890E+05 -2.970842E+04  1.213709E+04 -1.501184E+03 -1.951208E+04
       273   5 -1.578779E+03 -2.647493E+05 -1.453092E+04  9.590262E+03 -4.849204E+03 -1.190894E+04
       273   6  7.899627E+02 -2.678845E+05 -9.629020E+03  1.221884E+04 -5.025250E+03 -4.295607E+03
       273   7  4.344905E+03 -1.490602E+05 -1.096346E+03 -1.467327E+03 -1.517986E+03 -1.409519E+04
       273   8  2.348283E+04 -1.618803E+05  7.688522E+03  4.281402E+03 -4.855072E+03 -9.991795E+03
       273   9  2.192670E+04 -1.803661E+05  8.629899E+03  1.520549E+04 -5.020312E+03 -5.878415E+03
       273  10 -5.484829E+04 -3.867050E+05 -5.832247E+04  2.573887E+04  1.332991E-09 -9.203303E-10
       273  11 -2.664106E+04 -3.676085E+05 -3.675137E+04  1.489818E+04 -1.807798E-10 -6.388455E-09
       273  12 -2.034726E+04 -3.553956E+05 -2.788841E+04  9.232614E+03 -1.108886E-09 -1.395386E-08
       273  13 -2.525155E+04 -2.678894E+05 -2.970914E+04  1.213707E+04  2.730860E-09 -2.136642E-09
       273  14 -1.578842E+03 -2.647495E+05 -1.453123E+04  9.590216E+03  1.404418E-09 -2.326292E-09
       273  15  7.899307E+02 -2.678845E+05 -9.629103E+03  1.221882E+04 -4.289429E-11 -1.334000E-08
       273  16  4.344849E+03 -1.490604E+05 -1.096723E+03 -1.467344E+03  1.089157E-09  3.092374E-09
       273  17  2.348277E+04 -1.618804E+05  7.688290E+03  4.281363E+03  5.037765E-09  4.689934E-09
       273  18  2.192667E+04 -1.803661E+05  8.629787E+03  1.520546E+04 -3.850110E-09  5.195744E-09
       273  19 -5.484812E+04 -3.867043E+05 -5.832130E+04  2.573890E+04  1.484619E+03  2.492794E+04
       273  20 -2.664098E+04 -3.676083E+05 -3.675096E+04  1.489824E+04  4.843368E+03  1.382576E+04
       273  21 -2.034723E+04 -3.553956E+05 -2.788835E+04  9.232625E+03  5.030204E+03  2.713017E+03
       273  22 -2.525144E+04 -2.678890E+05 -2.970842E+04  1.213709E+04  1.501184E+03  1.951208E+04
       273  23 -1.578779E+03 -2.647493E+05 -1.453092E+04  9.590262E+03  4.849204E+03  1.190894E+04
       273  24  7.899627E+02 -2.678845E+05 -9.629020E+03  1.221884E+04  5.025250E+03  4.295607E+03
       273  25  4.344905E+03 -1.490602E+05 -1.096346E+03 -1.467327E+03  1.517986E+03  1.409519E+04
       273  26  2.348283E+04 -1.618803E+05  7.688522E+03  4.281402E+03  4.855072E+03  9.991795E+03
       273  27  2.192670E+04 -1.803661E+05  8.629899E+03  1.520549E+04  5.020312E+03  5.878415E+03
       274   1 -1.940218E+04 -3.424576E+05 -2.443199E+04  1.307595E+04 -4.284298E+03 -2.078393E+03
       274   2 -1.459350E+04 -3.262273E+05 -2.018907E+04  9.673678E+03 -3.522420E+03  1.945682E+03
       274   3 -1.213910E+04 -3.110668E+05 -1.914544E+04  1.165699E+04 -2.606440E+03  5.970272E+03
       274   4 -1.072642E+03 -2.667214E+05 -8.574104E+03  1.224644E+04 -4.281876E+03 -2.848070E+03
       274   5 -8.696728E+01 -2.662010E+05 -7.704731E+03  9.553106E+03 -3.519503E+03  1.006300E+03
       274   6 -1.425946E+03 -2.667210E+05 -9.916537E+03  1.224535E+04 -2.603027E+03  4.861087E+03
       274   7  1.725653E+04 -1.909798E+05  7.283466E+03  1.141683E+04 -4.279453E+03 -3.617839E+03
       274   8  1.441933E+04 -2.061712E+05  4.779412E+03  9.432525E+03 -3.516586E+03  6.682914E+01
       274   9  9.287083E+03 -2.223732E+05 -6.877364E+02  1.283374E+04 -2.599616E+03  3.751824E+03
       274  10 -1.940220E+04 -3.424576E+05 -2.443203E+04  1.307595E+04 -2.080612E-09  8.408065E-10
       274  11 -1.459351E+04 -3.262274E+05 -2.018910E+04  9.673683E+03  1.138801E-10 -1.255249E-08
       274  12 -1.213911E+04 -3.110669E+05 -1.914552E+04  1.165701E+04 -1.110282E-10 -2.704563E-08
       274  13 -1.072664E+03 -2.667214E+05 -8.574153E+03  1.224643E+04 -1.918316E-09 -6.840218E-12
       274  14 -8.698085E+01 -2.662010E+05 -7.704756E+03  9.553109E+03  4.140572E-10 -8.703809E-09
       274  15 -1.425959E+03 -2.667210E+05 -9.916594E+03  1.224536E+04 -3.106959E-11 -1.969412E-08
       274  16  1.725650E+04 -1.909799E+05  7.283407E+03  1.141682E+04 -3.083428E-09 -8.365858E-09
       274  17  1.441932E+04 -2.061712E+05  4.779389E+03  9.432525E+03 -1.600137E-09  1.032594E-08
       274  18  9.287072E+03 -2.223732E+05 -6.877755E+02  1.283375E+04 -1.638594E-09  1.732039E-08
       274  19 -1.940218E+04 -3.424576E+05 -2.443199E+04  1.307595E+04  4.284298E+03  2.078393E+03
       274  20 -1.459350E+04 -3.262273E+05 -2.018907E+04  9.673678E+03  3.522420E+03 -1.945682E+03
       274  21 -1.213910E+04 -3.110668E+05 -1.914544E+04  1.165699E+04  2.606440E+03 -5.970272E+03
       274  22 -1.072642E+03 -2.667214E+05 -8.574104E+03  1.224644E+04  4.281876E+03  2.848070E+03
       274  23 -8.696728E+01 -2.662010E+05 -7.704731E+03  9.553106E+03  3.519503E+03 -1.006300E+03
       274  24 -1.425946E+03 -2.667210E+05 -9.916537E+03  1.224535E+04  2.603027E+03 -4.861087E+03
       274  25  1.725653E+04 -1.909798E+05  7.283466E+03  1.141683E+04  4.279453E+03  3.617839E+03
       274  26  1.441933E+04 -2.061712E+05  4.779412E+03  9.432525E+03  3.516586E+03 -6.682914E+01
       274  27  9.287083E+03 -2.223732E+05 -6.877364E+02  1.283374E+04  2.599616E+03 -3.751824E+03
       275   1 -6.825007E+03 -3.009539E+05 -1.839175E+04  1.656533E+04 -2.018125E+03  7.654117E+03
       275   2 -6.108321E+03 -2.812152E+05 -2.210404E+04  2.966726E+03 -1.106679E+03  1.730544E+04
       275   3 -3.329816E+04 -2.696692E+05 -3.906805E+04 -5.296821E+03 -3.044140E+02  2.695650E+04
       275   4  1.083372E+03 -2.683142E+05 -1.165637E+04  1.225923E+04 -2.014817E+03  6.555560E+03
       275   5 -2.057408E+03 -2.642094E+05 -1.861876E+04  9.539416E+03 -1.103509E+03  1.632721E+04
       275   6 -3.312567E+04 -2.683186E+05 -3.891640E+04  1.215465E+04 -3.010450E+02  2.609837E+04
       275   7  8.991753E+03 -2.356734E+05 -4.921042E+03  7.952901E+03 -2.011494E+03  5.456947E+03
       275   8  1.993650E+03 -2.472033E+05 -1.513346E+04  1.611229E+04 -1.100361E+03  1.534895E+04
       275   9 -3.295204E+04 -2.669674E+05 -3.876458E+04  2.960617E+04 -2.977244E+02  2.524024E+04
       275  10 -6.825027E+03 -3.009540E+05 -1.839186E+04  1.656534E+04  7.194614E-10  1.809202E-08
       275  11 -6.108403E+03 -2.812155E+05 -2.210460E+04  2.966742E+03  3.036541E-09 -6.056858E-10
       275  12 -3.329835E+04 -2.696699E+05 -3.906942E+04 -5.296815E+03  1.058331E-09 -1.459769E-08
       275  13  1.083356E+03 -2.683142E+05 -1.165646E+04  1.225924E+04 -6.770139E-10 -6.469032E-09
       275  14 -2.057481E+03 -2.642097E+05 -1.861926E+04  9.539430E+03  1.405334E-10 -6.529303E-09
       275  15 -3.312586E+04 -2.683193E+05 -3.891768E+04  1.215466E+04 -1.802689E-10 -1.016843E-08
       275  16  8.991740E+03 -2.356734E+05 -4.921106E+03  7.952910E+03 -2.927710E-09 -2.251289E-08
       275  17  1.993585E+03 -2.472035E+05 -1.513391E+04  1.611230E+04 -3.617084E-10 -3.673188E-09
       275  18 -3.295222E+04 -2.669681E+05 -3.876578E+04  2.960618E+04 -1.102365E-09  5.758241E-09
       275  19 -6.825007E+03 -3.009539E+05 -1.839175E+04  1.656533E+04  2.018125E+03 -7.654117E+03
       275  20 -6.108321E+03 -2.812152E+05 -2.210404E+04  2.966726E+03  1.106679E+03 -1.730544E+04
       275  21 -3.329816E+04 -2.696692E+05 -3.906805E+04 -5.296821E+03  3.044140E+02 -2.695650E+04
       275  22  1.083372E+03 -2.683142E+05 -1.165637E+04  1.225923E+04  2.014817E+03 -6.555560E+03
       275  23 -2.057408E+03 -2.642094E+05 -1.861876E+04  9.539416E+03  1.103509E+03 -1.632721E+04
       275  24 -3.312567E+04 -2.683186E+05 -3.891640E+04  1.215465E+04  3.010450E+02 -2.609837E+04
       275  25  8.991753E+03 -2.356734E+05 -4.921042E+03  7.952901E+03  2.011494E+03 -5.456947E+03
       275  26  1.993650E+03 -2.472033E+05 -1.513346E+04  1.611229E+04  1.100361E+03 -1.534895E+04
       275  27 -3.295204E+04 -2.669674E+05 -3.876458E+04  2.960617E+04  2.977244E+02 -2.524024E+04
       276   1 -3.557424E+05 -1.577032E+05 -1.441266E+05 -2.991041E+04 -4.893299E+03  1.097644E+04
       276   2 -2.877663E+05 -1.747479E+05 -1.344536E+05 -3.164621E+04  6.515383E+03  3.513971E+04
       276   3 -2.133948E+05 -1.609959E+05 -1.244873E+05 -5.670177E+04  1.794771E+04  3.825683E+04
       276   4  4.461205E+05  4.112587E+04  4.843097E+04 -5.109648E+04  3.340035E+04  1.101205E+04
       276   5  4.409346E+05  2.351274E+03  2.245406E+04 -3.942125E+04  2.157693E+04  3.514797E+04
       276   6  4.461609E+05 -1.614038E+03  1.289468E+04 -5.106334E+04  9.775847E+03  3.824938E+04
       276   7  1.248576E+06  2.399107E+05  2.409486E+05 -7.231014E+04  7.174326E+04  1.104503E+04
       276   8  1.170135E+06  1.794160E+05  1.793314E+05 -4.720563E+04  3.665590E+04  3.515585E+04
       276   9  1.106128E+06  1.577402E+05  1.502530E+05 -4.541885E+04  1.595443E+03  3.824179E+04
       276  10 -3.557425E+05 -1.577034E+05 -1.441268E+05 -2.991037E+04  4.451344E-11 -4.093138E-11
       276  11 -2.877667E+05 -1.747493E+05 -1.344560E+05 -3.164639E+04 -3.979247E-10 -6.141307E-11
       276  12 -2.133955E+05 -1.609975E+05 -1.244906E+05 -5.670232E+04  8.454315E-11  6.742621E-11
       276  13  4.461193E+05  4.112544E+04  4.842865E+04 -5.109677E+04  5.574794E-10  5.148731E-11
       276  14  4.409338E+05  2.349822E+03  2.245086E+04 -3.942186E+04 -7.181169E-10  1.914338E-11
       276  15  4.461604E+05 -1.615635E+03  1.289175E+04 -5.106364E+04 -3.338480E-10  3.781562E-11
       276  16  1.248571E+06  2.399092E+05  2.409387E+05 -7.231077E+04  5.497474E-10  6.193817E-11
       276  17  1.170133E+06  1.794143E+05  1.793266E+05 -4.720667E+04 -8.833372E-11  1.241465E-10
       276  18  1.106128E+06  1.577386E+05  1.502502E+05 -4.541890E+04 -3.043850E-10  1.143776E-11
       276  19 -3.557424E+05 -1.577032E+05 -1.441266E+05 -2.991041E+04  4.893299E+03 -1.097644E+04
       276  20 -2.877663E+05 -1.747479E+05 -1.344536E+05 -3.164621E+04 -6.515383E+03 -3.513971E+04
       276  21 -2.133948E+05 -1.609959E+05 -1.244873E+05 -5.670177E+04 -1.794771E+04 -3.825683E+04
       276  22  4.461205E+05  4.112587E+04  4.843097E+04 -5.109648E+04 -3.340035E+04 -1.101205E+04
       276  23  4.409346E+05  2.351274E+03  2.245406E+04 -3.942125E+04 -2.157693E+04 -3.514797E+04
       276  24  4.461609E+05 -1.614038E+03  1.289468E+04 -5.106334E+04 -9.775847E+03 -3.824938E+04
       276  25  1.248576E+06  2.399107E+05  2.409486E+05 -7.231014E+04 -7.174326E+04 -1.104503E+04
       276  26  1.170135E+06  1.794160E+05  1.793314E+05 -4.720563E+04 -3.665590E+04 -3.515585E+04
       276  27  1.106128E+06  1.577402E+05  1.502530E+05 -4.541885E+04 -1.595443E+03 -3.824179E+04
       277   1 -1.623162E+05 -1.449663E+05 -1.166401E+05 -5.091380E+04  1.076828E+04  3.452127E+04
       277   2 -9.198326E+04 -1.294200E+05 -1.057003E+05 -3.918785E+04  9.161789E+03  3.148736E+04
       277   3 -2.098843E+04 -1.124561E+05 -9.333758E+04 -5.169866E+04  7.553285E+03  2.740016E+04
       277   4  4.440507E+05  1.643029E+03  1.012182E+04 -5.127538E+04  8.007013E+03  3.451744E+04
       277   5  4.436336E+05 -6.510849E+01  5.550433E+03 -3.915740E+04  5.235394E+03  3.148406E+04
       277   6  4.440750E+05 -1.539795E+02  3.209605E+03 -5.127487E+04  2.461947E+03  2.739781E+04
       277   7  1.050765E+06  1.482289E+05  1.368634E+05 -5.163735E+04  5.243087E+03  3.451362E+04
       277   8  9.795221E+05  1.292716E+05  1.167855E+05 -3.912694E+04  1.305668E+03  3.148075E+04
       277   9  9.093433E+05  1.121344E+05  9.974507E+04 -5.085074E+04 -2.633141E+03  2.739547E+04
       277  10 -1.623167E+05 -1.449676E+05 -1.166426E+05 -5.091410E+04 -1.723755E-10  8.575980E-11
       277  11 -9.198362E+04 -1.294211E+05 -1.057023E+05 -3.918808E+04 -6.752540E-10 -3.493839E-12
       277  12 -2.098869E+04 -1.124569E+05 -9.333909E+04 -5.169883E+04 -1.014303E-10 -7.044984E-11
       277  13  4.440503E+05  1.641732E+03  1.011946E+04 -5.127561E+04  2.865646E-10  3.574009E-11
       277  14  4.436333E+05 -6.618050E+01  5.548518E+03 -3.915753E+04 -3.722029E-10 -9.213958E-11
       277  15  4.440748E+05 -1.547873E+02  3.208183E+03 -5.127492E+04 -3.406330E-10  1.001188E-11
       277  16  1.050765E+06  1.482276E+05  1.368611E+05 -5.163750E+04  1.687260E-10 -3.188422E-11
       277  17  9.795218E+05  1.292705E+05  1.167837E+05 -3.912697E+04  1.818538E-10  1.490781E-11
       277  18  9.093431E+05  1.121336E+05  9.974364E+04 -5.085068E+04  1.546481E-11  7.823088E-11
       277  19 -1.623162E+05 -1.449663E+05 -1.166401E+05 -5.091380E+04 -1.076828E+04 -3.452127E+04
       277  20 -9.198326E+04 -1.294200E+05 -1.057003E+05 -3.918785E+04 -9.161789E+03 -3.148736E+04
       277  21 -2.098843E+04 -1.124561E+05 -9.333758E+04 -5.169866E+04 -7.553285E+03 -2.740016E+04
       277  22  4.440507E+05  1.643029E+03  1.012182E+04 -5.127538E+04 -8.007013E+03 -3.451744E+04
       277  23  4.436336E+05 -6.510849E+01  5.550433E+03 -3.915740E+04 -5.235394E+03 -3.148406E+04
       277  24  4.440750E+05 -1.539795E+02  3.209605E+03 -5.127487E+04 -2.461947E+03 -2.739781E+04
       277  25  1.050765E+06  1.482289E+05  1.368634E+05 -5.163735E+04 -5.243087E+03 -3.451362E+04
       277  26  9.795221E+05  1.292716E+05  1.167855E+05 -3.912694E+04 -1.305668E+03 -3.148075E+04
       277  27  9.093433E+05  1.121344E+05  9.974507E+04 -5.085074E+04  2.633141E+03 -2.739547E+04
       278   1  3.126877E+04 -9.958411E+04 -8.289463E+04 -5.138356E+04  6.777231E+03  2.474568E+04
       278   2  1.016486E+05 -8.265179E+04 -6.946693E+04 -3.923173E+04  6.127075E+03  2.035866E+04
       278   3  1.721678E+05 -6.564968E+04 -5.559071E+04 -5.129268E+04  5.475233E+03  1.592195E+04
       278   4  4.439262E+05 -2.569359E+00  2.458188E+03 -5.126981E+04  1.962125E+03  2.474402E+04
       278   5  4.438612E+05 -5.018143E+01  1.428271E+03 -3.916383E+04  1.256462E+03  2.035782E+04
       278   6  4.439413E+05 -1.790407E+01  8.855112E+02 -5.126983E+04  5.491871E+02  1.592196E+04
       278   7  8.567451E+05  9.956820E+04  8.780186E+04 -5.115598E+04 -2.856126E+03  2.474237E+04
       278   8  7.861848E+05  8.254401E+04  7.231719E+04 -3.909589E+04 -3.616788E+03  2.035698E+04
       278   9  7.157848E+05  6.560919E+04  5.735778E+04 -5.124696E+04 -4.378978E+03  1.592196E+04
       278  10  3.126855E+04 -9.958478E+04 -8.289586E+04 -5.138369E+04 -1.471244E-10 -4.440637E-11
       278  11  1.016485E+05 -8.265224E+04 -6.946778E+04 -3.923183E+04 -4.645391E-12  2.757906E-11
       278  12  1.721677E+05 -6.564996E+04 -5.559124E+04 -5.129275E+04 -2.920903E-10 -1.566076E-10
       278  13  4.439261E+05 -3.228001E+00  2.457030E+03 -5.126985E+04  5.946357E-11  2.147536E-11
       278  14  4.438611E+05 -5.062699E+01  1.427489E+03 -3.916385E+04  8.667197E-11  3.295836E-11
       278  15  4.439412E+05 -1.817643E+01  8.850341E+02 -5.126983E+04  3.688486E-10 -2.917094E-11
       278  16  8.567449E+05  9.956754E+04  8.780069E+04 -5.115592E+04 -1.735393E-10  7.948769E-11
       278  17  7.861847E+05  8.254357E+04  7.231639E+04 -3.909583E+04  6.294924E-11  9.023597E-11
       278  18  7.157847E+05  6.560892E+04  5.735727E+04 -5.124691E+04 -1.115479E-10  2.137393E-11
       278  19  3.126877E+04 -9.958411E+04 -8.289463E+04 -5.138356E+04 -6.777231E+03 -2.474568E+04
       278  20  1.016486E+05 -8.265179E+04 -6.946693E+04 -3.923173E+04 -6.127075E+03 -2.035866E+04
       278  21  1.721678E+05 -6.564968E+04 -5.559071E+04 -5.129268E+04 -5.475233E+03 -1.592195E+04
       278  22  4.439262E+05 -2.569359E+00  2.458188E+03 -5.126981E+04 -1.962125E+03 -2.474402E+04
       278  23  4.438612E+05 -5.018143E+01  1.428271E+03 -3.916383E+04 -1.256462E+03 -2.035782E+04
       278  24  4.439413E+05 -1.790407E+01  8.855112E+02 -5.126983E+04 -5.491871E+02 -1.592196E+04
       278  25  8.567451E+05  9.956820E+04  8.780186E+04 -5.115598E+04  2.856126E+03 -2.474237E+04
       278  26  7.861848E+05  8.254401E+04  7.231719E+04 -3.909589E+04  3.616788E+03 -2.035698E+04
       278  27  7.157848E+05  6.560919E+04  5.735778E+04 -5.124696E+04  4.378978E+03 -1.592196E+04
       279   1  2.244128E+05 -5.295005E+04 -4.455551E+04 -5.126817E+04  5.313332E+03  1.332775E+04
       279   2  2.947286E+05 -3.600724E+04 -3.034180E+04 -3.916473E+04  5.041032E+03  8.881020E+03
       279   3  3.650880E+05 -1.905410E+04 -1.594847E+04 -5.123875E+04  4.767985E+03  4.433311E+03
       279   4  4.439230E+05 -8.605558E+00  7.219523E+02 -5.126208E+04  4.033632E+02  1.332811E+04
       279   5  4.439072E+05 -4.602627E+00  5.536690E+02 -3.917352E+04  1.296095E+02  8.881745E+03
       279   6  4.439295E+05  9.951087E+00  5.657412E+02 -5.126208E+04 -1.448614E+02  4.434409E+03
       279   7  6.634789E+05  5.292981E+04  4.599691E+04 -5.125599E+04 -4.508311E+03  1.332848E+04
       279   8  5.931070E+05  3.599663E+04  3.144801E+04 -3.918231E+04 -4.782973E+03  8.882469E+03
       279   9  5.227769E+05  1.907362E+04  1.707970E+04 -5.128541E+04 -5.058321E+03  4.435506E+03
       279  10  2.244128E+05 -5.295025E+04 -4.455590E+04 -5.126822E+04 -5.196190E-10 -1.940009E-10
       279  11  2.947285E+05 -3.600733E+04 -3.034199E+04 -3.916476E+04 -1.030429E-10 -1.805964E-10
       279  12  3.650880E+05 -1.905413E+04 -1.594855E+04 -5.123877E+04 -6.939553E-12  6.459286E-11
       279  13  4.439229E+05 -8.796395E+00  7.216181E+02 -5.126208E+04 -2.609326E-10 -3.301107E-11
       279  14  4.439072E+05 -4.687359E+00  5.535207E+02 -3.917352E+04  3.069105E-11 -5.570994E-11
       279  15  4.439295E+05  9.929962E+00  5.657042E+02 -5.126208E+04 -2.047143E-10  5.221351E-11
       279  16  6.634788E+05  5.292962E+04  4.599654E+04 -5.125594E+04  3.716816E-10  1.225159E-11
       279  17  5.931069E+05  3.599654E+04  3.144782E+04 -3.918228E+04  7.162031E-10  3.134572E-11
       279  18  5.227769E+05  1.907359E+04  1.707961E+04 -5.128539E+04  2.985750E-10 -9.523314E-11
       279  19  2.244128E+05 -5.295005E+04 -4.455551E+04 -5.126817E+04 -5.313332E+03 -1.332775E+04
       279  20  2.947286E+05 -3.600724E+04 -3.034180E+04 -3.916473E+04 -5.041032E+03 -8.881020E+03
       279  21  3.650880E+05 -1.905410E+04 -1.594847E+04 -5.123875E+04 -4.767985E+03 -4.433311E+03
       279  22  4.439230E+05 -8.605558E+00  7.219523E+02 -5.126208E+04 -4.033632E+02 -1.332811E+04
       279  23  4.439072E+05 -4.602627E+00  5.536690E+02 -3.917352E+04 -1.296095E+02 -8.881745E+03
       279  24  4.439295E+05  9.951087E+00  5.657412E+02 -5.126208E+04  1.448614E+02 -4.434409E+03
       279  25  6.634789E+05  5.292981E+04  4.599691E+04 -5.125599E+04  4.508311E+03 -1.332848E+04
       279  26  5.931070E+05  3.599663E+04  3.144801E+04 -3.918231E+04  4.782973E+03 -8.882469E+03
       279  27  5.227769E+05  1.907362E+04  1.707970E+04 -5.128541E+04  5.058321E+03 -4.435506E+03
       280   1  4.173097E+05 -6.376822E+03 -4.691510E+03 -5.124182E+04  4.657667E+03  1.844684E+03
       280   2  4.875998E+05  1.053882E+04  9.977497E+03 -3.913910E+04  4.196057E+03 -2.601558E+03
       280   3  5.579517E+05  2.747211E+04  2.494878E+04 -5.120374E+04  3.734605E+03 -7.046048E+03
       280   4  4.439348E+05  1.090494E+01  6.348352E+02 -5.125993E+04 -2.547114E+02  1.845859E+03
       280   5  4.439054E+05 -5.182120E+00  9.288238E+02 -3.917620E+04 -7.146120E+02 -2.600498E+03
       280   6  4.439328E+05 -3.645421E+00  1.524013E+03 -5.125992E+04 -1.174304E+03 -7.045087E+03
       280   7  4.705607E+05  6.398602E+03  5.961235E+03 -5.127804E+04 -5.167296E+03  1.847035E+03
       280   8  4.002129E+05 -1.054929E+04 -8.119863E+03 -3.921329E+04 -5.624941E+03 -2.599437E+03
       280   9  3.299263E+05 -2.748020E+04 -2.190136E+04 -5.131610E+04 -6.082328E+03 -7.044124E+03
       280  10  4.173097E+05 -6.376832E+03 -4.691557E+03 -5.124183E+04  4.756557E-10  6.520244E-11
       280  11  4.875998E+05  1.053881E+04  9.977451E+03 -3.913909E+04 -3.961394E-10 -1.540510E-10
       280  12  5.579517E+05  2.747205E+04  2.494866E+04 -5.120372E+04 -7.080286E-10  1.003286E-10
       280  13  4.439348E+05  1.090126E+01  6.348287E+02 -5.125993E+04 -1.302494E-10 -2.016785E-11
       280  14  4.439054E+05 -5.189520E+00  9.288101E+02 -3.917620E+04 -4.834126E-10 -1.535239E-10
       280  15  4.439328E+05 -3.699101E+00  1.523918E+03 -5.125993E+04  3.052920E-10  9.774344E-11
       280  16  4.705606E+05  6.398591E+03  5.961178E+03 -5.127804E+04 -4.617484E-10 -2.120625E-10
       280  17  4.002128E+05 -1.054931E+04 -8.119935E+03 -3.921330E+04 -5.070510E-10 -1.856280E-10
       280  18  3.299262E+05 -2.748026E+04 -2.190152E+04 -5.131613E+04  3.609698E-10  6.382227E-11
       280  19  4.173097E+05 -6.376822E+03 -4.691510E+03 -5.124182E+04 -4.657667E+03 -1.844684E+03
       280  20  4.875998E+05  1.053882E+04  9.977497E+03 -3.913910E+04 -4.196057E+03  2.601558E+03
       280  21  5.579517E+05  2.747211E+04  2.494878E+04 -5.120374E+04 -3.734605E+03  7.046048E+03
       280  22  4.439348E+05  1.090494E+01  6.348352E+02 -5.125993E+04  2.547114E+02 -1.845859E+03
       280  23  4.439054E+05 -5.182120E+00  9.288238E+02 -3.917620E+04  7.146120E+02  2.600498E+03
       280  24  4.439328E+05 -3.645421E+00  1.524013E+03 -5.125992E+04  1.174304E+03  7.045087E+03
       280  25  4.705607E+05  6.398602E+03  5.961235E+03 -5.127804E+04  5.167296E+03 -1.847035E+03
       280  26  4.002129E+05 -1.054929E+04 -8.119863E+03 -3.921329E+04  5.624941E+03  2.599437E+03
       280  27  3.299263E+05 -2.748020E+04 -2.190136E+04 -5.131610E+04  6.082328E+03  7.044124E+03
       281   1  6.102413E+05  4.013640E+04  3.659654E+04 -5.117625E+04  3.430322E+03 -9.637362E+03
       281   2  6.804925E+05  5.704203E+04  5.241702E+04 -3.903276E+04  1.695674E+03 -1.407056E+04
       281   3  7.510360E+05  7.415320E+04  6.941889E+04 -5.107876E+04 -3.801703E+01 -1.845989E+04
       281   4  4.439794E+05 -1.887107E+01  1.982354E+03 -5.126495E+04 -1.492123E+03 -9.636607E+03
       281   5  4.438338E+05 -6.203356E+01  3.403488E+03 -3.916989E+04 -3.177929E+03 -1.407039E+04
       281   6  4.439686E+05  9.254045E+01  5.972904E+03 -5.126488E+04 -4.862589E+03 -1.846029E+04
       281   7  2.777436E+05 -4.017589E+04 -3.263326E+04 -5.135362E+04 -6.413273E+03 -9.635850E+03
       281   8  2.072282E+05 -5.716963E+04 -4.561300E+04 -3.930697E+04 -8.049708E+03 -1.407023E+04
       281   9  1.369906E+05 -7.397407E+04 -5.747810E+04 -5.145091E+04 -9.684817E+03 -1.846069E+04
       281  10  6.102413E+05  4.013629E+04  3.659634E+04 -5.117622E+04  2.248974E-10  8.740530E-11
       281  11  6.804925E+05  5.704181E+04  5.241664E+04 -3.903274E+04  8.228971E-11 -5.022012E-11
       281  12  7.510359E+05  7.415284E+04  6.941825E+04 -5.107876E+04 -1.449793E-10  6.646252E-11
       281  13  4.439793E+05 -1.897141E+01  1.982175E+03 -5.126496E+04 -8.181890E-11  1.085591E-10
       281  14  4.438337E+05 -6.224890E+01  3.403097E+03 -3.916993E+04  3.306556E-10 -1.304835E-10
       281  15  4.439685E+05  9.216808E+01  5.972219E+03 -5.126495E+04  6.292596E-10 -2.561449E-11
       281  16  2.777435E+05 -4.017600E+04 -3.263351E+04 -5.135367E+04 -5.954997E-10  1.003354E-10
       281  17  2.072280E+05 -5.716986E+04 -4.561349E+04 -3.930706E+04 -1.128196E-10 -2.323528E-10
       281  18  1.369904E+05 -7.397446E+04 -5.747891E+04 -5.145105E+04  6.607214E-10 -1.077494E-10
       281  19  6.102413E+05  4.013640E+04  3.659654E+04 -5.117625E+04 -3.430322E+03  9.637362E+03
       281  20  6.804925E+05  5.704203E+04  5.241702E+04 -3.903276E+04 -1.695674E+03  1.407056E+04
       281  21  7.510360E+05  7.415320E+04  6.941889E+04 -5.107876E+04  3.801703E+01  1.845989E+04
       281  22  4.439794E+05 -1.887107E+01  1.982354E+03 -5.126495E+04  1.492123E+03  9.636607E+03
       281  23  4.438338E+05 -6.203356E+01  3.403488E+03 -3.916989E+04  3.177929E+03  1.407039E+04
       281  24  4.439686E+05  9.254045E+01  5.972904E+03 -5.126488E+04  4.862589E+03  1.846029E+04
       281  25  2.777436E+05 -4.017589E+04 -3.263326E+04 -5.135362E+04  6.413273E+03  9.635850E+03
       281  26  2.072282E+05 -5.716963E+04 -4.561300E+04 -3.930697E+04  8.049708E+03  1.407023E+04
       281  27  1.369906E+05 -7.397407E+04 -5.747810E+04 -5.145091E+04  9.684817E+03  1.846069E+04
       282   1  8.037624E+05  8.649353E+04  8.245420E+04 -5.036880E+04 -1.016118E+03 -2.110207E+04
       282   2  8.732785E+05  1.037729E+05  1.028799E+05 -3.938538E+04 -8.838659E+03 -2.522909E+04
       282   3  9.449130E+05  1.252109E+05  1.294455E+05 -5.259652E+04 -1.666060E+04 -2.843928E+04
       282   4  4.443296E+05 -2.668941E+02  7.827883E+03 -5.126591E+04 -6.081017E+03 -2.110296E+04
       282   5  4.433500E+05 -1.129982E+00  1.361283E+04 -3.916841E+04 -1.288619E+04 -2.523092E+04
       282   6  4.443085E+05  4.248683E+03  2.483462E+04 -5.126636E+04 -1.968988E+04 -2.844176E+04
       282   7  8.501919E+04 -8.703550E+04 -6.680540E+04 -5.216249E+04 -1.114304E+04 -2.110384E+04
       282   8  1.359636E+04 -1.037869E+05 -7.566432E+04 -3.895160E+04 -1.693096E+04 -2.523276E+04
       282   9 -5.605923E+04 -1.167296E+05 -7.979015E+04 -4.993729E+04 -2.271675E+04 -2.844426E+04
       282  10  8.037622E+05  8.649305E+04  8.245336E+04 -5.036882E+04  3.590659E-10  1.293493E-10
       282  11  8.732782E+05  1.037722E+05  1.028786E+05 -3.938556E+04 -2.601305E-10  6.865716E-11
       282  12  9.449125E+05  1.252100E+05  1.294435E+05 -5.259690E+04  4.989276E-10 -6.628075E-11
       282  13  4.443295E+05 -2.673823E+02  7.826976E+03 -5.126602E+04  5.415752E-10  8.626508E-11
       282  14  4.433496E+05 -1.858282E+00  1.361132E+04 -3.916868E+04 -3.519974E-10  1.833211E-11
       282  15  4.443079E+05  4.247710E+03  2.483237E+04 -5.126681E+04  4.930466E-10 -1.703053E-10
       282  16  8.501893E+04 -8.703601E+04 -6.680647E+04 -5.216268E+04  1.860309E-10  1.594176E-11
       282  17  1.359588E+04 -1.037877E+05 -7.566605E+04 -3.895195E+04  1.880003E-10 -1.197105E-10
       282  18 -5.606000E+04 -1.167306E+05 -7.979265E+04 -4.993781E+04 -1.637471E-13 -2.068566E-10
       282  19  8.037624E+05  8.649353E+04  8.245420E+04 -5.036880E+04  1.016118E+03  2.110207E+04
       282  20  8.732785E+05  1.037729E+05  1.028799E+05 -3.938538E+04  8.838659E+03  2.522909E+04
       282  21  9.449130E+05  1.252109E+05  1.294455E+05 -5.259652E+04  1.666060E+04  2.843928E+04
       282  22  4.443296E+05 -2.668941E+02  7.827883E+03 -5.126591E+04  6.081017E+03  2.110296E+04
       282  23  4.433500E+05 -1.129982E+00  1.361283E+04 -3.916841E+04  1.288619E+04  2.523092E+04
       282  24  4.443085E+05  4.248683E+03  2.483462E+04 -5.126636E+04  1.968988E+04  2.844176E+04
       282  25  8.501919E+04 -8.703550E+04 -6.680540E+04 -5.216249E+04  1.114304E+04  2.110384E+04
       282  26  1.359636E+04 -1.037869E+05 -7.566432E+04 -3.895160E+04  1.693096E+04  2.523276E+04
       282  27 -5.605923E+04 -1.167296E+05 -7.979015E+04 -4.993729E+04  2.271675E+04  2.844426E+04
       283   1  1.003123E+06  1.299870E+05  1.469256E+05 -3.780230E+04 -1.628835E+04 -3.201914E+04
       283   2  1.059778E+06  1.573392E+05  1.892756E+05 -5.929814E+04 -6.554446E+04 -2.989913E+04
       283   3  1.145158E+06  2.735091E+05  2.858893E+05 -1.042126E+05 -1.148215E+05 -9.465184E+03
       283   4  4.494766E+05 -3.717954E+03  3.164027E+04 -5.107989E+04 -2.403229E+04 -3.202341E+04
       283   5  4.368363E+05  6.057151E+03  5.515065E+04 -3.939934E+04 -5.302142E+04 -2.989730E+04
       283   6  4.494281E+05  1.011794E+05  1.188900E+05 -5.113373E+04 -8.202436E+04 -9.454208E+03
       283   7 -1.038797E+05 -1.374417E+05 -8.366165E+04 -6.434548E+04 -3.176944E+04 -3.202736E+04
       283   8 -1.857400E+05 -1.452488E+05 -7.899633E+04 -1.952079E+04 -4.051073E+04 -2.989466E+04
       283   9 -2.458507E+05 -7.117426E+04 -4.813800E+04  1.885427E+03 -4.926373E+04 -9.437631E+03
       283  10  1.003123E+06  1.299858E+05  1.469232E+05 -3.780272E+04 -2.311040E-11 -8.126140E-11
       283  11  1.059773E+06  1.573370E+05  1.892659E+05 -5.929971E+04 -2.637472E-11 -6.810675E-11
       283  12  1.145144E+06  2.735054E+05  2.858644E+05 -1.042134E+05  3.904885E-10 -1.011187E-10
       283  13  4.494757E+05 -3.719210E+03  3.163726E+04 -5.108051E+04  7.592617E-10 -1.797645E-10
       283  14  4.368330E+05  6.055436E+03  5.514369E+04 -3.940061E+04  3.637618E-10  4.778150E-10
       283  15  4.494209E+05  1.011775E+05  1.188772E+05 -5.113436E+04 -3.760231E-11  3.014780E-11
       283  16 -1.038811E+05 -1.374431E+05 -8.366547E+04 -6.434630E+04  2.459534E-10 -1.727980E-10
       283  17 -1.857420E+05 -1.452502E+05 -7.900109E+04 -1.952176E+04 -2.238532E-10  2.119660E-10
       283  18 -2.458534E+05 -7.117501E+04 -4.814273E+04  1.885052E+03 -2.836309E-10  4.521085E-12
       283  19  1.003123E+06  1.299870E+05  1.469256E+05 -3.780230E+04  1.628835E+04  3.201914E+04
       283  20  1.059778E+06  1.573392E+05  1.892756E+05 -5.929814E+04  6.554446E+04  2.989913E+04
       283  21  1.145158E+06  2.735091E+05  2.858893E+05 -1.042126E+05  1.148215E+05  9.465184E+03
       283  22  4.494766E+05 -3.717954E+03  3.164027E+04 -5.107989E+04  2.403229E+04  3.202341E+04
       283  23  4.368363E+05  6.057151E+03  5.515065E+04 -3.939934E+04  5.302142E+04  2.989730E+04
       283  24  4.494281E+05  1.011794E+05  1.188900E+05 -5.113373E+04  8.202436E+04  9.454208E+03
       283  25 -1.038797E+05 -1.374417E+05 -8.366165E+04 -6.434548E+04  3.176944E+04  3.202736E+04
       283  26 -1.857400E+05 -1.452488E+05 -7.899633E+04 -1.952079E+04  4.051073E+04  2.989466E+04
       283  27 -2.458507E+05 -7.117426E+04 -4.813800E+04  1.885427E+03  4.926373E+04  9.437631E+03
       284   1  2.013961E+05  1.125548E+06  2.084459E+05 -1.491951E+05  6.078917E+03  7.297564E+04
       284   2  1.002493E+05  9.585535E+05  1.202595E+05 -1.015807E+05  1.734960E+04  3.787133E+04
       284   3  5.571124E+04  8.101608E+05  6.902804E+04 -1.072591E+05  1.311521E+04  2.757136E+03
       284   4  6.380507E+04  5.715229E+05  7.449602E+04 -1.151783E+05  6.111087E+03  5.197554E+04
       284   5  4.088816E+03  5.637391E+05  3.414385E+04 -8.857783E+04  1.735662E+04  3.402602E+04
       284   6 -1.970905E+03  5.715789E+05  1.886556E+04 -1.152670E+05  1.309500E+04  1.605746E+04
       284   7 -7.380393E+04  1.778120E+04 -5.947363E+04 -8.119169E+04  6.140977E+03  3.099408E+04
       284   8 -9.208138E+04  1.690710E+05 -5.198105E+04 -7.558327E+04  1.736349E+04  3.018311E+04
       284   9 -5.965636E+04  3.330512E+05 -3.129941E+04 -1.232717E+05  1.307445E+04  2.935277E+04
       284  10  2.013947E+05  1.125542E+06  2.084358E+05 -1.491955E+05 -1.976532E-11 -1.112865E-10
       284  11  1.002486E+05  9.585519E+05  1.202562E+05 -1.015812E+05 -1.648413E-10  1.823362E-10
       284  12  5.571105E+04  8.101608E+05  6.902770E+04 -1.072592E+05  8.525407E-10  3.768631E-10
       284  13  6.380430E+04  5.715200E+05  7.449088E+04 -1.151785E+05  5.697266E-10 -8.748749E-11
       284  14  4.088182E+03  5.637378E+05  3.414111E+04 -8.857831E+04 -1.503012E-09  2.676133E-10
       284  15 -1.971159E+03  5.715786E+05  1.886475E+04 -1.152671E+05  2.461722E-10  8.693861E-11
       284  16 -7.380423E+04  1.778016E+04 -5.947550E+04 -8.119184E+04 -7.865689E-11  9.319925E-11
       284  17 -9.208195E+04  1.690699E+05 -5.198333E+04 -7.558369E+04 -5.371081E-10 -1.176729E-10
       284  18 -5.965678E+04  3.330502E+05 -3.130135E+04 -1.232720E+05 -9.156600E-11 -4.270205E-10
       284  19  2.013961E+05  1.125548E+06  2.084459E+05 -1.491951E+05 -6.078917E+03 -7.297564E+04
       284  20  1.002493E+05  9.585535E+05  1.202595E+05 -1.015807E+05 -1.734960E+04 -3.787133E+04
       284  21  5.571124E+04  8.101608E+05  6.902804E+04 -1.072591E+05 -1.311521E+04 -2.757136E+03
       284  22  6.380507E+04  5.715229E+05  7.449602E+04 -1.151783E+05 -6.111087E+03 -5.197554E+04
       284  23  4.088816E+03  5.637391E+05  3.414385E+04 -8.857783E+04 -1.735662E+04 -3.402602E+04
       284  24 -1.970905E+03  5.715789E+05  1.886556E+04 -1.152670E+05 -1.309500E+04 -1.605746E+04
       284  25 -7.380393E+04  1.778120E+04 -5.947363E+04 -8.119169E+04 -6.140977E+03 -3.099408E+04
       284  26 -9.208138E+04  1.690710E+05 -5.198105E+04 -7.558327E+04 -1.736349E+04 -3.018311E+04
       284  27 -5.965636E+04  3.330512E+05 -3.129941E+04 -1.232717E+05 -1.307445E+04 -2.935277E+04
       285   1  3.241847E+04  6.893680E+05  3.985732E+04 -1.162791E+05  6.440382E+03  4.000854E+03
       285   2 -8.501454E+03  5.315343E+05 -1.439282E+03 -8.856234E+04 -2.131033E+03  1.029500E+03
       285   3 -4.747887E+04  3.744130E+05 -4.036553E+04 -1.148714E+05 -1.061048E+04 -1.940635E+03
       285   4  3.089300E+03  5.682706E+05  1.423796E+04 -1.154088E+05  6.425483E+03  1.352606E+04
       285   5  2.816176E+02  5.679162E+05  6.120074E+03 -8.839887E+04 -2.145562E+03  1.045307E+04
       285   6 -5.639964E+02  5.682697E+05  4.452951E+02 -1.154144E+05 -1.062472E+04  7.380588E+03
       285   7 -2.624077E+04  4.471872E+05 -1.138190E+04 -1.145386E+05  6.410610E+03  2.304943E+04
       285   8  9.064653E+03  6.042996E+05  1.367969E+04 -8.823538E+04 -2.160085E+03  1.987719E+04
       285   9  4.634851E+04  7.621619E+05  4.125434E+04 -1.159576E+05 -1.063897E+04  1.670467E+04
       285  10  3.241842E+04  6.893680E+05  3.985721E+04 -1.162791E+05  1.227469E-10 -6.180096E-10
       285  11 -8.501459E+03  5.315343E+05 -1.439293E+03 -8.856234E+04  1.291719E-10 -4.674592E-10
       285  12 -4.747899E+04  3.744130E+05 -4.036575E+04 -1.148714E+05 -5.886516E-10 -1.353736E-10
       285  13  3.089206E+03  5.682704E+05  1.423754E+04 -1.154088E+05  2.508037E-10  7.625743E-11
       285  14  2.815833E+02  5.679161E+05  6.119861E+03 -8.839885E+04  7.751916E-10 -1.361047E-10
       285  15 -5.641322E+02  5.682696E+05  4.449807E+02 -1.154144E+05  9.689491E-10 -1.240314E-10
       285  16 -2.624095E+04  4.471866E+05 -1.138297E+04 -1.145387E+05  1.340386E-10  7.919222E-10
       285  17  9.064542E+03  6.042992E+05  1.367894E+04 -8.823535E+04 -6.375022E-10  5.303989E-10
       285  18  4.634831E+04  7.621616E+05  4.125360E+04 -1.159575E+05 -5.844946E-10  1.555938E-10
       285  19  3.241847E+04  6.893680E+05  3.985732E+04 -1.162791E+05 -6.440382E+03 -4.000854E+03
       285  20 -8.501454E+03  5.315343E+05 -1.439282E+03 -8.856234E+04  2.131033E+03 -1.029500E+03
       285  21 -4.747887E+04  3.744130E+05 -4.036553E+04 -1.148714E+05  1.061048E+04  1.940635E+03
       285  22  3.089300E+03  5.682706E+05  1.423796E+04 -1.154088E+05 -6.425483E+03 -1.352606E+04
       285  23  2.816176E+02  5.679162E+05  6.120074E+03 -8.839887E+04  2.145562E+03 -1.045307E+04
       285  24 -5.639964E+02  5.682697E+05  4.452951E+02 -1.154144E+05  1.062472E+04 -7.380588E+03
       285  25 -2.624077E+04  4.471872E+05 -1.138190E+04 -1.145386E+05 -6.410610E+03 -2.304943E+04
       285  26  9.064653E+03  6.042996E+05  1.367969E+04 -8.823538E+04  2.160085E+03 -1.987719E+04
       285  27  4.634851E+04  7.621619E+05  4.125434E+04 -1.159576E+05  1.063897E+04 -1.670467E+04
       286   1 -7.430306E+04  2.558236E+05 -6.726893E+04 -1.125123E+05 -1.737357E+04 -6.205145E+03
       286   2 -1.146789E+05  1.018329E+05 -1.095713E+05 -9.147556E+04 -2.103196E+04  1.715642E+04
       286   3 -1.727134E+05 -5.969362E+04 -1.715210E+05 -1.236998E+05 -7.314259E+03  4.053120E+04
       286   4  1.006636E+03  5.671598E+05 -1.961991E+03 -1.152377E+05 -1.739347E+04  7.393206E+03
       286   5 -8.955162E+02  5.692535E+05 -7.859223E+03 -8.861935E+04 -2.102309E+04  1.157278E+04
       286   6 -1.711901E+04  5.671203E+05 -2.008265E+04 -1.152612E+05 -7.282091E+03  1.577204E+04
       286   7  7.631025E+04  8.785880E+05  6.334024E+04 -1.179643E+05 -1.741347E+04  2.099826E+04
       286   8  1.128734E+05  1.036879E+06  9.383988E+04 -8.576089E+04 -2.101427E+04  5.984987E+03
       286   9  1.384473E+05  1.194295E+06  1.313299E+05 -1.068139E+05 -7.250614E+03 -9.012040E+03
       286  10 -7.430340E+04  2.558235E+05 -6.726957E+04 -1.125124E+05  2.018250E-12  9.913395E-11
       286  11 -1.146794E+05  1.018325E+05 -1.095727E+05 -9.147527E+04  1.768513E-10  1.256290E-10
       286  12 -1.727139E+05 -5.969540E+04 -1.715242E+05 -1.236995E+05 -2.267034E-10  9.163967E-11
       286  13  1.006297E+03  5.671597E+05 -1.962662E+03 -1.152375E+05 -1.042311E-09  1.529943E-10
       286  14 -8.960268E+02  5.692532E+05 -7.860305E+03 -8.861916E+04  5.136714E-10 -1.156053E-10
       286  15 -1.711914E+04  5.671201E+05 -2.008322E+04 -1.152611E+05 -2.663597E-10  2.694510E-11
       286  16  7.630980E+04  8.785875E+05  6.333884E+04 -1.179640E+05  6.865840E-11 -1.488381E-10
       286  17  1.128729E+05  1.036879E+06  9.383898E+04 -8.576079E+04  1.789933E-10 -2.356405E-10
       286  18  1.384472E+05  1.194295E+06  1.313296E+05 -1.068140E+05 -3.840751E-10 -4.621771E-11
       286  19 -7.430306E+04  2.558236E+05 -6.726893E+04 -1.125123E+05  1.737357E+04  6.205145E+03
       286  20 -1.146789E+05  1.018329E+05 -1.095713E+05 -9.147556E+04  2.103196E+04 -1.715642E+04
       286  21 -1.727134E+05 -5.969362E+04 -1.715210E+05 -1.236998E+05  7.314259E+03 -4.053120E+04
       286  22  1.006636E+03  5.671598E+05 -1.961991E+03 -1.152377E+05  1.739347E+04 -7.393206E+03
       286  23 -8.955162E+02  5.692535E+05 -7.859223E+03 -8.861935E+04  2.102309E+04 -1.157278E+04
       286  24 -1.711901E+04  5.671203E+05 -2.008265E+04 -1.152612E+05  7.282091E+03 -1.577204E+04
       286  25  7.631025E+04  8.785880E+05  6.334024E+04 -1.179643E+05  1.741347E+04 -2.099826E+04
       286  26  1.128734E+05  1.036879E+06  9.383988E+04 -8.576089E+04  2.101427E+04 -5.984987E+03
       286  27  1.384473E+05  1.194295E+06  1.313299E+05 -1.068139E+05  7.250614E+03  9.012040E+03
       287   1 -8.833962E+05 -4.158527E+05 -2.768265E+05 -3.246060E+05 -1.196659E+05 -3.650791E+04
       287   2 -8.472097E+05 -2.628105E+05 -1.729426E+05 -3.139185E+05 -7.712458E+04 -1.814526E+03
       287   3 -8.465257E+05 -2.212054E+05 -1.332107E+05 -2.883963E+05 -2.921672E+04  1.863025E+04
       287   4 -4.251286E+05 -1.867027E+05 -1.447307E+05 -1.411882E+05 -9.544137E+04 -2.740976E+04
       287   5 -4.008847E+05 -7.625018E+04 -6.383231E+04 -1.697284E+05 -6.759218E+04  1.764943E+03
       287   6 -4.092013E+05 -7.428261E+04 -3.540555E+04 -1.834443E+05 -3.438054E+04  1.668853E+04
       287   7  3.334871E+04  4.251113E+04 -1.265322E+04  4.236664E+04 -7.119753E+04 -1.829874E+04
       287   8  4.563945E+04  1.103394E+05  4.526310E+04 -2.543869E+04 -5.805234E+04  5.348013E+03
       287   9  2.831618E+04  7.264700E+04  6.238825E+04 -7.842796E+04 -3.954832E+04  1.474562E+04
       287  10 -8.834120E+05 -4.158580E+05 -2.768560E+05 -3.246095E+05 -4.131627E-11 -3.216672E-11
       287  11 -8.472161E+05 -2.628121E+05 -1.729538E+05 -3.139186E+05  2.539434E-11 -9.195023E-11
       287  12 -8.465267E+05 -2.212060E+05 -1.332130E+05 -2.883958E+05  1.619834E-10 -1.762501E-10
       287  13 -4.251386E+05 -1.867059E+05 -1.447492E+05 -1.411903E+05  1.688647E-10  8.922660E-11
       287  14 -4.008896E+05 -7.625141E+04 -6.384091E+04 -1.697283E+05 -2.383813E-10 -2.649655E-11
       287  15 -4.092027E+05 -7.428322E+04 -3.540829E+04 -1.834438E+05 -2.675319E-10 -2.703325E-10
       287  16  3.334317E+04  4.250941E+04 -1.266337E+04  4.236559E+04 -2.609083E-10  8.189449E-11
       287  17  4.563582E+04  1.103384E+05  4.525671E+04 -2.543844E+04 -2.144781E-10 -1.487060E-11
       287  18  2.831445E+04  7.264635E+04  6.238490E+04 -7.842749E+04  8.004557E-12 -3.708448E-10
       287  19 -8.833962E+05 -4.158527E+05 -2.768265E+05 -3.246060E+05  1.196659E+05  3.650791E+04
       287  20 -8.472097E+05 -2.628105E+05 -1.729426E+05 -3.139185E+05  7.712458E+04  1.814526E+03
       287  21 -8.465257E+05 -2.212054E+05 -1.332107E+05 -2.883963E+05  2.921672E+04 -1.863025E+04
       287  22 -4.251286E+05 -1.867027E+05 -1.447307E+05 -1.411882E+05  9.544137E+04  2.740976E+04
       287  23 -4.008847E+05 -7.625018E+04 -6.383231E+04 -1.697284E+05  6.759218E+04 -1.764943E+03
       287  24 -4.092013E+05 -7.428261E+04 -3.540555E+04 -1.834443E+05  3.438054E+04 -1.668853E+04
       287  25  3.334871E+04  4.251113E+04 -1.265322E+04  4.236664E+04  7.119753E+04  1.829874E+04
       287  26  4.563945E+04  1.103394E+05  4.526310E+04 -2.543869E+04  5.805234E+04 -5.348013E+03
       287  27  2.831618E+04  7.264700E+04  6.238825E+04 -7.842796E+04  3.954832E+04 -1.474562E+04
       288   1 -8.014537E+05 -2.318659E+05 -1.195494E+05 -2.889943E+05 -2.791645E+04  1.641362E+04
       288   2 -7.690457E+05 -2.072062E+05 -9.738099E+04 -2.737276E+05 -1.934185E+04  1.789944E+04
       288   3 -7.298286E+05 -1.974163E+05 -8.253557E+04 -2.685672E+05 -1.051431E+04  1.871067E+04
       288   4 -4.046050E+05 -8.305687E+04 -2.772184E+04 -1.778518E+05 -2.914780E+04  1.594944E+04
       288   5 -4.077007E+05 -7.304792E+04 -1.447149E+04 -1.737891E+05 -2.126509E+04  1.717584E+04
       288   6 -4.038492E+05 -7.776943E+04 -7.991995E+03 -1.798333E+05 -1.312996E+04  1.772763E+04
       288   7 -7.600902E+03  6.576404E+04  6.409444E+04 -6.664456E+04 -3.037999E+04  1.548495E+04
       288   8 -4.622473E+04  6.112032E+04  6.842930E+04 -7.379726E+04 -2.318954E+04  1.645178E+04
       288   9 -7.776143E+04  4.188564E+04  6.654510E+04 -9.105640E+04 -1.574711E+04  1.674403E+04
       288  10 -8.014546E+05 -2.318664E+05 -1.195514E+05 -2.889939E+05 -6.466870E-10 -3.364333E-10
       288  11 -7.690462E+05 -2.072066E+05 -9.738230E+04 -2.737273E+05 -1.136831E-10  4.249608E-11
       288  12 -7.298288E+05 -1.974167E+05 -8.253644E+04 -2.685671E+05 -1.608936E-10  1.395025E-10
       288  13 -4.046060E+05 -8.305737E+04 -2.772391E+04 -1.778514E+05  7.898354E-11 -2.371897E-10
       288  14 -4.077012E+05 -7.304835E+04 -1.447290E+04 -1.737888E+05 -5.119655E-10  6.736433E-11
       288  15 -4.038495E+05 -7.776982E+04 -7.992909E+03 -1.798331E+05  1.975780E-11  2.375318E-10
       288  16 -7.601957E+03  6.576353E+04  6.409225E+04 -6.664418E+04  2.096512E-10 -1.718732E-10
       288  17 -4.622538E+04  6.111988E+04  6.842779E+04 -7.379696E+04 -1.154659E-10 -2.173343E-11
       288  18 -7.776177E+04  4.188528E+04  6.654411E+04 -9.105618E+04  2.242916E-10  1.342269E-10
       288  19 -8.014537E+05 -2.318659E+05 -1.195494E+05 -2.889943E+05  2.791645E+04 -1.641362E+04
       288  20 -7.690457E+05 -2.072062E+05 -9.738099E+04 -2.737276E+05  1.934185E+04 -1.789944E+04
       288  21 -7.298286E+05 -1.974163E+05 -8.253557E+04 -2.685672E+05  1.051431E+04 -1.871067E+04
       288  22 -4.046050E+05 -8.305687E+04 -2.772184E+04 -1.778518E+05  2.914780E+04 -1.594944E+04
       288  23 -4.077007E+05 -7.304792E+04 -1.447149E+04 -1.737891E+05  2.126509E+04 -1.717584E+04
       288  24 -4.038492E+05 -7.776943E+04 -7.991995E+03 -1.798333E+05  1.312996E+04 -1.772763E+04
       288  25 -7.600902E+03  6.576404E+04  6.409444E+04 -6.664456E+04  3.037999E+04 -1.548495E+04
       288  26 -4.622473E+04  6.112032E+04  6.842930E+04 -7.379726E+04  2.318954E+04 -1.645178E+04
       288  27 -7.776143E+04  4.188564E+04  6.654510E+04 -9.105640E+04  1.574711E+04 -1.674403E+04
       289   1 -7.008407E+05 -1.880270E+05 -7.397155E+04 -2.612629E+05 -9.024628E+03  1.761639E+04
       289   2 -6.689203E+05 -1.693570E+05 -6.294097E+04 -2.456141E+05 -6.443616E+03  1.587684E+04
       289   3 -6.275162E+05 -1.607382E+05 -5.322912E+04 -2.411554E+05 -3.850186E+03  1.410199E+04
       289   4 -4.034835E+05 -7.817172E+04 -6.048516E+03 -1.795298E+05 -1.145932E+04  1.670159E+04
       289   5 -4.082096E+05 -7.304249E+04 -3.313350E+03 -1.739735E+05 -8.913890E+03  1.494912E+04
       289   6 -4.034464E+05 -7.795691E+04 -1.868167E+03 -1.796074E+05 -6.356159E+03  1.316132E+04
       289   7 -1.060376E+05  3.169015E+04  6.186867E+04 -9.776083E+04 -1.389528E+04  1.578633E+04
       289   8 -1.474316E+05  2.327675E+04  5.630956E+04 -1.023056E+05 -1.138528E+04  1.402098E+04
       289   9 -1.793276E+05  4.827567E+03  4.948909E+04 -1.180394E+05 -8.863099E+03  1.222028E+04
       289  10 -7.008409E+05 -1.880274E+05 -7.397228E+04 -2.612628E+05 -5.062381E-10  7.143928E-11
       289  11 -6.689204E+05 -1.693573E+05 -6.294153E+04 -2.456141E+05 -3.812060E-10  5.886529E-11
       289  12 -6.275163E+05 -1.607384E+05 -5.322952E+04 -2.411554E+05  2.337717E-11  5.765091E-12
       289  13 -4.034837E+05 -7.817205E+04 -6.049287E+03 -1.795296E+05 -2.474128E-10  1.322018E-10
       289  14 -4.082097E+05 -7.304275E+04 -3.313919E+03 -1.739734E+05 -6.262517E-10  9.175289E-11
       289  15 -4.034465E+05 -7.795711E+04 -1.868568E+03 -1.796073E+05 -2.118356E-10  5.232314E-11
       289  16 -1.060379E+05  3.168983E+04  6.186784E+04 -9.776066E+04  1.027323E-10  5.288805E-11
       289  17 -1.474318E+05  2.327651E+04  5.630895E+04 -1.023055E+05 -2.368690E-10 -2.054660E-11
       289  18 -1.793277E+05  4.827385E+03  4.948866E+04 -1.180393E+05 -2.364428E-10  7.218132E-11
       289  19 -7.008407E+05 -1.880270E+05 -7.397155E+04 -2.612629E+05  9.024628E+03 -1.761639E+04
       289  20 -6.689203E+05 -1.693570E+05 -6.294097E+04 -2.456141E+05  6.443616E+03 -1.587684E+04
       289  21 -6.275162E+05 -1.607382E+05 -5.322912E+04 -2.411554E+05  3.850186E+03 -1.410199E+04
       289  22 -4.034835E+05 -7.817172E+04 -6.048516E+03 -1.795298E+05  1.145932E+04 -1.670159E+04
       289  23 -4.082096E+05 -7.304249E+04 -3.313350E+03 -1.739735E+05  8.913890E+03 -1.494912E+04
       289  24 -4.034464E+05 -7.795691E+04 -1.868167E+03 -1.796074E+05  6.356159E+03 -1.316132E+04
       289  25 -1.060376E+05  3.169015E+04  6.186867E+04 -9.776083E+04  1.389528E+04 -1.578633E+04
       289  26 -1.474316E+05  2.327675E+04  5.630956E+04 -1.023056E+05  1.138528E+04 -1.402098E+04
       289  27 -1.793276E+05  4.827567E+03  4.948909E+04 -1.180394E+05  8.863099E+03 -1.222028E+04
       290   1 -5.993090E+05 -1.503434E+05 -4.612143E+04 -2.334544E+05 -3.052550E+03  1.279078E+04
       290   2 -5.673943E+05 -1.318616E+05 -3.728892E+04 -2.177228E+05 -1.692875E+03  1.053764E+04
       290   3 -5.257274E+05 -1.232062E+05 -2.879297E+04 -2.132352E+05 -3.323414E+02  8.280791E+03
       290   4 -4.033957E+05 -7.797472E+04 -1.439047E+03 -1.795937E+05 -5.552641E+03  1.185253E+04
       290   5 -4.082681E+05 -7.305667E+04 -8.979968E+02 -1.739724E+05 -4.196666E+03  9.598262E+03
       290   6 -4.033900E+05 -7.796452E+04 -6.907562E+02 -1.795957E+05 -2.839866E+03  7.340277E+03
       290   7 -2.074426E+05 -5.602723E+03  4.324117E+04 -1.257172E+05 -8.053603E+03  1.091395E+04
       290   8 -2.491160E+05 -1.424966E+04  3.549141E+04 -1.302117E+05 -6.701162E+03  8.658616E+03
       290   9 -2.810376E+05 -3.272167E+04  2.741049E+04 -1.459502E+05 -5.347928E+03  6.399560E+03
       290  10 -5.993091E+05 -1.503436E+05 -4.612176E+04 -2.334544E+05 -6.215413E-11 -1.158796E-10
       290  11 -5.673943E+05 -1.318617E+05 -3.728913E+04 -2.177228E+05  1.489708E-10 -1.273325E-10
       290  12 -5.257274E+05 -1.232063E+05 -2.879310E+04 -2.132352E+05 -3.393486E-10 -4.315176E-11
       290  13 -4.033957E+05 -7.797487E+04 -1.439369E+03 -1.795937E+05 -1.454464E-10 -2.084351E-11
       290  14 -4.082681E+05 -7.305678E+04 -8.982030E+02 -1.739724E+05 -1.969278E-10  6.788018E-11
       290  15 -4.033900E+05 -7.796458E+04 -6.908726E+02 -1.795957E+05  1.740548E-11  1.335750E-11
       290  16 -2.074427E+05 -5.602868E+03  4.324082E+04 -1.257171E+05  2.825284E-11  1.365924E-10
       290  17 -2.491161E+05 -1.424975E+04  3.549119E+04 -1.302116E+05 -2.768871E-10  3.493677E-11
       290  18 -2.810376E+05 -3.272172E+04  2.741036E+04 -1.459502E+05  1.945547E-10  1.368902E-10
       290  19 -5.993090E+05 -1.503434E+05 -4.612143E+04 -2.334544E+05  3.052550E+03 -1.279078E+04
       290  20 -5.673943E+05 -1.318616E+05 -3.728892E+04 -2.177228E+05  1.692875E+03 -1.053764E+04
       290  21 -5.257274E+05 -1.232062E+05 -2.879297E+04 -2.132352E+05  3.323414E+02 -8.280791E+03
       290  22 -4.033957E+05 -7.797472E+04 -1.439047E+03 -1.795937E+05  5.552641E+03 -1.185253E+04
       290  23 -4.082681E+05 -7.305667E+04 -8.979968E+02 -1.739724E+05  4.196666E+03 -9.598262E+03
       290  24 -4.033900E+05 -7.796452E+04 -6.907562E+02 -1.795957E+05  2.839866E+03 -7.340277E+03
       290  25 -2.074426E+05 -5.602723E+03  4.324117E+04 -1.257172E+05  8.053603E+03 -1.091395E+04
       290  26 -2.491160E+05 -1.424966E+04  3.549141E+04 -1.302117E+05  6.701162E+03 -8.658616E+03
       290  27 -2.810376E+05 -3.272167E+04  2.741049E+04 -1.459502E+05  5.347928E+03 -6.399560E+03
       291   1 -4.975211E+05 -1.127471E+05 -2.209003E+04 -2.055053E+05  3.135375E+02  6.910865E+03
       291   2 -4.655379E+05 -9.424044E+04 -1.395547E+04 -1.897482E+05  1.649488E+03  4.641470E+03
       291   3 -4.237923E+05 -8.557492E+04 -6.140272E+03 -1.852576E+05  2.985254E+03  2.372014E+03
       291   4 -4.033862E+05 -7.796745E+04 -6.834844E+02 -1.796002E+05 -2.195370E+03  5.969946E+03
       291   5 -4.082657E+05 -7.304395E+04 -8.535272E+02 -1.739676E+05 -8.594853E+02  3.700624E+03
       291   6 -4.033843E+05 -7.796171E+04 -1.342857E+03 -1.796019E+05  4.761920E+02  1.431229E+03
       291   7 -3.092429E+05 -4.318730E+04  2.072235E+04 -1.536917E+05 -4.704675E+03  5.028878E+03
       291   8 -3.509902E+05 -5.184721E+04  1.224823E+04 -1.581856E+05 -3.368709E+03  2.759683E+03
       291   9 -3.829756E+05 -7.034842E+04  3.454589E+03 -1.739460E+05 -2.032975E+03  4.904046E+02
       291  10 -4.975211E+05 -1.127472E+05 -2.209012E+04 -2.055053E+05 -6.263254E-11  1.088640E-11
       291  11 -4.655379E+05 -9.424047E+04 -1.395552E+04 -1.897482E+05  1.334168E-10 -1.923172E-10
       291  12 -4.237923E+05 -8.557493E+04 -6.140299E+03 -1.852576E+05 -4.145500E-10 -1.644301E-10
       291  13 -4.033862E+05 -7.796749E+04 -6.835604E+02 -1.796002E+05  1.512672E-10 -8.371997E-11
       291  14 -4.082657E+05 -7.304397E+04 -8.535543E+02 -1.739676E+05 -3.537161E-11 -7.831260E-12
       291  15 -4.033843E+05 -7.796171E+04 -1.342861E+03 -1.796019E+05 -3.902905E-10 -2.243033E-11
       291  16 -3.092430E+05 -4.318733E+04  2.072227E+04 -1.536917E+05 -1.454202E-10 -4.357416E-11
       291  17 -3.509902E+05 -5.184722E+04  1.224819E+04 -1.581856E+05 -2.979632E-11 -1.283110E-10
       291  18 -3.829756E+05 -7.034842E+04  3.454580E+03 -1.739460E+05  1.996772E-10  4.586449E-11
       291  19 -4.975211E+05 -1.127471E+05 -2.209003E+04 -2.055053E+05 -3.135375E+02 -6.910865E+03
       291  20 -4.655379E+05 -9.424044E+04 -1.395547E+04 -1.897482E+05 -1.649488E+03 -4.641470E+03
       291  21 -4.237923E+05 -8.557492E+04 -6.140272E+03 -1.852576E+05 -2.985254E+03 -2.372014E+03
       291  22 -4.033862E+05 -7.796745E+04 -6.834844E+02 -1.796002E+05  2.195370E+03 -5.969946E+03
       291  23 -4.082657E+05 -7.304395E+04 -8.535272E+02 -1.739676E+05  8.594853E+02 -3.700624E+03
       291  24 -4.033843E+05 -7.796171E+04 -1.342857E+03 -1.796019E+05 -4.761920E+02 -1.431229E+03
       291  25 -3.092429E+05 -4.318730E+04  2.072235E+04 -1.536917E+05  4.704675E+03 -5.028878E+03
       291  26 -3.509902E+05 -5.184721E+04  1.224823E+04 -1.581856E+05  3.368709E+03 -2.759683E+03
       291  27 -3.829756E+05 -7.034842E+04  3.454589E+03 -1.739460E+05  2.032975E+03 -4.904046E+02
       292   1 -3.955736E+05 -7.512122E+04  1.661908E+02 -1.775696E+05  3.776320E+03  1.053873E+03
       292   2 -3.634909E+05 -5.658528E+04  7.146841E+03 -1.617730E+05  6.196251E+03 -8.036844E+02
       292   3 -3.218696E+05 -4.812330E+04  1.294233E+04 -1.572389E+05  8.609310E+03 -2.642381E+03
       292   4 -4.034258E+05 -7.795171E+04 -1.737367E+03 -1.796244E+05  1.262083E+03  1.111518E+02
       292   5 -4.082063E+05 -7.300461E+04 -3.064859E+03 -1.739589E+05  3.701282E+03 -1.739255E+03
       292   6 -4.034533E+05 -7.813542E+04 -5.592815E+03 -1.795563E+05  6.133506E+03 -3.570830E+03
       292   7 -4.112780E+05 -8.078220E+04 -3.640902E+03 -1.816792E+05 -1.252119E+03 -8.315568E+02
       292   8 -4.529196E+05 -8.942374E+04 -1.327663E+04 -1.861439E+05  1.206516E+03 -2.674751E+03
       292   9 -4.850298E+05 -1.081469E+05 -2.412823E+04 -2.018709E+05  3.658069E+03 -4.499142E+03
       292  10 -3.955736E+05 -7.512122E+04  1.661619E+02 -1.775696E+05  1.452307E-10  2.768838E-11
       292  11 -3.634909E+05 -5.658529E+04  7.146768E+03 -1.617730E+05  2.150961E-10 -5.838915E-11
       292  12 -3.218697E+05 -4.812333E+04  1.294218E+04 -1.572389E+05  1.690979E-10 -3.805909E-10
       292  13 -4.034258E+05 -7.795171E+04 -1.737370E+03 -1.796244E+05 -1.096781E-10 -6.715144E-11
       292  14 -4.082063E+05 -7.300462E+04 -3.064891E+03 -1.739589E+05 -5.241517E-11 -6.256489E-11
       292  15 -4.034534E+05 -7.813545E+04 -5.592909E+03 -1.795563E+05  3.477863E-10 -8.562341E-11
       292  16 -4.112780E+05 -8.078220E+04 -3.640906E+03 -1.816792E+05 -7.127518E-11 -3.441519E-11
       292  17 -4.529196E+05 -8.942375E+04 -1.327664E+04 -1.861439E+05  1.946342E-10  4.210903E-11
       292  18 -4.850299E+05 -1.081469E+05 -2.412830E+04 -2.018709E+05 -1.395377E-10  3.746024E-10
       292  19 -3.955736E+05 -7.512122E+04  1.661908E+02 -1.775696E+05 -3.776320E+03 -1.053873E+03
       292  20 -3.634909E+05 -5.658528E+04  7.146841E+03 -1.617730E+05 -6.196251E+03  8.036844E+02
       292  21 -3.218696E+05 -4.812330E+04  1.294233E+04 -1.572389E+05 -8.609310E+03  2.642381E+03
       292  22 -4.034258E+05 -7.795171E+04 -1.737367E+03 -1.796244E+05 -1.262083E+03 -1.111518E+02
       292  23 -4.082063E+05 -7.300461E+04 -3.064859E+03 -1.739589E+05 -3.701282E+03  1.739255E+03
       292  24 -4.034533E+05 -7.813542E+04 -5.592815E+03 -1.795563E+05 -6.133506E+03  3.570830E+03
       292  25 -4.112780E+05 -8.078220E+04 -3.640902E+03 -1.816792E+05  1.252119E+03  8.315568E+02
       292  26 -4.529196E+05 -8.942374E+04 -1.327663E+04 -1.861439E+05 -1.206516E+03  2.674751E+03
       292  27 -4.850298E+05 -1.081469E+05 -2.412823E+04 -2.018709E+05 -3.658069E+03  4.499142E+03
       293   1 -2.934066E+05 -3.785745E+04  1.782624E+04 -1.504335E+05  1.029793E+04 -3.651733E+03
       293   2 -2.615238E+05 -1.854991E+04  2.022033E+04 -1.331746E+05  1.751459E+04 -3.571724E+03
       293   3 -2.223528E+05 -1.360747E+04  1.666843E+04 -1.262255E+05  2.458508E+04 -3.099417E+03
       293   4 -4.037835E+05 -7.777018E+04 -7.388993E+03 -1.798462E+05  7.715397E+03 -4.620290E+03
       293   5 -4.077322E+05 -7.298435E+04 -1.337141E+04 -1.737779E+05  1.533546E+04 -4.389259E+03
       293   6 -4.044753E+05 -8.264520E+04 -2.562101E+04 -1.780204E+05  2.280893E+04 -3.766058E+03
       293   7 -5.141489E+05 -1.176824E+05 -3.260519E+04 -2.092545E+05  5.133350E+03 -5.588676E+03
       293   8 -5.539196E+05 -1.274173E+05 -4.696468E+04 -2.143725E+05  1.315688E+04 -5.206584E+03
       293   9 -5.865647E+05 -1.516800E+05 -6.791272E+04 -2.298013E+05  2.103334E+04 -4.432475E+03
       293  10 -2.934068E+05 -3.785749E+04  1.782602E+04 -1.504335E+05  2.129761E-10 -3.452335E-10
       293  11 -2.615242E+05 -1.855001E+04  2.021972E+04 -1.331746E+05 -3.546766E-09 -1.203922E-09
       293  12 -2.223534E+05 -1.360764E+04  1.666727E+04 -1.262255E+05 -2.950138E-09 -7.599294E-10
       293  13 -4.037836E+05 -7.777022E+04 -7.389145E+03 -1.798462E+05 -1.516754E-09 -5.945865E-10
       293  14 -4.077324E+05 -7.298443E+04 -1.337189E+04 -1.737778E+05 -3.639218E-09 -1.254498E-09
       293  15 -4.044759E+05 -8.264535E+04 -2.562202E+04 -1.780204E+05 -1.294728E-09 -6.076098E-10
       293  16 -5.141489E+05 -1.176824E+05 -3.260530E+04 -2.092544E+05 -3.095633E-09 -7.262598E-10
       293  17 -5.539198E+05 -1.274174E+05 -4.696506E+04 -2.143724E+05 -3.751904E-09 -1.232795E-09
       293  18 -5.865652E+05 -1.516802E+05 -6.791359E+04 -2.298012E+05  1.238281E-10 -3.304556E-10
       293  19 -2.934066E+05 -3.785745E+04  1.782624E+04 -1.504335E+05 -1.029793E+04  3.651733E+03
       293  20 -2.615238E+05 -1.854991E+04  2.022033E+04 -1.331746E+05 -1.751459E+04  3.571724E+03
       293  21 -2.223528E+05 -1.360747E+04  1.666843E+04 -1.262255E+05 -2.458508E+04  3.099417E+03
       293  22 -4.037835E+05 -7.777018E+04 -7.388993E+03 -1.798462E+05 -7.715397E+03  4.620290E+03
       293  23 -4.077322E+05 -7.298435E+04 -1.337141E+04 -1.737779E+05 -1.533546E+04  4.389259E+03
       293  24 -4.044753E+05 -8.264520E+04 -2.562101E+04 -1.780204E+05 -2.280893E+04  3.766058E+03
       293  25 -5.141489E+05 -1.176824E+05 -3.260519E+04 -2.092545E+05 -5.133350E+03  5.588676E+03
       293  26 -5.539196E+05 -1.274173E+05 -4.696468E+04 -2.143725E+05 -1.315688E+04  5.206584E+03
       293  27 -5.865647E+05 -1.516800E+05 -6.791272E+04 -2.298013E+05 -2.103334E+04  4.432475E+03
       294   1 -1.868540E+05 -6.404571E+03  1.587746E+04 -1.365941E+05  3.163735E+04 -2.712236E+03
       294   2 -1.676767E+05  3.000284E+04 -2.911826E+02 -8.597413E+04  5.441644E+04  6.089133E+03
       294   3 -1.758763E+05 -3.321336E+04 -5.816030E+04 -2.289370E+04  7.407807E+04  2.320274E+04
       294   4 -4.086845E+05 -7.457269E+04 -3.272293E+04 -1.832355E+05  2.756560E+04 -4.239454E+03
       294   5 -4.014722E+05 -7.587699E+04 -5.898832E+04 -1.699667E+05  5.892153E+04  7.777286E+03
       294   6 -4.233548E+05 -1.785326E+05 -1.337643E+05 -1.442361E+05  8.715824E+04  2.810430E+04
       294   7 -6.304654E+05 -1.427404E+05 -8.132605E+04 -2.298633E+05  2.349543E+04 -5.766308E+03
       294   8 -6.352097E+05 -1.817437E+05 -1.176889E+05 -2.539270E+05  6.342475E+04  9.464380E+03
       294   9 -6.707617E+05 -3.238132E+05 -2.093715E+05 -2.655238E+05  1.002325E+05  3.300087E+04
       294  10 -1.868551E+05 -6.404848E+03  1.587557E+04 -1.365940E+05 -3.264775E-10  8.945852E-11
       294  11 -1.676799E+05  3.000200E+04 -2.968186E+02 -8.597440E+04  3.883613E-10 -2.539072E-10
       294  12 -1.758823E+05 -3.321542E+04 -5.817163E+04 -2.289508E+04 -5.615233E-11 -1.126036E-10
       294  13 -4.086853E+05 -7.457292E+04 -3.272439E+04 -1.832354E+05  8.426406E-11 -1.503912E-10
       294  14 -4.014759E+05 -7.587799E+04 -5.899496E+04 -1.699671E+05  5.871025E-10 -1.440935E-10
       294  15 -4.233631E+05 -1.785355E+05 -1.337800E+05 -1.442380E+05 -1.664213E-10  1.521366E-10
       294  16 -6.304660E+05 -1.427406E+05 -8.132715E+04 -2.298632E+05  3.984137E-10 -2.963516E-10
       294  17 -6.352141E+05 -1.817448E+05 -1.176966E+05 -2.539275E+05  2.109808E-11 -1.469901E-10
       294  18 -6.707728E+05 -3.238170E+05 -2.093924E+05 -2.655265E+05  4.725897E-11  6.609070E-11
       294  19 -1.868540E+05 -6.404571E+03  1.587746E+04 -1.365941E+05 -3.163735E+04  2.712236E+03
       294  20 -1.676767E+05  3.000284E+04 -2.911826E+02 -8.597413E+04 -5.441644E+04 -6.089133E+03
       294  21 -1.758763E+05 -3.321336E+04 -5.816030E+04 -2.289370E+04 -7.407807E+04 -2.320274E+04
       294  22 -4.086845E+05 -7.457269E+04 -3.272293E+04 -1.832355E+05 -2.756560E+04  4.239454E+03
       294  23 -4.014722E+05 -7.587699E+04 -5.898832E+04 -1.699667E+05 -5.892153E+04 -7.777286E+03
       294  24 -4.233548E+05 -1.785326E+05 -1.337643E+05 -1.442361E+05 -8.715824E+04 -2.810430E+04
       294  25 -6.304654E+05 -1.427404E+05 -8.132605E+04 -2.298633E+05 -2.349543E+04  5.766308E+03
       294  26 -6.352097E+05 -1.817437E+05 -1.176889E+05 -2.539270E+05 -6.342475E+04 -9.464380E+03
       294  27 -6.707617E+05 -3.238132E+05 -2.093715E+05 -2.655238E+05 -1.002325E+05 -3.300087E+04
       295   1 -5.566623E+05 -1.426858E+05 -1.202511E+05 -2.031782E+04  2.672142E+04  1.258548E+04
       295   2 -4.740943E+05 -1.972520E+05 -1.319814E+05 -3.372167E+04  2.871906E+04  4.002118E+04
       295   3 -3.743619E+05 -1.829951E+05 -1.277708E+05 -7.713539E+04  3.073407E+04  4.307033E+04
       295   4  3.693024E+05  8.694954E+04  1.022230E+05 -6.578026E+04  7.051271E+04  1.260917E+04
       295   5  3.584306E+05  5.130559E+03  4.740744E+04 -5.075855E+04  4.557972E+04  4.002307E+04
       295   6  3.693635E+05 -3.242974E+03  2.721087E+04 -6.574234E+04  2.066536E+04  4.306536E+04
       295   7  1.296061E+06  3.165314E+05  3.246446E+05 -1.113109E+05  1.143690E+05  1.262643E+04
       295   8  1.191608E+06  2.074688E+05  2.267567E+05 -6.781864E+04  6.246267E+04  4.002403E+04
       295   9  1.113613E+06  1.764744E+05  1.821626E+05 -5.433541E+04  1.058478E+04  4.306002E+04
       295  10 -5.566631E+05 -1.426862E+05 -1.202528E+05 -2.031809E+04  1.402948E-10  1.586302E-11
       295  11 -4.740956E+05 -1.972540E+05 -1.319859E+05 -3.372260E+04 -4.822787E-10 -3.614933E-10
       295  12 -3.743634E+05 -1.829973E+05 -1.277761E+05 -7.713645E+04 -4.121454E-10 -3.246244E-11
       295  13  3.692970E+05  8.694804E+04  1.022134E+05 -6.578098E+04  6.303601E-10 -1.793707E-10
       295  14  3.584279E+05  5.128281E+03  4.740052E+04 -5.076002E+04 -6.745816E-10 -1.676062E-10
       295  15  3.693626E+05 -3.245080E+03  2.720658E+04 -6.574306E+04 -3.299741E-10 -1.622086E-10
       295  16  1.296047E+06  3.165278E+05  3.246197E+05 -1.113121E+05 -4.582453E-11  1.812485E-10
       295  17  1.191603E+06  2.074661E+05  2.267464E+05 -6.782066E+04 -4.029553E-11 -1.679874E-10
       295  18  1.113612E+06  1.764724E+05  1.821589E+05 -5.433578E+04 -3.415224E-10 -2.485843E-10
       295  19 -5.566623E+05 -1.426858E+05 -1.202511E+05 -2.031782E+04 -2.672142E+04 -1.258548E+04
       295  20 -4.740943E+05 -1.972520E+05 -1.319814E+05 -3.372167E+04 -2.871906E+04 -4.002118E+04
       295  21 -3.743619E+05 -1.829951E+05 -1.277708E+05 -7.713539E+04 -3.073407E+04 -4.307033E+04
       295  22  3.693024E+05  8.694954E+04  1.022230E+05 -6.578026E+04 -7.051271E+04 -1.260917E+04
       295  23  3.584306E+05  5.130559E+03  4.740744E+04 -5.075855E+04 -4.557972E+04 -4.002307E+04
       295  24  3.693635E+05 -3.242974E+03  2.721087E+04 -6.574234E+04 -2.066536E+04 -4.306536E+04
       295  25  1.296061E+06  3.165314E+05  3.246446E+05 -1.113109E+05 -1.143690E+05 -1.262643E+04
       295  26  1.191608E+06  2.074688E+05  2.267567E+05 -6.781864E+04 -6.246267E+04 -4.002403E+04
       295  27  1.113613E+06  1.764744E+05  1.821626E+05 -5.433541E+04 -1.058478E+04 -4.306002E+04
       296   1 -3.107030E+05 -1.597612E+05 -1.199271E+05 -6.480922E+04  2.073357E+04  3.842317E+04
       296   2 -2.208070E+05 -1.412962E+05 -1.098066E+05 -5.018690E+04  1.623508E+04  3.435405E+04
       296   3 -1.294292E+05 -1.196201E+05 -9.593285E+04 -6.666664E+04  1.173274E+04  2.906330E+04
       296   4  3.649149E+05  3.619531E+03  2.135897E+04 -6.599458E+04  1.692965E+04  3.841976E+04
       296   5  3.640795E+05 -2.125348E+01  1.171242E+04 -5.044478E+04  1.107695E+04  3.435210E+04
       296   6  3.649493E+05 -2.180055E+02  6.755649E+03 -6.599510E+04  5.221024E+03  2.906337E+04
       296   7  1.040965E+06  1.669711E+05  1.626197E+05 -6.718123E+04  1.312166E+04  3.841638E+04
       296   8  9.492899E+05  1.412319E+05  1.332128E+05 -5.070289E+04  5.914046E+03  3.435017E+04
       296   9  8.595594E+05  1.191686E+05  1.094309E+05 -6.532299E+04 -1.295788E+03  2.906343E+04
       296  10 -3.107039E+05 -1.597629E+05 -1.199306E+05 -6.480986E+04 -6.646433E-11 -7.731751E-11
       296  11 -2.208076E+05 -1.412975E+05 -1.098093E+05 -5.018735E+04  1.638942E-10 -1.843804E-10
       296  12 -1.294296E+05 -1.196211E+05 -9.593469E+04 -6.666692E+04 -3.036985E-11  2.571216E-10
       296  13  3.649142E+05  3.617869E+03  2.135566E+04 -6.599510E+04 -7.771546E-10 -1.586714E-11
       296  14  3.640790E+05 -2.255383E+01  1.170997E+04 -5.044509E+04  1.344172E-10 -6.906102E-11
       296  15  3.649491E+05 -2.189200E+02  6.754010E+03 -6.599523E+04 -5.201967E-10  7.890252E-11
       296  16  1.040964E+06  1.669694E+05  1.626166E+05 -6.718163E+04  2.221016E-10  3.523119E-12
       296  17  9.492895E+05  1.412307E+05  1.332105E+05 -5.070305E+04  6.875654E-11  1.482473E-10
       296  18  8.595592E+05  1.191677E+05  1.094293E+05 -6.532296E+04 -1.151922E-11  1.856959E-10
       296  19 -3.107030E+05 -1.597612E+05 -1.199271E+05 -6.480922E+04 -2.073357E+04 -3.842317E+04
       296  20 -2.208070E+05 -1.412962E+05 -1.098066E+05 -5.018690E+04 -1.623508E+04 -3.435405E+04
       296  21 -1.294292E+05 -1.196201E+05 -9.593285E+04 -6.666664E+04 -1.173274E+04 -2.906330E+04
       296  22  3.649149E+05  3.619531E+03  2.135897E+04 -6.599458E+04 -1.692965E+04 -3.841976E+04
       296  23  3.640795E+05 -2.125348E+01  1.171242E+04 -5.044478E+04 -1.107695E+04 -3.435210E+04
       296  24  3.649493E+05 -2.180055E+02  6.755649E+03 -6.599510E+04 -5.221024E+03 -2.906337E+04
       296  25  1.040965E+06  1.669711E+05  1.626197E+05 -6.718123E+04 -1.312166E+04 -3.841638E+04
       296  26  9.492899E+05  1.412319E+05  1.332128E+05 -5.070289E+04 -5.914046E+03 -3.435017E+04
       296  27  8.595594E+05  1.191686E+05  1.094309E+05 -6.532299E+04  1.295788E+03 -2.906343E+04
       297   1 -6.248344E+04 -1.029781E+05 -8.314854E+04 -6.605737E+04  1.036108E+04  2.566373E+04
       297   2  2.785521E+04 -8.130512E+04 -6.677667E+04 -5.047483E+04  8.951751E+03  2.002274E+04
       297   3  1.184324E+05 -5.945243E+04 -4.944205E+04 -6.598733E+04  7.540149E+03  1.432293E+04
       297   4  3.646373E+05  9.608679E+01  5.166471E+03 -6.599367E+04  4.167643E+03  2.566458E+04
       297   5  3.645259E+05 -3.372426E+01  2.979185E+03 -5.044670E+04  2.692030E+03  2.002465E+04
       297   6  3.646564E+05  2.794613E+01  1.800166E+03 -6.599376E+04  1.214343E+03  1.432594E+04
       297   7  7.919310E+05  1.031588E+05  9.347174E+04 -6.592990E+04 -2.029983E+03  2.566542E+04
       297   8  7.013040E+05  8.123051E+04  7.272902E+04 -5.041854E+04 -3.571028E+03  2.002655E+04
       297   9  6.109379E+05  5.950448E+04  5.303920E+04 -6.600018E+04 -5.113928E+03  1.432894E+04
       297  10 -6.248373E+04 -1.029788E+05 -8.314998E+04 -6.605758E+04 -2.023999E-10  1.844790E-10
       297  11  2.785501E+04 -8.130558E+04 -6.677757E+04 -5.047498E+04  1.193429E-12  1.070062E-10
       297  12  1.184323E+05 -5.945266E+04 -4.944254E+04 -6.598742E+04 -3.722213E-10 -2.091608E-10
       297  13  3.646371E+05  9.537470E+01  5.165200E+03 -6.599375E+04 -3.747782E-10  1.555284E-10
       297  14  3.645258E+05 -3.415687E+01  2.978417E+03 -5.044674E+04  3.474005E-10  1.453862E-10
       297  15  3.646564E+05  2.772531E+01  1.799778E+03 -6.599377E+04 -6.446773E-10  2.928147E-10
       297  16  7.919308E+05  1.031580E+05  9.347050E+04 -6.592985E+04 -4.841430E-10  8.334035E-11
       297  17  7.013039E+05  8.123007E+04  7.272824E+04 -5.041848E+04 -2.453175E-10 -3.092759E-10
       297  18  6.109378E+05  5.950425E+04  5.303876E+04 -6.600012E+04  5.565976E-10 -3.542427E-10
       297  19 -6.248344E+04 -1.029781E+05 -8.314854E+04 -6.605737E+04 -1.036108E+04 -2.566373E+04
       297  20  2.785521E+04 -8.130512E+04 -6.677667E+04 -5.047483E+04 -8.951751E+03 -2.002274E+04
       297  21  1.184324E+05 -5.945243E+04 -4.944205E+04 -6.598733E+04 -7.540149E+03 -1.432293E+04
       297  22  3.646373E+05  9.608679E+01  5.166471E+03 -6.599367E+04 -4.167643E+03 -2.566458E+04
       297  23  3.645259E+05 -3.372426E+01  2.979185E+03 -5.044670E+04 -2.692030E+03 -2.002465E+04
       297  24  3.646564E+05  2.794613E+01  1.800166E+03 -6.599376E+04 -1.214343E+03 -1.432594E+04
       297  25  7.919310E+05  1.031588E+05  9.347174E+04 -6.592990E+04  2.029983E+03 -2.566542E+04
       297  26  7.013040E+05  8.123051E+04  7.272902E+04 -5.041854E+04  3.571028E+03 -2.002655E+04
       297  27  6.109379E+05  5.950448E+04  5.303920E+04 -6.600018E+04  5.113928E+03 -1.432894E+04
       298   1  1.855312E+05 -4.313392E+04 -3.542017E+04 -6.597219E+04  7.228158E+03  1.099089E+04
       298   2  2.758945E+05 -2.137715E+04 -1.735765E+04 -5.044227E+04  6.726847E+03  5.277149E+03
       298   3  3.663042E+05  4.185048E+02  1.031169E+03 -6.597959E+04  6.224928E+03 -4.388254E+02
       298   4  3.646177E+05  4.362324E+01  1.435111E+03 -6.598773E+04  9.195893E+02  1.099428E+04
       298   5  3.646000E+05  3.215214E+01  1.014937E+03 -5.045425E+04  4.153165E+02  5.280813E+03
       298   6  3.646227E+05  6.084696E+01  9.235204E+02 -6.598773E+04 -8.949447E+01 -4.348687E+02
       298   7  5.437347E+05  4.321916E+04  3.828882E+04 -6.600327E+04 -5.390767E+03  1.099768E+04
       298   8  4.533131E+05  2.144098E+04  1.938724E+04 -5.046622E+04 -5.897101E+03  5.284476E+03
       298   9  3.629413E+05 -2.967896E+02  8.160213E+02 -6.599588E+04 -6.403901E+03 -4.309118E+02
       298  10  1.855311E+05 -4.313406E+04 -3.542050E+04 -6.597225E+04 -1.623732E-10 -9.425307E-11
       298  11  2.758945E+05 -2.137719E+04 -1.735779E+04 -5.044230E+04 -2.529244E-10 -8.706115E-11
       298  12  3.663042E+05  4.184942E+02  1.031096E+03 -6.597958E+04 -4.390234E-10  1.656315E-10
       298  13  3.646177E+05  4.349319E+01  1.434882E+03 -6.598774E+04 -2.006450E-10 -4.647189E-10
       298  14  3.646000E+05  3.212214E+01  1.014884E+03 -5.045425E+04 -8.802319E-10  1.709569E-10
       298  15  3.646227E+05  6.084675E+01  9.235200E+02 -6.598773E+04 -4.768028E-10  4.008353E-11
       298  16  5.437347E+05  4.321903E+04  3.828854E+04 -6.600322E+04 -2.205172E-10 -9.751801E-11
       298  17  4.533130E+05  2.144094E+04  1.938713E+04 -5.046620E+04 -5.640634E-10  7.744160E-11
       298  18  3.629413E+05 -2.968008E+02  8.159440E+02 -6.599588E+04  6.249252E-11 -1.674840E-10
       298  19  1.855312E+05 -4.313392E+04 -3.542017E+04 -6.597219E+04 -7.228158E+03 -1.099089E+04
       298  20  2.758945E+05 -2.137715E+04 -1.735765E+04 -5.044227E+04 -6.726847E+03 -5.277149E+03
       298  21  3.663042E+05  4.185048E+02  1.031169E+03 -6.597959E+04 -6.224928E+03  4.388254E+02
       298  22  3.646177E+05  4.362324E+01  1.435111E+03 -6.598773E+04 -9.195893E+02 -1.099428E+04
       298  23  3.646000E+05  3.215214E+01  1.014937E+03 -5.045425E+04 -4.153165E+02 -5.280813E+03
       298  24  3.646227E+05  6.084696E+01  9.235204E+02 -6.598773E+04  8.949447E+01  4.348687E+02
       298  25  5.437347E+05  4.321916E+04  3.828882E+04 -6.600327E+04  5.390767E+03 -1.099768E+04
       298  26  4.533131E+05  2.144098E+04  1.938724E+04 -5.046622E+04  5.897101E+03 -5.284476E+03
       298  27  3.629413E+05 -2.967896E+02  8.160213E+02 -6.599588E+04  6.403901E+03  4.309118E+02
       299   1  4.334365E+05  1.671380E+04  1.547450E+04 -6.600610E+04  6.049937E+03 -3.766209E+03
       299   2  5.238124E+05  3.844250E+04  3.431375E+04 -5.045948E+04  5.382289E+03 -9.481825E+03
       299   3  6.142663E+05  6.021610E+04  5.359045E+04 -6.598366E+04  4.715515E+03 -1.519562E+04
       299   4  3.646280E+05  6.027839E+01  9.843404E+02 -6.598870E+04 -2.651838E+02 -3.762320E+03
       299   5  3.645892E+05  1.945326E+01  1.340960E+03 -5.045304E+04 -9.311384E+02 -9.478450E+03
       299   6  3.646190E+05  2.335082E+01  2.133700E+03 -6.598869E+04 -1.596125E+03 -1.519273E+04
       299   7  2.958241E+05 -1.659352E+04 -1.350593E+04 -6.597129E+04 -6.579616E+03 -3.758430E+03
       299   8  2.053901E+05 -3.840518E+04 -3.163306E+04 -5.044661E+04 -7.242976E+03 -9.475075E+03
       299   9  1.150308E+05 -6.017331E+04 -4.932626E+04 -6.599370E+04 -7.905273E+03 -1.518984E+04
       299  10  4.334365E+05  1.671377E+04  1.547440E+04 -6.600609E+04 -5.025043E-10  5.502388E-10
       299  11  5.238123E+05  3.844239E+04  3.431353E+04 -5.045944E+04 -2.259573E-10  6.260820E-10
       299  12  6.142663E+05  6.021585E+04  5.358997E+04 -6.598361E+04  2.916695E-10 -4.446670E-10
       299  13  3.646280E+05  6.026317E+01  9.843137E+02 -6.598870E+04 -8.197845E-10  2.488878E-10
       299  14  3.645892E+05  1.935653E+01  1.340789E+03 -5.045305E+04 -3.295624E-10 -3.874456E-10
       299  15  3.646189E+05  2.310223E+01  2.133261E+03 -6.598871E+04 -3.639030E-10 -5.412414E-11
       299  16  2.958240E+05 -1.659355E+04 -1.350604E+04 -6.597131E+04  1.141242E-10  2.021473E-10
       299  17  2.053900E+05 -3.840529E+04 -3.163333E+04 -5.044666E+04  2.735620E-10 -2.769501E-10
       299  18  1.150307E+05 -6.017358E+04 -4.932681E+04 -6.599380E+04 -6.342208E-10 -1.446440E-10
       299  19  4.334365E+05  1.671380E+04  1.547450E+04 -6.600610E+04 -6.049937E+03  3.766209E+03
       299  20  5.238124E+05  3.844250E+04  3.431375E+04 -5.045948E+04 -5.382289E+03  9.481825E+03
       299  21  6.142663E+05  6.021610E+04  5.359045E+04 -6.598366E+04 -4.715515E+03  1.519562E+04
       299  22  3.646280E+05  6.027839E+01  9.843404E+02 -6.598870E+04  2.651838E+02  3.762320E+03
       299  23  3.645892E+05  1.945326E+01  1.340960E+03 -5.045304E+04  9.311384E+02  9.478450E+03
       299  24  3.646190E+05  2.335082E+01  2.133700E+03 -6.598869E+04  1.596125E+03  1.519273E+04
       299  25  2.958241E+05 -1.659352E+04 -1.350593E+04 -6.597129E+04  6.579616E+03  3.758430E+03
       299  26  2.053901E+05 -3.840518E+04 -3.163306E+04 -5.044661E+04  7.242976E+03  9.475075E+03
       299  27  1.150308E+05 -6.017331E+04 -4.932626E+04 -6.599370E+04  7.905273E+03  1.518984E+04
       300   1  6.815208E+05  7.649816E+04  6.860306E+04 -6.595643E+04  4.291008E+03 -1.852797E+04
       300   2  7.718559E+05  9.821546E+04  8.906476E+04 -5.033144E+04  1.892428E+03 -2.422590E+04
       300   3  8.626061E+05  1.202337E+05  1.111649E+05 -6.581352E+04 -5.039946E+02 -2.986121E+04
       300   4  3.646835E+05 -3.122304E-01  2.756947E+03 -6.599694E+04 -2.040259E+03 -1.852562E+04
       300   5  3.644741E+05 -8.069078E+01  4.698248E+03 -5.044271E+04 -4.368677E+03 -2.422486E+04
       300   6  3.646602E+05  1.283946E+02  8.230318E+03 -6.599679E+04 -6.694599E+03 -2.986144E+04
       300   7  4.794138E+04 -7.650515E+04 -6.309451E+04 -6.603741E+04 -8.368352E+03 -1.852326E+04
       300   8 -4.275050E+04 -9.838733E+04 -7.967715E+04 -5.055388E+04 -1.062575E+04 -2.422382E+04
       300   9 -1.330508E+05 -1.199926E+05 -9.471754E+04 -6.617989E+04 -1.288033E+04 -2.986167E+04
       300  10  6.815206E+05  7.649779E+04  6.860238E+04 -6.595636E+04  5.002766E-10 -5.544669E-10
       300  11  7.718557E+05  9.821482E+04  8.906365E+04 -5.033140E+04 -5.849616E-10 -1.930088E-10
       300  12  8.626059E+05  1.202327E+05  1.111632E+05 -6.581353E+04 -2.712661E-10  1.413357E-10
       300  13  3.646834E+05 -6.819508E-01  2.756294E+03 -6.599697E+04 -7.842192E-10 -8.436340E-11
       300  14  3.644739E+05 -8.132619E+01  4.697109E+03 -5.044279E+04  7.542950E-11 -4.254711E-10
       300  15  3.646600E+05  1.274248E+02  8.228557E+03 -6.599695E+04  2.945413E-10 -5.162067E-11
       300  16  4.794121E+04 -7.650553E+04 -6.309529E+04 -6.603754E+04 -2.925145E-10 -1.523185E-10
       300  17 -4.275078E+04 -9.838799E+04 -7.967846E+04 -5.055409E+04  1.767932E-11  7.610908E-11
       300  18 -1.330512E+05 -1.199936E+05 -9.471953E+04 -6.618020E+04  8.996639E-10  5.652116E-12
       300  19  6.815208E+05  7.649816E+04  6.860306E+04 -6.595643E+04 -4.291008E+03  1.852797E+04
       300  20  7.718559E+05  9.821546E+04  8.906476E+04 -5.033144E+04 -1.892428E+03  2.422590E+04
       300  21  8.626061E+05  1.202337E+05  1.111649E+05 -6.581352E+04  5.039946E+02  2.986121E+04
       300  22  3.646835E+05 -3.122304E-01  2.756947E+03 -6.599694E+04  2.040259E+03  1.852562E+04
       300  23  3.644741E+05 -8.069078E+01  4.698248E+03 -5.044271E+04  4.368677E+03  2.422486E+04
       300  24  3.646602E+05  1.283946E+02  8.230318E+03 -6.599679E+04  6.694599E+03  2.986144E+04
       300  25  4.794138E+04 -7.650515E+04 -6.309451E+04 -6.603741E+04  8.368352E+03  1.852326E+04
       300  26 -4.275050E+04 -9.838733E+04 -7.967715E+04 -5.055388E+04  1.062575E+04  2.422382E+04
       300  27 -1.330508E+05 -1.199926E+05 -9.471754E+04 -6.617989E+04  1.288033E+04  2.986167E+04
       301   1  9.304699E+05  1.360690E+05  1.280934E+05 -6.483273E+04 -1.840064E+03 -3.326606E+04
       301   2  1.019765E+06  1.582984E+05  1.549088E+05 -5.077578E+04 -1.266387E+04 -3.852501E+04
       301   3  1.112023E+06  1.862754E+05  1.902245E+05 -6.783778E+04 -2.348580E+04 -4.247417E+04
       301   4  3.651587E+05 -3.700948E+02  1.078295E+04 -6.599950E+04 -8.373309E+03 -3.326724E+04
       301   5  3.637855E+05 -2.661622E+01  1.873744E+04 -5.043908E+04 -1.774044E+04 -3.852825E+04
       301   6  3.651195E+05  5.816590E+03  3.418823E+04 -6.599941E+04 -2.710416E+04 -4.247883E+04
       301   7 -1.998499E+05 -1.368294E+05 -1.065447E+05 -6.716515E+04 -1.490071E+04 -3.326840E+04
       301   8 -2.917872E+05 -1.583789E+05 -1.174574E+05 -5.010271E+04 -2.281173E+04 -3.853149E+04
       301   9 -3.812572E+05 -1.746778E+05 -1.218788E+05 -6.416329E+04 -3.071822E+04 -4.248352E+04
       301  10  9.304696E+05  1.360678E+05  1.280913E+05 -6.483278E+04 -5.958879E-11  3.548863E-10
       301  11  1.019765E+06  1.582967E+05  1.549058E+05 -5.077618E+04  5.753071E-10  1.704156E-10
       301  12  1.112022E+06  1.862733E+05  1.902200E+05 -6.783858E+04  3.046058E-10  5.505832E-11
       301  13  3.651584E+05 -3.713022E+02  1.078074E+04 -6.599972E+04 -3.069867E-10  2.379915E-10
       301  14  3.637848E+05 -2.829499E+01  1.873406E+04 -5.043963E+04  7.921468E-11 -7.099321E-11
       301  15  3.651182E+05  5.814454E+03  3.418346E+04 -6.600034E+04  8.727246E-11 -1.286742E-11
       301  16 -1.998505E+05 -1.368307E+05 -1.065472E+05 -6.716555E+04 -9.019775E-11  1.975676E-10
       301  17 -2.917881E+05 -1.583807E+05 -1.174612E+05 -5.010342E+04  1.126583E-10  6.880261E-11
       301  18 -3.812587E+05 -1.746800E+05 -1.218840E+05 -6.416435E+04 -2.089181E-10 -4.393281E-11
       301  19  9.304699E+05  1.360690E+05  1.280934E+05 -6.483273E+04  1.840064E+03  3.326606E+04
       301  20  1.019765E+06  1.582984E+05  1.549088E+05 -5.077578E+04  1.266387E+04  3.852501E+04
       301  21  1.112023E+06  1.862754E+05  1.902245E+05 -6.783778E+04  2.348580E+04  4.247417E+04
       301  22  3.651587E+05 -3.700948E+02  1.078295E+04 -6.599950E+04  8.373309E+03  3.326724E+04
       301  23  3.637855E+05 -2.661622E+01  1.873744E+04 -5.043908E+04  1.774044E+04  3.852825E+04
       301  24  3.651195E+05  5.816590E+03  3.418823E+04 -6.599941E+04  2.710416E+04  4.247883E+04
       301  25 -1.998499E+05 -1.368294E+05 -1.065447E+05 -6.716515E+04  1.490071E+04  3.326840E+04
       301  26 -2.917872E+05 -1.583789E+05 -1.174574E+05 -5.010271E+04  2.281173E+04  3.853149E+04
       301  27 -3.812572E+05 -1.746778E+05 -1.218788E+05 -6.416329E+04  3.071822E+04  4.248352E+04
       302   1  1.187448E+06  1.916881E+05  2.132412E+05 -4.742420E+04 -2.273040E+04 -4.721799E+04
       302   2  1.258909E+06  2.278011E+05  2.704483E+05 -7.810375E+04 -9.159844E+04 -4.355399E+04
       302   3  1.370171E+06  3.863905E+05  4.031069E+05 -1.387761E+05 -1.605056E+05 -1.372893E+04
       302   4  3.722372E+05 -5.158769E+03  4.355828E+04 -6.572666E+04 -3.308281E+04 -4.722532E+04
       302   5  3.547905E+05  8.278414E+03  7.591401E+04 -5.077684E+04 -7.297927E+04 -4.355212E+04
       302   6  3.721637E+05  1.392564E+05  1.636748E+05 -6.581259E+04 -1.129013E+05 -1.371077E+04
       302   7 -4.423447E+05 -2.020466E+05 -1.261605E+05 -8.400475E+04 -4.342186E+04 -4.723206E+04
       302   8 -5.485585E+05 -2.112949E+05 -1.186665E+05 -2.349029E+04 -5.438674E+04 -4.354862E+04
       302   9 -6.249168E+05 -1.079286E+05 -7.581656E+04  7.033262E+03 -6.537291E+04 -1.368144E+04
       302  10  1.187447E+06  1.916856E+05  2.132360E+05 -4.742506E+04 -6.860538E-10  3.970956E-10
       302  11  1.258899E+06  2.277968E+05  2.704290E+05 -7.810696E+04 -6.817563E-10  4.995360E-10
       302  12  1.370144E+06  3.863834E+05  4.030582E+05 -1.387779E+05  5.373163E-10  3.448205E-11
       302  13  3.722355E+05 -5.161458E+03  4.355203E+04 -6.572792E+04 -1.790112E-10  6.166110E-10
       302  14  3.547843E+05  8.274948E+03  7.590045E+04 -5.077940E+04 -1.811709E-10  1.409771E-09
       302  15  3.721500E+05  1.392528E+05  1.636505E+05 -6.581384E+04 -1.509111E-10  7.567756E-11
       302  16 -4.423473E+05 -2.020495E+05 -1.261683E+05 -8.400640E+04  4.936165E-10  2.501496E-10
       302  17 -5.485622E+05 -2.112977E+05 -1.186757E+05 -2.349220E+04  5.744605E-11  5.163622E-10
       302  18 -6.249214E+05 -1.079299E+05 -7.582495E+04  7.032541E+03 -8.333878E-10 -1.387992E-10
       302  19  1.187448E+06  1.916881E+05  2.132412E+05 -4.742420E+04  2.273040E+04  4.721799E+04
       302  20  1.258909E+06  2.278011E+05  2.704483E+05 -7.810375E+04  9.159844E+04  4.355399E+04
       302  21  1.370171E+06  3.863905E+05  4.031069E+05 -1.387761E+05  1.605056E+05  1.372893E+04
       302  22  3.722372E+05 -5.158769E+03  4.355828E+04 -6.572666E+04  3.308281E+04  4.722532E+04
       302  23  3.547905E+05  8.278414E+03  7.591401E+04 -5.077684E+04  7.297927E+04  4.355212E+04
       302  24  3.721637E+05  1.392564E+05  1.636748E+05 -6.581259E+04  1.129013E+05  1.371077E+04
       302  25 -4.423447E+05 -2.020466E+05 -1.261605E+05 -8.400475E+04  4.342186E+04  4.723206E+04
       302  26 -5.485585E+05 -2.112949E+05 -1.186665E+05 -2.349029E+04  5.438674E+04  4.354862E+04
       302  27 -6.249168E+05 -1.079286E+05 -7.581656E+04  7.033262E+03  6.537291E+04  1.368144E+04
       303   1  2.418403E+05  9.428545E+05  2.470407E+05 -2.131175E+05  7.653550E+03  7.260029E+04
       303   2  1.226052E+05  6.832212E+05  1.384408E+05 -1.515758E+05  2.069258E+04  3.271486E+04
       303   3  5.623471E+04  4.418937E+05  6.896272E+04 -1.749159E+05  1.266004E+04 -7.174620E+03
       303   4  5.802897E+04  2.029857E+05  6.774819E+04 -1.820712E+05  7.687639E+03  4.656987E+04
       303   5  3.785362E+03  1.959105E+05  3.157393E+04 -1.396660E+05  2.069778E+04  2.999161E+04
       303   6 -1.606725E+03  2.030659E+05  1.837506E+04 -1.821392E+05  1.263131E+04  1.339307E+04
       303   7 -1.258186E+05 -5.363801E+05 -1.115807E+05 -1.510618E+05  7.719154E+03  2.057032E+04
       303   8 -1.150498E+05 -2.911779E+05 -7.530731E+04 -1.277657E+05  2.070287E+04  2.727046E+04
       303   9 -5.945143E+04 -3.570719E+04 -3.221422E+04 -1.893597E+05  1.260209E+04  3.395298E+04
       303  10  2.418389E+05  9.428488E+05  2.470307E+05 -2.131180E+05  2.325820E-11  9.657642E-11
       303  11  1.226045E+05  6.832200E+05  1.384380E+05 -1.515763E+05 -1.668497E-10 -5.935157E-10
       303  12  5.623453E+04  4.418936E+05  6.896232E+04 -1.749158E+05  4.520811E-10 -1.576942E-10
       303  13  5.802832E+04  2.029834E+05  6.774401E+04 -1.820715E+05  6.391193E-10 -2.965017E-10
       303  14  3.784660E+03  1.959094E+05  3.157144E+04 -1.396665E+05 -9.569400E-10  1.015783E-10
       303  15 -1.606945E+03  2.030656E+05  1.837443E+04 -1.821393E+05  3.206922E-10  3.477670E-10
       303  16 -1.258188E+05 -5.363806E+05 -1.115817E+05 -1.510619E+05 -1.069132E-10 -7.589858E-11
       303  17 -1.150505E+05 -2.911788E+05 -7.530951E+04 -1.277661E+05 -8.645271E-11  3.572228E-11
       303  18 -5.945191E+04 -3.570847E+04 -3.221669E+04 -1.893600E+05 -3.183508E-10  2.233544E-10
       303  19  2.418403E+05  9.428545E+05  2.470407E+05 -2.131175E+05 -7.653550E+03 -7.260029E+04
       303  20  1.226052E+05  6.832212E+05  1.384408E+05 -1.515758E+05 -2.069258E+04 -3.271486E+04
       303  21  5.623471E+04  4.418937E+05  6.896272E+04 -1.749159E+05 -1.266004E+04  7.174620E+03
       303  22  5.802897E+04  2.029857E+05  6.774819E+04 -1.820712E+05 -7.687639E+03 -4.656987E+04
       303  23  3.785362E+03  1.959105E+05  3.157393E+04 -1.396660E+05 -2.069778E+04 -2.999161E+04
       303  24 -1.606725E+03  2.030659E+05  1.837506E+04 -1.821392E+05 -1.263131E+04 -1.339307E+04
       303  25 -1.258186E+05 -5.363801E+05 -1.115807E+05 -1.510618E+05 -7.719154E+03 -2.057032E+04
       303  26 -1.150498E+05 -2.911779E+05 -7.530731E+04 -1.277657E+05 -2.070287E+04 -2.727046E+04
       303  27 -5.945143E+04 -3.570719E+04 -3.221422E+04 -1.893597E+05 -1.260209E+04 -3.395298E+04
       304   1  1.565918E+04  2.523960E+05  2.608036E+04 -1.832602E+05  2.230512E+03 -4.703996E+03
       304   2 -4.744258E+04  1.683486E+03 -3.256213E+04 -1.393542E+05 -1.157832E+04 -8.454199E+03
       304   3 -1.079162E+05 -2.480390E+05 -8.816843E+04 -1.813231E+05 -2.488200E+04 -1.219937E+04
       304   4  2.915807E+03  2.001427E+05  1.461842E+04 -1.823443E+05  2.208110E+03  1.082887E+04
       304   5  3.685233E+02  1.996134E+05  8.584705E+03 -1.394095E+05 -1.159830E+04  6.518610E+03
       304   6  5.502738E+02  2.001127E+05  5.978840E+03 -1.823475E+05 -2.489983E+04  2.211941E+03
       304   7 -9.827614E+03  1.478926E+05  3.157222E+03 -1.814285E+05  2.185752E+03  2.636044E+04
       304   8  4.817726E+04  3.975808E+05  4.973023E+04 -1.394648E+05 -1.161828E+04  2.149611E+04
       304   9  1.090040E+05  6.484546E+05  1.001156E+05 -1.833726E+05 -2.491770E+04  1.663349E+04
       304  10  1.565917E+04  2.523959E+05  2.608031E+04 -1.832602E+05 -6.448073E-11 -4.788146E-10
       304  11 -4.744274E+04  1.683374E+03 -3.256251E+04 -1.393543E+05  3.220841E-10 -1.012017E-09
       304  12 -1.079169E+05 -2.480393E+05 -8.816987E+04 -1.813233E+05 -5.616532E-10 -4.265623E-10
       304  13  2.915770E+03  2.001426E+05  1.461819E+04 -1.823444E+05  3.764540E-10 -2.294571E-10
       304  14  3.683675E+02  1.996133E+05  8.584372E+03 -1.394094E+05  1.650114E-09 -2.674062E-12
       304  15  5.496067E+02  2.001125E+05  5.977665E+03 -1.823475E+05  1.331306E-09  1.801332E-10
       304  16 -9.827806E+03  1.478918E+05  3.155908E+03 -1.814286E+05  2.367186E-10  4.505664E-10
       304  17  4.817699E+04  3.975803E+05  4.972911E+04 -1.394646E+05 -6.661139E-10  3.848407E-10
       304  18  1.090032E+05  6.484541E+05  1.001140E+05 -1.833722E+05 -3.362400E-11  4.424264E-10
       304  19  1.565918E+04  2.523960E+05  2.608036E+04 -1.832602E+05 -2.230512E+03  4.703996E+03
       304  20 -4.744258E+04  1.683486E+03 -3.256213E+04 -1.393542E+05  1.157832E+04  8.454199E+03
       304  21 -1.079162E+05 -2.480390E+05 -8.816843E+04 -1.813231E+05  2.488200E+04  1.219937E+04
       304  22  2.915807E+03  2.001427E+05  1.461842E+04 -1.823443E+05 -2.208110E+03 -1.082887E+04
       304  23  3.685233E+02  1.996134E+05  8.584705E+03 -1.394095E+05  1.159830E+04 -6.518610E+03
       304  24  5.502738E+02  2.001127E+05  5.978840E+03 -1.823475E+05  2.489983E+04 -2.211941E+03
       304  25 -9.827614E+03  1.478926E+05  3.157222E+03 -1.814285E+05 -2.185752E+03 -2.636044E+04
       304  26  4.817726E+04  3.975808E+05  4.973023E+04 -1.394648E+05  1.161828E+04 -2.149611E+04
       304  27  1.090040E+05  6.484546E+05  1.001156E+05 -1.833726E+05  2.491770E+04 -1.663349E+04
       305   1 -1.534489E+05 -4.346312E+05 -1.276530E+05 -1.822714E+05 -3.581422E+04 -2.092275E+04
       305   2 -2.143722E+05 -6.831694E+05 -1.864219E+05 -1.377028E+05 -4.033901E+04  1.078160E+04
       305   3 -2.749279E+05 -9.356375E+05 -2.657497E+05 -1.775484E+05 -1.366022E+04  4.249006E+04
       305   4  1.512672E+02  2.002831E+05  5.339072E+03 -1.820224E+05 -3.583904E+04  1.239668E+03
       305   5  5.008268E+02  1.992215E+05  5.257937E+03 -1.398161E+05 -4.032293E+04 -1.474183E+03
       305   6  7.197501E+03  2.001475E+05  8.530099E+03 -1.820163E+05 -1.362345E+04 -4.170369E+03
       305   7  1.537258E+05  8.355797E+05  1.383106E+05 -1.817730E+05 -3.586383E+04  2.342439E+04
       305   8  2.153224E+05  1.082343E+06  1.968918E+05 -1.419322E+05 -4.030678E+04 -1.374717E+04
       305   9  2.892298E+05  1.337118E+06  2.827257E+05 -1.864919E+05 -1.358605E+04 -5.091595E+04
       305  10 -1.534504E+05 -4.346320E+05 -1.276562E+05 -1.822720E+05  1.312454E-11  1.979015E-11
       305  11 -2.143740E+05 -6.831700E+05 -1.864251E+05 -1.377025E+05  1.097933E-10 -3.559864E-10
       305  12 -2.749286E+05 -9.356395E+05 -2.657535E+05 -1.775480E+05  7.043844E-11 -2.209376E-10
       305  13  1.498875E+02  2.002828E+05  5.336656E+03 -1.820223E+05 -5.411907E-10 -1.473626E-10
       305  14  4.990801E+02  1.992210E+05  5.254877E+03 -1.398162E+05  7.348223E-10  1.441214E-13
       305  15  7.197297E+03  2.001474E+05  8.529717E+03 -1.820163E+05 -2.680752E-12  1.116415E-10
       305  16  1.537243E+05  8.355787E+05  1.383071E+05 -1.817723E+05  5.485188E-10 -2.816326E-11
       305  17  2.153206E+05  1.082343E+06  1.968884E+05 -1.419327E+05  7.337079E-11 -2.309546E-10
       305  18  2.892289E+05  1.337115E+06  2.827205E+05 -1.864925E+05 -1.673474E-10  1.953602E-10
       305  19 -1.534489E+05 -4.346312E+05 -1.276530E+05 -1.822714E+05  3.581422E+04  2.092275E+04
       305  20 -2.143722E+05 -6.831694E+05 -1.864219E+05 -1.377028E+05  4.033901E+04 -1.078160E+04
       305  21 -2.749279E+05 -9.356375E+05 -2.657497E+05 -1.775484E+05  1.366022E+04 -4.249006E+04
       305  22  1.512672E+02  2.002831E+05  5.339072E+03 -1.820224E+05  3.583904E+04 -1.239668E+03
       305  23  5.008268E+02  1.992215E+05  5.257937E+03 -1.398161E+05  4.032293E+04  1.474183E+03
       305  24  7.197501E+03  2.001475E+05  8.530099E+03 -1.820163E+05  1.362345E+04  4.170369E+03
       305  25  1.537258E+05  8.355797E+05  1.383106E+05 -1.817730E+05  3.586383E+04 -2.342439E+04
       305  26  2.153224E+05  1.082343E+06  1.968918E+05 -1.419322E+05  4.030678E+04  1.374717E+04
       305  27  2.892298E+05  1.337118E+06  2.827257E+05 -1.864919E+05  1.358605E+04  5.091595E+04
       306   1 -1.290934E+06 -5.044134E+05 -3.047385E+05 -4.844309E+05 -1.394544E+05 -4.426240E+04
       306   2 -1.252591E+06 -3.206305E+05 -1.825995E+05 -4.738285E+05 -8.942873E+04 -7.663826E+03
       306   3 -1.258642E+06 -2.712660E+05 -1.361320E+05 -4.432517E+05 -3.422728E+04  1.518079E+04
       306   4 -8.608385E+05 -2.731396E+05 -1.775627E+05 -2.956516E+05 -1.163045E+05 -3.558233E+04
       306   5 -8.302910E+05 -1.383748E+05 -7.829776E+04 -3.315321E+05 -8.045163E+04 -4.297333E+03
       306   6 -8.412938E+05 -1.351726E+05 -4.342647E+04 -3.474487E+05 -3.942700E+04  1.322782E+04
       306   7 -4.305478E+05 -4.178717E+04 -5.040144E+04 -1.067341E+05 -9.313700E+04 -2.688911E+04
       306   8 -4.078120E+05  4.391181E+04  2.599062E+04 -1.891411E+05 -7.146791E+04 -9.274200E+02
       306   9 -4.237740E+05  9.238992E+02  4.926786E+04 -2.515915E+05 -4.463049E+04  1.127383E+04
       306  10 -1.290956E+06 -5.044207E+05 -3.047789E+05 -4.844359E+05  5.001167E-10 -1.442627E-10
       306  11 -1.252599E+06 -3.206327E+05 -1.826147E+05 -4.738291E+05  1.174022E-09 -3.471768E-10
       306  12 -1.258643E+06 -2.712666E+05 -1.361347E+05 -4.432513E+05 -2.214014E-09 -5.454410E-10
       306  13 -8.608534E+05 -2.731446E+05 -1.775906E+05 -2.956550E+05  5.694046E-10 -1.738578E-10
       306  14 -8.302979E+05 -1.383766E+05 -7.830997E+04 -3.315323E+05  7.526022E-11 -4.233955E-10
       306  15 -8.412955E+05 -1.351732E+05 -4.342972E+04 -3.474482E+05 -2.586719E-09 -8.470196E-10
       306  16 -4.305573E+05 -4.179027E+04 -5.041911E+04 -1.067362E+05  4.180296E-10  2.339885E-10
       306  17 -4.078175E+05  4.391044E+04  2.598101E+04 -1.891411E+05 -6.708179E-10  2.508506E-10
       306  18 -4.237762E+05  9.232279E+02  4.926388E+04 -2.515911E+05 -3.081425E-09 -1.214027E-09
       306  19 -1.290934E+06 -5.044134E+05 -3.047385E+05 -4.844309E+05  1.394544E+05  4.426240E+04
       306  20 -1.252591E+06 -3.206305E+05 -1.825995E+05 -4.738285E+05  8.942873E+04  7.663826E+03
       306  21 -1.258642E+06 -2.712660E+05 -1.361320E+05 -4.432517E+05  3.422728E+04 -1.518079E+04
       306  22 -8.608385E+05 -2.731396E+05 -1.775627E+05 -2.956516E+05  1.163045E+05  3.558233E+04
       306  23 -8.302910E+05 -1.383748E+05 -7.829776E+04 -3.315321E+05  8.045163E+04  4.297333E+03
       306  24 -8.412938E+05 -1.351726E+05 -4.342647E+04 -3.474487E+05  3.942700E+04 -1.322782E+04
       306  25 -4.305478E+05 -4.178717E+04 -5.040144E+04 -1.067341E+05  9.313700E+04  2.688911E+04
       306  26 -4.078120E+05  4.391181E+04  2.599062E+04 -1.891411E+05  7.146791E+04  9.274200E+02
       306  27 -4.237740E+05  9.238992E+02  4.926786E+04 -2.515915E+05  4.463049E+04 -1.127383E+04
       307   1 -1.208305E+06 -2.861339E+05 -1.203518E+05 -4.453598E+05 -3.178816E+04  1.334609E+04
       307   2 -1.173973E+06 -2.590746E+05 -9.474187E+04 -4.293093E+05 -2.152174E+04  1.527885E+04
       307   3 -1.132936E+06 -2.485652E+05 -7.797969E+04 -4.237707E+05 -1.100945E+04  1.655648E+04
       307   4 -8.356755E+05 -1.459286E+05 -3.400142E+04 -3.405717E+05 -3.319823E+04  1.281537E+04
       307   5 -8.386299E+05 -1.344797E+05 -1.774324E+04 -3.365286E+05 -2.360268E+04  1.449684E+04
       307   6 -8.347467E+05 -1.394450E+05 -9.796612E+03 -3.429979E+05 -1.376198E+04  1.552306E+04
       307   7 -4.629039E+05 -5.711071E+03  5.234016E+04 -2.357250E+05 -3.460923E+04  1.228428E+04
       307   8 -5.031728E+05 -9.875826E+03  5.924819E+04 -2.437017E+05 -2.568485E+04  1.371436E+04
       307   9 -5.364682E+05 -3.031865E+04  5.838063E+04 -2.621897E+05 -1.651596E+04  1.448910E+04
       307  10 -1.208307E+06 -2.861343E+05 -1.203541E+05 -4.453594E+05 -4.320849E-09 -9.798447E-10
       307  11 -1.173974E+06 -2.590750E+05 -9.474318E+04 -4.293091E+05 -1.719240E-09 -2.223036E-10
       307  12 -1.132936E+06 -2.485655E+05 -7.798044E+04 -4.237706E+05  9.566733E-10  1.789424E-10
       307  13 -8.356767E+05 -1.459291E+05 -3.400380E+04 -3.405714E+05 -2.517914E-09 -9.232571E-10
       307  14 -8.386305E+05 -1.344801E+05 -1.774468E+04 -3.365284E+05 -8.702203E-11 -2.385967E-11
       307  15 -8.347470E+05 -1.394453E+05 -9.797421E+03 -3.429977E+05  5.001425E-10  1.385142E-11
       307  16 -4.629052E+05 -5.711554E+03  5.233762E+04 -2.357247E+05 -7.833908E-10 -6.652970E-10
       307  17 -5.031736E+05 -9.876205E+03  5.924660E+04 -2.437014E+05  7.817509E-10  1.197880E-10
       307  18 -5.364686E+05 -3.031895E+04  5.837972E+04 -2.621896E+05  3.299483E-10 -2.473884E-10
       307  19 -1.208305E+06 -2.861339E+05 -1.203518E+05 -4.453598E+05  3.178816E+04 -1.334609E+04
       307  20 -1.173973E+06 -2.590746E+05 -9.474187E+04 -4.293093E+05  2.152174E+04 -1.527885E+04
       307  21 -1.132936E+06 -2.485652E+05 -7.797969E+04 -4.237707E+05  1.100945E+04 -1.655648E+04
       307  22 -8.356755E+05 -1.459286E+05 -3.400142E+04 -3.405717E+05  3.319823E+04 -1.281537E+04
       307  23 -8.386299E+05 -1.344797E+05 -1.774324E+04 -3.365286E+05  2.360268E+04 -1.449684E+04
       307  24 -8.347467E+05 -1.394450E+05 -9.796612E+03 -3.429979E+05  1.376198E+04 -1.552306E+04
       307  25 -4.629039E+05 -5.711071E+03  5.234016E+04 -2.357250E+05  3.460923E+04 -1.228428E+04
       307  26 -5.031728E+05 -9.875826E+03  5.924819E+04 -2.437017E+05  2.568485E+04 -1.371436E+04
       307  27 -5.364682E+05 -3.031865E+04  5.838063E+04 -2.621897E+05  1.651596E+04 -1.448910E+04
       308   1 -1.102100E+06 -2.388152E+05 -6.858567E+04 -4.161286E+05 -9.226731E+03  1.548104E+04
       308   2 -1.068249E+06 -2.190087E+05 -5.643705E+04 -3.995677E+05 -6.222426E+03  1.373554E+04
       308   3 -1.024413E+06 -2.098957E+05 -4.590063E+04 -3.948727E+05 -3.205035E+03  1.195324E+04
       308   4 -8.342920E+05 -1.399450E+05 -7.411655E+03 -3.426318E+05 -1.180828E+04  1.451206E+04
       308   5 -8.392656E+05 -1.344730E+05 -4.051694E+03 -3.367456E+05 -8.841064E+03  1.275305E+04
       308   6 -8.342496E+05 -1.396870E+05 -2.273963E+03 -3.427258E+05 -5.860886E+03  1.095720E+04
       308   7 -5.664134E+05 -4.107018E+04  5.375721E+04 -2.691064E+05 -1.439103E+04  1.354263E+04
       308   8 -6.102301E+05 -4.993350E+04  4.833021E+04 -2.739023E+05 -1.146075E+04  1.177016E+04
       308   9 -6.440486E+05 -6.947531E+04  4.135063E+04 -2.905640E+05 -8.517636E+03  9.960824E+03
       308  10 -1.102100E+06 -2.388155E+05 -6.858628E+04 -4.161285E+05  1.049648E-10  4.844771E-11
       308  11 -1.068249E+06 -2.190089E+05 -5.643748E+04 -3.995676E+05 -3.172623E-10  1.552586E-10
       308  12 -1.024413E+06 -2.098958E+05 -4.590091E+04 -3.948726E+05 -4.906948E-10  8.066747E-10
       308  13 -8.342922E+05 -1.399453E+05 -7.412313E+03 -3.426316E+05 -2.553688E-10  1.090147E-10
       308  14 -8.392657E+05 -1.344732E+05 -4.052146E+03 -3.367455E+05  4.647696E-10  2.912993E-10
       308  15 -8.342497E+05 -1.396872E+05 -2.274253E+03 -3.427257E+05  7.659690E-11  1.051840E-10
       308  16 -5.664136E+05 -4.107044E+04  5.375648E+04 -2.691062E+05 -6.674393E-11 -5.119643E-11
       308  17 -6.102302E+05 -4.993368E+04  4.832971E+04 -2.739022E+05  2.052811E-10  3.680123E-11
       308  18 -6.440487E+05 -6.947544E+04  4.135031E+04 -2.905640E+05  7.693199E-10 -7.257643E-10
       308  19 -1.102100E+06 -2.388152E+05 -6.858567E+04 -4.161286E+05  9.226731E+03 -1.548104E+04
       308  20 -1.068249E+06 -2.190087E+05 -5.643705E+04 -3.995677E+05  6.222426E+03 -1.373554E+04
       308  21 -1.024413E+06 -2.098957E+05 -4.590063E+04 -3.948727E+05  3.205035E+03 -1.195324E+04
       308  22 -8.342920E+05 -1.399450E+05 -7.411655E+03 -3.426318E+05  1.180828E+04 -1.451206E+04
       308  23 -8.392656E+05 -1.344730E+05 -4.051694E+03 -3.367456E+05  8.841064E+03 -1.275305E+04
       308  24 -8.342496E+05 -1.396870E+05 -2.273963E+03 -3.427258E+05  5.860886E+03 -1.095720E+04
       308  25 -5.664134E+05 -4.107018E+04  5.375721E+04 -2.691064E+05  1.439103E+04 -1.354263E+04
       308  26 -6.102301E+05 -4.993350E+04  4.833021E+04 -2.739023E+05  1.146075E+04 -1.177016E+04
       308  27 -6.440486E+05 -6.947531E+04  4.135063E+04 -2.905640E+05  8.517636E+03 -9.960824E+03
       309   1 -9.944746E+05 -1.988852E+05 -3.828169E+04 -3.867192E+05 -2.315024E+03  1.057882E+04
       309   2 -9.605895E+05 -1.792781E+05 -2.879568E+04 -3.700311E+05 -8.184687E+02  8.207024E+03
       309   3 -9.163708E+05 -1.700996E+05 -1.970897E+04 -3.652852E+05  6.794567E+02  5.830341E+03
       309   4 -8.341820E+05 -1.397116E+05 -1.741466E+03 -3.427107E+05 -4.967159E+03  9.584356E+03
       309   5 -8.393465E+05 -1.344945E+05 -1.059645E+03 -3.367400E+05 -3.475504E+03  7.210941E+03
       309   6 -8.341778E+05 -1.397049E+05 -7.730979E+02 -3.427118E+05 -1.982520E+03  4.832632E+03
       309   7 -6.738637E+05 -8.053609E+04  3.479708E+04 -2.986918E+05 -7.620037E+03  8.589618E+03
       309   8 -7.180890E+05 -8.971002E+04  2.667534E+04 -3.034430E+05 -6.133094E+03  6.214651E+03
       309   9 -7.519785E+05 -1.093099E+05  1.816221E+04 -3.201358E+05 -4.644863E+03  3.834786E+03
       309  10 -9.944746E+05 -1.988853E+05 -3.828191E+04 -3.867192E+05 -7.369258E-10  6.739062E-10
       309  11 -9.605895E+05 -1.792782E+05 -2.879581E+04 -3.700311E+05  7.459525E-09  2.340555E-09
       309  12 -9.163708E+05 -1.700996E+05 -1.970903E+04 -3.652852E+05  6.769380E-09  1.156905E-09
       309  13 -8.341820E+05 -1.397117E+05 -1.741685E+03 -3.427107E+05  3.054255E-09  1.073429E-09
       309  14 -8.393465E+05 -1.344946E+05 -1.059766E+03 -3.367400E+05  7.654350E-09  2.709662E-09
       309  15 -8.341778E+05 -1.397049E+05 -7.731492E+02 -3.427118E+05  3.632218E-09  1.108499E-09
       309  16 -6.738637E+05 -8.053618E+04  3.479684E+04 -2.986918E+05  6.402471E-09  1.273408E-09
       309  17 -7.180891E+05 -8.971007E+04  2.667520E+04 -3.034430E+05  6.888847E-09  2.196981E-09
       309  18 -7.519785E+05 -1.093099E+05  1.816214E+04 -3.201358E+05 -6.798245E-10  4.339882E-10
       309  19 -9.944746E+05 -1.988852E+05 -3.828169E+04 -3.867192E+05  2.315024E+03 -1.057882E+04
       309  20 -9.605895E+05 -1.792781E+05 -2.879568E+04 -3.700311E+05  8.184687E+02 -8.207024E+03
       309  21 -9.163708E+05 -1.700996E+05 -1.970897E+04 -3.652852E+05 -6.794567E+02 -5.830341E+03
       309  22 -8.341820E+05 -1.397116E+05 -1.741466E+03 -3.427107E+05  4.967159E+03 -9.584356E+03
       309  23 -8.393465E+05 -1.344945E+05 -1.059645E+03 -3.367400E+05  3.475504E+03 -7.210941E+03
       309  24 -8.341778E+05 -1.397049E+05 -7.730979E+02 -3.427118E+05  1.982520E+03 -4.832632E+03
       309  25 -6.738637E+05 -8.053609E+04  3.479708E+04 -2.986918E+05  7.620037E+03 -8.589618E+03
       309  26 -7.180890E+05 -8.971002E+04  2.667534E+04 -3.034430E+05  6.133094E+03 -6.214651E+03
       309  27 -7.519785E+05 -1.093099E+05  1.816221E+04 -3.201358E+05  4.644863E+03 -3.834786E+03
       310   1 -8.864032E+05 -1.589919E+05 -1.255913E+04 -3.570813E+05  1.369790E+03  4.376815E+03
       310   2 -8.524493E+05 -1.393501E+05 -3.867778E+03 -3.403571E+05  2.767977E+03  1.958782E+03
       310   3 -8.081315E+05 -1.301520E+05  4.499283E+03 -3.355994E+05  4.165885E+03 -4.585840E+02
       310   4 -8.341708E+05 -1.397090E+05 -7.392983E+02 -3.427169E+05 -1.293926E+03  3.378528E+03
       310   5 -8.393513E+05 -1.344862E+05 -8.675669E+02 -3.367333E+05  1.048605E+02  9.607330E+02
       310   6 -8.341703E+05 -1.397077E+05 -1.320831E+03 -3.427172E+05  1.503334E+03 -1.456397E+03
       310   7 -7.819354E+05 -1.204258E+05  1.108048E+04 -3.283513E+05 -3.957902E+03  2.380143E+03
       310   8 -8.262530E+05 -1.296222E+05  2.132675E+03 -3.331095E+05 -2.558326E+03 -3.734229E+01
       310   9 -8.602084E+05 -1.492633E+05 -7.140959E+03 -3.498348E+05 -1.159097E+03 -2.454165E+03
       310  10 -8.864032E+05 -1.589919E+05 -1.255917E+04 -3.570813E+05  3.444382E-10 -8.031964E-10
       310  11 -8.524493E+05 -1.393501E+05 -3.867800E+03 -3.403571E+05  1.702672E-10  7.620916E-11
       310  12 -8.081315E+05 -1.301520E+05  4.499250E+03 -3.355994E+05  5.460150E-10  5.452785E-10
       310  13 -8.341708E+05 -1.397090E+05 -7.393229E+02 -3.427169E+05  6.895705E-11 -7.305879E-11
       310  14 -8.393513E+05 -1.344862E+05 -8.675687E+02 -3.367333E+05  2.316550E-10  4.697906E-10
       310  15 -8.341703E+05 -1.397077E+05 -1.320839E+03 -3.427172E+05  1.212803E-10  1.756590E-10
       310  16 -7.819354E+05 -1.204258E+05  1.108044E+04 -3.283513E+05 -3.004733E-10  6.624864E-10
       310  17 -8.262530E+05 -1.296222E+05  2.132662E+03 -3.331095E+05 -6.098466E-11  4.910291E-10
       310  18 -8.602084E+05 -1.492633E+05 -7.140973E+03 -3.498348E+05 -7.425681E-10 -3.264744E-10
       310  19 -8.864032E+05 -1.589919E+05 -1.255913E+04 -3.570813E+05 -1.369790E+03 -4.376815E+03
       310  20 -8.524493E+05 -1.393501E+05 -3.867778E+03 -3.403571E+05 -2.767977E+03 -1.958782E+03
       310  21 -8.081315E+05 -1.301520E+05  4.499283E+03 -3.355994E+05 -4.165885E+03  4.585840E+02
       310  22 -8.341708E+05 -1.397090E+05 -7.392983E+02 -3.427169E+05  1.293926E+03 -3.378528E+03
       310  23 -8.393513E+05 -1.344862E+05 -8.675669E+02 -3.367333E+05 -1.048605E+02 -9.607330E+02
       310  24 -8.341703E+05 -1.397077E+05 -1.320831E+03 -3.427172E+05 -1.503334E+03  1.456397E+03
       310  25 -7.819354E+05 -1.204258E+05  1.108048E+04 -3.283513E+05  3.957902E+03 -2.380143E+03
       310  26 -8.262530E+05 -1.296222E+05  2.132675E+03 -3.331095E+05  2.558326E+03  3.734229E+01
       310  27 -8.602084E+05 -1.492633E+05 -7.140959E+03 -3.498348E+05  1.159097E+03  2.454165E+03
       311   1 -7.781785E+05 -1.190508E+05  1.124061E+04 -3.274346E+05  4.984149E+03 -1.866224E+03
       311   2 -7.441779E+05 -9.940262E+04  1.877840E+04 -3.106905E+05  7.405198E+03 -3.891037E+03
       311   3 -7.000365E+05 -9.040840E+04  2.517314E+04 -3.058912E+05  9.817313E+03 -5.890900E+03
       311   4 -8.342131E+05 -1.396952E+05 -1.695611E+03 -3.427353E+05  2.316383E+03 -2.866032E+03
       311   5 -8.392945E+05 -1.344568E+05 -2.970185E+03 -3.367290E+05  4.762785E+03 -4.881511E+03
       311   6 -8.342416E+05 -1.398777E+05 -5.408017E+03 -3.426682E+05  7.200164E+03 -6.872073E+03
       311   7 -8.902442E+05 -1.603391E+05 -1.463193E+04 -3.580346E+05 -3.511056E+02 -3.865738E+03
       311   8 -9.344019E+05 -1.695103E+05 -2.471934E+04 -3.627638E+05  2.120812E+03 -5.871821E+03
       311   9 -9.684294E+05 -1.893460E+05 -3.599055E+04 -3.794380E+05  4.583613E+03 -7.853023E+03
       311  10 -7.781785E+05 -1.190508E+05  1.124056E+04 -3.274346E+05 -2.689063E-10  1.526562E-10
       311  11 -7.441780E+05 -9.940265E+04  1.877827E+04 -3.106905E+05  2.537172E-10  4.616418E-10
       311  12 -7.000366E+05 -9.040846E+04  2.517289E+04 -3.058912E+05  2.420135E-10  2.110104E-10
       311  13 -8.342131E+05 -1.396952E+05 -1.695636E+03 -3.427353E+05  1.361903E-10  5.735332E-11
       311  14 -8.392945E+05 -1.344568E+05 -2.970272E+03 -3.367290E+05 -5.674328E-10  1.573077E-10
       311  15 -8.342417E+05 -1.398778E+05 -5.408203E+03 -3.426681E+05  5.942560E-11 -5.385208E-12
       311  16 -8.902442E+05 -1.603391E+05 -1.463195E+04 -3.580346E+05  2.090183E-10  1.642227E-10
       311  17 -9.344019E+05 -1.695104E+05 -2.471941E+04 -3.627638E+05  1.348399E-10  3.005834E-10
       311  18 -9.684295E+05 -1.893461E+05 -3.599071E+04 -3.794380E+05 -4.022391E-10 -8.147578E-11
       311  19 -7.781785E+05 -1.190508E+05  1.124061E+04 -3.274346E+05 -4.984149E+03  1.866224E+03
       311  20 -7.441779E+05 -9.940262E+04  1.877840E+04 -3.106905E+05 -7.405198E+03  3.891037E+03
       311  21 -7.000365E+05 -9.040840E+04  2.517314E+04 -3.058912E+05 -9.817313E+03  5.890900E+03
       311  22 -8.342131E+05 -1.396952E+05 -1.695611E+03 -3.427353E+05 -2.316383E+03  2.866032E+03
       311  23 -8.392945E+05 -1.344568E+05 -2.970185E+03 -3.367290E+05 -4.762785E+03  4.881511E+03
       311  24 -8.342416E+05 -1.398777E+05 -5.408017E+03 -3.426682E+05 -7.200164E+03  6.872073E+03
       311  25 -8.902442E+05 -1.603391E+05 -1.463193E+04 -3.580346E+05  3.511056E+02  3.865738E+03
       311  26 -9.344019E+05 -1.695103E+05 -2.471934E+04 -3.627638E+05 -2.120812E+03  5.871821E+03
       311  27 -9.684294E+05 -1.893460E+05 -3.599055E+04 -3.794380E+05 -4.583613E+03  7.853023E+03
       312   1 -6.699229E+05 -7.950788E+04  3.051433E+04 -2.985900E+05  1.152477E+04 -6.995361E+03
       312   2 -6.362375E+05 -5.917437E+04  3.360466E+04 -2.804889E+05  1.846556E+04 -7.149372E+03
       312   3 -5.946003E+05 -5.358980E+04  3.102994E+04 -2.733692E+05  2.522727E+04 -6.823205E+03
       312   4 -8.345693E+05 -1.395171E+05 -7.141782E+03 -3.429393E+05  8.780294E+03 -8.024418E+03
       312   5 -8.388321E+05 -1.344523E+05 -1.292106E+04 -3.365657E+05  1.621460E+04 -7.993772E+03
       312   6 -8.352431E+05 -1.442358E+05 -2.475826E+04 -3.411746E+05  2.346937E+04 -7.483046E+03
       312   7 -9.991884E+05 -1.995246E+05 -4.479965E+04 -3.872779E+05  6.036607E+03 -9.053188E+03
       312   8 -1.041385E+06 -2.097269E+05 -5.944933E+04 -3.926257E+05  1.396444E+04 -8.837867E+03
       312   9 -1.075826E+06 -2.348765E+05 -8.054998E+04 -4.089554E+05  2.171222E+04 -8.142595E+03
       312  10 -6.699231E+05 -7.950797E+04  3.051399E+04 -2.985899E+05  1.947194E-11 -1.773694E-10
       312  11 -6.362378E+05 -5.917451E+04  3.360392E+04 -2.804887E+05  2.128812E-10 -2.183986E-10
       312  12 -5.946010E+05 -5.359002E+04  3.102865E+04 -2.733691E+05  3.481189E-11  1.044525E-11
       312  13 -8.345694E+05 -1.395172E+05 -7.142048E+03 -3.429392E+05 -4.168377E-10 -7.334398E-11
       312  14 -8.388324E+05 -1.344525E+05 -1.292168E+04 -3.365656E+05  2.754108E-11 -4.391696E-11
       312  15 -8.352438E+05 -1.442361E+05 -2.475940E+04 -3.411745E+05 -2.186376E-10 -1.467268E-11
       312  16 -9.991885E+05 -1.995247E+05 -4.479987E+04 -3.872778E+05  8.776793E-12  9.360812E-12
       312  17 -1.041385E+06 -2.097270E+05 -5.944985E+04 -3.926256E+05 -2.200432E-10  1.098053E-10
       312  18 -1.075827E+06 -2.348767E+05 -8.055100E+04 -4.089553E+05  1.026029E-11 -5.146902E-11
       312  19 -6.699229E+05 -7.950788E+04  3.051433E+04 -2.985900E+05 -1.152477E+04  6.995361E+03
       312  20 -6.362375E+05 -5.917437E+04  3.360466E+04 -2.804889E+05 -1.846556E+04  7.149372E+03
       312  21 -5.946003E+05 -5.358980E+04  3.102994E+04 -2.733692E+05 -2.522727E+04  6.823205E+03
       312  22 -8.345693E+05 -1.395171E+05 -7.141782E+03 -3.429393E+05 -8.780294E+03  8.024418E+03
       312  23 -8.388321E+05 -1.344523E+05 -1.292106E+04 -3.365657E+05 -1.621460E+04  7.993772E+03
       312  24 -8.352431E+05 -1.442358E+05 -2.475826E+04 -3.411746E+05 -2.346937E+04  7.483046E+03
       312  25 -9.991884E+05 -1.995246E+05 -4.479965E+04 -3.872779E+05 -6.036607E+03  9.053188E+03
       312  26 -1.041385E+06 -2.097269E+05 -5.944933E+04 -3.926257E+05 -1.396444E+04  8.837867E+03
       312  27 -1.075826E+06 -2.348765E+05 -8.054998E+04 -4.089554E+05 -2.171222E+04  8.142595E+03
       313   1 -5.577719E+05 -4.565833E+04  3.077025E+04 -2.826448E+05  3.271045E+04 -6.504477E+03
       313   2 -5.366521E+05 -8.921210E+03  1.630617E+04 -2.325172E+05  5.240792E+04  1.642757E+03
       313   3 -5.408015E+05 -6.879894E+04 -3.676163E+04 -1.712126E+05  6.831191E+04  1.990464E+04
       313   4 -8.393364E+05 -1.364025E+05 -3.162018E+04 -3.461796E+05  2.816447E+04 -8.209523E+03
       313   5 -8.327581E+05 -1.372869E+05 -5.700685E+04 -3.329291E+05  5.829451E+04  3.848887E+03
       313   6 -8.535389E+05 -2.368883E+05 -1.292849E+05 -3.085005E+05  8.462891E+04  2.602136E+04
       313   7 -1.120824E+06 -2.271460E+05 -9.401601E+04 -4.096906E+05  2.362068E+04 -9.913992E+03
       313   8 -1.128775E+06 -2.656365E+05 -1.303262E+05 -4.332938E+05  6.417804E+04  6.053423E+03
       313   9 -1.166169E+06 -4.049342E+05 -2.218147E+05 -4.457137E+05  1.009367E+05  3.213127E+04
       313  10 -5.577731E+05 -4.565866E+04  3.076816E+04 -2.826446E+05  7.153847E-11  1.649085E-10
       313  11 -5.366551E+05 -8.921951E+03  1.630100E+04 -2.325172E+05  1.110729E-10  3.022975E-10
       313  12 -5.408067E+05 -6.880062E+04 -3.677115E+04 -1.712137E+05  4.840864E-11  3.028335E-10
       313  13 -8.393372E+05 -1.364028E+05 -3.162180E+04 -3.461794E+05 -6.735848E-11  9.586713E-11
       313  14 -8.327617E+05 -1.372878E+05 -5.701328E+04 -3.329292E+05  1.659508E-10  1.227897E-10
       313  15 -8.535467E+05 -2.368910E+05 -1.292996E+05 -3.085023E+05  9.406676E-11  3.076756E-11
       313  16 -1.120825E+06 -2.271463E+05 -9.401724E+04 -4.096904E+05  4.837388E-10  2.835416E-11
       313  17 -1.128779E+06 -2.656377E+05 -1.303340E+05 -4.332941E+05 -1.678671E-11  2.265257E-10
       313  18 -1.166181E+06 -4.049380E+05 -2.218358E+05 -4.457163E+05 -3.252788E-10  3.762003E-11
       313  19 -5.577719E+05 -4.565833E+04  3.077025E+04 -2.826448E+05 -3.271045E+04  6.504477E+03
       313  20 -5.366521E+05 -8.921210E+03  1.630617E+04 -2.325172E+05 -5.240792E+04 -1.642757E+03
       313  21 -5.408015E+05 -6.879894E+04 -3.676163E+04 -1.712126E+05 -6.831191E+04 -1.990464E+04
       313  22 -8.393364E+05 -1.364025E+05 -3.162018E+04 -3.461796E+05 -2.816447E+04  8.209523E+03
       313  23 -8.327581E+05 -1.372869E+05 -5.700685E+04 -3.329291E+05 -5.829451E+04 -3.848887E+03
       313  24 -8.535389E+05 -2.368883E+05 -1.292849E+05 -3.085005E+05 -8.462891E+04 -2.602136E+04
       313  25 -1.120824E+06 -2.271460E+05 -9.401601E+04 -4.096906E+05 -2.362068E+04  9.913992E+03
       313  26 -1.128775E+06 -2.656365E+05 -1.303262E+05 -4.332938E+05 -6.417804E+04 -6.053423E+03
       313  27 -1.166169E+06 -4.049342E+05 -2.218147E+05 -4.457137E+05 -1.009367E+05 -3.213127E+04
       314   1 -3.259160E+05 -6.275774E+04 -1.723953E+04  2.990085E+04  1.194921E+05  1.510252E+04
       314   2 -2.368209E+05 -2.285995E+05 -9.841811E+04 -2.079484E+04  9.104919E+04  4.768868E+04
       314   3 -1.003547E+05 -2.211307E+05 -1.176808E+05 -1.087404E+05  6.262425E+04  5.109735E+04
       314   4  7.825203E+05  2.118751E+05  2.489881E+05 -8.120049E+04  1.717997E+05  1.511984E+04
       314   5  7.561597E+05  1.267666E+04  1.155069E+05 -6.252041E+04  1.110640E+05  4.768718E+04
       314   6  7.826664E+05 -7.778113E+03  6.627470E+04 -8.108024E+04  5.035530E+04  5.109173E+04
       314   7  1.892114E+06  4.864667E+05  5.151454E+05 -1.925012E+05  2.242000E+05  1.511844E+04
       314   8  1.750071E+06  2.538948E+05  3.293764E+05 -1.043137E+05  1.311102E+05  4.768300E+04
       314   9  1.666427E+06  2.055277E+05  2.501883E+05 -5.338012E+04  3.806915E+04  5.108502E+04
       314  10 -3.259314E+05 -6.276182E+04 -1.726680E+04  2.989940E+04 -2.510232E-10  2.508141E-10
       314  11 -2.368304E+05 -2.286042E+05 -9.843797E+04 -2.079834E+04 -7.438557E-11 -1.814410E-10
       314  12 -1.003597E+05 -2.211346E+05 -1.176931E+05 -1.087429E+05  3.241892E-11  1.285216E-10
       314  13  7.824885E+05  2.118669E+05  2.489322E+05 -8.120258E+04  4.941720E-10  1.170338E-10
       314  14  7.561458E+05  1.267091E+04  1.154795E+05 -6.252467E+04 -3.426163E-10 -7.076850E-10
       314  15  7.826630E+05 -7.781598E+03  6.626503E+04 -8.108231E+04  3.990821E-10  3.466530E-12
       314  16  1.892060E+06  4.864530E+05  5.150508E+05 -1.925039E+05  6.739707E-10  7.723085E-12
       314  17  1.750052E+06  2.538878E+05  3.293399E+05 -1.043188E+05  7.259192E-10 -5.252983E-12
       314  18  1.666425E+06  2.055246E+05  2.501806E+05 -5.338169E+04 -3.604470E-10 -2.762944E-10
       314  19 -3.259160E+05 -6.275774E+04 -1.723953E+04  2.990085E+04 -1.194921E+05 -1.510252E+04
       314  20 -2.368209E+05 -2.285995E+05 -9.841811E+04 -2.079484E+04 -9.104919E+04 -4.768868E+04
       314  21 -1.003547E+05 -2.211307E+05 -1.176808E+05 -1.087404E+05 -6.262425E+04 -5.109735E+04
       314  22  7.825203E+05  2.118751E+05  2.489881E+05 -8.120049E+04 -1.717997E+05 -1.511984E+04
       314  23  7.561597E+05  1.267666E+04  1.155069E+05 -6.252041E+04 -1.110640E+05 -4.768718E+04
       314  24  7.826664E+05 -7.778113E+03  6.627470E+04 -8.108024E+04 -5.035530E+04 -5.109173E+04
       314  25  1.892114E+06  4.864667E+05  5.151454E+05 -1.925012E+05 -2.242000E+05 -1.511844E+04
       314  26  1.750071E+06  2.538948E+05  3.293764E+05 -1.043137E+05 -1.311102E+05 -4.768300E+04
       314  27  1.666427E+06  2.055277E+05  2.501883E+05 -5.338012E+04 -3.806915E+04 -5.108502E+04
       315   1 -2.716650E+04 -1.842401E+05 -1.150115E+05 -7.844949E+04  4.602027E+04  4.541028E+04
       315   2  8.268944E+04 -1.659020E+05 -1.141904E+05 -6.161418E+04  3.338623E+04  4.033216E+04
       315   3  1.963441E+05 -1.394784E+05 -1.030923E+05 -8.311185E+04  2.074588E+04  3.379847E+04
       315   4  7.718383E+05  8.905978E+03  5.202131E+04 -8.135117E+04  4.125428E+04  4.540513E+04
       315   5  7.698345E+05  9.063595E+00  2.852455E+04 -6.218673E+04  2.699614E+04  4.032920E+04
       315   6  7.718943E+05 -5.260562E+02  1.642159E+04 -8.135226E+04  1.273393E+04  3.379841E+04
       315   7  1.571447E+06  2.020113E+05  2.190188E+05 -8.425663E+04  3.648223E+04  4.540004E+04
       315   8  1.457427E+06  1.658901E+05  1.712139E+05 -6.275989E+04  2.059909E+04  4.032626E+04
       315   9  1.347758E+06  1.384052E+05  1.359176E+05 -7.959097E+04  4.714690E+03  3.379831E+04
       315  10 -2.716933E+04 -1.842429E+05 -1.150193E+05 -7.845117E+04 -5.742330E-10 -8.388101E-11
       315  11  8.268781E+04 -1.659040E+05 -1.141956E+05 -6.161527E+04 -3.050275E-10 -1.331460E-10
       315  12  1.963433E+05 -1.394797E+05 -1.030953E+05 -8.311242E+04  1.967818E-10 -2.568805E-10
       315  13  7.718360E+05  8.903307E+03  5.201424E+04 -8.135268E+04  4.124478E-10 -1.007709E-10
       315  14  7.698333E+05  7.120977E+00  2.852012E+04 -6.218761E+04 -5.541538E-10 -1.895700E-11
       315  15  7.718938E+05 -5.273269E+02  1.641913E+04 -8.135261E+04 -7.126424E-10 -2.939665E-11
       315  16  1.571445E+06  2.020087E+05  2.190125E+05 -8.425796E+04  1.194448E-09 -4.061927E-11
       315  17  1.457426E+06  1.658883E+05  1.712100E+05 -6.276056E+04 -8.449482E-10  1.869095E-10
       315  18  1.347758E+06  1.384040E+05  1.359154E+05 -7.959110E+04  2.996067E-12 -3.564996E-11
       315  19 -2.716650E+04 -1.842401E+05 -1.150115E+05 -7.844949E+04 -4.602027E+04 -4.541028E+04
       315  20  8.268944E+04 -1.659020E+05 -1.141904E+05 -6.161418E+04 -3.338623E+04 -4.033216E+04
       315  21  1.963441E+05 -1.394784E+05 -1.030923E+05 -8.311185E+04 -2.074588E+04 -3.379847E+04
       315  22  7.718383E+05  8.905978E+03  5.202131E+04 -8.135117E+04 -4.125428E+04 -4.540513E+04
       315  23  7.698345E+05  9.063595E+00  2.852455E+04 -6.218673E+04 -2.699614E+04 -4.032920E+04
       315  24  7.718943E+05 -5.260562E+02  1.642159E+04 -8.135226E+04 -1.273393E+04 -3.379841E+04
       315  25  1.571447E+06  2.020113E+05  2.190188E+05 -8.425663E+04 -3.648223E+04 -4.540004E+04
       315  26  1.457427E+06  1.658901E+05  1.712139E+05 -6.275989E+04 -2.059909E+04 -4.032626E+04
       315  27  1.347758E+06  1.384052E+05  1.359176E+05 -7.959097E+04 -4.714690E+03 -3.379831E+04
       316   1  2.783976E+05 -1.186277E+05 -8.927998E+04 -8.161956E+04  1.780154E+04  2.961567E+04
       316   2  3.894211E+05 -9.213963E+04 -7.181515E+04 -6.240635E+04  1.432121E+04  2.267291E+04
       316   3  5.010216E+05 -6.522797E+04 -5.197821E+04 -8.144955E+04  1.083737E+04  1.566315E+04
       316   4  7.711379E+05  2.287899E+02  1.254272E+04 -8.133549E+04  1.017476E+04  2.961670E+04
       316   5  7.708639E+05 -9.999743E+01  7.183320E+03 -6.220812E+04  6.617155E+03  2.267540E+04
       316   6  7.711659E+05  7.919151E+00  4.247583E+03 -8.133577E+04  3.056627E+03  1.566717E+04
       316   7  1.264108E+06  1.190700E+05  1.143525E+05 -8.105116E+04  2.542036E+03  2.961772E+04
       316   8  1.152445E+06  9.193045E+04  8.617410E+04 -6.200975E+04 -1.091555E+03  2.267789E+04
       316   9  1.041379E+06  6.523919E+04  6.046959E+04 -8.122193E+04 -4.727438E+03  1.567118E+04
       316  10  2.783970E+05 -1.186287E+05 -8.928222E+04 -8.161998E+04 -1.247974E-10 -5.662673E-10
       316  11  3.894207E+05 -9.214024E+04 -7.181650E+04 -6.240661E+04 -7.681600E-10 -2.499055E-11
       316  12  5.010214E+05 -6.522826E+04 -5.197889E+04 -8.144969E+04 -7.716440E-10  7.324139E-10
       316  13  7.711376E+05  2.278198E+02  1.254088E+04 -8.133573E+04 -7.426796E-11 -1.630720E-10
       316  14  7.708637E+05 -1.005615E+02  7.182271E+03 -6.220824E+04 -3.527382E-10 -1.589022E-10
       316  15  7.711658E+05  7.652961E+00  4.247104E+03 -8.133581E+04  1.071412E-10  2.075691E-10
       316  16  1.264108E+06  1.190690E+05  1.143508E+05 -8.105122E+04  4.478355E-10  2.716203E-11
       316  17  1.152445E+06  9.192990E+04  8.617313E+04 -6.200973E+04  4.888427E-10  2.169674E-10
       316  18  1.041379E+06  6.523892E+04  6.046909E+04 -8.122187E+04  3.781450E-10  5.574402E-10
       316  19  2.783976E+05 -1.186277E+05 -8.927998E+04 -8.161956E+04 -1.780154E+04 -2.961567E+04
       316  20  3.894211E+05 -9.213963E+04 -7.181515E+04 -6.240635E+04 -1.432121E+04 -2.267291E+04
       316  21  5.010216E+05 -6.522797E+04 -5.197821E+04 -8.144955E+04 -1.083737E+04 -1.566315E+04
       316  22  7.711379E+05  2.287899E+02  1.254272E+04 -8.133549E+04 -1.017476E+04 -2.961670E+04
       316  23  7.708639E+05 -9.999743E+01  7.183320E+03 -6.220812E+04 -6.617155E+03 -2.267540E+04
       316  24  7.711659E+05  7.919151E+00  4.247583E+03 -8.133577E+04 -3.056627E+03 -1.566717E+04
       316  25  1.264108E+06  1.190700E+05  1.143525E+05 -8.105116E+04 -2.542036E+03 -2.961772E+04
       316  26  1.152445E+06  9.193045E+04  8.617410E+04 -6.200975E+04  1.091555E+03 -2.267789E+04
       316  27  1.041379E+06  6.523919E+04  6.046959E+04 -8.122193E+04  4.727438E+03 -1.567118E+04
       317   1  5.834771E+05 -4.515808E+04 -3.522745E+04 -8.138626E+04  1.012761E+04  1.156719E+04
       317   2  6.945571E+05 -1.842071E+04 -1.366810E+04 -6.227114E+04  9.059269E+03  4.544211E+03
       317   3  8.057581E+05  8.377252E+03  8.589169E+03 -8.134621E+04  7.990162E+03 -2.480996E+03
       317   4  7.710704E+05  4.105643E+01  3.316823E+03 -8.132126E+04  2.369346E+03  1.157173E+04
       317   5  7.710183E+05  2.478701E+01  2.161148E+03 -6.222632E+04  1.297623E+03  4.549025E+03
       317   6  7.710759E+05  7.029062E+01  1.705665E+03 -8.132128E+04  2.253229E+02 -2.475866E+03
       317   7  9.586971E+05  4.523801E+04  4.185944E+04 -8.125623E+04 -5.391223E+03  1.157627E+04
       317   8  8.474853E+05  1.846995E+04  1.799030E+04 -6.218149E+04 -6.464962E+03  4.553837E+03
       317   9  7.363951E+05 -8.236712E+03 -5.177672E+03 -8.129635E+04 -7.539092E+03 -2.470736E+03
       317  10  5.834770E+05 -4.515825E+04 -3.522789E+04 -8.138635E+04 -2.562851E-10  4.247836E-10
       317  11  6.945570E+05 -1.842076E+04 -1.366829E+04 -6.227118E+04 -8.611893E-10  3.756473E-10
       317  12  8.057580E+05  8.377228E+03  8.589038E+03 -8.134619E+04 -1.135882E-09  5.075045E-10
       317  13  7.710703E+05  4.091107E+01  3.316561E+03 -8.132128E+04 -2.503019E-10  8.145053E-10
       317  14  7.710183E+05  2.476433E+01  2.161106E+03 -6.222632E+04  8.126973E-10 -4.527894E-10
       317  15  7.710759E+05  7.028402E+01  1.705653E+03 -8.132128E+04 -3.902216E-11 -2.656133E-10
       317  16  9.586971E+05  4.523786E+04  4.185914E+04 -8.125618E+04  1.542741E-10 -4.914255E-10
       317  17  8.474852E+05  1.846992E+04  1.799018E+04 -6.218146E+04  4.482562E-10 -5.547030E-11
       317  18  7.363950E+05 -8.236734E+03 -5.177791E+03 -8.129637E+04  1.146414E-09 -5.630079E-10
       317  19  5.834771E+05 -4.515808E+04 -3.522745E+04 -8.138626E+04 -1.012761E+04 -1.156719E+04
       317  20  6.945571E+05 -1.842071E+04 -1.366810E+04 -6.227114E+04 -9.059269E+03 -4.544211E+03
       317  21  8.057581E+05  8.377252E+03  8.589169E+03 -8.134621E+04 -7.990162E+03  2.480996E+03
       317  22  7.710704E+05  4.105643E+01  3.316823E+03 -8.132126E+04 -2.369346E+03 -1.157173E+04
       317  23  7.710183E+05  2.478701E+01  2.161148E+03 -6.222632E+04 -1.297623E+03 -4.549025E+03
       317  24  7.710759E+05  7.029062E+01  1.705665E+03 -8.132128E+04 -2.253229E+02  2.475866E+03
       317  25  9.586971E+05  4.523801E+04  4.185944E+04 -8.125623E+04  5.391223E+03 -1.157627E+04
       317  26  8.474853E+05  1.846995E+04  1.799030E+04 -6.218149E+04  6.464962E+03 -4.553837E+03
       317  27  7.363951E+05 -8.236712E+03 -5.177672E+03 -8.129635E+04  7.539092E+03  2.470736E+03
       318   1  8.882814E+05  2.839891E+04  2.623611E+04 -8.138055E+04  7.681386E+03 -6.570525E+03
       318   2  9.994438E+05  5.510891E+04  4.930247E+04 -6.224367E+04  6.678761E+03 -1.359707E+04
       318   3  1.110732E+06  8.187510E+04  7.302535E+04 -8.131915E+04  5.677702E+03 -2.062383E+04
       318   4  7.710746E+05  6.840193E+01  1.680744E+03 -8.132646E+04 -8.551556E+01 -6.565572E+03
       318   5  7.710088E+05  1.157057E+01  2.021207E+03 -6.221984E+04 -1.088651E+03 -1.359302E+04
       318   6  7.710587E+05  1.213183E+01  3.019373E+03 -8.132645E+04 -2.090047E+03 -2.062064E+04
       318   7  6.538810E+05 -2.826295E+04 -2.287516E+04 -8.127238E+04 -7.850976E+03 -6.560620E+03
       318   8  5.426233E+05 -5.508904E+04 -4.526267E+04 -6.219602E+04 -8.853257E+03 -1.358897E+04
       318   9  4.314949E+05 -8.185808E+04 -6.699259E+04 -8.133373E+04 -9.853626E+03 -2.061745E+04
       318  10  8.882813E+05  2.839884E+04  2.623591E+04 -8.138051E+04 -7.459108E-10  1.284333E-10
       318  11  9.994437E+05  5.510870E+04  4.930204E+04 -6.224359E+04 -2.427452E-10 -3.977327E-10
       318  12  1.110732E+06  8.187463E+04  7.302449E+04 -8.131905E+04 -5.276147E-10 -9.462418E-11
       318  13  7.710746E+05  6.835562E+01  1.680663E+03 -8.132646E+04 -3.932298E-11  7.265248E-10
       318  14  7.710087E+05  1.137176E+01  2.020858E+03 -6.221986E+04 -1.726654E-10  4.106747E-10
       318  15  7.710586E+05  1.167388E+01  3.018566E+03 -8.132649E+04  5.431486E-10 -9.825507E-10
       318  16  6.538809E+05 -2.826301E+04 -2.287535E+04 -8.127242E+04  2.526767E-10  1.855606E-10
       318  17  5.426232E+05 -5.508926E+04 -4.526316E+04 -6.219612E+04  8.903914E-11  6.370541E-10
       318  18  4.314947E+05 -8.185856E+04 -6.699357E+04 -8.133389E+04 -2.302456E-10 -6.783369E-10
       318  19  8.882814E+05  2.839891E+04  2.623611E+04 -8.138055E+04 -7.681386E+03  6.570525E+03
       318  20  9.994438E+05  5.510891E+04  4.930247E+04 -6.224367E+04 -6.678761E+03  1.359707E+04
       318  21  1.110732E+06  8.187510E+04  7.302535E+04 -8.131915E+04 -5.677702E+03  2.062383E+04
       318  22  7.710746E+05  6.840193E+01  1.680744E+03 -8.132646E+04  8.551556E+01  6.565572E+03
       318  23  7.710088E+05  1.157057E+01  2.021207E+03 -6.221984E+04  1.088651E+03  1.359302E+04
       318  24  7.710587E+05  1.213183E+01  3.019373E+03 -8.132645E+04  2.090047E+03  2.062064E+04
       318  25  6.538810E+05 -2.826295E+04 -2.287516E+04 -8.127238E+04  7.850976E+03  6.560620E+03
       318  26  5.426233E+05 -5.508904E+04 -4.526267E+04 -6.219602E+04  8.853257E+03  1.358897E+04
       318  27  4.314949E+05 -8.185808E+04 -6.699259E+04 -8.133373E+04  9.853626E+03  2.061745E+04
       319   1  1.193514E+06  1.018981E+05  9.154756E+04 -8.128470E+04  5.083516E+03 -2.472381E+04
       319   2  1.304787E+06  1.286289E+05  1.169650E+05 -6.200764E+04  1.804097E+03 -3.173791E+04
       319   3  1.416653E+06  1.557614E+05  1.446248E+05 -8.104265E+04 -1.471929E+03 -3.867809E+04
       319   4  7.711451E+05 -2.192035E+01  3.842410E+03 -8.134889E+04 -2.713102E+03 -2.472150E+04
       319   5  7.708433E+05 -1.360192E+02  6.449348E+03 -6.219174E+04 -5.908990E+03 -3.173771E+04
       319   6  7.711069E+05  1.377502E+02  1.124209E+04 -8.134868E+04 -9.100914E+03 -3.867993E+04
       319   7  3.489450E+05 -1.019532E+05 -8.387226E+04 -8.141300E+04 -1.050451E+04 -2.471919E+04
       319   8  2.371694E+05 -1.289190E+05 -1.040815E+05 -6.237565E+04 -1.361557E+04 -3.173750E+04
       319   9  1.259554E+05 -1.555122E+05 -1.221630E+05 -8.165435E+04 -1.672211E+04 -3.868175E+04
       319  10  1.193514E+06  1.018974E+05  9.154636E+04 -8.128460E+04 -6.525900E-10  5.346854E-10
       319  11  1.304787E+06  1.286278E+05  1.169631E+05 -6.200759E+04 -3.004782E-10  3.275283E-10
       319  12  1.416652E+06  1.557598E+05  1.446220E+05 -8.104269E+04 -5.176382E-10  5.783408E-10
       319  13  7.711450E+05 -2.257884E+01  3.841248E+03 -8.134894E+04 -4.423771E-10 -5.019200E-10
       319  14  7.708430E+05 -1.371106E+02  6.447389E+03 -6.219189E+04 -2.766224E-11 -1.831373E-10
       319  15  7.711064E+05  1.361208E+02  1.123912E+04 -8.134896E+04  3.989082E-10  2.417274E-10
       319  16  3.489447E+05 -1.019539E+05 -8.387362E+04 -8.141321E+04  7.685505E-10 -1.959140E-10
       319  17  2.371689E+05 -1.289201E+05 -1.040838E+05 -6.237600E+04  9.040784E-10 -2.449437E-10
       319  18  1.259547E+05 -1.555139E+05 -1.221663E+05 -8.165487E+04  4.722012E-10  2.237839E-11
       319  19  1.193514E+06  1.018981E+05  9.154756E+04 -8.128470E+04 -5.083516E+03  2.472381E+04
       319  20  1.304787E+06  1.286289E+05  1.169650E+05 -6.200764E+04 -1.804097E+03  3.173791E+04
       319  21  1.416653E+06  1.557614E+05  1.446248E+05 -8.104265E+04  1.471929E+03  3.867809E+04
       319  22  7.711451E+05 -2.192035E+01  3.842410E+03 -8.134889E+04  2.713102E+03  2.472150E+04
       319  23  7.708433E+05 -1.360192E+02  6.449348E+03 -6.219174E+04  5.908990E+03  3.173771E+04
       319  24  7.711069E+05  1.377502E+02  1.124209E+04 -8.134868E+04  9.100914E+03  3.867993E+04
       319  25  3.489450E+05 -1.019532E+05 -8.387226E+04 -8.141300E+04  1.050451E+04  2.471919E+04
       319  26  2.371694E+05 -1.289190E+05 -1.040815E+05 -6.237565E+04  1.361557E+04  3.173750E+04
       319  27  1.259554E+05 -1.555122E+05 -1.221630E+05 -8.165435E+04  1.672211E+04  3.868175E+04
       320   1  1.500431E+06  1.752157E+05  1.658165E+05 -7.971215E+04 -3.323799E+03 -4.287890E+04
       320   2  1.610583E+06  2.027083E+05  1.999461E+05 -6.250187E+04 -1.792932E+04 -4.935789E+04
       320   3  1.724790E+06  2.379927E+05  2.455597E+05 -8.372528E+04 -3.253257E+04 -5.418851E+04
       320   4  7.717863E+05 -5.435538E+02  1.471417E+04 -8.137541E+04 -1.139288E+04 -4.288231E+04
       320   5  7.698878E+05 -8.227949E+01  2.553741E+04 -6.215780E+04 -2.415959E+04 -4.936424E+04
       320   6  7.717205E+05  7.859666E+03  4.658081E+04 -8.137669E+04 -3.692146E+04 -5.419681E+04
       320   7  4.364370E+04 -1.763364E+05 -1.364169E+05 -8.303665E+04 -1.945266E+04 -4.288568E+04
       320   8 -7.013928E+04 -2.029177E+05 -1.489097E+05 -6.181419E+04 -3.038157E+04 -4.937060E+04
       320   9 -1.804917E+05 -2.223313E+05 -1.524482E+05 -7.903180E+04 -4.130370E+04 -5.420514E+04
       320  10  1.500430E+06  1.752137E+05  1.658131E+05 -7.971226E+04  9.923895E-10  1.512041E-11
       320  11  1.610582E+06  2.027056E+05  1.999409E+05 -6.250259E+04 -3.767570E-10 -8.295113E-10
       320  12  1.724788E+06  2.379893E+05  2.455522E+05 -8.372670E+04 -1.377014E-09 -1.009165E-10
       320  13  7.717856E+05 -5.455640E+02  1.471047E+04 -8.137580E+04  3.060942E-10 -6.969078E-11
       320  14  7.698865E+05 -8.505373E+01  2.553174E+04 -6.215876E+04 -3.097448E-10 -4.028667E-10
       320  15  7.717182E+05  7.856145E+03  4.657273E+04 -8.137830E+04  5.091844E-11  1.623946E-10
       320  16  4.364280E+04 -1.763385E+05 -1.364211E+05 -8.303732E+04 -7.331761E-10 -2.270372E-10
       320  17 -7.014093E+04 -2.029206E+05 -1.489160E+05 -6.181540E+04  8.188062E-10 -1.839782E-10
       320  18 -1.804943E+05 -2.223349E+05 -1.524570E+05 -7.903360E+04  4.450085E-10  1.015355E-09
       320  19  1.500431E+06  1.752157E+05  1.658165E+05 -7.971215E+04  3.323799E+03  4.287890E+04
       320  20  1.610583E+06  2.027083E+05  1.999461E+05 -6.250187E+04  1.792932E+04  4.935789E+04
       320  21  1.724790E+06  2.379927E+05  2.455597E+05 -8.372528E+04  3.253257E+04  5.418851E+04
       320  22  7.717863E+05 -5.435538E+02  1.471417E+04 -8.137541E+04  1.139288E+04  4.288231E+04
       320  23  7.698878E+05 -8.227949E+01  2.553741E+04 -6.215780E+04  2.415959E+04  4.936424E+04
       320  24  7.717205E+05  7.859666E+03  4.658081E+04 -8.137669E+04  3.692146E+04  5.419681E+04
       320  25  4.364370E+04 -1.763364E+05 -1.364169E+05 -8.303665E+04  1.945266E+04  4.288568E+04
       320  26 -7.013928E+04 -2.029177E+05 -1.489097E+05 -6.181419E+04  3.038157E+04  4.937060E+04
       320  27 -1.804917E+05 -2.223313E+05 -1.524482E+05 -7.903180E+04  4.130370E+04  5.420514E+04
       321   1  1.819047E+06  2.433285E+05  2.751791E+05 -5.593608E+04 -3.215042E+04 -6.009654E+04
       321   2  1.905541E+06  2.897320E+05  3.502264E+05 -9.953927E+04 -1.231839E+05 -5.533660E+04
       321   3  2.045806E+06  5.024304E+05  5.260855E+05 -1.803844E+05 -2.142835E+05 -1.749426E+04
       321   4  7.814208E+05 -7.090826E+03  5.934419E+04 -8.106522E+04 -4.506883E+04 -6.011030E+04
       321   5  7.576006E+05  1.121308E+04  1.034071E+05 -6.254053E+04 -9.941752E+04 -5.533033E+04
       321   6  7.812720E+05  1.896070E+05  2.229392E+05 -8.124713E+04 -1.538111E+05 -1.745856E+04
       321   7 -2.551870E+05 -2.575761E+05 -1.565489E+05 -1.061519E+05 -5.796602E+04 -6.012304E+04
       321   8 -3.891002E+05 -2.673866E+05 -1.434866E+05 -2.561119E+04 -7.569425E+04 -5.532124E+04
       321   9 -4.817723E+05 -1.232933E+05 -8.030131E+04  1.768768E+04 -9.346080E+04 -1.740358E+04
       321  10  1.819045E+06  2.433243E+05  2.751704E+05 -5.593763E+04  8.817254E-10  4.925280E-10
       321  11  1.905524E+06  2.897246E+05  3.501922E+05 -9.954475E+04 -6.839379E-10  5.483592E-10
       321  12  2.045757E+06  5.024178E+05  5.259989E+05 -1.803874E+05  9.545041E-10  7.288241E-10
       321  13  7.814176E+05 -7.095253E+03  5.933358E+04 -8.106740E+04 -6.875846E-10 -5.414152E-10
       321  14  7.575892E+05  1.120714E+04  1.033828E+05 -6.254496E+04 -2.745657E-10  3.568842E-10
       321  15  7.812465E+05  1.896003E+05  2.228942E+05 -8.124929E+04  6.665282E-11 -4.251939E-10
       321  16 -2.551916E+05 -2.575809E+05 -1.565620E+05 -1.061547E+05 -1.106890E-09  7.455953E-10
       321  17 -3.891072E+05 -2.673915E+05 -1.435031E+05 -2.561456E+04 -1.302349E-09 -5.648861E-10
       321  18 -4.817817E+05 -1.232959E+05 -8.031831E+04  1.768637E+04 -5.791115E-10  1.004548E-09
       321  19  1.819047E+06  2.433285E+05  2.751791E+05 -5.593608E+04  3.215042E+04  6.009654E+04
       321  20  1.905541E+06  2.897320E+05  3.502264E+05 -9.953927E+04  1.231839E+05  5.533660E+04
       321  21  2.045806E+06  5.024304E+05  5.260855E+05 -1.803844E+05  2.142835E+05  1.749426E+04
       321  22  7.814208E+05 -7.090826E+03  5.934419E+04 -8.106522E+04  4.506883E+04  6.011030E+04
       321  23  7.576006E+05  1.121308E+04  1.034071E+05 -6.254053E+04  9.941752E+04  5.533033E+04
       321  24  7.812720E+05  1.896070E+05  2.229392E+05 -8.124713E+04  1.538111E+05  1.745856E+04
       321  25 -2.551870E+05 -2.575761E+05 -1.565489E+05 -1.061519E+05  5.796602E+04  6.012304E+04
       321  26 -3.891002E+05 -2.673866E+05 -1.434866E+05 -2.561119E+04  7.569425E+04  5.532124E+04
       321  27 -4.817723E+05 -1.232933E+05 -8.030131E+04  1.768768E+04  9.346080E+04  1.740358E+04
       322   1  3.348094E+05  1.149526E+06  3.536731E+05 -2.868896E+05  7.840860E+03  1.335532E+05
       322   2  1.311467E+05  8.358824E+05  1.874374E+05 -1.921994E+05  2.075363E+04  6.776164E+04
       322   3  4.669006E+04  5.604187E+05  9.372577E+04 -1.974092E+05  1.070136E+04  1.974354E+03
       322   4  1.361900E+05  3.506842E+05  1.598826E+05 -2.142908E+05  7.894863E+03  1.066293E+05
       322   5  8.625689E+03  3.338678E+05  7.699810E+04 -1.644456E+05  2.076007E+04  6.626554E+04
       322   6 -4.080638E+03  3.507960E+05  4.905526E+04 -2.144834E+05  1.066129E+04  2.587424E+04
       322   7 -6.245626E+04 -4.475626E+05 -3.394853E+04 -1.417852E+05  7.942625E+03  7.973991E+04
       322   8 -1.139094E+05 -1.679099E+05 -3.345618E+04 -1.367144E+05  2.076639E+04  6.477061E+04
       322   9 -5.485277E+04  1.412164E+05  4.384533E+03 -2.315517E+05  1.061990E+04  4.976618E+04
       322  10  3.348045E+05  1.149506E+06  3.536395E+05 -2.868905E+05 -2.987292E-10  4.230356E-10
       322  11  1.311450E+05  8.358774E+05  1.874279E+05 -1.922005E+05 -6.684251E-10 -1.459786E-09
       322  12  4.668993E+04  5.604187E+05  9.372555E+04 -1.974092E+05  7.142865E-10  6.556606E-10
       322  13  1.361869E+05  3.506720E+05  1.598611E+05 -2.142914E+05  4.531725E-11  5.231337E-10
       322  14  8.624047E+03  3.338630E+05  7.698904E+04 -1.644467E+05 -9.163187E-10  1.183279E-10
       322  15 -4.080940E+03  3.507952E+05  4.905379E+04 -2.144836E+05  5.717480E-10  4.255193E-10
       322  16 -6.245804E+04 -4.475694E+05 -3.396060E+04 -1.417857E+05  2.576030E-10 -3.885984E-10
       322  17 -1.139110E+05 -1.679145E+05 -3.346488E+04 -1.367155E+05  1.642852E-09 -9.537902E-10
       322  18 -5.485356E+04  1.412137E+05  4.379667E+03 -2.315521E+05 -2.644722E-10 -8.899997E-10
       322  19  3.348094E+05  1.149526E+06  3.536731E+05 -2.868896E+05 -7.840860E+03 -1.335532E+05
       322  20  1.311467E+05  8.358824E+05  1.874374E+05 -1.921994E+05 -2.075363E+04 -6.776164E+04
       322  21  4.669006E+04  5.604187E+05  9.372577E+04 -1.974092E+05 -1.070136E+04 -1.974354E+03
       322  22  1.361900E+05  3.506842E+05  1.598826E+05 -2.142908E+05 -7.894863E+03 -1.066293E+05
       322  23  8.625689E+03  3.338678E+05  7.699810E+04 -1.644456E+05 -2.076007E+04 -6.626554E+04
       322  24 -4.080638E+03  3.507960E+05  4.905526E+04 -2.144834E+05 -1.066129E+04 -2.587424E+04
       322  25 -6.245626E+04 -4.475626E+05 -3.394853E+04 -1.417852E+05 -7.942625E+03 -7.973991E+04
       322  26 -1.139094E+05 -1.679099E+05 -3.345618E+04 -1.367144E+05 -2.076639E+04 -6.477061E+04
       322  27 -5.485277E+04  1.412164E+05  4.384533E+03 -2.315517E+05 -1.061990E+04 -4.976618E+04
       323   1  3.932151E+03  3.345293E+05  4.093424E+04 -2.176922E+05 -1.464426E+03  1.755756E+02
       323   2 -7.285280E+04  3.795088E+04 -2.870714E+04 -1.638891E+05 -1.777475E+04 -1.623557E+04
       323   3 -1.392950E+05 -2.541057E+05 -8.516209E+04 -2.110914E+05 -3.331082E+04 -3.263279E+04
       323   4  6.156666E+03  3.443223E+05  4.232763E+04 -2.146886E+05 -1.495860E+03  1.864663E+04
       323   5  5.861110E+02  3.420009E+05  3.449433E+04 -1.641885E+05 -1.780185E+04  1.373183E+03
       323   6  5.510602E+03  3.442672E+05  4.044687E+04 -2.146894E+05 -3.333389E+04 -1.589382E+04
       323   7  8.381394E+03  3.541161E+05  4.372231E+04 -2.116849E+05 -1.527116E+03  3.711796E+04
       323   8  7.401931E+04  6.461390E+05  9.769190E+04 -1.644881E+05 -1.782897E+04  1.899041E+04
       323   9  1.502934E+05  9.429791E+05  1.660369E+05 -2.182906E+05 -3.335713E+04  8.610387E+02
       323  10  3.932149E+03  3.345293E+05  4.093423E+04 -2.176922E+05  4.283304E-11  6.235247E-10
       323  11 -7.285321E+04  3.795051E+04 -2.870823E+04 -1.638893E+05  4.957865E-10 -1.673428E-09
       323  12 -1.392965E+05 -2.541071E+05 -8.516618E+04 -2.110923E+05 -6.032425E-10  5.222977E-10
       323  13  6.156571E+03  3.443219E+05  4.232697E+04 -2.146886E+05  8.671272E-11  6.911741E-10
       323  14  5.857701E+02  3.420008E+05  3.449373E+04 -1.641885E+05  1.482087E-09 -2.040113E-10
       323  15  5.509341E+03  3.442667E+05  4.044431E+04 -2.146898E+05  1.143305E-09  2.867318E-10
       323  16  8.381022E+03  3.541146E+05  4.371972E+04 -2.116848E+05 -3.673443E-11 -6.407279E-10
       323  17  7.401887E+04  6.461385E+05  9.769063E+04 -1.644878E+05 -2.784756E-10 -1.056528E-09
       323  18  1.502922E+05  9.429788E+05  1.660348E+05 -2.182906E+05 -6.565846E-11 -7.173410E-10
       323  19  3.932151E+03  3.345293E+05  4.093424E+04 -2.176922E+05  1.464426E+03 -1.755756E+02
       323  20 -7.285280E+04  3.795088E+04 -2.870714E+04 -1.638891E+05  1.777475E+04  1.623557E+04
       323  21 -1.392950E+05 -2.541057E+05 -8.516209E+04 -2.110914E+05  3.331082E+04  3.263279E+04
       323  22  6.156666E+03  3.443223E+05  4.232763E+04 -2.146886E+05  1.495860E+03 -1.864663E+04
       323  23  5.861110E+02  3.420009E+05  3.449433E+04 -1.641885E+05  1.780185E+04 -1.373183E+03
       323  24  5.510602E+03  3.442672E+05  4.044687E+04 -2.146894E+05  3.333389E+04  1.589382E+04
       323  25  8.381394E+03  3.541161E+05  4.372231E+04 -2.116849E+05  1.527116E+03 -3.711796E+04
       323  26  7.401931E+04  6.461390E+05  9.769190E+04 -1.644881E+05  1.782897E+04 -1.899041E+04
       323  27  1.502934E+05  9.429791E+05  1.660369E+05 -2.182906E+05  3.335713E+04 -8.610387E+02
       324   1 -2.017261E+05 -4.679668E+05 -1.250100E+05 -2.293970E+05 -4.624952E+04 -4.911114E+04
       324   2 -2.624678E+05 -7.747504E+05 -1.694782E+05 -1.387937E+05 -5.090655E+04 -4.394214E+04
       324   3 -2.247370E+05 -1.057350E+06 -1.926672E+05 -1.474249E+05 -1.706081E+04 -3.875137E+04
       324   4 -3.882988E+03  3.501665E+05  4.623446E+04 -2.143180E+05 -4.628348E+04 -2.277668E+04
       324   5  7.628075E+03  3.343490E+05  7.126013E+04 -1.646531E+05 -5.088068E+04 -6.012316E+04
       324   6  1.248918E+05  3.499472E+05  1.470454E+05 -2.141949E+05 -1.700677E+04 -9.744672E+04
       324   7  1.939185E+05  1.168935E+06  2.174445E+05 -1.992184E+05 -4.631613E+04  3.591947E+03
       324   8  2.776451E+05  1.444605E+06  3.119264E+05 -1.905590E+05 -5.085348E+04 -7.633266E+04
       324   9  4.743943E+05  1.759074E+06  4.866314E+05 -2.811164E+05 -1.694018E+04 -1.562746E+05
       324  10 -2.017290E+05 -4.679700E+05 -1.250186E+05 -2.293988E+05 -6.407688E-12  1.594993E-10
       324  11 -2.624711E+05 -7.747532E+05 -1.694867E+05 -1.387955E+05 -3.920071E-10 -1.030771E-09
       324  12 -2.247377E+05 -1.057352E+06 -1.926706E+05 -1.474255E+05 -2.443368E-10  3.464571E-10
       324  13 -3.885428E+03  3.501653E+05  4.622946E+04 -2.143188E+05 -3.698703E-10  6.723803E-10
       324  14  7.624324E+03  3.343444E+05  7.124847E+04 -1.646556E+05  4.631474E-10 -6.185342E-11
       324  15  1.248889E+05  3.499369E+05  1.470270E+05 -2.141963E+05 -1.776896E-10  1.619615E-10
       324  16  1.939162E+05  1.168934E+06  2.174404E+05 -1.992183E+05  4.665794E-10 -1.893327E-10
       324  17  2.776407E+05  1.444598E+06  3.119106E+05 -1.905621E+05 -8.361648E-11 -7.529165E-10
       324  18  4.743875E+05  1.759047E+06  4.865851E+05 -2.811185E+05 -4.311776E-10 -3.432617E-10
       324  19 -2.017261E+05 -4.679668E+05 -1.250100E+05 -2.293970E+05  4.624952E+04  4.911114E+04
       324  20 -2.624678E+05 -7.747504E+05 -1.694782E+05 -1.387937E+05  5.090655E+04  4.394214E+04
       324  21 -2.247370E+05 -1.057350E+06 -1.926672E+05 -1.474249E+05  1.706081E+04  3.875137E+04
       324  22 -3.882988E+03  3.501665E+05  4.623446E+04 -2.143180E+05  4.628348E+04  2.277668E+04
       324  23  7.628075E+03  3.343490E+05  7.126013E+04 -1.646531E+05  5.088068E+04  6.012316E+04
       324  24  1.248918E+05  3.499472E+05  1.470454E+05 -2.141949E+05  1.700677E+04  9.744672E+04
       324  25  1.939185E+05  1.168935E+06  2.174445E+05 -1.992184E+05  4.631613E+04 -3.591947E+03
       324  26  2.776451E+05  1.444605E+06  3.119264E+05 -1.905590E+05  5.085348E+04  7.633266E+04
       324  27  4.743943E+05  1.759074E+06  4.866314E+05 -2.811164E+05  1.694018E+04  1.562746E+05
       325   1 -2.487279E+06 -9.638102E+05 -5.495997E+05 -9.712163E+05 -2.699942E+05 -8.818585E+04
       325   2 -2.416915E+06 -6.134456E+05 -3.143149E+05 -9.446069E+05 -1.711038E+05 -2.181791E+04
       325   3 -2.427021E+06 -5.003998E+05 -2.201845E+05 -8.824332E+05 -6.387400E+04  2.243690E+04
       325   4 -1.817808E+06 -5.631032E+05 -3.451140E+05 -6.355285E+05 -2.257803E+05 -7.164525E+04
       325   5 -1.761096E+06 -3.123672E+05 -1.546885E+05 -7.038741E+05 -1.535915E+05 -1.526074E+04
       325   6 -1.779456E+06 -2.935356E+05 -8.411066E+04 -7.366907E+05 -7.307395E+04  1.898127E+04
       325   7 -1.147846E+06 -1.621192E+05 -1.406616E+05 -2.994483E+05 -1.815151E+05 -5.505849E+04
       325   8 -1.104832E+06 -1.118495E+04  4.908007E+03 -4.628848E+05 -1.360592E+05 -8.691857E+03
       325   9 -1.131457E+06 -8.666008E+04  5.194267E+04 -5.908178E+05 -8.228439E+04  1.552291E+04
       325  10 -2.487360E+06 -9.638382E+05 -5.497520E+05 -9.712356E+05  5.097755E-10 -5.076033E-11
       325  11 -2.416947E+06 -6.134540E+05 -3.143711E+05 -9.446099E+05 -3.121875E-11 -5.762194E-10
       325  12 -2.427026E+06 -5.004014E+05 -2.201931E+05 -8.824320E+05 -4.108155E-10  3.865958E-11
       325  13 -1.817864E+06 -5.631224E+05 -3.452198E+05 -6.355415E+05  5.845759E-10 -6.721435E-11
       325  14 -1.761121E+06 -3.123738E+05 -1.547334E+05 -7.038760E+05 -1.101200E-10  1.651203E-11
       325  15 -1.779461E+06 -2.935374E+05 -8.412139E+04 -7.366896E+05 -2.225047E-10 -1.131601E-10
       325  16 -1.147883E+06 -1.621313E+05 -1.407294E+05 -2.994563E+05 -3.559048E-10 -6.577977E-11
       325  17 -1.104852E+06 -1.119001E+04  4.873012E+03 -4.628858E+05  7.953244E-10  5.224211E-11
       325  18 -1.131465E+06 -8.666216E+04  5.192948E+04 -5.908168E+05 -2.444838E-10  6.354821E-11
       325  19 -2.487279E+06 -9.638102E+05 -5.495997E+05 -9.712163E+05  2.699942E+05  8.818585E+04
       325  20 -2.416915E+06 -6.134456E+05 -3.143149E+05 -9.446069E+05  1.711038E+05  2.181791E+04
       325  21 -2.427021E+06 -5.003998E+05 -2.201845E+05 -8.824332E+05  6.387400E+04 -2.243690E+04
       325  22 -1.817808E+06 -5.631032E+05 -3.451140E+05 -6.355285E+05  2.257803E+05  7.164525E+04
       325  23 -1.761096E+06 -3.123672E+05 -1.546885E+05 -7.038741E+05  1.535915E+05  1.526074E+04
       325  24 -1.779456E+06 -2.935356E+05 -8.411066E+04 -7.366907E+05  7.307395E+04 -1.898127E+04
       325  25 -1.147846E+06 -1.621192E+05 -1.406616E+05 -2.994483E+05  1.815151E+05  5.505849E+04
       325  26 -1.104832E+06 -1.118495E+04  4.908007E+03 -4.628848E+05  1.360592E+05  8.691857E+03
       325  27 -1.131457E+06 -8.666008E+04  5.194267E+04 -5.908178E+05  8.228439E+04 -1.552291E+04
       326   1 -2.334895E+06 -5.212639E+05 -1.893451E+05 -8.856048E+05 -5.772532E+04  2.016784E+04
       326   2 -2.264811E+06 -4.714615E+05 -1.405842E+05 -8.548046E+05 -3.756774E+04  2.339326E+04
       326   3 -2.183184E+06 -4.491643E+05 -1.084082E+05 -8.423816E+05 -1.694554E+04  2.538153E+04
       326   4 -1.768779E+06 -3.090680E+05 -6.506145E+04 -7.257494E+05 -6.160988E+04  1.870585E+04
       326   5 -1.773906E+06 -2.900306E+05 -3.425586E+04 -7.185882E+05 -4.293352E+04  2.137705E+04
       326   6 -1.767195E+06 -2.981967E+05 -1.884586E+04 -7.298053E+05 -2.379526E+04  2.281049E+04
       326   7 -1.202336E+06 -9.684374E+04  5.920282E+04 -5.657585E+05 -6.549825E+04  1.724238E+04
       326   8 -1.282757E+06 -1.085805E+05  7.205792E+04 -5.822728E+05 -4.830388E+04  1.935911E+04
       326   9 -1.351033E+06 -1.472175E+05  7.070579E+04 -6.171608E+05 -3.064990E+04  2.023767E+04
       326  10 -2.334898E+06 -5.212652E+05 -1.893522E+05 -8.856039E+05 -4.968219E-10  3.791580E-10
       326  11 -2.264813E+06 -4.714624E+05 -1.405879E+05 -8.548039E+05  6.315827E-10  4.878970E-10
       326  12 -2.183185E+06 -4.491651E+05 -1.084099E+05 -8.423812E+05  1.081358E-09 -1.420825E-11
       326  13 -1.768783E+06 -3.090694E+05 -6.506925E+04 -7.257485E+05  7.900585E-10  2.772596E-11
       326  14 -1.773908E+06 -2.900315E+05 -3.426019E+04 -7.185875E+05  6.665855E-10  3.093251E-10
       326  15 -1.767196E+06 -2.981974E+05 -1.884790E+04 -7.298049E+05  2.525269E-10 -3.881312E-10
       326  16 -1.202341E+06 -9.684521E+04  5.919419E+04 -5.657576E+05  3.264263E-10 -1.090173E-10
       326  17 -1.282760E+06 -1.085815E+05  7.205283E+04 -5.822721E+05 -5.500709E-10 -1.387599E-10
       326  18 -1.351034E+06 -1.472182E+05  7.070325E+04 -6.171603E+05 -6.195624E-10 -6.958349E-10
       326  19 -2.334895E+06 -5.212639E+05 -1.893451E+05 -8.856048E+05  5.772532E+04 -2.016784E+04
       326  20 -2.264811E+06 -4.714615E+05 -1.405842E+05 -8.548046E+05  3.756774E+04 -2.339326E+04
       326  21 -2.183184E+06 -4.491643E+05 -1.084082E+05 -8.423816E+05  1.694554E+04 -2.538153E+04
       326  22 -1.768779E+06 -3.090680E+05 -6.506145E+04 -7.257494E+05  6.160988E+04 -1.870585E+04
       326  23 -1.773906E+06 -2.900306E+05 -3.425586E+04 -7.185882E+05  4.293352E+04 -2.137705E+04
       326  24 -1.767195E+06 -2.981967E+05 -1.884586E+04 -7.298053E+05  2.379526E+04 -2.281049E+04
       326  25 -1.202336E+06 -9.684374E+04  5.920282E+04 -5.657585E+05  6.549825E+04 -1.724238E+04
       326  26 -1.282757E+06 -1.085805E+05  7.205792E+04 -5.822728E+05  4.830388E+04 -1.935911E+04
       326  27 -1.351033E+06 -1.472175E+05  7.070579E+04 -6.171608E+05  3.064990E+04 -2.023767E+04
       327   1 -2.125585E+06 -4.304344E+05 -9.134140E+04 -8.278664E+05 -1.333912E+04  2.299752E+04
       327   2 -2.056147E+06 -3.926119E+05 -6.831332E+04 -7.963023E+05 -7.303002E+03  1.901965E+04
       327   3 -1.969600E+06 -3.730603E+05 -4.836630E+04 -7.851608E+05 -1.238174E+03  1.496192E+04
       327   4 -1.766385E+06 -2.988402E+05 -1.421298E+04 -7.292689E+05 -1.991512E+04  2.053004E+04
       327   5 -1.774914E+06 -2.895592E+05 -7.800972E+03 -7.191101E+05 -1.397369E+04  1.651774E+04
       327   6 -1.766321E+06 -2.985304E+05 -4.393800E+03 -7.293760E+05 -8.004118E+03  1.242541E+04
       327   7 -1.407051E+06 -1.672349E+05  6.290889E+04 -6.306181E+05 -2.649528E+04  1.806102E+04
       327   8 -1.493598E+06 -1.864999E+05  5.270727E+04 -6.418854E+05 -2.064768E+04  1.401461E+04
       327   9 -1.563001E+06 -2.239973E+05  3.957648E+04 -6.735745E+05 -1.477246E+04  9.888017E+03
       327  10 -2.125585E+06 -4.304350E+05 -9.134273E+04 -8.278661E+05 -1.499596E-09 -8.995122E-10
       327  11 -2.056147E+06 -3.926123E+05 -6.831410E+04 -7.963022E+05  2.457149E-10  4.429028E-10
       327  12 -1.969600E+06 -3.730606E+05 -4.836672E+04 -7.851607E+05 -1.114863E-09  1.644637E-10
       327  13 -1.766385E+06 -2.988408E+05 -1.421452E+04 -7.292685E+05  9.469514E-10 -1.413455E-10
       327  14 -1.774914E+06 -2.895596E+05 -7.801851E+03 -7.191099E+05  2.423469E-10  7.543910E-11
       327  15 -1.766321E+06 -2.985306E+05 -4.394210E+03 -7.293760E+05 -7.363823E-10  2.393131E-10
       327  16 -1.407052E+06 -1.672354E+05  6.290696E+04 -6.306177E+05  1.166417E-09 -3.888996E-11
       327  17 -1.493599E+06 -1.865002E+05  5.270610E+04 -6.418852E+05 -3.103993E-10  3.743419E-11
       327  18 -1.563001E+06 -2.239974E+05  3.957589E+04 -6.735743E+05 -1.827794E-10  7.545724E-10
       327  19 -2.125585E+06 -4.304344E+05 -9.134140E+04 -8.278664E+05  1.333912E+04 -2.299752E+04
       327  20 -2.056147E+06 -3.926119E+05 -6.831332E+04 -7.963023E+05  7.303002E+03 -1.901965E+04
       327  21 -1.969600E+06 -3.730603E+05 -4.836630E+04 -7.851608E+05  1.238174E+03 -1.496192E+04
       327  22 -1.766385E+06 -2.988402E+05 -1.421298E+04 -7.292689E+05  1.991512E+04 -2.053004E+04
       327  23 -1.774914E+06 -2.895592E+05 -7.800972E+03 -7.191101E+05  1.397369E+04 -1.651774E+04
       327  24 -1.766321E+06 -2.985304E+05 -4.393800E+03 -7.293760E+05  8.004118E+03 -1.242541E+04
       327  25 -1.407051E+06 -1.672349E+05  6.290889E+04 -6.306181E+05  2.649528E+04 -1.806102E+04
       327  26 -1.493598E+06 -1.864999E+05  5.270727E+04 -6.418854E+05  2.064768E+04 -1.401461E+04
       327  27 -1.563001E+06 -2.239973E+05  3.957648E+04 -6.735745E+05  1.477246E+04 -9.888017E+03
       328   1 -1.913449E+06 -3.524901E+05 -3.480648E+04 -7.698071E+05  6.190806E+02  1.194551E+04
       328   2 -1.844005E+06 -3.148854E+05 -1.692373E+04 -7.380248E+05  3.764470E+03  6.751122E+03
       328   3 -1.756860E+06 -2.951640E+05  1.700808E+02 -7.267325E+05  6.911973E+03  1.550022E+03
       328   4 -1.766204E+06 -2.985572E+05 -3.376152E+03 -7.293482E+05 -6.140361E+03  9.411878E+03
       328   5 -1.775052E+06 -2.896229E+05 -2.094763E+03 -7.190986E+05 -3.003241E+03  4.214663E+03
       328   6 -1.766202E+06 -2.985707E+05 -1.595566E+03 -7.293413E+05  1.358581E+02 -9.893108E+02
       328   7 -1.618938E+06 -2.446229E+05  2.805285E+04 -6.888808E+05 -1.290149E+04  6.877615E+03
       328   8 -1.706093E+06 -2.643600E+05  1.273413E+04 -7.001704E+05 -9.771767E+03  1.677901E+03
       328   9 -1.775543E+06 -3.019775E+05 -3.361037E+03 -7.319501E+05 -6.640195E+03 -3.528620E+03
       328  10 -1.913449E+06 -3.524903E+05 -3.480675E+04 -7.698071E+05 -9.937086E-10  2.786183E-10
       328  11 -1.844005E+06 -3.148854E+05 -1.692384E+04 -7.380248E+05 -6.811484E-10  4.839971E-10
       328  12 -1.756860E+06 -2.951640E+05  1.699862E+02 -7.267325E+05  2.074765E-10  3.673871E-11
       328  13 -1.766204E+06 -2.985573E+05 -3.376389E+03 -7.293482E+05 -1.101405E-09  6.393705E-10
       328  14 -1.775052E+06 -2.896229E+05 -2.094813E+03 -7.190986E+05 -8.369666E-11  4.196541E-10
       328  15 -1.766202E+06 -2.985708E+05 -1.595568E+03 -7.293413E+05  6.180529E-11  7.219148E-11
       328  16 -1.618938E+06 -2.446230E+05  2.805245E+04 -6.888807E+05 -2.821634E-10  5.574333E-10
       328  17 -1.706093E+06 -2.643600E+05  1.273394E+04 -7.001704E+05 -1.959676E-10  2.323754E-10
       328  18 -1.775543E+06 -3.019775E+05 -3.361144E+03 -7.319501E+05  1.628868E-10  2.015499E-10
       328  19 -1.913449E+06 -3.524901E+05 -3.480648E+04 -7.698071E+05 -6.190806E+02 -1.194551E+04
       328  20 -1.844005E+06 -3.148854E+05 -1.692373E+04 -7.380248E+05 -3.764470E+03 -6.751122E+03
       328  21 -1.756860E+06 -2.951640E+05  1.700808E+02 -7.267325E+05 -6.911973E+03 -1.550022E+03
       328  22 -1.766204E+06 -2.985572E+05 -3.376152E+03 -7.293482E+05  6.140361E+03 -9.411878E+03
       328  23 -1.775052E+06 -2.896229E+05 -2.094763E+03 -7.190986E+05  3.003241E+03 -4.214663E+03
       328  24 -1.766202E+06 -2.985707E+05 -1.595566E+03 -7.293413E+05 -1.358581E+02  9.893108E+02
       328  25 -1.618938E+06 -2.446229E+05  2.805285E+04 -6.888808E+05  1.290149E+04 -6.877615E+03
       328  26 -1.706093E+06 -2.643600E+05  1.273413E+04 -7.001704E+05  9.771767E+03 -1.677901E+03
       328  27 -1.775543E+06 -3.019775E+05 -3.361037E+03 -7.319501E+05  6.640195E+03  3.528620E+03
       329   1 -1.700774E+06 -2.744788E+05  1.276299E+04 -7.113137E+05  8.394670E+03 -1.609979E+03
       329   2 -1.631402E+06 -2.368999E+05  2.897148E+04 -6.795538E+05  1.144069E+04 -6.844166E+03
       329   3 -1.544329E+06 -2.171802E+05  4.446762E+04 -6.682596E+05  1.448374E+04 -1.206771E+04
       329   4 -1.766204E+06 -2.985677E+05 -1.566630E+03 -7.293358E+05  1.620249E+03 -4.148775E+03
       329   5 -1.775055E+06 -2.896382E+05 -1.934442E+03 -7.191029E+05  4.678331E+03 -9.379016E+03
       329   6 -1.766213E+06 -2.985709E+05 -3.024108E+03 -7.293384E+05  7.733301E+03 -1.459863E+04
       329   7 -1.831629E+06 -3.226563E+05 -1.589631E+04 -7.473561E+05 -5.153398E+03 -6.687280E+03
       329   8 -1.918686E+06 -3.423747E+05 -3.284122E+04 -7.586434E+05 -2.082308E+03 -1.191323E+04
       329   9 -1.988045E+06 -3.799571E+05 -5.051801E+04 -7.903966E+05  9.855243E+02 -1.712857E+04
       329  10 -1.700774E+06 -2.744788E+05  1.276286E+04 -7.113137E+05  1.992533E-10 -8.483992E-11
       329  11 -1.631402E+06 -2.369000E+05  2.897115E+04 -6.795538E+05 -5.318010E-10 -2.910013E-10
       329  12 -1.544329E+06 -2.171804E+05  4.446695E+04 -6.682595E+05 -3.389499E-10 -3.950650E-10
       329  13 -1.766204E+06 -2.985677E+05 -1.566667E+03 -7.293358E+05  2.173670E-10 -2.461066E-10
       329  14 -1.775055E+06 -2.896383E+05 -1.934648E+03 -7.191029E+05  2.418470E-10 -3.775474E-10
       329  15 -1.766213E+06 -2.985712E+05 -3.024620E+03 -7.293383E+05  8.302951E-11 -3.878344E-10
       329  16 -1.831629E+06 -3.226563E+05 -1.589645E+04 -7.473561E+05  6.825084E-10 -2.093810E-11
       329  17 -1.918686E+06 -3.423748E+05 -3.284149E+04 -7.586434E+05  9.656263E-10 -4.579520E-10
       329  18 -1.988045E+06 -3.799574E+05 -5.051856E+04 -7.903966E+05 -1.397273E-11 -4.178547E-10
       329  19 -1.700774E+06 -2.744788E+05  1.276299E+04 -7.113137E+05 -8.394670E+03  1.609979E+03
       329  20 -1.631402E+06 -2.368999E+05  2.897148E+04 -6.795538E+05 -1.144069E+04  6.844166E+03
       329  21 -1.544329E+06 -2.171802E+05  4.446762E+04 -6.682596E+05 -1.448374E+04  1.206771E+04
       329  22 -1.766204E+06 -2.985677E+05 -1.566630E+03 -7.293358E+05 -1.620249E+03  4.148775E+03
       329  23 -1.775055E+06 -2.896382E+05 -1.934442E+03 -7.191029E+05 -4.678331E+03  9.379016E+03
       329  24 -1.766213E+06 -2.985709E+05 -3.024108E+03 -7.293384E+05 -7.733301E+03  1.459863E+04
       329  25 -1.831629E+06 -3.226563E+05 -1.589631E+04 -7.473561E+05  5.153398E+03  6.687280E+03
       329  26 -1.918686E+06 -3.423747E+05 -3.284122E+04 -7.586434E+05  2.082308E+03  1.191323E+04
       329  27 -1.988045E+06 -3.799571E+05 -5.051801E+04 -7.903966E+05 -9.855243E+02  1.712857E+04
       330   1 -1.488487E+06 -1.965719E+05  5.610419E+04 -6.529472E+05  1.628128E+04 -1.509905E+04
       330   2 -1.419332E+06 -1.591769E+05  6.960907E+04 -6.213317E+05  2.168789E+04 -1.938274E+04
       330   3 -1.332992E+06 -1.398999E+05  8.054709E+04 -6.100634E+05  2.706363E+04 -2.357628E+04
       330   4 -1.766324E+06 -2.985394E+05 -3.907750E+03 -7.293498E+05  9.525996E+03 -1.763239E+04
       330   5 -1.774934E+06 -2.896135E+05 -6.895263E+03 -7.191249E+05  1.503863E+04 -2.187776E+04
       330   6 -1.766388E+06 -2.988291E+05 -1.253542E+04 -7.292513E+05  2.051992E+04 -2.603309E+04
       330   7 -2.044085E+06 -4.005014E+05 -6.392457E+04 -8.057215E+05  2.773932E+03 -2.016454E+04
       330   8 -2.130409E+06 -4.200405E+05 -8.340711E+04 -8.168669E+05  8.393461E+03 -2.437125E+04
       330   9 -2.199592E+06 -4.577435E+05 -1.056286E+05 -8.483626E+05  1.398114E+04 -2.848806E+04
       330  10 -1.488487E+06 -1.965723E+05  5.610326E+04 -6.529470E+05  2.474176E-10 -2.961304E-10
       330  11 -1.419333E+06 -1.591774E+05  6.960748E+04 -6.213313E+05  1.194781E-09  1.946527E-10
       330  12 -1.332993E+06 -1.399007E+05  8.054467E+04 -6.100629E+05  2.712157E-10  2.454152E-10
       330  13 -1.766324E+06 -2.985397E+05 -3.908504E+03 -7.293497E+05 -6.948100E-12 -1.935907E-10
       330  14 -1.774935E+06 -2.896140E+05 -6.896586E+03 -7.191246E+05  1.301729E-09  2.923383E-10
       330  15 -1.766388E+06 -2.988300E+05 -1.253748E+04 -7.292508E+05  2.514057E-10  3.888885E-10
       330  16 -2.044085E+06 -4.005019E+05 -6.392535E+04 -8.057214E+05  1.356203E-10 -2.462858E-10
       330  17 -2.130409E+06 -4.200412E+05 -8.340836E+04 -8.168667E+05  2.340334E-12  2.407725E-11
       330  18 -2.199592E+06 -4.577444E+05 -1.056305E+05 -8.483623E+05 -7.289068E-10  6.093434E-10
       330  19 -1.488487E+06 -1.965719E+05  5.610419E+04 -6.529472E+05 -1.628128E+04  1.509905E+04
       330  20 -1.419332E+06 -1.591769E+05  6.960907E+04 -6.213317E+05 -2.168789E+04  1.938274E+04
       330  21 -1.332992E+06 -1.398999E+05  8.054709E+04 -6.100634E+05 -2.706363E+04  2.357628E+04
       330  22 -1.766324E+06 -2.985394E+05 -3.907750E+03 -7.293498E+05 -9.525996E+03  1.763239E+04
       330  23 -1.774934E+06 -2.896135E+05 -6.895263E+03 -7.191249E+05 -1.503863E+04  2.187776E+04
       330  24 -1.766388E+06 -2.988291E+05 -1.253542E+04 -7.292513E+05 -2.051992E+04  2.603309E+04
       330  25 -2.044085E+06 -4.005014E+05 -6.392457E+04 -8.057215E+05 -2.773932E+03  2.016454E+04
       330  26 -2.130409E+06 -4.200405E+05 -8.340711E+04 -8.168669E+05 -8.393461E+03  2.437125E+04
       330  27 -2.199592E+06 -4.577435E+05 -1.056286E+05 -8.483626E+05 -1.398114E+04  2.848806E+04
       331   1 -1.277246E+06 -1.198788E+05  8.884677E+04 -5.964135E+05  3.092485E+04 -2.585342E+04
       331   2 -1.209316E+06 -8.157126E+04  9.199224E+04 -5.620741E+05  4.637256E+04 -2.572358E+04
       331   3 -1.128603E+06 -6.890949E+04  8.286747E+04 -5.462087E+05  6.131839E+04 -2.424410E+04
       331   4 -1.767119E+06 -2.982528E+05 -1.661514E+04 -7.297099E+05  2.408415E+04 -2.842269E+04
       331   5 -1.774045E+06 -2.900640E+05 -3.019186E+04 -7.186811E+05  4.115142E+04 -2.768718E+04
       331   6 -1.768521E+06 -3.078498E+05 -5.733396E+04 -7.261298E+05  5.771489E+04 -2.560213E+04
       331   7 -2.256744E+06 -4.766076E+05 -1.220899E+05 -8.629089E+05  1.724933E+04 -3.098980E+04
       331   8 -2.338450E+06 -4.985305E+05 -1.523946E+05 -8.751566E+05  3.593541E+04 -2.964884E+04
       331   9 -2.408028E+06 -5.467563E+05 -1.975613E+05 -9.058802E+05  5.411536E+04 -2.695863E+04
       331  10 -1.277247E+06 -1.198797E+05  8.884372E+04 -5.964129E+05  1.177787E-09  5.283607E-10
       331  11 -1.209319E+06 -8.157254E+04  9.198695E+04 -5.620731E+05 -4.744380E-10  3.039629E-10
       331  12 -1.128607E+06 -6.891113E+04  8.285929E+04 -5.462075E+05  6.453926E-11  1.298289E-10
       331  13 -1.767120E+06 -2.982538E+05 -1.661774E+04 -7.297094E+05  6.495751E-11  3.923366E-10
       331  14 -1.774047E+06 -2.900652E+05 -3.019649E+04 -7.186802E+05 -7.682602E-10  3.809866E-11
       331  15 -1.768525E+06 -3.078514E+05 -5.734146E+04 -7.261286E+05  7.772342E-10 -3.923087E-10
       331  16 -2.256744E+06 -4.766087E+05 -1.220922E+05 -8.629085E+05 -1.013622E-09  3.770520E-10
       331  17 -2.338451E+06 -4.985318E+05 -1.523987E+05 -8.751557E+05 -1.157072E-09 -1.746677E-12
       331  18 -2.408031E+06 -5.467579E+05 -1.975682E+05 -9.058790E+05 -8.057334E-10 -3.302212E-10
       331  19 -1.277246E+06 -1.198788E+05  8.884677E+04 -5.964135E+05 -3.092485E+04  2.585342E+04
       331  20 -1.209316E+06 -8.157126E+04  9.199224E+04 -5.620741E+05 -4.637256E+04  2.572358E+04
       331  21 -1.128603E+06 -6.890949E+04  8.286747E+04 -5.462087E+05 -6.131839E+04  2.424410E+04
       331  22 -1.767119E+06 -2.982528E+05 -1.661514E+04 -7.297099E+05 -2.408415E+04  2.842269E+04
       331  23 -1.774045E+06 -2.900640E+05 -3.019186E+04 -7.186811E+05 -4.115142E+04  2.768718E+04
       331  24 -1.768521E+06 -3.078498E+05 -5.733396E+04 -7.261298E+05 -5.771489E+04  2.560213E+04
       331  25 -2.256744E+06 -4.766076E+05 -1.220899E+05 -8.629089E+05 -1.724933E+04  3.098980E+04
       331  26 -2.338450E+06 -4.985305E+05 -1.523946E+05 -8.751566E+05 -3.593541E+04  2.964884E+04
       331  27 -2.408028E+06 -5.467563E+05 -1.975613E+05 -9.058802E+05 -5.411536E+04  2.695863E+04
       332   1 -1.059821E+06 -5.754519E+04  7.775549E+04 -5.664258E+05  7.741605E+04 -2.284303E+04
       332   2 -1.029177E+06  1.315363E+04  3.966216E+04 -4.505521E+05  1.187622E+05 -2.345275E+03
       332   3 -1.057016E+06 -1.162558E+05 -8.082410E+04 -3.053690E+05  1.510453E+05  4.226620E+04
       332   4 -1.777981E+06 -2.941166E+05 -7.411839E+04 -7.357083E+05  6.801806E+04 -2.637559E+04
       332   5 -1.762713E+06 -3.098302E+05 -1.363157E+05 -7.057911E+05  1.384977E+05  5.058449E+03
       332   6 -1.811824E+06 -5.316095E+05 -3.041136E+05 -6.465477E+05  1.999020E+05  6.060436E+04
       332   7 -2.495620E+06 -5.306726E+05 -2.260212E+05 -9.048223E+05  5.863179E+04 -2.990482E+04
       332   8 -2.495687E+06 -6.327011E+05 -3.123268E+05 -9.607269E+05  1.582076E+05  1.244841E+04
       332   9 -2.566001E+06 -9.466855E+05 -5.274367E+05 -9.872737E+05  2.486922E+05  7.889142E+04
       332  10 -1.059828E+06 -5.754736E+04  7.774323E+04 -5.664244E+05  7.262075E-10 -2.811917E-10
       332  11 -1.029192E+06  1.314983E+04  3.963560E+04 -4.505519E+05  1.241228E-09 -3.126431E-10
       332  12 -1.057041E+06 -1.162639E+05 -8.087042E+04 -3.053741E+05 -2.199330E-11 -6.086191E-10
       332  13 -1.777986E+06 -2.941186E+05 -7.412840E+04 -7.357069E+05  1.323264E-09 -7.766650E-10
       332  14 -1.762734E+06 -3.098354E+05 -1.363519E+05 -7.057916E+05  1.600749E-09 -1.019632E-09
       332  15 -1.811868E+06 -5.316242E+05 -3.041958E+05 -6.465574E+05 -3.624130E-10  2.293796E-10
       332  16 -2.495624E+06 -5.306745E+05 -2.260293E+05 -9.048209E+05 -1.561855E-11 -4.712730E-10
       332  17 -2.495714E+06 -6.327081E+05 -3.123744E+05 -9.607285E+05 -1.582308E-09  5.419022E-11
       332  18 -2.566070E+06 -9.467089E+05 -5.275653E+05 -9.872895E+05 -4.735290E-10 -1.863656E-10
       332  19 -1.059821E+06 -5.754519E+04  7.775549E+04 -5.664258E+05 -7.741605E+04  2.284303E+04
       332  20 -1.029177E+06  1.315363E+04  3.966216E+04 -4.505521E+05 -1.187622E+05  2.345275E+03
       332  21 -1.057016E+06 -1.162558E+05 -8.082410E+04 -3.053690E+05 -1.510453E+05 -4.226620E+04
       332  22 -1.777981E+06 -2.941166E+05 -7.411839E+04 -7.357083E+05 -6.801806E+04  2.637559E+04
       332  23 -1.762713E+06 -3.098302E+05 -1.363157E+05 -7.057911E+05 -1.384977E+05 -5.058449E+03
       332  24 -1.811824E+06 -5.316095E+05 -3.041136E+05 -6.465477E+05 -1.999020E+05 -6.060436E+04
       332  25 -2.495620E+06 -5.306726E+05 -2.260212E+05 -9.048223E+05 -5.863179E+04  2.990482E+04
       332  26 -2.495687E+06 -6.327011E+05 -3.123268E+05 -9.607269E+05 -1.582076E+05 -1.244841E+04
       332  27 -2.566001E+06 -9.466855E+05 -5.274367E+05 -9.872737E+05 -2.486922E+05 -7.889142E+04
       333   1 -4.094146E+05 -9.741376E+04 -5.946513E+04  6.504156E+03  8.704307E+04  1.463936E+04
       333   2 -3.137262E+05 -2.235099E+05 -1.145957E+05 -3.003655E+04  6.980483E+04  4.612193E+04
       333   3 -1.809551E+05 -2.116990E+05 -1.239651E+05 -1.043845E+05  5.259900E+04  4.916842E+04
       333   4  6.686764E+05  1.696903E+05  1.995329E+05 -8.206784E+04  1.376635E+05  1.468653E+04
       333   5  6.475094E+05  1.005982E+04  9.255529E+04 -6.308172E+04  8.897849E+04  4.613128E+04
       333   6  6.687966E+05 -6.335241E+03  5.310780E+04 -8.189270E+04  4.033148E+04  4.915674E+04
       333   7  1.747854E+06  4.367410E+05  4.584624E+05 -1.707945E+05  1.883714E+05  1.471923E+04
       333   8  1.609616E+06  2.435732E+05  2.996539E+05 -9.617894E+04  1.081814E+05  4.613859E+04
       333   9  1.519233E+06  1.989844E+05  2.301418E+05 -5.936968E+04  2.804741E+04  4.914418E+04
       333  10 -4.094228E+05 -9.741603E+04 -5.947978E+04  6.503130E+03  2.042047E-08 -1.001296E-09
       333  11 -3.137320E+05 -2.235135E+05 -1.146089E+05 -3.003914E+04 -3.872756E-09  1.164882E-09
       333  12 -1.809587E+05 -2.117023E+05 -1.239749E+05 -1.043866E+05 -2.565753E-08  3.778891E-10
       333  13  6.686560E+05  1.696850E+05  1.994969E+05 -8.206947E+04  7.207476E-10  1.120801E-09
       333  14  6.475003E+05  1.005541E+04  9.253643E+04 -6.308503E+04  7.405259E-10  9.147070E-10
       333  15  6.687942E+05 -6.338273E+03  5.310021E+04 -8.189429E+04  1.055386E-09  1.184219E-10
       333  16  1.747816E+06  4.367312E+05  4.583955E+05 -1.707968E+05 -1.966250E-08  1.108121E-09
       333  17  1.609603E+06  2.435678E+05  2.996280E+05 -9.618296E+04  3.142875E-09  1.097196E-09
       333  18  1.519231E+06  1.989816E+05  2.301358E+05 -5.937079E+04  2.607812E-08  2.408480E-09
       333  19 -4.094146E+05 -9.741376E+04 -5.946513E+04  6.504156E+03 -8.704307E+04 -1.463936E+04
       333  20 -3.137262E+05 -2.235099E+05 -1.145957E+05 -3.003655E+04 -6.980483E+04 -4.612193E+04
       333  21 -1.809551E+05 -2.116990E+05 -1.239651E+05 -1.043845E+05 -5.259900E+04 -4.916842E+04
       333  22  6.686764E+05  1.696903E+05  1.995329E+05 -8.206784E+04 -1.376635E+05 -1.468653E+04
       333  23  6.475094E+05  1.005982E+04  9.255529E+04 -6.308172E+04 -8.897849E+04 -4.613128E+04
       333  24  6.687966E+05 -6.335241E+03  5.310780E+04 -8.189270E+04 -4.033148E+04 -4.915674E+04
       333  25  1.747854E+06  4.367410E+05  4.584624E+05 -1.707945E+05 -1.883714E+05 -1.471923E+04
       333  26  1.609616E+06  2.435732E+05  2.996539E+05 -9.617894E+04 -1.081814E+05 -4.613859E+04
       333  27  1.519233E+06  1.989844E+05  2.301418E+05 -5.936968E+04 -2.804741E+04 -4.914418E+04
       334   1 -1.045379E+05 -1.778205E+05 -1.182008E+05 -8.013016E+04  3.799999E+04  4.345881E+04
       334   2  7.246066E+03 -1.573211E+05 -1.124351E+05 -6.250859E+04  2.816369E+04  3.822740E+04
       334   3  1.220786E+05 -1.304250E+05 -9.862752E+04 -8.376424E+04  1.832210E+04  3.157539E+04
       334   4  6.601173E+05  7.042241E+03  4.168334E+04 -8.217475E+04  3.304239E+04  4.345182E+04
       334   5  6.584902E+05 -6.031495E+01  2.284875E+04 -6.273621E+04  2.162462E+04  3.822175E+04
       334   6  6.601688E+05 -4.960834E+02  1.314554E+04 -8.217204E+04  1.020330E+04  3.157176E+04
       334   7  1.425325E+06  1.918676E+05  2.015352E+05 -8.422194E+04  2.807877E+04  4.344487E+04
       334   8  1.310136E+06  1.571735E+05  1.581096E+05 -6.296409E+04  1.507879E+04  3.821611E+04
       334   9  1.198533E+06  1.294145E+05  1.249030E+05 -8.057844E+04  2.077575E+03  3.156809E+04
       334  10 -1.045399E+05 -1.778229E+05 -1.182071E+05 -8.013149E+04 -5.482658E-10 -2.237158E-10
       334  11  7.244821E+03 -1.573229E+05 -1.124394E+05 -6.250946E+04 -1.320878E-09 -1.296048E-09
       334  12  1.220780E+05 -1.304262E+05 -9.863002E+04 -8.376470E+04 -2.283719E-09 -1.266530E-09
       334  13  6.601156E+05  7.039920E+03  4.167774E+04 -8.217590E+04  5.979101E-10  1.207844E-09
       334  14  6.584893E+05 -6.200965E+01  2.284513E+04 -6.273688E+04 -1.836592E-10 -6.578307E-10
       334  15  6.601684E+05 -4.971820E+02  1.314347E+04 -8.217230E+04 -2.106667E-09 -1.755046E-09
       334  16  1.425324E+06  1.918654E+05  2.015302E+05 -8.422292E+04  6.289431E-10  1.062312E-09
       334  17  1.310135E+06  1.571719E+05  1.581064E+05 -6.296456E+04  5.514032E-10 -1.171884E-09
       334  18  1.198533E+06  1.294134E+05  1.249011E+05 -8.057850E+04  1.298562E-09 -1.628896E-09
       334  19 -1.045379E+05 -1.778205E+05 -1.182008E+05 -8.013016E+04 -3.799999E+04 -4.345881E+04
       334  20  7.246066E+03 -1.573211E+05 -1.124351E+05 -6.250859E+04 -2.816369E+04 -3.822740E+04
       334  21  1.220786E+05 -1.304250E+05 -9.862752E+04 -8.376424E+04 -1.832210E+04 -3.157539E+04
       334  22  6.601173E+05  7.042241E+03  4.168334E+04 -8.217475E+04 -3.304239E+04 -4.345182E+04
       334  23  6.584902E+05 -6.031495E+01  2.284875E+04 -6.273621E+04 -2.162462E+04 -3.822175E+04
       334  24  6.601688E+05 -4.960834E+02  1.314554E+04 -8.217204E+04 -1.020330E+04 -3.157176E+04
       334  25  1.425325E+06  1.918676E+05  2.015352E+05 -8.422194E+04 -2.807877E+04 -4.344487E+04
       334  26  1.310136E+06  1.571735E+05  1.581096E+05 -6.296409E+04 -1.507879E+04 -3.821611E+04
       334  27  1.198533E+06  1.294145E+05  1.249030E+05 -8.057844E+04 -2.077575E+03 -3.156809E+04
       335   1  2.054732E+05 -1.094293E+05 -8.379136E+04 -8.254239E+04  1.590264E+04  2.733401E+04
       335   2  3.181861E+05 -8.245532E+04 -6.493851E+04 -6.303051E+04  1.314804E+04  2.028334E+04
       335   3  4.313898E+05 -5.517928E+04 -4.420692E+04 -8.233742E+04  1.039041E+04  1.316583E+04
       335   4  6.595613E+05  1.108356E+02  1.003171E+04 -8.216027E+04  8.157562E+03  2.733160E+04
       335   5  6.593274E+05 -1.312178E+02  5.722374E+03 -6.275157E+04  5.326620E+03  2.028222E+04
       335   6  6.595863E+05 -5.726109E+01  3.344043E+03 -8.216040E+04  2.493144E+03  1.316605E+04
       335   7  1.113845E+06  1.096380E+05  1.038439E+05 -8.177785E+04  4.069127E+02  2.732917E+04
       335   8  1.000579E+06  8.218555E+04  7.637716E+04 -6.247247E+04 -2.499022E+03  2.028109E+04
       335   9  8.878322E+05  5.506147E+04  5.089237E+04 -8.198330E+04 -5.406978E+03  1.316628E+04
       335  10  2.054727E+05 -1.094302E+05 -8.379324E+04 -8.254274E+04 -1.919657E-09 -6.263526E-10
       335  11  3.181858E+05 -8.245581E+04 -6.493961E+04 -6.303073E+04 -6.267706E-10 -4.580809E-10
       335  12  4.313896E+05 -5.517949E+04 -4.420744E+04 -8.233753E+04 -1.421588E-10 -9.009692E-11
       335  13  6.595610E+05  1.100153E+02  1.003018E+04 -8.216045E+04 -1.251385E-10 -6.244667E-10
       335  14  6.593273E+05 -1.316673E+02  5.721547E+03 -6.275166E+04 -9.539991E-11  2.164052E-10
       335  15  6.595862E+05 -5.744896E+01  3.343705E+03 -8.216042E+04  2.694848E-10  4.230828E-12
       335  16  1.113845E+06  1.096372E+05  1.038425E+05 -8.177786E+04  7.429643E-10 -8.127334E-10
       335  17  1.000579E+06  8.218510E+04  7.637638E+04 -6.247243E+04  2.425613E-10  6.869051E-11
       335  18  8.878321E+05  5.506127E+04  5.089199E+04 -8.198325E+04 -4.421567E-10 -1.066196E-10
       335  19  2.054732E+05 -1.094293E+05 -8.379136E+04 -8.254239E+04 -1.590264E+04 -2.733401E+04
       335  20  3.181861E+05 -8.245532E+04 -6.493851E+04 -6.303051E+04 -1.314804E+04 -2.028334E+04
       335  21  4.313898E+05 -5.517928E+04 -4.420692E+04 -8.233742E+04 -1.039041E+04 -1.316583E+04
       335  22  6.595613E+05  1.108356E+02  1.003171E+04 -8.216027E+04 -8.157562E+03 -2.733160E+04
       335  23  6.593274E+05 -1.312178E+02  5.722374E+03 -6.275157E+04 -5.326620E+03 -2.028222E+04
       335  24  6.595863E+05 -5.726109E+01  3.344043E+03 -8.216040E+04 -2.493144E+03 -1.316605E+04
       335  25  1.113845E+06  1.096380E+05  1.038439E+05 -8.177785E+04 -4.069127E+02 -2.732917E+04
       335  26  1.000579E+06  8.218555E+04  7.637716E+04 -6.247247E+04  2.499022E+03 -2.028109E+04
       335  27  8.878322E+05  5.506147E+04  5.089237E+04 -8.198330E+04  5.406978E+03 -1.316628E+04
       336   1  5.151179E+05 -3.480963E+04 -2.702026E+04 -8.226693E+04  9.833060E+03  9.007448E+03
       336   2  6.279008E+05 -7.640570E+03 -4.940644E+03 -6.283229E+04  9.050007E+03  1.876043E+03
       336   3  7.408077E+05  1.954260E+04  1.765216E+04 -8.217538E+04  8.266563E+03 -5.258369E+03
       336   4  6.595081E+05 -3.069146E+01  2.578616E+03 -8.215154E+04  1.956524E+03  9.008118E+03
       336   5  6.594539E+05 -2.779967E+01  1.592765E+03 -6.276274E+04  1.169265E+03  1.876814E+03
       336   6  6.595106E+05 -9.877157E+00  1.122571E+03 -8.215157E+04  3.817537E+02 -5.257453E+03
       336   7  8.039182E+05  3.474697E+04  3.217661E+04 -8.203611E+04 -5.921809E+03  9.008784E+03
       336   8  6.910081E+05  7.584941E+03  8.126353E+03 -6.269319E+04 -6.711870E+03  1.877583E+03
       336   9  5.782198E+05 -1.956273E+04 -1.540713E+04 -8.212776E+04 -7.502044E+03 -5.256539E+03
       336  10  5.151178E+05 -3.480974E+04 -2.702059E+04 -8.226701E+04 -9.185713E-10 -2.535887E-11
       336  11  6.279007E+05 -7.640596E+03 -4.940805E+03 -6.283231E+04  1.010672E-10  3.487884E-10
       336  12  7.408077E+05  1.954255E+04  1.765198E+04 -8.217534E+04 -6.051689E-10  3.867841E-10
       336  13  6.595081E+05 -3.077965E+01  2.578457E+03 -8.215155E+04 -5.018032E-10  1.060855E-10
       336  14  6.594539E+05 -2.780382E+01  1.592756E+03 -6.276275E+04  1.264801E-10  5.890676E-10
       336  15  6.595106E+05 -9.906886E+00  1.122519E+03 -8.215156E+04 -5.471116E-10  2.887395E-10
       336  16  8.039182E+05  3.474687E+04  3.217639E+04 -8.203606E+04  1.010179E-09 -1.247033E-10
       336  17  6.910081E+05  7.584925E+03  8.126262E+03 -6.269318E+04  1.202618E-09  6.591928E-10
       336  18  5.782197E+05 -1.956278E+04 -1.540729E+04 -8.212779E+04  5.925816E-11  4.823890E-10
       336  19  5.151179E+05 -3.480963E+04 -2.702026E+04 -8.226693E+04 -9.833060E+03 -9.007448E+03
       336  20  6.279008E+05 -7.640570E+03 -4.940644E+03 -6.283229E+04 -9.050007E+03 -1.876043E+03
       336  21  7.408077E+05  1.954260E+04  1.765216E+04 -8.217538E+04 -8.266563E+03  5.258369E+03
       336  22  6.595081E+05 -3.069146E+01  2.578616E+03 -8.215154E+04 -1.956524E+03 -9.008118E+03
       336  23  6.594539E+05 -2.779967E+01  1.592765E+03 -6.276274E+04 -1.169265E+03 -1.876814E+03
       336  24  6.595106E+05 -9.877157E+00  1.122571E+03 -8.215157E+04 -3.817537E+02  5.257453E+03
       336  25  8.039182E+05  3.474697E+04  3.217661E+04 -8.203611E+04  5.921809E+03 -9.008784E+03
       336  26  6.910081E+05  7.584941E+03  8.126353E+03 -6.269319E+04  6.711870E+03 -1.877583E+03
       336  27  5.782198E+05 -1.956273E+04 -1.540713E+04 -8.212776E+04  7.502044E+03  5.256539E+03
       337   1  8.246109E+05  3.987617E+04  3.550286E+04 -8.218186E+04  8.073235E+03 -9.411719E+03
       337   2  9.375115E+05  6.703154E+04  5.861565E+04 -6.272364E+04  7.551690E+03 -1.654844E+04
       337   3  1.050524E+06  9.418886E+04  8.207363E+04 -8.207265E+04  7.032185E+03 -2.368533E+04
       337   4  6.595038E+05 -1.311504E+01  1.024756E+03 -8.215838E+04  1.857619E+02 -9.411098E+03
       337   5  6.594440E+05 -4.331762E+01  1.056035E+03 -6.275423E+04 -3.364403E+02 -1.654893E+04
       337   6  6.594844E+05 -7.076480E+01  1.433249E+03 -8.215837E+04 -8.565101E+02 -2.368688E+04
       337   7  4.944226E+05 -3.990410E+04 -3.345462E+04 -8.213491E+04 -7.699650E+03 -9.410477E+03
       337   8  3.814499E+05 -6.712303E+04 -5.650755E+04 -6.278481E+04 -8.221102E+03 -1.654942E+04
       337   9  2.685895E+05 -9.434000E+04 -7.921514E+04 -8.224404E+04 -8.740330E+03 -2.368844E+04
       337  10  8.246108E+05  3.987605E+04  3.550257E+04 -8.218180E+04 -2.763711E-11  3.242348E-10
       337  11  9.375113E+05  6.703123E+04  5.861503E+04 -6.272354E+04 -6.803025E-10 -2.064274E-10
       337  12  1.050524E+06  9.418824E+04  8.207249E+04 -8.207251E+04 -1.960080E-10 -4.880692E-10
       337  13  6.595038E+05 -1.321019E+01  1.024589E+03 -8.215838E+04  1.053153E-09  6.902473E-11
       337  14  6.594440E+05 -4.361183E+01  1.055520E+03 -6.275424E+04 -1.248925E-10 -1.105254E-10
       337  15  6.594842E+05 -7.136768E+01  1.432193E+03 -8.215839E+04 -4.278441E-10 -1.018389E-10
       337  16  4.944225E+05 -3.990421E+04 -3.345490E+04 -8.213497E+04 -1.143347E-10  1.394360E-10
       337  17  3.814498E+05 -6.712335E+04 -5.650819E+04 -6.278492E+04  3.639955E-10  1.131275E-10
       337  18  2.685892E+05 -9.434063E+04 -7.921634E+04 -8.224421E+04 -2.276590E-10 -4.839116E-11
       337  19  8.246109E+05  3.987617E+04  3.550286E+04 -8.218186E+04 -8.073235E+03  9.411719E+03
       337  20  9.375115E+05  6.703154E+04  5.861565E+04 -6.272364E+04 -7.551690E+03  1.654844E+04
       337  21  1.050524E+06  9.418886E+04  8.207363E+04 -8.207265E+04 -7.032185E+03  2.368533E+04
       337  22  6.595038E+05 -1.311504E+01  1.024756E+03 -8.215838E+04 -1.857619E+02  9.411098E+03
       337  23  6.594440E+05 -4.331762E+01  1.056035E+03 -6.275423E+04  3.364403E+02  1.654893E+04
       337  24  6.594844E+05 -7.076480E+01  1.433249E+03 -8.215837E+04  8.565101E+02  2.368688E+04
       337  25  4.944226E+05 -3.990410E+04 -3.345462E+04 -8.213491E+04  7.699650E+03  9.410477E+03
       337  26  3.814499E+05 -6.712303E+04 -5.650755E+04 -6.278481E+04  8.221102E+03  1.654942E+04
       337  27  2.685895E+05 -9.434000E+04 -7.921514E+04 -8.224404E+04  8.740330E+03  2.368844E+04
       338   1  1.134551E+06  1.145385E+05  1.003967E+05 -8.204021E+04  6.771778E+03 -2.784970E+04
       338   2  1.247655E+06  1.417293E+05  1.246821E+05 -6.244063E+04  5.250018E+03 -3.497301E+04
       338   3  1.361132E+06  1.690755E+05  1.500229E+05 -8.175401E+04  3.732468E+03 -4.201757E+04
       338   4  6.595240E+05 -9.266697E+01  1.779639E+03 -8.218212E+04 -1.146839E+03 -2.785229E+04
       338   5  6.593292E+05 -1.634872E+02  2.899902E+03 -6.272449E+04 -2.580882E+03 -3.497791E+04
       338   6  6.594823E+05 -9.286327E+01  5.016241E+03 -8.218207E+04 -4.010447E+03 -4.202470E+04
       338   7  1.847109E+05 -1.147381E+05 -9.684954E+04 -8.232391E+04 -9.059509E+03 -2.785488E+04
       338   8  7.133118E+04 -1.420782E+05 -1.189008E+05 -6.300808E+04 -1.040450E+04 -3.498280E+04
       338   9 -4.170169E+04 -1.692923E+05 -1.400168E+05 -8.260966E+04 -1.174477E+04 -4.203181E+04
       338  10  1.134550E+06  1.145376E+05  1.003952E+05 -8.204006E+04 -6.930801E-10 -5.280535E-11
       338  11  1.247654E+06  1.417280E+05  1.246797E+05 -6.244048E+04 -1.755852E-09 -6.932214E-10
       338  12  1.361132E+06  1.690736E+05  1.500195E+05 -8.175388E+04  3.641749E-10 -2.395240E-10
       338  13  6.595238E+05 -9.350061E+01  1.778178E+03 -8.218214E+04 -4.054650E-10  2.042571E-10
       338  14  6.593288E+05 -1.648031E+02  2.897589E+03 -6.272456E+04  7.130221E-11  1.360756E-11
       338  15  6.594818E+05 -9.476465E+01  5.012891E+03 -8.218220E+04 -1.212938E-10 -3.531179E-10
       338  16  1.847106E+05 -1.147390E+05 -9.685115E+04 -8.232411E+04  9.662609E-10  5.101532E-11
       338  17  7.133073E+04 -1.420795E+05 -1.189033E+05 -6.300838E+04 -8.106896E-10  2.097489E-10
       338  18 -4.170231E+04 -1.692942E+05 -1.400204E+05 -8.261006E+04 -8.658407E-10  5.673994E-11
       338  19  1.134551E+06  1.145385E+05  1.003967E+05 -8.204021E+04 -6.771778E+03  2.784970E+04
       338  20  1.247655E+06  1.417293E+05  1.246821E+05 -6.244063E+04 -5.250018E+03  3.497301E+04
       338  21  1.361132E+06  1.690755E+05  1.500229E+05 -8.175401E+04 -3.732468E+03  4.201757E+04
       338  22  6.595240E+05 -9.266697E+01  1.779639E+03 -8.218212E+04  1.146839E+03  2.785229E+04
       338  23  6.593292E+05 -1.634872E+02  2.899902E+03 -6.272449E+04  2.580882E+03  3.497791E+04
       338  24  6.594823E+05 -9.286327E+01  5.016241E+03 -8.218207E+04  4.010447E+03  4.202470E+04
       338  25  1.847109E+05 -1.147381E+05 -9.684954E+04 -8.232391E+04  9.059509E+03  2.785488E+04
       338  26  7.133118E+04 -1.420782E+05 -1.189008E+05 -6.300808E+04  1.040450E+04  3.498280E+04
       338  27 -4.170169E+04 -1.692923E+05 -1.400168E+05 -8.260966E+04  1.174477E+04  4.203181E+04
       339   1  1.445817E+06  1.892084E+05  1.695557E+05 -8.109858E+04  3.175652E+03 -4.628614E+04
       339   2  1.558587E+06  2.168205E+05  1.980089E+05 -6.231780E+04 -4.414907E+03 -5.284502E+04
       339   3  1.673549E+06  2.480485E+05  2.323649E+05 -8.253707E+04 -1.200260E+04 -5.766814E+04
       339   4  6.597888E+05 -4.072021E+02  6.557367E+03 -8.220082E+04 -5.029406E+03 -4.629530E+04
       339   5  6.588323E+05 -2.338950E+02  1.133977E+04 -6.270060E+04 -1.069280E+04 -5.285612E+04
       339   6  6.597227E+05  3.224846E+03  2.069394E+04 -8.220374E+04 -1.635193E+04 -5.767999E+04
       339   7 -1.256547E+05 -1.900620E+05 -1.564744E+05 -8.330168E+04 -1.322427E+04 -4.630443E+04
       339   8 -2.401570E+05 -2.173396E+05 -1.753733E+05 -6.308295E+04 -1.696176E+04 -5.286723E+04
       339   9 -3.531335E+05 -2.416644E+05 -1.910338E+05 -8.187115E+04 -2.069429E+04 -5.769186E+04
       339  10  1.445816E+06  1.892061E+05  1.695517E+05 -8.109846E+04 -1.180487E-10 -6.053051E-10
       339  11  1.558586E+06  2.168175E+05  1.980036E+05 -6.231799E+04  7.178001E-10 -9.224167E-10
       339  12  1.673548E+06  2.480449E+05  2.323584E+05 -8.253763E+04  1.709282E-09 -1.284807E-09
       339  13  6.597882E+05 -4.095111E+02  6.553290E+03 -8.220100E+04  8.865889E-10 -5.196585E-10
       339  14  6.588315E+05 -2.369267E+02  1.133431E+04 -6.270105E+04 -1.044754E-09 -7.429571E-10
       339  15  6.597215E+05  3.221200E+03  2.068718E+04 -8.220450E+04 -1.352047E-10 -1.042730E-09
       339  16 -1.256554E+05 -1.900643E+05 -1.564788E+05 -8.330218E+04  6.398422E-10 -1.089808E-10
       339  17 -2.401581E+05 -2.173427E+05 -1.753791E+05 -6.308367E+04 -3.994886E-12  2.025524E-09
       339  18 -3.531348E+05 -2.416681E+05 -1.910409E+05 -8.187211E+04 -1.871894E-09 -2.681917E-10
       339  19  1.445817E+06  1.892084E+05  1.695557E+05 -8.109858E+04 -3.175652E+03  4.628614E+04
       339  20  1.558587E+06  2.168205E+05  1.980089E+05 -6.231780E+04  4.414907E+03  5.284502E+04
       339  21  1.673549E+06  2.480485E+05  2.323649E+05 -8.253707E+04  1.200260E+04  5.766814E+04
       339  22  6.597888E+05 -4.072021E+02  6.557367E+03 -8.220082E+04  5.029406E+03  4.629530E+04
       339  23  6.588323E+05 -2.338950E+02  1.133977E+04 -6.270060E+04  1.069280E+04  5.285612E+04
       339  24  6.597227E+05  3.224846E+03  2.069394E+04 -8.220374E+04  1.635193E+04  5.767999E+04
       339  25 -1.256547E+05 -1.900620E+05 -1.564744E+05 -8.330168E+04  1.322427E+04  4.630443E+04
       339  26 -2.401570E+05 -2.173396E+05 -1.753733E+05 -6.308295E+04  1.696176E+04  5.286723E+04
       339  27 -3.531335E+05 -2.416644E+05 -1.910338E+05 -8.187115E+04  2.069429E+04  5.769186E+04
       340   1  1.763719E+06  2.619652E+05  2.551095E+05 -6.983790E+04 -6.648553E+03 -6.371943E+04
       340   2  1.864691E+06  2.986173E+05  3.063457E+05 -7.845298E+04 -6.928968E+04 -5.847561E+04
       340   3  1.993744E+06  4.130548E+05  4.178359E+05 -1.247018E+05 -1.320183E+05 -1.846302E+04
       340   4  6.640429E+05 -3.444728E+03  2.636675E+04 -8.186461E+04 -1.996672E+04 -6.374439E+04
       340   5  6.532671E+05  4.658764E+03  4.590010E+04 -6.311940E+04 -4.408934E+04 -5.844613E+04
       340   6  6.639320E+05  8.395015E+04  9.902776E+04 -8.200515E+04 -6.828500E+04 -1.835402E+04
       340   7 -4.344903E+05 -2.689310E+05 -2.024417E+05 -9.386997E+04 -3.326171E+04 -6.376885E+04
       340   8 -5.567788E+05 -2.893947E+05 -2.146290E+05 -4.781655E+04 -1.893731E+04 -5.841539E+04
       340   9 -6.642515E+05 -2.452734E+05 -2.198893E+05 -3.940070E+04 -4.687239E+03 -1.823616E+04
       340  10  1.763718E+06  2.619609E+05  2.551018E+05 -6.983825E+04  3.501536E-10 -2.601687E-09
       340  11  1.864685E+06  2.986124E+05  3.063303E+05 -7.845624E+04 -2.242560E-09 -5.868737E-09
       340  12  1.993725E+06  4.130498E+05  4.178026E+05 -1.247038E+05 -3.442920E-09 -1.899965E-09
       340  13  6.640414E+05 -3.449200E+03  2.635836E+04 -8.186563E+04 -4.788019E-10 -6.647768E-09
       340  14  6.532641E+05  4.654573E+03  4.589002E+04 -6.312148E+04 -1.570204E-09  2.457558E-09
       340  15  6.639269E+05  8.394854E+04  9.901837E+04 -8.200616E+04  1.669483E-10 -4.491557E-10
       340  16 -4.344926E+05 -2.689357E+05 -2.024514E+05 -9.387168E+04 -1.321331E-09 -1.792619E-09
       340  17 -5.567801E+05 -2.893985E+05 -2.146361E+05 -4.781744E+04  9.026194E-10  1.559989E-09
       340  18 -6.642517E+05 -2.452738E+05 -2.198899E+05 -3.940077E+04  2.079124E-09 -1.809751E-09
       340  19  1.763719E+06  2.619652E+05  2.551095E+05 -6.983790E+04  6.648553E+03  6.371943E+04
       340  20  1.864691E+06  2.986173E+05  3.063457E+05 -7.845298E+04  6.928968E+04  5.847561E+04
       340  21  1.993744E+06  4.130548E+05  4.178359E+05 -1.247018E+05  1.320183E+05  1.846302E+04
       340  22  6.640429E+05 -3.444728E+03  2.636675E+04 -8.186461E+04  1.996672E+04  6.374439E+04
       340  23  6.532671E+05  4.658764E+03  4.590010E+04 -6.311940E+04  4.408934E+04  5.844613E+04
       340  24  6.639320E+05  8.395015E+04  9.902776E+04 -8.200515E+04  6.828500E+04  1.835402E+04
       340  25 -4.344903E+05 -2.689310E+05 -2.024417E+05 -9.386997E+04  3.326171E+04  6.376885E+04
       340  26 -5.567788E+05 -2.893947E+05 -2.146290E+05 -4.781655E+04  1.893731E+04  5.841539E+04
       340  27 -6.642515E+05 -2.452734E+05 -2.198893E+05 -3.940070E+04  4.687239E+03  1.823616E+04
       341   1  7.003229E+05  2.597590E+06  6.898095E+05 -5.588242E+05  2.921881E+04  1.353332E+05
       341   2  4.647727E+05  1.854233E+06  4.399254E+05 -4.194518E+05  8.363289E+04  3.973410E+04
       341   3  2.842409E+05  1.137119E+06  2.657668E+05 -5.266848E+05  6.469575E+04 -5.589489E+04
       341   4  4.793164E+04 -3.246731E+04  5.452706E+04 -5.294576E+05  2.948427E+04  3.467019E+04
       341   5  4.215336E+03 -3.792366E+04  2.759310E+04 -4.062026E+05  8.370883E+04  2.039065E+04
       341   6  1.560245E+03 -3.162480E+04  2.013872E+04 -5.295802E+05  6.448611E+04  5.967533E+03
       341   7 -6.049569E+05 -2.656194E+06 -5.812129E+05 -5.002089E+05  2.974096E+04 -6.556940E+04
       341   8 -4.565791E+05 -1.926731E+06 -3.849530E+05 -3.929907E+05  8.378409E+04  1.105200E+03
       341   9 -2.812060E+05 -1.199072E+06 -2.255515E+05 -5.324684E+05  6.427565E+04  6.771550E+04
       341  10  7.003171E+05  2.597570E+06  6.897736E+05 -5.588274E+05 -1.754811E-10 -2.474388E-10
       341  11  4.647647E+05  1.854229E+06  4.399093E+05 -4.194545E+05 -1.682735E-09  3.242051E-09
       341  12  2.842356E+05  1.137115E+06  2.657531E+05 -5.266819E+05  1.185400E-09  6.117300E-09
       341  13  4.793038E+04 -3.246884E+04  5.452316E+04 -5.294584E+05 -2.664911E-10  5.827384E-13
       341  14  4.207698E+03 -3.792599E+04  2.757915E+04 -4.062040E+05 -1.922832E-09  6.347513E-11
       341  15  1.555770E+03 -3.162595E+04  2.013084E+04 -5.295805E+05  5.897989E-10 -3.195105E-10
       341  16 -6.049590E+05 -2.656199E+06 -5.812227E+05 -5.002074E+05 -8.533884E-10  1.153693E-09
       341  17 -4.565867E+05 -1.926732E+06 -3.849662E+05 -3.929908E+05  2.746461E-10 -2.265399E-09
       341  18 -2.812117E+05 -1.199078E+06 -2.255680E+05 -5.324720E+05 -4.792775E-10 -1.559498E-09
       341  19  7.003229E+05  2.597590E+06  6.898095E+05 -5.588242E+05 -2.921881E+04 -1.353332E+05
       341  20  4.647727E+05  1.854233E+06  4.399254E+05 -4.194518E+05 -8.363289E+04 -3.973410E+04
       341  21  2.842409E+05  1.137119E+06  2.657668E+05 -5.266848E+05 -6.469575E+04  5.589489E+04
       341  22  4.793164E+04 -3.246731E+04  5.452706E+04 -5.294576E+05 -2.948427E+04 -3.467019E+04
       341  23  4.215336E+03 -3.792366E+04  2.759310E+04 -4.062026E+05 -8.370883E+04 -2.039065E+04
       341  24  1.560245E+03 -3.162480E+04  2.013872E+04 -5.295802E+05 -6.448611E+04 -5.967533E+03
       341  25 -6.049569E+05 -2.656194E+06 -5.812129E+05 -5.002089E+05 -2.974096E+04  6.556940E+04
       341  26 -4.565791E+05 -1.926731E+06 -3.849530E+05 -3.929907E+05 -8.378409E+04 -1.105200E+03
       341  27 -2.812060E+05 -1.199072E+06 -2.255515E+05 -5.324684E+05 -6.427565E+04 -6.771550E+04
       342   1  1.563381E+05  5.908136E+05  1.509979E+05 -5.334237E+05  3.366899E+04 -4.127087E+04
       342   2 -2.257927E+04 -1.389754E+05 -1.802151E+03 -4.048599E+05 -5.938537E+03 -5.103597E+04
       342   3 -1.943606E+05 -8.668492E+05 -1.469257E+05 -5.264553E+05 -4.527446E+04 -6.078478E+04
       342   4  5.060023E+03 -3.370595E+04  1.900662E+04 -5.303364E+05  3.350923E+04  2.657752E+03
       342   5  2.674567E+03 -3.446008E+04  1.992629E+04 -4.052554E+05 -6.093841E+03 -7.429391E+03
       342   6  7.509558E+03 -3.375270E+04  2.875675E+04 -5.303274E+05 -4.542697E+04 -1.751119E+04
       342   7 -1.462422E+05 -6.578536E+05 -1.129995E+05 -5.272519E+05  3.334981E+04  4.654290E+04
       342   8  2.792873E+04  7.006966E+04  4.166127E+04 -4.056509E+05 -6.249185E+03  3.618441E+04
       342   9  2.093359E+05  8.000036E+05  2.044071E+05 -5.342039E+05 -4.557990E+04  2.581962E+04
       342  10  1.563364E+05  5.908115E+05  1.509926E+05 -5.334226E+05  4.951199E-10 -5.996223E-11
       342  11 -2.258001E+04 -1.389782E+05 -1.807114E+03 -4.048601E+05  6.855473E-10  2.987017E-09
       342  12 -1.943638E+05 -8.668537E+05 -1.469365E+05 -5.264575E+05 -6.297558E-10  5.217865E-09
       342  13  5.058815E+03 -3.370626E+04  1.900449E+04 -5.303365E+05  1.055360E-09  4.729271E-11
       342  14  2.674512E+03 -3.446015E+04  1.992611E+04 -4.052554E+05  1.949747E-09  1.222791E-11
       342  15  7.507259E+03 -3.375359E+04  2.875230E+04 -5.303280E+05  2.955307E-09 -3.424107E-10
       342  16 -1.462439E+05 -6.578562E+05 -1.130057E+05 -5.272532E+05 -1.678348E-10  1.609427E-09
       342  17  2.792834E+04  7.006824E+04  4.165874E+04 -4.056507E+05 -2.140928E-09 -2.235897E-09
       342  18  2.093335E+05  8.000024E+05  2.044019E+05 -5.342030E+05 -3.630853E-10 -4.450763E-10
       342  19  1.563381E+05  5.908136E+05  1.509979E+05 -5.334237E+05 -3.366899E+04  4.127087E+04
       342  20 -2.257927E+04 -1.389754E+05 -1.802151E+03 -4.048599E+05  5.938537E+03  5.103597E+04
       342  21 -1.943606E+05 -8.668492E+05 -1.469257E+05 -5.264553E+05  4.527446E+04  6.078478E+04
       342  22  5.060023E+03 -3.370595E+04  1.900662E+04 -5.303364E+05 -3.350923E+04 -2.657752E+03
       342  23  2.674567E+03 -3.446008E+04  1.992629E+04 -4.052554E+05  6.093841E+03  7.429391E+03
       342  24  7.509558E+03 -3.375270E+04  2.875675E+04 -5.303274E+05  4.542697E+04  1.751119E+04
       342  25 -1.462422E+05 -6.578536E+05 -1.129995E+05 -5.272519E+05 -3.334981E+04 -4.654290E+04
       342  26  2.792873E+04  7.006966E+04  4.166127E+04 -4.056509E+05  6.249185E+03 -3.618441E+04
       342  27  2.093359E+05  8.000036E+05  2.044071E+05 -5.342039E+05  4.557990E+04 -2.581962E+04
       343   1 -3.340182E+05 -1.404992E+06 -2.543328E+05 -5.395533E+05 -7.646142E+04 -8.517299E+04
       343   2 -5.041452E+05 -2.139197E+06 -4.000543E+05 -3.816039E+05 -9.404769E+04 -2.830160E+04
       343   3 -5.999820E+05 -2.861781E+06 -5.643832E+05 -4.700597E+05 -3.274999E+04  2.864214E+04
       343   4 -7.344643E+02 -2.852350E+04  3.487912E+04 -5.295358E+05 -7.666646E+04 -2.262040E+04
       343   5  7.446116E+03 -4.205928E+04  5.727975E+04 -4.062459E+05 -9.395558E+04 -5.267354E+04
       343   6  1.049065E+05 -2.945648E+04  1.214586E+05 -5.292731E+05 -3.248718E+04 -8.258853E+04
       343   7  3.324300E+05  1.349746E+06  3.239999E+05 -5.194934E+05 -7.686920E+04  4.006895E+04
       343   8  5.187469E+05  2.059211E+06  5.143517E+05 -4.309685E+05 -9.386173E+04 -7.712674E+04
       343   9  8.092252E+05  2.810254E+06  8.067714E+05 -5.887514E+05 -3.220387E+04 -1.943261E+05
       343  10 -3.340264E+05 -1.405001E+06 -2.543575E+05 -5.395586E+05  5.812018E-10 -3.516419E-10
       343  11 -5.041549E+05 -2.139200E+06 -4.000725E+05 -3.816060E+05  2.105501E-10  1.847983E-09
       343  12 -5.999834E+05 -2.861782E+06 -5.643867E+05 -4.700589E+05 -4.400118E-10  2.704409E-09
       343  13 -7.409154E+02 -2.852563E+04  3.486711E+04 -5.295371E+05 -1.485720E-09 -2.183983E-11
       343  14  7.435887E+03 -4.206463E+04  5.725793E+04 -4.062499E+05  7.033202E-10 -1.017091E-10
       343  15  1.049035E+05 -2.946409E+04  1.214438E+05 -5.292752E+05 -6.560291E-10 -2.066670E-10
       343  16  3.324232E+05  1.349743E+06  3.239858E+05 -5.194909E+05  1.130930E-09  1.764178E-09
       343  17  5.187359E+05  2.059203E+06  5.143240E+05 -4.309743E+05 -4.235623E-11 -1.561881E-09
       343  18  8.092140E+05  2.810213E+06  8.066988E+05 -5.887565E+05 -8.537789E-10 -2.640250E-10
       343  19 -3.340182E+05 -1.404992E+06 -2.543328E+05 -5.395533E+05  7.646142E+04  8.517299E+04
       343  20 -5.041452E+05 -2.139197E+06 -4.000543E+05 -3.816039E+05  9.404769E+04  2.830160E+04
       343  21 -5.999820E+05 -2.861781E+06 -5.643832E+05 -4.700597E+05  3.274999E+04 -2.864214E+04
       343  22 -7.344643E+02 -2.852350E+04  3.487912E+04 -5.295358E+05  7.666646E+04  2.262040E+04
       343  23  7.446116E+03 -4.205928E+04  5.727975E+04 -4.062459E+05  9.395558E+04  5.267354E+04
       343  24  1.049065E+05 -2.945648E+04  1.214586E+05 -5.292731E+05  3.248718E+04  8.258853E+04
       343  25  3.324300E+05  1.349746E+06  3.239999E+05 -5.194934E+05  7.686920E+04 -4.006895E+04
       343  26  5.187469E+05  2.059211E+06  5.143517E+05 -4.309685E+05  9.386173E+04  7.712674E+04
       343  27  8.092252E+05  2.810254E+06  8.067714E+05 -5.887514E+05  3.220387E+04  1.943261E+05
       344   1 -1.810652E+06 -7.158117E+05 -4.081940E+05 -7.027775E+05 -1.825146E+05 -5.608017E+04
       344   2 -1.738839E+06 -4.834938E+05 -2.470390E+05 -6.744357E+05 -1.156485E+05 -3.256372E+03
       344   3 -1.711569E+06 -4.056621E+05 -1.800007E+05 -6.318604E+05 -4.077709E+04  2.835910E+04
       344   4 -1.132321E+06 -3.687327E+05 -2.123378E+05 -4.231795E+05 -1.404301E+05 -4.027212E+04
       344   5 -1.100820E+06 -2.111835E+05 -9.520213E+04 -4.614416E+05 -9.920040E+04  2.920951E+03
       344   6 -1.108716E+06 -2.029587E+05 -5.176630E+04 -4.854918E+05 -4.997877E+04  2.489639E+04
       344   7 -4.535076E+05 -2.149017E+04 -1.651447E+04 -1.432615E+05 -9.829484E+04 -2.442925E+04
       344   8 -4.623820E+05  6.119871E+04  5.660823E+04 -2.482318E+05 -8.273387E+04  9.107629E+03
       344   9 -5.054931E+05 -2.410643E+02  7.644812E+04 -3.389988E+05 -5.919014E+04  2.143078E+04
       344  10 -1.810689E+06 -7.158241E+05 -4.082627E+05 -7.027858E+05 -2.831713E-10  4.197985E-10
       344  11 -1.738853E+06 -4.834975E+05 -2.470642E+05 -6.744360E+05 -1.320133E-09  1.132414E-09
       344  12 -1.711571E+06 -4.056634E+05 -1.800054E+05 -6.318595E+05 -5.090565E-10  2.268507E-10
       344  13 -1.132343E+06 -3.687398E+05 -2.123780E+05 -4.231840E+05  1.035734E-09  1.126796E-10
       344  14 -1.100830E+06 -2.111861E+05 -9.522067E+04 -4.614414E+05  2.098960E-09  2.285426E-10
       344  15 -1.108718E+06 -2.029600E+05 -5.177216E+04 -4.854908E+05  5.049435E-10 -1.233111E-09
       344  16 -4.535181E+05 -2.149341E+04 -1.653377E+04 -1.432634E+05  1.997133E-10 -1.602699E-09
       344  17 -4.623894E+05  6.119678E+04  5.659520E+04 -2.482312E+05  1.048756E-09 -5.443526E-10
       344  18 -5.054970E+05 -2.424976E+02  7.644068E+04 -3.389978E+05  1.082061E-09 -5.839388E-10
       344  19 -1.810652E+06 -7.158117E+05 -4.081940E+05 -7.027775E+05  1.825146E+05  5.608017E+04
       344  20 -1.738839E+06 -4.834938E+05 -2.470390E+05 -6.744357E+05  1.156485E+05  3.256372E+03
       344  21 -1.711569E+06 -4.056621E+05 -1.800007E+05 -6.318604E+05  4.077709E+04 -2.835910E+04
       344  22 -1.132321E+06 -3.687327E+05 -2.123378E+05 -4.231795E+05  1.404301E+05  4.027212E+04
       344  23 -1.100820E+06 -2.111835E+05 -9.520213E+04 -4.614416E+05  9.920040E+04 -2.920951E+03
       344  24 -1.108716E+06 -2.029587E+05 -5.176630E+04 -4.854918E+05  4.997877E+04 -2.489639E+04
       344  25 -4.535076E+05 -2.149017E+04 -1.651447E+04 -1.432615E+05  9.829484E+04  2.442925E+04
       344  26 -4.623820E+05  6.119871E+04  5.660823E+04 -2.482318E+05  8.273387E+04 -9.107629E+03
       344  27 -5.054931E+05 -2.410643E+02  7.644812E+04 -3.389988E+05  5.919014E+04 -2.143078E+04
       345   1 -1.632466E+06 -4.103224E+05 -1.562592E+05 -6.276619E+05 -3.823298E+04  2.471156E+04
       345   2 -1.561974E+06 -3.646834E+05 -1.191799E+05 -5.961636E+05 -2.470649E+04  2.527855E+04
       345   3 -1.477421E+06 -3.431014E+05 -9.270179E+04 -5.839862E+05 -1.073794E+04  2.466742E+04
       345   4 -1.102083E+06 -2.125602E+05 -4.004446E+04 -4.788330E+05 -4.232934E+04  2.316856E+04
       345   5 -1.108764E+06 -1.973212E+05 -2.109177E+04 -4.704245E+05 -3.022040E+04  2.320422E+04
       345   6 -1.101104E+06 -2.058539E+05 -1.160780E+04 -4.813387E+05 -1.767112E+04  2.206156E+04
       345   7 -5.714177E+05 -1.477516E+04  7.615236E+04 -3.298874E+05 -4.642944E+04  2.162411E+04
       345   8 -6.553443E+05 -2.994202E+04  7.698440E+04 -3.446006E+05 -3.573867E+04  2.112825E+04
       345   9 -7.246403E+05 -6.859470E+04  6.947887E+04 -3.786335E+05 -2.460890E+04  1.945402E+04
       345  10 -1.632468E+06 -4.103235E+05 -1.562631E+05 -6.276612E+05 -9.356469E-10 -9.300819E-11
       345  11 -1.561975E+06 -3.646843E+05 -1.191822E+05 -5.961631E+05 -2.526823E-09  4.598834E-10
       345  12 -1.477421E+06 -3.431021E+05 -9.270314E+04 -5.839860E+05 -1.207064E-09  1.370308E-10
       345  13 -1.102085E+06 -2.125612E+05 -4.004883E+04 -4.788323E+05  6.161952E-10 -6.330942E-11
       345  14 -1.108765E+06 -1.973220E+05 -2.109450E+04 -4.704239E+05 -1.257591E-09  5.805923E-10
       345  15 -1.101104E+06 -2.058545E+05 -1.160930E+04 -4.813384E+05  1.108496E-10 -3.094853E-10
       345  16 -5.714201E+05 -1.477624E+04  7.614743E+04 -3.298866E+05  3.342232E-10  2.617788E-10
       345  17 -6.553458E+05 -2.994284E+04  7.698116E+04 -3.446000E+05  1.311994E-09  4.381649E-10
       345  18 -7.246410E+05 -6.859527E+04  6.947702E+04 -3.786331E+05  1.135801E-09 -6.514369E-10
       345  19 -1.632466E+06 -4.103224E+05 -1.562592E+05 -6.276619E+05  3.823298E+04 -2.471156E+04
       345  20 -1.561974E+06 -3.646834E+05 -1.191799E+05 -5.961636E+05  2.470649E+04 -2.527855E+04
       345  21 -1.477421E+06 -3.431014E+05 -9.270179E+04 -5.839862E+05  1.073794E+04 -2.466742E+04
       345  22 -1.102083E+06 -2.125602E+05 -4.004446E+04 -4.788330E+05  4.232934E+04 -2.316856E+04
       345  23 -1.108764E+06 -1.973212E+05 -2.109177E+04 -4.704245E+05  3.022040E+04 -2.320422E+04
       345  24 -1.101104E+06 -2.058539E+05 -1.160780E+04 -4.813387E+05  1.767112E+04 -2.206156E+04
       345  25 -5.714177E+05 -1.477516E+04  7.615236E+04 -3.298874E+05  4.642944E+04 -2.162411E+04
       345  26 -6.553443E+05 -2.994202E+04  7.698440E+04 -3.446006E+05  3.573867E+04 -2.112825E+04
       345  27 -7.246403E+05 -6.859470E+04  6.947887E+04 -3.786335E+05  2.460890E+04 -1.945402E+04
       346   1 -1.419905E+06 -3.234147E+05 -7.727495E+04 -5.689511E+05 -8.129379E+03  2.186709E+04
       346   2 -1.349885E+06 -2.852773E+05 -5.655380E+04 -5.369723E+05 -3.562413E+03  1.726555E+04
       346   3 -1.262293E+06 -2.654295E+05 -3.775425E+04 -5.255856E+05  1.029992E+03  1.259256E+04
       346   4 -1.100602E+06 -2.062476E+05 -8.757971E+03 -4.810098E+05 -1.479262E+04  1.936346E+04
       346   5 -1.109372E+06 -1.970109E+05 -4.817741E+03 -4.707475E+05 -1.031108E+04  1.473078E+04
       346   6 -1.100560E+06 -2.060463E+05 -2.730428E+03 -4.810790E+05 -5.804464E+03  1.002657E+04
       346   7 -7.811963E+05 -8.907248E+04  5.975330E+04 -3.930269E+05 -2.145957E+04  1.685843E+04
       346   8 -8.688018E+05 -1.087402E+05  4.691491E+04 -4.044994E+05 -1.706255E+04  1.219496E+04
       346   9 -9.388011E+05 -1.466614E+05  3.229173E+04 -4.365620E+05 -1.264080E+04  7.459881E+03
       346  10 -1.419905E+06 -3.234152E+05 -7.727597E+04 -5.689510E+05 -3.928683E-10  1.783216E-10
       346  11 -1.349885E+06 -2.852776E+05 -5.655438E+04 -5.369722E+05 -2.644018E-10  2.059703E-10
       346  12 -1.262293E+06 -2.654297E+05 -3.775455E+04 -5.255856E+05 -9.199074E-10  1.426933E-10
       346  13 -1.100603E+06 -2.062481E+05 -8.759086E+03 -4.810096E+05  1.749678E-10 -6.356486E-10
       346  14 -1.109372E+06 -1.970112E+05 -4.818348E+03 -4.707474E+05 -5.201877E-10  9.472373E-10
       346  15 -1.100560E+06 -2.060464E+05 -2.730680E+03 -4.810789E+05  2.845353E-11 -6.837327E-12
       346  16 -7.811968E+05 -8.907290E+04  5.975190E+04 -3.930266E+05  1.209269E-09 -8.863000E-10
       346  17 -8.688022E+05 -1.087404E+05  4.691408E+04 -4.044992E+05  6.980016E-10 -2.487194E-10
       346  18 -9.388012E+05 -1.466615E+05  3.229133E+04 -4.365619E+05  8.881931E-10  1.592773E-10
       346  19 -1.419905E+06 -3.234147E+05 -7.727495E+04 -5.689511E+05  8.129379E+03 -2.186709E+04
       346  20 -1.349885E+06 -2.852773E+05 -5.655380E+04 -5.369723E+05  3.562413E+03 -1.726555E+04
       346  21 -1.262293E+06 -2.654295E+05 -3.775425E+04 -5.255856E+05 -1.029992E+03 -1.259256E+04
       346  22 -1.100602E+06 -2.062476E+05 -8.757971E+03 -4.810098E+05  1.479262E+04 -1.936346E+04
       346  23 -1.109372E+06 -1.970109E+05 -4.817741E+03 -4.707475E+05  1.031108E+04 -1.473078E+04
       346  24 -1.100560E+06 -2.060463E+05 -2.730428E+03 -4.810790E+05  5.804464E+03 -1.002657E+04
       346  25 -7.811963E+05 -8.907248E+04  5.975330E+04 -3.930269E+05  2.145957E+04 -1.685843E+04
       346  26 -8.688018E+05 -1.087402E+05  4.691491E+04 -4.044994E+05  1.706255E+04 -1.219496E+04
       346  27 -9.388011E+05 -1.466614E+05  3.229173E+04 -4.365620E+05  1.264080E+04 -7.459881E+03
       347   1 -1.205691E+06 -2.446195E+05 -2.448538E+04 -5.100423E+05  2.653410E+03  9.455381E+03
       347   2 -1.135702E+06 -2.066526E+05 -6.991936E+03 -4.779454E+05  5.446672E+03  4.075250E+03
       347   3 -1.047787E+06 -1.867242E+05  9.993208E+03 -4.664747E+05  8.241308E+03 -1.308844E+03
       347   4 -1.100491E+06 -2.060607E+05 -2.112785E+03 -4.810607E+05 -4.170317E+03  6.893742E+03
       347   5 -1.109451E+06 -1.970459E+05 -1.351578E+03 -4.707440E+05 -1.382238E+03  1.511743E+03
       347   6 -1.100490E+06 -2.060697E+05 -1.095022E+03 -4.810564E+05  1.407110E+03 -3.874224E+03
       347   7 -9.952798E+05 -1.675007E+05  2.025960E+04 -4.520743E+05 -1.099534E+04  4.331619E+03
       347   8 -1.083198E+06 -1.874391E+05  4.288967E+03 -4.635422E+05 -8.211486E+03 -1.051889E+03
       347   9 -1.153191E+06 -2.254151E+05 -1.218321E+04 -4.956369E+05 -5.426463E+03 -6.439371E+03
       347  10 -1.205691E+06 -2.446196E+05 -2.448557E+04 -5.100423E+05  3.408014E-10 -2.088179E-11
       347  11 -1.135702E+06 -2.066527E+05 -6.992023E+03 -4.779454E+05  6.196157E-10 -2.700138E-10
       347  12 -1.047787E+06 -1.867242E+05  9.993077E+03 -4.664746E+05  3.001856E-10 -4.349205E-10
       347  13 -1.100491E+06 -2.060608E+05 -2.112907E+03 -4.810607E+05  2.209880E-10  2.458634E-10
       347  14 -1.109451E+06 -1.970459E+05 -1.351586E+03 -4.707440E+05  1.397598E-09 -3.312572E-10
       347  15 -1.100490E+06 -2.060698E+05 -1.095053E+03 -4.810564E+05 -1.256763E-09  2.818114E-10
       347  16 -9.952799E+05 -1.675007E+05  2.025934E+04 -4.520743E+05 -7.535065E-10  2.773648E-10
       347  17 -1.083198E+06 -1.874391E+05  4.288838E+03 -4.635422E+05 -6.101450E-10  4.783726E-10
       347  18 -1.153191E+06 -2.254151E+05 -1.218334E+04 -4.956370E+05  4.226631E-10 -4.460815E-10
       347  19 -1.205691E+06 -2.446195E+05 -2.448538E+04 -5.100423E+05 -2.653410E+03 -9.455381E+03
       347  20 -1.135702E+06 -2.066526E+05 -6.991936E+03 -4.779454E+05 -5.446672E+03 -4.075250E+03
       347  21 -1.047787E+06 -1.867242E+05  9.993208E+03 -4.664747E+05 -8.241308E+03  1.308844E+03
       347  22 -1.100491E+06 -2.060607E+05 -2.112785E+03 -4.810607E+05  4.170317E+03 -6.893742E+03
       347  23 -1.109451E+06 -1.970459E+05 -1.351578E+03 -4.707440E+05  1.382238E+03 -1.511743E+03
       347  24 -1.100490E+06 -2.060697E+05 -1.095022E+03 -4.810564E+05 -1.407110E+03  3.874224E+03
       347  25 -9.952798E+05 -1.675007E+05  2.025960E+04 -4.520743E+05  1.099534E+04 -4.331619E+03
       347  26 -1.083198E+06 -1.874391E+05  4.288967E+03 -4.635422E+05  8.211486E+03  1.051889E+03
       347  27 -1.153191E+06 -2.254151E+05 -1.218321E+04 -4.956369E+05  5.426463E+03  6.439371E+03
       348   1 -9.912671E+05 -1.658605E+05  2.262800E+04 -4.509008E+05  9.655602E+03 -4.523033E+03
       348   2 -9.213571E+05 -1.279338E+05  3.898329E+04 -4.188323E+05  1.248870E+04 -9.886416E+03
       348   3 -8.335415E+05 -1.080243E+05  5.480187E+04 -4.073636E+05  1.531937E+04 -1.523978E+04
       348   4 -1.100498E+06 -2.060670E+05 -1.114894E+03 -4.810510E+05  2.823477E+03 -7.087825E+03
       348   5 -1.109452E+06 -1.970630E+05 -1.465218E+03 -4.707496E+05  5.667759E+03 -1.244776E+04
       348   6 -1.100509E+06 -2.060792E+05 -2.361065E+03 -4.810506E+05  8.509525E+03 -1.779772E+04
       348   7 -1.209716E+06 -2.462723E+05 -2.485808E+04 -5.111961E+05 -4.007300E+03 -9.652111E+03
       348   8 -1.297511E+06 -2.661894E+05 -4.191558E+04 -5.226523E+05 -1.150947E+03 -1.500827E+04
       348   9 -1.367406E+06 -3.041290E+05 -5.952840E+04 -5.547090E+05  1.702796E+03 -2.035449E+04
       348  10 -9.912672E+05 -1.658606E+05  2.262778E+04 -4.509008E+05 -1.206192E-09 -2.703269E-10
       348  11 -9.213573E+05 -1.279340E+05  3.898281E+04 -4.188322E+05 -4.724807E-10 -9.519177E-11
       348  12 -8.335418E+05 -1.080246E+05  5.480099E+04 -4.073634E+05 -1.434029E-09  3.574854E-10
       348  13 -1.100498E+06 -2.060671E+05 -1.115003E+03 -4.810510E+05 -9.745833E-10  3.194058E-11
       348  14 -1.109452E+06 -1.970632E+05 -1.465569E+03 -4.707495E+05 -8.010568E-10  2.348882E-11
       348  15 -1.100509E+06 -2.060795E+05 -2.361796E+03 -4.810505E+05 -4.910709E-10  1.014017E-09
       348  16 -1.209716E+06 -2.462724E+05 -2.485829E+04 -5.111961E+05  1.362603E-09 -6.533370E-10
       348  17 -1.297511E+06 -2.661896E+05 -4.191600E+04 -5.226523E+05  3.794804E-10  4.675826E-10
       348  18 -1.367406E+06 -3.041294E+05 -5.952919E+04 -5.547089E+05  2.500429E-10  2.177914E-09
       348  19 -9.912671E+05 -1.658605E+05  2.262800E+04 -4.509008E+05 -9.655602E+03  4.523033E+03
       348  20 -9.213571E+05 -1.279338E+05  3.898329E+04 -4.188323E+05 -1.248870E+04  9.886416E+03
       348  21 -8.335415E+05 -1.080243E+05  5.480187E+04 -4.073636E+05 -1.531937E+04  1.523978E+04
       348  22 -1.100498E+06 -2.060670E+05 -1.114894E+03 -4.810510E+05 -2.823477E+03  7.087825E+03
       348  23 -1.109452E+06 -1.970630E+05 -1.465218E+03 -4.707496E+05 -5.667759E+03  1.244776E+04
       348  24 -1.100509E+06 -2.060792E+05 -2.361065E+03 -4.810506E+05 -8.509525E+03  1.779772E+04
       348  25 -1.209716E+06 -2.462723E+05 -2.485808E+04 -5.111961E+05  4.007300E+03  9.652111E+03
       348  26 -1.297511E+06 -2.661894E+05 -4.191558E+04 -5.226523E+05  1.150947E+03  1.500827E+04
       348  27 -1.367406E+06 -3.041290E+05 -5.952840E+04 -5.547090E+05 -1.702796E+03  2.035449E+04
       349   1 -7.772233E+05 -8.722720E+04  6.670744E+04 -3.918752E+05  1.700932E+04 -1.834208E+04
       349   2 -7.074786E+05 -4.942944E+04  8.097318E+04 -3.599031E+05  2.172057E+04 -2.294010E+04
       349   3 -6.202240E+05 -2.986006E+04  9.322843E+04 -3.484418E+05  2.640113E+04 -2.744843E+04
       349   4 -1.100599E+06 -2.060582E+05 -3.071710E+03 -4.810615E+05  1.019036E+04 -2.090416E+04
       349   5 -1.109370E+06 -1.970564E+05 -5.456298E+03 -4.707632E+05  1.500753E+04 -2.546400E+04
       349   6 -1.100658E+06 -2.063056E+05 -9.936144E+03 -4.809792E+05  1.979364E+04 -2.993421E+04
       349   7 -1.423867E+06 -3.248809E+05 -7.285675E+04 -5.702050E+05  3.375248E+03 -2.346480E+04
       349   8 -1.511095E+06 -3.446699E+05 -9.189452E+04 -5.815569E+05  8.299224E+03 -2.798613E+04
       349   9 -1.580853E+06 -3.827314E+05 -1.131129E+05 -6.134213E+05  1.319172E+04 -3.241791E+04
       349  10 -7.772237E+05 -8.722764E+04  6.670627E+04 -3.918749E+05 -3.730864E-10  1.272750E-09
       349  11 -7.074793E+05 -4.943013E+04  8.097130E+04 -3.599027E+05 -6.747522E-10  1.179984E-09
       349  12 -6.202250E+05 -2.986105E+04  9.322571E+04 -3.484412E+05 -8.371846E-11 -5.258760E-10
       349  13 -1.100599E+06 -2.060587E+05 -3.072726E+03 -4.810613E+05 -7.777774E-10  1.756916E-09
       349  14 -1.109370E+06 -1.970572E+05 -5.457939E+03 -4.707629E+05 -1.982263E-10  1.384927E-09
       349  15 -1.100658E+06 -2.063067E+05 -9.938563E+03 -4.809787E+05  1.751077E-10  8.370820E-11
       349  16 -1.423868E+06 -3.248815E+05 -7.285780E+04 -5.702050E+05 -1.035113E-09  2.021319E-09
       349  17 -1.511095E+06 -3.446708E+05 -9.189612E+04 -5.815567E+05  8.225390E-10  1.026423E-09
       349  18 -1.580853E+06 -3.827325E+05 -1.131152E+05 -6.134210E+05 -5.291192E-10  1.043660E-09
       349  19 -7.772233E+05 -8.722720E+04  6.670744E+04 -3.918752E+05 -1.700932E+04  1.834208E+04
       349  20 -7.074786E+05 -4.942944E+04  8.097318E+04 -3.599031E+05 -2.172057E+04  2.294010E+04
       349  21 -6.202240E+05 -2.986006E+04  9.322843E+04 -3.484418E+05 -2.640113E+04  2.744843E+04
       349  22 -1.100599E+06 -2.060582E+05 -3.071710E+03 -4.810615E+05 -1.019036E+04  2.090416E+04
       349  23 -1.109370E+06 -1.970564E+05 -5.456298E+03 -4.707632E+05 -1.500753E+04  2.546400E+04
       349  24 -1.100658E+06 -2.063056E+05 -9.936144E+03 -4.809792E+05 -1.979364E+04  2.993421E+04
       349  25 -1.423867E+06 -3.248809E+05 -7.285675E+04 -5.702050E+05 -3.375248E+03  2.346480E+04
       349  26 -1.511095E+06 -3.446699E+05 -9.189452E+04 -5.815569E+05 -8.299224E+03  2.798613E+04
       349  27 -1.580853E+06 -3.827314E+05 -1.131129E+05 -6.134213E+05 -1.319172E+04  3.241791E+04
       350   1 -5.639212E+05 -9.501227E+03  1.024997E+05 -3.342395E+05  2.982185E+04 -2.993275E+04
       350   2 -4.951210E+05  2.906974E+04  1.086899E+05 -3.000899E+05  4.204952E+04 -3.104346E+04
       350   3 -4.121943E+05  4.353989E+04  1.055041E+05 -2.849532E+05  5.374734E+04 -3.073204E+04
       350   4 -1.101233E+06 -2.058520E+05 -1.317229E+04 -4.813398E+05  2.289103E+04 -3.254126E+04
       350   5 -1.108682E+06 -1.974401E+05 -2.394564E+04 -4.704069E+05  3.682975E+04 -3.301092E+04
       350   6 -1.102355E+06 -2.134765E+05 -4.546076E+04 -4.784919E+05  5.023697E+04 -3.205828E+04
       350   7 -1.638254E+06 -4.021820E+05 -1.288619E+05 -6.283244E+05  1.596663E+04 -3.514739E+04
       350   8 -1.721862E+06 -4.239200E+05 -1.566037E+05 -6.405695E+05  3.161554E+04 -3.497628E+04
       350   9 -1.792033E+06 -4.704524E+05 -1.964542E+05 -6.718319E+05  4.673080E+04 -3.338290E+04
       350  10 -5.639224E+05 -9.502427E+03  1.024963E+05 -3.342388E+05 -1.533302E-09 -7.399496E-10
       350  11 -4.951232E+05  2.906823E+04  1.086848E+05 -3.000888E+05 -9.085958E-10 -4.039758E-10
       350  12 -4.121977E+05  4.353810E+04  1.054969E+05 -2.849518E+05 -8.775584E-10 -5.200190E-10
       350  13 -1.101234E+06 -2.058533E+05 -1.317526E+04 -4.813392E+05  1.176803E-09 -2.572651E-10
       350  14 -1.108684E+06 -1.974416E+05 -2.395023E+04 -4.704059E+05 -7.893626E-10  1.520623E-09
       350  15 -1.102358E+06 -2.134783E+05 -4.546743E+04 -4.784906E+05  5.543447E-10 -2.115215E-09
       350  16 -1.638255E+06 -4.021834E+05 -1.288647E+05 -6.283240E+05  1.363340E-09  1.768994E-09
       350  17 -1.721863E+06 -4.239215E+05 -1.566079E+05 -6.405686E+05  1.248409E-10  6.676261E-10
       350  18 -1.792035E+06 -4.704541E+05 -1.964604E+05 -6.718306E+05  9.506555E-12  6.928585E-10
       350  19 -5.639212E+05 -9.501227E+03  1.024997E+05 -3.342395E+05 -2.982185E+04  2.993275E+04
       350  20 -4.951210E+05  2.906974E+04  1.086899E+05 -3.000899E+05 -4.204952E+04  3.104346E+04
       350  21 -4.121943E+05  4.353989E+04  1.055041E+05 -2.849532E+05 -5.374734E+04  3.073204E+04
       350  22 -1.101233E+06 -2.058520E+05 -1.317229E+04 -4.813398E+05 -2.289103E+04  3.254126E+04
       350  23 -1.108682E+06 -1.974401E+05 -2.394564E+04 -4.704069E+05 -3.682975E+04  3.301092E+04
       350  24 -1.102355E+06 -2.134765E+05 -4.546076E+04 -4.784919E+05 -5.023697E+04  3.205828E+04
       350  25 -1.638254E+06 -4.021820E+05 -1.288619E+05 -6.283244E+05 -1.596663E+04  3.514739E+04
       350  26 -1.721862E+06 -4.239200E+05 -1.566037E+05 -6.405695E+05 -3.161554E+04  3.497628E+04
       350  27 -1.792033E+06 -4.704524E+05 -1.964542E+05 -6.718319E+05 -4.673080E+04  3.338290E+04
       351   1 -3.452954E+05  5.712267E+04  1.040184E+05 -2.974219E+05  6.843619E+04 -2.996509E+04
       351   2 -3.064619E+05  1.215851E+05  7.961423E+04 -1.990306E+05  9.285909E+04 -1.523853E+04
       351   3 -3.087382E+05  2.547353E+04 -3.846140E+03 -8.147037E+04  1.076542E+05  2.503988E+04
       351   4 -1.109898E+06 -2.025663E+05 -5.876808E+04 -4.860346E+05  5.876837E+04 -3.360816E+04
       351   5 -1.099659E+06 -2.132030E+05 -1.080829E+05 -4.602281E+05  1.141190E+05 -7.241835E+03
       351   6 -1.136754E+06 -3.906901E+05 -2.410548E+05 -4.152401E+05  1.598301E+05  4.468431E+04
       351   7 -1.873907E+06 -4.622298E+05 -2.215869E+05 -6.744430E+05  4.911344E+04 -3.724727E+04
       351   8 -1.892206E+06 -5.478841E+05 -2.958193E+05 -7.210975E+05  1.353492E+05  7.401273E+02
       351   9 -1.964049E+06 -8.066234E+05 -4.783096E+05 -7.485443E+05  2.119288E+05  6.427752E+04
       351  10 -3.453006E+05  5.712045E+04  1.040080E+05 -2.974203E+05 -1.244636E-09 -8.821185E-10
       351  11 -3.064713E+05  1.215826E+05  7.959759E+04 -1.990295E+05 -6.264703E-10  1.367670E-09
       351  12 -3.087508E+05  2.546975E+04 -3.869109E+03 -8.147254E+04  1.364473E-09  4.981417E-10
       351  13 -1.109902E+06 -2.025685E+05 -5.877670E+04 -4.860330E+05  5.822459E-10 -1.212009E-09
       351  14 -1.099673E+06 -2.132066E+05 -1.081075E+05 -4.602275E+05  1.613381E-09  2.160173E-09
       351  15 -1.136782E+06 -3.906992E+05 -2.411067E+05 -4.152458E+05 -1.483342E-09  2.307150E-09
       351  16 -1.873910E+06 -4.622320E+05 -2.215941E+05 -6.744415E+05  1.791978E-09  1.177786E-09
       351  17 -1.892225E+06 -5.478890E+05 -2.958538E+05 -7.210976E+05 -1.318951E-09  2.944173E-09
       351  18 -1.964099E+06 -8.066400E+05 -4.784021E+05 -7.485553E+05 -1.470077E-09  9.248576E-10
       351  19 -3.452954E+05  5.712267E+04  1.040184E+05 -2.974219E+05 -6.843619E+04  2.996509E+04
       351  20 -3.064619E+05  1.215851E+05  7.961423E+04 -1.990306E+05 -9.285909E+04  1.523853E+04
       351  21 -3.087382E+05  2.547353E+04 -3.846140E+03 -8.147037E+04 -1.076542E+05 -2.503988E+04
       351  22 -1.109898E+06 -2.025663E+05 -5.876808E+04 -4.860346E+05 -5.876837E+04  3.360816E+04
       351  23 -1.099659E+06 -2.132030E+05 -1.080829E+05 -4.602281E+05 -1.141190E+05  7.241835E+03
       351  24 -1.136754E+06 -3.906901E+05 -2.410548E+05 -4.152401E+05 -1.598301E+05 -4.468431E+04
       351  25 -1.873907E+06 -4.622298E+05 -2.215869E+05 -6.744430E+05 -4.911344E+04  3.724727E+04
       351  26 -1.892206E+06 -5.478841E+05 -2.958193E+05 -7.210975E+05 -1.353492E+05 -7.401273E+02
       351  27 -1.964049E+06 -8.066234E+05 -4.783096E+05 -7.485443E+05 -2.119288E+05 -6.427752E+04
       352   1  2.457348E+05  5.929250E+04  3.431945E+04 -2.317433E+04 -5.738378E+04 -9.774749E+03
       352   2  2.082071E+05  1.490953E+05  7.681818E+04  5.517476E+03 -4.508080E+04 -3.124889E+04
       352   3  1.463245E+05  1.477922E+05  8.857247E+04  5.035481E+04 -3.281924E+04 -3.462409E+04
       352   4 -4.476453E+05 -1.123633E+05 -1.320392E+05  3.489760E+04 -9.104972E+04 -9.856795E+03
       352   5 -4.336965E+05 -6.789542E+03 -6.126754E+04  2.668285E+04 -5.878866E+04 -3.128615E+04
       352   6 -4.476016E+05  4.155707E+03 -3.512942E+04  3.461616E+04 -2.656705E+04 -3.460956E+04
       352   7 -1.140575E+06 -2.840405E+05 -2.984258E+05  9.290419E+04 -1.246782E+05 -9.945190E+03
       352   8 -1.075211E+06 -1.626996E+05 -1.993765E+05  4.782581E+04 -7.248253E+04 -3.132437E+04
       352   9 -1.041193E+06 -1.395024E+05 -1.588505E+05  1.889260E+04 -2.032072E+04 -3.459534E+04
       352  10  2.457312E+05  5.929152E+04  3.431309E+04 -2.317478E+04  2.346861E-09 -6.281618E-10
       352  11  2.082046E+05  1.490937E+05  7.681253E+04  5.516341E+03  1.417400E-09 -4.565590E-09
       352  12  1.463230E+05  1.477906E+05  8.856819E+04  5.035389E+04  1.729425E-09 -3.886876E-09
       352  13 -4.476542E+05 -1.123656E+05 -1.320549E+05  3.489688E+04  1.032395E-09  1.278833E-09
       352  14 -4.337005E+05 -6.791522E+03 -6.127588E+04  2.668137E+04 -3.152183E-09 -2.372102E-09
       352  15 -4.476026E+05  4.154231E+03 -3.513299E+04  3.461542E+04 -5.391822E-10  5.397191E-10
       352  16 -1.140592E+06 -2.840448E+05 -2.984552E+05  9.290319E+04 -2.240529E-09  9.926185E-10
       352  17 -1.075217E+06 -1.627021E+05 -1.993882E+05  4.782398E+04 -1.447184E-09 -6.330180E-09
       352  18 -1.041194E+06 -1.395038E+05 -1.588535E+05  1.889203E+04 -2.169305E-09 -6.979948E-09
       352  19  2.457348E+05  5.929250E+04  3.431945E+04 -2.317433E+04  5.738378E+04  9.774749E+03
       352  20  2.082071E+05  1.490953E+05  7.681818E+04  5.517476E+03  4.508080E+04  3.124889E+04
       352  21  1.463245E+05  1.477922E+05  8.857247E+04  5.035481E+04  3.281924E+04  3.462409E+04
       352  22 -4.476453E+05 -1.123633E+05 -1.320392E+05  3.489760E+04  9.104972E+04  9.856795E+03
       352  23 -4.336965E+05 -6.789542E+03 -6.126754E+04  2.668285E+04  5.878866E+04  3.128615E+04
       352  24 -4.476016E+05  4.155707E+03 -3.512942E+04  3.461616E+04  2.656705E+04  3.460956E+04
       352  25 -1.140575E+06 -2.840405E+05 -2.984258E+05  9.290419E+04  1.246782E+05  9.945190E+03
       352  26 -1.075211E+06 -1.626996E+05 -1.993765E+05  4.782581E+04  7.248253E+04  3.132437E+04
       352  27 -1.041193E+06 -1.395024E+05 -1.588505E+05  1.889260E+04  2.032072E+04  3.459534E+04
       353   1  1.147901E+05  1.299477E+05  8.879467E+04  3.442224E+04 -2.336131E+04 -3.180847E+04
       353   2  6.612084E+04  1.225151E+05  9.017980E+04  2.714354E+04 -1.680910E+04 -2.989213E+04
       353   3  1.550802E+04  1.109386E+05  8.625198E+04  3.688617E+04 -1.026124E+04 -2.705981E+04
       353   4 -4.418783E+05 -4.671521E+03 -2.757849E+04  3.488091E+04 -2.175724E+04 -3.180639E+04
       353   5 -4.408082E+05  4.736430E+01 -1.512732E+04  2.636249E+04 -1.419979E+04 -2.988663E+04
       353   6 -4.418601E+05  4.457429E+02 -8.690955E+03  3.486635E+04 -6.646159E+03 -2.705056E+04
       353   7 -9.982536E+05 -1.393106E+05 -1.439688E+05  3.533896E+04 -2.015459E+04 -3.180430E+04
       353   8 -9.474938E+05 -1.224367E+05 -1.204485E+05  2.558192E+04 -1.159258E+04 -2.988113E+04
       353   9 -8.990299E+05 -1.100604E+05 -1.036453E+05  3.284789E+04 -3.033698E+03 -2.704132E+04
       353  10  1.147893E+05  1.299465E+05  8.879174E+04  3.442164E+04 -4.370923E-09 -5.387976E-09
       353  11  6.612029E+04  1.225141E+05  9.017759E+04  2.714314E+04 -3.509227E-09  1.747158E-09
       353  12  1.550771E+04  1.109378E+05  8.625040E+04  3.688595E+04 -1.045608E-09  3.848560E-09
       353  13 -4.418791E+05 -4.672734E+03 -2.758128E+04  3.488035E+04  8.904990E-10 -2.405570E-09
       353  14 -4.408087E+05  4.635118E+01 -1.512938E+04  2.636215E+04 -1.761862E-09  3.195304E-10
       353  15 -4.418603E+05  4.449455E+02 -8.692412E+03  3.486620E+04  1.216435E-11 -1.860387E-09
       353  16 -9.982543E+05 -1.393118E+05 -1.439715E+05  3.533844E+04  3.861869E-09 -1.754666E-11
       353  17 -9.474942E+05 -1.224377E+05 -1.204504E+05  2.558164E+04  1.653873E-09  2.303682E-09
       353  18 -8.990301E+05 -1.100612E+05 -1.036467E+05  3.284782E+04  6.350305E-11  1.052874E-09
       353  19  1.147901E+05  1.299477E+05  8.879467E+04  3.442224E+04  2.336131E+04  3.180847E+04
       353  20  6.612084E+04  1.225151E+05  9.017980E+04  2.714354E+04  1.680910E+04  2.989213E+04
       353  21  1.550802E+04  1.109386E+05  8.625198E+04  3.688617E+04  1.026124E+04  2.705981E+04
       353  22 -4.418783E+05 -4.671521E+03 -2.757849E+04  3.488091E+04  2.175724E+04  3.180639E+04
       353  23 -4.408082E+05  4.736430E+01 -1.512732E+04  2.636249E+04  1.419979E+04  2.988663E+04
       353  24 -4.418601E+05  4.457429E+02 -8.690955E+03  3.486635E+04  6.646159E+03  2.705056E+04
       353  25 -9.982536E+05 -1.393106E+05 -1.439688E+05  3.533896E+04  2.015459E+04  3.180430E+04
       353  26 -9.474938E+05 -1.224367E+05 -1.204485E+05  2.558192E+04  1.159258E+04  2.988113E+04
       353  27 -8.990299E+05 -1.100604E+05 -1.036453E+05  3.284789E+04  3.033698E+03  2.704132E+04
       354   1 -2.107987E+04  1.015690E+05  8.040909E+04  3.607093E+04 -8.684214E+03 -2.517497E+04
       354   2 -7.073443E+04  8.969875E+04  7.300860E+04  2.737184E+04 -6.866568E+03 -2.208042E+04
       354   3 -1.207473E+05  7.773313E+04  6.437639E+04  3.580320E+04 -5.050458E+03 -1.893612E+04
       354   4 -4.414640E+05  5.733066E+01 -6.638543E+03  3.489430E+04 -5.299075E+03 -2.516595E+04
       354   5 -4.412728E+05  2.051801E+02 -3.797726E+03  2.632847E+04 -3.427770E+03 -2.207062E+04
       354   6 -4.414520E+05  2.482504E+02 -2.226555E+03  3.489370E+04 -1.557859E+03 -1.892550E+04
       354   7 -8.616805E+05 -1.014655E+05 -9.369574E+04  3.371835E+04 -1.916187E+03 -2.515695E+04
       354   8 -8.116810E+05 -8.929710E+04 -8.061148E+04  2.528563E+04  9.011231E+00 -2.206082E+04
       354   9 -7.620591E+05 -7.724317E+04 -6.883508E+04  3.398459E+04  1.932965E+03 -1.891488E+04
       354  10 -2.108012E+04  1.015683E+05  8.040776E+04  3.607076E+04  1.303322E-10  6.919130E-09
       354  11 -7.073461E+04  8.969821E+04  7.300759E+04  2.737172E+04 -7.646859E-09  4.166058E-09
       354  12 -1.207475E+05  7.773274E+04  6.437567E+04  3.580312E+04 -1.108785E-08 -1.569418E-09
       354  13 -4.414642E+05  5.664318E+01 -6.639786E+03  3.489419E+04  1.388535E-09 -2.168695E-09
       354  14 -4.412729E+05  2.046540E+02 -3.798663E+03  2.632841E+04 -1.678794E-09  4.547311E-09
       354  15 -4.414521E+05  2.478652E+02 -2.227232E+03  3.489367E+04  1.004032E-09  5.440966E-09
       354  16 -8.616806E+05 -1.014662E+05 -9.369694E+04  3.371831E+04 -1.542112E-10  3.349516E-09
       354  17 -8.116811E+05 -8.929762E+04 -8.061240E+04  2.528563E+04  7.175757E-09  5.900590E-09
       354  18 -7.620592E+05 -7.724355E+04 -6.883576E+04  3.398462E+04  9.657192E-09  1.418701E-09
       354  19 -2.107987E+04  1.015690E+05  8.040909E+04  3.607093E+04  8.684214E+03  2.517497E+04
       354  20 -7.073443E+04  8.969875E+04  7.300860E+04  2.737184E+04  6.866568E+03  2.208042E+04
       354  21 -1.207473E+05  7.773313E+04  6.437639E+04  3.580320E+04  5.050458E+03  1.893612E+04
       354  22 -4.414640E+05  5.733066E+01 -6.638543E+03  3.489430E+04  5.299075E+03  2.516595E+04
       354  23 -4.412728E+05  2.051801E+02 -3.797726E+03  2.632847E+04  3.427770E+03  2.207062E+04
       354  24 -4.414520E+05  2.482504E+02 -2.226555E+03  3.489370E+04  1.557859E+03  1.892550E+04
       354  25 -8.616805E+05 -1.014655E+05 -9.369574E+04  3.371835E+04  1.916187E+03  2.515695E+04
       354  26 -8.116810E+05 -8.929710E+04 -8.061148E+04  2.528563E+04 -9.011231E+00  2.206082E+04
       354  27 -7.620591E+05 -7.724317E+04 -6.883508E+04  3.398459E+04 -1.932965E+03  1.891488E+04
       355   1 -1.577880E+05  6.871246E+04  5.692182E+04  3.568730E+04 -4.689864E+03 -1.709419E+04
       355   2 -2.076780E+05  5.662388E+04  4.732198E+04  2.694859E+04 -4.159635E+03 -1.393414E+04
       355   3 -2.577383E+05  4.463794E+04  3.737071E+04  3.539125E+04 -3.630264E+03 -1.076937E+04
       355   4 -4.414036E+05  2.370546E+02 -1.730698E+03  3.490515E+04 -1.205978E+03 -1.708328E+04
       355   5 -4.413128E+05  1.926476E+02 -1.103033E+03  2.631427E+04 -6.709179E+02 -1.392281E+04
       355   6 -4.413962E+05  2.499500E+02 -8.304597E+02  3.490512E+04 -1.366750E+02 -1.075761E+04
       355   7 -7.249429E+05 -6.824344E+04 -6.038753E+04  3.412331E+04  2.276344E+03 -1.707237E+04
       355   8 -6.748957E+05 -5.624205E+04 -4.953097E+04  2.568014E+04  2.816508E+03 -1.391148E+04
       355   9 -6.250222E+05 -4.414019E+04 -3.903343E+04  3.441911E+04  3.355897E+03 -1.074586E+04
       355  10 -1.577881E+05  6.871214E+04  5.692123E+04  3.568723E+04  2.136966E-08 -1.718135E-09
       355  11 -2.076781E+05  5.662367E+04  4.732158E+04  2.694855E+04  6.441216E-09  7.670343E-09
       355  12 -2.577383E+05  4.463782E+04  3.737047E+04  3.539122E+04 -6.701388E-09  1.048694E-08
       355  13 -4.414037E+05  2.367409E+02 -1.731249E+03  3.490514E+04  1.149321E-09  8.698931E-12
       355  14 -4.413128E+05  1.924394E+02 -1.103398E+03  2.631426E+04 -2.653926E-09  9.009558E-09
       355  15 -4.413963E+05  2.498257E+02 -8.306772E+02  3.490512E+04 -6.707616E-11  4.332565E-09
       355  16 -7.249430E+05 -6.824376E+04 -6.038809E+04  3.412334E+04 -2.097172E-08  5.017524E-10
       355  17 -6.748958E+05 -5.624226E+04 -4.953135E+04  2.568017E+04 -7.683755E-09  1.256763E-10
       355  18 -6.250222E+05 -4.414031E+04 -3.903367E+04  3.441914E+04  4.917878E-09 -8.367180E-10
       355  19 -1.577880E+05  6.871246E+04  5.692182E+04  3.568730E+04  4.689864E+03  1.709419E+04
       355  20 -2.076780E+05  5.662388E+04  4.732198E+04  2.694859E+04  4.159635E+03  1.393414E+04
       355  21 -2.577383E+05  4.463794E+04  3.737071E+04  3.539125E+04  3.630264E+03  1.076937E+04
       355  22 -4.414036E+05  2.370546E+02 -1.730698E+03  3.490515E+04  1.205978E+03  1.708328E+04
       355  23 -4.413128E+05  1.926476E+02 -1.103033E+03  2.631427E+04  6.709179E+02  1.392281E+04
       355  24 -4.413962E+05  2.499500E+02 -8.304597E+02  3.490512E+04  1.366750E+02  1.075761E+04
       355  25 -7.249429E+05 -6.824344E+04 -6.038753E+04  3.412331E+04 -2.276344E+03  1.707237E+04
       355  26 -6.748957E+05 -5.624205E+04 -4.953097E+04  2.568014E+04 -2.816508E+03  1.391148E+04
       355  27 -6.250222E+05 -4.414019E+04 -3.903343E+04  3.441911E+04 -3.355897E+03  1.074586E+04
       356   1 -2.949045E+05  3.560952E+04  2.943470E+04  3.529626E+04 -3.490300E+03 -8.926048E+03
       356   2 -3.448671E+05  2.349907E+04  1.907690E+04  2.653341E+04 -3.049914E+03 -5.757659E+03
       356   3 -3.950049E+05  1.149532E+04  8.422655E+03  3.498203E+04 -2.609886E+03 -2.589378E+03
       356   4 -4.413942E+05  2.518870E+02 -7.961453E+02  3.491176E+04  4.643311E+00 -8.914110E+03
       356   5 -4.413043E+05  2.044689E+02 -9.125074E+02  2.630594E+04  4.447379E+02 -5.745558E+03
       356   6 -4.413912E+05  2.641282E+02 -1.324884E+03  3.491173E+04  8.845110E+02 -2.577107E+03
       356   7 -5.878634E+05 -3.510710E+04 -3.102811E+04  3.452735E+04  3.498776E+03 -8.902175E+03
       356   8 -5.377327E+05 -2.309071E+04 -2.090237E+04  2.607850E+04  3.938856E+03 -5.733460E+03
       356   9 -4.877755E+05 -1.096719E+04 -1.107250E+04  3.484144E+04  4.378651E+03 -2.564836E+03
       356  10 -2.949046E+05  3.560943E+04  2.943453E+04  3.529623E+04  9.825182E-09  4.656710E-09
       356  11 -3.448671E+05  2.349903E+04  1.907682E+04  2.653340E+04  3.331385E-09  1.663624E-10
       356  12 -3.950049E+05  1.149531E+04  8.422630E+03  3.498202E+04 -9.834119E-10 -2.758526E-09
       356  13 -4.413942E+05  2.518017E+02 -7.962946E+02  3.491176E+04  2.013540E-09  1.232968E-08
       356  14 -4.413043E+05  2.044334E+02 -9.125698E+02  2.630594E+04 -2.536632E-09  2.129521E-09
       356  15 -4.413912E+05  2.641208E+02 -1.324898E+03  3.491173E+04  1.020784E-11 -3.112293E-09
       356  16 -5.878635E+05 -3.510719E+04 -3.102828E+04  3.452737E+04 -9.776789E-09  5.085219E-09
       356  17 -5.377327E+05 -2.309075E+04 -2.090246E+04  2.607852E+04 -4.477115E-09 -1.641707E-09
       356  18 -4.877756E+05 -1.096720E+04 -1.107255E+04  3.484145E+04 -5.935056E-10 -5.029826E-09
       356  19 -2.949045E+05  3.560952E+04  2.943470E+04  3.529626E+04  3.490300E+03  8.926048E+03
       356  20 -3.448671E+05  2.349907E+04  1.907690E+04  2.653341E+04  3.049914E+03  5.757659E+03
       356  21 -3.950049E+05  1.149532E+04  8.422655E+03  3.498203E+04  2.609886E+03  2.589378E+03
       356  22 -4.413942E+05  2.518870E+02 -7.961453E+02  3.491176E+04 -4.643311E+00  8.914110E+03
       356  23 -4.413043E+05  2.044689E+02 -9.125074E+02  2.630594E+04 -4.447379E+02  5.745558E+03
       356  24 -4.413912E+05  2.641282E+02 -1.324884E+03  3.491173E+04 -8.845110E+02  2.577107E+03
       356  25 -5.878634E+05 -3.510710E+04 -3.102811E+04  3.452735E+04 -3.498776E+03  8.902175E+03
       356  26 -5.377327E+05 -2.309071E+04 -2.090237E+04  2.607850E+04 -3.938856E+03  5.733460E+03
       356  27 -4.877755E+05 -1.096719E+04 -1.107250E+04  3.484144E+04 -4.378651E+03  2.564836E+03
       357   1 -4.322381E+05  2.467273E+03  9.735142E+01  3.485024E+04 -2.351932E+03 -7.426320E+02
       357   2 -4.821278E+05 -9.639998E+03 -1.127610E+04  2.607757E+04 -9.509613E+02  2.422640E+03
       357   3 -5.323579E+05 -2.179217E+04 -2.361036E+04  3.451940E+04  4.501206E+02  5.562842E+03
       357   4 -4.414266E+05  2.752110E+02 -1.672992E+03  3.491221E+04  1.148980E+03 -7.303082E+02
       357   5 -4.412585E+05  2.354334E+02 -2.796780E+03  2.630521E+04  2.522253E+03  2.434791E+03
       357   6 -4.414283E+05  1.557425E+02 -4.861987E+03  3.491264E+04  3.895747E+03  5.574830E+03
       357   7 -4.506151E+05 -1.916849E+03 -3.443294E+03  3.497417E+04  4.649842E+03 -7.179837E+02
       357   8 -4.003876E+05  1.011077E+04  5.682492E+03  2.653287E+04  5.995692E+03  2.446945E+03
       357   9 -3.504907E+05  2.210314E+04  1.388599E+04  3.530594E+04  7.341869E+03  5.586823E+03
       357  10 -4.322381E+05  2.467270E+03  9.733999E+01  3.485024E+04 -1.938933E-09  3.734824E-09
       357  11 -4.821278E+05 -9.640005E+03 -1.127611E+04  2.607757E+04 -2.162115E-09  1.066178E-09
       357  12 -5.323579E+05 -2.179220E+04 -2.361042E+04  3.451940E+04 -2.344643E-09  1.736474E-09
       357  13 -4.414266E+05  2.752100E+02 -1.672996E+03  3.491221E+04  1.853884E-09 -2.902867E-10
       357  14 -4.412585E+05  2.354253E+02 -2.796803E+03  2.630521E+04 -1.862071E-09  3.624303E-09
       357  15 -4.414283E+05  1.557051E+02 -4.862074E+03  3.491263E+04 -8.530504E-10  3.135233E-09
       357  16 -4.506151E+05 -1.916855E+03 -3.443336E+03  3.497418E+04  2.580799E-09  2.149232E-09
       357  17 -4.003876E+05  1.011075E+04  5.682413E+03  2.653286E+04  2.437850E-09 -9.077514E-09
       357  18 -3.504908E+05  2.210309E+04  1.388583E+04  3.530591E+04  4.350704E-10 -1.738090E-10
       357  19 -4.322381E+05  2.467273E+03  9.735142E+01  3.485024E+04  2.351932E+03  7.426320E+02
       357  20 -4.821278E+05 -9.639998E+03 -1.127610E+04  2.607757E+04  9.509613E+02 -2.422640E+03
       357  21 -5.323579E+05 -2.179217E+04 -2.361036E+04  3.451940E+04 -4.501206E+02 -5.562842E+03
       357  22 -4.414266E+05  2.752110E+02 -1.672992E+03  3.491221E+04 -1.148980E+03  7.303082E+02
       357  23 -4.412585E+05  2.354334E+02 -2.796780E+03  2.630521E+04 -2.522253E+03 -2.434791E+03
       357  24 -4.414283E+05  1.557425E+02 -4.861987E+03  3.491264E+04 -3.895747E+03 -5.574830E+03
       357  25 -4.506151E+05 -1.916849E+03 -3.443294E+03  3.497417E+04 -4.649842E+03  7.179837E+02
       357  26 -4.003876E+05  1.011077E+04  5.682492E+03  2.653287E+04 -5.995692E+03 -2.446945E+03
       357  27 -3.504907E+05  2.210314E+04  1.388599E+04  3.530594E+04 -7.341869E+03 -5.586823E+03
       358   1 -5.698370E+05 -3.054564E+04 -3.306631E+04  3.384201E+04  1.308214E+03  7.436028E+03
       358   2 -6.189879E+05 -4.291032E+04 -4.810610E+04  2.607805E+04  7.362992E+03  1.044639E+04
       358   3 -6.698663E+05 -5.848661E+04 -6.792760E+04  3.549292E+04  1.341937E+04  1.296346E+04
       358   4 -4.417183E+05  4.418697E+02 -6.357929E+03  3.490138E+04  4.878990E+03  7.448339E+03
       358   5 -4.409043E+05  1.394852E+02 -1.104816E+04  2.631846E+04  1.039090E+04  1.045653E+04
       358   6 -4.417259E+05 -3.279544E+03 -2.014186E+04  3.491414E+04  1.590490E+04  1.297148E+04
       358   7 -3.135841E+05  3.142834E+04  2.034960E+04  3.596096E+04  8.450491E+03  7.460660E+03
       358   8 -2.627907E+05  4.318727E+04  2.600808E+04  2.655891E+04  1.341967E+04  1.046666E+04
       358   9 -2.135362E+05  5.192419E+04  2.764101E+04  3.433509E+04  1.839134E+04  1.297949E+04
       358  10 -5.698370E+05 -3.054570E+04 -3.306642E+04  3.384200E+04 -1.927158E-09  9.091325E-09
       358  11 -6.189880E+05 -4.291045E+04 -4.810641E+04  2.607799E+04 -3.555842E-10  1.895814E-09
       358  12 -6.698665E+05 -5.848684E+04 -6.792825E+04  3.549278E+04  4.125371E-09  4.454286E-09
       358  13 -4.417184E+05  4.418037E+02 -6.358078E+03  3.490135E+04  1.283422E-09  5.094896E-09
       358  14 -4.409045E+05  1.393388E+02 -1.104856E+04  2.631837E+04 -1.829647E-09  4.227574E-09
       358  15 -4.417262E+05 -3.279792E+03 -2.014265E+04  3.491397E+04  1.102580E-09  1.961263E-09
       358  16 -3.135842E+05  3.142826E+04  2.034936E+04  3.596091E+04  2.231621E-09  3.516709E-09
       358  17 -2.627910E+05  4.318711E+04  2.600754E+04  2.655879E+04 -1.139314E-10  2.160908E-09
       358  18 -2.135366E+05  5.192392E+04  2.764006E+04  3.433490E+04 -5.083402E-09 -5.394134E-09
       358  19 -5.698370E+05 -3.054564E+04 -3.306631E+04  3.384201E+04 -1.308214E+03 -7.436028E+03
       358  20 -6.189879E+05 -4.291032E+04 -4.810610E+04  2.607805E+04 -7.362992E+03 -1.044639E+04
       358  21 -6.698663E+05 -5.848661E+04 -6.792760E+04  3.549292E+04 -1.341937E+04 -1.296346E+04
       358  22 -4.417183E+05  4.418697E+02 -6.357929E+03  3.490138E+04 -4.878990E+03 -7.448339E+03
       358  23 -4.409043E+05  1.394852E+02 -1.104816E+04  2.631846E+04 -1.039090E+04 -1.045653E+04
       358  24 -4.417259E+05 -3.279544E+03 -2.014186E+04  3.491414E+04 -1.590490E+04 -1.297148E+04
       358  25 -3.135841E+05  3.142834E+04  2.034960E+04  3.596096E+04 -8.450491E+03 -7.460660E+03
       358  26 -2.627907E+05  4.318727E+04  2.600808E+04  2.655891E+04 -1.341967E+04 -1.046666E+04
       358  27 -2.135362E+05  5.192419E+04  2.764101E+04  3.433509E+04 -1.839134E+04 -1.297949E+04
       359   1 -7.113788E+05 -6.113529E+04 -8.110284E+04  2.345424E+04  1.442149E+04  1.533008E+04
       359   2 -7.503761E+05 -8.128858E+04 -1.127112E+05  4.203612E+04  4.871350E+04  1.507864E+04
       359   3 -8.117020E+05 -1.724171E+05 -1.844277E+05  7.740510E+04  8.303320E+04  5.053027E+03
       359   4 -4.459073E+05  3.170805E+03 -2.565575E+04  3.475932E+04  1.941527E+04  1.534651E+04
       359   5 -4.356976E+05 -4.839398E+03 -4.473589E+04  2.650226E+04  4.293426E+04  1.505802E+04
       359   6 -4.459355E+05 -8.193554E+04 -9.642628E+04  3.503422E+04  6.648411E+04  4.994627E+03
       359   7 -1.803687E+05  6.747286E+04  2.978759E+04  4.606927E+04  2.441115E+04  1.536312E+04
       359   8 -1.209254E+05  7.160422E+04  2.323386E+04  1.096033E+04  3.715212E+04  1.503770E+04
       359   9 -8.004183E+04  8.543291E+03 -8.432350E+03 -7.361830E+03  4.992529E+04  4.938508E+03
       359  10 -7.113791E+05 -6.113559E+04 -8.110367E+04  2.345406E+04 -8.374857E-10  2.819728E-09
       359  11 -7.503788E+05 -8.128946E+04 -1.127161E+05  4.203553E+04 -1.107778E-10 -1.175989E-09
       359  12 -8.117095E+05 -1.724190E+05 -1.844407E+05  7.740476E+04  9.840842E-10 -1.264528E-09
       359  13 -4.459077E+05  3.170450E+03 -2.565690E+04  3.475908E+04  1.985364E-09  7.897645E-09
       359  14 -4.356997E+05 -4.840137E+03 -4.473978E+04  2.650174E+04 -5.948772E-10 -8.255715E-09
       359  15 -4.459403E+05 -8.193676E+04 -9.643464E+04  3.503395E+04  9.688962E-11  3.928882E-09
       359  16 -1.803694E+05  6.747244E+04  2.978603E+04  4.606897E+04  1.358926E-09  2.276663E-09
       359  17 -1.209269E+05  7.160361E+04  2.323085E+04  1.095988E+04  2.046259E-11  3.384936E-09
       359  18 -8.004451E+04  8.542595E+03 -8.437081E+03 -7.362029E+03 -1.703158E-09  3.423869E-11
       359  19 -7.113788E+05 -6.113529E+04 -8.110284E+04  2.345424E+04 -1.442149E+04 -1.533008E+04
       359  20 -7.503761E+05 -8.128858E+04 -1.127112E+05  4.203612E+04 -4.871350E+04 -1.507864E+04
       359  21 -8.117020E+05 -1.724171E+05 -1.844277E+05  7.740510E+04 -8.303320E+04 -5.053027E+03
       359  22 -4.459073E+05  3.170805E+03 -2.565575E+04  3.475932E+04 -1.941527E+04 -1.534651E+04
       359  23 -4.356976E+05 -4.839398E+03 -4.473589E+04  2.650226E+04 -4.293426E+04 -1.505802E+04
       359  24 -4.459355E+05 -8.193554E+04 -9.642628E+04  3.503422E+04 -6.648411E+04 -4.994627E+03
       359  25 -1.803687E+05  6.747286E+04  2.978759E+04  4.606927E+04 -2.441115E+04 -1.536312E+04
       359  26 -1.209254E+05  7.160422E+04  2.323386E+04  1.096033E+04 -3.715212E+04 -1.503770E+04
       359  27 -8.004183E+04  8.543291E+03 -8.432350E+03 -7.361830E+03 -4.992529E+04 -4.938508E+03
       360   1  3.135014E+05  1.597513E+06  3.239455E+05 -2.459279E+05  9.338475E+03  1.047548E+05
       360   2  1.553790E+05  1.318037E+06  1.887075E+05 -1.698126E+05  2.653341E+04  4.853377E+04
       360   3  8.205813E+04  1.066675E+06  1.111304E+05 -1.834248E+05  1.899328E+04 -7.720642E+03
       360   4  9.500499E+04  7.180672E+05  1.112280E+05 -1.943299E+05  9.429997E+03  7.216553E+04
       360   5  6.366914E+03  7.064601E+05  5.513476E+04 -1.495938E+05  2.655061E+04  4.333889E+04
       360   6 -2.165148E+03  7.181978E+05  3.775202E+04 -1.945768E+05  1.893081E+04  1.445429E+04
       360   7 -1.235377E+05 -1.606661E+05 -1.015396E+05 -1.428046E+05  9.516187E+03  3.962214E+04
       360   8 -1.426686E+05  9.523388E+04 -7.846023E+04 -1.293948E+05  2.656749E+04  3.814904E+04
       360   9 -8.639547E+04  3.698366E+05 -3.563127E+04 -2.057224E+05  1.886752E+04  3.661698E+04
       360  10  3.134984E+05  1.597501E+06  3.239247E+05 -2.459287E+05 -2.275410E-10 -2.487606E-09
       360  11  1.553776E+05  1.318034E+06  1.887017E+05 -1.698137E+05 -4.009642E-10 -9.600369E-09
       360  12  8.205772E+04  1.066675E+06  1.111296E+05 -1.834247E+05  1.280341E-09  1.276514E-09
       360  13  9.500349E+04  7.180615E+05  1.112181E+05 -1.943305E+05  1.014521E-09 -2.747020E-09
       360  14  6.365653E+03  7.064579E+05  5.512991E+04 -1.495947E+05  4.801951E-10 -2.805982E-09
       360  15 -2.165589E+03  7.181974E+05  3.775096E+04 -1.945770E+05 -3.837756E-10 -5.443233E-10
       360  16 -1.235382E+05 -1.606678E+05 -1.015427E+05 -1.428049E+05 -3.932936E-10  2.085872E-09
       360  17 -1.426698E+05  9.523212E+04 -7.846429E+04 -1.293957E+05  1.481992E-09  2.109634E-09
       360  18 -8.639621E+04  3.698351E+05 -3.563446E+04 -2.057229E+05 -1.371389E-09 -1.182091E-09
       360  19  3.135014E+05  1.597513E+06  3.239455E+05 -2.459279E+05 -9.338475E+03 -1.047548E+05
       360  20  1.553790E+05  1.318037E+06  1.887075E+05 -1.698126E+05 -2.653341E+04 -4.853377E+04
       360  21  8.205813E+04  1.066675E+06  1.111304E+05 -1.834248E+05 -1.899328E+04  7.720642E+03
       360  22  9.500499E+04  7.180672E+05  1.112280E+05 -1.943299E+05 -9.429997E+03 -7.216553E+04
       360  23  6.366914E+03  7.064601E+05  5.513476E+04 -1.495938E+05 -2.655061E+04 -4.333889E+04
       360  24 -2.165148E+03  7.181978E+05  3.775202E+04 -1.945768E+05 -1.893081E+04 -1.445429E+04
       360  25 -1.235377E+05 -1.606661E+05 -1.015396E+05 -1.428046E+05 -9.516187E+03 -3.962214E+04
       360  26 -1.426686E+05  9.523388E+04 -7.846023E+04 -1.293948E+05 -2.656749E+04 -3.814904E+04
       360  27 -8.639547E+04  3.698366E+05 -3.563127E+04 -2.057224E+05 -1.886752E+04 -3.661698E+04
       361   1  4.125672E+04  8.646749E+05  6.645536E+04 -1.978168E+05  7.832377E+03 -7.538431E+03
       361   2 -2.667468E+04  5.975263E+05  9.265546E+03 -1.489370E+05 -6.623000E+03 -2.376486E+04
       361   3 -8.440704E+04  3.345385E+05 -3.496328E+04 -1.909827E+05 -2.078679E+04 -3.998214E+04
       361   4  4.711067E+03  7.139480E+05  3.441797E+04 -1.947891E+05  7.785538E+03  8.646401E+03
       361   5  9.287777E+02  7.118633E+05  3.301926E+04 -1.493237E+05 -6.667823E+03 -7.905906E+03
       361   6  7.404760E+03  7.139270E+05  4.480819E+04 -1.947813E+05 -2.082968E+04 -2.445572E+04
       361   7 -3.183589E+04  5.632430E+05  2.380273E+03 -1.917621E+05  7.738850E+03  2.482737E+04
       361   8  2.853154E+04  8.262131E+05  5.677321E+04 -1.497104E+05 -6.712661E+03  7.955920E+03
       361   9  9.920748E+04  1.093452E+06  1.245725E+05 -1.985821E+05 -2.087275E+04 -8.919954E+03
       361  10  4.125663E+04  8.646748E+05  6.645514E+04 -1.978168E+05  5.591965E-10 -1.644357E-09
       361  11 -2.667488E+04  5.975257E+05  9.264403E+03 -1.489371E+05  1.237043E-09 -9.517070E-09
       361  12 -8.440793E+04  3.345367E+05 -3.496710E+04 -1.909834E+05 -1.579409E-10  1.425231E-09
       361  13  4.710981E+03  7.139479E+05  3.441772E+04 -1.947891E+05  4.234826E-10 -2.494687E-09
       361  14  9.287132E+02  7.118632E+05  3.301906E+04 -1.493237E+05  2.365117E-09 -2.918493E-09
       361  15  7.404133E+03  7.139263E+05  4.480625E+04 -1.947817E+05  2.646685E-09 -6.238767E-10
       361  16 -3.183611E+04  5.632423E+05  2.379003E+03 -1.917622E+05 -6.120825E-10  1.322016E-09
       361  17  2.853147E+04  8.262130E+05  5.677301E+04 -1.497103E+05 -1.507966E-09  1.332881E-09
       361  18  9.920699E+04  1.093452E+06  1.245715E+05 -1.985823E+05 -3.702146E-11 -9.900378E-10
       361  19  4.125672E+04  8.646749E+05  6.645536E+04 -1.978168E+05 -7.832377E+03  7.538431E+03
       361  20 -2.667468E+04  5.975263E+05  9.265546E+03 -1.489370E+05  6.623000E+03  2.376486E+04
       361  21 -8.440704E+04  3.345385E+05 -3.496328E+04 -1.909827E+05  2.078679E+04  3.998214E+04
       361  22  4.711067E+03  7.139480E+05  3.441797E+04 -1.947891E+05 -7.785538E+03 -8.646401E+03
       361  23  9.287777E+02  7.118633E+05  3.301926E+04 -1.493237E+05  6.667823E+03  7.905906E+03
       361  24  7.404760E+03  7.139270E+05  4.480819E+04 -1.947813E+05  2.082968E+04  2.445572E+04
       361  25 -3.183589E+04  5.632430E+05  2.380273E+03 -1.917621E+05 -7.738850E+03 -2.482737E+04
       361  26  2.853154E+04  8.262131E+05  5.677321E+04 -1.497104E+05  6.712661E+03 -7.955920E+03
       361  27  9.920748E+04  1.093452E+06  1.245725E+05 -1.985821E+05  2.087275E+04  8.919954E+03
       362   1 -1.439567E+05  1.442478E+05 -6.751110E+04 -2.132824E+05 -3.220526E+04 -5.525802E+04
       362   2 -1.945926E+05 -1.374683E+05 -9.581375E+04 -1.171120E+05 -3.781502E+04 -6.700262E+04
       362   3 -1.196209E+05 -3.864654E+05 -8.512900E+04 -1.103892E+05 -1.284236E+04 -7.867562E+04
       362   4 -4.488638E+03  7.215165E+05  5.344983E+04 -1.945378E+05 -3.226843E+04 -3.218205E+04
       362   5  9.998311E+03  7.022001E+05  8.677682E+04 -1.496362E+05 -3.778114E+04 -7.773587E+04
       362   6  1.558556E+05  7.213280E+05  1.825066E+05 -1.941554E+05 -1.272812E+04 -1.232247E+05
       362   7  1.349598E+05  1.299102E+06  1.743944E+05 -1.757752E+05 -3.233018E+04 -9.084973E+03
       362   8  2.145464E+05  1.542532E+06  2.693262E+05 -1.822045E+05 -3.774617E+04 -8.848341E+04
       362   9  4.312693E+05  1.830262E+06  4.500653E+05 -2.780708E+05 -1.260199E+04 -1.678528E+05
       362  10 -1.439587E+05  1.442442E+05 -6.751879E+04 -2.132839E+05  4.564562E-10 -3.230432E-09
       362  11 -1.945954E+05 -1.374735E+05 -9.582488E+04 -1.171141E+05 -3.699705E-10 -9.162961E-09
       362  12 -1.196227E+05 -3.864721E+05 -8.514095E+04 -1.103900E+05 -9.548037E-10  1.161687E-09
       362  13 -4.490034E+03  7.215151E+05  5.344592E+04 -1.945386E+05 -1.714685E-09 -2.757026E-09
       362  14  9.995157E+03  7.021932E+05  8.676280E+04 -1.496386E+05 -1.644104E-10 -2.762106E-09
       362  15  1.558514E+05  7.213117E+05  1.824778E+05 -1.941567E+05 -9.951587E-10 -4.634165E-10
       362  16  1.349586E+05  1.299102E+06  1.743923E+05 -1.757754E+05  4.627154E-10  3.294814E-09
       362  17  2.145428E+05  1.542523E+06  2.693088E+05 -1.822072E+05 -5.382839E-10  2.133880E-09
       362  18  4.312616E+05  1.830232E+06  4.500122E+05 -2.780725E+05 -1.157050E-09 -8.267897E-10
       362  19 -1.439567E+05  1.442478E+05 -6.751110E+04 -2.132824E+05  3.220526E+04  5.525802E+04
       362  20 -1.945926E+05 -1.374683E+05 -9.581375E+04 -1.171120E+05  3.781502E+04  6.700262E+04
       362  21 -1.196209E+05 -3.864654E+05 -8.512900E+04 -1.103892E+05  1.284236E+04  7.867562E+04
       362  22 -4.488638E+03  7.215165E+05  5.344983E+04 -1.945378E+05  3.226843E+04  3.218205E+04
       362  23  9.998311E+03  7.022001E+05  8.677682E+04 -1.496362E+05  3.778114E+04  7.773587E+04
       362  24  1.558556E+05  7.213280E+05  1.825066E+05 -1.941554E+05  1.272812E+04  1.232247E+05
       362  25  1.349598E+05  1.299102E+06  1.743944E+05 -1.757752E+05  3.233018E+04  9.084973E+03
       362  26  2.145464E+05  1.542532E+06  2.693262E+05 -1.822045E+05  3.774617E+04  8.848341E+04
       362  27  4.312693E+05  1.830262E+06  4.500653E+05 -2.780708E+05  1.260199E+04  1.678528E+05
       363   1  6.416562E+05  2.301932E+05  1.332538E+05  2.119589E+05  1.883451E+04 -2.727280E+03
       363   2  6.037958E+05  2.239899E+05  1.177638E+05  1.947181E+05  1.358712E+04 -2.638162E+04
       363   3  5.533097E+05  2.182241E+05  1.086850E+05  1.927596E+05  2.130618E+03 -3.358369E+04
       363   4  5.781917E+04  1.774754E+04 -1.959092E+04  5.967421E+04 -9.293001E+03 -1.334791E+04
       363   5  6.691289E+04  2.681146E+04 -8.652658E+03  4.916702E+04  2.481259E+03 -3.057916E+04
       363   6  6.000301E+04  3.293652E+04 -4.791045E+03  5.394386E+04  8.042598E+03 -3.135151E+04
       363   7 -5.256745E+05 -1.946776E+05 -1.724574E+05 -9.248029E+04 -3.739083E+04 -2.395821E+04
       363   8 -4.696771E+05 -1.703455E+05 -1.350871E+05 -9.626858E+04 -8.614019E+03 -3.477282E+04
       363   9 -4.330591E+05 -1.523307E+05 -1.182830E+05 -8.477038E+04  1.394948E+04 -2.912131E+04
       363  10  6.416558E+05  2.301931E+05  1.332531E+05  2.119590E+05  1.739072E-09 -1.057293E-09
       363  11  6.037954E+05  2.239891E+05  1.177621E+05  1.947184E+05  2.030867E-09 -1.940474E-09
       363  12  5.533093E+05  2.182229E+05  1.086828E+05  1.927597E+05 -9.420619E-10 -5.908727E-09
       363  13  5.781903E+04  1.774733E+04 -1.959141E+04  5.967411E+04  2.359607E-09  2.171453E-09
       363  14  6.691263E+04  2.681045E+04 -8.654427E+03  4.916708E+04  9.617705E-10 -6.245443E-09
       363  15  6.000267E+04  3.293545E+04 -4.793014E+03  5.394406E+04 -2.253835E-09  3.756745E-09
       363  16 -5.256762E+05 -1.946786E+05 -1.724612E+05 -9.248101E+04 -6.232343E-10  4.542797E-10
       363  17 -4.696775E+05 -1.703468E+05 -1.350895E+05 -9.626882E+04 -4.008000E-10 -2.028742E-09
       363  18 -4.330596E+05 -1.523316E+05 -1.182850E+05 -8.477006E+04 -2.913069E-09  8.027706E-11
       363  19  6.416562E+05  2.301932E+05  1.332538E+05  2.119589E+05 -1.883451E+04  2.727280E+03
       363  20  6.037958E+05  2.239899E+05  1.177638E+05  1.947181E+05 -1.358712E+04  2.638162E+04
       363  21  5.533097E+05  2.182241E+05  1.086850E+05  1.927596E+05 -2.130618E+03  3.358369E+04
       363  22  5.781917E+04  1.774754E+04 -1.959092E+04  5.967421E+04  9.293001E+03  1.334791E+04
       363  23  6.691289E+04  2.681146E+04 -8.652658E+03  4.916702E+04 -2.481259E+03  3.057916E+04
       363  24  6.000301E+04  3.293652E+04 -4.791045E+03  5.394386E+04 -8.042598E+03  3.135151E+04
       363  25 -5.256745E+05 -1.946776E+05 -1.724574E+05 -9.248029E+04  3.739083E+04  2.395821E+04
       363  26 -4.696771E+05 -1.703455E+05 -1.350871E+05 -9.626858E+04  8.614019E+03  3.477282E+04
       363  27 -4.330591E+05 -1.523307E+05 -1.182830E+05 -8.477038E+04 -1.394948E+04  2.912131E+04
       364   1  5.234094E+05  2.037555E+05  1.029650E+05  1.829005E+05  6.248294E+03 -2.893290E+04
       364   2  4.876891E+05  1.836730E+05  9.466836E+04  1.652306E+05  5.800567E+03 -2.716359E+04
       364   3  4.407750E+05  1.741115E+05  8.610121E+04  1.602028E+05  5.059886E+03 -2.462333E+04
       364   4  6.047529E+04  3.190642E+04 -3.751306E+03  5.486613E+04  7.606160E+03 -2.842152E+04
       364   5  6.621024E+04  2.709677E+04 -1.960078E+03  4.840657E+04  7.955566E+03 -2.635023E+04
       364   6  6.059190E+04  3.265050E+04 -1.071429E+03  5.458920E+04  8.011940E+03 -2.350772E+04
       364   7 -4.022474E+05 -1.399276E+05 -1.104828E+05 -7.308197E+04  8.962937E+03 -2.791055E+04
       364   8 -3.550921E+05 -1.294663E+05 -9.860071E+04 -6.834536E+04  1.010899E+04 -2.553748E+04
       364   9 -3.194465E+05 -1.087993E+05 -8.825369E+04 -5.096529E+04  1.096203E+04 -2.239285E+04
       364  10  5.234091E+05  2.037546E+05  1.029633E+05  1.829007E+05 -2.378772E-09 -4.692819E-09
       364  11  4.876889E+05  1.836722E+05  9.466691E+04  1.652307E+05 -2.146832E-09  2.495740E-09
       364  12  4.407748E+05  1.741109E+05  8.610002E+04  1.602029E+05 -4.834419E-09 -2.785363E-10
       364  13  6.047501E+04  3.190554E+04 -3.752933E+03  5.486630E+04 -2.718887E-09 -1.055485E-09
       364  14  6.620998E+04  2.709601E+04 -1.961502E+03  4.840674E+04  7.843095E-10 -2.501230E-10
       364  15  6.059169E+04  3.264989E+04 -1.072588E+03  5.458935E+04 -1.580445E-09 -2.060584E-09
       364  16 -4.022477E+05 -1.399285E+05 -1.104844E+05 -7.308177E+04 -2.756130E-09 -2.004167E-09
       364  17 -3.550924E+05 -1.294670E+05 -9.860212E+04 -6.834515E+04  1.931768E-09  4.864783E-11
       364  18 -3.194468E+05 -1.087999E+05 -8.825486E+04 -5.096510E+04  3.552131E-09  3.214650E-09
       364  19  5.234094E+05  2.037555E+05  1.029650E+05  1.829005E+05 -6.248294E+03  2.893290E+04
       364  20  4.876891E+05  1.836730E+05  9.466836E+04  1.652306E+05 -5.800567E+03  2.716359E+04
       364  21  4.407750E+05  1.741115E+05  8.610121E+04  1.602028E+05 -5.059886E+03  2.462333E+04
       364  22  6.047529E+04  3.190642E+04 -3.751306E+03  5.486613E+04 -7.606160E+03  2.842152E+04
       364  23  6.621024E+04  2.709677E+04 -1.960078E+03  4.840657E+04 -7.955566E+03  2.635023E+04
       364  24  6.059190E+04  3.265050E+04 -1.071429E+03  5.458920E+04 -8.011940E+03  2.350772E+04
       364  25 -4.022474E+05 -1.399276E+05 -1.104828E+05 -7.308197E+04 -8.962937E+03  2.791055E+04
       364  26 -3.550921E+05 -1.294663E+05 -9.860071E+04 -6.834536E+04 -1.010899E+04  2.553748E+04
       364  27 -3.194465E+05 -1.087993E+05 -8.825369E+04 -5.096529E+04 -1.096203E+04  2.239285E+04
       365   1  4.093580E+05  1.622353E+05  7.891576E+04  1.514332E+05  4.808256E+03 -2.285374E+04
       365   2  3.737416E+05  1.414924E+05  6.998180E+04  1.337617E+05  3.977965E+03 -2.012303E+04
       365   3  3.270720E+05  1.317745E+05  6.091634E+04  1.286005E+05  3.133228E+03 -1.735726E+04
       365   4  6.063376E+04  3.260434E+04 -8.068000E+02  5.463446E+04  7.545432E+03 -2.181901E+04
       365   5  6.617345E+04  2.712108E+04 -4.277338E+02  4.837159E+04  6.751426E+03 -1.907401E+04
       365   6  6.065020E+04  3.265603E+04 -2.091523E+02  5.461889E+04  5.942980E+03 -1.629392E+04
       365   7 -2.879665E+05 -9.701645E+04 -8.053681E+04 -4.211400E+04  1.028092E+04 -2.078493E+04
       365   8 -2.412999E+05 -8.724294E+04 -7.084352E+04 -3.697990E+04  9.523396E+03 -1.802556E+04
       365   9 -2.057021E+05 -6.645760E+04 -6.133978E+04 -1.933414E+04  8.751440E+03 -1.523106E+04
       365  10  4.093578E+05  1.622348E+05  7.891473E+04  1.514333E+05  8.841656E-10  1.635732E-09
       365  11  3.737415E+05  1.414920E+05  6.998101E+04  1.337618E+05  9.264291E-10  7.216699E-10
       365  12  3.270719E+05  1.317742E+05  6.091575E+04  1.286005E+05 -8.992605E-10 -2.082998E-09
       365  13  6.063357E+04  3.260382E+04 -8.078017E+02  5.463459E+04 -1.323170E-09 -3.600352E-09
       365  14  6.617330E+04  2.712068E+04 -4.285032E+02  4.837170E+04  3.332812E-09 -1.025880E-09
       365  15  6.065009E+04  3.265573E+04 -2.097176E+02  5.461897E+04 -1.376888E-09  2.127303E-09
       365  16 -2.879667E+05 -9.701694E+04 -8.053782E+04 -4.211382E+04 -5.161529E-09  4.443942E-09
       365  17 -2.413001E+05 -8.724331E+04 -7.084430E+04 -3.697976E+04 -1.624682E-09 -3.728504E-11
       365  18 -2.057022E+05 -6.645786E+04 -6.134036E+04 -1.933404E+04 -3.302316E-10  7.383701E-10
       365  19  4.093580E+05  1.622353E+05  7.891576E+04  1.514332E+05 -4.808256E+03  2.285374E+04
       365  20  3.737416E+05  1.414924E+05  6.998180E+04  1.337617E+05 -3.977965E+03  2.012303E+04
       365  21  3.270720E+05  1.317745E+05  6.091634E+04  1.286005E+05 -3.133228E+03  1.735726E+04
       365  22  6.063376E+04  3.260434E+04 -8.068000E+02  5.463446E+04 -7.545432E+03  2.181901E+04
       365  23  6.617345E+04  2.712108E+04 -4.277338E+02  4.837159E+04 -6.751426E+03  1.907401E+04
       365  24  6.065020E+04  3.265603E+04 -2.091523E+02  5.461889E+04 -5.942980E+03  1.629392E+04
       365  25 -2.879665E+05 -9.701645E+04 -8.053681E+04 -4.211400E+04 -1.028092E+04  2.078493E+04
       365  26 -2.412999E+05 -8.724294E+04 -7.084352E+04 -3.697990E+04 -9.523396E+03  1.802556E+04
       365  27 -2.057021E+05 -6.645760E+04 -6.133978E+04 -1.933414E+04 -8.751440E+03  1.523106E+04
       366   1  2.956033E+05  1.200246E+05  5.351111E+04  1.198815E+05  2.574695E+03 -1.576286E+04
       366   2  2.600242E+05  9.925353E+04  4.435998E+04  1.022174E+05  1.558016E+03 -1.305280E+04
       366   3  2.134081E+05  8.952859E+04  3.520466E+04  9.704667E+04  5.402794E+02 -1.034180E+04
       366   4  6.065754E+04  3.265515E+04 -1.378399E+02  5.461904E+04  5.373621E+03 -1.470332E+04
       366   5  6.618063E+04  2.713932E+04 -1.833562E+01  4.837108E+04  4.357919E+03 -1.199253E+04
       366   6  6.066451E+04  3.266927E+04  9.606246E+01  5.461588E+04  3.341158E+03 -9.280804E+03
       366   7 -1.742328E+05 -5.470998E+04 -5.379039E+04 -1.062078E+04  8.171398E+03 -1.364422E+04
       366   8 -1.276246E+05 -4.497174E+04 -4.439895E+04 -5.459674E+03  7.156864E+03 -1.093263E+04
       366   9 -9.205477E+04 -2.418789E+04 -3.501381E+04  1.219489E+04  6.141272E+03 -8.220101E+03
       366  10  2.956032E+05  1.200243E+05  5.351063E+04  1.198815E+05 -1.997950E-10  3.717932E-09
       366  11  2.600241E+05  9.925334E+04  4.435966E+04  1.022174E+05 -1.776326E-10  1.256474E-08
       366  12  2.134081E+05  8.952847E+04  3.520446E+04  9.704668E+04  9.546194E-10  4.664810E-09
       366  13  6.065745E+04  3.265491E+04 -1.383005E+02  5.461910E+04  4.941426E-11  1.135946E-09
       366  14  6.618057E+04  2.713916E+04 -1.864159E+01  4.837112E+04  3.619732E-09 -1.234538E-09
       366  15  6.066447E+04  3.266917E+04  9.587961E+01  5.461590E+04 -1.376351E-10 -4.206457E-11
       366  16 -1.742329E+05 -5.471019E+04 -5.379087E+04 -1.062069E+04 -3.444298E-10 -2.254813E-09
       366  17 -1.276247E+05 -4.497188E+04 -4.439927E+04 -5.459611E+03  1.275761E-09 -7.145718E-10
       366  18 -9.205483E+04 -2.418797E+04 -3.501400E+04  1.219493E+04  1.623258E-09 -1.404572E-09
       366  19  2.956033E+05  1.200246E+05  5.351111E+04  1.198815E+05 -2.574695E+03  1.576286E+04
       366  20  2.600242E+05  9.925353E+04  4.435998E+04  1.022174E+05 -1.558016E+03  1.305280E+04
       366  21  2.134081E+05  8.952859E+04  3.520466E+04  9.704667E+04 -5.402794E+02  1.034180E+04
       366  22  6.065754E+04  3.265515E+04 -1.378399E+02  5.461904E+04 -5.373621E+03  1.470332E+04
       366  23  6.618063E+04  2.713932E+04 -1.833562E+01  4.837108E+04 -4.357919E+03  1.199253E+04
       366  24  6.066451E+04  3.266927E+04  9.606246E+01  5.461588E+04 -3.341158E+03  9.280804E+03
       366  25 -1.742328E+05 -5.470998E+04 -5.379039E+04 -1.062078E+04 -8.171398E+03  1.364422E+04
       366  26 -1.276246E+05 -4.497174E+04 -4.439895E+04 -5.459674E+03 -7.156864E+03  1.093263E+04
       366  27 -9.205477E+04 -2.418789E+04 -3.501381E+04  1.219489E+04 -6.141272E+03  8.220101E+03
       367   1  1.819595E+05  7.778456E+04  2.779367E+04  8.833184E+04 -7.762373E+01 -8.773354E+03
       367   2  1.463913E+05  5.700904E+04  1.871024E+04  7.067468E+04 -1.272490E+03 -6.129831E+03
       367   3  9.980433E+04  4.728817E+04  9.754127E+03  6.550895E+04 -2.467190E+03 -3.487483E+03
       367   4  6.067121E+04  3.267076E+04  1.600899E+02  5.461680E+04  2.722525E+03 -7.712480E+03
       367   5  6.618214E+04  2.714509E+04  3.424162E+02  4.837093E+04  1.526439E+03 -5.069265E+03
       367   6  6.067358E+04  3.267458E+04  6.532801E+02  5.461616E+04  3.305076E+02 -2.427227E+03
       367   7 -6.060308E+04 -1.244216E+04 -2.747463E+04  2.090758E+04  5.522096E+03 -6.651824E+03
       367   8 -1.402082E+04 -2.718450E+03 -1.802587E+04  2.606976E+04  4.324984E+03 -4.008845E+03
       367   9  2.154438E+04  1.806111E+04 -8.447641E+03  4.372399E+04  3.128014E+03 -1.367043E+03
       367  10  1.819595E+05  7.778448E+04  2.779352E+04  8.833184E+04 -7.199032E-09  5.509271E-09
       367  11  1.463913E+05  5.700900E+04  1.871016E+04  7.067467E+04 -2.538762E-09  5.042977E-09
       367  12  9.980432E+04  4.728816E+04  9.754093E+03  6.550894E+04  3.392647E-09  2.293112E-09
       367  13  6.067119E+04  3.267070E+04  1.599642E+02  5.461681E+04 -2.357474E-09  9.720617E-09
       367  14  6.618213E+04  2.714506E+04  3.423636E+02  4.837094E+04 -2.940983E-09 -6.393417E-09
       367  15  6.067358E+04  3.267458E+04  6.532688E+02  5.461616E+04 -2.330430E-09  8.216292E-10
       367  16 -6.060313E+04 -1.244222E+04 -2.747477E+04  2.090761E+04  4.149007E-09  9.455743E-09
       367  17 -1.402085E+04 -2.718473E+03 -1.802594E+04  2.606977E+04  1.064968E-09  8.361853E-09
       367  18  2.154437E+04  1.806111E+04 -8.447663E+03  4.372400E+04 -7.805941E-09  2.520187E-09
       367  19  1.819595E+05  7.778456E+04  2.779367E+04  8.833184E+04  7.762373E+01  8.773354E+03
       367  20  1.463913E+05  5.700904E+04  1.871024E+04  7.067468E+04  1.272490E+03  6.129831E+03
       367  21  9.980433E+04  4.728817E+04  9.754127E+03  6.550895E+04  2.467190E+03  3.487483E+03
       367  22  6.067121E+04  3.267076E+04  1.600899E+02  5.461680E+04 -2.722525E+03  7.712480E+03
       367  23  6.618214E+04  2.714509E+04  3.424162E+02  4.837093E+04 -1.526439E+03  5.069265E+03
       367  24  6.067358E+04  3.267458E+04  6.532801E+02  5.461616E+04 -3.305076E+02  2.427227E+03
       367  25 -6.060308E+04 -1.244216E+04 -2.747463E+04  2.090758E+04 -5.522096E+03  6.651824E+03
       367  26 -1.402082E+04 -2.718450E+03 -1.802587E+04  2.606976E+04 -4.324984E+03  4.008845E+03
       367  27  2.154438E+04  1.806111E+04 -8.447641E+03  4.372399E+04 -3.128014E+03  1.367043E+03
       368   1  6.837245E+04  3.555389E+04  2.506920E+03  5.682322E+04 -3.196884E+03 -1.960376E+03
       368   2  3.275583E+04  1.475842E+04 -6.037302E+03  3.915104E+04 -5.000413E+03  4.457168E+02
       368   3 -1.375614E+04  5.139580E+03 -1.396924E+04  3.396746E+04 -6.796385E+03  2.832478E+03
       368   4  6.069736E+04  3.266949E+04  8.783375E+02  5.462808E+04 -3.939786E+02 -8.981222E+02
       368   5  6.614999E+04  2.712526E+04  1.603993E+03  4.836652E+04 -2.217680E+03  1.500256E+03
       368   6  6.070954E+04  3.276140E+04  2.957894E+03  5.459278E+04 -4.033890E+03  3.879294E+03
       368   7  5.302239E+04  2.978512E+04 -7.502023E+02  5.243299E+04  2.408873E+03  1.641108E+02
       368   8  9.954529E+04  3.949219E+04  9.245246E+03  5.758246E+04  5.652152E+02  2.554855E+03
       368   9  1.351813E+05  6.038383E+04  1.988482E+04  7.522048E+04 -1.271019E+03  4.926251E+03
       368  10  6.837244E+04  3.555388E+04  2.506894E+03  5.682321E+04  1.557458E-09 -3.174245E-09
       368  11  3.275580E+04  1.475841E+04 -6.037349E+03  3.915104E+04  3.949645E-10 -8.478926E-09
       368  12 -1.375620E+04  5.139559E+03 -1.396934E+04  3.396748E+04 -1.846884E-09 -2.962942E-09
       368  13  6.069736E+04  3.266949E+04  8.783357E+02  5.462808E+04 -6.048129E-10  5.904027E-09
       368  14  6.614999E+04  2.712526E+04  1.603979E+03  4.836653E+04 -1.617107E-09 -5.499333E-09
       368  15  6.070952E+04  3.276138E+04  2.957835E+03  5.459279E+04 -1.929126E-10 -1.000430E-08
       368  16  5.302238E+04  2.978512E+04 -7.502133E+02  5.243299E+04 -1.848636E-09  5.498355E-09
       368  17  9.954529E+04  3.949218E+04  9.245234E+03  5.758246E+04  6.901629E-10  3.524748E-09
       368  18  1.351812E+05  6.038380E+04  1.988477E+04  7.522048E+04  9.519700E-10  3.022182E-09
       368  19  6.837245E+04  3.555389E+04  2.506920E+03  5.682322E+04  3.196884E+03  1.960376E+03
       368  20  3.275583E+04  1.475842E+04 -6.037302E+03  3.915104E+04  5.000413E+03 -4.457168E+02
       368  21 -1.375614E+04  5.139580E+03 -1.396924E+04  3.396746E+04  6.796385E+03 -2.832478E+03
       368  22  6.069736E+04  3.266949E+04  8.783375E+02  5.462808E+04  3.939786E+02  8.981222E+02
       368  23  6.614999E+04  2.712526E+04  1.603993E+03  4.836652E+04  2.217680E+03 -1.500256E+03
       368  24  6.070954E+04  3.276140E+04  2.957894E+03  5.459278E+04  4.033890E+03 -3.879294E+03
       368  25  5.302239E+04  2.978512E+04 -7.502023E+02  5.243299E+04 -2.408873E+03 -1.641108E+02
       368  26  9.954529E+04  3.949219E+04  9.245246E+03  5.758246E+04 -5.652152E+02 -2.554855E+03
       368  27  1.351813E+05  6.038383E+04  1.988482E+04  7.522048E+04  1.271019E+03 -4.926251E+03
       369   1 -4.533694E+04 -6.494157E+03 -2.046649E+04  2.575048E+04 -8.070189E+03  4.184606E+03
       369   2 -8.087867E+04 -2.772227E+04 -2.664723E+04  7.308512E+03 -1.219957E+04  5.566953E+03
       369   3 -1.261462E+05 -3.553255E+04 -2.983896E+04  8.579621E+02 -1.617156E+04  6.536018E+03
       369   4  6.088438E+04  3.256885E+04  3.916256E+03  5.475009E+04 -5.193141E+03  5.274735E+03
       369   5  6.588803E+04  2.709924E+04  7.095565E+03  4.826858E+04 -9.750839E+03  6.494509E+03
       369   6  6.124853E+04  3.513149E+04  1.360289E+04  5.377752E+04 -1.415138E+04  7.300969E+03
       369   7  1.671170E+05  7.163264E+04  2.829828E+04  8.375420E+04 -2.315557E+03  6.365062E+03
       369   8  2.126759E+05  8.192229E+04  4.083681E+04  8.923740E+04 -7.301490E+03  7.422303E+03
       369   9  2.486773E+05  1.057980E+05  5.704204E+04  1.067114E+05 -1.213055E+04  8.066174E+03
       369  10 -4.533702E+04 -6.494193E+03 -2.046665E+04  2.575051E+04  1.493339E-09  4.544268E-09
       369  11 -8.087884E+04 -2.772235E+04 -2.664756E+04  7.308566E+03  3.333403E-09  5.888092E-09
       369  12 -1.261465E+05 -3.553267E+04 -2.983953E+04  8.580473E+02 -1.205806E-09  1.571370E-09
       369  13  6.088434E+04  3.256881E+04  3.916153E+03  5.475011E+04  2.095699E-09  1.131238E-11
       369  14  6.588791E+04  2.709917E+04  7.095307E+03  4.826864E+04  3.057969E-09 -2.538188E-08
       369  15  6.124830E+04  3.513138E+04  1.360241E+04  5.377760E+04  2.050318E-09 -2.955025E-09
       369  16  1.671170E+05  7.163260E+04  2.829820E+04  8.375422E+04 -6.383968E-10 -2.527393E-09
       369  17  2.126758E+05  8.192221E+04  4.083660E+04  8.923744E+04 -2.834451E-10  1.899036E-09
       369  18  2.486771E+05  1.057979E+05  5.704164E+04  1.067115E+05  4.120505E-09 -3.922599E-09
       369  19 -4.533694E+04 -6.494157E+03 -2.046649E+04  2.575048E+04  8.070189E+03 -4.184606E+03
       369  20 -8.087867E+04 -2.772227E+04 -2.664723E+04  7.308512E+03  1.219957E+04 -5.566953E+03
       369  21 -1.261462E+05 -3.553255E+04 -2.983896E+04  8.579621E+02  1.617156E+04 -6.536018E+03
       369  22  6.088438E+04  3.256885E+04  3.916256E+03  5.475009E+04  5.193141E+03 -5.274735E+03
       369  23  6.588803E+04  2.709924E+04  7.095565E+03  4.826858E+04  9.750839E+03 -6.494509E+03
       369  24  6.124853E+04  3.513149E+04  1.360289E+04  5.377752E+04  1.415138E+04 -7.300969E+03
       369  25  1.671170E+05  7.163264E+04  2.829828E+04  8.375420E+04  2.315557E+03 -6.365062E+03
       369  26  2.126759E+05  8.192229E+04  4.083681E+04  8.923740E+04  7.301490E+03 -7.422303E+03
       369  27  2.486773E+05  1.057980E+05  5.704204E+04  1.067114E+05  1.213055E+04 -8.066174E+03
       370   1 -1.616521E+05 -4.552981E+04 -3.314808E+04  1.658158E+03 -2.156547E+04  6.986391E+03
       370   2 -1.902015E+05 -7.594696E+04 -3.043356E+04 -3.422205E+04 -2.908428E+04  4.034432E+03
       370   3 -2.106929E+05 -4.871602E+04 -9.184732E+03 -7.042288E+04 -3.326522E+04 -7.733244E+03
       370   4  6.349798E+04  3.083173E+04  1.737630E+04  5.653448E+04 -1.710855E+04  8.674388E+03
       370   5  6.251277E+04  2.863625E+04  3.131943E+04  4.626981E+04 -3.374395E+04  2.268885E+03
       370   6  7.138371E+04  8.588254E+04  7.102091E+04  3.568605E+04 -4.704295E+04 -1.295128E+04
       370   7  2.887007E+05  1.071958E+05  6.789811E+04  1.114286E+05 -1.264983E+04  1.036293E+04
       370   8  3.152907E+05  1.332283E+05  9.306763E+04  1.267929E+05 -3.840567E+04  5.023683E+02
       370   9  3.535368E+05  2.204996E+05  1.512189E+05  1.418422E+05 -6.082738E+04 -1.817340E+04
       370  10 -1.616526E+05 -4.552999E+04 -3.314905E+04  1.658279E+03  2.864231E-09  4.948960E-09
       370  11 -1.902024E+05 -7.594721E+04 -3.043518E+04 -3.422195E+04  5.062378E-09 -3.120171E-09
       370  12 -2.106941E+05 -4.871638E+04 -9.186924E+03 -7.042309E+04 -1.214532E-09 -1.175605E-09
       370  13  6.349765E+04  3.083157E+04  1.737561E+04  5.653460E+04 -3.437364E-10  5.755319E-09
       370  14  6.251155E+04  2.863594E+04  3.131728E+04  4.626987E+04  5.659554E-09 -1.714176E-09
       370  15  7.138129E+04  8.588177E+04  7.101643E+04  3.568556E+04 -1.223140E-10  2.974558E-09
       370  16  2.887005E+05  1.071956E+05  6.789760E+04  1.114287E+05  2.252485E-09 -1.453014E-09
       370  17  3.152891E+05  1.332279E+05  9.306486E+04  1.267930E+05  6.011758E-11  1.568185E-09
       370  18  3.535328E+05  2.204983E+05  1.512114E+05  1.418413E+05  1.942477E-09 -2.392940E-09
       370  19 -1.616521E+05 -4.552981E+04 -3.314808E+04  1.658158E+03  2.156547E+04 -6.986391E+03
       370  20 -1.902015E+05 -7.594696E+04 -3.043356E+04 -3.422205E+04  2.908428E+04 -4.034432E+03
       370  21 -2.106929E+05 -4.871602E+04 -9.184732E+03 -7.042288E+04  3.326522E+04  7.733244E+03
       370  22  6.349798E+04  3.083173E+04  1.737630E+04  5.653448E+04  1.710855E+04 -8.674388E+03
       370  23  6.251277E+04  2.863625E+04  3.131943E+04  4.626981E+04  3.374395E+04 -2.268885E+03
       370  24  7.138371E+04  8.588254E+04  7.102091E+04  3.568605E+04  4.704295E+04  1.295128E+04
       370  25  2.887007E+05  1.071958E+05  6.789811E+04  1.114286E+05  1.264983E+04 -1.036293E+04
       370  26  3.152907E+05  1.332283E+05  9.306763E+04  1.267929E+05  3.840567E+04 -5.023683E+02
       370  27  3.535368E+05  2.204996E+05  1.512189E+05  1.418422E+05  6.082738E+04  1.817340E+04
       371   1  1.222709E+05  4.004658E+04  3.152031E+04  2.572144E+03 -1.417715E+04 -4.179391E+03
       371   2  9.687637E+04  6.450940E+04  3.980088E+04  9.262927E+03 -1.286244E+04 -1.322755E+04
       371   3  6.422571E+04  6.083991E+04  4.020040E+04  2.552117E+04 -1.157269E+04 -1.428096E+04
       371   4 -1.815931E+05 -3.518518E+04 -4.144677E+04  2.045332E+04 -2.857632E+04 -4.225132E+03
       371   5 -1.771925E+05 -2.061134E+03 -1.923066E+04  1.561076E+04 -1.843780E+04 -1.324603E+04
       371   6 -1.815848E+05  1.391234E+03 -1.102711E+04  2.033622E+04 -8.324023E+03 -1.427062E+04
       371   7 -4.853714E+05 -1.104223E+05 -1.144194E+05  3.832564E+04 -4.296847E+04 -4.271714E+03
       371   8 -4.511906E+05 -6.863643E+04 -7.826647E+04  2.195571E+04 -2.401074E+04 -1.326462E+04
       371   9 -4.273381E+05 -5.806120E+04 -6.225790E+04  1.515332E+04 -5.076623E+03 -1.426034E+04
       371  10  1.222707E+05  4.004651E+04  3.151990E+04  2.572096E+03 -7.261754E-09  1.644867E-09
       371  11  9.687614E+04  6.450917E+04  3.980024E+04  9.262790E+03 -2.935606E-09  8.218731E-09
       371  12  6.422551E+04  6.083965E+04  4.019976E+04  2.552103E+04  4.274469E-09  3.813106E-09
       371  13 -1.815940E+05 -3.518542E+04 -4.144834E+04  2.045322E+04  1.804980E-09 -2.314153E-09
       371  14 -1.771929E+05 -2.061414E+03 -1.923163E+04  1.561057E+04 -1.662861E-09 -1.309079E-08
       371  15 -1.815850E+05  1.390996E+03 -1.102763E+04  2.033613E+04 -6.043625E-10  6.502603E-10
       371  16 -4.853734E+05 -1.104228E+05 -1.144229E+05  3.832549E+04  8.044968E-09  2.854919E-10
       371  17 -4.511913E+05 -6.863677E+04 -7.826789E+04  2.195545E+04  1.227216E-09  1.048168E-08
       371  18 -4.273382E+05 -5.806142E+04 -6.225833E+04  1.515326E+04 -5.685926E-09  1.091229E-09
       371  19  1.222709E+05  4.004658E+04  3.152031E+04  2.572144E+03  1.417715E+04  4.179391E+03
       371  20  9.687637E+04  6.450940E+04  3.980088E+04  9.262927E+03  1.286244E+04  1.322755E+04
       371  21  6.422571E+04  6.083991E+04  4.020040E+04  2.552117E+04  1.157269E+04  1.428096E+04
       371  22 -1.815931E+05 -3.518518E+04 -4.144677E+04  2.045332E+04  2.857632E+04  4.225132E+03
       371  23 -1.771925E+05 -2.061134E+03 -1.923066E+04  1.561076E+04  1.843780E+04  1.324603E+04
       371  24 -1.815848E+05  1.391234E+03 -1.102711E+04  2.033622E+04  8.324023E+03  1.427062E+04
       371  25 -4.853714E+05 -1.104223E+05 -1.144194E+05  3.832564E+04  4.296847E+04  4.271714E+03
       371  26 -4.511906E+05 -6.863643E+04 -7.826647E+04  2.195571E+04  2.401074E+04  1.326462E+04
       371  27 -4.273381E+05 -5.806120E+04 -6.225790E+04  1.515332E+04  5.076623E+03  1.426034E+04
       372   1  4.434437E+04  5.282229E+04  3.821550E+04  2.050842E+04 -8.011227E+03 -1.277760E+04
       372   2  1.573820E+04  4.723072E+04  3.580676E+04  1.588458E+04 -6.086632E+03 -1.148913E+04
       372   3 -1.350242E+04  4.039528E+04  3.181717E+04  2.118152E+04 -4.163832E+03 -9.797678E+03
       372   4 -1.797877E+05 -1.379733E+03 -8.656476E+03  2.044377E+04 -6.816543E+03 -1.277398E+04
       372   5 -1.794292E+05  8.208208E+01 -4.746612E+03  1.548057E+04 -4.447843E+03 -1.148387E+04
       372   6 -1.797839E+05  2.225477E+02 -2.726639E+03  2.043836E+04 -2.080857E+03 -9.790723E+03
       372   7 -4.038723E+05 -5.558497E+04 -5.553123E+04  2.037911E+04 -5.622283E+03 -1.277037E+04
       372   8 -3.745606E+05 -4.706898E+04 -4.530206E+04  1.507666E+04 -2.809561E+03 -1.147862E+04
       372   9 -3.460391E+05 -3.995194E+04 -3.727194E+04  1.969538E+04  1.569380E+00 -9.783772E+03
       372  10  4.434426E+04  5.282210E+04  3.821507E+04  2.050833E+04 -1.751231E-09 -3.816312E-09
       372  11  1.573812E+04  4.723057E+04  3.580644E+04  1.588453E+04 -6.671732E-10  2.495418E-09
       372  12 -1.350247E+04  4.039518E+04  3.181695E+04  2.118149E+04  6.936848E-09  7.012533E-09
       372  13 -1.797878E+05 -1.379920E+03 -8.656870E+03  2.044370E+04  1.083603E-09  1.121654E-08
       372  14 -1.794293E+05  8.193517E+01 -4.746897E+03  1.548053E+04 -1.389831E-09 -2.355435E-08
       372  15 -1.797839E+05  2.224436E+02 -2.726827E+03  2.043834E+04 -1.073085E-09  6.317681E-09
       372  16 -4.038724E+05 -5.558515E+04 -5.553160E+04  2.037906E+04  2.257692E-09 -3.460920E-09
       372  17 -3.745606E+05 -4.706912E+04 -4.530232E+04  1.507664E+04 -2.477676E-09 -6.630937E-11
       372  18 -3.460391E+05 -3.995205E+04 -3.727212E+04  1.969538E+04 -9.280914E-09  4.135272E-10
       372  19  4.434437E+04  5.282229E+04  3.821550E+04  2.050842E+04  8.011227E+03  1.277760E+04
       372  20  1.573820E+04  4.723072E+04  3.580676E+04  1.588458E+04  6.086632E+03  1.148913E+04
       372  21 -1.350242E+04  4.039528E+04  3.181717E+04  2.118152E+04  4.163832E+03  9.797678E+03
       372  22 -1.797877E+05 -1.379733E+03 -8.656476E+03  2.044377E+04  6.816543E+03  1.277398E+04
       372  23 -1.794292E+05  8.208208E+01 -4.746612E+03  1.548057E+04  4.447843E+03  1.148387E+04
       372  24 -1.797839E+05  2.225477E+02 -2.726639E+03  2.043836E+04  2.080857E+03  9.790723E+03
       372  25 -4.038723E+05 -5.558497E+04 -5.553123E+04  2.037911E+04  5.622283E+03  1.277037E+04
       372  26 -3.745606E+05 -4.706898E+04 -4.530206E+04  1.507666E+04  2.809561E+03  1.147862E+04
       372  27 -3.460391E+05 -3.995194E+04 -3.727194E+04  1.969538E+04 -1.569380E+00  9.783772E+03
       373   1 -3.488366E+04  3.505030E+04  2.786664E+04  2.089153E+04 -3.640489E+03 -8.708867E+03
       373   2 -6.375198E+04  2.809870E+04  2.281994E+04  1.582831E+04 -3.081620E+03 -6.903047E+03
       373   3 -9.277481E+04  2.115224E+04  1.739011E+04  2.071637E+04 -2.523065E+03 -5.076521E+03
       373   4 -1.796593E+05  1.001304E+02 -2.081498E+03  2.044653E+04 -1.660296E+03 -8.702172E+03
       373   5 -1.795788E+05  1.271641E+02 -1.187153E+03  1.547073E+04 -1.078720E+03 -6.896160E+03
       373   6 -1.796571E+05  1.555338E+02 -6.916649E+02  2.044633E+04 -4.974340E+02 -5.069437E+03
       373   7 -3.244150E+05 -3.485136E+04 -3.203076E+04  2.000161E+04  3.194446E+02 -8.695479E+03
       373   8 -2.953928E+05 -2.784522E+04 -2.519496E+04  1.511321E+04  9.238116E+02 -6.889274E+03
       373   9 -2.665323E+05 -2.084165E+04 -1.877384E+04  2.017632E+04  1.527918E+03 -5.062353E+03
       373  10 -3.488369E+04  3.505021E+04  2.786647E+04  2.089151E+04  6.467620E-09 -5.181130E-09
       373  11 -6.375200E+04  2.809864E+04  2.281983E+04  1.582829E+04 -6.273819E-11 -1.330782E-09
       373  12 -9.277483E+04  2.115221E+04  1.739005E+04  2.071636E+04 -2.195306E-09 -5.512960E-10
       373  13 -1.796593E+05  1.000483E+02 -2.081645E+03  2.044651E+04  1.313873E-09 -4.137683E-09
       373  14 -1.795788E+05  1.271127E+02 -1.187245E+03  1.547072E+04 -1.510922E-09 -9.092046E-09
       373  15 -1.796571E+05  1.555062E+02 -6.917137E+02  2.044633E+04 -2.317803E-10 -8.867459E-10
       373  16 -3.244150E+05 -3.485144E+04 -3.203090E+04  2.000161E+04 -5.988521E-09 -6.812943E-09
       373  17 -2.953928E+05 -2.784527E+04 -2.519505E+04  1.511321E+04 -1.932759E-09  7.565510E-09
       373  18 -2.665323E+05 -2.084168E+04 -1.877389E+04  2.017633E+04  9.881527E-10  1.282924E-08
       373  19 -3.488366E+04  3.505030E+04  2.786664E+04  2.089153E+04  3.640489E+03  8.708867E+03
       373  20 -6.375198E+04  2.809870E+04  2.281994E+04  1.582831E+04  3.081620E+03  6.903047E+03
       373  21 -9.277481E+04  2.115224E+04  1.739011E+04  2.071637E+04  2.523065E+03  5.076521E+03
       373  22 -1.796593E+05  1.001304E+02 -2.081498E+03  2.044653E+04  1.660296E+03  8.702172E+03
       373  23 -1.795788E+05  1.271641E+02 -1.187153E+03  1.547073E+04  1.078720E+03  6.896160E+03
       373  24 -1.796571E+05  1.555338E+02 -6.916649E+02  2.044633E+04  4.974340E+02  5.069437E+03
       373  25 -3.244150E+05 -3.485136E+04 -3.203076E+04  2.000161E+04 -3.194446E+02  8.695479E+03
       373  26 -2.953928E+05 -2.784522E+04 -2.519496E+04  1.511321E+04 -9.238116E+02  6.889274E+03
       373  27 -2.665323E+05 -2.084165E+04 -1.877384E+04  2.017632E+04 -1.527918E+03  5.062353E+03
       374   1 -1.142698E+05  1.592301E+04  1.293735E+04  2.064669E+04 -2.411183E+03 -4.008641E+03
       374   2 -1.431837E+05  8.911494E+03  7.217095E+03  1.558118E+04 -2.256342E+03 -2.176892E+03
       374   3 -1.721882E+05  1.965669E+03  1.390808E+03  2.047244E+04 -2.101584E+03 -3.440299E+02
       374   4 -1.796415E+05  1.514678E+02 -5.333659E+02  2.044760E+04 -3.904556E+02 -4.001527E+03
       374   5 -1.795953E+05  1.181644E+02 -3.286893E+02  1.546919E+04 -2.344444E+02 -2.169739E+03
       374   6 -1.796408E+05  1.503914E+02 -2.308531E+02  2.044760E+04 -7.850883E+01 -3.368344E+02
       374   7 -2.450091E+05 -1.562034E+04 -1.400430E+04  2.024853E+04  1.630063E+03 -3.994414E+03
       374   8 -2.160057E+05 -8.675247E+03 -7.874530E+03  1.535722E+04  1.787337E+03 -2.162586E+03
       374   9 -1.870934E+05 -1.664887E+03 -1.852502E+03  2.042276E+04  1.944542E+03 -3.296389E+02
       374  10 -1.142698E+05  1.592299E+04  1.293731E+04  2.064669E+04  2.846182E-08 -7.017848E-09
       374  11 -1.431837E+05  8.911488E+03  7.217076E+03  1.558117E+04 -7.107090E-09  1.732917E-09
       374  12 -1.721882E+05  1.965667E+03  1.390800E+03  2.047244E+04 -3.793697E-08  4.970777E-09
       374  13 -1.796415E+05  1.514506E+02 -5.333963E+02  2.044760E+04  1.355525E-09  4.764162E-09
       374  14 -1.795953E+05  1.181594E+02 -3.286983E+02  1.546919E+04 -1.966523E-09 -5.100380E-09
       374  15 -1.796408E+05  1.503912E+02 -2.308533E+02  2.044760E+04 -2.028350E-10  3.799995E-09
       374  16 -2.450091E+05 -1.562036E+04 -1.400434E+04  2.024853E+04 -2.824270E-08  3.557182E-09
       374  17 -2.160057E+05 -8.675253E+03 -7.874545E+03  1.535722E+04  5.984676E-09  1.144019E-08
       374  18 -1.870934E+05 -1.664888E+03 -1.852510E+03  2.042277E+04  3.656848E-08  7.388367E-09
       374  19 -1.142698E+05  1.592301E+04  1.293735E+04  2.064669E+04  2.411183E+03  4.008641E+03
       374  20 -1.431837E+05  8.911494E+03  7.217095E+03  1.558118E+04  2.256342E+03  2.176892E+03
       374  21 -1.721882E+05  1.965669E+03  1.390808E+03  2.047244E+04  2.101584E+03  3.440299E+02
       374  22 -1.796415E+05  1.514678E+02 -5.333659E+02  2.044760E+04  3.904556E+02  4.001527E+03
       374  23 -1.795953E+05  1.181644E+02 -3.286893E+02  1.546919E+04  2.344444E+02  2.169739E+03
       374  24 -1.796408E+05  1.503914E+02 -2.308531E+02  2.044760E+04  7.850883E+01  3.368344E+02
       374  25 -2.450091E+05 -1.562034E+04 -1.400430E+04  2.024853E+04 -1.630063E+03  3.994414E+03
       374  26 -2.160057E+05 -8.675247E+03 -7.874530E+03  1.535722E+04 -1.787337E+03  2.162586E+03
       374  27 -1.870934E+05 -1.664887E+03 -1.852502E+03  2.042276E+04 -1.944542E+03  3.296389E+02
       375   1 -1.937002E+05 -3.260775E+03 -3.201406E+03  2.041245E+04 -2.065313E+03  7.229240E+02
       375   2 -2.226157E+05 -1.027344E+04 -9.132789E+03  1.535026E+04 -1.962963E+03  2.555638E+03
       375   3 -2.516141E+05 -1.721894E+04 -1.513558E+04  2.024494E+04 -1.860530E+03  4.387186E+03
       375   4 -1.796391E+05  1.504134E+02 -2.102409E+02  2.044761E+04 -4.227574E+01  7.301174E+02
       375   5 -1.795975E+05  1.157187E+02 -2.175448E+02  1.546919E+04  5.873528E+01  2.562782E+03
       375   6 -1.796399E+05  1.483557E+02 -2.954311E+02  2.044761E+04  1.598335E+02  4.394284E+03
       375   7 -1.655778E+05  3.561591E+03  2.780928E+03  2.048277E+04  1.980807E+03  7.373109E+02
       375   8 -1.365776E+05  1.050476E+04  8.697614E+03  1.558814E+04  2.080571E+03  2.569926E+03
       375   9 -1.076608E+05  1.751533E+04  1.454445E+04  2.065030E+04  2.180428E+03  4.401382E+03
       375  10 -1.937003E+05 -3.260777E+03 -3.201415E+03  2.041245E+04  6.243196E-09  7.524514E-09
       375  11 -2.226157E+05 -1.027345E+04 -9.132808E+03  1.535026E+04 -1.281231E-08 -1.243467E-09
       375  12 -2.516141E+05 -1.721897E+04 -1.513562E+04  2.024495E+04 -2.800929E-08 -4.540399E-09
       375  13 -1.796391E+05  1.504128E+02 -2.102419E+02  2.044761E+04  1.204382E-09  1.399736E-08
       375  14 -1.795975E+05  1.157117E+02 -2.175571E+02  1.546919E+04 -2.955071E-09 -1.463250E-09
       375  15 -1.796399E+05  1.483350E+02 -2.954674E+02  2.044761E+04  3.895732E-11 -6.284379E-09
       375  16 -1.655778E+05  3.561590E+03  2.780919E+03  2.048276E+04 -5.972999E-09  4.762100E-09
       375  17 -1.365776E+05  1.050476E+04  8.697593E+03  1.558813E+04  1.150371E-08 -9.836666E-09
       375  18 -1.076608E+05  1.751531E+04  1.454441E+04  2.065029E+04  2.688070E-08 -7.280860E-09
       375  19 -1.937002E+05 -3.260775E+03 -3.201406E+03  2.041245E+04  2.065313E+03 -7.229240E+02
       375  20 -2.226157E+05 -1.027344E+04 -9.132789E+03  1.535026E+04  1.962963E+03 -2.555638E+03
       375  21 -2.516141E+05 -1.721894E+04 -1.513558E+04  2.024494E+04  1.860530E+03 -4.387186E+03
       375  22 -1.796391E+05  1.504134E+02 -2.102409E+02  2.044761E+04  4.227574E+01 -7.301174E+02
       375  23 -1.795975E+05  1.157187E+02 -2.175448E+02  1.546919E+04 -5.873528E+01 -2.562782E+03
       375  24 -1.796399E+05  1.483557E+02 -2.954311E+02  2.044761E+04 -1.598335E+02 -4.394284E+03
       375  25 -1.655778E+05  3.561591E+03  2.780928E+03  2.048277E+04 -1.980807E+03 -7.373109E+02
       375  26 -1.365776E+05  1.050476E+04  8.697614E+03  1.558814E+04 -2.080571E+03 -2.569926E+03
       375  27 -1.076608E+05  1.751533E+04  1.454445E+04  2.065030E+04 -2.180428E+03 -4.401382E+03
       376   1 -2.731279E+05 -2.244236E+04 -1.981727E+04  2.017927E+04 -1.809378E+03  5.454932E+03
       376   2 -3.020097E+05 -2.945034E+04 -2.597793E+04  1.512448E+04 -1.494717E+03  7.280600E+03
       376   3 -3.310072E+05 -3.642707E+04 -3.235633E+04  2.001884E+04 -1.179754E+03  9.085085E+03
       376   4 -1.796469E+05  1.501296E+02 -3.660073E+02  2.044584E+04  2.158968E+02  5.461996E+03
       376   5 -1.795920E+05  1.168175E+02 -6.013737E+02  1.547138E+04  5.072052E+02  7.287458E+03
       376   6 -1.796491E+05  1.189636E+02 -1.038098E+03  2.044594E+04  7.988303E+02  9.091742E+03
       376   7 -8.615756E+04  2.274207E+04  1.908479E+04  2.071244E+04  2.241471E+03  5.469061E+03
       376   8 -5.716012E+04  2.968302E+04  2.477438E+04  1.581834E+04  2.509516E+03  7.294317E+03
       376   9 -2.826937E+04  3.666355E+04  3.027891E+04  2.087314E+04  2.777889E+03  9.098400E+03
       376  10 -2.731280E+05 -2.244240E+04 -1.981733E+04  2.017928E+04  8.861162E-09  1.578192E-09
       376  11 -3.020097E+05 -2.945039E+04 -2.597803E+04  1.512449E+04  4.995897E-09 -6.404699E-09
       376  12 -3.310072E+05 -3.642716E+04 -3.235649E+04  2.001884E+04  1.677163E-09 -3.192534E-09
       376  13 -1.796469E+05  1.500976E+02 -3.660635E+02  2.044584E+04  1.301718E-09 -3.841936E-09
       376  14 -1.795920E+05  1.167604E+02 -6.014740E+02  1.547138E+04 -2.407242E-09  6.687135E-09
       376  15 -1.796492E+05  1.188746E+02 -1.038254E+03  2.044594E+04 -3.165081E-10  2.515562E-09
       376  16 -8.615757E+04  2.274203E+04  1.908473E+04  2.071243E+04 -9.197711E-09  4.666208E-09
       376  17 -5.716014E+04  2.968296E+04  2.477427E+04  1.581832E+04 -6.818877E-09 -1.343107E-09
       376  18 -2.826940E+04  3.666346E+04  3.027874E+04  2.087312E+04 -3.173365E-09  7.152948E-09
       376  19 -2.731279E+05 -2.244236E+04 -1.981727E+04  2.017927E+04  1.809378E+03 -5.454932E+03
       376  20 -3.020097E+05 -2.945034E+04 -2.597793E+04  1.512448E+04  1.494717E+03 -7.280600E+03
       376  21 -3.310072E+05 -3.642707E+04 -3.235633E+04  2.001884E+04  1.179754E+03 -9.085085E+03
       376  22 -1.796469E+05  1.501296E+02 -3.660073E+02  2.044584E+04 -2.158968E+02 -5.461996E+03
       376  23 -1.795920E+05  1.168175E+02 -6.013737E+02  1.547138E+04 -5.072052E+02 -7.287458E+03
       376  24 -1.796491E+05  1.189636E+02 -1.038098E+03  2.044594E+04 -7.988303E+02 -9.091742E+03
       376  25 -8.615756E+04  2.274207E+04  1.908479E+04  2.071244E+04 -2.241471E+03 -5.469061E+03
       376  26 -5.716012E+04  2.968302E+04  2.477438E+04  1.581834E+04 -2.509516E+03 -7.294317E+03
       376  27 -2.826937E+04  3.666355E+04  3.027891E+04  2.087314E+04 -2.777889E+03 -9.098400E+03
       377   1 -3.525662E+05 -4.158856E+04 -3.726874E+04  1.983733E+04 -1.076976E+03  1.017299E+04
       377   2 -3.812482E+05 -4.865536E+04 -4.427837E+04  1.501426E+04  5.475048E+02  1.186060E+04
       377   3 -4.103894E+05 -5.642084E+04 -5.253879E+04  2.011107E+04  2.173630E+03  1.313673E+04
       377   4 -1.797104E+05  1.789818E+02 -1.355313E+03  2.043873E+04  1.006355E+03  1.017991E+04
       377   5 -1.795218E+05  8.964116E+01 -2.353446E+03  1.548022E+04  2.177121E+03  1.186578E+04
       377   6 -1.797142E+05 -6.193547E+02 -4.286899E+03  2.044141E+04  3.349604E+03  1.314025E+04
       377   7 -6.826255E+03  4.194462E+04  3.455649E+04  2.104028E+04  3.090258E+03  1.018683E+04
       377   8  2.224314E+04  4.883206E+04  3.956926E+04  1.594631E+04  3.807257E+03  1.187097E+04
       377   9  5.101132E+04  5.517872E+04  4.396204E+04  2.077183E+04  4.526007E+03  1.314377E+04
       377  10 -3.525662E+05 -4.158867E+04 -3.726893E+04  1.983734E+04  7.449700E-09 -4.404919E-09
       377  11 -3.812483E+05 -4.865551E+04 -4.427863E+04  1.501425E+04  1.279539E-09  3.475584E-09
       377  12 -4.103894E+05 -5.642102E+04 -5.253912E+04  2.011105E+04  8.264895E-10 -7.869491E-09
       377  13 -1.797104E+05  1.788702E+02 -1.355510E+03  2.043872E+04  1.962749E-09 -4.102729E-09
       377  14 -1.795219E+05  8.948871E+01 -2.353719E+03  1.548020E+04 -2.810209E-09  5.281862E-09
       377  15 -1.797143E+05 -6.195431E+02 -4.287245E+03  2.044138E+04  2.355929E-11 -6.607784E-09
       377  16 -6.826294E+03  4.194451E+04  3.455628E+04  2.104025E+04 -7.935717E-09 -3.733624E-09
       377  17  2.224309E+04  4.883190E+04  3.956896E+04  1.594627E+04 -2.702688E-09 -5.437045E-09
       377  18  5.101125E+04  5.517853E+04  4.396168E+04  2.077178E+04 -1.742404E-09  1.784817E-09
       377  19 -3.525662E+05 -4.158856E+04 -3.726874E+04  1.983733E+04  1.076976E+03 -1.017299E+04
       377  20 -3.812482E+05 -4.865536E+04 -4.427837E+04  1.501426E+04 -5.475048E+02 -1.186060E+04
       377  21 -4.103894E+05 -5.642084E+04 -5.253879E+04  2.011107E+04 -2.173630E+03 -1.313673E+04
       377  22 -1.797104E+05  1.789818E+02 -1.355313E+03  2.043873E+04 -1.006355E+03 -1.017991E+04
       377  23 -1.795218E+05  8.964116E+01 -2.353446E+03  1.548022E+04 -2.177121E+03 -1.186578E+04
       377  24 -1.797142E+05 -6.193547E+02 -4.286899E+03  2.044141E+04 -3.349604E+03 -1.314025E+04
       377  25 -6.826255E+03  4.194462E+04  3.455649E+04  2.104028E+04 -3.090258E+03 -1.018683E+04
       377  26  2.224314E+04  4.883206E+04  3.956926E+04  1.594631E+04 -3.807257E+03 -1.187097E+04
       377  27  5.101132E+04  5.517872E+04  4.396204E+04  2.077183E+04 -4.526007E+03 -1.314377E+04
       378   1 -4.329657E+05 -6.028053E+04 -5.806174E+04  1.745285E+04  8.218200E+02  1.463290E+04
       378   2 -4.589713E+05 -6.917339E+04 -6.996768E+04  1.839750E+04  1.483751E+04  1.356051E+04
       378   3 -4.909134E+05 -9.428366E+04 -9.506571E+04  2.886871E+04  2.887730E+04  4.323931E+03
       378   4 -1.806028E+05  7.505481E+02 -5.459611E+03  2.033975E+04  4.093530E+03  1.464316E+04
       378   5 -1.784207E+05 -9.772375E+02 -9.521397E+03  1.560521E+04  9.103291E+03  1.354166E+04
       378   6 -1.806095E+05 -1.735450E+04 -2.051641E+04  2.039740E+04  1.413807E+04  4.277384E+03
       378   7  7.182039E+04  6.177759E+04  4.713905E+04  2.322780E+04  7.366548E+03  1.465345E+04
       378   8  1.022041E+05  6.721379E+04  5.092039E+04  1.281157E+04  3.366509E+03  1.352287E+04
       378   9  1.297832E+05  5.956807E+04  5.402691E+04  1.192178E+04 -6.085100E+02  4.231251E+03
       378  10 -4.329657E+05 -6.028076E+04 -5.806214E+04  1.745284E+04  3.186037E-09 -7.319494E-09
       378  11 -4.589716E+05 -6.917365E+04 -6.996844E+04  1.839734E+04  3.005310E-09 -6.499420E-09
       378  12 -4.909143E+05 -9.428391E+04 -9.506732E+04  2.886861E+04  4.440225E-09  4.396049E-09
       378  13 -1.806029E+05  7.503134E+02 -5.460045E+03  2.033971E+04  1.197544E-09  2.369592E-09
       378  14 -1.784208E+05 -9.774567E+02 -9.521897E+03  1.560511E+04 -2.788921E-09 -1.116029E-09
       378  15 -1.806097E+05 -1.735457E+04 -2.051682E+04  2.039736E+04  2.544287E-10  6.224581E-09
       378  16  7.182027E+04  6.177735E+04  4.713854E+04  2.322772E+04 -3.189639E-09  2.191521E-09
       378  17  1.022040E+05  6.721359E+04  5.092002E+04  1.281153E+04 -4.674814E-09  1.189705E-08
       378  18  1.297832E+05  5.956805E+04  5.402687E+04  1.192178E+04 -5.787321E-09 -2.088837E-09
       378  19 -4.329657E+05 -6.028053E+04 -5.806174E+04  1.745285E+04 -8.218200E+02 -1.463290E+04
       378  20 -4.589713E+05 -6.917339E+04 -6.996768E+04  1.839750E+04 -1.483751E+04 -1.356051E+04
       378  21 -4.909134E+05 -9.428366E+04 -9.506571E+04  2.886871E+04 -2.887730E+04 -4.323931E+03
       378  22 -1.806028E+05  7.505481E+02 -5.459611E+03  2.033975E+04 -4.093530E+03 -1.464316E+04
       378  23 -1.784207E+05 -9.772375E+02 -9.521397E+03  1.560521E+04 -9.103291E+03 -1.354166E+04
       378  24 -1.806095E+05 -1.735450E+04 -2.051641E+04  2.039740E+04 -1.413807E+04 -4.277384E+03
       378  25  7.182039E+04  6.177759E+04  4.713905E+04  2.322780E+04 -7.366548E+03 -1.465345E+04
       378  26  1.022041E+05  6.721379E+04  5.092039E+04  1.281157E+04 -3.366509E+03 -1.352287E+04
       378  27  1.297832E+05  5.956807E+04  5.402691E+04  1.192178E+04  6.085100E+02 -4.231251E+03
       379   1 -2.279529E+05 -9.217863E+05 -2.229744E+05  1.955438E+05 -9.386112E+03 -5.347886E+04
       379   2 -1.517342E+05 -6.928574E+05 -1.392272E+05  1.566060E+05 -2.748324E+04 -1.912541E+04
       379   3 -9.453115E+04 -4.725821E+05 -8.255656E+04  1.822403E+05 -2.271957E+04  1.530962E+04
       379   4 -1.938530E+04 -8.190260E+04 -2.090497E+04  1.835090E+05 -9.488179E+03 -1.538293E+04
       379   5 -3.084216E+03 -8.008206E+04 -9.186638E+03  1.512486E+05 -2.750324E+04 -1.061376E+04
       379   6 -6.453381E+02 -8.181508E+04 -3.973132E+03  1.835592E+05 -2.266701E+04 -5.776387E+03
       379   7  1.891321E+05  7.586307E+05  1.811198E+05  1.714581E+05 -9.591660E+03  2.276443E+04
       379   8  1.455415E+05  5.330477E+05  1.208328E+05  1.458860E+05 -2.752338E+04 -2.093818E+03
       379   9  9.323129E+04  3.090986E+05  7.460417E+04  1.848789E+05 -2.261456E+04 -2.687542E+04
       379  10 -2.279537E+05 -9.217894E+05 -2.229800E+05  1.955434E+05  3.281808E-11  2.870133E-09
       379  11 -1.517351E+05 -6.928580E+05 -1.392293E+05  1.566056E+05 -1.102264E-09  1.020508E-08
       379  12 -9.453177E+04 -4.725825E+05 -8.255797E+04  1.822406E+05  1.290255E-09 -5.958782E-09
       379  13 -1.938546E+04 -8.190288E+04 -2.090558E+04  1.835088E+05  1.521459E-09 -7.599986E-09
       379  14 -3.085059E+03 -8.008238E+04 -9.188271E+03  1.512484E+05 -5.216568E-10  4.703656E-09
       379  15 -6.458987E+02 -8.181525E+04 -3.974160E+03  1.835591E+05  7.833381E-10 -2.663481E-10
       379  16  1.891319E+05  7.586302E+05  1.811186E+05  1.714582E+05  1.661827E-09 -1.203789E-09
       379  17  1.455407E+05  5.330475E+05  1.208314E+05  1.458860E+05  4.320163E-09  5.005530E-09
       379  18  9.323055E+04  3.090977E+05  7.460185E+04  1.848784E+05 -5.767638E-10 -5.326030E-10
       379  19 -2.279529E+05 -9.217863E+05 -2.229744E+05  1.955438E+05  9.386112E+03  5.347886E+04
       379  20 -1.517342E+05 -6.928574E+05 -1.392272E+05  1.566060E+05  2.748324E+04  1.912541E+04
       379  21 -9.453115E+04 -4.725821E+05 -8.255656E+04  1.822403E+05  2.271957E+04 -1.530962E+04
       379  22 -1.938530E+04 -8.190260E+04 -2.090497E+04  1.835090E+05  9.488179E+03  1.538293E+04
       379  23 -3.084216E+03 -8.008206E+04 -9.186638E+03  1.512486E+05  2.750324E+04  1.061376E+04
       379  24 -6.453381E+02 -8.181508E+04 -3.973132E+03  1.835592E+05  2.266701E+04  5.776387E+03
       379  25  1.891321E+05  7.586307E+05  1.811198E+05  1.714581E+05  9.591660E+03 -2.276443E+04
       379  26  1.455415E+05  5.330477E+05  1.208328E+05  1.458860E+05  2.752338E+04  2.093818E+03
       379  27  9.323129E+04  3.090986E+05  7.460417E+04  1.848789E+05  2.261456E+04  2.687542E+04
       380   1 -5.770804E+04 -3.138202E+05 -4.918843E+04  1.842408E+05 -1.330286E+04  1.114253E+04
       380   2 -2.758453E+03 -8.957128E+04 -9.108100E+01  1.510271E+05 -5.634689E+02  1.043309E+04
       380   3  5.221268E+04  1.352815E+05  4.958025E+04  1.836217E+05  1.220122E+04  9.723354E+03
       380   4 -1.698661E+03 -8.088060E+04 -2.141571E+03  1.838226E+05 -1.326301E+04 -5.345044E+03
       380   5 -7.459292E+02 -8.116112E+04  1.557531E+03  1.509208E+05 -5.235265E+02 -6.089434E+03
       380   6  2.374494E+02 -8.087916E+04  5.856604E+03  1.838272E+05  1.224111E+04 -6.833863E+03
       380   7  5.430750E+04  1.521113E+05  4.490351E+04  1.834043E+05 -1.322315E+04 -2.183869E+04
       380   8  1.266736E+03 -7.275031E+04  3.207166E+03  1.508144E+05 -4.835787E+02 -2.261218E+04
       380   9 -5.174053E+04 -2.969948E+05 -3.786843E+04  1.840327E+05  1.228100E+04 -2.338543E+04
       380  10 -5.770826E+04 -3.138204E+05 -4.918900E+04  1.842409E+05  7.594580E-10  1.755374E-09
       380  11 -2.758482E+03 -8.957140E+04 -9.128619E+01  1.510272E+05 -8.785438E-10  6.151612E-09
       380  12  5.221249E+04  1.352814E+05  4.957980E+04  1.836216E+05 -2.841416E-10 -8.320727E-09
       380  13 -1.698857E+03 -8.088068E+04 -2.141955E+03  1.838226E+05  8.251697E-10 -9.063799E-09
       380  14 -7.459395E+02 -8.116116E+04  1.557461E+03  1.509208E+05  1.971401E-09 -2.937066E-10
       380  15  2.372759E+02 -8.087925E+04  5.856235E+03  1.838273E+05  9.058373E-10 -3.747949E-09
       380  16  5.430718E+04  1.521107E+05  4.490229E+04  1.834040E+05 -2.472933E-10 -9.906409E-10
       380  17  1.266599E+03 -7.275085E+04  3.206205E+03  1.508144E+05  1.215828E-10  3.833397E-09
       380  18 -5.174084E+04 -2.969954E+05 -3.786974E+04  1.840329E+05 -3.754258E-09 -1.007876E-09
       380  19 -5.770804E+04 -3.138202E+05 -4.918843E+04  1.842408E+05  1.330286E+04 -1.114253E+04
       380  20 -2.758453E+03 -8.957128E+04 -9.108100E+01  1.510271E+05  5.634689E+02 -1.043309E+04
       380  21  5.221268E+04  1.352815E+05  4.958025E+04  1.836217E+05 -1.220122E+04 -9.723354E+03
       380  22 -1.698661E+03 -8.088060E+04 -2.141571E+03  1.838226E+05  1.326301E+04  5.345044E+03
       380  23 -7.459292E+02 -8.116112E+04  1.557531E+03  1.509208E+05  5.235265E+02  6.089434E+03
       380  24  2.374494E+02 -8.087916E+04  5.856604E+03  1.838272E+05 -1.224111E+04  6.833863E+03
       380  25  5.430750E+04  1.521113E+05  4.490351E+04  1.834043E+05  1.322315E+04  2.183869E+04
       380  26  1.266736E+03 -7.275031E+04  3.207166E+03  1.508144E+05  4.835787E+02  2.261218E+04
       380  27 -5.174053E+04 -2.969948E+05 -3.786843E+04  1.840327E+05 -1.228100E+04  2.338543E+04
       381   1  8.837546E+04  2.946062E+05  8.354733E+04  1.794814E+05  2.158891E+04  1.321263E+04
       381   2  1.472534E+05  5.133210E+05  1.425209E+05  1.569490E+05  2.672126E+04 -2.419254E+04
       381   3  2.334011E+05  7.442964E+05  2.327620E+05  1.990909E+05  9.437355E+03 -6.167775E+04
       381   4 -1.494807E+03 -7.942700E+04  8.289655E+03  1.835569E+05  2.164121E+04 -7.851181E+03
       381   5  2.738250E+03 -8.305976E+04  1.596822E+04  1.512609E+05  2.670266E+04 -1.617935E+04
       381   6  2.921306E+04 -7.950972E+04  3.473977E+04  1.836396E+05  9.339281E+03 -2.457393E+04
       381   7 -9.137342E+04 -4.533259E+05 -6.697350E+04  1.876300E+05  2.169324E+04 -2.890255E+04
       381   8 -1.417998E+05 -6.791052E+05 -1.106045E+05  1.455786E+05  2.668391E+04 -8.173743E+03
       381   9 -1.750227E+05 -9.026915E+05 -1.633254E+05  1.682092E+05  9.239302E+03  1.248090E+04
       381  10  8.837491E+04  2.946059E+05  8.354613E+04  1.794811E+05  2.069765E-10  5.313689E-10
       381  11  1.472525E+05  5.133202E+05  1.425185E+05  1.569495E+05 -2.468292E-09  6.133253E-09
       381  12  2.334000E+05  7.442923E+05  2.327547E+05  1.990914E+05 -1.949906E-09 -7.727057E-09
       381  13 -1.495327E+03 -7.942719E+04  8.288659E+03  1.835570E+05 -3.060439E-09 -8.088996E-09
       381  14  2.737414E+03 -8.306024E+04  1.596639E+04  1.512613E+05  7.041940E-10  3.659570E-09
       381  15  2.921280E+04 -7.951039E+04  3.473848E+04  1.836398E+05 -7.837384E-10  3.935893E-10
       381  16 -9.137415E+04 -4.533269E+05 -6.697596E+04  1.876305E+05 -2.266534E-09 -2.430266E-09
       381  17 -1.418006E+05 -6.791054E+05 -1.106060E+05  1.455788E+05  2.636975E-09  7.030590E-09
       381  18 -1.750228E+05 -9.026917E+05 -1.633258E+05  1.682091E+05  3.853452E-10  8.058132E-10
       381  19  8.837546E+04  2.946062E+05  8.354733E+04  1.794814E+05 -2.158891E+04 -1.321263E+04
       381  20  1.472534E+05  5.133210E+05  1.425209E+05  1.569490E+05 -2.672126E+04  2.419254E+04
       381  21  2.334011E+05  7.442964E+05  2.327620E+05  1.990909E+05 -9.437355E+03  6.167775E+04
       381  22 -1.494807E+03 -7.942700E+04  8.289655E+03  1.835569E+05 -2.164121E+04  7.851181E+03
       381  23  2.738250E+03 -8.305976E+04  1.596822E+04  1.512609E+05 -2.670266E+04  1.617935E+04
       381  24  2.921306E+04 -7.950972E+04  3.473977E+04  1.836396E+05 -9.339281E+03  2.457393E+04
       381  25 -9.137342E+04 -4.533259E+05 -6.697350E+04  1.876300E+05 -2.169324E+04  2.890255E+04
       381  26 -1.417998E+05 -6.791052E+05 -1.106045E+05  1.455786E+05 -2.668391E+04  8.173743E+03
       381  27 -1.750227E+05 -9.026915E+05 -1.633254E+05  1.682092E+05 -9.239302E+03 -1.248090E+04
       382   1  4.819572E+05  1.981054E+05  1.206597E+05  1.835542E+05  5.454328E+04  1.738792E+04
       382   2  4.643212E+05  1.250345E+05  7.222499E+04  1.782199E+05  3.489505E+04  2.865105E+03
       382   3  4.631919E+05  1.050353E+05  5.339505E+04  1.660050E+05  1.313002E+04 -6.062320E+03
       382   4  3.065143E+05  1.046288E+05  6.900424E+04  1.075372E+05  4.523334E+04  1.386046E+04
       382   5  2.950039E+05  5.191604E+04  3.043526E+04  1.211080E+05  3.137604E+04  1.531845E+03
       382   6  2.988576E+05  5.113436E+04  1.688644E+04  1.277968E+05  1.540095E+04 -5.202434E+03
       382   7  1.311067E+05  1.116629E+04  1.734732E+04  3.154408E+04  3.592645E+04  1.033518E+04
       382   8  1.257163E+05 -2.119699E+04 -1.135633E+04  6.401166E+04  2.785810E+04  1.991282E+02
       382   9  1.345489E+05 -2.766400E+03 -1.962418E+04  8.959683E+04  1.767125E+04 -4.342721E+03
       382  10  4.819539E+05  1.981043E+05  1.206536E+05  1.835534E+05 -4.036153E-09 -3.925250E-09
       382  11  4.643199E+05  1.250341E+05  7.222269E+04  1.782198E+05 -4.750724E-09  4.525769E-09
       382  12  4.631917E+05  1.050352E+05  5.339466E+04  1.660051E+05 -3.302303E-09  4.328492E-09
       382  13  3.065120E+05  1.046280E+05  6.900004E+04  1.075367E+05  5.391001E-10 -4.762030E-09
       382  14  2.950028E+05  5.191577E+04  3.043341E+04  1.211080E+05 -2.150471E-09  6.897535E-10
       382  15  2.988574E+05  5.113426E+04  1.688595E+04  1.277968E+05 -3.540937E-09  7.432494E-09
       382  16  1.311053E+05  1.116583E+04  1.734470E+04  3.154378E+04  3.332702E-09  6.411090E-09
       382  17  1.257155E+05 -2.119720E+04 -1.135778E+04  6.401165E+04 -6.863164E-10  5.018124E-09
       382  18  1.345486E+05 -2.766504E+03 -1.962480E+04  8.959689E+04 -2.801680E-09  1.003922E-09
       382  19  4.819572E+05  1.981054E+05  1.206597E+05  1.835542E+05 -5.454328E+04 -1.738792E+04
       382  20  4.643212E+05  1.250345E+05  7.222499E+04  1.782199E+05 -3.489505E+04 -2.865105E+03
       382  21  4.631919E+05  1.050353E+05  5.339505E+04  1.660050E+05 -1.313002E+04  6.062320E+03
       382  22  3.065143E+05  1.046288E+05  6.900424E+04  1.075372E+05 -4.523334E+04 -1.386046E+04
       382  23  2.950039E+05  5.191604E+04  3.043526E+04  1.211080E+05 -3.137604E+04 -1.531845E+03
       382  24  2.988576E+05  5.113436E+04  1.688644E+04  1.277968E+05 -1.540095E+04  5.202434E+03
       382  25  1.311067E+05  1.116629E+04  1.734732E+04  3.154408E+04 -3.592645E+04 -1.033518E+04
       382  26  1.257163E+05 -2.119699E+04 -1.135633E+04  6.401166E+04 -2.785810E+04 -1.991282E+02
       382  27  1.345489E+05 -2.766400E+03 -1.962418E+04  8.959683E+04 -1.767125E+04  4.342721E+03
       383   1  4.413027E+05  1.099598E+05  4.672966E+04  1.661067E+05  1.220255E+04 -5.191182E+03
       383   2  4.254495E+05  9.795454E+04  3.611299E+04  1.586128E+05  8.133021E+03 -5.782865E+03
       383   3  4.062057E+05  9.318745E+04  2.894454E+04  1.560637E+05  3.964475E+03 -6.113107E+03
       383   4  2.966974E+05  5.528335E+04  1.322115E+04  1.250886E+05  1.292476E+04 -4.917869E+03
       383   5  2.982416E+05  5.044248E+04  6.901809E+03  1.230897E+05  9.126423E+03 -5.406749E+03
       383   6  2.963414E+05  5.278633E+04  3.816341E+03  1.260354E+05  5.228948E+03 -5.634211E+03
       383   7  1.521130E+05  6.087271E+02 -2.028877E+04  8.407931E+04  1.364680E+04 -4.644627E+03
       383   8  1.710502E+05  2.931863E+03 -2.231034E+04  8.757336E+04  1.011960E+04 -5.030719E+03
       383   9  1.864898E+05  1.238632E+04 -2.131246E+04  9.601213E+04  6.493171E+03 -5.155408E+03
       383  10  4.413025E+05  1.099597E+05  4.672933E+04  1.661067E+05 -8.722553E-10  5.768353E-09
       383  11  4.254495E+05  9.795449E+04  3.611280E+04  1.586128E+05  2.665650E-09  1.398703E-08
       383  12  4.062057E+05  9.318740E+04  2.894444E+04  1.560637E+05  8.002492E-09 -4.974137E-09
       383  13  2.966972E+05  5.528328E+04  1.322079E+04  1.250886E+05 -2.545476E-09  1.434159E-08
       383  14  2.982415E+05  5.044243E+04  6.901597E+03  1.230897E+05 -4.575429E-09 -8.096054E-09
       383  15  2.963414E+05  5.278629E+04  3.816230E+03  1.260354E+05 -9.557069E-10  1.114259E-08
       383  16  1.521128E+05  6.086539E+02 -2.028916E+04  8.407936E+04 -7.308857E-09  6.527271E-09
       383  17  1.710501E+05  2.931808E+03 -2.231058E+04  8.757340E+04 -6.891214E-09  6.598548E-09
       383  18  1.864897E+05  1.238628E+04 -2.131259E+04  9.601216E+04 -7.606864E-09 -1.287716E-09
       383  19  4.413027E+05  1.099598E+05  4.672966E+04  1.661067E+05 -1.220255E+04  5.191182E+03
       383  20  4.254495E+05  9.795454E+04  3.611299E+04  1.586128E+05 -8.133021E+03  5.782865E+03
       383  21  4.062057E+05  9.318745E+04  2.894454E+04  1.560637E+05 -3.964475E+03  6.113107E+03
       383  22  2.966974E+05  5.528335E+04  1.322115E+04  1.250886E+05 -1.292476E+04  4.917869E+03
       383  23  2.982416E+05  5.044248E+04  6.901809E+03  1.230897E+05 -9.126423E+03  5.406749E+03
       383  24  2.963414E+05  5.278633E+04  3.816341E+03  1.260354E+05 -5.228948E+03  5.634211E+03
       383  25  1.521130E+05  6.087271E+02 -2.028877E+04  8.407931E+04 -1.364680E+04  4.644627E+03
       383  26  1.710502E+05  2.931863E+03 -2.231034E+04  8.757336E+04 -1.011960E+04  5.030719E+03
       383  27  1.864898E+05  1.238632E+04 -2.131246E+04  9.601213E+04 -6.493171E+03  5.155408E+03
       384   1  3.920934E+05  8.857416E+04  2.478785E+04  1.524601E+05  3.234379E+03 -5.587467E+03
       384   2  3.765972E+05  7.946466E+04  1.945781E+04  1.448295E+05  1.992936E+03 -4.734293E+03
       384   3  3.564670E+05  7.527609E+04  1.475799E+04  1.426152E+05  7.470224E+02 -3.869612E+03
       384   4  2.961761E+05  5.297059E+04  2.889340E+03  1.258801E+05  4.425244E+03 -5.136406E+03
       384   5  2.984883E+05  5.046635E+04  1.586018E+03  1.231892E+05  3.195837E+03 -4.278607E+03
       384   6  2.961641E+05  5.288081E+04  9.035629E+02  1.259145E+05  1.961936E+03 -3.409309E+03
       384   7  2.002675E+05  1.736751E+04 -1.900993E+04  9.930371E+04  5.615918E+03 -4.685417E+03
       384   8  2.203852E+05  2.146841E+04 -1.628624E+04  1.015513E+05  4.398577E+03 -3.822982E+03
       384   9  2.358648E+05  3.048580E+04 -1.295111E+04  1.092153E+05  3.176722E+03 -2.949055E+03
       384  10  3.920934E+05  8.857412E+04  2.478777E+04  1.524601E+05  5.670529E-09 -1.146933E-09
       384  11  3.765972E+05  7.946464E+04  1.945776E+04  1.448296E+05  1.647458E-09 -6.472267E-09
       384  12  3.564670E+05  7.527607E+04  1.475796E+04  1.426152E+05  3.063403E-09 -3.624065E-09
       384  13  2.961761E+05  5.297056E+04  2.889254E+03  1.258801E+05  9.473674E-10  3.486433E-10
       384  14  2.984883E+05  5.046632E+04  1.585964E+03  1.231892E+05 -3.346276E-10 -3.831597E-09
       384  15  2.961641E+05  5.288079E+04  9.035338E+02  1.259145E+05  1.534856E-09  6.127009E-10
       384  16  2.002675E+05  1.736748E+04 -1.901003E+04  9.930373E+04 -4.213147E-09 -8.295657E-09
       384  17  2.203852E+05  2.146839E+04 -1.628631E+04  1.015513E+05  4.049267E-10 -1.103053E-10
       384  18  2.358648E+05  3.048578E+04 -1.295114E+04  1.092153E+05  1.185986E-09 -6.717103E-09
       384  19  3.920934E+05  8.857416E+04  2.478785E+04  1.524601E+05 -3.234379E+03  5.587467E+03
       384  20  3.765972E+05  7.946466E+04  1.945781E+04  1.448295E+05 -1.992936E+03  4.734293E+03
       384  21  3.564670E+05  7.527609E+04  1.475799E+04  1.426152E+05 -7.470224E+02  3.869612E+03
       384  22  2.961761E+05  5.297059E+04  2.889340E+03  1.258801E+05 -4.425244E+03  5.136406E+03
       384  23  2.984883E+05  5.046635E+04  1.586018E+03  1.231892E+05 -3.195837E+03  4.278607E+03
       384  24  2.961641E+05  5.288081E+04  9.035629E+02  1.259145E+05 -1.961936E+03  3.409309E+03
       384  25  2.002675E+05  1.736751E+04 -1.900993E+04  9.930371E+04 -5.615918E+03  4.685417E+03
       384  26  2.203852E+05  2.146841E+04 -1.628624E+04  1.015513E+05 -4.398577E+03  3.822982E+03
       384  27  2.358648E+05  3.048580E+04 -1.295111E+04  1.092153E+05 -3.176722E+03  2.949055E+03
       385   1  3.428178E+05  7.021242E+04  1.132210E+04  1.388466E+05  3.591835E+02 -3.235436E+03
       385   2  3.274065E+05  6.122419E+04  7.065503E+03  1.312086E+05 -3.111115E+02 -2.150149E+03
       385   3  3.072478E+05  5.702711E+04  2.979186E+03  1.289818E+05 -9.815280E+02 -1.064602E+03
       385   4  2.961443E+05  5.288485E+04  7.016758E+02  1.259013E+05  1.570205E+03 -2.776583E+03
       385   5  2.985185E+05  5.049000E+04  4.549776E+02  1.231955E+05  9.001814E+02 -1.691172E+03
       385   6  2.961449E+05  5.288626E+04  3.783555E+02  1.259009E+05  2.300264E+02 -6.054998E+02
       385   7  2.494732E+05  3.555756E+04 -9.918811E+03  1.129569E+05  2.781120E+03 -2.317770E+03
       385   8  2.696314E+05  3.975588E+04 -6.155597E+03  1.151827E+05  2.111413E+03 -1.232219E+03
       385   9  2.850422E+05  4.874539E+04 -2.222496E+03  1.228201E+05  1.441564E+03 -1.464042E+02
       385  10  3.428178E+05  7.021241E+04  1.132208E+04  1.388466E+05  2.327271E-09 -5.868901E-11
       385  11  3.274065E+05  6.122418E+04  7.065494E+03  1.312086E+05  2.737653E-09 -8.880277E-09
       385  12  3.072478E+05  5.702711E+04  2.979182E+03  1.289818E+05 -2.357123E-10 -7.458061E-09
       385  13  2.961443E+05  5.288485E+04  7.016567E+02  1.259013E+05  1.084108E-09 -3.684641E-09
       385  14  2.985185E+05  5.049000E+04  4.549707E+02  1.231955E+05  4.723043E-09 -5.396991E-09
       385  15  2.961449E+05  5.288626E+04  3.783547E+02  1.259009E+05  2.549288E-09 -1.003604E-08
       385  16  2.494732E+05  3.555755E+04 -9.918835E+03  1.129569E+05  5.002823E-09 -5.180934E-09
       385  17  2.696314E+05  3.975588E+04 -6.155608E+03  1.151827E+05  1.443632E-09 -5.698042E-09
       385  18  2.850422E+05  4.874539E+04 -2.222500E+03  1.228201E+05  1.549839E-09  5.587018E-09
       385  19  3.428178E+05  7.021242E+04  1.132210E+04  1.388466E+05 -3.591835E+02  3.235436E+03
       385  20  3.274065E+05  6.122419E+04  7.065503E+03  1.312086E+05  3.111115E+02  2.150149E+03
       385  21  3.072478E+05  5.702711E+04  2.979186E+03  1.289818E+05  9.815280E+02  1.064602E+03
       385  22  2.961443E+05  5.288485E+04  7.016758E+02  1.259013E+05 -1.570205E+03  2.776583E+03
       385  23  2.985185E+05  5.049000E+04  4.549776E+02  1.231955E+05 -9.001814E+02  1.691172E+03
       385  24  2.961449E+05  5.288626E+04  3.783555E+02  1.259009E+05 -2.300264E+02  6.054998E+02
       385  25  2.494732E+05  3.555756E+04 -9.918811E+03  1.129569E+05 -2.781120E+03  2.317770E+03
       385  26  2.696314E+05  3.975588E+04 -6.155597E+03  1.151827E+05 -2.111413E+03  1.232219E+03
       385  27  2.850422E+05  4.874539E+04 -2.222496E+03  1.228201E+05 -1.441564E+03  1.464042E+02
       386   1  2.936443E+05  5.194913E+04 -2.407489E+02  1.252139E+05 -1.303889E+03 -4.070261E+02
       386   2  2.782317E+05  4.296064E+04 -4.116860E+03  1.175786E+05 -2.007853E+03  6.657385E+02
       386   3  2.580779E+05  3.876486E+04 -7.797181E+03  1.153553E+05 -2.711640E+03  1.738218E+03
       386   4  2.961463E+05  5.288637E+04  3.906980E+02  1.259011E+05 -9.242391E+01  5.204553E+01
       386   5  2.985168E+05  5.048889E+04  5.236445E+02  1.231956E+05 -7.967311E+02  1.124662E+03
       386   6  2.961458E+05  5.288412E+04  8.526277E+02  1.259019E+05 -1.500868E+03  2.196989E+03
       386   7  2.986482E+05  5.382360E+04  1.022150E+03  1.265884E+05  1.119047E+03  5.111191E+02
       386   8  3.188023E+05  5.801716E+04  5.164110E+03  1.288128E+05  4.144300E+02  1.583600E+03
       386   9  3.342149E+05  6.700340E+04  9.502283E+03  1.364491E+05 -2.900237E+02  2.655788E+03
       386  10  2.936443E+05  5.194913E+04 -2.407524E+02  1.252139E+05  1.441764E-09  1.354780E-09
       386  11  2.782317E+05  4.296064E+04 -4.116868E+03  1.175786E+05 -1.331522E-09 -7.069171E-09
       386  12  2.580779E+05  3.876485E+04 -7.797200E+03  1.153553E+05  2.444246E-09 -9.721728E-09
       386  13  2.961463E+05  5.288637E+04  3.906979E+02  1.259011E+05 -1.462489E-09  8.516157E-09
       386  14  2.985168E+05  5.048889E+04  5.236410E+02  1.231956E+05 -1.461194E-09 -6.436769E-09
       386  15  2.961458E+05  5.288411E+04  8.526144E+02  1.259019E+05 -4.133807E-10 -2.815312E-09
       386  16  2.986482E+05  5.382360E+04  1.022148E+03  1.265884E+05  1.450451E-09  1.086109E-08
       386  17  3.188023E+05  5.801715E+04  5.164105E+03  1.288128E+05  2.513545E-09 -2.285856E-09
       386  18  3.342149E+05  6.700339E+04  9.502270E+03  1.364491E+05  6.743978E-10 -2.101119E-09
       386  19  2.936443E+05  5.194913E+04 -2.407489E+02  1.252139E+05  1.303889E+03  4.070261E+02
       386  20  2.782317E+05  4.296064E+04 -4.116860E+03  1.175786E+05  2.007853E+03 -6.657385E+02
       386  21  2.580779E+05  3.876486E+04 -7.797181E+03  1.153553E+05  2.711640E+03 -1.738218E+03
       386  22  2.961463E+05  5.288637E+04  3.906980E+02  1.259011E+05  9.242391E+01 -5.204553E+01
       386  23  2.985168E+05  5.048889E+04  5.236445E+02  1.231956E+05  7.967311E+02 -1.124662E+03
       386  24  2.961458E+05  5.288412E+04  8.526277E+02  1.259019E+05  1.500868E+03 -2.196989E+03
       386  25  2.986482E+05  5.382360E+04  1.022150E+03  1.265884E+05 -1.119047E+03 -5.111191E+02
       386  26  3.188023E+05  5.801716E+04  5.164110E+03  1.288128E+05 -4.144300E+02 -1.583600E+03
       386  27  3.342149E+05  6.700340E+04  9.502283E+03  1.364491E+05  2.900237E+02 -2.655788E+03
       387   1  2.444730E+05  3.369585E+04 -1.077239E+04  1.116208E+05 -3.136687E+03  2.358165E+03
       387   2  2.289798E+05  2.467794E+04 -1.392655E+04  1.039557E+05 -4.552110E+03  3.158589E+03
       387   3  2.088873E+05  2.060713E+04 -1.631723E+04  1.017056E+05 -5.963186E+03  3.947896E+03
       387   4  2.961717E+05  5.287861E+04  1.111363E+03  1.259177E+05 -1.922255E+03  2.818301E+03
       387   5  2.984778E+05  5.046041E+04  1.973309E+03  1.231886E+05 -3.349319E+03  3.614261E+03
       387   6  2.961870E+05  5.299171E+04  3.608004E+03  1.258744E+05 -4.772062E+03  4.399094E+03
       387   7  3.478734E+05  7.206170E+04  1.299503E+04  1.402158E+05 -7.077071E+02  3.278481E+03
       387   8  3.679809E+05  7.624333E+04  1.787291E+04  1.424235E+05 -2.146378E+03  4.069989E+03
       387   9  3.834943E+05  8.537688E+04  2.353275E+04  1.500464E+05 -3.580756E+03  4.850360E+03
       387  10  2.444729E+05  3.369584E+04 -1.077242E+04  1.116208E+05  5.352634E-09 -5.966001E-09
       387  11  2.289798E+05  2.467792E+04 -1.392660E+04  1.039557E+05 -6.991657E-10 -8.474523E-09
       387  12  2.088872E+05  2.060710E+04 -1.631733E+04  1.017056E+05 -1.432066E-08  2.074184E-10
       387  13  2.961717E+05  5.287860E+04  1.111342E+03  1.259177E+05  1.793403E-09 -6.903421E-09
       387  14  2.984778E+05  5.046039E+04  1.973264E+03  1.231886E+05  3.445401E-10 -1.084984E-08
       387  15  2.961869E+05  5.299168E+04  3.607925E+03  1.258744E+05 -1.831684E-09  7.938142E-09
       387  16  3.478734E+05  7.206169E+04  1.299501E+04  1.402158E+05 -1.639381E-09 -3.527180E-09
       387  17  3.679809E+05  7.624331E+04  1.787287E+04  1.424235E+05  5.500398E-09 -1.053476E-08
       387  18  3.834943E+05  8.537685E+04  2.353268E+04  1.500464E+05  9.204136E-09  3.137386E-09
       387  19  2.444730E+05  3.369585E+04 -1.077239E+04  1.116208E+05  3.136687E+03 -2.358165E+03
       387  20  2.289798E+05  2.467794E+04 -1.392655E+04  1.039557E+05  4.552110E+03 -3.158589E+03
       387  21  2.088873E+05  2.060713E+04 -1.631723E+04  1.017056E+05  5.963186E+03 -3.947896E+03
       387  22  2.961717E+05  5.287861E+04  1.111363E+03  1.259177E+05  1.922255E+03 -2.818301E+03
       387  23  2.984778E+05  5.046041E+04  1.973309E+03  1.231886E+05  3.349319E+03 -3.614261E+03
       387  24  2.961870E+05  5.299171E+04  3.608004E+03  1.258744E+05  4.772062E+03 -4.399094E+03
       387  25  3.478734E+05  7.206170E+04  1.299503E+04  1.402158E+05  7.077071E+02 -3.278481E+03
       387  26  3.679809E+05  7.624333E+04  1.787291E+04  1.424235E+05  2.146378E+03 -4.069989E+03
       387  27  3.834943E+05  8.537688E+04  2.353275E+04  1.500464E+05  3.580756E+03 -4.850360E+03
       388   1  1.950858E+05  1.565694E+04 -1.838446E+04  9.853917E+04 -6.970908E+03  4.367207E+03
       388   2  1.796508E+05  6.097200E+03 -1.860274E+04  8.990486E+04 -1.148227E+04  3.910724E+03
       388   3  1.610606E+05  4.272133E+03 -1.498166E+04  8.609689E+04 -1.589860E+04  3.204143E+03
       388   4  2.963949E+05  5.276174E+04  4.769033E+03  1.260692E+05 -5.709417E+03  4.845020E+03
       388   5  2.981698E+05  5.043118E+04  8.629551E+03  1.230638E+05 -1.048029E+04  4.290129E+03
       388   6  2.968403E+05  5.588606E+04  1.653455E+04  1.248845E+05 -1.515628E+04  3.485099E+03
       388   7  3.977137E+05  8.986703E+04  2.792168E+04  1.536032E+05 -4.447709E+03  5.322911E+03
       388   8  4.167028E+05  9.476628E+04  3.586091E+04  1.562286E+05 -9.478095E+03  4.669613E+03
       388   9  4.326393E+05  1.075019E+05  4.804973E+04  1.636801E+05 -1.441377E+04  3.766126E+03
       388  10  1.950857E+05  1.565690E+04 -1.838458E+04  9.853920E+04  1.280196E-08  9.211864E-09
       388  11  1.796506E+05  6.097148E+03 -1.860302E+04  8.990490E+04 -6.707351E-09 -8.855273E-11
       388  12  1.610603E+05  4.272055E+03 -1.498215E+04  8.609693E+04 -3.348785E-08 -2.253604E-08
       388  13  2.963949E+05  5.276171E+04  4.768928E+03  1.260692E+05 -3.834870E-09 -4.296003E-10
       388  14  2.981697E+05  5.043113E+04  8.629310E+03  1.230639E+05 -3.188410E-09  1.244955E-08
       388  15  2.968400E+05  5.588599E+04  1.653410E+04  1.248845E+05 -7.272121E-09 -3.987011E-09
       388  16  3.977136E+05  8.986699E+04  2.792159E+04  1.536032E+05 -1.690724E-08 -6.453847E-09
       388  17  4.167027E+05  9.476624E+04  3.586070E+04  1.562286E+05  5.560339E-09  1.080745E-08
       388  18  4.326390E+05  1.075019E+05  4.804931E+04  1.636801E+05  1.635876E-08  1.194425E-08
       388  19  1.950858E+05  1.565694E+04 -1.838446E+04  9.853917E+04  6.970908E+03 -4.367207E+03
       388  20  1.796508E+05  6.097200E+03 -1.860274E+04  8.990486E+04  1.148227E+04 -3.910724E+03
       388  21  1.610606E+05  4.272133E+03 -1.498166E+04  8.609689E+04  1.589860E+04 -3.204143E+03
       388  22  2.963949E+05  5.276174E+04  4.769033E+03  1.260692E+05  5.709417E+03 -4.845020E+03
       388  23  2.981698E+05  5.043118E+04  8.629551E+03  1.230638E+05  1.048029E+04 -4.290129E+03
       388  24  2.968403E+05  5.588606E+04  1.653455E+04  1.248845E+05  1.515628E+04 -3.485099E+03
       388  25  3.977137E+05  8.986703E+04  2.792168E+04  1.536032E+05  4.447709E+03 -5.322911E+03
       388  26  4.167028E+05  9.476628E+04  3.586091E+04  1.562286E+05  9.478095E+03 -4.669613E+03
       388  27  4.326393E+05  1.075019E+05  4.804973E+04  1.636801E+05  1.441377E+04 -3.766126E+03
       389   1  1.425669E+05  1.348877E+03 -1.340625E+04  9.397938E+04 -2.036915E+04  2.713735E+03
       389   2  1.353224E+05 -1.944051E+04 -1.685350E+03  6.381677E+04 -3.489530E+04 -3.384070E+03
       389   3  1.473542E+05  2.248494E+04  3.694244E+04  2.374593E+04 -4.739479E+04 -1.483356E+04
       389   4  2.995300E+05  5.070949E+04  2.111900E+04  1.282845E+05 -1.814536E+04  3.556028E+03
       389   5  2.941370E+05  5.226073E+04  3.806500E+04  1.205692E+05 -3.821055E+04 -4.640421E+03
       389   6  3.091101E+05  1.176124E+05  8.630386E+04  1.029478E+05 -5.624942E+04 -1.818906E+04
       389   7  4.565183E+05  1.000706E+05  5.564295E+04  1.625969E+05 -1.592096E+04  4.398473E+03
       389   8  4.529758E+05  1.239668E+05  7.781304E+04  1.773355E+05 -4.152668E+04 -5.897275E+03
       389   9  4.708909E+05  2.127530E+05  1.356622E+05  1.821702E+05 -6.510637E+04 -2.154665E+04
       389  10  1.425664E+05  1.348758E+03 -1.340704E+04  9.397942E+04  2.488423E-08  6.195990E-09
       389  11  1.353211E+05 -1.944085E+04 -1.687659E+03  6.381668E+04  1.449870E-08  6.069828E-09
       389  12  1.473517E+05  2.248410E+04  3.693780E+04  2.374537E+04 -5.056341E-09 -2.055401E-09
       389  13  2.995296E+05  5.070939E+04  2.111836E+04  1.282845E+05 -9.355097E-09 -4.627881E-10
       389  14  2.941354E+05  5.226032E+04  3.806222E+04  1.205690E+05 -1.550703E-09 -7.368560E-09
       389  15  3.091066E+05  1.176112E+05  8.629729E+04  1.029469E+05  1.004588E-09  2.019412E-09
       389  16  4.565180E+05  1.000705E+05  5.564244E+04  1.625969E+05 -3.887386E-08 -1.167029E-08
       389  17  4.529739E+05  1.239663E+05  7.780973E+04  1.773353E+05 -1.181695E-08 -1.096918E-08
       389  18  4.708863E+05  2.127513E+05  1.356533E+05  1.821691E+05  5.424337E-09 -2.920436E-09
       389  19  1.425669E+05  1.348877E+03 -1.340625E+04  9.397938E+04  2.036915E+04 -2.713735E+03
       389  20  1.353224E+05 -1.944051E+04 -1.685350E+03  6.381677E+04  3.489530E+04  3.384070E+03
       389  21  1.473542E+05  2.248494E+04  3.694244E+04  2.374593E+04  4.739479E+04  1.483356E+04
       389  22  2.995300E+05  5.070949E+04  2.111900E+04  1.282845E+05  1.814536E+04 -3.556028E+03
       389  23  2.941370E+05  5.226073E+04  3.806500E+04  1.205692E+05  3.821055E+04  4.640421E+03
       389  24  3.091101E+05  1.176124E+05  8.630386E+04  1.029478E+05  5.624942E+04  1.818906E+04
       389  25  4.565183E+05  1.000706E+05  5.564295E+04  1.625969E+05  1.592096E+04 -4.398473E+03
       389  26  4.529758E+05  1.239668E+05  7.781304E+04  1.773355E+05  4.152668E+04  5.897275E+03
       389  27  4.708909E+05  2.127530E+05  1.356622E+05  1.821702E+05  6.510637E+04  2.154665E+04
       390   1 -1.150088E+05 -5.620430E+05 -1.140461E+05  9.184776E+04 -4.530903E+03 -2.526443E+04
       390   2 -7.279086E+04 -4.438998E+05 -7.130879E+04  6.798626E+04 -1.297384E+04 -8.853006E+03
       390   3 -4.347760E+04 -3.308009E+05 -4.244503E+04  8.322424E+04 -9.911125E+03  7.596086E+03
       390   4 -1.292330E+04 -1.514316E+05 -1.464904E+04  8.438604E+04 -4.575560E+03 -9.658186E+03
       390   5 -1.137794E+03 -1.499952E+05 -7.145768E+03  6.485490E+04 -1.298159E+04 -5.937385E+03
       390   6 -4.858191E+01 -1.514097E+05 -4.695367E+03  8.442300E+04 -9.884201E+03 -2.182259E+03
       390   7  8.915015E+04  2.593347E+05  8.473687E+04  7.691947E+04 -4.620578E+03  5.958354E+03
       390   8  7.050955E+04  1.439904E+05  5.701208E+04  6.172210E+04 -1.298937E+04 -3.020400E+03
       390   9  4.337842E+04  2.801207E+04  3.305285E+04  8.562214E+04 -9.857319E+03 -1.196339E+04
       390  10 -1.150090E+05 -5.620437E+05 -1.140474E+05  9.184767E+04  1.569211E-09 -2.656559E-09
       390  11 -7.279106E+04 -4.439000E+05 -7.130925E+04  6.798617E+04  3.381756E-09 -4.669806E-09
       390  12 -4.347772E+04 -3.308010E+05 -4.244533E+04  8.322430E+04  1.825633E-09 -9.749321E-09
       390  13 -1.292335E+04 -1.514317E+05 -1.464926E+04  8.438601E+04  2.995579E-09 -2.120921E-09
       390  14 -1.137984E+03 -1.499953E+05 -7.146151E+03  6.485484E+04 -6.192288E-10 -2.156691E-09
       390  15 -4.868809E+01 -1.514098E+05 -4.695560E+03  8.442299E+04  7.552412E-10 -8.714033E-09
       390  16  8.915011E+04  2.593347E+05  8.473677E+04  7.691949E+04  1.056603E-09  5.034419E-10
       390  17  7.050937E+04  1.439904E+05  5.701175E+04  6.172207E+04  1.826540E-09  1.455866E-09
       390  18  4.337828E+04  2.801189E+04  3.305240E+04  8.562205E+04 -6.822218E-10  6.037550E-09
       390  19 -1.150088E+05 -5.620430E+05 -1.140461E+05  9.184776E+04  4.530903E+03  2.526443E+04
       390  20 -7.279086E+04 -4.438998E+05 -7.130879E+04  6.798626E+04  1.297384E+04  8.853006E+03
       390  21 -4.347760E+04 -3.308009E+05 -4.244503E+04  8.322424E+04  9.911125E+03 -7.596086E+03
       390  22 -1.292330E+04 -1.514316E+05 -1.464904E+04  8.438604E+04  4.575560E+03  9.658186E+03
       390  23 -1.137794E+03 -1.499952E+05 -7.145768E+03  6.485490E+04  1.298159E+04  5.937385E+03
       390  24 -4.858191E+01 -1.514097E+05 -4.695367E+03  8.442300E+04  9.884201E+03  2.182259E+03
       390  25  8.915015E+04  2.593347E+05  8.473687E+04  7.691947E+04  4.620578E+03 -5.958354E+03
       390  26  7.050955E+04  1.439904E+05  5.701208E+04  6.172210E+04  1.298937E+04  3.020400E+03
       390  27  4.337842E+04  2.801207E+04  3.305285E+04  8.562214E+04  9.857319E+03  1.196339E+04
       391   1 -2.354913E+04 -2.440021E+05 -2.387483E+04  8.505177E+04 -4.997370E+03  5.511620E+03
       391   2  5.041102E+03 -1.282838E+05  9.835630E+02  6.465028E+04  1.292605E+03  7.304439E+03
       391   3  3.231948E+04 -1.282627E+04  2.441364E+04  8.392110E+04  7.525186E+03  9.097569E+03
       391   4 -9.653759E+02 -1.508346E+05 -4.158226E+03  8.454167E+04 -4.978423E+03 -1.467935E+03
       391   5 -3.736636E+02 -1.506932E+05 -3.676419E+03  6.470523E+04  1.311485E+03  3.877249E+02
       391   6 -1.103969E+03 -1.508362E+05 -4.666219E+03  8.454130E+04  7.543958E+03  2.243378E+03
       391   7  2.161784E+04 -5.765881E+04  1.555807E+04  8.403150E+04 -4.959466E+03 -8.448521E+03
       391   8 -5.788436E+03 -1.731020E+05 -8.336249E+03  6.476018E+04  1.330365E+03 -6.528743E+03
       391   9 -3.452862E+04 -2.888281E+05 -3.374698E+04  8.516136E+04  7.562718E+03 -4.609314E+03
       391  10 -2.354916E+04 -2.440021E+05 -2.387493E+04  8.505180E+04  8.950829E-10 -1.646198E-08
       391  11  5.041086E+03 -1.282839E+05  9.834596E+02  6.465027E+04  4.846995E-09 -7.377233E-09
       391  12  3.231940E+04 -1.282637E+04  2.441338E+04  8.392105E+04  9.892889E-10  1.337504E-08
       391  13 -9.654030E+02 -1.508346E+05 -4.158277E+03  8.454167E+04  9.690016E-10 -4.316093E-09
       391  14 -3.736655E+02 -1.506932E+05 -3.676423E+03  6.470523E+04  5.740133E-09 -1.276042E-08
       391  15 -1.104031E+03 -1.508362E+05 -4.666336E+03  8.454128E+04  3.816410E-09 -1.376342E-08
       391  16  2.161779E+04 -5.765890E+04  1.555789E+04  8.403146E+04  5.314510E-10  1.535240E-08
       391  17 -5.788449E+03 -1.731021E+05 -8.336332E+03  6.476019E+04  2.556305E-09 -6.909096E-10
       391  18 -3.452869E+04 -2.888281E+05 -3.374713E+04  8.516139E+04  2.206681E-09 -1.674266E-08
       391  19 -2.354913E+04 -2.440021E+05 -2.387483E+04  8.505177E+04  4.997370E+03 -5.511620E+03
       391  20  5.041102E+03 -1.282838E+05  9.835630E+02  6.465028E+04 -1.292605E+03 -7.304439E+03
       391  21  3.231948E+04 -1.282627E+04  2.441364E+04  8.392110E+04 -7.525186E+03 -9.097569E+03
       391  22 -9.653759E+02 -1.508346E+05 -4.158226E+03  8.454167E+04  4.978423E+03  1.467935E+03
       391  23 -3.736636E+02 -1.506932E+05 -3.676419E+03  6.470523E+04 -1.311485E+03 -3.877249E+02
       391  24 -1.103969E+03 -1.508362E+05 -4.666219E+03  8.454130E+04 -7.543958E+03 -2.243378E+03
       391  25  2.161784E+04 -5.765881E+04  1.555807E+04  8.403150E+04  4.959466E+03  8.448521E+03
       391  26 -5.788436E+03 -1.731020E+05 -8.336249E+03  6.476018E+04 -1.330365E+03  6.528743E+03
       391  27 -3.452862E+04 -2.888281E+05 -3.374698E+04  8.516136E+04 -7.562718E+03  4.609314E+03
       392   1  5.431969E+04  7.271901E+04  4.161576E+04  8.590306E+04  1.247956E+04  1.301409E+04
       392   2  8.119206E+04  1.889492E+05  6.506052E+04  6.104779E+04  1.520497E+04  3.623473E+03
       392   3  9.729415E+04  3.040431E+05  9.199346E+04  7.522146E+04  5.286560E+03 -5.806925E+03
       392   4  5.569307E+01 -1.515734E+05 -5.461909E+03  8.440991E+04  1.250725E+04  3.051467E+03
       392   5 -1.329743E+03 -1.497996E+05 -8.692994E+03  6.487121E+04  1.519418E+04  7.621505E+03
       392   6 -1.591143E+04 -1.515986E+05 -1.813133E+04  8.436357E+04  5.234010E+03  1.215325E+04
       392   7 -5.421147E+04 -3.758180E+05 -5.254202E+04  8.291732E+04  1.253500E+04 -6.907611E+03
       392   8 -8.385911E+04 -4.884407E+05 -8.245333E+04  6.869258E+04  1.518343E+04  1.161738E+04
       392   9 -1.291318E+05 -6.070497E+05 -1.282698E+05  9.349908E+04  5.181970E+03  3.010028E+04
       392  10  5.431948E+04  7.271879E+04  4.161515E+04  8.590293E+04 -5.154445E-10 -6.743376E-10
       392  11  8.119180E+04  1.889491E+05  6.506006E+04  6.104774E+04 -1.046058E-09 -2.987125E-09
       392  12  9.729411E+04  3.040431E+05  9.199335E+04  7.522148E+04 -1.190157E-09 -7.262322E-09
       392  13  5.552261E+01 -1.515734E+05 -5.462220E+03  8.440988E+04 -2.389727E-09 -3.370822E-11
       392  14 -1.330006E+03 -1.497997E+05 -8.693537E+03  6.487111E+04  5.675141E-10 -4.268766E-09
       392  15 -1.591150E+04 -1.515988E+05 -1.813166E+04  8.436352E+04 -9.969705E-10 -9.987331E-09
       392  16 -5.421165E+04 -3.758181E+05 -5.254240E+04  8.291739E+04  9.564324E-11 -5.751330E-09
       392  17 -8.385939E+04 -4.884409E+05 -8.245402E+04  6.869244E+04  3.491044E-10  1.428072E-09
       392  18 -1.291320E+05 -6.070507E+05 -1.282715E+05  9.349896E+04 -8.950522E-10  3.253562E-09
       392  19  5.431969E+04  7.271901E+04  4.161576E+04  8.590306E+04 -1.247956E+04 -1.301409E+04
       392  20  8.119206E+04  1.889492E+05  6.506052E+04  6.104779E+04 -1.520497E+04 -3.623473E+03
       392  21  9.729415E+04  3.040431E+05  9.199346E+04  7.522146E+04 -5.286560E+03  5.806925E+03
       392  22  5.569307E+01 -1.515734E+05 -5.461909E+03  8.440991E+04 -1.250725E+04 -3.051467E+03
       392  23 -1.329743E+03 -1.497996E+05 -8.692994E+03  6.487121E+04 -1.519418E+04 -7.621505E+03
       392  24 -1.591143E+04 -1.515986E+05 -1.813133E+04  8.436357E+04 -5.234010E+03 -1.215325E+04
       392  25 -5.421147E+04 -3.758180E+05 -5.254202E+04  8.291732E+04 -1.253500E+04  6.907611E+03
       392  26 -8.385911E+04 -4.884407E+05 -8.245333E+04  6.869258E+04 -1.518343E+04 -1.161738E+04
       392  27 -1.291318E+05 -6.070497E+05 -1.282698E+05  9.349908E+04 -5.181970E+03 -3.010028E+04
       393   1  1.048200E+05 -1.464927E+05 -1.378975E+05 -2.818737E+04 -1.703749E+04  9.177099E+03
       393   2  1.569582E+05 -1.474574E+05 -1.213641E+05 -2.559885E+04 -3.159312E+03  2.954967E+04
       393   3  2.105114E+05 -1.360373E+05 -1.107527E+05 -4.021212E+04  1.073773E+04  3.251820E+04
       393   4  7.705429E+05  1.851765E+04  2.184425E+04 -3.756141E+04  1.506153E+04  9.205751E+03
       393   5  7.681849E+05  1.019391E+03  1.012491E+04 -2.895377E+04  9.722591E+03  2.955709E+04
       393   6  7.705695E+05 -7.664387E+02  5.820095E+03 -3.754686E+04  4.401091E+03  3.251239E+04
       393   7  1.436674E+06  1.834967E+05  1.815585E+05 -4.694562E+04  4.719482E+04  9.233419E+03
       393   8  1.379763E+06  1.494718E+05  1.415926E+05 -3.231210E+04  2.261699E+04  2.956437E+04
       393   9  1.330924E+06  1.344845E+05  1.223758E+05 -3.487919E+04 -1.941168E+03  3.250652E+04
       393  10  1.048197E+05 -1.464929E+05 -1.378982E+05 -2.818724E+04  1.583320E-10  5.295420E-11
       393  11  1.569579E+05 -1.474583E+05 -1.213657E+05 -2.559878E+04  6.229201E-11  1.738813E-11
       393  12  2.105110E+05 -1.360384E+05 -1.107549E+05 -4.021241E+04  2.419926E-10 -5.993559E-11
       393  13  7.705426E+05  1.851750E+04  2.184366E+04 -3.756152E+04  5.775228E-10  6.539861E-11
       393  14  7.681846E+05  1.018427E+03  1.012309E+04 -2.895401E+04  4.114095E-10  1.877579E-10
       393  15  7.705692E+05 -7.675794E+02  5.818071E+03 -3.754698E+04  8.710435E-10  8.076961E-11
       393  16  1.436671E+06  1.834961E+05  1.815541E+05 -4.694597E+04 -4.660618E-10  6.107055E-11
       393  17  1.379762E+06  1.494707E+05  1.415900E+05 -3.231264E+04 -4.599186E-10  1.587729E-10
       393  18  1.330924E+06  1.344834E+05  1.223738E+05 -3.487914E+04 -1.068583E-10 -3.769268E-12
       393  19  1.048200E+05 -1.464927E+05 -1.378975E+05 -2.818737E+04  1.703749E+04 -9.177099E+03
       393  20  1.569582E+05 -1.474574E+05 -1.213641E+05 -2.559885E+04  3.159312E+03 -2.954967E+04
       393  21  2.105114E+05 -1.360373E+05 -1.107527E+05 -4.021212E+04 -1.073773E+04 -3.251820E+04
       393  22  7.705429E+05  1.851765E+04  2.184425E+04 -3.756141E+04 -1.506153E+04 -9.205751E+03
       393  23  7.681849E+05  1.019391E+03  1.012491E+04 -2.895377E+04 -9.722591E+03 -2.955709E+04
       393  24  7.705695E+05 -7.664387E+02  5.820095E+03 -3.754686E+04 -4.401091E+03 -3.251239E+04
       393  25  1.436674E+06  1.834967E+05  1.815585E+05 -4.694562E+04 -4.719482E+04 -9.233419E+03
       393  26  1.379763E+06  1.494718E+05  1.415926E+05 -3.231210E+04 -2.261699E+04 -2.956437E+04
       393  27  1.330924E+06  1.344845E+05  1.223758E+05 -3.487919E+04  1.941168E+03 -3.250652E+04
       394   1  2.490031E+05 -1.251131E+05 -1.041983E+05 -3.764316E+04  5.457836E+03  2.965557E+04
       394   2  3.011049E+05 -1.131087E+05 -9.470708E+04 -2.884222E+04  5.164703E+03  2.753988E+04
       394   3  3.534598E+05 -1.005421E+05 -8.486736E+04 -3.794433E+04  4.870476E+03  2.455654E+04
       394   4  7.696161E+05  7.057907E+02  4.569962E+03 -3.770627E+04  3.602828E+03  2.965277E+04
       394   5  7.694157E+05 -5.759770E+01  2.509375E+03 -2.875502E+04  2.350586E+03  2.753727E+04
       394   6  7.696320E+05 -9.260859E+01  1.462531E+03 -3.770600E+04  1.097276E+03  2.455444E+04
       394   7  1.290485E+06  1.265074E+05  1.133232E+05 -3.776946E+04  1.746290E+03  2.964997E+04
       394   8  1.237934E+06  1.129796E+05  9.971388E+04 -2.866778E+04 -4.656163E+02  2.753466E+04
       394   9  1.185968E+06  1.003460E+05  8.778303E+04 -3.746750E+04 -2.678408E+03  2.455233E+04
       394  10  2.490029E+05 -1.251140E+05 -1.042000E+05 -3.764329E+04  3.392830E-11  2.473356E-11
       394  11  3.011046E+05 -1.131095E+05 -9.470855E+04 -2.884233E+04 -1.171736E-10 -1.188031E-10
       394  12  3.534596E+05 -1.005428E+05 -8.486854E+04 -3.794443E+04  1.463831E-10 -5.097940E-11
       394  13  7.696159E+05  7.048427E+02  4.568285E+03 -3.770636E+04  3.117652E-10 -2.892972E-12
       394  14  7.694155E+05 -5.841376E+01  2.507940E+03 -2.875508E+04  1.307339E-10  7.968175E-12
       394  15  7.696318E+05 -9.325658E+01  1.461395E+03 -3.770602E+04  4.028983E-10  2.081009E-11
       394  16  1.290485E+06  1.265064E+05  1.133216E+05 -3.776951E+04 -1.222215E-10 -1.698467E-11
       394  17  1.237934E+06  1.129788E+05  9.971245E+04 -2.866777E+04 -1.674035E-10  9.098706E-11
       394  18  1.185968E+06  1.003453E+05  8.778189E+04 -3.746745E+04 -9.919881E-11  9.392021E-12
       394  19  2.490031E+05 -1.251131E+05 -1.041983E+05 -3.764316E+04 -5.457836E+03 -2.965557E+04
       394  20  3.011049E+05 -1.131087E+05 -9.470708E+04 -2.884222E+04 -5.164703E+03 -2.753988E+04
       394  21  3.534598E+05 -1.005421E+05 -8.486736E+04 -3.794433E+04 -4.870476E+03 -2.455654E+04
       394  22  7.696161E+05  7.057907E+02  4.569962E+03 -3.770627E+04 -3.602828E+03 -2.965277E+04
       394  23  7.694157E+05 -5.759770E+01  2.509375E+03 -2.875502E+04 -2.350586E+03 -2.753727E+04
       394  24  7.696320E+05 -9.260859E+01  1.462531E+03 -3.770600E+04 -1.097276E+03 -2.455444E+04
       394  25  1.290485E+06  1.265074E+05  1.133232E+05 -3.776946E+04 -1.746290E+03 -2.964997E+04
       394  26  1.237934E+06  1.129796E+05  9.971388E+04 -2.866778E+04  4.656163E+02 -2.753466E+04
       394  27  1.185968E+06  1.003460E+05  8.778303E+04 -3.746750E+04  2.678408E+03 -2.455233E+04
       395   1  3.920499E+05 -9.109359E+04 -7.695205E+04 -3.777705E+04  4.410098E+03  2.259398E+04
       395   2  4.439012E+05 -7.860693E+04 -6.675567E+04 -2.882605E+04  4.119422E+03  1.936863E+04
       395   3  4.958310E+05 -6.609274E+04 -5.635563E+04 -3.770407E+04  3.827593E+03  1.610512E+04
       395   4  7.695646E+05 -2.275300E+01  1.127504E+03 -3.768968E+04  8.691387E+02  2.259235E+04
       395   5  7.695279E+05 -3.882230E+01  6.755681E+02 -2.877546E+04  5.360166E+02  1.936758E+04
       395   6  7.695751E+05 -1.967126E+01  4.568871E+02 -3.768969E+04  2.017649E+02  1.610465E+04
       395   7  1.147214E+06  9.103907E+04  7.919938E+04 -3.760227E+04 -2.673936E+03  2.259073E+04
       395   8  1.095255E+06  7.852258E+04  6.810109E+04 -2.872484E+04 -3.049235E+03  1.936652E+04
       395   9  1.043390E+06  6.604865E+04  5.726537E+04 -3.767530E+04 -3.425633E+03  1.610418E+04
       395  10  3.920497E+05 -9.109414E+04 -7.695305E+04 -3.777713E+04  8.128510E-11 -8.403971E-11
       395  11  4.439011E+05 -7.860734E+04 -6.675641E+04 -2.882611E+04  1.562912E-11 -1.135912E-10
       395  12  4.958309E+05 -6.609302E+04 -5.635615E+04 -3.770412E+04  1.229864E-10 -1.514579E-10
       395  13  7.695644E+05 -2.330150E+01  1.126543E+03 -3.768970E+04  1.536420E-10 -4.439278E-11
       395  14  7.695278E+05 -3.922532E+01  6.748624E+02 -2.877547E+04  2.150181E-11 -3.518658E-12
       395  15  7.695751E+05 -1.994988E+01  4.563995E+02 -3.768969E+04  7.012185E-11  9.858582E-13
       395  16  1.147214E+06  9.103852E+04  7.919841E+04 -3.760222E+04 -9.806555E-11 -1.023456E-10
       395  17  1.095255E+06  7.852217E+04  6.810037E+04 -2.872479E+04  3.946679E-12  5.037700E-11
       395  18  1.043390E+06  6.604837E+04  5.726486E+04 -3.767525E+04 -9.308858E-11 -1.550762E-11
       395  19  3.920499E+05 -9.109359E+04 -7.695205E+04 -3.777705E+04 -4.410098E+03 -2.259398E+04
       395  20  4.439012E+05 -7.860693E+04 -6.675567E+04 -2.882605E+04 -4.119422E+03 -1.936863E+04
       395  21  4.958310E+05 -6.609274E+04 -5.635563E+04 -3.770407E+04 -3.827593E+03 -1.610512E+04
       395  22  7.695646E+05 -2.275300E+01  1.127504E+03 -3.768968E+04 -8.691387E+02 -2.259235E+04
       395  23  7.695279E+05 -3.882230E+01  6.755681E+02 -2.877546E+04 -5.360166E+02 -1.936758E+04
       395  24  7.695751E+05 -1.967126E+01  4.568871E+02 -3.768969E+04 -2.017649E+02 -1.610465E+04
       395  25  1.147214E+06  9.103907E+04  7.919938E+04 -3.760227E+04  2.673936E+03 -2.259073E+04
       395  26  1.095255E+06  7.852258E+04  6.810109E+04 -2.872484E+04  3.049235E+03 -1.936652E+04
       395  27  1.043390E+06  6.604865E+04  5.726537E+04 -3.767530E+04  3.425633E+03 -1.610418E+04
       396   1  5.342588E+05 -5.675800E+04 -4.817935E+04 -3.767609E+04  3.733954E+03  1.419732E+04
       396   2  5.859205E+05 -4.431281E+04 -3.763736E+04 -2.877909E+04  3.545172E+03  1.093019E+04
       396   3  6.376180E+05 -3.186147E+04 -2.696944E+04 -3.764300E+04  3.355728E+03  7.664280E+03
       396   4  7.695678E+05 -1.416754E+01  4.008412E+02 -3.767461E+04  1.240783E+02  1.419713E+04
       396   5  7.695546E+05 -1.015731E+01  3.801776E+02 -2.879431E+04 -6.357527E+01  1.093033E+04
       396   6  7.695736E+05 -2.576751E-01  4.844624E+02 -3.767461E+04 -2.518762E+02  7.664747E+03
       396   7  1.004929E+06  5.672617E+04  4.897809E+04 -3.767313E+04 -3.487140E+03  1.419694E+04
       396   8  9.532206E+05  4.429037E+04  3.839593E+04 -2.880953E+04 -3.673371E+03  1.093046E+04
       396   9  9.015457E+05  3.185986E+04  2.793745E+04 -3.770622E+04 -3.860234E+03  7.665214E+03
       396  10  5.342587E+05 -5.675822E+04 -4.817975E+04 -3.767613E+04  6.140889E-11 -1.071493E-10
       396  11  5.859205E+05 -4.431294E+04 -3.763760E+04 -2.877912E+04 -6.359909E-11  7.647967E-12
       396  12  6.376180E+05 -3.186154E+04 -2.696957E+04 -3.764303E+04  2.341774E-11 -2.917567E-11
       396  13  7.695677E+05 -1.438406E+01  4.004623E+02 -3.767461E+04  1.094620E-11 -1.135732E-10
       396  14  7.695546E+05 -1.028565E+01  3.799530E+02 -2.879431E+04 -1.111700E-10  5.503569E-11
       396  15  7.695736E+05 -3.208002E-01  4.843519E+02 -3.767461E+04 -1.136231E-10  9.848901E-11
       396  16  1.004929E+06  5.672595E+04  4.897769E+04 -3.767309E+04 -8.629443E-11 -8.157118E-11
       396  17  9.532206E+05  4.429023E+04  3.839568E+04 -2.880950E+04  1.810559E-10  8.634949E-11
       396  18  9.015457E+05  3.185979E+04  2.793732E+04 -3.770619E+04 -8.777761E-11  1.015382E-11
       396  19  5.342588E+05 -5.675800E+04 -4.817935E+04 -3.767609E+04 -3.733954E+03 -1.419732E+04
       396  20  5.859205E+05 -4.431281E+04 -3.763736E+04 -2.877909E+04 -3.545172E+03 -1.093019E+04
       396  21  6.376180E+05 -3.186147E+04 -2.696944E+04 -3.764300E+04 -3.355728E+03 -7.664280E+03
       396  22  7.695678E+05 -1.416754E+01  4.008412E+02 -3.767461E+04 -1.240783E+02 -1.419713E+04
       396  23  7.695546E+05 -1.015731E+01  3.801776E+02 -2.879431E+04  6.357527E+01 -1.093033E+04
       396  24  7.695736E+05 -2.576751E-01  4.844624E+02 -3.767461E+04  2.518762E+02 -7.664747E+03
       396  25  1.004929E+06  5.672617E+04  4.897809E+04 -3.767313E+04  3.487140E+03 -1.419694E+04
       396  26  9.532206E+05  4.429037E+04  3.839593E+04 -2.880953E+04  3.673371E+03 -1.093046E+04
       396  27  9.015457E+05  3.185986E+04  2.793745E+04 -3.770622E+04  3.860234E+03 -7.665214E+03
       397   1  6.759494E+05 -2.255918E+04 -1.865695E+04 -3.763530E+04  3.255652E+03  5.764535E+03
       397   2  7.275075E+05 -1.015313E+04 -7.758174E+03 -2.874922E+04  2.785912E+03  2.502659E+03
       397   3  7.791284E+05  2.269746E+03  3.448853E+03 -3.759000E+04  2.315987E+03 -7.570585E+02
       397   4  7.695816E+05  1.226234E+00  5.884672E+02 -3.766710E+04 -3.497611E+02  5.765124E+03
       397   5  7.695522E+05 -1.058147E+01  9.450106E+02 -2.880370E+04 -8.172784E+02  2.503319E+03
       397   6  7.695827E+05 -5.794496E+00  1.608311E+03 -3.766709E+04 -1.284943E+03 -7.563199E+02
       397   7  8.632222E+05  2.256108E+04  1.983346E+04 -3.769889E+04 -3.955708E+03  5.765714E+03
       397   8  8.115986E+05  1.013186E+04  9.648148E+03 -2.885818E+04 -4.420709E+03  2.503979E+03
       397   9  7.600372E+05 -2.281334E+03 -2.321856E+02 -3.774418E+04 -4.885819E+03 -7.555804E+02
       397  10  6.759494E+05 -2.255921E+04 -1.865703E+04 -3.763532E+04  2.384887E-11 -1.129397E-10
       397  11  7.275075E+05 -1.015314E+04 -7.758201E+03 -2.874922E+04 -2.945339E-11 -8.998732E-11
       397  12  7.791284E+05  2.269744E+03  3.448842E+03 -3.759000E+04 -1.168118E-11 -7.797575E-11
       397  13  7.695816E+05  1.190498E+00  5.884045E+02 -3.766709E+04 -1.493904E-10  1.228073E-10
       397  14  7.695522E+05 -1.058838E+01  9.449976E+02 -2.880369E+04 -2.050509E-10  6.082804E-11
       397  15  7.695827E+05 -5.795553E+00  1.608307E+03 -3.766709E+04 -1.477038E-10  4.035878E-11
       397  16  8.632221E+05  2.256104E+04  1.983337E+04 -3.769888E+04  7.707295E-11  1.415974E-11
       397  17  8.115986E+05  1.013185E+04  9.648100E+03 -2.885817E+04  1.527612E-10 -1.980355E-11
       397  18  7.600371E+05 -2.281341E+03 -2.322315E+02 -3.774418E+04  1.329251E-11  3.395132E-11
       397  19  6.759494E+05 -2.255918E+04 -1.865695E+04 -3.763530E+04 -3.255652E+03 -5.764535E+03
       397  20  7.275075E+05 -1.015313E+04 -7.758174E+03 -2.874922E+04 -2.785912E+03 -2.502659E+03
       397  21  7.791284E+05  2.269746E+03  3.448853E+03 -3.759000E+04 -2.315987E+03  7.570585E+02
       397  22  7.695816E+05  1.226234E+00  5.884672E+02 -3.766710E+04  3.497611E+02 -5.765124E+03
       397  23  7.695522E+05 -1.058147E+01  9.450106E+02 -2.880370E+04  8.172784E+02 -2.503319E+03
       397  24  7.695827E+05 -5.794496E+00  1.608311E+03 -3.766709E+04  1.284943E+03  7.563199E+02
       397  25  8.632222E+05  2.256108E+04  1.983346E+04 -3.769889E+04  3.955708E+03 -5.765714E+03
       397  26  8.115986E+05  1.013186E+04  9.648148E+03 -2.885818E+04  4.420709E+03 -2.503979E+03
       397  27  7.600372E+05 -2.281334E+03 -2.321856E+02 -3.774418E+04  4.885819E+03  7.555804E+02
       398   1  8.174810E+05  1.154946E+04  1.215032E+04 -3.755551E+04  1.987386E+03 -2.656667E+03
       398   2  8.689524E+05  2.393860E+04  2.424556E+04 -2.864835E+04  1.493386E+02 -5.908386E+03
       398   3  9.207167E+05  3.654533E+04  3.758943E+04 -3.747521E+04 -1.688485E+03 -9.132610E+03
       398   4  7.696325E+05 -2.011032E+01  2.108064E+03 -3.766874E+04 -1.621658E+03 -2.655959E+03
       398   5  7.694874E+05 -5.527018E+01  3.649012E+03 -2.880161E+04 -3.429157E+03 -5.907864E+03
       398   6  7.696284E+05  1.222703E+02  6.417879E+03 -3.766868E+04 -5.236285E+03 -9.132264E+03
       398   7  7.217861E+05 -1.158982E+04 -7.934268E+03 -3.778196E+04 -5.230429E+03 -2.655248E+03
       398   8  6.700318E+05 -2.404976E+04 -1.694803E+04 -2.895485E+04 -7.007090E+03 -5.907340E+03
       398   9  6.185617E+05 -3.630222E+04 -2.475486E+04 -3.786209E+04 -8.783238E+03 -9.131916E+03
       398  10  8.174810E+05  1.154945E+04  1.215030E+04 -3.755551E+04 -4.509610E-11 -4.843392E-11
       398  11  8.689524E+05  2.393856E+04  2.424550E+04 -2.864835E+04 -2.958680E-11  5.124281E-12
       398  12  9.207167E+05  3.654524E+04  3.758927E+04 -3.747522E+04  9.954150E-11 -5.435826E-11
       398  13  7.696325E+05 -2.011860E+01  2.108046E+03 -3.766874E+04  3.846783E-11 -8.824234E-11
       398  14  7.694874E+05 -5.531083E+01  3.648925E+03 -2.880163E+04  1.118182E-11 -4.250133E-12
       398  15  7.696283E+05  1.221733E+02  6.417671E+03 -3.766871E+04 -7.881930E-11  4.168274E-11
       398  16  7.217861E+05 -1.158984E+04 -7.934333E+03 -3.778197E+04  2.173557E-10  1.062240E-11
       398  17  6.700317E+05 -2.404981E+04 -1.694819E+04 -2.895488E+04  1.027078E-10 -8.419164E-11
       398  18  6.185616E+05 -3.630233E+04 -2.475516E+04 -3.786215E+04 -6.047110E-12 -2.421357E-11
       398  19  8.174810E+05  1.154946E+04  1.215032E+04 -3.755551E+04 -1.987386E+03  2.656667E+03
       398  20  8.689524E+05  2.393860E+04  2.424556E+04 -2.864835E+04 -1.493386E+02  5.908386E+03
       398  21  9.207167E+05  3.654533E+04  3.758943E+04 -3.747521E+04  1.688485E+03  9.132610E+03
       398  22  7.696325E+05 -2.011032E+01  2.108064E+03 -3.766874E+04  1.621658E+03  2.655959E+03
       398  23  7.694874E+05 -5.527018E+01  3.649012E+03 -2.880161E+04  3.429157E+03  5.907864E+03
       398  24  7.696284E+05  1.222703E+02  6.417879E+03 -3.766868E+04  5.236285E+03  9.132264E+03
       398  25  7.217861E+05 -1.158982E+04 -7.934268E+03 -3.778196E+04  5.230429E+03  2.655248E+03
       398  26  6.700318E+05 -2.404976E+04 -1.694803E+04 -2.895485E+04  7.007090E+03  5.907340E+03
       398  27  6.185617E+05 -3.630222E+04 -2.475486E+04 -3.786209E+04  8.783238E+03  9.131916E+03
       399   1  9.594912E+05  4.547144E+04  4.778320E+04 -3.672622E+04 -2.846070E+03 -1.106462E+04
       399   2  1.010184E+06  5.824866E+04  6.472898E+04 -2.908759E+04 -1.080864E+04 -1.412435E+04
       399   3  1.063029E+06  7.542205E+04  8.795468E+04 -3.920073E+04 -1.877129E+04 -1.660698E+04
       399   4  7.700151E+05 -2.603779E+02  8.413783E+03 -3.767268E+04 -6.546377E+03 -1.106444E+04
       399   5  7.689897E+05  4.125179E+01  1.464397E+04 -2.879650E+04 -1.386859E+04 -1.412464E+04
       399   6  7.700028E+05  4.629156E+03  2.671165E+04 -3.767240E+04 -2.119023E+04 -1.660766E+04
       399   7  5.805729E+05 -4.599447E+04 -3.095755E+04 -3.861884E+04 -1.024558E+04 -1.106424E+04
       399   8  5.278501E+05 -5.816985E+04 -3.544419E+04 -2.850552E+04 -1.692738E+04 -1.412493E+04
       399   9  4.770575E+05 -6.616921E+04 -3.453612E+04 -3.614479E+04 -2.360806E+04 -1.660836E+04
       399  10  9.594911E+05  4.547131E+04  4.778296E+04 -3.672625E+04 -8.091170E-11 -5.351417E-11
       399  11  1.010184E+06  5.824842E+04  6.472839E+04 -2.908771E+04  1.350117E-11 -3.048920E-11
       399  12  1.063029E+06  7.542166E+04  8.795350E+04 -3.920098E+04 -1.924618E-11 -3.697752E-11
       399  13  7.700150E+05 -2.605209E+02  8.413472E+03 -3.767274E+04 -3.056613E-11 -3.161460E-11
       399  14  7.689895E+05  4.098591E+01  1.464323E+04 -2.879666E+04  8.389816E-11 -3.198284E-11
       399  15  7.700022E+05  4.628739E+03  2.671028E+04 -3.767268E+04 -1.236525E-10  5.118691E-11
       399  16  5.805728E+05 -4.599463E+04 -3.095798E+04 -3.861893E+04  8.259586E-11 -2.824064E-11
       399  17  5.278497E+05 -5.817014E+04 -3.544510E+04 -2.850572E+04 -6.356126E-11 -1.388715E-11
       399  18  4.770569E+05 -6.616966E+04 -3.453768E+04 -3.614511E+04 -3.423230E-11 -1.562578E-11
       399  19  9.594912E+05  4.547144E+04  4.778320E+04 -3.672622E+04  2.846070E+03  1.106462E+04
       399  20  1.010184E+06  5.824866E+04  6.472898E+04 -2.908759E+04  1.080864E+04  1.412435E+04
       399  21  1.063029E+06  7.542205E+04  8.795468E+04 -3.920073E+04  1.877129E+04  1.660698E+04
       399  22  7.700151E+05 -2.603779E+02  8.413783E+03 -3.767268E+04  6.546377E+03  1.106444E+04
       399  23  7.689897E+05  4.125179E+01  1.464397E+04 -2.879650E+04  1.386859E+04  1.412464E+04
       399  24  7.700028E+05  4.629156E+03  2.671165E+04 -3.767240E+04  2.119023E+04  1.660766E+04
       399  25  5.805729E+05 -4.599447E+04 -3.095755E+04 -3.861884E+04  1.024558E+04  1.106424E+04
       399  26  5.278501E+05 -5.816985E+04 -3.544419E+04 -2.850552E+04  1.692738E+04  1.412493E+04
       399  27  4.770575E+05 -6.616921E+04 -3.453612E+04 -3.614479E+04  2.360806E+04  1.660836E+04
       400   1  1.107454E+06  7.621045E+04  1.031637E+05 -2.342114E+04 -2.046805E+04 -1.913328E+04
       400   2  1.144966E+06  9.960584E+04  1.418469E+05 -5.053475E+04 -6.444181E+04 -1.824971E+04
       400   3  1.211712E+06  2.169384E+05  2.326177E+05 -9.494038E+04 -1.084240E+05 -5.813393E+03
       400   4  7.755581E+05 -3.927775E+03  3.403032E+04 -3.756410E+04 -2.586269E+04 -1.913395E+04
       400   5  7.620151E+05  6.603566E+03  5.932722E+04 -2.893077E+04 -5.705241E+04 -1.825148E+04
       400   6  7.755046E+05  1.088825E+05  1.278612E+05 -3.758590E+04 -8.824595E+04 -5.818105E+03
       400   7  4.437665E+05 -8.407225E+04 -3.510888E+04 -5.169938E+04 -3.125448E+04 -1.913437E+04
       400   8  3.792031E+05 -8.640655E+04 -2.320067E+04 -7.340275E+03 -4.966749E+04 -1.825273E+04
       400   9  3.394787E+05  8.252785E+02  2.309441E+04  1.972819E+04 -6.808198E+04 -5.819100E+03
       400  10  1.107454E+06  7.620994E+04  1.031622E+05 -2.342145E+04 -3.323474E-11 -6.360227E-11
       400  11  1.144961E+06  9.960437E+04  1.418385E+05 -5.053570E+04 -2.763283E-10 -1.547780E-10
       400  12  1.211700E+06  2.169353E+05  2.325956E+05 -9.494088E+04 -6.397987E-11 -9.272731E-11
       400  13  7.755573E+05 -3.928347E+03  3.402837E+04 -3.756450E+04 -1.234594E-10  1.308246E-11
       400  14  7.620116E+05  6.602335E+03  5.932049E+04 -2.893161E+04  6.075699E-11  1.597431E-10
       400  15  7.754962E+05  1.088804E+05  1.278465E+05 -3.758631E+04  4.070570E-10  8.334244E-11
       400  16  4.437653E+05 -8.407290E+04 -3.511141E+04 -5.169986E+04 -1.698069E-10 -6.319199E-11
       400  17  3.792004E+05 -8.640757E+04 -2.320593E+04 -7.341006E+03 -1.180431E-11  2.415770E-10
       400  18  3.394737E+05  8.239987E+02  2.308564E+04  1.972787E+04 -9.710899E-12  7.044462E-11
       400  19  1.107454E+06  7.621045E+04  1.031637E+05 -2.342114E+04  2.046805E+04  1.913328E+04
       400  20  1.144966E+06  9.960584E+04  1.418469E+05 -5.053475E+04  6.444181E+04  1.824971E+04
       400  21  1.211712E+06  2.169384E+05  2.326177E+05 -9.494038E+04  1.084240E+05  5.813393E+03
       400  22  7.755581E+05 -3.927775E+03  3.403032E+04 -3.756410E+04  2.586269E+04  1.913395E+04
       400  23  7.620151E+05  6.603566E+03  5.932722E+04 -2.893077E+04  5.705241E+04  1.825148E+04
       400  24  7.755046E+05  1.088825E+05  1.278612E+05 -3.758590E+04  8.824595E+04  5.818105E+03
       400  25  4.437665E+05 -8.407225E+04 -3.510888E+04 -5.169938E+04  3.125448E+04  1.913437E+04
       400  26  3.792031E+05 -8.640655E+04 -2.320067E+04 -7.340275E+03  4.966749E+04  1.825273E+04
       400  27  3.394787E+05  8.252785E+02  2.309441E+04  1.972819E+04  6.808198E+04  5.819100E+03
       401   1 -2.645699E+05 -1.057410E+05 -1.022345E+05 -2.873147E+04 -1.983109E+04  5.841640E+03
       401   2 -2.234267E+05 -9.422633E+04 -8.313623E+04 -2.233399E+04 -7.575418E+03  1.866055E+04
       401   3 -1.842292E+05 -8.428570E+04 -7.240555E+04 -2.911317E+04  4.684937E+03  2.019867E+04
       401   4  1.643056E+05  6.452190E+02  7.890042E+02 -2.899998E+04  5.382001E+02  5.847306E+03
       401   5  1.642027E+05  3.174301E+00  3.625375E+02 -2.241174E+04  3.451944E+02  1.866118E+04
       401   6  1.643151E+05 -5.083816E+01  2.151893E+02 -2.899984E+04  1.561939E+02  2.019745E+04
       401   7  5.933504E+05  1.070183E+05  1.038010E+05 -2.926869E+04  2.092151E+04  5.852952E+03
       401   8  5.519734E+05  9.422283E+04  8.385270E+04 -2.248954E+04  8.270685E+03  1.866181E+04
       401   9  5.129744E+05  8.417629E+04  7.282932E+04 -2.888645E+04 -4.375050E+03  2.019623E+04
       401  10 -2.645703E+05 -1.057412E+05 -1.022353E+05 -2.873138E+04  1.156026E-10  8.728807E-11
       401  11 -2.234268E+05 -9.422672E+04 -8.313699E+04 -2.233387E+04  8.087697E-11  1.632507E-11
       401  12 -1.842293E+05 -8.428614E+04 -7.240636E+04 -2.911324E+04 -4.631616E-11 -5.979738E-11
       401  13  1.643056E+05  6.451822E+02  7.889394E+02 -2.899999E+04  1.730192E-10 -8.346816E-11
       401  14  1.642026E+05  2.800291E+00  3.618828E+02 -2.241174E+04  5.868615E-11  2.799027E-11
       401  15  1.643150E+05 -5.127625E+01  2.144226E+02 -2.899984E+04  4.373805E-11 -1.048420E-10
       401  16  5.933500E+05  1.070182E+05  1.038001E+05 -2.926879E+04 -1.709216E-10 -9.921713E-11
       401  17  5.519732E+05  9.422244E+04  8.385192E+04 -2.248967E+04 -1.828829E-10 -1.459388E-10
       401  18  5.129742E+05  8.417585E+04  7.282852E+04 -2.888638E+04 -8.387460E-11 -1.361738E-10
       401  19 -2.645699E+05 -1.057410E+05 -1.022345E+05 -2.873147E+04  1.983109E+04 -5.841640E+03
       401  20 -2.234267E+05 -9.422633E+04 -8.313623E+04 -2.233399E+04  7.575418E+03 -1.866055E+04
       401  21 -1.842292E+05 -8.428570E+04 -7.240555E+04 -2.911317E+04 -4.684937E+03 -2.019867E+04
       401  22  1.643056E+05  6.452190E+02  7.890042E+02 -2.899998E+04 -5.382001E+02 -5.847306E+03
       401  23  1.642027E+05  3.174301E+00  3.625375E+02 -2.241174E+04 -3.451944E+02 -1.866118E+04
       401  24  1.643151E+05 -5.083816E+01  2.151893E+02 -2.899984E+04 -1.561939E+02 -2.019745E+04
       401  25  5.933504E+05  1.070183E+05  1.038010E+05 -2.926869E+04 -2.092151E+04 -5.852952E+03
       401  26  5.519734E+05  9.422283E+04  8.385270E+04 -2.248954E+04 -8.270685E+03 -1.866181E+04
       401  27  5.129744E+05  8.417629E+04  7.282932E+04 -2.888645E+04  4.375050E+03 -2.019623E+04
       402   1 -1.541940E+05 -7.700687E+04 -6.642332E+04 -2.912237E+04  1.756171E+03  1.812122E+04
       402   2 -1.141480E+05 -6.726457E+04 -5.774254E+04 -2.225079E+04  2.332145E+03  1.636123E+04
       402   3 -7.417571E+04 -5.760016E+04 -4.945166E+04 -2.910555E+04  2.907497E+03  1.403478E+04
       402   4  1.642787E+05  7.015571E+00  1.708585E+02 -2.912201E+04  1.262204E+02  1.812047E+04
       402   5  1.642658E+05 -1.420065E+01  1.000269E+02 -2.225903E+04  7.689042E+01  1.636077E+04
       402   6  1.642856E+05 -4.799155E+00  7.345968E+01 -2.912201E+04  2.689242E+01  1.403474E+04
       402   7  4.828473E+05  7.701442E+04  6.675942E+04 -2.912165E+04 -1.504553E+03  1.811972E+04
       402   8  4.427530E+05  6.723124E+04  5.793837E+04 -2.226727E+04 -2.179359E+03  1.636031E+04
       402   9  4.028008E+05  5.758695E+04  4.959550E+04 -2.913848E+04 -2.854800E+03  1.403470E+04
       402  10 -1.541940E+05 -7.700723E+04 -6.642394E+04 -2.912240E+04  6.553425E-11 -8.979634E-11
       402  11 -1.141481E+05 -6.726486E+04 -5.774305E+04 -2.225082E+04 -1.758586E-10 -1.380522E-10
       402  12 -7.417578E+04 -5.760038E+04 -4.945204E+04 -2.910559E+04  1.759381E-11 -7.864343E-11
       402  13  1.642786E+05  6.662947E+00  1.702414E+02 -2.912202E+04 -1.416050E-10 -1.554476E-10
       402  14  1.642657E+05 -1.448811E+01  9.952379E+01 -2.225903E+04 -9.904394E-12 -1.779446E-10
       402  15  1.642855E+05 -5.010688E+00  7.308950E+01 -2.912201E+04 -1.681887E-10 -6.362831E-11
       402  16  4.828472E+05  7.701406E+04  6.675880E+04 -2.912163E+04 -5.692558E-11 -6.084799E-11
       402  17  4.427529E+05  6.723095E+04  5.793786E+04 -2.226724E+04  2.401201E-10 -6.410194E-11
       402  18  4.028007E+05  5.758674E+04  4.959511E+04 -2.913845E+04 -1.204640E-10 -7.894377E-11
       402  19 -1.541940E+05 -7.700687E+04 -6.642332E+04 -2.912237E+04 -1.756171E+03 -1.812122E+04
       402  20 -1.141480E+05 -6.726457E+04 -5.774254E+04 -2.225079E+04 -2.332145E+03 -1.636123E+04
       402  21 -7.417571E+04 -5.760016E+04 -4.945166E+04 -2.910555E+04 -2.907497E+03 -1.403478E+04
       402  22  1.642787E+05  7.015571E+00  1.708585E+02 -2.912201E+04 -1.262204E+02 -1.812047E+04
       402  23  1.642658E+05 -1.420065E+01  1.000269E+02 -2.225903E+04 -7.689042E+01 -1.636077E+04
       402  24  1.642856E+05 -4.799155E+00  7.345968E+01 -2.912201E+04 -2.689242E+01 -1.403474E+04
       402  25  4.828473E+05  7.701442E+04  6.675942E+04 -2.912165E+04  1.504553E+03 -1.811972E+04
       402  26  4.427530E+05  6.723124E+04  5.793837E+04 -2.226727E+04  2.179359E+03 -1.636031E+04
       402  27  4.028008E+05  5.758695E+04  4.959550E+04 -2.913848E+04  2.854800E+03 -1.403470E+04
       403   1 -4.446697E+04 -5.038320E+04 -4.310966E+04 -2.910186E+04  2.748216E+03  1.253194E+04
       403   2 -4.501863E+03 -4.074750E+04 -3.490472E+04 -2.222989E+04  2.744452E+03  1.004140E+04
       403   3  3.546705E+04 -3.111037E+04 -2.669670E+04 -2.909686E+04  2.740228E+03  7.522967E+03
       403   4  1.642828E+05 -3.318932E-01  6.705899E+01 -2.912484E+04  1.421971E+01  1.253207E+04
       403   5  1.642811E+05  1.229743E+00  6.984960E+01 -2.225549E+04 -2.041997E+01  1.004176E+04
       403   6  1.642870E+05  9.661562E+00  9.719039E+01 -2.912484E+04 -5.551977E+01  7.523575E+03
       403   7  3.730740E+05  5.037978E+04  4.324144E+04 -2.914783E+04 -2.720680E+03  1.253220E+04
       403   8  3.330911E+05  4.074816E+04  3.504290E+04 -2.228109E+04 -2.786031E+03  1.004213E+04
       403   9  2.931227E+05  3.112864E+04  2.689020E+04 -2.915283E+04 -2.851837E+03  7.524183E+03
       403  10 -4.446702E+04 -5.038337E+04 -4.310996E+04 -2.910188E+04 -8.198405E-11 -5.497509E-11
       403  11 -4.501898E+03 -4.074761E+04 -3.490492E+04 -2.222992E+04 -2.340600E-10  2.098910E-11
       403  12  3.546703E+04 -3.111043E+04 -2.669682E+04 -2.909687E+04 -7.014353E-11 -2.167217E-10
       403  13  1.642828E+05 -5.005536E-01  6.676383E+01 -2.912484E+04 -6.071084E-11 -3.543354E-11
       403  14  1.642811E+05  1.121453E+00  6.966009E+01 -2.225549E+04 -2.157149E-10 -3.352379E-10
       403  15  1.642870E+05  9.600774E+00  9.708400E+01 -2.912484E+04 -5.276428E-10  1.596535E-10
       403  16  3.730739E+05  5.037961E+04  4.324113E+04 -2.914781E+04  4.235778E-11 -5.930259E-11
       403  17  3.330910E+05  4.074804E+04  3.504269E+04 -2.228107E+04  1.527024E-10 -9.433780E-11
       403  18  2.931227E+05  3.112858E+04  2.689008E+04 -2.915281E+04 -6.257878E-11 -3.659078E-11
       403  19 -4.446697E+04 -5.038320E+04 -4.310966E+04 -2.910186E+04 -2.748216E+03 -1.253194E+04
       403  20 -4.501863E+03 -4.074750E+04 -3.490472E+04 -2.222989E+04 -2.744452E+03 -1.004140E+04
       403  21  3.546705E+04 -3.111037E+04 -2.669670E+04 -2.909686E+04 -2.740228E+03 -7.522967E+03
       403  22  1.642828E+05 -3.318932E-01  6.705899E+01 -2.912484E+04 -1.421971E+01 -1.253207E+04
       403  23  1.642811E+05  1.229743E+00  6.984960E+01 -2.225549E+04  2.041997E+01 -1.004176E+04
       403  24  1.642870E+05  9.661562E+00  9.719039E+01 -2.912484E+04  5.551977E+01 -7.523575E+03
       403  25  3.730740E+05  5.037978E+04  4.324144E+04 -2.914783E+04  2.720680E+03 -1.253220E+04
       403  26  3.330911E+05  4.074816E+04  3.504290E+04 -2.228109E+04  2.786031E+03 -1.004213E+04
       403  27  2.931227E+05  3.112864E+04  2.689020E+04 -2.915283E+04  2.851837E+03 -7.524183E+03
       404   1  6.514359E+04 -2.390234E+04 -2.031364E+04 -2.909973E+04  2.712358E+03  6.050124E+03
       404   2  1.050885E+05 -1.428321E+04 -1.206554E+04 -2.223417E+04  2.615427E+03  3.524418E+03
       404   3  1.450414E+05 -4.656921E+03 -3.754649E+03 -2.910120E+04  2.518331E+03  9.975666E+02
       404   4  1.642884E+05  1.095100E+01  1.203751E+02 -2.912347E+04 -7.569930E+01  6.050826E+03
       404   5  1.642855E+05  7.084176E+00  1.977534E+02 -2.225721E+04 -1.739639E+02  3.525200E+03
       404   6  1.642898E+05  1.084428E+01  3.390409E+02 -2.912347E+04 -2.723881E+02  9.984339E+02
       404   7  2.634425E+05  2.392363E+04  2.055389E+04 -2.914720E+04 -2.864194E+03  6.051529E+03
       404   8  2.234857E+05  1.429716E+04  1.246089E+04 -2.228025E+04 -2.963617E+03  3.525982E+03
       404   9  1.835386E+05  4.678590E+03  4.432739E+03 -2.914573E+04 -3.063193E+03  9.993014E+02
       404  10  6.514357E+04 -2.390239E+04 -2.031372E+04 -2.909974E+04 -4.980621E-11 -1.772484E-10
       404  11  1.050885E+05 -1.428323E+04 -1.206558E+04 -2.223418E+04 -4.015389E-11 -7.348426E-11
       404  12  1.450414E+05 -4.656924E+03 -3.754663E+03 -2.910120E+04 -3.382126E-10 -1.502201E-10
       404  13  1.642884E+05  1.091168E+01  1.203063E+02 -2.912347E+04 -3.668128E-10 -2.066176E-10
       404  14  1.642854E+05  7.070823E+00  1.977300E+02 -2.225721E+04 -4.980775E-10 -5.658232E-11
       404  15  1.642898E+05  1.084319E+01  3.390389E+02 -2.912346E+04 -5.178968E-10 -1.134696E-10
       404  16  2.634425E+05  2.392359E+04  2.055381E+04 -2.914719E+04 -1.193072E-10 -6.411701E-11
       404  17  2.234857E+05  1.429715E+04  1.246085E+04 -2.228024E+04  1.541942E-10 -9.881254E-11
       404  18  1.835386E+05  4.678586E+03  4.432720E+03 -2.914573E+04  1.642586E-10 -9.663816E-11
       404  19  6.514359E+04 -2.390234E+04 -2.031364E+04 -2.909973E+04 -2.712358E+03 -6.050124E+03
       404  20  1.050885E+05 -1.428321E+04 -1.206554E+04 -2.223417E+04 -2.615427E+03 -3.524418E+03
       404  21  1.450414E+05 -4.656921E+03 -3.754649E+03 -2.910120E+04 -2.518331E+03 -9.975666E+02
       404  22  1.642884E+05  1.095100E+01  1.203751E+02 -2.912347E+04  7.569930E+01 -6.050826E+03
       404  23  1.642855E+05  7.084176E+00  1.977534E+02 -2.225721E+04  1.739639E+02 -3.525200E+03
       404  24  1.642898E+05  1.084428E+01  3.390409E+02 -2.912347E+04  2.723881E+02 -9.984339E+02
       404  25  2.634425E+05  2.392363E+04  2.055389E+04 -2.914720E+04  2.864194E+03 -6.051529E+03
       404  26  2.234857E+05  1.429716E+04  1.246089E+04 -2.228025E+04  2.963617E+03 -3.525982E+03
       404  27  1.835386E+05  4.678590E+03  4.432739E+03 -2.914573E+04  3.063193E+03 -9.993014E+02
       405   1  1.747205E+05  2.548150E+03  2.710756E+03 -2.910525E+04  2.446592E+03 -4.734097E+02
       405   2  2.146471E+05  1.215492E+04  1.120655E+04 -2.222367E+04  2.063157E+03 -3.000000E+03
       405   3  2.546223E+05  2.177906E+04  1.995423E+04 -2.907433E+04  1.679829E+03 -5.525431E+03
       405   4  1.642985E+05  1.110544E+01  4.454617E+02 -2.912342E+04 -3.441627E+02 -4.725387E+02
       405   5  1.642748E+05 -4.267652E+00  7.719893E+02 -2.225726E+04 -7.263905E+02 -2.999202E+03
       405   6  1.642972E+05 -2.549389E+00  1.349445E+03 -2.912342E+04 -1.108487E+03 -5.524700E+03
       405   7  1.538767E+05 -2.525942E+03 -1.819810E+03 -2.914159E+04 -3.134871E+03 -4.716675E+02
       405   8  1.139048E+05 -1.216362E+04 -9.662683E+03 -2.229085E+04 -3.515715E+03 -2.998404E+03
       405   9  7.397993E+04 -2.178467E+04 -1.725575E+04 -2.917249E+04 -3.896405E+03 -5.523969E+03
       405  10  1.747205E+05  2.548148E+03  2.710744E+03 -2.910525E+04 -1.046141E-10 -1.026648E-11
       405  11  2.146471E+05  1.215491E+04  1.120653E+04 -2.222367E+04 -6.683174E-11  2.064955E-10
       405  12  2.546223E+05  2.177903E+04  1.995416E+04 -2.907433E+04  1.989751E-10 -3.488924E-10
       405  13  1.642985E+05  1.110517E+01  4.454611E+02 -2.912342E+04 -4.123765E-10  2.586572E-11
       405  14  1.642748E+05 -4.277454E+00  7.719714E+02 -2.225726E+04 -2.076294E-10  1.989785E-10
       405  15  1.642972E+05 -2.582497E+00  1.349386E+03 -2.912342E+04 -4.586994E-10 -1.258937E-10
       405  16  1.538766E+05 -2.525945E+03 -1.819829E+03 -2.914159E+04 -2.912818E-11  3.974856E-11
       405  17  1.139048E+05 -1.216363E+04 -9.662723E+03 -2.229086E+04 -1.089728E-10  2.582912E-10
       405  18  7.397991E+04 -2.178471E+04 -1.725583E+04 -2.917251E+04 -2.776315E-10 -2.636371E-10
       405  19  1.747205E+05  2.548150E+03  2.710756E+03 -2.910525E+04 -2.446592E+03  4.734097E+02
       405  20  2.146471E+05  1.215492E+04  1.120655E+04 -2.222367E+04 -2.063157E+03  3.000000E+03
       405  21  2.546223E+05  2.177906E+04  1.995423E+04 -2.907433E+04 -1.679829E+03  5.525431E+03
       405  22  1.642985E+05  1.110544E+01  4.454617E+02 -2.912342E+04  3.441627E+02  4.725387E+02
       405  23  1.642748E+05 -4.267652E+00  7.719893E+02 -2.225726E+04  7.263905E+02  2.999202E+03
       405  24  1.642972E+05 -2.549389E+00  1.349445E+03 -2.912342E+04  1.108487E+03  5.524700E+03
       405  25  1.538767E+05 -2.525942E+03 -1.819810E+03 -2.914159E+04  3.134871E+03  4.716675E+02
       405  26  1.139048E+05 -1.216362E+04 -9.662683E+03 -2.229085E+04  3.515715E+03  2.998404E+03
       405  27  7.397993E+04 -2.178467E+04 -1.725575E+04 -2.917249E+04  3.896405E+03  5.523969E+03
       406   1  2.843454E+05  2.897227E+04  2.674328E+04 -2.904485E+04  1.404085E+03 -6.997937E+03
       406   2  3.241920E+05  3.856660E+04  3.623914E+04 -2.213982E+04 -1.595651E+02 -9.515640E+03
       406   3  3.642911E+05  4.834961E+04  4.679950E+04 -2.897248E+04 -1.722880E+03 -1.200603E+04
       406   4  1.643403E+05 -1.535344E+01  1.779236E+03 -2.912467E+04 -1.391822E+03 -6.997294E+03
       406   5  1.642153E+05 -4.838727E+01  3.095685E+03 -2.225569E+04 -2.925029E+03 -9.515228E+03
       406   6  1.643361E+05  1.021251E+02  5.455767E+03 -2.912462E+04 -4.457803E+03 -1.200584E+04
       406   7  4.434871E+04 -2.900389E+04 -2.318557E+04 -2.920448E+04 -4.187198E+03 -6.996649E+03
       406   8  4.262813E+03 -3.866500E+04 -3.004913E+04 -2.237153E+04 -5.689793E+03 -9.514814E+03
       406   9 -3.558093E+04 -4.814789E+04 -3.589010E+04 -2.927670E+04 -7.191861E+03 -1.200565E+04
       406  10  2.843454E+05  2.897221E+04  2.674319E+04 -2.904484E+04 -1.484179E-10 -6.783837E-11
       406  11  3.241920E+05  3.856651E+04  3.623897E+04 -2.213982E+04 -1.368635E-10  2.597972E-11
       406  12  3.642911E+05  4.834945E+04  4.679922E+04 -2.897250E+04 -1.065286E-10  7.576724E-11
       406  13  1.643402E+05 -1.540654E+01  1.779140E+03 -2.912468E+04 -2.768880E-10 -5.875711E-12
       406  14  1.642153E+05 -4.848680E+01  3.095499E+03 -2.225571E+04 -6.559673E-11 -1.433410E-10
       406  15  1.643361E+05  1.019650E+02  5.455459E+03 -2.912466E+04 -3.208894E-10 -5.918605E-11
       406  16  4.434868E+04 -2.900394E+04 -2.318570E+04 -2.920450E+04  2.670706E-11  1.146751E-11
       406  17  4.262754E+03 -3.866510E+04 -3.004937E+04 -2.237157E+04  3.597741E-10  1.898405E-11
       406  18 -3.558102E+04 -4.814805E+04 -3.589047E+04 -2.927677E+04  1.344915E-10  6.111262E-11
       406  19  2.843454E+05  2.897227E+04  2.674328E+04 -2.904485E+04 -1.404085E+03  6.997937E+03
       406  20  3.241920E+05  3.856660E+04  3.623914E+04 -2.213982E+04  1.595651E+02  9.515640E+03
       406  21  3.642911E+05  4.834961E+04  4.679950E+04 -2.897248E+04  1.722880E+03  1.200603E+04
       406  22  1.643403E+05 -1.535344E+01  1.779236E+03 -2.912467E+04  1.391822E+03  6.997294E+03
       406  23  1.642153E+05 -4.838727E+01  3.095685E+03 -2.225569E+04  2.925029E+03  9.515228E+03
       406  24  1.643361E+05  1.021251E+02  5.455767E+03 -2.912462E+04  4.457803E+03  1.200584E+04
       406  25  4.434871E+04 -2.900389E+04 -2.318557E+04 -2.920448E+04  4.187198E+03  6.996649E+03
       406  26  4.262813E+03 -3.866500E+04 -3.004913E+04 -2.237153E+04  5.689793E+03  9.514814E+03
       406  27 -3.558093E+04 -4.814789E+04 -3.589010E+04 -2.927670E+04  7.191861E+03  1.200565E+04
       407   1  3.943417E+05  5.523428E+04  5.484662E+04 -2.832667E+04 -2.692592E+03 -1.350770E+04
       407   2  4.334357E+05  6.514234E+04  6.846299E+04 -2.251311E+04 -9.535887E+03 -1.583686E+04
       407   3  4.743771E+05  7.880864E+04  8.747558E+04 -3.042455E+04 -1.637891E+04 -1.761170E+04
       407   4  1.646657E+05 -2.240718E+02  7.155443E+03 -2.912188E+04 -5.570989E+03 -1.350766E+04
       407   5  1.637915E+05  3.129435E+01  1.245905E+04 -2.225906E+04 -1.179955E+04 -1.583725E+04
       407   6  1.646583E+05  3.939557E+03  2.273406E+04 -2.912155E+04 -1.802742E+04 -1.761241E+04
       407   7 -6.496033E+04 -5.568577E+04 -4.053858E+04 -2.991678E+04 -8.448338E+03 -1.350762E+04
       407   8 -1.057838E+05 -6.508437E+04 -4.354885E+04 -2.200512E+04 -1.406225E+04 -1.583764E+04
       407   9 -1.449698E+05 -7.093565E+04 -4.201277E+04 -2.781922E+04 -1.967512E+04 -1.761314E+04
       407  10  3.943416E+05  5.523408E+04  5.484626E+04 -2.832669E+04 -2.842940E-11  7.550094E-11
       407  11  4.334355E+05  6.514205E+04  6.846235E+04 -2.251323E+04  2.512867E-10 -2.366412E-11
       407  12  4.743768E+05  7.880823E+04  8.747450E+04 -3.042478E+04  2.593063E-11 -9.851992E-11
       407  13  1.646656E+05 -2.242760E+02  7.155042E+03 -2.912194E+04 -4.849322E-11  4.724929E-11
       407  14  1.637913E+05  3.098762E+01  1.245832E+04 -2.225921E+04 -6.662760E-11 -1.643737E-11
       407  15  1.646579E+05  3.939137E+03  2.273287E+04 -2.912181E+04  2.625745E-10 -9.462774E-11
       407  16 -6.496046E+04 -5.568598E+04 -4.053906E+04 -2.991688E+04 -6.504980E-12 -4.711565E-11
       407  17 -1.057841E+05 -6.508469E+04 -4.354969E+04 -2.200530E+04  2.021760E-10 -1.138655E-10
       407  18 -1.449703E+05 -7.093609E+04 -4.201408E+04 -2.781950E+04 -1.692189E-10 -1.106995E-10
       407  19  3.943417E+05  5.523428E+04  5.484662E+04 -2.832667E+04  2.692592E+03  1.350770E+04
       407  20  4.334357E+05  6.514234E+04  6.846299E+04 -2.251311E+04  9.535887E+03  1.583686E+04
       407  21  4.743771E+05  7.880864E+04  8.747558E+04 -3.042455E+04  1.637891E+04  1.761170E+04
       407  22  1.646657E+05 -2.240718E+02  7.155443E+03 -2.912188E+04  5.570989E+03  1.350766E+04
       407  23  1.637915E+05  3.129435E+01  1.245905E+04 -2.225906E+04  1.179955E+04  1.583725E+04
       407  24  1.646583E+05  3.939557E+03  2.273406E+04 -2.912155E+04  1.802742E+04  1.761241E+04
       407  25 -6.496033E+04 -5.568577E+04 -4.053858E+04 -2.991678E+04  8.448338E+03  1.350762E+04
       407  26 -1.057838E+05 -6.508437E+04 -4.354885E+04 -2.200512E+04  1.406225E+04  1.583764E+04
       407  27 -1.449698E+05 -7.093565E+04 -4.201277E+04 -2.781922E+04  1.967512E+04  1.761314E+04
       408   1  5.091792E+05  7.874018E+04  9.973643E+04 -1.696404E+04 -1.751425E+04 -1.967652E+04
       408   2  5.367930E+05  9.767958E+04  1.320965E+05 -4.078535E+04 -5.627147E+04 -1.822726E+04
       408   3  5.895435E+05  1.968464E+05  2.097421E+05 -7.781531E+04 -9.503613E+04 -5.732705E+03
       408   4  1.693861E+05 -3.348527E+03  2.896433E+04 -2.900211E+04 -2.200213E+04 -1.967726E+04
       408   5  1.578637E+05  5.612374E+03  5.050081E+04 -2.240770E+04 -4.854648E+04 -1.822847E+04
       408   6  1.693700E+05  9.270452E+04  1.088594E+05 -2.901910E+04 -7.509478E+04 -5.735128E+03
       408   7 -1.702974E+05 -8.544404E+04 -4.181397E+04 -4.103347E+04 -2.648759E+04 -1.967784E+04
       408   8 -2.209299E+05 -8.646297E+04 -3.110289E+04 -4.041415E+03 -4.082613E+04 -1.822922E+04
       408   9 -2.506360E+05 -1.144105E+04  7.966933E+03  1.974397E+04 -5.516686E+04 -5.734421E+03
       408  10  5.091787E+05  7.873968E+04  9.973513E+04 -1.696432E+04  3.211650E-11 -8.284217E-11
       408  11  5.367895E+05  9.767838E+04  1.320899E+05 -4.078618E+04  2.851189E-10 -8.188299E-11
       408  12  5.895338E+05  1.968440E+05  2.097251E+05 -7.781574E+04  8.392921E-11 -9.146817E-11
       408  13  1.693855E+05 -3.349073E+03  2.896269E+04 -2.900245E+04 -1.579687E-10  9.516343E-13
       408  14  1.578611E+05  5.611385E+03  5.049576E+04 -2.240841E+04 -9.436715E-12  2.989681E-10
       408  15  1.693640E+05  9.270297E+04  1.088487E+05 -2.901944E+04  4.234260E-10 -3.231259E-11
       408  16 -1.702983E+05 -8.544464E+04 -4.181602E+04 -4.103389E+04  1.408671E-10 -1.833457E-11
       408  17 -2.209318E+05 -8.646377E+04 -3.110664E+04 -4.042014E+03 -1.670795E-10  1.527311E-10
       408  18 -2.506392E+05 -1.144190E+04  7.961150E+03  1.974372E+04 -1.899196E-10 -8.175424E-11
       408  19  5.091792E+05  7.874018E+04  9.973643E+04 -1.696404E+04  1.751425E+04  1.967652E+04
       408  20  5.367930E+05  9.767958E+04  1.320965E+05 -4.078535E+04  5.627147E+04  1.822726E+04
       408  21  5.895435E+05  1.968464E+05  2.097421E+05 -7.781531E+04  9.503613E+04  5.732705E+03
       408  22  1.693861E+05 -3.348527E+03  2.896433E+04 -2.900211E+04  2.200213E+04  1.967726E+04
       408  23  1.578637E+05  5.612374E+03  5.050081E+04 -2.240770E+04  4.854648E+04  1.822847E+04
       408  24  1.693700E+05  9.270452E+04  1.088594E+05 -2.901910E+04  7.509478E+04  5.735128E+03
       408  25 -1.702974E+05 -8.544404E+04 -4.181397E+04 -4.103347E+04  2.648759E+04  1.967784E+04
       408  26 -2.209299E+05 -8.646297E+04 -3.110289E+04 -4.041415E+03  4.082613E+04  1.822922E+04
       408  27 -2.506360E+05 -1.144105E+04  7.966933E+03  1.974397E+04  5.516686E+04  5.734421E+03
       409   1 -1.589714E+06 -2.656852E+05 -2.785316E+05 -1.091782E+05 -1.138553E+05  8.724657E+03
       409   2 -1.499739E+06 -1.466251E+05 -1.806730E+05 -6.278024E+04 -6.518461E+04  2.756533E+04
       409   3 -1.438628E+06 -1.179088E+05 -1.371284E+05 -4.137083E+04 -1.650148E+04  2.904027E+04
       409   4 -9.363749E+05 -1.033396E+05 -1.212363E+05 -5.475915E+04 -8.358374E+04  8.720296E+03
       409   5 -9.235785E+05 -6.344724E+03 -5.624369E+04 -4.226709E+04 -5.402205E+04  2.756190E+04
       409   6 -9.363007E+05  3.672084E+03 -3.224461E+04 -5.476759E+04 -2.445524E+04  2.903971E+04
       409   7 -2.826361E+05  5.898654E+04  3.603348E+04 -2.824812E+02 -5.328035E+04  8.721259E+03
       409   8 -3.471039E+05  1.339153E+05  6.816672E+04 -2.173461E+04 -4.284924E+04  2.755920E+04
       409   9 -4.337333E+05  1.252375E+05  7.262560E+04 -6.817537E+04 -3.241534E+04  2.903949E+04
       409  10 -1.589728E+06 -2.656888E+05 -2.785561E+05 -1.091774E+05  4.849127E-11 -1.381844E-11
       409  11 -1.499744E+06 -1.466270E+05 -1.806825E+05 -6.277879E+04  3.089182E-10 -1.170033E-10
       409  12 -1.438629E+06 -1.179098E+05 -1.371305E+05 -4.137044E+04 -3.499983E-10  1.809575E-10
       409  13 -9.363825E+05 -1.033415E+05 -1.212496E+05 -5.475856E+04  1.786090E-10 -6.282462E-11
       409  14 -9.235819E+05 -6.346324E+03 -5.625061E+04 -4.226589E+04  5.111747E-10 -2.084966E-10
       409  15 -9.363015E+05  3.671018E+03 -3.224732E+04 -5.476701E+04 -1.552861E-10  5.262165E-11
       409  16 -2.826391E+05  5.898570E+04  3.602800E+04 -2.821070E+02 -9.791007E-11 -5.010614E-11
       409  17 -3.471061E+05  1.339140E+05  6.816184E+04 -2.173365E+04  2.794588E-10  3.394317E-12
       409  18 -4.337346E+05  1.252363E+05  7.262204E+04 -6.817461E+04  4.379675E-10  1.850689E-10
       409  19 -1.589714E+06 -2.656852E+05 -2.785316E+05 -1.091782E+05  1.138553E+05 -8.724657E+03
       409  20 -1.499739E+06 -1.466251E+05 -1.806730E+05 -6.278024E+04  6.518461E+04 -2.756533E+04
       409  21 -1.438628E+06 -1.179088E+05 -1.371284E+05 -4.137083E+04  1.650148E+04 -2.904027E+04
       409  22 -9.363749E+05 -1.033396E+05 -1.212363E+05 -5.475915E+04  8.358374E+04 -8.720296E+03
       409  23 -9.235785E+05 -6.344724E+03 -5.624369E+04 -4.226709E+04  5.402205E+04 -2.756190E+04
       409  24 -9.363007E+05  3.672084E+03 -3.224461E+04 -5.476759E+04  2.445524E+04 -2.903971E+04
       409  25 -2.826361E+05  5.898654E+04  3.603348E+04 -2.824812E+02  5.328035E+04 -8.721259E+03
       409  26 -3.471039E+05  1.339153E+05  6.816672E+04 -2.173461E+04  4.284924E+04 -2.755920E+04
       409  27 -4.337333E+05  1.252375E+05  7.262560E+04 -6.817537E+04  3.241534E+04 -2.903949E+04
       410   1 -1.376654E+06 -1.123427E+05 -1.186645E+05 -5.640535E+04 -1.652993E+04  2.532284E+04
       410   2 -1.299773E+06 -8.947388E+04 -9.081690E+04 -4.218223E+04 -8.627616E+03  2.170717E+04
       410   3 -1.224955E+06 -7.082559E+04 -6.917308E+04 -5.400695E+04 -7.262980E+02  1.721054E+04
       410   4 -9.310470E+05 -4.434355E+03 -2.531303E+04 -5.500004E+04 -2.003703E+04  2.532207E+04
       410   5 -9.300875E+05 -5.521740E+01 -1.387749E+04 -4.197583E+04 -1.310122E+04  2.170743E+04
       410   6 -9.310243E+05  2.740045E+02 -7.969750E+03 -5.499863E+04 -6.167341E+03  1.721206E+04
       410   7 -4.852521E+05  1.034612E+05  6.802747E+04 -5.359368E+04 -2.354661E+04  2.532128E+04
       410   8 -5.602722E+05  8.935474E+04  6.305449E+04 -4.176928E+04 -1.757745E+04  2.170768E+04
       410   9 -6.370121E+05  7.136810E+04  5.322894E+04 -5.599077E+04 -1.161092E+04  1.721360E+04
       410  10 -1.376654E+06 -1.123434E+05 -1.186663E+05 -5.640501E+04  2.018385E-10  2.552314E-10
       410  11 -1.299773E+06 -8.947441E+04 -9.081793E+04 -4.218208E+04 -2.842727E-10 -1.671202E-11
       410  12 -1.224955E+06 -7.082591E+04 -6.917363E+04 -5.400694E+04  7.781314E-12  1.487175E-10
       410  13 -9.310476E+05 -4.435151E+03 -2.531499E+04 -5.499963E+04 -2.356541E-10  2.179236E-10
       410  14 -9.300878E+05 -5.576932E+01 -1.387870E+04 -4.197560E+04 -1.814397E-10  1.023541E-10
       410  15 -9.310245E+05  2.736763E+02 -7.970378E+03 -5.499854E+04 -4.482827E-10  2.194287E-10
       410  16 -4.852529E+05  1.034604E+05  6.802523E+04 -5.359320E+04 -1.312794E-10  2.232879E-10
       410  17 -5.602727E+05  8.935415E+04  6.305303E+04 -4.176898E+04  3.577382E-10  3.496661E-10
       410  18 -6.370123E+05  7.136775E+04  5.322813E+04 -5.599061E+04  7.066604E-11  8.500288E-11
       410  19 -1.376654E+06 -1.123427E+05 -1.186645E+05 -5.640535E+04  1.652993E+04 -2.532284E+04
       410  20 -1.299773E+06 -8.947388E+04 -9.081690E+04 -4.218223E+04  8.627616E+03 -2.170717E+04
       410  21 -1.224955E+06 -7.082559E+04 -6.917308E+04 -5.400695E+04  7.262980E+02 -1.721054E+04
       410  22 -9.310470E+05 -4.434355E+03 -2.531303E+04 -5.500004E+04  2.003703E+04 -2.532207E+04
       410  23 -9.300875E+05 -5.521740E+01 -1.387749E+04 -4.197583E+04  1.310122E+04 -2.170743E+04
       410  24 -9.310243E+05  2.740045E+02 -7.969750E+03 -5.499863E+04  6.167341E+03 -1.721206E+04
       410  25 -4.852521E+05  1.034612E+05  6.802747E+04 -5.359368E+04  2.354661E+04 -2.532128E+04
       410  26 -5.602722E+05  8.935474E+04  6.305449E+04 -4.176928E+04  1.757745E+04 -2.170768E+04
       410  27 -6.370121E+05  7.136810E+04  5.322894E+04 -5.599077E+04  1.161092E+04 -1.721360E+04
       411   1 -1.168080E+06 -5.744441E+04 -5.518874E+04 -5.476450E+04  2.935731E+02  1.436075E+04
       411   2 -1.091817E+06 -3.890264E+04 -3.694253E+04 -4.173061E+04  2.061564E+03  9.599885E+03
       411   3 -1.015844E+06 -2.054860E+04 -1.990077E+04 -5.488486E+04  3.828947E+03  4.791674E+03
       411   4 -9.306604E+05 -8.284723E+01 -6.084654E+03 -5.503020E+04 -4.929221E+03  1.436261E+04
       411   5 -9.305126E+05  8.977979E+01 -3.470683E+03 -4.193628E+04 -3.213136E+03  9.602181E+03
       411   6 -9.306517E+05  8.386211E+01 -2.024812E+03 -5.503007E+04 -1.497868E+03  4.794432E+03
       411   7 -6.931870E+05  5.727516E+04  4.301648E+04 -5.529600E+04 -1.015398E+04  1.436448E+04
       411   8 -7.691832E+05  3.908056E+04  2.999985E+04 -4.214199E+04 -8.489184E+03  9.604480E+03
       411   9 -8.454528E+05  2.071588E+04  1.585085E+04 -5.517531E+04 -6.825404E+03  4.797193E+03
       411  10 -1.168080E+06 -5.744464E+04 -5.518913E+04 -5.476450E+04 -4.189034E-10 -4.220777E-10
       411  11 -1.091817E+06 -3.890274E+04 -3.694271E+04 -4.173062E+04  6.107578E-11 -2.331711E-10
       411  12 -1.015844E+06 -2.054863E+04 -1.990084E+04 -5.488487E+04  2.449616E-10  1.982348E-10
       411  13 -9.306604E+05 -8.307517E+01 -6.085087E+03 -5.503014E+04 -2.259398E-10  4.093490E-11
       411  14 -9.305126E+05  8.967805E+01 -3.470876E+03 -4.193625E+04 -6.788292E-10 -1.900808E-10
       411  15 -9.306517E+05  8.383684E+01 -2.024860E+03 -5.503007E+04 -8.949651E-10 -2.497950E-10
       411  16 -6.931872E+05  5.727491E+04  4.301590E+04 -5.529588E+04  4.761612E-10  3.652560E-10
       411  17 -7.691833E+05  3.908044E+04  2.999954E+04 -4.214193E+04  1.939176E-10  2.865735E-10
       411  18 -8.454529E+05  2.071584E+04  1.585072E+04 -5.517528E+04 -2.681474E-11  3.104611E-10
       411  19 -1.168080E+06 -5.744441E+04 -5.518874E+04 -5.476450E+04 -2.935731E+02 -1.436075E+04
       411  20 -1.091817E+06 -3.890264E+04 -3.694253E+04 -4.173061E+04 -2.061564E+03 -9.599885E+03
       411  21 -1.015844E+06 -2.054860E+04 -1.990077E+04 -5.488486E+04 -3.828947E+03 -4.791674E+03
       411  22 -9.306604E+05 -8.284723E+01 -6.084654E+03 -5.503020E+04  4.929221E+03 -1.436261E+04
       411  23 -9.305126E+05  8.977979E+01 -3.470683E+03 -4.193628E+04  3.213136E+03 -9.602181E+03
       411  24 -9.306517E+05  8.386211E+01 -2.024812E+03 -5.503007E+04  1.497868E+03 -4.794432E+03
       411  25 -6.931870E+05  5.727516E+04  4.301648E+04 -5.529600E+04  1.015398E+04 -1.436448E+04
       411  26 -7.691832E+05  3.908056E+04  2.999985E+04 -4.214199E+04  8.489184E+03 -9.604480E+03
       411  27 -8.454528E+05  2.071588E+04  1.585085E+04 -5.517531E+04  6.825404E+03 -4.797193E+03
       412   1 -9.591799E+05 -6.794737E+03 -7.289668E+03 -5.495401E+04  4.141718E+03  1.980697E+03
       412   2 -8.829530E+05  1.156618E+04  8.902749E+03 -4.190541E+04  4.620505E+03 -2.841615E+03
       412   3 -8.068078E+05  2.993518E+04  2.477770E+04 -5.506566E+04  5.099597E+03 -7.664892E+03
       412   4 -9.306059E+05  7.146248E+01 -1.563746E+03 -5.503481E+04 -1.175328E+03  1.983542E+03
       412   5 -9.305634E+05  5.965042E+01 -9.712939E+02 -4.193034E+04 -6.978818E+02 -2.838904E+03
       412   6 -9.306079E+05  5.647046E+01 -6.952415E+02 -5.503481E+04 -2.201885E+02 -7.662297E+03
       412   7 -9.020310E+05  6.937627E+03  4.162240E+03 -5.511562E+04 -6.492614E+03  1.986389E+03
       412   8 -9.781715E+05 -1.144701E+04 -1.084535E+04 -4.195525E+04 -6.015867E+03 -2.836193E+03
       412   9 -1.054393E+06 -2.982319E+04 -2.616890E+04 -5.500396E+04 -5.538930E+03 -7.659702E+03
       412  10 -9.591800E+05 -6.794746E+03 -7.289707E+03 -5.495402E+04  4.094542E-11  8.895089E-11
       412  11 -8.829530E+05  1.156617E+04  8.902693E+03 -4.190540E+04 -3.366266E-11  5.574456E-10
       412  12 -8.068079E+05  2.993511E+04  2.477754E+04 -5.506563E+04 -2.396945E-10  3.887337E-10
       412  13 -9.306059E+05  7.145788E+01 -1.563756E+03 -5.503481E+04  1.751006E-10  4.083270E-10
       412  14 -9.305634E+05  5.964163E+01 -9.713100E+02 -4.193034E+04 -5.242417E-10 -3.116884E-10
       412  15 -9.306079E+05  5.640743E+01 -6.953519E+02 -5.503481E+04 -7.865411E-10 -1.560650E-10
       412  16 -9.020310E+05  6.937611E+03  4.162154E+03 -5.511561E+04 -1.776162E-10 -6.523674E-10
       412  17 -9.781715E+05 -1.144703E+04 -1.084544E+04 -4.195527E+04  4.653052E-10 -1.012886E-10
       412  18 -1.054393E+06 -2.982326E+04 -2.616907E+04 -5.500400E+04  6.292743E-11 -2.474545E-10
       412  19 -9.591799E+05 -6.794737E+03 -7.289668E+03 -5.495401E+04 -4.141718E+03 -1.980697E+03
       412  20 -8.829530E+05  1.156618E+04  8.902749E+03 -4.190541E+04 -4.620505E+03  2.841615E+03
       412  21 -8.068078E+05  2.993518E+04  2.477770E+04 -5.506566E+04 -5.099597E+03  7.664892E+03
       412  22 -9.306059E+05  7.146248E+01 -1.563746E+03 -5.503481E+04  1.175328E+03 -1.983542E+03
       412  23 -9.305634E+05  5.965042E+01 -9.712939E+02 -4.193034E+04  6.978818E+02  2.838904E+03
       412  24 -9.306079E+05  5.647046E+01 -6.952415E+02 -5.503481E+04  2.201885E+02  7.662297E+03
       412  25 -9.020310E+05  6.937627E+03  4.162240E+03 -5.511562E+04  6.492614E+03 -1.986389E+03
       412  26 -9.781715E+05 -1.144701E+04 -1.084535E+04 -4.195525E+04  6.015867E+03  2.836193E+03
       412  27 -1.054393E+06 -2.982319E+04 -2.616890E+04 -5.500396E+04  5.538930E+03  7.659702E+03
       413   1 -7.502104E+05  4.368943E+04  3.697465E+04 -5.508007E+04  5.216397E+03 -1.047156E+04
       413   2 -6.741504E+05  6.200061E+04  5.249315E+04 -4.202930E+04  5.544294E+03 -1.528736E+04
       413   3 -5.981302E+05  8.032323E+04  6.779836E+04 -5.513496E+04  5.873554E+03 -2.009446E+04
       413   4 -9.306024E+05  5.402409E+01 -6.411121E+02 -5.502328E+04 -1.004555E+02 -1.046921E+04
       413   5 -9.305855E+05  3.179363E+01 -6.867753E+02 -4.194474E+04  2.366688E+02 -1.528571E+04
       413   6 -9.306146E+05  1.999631E+01 -9.517966E+02 -5.502330E+04  5.751173E+02 -2.009348E+04
       413   7 -1.110964E+06 -4.358345E+04 -3.825857E+04 -5.496651E+04 -5.415787E+03 -1.046687E+04
       413   8 -1.186958E+06 -6.194119E+04 -5.387018E+04 -4.186022E+04 -5.068799E+03 -1.528406E+04
       413   9 -1.262994E+06 -8.029024E+04 -6.970784E+04 -5.491168E+04 -4.720529E+03 -2.009250E+04
       413  10 -7.502105E+05  4.368931E+04  3.697440E+04 -5.508003E+04 -4.372974E-10  1.178805E-10
       413  11 -6.741505E+05  6.200035E+04  5.249265E+04 -4.202923E+04 -4.293098E-10 -1.217951E-10
       413  12 -5.981303E+05  8.032279E+04  6.779754E+04 -5.513487E+04 -1.633840E-10 -2.904209E-10
       413  13 -9.306024E+05  5.390644E+01 -6.413180E+02 -5.502329E+04  1.352664E-10  6.397549E-10
       413  14 -9.305856E+05  3.154282E+01 -6.872143E+02 -4.194474E+04  1.650490E-10  4.548084E-10
       413  15 -9.306147E+05  1.956285E+01 -9.525556E+02 -5.502329E+04 -9.044790E-10 -6.588141E-10
       413  16 -1.110964E+06 -4.358358E+04 -3.825883E+04 -5.496656E+04  3.779985E-10  2.553781E-10
       413  17 -1.186958E+06 -6.194145E+04 -5.387067E+04 -4.186028E+04  8.318234E-10  3.832615E-10
       413  18 -1.262994E+06 -8.029068E+04 -6.970864E+04 -5.491176E+04 -1.698418E-10  7.425147E-12
       413  19 -7.502104E+05  4.368943E+04  3.697465E+04 -5.508007E+04 -5.216397E+03  1.047156E+04
       413  20 -6.741504E+05  6.200061E+04  5.249315E+04 -4.202930E+04 -5.544294E+03  1.528736E+04
       413  21 -5.981302E+05  8.032323E+04  6.779836E+04 -5.513496E+04 -5.873554E+03  2.009446E+04
       413  22 -9.306024E+05  5.402409E+01 -6.411121E+02 -5.502328E+04  1.004555E+02  1.046921E+04
       413  23 -9.305855E+05  3.179363E+01 -6.867753E+02 -4.194474E+04 -2.366688E+02  1.528571E+04
       413  24 -9.306146E+05  1.999631E+01 -9.517966E+02 -5.502330E+04 -5.751173E+02  2.009348E+04
       413  25 -1.110964E+06 -4.358345E+04 -3.825857E+04 -5.496651E+04  5.415787E+03  1.046687E+04
       413  26 -1.186958E+06 -6.194119E+04 -5.387018E+04 -4.186022E+04  5.068799E+03  1.528406E+04
       413  27 -1.262994E+06 -8.029024E+04 -6.970784E+04 -5.491168E+04  4.720529E+03  2.009250E+04
       414   1 -5.417403E+05  9.403362E+04  7.966433E+04 -5.512877E+04  6.074352E+03 -2.289424E+04
       414   2 -4.660159E+05  1.122556E+05  9.438297E+04 -4.210126E+04  6.966649E+03 -2.766706E+04
       414   3 -3.903738E+05  1.303929E+05  1.085098E+05 -5.509459E+04  7.861442E+03 -3.236655E+04
       414   4 -9.306360E+05  2.150793E+01 -1.184699E+03 -5.499328E+04  7.675649E+02 -2.289384E+04
       414   5 -9.305956E+05 -1.316916E+00 -1.966232E+03 -4.198229E+04  1.739794E+03 -2.766790E+04
       414   6 -9.306583E+05 -1.228903E+02 -3.395758E+03 -5.499333E+04  2.714415E+03 -3.236859E+04
       414   7 -1.319388E+06 -9.400023E+04 -8.204191E+04 -5.485786E+04 -4.535952E+03 -2.289344E+04
       414   8 -1.394970E+06 -1.122720E+05 -9.832711E+04 -4.186340E+04 -3.483214E+03 -2.766875E+04
       414   9 -1.470666E+06 -1.306572E+05 -1.153171E+05 -5.489215E+04 -2.428208E+03 -3.237064E+04
       414  10 -5.417405E+05  9.403305E+04  7.966327E+04 -5.512866E+04 -4.158066E-10  4.936760E-11
       414  11 -4.660162E+05  1.122548E+05  9.438144E+04 -4.210110E+04 -8.949679E-11  1.545155E-10
       414  12 -3.903742E+05  1.303918E+05  1.085077E+05 -5.509439E+04  3.817474E-10 -1.433916E-10
       414  13 -9.306361E+05  2.094520E+01 -1.185685E+03 -5.499327E+04 -4.044403E-10 -2.291100E-10
       414  14 -9.305958E+05 -2.139394E+00 -1.967675E+03 -4.198225E+04 -5.033138E-10 -4.409669E-11
       414  15 -9.306586E+05 -1.240168E+02 -3.397740E+03 -5.499326E+04  2.307434E-10 -2.053204E-10
       414  16 -1.319388E+06 -9.400080E+04 -8.204294E+04 -5.485794E+04  8.610746E-10  2.714104E-10
       414  17 -1.394971E+06 -1.122728E+05 -9.832857E+04 -4.186348E+04 -4.967885E-10  3.066748E-11
       414  18 -1.470666E+06 -1.306583E+05 -1.153191E+05 -5.489221E+04 -7.011498E-10 -1.034005E-10
       414  19 -5.417403E+05  9.403362E+04  7.966433E+04 -5.512877E+04 -6.074352E+03  2.289424E+04
       414  20 -4.660159E+05  1.122556E+05  9.438297E+04 -4.210126E+04 -6.966649E+03  2.766706E+04
       414  21 -3.903738E+05  1.303929E+05  1.085098E+05 -5.509459E+04 -7.861442E+03  3.236655E+04
       414  22 -9.306360E+05  2.150793E+01 -1.184699E+03 -5.499328E+04 -7.675649E+02  2.289384E+04
       414  23 -9.305956E+05 -1.316916E+00 -1.966232E+03 -4.198229E+04 -1.739794E+03  2.766790E+04
       414  24 -9.306583E+05 -1.228903E+02 -3.395758E+03 -5.499333E+04 -2.714415E+03  3.236859E+04
       414  25 -1.319388E+06 -9.400023E+04 -8.204191E+04 -5.485786E+04  4.535952E+03  2.289344E+04
       414  26 -1.394970E+06 -1.122720E+05 -9.832711E+04 -4.186340E+04  3.483214E+03  2.766875E+04
       414  27 -1.470666E+06 -1.306572E+05 -1.153171E+05 -5.489215E+04  2.428208E+03  3.237064E+04
       415   1 -3.344681E+05  1.442053E+05  1.194578E+05 -5.539899E+04  8.862463E+03 -3.521201E+04
       415   2 -2.590025E+05  1.621351E+05  1.318378E+05 -4.174850E+04  1.132395E+04 -3.951987E+04
       415   3 -1.842219E+05  1.780593E+05  1.421434E+05 -5.385861E+04  1.378824E+04 -4.255982E+04
       415   4 -9.308566E+05  6.769840E+01 -4.433103E+03 -5.493582E+04  3.405611E+03 -3.521498E+04
       415   5 -9.304064E+05 -1.421833E+02 -7.714677E+03 -4.205432E+04  7.262650E+03 -3.952424E+04
       415   6 -9.308907E+05 -2.601324E+03 -1.404246E+04 -5.493523E+04  1.112219E+04 -4.256494E+04
       415   7 -1.526908E+06 -1.440925E+05 -1.283434E+05 -5.447309E+04 -2.046087E+03 -3.521795E+04
       415   8 -1.601383E+06 -1.624482E+05 -1.472918E+05 -4.235982E+04  3.205665E+03 -3.952861E+04
       415   9 -1.677032E+06 -1.832977E+05 -1.702593E+05 -5.601056E+04  8.459295E+03 -4.257006E+04
       415  10 -3.344686E+05  1.442039E+05  1.194554E+05 -5.539874E+04 -1.986861E-11 -2.876922E-10
       415  11 -2.590030E+05  1.621334E+05  1.318346E+05 -4.174814E+04 -2.380153E-10 -4.427210E-10
       415  12 -1.842225E+05  1.780573E+05  1.421397E+05 -5.385814E+04 -8.023348E-10  1.930938E-10
       415  13 -9.308569E+05  6.636423E+01 -4.435454E+03 -5.493572E+04  4.395914E-11 -3.539105E-10
       415  14 -9.304069E+05 -1.438742E+02 -7.717711E+03 -4.205409E+04 -5.753562E-11 -1.421145E-10
       415  15 -9.308913E+05 -2.603302E+03 -1.404610E+04 -5.493485E+04  8.933031E-10  2.001804E-10
       415  16 -1.526908E+06 -1.440938E+05 -1.283457E+05 -5.447315E+04 -3.963935E-10 -3.047119E-10
       415  17 -1.601383E+06 -1.624498E+05 -1.472947E+05 -4.235972E+04 -2.067313E-10 -2.852347E-10
       415  18 -1.677032E+06 -1.832997E+05 -1.702628E+05 -5.601027E+04  5.003585E-10  7.536808E-10
       415  19 -3.344681E+05  1.442053E+05  1.194578E+05 -5.539899E+04 -8.862463E+03  3.521201E+04
       415  20 -2.590025E+05  1.621351E+05  1.318378E+05 -4.174850E+04 -1.132395E+04  3.951987E+04
       415  21 -1.842219E+05  1.780593E+05  1.421434E+05 -5.385861E+04 -1.378824E+04  4.255982E+04
       415  22 -9.308566E+05  6.769840E+01 -4.433103E+03 -5.493582E+04 -3.405611E+03  3.521498E+04
       415  23 -9.304064E+05 -1.421833E+02 -7.714677E+03 -4.205432E+04 -7.262650E+03  3.952424E+04
       415  24 -9.308907E+05 -2.601324E+03 -1.404246E+04 -5.493523E+04 -1.112219E+04  4.256494E+04
       415  25 -1.526908E+06 -1.440925E+05 -1.283434E+05 -5.447309E+04  2.046087E+03  3.521795E+04
       415  26 -1.601383E+06 -1.624482E+05 -1.472918E+05 -4.235982E+04 -3.205665E+03  3.952861E+04
       415  27 -1.677032E+06 -1.832977E+05 -1.702593E+05 -5.601056E+04 -8.459295E+03  4.257006E+04
       416   1 -1.307874E+05  1.960260E+05  1.494509E+05 -6.165139E+04  2.263217E+04 -4.664257E+04
       416   2 -5.168224E+04  2.091414E+05  1.572387E+05 -3.056540E+04  1.153334E+04 -4.237605E+04
       416   3  1.827726E+04  1.789092E+05  1.614692E+05 -2.368370E+04  4.043078E+02 -1.318077E+04
       416   4 -9.337969E+05  1.877526E+03 -1.788181E+04 -5.460131E+04  1.357482E+04 -4.665205E+04
       416   5 -9.268563E+05 -3.695368E+03 -3.120932E+04 -4.247338E+04  2.998380E+04 -4.236571E+04
       416   6 -9.338629E+05 -5.742908E+04 -6.722222E+04 -5.455229E+04  4.636283E+04 -1.313403E+04
       416   7 -1.736195E+06 -1.923119E+05 -1.852498E+05 -4.756057E+04  4.528981E+03 -4.666175E+04
       416   8 -1.801309E+06 -2.165819E+05 -2.197010E+05 -5.436446E+04  4.840859E+04 -4.235607E+04
       416   9 -1.885166E+06 -2.938288E+05 -2.959697E+05 -8.537352E+04  9.225110E+04 -1.309183E+04
       416  10 -1.307885E+05  1.960235E+05  1.494459E+05 -6.165054E+04  6.204861E-10  7.293302E-10
       416  11 -5.168287E+04  2.091395E+05  1.572350E+05 -3.056501E+04  6.976115E-10  5.627646E-10
       416  12  1.827721E+04  1.789091E+05  1.614689E+05 -2.368369E+04  8.129173E-10  6.405569E-10
       416  13 -9.337977E+05  1.875140E+03 -1.788624E+04 -5.460080E+04  1.026771E-09 -4.155380E-10
       416  14 -9.268578E+05 -3.697537E+03 -3.121438E+04 -4.247236E+04  4.405805E-10  5.993187E-10
       416  15 -9.338653E+05 -5.742984E+04 -6.722659E+04 -5.455180E+04  1.686233E-09 -3.235903E-10
       416  16 -1.736196E+06 -1.923142E+05 -1.852539E+05 -4.756040E+04 -7.999311E-10  7.342125E-10
       416  17 -1.801312E+06 -2.165844E+05 -2.197088E+05 -5.436280E+04 -8.972304E-10  7.298009E-12
       416  18 -1.885175E+06 -2.938313E+05 -2.959860E+05 -8.537255E+04 -1.205523E-09  9.287616E-10
       416  19 -1.307874E+05  1.960260E+05  1.494509E+05 -6.165139E+04 -2.263217E+04  4.664257E+04
       416  20 -5.168224E+04  2.091414E+05  1.572387E+05 -3.056540E+04 -1.153334E+04  4.237605E+04
       416  21  1.827726E+04  1.789092E+05  1.614692E+05 -2.368370E+04 -4.043078E+02  1.318077E+04
       416  22 -9.337969E+05  1.877526E+03 -1.788181E+04 -5.460131E+04 -1.357482E+04  4.665205E+04
       416  23 -9.268563E+05 -3.695368E+03 -3.120932E+04 -4.247338E+04 -2.998380E+04  4.236571E+04
       416  24 -9.338629E+05 -5.742908E+04 -6.722222E+04 -5.455229E+04 -4.636283E+04  1.313403E+04
       416  25 -1.736195E+06 -1.923119E+05 -1.852498E+05 -4.756057E+04 -4.528981E+03  4.666175E+04
       416  26 -1.801309E+06 -2.165819E+05 -2.197010E+05 -5.436446E+04 -4.840859E+04  4.235607E+04
       416  27 -1.885166E+06 -2.938288E+05 -2.959697E+05 -8.537352E+04 -9.225110E+04  1.309183E+04
       417   1  1.619658E+05  8.309056E+04  1.362206E+05  8.266590E+04  1.848829E+05  1.048411E+04
       417   2  2.142956E+05 -1.482478E+05  2.233205E+03  7.523886E+03  1.292154E+05  3.254889E+04
       417   3  3.305032E+05 -1.539135E+05 -3.905321E+04 -9.559892E+04  7.355862E+04  3.446886E+04
       417   4  9.263530E+05  2.721698E+05  3.197608E+05 -6.024738E+04  2.206551E+05  1.047810E+04
       417   5  8.926047E+05  1.644310E+04  1.483729E+05 -4.613374E+04  1.426446E+05  3.254673E+04
       417   6  9.265060E+05 -9.902174E+03  8.510893E+04 -5.999401E+04  6.465560E+04  3.446448E+04
       417   7  1.691322E+06  4.612844E+05  5.032754E+05 -2.033373E+05  2.564709E+05  1.045566E+04
       417   8  1.571352E+06  1.811148E+05  2.944878E+05 -9.985085E+04  1.560881E+05  3.254226E+04
       417   9  1.522848E+06  1.340913E+05  2.092525E+05 -2.435441E+04  5.574415E+04  3.445908E+04
       417  10  1.619290E+05  8.308127E+04  1.361562E+05  8.266434E+04  1.620860E-09 -1.202911E-09
       417  11  2.142774E+05 -1.482535E+05  2.199851E+03  7.520499E+03 -5.292493E-10  2.656689E-10
       417  12  3.304971E+05 -1.539162E+05 -3.906560E+04 -9.560096E+04 -2.762121E-09 -3.285320E-10
       417  13  9.263007E+05  2.721567E+05  3.196693E+05 -6.024924E+04  8.867618E-10  6.975371E-10
       417  14  8.925825E+05  1.643651E+04  1.483327E+05 -4.613748E+04  8.072919E-10  2.394868E-11
       417  15  9.265012E+05 -9.904570E+03  8.509886E+04 -5.999580E+04  6.752820E-10 -4.262786E-10
       417  16  1.691251E+06  4.612667E+05  5.031520E+05 -2.033395E+05 -1.379794E-09  6.587170E-10
       417  17  1.571326E+06  1.811071E+05  2.944401E+05 -9.985493E+04  6.423530E-10  2.607210E-10
       417  18  1.522844E+06  1.340892E+05  2.092444E+05 -2.435595E+04  3.375497E-09  1.802861E-09
       417  19  1.619658E+05  8.309056E+04  1.362206E+05  8.266590E+04 -1.848829E+05 -1.048411E+04
       417  20  2.142956E+05 -1.482478E+05  2.233205E+03  7.523886E+03 -1.292154E+05 -3.254889E+04
       417  21  3.305032E+05 -1.539135E+05 -3.905321E+04 -9.559892E+04 -7.355862E+04 -3.446886E+04
       417  22  9.263530E+05  2.721698E+05  3.197608E+05 -6.024738E+04 -2.206551E+05 -1.047810E+04
       417  23  8.926047E+05  1.644310E+04  1.483729E+05 -4.613374E+04 -1.426446E+05 -3.254673E+04
       417  24  9.265060E+05 -9.902174E+03  8.510893E+04 -5.999401E+04 -6.465560E+04 -3.446448E+04
       417  25  1.691322E+06  4.612844E+05  5.032754E+05 -2.033373E+05 -2.564709E+05 -1.045566E+04
       417  26  1.571352E+06  1.811148E+05  2.944878E+05 -9.985085E+04 -1.560881E+05 -3.254226E+04
       417  27  1.522848E+06  1.340913E+05  2.092525E+05 -2.435441E+04 -5.574415E+04 -3.445908E+04
       418   1  3.791960E+05 -1.174101E+05 -4.468702E+04 -5.660622E+04  5.668554E+04  3.030699E+04
       418   2  4.600824E+05 -1.085748E+05 -5.680567E+04 -4.534966E+04  3.949466E+04  2.640242E+04
       418   3  5.459297E+05 -8.924135E+04 -5.508867E+04 -6.269048E+04  2.230027E+04  2.149317E+04
       418   4  9.126114E+05  1.149227E+04  6.680769E+04 -6.019421E+04  5.296902E+04  3.030248E+04
       418   5  9.100579E+05  4.129776E+01  3.663747E+04 -4.589363E+04  3.465356E+04  2.639862E+04
       418   6  9.126475E+05 -7.219142E+02  2.107331E+04 -6.018870E+04  1.633685E+04  2.149027E+04
       418   7  1.446296E+06  1.403765E+05  1.782867E+05 -6.378535E+04  4.924935E+04  3.029801E+04
       418   8  1.360225E+06  1.086445E+05  1.300696E+05 -4.643801E+04  2.980901E+04  2.639482E+04
       418   9  1.279493E+06  8.778902E+04  9.722808E+04 -5.768543E+04  1.036996E+04  2.148733E+04
       418  10  3.791923E+05 -1.174119E+05 -4.469479E+04 -5.660761E+04  9.302442E-10 -1.126303E-10
       418  11  4.600806E+05 -1.085760E+05 -5.680991E+04 -4.535050E+04  3.617608E-10  4.692128E-11
       418  12  5.459291E+05 -8.924198E+04 -5.509047E+04 -6.269087E+04 -5.899607E-10 -4.854710E-10
       418  13  9.126081E+05  1.149053E+04  6.680069E+04 -6.019550E+04  6.638079E-10  1.310826E-09
       418  14  9.100564E+05  4.022723E+01  3.663391E+04 -4.589436E+04  8.277587E-10  4.966725E-10
       418  15  9.126471E+05 -7.224819E+02  2.107195E+04 -6.018898E+04  3.722235E-10 -6.221113E-10
       418  16  1.446293E+06  1.403749E+05  1.782804E+05 -6.378655E+04 -1.266081E-09  1.086301E-09
       418  17  1.360224E+06  1.086436E+05  1.300667E+05 -4.643864E+04 -2.514695E-10  9.129864E-11
       418  18  1.279492E+06  8.778850E+04  9.722701E+04 -5.768561E+04  4.900662E-10 -5.354989E-10
       418  19  3.791960E+05 -1.174101E+05 -4.468702E+04 -5.660622E+04 -5.668554E+04 -3.030699E+04
       418  20  4.600824E+05 -1.085748E+05 -5.680567E+04 -4.534966E+04 -3.949466E+04 -2.640242E+04
       418  21  5.459297E+05 -8.924135E+04 -5.508867E+04 -6.269048E+04 -2.230027E+04 -2.149317E+04
       418  22  9.126114E+05  1.149227E+04  6.680769E+04 -6.019421E+04 -5.296902E+04 -3.030248E+04
       418  23  9.100579E+05  4.129776E+01  3.663747E+04 -4.589363E+04 -3.465356E+04 -2.639862E+04
       418  24  9.126475E+05 -7.219142E+02  2.107331E+04 -6.018870E+04 -1.633685E+04 -2.149027E+04
       418  25  1.446296E+06  1.403765E+05  1.782867E+05 -6.378535E+04 -4.924935E+04 -3.029801E+04
       418  26  1.360225E+06  1.086445E+05  1.300696E+05 -4.643801E+04 -2.980901E+04 -2.639482E+04
       418  27  1.279493E+06  8.778902E+04  9.722808E+04 -5.768543E+04 -1.036996E+04 -2.148733E+04
       419   1  6.067214E+05 -7.329919E+04 -4.687827E+04 -6.076602E+04  1.875222E+04  1.837705E+04
       419   2  6.893755E+05 -5.372892E+04 -3.675502E+04 -4.636386E+04  1.425290E+04  1.319265E+04
       419   3  7.727808E+05 -3.366335E+04 -2.357230E+04 -6.048768E+04  9.751872E+03  7.961752E+03
       419   4  9.116809E+05  2.361072E+02  1.609197E+04 -6.017470E+04  1.305531E+04  1.837475E+04
       419   5  9.113106E+05 -1.901789E+02  9.199148E+03 -4.591205E+04  8.502232E+03  1.319095E+04
       419   6  9.116949E+05 -1.116000E+02  5.402002E+03 -6.017478E+04  3.948028E+03  7.960691E+03
       419   7  1.216728E+06  7.376555E+04  7.905731E+04 -5.958310E+04  7.355653E+03  1.837245E+04
       419   8  1.133292E+06  5.334546E+04  5.515076E+04 -4.546008E+04  2.749546E+03  1.318925E+04
       419   9  1.050627E+06  3.343893E+04  3.437536E+04 -5.986180E+04 -1.857091E+03  7.959625E+03
       419  10  6.067210E+05 -7.329965E+04 -4.687956E+04 -6.076630E+04 -4.716800E-10 -4.183438E-10
       419  11  6.893752E+05 -5.372916E+04 -3.675573E+04 -4.636401E+04 -7.650722E-10 -8.434707E-10
       419  12  7.727807E+05 -3.366344E+04 -2.357260E+04 -6.048774E+04 -5.236267E-11 -3.196754E-10
       419  13  9.116806E+05  2.356988E+02  1.609102E+04 -6.017490E+04 -1.282007E-10 -3.493672E-10
       419  14  9.113105E+05 -1.903852E+02  9.198685E+03 -4.591214E+04  2.261723E-10  1.794313E-10
       419  15  9.116948E+05 -1.116722E+02  5.401854E+03 -6.017480E+04 -3.458083E-10 -2.602124E-10
       419  16  1.216728E+06  7.376518E+04  7.905657E+04 -5.958320E+04 -1.997689E-10 -2.105980E-10
       419  17  1.133292E+06  5.334528E+04  5.515042E+04 -4.546011E+04 -4.223412E-10 -9.881455E-11
       419  18  1.050627E+06  3.343887E+04  3.437524E+04 -5.986179E+04 -6.948395E-11  1.153734E-10
       419  19  6.067214E+05 -7.329919E+04 -4.687827E+04 -6.076602E+04 -1.875222E+04 -1.837705E+04
       419  20  6.893755E+05 -5.372892E+04 -3.675502E+04 -4.636386E+04 -1.425290E+04 -1.319265E+04
       419  21  7.727808E+05 -3.366335E+04 -2.357230E+04 -6.048768E+04 -9.751872E+03 -7.961752E+03
       419  22  9.116809E+05  2.361072E+02  1.609197E+04 -6.017470E+04 -1.305531E+04 -1.837475E+04
       419  23  9.113106E+05 -1.901789E+02  9.199148E+03 -4.591205E+04 -8.502232E+03 -1.319095E+04
       419  24  9.116949E+05 -1.116000E+02  5.402002E+03 -6.017478E+04 -3.948028E+03 -7.960691E+03
       419  25  1.216728E+06  7.376555E+04  7.905731E+04 -5.958310E+04 -7.355653E+03 -1.837245E+04
       419  26  1.133292E+06  5.334546E+04  5.515076E+04 -4.546008E+04 -2.749546E+03 -1.318925E+04
       419  27  1.050627E+06  3.343893E+04  3.437536E+04 -5.986180E+04  1.857091E+03 -7.959625E+03
       420   1  8.342413E+05 -1.868333E+04 -1.159490E+04 -6.036644E+04  8.868685E+03  4.906788E+03
       420   2  9.170732E+05  1.276502E+03  3.819238E+03 -4.602646E+04  7.557688E+03 -3.328979E+02
       420   3  1.000106E+06  2.125306E+04  2.009439E+04 -6.017893E+04  6.246536E+03 -5.575218E+03
       420   4  9.115733E+05 -7.433931E+01  4.193200E+03 -6.016751E+04  3.079848E+03  4.905917E+03
       420   5  9.114764E+05 -7.319081E+01  2.661520E+03 -4.592128E+04  1.765395E+03 -3.337985E+02
       420   6  9.115736E+05 -5.473057E+01  1.992827E+03 -6.016755E+04  4.509562E+02 -5.576125E+03
       420   7  9.889110E+05  1.853429E+04  1.998111E+04 -5.996855E+04 -2.709696E+03  4.905043E+03
       420   8  9.058797E+05 -1.422868E+03  1.503925E+03 -4.581611E+04 -4.026847E+03 -3.347010E+02
       420   9  8.230482E+05 -2.136299E+04 -1.610902E+04 -6.015616E+04 -5.343813E+03 -5.577032E+03
       420  10  8.342413E+05 -1.868338E+04 -1.159509E+04 -6.036648E+04  1.658178E-10 -4.401957E-11
       420  11  9.170731E+05  1.276487E+03  3.819131E+03 -4.602646E+04 -2.458854E-10 -7.609769E-11
       420  12  1.000106E+06  2.125301E+04  2.009425E+04 -6.017891E+04 -4.303448E-10 -2.985253E-10
       420  13  9.115733E+05 -7.436771E+01  4.193137E+03 -6.016752E+04  1.669980E-10 -1.788858E-10
       420  14  9.114764E+05 -7.319177E+01  2.661514E+03 -4.592128E+04 -3.040854E-11 -1.869809E-10
       420  15  9.115736E+05 -5.476403E+01  1.992768E+03 -6.016755E+04  7.371294E-10  1.146636E-10
       420  16  9.889110E+05  1.853427E+04  1.998105E+04 -5.996854E+04 -9.865449E-12  1.008763E-11
       420  17  9.058797E+05 -1.422872E+03  1.503895E+03 -4.581611E+04 -2.055625E-10 -5.269390E-10
       420  18  8.230481E+05 -2.136303E+04 -1.610913E+04 -6.015619E+04  5.584811E-10  7.578219E-11
       420  19  8.342413E+05 -1.868333E+04 -1.159490E+04 -6.036644E+04 -8.868685E+03 -4.906788E+03
       420  20  9.170732E+05  1.276502E+03  3.819238E+03 -4.602646E+04 -7.557688E+03  3.328979E+02
       420  21  1.000106E+06  2.125306E+04  2.009439E+04 -6.017893E+04 -6.246536E+03  5.575218E+03
       420  22  9.115733E+05 -7.433931E+01  4.193200E+03 -6.016751E+04 -3.079848E+03 -4.905917E+03
       420  23  9.114764E+05 -7.319081E+01  2.661520E+03 -4.592128E+04 -1.765395E+03  3.337985E+02
       420  24  9.115736E+05 -5.473057E+01  1.992827E+03 -6.016755E+04 -4.509562E+02  5.576125E+03
       420  25  9.889110E+05  1.853429E+04  1.998111E+04 -5.996855E+04  2.709696E+03 -4.905043E+03
       420  26  9.058797E+05 -1.422868E+03  1.503925E+03 -4.581611E+04  4.026847E+03  3.347010E+02
       420  27  8.230482E+05 -2.136299E+04 -1.610902E+04 -6.015616E+04  5.343813E+03  5.577032E+03
       421   1  1.061696E+06  3.619316E+04  3.318781E+04 -6.016461E+04  5.896184E+03 -8.627454E+03
       421   2  1.144668E+06  5.615516E+04  5.040681E+04 -4.580177E+04  4.837536E+03 -1.387389E+04
       421   3  1.227824E+06  7.612279E+04  6.832358E+04 -5.997196E+04  3.780065E+03 -1.912218E+04
       421   4  9.115668E+05 -5.708366E+01  1.898888E+03 -6.017670E+04  9.753487E+01 -8.628570E+03
       421   5  9.114719E+05 -8.154296E+01  2.148334E+03 -4.590985E+04 -9.632019E+02 -1.387569E+04
       421   6  9.115545E+05 -9.960159E+01  3.097279E+03 -6.017667E+04 -2.022624E+03 -1.912464E+04
       421   7  7.614586E+05 -3.630874E+04 -2.939115E+04 -6.018879E+04 -5.699737E+03 -8.629686E+03
       421   8  6.783272E+05 -5.632166E+04 -4.611297E+04 -4.601788E+04 -6.761802E+03 -1.387748E+04
       421   9  5.953802E+05 -7.632828E+04 -6.213429E+04 -6.038128E+04 -7.822413E+03 -1.912709E+04
       421  10  1.061696E+06  3.619307E+04  3.318760E+04 -6.016457E+04 -6.126668E-10 -1.754142E-10
       421  11  1.144668E+06  5.615494E+04  5.040641E+04 -4.580172E+04  2.471202E-10  4.239359E-10
       421  12  1.227824E+06  7.612239E+04  6.832287E+04 -5.997190E+04  1.331152E-11  2.709201E-11
       421  13  9.115667E+05 -5.716364E+01  1.898748E+03 -6.017670E+04  9.887114E-10  4.823467E-10
       421  14  9.114719E+05 -8.175005E+01  2.147970E+03 -4.590986E+04  8.718654E-10  9.055265E-10
       421  15  9.115544E+05 -9.999561E+01  3.096583E+03 -6.017670E+04  6.449935E-10  6.398403E-11
       421  16  7.614585E+05 -3.630883E+04 -2.939135E+04 -6.018883E+04  5.464665E-10  3.885944E-10
       421  17  6.783271E+05 -5.632188E+04 -4.611342E+04 -4.601795E+04 -1.826556E-10  1.385242E-10
       421  18  5.953800E+05 -7.632869E+04 -6.213509E+04 -6.038140E+04 -9.575669E-11 -2.689954E-10
       421  19  1.061696E+06  3.619316E+04  3.318781E+04 -6.016461E+04 -5.896184E+03  8.627454E+03
       421  20  1.144668E+06  5.615516E+04  5.040681E+04 -4.580177E+04 -4.837536E+03  1.387389E+04
       421  21  1.227824E+06  7.612279E+04  6.832358E+04 -5.997196E+04 -3.780065E+03  1.912218E+04
       421  22  9.115668E+05 -5.708366E+01  1.898888E+03 -6.017670E+04 -9.753487E+01  8.628570E+03
       421  23  9.114719E+05 -8.154296E+01  2.148334E+03 -4.590985E+04  9.632019E+02  1.387569E+04
       421  24  9.115545E+05 -9.960159E+01  3.097279E+03 -6.017667E+04  2.022624E+03  1.912464E+04
       421  25  7.614586E+05 -3.630874E+04 -2.939115E+04 -6.018879E+04  5.699737E+03  8.629686E+03
       421  26  6.783272E+05 -5.632166E+04 -4.611297E+04 -4.601788E+04  6.761802E+03  1.387748E+04
       421  27  5.953802E+05 -7.632828E+04 -6.213429E+04 -6.038128E+04  7.822413E+03  1.912709E+04
       422   1  1.289693E+06  9.107517E+04  8.235250E+04 -5.989621E+04  3.172224E+03 -2.218604E+04
       422   2  1.372807E+06  1.110756E+05  1.020036E+05 -4.541036E+04 -1.081541E+02 -2.742987E+04
       422   3  1.456534E+06  1.314265E+05  1.238954E+05 -5.957561E+04 -3.386365E+03 -3.261714E+04
       422   4  9.116386E+05 -1.309073E+02  3.904378E+03 -6.020300E+04 -2.655293E+03 -2.218911E+04
       422   5  9.113273E+05 -2.015820E+02  6.499359E+03 -4.587680E+04 -5.871271E+03 -2.743426E+04
       422   6  9.116131E+05  6.808606E+01  1.129220E+04 -6.020300E+04 -9.084655E+03 -3.262280E+04
       422   7  5.337196E+05 -9.134603E+04 -7.455142E+04 -6.050962E+04 -8.479328E+03 -2.219219E+04
       422   8  4.500491E+05 -1.114922E+05 -8.901631E+04 -4.634291E+04 -1.163018E+04 -2.743864E+04
       422   9  3.669730E+05 -1.313090E+05 -1.013270E+05 -6.082986E+04 -1.477804E+04 -3.262844E+04
       422  10  1.289693E+06  9.107464E+04  8.235155E+04 -5.989615E+04 -6.161249E-10  4.589788E-10
       422  11  1.372807E+06  1.110748E+05  1.020022E+05 -4.541036E+04 -9.378090E-10 -8.835251E-10
       422  12  1.456534E+06  1.314253E+05  1.238934E+05 -5.957570E+04  1.167421E-09 -2.197354E-10
       422  13  9.116385E+05 -1.314381E+02  3.903440E+03 -6.020305E+04  2.531961E-10 -4.944032E-12
       422  14  9.113271E+05 -2.023998E+02  6.497880E+03 -4.587693E+04 -2.372853E-11 -3.524352E-10
       422  15  9.116127E+05  6.692060E+01  1.129004E+04 -6.020324E+04  8.139296E-10 -2.390586E-10
       422  16  5.337194E+05 -9.134658E+04 -7.455248E+04 -6.050977E+04  4.217762E-10 -6.744531E-10
       422  17  4.500488E+05 -1.114931E+05 -8.901798E+04 -4.634317E+04 -5.686479E-10 -8.706440E-11
       422  18  3.669725E+05 -1.313102E+05 -1.013294E+05 -6.083025E+04 -1.187672E-09 -2.083568E-12
       422  19  1.289693E+06  9.107517E+04  8.235250E+04 -5.989621E+04 -3.172224E+03  2.218604E+04
       422  20  1.372807E+06  1.110756E+05  1.020036E+05 -4.541036E+04  1.081541E+02  2.742987E+04
       422  21  1.456534E+06  1.314265E+05  1.238954E+05 -5.957561E+04  3.386365E+03  3.261714E+04
       422  22  9.116386E+05 -1.309073E+02  3.904378E+03 -6.020300E+04  2.655293E+03  2.218911E+04
       422  23  9.113273E+05 -2.015820E+02  6.499359E+03 -4.587680E+04  5.871271E+03  2.743426E+04
       422  24  9.116131E+05  6.808606E+01  1.129220E+04 -6.020300E+04  9.084655E+03  3.262280E+04
       422  25  5.337196E+05 -9.134603E+04 -7.455142E+04 -6.050962E+04  8.479328E+03  2.219219E+04
       422  26  4.500491E+05 -1.114922E+05 -8.901631E+04 -4.634291E+04  1.163018E+04  2.743864E+04
       422  27  3.669730E+05 -1.313090E+05 -1.013270E+05 -6.082986E+04  1.477804E+04  3.262844E+04
       423   1  1.519389E+06  1.458174E+05  1.406263E+05 -5.821737E+04 -5.332791E+03 -3.576626E+04
       423   2  1.601421E+06  1.665774E+05  1.689587E+05 -4.585362E+04 -1.960274E+04 -4.059939E+04
       423   3  1.687425E+06  1.950414E+05  2.085336E+05 -6.226823E+04 -3.387289E+04 -4.412249E+04
       423   4  9.122911E+05 -6.085175E+02  1.476779E+04 -6.022931E+04 -1.138395E+04 -3.577316E+04
       423   5  9.104106E+05 -9.251880E+01  2.562556E+04 -4.584300E+04 -2.419208E+04 -4.060701E+04
       423   6  9.122461E+05  7.879882E+03  4.672091E+04 -6.023670E+04 -3.699850E+04 -4.413022E+04
       423   7  3.055416E+05 -1.470578E+05 -1.111107E+05 -6.223930E+04 -1.742931E+04 -3.578002E+04
       423   8  2.198514E+05 -1.667927E+05 -1.177336E+05 -4.583247E+04 -2.877641E+04 -4.061464E+04
       423   9  1.376343E+05 -1.793199E+05 -1.151250E+05 -5.820787E+04 -4.012027E+04 -4.413798E+04
       423  10  1.519389E+06  1.458160E+05  1.406239E+05 -5.821752E+04  1.540169E-10 -2.923705E-10
       423  11  1.601420E+06  1.665755E+05  1.689549E+05 -4.585426E+04  1.277232E-09 -6.681570E-10
       423  12  1.687423E+06  1.950390E+05  2.085278E+05 -6.226943E+04  1.834492E-09 -2.043841E-09
       423  13  9.122906E+05 -6.099271E+02  1.476514E+04 -6.022964E+04  2.304798E-10 -1.178792E-11
       423  14  9.104095E+05 -9.444712E+01  2.562137E+04 -4.584379E+04  6.451257E-10 -6.178455E-10
       423  15  9.122441E+05  7.877423E+03  4.671468E+04 -6.023802E+04  1.562232E-09 -1.260406E-09
       423  16  3.055409E+05 -1.470592E+05 -1.111137E+05 -6.223981E+04 -1.473012E-10 -5.071001E-12
       423  17  2.198501E+05 -1.667947E+05 -1.177382E+05 -4.583341E+04 -8.499939E-10  2.206803E-09
       423  18  1.376321E+05 -1.793224E+05 -1.151316E+05 -5.820930E+04 -1.492245E-09 -7.320527E-10
       423  19  1.519389E+06  1.458174E+05  1.406263E+05 -5.821737E+04  5.332791E+03  3.576626E+04
       423  20  1.601421E+06  1.665774E+05  1.689587E+05 -4.585362E+04  1.960274E+04  4.059939E+04
       423  21  1.687425E+06  1.950414E+05  2.085336E+05 -6.226823E+04  3.387289E+04  4.412249E+04
       423  22  9.122911E+05 -6.085175E+02  1.476779E+04 -6.022931E+04  1.138395E+04  3.577316E+04
       423  23  9.104106E+05 -9.251880E+01  2.562556E+04 -4.584300E+04  2.419208E+04  4.060701E+04
       423  24  9.122461E+05  7.879882E+03  4.672091E+04 -6.023670E+04  3.699850E+04  4.413022E+04
       423  25  3.055416E+05 -1.470578E+05 -1.111107E+05 -6.223930E+04  1.742931E+04  3.578002E+04
       423  26  2.198514E+05 -1.667927E+05 -1.177336E+05 -4.583247E+04  2.877641E+04  4.061464E+04
       423  27  1.376343E+05 -1.793199E+05 -1.151250E+05 -5.820787E+04  4.012027E+04  4.413798E+04
       424   1  1.760527E+06  1.953156E+05  2.339162E+05 -3.448261E+04 -3.524833E+04 -4.863626E+04
       424   2  1.819463E+06  2.347638E+05  3.017412E+05 -8.301364E+04 -1.189815E+05 -4.457333E+04
       424   3  1.930899E+06  4.395914E+05  4.653871E+05 -1.595033E+05 -2.027791E+05 -1.416360E+04
       424   4  9.219669E+05 -7.094861E+03  5.951663E+04 -5.998026E+04 -4.516810E+04 -4.865188E+04
       424   5  8.981524E+05  1.131619E+04  1.037231E+05 -4.615306E+04 -9.969246E+04 -4.455707E+04
       424   6  9.218357E+05  1.901630E+05  2.235711E+05 -6.027447E+04 -1.542657E+05 -1.411462E+04
       424   7  8.407280E+04 -2.095476E+05 -1.149208E+05 -8.544315E+04 -5.507469E+04 -4.866670E+04
       424   8 -2.235908E+04 -2.121816E+05 -9.434248E+04 -9.348063E+03 -8.043149E+04 -4.453853E+04
       424   9 -8.627062E+04 -5.930055E+04 -1.830267E+04  3.879255E+04 -1.058305E+05 -1.405015E+04
       424  10  1.760525E+06  1.953128E+05  2.339094E+05 -3.448399E+04 -1.820816E-10 -2.885012E-09
       424  11  1.819448E+06  2.347579E+05  3.017109E+05 -8.301791E+04 -1.396809E-09 -4.663243E-09
       424  12  1.930854E+06  4.395802E+05  4.653097E+05 -1.595056E+05 -1.686216E-09 -1.277705E-09
       424  13  9.219641E+05 -7.097951E+03  5.950835E+04 -5.998203E+04 -5.114338E-10 -6.674652E-09
       424  14  8.981412E+05  1.131139E+04  1.037007E+05 -4.615664E+04  1.859489E-09  2.724010E-09
       424  15  9.218101E+05  1.901564E+05  2.235261E+05 -6.027622E+04  2.594090E-09  3.122738E-11
       424  16  8.406890E+04 -2.095510E+05 -1.149309E+05 -8.544531E+04 -1.629315E-10 -1.829592E-09
       424  17 -2.236656E+04 -2.121855E+05 -9.435837E+04 -9.350948E+03 -2.189149E-10  2.002700E-09
       424  18 -8.628271E+04 -5.930377E+04 -1.832409E+04  3.879135E+04  1.532258E-09 -1.674251E-09
       424  19  1.760527E+06  1.953156E+05  2.339162E+05 -3.448261E+04  3.524833E+04  4.863626E+04
       424  20  1.819463E+06  2.347638E+05  3.017412E+05 -8.301364E+04  1.189815E+05  4.457333E+04
       424  21  1.930899E+06  4.395914E+05  4.653871E+05 -1.595033E+05  2.027791E+05  1.416360E+04
       424  22  9.219669E+05 -7.094861E+03  5.951663E+04 -5.998026E+04  4.516810E+04  4.865188E+04
       424  23  8.981524E+05  1.131619E+04  1.037231E+05 -4.615306E+04  9.969246E+04  4.455707E+04
       424  24  9.218357E+05  1.901630E+05  2.235711E+05 -6.027447E+04  1.542657E+05  1.411462E+04
       424  25  8.407280E+04 -2.095476E+05 -1.149208E+05 -8.544315E+04  5.507469E+04  4.866670E+04
       424  26 -2.235908E+04 -2.121816E+05 -9.434248E+04 -9.348063E+03  8.043149E+04  4.453853E+04
       424  27 -8.627062E+04 -5.930055E+04 -1.830267E+04  3.879255E+04  1.058305E+05  1.405015E+04
       425   1  3.063871E+05  1.419301E+05  1.218961E+05  6.245810E+03 -9.454305E+03 -1.261799E+04
       425   2  2.510122E+05  1.889748E+05  1.284926E+05  2.385716E+04 -1.686212E+04 -4.134046E+04
       425   3  1.836334E+05  1.839579E+05  1.269444E+05  5.812685E+04 -2.431223E+04 -4.745308E+04
       425   4 -5.780806E+05 -7.687731E+04 -8.857383E+04  4.853024E+04 -6.127181E+04 -1.272535E+04
       425   5 -5.694959E+05 -9.119265E+03 -4.179838E+04  4.011210E+04 -3.938424E+04 -4.139523E+04
       425   6 -5.780278E+05  1.449386E+03 -2.353276E+04  4.835462E+04 -1.753913E+04 -4.744105E+04
       425   7 -1.461821E+06 -2.957329E+05 -2.990875E+05  9.075378E+04 -1.130158E+05 -1.283986E+04
       425   8 -1.389364E+06 -2.072548E+05 -2.121240E+05  5.634483E+04 -6.187708E+04 -4.145122E+04
       425   9 -1.339133E+06 -1.810941E+05 -1.740382E+05  3.859428E+04 -1.077415E+04 -4.742922E+04
       425  10  3.063869E+05  1.419299E+05  1.218957E+05  6.245714E+03  3.633363E-09 -8.876466E-10
       425  11  2.510115E+05  1.889729E+05  1.284888E+05  2.385660E+04  3.741207E-09 -4.477678E-09
       425  12  1.836321E+05  1.839553E+05  1.269391E+05  5.812592E+04  2.504240E-09 -4.159247E-09
       425  13 -5.780847E+05 -7.687849E+04 -8.858120E+04  4.852961E+04  8.285056E-10  1.124658E-09
       425  14 -5.694980E+05 -9.121522E+03 -4.180452E+04  4.011078E+04  4.486040E-10 -2.451232E-09
       425  15 -5.780287E+05  1.446887E+03 -2.353757E+04  4.835395E+04  1.851449E-10  2.220460E-11
       425  16 -1.461834E+06 -2.957365E+05 -2.991118E+05  9.075261E+04 -3.535480E-09  3.526675E-10
       425  17 -1.389369E+06 -2.072577E+05 -2.121345E+05  5.634276E+04 -4.590431E-09 -7.179500E-09
       425  18 -1.339134E+06 -1.810965E+05 -1.740426E+05  3.859387E+04 -3.080226E-09 -6.431824E-09
       425  19  3.063871E+05  1.419301E+05  1.218961E+05  6.245810E+03  9.454305E+03  1.261799E+04
       425  20  2.510122E+05  1.889748E+05  1.284926E+05  2.385716E+04  1.686212E+04  4.134046E+04
       425  21  1.836334E+05  1.839579E+05  1.269444E+05  5.812685E+04  2.431223E+04  4.745308E+04
       425  22 -5.780806E+05 -7.687731E+04 -8.857383E+04  4.853024E+04  6.127181E+04  1.272535E+04
       425  23 -5.694959E+05 -9.119265E+03 -4.179838E+04  4.011210E+04  3.938424E+04  4.139523E+04
       425  24 -5.780278E+05  1.449386E+03 -2.353276E+04  4.835462E+04  1.753913E+04  4.744105E+04
       425  25 -1.461821E+06 -2.957329E+05 -2.990875E+05  9.075378E+04  1.130158E+05  1.283986E+04
       425  26 -1.389364E+06 -2.072548E+05 -2.121240E+05  5.634483E+04  6.187708E+04  4.145122E+04
       425  27 -1.339133E+06 -1.810941E+05 -1.740382E+05  3.859428E+04  1.077415E+04  4.742922E+04
       426   1  1.435319E+05  1.692590E+05  1.237023E+05  4.910751E+04 -1.634758E+04 -4.458267E+04
       426   2  8.260925E+04  1.569911E+05  1.183431E+05  4.085734E+04 -1.312344E+04 -4.238276E+04
       426   3  2.071671E+04  1.426728E+05  1.103650E+05  5.056812E+04 -9.905233E+03 -3.878827E+04
       426   4 -5.745000E+05 -2.769446E+03 -1.826397E+04  4.868025E+04 -1.439871E+04 -4.458194E+04
       426   5 -5.738423E+05 -2.008830E+01 -1.008210E+04  3.969491E+04 -9.372002E+03 -4.237639E+04
       426   6 -5.744720E+05  3.646612E+02 -5.773843E+03  4.867175E+04 -4.350875E+03 -3.877555E+04
       426   7 -1.292038E+06 -1.748293E+05 -1.602556E+05  4.825317E+04 -1.245205E+04 -4.458122E+04
       426   8 -1.229880E+06 -1.570572E+05 -1.385279E+05  3.853346E+04 -5.624439E+03 -4.237002E+04
       426   9 -1.169321E+06 -1.419648E+05 -1.219295E+05  4.677699E+04  1.198276E+03 -3.876285E+04
       426  10  1.435311E+05  1.692568E+05  1.236981E+05  4.910692E+04 -3.063822E-09 -5.811801E-09
       426  11  8.260859E+04  1.569891E+05  1.183394E+05  4.085689E+04  1.655144E-11  8.292496E-10
       426  12  2.071620E+04  1.426712E+05  1.103620E+05  5.056781E+04 -2.204666E-10  2.419616E-09
       426  13 -5.745007E+05 -2.771635E+03 -1.826810E+04  4.867973E+04  1.309271E-09 -3.735605E-09
       426  14 -5.738429E+05 -2.203970E+01 -1.008563E+04  3.969459E+04  6.994281E-10 -8.777019E-10
       426  15 -5.744724E+05  3.630420E+02 -5.776703E+03  4.867161E+04  8.531513E-10 -3.092666E-09
       426  16 -1.292039E+06 -1.748314E+05 -1.602597E+05  4.825272E+04  2.995820E-09 -5.882718E-10
       426  17 -1.229881E+06 -1.570591E+05 -1.385314E+05  3.853326E+04 -2.059165E-09  1.214854E-09
       426  18 -1.169321E+06 -1.419664E+05 -1.219323E+05  4.677703E+04 -9.769296E-10  5.611611E-10
       426  19  1.435319E+05  1.692590E+05  1.237023E+05  4.910751E+04  1.634758E+04  4.458267E+04
       426  20  8.260925E+04  1.569911E+05  1.183431E+05  4.085734E+04  1.312344E+04  4.238276E+04
       426  21  2.071671E+04  1.426728E+05  1.103650E+05  5.056812E+04  9.905233E+03  3.878827E+04
       426  22 -5.745000E+05 -2.769446E+03 -1.826397E+04  4.868025E+04  1.439871E+04  4.458194E+04
       426  23 -5.738423E+05 -2.008830E+01 -1.008210E+04  3.969491E+04  9.372002E+03  4.237639E+04
       426  24 -5.744720E+05  3.646612E+02 -5.773843E+03  4.867175E+04  4.350875E+03  3.877555E+04
       426  25 -1.292038E+06 -1.748293E+05 -1.602556E+05  4.825317E+04  1.245205E+04  4.458122E+04
       426  26 -1.229880E+06 -1.570572E+05 -1.385279E+05  3.853346E+04  5.624439E+03  4.237002E+04
       426  27 -1.169321E+06 -1.419648E+05 -1.219295E+05  4.677699E+04 -1.198276E+03  3.876285E+04
       427   1 -2.212700E+04  1.321471E+05  1.030618E+05  5.010717E+04 -8.724072E+03 -3.630187E+04
       427   2 -8.366509E+04  1.174766E+05  9.298300E+04  4.090558E+04 -7.600792E+03 -3.219283E+04
       427   3 -1.454318E+05  1.028289E+05  8.215523E+04  4.981423E+04 -6.479782E+03 -2.799320E+04
       427   4 -5.742320E+05  1.933934E+02 -4.401400E+03  4.870672E+04 -3.459559E+03 -3.628917E+04
       427   5 -5.740957E+05  2.492804E+02 -2.525969E+03  3.965101E+04 -2.220125E+03 -3.217864E+04
       427   6 -5.742122E+05  3.078443E+02 -1.480767E+03  4.870639E+04 -9.828542E+02 -2.797748E+04
       427   7 -1.126044E+06 -1.317786E+05 -1.118790E+05  4.730733E+04  1.800376E+03 -3.627648E+04
       427   8 -1.064295E+06 -1.169924E+05 -9.804625E+04  3.839728E+04  3.156384E+03 -3.216446E+04
       427   9 -1.002816E+06 -1.022242E+05 -8.512542E+04  4.759919E+04  4.510360E+03 -2.796177E+04
       427  10 -2.212743E+04  1.321457E+05  1.030592E+05  5.010692E+04 -1.724209E-10  4.193731E-09
       427  11 -8.366543E+04  1.174755E+05  9.298094E+04  4.090538E+04  3.576081E-09  4.116615E-09
       427  12 -1.454321E+05  1.028280E+05  8.215368E+04  4.981408E+04  5.805382E-09 -1.800641E-11
       427  13 -5.742324E+05  1.919764E+02 -4.403897E+03  4.870662E+04  1.897381E-09 -4.258204E-09
       427  14 -5.740960E+05  2.481674E+02 -2.527923E+03  3.965095E+04  6.482213E-10  4.791666E-09
       427  15 -5.742124E+05  3.070038E+02 -1.482239E+03  4.870637E+04  5.332836E-10  6.700771E-09
       427  16 -1.126045E+06 -1.317800E+05 -1.118815E+05  4.730738E+04  8.632543E-10  2.907331E-09
       427  17 -1.064296E+06 -1.169936E+05 -9.804822E+04  3.839736E+04 -5.605690E-09  4.177642E-09
       427  18 -1.002816E+06 -1.022251E+05 -8.512693E+04  4.759929E+04 -6.952831E-09  1.675993E-09
       427  19 -2.212700E+04  1.321471E+05  1.030618E+05  5.010717E+04  8.724072E+03  3.630187E+04
       427  20 -8.366509E+04  1.174766E+05  9.298300E+04  4.090558E+04  7.600792E+03  3.219283E+04
       427  21 -1.454318E+05  1.028289E+05  8.215523E+04  4.981423E+04  6.479782E+03  2.799320E+04
       427  22 -5.742320E+05  1.933934E+02 -4.401400E+03  4.870672E+04  3.459559E+03  3.628917E+04
       427  23 -5.740957E+05  2.492804E+02 -2.525969E+03  3.965101E+04  2.220125E+03  3.217864E+04
       427  24 -5.742122E+05  3.078443E+02 -1.480767E+03  4.870639E+04  9.828542E+02  2.797748E+04
       427  25 -1.126044E+06 -1.317786E+05 -1.118790E+05  4.730733E+04 -1.800376E+03  3.627648E+04
       427  26 -1.064295E+06 -1.169924E+05 -9.804625E+04  3.839728E+04 -3.156384E+03  3.216446E+04
       427  27 -1.002816E+06 -1.022242E+05 -8.512542E+04  4.759919E+04 -4.510360E+03  2.796177E+04
       428   1 -1.885898E+05  9.244544E+04  7.376766E+04  4.971071E+04 -6.235539E+03 -2.552331E+04
       428   2 -2.503550E+05  7.765069E+04  6.228994E+04  4.046603E+04 -5.893033E+03 -2.128600E+04
       428   3 -3.122592E+05  6.297033E+04  5.058507E+04  4.939017E+04 -5.551866E+03 -1.704002E+04
       428   4 -5.741812E+05  3.070845E+02 -1.152879E+03  4.871943E+04 -7.518538E+02 -2.550704E+04
       428   5 -5.741019E+05  2.625842E+02 -7.405448E+02  3.963472E+04 -3.985910E+02 -2.126893E+04
       428   6 -5.741683E+05  3.305084E+02 -5.632234E+02  4.871938E+04 -4.663280E+01 -1.702212E+04
       428   7 -9.596296E+05 -9.184015E+04 -7.608033E+04  4.772867E+04  4.728501E+03 -2.549079E+04
       428   8 -8.977481E+05 -7.713179E+04 -6.377589E+04  3.880378E+04  5.093049E+03 -2.125186E+04
       428   9 -8.360114E+05 -6.231342E+04 -5.171469E+04  4.804882E+04  5.456328E+03 -1.700424E+04
       428  10 -1.885901E+05  9.244473E+04  7.376636E+04  4.971058E+04  6.931371E-09  2.107036E-10
       428  11 -2.503552E+05  7.765020E+04  6.228902E+04  4.046593E+04  3.715791E-09  9.658446E-09
       428  12 -3.122593E+05  6.297001E+04  5.058447E+04  4.939009E+04 -1.323380E-09  8.118191E-09
       428  13 -5.741813E+05  3.063859E+02 -1.154102E+03  4.871942E+04  1.683266E-09  1.670544E-09
       428  14 -5.741020E+05  2.620985E+02 -7.413950E+02  3.963472E+04  8.026475E-10  7.166032E-09
       428  15 -5.741683E+05  3.301973E+02 -5.637678E+02  4.871938E+04  7.639018E-10  1.549792E-09
       428  16 -9.596298E+05 -9.184085E+04 -7.608159E+04  4.772877E+04 -5.860352E-09  1.425369E-09
       428  17 -8.977482E+05 -7.713229E+04 -6.377679E+04  3.880386E+04 -5.999628E-09  1.721584E-09
       428  18 -8.360115E+05 -6.231374E+04 -5.171529E+04  4.804890E+04 -4.879880E-11  1.205799E-10
       428  19 -1.885898E+05  9.244544E+04  7.376766E+04  4.971071E+04  6.235539E+03  2.552331E+04
       428  20 -2.503550E+05  7.765069E+04  6.228994E+04  4.046603E+04  5.893033E+03  2.128600E+04
       428  21 -3.122592E+05  6.297033E+04  5.058507E+04  4.939017E+04  5.551866E+03  1.704002E+04
       428  22 -5.741812E+05  3.070845E+02 -1.152879E+03  4.871943E+04  7.518538E+02  2.550704E+04
       428  23 -5.741019E+05  2.625842E+02 -7.405448E+02  3.963472E+04  3.985910E+02  2.126893E+04
       428  24 -5.741683E+05  3.305084E+02 -5.632234E+02  4.871938E+04  4.663280E+01  1.702212E+04
       428  25 -9.596296E+05 -9.184015E+04 -7.608033E+04  4.772867E+04 -4.728501E+03  2.549079E+04
       428  26 -8.977481E+05 -7.713179E+04 -6.377589E+04  3.880378E+04 -5.093049E+03  2.125186E+04
       428  27 -8.360114E+05 -6.231342E+04 -5.171469E+04  4.804882E+04 -5.456328E+03  1.700424E+04
       429   1 -3.555441E+05  5.256608E+04  4.186558E+04  4.928639E+04 -5.461641E+03 -1.456568E+04
       429   2 -4.174054E+05  3.774345E+04  2.987059E+04  4.000525E+04 -5.161427E+03 -1.031336E+04
       429   3 -4.794228E+05  2.303671E+04  1.767024E+04  4.892921E+04 -4.861855E+03 -6.061466E+03
       429   4 -5.741669E+05  3.346234E+02 -5.448098E+02  4.872738E+04  4.583155E+01 -1.454743E+04
       429   5 -5.740844E+05  2.878779E+02 -6.342870E+02  3.962467E+04  3.452110E+02 -1.029474E+04
       429   6 -5.741608E+05  3.575821E+02 -9.283155E+02  4.872732E+04  6.439793E+02 -6.042467E+03
       429   7 -7.927438E+05 -5.189968E+04 -4.295733E+04  4.816853E+04  5.551407E+03 -1.452919E+04
       429   8 -7.307399E+05 -3.716916E+04 -3.114021E+04  3.924417E+04  5.850489E+03 -1.027613E+04
       429   9 -6.688901E+05 -2.232207E+04 -1.952719E+04  4.852545E+04  6.148990E+03 -6.023470E+03
       429  10 -3.555442E+05  5.256585E+04  4.186512E+04  4.928633E+04  1.398219E-08  1.816863E-09
       429  11 -4.174054E+05  3.774333E+04  2.987034E+04  4.000521E+04  4.923465E-09 -2.427161E-09
       429  12 -4.794229E+05  2.303667E+04  1.767013E+04  4.892918E+04 -7.416245E-09 -3.082386E-09
       429  13 -5.741670E+05  3.343962E+02 -5.452074E+02  4.872738E+04  1.592015E-09  1.007731E-08
       429  14 -5.740845E+05  2.877640E+02 -6.344864E+02  3.962467E+04  7.980793E-10  2.518199E-10
       429  15 -5.741608E+05  3.575428E+02 -9.283849E+02  4.872732E+04  7.475403E-10 -2.878301E-09
       429  16 -7.927438E+05 -5.189991E+04 -4.295779E+04  4.816859E+04 -1.328696E-08  3.725878E-09
       429  17 -7.307399E+05 -3.716928E+04 -3.114047E+04  3.924422E+04 -7.099980E-09 -2.761972E-09
       429  18 -6.688901E+05 -2.232212E+04 -1.952733E+04  4.852548E+04  6.174438E-09 -1.400436E-09
       429  19 -3.555441E+05  5.256608E+04  4.186558E+04  4.928639E+04  5.461641E+03  1.456568E+04
       429  20 -4.174054E+05  3.774345E+04  2.987059E+04  4.000525E+04  5.161427E+03  1.031336E+04
       429  21 -4.794228E+05  2.303671E+04  1.767024E+04  4.892921E+04  4.861855E+03  6.061466E+03
       429  22 -5.741669E+05  3.346234E+02 -5.448098E+02  4.872738E+04 -4.583155E+01  1.454743E+04
       429  23 -5.740844E+05  2.878779E+02 -6.342870E+02  3.962467E+04 -3.452110E+02  1.029474E+04
       429  24 -5.741608E+05  3.575821E+02 -9.283155E+02  4.872732E+04 -6.439793E+02  6.042467E+03
       429  25 -7.927438E+05 -5.189968E+04 -4.295733E+04  4.816853E+04 -5.551407E+03  1.452919E+04
       429  26 -7.307399E+05 -3.716916E+04 -3.114021E+04  3.924417E+04 -5.850489E+03  1.027613E+04
       429  27 -6.688901E+05 -2.232207E+04 -1.952719E+04  4.852545E+04 -6.148990E+03  6.023470E+03
       430   1 -5.227769E+05  1.262288E+04  8.674683E+03  4.879486E+04 -4.689374E+03 -3.583099E+03
       430   2 -5.846060E+05 -2.206916E+03 -4.045413E+03  3.948733E+04 -3.676516E+03  6.586085E+02
       430   3 -6.467120E+05 -1.701025E+04 -1.745922E+04  4.839205E+04 -2.663582E+03  4.859964E+03
       430   4 -5.741846E+05  3.649396E+02 -1.175739E+03  4.872876E+04  8.257336E+02 -3.563962E+03
       430   5 -5.740492E+05  3.217726E+02 -1.970736E+03  3.962275E+04  1.786102E+03  6.775332E+02
       430   6 -5.741853E+05  3.143969E+02 -3.422902E+03  4.872895E+04  2.746646E+03  4.878688E+03
       430   7 -6.255896E+05 -1.189314E+04 -1.102617E+04  4.866265E+04  6.340395E+03 -3.544825E+03
       430   8 -5.634922E+05  2.850470E+03  1.040485E+02  3.975817E+04  7.248812E+03  6.964601E+02
       430   9 -5.016535E+05  1.763875E+04  1.061328E+04  4.906590E+04  8.157492E+03  4.897416E+03
       430  10 -5.227770E+05  1.262286E+04  8.674618E+03  4.879485E+04  2.386019E-09  3.040638E-09
       430  11 -5.846060E+05 -2.206920E+03 -4.045439E+03  3.948733E+04 -8.519779E-09  1.524236E-09
       430  12 -6.467120E+05 -1.701028E+04 -1.745928E+04  4.839206E+04 -2.142147E-08  6.518940E-10
       430  13 -5.741846E+05  3.649257E+02 -1.175764E+03  4.872876E+04  1.850639E-09  6.500827E-10
       430  14 -5.740492E+05  3.217712E+02 -1.970743E+03  3.962275E+04  1.016922E-09  1.107423E-09
       430  15 -5.741853E+05  3.143693E+02 -3.422961E+03  4.872894E+04  5.522861E-10  1.044356E-09
       430  16 -6.255896E+05 -1.189317E+04 -1.102627E+04  4.866267E+04 -1.827058E-09  5.680423E-09
       430  17 -5.634922E+05  2.850456E+03  1.039487E+02  3.975817E+04  6.833532E-09 -9.817344E-09
       430  18 -5.016536E+05  1.763870E+04  1.061311E+04  4.906587E+04  1.990764E-08 -2.685073E-09
       430  19 -5.227769E+05  1.262288E+04  8.674683E+03  4.879486E+04  4.689374E+03  3.583099E+03
       430  20 -5.846060E+05 -2.206916E+03 -4.045413E+03  3.948733E+04  3.676516E+03 -6.586085E+02
       430  21 -6.467120E+05 -1.701025E+04 -1.745922E+04  4.839205E+04  2.663582E+03 -4.859964E+03
       430  22 -5.741846E+05  3.649396E+02 -1.175739E+03  4.872876E+04 -8.257336E+02  3.563962E+03
       430  23 -5.740492E+05  3.217726E+02 -1.970736E+03  3.962275E+04 -1.786102E+03 -6.775332E+02
       430  24 -5.741853E+05  3.143969E+02 -3.422902E+03  4.872895E+04 -2.746646E+03 -4.878688E+03
       430  25 -6.255896E+05 -1.189314E+04 -1.102617E+04  4.866265E+04 -6.340395E+03  3.544825E+03
       430  26 -5.634922E+05  2.850470E+03  1.040485E+02  3.975817E+04 -7.248812E+03 -6.964601E+02
       430  27 -5.016535E+05  1.763875E+04  1.061328E+04  4.906590E+04 -8.157492E+03 -4.897416E+03
       431   1 -6.902394E+05 -2.729793E+04 -2.726797E+04  4.793075E+04 -2.113644E+03  7.350725E+03
       431   2 -7.515435E+05 -4.240221E+04 -4.273929E+04  3.930251E+04  2.627192E+03  1.132272E+04
       431   3 -8.140952E+05 -5.945467E+04 -6.182471E+04  4.884140E+04  7.370282E+03  1.463560E+04
       431   4 -5.743719E+05  4.535651E+02 -4.487408E+03  4.871704E+04  3.435653E+03  7.369793E+03
       431   5 -5.738246E+05  1.528083E+02 -7.821469E+03  3.963770E+04  7.323843E+03  1.133846E+04
       431   6 -5.743807E+05 -1.947545E+03 -1.417641E+04  4.872524E+04  1.121476E+04  1.464810E+04
       431   7 -4.584914E+05  2.820427E+04  1.829262E+04  4.950346E+04  8.985964E+03  7.388873E+03
       431   8 -3.960753E+05  4.270593E+04  2.709490E+04  3.997298E+04  1.202181E+04  1.135420E+04
       431   9 -3.346112E+05  5.555607E+04  3.346909E+04  4.860899E+04  1.506069E+04  1.466060E+04
       431  10 -6.902394E+05 -2.729799E+04 -2.726808E+04  4.793076E+04  1.339832E-08  6.612999E-09
       431  11 -7.515435E+05 -4.240235E+04 -4.273955E+04  3.930248E+04  1.080156E-08  2.189999E-09
       431  12 -8.140953E+05 -5.945491E+04 -6.182522E+04  4.884131E+04  2.876041E-09  8.161526E-09
       431  13 -5.743719E+05  4.535036E+02 -4.487533E+03  4.871701E+04  1.655063E-09  1.527713E-09
       431  14 -5.738247E+05  1.526559E+02 -7.821812E+03  3.963764E+04  8.174808E-10  5.513551E-09
       431  15 -5.743809E+05 -1.947809E+03 -1.417705E+04  4.872511E+04  6.957892E-10 -2.631687E-09
       431  16 -4.584915E+05  2.820419E+04  1.829236E+04  4.950341E+04 -1.287624E-08  9.659876E-10
       431  17 -3.960755E+05  4.270575E+04  2.709439E+04  3.997287E+04 -1.274180E-08  8.353752E-10
       431  18 -3.346115E+05  5.555578E+04  3.346826E+04  4.860881E+04 -4.428074E-09 -7.794549E-09
       431  19 -6.902394E+05 -2.729793E+04 -2.726797E+04  4.793075E+04  2.113644E+03 -7.350725E+03
       431  20 -7.515435E+05 -4.240221E+04 -4.273929E+04  3.930251E+04 -2.627192E+03 -1.132272E+04
       431  21 -8.140952E+05 -5.945467E+04 -6.182471E+04  4.884140E+04 -7.370282E+03 -1.463560E+04
       431  22 -5.743719E+05  4.535651E+02 -4.487408E+03  4.871704E+04 -3.435653E+03 -7.369793E+03
       431  23 -5.738246E+05  1.528083E+02 -7.821469E+03  3.963770E+04 -7.323843E+03 -1.133846E+04
       431  24 -5.743807E+05 -1.947545E+03 -1.417641E+04  4.872524E+04 -1.121476E+04 -1.464810E+04
       431  25 -4.584914E+05  2.820427E+04  1.829262E+04  4.950346E+04 -8.985964E+03 -7.388873E+03
       431  26 -3.960753E+05  4.270593E+04  2.709490E+04  3.997298E+04 -1.202181E+04 -1.135420E+04
       431  27 -3.346112E+05  5.555607E+04  3.346909E+04  4.860899E+04 -1.506069E+04 -1.466060E+04
       432   1 -8.604428E+05 -6.669401E+04 -7.459036E+04  4.134329E+04  7.520493E+03  1.730173E+04
       432   2 -9.145545E+05 -9.007122E+04 -1.044699E+05  5.268970E+04  3.832192E+04  1.677607E+04
       432   3 -9.845078E+05 -1.602660E+05 -1.661492E+05  8.165626E+04  6.915327E+04  5.534832E+03
       432   4 -5.771214E+05  1.336055E+03 -1.826674E+04  4.856315E+04  1.364878E+04  1.732162E+04
       432   5 -5.704240E+05 -6.882645E+03 -3.243382E+04  3.985066E+04  3.058477E+04  1.674938E+04
       432   6 -5.771523E+05 -5.949603E+04 -6.875450E+04  4.875986E+04  4.755409E+04  5.462270E+03
       432   7 -2.937230E+05  6.936141E+04  3.805305E+04  5.578631E+04  1.977981E+04  1.734164E+04
       432   8 -2.261808E+05  7.629903E+04  3.959606E+04  2.700429E+04  2.284338E+04  1.672302E+04
       432   9 -1.696411E+05  4.126634E+04  2.863091E+04  1.584163E+04  2.594078E+04  5.392026E+03
       432  10 -8.604430E+05 -6.669435E+04 -7.459103E+04  4.134319E+04  1.109698E-09  6.064146E-09
       432  11 -9.145562E+05 -9.007191E+04 -1.044732E+05  5.268918E+04  2.866371E-09 -1.539873E-09
       432  12 -9.845129E+05 -1.602673E+05 -1.661583E+05  8.165595E+04  1.168205E-09  2.771595E-10
       432  13 -5.771217E+05  1.335683E+03 -1.826765E+04  4.856296E+04  1.267196E-09  6.276061E-09
       432  14 -5.704251E+05 -6.883197E+03 -3.243610E+04  3.985025E+04  1.204077E-09 -8.338284E-09
       432  15 -5.771548E+05 -5.949667E+04 -6.875881E+04  4.875965E+04  2.869985E-10  2.102008E-09
       432  16 -2.937235E+05  6.936098E+04  3.805175E+04  5.578604E+04 -6.942724E-10  3.880466E-09
       432  17 -2.261814E+05  7.629859E+04  3.959455E+04  2.700398E+04 -4.985783E-09  1.418815E-09
       432  18 -1.696418E+05  4.126612E+04  2.862959E+04  1.584151E+04 -2.271372E-09 -7.563041E-10
       432  19 -8.604428E+05 -6.669401E+04 -7.459036E+04  4.134329E+04 -7.520493E+03 -1.730173E+04
       432  20 -9.145545E+05 -9.007122E+04 -1.044699E+05  5.268970E+04 -3.832192E+04 -1.677607E+04
       432  21 -9.845078E+05 -1.602660E+05 -1.661492E+05  8.165626E+04 -6.915327E+04 -5.534832E+03
       432  22 -5.771214E+05  1.336055E+03 -1.826674E+04  4.856315E+04 -1.364878E+04 -1.732162E+04
       432  23 -5.704240E+05 -6.882645E+03 -3.243382E+04  3.985066E+04 -3.058477E+04 -1.674938E+04
       432  24 -5.771523E+05 -5.949603E+04 -6.875450E+04  4.875986E+04 -4.755409E+04 -5.462270E+03
       432  25 -2.937230E+05  6.936141E+04  3.805305E+04  5.578631E+04 -1.977981E+04 -1.734164E+04
       432  26 -2.261808E+05  7.629903E+04  3.959606E+04  2.700429E+04 -2.284338E+04 -1.672302E+04
       432  27 -1.696411E+05  4.126634E+04  2.863091E+04  1.584163E+04 -2.594078E+04 -5.392026E+03
       433   1 -1.085273E+05  4.526185E+04  3.827490E+04  4.558529E+03 -7.922561E+03 -3.998329E+03
       433   2 -1.325691E+05  6.245423E+04  4.209393E+04  8.906675E+03 -8.629541E+03 -1.272275E+04
       433   3 -1.618477E+05  5.852174E+04  4.110003E+04  2.202252E+04 -9.360120E+03 -1.380237E+04
       433   4 -3.993624E+05 -2.678871E+04 -3.157612E+04  1.804129E+04 -2.176294E+04 -4.041797E+03
       433   5 -3.960047E+05 -1.558580E+03 -1.465136E+04  1.361293E+04 -1.403366E+04 -1.274045E+04
       433   6 -3.993525E+05  1.076340E+03 -8.402381E+03  1.795269E+04 -6.327895E+03 -1.379282E+04
       433   7 -6.901192E+05 -9.884460E+04 -1.014323E+05  3.151766E+04 -3.559686E+04 -4.085876E+03
       433   8 -6.593749E+05 -6.557584E+04 -7.140061E+04  1.831711E+04 -1.943551E+04 -1.275824E+04
       433   9 -6.368039E+05 -5.637260E+04 -5.790785E+04  1.388440E+04 -3.296810E+03 -1.378332E+04
       433  10 -1.085274E+05  4.526181E+04  3.827475E+04  4.558503E+03  1.341656E-08  2.116566E-09
       433  11 -1.325692E+05  6.245403E+04  4.209348E+04  8.906586E+03 -1.380977E-09  9.957370E-09
       433  12 -1.618479E+05  5.852151E+04  4.109950E+04  2.202241E+04 -1.876431E-08  2.812364E-09
       433  13 -3.993629E+05 -2.678885E+04 -3.157704E+04  1.804122E+04  1.941880E-09 -4.045275E-09
       433  14 -3.960049E+05 -1.558807E+03 -1.465204E+04  1.361278E+04  2.164080E-09 -1.340949E-08
       433  15 -3.993526E+05  1.076125E+03 -8.402814E+03  1.795262E+04  4.793909E-09  2.109838E-09
       433  16 -6.901206E+05 -9.884496E+04 -1.014347E+05  3.151754E+04 -1.426480E-08  2.776475E-09
       433  17 -6.593753E+05 -6.557612E+04 -7.140162E+04  1.831691E+04 -9.355679E-10  1.273080E-08
       433  18 -6.368039E+05 -5.637281E+04 -5.790823E+04  1.388436E+04  1.899001E-08  1.075807E-09
       433  19 -1.085273E+05  4.526185E+04  3.827490E+04  4.558529E+03  7.922561E+03  3.998329E+03
       433  20 -1.325691E+05  6.245423E+04  4.209393E+04  8.906675E+03  8.629541E+03  1.272275E+04
       433  21 -1.618477E+05  5.852174E+04  4.110003E+04  2.202252E+04  9.360120E+03  1.380237E+04
       433  22 -3.993624E+05 -2.678871E+04 -3.157612E+04  1.804129E+04  2.176294E+04  4.041797E+03
       433  23 -3.960047E+05 -1.558580E+03 -1.465136E+04  1.361293E+04  1.403366E+04  1.274045E+04
       433  24 -3.993525E+05  1.076340E+03 -8.402381E+03  1.795269E+04  6.327895E+03  1.379282E+04
       433  25 -6.901192E+05 -9.884460E+04 -1.014323E+05  3.151766E+04  3.559686E+04  4.085876E+03
       433  26 -6.593749E+05 -6.557584E+04 -7.140061E+04  1.831711E+04  1.943551E+04  1.275824E+04
       433  27 -6.368039E+05 -5.637260E+04 -5.790785E+04  1.388440E+04  3.296810E+03  1.378332E+04
       434   1 -1.804403E+05  5.158762E+04  3.890519E+04  1.821910E+04 -6.250030E+03 -1.240407E+04
       434   2 -2.068378E+05  4.619599E+04  3.604611E+04  1.389741E+04 -4.869180E+03 -1.123815E+04
       434   3 -2.337120E+05  3.988227E+04  3.204193E+04  1.871228E+04 -3.489989E+03 -9.686014E+03
       434   4 -3.979840E+05 -1.034477E+03 -6.597381E+03  1.805664E+04 -5.180090E+03 -1.240087E+04
       434   5 -3.977061E+05  7.479943E+01 -3.621547E+03  1.348622E+04 -3.373534E+03 -1.123341E+04
       434   6 -3.979802E+05  1.877705E+02 -2.087005E+03  1.805254E+04 -1.568586E+03 -9.679665E+03
       434   7 -6.154829E+05 -5.365960E+04 -5.210258E+04  1.789419E+04 -4.110517E+03 -1.239768E+04
       434   8 -5.885399E+05 -4.604871E+04 -4.329119E+04  1.307512E+04 -1.878340E+03 -1.122867E+04
       434   9 -5.622228E+05 -3.950845E+04 -3.621740E+04  1.739296E+04  3.523170E+02 -9.673319E+03
       434  10 -1.804404E+05  5.158744E+04  3.890483E+04  1.821904E+04  3.055404E-09 -1.749830E-09
       434  11 -2.068379E+05  4.619585E+04  3.604583E+04  1.389737E+04  6.740560E-10  4.919333E-09
       434  12 -2.337121E+05  3.988217E+04  3.204173E+04  1.871226E+04 -3.242491E-10  4.745059E-09
       434  13 -3.979840E+05 -1.034649E+03 -6.597721E+03  1.805658E+04  1.396868E-09  1.207472E-08
       434  14 -3.977061E+05  7.466090E+01 -3.621806E+03  1.348619E+04  2.583200E-09 -2.070315E-08
       434  15 -3.979802E+05  1.876692E+02 -2.087185E+03  1.805253E+04  4.373660E-09  6.662651E-09
       434  16 -6.154829E+05 -5.365977E+04 -5.210290E+04  1.789415E+04 -3.268632E-09 -1.003529E-08
       434  17 -5.885399E+05 -4.604884E+04 -4.329144E+04  1.307510E+04 -2.564314E-09 -6.203947E-09
       434  18 -5.622228E+05 -3.950855E+04 -3.621758E+04  1.739296E+04  7.471675E-11  1.031319E-09
       434  19 -1.804403E+05  5.158762E+04  3.890519E+04  1.821910E+04  6.250030E+03  1.240407E+04
       434  20 -2.068378E+05  4.619599E+04  3.604611E+04  1.389741E+04  4.869180E+03  1.123815E+04
       434  21 -2.337120E+05  3.988227E+04  3.204193E+04  1.871228E+04  3.489989E+03  9.686014E+03
       434  22 -3.979840E+05 -1.034477E+03 -6.597381E+03  1.805664E+04  5.180090E+03  1.240087E+04
       434  23 -3.977061E+05  7.479943E+01 -3.621547E+03  1.348622E+04  3.373534E+03  1.123341E+04
       434  24 -3.979802E+05  1.877705E+02 -2.087005E+03  1.805254E+04  1.568586E+03  9.679665E+03
       434  25 -6.154829E+05 -5.365960E+04 -5.210258E+04  1.789419E+04  4.110517E+03  1.239768E+04
       434  26 -5.885399E+05 -4.604871E+04 -4.329119E+04  1.307512E+04  1.878340E+03  1.122867E+04
       434  27 -5.622228E+05 -3.950845E+04 -3.621740E+04  1.739296E+04 -3.523170E+02  9.673319E+03
       435   1 -2.534423E+05  3.497404E+04  2.829295E+04  1.848767E+04 -3.070739E+03 -8.681718E+03
       435   2 -2.800743E+05  2.855212E+04  2.348236E+04  1.381957E+04 -2.639455E+03 -7.017472E+03
       435   3 -3.068342E+05  2.214560E+04  1.837603E+04  1.833084E+04 -2.208465E+03 -5.332791E+03
       435   4 -3.978856E+05  9.465317E+01 -1.598971E+03  1.806310E+04 -1.246720E+03 -8.675615E+03
       435   5 -3.978185E+05  1.107732E+02 -9.279182E+02  1.347329E+04 -7.930027E+02 -7.011185E+03
       435   6 -3.978836E+05  1.385352E+02 -5.681364E+02  1.806295E+04 -3.395605E+02 -5.326316E+03
       435   7 -5.423092E+05 -3.478606E+04 -3.149201E+04  1.763862E+04  5.768811E+02 -8.669514E+03
       435   8 -5.155495E+05 -2.833145E+04 -2.533894E+04  1.312706E+04  1.053105E+03 -7.004899E+03
       435   9 -4.889250E+05 -2.186906E+04 -1.951274E+04  1.779510E+04  1.529074E+03 -5.319842E+03
       435  10 -2.534423E+05  3.497396E+04  2.829279E+04  1.848765E+04  5.037172E-09 -4.983229E-09
       435  11 -2.800743E+05  2.855206E+04  2.348225E+04  1.381955E+04  5.103343E-11 -6.158429E-09
       435  12 -3.068343E+05  2.214557E+04  1.837596E+04  1.833083E+04 -4.766486E-09 -3.223765E-09
       435  13 -3.978857E+05  9.457194E+01 -1.599116E+03  1.806310E+04  1.961774E-09 -3.977012E-09
       435  14 -3.978185E+05  1.107203E+02 -9.280117E+02  1.347328E+04  2.105215E-09 -6.902567E-09
       435  15 -3.978836E+05  1.385047E+02 -5.681900E+02  1.806295E+04  5.192384E-09 -1.833929E-09
       435  16 -5.423092E+05 -3.478614E+04 -3.149215E+04  1.763862E+04 -5.567129E-09 -6.613631E-09
       435  17 -5.155495E+05 -2.833150E+04 -2.533903E+04  1.312707E+04 -2.031713E-09  4.356874E-09
       435  18 -4.889250E+05 -2.186909E+04 -1.951280E+04  1.779510E+04  5.016900E-09  6.847730E-09
       435  19 -2.534423E+05  3.497404E+04  2.829295E+04  1.848767E+04  3.070739E+03  8.681718E+03
       435  20 -2.800743E+05  2.855212E+04  2.348236E+04  1.381957E+04  2.639455E+03  7.017472E+03
       435  21 -3.068342E+05  2.214560E+04  1.837603E+04  1.833084E+04  2.208465E+03  5.332791E+03
       435  22 -3.978856E+05  9.465317E+01 -1.598971E+03  1.806310E+04  1.246720E+03  8.675615E+03
       435  23 -3.978185E+05  1.107732E+02 -9.279182E+02  1.347329E+04  7.930027E+02  7.011185E+03
       435  24 -3.978836E+05  1.385352E+02 -5.681364E+02  1.806295E+04  3.395605E+02  5.326316E+03
       435  25 -5.423092E+05 -3.478606E+04 -3.149201E+04  1.763862E+04 -5.768811E+02  8.669514E+03
       435  26 -5.155495E+05 -2.833145E+04 -2.533894E+04  1.312706E+04 -1.053105E+03  7.004899E+03
       435  27 -4.889250E+05 -2.186906E+04 -1.951274E+04  1.779510E+04 -1.529074E+03  5.319842E+03
       436   1 -3.266748E+05  1.731928E+04  1.422681E+04  1.827068E+04 -2.114641E+03 -4.347189E+03
       436   2 -3.533621E+05  1.084748E+04  8.871701E+03  1.359343E+04 -1.951185E+03 -2.656225E+03
       436   3 -3.801352E+05  4.436196E+03  3.405463E+03  1.810798E+04 -1.787821E+03 -9.639183E+02
       436   4 -3.978728E+05  1.354573E+02 -4.608998E+02  1.806575E+04 -2.499504E+02 -4.340682E+03
       436   5 -3.978290E+05  1.063578E+02 -3.456105E+02  1.346983E+04 -8.506489E+01 -2.649673E+03
       436   6 -3.978720E+05  1.375535E+02 -3.424394E+02  1.806574E+04  7.973511E+01 -9.573193E+02
       436   7 -4.690659E+05 -1.704868E+04 -1.514887E+04  1.786083E+04  1.614530E+03 -4.334177E+03
       436   8 -4.422940E+05 -1.063489E+04 -9.563016E+03  1.334623E+04  1.780923E+03 -2.643122E+03
       436   9 -4.156085E+05 -4.161108E+03 -4.090346E+03  1.802350E+04  1.947239E+03 -9.507204E+02
       436  10 -3.266748E+05  1.731926E+04  1.422677E+04  1.827068E+04  3.197592E-09 -8.332909E-09
       436  11 -3.533621E+05  1.084748E+04  8.871680E+03  1.359343E+04 -4.075889E-09 -3.315071E-09
       436  12 -3.801352E+05  4.436194E+03  3.405455E+03  1.810798E+04 -8.653015E-09 -3.217002E-09
       436  13 -3.978728E+05  1.354371E+02 -4.609353E+02  1.806575E+04  1.997319E-09  1.344922E-09
       436  14 -3.978290E+05  1.063503E+02 -3.456237E+02  1.346983E+04  2.173611E-09 -9.552751E-09
       436  15 -3.978720E+05  1.375525E+02 -3.424411E+02  1.806574E+04  5.073262E-09 -5.822521E-09
       436  16 -4.690659E+05 -1.704871E+04 -1.514891E+04  1.786084E+04 -3.858668E-09  1.889952E-09
       436  17 -4.422940E+05 -1.063490E+04 -9.563035E+03  1.334623E+04  1.511049E-09  6.912093E-09
       436  18 -4.156085E+05 -4.161109E+03 -4.090355E+03  1.802350E+04  8.854909E-09  1.682493E-09
       436  19 -3.266748E+05  1.731928E+04  1.422681E+04  1.827068E+04  2.114641E+03  4.347189E+03
       436  20 -3.533621E+05  1.084748E+04  8.871701E+03  1.359343E+04  1.951185E+03  2.656225E+03
       436  21 -3.801352E+05  4.436196E+03  3.405463E+03  1.810798E+04  1.787821E+03  9.639183E+02
       436  22 -3.978728E+05  1.354573E+02 -4.608998E+02  1.806575E+04  2.499504E+02  4.340682E+03
       436  23 -3.978290E+05  1.063578E+02 -3.456105E+02  1.346983E+04  8.506489E+01  2.649673E+03
       436  24 -3.978720E+05  1.375535E+02 -3.424394E+02  1.806574E+04 -7.973511E+01  9.573193E+02
       436  25 -4.690659E+05 -1.704868E+04 -1.514887E+04  1.786083E+04 -1.614530E+03  4.334177E+03
       436  26 -4.422940E+05 -1.063489E+04 -9.563016E+03  1.334623E+04 -1.780923E+03  2.643122E+03
       436  27 -4.156085E+05 -4.161108E+03 -4.090346E+03  1.802350E+04 -1.947239E+03  9.507204E+02
       437   1 -4.000021E+05 -3.906030E+02 -8.923649E+02  1.805188E+04 -1.725766E+03  2.139715E+01
       437   2 -4.266842E+05 -6.860688E+03 -6.531333E+03  1.336776E+04 -1.459239E+03  1.714283E+03
       437   3 -4.534665E+05 -1.327392E+04 -1.234956E+04  1.787677E+04 -1.192670E+03  3.406033E+03
       437   4 -3.978751E+05  1.375223E+02 -3.801363E+02  1.806602E+04  1.418303E+02  2.800075E+01
       437   5 -3.978248E+05  1.108914E+02 -5.488631E+02  1.346946E+04  4.070657E+02  1.720854E+03
       437   6 -3.978757E+05  1.412768E+02 -8.960390E+02  1.806601E+04  6.723533E+02  3.412574E+03
       437   7 -3.957481E+05  6.656492E+02  1.321052E+02  1.808016E+04  2.009433E+03  3.460442E+01
       437   8 -3.689647E+05  7.082420E+03  5.433575E+03  1.357117E+04  2.273456E+03  1.727425E+03
       437   9 -3.422819E+05  1.355628E+04  1.055733E+04  1.825526E+04  2.537541E+03  3.419116E+03
       437  10 -4.000021E+05 -3.906038E+02 -8.923705E+02  1.805188E+04 -2.873354E-10 -9.183334E-10
       437  11 -4.266842E+05 -6.860692E+03 -6.531343E+03  1.336776E+04 -3.909266E-09 -9.435372E-09
       437  12 -4.534665E+05 -1.327393E+04 -1.234958E+04  1.787678E+04 -1.026874E-08 -5.492452E-10
       437  13 -3.978751E+05  1.375223E+02 -3.801363E+02  1.806602E+04  1.587910E-09  9.827594E-09
       437  14 -3.978248E+05  1.108882E+02 -5.488690E+02  1.346946E+04  2.011642E-09 -9.155684E-09
       437  15 -3.978757E+05  1.412642E+02 -8.960618E+02  1.806601E+04  5.056268E-09 -6.683394E-09
       437  16 -3.957481E+05  6.656481E+02  1.320976E+02  1.808016E+04 -6.811557E-10  6.528669E-10
       437  17 -3.689647E+05  7.082416E+03  5.433560E+03  1.357117E+04  2.472899E-09 -1.159868E-08
       437  18 -3.422819E+05  1.355627E+04  1.055729E+04  1.825525E+04  1.080155E-08 -1.134006E-08
       437  19 -4.000021E+05 -3.906030E+02 -8.923649E+02  1.805188E+04  1.725766E+03 -2.139715E+01
       437  20 -4.266842E+05 -6.860688E+03 -6.531333E+03  1.336776E+04  1.459239E+03 -1.714283E+03
       437  21 -4.534665E+05 -1.327392E+04 -1.234956E+04  1.787677E+04  1.192670E+03 -3.406033E+03
       437  22 -3.978751E+05  1.375223E+02 -3.801363E+02  1.806602E+04 -1.418303E+02 -2.800075E+01
       437  23 -3.978248E+05  1.108914E+02 -5.488631E+02  1.346946E+04 -4.070657E+02 -1.720854E+03
       437  24 -3.978757E+05  1.412768E+02 -8.960390E+02  1.806601E+04 -6.723533E+02 -3.412574E+03
       437  25 -3.957481E+05  6.656492E+02  1.321052E+02  1.808016E+04 -2.009433E+03 -3.460442E+01
       437  26 -3.689647E+05  7.082420E+03  5.433575E+03  1.357117E+04 -2.273456E+03 -1.727425E+03
       437  27 -3.422819E+05  1.355628E+04  1.055733E+04  1.825526E+04 -2.537541E+03 -3.419116E+03
       438   1 -4.733470E+05 -1.809148E+04 -1.687506E+04  1.779818E+04 -1.014005E+03  4.392222E+03
       438   2 -4.999390E+05 -2.454725E+04 -2.317887E+04  1.311595E+04 -9.101052E+00  6.080059E+03
       438   3 -5.267526E+05 -3.105766E+04 -3.017018E+04  1.761520E+04  9.960255E+02  7.748579E+03
       438   4 -3.979022E+05  1.485580E+02 -1.163724E+03  1.806329E+04  8.550804E+02  4.398740E+03
       438   5 -3.977941E+05  1.298892E+02 -1.999271E+03  1.347276E+04  1.838797E+03  6.086407E+03
       438   6 -3.979042E+05  6.043709E+01 -3.507373E+03  1.806361E+04  2.822779E+03  7.754761E+03
       438   7 -3.224521E+05  1.838823E+04  1.454731E+04  1.832844E+04  2.724390E+03  4.405259E+03
       438   8 -2.956394E+05  2.480637E+04  1.917977E+04  1.382962E+04  3.686995E+03  6.092757E+03
       438   9 -2.690400E+05  3.117748E+04  2.315454E+04  1.851210E+04  4.649905E+03  7.760946E+03
       438  10 -4.733470E+05 -1.809150E+04 -1.687510E+04  1.779818E+04 -1.219600E-08  1.802760E-09
       438  11 -4.999390E+05 -2.454729E+04 -2.317894E+04  1.311595E+04 -2.032399E-09 -9.206910E-09
       438  12 -5.267526E+05 -3.105773E+04 -3.017029E+04  1.761519E+04  7.321754E-09 -1.148958E-10
       438  13 -3.979022E+05  1.485370E+02 -1.163762E+03  1.806329E+04  1.906360E-09 -1.376764E-09
       438  14 -3.977942E+05  1.298486E+02 -1.999347E+03  1.347275E+04  1.760742E-09 -5.267028E-09
       438  15 -3.979042E+05  6.037039E+01 -3.507501E+03  1.806359E+04  4.859800E-09  4.154301E-10
       438  16 -3.224521E+05  1.838821E+04  1.454726E+04  1.832843E+04  1.113901E-08  2.906806E-09
       438  17 -2.956394E+05  2.480633E+04  1.917968E+04  1.382960E+04  6.190579E-10 -3.530033E-09
       438  18 -2.690400E+05  3.117741E+04  2.315439E+04  1.851207E+04 -7.065120E-09  4.112602E-09
       438  19 -4.733470E+05 -1.809148E+04 -1.687506E+04  1.779818E+04  1.014005E+03 -4.392222E+03
       438  20 -4.999390E+05 -2.454725E+04 -2.317887E+04  1.311595E+04  9.101052E+00 -6.080059E+03
       438  21 -5.267526E+05 -3.105766E+04 -3.017018E+04  1.761520E+04 -9.960255E+02 -7.748579E+03
       438  22 -3.979022E+05  1.485580E+02 -1.163724E+03  1.806329E+04 -8.550804E+02 -4.398740E+03
       438  23 -3.977941E+05  1.298892E+02 -1.999271E+03  1.347276E+04 -1.838797E+03 -6.086407E+03
       438  24 -3.979042E+05  6.043709E+01 -3.507373E+03  1.806361E+04 -2.822779E+03 -7.754761E+03
       438  25 -3.224521E+05  1.838823E+04  1.454731E+04  1.832844E+04 -2.724390E+03 -4.405259E+03
       438  26 -2.956394E+05  2.480637E+04  1.917977E+04  1.382962E+04 -3.686995E+03 -6.092757E+03
       438  27 -2.690400E+05  3.117748E+04  2.315454E+04  1.851210E+04 -4.649905E+03 -7.760946E+03
       439   1 -5.467898E+05 -3.566969E+04 -3.549799E+04  1.714359E+04  1.614961E+03  8.753161E+03
       439   2 -5.728249E+05 -4.230437E+04 -4.443977E+04  1.319516E+04  6.011179E+03  1.032400E+04
       439   3 -6.000899E+05 -5.128973E+04 -5.685037E+04  1.839421E+04  1.040870E+04  1.152834E+04
       439   4 -3.981147E+05  2.677635E+02 -4.595205E+03  1.805367E+04  3.534139E+03  8.759584E+03
       439   5 -3.975367E+05  6.131293E+01 -7.998896E+03  1.348455E+04  7.527034E+03  1.032889E+04
       439   6 -3.981189E+05 -2.425260E+03 -1.459042E+04  1.806277E+04  1.152142E+04  1.153175E+04
       439   7 -2.494186E+05  3.620381E+04  2.630639E+04  1.896395E+04  5.453769E+03  8.766011E+03
       439   8 -2.222195E+05  4.242504E+04  2.844030E+04  1.377400E+04  9.043310E+03  1.033379E+04
       439   9 -1.961093E+05  4.643660E+04  2.766727E+04  1.773120E+04  1.263449E+04  1.153515E+04
       439  10 -5.467899E+05 -3.566977E+04 -3.549814E+04  1.714357E+04  6.477623E-09 -5.317321E-09
       439  11 -5.728249E+05 -4.230449E+04 -4.444004E+04  1.319511E+04  1.584679E-09  7.486630E-09
       439  12 -6.000900E+05 -5.128990E+04 -5.685082E+04  1.839411E+04 -8.075802E-10 -1.715844E-09
       439  13 -3.981147E+05  2.676778E+02 -4.595373E+03  1.805364E+04  2.209449E-09 -1.040413E-08
       439  14 -3.975368E+05  6.118317E+01 -7.999203E+03  1.348449E+04  1.409769E-09  1.091814E-08
       439  15 -3.981191E+05 -2.425438E+03 -1.459092E+04  1.806267E+04  4.614410E-09  3.424560E-09
       439  16 -2.494186E+05  3.620372E+04  2.630619E+04  1.896392E+04 -7.328582E-09 -3.532753E-09
       439  17 -2.222196E+05  4.242490E+04  2.843995E+04  1.377393E+04 -3.619067E-09 -1.168794E-08
       439  18 -1.961095E+05  4.643642E+04  2.766672E+04  1.773108E+04  9.011001E-10 -1.075613E-09
       439  19 -5.467898E+05 -3.566969E+04 -3.549799E+04  1.714359E+04 -1.614961E+03 -8.753161E+03
       439  20 -5.728249E+05 -4.230437E+04 -4.443977E+04  1.319516E+04 -6.011179E+03 -1.032400E+04
       439  21 -6.000899E+05 -5.128973E+04 -5.685037E+04  1.839421E+04 -1.040870E+04 -1.152834E+04
       439  22 -3.981147E+05  2.677635E+02 -4.595205E+03  1.805367E+04 -3.534139E+03 -8.759584E+03
       439  23 -3.975367E+05  6.131293E+01 -7.998896E+03  1.348455E+04 -7.527034E+03 -1.032889E+04
       439  24 -3.981189E+05 -2.425260E+03 -1.459042E+04  1.806277E+04 -1.152142E+04 -1.153175E+04
       439  25 -2.494186E+05  3.620381E+04  2.630639E+04  1.896395E+04 -5.453769E+03 -8.766011E+03
       439  26 -2.222195E+05  4.242504E+04  2.844030E+04  1.377400E+04 -9.043310E+03 -1.033379E+04
       439  27 -1.961093E+05  4.643660E+04  2.766727E+04  1.773120E+04 -1.263449E+04 -1.153515E+04
       440   1 -6.230465E+05 -5.147432E+04 -6.486276E+04  9.688659E+03  1.109159E+04  1.289847E+04
       440   2 -6.417021E+05 -6.375485E+04 -8.584260E+04  2.482835E+04  3.613116E+04  1.204637E+04
       440   3 -6.765493E+05 -1.275138E+05 -1.360138E+05  4.882646E+04  6.119161E+04  3.940401E+03
       440   4 -4.011493E+05  2.249145E+03 -1.858676E+04  1.794951E+04  1.406559E+04  1.290807E+04
       440   5 -3.937588E+05 -3.540039E+03 -3.241207E+04  1.361891E+04  3.110769E+04  1.202912E+04
       440   6 -4.011656E+05 -5.940851E+04 -6.986559E+04  1.814799E+04  4.817222E+04  3.896032E+03
       440   7 -1.792052E+05  5.596971E+04  2.768660E+04  2.621333E+04  1.704062E+04  1.291774E+04
       440   8 -1.457572E+05  5.667124E+04  2.101501E+04  2.404870E+03  2.608225E+04  1.201205E+04
       440   9 -1.257100E+05  8.694932E+03 -3.721574E+03 -1.254420E+04  3.514708E+04  3.852962E+03
       440  10 -6.230467E+05 -5.147453E+04 -6.486331E+04  9.688544E+03  3.923917E-09  4.116453E-10
       440  11 -6.417036E+05 -6.375536E+04 -8.584533E+04  2.482800E+04  7.538567E-09 -3.936033E-09
       440  12 -6.765533E+05 -1.275148E+05 -1.360209E+05  4.882627E+04  8.564006E-09  8.038638E-09
       440  13 -4.011495E+05  2.248913E+03 -1.858744E+04  1.794937E+04  1.721779E-09  4.716828E-09
       440  14 -3.937598E+05 -3.540454E+03 -3.241416E+04  1.361860E+04  1.702984E-09  6.812743E-09
       440  15 -4.011681E+05 -5.940915E+04 -6.986999E+04  1.814784E+04  4.241155E-09  1.195009E-09
       440  16 -1.792056E+05  5.596945E+04  2.768574E+04  2.621316E+04 -4.696836E-09  2.376032E-09
       440  17 -1.457580E+05  5.667090E+04  2.101346E+04  2.404617E+03 -9.345582E-09  1.392969E-08
       440  18 -1.257114E+05  8.694585E+03 -3.723924E+03 -1.254431E+04 -8.773021E-09  6.182558E-10
       440  19 -6.230465E+05 -5.147432E+04 -6.486276E+04  9.688659E+03 -1.109159E+04 -1.289847E+04
       440  20 -6.417021E+05 -6.375485E+04 -8.584260E+04  2.482835E+04 -3.613116E+04 -1.204637E+04
       440  21 -6.765493E+05 -1.275138E+05 -1.360138E+05  4.882646E+04 -6.119161E+04 -3.940401E+03
       440  22 -4.011493E+05  2.249145E+03 -1.858676E+04  1.794951E+04 -1.406559E+04 -1.290807E+04
       440  23 -3.937588E+05 -3.540039E+03 -3.241207E+04  1.361891E+04 -3.110769E+04 -1.202912E+04
       440  24 -4.011656E+05 -5.940851E+04 -6.986559E+04  1.814799E+04 -4.817222E+04 -3.896032E+03
       440  25 -1.792052E+05  5.596971E+04  2.768660E+04  2.621333E+04 -1.704062E+04 -1.291774E+04
       440  26 -1.457572E+05  5.667124E+04  2.101501E+04  2.404870E+03 -2.608225E+04 -1.201205E+04
       440  27 -1.257100E+05  8.694932E+03 -3.721574E+03 -1.254420E+04 -3.514708E+04 -3.852962E+03
