
 stresses (elem, integ.pnt.,sxx,syy,szz,sxy,sxz,syz) for set ELALL and time  0.1000000E+01

         1   1 -3.828624E+06 -3.866682E+05 -4.923717E+05 -1.067534E+05 -3.357239E+05  5.806808E+01
         1   2 -3.758514E+06  6.431158E+04 -2.139571E+05 -2.992497E+04 -2.199239E+05  1.066238E+01
         1   3 -3.827894E+06  1.867525E+04 -1.353827E+05  4.691302E+04 -1.041259E+05 -7.914945E+00
         1   4 -3.828636E+06 -3.866898E+05 -4.923748E+05  1.547516E-08 -3.357239E+05 -4.656306E-10
         1   5 -3.758515E+06  6.430989E+04 -2.139574E+05 -8.688037E-09 -2.199239E+05 -6.330548E-10
         1   6 -3.827897E+06  1.867109E+04 -1.353833E+05  2.412783E-08 -1.041259E+05  6.876920E-10
         1   7 -3.828624E+06 -3.866682E+05 -4.923717E+05  1.067534E+05 -3.357239E+05 -5.806808E+01
         1   8 -3.758514E+06  6.431158E+04 -2.139571E+05  2.992497E+04 -2.199239E+05 -1.066238E+01
         1   9 -3.827894E+06  1.867525E+04 -1.353827E+05 -4.691302E+04 -1.041259E+05  7.914945E+00
         1  10 -3.828745E+06 -3.866987E+05 -4.925848E+05 -1.067533E+05  2.708746E-10 -3.553634E-10
         1  11 -3.758567E+06  6.429850E+04 -2.140486E+05 -2.992497E+04  3.821879E-10 -1.092286E-09
         1  12 -3.827906E+06  1.867232E+04 -1.354032E+05  4.691302E+04 -1.902087E-09  9.591600E-10
         1  13 -3.828758E+06 -3.867202E+05 -4.925879E+05 -1.778307E-09 -2.150102E-09 -3.772011E-10
         1  14 -3.758568E+06  6.429681E+04 -2.140488E+05  1.283841E-08 -2.171324E-09 -6.345502E-10
         1  15 -3.827908E+06  1.866815E+04 -1.354038E+05  1.236576E-08  1.951996E-09  5.723590E-10
         1  16 -3.828745E+06 -3.866987E+05 -4.925848E+05  1.067533E+05  1.797669E-09 -5.945482E-11
         1  17 -3.758567E+06  6.429850E+04 -2.140486E+05  2.992497E+04 -3.637371E-10 -4.467043E-10
         1  18 -3.827906E+06  1.867232E+04 -1.354032E+05 -4.691302E+04  3.236880E-09  1.564862E-10
         1  19 -3.828624E+06 -3.866682E+05 -4.923717E+05 -1.067534E+05  3.357239E+05 -5.806808E+01
         1  20 -3.758514E+06  6.431158E+04 -2.139571E+05 -2.992497E+04  2.199239E+05 -1.066238E+01
         1  21 -3.827894E+06  1.867525E+04 -1.353827E+05  4.691302E+04  1.041259E+05  7.914945E+00
         1  22 -3.828636E+06 -3.866898E+05 -4.923748E+05  1.540577E-08  3.357239E+05 -2.290813E-10
         1  23 -3.758515E+06  6.430989E+04 -2.139574E+05 -8.651502E-09  2.199239E+05 -3.102138E-10
         1  24 -3.827897E+06  1.867109E+04 -1.353833E+05  5.999469E-09  1.041259E+05  5.195622E-10
         1  25 -3.828624E+06 -3.866682E+05 -4.923717E+05  1.067534E+05  3.357239E+05  5.806808E+01
         1  26 -3.758514E+06  6.431158E+04 -2.139571E+05  2.992497E+04  2.199239E+05  1.066238E+01
         1  27 -3.827894E+06  1.867525E+04 -1.353827E+05 -4.691302E+04  1.041259E+05 -7.914945E+00
         2   1 -3.801132E+06 -4.489558E+04 -1.108755E+05 -1.137047E+04 -8.283963E+04  1.526136E+00
         2   2 -3.791940E+06  7.609327E+03 -5.552182E+04 -2.824764E+03 -5.426176E+04  2.483416E-01
         2   3 -3.801008E+06  2.136004E+03 -3.334971E+04  5.720911E+03 -2.568329E+04 -2.380652E-01
         2   4 -3.801132E+06 -4.489583E+04 -1.108755E+05  1.057757E-08 -8.283963E+04  9.898022E-10
         2   5 -3.791940E+06  7.609312E+03 -5.552182E+04 -9.665800E-09 -5.426176E+04 -2.945605E-11
         2   6 -3.801008E+06  2.135942E+03 -3.334972E+04  3.138758E-08 -2.568329E+04 -1.512027E-09
         2   7 -3.801132E+06 -4.489558E+04 -1.108755E+05  1.137047E+04 -8.283963E+04 -1.526136E+00
         2   8 -3.791940E+06  7.609327E+03 -5.552182E+04  2.824764E+03 -5.426176E+04 -2.483416E-01
         2   9 -3.801008E+06  2.136004E+03 -3.334971E+04 -5.720911E+03 -2.568329E+04  2.380652E-01
         2  10 -3.801139E+06 -4.489744E+04 -1.108884E+05 -1.137047E+04  5.959227E-10  1.200203E-09
         2  11 -3.791944E+06  7.608530E+03 -5.552739E+04 -2.824764E+03 -4.434766E-09 -6.412944E-10
         2  12 -3.801009E+06  2.135825E+03 -3.335096E+04  5.720911E+03 -1.055078E-09 -2.974699E-10
         2  13 -3.801139E+06 -4.489768E+04 -1.108885E+05  2.772422E-08 -4.215479E-09  7.044904E-10
         2  14 -3.791944E+06  7.608515E+03 -5.552739E+04  7.527328E-09 -5.129059E-09 -3.012849E-10
         2  15 -3.801009E+06  2.135764E+03 -3.335097E+04  1.528473E-08 -1.793757E-09 -3.945458E-10
         2  16 -3.801139E+06 -4.489744E+04 -1.108884E+05  1.137047E+04 -2.645768E-09  2.878360E-10
         2  17 -3.791944E+06  7.608530E+03 -5.552739E+04  2.824764E+03  4.222487E-10 -3.790219E-10
         2  18 -3.801009E+06  2.135825E+03 -3.335096E+04 -5.720911E+03  5.491522E-10 -4.733611E-10
         2  19 -3.801132E+06 -4.489558E+04 -1.108755E+05 -1.137047E+04  8.283963E+04 -1.526136E+00
         2  20 -3.791940E+06  7.609327E+03 -5.552182E+04 -2.824764E+03  5.426176E+04 -2.483416E-01
         2  21 -3.801008E+06  2.136004E+03 -3.334971E+04  5.720911E+03  2.568329E+04  2.380652E-01
         2  22 -3.801132E+06 -4.489583E+04 -1.108755E+05  1.868056E-09  8.283963E+04  2.991773E-10
         2  23 -3.791940E+06  7.609312E+03 -5.552182E+04 -9.709862E-09  5.426176E+04 -5.021268E-10
         2  24 -3.801008E+06  2.135942E+03 -3.334972E+04  2.173467E-08  2.568329E+04  6.067388E-10
         2  25 -3.801132E+06 -4.489558E+04 -1.108755E+05  1.137047E+04  8.283963E+04  1.526136E+00
         2  26 -3.791940E+06  7.609327E+03 -5.552182E+04  2.824764E+03  5.426176E+04  2.483416E-01
         2  27 -3.801008E+06  2.136004E+03 -3.334971E+04 -5.720911E+03  2.568329E+04 -2.380652E-01
         3   1 -3.797551E+06 -5.148183E+03 -2.626056E+04 -1.049605E+03 -2.040851E+04  3.470683E-02
         3   2 -3.796228E+06  9.098516E+02 -1.421928E+04 -1.646139E+02 -1.325705E+04  3.535825E-03
         3   3 -3.797528E+06  2.326136E+02 -8.538805E+03  7.203599E+02 -6.105621E+03 -7.126197E-03
         3   4 -3.797551E+06 -5.148185E+03 -2.626056E+04  7.634169E-09 -2.040851E+04 -3.280689E-10
         3   5 -3.796228E+06  9.098516E+02 -1.421928E+04 -1.455286E-08 -1.325705E+04  1.639781E-09
         3   6 -3.797528E+06  2.326127E+02 -8.538805E+03 -1.764382E-10 -6.105621E+03 -2.058021E-09
         3   7 -3.797551E+06 -5.148183E+03 -2.626056E+04  1.049605E+03 -2.040851E+04 -3.470683E-02
         3   8 -3.796228E+06  9.098516E+02 -1.421928E+04  1.646139E+02 -1.325705E+04 -3.535824E-03
         3   9 -3.797528E+06  2.326136E+02 -8.538805E+03 -7.203599E+02 -6.105621E+03  7.126192E-03
         3  10 -3.797552E+06 -5.148296E+03 -2.626135E+04 -1.049605E+03 -3.368878E-09 -9.318278E-11
         3  11 -3.796228E+06  9.098041E+02 -1.421962E+04 -1.646139E+02 -1.579829E-09 -2.962334E-10
         3  12 -3.797528E+06  2.326036E+02 -8.538875E+03  7.203599E+02 -1.575789E-09 -5.813525E-11
         3  13 -3.797552E+06 -5.148298E+03 -2.626135E+04  7.644649E-09 -6.265401E-09 -1.553032E-11
         3  14 -3.796228E+06  9.098040E+02 -1.421962E+04 -1.661453E-09  1.108864E-09  2.218028E-10
         3  15 -3.797528E+06  2.326026E+02 -8.538875E+03 -4.519700E-09 -2.117080E-09 -5.111918E-10
         3  16 -3.797552E+06 -5.148296E+03 -2.626135E+04  1.049605E+03  4.151501E-10  4.588593E-10
         3  17 -3.796228E+06  9.098041E+02 -1.421962E+04  1.646139E+02  1.455850E-09  1.018087E-09
         3  18 -3.797528E+06  2.326036E+02 -8.538875E+03 -7.203599E+02 -1.338735E-09 -6.673641E-10
         3  19 -3.797551E+06 -5.148183E+03 -2.626056E+04 -1.049605E+03  2.040851E+04 -3.470683E-02
         3  20 -3.796228E+06  9.098516E+02 -1.421928E+04 -1.646139E+02  1.325705E+04 -3.535824E-03
         3  21 -3.797528E+06  2.326136E+02 -8.538805E+03  7.203599E+02  6.105621E+03  7.126197E-03
         3  22 -3.797551E+06 -5.148185E+03 -2.626056E+04 -9.491436E-09  2.040851E+04  2.728744E-10
         3  23 -3.796228E+06  9.098516E+02 -1.421928E+04  1.122993E-08  1.325705E+04 -8.921941E-10
         3  24 -3.797528E+06  2.326127E+02 -8.538805E+03  1.693863E-08  6.105621E+03  1.164470E-09
         3  25 -3.797551E+06 -5.148183E+03 -2.626056E+04  1.049605E+03  2.040851E+04  3.470683E-02
         3  26 -3.796228E+06  9.098516E+02 -1.421928E+04  1.646139E+02  1.325705E+04  3.535823E-03
         3  27 -3.797528E+06  2.326136E+02 -8.538805E+03 -7.203599E+02  6.105621E+03 -7.126195E-03
         4   1 -3.797055E+06 -5.725021E+02 -6.757929E+03 -6.458607E+01 -4.736254E+03  4.956230E-04
         4   2 -3.796808E+06  1.223317E+02 -4.261769E+03  1.195706E+01 -2.617028E+03 -5.069751E-05
         4   3 -3.797051E+06 -2.712687E+01 -3.362747E+03  8.850124E+01 -4.977660E+02 -7.137595E-05
         4   4 -3.797055E+06 -5.725022E+02 -6.757929E+03  3.606172E-08 -4.736254E+03 -1.385202E-09
         4   5 -3.796808E+06  1.223317E+02 -4.261769E+03 -2.296396E-08 -2.617028E+03  2.547741E-09
         4   6 -3.797051E+06 -2.712688E+01 -3.362747E+03  1.877436E-09 -4.977660E+02 -1.084861E-09
         4   7 -3.797055E+06 -5.725021E+02 -6.757929E+03  6.458607E+01 -4.736254E+03 -4.956264E-04
         4   8 -3.796808E+06  1.223317E+02 -4.261769E+03 -1.195706E+01 -2.617028E+03  5.070196E-05
         4   9 -3.797051E+06 -2.712687E+01 -3.362747E+03 -8.850124E+01 -4.977660E+02  7.137473E-05
         4  10 -3.797055E+06 -5.725082E+02 -6.757972E+03 -6.458607E+01 -2.035094E-09  5.857146E-11
         4  11 -3.796808E+06  1.223298E+02 -4.261782E+03  1.195706E+01  8.665963E-10  5.522115E-10
         4  12 -3.797051E+06 -2.712694E+01 -3.362748E+03  8.850124E+01  1.670432E-09 -2.927757E-10
         4  13 -3.797055E+06 -5.725082E+02 -6.757972E+03  3.614560E-08 -2.221615E-09 -2.057243E-10
         4  14 -3.796808E+06  1.223298E+02 -4.261782E+03 -1.866475E-08  1.716364E-10  1.007360E-09
         4  15 -3.797051E+06 -2.712695E+01 -3.362748E+03 -4.121947E-08 -1.520958E-09 -3.566160E-10
         4  16 -3.797055E+06 -5.725082E+02 -6.757972E+03  6.458607E+01  7.881410E-10 -2.674503E-10
         4  17 -3.796808E+06  1.223298E+02 -4.261782E+03 -1.195706E+01 -1.295687E-09  1.331430E-09
         4  18 -3.797051E+06 -2.712694E+01 -3.362748E+03 -8.850124E+01 -7.743732E-10 -6.752840E-10
         4  19 -3.797055E+06 -5.725021E+02 -6.757929E+03 -6.458607E+01  4.736254E+03 -4.956216E-04
         4  20 -3.796808E+06  1.223317E+02 -4.261769E+03  1.195706E+01  2.617028E+03  5.070016E-05
         4  21 -3.797051E+06 -2.712687E+01 -3.362747E+03  8.850124E+01  4.977660E+02  7.137674E-05
         4  22 -3.797055E+06 -5.725022E+02 -6.757929E+03  3.625465E-08  4.736254E+03  9.389329E-10
         4  23 -3.796808E+06  1.223317E+02 -4.261769E+03 -1.436764E-08  2.617028E+03 -8.094476E-10
         4  24 -3.797051E+06 -2.712688E+01 -3.362747E+03 -1.766925E-08  4.977660E+02  3.272178E-10
         4  25 -3.797055E+06 -5.725021E+02 -6.757929E+03  6.458607E+01  4.736254E+03  4.956241E-04
         4  26 -3.796808E+06  1.223317E+02 -4.261769E+03 -1.195706E+01  2.617028E+03 -5.070067E-05
         4  27 -3.797051E+06 -2.712687E+01 -3.362747E+03 -8.850124E+01  4.977660E+02 -7.137607E-05
         5   1 -3.797040E+06 -3.893943E+01 -3.295409E+03 -7.311590E+01  1.011957E+02 -1.198942E-05
         5   2 -3.796821E+06  1.088316E+02 -3.892862E+03 -6.851370E+00  2.036534E+03 -2.260531E-05
         5   3 -3.797043E+06 -4.918700E+02 -5.943211E+03  5.941322E+01  3.971870E+03  3.823474E-04
         5   4 -3.797040E+06 -3.893944E+01 -3.295409E+03  9.607973E-09  1.011957E+02 -1.859451E-09
         5   5 -3.796821E+06  1.088316E+02 -3.892862E+03  2.200052E-08  2.036534E+03  1.813308E-09
         5   6 -3.797043E+06 -4.918700E+02 -5.943211E+03  6.453459E-09  3.971870E+03  3.608599E-10
         5   7 -3.797040E+06 -3.893943E+01 -3.295409E+03  7.311590E+01  1.011957E+02  1.198515E-05
         5   8 -3.796821E+06  1.088316E+02 -3.892862E+03  6.851370E+00  2.036534E+03  2.260660E-05
         5   9 -3.797043E+06 -4.918700E+02 -5.943211E+03 -5.941322E+01  3.971870E+03 -3.823460E-04
         5  10 -3.797040E+06 -3.893943E+01 -3.295409E+03 -7.311590E+01  1.767212E-09 -1.527017E-10
         5  11 -3.796821E+06  1.088304E+02 -3.892869E+03 -6.851370E+00  5.865534E-09  8.091181E-10
         5  12 -3.797043E+06 -4.918743E+02 -5.943241E+03  5.941322E+01  9.585669E-10  7.667867E-11
         5  13 -3.797040E+06 -3.893944E+01 -3.295409E+03 -4.189860E-08 -1.706705E-09 -5.347592E-10
         5  14 -3.796821E+06  1.088304E+02 -3.892869E+03 -1.670493E-08 -9.036805E-10  6.059000E-10
         5  15 -3.797043E+06 -4.918743E+02 -5.943241E+03  2.045205E-09 -4.846644E-10 -2.968265E-10
         5  16 -3.797040E+06 -3.893943E+01 -3.295409E+03  7.311590E+01 -1.869808E-09 -2.436949E-10
         5  17 -3.796821E+06  1.088304E+02 -3.892869E+03  6.851370E+00 -2.596662E-09  2.666571E-10
         5  18 -3.797043E+06 -4.918743E+02 -5.943241E+03 -5.941322E+01  7.380870E-10 -8.914853E-10
         5  19 -3.797040E+06 -3.893943E+01 -3.295409E+03 -7.311590E+01 -1.011957E+02  1.198893E-05
         5  20 -3.796821E+06  1.088316E+02 -3.892862E+03 -6.851370E+00 -2.036534E+03  2.260825E-05
         5  21 -3.797043E+06 -4.918700E+02 -5.943211E+03  5.941322E+01 -3.971870E+03 -3.823460E-04
         5  22 -3.797040E+06 -3.893944E+01 -3.295409E+03 -7.402211E-09 -1.011957E+02  7.717096E-10
         5  23 -3.796821E+06  1.088316E+02 -3.892862E+03 -3.794724E-09 -2.036534E+03 -5.287908E-10
         5  24 -3.797043E+06 -4.918700E+02 -5.943211E+03  2.452430E-08 -3.971870E+03 -9.100390E-10
         5  25 -3.797040E+06 -3.893943E+01 -3.295409E+03  7.311590E+01 -1.011957E+02 -1.198717E-05
         5  26 -3.796821E+06  1.088316E+02 -3.892862E+03  6.851370E+00 -2.036534E+03 -2.260902E-05
         5  27 -3.797043E+06 -4.918700E+02 -5.943211E+03 -5.941322E+01 -3.971870E+03  3.823435E-04
         6   1 -3.797447E+06  1.987114E+02 -7.443428E+03 -6.180900E+02  5.170311E+03 -5.177817E-03
         6   2 -3.796326E+06  7.830503E+02 -1.228623E+04  1.426569E+02  1.134912E+04  2.623208E-03
         6   3 -3.797467E+06 -4.427855E+03 -2.261885E+04  9.033955E+02  1.752779E+04  2.565565E-02
         6   4 -3.797447E+06  1.987106E+02 -7.443428E+03 -8.662232E-09  5.170311E+03 -5.835508E-11
         6   5 -3.796326E+06  7.830502E+02 -1.228623E+04  9.190419E-09  1.134912E+04  7.612655E-10
         6   6 -3.797467E+06 -4.427857E+03 -2.261885E+04 -7.359123E-09  1.752779E+04 -1.998728E-09
         6   7 -3.797447E+06  1.987114E+02 -7.443428E+03  6.180900E+02  5.170311E+03  5.177817E-03
         6   8 -3.796326E+06  7.830503E+02 -1.228623E+04 -1.426569E+02  1.134912E+04 -2.623207E-03
         6   9 -3.797467E+06 -4.427855E+03 -2.261885E+04 -9.033955E+02  1.752779E+04 -2.565565E-02
         6  10 -3.797447E+06  1.987041E+02 -7.443479E+03 -6.180900E+02 -1.666749E-09  1.455032E-10
         6  11 -3.796326E+06  7.830154E+02 -1.228647E+04  1.426569E+02 -1.601283E-09  7.592147E-10
         6  12 -3.797467E+06 -4.427938E+03 -2.261943E+04  9.033955E+02  7.785429E-11 -9.788875E-10
         6  13 -3.797447E+06  1.987034E+02 -7.443479E+03 -1.714951E-08 -3.430970E-10 -9.938571E-11
         6  14 -3.796326E+06  7.830154E+02 -1.228647E+04  5.835746E-10 -3.430931E-10  1.003409E-09
         6  15 -3.797467E+06 -4.427940E+03 -2.261943E+04 -2.901458E-08 -4.250769E-10 -5.908731E-10
         6  16 -3.797447E+06  1.987041E+02 -7.443479E+03  6.180900E+02  2.688976E-10 -4.166116E-10
         6  17 -3.796326E+06  7.830154E+02 -1.228647E+04 -1.426569E+02 -3.043064E-09  4.389808E-10
         6  18 -3.797467E+06 -4.427938E+03 -2.261943E+04 -9.033955E+02 -9.704934E-10 -5.086924E-10
         6  19 -3.797447E+06  1.987114E+02 -7.443428E+03 -6.180900E+02 -5.170311E+03  5.177819E-03
         6  20 -3.796326E+06  7.830503E+02 -1.228623E+04  1.426569E+02 -1.134912E+04 -2.623204E-03
         6  21 -3.797467E+06 -4.427855E+03 -2.261885E+04  9.033955E+02 -1.752779E+04 -2.565565E-02
         6  22 -3.797447E+06  1.987106E+02 -7.443428E+03 -8.429460E-09 -5.170311E+03 -2.791037E-10
         6  23 -3.796326E+06  7.830502E+02 -1.228623E+04  9.169433E-09 -1.134912E+04  8.856322E-10
         6  24 -3.797467E+06 -4.427857E+03 -2.261885E+04  9.571460E-09 -1.752779E+04  7.588785E-10
         6  25 -3.797447E+06  1.987114E+02 -7.443428E+03  6.180900E+02 -5.170311E+03 -5.177819E-03
         6  26 -3.796326E+06  7.830503E+02 -1.228623E+04 -1.426569E+02 -1.134912E+04  2.623207E-03
         6  27 -3.797467E+06 -4.427855E+03 -2.261885E+04 -9.033955E+02 -1.752779E+04  2.565565E-02
         7   1 -3.800439E+06  1.837142E+03 -2.870845E+04 -4.920014E+03  2.207005E+04 -1.759338E-01
         7   2 -3.792640E+06  6.544651E+03 -4.776845E+04  2.429878E+03  4.665651E+04  1.836838E-01
         7   3 -3.800546E+06 -3.861447E+04 -9.537212E+04  9.779905E+03  7.124289E+04  1.128893E+00
         7   4 -3.800439E+06  1.837096E+03 -2.870846E+04 -8.940045E-09  2.207005E+04 -2.038554E-09
         7   5 -3.792640E+06  6.544640E+03 -4.776845E+04  1.227408E-09  4.665651E+04  3.132479E-10
         7   6 -3.800546E+06 -3.861465E+04 -9.537215E+04  1.737576E-09  7.124289E+04  4.456590E-10
         7   7 -3.800439E+06  1.837142E+03 -2.870845E+04  4.920014E+03  2.207005E+04  1.759338E-01
         7   8 -3.792640E+06  6.544651E+03 -4.776845E+04 -2.429878E+03  4.665651E+04 -1.836838E-01
         7   9 -3.800546E+06 -3.861447E+04 -9.537212E+04 -9.779905E+03  7.124289E+04 -1.128893E+00
         7  10 -3.800439E+06  1.837010E+03 -2.870937E+04 -4.920014E+03 -2.920685E-09 -9.436042E-10
         7  11 -3.792642E+06  6.544062E+03 -4.777257E+04  2.429878E+03 -1.722877E-09  3.305291E-10
         7  12 -3.800551E+06 -3.861585E+04 -9.538172E+04  9.779905E+03 -9.565739E-11 -8.448403E-10
         7  13 -3.800439E+06  1.836964E+03 -2.870938E+04 -3.896136E-08  3.422116E-10 -8.306836E-10
         7  14 -3.792642E+06  6.544051E+03 -4.777257E+04  1.225299E-09 -1.711047E-10  5.933549E-10
         7  15 -3.800551E+06 -3.861603E+04 -9.538175E+04 -3.739761E-09 -2.104393E-09 -6.056042E-10
         7  16 -3.800439E+06  1.837010E+03 -2.870937E+04  4.920014E+03  3.491887E-09 -5.820588E-10
         7  17 -3.792642E+06  6.544062E+03 -4.777257E+04 -2.429878E+03  2.688279E-09  8.259833E-10
         7  18 -3.800551E+06 -3.861585E+04 -9.538172E+04 -9.779905E+03 -4.766930E-10 -4.211820E-10
         7  19 -3.800439E+06  1.837142E+03 -2.870845E+04 -4.920014E+03 -2.207005E+04  1.759338E-01
         7  20 -3.792640E+06  6.544651E+03 -4.776845E+04  2.429878E+03 -4.665651E+04 -1.836838E-01
         7  21 -3.800546E+06 -3.861447E+04 -9.537212E+04  9.779905E+03 -7.124289E+04 -1.128893E+00
         7  22 -3.800439E+06  1.837096E+03 -2.870846E+04  8.452004E-09 -2.207005E+04  5.648710E-10
         7  23 -3.792640E+06  6.544640E+03 -4.776845E+04 -1.597825E-08 -4.665651E+04  3.029107E-10
         7  24 -3.800546E+06 -3.861465E+04 -9.537215E+04 -3.838231E-09 -7.124289E+04 -1.603349E-09
         7  25 -3.800439E+06  1.837142E+03 -2.870845E+04  4.920014E+03 -2.207005E+04 -1.759338E-01
         7  26 -3.792640E+06  6.544651E+03 -4.776845E+04 -2.429878E+03 -4.665651E+04  1.836838E-01
         7  27 -3.800546E+06 -3.861447E+04 -9.537212E+04 -9.779905E+03 -7.124289E+04  1.128893E+00
         8   1 -3.823564E+06  1.606125E+04 -1.164501E+05 -4.034865E+04  8.955362E+04 -5.854710E+00
         8   2 -3.763893E+06  5.531272E+04 -1.840389E+05  2.573734E+04  1.891497E+05  7.887175E+00
         8   3 -3.824197E+06 -3.325727E+05 -4.235141E+05  9.181706E+04  2.887485E+05  4.295536E+01
         8   4 -3.823566E+06  1.605817E+04 -1.164506E+05  3.207058E-08  8.955362E+04 -8.102555E-11
         8   5 -3.763894E+06  5.531146E+04 -1.840391E+05 -6.654994E-09  1.891497E+05  1.466166E-10
         8   6 -3.824206E+06 -3.325886E+05 -4.235164E+05  4.099692E-09  2.887485E+05 -2.640158E-10
         8   7 -3.823564E+06  1.606125E+04 -1.164501E+05  4.034865E+04  8.955362E+04  5.854710E+00
         8   8 -3.763893E+06  5.531272E+04 -1.840389E+05 -2.573734E+04  1.891497E+05 -7.887175E+00
         8   9 -3.824197E+06 -3.325727E+05 -4.235141E+05 -9.181706E+04  2.887485E+05 -4.295536E+01
         8  10 -3.823573E+06  1.605908E+04 -1.164653E+05 -4.034865E+04 -2.288784E-10 -6.305176E-10
         8  11 -3.763932E+06  5.530304E+04 -1.841065E+05  2.573734E+04 -1.822939E-09  3.468497E-10
         8  12 -3.824287E+06 -3.325952E+05 -4.236718E+05  9.181705E+04 -4.583091E-10  2.301337E-10
         8  13 -3.823575E+06  1.605601E+04 -1.164657E+05  1.062387E-08 -1.341995E-10 -7.472510E-10
         8  14 -3.763932E+06  5.530179E+04 -1.841067E+05  6.267356E-09  1.689883E-10  2.128288E-10
         8  15 -3.824296E+06 -3.326112E+05 -4.236740E+05 -1.745053E-08 -1.520308E-09  1.891253E-10
         8  16 -3.823573E+06  1.605908E+04 -1.164653E+05  4.034865E+04  1.503701E-09 -3.831219E-10
         8  17 -3.763932E+06  5.530304E+04 -1.841065E+05 -2.573734E+04  2.408216E-10  2.261766E-10
         8  18 -3.824287E+06 -3.325952E+05 -4.236718E+05 -9.181705E+04 -5.947013E-10  1.318770E-10
         8  19 -3.823564E+06  1.606125E+04 -1.164501E+05 -4.034865E+04 -8.955362E+04  5.854710E+00
         8  20 -3.763893E+06  5.531272E+04 -1.840389E+05  2.573734E+04 -1.891497E+05 -7.887175E+00
         8  21 -3.824197E+06 -3.325727E+05 -4.235141E+05  9.181706E+04 -2.887485E+05 -4.295536E+01
         8  22 -3.823566E+06  1.605817E+04 -1.164506E+05  3.648963E-08 -8.955362E+04 -1.361057E-09
         8  23 -3.763894E+06  5.531146E+04 -1.840391E+05 -6.611006E-09 -1.891497E+05  2.173745E-10
         8  24 -3.824206E+06 -3.325886E+05 -4.235164E+05  1.155897E-08 -2.887485E+05  5.753052E-10
         8  25 -3.823564E+06  1.606125E+04 -1.164501E+05  4.034865E+04 -8.955362E+04 -5.854710E+00
         8  26 -3.763893E+06  5.531272E+04 -1.840389E+05 -2.573734E+04 -1.891497E+05  7.887175E+00
         8  27 -3.824197E+06 -3.325727E+05 -4.235141E+05 -9.181706E+04 -2.887485E+05  4.295536E+01
         9   1  2.201664E+06  7.718710E+06  2.111830E+06 -1.387558E+06  1.007221E+05  7.865557E+05
         9   2  1.727910E+06  6.582921E+06  1.432911E+06 -1.226427E+06  3.351170E+05  3.683347E+05
         9   3  1.416999E+06  5.545941E+06  1.065683E+06 -1.262626E+06  3.854035E+05 -4.893182E+04
         9   4  1.879576E+05 -4.752794E+05  2.031530E+05 -1.247853E+06  1.025101E+05  1.394445E+05
         9   5  5.185412E+04 -4.903899E+05  1.019638E+05 -1.149520E+06  3.364239E+05  8.831273E+04
         9   6  1.626071E+04 -4.703704E+05  5.980029E+04 -1.248459E+06  3.853480E+05  3.729779E+04
         9   7 -1.830197E+06 -8.606880E+06 -1.708504E+06 -1.109894E+06  1.040281E+05 -4.992715E+05
         9   8 -1.627044E+06 -7.515504E+06 -1.230884E+06 -1.073424E+06  3.376729E+05 -1.886265E+05
         9   9 -1.386360E+06 -6.451146E+06 -9.471792E+05 -1.234362E+06  3.852960E+05  1.227237E+05
         9  10  2.201489E+06  7.718049E+06  2.110661E+06 -1.387622E+06  4.162561E-11  1.027739E-08
         9  11  1.727754E+06  6.582746E+06  1.432447E+06 -1.226526E+06  2.070229E-09 -2.084455E-08
         9  12  1.416839E+06  5.545899E+06  1.065399E+06 -1.262611E+06  3.063076E-09 -4.967367E-08
         9  13  1.879410E+05 -4.753032E+05  2.030965E+05 -1.247864E+06 -2.059908E-09 -1.391727E-11
         9  14  5.173045E+04 -4.904288E+05  1.017363E+05 -1.149544E+06 -8.599329E-10 -5.224253E-11
         9  15  1.610089E+04 -4.704118E+05  5.951856E+04 -1.248471E+06 -3.617265E-10 -1.051078E-10
         9  16 -1.830276E+06 -8.607154E+06 -1.708998E+06 -1.109852E+06  2.238069E-09 -1.035808E-08
         9  17 -1.627176E+06 -7.515573E+06 -1.231165E+06 -1.073373E+06 -4.159107E-09  2.047530E-08
         9  18 -1.386523E+06 -6.451202E+06 -9.474871E+05 -1.234400E+06  3.264150E-09  4.910394E-08
         9  19  2.201664E+06  7.718710E+06  2.111830E+06 -1.387558E+06 -1.007221E+05 -7.865557E+05
         9  20  1.727910E+06  6.582921E+06  1.432911E+06 -1.226427E+06 -3.351170E+05 -3.683347E+05
         9  21  1.416999E+06  5.545941E+06  1.065683E+06 -1.262626E+06 -3.854035E+05  4.893182E+04
         9  22  1.879576E+05 -4.752794E+05  2.031530E+05 -1.247853E+06 -1.025101E+05 -1.394445E+05
         9  23  5.185412E+04 -4.903899E+05  1.019638E+05 -1.149520E+06 -3.364239E+05 -8.831273E+04
         9  24  1.626071E+04 -4.703704E+05  5.980029E+04 -1.248459E+06 -3.853480E+05 -3.729779E+04
         9  25 -1.830197E+06 -8.606880E+06 -1.708504E+06 -1.109894E+06 -1.040281E+05  4.992715E+05
         9  26 -1.627044E+06 -7.515504E+06 -1.230884E+06 -1.073424E+06 -3.376729E+05  1.886265E+05
         9  27 -1.386360E+06 -6.451146E+06 -9.471792E+05 -1.234362E+06 -3.852960E+05 -1.227237E+05
        10   1  1.251883E+06  4.840820E+06  9.201905E+05 -1.275150E+06  3.540426E+05 -5.065333E+04
        10   2  9.880606E+05  3.749133E+06  6.999819E+05 -1.162814E+06  3.040727E+05 -1.075537E+05
        10   3  7.433642E+05  2.670448E+06  5.213221E+05 -1.260612E+06  2.341261E+05 -1.645979E+05
        10   4  1.684298E+04 -4.755969E+05  4.791715E+04 -1.251311E+06  3.539147E+05  2.895603E+04
        10   5  1.143123E+04 -4.765894E+05  3.446514E+04 -1.146213E+06  3.035903E+05  1.167613E+04
        10   6  1.839915E+04 -4.725391E+05  3.522732E+04 -1.251330E+06  2.332190E+05 -5.841640E+03
        10   7 -1.219641E+06 -5.764157E+06 -8.251540E+05 -1.227623E+06  3.537922E+05  1.079103E+05
        10   8 -9.660726E+05 -4.684554E+06 -6.314406E+05 -1.129689E+06  3.031120E+05  1.301279E+05
        10   9 -7.070328E+05 -3.605626E+06 -4.509989E+05 -1.242073E+06  2.323135E+05  1.521441E+05
        10  10  1.251748E+06  4.840784E+06  9.199503E+05 -1.275136E+06  1.339173E-09  5.070658E-08
        10  11  9.879583E+05  3.749096E+06  6.997868E+05 -1.162788E+06  5.581487E-09  2.177837E-08
        10  12  7.432982E+05  2.670404E+06  5.211688E+05 -1.260581E+06 -5.070064E-10 -9.828001E-09
        10  13  1.670825E+04 -4.756315E+05  4.768015E+04 -1.251319E+06  5.182024E-09 -1.041595E-10
        10  14  1.133224E+04 -4.766143E+05  3.429169E+04 -1.146216E+06  2.625357E-09  3.320062E-10
        10  15  1.834075E+04 -4.725537E+05  3.512509E+04 -1.251329E+06  9.002329E-10  1.751644E-10
        10  16 -1.219779E+06 -5.764203E+06 -8.254115E+05 -1.227653E+06  8.294331E-10 -5.058889E-08
        10  17 -9.661759E+05 -4.684597E+06 -6.316456E+05 -1.129721E+06  2.738541E-10 -2.166016E-08
        10  18 -7.070971E+05 -3.605666E+06 -4.511444E+05 -1.242101E+06 -2.276609E-10  9.710328E-09
        10  19  1.251883E+06  4.840820E+06  9.201905E+05 -1.275150E+06 -3.540426E+05  5.065333E+04
        10  20  9.880606E+05  3.749133E+06  6.999819E+05 -1.162814E+06 -3.040727E+05  1.075537E+05
        10  21  7.433642E+05  2.670448E+06  5.213221E+05 -1.260612E+06 -2.341261E+05  1.645979E+05
        10  22  1.684298E+04 -4.755969E+05  4.791715E+04 -1.251311E+06 -3.539147E+05 -2.895603E+04
        10  23  1.143123E+04 -4.765894E+05  3.446514E+04 -1.146213E+06 -3.035903E+05 -1.167613E+04
        10  24  1.839915E+04 -4.725391E+05  3.522732E+04 -1.251330E+06 -2.332190E+05  5.841640E+03
        10  25 -1.219641E+06 -5.764157E+06 -8.251540E+05 -1.227623E+06 -3.537922E+05 -1.079103E+05
        10  26 -9.660726E+05 -4.684554E+06 -6.314406E+05 -1.129689E+06 -3.031120E+05 -1.301279E+05
        10  27 -7.070328E+05 -3.605626E+06 -4.509989E+05 -1.242073E+06 -2.323135E+05 -1.521441E+05
        11   1  5.858541E+05  1.984672E+06  4.146351E+05 -1.264010E+06  1.866680E+05 -1.699224E+05
        11   2  3.572105E+05  8.929736E+05  2.675433E+05 -1.118396E+06  1.064067E+05 -2.022806E+05
        11   3  1.835114E+05 -1.816961E+05  1.546097E+05 -1.184254E+06  2.543352E+04 -2.346634E+05
        11   4  2.035468E+04 -4.694748E+05  3.934140E+04 -1.251648E+06  1.856811E+05 -1.189447E+04
        11   5  4.229638E+04 -4.767402E+05  5.981281E+04 -1.145657E+06  1.053531E+05 -4.293874E+04
        11   6  1.190236E+05 -4.684494E+05  1.134674E+05 -1.251098E+06  2.431614E+04 -7.405599E+04
        11   7 -5.454213E+05 -2.917551E+06 -3.359893E+05 -1.239321E+06  1.846979E+05  1.455346E+05
        11   8 -2.726904E+05 -1.844518E+06 -1.478608E+05 -1.172852E+06  1.042839E+05  1.160658E+05
        11   9  5.456303E+04 -7.550542E+05  7.242327E+04 -1.317910E+06  2.316380E+04  8.648038E+04
        11  10  5.858091E+05  1.984632E+06  4.145159E+05 -1.263984E+06 -1.868810E-09 -1.629252E-09
        11  11  3.571875E+05  8.929267E+05  2.674454E+05 -1.118378E+06  2.030303E-09  7.149250E-10
        11  12  1.834959E+05 -1.817554E+05  1.545051E+05 -1.184249E+06  2.630402E-10  2.357847E-09
        11  13  2.031763E+04 -4.694842E+05  3.927638E+04 -1.251646E+06  2.264231E-09  1.598836E-10
        11  14  4.228398E+04 -4.767451E+05  5.978854E+04 -1.145654E+06  1.370272E-10 -1.141639E-10
        11  15  1.190215E+05 -4.684554E+05  1.134560E+05 -1.251096E+06 -1.196089E-09  5.811399E-11
        11  16 -5.454638E+05 -2.917583E+06 -3.360936E+05 -1.239343E+06 -6.538634E-10  1.438099E-09
        11  17 -2.727057E+05 -1.844536E+06 -1.479067E+05 -1.172862E+06  2.087499E-09 -9.130457E-10
        11  18  5.456043E+04 -7.550624E+05  7.240817E+04 -1.317911E+06 -1.747338E-09 -2.572352E-09
        11  19  5.858541E+05  1.984672E+06  4.146351E+05 -1.264010E+06 -1.866680E+05  1.699224E+05
        11  20  3.572105E+05  8.929736E+05  2.675433E+05 -1.118396E+06 -1.064067E+05  2.022806E+05
        11  21  1.835114E+05 -1.816961E+05  1.546097E+05 -1.184254E+06 -2.543352E+04  2.346634E+05
        11  22  2.035468E+04 -4.694748E+05  3.934140E+04 -1.251648E+06 -1.856811E+05  1.189447E+04
        11  23  4.229638E+04 -4.767402E+05  5.981281E+04 -1.145657E+06 -1.053531E+05  4.293874E+04
        11  24  1.190236E+05 -4.684494E+05  1.134674E+05 -1.251098E+06 -2.431614E+04  7.405599E+04
        11  25 -5.454213E+05 -2.917551E+06 -3.359893E+05 -1.239321E+06 -1.846979E+05 -1.455346E+05
        11  26 -2.726904E+05 -1.844518E+06 -1.478608E+05 -1.172852E+06 -1.042839E+05 -1.160658E+05
        11  27  5.456303E+04 -7.550542E+05  7.242327E+04 -1.317910E+06 -2.316380E+04 -8.648038E+04
        12   1 -4.631527E+06 -1.345358E+06 -8.095264E+05 -1.661757E+06 -4.610815E+05 -1.693089E+05
        12   2 -4.497565E+06 -6.445924E+05 -3.728837E+05 -1.737780E+06 -2.964536E+05 -1.013834E+05
        12   3 -4.610688E+06 -6.494421E+05 -2.461668E+05 -1.672477E+06 -1.290160E+05 -4.092224E+04
        12   4 -4.406903E+06 -1.126622E+06 -7.212835E+05 -1.463183E+06 -4.574724E+05 -1.680819E+05
        12   5 -4.246378E+06 -5.129493E+05 -2.984029E+05 -1.631459E+06 -2.958174E+05 -1.011676E+05
        12   6 -4.332234E+06 -6.041692E+05 -1.829874E+05 -1.658452E+06 -1.313451E+05 -4.177883E+04
        12   7 -4.182184E+06 -9.077468E+05 -6.330386E+05 -1.264517E+06 -4.538618E+05 -1.668523E+05
        12   8 -3.995125E+06 -3.812826E+05 -2.239282E+05 -1.525094E+06 -2.951809E+05 -1.009515E+05
        12   9 -4.053697E+06 -5.588956E+05 -1.198103E+05 -1.644428E+06 -1.336752E+05 -4.263528E+04
        12  10 -4.631765E+06 -1.345446E+06 -8.099836E+05 -1.661820E+06  1.302501E-09 -1.929483E-10
        12  11 -4.497662E+06 -6.446273E+05 -3.730697E+05 -1.737804E+06 -3.156698E-09  3.593232E-10
        12  12 -4.610706E+06 -6.494484E+05 -2.462016E+05 -1.672481E+06 -6.112071E-09  1.136669E-09
        12  13 -4.407136E+06 -1.126709E+06 -7.217334E+05 -1.463246E+06 -1.528553E-11 -1.626251E-10
        12  14 -4.246475E+06 -5.129841E+05 -2.985880E+05 -1.631483E+06 -2.134599E-09 -6.779286E-11
        12  15 -4.332253E+06 -6.041757E+05 -1.830234E+05 -1.658456E+06 -2.629276E-09  1.464573E-09
        12  16 -4.182414E+06 -9.078326E+05 -6.334812E+05 -1.264578E+06 -1.193949E-09 -3.810435E-10
        12  17 -3.995222E+06 -3.813172E+05 -2.241124E+05 -1.525118E+06 -1.899037E-09 -3.587206E-12
        12  18 -4.053717E+06 -5.589024E+05 -1.198476E+05 -1.644433E+06  2.497350E-09  2.129158E-09
        12  19 -4.631527E+06 -1.345358E+06 -8.095264E+05 -1.661757E+06  4.610815E+05  1.693089E+05
        12  20 -4.497565E+06 -6.445924E+05 -3.728837E+05 -1.737780E+06  2.964536E+05  1.013834E+05
        12  21 -4.610688E+06 -6.494421E+05 -2.461668E+05 -1.672477E+06  1.290160E+05  4.092224E+04
        12  22 -4.406903E+06 -1.126622E+06 -7.212835E+05 -1.463183E+06  4.574724E+05  1.680819E+05
        12  23 -4.246378E+06 -5.129493E+05 -2.984029E+05 -1.631459E+06  2.958174E+05  1.011676E+05
        12  24 -4.332234E+06 -6.041692E+05 -1.829874E+05 -1.658452E+06  1.313451E+05  4.177883E+04
        12  25 -4.182184E+06 -9.077468E+05 -6.330386E+05 -1.264517E+06  4.538618E+05  1.668523E+05
        12  26 -3.995125E+06 -3.812826E+05 -2.239282E+05 -1.525094E+06  2.951809E+05  1.009515E+05
        12  27 -4.053697E+06 -5.588956E+05 -1.198103E+05 -1.644428E+06  1.336752E+05  4.263528E+04
        13   1 -4.448807E+06 -7.514522E+05 -1.902325E+05 -1.668778E+06 -1.037342E+05 -3.395284E+04
        13   2 -4.402256E+06 -6.360409E+05 -9.788960E+04 -1.649033E+06 -6.615484E+04 -2.136326E+04
        13   3 -4.358258E+06 -6.355619E+05 -5.563041E+04 -1.646957E+06 -2.828864E+04 -9.528332E+03
        13   4 -4.307816E+06 -6.833677E+05 -1.494570E+05 -1.615098E+06 -1.041161E+05 -3.409898E+04
        13   5 -4.302045E+06 -5.945237E+05 -7.027349E+04 -1.617961E+06 -6.683274E+04 -2.161744E+04
        13   6 -4.298761E+06 -6.205433E+05 -4.092721E+04 -1.638495E+06 -2.926526E+04 -9.893192E+03
        13   7 -4.166805E+06 -6.152780E+05 -1.086833E+05 -1.561405E+06 -1.044981E+05 -3.424518E+04
        13   8 -4.201824E+06 -5.530053E+05 -4.265838E+04 -1.586885E+06 -6.751075E+04 -2.187167E+04
        13   9 -4.239260E+06 -6.055248E+05 -2.622430E+04 -1.630033E+06 -3.024197E+04 -1.025806E+04
        13  10 -4.448819E+06 -7.514563E+05 -1.902551E+05 -1.668781E+06 -1.997032E-09  1.686086E-09
        13  11 -4.402261E+06 -6.360426E+05 -9.789876E+04 -1.649034E+06 -2.791571E-09 -1.849556E-09
        13  12 -4.358259E+06 -6.355623E+05 -5.563210E+04 -1.646957E+06 -4.839925E-09 -1.221621E-09
        13  13 -4.307828E+06 -6.833719E+05 -1.494797E+05 -1.615101E+06 -1.558561E-10  1.043091E-09
        13  14 -4.302050E+06 -5.945254E+05 -7.028283E+04 -1.617963E+06 -2.487580E-09 -1.148142E-09
        13  15 -4.298761E+06 -6.205436E+05 -4.092902E+04 -1.638496E+06  4.122733E-10 -1.127951E-09
        13  16 -4.166818E+06 -6.152822E+05 -1.087062E+05 -1.561408E+06  3.614302E-10  9.768563E-10
        13  17 -4.201829E+06 -5.530071E+05 -4.266792E+04 -1.586886E+06  3.452596E-09 -1.389531E-09
        13  18 -4.239261E+06 -6.055252E+05 -2.622623E+04 -1.630034E+06  2.416282E-09 -1.296283E-09
        13  19 -4.448807E+06 -7.514522E+05 -1.902325E+05 -1.668778E+06  1.037342E+05  3.395284E+04
        13  20 -4.402256E+06 -6.360409E+05 -9.788960E+04 -1.649033E+06  6.615484E+04  2.136326E+04
        13  21 -4.358258E+06 -6.355619E+05 -5.563041E+04 -1.646957E+06  2.828864E+04  9.528332E+03
        13  22 -4.307816E+06 -6.833677E+05 -1.494570E+05 -1.615098E+06  1.041161E+05  3.409898E+04
        13  23 -4.302045E+06 -5.945237E+05 -7.027349E+04 -1.617961E+06  6.683274E+04  2.161744E+04
        13  24 -4.298761E+06 -6.205433E+05 -4.092721E+04 -1.638495E+06  2.926526E+04  9.893192E+03
        13  25 -4.166805E+06 -6.152780E+05 -1.086833E+05 -1.561405E+06  1.044981E+05  3.424518E+04
        13  26 -4.201824E+06 -5.530053E+05 -4.265838E+04 -1.586885E+06  6.751075E+04  2.187167E+04
        13  27 -4.239260E+06 -6.055248E+05 -2.622430E+04 -1.630033E+06  3.024197E+04  1.025806E+04
        14   1 -4.259816E+06 -6.179045E+05 -2.270711E+04 -1.625047E+06 -2.205350E+04 -8.689946E+03
        14   2 -4.225252E+06 -5.732892E+05  6.087749E+03 -1.594120E+06 -1.292383E+04 -7.531247E+03
        14   3 -4.162310E+06 -5.717585E+05  2.592747E+04 -1.599050E+06 -3.789240E+03 -6.382160E+03
        14   4 -4.295461E+06 -6.298187E+05 -3.214879E+04 -1.633110E+06 -2.284569E+04 -8.986310E+03
        14   5 -4.309133E+06 -6.045851E+05 -1.636624E+04 -1.616562E+06 -1.372042E+04 -7.829308E+03
        14   6 -4.294427E+06 -6.224361E+05 -9.534668E+03 -1.635872E+06 -4.590964E+03 -6.682224E+03
        14   7 -4.331104E+06 -6.417328E+05 -4.159062E+04 -1.641174E+06 -2.363783E+04 -9.282660E+03
        14   8 -4.393007E+06 -6.358807E+05 -3.882094E+04 -1.639001E+06 -1.451689E+04 -8.127327E+03
        14   9 -4.426528E+06 -6.731127E+05 -4.499846E+04 -1.672686E+06 -5.392502E+03 -6.982214E+03
        14  10 -4.259817E+06 -6.179047E+05 -2.270818E+04 -1.625047E+06 -2.645832E-09 -1.110802E-09
        14  11 -4.225252E+06 -5.732893E+05  6.087325E+03 -1.594120E+06 -2.333186E-09 -8.114260E-11
        14  12 -4.162310E+06 -5.717586E+05  2.592737E+04 -1.599050E+06 -4.571195E-10  2.351463E-10
        14  13 -4.295461E+06 -6.298189E+05 -3.214993E+04 -1.633110E+06  2.120128E-09 -7.260020E-10
        14  14 -4.309133E+06 -6.045852E+05 -1.636671E+04 -1.616562E+06 -1.206979E-09  4.196919E-10
        14  15 -4.294427E+06 -6.224362E+05 -9.534792E+03 -1.635872E+06  6.639981E-09 -2.391616E-10
        14  16 -4.331105E+06 -6.417331E+05 -4.159184E+04 -1.641174E+06 -4.255389E-10 -5.828110E-10
        14  17 -4.393008E+06 -6.358809E+05 -3.882146E+04 -1.639001E+06  2.440799E-09 -1.285280E-10
        14  18 -4.426528E+06 -6.731127E+05 -4.499861E+04 -1.672686E+06 -9.992080E-10 -1.636647E-10
        14  19 -4.259816E+06 -6.179045E+05 -2.270711E+04 -1.625047E+06  2.205350E+04  8.689946E+03
        14  20 -4.225252E+06 -5.732892E+05  6.087749E+03 -1.594120E+06  1.292383E+04  7.531247E+03
        14  21 -4.162310E+06 -5.717585E+05  2.592747E+04 -1.599050E+06  3.789240E+03  6.382160E+03
        14  22 -4.295461E+06 -6.298187E+05 -3.214879E+04 -1.633110E+06  2.284569E+04  8.986310E+03
        14  23 -4.309133E+06 -6.045851E+05 -1.636624E+04 -1.616562E+06  1.372042E+04  7.829308E+03
        14  24 -4.294427E+06 -6.224361E+05 -9.534668E+03 -1.635872E+06  4.590964E+03  6.682224E+03
        14  25 -4.331104E+06 -6.417328E+05 -4.159062E+04 -1.641174E+06  2.363783E+04  9.282660E+03
        14  26 -4.393007E+06 -6.358807E+05 -3.882094E+04 -1.639001E+06  1.451689E+04  8.127327E+03
        14  27 -4.426528E+06 -6.731127E+05 -4.499846E+04 -1.672686E+06  5.392502E+03  6.982214E+03
        15   1 -4.077718E+06 -5.410988E+05  5.086182E+04 -1.575625E+06 -1.967360E+03 -7.019851E+03
        15   2 -4.048299E+06 -5.085308E+05  6.537686E+04 -1.546687E+06  1.029377E+03 -8.042430E+03
        15   3 -3.989777E+06 -5.070458E+05  7.785279E+04 -1.551623E+06  3.970006E+03 -8.910606E+03
        15   4 -4.294720E+06 -6.227345E+05 -7.532644E+03 -1.634339E+06 -2.753325E+03 -7.314188E+03
        15   5 -4.309254E+06 -6.068768E+05 -4.658552E+03 -1.617531E+06  3.045485E+02 -8.314174E+03
        15   6 -4.294699E+06 -6.221157E+05 -3.872682E+03 -1.634600E+06  3.306130E+03 -9.159786E+03
        15   7 -4.511675E+06 -7.043672E+05 -6.593103E+04 -1.693033E+06 -3.538982E+03 -7.608410E+03
        15   8 -4.570143E+06 -7.052188E+05 -7.469988E+04 -1.688349E+06 -4.199418E+02 -8.585792E+03
        15   9 -4.599532E+06 -7.371802E+05 -8.560649E+04 -1.717540E+06  2.642614E+03 -9.408832E+03
        15  10 -4.077718E+06 -5.410988E+05  5.086172E+04 -1.575625E+06  7.090803E-11 -4.778395E-11
        15  11 -4.048299E+06 -5.085308E+05  6.537673E+04 -1.546687E+06 -1.381471E-09 -1.862303E-09
        15  12 -3.989777E+06 -5.070459E+05  7.785261E+04 -1.551623E+06  4.025891E-10 -1.237408E-09
        15  13 -4.294720E+06 -6.227346E+05 -7.532759E+03 -1.634339E+06  2.497497E-09 -2.577223E-10
        15  14 -4.309254E+06 -6.068769E+05 -4.658682E+03 -1.617531E+06 -2.544110E-09 -7.584628E-10
        15  15 -4.294699E+06 -6.221158E+05 -3.872859E+03 -1.634600E+06 -5.701364E-10 -5.939456E-10
        15  16 -4.511675E+06 -7.043673E+05 -6.593116E+04 -1.693033E+06  1.089932E-09 -2.475725E-10
        15  17 -4.570143E+06 -7.052189E+05 -7.470002E+04 -1.688349E+06 -2.355732E-10 -1.341684E-10
        15  18 -4.599532E+06 -7.371803E+05 -8.560667E+04 -1.717540E+06 -3.626264E-11 -1.681722E-09
        15  19 -4.077718E+06 -5.410988E+05  5.086182E+04 -1.575625E+06  1.967360E+03  7.019851E+03
        15  20 -4.048299E+06 -5.085308E+05  6.537686E+04 -1.546687E+06 -1.029377E+03  8.042430E+03
        15  21 -3.989777E+06 -5.070458E+05  7.785279E+04 -1.551623E+06 -3.970006E+03  8.910606E+03
        15  22 -4.294720E+06 -6.227345E+05 -7.532644E+03 -1.634339E+06  2.753325E+03  7.314188E+03
        15  23 -4.309254E+06 -6.068768E+05 -4.658552E+03 -1.617531E+06 -3.045485E+02  8.314174E+03
        15  24 -4.294699E+06 -6.221157E+05 -3.872682E+03 -1.634600E+06 -3.306130E+03  9.159786E+03
        15  25 -4.511675E+06 -7.043672E+05 -6.593103E+04 -1.693033E+06  3.538982E+03  7.608410E+03
        15  26 -4.570143E+06 -7.052188E+05 -7.469988E+04 -1.688349E+06  4.199418E+02  8.585792E+03
        15  27 -4.599532E+06 -7.371802E+05 -8.560649E+04 -1.717540E+06 -2.642614E+03  9.408832E+03
        16   1 -3.920333E+06 -4.789993E+05  9.707067E+04 -1.530946E+06  4.977682E+03 -9.635740E+03
        16   2 -3.897630E+06 -4.540825E+05  1.048849E+05 -1.508139E+06  8.040049E+03 -1.022971E+04
        16   3 -3.852303E+06 -4.537584E+05  1.105233E+05 -1.511481E+06  1.100684E+04 -1.056380E+04
        16   4 -4.296161E+06 -6.206131E+05 -3.944303E+03 -1.632920E+06  4.310890E+03 -9.886275E+03
        16   5 -4.307524E+06 -6.087845E+05 -5.157794E+03 -1.619663E+06  7.476019E+03 -1.044207E+04
        16   6 -4.296286E+06 -6.215707E+05 -8.629895E+03 -1.632557E+06  1.054539E+04 -1.073796E+04
        16   7 -4.671852E+06 -7.622183E+05 -1.049716E+05 -1.734838E+06  3.644546E+03 -1.013664E+04
        16   8 -4.717256E+06 -7.634764E+05 -1.152153E+05 -1.731121E+06  6.912400E+03 -1.065428E+04
        16   9 -4.740078E+06 -7.893715E+05 -1.278008E+05 -1.753554E+06  1.008431E+04 -1.091198E+04
        16  10 -3.920333E+06 -4.789994E+05  9.707045E+04 -1.530946E+06 -1.115346E-09 -9.023694E-10
        16  11 -3.897630E+06 -4.540827E+05  1.048845E+05 -1.508139E+06 -1.882210E-09 -6.437355E-10
        16  12 -3.852304E+06 -4.537586E+05  1.105229E+05 -1.511481E+06 -1.794336E-09 -5.756148E-10
        16  13 -4.296161E+06 -6.206132E+05 -3.944521E+03 -1.632920E+06  4.170510E-09 -5.925073E-10
        16  14 -4.307524E+06 -6.087846E+05 -5.158103E+03 -1.619663E+06 -2.047119E-09 -4.761979E-10
        16  15 -4.296286E+06 -6.215708E+05 -8.630320E+03 -1.632557E+06  1.147436E-10 -3.993850E-10
        16  16 -4.671852E+06 -7.622184E+05 -1.049718E+05 -1.734838E+06 -2.409988E-09 -1.337293E-09
        16  17 -4.717256E+06 -7.634766E+05 -1.152156E+05 -1.731121E+06 -6.481343E-09  7.234128E-10
        16  18 -4.740078E+06 -7.893716E+05 -1.278012E+05 -1.753554E+06  1.103697E-09 -4.968411E-10
        16  19 -3.920333E+06 -4.789993E+05  9.707067E+04 -1.530946E+06 -4.977682E+03  9.635740E+03
        16  20 -3.897630E+06 -4.540825E+05  1.048849E+05 -1.508139E+06 -8.040049E+03  1.022971E+04
        16  21 -3.852303E+06 -4.537584E+05  1.105233E+05 -1.511481E+06 -1.100684E+04  1.056380E+04
        16  22 -4.296161E+06 -6.206131E+05 -3.944303E+03 -1.632920E+06 -4.310890E+03  9.886275E+03
        16  23 -4.307524E+06 -6.087845E+05 -5.157794E+03 -1.619663E+06 -7.476019E+03  1.044207E+04
        16  24 -4.296286E+06 -6.215707E+05 -8.629895E+03 -1.632557E+06 -1.054539E+04  1.073796E+04
        16  25 -4.671852E+06 -7.622183E+05 -1.049716E+05 -1.734838E+06 -3.644546E+03  1.013664E+04
        16  26 -4.717256E+06 -7.634764E+05 -1.152153E+05 -1.731121E+06 -6.912400E+03  1.065428E+04
        16  27 -4.740078E+06 -7.893715E+05 -1.278008E+05 -1.753554E+06 -1.008431E+04  1.091198E+04
        17   1 -3.804355E+06 -4.325476E+05  1.217096E+05 -1.497408E+06  1.289775E+04 -1.063968E+04
        17   2 -3.789919E+06 -4.151571E+05  1.190888E+05 -1.482179E+06  2.283135E+04 -8.044588E+03
        17   3 -3.766485E+06 -4.231360E+05  1.063483E+05 -1.480172E+06  3.260978E+04 -5.033300E+03
        17   4 -4.298806E+06 -6.182595E+05 -1.097156E+04 -1.630991E+06  1.240786E+04 -1.082477E+04
        17   5 -4.303864E+06 -6.098377E+05 -1.901658E+04 -1.622752E+06  2.250098E+04 -8.169999E+03
        17   6 -4.299958E+06 -6.268246E+05 -3.731484E+04 -1.627737E+06  3.243851E+04 -5.099055E+03
        17   7 -4.793021E+06 -8.039576E+05 -1.436743E+05 -1.764477E+06  1.191839E+04 -1.100970E+04
        17   8 -4.817551E+06 -8.045020E+05 -1.571452E+05 -1.763220E+06  2.217090E+04 -8.295297E+03
        17   9 -4.833154E+06 -8.304942E+05 -1.810030E+05 -1.775186E+06  3.226740E+04 -5.164751E+03
        17  10 -3.804355E+06 -4.325477E+05  1.217091E+05 -1.497408E+06 -1.893921E-09 -5.578158E-10
        17  11 -3.789920E+06 -4.151573E+05  1.190877E+05 -1.482178E+06  3.240778E-10  1.133613E-09
        17  12 -3.766486E+06 -4.231363E+05  1.063463E+05 -1.480171E+06  1.202633E-09  1.254265E-09
        17  13 -4.298807E+06 -6.182597E+05 -1.097207E+04 -1.630991E+06  1.626137E-10 -2.554940E-10
        17  14 -4.303864E+06 -6.098379E+05 -1.901766E+04 -1.622752E+06 -2.026281E-09  1.954368E-09
        17  15 -4.299959E+06 -6.268249E+05 -3.731688E+04 -1.627737E+06  1.426342E-10  2.859205E-09
        17  16 -4.793021E+06 -8.039578E+05 -1.436748E+05 -1.764477E+06  2.320670E-09 -6.344933E-10
        17  17 -4.817552E+06 -8.045022E+05 -1.571463E+05 -1.763220E+06 -9.041269E-10  1.174829E-09
        17  18 -4.833155E+06 -8.304945E+05 -1.810050E+05 -1.775186E+06  2.442237E-09  2.066520E-09
        17  19 -3.804355E+06 -4.325476E+05  1.217096E+05 -1.497408E+06 -1.289775E+04  1.063968E+04
        17  20 -3.789919E+06 -4.151571E+05  1.190888E+05 -1.482179E+06 -2.283135E+04  8.044588E+03
        17  21 -3.766485E+06 -4.231360E+05  1.063483E+05 -1.480172E+06 -3.260978E+04  5.033300E+03
        17  22 -4.298806E+06 -6.182595E+05 -1.097156E+04 -1.630991E+06 -1.240786E+04  1.082477E+04
        17  23 -4.303864E+06 -6.098377E+05 -1.901658E+04 -1.622752E+06 -2.250098E+04  8.169999E+03
        17  24 -4.299958E+06 -6.268246E+05 -3.731484E+04 -1.627737E+06 -3.243851E+04  5.099055E+03
        17  25 -4.793021E+06 -8.039576E+05 -1.436743E+05 -1.764477E+06 -1.191839E+04  1.100970E+04
        17  26 -4.817551E+06 -8.045020E+05 -1.571452E+05 -1.763220E+06 -2.217090E+04  8.295297E+03
        17  27 -4.833154E+06 -8.304942E+05 -1.810030E+05 -1.775186E+06 -3.226740E+04  5.164751E+03
        18   1 -3.741829E+06 -4.087614E+05  1.024487E+05 -1.486048E+06  3.992913E+04 -2.796610E+03
        18   2 -3.733224E+06 -3.845515E+05  6.950990E+04 -1.470096E+06  8.226961E+04  1.277400E+04
        18   3 -3.761964E+06 -4.583330E+05 -2.073659E+04 -1.434025E+06  1.240820E+05  2.974158E+04
        18   4 -4.306032E+06 -6.136894E+05 -4.749998E+04 -1.631369E+06  3.948237E+04 -2.965743E+03
        18   5 -4.292601E+06 -6.009690E+05 -8.166383E+04 -1.627732E+06  8.234682E+04  1.280128E+04
        18   6 -4.316655E+06 -6.864001E+05 -1.735926E+05 -1.603969E+06  1.246832E+05  2.996371E+04
        18   7 -4.869929E+06 -8.186051E+05 -1.974767E+05 -1.776573E+06  3.903605E+04 -3.134729E+03
        18   8 -4.851675E+06 -8.173641E+05 -2.328658E+05 -1.785238E+06  8.242392E+04  1.282851E+04
        18   9 -4.871045E+06 -9.144332E+05 -3.264772E+05 -1.773770E+06  1.252838E+05  3.018556E+04
        18  10 -3.741831E+06 -4.087619E+05  1.024457E+05 -1.486048E+06  1.671569E-09  4.970409E-10
        18  11 -3.733231E+06 -3.845535E+05  6.949679E+04 -1.470097E+06 -2.843769E-09  3.341460E-10
        18  12 -3.761981E+06 -4.583382E+05 -2.076740E+04 -1.434028E+06 -1.629821E-09 -3.350353E-10
        18  13 -4.306034E+06 -6.136899E+05 -4.750295E+04 -1.631369E+06 -3.061030E-09  1.655685E-09
        18  14 -4.292608E+06 -6.009710E+05 -8.167697E+04 -1.627733E+06 -2.284016E-09 -3.266829E-10
        18  15 -4.316672E+06 -6.864053E+05 -1.736238E+05 -1.603972E+06  1.921733E-09 -1.083735E-09
        18  16 -4.869930E+06 -8.186055E+05 -1.974796E+05 -1.776573E+06 -6.900558E-10  6.172659E-10
        18  17 -4.851682E+06 -8.173661E+05 -2.328790E+05 -1.785239E+06  7.920043E-10 -2.431573E-10
        18  18 -4.871063E+06 -9.144385E+05 -3.265087E+05 -1.773773E+06 -1.093325E-09  8.910502E-10
        18  19 -3.741829E+06 -4.087614E+05  1.024487E+05 -1.486048E+06 -3.992913E+04  2.796610E+03
        18  20 -3.733224E+06 -3.845515E+05  6.950990E+04 -1.470096E+06 -8.226961E+04 -1.277400E+04
        18  21 -3.761964E+06 -4.583330E+05 -2.073659E+04 -1.434025E+06 -1.240820E+05 -2.974158E+04
        18  22 -4.306032E+06 -6.136894E+05 -4.749998E+04 -1.631369E+06 -3.948237E+04  2.965743E+03
        18  23 -4.292601E+06 -6.009690E+05 -8.166383E+04 -1.627732E+06 -8.234682E+04 -1.280128E+04
        18  24 -4.316655E+06 -6.864001E+05 -1.735926E+05 -1.603969E+06 -1.246832E+05 -2.996371E+04
        18  25 -4.869929E+06 -8.186051E+05 -1.974767E+05 -1.776573E+06 -3.903605E+04  3.134729E+03
        18  26 -4.851675E+06 -8.173641E+05 -2.328658E+05 -1.785238E+06 -8.242392E+04 -1.282851E+04
        18  27 -4.871045E+06 -9.144332E+05 -3.264772E+05 -1.773770E+06 -1.252838E+05 -3.018556E+04
        19   1 -3.733630E+06 -4.309178E+05 -6.171173E+04 -1.556496E+06  1.581225E+05  4.092444E+04
        19   2 -3.707675E+06 -2.678597E+05 -1.991465E+05 -1.459052E+06  3.436927E+05  1.115579E+05
        19   3 -4.009985E+06 -8.789082E+05 -6.900343E+05 -1.147623E+06  5.249876E+05  1.934666E+05
        19   4 -4.346188E+06 -5.932837E+05 -2.125719E+05 -1.653109E+06  1.558677E+05  4.009087E+04
        19   5 -4.225840E+06 -5.081536E+05 -3.467244E+05 -1.645632E+06  3.457993E+05  1.123259E+05
        19   6 -4.434927E+06 -1.198453E+06 -8.380356E+05 -1.424067E+06  5.314842E+05  1.957667E+05
        19   7 -4.958373E+06 -7.556598E+05 -3.634564E+05 -1.749656E+06  1.536153E+05  3.925759E+04
        19   8 -4.743739E+06 -7.483896E+05 -4.943280E+05 -1.832057E+06  3.479039E+05  1.130926E+05
        19   9 -4.859630E+06 -1.517766E+06 -9.860478E+05 -1.700287E+06  5.379759E+05  1.980607E+05
        19  10 -3.733657E+06 -4.309263E+05 -6.176222E+04 -1.556502E+06  3.404846E-10 -1.010610E-10
        19  11 -3.707805E+06 -2.679052E+05 -1.993936E+05 -1.459083E+06 -3.852271E-09 -1.238654E-10
        19  12 -4.010292E+06 -8.790232E+05 -6.906267E+05 -1.147705E+06 -2.544436E-09 -2.172434E-10
        19  13 -4.346214E+06 -5.932920E+05 -2.126209E+05 -1.653114E+06 -6.420875E-10  1.393748E-09
        19  14 -4.225973E+06 -5.081997E+05 -3.469748E+05 -1.645664E+06 -1.888361E-09  4.040576E-09
        19  15 -4.435242E+06 -1.198571E+06 -8.386433E+05 -1.424151E+06 -2.791241E-09 -4.283016E-11
        19  16 -4.958399E+06 -7.556679E+05 -3.635041E+05 -1.749661E+06 -1.842450E-09  1.398626E-09
        19  17 -4.743873E+06 -7.484363E+05 -4.945817E+05 -1.832089E+06 -2.230693E-09 -6.589085E-10
        19  18 -4.859953E+06 -1.517887E+06 -9.866709E+05 -1.700373E+06 -4.444303E-10  4.358736E-10
        19  19 -3.733630E+06 -4.309178E+05 -6.171173E+04 -1.556496E+06 -1.581225E+05 -4.092444E+04
        19  20 -3.707675E+06 -2.678597E+05 -1.991465E+05 -1.459052E+06 -3.436927E+05 -1.115579E+05
        19  21 -4.009985E+06 -8.789082E+05 -6.900343E+05 -1.147623E+06 -5.249876E+05 -1.934666E+05
        19  22 -4.346188E+06 -5.932837E+05 -2.125719E+05 -1.653109E+06 -1.558677E+05 -4.009087E+04
        19  23 -4.225840E+06 -5.081536E+05 -3.467244E+05 -1.645632E+06 -3.457993E+05 -1.123259E+05
        19  24 -4.434927E+06 -1.198453E+06 -8.380356E+05 -1.424067E+06 -5.314842E+05 -1.957667E+05
        19  25 -4.958373E+06 -7.556598E+05 -3.634564E+05 -1.749656E+06 -1.536153E+05 -3.925759E+04
        19  26 -4.743739E+06 -7.483896E+05 -4.943280E+05 -1.832057E+06 -3.479039E+05 -1.130926E+05
        19  27 -4.859630E+06 -1.517766E+06 -9.860478E+05 -1.700287E+06 -5.379759E+05 -1.980607E+05
        20   1 -1.571341E+06  3.184189E+04  4.056710E+04  8.812705E+03  2.769842E+04  3.941359E-01
        20   2 -1.577091E+06 -5.291052E+03  1.763813E+04  2.470221E+03  1.815202E+04  7.240102E-02
        20   3 -1.571368E+06 -1.538125E+03  1.115777E+04 -3.872111E+03  8.605736E+03 -5.380416E-02
        20   4 -1.571341E+06  3.184174E+04  4.056708E+04  1.831610E-08  2.769842E+04  5.593682E-10
        20   5 -1.577091E+06 -5.291064E+03  1.763813E+04 -8.273030E-09  1.815202E+04  1.049950E-09
        20   6 -1.571368E+06 -1.538154E+03  1.115776E+04 -4.182769E-09  8.605736E+03 -9.886865E-10
        20   7 -1.571341E+06  3.184189E+04  4.056710E+04 -8.812705E+03  2.769842E+04 -3.941359E-01
        20   8 -1.577091E+06 -5.291052E+03  1.763813E+04 -2.470221E+03  1.815202E+04 -7.240102E-02
        20   9 -1.571368E+06 -1.538125E+03  1.115777E+04  3.872111E+03  8.605736E+03  5.380416E-02
        20  10 -1.571342E+06  3.184168E+04  4.056566E+04  8.812705E+03  4.943329E-10  2.097809E-10
        20  11 -1.577092E+06 -5.291141E+03  1.763751E+04  2.470221E+03 -3.124262E-09  2.901450E-10
        20  12 -1.571368E+06 -1.538145E+03  1.115763E+04 -3.872111E+03  1.354746E-09 -5.262877E-10
        20  13 -1.571342E+06  3.184153E+04  4.056564E+04 -7.466846E-09  2.329011E-09  4.291610E-10
        20  14 -1.577092E+06 -5.291153E+03  1.763751E+04 -8.293002E-09 -3.228922E-09  8.434215E-10
        20  15 -1.571368E+06 -1.538174E+03  1.115762E+04  1.024521E-08 -3.995414E-10 -5.029417E-10
        20  16 -1.571342E+06  3.184168E+04  4.056566E+04 -8.812705E+03  1.969727E-09  7.467027E-10
        20  17 -1.577092E+06 -5.291141E+03  1.763751E+04 -2.470221E+03  4.252721E-09  1.320715E-09
        20  18 -1.571368E+06 -1.538145E+03  1.115763E+04  3.872111E+03 -1.786904E-10 -9.207605E-10
        20  19 -1.571341E+06  3.184189E+04  4.056710E+04  8.812705E+03 -2.769842E+04 -3.941359E-01
        20  20 -1.577091E+06 -5.291052E+03  1.763813E+04  2.470221E+03 -1.815202E+04 -7.240102E-02
        20  21 -1.571368E+06 -1.538125E+03  1.115777E+04 -3.872111E+03 -8.605736E+03  5.380416E-02
        20  22 -1.571341E+06  3.184174E+04  4.056708E+04  3.564721E-08 -2.769842E+04  3.051617E-10
        20  23 -1.577091E+06 -5.291064E+03  1.763813E+04  1.751454E-08 -1.815202E+04  5.162360E-10
        20  24 -1.571368E+06 -1.538154E+03  1.115776E+04  1.282143E-08 -8.605736E+03  2.884138E-11
        20  25 -1.571341E+06  3.184189E+04  4.056710E+04 -8.812705E+03 -2.769842E+04  3.941359E-01
        20  26 -1.577091E+06 -5.291052E+03  1.763813E+04 -2.470221E+03 -1.815202E+04  7.240102E-02
        20  27 -1.571368E+06 -1.538125E+03  1.115777E+04  3.872111E+03 -8.605736E+03 -5.380416E-02
        21   1 -1.573578E+06  3.695233E+03  9.135867E+03  9.379441E+02  6.847657E+03  1.037052E-02
        21   2 -1.574331E+06 -6.257890E+02  4.570865E+03  2.327545E+02  4.493445E+03  1.688729E-03
        21   3 -1.573582E+06 -1.759454E+02  2.734252E+03 -4.724457E+02  2.139202E+03 -1.631868E-03
        21   4 -1.573578E+06  3.695232E+03  9.135867E+03  1.253692E-08  6.847657E+03 -8.580028E-10
        21   5 -1.574331E+06 -6.257891E+02  4.570865E+03 -3.390426E-08  4.493445E+03  1.325829E-09
        21   6 -1.573582E+06 -1.759458E+02  2.734252E+03 -2.384663E-08  2.139202E+03 -3.345480E-10
        21   7 -1.573578E+06  3.695233E+03  9.135867E+03 -9.379441E+02  6.847657E+03 -1.037052E-02
        21   8 -1.574331E+06 -6.257890E+02  4.570865E+03 -2.327545E+02  4.493445E+03 -1.688726E-03
        21   9 -1.573582E+06 -1.759454E+02  2.734252E+03  4.724457E+02  2.139202E+03  1.631868E-03
        21  10 -1.573578E+06  3.695221E+03  9.135779E+03  9.379441E+02 -1.984645E-09 -1.939062E-10
        21  11 -1.574331E+06 -6.257945E+02  4.570827E+03  2.327545E+02 -3.514388E-10  4.668987E-10
        21  12 -1.573582E+06 -1.759466E+02  2.734244E+03 -4.724457E+02  1.775921E-10 -7.633071E-10
        21  13 -1.573578E+06  3.695219E+03  9.135779E+03 -2.180458E-08  2.353293E-09 -5.519974E-10
        21  14 -1.574331E+06 -6.257946E+02  4.570827E+03 -1.668575E-08 -2.722053E-09  3.473862E-10
        21  15 -1.573582E+06 -1.759470E+02  2.734244E+03 -5.247019E-08 -3.679330E-10 -6.520125E-10
        21  16 -1.573578E+06  3.695221E+03  9.135779E+03 -9.379441E+02  1.312045E-09 -8.418882E-10
        21  17 -1.574331E+06 -6.257945E+02  4.570827E+03 -2.327545E+02  4.425555E-10  4.290412E-10
        21  18 -1.573582E+06 -1.759466E+02  2.734244E+03  4.724457E+02  1.370527E-09 -7.716129E-10
        21  19 -1.573578E+06  3.695233E+03  9.135867E+03  9.379441E+02 -6.847657E+03 -1.037052E-02
        21  20 -1.574331E+06 -6.257890E+02  4.570865E+03  2.327545E+02 -4.493445E+03 -1.688727E-03
        21  21 -1.573582E+06 -1.759454E+02  2.734252E+03 -4.724457E+02 -2.139202E+03  1.631867E-03
        21  22 -1.573578E+06  3.695232E+03  9.135867E+03  1.274281E-08 -6.847657E+03 -2.864484E-10
        21  23 -1.574331E+06 -6.257891E+02  4.570865E+03 -8.078595E-09 -4.493445E+03 -5.760049E-10
        21  24 -1.573582E+06 -1.759458E+02  2.734252E+03 -3.070103E-09 -2.139202E+03 -9.557181E-10
        21  25 -1.573578E+06  3.695233E+03  9.135867E+03 -9.379441E+02 -6.847657E+03  1.037052E-02
        21  26 -1.574331E+06 -6.257890E+02  4.570865E+03 -2.327545E+02 -4.493445E+03  1.688726E-03
        21  27 -1.573582E+06 -1.759454E+02  2.734252E+03  4.724457E+02 -2.139202E+03 -1.631869E-03
        22   1 -1.573868E+06  4.235491E+02  2.143382E+03  8.595828E+01  1.706832E+03  2.368961E-04
        22   2 -1.573975E+06 -7.445250E+01  1.132287E+03  1.269402E+01  1.136589E+03  2.329636E-05
        22   3 -1.573869E+06 -2.015274E+01  6.312300E+02 -6.057026E+01  5.663454E+02 -5.538820E-05
        22   4 -1.573868E+06  4.235491E+02  2.143382E+03  3.522192E-09  1.706832E+03 -1.072547E-09
        22   5 -1.573975E+06 -7.445250E+01  1.132287E+03  5.175102E-09  1.136589E+03 -2.405129E-10
        22   6 -1.573869E+06 -2.015275E+01  6.312300E+02  4.665976E-09  5.663454E+02  2.530589E-10
        22   7 -1.573868E+06  4.235491E+02  2.143382E+03 -8.595828E+01  1.706832E+03 -2.368984E-04
        22   8 -1.573975E+06 -7.445250E+01  1.132287E+03 -1.269402E+01  1.136589E+03 -2.329773E-05
        22   9 -1.573869E+06 -2.015274E+01  6.312300E+02  6.057026E+01  5.663454E+02  5.538856E-05
        22  10 -1.573868E+06  4.235484E+02  2.143377E+03  8.595828E+01 -1.687897E-09 -4.708938E-10
        22  11 -1.573975E+06 -7.445285E+01  1.132285E+03  1.269402E+01 -5.663563E-10  1.246571E-09
        22  12 -1.573869E+06 -2.015283E+01  6.312294E+02 -6.057026E+01  2.958330E-09 -4.105667E-11
        22  13 -1.573868E+06  4.235483E+02  2.143377E+03 -1.789122E-08  2.118973E-09 -5.061651E-10
        22  14 -1.573975E+06 -7.445285E+01  1.132285E+03 -3.435221E-09  2.579426E-09  6.977427E-10
        22  15 -1.573869E+06 -2.015284E+01  6.312294E+02 -1.890506E-09  9.184838E-10 -3.345005E-10
        22  16 -1.573868E+06  4.235484E+02  2.143377E+03 -8.595828E+01  3.180776E-09 -6.441721E-10
        22  17 -1.573975E+06 -7.445285E+01  1.132285E+03 -1.269402E+01 -2.408627E-10  2.650348E-10
        22  18 -1.573869E+06 -2.015283E+01  6.312294E+02  6.057026E+01 -6.462785E-10 -7.279735E-10
        22  19 -1.573868E+06  4.235491E+02  2.143382E+03  8.595828E+01 -1.706832E+03 -2.368970E-04
        22  20 -1.573975E+06 -7.445250E+01  1.132287E+03  1.269402E+01 -1.136589E+03 -2.329303E-05
        22  21 -1.573869E+06 -2.015274E+01  6.312300E+02 -6.057026E+01 -5.663454E+02  5.538857E-05
        22  22 -1.573868E+06  4.235491E+02  2.143382E+03  2.958110E-08 -1.706832E+03  6.934430E-11
        22  23 -1.573975E+06 -7.445250E+01  1.132287E+03  5.177201E-09 -1.136589E+03  1.665125E-09
        22  24 -1.573869E+06 -2.015275E+01  6.312300E+02  9.833148E-09 -5.663454E+02 -9.673429E-10
        22  25 -1.573868E+06  4.235491E+02  2.143382E+03 -8.595828E+01 -1.706832E+03  2.368975E-04
        22  26 -1.573975E+06 -7.445250E+01  1.132287E+03 -1.269402E+01 -1.136589E+03  2.329694E-05
        22  27 -1.573869E+06 -2.015274E+01  6.312300E+02  6.057026E+01 -5.663454E+02 -5.539029E-05
        23   1 -1.573910E+06  4.747177E+01  4.605548E+02  2.391071E+00  4.685430E+02  1.810018E-06
        23   2 -1.573923E+06 -7.364662E+00  1.821839E+02 -3.591090E+00  3.775339E+02 -2.188855E-06
        23   3 -1.573911E+06 -9.374550E+00 -2.361920E+01 -9.573164E+00  2.865263E+02 -4.429147E-06
        23   4 -1.573910E+06  4.747177E+01  4.605548E+02  5.008511E-09  4.685430E+02  3.856994E-10
        23   5 -1.573923E+06 -7.364662E+00  1.821839E+02 -2.163905E-08  3.775339E+02  4.648518E-10
        23   6 -1.573911E+06 -9.374550E+00 -2.361920E+01  1.036599E-08  2.865263E+02 -1.473967E-10
        23   7 -1.573910E+06  4.747177E+01  4.605548E+02 -2.391071E+00  4.685430E+02 -1.808749E-06
        23   8 -1.573923E+06 -7.364662E+00  1.821839E+02  3.591090E+00  3.775339E+02  2.189666E-06
        23   9 -1.573911E+06 -9.374550E+00 -2.361920E+01  9.573164E+00  2.865263E+02  4.429228E-06
        23  10 -1.573910E+06  4.747171E+01  4.605544E+02  2.391071E+00 -2.600746E-09 -6.683520E-10
        23  11 -1.573923E+06 -7.364700E+00  1.821837E+02 -3.591090E+00 -2.672217E-09 -1.829131E-10
        23  12 -1.573911E+06 -9.374572E+00 -2.361935E+01 -9.573164E+00 -7.240284E-10 -7.727301E-10
        23  13 -1.573910E+06  4.747171E+01  4.605544E+02  7.915806E-10 -2.521137E-09 -5.915555E-10
        23  14 -1.573923E+06 -7.364700E+00  1.821837E+02 -3.023887E-08 -2.927547E-09  2.695163E-10
        23  15 -1.573911E+06 -9.374572E+00 -2.361935E+01 -9.991389E-10 -8.988785E-11 -2.728078E-10
        23  16 -1.573910E+06  4.747171E+01  4.605544E+02 -2.391071E+00  2.498380E-09 -3.774557E-10
        23  17 -1.573923E+06 -7.364700E+00  1.821837E+02  3.591090E+00  4.857053E-09  6.550185E-10
        23  18 -1.573911E+06 -9.374572E+00 -2.361935E+01  9.573164E+00 -2.542614E-09  1.657238E-10
        23  19 -1.573910E+06  4.747177E+01  4.605548E+02  2.391071E+00 -4.685430E+02 -1.810595E-06
        23  20 -1.573923E+06 -7.364662E+00  1.821839E+02 -3.591090E+00 -3.775339E+02  2.188921E-06
        23  21 -1.573911E+06 -9.374550E+00 -2.361920E+01 -9.573164E+00 -2.865263E+02  4.428477E-06
        23  22 -1.573910E+06  4.747177E+01  4.605548E+02  1.380686E-08 -4.685430E+02 -1.527983E-09
        23  23 -1.573923E+06 -7.364662E+00  1.821839E+02  4.207687E-09 -3.775339E+02  2.897498E-11
        23  24 -1.573911E+06 -9.374550E+00 -2.361920E+01 -2.144756E-09 -2.865263E+02 -4.480926E-10
        23  25 -1.573910E+06  4.747177E+01  4.605548E+02 -2.391071E+00 -4.685430E+02  1.806764E-06
        23  26 -1.573923E+06 -7.364662E+00  1.821839E+02  3.591090E+00 -3.775339E+02 -2.188829E-06
        23  27 -1.573911E+06 -9.374550E+00 -2.361920E+01  9.573164E+00 -2.865263E+02 -4.429071E-06
        24   1 -1.573926E+06  7.938204E+00 -1.229260E+02 -1.311752E+01  2.997362E+02 -6.348396E-06
        24   2 -1.573904E+06  1.242750E+01 -3.616185E+02 -4.013462E+00  4.800299E+02 -3.109708E-06
        24   3 -1.573927E+06 -7.074859E+01 -7.398275E+02  5.090734E+00  6.603261E+02  5.427370E-06
        24   4 -1.573926E+06  7.938203E+00 -1.229260E+02 -4.506001E-09  2.997362E+02  1.091998E-10
        24   5 -1.573904E+06  1.242750E+01 -3.616185E+02 -1.910844E-08  4.800299E+02  8.648453E-10
        24   6 -1.573927E+06 -7.074859E+01 -7.398275E+02  8.793176E-09  6.603261E+02 -1.505584E-09
        24   7 -1.573926E+06  7.938204E+00 -1.229260E+02  1.311752E+01  2.997362E+02  6.349673E-06
        24   8 -1.573904E+06  1.242750E+01 -3.616185E+02  4.013462E+00  4.800299E+02  3.110981E-06
        24   9 -1.573927E+06 -7.074859E+01 -7.398275E+02 -5.090734E+00  6.603261E+02 -5.429964E-06
        24  10 -1.573926E+06  7.938179E+00 -1.229262E+02 -1.311752E+01 -1.821983E-09 -2.556463E-10
        24  11 -1.573904E+06  1.242744E+01 -3.616189E+02 -4.013462E+00  2.017134E-10  8.330712E-10
        24  12 -1.573927E+06 -7.074870E+01 -7.398283E+02  5.090734E+00  1.720679E-09 -7.233344E-12
        24  13 -1.573926E+06  7.938179E+00 -1.229262E+02 -3.023510E-08 -4.254744E-09 -2.162773E-11
        24  14 -1.573904E+06  1.242744E+01 -3.616189E+02 -6.208698E-09 -3.655618E-09  7.807185E-10
        24  15 -1.573927E+06 -7.074870E+01 -7.398283E+02 -1.232265E-08 -1.991575E-09 -8.340257E-10
        24  16 -1.573926E+06  7.938179E+00 -1.229262E+02  1.311752E+01 -1.122395E-09  1.787707E-10
        24  17 -1.573904E+06  1.242744E+01 -3.616189E+02  4.013462E+00  1.159075E-09  6.741165E-10
        24  18 -1.573927E+06 -7.074870E+01 -7.398283E+02 -5.090734E+00 -7.361340E-10 -1.457859E-09
        24  19 -1.573926E+06  7.938204E+00 -1.229260E+02 -1.311752E+01 -2.997362E+02  6.347954E-06
        24  20 -1.573904E+06  1.242750E+01 -3.616185E+02 -4.013462E+00 -4.800299E+02  3.112489E-06
        24  21 -1.573927E+06 -7.074859E+01 -7.398275E+02  5.090734E+00 -6.603261E+02 -5.427003E-06
        24  22 -1.573926E+06  7.938203E+00 -1.229260E+02 -1.723347E-08 -2.997362E+02 -1.907485E-10
        24  23 -1.573904E+06  1.242750E+01 -3.616185E+02 -1.914520E-08 -4.800299E+02  8.710021E-10
        24  24 -1.573927E+06 -7.074859E+01 -7.398275E+02  1.121185E-08 -6.603261E+02 -1.455062E-10
        24  25 -1.573926E+06  7.938204E+00 -1.229260E+02  1.311752E+01 -2.997362E+02 -6.348921E-06
        24  26 -1.573904E+06  1.242750E+01 -3.616185E+02  4.013462E+00 -4.800299E+02 -3.110095E-06
        24  27 -1.573927E+06 -7.074859E+01 -7.398275E+02 -5.090734E+00 -6.603261E+02  5.426639E-06
        25   1 -1.573987E+06  2.960678E+01 -9.825934E+02 -8.995478E+01  8.146930E+02 -1.183318E-04
        25   2 -1.573828E+06  1.114918E+02 -1.714732E+03  1.940099E+01  1.678073E+03  5.256776E-05
        25   3 -1.573989E+06 -6.331255E+02 -3.216660E+03  1.287568E+02  2.541452E+03  5.283649E-04
        25   4 -1.573987E+06  2.960677E+01 -9.825935E+02 -1.475812E-09  8.146930E+02 -1.449175E-09
        25   5 -1.573828E+06  1.114918E+02 -1.714732E+03  1.415561E-08  1.678073E+03  9.209815E-10
        25   6 -1.573989E+06 -6.331255E+02 -3.216660E+03  4.377251E-08  2.541452E+03  2.437518E-10
        25   7 -1.573987E+06  2.960678E+01 -9.825934E+02  8.995478E+01  8.146930E+02  1.183290E-04
        25   8 -1.573828E+06  1.114918E+02 -1.714732E+03 -1.940099E+01  1.678073E+03 -5.256620E-05
        25   9 -1.573989E+06 -6.331255E+02 -3.216660E+03 -1.287568E+02  2.541452E+03 -5.283642E-04
        25  10 -1.573987E+06  2.960661E+01 -9.825947E+02 -8.995478E+01 -3.003607E-10 -4.664064E-10
        25  11 -1.573828E+06  1.114911E+02 -1.714737E+03  1.940099E+01  1.409075E-09 -3.163338E-10
        25  12 -1.573989E+06 -6.331272E+02 -3.216672E+03  1.287568E+02  9.759038E-10 -4.236503E-11
        25  13 -1.573987E+06  2.960659E+01 -9.825947E+02 -1.359216E-09 -1.750497E-09 -9.855277E-10
        25  14 -1.573828E+06  1.114911E+02 -1.714737E+03 -3.058764E-09 -1.360728E-09  4.645468E-10
        25  15 -1.573989E+06 -6.331272E+02 -3.216672E+03  1.462755E-08 -1.488081E-09 -3.449766E-10
        25  16 -1.573987E+06  2.960661E+01 -9.825947E+02  8.995478E+01  8.301025E-10 -1.269215E-09
        25  17 -1.573828E+06  1.114911E+02 -1.714737E+03 -1.940099E+01 -1.647416E-09  1.258952E-09
        25  18 -1.573989E+06 -6.331272E+02 -3.216672E+03 -1.287568E+02 -2.999894E-09 -4.140914E-10
        25  19 -1.573987E+06  2.960678E+01 -9.825934E+02 -8.995478E+01 -8.146930E+02  1.183312E-04
        25  20 -1.573828E+06  1.114918E+02 -1.714732E+03  1.940099E+01 -1.678073E+03 -5.256766E-05
        25  21 -1.573989E+06 -6.331255E+02 -3.216660E+03  1.287568E+02 -2.541452E+03 -5.283649E-04
        25  22 -1.573987E+06  2.960677E+01 -9.825935E+02 -1.241571E-09 -8.146930E+02 -4.323840E-10
        25  23 -1.573828E+06  1.114918E+02 -1.714732E+03 -1.595431E-08 -1.678073E+03 -6.615852E-11
        25  24 -1.573989E+06 -6.331255E+02 -3.216660E+03  5.443703E-10 -2.541452E+03 -9.836955E-10
        25  25 -1.573987E+06  2.960678E+01 -9.825934E+02  8.995478E+01 -8.146930E+02 -1.183323E-04
        25  26 -1.573828E+06  1.114918E+02 -1.714732E+03 -1.940099E+01 -1.678073E+03  5.256807E-05
        25  27 -1.573989E+06 -6.331255E+02 -3.216660E+03 -1.287568E+02 -2.541452E+03  5.283626E-04
        26   1 -1.574415E+06  2.630067E+02 -4.096789E+03 -7.060483E+02  3.189779E+03 -3.636442E-03
        26   2 -1.573297E+06  9.354962E+02 -6.837896E+03  3.480502E+02  6.711658E+03  3.771833E-03
        26   3 -1.574422E+06 -5.523752E+03 -1.365914E+04  1.402134E+03  1.023347E+04  2.316828E-02
        26   4 -1.574415E+06  2.630057E+02 -4.096790E+03  2.394220E-08  3.189779E+03 -5.510943E-10
        26   5 -1.573297E+06  9.354960E+02 -6.837896E+03 -1.631433E-08  6.711658E+03  1.558703E-10
        26   6 -1.574422E+06 -5.523756E+03 -1.365914E+04  2.091388E-09  1.023347E+04  9.903915E-10
        26   7 -1.574415E+06  2.630067E+02 -4.096789E+03  7.060483E+02  3.189779E+03  3.636441E-03
        26   8 -1.573297E+06  9.354962E+02 -6.837896E+03 -3.480502E+02  6.711658E+03 -3.771834E-03
        26   9 -1.574422E+06 -5.523752E+03 -1.365914E+04 -1.402134E+03  1.023347E+04 -2.316828E-02
        26  10 -1.574415E+06  2.630039E+02 -4.096809E+03 -7.060483E+02 -1.996948E-10  1.107488E-10
        26  11 -1.573297E+06  9.354841E+02 -6.837981E+03  3.480502E+02 -1.575790E-09  2.158934E-10
        26  12 -1.574422E+06 -5.523780E+03 -1.365934E+04  1.402134E+03 -1.915084E-09 -3.635218E-10
        26  13 -1.574415E+06  2.630030E+02 -4.096809E+03 -1.470980E-08 -2.253412E-09 -3.161490E-10
        26  14 -1.573297E+06  9.354839E+02 -6.837981E+03 -5.535621E-09 -3.736770E-09  6.924889E-10
        26  15 -1.574422E+06 -5.523784E+03 -1.365934E+04  2.945069E-08 -4.273423E-09  1.757587E-11
        26  16 -1.574415E+06  2.630039E+02 -4.096809E+03  7.060483E+02 -1.465155E-09 -5.743215E-10
        26  17 -1.573297E+06  9.354841E+02 -6.837981E+03 -3.480502E+02 -1.881318E-09  1.304027E-09
        26  18 -1.574422E+06 -5.523780E+03 -1.365934E+04 -1.402134E+03 -1.071767E-09  1.356662E-10
        26  19 -1.574415E+06  2.630067E+02 -4.096789E+03 -7.060483E+02 -3.189779E+03  3.636442E-03
        26  20 -1.573297E+06  9.354962E+02 -6.837896E+03  3.480502E+02 -6.711658E+03 -3.771832E-03
        26  21 -1.574422E+06 -5.523752E+03 -1.365914E+04  1.402134E+03 -1.023347E+04 -2.316828E-02
        26  22 -1.574415E+06  2.630057E+02 -4.096790E+03 -1.698703E-09 -3.189779E+03 -1.224169E-10
        26  23 -1.573297E+06  9.354960E+02 -6.837896E+03 -1.629123E-08 -6.711658E+03  1.397936E-09
        26  24 -1.574422E+06 -5.523756E+03 -1.365914E+04  7.321589E-09 -1.023347E+04 -9.732245E-10
        26  25 -1.574415E+06  2.630067E+02 -4.096789E+03  7.060483E+02 -3.189779E+03 -3.636443E-03
        26  26 -1.573297E+06  9.354962E+02 -6.837896E+03 -3.480502E+02 -6.711658E+03  3.771835E-03
        26  27 -1.574422E+06 -5.523752E+03 -1.365914E+04 -1.402134E+03 -1.023347E+04  2.316828E-02
        27   1 -1.577726E+06  2.299431E+03 -1.668036E+04 -5.788130E+03  1.286170E+04 -1.202044E-01
        27   2 -1.569169E+06  7.909367E+03 -2.636412E+04  3.692758E+03  2.713259E+04  1.617781E-01
        27   3 -1.577764E+06 -4.759752E+04 -6.063485E+04  1.317366E+04  4.140375E+04  8.806977E-01
        27   4 -1.577726E+06  2.299368E+03 -1.668037E+04  5.328294E-09  1.286170E+04  6.271551E-10
        27   5 -1.569169E+06  7.909341E+03 -2.636412E+04  6.720873E-09  2.713259E+04 -6.440515E-10
        27   6 -1.577765E+06 -4.759784E+04 -6.063489E+04  9.189557E-09  4.140375E+04 -4.200080E-10
        27   7 -1.577726E+06  2.299431E+03 -1.668036E+04  5.788130E+03  1.286170E+04  1.202044E-01
        27   8 -1.569169E+06  7.909367E+03 -2.636412E+04 -3.692758E+03  2.713259E+04 -1.617781E-01
        27   9 -1.577764E+06 -4.759752E+04 -6.063485E+04 -1.317366E+04  4.140375E+04 -8.806977E-01
        27  10 -1.577726E+06  2.299387E+03 -1.668067E+04 -5.788130E+03 -2.917602E-09 -5.391819E-10
        27  11 -1.569170E+06  7.909168E+03 -2.636551E+04  3.692758E+03  8.632582E-10 -1.432021E-10
        27  12 -1.577766E+06 -4.759798E+04 -6.063808E+04  1.317366E+04 -1.002513E-09  7.209133E-11
        27  13 -1.577726E+06  2.299324E+03 -1.668068E+04  1.825017E-08 -2.701699E-09 -4.079273E-10
        27  14 -1.569170E+06  7.909143E+03 -2.636551E+04  1.318401E-08 -1.925204E-09 -8.300391E-11
        27  15 -1.577766E+06 -4.759831E+04 -6.063812E+04  8.113297E-09  7.074465E-11 -7.314425E-12
        27  16 -1.577726E+06  2.299387E+03 -1.668067E+04  5.788130E+03 -2.198842E-09 -2.425524E-10
        27  17 -1.569170E+06  7.909168E+03 -2.636551E+04 -3.692758E+03 -1.203069E-09 -1.753672E-10
        27  18 -1.577766E+06 -4.759798E+04 -6.063808E+04 -1.317366E+04 -2.303101E-09 -2.017487E-11
        27  19 -1.577726E+06  2.299431E+03 -1.668036E+04 -5.788130E+03 -1.286170E+04  1.202044E-01
        27  20 -1.569169E+06  7.909367E+03 -2.636412E+04  3.692758E+03 -2.713259E+04 -1.617781E-01
        27  21 -1.577764E+06 -4.759752E+04 -6.063485E+04  1.317366E+04 -4.140375E+04 -8.806977E-01
        27  22 -1.577726E+06  2.299368E+03 -1.668037E+04  2.687528E-08 -1.286170E+04 -1.372845E-09
        27  23 -1.569169E+06  7.909341E+03 -2.636412E+04 -2.770533E-08 -2.713259E+04  4.328060E-10
        27  24 -1.577765E+06 -4.759784E+04 -6.063489E+04 -8.554265E-09 -4.140375E+04  4.705618E-10
        27  25 -1.577726E+06  2.299431E+03 -1.668036E+04  5.788130E+03 -1.286170E+04 -1.202044E-01
        27  26 -1.569169E+06  7.909367E+03 -2.636412E+04 -3.692758E+03 -2.713259E+04  1.617781E-01
        27  27 -1.577764E+06 -4.759752E+04 -6.063485E+04 -1.317366E+04 -4.140375E+04  8.806977E-01
        28   1  5.090140E+05  1.177236E+06  6.230176E+05 -7.029268E+04  3.884143E+03  3.566590E+05
        28   2  4.930840E+04  1.186348E+06  3.506543E+05 -2.440519E+04  1.329600E+04  2.266720E+05
        28   3  1.225385E+05  1.345989E+06  2.961891E+05  9.496786E+04  1.637131E+04  9.666501E+04
        28   4  4.112411E+05  7.848648E+05  5.261548E+05  4.446439E+04  3.950147E+03  3.510799E+05
        28   5 -6.896509E+04  7.098672E+05  2.354327E+05  7.687391E+03  1.330935E+04  2.238878E+05
        28   6 -1.654003E+04  7.849733E+05  1.607537E+05  4.439704E+04  1.636436E+04  9.669184E+04
        28   7  3.135062E+05  3.926618E+05  4.292878E+05  1.591490E+05  4.014128E+03  3.455044E+05
        28   8 -1.872513E+05  2.335960E+05  1.201953E+05  3.975532E+04  1.332241E+04  2.211055E+05
        28   9 -1.556319E+05  2.242499E+05  2.529720E+04 -6.127987E+03  1.635740E+04  9.671861E+04
        28  10  5.089799E+05  1.177099E+06  6.227790E+05 -7.029380E+04 -4.028935E-10 -2.504543E-09
        28  11  4.929445E+04  1.186293E+06  3.505576E+05 -2.440761E+04 -6.358104E-09  5.004979E-11
        28  12  1.225357E+05  1.345979E+06  2.961711E+05  9.496659E+04  2.288241E-10  2.664216E-09
        28  13  4.112081E+05  7.847326E+05  5.259235E+05  4.446327E+04 -1.946416E-09 -4.566292E-11
        28  14 -6.897871E+04  7.098134E+05  2.353383E+05  7.684993E+03  3.471798E-10  1.558504E-11
        28  15 -1.654282E+04  7.849632E+05  1.607357E+05  4.439576E+04 -2.530766E-09  3.190529E-10
        28  16  3.134742E+05  3.925337E+05  4.290636E+05  1.591478E+05  6.590162E-10  2.433759E-09
        28  17 -1.872646E+05  2.335435E+05  1.201032E+05  3.975295E+04  3.923765E-10 -2.055121E-10
        28  18 -1.556346E+05  2.242398E+05  2.527912E+04 -6.129261E+03 -1.392336E-09 -2.923104E-09
        28  19  5.090140E+05  1.177236E+06  6.230176E+05 -7.029268E+04 -3.884143E+03 -3.566590E+05
        28  20  4.930840E+04  1.186348E+06  3.506543E+05 -2.440519E+04 -1.329600E+04 -2.266720E+05
        28  21  1.225385E+05  1.345989E+06  2.961891E+05  9.496786E+04 -1.637131E+04 -9.666501E+04
        28  22  4.112411E+05  7.848648E+05  5.261548E+05  4.446439E+04 -3.950147E+03 -3.510799E+05
        28  23 -6.896509E+04  7.098672E+05  2.354327E+05  7.687391E+03 -1.330935E+04 -2.238878E+05
        28  24 -1.654003E+04  7.849733E+05  1.607537E+05  4.439704E+04 -1.636436E+04 -9.669184E+04
        28  25  3.135062E+05  3.926618E+05  4.292878E+05  1.591490E+05 -4.014128E+03 -3.455044E+05
        28  26 -1.872513E+05  2.335960E+05  1.201953E+05  3.975532E+04 -1.332241E+04 -2.211055E+05
        28  27 -1.556319E+05  2.242499E+05  2.529720E+04 -6.127987E+03 -1.635740E+04 -9.671861E+04
        29   1  2.198588E+05  1.458415E+06  3.094203E+05  2.836771E+04  1.766489E+04  7.281225E+04
        29   2  1.817302E+05  1.528849E+06  2.862313E+05  5.128924E+03  2.155179E+04  2.214073E+04
        29   3  2.448121E+05  1.632396E+06  3.215402E+05  5.752889E+04  2.281662E+04 -2.853612E+04
        29   4  4.614981E+04  7.588485E+05  1.397387E+05  4.493207E+04  1.767019E+04  7.052678E+04
        29   5 -1.342592E+04  7.423752E+05  9.594563E+04  7.111997E+03  2.155527E+04  2.104018E+04
        29   6  2.807119E+04  7.588381E+05  1.098743E+05  4.493460E+04  2.281916E+04 -2.844476E+04
        29   7 -1.275940E+05  5.972833E+04 -2.997801E+04  6.147784E+04  1.767537E+04  6.824383E+04
        29   8 -2.086273E+05 -4.353485E+04 -9.438449E+04  9.092764E+03  2.155874E+04  1.994101E+04
        29   9 -1.887250E+05 -1.140244E+05 -1.018464E+05  3.235838E+04  2.282169E+04 -2.835351E+04
        29  10  2.198570E+05  1.458409E+06  3.094097E+05  2.836667E+04  4.054880E-10  1.870361E-09
        29  11  1.817296E+05  1.528849E+06  2.862295E+05  5.128540E+03 -3.871146E-09 -2.772591E-11
        29  12  2.448113E+05  1.632395E+06  3.215377E+05  5.752941E+04 -1.742187E-09 -1.625894E-09
        29  13  4.614815E+04  7.588431E+05  1.397288E+05  4.493107E+04 -2.165185E-09 -5.761295E-10
        29  14 -1.342654E+04  7.423746E+05  9.594393E+04  7.111632E+03 -1.121595E-09 -7.795731E-11
        29  15  2.807041E+04  7.588371E+05  1.098718E+05  4.493513E+04 -3.135968E-09  8.488581E-10
        29  16 -1.275956E+05  5.972325E+04 -2.998734E+04  6.147687E+04 -1.196013E-09 -2.016504E-09
        29  17 -2.086279E+05 -4.353540E+04 -9.438611E+04  9.092418E+03  4.992183E-09 -6.973030E-10
        29  18 -1.887258E+05 -1.140254E+05 -1.018489E+05  3.235890E+04  1.727115E-09  9.828638E-10
        29  19  2.198588E+05  1.458415E+06  3.094203E+05  2.836771E+04 -1.766489E+04 -7.281225E+04
        29  20  1.817302E+05  1.528849E+06  2.862313E+05  5.128924E+03 -2.155179E+04 -2.214073E+04
        29  21  2.448121E+05  1.632396E+06  3.215402E+05  5.752889E+04 -2.281662E+04  2.853612E+04
        29  22  4.614981E+04  7.588485E+05  1.397387E+05  4.493207E+04 -1.767019E+04 -7.052678E+04
        29  23 -1.342592E+04  7.423752E+05  9.594563E+04  7.111997E+03 -2.155527E+04 -2.104018E+04
        29  24  2.807119E+04  7.588381E+05  1.098743E+05  4.493460E+04 -2.281916E+04  2.844476E+04
        29  25 -1.275940E+05  5.972833E+04 -2.997801E+04  6.147784E+04 -1.767537E+04 -6.824383E+04
        29  26 -2.086273E+05 -4.353485E+04 -9.438449E+04  9.092764E+03 -2.155874E+04 -1.994101E+04
        29  27 -1.887250E+05 -1.140244E+05 -1.018464E+05  3.235838E+04 -2.282169E+04  2.835351E+04
        30   1  2.448568E+05  1.790808E+06  3.647294E+05  1.022869E+04  2.833917E+04 -4.160683E+04
        30   2  2.292961E+05  1.831167E+06  4.256455E+05  2.408605E+04  3.220255E+04 -1.375590E+05
        30   3  5.622484E+05  1.973544E+06  6.365441E+05  1.173531E+05  1.163325E+04 -2.336134E+05
        30   4 -7.654857E+03  7.737541E+05  1.187529E+05  4.545022E+04  2.835634E+04 -4.840832E+04
        30   5 -4.526905E+04  7.235375E+05  1.581273E+05  6.259051E+03  3.219821E+04 -1.336527E+05
        30   6  2.640965E+05  7.736494E+05  3.402404E+05  4.647529E+04  1.160458E+04 -2.189839E+05
        30   7 -2.602376E+05 -2.423540E+05 -1.272971E+05  8.061452E+04  2.837275E+04 -5.519869E+04
        30   8 -3.199225E+05 -3.829727E+05 -1.094786E+05 -1.153522E+04  3.219365E+04 -1.297532E+05
        30   9 -3.414277E+04 -4.249279E+05  4.383381E+04 -2.426457E+04  1.157257E+04 -2.043823E+05
        30  10  2.448554E+05  1.790806E+06  3.647247E+05  1.022964E+04 -4.475964E-10  6.187888E-11
        30  11  2.292900E+05  1.831147E+06  4.256081E+05  2.408961E+04  5.329346E-10  7.170160E-10
        30  12  5.622337E+05  1.973485E+06  6.364416E+05  1.173553E+05 -1.026954E-09 -1.127748E-09
        30  13 -7.656349E+03  7.737513E+05  1.187470E+05  4.545132E+04 -1.077677E-09 -1.362164E-09
        30  14 -4.527495E+04  7.235180E+05  1.580918E+05  6.262516E+03 -8.773426E-11 -1.153409E-11
        30  15  2.640836E+05  7.735979E+05  3.401501E+05  4.647734E+04  1.700015E-09  1.613617E-09
        30  16 -2.602393E+05 -2.423575E+05 -1.273043E+05  8.061579E+04 -6.571972E-10 -4.706318E-10
        30  17 -3.199281E+05 -3.829911E+05 -1.095122E+05 -1.153186E+04  3.300508E-09 -1.961205E-09
        30  18 -3.415413E+04 -4.249728E+05  4.375501E+04 -2.426267E+04  1.476514E-09 -2.222681E-10
        30  19  2.448568E+05  1.790808E+06  3.647294E+05  1.022869E+04 -2.833917E+04  4.160683E+04
        30  20  2.292961E+05  1.831167E+06  4.256455E+05  2.408605E+04 -3.220255E+04  1.375590E+05
        30  21  5.622484E+05  1.973544E+06  6.365441E+05  1.173531E+05 -1.163325E+04  2.336134E+05
        30  22 -7.654857E+03  7.737541E+05  1.187529E+05  4.545022E+04 -2.835634E+04  4.840832E+04
        30  23 -4.526905E+04  7.235375E+05  1.581273E+05  6.259051E+03 -3.219821E+04  1.336527E+05
        30  24  2.640965E+05  7.736494E+05  3.402404E+05  4.647529E+04 -1.160458E+04  2.189839E+05
        30  25 -2.602376E+05 -2.423540E+05 -1.272971E+05  8.061452E+04 -2.837275E+04  5.519869E+04
        30  26 -3.199225E+05 -3.829727E+05 -1.094786E+05 -1.153522E+04 -3.219365E+04  1.297532E+05
        30  27 -3.414277E+04 -4.249279E+05  4.383381E+04 -2.426457E+04 -1.157257E+04  2.043823E+05
        31   1 -2.243187E+06 -4.638909E+05 -1.694056E+05 -8.236052E+05 -8.584940E+04 -3.073910E+04
        31   2 -2.214077E+06 -3.304401E+05 -8.705048E+04 -8.329988E+05 -5.546595E+04 -1.662580E+04
        31   3 -2.225695E+06 -3.310157E+05 -6.200149E+04 -8.217911E+05 -2.393309E+04 -5.577455E+03
        31   4 -2.125198E+06 -3.947604E+05 -1.322624E+05 -7.662552E+05 -8.427968E+04 -3.015482E+04
        31   5 -2.098176E+06 -2.800210E+05 -5.476518E+04 -7.944720E+05 -5.512749E+04 -1.649974E+04
        31   6 -2.111629E+06 -2.990498E+05 -3.358732E+04 -8.020903E+05 -2.482602E+04 -5.911580E+03
        31   7 -2.007193E+06 -3.256225E+05 -9.512088E+04 -7.088939E+05 -8.270966E+04 -2.957027E+04
        31   8 -1.982262E+06 -2.296000E+05 -2.248129E+04 -7.559383E+05 -5.478897E+04 -1.637365E+04
        31   9 -1.997550E+06 -2.670841E+05 -5.174075E+03 -7.823867E+05 -2.571913E+04 -6.245734E+03
        31  10 -2.243196E+06 -4.638939E+05 -1.694213E+05 -8.236074E+05 -5.710558E-10  2.131851E-10
        31  11 -2.214081E+06 -3.304412E+05 -8.705681E+04 -8.329996E+05 -6.732328E-09 -2.269798E-11
        31  12 -2.225696E+06 -3.310159E+05 -6.200263E+04 -8.217913E+05 -3.640876E-10  3.337675E-10
        31  13 -2.125205E+06 -3.947633E+05 -1.322775E+05 -7.662573E+05 -8.463180E-11  1.326327E-10
        31  14 -2.098179E+06 -2.800221E+05 -5.477143E+04 -7.944727E+05  3.134533E-09  3.253903E-10
        31  15 -2.111630E+06 -2.990500E+05 -3.358855E+04 -8.020904E+05  8.915285E-10  3.734988E-10
        31  16 -2.007201E+06 -3.256253E+05 -9.513543E+04 -7.088959E+05  2.149361E-09  2.240723E-10
        31  17 -1.982266E+06 -2.296011E+05 -2.248746E+04 -7.559390E+05  1.930891E-09  5.503602E-10
        31  18 -1.997551E+06 -2.670844E+05 -5.175397E+03 -7.823869E+05  4.156835E-09  5.251610E-10
        31  19 -2.243187E+06 -4.638909E+05 -1.694056E+05 -8.236052E+05  8.584940E+04  3.073910E+04
        31  20 -2.214077E+06 -3.304401E+05 -8.705048E+04 -8.329988E+05  5.546595E+04  1.662580E+04
        31  21 -2.225695E+06 -3.310157E+05 -6.200149E+04 -8.217911E+05  2.393309E+04  5.577455E+03
        31  22 -2.125198E+06 -3.947604E+05 -1.322624E+05 -7.662552E+05  8.427968E+04  3.015482E+04
        31  23 -2.098176E+06 -2.800210E+05 -5.476518E+04 -7.944720E+05  5.512749E+04  1.649974E+04
        31  24 -2.111629E+06 -2.990498E+05 -3.358732E+04 -8.020903E+05  2.482602E+04  5.911580E+03
        31  25 -2.007193E+06 -3.256225E+05 -9.512088E+04 -7.088939E+05  8.270966E+04  2.957027E+04
        31  26 -1.982262E+06 -2.296000E+05 -2.248129E+04 -7.559383E+05  5.478897E+04  1.637365E+04
        31  27 -1.997550E+06 -2.670841E+05 -5.174075E+03 -7.823867E+05  2.571913E+04  6.245734E+03
        32   1 -2.183475E+06 -3.451035E+05 -4.843890E+04 -8.177810E+05 -1.956911E+04 -4.879161E+03
        32   2 -2.170194E+06 -3.188375E+05 -2.957019E+04 -8.094335E+05 -1.254340E+04 -2.670073E+03
        32   3 -2.152542E+06 -3.184719E+05 -1.993012E+04 -8.098650E+05 -5.402740E+03 -7.669633E+02
        32   4 -2.107097E+06 -3.136044E+05 -2.743598E+04 -7.941862E+05 -1.965864E+04 -4.912832E+03
        32   5 -2.108478E+06 -2.949204E+05 -1.291908E+04 -7.919451E+05 -1.275553E+04 -2.749571E+03
        32   6 -2.105463E+06 -3.021115E+05 -7.532505E+03 -7.984832E+05 -5.737691E+03 -8.924099E+02
        32   7 -2.030712E+06 -2.821045E+05 -6.433506E+03 -7.705885E+05 -1.974818E+04 -4.946509E+03
        32   8 -2.046758E+06 -2.710032E+05  3.731673E+03 -7.744551E+05 -1.296768E+04 -2.829079E+03
        32   9 -2.058383E+06 -2.857512E+05  4.864844E+03 -7.871007E+05 -6.072668E+03 -1.017864E+03
        32  10 -2.183476E+06 -3.451036E+05 -4.843967E+04 -8.177811E+05  1.042624E-10  1.655000E-10
        32  11 -2.170194E+06 -3.188375E+05 -2.957050E+04 -8.094335E+05 -4.834479E-10 -1.460688E-10
        32  12 -2.152542E+06 -3.184719E+05 -1.993018E+04 -8.098650E+05 -1.952209E-09 -7.286703E-10
        32  13 -2.107097E+06 -3.136045E+05 -2.743675E+04 -7.941863E+05  4.235348E-09  3.363622E-10
        32  14 -2.108478E+06 -2.949205E+05 -1.291940E+04 -7.919451E+05 -6.452306E-10 -8.857015E-10
        32  15 -2.105463E+06 -3.021115E+05 -7.532568E+03 -7.984832E+05 -3.326689E-09 -1.244403E-10
        32  16 -2.030712E+06 -2.821047E+05 -6.434288E+03 -7.705886E+05  2.550998E-09  7.142144E-10
        32  17 -2.046758E+06 -2.710032E+05  3.731341E+03 -7.744551E+05  4.579032E-09 -6.026221E-10
        32  18 -2.058383E+06 -2.857512E+05  4.864773E+03 -7.871007E+05 -1.411301E-09  1.039679E-10
        32  19 -2.183475E+06 -3.451035E+05 -4.843890E+04 -8.177810E+05  1.956911E+04  4.879161E+03
        32  20 -2.170194E+06 -3.188375E+05 -2.957019E+04 -8.094335E+05  1.254340E+04  2.670073E+03
        32  21 -2.152542E+06 -3.184719E+05 -1.993012E+04 -8.098650E+05  5.402740E+03  7.669633E+02
        32  22 -2.107097E+06 -3.136044E+05 -2.743598E+04 -7.941862E+05  1.965864E+04  4.912832E+03
        32  23 -2.108478E+06 -2.949204E+05 -1.291908E+04 -7.919451E+05  1.275553E+04  2.749571E+03
        32  24 -2.105463E+06 -3.021115E+05 -7.532505E+03 -7.984832E+05  5.737691E+03  8.924099E+02
        32  25 -2.030712E+06 -2.821045E+05 -6.433506E+03 -7.705885E+05  1.974818E+04  4.946509E+03
        32  26 -2.046758E+06 -2.710032E+05  3.731673E+03 -7.744551E+05  1.296768E+04  2.829079E+03
        32  27 -2.058383E+06 -2.857512E+05  4.864844E+03 -7.871007E+05  6.072668E+03  1.017864E+03
        33   1 -2.121362E+06 -3.103771E+05 -1.035378E+04 -8.023618E+05 -4.221285E+03 -8.263588E+02
        33   2 -2.109987E+06 -2.967903E+05 -3.067474E+03 -7.916939E+05 -2.420565E+03 -8.988744E+02
        33   3 -2.088298E+06 -2.962135E+05  2.567518E+03 -7.934608E+05 -6.101671E+02 -9.970890E+02
        33   4 -2.104798E+06 -3.038720E+05 -5.920831E+03 -7.975659E+05 -4.480332E+03 -9.233820E+02
        33   5 -2.109859E+06 -2.966875E+05 -3.023205E+03 -7.916026E+05 -2.689945E+03 -9.997675E+02
        33   6 -2.104604E+06 -3.025110E+05 -1.768561E+03 -7.980743E+05 -8.899211E+02 -1.101869E+03
        33   7 -2.088234E+06 -2.973669E+05 -1.487897E+03 -7.927698E+05 -4.739388E+03 -1.020409E+03
        33   8 -2.109731E+06 -2.965847E+05 -2.978935E+03 -7.915113E+05 -2.959326E+03 -1.100661E+03
        33   9 -2.120910E+06 -3.088085E+05 -6.104698E+03 -8.026878E+05 -1.169669E+03 -1.206646E+03
        33  10 -2.121362E+06 -3.103771E+05 -1.035381E+04 -8.023618E+05  4.721140E-10  8.089838E-10
        33  11 -2.109987E+06 -2.967903E+05 -3.067486E+03 -7.916939E+05  4.053447E-09  9.993586E-10
        33  12 -2.088298E+06 -2.962135E+05  2.567515E+03 -7.934608E+05  1.776706E-09  3.261841E-10
        33  13 -2.104798E+06 -3.038720E+05 -5.920871E+03 -7.975659E+05 -4.578762E-09  4.552294E-10
        33  14 -2.109859E+06 -2.966875E+05 -3.023220E+03 -7.916026E+05 -1.082834E-09  1.363288E-09
        33  15 -2.104604E+06 -3.025110E+05 -1.768565E+03 -7.980743E+05 -3.791296E-10  6.877673E-10
        33  16 -2.088234E+06 -2.973669E+05 -1.487941E+03 -7.927698E+05 -1.779041E-09  3.380879E-10
        33  17 -2.109731E+06 -2.965847E+05 -2.978954E+03 -7.915113E+05  7.710463E-10  5.119565E-10
        33  18 -2.120910E+06 -3.088085E+05 -6.104703E+03 -8.026878E+05 -3.041819E-09  5.481253E-10
        33  19 -2.121362E+06 -3.103771E+05 -1.035378E+04 -8.023618E+05  4.221285E+03  8.263588E+02
        33  20 -2.109987E+06 -2.967903E+05 -3.067474E+03 -7.916939E+05  2.420565E+03  8.988744E+02
        33  21 -2.088298E+06 -2.962135E+05  2.567518E+03 -7.934608E+05  6.101671E+02  9.970890E+02
        33  22 -2.104798E+06 -3.038720E+05 -5.920831E+03 -7.975659E+05  4.480332E+03  9.233820E+02
        33  23 -2.109859E+06 -2.966875E+05 -3.023205E+03 -7.916026E+05  2.689945E+03  9.997675E+02
        33  24 -2.104604E+06 -3.025110E+05 -1.768561E+03 -7.980743E+05  8.899211E+02  1.101869E+03
        33  25 -2.088234E+06 -2.973669E+05 -1.487897E+03 -7.927698E+05  4.739388E+03  1.020409E+03
        33  26 -2.109731E+06 -2.965847E+05 -2.978935E+03 -7.915113E+05  2.959326E+03  1.100661E+03
        33  27 -2.120910E+06 -3.088085E+05 -6.104698E+03 -8.026878E+05  1.169669E+03  1.206646E+03
        34   1 -2.058952E+06 -2.854803E+05  1.087270E+04 -7.855077E+05 -2.066722E+02 -1.302558E+03
        34   2 -2.048187E+06 -2.737585E+05  1.565936E+04 -7.748909E+05  4.786793E+02 -1.808444E+03
        34   3 -2.026674E+06 -2.731777E+05  2.005638E+04 -7.767237E+05  1.158403E+03 -2.298974E+03
        34   4 -2.104586E+06 -3.026348E+05 -1.401826E+03 -7.978765E+05 -4.794485E+02 -1.404735E+03
        34   5 -2.109950E+06 -2.969992E+05 -8.748665E+02 -7.916764E+05  2.120541E+02 -1.908340E+03
        34   6 -2.104569E+06 -3.025056E+05 -7.423744E+02 -7.979257E+05  8.979173E+02 -2.396593E+03
        34   7 -2.150217E+06 -3.197890E+05 -1.367645E+04 -8.102445E+05 -7.522007E+02 -1.506902E+03
        34   8 -2.171710E+06 -3.202395E+05 -1.740937E+04 -8.084602E+05 -5.454081E+01 -2.008225E+03
        34   9 -2.182458E+06 -3.318331E+05 -2.154164E+04 -8.191253E+05  6.374680E+02 -2.494198E+03
        34  10 -2.058952E+06 -2.854803E+05  1.087270E+04 -7.855077E+05  7.130123E-10 -5.138475E-10
        34  11 -2.048187E+06 -2.737585E+05  1.565936E+04 -7.748909E+05 -1.307201E-09 -9.300850E-10
        34  12 -2.026674E+06 -2.731777E+05  2.005637E+04 -7.767237E+05 -1.264003E-09 -1.399339E-09
        34  13 -2.104586E+06 -3.026348E+05 -1.401830E+03 -7.978765E+05 -2.699773E-10 -4.135468E-10
        34  14 -2.109950E+06 -2.969992E+05 -8.748734E+02 -7.916764E+05  2.701267E-09  2.559437E-10
        34  15 -2.104569E+06 -3.025056E+05 -7.423866E+02 -7.979257E+05  3.684135E-09 -3.172810E-10
        34  16 -2.150217E+06 -3.197891E+05 -1.367646E+04 -8.102445E+05 -1.119646E-09  8.796777E-10
        34  17 -2.171710E+06 -3.202395E+05 -1.740937E+04 -8.084602E+05  2.927594E-09  2.787901E-10
        34  18 -2.182458E+06 -3.318331E+05 -2.154166E+04 -8.191253E+05  2.413060E-09 -7.784957E-10
        34  19 -2.058952E+06 -2.854803E+05  1.087270E+04 -7.855077E+05  2.066722E+02  1.302558E+03
        34  20 -2.048187E+06 -2.737585E+05  1.565936E+04 -7.748909E+05 -4.786793E+02  1.808444E+03
        34  21 -2.026674E+06 -2.731777E+05  2.005638E+04 -7.767237E+05 -1.158403E+03  2.298974E+03
        34  22 -2.104586E+06 -3.026348E+05 -1.401826E+03 -7.978765E+05  4.794485E+02  1.404735E+03
        34  23 -2.109950E+06 -2.969992E+05 -8.748665E+02 -7.916764E+05 -2.120541E+02  1.908340E+03
        34  24 -2.104569E+06 -3.025056E+05 -7.423744E+02 -7.979257E+05 -8.979173E+02  2.396593E+03
        34  25 -2.150217E+06 -3.197890E+05 -1.367645E+04 -8.102445E+05  7.522007E+02  1.506902E+03
        34  26 -2.171710E+06 -3.202395E+05 -1.740937E+04 -8.084602E+05  5.454081E+01  2.008225E+03
        34  27 -2.182458E+06 -3.318331E+05 -2.154164E+04 -8.191253E+05 -6.374680E+02  2.494198E+03
        35   1 -1.999103E+06 -2.625551E+05  2.757812E+04 -7.690149E+05  1.424826E+03 -2.629560E+03
        35   2 -1.989230E+06 -2.518864E+05  3.124325E+04 -7.591925E+05  2.153485E+03 -3.071928E+03
        35   3 -1.969486E+06 -2.515260E+05  3.446808E+04 -7.607915E+05  2.867198E+03 -3.473749E+03
        35   4 -2.104764E+06 -3.023029E+05 -7.645178E+02 -7.977051E+05  1.163607E+03 -2.727481E+03
        35   5 -2.109711E+06 -2.972424E+05 -1.012632E+03 -7.919588E+05  1.908506E+03 -3.163810E+03
        35   6 -2.104792E+06 -3.024939E+05 -1.714067E+03 -7.976342E+05  2.638443E+03 -3.559592E+03
        35   7 -2.210414E+06 -3.420501E+05 -2.910821E+04 -8.263911E+05  9.024377E+02 -2.825384E+03
        35   8 -2.230179E+06 -3.425977E+05 -3.326983E+04 -8.247193E+05  1.663579E+03 -3.255672E+03
        35   9 -2.240081E+06 -3.534608E+05 -3.789783E+04 -8.344696E+05  2.409743E+03 -3.645414E+03
        35  10 -1.999103E+06 -2.625551E+05  2.757810E+04 -7.690149E+05  2.586256E-10 -6.742843E-10
        35  11 -1.989230E+06 -2.518864E+05  3.124323E+04 -7.591925E+05  1.200595E-09  1.081049E-10
        35  12 -1.969486E+06 -2.515260E+05  3.446804E+04 -7.607915E+05  1.883749E-09  2.228550E-10
        35  13 -2.104764E+06 -3.023029E+05 -7.645343E+02 -7.977051E+05 -3.156706E-10 -6.965910E-10
        35  14 -2.109711E+06 -2.972425E+05 -1.012657E+03 -7.919588E+05 -2.364668E-10  1.421038E-09
        35  15 -2.104792E+06 -3.024939E+05 -1.714104E+03 -7.976342E+05  9.772131E-11  2.450828E-10
        35  16 -2.210414E+06 -3.420501E+05 -2.910823E+04 -8.263911E+05  3.379155E-09  3.311258E-11
        35  17 -2.230179E+06 -3.425977E+05 -3.326986E+04 -8.247193E+05  1.371381E-09  6.506373E-10
        35  18 -2.240081E+06 -3.534608E+05 -3.789786E+04 -8.344696E+05 -4.337533E-09  4.792493E-10
        35  19 -1.999103E+06 -2.625551E+05  2.757812E+04 -7.690149E+05 -1.424826E+03  2.629560E+03
        35  20 -1.989230E+06 -2.518864E+05  3.124325E+04 -7.591925E+05 -2.153485E+03  3.071928E+03
        35  21 -1.969486E+06 -2.515260E+05  3.446808E+04 -7.607915E+05 -2.867198E+03  3.473749E+03
        35  22 -2.104764E+06 -3.023029E+05 -7.645178E+02 -7.977051E+05 -1.163607E+03  2.727481E+03
        35  23 -2.109711E+06 -2.972424E+05 -1.012632E+03 -7.919588E+05 -1.908506E+03  3.163810E+03
        35  24 -2.104792E+06 -3.024939E+05 -1.714067E+03 -7.976342E+05 -2.638443E+03  3.559592E+03
        35  25 -2.210414E+06 -3.420501E+05 -2.910821E+04 -8.263911E+05 -9.024377E+02  2.825384E+03
        35  26 -2.230179E+06 -3.425977E+05 -3.326983E+04 -8.247193E+05 -1.663579E+03  3.255672E+03
        35  27 -2.240081E+06 -3.534608E+05 -3.789783E+04 -8.344696E+05 -2.409743E+03  3.645414E+03
        36   1 -1.945057E+06 -2.418399E+05  4.070699E+04 -7.540856E+05  3.328323E+03 -3.690708E+03
        36   2 -1.936422E+06 -2.322355E+05  4.246751E+04 -7.453611E+05  5.427730E+03 -3.530457E+03
        36   3 -1.920206E+06 -2.335095E+05  4.221578E+04 -7.459743E+05  7.490141E+03 -3.270749E+03
        36   4 -2.105207E+06 -3.019362E+05 -2.184514E+03 -7.974290E+05  3.086229E+03 -3.781591E+03
        36   5 -2.109115E+06 -2.973524E+05 -3.785047E+03 -7.924378E+05  5.225206E+03 -3.606556E+03
        36   6 -2.105451E+06 -3.036555E+05 -7.429689E+03 -7.967845E+05  7.327145E+03 -3.332065E+03
        36   7 -2.265332E+06 -3.620309E+05 -4.507817E+04 -8.407622E+05  2.844203E+03 -3.872448E+03
        36   8 -2.281780E+06 -3.624676E+05 -5.004023E+04 -8.395027E+05  5.022744E+03 -3.682631E+03
        36   9 -2.290663E+06 -3.737995E+05 -5.707831E+04 -8.475810E+05  7.164202E+03 -3.393362E+03
        36  10 -1.945057E+06 -2.418399E+05  4.070694E+04 -7.540856E+05  7.347389E-10 -2.666724E-11
        36  11 -1.936422E+06 -2.322355E+05  4.246743E+04 -7.453611E+05  5.608361E-10 -7.335801E-10
        36  12 -1.920206E+06 -2.335095E+05  4.221566E+04 -7.459743E+05 -2.000881E-09 -7.613511E-10
        36  13 -2.105207E+06 -3.019362E+05 -2.184558E+03 -7.974290E+05 -3.561733E-09 -6.267838E-10
        36  14 -2.109115E+06 -2.973524E+05 -3.785122E+03 -7.924378E+05 -2.514971E-09 -8.472886E-10
        36  15 -2.105451E+06 -3.036555E+05 -7.429811E+03 -7.967844E+05 -1.904080E-09 -1.496429E-10
        36  16 -2.265332E+06 -3.620309E+05 -4.507821E+04 -8.407622E+05 -4.733721E-10 -4.714489E-10
        36  17 -2.281780E+06 -3.624676E+05 -5.004030E+04 -8.395027E+05  1.130436E-09 -7.782685E-10
        36  18 -2.290663E+06 -3.737995E+05 -5.707842E+04 -8.475810E+05  1.782855E-10  4.949765E-10
        36  19 -1.945057E+06 -2.418399E+05  4.070699E+04 -7.540856E+05 -3.328323E+03  3.690708E+03
        36  20 -1.936422E+06 -2.322355E+05  4.246751E+04 -7.453611E+05 -5.427730E+03  3.530457E+03
        36  21 -1.920206E+06 -2.335095E+05  4.221578E+04 -7.459743E+05 -7.490141E+03  3.270749E+03
        36  22 -2.105207E+06 -3.019362E+05 -2.184514E+03 -7.974290E+05 -3.086229E+03  3.781591E+03
        36  23 -2.109115E+06 -2.973524E+05 -3.785047E+03 -7.924378E+05 -5.225206E+03  3.606556E+03
        36  24 -2.105451E+06 -3.036555E+05 -7.429689E+03 -7.967845E+05 -7.327145E+03  3.332065E+03
        36  25 -2.265332E+06 -3.620309E+05 -4.507817E+04 -8.407622E+05 -2.844203E+03  3.872448E+03
        36  26 -2.281780E+06 -3.624676E+05 -5.004023E+04 -8.395027E+05 -5.022744E+03  3.682631E+03
        36  27 -2.290663E+06 -3.737995E+05 -5.707831E+04 -8.475810E+05 -7.164202E+03  3.393362E+03
        37   1 -1.899545E+06 -2.247914E+05  4.569825E+04 -7.429328E+05  9.125238E+03 -3.055450E+03
        37   2 -1.891836E+06 -2.135762E+05  4.153556E+04 -7.338208E+05  1.756603E+04 -3.968322E+02
        37   3 -1.885430E+06 -2.278686E+05  2.609932E+04 -7.277231E+05  2.579386E+04  2.829264E+03
        37   4 -2.106611E+06 -3.011083E+05 -9.455826E+03 -7.975597E+05  8.828517E+03 -3.166989E+03
        37   5 -2.106967E+06 -2.955458E+05 -1.623723E+04 -7.933457E+05  1.749537E+04 -4.235832E+02
        37   6 -2.108671E+06 -3.155402E+05 -3.447482E+04 -7.921456E+05  2.594908E+04  2.887259E+03
        37   7 -2.313637E+06 -3.774231E+05 -6.461363E+04 -8.521704E+05  8.531905E+03 -3.278489E+03
        37   8 -2.322052E+06 -3.775123E+05 -7.401404E+04 -8.528517E+05  1.742473E+04 -4.503242E+02
        37   9 -2.331864E+06 -4.032075E+05 -9.505331E+04 -8.565466E+05  2.610424E+04  2.945229E+03
        37  10 -1.899545E+06 -2.247914E+05  4.569808E+04 -7.429328E+05 -1.623183E-09 -2.014381E-10
        37  11 -1.891837E+06 -2.135763E+05  4.153498E+04 -7.338208E+05 -2.632408E-09 -3.404273E-10
        37  12 -1.885431E+06 -2.278688E+05  2.609805E+04 -7.277231E+05 -3.370493E-09  1.539992E-10
        37  13 -2.106612E+06 -3.011083E+05 -9.455992E+03 -7.975597E+05 -2.268626E-09  3.191090E-10
        37  14 -2.106967E+06 -2.955459E+05 -1.623780E+04 -7.933457E+05  1.699548E-10 -8.181524E-10
        37  15 -2.108672E+06 -3.155404E+05 -3.447611E+04 -7.921456E+05  2.246088E-09  1.133018E-09
        37  16 -2.313637E+06 -3.774231E+05 -6.461379E+04 -8.521704E+05  1.309317E-10  3.969809E-10
        37  17 -2.322052E+06 -3.775124E+05 -7.401461E+04 -8.528517E+05  8.334924E-10 -9.703999E-10
        37  18 -2.331865E+06 -4.032077E+05 -9.505461E+04 -8.565466E+05  9.001975E-10  1.768929E-09
        37  19 -1.899545E+06 -2.247914E+05  4.569825E+04 -7.429328E+05 -9.125238E+03  3.055450E+03
        37  20 -1.891836E+06 -2.135762E+05  4.153556E+04 -7.338208E+05 -1.756603E+04  3.968322E+02
        37  21 -1.885430E+06 -2.278686E+05  2.609932E+04 -7.277231E+05 -2.579386E+04 -2.829264E+03
        37  22 -2.106611E+06 -3.011083E+05 -9.455826E+03 -7.975597E+05 -8.828517E+03  3.166989E+03
        37  23 -2.106967E+06 -2.955458E+05 -1.623723E+04 -7.933457E+05 -1.749537E+04  4.235832E+02
        37  24 -2.108671E+06 -3.155402E+05 -3.447482E+04 -7.921456E+05 -2.594908E+04 -2.887259E+03
        37  25 -2.313637E+06 -3.774231E+05 -6.461363E+04 -8.521704E+05 -8.531905E+03  3.278489E+03
        37  26 -2.322052E+06 -3.775123E+05 -7.401404E+04 -8.528517E+05 -1.742473E+04  4.503242E+02
        37  27 -2.331864E+06 -4.032075E+05 -9.505331E+04 -8.565466E+05 -2.610424E+04 -2.945229E+03
        38   1 -1.863862E+06 -2.162839E+05  2.220456E+04 -7.476319E+05  3.366800E+04  4.670545E+03
        38   2 -1.852727E+06 -1.776697E+05 -2.738375E+03 -7.223242E+05  6.941455E+04  1.767293E+04
        38   3 -1.900126E+06 -2.984855E+05 -9.671192E+04 -6.616940E+05  1.031419E+05  3.604435E+04
        38   4 -2.114600E+06 -2.970152E+05 -4.220626E+04 -8.018125E+05  3.242059E+04  4.202171E+03
        38   5 -2.093692E+06 -2.771481E+05 -6.883144E+04 -7.968939E+05  7.031839E+04  1.801159E+04
        38   6 -2.131771E+06 -4.171784E+05 -1.662176E+05 -7.566464E+05  1.061970E+05  3.718800E+04
        38   7 -2.365278E+06 -3.777467E+05 -1.066222E+05 -8.559753E+05  3.117374E+04  3.733934E+03
        38   8 -2.334601E+06 -3.766199E+05 -1.349299E+05 -8.714364E+05  7.122184E+04  1.835006E+04
        38   9 -2.363361E+06 -5.358532E+05 -2.357285E+05 -8.515621E+05  1.092509E+05  3.833079E+04
        38  10 -1.863864E+06 -2.162843E+05  2.220239E+04 -7.476320E+05 -3.852380E-10  1.097822E-09
        38  11 -1.852732E+06 -1.776714E+05 -2.748050E+03 -7.223252E+05 -8.185099E-12 -2.362102E-10
        38  12 -1.900137E+06 -2.984898E+05 -9.673443E+04 -6.616970E+05  6.553965E-10 -3.816375E-11
        38  13 -2.114601E+06 -2.970155E+05 -4.220827E+04 -8.018126E+05 -2.107604E-09  1.645896E-09
        38  14 -2.093697E+06 -2.771498E+05 -6.884138E+04 -7.968950E+05 -1.579356E-09  3.925260E-10
        38  15 -2.131783E+06 -4.171829E+05 -1.662415E+05 -7.566496E+05  3.803149E-10 -3.166342E-11
        38  16 -2.365279E+06 -3.777470E+05 -1.066241E+05 -8.559754E+05  2.103333E-09  7.738360E-10
        38  17 -2.334606E+06 -3.766216E+05 -1.349401E+05 -8.714374E+05  2.100820E-09 -1.093723E-10
        38  18 -2.363374E+06 -5.358580E+05 -2.357538E+05 -8.515655E+05  2.251050E-09 -2.901905E-10
        38  19 -1.863862E+06 -2.162839E+05  2.220456E+04 -7.476319E+05 -3.366800E+04 -4.670545E+03
        38  20 -1.852727E+06 -1.776697E+05 -2.738375E+03 -7.223242E+05 -6.941455E+04 -1.767293E+04
        38  21 -1.900126E+06 -2.984855E+05 -9.671192E+04 -6.616940E+05 -1.031419E+05 -3.604435E+04
        38  22 -2.114600E+06 -2.970152E+05 -4.220626E+04 -8.018125E+05 -3.242059E+04 -4.202171E+03
        38  23 -2.093692E+06 -2.771481E+05 -6.883144E+04 -7.968939E+05 -7.031839E+04 -1.801159E+04
        38  24 -2.131771E+06 -4.171784E+05 -1.662176E+05 -7.566464E+05 -1.061970E+05 -3.718800E+04
        38  25 -2.365278E+06 -3.777467E+05 -1.066222E+05 -8.559753E+05 -3.117374E+04 -3.733934E+03
        38  26 -2.334601E+06 -3.766199E+05 -1.349299E+05 -8.714364E+05 -7.122184E+04 -1.835006E+04
        38  27 -2.363361E+06 -5.358532E+05 -2.357285E+05 -8.515621E+05 -1.092509E+05 -3.833079E+04
        39   1 -5.064035E+05  1.253467E+05  1.597149E+05  3.473277E+04  1.091270E+05  6.110045E+00
        39   2 -5.289953E+05 -2.082062E+04  6.946673E+04  9.736157E+03  7.152238E+04  1.122563E+00
        39   3 -5.064427E+05 -6.056038E+03  4.395467E+04 -1.525957E+04  3.391740E+04 -8.343162E-01
        39   4 -5.064048E+05  1.253444E+05  1.597146E+05  1.497894E-08  1.091270E+05 -2.944645E-11
        39   5 -5.289954E+05 -2.082079E+04  6.946670E+04  2.587158E-09  7.152238E+04  7.145954E-10
        39   6 -5.064429E+05 -6.056476E+03  4.395461E+04  2.142061E-08  3.391740E+04  3.377958E-10
        39   7 -5.064035E+05  1.253467E+05  1.597149E+05 -3.473277E+04  1.091270E+05 -6.110045E+00
        39   8 -5.289953E+05 -2.082062E+04  6.946673E+04 -9.736157E+03  7.152238E+04 -1.122563E+00
        39   9 -5.064427E+05 -6.056038E+03  4.395467E+04  1.525957E+04  3.391740E+04  8.343162E-01
        39  10 -5.064163E+05  1.253435E+05  1.596925E+05  3.473277E+04 -1.308519E-10  4.669803E-10
        39  11 -5.290008E+05 -2.082199E+04  6.945711E+04  9.736157E+03 -1.553192E-09  5.544324E-10
        39  12 -5.064439E+05 -6.056347E+03  4.395251E+04 -1.525957E+04 -1.796079E-09 -2.484869E-10
        39  13 -5.064176E+05  1.253412E+05  1.596922E+05 -2.228733E-09 -1.093660E-09  1.423643E-10
        39  14 -5.290009E+05 -2.082217E+04  6.945708E+04 -6.033814E-09 -7.847113E-10  2.787681E-10
        39  15 -5.064441E+05 -6.056785E+03  4.395245E+04  5.230747E-09 -1.088966E-09 -2.503444E-10
        39  16 -5.064163E+05  1.253435E+05  1.596925E+05 -3.473277E+04 -9.796149E-10 -3.180067E-11
        39  17 -5.290008E+05 -2.082199E+04  6.945711E+04 -9.736157E+03  9.730733E-10 -2.415757E-11
        39  18 -5.064439E+05 -6.056347E+03  4.395251E+04  1.525957E+04  7.778266E-10 -2.952145E-10
        39  19 -5.064035E+05  1.253467E+05  1.597149E+05  3.473277E+04 -1.091270E+05 -6.110045E+00
        39  20 -5.289953E+05 -2.082062E+04  6.946673E+04  9.736157E+03 -7.152238E+04 -1.122563E+00
        39  21 -5.064427E+05 -6.056038E+03  4.395467E+04 -1.525957E+04 -3.391740E+04  8.343162E-01
        39  22 -5.064048E+05  1.253444E+05  1.597146E+05  1.501939E-08 -1.091270E+05  3.195472E-10
        39  23 -5.289954E+05 -2.082079E+04  6.946670E+04  6.877622E-09 -7.152238E+04 -2.333266E-10
        39  24 -5.064429E+05 -6.056476E+03  4.395461E+04  3.373100E-08 -3.391740E+04 -8.097540E-10
        39  25 -5.064035E+05  1.253467E+05  1.597149E+05 -3.473277E+04 -1.091270E+05  6.110045E+00
        39  26 -5.289953E+05 -2.082062E+04  6.946673E+04 -9.736157E+03 -7.152238E+04  1.122563E+00
        39  27 -5.064427E+05 -6.056038E+03  4.395467E+04  1.525957E+04 -3.391740E+04 -8.343162E-01
        40   1 -5.151547E+05  1.454347E+04  3.599608E+04  3.695892E+03  2.698491E+04  1.607726E-01
        40   2 -5.181104E+05 -2.462178E+03  1.803266E+04  9.174667E+02  1.769482E+04  2.617034E-02
        40   3 -5.151606E+05 -6.926423E+02  1.081533E+04 -1.860921E+03  8.404940E+03 -2.521351E-02
        40   4 -5.151548E+05  1.454344E+04  3.599608E+04  1.465758E-08  2.698491E+04  6.593885E-10
        40   5 -5.181104E+05 -2.462179E+03  1.803266E+04  1.722592E-08  1.769482E+04  8.097840E-10
        40   6 -5.151606E+05 -6.926489E+02  1.081533E+04  1.225701E-08  8.404940E+03 -3.784097E-10
        40   7 -5.151547E+05  1.454347E+04  3.599608E+04 -3.695892E+03  2.698491E+04 -1.607726E-01
        40   8 -5.181104E+05 -2.462178E+03  1.803266E+04 -9.174667E+02  1.769482E+04 -2.617034E-02
        40   9 -5.151606E+05 -6.926423E+02  1.081533E+04  1.860921E+03  8.404940E+03  2.521351E-02
        40  10 -5.151555E+05  1.454327E+04  3.599471E+04  3.695892E+03 -3.561297E-09 -1.796906E-10
        40  11 -5.181108E+05 -2.462262E+03  1.803207E+04  9.174667E+02 -3.657208E-09  3.861772E-10
        40  12 -5.151607E+05 -6.926613E+02  1.081519E+04 -1.860921E+03 -3.694319E-09 -1.458944E-10
        40  13 -5.151555E+05  1.454324E+04  3.599471E+04 -2.533602E-09 -1.076776E-09 -1.918269E-10
        40  14 -5.181108E+05 -2.462263E+03  1.803207E+04  1.507165E-08 -1.068356E-09  2.022112E-10
        40  15 -5.151607E+05 -6.926678E+02  1.081519E+04  8.991823E-09 -6.889606E-09 -1.480156E-10
        40  16 -5.151555E+05  1.454327E+04  3.599471E+04 -3.695892E+03 -7.887004E-10 -2.890357E-10
        40  17 -5.181108E+05 -2.462262E+03  1.803207E+04 -9.174667E+02 -4.110657E-09  5.610890E-11
        40  18 -5.151607E+05 -6.926613E+02  1.081519E+04  1.860921E+03 -3.107310E-10 -8.771263E-11
        40  19 -5.151547E+05  1.454347E+04  3.599608E+04  3.695892E+03 -2.698491E+04 -1.607726E-01
        40  20 -5.181104E+05 -2.462178E+03  1.803266E+04  9.174667E+02 -1.769482E+04 -2.617034E-02
        40  21 -5.151606E+05 -6.926423E+02  1.081533E+04 -1.860921E+03 -8.404940E+03  2.521351E-02
        40  22 -5.151548E+05  1.454344E+04  3.599608E+04  3.195835E-08 -2.698491E+04 -1.036743E-09
        40  23 -5.181104E+05 -2.462179E+03  1.803266E+04  1.292001E-08 -1.769482E+04 -3.745627E-10
        40  24 -5.151606E+05 -6.926489E+02  1.081533E+04  3.372280E-08 -8.404940E+03  2.487270E-11
        40  25 -5.151547E+05  1.454347E+04  3.599608E+04 -3.695892E+03 -2.698491E+04  1.607726E-01
        40  26 -5.181104E+05 -2.462178E+03  1.803266E+04 -9.174667E+02 -1.769482E+04  2.617034E-02
        40  27 -5.151606E+05 -6.926423E+02  1.081533E+04  1.860921E+03 -8.404940E+03 -2.521351E-02
        41   1 -5.162848E+05  1.666591E+03  8.500121E+03  3.395428E+02  6.690886E+03  3.662263E-03
        41   2 -5.167070E+05 -2.936998E+02  4.556862E+03  5.165823E+01  4.396057E+03  3.660779E-04
        41   3 -5.162858E+05 -7.713310E+01  2.652841E+03 -2.362311E+02  2.101200E+03 -8.001566E-04
        41   4 -5.162848E+05  1.666591E+03  8.500121E+03 -4.873533E-09  6.690886E+03 -8.778866E-10
        41   5 -5.167070E+05 -2.936998E+02  4.556862E+03 -1.144873E-08  4.396057E+03 -3.210298E-10
        41   6 -5.162858E+05 -7.713320E+01  2.652841E+03 -1.336714E-09  2.101200E+03  8.966207E-10
        41   7 -5.162848E+05  1.666591E+03  8.500121E+03 -3.395428E+02  6.690886E+03 -3.662265E-03
        41   8 -5.167070E+05 -2.936998E+02  4.556862E+03 -5.165823E+01  4.396057E+03 -3.660789E-04
        41   9 -5.162858E+05 -7.713310E+01  2.652841E+03  2.362311E+02  2.101200E+03  8.001585E-04
        41  10 -5.162848E+05  1.666579E+03  8.500037E+03  3.395428E+02 -2.761390E-09 -5.843935E-10
        41  11 -5.167070E+05 -2.937050E+02  4.556826E+03  5.165823E+01 -3.189662E-10 -1.968497E-10
        41  12 -5.162858E+05 -7.713428E+01  2.652832E+03 -2.362311E+02  7.280068E-10  9.233649E-10
        41  13 -5.162848E+05  1.666579E+03  8.500037E+03 -8.169592E-09 -2.145103E-09 -3.323458E-10
        41  14 -5.167070E+05 -2.937050E+02  4.556826E+03 -9.701330E-09 -1.170289E-09  1.687377E-11
        41  15 -5.162858E+05 -7.713439E+01  2.652832E+03 -4.624331E-10  8.782628E-11  5.630948E-10
        41  16 -5.162848E+05  1.666579E+03  8.500037E+03 -3.395428E+02  4.954187E-10  2.166991E-11
        41  17 -5.167070E+05 -2.937050E+02  4.556826E+03 -5.165823E+01 -2.958064E-09  2.416475E-10
        41  18 -5.162858E+05 -7.713428E+01  2.652832E+03  2.362311E+02 -2.016548E-09  2.070920E-10
        41  19 -5.162848E+05  1.666591E+03  8.500121E+03  3.395428E+02 -6.690886E+03 -3.662264E-03
        41  20 -5.167070E+05 -2.936998E+02  4.556862E+03  5.165823E+01 -4.396057E+03 -3.660781E-04
        41  21 -5.162858E+05 -7.713310E+01  2.652841E+03 -2.362311E+02 -2.101200E+03  8.001583E-04
        41  22 -5.162848E+05  1.666591E+03  8.500121E+03  1.437235E-08 -6.690886E+03  2.261606E-10
        41  23 -5.167070E+05 -2.936998E+02  4.556862E+03  6.579525E-10 -4.396057E+03  4.004541E-10
        41  24 -5.162858E+05 -7.713320E+01  2.652841E+03  3.324376E-08 -2.101200E+03  2.165355E-10
        41  25 -5.162848E+05  1.666591E+03  8.500121E+03 -3.395428E+02 -6.690886E+03  3.662265E-03
        41  26 -5.167070E+05 -2.936998E+02  4.556862E+03 -5.165823E+01 -4.396057E+03  3.660790E-04
        41  27 -5.162858E+05 -7.713310E+01  2.652841E+03  2.362311E+02 -2.101200E+03 -8.001580E-04
        42   1 -5.164438E+05  1.858713E+02  2.031882E+03  1.569478E+01  1.680863E+03  4.252718E-05
        42   2 -5.165100E+05 -3.489526E+01  1.093776E+03 -8.519795E+00  1.135756E+03 -1.559951E-05
        42   3 -5.164441E+05 -1.139915E+01  5.718485E+02 -3.273438E+01  5.906483E+02 -3.116652E-05
        42   4 -5.164438E+05  1.858713E+02  2.031882E+03  5.359111E-08  1.680863E+03  4.875273E-10
        42   5 -5.165100E+05 -3.489526E+01  1.093776E+03  8.528742E-10  1.135756E+03 -5.709158E-10
        42   6 -5.164441E+05 -1.139915E+01  5.718485E+02 -5.188723E-08  5.906483E+02  1.571202E-09
        42   7 -5.164438E+05  1.858713E+02  2.031882E+03 -1.569478E+01  1.680863E+03 -4.252615E-05
        42   8 -5.165100E+05 -3.489526E+01  1.093776E+03  8.519795E+00  1.135756E+03  1.559832E-05
        42   9 -5.164441E+05 -1.139915E+01  5.718485E+02  3.273438E+01  5.906483E+02  3.116966E-05
        42  10 -5.164438E+05  1.858705E+02  2.031877E+03  1.569478E+01 -2.031490E-09  7.939819E-11
        42  11 -5.165100E+05 -3.489561E+01  1.093774E+03 -8.519795E+00  4.746214E-09 -1.495549E-09
        42  12 -5.164441E+05 -1.139925E+01  5.718478E+02 -3.273438E+01  6.565489E-09  9.239432E-10
        42  13 -5.164438E+05  1.858705E+02  2.031877E+03 -9.615663E-09 -8.983955E-10 -1.825649E-10
        42  14 -5.165100E+05 -3.489561E+01  1.093774E+03 -1.116444E-08 -2.246885E-09 -1.092448E-09
        42  15 -5.164441E+05 -1.139925E+01  5.718478E+02  2.062091E-10 -3.709812E-10  1.432040E-09
        42  16 -5.164438E+05  1.858705E+02  2.031877E+03 -1.569478E+01  1.382475E-09 -4.106327E-10
        42  17 -5.165100E+05 -3.489561E+01  1.093774E+03  8.519795E+00 -3.751884E-09 -7.560922E-10
        42  18 -5.164441E+05 -1.139925E+01  5.718478E+02  3.273438E+01 -7.774209E-09  1.922701E-09
        42  19 -5.164438E+05  1.858713E+02  2.031882E+03  1.569478E+01 -1.680863E+03 -4.252687E-05
        42  20 -5.165100E+05 -3.489526E+01  1.093776E+03 -8.519795E+00 -1.135756E+03  1.559681E-05
        42  21 -5.164441E+05 -1.139915E+01  5.718485E+02 -3.273438E+01 -5.906483E+02  3.116846E-05
        42  22 -5.164438E+05  1.858713E+02  2.031882E+03 -2.544783E-08 -1.680863E+03 -8.706388E-10
        42  23 -5.165100E+05 -3.489526E+01  1.093776E+03 -2.318359E-08 -1.135756E+03 -1.694328E-09
        42  24 -5.164441E+05 -1.139915E+01  5.718485E+02  6.037553E-08 -5.906483E+02  1.281689E-09
        42  25 -5.164438E+05  1.858713E+02  2.031882E+03 -1.569478E+01 -1.680863E+03  4.252509E-05
        42  26 -5.165100E+05 -3.489526E+01  1.093776E+03  8.519795E+00 -1.135756E+03 -1.560001E-05
        42  27 -5.164441E+05 -1.139915E+01  5.718485E+02  3.273438E+01 -5.906483E+02 -3.116605E-05
        43   1 -5.164733E+05  2.080028E+01  3.866129E+02 -9.594334E+00  5.041811E+02 -7.795795E-06
        43   2 -5.164737E+05  1.923888E+00  7.963682E+01 -5.731048E+00  4.652116E+02 -4.297301E-06
        43   3 -5.164733E+05 -3.404552E+01 -2.062285E+02 -1.867818E+00  4.262426E+02 -1.284211E-06
        43   4 -5.164733E+05  2.080028E+01  3.866129E+02  8.313909E-08  5.041811E+02  2.081536E-09
        43   5 -5.164737E+05  1.923887E+00  7.963682E+01  4.769534E-10  4.652116E+02  2.048516E-10
        43   6 -5.164733E+05 -3.404552E+01 -2.062285E+02 -3.043797E-09  4.262426E+02 -1.088017E-09
        43   7 -5.164733E+05  2.080028E+01  3.866129E+02  9.594334E+00  5.041811E+02  7.799893E-06
        43   8 -5.164737E+05  1.923888E+00  7.963682E+01  5.731048E+00  4.652116E+02  4.297525E-06
        43   9 -5.164733E+05 -3.404552E+01 -2.062285E+02  1.867818E+00  4.262426E+02  1.282219E-06
        43  10 -5.164733E+05  2.080021E+01  3.866125E+02 -9.594334E+00 -8.324303E-09  1.780870E-09
        43  11 -5.164737E+05  1.923829E+00  7.963641E+01 -5.731048E+00 -6.312444E-09 -5.315141E-11
        43  12 -5.164733E+05 -3.404557E+01 -2.062288E+02 -1.867818E+00  2.452305E-09 -9.561830E-10
        43  13 -5.164733E+05  2.080021E+01  3.866125E+02  2.580709E-08  2.035047E-10  1.923249E-09
        43  14 -5.164737E+05  1.923829E+00  7.963641E+01  2.118670E-09 -1.966818E-09 -2.734363E-10
        43  15 -5.164733E+05 -3.404557E+01 -2.062288E+02  4.273300E-09  9.481428E-10 -1.190026E-09
        43  16 -5.164733E+05  2.080021E+01  3.866125E+02  9.594334E+00  6.156084E-09  2.116583E-09
        43  17 -5.164737E+05  1.923829E+00  7.963641E+01  5.731048E+00  5.059848E-09 -6.453625E-10
        43  18 -5.164733E+05 -3.404557E+01 -2.062288E+02  1.867818E+00 -2.291383E-09 -1.292614E-09
        43  19 -5.164733E+05  2.080028E+01  3.866129E+02 -9.594334E+00 -5.041811E+02  7.799589E-06
        43  20 -5.164737E+05  1.923888E+00  7.963682E+01 -5.731048E+00 -4.652116E+02  4.297598E-06
        43  21 -5.164733E+05 -3.404552E+01 -2.062285E+02 -1.867818E+00 -4.262426E+02  1.282366E-06
        43  22 -5.164733E+05  2.080028E+01  3.866129E+02 -1.428981E-08 -5.041811E+02  1.752591E-09
        43  23 -5.164737E+05  1.923887E+00  7.963682E+01 -5.431966E-10 -4.652116E+02 -7.713674E-10
        43  24 -5.164733E+05 -3.404552E+01 -2.062285E+02  2.181979E-08 -4.262426E+02 -1.293496E-09
        43  25 -5.164733E+05  2.080028E+01  3.866129E+02  9.594334E+00 -5.041811E+02 -7.795968E-06
        43  26 -5.164737E+05  1.923888E+00  7.963682E+01  5.731048E+00 -4.652116E+02 -4.299037E-06
        43  27 -5.164733E+05 -3.404552E+01 -2.062285E+02  1.867818E+00 -4.262426E+02 -1.285007E-06
        44   1 -5.165061E+05  1.548822E+01 -3.560982E+02 -4.428726E+01  4.765005E+02 -3.401938E-05
        44   2 -5.164329E+05  5.221287E+01 -7.504747E+02  7.968230E+00  8.550592E+02  1.098329E-05
        44   3 -5.165063E+05 -2.995918E+02 -1.488591E+03  6.022451E+01  1.233623E+03  1.197643E-04
        44   4 -5.165061E+05  1.548822E+01 -3.560982E+02  1.836340E-08  4.765005E+02 -8.361296E-10
        44   5 -5.164329E+05  5.221287E+01 -7.504747E+02  1.787579E-08  8.550592E+02  1.702504E-10
        44   6 -5.165063E+05 -2.995918E+02 -1.488591E+03 -9.192116E-10  1.233623E+03  2.945287E-10
        44   7 -5.165061E+05  1.548822E+01 -3.560982E+02  4.428726E+01  4.765005E+02  3.401766E-05
        44   8 -5.164329E+05  5.221287E+01 -7.504747E+02 -7.968230E+00  8.550592E+02 -1.098299E-05
        44   9 -5.165063E+05 -2.995918E+02 -1.488591E+03 -6.022451E+01  1.233623E+03 -1.197637E-04
        44  10 -5.165061E+05  1.548816E+01 -3.560986E+02 -4.428726E+01  2.786891E-09 -7.592934E-10
        44  11 -5.164329E+05  5.221268E+01 -7.504761E+02  7.968230E+00 -2.582076E-10  4.900884E-12
        44  12 -5.165063E+05 -2.995922E+02 -1.488594E+03  6.022451E+01 -7.584146E-10 -1.536662E-10
        44  13 -5.165061E+05  1.548815E+01 -3.560986E+02  1.205310E-09 -1.950203E-10 -7.388974E-10
        44  14 -5.164329E+05  5.221268E+01 -7.504761E+02  7.129049E-09 -2.715065E-10  1.266607E-10
        44  15 -5.165063E+05 -2.995922E+02 -1.488594E+03  8.746311E-09 -1.124542E-09  3.274986E-11
        44  16 -5.165061E+05  1.548816E+01 -3.560986E+02  4.428726E+01 -1.464263E-09 -6.340440E-10
        44  17 -5.164329E+05  5.221268E+01 -7.504761E+02 -7.968230E+00 -3.375495E-10  2.805728E-10
        44  18 -5.165063E+05 -2.995922E+02 -1.488594E+03 -6.022451E+01  3.825514E-10  2.660690E-10
        44  19 -5.165061E+05  1.548822E+01 -3.560982E+02 -4.428726E+01 -4.765005E+02  3.401774E-05
        44  20 -5.164329E+05  5.221287E+01 -7.504747E+02  7.968230E+00 -8.550592E+02 -1.098307E-05
        44  21 -5.165063E+05 -2.995918E+02 -1.488591E+03  6.022451E+01 -1.233623E+03 -1.197646E-04
        44  22 -5.165061E+05  1.548822E+01 -3.560982E+02 -7.343512E-09 -4.765005E+02 -6.449394E-10
        44  23 -5.164329E+05  5.221287E+01 -7.504747E+02 -1.654133E-08 -8.550592E+02  1.076823E-10
        44  24 -5.165063E+05 -2.995918E+02 -1.488591E+03  7.639599E-09 -1.233623E+03 -2.244557E-10
        44  25 -5.165061E+05  1.548822E+01 -3.560982E+02  4.428726E+01 -4.765005E+02 -3.401888E-05
        44  26 -5.164329E+05  5.221287E+01 -7.504747E+02 -7.968230E+00 -8.550592E+02  1.098335E-05
        44  27 -5.165063E+05 -2.995918E+02 -1.488591E+03 -6.022451E+01 -1.233623E+03  1.197641E-04
        45   1 -5.167092E+05  1.245578E+02 -1.914331E+03 -3.350782E+02  1.535450E+03 -8.293791E-04
        45   2 -5.161795E+05  4.425272E+02 -3.224527E+03  1.645571E+02  3.197103E+03  8.480956E-04
        45   3 -5.167102E+05 -2.614267E+03 -6.460883E+03  6.641925E+02  4.858753E+03  5.202236E-03
        45   4 -5.167092E+05  1.245576E+02 -1.914331E+03 -1.124361E-08  1.535450E+03  6.716295E-10
        45   5 -5.161795E+05  4.425272E+02 -3.224527E+03  1.217746E-09  3.197103E+03  1.408953E-09
        45   6 -5.167102E+05 -2.614268E+03 -6.460883E+03  1.960071E-08  4.858753E+03  2.878823E-10
        45   7 -5.167092E+05  1.245578E+02 -1.914331E+03  3.350782E+02  1.535450E+03  8.293806E-04
        45   8 -5.161795E+05  4.425272E+02 -3.224527E+03 -1.645571E+02  3.197103E+03 -8.480932E-04
        45   9 -5.167102E+05 -2.614267E+03 -6.460883E+03 -6.641925E+02  4.858753E+03 -5.202236E-03
        45  10 -5.167092E+05  1.245572E+02 -1.914335E+03 -3.350782E+02 -3.961573E-10 -7.544326E-11
        45  11 -5.161795E+05  4.425245E+02 -3.224546E+03  1.645571E+02  1.714413E-09  4.190410E-10
        45  12 -5.167102E+05 -2.614274E+03 -6.460927E+03  6.641925E+02 -6.576931E-10  3.638484E-10
        45  13 -5.167092E+05  1.245570E+02 -1.914335E+03 -1.982713E-08 -3.221835E-09  5.800643E-11
        45  14 -5.161795E+05  4.425244E+02 -3.224546E+03 -1.385968E-08 -2.238268E-09  4.098265E-10
        45  15 -5.167102E+05 -2.614275E+03 -6.460927E+03  3.517522E-08 -1.992983E-10  2.847559E-11
        45  16 -5.167092E+05  1.245572E+02 -1.914335E+03  3.350782E+02  7.523680E-10  2.419480E-10
        45  17 -5.161795E+05  4.425245E+02 -3.224546E+03 -1.645571E+02  1.698950E-10  4.340701E-10
        45  18 -5.167102E+05 -2.614274E+03 -6.460927E+03 -6.641925E+02 -1.511651E-09 -2.134199E-10
        45  19 -5.167092E+05  1.245578E+02 -1.914331E+03 -3.350782E+02 -1.535450E+03  8.293790E-04
        45  20 -5.161795E+05  4.425272E+02 -3.224527E+03  1.645571E+02 -3.197103E+03 -8.480950E-04
        45  21 -5.167102E+05 -2.614267E+03 -6.460883E+03  6.641925E+02 -4.858753E+03 -5.202236E-03
        45  22 -5.167092E+05  1.245576E+02 -1.914331E+03  1.035344E-08 -1.535450E+03 -5.578614E-10
        45  23 -5.161795E+05  4.425272E+02 -3.224527E+03 -2.247474E-08 -3.197103E+03 -5.807735E-10
        45  24 -5.167102E+05 -2.614268E+03 -6.460883E+03  1.091758E-08 -4.858753E+03 -2.318715E-10
        45  25 -5.167092E+05  1.245578E+02 -1.914331E+03  3.350782E+02 -1.535450E+03 -8.293801E-04
        45  26 -5.161795E+05  4.425272E+02 -3.224527E+03 -1.645571E+02 -3.197103E+03  8.480938E-04
        45  27 -5.167102E+05 -2.614267E+03 -6.460883E+03 -6.641925E+02 -4.858753E+03  5.202235E-03
        46   1 -5.182763E+05  1.088768E+03 -7.893705E+03 -2.743246E+03  6.103210E+03 -2.698953E-02
        46   2 -5.142222E+05  3.742800E+03 -1.248142E+04  1.750185E+03  1.286172E+04  3.628712E-02
        46   3 -5.182824E+05 -2.253140E+04 -2.870387E+04  6.243519E+03  1.962015E+04  1.974707E-01
        46   4 -5.182764E+05  1.088754E+03 -7.893707E+03 -6.879804E-09  6.103210E+03 -3.181088E-10
        46   5 -5.142222E+05  3.742794E+03 -1.248142E+04 -3.740304E-08  1.286172E+04 -2.114869E-10
        46   6 -5.182824E+05 -2.253148E+04 -2.870388E+04 -3.862642E-09  1.962015E+04 -8.550372E-11
        46   7 -5.182763E+05  1.088768E+03 -7.893705E+03  2.743246E+03  6.103210E+03  2.698953E-02
        46   8 -5.142222E+05  3.742800E+03 -1.248142E+04 -1.750185E+03  1.286172E+04 -3.628712E-02
        46   9 -5.182824E+05 -2.253140E+04 -2.870387E+04 -6.243519E+03  1.962015E+04 -1.974707E-01
        46  10 -5.182764E+05  1.088758E+03 -7.893775E+03 -2.743246E+03 -2.343516E-09  3.746889E-10
        46  11 -5.142224E+05  3.742755E+03 -1.248173E+04  1.750185E+03 -2.412999E-09  6.238606E-10
        46  12 -5.182828E+05 -2.253151E+04 -2.870460E+04  6.243519E+03 -3.564035E-10  1.949104E-10
        46  13 -5.182764E+05  1.088744E+03 -7.893777E+03 -1.115291E-08 -1.783023E-09 -2.279114E-11
        46  14 -5.142224E+05  3.742749E+03 -1.248173E+04 -7.869009E-10 -1.076739E-09  3.289854E-10
        46  15 -5.182828E+05 -2.253158E+04 -2.870461E+04  9.671924E-10  2.912708E-09  1.558886E-10
        46  16 -5.182764E+05  1.088758E+03 -7.893775E+03  2.743246E+03  1.348875E-09 -3.929546E-10
        46  17 -5.142224E+05  3.742755E+03 -1.248173E+04 -1.750185E+03 -9.474797E-10  4.031892E-11
        46  18 -5.182828E+05 -2.253151E+04 -2.870460E+04 -6.243519E+03  2.907156E-09  6.473362E-11
        46  19 -5.182763E+05  1.088768E+03 -7.893705E+03 -2.743246E+03 -6.103210E+03  2.698953E-02
        46  20 -5.142222E+05  3.742800E+03 -1.248142E+04  1.750185E+03 -1.286172E+04 -3.628712E-02
        46  21 -5.182824E+05 -2.253140E+04 -2.870387E+04  6.243519E+03 -1.962015E+04 -1.974707E-01
        46  22 -5.182764E+05  1.088754E+03 -7.893707E+03  1.795990E-09 -6.103210E+03  2.719031E-10
        46  23 -5.142222E+05  3.742794E+03 -1.248142E+04 -2.936750E-09 -1.286172E+04  8.700875E-10
        46  24 -5.182824E+05 -2.253148E+04 -2.870388E+04  1.278770E-08 -1.962015E+04  3.838654E-10
        46  25 -5.182763E+05  1.088768E+03 -7.893705E+03  2.743246E+03 -6.103210E+03 -2.698953E-02
        46  26 -5.142222E+05  3.742800E+03 -1.248142E+04 -1.750185E+03 -1.286172E+04  3.628712E-02
        46  27 -5.182824E+05 -2.253140E+04 -2.870387E+04 -6.243519E+03 -1.962015E+04  1.974707E-01
        47   1 -1.507106E+04 -1.574860E+06 -4.504717E+04  1.810735E+04  3.275927E+03 -8.586321E+04
        47   2  1.019004E+05 -1.578348E+06  2.225765E+04  6.545782E+03  9.764327E+03 -5.669931E+04
        47   3  8.323953E+04 -1.619406E+06  3.667181E+04 -2.423285E+04  8.845540E+03 -2.753776E+04
        47   4 -1.053915E+05 -1.936185E+06 -1.346353E+05 -1.115371E+04  3.280513E+03 -9.022168E+04
        47   5  1.761438E+04 -1.917060E+06 -5.984316E+04 -1.536242E+03  9.765806E+03 -5.788142E+04
        47   6  4.393577E+03 -1.936080E+06 -4.017414E+04 -1.113627E+04  8.844122E+03 -2.554222E+04
        47   7 -1.957185E+05 -2.297389E+06 -2.242326E+05 -4.039768E+04  3.285512E+03 -9.457759E+04
        47   8 -6.667987E+04 -2.255666E+06 -1.419522E+05 -9.613824E+03  9.767317E+03 -5.906288E+04
        47   9 -7.445912E+04 -2.252662E+06 -1.170272E+05  1.953612E+03  8.842789E+03 -2.354768E+04
        47  10 -1.507306E+04 -1.574868E+06 -4.506108E+04  1.810758E+04  8.221275E-10  2.645726E-09
        47  11  1.018995E+05 -1.578351E+06  2.225141E+04  6.546228E+03 -1.308032E-09 -2.372893E-10
        47  12  8.323924E+04 -1.619406E+06  3.667024E+04 -2.423266E+04 -9.851608E-10 -4.030161E-09
        47  13 -1.053937E+05 -1.936194E+06 -1.346507E+05 -1.115347E+04  9.951231E-10  2.840256E-11
        47  14  1.761337E+04 -1.917063E+06 -5.984965E+04 -1.535786E+03 -7.963277E-10  1.295036E-10
        47  15  4.393317E+03 -1.936081E+06 -4.017551E+04 -1.113609E+04 -5.431446E-10  3.658152E-10
        47  16 -1.957209E+05 -2.297399E+06 -2.242495E+05 -4.039743E+04 -1.347193E-09 -2.614770E-09
        47  17 -6.668091E+04 -2.255670E+06 -1.419590E+05 -9.613359E+03  2.710308E-12  3.880353E-10
        47  18 -7.445935E+04 -2.252663E+06 -1.170284E+05  1.953780E+03 -2.522053E-09  3.795828E-09
        47  19 -1.507106E+04 -1.574860E+06 -4.504717E+04  1.810735E+04 -3.275927E+03  8.586321E+04
        47  20  1.019004E+05 -1.578348E+06  2.225765E+04  6.545782E+03 -9.764327E+03  5.669931E+04
        47  21  8.323953E+04 -1.619406E+06  3.667181E+04 -2.423285E+04 -8.845540E+03  2.753776E+04
        47  22 -1.053915E+05 -1.936185E+06 -1.346353E+05 -1.115371E+04 -3.280513E+03  9.022168E+04
        47  23  1.761438E+04 -1.917060E+06 -5.984316E+04 -1.536242E+03 -9.765806E+03  5.788142E+04
        47  24  4.393577E+03 -1.936080E+06 -4.017414E+04 -1.113627E+04 -8.844122E+03  2.554222E+04
        47  25 -1.957185E+05 -2.297389E+06 -2.242326E+05 -4.039768E+04 -3.285512E+03  9.457759E+04
        47  26 -6.667987E+04 -2.255666E+06 -1.419522E+05 -9.613824E+03 -9.767317E+03  5.906288E+04
        47  27 -7.445912E+04 -2.252662E+06 -1.170272E+05  1.953612E+03 -8.842789E+03  2.354768E+04
        48   1  5.722363E+04 -1.651478E+06  3.305119E+04 -8.032430E+03  7.264985E+03 -1.900864E+04
        48   2  6.593581E+04 -1.673145E+06  3.885761E+04 -5.258001E+02  6.961122E+03 -7.834000E+03
        48   3  5.106294E+04 -1.702119E+06  3.148955E+04 -1.508264E+04  5.775677E+03  3.338971E+03
        48   4 -1.194487E+04 -1.929259E+06 -3.449155E+04 -1.178128E+04  7.265356E+03 -1.906520E+04
        48   5  3.096932E+03 -1.925566E+06 -2.241775E+04 -7.475303E+02  6.961037E+03 -7.515005E+03
        48   6 -5.517033E+03 -1.929249E+06 -2.378380E+04 -1.177796E+04  5.775103E+03  4.033975E+03
        48   7 -8.111900E+04 -2.206969E+06 -1.020399E+05 -1.552843E+04  7.265728E+03 -1.912173E+04
        48   8 -5.974664E+04 -2.177928E+06 -8.369773E+04 -9.691573E+02  6.960953E+03 -7.196139E+03
        48   9 -6.210078E+04 -2.156331E+06 -7.906088E+04 -8.474480E+03  5.774538E+03  4.728724E+03
        48  10  5.722347E+04 -1.651479E+06  3.305041E+04 -8.032318E+03  1.082844E-09  3.816585E-10
        48  11  6.593574E+04 -1.673145E+06  3.885741E+04 -5.257562E+02 -4.384741E-10  2.228975E-11
        48  12  5.106291E+04 -1.702119E+06  3.148946E+04 -1.508265E+04 -1.384779E-09 -1.663652E-09
        48  13 -1.194502E+04 -1.929259E+06 -3.449234E+04 -1.178117E+04  1.833659E-09  7.087688E-10
        48  14  3.096865E+03 -1.925566E+06 -2.241795E+04 -7.474881E+02  3.724828E-09  6.640665E-10
        48  15 -5.517074E+03 -1.929249E+06 -2.378389E+04 -1.177798E+04  4.518543E-10  6.272364E-10
        48  16 -8.111916E+04 -2.206969E+06 -1.020407E+05 -1.552832E+04 -1.036449E-09 -4.685446E-10
        48  17 -5.974670E+04 -2.177928E+06 -8.369792E+04 -9.691169E+02  3.130517E-09  2.375354E-10
        48  18 -6.210082E+04 -2.156331E+06 -7.906098E+04 -8.474502E+03  1.254216E-09  1.480527E-09
        48  19  5.722363E+04 -1.651478E+06  3.305119E+04 -8.032430E+03 -7.264985E+03  1.900864E+04
        48  20  6.593581E+04 -1.673145E+06  3.885761E+04 -5.258001E+02 -6.961122E+03  7.834000E+03
        48  21  5.106294E+04 -1.702119E+06  3.148955E+04 -1.508264E+04 -5.775677E+03 -3.338971E+03
        48  22 -1.194487E+04 -1.929259E+06 -3.449155E+04 -1.178128E+04 -7.265356E+03  1.906520E+04
        48  23  3.096932E+03 -1.925566E+06 -2.241775E+04 -7.475303E+02 -6.961037E+03  7.515005E+03
        48  24 -5.517033E+03 -1.929249E+06 -2.378380E+04 -1.177796E+04 -5.775103E+03 -4.033975E+03
        48  25 -8.111900E+04 -2.206969E+06 -1.020399E+05 -1.552843E+04 -7.265728E+03  1.912173E+04
        48  26 -5.974664E+04 -2.177928E+06 -8.369773E+04 -9.691573E+02 -6.960953E+03  7.196139E+03
        48  27 -6.210078E+04 -2.156331E+06 -7.906088E+04 -8.474480E+03 -5.774538E+03 -4.728724E+03
        49   1  4.694702E+04 -1.747925E+06  1.949932E+04 -5.654832E+03  5.382046E+03  8.337155E+03
        49   2  4.798061E+04 -1.765637E+06  5.809476E+03 -4.421240E+03  4.388481E+03  2.471858E+04
        49   3 -2.030942E+04 -1.802865E+06 -3.590569E+04 -2.721470E+04  1.250702E+03  4.109596E+04
        49   4  1.164098E+03 -1.931968E+06 -2.508598E+04 -1.219221E+04  5.382110E+03  8.293890E+03
        49   5  9.007930E+03 -1.922151E+06 -3.215930E+04 -2.131220E+02  4.387634E+03  2.559559E+04
        49   6 -5.264149E+04 -1.932016E+06 -6.790292E+04 -1.226229E+04  1.249270E+03  4.289391E+04
        49   7 -4.462115E+04 -2.115981E+06 -6.967370E+04 -1.872764E+04  5.382175E+03  8.250638E+03
        49   8 -2.996649E+04 -2.078643E+06 -7.012983E+04  3.993936E+03  4.386800E+03  2.647238E+04
        49   9 -8.497397E+04 -2.061150E+06 -9.990127E+04  2.687005E+03  1.247924E+03  4.469148E+04
        49  10  4.694697E+04 -1.747925E+06  1.949913E+04 -5.654868E+03 -1.971862E-09 -7.171162E-10
        49  11  4.798043E+04 -1.765637E+06  5.808289E+03 -4.421327E+03  7.373482E-10 -3.055581E-10
        49  12 -2.030988E+04 -1.802867E+06 -3.590887E+04 -2.721474E+04  9.511866E-10 -6.930467E-10
        49  13  1.164048E+03 -1.931968E+06 -2.508616E+04 -1.219225E+04  2.823885E-09  1.280500E-09
        49  14  9.007732E+03 -1.922152E+06 -3.216057E+04 -2.132125E+02 -1.703516E-10  6.188932E-10
        49  15 -5.264199E+04 -1.932018E+06 -6.790639E+04 -1.226233E+04  5.659212E-10  7.924715E-10
        49  16 -4.462120E+04 -2.115981E+06 -6.967388E+04 -1.872767E+04 -4.052978E-10  6.036298E-10
        49  17 -2.996670E+04 -2.078644E+06 -7.013119E+04  3.993842E+03 -1.271041E-09  4.430826E-10
        49  18 -8.497451E+04 -2.061152E+06 -9.990504E+04  2.686960E+03 -1.264724E-09  3.628457E-10
        49  19  4.694702E+04 -1.747925E+06  1.949932E+04 -5.654832E+03 -5.382046E+03 -8.337155E+03
        49  20  4.798061E+04 -1.765637E+06  5.809476E+03 -4.421240E+03 -4.388481E+03 -2.471858E+04
        49  21 -2.030942E+04 -1.802865E+06 -3.590569E+04 -2.721470E+04 -1.250702E+03 -4.109596E+04
        49  22  1.164098E+03 -1.931968E+06 -2.508598E+04 -1.219221E+04 -5.382110E+03 -8.293890E+03
        49  23  9.007930E+03 -1.922151E+06 -3.215930E+04 -2.131220E+02 -4.387634E+03 -2.559559E+04
        49  24 -5.264149E+04 -1.932016E+06 -6.790292E+04 -1.226229E+04 -1.249270E+03 -4.289391E+04
        49  25 -4.462115E+04 -2.115981E+06 -6.967370E+04 -1.872764E+04 -5.382175E+03 -8.250638E+03
        49  26 -2.996649E+04 -2.078643E+06 -7.012983E+04  3.993936E+03 -4.386800E+03 -2.647238E+04
        49  27 -8.497397E+04 -2.061150E+06 -9.990127E+04  2.687005E+03 -1.247924E+03 -4.469148E+04
        50   1 -1.073469E+06 -1.503749E+05  7.537120E+03 -4.022913E+05  1.951969E+04  8.306126E+03
        50   2 -1.070773E+06 -1.729623E+05 -8.230895E+03 -3.902751E+05  1.226959E+04  7.425688E+03
        50   3 -1.048230E+06 -1.722547E+05 -1.062610E+04 -3.947409E+05  5.808806E+03  4.439502E+03
        50   4 -9.757921E+05 -1.196741E+05  3.298982E+04 -3.820684E+05  2.059824E+04  8.710289E+03
        50   5 -9.874834E+05 -1.433358E+05  1.366141E+04 -3.693570E+05  1.249649E+04  7.510677E+03
        50   6 -9.791603E+05 -1.435362E+05  8.379747E+03 -3.731272E+05  5.184143E+03  4.205391E+03
        50   7 -8.781069E+05 -8.897365E+04  5.844157E+04 -3.618432E+05  2.167697E+04  9.114493E+03
        50   8 -9.041873E+05 -1.137091E+05  3.555309E+04 -3.484366E+05  1.272342E+04  7.595677E+03
        50   9 -9.100859E+05 -1.148170E+05  2.738522E+04 -3.515112E+05  4.559401E+03  3.971245E+03
        50  10 -1.073469E+06 -1.503750E+05  7.536273E+03 -4.022914E+05  6.833394E-10  2.637681E-10
        50  11 -1.070773E+06 -1.729624E+05 -8.231283E+03 -3.902752E+05  3.963135E-09  1.248768E-10
        50  12 -1.048230E+06 -1.722547E+05 -1.062620E+04 -3.947409E+05 -5.607609E-10 -2.290427E-10
        50  13 -9.757925E+05 -1.196743E+05  3.298887E+04 -3.820686E+05  6.099107E-11 -4.145378E-11
        50  14 -9.874836E+05 -1.433359E+05  1.366101E+04 -3.693571E+05 -7.176158E-10  2.421538E-10
        50  15 -9.791604E+05 -1.435362E+05  8.379663E+03 -3.731272E+05  1.981837E-09  3.701440E-10
        50  16 -8.781074E+05 -8.897386E+04  5.844053E+04 -3.618434E+05 -1.658285E-09 -3.341242E-10
        50  17 -9.041875E+05 -1.137092E+05  3.555267E+04 -3.484366E+05 -2.817773E-09  2.239581E-10
        50  18 -9.100859E+05 -1.148171E+05  2.738515E+04 -3.515112E+05  1.835188E-09  9.182866E-10
        50  19 -1.073469E+06 -1.503749E+05  7.537120E+03 -4.022913E+05 -1.951969E+04 -8.306126E+03
        50  20 -1.070773E+06 -1.729623E+05 -8.230895E+03 -3.902751E+05 -1.226959E+04 -7.425688E+03
        50  21 -1.048230E+06 -1.722547E+05 -1.062610E+04 -3.947409E+05 -5.808806E+03 -4.439502E+03
        50  22 -9.757921E+05 -1.196741E+05  3.298982E+04 -3.820684E+05 -2.059824E+04 -8.710289E+03
        50  23 -9.874834E+05 -1.433358E+05  1.366141E+04 -3.693570E+05 -1.249649E+04 -7.510677E+03
        50  24 -9.791603E+05 -1.435362E+05  8.379747E+03 -3.731272E+05 -5.184143E+03 -4.205391E+03
        50  25 -8.781069E+05 -8.897365E+04  5.844157E+04 -3.618432E+05 -2.167697E+04 -9.114493E+03
        50  26 -9.041873E+05 -1.137091E+05  3.555309E+04 -3.484366E+05 -1.272342E+04 -7.595677E+03
        50  27 -9.100859E+05 -1.148170E+05  2.738522E+04 -3.515112E+05 -4.559401E+03 -3.971245E+03
        51   1 -1.031741E+06 -1.587353E+05 -6.821397E+03 -3.885540E+05  4.256060E+03  3.195743E+03
        51   2 -1.024777E+06 -1.542360E+05 -7.366912E+03 -3.804434E+05  2.755950E+03  2.323317E+03
        51   3 -1.008491E+06 -1.537306E+05 -5.703390E+03 -3.821029E+05  1.332450E+03  1.246223E+03
        51   4 -9.801788E+05 -1.400270E+05  6.842410E+03 -3.752355E+05  4.187796E+03  3.170143E+03
        51   5 -9.850494E+05 -1.394688E+05  3.216871E+03 -3.698147E+05  2.604873E+03  2.266695E+03
        51   6 -9.805825E+05 -1.428882E+05  1.865892E+03 -3.741640E+05  1.098602E+03  1.158601E+03
        51   7 -9.286139E+05 -1.213186E+05  2.050601E+04 -3.619160E+05  4.119524E+03  3.144541E+03
        51   8 -9.453205E+05 -1.247016E+05  1.380047E+04 -3.591855E+05  2.453787E+03  2.210070E+03
        51   9 -9.526730E+05 -1.320458E+05  9.435034E+03 -3.662249E+05  8.647434E+02  1.070975E+03
        51  10 -1.031741E+06 -1.587353E+05 -6.821451E+03 -3.885541E+05 -1.926845E-09 -3.535692E-10
        51  11 -1.024777E+06 -1.542360E+05 -7.366936E+03 -3.804434E+05 -1.089179E-09 -1.181324E-09
        51  12 -1.008491E+06 -1.537306E+05 -5.703396E+03 -3.821029E+05 -2.151450E-09 -9.295070E-10
        51  13 -9.801788E+05 -1.400270E+05  6.842358E+03 -3.752355E+05 -2.153046E-09 -4.891678E-11
        51  14 -9.850494E+05 -1.394688E+05  3.216849E+03 -3.698147E+05 -3.558144E-09 -7.659826E-10
        51  15 -9.805825E+05 -1.428882E+05  1.865888E+03 -3.741640E+05  1.194710E-10 -6.853240E-10
        51  16 -9.286140E+05 -1.213186E+05  2.050596E+04 -3.619160E+05 -1.583182E-10  1.120449E-10
        51  17 -9.453205E+05 -1.247016E+05  1.380045E+04 -3.591855E+05 -9.963840E-10 -1.472525E-09
        51  18 -9.526730E+05 -1.320458E+05  9.435031E+03 -3.662249E+05  5.417946E-10 -3.985124E-10
        51  19 -1.031741E+06 -1.587353E+05 -6.821397E+03 -3.885540E+05 -4.256060E+03 -3.195743E+03
        51  20 -1.024777E+06 -1.542360E+05 -7.366912E+03 -3.804434E+05 -2.755950E+03 -2.323317E+03
        51  21 -1.008491E+06 -1.537306E+05 -5.703390E+03 -3.821029E+05 -1.332450E+03 -1.246223E+03
        51  22 -9.801788E+05 -1.400270E+05  6.842410E+03 -3.752355E+05 -4.187796E+03 -3.170143E+03
        51  23 -9.850494E+05 -1.394688E+05  3.216871E+03 -3.698147E+05 -2.604873E+03 -2.266695E+03
        51  24 -9.805825E+05 -1.428882E+05  1.865892E+03 -3.741640E+05 -1.098602E+03 -1.158601E+03
        51  25 -9.286139E+05 -1.213186E+05  2.050601E+04 -3.619160E+05 -4.119524E+03 -3.144541E+03
        51  26 -9.453205E+05 -1.247016E+05  1.380047E+04 -3.591855E+05 -2.453787E+03 -2.210070E+03
        51  27 -9.526730E+05 -1.320458E+05  9.435034E+03 -3.662249E+05 -8.647434E+02 -1.070975E+03
        52   1 -9.884130E+05 -1.453039E+05 -5.475519E+02 -3.764592E+05  1.124613E+03  8.183218E+02
        52   2 -9.808305E+05 -1.374964E+05  1.766157E+03 -3.687697E+05  9.364852E+02  2.264347E+02
        52   3 -9.652376E+05 -1.370398E+05  4.468264E+03 -3.701254E+05  7.549078E+02 -3.829250E+02
        52   4 -9.807149E+05 -1.424854E+05  1.457515E+03 -3.744345E+05  9.434581E+02  7.504461E+02
        52   5 -9.847448E+05 -1.389816E+05  7.166518E+02 -3.698479E+05  7.482651E+02  1.559087E+02
        52   6 -9.807632E+05 -1.428273E+05  3.697604E+02 -3.743065E+05  5.596300E+02 -4.560979E+02
        52   7 -9.730167E+05 -1.396669E+05  3.462593E+03 -3.724097E+05  7.622992E+02  6.825690E+02
        52   8 -9.886591E+05 -1.404667E+05 -3.328612E+02 -3.709260E+05  5.600450E+02  8.538280E+01
        52   9 -9.962886E+05 -1.486147E+05 -3.728787E+03 -3.784876E+05  3.643565E+02 -5.292691E+02
        52  10 -9.884130E+05 -1.453039E+05 -5.475555E+02 -3.764592E+05 -3.572240E-11 -2.983520E-10
        52  11 -9.808305E+05 -1.374964E+05  1.766155E+03 -3.687697E+05  1.793595E-09 -2.047521E-09
        52  12 -9.652376E+05 -1.370398E+05  4.468263E+03 -3.701254E+05 -1.554806E-09 -8.033011E-10
        52  13 -9.807149E+05 -1.424854E+05  1.457512E+03 -3.744345E+05 -8.356376E-10 -6.813315E-10
        52  14 -9.847448E+05 -1.389816E+05  7.166507E+02 -3.698479E+05  3.828173E-10 -1.720092E-09
        52  15 -9.807632E+05 -1.428273E+05  3.697594E+02 -3.743065E+05 -3.353906E-10 -3.399911E-10
        52  16 -9.730167E+05 -1.396669E+05  3.462591E+03 -3.724097E+05 -1.766717E-09 -1.042473E-09
        52  17 -9.886591E+05 -1.404667E+05 -3.328618E+02 -3.709260E+05  1.726108E-09 -1.179513E-09
        52  18 -9.962886E+05 -1.486147E+05 -3.728788E+03 -3.784876E+05  9.758976E-10  1.490543E-10
        52  19 -9.884130E+05 -1.453039E+05 -5.475519E+02 -3.764592E+05 -1.124613E+03 -8.183218E+02
        52  20 -9.808305E+05 -1.374964E+05  1.766157E+03 -3.687697E+05 -9.364852E+02 -2.264347E+02
        52  21 -9.652376E+05 -1.370398E+05  4.468264E+03 -3.701254E+05 -7.549078E+02  3.829250E+02
        52  22 -9.807149E+05 -1.424854E+05  1.457515E+03 -3.744345E+05 -9.434581E+02 -7.504461E+02
        52  23 -9.847448E+05 -1.389816E+05  7.166518E+02 -3.698479E+05 -7.482651E+02 -1.559087E+02
        52  24 -9.807632E+05 -1.428273E+05  3.697604E+02 -3.743065E+05 -5.596300E+02  4.560979E+02
        52  25 -9.730167E+05 -1.396669E+05  3.462593E+03 -3.724097E+05 -7.622992E+02 -6.825690E+02
        52  26 -9.886591E+05 -1.404667E+05 -3.328612E+02 -3.709260E+05 -5.600450E+02 -8.538280E+01
        52  27 -9.962886E+05 -1.486147E+05 -3.728787E+03 -3.784876E+05 -3.643565E+02  5.292691E+02
        53   1 -9.449362E+05 -1.292511E+05  9.890739E+03 -3.645530E+05  8.035285E+02 -6.827664E+02
        53   2 -9.373854E+05 -1.211724E+05  1.268576E+04 -3.570279E+05  9.546600E+02 -1.161424E+03
        53   3 -9.221291E+05 -1.207479E+05  1.550867E+04 -3.583248E+05  1.104040E+03 -1.635241E+03
        53   4 -9.808118E+05 -1.427521E+05  2.544897E+02 -3.743107E+05  6.129267E+02 -7.541924E+02
        53   5 -9.846684E+05 -1.389533E+05  4.438389E+01 -3.698891E+05  7.660072E+02 -1.232132E+03
        53   6 -9.808201E+05 -1.428090E+05 -1.393669E+02 -3.742895E+05  9.173367E+02 -1.705231E+03
        53   7 -1.016686E+06 -1.562530E+05 -9.381784E+03 -3.840677E+05  4.223387E+02 -8.256131E+02
        53   8 -1.031949E+06 -1.567341E+05 -1.259716E+04 -3.827494E+05  5.773707E+02 -1.302834E+03
        53   9 -1.039508E+06 -1.648700E+05 -1.578776E+04 -3.902529E+05  7.306524E+02 -1.775214E+03
        53  10 -9.449362E+05 -1.292511E+05  9.890737E+03 -3.645530E+05 -1.177723E-09  4.098465E-11
        53  11 -9.373854E+05 -1.211724E+05  1.268576E+04 -3.570279E+05 -1.899883E-10 -1.096568E-09
        53  12 -9.221291E+05 -1.207479E+05  1.550866E+04 -3.583248E+05 -1.011718E-09 -5.970749E-11
        53  13 -9.808118E+05 -1.427521E+05  2.544879E+02 -3.743107E+05 -2.987816E-09  5.974309E-10
        53  14 -9.846684E+05 -1.389533E+05  4.437994E+01 -3.698891E+05 -4.002114E-09 -6.409303E-10
        53  15 -9.808201E+05 -1.428090E+05 -1.393739E+02 -3.742895E+05 -1.313488E-09 -1.314202E-10
        53  16 -1.016686E+06 -1.562530E+05 -9.381785E+03 -3.840677E+05 -6.516365E-10  2.856021E-10
        53  17 -1.031949E+06 -1.567341E+05 -1.259716E+04 -3.827494E+05 -6.411854E-10 -5.306059E-10
        53  18 -1.039508E+06 -1.648700E+05 -1.578777E+04 -3.902529E+05  2.432973E-09 -3.060308E-10
        53  19 -9.449362E+05 -1.292511E+05  9.890739E+03 -3.645530E+05 -8.035285E+02  6.827664E+02
        53  20 -9.373854E+05 -1.211724E+05  1.268576E+04 -3.570279E+05 -9.546600E+02  1.161424E+03
        53  21 -9.221291E+05 -1.207479E+05  1.550867E+04 -3.583248E+05 -1.104040E+03  1.635241E+03
        53  22 -9.808118E+05 -1.427521E+05  2.544897E+02 -3.743107E+05 -6.129267E+02  7.541924E+02
        53  23 -9.846684E+05 -1.389533E+05  4.438389E+01 -3.698891E+05 -7.660072E+02  1.232132E+03
        53  24 -9.808201E+05 -1.428090E+05 -1.393669E+02 -3.742895E+05 -9.173367E+02  1.705231E+03
        53  25 -1.016686E+06 -1.562530E+05 -9.381784E+03 -3.840677E+05 -4.223387E+02  8.256131E+02
        53  26 -1.031949E+06 -1.567341E+05 -1.259716E+04 -3.827494E+05 -5.773707E+02  1.302834E+03
        53  27 -1.039508E+06 -1.648700E+05 -1.578776E+04 -3.902529E+05 -7.306524E+02  1.775214E+03
        54   1 -9.023404E+05 -1.131795E+05  2.080816E+04 -3.528742E+05  1.236650E+03 -1.893200E+03
        54   2 -8.950694E+05 -1.053468E+05  2.341134E+04 -3.456356E+05  1.661298E+03 -2.253415E+03
        54   3 -8.805011E+05 -1.050621E+05  2.578319E+04 -3.468200E+05  2.080118E+03 -2.597758E+03
        54   4 -9.809022E+05 -1.427169E+05 -2.365610E+02 -3.742271E+05  1.049449E+03 -1.963392E+03
        54   5 -9.845601E+05 -1.390111E+05 -5.159670E+02 -3.699898E+05  1.480464E+03 -2.321245E+03
        54   6 -9.809220E+05 -1.428546E+05 -1.031740E+03 -3.741756E+05  1.905644E+03 -2.663226E+03
        54   7 -1.059458E+06 -1.722539E+05 -2.128182E+04 -3.955775E+05  8.622743E+02 -2.033574E+03
        54   8 -1.074043E+06 -1.726748E+05 -2.444394E+04 -3.943407E+05  1.299658E+03 -2.389064E+03
        54   9 -1.081333E+06 -1.806464E+05 -2.784749E+04 -4.015272E+05  1.731201E+03 -2.728683E+03
        54  10 -9.023404E+05 -1.131795E+05  2.080815E+04 -3.528742E+05  1.036331E-09  4.725075E-10
        54  11 -8.950694E+05 -1.053468E+05  2.341132E+04 -3.456356E+05 -1.036703E-09  6.305993E-10
        54  12 -8.805011E+05 -1.050621E+05  2.578317E+04 -3.468200E+05  1.109124E-09  6.684119E-10
        54  13 -9.809022E+05 -1.427169E+05 -2.365703E+02 -3.742271E+05 -1.064796E-09 -2.087123E-11
        54  14 -9.845601E+05 -1.390111E+05 -5.159812E+02 -3.699898E+05  9.611722E-10  3.117752E-10
        54  15 -9.809220E+05 -1.428546E+05 -1.031760E+03 -3.741756E+05 -1.412499E-09  9.223524E-10
        54  16 -1.059458E+06 -1.722539E+05 -2.128183E+04 -3.955775E+05  1.671298E-09 -5.476674E-10
        54  17 -1.074043E+06 -1.726748E+05 -2.444396E+04 -3.943407E+05  1.724433E-09  4.703431E-10
        54  18 -1.081333E+06 -1.806464E+05 -2.784751E+04 -4.015272E+05 -1.092042E-09  6.684675E-10
        54  19 -9.023404E+05 -1.131795E+05  2.080816E+04 -3.528742E+05 -1.236650E+03  1.893200E+03
        54  20 -8.950694E+05 -1.053468E+05  2.341134E+04 -3.456356E+05 -1.661298E+03  2.253415E+03
        54  21 -8.805011E+05 -1.050621E+05  2.578319E+04 -3.468200E+05 -2.080118E+03  2.597758E+03
        54  22 -9.809022E+05 -1.427169E+05 -2.365610E+02 -3.742271E+05 -1.049449E+03  1.963392E+03
        54  23 -9.845601E+05 -1.390111E+05 -5.159670E+02 -3.699898E+05 -1.480464E+03  2.321245E+03
        54  24 -9.809220E+05 -1.428546E+05 -1.031740E+03 -3.741756E+05 -1.905644E+03  2.663226E+03
        54  25 -1.059458E+06 -1.722539E+05 -2.128182E+04 -3.955775E+05 -8.622743E+02  2.033574E+03
        54  26 -1.074043E+06 -1.726748E+05 -2.444394E+04 -3.943407E+05 -1.299658E+03  2.389064E+03
        54  27 -1.081333E+06 -1.806464E+05 -2.784749E+04 -4.015272E+05 -1.731201E+03  2.728683E+03
        55   1 -8.617410E+05 -9.780943E+04  3.057362E+04 -3.418045E+05  2.384336E+03 -2.780909E+03
        55   2 -8.548514E+05 -9.020795E+04  3.220298E+04 -3.348725E+05  3.756525E+03 -2.755662E+03
        55   3 -8.417415E+05 -9.095420E+04  3.254260E+04 -3.354896E+05  5.107325E+03 -2.672840E+03
        55   4 -9.811000E+05 -1.425853E+05 -1.355042E+03 -3.741499E+05  2.199236E+03 -2.850384E+03
        55   5 -9.842866E+05 -1.389647E+05 -2.415729E+03 -3.701669E+05  3.594415E+03 -2.816547E+03
        55   6 -9.812577E+05 -1.436968E+05 -4.784646E+03 -3.737333E+05  4.968181E+03 -2.725138E+03
        55   7 -1.100446E+06 -1.873605E+05 -3.328504E+04 -4.064898E+05  2.014174E+03 -2.919844E+03
        55   8 -1.113706E+06 -1.877205E+05 -3.703596E+04 -4.054547E+05  3.432343E+03 -2.877419E+03
        55   9 -1.120755E+06 -1.964382E+05 -4.211361E+04 -4.119693E+05  4.829072E+03 -2.777424E+03
        55  10 -8.617410E+05 -9.780943E+04  3.057360E+04 -3.418045E+05  1.727367E-09  1.207577E-09
        55  11 -8.548515E+05 -9.020796E+04  3.220294E+04 -3.348725E+05  1.726802E-09 -9.295345E-11
        55  12 -8.417416E+05 -9.095422E+04  3.254254E+04 -3.354896E+05  1.307927E-09 -6.069504E-10
        55  13 -9.811000E+05 -1.425853E+05 -1.355066E+03 -3.741499E+05  7.999609E-10  6.976542E-10
        55  14 -9.842866E+05 -1.389647E+05 -2.415768E+03 -3.701669E+05 -3.017625E-09  2.293118E-10
        55  15 -9.812577E+05 -1.436968E+05 -4.784706E+03 -3.737333E+05  1.638005E-09 -3.304678E-10
        55  16 -1.100446E+06 -1.873605E+05 -3.328506E+04 -4.064898E+05 -2.020124E-09  3.635734E-10
        55  17 -1.113706E+06 -1.877205E+05 -3.703599E+04 -4.054547E+05  1.175607E-09  2.307991E-10
        55  18 -1.120755E+06 -1.964382E+05 -4.211367E+04 -4.119693E+05 -2.207057E-09  2.510296E-10
        55  19 -8.617410E+05 -9.780943E+04  3.057362E+04 -3.418045E+05 -2.384336E+03  2.780909E+03
        55  20 -8.548514E+05 -9.020795E+04  3.220298E+04 -3.348725E+05 -3.756525E+03  2.755662E+03
        55  21 -8.417415E+05 -9.095420E+04  3.254260E+04 -3.354896E+05 -5.107325E+03  2.672840E+03
        55  22 -9.811000E+05 -1.425853E+05 -1.355042E+03 -3.741499E+05 -2.199236E+03  2.850384E+03
        55  23 -9.842866E+05 -1.389647E+05 -2.415729E+03 -3.701669E+05 -3.594415E+03  2.816547E+03
        55  24 -9.812577E+05 -1.436968E+05 -4.784646E+03 -3.737333E+05 -4.968181E+03  2.725138E+03
        55  25 -1.100446E+06 -1.873605E+05 -3.328504E+04 -4.064898E+05 -2.014174E+03  2.919844E+03
        55  26 -1.113706E+06 -1.877205E+05 -3.703596E+04 -4.054547E+05 -3.432343E+03  2.877419E+03
        55  27 -1.120755E+06 -1.964382E+05 -4.211361E+04 -4.119693E+05 -4.829072E+03  2.777424E+03
        56   1 -8.241089E+05 -8.388354E+04  3.591010E+04 -3.325318E+05  6.212326E+03 -2.594486E+03
        56   2 -8.172746E+05 -7.465693E+04  3.395148E+04 -3.248083E+05  1.167505E+04 -9.960548E+02
        56   3 -8.093922E+05 -8.376472E+04  2.474349E+04 -3.211867E+05  1.697369E+04  1.039863E+03
        56   4 -9.818861E+05 -1.421766E+05 -6.098403E+03 -3.743744E+05  5.962965E+03 -2.688174E+03
        56   5 -9.830525E+05 -1.376475E+05 -1.048408E+04 -3.705757E+05  1.160099E+04 -1.023983E+03
        56   6 -9.832071E+05 -1.514896E+05 -2.225971E+04 -3.708788E+05  1.707485E+04  1.077692E+03
        56   7 -1.139639E+06 -2.004683E+05 -4.810897E+04 -4.162074E+05  5.713674E+03 -2.781836E+03
        56   8 -1.148804E+06 -2.006363E+05 -5.492207E+04 -4.163321E+05  1.152695E+04 -1.051902E+03
        56   9 -1.156993E+06 -2.192124E+05 -6.926573E+04 -4.205582E+05  1.717598E+04  1.115509E+03
        56  10 -8.241090E+05 -8.388355E+04  3.591001E+04 -3.325318E+05  2.202645E-09 -1.111371E-09
        56  11 -8.172748E+05 -7.465697E+04  3.395122E+04 -3.248083E+05 -2.649281E-09 -3.359370E-10
        56  12 -8.093925E+05 -8.376480E+04  2.474294E+04 -3.211867E+05  5.159877E-10 -7.692149E-10
        56  13 -9.818861E+05 -1.421766E+05 -6.098484E+03 -3.743744E+05 -9.185627E-10 -6.970830E-10
        56  14 -9.830527E+05 -1.376475E+05 -1.048434E+04 -3.705757E+05 -2.419088E-09 -8.662573E-10
        56  15 -9.832074E+05 -1.514897E+05 -2.226027E+04 -3.708788E+05 -1.545912E-09 -9.545794E-10
        56  16 -1.139639E+06 -2.004684E+05 -4.810904E+04 -4.162074E+05 -2.952436E-09 -4.301350E-10
        56  17 -1.148804E+06 -2.006363E+05 -5.492232E+04 -4.163321E+05 -3.390566E-09 -1.122686E-09
        56  18 -1.156994E+06 -2.192124E+05 -6.926629E+04 -4.205582E+05 -3.257194E-10 -3.298208E-10
        56  19 -8.241089E+05 -8.388354E+04  3.591010E+04 -3.325318E+05 -6.212326E+03  2.594486E+03
        56  20 -8.172746E+05 -7.465693E+04  3.395148E+04 -3.248083E+05 -1.167505E+04  9.960548E+02
        56  21 -8.093922E+05 -8.376472E+04  2.474349E+04 -3.211867E+05 -1.697369E+04 -1.039863E+03
        56  22 -9.818861E+05 -1.421766E+05 -6.098403E+03 -3.743744E+05 -5.962965E+03  2.688174E+03
        56  23 -9.830525E+05 -1.376475E+05 -1.048408E+04 -3.705757E+05 -1.160099E+04  1.023983E+03
        56  24 -9.832071E+05 -1.514896E+05 -2.225971E+04 -3.708788E+05 -1.707485E+04 -1.077692E+03
        56  25 -1.139639E+06 -2.004683E+05 -4.810897E+04 -4.162074E+05 -5.713674E+03  2.781836E+03
        56  26 -1.148804E+06 -2.006363E+05 -5.492207E+04 -4.163321E+05 -1.152695E+04  1.051902E+03
        56  27 -1.156993E+06 -2.192124E+05 -6.926573E+04 -4.205582E+05 -1.717598E+04 -1.115509E+03
        57   1 -7.896286E+05 -7.428698E+04  2.373443E+04 -3.326451E+05  2.239613E+04  2.107420E+03
        57   2 -7.799903E+05 -4.672900E+04  8.605048E+03 -3.138514E+05  4.516555E+04  1.019908E+04
        57   3 -8.055306E+05 -1.244766E+05 -5.075988E+04 -2.751284E+05  6.628413E+04  2.268088E+04
        57   4 -9.869083E+05 -1.396706E+05 -2.725190E+04 -3.772728E+05  2.133959E+04  1.710586E+03
        57   5 -9.746445E+05 -1.256065E+05 -4.443645E+04 -3.726644E+05  4.587533E+04  1.046532E+04
        57   6 -9.979224E+05 -2.172186E+05 -1.072687E+05 -3.481236E+05  6.875996E+04  2.360953E+04
        57   7 -1.184150E+06 -2.050539E+05 -7.824136E+04 -4.218886E+05  2.028341E+04  1.313854E+03
        57   8 -1.169262E+06 -2.044800E+05 -9.748132E+04 -4.314602E+05  4.658486E+04  1.073145E+04
        57   9 -1.190277E+06 -3.099508E+05 -1.637810E+05 -4.210958E+05  7.123493E+04  2.453765E+04
        57  10 -7.896291E+05 -7.428712E+04  2.373348E+04 -3.326452E+05  2.188230E-09 -1.054848E-09
        57  11 -7.799925E+05 -4.672966E+04  8.601013E+03 -3.138517E+05  5.310909E-10 -1.027960E-10
        57  12 -8.055355E+05 -1.244783E+05 -5.076912E+04 -2.751296E+05 -8.986757E-10  8.576478E-10
        57  13 -9.869087E+05 -1.396707E+05 -2.725276E+04 -3.772728E+05  1.907316E-09  4.829984E-10
        57  14 -9.746468E+05 -1.256072E+05 -4.444062E+04 -3.726648E+05  8.855478E-10  1.101884E-10
        57  15 -9.979277E+05 -2.172205E+05 -1.072787E+05 -3.481249E+05  2.017715E-09  2.733271E-10
        57  16 -1.184151E+06 -2.050540E+05 -7.824213E+04 -4.218886E+05  1.021918E-09  1.504863E-10
        57  17 -1.169264E+06 -2.044807E+05 -9.748562E+04 -4.314606E+05 -6.352442E-09  1.933941E-09
        57  18 -1.190283E+06 -3.099529E+05 -1.637917E+05 -4.210972E+05 -2.276239E-09  6.095733E-10
        57  19 -7.896286E+05 -7.428698E+04  2.373443E+04 -3.326451E+05 -2.239613E+04 -2.107420E+03
        57  20 -7.799903E+05 -4.672900E+04  8.605048E+03 -3.138514E+05 -4.516555E+04 -1.019908E+04
        57  21 -8.055306E+05 -1.244766E+05 -5.075988E+04 -2.751284E+05 -6.628413E+04 -2.268088E+04
        57  22 -9.869083E+05 -1.396706E+05 -2.725190E+04 -3.772728E+05 -2.133959E+04 -1.710586E+03
        57  23 -9.746445E+05 -1.256065E+05 -4.443645E+04 -3.726644E+05 -4.587533E+04 -1.046532E+04
        57  24 -9.979224E+05 -2.172186E+05 -1.072687E+05 -3.481236E+05 -6.875996E+04 -2.360953E+04
        57  25 -1.184150E+06 -2.050539E+05 -7.824136E+04 -4.218886E+05 -2.028341E+04 -1.313854E+03
        57  26 -1.169262E+06 -2.044800E+05 -9.748132E+04 -4.314602E+05 -4.658486E+04 -1.073145E+04
        57  27 -1.190277E+06 -3.099508E+05 -1.637810E+05 -4.210958E+05 -7.123493E+04 -2.453765E+04
        58   1 -5.239529E+04  5.261182E+04  6.703157E+04  1.458636E+04  4.582822E+04  1.076821E+00
        58   2 -6.186807E+04 -8.737995E+03  2.915387E+04  4.088928E+03  3.004186E+04  1.978807E-01
        58   3 -5.239774E+04 -2.542459E+03  1.844203E+04 -6.408505E+03  1.425518E+04 -1.471601E-01
        58   4 -5.239552E+04  5.261142E+04  6.703151E+04  9.345947E-09  4.582822E+04 -2.224841E-10
        58   5 -6.186808E+04 -8.738026E+03  2.915386E+04 -1.645638E-08  3.004186E+04 -1.088260E-10
        58   6 -5.239778E+04 -2.542537E+03  1.844201E+04  2.073995E-08  1.425518E+04 -1.201045E-10
        58   7 -5.239529E+04  5.261182E+04  6.703157E+04 -1.458636E+04  4.582822E+04 -1.076821E+00
        58   8 -6.186807E+04 -8.737995E+03  2.915387E+04 -4.088928E+03  3.004186E+04 -1.978807E-01
        58   9 -5.239774E+04 -2.542459E+03  1.844203E+04  6.408505E+03  1.425518E+04  1.471601E-01
        58  10 -5.239755E+04  5.261126E+04  6.702762E+04  1.458636E+04  5.847399E-10 -8.523781E-11
        58  11 -6.186904E+04 -8.738237E+03  2.915217E+04  4.088928E+03 -1.051057E-09 -1.923869E-10
        58  12 -5.239796E+04 -2.542514E+03  1.844164E+04 -6.408505E+03 -2.073068E-09 -2.664697E-10
        58  13 -5.239778E+04  5.261086E+04  6.702756E+04  5.034928E-09 -3.224969E-11 -2.567930E-11
        58  14 -6.186905E+04 -8.738269E+03  2.915217E+04 -1.215603E-08 -1.630887E-09 -1.292821E-10
        58  15 -5.239800E+04 -2.542591E+03  1.844163E+04 -2.693380E-10 -1.332015E-09 -3.005395E-10
        58  16 -5.239755E+04  5.261126E+04  6.702762E+04 -1.458636E+04 -5.966592E-10  1.920632E-11
        58  17 -6.186904E+04 -8.738237E+03  2.915217E+04 -4.088928E+03 -1.968115E-09 -6.437449E-11
        58  18 -5.239796E+04 -2.542514E+03  1.844164E+04  6.408505E+03 -3.072508E-10 -3.613292E-10
        58  19 -5.239529E+04  5.261182E+04  6.703157E+04  1.458636E+04 -4.582822E+04 -1.076821E+00
        58  20 -6.186807E+04 -8.737995E+03  2.915387E+04  4.088928E+03 -3.004186E+04 -1.978807E-01
        58  21 -5.239774E+04 -2.542459E+03  1.844203E+04 -6.408505E+03 -1.425518E+04  1.471601E-01
        58  22 -5.239552E+04  5.261142E+04  6.703151E+04  1.364646E-08 -4.582822E+04  1.697897E-10
        58  23 -6.186808E+04 -8.738026E+03  2.915386E+04 -1.216233E-08 -3.004186E+04 -1.567603E-10
        58  24 -5.239778E+04 -2.542537E+03  1.844201E+04  1.587585E-08 -1.425518E+04 -4.844050E-10
        58  25 -5.239529E+04  5.261182E+04  6.703157E+04 -1.458636E+04 -4.582822E+04  1.076821E+00
        58  26 -6.186807E+04 -8.737995E+03  2.915387E+04 -4.088928E+03 -3.004186E+04  1.978807E-01
        58  27 -5.239774E+04 -2.542459E+03  1.844203E+04  6.408505E+03 -1.425518E+04 -1.471601E-01
        59   1 -5.605669E+04  6.103829E+03  1.509766E+04  1.551641E+03  1.134617E+04  2.835983E-02
        59   2 -5.729498E+04 -1.033122E+03  7.545932E+03  3.846644E+02  7.457451E+03  4.621000E-03
        59   3 -5.605700E+04 -2.908123E+02  4.495997E+03 -7.823129E+02  3.568746E+03 -4.497371E-03
        59   4 -5.605669E+04  6.103825E+03  1.509766E+04 -5.540633E-09  1.134617E+04 -2.953078E-11
        59   5 -5.729498E+04 -1.033123E+03  7.545932E+03  3.900321E-09  7.457451E+03  1.245668E-10
        59   6 -5.605700E+04 -2.908134E+02  4.495997E+03  3.111070E-08  3.568746E+03 -2.789690E-10
        59   7 -5.605669E+04  6.103829E+03  1.509766E+04 -1.551641E+03  1.134617E+04 -2.835983E-02
        59   8 -5.729498E+04 -1.033122E+03  7.545932E+03 -3.846644E+02  7.457451E+03 -4.621000E-03
        59   9 -5.605700E+04 -2.908123E+02  4.495997E+03  7.823129E+02  3.568746E+03  4.497371E-03
        59  10 -5.605683E+04  6.103795E+03  1.509742E+04  1.551641E+03 -3.869491E-10  5.117479E-11
        59  11 -5.729504E+04 -1.033137E+03  7.545828E+03  3.846644E+02 -8.614966E-10  5.938777E-10
        59  12 -5.605701E+04 -2.908157E+02  4.495973E+03 -7.823129E+02  6.054886E-10  4.203768E-10
        59  13 -5.605683E+04  6.103790E+03  1.509742E+04 -1.411133E-08 -3.252059E-09 -4.797864E-11
        59  14 -5.729504E+04 -1.033138E+03  7.545828E+03 -4.039767E-10 -1.647201E-09  4.585859E-10
        59  15 -5.605701E+04 -2.908168E+02  4.495973E+03  1.976495E-08 -1.728872E-09  1.013681E-10
        59  16 -5.605683E+04  6.103795E+03  1.509742E+04 -1.551641E+03  9.375959E-10 -1.498837E-10
        59  17 -5.729504E+04 -1.033137E+03  7.545828E+03 -3.846644E+02 -5.164651E-10  3.276080E-10
        59  18 -5.605701E+04 -2.908157E+02  4.495973E+03  7.823129E+02 -1.943232E-09 -2.169651E-10
        59  19 -5.605669E+04  6.103829E+03  1.509766E+04  1.551641E+03 -1.134617E+04 -2.835983E-02
        59  20 -5.729498E+04 -1.033122E+03  7.545932E+03  3.846644E+02 -7.457451E+03 -4.620999E-03
        59  21 -5.605700E+04 -2.908123E+02  4.495997E+03 -7.823129E+02 -3.568746E+03  4.497372E-03
        59  22 -5.605669E+04  6.103825E+03  1.509766E+04 -5.451174E-09 -1.134617E+04 -7.045576E-11
        59  23 -5.729498E+04 -1.033123E+03  7.545932E+03 -4.708147E-09 -7.457451E+03  8.019094E-10
        59  24 -5.605700E+04 -2.908134E+02  4.495997E+03  3.103550E-08 -3.568746E+03  4.799451E-10
        59  25 -5.605669E+04  6.103829E+03  1.509766E+04 -1.551641E+03 -1.134617E+04  2.835983E-02
        59  26 -5.729498E+04 -1.033122E+03  7.545932E+03 -3.846644E+02 -7.457451E+03  4.621000E-03
        59  27 -5.605700E+04 -2.908123E+02  4.495997E+03  7.823129E+02 -3.568746E+03 -4.497371E-03
        60   1 -5.653035E+04  6.994233E+02  3.509155E+03  1.412879E+02  2.858332E+03  6.505498E-04
        60   2 -5.670340E+04 -1.223460E+02  1.808606E+03  1.964303E+01  1.946425E+03  6.159076E-05
        60   3 -5.653040E+04 -3.485449E+01  9.290912E+02 -1.020001E+02  1.034533E+03 -1.699830E-04
        60   4 -5.653035E+04  6.994233E+02  3.509155E+03  3.238072E-08  2.858332E+03  1.865558E-10
        60   5 -5.670340E+04 -1.223460E+02  1.808606E+03 -2.300621E-09  1.946425E+03  1.296666E-09
        60   6 -5.653040E+04 -3.485451E+01  9.290912E+02 -4.673536E-09  1.034533E+03  5.278367E-10
        60   7 -5.653035E+04  6.994233E+02  3.509155E+03 -1.412879E+02  2.858332E+03 -6.505494E-04
        60   8 -5.670340E+04 -1.223460E+02  1.808606E+03 -1.964303E+01  1.946425E+03 -6.158818E-05
        60   9 -5.653040E+04 -3.485449E+01  9.290912E+02  1.020001E+02  1.034533E+03  1.699841E-04
        60  10 -5.653035E+04  6.994211E+02  3.509140E+03  1.412879E+02 -6.677299E-10 -2.416519E-11
        60  11 -5.670341E+04 -1.223470E+02  1.808599E+03  1.964303E+01  2.441125E-09 -2.780659E-10
        60  12 -5.653040E+04 -3.485478E+01  9.290892E+02 -1.020001E+02 -1.244861E-09  4.942483E-10
        60  13 -5.653035E+04  6.994211E+02  3.509140E+03  1.085752E-08 -1.055286E-09 -6.280498E-11
        60  14 -5.670341E+04 -1.223470E+02  1.808599E+03  1.062483E-08 -2.153902E-09  1.213866E-10
        60  15 -5.653040E+04 -3.485480E+01  9.290892E+02 -1.653151E-08 -3.055003E-09  2.284218E-11
        60  16 -5.653035E+04  6.994211E+02  3.509140E+03 -1.412879E+02 -9.173020E-10 -1.055542E-10
        60  17 -5.670341E+04 -1.223470E+02  1.808599E+03 -1.964303E+01 -1.297175E-09  5.117980E-10
        60  18 -5.653040E+04 -3.485478E+01  9.290892E+02  1.020001E+02  1.785860E-09 -4.531320E-10
        60  19 -5.653035E+04  6.994233E+02  3.509155E+03  1.412879E+02 -2.858332E+03 -6.505498E-04
        60  20 -5.670340E+04 -1.223460E+02  1.808606E+03  1.964303E+01 -1.946425E+03 -6.159128E-05
        60  21 -5.653040E+04 -3.485449E+01  9.290912E+02 -1.020001E+02 -1.034533E+03  1.699840E-04
        60  22 -5.653035E+04  6.994233E+02  3.509155E+03  3.671914E-08 -2.858332E+03 -3.100781E-10
        60  23 -5.670340E+04 -1.223460E+02  1.808606E+03  2.011018E-09 -1.946425E+03 -1.052608E-09
        60  24 -5.653040E+04 -3.485451E+01  9.290912E+02  1.953432E-08 -1.034533E+03 -4.836413E-10
        60  25 -5.653035E+04  6.994233E+02  3.509155E+03 -1.412879E+02 -2.858332E+03  6.505493E-04
        60  26 -5.670340E+04 -1.223460E+02  1.808606E+03 -1.964303E+01 -1.946425E+03  6.158909E-05
        60  27 -5.653040E+04 -3.485449E+01  9.290912E+02  1.020001E+02 -1.034533E+03 -1.699850E-04
        61   1 -5.660334E+04  7.896878E+01  6.096312E+02 -6.150597E-01  8.967151E+02 -8.879635E-07
        61   2 -5.661226E+04 -7.978737E+00  3.590915E+01 -1.003303E+01  8.777169E+02 -1.418615E-05
        61   3 -5.660335E+04 -3.348658E+01 -5.100785E+02 -1.945115E+01  8.587184E+02 -2.690720E-05
        61   4 -5.660334E+04  7.896878E+01  6.096312E+02 -1.138051E-08  8.967151E+02 -1.405067E-10
        61   5 -5.661226E+04 -7.978737E+00  3.590915E+01 -4.386296E-09  8.777169E+02 -4.103407E-10
        61   6 -5.660335E+04 -3.348658E+01 -5.100785E+02 -8.161452E-09  8.587184E+02 -6.009162E-10
        61   7 -5.660334E+04  7.896878E+01  6.096312E+02  6.150596E-01  8.967151E+02  8.876731E-07
        61   8 -5.661226E+04 -7.978737E+00  3.590915E+01  1.003303E+01  8.777169E+02  1.418528E-05
        61   9 -5.660335E+04 -3.348658E+01 -5.100785E+02  1.945115E+01  8.587184E+02  2.690602E-05
        61  10 -5.660334E+04  7.896856E+01  6.096297E+02 -6.150597E-01 -2.707431E-09  5.806723E-10
        61  11 -5.661226E+04 -7.978944E+00  3.590770E+01 -1.003303E+01 -2.361585E-09 -1.249779E-10
        61  12 -5.660336E+04 -3.348678E+01 -5.100799E+02 -1.945115E+01 -2.231771E-09 -2.190622E-10
        61  13 -5.660334E+04  7.896856E+01  6.096297E+02  1.015953E-08 -2.157055E-09 -4.532648E-11
        61  14 -5.661226E+04 -7.978944E+00  3.590770E+01  6.378204E-09 -2.682143E-09 -8.462297E-11
        61  15 -5.660336E+04 -3.348678E+01 -5.100799E+02  2.305892E-08 -1.555352E-10 -2.615812E-10
        61  16 -5.660334E+04  7.896856E+01  6.096297E+02  6.150597E-01  1.080198E-09 -6.702465E-10
        61  17 -5.661226E+04 -7.978944E+00  3.590770E+01  1.003303E+01  3.189759E-09 -3.430156E-11
        61  18 -5.660336E+04 -3.348678E+01 -5.100799E+02  1.945115E+01  1.162268E-09 -2.957218E-10
        61  19 -5.660334E+04  7.896878E+01  6.096312E+02 -6.150597E-01 -8.967151E+02  8.891345E-07
        61  20 -5.661226E+04 -7.978737E+00  3.590915E+01 -1.003303E+01 -8.777169E+02  1.418591E-05
        61  21 -5.660335E+04 -3.348658E+01 -5.100785E+02 -1.945115E+01 -8.587184E+02  2.690677E-05
        61  22 -5.660334E+04  7.896878E+01  6.096312E+02  2.739227E-08 -8.967151E+02  4.934673E-11
        61  23 -5.661226E+04 -7.978737E+00  3.590915E+01  3.006610E-08 -8.777169E+02  2.417212E-10
        61  24 -5.660335E+04 -3.348658E+01 -5.100785E+02  2.573936E-08 -8.587184E+02  7.844501E-11
        61  25 -5.660334E+04  7.896878E+01  6.096312E+02  6.150597E-01 -8.967151E+02 -8.890231E-07
        61  26 -5.661226E+04 -7.978737E+00  3.590915E+01  1.003303E+01 -8.777169E+02 -1.418543E-05
        61  27 -5.660335E+04 -3.348658E+01 -5.100785E+02  1.945115E+01 -8.587184E+02 -2.690661E-05
        62   1 -5.665226E+04  2.046287E+01 -8.208176E+02 -5.156060E+01  9.788332E+02 -8.129971E-05
        62   2 -5.655116E+04  5.371612E+01 -1.665185E+03 -1.392041E+01  1.808955E+03 -4.056350E-05
        62   3 -5.665229E+04 -2.895227E+02 -3.144154E+03  2.371981E+01  2.639076E+03  1.008377E-04
        62   4 -5.665226E+04  2.046286E+01 -8.208176E+02  4.346186E-09  9.788332E+02  4.880705E-11
        62   5 -5.655116E+04  5.371612E+01 -1.665185E+03 -1.240806E-08  1.808955E+03  8.567367E-10
        62   6 -5.665229E+04 -2.895227E+02 -3.144154E+03  2.607259E-09  2.639076E+03 -8.113197E-10
        62   7 -5.665226E+04  2.046287E+01 -8.208176E+02  5.156060E+01  9.788332E+02  8.129984E-05
        62   8 -5.655116E+04  5.371612E+01 -1.665185E+03  1.392041E+01  1.808955E+03  4.056515E-05
        62   9 -5.665229E+04 -2.895227E+02 -3.144154E+03 -2.371981E+01  2.639076E+03 -1.008394E-04
        62  10 -5.665226E+04  2.046261E+01 -8.208194E+02 -5.156060E+01 -2.343043E-09 -1.136046E-10
        62  11 -5.655117E+04  5.371524E+01 -1.665192E+03 -1.392041E+01 -7.874700E-10 -8.806491E-11
        62  12 -5.665230E+04 -2.895246E+02 -3.144167E+03  2.371981E+01 -1.143004E-09 -1.181988E-10
        62  13 -5.665226E+04  2.046261E+01 -8.208194E+02 -8.553682E-09  3.191781E-09 -1.723828E-10
        62  14 -5.655117E+04  5.371524E+01 -1.665192E+03 -1.025709E-08 -4.348435E-09  4.465261E-11
        62  15 -5.665230E+04 -2.895246E+02 -3.144167E+03 -1.519141E-08  8.000897E-10 -2.920887E-10
        62  16 -5.665226E+04  2.046261E+01 -8.208194E+02  5.156060E+01  7.200885E-10 -2.384165E-10
        62  17 -5.655117E+04  5.371524E+01 -1.665192E+03  1.392041E+01  3.738391E-09  1.718109E-10
        62  18 -5.665230E+04 -2.895246E+02 -3.144167E+03 -2.371981E+01 -1.338153E-09 -4.697056E-10
        62  19 -5.665226E+04  2.046287E+01 -8.208176E+02 -5.156060E+01 -9.788332E+02  8.129949E-05
        62  20 -5.655116E+04  5.371612E+01 -1.665185E+03 -1.392041E+01 -1.808955E+03  4.056338E-05
        62  21 -5.665229E+04 -2.895227E+02 -3.144154E+03  2.371981E+01 -2.639076E+03 -1.008380E-04
        62  22 -5.665226E+04  2.046286E+01 -8.208176E+02  1.731655E-08 -9.788332E+02 -3.935078E-10
        62  23 -5.655116E+04  5.371612E+01 -1.665185E+03 -1.241398E-08 -1.808955E+03 -7.679805E-10
        62  24 -5.665229E+04 -2.895227E+02 -3.144154E+03  1.277996E-08 -2.639076E+03  2.174811E-10
        62  25 -5.665226E+04  2.046287E+01 -8.208176E+02  5.156060E+01 -9.788332E+02 -8.130034E-05
        62  26 -5.655116E+04  5.371612E+01 -1.665185E+03  1.392041E+01 -1.808955E+03 -4.056489E-05
        62  27 -5.665229E+04 -2.895227E+02 -3.144154E+03 -2.371981E+01 -2.639076E+03  1.008383E-04
        63   1 -5.689904E+04  1.203859E+02 -4.117499E+03 -3.684010E+02  3.290855E+03 -1.952957E-03
        63   2 -5.624280E+04  4.572805E+02 -7.092128E+03  8.021311E+01  6.863209E+03  8.868198E-04
        63   3 -5.689917E+04 -2.595464E+03 -1.324001E+04  5.288216E+02  1.043549E+04  8.889652E-03
        63   4 -5.689904E+04  1.203857E+02 -4.117499E+03  1.549791E-09  3.290855E+03 -8.287936E-10
        63   5 -5.624280E+04  4.572805E+02 -7.092128E+03  6.824259E-09  6.863209E+03  6.673115E-10
        63   6 -5.689917E+04 -2.595465E+03 -1.324001E+04  1.867549E-09  1.043549E+04 -5.876133E-10
        63   7 -5.689904E+04  1.203859E+02 -4.117499E+03  3.684010E+02  3.290855E+03  1.952955E-03
        63   8 -5.624280E+04  4.572805E+02 -7.092128E+03 -8.021311E+01  6.863209E+03 -8.868186E-04
        63   9 -5.689917E+04 -2.595464E+03 -1.324001E+04 -5.288216E+02  1.043549E+04 -8.889654E-03
        63  10 -5.689905E+04  1.203830E+02 -4.117520E+03 -3.684010E+02  5.448807E-10  1.647991E-10
        63  11 -5.624285E+04  4.572679E+02 -7.092216E+03  8.021311E+01  8.129100E-10  6.337475E-10
        63  12 -5.689929E+04 -2.595494E+03 -1.324022E+04  5.288216E+02  8.384042E-10  1.866678E-10
        63  13 -5.689905E+04  1.203828E+02 -4.117520E+03 -2.423795E-08 -1.051683E-12 -9.136730E-11
        63  14 -5.624285E+04  4.572679E+02 -7.092216E+03 -2.117140E-08 -5.186250E-10  5.729391E-10
        63  15 -5.689929E+04 -2.595494E+03 -1.324022E+04  1.420410E-08  1.097494E-11  1.181664E-10
        63  16 -5.689905E+04  1.203830E+02 -4.117520E+03  3.684010E+02  5.411997E-10 -3.480474E-10
        63  17 -5.624285E+04  4.572679E+02 -7.092216E+03 -8.021311E+01 -2.906994E-09  5.154697E-10
        63  18 -5.689929E+04 -2.595494E+03 -1.324022E+04 -5.288216E+02  9.636063E-11  5.138763E-11
        63  19 -5.689904E+04  1.203859E+02 -4.117499E+03 -3.684010E+02 -3.290855E+03  1.952957E-03
        63  20 -5.624280E+04  4.572805E+02 -7.092128E+03  8.021311E+01 -6.863209E+03 -8.868182E-04
        63  21 -5.689917E+04 -2.595464E+03 -1.324001E+04  5.288216E+02 -1.043549E+04 -8.889652E-03
        63  22 -5.689904E+04  1.203857E+02 -4.117499E+03 -2.640389E-09 -3.290855E+03  6.467910E-10
        63  23 -5.624280E+04  4.572805E+02 -7.092128E+03 -1.901254E-08 -6.863209E+03  4.773976E-10
        63  24 -5.689917E+04 -2.595465E+03 -1.324001E+04  1.684741E-08 -1.043549E+04  8.649316E-10
        63  25 -5.689904E+04  1.203859E+02 -4.117499E+03  3.684010E+02 -3.290855E+03 -1.952956E-03
        63  26 -5.624280E+04  4.572805E+02 -7.092128E+03 -8.021311E+01 -6.863209E+03  8.868192E-04
        63  27 -5.689917E+04 -2.595464E+03 -1.324001E+04 -5.288216E+02 -1.043549E+04  8.889654E-03
        64   1 -5.865069E+04  1.079039E+03 -1.684867E+04 -2.900025E+03  1.310652E+04 -6.122842E-02
        64   2 -5.405328E+04  3.834442E+03 -2.809320E+04  1.429566E+03  2.758316E+04  6.351973E-02
        64   3 -5.865090E+04 -2.265121E+04 -5.607225E+04  5.759231E+03  4.205985E+04  3.902062E-01
        64   4 -5.865070E+04  1.079023E+03 -1.684867E+04  9.745493E-09  1.310652E+04 -6.290298E-10
        64   5 -5.405328E+04  3.834438E+03 -2.809320E+04  1.611428E-08  2.758316E+04  9.356298E-10
        64   6 -5.865094E+04 -2.265127E+04 -5.607226E+04  2.840606E-08  4.205985E+04  1.954070E-10
        64   7 -5.865069E+04  1.079039E+03 -1.684867E+04  2.900025E+03  1.310652E+04  6.122842E-02
        64   8 -5.405328E+04  3.834442E+03 -2.809320E+04 -1.429566E+03  2.758316E+04 -6.351973E-02
        64   9 -5.865090E+04 -2.265121E+04 -5.607225E+04 -5.759231E+03  4.205985E+04 -3.902062E-01
        64  10 -5.865087E+04  1.078993E+03 -1.684899E+04 -2.900025E+03  1.653263E-11 -2.140849E-10
        64  11 -5.405410E+04  3.834238E+03 -2.809463E+04  1.429566E+03 -1.163039E-09 -2.421161E-10
        64  12 -5.865280E+04 -2.265168E+04 -5.607557E+04  5.759230E+03  4.928668E-10  2.160428E-10
        64  13 -5.865088E+04  1.078977E+03 -1.684899E+04  1.835918E-08 -5.784214E-12 -2.518398E-10
        64  14 -5.405410E+04  3.834234E+03 -2.809463E+04 -1.834002E-08  2.629183E-13 -1.989939E-10
        64  15 -5.865284E+04 -2.265174E+04 -5.607558E+04  7.424756E-09  3.981056E-10  9.379638E-11
        64  16 -5.865087E+04  1.078993E+03 -1.684899E+04  2.900025E+03  1.589320E-09 -2.915088E-10
        64  17 -5.405410E+04  3.834238E+03 -2.809463E+04 -1.429566E+03 -2.257301E-10 -1.658824E-10
        64  18 -5.865280E+04 -2.265168E+04 -5.607557E+04 -5.759230E+03 -1.661926E-09 -2.802758E-11
        64  19 -5.865069E+04  1.079039E+03 -1.684867E+04 -2.900025E+03 -1.310652E+04  6.122842E-02
        64  20 -5.405328E+04  3.834442E+03 -2.809320E+04  1.429566E+03 -2.758316E+04 -6.351973E-02
        64  21 -5.865090E+04 -2.265121E+04 -5.607225E+04  5.759231E+03 -4.205985E+04 -3.902062E-01
        64  22 -5.865070E+04  1.079023E+03 -1.684867E+04  3.558744E-08 -1.310652E+04  1.249270E-10
        64  23 -5.405328E+04  3.834438E+03 -2.809320E+04  1.613131E-08 -2.758316E+04 -1.320267E-09
        64  24 -5.865094E+04 -2.265127E+04 -5.607226E+04  2.790620E-08 -4.205985E+04  4.424306E-13
        64  25 -5.865069E+04  1.079039E+03 -1.684867E+04  2.900025E+03 -1.310652E+04 -6.122842E-02
        64  26 -5.405328E+04  3.834442E+03 -2.809320E+04 -1.429566E+03 -2.758316E+04  6.351973E-02
        64  27 -5.865090E+04 -2.265121E+04 -5.607225E+04 -5.759231E+03 -4.205985E+04  3.902062E-01
        65   1 -7.222543E+04  9.437138E+03 -6.846421E+04 -2.378074E+04  5.285966E+04 -2.024983E+00
        65   2 -3.707871E+04  3.242755E+04 -1.081683E+05  1.517630E+04  1.114552E+05  2.724670E+00
        65   3 -7.221930E+04 -1.952297E+05 -2.486721E+05  5.413118E+04  1.700518E+05  1.482822E+01
        65   4 -7.222604E+04  9.436075E+03 -6.846436E+04  3.235797E-08  5.285966E+04 -8.705706E-11
        65   5 -3.707896E+04  3.242712E+04 -1.081684E+05  1.302222E-08  1.114552E+05  5.714046E-10
        65   6 -7.222244E+04 -1.952352E+05 -2.486729E+05  1.845508E-08  1.700518E+05 -1.182765E-09
        65   7 -7.222543E+04  9.437138E+03 -6.846421E+04  2.378074E+04  5.285966E+04  2.024983E+00
        65   8 -3.707871E+04  3.242755E+04 -1.081683E+05 -1.517630E+04  1.114552E+05 -2.724670E+00
        65   9 -7.221930E+04 -1.952297E+05 -2.486721E+05 -5.413118E+04  1.700518E+05 -1.482822E+01
        65  10 -7.222843E+04  9.436388E+03 -6.846946E+04 -2.378074E+04  2.974614E-10  8.563291E-11
        65  11 -3.709205E+04  3.242422E+04 -1.081916E+05  1.517630E+04 -1.298453E-09 -6.077439E-10
        65  12 -7.225036E+04 -1.952375E+05 -2.487265E+05  5.413118E+04 -7.385070E-10 -3.577936E-10
        65  13 -7.222904E+04  9.435325E+03 -6.846961E+04  1.940252E-08  2.160715E-09  1.086933E-12
        65  14 -3.709230E+04  3.242378E+04 -1.081917E+05  2.247700E-09 -5.495868E-10 -3.701136E-10
        65  15 -7.225350E+04 -1.952430E+05 -2.487272E+05  1.524804E-08 -2.005168E-09 -1.724723E-10
        65  16 -7.222843E+04  9.436388E+03 -6.846946E+04  2.378074E+04  7.880722E-10 -6.280957E-12
        65  17 -3.709205E+04  3.242422E+04 -1.081916E+05 -1.517630E+04  7.531477E-10 -2.384402E-10
        65  18 -7.225036E+04 -1.952375E+05 -2.487265E+05 -5.413118E+04  2.930922E-11 -4.597511E-11
        65  19 -7.222543E+04  9.437138E+03 -6.846421E+04 -2.378074E+04 -5.285966E+04  2.024983E+00
        65  20 -3.707871E+04  3.242755E+04 -1.081683E+05  1.517630E+04 -1.114552E+05 -2.724670E+00
        65  21 -7.221930E+04 -1.952297E+05 -2.486721E+05  5.413118E+04 -1.700518E+05 -1.482822E+01
        65  22 -7.222604E+04  9.436075E+03 -6.846436E+04  3.229227E-08 -5.285966E+04  9.845389E-11
        65  23 -3.707896E+04  3.242712E+04 -1.081684E+05  1.301348E-08 -1.114552E+05 -1.309629E-09
        65  24 -7.222244E+04 -1.952352E+05 -2.486729E+05  1.527338E-08 -1.700518E+05  2.195829E-10
        65  25 -7.222543E+04  9.437138E+03 -6.846421E+04  2.378074E+04 -5.285966E+04 -2.024983E+00
        65  26 -3.707871E+04  3.242755E+04 -1.081683E+05 -1.517630E+04 -1.114552E+05  2.724670E+00
        65  27 -7.221930E+04 -1.952297E+05 -2.486721E+05 -5.413118E+04 -1.700518E+05  1.482822E+01
        66   1  5.635502E+04 -1.778449E+05  5.282119E+04 -4.616256E+03  2.466541E+03 -7.501136E+03
        66   2  6.572762E+04 -1.910345E+05  5.651921E+04 -4.791862E+02  7.380482E+03 -6.772468E+03
        66   3  6.113057E+04 -2.077181E+05  5.627020E+04 -9.174319E+03  6.775992E+03 -6.044471E+03
        66   4 -1.158910E+04 -4.500859E+05 -1.456846E+04 -7.754398E+03  2.466874E+03 -1.081201E+04
        66   5  1.847571E+03 -4.481292E+05 -5.701217E+03 -1.337321E+03  7.380918E+03 -7.700964E+03
        66   6  8.977420E+02 -4.500819E+05 -2.437536E+03 -7.752778E+03  6.775527E+03 -4.590523E+03
        66   7 -7.953872E+04 -7.222594E+05 -8.196359E+04 -1.089116E+04  2.467241E+03 -1.412143E+04
        66   8 -6.203732E+04 -7.051634E+05 -6.792639E+04 -2.195095E+03  7.381357E+03 -8.629077E+03
        66   9 -5.933939E+04 -6.923920E+05 -6.114950E+04 -6.331788E+03  6.775070E+03 -3.137140E+03
        66  10  5.635500E+04 -1.778449E+05  5.282107E+04 -4.616241E+03  8.537510E-10  1.441257E-09
        66  11  6.572755E+04 -1.910346E+05  5.651902E+04 -4.791459E+02  1.231088E-09  1.014327E-09
        66  12  6.113051E+04 -2.077181E+05  5.627005E+04 -9.174286E+03  4.716642E-10 -2.575972E-11
        66  13 -1.158914E+04 -4.500860E+05 -1.456869E+04 -7.754377E+03  4.055864E-09 -3.133149E-12
        66  14  1.847496E+03 -4.481293E+05 -5.701431E+03 -1.337275E+03  2.594883E-09  1.442369E-10
        66  15  8.976871E+02 -4.500819E+05 -2.437662E+03 -7.752753E+03  3.121114E-09  5.079288E-11
        66  16 -7.953878E+04 -7.222597E+05 -8.196397E+04 -1.089113E+04  1.343647E-09 -1.475452E-09
        66  17 -6.203740E+04 -7.051635E+05 -6.792663E+04 -2.195043E+03  2.593579E-09 -8.683948E-10
        66  18 -5.933944E+04 -6.923920E+05 -6.114960E+04 -6.331771E+03  1.437099E-09  3.691157E-10
        66  19  5.635502E+04 -1.778449E+05  5.282119E+04 -4.616256E+03 -2.466541E+03  7.501136E+03
        66  20  6.572762E+04 -1.910345E+05  5.651921E+04 -4.791862E+02 -7.380482E+03  6.772468E+03
        66  21  6.113057E+04 -2.077181E+05  5.627020E+04 -9.174319E+03 -6.775992E+03  6.044471E+03
        66  22 -1.158910E+04 -4.500859E+05 -1.456846E+04 -7.754398E+03 -2.466874E+03  1.081201E+04
        66  23  1.847571E+03 -4.481292E+05 -5.701217E+03 -1.337321E+03 -7.380918E+03  7.700964E+03
        66  24  8.977420E+02 -4.500819E+05 -2.437536E+03 -7.752778E+03 -6.775527E+03  4.590523E+03
        66  25 -7.953872E+04 -7.222594E+05 -8.196359E+04 -1.089116E+04 -2.467241E+03  1.412143E+04
        66  26 -6.203732E+04 -7.051634E+05 -6.792639E+04 -2.195095E+03 -7.381357E+03  8.629077E+03
        66  27 -5.933939E+04 -6.923920E+05 -6.114950E+04 -6.331788E+03 -6.775070E+03  3.137140E+03
        67   1  5.264308E+04 -2.313503E+05  5.165185E+04 -8.010148E+03  5.664242E+03 -4.177573E+03
        67   2  4.998577E+04 -2.471628E+05  5.098208E+04 -1.000467E+03  5.565520E+03 -5.492697E+03
        67   3  4.948591E+04 -2.622238E+05  5.171676E+04 -7.421071E+03  4.772302E+03 -6.808487E+03
        67   4 -1.484776E+03 -4.490552E+05 -1.201951E+03 -7.887671E+03  5.664427E+03 -4.283613E+03
        67   5 -2.803125E+02 -4.494037E+05  1.967185E+03 -1.170840E+03  5.565512E+03 -5.298523E+03
        67   6  3.029824E+03 -4.490529E+05  6.332426E+03 -7.884559E+03  4.772003E+03 -6.314131E+03
        67   7 -5.561612E+04 -6.667168E+05 -5.405918E+04 -7.765231E+03  5.664611E+03 -4.389616E+03
        67   8 -5.054939E+04 -6.516072E+05 -4.705066E+04 -1.341151E+03  5.565505E+03 -5.104413E+03
        67   9 -4.342883E+04 -6.358502E+05 -3.905443E+04 -8.347900E+03  4.771703E+03 -5.819923E+03
        67  10  5.264304E+04 -2.313503E+05  5.165176E+04 -8.010128E+03  1.638888E-09  2.078955E-09
        67  11  4.998573E+04 -2.471628E+05  5.098197E+04 -1.000443E+03  1.967319E-09 -7.689635E-10
        67  12  4.948587E+04 -2.622238E+05  5.171663E+04 -7.421045E+03  2.115666E-09 -1.894101E-09
        67  13 -1.484816E+03 -4.490552E+05 -1.202046E+03 -7.887651E+03  1.116617E-09  1.913072E-11
        67  14 -2.803533E+02 -4.494037E+05  1.967074E+03 -1.170816E+03  2.851921E-09  4.053152E-10
        67  15  3.029789E+03 -4.490530E+05  6.332308E+03 -7.884534E+03  7.186558E-10  7.022721E-11
        67  16 -5.561616E+04 -6.667168E+05 -5.405928E+04 -7.765211E+03  5.136957E-10 -2.345663E-09
        67  17 -5.054943E+04 -6.516073E+05 -4.705077E+04 -1.341128E+03  9.216275E-10  1.184883E-09
        67  18 -4.342886E+04 -6.358503E+05 -3.905454E+04 -8.347877E+03 -9.047769E-10  2.565756E-09
        67  19  5.264308E+04 -2.313503E+05  5.165185E+04 -8.010148E+03 -5.664242E+03  4.177573E+03
        67  20  4.998577E+04 -2.471628E+05  5.098208E+04 -1.000467E+03 -5.565520E+03  5.492697E+03
        67  21  4.948591E+04 -2.622238E+05  5.171676E+04 -7.421071E+03 -4.772302E+03  6.808487E+03
        67  22 -1.484776E+03 -4.490552E+05 -1.201951E+03 -7.887671E+03 -5.664427E+03  4.283613E+03
        67  23 -2.803125E+02 -4.494037E+05  1.967185E+03 -1.170840E+03 -5.565512E+03  5.298523E+03
        67  24  3.029824E+03 -4.490529E+05  6.332426E+03 -7.884559E+03 -4.772003E+03  6.314131E+03
        67  25 -5.561612E+04 -6.667168E+05 -5.405918E+04 -7.765231E+03 -5.664611E+03  4.389616E+03
        67  26 -5.054939E+04 -6.516072E+05 -4.705066E+04 -1.341151E+03 -5.565505E+03  5.104413E+03
        67  27 -4.342883E+04 -6.358502E+05 -3.905443E+04 -8.347900E+03 -4.771703E+03  5.819923E+03
        68   1  3.873193E+04 -2.857841E+05  4.723406E+04 -1.116064E+04  4.682341E+03 -7.313264E+03
        68   2  3.194421E+04 -3.062423E+05  4.900633E+04  8.207478E+02  4.136348E+03 -1.578126E+04
        68   3  5.786439E+04 -3.174199E+05  6.447059E+04 -1.025613E+03  1.289875E+03 -2.425156E+04
        68   4 -1.377755E+03 -4.471830E+05  8.182122E+03 -7.983380E+03  4.682610E+03 -7.569753E+03
        68   5 -4.207319E+03 -4.517339E+05  1.377852E+04 -1.055549E+03  4.135742E+03 -1.504280E+04
        68   6  2.550203E+04 -4.471759E+05  3.237753E+04 -7.955502E+03  1.288291E+03 -2.251838E+04
        68   7 -4.148931E+04 -6.085580E+05 -3.087168E+04 -4.806943E+03  4.682876E+03 -7.826175E+03
        68   8 -4.036038E+04 -5.972062E+05 -2.145081E+04 -2.931400E+03  4.135131E+03 -1.430453E+04
        68   9 -6.861409E+03 -5.769165E+05  2.832618E+02 -1.488394E+04  1.286668E+03 -2.078555E+04
        68  10  3.873189E+04 -2.857842E+05  4.723392E+04 -1.116061E+04  8.621226E-10  5.226435E-09
        68  11  3.194412E+04 -3.062426E+05  4.900583E+04  8.208003E+02 -3.999215E-10  1.920491E-09
        68  12  5.786423E+04 -3.174205E+05  6.446948E+04 -1.025588E+03 -3.494442E-10 -1.655822E-09
        68  13 -1.377794E+03 -4.471831E+05  8.181974E+03 -7.983352E+03  2.424075E-09  2.633462E-11
        68  14 -4.207398E+03 -4.517341E+05  1.377806E+04 -1.055499E+03 -1.135068E-09  5.225163E-10
        68  15  2.550189E+04 -4.471764E+05  3.237657E+04 -7.955479E+03 -7.931667E-10  1.097532E-10
        68  16 -4.148935E+04 -6.085581E+05 -3.087184E+04 -4.806914E+03 -8.293857E-10 -5.672558E-09
        68  17 -4.036046E+04 -5.972064E+05 -2.145122E+04 -2.931353E+03 -3.926519E-10 -1.384681E-09
        68  18 -6.861526E+03 -5.769170E+05  2.824461E+02 -1.488392E+04 -3.326709E-10  2.575327E-09
        68  19  3.873193E+04 -2.857841E+05  4.723406E+04 -1.116064E+04 -4.682341E+03  7.313264E+03
        68  20  3.194421E+04 -3.062423E+05  4.900633E+04  8.207478E+02 -4.136348E+03  1.578126E+04
        68  21  5.786439E+04 -3.174199E+05  6.447059E+04 -1.025613E+03 -1.289875E+03  2.425156E+04
        68  22 -1.377755E+03 -4.471830E+05  8.182122E+03 -7.983380E+03 -4.682610E+03  7.569753E+03
        68  23 -4.207319E+03 -4.517339E+05  1.377852E+04 -1.055549E+03 -4.135742E+03  1.504280E+04
        68  24  2.550203E+04 -4.471759E+05  3.237753E+04 -7.955502E+03 -1.288291E+03  2.251838E+04
        68  25 -4.148931E+04 -6.085580E+05 -3.087168E+04 -4.806943E+03 -4.682876E+03  7.826175E+03
        68  26 -4.036038E+04 -5.972062E+05 -2.145081E+04 -2.931400E+03 -4.135131E+03  1.430453E+04
        68  27 -6.861409E+03 -5.769165E+05  2.832618E+02 -1.488394E+04 -1.286668E+03  2.078555E+04
        69   1 -4.775644E+05 -1.023099E+05 -3.702171E+04 -1.766989E+05 -1.501150E+04 -5.072919E+03
        69   2 -4.684422E+05 -7.517721E+04 -2.119204E+04 -1.741710E+05 -9.731006E+03 -2.102659E+03
        69   3 -4.620628E+05 -7.502989E+04 -1.530685E+04 -1.729790E+05 -3.981311E+03 -3.832566E+02
        69   4 -4.271050E+05 -7.910919E+04 -2.242333E+04 -1.586830E+05 -1.440853E+04 -4.846945E+03
        69   5 -4.246416E+05 -5.755623E+04 -9.292876E+03 -1.610553E+05 -9.633289E+03 -2.066051E+03
        69   6 -4.248203E+05 -6.288772E+04 -5.705857E+03 -1.647639E+05 -4.388930E+03 -5.360607E+02
        69   7 -3.766434E+05 -5.590803E+04 -7.825266E+03 -1.406657E+05 -1.380550E+04 -4.620941E+03
        69   8 -3.808391E+05 -3.993508E+04  2.606096E+03 -1.479389E+05 -9.535565E+03 -2.029439E+03
        69   9 -3.875763E+05 -5.074552E+04  3.895044E+03 -1.565484E+05 -4.796577E+03 -6.888721E+02
        69  10 -4.775646E+05 -1.023100E+05 -3.702218E+04 -1.766990E+05 -2.698893E-09  5.679451E-10
        69  11 -4.684423E+05 -7.517724E+04 -2.119222E+04 -1.741710E+05 -4.720581E-10  1.740953E-09
        69  12 -4.620628E+05 -7.502990E+04 -1.530688E+04 -1.729790E+05  1.335979E-09 -4.438927E-10
        69  13 -4.271052E+05 -7.910927E+04 -2.242377E+04 -1.586831E+05 -2.689243E-10  6.858772E-10
        69  14 -4.246417E+05 -5.755626E+04 -9.293059E+03 -1.610553E+05  1.621336E-09  1.429873E-09
        69  15 -4.248203E+05 -6.288772E+04 -5.705894E+03 -1.647639E+05 -1.706856E-09 -9.103933E-11
        69  16 -3.766436E+05 -5.590810E+04 -7.825664E+03 -1.406658E+05  1.024093E-09  7.800057E-10
        69  17 -3.808392E+05 -3.993511E+04  2.605917E+03 -1.479389E+05  2.871756E-10  1.147850E-09
        69  18 -3.875764E+05 -5.074553E+04  3.895000E+03 -1.565484E+05 -2.322405E-09 -3.136199E-10
        69  19 -4.775644E+05 -1.023099E+05 -3.702171E+04 -1.766989E+05  1.501150E+04  5.072919E+03
        69  20 -4.684422E+05 -7.517721E+04 -2.119204E+04 -1.741710E+05  9.731006E+03  2.102659E+03
        69  21 -4.620628E+05 -7.502989E+04 -1.530685E+04 -1.729790E+05  3.981311E+03  3.832566E+02
        69  22 -4.271050E+05 -7.910919E+04 -2.242333E+04 -1.586830E+05  1.440853E+04  4.846945E+03
        69  23 -4.246416E+05 -5.755623E+04 -9.292876E+03 -1.610553E+05  9.633289E+03  2.066051E+03
        69  24 -4.248203E+05 -6.288772E+04 -5.705857E+03 -1.647639E+05  4.388930E+03  5.360607E+02
        69  25 -3.766434E+05 -5.590803E+04 -7.825266E+03 -1.406657E+05  1.380550E+04  4.620941E+03
        69  26 -3.808391E+05 -3.993508E+04  2.606096E+03 -1.479389E+05  9.535565E+03  2.029439E+03
        69  27 -3.875763E+05 -5.074552E+04  3.895044E+03 -1.565484E+05  4.796577E+03  6.888721E+02
        70   1 -4.439680E+05 -7.328447E+04 -1.007096E+04 -1.692993E+05 -3.337173E+03 -5.932603E+02
        70   2 -4.376470E+05 -6.446282E+04 -5.245416E+03 -1.638471E+05 -2.038328E+03 -3.885477E+02
        70   3 -4.264620E+05 -6.416631E+04 -2.012424E+03 -1.646157E+05 -6.948118E+02 -3.029550E+02
        70   4 -4.240687E+05 -6.533541E+04 -4.665110E+03 -1.634014E+05 -3.413177E+03 -6.217571E+02
        70   5 -4.263684E+05 -6.010461E+04 -2.211622E+03 -1.606556E+05 -2.162448E+03 -4.350775E+02
        70   6 -4.237946E+05 -6.338938E+04 -1.312512E+03 -1.641306E+05 -8.670698E+02 -3.675253E+02
        70   7 -4.041691E+05 -5.738632E+04  7.407017E+02 -1.575033E+05 -3.489185E+03 -6.502551E+02
        70   8 -4.150896E+05 -5.574640E+04  8.221527E+02 -1.574640E+05 -2.286571E+03 -4.816082E+02
        70   9 -4.211272E+05 -6.261246E+04 -6.126037E+02 -1.636455E+05 -1.039328E+03 -4.320954E+02
        70  10 -4.439680E+05 -7.328448E+04 -1.007098E+04 -1.692993E+05 -6.708870E-10 -1.666415E-09
        70  11 -4.376470E+05 -6.446282E+04 -5.245424E+03 -1.638471E+05 -3.742574E-09  2.384439E-10
        70  12 -4.264620E+05 -6.416631E+04 -2.012425E+03 -1.646157E+05 -2.139131E-10  6.783884E-10
        70  13 -4.240687E+05 -6.533541E+04 -4.665133E+03 -1.634014E+05 -8.654381E-10 -1.000399E-09
        70  14 -4.263684E+05 -6.010461E+04 -2.211631E+03 -1.606556E+05 -3.129709E-09  3.070678E-10
        70  15 -4.237946E+05 -6.338938E+04 -1.312514E+03 -1.641306E+05 -5.234900E-09  6.181002E-10
        70  16 -4.041691E+05 -5.738632E+04  7.406781E+02 -1.575033E+05  1.134463E-09 -2.380116E-10
        70  17 -4.150897E+05 -5.574641E+04  8.221425E+02 -1.574640E+05  1.843455E-09 -5.410212E-10
        70  18 -4.211272E+05 -6.261246E+04 -6.126060E+02 -1.636455E+05 -1.989569E-09  5.386136E-10
        70  19 -4.439680E+05 -7.328447E+04 -1.007096E+04 -1.692993E+05  3.337173E+03  5.932603E+02
        70  20 -4.376470E+05 -6.446282E+04 -5.245416E+03 -1.638471E+05  2.038328E+03  3.885477E+02
        70  21 -4.264620E+05 -6.416631E+04 -2.012424E+03 -1.646157E+05  6.948118E+02  3.029550E+02
        70  22 -4.240687E+05 -6.533541E+04 -4.665110E+03 -1.634014E+05  3.413177E+03  6.217571E+02
        70  23 -4.263684E+05 -6.010461E+04 -2.211622E+03 -1.606556E+05  2.162448E+03  4.350775E+02
        70  24 -4.237946E+05 -6.338938E+04 -1.312512E+03 -1.641306E+05  8.670698E+02  3.675253E+02
        70  25 -4.041691E+05 -5.738632E+04  7.407017E+02 -1.575033E+05  3.489185E+03  6.502551E+02
        70  26 -4.150896E+05 -5.574640E+04  8.221527E+02 -1.574640E+05  2.286571E+03  4.816082E+02
        70  27 -4.211272E+05 -6.261246E+04 -6.126037E+02 -1.636455E+05  1.039328E+03  4.320954E+02
        71   1 -4.104399E+05 -5.873289E+04  2.514219E+03 -1.604045E+05 -4.477607E+02 -4.726851E+02
        71   2 -4.045062E+05 -5.212952E+04  5.304267E+03 -1.546191E+05 -9.094911E+00 -7.111102E+02
        71   3 -3.927631E+05 -5.180607E+04  7.781729E+03 -1.556014E+05  4.331983E+02 -9.591360E+02
        71   4 -4.236963E+05 -6.367323E+04 -1.049604E+03 -1.639595E+05 -5.886028E+02 -5.254805E+02
        71   5 -4.265855E+05 -6.042094E+04 -5.935272E+02 -1.606178E+05 -1.538265E+02 -7.653694E+02
        71   6 -4.236645E+05 -6.344780E+04 -4.469068E+02 -1.640440E+05  2.845721E+02 -1.014861E+03
        71   7 -4.369526E+05 -6.861359E+04 -4.613460E+03 -1.675145E+05 -7.294423E+02 -5.782750E+02
        71   8 -4.486645E+05 -6.871237E+04 -6.491389E+03 -1.666165E+05 -2.985529E+02 -8.196268E+02
        71   9 -4.545651E+05 -7.508950E+04 -8.675651E+03 -1.724862E+05  1.359536E+02 -1.070583E+03
        71  10 -4.104399E+05 -5.873289E+04  2.514218E+03 -1.604045E+05 -1.299115E-09 -8.384653E-10
        71  11 -4.045062E+05 -5.212952E+04  5.304266E+03 -1.546191E+05 -8.210012E-10 -5.374970E-10
        71  12 -3.927631E+05 -5.180607E+04  7.781727E+03 -1.556014E+05 -2.060724E-10 -4.366972E-13
        71  13 -4.236963E+05 -6.367323E+04 -1.049605E+03 -1.639595E+05 -4.102477E-09  5.737742E-10
        71  14 -4.265855E+05 -6.042094E+04 -5.935283E+02 -1.606178E+05  1.707101E-09 -8.402454E-10
        71  15 -4.236645E+05 -6.344780E+04 -4.469089E+02 -1.640440E+05 -2.309450E-09 -2.313858E-10
        71  16 -4.369526E+05 -6.861360E+04 -4.613462E+03 -1.675145E+05  2.097796E-09  1.108452E-09
        71  17 -4.486645E+05 -6.871237E+04 -6.491390E+03 -1.666165E+05  1.936361E-09 -6.113241E-10
        71  18 -4.545651E+05 -7.508950E+04 -8.675653E+03 -1.724862E+05  1.198715E-09 -7.251460E-10
        71  19 -4.104399E+05 -5.873289E+04  2.514219E+03 -1.604045E+05  4.477607E+02  4.726851E+02
        71  20 -4.045062E+05 -5.212952E+04  5.304267E+03 -1.546191E+05  9.094911E+00  7.111102E+02
        71  21 -3.927631E+05 -5.180607E+04  7.781729E+03 -1.556014E+05 -4.331983E+02  9.591360E+02
        71  22 -4.236963E+05 -6.367323E+04 -1.049604E+03 -1.639595E+05  5.886028E+02  5.254805E+02
        71  23 -4.265855E+05 -6.042094E+04 -5.935272E+02 -1.606178E+05  1.538265E+02  7.653694E+02
        71  24 -4.236645E+05 -6.344780E+04 -4.469068E+02 -1.640440E+05 -2.845721E+02  1.014861E+03
        71  25 -4.369526E+05 -6.861359E+04 -4.613460E+03 -1.675145E+05  7.294423E+02  5.782750E+02
        71  26 -4.486645E+05 -6.871237E+04 -6.491389E+03 -1.666165E+05  2.985529E+02  8.196268E+02
        71  27 -4.545651E+05 -7.508950E+04 -8.675651E+03 -1.724862E+05 -1.359536E+02  1.070583E+03
        72   1 -3.771565E+05 -4.597360E+04  1.202827E+04 -1.513613E+05  5.825539E+02 -1.145462E+03
        72   2 -3.713381E+05 -3.969980E+04  1.426300E+04 -1.456007E+05  9.666879E+02 -1.411389E+03
        72   3 -3.596932E+05 -3.941633E+04  1.628710E+04 -1.465741E+05  1.349930E+03 -1.674756E+03
        72   4 -4.236720E+05 -6.345837E+04 -4.322150E+02 -1.640087E+05  4.367347E+02 -1.200140E+03
        72   5 -4.265864E+05 -6.047265E+04 -4.989348E+02 -1.606381E+05  8.218753E+02 -1.465702E+03
        72   6 -4.236748E+05 -6.347749E+04 -7.771186E+02 -1.640016E+05  1.206121E+03 -1.728704E+03
        72   7 -4.701852E+05 -8.094295E+04 -1.289283E+04 -1.766552E+05  2.909281E+02 -1.254814E+03
        72   8 -4.818317E+05 -8.124530E+04 -1.526111E+04 -1.756743E+05  6.770771E+02 -1.520009E+03
        72   9 -4.876525E+05 -8.753845E+04 -1.784172E+04 -1.814275E+05  1.062328E+03 -1.782646E+03
        72  10 -3.771565E+05 -4.597360E+04  1.202827E+04 -1.513613E+05 -3.211059E-09  2.023570E-10
        72  11 -3.713381E+05 -3.969980E+04  1.426299E+04 -1.456007E+05 -1.282227E-09  3.850728E-10
        72  12 -3.596932E+05 -3.941633E+04  1.628709E+04 -1.465741E+05  1.239660E-09  8.125480E-11
        72  13 -4.236720E+05 -6.345837E+04 -4.322180E+02 -1.640087E+05 -1.001877E-10  3.134813E-10
        72  14 -4.265864E+05 -6.047266E+04 -4.989401E+02 -1.606381E+05  1.809728E-09  7.064493E-10
        72  15 -4.236748E+05 -6.347750E+04 -7.771270E+02 -1.640016E+05 -9.656562E-10  3.767836E-11
        72  16 -4.701852E+05 -8.094295E+04 -1.289284E+04 -1.766552E+05  1.403891E-09  3.915791E-10
        72  17 -4.818317E+05 -8.124530E+04 -1.526112E+04 -1.756743E+05 -1.203208E-09  1.256055E-09
        72  18 -4.876525E+05 -8.753846E+04 -1.784173E+04 -1.814275E+05 -1.930150E-09  3.679040E-11
        72  19 -3.771565E+05 -4.597360E+04  1.202827E+04 -1.513613E+05 -5.825539E+02  1.145462E+03
        72  20 -3.713381E+05 -3.969980E+04  1.426300E+04 -1.456007E+05 -9.666879E+02  1.411389E+03
        72  21 -3.596932E+05 -3.941633E+04  1.628710E+04 -1.465741E+05 -1.349930E+03  1.674756E+03
        72  22 -4.236720E+05 -6.345837E+04 -4.322150E+02 -1.640087E+05 -4.367347E+02  1.200140E+03
        72  23 -4.265864E+05 -6.047265E+04 -4.989348E+02 -1.606381E+05 -8.218753E+02  1.465702E+03
        72  24 -4.236748E+05 -6.347749E+04 -7.771186E+02 -1.640016E+05 -1.206121E+03  1.728704E+03
        72  25 -4.701852E+05 -8.094295E+04 -1.289283E+04 -1.766552E+05 -2.909281E+02  1.254814E+03
        72  26 -4.818317E+05 -8.124530E+04 -1.526111E+04 -1.756743E+05 -6.770771E+02  1.520009E+03
        72  27 -4.876525E+05 -8.753845E+04 -1.784172E+04 -1.814275E+05 -1.062328E+03  1.782646E+03
        73   1 -3.444005E+05 -3.360968E+04  2.023378E+04 -1.424588E+05  1.574403E+03 -1.827481E+03
        73   2 -3.386655E+05 -2.740934E+04  2.175952E+04 -1.367641E+05  2.565897E+03 -1.858206E+03
        73   3 -3.274719E+05 -2.750071E+04  2.250597E+04 -1.375565E+05  3.554253E+03 -1.880278E+03
        73   4 -4.237367E+05 -6.339799E+04 -9.883985E+02 -1.640020E+05  1.429905E+03 -1.881700E+03
        73   5 -4.264933E+05 -6.044696E+04 -1.709831E+03 -1.606853E+05  2.424767E+03 -1.911179E+03
        73   6 -4.237920E+05 -6.378838E+04 -3.213318E+03 -1.638557E+05  3.416481E+03 -1.932010E+03
        73   7 -5.030667E+05 -9.318586E+04 -2.221108E+04 -1.855427E+05  1.285427E+03 -1.935910E+03
        73   8 -5.143136E+05 -9.348413E+04 -2.517986E+04 -1.846034E+05  2.283659E+03 -1.964144E+03
        73   9 -5.201035E+05 -1.000756E+05 -2.893348E+04 -1.901513E+05  3.278732E+03 -1.983734E+03
        73  10 -3.444005E+05 -3.360969E+04  2.023377E+04 -1.424588E+05  1.251635E-09 -1.575293E-10
        73  11 -3.386655E+05 -2.740934E+04  2.175951E+04 -1.367641E+05  1.483298E-10  4.347312E-10
        73  12 -3.274719E+05 -2.750072E+04  2.250594E+04 -1.375565E+05 -3.602290E-10  1.707552E-10
        73  13 -4.237367E+05 -6.339799E+04 -9.884090E+02 -1.640020E+05  1.977444E-09 -7.638627E-11
        73  14 -4.264933E+05 -6.044697E+04 -1.709849E+03 -1.606853E+05  5.006189E-10  3.948913E-10
        73  15 -4.237920E+05 -6.378839E+04 -3.213347E+03 -1.638557E+05  6.535841E-10 -1.246399E-10
        73  16 -5.030667E+05 -9.318586E+04 -2.221109E+04 -1.855427E+05 -6.330251E-10  7.831949E-11
        73  17 -5.143136E+05 -9.348414E+04 -2.517988E+04 -1.846034E+05  3.241038E-09  2.693765E-10
        73  18 -5.201035E+05 -1.000756E+05 -2.893351E+04 -1.901513E+05  5.390613E-10 -1.585673E-10
        73  19 -3.444005E+05 -3.360968E+04  2.023378E+04 -1.424588E+05 -1.574403E+03  1.827481E+03
        73  20 -3.386655E+05 -2.740934E+04  2.175952E+04 -1.367641E+05 -2.565897E+03  1.858206E+03
        73  21 -3.274719E+05 -2.750071E+04  2.250597E+04 -1.375565E+05 -3.554253E+03  1.880278E+03
        73  22 -4.237367E+05 -6.339799E+04 -9.883985E+02 -1.640020E+05 -1.429905E+03  1.881700E+03
        73  23 -4.264933E+05 -6.044696E+04 -1.709831E+03 -1.606853E+05 -2.424767E+03  1.911179E+03
        73  24 -4.237920E+05 -6.378838E+04 -3.213318E+03 -1.638557E+05 -3.416481E+03  1.932010E+03
        73  25 -5.030667E+05 -9.318586E+04 -2.221108E+04 -1.855427E+05 -1.285427E+03  1.935910E+03
        73  26 -5.143136E+05 -9.348413E+04 -2.517986E+04 -1.846034E+05 -2.283659E+03  1.964144E+03
        73  27 -5.201035E+05 -1.000756E+05 -2.893348E+04 -1.901513E+05 -3.278732E+03  1.983734E+03
        74   1 -3.125182E+05 -2.172351E+04  2.557602E+04 -1.341611E+05  4.248565E+03 -1.854858E+03
        74   2 -3.066528E+05 -1.489327E+04  2.455901E+04 -1.281399E+05  8.123178E+03 -7.905641E+02
        74   3 -2.973498E+05 -1.806082E+04  1.955813E+04 -1.274614E+05  1.198176E+04  3.167814E+02
        74   4 -4.240529E+05 -6.326638E+04 -4.179082E+03 -1.641072E+05  4.101305E+03 -1.910165E+03
        74   5 -4.260073E+05 -5.994301E+04 -7.363410E+03 -1.608064E+05  7.992611E+03 -8.396342E+02
        74   6 -4.245277E+05 -6.662140E+04 -1.454543E+04 -1.628482E+05  1.186783E+04  2.739228E+02
        74   7 -5.355756E+05 -1.048086E+05 -3.393526E+04 -1.940484E+05  3.954073E+03 -1.965461E+03
        74   8 -5.453479E+05 -1.049918E+05 -3.928704E+04 -1.934671E+05  7.862073E+03 -8.886939E+02
        74   9 -5.516896E+05 -1.151808E+05 -4.865033E+04 -1.982284E+05  1.175392E+04  2.310741E+02
        74  10 -3.125182E+05 -2.172352E+04  2.557598E+04 -1.341611E+05 -2.182426E-09 -2.318265E-11
        74  11 -3.066529E+05 -1.489329E+04  2.455889E+04 -1.281399E+05 -1.462736E-09  8.606911E-10
        74  12 -2.973500E+05 -1.806085E+04  1.955786E+04 -1.274614E+05 -2.204569E-09  4.830881E-10
        74  13 -4.240529E+05 -6.326639E+04 -4.179120E+03 -1.641072E+05 -6.559129E-11  4.975726E-11
        74  14 -4.260074E+05 -5.994302E+04 -7.363532E+03 -1.608063E+05 -1.962778E-09  8.485096E-10
        74  15 -4.245278E+05 -6.662144E+04 -1.454569E+04 -1.628482E+05  1.583234E-09 -7.033065E-10
        74  16 -5.355756E+05 -1.048086E+05 -3.393530E+04 -1.940484E+05  1.252796E-09 -4.012630E-11
        74  17 -5.453479E+05 -1.049918E+05 -3.928716E+04 -1.934671E+05 -1.301750E-09  2.882933E-10
        74  18 -5.516898E+05 -1.151808E+05 -4.865059E+04 -1.982284E+05  1.234209E-09  8.789989E-10
        74  19 -3.125182E+05 -2.172351E+04  2.557602E+04 -1.341611E+05 -4.248565E+03  1.854858E+03
        74  20 -3.066528E+05 -1.489327E+04  2.455901E+04 -1.281399E+05 -8.123178E+03  7.905641E+02
        74  21 -2.973498E+05 -1.806082E+04  1.955813E+04 -1.274614E+05 -1.198176E+04 -3.167814E+02
        74  22 -4.240529E+05 -6.326638E+04 -4.179082E+03 -1.641072E+05 -4.101305E+03  1.910165E+03
        74  23 -4.260073E+05 -5.994301E+04 -7.363410E+03 -1.608064E+05 -7.992611E+03  8.396342E+02
        74  24 -4.245277E+05 -6.662140E+04 -1.454543E+04 -1.628482E+05 -1.186783E+04 -2.739228E+02
        74  25 -5.355756E+05 -1.048086E+05 -3.393526E+04 -1.940484E+05 -3.954073E+03  1.965461E+03
        74  26 -5.453479E+05 -1.049918E+05 -3.928704E+04 -1.934671E+05 -7.862073E+03  8.886939E+02
        74  27 -5.516896E+05 -1.151808E+05 -4.865033E+04 -1.982284E+05 -1.175392E+04 -2.310741E+02
        75   1 -2.816608E+05 -1.141663E+04  1.942976E+04 -1.293379E+05  1.486352E+04  1.117016E+03
        75   2 -2.741986E+05  2.179860E+03  8.200671E+03 -1.192125E+05  3.150069E+04  6.990049E+03
        75   3 -2.773540E+05 -2.631739E+04 -2.534733E+04 -1.059866E+05  4.799366E+04  1.324817E+04
        75   4 -4.260543E+05 -6.240535E+04 -1.853238E+04 -1.652383E+05  1.465020E+04  1.036912E+03
        75   5 -4.227266E+05 -5.545573E+04 -3.182230E+04 -1.614857E+05  3.143903E+04  6.966692E+03
        75   6 -4.300504E+05 -9.063601E+04 -6.755561E+04 -1.546321E+05  4.808351E+04  1.328121E+04
        75   7 -5.704280E+05 -1.133936E+05 -5.649637E+04 -2.011316E+05  1.443692E+04  9.568254E+02
        75   8 -5.712334E+05 -1.130897E+05 -7.184729E+04 -2.037497E+05  3.137738E+04  6.943342E+03
        75   9 -5.827241E+05 -1.549516E+05 -1.097660E+05 -2.032663E+05  4.817334E+04  1.331424E+04
        75  10 -2.816611E+05 -1.141669E+04  1.942934E+04 -1.293379E+05  1.055897E-10  3.709678E-11
        75  11 -2.741997E+05  2.179541E+03  8.198713E+03 -1.192127E+05  5.850905E-10  1.241939E-09
        75  12 -2.773566E+05 -2.631820E+04 -2.535199E+04 -1.059871E+05  2.402855E-09 -1.981056E-10
        75  13 -4.260545E+05 -6.240541E+04 -1.853278E+04 -1.652383E+05  5.522024E-11  1.062288E-10
        75  14 -4.227276E+05 -5.545605E+04 -3.182425E+04 -1.614859E+05  2.014681E-09 -1.105799E-10
        75  15 -4.300529E+05 -9.063682E+04 -6.756029E+04 -1.546326E+05  3.594127E-11 -9.949355E-10
        75  16 -5.704282E+05 -1.133936E+05 -5.649676E+04 -2.011316E+05  2.086686E-09  1.173266E-09
        75  17 -5.712345E+05 -1.130900E+05 -7.184923E+04 -2.037498E+05 -5.213129E-10  4.942850E-10
        75  18 -5.827266E+05 -1.549524E+05 -1.097707E+05 -2.032668E+05 -3.282722E-09 -1.430549E-09
        75  19 -2.816608E+05 -1.141663E+04  1.942976E+04 -1.293379E+05 -1.486352E+04 -1.117016E+03
        75  20 -2.741986E+05  2.179860E+03  8.200671E+03 -1.192125E+05 -3.150069E+04 -6.990049E+03
        75  21 -2.773540E+05 -2.631739E+04 -2.534733E+04 -1.059866E+05 -4.799366E+04 -1.324817E+04
        75  22 -4.260543E+05 -6.240535E+04 -1.853238E+04 -1.652383E+05 -1.465020E+04 -1.036912E+03
        75  23 -4.227266E+05 -5.545573E+04 -3.182230E+04 -1.614857E+05 -3.143903E+04 -6.966692E+03
        75  24 -4.300504E+05 -9.063601E+04 -6.755561E+04 -1.546321E+05 -4.808351E+04 -1.328121E+04
        75  25 -5.704280E+05 -1.133936E+05 -5.649637E+04 -2.011316E+05 -1.443692E+04 -9.568254E+02
        75  26 -5.712334E+05 -1.130897E+05 -7.184729E+04 -2.037497E+05 -3.137738E+04 -6.943342E+03
        75  27 -5.827241E+05 -1.549516E+05 -1.097660E+05 -2.032663E+05 -4.817334E+04 -1.331424E+04
        76   1 -2.499245E+05 -1.054023E+04 -3.699032E+04 -1.504142E+05  6.130473E+04  1.738243E+04
        76   2 -2.316350E+05  6.113778E+04 -8.719357E+04 -1.044236E+05  1.338505E+05  4.426008E+04
        76   3 -3.322738E+05 -1.761037E+05 -2.745971E+05  1.493425E+04  2.049074E+05  7.510367E+04
        76   4 -4.407810E+05 -5.530374E+04 -8.270183E+04 -1.746287E+05  6.034824E+04  1.702599E+04
        76   5 -3.978119E+05 -1.827437E+04 -1.347907E+05 -1.670755E+05  1.344750E+05  4.449037E+04
        76   6 -4.741237E+05 -2.905366E+05 -3.253626E+05 -8.614400E+04  2.071156E+05  7.590937E+04
        76   7 -6.316010E+05 -1.000683E+05 -1.284154E+05 -1.988388E+05  5.939206E+04  1.666956E+04
        76   8 -5.639607E+05 -9.767923E+04 -1.823902E+05 -2.297104E+05  1.350994E+05  4.472053E+04
        76   9 -6.159438E+05 -4.049362E+05 -3.761284E+05 -1.871937E+05  2.093232E+05  7.671431E+04
        76  10 -2.499287E+05 -1.054156E+04 -3.699795E+04 -1.504151E+05 -4.895618E-09  2.056750E-10
        76  11 -2.316547E+05  6.113086E+04 -8.723094E+04 -1.044283E+05  3.001036E-10  1.910581E-09
        76  12 -3.323204E+05 -1.761210E+05 -2.746866E+05  1.492185E+04  1.990776E-09  1.619852E-09
        76  13 -4.407850E+05 -5.530503E+04 -8.270923E+04 -1.746295E+05 -2.050873E-09 -6.079241E-10
        76  14 -3.978319E+05 -1.828135E+04 -1.348284E+05 -1.670804E+05 -1.356946E-09  1.063717E-09
        76  15 -4.741714E+05 -2.905543E+05 -3.254541E+05 -8.615668E+04  2.373082E-10  2.952147E-09
        76  16 -6.316049E+05 -1.000696E+05 -1.284226E+05 -1.988396E+05 -2.234870E-09  1.491059E-09
        76  17 -5.639809E+05 -9.768629E+04 -1.824283E+05 -2.297153E+05 -1.455408E-09  3.736588E-09
        76  18 -6.159924E+05 -4.049543E+05 -3.762219E+05 -1.872067E+05 -7.471145E-10  4.749636E-10
        76  19 -2.499245E+05 -1.054023E+04 -3.699032E+04 -1.504142E+05 -6.130473E+04 -1.738243E+04
        76  20 -2.316350E+05  6.113778E+04 -8.719357E+04 -1.044236E+05 -1.338505E+05 -4.426008E+04
        76  21 -3.322738E+05 -1.761037E+05 -2.745971E+05  1.493425E+04 -2.049074E+05 -7.510367E+04
        76  22 -4.407810E+05 -5.530374E+04 -8.270183E+04 -1.746287E+05 -6.034824E+04 -1.702599E+04
        76  23 -3.978119E+05 -1.827437E+04 -1.347907E+05 -1.670755E+05 -1.344750E+05 -4.449037E+04
        76  24 -4.741237E+05 -2.905366E+05 -3.253626E+05 -8.614400E+04 -2.071156E+05 -7.590937E+04
        76  25 -6.316010E+05 -1.000683E+05 -1.284154E+05 -1.988388E+05 -5.939206E+04 -1.666956E+04
        76  26 -5.639607E+05 -9.767923E+04 -1.823902E+05 -2.297104E+05 -1.350994E+05 -4.472053E+04
        76  27 -6.159438E+05 -4.049362E+05 -3.761284E+05 -1.871937E+05 -2.093232E+05 -7.671431E+04
        77   1  2.908680E+05  2.366852E+06  2.791028E+05 -3.882501E+04  1.505805E+04  1.249155E+05
        77   2  2.489648E+05  2.348688E+06  2.065974E+05 -2.529426E+04  5.235077E+04  6.912201E+04
        77   3  2.349058E+05  2.344799E+06  1.773104E+05 -1.218184E+04  6.720480E+04  1.333557E+04
        77   4  3.976735E+04  1.344849E+06  4.343176E+04 -1.250607E+04  1.507132E+04  2.915381E+04
        77   5  1.112974E+04  1.341556E+06  2.243917E+04 -1.230483E+04  5.237090E+04  1.767216E+04
        77   6  2.683094E+03  1.344878E+06  1.397824E+04 -1.251934E+04  6.721749E+04  6.194162E+03
        77   7 -2.113987E+05  3.238296E+05 -1.922739E+05  1.376937E+04  1.507652E+04 -6.645193E+04
        77   8 -2.267605E+05  3.354114E+05 -1.617502E+05  6.630954E+02  5.238890E+04 -3.369674E+04
        77   9 -2.295906E+05  3.459439E+05 -1.493823E+05 -1.285617E+04  6.723020E+04 -9.361857E+02
        77  10  2.908636E+05  2.366835E+06  2.790731E+05 -3.882652E+04 -4.287673E-10  4.214962E-10
        77  11  2.489606E+05  2.348683E+06  2.065833E+05 -2.529717E+04 -9.081564E-10 -1.107372E-09
        77  12  2.349009E+05  2.344797E+06  1.773016E+05 -1.218256E+04 -4.139655E-09 -1.783260E-09
        77  13  3.976688E+04  1.344848E+06  4.342974E+04 -1.250643E+04 -3.078935E-09 -3.076102E-11
        77  14  1.112671E+04  1.341555E+06  2.243343E+04 -1.230558E+04  1.159634E-09 -4.270372E-10
        77  15  2.678229E+03  1.344877E+06  1.396967E+04 -1.251967E+04 -1.365732E-09 -7.457546E-12
        77  16 -2.114002E+05  3.238248E+05 -1.922827E+05  1.377017E+04 -3.423999E-11 -4.258485E-10
        77  17 -2.267638E+05  3.354095E+05 -1.617575E+05  6.645174E+02  6.371682E-10  7.989820E-10
        77  18 -2.295954E+05  3.459427E+05 -1.493908E+05 -1.285612E+04  3.085805E-10  2.232695E-09
        77  19  2.908680E+05  2.366852E+06  2.791028E+05 -3.882501E+04 -1.505805E+04 -1.249155E+05
        77  20  2.489648E+05  2.348688E+06  2.065974E+05 -2.529426E+04 -5.235077E+04 -6.912201E+04
        77  21  2.349058E+05  2.344799E+06  1.773104E+05 -1.218184E+04 -6.720480E+04 -1.333557E+04
        77  22  3.976735E+04  1.344849E+06  4.343176E+04 -1.250607E+04 -1.507132E+04 -2.915381E+04
        77  23  1.112974E+04  1.341556E+06  2.243917E+04 -1.230483E+04 -5.237090E+04 -1.767216E+04
        77  24  2.683094E+03  1.344878E+06  1.397824E+04 -1.251934E+04 -6.721749E+04 -6.194162E+03
        77  25 -2.113987E+05  3.238296E+05 -1.922739E+05  1.376937E+04 -1.507652E+04  6.645193E+04
        77  26 -2.267605E+05  3.354114E+05 -1.617502E+05  6.630954E+02 -5.238890E+04  3.369674E+04
        77  27 -2.295906E+05  3.459439E+05 -1.493823E+05 -1.285617E+04 -6.723020E+04  9.361857E+02
        78   1  2.322229E+05  2.335746E+06  1.714279E+05 -1.474035E+04  6.868688E+04  1.224340E+04
        78   2  2.277059E+05  2.323762E+06  1.650363E+05 -1.221693E+04  7.043842E+04 -2.233577E+03
        78   3  2.279140E+05  2.314909E+06  1.692473E+05 -1.171233E+04  6.754537E+04 -1.671351E+04
        78   4  2.354324E+03  1.343752E+06  1.197141E+04 -1.287546E+04  6.870092E+04  4.211832E+03
        78   5  1.082186E+03  1.342983E+06  1.061137E+04 -1.186617E+04  7.044821E+04 -1.087874E+03
        78   6  2.949501E+03  1.343759E+06  1.350174E+04 -1.287588E+04  6.754726E+04 -6.390757E+03
        78   7 -2.275637E+05  3.527331E+05 -1.475113E+05 -1.101352E+04  6.871493E+04 -3.807405E+03
        78   8 -2.255890E+05  3.631588E+05 -1.438374E+05 -1.151583E+04  7.045802E+04  5.609297E+01
        78   9 -2.220622E+05  3.735420E+05 -1.422685E+05 -1.403738E+04  6.754911E+04  3.916481E+03
        78  10  2.322178E+05  2.335744E+06  1.714188E+05 -1.474102E+04 -3.057605E-09  4.431209E-09
        78  11  2.277006E+05  2.323761E+06  1.650270E+05 -1.221680E+04  1.341295E-09 -2.068129E-09
        78  12  2.279090E+05  2.314907E+06  1.692382E+05 -1.171142E+04 -8.852421E-10 -4.506340E-09
        78  13  2.349248E+03  1.343751E+06  1.196250E+04 -1.287569E+04 -2.494524E-09 -3.538644E-10
        78  14  1.076853E+03  1.342982E+06  1.060203E+04 -1.186611E+04  2.124867E-09 -1.435939E-09
        78  15  2.944587E+03  1.343757E+06  1.349308E+04 -1.287554E+04 -2.434708E-09 -6.990501E-11
        78  16 -2.275687E+05  3.527318E+05 -1.475202E+05 -1.101331E+04  4.694199E-11 -4.131603E-09
        78  17 -2.255943E+05  3.631575E+05 -1.438467E+05 -1.151583E+04 -2.333337E-09  1.138679E-09
        78  18 -2.220671E+05  3.735408E+05 -1.422772E+05 -1.403759E+04  5.925600E-10  5.802272E-09
        78  19  2.322229E+05  2.335746E+06  1.714279E+05 -1.474035E+04 -6.868688E+04 -1.224340E+04
        78  20  2.277059E+05  2.323762E+06  1.650363E+05 -1.221693E+04 -7.043842E+04  2.233577E+03
        78  21  2.279140E+05  2.314909E+06  1.692473E+05 -1.171233E+04 -6.754537E+04  1.671351E+04
        78  22  2.354324E+03  1.343752E+06  1.197141E+04 -1.287546E+04 -6.870092E+04 -4.211832E+03
        78  23  1.082186E+03  1.342983E+06  1.061137E+04 -1.186617E+04 -7.044821E+04  1.087874E+03
        78  24  2.949501E+03  1.343759E+06  1.350174E+04 -1.287588E+04 -6.754726E+04  6.390757E+03
        78  25 -2.275637E+05  3.527331E+05 -1.475113E+05 -1.101352E+04 -6.871493E+04  3.807405E+03
        78  26 -2.255890E+05  3.631588E+05 -1.438374E+05 -1.151583E+04 -7.045802E+04 -5.609297E+01
        78  27 -2.220622E+05  3.735420E+05 -1.422685E+05 -1.403738E+04 -6.754911E+04 -3.916481E+03
        79   1  2.275676E+05  2.310992E+06  1.736718E+05 -1.467884E+04  6.530661E+04 -1.814418E+04
        79   2  2.386903E+05  2.293576E+06  2.009000E+05  3.761490E+03  5.021614E+04 -7.307951E+04
        79   3  2.819981E+05  2.291392E+06  2.718665E+05  1.870854E+04  1.445507E+04 -1.280446E+05
        79   4  3.368406E+03  1.345236E+06  1.639866E+04 -1.320906E+04  6.530776E+04 -8.653810E+03
        79   5  1.396823E+04  1.341137E+06  2.753804E+04 -1.144122E+04  5.017365E+04 -2.277371E+04
        79   6  4.970633E+04  1.345214E+06  5.414835E+04 -1.316884E+04  1.435735E+04 -3.692167E+04
        79   7 -2.208781E+05  3.804012E+05 -1.409005E+05 -1.174144E+04  6.530896E+04  8.223600E+02
        79   8 -2.108026E+05  3.895829E+05 -1.458507E+05 -2.661983E+04  5.012866E+04  2.745725E+04
        79   9 -1.826395E+05  3.998819E+05 -1.635973E+05 -4.499718E+04  1.425021E+04  5.406388E+04
        79  10  2.275629E+05  2.310990E+06  1.736632E+05 -1.467789E+04 -1.635194E-09  9.334922E-10
        79  11  2.386862E+05  2.293570E+06  2.008852E+05  3.764442E+03 -4.102337E-09 -1.749730E-09
        79  12  2.819935E+05  2.291374E+06  2.718354E+05  1.871002E+04  4.988729E-10  1.098258E-09
        79  13  3.363803E+03  1.345235E+06  1.639050E+04 -1.320861E+04 -2.047487E-09 -1.009936E-09
        79  14  1.396538E+04  1.341136E+06  2.753233E+04 -1.144030E+04  2.074424E-10 -2.076353E-09
        79  15  4.970575E+04  1.345213E+06  5.414541E+04 -1.316841E+04 -2.140978E-10 -1.835023E-10
        79  16 -2.208827E+05  3.804001E+05 -1.409085E+05 -1.174148E+04 -1.270331E-10 -4.837365E-10
        79  17 -2.108055E+05  3.895815E+05 -1.458568E+05 -2.662094E+04  1.086111E-10  4.681849E-10
        79  18 -1.826405E+05  3.998787E+05 -1.636032E+05 -4.499780E+04  1.162122E-09  6.928419E-10
        79  19  2.275676E+05  2.310992E+06  1.736718E+05 -1.467884E+04 -6.530661E+04  1.814418E+04
        79  20  2.386903E+05  2.293576E+06  2.009000E+05  3.761490E+03 -5.021614E+04  7.307951E+04
        79  21  2.819981E+05  2.291392E+06  2.718665E+05  1.870854E+04 -1.445507E+04  1.280446E+05
        79  22  3.368406E+03  1.345236E+06  1.639866E+04 -1.320906E+04 -6.530776E+04  8.653810E+03
        79  23  1.396823E+04  1.341137E+06  2.753804E+04 -1.144122E+04 -5.017365E+04  2.277371E+04
        79  24  4.970633E+04  1.345214E+06  5.414835E+04 -1.316884E+04 -1.435735E+04  3.692167E+04
        79  25 -2.208781E+05  3.804012E+05 -1.409005E+05 -1.174144E+04 -6.530896E+04 -8.223600E+02
        79  26 -2.108026E+05  3.895829E+05 -1.458507E+05 -2.661983E+04 -5.012866E+04 -2.745725E+04
        79  27 -1.826395E+05  3.998819E+05 -1.635973E+05 -4.499718E+04 -1.425021E+04 -5.406388E+04
        80   1 -2.587413E+06 -4.182170E+05 -4.047947E+05 -6.321537E+04  6.752818E+03  1.629735E+04
        80   2 -2.474877E+06 -4.247985E+05 -3.897124E+05 -1.619536E+04  1.273381E+04  4.842455E+04
        80   3 -2.347834E+06 -3.912445E+05 -3.675108E+05 -7.262058E+04  1.887311E+04  4.369683E+04
        80   4 -7.846087E+05  3.237790E+04  4.219606E+04 -6.611673E+04  2.856857E+04  1.639543E+04
        80   5 -7.932058E+05 -6.304588E+03  1.789441E+04 -1.432787E+04  1.866065E+04  4.843664E+04
        80   6 -7.845687E+05 -2.141507E+03  1.174316E+04 -6.596633E+04  8.909726E+03  4.366709E+04
        80   7  1.021158E+06  4.827293E+05  4.889461E+05 -6.902984E+04  5.044773E+04  1.649317E+04
        80   8  8.910572E+05  4.119815E+05  4.252974E+05 -1.245753E+04  2.460350E+04  4.844875E+04
        80   9  7.809360E+05  3.867819E+05  3.908210E+05 -5.929638E+04 -1.078769E+03  4.363717E+04
        80  10 -2.587413E+06 -4.182173E+05 -4.047953E+05 -6.321546E+04 -5.107533E-10 -1.032349E-10
        80  11 -2.474878E+06 -4.248011E+05 -3.897171E+05 -1.619586E+04 -4.518044E-10  5.593887E-11
        80  12 -2.347835E+06 -3.912467E+05 -3.675150E+05 -7.262125E+04 -2.122931E-09  3.007380E-10
        80  13 -7.846097E+05  3.237739E+04  4.219402E+04 -6.611711E+04  1.722834E-09 -1.599899E-10
        80  14 -7.932068E+05 -6.307200E+03  1.788934E+04 -1.432860E+04  7.953378E-10  4.267564E-10
        80  15 -7.845693E+05 -2.143575E+03  1.173943E+04 -6.596665E+04 -3.100995E-09  2.527963E-10
        80  16  1.021156E+06  4.827283E+05  4.889408E+05 -6.903051E+04 -1.672726E-09 -6.836062E-11
        80  17  8.910559E+05  4.119788E+05  4.252919E+05 -1.245848E+04 -2.634849E-09 -9.618098E-11
        80  18  7.809355E+05  3.867799E+05  3.908174E+05 -5.929634E+04 -2.366402E-09  2.633845E-10
        80  19 -2.587413E+06 -4.182170E+05 -4.047947E+05 -6.321537E+04 -6.752818E+03 -1.629735E+04
        80  20 -2.474877E+06 -4.247985E+05 -3.897124E+05 -1.619536E+04 -1.273381E+04 -4.842455E+04
        80  21 -2.347834E+06 -3.912445E+05 -3.675108E+05 -7.262058E+04 -1.887311E+04 -4.369683E+04
        80  22 -7.846087E+05  3.237790E+04  4.219606E+04 -6.611673E+04 -2.856857E+04 -1.639543E+04
        80  23 -7.932058E+05 -6.304588E+03  1.789441E+04 -1.432787E+04 -1.866065E+04 -4.843664E+04
        80  24 -7.845687E+05 -2.141507E+03  1.174316E+04 -6.596633E+04 -8.909726E+03 -4.366709E+04
        80  25  1.021158E+06  4.827293E+05  4.889461E+05 -6.902984E+04 -5.044773E+04 -1.649317E+04
        80  26  8.910572E+05  4.119815E+05  4.252974E+05 -1.245753E+04 -2.460350E+04 -4.844875E+04
        80  27  7.809360E+05  3.867819E+05  3.908210E+05 -5.929638E+04  1.078769E+03 -4.363717E+04
        81   1 -2.151190E+06 -3.363745E+05 -3.220350E+05 -6.818262E+04  6.970381E+03  3.555852E+04
        81   2 -2.027512E+06 -3.091351E+05 -2.958917E+05 -1.322840E+04  6.033445E+03  3.403588E+04
        81   3 -1.899932E+06 -2.772078E+05 -2.674261E+05 -6.772221E+04  5.088024E+03  2.916515E+04
        81   4 -7.873048E+05  3.177005E+03  9.517695E+03 -6.734857E+04  7.046837E+03  3.555354E+04
        81   5 -7.893558E+05 -1.005756E+03  4.579682E+03 -1.262844E+04  4.662848E+03  3.403028E+04
        81   6 -7.872673E+05 -2.512446E+02  2.967808E+03 -6.734282E+04  2.270566E+03  2.916192E+04
        81   7  5.782833E+05  3.425915E+05  3.409356E+05 -6.651329E+04  7.123447E+03  3.554857E+04
        81   8  4.502046E+05  3.070109E+05  3.049403E+05 -1.202756E+04  3.289511E+03  3.402468E+04
        81   9  3.265304E+05  2.766141E+05  2.732721E+05 -6.696267E+04 -5.519427E+02  2.915869E+04
        81  10 -2.151190E+06 -3.363759E+05 -3.220375E+05 -6.818282E+04 -2.688103E-09  4.224806E-10
        81  11 -2.027513E+06 -3.091364E+05 -2.958939E+05 -1.322856E+04 -6.336353E-10  2.717803E-10
        81  12 -1.899932E+06 -2.772087E+05 -2.674278E+05 -6.772233E+04 -1.785801E-09 -2.251244E-10
        81  13 -7.873052E+05  3.175635E+03  9.515227E+03 -6.734877E+04 -2.968943E-09  9.606884E-11
        81  14 -7.893561E+05 -1.007005E+03  4.577465E+03 -1.262857E+04 -4.325379E-09 -2.779709E-11
        81  15 -7.872675E+05 -2.521589E+02  2.966201E+03 -6.734287E+04 -2.603711E-09 -8.476024E-11
        81  16  5.782829E+05  3.425901E+05  3.409332E+05 -6.651350E+04 -6.128306E-10 -4.914849E-11
        81  17  4.502043E+05  3.070096E+05  3.049381E+05 -1.202765E+04 -6.109360E-10 -5.128878E-10
        81  18  3.265302E+05  2.766132E+05  2.732705E+05 -6.696266E+04 -1.633407E-09  1.187070E-10
        81  19 -2.151190E+06 -3.363745E+05 -3.220350E+05 -6.818262E+04 -6.970381E+03 -3.555852E+04
        81  20 -2.027512E+06 -3.091351E+05 -2.958917E+05 -1.322840E+04 -6.033445E+03 -3.403588E+04
        81  21 -1.899932E+06 -2.772078E+05 -2.674261E+05 -6.772221E+04 -5.088024E+03 -2.916515E+04
        81  22 -7.873048E+05  3.177005E+03  9.517695E+03 -6.734857E+04 -7.046837E+03 -3.555354E+04
        81  23 -7.893558E+05 -1.005756E+03  4.579682E+03 -1.262844E+04 -4.662848E+03 -3.403028E+04
        81  24 -7.872673E+05 -2.512446E+02  2.967808E+03 -6.734282E+04 -2.270566E+03 -2.916192E+04
        81  25  5.782833E+05  3.425915E+05  3.409356E+05 -6.651329E+04 -7.123447E+03 -3.554857E+04
        81  26  4.502046E+05  3.070109E+05  3.049403E+05 -1.202756E+04 -3.289511E+03 -3.402468E+04
        81  27  3.265304E+05  2.766141E+05  2.732721E+05 -6.696267E+04  5.519427E+02 -2.915869E+04
        82   1 -1.692631E+06 -2.248409E+05 -2.169966E+05 -6.783086E+04  3.721462E+03  2.582912E+04
        82   2 -1.563169E+06 -1.929584E+05 -1.868604E+05 -1.103458E+04  3.279052E+03  2.117224E+04
        82   3 -1.432795E+06 -1.603446E+05 -1.561171E+05 -6.745376E+04  2.827152E+03  1.616765E+04
        82   4 -7.878584E+05  2.215557E+02  2.253445E+03 -6.818254E+04  1.790329E+03  2.582758E+04
        82   5 -7.883079E+05 -1.728294E+02  1.160125E+03 -1.157911E+04  1.197057E+03  2.117255E+04
        82   6 -7.878312E+05  1.921798E+02  7.797896E+02 -6.818239E+04  5.943911E+02  1.617005E+04
        82   7  1.176636E+05  2.252238E+05  2.214445E+05 -6.853461E+04 -1.436170E+02  2.582604E+04
        82   8 -1.289679E+04  1.925686E+05  1.891373E+05 -1.212419E+04 -8.875349E+02  2.117286E+04
        82   9 -1.424871E+05  1.606983E+05  1.576465E+05 -6.891162E+04 -1.640688E+03  1.617246E+04
        82  10 -1.692631E+06 -2.248416E+05 -2.169979E+05 -6.783094E+04  2.950198E-09 -1.926930E-10
        82  11 -1.563169E+06 -1.929589E+05 -1.868612E+05 -1.103464E+04  4.596828E-10  8.276985E-10
        82  12 -1.432795E+06 -1.603448E+05 -1.561176E+05 -6.745379E+04 -3.051380E-09  3.604713E-10
        82  13 -7.878586E+05  2.208388E+02  2.252186E+03 -6.818258E+04 -3.258066E-09 -5.722769E-11
        82  14 -7.883080E+05 -1.733110E+02  1.159280E+03 -1.157913E+04 -3.174005E-09  4.805208E-10
        82  15 -7.878313E+05  1.918991E+02  7.792978E+02 -6.818240E+04 -3.867352E-09  5.606980E-10
        82  16  1.176634E+05  2.252231E+05  2.214433E+05 -6.853461E+04 -6.181062E-09  3.502612E-10
        82  17 -1.289691E+04  1.925681E+05  1.891364E+05 -1.212417E+04 -7.878539E-10  6.435513E-10
        82  18 -1.424872E+05  1.606980E+05  1.576460E+05 -6.891160E+04  2.754730E-09  4.284902E-10
        82  19 -1.692631E+06 -2.248409E+05 -2.169966E+05 -6.783086E+04 -3.721462E+03 -2.582912E+04
        82  20 -1.563169E+06 -1.929584E+05 -1.868604E+05 -1.103458E+04 -3.279052E+03 -2.117224E+04
        82  21 -1.432795E+06 -1.603446E+05 -1.561171E+05 -6.745376E+04 -2.827152E+03 -1.616765E+04
        82  22 -7.878584E+05  2.215557E+02  2.253445E+03 -6.818254E+04 -1.790329E+03 -2.582758E+04
        82  23 -7.883079E+05 -1.728294E+02  1.160125E+03 -1.157911E+04 -1.197057E+03 -2.117255E+04
        82  24 -7.878312E+05  1.921798E+02  7.797896E+02 -6.818239E+04 -5.943911E+02 -1.617005E+04
        82  25  1.176636E+05  2.252238E+05  2.214445E+05 -6.853461E+04  1.436170E+02 -2.582604E+04
        82  26 -1.289679E+04  1.925686E+05  1.891373E+05 -1.212419E+04  8.875349E+02 -2.117286E+04
        82  27 -1.424871E+05  1.606983E+05  1.576465E+05 -6.891162E+04  1.640688E+03 -1.617246E+04
        83   1 -1.219690E+06 -1.071208E+05 -1.037625E+05 -6.807556E+04  2.619021E+03  1.319303E+04
        83   2 -1.087322E+06 -7.444641E+04 -7.229604E+04 -1.060021E+04  2.461740E+03  8.170226E+03
        83   3 -9.552228E+05 -4.136790E+04 -4.071449E+04 -6.833862E+04  2.300705E+03  3.100874E+03
        83   4 -7.880318E+05  1.753003E+02  5.632018E+02 -6.862765E+04  4.623959E+02  1.319628E+04
        83   5 -7.878845E+05  3.334308E+01  3.435202E+02 -1.102233E+04  2.847056E+02  8.174217E+03
        83   6 -7.880198E+05  2.997678E+02  2.536682E+02 -6.862729E+04  1.032935E+02  3.105673E+03
        83   7 -3.562029E+05  1.074578E+05  1.048755E+05 -6.918005E+04 -1.695726E+03  1.319954E+04
        83   8 -4.883646E+05  7.450651E+04  7.297662E+04 -1.144461E+04 -1.893377E+03  8.178210E+03
        83   9 -6.207913E+05  4.196537E+04  4.121979E+04 -6.891602E+04 -2.094710E+03  3.110473E+03
        83  10 -1.219690E+06 -1.071210E+05 -1.037628E+05 -6.807559E+04 -3.326136E-09 -3.781431E-12
        83  11 -1.087322E+06 -7.444648E+04 -7.229618E+04 -1.060023E+04  2.322776E-09 -2.852451E-10
        83  12 -9.552228E+05 -4.136791E+04 -4.071452E+04 -6.833863E+04  3.779141E-09 -6.295367E-11
        83  13 -7.880319E+05  1.751133E+02  5.628743E+02 -6.862766E+04 -2.651144E-10 -3.016036E-10
        83  14 -7.878846E+05  3.327133E+01  3.433945E+02 -1.102233E+04  2.313278E-09  2.229465E-10
        83  15 -7.880198E+05  2.997575E+02  2.536501E+02 -6.862729E+04  4.525768E-10  5.512175E-10
        83  16 -3.562029E+05  1.074576E+05  1.048752E+05 -6.918003E+04  5.458854E-10 -1.388334E-10
        83  17 -4.883647E+05  7.450643E+04  7.297649E+04 -1.144460E+04 -2.213450E-09 -8.575742E-10
        83  18 -6.207913E+05  4.196536E+04  4.121977E+04 -6.891601E+04 -1.573383E-09  4.508556E-10
        83  19 -1.219690E+06 -1.071208E+05 -1.037625E+05 -6.807556E+04 -2.619021E+03 -1.319303E+04
        83  20 -1.087322E+06 -7.444641E+04 -7.229604E+04 -1.060021E+04 -2.461740E+03 -8.170226E+03
        83  21 -9.552228E+05 -4.136790E+04 -4.071449E+04 -6.833862E+04 -2.300705E+03 -3.100874E+03
        83  22 -7.880318E+05  1.753003E+02  5.632018E+02 -6.862765E+04 -4.623959E+02 -1.319628E+04
        83  23 -7.878845E+05  3.334308E+01  3.435202E+02 -1.102233E+04 -2.847056E+02 -8.174217E+03
        83  24 -7.880198E+05  2.997678E+02  2.536682E+02 -6.862729E+04 -1.032935E+02 -3.105673E+03
        83  25 -3.562029E+05  1.074578E+05  1.048755E+05 -6.918005E+04  1.695726E+03 -1.319954E+04
        83  26 -4.883646E+05  7.450651E+04  7.297662E+04 -1.144461E+04  1.893377E+03 -8.178210E+03
        83  27 -6.207913E+05  4.196537E+04  4.121979E+04 -6.891602E+04  2.094710E+03 -3.110473E+03
        84   1 -7.397893E+05  1.237560E+04  1.233541E+04 -6.877294E+04  2.248578E+03  1.339484E+02
        84   2 -6.070562E+05  4.500675E+04  4.406147E+04 -1.123315E+04  2.115352E+03 -4.939123E+03
        84   3 -4.747180E+05  7.803244E+04  7.585730E+04 -6.911706E+04  1.984366E+03 -9.976509E+03
        84   4 -7.880413E+05  2.942855E+02  2.230727E+02 -6.867518E+04  5.097886E+01  1.388556E+02
        84   5 -7.878382E+05  5.353689E+01  2.191104E+02 -1.096243E+04 -6.702925E+01 -4.934723E+03
        84   6 -7.880487E+05  2.059045E+02  2.754173E+02 -6.867544E+04 -1.827700E+02 -9.972551E+03
        84   7 -8.362912E+05 -1.178721E+04 -1.188942E+04 -6.857742E+04 -2.146449E+03  1.437622E+02
        84   8 -9.685902E+05 -4.490208E+04 -4.362559E+04 -1.069177E+04 -2.248776E+03 -4.930324E+03
        84   9 -1.101290E+06 -7.762781E+04 -7.531347E+04 -6.823401E+04 -2.348816E+03 -9.968596E+03
        84  10 -7.397893E+05  1.237560E+04  1.233540E+04 -6.877294E+04 -3.996208E-10  2.110684E-11
        84  11 -6.070562E+05  4.500673E+04  4.406142E+04 -1.123314E+04 -3.054751E-10 -1.325832E-10
        84  12 -4.747181E+05  7.803233E+04  7.585710E+04 -6.911704E+04 -3.459101E-10  5.870106E-10
        84  13 -7.880413E+05  2.942855E+02  2.230727E+02 -6.867518E+04  8.626252E-10  1.034064E-09
        84  14 -7.878382E+05  5.351075E+01  2.190646E+02 -1.096243E+04  1.244798E-09  3.914427E-10
        84  15 -7.880488E+05  2.057978E+02  2.752304E+02 -6.867545E+04 -2.941634E-10  2.768329E-10
        84  16 -8.362912E+05 -1.178721E+04 -1.188943E+04 -6.857742E+04 -1.108977E-10  9.034517E-10
        84  17 -9.685902E+05 -4.490211E+04 -4.362565E+04 -1.069178E+04 -5.526263E-10  3.399980E-10
        84  18 -1.101290E+06 -7.762791E+04 -7.531367E+04 -6.823403E+04 -1.163485E-09 -9.031707E-10
        84  19 -7.397893E+05  1.237560E+04  1.233541E+04 -6.877294E+04 -2.248578E+03 -1.339484E+02
        84  20 -6.070562E+05  4.500675E+04  4.406147E+04 -1.123315E+04 -2.115352E+03  4.939123E+03
        84  21 -4.747180E+05  7.803244E+04  7.585730E+04 -6.911706E+04 -1.984366E+03  9.976509E+03
        84  22 -7.880413E+05  2.942855E+02  2.230727E+02 -6.867518E+04 -5.097886E+01 -1.388556E+02
        84  23 -7.878382E+05  5.353689E+01  2.191104E+02 -1.096243E+04  6.702925E+01  4.934723E+03
        84  24 -7.880487E+05  2.059045E+02  2.754173E+02 -6.867544E+04  1.827700E+02  9.972551E+03
        84  25 -8.362912E+05 -1.178721E+04 -1.188942E+04 -6.857742E+04  2.146449E+03 -1.437622E+02
        84  26 -9.685902E+05 -4.490208E+04 -4.362559E+04 -1.069177E+04  2.248776E+03  4.930324E+03
        84  27 -1.101290E+06 -7.762781E+04 -7.531347E+04 -6.823401E+04  2.348816E+03  9.968596E+03
        85   1 -2.602655E+05  1.315009E+05  1.287200E+05 -6.904884E+04  1.987850E+03 -1.295856E+04
        85   2 -1.297111E+05  1.635950E+05  1.601253E+05 -1.200775E+04  1.583756E+03 -1.798328E+04
        85   3  1.344947E+03  1.961922E+05  1.919763E+05 -6.884010E+04  1.187750E+03 -2.268536E+04
        85   4 -7.879073E+05  2.441657E+02  3.794377E+02 -6.833209E+04 -2.522382E+02 -1.295523E+04
        85   5 -7.881510E+05 -8.319620E+01  4.937045E+02 -1.139178E+04 -5.168877E+02 -1.798180E+04
        85   6 -7.879314E+05  6.992104E+01  9.584866E+02 -6.833244E+04 -7.733676E+02 -2.268551E+04
        85   7 -1.315295E+06 -1.310330E+05 -1.279813E+05 -6.761583E+04 -2.490426E+03 -1.295190E+04
        85   8 -1.446195E+06 -1.637932E+05 -1.591691E+05 -1.077633E+04 -2.615309E+03 -1.798032E+04
        85   9 -1.576638E+06 -1.960980E+05 -1.901041E+05 -6.782527E+04 -2.731999E+03 -2.268567E+04
        85  10 -2.602656E+05  1.315007E+05  1.287196E+05 -6.904882E+04 -1.750585E-09 -1.012534E-10
        85  11 -1.297112E+05  1.635946E+05  1.601247E+05 -1.200773E+04 -7.854627E-10 -3.431814E-10
        85  12  1.344808E+03  1.961916E+05  1.919753E+05 -6.884007E+04 -9.670573E-10 -6.435748E-10
        85  13 -7.879073E+05  2.439855E+02  3.791223E+02 -6.833210E+04 -1.388991E-09 -4.190830E-10
        85  14 -7.881511E+05 -8.354336E+01  4.930966E+02 -1.139178E+04 -3.220567E-09 -3.287058E-10
        85  15 -7.879315E+05  6.936846E+01  9.575187E+02 -6.833245E+04 -1.697808E-09 -6.730186E-10
        85  16 -1.315295E+06 -1.310332E+05 -1.279816E+05 -6.761585E+04 -8.891415E-10 -3.207355E-10
        85  17 -1.446195E+06 -1.637935E+05 -1.591698E+05 -1.077637E+04 -2.044452E-09  1.502407E-10
        85  18 -1.576638E+06 -1.960986E+05 -1.901051E+05 -6.782532E+04 -1.875096E-09 -3.210630E-11
        85  19 -2.602655E+05  1.315009E+05  1.287200E+05 -6.904884E+04 -1.987850E+03  1.295856E+04
        85  20 -1.297111E+05  1.635950E+05  1.601253E+05 -1.200775E+04 -1.583756E+03  1.798328E+04
        85  21  1.344947E+03  1.961922E+05  1.919763E+05 -6.884010E+04 -1.187750E+03  2.268536E+04
        85  22 -7.879073E+05  2.441657E+02  3.794377E+02 -6.833209E+04  2.522382E+02  1.295523E+04
        85  23 -7.881510E+05 -8.319620E+01  4.937045E+02 -1.139178E+04  5.168877E+02  1.798180E+04
        85  24 -7.879314E+05  6.992104E+01  9.584866E+02 -6.833244E+04  7.733676E+02  2.268551E+04
        85  25 -1.315295E+06 -1.310330E+05 -1.279813E+05 -6.761583E+04  2.490426E+03  1.295190E+04
        85  26 -1.446195E+06 -1.637932E+05 -1.591691E+05 -1.077633E+04  2.615309E+03  1.798032E+04
        85  27 -1.576638E+06 -1.960980E+05 -1.901041E+05 -6.782527E+04  2.731999E+03  2.268567E+04
        86   1  2.116156E+05  2.483342E+05  2.438482E+05 -6.780800E+04  1.811397E+03 -2.601416E+04
        86   2  3.372457E+05  2.792987E+05  2.747634E+05 -1.211615E+04 -5.447722E+02 -3.091966E+04
        86   3  4.658354E+05  3.126446E+05  3.082245E+05 -6.690976E+04 -2.892090E+03 -3.266835E+04
        86   4 -7.875431E+05 -6.003558E+01  1.307135E+03 -6.758027E+04 -9.900230E+02 -2.601544E+04
        86   5 -7.889136E+05 -5.572312E+02  1.864743E+03 -1.233199E+04 -1.980066E+03 -3.092378E+04
        86   6 -7.875787E+05  1.091308E+03  4.021610E+03 -6.758178E+04 -2.960758E+03 -3.267272E+04
        86   7 -1.785790E+06 -2.485276E+05 -2.413060E+05 -6.735275E+04 -3.786947E+03 -2.601673E+04
        86   8 -1.913914E+06 -2.805062E+05 -2.711254E+05 -1.254752E+04 -3.412763E+03 -3.092790E+04
        86   9 -2.039558E+06 -3.105774E+05 -3.002948E+05 -6.825274E+04 -3.029282E+03 -3.267710E+04
        86  10  2.116154E+05  2.483334E+05  2.438469E+05 -6.780796E+04 -2.538259E-09 -6.179177E-10
        86  11  3.372455E+05  2.792977E+05  2.747616E+05 -1.211617E+04  2.291692E-09 -2.396946E-10
        86  12  4.658351E+05  3.126434E+05  3.082225E+05 -6.690984E+04 -1.695569E-10 -6.960658E-10
        86  13 -7.875432E+05 -6.076235E+01  1.305862E+03 -6.758029E+04 -2.107524E-09 -3.181934E-10
        86  14 -7.889138E+05 -5.582588E+02  1.862939E+03 -1.233204E+04 -5.500096E-11  1.874568E-10
        86  15 -7.875790E+05  1.090160E+03  4.019588E+03 -6.758185E+04 -8.358756E-10 -7.792854E-10
        86  16 -1.785790E+06 -2.485284E+05 -2.413073E+05 -6.735283E+04 -1.773344E-09  5.495269E-11
        86  17 -1.913914E+06 -2.805073E+05 -2.711272E+05 -1.254761E+04 -2.830586E-09  1.497190E-10
        86  18 -2.039558E+06 -3.105786E+05 -3.002968E+05 -6.825282E+04 -2.793874E-09 -8.441576E-10
        86  19  2.116156E+05  2.483342E+05  2.438482E+05 -6.780800E+04 -1.811397E+03  2.601416E+04
        86  20  3.372457E+05  2.792987E+05  2.747634E+05 -1.211615E+04  5.447722E+02  3.091966E+04
        86  21  4.658354E+05  3.126446E+05  3.082245E+05 -6.690976E+04  2.892090E+03  3.266835E+04
        86  22 -7.875431E+05 -6.003558E+01  1.307135E+03 -6.758027E+04  9.900230E+02  2.601544E+04
        86  23 -7.889136E+05 -5.572312E+02  1.864743E+03 -1.233199E+04  1.980066E+03  3.092378E+04
        86  24 -7.875787E+05  1.091308E+03  4.021610E+03 -6.758178E+04  2.960758E+03  3.267272E+04
        86  25 -1.785790E+06 -2.485276E+05 -2.413060E+05 -6.735275E+04  3.786947E+03  2.601673E+04
        86  26 -1.913914E+06 -2.805062E+05 -2.711254E+05 -1.254752E+04  3.412763E+03  3.092790E+04
        86  27 -2.039558E+06 -3.105774E+05 -3.002948E+05 -6.825274E+04  3.029282E+03  3.267710E+04
        87   1  6.695222E+05  3.605705E+05  3.575632E+05 -6.286781E+04  5.814412E+03 -4.049670E+04
        87   2  7.851613E+05  3.884588E+05  3.886386E+05 -1.170465E+04 -1.326784E+04 -4.532289E+04
        87   3  9.130511E+05  4.372428E+05  4.382857E+05 -6.536724E+04 -3.247438E+04 -1.539481E+04
        87   4 -7.861989E+05 -1.089804E+03  5.025944E+03 -6.630906E+04 -3.765760E+03 -4.051844E+04
        87   5 -7.910400E+05 -3.019720E+03  7.354151E+03 -1.391453E+04 -7.804430E+03 -4.531531E+04
        87   6 -7.862437E+05  1.335994E+04  1.782686E+04 -6.636169E+04 -1.196355E+04 -1.531908E+04
        87   7 -2.239984E+06 -3.629054E+05 -3.476636E+05 -6.974290E+04 -1.332354E+04 -4.054010E+04
        87   8 -2.364971E+06 -3.946803E+05 -3.741088E+05 -1.612031E+04 -2.354813E+03 -4.530776E+04
        87   9 -2.482915E+06 -4.107388E+05 -4.028453E+05 -6.735580E+04  8.491282E+03 -1.524331E+04
        87  10  6.695217E+05  3.605687E+05  3.575600E+05 -6.286763E+04 -1.587358E-09  2.452379E-10
        87  11  7.851605E+05  3.884566E+05  3.886344E+05 -1.170514E+04  9.314141E-10  1.325089E-09
        87  12  9.130499E+05  4.372423E+05  4.382833E+05 -6.536764E+04 -4.974423E-11  3.135338E-11
        87  13 -7.861993E+05 -1.091570E+03  5.022833E+03 -6.630919E+04  2.197808E-10 -3.346575E-10
        87  14 -7.910406E+05 -3.021940E+03  7.350179E+03 -1.391481E+04 -3.388887E-09  7.725506E-10
        87  15 -7.862439E+05  1.335965E+04  1.782615E+04 -6.636184E+04 -1.998241E-09  6.559715E-10
        87  16 -2.239984E+06 -3.629072E+05 -3.476670E+05 -6.974334E+04  1.538256E-09 -7.951466E-10
        87  17 -2.364971E+06 -3.946825E+05 -3.741127E+05 -1.612040E+04 -1.325353E-09  1.905326E-09
        87  18 -2.482915E+06 -4.107390E+05 -4.028459E+05 -6.735569E+04 -2.085359E-09  5.586392E-10
        87  19  6.695222E+05  3.605705E+05  3.575632E+05 -6.286781E+04 -5.814412E+03  4.049670E+04
        87  20  7.851613E+05  3.884588E+05  3.886386E+05 -1.170465E+04  1.326784E+04  4.532289E+04
        87  21  9.130511E+05  4.372428E+05  4.382857E+05 -6.536724E+04  3.247438E+04  1.539481E+04
        87  22 -7.861989E+05 -1.089804E+03  5.025944E+03 -6.630906E+04  3.765760E+03  4.051844E+04
        87  23 -7.910400E+05 -3.019720E+03  7.354151E+03 -1.391453E+04  7.804430E+03  4.531531E+04
        87  24 -7.862437E+05  1.335994E+04  1.782686E+04 -6.636169E+04  1.196355E+04  1.531908E+04
        87  25 -2.239984E+06 -3.629054E+05 -3.476636E+05 -6.974290E+04  1.332354E+04  4.054010E+04
        87  26 -2.364971E+06 -3.946803E+05 -3.741088E+05 -1.612031E+04  2.354813E+03  4.530776E+04
        87  27 -2.482915E+06 -4.107388E+05 -4.028453E+05 -6.735580E+04 -8.491282E+03  1.524331E+04
        88   1  5.385399E+05  1.390009E+06  5.617240E+05 -2.629967E+05  1.358359E+04  1.135434E+05
        88   2  3.015955E+05  9.383198E+05  3.684925E+05 -5.364807E+04  3.722203E+04  6.503086E+04
        88   3  2.098061E+05  5.258998E+05  2.424322E+05 -2.185120E+05  2.131147E+04  1.629093E+04
        88   4  1.095263E+05 -3.285538E+05  1.363075E+05 -2.258280E+05  1.370136E+04  9.472649E+04
        88   5 -1.758340E+04 -3.466086E+05  5.794590E+04 -3.903621E+04  3.723865E+04  6.341318E+04
        88   6 -2.341326E+03 -3.284299E+05  3.495334E+04 -2.264894E+05  2.119424E+04  3.183798E+04
        88   7 -3.197038E+05 -2.044433E+06 -2.893271E+05 -1.887577E+05  1.381707E+04  7.596124E+04
        88   8 -3.368826E+05 -1.630028E+06 -2.527191E+05 -2.445214E+04  3.725520E+04  6.179872E+04
        88   9 -2.145419E+05 -1.182093E+06 -1.725773E+05 -2.344543E+05  2.107653E+04  4.736367E+04
        88  10  5.385363E+05  1.389995E+06  5.616995E+05 -2.629979E+05  7.078437E-10  6.762298E-10
        88  11  3.015929E+05  9.383149E+05  3.684819E+05 -5.365002E+04  1.834482E-09 -5.594794E-10
        88  12  2.098056E+05  5.258994E+05  2.424308E+05 -2.185123E+05  9.605466E-10 -1.720205E-09
        88  13  1.095237E+05 -3.285635E+05  1.362903E+05 -2.258290E+05 -2.500672E-10 -3.220974E-11
        88  14 -1.758597E+04 -3.466132E+05  5.793573E+04 -3.903811E+04  8.934536E-10  5.960952E-11
        88  15 -2.342081E+03 -3.284311E+05  3.495059E+04 -2.264899E+05 -1.547807E-10 -3.892827E-12
        88  16 -3.197056E+05 -2.044439E+06 -2.893384E+05 -1.887586E+05 -2.914247E-10 -7.646370E-10
        88  17 -3.368851E+05 -1.630033E+06 -2.527289E+05 -2.445400E+04 -5.872333E-10  5.222453E-10
        88  18 -2.145430E+05 -1.182095E+06 -1.725823E+05 -2.344551E+05 -2.575829E-09  1.465050E-09
        88  19  5.385399E+05  1.390009E+06  5.617240E+05 -2.629967E+05 -1.358359E+04 -1.135434E+05
        88  20  3.015955E+05  9.383198E+05  3.684925E+05 -5.364807E+04 -3.722203E+04 -6.503086E+04
        88  21  2.098061E+05  5.258998E+05  2.424322E+05 -2.185120E+05 -2.131147E+04 -1.629093E+04
        88  22  1.095263E+05 -3.285538E+05  1.363075E+05 -2.258280E+05 -1.370136E+04 -9.472649E+04
        88  23 -1.758340E+04 -3.466086E+05  5.794590E+04 -3.903621E+04 -3.723865E+04 -6.341318E+04
        88  24 -2.341326E+03 -3.284299E+05  3.495334E+04 -2.264894E+05 -2.119424E+04 -3.183798E+04
        88  25 -3.197038E+05 -2.044433E+06 -2.893271E+05 -1.887577E+05 -1.381707E+04 -7.596124E+04
        88  26 -3.368826E+05 -1.630028E+06 -2.527191E+05 -2.445214E+04 -3.725520E+04 -6.179872E+04
        88  27 -2.145419E+05 -1.182093E+06 -1.725773E+05 -2.344543E+05 -2.107653E+04 -4.736367E+04
        89   1  5.377493E+04 -1.848229E+05  6.363447E+04 -2.298744E+05  5.146285E+03  2.048365E+04
        89   2 -7.023425E+04 -6.159087E+05 -5.885567E+04 -3.815131E+04 -7.831229E+03  1.612061E+04
        89   3 -1.800377E+05 -1.049459E+06 -1.764116E+05 -2.226476E+05 -1.985643E+04  1.177689E+04
        89   4  1.600510E+04 -3.368364E+05  2.710338E+04 -2.266232E+05  5.100731E+03  2.630922E+04
        89   5 -5.536543E+02 -3.355774E+05  9.095434E+03 -3.859073E+04 -7.871597E+03  2.153782E+04
        89   6 -2.820845E+03 -3.368752E+05 -3.674112E+03 -2.267650E+05 -1.989227E+04  1.678282E+04
        89   7 -2.176637E+04 -4.888287E+05 -9.429235E+03 -2.233727E+05  5.055233E+03  3.213337E+04
        89   8  6.912119E+04 -5.517414E+04  7.704099E+04 -3.903022E+04 -7.911964E+03  2.695747E+04
        89   9  1.743588E+05  3.761736E+05  1.690269E+05 -2.308861E+05 -1.992815E+04  2.179447E+04
        89  10  5.377479E+04 -1.848233E+05  6.363364E+04 -2.298745E+05 -2.283623E-09  7.858023E-10
        89  11 -7.023439E+04 -6.159090E+05 -5.885628E+04 -3.815121E+04 -1.910793E-09  4.734224E-10
        89  12 -1.800382E+05 -1.049460E+06 -1.764126E+05 -2.226474E+05 -1.306995E-10  4.672544E-10
        89  13  1.600488E+04 -3.368372E+05  2.710203E+04 -2.266233E+05  3.095858E-10  8.320249E-12
        89  14 -5.538454E+02 -3.355779E+05  9.094445E+03 -3.859060E+04  7.045571E-10  8.400418E-11
        89  15 -2.821345E+03 -3.368756E+05 -3.675384E+03 -2.267647E+05  2.638011E-09  1.828545E-10
        89  16 -2.176668E+04 -4.888298E+05 -9.431225E+03 -2.233728E+05 -2.773445E-09 -7.374251E-10
        89  17  6.912093E+04 -5.517494E+04  7.703950E+04 -3.903005E+04  3.159635E-09 -4.023687E-10
        89  18  1.743582E+05  3.761730E+05  1.690252E+05 -2.308858E+05  1.248637E-09 -3.340689E-10
        89  19  5.377493E+04 -1.848229E+05  6.363447E+04 -2.298744E+05 -5.146285E+03 -2.048365E+04
        89  20 -7.023425E+04 -6.159087E+05 -5.885567E+04 -3.815131E+04  7.831229E+03 -1.612061E+04
        89  21 -1.800377E+05 -1.049459E+06 -1.764116E+05 -2.226476E+05  1.985643E+04 -1.177689E+04
        89  22  1.600510E+04 -3.368364E+05  2.710338E+04 -2.266232E+05 -5.100731E+03 -2.630922E+04
        89  23 -5.536543E+02 -3.355774E+05  9.095434E+03 -3.859073E+04  7.871597E+03 -2.153782E+04
        89  24 -2.820845E+03 -3.368752E+05 -3.674112E+03 -2.267650E+05  1.989227E+04 -1.678282E+04
        89  25 -2.176637E+04 -4.888287E+05 -9.429235E+03 -2.233727E+05 -5.055233E+03 -3.213337E+04
        89  26  6.912119E+04 -5.517414E+04  7.704099E+04 -3.903022E+04  7.911964E+03 -2.695747E+04
        89  27  1.743588E+05  3.761736E+05  1.690269E+05 -2.308861E+05  1.992815E+04 -2.179447E+04
        90   1 -3.450260E+05 -1.752725E+06 -3.514450E+05 -2.135386E+05 -3.732871E+04 -3.355505E+02
        90   2 -4.514306E+05 -2.174570E+06 -4.676990E+05 -3.516016E+04 -5.382442E+04  3.309086E+04
        90   3 -6.106301E+05 -2.613688E+06 -6.190219E+05 -2.306539E+05 -1.973630E+04  6.676406E+04
        90   4  6.702564E+03 -3.397620E+05 -8.237331E+03 -2.260911E+05 -3.744912E+04  1.760770E+04
        90   5  6.611909E+03 -3.330769E+05 -2.172324E+04 -3.930329E+04 -5.379254E+04  2.927781E+04
        90   6 -4.237952E+04 -3.399843E+05 -5.507483E+04 -2.263252E+05 -1.961720E+04  4.121853E+04
        90   7  3.582847E+05  1.075028E+06  3.348272E+05 -2.386690E+05 -3.757011E+04  3.559173E+04
        90   8  4.644057E+05  1.511522E+06  4.240085E+05 -4.345439E+04 -5.376065E+04  2.545335E+04
        90   9  5.254837E+05  1.938429E+06  5.084889E+05 -2.219746E+05 -1.949869E+04  1.557899E+04
        90  10 -3.450275E+05 -1.752725E+06 -3.514477E+05 -2.135386E+05 -9.095807E-10  1.657701E-10
        90  11 -4.514340E+05 -2.174572E+06 -4.677065E+05 -3.515872E+04 -1.130656E-09  1.444706E-10
        90  12 -6.106317E+05 -2.613693E+06 -6.190311E+05 -2.306528E+05  8.030306E-10  4.467125E-10
        90  13  6.700976E+03 -3.397628E+05 -8.240548E+03 -2.260906E+05 -1.741823E-09  2.339539E-10
        90  14  6.608572E+03 -3.330786E+05 -2.173029E+04 -3.930203E+04 -1.568169E-09  4.267650E-11
        90  15 -4.238039E+04 -3.399862E+05 -5.507874E+04 -2.263245E+05  3.816737E-10 -3.492683E-11
        90  16  3.582829E+05  1.075026E+06  3.348222E+05 -2.386679E+05  1.632744E-10 -9.680973E-11
        90  17  4.644024E+05  1.511521E+06  4.240018E+05 -4.345329E+04 -7.994462E-10 -2.129019E-10
        90  18  5.254832E+05  1.938429E+06  5.084877E+05 -2.219743E+05  6.037063E-10 -3.891424E-10
        90  19 -3.450260E+05 -1.752725E+06 -3.514450E+05 -2.135386E+05  3.732871E+04  3.355505E+02
        90  20 -4.514306E+05 -2.174570E+06 -4.676990E+05 -3.516016E+04  5.382442E+04 -3.309086E+04
        90  21 -6.106301E+05 -2.613688E+06 -6.190219E+05 -2.306539E+05  1.973630E+04 -6.676406E+04
        90  22  6.702564E+03 -3.397620E+05 -8.237331E+03 -2.260911E+05  3.744912E+04 -1.760770E+04
        90  23  6.611909E+03 -3.330769E+05 -2.172324E+04 -3.930329E+04  5.379254E+04 -2.927781E+04
        90  24 -4.237952E+04 -3.399843E+05 -5.507483E+04 -2.263252E+05  1.961720E+04 -4.121853E+04
        90  25  3.582847E+05  1.075028E+06  3.348272E+05 -2.386690E+05  3.757011E+04 -3.559173E+04
        90  26  4.644057E+05  1.511522E+06  4.240085E+05 -4.345439E+04  5.376065E+04 -2.545335E+04
        90  27  5.254837E+05  1.938429E+06  5.084889E+05 -2.219746E+05  1.949869E+04 -1.557899E+04
        91   1 -5.461432E+06 -1.757086E+06 -1.134531E+06 -1.892926E+06 -5.272525E+05 -1.872095E+05
        91   2 -5.317722E+06 -9.808423E+05 -6.443226E+05 -1.987243E+06 -3.434636E+05 -9.043993E+04
        91   3 -5.457632E+06 -9.853169E+05 -5.054021E+05 -1.912673E+06 -1.498092E+05 -1.957499E+04
        91   4 -4.374655E+06 -1.190548E+06 -8.054663E+05 -1.440836E+06 -5.132655E+05 -1.820500E+05
        91   5 -4.191402E+06 -5.109175E+05 -3.335091E+05 -1.635395E+06 -3.395962E+05 -8.900615E+04
        91   6 -4.289236E+06 -6.091919E+05 -2.042881E+05 -1.661226E+06 -1.560593E+05 -2.192522E+04
        91   7 -3.286670E+06 -6.235933E+05 -4.765194E+05 -9.879209E+05 -4.992508E+05 -1.768711E+05
        91   8 -3.063842E+06 -4.083945E+04 -2.281374E+04 -1.282938E+06 -3.357205E+05 -8.756852E+04
        91   9 -3.119508E+06 -2.330679E+05  9.671815E+04 -1.409389E+06 -1.623223E+05 -2.427862E+04
        91  10 -5.461743E+06 -1.757199E+06 -1.135125E+06 -1.893006E+06  2.327843E-10 -6.174020E-10
        91  11 -5.317852E+06 -9.808832E+05 -6.445620E+05 -1.987269E+06 -2.320568E-09 -1.830516E-09
        91  12 -5.457657E+06 -9.853235E+05 -5.054454E+05 -1.912675E+06  2.743493E-09 -1.395812E-09
        91  13 -4.374948E+06 -1.190656E+06 -8.060280E+05 -1.440911E+06 -5.513264E-10 -4.213251E-10
        91  14 -4.191529E+06 -5.109574E+05 -3.337426E+05 -1.635419E+06 -9.280619E-11 -1.389513E-09
        91  15 -4.289262E+06 -6.091991E+05 -2.043351E+05 -1.661229E+06  1.351159E-09 -9.330042E-10
        91  16 -3.286948E+06 -6.236945E+05 -4.770496E+05 -9.879923E+05 -1.069120E-09 -4.272503E-10
        91  17 -3.063966E+06 -4.087821E+04 -2.304127E+04 -1.282962E+06 -1.027767E-09 -7.644324E-10
        91  18 -3.119536E+06 -2.330757E+05  9.666725E+04 -1.409392E+06  2.854079E-10 -1.178066E-09
        91  19 -5.461432E+06 -1.757086E+06 -1.134531E+06 -1.892926E+06  5.272525E+05  1.872095E+05
        91  20 -5.317722E+06 -9.808423E+05 -6.443226E+05 -1.987243E+06  3.434636E+05  9.043993E+04
        91  21 -5.457632E+06 -9.853169E+05 -5.054021E+05 -1.912673E+06  1.498092E+05  1.957499E+04
        91  22 -4.374655E+06 -1.190548E+06 -8.054663E+05 -1.440836E+06  5.132655E+05  1.820500E+05
        91  23 -4.191402E+06 -5.109175E+05 -3.335091E+05 -1.635395E+06  3.395962E+05  8.900615E+04
        91  24 -4.289236E+06 -6.091919E+05 -2.042881E+05 -1.661226E+06  1.560593E+05  2.192522E+04
        91  25 -3.286670E+06 -6.235933E+05 -4.765194E+05 -9.879209E+05  4.992508E+05  1.768711E+05
        91  26 -3.063842E+06 -4.083945E+04 -2.281374E+04 -1.282938E+06  3.357205E+05  8.756852E+04
        91  27 -3.119508E+06 -2.330679E+05  9.671815E+04 -1.409389E+06  1.623223E+05  2.427862E+04
        92   1 -5.268326E+06 -1.100899E+06 -4.422528E+05 -1.910080E+06 -1.251525E+05 -1.590356E+04
        92   2 -5.207789E+06 -9.607513E+05 -3.347647E+05 -1.878272E+06 -8.283532E+04 -1.417826E+02
        92   3 -5.138358E+06 -9.589609E+05 -2.834950E+05 -1.876814E+06 -3.938772E+04  1.262232E+04
        92   4 -4.258702E+06 -7.011852E+05 -1.669003E+05 -1.616747E+06 -1.247639E+05 -1.576455E+04
        92   5 -4.258202E+06 -5.970860E+05 -7.867471E+04 -1.614764E+06 -8.358490E+04 -4.283143E+02
        92   6 -4.248524E+06 -6.310223E+05 -4.568690E+04 -1.643141E+06 -4.128068E+04  1.190857E+04
        92   7 -3.248088E+06 -3.013854E+05  1.083587E+05 -1.322971E+06 -1.243746E+05 -1.562518E+04
        92   8 -3.307738E+06 -2.333605E+05  1.773348E+05 -1.350888E+06 -8.433567E+04 -7.153019E+02
        92   9 -3.357920E+06 -3.030458E+05  1.920523E+05 -1.409168E+06 -4.317663E+04  1.119376E+04
        92  10 -5.268343E+06 -1.100903E+06 -4.422830E+05 -1.910081E+06  8.178348E-10  2.778025E-10
        92  11 -5.207796E+06 -9.607532E+05 -3.347777E+05 -1.878272E+06 -3.366335E-09 -4.953374E-10
        92  12 -5.138360E+06 -9.589615E+05 -2.834982E+05 -1.876813E+06  8.626644E-10  3.758305E-10
        92  13 -4.258718E+06 -7.011897E+05 -1.669302E+05 -1.616749E+06  1.562834E-09 -1.022255E-09
        92  14 -4.258209E+06 -5.970878E+05 -7.868793E+04 -1.614764E+06  2.437700E-09 -8.139789E-10
        92  15 -4.248526E+06 -6.310229E+05 -4.569038E+04 -1.643141E+06  1.795808E-09  2.641928E-10
        92  16 -3.248105E+06 -3.013899E+05  1.083290E+05 -1.322973E+06  6.039783E-11 -6.329646E-10
        92  17 -3.307746E+06 -2.333624E+05  1.773213E+05 -1.350888E+06  1.568362E-09 -1.430849E-09
        92  18 -3.357922E+06 -3.030465E+05  1.920486E+05 -1.409168E+06  3.524244E-10  9.704795E-10
        92  19 -5.268326E+06 -1.100899E+06 -4.422528E+05 -1.910080E+06  1.251525E+05  1.590356E+04
        92  20 -5.207789E+06 -9.607513E+05 -3.347647E+05 -1.878272E+06  8.283532E+04  1.417826E+02
        92  21 -5.138358E+06 -9.589609E+05 -2.834950E+05 -1.876814E+06  3.938772E+04 -1.262232E+04
        92  22 -4.258702E+06 -7.011852E+05 -1.669003E+05 -1.616747E+06  1.247639E+05  1.576455E+04
        92  23 -4.258202E+06 -5.970860E+05 -7.867471E+04 -1.614764E+06  8.358490E+04  4.283143E+02
        92  24 -4.248524E+06 -6.310223E+05 -4.568690E+04 -1.643141E+06  4.128068E+04 -1.190857E+04
        92  25 -3.248088E+06 -3.013854E+05  1.083587E+05 -1.322971E+06  1.243746E+05  1.562518E+04
        92  26 -3.307738E+06 -2.333605E+05  1.773348E+05 -1.350888E+06  8.433567E+04  7.153019E+02
        92  27 -3.357920E+06 -3.030458E+05  1.920523E+05 -1.409168E+06  4.317663E+04 -1.119376E+04
        93   1 -4.977874E+06 -9.246516E+05 -2.338703E+05 -1.843154E+06 -3.254919E+04  1.252265E+04
        93   2 -4.914789E+06 -8.473752E+05 -1.916041E+05 -1.783615E+06 -2.166260E+04  1.274805E+04
        93   3 -4.793582E+06 -8.437682E+05 -1.593436E+05 -1.793167E+06 -1.054800E+04  1.234946E+04
        93   4 -4.241628E+06 -6.449627E+05 -3.596622E+04 -1.641092E+06 -3.380505E+04  1.204901E+04
        93   5 -4.270079E+06 -6.038596E+05 -1.839638E+04 -1.608148E+06 -2.315772E+04  1.218609E+04
        93   6 -4.240366E+06 -6.363651E+05 -1.063091E+04 -1.644293E+06 -1.228410E+04  1.169888E+04
        93   7 -3.504855E+06 -3.652398E+05  1.618898E+05 -1.438812E+06 -3.506253E+04  1.157474E+04
        93   8 -3.624967E+06 -3.603196E+05  1.547743E+05 -1.432516E+06 -2.465456E+04  1.162349E+04
        93   9 -3.686854E+06 -4.289455E+05  1.380542E+05 -1.495300E+06 -1.402191E+04  1.104767E+04
        93  10 -4.977875E+06 -9.246520E+05 -2.338726E+05 -1.843153E+06  1.680853E-10  2.071543E-10
        93  11 -4.914790E+06 -8.473755E+05 -1.916053E+05 -1.783615E+06  3.358533E-10 -1.787764E-10
        93  12 -4.793582E+06 -8.437684E+05 -1.593441E+05 -1.793167E+06  1.711716E-09  5.708847E-10
        93  13 -4.241629E+06 -6.449631E+05 -3.596865E+04 -1.641092E+06 -1.305193E-09  4.160388E-11
        93  14 -4.270080E+06 -6.038599E+05 -1.839767E+04 -1.608148E+06  3.862018E-10 -1.034883E-10
        93  15 -4.240366E+06 -6.363653E+05 -1.063145E+04 -1.644293E+06 -2.541633E-09  4.677059E-10
        93  16 -3.504856E+06 -3.652403E+05  1.618872E+05 -1.438812E+06  5.320116E-10  7.516733E-10
        93  17 -3.624967E+06 -3.603199E+05  1.547729E+05 -1.432516E+06 -3.058381E-10  4.035079E-10
        93  18 -3.686854E+06 -4.289457E+05  1.380536E+05 -1.495300E+06 -2.958408E-10  1.535660E-10
        93  19 -4.977874E+06 -9.246516E+05 -2.338703E+05 -1.843154E+06  3.254919E+04 -1.252265E+04
        93  20 -4.914789E+06 -8.473752E+05 -1.916041E+05 -1.783615E+06  2.166260E+04 -1.274805E+04
        93  21 -4.793582E+06 -8.437682E+05 -1.593436E+05 -1.793167E+06  1.054800E+04 -1.234946E+04
        93  22 -4.241628E+06 -6.449627E+05 -3.596622E+04 -1.641092E+06  3.380505E+04 -1.204901E+04
        93  23 -4.270079E+06 -6.038596E+05 -1.839638E+04 -1.608148E+06  2.315772E+04 -1.218609E+04
        93  24 -4.240366E+06 -6.363651E+05 -1.063091E+04 -1.644293E+06  1.228410E+04 -1.169888E+04
        93  25 -3.504855E+06 -3.652398E+05  1.618898E+05 -1.438812E+06  3.506253E+04 -1.157474E+04
        93  26 -3.624967E+06 -3.603196E+05  1.547743E+05 -1.432516E+06  2.465456E+04 -1.162349E+04
        93  27 -3.686854E+06 -4.289455E+05  1.380542E+05 -1.495300E+06  1.402191E+04 -1.104767E+04
        94   1 -4.610792E+06 -7.800867E+05 -1.081607E+05 -1.747112E+06 -8.125700E+03  1.042539E+04
        94   2 -4.540146E+06 -7.030256E+05 -7.678197E+04 -1.677385E+06 -3.859146E+03  7.176917E+03
        94   3 -4.398776E+06 -6.990397E+05 -4.779690E+04 -1.689618E+06  4.726338E+02  3.745701E+03
        94   4 -4.237985E+06 -6.395978E+05 -8.437176E+03 -1.645870E+06 -9.799179E+03  9.799130E+03
        94   5 -4.273247E+06 -6.025509E+05 -5.155749E+03 -1.605069E+06 -5.604532E+03  6.524444E+03
        94   6 -4.237786E+06 -6.385631E+05 -4.209397E+03 -1.646231E+06 -1.345212E+03  3.066918E+03
        94   7 -3.865041E+06 -4.991001E+05  9.127449E+04 -1.544571E+06 -1.147377E+04  9.172446E+03
        94   8 -4.006279E+06 -5.020722E+05  6.646408E+04 -1.532726E+06 -7.350745E+03  5.871662E+03
        94   9 -4.076772E+06 -5.780856E+05  3.937550E+04 -1.602835E+06 -3.163567E+03  2.387946E+03
        94  10 -4.610792E+06 -7.800868E+05 -1.081610E+05 -1.747112E+06  1.328721E-10  2.824632E-10
        94  11 -4.540146E+06 -7.030257E+05 -7.678210E+04 -1.677385E+06 -4.354671E-09 -1.280657E-09
        94  12 -4.398776E+06 -6.990397E+05 -4.779692E+04 -1.689618E+06 -8.112343E-10  2.749509E-11
        94  13 -4.237985E+06 -6.395979E+05 -8.437537E+03 -1.645869E+06  2.000298E-09  2.790124E-10
        94  14 -4.273247E+06 -6.025510E+05 -5.155887E+03 -1.605069E+06 -5.087006E-10 -4.738954E-10
        94  15 -4.237786E+06 -6.385631E+05 -4.209418E+03 -1.646231E+06  1.176318E-09  9.902491E-10
        94  16 -3.865041E+06 -4.991002E+05  9.127408E+04 -1.544571E+06 -1.402746E-09  2.476121E-10
        94  17 -4.006279E+06 -5.020722E+05  6.646392E+04 -1.532726E+06 -8.496369E-10 -1.631867E-10
        94  18 -4.076772E+06 -5.780856E+05  3.937547E+04 -1.602835E+06  9.077616E-10 -9.772667E-12
        94  19 -4.610792E+06 -7.800867E+05 -1.081607E+05 -1.747112E+06  8.125700E+03 -1.042539E+04
        94  20 -4.540146E+06 -7.030256E+05 -7.678197E+04 -1.677385E+06  3.859146E+03 -7.176917E+03
        94  21 -4.398776E+06 -6.990397E+05 -4.779690E+04 -1.689618E+06 -4.726338E+02 -3.745701E+03
        94  22 -4.237985E+06 -6.395978E+05 -8.437176E+03 -1.645870E+06  9.799179E+03 -9.799130E+03
        94  23 -4.273247E+06 -6.025509E+05 -5.155749E+03 -1.605069E+06  5.604532E+03 -6.524444E+03
        94  24 -4.237786E+06 -6.385631E+05 -4.209397E+03 -1.646231E+06  1.345212E+03 -3.066918E+03
        94  25 -3.865041E+06 -4.991001E+05  9.127449E+04 -1.544571E+06  1.147377E+04 -9.172446E+03
        94  26 -4.006279E+06 -5.020722E+05  6.646408E+04 -1.532726E+06  7.350745E+03 -5.871662E+03
        94  27 -4.076772E+06 -5.780856E+05  3.937550E+04 -1.602835E+06  3.163567E+03 -2.387946E+03
        95   1 -4.204903E+06 -6.266579E+05  4.860243E+03 -1.637941E+06  2.161800E+03  1.363993E+03
        95   2 -4.133054E+06 -5.492839E+05  3.216919E+04 -1.566611E+06  6.579336E+03 -2.077591E+03
        95   3 -3.989415E+06 -5.463550E+05  5.697213E+04 -1.578702E+06  1.095939E+04 -5.411888E+03
        95   4 -4.237533E+06 -6.388307E+05 -4.279858E+03 -1.646566E+06  3.433946E+02  6.851407E+02
        95   5 -4.273507E+06 -6.021382E+05 -5.511131E+03 -1.604660E+06  4.803165E+03 -2.741093E+03
        95   6 -4.237709E+06 -6.399015E+05 -9.281447E+03 -1.646179E+06  9.224919E+03 -6.060181E+03
        95   7 -4.270162E+06 -6.510034E+05 -1.342007E+04 -1.655191E+06 -1.474910E+03  6.324589E+00
        95   8 -4.413942E+06 -6.549917E+05 -4.319339E+04 -1.642700E+06  3.027429E+03 -3.404432E+03
        95   9 -4.485946E+06 -7.334450E+05 -7.554094E+04 -1.713631E+06  7.491198E+03 -6.708192E+03
        95  10 -4.204903E+06 -6.266579E+05  4.860231E+03 -1.637941E+06  8.448456E-10  1.993778E-09
        95  11 -4.133054E+06 -5.492839E+05  3.216910E+04 -1.566611E+06  3.111761E-10 -2.830944E-10
        95  12 -3.989415E+06 -5.463550E+05  5.697185E+04 -1.578702E+06 -1.891003E-09  5.820394E-10
        95  13 -4.237533E+06 -6.388307E+05 -4.279859E+03 -1.646566E+06 -3.904667E-10  5.649324E-10
        95  14 -4.273507E+06 -6.021383E+05 -5.511189E+03 -1.604660E+06 -3.686007E-09 -4.408981E-10
        95  15 -4.237709E+06 -6.399016E+05 -9.281676E+03 -1.646179E+06  3.196909E-10  5.612853E-10
        95  16 -4.270162E+06 -6.510034E+05 -1.342008E+04 -1.655191E+06 -1.348029E-09 -2.309586E-10
        95  17 -4.413942E+06 -6.549917E+05 -4.319343E+04 -1.642700E+06 -1.818728E-09 -3.717207E-10
        95  18 -4.485946E+06 -7.334451E+05 -7.554113E+04 -1.713631E+06  1.115981E-09  1.875701E-09
        95  19 -4.204903E+06 -6.266579E+05  4.860243E+03 -1.637941E+06 -2.161800E+03 -1.363993E+03
        95  20 -4.133054E+06 -5.492839E+05  3.216919E+04 -1.566611E+06 -6.579336E+03  2.077591E+03
        95  21 -3.989415E+06 -5.463550E+05  5.697213E+04 -1.578702E+06 -1.095939E+04  5.411888E+03
        95  22 -4.237533E+06 -6.388307E+05 -4.279858E+03 -1.646566E+06 -3.433946E+02 -6.851407E+02
        95  23 -4.273507E+06 -6.021382E+05 -5.511131E+03 -1.604660E+06 -4.803165E+03  2.741093E+03
        95  24 -4.237709E+06 -6.399015E+05 -9.281447E+03 -1.646179E+06 -9.224919E+03  6.060181E+03
        95  25 -4.270162E+06 -6.510034E+05 -1.342007E+04 -1.655191E+06  1.474910E+03 -6.324589E+00
        95  26 -4.413942E+06 -6.549917E+05 -4.319339E+04 -1.642700E+06 -3.027429E+03  3.404432E+03
        95  27 -4.485946E+06 -7.334450E+05 -7.554094E+04 -1.713631E+06 -7.491198E+03  6.708192E+03
        96   1 -3.804437E+06 -4.743906E+05  1.051494E+05 -1.528607E+06  1.370443E+04 -7.311671E+03
        96   2 -3.738664E+06 -4.017619E+05  1.223819E+05 -1.462179E+06  2.549747E+04 -7.664981E+03
        96   3 -3.612062E+06 -4.076088E+05  1.287590E+05 -1.468819E+06  3.709420E+04 -7.471646E+03
        96   4 -4.239682E+06 -6.370745E+05 -1.178597E+04 -1.645299E+06  1.190911E+04 -7.983370E+03
        96   5 -4.270787E+06 -6.025985E+05 -2.045713E+04 -1.606987E+06  2.391253E+04 -8.259388E+03
        96   6 -4.241116E+06 -6.466514E+05 -4.015828E+04 -1.641752E+06  3.571782E+04 -7.989221E+03
        96   7 -4.674741E+06 -7.997471E+05 -1.287373E+05 -1.761916E+06  1.011519E+04 -8.654553E+03
        96   8 -4.802633E+06 -8.034175E+05 -1.633207E+05 -1.751682E+06  2.232909E+04 -8.853231E+03
        96   9 -4.869786E+06 -8.856687E+05 -2.091104E+05 -1.814524E+06  3.434297E+04 -8.506213E+03
        96  10 -3.804437E+06 -4.743907E+05  1.051490E+05 -1.528607E+06 -7.634740E-10  9.777367E-10
        96  11 -3.738664E+06 -4.017621E+05  1.223806E+05 -1.462179E+06  2.167501E-09  5.199441E-10
        96  12 -3.612063E+06 -4.076092E+05  1.287563E+05 -1.468819E+06 -1.797015E-09  3.833895E-10
        96  13 -4.239682E+06 -6.370746E+05 -1.178636E+04 -1.645299E+06  8.000737E-10  5.051880E-10
        96  14 -4.270787E+06 -6.025987E+05 -2.045834E+04 -1.606987E+06 -9.093710E-10 -7.511478E-10
        96  15 -4.241117E+06 -6.466518E+05 -4.016081E+04 -1.641751E+06  1.540157E-09  7.912692E-10
        96  16 -4.674741E+06 -7.997472E+05 -1.287376E+05 -1.761916E+06 -1.186877E-09  9.009067E-10
        96  17 -4.802634E+06 -8.034177E+05 -1.633218E+05 -1.751682E+06  1.884871E-09 -3.290700E-10
        96  18 -4.869787E+06 -8.856691E+05 -2.091128E+05 -1.814524E+06  1.858790E-09  2.225085E-09
        96  19 -3.804437E+06 -4.743906E+05  1.051494E+05 -1.528607E+06 -1.370443E+04  7.311671E+03
        96  20 -3.738664E+06 -4.017619E+05  1.223819E+05 -1.462179E+06 -2.549747E+04  7.664981E+03
        96  21 -3.612062E+06 -4.076088E+05  1.287590E+05 -1.468819E+06 -3.709420E+04  7.471646E+03
        96  22 -4.239682E+06 -6.370745E+05 -1.178597E+04 -1.645299E+06 -1.190911E+04  7.983370E+03
        96  23 -4.270787E+06 -6.025985E+05 -2.045713E+04 -1.606987E+06 -2.391253E+04  8.259388E+03
        96  24 -4.241116E+06 -6.466514E+05 -4.015828E+04 -1.641752E+06 -3.571782E+04  7.989221E+03
        96  25 -4.674741E+06 -7.997471E+05 -1.287373E+05 -1.761916E+06 -1.011519E+04  8.654553E+03
        96  26 -4.802633E+06 -8.034175E+05 -1.633207E+05 -1.751682E+06 -2.232909E+04  8.853231E+03
        96  27 -4.869786E+06 -8.856687E+05 -2.091104E+05 -1.814524E+06 -3.434297E+04  8.506213E+03
        97   1 -3.451961E+06 -3.409315E+05  1.611111E+05 -1.438101E+06  4.602735E+04 -6.969032E+03
        97   2 -3.395370E+06 -2.631842E+05  1.447695E+05 -1.373009E+06  9.214718E+04  6.424715E+03
        97   3 -3.328803E+06 -3.394337E+05  6.754554E+04 -1.342162E+06  1.371937E+05  2.270735E+04
        97   4 -4.248038E+06 -6.319572E+05 -5.104455E+04 -1.644995E+06  4.402916E+04 -7.720285E+03
        97   5 -4.258566E+06 -5.940087E+05 -8.783866E+04 -1.613159E+06  9.124745E+04  6.082678E+03
        97   6 -4.259404E+06 -7.103776E+05 -1.864596E+05 -1.615566E+06  1.373863E+05  2.277183E+04
        97   7 -5.043504E+06 -9.229561E+05 -2.632559E+05 -1.851652E+06  4.203376E+04 -8.470564E+03
        97   8 -5.121041E+06 -9.247834E+05 -3.205136E+05 -1.853003E+06  9.034902E+04  5.741144E+03
        97   9 -5.189162E+06 -1.081243E+06 -4.405438E+05 -1.888588E+06  1.375785E+05  2.283612E+04
        97  10 -3.451963E+06 -3.409322E+05  1.611070E+05 -1.438101E+06  5.245773E-10  8.915644E-10
        97  11 -3.395379E+06 -2.631866E+05  1.447534E+05 -1.373010E+06 -9.475097E-10 -9.186597E-10
        97  12 -3.328824E+06 -3.394394E+05  6.750898E+04 -1.342165E+06 -1.949511E-09 -5.344561E-10
        97  13 -4.248040E+06 -6.319578E+05 -5.104832E+04 -1.644995E+06 -3.365712E-10  4.551096E-10
        97  14 -4.258575E+06 -5.940110E+05 -8.785449E+04 -1.613159E+06 -6.925529E-10 -9.285772E-10
        97  15 -4.259424E+06 -7.103833E+05 -1.864963E+05 -1.615569E+06 -9.979493E-10 -9.752886E-10
        97  16 -5.043505E+06 -9.229566E+05 -2.632594E+05 -1.851652E+06 -1.570468E-09  1.675826E-10
        97  17 -5.121050E+06 -9.247856E+05 -3.205292E+05 -1.853003E+06 -1.571082E-09 -4.605850E-10
        97  18 -5.189183E+06 -1.081249E+06 -4.405807E+05 -1.888591E+06  5.994751E-11 -5.323052E-10
        97  19 -3.451961E+06 -3.409315E+05  1.611111E+05 -1.438101E+06 -4.602735E+04  6.969032E+03
        97  20 -3.395370E+06 -2.631842E+05  1.447695E+05 -1.373009E+06 -9.214718E+04 -6.424715E+03
        97  21 -3.328803E+06 -3.394337E+05  6.754554E+04 -1.342162E+06 -1.371937E+05 -2.270735E+04
        97  22 -4.248038E+06 -6.319572E+05 -5.104455E+04 -1.644995E+06 -4.402916E+04  7.720285E+03
        97  23 -4.258566E+06 -5.940087E+05 -8.783866E+04 -1.613159E+06 -9.124745E+04 -6.082678E+03
        97  24 -4.259404E+06 -7.103776E+05 -1.864596E+05 -1.615566E+06 -1.373863E+05 -2.277183E+04
        97  25 -5.043504E+06 -9.229561E+05 -2.632559E+05 -1.851652E+06 -4.203376E+04  8.470564E+03
        97  26 -5.121041E+06 -9.247834E+05 -3.205136E+05 -1.853003E+06 -9.034902E+04 -5.741144E+03
        97  27 -5.189162E+06 -1.081243E+06 -4.405438E+05 -1.888588E+06 -1.375785E+05 -2.283612E+04
        98   1 -3.179230E+06 -2.619182E+05  5.611376E+04 -1.438401E+06  1.784786E+05  3.243728E+04
        98   2 -3.112498E+06 -4.324726E+04 -7.570177E+04 -1.293257E+06  3.737193E+05  1.034152E+05
        98   3 -3.353510E+06 -6.950169E+05 -5.821176E+05 -9.648991E+05  5.593700E+05  1.997727E+05
        98   4 -4.292715E+06 -6.084085E+05 -2.282176E+05 -1.666140E+06  1.721829E+05  3.008225E+04
        98   5 -4.185034E+06 -4.966065E+05 -3.724443E+05 -1.634951E+06  3.772785E+05  1.047233E+05
        98   6 -4.387679E+06 -1.258184E+06 -8.996413E+05 -1.420378E+06  5.727864E+05  2.046734E+05
        98   7 -5.404992E+06 -9.549089E+05 -5.126438E+05 -1.893552E+06  1.658996E+05  2.772996E+04
        98   8 -5.256444E+06 -9.498138E+05 -6.692937E+05 -1.976080E+06  3.808305E+05  1.060279E+05
        98   9 -5.420734E+06 -1.820898E+06 -1.217269E+06 -1.875054E+06  5.861776E+05  2.095549E+05
        98  10 -3.179264E+06 -2.619280E+05  5.605156E+04 -1.438406E+06 -3.336233E-09  4.257812E-10
        98  11 -3.112652E+06 -4.329658E+04 -7.598601E+04 -1.293289E+06 -1.198082E-09 -5.882127E-11
        98  12 -3.353858E+06 -6.951446E+05 -5.827845E+05 -9.649894E+05  2.433496E-09 -5.547758E-10
        98  13 -4.292747E+06 -6.084175E+05 -2.282754E+05 -1.666145E+06 -5.153161E-10  5.666277E-10
        98  14 -4.185191E+06 -4.966569E+05 -3.727346E+05 -1.634983E+06 -7.186203E-10  3.391067E-09
        98  15 -4.388045E+06 -1.258318E+06 -9.003420E+05 -1.420473E+06  8.390026E-10  3.410067E-11
        98  16 -5.405022E+06 -9.549172E+05 -5.126974E+05 -1.893556E+06  3.371663E-10  4.300231E-10
        98  17 -5.256603E+06 -9.498654E+05 -6.695902E+05 -1.976113E+06 -6.502833E-10  4.082313E-11
        98  18 -5.421118E+06 -1.821038E+06 -1.218005E+06 -1.875154E+06 -1.308415E-11  6.733031E-10
        98  19 -3.179230E+06 -2.619182E+05  5.611376E+04 -1.438401E+06 -1.784786E+05 -3.243728E+04
        98  20 -3.112498E+06 -4.324726E+04 -7.570177E+04 -1.293257E+06 -3.737193E+05 -1.034152E+05
        98  21 -3.353510E+06 -6.950169E+05 -5.821176E+05 -9.648991E+05 -5.593700E+05 -1.997727E+05
        98  22 -4.292715E+06 -6.084085E+05 -2.282176E+05 -1.666140E+06 -1.721829E+05 -3.008225E+04
        98  23 -4.185034E+06 -4.966065E+05 -3.724443E+05 -1.634951E+06 -3.772785E+05 -1.047233E+05
        98  24 -4.387679E+06 -1.258184E+06 -8.996413E+05 -1.420378E+06 -5.727864E+05 -2.046734E+05
        98  25 -5.404992E+06 -9.549089E+05 -5.126438E+05 -1.893552E+06 -1.658996E+05 -2.772996E+04
        98  26 -5.256444E+06 -9.498138E+05 -6.692937E+05 -1.976080E+06 -3.808305E+05 -1.060279E+05
        98  27 -5.420734E+06 -1.820898E+06 -1.217269E+06 -1.875054E+06 -5.861776E+05 -2.095549E+05
        99   1 -1.962562E+06 -3.008410E+05 -2.834784E+05 -3.566746E+04  2.765969E+04  1.285555E+04
        99   2 -1.889002E+06 -3.386615E+05 -2.926838E+05 -8.760434E+03  2.452593E+04  3.814938E+04
        99   3 -1.795674E+06 -3.120317E+05 -2.831219E+05 -5.380347E+04  2.149617E+04  3.483416E+04
        99   4 -5.529747E+05  5.122791E+04  6.581888E+04 -4.582354E+04  4.480013E+04  1.292031E+04
        99   5 -5.639066E+05 -9.073631E+03  2.834744E+04 -9.754363E+03  2.930993E+04  3.815835E+04
        99   6 -5.529616E+05 -2.848001E+03  1.820107E+04 -4.562498E+04  1.392458E+04  3.481420E+04
        99   7  8.584229E+05  4.031486E+05  4.149692E+05 -5.600447E+04  6.197946E+04  1.298445E+04
        99   8  7.627968E+05  3.203854E+05  3.492523E+05 -1.075162E+04  3.410407E+04  3.816730E+04
        99   9  6.911647E+05  3.062224E+05  3.194129E+05 -3.743071E+04  6.337821E+03  3.479407E+04
        99  10 -1.962563E+06 -3.008414E+05 -2.834801E+05 -3.566775E+04  1.778235E-09  1.298222E-10
        99  11 -1.889003E+06 -3.386633E+05 -2.926877E+05 -8.761188E+03  1.571454E-09 -2.159600E-09
        99  12 -1.795675E+06 -3.120331E+05 -2.831251E+05 -5.380407E+04  1.117921E-10 -1.107629E-09
        99  13 -5.529769E+05  5.122719E+04  6.581479E+04 -4.582401E+04  1.661623E-09 -1.101152E-09
        99  14 -5.639079E+05 -9.075425E+03  2.834308E+04 -9.755264E+03 -3.435838E-09 -9.334020E-10
        99  15 -5.529622E+05 -2.849354E+03  1.819843E+04 -4.562537E+04 -3.927437E-10 -1.359582E-09
        99  16  8.584187E+05  4.031474E+05  4.149617E+05 -5.600511E+04 -1.760453E-09  1.817478E-09
        99  17  7.627952E+05  3.203835E+05  3.492473E+05 -1.075267E+04 -1.590225E-09 -8.091993E-10
        99  18  6.911643E+05  3.062211E+05  3.194105E+05 -3.743089E+04 -1.391029E-09 -1.751221E-09
        99  19 -1.962562E+06 -3.008410E+05 -2.834784E+05 -3.566746E+04 -2.765969E+04 -1.285555E+04
        99  20 -1.889002E+06 -3.386615E+05 -2.926838E+05 -8.760434E+03 -2.452593E+04 -3.814938E+04
        99  21 -1.795674E+06 -3.120317E+05 -2.831219E+05 -5.380347E+04 -2.149617E+04 -3.483416E+04
        99  22 -5.529747E+05  5.122791E+04  6.581888E+04 -4.582354E+04 -4.480013E+04 -1.292031E+04
        99  23 -5.639066E+05 -9.073631E+03  2.834744E+04 -9.754363E+03 -2.930993E+04 -3.815835E+04
        99  24 -5.529616E+05 -2.848001E+03  1.820107E+04 -4.562498E+04 -1.392458E+04 -3.481420E+04
        99  25  8.584229E+05  4.031486E+05  4.149692E+05 -5.600447E+04 -6.197946E+04 -1.298445E+04
        99  26  7.627968E+05  3.203854E+05  3.492523E+05 -1.075162E+04 -3.410407E+04 -3.816730E+04
        99  27  6.911647E+05  3.062224E+05  3.194129E+05 -3.743071E+04 -6.337821E+03 -3.479407E+04
       100   1 -1.661553E+06 -2.693493E+05 -2.536065E+05 -4.631732E+04  1.080825E+04  2.874005E+04
       100   2 -1.576935E+06 -2.545130E+05 -2.396351E+05 -9.079126E+03  8.134111E+03  2.796650E+04
       100   3 -1.488313E+06 -2.321419E+05 -2.216692E+05 -4.729240E+04  5.455768E+03  2.461077E+04
       100   4 -5.567946E+05  5.576363E+03  1.485800E+04 -4.646759E+04  1.104650E+04  2.873707E+04
       100   5 -5.588787E+05 -1.256636E+03  7.329508E+03 -8.741369E+03  7.253244E+03  2.796271E+04
       100   6 -5.567754E+05 -3.660665E+02  4.568635E+03 -4.645886E+04  3.456144E+03  2.460806E+04
       100   7  5.490801E+05  2.804122E+05  2.832342E+05 -4.661853E+04  1.128515E+04  2.873409E+04
       100   8  4.601259E+05  2.519236E+05  2.542193E+05 -8.403262E+03  6.370926E+03  2.795892E+04
       100   9  3.755560E+05  2.313460E+05  2.307438E+05 -4.562407E+04  1.453520E+03  2.460535E+04
       100  10 -1.661553E+06 -2.693503E+05 -2.536083E+05 -4.631757E+04 -2.711369E-10  2.738540E-11
       100  11 -1.576935E+06 -2.545139E+05 -2.396367E+05 -9.079309E+03 -1.702843E-09  9.062878E-10
       100  12 -1.488313E+06 -2.321426E+05 -2.216704E+05 -4.729251E+04  2.048951E-09 -3.680220E-10
       100  13 -5.567950E+05  5.575444E+03  1.485622E+04 -4.646785E+04 -1.825628E-09 -1.809727E-09
       100  14 -5.588790E+05 -1.257489E+03  7.327940E+03 -8.741533E+03 -1.344758E-09  1.297237E-09
       100  15 -5.567755E+05 -3.667198E+02  4.567475E+03 -4.645893E+04 -1.564594E-09 -3.899703E-10
       100  16  5.490797E+05  2.804113E+05  2.832324E+05 -4.661879E+04  2.610706E-10 -7.105474E-10
       100  17  4.601256E+05  2.519227E+05  2.542178E+05 -8.403405E+03 -2.653052E-09  4.089666E-10
       100  18  3.755558E+05  2.313453E+05  2.307426E+05 -4.562409E+04 -6.461992E-10 -2.013163E-10
       100  19 -1.661553E+06 -2.693493E+05 -2.536065E+05 -4.631732E+04 -1.080825E+04 -2.874005E+04
       100  20 -1.576935E+06 -2.545130E+05 -2.396351E+05 -9.079126E+03 -8.134111E+03 -2.796650E+04
       100  21 -1.488313E+06 -2.321419E+05 -2.216692E+05 -4.729240E+04 -5.455768E+03 -2.461077E+04
       100  22 -5.567946E+05  5.576363E+03  1.485800E+04 -4.646759E+04 -1.104650E+04 -2.873707E+04
       100  23 -5.588787E+05 -1.256636E+03  7.329508E+03 -8.741369E+03 -7.253244E+03 -2.796271E+04
       100  24 -5.567754E+05 -3.660665E+02  4.568635E+03 -4.645886E+04 -3.456144E+03 -2.460806E+04
       100  25  5.490801E+05  2.804122E+05  2.832342E+05 -4.661853E+04 -1.128515E+04 -2.873409E+04
       100  26  4.601259E+05  2.519236E+05  2.542193E+05 -8.403262E+03 -6.370926E+03 -2.795892E+04
       100  27  3.755560E+05  2.313460E+05  2.307438E+05 -4.562407E+04 -1.453520E+03 -2.460535E+04
       101   1 -1.346024E+06 -1.955999E+05 -1.875370E+05 -4.674918E+04  4.032710E+03  2.227506E+04
       101   2 -1.257323E+06 -1.741746E+05 -1.677331E+05 -7.761478E+03  3.167810E+03  1.910239E+04
       101   3 -1.167627E+06 -1.517598E+05 -1.469873E+05 -4.649744E+04  2.297008E+03  1.566822E+04
       101   4 -5.574099E+05  5.170387E+02  3.567531E+03 -4.696653E+04  2.722956E+03  2.227347E+04
       101   5 -5.579058E+05 -2.120545E+02  1.930549E+03 -8.107399E+03  1.744071E+03  1.910192E+04
       101   6 -5.573938E+05  6.841448E+01  1.314411E+03 -4.696652E+04  7.594090E+02  1.566903E+04
       101   7  2.317738E+05  1.965883E+05  1.946272E+05 -4.718411E+04  1.411538E+03  2.227188E+04
       101   8  1.419594E+05  1.737145E+05  1.715589E+05 -8.453635E+03  3.187298E+02  1.910146E+04
       101   9  5.317999E+04  1.518692E+05  1.495892E+05 -4.743594E+04 -7.796995E+02  1.566985E+04
       101  10 -1.346025E+06 -1.956004E+05 -1.875379E+05 -4.674925E+04 -3.413695E-10 -8.563292E-10
       101  11 -1.257323E+06 -1.741750E+05 -1.677338E+05 -7.761527E+03 -1.167676E-09  5.997850E-12
       101  12 -1.167627E+06 -1.517601E+05 -1.469878E+05 -4.649747E+04  7.465157E-10 -5.534962E-10
       101  13 -5.574100E+05  5.165041E+02  3.566585E+03 -4.696658E+04 -1.107481E-09 -7.650734E-10
       101  14 -5.579059E+05 -2.124470E+02  1.929858E+03 -8.107426E+03 -1.962241E-09  7.028524E-11
       101  15 -5.573938E+05  6.815075E+01  1.313948E+03 -4.696653E+04 -1.072971E-09  6.047681E-10
       101  16  2.317736E+05  1.965878E+05  1.946263E+05 -4.718413E+04  8.285333E-10 -6.002211E-10
       101  17  1.419593E+05  1.737141E+05  1.715582E+05 -8.453640E+03  8.830315E-10 -2.958122E-10
       101  18  5.317992E+04  1.518690E+05  1.495887E+05 -4.743593E+04 -1.340188E-10 -6.597788E-10
       101  19 -1.346024E+06 -1.955999E+05 -1.875370E+05 -4.674918E+04 -4.032710E+03 -2.227506E+04
       101  20 -1.257323E+06 -1.741746E+05 -1.677331E+05 -7.761478E+03 -3.167810E+03 -1.910239E+04
       101  21 -1.167627E+06 -1.517598E+05 -1.469873E+05 -4.649744E+04 -2.297008E+03 -1.566822E+04
       101  22 -5.574099E+05  5.170387E+02  3.567531E+03 -4.696653E+04 -2.722956E+03 -2.227347E+04
       101  23 -5.579058E+05 -2.120545E+02  1.930549E+03 -8.107399E+03 -1.744071E+03 -1.910192E+04
       101  24 -5.573938E+05  6.841448E+01  1.314411E+03 -4.696652E+04 -7.594090E+02 -1.566903E+04
       101  25  2.317738E+05  1.965883E+05  1.946272E+05 -4.718411E+04 -1.411538E+03 -2.227188E+04
       101  26  1.419594E+05  1.737145E+05  1.715589E+05 -8.453635E+03 -3.187298E+02 -1.910146E+04
       101  27  5.317999E+04  1.518692E+05  1.495892E+05 -4.743594E+04  7.796995E+02 -1.566985E+04
       102   1 -1.021443E+06 -1.151953E+05 -1.111674E+05 -4.679797E+04  2.015286E+03  1.362424E+04
       102   2 -9.306371E+05 -9.278834E+04 -8.962475E+04 -7.271987E+03  1.601898E+03  1.017891E+04
       102   3 -8.397842E+05 -7.002787E+04 -6.774738E+04 -4.686562E+04  1.185287E+03  6.694862E+03
       102   4 -5.575616E+05  1.137736E+02  1.074897E+03 -4.727721E+04  5.370594E+02  1.362565E+04
       102   5 -5.575782E+05 -1.659594E+01  8.554044E+02 -7.718714E+03  1.066186E+02  1.018095E+04
       102   6 -5.575513E+05  2.103991E+02  9.832104E+02 -4.727687E+04 -3.269845E+02  6.697576E+03
       102   7 -9.348312E+04  1.154071E+05  1.133017E+05 -4.775673E+04 -9.422697E+02  1.362705E+04
       102   8 -1.843920E+05  9.274493E+04  9.132553E+04 -8.165658E+03 -1.389557E+03  1.018299E+04
       102   9 -2.752455E+05  7.044280E+04  6.970802E+04 -4.768828E+04 -1.839942E+03  6.700290E+03
       102  10 -1.021443E+06 -1.151955E+05 -1.111678E+05 -4.679799E+04  3.682818E-10 -5.412556E-11
       102  11 -9.306371E+05 -9.278846E+04 -8.962495E+04 -7.272000E+03  3.350988E-09 -3.661158E-10
       102  12 -8.397843E+05 -7.002792E+04 -6.774746E+04 -4.686562E+04 -2.801104E-10  1.132833E-10
       102  13 -5.575617E+05  1.135742E+02  1.074548E+03 -4.727721E+04 -2.448055E-09 -1.496684E-09
       102  14 -5.575782E+05 -1.670722E+01  8.552096E+02 -7.718715E+03 -1.409767E-09  1.250455E-10
       102  15 -5.575513E+05  2.103509E+02  9.831260E+02 -4.727687E+04 -6.856510E-10 -5.791294E-10
       102  16 -9.348317E+04  1.154069E+05  1.133014E+05 -4.775672E+04 -2.102399E-10 -4.908975E-10
       102  17 -1.843921E+05  9.274482E+04  9.132533E+04 -8.165646E+03  1.507382E-09 -7.021147E-10
       102  18 -2.752455E+05  7.044275E+04  6.970793E+04 -4.768827E+04 -1.200724E-09 -1.328808E-09
       102  19 -1.021443E+06 -1.151953E+05 -1.111674E+05 -4.679797E+04 -2.015286E+03 -1.362424E+04
       102  20 -9.306371E+05 -9.278834E+04 -8.962475E+04 -7.271987E+03 -1.601898E+03 -1.017891E+04
       102  21 -8.397842E+05 -7.002787E+04 -6.774738E+04 -4.686562E+04 -1.185287E+03 -6.694862E+03
       102  22 -5.575616E+05  1.137736E+02  1.074897E+03 -4.727721E+04 -5.370594E+02 -1.362565E+04
       102  23 -5.575782E+05 -1.659594E+01  8.554044E+02 -7.718714E+03 -1.066186E+02 -1.018095E+04
       102  24 -5.575513E+05  2.103991E+02  9.832104E+02 -4.727687E+04  3.269845E+02 -6.697576E+03
       102  25 -9.348312E+04  1.154071E+05  1.133017E+05 -4.775673E+04  9.422697E+02 -1.362705E+04
       102  26 -1.843920E+05  9.274493E+04  9.132553E+04 -8.165658E+03  1.389557E+03 -1.018299E+04
       102  27 -2.752455E+05  7.044280E+04  6.970802E+04 -4.768828E+04  1.839942E+03 -6.700290E+03
       103   1 -6.915935E+05 -3.310698E+04 -3.110283E+04 -4.716528E+04  9.892623E+02  4.654464E+03
       103   2 -6.000640E+05 -1.059002E+04 -8.628401E+03 -7.495085E+03  1.371198E+02  1.159959E+03
       103   3 -5.086501E+05  1.254137E+04  1.447131E+04 -4.748891E+04 -7.154960E+02 -2.323716E+03
       103   4 -5.575703E+05  1.610420E+02  1.116946E+03 -4.739863E+04 -5.222541E+02  4.657435E+03
       103   5 -5.575068E+05 -8.911177E+00  1.691490E+03 -7.566494E+03 -1.369881E+03  1.162980E+03
       103   6 -5.575686E+05  4.350300E+02  2.888377E+03 -4.739802E+04 -2.217857E+03 -2.320618E+03
       103   7 -4.235306E+05  3.342776E+04  3.333545E+04 -4.763202E+04 -2.034096E+03  4.660408E+03
       103   8 -5.149479E+05  1.057206E+04  1.201126E+04 -7.637908E+03 -2.876984E+03  1.166001E+03
       103   9 -6.064849E+05 -1.167148E+04 -8.694708E+03 -4.730713E+04 -3.720099E+03 -2.317522E+03
       103  10 -6.915935E+05 -3.310700E+04 -3.110287E+04 -4.716528E+04  2.161632E-09  2.000120E-09
       103  11 -6.000640E+05 -1.059002E+04 -8.628404E+03 -7.495085E+03  7.839502E-10  3.148875E-09
       103  12 -5.086501E+05  1.254136E+04  1.447129E+04 -4.748891E+04 -2.114079E-10 -2.305801E-09
       103  13 -5.575703E+05  1.610187E+02  1.116905E+03 -4.739862E+04  8.041589E-10  8.664311E-10
       103  14 -5.575068E+05 -8.913134E+00  1.691484E+03 -7.566493E+03 -2.703692E-09 -4.857977E-10
       103  15 -5.575686E+05  4.350229E+02  2.888358E+03 -4.739802E+04 -1.938722E-09 -2.827291E-10
       103  16 -4.235307E+05  3.342773E+04  3.333540E+04 -4.763201E+04  7.954930E-11  7.187048E-10
       103  17 -5.149479E+05  1.057206E+04  1.201124E+04 -7.637905E+03  6.255529E-10 -4.712230E-11
       103  18 -6.064849E+05 -1.167149E+04 -8.694744E+03 -4.730714E+04 -2.627521E-09 -2.098167E-10
       103  19 -6.915935E+05 -3.310698E+04 -3.110283E+04 -4.716528E+04 -9.892623E+02 -4.654464E+03
       103  20 -6.000640E+05 -1.059002E+04 -8.628401E+03 -7.495085E+03 -1.371198E+02 -1.159959E+03
       103  21 -5.086501E+05  1.254137E+04  1.447131E+04 -4.748891E+04  7.154960E+02  2.323716E+03
       103  22 -5.575703E+05  1.610420E+02  1.116946E+03 -4.739863E+04  5.222541E+02 -4.657435E+03
       103  23 -5.575068E+05 -8.911177E+00  1.691490E+03 -7.566494E+03  1.369881E+03 -1.162980E+03
       103  24 -5.575686E+05  4.350300E+02  2.888377E+03 -4.739802E+04  2.217857E+03  2.320618E+03
       103  25 -4.235306E+05  3.342776E+04  3.333545E+04 -4.763202E+04  2.034096E+03 -4.660408E+03
       103  26 -5.149479E+05  1.057206E+04  1.201126E+04 -7.637908E+03  2.876984E+03 -1.166001E+03
       103  27 -6.064849E+05 -1.167148E+04 -8.694708E+03 -4.730713E+04  3.720099E+03  2.317522E+03
       104   1 -3.599499E+05  4.921274E+04  5.185509E+04 -4.731471E+04 -1.269445E+03 -4.385446E+03
       104   2 -2.693309E+05  7.133290E+04  7.621048E+04 -8.105080E+03 -4.513299E+03 -7.872779E+03
       104   3 -1.776945E+05  9.667926E+04  1.034357E+05 -4.823072E+04 -7.754945E+03 -1.117890E+04
       104   4 -5.573303E+05  9.064080E+01  3.719724E+03 -4.732718E+04 -2.816512E+03 -4.382412E+03
       104   5 -5.578320E+05 -3.823621E+02  6.269549E+03 -7.656614E+03 -5.980864E+03 -7.870399E+03
       104   6 -5.573369E+05  2.358535E+03  1.163570E+04 -4.732355E+04 -9.142538E+03 -1.117711E+04
       104   7 -7.546750E+05 -4.903433E+04 -4.441847E+04 -4.733963E+04 -4.363089E+03 -4.379377E+03
       104   8 -8.462570E+05 -7.210373E+04 -6.367738E+04 -7.208323E+03 -7.447748E+03 -7.868021E+03
       104   9 -9.368475E+05 -9.197274E+04 -8.017469E+04 -4.641688E+04 -1.052928E+04 -1.117533E+04
       104  10 -3.599500E+05  4.921272E+04  5.185505E+04 -4.731472E+04 -4.343136E-10 -2.705688E-09
       104  11 -2.693309E+05  7.133282E+04  7.621032E+04 -8.105108E+03 -1.030929E-09 -3.446579E-10
       104  12 -1.776946E+05  9.667911E+04  1.034354E+05 -4.823079E+04 -3.009103E-09  5.128381E-10
       104  13 -5.573303E+05  9.061805E+01  3.719673E+03 -4.732719E+04 -2.303973E-09 -1.828811E-10
       104  14 -5.578320E+05 -3.824383E+02  6.269365E+03 -7.656652E+03 -1.600752E-09 -6.055451E-10
       104  15 -5.573370E+05  2.358378E+03  1.163531E+04 -4.732363E+04 -2.293411E-09 -6.830966E-10
       104  16 -7.546751E+05 -4.903436E+04 -4.441854E+04 -4.733964E+04  5.529883E-10  2.322017E-10
       104  17 -8.462571E+05 -7.210381E+04 -6.367760E+04 -7.208371E+03 -5.888704E-10  2.894375E-09
       104  18 -9.368477E+05 -9.197291E+04 -8.017513E+04 -4.641698E+04  1.619293E-09  2.143705E-10
       104  19 -3.599499E+05  4.921274E+04  5.185509E+04 -4.731471E+04  1.269445E+03  4.385446E+03
       104  20 -2.693309E+05  7.133290E+04  7.621048E+04 -8.105080E+03  4.513299E+03  7.872779E+03
       104  21 -1.776945E+05  9.667926E+04  1.034357E+05 -4.823072E+04  7.754945E+03  1.117890E+04
       104  22 -5.573303E+05  9.064080E+01  3.719724E+03 -4.732718E+04  2.816512E+03  4.382412E+03
       104  23 -5.578320E+05 -3.823621E+02  6.269549E+03 -7.656614E+03  5.980864E+03  7.870399E+03
       104  24 -5.573369E+05  2.358535E+03  1.163570E+04 -4.732355E+04  9.142538E+03  1.117711E+04
       104  25 -7.546750E+05 -4.903433E+04 -4.441847E+04 -4.733963E+04  4.363089E+03  4.379377E+03
       104  26 -8.462570E+05 -7.210373E+04 -6.367738E+04 -7.208323E+03  7.447748E+03  7.868021E+03
       104  27 -9.368475E+05 -9.197274E+04 -8.017469E+04 -4.641688E+04  1.052928E+04  1.117533E+04
       105   1 -2.895032E+04  1.301449E+05  1.427585E+05 -4.510025E+04 -9.598413E+03 -1.347069E+04
       105   2  5.653201E+04  1.497861E+05  1.739973E+05 -9.675439E+03 -2.311621E+04 -1.691536E+04
       105   3  1.506643E+05  1.953745E+05  2.206014E+05 -5.236911E+04 -3.662992E+04 -1.845898E+04
       105   4 -5.557082E+05 -8.175756E+02  1.482452E+04 -4.706146E+04 -1.149797E+04 -1.346868E+04
       105   5 -5.599659E+05 -3.427804E+03  2.459913E+04 -7.993175E+03 -2.418313E+04 -1.691548E+04
       105   6 -5.557149E+05  1.977973E+04  4.917281E+04 -4.704773E+04 -3.686227E+04 -1.846051E+04
       105   7 -1.082213E+06 -1.318004E+05 -1.131295E+05 -4.902091E+04 -1.339591E+04 -1.346666E+04
       105   8 -1.176117E+06 -1.566696E+05 -1.248264E+05 -6.312502E+03 -2.524899E+04 -1.691560E+04
       105   9 -1.261638E+06 -1.558516E+05 -1.222918E+05 -4.173234E+04 -3.709435E+04 -1.846205E+04
       105  10 -2.895046E+04  1.301447E+05  1.427580E+05 -4.510036E+04 -1.785404E-09  7.422422E-10
       105  11  5.653136E+04  1.497857E+05  1.739958E+05 -9.675753E+03 -2.038626E-09 -1.352666E-09
       105  12  1.506628E+05  1.953737E+05  2.205983E+05 -5.236966E+04 -1.687474E-09 -1.663657E-10
       105  13 -5.557084E+05 -8.178058E+02  1.482393E+04 -4.706159E+04  9.485569E-10  3.782492E-10
       105  14 -5.599666E+05 -3.428268E+03  2.459750E+04 -7.993505E+03 -2.736062E-10  9.804032E-10
       105  15 -5.557165E+05  1.977900E+04  4.916961E+04 -4.704828E+04  6.533142E-10 -3.784583E-10
       105  16 -1.082213E+06 -1.318007E+05 -1.131302E+05 -4.902105E+04 -1.489614E-09  9.250448E-11
       105  17 -1.176117E+06 -1.566701E+05 -1.248282E+05 -6.312846E+03  6.038859E-10  4.733182E-10
       105  18 -1.261640E+06 -1.558523E+05 -1.222951E+05 -4.173289E+04 -1.145779E-09 -3.119190E-10
       105  19 -2.895032E+04  1.301449E+05  1.427585E+05 -4.510025E+04  9.598413E+03  1.347069E+04
       105  20  5.653201E+04  1.497861E+05  1.739973E+05 -9.675439E+03  2.311621E+04  1.691536E+04
       105  21  1.506643E+05  1.953745E+05  2.206014E+05 -5.236911E+04  3.662992E+04  1.845898E+04
       105  22 -5.557082E+05 -8.175756E+02  1.482452E+04 -4.706146E+04  1.149797E+04  1.346868E+04
       105  23 -5.599659E+05 -3.427804E+03  2.459913E+04 -7.993175E+03  2.418313E+04  1.691548E+04
       105  24 -5.557149E+05  1.977973E+04  4.917281E+04 -4.704773E+04  3.686227E+04  1.846051E+04
       105  25 -1.082213E+06 -1.318004E+05 -1.131295E+05 -4.902091E+04  1.339591E+04  1.346666E+04
       105  26 -1.176117E+06 -1.566696E+05 -1.248264E+05 -6.312502E+03  2.524899E+04  1.691560E+04
       105  27 -1.261638E+06 -1.558516E+05 -1.222918E+05 -4.173234E+04  3.709435E+04  1.846205E+04
       106   1  3.068798E+05  2.030060E+05  2.661118E+05 -2.582188E+04 -4.032267E+04 -2.353994E+04
       106   2  3.623432E+05  2.042062E+05  3.215659E+05 -2.165453E+04 -1.008449E+05 -2.700785E+04
       106   3  4.824773E+05  4.269224E+05  4.720749E+05 -9.333310E+04 -1.613941E+05 -9.327173E+03
       106   4 -5.436472E+05 -8.309740E+03  6.009205E+04 -4.651081E+04 -4.635032E+04 -2.353921E+04
       106   5 -5.752082E+05 -2.867020E+04  9.475682E+04 -8.668054E+03 -9.766423E+04 -2.701126E+04
       106   6 -5.436102E+05  1.710620E+05  2.181788E+05 -4.667138E+04 -1.489955E+05 -9.327207E+03
       106   7 -1.393512E+06 -2.196769E+05 -1.459794E+05 -6.717124E+04 -5.236970E+04 -2.353808E+04
       106   8 -1.511956E+06 -2.616104E+05 -1.321153E+05  4.298667E+03 -9.448826E+04 -2.701455E+04
       106   9 -1.568736E+06 -8.486877E+04 -3.579377E+04 -8.702934E+01 -1.366172E+05 -9.325385E+03
       106  10  3.068779E+05  2.030050E+05  2.661077E+05 -2.582265E+04 -4.844075E-10 -6.501478E-12
       106  11  3.623320E+05  2.042027E+05  3.215454E+05 -2.165672E+04  4.752968E-10 -3.113544E-11
       106  12  4.824493E+05  4.269153E+05  4.720258E+05 -9.333431E+04  7.767333E-10 -3.469650E-10
       106  13 -5.436497E+05 -8.310912E+03  6.008697E+04 -4.651169E+04 -3.087429E-10 -6.574837E-10
       106  14 -5.752186E+05 -2.867355E+04  9.473751E+04 -8.670179E+03 -3.532163E-10  5.010702E-10
       106  15 -5.436340E+05  1.710559E+05  2.181369E+05 -4.667250E+04  5.734244E-10 -2.163985E-10
       106  16 -1.393515E+06 -2.196782E+05 -1.459856E+05 -6.717224E+04 -3.531708E-10 -6.849563E-10
       106  17 -1.511966E+06 -2.616136E+05 -1.321335E+05  4.296610E+03 -4.228327E-10 -1.623566E-10
       106  18 -1.568756E+06 -8.487389E+04 -3.582909E+04 -8.805600E+01  6.793801E-10 -3.725604E-10
       106  19  3.068798E+05  2.030060E+05  2.661118E+05 -2.582188E+04  4.032267E+04  2.353994E+04
       106  20  3.623432E+05  2.042062E+05  3.215659E+05 -2.165453E+04  1.008449E+05  2.700785E+04
       106  21  4.824773E+05  4.269224E+05  4.720749E+05 -9.333310E+04  1.613941E+05  9.327173E+03
       106  22 -5.436472E+05 -8.309740E+03  6.009205E+04 -4.651081E+04  4.635032E+04  2.353921E+04
       106  23 -5.752082E+05 -2.867020E+04  9.475682E+04 -8.668054E+03  9.766423E+04  2.701126E+04
       106  24 -5.436102E+05  1.710620E+05  2.181788E+05 -4.667138E+04  1.489955E+05  9.327207E+03
       106  25 -1.393512E+06 -2.196769E+05 -1.459794E+05 -6.717124E+04  5.236970E+04  2.353808E+04
       106  26 -1.511956E+06 -2.616104E+05 -1.321153E+05  4.298667E+03  9.448826E+04  2.701455E+04
       106  27 -1.568736E+06 -8.486877E+04 -3.579377E+04 -8.702934E+01  1.366172E+05  9.325385E+03
       107   1  2.711212E+05  4.359583E+05  2.840197E+05 -2.161685E+05  2.100178E+03  1.667891E+05
       107   2  1.070895E+05  3.460583E+05  1.506853E+05 -1.424356E+05  8.094986E+03  9.745362E+04
       107   3  4.619070E+04  2.908271E+05  8.825088E+04 -8.220415E+04  7.553777E+03  2.809866E+04
       107   4  2.007082E+05  1.571372E+05  2.177364E+05 -8.437566E+04  2.213439E+03  1.491808E+05
       107   5  5.729381E+04  1.409266E+05  1.102203E+05 -7.804110E+04  8.126362E+03  9.270846E+04
       107   6  1.478598E+04  1.571572E+05  6.469102E+04 -8.519799E+04  7.517307E+03  3.620766E+04
       107   7  1.303545E+05 -1.215750E+05  1.514579E+05  4.735770E+04  2.319260E+03  1.315804E+05
       107   8  7.511037E+03 -6.415595E+04  6.975558E+04 -1.366830E+04  8.156761E+03  8.796484E+04
       107   9 -1.661965E+04  2.350497E+04  4.113076E+04 -8.819115E+04  7.480754E+03  4.431496E+04
       107  10  2.711138E+05  4.359284E+05  2.839674E+05 -2.161688E+05  2.358664E-10 -7.062399E-10
       107  11  1.070868E+05  3.460481E+05  1.506673E+05 -1.424363E+05  1.089428E-09  1.046617E-09
       107  12  4.619043E+04  2.908262E+05  8.824929E+04 -8.220432E+04 -1.517514E-09 -2.435102E-09
       107  13  2.007022E+05  1.571133E+05  2.176945E+05 -8.437593E+04 -6.116953E-10 -2.316603E-09
       107  14  5.729143E+04  1.409174E+05  1.102040E+05 -7.804171E+04  4.251101E-10 -1.236101E-09
       107  15  1.478557E+04  1.571558E+05  6.468845E+04 -8.519821E+04 -3.438503E-10  1.895965E-09
       107  16  1.303499E+05 -1.215936E+05  1.514254E+05  4.735745E+04 -2.428528E-09  1.236920E-09
       107  17  7.508888E+03 -6.416427E+04  6.974091E+04 -1.366888E+04  8.696644E-10  8.084070E-10
       107  18 -1.662023E+04  2.350285E+04  4.112696E+04 -8.819142E+04 -1.894825E-09  3.144115E-09
       107  19  2.711212E+05  4.359583E+05  2.840197E+05 -2.161685E+05 -2.100178E+03 -1.667891E+05
       107  20  1.070895E+05  3.460583E+05  1.506853E+05 -1.424356E+05 -8.094986E+03 -9.745362E+04
       107  21  4.619070E+04  2.908271E+05  8.825088E+04 -8.220415E+04 -7.553777E+03 -2.809866E+04
       107  22  2.007082E+05  1.571372E+05  2.177364E+05 -8.437566E+04 -2.213439E+03 -1.491808E+05
       107  23  5.729381E+04  1.409266E+05  1.102203E+05 -7.804110E+04 -8.126362E+03 -9.270846E+04
       107  24  1.478598E+04  1.571572E+05  6.469102E+04 -8.519799E+04 -7.517307E+03 -3.620766E+04
       107  25  1.303545E+05 -1.215750E+05  1.514579E+05  4.735770E+04 -2.319260E+03 -1.315804E+05
       107  26  7.511037E+03 -6.415595E+04  6.975558E+04 -1.366830E+04 -8.156761E+03 -8.796484E+04
       107  27 -1.661965E+04  2.350497E+04  4.113076E+04 -8.819115E+04 -7.480754E+03 -4.431496E+04
       108   1  3.363545E+04  2.379983E+05  6.784581E+04 -9.233822E+04  4.951501E+03  1.946251E+04
       108   2  8.546174E+03  1.622593E+05  4.175902E+04 -7.899354E+04  9.952604E+02 -4.730674E+02
       108   3 -4.803856E+03  9.189964E+04  3.154156E+04 -7.981607E+04 -3.027105E+03 -2.040669E+04
       108   4  1.313904E+04  1.511378E+05  5.257835E+04 -8.526922E+04  4.916182E+03  2.736084E+04
       108   5  5.343295E+03  1.484621E+05  3.958125E+04 -7.819470E+04  9.591079E+02  7.555993E+03
       108   6  9.264714E+03  1.511385E+05  4.236407E+04 -8.528666E+04 -3.063703E+03 -1.224908E+04
       108   7 -7.357579E+03  6.428482E+04  3.731088E+04 -7.820123E+04  4.881040E+03  3.525809E+04
       108   8  2.140443E+03  1.346652E+05  3.740371E+04 -7.739588E+04  9.229756E+02  1.558488E+04
       108   9  2.333323E+04  2.103809E+05  5.318669E+04 -9.075780E+04 -3.100444E+03 -4.090708E+03
       108  10  3.363532E+04  2.379979E+05  6.784505E+04 -9.233829E+04  8.312787E-10  1.196409E-08
       108  11  8.546173E+03  1.622593E+05  4.175902E+04 -7.899354E+04  1.888059E-09 -1.804858E-08
       108  12 -4.803977E+03  9.189919E+04  3.154076E+04 -7.981612E+04  2.780173E-09 -5.068799E-08
       108  13  1.313881E+04  1.511370E+05  5.257690E+04 -8.526932E+04  1.024413E-09 -2.218213E-09
       108  14  5.343279E+03  1.484620E+05  3.958114E+04 -7.819471E+04  5.344663E-10 -1.446159E-09
       108  15  9.264663E+03  1.511383E+05  4.236377E+04 -8.528670E+04  4.128740E-09  1.647292E-09
       108  16 -7.357938E+03  6.428348E+04  3.730850E+04 -7.820137E+04 -3.111519E-09 -1.157791E-08
       108  17  2.140377E+03  1.346650E+05  3.740326E+04 -7.739589E+04 -5.326442E-10  1.955938E-08
       108  18  2.333321E+04  2.103809E+05  5.318664E+04 -9.075781E+04  1.159056E-09  5.144423E-08
       108  19  3.363545E+04  2.379983E+05  6.784581E+04 -9.233822E+04 -4.951501E+03 -1.946251E+04
       108  20  8.546174E+03  1.622593E+05  4.175902E+04 -7.899354E+04 -9.952604E+02  4.730674E+02
       108  21 -4.803856E+03  9.189964E+04  3.154156E+04 -7.981607E+04  3.027105E+03  2.040669E+04
       108  22  1.313904E+04  1.511378E+05  5.257835E+04 -8.526922E+04 -4.916182E+03 -2.736084E+04
       108  23  5.343295E+03  1.484621E+05  3.958125E+04 -7.819470E+04 -9.591079E+02 -7.555993E+03
       108  24  9.264714E+03  1.511385E+05  4.236407E+04 -8.528666E+04  3.063703E+03  1.224908E+04
       108  25 -7.357579E+03  6.428482E+04  3.731088E+04 -7.820123E+04 -4.881040E+03 -3.525809E+04
       108  26  2.140443E+03  1.346652E+05  3.740371E+04 -7.739588E+04 -9.229756E+02 -1.558488E+04
       108  27  2.333323E+04  2.103809E+05  5.318669E+04 -9.075780E+04  3.100444E+03  4.090708E+03
       109   1 -1.461488E+04  4.882912E+04  2.949002E+04 -8.689066E+04 -5.688340E+03 -2.758439E+04
       109   2 -4.527387E+03 -3.384858E+04  4.075357E+04 -3.461081E+04 -6.853590E+03 -5.494951E+04
       109   3  7.136571E+04 -9.664231E+04  8.625698E+04  4.032252E+03 -2.106243E+03 -8.228521E+04
       109   4  1.036761E+04  1.548121E+05  4.853002E+04 -8.521736E+04 -5.725925E+03 -1.923897E+04
       109   5  3.855614E+04  1.438612E+05  7.618062E+04 -7.812622E+04 -6.834850E+03 -5.825621E+04
       109   6  1.345536E+05  1.547968E+05  1.461540E+05 -8.466742E+04 -2.027983E+03 -9.724755E+04
       109   7  3.534953E+04  2.608063E+05  6.756985E+04 -8.354375E+04 -5.763461E+03 -1.089216E+04
       109   8  8.164478E+04  3.216051E+05  1.116071E+05 -1.216543E+05 -6.815650E+03 -6.156383E+04
       109   9  1.977664E+05  4.063111E+05  2.060515E+05 -1.734032E+05 -1.945466E+03 -1.122159E+05
       109  10 -1.461512E+04  4.882830E+04  2.948853E+04 -8.689079E+04 -1.512262E-09  4.999196E-08
       109  11 -4.528248E+03 -3.385184E+04  4.074781E+04 -3.461111E+04  1.429518E-09  2.262999E-08
       109  12  7.136388E+04 -9.664959E+04  8.624425E+04  4.032112E+03 -5.468661E-11 -1.219385E-08
       109  13  1.036748E+04  1.548117E+05  4.852927E+04 -8.521745E+04  1.062067E-09 -2.469435E-09
       109  14  3.855518E+04  1.438575E+05  7.617416E+04 -7.812654E+04 -4.634648E-10 -1.171414E-09
       109  15  1.345511E+05  1.547867E+05  1.461362E+05 -8.466758E+04  6.524198E-10  1.695469E-09
       109  16  3.534946E+04  2.608061E+05  6.756957E+04 -8.354380E+04  3.779393E-09 -4.979945E-08
       109  17  8.164371E+04  3.216010E+05  1.115999E+05 -1.216547E+05  1.254438E-09 -2.093430E-08
       109  18  1.977630E+05  4.062976E+05  2.060278E+05 -1.734034E+05  1.325432E-09  1.307301E-08
       109  19 -1.461488E+04  4.882912E+04  2.949002E+04 -8.689066E+04  5.688340E+03  2.758439E+04
       109  20 -4.527387E+03 -3.384858E+04  4.075357E+04 -3.461081E+04  6.853590E+03  5.494951E+04
       109  21  7.136571E+04 -9.664231E+04  8.625698E+04  4.032252E+03  2.106243E+03  8.228521E+04
       109  22  1.036761E+04  1.548121E+05  4.853002E+04 -8.521736E+04  5.725925E+03  1.923897E+04
       109  23  3.855614E+04  1.438612E+05  7.618062E+04 -7.812622E+04  6.834850E+03  5.825621E+04
       109  24  1.345536E+05  1.547968E+05  1.461540E+05 -8.466742E+04  2.027983E+03  9.724755E+04
       109  25  3.534953E+04  2.608063E+05  6.756985E+04 -8.354375E+04  5.763461E+03  1.089216E+04
       109  26  8.164478E+04  3.216051E+05  1.116071E+05 -1.216543E+05  6.815650E+03  6.156383E+04
       109  27  1.977664E+05  4.063111E+05  2.060515E+05 -1.734032E+05  1.945466E+03  1.122159E+05
       110   1 -5.184235E+06 -1.665703E+06 -1.084901E+06 -1.794263E+06 -5.219832E+05 -1.865197E+05
       110   2 -5.049927E+06 -9.035744E+05 -6.020782E+05 -1.896137E+06 -3.394893E+05 -9.387201E+04
       110   3 -5.206380E+06 -9.087869E+05 -4.674357E+05 -1.820701E+06 -1.485582E+05 -2.344807E+04
       110   4 -4.259026E+06 -1.162669E+06 -8.007008E+05 -1.387923E+06 -5.098415E+05 -1.820701E+05
       110   5 -4.072446E+06 -4.910864E+05 -3.314779E+05 -1.585872E+06 -3.360416E+05 -9.259834E+04
       110   6 -4.174457E+06 -5.844335E+05 -2.030989E+05 -1.606645E+06 -1.537959E+05 -2.541120E+04
       110   7 -3.332922E+06 -6.592714E+05 -5.165838E+05 -9.809410E+05 -4.976792E+05 -1.776052E+05
       110   8 -3.094029E+06 -7.847426E+04 -6.096686E+04 -1.275138E+06 -3.325874E+05 -9.132161E+04
       110   9 -3.141499E+06 -2.600881E+05  6.115434E+04 -1.392302E+06 -1.590432E+05 -2.737650E+04
       110  10 -5.184540E+06 -1.665815E+06 -1.085484E+06 -1.794342E+06  4.877837E-09  1.645570E-09
       110  11 -5.050054E+06 -9.036152E+05 -6.023135E+05 -1.896163E+06 -1.960275E-09  1.930953E-10
       110  12 -5.206404E+06 -9.087935E+05 -4.674786E+05 -1.820704E+06 -6.994958E-09 -3.072581E-09
       110  13 -4.259315E+06 -1.162775E+06 -8.012558E+05 -1.387998E+06  1.569290E-09 -8.613424E-10
       110  14 -4.072570E+06 -4.911263E+05 -3.317080E+05 -1.585897E+06 -1.163253E-09 -2.072644E-09
       110  15 -4.174483E+06 -5.844406E+05 -2.031449E+05 -1.606648E+06 -2.533810E-09 -7.151759E-10
       110  16 -3.333198E+06 -6.593724E+05 -5.171116E+05 -9.810125E+05 -5.008005E-09 -2.391698E-09
       110  17 -3.094151E+06 -7.851318E+04 -6.119171E+04 -1.275162E+06 -5.770099E-10 -1.915186E-09
       110  18 -3.141527E+06 -2.600958E+05  6.110512E+04 -1.392306E+06  6.737305E-09  1.138341E-09
       110  19 -5.184235E+06 -1.665703E+06 -1.084901E+06 -1.794263E+06  5.219832E+05  1.865197E+05
       110  20 -5.049927E+06 -9.035744E+05 -6.020782E+05 -1.896137E+06  3.394893E+05  9.387201E+04
       110  21 -5.206380E+06 -9.087869E+05 -4.674357E+05 -1.820701E+06  1.485582E+05  2.344807E+04
       110  22 -4.259026E+06 -1.162669E+06 -8.007008E+05 -1.387923E+06  5.098415E+05  1.820701E+05
       110  23 -4.072446E+06 -4.910864E+05 -3.314779E+05 -1.585872E+06  3.360416E+05  9.259834E+04
       110  24 -4.174457E+06 -5.844335E+05 -2.030989E+05 -1.606645E+06  1.537959E+05  2.541120E+04
       110  25 -3.332922E+06 -6.592714E+05 -5.165838E+05 -9.809410E+05  4.976792E+05  1.776052E+05
       110  26 -3.094029E+06 -7.847426E+04 -6.096686E+04 -1.275138E+06  3.325874E+05  9.132161E+04
       110  27 -3.141499E+06 -2.600881E+05  6.115434E+04 -1.392302E+06  1.590432E+05  2.737650E+04
       111   1 -5.045962E+06 -1.033421E+06 -4.119548E+05 -1.825077E+06 -1.234567E+05 -1.859733E+04
       111   2 -4.996904E+06 -9.065585E+05 -3.097398E+05 -1.804757E+06 -8.167077E+04 -2.656828E+03
       111   3 -4.950951E+06 -9.056006E+05 -2.633548E+05 -1.801501E+06 -3.890919E+04  1.069784E+04
       111   4 -4.144617E+06 -6.752547E+05 -1.659061E+05 -1.561761E+06 -1.229948E+05 -1.843003E+04
       111   5 -4.138153E+06 -5.776077E+05 -7.817045E+04 -1.566314E+06 -8.218970E+04 -2.855579E+03
       111   6 -4.134548E+06 -6.055866E+05 -4.541885E+04 -1.587939E+06 -4.041287E+04  1.013136E+04
       111   7 -3.242480E+06 -3.170156E+05  8.006902E+04 -1.298089E+06 -1.225320E+05 -1.826237E+04
       111   8 -3.278685E+06 -2.486072E+05  1.533334E+05 -1.327568E+06 -8.270935E+04 -3.054610E+03
       111   9 -3.317499E+06 -3.055421E+05  1.724588E+05 -1.374126E+06 -4.191870E+04  9.564123E+03
       111  10 -5.045978E+06 -1.033426E+06 -4.119843E+05 -1.825078E+06 -4.043499E-09  2.011180E-10
       111  11 -4.996911E+06 -9.065603E+05 -3.097525E+05 -1.804757E+06  7.575626E-12  9.399764E-10
       111  12 -4.950953E+06 -9.056011E+05 -2.633578E+05 -1.801501E+06  1.806091E-09  2.538537E-10
       111  13 -4.144634E+06 -6.752592E+05 -1.659354E+05 -1.561763E+06  4.350006E-10  9.910247E-11
       111  14 -4.138160E+06 -5.776095E+05 -7.818325E+04 -1.566314E+06 -1.971819E-09  1.748583E-10
       111  15 -4.134550E+06 -6.055871E+05 -4.542212E+04 -1.587939E+06 -1.077189E-09 -5.903674E-11
       111  16 -3.242497E+06 -3.170201E+05  8.004002E+04 -1.298091E+06  3.213926E-09  2.243437E-10
       111  17 -3.278692E+06 -2.486090E+05  1.533204E+05 -1.327568E+06  7.155352E-10 -5.213793E-10
       111  18 -3.317501E+06 -3.055427E+05  1.724554E+05 -1.374126E+06  4.264789E-10 -9.429505E-10
       111  19 -5.045962E+06 -1.033421E+06 -4.119548E+05 -1.825077E+06  1.234567E+05  1.859733E+04
       111  20 -4.996904E+06 -9.065585E+05 -3.097398E+05 -1.804757E+06  8.167077E+04  2.656828E+03
       111  21 -4.950951E+06 -9.056006E+05 -2.633548E+05 -1.801501E+06  3.890919E+04 -1.069784E+04
       111  22 -4.144617E+06 -6.752547E+05 -1.659061E+05 -1.561761E+06  1.229948E+05  1.843003E+04
       111  23 -4.138153E+06 -5.776077E+05 -7.817045E+04 -1.566314E+06  8.218970E+04  2.855579E+03
       111  24 -4.134548E+06 -6.055866E+05 -4.541885E+04 -1.587939E+06  4.041287E+04 -1.013136E+04
       111  25 -3.242480E+06 -3.170156E+05  8.006902E+04 -1.298089E+06  1.225320E+05  1.826237E+04
       111  26 -3.278685E+06 -2.486072E+05  1.533334E+05 -1.327568E+06  8.270935E+04  3.054610E+03
       111  27 -3.317499E+06 -3.055421E+05  1.724588E+05 -1.374126E+06  4.191870E+04 -9.564123E+03
       112   1 -4.824577E+06 -8.836478E+05 -2.229900E+05 -1.776662E+06 -3.220678E+04  1.112820E+04
       112   2 -4.774569E+06 -8.206879E+05 -1.860881E+05 -1.730152E+06 -2.169307E+04  1.208884E+04
       112   3 -4.679866E+06 -8.179012E+05 -1.591153E+05 -1.737461E+06 -1.097090E+04  1.248129E+04
       112   4 -4.127954E+06 -6.191076E+05 -3.573413E+04 -1.585542E+06 -3.316376E+04  1.076729E+04
       112   5 -4.149724E+06 -5.848266E+05 -1.826871E+04 -1.560212E+06 -2.286776E+04  1.164744E+04
       112   6 -4.126756E+06 -6.106648E+05 -1.054948E+04 -1.588700E+06 -1.236460E+04  1.195919E+04
       112   7 -3.430862E+06 -3.545377E+05  1.514782E+05 -1.394227E+06 -3.412193E+04  1.040594E+04
       112   8 -3.524500E+06 -3.489423E+05  1.495161E+05 -1.390116E+06 -2.404376E+04  1.120555E+04
       112   9 -3.573348E+06 -4.034111E+05  1.379896E+05 -1.439818E+06 -1.375967E+04  1.143658E+04
       112  10 -4.824578E+06 -8.836482E+05 -2.229922E+05 -1.776662E+06 -1.868984E-10 -2.036208E-09
       112  11 -4.774570E+06 -8.206882E+05 -1.860893E+05 -1.730152E+06  1.364956E-10 -1.180348E-09
       112  12 -4.679866E+06 -8.179014E+05 -1.591158E+05 -1.737461E+06 -1.405570E-09 -5.738174E-10
       112  13 -4.127956E+06 -6.191081E+05 -3.573642E+04 -1.585542E+06 -1.237923E-09 -1.254051E-10
       112  14 -4.149725E+06 -5.848269E+05 -1.826995E+04 -1.560212E+06 -4.878948E-10 -9.652410E-10
       112  15 -4.126756E+06 -6.106650E+05 -1.055003E+04 -1.588700E+06  1.421628E-09  9.802015E-10
       112  16 -3.430864E+06 -3.545381E+05  1.514758E+05 -1.394227E+06  2.124988E-09  4.181537E-10
       112  17 -3.524501E+06 -3.489425E+05  1.495148E+05 -1.390116E+06  2.654070E-09 -2.882729E-10
       112  18 -3.573348E+06 -4.034113E+05  1.379890E+05 -1.439818E+06  2.787774E-10  6.064182E-11
       112  19 -4.824577E+06 -8.836478E+05 -2.229900E+05 -1.776662E+06  3.220678E+04 -1.112820E+04
       112  20 -4.774569E+06 -8.206879E+05 -1.860881E+05 -1.730152E+06  2.169307E+04 -1.208884E+04
       112  21 -4.679866E+06 -8.179012E+05 -1.591153E+05 -1.737461E+06  1.097090E+04 -1.248129E+04
       112  22 -4.127954E+06 -6.191076E+05 -3.573413E+04 -1.585542E+06  3.316376E+04 -1.076729E+04
       112  23 -4.149724E+06 -5.848266E+05 -1.826871E+04 -1.560212E+06  2.286776E+04 -1.164744E+04
       112  24 -4.126756E+06 -6.106648E+05 -1.054948E+04 -1.588700E+06  1.236460E+04 -1.195919E+04
       112  25 -3.430862E+06 -3.545377E+05  1.514782E+05 -1.394227E+06  3.412193E+04 -1.040594E+04
       112  26 -3.524500E+06 -3.489423E+05  1.495161E+05 -1.390116E+06  2.404376E+04 -1.120555E+04
       112  27 -3.573348E+06 -4.034111E+05  1.379896E+05 -1.439818E+06  1.375967E+04 -1.143658E+04
       113   1 -4.532887E+06 -7.677553E+05 -1.177131E+05 -1.701125E+06 -8.739894E+03  1.104865E+04
       113   2 -4.475330E+06 -7.048159E+05 -9.154787E+04 -1.644386E+06 -4.820623E+03  8.604342E+03
       113   3 -4.360301E+06 -7.015369E+05 -6.771227E+04 -1.654327E+06 -8.263809E+02  5.950585E+03
       113   4 -4.124348E+06 -6.138971E+05 -8.351972E+03 -1.590288E+06 -1.007894E+04  1.054771E+04
       113   5 -4.152991E+06 -5.835603E+05 -5.069006E+03 -1.557129E+06 -6.242097E+03  8.073286E+03
       113   6 -4.124155E+06 -6.128642E+05 -4.048238E+03 -1.590650E+06 -2.330737E+03  5.389345E+03
       113   7 -3.715647E+06 -4.600288E+05  1.009946E+05 -1.479384E+06 -1.141895E+04  1.004641E+04
       113   8 -3.830553E+06 -4.622992E+05  8.140033E+04 -1.469831E+06 -7.664381E+03  7.541927E+03
       113   9 -3.887956E+06 -5.241892E+05  5.961024E+04 -1.526952E+06 -3.835712E+03  4.827875E+03
       113  10 -4.532887E+06 -7.677554E+05 -1.177135E+05 -1.701125E+06 -1.319810E-09  3.645910E-10
       113  11 -4.475330E+06 -7.048160E+05 -9.154805E+04 -1.644386E+06 -8.173893E-10 -1.283740E-09
       113  12 -4.360301E+06 -7.015369E+05 -6.771233E+04 -1.654327E+06 -1.664599E-09 -1.568627E-09
       113  13 -4.124348E+06 -6.138972E+05 -8.352371E+03 -1.590288E+06 -1.833604E-09 -8.609391E-10
       113  14 -4.152991E+06 -5.835604E+05 -5.069202E+03 -1.557129E+06 -9.302755E-10  1.389004E-10
       113  15 -4.124155E+06 -6.128642E+05 -4.048303E+03 -1.590650E+06 -8.935563E-10 -2.075465E-09
       113  16 -3.715647E+06 -4.600290E+05  1.009942E+05 -1.479384E+06 -1.571267E-09  3.833128E-10
       113  17 -3.830553E+06 -4.622992E+05  8.140011E+04 -1.469831E+06 -1.284435E-09 -1.597666E-11
       113  18 -3.887956E+06 -5.241892E+05  5.961017E+04 -1.526952E+06  1.164199E-09 -1.479734E-09
       113  19 -4.532887E+06 -7.677553E+05 -1.177131E+05 -1.701125E+06  8.739894E+03 -1.104865E+04
       113  20 -4.475330E+06 -7.048159E+05 -9.154787E+04 -1.644386E+06  4.820623E+03 -8.604342E+03
       113  21 -4.360301E+06 -7.015369E+05 -6.771227E+04 -1.654327E+06  8.263809E+02 -5.950585E+03
       113  22 -4.124348E+06 -6.138971E+05 -8.351972E+03 -1.590288E+06  1.007894E+04 -1.054771E+04
       113  23 -4.152991E+06 -5.835603E+05 -5.069006E+03 -1.557129E+06  6.242097E+03 -8.073286E+03
       113  24 -4.124155E+06 -6.128642E+05 -4.048238E+03 -1.590650E+06  2.330737E+03 -5.389345E+03
       113  25 -3.715647E+06 -4.600288E+05  1.009946E+05 -1.479384E+06  1.141895E+04 -1.004641E+04
       113  26 -3.830553E+06 -4.622992E+05  8.140033E+04 -1.469831E+06  7.664381E+03 -7.541927E+03
       113  27 -3.887956E+06 -5.241892E+05  5.961024E+04 -1.526952E+06  3.835712E+03 -4.827875E+03
       114   1 -4.199461E+06 -6.421470E+05 -2.412382E+04 -1.612120E+06  6.592708E+02  4.013570E+03
       114   2 -4.138957E+06 -5.771168E+05 -1.193592E+03 -1.552188E+06  4.640973E+03  1.254913E+03
       114   3 -4.018328E+06 -5.747076E+05  1.937659E+04 -1.562398E+06  8.613310E+03 -1.476646E+03
       114   4 -4.123540E+06 -6.135204E+05 -4.077712E+03 -1.591410E+06 -8.443653E+02  3.452870E+03
       114   5 -4.153654E+06 -5.826484E+05 -5.136071E+03 -1.556171E+06  3.148033E+03  6.981353E+02
       114   6 -4.123654E+06 -6.144009E+05 -8.562758E+03 -1.591078E+06  7.130635E+03 -2.029626E+03
       114   7 -4.047612E+06 -5.848932E+05  1.596807E+04 -1.570698E+06 -2.348216E+03  2.892090E+03
       114   8 -4.168351E+06 -5.881800E+05 -9.078585E+03 -1.560153E+06  1.655123E+03  1.413682E+02
       114   9 -4.228970E+06 -6.540938E+05 -3.650322E+04 -1.619753E+06  5.648230E+03 -2.582504E+03
       114  10 -4.199461E+06 -6.421470E+05 -2.412385E+04 -1.612120E+06 -2.488081E-09 -1.478696E-09
       114  11 -4.138957E+06 -5.771168E+05 -1.193636E+03 -1.552188E+06 -1.484986E-10 -2.566603E-09
       114  12 -4.018328E+06 -5.747076E+05  1.937645E+04 -1.562398E+06 -1.650819E-09 -1.383497E-09
       114  13 -4.123540E+06 -6.135204E+05 -4.077735E+03 -1.591410E+06 -1.090453E-10 -1.672580E-09
       114  14 -4.153654E+06 -5.826484E+05 -5.136090E+03 -1.556171E+06  4.609151E-10  3.624263E-09
       114  15 -4.123654E+06 -6.144010E+05 -8.562861E+03 -1.591078E+06 -2.496118E-09 -1.259333E-09
       114  16 -4.047612E+06 -5.848932E+05  1.596804E+04 -1.570698E+06  1.730996E-09  7.294246E-10
       114  17 -4.168351E+06 -5.881800E+05 -9.078591E+03 -1.560153E+06 -4.306219E-10  3.185031E-09
       114  18 -4.228970E+06 -6.540939E+05 -3.650329E+04 -1.619753E+06 -3.575375E-09 -1.471360E-09
       114  19 -4.199461E+06 -6.421470E+05 -2.412382E+04 -1.612120E+06 -6.592708E+02 -4.013570E+03
       114  20 -4.138957E+06 -5.771168E+05 -1.193592E+03 -1.552188E+06 -4.640973E+03 -1.254913E+03
       114  21 -4.018328E+06 -5.747076E+05  1.937659E+04 -1.562398E+06 -8.613310E+03  1.476646E+03
       114  22 -4.123540E+06 -6.135204E+05 -4.077712E+03 -1.591410E+06  8.443653E+02 -3.452870E+03
       114  23 -4.153654E+06 -5.826484E+05 -5.136071E+03 -1.556171E+06 -3.148033E+03 -6.981353E+02
       114  24 -4.123654E+06 -6.144009E+05 -8.562758E+03 -1.591078E+06 -7.130635E+03  2.029626E+03
       114  25 -4.047612E+06 -5.848932E+05  1.596807E+04 -1.570698E+06  2.348216E+03 -2.892090E+03
       114  26 -4.168351E+06 -5.881800E+05 -9.078585E+03 -1.560153E+06 -1.655123E+03 -1.413682E+02
       114  27 -4.228970E+06 -6.540938E+05 -3.650322E+04 -1.619753E+06 -5.648230E+03  2.582504E+03
       115   1 -3.859699E+06 -5.137526E+05  6.038414E+04 -1.520356E+06  1.107599E+04 -3.056720E+03
       115   2 -3.802015E+06 -4.503939E+05  7.505752E+04 -1.462400E+06  2.187988E+04 -3.137040E+03
       115   3 -3.691928E+06 -4.559998E+05  7.964594E+04 -1.468201E+06  3.254488E+04 -2.831350E+03
       115   4 -4.124923E+06 -6.124051E+05 -1.087101E+04 -1.590943E+06  9.543968E+03 -3.628401E+03
       115   5 -4.151753E+06 -5.822680E+05 -1.879585E+04 -1.557451E+06  2.049725E+04 -3.653774E+03
       115   6 -4.126220E+06 -6.211318E+05 -3.692907E+04 -1.587719E+06  3.131025E+04 -3.293574E+03
       115   7 -4.390076E+06 -7.110531E+05 -8.213171E+04 -1.661503E+06  8.012681E+03 -4.199814E+03
       115   8 -4.501372E+06 -7.141344E+05 -1.126598E+05 -1.652452E+06  1.911548E+04 -4.170183E+03
       115   9 -4.560331E+06 -7.862524E+05 -1.535212E+05 -1.707161E+06  3.007657E+04 -3.755438E+03
       115  10 -3.859699E+06 -5.137527E+05  6.038389E+04 -1.520356E+06 -2.844530E-09 -2.891172E-09
       115  11 -3.802015E+06 -4.503941E+05  7.505660E+04 -1.462400E+06  8.930288E-10  5.902626E-11
       115  12 -3.691929E+06 -4.560001E+05  7.964393E+04 -1.468201E+06 -1.459750E-09  2.415247E-10
       115  13 -4.124923E+06 -6.124052E+05 -1.087121E+04 -1.590943E+06 -3.954679E-09 -2.893442E-09
       115  14 -4.151754E+06 -5.822681E+05 -1.879667E+04 -1.557450E+06  8.580209E-11  1.205543E-09
       115  15 -4.126221E+06 -6.211321E+05 -3.693094E+04 -1.587719E+06 -5.196383E-10  5.361864E-10
       115  16 -4.390077E+06 -7.110531E+05 -8.213187E+04 -1.661503E+06 -3.279654E-09  3.447777E-10
       115  17 -4.501373E+06 -7.141345E+05 -1.126605E+05 -1.652452E+06 -1.433603E-09  7.300786E-11
       115  18 -4.560332E+06 -7.862527E+05 -1.535230E+05 -1.707160E+06 -5.074891E-10 -1.850135E-10
       115  19 -3.859699E+06 -5.137526E+05  6.038414E+04 -1.520356E+06 -1.107599E+04  3.056720E+03
       115  20 -3.802015E+06 -4.503939E+05  7.505752E+04 -1.462400E+06 -2.187988E+04  3.137040E+03
       115  21 -3.691928E+06 -4.559998E+05  7.964594E+04 -1.468201E+06 -3.254488E+04  2.831350E+03
       115  22 -4.124923E+06 -6.124051E+05 -1.087101E+04 -1.590943E+06 -9.543968E+03  3.628401E+03
       115  23 -4.151753E+06 -5.822680E+05 -1.879585E+04 -1.557451E+06 -2.049725E+04  3.653774E+03
       115  24 -4.126220E+06 -6.211318E+05 -3.692907E+04 -1.587719E+06 -3.131025E+04  3.293574E+03
       115  25 -4.390076E+06 -7.110531E+05 -8.213171E+04 -1.661503E+06 -8.012681E+03  4.199814E+03
       115  26 -4.501372E+06 -7.141344E+05 -1.126598E+05 -1.652452E+06 -1.911548E+04  4.170183E+03
       115  27 -4.560331E+06 -7.862524E+05 -1.535212E+05 -1.707161E+06 -3.007657E+04  3.755438E+03
       116   1 -3.548464E+06 -3.972035E+05  1.081665E+05 -1.442111E+06  4.066367E+04 -2.305531E+03
       116   2 -3.495946E+06 -3.259510E+05  9.320472E+04 -1.382351E+06  8.319315E+04  1.005519E+04
       116   3 -3.434930E+06 -3.963710E+05  2.201237E+04 -1.354425E+06  1.248739E+05  2.470545E+04
       116   4 -4.131970E+06 -6.083536E+05 -4.696408E+04 -1.591490E+06  3.892606E+04 -2.955916E+03
       116   5 -4.141305E+06 -5.734671E+05 -8.073248E+04 -1.562099E+06  8.233263E+04  9.730541E+03
       116   6 -4.142363E+06 -6.804973E+05 -1.714777E+05 -1.564542E+06  1.248854E+05  2.470378E+04
       116   7 -4.715146E+06 -8.194905E+05 -2.021242E+05 -1.740745E+06  3.719024E+04 -3.605692E+03
       116   8 -4.786260E+06 -8.209545E+05 -2.547066E+05 -1.741676E+06  8.147306E+04  9.406260E+03
       116   9 -4.849309E+06 -9.645749E+05 -3.650131E+05 -1.774434E+06  1.248969E+05  2.470206E+04
       116  10 -3.548466E+06 -3.972040E+05  1.081634E+05 -1.442111E+06 -5.462391E-09 -1.974265E-09
       116  11 -3.495953E+06 -3.259529E+05  9.319144E+04 -1.382351E+06  1.331342E-09 -9.604690E-10
       116  12 -3.434947E+06 -3.963759E+05  2.198173E+04 -1.354428E+06  3.385786E-09  1.764039E-09
       116  13 -4.131971E+06 -6.083540E+05 -4.696696E+04 -1.591490E+06 -1.606598E-09 -1.349046E-09
       116  14 -4.141312E+06 -5.734690E+05 -8.074549E+04 -1.562099E+06 -4.383814E-10 -1.907019E-09
       116  15 -4.142380E+06 -6.805022E+05 -1.715084E+05 -1.564545E+06 -1.939067E-09 -8.571544E-10
       116  16 -4.715147E+06 -8.194908E+05 -2.021268E+05 -1.740745E+06  3.385818E-09 -7.915451E-11
       116  17 -4.786267E+06 -8.209563E+05 -2.547194E+05 -1.741676E+06 -2.067044E-10 -2.353419E-09
       116  18 -4.849326E+06 -9.645798E+05 -3.650439E+05 -1.774437E+06 -4.406725E-09 -2.228774E-09
       116  19 -3.548464E+06 -3.972035E+05  1.081665E+05 -1.442111E+06 -4.066367E+04  2.305531E+03
       116  20 -3.495946E+06 -3.259510E+05  9.320472E+04 -1.382351E+06 -8.319315E+04 -1.005519E+04
       116  21 -3.434930E+06 -3.963710E+05  2.201237E+04 -1.354425E+06 -1.248739E+05 -2.470545E+04
       116  22 -4.131970E+06 -6.083536E+05 -4.696408E+04 -1.591490E+06 -3.892606E+04  2.955916E+03
       116  23 -4.141305E+06 -5.734671E+05 -8.073248E+04 -1.562099E+06 -8.233263E+04 -9.730541E+03
       116  24 -4.142363E+06 -6.804973E+05 -1.714777E+05 -1.564542E+06 -1.248854E+05 -2.470378E+04
       116  25 -4.715146E+06 -8.194905E+05 -2.021242E+05 -1.740745E+06 -3.719024E+04  3.605692E+03
       116  26 -4.786260E+06 -8.209545E+05 -2.547066E+05 -1.741676E+06 -8.147306E+04 -9.406260E+03
       116  27 -4.849309E+06 -9.645749E+05 -3.650131E+05 -1.774434E+06 -1.248969E+05 -2.470206E+04
       117   1 -3.292798E+06 -3.240632E+05  1.272531E+04 -1.442826E+06  1.620374E+05  3.365803E+04
       117   2 -3.227188E+06 -1.199963E+05 -1.070586E+05 -1.306014E+06  3.427685E+05  9.886773E+04
       117   3 -3.441589E+06 -7.208221E+05 -5.723863E+05 -1.005651E+06  5.157912E+05  1.846141E+05
       117   4 -4.172445E+06 -5.873522E+05 -2.098883E+05 -1.611700E+06  1.567890E+05  3.170534E+04
       117   5 -4.074619E+06 -4.828979E+05 -3.424226E+05 -1.581023E+06  3.455188E+05  9.987122E+04
       117   6 -4.258857E+06 -1.185653E+06 -8.272511E+05 -1.386677E+06  5.265418E+05  1.885084E+05
       117   7 -5.051339E+06 -8.506547E+05 -4.325604E+05 -1.780388E+06  1.515487E+05  2.975424E+04
       117   8 -4.921345E+06 -8.456962E+05 -5.778534E+05 -1.855670E+06  3.482647E+05  1.008725E+05
       117   9 -5.075407E+06 -1.650142E+06 -1.082178E+06 -1.767162E+06  5.372764E+05  1.923898E+05
       117  10 -3.292827E+06 -3.240716E+05  1.267353E+04 -1.442831E+06  2.450341E-09  2.174482E-10
       117  11 -3.227317E+06 -1.200387E+05 -1.072992E+05 -1.306041E+06  2.720764E-09 -2.970188E-09
       117  12 -3.441886E+06 -7.209308E+05 -5.729537E+05 -1.005728E+06 -2.351493E-10 -7.472474E-10
       117  13 -4.172471E+06 -5.873599E+05 -2.099367E+05 -1.611704E+06 -1.044015E-09 -5.846812E-10
       117  14 -4.074751E+06 -4.829411E+05 -3.426676E+05 -1.581051E+06  2.026088E-09 -1.440819E-09
       117  15 -4.259166E+06 -1.185766E+06 -8.278434E+05 -1.386757E+06  1.082965E-09 -6.521511E-10
       117  16 -5.051364E+06 -8.506619E+05 -4.326056E+05 -1.780392E+06 -2.227896E-09 -5.777013E-10
       117  17 -4.921479E+06 -8.457402E+05 -5.781027E+05 -1.855699E+06 -2.690985E-09  5.221680E-10
       117  18 -5.075729E+06 -1.650260E+06 -1.082795E+06 -1.767245E+06  2.321208E-09  1.158985E-10
       117  19 -3.292798E+06 -3.240632E+05  1.272531E+04 -1.442826E+06 -1.620374E+05 -3.365803E+04
       117  20 -3.227188E+06 -1.199963E+05 -1.070586E+05 -1.306014E+06 -3.427685E+05 -9.886773E+04
       117  21 -3.441589E+06 -7.208221E+05 -5.723863E+05 -1.005651E+06 -5.157912E+05 -1.846141E+05
       117  22 -4.172445E+06 -5.873522E+05 -2.098883E+05 -1.611700E+06 -1.567890E+05 -3.170534E+04
       117  23 -4.074619E+06 -4.828979E+05 -3.424226E+05 -1.581023E+06 -3.455188E+05 -9.987122E+04
       117  24 -4.258857E+06 -1.185653E+06 -8.272511E+05 -1.386677E+06 -5.265418E+05 -1.885084E+05
       117  25 -5.051339E+06 -8.506547E+05 -4.325604E+05 -1.780388E+06 -1.515487E+05 -2.975424E+04
       117  26 -4.921345E+06 -8.456962E+05 -5.778534E+05 -1.855670E+06 -3.482647E+05 -1.008725E+05
       117  27 -5.075407E+06 -1.650142E+06 -1.082178E+06 -1.767162E+06 -5.372764E+05 -1.923898E+05
       118   1 -7.163205E+05  1.062792E+05  1.650129E+05  4.243034E+04  1.788772E+05  4.031783E+03
       118   2 -7.253485E+05 -1.326169E+05  2.217508E+04  1.305910E+04  1.191985E+05  1.138858E+04
       118   3 -6.585597E+05 -1.007004E+05 -1.399324E+04 -4.139409E+04  5.952521E+04  1.018371E+04
       118   4 -2.947954E+05  2.113118E+05  2.693434E+05 -1.573675E+04  1.840237E+05  4.021130E+03
       118   5 -3.330234E+05 -3.514886E+04  1.171341E+05 -3.066755E+03  1.206077E+05  1.138634E+04
       118   6 -2.948393E+05 -1.024670E+04  7.413932E+04 -1.547832E+04  5.720050E+04  1.018418E+04
       118   7  1.268986E+05  3.163439E+05  3.736626E+05 -7.394345E+04  1.891736E+05  4.009520E+03
       118   8  5.944308E+04  6.230892E+04  2.120821E+05 -1.920288E+04  1.220178E+05  1.138403E+04
       118   9  6.900352E+04  8.019976E+04  1.622627E+05  1.045268E+04  5.487442E+04  1.018445E+04
       118  10 -7.163549E+05  1.062706E+05  1.649526E+05  4.242976E+04 -5.710517E-10  7.717334E-10
       118  11 -7.253638E+05 -1.326209E+05  2.214811E+04  1.305800E+04  1.580604E-09  8.785672E-11
       118  12 -6.585635E+05 -1.007014E+05 -1.400010E+04 -4.139458E+04  3.113713E-09 -4.491534E-10
       118  13 -2.948318E+05  2.113027E+05  2.692797E+05 -1.573735E+04 -2.016545E-09  4.381067E-10
       118  14 -3.330391E+05 -3.515291E+04  1.171065E+05 -3.067862E+03  6.436980E-10 -5.462745E-10
       118  15 -2.948428E+05 -1.024769E+04  7.413297E+04 -1.547879E+04 -2.235340E-10 -2.573692E-10
       118  16  1.268602E+05  3.163343E+05  3.735954E+05 -7.394406E+04 -1.104374E-09  9.975210E-11
       118  17  5.942706E+04  6.230479E+04  2.120539E+05 -1.920399E+04 -9.615067E-10  4.141068E-10
       118  18  6.900026E+04  8.019884E+04  1.622569E+05  1.045223E+04 -1.965729E-09 -3.598733E-10
       118  19 -7.163205E+05  1.062792E+05  1.650129E+05  4.243034E+04 -1.788772E+05 -4.031783E+03
       118  20 -7.253485E+05 -1.326169E+05  2.217508E+04  1.305910E+04 -1.191985E+05 -1.138858E+04
       118  21 -6.585597E+05 -1.007004E+05 -1.399324E+04 -4.139409E+04 -5.952521E+04 -1.018371E+04
       118  22 -2.947954E+05  2.113118E+05  2.693434E+05 -1.573675E+04 -1.840237E+05 -4.021130E+03
       118  23 -3.330234E+05 -3.514886E+04  1.171341E+05 -3.066755E+03 -1.206077E+05 -1.138634E+04
       118  24 -2.948393E+05 -1.024670E+04  7.413932E+04 -1.547832E+04 -5.720050E+04 -1.018418E+04
       118  25  1.268986E+05  3.163439E+05  3.736626E+05 -7.394345E+04 -1.891736E+05 -4.009520E+03
       118  26  5.944308E+04  6.230892E+04  2.120821E+05 -1.920288E+04 -1.220178E+05 -1.138403E+04
       118  27  6.900352E+04  8.019976E+04  1.622627E+05  1.045268E+04 -5.487442E+04 -1.018445E+04
       119   1 -6.262226E+05 -5.425421E+04 -1.617411E+04 -9.562929E+03  4.547959E+04  8.269529E+03
       119   2 -6.019473E+05 -7.559757E+04 -3.923670E+04 -1.433526E+03  3.014630E+04  7.898930E+03
       119   3 -5.676204E+05 -6.534446E+04 -4.437720E+04 -1.880837E+04  1.481238E+04  6.763470E+03
       119   4 -3.095574E+05  2.448130E+04  6.071220E+04 -1.565747E+04  4.550400E+04  8.268812E+03
       119   5 -3.146121E+05 -4.171112E+03  3.041497E+04 -2.899386E+03  2.983323E+04  7.898503E+03
       119   6 -3.095621E+05 -1.176723E+03  1.826774E+04 -1.564465E+04  1.416255E+04  6.763263E+03
       119   7  7.199418E+03  1.032096E+05  1.375913E+05 -2.175514E+04  4.552841E+04  8.268095E+03
       119   8 -2.720139E+04  6.724929E+04  1.000607E+05 -4.365933E+03  2.952000E+04  7.898077E+03
       119   9 -5.144299E+04  6.298616E+04  8.090788E+04 -1.247962E+04  1.351246E+04  6.763050E+03
       119  10 -6.262248E+05 -5.425484E+04 -1.617813E+04 -9.563232E+03  1.003655E-09 -8.584159E-10
       119  11 -6.019483E+05 -7.559788E+04 -3.923852E+04 -1.433718E+03 -2.814593E-09  5.891728E-10
       119  12 -5.676206E+05 -6.534457E+04 -4.437770E+04 -1.880845E+04  8.835135E-11 -4.977761E-10
       119  13 -3.095597E+05  2.448067E+04  6.070818E+04 -1.565777E+04 -9.977191E-10 -3.589949E-10
       119  14 -3.146131E+05 -4.171418E+03  3.041318E+04 -2.899576E+03 -1.641345E-09  3.977367E-10
       119  15 -3.095623E+05 -1.176826E+03  1.826728E+04 -1.564473E+04 -3.956548E-09 -6.057321E-10
       119  16  7.197174E+03  1.032090E+05  1.375873E+05 -2.175544E+04 -4.234710E-10  1.274632E-10
       119  17 -2.720234E+04  6.724899E+04  1.000589E+05 -4.366121E+03 -1.345798E-09  5.265132E-11
       119  18 -5.144319E+04  6.298606E+04  8.090745E+04 -1.247969E+04 -2.563283E-10 -5.154310E-10
       119  19 -6.262226E+05 -5.425421E+04 -1.617411E+04 -9.562929E+03 -4.547959E+04 -8.269529E+03
       119  20 -6.019473E+05 -7.559757E+04 -3.923670E+04 -1.433526E+03 -3.014630E+04 -7.898930E+03
       119  21 -5.676204E+05 -6.534446E+04 -4.437720E+04 -1.880837E+04 -1.481238E+04 -6.763470E+03
       119  22 -3.095574E+05  2.448130E+04  6.071220E+04 -1.565747E+04 -4.550400E+04 -8.268812E+03
       119  23 -3.146121E+05 -4.171112E+03  3.041497E+04 -2.899386E+03 -2.983323E+04 -7.898503E+03
       119  24 -3.095621E+05 -1.176723E+03  1.826774E+04 -1.564465E+04 -1.416255E+04 -6.763263E+03
       119  25  7.199418E+03  1.032096E+05  1.375913E+05 -2.175514E+04 -4.552841E+04 -8.268095E+03
       119  26 -2.720139E+04  6.724929E+04  1.000607E+05 -4.365933E+03 -2.952000E+04 -7.898077E+03
       119  27 -5.144299E+04  6.298616E+04  8.090788E+04 -1.247962E+04 -1.351246E+04 -6.763050E+03
       120   1 -5.216302E+05 -4.943396E+04 -3.651424E+04 -1.516530E+04  1.170766E+04  5.993062E+03
       120   2 -4.926803E+05 -4.536289E+04 -3.602074E+04 -2.705303E+03  7.846275E+03  4.926551E+03
       120   3 -4.622615E+05 -3.762334E+04 -3.208460E+04 -1.609903E+04  3.984187E+03  3.787751E+03
       120   4 -3.114730E+05  2.792978E+03  1.436420E+04 -1.572607E+04  1.126539E+04  5.992894E+03
       120   5 -3.122092E+05 -5.016711E+02  7.731721E+03 -2.799423E+03  7.371581E+03  4.926485E+03
       120   6 -3.114728E+05 -1.229532E+02  4.563432E+03 -1.572600E+04  3.477252E+03  3.787793E+03
       120   7 -1.012755E+05  5.501668E+04  6.523946E+04 -1.628704E+04  1.082296E+04  5.992727E+03
       120   8 -1.317083E+05  4.435716E+04  5.148183E+04 -2.893570E+03  6.896749E+03  4.926420E+03
       120   9 -1.606632E+05  3.737576E+04  4.120982E+04 -1.535287E+04  2.970193E+03  3.787835E+03
       120  10 -5.216304E+05 -4.943404E+04 -3.651456E+04 -1.516535E+04 -1.212223E-09 -5.704840E-10
       120  11 -4.926803E+05 -4.536294E+04 -3.602090E+04 -2.705335E+03 -2.643829E-09  3.395094E-10
       120  12 -4.622616E+05 -3.762336E+04 -3.208466E+04 -1.609904E+04 -1.459600E-10  4.059375E-10
       120  13 -3.114732E+05  2.792906E+03  1.436389E+04 -1.572613E+04 -4.894822E-12 -6.136811E-10
       120  14 -3.122092E+05 -5.017118E+02  7.731574E+03 -2.799453E+03 -1.665152E-09  3.580347E-10
       120  15 -3.114728E+05 -1.229719E+02  4.563382E+03 -1.572601E+04  2.386304E-09  3.761820E-10
       120  16 -1.012756E+05  5.501661E+04  6.523917E+04 -1.628709E+04  5.943895E-10 -6.738942E-10
       120  17 -1.317084E+05  4.435712E+04  5.148170E+04 -2.893598E+03 -1.949666E-09  2.909069E-10
       120  18 -1.606632E+05  3.737574E+04  4.120978E+04 -1.535288E+04 -6.548851E-10  6.418047E-10
       120  19 -5.216302E+05 -4.943396E+04 -3.651424E+04 -1.516530E+04 -1.170766E+04 -5.993062E+03
       120  20 -4.926803E+05 -4.536289E+04 -3.602074E+04 -2.705303E+03 -7.846275E+03 -4.926551E+03
       120  21 -4.622615E+05 -3.762334E+04 -3.208460E+04 -1.609903E+04 -3.984187E+03 -3.787751E+03
       120  22 -3.114730E+05  2.792978E+03  1.436420E+04 -1.572607E+04 -1.126539E+04 -5.992894E+03
       120  23 -3.122092E+05 -5.016711E+02  7.731721E+03 -2.799423E+03 -7.371581E+03 -4.926485E+03
       120  24 -3.114728E+05 -1.229532E+02  4.563432E+03 -1.572600E+04 -3.477252E+03 -3.787793E+03
       120  25 -1.012755E+05  5.501668E+04  6.523946E+04 -1.628704E+04 -1.082296E+04 -5.992727E+03
       120  26 -1.317083E+05  4.435716E+04  5.148183E+04 -2.893570E+03 -6.896749E+03 -4.926420E+03
       120  27 -1.606632E+05  3.737576E+04  4.120982E+04 -1.535287E+04 -2.970193E+03 -3.787835E+03
       121   1 -4.141336E+05 -2.511838E+04 -2.119181E+04 -1.571947E+04  3.238314E+03  3.113377E+03
       121   2 -3.843501E+05 -1.807881E+04 -1.553205E+04 -2.744959E+03  2.224773E+03  1.976859E+03
       121   3 -3.543337E+05 -1.059959E+04 -9.104382E+03 -1.580707E+04  1.210985E+03  8.326815E+02
       121   4 -3.117446E+05  3.141739E+02  3.539995E+03 -1.576664E+04  2.749398E+03  3.113465E+03
       121   5 -3.118607E+05 -6.061595E+01  2.041192E+03 -2.748458E+03  1.732384E+03  1.976987E+03
       121   6 -3.117442E+05  4.846658E+00  1.312636E+03 -1.576671E+04  7.151716E+02  8.328517E+02
       121   7 -2.093460E+05  2.574596E+04  2.827105E+04 -1.581381E+04  2.260401E+03  3.113553E+03
       121   8 -2.393665E+05  1.795719E+04  1.961405E+04 -2.751956E+03  1.239938E+03  1.977114E+03
       121   9 -2.691530E+05  1.060915E+04  1.172952E+04 -1.572635E+04  2.193246E+02  8.330218E+02
       121  10 -4.141336E+05 -2.511840E+04 -2.119185E+04 -1.571948E+04  6.780812E-11 -1.785045E-10
       121  11 -3.843502E+05 -1.807881E+04 -1.553206E+04 -2.744963E+03 -3.109135E-10 -4.490194E-10
       121  12 -3.543337E+05 -1.059960E+04 -9.104386E+03 -1.580707E+04 -1.243126E-09  3.254353E-10
       121  13 -3.117446E+05  3.141614E+02  3.539962E+03 -1.576665E+04 -9.846912E-10  9.688038E-11
       121  14 -3.118607E+05 -6.062095E+01  2.041179E+03 -2.748460E+03 -2.196568E-09 -8.821708E-10
       121  15 -3.117442E+05  4.845776E+00  1.312633E+03 -1.576671E+04  5.798773E-11  1.979980E-10
       121  16 -2.093460E+05  2.574595E+04  2.827102E+04 -1.581382E+04 -6.636072E-10 -3.709295E-10
       121  17 -2.393665E+05  1.795719E+04  1.961404E+04 -2.751958E+03 -3.932111E-10 -7.765538E-10
       121  18 -2.691530E+05  1.060915E+04  1.172952E+04 -1.572635E+04  1.936333E-09  1.320061E-10
       121  19 -4.141336E+05 -2.511838E+04 -2.119181E+04 -1.571947E+04 -3.238314E+03 -3.113377E+03
       121  20 -3.843501E+05 -1.807881E+04 -1.553205E+04 -2.744959E+03 -2.224773E+03 -1.976859E+03
       121  21 -3.543337E+05 -1.059959E+04 -9.104382E+03 -1.580707E+04 -1.210985E+03 -8.326815E+02
       121  22 -3.117446E+05  3.141739E+02  3.539995E+03 -1.576664E+04 -2.749398E+03 -3.113465E+03
       121  23 -3.118607E+05 -6.061595E+01  2.041192E+03 -2.748458E+03 -1.732384E+03 -1.976987E+03
       121  24 -3.117442E+05  4.846658E+00  1.312636E+03 -1.576671E+04 -7.151716E+02 -8.328517E+02
       121  25 -2.093460E+05  2.574596E+04  2.827105E+04 -1.581381E+04 -2.260401E+03 -3.113553E+03
       121  26 -2.393665E+05  1.795719E+04  1.961405E+04 -2.751956E+03 -1.239938E+03 -1.977114E+03
       121  27 -2.691530E+05  1.060915E+04  1.172952E+04 -1.572635E+04 -2.193246E+02 -8.330218E+02
       122   1 -3.057667E+05  1.552249E+03  2.656826E+03 -1.576952E+04  9.921919E+02  1.639682E+02
       122   2 -2.758740E+05  8.914858E+03  9.633355E+03 -2.753618E+03  5.318883E+02 -9.807982E+02
       122   3 -2.459009E+05  1.643043E+04  1.694378E+04 -1.580103E+04  7.167006E+01 -2.119509E+03
       122   4 -3.117776E+05  3.975368E+01  1.107355E+03 -1.577268E+04  4.964353E+02  1.641458E+02
       122   5 -3.118176E+05 -1.880464E+01  9.203419E+02 -2.740966E+03  3.875189E+01 -9.806430E+02
       122   6 -3.117779E+05  7.532774E+01  1.065575E+03 -1.577267E+04 -4.188242E+02 -2.119373E+03
       122   7 -3.177886E+05 -1.472744E+03 -4.421183E+02 -1.577583E+04  6.835082E-01  1.643234E+02
       122   8 -3.477600E+05 -8.952562E+03 -7.792763E+03 -2.728315E+03 -4.543560E+02 -9.804877E+02
       122   9 -3.776510E+05 -1.628010E+04 -1.481294E+04 -1.574431E+04 -9.092666E+02 -2.119236E+03
       122  10 -3.057667E+05  1.552248E+03  2.656824E+03 -1.576952E+04  7.939601E-10  8.062102E-10
       122  11 -2.758740E+05  8.914857E+03  9.633353E+03 -2.753618E+03  2.401061E-09  3.689737E-10
       122  12 -2.459009E+05  1.643043E+04  1.694377E+04 -1.580103E+04 -5.945423E-10 -8.255643E-10
       122  13 -3.117776E+05  3.975359E+01  1.107354E+03 -1.577268E+04  2.214506E-09  1.078781E-09
       122  14 -3.118176E+05 -1.880567E+01  9.203401E+02 -2.740966E+03 -2.020611E-09  4.697560E-10
       122  15 -3.117779E+05  7.532287E+01  1.065567E+03 -1.577267E+04  7.674429E-10 -8.897553E-10
       122  16 -3.177886E+05 -1.472744E+03 -4.421183E+02 -1.577583E+04 -1.350390E-09  7.182303E-10
       122  17 -3.477600E+05 -8.952563E+03 -7.792766E+03 -2.728315E+03 -2.009247E-10  1.005499E-10
       122  18 -3.776510E+05 -1.628010E+04 -1.481295E+04 -1.574431E+04 -4.045685E-10 -1.488887E-10
       122  19 -3.057667E+05  1.552249E+03  2.656826E+03 -1.576952E+04 -9.921919E+02 -1.639682E+02
       122  20 -2.758740E+05  8.914858E+03  9.633355E+03 -2.753618E+03 -5.318883E+02  9.807982E+02
       122  21 -2.459009E+05  1.643043E+04  1.694378E+04 -1.580103E+04 -7.167006E+01  2.119509E+03
       122  22 -3.117776E+05  3.975368E+01  1.107355E+03 -1.577268E+04 -4.964353E+02 -1.641458E+02
       122  23 -3.118176E+05 -1.880464E+01  9.203419E+02 -2.740966E+03 -3.875189E+01  9.806430E+02
       122  24 -3.117779E+05  7.532774E+01  1.065575E+03 -1.577267E+04  4.188242E+02  2.119373E+03
       122  25 -3.177886E+05 -1.472744E+03 -4.421183E+02 -1.577583E+04 -6.835082E-01 -1.643234E+02
       122  26 -3.477600E+05 -8.952562E+03 -7.792763E+03 -2.728315E+03  4.543560E+02  9.804877E+02
       122  27 -3.776510E+05 -1.628010E+04 -1.481294E+04 -1.574431E+04  9.092666E+02  2.119236E+03
       123   1 -1.973345E+05  2.842912E+04  2.905402E+04 -1.568027E+04 -1.188860E+02 -2.794363E+03
       123   2 -1.677288E+05  3.571392E+04  3.680975E+04 -2.816267E+03 -1.086661E+03 -3.935660E+03
       123   3 -1.377619E+05  4.384552E+04  4.541175E+04 -1.588016E+04 -2.054100E+03 -5.010549E+03
       123   4 -3.117193E+05 -1.776030E+01  1.235845E+03 -1.574267E+04 -6.261737E+02 -2.794259E+03
       123   5 -3.118973E+05 -1.161726E+02  1.865260E+03 -2.778516E+03 -1.565087E+03 -3.935643E+03
       123   6 -3.117203E+05  6.272787E+02  3.320981E+03 -1.574262E+04 -2.503618E+03 -5.010611E+03
       123   7 -4.260921E+05 -2.846561E+04 -2.658327E+04 -1.580506E+04 -1.133368E+03 -2.794155E+03
       123   8 -4.560468E+05 -3.594779E+04 -3.308073E+04 -2.740773E+03 -2.043402E+03 -3.935627E+03
       123   9 -4.856510E+05 -4.259318E+04 -3.877196E+04 -1.560512E+04 -2.953009E+03 -5.010672E+03
       123  10 -1.973345E+05  2.842912E+04  2.905400E+04 -1.568027E+04 -2.664254E-10 -4.797288E-10
       123  11 -1.677288E+05  3.571390E+04  3.680972E+04 -2.816270E+03  5.868976E-10  3.888789E-10
       123  12 -1.377619E+05  4.384549E+04  4.541169E+04 -1.588016E+04 -1.003398E-10  5.146953E-10
       123  13 -3.117193E+05 -1.776879E+01  1.235829E+03 -1.574267E+04 -2.315514E-09 -5.344167E-10
       123  14 -3.118973E+05 -1.161899E+02  1.865226E+03 -2.778521E+03  3.783995E-10  4.826464E-11
       123  15 -3.117203E+05  6.272501E+02  3.320922E+03 -1.574263E+04  1.929191E-09  5.056030E-10
       123  16 -4.260921E+05 -2.846562E+04 -2.658329E+04 -1.580506E+04 -1.575537E-10  2.014973E-10
       123  17 -4.560468E+05 -3.594781E+04 -3.308076E+04 -2.740780E+03  1.329413E-09 -2.421134E-10
       123  18 -4.856510E+05 -4.259321E+04 -3.877202E+04 -1.560513E+04  6.885879E-10  4.712057E-10
       123  19 -1.973345E+05  2.842912E+04  2.905402E+04 -1.568027E+04  1.188860E+02  2.794363E+03
       123  20 -1.677288E+05  3.571392E+04  3.680975E+04 -2.816267E+03  1.086661E+03  3.935660E+03
       123  21 -1.377619E+05  4.384552E+04  4.541175E+04 -1.588016E+04  2.054100E+03  5.010549E+03
       123  22 -3.117193E+05 -1.776030E+01  1.235845E+03 -1.574267E+04  6.261737E+02  2.794259E+03
       123  23 -3.118973E+05 -1.161726E+02  1.865260E+03 -2.778516E+03  1.565087E+03  3.935643E+03
       123  24 -3.117203E+05  6.272787E+02  3.320981E+03 -1.574262E+04  2.503618E+03  5.010611E+03
       123  25 -4.260921E+05 -2.846561E+04 -2.658327E+04 -1.580506E+04  1.133368E+03  2.794155E+03
       123  26 -4.560468E+05 -3.594779E+04 -3.308073E+04 -2.740773E+03  2.043402E+03  3.935627E+03
       123  27 -4.856510E+05 -4.259318E+04 -3.877196E+04 -1.560512E+04  2.953009E+03  5.010672E+03
       124   1 -8.919955E+04  5.493935E+04  5.810105E+04 -1.496555E+04 -2.529886E+03 -5.773611E+03
       124   2 -6.094569E+04  6.154705E+04  6.786581E+04 -3.173365E+03 -6.401423E+03 -6.906689E+03
       124   3 -3.027102E+04  7.537814E+04  8.197963E+04 -1.700982E+04 -1.027275E+04 -7.331493E+03
       124   4 -3.112788E+05 -2.674872E+02  4.193391E+03 -1.567572E+04 -3.171426E+03 -5.773750E+03
       124   5 -3.124630E+05 -9.559844E+02  6.916582E+03 -2.862028E+03 -6.735713E+03 -6.906942E+03
       124   6 -3.112795E+05  5.527269E+03  1.377675E+04 -1.567758E+04 -1.029961E+04 -7.331742E+03
       124   7 -5.333131E+05 -5.547795E+04 -4.971783E+04 -1.638562E+04 -3.812737E+03 -5.773888E+03
       124   8 -5.639225E+05 -6.346366E+04 -5.403720E+04 -2.550821E+03 -7.069869E+03 -6.907195E+03
       124   9 -5.922158E+05 -6.432940E+04 -5.443183E+04 -1.434595E+04 -1.032646E+04 -7.331992E+03
       124  10 -8.919956E+04  5.493932E+04  5.810097E+04 -1.496556E+04  8.449658E-10 -3.235054E-10
       124  11 -6.094575E+04  6.154698E+04  6.786564E+04 -3.173401E+03 -9.249345E-10 -9.221772E-10
       124  12 -3.027115E+04  7.537806E+04  8.197933E+04 -1.700988E+04 -2.636723E-09  1.599771E-10
       124  13 -3.112789E+05 -2.675257E+02  4.193309E+03 -1.567573E+04  1.099652E-09 -1.190313E-10
       124  14 -3.124631E+05 -9.560478E+02  6.916408E+03 -2.862066E+03 -7.134124E-11 -8.128200E-10
       124  15 -3.112796E+05  5.527183E+03  1.377645E+04 -1.567764E+04 -5.544019E-11  2.928880E-10
       124  16 -5.333131E+05 -5.547799E+04 -4.971792E+04 -1.638564E+04 -1.551052E-09 -2.030285E-11
       124  17 -5.639226E+05 -6.346372E+04 -5.403738E+04 -2.550860E+03 -1.033709E-09 -1.125496E-09
       124  18 -5.922160E+05 -6.432949E+04 -5.443213E+04 -1.434601E+04  1.796829E-11  1.059017E-09
       124  19 -8.919955E+04  5.493935E+04  5.810105E+04 -1.496555E+04  2.529886E+03  5.773611E+03
       124  20 -6.094569E+04  6.154705E+04  6.786581E+04 -3.173365E+03  6.401423E+03  6.906689E+03
       124  21 -3.027102E+04  7.537814E+04  8.197963E+04 -1.700982E+04  1.027275E+04  7.331493E+03
       124  22 -3.112788E+05 -2.674872E+02  4.193391E+03 -1.567572E+04  3.171426E+03  5.773750E+03
       124  23 -3.124630E+05 -9.559844E+02  6.916582E+03 -2.862028E+03  6.735713E+03  6.906942E+03
       124  24 -3.112795E+05  5.527269E+03  1.377675E+04 -1.567758E+04  1.029961E+04  7.331742E+03
       124  25 -5.333131E+05 -5.547795E+04 -4.971783E+04 -1.638562E+04  3.812737E+03  5.773888E+03
       124  26 -5.639225E+05 -6.346366E+04 -5.403720E+04 -2.550821E+03  7.069869E+03  6.907195E+03
       124  27 -5.922158E+05 -6.432940E+04 -5.443183E+04 -1.434595E+04  1.032646E+04  7.331992E+03
       125   1  2.053570E+04  7.928068E+04  9.637918E+04 -9.583981E+03 -1.075620E+04 -9.141162E+03
       125   2  4.054533E+04  8.073836E+04  1.129634E+05 -6.548223E+03 -2.855643E+04 -1.028782E+04
       125   3  7.863807E+04  1.442936E+05  1.567097E+05 -2.858129E+04 -4.636443E+04 -3.512954E+03
       125   4 -3.079276E+05 -2.340463E+03  1.682018E+04 -1.553830E+04 -1.295387E+04 -9.142452E+03
       125   5 -3.166733E+05 -7.994456E+03  2.653635E+04 -3.026811E+03 -2.732440E+04 -1.028745E+04
       125   6 -3.079217E+05  4.787260E+04  6.104308E+04 -1.558460E+04 -4.170181E+04 -3.509465E+03
       125   7 -6.362922E+05 -8.396938E+04 -6.274655E+04 -2.148947E+04 -1.515038E+04 -9.143700E+03
       125   8 -6.737753E+05 -9.673658E+04 -5.989985E+04  4.925473E+02 -2.609307E+04 -1.028707E+04
       125   9 -6.943452E+05 -4.855895E+04 -3.463446E+04 -2.596034E+03 -3.704210E+04 -3.505780E+03
       125  10  2.053555E+04  7.928056E+04  9.637881E+04 -9.584060E+03  6.722614E-11  4.735379E-10
       125  11  4.054443E+04  8.073803E+04  1.129616E+05 -6.548460E+03 -3.505569E-09  7.200113E-11
       125  12  7.863576E+04  1.442930E+05  1.567056E+05 -2.858142E+04  7.146243E-11  3.658243E-10
       125  13 -3.079278E+05 -2.340598E+03  1.681971E+04 -1.553840E+04 -2.962384E-09 -8.635269E-11
       125  14 -3.166742E+05 -7.994771E+03  2.653474E+04 -3.027037E+03 -1.667240E-09  7.556662E-11
       125  15 -3.079235E+05  4.787212E+04  6.103979E+04 -1.558471E+04  1.819913E-09 -5.750490E-10
       125  16 -6.362924E+05 -8.396953E+04 -6.274714E+04 -2.148958E+04 -5.855838E-10  1.179484E-09
       125  17 -6.737761E+05 -9.673687E+04 -5.990133E+04  4.923310E+02  1.472178E-10 -6.203290E-10
       125  18 -6.943467E+05 -4.855933E+04 -3.463706E+04 -2.596139E+03 -3.432652E-11  4.979031E-10
       125  19  2.053570E+04  7.928068E+04  9.637918E+04 -9.583981E+03  1.075620E+04  9.141162E+03
       125  20  4.054533E+04  8.073836E+04  1.129634E+05 -6.548223E+03  2.855643E+04  1.028782E+04
       125  21  7.863807E+04  1.442936E+05  1.567097E+05 -2.858129E+04  4.636443E+04  3.512954E+03
       125  22 -3.079276E+05 -2.340463E+03  1.682018E+04 -1.553830E+04  1.295387E+04  9.142452E+03
       125  23 -3.166733E+05 -7.994456E+03  2.653635E+04 -3.026811E+03  2.732440E+04  1.028745E+04
       125  24 -3.079217E+05  4.787260E+04  6.104308E+04 -1.558460E+04  4.170181E+04  3.509465E+03
       125  25 -6.362922E+05 -8.396938E+04 -6.274655E+04 -2.148947E+04  1.515038E+04  9.143700E+03
       125  26 -6.737753E+05 -9.673658E+04 -5.989985E+04  4.925473E+02  2.609307E+04  1.028707E+04
       125  27 -6.943452E+05 -4.855895E+04 -3.463446E+04 -2.596034E+03  3.704210E+04  3.505780E+03
       126   1  4.353784E+05  3.093366E+04  4.169332E+05 -1.825129E+05  1.650544E+04 -1.418920E+04
       126   2  3.941422E+05 -3.383352E+05  3.442364E+05 -2.992746E+04  4.532871E+04 -1.571272E+04
       126   3  2.950489E+05 -7.203580E+05  2.583860E+05 -2.030126E+05  3.105761E+04 -1.735953E+04
       126   4 -4.682398E+04 -1.899971E+06 -6.161272E+04 -1.930390E+05  1.655405E+04 -3.587384E+04
       126   5  7.888903E+03 -1.891791E+06 -3.184714E+04 -3.012237E+04  4.534569E+04 -1.881930E+04
       126   6  1.439277E+03 -1.899774E+06 -2.818667E+04 -1.929331E+05  3.099533E+04 -1.888640E+03
       126   7 -5.293054E+05 -3.827482E+06 -5.404352E+05 -2.035302E+05  1.660347E+04 -5.749094E+04
       126   8 -3.785416E+05 -3.443038E+06 -4.081045E+05 -3.031508E+04  4.536268E+04 -2.191807E+04
       126   9 -2.922725E+05 -3.077916E+06 -3.148591E+05 -1.828713E+05  3.093350E+04  1.355291E+04
       126  10  4.353780E+05  3.093337E+04  4.169323E+05 -1.825127E+05 -1.028097E-09 -1.249808E-09
       126  11  3.941399E+05 -3.383360E+05  3.442321E+05 -2.992688E+04 -4.783383E-09  1.319117E-11
       126  12  2.950478E+05 -7.203585E+05  2.583836E+05 -2.030122E+05  4.674814E-10 -2.753832E-09
       126  13 -4.682463E+04 -1.899972E+06 -6.161566E+04 -1.930386E+05 -1.639710E-09  1.730270E-09
       126  14  7.886601E+03 -1.891792E+06 -3.185167E+04 -3.012168E+04 -2.987637E-09  1.838954E-09
       126  15  1.438245E+03 -1.899774E+06 -2.818848E+04 -1.929331E+05  2.507098E-09  2.652200E-09
       126  16 -5.293066E+05 -3.827485E+06 -5.404419E+05 -2.035294E+05 -8.850984E-10  7.280388E-10
       126  17 -3.785439E+05 -3.443039E+06 -4.081093E+05 -3.031428E+04  5.896873E-10  8.953766E-10
       126  18 -2.922736E+05 -3.077916E+06 -3.148613E+05 -1.828717E+05 -2.004925E-09  1.638822E-09
       126  19  4.353784E+05  3.093366E+04  4.169332E+05 -1.825129E+05 -1.650544E+04  1.418920E+04
       126  20  3.941422E+05 -3.383352E+05  3.442364E+05 -2.992746E+04 -4.532871E+04  1.571272E+04
       126  21  2.950489E+05 -7.203580E+05  2.583860E+05 -2.030126E+05 -3.105761E+04  1.735953E+04
       126  22 -4.682398E+04 -1.899971E+06 -6.161272E+04 -1.930390E+05 -1.655405E+04  3.587384E+04
       126  23  7.888903E+03 -1.891791E+06 -3.184714E+04 -3.012237E+04 -4.534569E+04  1.881930E+04
       126  24  1.439277E+03 -1.899774E+06 -2.818667E+04 -1.929331E+05 -3.099533E+04  1.888640E+03
       126  25 -5.293054E+05 -3.827482E+06 -5.404352E+05 -2.035302E+05 -1.660347E+04  5.749094E+04
       126  26 -3.785416E+05 -3.443038E+06 -4.081045E+05 -3.031508E+04 -4.536268E+04  2.191807E+04
       126  27 -2.922725E+05 -3.077916E+06 -3.148591E+05 -1.828713E+05 -3.093350E+04 -1.355291E+04
       127   1  1.361102E+05 -1.339838E+06  1.065331E+05 -1.924564E+05  1.569106E+04 -1.527415E+03
       127   2  4.867217E+04 -1.716592E+06  9.283162E+03 -2.936171E+04  4.761338E+03  1.533363E+04
       127   3 -7.160472E+04 -2.107287E+06 -1.079691E+05 -2.005335E+05 -6.789486E+03  3.217623E+04
       127   4 -3.010897E+03 -1.899011E+06 -2.909166E+04 -1.948518E+05  1.567098E+04  3.018976E+03
       127   5  5.000807E+03 -1.891954E+06 -3.328942E+04 -2.775422E+04  4.739286E+03  2.014089E+04
       127   6 -1.986474E+04 -1.899016E+06 -5.766172E+04 -1.949316E+05 -6.813735E+03  3.725469E+04
       127   7 -1.421549E+05 -2.457898E+06 -1.647389E+05 -1.972448E+05  1.565086E+04  7.561274E+03
       127   8 -3.867280E+04 -2.067288E+06 -7.586414E+04 -2.614715E+04  4.717256E+03  2.494680E+04
       127   9  3.187221E+04 -1.690704E+06 -7.357301E+03 -1.893278E+05 -6.837889E+03  4.233484E+04
       127  10  1.361099E+05 -1.339838E+06  1.065326E+05 -1.924564E+05  1.004825E-09 -4.083022E-09
       127  11  4.867208E+04 -1.716592E+06  9.282676E+03 -2.936177E+04 -2.216287E-09 -3.115864E-10
       127  12 -7.160505E+04 -2.107289E+06 -1.079712E+05 -2.005333E+05  1.232918E-09 -2.251727E-09
       127  13 -3.011163E+03 -1.899011E+06 -2.909214E+04 -1.948519E+05 -5.778762E-10  4.745410E-09
       127  14  5.000674E+03 -1.891954E+06 -3.329023E+04 -2.775430E+04  5.509642E-11  2.407740E-09
       127  15 -1.986516E+04 -1.899017E+06 -5.766442E+04 -1.949314E+05  1.105144E-09  2.762335E-09
       127  16 -1.421552E+05 -2.457898E+06 -1.647395E+05 -1.972448E+05 -4.407201E-09  2.936874E-09
       127  17 -3.867300E+04 -2.067289E+06 -7.586535E+04 -2.614725E+04 -2.549274E-09  1.718370E-09
       127  18  3.187168E+04 -1.690706E+06 -7.360765E+03 -1.893276E+05  7.451265E-10  1.456764E-09
       127  19  1.361102E+05 -1.339838E+06  1.065331E+05 -1.924564E+05 -1.569106E+04  1.527415E+03
       127  20  4.867217E+04 -1.716592E+06  9.283162E+03 -2.936171E+04 -4.761338E+03 -1.533363E+04
       127  21 -7.160472E+04 -2.107287E+06 -1.079691E+05 -2.005335E+05  6.789486E+03 -3.217623E+04
       127  22 -3.010897E+03 -1.899011E+06 -2.909166E+04 -1.948518E+05 -1.567098E+04 -3.018976E+03
       127  23  5.000807E+03 -1.891954E+06 -3.328942E+04 -2.775422E+04 -4.739286E+03 -2.014089E+04
       127  24 -1.986474E+04 -1.899016E+06 -5.766172E+04 -1.949316E+05  6.813735E+03 -3.725469E+04
       127  25 -1.421549E+05 -2.457898E+06 -1.647389E+05 -1.972448E+05 -1.565086E+04 -7.561274E+03
       127  26 -3.867280E+04 -2.067288E+06 -7.586414E+04 -2.614715E+04 -4.717256E+03 -2.494680E+04
       127  27  3.187221E+04 -1.690704E+06 -7.357301E+03 -1.893278E+05  6.837889E+03 -4.233484E+04
       128   1 -1.970091E+05 -2.741659E+06 -2.708881E+05 -1.676238E+05 -2.127090E+04  3.403148E+04
       128   2 -2.693882E+05 -3.084906E+06 -3.984119E+05 -4.052320E+04 -3.585213E+04  1.067249E+05
       128   3 -5.842778E+05 -3.498936E+06 -6.342735E+05 -2.427531E+05 -1.384551E+04  1.795061E+05
       128   4  1.025897E+04 -1.911139E+06 -6.858886E+04 -1.935613E+05 -2.133580E+04  4.810040E+04
       128   5  3.125281E+04 -1.877283E+06 -1.056359E+05 -2.920368E+04 -3.583926E+04  1.051453E+05
       128   6 -1.872651E+05 -1.911443E+06 -2.399528E+05 -1.941619E+05 -1.377743E+04  1.623239E+05
       128   7  2.174784E+05 -1.079986E+06  1.336612E+05 -2.195330E+05 -2.140183E+04  6.218812E+04
       128   8  3.317871E+05 -6.683213E+05  1.870350E+05 -1.786072E+04 -3.582646E+04  1.035625E+05
       128   9  2.095674E+05 -3.216440E+05  1.541817E+05 -1.454437E+05 -1.371216E+04  1.450971E+05
       128  10 -1.970099E+05 -2.741660E+06 -2.708911E+05 -1.676232E+05  4.916853E-10 -2.177980E-09
       128  11 -2.693926E+05 -3.084919E+06 -3.984358E+05 -4.052011E+04 -1.687456E-09  9.889381E-10
       128  12 -5.842867E+05 -3.498971E+06 -6.343348E+05 -2.427511E+05  3.927842E-10 -6.589085E-10
       128  13  1.025785E+04 -1.911142E+06 -6.859407E+04 -1.935605E+05 -6.195093E-10  4.855349E-09
       128  14  3.124845E+04 -1.877296E+06 -1.056591E+05 -2.920064E+04 -1.032707E-09  1.719837E-09
       128  15 -1.872724E+05 -1.911471E+06 -2.400028E+05 -1.941601E+05 -6.376243E-10  1.512714E-09
       128  16  2.174769E+05 -1.079990E+06  1.336531E+05 -2.195319E+05 -1.113628E-09  9.701633E-10
       128  17  3.317828E+05 -6.683332E+05  1.870125E+05 -1.785773E+04 -1.682483E-09 -1.198784E-10
       128  18  2.095616E+05 -3.216667E+05  1.541418E+05 -1.454421E+05  4.812463E-10  2.172744E-10
       128  19 -1.970091E+05 -2.741659E+06 -2.708881E+05 -1.676238E+05  2.127090E+04 -3.403148E+04
       128  20 -2.693882E+05 -3.084906E+06 -3.984119E+05 -4.052320E+04  3.585213E+04 -1.067249E+05
       128  21 -5.842778E+05 -3.498936E+06 -6.342735E+05 -2.427531E+05  1.384551E+04 -1.795061E+05
       128  22  1.025897E+04 -1.911139E+06 -6.858886E+04 -1.935613E+05  2.133580E+04 -4.810040E+04
       128  23  3.125281E+04 -1.877283E+06 -1.056359E+05 -2.920368E+04  3.583926E+04 -1.051453E+05
       128  24 -1.872651E+05 -1.911443E+06 -2.399528E+05 -1.941619E+05  1.377743E+04 -1.623239E+05
       128  25  2.174784E+05 -1.079986E+06  1.336612E+05 -2.195330E+05  2.140183E+04 -6.218812E+04
       128  26  3.317871E+05 -6.683213E+05  1.870350E+05 -1.786072E+04  3.582646E+04 -1.035625E+05
       128  27  2.095674E+05 -3.216440E+05  1.541817E+05 -1.454437E+05  1.371216E+04 -1.450971E+05
       129   1 -2.490448E+06 -5.821242E+05 -2.664086E+05 -8.998280E+05 -1.278656E+05 -4.530634E+04
       129   2 -2.453327E+06 -3.912133E+05 -1.466998E+05 -9.199087E+05 -8.306709E+04 -2.283316E+04
       129   3 -2.482697E+06 -3.923591E+05 -1.120655E+05 -9.022973E+05 -3.616896E+04 -5.935070E+03
       129   4 -2.258115E+06 -4.576846E+05 -1.955904E+05 -7.991055E+05 -1.247935E+05 -4.415933E+04
       129   5 -2.214999E+06 -2.911953E+05 -8.099367E+04 -8.445212E+05 -8.222825E+04 -2.251945E+04
       129   6 -2.237905E+06 -3.162789E+05 -4.967191E+04 -8.522531E+05 -3.756329E+04 -6.458427E+03
       129   7 -2.025727E+06 -3.332234E+05 -1.247774E+05 -6.983437E+05 -1.217202E+05 -4.301138E+04
       129   8 -1.976617E+06 -1.911701E+05 -1.529280E+04 -7.691061E+05 -8.138905E+04 -2.220557E+04
       129   9 -1.993053E+06 -2.401990E+05  1.271727E+04 -8.021930E+05 -3.895822E+04 -6.981921E+03
       129  10 -2.490466E+06 -5.821308E+05 -2.664434E+05 -8.998326E+05  1.110609E-09 -3.659511E-10
       129  11 -2.453334E+06 -3.912157E+05 -1.467138E+05 -9.199102E+05  1.882699E-09 -5.450562E-12
       129  12 -2.482699E+06 -3.923595E+05 -1.120681E+05 -9.022975E+05  1.239098E-09 -2.625692E-10
       129  13 -2.258133E+06 -4.576909E+05 -1.956234E+05 -7.991100E+05 -2.404934E-09  1.919644E-10
       129  14 -2.215007E+06 -2.911977E+05 -8.100739E+04 -8.445227E+05 -1.622498E-09  1.129197E-09
       129  15 -2.237906E+06 -3.162793E+05 -4.967465E+04 -8.522533E+05 -2.322148E-09  4.328145E-10
       129  16 -2.025744E+06 -3.332294E+05 -1.248089E+05 -6.983480E+05 -5.512080E-10  3.773784E-10
       129  17 -1.976624E+06 -1.911724E+05 -1.530623E+04 -7.691076E+05  2.286703E-10 -2.310925E-11
       129  18 -1.993055E+06 -2.401995E+05  1.271432E+04 -8.021932E+05 -7.907200E-10  1.092059E-10
       129  19 -2.490448E+06 -5.821242E+05 -2.664086E+05 -8.998280E+05  1.278656E+05  4.530634E+04
       129  20 -2.453327E+06 -3.912133E+05 -1.466998E+05 -9.199087E+05  8.306709E+04  2.283316E+04
       129  21 -2.482697E+06 -3.923591E+05 -1.120655E+05 -9.022973E+05  3.616896E+04  5.935070E+03
       129  22 -2.258115E+06 -4.576846E+05 -1.955904E+05 -7.991055E+05  1.247935E+05  4.415933E+04
       129  23 -2.214999E+06 -2.911953E+05 -8.099367E+04 -8.445212E+05  8.222825E+04  2.251945E+04
       129  24 -2.237905E+06 -3.162789E+05 -4.967191E+04 -8.522531E+05  3.756329E+04  6.458427E+03
       129  25 -2.025727E+06 -3.332234E+05 -1.247774E+05 -6.983437E+05  1.217202E+05  4.301138E+04
       129  26 -1.976617E+06 -1.911701E+05 -1.529280E+04 -7.691061E+05  8.138905E+04  2.220557E+04
       129  27 -1.993053E+06 -2.401990E+05  1.271727E+04 -8.021930E+05  3.895822E+04  6.981921E+03
       130   1 -2.435092E+06 -4.190583E+05 -9.614206E+04 -9.005859E+05 -3.000877E+04 -4.941543E+03
       130   2 -2.420612E+06 -3.856789E+05 -7.025164E+04 -8.933387E+05 -1.972372E+04 -1.211857E+03
       130   3 -2.404806E+06 -3.854116E+05 -5.804272E+04 -8.930501E+05 -9.219467E+03  1.934457E+03
       130   4 -2.231025E+06 -3.379876E+05 -4.057938E+04 -8.407705E+05 -2.994595E+04 -4.918315E+03
       130   5 -2.230499E+06 -3.129634E+05 -1.912738E+04 -8.404771E+05 -1.989285E+04 -1.275575E+03
       130   6 -2.228599E+06 -3.210006E+05 -1.116891E+04 -8.471425E+05 -9.620849E+03  1.783655E+03
       130   7 -2.026918E+06 -2.569132E+05  1.497952E+04 -7.809369E+05 -2.988310E+04 -4.895077E+03
       130   8 -2.040352E+06 -2.402456E+05  3.199361E+04 -7.876008E+05 -2.006204E+04 -1.339315E+03
       130   9 -2.052362E+06 -2.565883E+05  3.570210E+04 -8.012234E+05 -1.002235E+04  1.632810E+03
       130  10 -2.435093E+06 -4.190586E+05 -9.614381E+04 -9.005860E+05  7.020115E-11  4.417890E-10
       130  11 -2.420612E+06 -3.856790E+05 -7.025238E+04 -8.933388E+05 -3.448538E-10  1.299319E-09
       130  12 -2.404806E+06 -3.854116E+05 -5.804289E+04 -8.930501E+05  1.094776E-09 -2.435206E-10
       130  13 -2.231026E+06 -3.379879E+05 -4.058112E+04 -8.407706E+05  1.001926E-09  5.599304E-10
       130  14 -2.230499E+06 -3.129635E+05 -1.912813E+04 -8.404771E+05  1.174732E-09  6.674416E-10
       130  15 -2.228599E+06 -3.210006E+05 -1.116909E+04 -8.471425E+05  1.437902E-09  2.549013E-10
       130  16 -2.026919E+06 -2.569135E+05  1.497779E+04 -7.809370E+05  1.189553E-09  2.233892E-10
       130  17 -2.040352E+06 -2.402458E+05  3.199284E+04 -7.876008E+05  8.702013E-10  8.045121E-10
       130  18 -2.052362E+06 -2.565884E+05  3.570190E+04 -8.012234E+05  1.519357E-10  7.432025E-10
       130  19 -2.435092E+06 -4.190583E+05 -9.614206E+04 -9.005859E+05  3.000877E+04  4.941543E+03
       130  20 -2.420612E+06 -3.856789E+05 -7.025164E+04 -8.933387E+05  1.972372E+04  1.211857E+03
       130  21 -2.404806E+06 -3.854116E+05 -5.804272E+04 -8.930501E+05  9.219467E+03 -1.934457E+03
       130  22 -2.231025E+06 -3.379876E+05 -4.057938E+04 -8.407705E+05  2.994595E+04  4.918315E+03
       130  23 -2.230499E+06 -3.129634E+05 -1.912738E+04 -8.404771E+05  1.989285E+04  1.275575E+03
       130  24 -2.228599E+06 -3.210006E+05 -1.116891E+04 -8.471425E+05  9.620849E+03 -1.783655E+03
       130  25 -2.026918E+06 -2.569132E+05  1.497952E+04 -7.809369E+05  2.988310E+04  4.895077E+03
       130  26 -2.040352E+06 -2.402456E+05  3.199361E+04 -7.876008E+05  2.006204E+04  1.339315E+03
       130  27 -2.052362E+06 -2.565883E+05  3.570210E+04 -8.012234E+05  1.002235E+04 -1.632810E+03
       131   1 -2.370750E+06 -3.783178E+05 -4.723907E+04 -8.855602E+05 -7.551138E+03  1.992605E+03
       131   2 -2.357939E+06 -3.624670E+05 -3.807351E+04 -8.737345E+05 -4.932741E+03  2.184941E+03
       131   3 -2.333876E+06 -3.618386E+05 -3.138848E+04 -8.756335E+05 -2.281146E+03  2.288409E+03
       131   4 -2.227368E+06 -3.238657E+05 -8.799416E+03 -8.460806E+05 -7.813635E+03  1.893972E+03
       131   5 -2.232853E+06 -3.152484E+05 -4.552127E+03 -8.395962E+05 -5.230537E+03  2.073115E+03
       131   6 -2.227079E+06 -3.218459E+05 -2.756912E+03 -8.468365E+05 -2.614324E+03  2.163366E+03
       131   7 -2.083967E+06 -2.694122E+05  2.963851E+04 -8.065926E+05 -8.076199E+03  1.795313E+03
       131   8 -2.107752E+06 -2.680287E+05  2.896792E+04 -8.054516E+05 -5.528399E+03  1.961264E+03
       131   9 -2.120271E+06 -2.818527E+05  2.587365E+04 -8.180351E+05 -2.947565E+03  2.038301E+03
       131  10 -2.370750E+06 -3.783178E+05 -4.723918E+04 -8.855602E+05  4.896373E-10 -8.896636E-10
       131  11 -2.357939E+06 -3.624670E+05 -3.807357E+04 -8.737345E+05 -8.484774E-10 -1.471639E-09
       131  12 -2.333876E+06 -3.618386E+05 -3.138850E+04 -8.756335E+05  1.376666E-09 -6.620202E-10
       131  13 -2.227368E+06 -3.238657E+05 -8.799538E+03 -8.460806E+05  2.364441E-10 -6.632394E-10
       131  14 -2.232853E+06 -3.152484E+05 -4.552187E+03 -8.395961E+05  3.556769E-10 -1.280283E-09
       131  15 -2.227079E+06 -3.218459E+05 -2.756933E+03 -8.468365E+05 -3.192610E-10 -4.184001E-10
       131  16 -2.083967E+06 -2.694122E+05  2.963839E+04 -8.065926E+05 -1.438014E-10 -4.629270E-10
       131  17 -2.107752E+06 -2.680287E+05  2.896786E+04 -8.054516E+05 -1.872553E-09 -1.654427E-09
       131  18 -2.120271E+06 -2.818527E+05  2.587363E+04 -8.180351E+05  1.218061E-09 -3.184113E-10
       131  19 -2.370750E+06 -3.783178E+05 -4.723907E+04 -8.855602E+05  7.551138E+03 -1.992605E+03
       131  20 -2.357939E+06 -3.624670E+05 -3.807351E+04 -8.737345E+05  4.932741E+03 -2.184941E+03
       131  21 -2.333876E+06 -3.618386E+05 -3.138848E+04 -8.756335E+05  2.281146E+03 -2.288409E+03
       131  22 -2.227368E+06 -3.238657E+05 -8.799416E+03 -8.460806E+05  7.813635E+03 -1.893972E+03
       131  23 -2.232853E+06 -3.152484E+05 -4.552127E+03 -8.395962E+05  5.230537E+03 -2.073115E+03
       131  24 -2.227079E+06 -3.218459E+05 -2.756912E+03 -8.468365E+05  2.614324E+03 -2.163366E+03
       131  25 -2.083967E+06 -2.694122E+05  2.963851E+04 -8.065926E+05  8.076199E+03 -1.795313E+03
       131  26 -2.107752E+06 -2.680287E+05  2.896792E+04 -8.054516E+05  5.528399E+03 -1.961264E+03
       131  27 -2.120271E+06 -2.818527E+05  2.587365E+04 -8.180351E+05  2.947565E+03 -2.038301E+03
       132   1 -2.298978E+06 -3.495695E+05 -2.154286E+04 -8.666002E+05 -1.704712E+03  1.964053E+03
       132   2 -2.285687E+06 -3.350378E+05 -1.565556E+04 -8.535183E+05 -5.727252E+02  1.471888E+03
       132   3 -2.259216E+06 -3.343733E+05 -1.049982E+04 -8.557532E+05  5.672307E+02  9.581915E+02
       132   4 -2.226761E+06 -3.223304E+05 -2.263603E+03 -8.468952E+05 -2.024529E+03  1.844056E+03
       132   5 -2.233339E+06 -3.153133E+05 -1.634184E+03 -8.392681E+05 -9.011368E+02  1.348693E+03
       132   6 -2.226736E+06 -3.221616E+05 -1.729453E+03 -8.469580E+05  2.301929E+02  8.317894E+02
       132   7 -2.154538E+06 -2.950910E+05  1.701518E+04 -8.271882E+05 -2.344387E+03  1.724043E+03
       132   8 -2.180988E+06 -2.955887E+05  1.238691E+04 -8.250170E+05 -1.229578E+03  1.225486E+03
       132   9 -2.194255E+06 -3.099499E+05  7.040784E+03 -8.381624E+05 -1.068629E+02  7.053805E+02
       132  10 -2.298978E+06 -3.495695E+05 -2.154287E+04 -8.666002E+05  1.408346E-09 -1.929163E-10
       132  11 -2.285687E+06 -3.350378E+05 -1.565556E+04 -8.535183E+05  1.028510E-09  1.335167E-10
       132  12 -2.259216E+06 -3.343733E+05 -1.049983E+04 -8.557532E+05 -1.559613E-10  2.205203E-10
       132  13 -2.226761E+06 -3.223304E+05 -2.263617E+03 -8.468952E+05  6.004845E-10  5.148570E-10
       132  14 -2.233339E+06 -3.153133E+05 -1.634189E+03 -8.392681E+05 -7.237480E-10  2.975926E-10
       132  15 -2.226736E+06 -3.221616E+05 -1.729454E+03 -8.469580E+05 -1.387959E-09  3.524728E-10
       132  16 -2.154538E+06 -2.950910E+05  1.701517E+04 -8.271882E+05  3.529963E-10 -2.046041E-10
       132  17 -2.180988E+06 -2.955887E+05  1.238691E+04 -8.250170E+05 -3.030975E-09 -4.776698E-10
       132  18 -2.194255E+06 -3.099499E+05  7.040783E+03 -8.381624E+05 -2.411860E-09  2.273313E-10
       132  19 -2.298978E+06 -3.495695E+05 -2.154286E+04 -8.666002E+05  1.704712E+03 -1.964053E+03
       132  20 -2.285687E+06 -3.350378E+05 -1.565556E+04 -8.535183E+05  5.727252E+02 -1.471888E+03
       132  21 -2.259216E+06 -3.343733E+05 -1.049982E+04 -8.557532E+05 -5.672307E+02 -9.581915E+02
       132  22 -2.226761E+06 -3.223304E+05 -2.263603E+03 -8.468952E+05  2.024529E+03 -1.844056E+03
       132  23 -2.233339E+06 -3.153133E+05 -1.634184E+03 -8.392681E+05  9.011368E+02 -1.348693E+03
       132  24 -2.226736E+06 -3.221616E+05 -1.729453E+03 -8.469580E+05 -2.301929E+02 -8.317894E+02
       132  25 -2.154538E+06 -2.950910E+05  1.701518E+04 -8.271882E+05  2.344387E+03 -1.724043E+03
       132  26 -2.180988E+06 -2.955887E+05  1.238691E+04 -8.250170E+05  1.229578E+03 -1.225486E+03
       132  27 -2.194255E+06 -3.099499E+05  7.040784E+03 -8.381624E+05  1.068629E+02 -7.053805E+02
       133   1 -2.223297E+06 -3.209209E+05 -9.841036E+02 -8.461969E+05  1.054999E+03  5.846905E+02
       133   2 -2.209824E+06 -3.063523E+05  3.301364E+03 -8.328352E+05  2.867311E+03  3.185182E+02
       133   3 -2.183308E+06 -3.062816E+05  6.222406E+03 -8.348557E+05  4.675008E+03  6.491334E+01
       133   4 -2.226743E+06 -3.221393E+05 -1.966979E+03 -8.470335E+05  7.180605E+02  4.583316E+02
       133   5 -2.233309E+06 -3.151995E+05 -2.988391E+03 -8.392267E+05  2.535374E+03  1.940196E+02
       133   6 -2.226833E+06 -3.227585E+05 -5.378138E+03 -8.468023E+05  4.348016E+03 -5.774366E+01
       133   7 -2.230190E+06 -3.233578E+05 -2.949860E+03 -8.478701E+05  3.811227E+02  3.319726E+02
       133   8 -2.256794E+06 -3.240466E+05 -9.278221E+03 -8.456180E+05  2.203449E+03  6.952570E+01
       133   9 -2.270356E+06 -3.392353E+05 -1.697888E+04 -8.587482E+05  4.021048E+03 -1.803914E+02
       133  10 -2.223297E+06 -3.209209E+05 -9.841063E+02 -8.461969E+05 -1.039640E-09  3.886900E-11
       133  11 -2.209824E+06 -3.063523E+05  3.301348E+03 -8.328352E+05 -1.035547E-09 -2.317001E-11
       133  12 -2.183308E+06 -3.062816E+05  6.222365E+03 -8.348557E+05 -1.516112E-09 -2.745465E-10
       133  13 -2.226743E+06 -3.221393E+05 -1.966980E+03 -8.470335E+05 -2.279177E-09  1.831409E-10
       133  14 -2.233309E+06 -3.151995E+05 -2.988403E+03 -8.392267E+05  4.133619E-10 -1.129375E-10
       133  15 -2.226833E+06 -3.227585E+05 -5.378173E+03 -8.468023E+05 -1.949298E-09 -1.752372E-10
       133  16 -2.230190E+06 -3.233578E+05 -2.949860E+03 -8.478701E+05 -9.972453E-10 -8.412961E-11
       133  17 -2.256794E+06 -3.240466E+05 -9.278230E+03 -8.456180E+05  1.733425E-09  5.441018E-10
       133  18 -2.270356E+06 -3.392353E+05 -1.697891E+04 -8.587482E+05 -8.303345E-10 -6.394199E-10
       133  19 -2.223297E+06 -3.209209E+05 -9.841036E+02 -8.461969E+05 -1.054999E+03 -5.846905E+02
       133  20 -2.209824E+06 -3.063523E+05  3.301364E+03 -8.328352E+05 -2.867311E+03 -3.185182E+02
       133  21 -2.183308E+06 -3.062816E+05  6.222406E+03 -8.348557E+05 -4.675008E+03 -6.491334E+01
       133  22 -2.226743E+06 -3.221393E+05 -1.966979E+03 -8.470335E+05 -7.180605E+02 -4.583316E+02
       133  23 -2.233309E+06 -3.151995E+05 -2.988391E+03 -8.392267E+05 -2.535374E+03 -1.940196E+02
       133  24 -2.226833E+06 -3.227585E+05 -5.378138E+03 -8.468023E+05 -4.348016E+03  5.774366E+01
       133  25 -2.230190E+06 -3.233578E+05 -2.949860E+03 -8.478701E+05 -3.811227E+02 -3.319726E+02
       133  26 -2.256794E+06 -3.240466E+05 -9.278221E+03 -8.456180E+05 -2.203449E+03 -6.952570E+01
       133  27 -2.270356E+06 -3.392353E+05 -1.697888E+04 -8.587482E+05 -4.021048E+03  1.803914E+02
       134   1 -2.148126E+06 -2.926946E+05  1.421108E+04 -8.263186E+05  5.879643E+03 -3.461518E+01
       134   2 -2.134725E+06 -2.774219E+05  1.407696E+04 -8.126970E+05  1.234770E+04  1.476266E+03
       134   3 -2.111883E+06 -2.824406E+05  7.364156E+03 -8.122458E+05  1.878716E+04  3.064774E+03
       134   4 -2.227324E+06 -3.218362E+05 -6.938840E+03 -8.471406E+05  5.539853E+03 -1.620875E+02
       134   5 -2.232437E+06 -3.144536E+05 -1.213382E+04 -8.395202E+05  1.203818E+04  1.360091E+03
       134   6 -2.228117E+06 -3.273696E+05 -2.393249E+04 -8.450704E+05  1.850773E+04  2.959810E+03
       134   7 -2.306515E+06 -3.509773E+05 -2.808922E+04 -8.679603E+05  5.200112E+03 -2.895422E+02
       134   8 -2.330140E+06 -3.514847E+05 -3.834541E+04 -8.663395E+05  1.172872E+04  1.243936E+03
       134   9 -2.344338E+06 -3.722976E+05 -5.523039E+04 -8.778894E+05  1.822835E+04  2.854868E+03
       134  10 -2.148126E+06 -2.926946E+05  1.421102E+04 -8.263186E+05  1.283614E-09 -5.076174E-10
       134  11 -2.134726E+06 -2.774219E+05  1.407667E+04 -8.126970E+05  2.839430E-09  5.987998E-10
       134  12 -2.111883E+06 -2.824407E+05  7.363473E+03 -8.122459E+05  3.071568E-09  4.625162E-10
       134  13 -2.227324E+06 -3.218362E+05 -6.938898E+03 -8.471406E+05  1.099614E-09 -1.891218E-10
       134  14 -2.232438E+06 -3.144537E+05 -1.213410E+04 -8.395202E+05 -3.174218E-09  9.910829E-11
       134  15 -2.228117E+06 -3.273697E+05 -2.393315E+04 -8.450705E+05  2.031247E-10  1.006683E-09
       134  16 -2.306515E+06 -3.509773E+05 -2.808927E+04 -8.679603E+05 -1.257906E-09  1.759237E-11
       134  17 -2.330140E+06 -3.514848E+05 -3.834567E+04 -8.663395E+05 -9.563675E-10  6.917157E-10
       134  18 -2.344338E+06 -3.722977E+05 -5.523103E+04 -8.778895E+05 -1.975993E-09  1.688835E-09
       134  19 -2.148126E+06 -2.926946E+05  1.421108E+04 -8.263186E+05 -5.879643E+03  3.461518E+01
       134  20 -2.134725E+06 -2.774219E+05  1.407696E+04 -8.126970E+05 -1.234770E+04 -1.476266E+03
       134  21 -2.111883E+06 -2.824406E+05  7.364156E+03 -8.122458E+05 -1.878716E+04 -3.064774E+03
       134  22 -2.227324E+06 -3.218362E+05 -6.938840E+03 -8.471406E+05 -5.539853E+03  1.620875E+02
       134  23 -2.232437E+06 -3.144536E+05 -1.213382E+04 -8.395202E+05 -1.203818E+04 -1.360091E+03
       134  24 -2.228117E+06 -3.273696E+05 -2.393249E+04 -8.450704E+05 -1.850773E+04 -2.959810E+03
       134  25 -2.306515E+06 -3.509773E+05 -2.808922E+04 -8.679603E+05 -5.200112E+03  2.895422E+02
       134  26 -2.330140E+06 -3.514847E+05 -3.834541E+04 -8.663395E+05 -1.172872E+04 -1.243936E+03
       134  27 -2.344338E+06 -3.722976E+05 -5.523039E+04 -8.778894E+05 -1.822835E+04 -2.854868E+03
       135   1 -2.077210E+06 -2.678598E+05  9.649240E+03 -8.126526E+05  2.352619E+04  4.258289E+03
       135   2 -2.062086E+06 -2.424125E+05 -7.677473E+03 -7.931728E+05  5.098177E+04  1.372798E+04
       135   3 -2.061600E+06 -2.892633E+05 -6.181702E+04 -7.719166E+05  7.823236E+04  2.374540E+04
       135   4 -2.230828E+06 -3.202157E+05 -3.048073E+04 -8.487748E+05  2.311577E+04  4.104400E+03
       135   5 -2.226806E+06 -3.073119E+05 -5.233313E+04 -8.409383E+05  5.078478E+04  1.365361E+04
       135   6 -2.237472E+06 -3.667596E+05 -1.111759E+05 -8.313245E+05  7.824830E+04  2.374953E+04
       135   7 -2.384422E+06 -3.725712E+05 -7.061256E+04 -8.848893E+05  2.270546E+04  3.950543E+03
       135   8 -2.391499E+06 -3.722089E+05 -9.699122E+04 -8.886921E+05  5.058783E+04  1.357927E+04
       135   9 -2.413314E+06 -4.442509E+05 -1.605379E+05 -8.907162E+05  7.826422E+04  2.375365E+04
       135  10 -2.077211E+06 -2.678600E+05  9.648161E+03 -8.126527E+05  1.107606E-09  7.433060E-10
       135  11 -2.062089E+06 -2.424134E+05 -7.682731E+03 -7.931733E+05 -1.112589E-09 -2.017116E-10
       135  12 -2.061607E+06 -2.892655E+05 -6.182963E+04 -7.719181E+05 -2.501711E-09 -8.818360E-10
       135  13 -2.230828E+06 -3.202159E+05 -3.048177E+04 -8.487749E+05 -2.455267E-09  1.085643E-09
       135  14 -2.226808E+06 -3.073128E+05 -5.233834E+04 -8.409389E+05 -3.404822E-09 -4.010631E-10
       135  15 -2.237479E+06 -3.667618E+05 -1.111885E+05 -8.313260E+05 -1.630756E-10 -1.181850E-09
       135  16 -2.384423E+06 -3.725713E+05 -7.061356E+04 -8.848894E+05 -1.677858E-09  1.320231E-09
       135  17 -2.391502E+06 -3.722098E+05 -9.699640E+04 -8.886927E+05 -2.684243E-09 -1.870688E-10
       135  18 -2.413321E+06 -4.442531E+05 -1.605505E+05 -8.907177E+05 -3.605087E-09 -1.033102E-09
       135  19 -2.077210E+06 -2.678598E+05  9.649240E+03 -8.126526E+05 -2.352619E+04 -4.258289E+03
       135  20 -2.062086E+06 -2.424125E+05 -7.677473E+03 -7.931728E+05 -5.098177E+04 -1.372798E+04
       135  21 -2.061600E+06 -2.892633E+05 -6.181702E+04 -7.719166E+05 -7.823236E+04 -2.374540E+04
       135  22 -2.230828E+06 -3.202157E+05 -3.048073E+04 -8.487748E+05 -2.311577E+04 -4.104400E+03
       135  23 -2.226806E+06 -3.073119E+05 -5.233313E+04 -8.409383E+05 -5.078478E+04 -1.365361E+04
       135  24 -2.237472E+06 -3.667596E+05 -1.111759E+05 -8.313245E+05 -7.824830E+04 -2.374953E+04
       135  25 -2.384422E+06 -3.725712E+05 -7.061256E+04 -8.848893E+05 -2.270546E+04 -3.950543E+03
       135  26 -2.391499E+06 -3.722089E+05 -9.699122E+04 -8.886921E+05 -5.058783E+04 -1.357927E+04
       135  27 -2.413314E+06 -4.442509E+05 -1.605379E+05 -8.907162E+05 -7.826422E+04 -2.375365E+04
       136   1 -2.010912E+06 -2.605809E+05 -7.930710E+04 -8.430313E+05  9.970653E+04  3.050949E+04
       136   2 -1.979388E+06 -1.410993E+05 -1.614118E+05 -7.660706E+05  2.196298E+05  7.483822E+04
       136   3 -2.142598E+06 -5.321859E+05 -4.700594E+05 -5.699168E+05  3.375715E+05  1.244539E+05
       136   4 -2.255417E+06 -3.081946E+05 -1.361051E+05 -8.638592E+05  9.834894E+04  3.000798E+04
       136   5 -2.185450E+06 -2.464486E+05 -2.218708E+05 -8.506664E+05  2.203561E+05  7.509892E+04
       136   6 -2.310720E+06 -6.958120E+05 -5.358977E+05 -7.182550E+05  3.403887E+05  1.254453E+05
       136   7 -2.499861E+06 -3.558094E+05 -1.929058E+05 -8.846845E+05  9.699194E+04  2.950644E+04
       136   8 -2.391468E+06 -3.517831E+05 -2.823336E+05 -9.352329E+05  2.210822E+05  7.535944E+04
       136   9 -2.478787E+06 -8.593589E+05 -6.017341E+05 -8.665399E+05  3.432051E+05  1.264352E+05
       136  10 -2.010923E+06 -2.605846E+05 -7.932761E+04 -8.430338E+05 -1.545931E-09 -1.126963E-09
       136  11 -1.979441E+06 -1.411183E+05 -1.615134E+05 -7.660838E+05  3.183200E-09 -2.429435E-10
       136  12 -2.142725E+06 -5.322333E+05 -4.703036E+05 -5.699507E+05  3.025343E-10  7.281650E-10
       136  13 -2.255428E+06 -3.081982E+05 -1.361250E+05 -8.638616E+05  7.884919E-10 -1.134264E-09
       136  14 -2.185504E+06 -2.464678E+05 -2.219731E+05 -8.506798E+05  4.759904E-09 -1.354283E-09
       136  15 -2.310849E+06 -6.958602E+05 -5.361460E+05 -7.182895E+05  1.010039E-10  1.690366E-10
       136  16 -2.499871E+06 -3.558129E+05 -1.929252E+05 -8.846868E+05  3.081000E-10 -5.838674E-10
       136  17 -2.391522E+06 -3.518024E+05 -2.824366E+05 -9.352464E+05 -5.164900E-10  1.032879E-09
       136  18 -2.478919E+06 -8.594079E+05 -6.019866E+05 -8.665750E+05 -1.795306E-09  4.441638E-10
       136  19 -2.010912E+06 -2.605809E+05 -7.930710E+04 -8.430313E+05 -9.970653E+04 -3.050949E+04
       136  20 -1.979388E+06 -1.410993E+05 -1.614118E+05 -7.660706E+05 -2.196298E+05 -7.483822E+04
       136  21 -2.142598E+06 -5.321859E+05 -4.700594E+05 -5.699168E+05 -3.375715E+05 -1.244539E+05
       136  22 -2.255417E+06 -3.081946E+05 -1.361051E+05 -8.638592E+05 -9.834894E+04 -3.000798E+04
       136  23 -2.185450E+06 -2.464486E+05 -2.218708E+05 -8.506664E+05 -2.203561E+05 -7.509892E+04
       136  24 -2.310720E+06 -6.958120E+05 -5.358977E+05 -7.182550E+05 -3.403887E+05 -1.254453E+05
       136  25 -2.499861E+06 -3.558094E+05 -1.929058E+05 -8.846845E+05 -9.699194E+04 -2.950644E+04
       136  26 -2.391468E+06 -3.517831E+05 -2.823336E+05 -9.352329E+05 -2.210822E+05 -7.535944E+04
       136  27 -2.478787E+06 -8.593589E+05 -6.017341E+05 -8.665399E+05 -3.432051E+05 -1.264352E+05
       137   1 -3.830954E+05  4.833357E+03  3.085117E+04  1.145996E+04  7.621616E+04  3.228312E+03
       137   2 -3.734357E+05 -9.599840E+04 -2.735121E+04  4.447197E+03  5.160848E+04  9.367854E+03
       137   3 -3.308279E+05 -7.872561E+04 -3.995479E+04 -2.516396E+04  2.700565E+04  8.328305E+03
       137   4 -3.213136E+04  9.235071E+04  1.177122E+05 -1.388351E+04  8.045957E+04  3.229297E+03
       137   5 -4.886697E+04 -1.537398E+04  5.118367E+04 -2.539559E+03  5.273756E+04  9.367821E+03
       137   6 -3.213335E+04 -4.488029E+03  3.239864E+04 -1.379273E+04  2.502154E+04  8.327452E+03
       137   7  3.189461E+05  1.798613E+05  2.045644E+05 -3.924135E+04  8.470538E+04  3.229936E+03
       137   8  2.757982E+05  6.524292E+04  1.297110E+05 -9.530001E+03  5.386722E+04  9.367762E+03
       137   9  2.666430E+05  6.974349E+04  1.047457E+05 -2.416021E+03  2.303648E+04  8.326526E+03
       137  10 -3.831017E+05  4.831785E+03  3.084023E+04  1.145976E+04  1.205452E-09 -1.250147E-09
       137  11 -3.734386E+05 -9.599921E+04 -2.735638E+04  4.446808E+03 -1.030502E-09 -3.898051E-10
       137  12 -3.308287E+05 -7.872588E+04 -3.995629E+04 -2.516414E+04 -3.258162E-09 -4.253381E-10
       137  13 -3.213831E+04  9.234896E+04  1.177000E+05 -1.388372E+04  1.186925E-09  6.195634E-10
       137  14 -4.886998E+04 -1.537482E+04  5.117828E+04 -2.539957E+03 -2.219252E-09 -2.422896E-10
       137  15 -3.213404E+04 -4.488272E+03  3.239734E+04 -1.379290E+04  3.165389E-09 -8.178607E-10
       137  16  3.189384E+05  1.798594E+05  2.045509E+05 -3.924157E+04  2.479730E-11  8.196475E-10
       137  17  2.757950E+05  6.524204E+04  1.297054E+05 -9.530408E+03 -2.007127E-09  3.264411E-10
       137  18  2.666424E+05  6.974328E+04  1.047446E+05 -2.416176E+03  5.219897E-10  6.519695E-10
       137  19 -3.830954E+05  4.833357E+03  3.085117E+04  1.145996E+04 -7.621616E+04 -3.228312E+03
       137  20 -3.734357E+05 -9.599840E+04 -2.735121E+04  4.447197E+03 -5.160848E+04 -9.367854E+03
       137  21 -3.308279E+05 -7.872561E+04 -3.995479E+04 -2.516396E+04 -2.700565E+04 -8.328305E+03
       137  22 -3.213136E+04  9.235071E+04  1.177122E+05 -1.388351E+04 -8.045957E+04 -3.229297E+03
       137  23 -4.886697E+04 -1.537398E+04  5.118367E+04 -2.539559E+03 -5.273756E+04 -9.367821E+03
       137  24 -3.213335E+04 -4.488029E+03  3.239864E+04 -1.379273E+04 -2.502154E+04 -8.327452E+03
       137  25  3.189461E+05  1.798613E+05  2.045644E+05 -3.924135E+04 -8.470538E+04 -3.229936E+03
       137  26  2.757982E+05  6.524292E+04  1.297110E+05 -9.530001E+03 -5.386722E+04 -9.367762E+03
       137  27  2.666430E+05  6.974349E+04  1.047457E+05 -2.416021E+03 -2.303648E+04 -8.326526E+03
       138   1 -2.949871E+05 -5.304669E+04 -3.571052E+04 -1.120940E+04  1.992439E+04  6.692024E+03
       138   2 -2.710897E+05 -5.905464E+04 -4.253873E+04 -1.865989E+03  1.336473E+04  6.325316E+03
       138   3 -2.427931E+05 -5.127993E+04 -4.162840E+04 -1.523011E+04  6.804578E+03  5.322350E+03
       138   4 -3.857594E+04  1.068964E+04  2.652395E+04 -1.384699E+04  1.991011E+04  6.691751E+03
       138   5 -4.079788E+04 -1.827057E+03  1.326649E+04 -2.491349E+03  1.307312E+04  6.325067E+03
       138   6 -3.857484E+04 -5.158316E+02  7.937839E+03 -1.384263E+04  6.235915E+03  5.322189E+03
       138   7  2.178953E+05  7.442116E+04  8.875367E+04 -1.648567E+04  1.989583E+04  6.691478E+03
       138   8  1.895424E+05  5.539664E+04  6.906788E+04 -3.116944E+03  1.278141E+04  6.324818E+03
       138   9  1.656815E+05  5.024521E+04  5.750107E+04 -1.245469E+04  5.667065E+03  5.322025E+03
       138  10 -2.949875E+05 -5.304685E+04 -3.571135E+04 -1.120951E+04 -1.381648E-09 -2.060687E-11
       138  11 -2.710900E+05 -5.905473E+04 -4.253914E+04 -1.866058E+03  1.682066E-09 -8.279841E-11
       138  12 -2.427931E+05 -5.127997E+04 -4.162854E+04 -1.523014E+04 -2.399226E-09 -3.909353E-10
       138  13 -3.857637E+04  1.068948E+04  2.652312E+04 -1.384709E+04 -1.026535E-09  7.105513E-10
       138  14 -4.079808E+04 -1.827146E+03  1.326609E+04 -2.491415E+03 -2.735926E-09  3.863717E-10
       138  15 -3.857489E+04 -5.158725E+02  7.937712E+03 -1.384266E+04 -5.092957E-09 -5.612141E-10
       138  16  2.178949E+05  7.442101E+04  8.875285E+04 -1.648578E+04 -7.218615E-10  2.700319E-10
       138  17  1.895423E+05  5.539655E+04  6.906750E+04 -3.117009E+03  6.901584E-10  2.611522E-10
       138  18  1.656814E+05  5.024517E+04  5.750095E+04 -1.245472E+04  4.617211E-10 -5.994629E-10
       138  19 -2.949871E+05 -5.304669E+04 -3.571052E+04 -1.120940E+04 -1.992439E+04 -6.692024E+03
       138  20 -2.710897E+05 -5.905464E+04 -4.253873E+04 -1.865989E+03 -1.336473E+04 -6.325316E+03
       138  21 -2.427931E+05 -5.127993E+04 -4.162840E+04 -1.523011E+04 -6.804578E+03 -5.322350E+03
       138  22 -3.857594E+04  1.068964E+04  2.652395E+04 -1.384699E+04 -1.991011E+04 -6.691751E+03
       138  23 -4.079788E+04 -1.827057E+03  1.326649E+04 -2.491349E+03 -1.307312E+04 -6.325067E+03
       138  24 -3.857484E+04 -5.158316E+02  7.937839E+03 -1.384263E+04 -6.235915E+03 -5.322189E+03
       138  25  2.178953E+05  7.442116E+04  8.875367E+04 -1.648567E+04 -1.989583E+04 -6.691478E+03
       138  26  1.895424E+05  5.539664E+04  6.906788E+04 -3.116944E+03 -1.278141E+04 -6.324818E+03
       138  27  1.656815E+05  5.024521E+04  5.750107E+04 -1.245469E+04 -5.667065E+03 -5.322025E+03
       139   1 -2.012634E+05 -3.898895E+04 -3.294693E+04 -1.361019E+04  5.373663E+03  4.647256E+03
       139   2 -1.754502E+05 -3.394343E+04 -2.962677E+04 -2.439067E+03  3.753381E+03  3.703919E+03
       139   3 -1.490006E+05 -2.730198E+04 -2.484720E+04 -1.401562E+04  2.132737E+03  2.703821E+03
       139   4 -3.941576E+04  1.217261E+03  6.213608E+03 -1.385286E+04  4.979349E+03  4.647161E+03
       139   5 -3.973541E+04 -2.188136E+02  3.264363E+03 -2.479170E+03  3.334153E+03  3.703888E+03
       139   6 -3.941487E+04 -5.471161E+01  1.791660E+03 -1.385284E+04  1.688662E+03  2.703860E+03
       139   7  1.224559E+05  4.142155E+04  4.537227E+04 -1.409559E+04  4.584933E+03  4.647067E+03
       139   8  9.599617E+04  3.350445E+04  3.615417E+04 -2.519281E+03  2.914833E+03  3.703856E+03
       139   9  7.018179E+04  2.719167E+04  2.842965E+04 -1.369003E+04  1.244509E+03  2.703898E+03
       139  10 -2.012635E+05 -3.898898E+04 -3.294703E+04 -1.361021E+04 -1.566522E-09  1.382837E-10
       139  11 -1.754502E+05 -3.394345E+04 -2.962682E+04 -2.439078E+03  9.209865E-10  6.829724E-10
       139  12 -1.490006E+05 -2.730199E+04 -2.484722E+04 -1.401563E+04  6.781393E-12 -4.759293E-10
       139  13 -3.941579E+04  1.217231E+03  6.213521E+03 -1.385287E+04 -1.053896E-09 -1.625564E-10
       139  14 -3.973542E+04 -2.188313E+02  3.264316E+03 -2.479180E+03 -5.362962E-10  4.742054E-10
       139  15 -3.941487E+04 -5.472022E+01  1.791641E+03 -1.385285E+04  1.604927E-10  1.658097E-10
       139  16  1.224558E+05  4.142152E+04  4.537219E+04 -1.409561E+04  1.561338E-09 -4.534862E-10
       139  17  9.599615E+04  3.350444E+04  3.615413E+04 -2.519290E+03 -5.944375E-10  4.342665E-10
       139  18  7.018179E+04  2.719166E+04  2.842963E+04 -1.369004E+04 -1.427745E-09  1.828867E-10
       139  19 -2.012634E+05 -3.898895E+04 -3.294693E+04 -1.361019E+04 -5.373663E+03 -4.647256E+03
       139  20 -1.754502E+05 -3.394343E+04 -2.962677E+04 -2.439067E+03 -3.753381E+03 -3.703919E+03
       139  21 -1.490006E+05 -2.730198E+04 -2.484720E+04 -1.401562E+04 -2.132737E+03 -2.703821E+03
       139  22 -3.941576E+04  1.217261E+03  6.213608E+03 -1.385286E+04 -4.979349E+03 -4.647161E+03
       139  23 -3.973541E+04 -2.188136E+02  3.264363E+03 -2.479170E+03 -3.334153E+03 -3.703888E+03
       139  24 -3.941487E+04 -5.471161E+01  1.791660E+03 -1.385284E+04 -1.688662E+03 -2.703860E+03
       139  25  1.224559E+05  4.142155E+04  4.537227E+04 -1.409559E+04 -4.584933E+03 -4.647067E+03
       139  26  9.599617E+04  3.350445E+04  3.615417E+04 -2.519281E+03 -2.914833E+03 -3.703856E+03
       139  27  7.018179E+04  2.719167E+04  2.842965E+04 -1.369003E+04 -1.244509E+03 -2.703898E+03
       140   1 -1.067065E+05 -1.653423E+04 -1.491909E+04 -1.384361E+04  1.841777E+03  2.113388E+03
       140   2 -8.058429E+04 -1.020967E+04 -9.514215E+03 -2.479663E+03  1.630760E+03  1.118179E+03
       140   3 -5.440542E+04 -3.737431E+03 -3.936881E+03 -1.388300E+04  1.419632E+03  1.182310E+02
       140   4 -3.954248E+04  1.392982E+02  1.278832E+03 -1.385722E+04  1.412991E+03  2.113455E+03
       140   5 -3.957033E+04 -1.840079E+01  4.253902E+02 -2.473643E+03  1.199883E+03  1.118265E+03
       140   6 -3.954219E+04 -2.811519E+01 -2.542338E+02 -1.385725E+04  9.866732E+02  1.183387E+02
       140   7  2.762565E+04  1.681250E+04  1.747643E+04 -1.387083E+04  9.841590E+02  2.113523E+03
       140   8  1.445165E+03  1.017275E+04  1.036487E+04 -2.467623E+03  7.689782E+02  1.118351E+03
       140   9 -2.467876E+04  3.681185E+03  3.428397E+03 -1.383151E+04  5.537041E+02  1.184464E+02
       140  10 -1.067065E+05 -1.653423E+04 -1.491910E+04 -1.384362E+04 -3.592508E-10 -5.824809E-10
       140  11 -8.058429E+04 -1.020968E+04 -9.514222E+03 -2.479665E+03 -3.093439E-09  3.940739E-10
       140  12 -5.440542E+04 -3.737432E+03 -3.936885E+03 -1.388300E+04 -1.312901E-09  1.951313E-10
       140  13 -3.954249E+04  1.392928E+02  1.278820E+03 -1.385722E+04 -1.097406E-09 -3.231026E-10
       140  14 -3.957033E+04 -1.840252E+01  4.253851E+02 -2.473644E+03  2.015117E-11  4.233430E-10
       140  15 -3.954219E+04 -2.811547E+01 -2.542357E+02 -1.385725E+04 -3.392174E-09  4.065253E-11
       140  16  2.762565E+04  1.681249E+04  1.747642E+04 -1.387083E+04  3.565923E-10 -1.231335E-10
       140  17  1.445164E+03  1.017275E+04  1.036487E+04 -2.467623E+03  1.762028E-09  3.697497E-10
       140  18 -2.467876E+04  3.681185E+03  3.428397E+03 -1.383151E+04  7.376808E-11  6.057737E-10
       140  19 -1.067065E+05 -1.653423E+04 -1.491909E+04 -1.384361E+04 -1.841777E+03 -2.113388E+03
       140  20 -8.058429E+04 -1.020967E+04 -9.514215E+03 -2.479663E+03 -1.630760E+03 -1.118179E+03
       140  21 -5.440542E+04 -3.737431E+03 -3.936881E+03 -1.388300E+04 -1.419632E+03 -1.182310E+02
       140  22 -3.954248E+04  1.392982E+02  1.278832E+03 -1.385722E+04 -1.412991E+03 -2.113455E+03
       140  23 -3.957033E+04 -1.840079E+01  4.253902E+02 -2.473643E+03 -1.199883E+03 -1.118265E+03
       140  24 -3.954219E+04 -2.811519E+01 -2.542338E+02 -1.385725E+04 -9.866732E+02 -1.183387E+02
       140  25  2.762565E+04  1.681250E+04  1.747643E+04 -1.387083E+04 -9.841590E+02 -2.113523E+03
       140  26  1.445165E+03  1.017275E+04  1.036487E+04 -2.467623E+03 -7.689782E+02 -1.118351E+03
       140  27 -2.467876E+04  3.681185E+03  3.428397E+03 -1.383151E+04 -5.537041E+02 -1.184464E+02
       141   1 -1.202020E+04  6.900400E+03  6.162586E+03 -1.391270E+04  1.496628E+03 -4.655393E+02
       141   2  1.422434E+04  1.339972E+04  1.154704E+04 -2.496228E+03  2.228900E+03 -1.465534E+03
       141   3  4.028274E+04  1.955833E+04  1.636810E+04 -1.384525E+04  2.961331E+03 -2.460610E+03
       141   4 -3.959638E+04  3.229979E+01 -6.008279E+02 -1.385687E+04  1.063591E+03 -4.654337E+02
       141   5 -3.950299E+04  5.013863E+01 -1.472898E+03 -2.474091E+03  1.797915E+03 -1.465456E+03
       141   6 -3.959677E+04 -2.730771E+02 -2.909817E+03 -1.385693E+04  2.532369E+03 -2.460557E+03
       141   7 -6.717187E+04 -6.835856E+03 -7.364297E+03 -1.380105E+04  6.305730E+02 -4.653282E+02
       141   8 -9.322769E+04 -1.329966E+04 -1.449305E+04 -2.451956E+03  1.366968E+03 -1.465378E+03
       141   9 -1.194705E+05 -2.010495E+04 -2.218819E+04 -1.386861E+04  2.103462E+03 -2.460504E+03
       141  10 -1.202020E+04  6.900399E+03  6.162581E+03 -1.391270E+04  2.061972E-10 -8.801969E-11
       141  11  1.422433E+04  1.339972E+04  1.154703E+04 -2.496225E+03 -2.332078E-09 -3.629556E-10
       141  12  4.028273E+04  1.955832E+04  1.636807E+04 -1.384525E+04 -2.831070E-10  1.171940E-10
       141  13 -3.959638E+04  3.229925E+01 -6.008305E+02 -1.385687E+04  2.094620E-09 -3.728422E-10
       141  14 -3.950300E+04  5.013546E+01 -1.472908E+03 -2.474089E+03  1.599151E-09 -6.428434E-10
       141  15 -3.959678E+04 -2.730853E+02 -2.909841E+03 -1.385693E+04 -9.554363E-10 -3.806105E-10
       141  16 -6.717187E+04 -6.835857E+03 -7.364298E+03 -1.380105E+04 -1.332366E-09  2.589356E-10
       141  17 -9.322769E+04 -1.329966E+04 -1.449306E+04 -2.451955E+03 -2.258238E-09 -1.840252E-10
       141  18 -1.194705E+05 -2.010496E+04 -2.218821E+04 -1.386860E+04 -7.864387E-10 -6.582860E-10
       141  19 -1.202020E+04  6.900400E+03  6.162586E+03 -1.391270E+04 -1.496628E+03  4.655393E+02
       141  20  1.422434E+04  1.339972E+04  1.154704E+04 -2.496228E+03 -2.228900E+03  1.465534E+03
       141  21  4.028274E+04  1.955833E+04  1.636810E+04 -1.384525E+04 -2.961331E+03  2.460610E+03
       141  22 -3.959638E+04  3.229979E+01 -6.008279E+02 -1.385687E+04 -1.063591E+03  4.654337E+02
       141  23 -3.950299E+04  5.013863E+01 -1.472898E+03 -2.474091E+03 -1.797915E+03  1.465456E+03
       141  24 -3.959677E+04 -2.730771E+02 -2.909817E+03 -1.385693E+04 -2.532369E+03  2.460557E+03
       141  25 -6.717187E+04 -6.835856E+03 -7.364297E+03 -1.380105E+04 -6.305730E+02  4.653282E+02
       141  26 -9.322769E+04 -1.329966E+04 -1.449305E+04 -2.451956E+03 -1.366968E+03  1.465378E+03
       141  27 -1.194705E+05 -2.010495E+04 -2.218819E+04 -1.386861E+04 -2.103462E+03  2.460504E+03
       142   1  8.247997E+04  3.052159E+04  2.587815E+04 -1.421422E+04  3.582714E+03 -3.051169E+03
       142   2  1.092107E+05  3.730613E+04  2.930001E+04 -2.404336E+03  6.916171E+03 -4.050634E+03
       142   3  1.347431E+05  4.089764E+04  2.976040E+04 -1.334139E+04  1.025005E+04 -4.990729E+03
       142   4 -3.982511E+04  1.177221E+02 -3.839277E+03 -1.385284E+04  3.137749E+03 -3.051149E+03
       142   5 -3.922397E+04  4.270093E+02 -6.667867E+03 -2.479137E+03  6.496129E+03 -4.050691E+03
       142   6 -3.982624E+04 -2.461400E+03 -1.247567E+04 -1.385272E+04  9.854795E+03 -4.990860E+03
       142   7 -1.621165E+05 -3.028725E+04 -3.355779E+04 -1.349153E+04  2.692873E+03 -3.051128E+03
       142   8 -1.876386E+05 -3.645372E+04 -4.263733E+04 -2.553920E+03  6.076188E+03 -4.050748E+03
       142   9 -2.143677E+05 -4.582267E+04 -5.471392E+04 -1.436391E+04  9.459647E+03 -4.990990E+03
       142  10  8.247995E+04  3.052158E+04  2.587811E+04 -1.421421E+04 -3.782630E-10 -8.288082E-11
       142  11  1.092107E+05  3.730610E+04  2.929989E+04 -2.404314E+03  1.471013E-09 -1.886730E-10
       142  12  1.347430E+05  4.089758E+04  2.976015E+04 -1.334135E+04  4.244312E-09  2.737205E-10
       142  13 -3.982513E+04  1.177095E+02 -3.839313E+03 -1.385283E+04  1.063072E-09 -1.554432E-10
       142  14 -3.922402E+04  4.269803E+02 -6.667977E+03 -2.479116E+03  1.090256E-09  1.578709E-10
       142  15 -3.982635E+04 -2.461453E+03 -1.247590E+04 -1.385268E+04 -1.064177E-09  1.356156E-10
       142  16 -1.621166E+05 -3.028726E+04 -3.355782E+04 -1.349153E+04  4.558529E-10 -1.452468E-10
       142  17 -1.876386E+05 -3.645375E+04 -4.263743E+04 -2.553900E+03 -4.491688E-10  5.473262E-10
       142  18 -2.143678E+05 -4.582272E+04 -5.471413E+04 -1.436387E+04 -4.217781E-09  1.323974E-10
       142  19  8.247997E+04  3.052159E+04  2.587815E+04 -1.421422E+04 -3.582714E+03  3.051169E+03
       142  20  1.092107E+05  3.730613E+04  2.930001E+04 -2.404336E+03 -6.916171E+03  4.050634E+03
       142  21  1.347431E+05  4.089764E+04  2.976040E+04 -1.334139E+04 -1.025005E+04  4.990729E+03
       142  22 -3.982511E+04  1.177221E+02 -3.839277E+03 -1.385284E+04 -3.137749E+03  3.051149E+03
       142  23 -3.922397E+04  4.270093E+02 -6.667867E+03 -2.479137E+03 -6.496129E+03  4.050691E+03
       142  24 -3.982624E+04 -2.461400E+03 -1.247567E+04 -1.385272E+04 -9.854795E+03  4.990860E+03
       142  25 -1.621165E+05 -3.028725E+04 -3.355779E+04 -1.349153E+04 -2.692873E+03  3.051128E+03
       142  26 -1.876386E+05 -3.645372E+04 -4.263733E+04 -2.553920E+03 -6.076188E+03  4.050748E+03
       142  27 -2.143677E+05 -4.582267E+04 -5.471392E+04 -1.436391E+04 -9.459647E+03  4.990990E+03
       143   1  1.754856E+05  5.492437E+04  3.676023E+04 -1.655385E+04  1.294806E+04 -5.667210E+03
       143   2  2.058397E+05  6.397822E+04  3.237291E+04 -1.083020E+03  2.632188E+04 -6.660352E+03
       143   3  2.276817E+05  4.549445E+04  1.242072E+04 -8.292398E+03  3.969655E+04 -6.989779E+03
       143   4 -4.146717E+04  1.010798E+03 -1.587903E+04 -1.384098E+04  1.237135E+04 -5.667372E+03
       143   5 -3.718498E+04  3.602520E+03 -2.650208E+04 -2.495430E+03  2.602711E+04 -6.660679E+03
       143   6 -4.146888E+04 -2.139854E+04 -5.289045E+04 -1.383088E+04  3.968316E+04 -6.990331E+03
       143   7 -2.583769E+05 -5.290620E+04 -6.852169E+04 -1.112906E+04  1.179484E+04 -5.667540E+03
       143   8 -2.801557E+05 -5.677751E+04 -8.538132E+04 -3.907289E+03  2.573245E+04 -6.661005E+03
       143   9 -3.105533E+05 -8.829675E+04 -1.182068E+05 -1.936697E+04  3.966978E+04 -6.990883E+03
       143  10  1.754854E+05  5.492429E+04  3.675986E+04 -1.655379E+04 -4.871355E-09  2.899051E-10
       143  11  2.058390E+05  6.397799E+04  3.237153E+04 -1.082879E+03 -4.057211E-09 -4.854864E-10
       143  12  2.276800E+05  4.549398E+04  1.241766E+04 -8.292175E+03  7.306967E-10 -9.253054E-10
       143  13 -4.146735E+04  1.010722E+03 -1.587938E+04 -1.384092E+04 -2.118626E-09  2.315958E-11
       143  14 -3.718572E+04  3.602291E+03 -2.650343E+04 -2.495290E+03  5.146099E-10 -4.161202E-10
       143  15 -4.147059E+04 -2.139902E+04 -5.289350E+04 -1.383066E+04 -2.270322E-09 -6.446785E-10
       143  16 -2.583771E+05 -5.290627E+04 -6.852201E+04 -1.112901E+04  3.849343E-09 -1.405001E-10
       143  17 -2.801565E+05 -5.677773E+04 -8.538265E+04 -3.907151E+03  2.077196E-09  6.116120E-10
       143  18 -3.105550E+05 -8.829722E+04 -1.182099E+05 -1.936675E+04 -1.354365E-09 -9.925681E-11
       143  19  1.754856E+05  5.492437E+04  3.676023E+04 -1.655385E+04 -1.294806E+04  5.667210E+03
       143  20  2.058397E+05  6.397822E+04  3.237291E+04 -1.083020E+03 -2.632188E+04  6.660352E+03
       143  21  2.276817E+05  4.549445E+04  1.242072E+04 -8.292398E+03 -3.969655E+04  6.989779E+03
       143  22 -4.146717E+04  1.010798E+03 -1.587903E+04 -1.384098E+04 -1.237135E+04  5.667372E+03
       143  23 -3.718498E+04  3.602520E+03 -2.650208E+04 -2.495430E+03 -2.602711E+04  6.660679E+03
       143  24 -4.146888E+04 -2.139854E+04 -5.289045E+04 -1.383088E+04 -3.968316E+04  6.990331E+03
       143  25 -2.583769E+05 -5.290620E+04 -6.852169E+04 -1.112906E+04 -1.179484E+04  5.667540E+03
       143  26 -2.801557E+05 -5.677751E+04 -8.538132E+04 -3.907289E+03 -2.573245E+04  6.661005E+03
       143  27 -3.105533E+05 -8.829675E+04 -1.182068E+05 -1.936697E+04 -3.966978E+04  6.990883E+03
       144   1  2.572854E+05  8.622775E+04  1.085422E+04 -3.610392E+04  5.192799E+04 -8.648053E+03
       144   2  3.160723E+05  1.143469E+05 -2.046497E+04  1.197152E+04  1.040097E+05 -9.600683E+03
       144   3  3.093725E+05 -9.334297E+04 -1.445691E+05  3.776433E+04  1.560872E+05 -3.083729E+03
       144   4 -5.425625E+04  8.874652E+03 -6.457586E+04 -1.380807E+04  4.986952E+04 -8.647730E+03
       144   5 -2.121402E+04  3.055536E+04 -1.020549E+05 -2.567809E+03  1.051503E+05 -9.602441E+03
       144   6 -5.425424E+04 -1.842023E+05 -2.345774E+05 -1.361050E+04  1.604245E+05 -3.091961E+03
       144   7 -3.657081E+05 -6.848367E+04 -1.400126E+05  8.476552E+03  4.781208E+04 -8.647555E+03
       144   8 -3.583959E+05 -5.324377E+04 -1.836529E+05 -1.709924E+04  1.062903E+05 -9.604254E+03
       144   9 -4.177552E+05 -2.750617E+05 -3.245940E+05 -6.495524E+04  1.647592E+05 -3.100916E+03
       144  10  2.572825E+05  8.622694E+04  1.084901E+04 -3.610356E+04  1.040778E-09 -1.696595E-09
       144  11  3.160606E+05  1.143439E+05 -2.048546E+04  1.197232E+04  5.280632E-10 -3.389792E-09
       144  12  3.093463E+05 -9.334952E+04 -1.446149E+05  3.776471E+04 -1.572470E-09 -1.197936E-09
       144  13 -5.425894E+04  8.873904E+03 -6.458067E+04 -1.380772E+04 -9.551531E-10 -3.431088E-09
       144  14 -2.122592E+04  3.055229E+04 -1.020759E+05 -2.566996E+03  1.565714E-09  9.432183E-10
       144  15 -5.428189E+04 -1.842093E+05 -2.346258E+05 -1.361010E+04 -6.085579E-10 -2.881734E-10
       144  16 -3.657106E+05 -6.848437E+04 -1.400171E+05  8.476885E+03 -1.117981E-09 -8.933102E-10
       144  17 -3.584081E+05 -5.324691E+04 -1.836743E+05 -1.709841E+04 -6.868504E-11  4.255975E-10
       144  18 -4.177844E+05 -2.750690E+05 -3.246451E+05 -6.495483E+04  1.725821E-09 -1.227486E-09
       144  19  2.572854E+05  8.622775E+04  1.085422E+04 -3.610392E+04 -5.192799E+04  8.648053E+03
       144  20  3.160723E+05  1.143469E+05 -2.046497E+04  1.197152E+04 -1.040097E+05  9.600683E+03
       144  21  3.093725E+05 -9.334297E+04 -1.445691E+05  3.776433E+04 -1.560872E+05  3.083729E+03
       144  22 -5.425625E+04  8.874652E+03 -6.457586E+04 -1.380807E+04 -4.986952E+04  8.647730E+03
       144  23 -2.121402E+04  3.055536E+04 -1.020549E+05 -2.567809E+03 -1.051503E+05  9.602441E+03
       144  24 -5.425424E+04 -1.842023E+05 -2.345774E+05 -1.361050E+04 -1.604245E+05  3.091961E+03
       144  25 -3.657081E+05 -6.848367E+04 -1.400126E+05  8.476552E+03 -4.781208E+04  8.647555E+03
       144  26 -3.583959E+05 -5.324377E+04 -1.836529E+05 -1.709924E+04 -1.062903E+05  9.604254E+03
       144  27 -4.177552E+05 -2.750617E+05 -3.245940E+05 -6.495524E+04 -1.647592E+05  3.100916E+03
       145   1  3.439487E+05  8.541605E+05  3.511494E+05 -1.500072E+05  1.026838E+04  4.847395E+04
       145   2  2.326950E+05  5.832018E+05  2.514483E+05 -2.875811E+04  2.800653E+04  2.624875E+04
       145   3  1.720493E+05  3.280919E+05  1.789118E+05 -1.354550E+05  1.814214E+04  3.974992E+03
       145   4  3.803555E+04 -3.720709E+05  4.759844E+04 -1.382446E+05  1.029201E+04  3.480935E+04
       145   5 -6.236931E+03 -3.789129E+05  1.884897E+04 -2.429568E+04  2.801318E+04  2.454269E+04
       145   6 -1.927873E+03 -3.720119E+05  8.999170E+03 -1.383117E+05  1.811349E+04  1.421796E+04
       145   7 -2.679895E+05 -1.596937E+06 -2.560637E+05 -1.265045E+05  1.031514E+04  2.117163E+04
       145   8 -2.452366E+05 -1.340182E+06 -2.138168E+05 -1.983970E+04  2.801981E+04  2.283924E+04
       145   9 -1.759409E+05 -1.071668E+06 -1.609484E+05 -1.411648E+05  1.808473E+04  2.444941E+04
       145  10  3.439479E+05  8.541580E+05  3.511448E+05 -1.500076E+05  8.147029E-10  1.690864E-09
       145  11  2.326940E+05  5.832008E+05  2.514456E+05 -2.875871E+04  5.306342E-10  1.060208E-09
       145  12  1.720489E+05  3.280918E+05  1.789111E+05 -1.354550E+05  4.710559E-10  4.391524E-10
       145  13  3.803511E+04 -3.720723E+05  4.759596E+04 -1.382449E+05 -7.465917E-10  2.544343E-11
       145  14 -6.237935E+03 -3.789137E+05  1.884636E+04 -2.429623E+04  2.680897E-09  1.094905E-09
       145  15 -1.928279E+03 -3.720122E+05  8.998173E+03 -1.383119E+05 -1.738579E-09  3.784691E-10
       145  16 -2.679897E+05 -1.596937E+06 -2.560648E+05 -1.265046E+05  9.806108E-10 -2.428760E-09
       145  17 -2.452376E+05 -1.340182E+06 -2.138193E+05 -1.984022E+04  2.913375E-09  6.318575E-11
       145  18 -1.759415E+05 -1.071669E+06 -1.609502E+05 -1.411652E+05  9.019463E-10  1.839180E-09
       145  19  3.439487E+05  8.541605E+05  3.511494E+05 -1.500072E+05 -1.026838E+04 -4.847395E+04
       145  20  2.326950E+05  5.832018E+05  2.514483E+05 -2.875811E+04 -2.800653E+04 -2.624875E+04
       145  21  1.720493E+05  3.280919E+05  1.789118E+05 -1.354550E+05 -1.814214E+04 -3.974992E+03
       145  22  3.803555E+04 -3.720709E+05  4.759844E+04 -1.382446E+05 -1.029201E+04 -3.480935E+04
       145  23 -6.236931E+03 -3.789129E+05  1.884897E+04 -2.429568E+04 -2.801318E+04 -2.454269E+04
       145  24 -1.927873E+03 -3.720119E+05  8.999170E+03 -1.383117E+05 -1.811349E+04 -1.421796E+04
       145  25 -2.679895E+05 -1.596937E+06 -2.560637E+05 -1.265045E+05 -1.031514E+04 -2.117163E+04
       145  26 -2.452366E+05 -1.340182E+06 -2.138168E+05 -1.983970E+04 -2.801981E+04 -2.283924E+04
       145  27 -1.759409E+05 -1.071668E+06 -1.609484E+05 -1.411648E+05 -1.808473E+04 -2.444941E+04
       146   1  7.313775E+04 -1.032163E+05  7.105818E+04 -1.392590E+05  7.836915E+03  9.677724E+03
       146   2  2.957137E+03 -3.654398E+05 -2.150492E+03 -2.470165E+04  2.039991E+02  1.184557E+04
       146   3 -7.069923E+04 -6.304253E+05 -7.800594E+04 -1.395269E+05 -7.462588E+03  1.401221E+04
       146   4  5.472128E+03 -3.755697E+05  5.164999E+03 -1.385849E+05  7.826882E+03  1.296236E+04
       146   5  7.840595E+02 -3.741590E+05 -4.264702E+03 -2.391291E+04  1.939912E+02  1.514569E+04
       146   6 -7.376078E+03 -3.755727E+05 -1.634402E+04 -1.386238E+05 -7.472753E+03  1.732873E+04
       146   7 -6.219892E+04 -6.478554E+05 -6.073347E+04 -1.379111E+05  7.816853E+03  1.624555E+04
       146   8 -1.389015E+03 -3.828780E+05 -6.378876E+03 -2.312419E+04  1.839915E+02  1.844576E+04
       146   9  5.594233E+04 -1.206606E+05  4.531327E+04 -1.377203E+05 -7.482907E+03  2.064661E+04
       146  10  7.313766E+04 -1.032164E+05  7.105789E+04 -1.392591E+05  1.678568E-10  4.435604E-09
       146  11  2.957099E+03 -3.654400E+05 -2.150756E+03 -2.470165E+04  2.819026E-09  3.061361E-09
       146  12 -7.069934E+04 -6.304256E+05 -7.800641E+04 -1.395268E+05 -1.578371E-09  5.227868E-10
       146  13  5.472017E+03 -3.755699E+05  5.164568E+03 -1.385850E+05  2.608001E-09  1.992256E-11
       146  14  7.839979E+02 -3.741592E+05 -4.265133E+03 -2.391292E+04  3.214181E-09  1.593282E-09
       146  15 -7.376218E+03 -3.755730E+05 -1.634469E+04 -1.386237E+05 -3.247119E-09  4.116844E-10
       146  16 -6.219906E+04 -6.478557E+05 -6.073408E+04 -1.379112E+05  2.123835E-09 -6.077581E-09
       146  17 -1.389107E+03 -3.828784E+05 -6.379516E+03 -2.312419E+04  1.827258E-09 -1.402148E-09
       146  18  5.594215E+04 -1.206611E+05  4.531236E+04 -1.377202E+05 -1.230735E-09  2.115758E-09
       146  19  7.313775E+04 -1.032163E+05  7.105818E+04 -1.392590E+05 -7.836915E+03 -9.677724E+03
       146  20  2.957137E+03 -3.654398E+05 -2.150492E+03 -2.470165E+04 -2.039991E+02 -1.184557E+04
       146  21 -7.069923E+04 -6.304253E+05 -7.800594E+04 -1.395269E+05  7.462588E+03 -1.401221E+04
       146  22  5.472128E+03 -3.755697E+05  5.164999E+03 -1.385849E+05 -7.826882E+03 -1.296236E+04
       146  23  7.840595E+02 -3.741590E+05 -4.264702E+03 -2.391291E+04 -1.939912E+02 -1.514569E+04
       146  24 -7.376078E+03 -3.755727E+05 -1.634402E+04 -1.386238E+05  7.472753E+03 -1.732873E+04
       146  25 -6.219892E+04 -6.478554E+05 -6.073347E+04 -1.379111E+05 -7.816853E+03 -1.624555E+04
       146  26 -1.389015E+03 -3.828780E+05 -6.378876E+03 -2.312419E+04 -1.839915E+02 -1.844576E+04
       146  27  5.594233E+04 -1.206606E+05  4.531327E+04 -1.377203E+05  7.482907E+03 -2.064661E+04
       147   1 -1.651780E+05 -1.062576E+06 -1.870842E+05 -1.285602E+05 -1.769627E+04  1.035901E+04
       147   2 -2.235380E+05 -1.312441E+06 -2.652092E+05 -2.806645E+04 -2.767045E+04  4.200973E+04
       147   3 -3.694404E+05 -1.588102E+06 -3.858524E+05 -1.557055E+05 -1.030949E+04  7.370470E+04
       147   4  4.594248E+03 -3.803407E+05 -2.133714E+04 -1.382771E+05 -1.772511E+04  2.053820E+04
       147   5  1.110237E+04 -3.684965E+05 -3.674919E+04 -2.428058E+04 -2.766387E+04  4.042725E+04
       147   6 -6.780833E+04 -3.804198E+05 -8.645429E+04 -1.384015E+05 -1.028441E+04  6.037447E+04
       147   7  1.743326E+05  3.023208E+05  1.443767E+05 -1.480044E+05 -1.775425E+04  3.072854E+04
       147   8  2.456775E+05  5.762641E+05  1.916468E+05 -2.048846E+04 -2.765732E+04  3.884232E+04
       147   9  2.337157E+05  8.285903E+05  2.128359E+05 -1.210631E+05 -1.026010E+04  4.701818E+04
       147  10 -1.651783E+05 -1.062577E+06 -1.870850E+05 -1.285601E+05 -4.404977E-09  1.204963E-09
       147  11 -2.235393E+05 -1.312443E+06 -2.652140E+05 -2.806551E+04 -5.038521E-10  1.085803E-09
       147  12 -3.694420E+05 -1.588108E+06 -3.858629E+05 -1.557049E+05  5.480024E-10  9.533535E-10
       147  13  4.593798E+03 -3.803412E+05 -2.133852E+04 -1.382768E+05 -3.745199E-09 -6.649580E-11
       147  14  1.110111E+04 -3.684984E+05 -3.675370E+04 -2.427968E+04  1.756033E-09  1.142594E-09
       147  15 -6.780942E+04 -3.804238E+05 -8.646134E+04 -1.384010E+05  5.780668E-10  1.377154E-10
       147  16  1.743320E+05  3.023197E+05  1.443743E+05 -1.480039E+05 -1.702083E-09 -2.714198E-09
       147  17  2.456763E+05  5.762623E+05  1.916425E+05 -2.048760E+04 -1.304210E-09  9.742551E-11
       147  18  2.337150E+05  8.285879E+05  2.128316E+05 -1.210627E+05  2.563562E-10  1.493453E-10
       147  19 -1.651780E+05 -1.062576E+06 -1.870842E+05 -1.285602E+05  1.769627E+04 -1.035901E+04
       147  20 -2.235380E+05 -1.312441E+06 -2.652092E+05 -2.806645E+04  2.767045E+04 -4.200973E+04
       147  21 -3.694404E+05 -1.588102E+06 -3.858524E+05 -1.557055E+05  1.030949E+04 -7.370470E+04
       147  22  4.594248E+03 -3.803407E+05 -2.133714E+04 -1.382771E+05  1.772511E+04 -2.053820E+04
       147  23  1.110237E+04 -3.684965E+05 -3.674919E+04 -2.428058E+04  2.766387E+04 -4.042725E+04
       147  24 -6.780833E+04 -3.804198E+05 -8.645429E+04 -1.384015E+05  1.028441E+04 -6.037447E+04
       147  25  1.743326E+05  3.023208E+05  1.443767E+05 -1.480044E+05  1.775425E+04 -3.072854E+04
       147  26  2.456775E+05  5.762641E+05  1.916468E+05 -2.048846E+04  2.765732E+04 -3.884232E+04
       147  27  2.337157E+05  8.285903E+05  2.128359E+05 -1.210631E+05  1.026010E+04 -4.701818E+04
       148   1 -1.417165E+06 -3.945311E+05 -2.201754E+05 -5.040101E+05 -9.871119E+04 -3.433949E+04
       148   2 -1.382256E+06 -2.414846E+05 -1.256777E+05 -5.128199E+05 -6.424910E+04 -1.596233E+04
       148   3 -1.391547E+06 -2.419568E+05 -9.661458E+04 -5.004489E+05 -2.765320E+04 -3.253391E+03
       148   4 -1.178667E+06 -2.764739E+05 -1.494706E+05 -4.103971E+05 -9.567728E+04 -3.320389E+04
       148   5 -1.149125E+06 -1.459193E+05 -6.192106E+04 -4.412921E+05 -6.349191E+04 -1.567886E+04
       148   6 -1.163310E+06 -1.684014E+05 -3.797966E+04 -4.510123E+05 -2.917365E+04 -3.824178E+03
       148   7 -9.401109E+05 -1.583998E+05 -7.877122E+04 -3.167474E+05 -9.264208E+04 -3.206746E+04
       148   8 -9.159399E+05 -5.034795E+04  1.830705E+03 -3.697389E+05 -6.273440E+04 -1.539525E+04
       148   9 -9.350218E+05 -9.484601E+04  2.065116E+04 -4.015608E+05 -3.069472E+04 -4.395120E+03
       148  10 -1.417175E+06 -3.945350E+05 -2.201959E+05 -5.040128E+05  2.173193E-09 -1.069686E-09
       148  11 -1.382261E+06 -2.414859E+05 -1.256860E+05 -5.128207E+05 -1.473736E-09 -1.866892E-09
       148  12 -1.391548E+06 -2.419570E+05 -9.661604E+04 -5.004489E+05 -4.084092E-09 -6.266698E-10
       148  13 -1.178677E+06 -2.764775E+05 -1.494899E+05 -4.103997E+05 -8.273645E-10 -1.108373E-09
       148  14 -1.149129E+06 -1.459207E+05 -6.192912E+04 -4.412929E+05  4.565512E-10 -2.492353E-09
       148  15 -1.163311E+06 -1.684017E+05 -3.798129E+04 -4.510124E+05 -1.727611E-09 -1.068055E-09
       148  16 -9.401204E+05 -1.584032E+05 -7.878931E+04 -3.167498E+05 -8.375412E-10 -5.130543E-10
       148  17 -9.159442E+05 -5.034926E+04  1.822851E+03 -3.697397E+05  2.490263E-09 -3.310212E-09
       148  18 -9.350228E+05 -9.484628E+04  2.064935E+04 -4.015609E+05  1.803479E-09  4.763438E-10
       148  19 -1.417165E+06 -3.945311E+05 -2.201754E+05 -5.040101E+05  9.871119E+04  3.433949E+04
       148  20 -1.382256E+06 -2.414846E+05 -1.256777E+05 -5.128199E+05  6.424910E+04  1.596233E+04
       148  21 -1.391547E+06 -2.419568E+05 -9.661458E+04 -5.004489E+05  2.765320E+04  3.253391E+03
       148  22 -1.178667E+06 -2.764739E+05 -1.494706E+05 -4.103971E+05  9.567728E+04  3.320389E+04
       148  23 -1.149125E+06 -1.459193E+05 -6.192106E+04 -4.412921E+05  6.349191E+04  1.567886E+04
       148  24 -1.163310E+06 -1.684014E+05 -3.797966E+04 -4.510123E+05  2.917365E+04  3.824178E+03
       148  25 -9.401109E+05 -1.583998E+05 -7.877122E+04 -3.167474E+05  9.264208E+04  3.206746E+04
       148  26 -9.159399E+05 -5.034795E+04  1.830705E+03 -3.697389E+05  6.273440E+04  1.539525E+04
       148  27 -9.350218E+05 -9.484601E+04  2.065116E+04 -4.015608E+05  3.069472E+04  4.395120E+03
       149   1 -1.338620E+06 -2.559616E+05 -7.998273E+04 -4.944674E+05 -2.315217E+04 -3.070995E+03
       149   2 -1.321619E+06 -2.240665E+05 -5.779822E+04 -4.830303E+05 -1.514220E+04 -4.457997E+02
       149   3 -1.297577E+06 -2.235164E+05 -4.610547E+04 -4.838261E+05 -6.921584E+03  1.618444E+03
       149   4 -1.158179E+06 -1.848578E+05 -3.103041E+04 -4.420848E+05 -2.317895E+04 -3.081310E+03
       149   5 -1.160801E+06 -1.627164E+05 -1.463228E+04 -4.384039E+05 -1.539330E+04 -5.401933E+02
       149   6 -1.156336E+06 -1.718725E+05 -8.545461E+03 -4.469563E+05 -7.397271E+03  1.439873E+03
       149   7 -9.777075E+05 -1.137515E+05  1.791886E+04 -3.896882E+05 -2.320575E+04 -3.091628E+03
       149   8 -9.999575E+05 -1.013645E+05  2.853136E+04 -3.937670E+05 -1.564446E+04 -6.346144E+02
       149   9 -1.015075E+06 -1.202275E+05  2.901291E+04 -4.100790E+05 -7.873078E+03  1.261259E+03
       149  10 -1.338621E+06 -2.559618E+05 -7.998375E+04 -4.944675E+05 -1.244248E-09  7.335126E-10
       149  11 -1.321619E+06 -2.240666E+05 -5.779865E+04 -4.830303E+05 -2.508875E-10 -7.472592E-10
       149  12 -1.297577E+06 -2.235165E+05 -4.610557E+04 -4.838260E+05 -1.089046E-09 -7.326829E-11
       149  13 -1.158180E+06 -1.848580E+05 -3.103144E+04 -4.420848E+05 -2.409859E-09  2.882260E-10
       149  14 -1.160801E+06 -1.627164E+05 -1.463273E+04 -4.384039E+05  2.043426E-09 -1.369320E-09
       149  15 -1.156336E+06 -1.718725E+05 -8.545568E+03 -4.469563E+05  2.858865E-10 -2.743006E-10
       149  16 -9.777081E+05 -1.137516E+05  1.791783E+04 -3.896883E+05 -1.299199E-10 -5.373645E-11
       149  17 -9.999578E+05 -1.013646E+05  2.853090E+04 -3.937670E+05  3.242246E-09 -8.440372E-10
       149  18 -1.015075E+06 -1.202275E+05  2.901279E+04 -4.100790E+05  1.383512E-10 -4.281288E-10
       149  19 -1.338620E+06 -2.559616E+05 -7.998273E+04 -4.944674E+05  2.315217E+04  3.070995E+03
       149  20 -1.321619E+06 -2.240665E+05 -5.779822E+04 -4.830303E+05  1.514220E+04  4.457997E+02
       149  21 -1.297577E+06 -2.235164E+05 -4.610547E+04 -4.838261E+05  6.921584E+03 -1.618444E+03
       149  22 -1.158179E+06 -1.848578E+05 -3.103041E+04 -4.420848E+05  2.317895E+04  3.081310E+03
       149  23 -1.160801E+06 -1.627164E+05 -1.463228E+04 -4.384039E+05  1.539330E+04  5.401933E+02
       149  24 -1.156336E+06 -1.718725E+05 -8.545461E+03 -4.469563E+05  7.397271E+03 -1.439873E+03
       149  25 -9.777075E+05 -1.137515E+05  1.791886E+04 -3.896882E+05  2.320575E+04  3.091628E+03
       149  26 -9.999575E+05 -1.013645E+05  2.853136E+04 -3.937670E+05  1.564446E+04  6.346144E+02
       149  27 -1.015075E+06 -1.202275E+05  2.901291E+04 -4.100790E+05  7.873078E+03 -1.261259E+03
       150   1 -1.256689E+06 -2.123207E+05 -3.378601E+04 -4.738752E+05 -5.596157E+03  1.427776E+03
       150   2 -1.241538E+06 -1.944661E+05 -2.465352E+04 -4.595266E+05 -3.471248E+03  1.247547E+03
       150   3 -1.212367E+06 -1.936782E+05 -1.741805E+04 -4.618951E+05 -1.322561E+03  1.003479E+03
       150   4 -1.155528E+06 -1.739288E+05 -6.732646E+03 -4.459923E+05 -5.929813E+03  1.302536E+03
       150   5 -1.162431E+06 -1.646262E+05 -3.481992E+03 -4.379228E+05 -3.830383E+03  1.112791E+03
       150   6 -1.155308E+06 -1.723850E+05 -2.107786E+03 -4.465704E+05 -1.707250E+03  8.591839E+02
       150   7 -1.054358E+06 -1.355362E+05  2.031982E+04 -4.181053E+05 -6.263529E+03  1.177273E+03
       150   8 -1.083318E+06 -1.347860E+05  1.768896E+04 -4.163166E+05 -4.189569E+03  9.780156E+02
       150   9 -1.098247E+06 -1.510915E+05  1.320216E+04 -4.312444E+05 -2.091977E+03  7.148748E+02
       150  10 -1.256689E+06 -2.123207E+05 -3.378607E+04 -4.738752E+05  5.267106E-10  9.929891E-10
       150  11 -1.241538E+06 -1.944661E+05 -2.465355E+04 -4.595266E+05  4.132815E-09  1.188040E-09
       150  12 -1.212367E+06 -1.936782E+05 -1.741806E+04 -4.618951E+05 -1.016148E-09 -1.330733E-10
       150  13 -1.155528E+06 -1.739288E+05 -6.732716E+03 -4.459923E+05  1.629395E-09  6.498231E-10
       150  14 -1.162431E+06 -1.646262E+05 -3.482022E+03 -4.379228E+05  3.111477E-09  1.065446E-09
       150  15 -1.155308E+06 -1.723850E+05 -2.107793E+03 -4.465704E+05 -1.582838E-09  2.096254E-10
       150  16 -1.054358E+06 -1.355362E+05  2.031974E+04 -4.181053E+05 -1.307760E-09  3.835878E-10
       150  17 -1.083318E+06 -1.347860E+05  1.768893E+04 -4.163166E+05  1.564719E-09  8.980412E-10
       150  18 -1.098247E+06 -1.510915E+05  1.320215E+04 -4.312444E+05  1.497482E-09  2.327011E-10
       150  19 -1.256689E+06 -2.123207E+05 -3.378601E+04 -4.738752E+05  5.596157E+03 -1.427776E+03
       150  20 -1.241538E+06 -1.944661E+05 -2.465352E+04 -4.595266E+05  3.471248E+03 -1.247547E+03
       150  21 -1.212367E+06 -1.936782E+05 -1.741805E+04 -4.618951E+05  1.322561E+03 -1.003479E+03
       150  22 -1.155528E+06 -1.739288E+05 -6.732646E+03 -4.459923E+05  5.929813E+03 -1.302536E+03
       150  23 -1.162431E+06 -1.646262E+05 -3.481992E+03 -4.379228E+05  3.830383E+03 -1.112791E+03
       150  24 -1.155308E+06 -1.723850E+05 -2.107786E+03 -4.465704E+05  1.707250E+03 -8.591839E+02
       150  25 -1.054358E+06 -1.355362E+05  2.031982E+04 -4.181053E+05  6.263529E+03 -1.177273E+03
       150  26 -1.083318E+06 -1.347860E+05  1.768896E+04 -4.163166E+05  4.189569E+03 -9.780156E+02
       150  27 -1.098247E+06 -1.510915E+05  1.320216E+04 -4.312444E+05  2.091977E+03 -7.148748E+02
       151   1 -1.172221E+06 -1.790791E+05 -6.209202E+03 -4.511701E+05 -8.154742E+02  5.694975E+02
       151   2 -1.157202E+06 -1.627644E+05  2.177828E+02 -4.363497E+05  1.568980E+02 -1.163395E+02
       151   3 -1.127184E+06 -1.619790E+05  6.091033E+03 -4.388860E+05  1.130625E+03 -8.056477E+02
       151   4 -1.155176E+06 -1.726433E+05 -1.728644E+03 -4.464876E+05 -1.186707E+03  4.302644E+02
       151   5 -1.162667E+06 -1.648163E+05 -1.242910E+03 -4.378325E+05 -2.157395E+02 -2.561042E+02
       151   6 -1.155158E+06 -1.725186E+05 -1.309889E+03 -4.465344E+05  7.565529E+02 -9.459503E+02
       151   7 -1.138130E+06 -1.662074E+05  2.751908E+03 -4.418050E+05 -1.557953E+03  2.910264E+02
       151   8 -1.168131E+06 -1.668682E+05 -2.703602E+03 -4.393153E+05 -5.883728E+02 -3.958675E+02
       151   9 -1.183131E+06 -1.830581E+05 -8.710827E+03 -4.541824E+05  3.825020E+02 -1.086245E+03
       151  10 -1.172221E+06 -1.790791E+05 -6.209204E+03 -4.511701E+05 -2.959703E-09 -1.039879E-09
       151  11 -1.157202E+06 -1.627644E+05  2.177828E+02 -4.363497E+05  2.443556E-09 -3.708993E-10
       151  12 -1.127184E+06 -1.619790E+05  6.091029E+03 -4.388860E+05  4.389138E-09  1.418719E-09
       151  13 -1.155176E+06 -1.726433E+05 -1.728647E+03 -4.464876E+05 -1.002212E-09 -7.085313E-10
       151  14 -1.162667E+06 -1.648163E+05 -1.242910E+03 -4.378325E+05  8.180027E-10 -8.507064E-10
       151  15 -1.155158E+06 -1.725186E+05 -1.309892E+03 -4.465344E+05 -1.815066E-09  6.515907E-10
       151  16 -1.138130E+06 -1.662074E+05  2.751903E+03 -4.418050E+05  1.225688E-09 -4.679471E-10
       151  17 -1.168131E+06 -1.668682E+05 -2.703603E+03 -4.393153E+05 -1.240150E-09 -1.360342E-09
       151  18 -1.183131E+06 -1.830581E+05 -8.710830E+03 -4.541824E+05 -3.895162E-09 -4.294905E-11
       151  19 -1.172221E+06 -1.790791E+05 -6.209202E+03 -4.511701E+05  8.154742E+02 -5.694975E+02
       151  20 -1.157202E+06 -1.627644E+05  2.177828E+02 -4.363497E+05 -1.568980E+02  1.163395E+02
       151  21 -1.127184E+06 -1.619790E+05  6.091033E+03 -4.388860E+05 -1.130625E+03  8.056477E+02
       151  22 -1.155176E+06 -1.726433E+05 -1.728644E+03 -4.464876E+05  1.186707E+03 -4.302644E+02
       151  23 -1.162667E+06 -1.648163E+05 -1.242910E+03 -4.378325E+05  2.157395E+02  2.561042E+02
       151  24 -1.155158E+06 -1.725186E+05 -1.309889E+03 -4.465344E+05 -7.565529E+02  9.459503E+02
       151  25 -1.138130E+06 -1.662074E+05  2.751908E+03 -4.418050E+05  1.557953E+03 -2.910264E+02
       151  26 -1.168131E+06 -1.668682E+05 -2.703602E+03 -4.393153E+05  5.883728E+02  3.958675E+02
       151  27 -1.183131E+06 -1.830581E+05 -8.710827E+03 -4.541824E+05 -3.825020E+02  1.086245E+03
       152   1 -1.087398E+06 -1.469465E+05  1.673234E+04 -4.281112E+05  1.564772E+03 -1.259387E+03
       152   2 -1.072610E+06 -1.309769E+05  2.180452E+04 -4.134218E+05  3.036100E+03 -1.753608E+03
       152   3 -1.043249E+06 -1.306514E+05  2.585768E+04 -4.157238E+05  4.499715E+03 -2.226440E+03
       152   4 -1.155237E+06 -1.724211E+05 -1.485007E+03 -4.465001E+05  1.190019E+03 -1.399965E+03
       152   5 -1.162557E+06 -1.648345E+05 -2.253121E+03 -4.379158E+05  2.669794E+03 -1.891070E+03
       152   6 -1.155305E+06 -1.728939E+05 -4.046995E+03 -4.463233E+05  4.141813E+03 -2.360801E+03
       152   7 -1.223072E+06 -1.978955E+05 -1.970281E+04 -4.648872E+05  8.153105E+02 -1.540526E+03
       152   8 -1.252496E+06 -1.986918E+05 -2.631161E+04 -4.624067E+05  2.303544E+03 -2.028511E+03
       152   9 -1.267349E+06 -2.151360E+05 -3.395300E+04 -4.769180E+05  3.783979E+03 -2.495135E+03
       152  10 -1.087398E+06 -1.469465E+05  1.673233E+04 -4.281112E+05 -9.728773E-10 -1.829369E-10
       152  11 -1.072611E+06 -1.309769E+05  2.180450E+04 -4.134218E+05 -1.665986E-09 -1.469650E-10
       152  12 -1.043249E+06 -1.306514E+05  2.585763E+04 -4.157238E+05  3.319820E-11  1.452934E-09
       152  13 -1.155237E+06 -1.724211E+05 -1.485013E+03 -4.465001E+05 -9.496025E-10  1.151231E-09
       152  14 -1.162557E+06 -1.648345E+05 -2.253141E+03 -4.379158E+05  2.123536E-09  7.830686E-10
       152  15 -1.155305E+06 -1.728940E+05 -4.047038E+03 -4.463233E+05 -2.201280E-10  5.829070E-10
       152  16 -1.223072E+06 -1.978955E+05 -1.970282E+04 -4.648872E+05  3.556196E-09  2.920919E-09
       152  17 -1.252496E+06 -1.986918E+05 -2.631162E+04 -4.624067E+05  1.007863E-09  1.600268E-09
       152  18 -1.267349E+06 -2.151360E+05 -3.395304E+04 -4.769180E+05 -1.617775E-09  4.208572E-11
       152  19 -1.087398E+06 -1.469465E+05  1.673234E+04 -4.281112E+05 -1.564772E+03  1.259387E+03
       152  20 -1.072610E+06 -1.309769E+05  2.180452E+04 -4.134218E+05 -3.036100E+03  1.753608E+03
       152  21 -1.043249E+06 -1.306514E+05  2.585768E+04 -4.157238E+05 -4.499715E+03  2.226440E+03
       152  22 -1.155237E+06 -1.724211E+05 -1.485007E+03 -4.465001E+05 -1.190019E+03  1.399965E+03
       152  23 -1.162557E+06 -1.648345E+05 -2.253121E+03 -4.379158E+05 -2.669794E+03  1.891070E+03
       152  24 -1.155305E+06 -1.728939E+05 -4.046995E+03 -4.463233E+05 -4.141813E+03  2.360801E+03
       152  25 -1.223072E+06 -1.978955E+05 -1.970281E+04 -4.648872E+05 -8.153105E+02  1.540526E+03
       152  26 -1.252496E+06 -1.986918E+05 -2.631161E+04 -4.624067E+05 -2.303544E+03  2.028511E+03
       152  27 -1.267349E+06 -2.151360E+05 -3.395300E+04 -4.769180E+05 -3.783979E+03  2.495135E+03
       153   1 -1.004760E+06 -1.158267E+05  3.514104E+04 -4.059466E+05  5.476902E+03 -2.464904E+03
       153   2 -9.902766E+05 -9.956401E+04  3.679696E+04 -3.912829E+05  1.043412E+04 -1.609408E+03
       153   3 -9.641257E+05 -1.030610E+05  3.353197E+04 -3.916741E+05  1.535699E+04 -6.609691E+02
       153   4 -1.155721E+06 -1.721474E+05 -5.218394E+03 -4.465186E+05  5.101571E+03 -2.605855E+03
       153   5 -1.161847E+06 -1.643437E+05 -9.127643E+03 -4.382110E+05  1.009502E+04 -1.736854E+03
       153   6 -1.156314E+06 -1.763079E+05 -1.798756E+04 -4.449584E+05  1.505397E+04 -7.749694E+02
       153   7 -1.306659E+06 -2.284665E+05 -4.557954E+04 -4.870814E+05  4.726343E+03 -2.746769E+03
       153   8 -1.333388E+06 -2.291214E+05 -5.505465E+04 -4.851271E+05  9.756027E+03 -1.864261E+03
       153   9 -1.348466E+06 -2.495524E+05 -6.951030E+04 -4.982277E+05  1.475104E+04 -8.889299E+02
       153  10 -1.004760E+06 -1.158267E+05  3.514097E+04 -4.059466E+05  8.436837E-10  1.245431E-09
       153  11 -9.902767E+05 -9.956404E+04  3.679675E+04 -3.912829E+05 -1.980332E-09 -6.584976E-10
       153  12 -9.641259E+05 -1.030610E+05  3.353152E+04 -3.916741E+05  1.756720E-10  2.895993E-10
       153  13 -1.155721E+06 -1.721474E+05 -5.218456E+03 -4.465186E+05 -2.364542E-09  4.731154E-10
       153  14 -1.161847E+06 -1.643438E+05 -9.127841E+03 -4.382109E+05  6.492485E-11  1.324758E-10
       153  15 -1.156314E+06 -1.763080E+05 -1.798799E+04 -4.449584E+05  1.393285E-09 -1.252357E-09
       153  16 -1.306659E+06 -2.284665E+05 -4.557960E+04 -4.870814E+05 -1.068537E-09 -2.877501E-11
       153  17 -1.333388E+06 -2.291215E+05 -5.505483E+04 -4.851271E+05 -3.901736E-10  2.345067E-10
       153  18 -1.348466E+06 -2.495525E+05 -6.951071E+04 -4.982277E+05 -5.853945E-10  3.197603E-10
       153  19 -1.004760E+06 -1.158267E+05  3.514104E+04 -4.059466E+05 -5.476902E+03  2.464904E+03
       153  20 -9.902766E+05 -9.956401E+04  3.679696E+04 -3.912829E+05 -1.043412E+04  1.609408E+03
       153  21 -9.641257E+05 -1.030610E+05  3.353197E+04 -3.916741E+05 -1.535699E+04  6.609691E+02
       153  22 -1.155721E+06 -1.721474E+05 -5.218394E+03 -4.465186E+05 -5.101571E+03  2.605855E+03
       153  23 -1.161847E+06 -1.643437E+05 -9.127643E+03 -4.382110E+05 -1.009502E+04  1.736854E+03
       153  24 -1.156314E+06 -1.763079E+05 -1.798756E+04 -4.449584E+05 -1.505397E+04  7.749694E+02
       153  25 -1.306659E+06 -2.284665E+05 -4.557954E+04 -4.870814E+05 -4.726343E+03  2.746769E+03
       153  26 -1.333388E+06 -2.291214E+05 -5.505465E+04 -4.851271E+05 -9.756027E+03  1.864261E+03
       153  27 -1.348466E+06 -2.495524E+05 -6.951030E+04 -4.982277E+05 -1.475104E+04  8.889299E+02
       154   1 -9.263861E+05 -8.766808E+04  3.841160E+04 -3.887414E+05  1.908057E+04  6.688783E+01
       154   2 -9.107520E+05 -6.386967E+04  2.710554E+04 -3.697788E+05  3.969612E+04  6.873690E+03
       154   3 -9.015654E+05 -9.869845E+04 -1.170840E+04 -3.544914E+05  6.004031E+04  1.440574E+04
       154   4 -1.158365E+06 -1.709116E+05 -2.290533E+04 -4.477111E+05  1.859657E+04 -1.150342E+02
       154   5 -1.157595E+06 -1.590250E+05 -3.933178E+04 -4.393117E+05  3.949680E+04  6.798353E+03
       154   6 -1.163337E+06 -2.058348E+05 -8.350091E+04 -4.345871E+05  6.012509E+04  1.443640E+04
       154   7 -1.390293E+06 -2.541534E+05 -8.422700E+04 -5.066617E+05  1.811276E+04 -2.968905E+02
       154   8 -1.404380E+06 -2.541760E+05 -1.057746E+05 -5.088196E+05  3.929757E+04  6.723049E+03
       154   9 -1.425043E+06 -3.129636E+05 -1.552997E+05 -5.146510E+05  6.020982E+04  1.446704E+04
       154  10 -9.263865E+05 -8.766817E+04  3.841092E+04 -3.887414E+05  8.267955E-10  9.641342E-10
       154  11 -9.107537E+05 -6.387014E+04  2.710249E+04 -3.697790E+05  6.292770E-11  1.594614E-09
       154  12 -9.015693E+05 -9.869964E+04 -1.171558E+04 -3.544921E+05 -1.208060E-09  6.507283E-10
       154  13 -1.158365E+06 -1.709117E+05 -2.290598E+04 -4.477111E+05 -1.248301E-11  3.298779E-11
       154  14 -1.157597E+06 -1.590254E+05 -3.933481E+04 -4.393120E+05  1.327502E-09  2.011891E-10
       154  15 -1.163341E+06 -2.058360E+05 -8.350811E+04 -4.345878E+05 -2.850584E-09  4.718433E-10
       154  16 -1.390293E+06 -2.541535E+05 -8.422762E+04 -5.066617E+05 -1.484522E-09  3.924750E-10
       154  17 -1.404381E+06 -2.541765E+05 -1.057776E+05 -5.088198E+05 -4.786335E-09  1.215835E-09
       154  18 -1.425047E+06 -3.129648E+05 -1.553069E+05 -5.146517E+05  5.657793E-10  8.185021E-10
       154  19 -9.263861E+05 -8.766808E+04  3.841160E+04 -3.887414E+05 -1.908057E+04 -6.688783E+01
       154  20 -9.107520E+05 -6.386967E+04  2.710554E+04 -3.697788E+05 -3.969612E+04 -6.873690E+03
       154  21 -9.015654E+05 -9.869845E+04 -1.170840E+04 -3.544914E+05 -6.004031E+04 -1.440574E+04
       154  22 -1.158365E+06 -1.709116E+05 -2.290533E+04 -4.477111E+05 -1.859657E+04  1.150342E+02
       154  23 -1.157595E+06 -1.590250E+05 -3.933178E+04 -4.393117E+05 -3.949680E+04 -6.798353E+03
       154  24 -1.163337E+06 -2.058348E+05 -8.350091E+04 -4.345871E+05 -6.012509E+04 -1.443640E+04
       154  25 -1.390293E+06 -2.541534E+05 -8.422700E+04 -5.066617E+05 -1.811276E+04  2.968905E+02
       154  26 -1.404380E+06 -2.541760E+05 -1.057746E+05 -5.088196E+05 -3.929757E+04 -6.723049E+03
       154  27 -1.425043E+06 -3.129636E+05 -1.552997E+05 -5.146510E+05 -6.020982E+04 -1.446704E+04
       155   1 -8.518368E+05 -7.289231E+04 -2.183352E+04 -4.047078E+05  7.729417E+04  1.919320E+04
       155   2 -8.240434E+05  2.153549E+04 -8.180927E+04 -3.425909E+05  1.661620E+05  5.172914E+04
       155   3 -9.376684E+05 -2.711412E+05 -3.106809E+05 -1.958145E+05  2.523049E+05  9.151198E+04
       155   4 -1.176810E+06 -1.618990E+05 -1.022192E+05 -4.590349E+05  7.547667E+04  1.851378E+04
       155   5 -1.126515E+06 -1.133821E+05 -1.666322E+05 -4.466169E+05  1.672240E+05  5.212196E+04
       155   6 -1.218291E+06 -4.526682E+05 -4.022922E+05 -3.495172E+05  2.562487E+05  9.296034E+04
       155   7 -1.501680E+06 -2.509085E+05 -1.826120E+05 -5.133418E+05  7.366021E+04  1.783452E+04
       155   8 -1.428895E+06 -2.482827E+05 -2.514633E+05 -5.505930E+05  1.682855E+05  5.251446E+04
       155   9 -1.498821E+06 -6.341306E+05 -4.939094E+05 -5.031411E+05  2.601905E+05  9.440673E+04
       155  10 -8.518434E+05 -7.289432E+04 -2.184545E+04 -4.047090E+05 -5.293945E-09  1.850379E-09
       155  11 -8.240738E+05  2.152519E+04 -8.186627E+04 -3.425978E+05  2.308123E-10  2.163628E-09
       155  12 -9.377391E+05 -2.711673E+05 -3.108164E+05 -1.958331E+05  6.892603E-11  1.580471E-09
       155  13 -1.176816E+06 -1.619009E+05 -1.022305E+05 -4.590361E+05 -1.281127E-09  5.484492E-10
       155  14 -1.126545E+06 -1.133925E+05 -1.666899E+05 -4.466239E+05 -1.310176E-09  8.208289E-10
       155  15 -1.218364E+06 -4.526952E+05 -4.024322E+05 -3.495364E+05 -1.909055E-09  3.693421E-09
       155  16 -1.501686E+06 -2.509103E+05 -1.826228E+05 -5.133429E+05  2.269881E-09  3.351983E-09
       155  17 -1.428926E+06 -2.482933E+05 -2.515219E+05 -5.506001E+05 -2.432218E-09  4.382826E-09
       155  18 -1.498897E+06 -6.341584E+05 -4.940538E+05 -5.031609E+05 -2.109998E-09  1.978068E-10
       155  19 -8.518368E+05 -7.289231E+04 -2.183352E+04 -4.047078E+05 -7.729417E+04 -1.919320E+04
       155  20 -8.240434E+05  2.153549E+04 -8.180927E+04 -3.425909E+05 -1.661620E+05 -5.172914E+04
       155  21 -9.376684E+05 -2.711412E+05 -3.106809E+05 -1.958145E+05 -2.523049E+05 -9.151198E+04
       155  22 -1.176810E+06 -1.618990E+05 -1.022192E+05 -4.590349E+05 -7.547667E+04 -1.851378E+04
       155  23 -1.126515E+06 -1.133821E+05 -1.666322E+05 -4.466169E+05 -1.672240E+05 -5.212196E+04
       155  24 -1.218291E+06 -4.526682E+05 -4.022922E+05 -3.495172E+05 -2.562487E+05 -9.296034E+04
       155  25 -1.501680E+06 -2.509085E+05 -1.826120E+05 -5.133418E+05 -7.366021E+04 -1.783452E+04
       155  26 -1.428895E+06 -2.482827E+05 -2.514633E+05 -5.505930E+05 -1.682855E+05 -5.251446E+04
       155  27 -1.498821E+06 -6.341306E+05 -4.939094E+05 -5.031411E+05 -2.601905E+05 -9.440673E+04
       156   1  2.731849E+05  2.242535E+06  2.645817E+05 -1.540470E+05  1.193662E+04  1.047477E+05
       156   2  2.082855E+05  2.128392E+06  1.805432E+05 -1.302634E+05  3.993651E+04  5.014897E+04
       156   3  1.720485E+05  2.028496E+06  1.391509E+05 -1.257163E+05  4.684204E+04 -4.462450E+03
       156   4  4.220149E+04  1.304702E+06  4.605761E+04 -1.252209E+05  1.205093E+04  2.881991E+04
       156   5  1.210106E+04  1.301221E+06  2.541618E+04 -1.156341E+05  3.999516E+04  1.587139E+04
       156   6  3.469608E+03  1.304782E+06  1.857875E+04 -1.252818E+05  4.683462E+04  2.899332E+03
       156   7 -1.888378E+05  3.676909E+05 -1.725039E+05 -9.643814E+04  1.215832E+04 -4.699431E+04
       156   8 -1.841216E+05  4.747127E+05 -1.297360E+05 -1.010245E+05  4.005225E+04 -1.836181E+04
       156   9 -1.651364E+05  5.815836E+05 -1.020093E+05 -1.248476E+05  4.682721E+04  1.025284E+04
       156  10  2.731818E+05  2.242523E+06  2.645608E+05 -1.540480E+05  1.950747E-09 -5.933660E-08
       156  11  2.082831E+05  2.128389E+06  1.805355E+05 -1.302650E+05  2.708516E-09 -3.493877E-09
       156  12  1.720461E+05  2.028495E+06  1.391468E+05 -1.257161E+05  1.544025E-09  6.049239E-08
       156  13  4.220112E+04  1.304701E+06  4.605578E+04 -1.252212E+05 -3.464770E-10 -1.373434E-09
       156  14  1.209928E+04  1.301221E+06  2.541270E+04 -1.156346E+05  2.096568E-09 -2.973936E-09
       156  15  3.467249E+03  1.304781E+06  1.857460E+04 -1.252819E+05  1.345644E-09 -1.654281E-10
       156  16 -1.888386E+05  3.676885E+05 -1.725083E+05 -9.643768E+04 -1.567000E-09  5.996607E-08
       156  17 -1.841234E+05  4.747119E+05 -1.297396E+05 -1.010239E+05  3.771682E-10  1.838910E-09
       156  18 -1.651388E+05  5.815829E+05 -1.020136E+05 -1.248480E+05 -2.307022E-09 -5.807984E-08
       156  19  2.731849E+05  2.242535E+06  2.645817E+05 -1.540470E+05 -1.193662E+04 -1.047477E+05
       156  20  2.082855E+05  2.128392E+06  1.805432E+05 -1.302634E+05 -3.993651E+04 -5.014897E+04
       156  21  1.720485E+05  2.028496E+06  1.391509E+05 -1.257163E+05 -4.684204E+04  4.462450E+03
       156  22  4.220149E+04  1.304702E+06  4.605761E+04 -1.252209E+05 -1.205093E+04 -2.881991E+04
       156  23  1.210106E+04  1.301221E+06  2.541618E+04 -1.156341E+05 -3.999516E+04 -1.587139E+04
       156  24  3.469608E+03  1.304782E+06  1.857875E+04 -1.252818E+05 -4.683462E+04 -2.899332E+03
       156  25 -1.888378E+05  3.676909E+05 -1.725039E+05 -9.643814E+04 -1.215832E+04  4.699431E+04
       156  26 -1.841216E+05  4.747127E+05 -1.297360E+05 -1.010245E+05 -4.005225E+04  1.836181E+04
       156  27 -1.651364E+05  5.815836E+05 -1.020093E+05 -1.248476E+05 -4.682721E+04 -1.025284E+04
       157   1  1.552966E+05  1.958747E+06  1.249391E+05 -1.285656E+05  4.400456E+04 -6.569279E+03
       157   2  1.294050E+05  1.850282E+06  1.070994E+05 -1.149471E+05  3.939501E+04 -2.211282E+04
       157   3  1.105708E+05  1.745551E+06  1.011080E+05 -1.219960E+05  3.219063E+04 -3.766029E+04
       157   4  3.146407E+03  1.303864E+06  1.789177E+04 -1.255967E+05  4.399730E+04  1.843552E+01
       157   5  2.786863E+03  1.302461E+06  2.081808E+04 -1.152583E+05  3.937694E+04 -1.039827E+04
       157   6  8.600076E+03  1.303896E+06  3.204393E+04 -1.255879E+05  3.216073E+04 -2.082137E+04
       157   7 -1.490256E+05  6.494035E+05 -8.916763E+04 -1.226308E+05  4.399011E+04  6.599459E+03
       157   8 -1.238461E+05  7.549391E+05 -6.547018E+04 -1.155691E+05  3.935885E+04  1.306353E+03
       157   9 -9.337998E+04  8.624359E+05 -3.702377E+04 -1.291770E+05  3.213062E+04 -3.993941E+03
       157  10  1.552945E+05  1.958747E+06  1.249353E+05 -1.285654E+05 -1.077920E-09  6.588087E-09
       157  11  1.294032E+05  1.850281E+06  1.070956E+05 -1.149464E+05 -2.017974E-09 -1.679544E-09
       157  12  1.105693E+05  1.745549E+06  1.011034E+05 -1.219951E+05  9.410969E-10 -7.564393E-10
       157  13  3.144327E+03  1.303863E+06  1.788813E+04 -1.255967E+05 -5.579764E-10 -1.714666E-09
       157  14  2.785168E+03  1.302461E+06  2.081497E+04 -1.152580E+05  3.592865E-09 -3.604807E-09
       157  15  8.598849E+03  1.303895E+06  3.204117E+04 -1.255874E+05 -2.087483E-09 -8.169514E-11
       157  16 -1.490277E+05  6.494030E+05 -8.917135E+04 -1.226310E+05 -1.845728E-09 -5.879556E-09
       157  17 -1.238477E+05  7.549387E+05 -6.547310E+04 -1.155691E+05  9.650884E-10 -5.416685E-10
       157  18 -9.338109E+04  8.624356E+05 -3.702575E+04 -1.291769E+05 -1.437591E-09  3.233873E-09
       157  19  1.552966E+05  1.958747E+06  1.249391E+05 -1.285656E+05 -4.400456E+04  6.569279E+03
       157  20  1.294050E+05  1.850282E+06  1.070994E+05 -1.149471E+05 -3.939501E+04  2.211282E+04
       157  21  1.105708E+05  1.745551E+06  1.011080E+05 -1.219960E+05 -3.219063E+04  3.766029E+04
       157  22  3.146407E+03  1.303864E+06  1.789177E+04 -1.255967E+05 -4.399730E+04 -1.843552E+01
       157  23  2.786863E+03  1.302461E+06  2.081808E+04 -1.152583E+05 -3.937694E+04  1.039827E+04
       157  24  8.600076E+03  1.303896E+06  3.204393E+04 -1.255879E+05 -3.216073E+04  2.082137E+04
       157  25 -1.490256E+05  6.494035E+05 -8.916763E+04 -1.226308E+05 -4.399011E+04 -6.599459E+03
       157  26 -1.238461E+05  7.549391E+05 -6.547018E+04 -1.155691E+05 -3.935885E+04 -1.306353E+03
       157  27 -9.337998E+04  8.624359E+05 -3.702377E+04 -1.291770E+05 -3.213062E+04  3.993941E+03
       158   1  9.616763E+04  1.682308E+06  9.952179E+04 -1.286077E+05  2.727979E+04 -4.293241E+04
       158   2  1.003916E+05  1.564778E+06  1.171921E+05 -7.302173E+04  1.742418E+04 -8.609089E+04
       158   3  1.728637E+05  1.469842E+06  1.799552E+05 -3.834372E+04  4.571976E+03 -1.292497E+05
       158   4  9.725328E+03  1.308070E+06  4.096552E+04 -1.256633E+05  2.724859E+04 -2.628130E+04
       158   5  3.824933E+04  1.297263E+06  7.257066E+04 -1.150972E+05  1.738584E+04 -6.353310E+04
       158   6  1.340032E+05  1.308009E+06  1.451752E+05 -1.254325E+05  4.532131E+03 -1.007911E+05
       158   7 -7.672367E+04  9.339712E+05 -1.759308E+04 -1.227207E+05  2.721755E+04 -9.639836E+03
       158   8 -2.388971E+04  1.029824E+06  2.794989E+04 -1.571539E+05  1.734444E+04 -4.098468E+04
       158   9  9.516981E+04  1.146219E+06  1.104007E+05 -2.124983E+05  4.484314E+03 -7.233976E+04
       158  10  9.616634E+04  1.682306E+06  9.951694E+04 -1.286068E+05 -2.018871E-09  2.767567E-09
       158  11  1.003893E+05  1.564770E+06  1.171776E+05 -7.302052E+04  5.932522E-10 -3.464134E-09
       158  12  1.728592E+05  1.469824E+06  1.799238E+05 -3.834325E+04  6.510633E-10  3.174990E-10
       158  13  9.724345E+03  1.308069E+06  4.096283E+04 -1.256627E+05 -2.357836E-09 -1.792307E-09
       158  14  3.824792E+04  1.297259E+06  7.256252E+04 -1.150963E+05 -1.444897E-09 -3.837512E-09
       158  15  1.340004E+05  1.307998E+06  1.451561E+05 -1.254321E+05 -2.012980E-09  2.429225E-11
       158  16 -7.672449E+04  9.339709E+05 -1.759464E+04 -1.227205E+05 -2.148031E-09 -1.611253E-09
       158  17 -2.389049E+04  1.029822E+06  2.794618E+04 -1.571533E+05 -1.017922E-09  1.111986E-09
       158  18  9.516839E+04  1.146214E+06  1.103909E+05 -2.124980E+05 -3.270836E-10  2.372856E-09
       158  19  9.616763E+04  1.682308E+06  9.952179E+04 -1.286077E+05 -2.727979E+04  4.293241E+04
       158  20  1.003916E+05  1.564778E+06  1.171921E+05 -7.302173E+04 -1.742418E+04  8.609089E+04
       158  21  1.728637E+05  1.469842E+06  1.799552E+05 -3.834372E+04 -4.571976E+03  1.292497E+05
       158  22  9.725328E+03  1.308070E+06  4.096552E+04 -1.256633E+05 -2.724859E+04  2.628130E+04
       158  23  3.824933E+04  1.297263E+06  7.257066E+04 -1.150972E+05 -1.738584E+04  6.353310E+04
       158  24  1.340032E+05  1.308009E+06  1.451752E+05 -1.254325E+05 -4.532131E+03  1.007911E+05
       158  25 -7.672367E+04  9.339712E+05 -1.759308E+04 -1.227207E+05 -2.721755E+04  9.639836E+03
       158  26 -2.388971E+04  1.029824E+06  2.794989E+04 -1.571539E+05 -1.734444E+04  4.098468E+04
       158  27  9.516981E+04  1.146219E+06  1.104007E+05 -2.124983E+05 -4.484314E+03  7.233976E+04
       159   1  1.660401E+05 -8.896060E+04 -1.218942E+04  1.071787E+04  2.170755E+05  1.352697E+04
       159   2  2.375076E+05 -3.714476E+05 -1.689046E+05  1.079638E+04  1.491362E+05  3.811147E+04
       159   3  4.070573E+05 -3.102271E+05 -1.947913E+05 -9.365336E+04  8.126286E+04  3.332139E+04
       159   4  1.602805E+06  2.685513E+05  3.429168E+05 -6.049469E+04  2.345098E+05  1.355465E+04
       159   5  1.552890E+06 -4.514091E+04  1.489728E+05 -7.824869E+03  1.537100E+05  3.811182E+04
       159   6  1.603052E+06 -1.329779E+04  9.455983E+04 -5.966286E+04  7.299104E+04  3.331032E+04
       159   7  3.041456E+06  6.259294E+05  6.978741E+05 -1.318735E+05  2.519840E+05  1.357833E+04
       159   8  2.869852E+06  2.810409E+05  4.667265E+05 -2.648658E+04  1.582932E+05  3.811191E+04
       159   9  2.800355E+06  2.835312E+05  3.838092E+05 -2.560712E+04  6.470324E+04  3.329834E+04
       159  10  1.659895E+05 -8.897344E+04 -1.227829E+04  1.071550E+04  5.721084E-10  1.141331E-10
       159  11  2.374834E+05 -3.714551E+05 -1.689491E+05  1.079180E+04 -1.335333E-10  7.256718E-11
       159  12  4.070499E+05 -3.102300E+05 -1.948058E+05 -9.365554E+04 -5.530321E-10  9.942501E-11
       159  13  1.602747E+06  2.685364E+05  3.428134E+05 -6.049725E+04 -5.845392E-10  9.859194E-11
       159  14  1.552864E+06 -4.514879E+04  1.489258E+05 -7.829584E+03  7.537654E-10  1.440713E-10
       159  15  1.603046E+06 -1.330041E+04  9.454776E+04 -5.966482E+04 -1.187369E-09  6.128769E-11
       159  16  3.041388E+06  6.259122E+05  6.977550E+05 -1.318763E+05 -5.907633E-10  1.278678E-10
       159  17  2.869824E+06  2.810326E+05  4.666769E+05 -2.649143E+04 -2.673602E-09  2.047960E-10
       159  18  2.800350E+06  2.835288E+05  3.837992E+05 -2.560885E+04 -8.673838E-10 -6.125319E-11
       159  19  1.660401E+05 -8.896060E+04 -1.218942E+04  1.071787E+04 -2.170755E+05 -1.352697E+04
       159  20  2.375076E+05 -3.714476E+05 -1.689046E+05  1.079638E+04 -1.491362E+05 -3.811147E+04
       159  21  4.070573E+05 -3.102271E+05 -1.947913E+05 -9.365336E+04 -8.126286E+04 -3.332139E+04
       159  22  1.602805E+06  2.685513E+05  3.429168E+05 -6.049469E+04 -2.345098E+05 -1.355465E+04
       159  23  1.552890E+06 -4.514091E+04  1.489728E+05 -7.824869E+03 -1.537100E+05 -3.811182E+04
       159  24  1.603052E+06 -1.329779E+04  9.455983E+04 -5.966286E+04 -7.299104E+04 -3.331032E+04
       159  25  3.041456E+06  6.259294E+05  6.978741E+05 -1.318735E+05 -2.519840E+05 -1.357833E+04
       159  26  2.869852E+06  2.810409E+05  4.667265E+05 -2.648658E+04 -1.582932E+05 -3.811191E+04
       159  27  2.800355E+06  2.835312E+05  3.838092E+05 -2.560712E+04 -6.470324E+04 -3.329834E+04
       160   1  5.734829E+05 -2.200062E+05 -1.675352E+05 -5.086249E+04  5.817502E+04  2.638925E+04
       160   2  6.770987E+05 -2.287812E+05 -1.790300E+05 -8.266214E+03  3.929292E+04  2.467883E+04
       160   3  7.945376E+05 -1.974450E+05 -1.679330E+05 -6.179006E+04  2.040134E+04  2.049501E+04
       160   4  1.583989E+06  3.082864E+04  7.738291E+04 -5.805462E+04  5.804013E+04  2.638561E+04
       160   5  1.577029E+06 -5.458379E+03  3.873969E+04 -9.987275E+03  3.805933E+04  2.467599E+04
       160   6  1.584050E+06 -1.475814E+03  2.342363E+04 -5.803043E+04  1.807240E+04  2.049426E+04
       160   7  2.595426E+06  2.815890E+05  3.222276E+05 -6.525865E+04  5.790496E+04  2.638198E+04
       160   8  2.477697E+06  2.178053E+05  2.564513E+05 -1.171089E+04  3.682393E+04  2.467316E+04
       160   9  2.374130E+06  1.944478E+05  2.147355E+05 -5.426593E+04  1.574050E+04  2.049348E+04
       160  10  5.734791E+05 -2.200079E+05 -1.675429E+05 -5.086372E+04 -6.584090E-10 -1.252814E-10
       160  11  6.770969E+05 -2.287823E+05 -1.790341E+05 -8.266995E+03 -2.543471E-10 -7.883662E-11
       160  12  7.945370E+05 -1.974456E+05 -1.679346E+05 -6.179040E+04 -7.742348E-10  1.946664E-10
       160  13  1.583985E+06  3.082699E+04  7.737529E+04 -5.805585E+04 -1.567626E-09 -2.954388E-10
       160  14  1.577027E+06 -5.459421E+03  3.873583E+04 -9.988031E+03  1.266755E-10 -1.333914E-10
       160  15  1.584050E+06 -1.476353E+03  2.342222E+04 -5.803073E+04  1.776813E-09  3.281144E-10
       160  16  2.595422E+06  2.815873E+05  3.222200E+05 -6.525988E+04 -6.252157E-10 -3.533769E-10
       160  17  2.477696E+06  2.178042E+05  2.564476E+05 -1.171162E+04  7.063987E-12 -3.265071E-10
       160  18  2.374130E+06  1.944473E+05  2.147342E+05 -5.426619E+04  1.076517E-09  6.730215E-11
       160  19  5.734829E+05 -2.200062E+05 -1.675352E+05 -5.086249E+04 -5.817502E+04 -2.638925E+04
       160  20  6.770987E+05 -2.287812E+05 -1.790300E+05 -8.266214E+03 -3.929292E+04 -2.467883E+04
       160  21  7.945376E+05 -1.974450E+05 -1.679330E+05 -6.179006E+04 -2.040134E+04 -2.049501E+04
       160  22  1.583989E+06  3.082864E+04  7.738291E+04 -5.805462E+04 -5.804013E+04 -2.638561E+04
       160  23  1.577029E+06 -5.458379E+03  3.873969E+04 -9.987275E+03 -3.805933E+04 -2.467599E+04
       160  24  1.584050E+06 -1.475814E+03  2.342363E+04 -5.803043E+04 -1.807240E+04 -2.049426E+04
       160  25  2.595426E+06  2.815890E+05  3.222276E+05 -6.525865E+04 -5.790496E+04 -2.638198E+04
       160  26  2.477697E+06  2.178053E+05  2.564513E+05 -1.171089E+04 -3.682393E+04 -2.467316E+04
       160  27  2.374130E+06  1.944478E+05  2.147355E+05 -5.426593E+04 -1.574050E+04 -2.049348E+04
       161   1  9.653292E+05 -1.493312E+05 -1.304158E+05 -5.589573E+04  1.594877E+04  1.773312E+04
       161   2  1.068856E+06 -1.275891E+05 -1.137789E+05 -1.096030E+04  1.096967E+04  1.392634E+04
       161   3  1.174430E+06 -1.010557E+05 -9.266725E+04 -5.695977E+04  5.984900E+03  9.967749E+03
       161   4  1.581465E+06  3.493010E+03  1.841400E+04 -5.688346E+04  1.434282E+04  1.773297E+04
       161   5  1.580452E+06 -6.579838E+02  1.001526E+04 -1.141968E+04  9.293392E+03  1.392719E+04
       161   6  1.581488E+06 -6.742323E+00  6.137611E+03 -5.688608E+04  4.239116E+03  9.969677E+03
       161   7  2.197947E+06  1.562895E+05  1.672167E+05 -5.787210E+04  1.273528E+04  1.773282E+04
       161   8  2.092286E+06  1.262540E+05  1.337907E+05 -1.187938E+04  7.615734E+03  1.392803E+04
       161   9  1.988696E+06  1.010301E+05  1.049305E+05 -5.681228E+04  2.492191E+03  9.971603E+03
       161  10  9.653289E+05 -1.493316E+05 -1.304169E+05 -5.589596E+04  4.024633E-10 -2.354108E-10
       161  11  1.068856E+06 -1.275894E+05 -1.137795E+05 -1.096042E+04 -1.584159E-09 -1.007917E-09
       161  12  1.174430E+06 -1.010558E+05 -9.266750E+04 -5.695982E+04 -4.231567E-10  1.876113E-10
       161  13  1.581465E+06  3.492617E+03  1.841302E+04 -5.688367E+04  5.537880E-10  3.180548E-11
       161  14  1.580451E+06 -6.582154E+02  1.001474E+04 -1.141978E+04  3.868148E-10 -2.400634E-10
       161  15  1.581488E+06 -6.853950E+00  6.137391E+03 -5.688611E+04 -9.506266E-10  7.396315E-11
       161  16  2.197947E+06  1.562891E+05  1.672158E+05 -5.787228E+04  6.479077E-10 -9.158902E-11
       161  17  2.092286E+06  1.262538E+05  1.337902E+05 -1.187946E+04  1.483015E-09  7.735984E-11
       161  18  1.988696E+06  1.010300E+05  1.049303E+05 -5.681230E+04  7.759288E-10 -2.501970E-10
       161  19  9.653292E+05 -1.493312E+05 -1.304158E+05 -5.589573E+04 -1.594877E+04 -1.773312E+04
       161  20  1.068856E+06 -1.275891E+05 -1.137789E+05 -1.096030E+04 -1.096967E+04 -1.392634E+04
       161  21  1.174430E+06 -1.010557E+05 -9.266725E+04 -5.695977E+04 -5.984900E+03 -9.967749E+03
       161  22  1.581465E+06  3.493010E+03  1.841400E+04 -5.688346E+04 -1.434282E+04 -1.773297E+04
       161  23  1.580452E+06 -6.579838E+02  1.001526E+04 -1.141968E+04 -9.293392E+03 -1.392719E+04
       161  24  1.581488E+06 -6.742323E+00  6.137611E+03 -5.688608E+04 -4.239116E+03 -9.969677E+03
       161  25  2.197947E+06  1.562895E+05  1.672167E+05 -5.787210E+04 -1.273528E+04 -1.773282E+04
       161  26  2.092286E+06  1.262540E+05  1.337907E+05 -1.187938E+04 -7.615734E+03 -1.392803E+04
       161  27  1.988696E+06  1.010301E+05  1.049305E+05 -5.681228E+04 -2.492191E+03 -9.971603E+03
       162   1  1.340445E+06 -5.912846E+04 -5.301190E+04 -5.605795E+04  4.921184E+03  7.655837E+03
       162   2  1.442204E+06 -3.448526E+04 -3.031818E+04 -1.193079E+04  3.289153E+03  3.773285E+03
       162   3  1.544088E+06 -9.032268E+03 -6.426002E+03 -5.635699E+04  1.655545E+03 -1.065004E+02
       162   4  1.581090E+06  5.056137E+02  4.897350E+03 -5.635642E+04  3.240225E+03  7.658121E+03
       162   5  1.581036E+06 -4.751921E+01  3.269165E+03 -1.208063E+04  1.608724E+03  3.775810E+03
       162   6  1.581095E+06  2.092401E+02  2.838910E+03 -5.635696E+04 -2.409013E+01 -1.036984E+02
       162   7  1.821787E+06  6.013547E+04  6.280249E+04 -5.665499E+04  1.558618E+03  7.660406E+03
       162   8  1.719885E+06  3.438882E+04  3.685513E+04 -1.223050E+04 -7.207970E+01  3.778336E+03
       162   9  1.618103E+06  9.450647E+03  1.210373E+04 -5.635693E+04 -1.703825E+03 -1.008964E+02
       162  10  1.340445E+06 -5.912853E+04 -5.301205E+04 -5.605798E+04 -6.350058E-10  6.601670E-10
       162  11  1.442204E+06 -3.448528E+04 -3.031822E+04 -1.193080E+04 -1.225059E-09  9.555562E-11
       162  12  1.544088E+06 -9.032269E+03 -6.426007E+03 -5.635699E+04  5.322481E-10 -4.400232E-10
       162  13  1.581090E+06  5.055479E+02  4.897220E+03 -5.635644E+04  4.927333E-10  1.895594E-10
       162  14  1.581036E+06 -4.753522E+01  3.269133E+03 -1.208064E+04 -1.599594E-10  7.179328E-10
       162  15  1.581095E+06  2.092401E+02  2.838910E+03 -5.635696E+04 -3.349702E-10  2.731451E-11
       162  16  1.821787E+06  6.013541E+04  6.280237E+04 -5.665500E+04  1.743323E-09  4.204426E-11
       162  17  1.719885E+06  3.438880E+04  3.685511E+04 -1.223050E+04  1.132598E-09  4.269241E-10
       162  18  1.618103E+06  9.450646E+03  1.210372E+04 -5.635693E+04 -3.302009E-10 -2.170394E-10
       162  19  1.340445E+06 -5.912846E+04 -5.301190E+04 -5.605795E+04 -4.921184E+03 -7.655837E+03
       162  20  1.442204E+06 -3.448526E+04 -3.031818E+04 -1.193079E+04 -3.289153E+03 -3.773285E+03
       162  21  1.544088E+06 -9.032268E+03 -6.426002E+03 -5.635699E+04 -1.655545E+03  1.065004E+02
       162  22  1.581090E+06  5.056137E+02  4.897350E+03 -5.635642E+04 -3.240225E+03 -7.658121E+03
       162  23  1.581036E+06 -4.751921E+01  3.269165E+03 -1.208063E+04 -1.608724E+03 -3.775810E+03
       162  24  1.581095E+06  2.092401E+02  2.838910E+03 -5.635696E+04  2.409013E+01  1.036984E+02
       162  25  1.821787E+06  6.013547E+04  6.280249E+04 -5.665499E+04 -1.558618E+03 -7.660406E+03
       162  26  1.719885E+06  3.438882E+04  3.685513E+04 -1.223050E+04  7.207970E+01 -3.778336E+03
       162  27  1.618103E+06  9.450647E+03  1.210373E+04 -5.635693E+04  1.703825E+03  1.008964E+02
       163   1  1.708673E+06  3.189588E+04  3.410424E+04 -5.652085E+04  1.129013E+03 -2.363852E+03
       163   2  1.810779E+06  5.691065E+04  5.936993E+04 -1.221760E+04 -7.585885E+02 -6.250624E+03
       163   3  1.913141E+06  8.285704E+04  8.604261E+04 -5.679740E+04 -2.644371E+03 -1.015280E+04
       163   4  1.581120E+06  1.988127E+02  2.938695E+03 -5.643097E+04 -5.514899E+02 -2.361110E+03
       163   5  1.580992E+06 -7.632860E+01  3.789992E+03 -1.198810E+04 -2.445300E+03 -6.248323E+03
       163   6  1.581110E+06  5.821672E+02  6.053654E+03 -5.643029E+04 -4.336985E+03 -1.015091E+04
       163   7  1.453582E+06 -3.149945E+04 -2.822802E+04 -5.634110E+04 -2.231649E+03 -2.358370E+03
       163   8  1.351253E+06 -5.706716E+04 -5.179372E+04 -1.175866E+04 -4.131390E+03 -6.246022E+03
       163   9  1.249181E+06 -8.170073E+04 -7.394315E+04 -5.606335E+04 -6.028698E+03 -1.014902E+04
       163  10  1.708673E+06  3.189587E+04  3.410423E+04 -5.652085E+04  5.482408E-10 -3.600422E-10
       163  11  1.810779E+06  5.691061E+04  5.936985E+04 -1.221760E+04 -8.611974E-10  8.731284E-11
       163  12  1.913141E+06  8.285693E+04  8.604240E+04 -5.679742E+04 -4.276809E-10  5.533426E-10
       163  13  1.581120E+06  1.988067E+02  2.938684E+03 -5.643097E+04  3.452991E-10  1.152287E-10
       163  14  1.580992E+06 -7.637215E+01  3.789907E+03 -1.198811E+04 -1.232386E-09  4.739850E-10
       163  15  1.581110E+06  5.820515E+02  6.053425E+03 -5.643033E+04 -6.291794E-10  2.727673E-10
       163  16  1.453582E+06 -3.149946E+04 -2.822804E+04 -5.634110E+04  4.561806E-11 -4.873098E-10
       163  17  1.351253E+06 -5.706721E+04 -5.179383E+04 -1.175868E+04 -3.665935E-10  2.966478E-10
       163  18  1.249181E+06 -8.170085E+04 -7.394341E+04 -5.606340E+04  7.965146E-10 -1.132410E-10
       163  19  1.708673E+06  3.189588E+04  3.410424E+04 -5.652085E+04 -1.129013E+03  2.363852E+03
       163  20  1.810779E+06  5.691065E+04  5.936993E+04 -1.221760E+04  7.585885E+02  6.250624E+03
       163  21  1.913141E+06  8.285704E+04  8.604261E+04 -5.679740E+04  2.644371E+03  1.015280E+04
       163  22  1.581120E+06  1.988127E+02  2.938695E+03 -5.643097E+04  5.514899E+02  2.361110E+03
       163  23  1.580992E+06 -7.632860E+01  3.789992E+03 -1.198810E+04  2.445300E+03  6.248323E+03
       163  24  1.581110E+06  5.821672E+02  6.053654E+03 -5.643029E+04  4.336985E+03  1.015091E+04
       163  25  1.453582E+06 -3.149945E+04 -2.822802E+04 -5.634110E+04  2.231649E+03  2.358370E+03
       163  26  1.351253E+06 -5.706716E+04 -5.179372E+04 -1.175866E+04  4.131390E+03  6.246022E+03
       163  27  1.249181E+06 -8.170073E+04 -7.394315E+04 -5.606335E+04  6.028698E+03  1.014902E+04
       164   1  2.081436E+06  1.239138E+05  1.288835E+05 -5.692469E+04 -3.817835E+03 -1.248366E+04
       164   2  2.185837E+06  1.492893E+05  1.591907E+05 -1.157422E+04 -1.032273E+04 -1.647826E+04
       164   3  2.293020E+06  1.807611E+05  1.953253E+05 -5.817803E+04 -1.682281E+04 -2.031977E+04
       164   4  1.581629E+06 -7.795399E+01  7.700981E+03 -5.711469E+04 -5.580831E+03 -1.248225E+04
       164   5  1.580234E+06 -8.645561E+02  1.274744E+04 -1.113383E+04 -1.201391E+04 -1.647812E+04
       164   6  1.581603E+06  4.437447E+03  2.357699E+04 -5.711273E+04 -1.844110E+04 -2.032079E+04
       164   7  1.082049E+06 -1.240880E+05 -1.134995E+05 -5.730446E+04 -7.342415E+03 -1.248085E+04
       164   8  9.749644E+05 -1.510451E+05 -1.337221E+05 -1.069382E+04 -1.370345E+04 -1.647798E+04
       164   9  8.706469E+05 -1.719231E+05 -1.482075E+05 -5.604859E+04 -2.005753E+04 -2.032183E+04
       164  10  2.081436E+06  1.239137E+05  1.288831E+05 -5.692473E+04 -1.320765E-09 -1.462466E-10
       164  11  2.185836E+06  1.492889E+05  1.591900E+05 -1.157435E+04 -1.263481E-09 -1.390876E-10
       164  12  2.293019E+06  1.807606E+05  1.953240E+05 -5.817831E+04 -1.259047E-09 -5.593885E-11
       164  13  1.581629E+06 -7.812977E+01  7.700630E+03 -5.711474E+04 -9.352587E-10 -6.540994E-10
       164  14  1.580233E+06 -8.648866E+02  1.274666E+04 -1.113399E+04 -8.511662E-10 -2.548164E-10
       164  15  1.581602E+06  4.436912E+03  2.357558E+04 -5.711303E+04 -4.388206E-10 -5.165685E-10
       164  16  1.082048E+06 -1.240882E+05 -1.134999E+05 -5.730453E+04  1.836969E-09 -3.771651E-10
       164  17  9.749641E+05 -1.510455E+05 -1.337230E+05 -1.069400E+04 -2.356184E-10 -1.550554E-10
       164  18  8.706464E+05 -1.719236E+05 -1.482090E+05 -5.604892E+04  5.041218E-10 -2.656104E-10
       164  19  2.081436E+06  1.239138E+05  1.288835E+05 -5.692469E+04  3.817835E+03  1.248366E+04
       164  20  2.185837E+06  1.492893E+05  1.591907E+05 -1.157422E+04  1.032273E+04  1.647826E+04
       164  21  2.293020E+06  1.807611E+05  1.953253E+05 -5.817803E+04  1.682281E+04  2.031977E+04
       164  22  1.581629E+06 -7.795399E+01  7.700981E+03 -5.711469E+04  5.580831E+03  1.248225E+04
       164  23  1.580234E+06 -8.645561E+02  1.274744E+04 -1.113383E+04  1.201391E+04  1.647812E+04
       164  24  1.581603E+06  4.437447E+03  2.357699E+04 -5.711273E+04  1.844110E+04  2.032079E+04
       164  25  1.082049E+06 -1.240880E+05 -1.134995E+05 -5.730446E+04  7.342415E+03  1.248085E+04
       164  26  9.749644E+05 -1.510451E+05 -1.337221E+05 -1.069382E+04  1.370345E+04  1.647798E+04
       164  27  8.706469E+05 -1.719231E+05 -1.482075E+05 -5.604859E+04  2.005753E+04  2.032183E+04
       165   1  2.472466E+06  2.181305E+05  2.448832E+05 -5.330548E+04 -2.082115E+04 -2.314630E+04
       165   2  2.576051E+06  2.409067E+05  2.914442E+05 -1.144904E+04 -4.763932E+04 -2.741195E+04
       165   3  2.697768E+06  3.154622E+05  3.687061E+05 -6.742670E+04 -7.445712E+04 -2.903656E+04
       165   4  1.584901E+06 -1.951545E+03  3.001237E+04 -5.840775E+04 -2.321671E+04 -2.314829E+04
       165   5  1.575892E+06 -7.002671E+03  4.969748E+04 -9.511694E+03 -4.885360E+04 -2.741590E+04
       165   6  1.584827E+06  3.956724E+04  9.930159E+04 -5.845817E+04 -7.448528E+04 -2.904117E+04
       165   7  6.980520E+05 -2.220910E+05 -1.849151E+05 -6.350271E+04 -2.560884E+04 -2.315023E+04
       165   8  5.766441E+05 -2.549851E+05 -1.921209E+05 -7.577627E+03 -5.006589E+04 -2.741986E+04
       165   9  4.730144E+05 -2.364179E+05 -1.701918E+05 -4.950606E+04 -7.451329E+04 -2.904578E+04
       165  10  2.472466E+06  2.181298E+05  2.448814E+05 -5.330586E+04 -1.012220E-09 -3.662494E-10
       165  11  2.576048E+06  2.409053E+05  2.914385E+05 -1.145009E+04 -1.233796E-09  6.277164E-11
       165  12  2.697761E+06  3.154598E+05  3.686941E+05 -6.742843E+04 -9.873821E-10  1.833677E-10
       165  13  1.584900E+06 -1.952266E+03  3.001035E+04 -5.840818E+04 -1.741123E-09 -1.619623E-10
       165  14  1.575889E+06 -7.004118E+03  4.969160E+04 -9.512772E+03 -1.134864E-09  1.297516E-10
       165  15  1.584821E+06  3.956485E+04  9.928960E+04 -5.845991E+04  1.023749E-09 -2.984820E-10
       165  16  6.980512E+05 -2.220918E+05 -1.849173E+05 -6.350318E+04 -4.025415E-10 -4.616976E-10
       165  17  5.766412E+05 -2.549865E+05 -1.921270E+05 -7.578733E+03 -1.932370E-09 -7.163619E-10
       165  18  4.730082E+05 -2.364203E+05 -1.702038E+05 -4.950780E+04  6.985532E-10 -3.626842E-10
       165  19  2.472466E+06  2.181305E+05  2.448832E+05 -5.330548E+04  2.082115E+04  2.314630E+04
       165  20  2.576051E+06  2.409067E+05  2.914442E+05 -1.144904E+04  4.763932E+04  2.741195E+04
       165  21  2.697768E+06  3.154622E+05  3.687061E+05 -6.742670E+04  7.445712E+04  2.903656E+04
       165  22  1.584901E+06 -1.951545E+03  3.001237E+04 -5.840775E+04  2.321671E+04  2.314829E+04
       165  23  1.575892E+06 -7.002671E+03  4.969748E+04 -9.511694E+03  4.885360E+04  2.741590E+04
       165  24  1.584827E+06  3.956724E+04  9.930159E+04 -5.845817E+04  7.448528E+04  2.904117E+04
       165  25  6.980520E+05 -2.220910E+05 -1.849151E+05 -6.350271E+04  2.560884E+04  2.315023E+04
       165  26  5.766441E+05 -2.549851E+05 -1.921209E+05 -7.577627E+03  5.006589E+04  2.741986E+04
       165  27  4.730144E+05 -2.364179E+05 -1.701918E+05 -4.950606E+04  7.451329E+04  2.904578E+04
       166   1  2.911803E+06  3.058998E+05  4.359874E+05 -1.617196E+04 -8.489150E+04 -3.634760E+04
       166   2  2.970280E+06  2.950471E+05  5.350806E+05 -3.088061E+04 -2.023350E+05 -4.141146E+04
       166   3  3.159006E+06  7.294193E+05  8.224680E+05 -1.529965E+05 -3.199126E+05 -1.500584E+04
       166   4  1.609243E+06 -1.707991E+04  1.213357E+05 -6.016486E+04 -9.366721E+04 -3.636334E+04
       166   5  1.545029E+06 -5.787807E+04  1.912298E+05 -7.116779E+03 -1.972628E+05 -4.141145E+04
       166   6  1.608940E+06  3.446813E+05  4.401231E+05 -6.147136E+04 -3.009664E+05 -1.498385E+04
       166   7  3.082307E+05 -3.401764E+05 -1.934362E+05 -1.040662E+05 -1.024245E+05 -3.637785E+04
       166   8  1.216282E+05 -4.109489E+05 -1.527657E+05  1.659121E+04 -1.922017E+05 -4.141106E+04
       166   9  6.106903E+04 -4.020239E+04  5.760685E+04  2.982402E+04 -2.820665E+05 -1.495632E+04
       166  10  2.911795E+06  3.058965E+05  4.359715E+05 -1.617444E+04 -3.403652E-10  1.173593E-09
       166  11  2.970236E+06  2.950344E+05  5.350008E+05 -3.088735E+04 -1.375454E-09  5.339539E-10
       166  12  3.158897E+06  7.293917E+05  8.222763E+05 -1.530003E+05 -8.559021E-10 -4.790174E-10
       166  13  1.609233E+06 -1.708368E+04  1.213168E+05 -6.016760E+04  1.634357E-11  2.484852E-10
       166  14  1.544987E+06 -5.789033E+04  1.911536E+05 -7.123353E+03  1.124471E-09  7.701296E-11
       166  15  1.608843E+06  3.446568E+05  4.399529E+05 -6.147499E+04 -1.314008E-09  3.243612E-10
       166  16  3.082191E+05 -3.401806E+05 -1.934584E+05 -1.040692E+05  2.053226E-10 -1.918141E-11
       166  17  1.215881E+05 -4.109606E+05 -1.528383E+05  1.658480E+04 -1.314192E-09  1.581118E-09
       166  18  6.098355E+04 -4.022398E+04  5.745694E+04  2.982063E+04 -2.494027E-10  2.882094E-10
       166  19  2.911803E+06  3.058998E+05  4.359874E+05 -1.617196E+04  8.489150E+04  3.634760E+04
       166  20  2.970280E+06  2.950471E+05  5.350806E+05 -3.088061E+04  2.023350E+05  4.141146E+04
       166  21  3.159006E+06  7.294193E+05  8.224680E+05 -1.529965E+05  3.199126E+05  1.500584E+04
       166  22  1.609243E+06 -1.707991E+04  1.213357E+05 -6.016486E+04  9.366721E+04  3.636334E+04
       166  23  1.545029E+06 -5.787807E+04  1.912298E+05 -7.116779E+03  1.972628E+05  4.141145E+04
       166  24  1.608940E+06  3.446813E+05  4.401231E+05 -6.147136E+04  3.009664E+05  1.498385E+04
       166  25  3.082307E+05 -3.401764E+05 -1.934362E+05 -1.040662E+05  1.024245E+05  3.637785E+04
       166  26  1.216282E+05 -4.109489E+05 -1.527657E+05  1.659121E+04  1.922017E+05  4.141106E+04
       166  27  6.106903E+04 -4.020239E+04  5.760685E+04  2.982402E+04  2.820665E+05  1.495632E+04
       167   1 -5.820992E+03  6.173425E+04  1.400581E+04 -2.914324E+04 -3.097893E+03  5.653267E+04
       167   2 -9.187219E+04  3.153229E+04 -3.868334E+04 -7.519925E+03 -9.303308E+03  3.762460E+04
       167   3 -8.777993E+04  2.635765E+04 -5.653178E+04 -1.323326E+03 -9.837339E+03  1.873702E+04
       167   4  7.019591E+04  3.672085E+05  8.950728E+04 -1.046045E+04 -3.110054E+03  6.048945E+04
       167   5 -1.170608E+04  3.544918E+05  3.944954E+04 -2.874358E+03 -9.307627E+03  3.912191E+04
       167   6 -3.062756E+03  3.672177E+05  2.592833E+04 -1.071401E+04 -9.834271E+03  1.777439E+04
       167   7  1.462072E+05  6.727683E+05  1.650021E+05  8.231608E+03 -3.121975E+03  6.444818E+04
       167   8  6.845249E+04  6.775467E+05  1.175750E+05  1.773712E+03 -9.311921E+03  4.061998E+04
       167   9  8.164622E+04  7.081840E+05  1.083801E+05 -2.010978E+04 -9.831175E+03  1.681123E+04
       167  10 -5.821860E+03  6.173082E+04  1.399979E+04 -2.914310E+04  1.088559E-09 -2.914300E-09
       167  11 -9.187267E+04  3.153075E+04 -3.868617E+04 -7.519643E+03  1.547829E-09 -7.550537E-11
       167  12 -8.778012E+04  2.635724E+04 -5.653262E+04 -1.323177E+03  1.165357E-10  3.593155E-09
       167  13  7.019492E+04  3.672045E+05  8.950039E+04 -1.046030E+04  2.510709E-09 -4.292403E-11
       167  14 -1.170659E+04  3.544902E+05  3.944651E+04 -2.874065E+03  3.192803E-09  8.091256E-11
       167  15 -3.062944E+03  3.672173E+05  2.592756E+04 -1.071387E+04  1.761864E-09  9.196797E-11
       167  16  1.462061E+05  6.727638E+05  1.649943E+05  8.231770E+03  1.072826E-09  2.964368E-09
       167  17  6.845195E+04  6.775449E+05  1.175717E+05  1.774016E+03  4.152643E-09 -8.373179E-11
       167  18  8.164604E+04  7.081837E+05  1.083794E+05 -2.010964E+04  2.923582E-10 -3.655540E-09
       167  19 -5.820992E+03  6.173425E+04  1.400581E+04 -2.914324E+04  3.097893E+03 -5.653267E+04
       167  20 -9.187219E+04  3.153229E+04 -3.868334E+04 -7.519925E+03  9.303308E+03 -3.762460E+04
       167  21 -8.777993E+04  2.635765E+04 -5.653178E+04 -1.323326E+03  9.837339E+03 -1.873702E+04
       167  22  7.019591E+04  3.672085E+05  8.950728E+04 -1.046045E+04  3.110054E+03 -6.048945E+04
       167  23 -1.170608E+04  3.544918E+05  3.944954E+04 -2.874358E+03  9.307627E+03 -3.912191E+04
       167  24 -3.062756E+03  3.672177E+05  2.592833E+04 -1.071401E+04  9.834271E+03 -1.777439E+04
       167  25  1.462072E+05  6.727683E+05  1.650021E+05  8.231608E+03  3.121975E+03 -6.444818E+04
       167  26  6.845249E+04  6.775467E+05  1.175750E+05  1.773712E+03  9.311921E+03 -4.061998E+04
       167  27  8.164622E+04  7.081840E+05  1.083801E+05 -2.010978E+04  9.831175E+03 -1.681123E+04
       168   1 -8.397228E+04 -7.848828E+03 -6.802214E+04 -1.233946E+04 -9.524392E+03  1.280883E+04
       168   2 -9.842981E+04 -2.856476E+04 -8.115674E+04 -2.302073E+03 -1.070546E+04  6.653769E+03
       168   3 -9.909820E+04 -4.490829E+04 -8.681252E+04 -8.369021E+03 -1.056189E+04  5.029867E+02
       168   4  8.061942E+03  3.625482E+05  2.188877E+04 -1.077152E+04 -9.526363E+03  1.361876E+04
       168   5 -1.827262E+03  3.603131E+05  1.304028E+04 -2.728577E+03 -1.070564E+04  6.887962E+03
       168   6  2.168062E+03  3.625477E+05  1.206730E+04 -1.078929E+04 -1.056062E+04  1.612637E+02
       168   7  1.000861E+05  7.330705E+05  1.117898E+05 -9.202552E+03 -9.528329E+03  1.442917E+04
       168   8  9.476421E+04  7.493291E+05  1.072264E+05 -3.155256E+03 -1.070583E+04  7.122300E+03
       168   9  1.034222E+05  7.701553E+05  1.109351E+05 -1.321106E+04 -1.055935E+04 -1.806829E+02
       168  10 -8.397242E+04 -7.849028E+03 -6.802262E+04 -1.233937E+04 -1.368574E-09  9.699704E-10
       168  11 -9.842995E+04 -2.856484E+04 -8.115703E+04 -2.302016E+03 -6.735289E-10 -1.330926E-10
       168  12 -9.909832E+04 -4.490832E+04 -8.681273E+04 -8.369016E+03  2.307816E-10 -2.637794E-10
       168  13  8.061795E+03  3.625480E+05  2.188825E+04 -1.077142E+04 -5.846945E-10  1.034806E-10
       168  14 -1.827397E+03  3.603130E+05  1.303998E+04 -2.728517E+03 -3.445986E-11  8.433084E-14
       168  15  2.167942E+03  3.625477E+05  1.206709E+04 -1.078929E+04 -4.290669E-10  5.829819E-11
       168  16  1.000860E+05  7.330702E+05  1.117892E+05 -9.202441E+03 -2.744868E-10 -9.475423E-10
       168  17  9.476407E+04  7.493290E+05  1.072261E+05 -3.155195E+03 -8.089469E-10  1.945577E-10
       168  18  1.034220E+05  7.701553E+05  1.109349E+05 -1.321106E+04 -6.500726E-11  1.942785E-10
       168  19 -8.397228E+04 -7.848828E+03 -6.802214E+04 -1.233946E+04  9.524392E+03 -1.280883E+04
       168  20 -9.842981E+04 -2.856476E+04 -8.115674E+04 -2.302073E+03  1.070546E+04 -6.653769E+03
       168  21 -9.909820E+04 -4.490829E+04 -8.681252E+04 -8.369021E+03  1.056189E+04 -5.029867E+02
       168  22  8.061942E+03  3.625482E+05  2.188877E+04 -1.077152E+04  9.526363E+03 -1.361876E+04
       168  23 -1.827262E+03  3.603131E+05  1.304028E+04 -2.728577E+03  1.070564E+04 -6.887962E+03
       168  24  2.168062E+03  3.625477E+05  1.206730E+04 -1.078929E+04  1.056062E+04 -1.612637E+02
       168  25  1.000861E+05  7.330705E+05  1.117898E+05 -9.202552E+03  9.528329E+03 -1.442917E+04
       168  26  9.476421E+04  7.493291E+05  1.072264E+05 -3.155256E+03  1.070583E+04 -7.122300E+03
       168  27  1.034222E+05  7.701553E+05  1.109351E+05 -1.321106E+04  1.055935E+04  1.806829E+02
       169   1 -1.089340E+05 -7.475478E+04 -9.398357E+04 -1.301953E+04 -1.229167E+04 -4.369542E+03
       169   2 -1.174179E+05 -9.813013E+04 -9.657292E+04 -2.490999E+02 -1.308513E+04 -7.788087E+03
       169   3 -9.718983E+04 -1.136402E+05 -8.970821E+04 -4.089027E+03 -4.325464E+03 -1.119058E+04
       169   4 -1.029645E+02  3.634533E+05  1.209013E+04 -1.091023E+04 -1.229649E+04 -1.961227E+03
       169   5 -3.835891E+03  3.591624E+05  1.405310E+04 -2.587193E+03 -1.308120E+04 -9.510599E+03
       169   6  2.184884E+04  3.634475E+05  2.833257E+04 -1.087363E+04 -4.315825E+03 -1.704402E+04
       169   7  1.087140E+05  8.018369E+05  1.181501E+05 -8.799342E+03 -1.230131E+04  4.487820E+02
       169   8  1.097308E+05  8.166461E+05  1.246641E+05 -4.926923E+03 -1.307726E+04 -1.123437E+04
       169   9  1.408707E+05  8.407422E+05  1.463566E+05 -1.766337E+04 -4.306061E+03 -2.290195E+04
       169  10 -1.089342E+05 -7.475484E+04 -9.398389E+04 -1.301957E+04 -8.673562E-11  1.144787E-10
       169  11 -1.174181E+05 -9.813024E+04 -9.657336E+04 -2.491820E+02  3.357060E-10  4.317422E-10
       169  12 -9.718988E+04 -1.136404E+05 -8.970848E+04 -4.089066E+03 -1.873333E-10  3.834777E-11
       169  13 -1.031279E+02  3.634533E+05  1.208984E+04 -1.091025E+04  8.334165E-10 -2.216948E-12
       169  14 -3.836099E+03  3.591623E+05  1.405261E+04 -2.587293E+03  3.314071E-10 -1.645666E-11
       169  15  2.184875E+04  3.634472E+05  2.833199E+04 -1.087369E+04 -3.577112E-11  3.893579E-11
       169  16  1.087139E+05  8.018368E+05  1.181498E+05 -8.799338E+03 -4.313146E-10 -8.337230E-11
       169  17  1.097306E+05  8.166459E+05  1.246636E+05 -4.927041E+03  1.335867E-09 -5.040338E-10
       169  18  1.408705E+05  8.407416E+05  1.463556E+05 -1.766345E+04  8.971708E-10 -1.169777E-10
       169  19 -1.089340E+05 -7.475478E+04 -9.398357E+04 -1.301953E+04  1.229167E+04  4.369542E+03
       169  20 -1.174179E+05 -9.813013E+04 -9.657292E+04 -2.490999E+02  1.308513E+04  7.788087E+03
       169  21 -9.718983E+04 -1.136402E+05 -8.970821E+04 -4.089027E+03  4.325464E+03  1.119058E+04
       169  22 -1.029645E+02  3.634533E+05  1.209013E+04 -1.091023E+04  1.229649E+04  1.961227E+03
       169  23 -3.835891E+03  3.591624E+05  1.405310E+04 -2.587193E+03  1.308120E+04  9.510599E+03
       169  24  2.184884E+04  3.634475E+05  2.833257E+04 -1.087363E+04  4.315825E+03  1.704402E+04
       169  25  1.087140E+05  8.018369E+05  1.181501E+05 -8.799342E+03  1.230131E+04 -4.487820E+02
       169  26  1.097308E+05  8.166461E+05  1.246641E+05 -4.926923E+03  1.307726E+04  1.123437E+04
       169  27  1.408707E+05  8.407422E+05  1.463566E+05 -1.766337E+04  4.306061E+03  2.290195E+04
       170   1 -2.303169E+06 -8.116412E+05 -5.573810E+05 -7.807307E+05 -2.427461E+05 -8.429636E+04
       170   2 -2.231291E+06 -4.512849E+05 -3.309603E+05 -8.164971E+05 -1.587323E+05 -3.708452E+04
       170   3 -2.281535E+06 -4.529294E+05 -2.651231E+05 -7.837148E+05 -6.905590E+04 -4.807452E+03
       170   4 -1.654876E+06 -4.964925E+05 -3.662120E+05 -5.329355E+05 -2.344833E+05 -8.119973E+04
       170   5 -1.575397E+06 -1.839950E+05 -1.517432E+05 -6.171994E+05 -1.564128E+05 -3.621478E+04
       170   6 -1.616719E+06 -2.321051E+05 -9.300506E+04 -6.329562E+05 -7.268228E+04 -6.174558E+03
       170   7 -1.006167E+06 -1.812338E+05 -1.750850E+05 -2.848799E+05 -2.262110E+05 -7.809713E+04
       170   8 -9.190855E+05  8.334005E+04  2.743443E+04 -4.177043E+05 -1.540906E+05 -3.534381E+04
       170   9 -9.514757E+05 -1.127675E+04  7.907754E+04 -4.820624E+05 -7.631293E+04 -7.542825E+03
       170  10 -2.303235E+06 -8.116648E+05 -5.575056E+05 -7.807472E+05 -7.759733E-10 -1.912671E-10
       170  11 -2.231319E+06 -4.512932E+05 -3.310104E+05 -8.165019E+05 -4.981465E-10 -7.862115E-10
       170  12 -2.281540E+06 -4.529307E+05 -2.651321E+05 -7.837150E+05  4.385170E-11 -3.152800E-10
       170  13 -1.654937E+06 -4.965144E+05 -3.663281E+05 -5.329509E+05  5.525887E-10 -1.647738E-10
       170  14 -1.575424E+06 -1.840031E+05 -1.517918E+05 -6.172039E+05 -3.011932E-09 -3.516279E-10
       170  15 -1.616725E+06 -2.321065E+05 -9.301508E+04 -6.329566E+05 -1.055588E-10 -3.027771E-10
       170  16 -1.006224E+06 -1.812541E+05 -1.751928E+05 -2.848941E+05 -1.201691E-09 -5.463667E-11
       170  17 -9.191114E+05  8.333231E+04  2.738738E+04 -4.177087E+05 -8.819292E-10 -1.252744E-11
       170  18 -9.514819E+05 -1.127838E+04  7.906647E+04 -4.820628E+05 -1.234635E-09 -1.106514E-10
       170  19 -2.303169E+06 -8.116412E+05 -5.573810E+05 -7.807307E+05  2.427461E+05  8.429636E+04
       170  20 -2.231291E+06 -4.512849E+05 -3.309603E+05 -8.164971E+05  1.587323E+05  3.708452E+04
       170  21 -2.281535E+06 -4.529294E+05 -2.651231E+05 -7.837148E+05  6.905590E+04  4.807452E+03
       170  22 -1.654876E+06 -4.964925E+05 -3.662120E+05 -5.329355E+05  2.344833E+05  8.119973E+04
       170  23 -1.575397E+06 -1.839950E+05 -1.517432E+05 -6.171994E+05  1.564128E+05  3.621478E+04
       170  24 -1.616719E+06 -2.321051E+05 -9.300506E+04 -6.329562E+05  7.268228E+04  6.174558E+03
       170  25 -1.006167E+06 -1.812338E+05 -1.750850E+05 -2.848799E+05  2.262110E+05  7.809713E+04
       170  26 -9.190855E+05  8.334005E+04  2.743443E+04 -4.177043E+05  1.540906E+05  3.534381E+04
       170  27 -9.514757E+05 -1.127675E+04  7.907754E+04 -4.820624E+05  7.631293E+04  7.542825E+03
       171   1 -2.185350E+06 -5.003507E+05 -2.335896E+05 -7.784406E+05 -5.842927E+04 -4.117991E+03
       171   2 -2.155792E+06 -4.346829E+05 -1.838836E+05 -7.620947E+05 -3.909680E+04  3.211340E+03
       171   3 -2.120461E+06 -4.338295E+05 -1.598194E+05 -7.617989E+05 -1.918581E+04  9.005046E+03
       171   4 -1.603827E+06 -2.728053E+05 -7.598279E+04 -6.114931E+05 -5.814282E+04 -4.011966E+03
       171   5 -1.604498E+06 -2.245513E+05 -3.583487E+04 -6.094615E+05 -3.941238E+04  3.091157E+03
       171   6 -1.599262E+06 -2.409674E+05 -2.083152E+04 -6.234829E+05 -2.010467E+04  8.658481E+03
       171   7 -1.021979E+06 -4.523359E+04  8.159320E+04 -4.444022E+05 -5.785605E+04 -3.905810E+03
       171   8 -1.052911E+06 -1.439987E+04  1.121870E+05 -4.567053E+05 -3.972825E+04  2.970860E+03
       171   9 -1.077800E+06 -4.809144E+04  1.181330E+05 -4.850628E+05 -2.102438E+04  8.311611E+03
       171  10 -2.185354E+06 -5.003517E+05 -2.335960E+05 -7.784408E+05  1.809083E-09 -2.088775E-10
       171  11 -2.155793E+06 -4.346834E+05 -1.838865E+05 -7.620946E+05  1.372255E-09  2.058061E-10
       171  12 -2.120462E+06 -4.338296E+05 -1.598202E+05 -7.617988E+05 -4.668589E-10  5.647109E-10
       171  13 -1.603831E+06 -2.728063E+05 -7.598919E+04 -6.114933E+05 -3.545936E-11 -1.437957E-10
       171  14 -1.604500E+06 -2.245517E+05 -3.583781E+04 -6.094614E+05 -2.972143E-10 -3.035787E-11
       171  15 -1.599263E+06 -2.409676E+05 -2.083242E+04 -6.234827E+05  3.942588E-10  3.408039E-10
       171  16 -1.021982E+06 -4.523451E+04  8.158687E+04 -4.444023E+05 -1.175112E-09 -4.180674E-10
       171  17 -1.052912E+06 -1.440030E+04  1.121840E+05 -4.567052E+05 -5.435657E-10  1.679415E-10
       171  18 -1.077801E+06 -4.809163E+04  1.181321E+05 -4.850627E+05  8.866992E-10  5.288126E-11
       171  19 -2.185350E+06 -5.003507E+05 -2.335896E+05 -7.784406E+05  5.842927E+04  4.117991E+03
       171  20 -2.155792E+06 -4.346829E+05 -1.838836E+05 -7.620947E+05  3.909680E+04 -3.211340E+03
       171  21 -2.120461E+06 -4.338295E+05 -1.598194E+05 -7.617989E+05  1.918581E+04 -9.005046E+03
       171  22 -1.603827E+06 -2.728053E+05 -7.598279E+04 -6.114931E+05  5.814282E+04  4.011966E+03
       171  23 -1.604498E+06 -2.245513E+05 -3.583487E+04 -6.094615E+05  3.941238E+04 -3.091157E+03
       171  24 -1.599262E+06 -2.409674E+05 -2.083152E+04 -6.234829E+05  2.010467E+04 -8.658481E+03
       171  25 -1.021979E+06 -4.523359E+04  8.159320E+04 -4.444022E+05  5.785605E+04  3.905810E+03
       171  26 -1.052911E+06 -1.439987E+04  1.121870E+05 -4.567053E+05  3.972825E+04 -2.970860E+03
       171  27 -1.077800E+06 -4.809144E+04  1.181330E+05 -4.850628E+05  2.102438E+04 -8.311611E+03
       172   1 -2.048674E+06 -4.176311E+05 -1.374254E+05 -7.456659E+05 -1.612840E+04  8.898852E+03
       172   2 -2.021595E+06 -3.843069E+05 -1.188723E+05 -7.202160E+05 -1.122301E+04  9.085373E+03
       172   3 -1.969774E+06 -3.828010E+05 -1.048489E+05 -7.242041E+05 -6.233302E+03  9.042665E+03
       172   4 -1.596880E+06 -2.464727E+05 -1.638097E+04 -6.216258E+05 -1.667412E+04  8.692881E+03
       172   5 -1.608986E+06 -2.286521E+05 -8.369462E+03 -6.076287E+05 -1.185800E+04  8.846242E+03
       172   6 -1.596333E+06 -2.426281E+05 -4.814036E+03 -6.230688E+05 -6.957902E+03  8.770327E+03
       172   7 -1.144889E+06 -7.530169E+04  1.046455E+05 -4.975040E+05 -1.722027E+04  8.486746E+03
       172   8 -1.196213E+06 -7.298726E+04  1.021182E+05 -4.949739E+05 -1.249345E+04  8.606937E+03
       172   9 -1.222758E+06 -1.024476E+05  9.520827E+04 -5.218789E+05 -7.682981E+03  8.497812E+03
       172  10 -2.048675E+06 -4.176312E+05 -1.374261E+05 -7.456658E+05 -5.017707E-10  2.638244E-10
       172  11 -2.021595E+06 -3.843070E+05 -1.188726E+05 -7.202159E+05  8.551425E-10 -2.454148E-10
       172  12 -1.969774E+06 -3.828011E+05 -1.048491E+05 -7.242041E+05  3.677314E-10 -6.519228E-11
       172  13 -1.596880E+06 -2.464729E+05 -1.638163E+04 -6.216257E+05  6.303277E-10  3.009849E-10
       172  14 -1.608986E+06 -2.286522E+05 -8.369873E+03 -6.076286E+05  1.232991E-09 -2.888989E-10
       172  15 -1.596333E+06 -2.426282E+05 -4.814271E+03 -6.230687E+05  6.727319E-10 -1.078046E-10
       172  16 -1.144889E+06 -7.530184E+04  1.046448E+05 -4.975039E+05  4.972368E-10 -2.903258E-10
       172  17 -1.196213E+06 -7.298739E+04  1.021178E+05 -4.949738E+05  1.143415E-09 -2.862907E-10
       172  18 -1.222758E+06 -1.024477E+05  9.520802E+04 -5.218789E+05  6.442963E-11 -4.013003E-11
       172  19 -2.048674E+06 -4.176311E+05 -1.374254E+05 -7.456659E+05  1.612840E+04 -8.898852E+03
       172  20 -2.021595E+06 -3.843069E+05 -1.188723E+05 -7.202160E+05  1.122301E+04 -9.085373E+03
       172  21 -1.969774E+06 -3.828010E+05 -1.048489E+05 -7.242041E+05  6.233302E+03 -9.042665E+03
       172  22 -1.596880E+06 -2.464727E+05 -1.638097E+04 -6.216258E+05  1.667412E+04 -8.692881E+03
       172  23 -1.608986E+06 -2.286521E+05 -8.369462E+03 -6.076287E+05  1.185800E+04 -8.846242E+03
       172  24 -1.596333E+06 -2.426281E+05 -4.814036E+03 -6.230688E+05  6.957902E+03 -8.770327E+03
       172  25 -1.144889E+06 -7.530169E+04  1.046455E+05 -4.975040E+05  1.722027E+04 -8.486746E+03
       172  26 -1.196213E+06 -7.298726E+04  1.021182E+05 -4.949739E+05  1.249345E+04 -8.606937E+03
       172  27 -1.222758E+06 -1.024476E+05  9.520827E+04 -5.218789E+05  7.682981E+03 -8.497812E+03
       173   1 -1.894552E+06 -3.563324E+05 -8.366944E+04 -7.047967E+05 -5.181276E+03  8.268684E+03
       173   2 -1.865723E+06 -3.247702E+05 -7.068025E+04 -6.762896E+05 -3.364542E+03  6.965742E+03
       173   3 -1.807902E+06 -3.231236E+05 -5.870750E+04 -6.811681E+05 -1.522735E+03  5.592351E+03
       173   4 -1.595593E+06 -2.437366E+05 -3.791900E+03 -6.233664E+05 -5.869705E+03  8.010180E+03
       173   5 -1.610056E+06 -2.285541E+05 -2.258526E+03 -6.067579E+05 -4.080801E+03  6.697070E+03
       173   6 -1.595524E+06 -2.432810E+05 -1.719238E+03 -6.235350E+05 -2.266923E+03  5.313500E+03
       173   7 -1.296548E+06 -1.311353E+05  7.607800E+04 -5.419004E+05 -6.558501E+03  7.751538E+03
       173   8 -1.354326E+06 -1.323341E+05  6.615754E+04 -5.372003E+05 -4.797386E+03  6.428276E+03
       173   9 -1.383103E+06 -1.634358E+05  5.526505E+04 -5.658842E+05 -3.011392E+03  5.034544E+03
       173  10 -1.894552E+06 -3.563324E+05 -8.366961E+04 -7.047967E+05  5.089638E-10  1.721827E-11
       173  11 -1.865723E+06 -3.247702E+05 -7.068036E+04 -6.762896E+05 -9.965860E-10 -1.092112E-10
       173  12 -1.807902E+06 -3.231236E+05 -5.870756E+04 -6.811680E+05 -4.579912E-10 -3.387555E-10
       173  13 -1.595593E+06 -2.437367E+05 -3.792086E+03 -6.233664E+05 -7.124658E-10  2.158325E-10
       173  14 -1.610056E+06 -2.285542E+05 -2.258642E+03 -6.067579E+05  3.554149E-10 -1.906060E-10
       173  15 -1.595524E+06 -2.432810E+05 -1.719300E+03 -6.235350E+05 -3.000696E-10 -7.148303E-11
       173  16 -1.296548E+06 -1.311353E+05  7.607780E+04 -5.419004E+05 -1.584842E-10 -1.834280E-11
       173  17 -1.354326E+06 -1.323342E+05  6.615742E+04 -5.372003E+05  5.673162E-11 -1.869645E-10
       173  18 -1.383103E+06 -1.634358E+05  5.526498E+04 -5.658842E+05  2.628422E-10 -4.019512E-10
       173  19 -1.894552E+06 -3.563324E+05 -8.366944E+04 -7.047967E+05  5.181276E+03 -8.268684E+03
       173  20 -1.865723E+06 -3.247702E+05 -7.068025E+04 -6.762896E+05  3.364542E+03 -6.965742E+03
       173  21 -1.807902E+06 -3.231236E+05 -5.870750E+04 -6.811681E+05  1.522735E+03 -5.592351E+03
       173  22 -1.595593E+06 -2.437366E+05 -3.791900E+03 -6.233664E+05  5.869705E+03 -8.010180E+03
       173  23 -1.610056E+06 -2.285541E+05 -2.258526E+03 -6.067579E+05  4.080801E+03 -6.697070E+03
       173  24 -1.595524E+06 -2.432810E+05 -1.719238E+03 -6.235350E+05  2.266923E+03 -5.313500E+03
       173  25 -1.296548E+06 -1.311353E+05  7.607800E+04 -5.419004E+05  6.558501E+03 -7.751538E+03
       173  26 -1.354326E+06 -1.323341E+05  6.615754E+04 -5.372003E+05  4.797386E+03 -6.428276E+03
       173  27 -1.383103E+06 -1.634358E+05  5.526505E+04 -5.658842E+05  3.011392E+03 -5.034544E+03
       174   1 -1.728535E+06 -2.937322E+05 -3.718705E+04 -6.601360E+05 -8.413050E+02  4.622025E+03
       174   2 -1.698417E+06 -2.612951E+05 -2.557651E+04 -6.302610E+05  8.737603E+02  3.158089E+03
       174   3 -1.638132E+06 -2.599497E+05 -1.488292E+04 -6.352967E+05  2.593293E+03  1.681015E+03
       174   4 -1.595260E+06 -2.435851E+05 -1.688161E+03 -6.238541E+05 -1.584040E+03  4.343865E+03
       174   5 -1.610362E+06 -2.281881E+05 -2.019069E+03 -6.063422E+05  1.258768E+02  2.878096E+03
       174   6 -1.595298E+06 -2.438816E+05 -3.262659E+03 -6.237416E+05  1.840179E+03  1.399167E+03
       174   7 -1.461968E+06 -1.934371E+05  3.380909E+04 -5.875652E+05 -2.326948E+03  4.065640E+03
       174   8 -1.522299E+06 -1.950806E+05  2.153770E+04 -5.824203E+05 -6.221236E+02  2.598060E+03
       174   9 -1.552463E+06 -2.278134E+05  8.357465E+03 -6.121858E+05  1.087006E+03  1.117297E+03
       174  10 -1.728535E+06 -2.937322E+05 -3.718709E+04 -6.601360E+05 -2.038613E-10 -1.044096E-10
       174  11 -1.698417E+06 -2.612951E+05 -2.557653E+04 -6.302610E+05  5.999879E-10  6.445709E-10
       174  12 -1.638132E+06 -2.599497E+05 -1.488294E+04 -6.352967E+05  3.530788E-09  1.881975E-09
       174  13 -1.595260E+06 -2.435851E+05 -1.688201E+03 -6.238541E+05  6.634286E-10 -4.556805E-10
       174  14 -1.610362E+06 -2.281881E+05 -2.019085E+03 -6.063422E+05  1.982550E-09 -1.585014E-10
       174  15 -1.595298E+06 -2.438816E+05 -3.262669E+03 -6.237416E+05  2.471732E-09  1.432802E-09
       174  16 -1.461968E+06 -1.934371E+05  3.380905E+04 -5.875652E+05  3.748342E-10 -3.704850E-10
       174  17 -1.522299E+06 -1.950806E+05  2.153768E+04 -5.824203E+05  2.155482E-11 -5.015694E-10
       174  18 -1.552463E+06 -2.278134E+05  8.357460E+03 -6.121858E+05  1.098217E-09  6.777392E-10
       174  19 -1.728535E+06 -2.937322E+05 -3.718705E+04 -6.601360E+05  8.413050E+02 -4.622025E+03
       174  20 -1.698417E+06 -2.612951E+05 -2.557651E+04 -6.302610E+05 -8.737603E+02 -3.158089E+03
       174  21 -1.638132E+06 -2.599497E+05 -1.488292E+04 -6.352967E+05 -2.593293E+03 -1.681015E+03
       174  22 -1.595260E+06 -2.435851E+05 -1.688161E+03 -6.238541E+05  1.584040E+03 -4.343865E+03
       174  23 -1.610362E+06 -2.281881E+05 -2.019069E+03 -6.063422E+05 -1.258768E+02 -2.878096E+03
       174  24 -1.595298E+06 -2.438816E+05 -3.262659E+03 -6.237416E+05 -1.840179E+03 -1.399167E+03
       174  25 -1.461968E+06 -1.934371E+05  3.380909E+04 -5.875652E+05  2.326948E+03 -4.065640E+03
       174  26 -1.522299E+06 -1.950806E+05  2.153770E+04 -5.824203E+05  6.221236E+02 -2.598060E+03
       174  27 -1.552463E+06 -2.278134E+05  8.357465E+03 -6.121858E+05 -1.087006E+03 -1.117297E+03
       175   1 -1.557261E+06 -2.294395E+05  6.200605E+03 -6.140725E+05  3.637927E+03  8.089869E+02
       175   2 -1.526824E+06 -1.962718E+05  1.519951E+04 -5.836734E+05  7.904773E+03  2.748376E+02
       175   3 -1.467909E+06 -1.978539E+05  2.039582E+04 -5.873477E+05  1.213213E+04 -1.519035E+02
       175   4 -1.595498E+06 -2.434374E+05 -4.123449E+03 -6.240265E+05  2.861581E+03  5.184491E+02
       175   5 -1.609960E+06 -2.276574E+05 -7.062534E+03 -6.063920E+05  7.171210E+03  2.100649E-01
       175   6 -1.595953E+06 -2.466366E+05 -1.383850E+04 -6.228320E+05  1.144106E+04 -4.107196E+02
       175   7 -1.633733E+06 -2.574352E+05 -1.444763E+04 -6.339800E+05  2.085288E+03  2.279298E+02
       175   8 -1.693088E+06 -2.590425E+05 -2.932516E+04 -6.291079E+05  6.437756E+03 -2.743763E+02
       175   9 -1.723982E+06 -2.954180E+05 -4.807417E+04 -6.583097E+05  1.075015E+04 -6.694746E+02
       175  10 -1.557261E+06 -2.294395E+05  6.200579E+03 -6.140725E+05  1.285131E-09  1.088195E-09
       175  11 -1.526824E+06 -1.962718E+05  1.519940E+04 -5.836734E+05 -7.194455E-10 -3.613073E-10
       175  12 -1.467909E+06 -1.978539E+05  2.039554E+04 -5.873477E+05  1.061619E-09 -8.158437E-11
       175  13 -1.595498E+06 -2.434374E+05 -4.123465E+03 -6.240265E+05  2.179899E-09  1.322137E-09
       175  14 -1.609960E+06 -2.276574E+05 -7.062630E+03 -6.063920E+05  2.097202E-10 -8.170198E-10
       175  15 -1.595953E+06 -2.466366E+05 -1.383874E+04 -6.228320E+05  1.242176E-09 -5.922116E-11
       175  16 -1.633733E+06 -2.574352E+05 -1.444764E+04 -6.339800E+05  2.389997E-09  1.779304E-09
       175  17 -1.693088E+06 -2.590425E+05 -2.932524E+04 -6.291079E+05  1.529184E-10 -3.872087E-11
       175  18 -1.723982E+06 -2.954181E+05 -4.807438E+04 -6.583097E+05  1.357163E-09  3.324936E-10
       175  19 -1.557261E+06 -2.294395E+05  6.200605E+03 -6.140725E+05 -3.637927E+03 -8.089869E+02
       175  20 -1.526824E+06 -1.962718E+05  1.519951E+04 -5.836734E+05 -7.904773E+03 -2.748376E+02
       175  21 -1.467909E+06 -1.978539E+05  2.039582E+04 -5.873477E+05 -1.213213E+04  1.519035E+02
       175  22 -1.595498E+06 -2.434374E+05 -4.123449E+03 -6.240265E+05 -2.861581E+03 -5.184491E+02
       175  23 -1.609960E+06 -2.276574E+05 -7.062534E+03 -6.063920E+05 -7.171210E+03 -2.100649E-01
       175  24 -1.595953E+06 -2.466366E+05 -1.383850E+04 -6.228320E+05 -1.144106E+04  4.107196E+02
       175  25 -1.633733E+06 -2.574352E+05 -1.444763E+04 -6.339800E+05 -2.085288E+03 -2.279298E+02
       175  26 -1.693088E+06 -2.590425E+05 -2.932516E+04 -6.291079E+05 -6.437756E+03  2.743763E+02
       175  27 -1.723982E+06 -2.954180E+05 -4.807417E+04 -6.583097E+05 -1.075015E+04  6.694746E+02
       176   1 -1.387603E+06 -1.665905E+05  3.811448E+04 -5.710698E+05  1.538815E+04 -3.124367E+02
       176   2 -1.356705E+06 -1.280505E+05  3.695373E+04 -5.377229E+05  3.148933E+04  3.639684E+03
       176   3 -1.311492E+06 -1.537046E+05  1.481030E+04 -5.292632E+05  4.721970E+04  8.588337E+03
       176   4 -1.597605E+06 -2.423979E+05 -1.759922E+04 -6.248396E+05  1.444785E+04 -6.646244E+02
       176   5 -1.606627E+06 -2.236944E+05 -3.020083E+04 -6.073653E+05  3.094473E+04  3.435264E+03
       176   6 -1.601420E+06 -2.692746E+05 -6.410659E+04 -6.147797E+05  4.706963E+04  8.531174E+03
       176   7 -1.807565E+06 -3.182039E+05 -7.331684E+04 -6.785935E+05  1.350790E+04 -1.016694E+03
       176   8 -1.856488E+06 -3.193341E+05 -9.736102E+04 -6.769823E+05  3.040037E+04  3.230936E+03
       176   9 -1.891267E+06 -3.848369E+05 -1.430311E+05 -7.002590E+05  4.691963E+04  8.474041E+03
       176  10 -1.387603E+06 -1.665906E+05  3.811403E+04 -5.710698E+05  1.793976E-09  6.602519E-10
       176  11 -1.356706E+06 -1.280508E+05  3.695184E+04 -5.377230E+05  9.697590E-10  5.908923E-10
       176  12 -1.311494E+06 -1.537053E+05  1.480597E+04 -5.292636E+05  1.304533E-09  9.267985E-10
       176  13 -1.597605E+06 -2.423980E+05 -1.759961E+04 -6.248396E+05  2.014944E-09  4.631744E-10
       176  14 -1.606628E+06 -2.236946E+05 -3.020266E+04 -6.073654E+05  1.158233E-09  6.460221E-10
       176  15 -1.601422E+06 -2.692753E+05 -6.411091E+04 -6.147800E+05  1.415515E-09  7.841949E-10
       176  16 -1.807565E+06 -3.182039E+05 -7.331719E+04 -6.785935E+05  2.654102E-09  5.308063E-10
       176  17 -1.856489E+06 -3.193343E+05 -9.736278E+04 -6.769824E+05  2.011826E-09  1.030089E-09
       176  18 -1.891269E+06 -3.848375E+05 -1.430354E+05 -7.002594E+05  1.459850E-09  4.509145E-10
       176  19 -1.387603E+06 -1.665905E+05  3.811448E+04 -5.710698E+05 -1.538815E+04  3.124367E+02
       176  20 -1.356705E+06 -1.280505E+05  3.695373E+04 -5.377229E+05 -3.148933E+04 -3.639684E+03
       176  21 -1.311492E+06 -1.537046E+05  1.481030E+04 -5.292632E+05 -4.721970E+04 -8.588337E+03
       176  22 -1.597605E+06 -2.423979E+05 -1.759922E+04 -6.248396E+05 -1.444785E+04  6.646244E+02
       176  23 -1.606627E+06 -2.236944E+05 -3.020083E+04 -6.073653E+05 -3.094473E+04 -3.435264E+03
       176  24 -1.601420E+06 -2.692746E+05 -6.410659E+04 -6.147797E+05 -4.706963E+04 -8.531174E+03
       176  25 -1.807565E+06 -3.182039E+05 -7.331684E+04 -6.785935E+05 -1.350790E+04  1.016694E+03
       176  26 -1.856488E+06 -3.193341E+05 -9.736102E+04 -6.769823E+05 -3.040037E+04 -3.230936E+03
       176  27 -1.891267E+06 -3.848369E+05 -1.430311E+05 -7.002590E+05 -4.691963E+04 -8.474041E+03
       177   1 -1.224452E+06 -1.149423E+05  2.024205E+04 -5.540736E+05  6.211479E+04  1.137179E+04
       177   2 -1.185607E+06 -2.365032E+04 -1.888350E+04 -4.888584E+05  1.290283E+05  3.442287E+04
       177   3 -1.236797E+06 -2.471771E+05 -1.862442E+05 -3.792514E+05  1.921969E+05  6.746033E+04
       177   4 -1.612063E+06 -2.351865E+05 -7.846547E+04 -6.331532E+05  5.934385E+04  1.033481E+04
       177   5 -1.582489E+06 -1.890459E+05 -1.279542E+05 -6.134110E+05  1.302434E+05  3.487450E+04
       177   6 -1.643822E+06 -4.586410E+05 -3.089092E+05 -5.492595E+05  1.973954E+05  6.939200E+04
       177   7 -1.999528E+06 -3.554318E+05 -1.771843E+05 -7.121933E+05  5.657481E+04  9.298255E+03
       177   8 -1.979218E+06 -3.544219E+05 -2.370394E+05 -7.378882E+05  1.314576E+05  3.532572E+04
       177   9 -2.050679E+06 -6.700460E+05 -4.315906E+05 -7.191524E+05  2.025902E+05  7.132103E+04
       177  10 -1.224457E+06 -1.149434E+05  2.023454E+04 -5.540742E+05  6.313633E-10  6.327473E-10
       177  11 -1.185625E+06 -2.365608E+04 -1.891709E+04 -4.888620E+05 -4.088420E-10  7.802237E-11
       177  12 -1.236838E+06 -2.471920E+05 -1.863223E+05 -3.792619E+05 -3.119979E-10 -9.546356E-11
       177  13 -1.612067E+06 -2.351875E+05 -7.847231E+04 -6.331537E+05  1.484174E-09  5.401931E-10
       177  14 -1.582508E+06 -1.890517E+05 -1.279885E+05 -6.134147E+05  9.302029E-10  4.423136E-10
       177  15 -1.643865E+06 -4.586567E+05 -3.089918E+05 -5.492706E+05 -9.215938E-11  4.033332E-11
       177  16 -1.999531E+06 -3.554328E+05 -1.771905E+05 -7.121937E+05  1.917193E-09  3.998545E-10
       177  17 -1.979237E+06 -3.544280E+05 -2.370744E+05 -7.378919E+05  1.032862E-09  2.969419E-10
       177  18 -2.050724E+06 -6.700626E+05 -4.316776E+05 -7.191641E+05 -3.210849E-10 -8.203643E-11
       177  19 -1.224452E+06 -1.149423E+05  2.024205E+04 -5.540736E+05 -6.211479E+04 -1.137179E+04
       177  20 -1.185607E+06 -2.365032E+04 -1.888350E+04 -4.888584E+05 -1.290283E+05 -3.442287E+04
       177  21 -1.236797E+06 -2.471771E+05 -1.862442E+05 -3.792514E+05 -1.921969E+05 -6.746033E+04
       177  22 -1.612063E+06 -2.351865E+05 -7.846547E+04 -6.331532E+05 -5.934385E+04 -1.033481E+04
       177  23 -1.582489E+06 -1.890459E+05 -1.279542E+05 -6.134110E+05 -1.302434E+05 -3.487450E+04
       177  24 -1.643822E+06 -4.586410E+05 -3.089092E+05 -5.492595E+05 -1.973954E+05 -6.939200E+04
       177  25 -1.999528E+06 -3.554318E+05 -1.771843E+05 -7.121933E+05 -5.657481E+04 -9.298255E+03
       177  26 -1.979218E+06 -3.544219E+05 -2.370394E+05 -7.378882E+05 -1.314576E+05 -3.532572E+04
       177  27 -2.050679E+06 -6.700460E+05 -4.315906E+05 -7.191524E+05 -2.025902E+05 -7.132103E+04
       178   1 -1.451775E+06 -2.949038E+05 -2.584069E+05 -3.132772E+04  8.381406E+04  1.525282E+04
       178   2 -1.360785E+06 -4.043122E+05 -3.079369E+05 -4.367529E+03  6.260543E+04  4.454301E+04
       178   3 -1.224769E+06 -3.622281E+05 -3.049185E+05 -7.554198E+04  4.151095E+04  4.004656E+04
       178   4  2.071537E+05  1.189900E+05  1.523684E+05 -5.964809E+04  1.039542E+05  1.532358E+04
       178   5  1.834513E+05 -2.051768E+04  6.590531E+04 -1.036631E+04  6.809541E+04  4.455033E+04
       178   6  2.072068E+05 -6.188434E+03  4.206571E+04 -5.920133E+04  3.235569E+04  4.002598E+04
       178   7  1.868589E+06  5.326815E+05  5.629410E+05 -8.804664E+04  1.241480E+05  1.539242E+04
       178   8  1.729870E+06  3.631023E+05  4.395762E+05 -1.638160E+04  7.359885E+04  4.455754E+04
       178   9  1.641059E+06  3.497018E+05  3.889027E+05 -4.282352E+04  2.317928E+04  4.000493E+04
       178  10 -1.451783E+06 -2.949060E+05 -2.584206E+05 -3.132875E+04  1.364559E-09  3.916702E-10
       178  11 -1.360790E+06 -4.043154E+05 -3.079480E+05 -4.369777E+03  9.994666E-10 -1.324195E-09
       178  12 -1.224772E+06 -3.622303E+05 -3.049248E+05 -7.554332E+04 -1.437780E-09 -3.338458E-10
       178  13  2.071420E+05  1.189868E+05  1.523476E+05 -5.964937E+04 -2.282035E-11 -1.151616E-09
       178  14  1.834458E+05 -2.052106E+04  6.589287E+04 -1.036875E+04  6.869901E-10 -3.434279E-10
       178  15  2.072052E+05 -6.190435E+03  4.206073E+04 -5.920238E+04  7.531604E-10 -6.718008E-10
       178  16  1.868572E+06  5.326771E+05  5.629117E+05 -8.804818E+04 -4.047666E-10  1.474824E-09
       178  17  1.729863E+06  3.630987E+05  4.395623E+05 -1.638424E+04 -1.272714E-09 -1.176160E-09
       178  18  1.641058E+06  3.496999E+05  3.888987E+05 -4.282427E+04 -1.018216E-10 -1.014226E-09
       178  19 -1.451775E+06 -2.949038E+05 -2.584069E+05 -3.132772E+04 -8.381406E+04 -1.525282E+04
       178  20 -1.360785E+06 -4.043122E+05 -3.079369E+05 -4.367529E+03 -6.260543E+04 -4.454301E+04
       178  21 -1.224769E+06 -3.622281E+05 -3.049185E+05 -7.554198E+04 -4.151095E+04 -4.004656E+04
       178  22  2.071537E+05  1.189900E+05  1.523684E+05 -5.964809E+04 -1.039542E+05 -1.532358E+04
       178  23  1.834513E+05 -2.051768E+04  6.590531E+04 -1.036631E+04 -6.809541E+04 -4.455033E+04
       178  24  2.072068E+05 -6.188434E+03  4.206571E+04 -5.920133E+04 -3.235569E+04 -4.002598E+04
       178  25  1.868589E+06  5.326815E+05  5.629410E+05 -8.804664E+04 -1.241480E+05 -1.539242E+04
       178  26  1.729870E+06  3.631023E+05  4.395762E+05 -1.638160E+04 -7.359885E+04 -4.455754E+04
       178  27  1.641059E+06  3.497018E+05  3.889027E+05 -4.282352E+04 -2.317928E+04 -4.000493E+04
       179   1 -1.051484E+06 -2.974648E+05 -2.691403E+05 -5.676924E+04  2.559011E+04  3.256040E+04
       179   2 -9.436281E+05 -2.855904E+05 -2.588394E+05 -1.003862E+04  1.806393E+04  3.124940E+04
       179   3 -8.282487E+05 -2.559630E+05 -2.387587E+05 -6.050129E+04  1.052851E+04  2.696953E+04
       179   4  1.985184E+05  1.336302E+04  3.437197E+04 -5.913242E+04  2.570329E+04  3.255612E+04
       179   5  1.946730E+05 -2.638519E+03  1.708093E+04 -1.053475E+04  1.688038E+04  3.124517E+04
       179   6  1.985541E+05 -6.784906E+02  1.045666E+04 -5.911896E+04  8.049578E+03  2.696775E+04
       179   7  1.449948E+06  3.240760E+05  3.377713E+05 -6.150072E+04  2.581665E+04  3.255185E+04
       179   8  1.334159E+06  2.802182E+05  2.929079E+05 -1.103190E+04  1.569465E+04  3.124096E+04
       179   9  1.226320E+06  2.545286E+05  2.595959E+05 -5.773418E+04  5.566542E+03  2.696597E+04
       179  10 -1.051485E+06 -2.974661E+05 -2.691435E+05 -5.676991E+04 -1.133562E-09 -1.887776E-10
       179  11 -9.436288E+05 -2.855915E+05 -2.588419E+05 -1.003907E+04 -5.755520E-10 -2.479927E-10
       179  12 -8.282490E+05 -2.559638E+05 -2.387603E+05 -6.050152E+04 -4.865915E-11  1.090224E-10
       179  13  1.985174E+05  1.336170E+04  3.436873E+04 -5.913309E+04  2.120786E-09 -8.058078E-10
       179  14  1.946725E+05 -2.639644E+03  1.707856E+04 -1.053517E+04  4.958507E-12  9.608058E-10
       179  15  1.985538E+05 -6.792891E+02  1.045517E+04 -5.911913E+04 -2.843763E-09  4.241756E-10
       179  16  1.449947E+06  3.240747E+05  3.377681E+05 -6.150140E+04  1.126619E-09 -1.164601E-10
       179  17  1.334158E+06  2.802171E+05  2.929056E+05 -1.103229E+04 -7.725220E-10  6.618863E-10
       179  18  1.226320E+06  2.545278E+05  2.595945E+05 -5.773430E+04 -3.170324E-10  2.922031E-10
       179  19 -1.051484E+06 -2.974648E+05 -2.691403E+05 -5.676924E+04 -2.559011E+04 -3.256040E+04
       179  20 -9.436281E+05 -2.855904E+05 -2.588394E+05 -1.003862E+04 -1.806393E+04 -3.124940E+04
       179  21 -8.282487E+05 -2.559630E+05 -2.387587E+05 -6.050129E+04 -1.052851E+04 -2.696953E+04
       179  22  1.985184E+05  1.336302E+04  3.437197E+04 -5.913242E+04 -2.570329E+04 -3.255612E+04
       179  23  1.946730E+05 -2.638519E+03  1.708093E+04 -1.053475E+04 -1.688038E+04 -3.124517E+04
       179  24  1.985541E+05 -6.784906E+02  1.045666E+04 -5.911896E+04 -8.049578E+03 -2.696775E+04
       179  25  1.449948E+06  3.240760E+05  3.377713E+05 -6.150072E+04 -2.581665E+04 -3.255185E+04
       179  26  1.334159E+06  2.802182E+05  2.929079E+05 -1.103190E+04 -1.569465E+04 -3.124096E+04
       179  27  1.226320E+06  2.545286E+05  2.595959E+05 -5.773418E+04 -5.566542E+03 -2.696597E+04
       180   1 -6.494132E+05 -2.089263E+05 -1.967825E+05 -5.813969E+04  8.037381E+03  2.405589E+04
       180   2 -5.394697E+05 -1.832821E+05 -1.739997E+05 -1.002243E+04  5.922625E+03  2.007865E+04
       180   3 -4.281402E+05 -1.553470E+05 -1.491578E+05 -5.826044E+04  3.799856E+03  1.585147E+04
       180   4  1.972455E+05  1.447790E+03  8.175932E+03 -5.893603E+04  6.379398E+03  2.405511E+04
       180   5  1.965600E+05 -3.615714E+02  4.399929E+03 -1.076251E+04  4.153883E+03  2.007940E+04
       180   6  1.972676E+05  1.388720E+02  2.758758E+03 -5.893717E+04  1.920728E+03  1.585393E+04
       180   7  1.044560E+06  2.117693E+05  2.130828E+05 -5.973330E+04  4.719156E+03  2.405434E+04
       180   8  9.330847E+05  1.825192E+05  1.827606E+05 -1.150331E+04  2.383047E+03  2.008015E+04
       180   9  8.230325E+05  1.555960E+05  1.546471E+05 -5.961440E+04  3.971179E+01  1.585638E+04
       180  10 -6.494135E+05 -2.089269E+05 -1.967837E+05 -5.813985E+04 -6.016076E-10  3.005059E-10
       180  11 -5.394698E+05 -1.832825E+05 -1.740006E+05 -1.002253E+04 -3.196679E-09  1.718367E-10
       180  12 -4.281403E+05 -1.553472E+05 -1.491583E+05 -5.826049E+04 -1.050735E-10 -7.646395E-10
       180  13  1.972453E+05  1.447157E+03  8.174768E+03 -5.893616E+04 -2.024927E-12  4.033655E-10
       180  14  1.965599E+05 -3.620090E+02  4.399139E+03 -1.076258E+04  1.118685E-10  1.280174E-09
       180  15  1.972675E+05  1.386011E+02  2.758279E+03 -5.893720E+04  1.449311E-10  1.421527E-09
       180  16  1.044559E+06  2.117687E+05  2.130817E+05 -5.973339E+04  5.488703E-11 -2.693587E-10
       180  17  9.330846E+05  1.825187E+05  1.827598E+05 -1.150335E+04  1.023367E-10 -8.199034E-10
       180  18  8.230325E+05  1.555957E+05  1.546466E+05 -5.961440E+04  2.748001E-10 -3.949285E-10
       180  19 -6.494132E+05 -2.089263E+05 -1.967825E+05 -5.813969E+04 -8.037381E+03 -2.405589E+04
       180  20 -5.394697E+05 -1.832821E+05 -1.739997E+05 -1.002243E+04 -5.922625E+03 -2.007865E+04
       180  21 -4.281402E+05 -1.553470E+05 -1.491578E+05 -5.826044E+04 -3.799856E+03 -1.585147E+04
       180  22  1.972455E+05  1.447790E+03  8.175932E+03 -5.893603E+04 -6.379398E+03 -2.405511E+04
       180  23  1.965600E+05 -3.615714E+02  4.399929E+03 -1.076251E+04 -4.153883E+03 -2.007940E+04
       180  24  1.972676E+05  1.388720E+02  2.758758E+03 -5.893717E+04 -1.920728E+03 -1.585393E+04
       180  25  1.044560E+06  2.117693E+05  2.130828E+05 -5.973330E+04 -4.719156E+03 -2.405434E+04
       180  26  9.330847E+05  1.825192E+05  1.827606E+05 -1.150331E+04 -2.383047E+03 -2.008015E+04
       180  27  8.230325E+05  1.555960E+05  1.546471E+05 -5.961440E+04 -3.971179E+01 -1.585638E+04
       181   1 -2.494841E+05 -1.105637E+05 -1.056948E+05 -5.813588E+04  3.274084E+03  1.335693E+04
       181   2 -1.393323E+05 -8.358473E+04 -8.006901E+04 -1.034227E+04  2.553493E+03  9.165537E+03
       181   3 -2.927886E+04 -5.597392E+04 -5.389422E+04 -5.840516E+04  1.829359E+03  4.958999E+03
       181   4  1.969906E+05  3.106433E+02  2.171241E+03 -5.882662E+04  1.467154E+03  1.336005E+04
       181   5  1.970489E+05 -5.097924E+00  1.445774E+03 -1.089999E+04  7.394462E+02  9.169334E+03
       181   6  1.970005E+05  3.133631E+02  1.275158E+03 -5.882660E+04  8.321384E+00  4.963518E+03
       181   7  6.436475E+05  1.111705E+05  1.100230E+05 -5.951776E+04 -3.410722E+02  1.336317E+04
       181   8  5.335334E+05  8.356623E+04  8.295242E+04 -1.145795E+04 -1.075581E+03  9.173133E+03
       181   9  4.233265E+05  5.659687E+04  5.644083E+04 -5.924817E+04 -1.813378E+03  4.968039E+03
       181  10 -2.494842E+05 -1.105639E+05 -1.056951E+05 -5.813591E+04 -5.669732E-10 -3.085471E-10
       181  11 -1.393323E+05 -8.358482E+04 -8.006918E+04 -1.034229E+04 -1.911168E-09 -3.403908E-10
       181  12 -2.927887E+04 -5.597394E+04 -5.389427E+04 -5.840516E+04  1.350081E-09 -2.934819E-10
       181  13  1.969905E+05  3.104510E+02  2.170902E+03 -5.882663E+04 -1.048111E-09 -1.641669E-09
       181  14  1.970489E+05 -5.188363E+00  1.445615E+03 -1.090000E+04  7.973186E-10  3.653822E-10
       181  15  1.970005E+05  3.133367E+02  1.275111E+03 -5.882660E+04  3.293062E-10 -1.109271E-09
       181  16  6.436474E+05  1.111703E+05  1.100226E+05 -5.951776E+04 -2.667549E-10  2.436098E-10
       181  17  5.335334E+05  8.356614E+04  8.295226E+04 -1.145794E+04 -7.120607E-10 -5.385760E-10
       181  18  4.233265E+05  5.659684E+04  5.644077E+04 -5.924817E+04 -1.449360E-09 -2.166361E-09
       181  19 -2.494841E+05 -1.105637E+05 -1.056948E+05 -5.813588E+04 -3.274084E+03 -1.335693E+04
       181  20 -1.393323E+05 -8.358473E+04 -8.006901E+04 -1.034227E+04 -2.553493E+03 -9.165537E+03
       181  21 -2.927886E+04 -5.597392E+04 -5.389422E+04 -5.840516E+04 -1.829359E+03 -4.958999E+03
       181  22  1.969906E+05  3.106433E+02  2.171241E+03 -5.882662E+04 -1.467154E+03 -1.336005E+04
       181  23  1.970489E+05 -5.097925E+00  1.445774E+03 -1.089999E+04 -7.394462E+02 -9.169334E+03
       181  24  1.970005E+05  3.133631E+02  1.275158E+03 -5.882660E+04 -8.321384E+00 -4.963518E+03
       181  25  6.436475E+05  1.111705E+05  1.100230E+05 -5.951776E+04  3.410722E+02 -1.336317E+04
       181  26  5.335334E+05  8.356623E+04  8.295242E+04 -1.145795E+04  1.075581E+03 -9.173133E+03
       181  27  4.233265E+05  5.659687E+04  5.644083E+04 -5.924817E+04  1.813378E+03 -4.968039E+03
       182   1  1.491158E+05 -1.153518E+04 -9.951010E+03 -5.868436E+04  1.586950E+03  2.505680E+03
       182   2  2.592444E+05  1.544793E+04  1.674494E+04 -1.104376E+04  7.272487E+02 -1.696213E+03
       182   3  3.690946E+05  4.316236E+04  4.405726E+04 -5.913259E+04 -1.319484E+02 -5.881611E+03
       182   4  1.969736E+05  2.862430E+02  1.305344E+03 -5.879938E+04 -2.331799E+02  2.510402E+03
       182   5  1.971188E+05  1.549199E+01  1.694000E+03 -1.093414E+04 -1.085849E+03 -1.691656E+03
       182   6  1.969717E+05  4.753143E+02  2.694561E+03 -5.879889E+04 -1.937865E+03 -5.877178E+03
       182   7  2.448335E+05  1.210751E+04  1.256155E+04 -5.891441E+04 -2.053449E+03  2.515124E+03
       182   8  1.349967E+05 -1.541723E+04 -1.335720E+04 -1.082453E+04 -2.898766E+03 -1.687099E+03
       182   9  2.487588E+04 -4.221389E+04 -3.867023E+04 -5.846526E+04 -3.743283E+03 -5.872745E+03
       182  10  1.491158E+05 -1.153519E+04 -9.951027E+03 -5.868436E+04 -5.844964E-10  1.800339E-09
       182  11  2.592444E+05  1.544793E+04  1.674493E+04 -1.104376E+04 -2.341608E-09  3.798105E-09
       182  12  3.690946E+05  4.316232E+04  4.405720E+04 -5.913259E+04  1.636541E-09 -1.906995E-09
       182  13  1.969736E+05  2.862362E+02  1.305332E+03 -5.879938E+04  1.064693E-09  1.377854E-10
       182  14  1.971188E+05  1.548860E+01  1.693992E+03 -1.093414E+04  3.811661E-10 -1.087989E-09
       182  15  1.969717E+05  4.752762E+02  2.694489E+03 -5.879890E+04  1.744335E-10  5.410320E-10
       182  16  2.448335E+05  1.210750E+04  1.256153E+04 -5.891440E+04  8.203381E-10 -1.178892E-10
       182  17  1.349966E+05 -1.541724E+04 -1.335723E+04 -1.082453E+04  3.964933E-10 -6.534536E-10
       182  18  2.487586E+04 -4.221393E+04 -3.867033E+04 -5.846528E+04 -2.408969E-09  3.637162E-11
       182  19  1.491158E+05 -1.153518E+04 -9.951010E+03 -5.868436E+04 -1.586950E+03 -2.505680E+03
       182  20  2.592444E+05  1.544793E+04  1.674494E+04 -1.104376E+04 -7.272487E+02  1.696213E+03
       182  21  3.690946E+05  4.316236E+04  4.405726E+04 -5.913259E+04  1.319484E+02  5.881611E+03
       182  22  1.969736E+05  2.862430E+02  1.305344E+03 -5.879938E+04  2.331799E+02 -2.510402E+03
       182  23  1.971188E+05  1.549199E+01  1.694000E+03 -1.093414E+04  1.085849E+03  1.691656E+03
       182  24  1.969717E+05  4.753143E+02  2.694561E+03 -5.879889E+04  1.937865E+03  5.877178E+03
       182  25  2.448335E+05  1.210751E+04  1.256155E+04 -5.891441E+04  2.053449E+03 -2.515124E+03
       182  26  1.349967E+05 -1.541723E+04 -1.335720E+04 -1.082453E+04  2.898766E+03  1.687099E+03
       182  27  2.487588E+04 -4.221389E+04 -3.867023E+04 -5.846526E+04  3.743283E+03  5.872745E+03
       183   1  5.479413E+05  8.736287E+04  8.872458E+04 -5.921601E+04 -6.308443E+02 -8.361962E+03
       183   2  6.577442E+05  1.141363E+05  1.173312E+05 -1.162277E+04 -3.594334E+03 -1.256902E+04
       183   3  7.685444E+05  1.439360E+05  1.485843E+05 -5.999189E+04 -6.553344E+03 -1.656343E+04
       183   4  1.972250E+05  1.917320E+02  3.435579E+03 -5.885304E+04 -2.497476E+03 -8.357773E+03
       183   5  1.967326E+05 -3.539828E+02  5.672556E+03 -1.086791E+04 -5.367248E+03 -1.256600E+04
       183   6  1.972111E+05  2.112299E+03  1.049321E+04 -5.884951E+04 -8.232022E+03 -1.656147E+04
       183   7 -1.533791E+05 -8.698845E+04 -8.186232E+04 -5.849020E+04 -4.363056E+03 -8.353585E+03
       183   8 -2.640850E+05 -1.148599E+05 -1.060014E+05 -1.011351E+04 -7.138849E+03 -1.256298E+04
       183   9 -3.738242E+05 -1.397353E+05 -1.276213E+05 -5.770804E+04 -9.909158E+03 -1.655952E+04
       183  10  5.479413E+05  8.736280E+04  8.872445E+04 -5.921601E+04  7.839468E-10 -2.484669E-09
       183  11  6.577442E+05  1.141362E+05  1.173309E+05 -1.162280E+04  1.377106E-10 -2.275529E-10
       183  12  7.685443E+05  1.439357E+05  1.485837E+05 -5.999197E+04 -1.186754E-09  2.718114E-10
       183  13  1.972250E+05  1.916553E+02  3.435436E+03 -5.885305E+04 -1.114042E-09  5.264367E-11
       183  14  1.967326E+05 -3.541601E+02  5.672205E+03 -1.086796E+04  8.368477E-10 -1.172716E-09
       183  15  1.972109E+05  2.111987E+03  1.049257E+04 -5.884962E+04 -1.214119E-09 -5.561142E-10
       183  16 -1.533791E+05 -8.698853E+04 -8.186248E+04 -5.849023E+04 -1.179391E-09  3.271254E-10
       183  17 -2.640851E+05 -1.148600E+05 -1.060018E+05 -1.011359E+04 -6.925858E-10  2.018258E-09
       183  18 -3.738244E+05 -1.397356E+05 -1.276220E+05 -5.770817E+04  7.039474E-10  5.422949E-10
       183  19  5.479413E+05  8.736287E+04  8.872458E+04 -5.921601E+04  6.308443E+02  8.361962E+03
       183  20  6.577442E+05  1.141363E+05  1.173312E+05 -1.162277E+04  3.594334E+03  1.256902E+04
       183  21  7.685444E+05  1.439360E+05  1.485843E+05 -5.999189E+04  6.553344E+03  1.656343E+04
       183  22  1.972250E+05  1.917320E+02  3.435579E+03 -5.885304E+04  2.497476E+03  8.357773E+03
       183  23  1.967326E+05 -3.539828E+02  5.672556E+03 -1.086791E+04  5.367248E+03  1.256600E+04
       183  24  1.972111E+05  2.112299E+03  1.049321E+04 -5.884951E+04  8.232022E+03  1.656147E+04
       183  25 -1.533791E+05 -8.698845E+04 -8.186232E+04 -5.849020E+04  4.363056E+03  8.353585E+03
       183  26 -2.640850E+05 -1.148599E+05 -1.060014E+05 -1.011351E+04  7.138849E+03  1.256298E+04
       183  27 -3.738242E+05 -1.397353E+05 -1.276213E+05 -5.770804E+04  9.909158E+03  1.655952E+04
       184   1  9.495547E+05  1.857770E+05  1.954999E+05 -5.756739E+04 -7.996828E+03 -1.938980E+04
       184   2  1.056391E+06  2.107933E+05  2.307271E+05 -1.235699E+04 -2.049345E+04 -2.362451E+04
       184   3  1.171656E+06  2.592502E+05  2.801276E+05 -6.367685E+04 -3.298307E+04 -2.537216E+04
       184   4  1.987574E+05 -6.978048E+02  1.338622E+04 -5.898253E+04 -1.036487E+04 -1.938775E+04
       184   5  1.946233E+05 -3.163441E+03  2.209456E+04 -1.070949E+04 -2.177143E+04 -2.362559E+04
       184   6  1.987298E+05  1.764140E+04  4.423519E+04 -5.897454E+04 -3.316879E+04 -2.537493E+04
       184   7 -5.515257E+05 -1.872140E+05 -1.687681E+05 -6.039573E+04 -1.273005E+04 -1.938570E+04
       184   8 -6.664669E+05 -2.171746E+05 -1.865914E+05 -9.064127E+03 -2.304764E+04 -2.362669E+04
       184   9 -7.733328E+05 -2.240367E+05 -1.917255E+05 -5.427950E+04 -3.335420E+04 -2.537770E+04
       184  10  9.495545E+05  1.857766E+05  1.954991E+05 -5.756751E+04  1.176655E-09  6.248802E-10
       184  11  1.056391E+06  2.107926E+05  2.307253E+05 -1.235738E+04 -2.046880E-09 -1.169585E-09
       184  12  1.171654E+06  2.592492E+05  2.801244E+05 -6.367752E+04 -8.064893E-10 -5.524493E-10
       184  13  1.987572E+05 -6.982373E+02  1.338531E+04 -5.898269E+04  3.073802E-12  8.568940E-10
       184  14  1.946226E+05 -3.164168E+03  2.209262E+04 -1.070990E+04  3.695789E-11  9.511645E-10
       184  15  1.987284E+05  1.764041E+04  4.423191E+04 -5.897521E+04  8.064807E-10 -1.139130E-10
       184  16 -5.515260E+05 -1.872144E+05 -1.687692E+05 -6.039593E+04 -1.310661E-09  5.647313E-10
       184  17 -6.664676E+05 -2.171753E+05 -1.865934E+05 -9.064566E+03 -4.107912E-10  2.850665E-10
       184  18 -7.733342E+05 -2.240377E+05 -1.917288E+05 -5.428019E+04  1.253233E-09 -2.100639E-10
       184  19  9.495547E+05  1.857770E+05  1.954999E+05 -5.756739E+04  7.996828E+03  1.938980E+04
       184  20  1.056391E+06  2.107933E+05  2.307271E+05 -1.235699E+04  2.049345E+04  2.362451E+04
       184  21  1.171656E+06  2.592502E+05  2.801276E+05 -6.367685E+04  3.298307E+04  2.537216E+04
       184  22  1.987574E+05 -6.978048E+02  1.338622E+04 -5.898253E+04  1.036487E+04  1.938775E+04
       184  23  1.946233E+05 -3.163441E+03  2.209456E+04 -1.070949E+04  2.177143E+04  2.362559E+04
       184  24  1.987298E+05  1.764140E+04  4.423519E+04 -5.897454E+04  3.316879E+04  2.537493E+04
       184  25 -5.515257E+05 -1.872140E+05 -1.687681E+05 -6.039573E+04  1.273005E+04  1.938570E+04
       184  26 -6.664669E+05 -2.171746E+05 -1.865914E+05 -9.064127E+03  2.304764E+04  2.362669E+04
       184  27 -7.733328E+05 -2.240367E+05 -1.917255E+05 -5.427950E+04  3.335420E+04  2.537770E+04
       185   1  1.363638E+06  2.788444E+05  3.332949E+05 -4.017935E+04 -3.375028E+04 -3.201264E+04
       185   2  1.446102E+06  2.880086E+05  3.909227E+05 -2.153116E+04 -9.217955E+04 -3.644043E+04
       185   3  1.588822E+06  4.971255E+05  5.370628E+05 -1.000912E+05 -1.506659E+05 -1.259913E+04
       185   4  2.097278E+05 -7.574026E+03  5.409259E+04 -5.905680E+04 -4.172131E+04 -3.201666E+04
       185   5  1.805931E+05 -2.599225E+04  8.508875E+04 -1.058570E+04 -8.783211E+04 -3.644238E+04
       185   6  2.096802E+05  1.536202E+05  1.961709E+05 -5.932786E+04 -1.339881E+05 -1.257924E+04
       185   7 -9.429666E+05 -2.940885E+05 -2.252049E+05 -7.789910E+04 -4.967754E+04 -3.202020E+04
       185   8 -1.083454E+06 -3.401097E+05 -2.208599E+05  3.370481E+02 -8.349333E+04 -3.644418E+04
       185   9 -1.167731E+06 -1.900205E+05 -1.448602E+05 -1.865571E+04 -1.173470E+05 -1.255714E+04
       185  10  1.363636E+06  2.788430E+05  3.332908E+05 -4.018022E+04 -7.602755E-10  2.308719E-10
       185  11  1.446093E+06  2.880049E+05  3.909043E+05 -2.153387E+04 -8.720031E-10  2.838511E-10
       185  12  1.588797E+06  4.971192E+05  5.370200E+05 -1.000928E+05 -1.515459E-10 -3.860537E-10
       185  13  2.097257E+05 -7.575594E+03  5.408739E+04 -5.905788E+04 -1.012597E-09  2.340321E-10
       185  14  1.805844E+05 -2.599574E+04  8.507177E+04 -1.058827E+04 -6.035296E-10  1.579963E-09
       185  15  2.096609E+05  1.536152E+05  1.961369E+05 -5.932922E+04  1.147553E-09 -2.857674E-11
       185  16 -9.429695E+05 -2.940903E+05 -2.252115E+05 -7.790039E+04  1.224380E-09 -1.488895E-10
       185  17 -1.083462E+06 -3.401130E+05 -2.208755E+05  3.345957E+02 -2.202736E-09  3.722291E-10
       185  18 -1.167746E+06 -1.900244E+05 -1.448864E+05 -1.865690E+04 -5.919123E-10 -8.258364E-10
       185  19  1.363638E+06  2.788444E+05  3.332949E+05 -4.017935E+04  3.375028E+04  3.201264E+04
       185  20  1.446102E+06  2.880086E+05  3.909227E+05 -2.153116E+04  9.217955E+04  3.644043E+04
       185  21  1.588822E+06  4.971255E+05  5.370628E+05 -1.000912E+05  1.506659E+05  1.259913E+04
       185  22  2.097278E+05 -7.574026E+03  5.409259E+04 -5.905680E+04  4.172131E+04  3.201666E+04
       185  23  1.805931E+05 -2.599225E+04  8.508875E+04 -1.058570E+04  8.783211E+04  3.644238E+04
       185  24  2.096802E+05  1.536202E+05  1.961709E+05 -5.932786E+04  1.339881E+05  1.257924E+04
       185  25 -9.429666E+05 -2.940885E+05 -2.252049E+05 -7.789910E+04  4.967754E+04  3.202020E+04
       185  26 -1.083454E+06 -3.401097E+05 -2.208599E+05  3.370481E+02  8.349333E+04  3.644418E+04
       185  27 -1.167731E+06 -1.900205E+05 -1.448602E+05 -1.865571E+04  1.173470E+05  1.255714E+04
       186   1  1.818593E+05  4.806919E+05  2.175878E+05 -1.310082E+05  5.887823E+02  1.140485E+05
       186   2 -1.774367E+04  2.822670E+05  8.047895E+04 -2.826578E+04  5.738903E+02  7.006412E+04
       186   3 -4.347004E+04  1.313903E+05  1.511830E+04 -7.699292E+04 -5.693319E+03  2.606378E+04
       186   4  1.334984E+05  2.885808E+05  1.698143E+05 -9.333431E+04  6.013081E+02  1.127781E+05
       186   5 -2.211105E+04  2.650521E+05  7.640352E+04 -1.790740E+04  5.686397E+02  7.150739E+04
       186   6 -4.305109E+03  2.885930E+05  5.287767E+04 -9.394208E+04 -5.712639E+03  3.020850E+04
       186   7  8.514003E+04  9.650627E+04  1.220389E+05 -5.567206E+04  6.136826E+02  1.115081E+05
       186   8 -2.647804E+04  2.478378E+05  7.232815E+04 -7.549313E+03  5.634371E+02  7.295063E+04
       186   9  3.485908E+04  4.458189E+05  9.063549E+04 -1.108955E+05 -5.732183E+03  3.435427E+04
       186  10  1.818558E+05  4.806779E+05  2.175633E+05 -1.310082E+05  8.474838E-10  1.154789E-09
       186  11 -1.774499E+04  2.822617E+05  8.046972E+04 -2.826581E+04 -1.798551E-10  1.264273E-09
       186  12 -4.347025E+04  1.313896E+05  1.511697E+04 -7.699280E+04 -1.325378E-09 -1.628751E-09
       186  13  1.334950E+05  2.885672E+05  1.697904E+05 -9.333436E+04  2.861718E-09 -2.377783E-09
       186  14 -2.211242E+04  2.650466E+05  7.639392E+04 -1.790743E+04  4.266283E-10 -1.056248E-11
       186  15 -4.305389E+03  2.885920E+05  5.287590E+04 -9.394194E+04  1.000957E-10  1.852158E-09
       186  16  8.513669E+04  9.649292E+04  1.220155E+05 -5.567212E+04  3.128246E-10 -1.716296E-09
       186  17 -2.647947E+04  2.478320E+05  7.231815E+04 -7.549346E+03  5.008346E-09 -3.160400E-09
       186  18  3.485873E+04  4.458176E+05  9.063321E+04 -1.108954E+05 -5.727801E-10  2.804848E-10
       186  19  1.818593E+05  4.806919E+05  2.175878E+05 -1.310082E+05 -5.887823E+02 -1.140485E+05
       186  20 -1.774367E+04  2.822670E+05  8.047895E+04 -2.826578E+04 -5.738903E+02 -7.006412E+04
       186  21 -4.347004E+04  1.313903E+05  1.511830E+04 -7.699292E+04  5.693319E+03 -2.606378E+04
       186  22  1.334984E+05  2.885808E+05  1.698143E+05 -9.333431E+04 -6.013081E+02 -1.127781E+05
       186  23 -2.211105E+04  2.650521E+05  7.640352E+04 -1.790740E+04 -5.686397E+02 -7.150739E+04
       186  24 -4.305109E+03  2.885930E+05  5.287767E+04 -9.394208E+04  5.712639E+03 -3.020850E+04
       186  25  8.514003E+04  9.650627E+04  1.220389E+05 -5.567206E+04 -6.136826E+02 -1.115081E+05
       186  26 -2.647804E+04  2.478378E+05  7.232815E+04 -7.549313E+03 -5.634371E+02 -7.295063E+04
       186  27  3.485908E+04  4.458189E+05  9.063549E+04 -1.108955E+05  5.732183E+03 -3.435427E+04
       187   1 -9.393669E+04 -1.606856E+05 -6.076249E+04 -9.786984E+04 -1.089000E+04  1.842337E+04
       187   2 -1.576461E+05 -3.410152E+05 -1.160483E+05 -1.620043E+04 -1.694636E+04  2.164541E+03
       187   3 -1.852860E+05 -5.110581E+05 -1.519231E+05 -8.692679E+04 -2.091135E+04 -1.407338E+04
       187   4  1.566827E+04  2.803929E+05  4.645035E+04 -9.392490E+04 -1.090301E+04  2.153347E+04
       187   5 -4.534690E+03  2.751743E+05  3.324464E+04 -1.774468E+04 -1.695383E+04  4.358929E+03
       187   6  1.147497E+04  2.803644E+05  4.007700E+04 -9.394932E+04 -2.091400E+04 -1.279922E+04
       187   7  1.252590E+05  7.216491E+05  1.536492E+05 -8.997695E+04 -1.091597E+04  2.464577E+04
       187   8  1.485489E+05  8.917108E+05  1.825103E+05 -1.929012E+04 -1.696130E+04  6.555487E+03
       187   9  2.081901E+05  1.072359E+06  2.320319E+05 -1.009803E+05 -2.091668E+04 -1.152343E+04
       187  10 -9.393691E+04 -1.606860E+05 -6.076335E+04 -9.786967E+04 -1.983726E-09  1.618264E-09
       187  11 -1.576464E+05 -3.410153E+05 -1.160488E+05 -1.620040E+04 -7.075354E-11  1.102105E-09
       187  12 -1.852865E+05 -5.110584E+05 -1.519243E+05 -8.692703E+04 -5.320767E-10 -1.715407E-09
       187  13  1.566802E+04  2.803924E+05  4.644926E+04 -9.392471E+04 -8.981256E-10 -2.201002E-09
       187  14 -4.535004E+03  2.751743E+05  3.324406E+04 -1.774462E+04 -5.882708E-11  4.448354E-12
       187  15  1.147446E+04  2.803641E+05  4.007587E+04 -9.394953E+04 -1.086033E-09  1.345157E-09
       187  16  1.252587E+05  7.216484E+05  1.536478E+05 -8.997673E+04 -1.958058E-09 -2.144529E-09
       187  17  1.485486E+05  8.917106E+05  1.825096E+05 -1.929003E+04 -1.043543E-09 -2.351122E-09
       187  18  2.081896E+05  1.072359E+06  2.320308E+05 -1.009805E+05 -7.775783E-10  7.123334E-10
       187  19 -9.393669E+04 -1.606856E+05 -6.076249E+04 -9.786984E+04  1.089000E+04 -1.842337E+04
       187  20 -1.576461E+05 -3.410152E+05 -1.160483E+05 -1.620043E+04  1.694636E+04 -2.164541E+03
       187  21 -1.852860E+05 -5.110581E+05 -1.519231E+05 -8.692679E+04  2.091135E+04  1.407338E+04
       187  22  1.566827E+04  2.803929E+05  4.645035E+04 -9.392490E+04  1.090301E+04 -2.153347E+04
       187  23 -4.534690E+03  2.751743E+05  3.324464E+04 -1.774468E+04  1.695383E+04 -4.358929E+03
       187  24  1.147497E+04  2.803644E+05  4.007700E+04 -9.394932E+04  2.091400E+04  1.279922E+04
       187  25  1.252590E+05  7.216491E+05  1.536492E+05 -8.997695E+04  1.091597E+04 -2.464577E+04
       187  26  1.485489E+05  8.917108E+05  1.825103E+05 -1.929012E+04  1.696130E+04 -6.555487E+03
       187  27  2.081901E+05  1.072359E+06  2.320319E+05 -1.009803E+05  2.091668E+04  1.152343E+04
       188   1 -2.701075E+05 -7.899412E+05 -2.168601E+05 -1.043179E+05 -2.931045E+04 -2.963802E+04
       188   2 -3.287334E+05 -9.852718E+05 -2.431964E+05 -7.661175E+03 -3.605641E+04 -4.883239E+04
       188   3 -2.553417E+05 -1.143452E+06 -2.236871E+05 -6.402002E+04 -1.247772E+04 -6.796384E+04
       188   4 -2.616966E+03  2.866364E+05  4.408061E+04 -9.415192E+04 -2.933753E+04 -2.018536E+04
       188   5 -1.751959E+04  2.669394E+05  5.983150E+04 -1.757405E+04 -3.604287E+04 -5.251877E+04
       188   6  1.017353E+05  2.865656E+05  1.304812E+05 -9.398761E+04 -1.244924E+04 -8.479521E+04
       188   7  2.647891E+05  1.364274E+06  3.049382E+05 -8.396735E+04 -2.936428E+04 -1.071633E+04
       188   8  2.935796E+05  1.520585E+06  3.627468E+05 -2.750619E+04 -3.602923E+04 -5.621248E+04
       188   9  4.586627E+05  1.718445E+06  4.844988E+05 -1.240236E+05 -1.241917E+04 -1.016652E+05
       188  10 -2.701086E+05 -7.899423E+05 -2.168634E+05 -1.043186E+05 -1.281995E-09  9.837685E-10
       188  11 -3.287354E+05 -9.852747E+05 -2.432033E+05 -7.662594E+03  1.363442E-09  1.126399E-09
       188  12 -2.553431E+05 -1.143457E+06 -2.236961E+05 -6.402071E+04 -5.104952E-11 -4.083056E-10
       188  13 -2.618000E+03  2.866357E+05  4.407822E+04 -9.415240E+04  7.025303E-10 -1.695110E-09
       188  14 -1.752173E+04  2.669361E+05  5.982388E+04 -1.757557E+04  8.238282E-10  2.253109E-12
       188  15  1.017332E+05  2.865578E+05  1.304674E+05 -9.398846E+04  5.445842E-10  4.898625E-10
       188  16  2.647881E+05  1.364273E+06  3.049364E+05 -8.396760E+04 -1.726234E-09 -1.201952E-09
       188  17  2.935774E+05  1.520581E+06  3.627384E+05 -2.750782E+04  9.673938E-10 -2.086955E-09
       188  18  4.586597E+05  1.718434E+06  4.844791E+05 -1.240246E+05  9.698850E-10 -2.904899E-11
       188  19 -2.701075E+05 -7.899412E+05 -2.168601E+05 -1.043179E+05  2.931045E+04  2.963802E+04
       188  20 -3.287334E+05 -9.852718E+05 -2.431964E+05 -7.661175E+03  3.605641E+04  4.883239E+04
       188  21 -2.553417E+05 -1.143452E+06 -2.236871E+05 -6.402002E+04  1.247772E+04  6.796384E+04
       188  22 -2.616966E+03  2.866364E+05  4.408061E+04 -9.415192E+04  2.933753E+04  2.018536E+04
       188  23 -1.751959E+04  2.669394E+05  5.983150E+04 -1.757405E+04  3.604287E+04  5.251877E+04
       188  24  1.017353E+05  2.865656E+05  1.304812E+05 -9.398761E+04  1.244924E+04  8.479521E+04
       188  25  2.647891E+05  1.364274E+06  3.049382E+05 -8.396735E+04  2.936428E+04  1.071633E+04
       188  26  2.935796E+05  1.520585E+06  3.627468E+05 -2.750619E+04  3.602923E+04  5.621248E+04
       188  27  4.586627E+05  1.718445E+06  4.844988E+05 -1.240236E+05  1.241917E+04  1.016652E+05
       189   1 -4.431171E+06 -1.482098E+06 -9.832330E+05 -1.518320E+06 -4.369069E+05 -1.528493E+05
       189   2 -4.306062E+06 -8.354709E+05 -5.760990E+05 -1.588100E+06 -2.853256E+05 -6.931577E+04
       189   3 -4.406263E+06 -8.385687E+05 -4.588814E+05 -1.527720E+06 -1.241603E+05 -1.101958E+04
       189   4 -3.352623E+06 -9.467560E+05 -6.623555E+05 -1.096048E+06 -4.232122E+05 -1.477622E+05
       189   5 -3.206324E+06 -3.840798E+05 -2.743898E+05 -1.251556E+06 -2.815418E+05 -6.790772E+04
       189   6 -3.282944E+06 -4.685072E+05 -1.680543E+05 -1.277027E+06 -1.302925E+05 -1.332578E+04
       189   7 -2.272903E+06 -4.110769E+05 -3.415924E+05 -6.730257E+05 -4.094905E+05 -1.426579E+05
       189   8 -2.105408E+06  6.744410E+04  2.720793E+04 -9.144493E+05 -2.777502E+05 -6.649615E+04
       189   9 -2.158404E+06 -9.843997E+04  1.226703E+05 -1.025956E+06 -1.364367E+05 -1.563519E+04
       189  10 -4.431384E+06 -1.482175E+06 -9.836389E+05 -1.518375E+06  3.207288E-10 -4.223899E-10
       189  11 -4.306152E+06 -8.354982E+05 -5.762623E+05 -1.588116E+06  8.048610E-10 -3.673352E-10
       189  12 -4.406279E+06 -8.385730E+05 -4.589108E+05 -1.527721E+06 -3.044224E-09 -1.427707E-09
       189  13 -3.352822E+06 -9.468280E+05 -6.627354E+05 -1.096099E+06  3.164809E-10 -7.457512E-10
       189  14 -3.206411E+06 -3.841062E+05 -2.745484E+05 -1.251572E+06 -2.086383E-10 -1.775978E-09
       189  15 -3.282963E+06 -4.685120E+05 -1.680867E+05 -1.277028E+06 -3.018353E-10 -7.920780E-10
       189  16 -2.273089E+06 -4.111440E+05 -3.419472E+05 -6.730729E+05 -9.756874E-10 -8.624747E-10
       189  17 -2.105492E+06  6.741852E+04  2.705403E+04 -9.144642E+05 -1.060536E-09 -1.239128E-09
       189  18 -2.158425E+06 -9.844525E+04  1.226347E+05 -1.025957E+06 -3.390230E-10 -8.479301E-10
       189  19 -4.431171E+06 -1.482098E+06 -9.832330E+05 -1.518320E+06  4.369069E+05  1.528493E+05
       189  20 -4.306062E+06 -8.354709E+05 -5.760990E+05 -1.588100E+06  2.853256E+05  6.931577E+04
       189  21 -4.406263E+06 -8.385687E+05 -4.588814E+05 -1.527720E+06  1.241603E+05  1.101958E+04
       189  22 -3.352623E+06 -9.467560E+05 -6.623555E+05 -1.096048E+06  4.232122E+05  1.477622E+05
       189  23 -3.206324E+06 -3.840798E+05 -2.743898E+05 -1.251556E+06  2.815418E+05  6.790772E+04
       189  24 -3.282944E+06 -4.685072E+05 -1.680543E+05 -1.277027E+06  1.302925E+05  1.332578E+04
       189  25 -2.272903E+06 -4.110769E+05 -3.415924E+05 -6.730257E+05  4.094905E+05  1.426579E+05
       189  26 -2.105408E+06  6.744410E+04  2.720793E+04 -9.144493E+05  2.777502E+05  6.649615E+04
       189  27 -2.158404E+06 -9.843997E+04  1.226703E+05 -1.025956E+06  1.364367E+05  1.563519E+04
       190   1 -4.233545E+06 -9.267232E+05 -4.024066E+05 -1.520627E+06 -1.045927E+05 -9.228683E+03
       190   2 -4.178205E+06 -8.053532E+05 -3.116639E+05 -1.488750E+06 -6.960463E+04  3.766295E+03
       190   3 -4.109613E+06 -8.034691E+05 -2.671996E+05 -1.488468E+06 -3.356586E+04  1.396803E+04
       190   4 -3.258143E+06 -5.438243E+05 -1.373058E+05 -1.240109E+06 -1.042060E+05 -9.089139E+03
       190   5 -3.260742E+06 -4.553585E+05 -6.476057E+04 -1.235151E+06 -7.028890E+04  3.505373E+03
       190   6 -3.249835E+06 -4.860895E+05 -3.758355E+04 -1.261796E+06 -3.532548E+04  1.330575E+04
       190   7 -2.281815E+06 -1.608476E+05  1.277096E+05 -9.591821E+05 -1.038186E+05 -8.949269E+03
       190   8 -2.342463E+06 -1.053087E+05  1.820682E+05 -9.812100E+05 -7.097423E+04  3.244049E+03
       190   9 -2.389342E+06 -1.686744E+05  1.919679E+05 -1.034842E+06 -3.708778E+04  1.264251E+04
       190  10 -4.233557E+06 -9.267263E+05 -4.024275E+05 -1.520628E+06 -5.980595E-09 -5.496363E-10
       190  11 -4.178210E+06 -8.053545E+05 -3.116730E+05 -1.488750E+06 -1.510867E-10  2.875823E-10
       190  12 -4.109614E+06 -8.034696E+05 -2.672021E+05 -1.488468E+06  2.129935E-09 -7.637687E-11
       190  13 -3.258155E+06 -5.438274E+05 -1.373265E+05 -1.240109E+06 -7.403566E-10 -1.161649E-10
       190  14 -3.260747E+06 -4.553598E+05 -6.476992E+04 -1.235151E+06 -6.694991E-10  3.456471E-10
       190  15 -3.249836E+06 -4.860900E+05 -3.758624E+04 -1.261796E+06 -8.735518E-10 -4.900870E-10
       190  16 -2.281826E+06 -1.608506E+05  1.276891E+05 -9.591829E+05  1.160217E-09  7.494496E-10
       190  17 -2.342468E+06 -1.053101E+05  1.820587E+05 -9.812098E+05 -5.933439E-10 -1.135354E-10
       190  18 -2.389344E+06 -1.686749E+05  1.919650E+05 -1.034842E+06 -9.985361E-10 -5.131035E-10
       190  19 -4.233545E+06 -9.267232E+05 -4.024066E+05 -1.520627E+06  1.045927E+05  9.228683E+03
       190  20 -4.178205E+06 -8.053532E+05 -3.116639E+05 -1.488750E+06  6.960463E+04 -3.766295E+03
       190  21 -4.109613E+06 -8.034691E+05 -2.671996E+05 -1.488468E+06  3.356586E+04 -1.396803E+04
       190  22 -3.258143E+06 -5.438243E+05 -1.373058E+05 -1.240109E+06  1.042060E+05  9.089139E+03
       190  23 -3.260742E+06 -4.553585E+05 -6.476057E+04 -1.235151E+06  7.028890E+04 -3.505373E+03
       190  24 -3.249835E+06 -4.860895E+05 -3.758355E+04 -1.261796E+06  3.532548E+04 -1.330575E+04
       190  25 -2.281815E+06 -1.608476E+05  1.277096E+05 -9.591821E+05  1.038186E+05  8.949269E+03
       190  26 -2.342463E+06 -1.053087E+05  1.820682E+05 -9.812100E+05  7.097423E+04 -3.244049E+03
       190  27 -2.389342E+06 -1.686744E+05  1.919679E+05 -1.034842E+06  3.708778E+04 -1.264251E+04
       191   1 -3.964618E+06 -7.700429E+05 -2.228202E+05 -1.456920E+06 -2.794824E+04  1.361428E+04
       191   2 -3.908248E+06 -7.017198E+05 -1.862686E+05 -1.403460E+06 -1.889643E+04  1.353681E+04
       191   3 -3.799469E+06 -6.984356E+05 -1.579072E+05 -1.412089E+06 -9.654284E+03  1.293611E+04
       191   4 -3.244439E+06 -4.972932E+05 -2.958169E+04 -1.259817E+06 -2.908406E+04  1.318668E+04
       191   5 -3.270154E+06 -4.612598E+05 -1.512096E+04 -1.230093E+06 -2.023357E+04  1.303510E+04
       191   6 -3.243424E+06 -4.902154E+05 -8.682017E+03 -1.262457E+06 -1.119398E+04  1.236010E+04
       191   7 -2.523759E+06 -2.245123E+05  1.636105E+05 -1.062507E+06 -3.022133E+04  1.275853E+04
       191   8 -2.631666E+06 -2.207760E+05  1.559908E+05 -1.056565E+06 -2.157223E+04  1.253282E+04
       191   9 -2.687078E+06 -2.819776E+05  1.405163E+05 -1.112704E+06 -1.273520E+04  1.178353E+04
       191  10 -3.964619E+06 -7.700433E+05 -2.228221E+05 -1.456920E+06  5.803196E-10 -5.713689E-10
       191  11 -3.908249E+06 -7.017201E+05 -1.862697E+05 -1.403460E+06 -1.939971E-10 -2.854156E-10
       191  12 -3.799469E+06 -6.984358E+05 -1.579077E+05 -1.412089E+06 -1.108345E-09 -6.717651E-10
       191  13 -3.244440E+06 -4.972937E+05 -2.958361E+04 -1.259817E+06  1.246317E-09 -3.721757E-10
       191  14 -3.270154E+06 -4.612601E+05 -1.512205E+04 -1.230093E+06 -3.928809E-10 -9.555334E-10
       191  15 -3.243424E+06 -4.902156E+05 -8.682539E+03 -1.262457E+06  1.317691E-09  1.378154E-09
       191  16 -2.523760E+06 -2.245127E+05  1.636085E+05 -1.062506E+06  6.016873E-10 -8.371032E-10
       191  17 -2.631666E+06 -2.207762E+05  1.559896E+05 -1.056564E+06 -3.727983E-11 -1.350798E-09
       191  18 -2.687079E+06 -2.819778E+05  1.405157E+05 -1.112704E+06  6.471129E-10  4.436673E-10
       191  19 -3.964618E+06 -7.700429E+05 -2.228202E+05 -1.456920E+06  2.794824E+04 -1.361428E+04
       191  20 -3.908248E+06 -7.017198E+05 -1.862686E+05 -1.403460E+06  1.889643E+04 -1.353681E+04
       191  21 -3.799469E+06 -6.984356E+05 -1.579072E+05 -1.412089E+06  9.654284E+03 -1.293611E+04
       191  22 -3.244439E+06 -4.972932E+05 -2.958169E+04 -1.259817E+06  2.908406E+04 -1.318668E+04
       191  23 -3.270154E+06 -4.612598E+05 -1.512096E+04 -1.230093E+06  2.023357E+04 -1.303510E+04
       191  24 -3.243424E+06 -4.902154E+05 -8.682017E+03 -1.262457E+06  1.119398E+04 -1.236010E+04
       191  25 -2.523759E+06 -2.245123E+05  1.636105E+05 -1.062507E+06  3.022133E+04 -1.275853E+04
       191  26 -2.631666E+06 -2.207760E+05  1.559908E+05 -1.056565E+06  2.157223E+04 -1.253282E+04
       191  27 -2.687078E+06 -2.819776E+05  1.405163E+05 -1.112704E+06  1.273520E+04 -1.178353E+04
       192   1 -3.638146E+06 -6.419288E+05 -1.128356E+05 -1.371172E+06 -7.628219E+03  1.119286E+04
       192   2 -3.575795E+06 -5.741603E+05 -8.530799E+04 -1.309665E+06 -4.102501E+03  8.236851E+03
       192   3 -3.451065E+06 -5.705633E+05 -5.966321E+04 -1.320490E+06 -5.199994E+02  5.119547E+03
       192   4 -3.241555E+06 -4.928167E+05 -6.858583E+03 -1.263669E+06 -9.106819E+03  1.064047E+04
       192   5 -3.272666E+06 -4.602935E+05 -4.087693E+03 -1.227661E+06 -5.644616E+03  7.661446E+03
       192   6 -3.241394E+06 -4.919266E+05 -3.147402E+03 -1.263984E+06 -2.126011E+03  4.521069E+03
       192   7 -2.844812E+06 -3.436954E+05  9.910464E+04 -1.156104E+06 -1.058646E+04  1.008769E+04
       192   8 -2.969448E+06 -3.464215E+05  7.712441E+04 -1.145620E+06 -7.187560E+03  7.085733E+03
       192   9 -3.031682E+06 -4.132877E+05  5.336436E+04 -1.207462E+06 -3.732617E+03  3.922370E+03
       192  10 -3.638146E+06 -6.419289E+05 -1.128360E+05 -1.371172E+06 -1.380833E-10 -7.767030E-10
       192  11 -3.575795E+06 -5.741604E+05 -8.530814E+04 -1.309665E+06 -7.512492E-10 -2.817765E-09
       192  12 -3.451065E+06 -5.705634E+05 -5.966326E+04 -1.320490E+06 -1.052082E-09 -1.955485E-09
       192  13 -3.241555E+06 -4.928168E+05 -6.858951E+03 -1.263669E+06 -1.177730E-09 -9.929641E-10
       192  14 -3.272666E+06 -4.602936E+05 -4.087863E+03 -1.227661E+06  8.071073E-10  7.341393E-10
       192  15 -3.241395E+06 -4.919266E+05 -3.147449E+03 -1.263984E+06  9.601214E-10  7.635321E-10
       192  16 -2.844812E+06 -3.436955E+05  9.910424E+04 -1.156104E+06 -4.975664E-10  1.839490E-09
       192  17 -2.969448E+06 -3.464216E+05  7.712421E+04 -1.145620E+06 -8.883171E-10  1.298757E-09
       192  18 -3.031682E+06 -4.132877E+05  5.336431E+04 -1.207462E+06 -3.380996E-10 -1.001461E-09
       192  19 -3.638146E+06 -6.419288E+05 -1.128356E+05 -1.371172E+06  7.628219E+03 -1.119286E+04
       192  20 -3.575795E+06 -5.741603E+05 -8.530799E+04 -1.309665E+06  4.102501E+03 -8.236851E+03
       192  21 -3.451065E+06 -5.705633E+05 -5.966321E+04 -1.320490E+06  5.199994E+02 -5.119547E+03
       192  22 -3.241555E+06 -4.928167E+05 -6.858583E+03 -1.263669E+06  9.106819E+03 -1.064047E+04
       192  23 -3.272666E+06 -4.602935E+05 -4.087693E+03 -1.227661E+06  5.644616E+03 -7.661446E+03
       192  24 -3.241394E+06 -4.919266E+05 -3.147402E+03 -1.263984E+06  2.126011E+03 -4.521069E+03
       192  25 -2.844812E+06 -3.436954E+05  9.910464E+04 -1.156104E+06  1.058646E+04 -1.008769E+04
       192  26 -2.969448E+06 -3.464215E+05  7.712441E+04 -1.145620E+06  7.187560E+03 -7.085733E+03
       192  27 -3.031682E+06 -4.132877E+05  5.336436E+04 -1.207462E+06  3.732617E+03 -3.922370E+03
       193   1 -3.279754E+06 -5.069526E+05 -1.313811E+04 -1.275066E+06  8.632929E+02  2.981920E+03
       193   2 -3.215548E+06 -4.381340E+05  1.163833E+04 -1.211494E+06  4.234106E+03 -2.765438E+02
       193   3 -3.087284E+06 -4.352056E+05  3.468921E+04 -1.222477E+06  7.589435E+03 -3.490543E+03
       193   4 -3.241011E+06 -4.923611E+05 -3.108400E+03 -1.264452E+06 -7.418451E+02  2.383996E+03
       193   5 -3.273079E+06 -4.597358E+05 -3.771424E+03 -1.227053E+06  2.646528E+03 -8.680896E+02
       193   6 -3.241103E+06 -4.930059E+05 -6.173963E+03 -1.264213E+06  6.019078E+03 -4.075792E+03
       193   7 -3.202267E+06 -4.777695E+05  6.921224E+03 -1.253838E+06 -2.347097E+03  1.786029E+03
       193   8 -3.330607E+06 -4.813373E+05 -1.918148E+04 -1.242610E+06  1.059109E+03 -1.459576E+03
       193   9 -3.394899E+06 -5.508048E+05 -4.703919E+04 -1.305940E+06  4.449149E+03 -4.660880E+03
       193  10 -3.279754E+06 -5.069526E+05 -1.313813E+04 -1.275066E+06 -2.744923E-10 -2.124413E-10
       193  11 -3.215548E+06 -4.381340E+05  1.163830E+04 -1.211494E+06 -7.818389E-11 -3.334383E-09
       193  12 -3.087284E+06 -4.352056E+05  3.468908E+04 -1.222477E+06 -3.470460E-10 -3.571626E-10
       193  13 -3.241011E+06 -4.923611E+05 -3.108412E+03 -1.264452E+06 -4.010663E-10 -2.183786E-09
       193  14 -3.273079E+06 -4.597358E+05 -3.771439E+03 -1.227053E+06  1.440870E-09  3.455234E-09
       193  15 -3.241103E+06 -4.930059E+05 -6.174062E+03 -1.264213E+06  6.733328E-11  6.259906E-10
       193  16 -3.202267E+06 -4.777695E+05  6.921208E+03 -1.253838E+06  1.278868E-11  1.052184E-10
       193  17 -3.330607E+06 -4.813373E+05 -1.918149E+04 -1.242610E+06  8.685114E-10  3.280655E-09
       193  18 -3.394899E+06 -5.508049E+05 -4.703927E+04 -1.305940E+06 -1.614861E-09  8.358514E-10
       193  19 -3.279754E+06 -5.069526E+05 -1.313811E+04 -1.275066E+06 -8.632929E+02 -2.981920E+03
       193  20 -3.215548E+06 -4.381340E+05  1.163833E+04 -1.211494E+06 -4.234106E+03  2.765438E+02
       193  21 -3.087284E+06 -4.352056E+05  3.468921E+04 -1.222477E+06 -7.589435E+03  3.490543E+03
       193  22 -3.241011E+06 -4.923611E+05 -3.108400E+03 -1.264452E+06  7.418451E+02 -2.383996E+03
       193  23 -3.273079E+06 -4.597358E+05 -3.771424E+03 -1.227053E+06 -2.646528E+03  8.680896E+02
       193  24 -3.241103E+06 -4.930059E+05 -6.173963E+03 -1.264213E+06 -6.019078E+03  4.075792E+03
       193  25 -3.202267E+06 -4.777695E+05  6.921224E+03 -1.253838E+06  2.347097E+03 -1.786029E+03
       193  26 -3.330607E+06 -4.813373E+05 -1.918148E+04 -1.242610E+06 -1.059109E+03  1.459576E+03
       193  27 -3.394899E+06 -5.508048E+05 -4.703919E+04 -1.305940E+06 -4.449149E+03  4.660880E+03
       194   1 -2.919232E+06 -3.708143E+05  7.891760E+04 -1.177343E+06  9.656074E+03 -5.364465E+03
       194   2 -2.858211E+06 -3.042831E+05  9.729685E+04 -1.116168E+06  1.780118E+04 -6.692276E+03
       194   3 -2.739470E+06 -3.070842E+05  1.085500E+05 -1.123712E+06  2.580388E+04 -7.622583E+03
       194   4 -3.242207E+06 -4.913358E+05 -7.794491E+03 -1.263841E+06  8.030368E+03 -5.970762E+03
       194   5 -3.271513E+06 -4.597971E+05 -1.344782E+04 -1.228315E+06  1.633054E+04 -7.241737E+03
       194   6 -3.243138E+06 -4.976286E+05 -2.635415E+04 -1.261516E+06  2.448719E+04 -8.115476E+03
       194   7 -3.565079E+06 -6.118515E+05 -9.451558E+04 -1.350299E+06  6.405599E+03 -6.576714E+03
       194   8 -3.684649E+06 -6.153010E+05 -1.242076E+05 -1.340396E+06  1.486097E+04 -7.790795E+03
       194   9 -3.746563E+06 -6.881579E+05 -1.612809E+05 -1.399218E+06  2.317167E+04 -8.607926E+03
       194  10 -2.919233E+06 -3.708143E+05  7.891737E+04 -1.177343E+06  2.199389E-10 -7.857689E-12
       194  11 -2.858212E+06 -3.042833E+05  9.729617E+04 -1.116168E+06 -4.235242E-10 -3.103843E-10
       194  12 -2.739470E+06 -3.070844E+05  1.085486E+05 -1.123712E+06  3.827304E-10  8.141560E-10
       194  13 -3.242207E+06 -4.913359E+05 -7.794680E+03 -1.263841E+06  3.473469E-10 -8.098329E-10
       194  14 -3.271513E+06 -4.597972E+05 -1.344842E+04 -1.228315E+06  1.063509E-09  7.760017E-11
       194  15 -3.243139E+06 -4.976288E+05 -2.635540E+04 -1.261516E+06 -1.965383E-09 -3.009538E-09
       194  16 -3.565079E+06 -6.118516E+05 -9.451574E+04 -1.350299E+06 -8.280670E-10  1.553292E-09
       194  17 -3.684649E+06 -6.153012E+05 -1.242081E+05 -1.340396E+06 -5.878128E-10  3.326459E-11
       194  18 -3.746563E+06 -6.881581E+05 -1.612821E+05 -1.399218E+06 -4.226992E-10  1.388863E-09
       194  19 -2.919232E+06 -3.708143E+05  7.891760E+04 -1.177343E+06 -9.656074E+03  5.364465E+03
       194  20 -2.858211E+06 -3.042831E+05  9.729685E+04 -1.116168E+06 -1.780118E+04  6.692276E+03
       194  21 -2.739470E+06 -3.070842E+05  1.085500E+05 -1.123712E+06 -2.580388E+04  7.622583E+03
       194  22 -3.242207E+06 -4.913358E+05 -7.794491E+03 -1.263841E+06 -8.030368E+03  5.970762E+03
       194  23 -3.271513E+06 -4.597971E+05 -1.344782E+04 -1.228315E+06 -1.633054E+04  7.241737E+03
       194  24 -3.243138E+06 -4.976286E+05 -2.635415E+04 -1.261516E+06 -2.448719E+04  8.115476E+03
       194  25 -3.565079E+06 -6.118515E+05 -9.451558E+04 -1.350299E+06 -6.405599E+03  6.576714E+03
       194  26 -3.684649E+06 -6.153010E+05 -1.242076E+05 -1.340396E+06 -1.486097E+04  7.790795E+03
       194  27 -3.746563E+06 -6.881579E+05 -1.612809E+05 -1.399218E+06 -2.317167E+04  8.607926E+03
       195   1 -2.586278E+06 -2.454352E+05  1.427958E+05 -1.090713E+06  3.211116E+04 -7.978493E+03
       195   2 -2.531023E+06 -1.751349E+05  1.392722E+05 -1.029988E+06  6.254987E+04 -4.563002E+02
       195   3 -2.450710E+06 -2.240364E+05  9.607544E+04 -1.012984E+06  9.206128E+04  9.566893E+03
       195   4 -3.247578E+06 -4.880810E+05 -3.348230E+04 -1.263723E+06  3.022294E+04 -8.685625E+03
       195   5 -3.263684E+06 -4.540940E+05 -5.761161E+04 -1.232238E+06  6.163386E+04 -8.018278E+02
       195   6 -3.254962E+06 -5.395597E+05 -1.222254E+05 -1.244477E+06  9.211319E+04  9.581898E+03
       195   7 -3.908457E+06 -7.307069E+05 -2.097985E+05 -1.436568E+06  2.833693E+04 -9.391979E+03
       195   8 -3.995825E+06 -7.330182E+05 -2.545428E+05 -1.434271E+06  6.071900E+04 -1.146912E+03
       195   9 -4.058585E+06 -8.550297E+05 -3.405840E+05 -1.475692E+06  9.216495E+04  9.596841E+03
       195  10 -2.586279E+06 -2.454356E+05  1.427937E+05 -1.090712E+06  6.954063E-11  1.533253E-09
       195  11 -2.531027E+06 -1.751360E+05  1.392648E+05 -1.029988E+06  1.014949E-09  5.755750E-10
       195  12 -2.450719E+06 -2.240388E+05  9.605927E+04 -1.012984E+06 -6.394796E-10  3.043765E-10
       195  13 -3.247579E+06 -4.880814E+05 -3.348416E+04 -1.263722E+06  5.146460E-10  5.216285E-10
       195  14 -3.263688E+06 -4.540951E+05 -5.761879E+04 -1.232238E+06 -4.410596E-10 -6.007860E-10
       195  15 -3.254971E+06 -5.395621E+05 -1.222416E+05 -1.244477E+06 -1.348285E-09 -1.615354E-10
       195  16 -3.908458E+06 -7.307073E+05 -2.098001E+05 -1.436568E+06 -2.084769E-09 -1.066111E-10
       195  17 -3.995828E+06 -7.330192E+05 -2.545497E+05 -1.434271E+06 -1.368634E-09 -6.845408E-10
       195  18 -4.058594E+06 -8.550321E+05 -3.406003E+05 -1.475693E+06 -7.441469E-10 -2.922001E-10
       195  19 -2.586278E+06 -2.454352E+05  1.427958E+05 -1.090713E+06 -3.211116E+04  7.978493E+03
       195  20 -2.531023E+06 -1.751349E+05  1.392722E+05 -1.029988E+06 -6.254987E+04  4.563002E+02
       195  21 -2.450710E+06 -2.240364E+05  9.607544E+04 -1.012984E+06 -9.206128E+04 -9.566893E+03
       195  22 -3.247578E+06 -4.880810E+05 -3.348230E+04 -1.263723E+06 -3.022294E+04  8.685625E+03
       195  23 -3.263684E+06 -4.540940E+05 -5.761161E+04 -1.232238E+06 -6.163386E+04  8.018278E+02
       195  24 -3.254962E+06 -5.395597E+05 -1.222254E+05 -1.244477E+06 -9.211319E+04 -9.581898E+03
       195  25 -3.908457E+06 -7.307069E+05 -2.097985E+05 -1.436568E+06 -2.833693E+04  9.391979E+03
       195  26 -3.995825E+06 -7.330182E+05 -2.545428E+05 -1.434271E+06 -6.071900E+04  1.146912E+03
       195  27 -4.058585E+06 -8.550297E+05 -3.405840E+05 -1.475692E+06 -9.216495E+04 -9.596841E+03
       196   1 -2.304452E+06 -1.547551E+05  1.014878E+05 -1.062788E+06  1.214931E+05  1.494614E+04
       196   2 -2.242969E+06  7.405649E+03  2.207893E+04 -9.497285E+05  2.473563E+05  5.902704E+04
       196   3 -2.363539E+06 -4.184368E+05 -3.004689E+05 -7.378133E+05  3.645197E+05  1.262324E+05
       196   4 -3.276940E+06 -4.725795E+05 -1.495743E+05 -1.277372E+06  1.155635E+05  1.272588E+04
       196   5 -3.215554E+06 -3.904458E+05 -2.441596E+05 -1.246606E+06  2.505393E+05  6.020753E+04
       196   6 -3.338391E+06 -8.987027E+05 -5.894393E+05 -1.116901E+06  3.768057E+05  1.307899E+05
       196   7 -4.248516E+06 -7.904020E+05 -4.007130E+05 -1.491678E+06  1.096439E+05  1.050824E+04
       196   8 -4.187218E+06 -7.881940E+05 -5.104845E+05 -1.543046E+06  2.537165E+05  6.138542E+04
       196   9 -4.312284E+06 -1.378698E+06 -8.785013E+05 -1.495381E+06  3.890699E+05  1.353335E+05
       196  10 -2.304468E+06 -1.547594E+05  1.014595E+05 -1.062790E+06  8.613594E-10 -8.900286E-10
       196  11 -2.243036E+06  7.385378E+03  2.195689E+04 -9.497403E+05  9.691699E-10 -3.490117E-09
       196  12 -2.363687E+06 -4.184899E+05 -3.007497E+05 -7.378504E+05 -1.568789E-09 -9.272979E-10
       196  13 -3.276954E+06 -4.725833E+05 -1.495998E+05 -1.277373E+06  4.443825E-10 -7.090174E-10
       196  14 -3.215623E+06 -3.904667E+05 -2.442851E+05 -1.246618E+06 -1.211944E-09 -1.159555E-09
       196  15 -3.338549E+06 -8.987596E+05 -5.897401E+05 -1.116941E+06  1.136326E-10 -6.854961E-10
       196  16 -4.248529E+06 -7.904054E+05 -4.007360E+05 -1.491679E+06 -8.281000E-10 -2.797009E-11
       196  17 -4.187289E+06 -7.882155E+05 -5.106135E+05 -1.543058E+06 -1.730709E-09 -2.354336E-10
       196  18 -4.312453E+06 -1.378759E+06 -8.788227E+05 -1.495423E+06 -1.105156E-10  1.418093E-10
       196  19 -2.304452E+06 -1.547551E+05  1.014878E+05 -1.062788E+06 -1.214931E+05 -1.494614E+04
       196  20 -2.242969E+06  7.405649E+03  2.207893E+04 -9.497285E+05 -2.473563E+05 -5.902704E+04
       196  21 -2.363539E+06 -4.184368E+05 -3.004689E+05 -7.378133E+05 -3.645197E+05 -1.262324E+05
       196  22 -3.276940E+06 -4.725795E+05 -1.495743E+05 -1.277372E+06 -1.155635E+05 -1.272588E+04
       196  23 -3.215554E+06 -3.904458E+05 -2.441596E+05 -1.246606E+06 -2.505393E+05 -6.020753E+04
       196  24 -3.338391E+06 -8.987027E+05 -5.894393E+05 -1.116901E+06 -3.768057E+05 -1.307899E+05
       196  25 -4.248516E+06 -7.904020E+05 -4.007130E+05 -1.491678E+06 -1.096439E+05 -1.050824E+04
       196  26 -4.187218E+06 -7.881940E+05 -5.104845E+05 -1.543046E+06 -2.537165E+05 -6.138542E+04
       196  27 -4.312284E+06 -1.378698E+06 -8.785013E+05 -1.495381E+06 -3.890699E+05 -1.353335E+05
       197   1  5.522806E+05  1.546759E+05  2.405922E+05  6.301954E+04  2.620230E+05  6.167535E+03
       197   2  5.410953E+05 -1.945810E+05  3.202676E+04  2.110800E+04  1.746506E+05  1.686019E+04
       197   3  6.410475E+05 -1.475230E+05 -2.043903E+04 -5.939722E+04  8.729380E+04  1.498518E+04
       197   4  1.174185E+06  3.092078E+05  3.942465E+05 -2.181925E+04  2.696388E+05  6.147213E+03
       197   5  1.118281E+06 -5.144538E+04  1.715097E+05 -2.195564E+03  1.767436E+05  1.685608E+04
       197   6  1.174355E+06 -1.503859E+04  1.085923E+05 -2.116438E+04  8.387103E+04  1.498511E+04
       197   7  1.796457E+06  4.637381E+05  5.478764E+05 -1.067432E+05  2.772622E+05  6.124835E+03
       197   8  1.695773E+06  9.166805E+04  3.109690E+05 -2.552098E+04  1.788384E+05  1.685180E+04
       197   9  1.707926E+06  1.174305E+05  2.376040E+05  1.710129E+04  8.044530E+04  1.498462E+04
       197  10  5.522069E+05  1.546575E+05  2.404632E+05  6.301824E+04 -1.249864E-09  9.471726E-10
       197  11  5.410625E+05 -1.945895E+05  3.196896E+04  2.110563E+04  5.411437E-10  7.309778E-11
       197  12  6.410392E+05 -1.475253E+05 -2.045376E+04 -5.939827E+04  5.687833E-10  2.795938E-12
       197  13  1.174107E+06  3.091882E+05  3.941101E+05 -2.182058E+04 -1.812616E-11  5.859098E-10
       197  14  1.118248E+06 -5.145405E+04  1.714505E+05 -2.197962E+03 -8.403486E-10 -1.732502E-09
       197  15  1.174348E+06 -1.504072E+04  1.085787E+05 -2.116539E+04  1.014031E-09 -2.300274E-10
       197  16  1.796375E+06  4.637175E+05  5.477323E+05 -1.067446E+05 -6.381305E-10  2.192734E-10
       197  17  1.695738E+06  9.165919E+04  3.109086E+05 -2.552340E+04 -1.126088E-09  8.566614E-11
       197  18  1.707919E+06  1.174285E+05  2.375914E+05  1.710032E+04 -1.510573E-09 -1.088546E-09
       197  19  5.522806E+05  1.546759E+05  2.405922E+05  6.301954E+04 -2.620230E+05 -6.167535E+03
       197  20  5.410953E+05 -1.945810E+05  3.202676E+04  2.110800E+04 -1.746506E+05 -1.686019E+04
       197  21  6.410475E+05 -1.475230E+05 -2.043903E+04 -5.939722E+04 -8.729380E+04 -1.498518E+04
       197  22  1.174185E+06  3.092078E+05  3.942465E+05 -2.181925E+04 -2.696388E+05 -6.147213E+03
       197  23  1.118281E+06 -5.144538E+04  1.715097E+05 -2.195564E+03 -1.767436E+05 -1.685608E+04
       197  24  1.174355E+06 -1.503859E+04  1.085923E+05 -2.116438E+04 -8.387103E+04 -1.498511E+04
       197  25  1.796457E+06  4.637381E+05  5.478764E+05 -1.067432E+05 -2.772622E+05 -6.124835E+03
       197  26  1.695773E+06  9.166805E+04  3.109690E+05 -2.552098E+04 -1.788384E+05 -1.685180E+04
       197  27  1.707926E+06  1.174305E+05  2.376040E+05  1.710129E+04 -8.044530E+04 -1.498462E+04
       198   1  6.877491E+05 -7.965107E+04 -2.379928E+04 -1.198583E+04  6.665749E+04  1.215666E+04
       198   2  7.212285E+05 -1.113745E+05 -5.806811E+04 -9.222393E+02  4.415668E+04  1.165719E+04
       198   3  7.695369E+05 -9.689478E+04 -6.607306E+04 -2.541659E+04  2.165480E+04  1.009001E+04
       198   4  1.152759E+06  3.577900E+04  8.893013E+04 -2.071273E+04  6.671692E+04  1.215516E+04
       198   5  1.145326E+06 -6.115468E+03  4.457769E+04 -2.915221E+03  4.373879E+04  1.165616E+04
       198   6  1.152793E+06 -1.741802E+03  2.680607E+04 -2.067377E+04  2.076108E+04  1.008929E+04
       198   7  1.617967E+06  1.511935E+05  2.016440E+05 -2.944624E+04  6.677637E+04  1.215366E+04
       198   8  1.569588E+06  9.913045E+04  1.472106E+05 -4.909601E+03  4.332060E+04  1.165514E+04
       198   9  1.536182E+06  9.340050E+04  1.196746E+05 -1.592803E+04  1.986680E+04  1.008856E+04
       198  10  6.877443E+05 -7.965242E+04 -2.380790E+04 -1.198648E+04 -5.778458E-10 -1.097942E-09
       198  11  7.212263E+05 -1.113752E+05 -5.807202E+04 -9.226538E+02 -1.074658E-09  4.205097E-10
       198  12  7.695364E+05 -9.689502E+04 -6.607413E+04 -2.541676E+04  4.070570E-11 -4.241608E-10
       198  13  1.152754E+06  3.577765E+04  8.892150E+04 -2.071339E+04  5.148400E-11 -7.443713E-10
       198  14  1.145324E+06 -6.116126E+03  4.457384E+04 -2.915631E+03  9.604480E-10 -1.976354E-10
       198  15  1.152792E+06 -1.742027E+03  2.680507E+04 -2.067394E+04  3.182524E-10 -4.310539E-10
       198  16  1.617962E+06  1.511922E+05  2.016354E+05 -2.944689E+04  1.590423E-09 -1.316581E-10
       198  17  1.569586E+06  9.912981E+04  1.472068E+05 -4.910007E+03 -4.773079E-10 -9.881709E-10
       198  18  1.536182E+06  9.340029E+04  1.196737E+05 -1.592820E+04  1.904109E-10  1.655225E-10
       198  19  6.877491E+05 -7.965107E+04 -2.379928E+04 -1.198583E+04 -6.665749E+04 -1.215666E+04
       198  20  7.212285E+05 -1.113745E+05 -5.806811E+04 -9.222393E+02 -4.415668E+04 -1.165719E+04
       198  21  7.695369E+05 -9.689478E+04 -6.607306E+04 -2.541659E+04 -2.165480E+04 -1.009001E+04
       198  22  1.152759E+06  3.577900E+04  8.893013E+04 -2.071273E+04 -6.671692E+04 -1.215516E+04
       198  23  1.145326E+06 -6.115468E+03  4.457769E+04 -2.915221E+03 -4.373879E+04 -1.165616E+04
       198  24  1.152793E+06 -1.741802E+03  2.680607E+04 -2.067377E+04 -2.076108E+04 -1.008929E+04
       198  25  1.617967E+06  1.511935E+05  2.016440E+05 -2.944624E+04 -6.677637E+04 -1.215366E+04
       198  26  1.569588E+06  9.913045E+04  1.472106E+05 -4.909601E+03 -4.332060E+04 -1.165514E+04
       198  27  1.536182E+06  9.340050E+04  1.196746E+05 -1.592803E+04 -1.986680E+04 -1.008856E+04
       199   1  8.309673E+05 -7.509768E+04 -5.603496E+04 -1.952686E+04  1.708736E+04  9.040619E+03
       199   2  8.685484E+05 -7.031747E+04 -5.645783E+04 -3.350735E+03  1.137645E+04  7.640517E+03
       199   3  9.083512E+05 -6.018372E+04 -5.179862E+04 -2.084027E+04  5.664175E+03  6.173684E+03
       199   4  1.149985E+06  4.061243E+03  2.109132E+04 -2.026592E+04  1.650284E+04  9.040068E+03
       199   5  1.148877E+06 -7.424342E+02  1.139827E+04 -3.432891E+03  1.076038E+04  7.640164E+03
       199   6  1.149993E+06 -1.886951E+02  6.807134E+03 -2.026453E+04  5.016909E+03  6.173536E+03
       199   7  1.469095E+06  8.321273E+04  9.821030E+04 -2.100536E+04  1.591802E+04  9.039518E+03
       199   8  1.429277E+06  6.882686E+04  7.924873E+04 -3.515087E+03  1.014403E+04  7.639811E+03
       199   9  1.391688E+06  5.980206E+04  6.540868E+04 -1.968857E+04  4.369393E+03  6.173387E+03
       199  10  8.309670E+05 -7.509785E+04 -5.603566E+04 -1.952699E+04  1.448212E-09 -3.071228E-10
       199  11  8.685483E+05 -7.031757E+04 -5.645818E+04 -3.350805E+03 -8.589669E-10 -3.483121E-10
       199  12  9.083512E+05 -6.018377E+04 -5.179876E+04 -2.084030E+04 -1.239597E-09  6.870237E-10
       199  13  1.149984E+06  4.061082E+03  2.109065E+04 -2.026604E+04  2.138329E-09 -3.794554E-10
       199  14  1.148877E+06 -7.425279E+02  1.139795E+04 -3.432957E+03  7.145208E-10 -5.376449E-10
       199  15  1.149993E+06 -1.887428E+02  6.807015E+03 -2.026456E+04  1.316983E-09  5.526951E-10
       199  16  1.469095E+06  8.321258E+04  9.820967E+04 -2.100548E+04  1.814447E-11 -4.235692E-10
       199  17  1.429277E+06  6.882677E+04  7.924843E+04 -3.515150E+03  5.776251E-10 -8.045214E-10
       199  18  1.391688E+06  5.980201E+04  6.540858E+04 -1.968859E+04  2.805304E-10  7.090791E-10
       199  19  8.309673E+05 -7.509768E+04 -5.603496E+04 -1.952686E+04 -1.708736E+04 -9.040619E+03
       199  20  8.685484E+05 -7.031747E+04 -5.645783E+04 -3.350735E+03 -1.137645E+04 -7.640517E+03
       199  21  9.083512E+05 -6.018372E+04 -5.179862E+04 -2.084027E+04 -5.664175E+03 -6.173684E+03
       199  22  1.149985E+06  4.061243E+03  2.109132E+04 -2.026592E+04 -1.650284E+04 -9.040068E+03
       199  23  1.148877E+06 -7.424342E+02  1.139827E+04 -3.432891E+03 -1.076038E+04 -7.640164E+03
       199  24  1.149993E+06 -1.886951E+02  6.807134E+03 -2.026453E+04 -5.016909E+03 -6.173536E+03
       199  25  1.469095E+06  8.321273E+04  9.821030E+04 -2.100536E+04 -1.591802E+04 -9.039518E+03
       199  26  1.429277E+06  6.882686E+04  7.924873E+04 -3.515087E+03 -1.014403E+04 -7.639811E+03
       199  27  1.391688E+06  5.980206E+04  6.540868E+04 -1.968857E+04 -4.369393E+03 -6.173387E+03
       200   1  9.694066E+05 -4.425005E+04 -3.815952E+04 -1.995649E+04  4.543625E+03  5.316824E+03
       200   2  1.006602E+06 -3.553415E+04 -3.131549E+04 -3.744522E+03  2.922388E+03  3.887278E+03
       200   3  1.044192E+06 -2.615987E+04 -2.324895E+04 -2.006139E+04  1.300569E+03  2.465690E+03
       200   4  1.149594E+06  4.451173E+02  5.339158E+03 -2.001238E+04  3.924266E+03  5.316778E+03
       200   5  1.149399E+06 -9.598132E+01  3.247869E+03 -3.748231E+03  2.306035E+03  3.887329E+03
       200   6  1.149597E+06  2.073863E+01  2.376796E+03 -2.001245E+04  6.873201E+02  2.465840E+03
       200   7  1.329811E+06  4.513791E+04  4.883551E+04 -2.006828E+04  3.304728E+03  5.316732E+03
       200   8  1.292214E+06  3.534069E+04  3.780976E+04 -3.751940E+03  1.689542E+03  3.887379E+03
       200   9  1.255012E+06  2.620053E+04  2.800175E+04 -1.996349E+04  7.396752E+01  2.465990E+03
       200  10  9.694066E+05 -4.425008E+04 -3.815961E+04 -1.995650E+04  2.205638E-09  6.881366E-10
       200  11  1.006602E+06 -3.553416E+04 -3.131553E+04 -3.744531E+03 -4.202602E-10 -3.327438E-10
       200  12  1.044192E+06 -2.615988E+04 -2.324897E+04 -2.006139E+04 -1.460371E-09  4.053710E-10
       200  13  1.149594E+06  4.450828E+02  5.339076E+03 -2.001239E+04  6.119353E-10  5.820435E-10
       200  14  1.149399E+06 -9.599898E+01  3.247831E+03 -3.748238E+03  7.661372E-10 -7.856795E-10
       200  15  1.149597E+06  2.073197E+01  2.376784E+03 -2.001245E+04  1.319381E-10  1.720381E-10
       200  16  1.329811E+06  4.513788E+04  4.883544E+04 -2.006830E+04 -4.475535E-10  4.682991E-10
       200  17  1.292214E+06  3.534068E+04  3.780973E+04 -3.751945E+03 -1.476561E-09 -6.350122E-10
       200  18  1.255012E+06  2.620053E+04  2.800173E+04 -1.996350E+04  1.889296E-09  4.207667E-10
       200  19  9.694066E+05 -4.425005E+04 -3.815952E+04 -1.995649E+04 -4.543625E+03 -5.316824E+03
       200  20  1.006602E+06 -3.553415E+04 -3.131549E+04 -3.744522E+03 -2.922388E+03 -3.887278E+03
       200  21  1.044192E+06 -2.615987E+04 -2.324895E+04 -2.006139E+04 -1.300569E+03 -2.465690E+03
       200  22  1.149594E+06  4.451173E+02  5.339158E+03 -2.001238E+04 -3.924266E+03 -5.316778E+03
       200  23  1.149399E+06 -9.598132E+01  3.247869E+03 -3.748231E+03 -2.306035E+03 -3.887329E+03
       200  24  1.149597E+06  2.073863E+01  2.376796E+03 -2.001245E+04 -6.873201E+02 -2.465840E+03
       200  25  1.329811E+06  4.513791E+04  4.883551E+04 -2.006828E+04 -3.304728E+03 -5.316732E+03
       200  26  1.292214E+06  3.534069E+04  3.780976E+04 -3.751940E+03 -1.689542E+03 -3.887379E+03
       200  27  1.255012E+06  2.620053E+04  2.800175E+04 -1.996349E+04 -7.396752E+01 -2.465990E+03
       201   1  1.104193E+06 -1.119150E+04 -8.654210E+03 -1.987658E+04  8.844774E+02  1.641327E+03
       201   2  1.141003E+06 -2.153212E+03  3.230417E+02 -3.858468E+03 -2.964231E+02  2.295288E+02
       201   3  1.178053E+06  7.323123E+03  1.017221E+04 -1.996344E+04 -1.477403E+03 -1.175608E+03
       201   4  1.149565E+06  4.506519E+01  2.212953E+03 -1.992238E+04  2.721679E+02  1.641514E+03
       201   5  1.149446E+06 -5.814332E+01  2.366486E+03 -3.860819E+03 -9.058944E+02  2.297189E+02
       201   6  1.149565E+06  2.764393E+02  3.390190E+03 -1.992231E+04 -2.083967E+03 -1.175411E+03
       201   7  1.194939E+06  1.128148E+04  1.307997E+04 -1.996819E+04 -3.401861E+02  1.641702E+03
       201   8  1.157888E+06  2.036920E+03  4.409926E+03 -3.863171E+03 -1.515374E+03  2.299089E+02
       201   9  1.121078E+06 -6.770302E+03 -3.391889E+03 -1.988119E+04 -2.690503E+03 -1.175214E+03
       201  10  1.104193E+06 -1.119150E+04 -8.654217E+03 -1.987659E+04  2.726498E-10  1.424464E-10
       201  11  1.141003E+06 -2.153212E+03  3.230415E+02 -3.858468E+03 -7.309399E-10 -4.410039E-10
       201  12  1.178053E+06  7.323120E+03  1.017221E+04 -1.996344E+04 -1.770310E-09  3.309992E-10
       201  13  1.149565E+06  4.506227E+01  2.212948E+03 -1.992238E+04  7.130150E-10  6.343362E-10
       201  14  1.149446E+06 -5.814360E+01  2.366484E+03 -3.860819E+03  1.239339E-09 -3.737843E-10
       201  15  1.149565E+06  2.764367E+02  3.390179E+03 -1.992231E+04 -1.642995E-09 -1.811943E-10
       201  16  1.194939E+06  1.128148E+04  1.307997E+04 -1.996819E+04 -1.111882E-10  6.283646E-10
       201  17  1.157888E+06  2.036920E+03  4.409921E+03 -3.863171E+03 -8.195753E-10 -5.330614E-10
       201  18  1.121078E+06 -6.770306E+03 -3.391905E+03 -1.988119E+04  3.222237E-09 -6.692636E-12
       201  19  1.104193E+06 -1.119150E+04 -8.654210E+03 -1.987658E+04 -8.844774E+02 -1.641327E+03
       201  20  1.141003E+06 -2.153212E+03  3.230417E+02 -3.858468E+03  2.964231E+02 -2.295288E+02
       201  21  1.178053E+06  7.323123E+03  1.017221E+04 -1.996344E+04  1.477403E+03  1.175608E+03
       201  22  1.149565E+06  4.506519E+01  2.212953E+03 -1.992238E+04 -2.721679E+02 -1.641514E+03
       201  23  1.149446E+06 -5.814332E+01  2.366486E+03 -3.860819E+03  9.058944E+02 -2.297189E+02
       201  24  1.149565E+06  2.764393E+02  3.390190E+03 -1.992231E+04  2.083967E+03  1.175411E+03
       201  25  1.194939E+06  1.128148E+04  1.307997E+04 -1.996819E+04  3.401861E+02 -1.641702E+03
       201  26  1.157888E+06  2.036920E+03  4.409926E+03 -3.863171E+03  1.515374E+03 -2.299089E+02
       201  27  1.121078E+06 -6.770302E+03 -3.391889E+03 -1.988119E+04  2.690503E+03  1.175214E+03
       202   1  1.238230E+06  2.187498E+04  2.569868E+04 -1.967746E+04 -2.138880E+03 -2.007226E+03
       202   2  1.274902E+06  3.077450E+04  3.721149E+04 -3.870174E+03 -5.581262E+03 -3.426002E+03
       202   3  1.312819E+06  4.282958E+04  5.175229E+04 -2.049641E+04 -9.023479E+03 -4.786491E+03
       202   4  1.149786E+06 -9.359951E+01  4.181717E+03 -1.999158E+04 -2.765419E+03 -2.007051E+03
       202   5  1.149163E+06 -4.249453E+02  6.783299E+03 -3.774428E+03 -6.181981E+03 -3.425924E+03
       202   6  1.149781E+06  2.395179E+03  1.239544E+04 -1.999118E+04 -9.598173E+03 -4.786505E+03
       202   7  1.061348E+06 -2.206275E+04 -1.733581E+04 -2.030565E+04 -3.391869E+03 -2.006875E+03
       202   8  1.023439E+06 -3.162555E+04 -2.364603E+04 -3.678701E+03 -6.782579E+03 -3.425846E+03
       202   9  9.867668E+05 -3.804117E+04 -2.696331E+04 -1.948608E+04 -1.017272E+04 -4.786519E+03
       202  10  1.238230E+06  2.187497E+04  2.569866E+04 -1.967746E+04 -1.771886E-09  1.081605E-09
       202  11  1.274902E+06  3.077448E+04  3.721141E+04 -3.870189E+03 -2.881786E-09 -5.030072E-10
       202  12  1.312819E+06  4.282954E+04  5.175210E+04 -2.049645E+04 -1.396679E-09 -2.743345E-10
       202  13  1.149786E+06 -9.360588E+01  4.181696E+03 -1.999158E+04 -1.773756E-09  4.185498E-10
       202  14  1.149163E+06 -4.249682E+02  6.783205E+03 -3.774445E+03  1.723623E-09 -5.899110E-10
       202  15  1.149781E+06  2.395129E+03  1.239523E+04 -1.999121E+04  1.120878E-09 -2.235275E-10
       202  16  1.061348E+06 -2.206276E+04 -1.733584E+04 -2.030566E+04  9.152060E-10  7.034382E-10
       202  17  1.023439E+06 -3.162557E+04 -2.364614E+04 -3.678720E+03  3.441467E-10 -2.882323E-10
       202  18  9.867667E+05 -3.804122E+04 -2.696355E+04 -1.948612E+04  1.126191E-09 -5.583675E-10
       202  19  1.238230E+06  2.187498E+04  2.569868E+04 -1.967746E+04  2.138880E+03  2.007226E+03
       202  20  1.274902E+06  3.077450E+04  3.721149E+04 -3.870174E+03  5.581262E+03  3.426002E+03
       202  21  1.312819E+06  4.282958E+04  5.175229E+04 -2.049641E+04  9.023479E+03  4.786491E+03
       202  22  1.149786E+06 -9.359951E+01  4.181717E+03 -1.999158E+04  2.765419E+03  2.007051E+03
       202  23  1.149163E+06 -4.249453E+02  6.783299E+03 -3.774428E+03  6.181981E+03  3.425924E+03
       202  24  1.149781E+06  2.395179E+03  1.239544E+04 -1.999118E+04  9.598173E+03  4.786505E+03
       202  25  1.061348E+06 -2.206275E+04 -1.733581E+04 -2.030565E+04  3.391869E+03  2.006875E+03
       202  26  1.023439E+06 -3.162555E+04 -2.364603E+04 -3.678701E+03  6.782579E+03  3.425846E+03
       202  27  9.867668E+05 -3.804117E+04 -2.696331E+04 -1.948608E+04  1.017272E+04  4.786519E+03
       203   1  1.375677E+06  5.466382E+04  7.008811E+04 -1.754339E+04 -1.129717E+04 -5.745317E+03
       203   2  1.409829E+06  6.161979E+04  8.965457E+04 -4.783700E+03 -2.509228E+04 -7.208184E+03
       203   3  1.452669E+06  9.569579E+04  1.249914E+05 -2.548978E+04 -3.888774E+04 -7.882941E+03
       203   4  1.151418E+06 -9.981446E+02  1.571912E+04 -2.021934E+04 -1.209763E+04 -5.745360E+03
       203   5  1.147093E+06 -3.564630E+03  2.609170E+04 -3.489062E+03 -2.554666E+04 -7.208501E+03
       203   6  1.151398E+06  2.093551E+04  5.199986E+04 -2.022519E+04 -3.899519E+04 -7.883556E+03
       203   7  9.272060E+05 -5.666377E+04 -3.865349E+04 -2.289433E+04 -1.289780E+04 -5.745396E+03
       203   8  8.844201E+05 -6.875408E+04 -3.747613E+04 -2.194975E+03 -2.600084E+04 -7.208820E+03
       203   9  8.502104E+05 -5.383130E+04 -2.099820E+04 -1.496316E+04 -3.910258E+04 -7.884172E+03
       203  10  1.375677E+06  5.466375E+04  7.008781E+04 -1.754344E+04  1.246744E-09 -6.538116E-11
       203  11  1.409828E+06  6.161956E+04  8.965329E+04 -4.783846E+03  1.646585E-10 -1.698270E-10
       203  12  1.452667E+06  9.569532E+04  1.249885E+05 -2.549003E+04  1.760700E-10  2.861676E-10
       203  13  1.151418E+06 -9.982193E+02  1.571878E+04 -2.021940E+04 -1.060642E-09 -3.137081E-10
       203  14  1.147092E+06 -3.564860E+03  2.609037E+04 -3.489210E+03  7.220343E-10 -1.937234E-10
       203  15  1.151396E+06  2.093504E+04  5.199689E+04 -2.022544E+04  7.323912E-10  4.236723E-10
       203  16  9.272058E+05 -5.666385E+04 -3.865386E+04 -2.289439E+04  2.773814E-10 -3.874896E-10
       203  17  8.844193E+05 -6.875432E+04 -3.747750E+04 -2.195125E+03 -2.674167E-09 -4.217183E-10
       203  18  8.502087E+05 -5.383178E+04 -2.100119E+04 -1.496341E+04 -9.010410E-10  8.403905E-10
       203  19  1.375677E+06  5.466382E+04  7.008811E+04 -1.754339E+04  1.129717E+04  5.745317E+03
       203  20  1.409829E+06  6.161979E+04  8.965457E+04 -4.783700E+03  2.509228E+04  7.208184E+03
       203  21  1.452669E+06  9.569579E+04  1.249914E+05 -2.548978E+04  3.888774E+04  7.882941E+03
       203  22  1.151418E+06 -9.981446E+02  1.571912E+04 -2.021934E+04  1.209763E+04  5.745360E+03
       203  23  1.147093E+06 -3.564630E+03  2.609170E+04 -3.489062E+03  2.554666E+04  7.208501E+03
       203  24  1.151398E+06  2.093551E+04  5.199986E+04 -2.022519E+04  3.899519E+04  7.883556E+03
       203  25  9.272060E+05 -5.666377E+04 -3.865349E+04 -2.289433E+04  1.289780E+04  5.745396E+03
       203  26  8.844201E+05 -6.875408E+04 -3.747613E+04 -2.194975E+03  2.600084E+04  7.208820E+03
       203  27  8.502104E+05 -5.383130E+04 -2.099820E+04 -1.496316E+04  3.910258E+04  7.884172E+03
       204   1  1.529121E+06  8.182399E+04  1.517873E+05  1.615166E+03 -4.637328E+04 -1.012148E+04
       204   2  1.536767E+06  7.047445E+04  1.981914E+05 -1.687968E+04 -1.046848E+05 -1.172200E+04
       204   3  1.610453E+06  2.918772E+05  3.407462E+05 -7.062500E+04 -1.630071E+05 -4.120551E+03
       204   4  1.164023E+06 -8.770826E+03  6.348862E+04 -2.056521E+04 -4.902463E+04 -1.012141E+04
       204   5  1.131277E+06 -3.006660E+04  1.002555E+05 -3.030287E+03 -1.033246E+05 -1.172385E+04
       204   6  1.163917E+06  1.807719E+05  2.304358E+05 -2.074361E+04 -1.576311E+05 -4.128430E+03
       204   7  7.990479E+05 -9.937355E+04 -2.481935E+04 -4.273255E+04 -5.167441E+04 -1.012115E+04
       204   8  7.259371E+05 -1.306189E+05  2.307932E+03  1.081002E+04 -1.019652E+05 -1.172564E+04
       204   9  7.175669E+05  6.966108E+04  1.201120E+05  2.910190E+04 -1.522590E+05 -4.135453E+03
       204  10  1.529119E+06  8.182331E+04  1.517831E+05  1.614789E+03  8.244584E-10  2.494336E-10
       204  11  1.536756E+06  7.047137E+04  1.981706E+05 -1.688067E+04 -2.679713E-11 -8.212105E-10
       204  12  1.610425E+06  2.918700E+05  3.406964E+05 -7.062554E+04 -7.094215E-10  1.294990E-10
       204  13  1.164021E+06 -8.771579E+03  6.348392E+04 -2.056561E+04 -8.070077E-10 -4.031278E-10
       204  14  1.131266E+06 -3.006961E+04  1.002352E+05 -3.031263E+03 -2.797920E-09 -5.204187E-10
       204  15  1.163890E+06  1.807652E+05  2.303891E+05 -2.074414E+04 -9.840939E-11 -7.501261E-10
       204  16  7.990450E+05 -9.937437E+04 -2.482455E+04 -4.273297E+04 -1.613942E-09  5.617413E-10
       204  17  7.259259E+05 -1.306219E+05  2.288159E+03  1.080906E+04 -1.053919E-09 -9.848614E-10
       204  18  7.175420E+05  6.965485E+04  1.200685E+05  2.910140E+04  5.151974E-10  5.133377E-10
       204  19  1.529121E+06  8.182399E+04  1.517873E+05  1.615166E+03  4.637328E+04  1.012148E+04
       204  20  1.536767E+06  7.047445E+04  1.981914E+05 -1.687968E+04  1.046848E+05  1.172200E+04
       204  21  1.610453E+06  2.918772E+05  3.407462E+05 -7.062500E+04  1.630071E+05  4.120551E+03
       204  22  1.164023E+06 -8.770826E+03  6.348862E+04 -2.056521E+04  4.902463E+04  1.012141E+04
       204  23  1.131277E+06 -3.006660E+04  1.002555E+05 -3.030287E+03  1.033246E+05  1.172385E+04
       204  24  1.163917E+06  1.807719E+05  2.304358E+05 -2.074361E+04  1.576311E+05  4.128430E+03
       204  25  7.990479E+05 -9.937355E+04 -2.481935E+04 -4.273255E+04  5.167441E+04  1.012115E+04
       204  26  7.259371E+05 -1.306189E+05  2.307932E+03  1.081002E+04  1.019652E+05  1.172564E+04
       204  27  7.175669E+05  6.966108E+04  1.201120E+05  2.910190E+04  1.522590E+05  4.135453E+03
       205   1  6.151304E+05  1.812705E+06  5.950354E+05 -6.578587E+05  2.227949E+04  1.977790E+05
       205   2  4.148842E+05  1.275886E+06  3.622589E+05 -5.817811E+05  6.921030E+04  7.657262E+04
       205   3  2.717692E+05  7.689458E+05  2.224932E+05 -6.036733E+05  6.603059E+04 -4.463610E+04
       205   4  8.073414E+04 -3.487507E+05  8.448258E+04 -6.016430E+05  2.277651E+04  5.655293E+04
       205   5  2.504354E+04 -3.547551E+05  4.383209E+04 -5.527819E+05  6.937970E+04  3.427794E+04
       205   6  9.435620E+03 -3.482057E+05  2.766435E+04 -6.018831E+05  6.582215E+04  1.189395E+04
       205   7 -4.539751E+05 -2.505869E+06 -4.263174E+05 -5.456183E+05  2.324907E+04 -8.418552E+04
       205   8 -3.649532E+05 -1.982843E+06 -2.747149E+05 -5.238573E+05  6.954543E+04 -7.908325E+03
       205   9 -2.529639E+05 -1.464128E+06 -1.671967E+05 -6.000946E+05  6.561378E+04  6.832543E+04
       205  10  6.151194E+05  1.812663E+06  5.949611E+05 -6.578623E+05  2.703493E-10  2.117867E-09
       205  11  4.148775E+05  1.275879E+06  3.622389E+05 -5.817853E+05 -6.452753E-10 -3.291521E-09
       205  12  2.717640E+05  7.689425E+05  2.224813E+05 -6.036709E+05  1.596875E-09 -3.009133E-09
       205  13  8.073273E+04 -3.487543E+05  8.447559E+04 -6.016441E+05  1.180077E-09  2.326330E-09
       205  14  2.503805E+04 -3.547576E+05  4.382083E+04 -5.527838E+05 -7.735711E-10 -1.427791E-09
       205  15  9.430929E+03 -3.482070E+05  2.765594E+04 -6.018838E+05  1.959634E-09  1.857346E-09
       205  16 -4.539776E+05 -2.505877E+06 -4.263318E+05 -5.456168E+05 -2.563585E-10 -2.109794E-09
       205  17 -3.649585E+05 -1.982845E+06 -2.747241E+05 -5.238568E+05  2.174509E-09  2.058203E-10
       205  18 -2.529698E+05 -1.464134E+06 -1.672136E+05 -6.000983E+05 -6.413253E-10  2.406135E-09
       205  19  6.151304E+05  1.812705E+06  5.950354E+05 -6.578587E+05 -2.227949E+04 -1.977790E+05
       205  20  4.148842E+05  1.275886E+06  3.622589E+05 -5.817811E+05 -6.921030E+04 -7.657262E+04
       205  21  2.717692E+05  7.689458E+05  2.224932E+05 -6.036733E+05 -6.603059E+04  4.463610E+04
       205  22  8.073414E+04 -3.487507E+05  8.448258E+04 -6.016430E+05 -2.277651E+04 -5.655293E+04
       205  23  2.504354E+04 -3.547551E+05  4.383209E+04 -5.527819E+05 -6.937970E+04 -3.427794E+04
       205  24  9.435620E+03 -3.482057E+05  2.766435E+04 -6.018831E+05 -6.582215E+04 -1.189395E+04
       205  25 -4.539751E+05 -2.505869E+06 -4.263174E+05 -5.456183E+05 -2.324907E+04  8.418552E+04
       205  26 -3.649532E+05 -1.982843E+06 -2.747149E+05 -5.238573E+05 -6.954543E+04  7.908325E+03
       205  27 -2.529639E+05 -1.464128E+06 -1.671967E+05 -6.000946E+05 -6.561378E+04 -6.832543E+04
       206   1  1.927323E+05  4.331293E+05  1.591266E+05 -6.077086E+05  4.751135E+04 -4.699767E+04
       206   2  6.698573E+04 -8.986229E+04  6.303171E+04 -5.523625E+05  1.907635E+04 -6.038840E+04
       206   3 -5.133841E+04 -6.096870E+05 -2.270033E+04 -5.982682E+05 -1.060129E+04 -7.377731E+04
       206   4  8.973933E+03 -3.503266E+05  2.390540E+04 -6.025957E+05  4.729907E+04  7.855621E+03
       206   5  6.382883E+03 -3.515185E+05  2.173155E+04 -5.519672E+05  1.885005E+04 -3.104019E+03
       206   6  1.080511E+04 -3.502345E+05  2.823041E+04 -6.025896E+05 -1.084209E+04 -1.407231E+04
       206   7 -1.748158E+05 -1.133174E+06 -1.113256E+05 -5.974886E+05  4.708752E+04  6.264186E+04
       206   8 -5.422160E+04 -6.130995E+05 -1.955798E+04 -5.515721E+05  1.862377E+04  5.415711E+04
       206   9  7.294654E+04 -9.070980E+04  7.917130E+04 -6.069128E+05 -1.108366E+04  4.565712E+04
       206  10  1.927293E+05  4.331263E+05  1.591182E+05 -6.077068E+05  5.979734E-10  1.053901E-09
       206  11  6.698436E+04 -8.986630E+04  6.302417E+04 -5.523615E+05  1.183678E-09 -4.001858E-09
       206  12 -5.134000E+04 -6.096929E+05 -2.271078E+04 -5.982688E+05  1.712162E-09 -2.657498E-09
       206  13  8.971514E+03 -3.503273E+05  2.390108E+04 -6.025960E+05 -6.680453E-10  3.563317E-09
       206  14  6.382499E+03 -3.515187E+05  2.173086E+04 -5.519672E+05 -2.557636E-09 -2.277953E-09
       206  15  1.080493E+04 -3.502348E+05  2.822981E+04 -6.025897E+05  1.206695E-10  1.696663E-09
       206  16 -1.748192E+05 -1.133179E+06 -1.113371E+05 -5.974910E+05  4.650560E-10 -9.038528E-10
       206  17 -5.422276E+04 -6.131028E+05 -1.956415E+04 -5.515729E+05 -1.229422E-09 -2.200988E-10
       206  18  7.294585E+04 -9.071207E+04  7.916715E+04 -6.069124E+05  1.265500E-09  1.472344E-09
       206  19  1.927323E+05  4.331293E+05  1.591266E+05 -6.077086E+05 -4.751135E+04  4.699767E+04
       206  20  6.698573E+04 -8.986229E+04  6.303171E+04 -5.523625E+05 -1.907635E+04  6.038840E+04
       206  21 -5.133841E+04 -6.096870E+05 -2.270033E+04 -5.982682E+05  1.060129E+04  7.377731E+04
       206  22  8.973933E+03 -3.503266E+05  2.390540E+04 -6.025957E+05 -4.729907E+04 -7.855621E+03
       206  23  6.382883E+03 -3.515185E+05  2.173155E+04 -5.519672E+05 -1.885005E+04  3.104019E+03
       206  24  1.080511E+04 -3.502345E+05  2.823041E+04 -6.025896E+05  1.084209E+04  1.407231E+04
       206  25 -1.748158E+05 -1.133174E+06 -1.113256E+05 -5.974886E+05 -4.708752E+04 -6.264186E+04
       206  26 -5.422160E+04 -6.130995E+05 -1.955798E+04 -5.515721E+05 -1.862377E+04 -5.415711E+04
       206  27  7.294654E+04 -9.070980E+04  7.917130E+04 -6.069128E+05  1.108366E+04 -4.565712E+04
       207   1 -1.287412E+05 -9.392302E+05 -7.463597E+04 -6.022250E+05 -3.011797E+04 -7.979329E+04
       207   2 -2.330383E+05 -1.462118E+06 -1.647597E+05 -5.159658E+05 -4.197268E+04 -3.364588E+04
       207   3 -2.965337E+05 -1.981080E+06 -2.749161E+05 -5.285685E+05 -1.515815E+04  1.255958E+04
       207   4  1.159302E+04 -3.470981E+05  3.449572E+04 -6.020781E+05 -3.035973E+04 -1.889820E+04
       207   5  3.338766E+04 -3.556940E+05  5.824936E+04 -5.524978E+05 -4.190759E+04 -4.874840E+04
       207   6  1.091506E+05 -3.474603E+05  1.147732E+05 -6.017372E+05 -1.482342E+04 -7.850234E+04
       207   7  1.519093E+05  2.453824E+05  1.436269E+05 -6.019307E+05 -3.060132E+04  4.205351E+04
       207   8  2.997425E+05  7.519020E+05  2.811971E+05 -5.890947E+05 -4.184081E+04 -6.387731E+04
       207   9  5.146652E+05  1.288642E+06  5.043087E+05 -6.750966E+05 -1.446771E+04 -1.698031E+05
       207  10 -1.287439E+05 -9.392373E+05 -7.464967E+04 -6.022269E+05  2.550851E-09  1.387573E-09
       207  11 -2.330405E+05 -1.462120E+06 -1.647651E+05 -5.159669E+05  3.391360E-09 -3.843984E-09
       207  12 -2.965340E+05 -1.981081E+06 -2.749168E+05 -5.285683E+05  4.044707E-10 -3.327227E-09
       207  13  1.159194E+04 -3.470988E+05  3.449331E+04 -6.020786E+05  1.605906E-09  2.730302E-09
       207  14  3.338513E+04 -3.556970E+05  5.824159E+04 -5.524994E+05 -1.979697E-09 -2.048094E-09
       207  15  1.091487E+05 -3.474669E+05  1.147612E+05 -6.017382E+05  1.005570E-09  1.674218E-09
       207  16  1.519078E+05  2.453803E+05  1.436218E+05 -6.019297E+05 -6.577186E-10 -1.651791E-09
       207  17  2.997395E+05  7.518972E+05  2.811861E+05 -5.890968E+05  1.743769E-09 -8.941633E-11
       207  18  5.146572E+05  1.288611E+06  5.042542E+05 -6.750986E+05  1.577256E-09  2.368460E-09
       207  19 -1.287412E+05 -9.392302E+05 -7.463597E+04 -6.022250E+05  3.011797E+04  7.979329E+04
       207  20 -2.330383E+05 -1.462118E+06 -1.647597E+05 -5.159658E+05  4.197268E+04  3.364588E+04
       207  21 -2.965337E+05 -1.981080E+06 -2.749161E+05 -5.285685E+05  1.515815E+04 -1.255958E+04
       207  22  1.159302E+04 -3.470981E+05  3.449572E+04 -6.020781E+05  3.035973E+04  1.889820E+04
       207  23  3.338766E+04 -3.556940E+05  5.824936E+04 -5.524978E+05  4.190759E+04  4.874840E+04
       207  24  1.091506E+05 -3.474603E+05  1.147732E+05 -6.017372E+05  1.482342E+04  7.850234E+04
       207  25  1.519093E+05  2.453824E+05  1.436269E+05 -6.019307E+05  3.060132E+04 -4.205351E+04
       207  26  2.997425E+05  7.519020E+05  2.811971E+05 -5.890947E+05  4.184081E+04  6.387731E+04
       207  27  5.146652E+05  1.288642E+06  5.043087E+05 -6.750966E+05  1.446771E+04  1.698031E+05
       208   1 -2.514251E+06 -9.748975E+05 -5.113003E+05 -9.433899E+05 -1.822894E+05 -3.537224E+04
       208   2 -2.348092E+06 -8.807153E+05 -3.692042E+05 -8.885694E+05 -1.169711E+05  6.744108E+04
       208   3 -2.176853E+06 -8.268584E+05 -2.993681E+05 -8.595569E+05 -3.287036E+04  1.206435E+05
       208   4 -5.194818E+05 -2.252900E+05  6.277802E+01 -3.963628E+05 -1.104301E+04  2.920282E+04
       208   5 -5.309953E+05 -2.142455E+05 -2.645939E+01 -3.833899E+05 -3.677426E+04  9.762516E+04
       208   6 -5.193226E+05 -2.254144E+05  2.237391E+01 -3.962382E+05 -4.378326E+04  1.164997E+05
       208   7  1.479175E+06  5.245766E+05  5.112081E+05  1.522593E+05  1.608029E+05  9.400385E+04
       208   8  1.289508E+06  4.525105E+05  3.690088E+05  1.231600E+05  4.367520E+04  1.279045E+05
       208   9  1.141134E+06  3.763034E+05  2.993251E+05  6.824493E+04 -5.472757E+04  1.123442E+05
       208  10 -2.514287E+06 -9.749078E+05 -5.113654E+05 -9.433951E+05 -7.747930E-10 -1.146561E-10
       208  11 -2.348108E+06 -8.807238E+05 -3.692385E+05 -8.885631E+05 -2.472466E-09  2.088720E-10
       208  12 -2.176858E+06 -8.268743E+05 -2.993974E+05 -8.595537E+05 -2.155208E-09  1.075500E-10
       208  13 -5.194822E+05 -2.252909E+05  6.094692E+01 -3.963625E+05  5.381045E-10  1.362785E-09
       208  14 -5.309993E+05 -2.142561E+05 -4.690356E+01 -3.833871E+05  1.150309E-09 -2.256139E-09
       208  15 -5.193283E+05 -2.254295E+05 -6.723105E+00 -3.962340E+05 -9.387382E-10  1.704540E-09
       208  16  1.479145E+06  5.245602E+05  5.111430E+05  1.522471E+05  3.941060E-10 -4.151254E-10
       208  17  1.289501E+06  4.524924E+05  3.689745E+05  1.231555E+05 -7.839990E-10 -2.319029E-10
       208  18  1.141127E+06  3.762890E+05  2.992958E+05  6.824988E+04  3.681088E-10  1.874144E-09
       208  19 -2.514251E+06 -9.748975E+05 -5.113003E+05 -9.433899E+05  1.822894E+05  3.537224E+04
       208  20 -2.348092E+06 -8.807153E+05 -3.692042E+05 -8.885694E+05  1.169711E+05 -6.744108E+04
       208  21 -2.176853E+06 -8.268584E+05 -2.993681E+05 -8.595569E+05  3.287036E+04 -1.206435E+05
       208  22 -5.194818E+05 -2.252900E+05  6.277802E+01 -3.963628E+05  1.104301E+04 -2.920282E+04
       208  23 -5.309953E+05 -2.142455E+05 -2.645939E+01 -3.833899E+05  3.677426E+04 -9.762516E+04
       208  24 -5.193226E+05 -2.254144E+05  2.237391E+01 -3.962382E+05  4.378326E+04 -1.164997E+05
       208  25  1.479175E+06  5.245766E+05  5.112081E+05  1.522593E+05 -1.608029E+05 -9.400385E+04
       208  26  1.289508E+06  4.525105E+05  3.690088E+05  1.231600E+05 -4.367520E+04 -1.279045E+05
       208  27  1.141134E+06  3.763034E+05  2.993251E+05  6.824493E+04  5.472757E+04 -1.123442E+05
       209   1 -2.066668E+06 -7.866129E+05 -2.753528E+05 -8.296888E+05 -3.567273E+04  1.142902E+05
       209   2 -1.911433E+06 -7.113682E+05 -2.368990E+05 -7.688372E+05 -2.470843E+04  1.117336E+05
       209   3 -1.732459E+06 -6.629756E+05 -2.053212E+05 -7.366896E+05 -1.196302E+04  1.044198E+05
       209   4 -5.187189E+05 -2.258770E+05  5.694557E+00 -3.969150E+05 -4.204343E+04  1.118606E+05
       209   5 -5.313311E+05 -2.131335E+05 -2.780222E+01 -3.825941E+05 -3.981456E+04  1.060268E+05
       209   6 -5.185018E+05 -2.255045E+05  7.642903E-01 -3.969829E+05 -3.580932E+04  9.544092E+04
       209   7  1.031765E+06  3.350910E+05  2.752857E+05  3.686892E+04 -4.843115E+04  1.094247E+05
       209   8  8.507906E+05  2.852876E+05  2.367884E+05  4.452686E+03 -5.495644E+04  1.003066E+05
       209   9  6.970155E+05  2.121094E+05  2.052825E+05 -5.665600E+04 -5.970504E+04  8.644351E+04
       209  10 -2.066673E+06 -7.866272E+05 -2.753797E+05 -8.296855E+05  2.943097E-09  1.553381E-09
       209  11 -1.911437E+06 -7.113818E+05 -2.369236E+05 -7.688350E+05 -7.047677E-09 -1.778932E-09
       209  12 -1.732463E+06 -6.629874E+05 -2.053419E+05 -7.366886E+05 -8.466549E-09 -1.782089E-09
       209  13 -5.187242E+05 -2.258909E+05 -2.113183E+01 -3.969112E+05 -1.511732E-09 -9.381520E-10
       209  14 -5.313358E+05 -2.131460E+05 -5.189803E+01 -3.825907E+05 -6.764164E-09 -2.606115E-09
       209  15 -5.185056E+05 -2.255146E+05 -1.875614E+01 -3.969802E+05 -2.465845E-09 -8.960310E-10
       209  16  1.031760E+06  3.350775E+05  2.752588E+05  3.687319E+04 -9.562909E-09 -9.357185E-10
       209  17  8.507846E+05  2.852760E+05  2.367638E+05  4.457123E+03 -8.548549E-09 -2.734568E-09
       209  18  6.970096E+05  2.121004E+05  2.052618E+05 -5.665185E+04  2.834053E-09  1.569019E-10
       209  19 -2.066668E+06 -7.866129E+05 -2.753528E+05 -8.296888E+05  3.567273E+04 -1.142902E+05
       209  20 -1.911433E+06 -7.113682E+05 -2.368990E+05 -7.688372E+05  2.470843E+04 -1.117336E+05
       209  21 -1.732459E+06 -6.629756E+05 -2.053212E+05 -7.366896E+05  1.196302E+04 -1.044198E+05
       209  22 -5.187189E+05 -2.258770E+05  5.694557E+00 -3.969150E+05  4.204343E+04 -1.118606E+05
       209  23 -5.313311E+05 -2.131335E+05 -2.780222E+01 -3.825941E+05  3.981456E+04 -1.060268E+05
       209  24 -5.185018E+05 -2.255045E+05  7.642903E-01 -3.969829E+05  3.580932E+04 -9.544092E+04
       209  25  1.031765E+06  3.350910E+05  2.752857E+05  3.686892E+04  4.843115E+04 -1.094247E+05
       209  26  8.507906E+05  2.852876E+05  2.367884E+05  4.452686E+03  5.495644E+04 -1.003066E+05
       209  27  6.970155E+05  2.121094E+05  2.052825E+05 -5.665600E+04  5.970504E+04 -8.644351E+04
       210   1 -1.624979E+06 -6.239748E+05 -1.860738E+05 -7.067232E+05 -9.496309E+03  9.659474E+04
       210   2 -1.470255E+06 -5.506125E+05 -1.574760E+05 -6.452760E+05 -3.745482E+03  8.394342E+04
       210   3 -1.290080E+06 -5.028631E+05 -1.295307E+05 -6.129230E+05  2.169502E+03  7.082756E+04
       210   4 -5.184155E+05 -2.254959E+05 -1.306216E+01 -3.970824E+05 -3.292581E+04  8.777942E+04
       210   5 -5.311290E+05 -2.126313E+05 -3.519221E+01 -3.825584E+05 -2.802935E+04  7.481698E+04
       210   6 -5.182607E+05 -2.252128E+05 -3.739172E+01 -3.971385E+05 -2.296914E+04  6.139033E+04
       210   7  5.894688E+05  1.731110E+05  1.860221E+05 -8.691969E+04 -5.640004E+04  7.894731E+04
       210   8  4.089451E+05  1.254410E+05  1.573873E+05 -1.194659E+05 -5.235245E+04  6.567582E+04
       210   9  2.541964E+05  5.249779E+04  1.294435E+05 -1.811017E+05 -4.814105E+04  5.194062E+04
       210  10 -1.624982E+06 -6.239848E+05 -1.860915E+05 -7.067225E+05 -2.294779E-10  9.332800E-10
       210  11 -1.470257E+06 -5.506201E+05 -1.574893E+05 -6.452757E+05 -4.576719E-10  1.190978E-10
       210  12 -1.290082E+06 -5.028685E+05 -1.295401E+05 -6.129231E+05 -3.396936E-10  1.678428E-11
       210  13 -5.184188E+05 -2.255045E+05 -2.957328E+01 -3.970801E+05  9.061578E-10  2.383287E-10
       210  14 -5.311314E+05 -2.126375E+05 -4.718335E+01 -3.825567E+05  9.906099E-10 -1.196304E-11
       210  15 -5.182623E+05 -2.252170E+05 -4.546260E+01 -3.971373E+05  7.609434E-10  9.686942E-11
       210  16  5.894637E+05  1.731035E+05  1.860044E+05 -8.691611E+04 -1.999992E-10 -6.695913E-10
       210  17  4.089410E+05  1.254357E+05  1.573741E+05 -1.194631E+05  5.190358E-10 -4.326695E-10
       210  18  2.541932E+05  5.249427E+04  1.294341E+05 -1.810997E+05  4.498510E-10  8.575191E-11
       210  19 -1.624979E+06 -6.239748E+05 -1.860738E+05 -7.067232E+05  9.496309E+03 -9.659474E+04
       210  20 -1.470255E+06 -5.506125E+05 -1.574760E+05 -6.452760E+05  3.745482E+03 -8.394342E+04
       210  21 -1.290080E+06 -5.028631E+05 -1.295307E+05 -6.129230E+05 -2.169502E+03 -7.082756E+04
       210  22 -5.184155E+05 -2.254959E+05 -1.306216E+01 -3.970824E+05  3.292581E+04 -8.777942E+04
       210  23 -5.311290E+05 -2.126313E+05 -3.519221E+01 -3.825584E+05  2.802935E+04 -7.481698E+04
       210  24 -5.182607E+05 -2.252128E+05 -3.739172E+01 -3.971385E+05  2.296914E+04 -6.139033E+04
       210  25  5.894688E+05  1.731110E+05  1.860221E+05 -8.691969E+04  5.640004E+04 -7.894731E+04
       210  26  4.089451E+05  1.254410E+05  1.573873E+05 -1.194659E+05  5.235245E+04 -6.567582E+04
       210  27  2.541964E+05  5.249779E+04  1.294435E+05 -1.811017E+05  4.814105E+04 -5.194062E+04
       211   1 -1.182619E+06 -4.640105E+05 -1.107247E+05 -5.829471E+05  5.138765E+03  6.285056E+04
       211   2 -1.027595E+06 -3.908855E+05 -8.307022E+04 -5.214206E+05  1.041239E+04  4.922978E+04
       211   3 -8.470134E+05 -3.432785E+05 -5.551255E+04 -4.890872E+05  1.569762E+04  3.556244E+04
       211   4 -5.182299E+05 -2.251765E+05 -5.695330E+01 -3.971648E+05 -1.997200E+04  5.342836E+04
       211   5 -5.309624E+05 -2.123461E+05 -1.114109E+02 -3.825803E+05 -1.478590E+04  3.978014E+04
       211   6 -5.181516E+05 -2.250189E+05 -1.965006E+02 -3.971994E+05 -9.588209E+03  2.608528E+04
       211   7  1.466253E+05  1.369969E+04  1.106007E+05 -2.111974E+05 -4.511107E+04  4.399555E+04
       211   8 -3.406520E+04 -3.378142E+04  8.284399E+04 -2.436353E+05 -4.000561E+04  3.032247E+04
       211   9 -1.891696E+05 -1.067467E+05  5.512048E+04 -3.052646E+05 -3.488854E+04  1.660268E+04
       211  10 -1.182620E+06 -4.640147E+05 -1.107322E+05 -5.829474E+05  2.391332E-09  4.974123E-10
       211  11 -1.027596E+06 -3.908881E+05 -8.307498E+04 -5.214210E+05  1.322700E-11 -8.043752E-10
       211  12 -8.470140E+05 -3.432799E+05 -5.551539E+04 -4.890876E+05 -2.326586E-09 -1.829419E-10
       211  13 -5.182311E+05 -2.251797E+05 -6.306508E+01 -3.971639E+05 -8.525897E-11 -2.150309E-10
       211  14 -5.309630E+05 -2.123478E+05 -1.147943E+02 -3.825798E+05 -3.169556E-10 -6.807864E-10
       211  15 -5.181519E+05 -2.250197E+05 -1.979515E+02 -3.971992E+05 -1.711895E-09  2.720002E-10
       211  16  1.466226E+05  1.369707E+04  1.105932E+05 -2.111958E+05 -2.653605E-09 -1.004036E-09
       211  17 -3.406717E+04 -3.378283E+04  8.283925E+04 -2.436343E+05 -2.188606E-09 -5.423654E-10
       211  18 -1.891710E+05 -1.067473E+05  5.511768E+04 -3.052641E+05  1.265519E-09  8.093819E-10
       211  19 -1.182619E+06 -4.640105E+05 -1.107247E+05 -5.829471E+05 -5.138765E+03 -6.285056E+04
       211  20 -1.027595E+06 -3.908855E+05 -8.307022E+04 -5.214206E+05 -1.041239E+04 -4.922978E+04
       211  21 -8.470134E+05 -3.432785E+05 -5.551255E+04 -4.890872E+05 -1.569762E+04 -3.556244E+04
       211  22 -5.182299E+05 -2.251765E+05 -5.695330E+01 -3.971648E+05  1.997200E+04 -5.342836E+04
       211  23 -5.309624E+05 -2.123461E+05 -1.114109E+02 -3.825803E+05  1.478590E+04 -3.978014E+04
       211  24 -5.181516E+05 -2.250189E+05 -1.965006E+02 -3.971994E+05  9.588209E+03 -2.608528E+04
       211  25  1.466253E+05  1.369969E+04  1.106007E+05 -2.111974E+05  4.511107E+04 -4.399555E+04
       211  26 -3.406520E+04 -3.378142E+04  8.284399E+04 -2.436353E+05  4.000561E+04 -3.032247E+04
       211  27 -1.891696E+05 -1.067467E+05  5.512048E+04 -3.052646E+05  3.488854E+04 -1.660268E+04
       212   1 -7.394073E+05 -3.044615E+05 -3.678250E+04 -4.591007E+05  1.873976E+04  2.757816E+04
       212   2 -5.841921E+05 -2.314172E+05 -9.358180E+03 -3.975495E+05  2.408586E+04  1.392669E+04
       212   3 -4.034445E+05 -1.838885E+05  1.792129E+04 -3.652271E+05  2.942112E+04  3.018595E+02
       212   4 -5.181462E+05 -2.250016E+05 -2.672271E+02 -3.972102E+05 -6.551703E+03  1.810061E+04
       212   5 -5.308872E+05 -2.122195E+05 -4.939615E+02 -3.825957E+05 -1.159800E+03  4.466913E+03
       212   6 -5.181357E+05 -2.249653E+05 -9.041265E+02 -3.972215E+05  4.221209E+03 -9.140149E+03
       212   7 -2.968313E+05 -1.455362E+05  3.624962E+04 -3.352986E+05 -3.185273E+04  8.619473E+03
       212   8 -4.775781E+05 -1.930211E+05  8.372838E+03 -3.676404E+05 -2.640762E+04 -4.993681E+03
       212   9 -6.328101E+05 -2.660398E+05 -1.972676E+04 -4.292096E+05 -2.097349E+04 -1.858021E+04
       212  10 -7.394079E+05 -3.044624E+05 -3.678459E+04 -4.591011E+05  9.026027E-09  5.151053E-09
       212  11 -5.841927E+05 -2.314176E+05 -9.359637E+03 -3.975497E+05 -2.036944E-08 -6.481650E-09
       212  12 -4.034454E+05 -1.838887E+05  1.791966E+04 -3.652271E+05 -4.498351E-08 -1.793186E-08
       212  13 -5.181463E+05 -2.250019E+05 -2.679232E+02 -3.972101E+05 -1.045730E-09  8.463550E-10
       212  14 -5.308872E+05 -2.122195E+05 -4.940015E+02 -3.825957E+05 -5.167508E-13  7.021256E-10
       212  15 -5.181358E+05 -2.249654E+05 -9.043169E+02 -3.972214E+05  4.293516E-09 -2.353387E-10
       212  16 -2.968324E+05 -1.455365E+05  3.624758E+04 -3.352983E+05 -1.045905E-08 -3.213633E-09
       212  17 -4.775789E+05 -1.930214E+05  8.371480E+03 -3.676405E+05  1.984543E-08  7.693428E-09
       212  18 -6.328107E+05 -2.660403E+05 -1.972824E+04 -4.292099E+05  5.009368E-08  1.717645E-08
       212  19 -7.394073E+05 -3.044615E+05 -3.678250E+04 -4.591007E+05 -1.873976E+04 -2.757816E+04
       212  20 -5.841921E+05 -2.314172E+05 -9.358180E+03 -3.975495E+05 -2.408586E+04 -1.392669E+04
       212  21 -4.034445E+05 -1.838885E+05  1.792129E+04 -3.652271E+05 -2.942112E+04 -3.018595E+02
       212  22 -5.181462E+05 -2.250016E+05 -2.672271E+02 -3.972102E+05  6.551703E+03 -1.810061E+04
       212  23 -5.308872E+05 -2.122195E+05 -4.939615E+02 -3.825957E+05  1.159800E+03 -4.466913E+03
       212  24 -5.181357E+05 -2.249653E+05 -9.041265E+02 -3.972215E+05 -4.221209E+03  9.140149E+03
       212  25 -2.968313E+05 -1.455362E+05  3.624962E+04 -3.352986E+05  3.185273E+04 -8.619473E+03
       212  26 -4.775781E+05 -1.930211E+05  8.372838E+03 -3.676404E+05  2.640762E+04  4.993681E+03
       212  27 -6.328101E+05 -2.660398E+05 -1.972676E+04 -4.292096E+05  2.097349E+04  1.858021E+04
       213   1 -2.957763E+05 -1.450942E+05  3.644668E+04 -3.352403E+05  3.261668E+04 -7.603248E+03
       213   2 -1.405576E+05 -7.208848E+04  6.332744E+04 -2.736518E+05  3.818188E+04 -2.094817E+04
       213   3  4.013123E+04 -2.462610E+04  8.983741E+04 -2.412520E+05  4.362543E+04 -3.395714E+04
       213   4 -5.181769E+05 -2.249642E+05 -1.209377E+03 -3.972284E+05  7.386995E+03 -1.705748E+04
       213   5 -5.308759E+05 -2.122580E+05 -2.213114E+03 -3.825885E+05  1.356532E+04 -3.017682E+04
       213   6 -5.182600E+05 -2.252230E+05 -4.076542E+03 -3.971520E+05  1.962182E+04 -4.296011E+04
       213   7 -7.405259E+05 -3.048298E+05 -3.886470E+04 -4.591960E+05 -1.783336E+04 -2.650822E+04
       213   8 -9.210329E+05 -3.524129E+05 -6.775559E+04 -4.914613E+05 -1.103494E+04 -3.939937E+04
       213   9 -1.076318E+06 -4.257887E+05 -9.799613E+04 -5.529203E+05 -4.358876E+03 -5.195450E+04
       213  10 -2.957775E+05 -1.450945E+05  3.644457E+04 -3.352401E+05  5.026124E-08  1.688274E-08
       213  11 -1.405592E+05 -7.208934E+04  6.332387E+04 -2.736512E+05  1.905578E-08  5.802392E-09
       213  12  4.012888E+04 -2.462785E+04  8.983167E+04 -2.412509E+05 -1.297641E-08 -4.168309E-09
       213  13 -5.181770E+05 -2.249646E+05 -1.210026E+03 -3.972283E+05  2.442999E-09 -1.038095E-09
       213  14 -5.308764E+05 -2.122591E+05 -2.215171E+03 -3.825882E+05 -2.152489E-09 -8.883158E-10
       213  15 -5.182609E+05 -2.252251E+05 -4.080732E+03 -3.971513E+05 -2.400923E-09 -8.182966E-12
       213  16 -7.405264E+05 -3.048307E+05 -3.886662E+04 -4.591963E+05 -4.559221E-08 -1.830992E-08
       213  17 -9.210334E+05 -3.524146E+05 -6.775874E+04 -4.914616E+05 -2.106358E-08 -7.334799E-09
       213  18 -1.076319E+06 -4.257916E+05 -9.800124E+04 -5.529205E+05  1.083645E-08  4.319402E-09
       213  19 -2.957763E+05 -1.450942E+05  3.644668E+04 -3.352403E+05 -3.261668E+04  7.603248E+03
       213  20 -1.405576E+05 -7.208848E+04  6.332744E+04 -2.736518E+05 -3.818188E+04  2.094817E+04
       213  21  4.013123E+04 -2.462610E+04  8.983741E+04 -2.412520E+05 -4.362543E+04  3.395714E+04
       213  22 -5.181769E+05 -2.249642E+05 -1.209377E+03 -3.972284E+05 -7.386995E+03  1.705748E+04
       213  23 -5.308759E+05 -2.122580E+05 -2.213114E+03 -3.825885E+05 -1.356532E+04  3.017682E+04
       213  24 -5.182600E+05 -2.252230E+05 -4.076542E+03 -3.971520E+05 -1.962182E+04  4.296011E+04
       213  25 -7.405259E+05 -3.048298E+05 -3.886470E+04 -4.591960E+05  1.783336E+04  2.650822E+04
       213  26 -9.210329E+05 -3.524129E+05 -6.775559E+04 -4.914613E+05  1.103494E+04  3.939937E+04
       213  27 -1.076318E+06 -4.257887E+05 -9.799613E+04 -5.529203E+05  4.358876E+03  5.195450E+04
       214   1  1.479062E+05  1.405517E+04  1.076250E+05 -2.115347E+05  4.759853E+04 -4.132201E+04
       214   2  3.020238E+05  8.747348E+04  1.335657E+05 -1.486641E+05  5.055484E+04 -5.327897E+04
       214   3  4.810991E+05  1.339599E+05  1.600656E+05 -1.141915E+05  5.221207E+04 -6.175843E+04
       214   4 -5.185756E+05 -2.252105E+05 -5.441840E+03 -3.972050E+05  2.328046E+04 -5.044657E+04
       214   5 -5.307767E+05 -2.134005E+05 -1.002802E+04 -3.821600E+05  3.263734E+04 -6.001070E+04
       214   6 -5.193172E+05 -2.297972E+05 -1.912918E+04 -3.955268E+05  4.069453E+04 -6.609456E+04
       214   7 -1.184577E+06 -4.644295E+05 -1.185161E+05 -5.826867E+05 -1.009618E+03 -5.956068E+04
       214   8 -1.362841E+06 -5.142052E+05 -1.536404E+05 -6.153626E+05  1.474540E+04 -6.673279E+04
       214   9 -1.518689E+06 -5.934595E+05 -1.983601E+05 -6.764411E+05  2.919664E+04 -7.042322E+04
       214  10  1.479033E+05  1.405273E+04  1.076175E+05 -2.115331E+05 -1.828144E-10  1.621782E-10
       214  11  3.020203E+05  8.746975E+04  1.335556E+05 -1.486620E+05  3.097237E-09 -7.527218E-11
       214  12  4.810951E+05  1.339550E+05  1.600533E+05 -1.141889E+05 -2.511456E-09 -1.385316E-09
       214  13 -5.185769E+05 -2.252134E+05 -5.447638E+03 -3.972041E+05  1.499627E-10  5.642664E-10
       214  14 -5.307788E+05 -2.134046E+05 -1.003678E+04 -3.821585E+05 -5.487686E-10  3.667072E-11
       214  15 -5.193201E+05 -2.298023E+05 -1.914049E+04 -3.955247E+05 -9.253727E-09 -3.827175E-09
       214  16 -1.184578E+06 -4.644333E+05 -1.185228E+05 -5.826868E+05  1.266689E-10  1.230473E-09
       214  17 -1.362842E+06 -5.142100E+05 -1.536492E+05 -6.153618E+05 -4.210276E-09 -3.196883E-10
       214  18 -1.518691E+06 -5.934650E+05 -1.983710E+05 -6.764394E+05 -1.739387E-08 -6.012153E-09
       214  19  1.479062E+05  1.405517E+04  1.076250E+05 -2.115347E+05 -4.759853E+04  4.132201E+04
       214  20  3.020238E+05  8.747348E+04  1.335657E+05 -1.486641E+05 -5.055484E+04  5.327897E+04
       214  21  4.810991E+05  1.339599E+05  1.600656E+05 -1.141915E+05 -5.221207E+04  6.175843E+04
       214  22 -5.185756E+05 -2.252105E+05 -5.441840E+03 -3.972050E+05 -2.328046E+04  5.044657E+04
       214  23 -5.307767E+05 -2.134005E+05 -1.002802E+04 -3.821600E+05 -3.263734E+04  6.001070E+04
       214  24 -5.193172E+05 -2.297972E+05 -1.912918E+04 -3.955268E+05 -4.069453E+04  6.609456E+04
       214  25 -1.184577E+06 -4.644295E+05 -1.185161E+05 -5.826867E+05  1.009618E+03  5.956068E+04
       214  26 -1.362841E+06 -5.142052E+05 -1.536404E+05 -6.153626E+05 -1.474540E+04  6.673279E+04
       214  27 -1.518689E+06 -5.934595E+05 -1.983601E+05 -6.764411E+05 -2.919664E+04  7.042322E+04
       215   1  5.911179E+05  1.704528E+05  1.763144E+05 -8.872796E+04  6.051811E+04 -6.497196E+04
       215   2  7.254164E+05  2.510153E+05  2.115220E+05  1.406291E+03  1.520243E+04 -7.045961E+04
       215   3  8.757008E+05  2.743614E+05  2.680712E+05  7.626971E+04 -4.378667E+04 -3.966763E+04
       215   4 -5.226858E+05 -2.297247E+05 -2.553588E+04 -3.961930E+05  4.565072E+04 -7.056943E+04
       215   5 -5.297171E+05 -2.341724E+05 -4.884230E+04 -3.736725E+05  6.725860E+04 -5.091579E+04
       215   6 -5.340724E+05 -3.091533E+05 -1.038497E+05 -3.664319E+05  7.518834E+04  5.063739E+03
       215   7 -1.635186E+06 -6.297899E+05 -2.274290E+05 -7.031461E+05  3.081177E+04 -7.615643E+04
       215   8 -1.783213E+06 -7.191698E+05 -3.092754E+05 -7.480286E+05  1.192014E+05 -3.142010E+04
       215   9 -1.941850E+06 -8.923983E+05 -4.758761E+05 -8.081664E+05  1.938666E+05  4.965690E+04
       215  10  5.911129E+05  1.704473E+05  1.762996E+05 -8.872479E+04 -1.933904E-08 -5.793119E-09
       215  11  7.254148E+05  2.510099E+05  2.115122E+05  1.407153E+03 -4.105308E-09  2.038864E-09
       215  12  8.756983E+05  2.743591E+05  2.680646E+05  7.626831E+04  3.919348E-09  2.188536E-09
       215  13 -5.226893E+05 -2.297306E+05 -2.554915E+04 -3.961904E+05 -1.010920E-08 -2.880065E-09
       215  14 -5.297226E+05 -2.341764E+05 -4.885567E+04 -3.736697E+05 -2.007773E-09  1.153133E-10
       215  15 -5.340785E+05 -3.091548E+05 -1.038604E+05 -3.664322E+05  1.266114E-09  6.626568E-10
       215  16 -1.635188E+06 -6.297964E+05 -2.274417E+05 -7.031442E+05 -1.551303E-09 -1.058561E-09
       215  17 -1.783228E+06 -7.191747E+05 -3.093041E+05 -7.480256E+05  2.389072E-09  1.954097E-10
       215  18 -1.941891E+06 -8.924111E+05 -4.759516E+05 -8.081742E+05 -1.387797E-09 -1.241954E-09
       215  19  5.911179E+05  1.704528E+05  1.763144E+05 -8.872796E+04 -6.051811E+04  6.497196E+04
       215  20  7.254164E+05  2.510153E+05  2.115220E+05  1.406291E+03 -1.520243E+04  7.045961E+04
       215  21  8.757008E+05  2.743614E+05  2.680712E+05  7.626971E+04  4.378667E+04  3.966763E+04
       215  22 -5.226858E+05 -2.297247E+05 -2.553588E+04 -3.961930E+05 -4.565072E+04  7.056943E+04
       215  23 -5.297171E+05 -2.341724E+05 -4.884230E+04 -3.736725E+05 -6.725860E+04  5.091579E+04
       215  24 -5.340724E+05 -3.091533E+05 -1.038497E+05 -3.664319E+05 -7.518834E+04 -5.063739E+03
       215  25 -1.635186E+06 -6.297899E+05 -2.274290E+05 -7.031461E+05 -3.081177E+04  7.615643E+04
       215  26 -1.783213E+06 -7.191698E+05 -3.092754E+05 -7.480286E+05 -1.192014E+05  3.142010E+04
       215  27 -1.941850E+06 -8.923983E+05 -4.758761E+05 -8.081664E+05 -1.938666E+05 -4.965690E+04
       216   1 -6.313966E+05 -2.066636E+05 -1.746468E+05 -9.100801E+04 -3.940225E+03  1.859016E+04
       216   2 -4.756448E+05 -2.599029E+05 -1.588440E+05 -1.257805E+05  1.896432E+04  6.162328E+04
       216   3 -3.067797E+05 -2.496821E+05 -1.420805E+05 -1.898101E+05  4.191329E+04  7.230581E+04
       216   4  8.052608E+05  1.474902E+05  1.606304E+05 -1.866909E+05  1.126176E+05  1.867814E+04
       216   5  7.933100E+05  4.142483E+04  7.939069E+04 -1.720295E+05  7.186264E+04  6.164239E+04
       216   6  8.054486E+05  9.785924E+03  4.327905E+04 -1.866147E+05  3.114828E+04  7.229007E+04
       216   7  2.243871E+06  5.015399E+05  4.958239E+05 -2.825968E+05  2.294433E+05  1.873011E+04
       216   8  2.063832E+06  3.426689E+05  3.175671E+05 -2.183756E+05  1.248663E+05  6.165361E+04
       216   9  1.918898E+06  2.691897E+05  2.286013E+05 -1.834132E+05  2.036458E+04  7.227423E+04
       216  10 -6.313967E+05 -2.066640E+05 -1.746475E+05 -9.100795E+04 -9.030710E-09 -7.655593E-10
       216  11 -4.756462E+05 -2.599071E+05 -1.588518E+05 -1.257814E+05  2.169740E-08  9.614723E-10
       216  12 -3.067830E+05 -2.496882E+05 -1.420937E+05 -1.898126E+05  4.745288E-08  4.547211E-10
       216  13  8.052471E+05  1.474864E+05  1.606060E+05 -1.866926E+05  2.966851E-10  8.600511E-10
       216  14  7.933034E+05  4.141936E+04  7.937385E+04 -1.720331E+05 -2.412802E-09  7.250782E-10
       216  15  8.054462E+05  9.780050E+03  4.326740E+04 -1.866165E+05 -1.004143E-09  5.596829E-10
       216  16  2.243814E+06  5.015254E+05  4.957246E+05 -2.826003E+05  8.892683E-09  7.556617E-10
       216  17  2.063814E+06  3.426607E+05  3.175307E+05 -2.183818E+05 -2.077508E-08  9.367480E-10
       216  18  1.918896E+06  2.691840E+05  2.285907E+05 -1.834144E+05 -4.679676E-08  2.499713E-09
       216  19 -6.313966E+05 -2.066636E+05 -1.746468E+05 -9.100801E+04  3.940225E+03 -1.859016E+04
       216  20 -4.756448E+05 -2.599029E+05 -1.588440E+05 -1.257805E+05 -1.896432E+04 -6.162328E+04
       216  21 -3.067797E+05 -2.496821E+05 -1.420805E+05 -1.898101E+05 -4.191329E+04 -7.230581E+04
       216  22  8.052608E+05  1.474902E+05  1.606304E+05 -1.866909E+05 -1.126176E+05 -1.867814E+04
       216  23  7.933100E+05  4.142483E+04  7.939069E+04 -1.720295E+05 -7.186264E+04 -6.164239E+04
       216  24  8.054486E+05  9.785924E+03  4.327905E+04 -1.866147E+05 -3.114828E+04 -7.229007E+04
       216  25  2.243871E+06  5.015399E+05  4.958239E+05 -2.825968E+05 -2.294433E+05 -1.873011E+04
       216  26  2.063832E+06  3.426689E+05  3.175671E+05 -2.183756E+05 -1.248663E+05 -6.165361E+04
       216  27  1.918898E+06  2.691897E+05  2.286013E+05 -1.834132E+05 -2.036458E+04 -7.227423E+04
       217   1 -2.072068E+05 -2.258407E+05 -1.320888E+05 -1.830391E+05  3.514856E+04  6.805980E+04
       217   2 -4.613665E+04 -1.937849E+05 -1.148475E+05 -1.698863E+05  3.320982E+04  6.139536E+04
       217   3  1.162950E+05 -1.578001E+05 -9.533361E+04 -1.881076E+05  3.126741E+04  5.120215E+04
       217   4  8.006971E+05  8.617574E+03  3.261474E+04 -1.870999E+05  2.553851E+04  6.804661E+04
       217   5  7.994769E+05  1.801805E+03  1.781051E+04 -1.714141E+05  1.664296E+04  6.138465E+04
       217   6  8.007950E+05  1.189766E+02  1.010047E+04 -1.870991E+05  7.744287E+03  5.119640E+04
       217   7  1.809607E+06  2.430240E+05  1.972897E+05 -1.911674E+05  1.591338E+04  6.803356E+04
       217   8  1.645804E+06  1.973535E+05  1.504522E+05 -1.729440E+05  5.437429E+01  6.137404E+04
       217   9  1.485764E+06  1.580157E+05  1.155261E+05 -1.860893E+05 -1.580377E+04  5.119057E+04
       217  10 -2.072094E+05 -2.258460E+05 -1.320999E+05 -1.830411E+05 -5.118143E-08  4.108781E-10
       217  11 -4.613884E+04 -1.937893E+05 -1.148567E+05 -1.698880E+05 -1.967673E-08  1.792035E-10
       217  12  1.162933E+05 -1.578032E+05 -9.534037E+04 -1.881089E+05  7.886134E-09 -3.602666E-10
       217  13  8.006951E+05  8.612425E+03  3.260481E+04 -1.871013E+05  2.884550E-10  1.865698E-09
       217  14  7.994756E+05  1.797683E+03  1.780291E+04 -1.714150E+05  4.308107E-10  8.051849E-10
       217  15  8.007942E+05  1.161447E+02  1.009543E+04 -1.870994E+05 -2.125330E-09 -4.067036E-10
       217  16  1.809605E+06  2.430190E+05  1.972805E+05 -1.911682E+05  5.035863E-08  2.180921E-09
       217  17  1.645803E+06  1.973494E+05  1.504451E+05 -1.729440E+05  2.076911E-08  9.699497E-10
       217  18  1.485763E+06  1.580128E+05  1.155207E+05 -1.860887E+05 -9.689024E-09 -1.759647E-10
       217  19 -2.072068E+05 -2.258407E+05 -1.320888E+05 -1.830391E+05 -3.514856E+04 -6.805980E+04
       217  20 -4.613665E+04 -1.937849E+05 -1.148475E+05 -1.698863E+05 -3.320982E+04 -6.139536E+04
       217  21  1.162950E+05 -1.578001E+05 -9.533361E+04 -1.881076E+05 -3.126741E+04 -5.120215E+04
       217  22  8.006971E+05  8.617574E+03  3.261474E+04 -1.870999E+05 -2.553851E+04 -6.804661E+04
       217  23  7.994769E+05  1.801805E+03  1.781051E+04 -1.714141E+05 -1.664296E+04 -6.138465E+04
       217  24  8.007950E+05  1.189766E+02  1.010047E+04 -1.870991E+05 -7.744287E+03 -5.119640E+04
       217  25  1.809607E+06  2.430240E+05  1.972897E+05 -1.911674E+05 -1.591338E+04 -6.803356E+04
       217  26  1.645804E+06  1.973535E+05  1.504522E+05 -1.729440E+05 -5.437429E+01 -6.137404E+04
       217  27  1.485764E+06  1.580157E+05  1.155261E+05 -1.860893E+05  1.580377E+04 -5.119057E+04
       218   1  2.183777E+05 -1.339501E+05 -8.121286E+04 -1.874889E+05  2.960825E+04  4.413094E+04
       218   2  3.798172E+05 -9.694426E+04 -5.960621E+04 -1.716466E+05  2.821940E+04  3.205451E+04
       218   3  5.415476E+05 -5.974197E+04 -3.703594E+04 -1.873823E+05  2.682712E+04  1.959555E+04
       218   4  8.003439E+05  1.507521E+02  7.649937E+03 -1.871454E+05  6.215535E+03  4.412795E+04
       218   5  8.001686E+05 -1.405462E+02  4.337104E+03 -1.713570E+05  4.068989E+03  3.205472E+04
       218   6  8.003908E+05 -1.029261E+02  2.511606E+03 -1.871456E+05  1.919361E+03  1.959911E+04
       218   7  1.382650E+06  1.342356E+05  9.650751E+04 -1.868014E+05 -1.719825E+04  4.412493E+04
       218   8  1.220698E+06  9.665501E+04  6.827888E+04 -1.710673E+05 -2.009713E+04  3.205491E+04
       218   9  1.059302E+06  5.953323E+04  4.206003E+04 -1.869088E+05 -2.299837E+04  1.960264E+04
       218  10  2.183762E+05 -1.339524E+05 -8.121817E+04 -1.874900E+05  9.899475E-09 -6.772423E-10
       218  11  3.798160E+05 -9.694558E+04 -5.960964E+04 -1.716473E+05 -2.145664E-08 -1.654175E-09
       218  12  5.415468E+05 -5.974257E+04 -3.703801E+04 -1.873827E+05 -5.041623E-08 -2.238135E-09
       218  13  8.003433E+05  1.486499E+02  7.646203E+03 -1.871456E+05 -2.712160E-10 -5.067112E-10
       218  14  8.001683E+05 -1.416545E+02  4.335142E+03 -1.713571E+05 -2.154352E-09 -1.065883E-09
       218  15  8.003907E+05 -1.033397E+02  2.510877E+03 -1.871456E+05 -7.185896E-10 -2.082358E-09
       218  16  1.382649E+06  1.342334E+05  9.650330E+04 -1.868008E+05 -1.151634E-08 -2.489264E-10
       218  17  1.220697E+06  9.665380E+04  6.827619E+04 -1.710668E+05  1.813283E-08 -5.838082E-10
       218  18  1.059302E+06  5.953267E+04  4.205832E+04 -1.869084E+05  4.821765E-08 -2.061470E-09
       218  19  2.183777E+05 -1.339501E+05 -8.121286E+04 -1.874889E+05 -2.960825E+04 -4.413094E+04
       218  20  3.798172E+05 -9.694426E+04 -5.960621E+04 -1.716466E+05 -2.821940E+04 -3.205451E+04
       218  21  5.415476E+05 -5.974197E+04 -3.703594E+04 -1.873823E+05 -2.682712E+04 -1.959555E+04
       218  22  8.003439E+05  1.507521E+02  7.649937E+03 -1.871454E+05 -6.215535E+03 -4.412795E+04
       218  23  8.001686E+05 -1.405462E+02  4.337104E+03 -1.713570E+05 -4.068989E+03 -3.205472E+04
       218  24  8.003908E+05 -1.029261E+02  2.511606E+03 -1.871456E+05 -1.919361E+03 -1.959911E+04
       218  25  1.382650E+06  1.342356E+05  9.650751E+04 -1.868014E+05  1.719825E+04 -4.412493E+04
       218  26  1.220698E+06  9.665501E+04  6.827888E+04 -1.710673E+05  2.009713E+04 -3.205491E+04
       218  27  1.059302E+06  5.953323E+04  4.206003E+04 -1.869088E+05  2.299837E+04 -1.960264E+04
       219   1  6.438070E+05 -3.603669E+04 -2.151055E+04 -1.873154E+05  2.641323E+04  1.222197E+04
       219   2  8.053204E+05  1.087449E+03  1.850108E+03 -1.714641E+05  2.592296E+04 -4.347791E+02
       219   3  9.669416E+05  3.820947E+04  2.553370E+04 -1.872062E+05  2.543260E+04 -1.312783E+04
       219   4  8.003310E+05 -7.112825E+01  1.921126E+03 -1.871493E+05  1.519458E+03  1.222648E+04
       219   5  8.002850E+05 -6.003946E+01  1.142460E+03 -1.713526E+05  9.542184E+02 -4.302983E+02
       219   6  8.003307E+05 -3.807769E+01  7.361518E+02 -1.871493E+05  3.890221E+02 -1.312339E+04
       219   7  9.568808E+05  3.589361E+04  2.535465E+04 -1.869831E+05 -2.338033E+04  1.223097E+04
       219   8  7.952510E+05 -1.207195E+03  4.371527E+02 -1.712411E+05 -2.401432E+04 -4.258265E+02
       219   9  6.337489E+05 -3.828660E+04 -2.405957E+04 -1.870925E+05 -2.464812E+04 -1.311894E+04
       219  10  6.438062E+05 -3.603704E+04 -2.151214E+04 -1.873156E+05  4.883382E-08 -2.086018E-09
       219  11  8.053196E+05  1.087269E+03  1.848846E+03 -1.714641E+05  2.024567E-08 -6.701708E-10
       219  12  9.669409E+05  3.820911E+04  2.553216E+04 -1.872059E+05 -1.145698E-08  1.285543E-09
       219  13  8.003309E+05 -7.128946E+01  1.920840E+03 -1.871493E+05 -1.061902E-09 -2.204556E-09
       219  14  8.002850E+05 -6.003990E+01  1.142458E+03 -1.713526E+05 -1.751936E-09 -7.657345E-10
       219  15  8.003306E+05 -3.826273E+01  7.358278E+02 -1.871493E+05 -3.436916E-10  1.083322E-09
       219  16  9.568802E+05  3.589330E+04  2.535334E+04 -1.869829E+05 -5.027343E-08 -2.373761E-09
       219  17  7.952504E+05 -1.207350E+03  4.360700E+02 -1.712411E+05 -2.080815E-08 -9.089718E-10
       219  18  6.337482E+05 -3.828694E+04 -2.406103E+04 -1.870927E+05  1.047921E-08  1.014516E-09
       219  19  6.438070E+05 -3.603669E+04 -2.151055E+04 -1.873154E+05 -2.641323E+04 -1.222197E+04
       219  20  8.053204E+05  1.087449E+03  1.850108E+03 -1.714641E+05 -2.592296E+04  4.347791E+02
       219  21  9.669416E+05  3.820947E+04  2.553370E+04 -1.872062E+05 -2.543260E+04  1.312783E+04
       219  22  8.003310E+05 -7.112825E+01  1.921126E+03 -1.871493E+05 -1.519458E+03 -1.222648E+04
       219  23  8.002850E+05 -6.003946E+01  1.142460E+03 -1.713526E+05 -9.542184E+02  4.302983E+02
       219  24  8.003307E+05 -3.807769E+01  7.361518E+02 -1.871493E+05 -3.890221E+02  1.312339E+04
       219  25  9.568808E+05  3.589361E+04  2.535465E+04 -1.869831E+05  2.338033E+04 -1.223097E+04
       219  26  7.952510E+05 -1.207195E+03  4.371527E+02 -1.712411E+05  2.401432E+04  4.258265E+02
       219  27  6.337489E+05 -3.828660E+04 -2.405957E+04 -1.870925E+05  2.464812E+04  1.311894E+04
       220   1  1.069271E+06  6.186065E+04  4.149347E+04 -1.871991E+05  2.531304E+04 -2.052866E+04
       220   2  1.230893E+06  9.892778E+04  6.550543E+04 -1.713375E+05  2.496403E+04 -3.321507E+04
       220   3  1.392626E+06  1.360046E+05  8.975591E+04 -1.870798E+05  2.461833E+04 -4.585504E+04
       220   4  8.003173E+05 -4.587753E+01  6.232963E+02 -1.871520E+05  2.642909E+02 -2.052523E+04
       220   5  8.002591E+05 -9.297078E+01  5.266064E+02 -1.713493E+05  3.816416E+00 -3.321504E+04
       220   6  8.002704E+05 -1.450023E+02  6.054346E+02 -1.871520E+05 -2.532657E+02 -4.585840E+04
       220   7  5.314370E+05 -6.195553E+04 -4.024604E+04 -1.871049E+05 -2.477404E+04 -2.052180E+04
       220   8  3.698124E+05 -9.912221E+04 -6.445365E+04 -1.713612E+05 -2.493979E+04 -3.321500E+04
       220   9  2.082676E+05 -1.363110E+05 -8.854976E+04 -1.872240E+05 -2.510211E+04 -4.586175E+04
       220  10  1.069271E+06  6.186003E+04  4.149148E+04 -1.871987E+05  1.168779E-10  1.710745E-09
       220  11  1.230892E+06  9.892643E+04  6.550219E+04 -1.713368E+05  2.424673E-09  1.104789E-09
       220  12  1.392625E+06  1.360022E+05  8.975082E+04 -1.870789E+05  2.690285E-10  7.165797E-10
       220  13  8.003172E+05 -4.633010E+01  6.225042E+02 -1.871520E+05  2.757675E-09  1.702505E-09
       220  14  8.002588E+05 -9.415591E+01  5.245324E+02 -1.713493E+05 -1.576829E-09  1.448567E-09
       220  15  8.002698E+05 -1.472614E+02  6.014810E+02 -1.871520E+05 -1.988434E-09  8.303337E-10
       220  16  5.314362E+05 -6.195615E+04 -4.024799E+04 -1.871053E+05 -1.907672E-09  1.708543E-09
       220  17  3.698114E+05 -9.912356E+04 -6.445689E+04 -1.713619E+05 -9.514837E-10  1.584206E-09
       220  18  2.082663E+05 -1.363134E+05 -8.855490E+04 -1.872249E+05  2.740339E-10  8.379719E-10
       220  19  1.069271E+06  6.186065E+04  4.149347E+04 -1.871991E+05 -2.531304E+04  2.052866E+04
       220  20  1.230893E+06  9.892778E+04  6.550543E+04 -1.713375E+05 -2.496403E+04  3.321507E+04
       220  21  1.392626E+06  1.360046E+05  8.975591E+04 -1.870798E+05 -2.461833E+04  4.585504E+04
       220  22  8.003173E+05 -4.587753E+01  6.232963E+02 -1.871520E+05 -2.642909E+02  2.052523E+04
       220  23  8.002591E+05 -9.297078E+01  5.266064E+02 -1.713493E+05 -3.816416E+00  3.321504E+04
       220  24  8.002704E+05 -1.450023E+02  6.054346E+02 -1.871520E+05  2.532657E+02  4.585840E+04
       220  25  5.314370E+05 -6.195553E+04 -4.024604E+04 -1.871049E+05  2.477404E+04  2.052180E+04
       220  26  3.698124E+05 -9.912221E+04 -6.445365E+04 -1.713612E+05  2.493979E+04  3.321500E+04
       220  27  2.082676E+05 -1.363110E+05 -8.854976E+04 -1.872240E+05  2.510211E+04  4.586175E+04
       221   1  1.495117E+06  1.596555E+05  1.060048E+05 -1.870283E+05  2.452877E+04 -5.321953E+04
       221   2  1.656840E+06  1.967783E+05  1.309044E+05 -1.710853E+05  2.302508E+04 -6.560008E+04
       221   3  1.818942E+06  2.341327E+05  1.568651E+05 -1.867505E+05  2.152736E+04 -7.748859E+04
       221   4  8.002714E+05 -1.857737E+02  7.126193E+02 -1.871532E+05 -3.706610E+02 -5.322586E+04
       221   5  8.001313E+05 -2.803791E+02  1.088354E+03 -1.713478E+05 -9.060012E+02 -6.561291E+04
       221   6  8.001779E+05 -3.095399E+02  1.853653E+03 -1.871531E+05 -1.435019E+03 -7.750756E+04
       221   7  1.059098E+05 -1.600498E+05 -1.045872E+05 -1.872778E+05 -2.524337E+04 -5.323219E+04
       221   8 -5.584264E+04 -1.973737E+05 -1.287408E+05 -1.716098E+05 -2.480543E+04 -6.562572E+04
       221   9 -2.175480E+05 -2.348012E+05 -1.531779E+05 -1.875550E+05 -2.436128E+04 -7.752652E+04
       221  10  1.495116E+06  1.596523E+05  1.059983E+05 -1.870273E+05  5.010653E-11  1.073364E-09
       221  11  1.656839E+06  1.967735E+05  1.308953E+05 -1.710841E+05  5.893843E-10  1.902383E-10
       221  12  1.818940E+06  2.341262E+05  1.568530E+05 -1.867491E+05  2.476143E-09 -5.373594E-10
       221  13  8.002707E+05 -1.888171E+02  7.072933E+02 -1.871532E+05 -2.205446E-09  7.011765E-10
       221  14  8.001301E+05 -2.850039E+02  1.080259E+03 -1.713478E+05 -8.362255E-10  1.967587E-10
       221  15  8.001762E+05 -3.159938E+02  1.842355E+03 -1.871532E+05 -5.346845E-10 -8.121184E-10
       221  16  1.059083E+05 -1.600530E+05 -1.045938E+05 -1.872789E+05 -2.786023E-10  2.573483E-10
       221  17 -5.584446E+04 -1.973785E+05 -1.287500E+05 -1.716111E+05 -9.808829E-10 -2.102048E-10
       221  18 -2.175502E+05 -2.348078E+05 -1.531903E+05 -1.875565E+05 -2.285415E-09 -2.726505E-10
       221  19  1.495117E+06  1.596555E+05  1.060048E+05 -1.870283E+05 -2.452877E+04  5.321953E+04
       221  20  1.656840E+06  1.967783E+05  1.309044E+05 -1.710853E+05 -2.302508E+04  6.560008E+04
       221  21  1.818942E+06  2.341327E+05  1.568651E+05 -1.867505E+05 -2.152736E+04  7.748859E+04
       221  22  8.002714E+05 -1.857737E+02  7.126193E+02 -1.871532E+05  3.706610E+02  5.322586E+04
       221  23  8.001313E+05 -2.803791E+02  1.088354E+03 -1.713478E+05  9.060012E+02  6.561291E+04
       221  24  8.001779E+05 -3.095399E+02  1.853653E+03 -1.871531E+05  1.435019E+03  7.750756E+04
       221  25  1.059098E+05 -1.600498E+05 -1.045872E+05 -1.872778E+05  2.524337E+04  5.323219E+04
       221  26 -5.584264E+04 -1.973737E+05 -1.287408E+05 -1.716098E+05  2.480543E+04  6.562572E+04
       221  27 -2.175480E+05 -2.348012E+05 -1.531779E+05 -1.875550E+05  2.436128E+04  7.752652E+04
       222   1  1.921966E+06  2.579615E+05  1.741819E+05 -1.864302E+05  2.134220E+04 -8.446189E+04
       222   2  2.083079E+06  2.961202E+05  2.041705E+05 -1.711103E+05  1.023715E+04 -9.391530E+04
       222   3  2.246559E+06  3.370484E+05  2.421176E+05 -1.871308E+05 -8.679978E+02 -9.880823E+04
       222   4  8.002686E+05 -3.703254E+02  2.430779E+03 -1.870937E+05 -1.798871E+03 -8.448558E+04
       222   5  7.998074E+05 -8.730516E+01  4.231446E+03 -1.714219E+05 -3.900730E+03 -9.394230E+04
       222   6  8.001283E+05  1.408374E+03  7.753981E+03 -1.870946E+05 -5.999759E+03 -9.883368E+04
       222   7 -3.201726E+05 -2.587624E+05 -1.693458E+05 -1.877559E+05 -2.489986E+04 -8.450925E+04
       222   8 -4.818253E+05 -2.963752E+05 -1.957458E+05 -1.717330E+05 -1.801056E+04 -9.396931E+04
       222   9 -6.442333E+05 -3.343376E+05 -2.266675E+05 -1.870586E+05 -1.112001E+04 -9.885917E+04
       222  10  1.921964E+06  2.579537E+05  1.741677E+05 -1.864288E+05 -2.255040E-09 -8.312722E-10
       222  11  2.083077E+06  2.961107E+05  2.041537E+05 -1.711095E+05  2.963599E-09 -7.939457E-10
       222  12  2.246556E+06  3.370379E+05  2.420992E+05 -1.871309E+05  2.860730E-09 -2.318525E-09
       222  13  8.002666E+05 -3.779940E+02  2.417354E+03 -1.870938E+05 -1.068346E-09 -8.272947E-10
       222  14  7.998050E+05 -9.678959E+01  4.214826E+03 -1.714222E+05  6.641750E-13 -8.406465E-10
       222  15  8.001257E+05  1.397871E+03  7.735549E+03 -1.870951E+05 -2.205725E-09 -1.407457E-09
       222  16 -3.201752E+05 -2.587702E+05 -1.693604E+05 -1.877576E+05  2.444999E-09 -4.138432E-10
       222  17 -4.818280E+05 -2.963848E+05 -1.957630E+05 -1.717343E+05 -1.649300E-09  1.219621E-09
       222  18 -6.442360E+05 -3.343481E+05 -2.266861E+05 -1.870594E+05 -1.968350E-09 -1.933369E-10
       222  19  1.921966E+06  2.579615E+05  1.741819E+05 -1.864302E+05 -2.134220E+04  8.446189E+04
       222  20  2.083079E+06  2.961202E+05  2.041705E+05 -1.711103E+05 -1.023715E+04  9.391530E+04
       222  21  2.246559E+06  3.370484E+05  2.421176E+05 -1.871308E+05  8.679978E+02  9.880823E+04
       222  22  8.002686E+05 -3.703254E+02  2.430779E+03 -1.870937E+05  1.798871E+03  8.448558E+04
       222  23  7.998074E+05 -8.730516E+01  4.231446E+03 -1.714219E+05  3.900730E+03  9.394230E+04
       222  24  8.001283E+05  1.408374E+03  7.753981E+03 -1.870946E+05  5.999759E+03  9.883368E+04
       222  25 -3.201726E+05 -2.587624E+05 -1.693458E+05 -1.877559E+05  2.489986E+04  8.450925E+04
       222  26 -4.818253E+05 -2.963752E+05 -1.957458E+05 -1.717330E+05  1.801056E+04  9.396931E+04
       222  27 -6.442333E+05 -3.343376E+05 -2.266675E+05 -1.870586E+05  1.112001E+04  9.885917E+04
       223   1  2.353070E+06  3.626913E+05  2.666828E+05 -1.845583E+05 -6.837958E+02 -1.021262E+05
       223   2  2.505932E+06  4.135018E+05  3.366039E+05 -1.818088E+05 -9.291347E+04 -8.468103E+04
       223   3  2.679141E+06  4.964453E+05  4.745224E+05 -2.076040E+05 -1.852596E+05 -2.541848E+04
       223   4  8.012418E+05  1.619477E+03  1.029225E+04 -1.864660E+05 -7.332319E+03 -1.021558E+05
       223   5  7.981221E+05  9.079983E+03  1.882949E+04 -1.722142E+05 -1.695890E+04 -8.461062E+04
       223   6  8.010517E+05  3.440748E+04  3.815068E+04 -1.865026E+05 -2.667115E+04 -2.519872E+04
       223   7 -7.482128E+05 -3.595764E+05 -2.461698E+05 -1.883690E+05 -1.396482E+04 -1.021854E+05
       223   8 -9.068605E+05 -3.955057E+05 -2.990473E+05 -1.626471E+05  5.879276E+04 -8.453780E+04
       223   9 -1.073738E+06 -4.278633E+05 -3.983640E+05 -1.654660E+05  1.314426E+05 -2.496793E+04
       223  10  2.353067E+06  3.626801E+05  2.666632E+05 -1.845584E+05 -6.240381E-10 -3.108255E-09
       223  11  2.505921E+06  4.134917E+05  3.365742E+05 -1.818151E+05 -7.489559E-10 -3.789052E-09
       223  12  2.679104E+06  4.964354E+05  4.744569E+05 -2.076078E+05 -3.452770E-09 -1.048572E-09
       223  13  8.012389E+05  1.608252E+03  1.027253E+04 -1.864666E+05  2.250799E-10 -6.017163E-09
       223  14  7.981199E+05  9.072215E+03  1.881549E+04 -1.722154E+05  8.490485E-10  2.517884E-09
       223  15  8.010508E+05  3.440660E+04  3.814815E+04 -1.865032E+05 -1.096563E-09 -8.954612E-11
       223  16 -7.482158E+05 -3.595877E+05 -2.461898E+05 -1.883701E+05  9.488747E-10 -1.141753E-09
       223  17 -9.068662E+05 -3.955143E+05 -2.990672E+05 -1.626431E+05 -2.308237E-10  1.572442E-09
       223  18 -1.073757E+06 -4.278686E+05 -3.983977E+05 -1.654633E+05  2.465782E-09 -1.787355E-09
       223  19  2.353070E+06  3.626913E+05  2.666828E+05 -1.845583E+05  6.837958E+02  1.021262E+05
       223  20  2.505932E+06  4.135018E+05  3.366039E+05 -1.818088E+05  9.291347E+04  8.468103E+04
       223  21  2.679141E+06  4.964453E+05  4.745224E+05 -2.076040E+05  1.852596E+05  2.541848E+04
       223  22  8.012418E+05  1.619477E+03  1.029225E+04 -1.864660E+05  7.332319E+03  1.021558E+05
       223  23  7.981221E+05  9.079983E+03  1.882949E+04 -1.722142E+05  1.695890E+04  8.461062E+04
       223  24  8.010517E+05  3.440748E+04  3.815068E+04 -1.865026E+05  2.667115E+04  2.519872E+04
       223  25 -7.482128E+05 -3.595764E+05 -2.461698E+05 -1.883690E+05  1.396482E+04  1.021854E+05
       223  26 -9.068605E+05 -3.955057E+05 -2.990473E+05 -1.626471E+05 -5.879276E+04  8.453780E+04
       223  27 -1.073738E+06 -4.278633E+05 -3.983640E+05 -1.654660E+05 -1.314426E+05  2.496793E+04
       224   1  5.673615E+05  2.354396E+06  5.445719E+05 -6.880666E+05  2.198791E+04  1.534241E+05
       224   2  3.921628E+05  1.765069E+06  3.299955E+05 -6.246357E+05  6.609596E+04  4.533325E+04
       224   3  2.474310E+05  1.197554E+06  1.931979E+05 -6.701087E+05  5.923164E+04 -6.270628E+04
       224   4  2.640527E+04  1.647257E+05  2.656725E+04 -6.684081E+05  2.231440E+04  1.657423E+04
       224   5  9.015189E+03  1.629744E+05  1.475768E+04 -6.139762E+05  6.620167E+04  9.145679E+03
       224   6  4.715877E+03  1.653342E+05  1.101135E+04 -6.684575E+05  5.905899E+04  1.665831E+03
       224   7 -5.148833E+05 -2.020509E+06 -4.916996E+05 -6.488144E+05  2.263303E+04 -1.197970E+05
       224   8 -3.742865E+05 -1.436664E+06 -3.006002E+05 -6.033421E+05  6.630634E+04 -2.695072E+04
       224   9 -2.380554E+05 -8.658360E+05 -1.711988E+05 -6.668080E+05  5.888648E+04  6.593422E+04
       224  10  5.673547E+05  2.354370E+06  5.445269E+05 -6.880693E+05  1.122393E-09  4.258220E-09
       224  11  3.921575E+05  1.765066E+06  3.299834E+05 -6.246381E+05  1.993594E-09 -9.364323E-10
       224  12  2.474262E+05  1.197548E+06  1.931839E+05 -6.701057E+05 -4.002656E-10 -3.526259E-09
       224  13  2.640466E+04  1.647252E+05  2.656579E+04 -6.684084E+05  8.633821E-10 -5.031388E-11
       224  14  9.010459E+03  1.629731E+05  1.474929E+04 -6.139766E+05 -2.916543E-10 -7.843074E-10
       224  15  4.712131E+03  1.653333E+05  1.100479E+04 -6.684576E+05 -4.444492E-10  1.031218E-10
       224  16 -5.148877E+05 -2.020525E+06 -4.917276E+05 -6.488122E+05 -2.161366E-10 -2.379915E-09
       224  17 -3.742915E+05 -1.436666E+06 -3.006098E+05 -6.033406E+05  2.397250E-09  3.290854E-09
       224  18 -2.380603E+05 -8.658416E+05 -1.712135E+05 -6.668111E+05 -1.773834E-09  4.390091E-09
       224  19  5.673615E+05  2.354396E+06  5.445719E+05 -6.880666E+05 -2.198791E+04 -1.534241E+05
       224  20  3.921628E+05  1.765069E+06  3.299955E+05 -6.246357E+05 -6.609596E+04 -4.533325E+04
       224  21  2.474310E+05  1.197554E+06  1.931979E+05 -6.701087E+05 -5.923164E+04  6.270628E+04
       224  22  2.640527E+04  1.647257E+05  2.656725E+04 -6.684081E+05 -2.231440E+04 -1.657423E+04
       224  23  9.015189E+03  1.629744E+05  1.475768E+04 -6.139762E+05 -6.620167E+04 -9.145679E+03
       224  24  4.715877E+03  1.653342E+05  1.101135E+04 -6.684575E+05 -5.905899E+04 -1.665831E+03
       224  25 -5.148833E+05 -2.020509E+06 -4.916996E+05 -6.488144E+05 -2.263303E+04  1.197970E+05
       224  26 -3.742865E+05 -1.436664E+06 -3.006002E+05 -6.033421E+05 -6.630634E+04  2.695072E+04
       224  27 -2.380554E+05 -8.658360E+05 -1.711988E+05 -6.668080E+05 -5.888648E+04 -6.593422E+04
       225   1  1.605387E+05  8.277042E+05  1.274266E+05 -6.716595E+05  3.832779E+04 -6.280973E+04
       225   2  2.400821E+04  2.491934E+05  2.599346E+04 -6.126085E+05  6.319732E+03 -6.993600E+04
       225   3 -1.082710E+05 -3.274286E+05 -6.988230E+04 -6.656907E+05 -2.609046E+04 -7.705862E+04
       225   4  4.687013E+03  1.648532E+05  1.067858E+04 -6.691699E+05  3.814977E+04 -1.272758E+02
       225   5  4.326464E+03  1.641579E+05  1.257317E+04 -6.130997E+05  6.138162E+03 -6.487922E+03
       225   6  8.097399E+03  1.648856E+05  1.948532E+04 -6.691612E+05 -2.627603E+04 -1.285108E+04
       225   7 -1.511866E+05 -4.975601E+05 -1.060707E+05 -6.666826E+05  3.797211E+04  6.249030E+04
       225   8 -1.535348E+04  7.913818E+04 -8.321755E+02 -6.135908E+05  5.956473E+03  5.695179E+04
       225   9  1.244544E+05  6.574445E+05  1.088588E+05 -6.726342E+05 -2.646222E+04  5.140599E+04
       225  10  1.605361E+05  8.276995E+05  1.274164E+05 -6.716576E+05  3.253585E-10  5.196111E-09
       225  11  2.400685E+04  2.491882E+05  2.598420E+04 -6.126082E+05  1.042597E-09 -3.604080E-10
       225  12 -1.082733E+05 -3.274351E+05 -6.989475E+04 -6.656923E+05 -9.545015E-10 -1.405505E-09
       225  13  4.685450E+03  1.648528E+05  1.067584E+04 -6.691699E+05 -7.752223E-10  3.476923E-11
       225  14  4.326412E+03  1.641578E+05  1.257302E+04 -6.130997E+05  1.011343E-09 -1.045044E-09
       225  15  8.096613E+03  1.648852E+05  1.948372E+04 -6.691614E+05  4.333845E-10  3.426675E-10
       225  16 -1.511892E+05 -4.975647E+05 -1.060808E+05 -6.666845E+05 -1.527342E-09 -2.194865E-09
       225  17 -1.535439E+04  7.913468E+04 -8.383382E+02 -6.135911E+05 -1.589231E-09  2.309831E-09
       225  18  1.244529E+05  6.574415E+05  1.088525E+05 -6.726331E+05  1.825283E-10  2.413666E-09
       225  19  1.605387E+05  8.277042E+05  1.274266E+05 -6.716595E+05 -3.832779E+04  6.280973E+04
       225  20  2.400821E+04  2.491934E+05  2.599346E+04 -6.126085E+05 -6.319732E+03  6.993600E+04
       225  21 -1.082710E+05 -3.274286E+05 -6.988230E+04 -6.656907E+05  2.609046E+04  7.705862E+04
       225  22  4.687013E+03  1.648532E+05  1.067858E+04 -6.691699E+05 -3.814977E+04  1.272758E+02
       225  23  4.326464E+03  1.641579E+05  1.257317E+04 -6.130997E+05 -6.138162E+03  6.487922E+03
       225  24  8.097399E+03  1.648856E+05  1.948532E+04 -6.691612E+05  2.627603E+04  1.285108E+04
       225  25 -1.511866E+05 -4.975601E+05 -1.060707E+05 -6.666826E+05 -3.797211E+04 -6.249030E+04
       225  26 -1.535348E+04  7.913818E+04 -8.321755E+02 -6.135908E+05 -5.956473E+03 -5.695179E+04
       225  27  1.244544E+05  6.574445E+05  1.088588E+05 -6.726342E+05  2.646222E+04 -5.140599E+04
       226   1 -1.944846E+05 -6.935443E+05 -1.294205E+05 -6.683679E+05 -4.732119E+04 -8.194612E+04
       226   2 -3.178949E+05 -1.269468E+06 -2.402114E+05 -5.855480E+05 -5.729774E+04 -1.149813E+04
       226   3 -4.158594E+05 -1.848062E+06 -3.906249E+05 -6.119460E+05 -1.994172E+04  5.893634E+04
       226   4  8.630133E+03  1.673968E+05  2.494083E+04 -6.685175E+05 -4.750359E+04 -1.624533E+04
       226   5  2.532234E+04  1.605527E+05  4.410468E+04 -6.138433E+05 -5.721578E+04 -3.882263E+04
       226   6  8.359312E+04  1.668479E+05  8.826826E+04 -6.683454E+05 -1.965193E+04 -6.134737E+04
       226   7  2.117060E+05  1.029070E+06  1.792900E+05 -6.686664E+05 -4.768584E+04  4.954408E+04
       226   8  3.684178E+05  1.592534E+06  3.283221E+05 -6.422031E+05 -5.713145E+04 -6.620880E+04
       226   9  5.827721E+05  2.185529E+06  5.669338E+05 -7.249252E+05 -1.934088E+04 -1.820201E+05
       226  10 -1.944889E+05 -6.935521E+05 -1.294374E+05 -6.683711E+05  6.795891E-10  4.627723E-09
       226  11 -3.178985E+05 -1.269469E+06 -2.402178E+05 -5.855486E+05  2.297506E-09  1.425497E-11
       226  12 -4.158608E+05 -1.848066E+06 -3.906322E+05 -6.119450E+05  8.527401E-10 -6.991296E-10
       226  13  8.627638E+03  1.673959E+05  2.493609E+04 -6.685181E+05  1.768986E-09  9.683308E-11
       226  14  2.531842E+04  1.605502E+05  4.409568E+04 -6.138451E+05 -8.204540E-10 -7.834074E-10
       226  15  8.359170E+04  1.668438E+05  8.826045E+04 -6.683464E+05  8.960202E-10  1.477491E-10
       226  16  2.117029E+05  1.029067E+06  1.792811E+05 -6.686645E+05 -7.210085E-10 -1.554729E-09
       226  17  3.684131E+05  1.592528E+06  3.283077E+05 -6.422061E+05 -1.324575E-09  2.230662E-09
       226  18  5.827628E+05  2.185494E+06  5.668710E+05 -7.249281E+05 -7.464054E-10  1.621091E-09
       226  19 -1.944846E+05 -6.935443E+05 -1.294205E+05 -6.683679E+05  4.732119E+04  8.194612E+04
       226  20 -3.178949E+05 -1.269468E+06 -2.402114E+05 -5.855480E+05  5.729774E+04  1.149813E+04
       226  21 -4.158594E+05 -1.848062E+06 -3.906249E+05 -6.119460E+05  1.994172E+04 -5.893634E+04
       226  22  8.630133E+03  1.673968E+05  2.494083E+04 -6.685175E+05  4.750359E+04  1.624533E+04
       226  23  2.532234E+04  1.605527E+05  4.410468E+04 -6.138433E+05  5.721578E+04  3.882263E+04
       226  24  8.359312E+04  1.668479E+05  8.826826E+04 -6.683454E+05  1.965193E+04  6.134737E+04
       226  25  2.117060E+05  1.029070E+06  1.792900E+05 -6.686664E+05  4.768584E+04 -4.954408E+04
       226  26  3.684178E+05  1.592534E+06  3.283221E+05 -6.422031E+05  5.713145E+04  6.620880E+04
       226  27  5.827721E+05  2.185529E+06  5.669338E+05 -7.249252E+05  1.934088E+04  1.820201E+05
       227   1 -1.158168E+06 -5.684221E+05 -3.221785E+05 -4.797426E+05 -1.471581E+05 -4.224311E+04
       227   2 -1.083362E+06 -4.293110E+05 -2.006930E+05 -4.484745E+05 -9.183374E+04  8.769924E+03
       227   3 -1.028064E+06 -3.618425E+05 -1.440530E+05 -4.171925E+05 -2.895710E+04  3.975885E+04
       227   4 -4.012214E+05 -2.226462E+05 -1.165112E+05 -2.088788E+05 -8.008421E+04 -1.703737E+04
       227   5 -3.888133E+05 -1.459699E+05 -5.478790E+04 -2.256041E+05 -6.157845E+04  2.013449E+04
       227   6 -3.885825E+05 -1.335977E+05 -2.866835E+04 -2.423281E+05 -3.553495E+04  3.728183E+04
       227   7  3.562932E+05  1.232492E+05  8.912075E+04  6.231024E+04 -1.292210E+04  8.218430E+03
       227   8  3.062350E+05  1.374456E+05  9.109442E+04 -2.491607E+03 -3.128695E+04  3.151627E+04
       227   9  2.513340E+05  9.468446E+04  8.670349E+04 -6.729561E+04 -4.212008E+04  3.480217E+04
       227  10 -1.158192E+06 -5.684299E+05 -3.222226E+05 -4.797476E+05 -9.269723E-10 -6.783856E-10
       227  11 -1.083371E+06 -4.293134E+05 -2.007090E+05 -4.484738E+05 -2.248540E-09 -3.791732E-10
       227  12 -1.028065E+06 -3.618445E+05 -1.440576E+05 -4.171916E+05 -4.447771E-09  1.229962E-09
       227  13 -4.012284E+05 -2.226482E+05 -1.165238E+05 -2.088799E+05  2.095052E-10  1.082610E-09
       227  14 -3.888175E+05 -1.459713E+05 -5.479579E+04 -2.256031E+05 -4.428551E-11  8.869856E-10
       227  15 -3.885843E+05 -1.335995E+05 -2.867334E+04 -2.423270E+05  2.106374E-09  5.373269E-10
       227  16  3.562930E+05  1.232490E+05  8.912031E+04  6.231032E+04  1.079179E-09 -1.457304E-10
       227  17  3.062337E+05  1.374442E+05  9.109071E+04 -2.490813E+03  2.066284E-09  2.876244E-11
       227  18  2.513317E+05  9.468268E+04  8.669788E+04 -6.729443E+04  1.412071E-09  1.481226E-09
       227  19 -1.158168E+06 -5.684221E+05 -3.221785E+05 -4.797426E+05  1.471581E+05  4.224311E+04
       227  20 -1.083362E+06 -4.293110E+05 -2.006930E+05 -4.484745E+05  9.183374E+04 -8.769924E+03
       227  21 -1.028064E+06 -3.618425E+05 -1.440530E+05 -4.171925E+05  2.895710E+04 -3.975885E+04
       227  22 -4.012214E+05 -2.226462E+05 -1.165112E+05 -2.088788E+05  8.008421E+04  1.703737E+04
       227  23 -3.888133E+05 -1.459699E+05 -5.478790E+04 -2.256041E+05  6.157845E+04 -2.013449E+04
       227  24 -3.885825E+05 -1.335977E+05 -2.866835E+04 -2.423281E+05  3.553495E+04 -3.728183E+04
       227  25  3.562932E+05  1.232492E+05  8.912075E+04  6.231024E+04  1.292210E+04 -8.218430E+03
       227  26  3.062350E+05  1.374456E+05  9.109442E+04 -2.491607E+03  3.128695E+04 -3.151627E+04
       227  27  2.513340E+05  9.468446E+04  8.670349E+04 -6.729561E+04  4.212008E+04 -3.480217E+04
       228   1 -9.668034E+05 -3.463141E+05 -1.255622E+05 -4.061772E+05 -2.661551E+04  3.772614E+04
       228   2 -8.906090E+05 -3.046613E+05 -9.747519E+04 -3.763870E+05 -1.609116E+04  3.765611E+04
       228   3 -8.046818E+05 -2.793179E+05 -7.727086E+04 -3.600950E+05 -4.846953E+03  3.566855E+04
       228   4 -3.850617E+05 -1.334960E+05 -2.147411E+04 -2.412905E+05 -3.134871E+04  3.594320E+04
       228   5 -3.899117E+05 -1.232133E+05 -1.126141E+04 -2.354648E+05 -2.434765E+04  3.455127E+04
       228   6 -3.843344E+05 -1.285394E+05 -6.132755E+03 -2.431396E+05 -1.662825E+04  3.124216E+04
       228   7  1.970314E+05  7.935440E+04  8.260109E+04 -7.626051E+04 -3.608659E+04  3.415846E+04
       228   8  1.110521E+05  5.826010E+04  7.494549E+04 -9.443586E+04 -3.261122E+04  3.144373E+04
       228   9  3.620600E+04  2.225807E+04  6.500250E+04 -1.261088E+05 -2.841816E+04  2.681256E+04
       228  10 -9.668045E+05 -3.463159E+05 -1.255662E+05 -4.061764E+05 -4.304925E-10  1.258383E-09
       228  11 -8.906096E+05 -3.046629E+05 -9.747834E+04 -3.763865E+05 -5.169280E-10  3.579167E-10
       228  12 -8.046822E+05 -2.793193E+05 -7.727330E+04 -3.600949E+05 -2.181347E-11 -6.183089E-10
       228  13 -3.850631E+05 -1.334976E+05 -2.147838E+04 -2.412896E+05  3.259838E-10  2.587170E-09
       228  14 -3.899127E+05 -1.232147E+05 -1.126477E+04 -2.354641E+05 -1.501278E-09 -5.369508E-10
       228  15 -3.843349E+05 -1.285406E+05 -6.135108E+03 -2.431392E+05  1.427673E-09 -8.707744E-11
       228  16  1.970297E+05  7.935279E+04  8.259645E+04 -7.625951E+04 -5.895525E-10  1.353039E-10
       228  17  1.110507E+05  5.825876E+04  7.494164E+04 -9.443503E+04  6.443375E-10  1.069188E-09
       228  18  3.620494E+04  2.225708E+04  6.499963E+04 -1.261082E+05  7.969869E-10 -8.046535E-11
       228  19 -9.668034E+05 -3.463141E+05 -1.255622E+05 -4.061772E+05  2.661551E+04 -3.772614E+04
       228  20 -8.906090E+05 -3.046613E+05 -9.747519E+04 -3.763870E+05  1.609116E+04 -3.765611E+04
       228  21 -8.046818E+05 -2.793179E+05 -7.727086E+04 -3.600950E+05  4.846953E+03 -3.566855E+04
       228  22 -3.850617E+05 -1.334960E+05 -2.147411E+04 -2.412905E+05  3.134871E+04 -3.594320E+04
       228  23 -3.899117E+05 -1.232133E+05 -1.126141E+04 -2.354648E+05  2.434765E+04 -3.455127E+04
       228  24 -3.843344E+05 -1.285394E+05 -6.132755E+03 -2.431396E+05  1.662825E+04 -3.124216E+04
       228  25  1.970314E+05  7.935440E+04  8.260109E+04 -7.626051E+04  3.608659E+04 -3.415846E+04
       228  26  1.110521E+05  5.826010E+04  7.494549E+04 -9.443586E+04  3.261122E+04 -3.144373E+04
       228  27  3.620600E+04  2.225807E+04  6.500250E+04 -1.261088E+05  2.841816E+04 -2.681256E+04
       229   1 -7.515534E+05 -2.606532E+05 -6.638260E+04 -3.456919E+05 -2.761841E+03  3.214858E+04
       229   2 -6.757679E+05 -2.247659E+05 -5.042806E+04 -3.157331E+05  1.243691E+03  2.635166E+04
       229   3 -5.878230E+05 -2.015831E+05 -3.572667E+04 -3.000057E+05  5.317230E+03  2.036980E+04
       229   4 -3.840225E+05 -1.285605E+05 -4.603750E+03 -2.430421E+05 -1.437062E+04  2.778813E+04
       229   5 -3.901092E+05 -1.221397E+05 -2.529360E+03 -2.359600E+05 -1.070509E+04  2.186501E+04
       229   6 -3.839766E+05 -1.283560E+05 -1.438659E+03 -2.431113E+05 -6.971805E+03  1.575695E+04
       229   7 -1.634755E+04  3.545606E+03  5.717216E+04 -1.403353E+05 -2.598670E+04  2.342494E+04
       229   8 -1.043649E+05 -1.950593E+04  4.536742E+04 -1.561528E+05 -2.265965E+04  1.737620E+04
       229   9 -1.800878E+05 -5.512559E+04  3.284830E+04 -1.861999E+05 -1.926500E+04  1.114253E+04
       229  10 -7.515537E+05 -2.606543E+05 -6.638455E+04 -3.456918E+05 -3.020464E-09 -1.282770E-09
       229  11 -6.757681E+05 -2.247666E+05 -5.042936E+04 -3.157332E+05  1.891363E-09  3.197179E-10
       229  12 -5.878232E+05 -2.015835E+05 -3.572750E+04 -3.000058E+05  3.457187E-09 -2.050905E-10
       229  13 -3.840230E+05 -1.285614E+05 -4.605588E+03 -2.430418E+05  2.475486E-10  3.342973E-10
       229  14 -3.901095E+05 -1.221403E+05 -2.530474E+03 -2.359598E+05 -2.457474E-09  4.748682E-10
       229  15 -3.839767E+05 -1.283563E+05 -1.439217E+03 -2.431112E+05 -6.581753E-09 -1.927253E-09
       229  16 -1.634843E+04  3.544836E+03  5.716986E+04 -1.403348E+05  3.448357E-09  1.915248E-09
       229  17 -1.043656E+05 -1.950639E+04  4.536589E+04 -1.561525E+05 -1.065677E-09  4.936860E-10
       229  18 -1.800882E+05 -5.512582E+04  3.284737E+04 -1.861997E+05 -1.051522E-08 -4.120600E-09
       229  19 -7.515534E+05 -2.606532E+05 -6.638260E+04 -3.456919E+05  2.761841E+03 -3.214858E+04
       229  20 -6.757679E+05 -2.247659E+05 -5.042806E+04 -3.157331E+05 -1.243691E+03 -2.635166E+04
       229  21 -5.878230E+05 -2.015831E+05 -3.572667E+04 -3.000057E+05 -5.317230E+03 -2.036980E+04
       229  22 -3.840225E+05 -1.285605E+05 -4.603750E+03 -2.430421E+05  1.437062E+04 -2.778813E+04
       229  23 -3.901092E+05 -1.221397E+05 -2.529360E+03 -2.359600E+05  1.070509E+04 -2.186501E+04
       229  24 -3.839766E+05 -1.283560E+05 -1.438659E+03 -2.431113E+05  6.971805E+03 -1.575695E+04
       229  25 -1.634755E+04  3.545606E+03  5.717216E+04 -1.403353E+05  2.598670E+04 -2.342494E+04
       229  26 -1.043649E+05 -1.950593E+04  4.536742E+04 -1.561528E+05  2.265965E+04 -1.737620E+04
       229  27 -1.800878E+05 -5.512559E+04  3.284830E+04 -1.861999E+05  1.926500E+04 -1.114253E+04
       230   1 -5.352840E+05 -1.826794E+05 -2.622583E+04 -2.853785E+05  6.973815E+03  1.655404E+04
       230   2 -4.595764E+05 -1.470610E+05 -1.233673E+04 -2.553578E+05  9.874950E+03  1.002823E+04
       230   3 -3.714614E+05 -1.239118E+05  1.256539E+03 -2.395931E+05  1.278176E+04  3.486281E+03
       230   4 -3.839389E+05 -1.283609E+05 -1.119576E+03 -2.430996E+05 -5.300656E+03  1.194719E+04
       230   5 -3.901386E+05 -1.221288E+05 -7.338502E+02 -2.359688E+05 -2.430005E+03  5.410278E+03
       230   6 -3.839342E+05 -1.283614E+05 -6.209702E+02 -2.430973E+05  4.462634E+02 -1.142779E+03
       230   7 -2.325672E+05 -7.403928E+04  2.398724E+04 -2.008105E+05 -1.757844E+04  7.339114E+03
       230   8 -3.206949E+05 -9.719577E+04  1.086967E+04 -2.165776E+05 -1.473649E+04  7.917569E+02
       230   9 -3.964064E+05 -1.328109E+05 -2.497830E+03 -2.466014E+05 -1.188898E+04 -5.771742E+03
       230  10 -5.352841E+05 -1.826797E+05 -2.622643E+04 -2.853786E+05 -8.915058E-09 -3.622034E-09
       230  11 -4.595766E+05 -1.470611E+05 -1.233710E+04 -2.553579E+05 -3.216108E-09  2.893594E-10
       230  12 -3.714616E+05 -1.239119E+05  1.256209E+03 -2.395931E+05  7.534138E-10  5.642452E-10
       230  13 -3.839389E+05 -1.283610E+05 -1.119897E+03 -2.430996E+05 -4.662816E-09 -2.460372E-09
       230  14 -3.901386E+05 -1.221288E+05 -7.339163E+02 -2.359688E+05  3.528665E-10  3.768101E-11
       230  15 -3.839342E+05 -1.283614E+05 -6.209731E+02 -2.430973E+05  2.809490E-09  5.439119E-10
       230  16 -2.325676E+05 -7.403942E+04  2.398655E+04 -2.008104E+05 -4.119730E-10 -1.200692E-09
       230  17 -3.206951E+05 -9.719583E+04  1.086926E+04 -2.165776E+05  3.984581E-09 -2.768367E-10
       230  18 -3.964066E+05 -1.328109E+05 -2.498158E+03 -2.466015E+05  5.655686E-10 -3.100444E-10
       230  19 -5.352840E+05 -1.826794E+05 -2.622583E+04 -2.853785E+05 -6.973815E+03 -1.655404E+04
       230  20 -4.595764E+05 -1.470610E+05 -1.233673E+04 -2.553578E+05 -9.874950E+03 -1.002823E+04
       230  21 -3.714614E+05 -1.239118E+05  1.256539E+03 -2.395931E+05 -1.278176E+04 -3.486281E+03
       230  22 -3.839389E+05 -1.283609E+05 -1.119576E+03 -2.430996E+05  5.300656E+03 -1.194719E+04
       230  23 -3.901386E+05 -1.221288E+05 -7.338502E+02 -2.359688E+05  2.430005E+03 -5.410278E+03
       230  24 -3.839342E+05 -1.283614E+05 -6.209702E+02 -2.430973E+05 -4.462634E+02  1.142779E+03
       230  25 -2.325672E+05 -7.403928E+04  2.398724E+04 -2.008105E+05  1.757844E+04 -7.339114E+03
       230  26 -3.206949E+05 -9.719577E+04  1.086967E+04 -2.165776E+05  1.473649E+04 -7.917569E+02
       230  27 -3.964064E+05 -1.328109E+05 -2.497830E+03 -2.466014E+05  1.188898E+04  5.771742E+03
       231   1 -3.189744E+05 -1.049883E+05  1.039580E+04 -2.249527E+05  1.435172E+04 -3.734113E+02
       231   2 -2.432582E+05 -6.937704E+04  2.364076E+04 -1.949320E+05  1.726846E+04 -6.909191E+03
       231   3 -1.551360E+05 -4.622628E+04  3.658379E+04 -1.791685E+05  2.017898E+04 -1.342636E+04
       231   4 -3.839380E+05 -1.283619E+05 -6.476157E+02 -2.430981E+05  2.015837E+03 -5.002722E+03
       231   5 -3.901382E+05 -1.221280E+05 -8.820009E+02 -2.359699E+05  4.965635E+03 -1.152684E+04
       231   6 -3.839457E+05 -1.283618E+05 -1.444781E+03 -2.431015E+05  7.909190E+03 -1.803240E+04
       231   7 -4.488961E+05 -1.517347E+05 -1.169030E+04 -2.612415E+05 -1.031855E+04 -9.631469E+03
       231   8 -5.369949E+05 -1.748766E+05 -2.540465E+04 -2.769985E+05 -7.334095E+03 -1.614333E+04
       231   9 -6.127017E+05 -2.104929E+05 -3.947466E+04 -3.070131E+05 -4.355932E+03 -2.263669E+04
       231  10 -3.189746E+05 -1.049884E+05  1.039542E+04 -2.249527E+05  4.668645E-10 -2.797534E-10
       231  11 -2.432586E+05 -6.937717E+04  2.364011E+04 -1.949319E+05  2.406005E-09  3.589414E-10
       231  12 -1.551365E+05 -4.622658E+04  3.658268E+04 -1.791682E+05  3.191364E-09 -7.409137E-10
       231  13 -3.839380E+05 -1.283619E+05 -6.476704E+02 -2.430981E+05  7.521406E-10  2.093372E-10
       231  14 -3.901383E+05 -1.221281E+05 -8.822969E+02 -2.359698E+05  6.480437E-10 -3.001914E-10
       231  15 -3.839459E+05 -1.283622E+05 -1.445510E+03 -2.431014E+05 -2.138648E-10 -1.168034E-09
       231  16 -4.488962E+05 -1.517348E+05 -1.169068E+04 -2.612415E+05  4.436006E-10  2.676791E-10
       231  17 -5.369950E+05 -1.748769E+05 -2.540524E+04 -2.769986E+05 -1.938494E-09  5.925343E-10
       231  18 -6.127019E+05 -2.104935E+05 -3.947566E+04 -3.070132E+05 -2.096295E-09 -1.879213E-09
       231  19 -3.189744E+05 -1.049883E+05  1.039580E+04 -2.249527E+05 -1.435172E+04  3.734113E+02
       231  20 -2.432582E+05 -6.937704E+04  2.364076E+04 -1.949320E+05 -1.726846E+04  6.909191E+03
       231  21 -1.551360E+05 -4.622628E+04  3.658379E+04 -1.791685E+05 -2.017898E+04  1.342636E+04
       231  22 -3.839380E+05 -1.283619E+05 -6.476157E+02 -2.430981E+05 -2.015837E+03  5.002722E+03
       231  23 -3.901382E+05 -1.221280E+05 -8.820009E+02 -2.359699E+05 -4.965635E+03  1.152684E+04
       231  24 -3.839457E+05 -1.283618E+05 -1.444781E+03 -2.431015E+05 -7.909190E+03  1.803240E+04
       231  25 -4.488961E+05 -1.517347E+05 -1.169030E+04 -2.612415E+05  1.031855E+04  9.631469E+03
       231  26 -5.369949E+05 -1.748766E+05 -2.540465E+04 -2.769985E+05  7.334095E+03  1.614333E+04
       231  27 -6.127017E+05 -2.104929E+05 -3.947466E+04 -3.070131E+05  4.355932E+03  2.263669E+04
       232   1 -1.026709E+05 -2.732256E+04  4.532145E+04 -1.645734E+05  2.192989E+04 -1.720314E+04
       232   2 -2.693483E+04  8.293673E+03  5.746221E+04 -1.345208E+05  2.570613E+04 -2.327838E+04
       232   3  6.101949E+04  3.127888E+04  6.858552E+04 -1.186965E+05  2.940837E+04 -2.915114E+04
       232   4 -3.840000E+05 -1.283570E+05 -1.887216E+03 -2.431195E+05  9.643669E+03 -2.181615E+04
       232   5 -3.900995E+05 -1.221388E+05 -3.366595E+03 -2.359581E+05  1.379060E+04 -2.775408E+04
       232   6 -3.840609E+05 -1.286265E+05 -6.157857E+03 -2.430284E+05  1.786330E+04 -3.348953E+04
       232   7 -6.652443E+05 -2.293834E+05 -4.909722E+04 -3.216321E+05 -2.636637E+03 -2.642694E+04
       232   8 -7.531211E+05 -2.525573E+05 -6.419755E+04 -3.373392E+05  1.882535E+03 -3.222699E+04
       232   9 -8.289250E+05 -2.885103E+05 -8.090436E+04 -3.672756E+05  6.327156E+03 -3.782459E+04
       232  10 -1.026715E+05 -2.732301E+04  4.531999E+04 -1.645731E+05  1.431805E-09 -1.118690E-09
       232  11 -2.693569E+04  8.292914E+03  5.745995E+04 -1.345203E+05  1.770853E-09 -9.791126E-10
       232  12  6.101833E+04  3.127773E+04  6.858229E+04 -1.186958E+05 -8.999223E-10  2.273792E-09
       232  13 -3.840002E+05 -1.283575E+05 -1.888285E+03 -2.431193E+05 -6.951544E-10 -1.453825E-09
       232  14 -3.900999E+05 -1.221397E+05 -3.368400E+03 -2.359578E+05 -1.014055E-09 -8.459546E-10
       232  15 -3.840616E+05 -1.286278E+05 -6.160564E+03 -2.430280E+05 -3.012854E-09  3.093495E-10
       232  16 -6.652444E+05 -2.293842E+05 -4.909855E+04 -3.216322E+05 -1.000094E-09 -1.947344E-09
       232  17 -7.531214E+05 -2.525584E+05 -6.419951E+04 -3.373391E+05 -1.003065E-09 -2.198708E-09
       232  18 -8.289255E+05 -2.885118E+05 -8.090713E+04 -3.672754E+05 -9.569908E-10 -8.612926E-10
       232  19 -1.026709E+05 -2.732256E+04  4.532145E+04 -1.645734E+05 -2.192989E+04  1.720314E+04
       232  20 -2.693483E+04  8.293673E+03  5.746221E+04 -1.345208E+05 -2.570613E+04  2.327838E+04
       232  21  6.101949E+04  3.127888E+04  6.858552E+04 -1.186965E+05 -2.940837E+04  2.915114E+04
       232  22 -3.840000E+05 -1.283570E+05 -1.887216E+03 -2.431195E+05 -9.643669E+03  2.181615E+04
       232  23 -3.900995E+05 -1.221388E+05 -3.366595E+03 -2.359581E+05 -1.379060E+04  2.775408E+04
       232  24 -3.840609E+05 -1.286265E+05 -6.157857E+03 -2.430284E+05 -1.786330E+04  3.348953E+04
       232  25 -6.652443E+05 -2.293834E+05 -4.909722E+04 -3.216321E+05  2.636637E+03  2.642694E+04
       232  26 -7.531211E+05 -2.525573E+05 -6.419755E+04 -3.373392E+05 -1.882535E+03  3.222699E+04
       232  27 -8.289250E+05 -2.885103E+05 -8.090436E+04 -3.672756E+05 -6.327156E+03  3.782459E+04
       233   1  1.135663E+05  4.989487E+04  7.590790E+04 -1.046247E+05  3.213605E+04 -3.241186E+04
       233   2  1.881888E+05  8.599487E+04  8.424954E+04 -7.234341E+04  3.788300E+04 -3.632154E+04
       233   3  2.733395E+05  1.061580E+05  8.883808E+04 -5.333293E+04  4.284517E+04 -3.813543E+04
       233   4 -3.844685E+05 -1.286001E+05 -8.208845E+03 -2.431632E+05  2.040128E+04 -3.682287E+04
       233   5 -3.898319E+05 -1.235609E+05 -1.508436E+04 -2.352887E+05  3.000278E+04 -3.928721E+04
       233   6 -3.854411E+05 -1.352279E+05 -2.877225E+04 -2.406899E+05  3.881859E+04 -3.965484E+04
       233   7 -8.822448E+05 -3.070729E+05 -9.233308E+04 -3.815993E+05  8.676376E+03 -4.123022E+04
       233   8 -9.675009E+05 -3.330839E+05 -1.144284E+05 -3.980926E+05  2.213032E+04 -4.224993E+04
       233   9 -1.043764E+06 -3.765691E+05 -1.463970E+05 -4.278602E+05  3.479656E+04 -4.117250E+04
       233  10  1.135649E+05  4.989346E+04  7.590398E+04 -1.046239E+05  5.346666E-08  2.405923E-08
       233  11  1.881869E+05  8.599307E+04  8.424436E+04 -7.234230E+04  1.083588E-08  5.540047E-09
       233  12  2.733371E+05  1.061559E+05  8.883190E+04 -5.333161E+04 -4.689889E-08 -1.755376E-08
       233  13 -3.844693E+05 -1.286017E+05 -8.212174E+03 -2.431626E+05  3.821861E-09  3.049874E-09
       233  14 -3.898333E+05 -1.235628E+05 -1.508895E+04 -2.352877E+05  1.020943E-08  6.521435E-09
       233  15 -3.854431E+05 -1.352300E+05 -2.877804E+04 -2.406886E+05  3.894168E-09  1.971074E-09
       233  16 -8.822453E+05 -3.070748E+05 -9.233641E+04 -3.815990E+05 -4.794682E-08 -1.713218E-08
       233  17 -9.675019E+05 -3.330860E+05 -1.144327E+05 -3.980918E+05  1.020624E-08  6.190779E-09
       233  18 -1.043765E+06 -3.765712E+05 -1.464024E+05 -4.278591E+05  5.413038E-08  2.285898E-08
       233  19  1.135663E+05  4.989487E+04  7.590790E+04 -1.046247E+05 -3.213605E+04  3.241186E+04
       233  20  1.881888E+05  8.599487E+04  8.424954E+04 -7.234341E+04 -3.788300E+04  3.632154E+04
       233  21  2.733395E+05  1.061580E+05  8.883808E+04 -5.333293E+04 -4.284517E+04  3.813543E+04
       233  22 -3.844685E+05 -1.286001E+05 -8.208845E+03 -2.431632E+05 -2.040128E+04  3.682287E+04
       233  23 -3.898319E+05 -1.235609E+05 -1.508436E+04 -2.352887E+05 -3.000278E+04  3.928721E+04
       233  24 -3.854411E+05 -1.352279E+05 -2.877225E+04 -2.406899E+05 -3.881859E+04  3.965484E+04
       233  25 -8.822448E+05 -3.070729E+05 -9.233308E+04 -3.815993E+05 -8.676376E+03  4.123022E+04
       233  26 -9.675009E+05 -3.330839E+05 -1.144284E+05 -3.980926E+05 -2.213032E+04  4.224993E+04
       233  27 -1.043764E+06 -3.765691E+05 -1.463970E+05 -4.278602E+05 -3.479656E+04  4.117250E+04
       234   1  3.280268E+05  1.200214E+05  9.068868E+04 -4.641815E+04  5.010337E+04 -3.817306E+04
       234   2  3.764324E+05  1.648912E+05  8.779120E+04  3.085261E+04  4.503648E+04 -3.131291E+04
       234   3  4.125655E+05  1.356016E+05  6.916108E+04  1.126565E+05  3.173122E+04 -2.568111E+03
       234   4 -3.900987E+05 -1.354142E+05 -3.841219E+04 -2.421442E+05  4.405433E+04 -4.045336E+04
       234   5 -3.884212E+05 -1.539595E+05 -7.340857E+04 -2.219994E+05  7.930705E+04 -1.843267E+04
       234   6 -4.070470E+05 -2.547173E+05 -1.561156E+05 -1.973195E+05  1.063140E+05  2.548603E+04
       234   7 -1.107681E+06 -3.908049E+05 -1.675303E+05 -4.376609E+05  3.801276E+04 -4.273098E+04
       234   8 -1.152650E+06 -4.727021E+05 -2.346305E+05 -4.745407E+05  1.135318E+05 -5.575138E+03
       234   9 -1.225945E+06 -6.448455E+05 -3.814203E+05 -5.068705E+05  1.807871E+05  5.347378E+04
       234  10  3.280237E+05  1.200191E+05  9.068122E+04 -4.641661E+04 -3.289487E-10 -4.074028E-10
       234  11  3.764300E+05  1.648896E+05  8.778555E+04  3.085374E+04 -1.834876E-09 -1.676914E-09
       234  12  4.125644E+05  1.356013E+05  6.915918E+04  1.126565E+05 -3.297910E-09 -2.261994E-09
       234  13 -3.901012E+05 -1.354164E+05 -3.841891E+04 -2.421428E+05 -1.763020E-09  8.168050E-10
       234  14 -3.884280E+05 -1.539615E+05 -7.342104E+04 -2.219982E+05  2.612581E-09 -5.583675E-09
       234  15 -4.070594E+05 -2.547210E+05 -1.561381E+05 -1.973217E+05  1.412257E-09  1.421593E-09
       234  16 -1.107683E+06 -3.908073E+05 -1.675364E+05 -4.376596E+05 -1.389093E-09  9.167633E-10
       234  17 -1.152664E+06 -4.727056E+05 -2.346548E+05 -4.745402E+05 -3.788922E-10  1.741292E-09
       234  18 -1.225981E+06 -6.448574E+05 -3.814873E+05 -5.068783E+05  2.900496E-09 -1.074932E-10
       234  19  3.280268E+05  1.200214E+05  9.068868E+04 -4.641815E+04 -5.010337E+04  3.817306E+04
       234  20  3.764324E+05  1.648912E+05  8.779120E+04  3.085261E+04 -4.503648E+04  3.131291E+04
       234  21  4.125655E+05  1.356016E+05  6.916108E+04  1.126565E+05 -3.173122E+04  2.568111E+03
       234  22 -3.900987E+05 -1.354142E+05 -3.841219E+04 -2.421442E+05 -4.405433E+04  4.045336E+04
       234  23 -3.884212E+05 -1.539595E+05 -7.340857E+04 -2.219994E+05 -7.930705E+04  1.843267E+04
       234  24 -4.070470E+05 -2.547173E+05 -1.561156E+05 -1.973195E+05 -1.063140E+05 -2.548603E+04
       234  25 -1.107681E+06 -3.908049E+05 -1.675303E+05 -4.376609E+05 -3.801276E+04  4.273098E+04
       234  26 -1.152650E+06 -4.727021E+05 -2.346305E+05 -4.745407E+05 -1.135318E+05  5.575138E+03
       234  27 -1.225945E+06 -6.448455E+05 -3.814203E+05 -5.068705E+05 -1.807871E+05 -5.347378E+04
       235   1  1.187950E+06  1.627085E+05  1.410587E+05  3.105585E+03  2.549169E+04 -1.408032E+04
       235   2  1.142181E+06  2.009051E+05  1.300386E+05  2.726635E+04  5.140899E+03 -4.841019E+04
       235   3  1.090506E+06  2.046959E+05  1.237028E+05  5.921178E+04 -1.524682E+04 -6.065160E+04
       235   4  1.863232E+05 -8.362221E+04 -9.099456E+04  5.624892E+04 -6.379418E+04 -1.425679E+04
       235   5  1.930705E+05 -2.364313E+04 -4.498790E+04  5.227009E+04 -4.062413E+04 -4.851371E+04
       235   6  1.863446E+05 -5.652654E+03 -2.450661E+04  5.607578E+04 -1.749224E+04 -6.066485E+04
       235   7 -8.143548E+05 -3.300083E+05 -3.230835E+05  1.093056E+05 -1.529372E+05 -1.444867E+04
       235   8 -7.551618E+05 -2.482391E+05 -2.200436E+05  7.723419E+04 -8.632110E+04 -4.862101E+04
       235   9 -7.170081E+05 -2.160431E+05 -1.727396E+05  5.294403E+04 -1.973449E+04 -6.067808E+04
       235  10  1.187949E+06  1.627081E+05  1.410571E+05  3.105874E+03  6.307662E-09 -1.260171E-09
       235  11  1.142181E+06  2.009026E+05  1.300342E+05  2.726655E+04  3.942954E-09 -5.677446E-09
       235  12  1.090504E+06  2.046919E+05  1.236955E+05  5.921103E+04 -1.723259E-09 -4.168837E-09
       235  13  1.863188E+05 -8.362352E+04 -9.100258E+04  5.624819E+04 -1.002591E-09  9.748823E-10
       235  14  1.930681E+05 -2.364610E+04 -4.499543E+04  5.226850E+04 -1.070479E-09 -4.231246E-09
       235  15  1.863433E+05 -5.656688E+03 -2.451410E+04  5.607493E+04 -3.598768E-10 -2.783513E-10
       235  16 -8.143800E+05 -3.300148E+05 -3.231279E+05  1.093038E+05 -7.711870E-09 -1.306178E-10
       235  17 -7.551705E+05 -2.482436E+05 -2.200621E+05  7.723081E+04 -3.122169E-09 -7.765425E-09
       235  18 -7.170095E+05 -2.160471E+05 -1.727473E+05  5.294306E+04  1.210459E-09 -7.239555E-09
       235  19  1.187950E+06  1.627085E+05  1.410587E+05  3.105585E+03 -2.549169E+04  1.408032E+04
       235  20  1.142181E+06  2.009051E+05  1.300386E+05  2.726635E+04 -5.140899E+03  4.841019E+04
       235  21  1.090506E+06  2.046959E+05  1.237028E+05  5.921178E+04  1.524682E+04  6.065160E+04
       235  22  1.863232E+05 -8.362221E+04 -9.099456E+04  5.624892E+04  6.379418E+04  1.425679E+04
       235  23  1.930705E+05 -2.364313E+04 -4.498790E+04  5.227009E+04  4.062413E+04  4.851371E+04
       235  24  1.863446E+05 -5.652654E+03 -2.450661E+04  5.607578E+04  1.749224E+04  6.066485E+04
       235  25 -8.143548E+05 -3.300083E+05 -3.230835E+05  1.093056E+05  1.529372E+05  1.444867E+04
       235  26 -7.551618E+05 -2.482391E+05 -2.200436E+05  7.723419E+04  8.632110E+04  4.862101E+04
       235  27 -7.170081E+05 -2.160431E+05 -1.727396E+05  5.294403E+04  1.973449E+04  6.067808E+04
       236   1  1.061265E+06  1.974162E+05  1.218185E+05  5.550893E+04 -1.126753E+04 -6.059564E+04
       236   2  1.013155E+06  1.890586E+05  1.175633E+05  5.235925E+04 -1.096259E+04 -6.094484E+04
       236   3  9.644993E+05  1.786778E+05  1.126087E+05  5.848267E+04 -1.066448E+04 -5.888325E+04
       236   4  1.890442E+05 -4.945853E+03 -1.847116E+04  5.642250E+04 -1.431764E+04 -6.061085E+04
       236   5  1.897426E+05 -1.035337E+03 -1.009352E+04  5.177911E+04 -9.267369E+03 -6.094836E+04
       236   6  1.890697E+05  2.707162E+01 -5.710494E+03  5.640965E+04 -4.223810E+03 -5.887345E+04
       236   7 -6.824222E+05 -2.073462E+05 -1.587813E+05  5.733429E+04 -1.736361E+04 -6.062608E+04
       236   8 -6.329933E+05 -1.911623E+05 -1.377659E+05  5.119934E+04 -7.574302E+03 -6.095190E+04
       236   9 -5.857586E+05 -1.786525E+05 -1.240424E+05  5.433892E+04  2.209141E+03 -5.886369E+04
       236  10  1.061264E+06  1.974122E+05  1.218114E+05  5.550838E+04 -7.327779E-09 -4.481786E-09
       236  11  1.013154E+06  1.890546E+05  1.175561E+05  5.235872E+04 -7.615453E-10  1.940261E-09
       236  12  9.644982E+05  1.786740E+05  1.126019E+05  5.848216E+04  2.655245E-09  1.728835E-09
       236  13  1.890430E+05 -4.949853E+03 -1.847845E+04  5.642180E+04 -2.118978E-09 -3.088642E-09
       236  14  1.897415E+05 -1.039349E+03 -1.010066E+04  5.177866E+04 -1.619710E-09 -3.036036E-10
       236  15  1.890687E+05  2.334454E+01 -5.717042E+03  5.640945E+04 -3.296304E-10 -2.559312E-09
       236  16 -6.824235E+05 -2.073502E+05 -1.587887E+05  5.733344E+04  3.977432E-09 -3.041734E-10
       236  17 -6.329944E+05 -1.911663E+05 -1.377730E+05  5.119897E+04  4.834572E-10  1.617229E-09
       236  18 -5.857595E+05 -1.786562E+05 -1.240489E+05  5.433902E+04 -2.484552E-09 -3.772835E-10
       236  19  1.061265E+06  1.974162E+05  1.218185E+05  5.550893E+04  1.126753E+04  6.059564E+04
       236  20  1.013155E+06  1.890586E+05  1.175633E+05  5.235925E+04  1.096259E+04  6.094484E+04
       236  21  9.644993E+05  1.786778E+05  1.126087E+05  5.848267E+04  1.066448E+04  5.888325E+04
       236  22  1.890442E+05 -4.945853E+03 -1.847116E+04  5.642250E+04  1.431764E+04  6.061085E+04
       236  23  1.897426E+05 -1.035337E+03 -1.009352E+04  5.177911E+04  9.267369E+03  6.094836E+04
       236  24  1.890697E+05  2.707162E+01 -5.710494E+03  5.640965E+04  4.223810E+03  5.887345E+04
       236  25 -6.824222E+05 -2.073462E+05 -1.587813E+05  5.733429E+04  1.736361E+04  6.062608E+04
       236  26 -6.329933E+05 -1.911623E+05 -1.377659E+05  5.119934E+04  7.574302E+03  6.095190E+04
       236  27 -5.857586E+05 -1.786525E+05 -1.240424E+05  5.433892E+04 -2.209141E+03  5.886369E+04
       237   1  9.340111E+05  1.715191E+05  1.088515E+05  5.813503E+04 -9.713228E+03 -5.690191E+04
       237   2  8.857714E+05  1.604939E+05  1.029475E+05  5.336550E+04 -9.021913E+03 -5.354778E+04
       237   3  8.374078E+05  1.494276E+05  9.657684E+04  5.802039E+04 -8.332923E+03 -4.993160E+04
       237   4  1.893352E+05  4.313609E+01 -4.323404E+03  5.644464E+04 -3.363065E+03 -5.689142E+04
       237   5  1.894545E+05  2.352180E+02 -2.446864E+03  5.173177E+04 -2.156915E+03 -5.353440E+04
       237   6  1.893577E+05  2.967101E+02 -1.395066E+03  5.644393E+04 -9.530377E+02 -4.991518E+04
       237   7 -5.547856E+05 -1.714594E+05 -1.175099E+05  5.475597E+04  2.979791E+03 -5.688096E+04
       237   8 -5.063769E+05 -1.600466E+05 -1.078511E+05  5.009960E+04  4.700698E+03 -5.352105E+04
       237   9 -4.582716E+05 -1.488542E+05 -9.937538E+04  5.486887E+04  6.419457E+03 -4.989879E+04
       237  10  9.340101E+05  1.715156E+05  1.088453E+05  5.813459E+04 -1.796273E-09  3.446541E-09
       237  11  8.857706E+05  1.604908E+05  1.029420E+05  5.336511E+04  3.449696E-09  4.220346E-09
       237  12  8.374071E+05  1.494249E+05  9.657202E+04  5.802006E+04  4.223881E-09  3.273762E-13
       237  13  1.893344E+05  3.965718E+01 -4.329508E+03  5.644449E+04 -1.195939E-09 -4.359242E-09
       237  14  1.894537E+05  2.321390E+02 -2.452259E+03  5.173168E+04 -7.834977E-12  4.025654E-09
       237  15  1.893571E+05  2.940341E+02 -1.399750E+03  5.644389E+04  5.035982E-10  5.525982E-09
       237  16 -5.547865E+05 -1.714628E+05 -1.175160E+05  5.475611E+04  3.215271E-09  2.132005E-09
       237  17 -5.063777E+05 -1.600497E+05 -1.078565E+05  5.009980E+04 -3.571224E-09  4.949580E-09
       237  18 -4.582723E+05 -1.488568E+05 -9.938013E+04  5.486913E+04 -5.661558E-09  4.128388E-10
       237  19  9.340111E+05  1.715191E+05  1.088515E+05  5.813503E+04  9.713228E+03  5.690191E+04
       237  20  8.857714E+05  1.604939E+05  1.029475E+05  5.336550E+04  9.021913E+03  5.354778E+04
       237  21  8.374078E+05  1.494276E+05  9.657684E+04  5.802039E+04  8.332923E+03  4.993160E+04
       237  22  1.893352E+05  4.313609E+01 -4.323404E+03  5.644464E+04  3.363065E+03  5.689142E+04
       237  23  1.894545E+05  2.352180E+02 -2.446864E+03  5.173177E+04  2.156915E+03  5.353440E+04
       237  24  1.893577E+05  2.967101E+02 -1.395066E+03  5.644393E+04  9.530377E+02  4.991518E+04
       237  25 -5.547856E+05 -1.714594E+05 -1.175099E+05  5.475597E+04 -2.979791E+03  5.688096E+04
       237  26 -5.063769E+05 -1.600466E+05 -1.078511E+05  5.009960E+04 -4.700698E+03  5.352105E+04
       237  27 -4.582716E+05 -1.488542E+05 -9.937538E+04  5.486887E+04 -6.419457E+03  4.989879E+04
       238   1  8.068543E+05  1.423468E+05  9.208030E+04  5.793652E+04 -8.105932E+03 -4.774297E+04
       238   2  7.586312E+05  1.312370E+05  8.529444E+04  5.311853E+04 -7.875069E+03 -4.398877E+04
       238   3  7.103513E+05  1.201886E+05  7.836083E+04  5.773225E+04 -7.645651E+03 -4.020692E+04
       238   4  1.893977E+05  2.963610E+02 -1.054561E+03  5.644566E+04 -7.378263E+02 -4.772571E+04
       238   5  1.894416E+05  2.802756E+02 -5.948367E+02  5.172954E+04 -4.530638E+02 -4.397002E+04
       238   6  1.894162E+05  3.161339E+02 -3.207896E+02  5.644564E+04 -1.697300E+02 -4.018667E+04
       238   7 -4.276769E+05 -1.417722E+05 -9.419694E+04  5.495605E+04  6.623250E+03 -4.770848E+04
       238   8 -3.794233E+05 -1.306918E+05 -8.649049E+04  5.034164E+04  6.962413E+03 -4.395130E+04
       238   9 -3.312470E+05 -1.195693E+05 -7.900774E+04  5.515994E+04  7.300172E+03 -4.016644E+04
       238  10  8.068536E+05  1.423444E+05  9.207589E+04  5.793621E+04  4.396588E-10  2.059190E-10
       238  11  7.586306E+05  1.312349E+05  8.529069E+04  5.311825E+04  7.646729E-10  8.945928E-09
       238  12  7.103508E+05  1.201869E+05  7.835768E+04  5.773200E+04 -1.475210E-10  6.593390E-09
       238  13  1.893970E+05  2.939148E+02 -1.058842E+03  5.644563E+04 -2.148545E-09  2.100273E-09
       238  14  1.894411E+05  2.781993E+02 -5.984706E+02  5.172953E+04  6.660383E-10  9.091928E-09
       238  15  1.894158E+05  3.143996E+02 -3.238247E+02  5.644564E+04 -1.214009E-09  2.010549E-09
       238  16 -4.276775E+05 -1.417747E+05 -9.420130E+04  5.495630E+04 -9.623463E-10  1.294607E-09
       238  17 -3.794239E+05 -1.306939E+05 -8.649421E+04  5.034188E+04 -2.662272E-09  3.696502E-09
       238  18 -3.312475E+05 -1.195710E+05 -7.901087E+04  5.516018E+04 -1.152750E-09  4.873296E-10
       238  19  8.068543E+05  1.423468E+05  9.208030E+04  5.793652E+04  8.105932E+03  4.774297E+04
       238  20  7.586312E+05  1.312370E+05  8.529444E+04  5.311853E+04  7.875069E+03  4.398877E+04
       238  21  7.103513E+05  1.201886E+05  7.836083E+04  5.773225E+04  7.645651E+03  4.020692E+04
       238  22  1.893977E+05  2.963610E+02 -1.054561E+03  5.644566E+04  7.378263E+02  4.772571E+04
       238  23  1.894416E+05  2.802756E+02 -5.948367E+02  5.172954E+04  4.530638E+02  4.397002E+04
       238  24  1.894162E+05  3.161339E+02 -3.207896E+02  5.644564E+04  1.697300E+02  4.018667E+04
       238  25 -4.276769E+05 -1.417722E+05 -9.419694E+04  5.495605E+04 -6.623250E+03  4.770848E+04
       238  26 -3.794233E+05 -1.306918E+05 -8.649049E+04  5.034164E+04 -6.962413E+03  4.395130E+04
       238  27 -3.312470E+05 -1.195693E+05 -7.900774E+04  5.515994E+04 -7.300172E+03  4.016644E+04
       239   1  6.798097E+05  1.131278E+05  7.365335E+04  5.766828E+04 -7.599001E+03 -3.799737E+04
       239   2  6.316210E+05  1.020323E+05  6.661051E+04  5.285087E+04 -7.570507E+03 -3.420223E+04
       239   3  5.833862E+05  9.100200E+04  5.954746E+04  5.746480E+04 -7.543071E+03 -3.040489E+04
       239   4  1.894267E+05  3.209086E+02 -2.277382E+02  5.644554E+04 -1.258863E+02 -3.797642E+04
       239   5  1.894581E+05  2.987556E+02 -8.791184E+01  5.172967E+04 -9.333060E+01 -3.418023E+04
       239   6  1.894411E+05  3.412582E+02  2.893139E+01  5.644552E+04 -6.182914E+01 -3.038184E+04
       239   7 -3.007152E+05 -1.124974E+05 -7.411346E+04  5.522362E+04  7.341565E+03 -3.795550E+04
       239   8 -2.525087E+05 -1.014441E+05 -6.679009E+04  5.060915E+04  7.378736E+03 -3.415824E+04
       239   9 -2.043484E+05 -9.032685E+04 -5.949255E+04  5.542678E+04  7.414857E+03 -3.035880E+04
       239  10  6.798093E+05  1.131262E+05  7.365053E+04  5.766804E+04  1.208363E-08  1.220018E-10
       239  11  6.316206E+05  1.020311E+05  6.660820E+04  5.285066E+04  4.326869E-09 -8.715070E-10
       239  12  5.833859E+05  9.100100E+04  5.954561E+04  5.746461E+04 -6.833202E-09 -2.485842E-09
       239  13  1.894263E+05  3.193598E+02 -2.304487E+02  5.644554E+04  1.194053E-09  8.472021E-09
       239  14  1.894578E+05  2.975009E+02 -9.010749E+01  5.172967E+04  6.843859E-11  8.385460E-10
       239  15  1.894409E+05  3.402670E+02  2.719662E+01  5.644552E+04 -2.685219E-09 -2.940053E-09
       239  16 -3.007156E+05 -1.124989E+05 -7.411627E+04  5.522384E+04 -1.378881E-08  3.618889E-09
       239  17 -2.525091E+05 -1.014454E+05 -6.679238E+04  5.060935E+04 -4.028105E-09 -2.391992E-09
       239  18 -2.043487E+05 -9.032785E+04 -5.949439E+04  5.542697E+04  7.598638E-09 -3.188253E-09
       239  19  6.798097E+05  1.131278E+05  7.365335E+04  5.766828E+04  7.599001E+03  3.799737E+04
       239  20  6.316210E+05  1.020323E+05  6.661051E+04  5.285087E+04  7.570507E+03  3.420223E+04
       239  21  5.833862E+05  9.100200E+04  5.954746E+04  5.746480E+04  7.543071E+03  3.040489E+04
       239  22  1.894267E+05  3.209086E+02 -2.277382E+02  5.644554E+04  1.258863E+02  3.797642E+04
       239  23  1.894581E+05  2.987556E+02 -8.791184E+01  5.172967E+04  9.333060E+01  3.418023E+04
       239  24  1.894411E+05  3.412582E+02  2.893139E+01  5.644552E+04  6.182914E+01  3.038184E+04
       239  25 -3.007152E+05 -1.124974E+05 -7.411346E+04  5.522362E+04 -7.341565E+03  3.795550E+04
       239  26 -2.525087E+05 -1.014441E+05 -6.679009E+04  5.060915E+04 -7.378736E+03  3.415824E+04
       239  27 -2.043484E+05 -9.032685E+04 -5.949255E+04  5.542678E+04 -7.414857E+03  3.035880E+04
       240   1  5.528673E+05  8.394625E+04  5.481147E+04  5.739775E+04 -7.558706E+03 -2.819432E+04
       240   2  5.047014E+05  7.285831E+04  4.778010E+04  5.257149E+04 -7.682372E+03 -2.439706E+04
       240   3  4.565038E+05  6.185566E+04  4.082930E+04  5.716991E+04 -7.806775E+03 -2.060057E+04
       240   4  1.894488E+05  3.456606E+02  8.680558E+01  5.644403E+04 -7.889137E+01 -2.817074E+04
       240   5  1.894708E+05  3.242953E+02  2.287518E+02  5.173150E+04 -2.042971E+02 -2.437275E+04
       240   6  1.894590E+05  3.885865E+02  4.523447E+02  5.644392E+04 -3.304474E+02 -2.057552E+04
       240   7 -1.738373E+05 -8.326117E+04 -5.464030E+04  5.549078E+04  7.396722E+03 -2.814718E+04
       240   8 -1.256601E+05 -7.221442E+04 -4.732440E+04  5.089187E+04  7.270134E+03 -2.434844E+04
       240   9 -7.751418E+04 -6.108186E+04 -3.992586E+04  5.571818E+04  7.142793E+03 -2.055048E+04
       240  10  5.528670E+05  8.394538E+04  5.480987E+04  5.739758E+04 -3.405843E-09  3.713193E-09
       240  11  5.047012E+05  7.285766E+04  4.777887E+04  5.257134E+04 -2.686885E-09  2.254337E-09
       240  12  4.565036E+05  6.185519E+04  4.082839E+04  5.716978E+04 -2.237289E-09  2.102358E-09
       240  13  1.894485E+05  3.448083E+02  8.531412E+01  5.644403E+04 -1.075259E-09 -7.873635E-10
       240  14  1.894706E+05  3.236573E+02  2.276353E+02  5.173150E+04 -3.238679E-09  2.828515E-09
       240  15  1.894589E+05  3.881318E+02  4.515489E+02  5.644391E+04  1.082825E-09  3.368179E-09
       240  16 -1.738376E+05 -8.326204E+04 -5.464189E+04  5.549095E+04  8.240632E-10  3.122743E-09
       240  17 -1.256603E+05 -7.221507E+04 -4.732561E+04  5.089201E+04  1.340314E-09 -8.161385E-09
       240  18 -7.751435E+04 -6.108233E+04 -3.992675E+04  5.571830E+04  8.349153E-10 -1.553262E-09
       240  19  5.528673E+05  8.394625E+04  5.481147E+04  5.739775E+04  7.558706E+03  2.819432E+04
       240  20  5.047014E+05  7.285831E+04  4.778010E+04  5.257149E+04  7.682372E+03  2.439706E+04
       240  21  4.565038E+05  6.185566E+04  4.082930E+04  5.716991E+04  7.806775E+03  2.060057E+04
       240  22  1.894488E+05  3.456606E+02  8.680558E+01  5.644403E+04  7.889137E+01  2.817074E+04
       240  23  1.894708E+05  3.242953E+02  2.287518E+02  5.173150E+04  2.042971E+02  2.437275E+04
       240  24  1.894590E+05  3.885865E+02  4.523447E+02  5.644392E+04  3.304474E+02  2.057552E+04
       240  25 -1.738373E+05 -8.326117E+04 -5.464030E+04  5.549078E+04 -7.396722E+03  2.814718E+04
       240  26 -1.256601E+05 -7.221442E+04 -4.732440E+04  5.089187E+04 -7.270134E+03  2.434844E+04
       240  27 -7.751418E+04 -6.108186E+04 -3.992586E+04  5.571818E+04 -7.142793E+03  2.055048E+04
       241   1  4.260253E+05  5.480319E+04  3.619458E+04  5.713099E+04 -7.904696E+03 -1.839122E+04
       241   2  3.778206E+05  4.382285E+04  2.950715E+04  5.213048E+04 -8.455863E+03 -1.459899E+04
       241   3  3.297073E+05  3.322526E+04  2.325075E+04  5.654957E+04 -9.007414E+03 -1.081146E+04
       241   4  1.894895E+05  3.930370E+02  6.094825E+02  5.644299E+04 -4.291317E+02 -1.836582E+04
       241   5  1.894475E+05  4.773122E+02  1.095899E+03  5.173217E+04 -9.897522E+02 -1.457318E+04
       241   6  1.894955E+05  9.458816E+02  2.019598E+03  5.644109E+04 -1.550795E+03 -1.078525E+04
       241   7 -4.699021E+04 -5.401974E+04 -3.497652E+04  5.575520E+04  7.043700E+03 -1.834043E+04
       241   8  1.110039E+03 -4.286989E+04 -2.731586E+04  5.133395E+04  6.474184E+03 -1.454737E+04
       241   9  4.930348E+04 -3.133440E+04 -1.921175E+04  5.633262E+04  5.904207E+03 -1.075903E+04
       241  10  4.260252E+05  5.480281E+04  3.619383E+04  5.713088E+04 -7.140552E-08  6.354777E-09
       241  11  3.778205E+05  4.382261E+04  2.950661E+04  5.213038E+04 -3.541908E-10  8.844836E-10
       241  12  3.297072E+05  3.322511E+04  2.325038E+04  5.654949E+04  7.225108E-08  6.748814E-09
       241  13  1.894894E+05  3.926748E+02  6.088483E+02  5.644298E+04 -1.121305E-09  3.368602E-09
       241  14  1.894474E+05  4.770839E+02  1.095498E+03  5.173215E+04 -3.331031E-09  2.736475E-09
       241  15  1.894955E+05  9.457561E+02  2.019375E+03  5.644108E+04 -3.552898E-11 -2.282756E-09
       241  16 -4.699036E+04 -5.402011E+04 -3.497725E+04  5.575530E+04  7.034389E-08  2.246550E-09
       241  17  1.109937E+03 -4.287013E+04 -2.731633E+04  5.133402E+04 -1.999974E-10  6.069625E-11
       241  18  4.930341E+04 -3.133454E+04 -1.921204E+04  5.633267E+04 -7.173239E-08 -8.732394E-09
       241  19  4.260253E+05  5.480319E+04  3.619458E+04  5.713099E+04  7.904696E+03  1.839122E+04
       241  20  3.778206E+05  4.382285E+04  2.950715E+04  5.213048E+04  8.455863E+03  1.459899E+04
       241  21  3.297073E+05  3.322526E+04  2.325075E+04  5.654957E+04  9.007414E+03  1.081146E+04
       241  22  1.894895E+05  3.930370E+02  6.094825E+02  5.644299E+04  4.291317E+02  1.836582E+04
       241  23  1.894475E+05  4.773122E+02  1.095899E+03  5.173217E+04  9.897522E+02  1.457318E+04
       241  24  1.894955E+05  9.458816E+02  2.019598E+03  5.644109E+04  1.550795E+03  1.078525E+04
       241  25 -4.699021E+04 -5.401974E+04 -3.497652E+04  5.575520E+04 -7.043700E+03  1.834043E+04
       241  26  1.110039E+03 -4.286989E+04 -2.731586E+04  5.133395E+04 -6.474184E+03  1.454737E+04
       241  27  4.930348E+04 -3.133440E+04 -1.921175E+04  5.633262E+04 -5.904207E+03  1.075903E+04
       242   1  2.995013E+05  2.624921E+04  1.911788E+04  5.691138E+04 -9.363192E+03 -8.606916E+03
       242   2  2.506719E+05  1.709903E+04  1.415951E+04  4.898052E+04 -1.182638E+04 -4.847634E+03
       242   3  2.032489E+05  1.261534E+04  1.194626E+04  5.045578E+04 -1.428946E+04 -1.128383E+03
       242   4  1.897921E+05  1.023869E+03  2.682581E+03  5.644111E+04 -1.905701E+03 -8.580514E+03
       242   5  1.890837E+05  2.962384E+03  4.928172E+03  5.172309E+04 -4.447807E+03 -4.821427E+03
       242   6  1.897935E+05  9.581461E+03  9.973735E+03  5.641104E+04 -6.989960E+03 -1.102398E+03
       242   7  8.009521E+04 -2.420201E+04 -1.375275E+04  5.597092E+04  5.550526E+03 -8.554121E+03
       242   8  1.274994E+05 -1.117438E+04 -4.303031E+03  5.446537E+04  2.930067E+03 -4.795152E+03
       242   9  1.763385E+05  6.547741E+03  8.001429E+03  6.236617E+04  3.093876E+02 -1.076272E+03
       242  10  2.995012E+05  2.624910E+04  1.911758E+04  5.691132E+04 -2.776740E-09  5.982006E-09
       242  11  2.506718E+05  1.709897E+04  1.415920E+04  4.898047E+04  1.819356E-09 -7.517211E-10
       242  12  2.032487E+05  1.261528E+04  1.194587E+04  5.045577E+04  5.739971E-09  1.065347E-10
       242  13  1.897921E+05  1.023789E+03  2.682436E+03  5.644110E+04  1.220878E-10  6.570582E-09
       242  14  1.890837E+05  2.962354E+03  4.928091E+03  5.172307E+04 -1.738428E-09 -8.595508E-09
       242  15  1.897935E+05  9.581447E+03  9.973641E+03  5.641104E+04 -5.911987E-10  1.918778E-09
       242  16  8.009515E+04 -2.420209E+04 -1.375294E+04  5.597096E+04  1.902704E-09 -4.371185E-10
       242  17  1.274994E+05 -1.117441E+04 -4.303090E+03  5.446538E+04 -1.001149E-09  1.441754E-09
       242  18  1.763385E+05  6.547740E+03  8.001426E+03  6.236617E+04 -3.218725E-09 -1.093626E-09
       242  19  2.995013E+05  2.624921E+04  1.911788E+04  5.691138E+04  9.363192E+03  8.606916E+03
       242  20  2.506719E+05  1.709903E+04  1.415951E+04  4.898052E+04  1.182638E+04  4.847634E+03
       242  21  2.032489E+05  1.261534E+04  1.194626E+04  5.045578E+04  1.428946E+04  1.128383E+03
       242  22  1.897921E+05  1.023869E+03  2.682581E+03  5.644111E+04  1.905701E+03  8.580514E+03
       242  23  1.890837E+05  2.962384E+03  4.928172E+03  5.172309E+04  4.447807E+03  4.821427E+03
       242  24  1.897935E+05  9.581461E+03  9.973735E+03  5.641104E+04  6.989960E+03  1.102398E+03
       242  25  8.009521E+04 -2.420201E+04 -1.375275E+04  5.597092E+04 -5.550526E+03  8.554121E+03
       242  26  1.274994E+05 -1.117438E+04 -4.303031E+03  5.446537E+04 -2.930067E+03  4.795152E+03
       242  27  1.763385E+05  6.547741E+03  8.001429E+03  6.236617E+04 -3.093876E+02  1.076272E+03
       243   1  9.601115E+03  6.810296E+05  1.468407E+04 -1.436813E+05 -2.965013E+03 -2.928955E+03
       243   2 -3.322534E+04  5.707189E+05 -1.215701E+04 -1.244077E+05 -1.255518E+04 -9.169689E+03
       243   3 -6.334950E+04  4.643109E+05 -3.179344E+04 -1.263591E+05 -2.120487E+04 -1.540708E+04
       243   4  2.580967E+04  7.493034E+05  2.791688E+04 -1.269581E+05 -3.005715E+03  1.691190E+04
       243   5  7.597820E+03  7.471937E+05  1.581078E+04 -1.163686E+05 -1.259116E+04  8.816556E+03
       243   6  2.409019E+03  7.492983E+05  1.219596E+04 -1.270022E+05 -2.123608E+04  7.236316E+02
       243   7  4.201922E+04  8.175831E+05  4.115110E+04 -1.102330E+05 -3.045347E+03  3.675489E+04
       243   8  4.841986E+04  9.237003E+05  4.377903E+04 -1.083271E+05 -1.262668E+04  2.680772E+04
       243   9  6.816374E+04  1.034367E+06  5.618449E+04 -1.276455E+05 -2.126732E+04  1.686146E+04
       243  10  9.601104E+03  6.810296E+05  1.468404E+04 -1.436813E+05 -4.104803E-10  9.087582E-09
       243  11 -3.322553E+04  5.707188E+05 -1.215746E+04 -1.244078E+05  1.405624E-09 -2.682496E-08
       243  12 -6.335005E+04  4.643105E+05 -3.179473E+04 -1.263594E+05  2.548762E-09 -5.044094E-08
       243  13  2.580959E+04  7.493031E+05  2.791633E+04 -1.269581E+05 -3.688660E-10 -2.197042E-09
       243  14  7.597629E+03  7.471936E+05  1.581034E+04 -1.163685E+05 -1.244458E-09 -3.939589E-09
       243  15  2.408534E+03  7.492982E+05  1.219511E+04 -1.270022E+05  2.854892E-09 -1.177868E-10
       243  16  4.201885E+04  8.175816E+05  4.114855E+04 -1.102329E+05  1.047687E-10 -8.127820E-09
       243  17  4.841949E+04  9.236994E+05  4.377738E+04 -1.083268E+05 -1.929300E-10  2.372890E-08
       243  18  6.816318E+04  1.034367E+06  5.618310E+04 -1.276452E+05  9.792750E-10  5.322137E-08
       243  19  9.601115E+03  6.810296E+05  1.468407E+04 -1.436813E+05  2.965013E+03  2.928955E+03
       243  20 -3.322534E+04  5.707189E+05 -1.215701E+04 -1.244077E+05  1.255518E+04  9.169689E+03
       243  21 -6.334950E+04  4.643109E+05 -3.179344E+04 -1.263591E+05  2.120487E+04  1.540708E+04
       243  22  2.580967E+04  7.493034E+05  2.791688E+04 -1.269581E+05  3.005715E+03 -1.691190E+04
       243  23  7.597820E+03  7.471937E+05  1.581078E+04 -1.163686E+05  1.259116E+04 -8.816556E+03
       243  24  2.409019E+03  7.492983E+05  1.219596E+04 -1.270022E+05  2.123608E+04 -7.236316E+02
       243  25  4.201922E+04  8.175831E+05  4.115110E+04 -1.102330E+05  3.045347E+03 -3.675489E+04
       243  26  4.841986E+04  9.237003E+05  4.377903E+04 -1.083271E+05  1.262668E+04 -2.680772E+04
       243  27  6.816374E+04  1.034367E+06  5.618449E+04 -1.276455E+05  2.126732E+04 -1.686146E+04
       244   1 -7.950176E+04  3.950798E+05 -4.282397E+04 -1.278707E+05 -2.603722E+04 -1.745372E+04
       244   2 -1.047420E+05  2.859620E+05 -5.781471E+04 -1.149288E+05 -3.318086E+04 -2.064648E+04
       244   3 -1.262570E+05  1.781324E+05 -6.981740E+04 -1.230446E+05 -3.813107E+04 -2.383326E+04
       244   4  2.185746E+03  7.488029E+05  1.214356E+04 -1.269618E+05 -2.606773E+04 -1.219642E+03
       244   5  2.137116E+03  7.477723E+05  1.500792E+04 -1.164293E+05 -3.320092E+04 -8.736128E+03
       244   6  6.562269E+03  7.487663E+05  2.385796E+04 -1.269531E+05 -3.814151E+04 -1.624717E+04
       244   7  8.386729E+04  1.102651E+06  6.710917E+04 -1.260522E+05 -2.609818E+04  1.502333E+04
       244   8  1.090057E+05  1.209795E+06  8.782579E+04 -1.179309E+05 -3.322103E+04  3.182750E+03
       244   9  1.393649E+05  1.319722E+06  1.175241E+05 -1.308652E+05 -3.815204E+04 -8.654347E+03
       244  10 -7.950257E+04  3.950793E+05 -4.282582E+04 -1.278711E+05  5.079910E-09 -1.258925E-08
       244  11 -1.047433E+05  2.859612E+05 -5.781758E+04 -1.149294E+05  3.296344E-09  1.533938E-08
       244  12 -1.262587E+05  1.781314E+05 -6.982120E+04 -1.230453E+05  6.222612E-11  5.023078E-08
       244  13  2.185015E+03  7.488028E+05  1.214228E+04 -1.269618E+05  3.209697E-09 -1.870725E-09
       244  14  2.135912E+03  7.477719E+05  1.500571E+04 -1.164296E+05  1.831050E-09 -3.626004E-09
       244  15  6.560636E+03  7.487656E+05  2.385472E+04 -1.269536E+05  1.350179E-09 -5.659306E-10
       244  16  8.386649E+04  1.102651E+06  6.710747E+04 -1.260519E+05  1.692405E-09  1.365630E-08
       244  17  1.090045E+05  1.209795E+06  8.782370E+04 -1.179308E+05  9.485309E-11 -1.738353E-08
       244  18  1.393634E+05  1.319722E+06  1.175212E+05 -1.308654E+05  1.036552E-09 -4.812860E-08
       244  19 -7.950176E+04  3.950798E+05 -4.282397E+04 -1.278707E+05  2.603722E+04  1.745372E+04
       244  20 -1.047420E+05  2.859620E+05 -5.781471E+04 -1.149288E+05  3.318086E+04  2.064648E+04
       244  21 -1.262570E+05  1.781324E+05 -6.981740E+04 -1.230446E+05  3.813107E+04  2.383326E+04
       244  22  2.185746E+03  7.488029E+05  1.214356E+04 -1.269618E+05  2.606773E+04  1.219642E+03
       244  23  2.137116E+03  7.477723E+05  1.500792E+04 -1.164293E+05  3.320092E+04  8.736128E+03
       244  24  6.562269E+03  7.487663E+05  2.385796E+04 -1.269531E+05  3.814151E+04  1.624717E+04
       244  25  8.386728E+04  1.102651E+06  6.710917E+04 -1.260522E+05  2.609818E+04 -1.502333E+04
       244  26  1.090057E+05  1.209795E+06  8.782579E+04 -1.179309E+05  3.322103E+04 -3.182750E+03
       244  27  1.393649E+05  1.319722E+06  1.175241E+05 -1.308652E+05  3.815204E+04  8.654347E+03
       245   1 -1.420941E+05  1.114528E+05 -7.645483E+04 -1.276819E+05 -4.120093E+04 -2.860302E+04
       245   2 -1.483949E+05 -2.099935E+03 -8.573331E+04 -8.369987E+04 -3.573811E+04 -1.851857E+04
       245   3 -1.102793E+05 -1.058665E+05 -9.046911E+04 -5.942045E+04 -1.087320E+04 -8.411048E+03
       245   4  7.376354E+03  7.519429E+05  3.073436E+04 -1.266646E+05 -4.121174E+04 -2.031903E+04
       245   5  2.894644E+04  7.437087E+05  5.484114E+04 -1.167383E+05 -3.568450E+04 -4.843390E+04
       245   6  1.015264E+05  7.518557E+05  1.099909E+05 -1.265092E+05 -1.076699E+04 -7.652477E+04
       245   7  1.568254E+05  1.392838E+06  1.379111E+05 -1.256460E+05 -4.122252E+04 -1.202677E+04
       245   8  2.062599E+05  1.490058E+06  1.953951E+05 -1.498172E+05 -3.562776E+04 -7.838426E+04
       245   9  3.132992E+05  1.610275E+06  3.104206E+05 -1.936910E+05 -1.064615E+04 -1.447319E+05
       245  10 -1.420961E+05  1.114514E+05 -7.645956E+04 -1.276828E+05  2.053052E-09  1.497925E-09
       245  11 -1.483963E+05 -2.100646E+03 -8.573636E+04 -8.370040E+04  1.831310E-09 -2.600242E-09
       245  12 -1.102795E+05 -1.058666E+05 -9.046947E+04 -5.942053E+04  5.573160E-10  1.876742E-09
       245  13  7.374419E+03  7.519420E+05  3.073040E+04 -1.266652E+05  1.354017E-09 -1.876971E-09
       245  14  2.894445E+04  7.437058E+05  5.483434E+04 -1.167397E+05  2.208852E-10 -3.919475E-09
       245  15  1.015247E+05  7.518494E+05  1.099797E+05 -1.265099E+05 -2.104044E-10 -1.017081E-10
       245  16  1.568235E+05  1.392837E+06  1.379076E+05 -1.256464E+05 -6.116284E-10 -5.136421E-10
       245  17  2.062569E+05  1.490052E+06  1.953812E+05 -1.498194E+05 -1.431635E-09  8.356334E-10
       245  18  3.132935E+05  1.610253E+06  3.103812E+05 -1.936922E+05 -2.606669E-09  3.619134E-10
       245  19 -1.420941E+05  1.114528E+05 -7.645483E+04 -1.276819E+05  4.120093E+04  2.860302E+04
       245  20 -1.483949E+05 -2.099935E+03 -8.573331E+04 -8.369987E+04  3.573811E+04  1.851857E+04
       245  21 -1.102793E+05 -1.058665E+05 -9.046911E+04 -5.942045E+04  1.087320E+04  8.411048E+03
       245  22  7.376354E+03  7.519429E+05  3.073436E+04 -1.266646E+05  4.121174E+04  2.031903E+04
       245  23  2.894644E+04  7.437087E+05  5.484114E+04 -1.167383E+05  3.568450E+04  4.843390E+04
       245  24  1.015264E+05  7.518557E+05  1.099909E+05 -1.265092E+05  1.076699E+04  7.652477E+04
       245  25  1.568254E+05  1.392838E+06  1.379111E+05 -1.256460E+05  4.122252E+04  1.202677E+04
       245  26  2.062599E+05  1.490058E+06  1.953951E+05 -1.498172E+05  3.562776E+04  7.838426E+04
       245  27  3.132992E+05  1.610275E+06  3.104206E+05 -1.936910E+05  1.064615E+04  1.447319E+05
       246   1  1.266588E+06  4.120054E+05  1.996726E+05  4.532283E+05  5.883414E+04  5.865791E+03
       246   2  1.192171E+06  4.090017E+05  1.577131E+05  4.318180E+05  3.907775E+04 -4.010413E+04
       246   3  1.107468E+06  4.028468E+05  1.362001E+05  4.265042E+05  1.032966E+04 -6.220801E+04
       246   4  2.812034E+05  6.738412E+04 -4.731207E+04  2.082439E+05 -2.539685E+04 -2.591690E+04
       246   5  2.933079E+05  9.136550E+04 -2.226060E+04  1.933923E+05 -1.098922E+03 -5.527811E+04
       246   6  2.863930E+05  1.034636E+05 -1.164264E+04  1.946401E+05  1.419508E+04 -6.075701E+04
       246   7 -7.031829E+05 -2.771854E+05 -2.943315E+05 -3.638946E+04 -1.094782E+05 -5.765170E+04
       246   8 -6.047037E+05 -2.262066E+05 -2.022614E+05 -4.471535E+04 -4.121223E+04 -7.043011E+04
       246   9 -5.339709E+05 -1.958519E+05 -1.595079E+05 -3.693743E+04  1.805507E+04 -5.930809E+04
       246  10  1.266584E+06  4.120044E+05  1.996661E+05  4.532280E+05  7.096627E-10 -4.654867E-10
       246  11  1.192169E+06  4.089996E+05  1.577072E+05  4.318193E+05 -1.554154E-09 -4.174859E-09
       246  12  1.107467E+06  4.028426E+05  1.361926E+05  4.265048E+05 -3.585615E-09 -2.929085E-09
       246  13  2.812025E+05  6.738322E+04 -4.731454E+04  2.082434E+05 -2.627050E-09  1.956487E-09
       246  14  2.933070E+05  9.136222E+04 -2.226634E+04  1.933922E+05 -4.141379E-10 -2.536965E-09
       246  15  2.863918E+05  1.034596E+05 -1.164996E+04  1.946408E+05 -1.228642E-09  3.676585E-09
       246  16 -7.031967E+05 -2.771921E+05 -2.943603E+05 -3.639455E+04 -8.505661E-10  3.403730E-10
       246  17 -6.047069E+05 -2.262124E+05 -2.022739E+05 -4.471769E+04 -1.350768E-09 -5.347522E-09
       246  18 -5.339722E+05 -1.958557E+05 -1.595152E+05 -3.693657E+04  6.790191E-11  2.928036E-10
       246  19  1.266588E+06  4.120054E+05  1.996726E+05  4.532283E+05 -5.883414E+04 -5.865791E+03
       246  20  1.192171E+06  4.090017E+05  1.577131E+05  4.318180E+05 -3.907775E+04  4.010413E+04
       246  21  1.107468E+06  4.028468E+05  1.362001E+05  4.265042E+05 -1.032966E+04  6.220801E+04
       246  22  2.812034E+05  6.738412E+04 -4.731207E+04  2.082439E+05  2.539685E+04  2.591690E+04
       246  23  2.933079E+05  9.136550E+04 -2.226060E+04  1.933923E+05  1.098922E+03  5.527811E+04
       246  24  2.863930E+05  1.034636E+05 -1.164264E+04  1.946401E+05 -1.419508E+04  6.075701E+04
       246  25 -7.031829E+05 -2.771854E+05 -2.943315E+05 -3.638946E+04  1.094782E+05  5.765170E+04
       246  26 -6.047037E+05 -2.262066E+05 -2.022614E+05 -4.471535E+04  4.121223E+04  7.043011E+04
       246  27 -5.339709E+05 -1.958519E+05 -1.595079E+05 -3.693743E+04 -1.805507E+04  5.930809E+04
       247   1  1.063198E+06  3.841519E+05  1.285887E+05  4.123531E+05  1.317457E+04 -5.909741E+04
       247   2  9.969699E+05  3.542791E+05  1.157686E+05  3.864964E+05  1.051061E+04 -5.778053E+04
       247   3  9.201028E+05  3.346665E+05  1.042271E+05  3.730768E+05  6.983724E+03 -5.418521E+04
       247   4  2.874714E+05  1.038787E+05 -8.720954E+03  1.954642E+05  1.483316E+04 -5.847910E+04
       247   5  2.933725E+05  1.001958E+05 -4.574240E+03  1.888632E+05  1.637263E+04 -5.557243E+04
       247   6  2.877977E+05  1.059408E+05 -2.478997E+03  1.946986E+05  1.704848E+04 -5.038589E+04
       247   7 -4.876295E+05 -1.763401E+05 -1.460524E+05 -2.117497E+04  1.648959E+04 -5.786162E+04
       247   8 -4.097036E+05 -1.538396E+05 -1.249319E+05 -8.561912E+03  2.222764E+04 -5.336698E+04
       247   9 -3.440821E+05 -1.227441E+05 -1.091952E+05  1.649044E+04  2.710237E+04 -4.659069E+04
       247  10  1.063197E+06  3.841481E+05  1.285818E+05  4.123537E+05 -7.999584E-10 -4.241283E-09
       247  11  9.969689E+05  3.542755E+05  1.157621E+05  3.864969E+05 -2.169063E-09  1.863749E-09
       247  12  9.201020E+05  3.346633E+05  1.042215E+05  3.730771E+05 -1.941340E-09  3.851229E-10
       247  13  2.874702E+05  1.038749E+05 -8.727795E+03  1.954649E+05 -4.929415E-10 -4.413481E-09
       247  14  2.933714E+05  1.001924E+05 -4.580549E+03  1.888640E+05  2.893584E-10 -1.744290E-09
       247  15  2.877967E+05  1.059380E+05 -2.484315E+03  1.946993E+05  3.408672E-09 -1.224380E-09
       247  16 -4.876307E+05 -1.763438E+05 -1.460592E+05 -2.117420E+04 -1.366199E-09 -4.197553E-09
       247  17 -4.097049E+05 -1.538428E+05 -1.249381E+05 -8.560956E+03  6.257105E-09 -1.812826E-09
       247  18 -3.440835E+05 -1.227466E+05 -1.092007E+05  1.649146E+04  1.321988E-08  3.122474E-09
       247  19  1.063198E+06  3.841519E+05  1.285887E+05  4.123531E+05 -1.317457E+04  5.909741E+04
       247  20  9.969699E+05  3.542791E+05  1.157686E+05  3.864964E+05 -1.051061E+04  5.778053E+04
       247  21  9.201028E+05  3.346665E+05  1.042271E+05  3.730768E+05 -6.983724E+03  5.418521E+04
       247  22  2.874714E+05  1.038787E+05 -8.720954E+03  1.954642E+05 -1.483316E+04  5.847910E+04
       247  23  2.933725E+05  1.001958E+05 -4.574240E+03  1.888632E+05 -1.637263E+04  5.557243E+04
       247  24  2.877977E+05  1.059408E+05 -2.478997E+03  1.946986E+05 -1.704848E+04  5.038589E+04
       247  25 -4.876295E+05 -1.763401E+05 -1.460524E+05 -2.117497E+04 -1.648959E+04  5.786162E+04
       247  26 -4.097036E+05 -1.538396E+05 -1.249319E+05 -8.561912E+03 -2.222764E+04  5.336698E+04
       247  27 -3.440821E+05 -1.227441E+05 -1.091952E+05  1.649044E+04 -2.710237E+04  4.659069E+04
       248   1  8.746595E+05  3.180212E+05  9.666397E+04  3.602018E+05  6.319819E+03 -5.074823E+04
       248   2  8.090749E+05  2.870169E+05  8.535022E+04  3.340527E+05  4.364088E+03 -4.526509E+04
       248   3  7.326654E+05  2.668606E+05  7.396980E+04  3.201959E+05  2.324721E+03 -3.956704E+04
       248   4  2.878955E+05  1.059753E+05 -1.854613E+03  1.947702E+05  1.616883E+04 -4.702895E+04
       248   5  2.933743E+05  1.006550E+05 -9.978332E+02  1.886066E+05  1.460934E+04 -4.139374E+04
       248   6  2.879425E+05  1.061041E+05 -5.229660E+02  1.947341E+05  1.296617E+04 -3.554348E+04
       248   7 -2.984954E+05 -1.060330E+05 -1.003798E+05  2.948678E+04  2.600787E+04 -4.331345E+04
       248   8 -2.220428E+05 -8.567963E+04 -8.735214E+04  4.327362E+04  2.484555E+04 -3.752581E+04
       248   9 -1.565741E+05 -5.463376E+04 -7.502157E+04  6.935514E+04  2.359963E+04 -3.152295E+04
       248  10  8.746587E+05  3.180185E+05  9.665905E+04  3.602020E+05  4.034510E-09  5.871987E-09
       248  11  8.090743E+05  2.870147E+05  8.534633E+04  3.340529E+05  8.010932E-09  1.570741E-10
       248  12  7.326649E+05  2.668589E+05  7.396685E+04  3.201960E+05  9.937382E-09 -2.194659E-09
       248  13  2.878946E+05  1.059728E+05 -1.859262E+03  1.947709E+05  6.353445E-09  4.159918E-09
       248  14  2.933736E+05  1.006531E+05 -1.001455E+03  1.886071E+05  5.165649E-09 -4.049644E-09
       248  15  2.879420E+05  1.061027E+05 -5.256564E+02  1.947345E+05  2.234043E-09  4.718891E-09
       248  16 -2.984966E+05 -1.060352E+05 -1.003846E+05  2.948769E+04  8.959599E-09  5.407571E-09
       248  17 -2.220438E+05 -8.568130E+04 -8.735595E+04  4.327437E+04  6.680439E-10  5.313011E-09
       248  18 -1.565750E+05 -5.463498E+04 -7.502448E+04  6.935574E+04 -5.095649E-09  2.853235E-09
       248  19  8.746595E+05  3.180212E+05  9.666397E+04  3.602018E+05 -6.319819E+03  5.074823E+04
       248  20  8.090749E+05  2.870169E+05  8.535022E+04  3.340527E+05 -4.364088E+03  4.526509E+04
       248  21  7.326654E+05  2.668606E+05  7.396980E+04  3.201959E+05 -2.324721E+03  3.956704E+04
       248  22  2.878955E+05  1.059753E+05 -1.854613E+03  1.947702E+05 -1.616883E+04  4.702895E+04
       248  23  2.933743E+05  1.006550E+05 -9.978332E+02  1.886066E+05 -1.460934E+04  4.139374E+04
       248  24  2.879425E+05  1.061041E+05 -5.229660E+02  1.947341E+05 -1.296617E+04  3.554348E+04
       248  25 -2.984954E+05 -1.060330E+05 -1.003798E+05  2.948678E+04 -2.600787E+04  4.331345E+04
       248  26 -2.220428E+05 -8.567963E+04 -8.735214E+04  4.327362E+04 -2.484555E+04  3.752581E+04
       248  27 -1.565741E+05 -5.463376E+04 -7.502157E+04  6.935514E+04 -2.359963E+04  3.152295E+04
       249   1  6.872311E+05  2.503855E+05  6.616365E+04  3.074033E+05  1.150909E+03 -3.616849E+04
       249   2  6.217574E+05  2.193891E+05  5.468492E+04  2.812556E+05 -9.879384E+02 -3.038773E+04
       249   3  5.454469E+05  1.992449E+05  4.317927E+04  2.673928E+05 -3.135013E+03 -2.458915E+04
       249   4  2.879610E+05  1.061122E+05 -3.733939E+02  1.947383E+05  1.176854E+04 -3.215281E+04
       249   5  2.933956E+05  1.007032E+05 -1.496664E+02  1.885952E+05  9.662237E+03 -2.635825E+04
       249   6  2.879808E+05  1.061393E+05  2.045547E+01  1.947351E+05  7.547714E+03 -2.054588E+04
       249   7 -1.111386E+05 -3.814449E+04 -6.691384E+04  8.214126E+04  2.237892E+04 -2.813986E+04
       249   8 -3.484914E+04 -1.797075E+04 -5.498593E+04  9.598131E+04  2.030637E+04 -2.233105E+04
       249   9  3.058858E+04  1.304162E+04 -4.313875E+04  1.221063E+05  1.822562E+04 -1.650444E+04
       249  10  6.872307E+05  2.503840E+05  6.616119E+04  3.074033E+05 -1.244831E-09 -1.686013E-09
       249  11  6.217571E+05  2.193881E+05  5.468319E+04  2.812556E+05  1.503131E-09  8.131526E-09
       249  12  5.454467E+05  1.992443E+05  4.317812E+04  2.673928E+05  9.256417E-09  4.005908E-09
       249  13  2.879606E+05  1.061111E+05 -3.755973E+02  1.947386E+05 -6.102476E-10  2.665071E-09
       249  14  2.933953E+05  1.007025E+05 -1.511477E+02  1.885954E+05 -8.007295E-10 -3.614407E-09
       249  15  2.879807E+05  1.061388E+05  1.955499E+01  1.947352E+05  1.745085E-09  4.035421E-09
       249  16 -1.111394E+05 -3.814548E+04 -6.691627E+04  8.214177E+04 -8.311316E-10  7.673004E-09
       249  17 -3.484972E+04 -1.797140E+04 -5.498764E+04  9.598167E+04 -3.160502E-09  7.214833E-09
       249  18  3.058815E+04  1.304124E+04 -4.313989E+04  1.221066E+05  8.358696E-10  1.913781E-09
       249  19  6.872311E+05  2.503855E+05  6.616365E+04  3.074033E+05 -1.150909E+03  3.616849E+04
       249  20  6.217574E+05  2.193891E+05  5.468492E+04  2.812556E+05  9.879384E+02  3.038773E+04
       249  21  5.454469E+05  1.992449E+05  4.317927E+04  2.673928E+05  3.135013E+03  2.458915E+04
       249  22  2.879610E+05  1.061122E+05 -3.733939E+02  1.947383E+05 -1.176854E+04  3.215281E+04
       249  23  2.933956E+05  1.007032E+05 -1.496664E+02  1.885952E+05 -9.662237E+03  2.635825E+04
       249  24  2.879808E+05  1.061393E+05  2.045547E+01  1.947351E+05 -7.547714E+03  2.054588E+04
       249  25 -1.111386E+05 -3.814449E+04 -6.691384E+04  8.214126E+04 -2.237892E+04  2.813986E+04
       249  26 -3.484914E+04 -1.797075E+04 -5.498593E+04  9.598131E+04 -2.030637E+04  2.233105E+04
       249  27  3.058858E+04  1.304162E+04 -4.313875E+04  1.221063E+05 -1.822562E+04  1.650444E+04
       250   1  5.000517E+05  1.827847E+05  3.532801E+04  2.546122E+05 -4.418332E+03 -2.122001E+04
       250   2  4.346142E+05  1.517958E+05  2.386667E+04  2.284862E+05 -6.739877E+03 -1.548332E+04
       250   3  3.583552E+05  1.316575E+05  1.250393E+04  2.146442E+05 -9.058322E+03 -9.756467E+03
       250   4  2.879929E+05  1.061434E+05  1.009911E+02  1.947367E+05  6.261037E+03 -1.717738E+04
       250   5  2.934069E+05  1.007162E+05  3.011238E+02  1.885968E+05  3.920984E+03 -1.144703E+04
       250   6  2.879991E+05  1.061435E+05  6.145153E+02  1.947394E+05  1.584024E+03 -5.726537E+03
       250   7  7.598001E+04  2.950582E+04 -3.512728E+04  1.348798E+05  1.693665E+04 -1.313618E+04
       250   8  1.522203E+05  4.963845E+04 -2.326466E+04  1.487157E+05  1.457933E+04 -7.411693E+03
       250   9  2.176485E+05  8.063001E+04 -1.127455E+04  1.748367E+05  1.222509E+04 -1.697094E+03
       250  10  5.000515E+05  1.827842E+05  3.532713E+04  2.546121E+05  1.143529E-08  2.913159E-09
       250  11  4.346141E+05  1.517956E+05  2.386614E+04  2.284861E+05 -1.765003E-09  7.451748E-10
       250  12  3.583551E+05  1.316574E+05  1.250360E+04  2.146441E+05 -5.133636E-09 -2.341843E-09
       250  13  2.879928E+05  1.061430E+05  1.003629E+02  1.947368E+05  5.126136E-09 -6.545632E-09
       250  14  2.934068E+05  1.007161E+05  3.008486E+02  1.885968E+05 -4.028394E-10 -2.947641E-09
       250  15  2.879991E+05  1.061434E+05  6.144490E+02  1.947394E+05 -1.311193E-09  8.009388E-09
       250  16  7.597965E+04  2.950555E+04 -3.512815E+04  1.348799E+05 -6.350424E-10 -1.701531E-10
       250  17  1.522201E+05  4.963834E+04 -2.326516E+04  1.487158E+05 -1.123832E-09 -2.225089E-09
       250  18  2.176483E+05  8.062997E+04 -1.127484E+04  1.748368E+05  2.597856E-09  4.817831E-09
       250  19  5.000517E+05  1.827847E+05  3.532801E+04  2.546122E+05  4.418332E+03  2.122001E+04
       250  20  4.346142E+05  1.517958E+05  2.386667E+04  2.284862E+05  6.739877E+03  1.548332E+04
       250  21  3.583552E+05  1.316575E+05  1.250393E+04  2.146442E+05  9.058322E+03  9.756467E+03
       250  22  2.879929E+05  1.061434E+05  1.009911E+02  1.947367E+05 -6.261037E+03  1.717738E+04
       250  23  2.934069E+05  1.007162E+05  3.011238E+02  1.885968E+05 -3.920984E+03  1.144703E+04
       250  24  2.879991E+05  1.061435E+05  6.145153E+02  1.947394E+05 -1.584024E+03  5.726537E+03
       250  25  7.598001E+04  2.950582E+04 -3.512728E+04  1.348798E+05 -1.693665E+04  1.313618E+04
       250  26  1.522203E+05  4.963845E+04 -2.326466E+04  1.487157E+05 -1.457933E+04  7.411693E+03
       250  27  2.176485E+05  8.063001E+04 -1.127455E+04  1.748367E+05 -1.222509E+04  1.697094E+03
       251   1  3.129839E+05  1.152067E+05  4.788811E+03  2.018954E+05 -1.046184E+04 -6.440113E+03
       251   2  2.475199E+05  8.420061E+04 -6.248553E+03  1.757700E+05 -1.318846E+04 -9.310840E+02
       251   3  1.713260E+05  6.412068E+04 -1.684770E+04  1.619214E+05 -1.587176E+04  4.464457E+03
       251   4  2.880242E+05  1.061386E+05  8.365132E+02  1.947494E+05  1.900388E+02 -2.406456E+03
       251   5  2.933766E+05  1.007016E+05  1.544945E+03  1.885939E+05 -2.746616E+03  3.022820E+03
       251   6  2.880349E+05  1.062316E+05  2.857513E+03  1.947129E+05 -5.640029E+03  8.338613E+03
       251   7  2.630658E+05  9.707072E+04 -3.115234E+03  1.876037E+05  1.084135E+04  1.626984E+03
       251   8  3.392358E+05  1.172029E+05  9.338854E+03  2.014188E+05  7.696050E+03  6.977030E+03
       251   9  4.047597E+05  1.483444E+05  2.256316E+04  2.275106E+05  4.593849E+03  1.221358E+04
       251  10  3.129838E+05  1.152067E+05  4.788527E+03  2.018953E+05  5.991538E-08  2.798853E-08
       251  11  2.475197E+05  8.420056E+04 -6.248881E+03  1.757700E+05 -5.213145E-09  1.555698E-09
       251  12  1.713258E+05  6.412059E+04 -1.684821E+04  1.619214E+05 -6.311326E-08 -2.539515E-08
       251  13  2.880242E+05  1.061386E+05  8.365023E+02  1.947494E+05 -4.979828E-09  2.014253E-09
       251  14  2.933766E+05  1.007016E+05  1.544914E+03  1.885939E+05  2.968061E-10  3.539817E-09
       251  15  2.880348E+05  1.062315E+05  2.857323E+03  1.947129E+05  3.039513E-09 -1.222881E-09
       251  16  2.630656E+05  9.707069E+04 -3.115459E+03  1.876037E+05 -6.712652E-08 -2.089042E-08
       251  17  3.392358E+05  1.172029E+05  9.338651E+03  2.014188E+05 -5.541378E-09 -8.703340E-09
       251  18  4.047596E+05  1.483442E+05  2.256284E+04  2.275106E+05  6.963791E-08  2.734710E-08
       251  19  3.129839E+05  1.152067E+05  4.788811E+03  2.018954E+05  1.046184E+04  6.440113E+03
       251  20  2.475199E+05  8.420061E+04 -6.248553E+03  1.757700E+05  1.318846E+04  9.310840E+02
       251  21  1.713260E+05  6.412068E+04 -1.684770E+04  1.619214E+05  1.587176E+04 -4.464457E+03
       251  22  2.880242E+05  1.061386E+05  8.365132E+02  1.947494E+05 -1.900388E+02  2.406456E+03
       251  23  2.933766E+05  1.007016E+05  1.544945E+03  1.885939E+05  2.746616E+03 -3.022820E+03
       251  24  2.880349E+05  1.062316E+05  2.857513E+03  1.947129E+05  5.640029E+03 -8.338613E+03
       251  25  2.630658E+05  9.707072E+04 -3.115234E+03  1.876037E+05 -1.084135E+04 -1.626984E+03
       251  26  3.392358E+05  1.172029E+05  9.338854E+03  2.014188E+05 -7.696050E+03 -6.977030E+03
       251  27  4.047597E+05  1.483444E+05  2.256316E+04  2.275106E+05 -4.593849E+03 -1.221358E+04
       252   1  1.258770E+05  4.778964E+04 -2.394156E+04  1.494241E+05 -1.775195E+04  7.518489E+03
       252   2  6.087348E+04  1.651345E+04 -3.341086E+04  1.222947E+05 -2.099163E+04  1.202775E+04
       252   3 -1.411831E+04 -2.361228E+03 -4.144142E+04  1.070054E+05 -2.378004E+04  1.534754E+04
       252   4  2.882220E+05  1.062094E+05  3.818158E+03  1.947802E+05 -7.410229E+03  1.143395E+04
       252   5  2.932121E+05  1.013009E+05  7.020919E+03  1.882876E+05 -1.284422E+04  1.511146E+04
       252   6  2.886429E+05  1.092273E+05  1.340095E+04  1.936325E+05 -1.782716E+04  1.759969E+04
       252   7  4.505951E+05  1.646318E+05  3.157758E+04  2.401475E+05  2.934364E+03  1.535049E+04
       252   8  5.256067E+05  1.860935E+05  4.745099E+04  2.543034E+05 -4.693601E+03  1.819640E+04
       252   9  5.914975E+05  2.208241E+05  6.823935E+04  2.802984E+05 -1.187125E+04  1.985303E+04
       252  10  1.258766E+05  4.778949E+04 -2.394226E+04  1.494242E+05 -4.554348E-08 -1.969400E-08
       252  11  6.087297E+04  1.651318E+04 -3.341196E+04  1.222949E+05  9.333620E-09 -1.772432E-09
       252  12 -1.411898E+04 -2.361633E+03 -4.144293E+04  1.070057E+05  6.573467E-08  1.768168E-08
       252  13  2.882219E+05  1.062092E+05  3.817809E+03  1.947803E+05  4.843729E-09 -1.433633E-10
       252  14  2.932119E+05  1.013006E+05  7.020180E+03  1.882878E+05  8.020270E-09 -7.340837E-09
       252  15  2.886425E+05  1.092269E+05  1.339977E+04  1.936328E+05  5.485639E-09 -8.250307E-09
       252  16  4.505950E+05  1.646315E+05  3.157712E+04  2.401474E+05  6.009929E-08  2.250203E-08
       252  17  5.256066E+05  1.860932E+05  4.745033E+04  2.543034E+05  2.003081E-09 -5.324919E-10
       252  18  5.914972E+05  2.208237E+05  6.823834E+04  2.802985E+05 -5.849388E-08 -2.427931E-08
       252  19  1.258770E+05  4.778964E+04 -2.394156E+04  1.494241E+05  1.775195E+04 -7.518489E+03
       252  20  6.087348E+04  1.651345E+04 -3.341086E+04  1.222947E+05  2.099163E+04 -1.202775E+04
       252  21 -1.411831E+04 -2.361228E+03 -4.144142E+04  1.070054E+05  2.378004E+04 -1.534754E+04
       252  22  2.882220E+05  1.062094E+05  3.818158E+03  1.947802E+05  7.410229E+03 -1.143395E+04
       252  23  2.932121E+05  1.013009E+05  7.020919E+03  1.882876E+05  1.284422E+04 -1.511146E+04
       252  24  2.886429E+05  1.092273E+05  1.340095E+04  1.936325E+05  1.782716E+04 -1.759969E+04
       252  25  4.505951E+05  1.646318E+05  3.157758E+04  2.401475E+05 -2.934364E+03 -1.535049E+04
       252  26  5.256067E+05  1.860935E+05  4.745099E+04  2.543034E+05  4.693601E+03 -1.819640E+04
       252  27  5.914975E+05  2.208241E+05  6.823935E+04  2.802984E+05  1.187125E+04 -1.985303E+04
       253   1 -6.074111E+04 -1.656920E+04 -4.622231E+04  9.780019E+04 -2.790159E+04  1.668981E+04
       253   2 -1.133775E+05 -5.218481E+04 -5.225246E+04  5.000081E+04 -2.179763E+04  1.629289E+04
       253   3 -1.659559E+05 -4.908859E+04 -5.424661E+04  5.617533E+03 -1.098637E+04  3.446302E+03
       253   4  2.908209E+05  1.092799E+05  1.789365E+04  1.942939E+05 -2.080442E+04  1.937463E+04
       253   5  2.924796E+05  1.153749E+05  3.418297E+04  1.820919E+05 -3.764344E+04  1.029462E+04
       253   6  2.987318E+05  1.647140E+05  7.269267E+04  1.733061E+05 -4.977740E+04 -1.123043E+04
       253   7  6.425183E+05  2.351419E+05  8.200689E+04  2.908397E+05 -1.370285E+04  2.206106E+04
       253   8  6.985070E+05  2.829612E+05  1.206102E+05  3.142669E+05 -5.350034E+04  4.290989E+03
       253   9  7.636284E+05  3.785605E+05  1.996164E+05  3.411166E+05 -8.859934E+04 -2.592494E+04
       253  10 -6.074202E+04 -1.656971E+04 -4.622430E+04  9.780057E+04  5.648963E-08  1.634231E-08
       253  11 -1.133781E+05 -5.218522E+04 -5.225385E+04  5.000110E+04 -4.341126E-09 -6.738495E-12
       253  12 -1.659560E+05 -4.908864E+04 -5.424686E+04  5.617563E+03 -5.685957E-08 -2.003163E-08
       253  13  2.908204E+05  1.092794E+05  1.789213E+04  1.942943E+05  2.376038E-09 -1.693992E-09
       253  14  2.924780E+05  1.153744E+05  3.418011E+04  1.820922E+05 -2.486811E-09  7.300033E-09
       253  15  2.987291E+05  1.647132E+05  7.268778E+04  1.733057E+05 -2.306214E-09 -5.798725E-10
       253  16  6.425180E+05  2.351413E+05  8.200562E+04  2.908399E+05 -5.650810E-08 -1.867115E-08
       253  17  6.985040E+05  2.829604E+05  1.206048E+05  3.142671E+05 -3.366379E-09 -7.952105E-10
       253  18  7.636198E+05  3.785577E+05  1.996004E+05  3.411147E+05  5.224085E-08  1.363505E-08
       253  19 -6.074111E+04 -1.656920E+04 -4.622231E+04  9.780019E+04  2.790159E+04 -1.668981E+04
       253  20 -1.133775E+05 -5.218481E+04 -5.225246E+04  5.000081E+04  2.179763E+04 -1.629289E+04
       253  21 -1.659559E+05 -4.908859E+04 -5.424661E+04  5.617533E+03  1.098637E+04 -3.446302E+03
       253  22  2.908209E+05  1.092799E+05  1.789365E+04  1.942939E+05  2.080442E+04 -1.937463E+04
       253  23  2.924796E+05  1.153749E+05  3.418297E+04  1.820919E+05  3.764344E+04 -1.029462E+04
       253  24  2.987318E+05  1.647140E+05  7.269267E+04  1.733061E+05  4.977740E+04  1.123043E+04
       253  25  6.425183E+05  2.351419E+05  8.200689E+04  2.908397E+05  1.370285E+04 -2.206106E+04
       253  26  6.985070E+05  2.829612E+05  1.206102E+05  3.142669E+05  5.350034E+04 -4.290989E+03
       253  27  7.636284E+05  3.785605E+05  1.996164E+05  3.411166E+05  8.859934E+04  2.592494E+04
       254   1  3.012172E+05  5.118297E+04  4.474317E+04  5.424986E+03 -1.500296E+04 -2.663250E+03
       254   2  2.850082E+05  7.062079E+04  5.357564E+04  1.061095E+03 -1.115975E+04 -7.801227E+03
       254   3  2.615875E+05  6.338726E+04  5.324288E+04  1.379214E+04 -7.338165E+03 -7.020532E+03
       254   4  1.095218E+04 -2.117454E+04 -2.706630E+04  1.054002E+04 -1.850228E+04 -2.675949E+03
       254   5  1.478248E+04  3.524956E+03 -1.178428E+04  1.951954E+03 -1.210378E+04 -7.805016E+03
       254   6  1.095378E+04  1.103190E+03 -7.444995E+03  1.045939E+04 -5.726747E+03 -7.014329E+03
       254   7 -2.792363E+05 -9.353823E+04 -9.888197E+04  1.565260E+04 -2.199996E+04 -2.688708E+03
       254   8 -2.553766E+05 -6.357622E+04 -7.714944E+04  2.842362E+03 -1.304739E+04 -7.808809E+03
       254   9 -2.396226E+05 -6.118545E+04 -6.813738E+04  7.127926E+03 -4.115977E+03 -7.008142E+03
       254  10  3.012170E+05  5.118291E+04  4.474274E+04  5.424954E+03 -5.647792E-09  3.756128E-09
       254  11  2.850081E+05  7.062069E+04  5.357529E+04  1.061025E+03 -9.697020E-10  1.377507E-08
       254  12  2.615874E+05  6.338720E+04  5.324269E+04  1.379210E+04  8.535412E-10  6.643990E-09
       254  13  1.095181E+04 -2.117464E+04 -2.706695E+04  1.053998E+04 -1.089993E-09 -3.498342E-09
       254  14  1.478231E+04  3.524851E+03 -1.178467E+04  1.951878E+03 -1.077533E-09 -9.905970E-09
       254  15  1.095373E+04  1.103129E+03 -7.445149E+03  1.045935E+04 -2.186759E-09  2.462673E-09
       254  16 -2.792368E+05 -9.353837E+04 -9.888289E+04  1.565255E+04  4.448872E-09  3.521602E-09
       254  17 -2.553768E+05 -6.357633E+04 -7.714987E+04  2.842280E+03 -2.889732E-09  1.188971E-08
       254  18 -2.396226E+05 -6.118551E+04 -6.813750E+04  7.127902E+03 -5.613556E-09  1.618963E-09
       254  19  3.012172E+05  5.118297E+04  4.474317E+04  5.424986E+03  1.500296E+04  2.663250E+03
       254  20  2.850082E+05  7.062079E+04  5.357564E+04  1.061095E+03  1.115975E+04  7.801227E+03
       254  21  2.615875E+05  6.338726E+04  5.324288E+04  1.379214E+04  7.338165E+03  7.020532E+03
       254  22  1.095218E+04 -2.117454E+04 -2.706630E+04  1.054002E+04  1.850228E+04  2.675949E+03
       254  23  1.478248E+04  3.524956E+03 -1.178428E+04  1.951954E+03  1.210378E+04  7.805016E+03
       254  24  1.095378E+04  1.103190E+03 -7.444995E+03  1.045939E+04  5.726747E+03  7.014329E+03
       254  25 -2.792363E+05 -9.353823E+04 -9.888197E+04  1.565260E+04  2.199996E+04  2.688708E+03
       254  26 -2.553766E+05 -6.357622E+04 -7.714944E+04  2.842362E+03  1.304739E+04  7.808809E+03
       254  27 -2.396226E+05 -6.118545E+04 -6.813738E+04  7.127926E+03  4.115977E+03  7.008142E+03
       255   1  2.310721E+05  5.194102E+04  4.695670E+04  1.053789E+04 -4.545475E+03 -5.706271E+03
       255   2  2.118787E+05  4.984227E+04  4.513310E+04  2.393342E+03 -3.198743E+03 -5.470624E+03
       255   3  1.916440E+05  4.474862E+04  4.166062E+04  1.139171E+04 -1.854538E+03 -4.710625E+03
       255   4  1.241975E+04 -2.391205E+03 -6.098251E+03  1.050323E+04 -4.558214E+03 -5.706458E+03
       255   5  1.296113E+04  4.249207E+02 -3.055152E+03  1.926290E+03 -2.985390E+03 -5.469849E+03
       255   6  1.242092E+04  2.062760E+02 -1.818432E+03  1.049262E+04 -1.415054E+03 -4.708814E+03
       255   7 -2.061890E+05 -5.672694E+04 -5.915665E+04  1.046854E+04 -4.570948E+03 -5.706644E+03
       255   8 -1.859203E+05 -4.899533E+04 -5.124625E+04  1.459351E+03 -2.772105E+03 -5.469074E+03
       255   9 -1.667728E+05 -4.433842E+04 -4.529980E+04  9.593769E+03 -9.756957E+02 -4.707004E+03
       255  10  2.310721E+05  5.194098E+04  4.695660E+04  1.053786E+04 -3.006469E-09 -3.853405E-09
       255  11  2.118787E+05  4.984223E+04  4.513303E+04  2.393328E+03  1.460744E-10  2.485432E-09
       255  12  1.916440E+05  4.474859E+04  4.166057E+04  1.139170E+04  2.130114E-09  1.394734E-08
       255  13  1.241972E+04 -2.391246E+03 -6.098351E+03  1.050321E+04 -3.253876E-09  1.356307E-08
       255  14  1.296112E+04  4.248862E+02 -3.055225E+03  1.926277E+03 -2.692709E-09 -2.555027E-08
       255  15  1.242091E+04  2.062517E+02 -1.818478E+03  1.049262E+04 -2.762060E-10  1.481946E-08
       255  16 -2.061890E+05 -5.672698E+04 -5.915675E+04  1.046852E+04 -1.276607E-09 -9.352708E-09
       255  17 -1.859203E+05 -4.899536E+04 -5.124633E+04  1.459339E+03 -2.780572E-09 -7.133021E-09
       255  18 -1.667728E+05 -4.433845E+04 -4.529984E+04  9.593765E+03 -3.025674E-09  2.497658E-09
       255  19  2.310721E+05  5.194102E+04  4.695670E+04  1.053789E+04  4.545475E+03  5.706271E+03
       255  20  2.118787E+05  4.984227E+04  4.513310E+04  2.393342E+03  3.198743E+03  5.470624E+03
       255  21  1.916440E+05  4.474862E+04  4.166062E+04  1.139171E+04  1.854538E+03  4.710625E+03
       255  22  1.241975E+04 -2.391205E+03 -6.098251E+03  1.050323E+04  4.558214E+03  5.706458E+03
       255  23  1.296113E+04  4.249207E+02 -3.055152E+03  1.926290E+03  2.985390E+03  5.469849E+03
       255  24  1.242092E+04  2.062760E+02 -1.818432E+03  1.049262E+04  1.415054E+03  4.708814E+03
       255  25 -2.061890E+05 -5.672694E+04 -5.915665E+04  1.046854E+04  4.570948E+03  5.706644E+03
       255  26 -1.859203E+05 -4.899533E+04 -5.124625E+04  1.459351E+03  2.772105E+03  5.469074E+03
       255  27 -1.667728E+05 -4.433842E+04 -4.529980E+04  9.593769E+03  9.756957E+02  4.707004E+03
       256   1  1.598692E+05  3.638149E+04  3.421075E+04  1.092303E+04 -1.425405E+03 -4.193849E+03
       256   2  1.403110E+05  3.176032E+04  3.016689E+04  2.344443E+03 -1.073282E+03 -3.485571E+03
       256   3  1.204874E+05  2.692731E+04  2.580571E+04  1.090678E+04 -7.215966E+02 -2.730980E+03
       256   4  1.260460E+04 -1.973367E+02 -1.424289E+03  1.049646E+04 -1.129874E+03 -4.192618E+03
       256   5  1.273943E+04  6.384278E+01 -7.446002E+02  1.925206E+03 -7.578217E+02 -3.484208E+03
       256   6  1.260537E+04  1.097799E+02 -3.960402E+02  1.049510E+04 -3.861964E+02 -2.729480E+03
       256   7 -1.346402E+05 -3.677776E+04 -3.706089E+04  1.006998E+04 -8.344122E+02 -4.191387E+03
       256   8 -1.148173E+05 -3.163383E+04 -3.165726E+04  1.506040E+03 -4.424261E+02 -3.482846E+03
       256   9 -9.526608E+04 -2.670861E+04 -2.659863E+04  1.008347E+04 -5.085432E+01 -2.727980E+03
       256  10  1.598692E+05  3.638148E+04  3.421071E+04  1.092302E+04  3.919492E-09 -7.467326E-09
       256  11  1.403110E+05  3.176031E+04  3.016687E+04  2.344440E+03  3.056673E-09 -6.929844E-09
       256  12  1.204874E+05  2.692731E+04  2.580569E+04  1.090678E+04 -9.750225E-10 -8.128451E-09
       256  13  1.260460E+04 -1.973559E+02 -1.424325E+03  1.049646E+04 -2.972341E-12  5.610729E-10
       256  14  1.273942E+04  6.382959E+01 -7.446241E+02  1.925204E+03 -2.198477E-09 -1.766566E-09
       256  15  1.260536E+04  1.097718E+02 -3.960545E+02  1.049509E+04 -7.807136E-10 -1.055816E-09
       256  16 -1.346402E+05 -3.677778E+04 -3.706092E+04  1.006997E+04 -6.065505E-09 -6.953776E-09
       256  17 -1.148173E+05 -3.163384E+04 -3.165729E+04  1.506039E+03 -5.733737E-09  7.868466E-09
       256  18 -9.526608E+04 -2.670862E+04 -2.659864E+04  1.008347E+04 -2.084272E-09  1.544596E-08
       256  19  1.598692E+05  3.638149E+04  3.421075E+04  1.092303E+04  1.425405E+03  4.193849E+03
       256  20  1.403110E+05  3.176032E+04  3.016689E+04  2.344443E+03  1.073282E+03  3.485571E+03
       256  21  1.204874E+05  2.692731E+04  2.580571E+04  1.090678E+04  7.215966E+02  2.730980E+03
       256  22  1.260460E+04 -1.973367E+02 -1.424289E+03  1.049646E+04  1.129874E+03  4.192618E+03
       256  23  1.273943E+04  6.384278E+01 -7.446002E+02  1.925206E+03  7.578217E+02  3.484208E+03
       256  24  1.260537E+04  1.097799E+02 -3.960402E+02  1.049510E+04  3.861964E+02  2.729480E+03
       256  25 -1.346402E+05 -3.677776E+04 -3.706089E+04  1.006998E+04  8.344122E+02  4.191387E+03
       256  26 -1.148173E+05 -3.163383E+04 -3.165726E+04  1.506040E+03  4.424261E+02  3.482846E+03
       256  27 -9.526608E+04 -2.670861E+04 -2.659863E+04  1.008347E+04  5.085432E+01  2.727980E+03
       257   1  8.856853E+04  1.891855E+04  1.806616E+04  1.075526E+04 -6.509081E+02 -2.285653E+03
       257   2  6.896786E+04  1.399988E+04  1.356619E+04  2.125752E+03 -6.228335E+02 -1.536745E+03
       257   3  4.920191E+04  9.208125E+03  9.038761E+03  1.063000E+04 -5.948785E+02 -7.841234E+02
       257   4  1.262999E+04  6.195283E+01 -2.756520E+02  1.049403E+04 -3.281878E+02 -2.284186E+03
       257   5  1.271312E+04  2.198363E+01 -6.566059E+01  1.926989E+03 -2.985197E+02 -1.535251E+03
       257   6  1.263033E+04  1.086689E+02  1.157782E+02  1.049379E+04 -2.689702E+02 -7.826010E+02
       257   7 -6.330328E+04 -1.879506E+04 -1.861787E+04  1.023283E+04 -5.506779E+00 -2.282720E+03
       257   8 -4.353873E+04 -1.395615E+04 -1.369774E+04  1.728240E+03  2.576487E+01 -1.533757E+03
       257   9 -2.394003E+04 -8.990885E+03 -8.807302E+03  1.035760E+04  5.691896E+01 -7.810786E+02
       257  10  8.856853E+04  1.891854E+04  1.806614E+04  1.075525E+04 -6.462364E-10 -1.160771E-08
       257  11  6.896786E+04  1.399988E+04  1.356618E+04  2.125751E+03 -2.391394E-09  1.620327E-09
       257  12  4.920191E+04  9.208124E+03  9.038760E+03  1.063000E+04 -6.796974E-09  7.088179E-10
       257  13  1.262999E+04  6.194720E+01 -2.756620E+02  1.049403E+04 -1.085733E-09  4.156892E-09
       257  14  1.271312E+04  2.198107E+01 -6.566519E+01  1.926988E+03 -1.161867E-09 -4.538321E-09
       257  15  1.263033E+04  1.086682E+02  1.157769E+02  1.049379E+04 -2.450473E-10 -6.999858E-09
       257  16 -6.330328E+04 -1.879507E+04 -1.861788E+04  1.023283E+04 -1.512343E-09  1.101820E-08
       257  17 -4.353873E+04 -1.395615E+04 -1.369774E+04  1.728240E+03  4.553945E-10  1.884531E-08
       257  18 -2.394003E+04 -8.990886E+03 -8.807303E+03  1.035760E+04  6.105869E-09 -4.602819E-11
       257  19  8.856853E+04  1.891855E+04  1.806616E+04  1.075526E+04  6.509081E+02  2.285653E+03
       257  20  6.896786E+04  1.399988E+04  1.356619E+04  2.125752E+03  6.228335E+02  1.536745E+03
       257  21  4.920191E+04  9.208125E+03  9.038761E+03  1.063000E+04  5.948785E+02  7.841234E+02
       257  22  1.262999E+04  6.195283E+01 -2.756520E+02  1.049403E+04  3.281878E+02  2.284186E+03
       257  23  1.271312E+04  2.198363E+01 -6.566059E+01  1.926989E+03  2.985197E+02  1.535251E+03
       257  24  1.263033E+04  1.086689E+02  1.157782E+02  1.049379E+04  2.689702E+02  7.826010E+02
       257  25 -6.330328E+04 -1.879506E+04 -1.861787E+04  1.023283E+04  5.506779E+00  2.282720E+03
       257  26 -4.353873E+04 -1.395615E+04 -1.369774E+04  1.728240E+03 -2.576487E+01  1.533757E+03
       257  27 -2.394003E+04 -8.990885E+03 -8.807302E+03  1.035760E+04 -5.691896E+01  7.810786E+02
       258   1  1.728183E+04  1.231545E+03  1.275798E+03  1.052466E+04 -6.264750E+02 -3.450444E+02
       258   2 -2.347297E+03 -3.734527E+03 -3.178305E+03  1.878849E+03 -8.614396E+02  4.063126E+02
       258   3 -2.207887E+04 -8.436124E+03 -7.455487E+03  1.036529E+04 -1.096352E+03  1.154476E+03
       258   4  1.264474E+04  9.126610E+01  2.127055E+02  1.049365E+04 -3.007273E+02 -3.435172E+02
       258   5  1.269612E+04  3.484308E+00  4.671748E+02  1.927320E+03 -5.370852E+02  4.078272E+02
       258   6  1.264465E+04  1.803692E+02  8.994709E+02  1.049321E+04 -7.733978E+02  1.155979E+03
       258   7  8.007658E+03 -1.049014E+03 -8.503877E+02  1.046265E+04  2.501805E+01 -3.419899E+02
       258   8  2.773974E+04  3.741480E+03  4.112638E+03  1.975791E+03 -2.127230E+02  4.093418E+02
       258   9  4.736927E+04  8.796774E+03  9.254343E+03  1.062114E+04 -4.504260E+02  1.157482E+03
       258  10  1.728183E+04  1.231545E+03  1.275797E+03  1.052466E+04 -4.874434E-10 -3.875617E-10
       258  11 -2.347298E+03 -3.734528E+03 -3.178306E+03  1.878849E+03 -1.451186E-10 -7.674363E-09
       258  12 -2.207887E+04 -8.436126E+03 -7.455492E+03  1.036529E+04 -6.273448E-09 -1.019339E-09
       258  13  1.264474E+04  9.126595E+01  2.127051E+02  1.049365E+04 -2.356075E-12  5.344661E-09
       258  14  1.269612E+04  3.484052E+00  4.671739E+02  1.927320E+03 -3.283683E-09 -2.292433E-09
       258  15  1.264465E+04  1.803676E+02  8.994673E+02  1.049321E+04 -1.697504E-09 -2.935412E-09
       258  16  8.007658E+03 -1.049014E+03 -8.503879E+02  1.046265E+04  1.047123E-09 -7.819291E-10
       258  17  2.773974E+04  3.741479E+03  4.112638E+03  1.975792E+03 -2.184943E-09 -2.222631E-08
       258  18  4.736927E+04  8.796773E+03  9.254340E+03  1.062114E+04  5.063494E-09 -1.234984E-08
       258  19  1.728183E+04  1.231545E+03  1.275798E+03  1.052466E+04  6.264750E+02  3.450444E+02
       258  20 -2.347297E+03 -3.734527E+03 -3.178305E+03  1.878849E+03  8.614396E+02 -4.063126E+02
       258  21 -2.207887E+04 -8.436124E+03 -7.455487E+03  1.036529E+04  1.096352E+03 -1.154476E+03
       258  22  1.264474E+04  9.126610E+01  2.127055E+02  1.049365E+04  3.007273E+02  3.435172E+02
       258  23  1.269612E+04  3.484308E+00  4.671748E+02  1.927320E+03  5.370852E+02 -4.078272E+02
       258  24  1.264465E+04  1.803692E+02  8.994709E+02  1.049321E+04  7.733978E+02 -1.155979E+03
       258  25  8.007658E+03 -1.049014E+03 -8.503877E+02  1.046265E+04 -2.501805E+01  3.419899E+02
       258  26  2.773974E+04  3.741480E+03  4.112638E+03  1.975791E+03  2.127230E+02 -4.093418E+02
       258  27  4.736927E+04  8.796774E+03  9.254343E+03  1.062114E+04  4.504260E+02 -1.157482E+03
       259   1 -5.394011E+04 -1.651171E+04 -1.503094E+04  1.036732E+04 -1.296340E+03  1.597636E+03
       259   2 -7.373763E+04 -2.157016E+04 -1.888058E+04  1.607634E+03 -2.311386E+03  2.346031E+03
       259   3 -9.330518E+04 -2.549865E+04 -2.182604E+04  9.978560E+03 -3.326080E+03  3.054442E+03
       259   4  1.271828E+04  6.324628E+01  1.183087E+03  1.049423E+04 -9.624831E+02  1.599177E+03
       259   5  1.260161E+04 -1.151232E+02  2.042627E+03  1.927220E+03 -1.994932E+03  2.347458E+03
       259   6  1.271777E+04  8.394966E+02  3.818440E+03  1.049067E+04 -3.027061E+03  3.055760E+03
       259   7  7.938073E+04  1.663787E+04  1.739679E+04  1.062114E+04 -6.285906E+02  1.600718E+03
       259   8  9.894765E+04  2.133936E+04  2.296530E+04  2.246843E+03 -1.678434E+03  2.348887E+03
       259   9  1.187510E+05  2.717682E+04  2.946211E+04  1.100286E+04 -2.727991E+03  3.057079E+03
       259  10 -5.394012E+04 -1.651171E+04 -1.503094E+04  1.036732E+04 -9.486220E-09  2.201589E-09
       259  11 -7.373763E+04 -2.157016E+04 -1.888060E+04  1.607638E+03 -1.718110E-09 -1.088819E-08
       259  12 -9.330520E+04 -2.549866E+04 -2.182608E+04  9.978569E+03  1.583149E-09  1.201773E-09
       259  13  1.271828E+04  6.324329E+01  1.183080E+03  1.049423E+04 -2.144647E-09  5.731538E-11
       259  14  1.260160E+04 -1.151302E+02  2.042610E+03  1.927224E+03 -2.779943E-09  4.671357E-09
       259  15  1.271776E+04  8.394841E+02  3.818405E+03  1.049068E+04 -8.106106E-10  8.729256E-09
       259  16  7.938073E+04  1.663787E+04  1.739678E+04  1.062114E+04  5.779185E-09  3.467300E-09
       259  17  9.894765E+04  2.133936E+04  2.296529E+04  2.246847E+03 -1.760226E-09 -4.646085E-09
       259  18  1.187510E+05  2.717681E+04  2.946208E+04  1.100287E+04 -1.947646E-09  1.340420E-08
       259  19 -5.394011E+04 -1.651171E+04 -1.503094E+04  1.036732E+04  1.296340E+03 -1.597636E+03
       259  20 -7.373763E+04 -2.157016E+04 -1.888058E+04  1.607634E+03  2.311386E+03 -2.346031E+03
       259  21 -9.330518E+04 -2.549865E+04 -2.182604E+04  9.978560E+03  3.326080E+03 -3.054442E+03
       259  22  1.271828E+04  6.324628E+01  1.183087E+03  1.049423E+04  9.624831E+02 -1.599177E+03
       259  23  1.260161E+04 -1.151232E+02  2.042627E+03  1.927220E+03  1.994932E+03 -2.347458E+03
       259  24  1.271777E+04  8.394966E+02  3.818440E+03  1.049067E+04  3.027061E+03 -3.055760E+03
       259  25  7.938073E+04  1.663787E+04  1.739679E+04  1.062114E+04  6.285906E+02 -1.600718E+03
       259  26  9.894765E+04  2.133936E+04  2.296530E+04  2.246843E+03  1.678434E+03 -2.348887E+03
       259  27  1.187510E+05  2.717682E+04  2.946211E+04  1.100286E+04  2.727991E+03 -3.057079E+03
       260   1 -1.247445E+05 -3.450563E+04 -2.862687E+04  1.086906E+04 -4.223432E+03  3.555130E+03
       260   2 -1.456830E+05 -4.027151E+04 -3.009440E+04  1.001126E+03 -8.206060E+03  4.292443E+03
       260   3 -1.641122E+05 -3.748292E+04 -2.686143E+04  8.241417E+03 -1.218637E+04  4.577152E+03
       260   4  1.322864E+04 -2.177777E+02  4.862162E+03  1.049748E+04 -3.800174E+03  3.556979E+03
       260   5  1.195708E+04 -1.094401E+03  8.102874E+03  1.928865E+03 -7.979245E+03  4.293354E+03
       260   6  1.322784E+04  6.616366E+03  1.617963E+04  1.046817E+04 -1.215613E+04  4.577163E+03
       260   7  1.512191E+05  3.406868E+04  3.834982E+04  1.012579E+04 -3.376821E+03  3.558827E+03
       260   8  1.696199E+05  3.808089E+04  4.629836E+04  2.856815E+03 -7.752374E+03  4.294266E+03
       260   9  1.905967E+05  5.071335E+04  5.921841E+04  1.269553E+04 -1.212588E+04  4.577173E+03
       260  10 -1.247445E+05 -3.450565E+04 -2.862692E+04  1.086908E+04  7.760821E-09  4.484721E-10
       260  11 -1.456831E+05 -4.027155E+04 -3.009456E+04  1.001155E+03 -2.039823E-10  5.243117E-09
       260  12 -1.641124E+05 -3.748298E+04 -2.686175E+04  8.241461E+03 -5.558849E-09 -1.359239E-08
       260  13  1.322862E+04 -2.177951E+02  4.862111E+03  1.049749E+04  1.093063E-09 -7.892239E-09
       260  14  1.195701E+04 -1.094438E+03  8.102719E+03  1.928892E+03  5.080647E-10  1.665856E-09
       260  15  1.322768E+04  6.616304E+03  1.617931E+04  1.046822E+04  1.083797E-09 -6.521116E-09
       260  16  1.512191E+05  3.406866E+04  3.834977E+04  1.012580E+04 -9.415707E-09 -9.732115E-13
       260  17  1.696198E+05  3.808085E+04  4.629821E+04  2.856842E+03 -1.328530E-09 -2.575981E-08
       260  18  1.905965E+05  5.071329E+04  5.921809E+04  1.269558E+04  5.849409E-09  2.811716E-09
       260  19 -1.247445E+05 -3.450563E+04 -2.862687E+04  1.086906E+04  4.223432E+03 -3.555130E+03
       260  20 -1.456830E+05 -4.027151E+04 -3.009440E+04  1.001126E+03  8.206060E+03 -4.292443E+03
       260  21 -1.641122E+05 -3.748292E+04 -2.686143E+04  8.241417E+03  1.218637E+04 -4.577152E+03
       260  22  1.322864E+04 -2.177777E+02  4.862162E+03  1.049748E+04  3.800174E+03 -3.556979E+03
       260  23  1.195708E+04 -1.094401E+03  8.102874E+03  1.928865E+03  7.979245E+03 -4.293354E+03
       260  24  1.322784E+04  6.616366E+03  1.617963E+04  1.046817E+04  1.215613E+04 -4.577163E+03
       260  25  1.512191E+05  3.406868E+04  3.834982E+04  1.012579E+04  3.376821E+03 -3.558827E+03
       260  26  1.696199E+05  3.808089E+04  4.629836E+04  2.856815E+03  7.752374E+03 -4.294266E+03
       260  27  1.905967E+05  5.071335E+04  5.921841E+04  1.269553E+04  1.212588E+04 -4.577173E+03
       261   1 -1.922251E+05 -5.459356E+04 -3.094172E+04  1.670560E+04 -1.671242E+04  5.745370E+03
       261   2 -2.218186E+05 -6.625192E+04 -2.416847E+04 -3.099657E+03 -3.140385E+04  6.455026E+03
       261   3 -2.315580E+05 -5.806983E+03  1.018074E+04 -6.062164E+03 -4.607442E+04  2.051625E+03
       261   4  1.715453E+04 -2.638293E+03  1.975915E+04  1.050316E+04 -1.527914E+04  5.751413E+03
       261   5  7.039521E+03 -9.352572E+03  3.121147E+04  1.967029E+03 -3.218445E+04  6.451517E+03
       261   6  1.715448E+04  5.640605E+04  7.176970E+04  1.027295E+04 -4.906942E+04  2.038860E+03
       261   7  2.265744E+05  4.931392E+04  7.045691E+04  4.298575E+03 -1.384539E+04  5.757426E+03
       261   8  2.359456E+05  4.754303E+04  8.658766E+04  7.035542E+03 -3.296535E+04  6.447995E+03
       261   9  2.659237E+05  1.186154E+05  1.333542E+05  2.661457E+04 -5.206561E+04  2.025941E+03
       261  10 -1.922254E+05 -5.459367E+04 -3.094231E+04  1.670567E+04  5.404147E-09 -9.806005E-09
       261  11 -2.218197E+05 -6.625223E+04 -2.417041E+04 -3.099494E+03  3.611137E-09 -3.463762E-09
       261  12 -2.315603E+05 -5.807558E+03  1.017675E+04 -6.062088E+03  1.038440E-09  6.737138E-09
       261  13  1.715427E+04 -2.638392E+03  1.975865E+04  1.050323E+04  1.068779E-09 -1.201355E-09
       261  14  7.038397E+03 -9.352895E+03  3.120944E+04  1.967196E+03  5.270594E-10  1.395945E-09
       261  15  1.715190E+04  5.640539E+04  7.176517E+04  1.027303E+04  6.544503E-10  6.326746E-09
       261  16  2.265741E+05  4.931383E+04  7.045648E+04  4.298640E+03 -6.584381E-09  2.013802E-09
       261  17  2.359444E+05  4.754269E+04  8.658554E+04  7.035713E+03 -6.299715E-09  5.687259E-09
       261  18  2.659208E+05  1.186147E+05  1.333491E+05  2.661465E+04 -1.142272E-09  3.643199E-09
       261  19 -1.922251E+05 -5.459356E+04 -3.094172E+04  1.670560E+04  1.671242E+04 -5.745370E+03
       261  20 -2.218186E+05 -6.625192E+04 -2.416847E+04 -3.099657E+03  3.140385E+04 -6.455026E+03
       261  21 -2.315580E+05 -5.806983E+03  1.018074E+04 -6.062164E+03  4.607442E+04 -2.051625E+03
       261  22  1.715453E+04 -2.638293E+03  1.975915E+04  1.050316E+04  1.527914E+04 -5.751413E+03
       261  23  7.039521E+03 -9.352572E+03  3.121147E+04  1.967029E+03  3.218445E+04 -6.451517E+03
       261  24  1.715448E+04  5.640605E+04  7.176970E+04  1.027295E+04  4.906942E+04 -2.038860E+03
       261  25  2.265744E+05  4.931392E+04  7.045691E+04  4.298575E+03  1.384539E+04 -5.757426E+03
       261  26  2.359456E+05  4.754303E+04  8.658766E+04  7.035542E+03  3.296535E+04 -6.447995E+03
       261  27  2.659237E+05  1.186154E+05  1.333542E+05  2.661457E+04  5.206561E+04 -2.025941E+03
       262   1 -2.887588E+05 -1.339367E+06 -3.288836E+05  9.258160E+04 -4.386630E+03 -1.324782E+05
       262   2 -9.087270E+04 -1.221982E+06 -1.991510E+05  2.359463E+04 -1.328138E+04 -8.063872E+04
       262   3 -8.825837E+04 -1.159283E+06 -1.518742E+05  3.233184E+04 -1.000420E+04 -2.875363E+04
       262   4 -1.494883E+05 -7.832958E+05 -1.909727E+05  4.959900E+04 -4.398294E+03 -1.261587E+05
       262   5  2.498432E+04 -7.563915E+05 -8.640337E+04  1.098593E+04 -1.328253E+04 -7.953249E+04
       262   6  5.169931E+03 -7.832294E+05 -6.061463E+04  5.009971E+04 -9.993780E+03 -3.286864E+04
       262   7 -1.023419E+04 -2.269393E+05 -5.308386E+04  6.578008E+03 -4.410833E+03 -1.198335E+05
       262   8  1.408260E+05 -2.906027E+05  2.632869E+04 -1.632116E+03 -1.328373E+04 -7.842542E+04
       262   9  9.858908E+04 -4.070454E+05  3.063501E+04  6.787847E+04 -9.983602E+03 -3.698615E+04
       262  10 -2.887635E+05 -1.339386E+06 -3.289167E+05  9.258114E+04  3.225881E-09 -5.173670E-09
       262  11 -9.087464E+04 -1.221989E+06 -1.991635E+05  2.359376E+04  3.878955E-09  9.218797E-09
       262  12 -8.825870E+04 -1.159284E+06 -1.518760E+05  3.233161E+04 -2.206632E-09 -5.234894E-09
       262  13 -1.494926E+05 -7.833129E+05 -1.910027E+05  4.959856E+04  5.363527E-09  1.059732E-08
       262  14  2.498243E+04 -7.563984E+05 -8.641560E+04  1.098508E+04  2.142018E-09 -6.635683E-09
       262  15  5.169533E+03 -7.832306E+05 -6.061685E+04  5.009945E+04 -5.042761E-10  7.037310E-10
       262  16 -1.023807E+04 -2.269547E+05 -5.311089E+04  6.577582E+03  2.948698E-09 -2.029498E-09
       262  17  1.408241E+05 -2.906094E+05  2.631680E+04 -1.632955E+03  7.989806E-09  5.545033E-10
       262  18  9.858861E+04 -4.070469E+05  3.063225E+04  6.787817E+04 -4.550007E-09  9.293492E-10
       262  19 -2.887588E+05 -1.339367E+06 -3.288836E+05  9.258160E+04  4.386630E+03  1.324782E+05
       262  20 -9.087270E+04 -1.221982E+06 -1.991510E+05  2.359463E+04  1.328138E+04  8.063872E+04
       262  21 -8.825837E+04 -1.159283E+06 -1.518742E+05  3.233184E+04  1.000420E+04  2.875363E+04
       262  22 -1.494883E+05 -7.832958E+05 -1.909727E+05  4.959900E+04  4.398294E+03  1.261587E+05
       262  23  2.498432E+04 -7.563915E+05 -8.640337E+04  1.098593E+04  1.328253E+04  7.953249E+04
       262  24  5.169931E+03 -7.832294E+05 -6.061463E+04  5.009971E+04  9.993780E+03  3.286864E+04
       262  25 -1.023419E+04 -2.269393E+05 -5.308386E+04  6.578008E+03  4.410833E+03  1.198335E+05
       262  26  1.408260E+05 -2.906027E+05  2.632869E+04 -1.632116E+03  1.328373E+04  7.842542E+04
       262  27  9.858908E+04 -4.070454E+05  3.063501E+04  6.787847E+04  9.983602E+03  3.698615E+04
       263   1 -7.366746E+04 -1.002352E+06 -1.091243E+05  5.714600E+04 -6.128065E+03 -2.196820E+04
       263   2 -2.852711E+04 -9.045592E+05 -7.331583E+04  1.095479E+04 -3.764014E+03 -1.077751E+03
       263   3 -2.624139E+04 -8.196741E+05 -6.172829E+04  4.422847E+04 -9.250329E+02  1.981596E+04
       263   4 -1.686194E+04 -7.741356E+05 -5.374230E+04  5.031433E+04 -6.125309E+03 -2.291345E+04
       263   5  5.510593E+03 -7.676947E+05 -4.012614E+04  1.058541E+04 -3.761149E+03 -2.222542E+03
       263   6 -1.493092E+04 -7.741313E+05 -5.058684E+04  5.032124E+04 -9.216962E+02  1.846860E+04
       263   7  3.993992E+04 -5.458714E+05  1.635989E+03  4.348017E+04 -6.122532E+03 -2.385904E+04
       263   8  3.954692E+04 -6.308131E+05 -6.937791E+03  1.021596E+04 -3.758283E+03 -3.367585E+03
       263   9 -3.620467E+03 -7.285864E+05 -3.944552E+04  5.641447E+04 -9.183862E+02  1.712113E+04
       263  10 -7.366763E+04 -1.002353E+06 -1.091253E+05  5.714590E+04 -2.526058E-09 -4.384936E-09
       263  11 -2.852713E+04 -9.045592E+05 -7.331586E+04  1.095479E+04  2.911844E-09  4.676139E-09
       263  12 -2.624150E+04 -8.196745E+05 -6.172903E+04  4.422849E+04 -1.367545E-09 -1.799995E-09
       263  13 -1.686212E+04 -7.741361E+05 -5.374336E+04  5.031422E+04 -1.772806E-09  5.594109E-09
       263  14  5.510577E+03 -7.676947E+05 -4.012618E+04  1.058541E+04 -4.844346E-10 -5.147115E-09
       263  15 -1.493102E+04 -7.741316E+05 -5.058749E+04  5.032126E+04 -1.601990E-09 -2.421184E-09
       263  16  3.993973E+04 -5.458720E+05  1.634848E+03  4.348005E+04 -3.779527E-09 -1.329120E-09
       263  17  3.954690E+04 -6.308131E+05 -6.937839E+03  1.021595E+04  2.575362E-09  9.621364E-10
       263  18 -3.620547E+03 -7.285868E+05 -3.944607E+04  5.641448E+04 -7.147069E-10 -1.701922E-09
       263  19 -7.366746E+04 -1.002352E+06 -1.091243E+05  5.714600E+04  6.128065E+03  2.196820E+04
       263  20 -2.852711E+04 -9.045592E+05 -7.331583E+04  1.095479E+04  3.764014E+03  1.077751E+03
       263  21 -2.624139E+04 -8.196741E+05 -6.172829E+04  4.422847E+04  9.250329E+02 -1.981596E+04
       263  22 -1.686194E+04 -7.741356E+05 -5.374230E+04  5.031433E+04  6.125309E+03  2.291345E+04
       263  23  5.510593E+03 -7.676947E+05 -4.012614E+04  1.058541E+04  3.761149E+03  2.222542E+03
       263  24 -1.493092E+04 -7.741313E+05 -5.058684E+04  5.032124E+04  9.216962E+02 -1.846860E+04
       263  25  3.993992E+04 -5.458714E+05  1.635989E+03  4.348017E+04  6.122532E+03  2.385904E+04
       263  26  3.954692E+04 -6.308131E+05 -6.937791E+03  1.021596E+04  3.758283E+03  3.367585E+03
       263  27 -3.620467E+03 -7.285864E+05 -3.944552E+04  5.641447E+04  9.183862E+02 -1.712113E+04
       264   1  2.983217E+04 -6.788684E+05 -3.104325E+04  6.683229E+04  2.266229E+03  3.073297E+04
       264   2  7.081168E+04 -5.636608E+05 -3.127677E+04 -5.049489E+01  5.580293E+03  7.000197E+04
       264   3 -6.234131E+04 -4.965323E+05 -1.004997E+05  1.203479E+04  2.006129E+03  1.092597E+05
       264   4  4.240720E+03 -7.820659E+05 -5.618690E+04  5.033534E+04  2.272358E+03  2.777011E+04
       264   5  2.250444E+04 -7.577809E+05 -7.823781E+04  1.066868E+04  5.581586E+03  6.999949E+04
       264   6 -1.339120E+05 -7.821198E+05 -1.713544E+05  4.997411E+04  2.005071E+03  1.122117E+05
       264   7 -2.135048E+04 -8.852530E+05 -8.133115E+04  3.384115E+04  2.278644E+03  2.480773E+04
       264   8 -2.580515E+04 -9.518663E+05 -1.252015E+05  2.138450E+04  5.582878E+03  6.999700E+04
       264   9 -2.054834E+05 -1.067630E+06 -2.422144E+05  8.789598E+04  2.004375E+03  1.151623E+05
       264  10  2.983191E+04 -6.788694E+05 -3.104503E+04  6.683223E+04 -2.308698E-09 -1.048209E-09
       264  11  7.081033E+04 -5.636661E+05 -3.128605E+04 -5.080956E+01  3.767016E-09  8.294228E-09
       264  12 -6.234453E+04 -4.965451E+05 -1.005221E+05  1.203461E+04  9.542525E-10 -1.437026E-09
       264  13  4.240508E+03 -7.820667E+05 -5.618836E+04  5.033529E+04 -2.209268E-09  5.305307E-09
       264  14  2.250309E+04 -7.577862E+05 -7.824709E+04  1.066836E+04  1.901240E-09 -5.535390E-09
       264  15 -1.339154E+05 -7.821333E+05 -1.713781E+05  4.997393E+04  1.125857E-09 -2.762210E-09
       264  16 -2.135065E+04 -8.852537E+05 -8.133231E+04  3.384111E+04 -3.664414E-09 -5.986360E-09
       264  17 -2.580650E+04 -9.518716E+05 -1.252108E+05  2.138419E+04  2.621339E-09 -1.735593E-09
       264  18 -2.054870E+05 -1.067644E+06 -2.422393E+05  8.789580E+04  1.523355E-09 -4.225957E-10
       264  19  2.983217E+04 -6.788684E+05 -3.104325E+04  6.683229E+04 -2.266229E+03 -3.073297E+04
       264  20  7.081168E+04 -5.636608E+05 -3.127677E+04 -5.049489E+01 -5.580293E+03 -7.000197E+04
       264  21 -6.234131E+04 -4.965323E+05 -1.004997E+05  1.203479E+04 -2.006129E+03 -1.092597E+05
       264  22  4.240720E+03 -7.820659E+05 -5.618690E+04  5.033534E+04 -2.272358E+03 -2.777011E+04
       264  23  2.250444E+04 -7.577809E+05 -7.823781E+04  1.066868E+04 -5.581586E+03 -6.999949E+04
       264  24 -1.339120E+05 -7.821198E+05 -1.713544E+05  4.997411E+04 -2.005071E+03 -1.122117E+05
       264  25 -2.135048E+04 -8.852530E+05 -8.133115E+04  3.384115E+04 -2.278644E+03 -2.480773E+04
       264  26 -2.580515E+04 -9.518663E+05 -1.252015E+05  2.138450E+04 -5.582878E+03 -6.999700E+04
       264  27 -2.054834E+05 -1.067630E+06 -2.422144E+05  8.789598E+04 -2.004375E+03 -1.151623E+05
       265   1  1.004110E+06  3.358779E+05  2.176118E+05  3.528112E+05  1.000388E+05  3.534361E+04
       265   2  9.692349E+05  1.812005E+05  1.220360E+05  3.626701E+05  6.505936E+04  1.707901E+04
       265   3  9.800741E+05  1.816618E+05  9.275705E+04  3.500740E+05  2.809782E+04  4.045473E+03
       265   4  7.839355E+05  2.237515E+05  1.518679E+05  2.631850E+05  9.718363E+04  3.425548E+04
       265   5  7.534319E+05  9.161826E+04  6.293278E+04  2.951866E+05  6.433382E+04  1.680265E+04
       265   6  7.682400E+05  1.142308E+05  3.862548E+04  3.047282E+05  2.950105E+04  4.578495E+03
       265   7  5.638112E+05  1.116417E+05  8.611975E+04  1.735921E+05  9.432954E+04  3.316811E+04
       265   8  5.376744E+05  2.041770E+03  3.825421E+03  2.277253E+05  6.360856E+04  1.652641E+04
       265   9  5.564485E+05  4.679944E+04 -1.550975E+04  2.593947E+05  3.090375E+04  5.111391E+03
       265  10  1.004099E+06  3.358738E+05  2.175907E+05  3.528083E+05  4.026379E-09  6.461027E-09
       265  11  9.692302E+05  1.811991E+05  1.220275E+05  3.626692E+05 -3.052153E-09 -1.117818E-08
       265  12  9.800732E+05  1.816616E+05  9.275553E+04  3.500739E+05 -5.208807E-09  1.504381E-08
       265  13  7.839250E+05  2.237477E+05  1.518479E+05  2.631824E+05 -2.757832E-11 -1.061230E-08
       265  14  7.534274E+05  9.161685E+04  6.292448E+04  2.951857E+05 -1.978010E-09  5.632112E-09
       265  15  7.682391E+05  1.142305E+05  3.862381E+04  3.047281E+05 -8.540333E-10  5.075641E-09
       265  16  5.638014E+05  1.116381E+05  8.610098E+04  1.735895E+05 -1.633679E-09  7.407964E-09
       265  17  5.376700E+05  2.040392E+03  3.817313E+03  2.277245E+05  4.453435E-09 -1.114651E-08
       265  18  5.564475E+05  4.679915E+04 -1.551159E+04  2.593946E+05  4.488198E-09  8.548604E-09
       265  19  1.004110E+06  3.358779E+05  2.176118E+05  3.528112E+05 -1.000388E+05 -3.534361E+04
       265  20  9.692349E+05  1.812005E+05  1.220360E+05  3.626701E+05 -6.505936E+04 -1.707901E+04
       265  21  9.800741E+05  1.816618E+05  9.275705E+04  3.500740E+05 -2.809782E+04 -4.045473E+03
       265  22  7.839355E+05  2.237515E+05  1.518679E+05  2.631850E+05 -9.718363E+04 -3.425548E+04
       265  23  7.534319E+05  9.161826E+04  6.293278E+04  2.951866E+05 -6.433382E+04 -1.680265E+04
       265  24  7.682400E+05  1.142308E+05  3.862548E+04  3.047282E+05 -2.950105E+04 -4.578495E+03
       265  25  5.638112E+05  1.116417E+05  8.611975E+04  1.735921E+05 -9.432954E+04 -3.316811E+04
       265  26  5.376744E+05  2.041770E+03  3.825421E+03  2.277253E+05 -6.360856E+04 -1.652641E+04
       265  27  5.564485E+05  4.679944E+04 -1.550975E+04  2.593947E+05 -3.090375E+04 -5.111391E+03
       266   1  9.309110E+05  1.971193E+05  7.701447E+04  3.445292E+05  2.343415E+04  3.673219E+03
       266   2  9.159708E+05  1.672094E+05  5.541720E+04  3.352770E+05  1.535528E+04  9.073602E+02
       266   3  8.962599E+05  1.668257E+05  4.446132E+04  3.356366E+05  7.093919E+03 -1.377531E+03
       266   4  7.634358E+05  1.304779E+05  3.155083E+04  2.951326E+05  2.343907E+04  3.674847E+03
       266   5  7.648987E+05  1.091740E+05  1.487470E+04  2.928187E+05  1.555704E+04  9.838627E+02
       266   6  7.615533E+05  1.173600E+05  8.686258E+03  3.001162E+05  7.492254E+03 -1.226258E+03
       266   7  5.959877E+05  6.383907E+04 -1.391534E+04  2.457483E+05  2.344400E+04  3.676474E+03
       266   8  6.138487E+05  5.114026E+04 -2.566977E+04  2.503698E+05  1.575873E+04  1.060344E+03
       266   9  6.268644E+05  6.789524E+04 -2.709028E+04  2.646027E+05  7.890493E+03 -1.075018E+03
       266  10  9.309104E+05  1.971192E+05  7.701341E+04  3.445291E+05  2.628689E-09  3.463644E-09
       266  11  9.159706E+05  1.672094E+05  5.541675E+04  3.352770E+05  4.949461E-09 -5.489280E-09
       266  12  8.962598E+05  1.668257E+05  4.446122E+04  3.356366E+05 -6.400213E-09  1.210855E-08
       266  13  7.634352E+05  1.304778E+05  3.154977E+04  2.951325E+05 -1.788442E-10  2.372269E-09
       266  14  7.648984E+05  1.091739E+05  1.487424E+04  2.928187E+05  1.544920E-09  2.144548E-08
       266  15  7.615532E+05  1.173600E+05  8.686150E+03  3.001162E+05 -1.968740E-09  1.036976E-09
       266  16  5.959871E+05  6.383891E+04 -1.391640E+04  2.457482E+05 -4.086477E-09 -9.690874E-09
       266  17  6.138484E+05  5.114019E+04 -2.567024E+04  2.503698E+05 -1.188808E-09 -1.166486E-08
       266  18  6.268644E+05  6.789522E+04 -2.709040E+04  2.646027E+05  4.334033E-09  1.010440E-08
       266  19  9.309110E+05  1.971193E+05  7.701447E+04  3.445292E+05 -2.343415E+04 -3.673219E+03
       266  20  9.159708E+05  1.672094E+05  5.541720E+04  3.352770E+05 -1.535528E+04 -9.073602E+02
       266  21  8.962599E+05  1.668257E+05  4.446132E+04  3.356366E+05 -7.093919E+03  1.377531E+03
       266  22  7.634358E+05  1.304779E+05  3.155083E+04  2.951326E+05 -2.343907E+04 -3.674847E+03
       266  23  7.648987E+05  1.091740E+05  1.487470E+04  2.928187E+05 -1.555704E+04 -9.838627E+02
       266  24  7.615533E+05  1.173600E+05  8.686258E+03  3.001162E+05 -7.492254E+03  1.226258E+03
       266  25  5.959877E+05  6.383907E+04 -1.391534E+04  2.457483E+05 -2.344400E+04 -3.676474E+03
       266  26  6.138487E+05  5.114026E+04 -2.566977E+04  2.503698E+05 -1.575873E+04 -1.060344E+03
       266  27  6.268644E+05  6.789524E+04 -2.709028E+04  2.646027E+05 -7.890493E+03  1.075018E+03
       267   1  8.628874E+05  1.581410E+05  3.409562E+04  3.273008E+05  5.775194E+03 -1.309350E+03
       267   2  8.509253E+05  1.435581E+05  2.614368E+04  3.160761E+05  3.716436E+03 -1.316423E+03
       267   3  8.280600E+05  1.429799E+05  2.009692E+04  3.178088E+05  1.643193E+03 -1.285787E+03
       267   4  7.609602E+05  1.191943E+05  6.828756E+03  2.988569E+05  6.041311E+03 -1.208285E+03
       267   5  7.663024E+05  1.114200E+05  3.499498E+03  2.926725E+05  3.998126E+03 -1.209403E+03
       267   6  7.607385E+05  1.176477E+05  2.063446E+03  2.994454E+05  1.940402E+03 -1.172831E+03
       267   7  6.590428E+05  8.024832E+04 -2.043908E+04  2.704171E+05  6.307381E+03 -1.107239E+03
       267   8  6.816863E+05  7.928227E+04 -1.914534E+04  2.692716E+05  4.279774E+03 -1.102400E+03
       267   9  6.934213E+05  9.231567E+04 -1.597042E+04  2.810838E+05  2.237575E+03 -1.059888E+03
       267  10  8.628874E+05  1.581410E+05  3.409555E+04  3.273008E+05 -9.748319E-10  3.706920E-09
       267  11  8.509253E+05  1.435581E+05  2.614365E+04  3.160761E+05 -1.684348E-09 -3.290861E-09
       267  12  8.280600E+05  1.429799E+05  2.009691E+04  3.178088E+05 -7.223059E-09 -1.222468E-08
       267  13  7.609602E+05  1.191943E+05  6.828685E+03  2.988569E+05  1.190825E-09  2.761572E-09
       267  14  7.663024E+05  1.114199E+05  3.499465E+03  2.926725E+05  3.625079E-09 -9.165423E-09
       267  15  7.607385E+05  1.176477E+05  2.063437E+03  2.994454E+05 -3.761234E-09  1.509012E-08
       267  16  6.590427E+05  8.024831E+04 -2.043916E+04  2.704171E+05 -4.589178E-10 -4.133321E-09
       267  17  6.816863E+05  7.928226E+04 -1.914538E+04  2.692716E+05  5.331304E-09  1.589509E-08
       267  18  6.934213E+05  9.231567E+04 -1.597044E+04  2.810838E+05  7.716385E-10  4.504716E-09
       267  19  8.628874E+05  1.581410E+05  3.409562E+04  3.273008E+05 -5.775194E+03  1.309350E+03
       267  20  8.509253E+05  1.435581E+05  2.614368E+04  3.160761E+05 -3.716436E+03  1.316423E+03
       267  21  8.280600E+05  1.429799E+05  2.009692E+04  3.178088E+05 -1.643193E+03  1.285787E+03
       267  22  7.609602E+05  1.191943E+05  6.828756E+03  2.988569E+05 -6.041311E+03  1.208285E+03
       267  23  7.663024E+05  1.114200E+05  3.499498E+03  2.926725E+05 -3.998126E+03  1.209403E+03
       267  24  7.607385E+05  1.176477E+05  2.063446E+03  2.994454E+05 -1.940402E+03  1.172831E+03
       267  25  6.590428E+05  8.024832E+04 -2.043908E+04  2.704171E+05 -6.307381E+03  1.107239E+03
       267  26  6.816863E+05  7.928227E+04 -1.914534E+04  2.692716E+05 -4.279774E+03  1.102400E+03
       267  27  6.934213E+05  9.231567E+04 -1.597042E+04  2.810838E+05 -2.237575E+03  1.059888E+03
       268   1  7.972353E+05  1.317020E+05  1.136381E+04  3.093817E+05  1.190706E+03 -9.771397E+02
       268   2  7.858065E+05  1.190679E+05  6.234512E+03  2.980452E+05  3.899221E+02 -4.749665E+02
       268   3  7.628054E+05  1.184734E+05  1.578688E+03  2.998784E+05 -4.115942E+02  2.909038E+01
       268   4  7.606795E+05  1.178232E+05  1.645817E+03  2.992606E+05  1.475666E+03 -8.688237E+02
       268   5  7.664553E+05  1.117289E+05  1.057980E+03  2.927041E+05  6.756698E+02 -3.663436E+02
       268   6  7.606583E+05  1.176742E+05  9.430547E+02  2.993173E+05 -1.250760E+02  1.380157E+02
       268   7  7.241251E+05  1.039445E+05 -8.072272E+03  2.891399E+05  1.760606E+03 -7.605150E+02
       268   8  7.471044E+05  1.043900E+05 -4.118584E+03  2.873632E+05  9.614077E+02 -2.577243E+02
       268   9  7.585111E+05  1.168751E+05  3.074195E+02  2.987562E+05  1.614418E+02  2.469408E+02
       268  10  7.972353E+05  1.317020E+05  1.136381E+04  3.093817E+05  4.939728E-09 -1.039802E-08
       268  11  7.858065E+05  1.190679E+05  6.234512E+03  2.980452E+05  5.494214E-09  5.169592E-09
       268  12  7.628054E+05  1.184734E+05  1.578688E+03  2.998784E+05 -9.434842E-11 -1.895244E-09
       268  13  7.606795E+05  1.178232E+05  1.645811E+03  2.992606E+05 -6.273897E-10  3.434626E-09
       268  14  7.664553E+05  1.117289E+05  1.057979E+03  2.927041E+05  1.945356E-09 -1.677673E-08
       268  15  7.606583E+05  1.176742E+05  9.430546E+02  2.993173E+05 -3.537037E-10 -9.183395E-09
       268  16  7.241251E+05  1.039445E+05 -8.072279E+03  2.891399E+05 -8.587415E-09  7.873466E-09
       268  17  7.471044E+05  1.043900E+05 -4.118586E+03  2.873632E+05 -1.082973E-09 -2.730020E-09
       268  18  7.585111E+05  1.168751E+05  3.074193E+02  2.987562E+05  1.885934E-09  2.398622E-09
       268  19  7.972353E+05  1.317020E+05  1.136381E+04  3.093817E+05 -1.190706E+03  9.771397E+02
       268  20  7.858065E+05  1.190679E+05  6.234512E+03  2.980452E+05 -3.899221E+02  4.749665E+02
       268  21  7.628054E+05  1.184734E+05  1.578688E+03  2.998784E+05  4.115942E+02 -2.909038E+01
       268  22  7.606795E+05  1.178232E+05  1.645817E+03  2.992606E+05 -1.475666E+03  8.688237E+02
       268  23  7.664553E+05  1.117289E+05  1.057980E+03  2.927041E+05 -6.756698E+02  3.663436E+02
       268  24  7.606583E+05  1.176742E+05  9.430547E+02  2.993173E+05  1.250760E+02 -1.380157E+02
       268  25  7.241251E+05  1.039445E+05 -8.072272E+03  2.891399E+05 -1.760606E+03  7.605150E+02
       268  26  7.471044E+05  1.043900E+05 -4.118584E+03  2.873632E+05 -9.614077E+02  2.577243E+02
       268  27  7.585111E+05  1.168751E+05  3.074195E+02  2.987562E+05 -1.614418E+02 -2.469408E+02
       269   1  7.323401E+05  1.069641E+05 -6.635866E+03  2.915694E+05 -7.287111E+02  3.799821E+02
       269   2  7.208730E+05  9.441922E+04 -1.082499E+04  2.801167E+05 -1.686072E+03  8.263570E+02
       269   3  6.978581E+05  9.406931E+04 -1.439380E+04  2.818631E+05 -2.643483E+03  1.273249E+03
       269   4  7.606583E+05  1.176726E+05  9.976675E+02  2.993374E+05 -4.421446E+02  4.889219E+02
       269   5  7.664501E+05  1.116993E+05  1.366615E+03  2.926906E+05 -1.399362E+03  9.353307E+02
       269   6  7.606937E+05  1.179208E+05  2.355718E+03  2.992427E+05 -2.356650E+03  1.382250E+03
       269   7  7.889771E+05  1.283812E+05  8.631129E+03  3.071057E+05 -1.555637E+02  5.978671E+02
       269   8  8.120291E+05  1.289795E+05  1.355803E+04  3.052653E+05 -1.112629E+03  1.044313E+03
       269   9  8.235330E+05  1.417725E+05  1.910485E+04  3.166239E+05 -2.069786E+03  1.491263E+03
       269  10  7.323401E+05  1.069641E+05 -6.635867E+03  2.915694E+05  6.420947E-09 -7.501360E-09
       269  11  7.208730E+05  9.441922E+04 -1.082500E+04  2.801167E+05  5.262916E-09  1.362967E-09
       269  12  6.978581E+05  9.406931E+04 -1.439382E+04  2.818631E+05 -2.086418E-09 -1.237783E-08
       269  13  7.606583E+05  1.176726E+05  9.976667E+02  2.993374E+05  1.975197E-09  1.769277E-09
       269  14  7.664501E+05  1.116993E+05  1.366610E+03  2.926906E+05  5.141800E-09 -2.027774E-08
       269  15  7.606937E+05  1.179208E+05  2.355704E+03  2.992427E+05  4.094028E-09  8.448049E-10
       269  16  7.889771E+05  1.283812E+05  8.631129E+03  3.071057E+05 -1.946478E-09 -2.170692E-09
       269  17  8.120291E+05  1.289795E+05  1.355802E+04  3.052653E+05  3.346167E-09 -8.302336E-09
       269  18  8.235330E+05  1.417725E+05  1.910484E+04  3.166239E+05  7.210114E-09 -2.009467E-08
       269  19  7.323401E+05  1.069641E+05 -6.635866E+03  2.915694E+05  7.287111E+02 -3.799821E+02
       269  20  7.208730E+05  9.441922E+04 -1.082499E+04  2.801167E+05  1.686072E+03 -8.263570E+02
       269  21  6.978581E+05  9.406931E+04 -1.439380E+04  2.818631E+05  2.643483E+03 -1.273249E+03
       269  22  7.606583E+05  1.176726E+05  9.976675E+02  2.993374E+05  4.421446E+02 -4.889219E+02
       269  23  7.664501E+05  1.116993E+05  1.366615E+03  2.926906E+05  1.399362E+03 -9.353307E+02
       269  24  7.606937E+05  1.179208E+05  2.355718E+03  2.992427E+05  2.356650E+03 -1.382250E+03
       269  25  7.889771E+05  1.283812E+05  8.631129E+03  3.071057E+05  1.555637E+02 -5.978671E+02
       269  26  8.120291E+05  1.289795E+05  1.355803E+04  3.052653E+05  1.112629E+03 -1.044313E+03
       269  27  8.235330E+05  1.417725E+05  1.910485E+04  3.166239E+05  2.069786E+03 -1.491263E+03
       270   1  6.668567E+05  8.233924E+04 -2.211541E+04  2.739309E+05 -3.260336E+03  1.524271E+03
       270   2  6.548744E+05  6.893574E+04 -2.457204E+04  2.618466E+05 -6.185693E+03  1.239729E+03
       270   3  6.323704E+05  7.071848E+04 -2.420455E+04  2.626391E+05 -9.095393E+03  9.147269E+02
       270   4  7.607865E+05  1.176539E+05  3.017145E+03  2.995247E+05 -2.959756E+03  1.638472E+03
       270   5  7.662133E+05  1.112277E+05  5.225838E+03  2.926419E+05 -5.901988E+03  1.347467E+03
       270   6  7.611214E+05  1.199907E+05  1.027172E+04  2.986358E+05 -8.828642E+03  1.015972E+03
       270   7  8.547251E+05  1.529691E+05  2.814899E+04  3.251219E+05 -2.659126E+03  1.752692E+03
       270   8  8.775642E+05  1.535204E+05  3.502267E+04  3.234421E+05 -5.618226E+03  1.455226E+03
       270   9  8.898884E+05  1.692640E+05  4.474654E+04  3.346392E+05 -8.561830E+03  1.117241E+03
       270  10  6.668567E+05  8.233924E+04 -2.211544E+04  2.739309E+05 -1.181598E-08 -1.424343E-08
       270  11  6.548744E+05  6.893573E+04 -2.457212E+04  2.618466E+05 -8.528958E-09  4.904351E-10
       270  12  6.323703E+05  7.071846E+04 -2.420471E+04  2.626391E+05  6.269580E-09 -7.560192E-09
       270  13  7.607865E+05  1.176539E+05  3.017124E+03  2.995247E+05 -1.856208E-09 -7.894016E-09
       270  14  7.662132E+05  1.112277E+05  5.225769E+03  2.926419E+05 -2.083122E-09 -2.320547E-09
       270  15  7.611213E+05  1.199906E+05  1.027158E+04  2.986358E+05 -2.030356E-10  1.104506E-10
       270  16  8.547251E+05  1.529691E+05  2.814897E+04  3.251220E+05  1.146034E-08  6.166125E-09
       270  17  8.775641E+05  1.535204E+05  3.502260E+04  3.234421E+05  5.077282E-10  3.536581E-08
       270  18  8.898883E+05  1.692640E+05  4.474640E+04  3.346392E+05 -8.856942E-09  1.520342E-09
       270  19  6.668567E+05  8.233924E+04 -2.211541E+04  2.739309E+05  3.260336E+03 -1.524271E+03
       270  20  6.548744E+05  6.893574E+04 -2.457204E+04  2.618466E+05  6.185693E+03 -1.239729E+03
       270  21  6.323704E+05  7.071848E+04 -2.420455E+04  2.626391E+05  9.095393E+03 -9.147269E+02
       270  22  7.607865E+05  1.176539E+05  3.017145E+03  2.995247E+05  2.959756E+03 -1.638472E+03
       270  23  7.662133E+05  1.112277E+05  5.225838E+03  2.926419E+05  5.901988E+03 -1.347467E+03
       270  24  7.611214E+05  1.199907E+05  1.027172E+04  2.986358E+05  8.828642E+03 -1.015972E+03
       270  25  8.547251E+05  1.529691E+05  2.814899E+04  3.251219E+05  2.659126E+03 -1.752692E+03
       270  26  8.775642E+05  1.535204E+05  3.502267E+04  3.234421E+05  5.618226E+03 -1.455226E+03
       270  27  8.898884E+05  1.692640E+05  4.474654E+04  3.346392E+05  8.561830E+03 -1.117241E+03
       271   1  5.993424E+05  5.794058E+04 -3.002901E+04  2.581099E+05 -1.133733E+04  6.500056E+02
       271   2  5.855364E+05  3.903405E+04 -2.554537E+04  2.424762E+05 -2.313789E+04 -2.960348E+03
       271   3  5.704774E+05  5.854026E+04 -5.415324E+03  2.345555E+05 -3.473473E+04 -7.105783E+03
       271   4  7.620416E+05  1.171996E+05  1.308071E+04  3.005093E+05 -1.092288E+04  8.073443E+02
       271   5  7.640668E+05  1.078699E+05  2.242397E+04  2.928952E+05 -2.294344E+04 -2.886716E+03
       271   6  7.648792E+05  1.369911E+05  4.758435E+04  2.929941E+05 -3.476067E+04 -7.116078E+03
       271   7  9.247659E+05  1.764597E+05  5.618806E+04  3.429184E+05 -1.050831E+04  9.647241E+02
       271   8  9.426278E+05  1.767080E+05  7.039049E+04  3.433274E+05 -2.274893E+04 -2.813059E+03
       271   9  9.593179E+05  2.154458E+05  1.005807E+05  3.514498E+05 -3.478661E+04 -7.126377E+03
       271  10  5.993423E+05  5.794055E+04 -3.002926E+04  2.581099E+05  4.555424E-09  6.625127E-10
       271  11  5.855359E+05  3.903390E+04 -2.554639E+04  2.424762E+05  1.446304E-09  1.557544E-08
       271  12  5.704761E+05  5.853988E+04 -5.417684E+03  2.345553E+05 -3.635433E-10  7.292148E-09
       271  13  7.620415E+05  1.171996E+05  1.308049E+04  3.005093E+05 -2.284505E-09 -1.375840E-08
       271  14  7.640662E+05  1.078697E+05  2.242297E+04  2.928952E+05  3.139184E-09  1.247373E-08
       271  15  7.648779E+05  1.369907E+05  4.758199E+04  2.929939E+05  1.890358E-09  2.495823E-09
       271  16  9.247658E+05  1.764597E+05  5.618785E+04  3.429184E+05 -4.637253E-09 -7.356020E-09
       271  17  9.426272E+05  1.767078E+05  7.038951E+04  3.433273E+05 -1.204823E-09  1.092190E-08
       271  18  9.593166E+05  2.154455E+05  1.005784E+05  3.514496E+05 -1.398479E-09  1.181408E-09
       271  19  5.993424E+05  5.794058E+04 -3.002901E+04  2.581099E+05  1.133733E+04 -6.500056E+02
       271  20  5.855364E+05  3.903405E+04 -2.554537E+04  2.424762E+05  2.313789E+04  2.960348E+03
       271  21  5.704774E+05  5.854026E+04 -5.415324E+03  2.345555E+05  3.473473E+04  7.105783E+03
       271  22  7.620416E+05  1.171996E+05  1.308071E+04  3.005093E+05  1.092288E+04 -8.073443E+02
       271  23  7.640668E+05  1.078699E+05  2.242397E+04  2.928952E+05  2.294344E+04  2.886716E+03
       271  24  7.648792E+05  1.369911E+05  4.758435E+04  2.929941E+05  3.476067E+04  7.116078E+03
       271  25  9.247659E+05  1.764597E+05  5.618806E+04  3.429184E+05  1.050831E+04 -9.647241E+02
       271  26  9.426278E+05  1.767080E+05  7.039049E+04  3.433274E+05  2.274893E+04  2.813059E+03
       271  27  9.593179E+05  2.154458E+05  1.005807E+05  3.514498E+05  3.478661E+04  7.126377E+03
       272   1  5.268193E+05  3.880861E+04 -3.580546E+03  2.594723E+05 -4.524261E+04 -9.579519E+03
       272   2  5.045223E+05 -2.211375E+04  2.799297E+04  2.177330E+05 -9.524868E+04 -2.750592E+04
       272   3  5.563443E+05  1.437416E+05  1.551910E+05  1.351113E+05 -1.430432E+05 -5.126106E+04
       272   4  7.721747E+05  1.124350E+05  5.825736E+04  3.074083E+05 -4.370779E+04 -8.995926E+03
       272   5  7.467225E+05  8.145005E+04  9.492943E+04  2.965319E+05 -9.609482E+04 -2.782912E+04
       272   6  7.958240E+05  2.776569E+05  2.290827E+05  2.447826E+05 -1.462704E+05 -5.249596E+04
       272   7  1.017589E+06  1.860607E+05  1.200909E+05  3.553591E+05 -4.217230E+04 -8.412197E+03
       272   8  9.889790E+05  1.850218E+05  1.618602E+05  3.753598E+05 -9.694132E+04 -2.815248E+04
       272   9  1.035362E+06  4.115983E+05  3.029683E+05  3.544978E+05 -1.494989E+05 -5.373192E+04
       272  10  5.268170E+05  3.880797E+04 -3.584561E+03  2.594719E+05  6.287416E-09  9.001651E-09
       272  11  5.045123E+05 -2.211699E+04  2.797452E+04  2.177309E+05  7.435629E-10  9.242420E-09
       272  12  5.563217E+05  1.437333E+05  1.551477E+05  1.351054E+05 -1.939289E-09  1.518918E-09
       272  13  7.721727E+05  1.124344E+05  5.825362E+04  3.074080E+05  6.053903E-10 -6.014286E-09
       272  14  7.467124E+05  8.144674E+04  9.491065E+04  2.965298E+05 -4.536941E-09 -4.877083E-09
       272  15  7.958003E+05  2.776482E+05  2.290374E+05  2.447764E+05 -4.745261E-10 -1.953547E-08
       272  16  1.017587E+06  1.860601E+05  1.200874E+05  3.553588E+05 -6.243722E-09 -6.405333E-09
       272  17  9.889687E+05  1.850184E+05  1.618411E+05  3.753576E+05 -3.370101E-09 -2.035087E-09
       272  18  1.035337E+06  4.115892E+05  3.029209E+05  3.544914E+05  1.439199E-09 -2.169260E-09
       272  19  5.268193E+05  3.880861E+04 -3.580546E+03  2.594723E+05  4.524261E+04  9.579519E+03
       272  20  5.045223E+05 -2.211375E+04  2.799297E+04  2.177330E+05  9.524868E+04  2.750592E+04
       272  21  5.563443E+05  1.437416E+05  1.551910E+05  1.351113E+05  1.430432E+05  5.126106E+04
       272  22  7.721747E+05  1.124350E+05  5.825736E+04  3.074083E+05  4.370779E+04  8.995926E+03
       272  23  7.467225E+05  8.145005E+04  9.492943E+04  2.965319E+05  9.609482E+04  2.782912E+04
       272  24  7.958240E+05  2.776569E+05  2.290827E+05  2.447826E+05  1.462704E+05  5.249596E+04
       272  25  1.017589E+06  1.860607E+05  1.200909E+05  3.553591E+05  4.217230E+04  8.412197E+03
       272  26  9.889790E+05  1.850218E+05  1.618602E+05  3.753598E+05  9.694132E+04  2.815248E+04
       272  27  1.035362E+06  4.115983E+05  3.029683E+05  3.544978E+05  1.494989E+05  5.373192E+04
       273   1 -1.182695E+05 -9.326331E+05 -1.339825E+05  3.525794E+04 -1.923651E+03 -5.121950E+04
       273   2 -4.240488E+04 -8.915260E+05 -8.501209E+04  1.044397E+04 -5.955983E+03 -3.056473E+04
       273   3 -4.290081E+04 -8.719088E+05 -6.854296E+04  1.177572E+04 -4.859758E+03 -9.890034E+03
       273   4 -5.811362E+04 -6.923736E+05 -7.442455E+04  1.835485E+04 -1.932659E+03 -4.841763E+04
       273   5  9.771070E+03 -6.818128E+05 -3.423391E+04  5.391837E+03 -5.957756E+03 -2.996966E+04
       273   6  1.692307E+03 -6.923518E+05 -2.500220E+04  1.857498E+04 -4.854269E+03 -1.150287E+04
       273   7  2.039003E+03 -4.520610E+05 -1.487070E+04  1.445246E+03 -1.941819E+03 -4.561468E+04
       273   8  6.194388E+04 -4.720594E+05  1.654112E+04  3.380234E+02 -5.959538E+03 -2.937439E+04
       273   9  4.628325E+04 -5.127652E+05  1.853627E+04  2.537623E+04 -4.848816E+03 -1.311618E+04
       273  10 -1.182702E+05 -9.326359E+05 -1.339875E+05  3.525786E+04  7.976116E-10 -4.165370E-10
       273  11 -4.240517E+04 -8.915270E+05 -8.501392E+04  1.044383E+04  1.914819E-09 -1.510815E-09
       273  12 -4.290087E+04 -8.719089E+05 -6.854319E+04  1.177568E+04 -2.089379E-09  2.832291E-09
       273  13 -5.811426E+04 -6.923761E+05 -7.442896E+04  1.835477E+04  4.450990E-09 -3.685643E-09
       273  14  9.770790E+03 -6.818138E+05 -3.423567E+04  5.391693E+03 -7.284191E-10 -5.615184E-09
       273  15  1.692246E+03 -6.923519E+05 -2.500249E+04  1.857493E+04  1.613384E-09 -2.743337E-09
       273  16  2.038440E+03 -4.520632E+05 -1.487462E+04  1.445174E+03  1.887642E-09 -1.724982E-09
       273  17  6.194361E+04 -4.720603E+05  1.653943E+04  3.378824E+02  5.688729E-09  1.035578E-08
       273  18  4.628317E+04 -5.127653E+05  1.853591E+04  2.537618E+04 -1.972751E-09  1.943204E-09
       273  19 -1.182695E+05 -9.326331E+05 -1.339825E+05  3.525794E+04  1.923651E+03  5.121950E+04
       273  20 -4.240488E+04 -8.915260E+05 -8.501209E+04  1.044397E+04  5.955983E+03  3.056473E+04
       273  21 -4.290081E+04 -8.719088E+05 -6.854296E+04  1.177572E+04  4.859758E+03  9.890034E+03
       273  22 -5.811362E+04 -6.923736E+05 -7.442455E+04  1.835485E+04  1.932659E+03  4.841763E+04
       273  23  9.771070E+03 -6.818128E+05 -3.423391E+04  5.391837E+03  5.957756E+03  2.996966E+04
       273  24  1.692307E+03 -6.923518E+05 -2.500220E+04  1.857498E+04  4.854269E+03  1.150287E+04
       273  25  2.039003E+03 -4.520610E+05 -1.487070E+04  1.445246E+03  1.941819E+03  4.561468E+04
       273  26  6.194388E+04 -4.720594E+05  1.654112E+04  3.380234E+02  5.959538E+03  2.937439E+04
       273  27  4.628325E+04 -5.127652E+05  1.853627E+04  2.537623E+04  4.848816E+03  1.311618E+04
       274   1 -3.869682E+04 -8.185707E+05 -5.422409E+04  2.181966E+04 -3.418274E+03 -7.095064E+03
       274   2 -2.194375E+04 -7.845948E+05 -4.271960E+04  5.337963E+03 -2.722371E+03  2.749109E+03
       274   3 -2.526435E+04 -7.566832E+05 -4.259926E+04  1.576288E+04 -1.685610E+03  1.259465E+04
       274   4 -6.446499E+03 -6.890049E+05 -2.276801E+04  1.866937E+04 -3.417383E+03 -7.337074E+03
       274   5  2.576205E+03 -6.859855E+05 -1.880993E+04  5.213166E+03 -2.721064E+03  2.361510E+03
       274   6 -8.447698E+03 -6.890051E+05 -2.613344E+04  1.866347E+04 -1.683820E+03  1.206098E+04
       274   7  2.580262E+04 -5.594239E+05  8.686851E+03  1.551843E+04 -3.416489E+03 -7.579135E+03
       274   8  2.709544E+04 -5.873674E+05  5.099034E+03  5.088355E+03 -2.719758E+03  1.973849E+03
       274   9  8.368653E+03 -6.213228E+05 -9.667935E+03  2.156438E+04 -1.682035E+03  1.152725E+04
       274  10 -3.869685E+04 -8.185707E+05 -5.422420E+04  2.181965E+04 -2.054736E-09  7.623025E-09
       274  11 -2.194376E+04 -7.845948E+05 -4.271963E+04  5.337969E+03  5.148753E-10  3.120230E-10
       274  12 -2.526440E+04 -7.566834E+05 -4.259957E+04  1.576290E+04  2.306581E-10  2.109216E-09
       274  13 -6.446526E+03 -6.890050E+05 -2.276814E+04  1.866935E+04 -3.195418E-09 -7.299199E-09
       274  14  2.576196E+03 -6.859855E+05 -1.880996E+04  5.213171E+03 -8.603483E-10 -3.059120E-09
       274  15 -8.447741E+03 -6.890053E+05 -2.613372E+04  1.866349E+04 -1.923110E-09 -1.294047E-09
       274  16  2.580259E+04 -5.594239E+05  8.686721E+03  1.551840E+04 -1.184716E-09 -6.592035E-09
       274  17  2.709543E+04 -5.873674E+05  5.099012E+03  5.088359E+03  9.304253E-10  7.845867E-09
       274  18  8.368614E+03 -6.213230E+05 -9.668190E+03  2.156440E+04  9.516507E-10  1.654452E-09
       274  19 -3.869682E+04 -8.185707E+05 -5.422409E+04  2.181966E+04  3.418274E+03  7.095064E+03
       274  20 -2.194375E+04 -7.845948E+05 -4.271960E+04  5.337963E+03  2.722371E+03 -2.749109E+03
       274  21 -2.526435E+04 -7.566832E+05 -4.259926E+04  1.576288E+04  1.685610E+03 -1.259465E+04
       274  22 -6.446499E+03 -6.890049E+05 -2.276801E+04  1.866937E+04  3.417383E+03  7.337074E+03
       274  23  2.576205E+03 -6.859855E+05 -1.880993E+04  5.213166E+03  2.721064E+03 -2.361510E+03
       274  24 -8.447698E+03 -6.890051E+05 -2.613344E+04  1.866347E+04  1.683820E+03 -1.206098E+04
       274  25  2.580262E+04 -5.594239E+05  8.686851E+03  1.551843E+04  3.416489E+03  7.579135E+03
       274  26  2.709544E+04 -5.873674E+05  5.099034E+03  5.088355E+03  2.719758E+03 -1.973849E+03
       274  27  8.368653E+03 -6.213228E+05 -9.667935E+03  2.156438E+04  1.682035E+03 -1.152725E+04
       275   1 -1.595508E+03 -7.107651E+05 -3.385339E+04  2.801607E+04 -7.423223E+02  1.770762E+04
       275   2  1.599372E+04 -6.662698E+05 -3.957829E+04 -6.181350E+02  3.378329E+02  4.033064E+04
       275   3 -6.326451E+04 -6.487202E+05 -8.420720E+04 -2.409325E+03  9.339923E+01  6.295034E+04
       275   4  2.717907E+03 -6.936665E+05 -2.975336E+04  1.874057E+04 -7.400784E+02  1.692404E+04
       275   5  1.249932E+04 -6.801555E+05 -4.293012E+04  5.193959E+03  3.388945E+02  4.011782E+04
       275   6 -7.466821E+04 -6.936925E+05 -9.540899E+04  1.849060E+04  9.436265E+01  6.330714E+04
       275   7  7.031624E+03 -6.765675E+05 -2.565331E+04  9.464825E+03 -7.378110E+02  1.614044E+04
       275   8  9.005034E+03 -6.940410E+05 -4.628195E+04  1.100592E+04  3.399521E+02  3.990500E+04
       275   9 -8.607044E+04 -7.386621E+05 -1.066107E+05  3.938900E+04  9.535021E+01  6.366390E+04
       275  10 -1.595592E+03 -7.107655E+05 -3.385398E+04  2.801608E+04  7.054399E-11  9.985205E-09
       275  11  1.599328E+04 -6.662715E+05 -3.958135E+04 -6.181460E+02  5.692819E-10 -4.190007E-10
       275  12 -6.326558E+04 -6.487245E+05 -8.421466E+04 -2.409329E+03 -7.808898E-10 -5.514558E-09
       275  13  2.717830E+03 -6.936668E+05 -2.975390E+04  1.874058E+04  1.984554E-09  1.736770E-09
       275  14  1.249889E+04 -6.801572E+05 -4.293315E+04  5.193948E+03 -1.408725E-09 -1.344769E-08
       275  15 -7.466929E+04 -6.936968E+05 -9.541653E+04  1.849059E+04  3.629209E-10 -1.579812E-10
       275  16  7.031553E+03 -6.765677E+05 -2.565380E+04  9.464835E+03 -1.074543E-09 -8.818786E-09
       275  17  9.004606E+03 -6.940427E+05 -4.628495E+04  1.100591E+04 -3.805988E-09  3.760262E-09
       275  18 -8.607153E+04 -7.386664E+05 -1.066183E+05  3.938899E+04 -1.514924E-09  1.007444E-08
       275  19 -1.595508E+03 -7.107651E+05 -3.385339E+04  2.801607E+04  7.423223E+02 -1.770762E+04
       275  20  1.599372E+04 -6.662698E+05 -3.957829E+04 -6.181350E+02 -3.378329E+02 -4.033064E+04
       275  21 -6.326451E+04 -6.487202E+05 -8.420720E+04 -2.409325E+03 -9.339923E+01 -6.295034E+04
       275  22  2.717907E+03 -6.936665E+05 -2.975336E+04  1.874057E+04  7.400784E+02 -1.692404E+04
       275  23  1.249932E+04 -6.801555E+05 -4.293012E+04  5.193959E+03 -3.388945E+02 -4.011782E+04
       275  24 -7.466821E+04 -6.936925E+05 -9.540899E+04  1.849060E+04 -9.436265E+01 -6.330714E+04
       275  25  7.031624E+03 -6.765675E+05 -2.565331E+04  9.464825E+03  7.378110E+02 -1.614044E+04
       275  26  9.005034E+03 -6.940410E+05 -4.628195E+04  1.100592E+04 -3.399521E+02 -3.990500E+04
       275  27 -8.607044E+04 -7.386621E+05 -1.066107E+05  3.938900E+04 -9.535021E+01 -6.366390E+04
       276   1  1.500557E+05 -5.094180E+04 -3.416848E+04 -5.956838E+01  4.519044E+04  3.981598E+03
       276   2  1.706492E+05 -1.103130E+05 -6.594101E+04  1.840129E+03  3.164880E+04  1.167263E+04
       276   3  2.117659E+05 -9.594819E+04 -7.040157E+04 -2.288558E+04  1.811736E+04  1.046800E+04
       276   4  5.866342E+05  5.788316E+04  7.381838E+04 -1.568311E+04  5.046758E+04  3.987436E+03
       276   5  5.760561E+05 -9.667330E+03  3.209388E+04 -2.332265E+03  3.307161E+04  1.167345E+04
       276   6  5.866545E+05 -2.839544E+03  2.034260E+04 -1.560523E+04  1.568659E+04  1.046587E+04
       276   7  1.023386E+06  1.666948E+05  1.817913E+05 -3.131770E+04  5.574842E+04  3.993007E+03
       276   8  9.816131E+05  9.096635E+04  1.301170E+05 -6.507432E+03  3.449534E+04  1.167426E+04
       276   9  9.616715E+05  9.025901E+04  1.110767E+05 -8.320496E+03  1.325435E+04  1.046368E+04
       276  10  1.500535E+05 -5.094237E+04 -3.417234E+04 -5.971330E+01  2.558685E-10  1.200873E-10
       276  11  1.706481E+05 -1.103134E+05 -6.594315E+04  1.839832E+03 -2.511168E-10  1.520029E-10
       276  12  2.117656E+05 -9.594840E+04 -7.040239E+04 -2.288574E+04  5.604675E-11 -1.324523E-10
       276  13  5.866315E+05  5.788246E+04  7.381357E+04 -1.568327E+04  4.700768E-10  1.000991E-10
       276  14  5.760549E+05 -9.667770E+03  3.209157E+04 -2.332576E+03  1.398251E-10  1.417333E-10
       276  15  5.866542E+05 -2.839728E+03  2.034193E+04 -1.560536E+04  1.298901E-10 -1.067934E-10
       276  16  1.023383E+06  1.666940E+05  1.817855E+05 -3.131788E+04  2.065323E-10  1.515379E-11
       276  17  9.816118E+05  9.096588E+04  1.301145E+05 -6.507756E+03  2.069357E-10  1.199690E-10
       276  18  9.616713E+05  9.025885E+04  1.110762E+05 -8.320607E+03  4.431836E-10 -5.011795E-11
       276  19  1.500557E+05 -5.094180E+04 -3.416848E+04 -5.956838E+01 -4.519044E+04 -3.981598E+03
       276  20  1.706492E+05 -1.103130E+05 -6.594101E+04  1.840129E+03 -3.164880E+04 -1.167263E+04
       276  21  2.117659E+05 -9.594819E+04 -7.040157E+04 -2.288558E+04 -1.811736E+04 -1.046800E+04
       276  22  5.866342E+05  5.788316E+04  7.381838E+04 -1.568311E+04 -5.046758E+04 -3.987436E+03
       276  23  5.760561E+05 -9.667330E+03  3.209388E+04 -2.332265E+03 -3.307161E+04 -1.167345E+04
       276  24  5.866545E+05 -2.839544E+03  2.034260E+04 -1.560523E+04 -1.568659E+04 -1.046587E+04
       276  25  1.023386E+06  1.666948E+05  1.817913E+05 -3.131770E+04 -5.574842E+04 -3.993007E+03
       276  26  9.816131E+05  9.096635E+04  1.301170E+05 -6.507432E+03 -3.449534E+04 -1.167426E+04
       276  27  9.616715E+05  9.025901E+04  1.110767E+05 -8.320496E+03 -1.325435E+04 -1.046368E+04
       277   1  2.565735E+05 -7.431443E+04 -6.242354E+04 -1.389893E+04  1.245667E+04  8.487796E+03
       277   2  2.848010E+05 -7.475536E+04 -6.341342E+04 -2.231532E+03  8.486040E+03  8.130517E+03
       277   3  3.158615E+05 -6.659156E+04 -5.963362E+04 -1.634349E+04  4.514966E+03  7.000707E+03
       277   4  5.825966E+05  6.674842E+03  1.665959E+04 -1.544346E+04  1.247468E+04  8.487484E+03
       277   5  5.811547E+05 -1.158977E+03  8.354497E+03 -2.552113E+03  8.168190E+03  8.130114E+03
       277   6  5.826018E+05 -3.320488E+02  5.050392E+03 -1.543930E+04  3.861442E+03  7.000363E+03
       277   7  9.087168E+05  8.765633E+04  9.573505E+04 -1.698881E+04  1.249270E+04  8.487172E+03
       277   8  8.775886E+05  7.243098E+04  8.011610E+04 -2.872858E+03  7.850189E+03  8.129712E+03
       277   9  8.494071E+05  6.592225E+04  6.972928E+04 -1.453472E+04  3.207638E+03  7.000017E+03
       277  10  2.565733E+05 -7.431455E+04 -6.242396E+04 -1.389901E+04 -1.761218E-10 -4.416548E-11
       277  11  2.848009E+05 -7.475545E+04 -6.341368E+04 -2.231587E+03 -4.176153E-10  2.565625E-10
       277  12  3.158615E+05 -6.659162E+04 -5.963375E+04 -1.634351E+04  2.826362E-11 -2.758829E-10
       277  13  5.825965E+05  6.674723E+03  1.665916E+04 -1.544354E+04  3.813763E-10 -1.033193E-12
       277  14  5.811546E+05 -1.159065E+03  8.354247E+03 -2.552167E+03 -1.590540E-10  9.785559E-11
       277  15  5.826018E+05 -3.321054E+02  5.050272E+03 -1.543932E+04  4.537260E-10 -1.210443E-10
       277  16  9.087166E+05  8.765621E+04  9.573462E+04 -1.698890E+04  5.582730E-10  6.651768E-12
       277  17  8.775885E+05  7.243089E+04  8.011586E+04 -2.872909E+03  5.732064E-10  1.044736E-10
       277  18  8.494070E+05  6.592219E+04  6.972917E+04 -1.453474E+04 -5.857772E-11 -1.875923E-10
       277  19  2.565735E+05 -7.431443E+04 -6.242354E+04 -1.389893E+04 -1.245667E+04 -8.487796E+03
       277  20  2.848010E+05 -7.475536E+04 -6.341342E+04 -2.231532E+03 -8.486040E+03 -8.130517E+03
       277  21  3.158615E+05 -6.659156E+04 -5.963362E+04 -1.634349E+04 -4.514966E+03 -7.000707E+03
       277  22  5.825966E+05  6.674842E+03  1.665959E+04 -1.544346E+04 -1.247468E+04 -8.487484E+03
       277  23  5.811547E+05 -1.158977E+03  8.354497E+03 -2.552113E+03 -8.168190E+03 -8.130114E+03
       277  24  5.826018E+05 -3.320488E+02  5.050392E+03 -1.543930E+04 -3.861442E+03 -7.000363E+03
       277  25  9.087168E+05  8.765633E+04  9.573505E+04 -1.698881E+04 -1.249270E+04 -8.487172E+03
       277  26  8.775886E+05  7.243098E+04  8.011610E+04 -2.872858E+03 -7.850189E+03 -8.129712E+03
       277  27  8.494071E+05  6.592225E+04  6.972928E+04 -1.453472E+04 -3.207638E+03 -7.000017E+03
       278   1  3.626877E+05 -5.371622E+04 -4.907666E+04 -1.516409E+04  3.494084E+03  6.235217E+03
       278   2  3.913410E+05 -4.745133E+04 -4.394082E+04 -2.710939E+03  2.413160E+03  5.194639E+03
       278   3  4.204431E+05 -4.018393E+04 -3.783913E+04 -1.538503E+04  1.331711E+03  4.095072E+03
       278   4  5.820668E+05  7.496202E+02  3.986320E+03 -1.529572E+04  3.057868E+03  6.235013E+03
       278   5  5.818413E+05 -1.437101E+02  2.197969E+03 -2.732296E+03  1.951091E+03  5.194529E+03
       278   6  5.820687E+05 -3.007437E+01  1.393297E+03 -1.529564E+04  8.438391E+02  4.095065E+03
       278   7  8.014898E+05  5.521194E+04  5.704585E+04 -1.542739E+04  2.621499E+03  6.234808E+03
       278   8  7.723748E+05  4.716125E+04  4.833414E+04 -2.753660E+03  1.488881E+03  5.194418E+03
       278   9  7.437181E+05  4.012187E+04  4.062384E+04 -1.520622E+04  3.558411E+02  4.095059E+03
       278  10  3.626876E+05 -5.371627E+04 -4.907676E+04 -1.516411E+04 -3.072826E-10 -3.888782E-10
       278  11  3.913410E+05 -4.745136E+04 -4.394088E+04 -2.710949E+03  7.985606E-10  2.042512E-10
       278  12  4.204431E+05 -4.018395E+04 -3.783917E+04 -1.538504E+04  1.353498E-09  3.009365E-10
       278  13  5.820668E+05  7.495760E+02  3.986229E+03 -1.529573E+04  8.659148E-11 -3.519946E-10
       278  14  5.818413E+05 -1.437401E+02  2.197911E+03 -2.732305E+03  2.077139E-15 -3.634413E-11
       278  15  5.820687E+05 -3.009258E+01  1.393264E+03 -1.529564E+04 -3.144676E-10  2.567805E-10
       278  16  8.014898E+05  5.521190E+04  5.704576E+04 -1.542741E+04  1.939313E-10 -4.044039E-10
       278  17  7.723748E+05  4.716122E+04  4.833409E+04 -2.753666E+03 -9.780267E-10 -3.275840E-10
       278  18  7.437181E+05  4.012185E+04  4.062381E+04 -1.520622E+04 -1.916431E-09  2.997397E-10
       278  19  3.626877E+05 -5.371622E+04 -4.907666E+04 -1.516409E+04 -3.494084E+03 -6.235217E+03
       278  20  3.913410E+05 -4.745133E+04 -4.394082E+04 -2.710939E+03 -2.413160E+03 -5.194639E+03
       278  21  4.204431E+05 -4.018393E+04 -3.783913E+04 -1.538503E+04 -1.331711E+03 -4.095072E+03
       278  22  5.820668E+05  7.496202E+02  3.986320E+03 -1.529572E+04 -3.057868E+03 -6.235013E+03
       278  23  5.818413E+05 -1.437101E+02  2.197969E+03 -2.732296E+03 -1.951091E+03 -5.194529E+03
       278  24  5.820687E+05 -3.007437E+01  1.393297E+03 -1.529564E+04 -8.438391E+02 -4.095065E+03
       278  25  8.014898E+05  5.521194E+04  5.704585E+04 -1.542739E+04 -2.621499E+03 -6.234808E+03
       278  26  7.723748E+05  4.716125E+04  4.833414E+04 -2.753660E+03 -1.488881E+03 -5.194418E+03
       278  27  7.437181E+05  4.012187E+04  4.062384E+04 -1.520622E+04 -3.558411E+02 -4.095059E+03
       279   1  4.667676E+05 -2.851233E+04 -2.666598E+04 -1.518543E+04  1.082791E+03  3.448621E+03
       279   2  4.951651E+05 -2.157097E+04 -2.014111E+04 -2.819404E+03  6.471358E+02  2.364344E+03
       279   3  5.236569E+05 -1.447432E+04 -1.329447E+04 -1.520887E+04  2.112286E+02  1.279284E+03
       279   4  5.819926E+05  8.330298E+01  1.153645E+03 -1.521309E+04  6.143247E+02  3.448665E+03
       279   5  5.819463E+05 -2.154802E+01  8.762898E+02 -2.835459E+03  1.782522E+02  2.364433E+03
       279   6  5.819932E+05  2.890606E+01  9.208935E+02 -1.521310E+04 -2.580531E+02  1.279420E+03
       279   7  6.972296E+05  2.867797E+04  2.897232E+04 -1.524076E+04  1.457723E+02  3.448710E+03
       279   8  6.687343E+05  2.152733E+04  2.189315E+04 -2.851516E+03 -2.906967E+02  2.364522E+03
       279   9  6.403327E+05  1.453188E+04  1.513601E+04 -1.521733E+04 -7.273787E+02  1.279556E+03
       279  10  4.667676E+05 -2.851235E+04 -2.666601E+04 -1.518543E+04 -1.960604E-09  1.900937E-10
       279  11  4.951651E+05 -2.157098E+04 -2.014112E+04 -2.819405E+03 -1.031736E-09 -7.055529E-11
       279  12  5.236569E+05 -1.447432E+04 -1.329448E+04 -1.520887E+04  2.660255E-10 -3.513674E-10
       279  13  5.819925E+05  8.329010E+01  1.153622E+03 -1.521309E+04 -4.851842E-11  2.403576E-10
       279  14  5.819463E+05 -2.155403E+01  8.762792E+02 -2.835459E+03  7.732204E-10  6.619247E-11
       279  15  5.819932E+05  2.890429E+01  9.208903E+02 -1.521310E+04 -3.375819E-10 -1.510831E-10
       279  16  6.972296E+05  2.867796E+04  2.897230E+04 -1.524076E+04  2.218525E-09  3.745603E-10
       279  17  6.687343E+05  2.152732E+04  2.189314E+04 -2.851515E+03  9.829935E-10 -9.031161E-11
       279  18  6.403327E+05  1.453188E+04  1.513601E+04 -1.521733E+04 -3.340798E-10 -1.686015E-10
       279  19  4.667676E+05 -2.851233E+04 -2.666598E+04 -1.518543E+04 -1.082791E+03 -3.448621E+03
       279  20  4.951651E+05 -2.157097E+04 -2.014111E+04 -2.819404E+03 -6.471358E+02 -2.364344E+03
       279  21  5.236569E+05 -1.447432E+04 -1.329447E+04 -1.520887E+04 -2.112286E+02 -1.279284E+03
       279  22  5.819926E+05  8.330298E+01  1.153645E+03 -1.521309E+04 -6.143247E+02 -3.448665E+03
       279  23  5.819463E+05 -2.154802E+01  8.762898E+02 -2.835459E+03 -1.782522E+02 -2.364433E+03
       279  24  5.819932E+05  2.890606E+01  9.208935E+02 -1.521310E+04  2.580531E+02 -1.279420E+03
       279  25  6.972296E+05  2.867797E+04  2.897232E+04 -1.524076E+04 -1.457723E+02 -3.448710E+03
       279  26  6.687343E+05  2.152733E+04  2.189315E+04 -2.851516E+03  2.906967E+02 -2.364522E+03
       279  27  6.403327E+05  1.453188E+04  1.513601E+04 -1.521733E+04  7.273787E+02 -1.279556E+03
       280   1  5.696385E+05 -3.047120E+03 -1.871209E+03 -1.515250E+04  3.368419E+01  6.476066E+02
       280   2  5.978938E+05  3.921400E+03  5.385964E+03 -2.858466E+03 -7.252691E+02 -4.350023E+02
       280   3  6.263121E+05  1.121301E+04  1.321383E+04 -1.522243E+04 -1.484215E+03 -1.513878E+03
       280   4  5.820095E+05  7.242227E+00  1.037414E+03 -1.519151E+04 -4.352345E+02  6.477560E+02
       280   5  5.819283E+05 -4.288165E+01  1.519608E+03 -2.862458E+03 -1.192566E+03 -4.348631E+02
       280   6  5.820091E+05  2.298671E+02  2.571447E+03 -1.519144E+04 -1.949857E+03 -1.513747E+03
       280   7  5.943806E+05  3.061594E+03  3.946027E+03 -1.523052E+04 -9.041624E+02  6.479055E+02
       280   8  5.659630E+05 -4.007182E+03 -2.346767E+03 -2.866450E+03 -1.659852E+03 -4.347239E+02
       280   9  5.377078E+05 -1.075341E+04 -8.071078E+03 -1.516045E+04 -2.415465E+03 -1.513615E+03
       280  10  5.696385E+05 -3.047120E+03 -1.871210E+03 -1.515250E+04  2.558912E-10 -2.055314E-10
       280  11  5.978938E+05  3.921400E+03  5.385963E+03 -2.858467E+03  3.133529E-10 -2.221425E-11
       280  12  6.263121E+05  1.121300E+04  1.321382E+04 -1.522243E+04  1.285057E-10 -1.341073E-10
       280  13  5.820095E+05  7.241726E+00  1.037413E+03 -1.519151E+04  2.963482E-10  2.486655E-11
       280  14  5.819283E+05 -4.288224E+01  1.519605E+03 -2.862459E+03  3.777148E-10  1.434662E-10
       280  15  5.820091E+05  2.298636E+02  2.571435E+03 -1.519144E+04  1.576322E-10  1.713305E-11
       280  16  5.943806E+05  3.061593E+03  3.946025E+03 -1.523052E+04 -1.549424E-10  2.674730E-11
       280  17  5.659630E+05 -4.007183E+03 -2.346772E+03 -2.866450E+03 -1.739757E-10  1.797369E-10
       280  18  5.377078E+05 -1.075342E+04 -8.071093E+03 -1.516045E+04  2.580514E-10 -1.836579E-11
       280  19  5.696385E+05 -3.047120E+03 -1.871209E+03 -1.515250E+04 -3.368419E+01 -6.476066E+02
       280  20  5.978938E+05  3.921400E+03  5.385964E+03 -2.858466E+03  7.252691E+02  4.350023E+02
       280  21  6.263121E+05  1.121301E+04  1.321383E+04 -1.522243E+04  1.484215E+03  1.513878E+03
       280  22  5.820095E+05  7.242227E+00  1.037414E+03 -1.519151E+04  4.352345E+02 -6.477560E+02
       280  23  5.819283E+05 -4.288165E+01  1.519608E+03 -2.862458E+03  1.192566E+03  4.348631E+02
       280  24  5.820091E+05  2.298671E+02  2.571447E+03 -1.519144E+04  1.949857E+03  1.513747E+03
       280  25  5.943806E+05  3.061594E+03  3.946027E+03 -1.523052E+04  9.041624E+02 -6.479055E+02
       280  26  5.659630E+05 -4.007182E+03 -2.346767E+03 -2.866450E+03  1.659852E+03  4.347239E+02
       280  27  5.377078E+05 -1.075341E+04 -8.071078E+03 -1.516045E+04  2.415465E+03  1.513615E+03
       281   1  6.725552E+05  2.236762E+04  2.526434E+04 -1.496736E+04 -1.995862E+03 -2.153546E+03
       281   2  7.005845E+05  2.916529E+04  3.435362E+04 -2.889298E+03 -4.820395E+03 -3.241754E+03
       281   3  7.296524E+05  3.860208E+04  4.594200E+04 -1.565238E+04 -7.644709E+03 -4.278679E+03
       281   4  5.822013E+05 -8.370459E+01  3.297567E+03 -1.523234E+04 -2.477469E+03 -2.153435E+03
       281   5  5.816828E+05 -3.564631E+02  5.561567E+03 -2.811488E+03 -5.279351E+03 -3.241713E+03
       281   6  5.821990E+05  2.006467E+03  1.030950E+04 -1.523207E+04 -8.080886E+03 -4.278705E+03
       281   7  4.918547E+05 -2.253563E+04 -1.866979E+04 -1.549728E+04 -2.959006E+03 -2.153323E+03
       281   8  4.627940E+05 -2.987925E+04 -2.323151E+04 -2.733693E+03 -5.738219E+03 -3.241673E+03
       281   9  4.347654E+05 -3.459073E+04 -2.532456E+04 -1.481186E+04 -8.516960E+03 -4.278731E+03
       281  10  6.725552E+05  2.236762E+04  2.526432E+04 -1.496736E+04 -3.291221E-10 -2.624725E-10
       281  11  7.005845E+05  2.916527E+04  3.435356E+04 -2.889311E+03  1.047806E-11 -3.516243E-11
       281  12  7.296523E+05  3.860205E+04  4.594186E+04 -1.565241E+04 -7.324874E-11  2.128984E-10
       281  13  5.822012E+05 -8.371122E+01  3.297547E+03 -1.523234E+04  2.093743E-10 -1.980070E-10
       281  14  5.816828E+05 -3.564819E+02  5.561495E+03 -2.811502E+03 -8.220995E-11 -5.010683E-11
       281  15  5.821989E+05  2.006430E+03  1.030935E+04 -1.523210E+04  2.769979E-10  2.284441E-11
       281  16  4.918547E+05 -2.253564E+04 -1.866982E+04 -1.549728E+04  2.864404E-10 -8.584686E-11
       281  17  4.627939E+05 -2.987927E+04 -2.323159E+04 -2.733708E+03 -3.311343E-10 -2.674818E-11
       281  18  4.347653E+05 -3.459077E+04 -2.532473E+04 -1.481188E+04  1.201320E-10 -4.834205E-11
       281  19  6.725552E+05  2.236762E+04  2.526434E+04 -1.496736E+04  1.995862E+03  2.153546E+03
       281  20  7.005845E+05  2.916529E+04  3.435362E+04 -2.889298E+03  4.820395E+03  3.241754E+03
       281  21  7.296524E+05  3.860208E+04  4.594200E+04 -1.565238E+04  7.644709E+03  4.278679E+03
       281  22  5.822013E+05 -8.370459E+01  3.297567E+03 -1.523234E+04  2.477469E+03  2.153435E+03
       281  23  5.816828E+05 -3.564631E+02  5.561567E+03 -2.811488E+03  5.279351E+03  3.241713E+03
       281  24  5.821990E+05  2.006467E+03  1.030950E+04 -1.523207E+04  8.080886E+03  4.278705E+03
       281  25  4.918547E+05 -2.253563E+04 -1.866979E+04 -1.549728E+04  2.959006E+03  2.153323E+03
       281  26  4.627940E+05 -2.987925E+04 -2.323151E+04 -2.733693E+03  5.738219E+03  3.241673E+03
       281  27  4.347654E+05 -3.459073E+04 -2.532456E+04 -1.481186E+04  8.516960E+03  4.278731E+03
       282   1  7.776796E+05  4.737099E+04  6.018660E+04 -1.308783E+04 -9.544593E+03 -5.014774E+03
       282   2  8.031402E+05  5.242313E+04  7.584401E+04 -3.772762E+03 -2.106882E+04 -6.125056E+03
       282   3  8.358628E+05  8.019395E+04  1.046942E+05 -1.975038E+04 -3.259345E+04 -6.592226E+03
       282   4  5.835688E+05 -8.373824E+02  1.310678E+04 -1.533147E+04 -1.016148E+04 -5.014820E+03
       282   5  5.799568E+05 -2.984623E+03  2.181411E+04 -2.687108E+03 -2.140403E+04 -6.125280E+03
       282   6  5.835598E+05  1.754250E+04  4.352229E+04 -1.533580E+04 -3.264646E+04 -6.592649E+03
       282   7  3.894923E+05 -4.904850E+04 -3.397575E+04 -1.757440E+04 -1.077817E+04 -5.014861E+03
       282   8  3.568189E+05 -5.839602E+04 -3.221936E+04 -1.601846E+03 -2.173913E+04 -6.125506E+03
       282   9  3.313150E+05 -4.511354E+04 -1.765419E+04 -1.092303E+04 -3.269944E+04 -6.593072E+03
       282  10  7.776795E+05  4.737094E+04  6.018638E+04 -1.308787E+04 -7.958930E-11  8.360760E-11
       282  11  8.031397E+05  5.242297E+04  7.584311E+04 -3.772866E+03  5.053544E-10  5.014120E-12
       282  12  8.358616E+05  8.019362E+04  1.046921E+05 -1.975055E+04 -3.526208E-10  2.938715E-10
       282  13  5.835687E+05 -8.374371E+02  1.310654E+04 -1.533151E+04 -3.720803E-11  6.315065E-11
       282  14  5.799563E+05 -2.984786E+03  2.181318E+04 -2.687214E+03 -5.126005E-10  3.046892E-11
       282  15  5.835587E+05  1.754217E+04  4.352020E+04 -1.533598E+04 -2.816479E-10  2.491847E-10
       282  16  3.894922E+05 -4.904855E+04 -3.397602E+04 -1.757444E+04  1.101458E-10  4.154946E-11
       282  17  3.568184E+05 -5.839618E+04 -3.222032E+04 -1.601954E+03 -1.059062E-09  2.437471E-11
       282  18  3.313139E+05 -4.511388E+04 -1.765628E+04 -1.092320E+04 -3.222611E-11  3.192302E-10
       282  19  7.776796E+05  4.737099E+04  6.018660E+04 -1.308783E+04  9.544593E+03  5.014774E+03
       282  20  8.031402E+05  5.242313E+04  7.584401E+04 -3.772762E+03  2.106882E+04  6.125056E+03
       282  21  8.358628E+05  8.019395E+04  1.046942E+05 -1.975038E+04  3.259345E+04  6.592226E+03
       282  22  5.835688E+05 -8.373824E+02  1.310678E+04 -1.533147E+04  1.016148E+04  5.014820E+03
       282  23  5.799568E+05 -2.984623E+03  2.181411E+04 -2.687108E+03  2.140403E+04  6.125280E+03
       282  24  5.835598E+05  1.754250E+04  4.352229E+04 -1.533580E+04  3.264646E+04  6.592649E+03
       282  25  3.894923E+05 -4.904850E+04 -3.397575E+04 -1.757440E+04  1.077817E+04  5.014861E+03
       282  26  3.568189E+05 -5.839602E+04 -3.221936E+04 -1.601846E+03  2.173913E+04  6.125506E+03
       282  27  3.313150E+05 -4.511354E+04 -1.765419E+04 -1.092303E+04  3.269944E+04  6.593072E+03
       283   1  8.941947E+05  6.716679E+04  1.257613E+05  3.091930E+03 -3.894606E+04 -8.339983E+03
       283   2  8.966256E+05  5.667549E+04  1.636793E+05 -1.413579E+04 -8.762484E+04 -9.529246E+03
       283   3  9.543066E+05  2.411167E+05  2.820342E+05 -5.738359E+04 -1.363113E+05 -3.321744E+03
       283   4  5.941195E+05 -7.339788E+03  5.314475E+04 -1.545743E+04 -4.103702E+04 -8.339902E+03
       283   5  5.667379E+05 -2.517774E+04  8.394710E+04 -2.510954E+03 -8.649732E+04 -9.530524E+03
       283   6  5.940760E+05  1.514110E+05  1.929830E+05 -1.558267E+04 -1.319627E+05 -3.327377E+03
       283   7  2.941272E+05 -8.185167E+04 -1.947811E+04 -3.399781E+04 -4.312698E+04 -8.339696E+03
       283   8  2.369499E+05 -1.070384E+05  4.207210E+03  9.107678E+03 -8.537040E+04 -9.531761E+03
       283   9  2.339670E+05  6.170214E+04  1.039232E+05  2.619398E+04 -1.276165E+05 -3.332430E+03
       283  10  8.941930E+05  6.716631E+04  1.257584E+05  3.091669E+03  3.443759E-10  4.854444E-10
       283  11  8.966173E+05  5.667333E+04  1.636647E+05 -1.413646E+04 -2.538128E-10 -1.020249E-10
       283  12  9.542866E+05  2.411117E+05  2.819993E+05 -5.738396E+04  5.990486E-11 -2.152053E-10
       283  13  5.941177E+05 -7.340314E+03  5.314145E+04 -1.545770E+04  2.311118E-10  2.164687E-10
       283  14  5.667299E+05 -2.517984E+04  8.393288E+04 -2.511618E+03 -1.110680E-09 -2.430756E-10
       283  15  5.940573E+05  1.514063E+05  1.929503E+05 -1.558303E+04  1.469022E-10 -1.800186E-10
       283  16  2.941252E+05 -8.185224E+04 -1.948173E+04 -3.399810E+04 -3.071187E-10  1.933854E-10
       283  17  2.369420E+05 -1.070405E+05  4.193349E+03  9.107023E+03  8.535386E-10  8.372855E-11
       283  18  2.339495E+05  6.169776E+04  1.038926E+05  2.619364E+04  3.434613E-10 -1.305628E-10
       283  19  8.941947E+05  6.716679E+04  1.257613E+05  3.091930E+03  3.894606E+04  8.339983E+03
       283  20  8.966256E+05  5.667549E+04  1.636793E+05 -1.413579E+04  8.762484E+04  9.529246E+03
       283  21  9.543066E+05  2.411167E+05  2.820342E+05 -5.738359E+04  1.363113E+05  3.321744E+03
       283  22  5.941195E+05 -7.339788E+03  5.314475E+04 -1.545743E+04  4.103702E+04  8.339902E+03
       283  23  5.667379E+05 -2.517774E+04  8.394710E+04 -2.510954E+03  8.649732E+04  9.530524E+03
       283  24  5.940760E+05  1.514110E+05  1.929830E+05 -1.558267E+04  1.319627E+05  3.327377E+03
       283  25  2.941272E+05 -8.185167E+04 -1.947811E+04 -3.399781E+04  4.312698E+04  8.339696E+03
       283  26  2.369499E+05 -1.070384E+05  4.207210E+03  9.107678E+03  8.537040E+04  9.531761E+03
       283  27  2.339670E+05  6.170214E+04  1.039232E+05  2.619398E+04  1.276165E+05  3.332430E+03
       284   1  1.175461E+05  8.277545E+05  1.330405E+05 -4.866396E+04  1.838674E+03  5.506605E+04
       284   2  3.335105E+04  7.583235E+05  7.410464E+04 -1.143786E+04  5.029402E+03  3.531879E+04
       284   3  2.548174E+04  7.103729E+05  4.706304E+04 -2.506232E+04  2.863646E+03  1.556409E+04
       284   4  5.947867E+04  5.951208E+05  7.545924E+04 -3.197196E+04  1.844171E+03  5.253033E+04
       284   5 -9.783536E+03  5.845893E+05  3.213173E+04 -6.596508E+03  5.030116E+03  3.510531E+04
       284   6 -3.110515E+03  5.951414E+05  1.909611E+04 -3.207137E+04  2.859668E+03  1.767095E+04
       284   7  1.408261E+03  3.625369E+05  1.787412E+04 -1.528619E+04  1.849533E+03  4.999555E+04
       284   8 -5.292024E+04  4.108828E+05 -9.843327E+03 -1.756501E+03  5.030826E+03  3.489188E+04
       284   9 -3.170355E+04  4.799221E+05 -8.871728E+03 -3.907910E+04  2.855642E+03  1.977742E+04
       284  10  1.175453E+05  8.277512E+05  1.330348E+05 -4.866404E+04 -9.022203E-11 -1.720918E-10
       284  11  3.335068E+04  7.583221E+05  7.410225E+04 -1.143800E+04 -2.834818E-11  8.213376E-11
       284  12  2.548166E+04  7.103726E+05  4.706257E+04 -2.506236E+04  1.211628E-09  4.267354E-10
       284  13  5.947793E+04  5.951179E+05  7.545406E+04 -3.197204E+04  5.328028E-10 -9.371013E-11
       284  14 -9.783893E+03  5.845880E+05  3.212937E+04 -6.596651E+03 -2.248195E-09  2.564676E-10
       284  15 -3.110608E+03  5.951410E+05  1.909551E+04 -3.207141E+04  7.010622E-10 -1.414977E-11
       284  16  1.407587E+03  3.625342E+05  1.786942E+04 -1.528626E+04 -3.934975E-10  2.085128E-10
       284  17 -5.292059E+04  4.108815E+05 -9.845661E+03 -1.756643E+03 -8.308697E-10  1.289372E-11
       284  18 -3.170367E+04  4.799217E+05 -8.872478E+03 -3.907915E+04  2.135660E-10 -4.814417E-10
       284  19  1.175461E+05  8.277545E+05  1.330405E+05 -4.866396E+04 -1.838674E+03 -5.506605E+04
       284  20  3.335105E+04  7.583235E+05  7.410464E+04 -1.143786E+04 -5.029402E+03 -3.531879E+04
       284  21  2.548174E+04  7.103729E+05  4.706304E+04 -2.506232E+04 -2.863646E+03 -1.556409E+04
       284  22  5.947867E+04  5.951208E+05  7.545924E+04 -3.197196E+04 -1.844171E+03 -5.253033E+04
       284  23 -9.783536E+03  5.845893E+05  3.213173E+04 -6.596508E+03 -5.030116E+03 -3.510531E+04
       284  24 -3.110515E+03  5.951414E+05  1.909611E+04 -3.207137E+04 -2.859668E+03 -1.767095E+04
       284  25  1.408261E+03  3.625369E+05  1.787412E+04 -1.528619E+04 -1.849533E+03 -4.999555E+04
       284  26 -5.292024E+04  4.108828E+05 -9.843327E+03 -1.756501E+03 -5.030826E+03 -3.489188E+04
       284  27 -3.170355E+04  4.799221E+05 -8.871728E+03 -3.907910E+04 -2.855642E+03 -1.977742E+04
       285   1  1.219967E+04  6.111196E+05  1.966932E+04 -3.340286E+04  6.844459E+02  1.394713E+04
       285   2 -1.007397E+04  5.519840E+05 -4.586027E+03 -7.191828E+03 -1.067430E+03  1.160836E+04
       285   3 -2.730130E+04  4.941932E+05 -2.610616E+04 -3.181869E+04 -2.690283E+03  9.270223E+03
       285   4  7.145852E+03  5.907559E+05  1.478040E+04 -3.202528E+04  6.830237E+02  1.473438E+04
       285   5 -6.171026E+02  5.900819E+05  4.637550E+03 -6.615889E+03 -1.068731E+03  1.234015E+04
       285   6 -3.323753E+03  5.907596E+05 -2.730741E+03 -3.204413E+04 -2.691470E+03  9.946337E+03
       285   7  2.092015E+03  5.703926E+05  9.891459E+03 -3.064774E+04  6.816049E+02  1.552160E+04
       285   8  8.839664E+03  6.281810E+05  1.386102E+04 -6.039915E+03 -1.070031E+03  1.307199E+04
       285   9  2.065311E+04  6.873346E+05  2.064401E+04 -3.226959E+04 -2.692658E+03  1.062255E+04
       285  10  1.219961E+04  6.111194E+05  1.966896E+04 -3.340287E+04  4.962442E-10 -4.255603E-10
       285  11 -1.007401E+04  5.519839E+05 -4.586282E+03 -7.191818E+03  3.330687E-10 -2.255340E-10
       285  12 -2.730133E+04  4.941931E+05 -2.610633E+04 -3.181867E+04 -7.335265E-10  2.579724E-10
       285  13  7.145793E+03  5.907557E+05  1.478000E+04 -3.202529E+04  4.088152E-10 -2.452528E-11
       285  14 -6.171446E+02  5.900817E+05  4.637262E+03 -6.615879E+03  9.363780E-10 -1.676282E-10
       285  15 -3.323788E+03  5.907595E+05 -2.730940E+03 -3.204410E+04  1.275805E-09 -1.390657E-10
       285  16  2.091949E+03  5.703924E+05  9.891006E+03 -3.064775E+04  2.647325E-10  4.776391E-10
       285  17  8.839617E+03  6.281808E+05  1.386070E+04 -6.039903E+03 -1.063760E-09  2.109847E-10
       285  18  2.065308E+04  6.873345E+05  2.064378E+04 -3.226957E+04 -3.856832E-10 -2.006506E-10
       285  19  1.219967E+04  6.111196E+05  1.966932E+04 -3.340286E+04 -6.844459E+02 -1.394713E+04
       285  20 -1.007397E+04  5.519840E+05 -4.586027E+03 -7.191828E+03  1.067430E+03 -1.160836E+04
       285  21 -2.730130E+04  4.941932E+05 -2.610616E+04 -3.181869E+04  2.690283E+03 -9.270223E+03
       285  22  7.145852E+03  5.907559E+05  1.478040E+04 -3.202528E+04 -6.830237E+02 -1.473438E+04
       285  23 -6.171026E+02  5.900819E+05  4.637550E+03 -6.615889E+03  1.068731E+03 -1.234015E+04
       285  24 -3.323753E+03  5.907596E+05 -2.730741E+03 -3.204413E+04  2.691470E+03 -9.946337E+03
       285  25  2.092015E+03  5.703926E+05  9.891459E+03 -3.064774E+04 -6.816049E+02 -1.552160E+04
       285  26  8.839664E+03  6.281810E+05  1.386102E+04 -6.039915E+03  1.070031E+03 -1.307199E+04
       285  27  2.065311E+04  6.873346E+05  2.064401E+04 -3.226959E+04  2.692658E+03 -1.062255E+04
       286   1 -4.541096E+04  3.967958E+05 -5.204668E+04 -2.873757E+04 -5.071193E+03  8.203474E+03
       286   2 -5.782749E+04  3.427182E+05 -7.363613E+04 -8.344689E+03 -7.305004E+03  1.833528E+04
       286   3 -1.038621E+05  2.788230E+05 -1.102464E+05 -3.909186E+04 -2.677768E+03  2.847631E+04
       286   4  2.189151E+03  5.883816E+05 -5.595343E+03 -3.208911E+04 -5.075372E+03  1.064675E+04
       286   5  4.303241E+03  5.930358E+05 -1.313620E+04 -6.539867E+03 -7.303951E+03  1.781610E+04
       286   6 -2.667917E+04  5.883870E+05 -3.363728E+04 -3.212999E+04 -2.672531E+03  2.499572E+04
       286   7  4.978661E+04  7.800009E+05  4.085338E+04 -3.544168E+04 -5.079576E+03  1.309078E+04
       286   8  6.642941E+04  8.434106E+05  4.735923E+04 -4.734294E+03 -7.302902E+03  1.729672E+04
       286   9  5.049678E+04  8.980382E+05  4.296476E+04 -2.516462E+04 -2.667373E+03  2.151340E+04
       286  10 -4.541101E+04  3.967958E+05 -5.204686E+04 -2.873754E+04  1.284209E-11 -2.771371E-10
       286  11 -5.782764E+04  3.427178E+05 -7.363686E+04 -8.344581E+03  2.879805E-10 -1.154143E-10
       286  12 -1.038623E+05  2.788221E+05 -1.102479E+05 -3.909180E+04 -2.778948E-10  2.106067E-10
       286  13  2.189093E+03  5.883815E+05 -5.595605E+03 -3.208907E+04 -1.185659E-09  7.281598E-11
       286  14  4.303099E+03  5.930354E+05 -1.313690E+04 -6.539763E+03  3.862210E-10 -1.075101E-10
       286  15 -2.667934E+04  5.883864E+05 -3.363847E+04 -3.212994E+04 -4.327583E-10  6.091009E-11
       286  16  4.978654E+04  7.800007E+05  4.085301E+04 -3.544163E+04  4.822623E-10  1.872094E-10
       286  17  6.642927E+04  8.434102E+05  4.735857E+04 -4.734192E+03 -4.434797E-10 -2.699017E-11
       286  18  5.049665E+04  8.980377E+05  4.296388E+04 -2.516457E+04 -7.380368E-10 -1.597491E-10
       286  19 -4.541096E+04  3.967958E+05 -5.204668E+04 -2.873757E+04  5.071193E+03 -8.203474E+03
       286  20 -5.782749E+04  3.427182E+05 -7.363613E+04 -8.344689E+03  7.305004E+03 -1.833528E+04
       286  21 -1.038621E+05  2.788230E+05 -1.102464E+05 -3.909186E+04  2.677768E+03 -2.847631E+04
       286  22  2.189151E+03  5.883816E+05 -5.595343E+03 -3.208911E+04  5.075372E+03 -1.064675E+04
       286  23  4.303241E+03  5.930358E+05 -1.313620E+04 -6.539867E+03  7.303951E+03 -1.781610E+04
       286  24 -2.667917E+04  5.883870E+05 -3.363728E+04 -3.212999E+04  2.672531E+03 -2.499572E+04
       286  25  4.978661E+04  7.800009E+05  4.085338E+04 -3.544168E+04  5.079576E+03 -1.309078E+04
       286  26  6.642941E+04  8.434106E+05  4.735923E+04 -4.734294E+03  7.302902E+03 -1.729672E+04
       286  27  5.049678E+04  8.980382E+05  4.296476E+04 -2.516462E+04  2.667373E+03 -2.151340E+04
       287   1 -8.025044E+05 -3.273834E+05 -2.467836E+05 -2.661687E+05 -1.137888E+05 -3.990394E+04
       287   2 -7.683841E+05 -1.571572E+05 -1.402380E+05 -2.825218E+05 -7.411192E+04 -1.910098E+04
       287   3 -7.915925E+05 -1.580310E+05 -1.090808E+05 -2.671639E+05 -3.225099E+04 -4.093830E+03
       287   4 -5.550223E+05 -2.014908E+05 -1.727964E+05 -1.655228E+05 -1.105743E+05 -3.870081E+04
       287   5 -5.177304E+05 -5.374442E+04 -7.159663E+04 -2.048798E+05 -7.322550E+04 -1.876892E+04
       287   6 -5.372806E+05 -7.659900E+04 -4.391581E+04 -2.125338E+05 -3.369298E+04 -4.635542E+03
       287   7 -3.074793E+05 -7.557867E+04 -9.881545E+04 -6.483607E+04 -1.073583E+05 -3.749673E+04
       287   8 -2.670161E+05  4.967547E+04 -2.961069E+03 -1.272083E+05 -7.233869E+04 -1.843668E+04
       287   9 -2.829059E+05  4.833052E+03  2.124422E+04 -1.578854E+05 -3.513562E+04 -5.177415E+03
       287  10 -8.025188E+05 -3.273886E+05 -2.468110E+05 -2.661723E+05 -6.093006E-10 -1.190178E-10
       287  11 -7.683901E+05 -1.571590E+05 -1.402491E+05 -2.825230E+05 -9.334382E-10 -2.379831E-10
       287  12 -7.915936E+05 -1.580313E+05 -1.090828E+05 -2.671641E+05  3.988999E-10  2.069209E-10
       287  13 -5.550358E+05 -2.014957E+05 -1.728222E+05 -1.655262E+05  8.517479E-10 -1.921878E-10
       287  14 -5.177363E+05 -5.374624E+04 -7.160738E+04 -2.048809E+05 -9.826202E-10 -2.546691E-10
       287  15 -5.372818E+05 -7.659933E+04 -4.391799E+04 -2.125339E+05  7.404136E-10  3.877657E-10
       287  16 -3.074920E+05 -7.558327E+04 -9.883977E+04 -6.483931E+04  1.308699E-10 -3.566765E-10
       287  17 -2.670219E+05  4.967370E+04 -2.971547E+03 -1.272093E+05  4.623415E-10 -3.264853E-10
       287  18 -2.829072E+05  4.832692E+03  2.124185E+04 -1.578855E+05  1.725615E-09  6.741877E-10
       287  19 -8.025044E+05 -3.273834E+05 -2.467836E+05 -2.661687E+05  1.137888E+05  3.990394E+04
       287  20 -7.683841E+05 -1.571572E+05 -1.402380E+05 -2.825218E+05  7.411192E+04  1.910098E+04
       287  21 -7.915925E+05 -1.580310E+05 -1.090808E+05 -2.671639E+05  3.225099E+04  4.093830E+03
       287  22 -5.550223E+05 -2.014908E+05 -1.727964E+05 -1.655228E+05  1.105743E+05  3.870081E+04
       287  23 -5.177304E+05 -5.374442E+04 -7.159663E+04 -2.048798E+05  7.322550E+04  1.876892E+04
       287  24 -5.372806E+05 -7.659900E+04 -4.391581E+04 -2.125338E+05  3.369298E+04  4.635542E+03
       287  25 -3.074793E+05 -7.557867E+04 -9.881545E+04 -6.483607E+04  1.073583E+05  3.749673E+04
       287  26 -2.670161E+05  4.967547E+04 -2.961069E+03 -1.272083E+05  7.233869E+04  1.843668E+04
       287  27 -2.829059E+05  4.833052E+03  2.124422E+04 -1.578854E+05  3.513562E+04  5.177415E+03
       288   1 -7.480380E+05 -1.806806E+05 -9.458006E+04 -2.648249E+05 -2.697928E+04 -3.460197E+03
       288   2 -7.352326E+05 -1.511620E+05 -7.166744E+04 -2.583892E+05 -1.788539E+04 -8.811213E+01
       288   3 -7.212075E+05 -1.509112E+05 -6.084377E+04 -2.581209E+05 -8.579344E+03  2.719622E+03
       288   4 -5.314948E+05 -9.546227E+04 -3.587612E+04 -2.020281E+05 -2.688819E+04 -3.426299E+03
       288   5 -5.310651E+05 -7.335218E+04 -1.691135E+04 -2.017624E+05 -1.801934E+04 -1.386376E+02
       288   6 -5.293686E+05 -8.046111E+04 -9.853796E+03 -2.076648E+05 -8.938552E+03  2.584597E+03
       288   7 -3.149067E+05 -1.024023E+04  2.282345E+04 -1.392112E+05 -2.679706E+04 -3.392387E+03
       288   8 -3.268574E+05  4.460402E+03  3.784106E+04 -1.451188E+05 -1.815334E+04 -1.891814E+02
       288   9 -3.374939E+05 -1.000911E+04  4.113311E+04 -1.571948E+05 -9.297883E+03  2.449528E+03
       288  10 -7.480388E+05 -1.806808E+05 -9.458145E+04 -2.648250E+05  1.158904E-09  4.679057E-10
       288  11 -7.352329E+05 -1.511621E+05 -7.166804E+04 -2.583892E+05 -2.525746E-10 -1.269803E-10
       288  12 -7.212076E+05 -1.509113E+05 -6.084392E+04 -2.581208E+05  7.704788E-10  3.471678E-10
       288  13 -5.314955E+05 -9.546248E+04 -3.587751E+04 -2.020282E+05  1.694850E-09  4.621616E-10
       288  14 -5.310654E+05 -7.335227E+04 -1.691197E+04 -2.017624E+05 -1.244100E-09 -5.577671E-11
       288  15 -5.293687E+05 -8.046114E+04 -9.853959E+03 -2.076648E+05  1.374974E-09  5.404105E-10
       288  16 -3.149075E+05 -1.024044E+04  2.282208E+04 -1.392113E+05  1.744857E-10  3.782479E-10
       288  17 -3.268578E+05  4.460314E+03  3.784044E+04 -1.451188E+05  5.810008E-10 -5.139365E-11
       288  18 -3.374940E+05 -1.000914E+04  4.113294E+04 -1.571948E+05  1.687430E-09  7.716586E-10
       288  19 -7.480380E+05 -1.806806E+05 -9.458006E+04 -2.648249E+05  2.697928E+04  3.460197E+03
       288  20 -7.352326E+05 -1.511620E+05 -7.166744E+04 -2.583892E+05  1.788539E+04  8.811213E+01
       288  21 -7.212075E+05 -1.509112E+05 -6.084377E+04 -2.581209E+05  8.579344E+03 -2.719622E+03
       288  22 -5.314948E+05 -9.546227E+04 -3.587612E+04 -2.020281E+05  2.688819E+04  3.426299E+03
       288  23 -5.310651E+05 -7.335218E+04 -1.691135E+04 -2.017624E+05  1.801934E+04  1.386376E+02
       288  24 -5.293686E+05 -8.046111E+04 -9.853796E+03 -2.076648E+05  8.938552E+03 -2.584597E+03
       288  25 -3.149067E+05 -1.024023E+04  2.282345E+04 -1.392112E+05  2.679706E+04  3.392387E+03
       288  26 -3.268574E+05  4.460402E+03  3.784106E+04 -1.451188E+05  1.815334E+04  1.891814E+02
       288  27 -3.374939E+05 -1.000911E+04  4.113311E+04 -1.571948E+05  9.297883E+03 -2.449528E+03
       289   1 -6.927992E+05 -1.449860E+05 -5.169979E+04 -2.516393E+05 -7.132720E+03  2.770371E+03
       289   2 -6.824343E+05 -1.320101E+05 -4.394773E+04 -2.421325E+05 -4.878850E+03  2.980371E+03
       289   3 -6.630724E+05 -1.314943E+05 -3.834696E+04 -2.436275E+05 -2.601361E+03  3.126796E+03
       289   4 -5.284997E+05 -8.276894E+04 -7.745041E+03 -2.064708E+05 -7.346300E+03  2.690064E+03
       289   5 -5.328739E+05 -7.564748E+04 -3.953742E+03 -2.013054E+05 -5.117577E+03  2.890677E+03
       289   6 -5.282461E+05 -8.098041E+04 -2.293287E+03 -2.071417E+05 -2.865293E+03  3.027701E+03
       289   7 -3.641743E+05 -2.055021E+04  3.620733E+04 -1.612915E+05 -7.559942E+03  2.609732E+03
       289   8 -3.832921E+05 -1.928359E+04  3.603824E+04 -1.604695E+05 -5.356367E+03  2.800960E+03
       289   9 -3.934026E+05 -3.046565E+04  3.375870E+04 -1.706488E+05 -3.129288E+03  2.928583E+03
       289  10 -6.927992E+05 -1.449860E+05 -5.169990E+04 -2.516393E+05  1.595867E-09  7.545417E-10
       289  11 -6.824343E+05 -1.320101E+05 -4.394779E+04 -2.421325E+05  3.850783E-10  7.749360E-11
       289  12 -6.630724E+05 -1.314943E+05 -3.834699E+04 -2.436275E+05 -2.495633E-10 -3.547234E-10
       289  13 -5.284998E+05 -8.276896E+04 -7.745156E+03 -2.064708E+05  1.107615E-09  6.152767E-10
       289  14 -5.328739E+05 -7.564750E+04 -3.953807E+03 -2.013054E+05 -1.540919E-10 -8.637679E-11
       289  15 -5.282461E+05 -8.098042E+04 -2.293320E+03 -2.071416E+05 -2.587905E-10 -2.381097E-10
       289  16 -3.641744E+05 -2.055024E+04  3.620721E+04 -1.612915E+05  1.121179E-09  4.910355E-10
       289  17 -3.832922E+05 -1.928360E+04  3.603817E+04 -1.604695E+05 -3.745503E-10  5.373357E-11
       289  18 -3.934026E+05 -3.046566E+04  3.375867E+04 -1.706488E+05  9.920093E-11 -2.917811E-10
       289  19 -6.927992E+05 -1.449860E+05 -5.169979E+04 -2.516393E+05  7.132720E+03 -2.770371E+03
       289  20 -6.824343E+05 -1.320101E+05 -4.394773E+04 -2.421325E+05  4.878850E+03 -2.980371E+03
       289  21 -6.630724E+05 -1.314943E+05 -3.834696E+04 -2.436275E+05  2.601361E+03 -3.126796E+03
       289  22 -5.284997E+05 -8.276894E+04 -7.745041E+03 -2.064708E+05  7.346300E+03 -2.690064E+03
       289  23 -5.328739E+05 -7.564748E+04 -3.953742E+03 -2.013054E+05  5.117577E+03 -2.890677E+03
       289  24 -5.282461E+05 -8.098041E+04 -2.293287E+03 -2.071417E+05  2.865293E+03 -3.027701E+03
       289  25 -3.641743E+05 -2.055021E+04  3.620733E+04 -1.612915E+05  7.559942E+03 -2.609732E+03
       289  26 -3.832921E+05 -1.928359E+04  3.603824E+04 -1.604695E+05  5.356367E+03 -2.800960E+03
       289  27 -3.934026E+05 -3.046565E+04  3.375870E+04 -1.706488E+05  3.129288E+03 -2.928583E+03
       290   1 -6.357756E+05 -1.218450E+05 -3.054490E+04 -2.364302E+05 -2.138852E+03  2.875923E+03
       290   2 -6.254974E+05 -1.105873E+05 -2.576990E+04 -2.263203E+05 -1.349873E+03  2.459850E+03
       290   3 -6.050033E+05 -1.100323E+05 -2.148802E+04 -2.280451E+05 -5.566996E+02  2.032162E+03
       290   4 -5.280744E+05 -8.130053E+04 -1.807831E+03 -2.070596E+05 -2.388912E+03  2.782067E+03
       290   5 -5.331688E+05 -7.585378E+04 -1.092272E+03 -2.011781E+05 -1.604530E+03  2.364304E+03
       290   6 -5.280468E+05 -8.110865E+04 -8.661859E+02 -2.071313E+05 -8.159699E+02  1.934922E+03
       290   7 -4.203619E+05 -4.075525E+04  2.692829E+04 -1.776844E+05 -2.639020E+03  2.688193E+03
       290   8 -4.408319E+05 -4.111966E+04  2.358464E+04 -1.760326E+05 -1.859229E+03  2.268742E+03
       290   9 -4.510847E+05 -5.218470E+04  1.975513E+04 -1.862152E+05 -1.075276E+03  1.837668E+03
       290  10 -6.357756E+05 -1.218450E+05 -3.054492E+04 -2.364302E+05 -1.191932E-10 -2.619537E-10
       290  11 -6.254974E+05 -1.105874E+05 -2.576992E+04 -2.263203E+05 -6.849458E-11 -2.928560E-11
       290  12 -6.050033E+05 -1.100323E+05 -2.148803E+04 -2.280451E+05 -1.691259E-10 -8.061450E-11
       290  13 -5.280745E+05 -8.130054E+04 -1.807856E+03 -2.070596E+05  4.748756E-11 -1.489449E-10
       290  14 -5.331688E+05 -7.585378E+04 -1.092288E+03 -2.011781E+05 -3.003937E-11 -1.299598E-10
       290  15 -5.280468E+05 -8.110866E+04 -8.661942E+02 -2.071313E+05 -6.843602E-11 -5.183052E-12
       290  16 -4.203619E+05 -4.075526E+04  2.692826E+04 -1.776844E+05  4.108922E-10 -3.033053E-10
       290  17 -4.408319E+05 -4.111967E+04  2.358463E+04 -1.760326E+05  1.616286E-10 -2.250046E-10
       290  18 -4.510847E+05 -5.218471E+04  1.975513E+04 -1.862152E+05 -1.730414E-12 -5.954025E-11
       290  19 -6.357756E+05 -1.218450E+05 -3.054490E+04 -2.364302E+05  2.138852E+03 -2.875923E+03
       290  20 -6.254974E+05 -1.105873E+05 -2.576990E+04 -2.263203E+05  1.349873E+03 -2.459850E+03
       290  21 -6.050033E+05 -1.100323E+05 -2.148802E+04 -2.280451E+05  5.566996E+02 -2.032162E+03
       290  22 -5.280744E+05 -8.130053E+04 -1.807831E+03 -2.070596E+05  2.388912E+03 -2.782067E+03
       290  23 -5.331688E+05 -7.585378E+04 -1.092272E+03 -2.011781E+05  1.604530E+03 -2.364304E+03
       290  24 -5.280468E+05 -8.110865E+04 -8.661859E+02 -2.071313E+05  8.159699E+02 -1.934922E+03
       290  25 -4.203619E+05 -4.075525E+04  2.692829E+04 -1.776844E+05  2.639020E+03 -2.688193E+03
       290  26 -4.408319E+05 -4.111966E+04  2.358464E+04 -1.760326E+05  1.859229E+03 -2.268742E+03
       290  27 -4.510847E+05 -5.218470E+04  1.975513E+04 -1.862152E+05  1.075276E+03 -1.837668E+03
       291   1 -5.774078E+05 -9.974051E+04 -1.401069E+04 -2.206498E+05 -2.742986E+02  1.712095E+03
       291   2 -5.669896E+05 -8.851243E+04 -1.010178E+04 -2.103215E+05  5.066574E+02  1.274700E+03
       291   3 -5.462157E+05 -8.813285E+04 -6.677394E+03 -2.120131E+05  1.287593E+03  8.372011E+02
       291   4 -5.280154E+05 -8.114557E+04 -8.643213E+02 -2.071704E+05 -5.330293E+02  1.615075E+03
       291   5 -5.332055E+05 -7.580905E+04 -1.073307E+03 -2.011275E+05  2.479143E+02  1.177689E+03
       291   6 -5.280400E+05 -8.132105E+04 -1.766780E+03 -2.071046E+05  1.028824E+03  7.401930E+02
       291   7 -4.786208E+05 -6.255052E+04  1.228180E+04 -1.936900E+05 -7.917819E+02  1.518047E+03
       291   8 -4.994202E+05 -6.310560E+04  7.955068E+03 -1.919331E+05 -1.084441E+01  1.080672E+03
       291   9 -5.098641E+05 -7.450921E+04  3.143816E+03 -2.021959E+05  7.700451E+02  6.431816E+02
       291  10 -5.774078E+05 -9.974052E+04 -1.401069E+04 -2.206498E+05  1.263954E-10 -1.249770E-10
       291  11 -5.669896E+05 -8.851243E+04 -1.010179E+04 -2.103215E+05  1.601092E-10  1.468314E-10
       291  12 -5.462157E+05 -8.813285E+04 -6.677398E+03 -2.120131E+05 -1.836290E-11  2.010374E-10
       291  13 -5.280154E+05 -8.114557E+04 -8.643268E+02 -2.071704E+05 -1.121694E-10 -7.171538E-11
       291  14 -5.332055E+05 -7.580905E+04 -1.073310E+03 -2.011275E+05 -2.147822E-10  6.664979E-11
       291  15 -5.280400E+05 -8.132105E+04 -1.766783E+03 -2.071046E+05  7.710566E-11  1.291247E-10
       291  16 -4.786208E+05 -6.255052E+04  1.228179E+04 -1.936900E+05  2.139346E-11  6.217756E-11
       291  17 -4.994202E+05 -6.310561E+04  7.955066E+03 -1.919331E+05  8.680011E-11  1.807558E-10
       291  18 -5.098641E+05 -7.450921E+04  3.143815E+03 -2.021959E+05  1.064189E-10  7.904580E-11
       291  19 -5.774078E+05 -9.974051E+04 -1.401069E+04 -2.206498E+05  2.742986E+02 -1.712095E+03
       291  20 -5.669896E+05 -8.851243E+04 -1.010178E+04 -2.103215E+05 -5.066574E+02 -1.274700E+03
       291  21 -5.462157E+05 -8.813285E+04 -6.677394E+03 -2.120131E+05 -1.287593E+03 -8.372011E+02
       291  22 -5.280154E+05 -8.114557E+04 -8.643213E+02 -2.071704E+05  5.330293E+02 -1.615075E+03
       291  23 -5.332055E+05 -7.580905E+04 -1.073307E+03 -2.011275E+05 -2.479143E+02 -1.177689E+03
       291  24 -5.280400E+05 -8.132105E+04 -1.766780E+03 -2.071046E+05 -1.028824E+03 -7.401930E+02
       291  25 -4.786208E+05 -6.255052E+04  1.228180E+04 -1.936900E+05  7.917819E+02 -1.518047E+03
       291  26 -4.994202E+05 -6.310560E+04  7.955068E+03 -1.919331E+05  1.084441E+01 -1.080672E+03
       291  27 -5.098641E+05 -7.450921E+04  3.143816E+03 -2.021959E+05 -7.700451E+02 -6.431816E+02
       292   1 -5.184022E+05 -7.762472E+04  3.807214E+02 -2.048397E+05  1.767653E+03  5.839328E+02
       292   2 -5.078069E+05 -6.598155E+04  2.891164E+03 -1.942282E+05  3.963534E+03  6.728984E+02
       292   3 -4.877777E+05 -6.718846E+04  3.324051E+03 -1.951818E+05  6.147152E+03  7.947837E+02
       292   4 -5.281487E+05 -8.107951E+04 -2.241057E+03 -2.072610E+05  1.500751E+03  4.838778E+02
       292   5 -5.329867E+05 -7.551989E+04 -3.850585E+03 -2.011537E+05  3.709851E+03  5.777874E+02
       292   6 -5.283935E+05 -8.281305E+04 -7.548195E+03 -2.066115E+05  5.906631E+03  7.045957E+02
       292   7 -5.378951E+05 -8.453431E+04 -4.862844E+03 -2.096822E+05  1.233853E+03  3.838243E+02
       292   8 -5.581658E+05 -8.505818E+04 -1.059238E+04 -2.080789E+05  3.456179E+03  4.826808E+02
       292   9 -5.690076E+05 -9.843748E+04 -1.842056E+04 -2.180405E+05  5.666127E+03  6.144147E+02
       292  10 -5.184022E+05 -7.762472E+04  3.807149E+02 -2.048397E+05  7.649799E-10  2.612619E-10
       292  11 -5.078069E+05 -6.598156E+04  2.891134E+03 -1.942282E+05  1.851727E-09  5.646266E-10
       292  12 -4.877777E+05 -6.718847E+04  3.323979E+03 -1.951818E+05  1.266290E-09  2.710749E-10
       292  13 -5.281487E+05 -8.107951E+04 -2.241062E+03 -2.072610E+05  6.973965E-10  2.755453E-10
       292  14 -5.329867E+05 -7.551990E+04 -3.850611E+03 -2.011537E+05  1.376292E-09  3.486511E-10
       292  15 -5.283935E+05 -8.281306E+04 -7.548262E+03 -2.066115E+05  7.679365E-10  3.008156E-10
       292  16 -5.378951E+05 -8.453431E+04 -4.862847E+03 -2.096822E+05  1.037842E-09  3.159926E-10
       292  17 -5.581658E+05 -8.505819E+04 -1.059240E+04 -2.080789E+05  1.471864E-09  3.976580E-10
       292  18 -5.690077E+05 -9.843749E+04 -1.842062E+04 -2.180405E+05  3.881164E-10  4.037371E-10
       292  19 -5.184022E+05 -7.762472E+04  3.807214E+02 -2.048397E+05 -1.767653E+03 -5.839328E+02
       292  20 -5.078069E+05 -6.598155E+04  2.891164E+03 -1.942282E+05 -3.963534E+03 -6.728984E+02
       292  21 -4.877777E+05 -6.718846E+04  3.324051E+03 -1.951818E+05 -6.147152E+03 -7.947837E+02
       292  22 -5.281487E+05 -8.107951E+04 -2.241057E+03 -2.072610E+05 -1.500751E+03 -4.838778E+02
       292  23 -5.329867E+05 -7.551989E+04 -3.850585E+03 -2.011537E+05 -3.709851E+03 -5.777874E+02
       292  24 -5.283935E+05 -8.281305E+04 -7.548195E+03 -2.066115E+05 -5.906631E+03 -7.045957E+02
       292  25 -5.378951E+05 -8.453431E+04 -4.862844E+03 -2.096822E+05 -1.233853E+03 -3.838243E+02
       292  26 -5.581658E+05 -8.505818E+04 -1.059238E+04 -2.080789E+05 -3.456179E+03 -4.826808E+02
       292  27 -5.690076E+05 -9.843748E+04 -1.842056E+04 -2.180405E+05 -5.666127E+03 -6.144147E+02
       293   1 -4.594546E+05 -5.613935E+04  8.745752E+03 -1.906630E+05  7.787548E+03  9.291805E+02
       293   2 -4.480346E+05 -4.100101E+04  5.943177E+03 -1.779242E+05  1.652064E+04  3.471613E+03
       293   3 -4.344293E+05 -5.531240E+04 -8.369257E+03 -1.723879E+05  2.512839E+04  6.349637E+03
       293   4 -5.291832E+05 -8.063047E+04 -9.604535E+03 -2.078463E+05  7.459617E+03  8.062313E+02
       293   5 -5.312930E+05 -7.319914E+04 -1.647103E+04 -2.015051E+05  1.632714E+04  3.398988E+03
       293   6 -5.312457E+05 -9.524631E+04 -3.495537E+04 -2.023666E+05  2.506910E+04  6.327190E+03
       293   7 -5.989073E+05 -1.051215E+05 -2.795528E+04 -2.250279E+05  7.131725E+03  6.832947E+02
       293   8 -6.145448E+05 -1.053968E+05 -3.888589E+04 -2.250831E+05  1.613366E+04  3.326374E+03
       293   9 -6.280530E+05 -1.351791E+05 -6.154233E+04 -2.323409E+05  2.500982E+04  6.304748E+03
       293  10 -4.594546E+05 -5.613936E+04  8.745636E+03 -1.906630E+05  2.406379E-10  3.663627E-11
       293  11 -4.480349E+05 -4.100109E+04  5.942641E+03 -1.779243E+05 -3.392872E-10  2.558757E-11
       293  12 -4.344300E+05 -5.531262E+04 -8.370521E+03 -1.723880E+05  1.718714E-10 -7.850261E-11
       293  13 -5.291833E+05 -8.063049E+04 -9.604641E+03 -2.078463E+05  1.116646E-10  9.104211E-12
       293  14 -5.312933E+05 -7.319923E+04 -1.647156E+04 -2.015051E+05 -1.918377E-10 -2.487343E-10
       293  15 -5.312464E+05 -9.524652E+04 -3.495662E+04 -2.023667E+05 -4.114166E-10 -1.093199E-10
       293  16 -5.989074E+05 -1.051215E+05 -2.795537E+04 -2.250279E+05 -1.327624E-10  6.542319E-11
       293  17 -6.145451E+05 -1.053969E+05 -3.888640E+04 -2.250831E+05  2.511101E-10 -2.396323E-10
       293  18 -6.280537E+05 -1.351793E+05 -6.154359E+04 -2.323410E+05  3.704468E-11  7.880787E-11
       293  19 -4.594546E+05 -5.613935E+04  8.745752E+03 -1.906630E+05 -7.787548E+03 -9.291805E+02
       293  20 -4.480346E+05 -4.100101E+04  5.943177E+03 -1.779242E+05 -1.652064E+04 -3.471613E+03
       293  21 -4.344293E+05 -5.531240E+04 -8.369257E+03 -1.723879E+05 -2.512839E+04 -6.349637E+03
       293  22 -5.291832E+05 -8.063047E+04 -9.604535E+03 -2.078463E+05 -7.459617E+03 -8.062313E+02
       293  23 -5.312930E+05 -7.319914E+04 -1.647103E+04 -2.015051E+05 -1.632714E+04 -3.398988E+03
       293  24 -5.312457E+05 -9.524631E+04 -3.495537E+04 -2.023666E+05 -2.506910E+04 -6.327190E+03
       293  25 -5.989073E+05 -1.051215E+05 -2.795528E+04 -2.250279E+05 -7.131725E+03 -6.832947E+02
       293  26 -6.145448E+05 -1.053968E+05 -3.888589E+04 -2.250831E+05 -1.613366E+04 -3.326374E+03
       293  27 -6.280530E+05 -1.351791E+05 -6.154233E+04 -2.323409E+05 -2.500982E+04 -6.304748E+03
       294   1 -4.002370E+05 -3.953727E+04 -9.006273E+03 -1.898798E+05  3.257810E+04  8.144386E+03
       294   2 -3.833281E+05  5.487814E+03 -3.204640E+04 -1.586951E+05  6.971957E+04  2.131408E+04
       294   3 -4.202275E+05 -1.168089E+05 -1.256176E+05 -9.826736E+04  1.055559E+05  3.796579E+04
       294   4 -5.368356E+05 -7.692316E+04 -4.278994E+04 -2.126623E+05  3.159766E+04  7.777378E+03
       294   5 -5.183826E+05 -5.399812E+04 -6.974637E+04 -2.044360E+05  7.013780E+04  2.146976E+04
       294   6 -5.540308E+05 -1.986961E+05 -1.683553E+05 -1.669635E+05  1.073726E+05  3.864111E+04
       294   7 -6.734159E+05 -1.143095E+05 -7.657485E+04 -2.354412E+05  3.061746E+04  7.410405E+03
       294   8 -6.534188E+05 -1.134807E+05 -1.074479E+05 -2.501671E+05  7.055592E+04  2.162540E+04
       294   9 -6.878134E+05 -2.805708E+05 -2.110942E+05 -2.356430E+05  1.091888E+05  3.931603E+04
       294  10 -4.002381E+05 -3.953762E+04 -9.008394E+03 -1.898801E+05 -5.627099E-10 -1.580413E-10
       294  11 -3.833334E+05  5.486020E+03 -3.205639E+04 -1.586963E+05 -1.655597E-09 -3.697000E-10
       294  12 -4.202399E+05 -1.168134E+05 -1.256413E+05 -9.827059E+04 -1.105954E-09 -2.945929E-10
       294  13 -5.368367E+05 -7.692350E+04 -4.279193E+04 -2.126625E+05 -7.904950E-10 -1.629736E-10
       294  14 -5.183880E+05 -5.399993E+04 -6.975649E+04 -2.044373E+05 -1.775181E-09 -4.462192E-10
       294  15 -5.540436E+05 -1.987008E+05 -1.683798E+05 -1.669669E+05 -7.555383E-10 -3.244316E-10
       294  16 -6.734169E+05 -1.143099E+05 -7.657672E+04 -2.354414E+05 -1.094309E-09 -1.107554E-10
       294  17 -6.534243E+05 -1.134826E+05 -1.074582E+05 -2.501683E+05 -1.530208E-09 -6.123931E-10
       294  18 -6.878266E+05 -2.805756E+05 -2.111196E+05 -2.356464E+05 -3.575364E-10 -2.193113E-10
       294  19 -4.002370E+05 -3.953727E+04 -9.006273E+03 -1.898798E+05 -3.257810E+04 -8.144386E+03
       294  20 -3.833281E+05  5.487814E+03 -3.204640E+04 -1.586951E+05 -6.971957E+04 -2.131408E+04
       294  21 -4.202275E+05 -1.168089E+05 -1.256176E+05 -9.826736E+04 -1.055559E+05 -3.796579E+04
       294  22 -5.368356E+05 -7.692316E+04 -4.278994E+04 -2.126623E+05 -3.159766E+04 -7.777378E+03
       294  23 -5.183826E+05 -5.399812E+04 -6.974637E+04 -2.044360E+05 -7.013780E+04 -2.146976E+04
       294  24 -5.540308E+05 -1.986961E+05 -1.683553E+05 -1.669635E+05 -1.073726E+05 -3.864111E+04
       294  25 -6.734159E+05 -1.143095E+05 -7.657485E+04 -2.354412E+05 -3.061746E+04 -7.410405E+03
       294  26 -6.534188E+05 -1.134807E+05 -1.074479E+05 -2.501671E+05 -7.055592E+04 -2.162540E+04
       294  27 -6.878134E+05 -2.805708E+05 -2.110942E+05 -2.356430E+05 -1.091888E+05 -3.931603E+04
       295   1 -4.405047E+05 -8.948464E+04 -5.484296E+04 -4.830169E+03  9.441730E+04  7.569550E+03
       295   2 -3.905871E+05 -2.107361E+05 -1.192420E+05  2.421128E+03  6.592319E+04  2.208667E+04
       295   3 -2.977303E+05 -1.789160E+05 -1.266125E+05 -5.199917E+04  3.743421E+04  1.931011E+04
       295   4  3.990515E+05  1.199243E+05  1.529287E+05 -3.765045E+04  1.045240E+05  7.571088E+03
       295   5  3.769779E+05 -2.008118E+04  6.644401E+04 -6.781641E+03  6.851973E+04  2.208442E+04
       295   6  3.990872E+05 -5.814947E+03  4.214713E+04 -3.757826E+04  3.252450E+04  1.931133E+04
       295   7  1.239251E+06  3.292847E+05  3.606489E+05 -7.051527E+04  1.146443E+05  7.571558E+03
       295   8  1.145081E+06  1.705310E+05  2.520878E+05 -1.599585E+04  7.111943E+04  2.208211E+04
       295   9  1.096349E+06  1.672513E+05  2.108720E+05 -2.314107E+04  2.760928E+04  1.931233E+04
       295  10 -4.405142E+05 -8.948710E+04 -5.485983E+04 -4.830744E+03 -5.637421E-11  1.384443E-10
       295  11 -3.905919E+05 -2.107378E+05 -1.192511E+05  2.419955E+03  5.303683E-10 -2.458529E-11
       295  12 -2.977319E+05 -1.789167E+05 -1.266158E+05 -5.199975E+04  1.513759E-12 -2.690098E-10
       295  13  3.990398E+05  1.199213E+05  1.529081E+05 -3.765108E+04  4.028954E-10 -2.556470E-10
       295  14  3.769727E+05 -2.008297E+04  6.643428E+04 -6.782859E+03 -2.735128E-10 -4.983828E-11
       295  15  3.990860E+05 -5.815632E+03  4.214444E+04 -3.757877E+04 -2.123113E-10  2.685550E-11
       295  16  1.239237E+06  3.292811E+05  3.606242E+05 -7.051597E+04  4.014573E-10  3.590644E-10
       295  17  1.145076E+06  1.705291E+05  2.520774E+05 -1.599712E+04 -6.075598E-10 -6.511236E-11
       295  18  1.096348E+06  1.672507E+05  2.108699E+05 -2.314150E+04 -6.694391E-10  1.964955E-10
       295  19 -4.405047E+05 -8.948464E+04 -5.484296E+04 -4.830169E+03 -9.441730E+04 -7.569550E+03
       295  20 -3.905871E+05 -2.107361E+05 -1.192420E+05  2.421128E+03 -6.592319E+04 -2.208667E+04
       295  21 -2.977303E+05 -1.789160E+05 -1.266125E+05 -5.199917E+04 -3.743421E+04 -1.931011E+04
       295  22  3.990515E+05  1.199243E+05  1.529287E+05 -3.765045E+04 -1.045240E+05 -7.571088E+03
       295  23  3.769779E+05 -2.008118E+04  6.644401E+04 -6.781641E+03 -6.851973E+04 -2.208442E+04
       295  24  3.990872E+05 -5.814947E+03  4.214713E+04 -3.757826E+04 -3.252450E+04 -1.931133E+04
       295  25  1.239251E+06  3.292847E+05  3.606489E+05 -7.051527E+04 -1.146443E+05 -7.571558E+03
       295  26  1.145081E+06  1.705310E+05  2.520878E+05 -1.599585E+04 -7.111943E+04 -2.208211E+04
       295  27  1.096349E+06  1.672513E+05  2.108720E+05 -2.314107E+04 -2.760928E+04 -1.931233E+04
       296   1 -1.919486E+05 -1.309047E+05 -1.068517E+05 -3.359875E+04  2.601905E+04  1.520652E+04
       296   2 -1.250189E+05 -1.297648E+05 -1.069144E+05 -5.773927E+03  1.777083E+04  1.405818E+04
       296   3 -5.224671E+04 -1.106274E+05 -9.705056E+04 -3.872634E+04  9.517529E+03  1.139632E+04
       296   4  3.906273E+05  1.387588E+04  3.449801E+04 -3.738998E+04  2.586370E+04  1.520554E+04
       296   5  3.876608E+05 -2.399446E+03  1.728088E+04 -7.008208E+03  1.695420E+04  1.405817E+04
       296   6  3.906406E+05 -5.708056E+02  1.044254E+04 -3.740023E+04  8.040532E+03  1.139779E+04
       296   7  9.735131E+05  1.586316E+05  1.758232E+05 -4.118472E+04  2.570819E+04  1.520456E+04
       296   8  9.005806E+05  1.249466E+05  1.414573E+05 -8.243452E+03  1.613689E+04  1.405817E+04
       296   9  8.337069E+05  1.094714E+05  1.179215E+05 -3.607311E+04  6.562483E+03  1.139926E+04
       296  10 -1.919494E+05 -1.309051E+05 -1.068534E+05 -3.359907E+04  1.068065E-10 -2.719901E-10
       296  11 -1.250193E+05 -1.297651E+05 -1.069154E+05 -5.774128E+03  7.518992E-10 -2.363097E-10
       296  12 -5.224684E+04 -1.106275E+05 -9.705097E+04 -3.872642E+04 -8.298393E-10  7.815087E-10
       296  13  3.906265E+05  1.387546E+04  3.449632E+04 -3.739029E+04 -6.412626E-10  7.495415E-11
       296  14  3.876604E+05 -2.399735E+03  1.727996E+04 -7.008399E+03  2.689257E-10 -1.077649E-09
       296  15  3.906405E+05 -5.709625E+02  1.044217E+04 -3.740030E+04 -7.067279E-10  4.893926E-10
       296  16  9.735123E+05  1.586311E+05  1.758215E+05 -4.118503E+04 -5.224878E-10  4.778416E-11
       296  17  9.005803E+05  1.249464E+05  1.414564E+05 -8.243635E+03 -1.173085E-09 -1.161294E-10
       296  18  8.337068E+05  1.094712E+05  1.179212E+05 -3.607317E+04 -4.581858E-10  2.187407E-11
       296  19 -1.919486E+05 -1.309047E+05 -1.068517E+05 -3.359875E+04 -2.601905E+04 -1.520652E+04
       296  20 -1.250189E+05 -1.297648E+05 -1.069144E+05 -5.773927E+03 -1.777083E+04 -1.405818E+04
       296  21 -5.224671E+04 -1.106274E+05 -9.705056E+04 -3.872634E+04 -9.517529E+03 -1.139632E+04
       296  22  3.906273E+05  1.387588E+04  3.449801E+04 -3.738998E+04 -2.586370E+04 -1.520554E+04
       296  23  3.876608E+05 -2.399446E+03  1.728088E+04 -7.008208E+03 -1.695420E+04 -1.405817E+04
       296  24  3.906406E+05 -5.708056E+02  1.044254E+04 -3.740023E+04 -8.040532E+03 -1.139779E+04
       296  25  9.735131E+05  1.586316E+05  1.758232E+05 -4.118472E+04 -2.570819E+04 -1.520456E+04
       296  26  9.005806E+05  1.249466E+05  1.414573E+05 -8.243452E+03 -1.613689E+04 -1.405817E+04
       296  27  8.337069E+05  1.094714E+05  1.179215E+05 -3.607311E+04 -6.562483E+03 -1.139926E+04
       297   1  5.913312E+04 -8.037779E+04 -7.164165E+04 -3.655923E+04  7.433362E+03  9.630012E+03
       297   2  1.278217E+05 -6.518349E+04 -5.881198E+04 -6.827170E+03  5.221275E+03  7.122010E+03
       297   3  1.972268E+05 -4.773545E+04 -4.400874E+04 -3.719541E+04  3.007118E+03  4.488297E+03
       297   4  3.895044E+05  1.655285E+03  8.220423E+03 -3.724480E+04  6.377668E+03  9.631250E+03
       297   5  3.891466E+05 -2.704048E+02  4.495881E+03 -7.196687E+03  4.110109E+03  7.123650E+03
       297   6  3.895100E+05  6.700172E+01  2.782824E+03 -3.724727E+04  1.840724E+03  4.490377E+03
       297   7  7.199755E+05  8.368038E+04  8.807467E+04 -3.793070E+04  5.321413E+03  9.632490E+03
       297   8  6.505339E+05  6.463768E+04  6.779883E+04 -7.566335E+03  2.998477E+03  7.125291E+03
       297   9  5.818269E+05  4.786673E+04  4.957171E+04 -3.729912E+04  6.739706E+02  4.492456E+03
       297  10  5.913304E+04 -8.037791E+04 -7.164193E+04 -3.655928E+04  2.144191E-10  2.178775E-10
       297  11  1.278216E+05 -6.518355E+04 -5.881212E+04 -6.827200E+03 -1.032930E-09  1.446732E-10
       297  12  1.972268E+05 -4.773547E+04 -4.400880E+04 -3.719543E+04 -2.918193E-09 -8.670392E-10
       297  13  3.895044E+05  1.655174E+03  8.220172E+03 -3.724485E+04 -1.054419E-09  2.119571E-10
       297  14  3.891466E+05 -2.704639E+02  4.495754E+03 -7.196711E+03 -9.127778E-10  9.091786E-10
       297  15  3.895100E+05  6.697916E+01  2.782780E+03 -3.724728E+04 -1.251806E-09  1.271891E-09
       297  16  7.199754E+05  8.368027E+04  8.807444E+04 -3.793074E+04 -9.858787E-10  2.550937E-11
       297  17  6.505339E+05  6.463762E+04  6.779871E+04 -7.566352E+03 -4.340755E-10 -9.804157E-10
       297  18  5.818269E+05  4.786671E+04  4.957168E+04 -3.729913E+04  7.412101E-10 -4.446803E-10
       297  19  5.913312E+04 -8.037779E+04 -7.164165E+04 -3.655923E+04 -7.433362E+03 -9.630012E+03
       297  20  1.278217E+05 -6.518349E+04 -5.881198E+04 -6.827170E+03 -5.221275E+03 -7.122010E+03
       297  21  1.972268E+05 -4.773545E+04 -4.400874E+04 -3.719541E+04 -3.007118E+03 -4.488297E+03
       297  22  3.895044E+05  1.655285E+03  8.220423E+03 -3.724480E+04 -6.377668E+03 -9.631250E+03
       297  23  3.891466E+05 -2.704048E+02  4.495881E+03 -7.196687E+03 -4.110109E+03 -7.123650E+03
       297  24  3.895100E+05  6.700172E+01  2.782824E+03 -3.724727E+04 -1.840724E+03 -4.490377E+03
       297  25  7.199755E+05  8.368038E+04  8.807467E+04 -3.793070E+04 -5.321413E+03 -9.632490E+03
       297  26  6.505339E+05  6.463768E+04  6.779883E+04 -7.566335E+03 -2.998477E+03 -7.125291E+03
       297  27  5.818269E+05  4.786673E+04  4.957171E+04 -3.729912E+04 -6.739706E+02 -4.492456E+03
       298   1  3.087087E+05 -1.968403E+04 -1.707158E+04 -3.705798E+04  2.513687E+03  2.937935E+03
       298   2  3.775099E+05 -2.958058E+03 -1.294013E+03 -7.248642E+03  1.727864E+03  3.207335E+02
       298   3  4.462566E+05  1.424530E+04  1.505421E+04 -3.729319E+04  9.418734E+02 -2.306776E+03
       298   4  3.893459E+05  3.023710E+02  2.252389E+03 -3.719184E+04  1.384250E+03  2.940073E+03
       298   5  3.893746E+05 -1.132387E+01  1.579782E+03 -7.265075E+03  5.938476E+02  3.228867E+02
       298   6  3.893462E+05  1.537302E+02  1.481490E+03 -3.719212E+04 -1.966361E+02 -2.304592E+03
       298   7  4.699891E+05  2.028830E+04  2.157590E+04 -3.732571E+04  2.546663E+02  2.942210E+03
       298   8  4.012395E+05  2.935401E+03  4.453571E+03 -7.281508E+03 -5.401903E+02  3.250398E+02
       298   9  3.324389E+05 -1.393807E+04 -1.209145E+04 -3.709105E+04 -1.335042E+03 -2.302407E+03
       298  10  3.087087E+05 -1.968404E+04 -1.707160E+04 -3.705798E+04  2.123391E-09 -2.456705E-10
       298  11  3.775099E+05 -2.958059E+03 -1.294018E+03 -7.248643E+03  2.275818E-09  3.296265E-10
       298  12  4.462566E+05  1.424529E+04  1.505420E+04 -3.729319E+04 -6.185150E-10  7.523966E-11
       298  13  3.893459E+05  3.023612E+02  2.252369E+03 -3.719184E+04 -1.443210E-09 -1.638200E-09
       298  14  3.893746E+05 -1.132407E+01  1.579781E+03 -7.265075E+03 -3.400260E-10 -5.962621E-11
       298  15  3.893462E+05  1.537244E+02  1.481479E+03 -3.719212E+04 -9.265885E-10 -8.855986E-10
       298  16  4.699891E+05  2.028829E+04  2.157588E+04 -3.732571E+04 -2.974550E-09  2.668152E-10
       298  17  4.012395E+05  2.935401E+03  4.453570E+03 -7.281508E+03 -2.991573E-09 -4.703033E-10
       298  18  3.324389E+05 -1.393808E+04 -1.209146E+04 -3.709106E+04 -6.577491E-10 -1.630827E-09
       298  19  3.087087E+05 -1.968403E+04 -1.707158E+04 -3.705798E+04 -2.513687E+03 -2.937935E+03
       298  20  3.775099E+05 -2.958058E+03 -1.294013E+03 -7.248642E+03 -1.727864E+03 -3.207335E+02
       298  21  4.462566E+05  1.424530E+04  1.505421E+04 -3.729319E+04 -9.418734E+02  2.306776E+03
       298  22  3.893459E+05  3.023710E+02  2.252389E+03 -3.719184E+04 -1.384250E+03 -2.940073E+03
       298  23  3.893746E+05 -1.132387E+01  1.579782E+03 -7.265075E+03 -5.938476E+02 -3.228867E+02
       298  24  3.893462E+05  1.537302E+02  1.481490E+03 -3.719212E+04  1.966361E+02  2.304592E+03
       298  25  4.699891E+05  2.028830E+04  2.157590E+04 -3.732571E+04 -2.546663E+02 -2.942210E+03
       298  26  4.012395E+05  2.935401E+03  4.453571E+03 -7.281508E+03  5.401903E+02 -3.250398E+02
       298  27  3.324389E+05 -1.393807E+04 -1.209145E+04 -3.709105E+04  1.335042E+03  2.302407E+03
       299   1  5.579221E+05  4.204188E+04  4.263239E+04 -3.743215E+04  6.609765E+02 -3.840580E+03
       299   2  6.268776E+05  5.894507E+04  5.971880E+04 -7.496400E+03 -4.339401E+02 -6.472535E+03
       299   3  6.959710E+05  7.646563E+04  7.763569E+04 -3.761517E+04 -1.527484E+03 -9.099524E+03
       299   4  3.893809E+05  1.446881E+02  1.599358E+03 -3.723707E+04 -4.786802E+02 -3.838499E+03
       299   5  3.893125E+05 -4.848628E+01  2.182253E+03 -7.208908E+03 -1.571154E+03 -6.470768E+03
       299   6  3.893763E+05  3.754908E+02  3.594218E+03 -3.723668E+04 -2.662136E+03 -9.098056E+03
       299   7  2.208657E+05 -4.175460E+04 -3.943573E+04 -3.704203E+04 -1.618029E+03 -3.836418E+03
       299   8  1.517989E+05 -5.904617E+04 -5.535835E+04 -6.921504E+03 -2.707935E+03 -6.469002E+03
       299   9  8.286749E+04 -7.572151E+04 -7.045399E+04 -3.685834E+04 -3.796230E+03 -9.096588E+03
       299  10  5.579221E+05  4.204187E+04  4.263236E+04 -3.743215E+04 -4.584179E-10  1.545459E-09
       299  11  6.268775E+05  5.894502E+04  5.971872E+04 -7.496403E+03  4.771179E-10  2.381219E-09
       299  12  6.959710E+05  7.646554E+04  7.763553E+04 -3.761518E+04  7.431315E-10 -1.488616E-09
       299  13  3.893809E+05  1.446722E+02  1.599330E+03 -3.723707E+04 -9.831906E-10  2.263057E-10
       299  14  3.893125E+05 -4.853191E+01  2.182169E+03 -7.208916E+03 -1.644287E-10 -7.390493E-10
       299  15  3.893763E+05  3.754000E+02  3.594049E+03 -3.723670E+04 -3.974254E-10  2.331273E-10
       299  16  2.208656E+05 -4.175461E+04 -3.943576E+04 -3.704204E+04 -2.514359E-10 -7.085156E-11
       299  17  1.517989E+05 -5.904622E+04 -5.535844E+04 -6.921518E+03 -1.195501E-09 -7.352523E-10
       299  18  8.286745E+04 -7.572160E+04 -7.045417E+04 -3.685837E+04 -1.370292E-09  1.759117E-10
       299  19  5.579221E+05  4.204188E+04  4.263239E+04 -3.743215E+04 -6.609765E+02  3.840580E+03
       299  20  6.268776E+05  5.894507E+04  5.971880E+04 -7.496400E+03  4.339401E+02  6.472535E+03
       299  21  6.959710E+05  7.646563E+04  7.763569E+04 -3.761517E+04  1.527484E+03  9.099524E+03
       299  22  3.893809E+05  1.446881E+02  1.599358E+03 -3.723707E+04  4.786802E+02  3.838499E+03
       299  23  3.893125E+05 -4.848628E+01  2.182253E+03 -7.208908E+03  1.571154E+03  6.470768E+03
       299  24  3.893763E+05  3.754908E+02  3.594218E+03 -3.723668E+04  2.662136E+03  9.098056E+03
       299  25  2.208657E+05 -4.175460E+04 -3.943573E+04 -3.704203E+04  1.618029E+03  3.836418E+03
       299  26  1.517989E+05 -5.904617E+04 -5.535835E+04 -6.921504E+03  2.707935E+03  6.469002E+03
       299  27  8.286749E+04 -7.572151E+04 -7.045399E+04 -3.685834E+04  3.796230E+03  9.096588E+03
       300   1  8.087455E+05  1.040649E+05  1.062919E+05 -3.744755E+04 -2.221110E+03 -1.066541E+04
       300   2  8.777087E+05  1.208513E+05  1.260359E+05 -7.481692E+03 -6.155986E+03 -1.332135E+04
       300   3  9.483375E+05  1.413929E+05  1.493190E+05 -3.822899E+04 -1.008810E+04 -1.582547E+04
       300   4  3.896898E+05 -2.654102E+01  4.600664E+03 -3.738446E+04 -3.403101E+03 -1.066421E+04
       300   5  3.888595E+05 -5.232362E+02  7.661061E+03 -7.025312E+03 -7.269655E+03 -1.332088E+04
       300   6  3.896796E+05  2.725390E+03  1.421559E+04 -3.738224E+04 -1.113301E+04 -1.582566E+04
       300   7 -2.920565E+04 -1.041309E+05 -9.710328E+04 -3.732136E+04 -4.584297E+03 -1.066302E+04
       300   8 -9.977174E+04 -1.219153E+05 -1.107309E+05 -6.569235E+03 -8.382449E+03 -1.332040E+04
       300   9 -1.686935E+05 -1.359649E+05 -1.209102E+05 -3.653619E+04 -1.217698E+04 -1.582584E+04
       300  10  8.087454E+05  1.040648E+05  1.062917E+05 -3.744756E+04  3.865034E-10 -1.582141E-09
       300  11  8.777087E+05  1.208511E+05  1.260355E+05 -7.481758E+03  9.065225E-10 -1.883884E-10
       300  12  9.483373E+05  1.413926E+05  1.493183E+05 -3.822912E+04 -6.310192E-11  7.615748E-12
       300  13  3.896898E+05 -2.666627E+01  4.600429E+03 -3.738449E+04 -1.056233E-09  4.208808E-10
       300  14  3.888594E+05 -5.234409E+02  7.660628E+03 -7.025390E+03  2.043722E-10 -9.560223E-10
       300  15  3.896794E+05  2.725088E+03  1.421489E+04 -3.738238E+04 -5.049849E-10 -2.248787E-11
       300  16 -2.920570E+04 -1.041310E+05 -9.710354E+04 -3.732140E+04 -1.831860E-10  3.377480E-10
       300  17 -9.977186E+04 -1.219155E+05 -1.107314E+05 -6.569325E+03 -8.418755E-10  1.454476E-09
       300  18 -1.686937E+05 -1.359653E+05 -1.209110E+05 -3.653635E+04 -2.435899E-10  2.644982E-10
       300  19  8.087455E+05  1.040649E+05  1.062919E+05 -3.744755E+04  2.221110E+03  1.066541E+04
       300  20  8.777087E+05  1.208513E+05  1.260359E+05 -7.481692E+03  6.155986E+03  1.332135E+04
       300  21  9.483375E+05  1.413929E+05  1.493190E+05 -3.822899E+04  1.008810E+04  1.582547E+04
       300  22  3.896898E+05 -2.654102E+01  4.600664E+03 -3.738446E+04  3.403101E+03  1.066421E+04
       300  23  3.888595E+05 -5.232362E+02  7.661061E+03 -7.025312E+03  7.269655E+03  1.332088E+04
       300  24  3.896796E+05  2.725390E+03  1.421559E+04 -3.738224E+04  1.113301E+04  1.582566E+04
       300  25 -2.920565E+04 -1.041309E+05 -9.710328E+04 -3.732136E+04  4.584297E+03  1.066302E+04
       300  26 -9.977174E+04 -1.219153E+05 -1.107309E+05 -6.569235E+03  8.382449E+03  1.332040E+04
       300  27 -1.686935E+05 -1.359649E+05 -1.209102E+05 -3.653619E+04  1.217698E+04  1.582584E+04
       301   1  1.064458E+06  1.659144E+05  1.811814E+05 -3.478612E+04 -1.243109E+04 -1.767517E+04
       301   2  1.130154E+06  1.804380E+05  2.100605E+05 -8.191164E+03 -2.874072E+04 -2.038996E+04
       301   3  1.206681E+06  2.263762E+05  2.575728E+05 -4.341623E+04 -4.504857E+04 -2.120017E+04
       301   4  3.916492E+05 -1.148691E+03  1.809516E+04 -3.762777E+04 -1.400947E+04 -1.767561E+04
       301   5  3.862918E+05 -4.217690E+03  2.999468E+04 -6.721036E+03 -2.947861E+04 -2.039167E+04
       301   6  3.916289E+05  2.400332E+04  5.996070E+04 -3.763850E+04 -4.494413E+04 -2.120236E+04
       301   7 -2.807471E+05 -1.682449E+05 -1.450236E+05 -4.046628E+04 -1.558613E+04 -1.767604E+04
       301   8 -3.570660E+05 -1.889139E+05 -1.501110E+05 -5.252678E+03 -3.021561E+04 -2.039339E+04
       301   9 -4.228177E+05 -1.784181E+05 -1.376992E+05 -3.186843E+04 -4.483980E+04 -2.120454E+04
       301  10  1.064458E+06  1.659140E+05  1.811805E+05 -3.478630E+04 -3.391515E-10 -1.053228E-11
       301  11  1.130153E+06  1.804374E+05  2.100582E+05 -8.191635E+03 -1.359026E-11 -3.963807E-10
       301  12  1.206679E+06  2.263751E+05  2.575681E+05 -4.341700E+04 -7.566200E-11 -3.207040E-10
       301  13  3.916489E+05 -1.149080E+03  1.809421E+04 -3.762797E+04 -4.816666E-10  3.951677E-10
       301  14  3.862907E+05 -4.218370E+03  2.999227E+04 -6.721520E+03  1.357851E-10 -7.551063E-10
       301  15  3.916266E+05  2.400230E+04  5.995606E+04 -3.763926E+04 -3.447050E-10  6.779718E-10
       301  16 -2.807475E+05 -1.682453E+05 -1.450247E+05 -4.046650E+04 -1.510675E-10  2.679829E-10
       301  17 -3.570671E+05 -1.889146E+05 -1.501134E+05 -5.253175E+03  3.109598E-10  2.378930E-10
       301  18 -4.228200E+05 -1.784191E+05 -1.377039E+05 -3.186919E+04  5.879941E-10  9.017728E-11
       301  19  1.064458E+06  1.659144E+05  1.811814E+05 -3.478612E+04  1.243109E+04  1.767517E+04
       301  20  1.130154E+06  1.804380E+05  2.100605E+05 -8.191164E+03  2.874072E+04  2.038996E+04
       301  21  1.206681E+06  2.263762E+05  2.575728E+05 -4.341623E+04  4.504857E+04  2.120017E+04
       301  22  3.916492E+05 -1.148691E+03  1.809516E+04 -3.762777E+04  1.400947E+04  1.767561E+04
       301  23  3.862918E+05 -4.217690E+03  2.999468E+04 -6.721036E+03  2.947861E+04  2.039167E+04
       301  24  3.916289E+05  2.400332E+04  5.996070E+04 -3.763850E+04  4.494413E+04  2.120236E+04
       301  25 -2.807471E+05 -1.682449E+05 -1.450236E+05 -4.046628E+04  1.558613E+04  1.767604E+04
       301  26 -3.570660E+05 -1.889139E+05 -1.501110E+05 -5.252678E+03  3.021561E+04  2.039339E+04
       301  27 -4.228177E+05 -1.784181E+05 -1.376992E+05 -3.186843E+04  4.483980E+04  2.120454E+04
       302   1  1.337955E+06  2.210362E+05  2.986272E+05 -1.177482E+04 -5.059648E+04 -2.602946E+04
       302   2  1.372045E+06  2.142049E+05  3.581985E+05 -2.135969E+04 -1.227012E+05 -2.899551E+04
       302   3  1.484614E+06  4.768053E+05  5.323639E+05 -9.435753E+04 -1.948619E+05 -1.011955E+04
       302   4  4.063004E+05 -1.024244E+04  7.325226E+04 -3.784939E+04 -5.651463E+04 -2.603541E+04
       302   5  3.678048E+05 -3.492016E+04  1.155162E+05 -6.376892E+03 -1.190801E+05 -2.899577E+04
       302   6  4.062497E+05  2.084061E+05  2.658818E+05 -3.831585E+04 -1.816916E+05 -1.010807E+04
       302   7 -5.245606E+05 -2.415820E+05 -1.521845E+05 -6.388494E+04 -6.242390E+04 -2.604085E+04
       302   8 -6.355141E+05 -2.841180E+05 -1.272381E+05  8.581260E+03 -1.154646E+05 -2.899585E+04
       302   9 -6.710519E+05 -6.006767E+04 -6.840059E+02  1.762800E+04 -1.685438E+05 -1.009422E+04
       302  10  1.337952E+06  2.210348E+05  2.986211E+05 -1.177588E+04 -3.552074E-10  6.824636E-10
       302  11  1.372028E+06  2.141999E+05  3.581687E+05 -2.136255E+04 -6.128470E-10  2.012726E-10
       302  12  1.484573E+06  4.767950E+05  5.322925E+05 -9.435911E+04  1.583240E-11 -7.068385E-10
       302  13  4.062968E+05 -1.024402E+04  7.324499E+04 -3.785058E+04  1.459539E-10  1.225943E-09
       302  14  3.677894E+05 -3.492487E+04  1.154880E+05 -6.379672E+03  4.512310E-10  2.513039E-09
       302  15  4.062143E+05  2.083971E+05  2.658197E+05 -3.831733E+04  5.361415E-10 -3.257199E-10
       302  16 -5.245650E+05 -2.415838E+05 -1.521932E+05 -6.388625E+04  3.860741E-10  3.355702E-10
       302  17 -6.355286E+05 -2.841225E+05 -1.272648E+05  8.578562E+03  9.693723E-11 -2.319860E-10
       302  18 -6.710825E+05 -6.007541E+04 -7.376354E+02  1.762663E+04  1.023632E-09 -8.193606E-10
       302  19  1.337955E+06  2.210362E+05  2.986272E+05 -1.177482E+04  5.059648E+04  2.602946E+04
       302  20  1.372045E+06  2.142049E+05  3.581985E+05 -2.135969E+04  1.227012E+05  2.899551E+04
       302  21  1.484614E+06  4.768053E+05  5.323639E+05 -9.435753E+04  1.948619E+05  1.011955E+04
       302  22  4.063004E+05 -1.024244E+04  7.325226E+04 -3.784939E+04  5.651463E+04  2.603541E+04
       302  23  3.678048E+05 -3.492016E+04  1.155162E+05 -6.376892E+03  1.190801E+05  2.899577E+04
       302  24  4.062497E+05  2.084061E+05  2.658818E+05 -3.831585E+04  1.816916E+05  1.010807E+04
       302  25 -5.245606E+05 -2.415820E+05 -1.521845E+05 -6.388494E+04  6.242390E+04  2.604085E+04
       302  26 -6.355141E+05 -2.841180E+05 -1.272381E+05  8.581260E+03  1.154646E+05  2.899585E+04
       302  27 -6.710519E+05 -6.006767E+04 -6.840059E+02  1.762800E+04  1.685438E+05  1.009422E+04
       303   1  2.210262E+05  7.413123E+05  2.450657E+05 -9.621127E+04  4.173400E+03  8.565938E+04
       303   2  8.014888E+04  5.919683E+05  1.437696E+05 -2.047352E+04  1.118918E+04  5.291187E+04
       303   3  5.846172E+04  4.765233E+05  9.353990E+04 -5.951157E+04  6.270326E+03  2.015410E+04
       303   4  9.199564E+04  2.242186E+05  1.170587E+05 -7.026739E+04  4.183745E+03  8.002363E+04
       303   5 -1.526079E+04  2.077224E+05  5.091746E+04 -1.293679E+04  1.119088E+04  5.245757E+04
       303   6 -4.182798E+03  2.242405E+05  3.227766E+04 -7.038228E+04  6.262055E+03  2.487417E+04
       303   7 -3.705245E+04 -2.926309E+05 -1.096769E+04 -4.434504E+04  4.193626E+03  7.439254E+04
       303   8 -1.106810E+05 -1.763887E+05 -4.194523E+04 -5.404690E+03  1.119256E+04  5.200355E+04
       303   9 -6.683153E+04 -2.798388E+04 -2.898903E+04 -8.124854E+04  6.253616E+03  2.959233E+04
       303  10  2.210242E+05  7.413044E+05  2.450519E+05 -9.621155E+04  9.343149E-11  1.280662E-11
       303  11  8.014799E+04  5.919653E+05  1.437641E+05 -2.047399E+04 -1.670488E-10  5.505913E-10
       303  12  5.846157E+04  4.765229E+05  9.353906E+04 -5.951167E+04  8.260770E-10  1.605868E-10
       303  13  9.199390E+04  2.242117E+05  1.170467E+05 -7.026766E+04  3.875164E-10 -5.857443E-10
       303  14 -1.526166E+04  2.077194E+05  5.091206E+04 -1.293726E+04 -1.307057E-09  1.429004E-10
       303  15 -4.183006E+03  2.242398E+05  3.227642E+04 -7.038241E+04  5.574191E-10  6.921070E-10
       303  16 -3.705395E+04 -2.926369E+05 -1.097812E+04 -4.434529E+04  5.706284E-11 -1.472451E-10
       303  17 -1.106819E+05 -1.763916E+05 -4.195054E+04 -5.405159E+03  9.138222E-12 -1.122417E-09
       303  18 -6.683180E+04 -2.798483E+04 -2.899075E+04 -8.124869E+04  1.038427E-10 -7.038361E-10
       303  19  2.210262E+05  7.413123E+05  2.450657E+05 -9.621127E+04 -4.173400E+03 -8.565938E+04
       303  20  8.014888E+04  5.919683E+05  1.437696E+05 -2.047352E+04 -1.118918E+04 -5.291187E+04
       303  21  5.846172E+04  4.765233E+05  9.353990E+04 -5.951157E+04 -6.270326E+03 -2.015410E+04
       303  22  9.199564E+04  2.242186E+05  1.170587E+05 -7.026739E+04 -4.183745E+03 -8.002363E+04
       303  23 -1.526079E+04  2.077224E+05  5.091746E+04 -1.293679E+04 -1.119088E+04 -5.245757E+04
       303  24 -4.182798E+03  2.242405E+05  3.227766E+04 -7.038228E+04 -6.262055E+03 -2.487417E+04
       303  25 -3.705245E+04 -2.926309E+05 -1.096769E+04 -4.434504E+04 -4.193626E+03 -7.439254E+04
       303  26 -1.106810E+05 -1.763887E+05 -4.194523E+04 -5.404690E+03 -1.119256E+04 -5.200355E+04
       303  27 -6.683153E+04 -2.798388E+04 -2.898903E+04 -8.124854E+04 -6.253616E+03 -2.959233E+04
       304   1  2.026807E+04  2.556712E+05  3.550774E+04 -7.313299E+04  1.364918E+03  1.797668E+04
       304   2 -2.519882E+04  1.215432E+05 -9.537863E+03 -1.345571E+04 -2.609098E+03  1.125498E+04
       304   3 -5.637299E+04 -8.567239E+03 -4.673337E+04 -6.869725E+04 -6.263423E+03  4.536197E+03
       304   4  1.087302E+04  2.178146E+05  2.643688E+04 -7.036213E+04  1.361832E+03  1.976857E+04
       304   5 -1.787018E+03  2.158004E+05  1.329300E+04 -1.291283E+04 -2.611803E+03  1.290923E+04
       304   6 -1.295992E+02  2.178128E+05  8.097189E+03 -7.038080E+04 -6.265767E+03  6.051401E+03
       304   7  1.477902E+03  1.799593E+05  1.736593E+04 -6.759144E+04  1.358760E+03  2.156035E+04
       304   8  2.162414E+04  3.100657E+05  3.612324E+04 -1.236987E+04 -2.614504E+03  1.456373E+04
       304   9  5.611005E+04  4.442396E+05  6.292407E+04 -7.206495E+04 -6.268117E+03  7.567156E+03
       304  10  2.026798E+04  2.556709E+05  3.550713E+04 -7.313301E+04  4.376802E-10  2.757930E-11
       304  11 -2.519886E+04  1.215431E+05 -9.538114E+03 -1.345569E+04  3.466053E-10  4.682645E-10
       304  12 -5.637304E+04 -8.567272E+03 -4.673348E+04 -6.869723E+04 -7.871478E-10 -1.896460E-10
       304  13  1.087292E+04  2.178142E+05  2.643614E+04 -7.036216E+04  2.662606E-10 -8.795576E-10
       304  14 -1.787070E+03  2.158002E+05  1.329268E+04 -1.291281E+04  9.967867E-10 -5.734134E-11
       304  15 -1.296511E+02  2.178127E+05  8.097046E+03 -7.038077E+04  1.436678E-09  5.312673E-10
       304  16  1.477776E+03  1.799588E+05  1.736505E+04 -6.759147E+04  1.888642E-10 -1.349077E-10
       304  17  2.162407E+04  3.100654E+05  3.612282E+04 -1.236984E+04 -1.465881E-09 -1.234184E-09
       304  18  5.610999E+04  4.442396E+05  6.292389E+04 -7.206491E+04 -6.542992E-10 -3.661226E-10
       304  19  2.026807E+04  2.556712E+05  3.550774E+04 -7.313299E+04 -1.364918E+03 -1.797668E+04
       304  20 -2.519882E+04  1.215432E+05 -9.537863E+03 -1.345571E+04  2.609098E+03 -1.125498E+04
       304  21 -5.637299E+04 -8.567239E+03 -4.673337E+04 -6.869725E+04  6.263423E+03 -4.536197E+03
       304  22  1.087302E+04  2.178146E+05  2.643688E+04 -7.036213E+04 -1.361832E+03 -1.976857E+04
       304  23 -1.787018E+03  2.158004E+05  1.329300E+04 -1.291283E+04  2.611803E+03 -1.290923E+04
       304  24 -1.295992E+02  2.178128E+05  8.097189E+03 -7.038080E+04  6.265767E+03 -6.051401E+03
       304  25  1.477902E+03  1.799593E+05  1.736593E+04 -6.759144E+04 -1.358760E+03 -2.156035E+04
       304  26  2.162414E+04  3.100657E+05  3.612324E+04 -1.236987E+04  2.614504E+03 -1.456373E+04
       304  27  5.611005E+04  4.442396E+05  6.292407E+04 -7.206495E+04  6.268117E+03 -7.567156E+03
       305   1 -1.082225E+05 -2.236762E+05 -1.005096E+05 -7.033478E+04 -1.165389E+04 -7.880935E+02
       305   2 -1.428593E+05 -3.564519E+05 -1.350602E+05 -1.234970E+04 -1.666367E+04  4.146819E+03
       305   3 -1.744992E+05 -4.888881E+05 -1.720374E+05 -6.934020E+04 -6.036146E+03  9.095975E+03
       305   4  1.344868E+03  2.172078E+05  6.435775E+03 -7.038587E+04 -1.166167E+04  4.751440E+03
       305   5 -5.546528E+02  2.164508E+05  3.495121E+03 -1.290169E+04 -1.666139E+04  2.933387E+03
       305   6  1.714716E+03  2.171878E+05  2.818395E+03 -7.038641E+04 -6.030151E+03  1.130745E+03
       305   7  1.108980E+05  6.582695E+05  1.133673E+05 -7.043692E+04 -1.166945E+04  1.029490E+04
       305   8  1.417259E+05  7.896534E+05  1.420269E+05 -1.345411E+04 -1.665911E+04  1.718836E+03
       305   9  1.778914E+05  9.237167E+05  1.776373E+05 -7.143371E+04 -6.024134E+03 -6.843542E+03
       305  10 -1.082227E+05 -2.236763E+05 -1.005099E+05 -7.033479E+04  9.909607E-11  1.368119E-12
       305  11 -1.428596E+05 -3.564520E+05 -1.350607E+05 -1.234965E+04 -8.929692E-11  2.659976E-10
       305  12 -1.744993E+05 -4.888882E+05 -1.720376E+05 -6.934016E+04 -1.552509E-10  5.070575E-11
       305  13  1.344716E+03  2.172078E+05  6.435477E+03 -7.038583E+04 -1.419456E-09 -6.236313E-10
       305  14 -5.549533E+02  2.164507E+05  3.494583E+03 -1.290165E+04  3.176213E-10  2.624006E-11
       305  15  1.714676E+03  2.171878E+05  2.818324E+03 -7.038641E+04 -4.847935E-11  2.240479E-10
       305  16  1.108978E+05  6.582693E+05  1.133668E+05 -7.043682E+04  8.452352E-11 -1.954954E-10
       305  17  1.417256E+05  7.896534E+05  1.420263E+05 -1.345408E+04 -1.009049E-10 -7.386011E-10
       305  18  1.778913E+05  9.237167E+05  1.776372E+05 -7.143375E+04 -3.523573E-10 -1.724424E-10
       305  19 -1.082225E+05 -2.236762E+05 -1.005096E+05 -7.033478E+04  1.165389E+04  7.880935E+02
       305  20 -1.428593E+05 -3.564519E+05 -1.350602E+05 -1.234970E+04  1.666367E+04 -4.146819E+03
       305  21 -1.744992E+05 -4.888881E+05 -1.720374E+05 -6.934020E+04  6.036146E+03 -9.095975E+03
       305  22  1.344868E+03  2.172078E+05  6.435775E+03 -7.038587E+04  1.166167E+04 -4.751440E+03
       305  23 -5.546528E+02  2.164508E+05  3.495121E+03 -1.290169E+04  1.666139E+04 -2.933387E+03
       305  24  1.714716E+03  2.171878E+05  2.818395E+03 -7.038641E+04  6.030151E+03 -1.130745E+03
       305  25  1.108980E+05  6.582695E+05  1.133673E+05 -7.043692E+04  1.166945E+04 -1.029490E+04
       305  26  1.417259E+05  7.896534E+05  1.420269E+05 -1.345411E+04  1.665911E+04 -1.718836E+03
       305  27  1.778914E+05  9.237167E+05  1.776373E+05 -7.143371E+04  6.024134E+03  6.843542E+03
       306   1 -1.777047E+06 -5.610743E+05 -3.607394E+05 -6.179283E+05 -1.757458E+05 -6.240852E+04
       306   2 -1.727205E+06 -2.995846E+05 -1.966573E+05 -6.465113E+05 -1.141170E+05 -3.195767E+04
       306   3 -1.769785E+06 -3.011983E+05 -1.494230E+05 -6.220413E+05 -4.978111E+04 -8.705491E+03
       306   4 -1.478076E+06 -3.978753E+05 -2.690674E+05 -4.849970E+05 -1.717757E+05 -6.093381E+04
       306   5 -1.418351E+06 -1.693511E+05 -1.114511E+05 -5.480554E+05 -1.130268E+05 -3.155161E+04
       306   6 -1.450428E+06 -2.032865E+05 -6.835267E+04 -5.580750E+05 -5.157051E+04 -9.375413E+03
       306   7 -1.179012E+06 -2.346373E+05 -1.774039E+05 -3.519980E+05 -1.678036E+05 -5.945749E+04
       306   8 -1.109404E+06 -3.910504E+04 -2.625370E+04 -4.495529E+05 -1.119359E+05 -3.114525E+04
       306   9 -1.130974E+06 -1.053761E+05  1.270978E+04 -4.940828E+05 -5.336091E+04 -1.004555E+04
       306  10 -1.777081E+06 -5.610868E+05 -3.608050E+05 -6.179372E+05 -1.761890E-10 -7.591450E-11
       306  11 -1.727220E+06 -2.995892E+05 -1.966838E+05 -6.465142E+05 -7.919202E-10 -3.000974E-10
       306  12 -1.769787E+06 -3.011990E+05 -1.494279E+05 -6.220417E+05 -4.695596E-10 -1.763713E-10
       306  13 -1.478109E+06 -3.978873E+05 -2.691300E+05 -4.850054E+05  6.543458E-10 -2.164826E-10
       306  14 -1.418365E+06 -1.693556E+05 -1.114770E+05 -5.480583E+05 -1.438387E-10 -3.473493E-10
       306  15 -1.450431E+06 -2.032873E+05 -6.835785E+04 -5.580754E+05 -4.313219E-10 -1.585458E-10
       306  16 -1.179043E+06 -2.346487E+05 -1.774636E+05 -3.520060E+05 -4.179091E-10 -1.713658E-10
       306  17 -1.109418E+06 -3.910946E+04 -2.627912E+04 -4.495557E+05 -6.115113E-11 -3.591416E-10
       306  18 -1.130977E+06 -1.053769E+05  1.270423E+04 -4.940832E+05 -9.708596E-13 -4.610105E-10
       306  19 -1.777047E+06 -5.610743E+05 -3.607394E+05 -6.179283E+05  1.757458E+05  6.240852E+04
       306  20 -1.727205E+06 -2.995846E+05 -1.966573E+05 -6.465113E+05  1.141170E+05  3.195767E+04
       306  21 -1.769785E+06 -3.011983E+05 -1.494230E+05 -6.220413E+05  4.978111E+04  8.705491E+03
       306  22 -1.478076E+06 -3.978753E+05 -2.690674E+05 -4.849970E+05  1.717757E+05  6.093381E+04
       306  23 -1.418351E+06 -1.693511E+05 -1.114511E+05 -5.480554E+05  1.130268E+05  3.155161E+04
       306  24 -1.450428E+06 -2.032865E+05 -6.835267E+04 -5.580750E+05  5.157051E+04  9.375413E+03
       306  25 -1.179012E+06 -2.346373E+05 -1.774039E+05 -3.519980E+05  1.678036E+05  5.945749E+04
       306  26 -1.109404E+06 -3.910504E+04 -2.625370E+04 -4.495529E+05  1.119359E+05  3.114525E+04
       306  27 -1.130974E+06 -1.053761E+05  1.270978E+04 -4.940828E+05  5.336091E+04  1.004555E+04
       307   1 -1.709033E+06 -3.393891E+05 -1.287254E+05 -6.206828E+05 -4.122964E+04 -7.168307E+03
       307   2 -1.691354E+06 -2.958807E+05 -9.399850E+04 -6.129029E+05 -2.713712E+04 -1.975023E+03
       307   3 -1.674096E+06 -2.956308E+05 -7.805320E+04 -6.121217E+05 -1.277029E+04  2.488184E+03
       307   4 -1.441197E+06 -2.329065E+05 -5.583748E+04 -5.419985E+05 -4.112775E+04 -7.130780E+03
       307   5 -1.439359E+06 -1.996205E+05 -2.630844E+04 -5.428783E+05 -2.732413E+04 -2.045463E+03
       307   6 -1.437881E+06 -2.095276E+05 -1.532533E+04 -5.507578E+05 -1.324668E+04  2.309525E+03
       307   7 -1.173290E+06 -1.264173E+05  1.704408E+04 -4.632825E+05 -4.102581E+04 -7.093232E+03
       307   8 -1.187302E+06 -1.033560E+05  4.137608E+04 -4.728278E+05 -2.751123E+04 -2.115934E+03
       307   9 -1.201612E+06 -1.234220E+05  4.739772E+04 -4.893733E+05 -1.372326E+04  2.130798E+03
       307  10 -1.709035E+06 -3.393896E+05 -1.287287E+05 -6.206831E+05 -6.390320E-10  3.262574E-10
       307  11 -1.691355E+06 -2.958809E+05 -9.399990E+04 -6.129029E+05  3.194512E-10 -2.301889E-11
       307  12 -1.674096E+06 -2.956308E+05 -7.805352E+04 -6.121217E+05  2.004316E-10 -4.433925E-10
       307  13 -1.441199E+06 -2.329071E+05 -5.584076E+04 -5.419987E+05 -5.827910E-10 -7.408345E-11
       307  14 -1.439360E+06 -1.996207E+05 -2.630986E+04 -5.428783E+05 -4.747813E-10 -3.224226E-10
       307  15 -1.437881E+06 -2.095276E+05 -1.532567E+04 -5.507578E+05  3.037132E-10 -9.720217E-11
       307  16 -1.173292E+06 -1.264178E+05  1.704082E+04 -4.632827E+05 -2.040019E-10  7.175475E-12
       307  17 -1.187303E+06 -1.033562E+05  4.137464E+04 -4.728278E+05 -6.623340E-10  1.031857E-10
       307  18 -1.201612E+06 -1.234220E+05  4.739736E+04 -4.893733E+05 -1.091549E-10  9.063208E-11
       307  19 -1.709033E+06 -3.393891E+05 -1.287254E+05 -6.206828E+05  4.122964E+04  7.168307E+03
       307  20 -1.691354E+06 -2.958807E+05 -9.399850E+04 -6.129029E+05  2.713712E+04  1.975023E+03
       307  21 -1.674096E+06 -2.956308E+05 -7.805320E+04 -6.121217E+05  1.277029E+04 -2.488184E+03
       307  22 -1.441197E+06 -2.329065E+05 -5.583748E+04 -5.419985E+05  4.112775E+04  7.130780E+03
       307  23 -1.439359E+06 -1.996205E+05 -2.630844E+04 -5.428783E+05  2.732413E+04  2.045463E+03
       307  24 -1.437881E+06 -2.095276E+05 -1.532533E+04 -5.507578E+05  1.324668E+04 -2.309525E+03
       307  25 -1.173290E+06 -1.264173E+05  1.704408E+04 -4.632825E+05  4.102581E+04  7.093232E+03
       307  26 -1.187302E+06 -1.033560E+05  4.137608E+04 -4.728278E+05  2.751123E+04  2.115934E+03
       307  27 -1.201612E+06 -1.234220E+05  4.739772E+04 -4.893733E+05  1.372326E+04 -2.130798E+03
       308   1 -1.634637E+06 -2.884404E+05 -6.514390E+04 -6.035949E+05 -1.051026E+04  2.673527E+03
       308   2 -1.620012E+06 -2.698983E+05 -5.367894E+04 -5.903132E+05 -7.042292E+03  3.083109E+03
       308   3 -1.592965E+06 -2.691844E+05 -4.556352E+04 -5.924127E+05 -3.536895E+03  3.391855E+03
       308   4 -1.436361E+06 -2.132924E+05 -1.204415E+04 -5.490941E+05 -1.080671E+04  2.562309E+03
       308   5 -1.442377E+06 -2.029880E+05 -6.139823E+03 -5.419248E+05 -7.378440E+03  2.957117E+03
       308   6 -1.435965E+06 -2.105031E+05 -3.552660E+03 -5.501368E+05 -3.912854E+03  3.251057E+03
       308   7 -1.238047E+06 -1.381422E+05  4.105202E+04 -4.945776E+05 -1.110327E+04  2.451052E+03
       308   8 -1.264712E+06 -1.360759E+05  4.139653E+04 -4.935239E+05 -7.714694E+03  2.831086E+03
       308   9 -1.278940E+06 -1.518203E+05  3.845614E+04 -5.078513E+05 -4.288917E+03  3.110220E+03
       308  10 -1.634637E+06 -2.884405E+05 -6.514412E+04 -6.035949E+05  1.603739E-10 -5.322881E-10
       308  11 -1.620012E+06 -2.698984E+05 -5.367906E+04 -5.903132E+05  3.120654E-10 -3.598652E-10
       308  12 -1.592965E+06 -2.691845E+05 -4.556357E+04 -5.924127E+05 -3.225855E-10 -6.779457E-10
       308  13 -1.436361E+06 -2.132925E+05 -1.204438E+04 -5.490941E+05  1.185494E-10 -2.211176E-10
       308  14 -1.442377E+06 -2.029881E+05 -6.139942E+03 -5.419248E+05 -1.283648E-10 -6.898777E-10
       308  15 -1.435965E+06 -2.105031E+05 -3.552708E+03 -5.501368E+05  3.700260E-10  1.979051E-10
       308  16 -1.238047E+06 -1.381422E+05  4.105177E+04 -4.945776E+05 -1.609066E-10 -5.750276E-10
       308  17 -1.264712E+06 -1.360759E+05  4.139640E+04 -4.935239E+05  4.567333E-10 -4.528059E-10
       308  18 -1.278940E+06 -1.518203E+05  3.845609E+04 -5.078513E+05 -2.512209E-10  2.179143E-10
       308  19 -1.634637E+06 -2.884404E+05 -6.514390E+04 -6.035949E+05  1.051026E+04 -2.673527E+03
       308  20 -1.620012E+06 -2.698983E+05 -5.367894E+04 -5.903132E+05  7.042292E+03 -3.083109E+03
       308  21 -1.592965E+06 -2.691844E+05 -4.556352E+04 -5.924127E+05  3.536895E+03 -3.391855E+03
       308  22 -1.436361E+06 -2.132924E+05 -1.204415E+04 -5.490941E+05  1.080671E+04 -2.562309E+03
       308  23 -1.442377E+06 -2.029880E+05 -6.139823E+03 -5.419248E+05  7.378440E+03 -2.957117E+03
       308  24 -1.435965E+06 -2.105031E+05 -3.552660E+03 -5.501368E+05  3.912854E+03 -3.251057E+03
       308  25 -1.238047E+06 -1.381422E+05  4.105202E+04 -4.945776E+05  1.110327E+04 -2.451052E+03
       308  26 -1.264712E+06 -1.360759E+05  4.139653E+04 -4.935239E+05  7.714694E+03 -2.831086E+03
       308  27 -1.278940E+06 -1.518203E+05  3.845614E+04 -5.078513E+05  4.288917E+03 -3.110220E+03
       309   1 -1.553741E+06 -2.555428E+05 -3.432139E+04 -5.822643E+05 -2.834321E+03  3.048008E+03
       309   2 -1.538818E+06 -2.392197E+05 -2.730489E+04 -5.676213E+05 -1.647826E+03  2.465489E+03
       309   3 -1.509140E+06 -2.384119E+05 -2.104706E+04 -5.701518E+05 -4.520523E+02  1.857463E+03
       309   4 -1.435600E+06 -2.110983E+05 -2.793424E+03 -5.501190E+05 -3.192856E+03  2.913785E+03
       309   5 -1.442956E+06 -2.031904E+05 -1.665967E+03 -5.415885E+05 -2.016489E+03  2.327530E+03
       309   6 -1.435556E+06 -2.107956E+05 -1.288946E+03 -5.502315E+05 -8.308773E+02  1.715757E+03
       309   7 -1.317445E+06 -1.666530E+05  2.873331E+04 -5.179681E+05 -3.551467E+03  2.779535E+03
       309   8 -1.347086E+06 -1.671607E+05  2.397212E+04 -5.155521E+05 -2.385213E+03  2.189547E+03
       309   9 -1.361966E+06 -1.831791E+05  1.846865E+04 -5.303092E+05 -1.209751E+03  1.574034E+03
       309  10 -1.553741E+06 -2.555428E+05 -3.432142E+04 -5.822643E+05 -2.420447E-10 -3.637198E-10
       309  11 -1.538818E+06 -2.392197E+05 -2.730491E+04 -5.676213E+05 -1.023756E-10 -8.067521E-10
       309  12 -1.509140E+06 -2.384119E+05 -2.104707E+04 -5.701518E+05 -2.042297E-11 -5.686316E-10
       309  13 -1.435600E+06 -2.110983E+05 -2.793459E+03 -5.501190E+05 -9.553863E-11 -6.347336E-10
       309  14 -1.442956E+06 -2.031904E+05 -1.665985E+03 -5.415885E+05 -5.119684E-10 -6.378448E-10
       309  15 -1.435556E+06 -2.107956E+05 -1.288953E+03 -5.502315E+05 -4.109575E-10 -7.632096E-10
       309  16 -1.317445E+06 -1.666530E+05  2.873328E+04 -5.179681E+05 -2.977971E-10  4.204908E-10
       309  17 -1.347086E+06 -1.671607E+05  2.397210E+04 -5.155521E+05  4.335615E-10  4.298841E-10
       309  18 -1.361966E+06 -1.831791E+05  1.846864E+04 -5.303092E+05  1.217707E-10 -3.523269E-10
       309  19 -1.553741E+06 -2.555428E+05 -3.432139E+04 -5.822643E+05  2.834321E+03 -3.048008E+03
       309  20 -1.538818E+06 -2.392197E+05 -2.730489E+04 -5.676213E+05  1.647826E+03 -2.465489E+03
       309  21 -1.509140E+06 -2.384119E+05 -2.104706E+04 -5.701518E+05  4.520523E+02 -1.857463E+03
       309  22 -1.435600E+06 -2.110983E+05 -2.793424E+03 -5.501190E+05  3.192856E+03 -2.913785E+03
       309  23 -1.442956E+06 -2.031904E+05 -1.665967E+03 -5.415885E+05  2.016489E+03 -2.327530E+03
       309  24 -1.435556E+06 -2.107956E+05 -1.288946E+03 -5.502315E+05  8.308773E+02 -1.715757E+03
       309  25 -1.317445E+06 -1.666530E+05  2.873331E+04 -5.179681E+05  3.551467E+03 -2.779535E+03
       309  26 -1.347086E+06 -1.671607E+05  2.397212E+04 -5.155521E+05  2.385213E+03 -2.189547E+03
       309  27 -1.361966E+06 -1.831791E+05  1.846865E+04 -5.303092E+05  1.209751E+03 -1.574034E+03
       310   1 -1.468755E+06 -2.234100E+05 -1.008734E+04 -5.593992E+05 -3.693507E+01  1.389215E+03
       310   2 -1.453519E+06 -2.070269E+05 -4.332014E+03 -5.443135E+05  1.084811E+03  7.417230E+02
       310   3 -1.423175E+06 -2.064588E+05  7.308162E+02 -5.468222E+05  2.205742E+03  9.644034E+01
       310   4 -1.435479E+06 -2.108810E+05 -1.267614E+03 -5.503176E+05 -4.152560E+02  1.247721E+03
       310   5 -1.443050E+06 -2.030961E+05 -1.532740E+03 -5.414744E+05  7.073861E+02  6.005681E+02
       310   6 -1.435514E+06 -2.111265E+05 -2.491158E+03 -5.502259E+05  1.829181E+03 -4.438503E+01
       310   7 -1.402202E+06 -1.983520E+05  7.552039E+03 -5.412357E+05 -7.936001E+02  1.106218E+03
       310   8 -1.432581E+06 -1.991653E+05  1.266529E+03 -5.386353E+05  3.299542E+02  4.594104E+02
       310   9 -1.447852E+06 -2.157943E+05 -5.713144E+03 -5.536295E+05  1.452628E+03 -1.852073E+02
       310  10 -1.468755E+06 -2.234100E+05 -1.008734E+04 -5.593992E+05 -6.166608E-10 -2.523317E-10
       310  11 -1.453519E+06 -2.070269E+05 -4.332017E+03 -5.443135E+05 -1.130236E-09 -1.047990E-09
       310  12 -1.423175E+06 -2.064588E+05  7.308070E+02 -5.468222E+05 -1.635606E-09 -7.421428E-10
       310  13 -1.435479E+06 -2.108810E+05 -1.267617E+03 -5.503176E+05 -1.970319E-10 -5.862248E-10
       310  14 -1.443050E+06 -2.030961E+05 -1.532742E+03 -5.414744E+05  1.491126E-10 -5.858841E-10
       310  15 -1.435514E+06 -2.111265E+05 -2.491164E+03 -5.502259E+05 -1.255947E-09  1.297652E-11
       310  16 -1.402202E+06 -1.983520E+05  7.552035E+03 -5.412357E+05  9.050148E-10  6.289864E-10
       310  17 -1.432581E+06 -1.991653E+05  1.266528E+03 -5.386353E+05  8.923342E-11  1.603572E-09
       310  18 -1.447852E+06 -2.157943E+05 -5.713148E+03 -5.536295E+05 -1.480411E-09  1.097178E-10
       310  19 -1.468755E+06 -2.234100E+05 -1.008734E+04 -5.593992E+05  3.693507E+01 -1.389215E+03
       310  20 -1.453519E+06 -2.070269E+05 -4.332014E+03 -5.443135E+05 -1.084811E+03 -7.417230E+02
       310  21 -1.423175E+06 -2.064588E+05  7.308162E+02 -5.468222E+05 -2.205742E+03 -9.644034E+01
       310  22 -1.435479E+06 -2.108810E+05 -1.267614E+03 -5.503176E+05  4.152560E+02 -1.247721E+03
       310  23 -1.443050E+06 -2.030961E+05 -1.532740E+03 -5.414744E+05 -7.073861E+02 -6.005681E+02
       310  24 -1.435514E+06 -2.111265E+05 -2.491158E+03 -5.502259E+05 -1.829181E+03  4.438503E+01
       310  25 -1.402202E+06 -1.983520E+05  7.552039E+03 -5.412357E+05  7.936001E+02 -1.106218E+03
       310  26 -1.432581E+06 -1.991653E+05  1.266529E+03 -5.386353E+05 -3.299542E+02 -4.594104E+02
       310  27 -1.447852E+06 -2.157943E+05 -5.713144E+03 -5.536295E+05 -1.452628E+03  1.852073E+02
       311   1 -1.382708E+06 -1.911168E+05  1.105138E+04 -5.363249E+05  2.890193E+03 -2.802471E+02
       311   2 -1.367454E+06 -1.743870E+05  1.473683E+04 -5.210546E+05  5.972564E+03 -1.906690E+02
       311   3 -1.338584E+06 -1.760554E+05  1.551401E+04 -5.224827E+05  9.030798E+03 -3.570058E+01
       311   4 -1.435712E+06 -2.107369E+05 -3.150049E+03 -5.503880E+05  2.500268E+03 -4.260823E+02
       311   5 -1.442690E+06 -2.027550E+05 -5.400300E+03 -5.415831E+05  5.608668E+03 -3.268145E+02
       311   6 -1.436058E+06 -2.131769E+05 -1.057977E+04 -5.494771E+05  8.692828E+03 -1.621935E+02
       311   7 -1.488713E+06 -2.303568E+05 -1.735169E+04 -5.644500E+05  2.110381E+03 -5.719040E+02
       311   8 -1.517920E+06 -2.311226E+05 -2.553792E+04 -5.621095E+05  5.244820E+03 -4.629417E+02
       311   9 -1.533522E+06 -2.502979E+05 -3.667445E+04 -5.764677E+05  8.354916E+03 -2.886643E+02
       311  10 -1.382708E+06 -1.911168E+05  1.105136E+04 -5.363249E+05 -1.867618E-09 -5.389622E-10
       311  11 -1.367454E+06 -1.743870E+05  1.473676E+04 -5.210546E+05 -6.531929E-10 -5.414930E-11
       311  12 -1.338585E+06 -1.760554E+05  1.551386E+04 -5.224827E+05  4.778543E-10  1.675668E-10
       311  13 -1.435712E+06 -2.107369E+05 -3.150061E+03 -5.503880E+05 -1.366426E-09 -9.001450E-10
       311  14 -1.442690E+06 -2.027550E+05 -5.400359E+03 -5.415831E+05  2.421083E-10  2.872489E-10
       311  15 -1.436058E+06 -2.131769E+05 -1.057991E+04 -5.494771E+05 -9.962322E-10 -1.536821E-09
       311  16 -1.488713E+06 -2.303568E+05 -1.735170E+04 -5.644500E+05 -6.405210E-10  4.967897E-10
       311  17 -1.517920E+06 -2.311226E+05 -2.553798E+04 -5.621095E+05  3.497727E-10 -5.087176E-10
       311  18 -1.533523E+06 -2.502979E+05 -3.667458E+04 -5.764677E+05 -2.928212E-10  6.632916E-10
       311  19 -1.382708E+06 -1.911168E+05  1.105138E+04 -5.363249E+05 -2.890193E+03  2.802471E+02
       311  20 -1.367454E+06 -1.743870E+05  1.473683E+04 -5.210546E+05 -5.972564E+03  1.906690E+02
       311  21 -1.338584E+06 -1.760554E+05  1.551401E+04 -5.224827E+05 -9.030798E+03  3.570058E+01
       311  22 -1.435712E+06 -2.107369E+05 -3.150049E+03 -5.503880E+05 -2.500268E+03  4.260823E+02
       311  23 -1.442690E+06 -2.027550E+05 -5.400300E+03 -5.415831E+05 -5.608668E+03  3.268145E+02
       311  24 -1.436058E+06 -2.131769E+05 -1.057977E+04 -5.494771E+05 -8.692828E+03  1.621935E+02
       311  25 -1.488713E+06 -2.303568E+05 -1.735169E+04 -5.644500E+05 -2.110381E+03  5.719040E+02
       311  26 -1.517920E+06 -2.311226E+05 -2.553792E+04 -5.621095E+05 -5.244820E+03  4.629417E+02
       311  27 -1.533522E+06 -2.502979E+05 -3.667445E+04 -5.764677E+05 -8.354916E+03  2.886643E+02
       312   1 -1.298570E+06 -1.602673E+05  2.324254E+04 -5.159005E+05  1.135126E+04  1.403311E+02
       312   2 -1.282754E+06 -1.392544E+05  1.924052E+04 -4.982181E+05  2.355549E+04  3.681628E+03
       312   3 -1.264047E+06 -1.593455E+05 -8.746027E+02 -4.904415E+05  3.555073E+04  7.782909E+03
       312   4 -1.437293E+06 -2.099802E+05 -1.345886E+04 -5.510566E+05  1.087322E+04 -3.856822E+01
       312   5 -1.440166E+06 -1.996651E+05 -2.308566E+04 -5.422662E+05  2.330046E+04  3.586003E+03
       312   6 -1.440194E+06 -2.305030E+05 -4.900587E+04 -5.433817E+05  3.551826E+04  7.770299E+03
       312   7 -1.575998E+06 -2.596925E+05 -5.016190E+04 -5.862058E+05  1.039529E+04 -2.174283E+02
       312   8 -1.597553E+06 -2.600740E+05 -6.541400E+04 -5.863041E+05  2.304549E+04  3.490406E+03
       312   9 -1.616311E+06 -3.016572E+05 -9.713985E+04 -5.963078E+05  3.548581E+04  7.757692E+03
       312  10 -1.298570E+06 -1.602673E+05  2.324230E+04 -5.159005E+05  6.715793E-10  4.578232E-10
       312  11 -1.282755E+06 -1.392546E+05  1.923945E+04 -4.982181E+05  1.178425E-10  1.004513E-10
       312  12 -1.264048E+06 -1.593459E+05 -8.770972E+02 -4.904417E+05  5.987933E-10  4.039983E-10
       312  13 -1.437293E+06 -2.099803E+05 -1.345908E+04 -5.510566E+05 -3.343249E-10  5.229071E-10
       312  14 -1.440167E+06 -1.996653E+05 -2.308671E+04 -5.422663E+05  4.451801E-10 -1.166256E-11
       312  15 -1.440195E+06 -2.305034E+05 -4.900837E+04 -5.433820E+05 -5.627750E-10 -1.403143E-09
       312  16 -1.575998E+06 -2.596926E+05 -5.016210E+04 -5.862058E+05 -1.311627E-09 -8.096901E-11
       312  17 -1.597554E+06 -2.600742E+05 -6.541502E+04 -5.863042E+05 -2.261378E-10 -9.818530E-10
       312  18 -1.616312E+06 -3.016576E+05 -9.714234E+04 -5.963081E+05 -3.051354E-10 -1.690179E-09
       312  19 -1.298570E+06 -1.602673E+05  2.324254E+04 -5.159005E+05 -1.135126E+04 -1.403311E+02
       312  20 -1.282754E+06 -1.392544E+05  1.924052E+04 -4.982181E+05 -2.355549E+04 -3.681628E+03
       312  21 -1.264047E+06 -1.593455E+05 -8.746027E+02 -4.904415E+05 -3.555073E+04 -7.782909E+03
       312  22 -1.437293E+06 -2.099802E+05 -1.345886E+04 -5.510566E+05 -1.087322E+04  3.856822E+01
       312  23 -1.440166E+06 -1.996651E+05 -2.308566E+04 -5.422662E+05 -2.330046E+04 -3.586003E+03
       312  24 -1.440194E+06 -2.305030E+05 -4.900587E+04 -5.433817E+05 -3.551826E+04 -7.770299E+03
       312  25 -1.575998E+06 -2.596925E+05 -5.016190E+04 -5.862058E+05 -1.039529E+04  2.174283E+02
       312  26 -1.597553E+06 -2.600740E+05 -6.541400E+04 -5.863041E+05 -2.304549E+04 -3.490406E+03
       312  27 -1.616311E+06 -3.016572E+05 -9.713985E+04 -5.963078E+05 -3.548581E+04 -7.757692E+03
       313   1 -1.217841E+06 -1.375279E+05 -2.195556E+03 -5.151367E+05  4.619945E+04  1.027760E+04
       313   2 -1.195240E+06 -7.561149E+04 -3.495958E+04 -4.725092E+05  9.797483E+04  2.865498E+04
       313   3 -1.249117E+06 -2.472331E+05 -1.664322E+05 -3.876289E+05  1.476506E+05  5.264327E+04
       313   4 -1.448234E+06 -2.045739E+05 -5.998926E+04 -5.575626E+05  4.469328E+04  9.714951E+03
       313   5 -1.421836E+06 -1.729896E+05 -9.780204E+04 -5.466846E+05  9.871354E+04  2.892930E+04
       313   6 -1.472397E+06 -3.754452E+05 -2.361341E+05 -4.935461E+05  1.506338E+05  5.374891E+04
       313   7 -1.678576E+06 -2.716212E+05 -1.177870E+05 -5.999768E+05  4.318771E+04  9.152415E+03
       313   8 -1.648381E+06 -2.703600E+05 -1.606492E+05 -6.208338E+05  9.945195E+04  2.920347E+04
       313   9 -1.695622E+06 -5.036301E+05 -3.058403E+05 -5.994218E+05  1.536158E+05  5.485356E+04
       313  10 -1.217843E+06 -1.375286E+05 -2.199775E+03 -5.151371E+05  3.323746E-09  1.137324E-09
       313  11 -1.195251E+06 -7.561496E+04 -3.497921E+04 -4.725115E+05  3.254666E-09  1.570365E-09
       313  12 -1.249141E+06 -2.472420E+05 -1.664784E+05 -3.876351E+05 -3.004000E-10 -2.124480E-10
       313  13 -1.448236E+06 -2.045745E+05 -5.999320E+04 -5.575629E+05  6.247046E-10 -6.318867E-10
       313  14 -1.421846E+06 -1.729931E+05 -9.782198E+04 -5.466869E+05  2.900982E-09  1.040572E-09
       313  15 -1.472422E+06 -3.754544E+05 -2.361823E+05 -4.935526E+05  1.163441E-09  5.257268E-11
       313  16 -1.678578E+06 -2.716218E+05 -1.177907E+05 -5.999771E+05 -7.478284E-10 -1.398141E-09
       313  17 -1.648392E+06 -2.703636E+05 -1.606695E+05 -6.208361E+05  2.527684E-09  5.916666E-10
       313  18 -1.695648E+06 -5.036397E+05 -3.058905E+05 -5.994286E+05  2.649976E-09  9.977515E-10
       313  19 -1.217841E+06 -1.375279E+05 -2.195556E+03 -5.151367E+05 -4.619945E+04 -1.027760E+04
       313  20 -1.195240E+06 -7.561149E+04 -3.495958E+04 -4.725092E+05 -9.797483E+04 -2.865498E+04
       313  21 -1.249117E+06 -2.472331E+05 -1.664322E+05 -3.876289E+05 -1.476506E+05 -5.264327E+04
       313  22 -1.448234E+06 -2.045739E+05 -5.998926E+04 -5.575626E+05 -4.469328E+04 -9.714951E+03
       313  23 -1.421836E+06 -1.729896E+05 -9.780204E+04 -5.466846E+05 -9.871354E+04 -2.892930E+04
       313  24 -1.472397E+06 -3.754452E+05 -2.361341E+05 -4.935461E+05 -1.506338E+05 -5.374891E+04
       313  25 -1.678576E+06 -2.716212E+05 -1.177870E+05 -5.999768E+05 -4.318771E+04 -9.152415E+03
       313  26 -1.648381E+06 -2.703600E+05 -1.606492E+05 -6.208338E+05 -9.945195E+04 -2.920347E+04
       313  27 -1.695622E+06 -5.036301E+05 -3.058403E+05 -5.994218E+05 -1.536158E+05 -5.485356E+04
       314   1  1.796807E+06  3.700718E+05  5.215354E+05  1.250564E+05  4.692286E+05  7.640669E+03
       314   2  1.755163E+06 -2.545099E+05  1.446271E+05  4.128008E+04  3.110181E+05  1.954608E+04
       314   3  1.910554E+06 -1.766403E+05  4.642361E+04 -9.210014E+04  1.528159E+05  1.703665E+04
       314   4  2.514321E+06  5.476743E+05  6.984718E+05 -2.587285E+04  4.780879E+05  7.546870E+03
       314   5  2.415697E+06 -9.102169E+04  3.040045E+05 -4.100532E+02  3.134430E+05  1.952825E+04
       314   6  2.514973E+06 -2.660028E+04  1.924680E+05 -2.455492E+04  1.488228E+05  1.704602E+04
       314   7  3.232351E+06  7.253247E+05  8.753829E+05 -1.769765E+05  4.869572E+05  7.448880E+03
       314   8  3.076632E+06  7.244143E+04  4.633519E+05 -4.214477E+04  3.158703E+05  1.951011E+04
       314   9  3.119734E+06  1.234301E+05  3.384886E+05  4.305598E+04  1.448257E+05  1.705452E+04
       314  10  1.796571E+06  3.700128E+05  5.211228E+05  1.250535E+05 -1.076057E-09  1.215697E-09
       314  11  1.755060E+06 -2.545362E+05  1.444451E+05  4.127519E+04 -1.086051E-09 -6.656820E-12
       314  12  1.910529E+06 -1.766468E+05  4.637932E+04 -9.210223E+04  5.857354E-10 -3.413031E-11
       314  13  2.514076E+06  5.476132E+05  6.980439E+05 -2.587576E+04  1.301458E-09  6.706263E-10
       314  14  2.415592E+06 -9.104833E+04  3.038199E+05 -4.149773E+02 -1.538573E-09 -1.868989E-09
       314  15  2.514949E+06 -2.660650E+04  1.924260E+05 -2.455696E+04 -2.466845E-10 -4.621509E-11
       314  16  3.232098E+06  7.252614E+05  8.749395E+05 -1.769794E+05  1.599690E-09 -5.889847E-11
       314  17  3.076525E+06  7.241441E+04  4.631646E+05 -4.214972E+04  1.361751E-09  7.411977E-10
       314  18  3.119711E+06  1.234241E+05  3.384489E+05  4.305399E+04 -7.595909E-10 -9.078669E-10
       314  19  1.796807E+06  3.700718E+05  5.215354E+05  1.250564E+05 -4.692286E+05 -7.640669E+03
       314  20  1.755163E+06 -2.545099E+05  1.446271E+05  4.128008E+04 -3.110181E+05 -1.954608E+04
       314  21  1.910554E+06 -1.766403E+05  4.642361E+04 -9.210014E+04 -1.528159E+05 -1.703665E+04
       314  22  2.514321E+06  5.476743E+05  6.984718E+05 -2.587285E+04 -4.780879E+05 -7.546870E+03
       314  23  2.415697E+06 -9.102169E+04  3.040045E+05 -4.100532E+02 -3.134430E+05 -1.952825E+04
       314  24  2.514973E+06 -2.660028E+04  1.924680E+05 -2.455492E+04 -1.488228E+05 -1.704602E+04
       314  25  3.232351E+06  7.253247E+05  8.753829E+05 -1.769765E+05 -4.869572E+05 -7.448880E+03
       314  26  3.076632E+06  7.244143E+04  4.633519E+05 -4.214477E+04 -3.158703E+05 -1.951011E+04
       314  27  3.119734E+06  1.234301E+05  3.384886E+05  4.305598E+04 -1.448257E+05 -1.705452E+04
       315   1  1.955749E+06 -6.570220E+04  3.153665E+04 -7.677036E+03  1.183315E+05  1.367839E+04
       315   2  1.991244E+06 -1.278718E+05 -3.509478E+04  1.444645E+03  7.809851E+04  1.299818E+04
       315   3  2.052864E+06 -1.081740E+05 -5.502510E+04 -3.161199E+04  3.786371E+04  1.114669E+04
       315   4  2.476679E+06  6.339905E+04  1.576305E+05 -2.335225E+04  1.183798E+05  1.367465E+04
       315   5  2.463640E+06 -1.079670E+04  7.907541E+04 -2.225285E+03  7.760819E+04  1.299657E+04
       315   6  2.476796E+06 -3.067532E+03  4.756604E+04 -2.327381E+04  3.683790E+04  1.114606E+04
       315   7  2.997858E+06  1.924814E+05  2.837050E+05 -3.904068E+04  1.184282E+05  1.367090E+04
       315   8  2.936240E+06  1.062621E+05  1.932296E+05 -5.898057E+03  7.711749E+04  1.299497E+04
       315   9  2.900890E+06  1.020261E+05  1.501443E+05 -1.492996E+04  3.581139E+04  1.114541E+04
       315  10  1.955733E+06 -6.570615E+04  3.151006E+04 -7.678339E+03 -9.558384E-10 -1.026202E-09
       315  11  1.991237E+06 -1.278736E+05 -3.510652E+04  1.443828E+03 -7.149794E-10  7.058631E-10
       315  12  2.052863E+06 -1.081745E+05 -5.502802E+04 -3.161233E+04 -4.485757E-11 -7.014492E-10
       315  13  2.476664E+06  6.339511E+04  1.576039E+05 -2.335355E+04  2.606338E-10 -6.042124E-10
       315  14  2.463634E+06 -1.079849E+04  7.906382E+04 -2.226097E+03 -2.697314E-10  7.450114E-12
       315  15  2.476794E+06 -3.068028E+03  4.756327E+04 -2.327414E+04 -1.445722E-09 -6.311519E-10
       315  16  2.997843E+06  1.924775E+05  2.836785E+05 -3.904199E+04  1.374146E-09 -4.562941E-11
       315  17  2.936234E+06  1.062604E+05  1.932182E+05 -5.898863E+03  2.155889E-10 -7.454516E-10
       315  18  2.900889E+06  1.020256E+05  1.501417E+05 -1.493028E+04  3.572994E-11  4.003282E-10
       315  19  1.955749E+06 -6.570220E+04  3.153665E+04 -7.677036E+03 -1.183315E+05 -1.367839E+04
       315  20  1.991244E+06 -1.278718E+05 -3.509478E+04  1.444645E+03 -7.809851E+04 -1.299818E+04
       315  21  2.052864E+06 -1.081740E+05 -5.502510E+04 -3.161199E+04 -3.786371E+04 -1.114669E+04
       315  22  2.476679E+06  6.339905E+04  1.576305E+05 -2.335225E+04 -1.183798E+05 -1.367465E+04
       315  23  2.463640E+06 -1.079670E+04  7.907541E+04 -2.225285E+03 -7.760819E+04 -1.299657E+04
       315  24  2.476796E+06 -3.067532E+03  4.756604E+04 -2.327381E+04 -3.683790E+04 -1.114606E+04
       315  25  2.997858E+06  1.924814E+05  2.837050E+05 -3.904068E+04 -1.184282E+05 -1.367090E+04
       315  26  2.936240E+06  1.062621E+05  1.932296E+05 -5.898057E+03 -7.711749E+04 -1.299497E+04
       315  27  2.900890E+06  1.020261E+05  1.501443E+05 -1.492996E+04 -3.581139E+04 -1.114541E+04
       316   1  2.121650E+06 -7.955029E+04 -4.708418E+04 -2.093995E+04  2.993799E+04  9.938274E+03
       316   2  2.163056E+06 -7.735317E+04 -5.387026E+04 -3.296233E+03  1.972972E+04  8.351635E+03
       316   3  2.208330E+06 -6.566706E+04 -5.161862E+04 -2.332347E+04  9.519539E+03  6.726202E+03
       316   4  2.471834E+06  7.214379E+03  3.744760E+04 -2.229776E+04  2.927201E+04  9.937535E+03
       316   5  2.469912E+06 -1.304249E+03  2.030005E+04 -3.461427E+03  1.904169E+04  8.351182E+03
       316   6  2.471857E+06 -3.331397E+02  1.220154E+04 -2.229479E+04  8.810161E+03  6.726010E+03
       316   7  2.822129E+06  9.397013E+04  1.219706E+05 -2.365635E+04  2.860564E+04  9.936798E+03
       316   8  2.776854E+06  7.473781E+04  9.446363E+04 -3.626708E+03  1.835331E+04  8.350729E+03
       316   9  2.735448E+06  6.499572E+04  7.601671E+04 -2.126566E+04  8.100483E+03  6.725817E+03
       316  10  2.121649E+06 -7.955064E+04 -4.708604E+04 -2.094019E+04  6.437482E-10 -2.414328E-10
       316  11  2.163055E+06 -7.735335E+04 -5.387112E+04 -3.296365E+03  9.209285E-10  1.064438E-10
       316  12  2.208330E+06 -6.566714E+04 -5.161887E+04 -2.332352E+04  3.335136E-10  1.629086E-10
       316  13  2.471833E+06  7.214044E+03  3.744581E+04 -2.229800E+04 -7.710587E-10 -2.158781E-10
       316  14  2.469912E+06 -1.304421E+03  2.029924E+04 -3.461555E+03 -6.326888E-10  2.556341E-10
       316  15  2.471857E+06 -3.332091E+02  1.220131E+04 -2.229483E+04 -7.721940E-10  1.691562E-10
       316  16  2.822128E+06  9.396981E+04  1.219689E+05 -2.365658E+04 -4.905755E-10 -4.001510E-10
       316  17  2.776853E+06  7.473765E+04  9.446287E+04 -3.626832E+03 -1.018708E-09 -1.090097E-10
       316  18  2.735448E+06  6.499565E+04  7.601650E+04 -2.126571E+04 -3.885127E-10  2.345989E-10
       316  19  2.121650E+06 -7.955029E+04 -4.708418E+04 -2.093995E+04 -2.993799E+04 -9.938274E+03
       316  20  2.163056E+06 -7.735317E+04 -5.387026E+04 -3.296233E+03 -1.972972E+04 -8.351635E+03
       316  21  2.208330E+06 -6.566706E+04 -5.161862E+04 -2.332347E+04 -9.519539E+03 -6.726202E+03
       316  22  2.471834E+06  7.214379E+03  3.744760E+04 -2.229776E+04 -2.927201E+04 -9.937535E+03
       316  23  2.469912E+06 -1.304249E+03  2.030005E+04 -3.461427E+03 -1.904169E+04 -8.351182E+03
       316  24  2.471857E+06 -3.331397E+02  1.220154E+04 -2.229479E+04 -8.810161E+03 -6.726010E+03
       316  25  2.822129E+06  9.397013E+04  1.219706E+05 -2.365635E+04 -2.860564E+04 -9.936798E+03
       316  26  2.776854E+06  7.473781E+04  9.446363E+04 -3.626708E+03 -1.835331E+04 -8.350729E+03
       316  27  2.735448E+06  6.499572E+04  7.601671E+04 -2.126566E+04 -8.100483E+03 -6.725817E+03
       317   1  2.274836E+06 -4.783578E+04 -3.768492E+04 -2.161176E+04  7.519544E+03  5.789811E+03
       317   2  2.314764E+06 -3.884358E+04 -3.166498E+04 -4.202752E+03  4.492637E+03  4.240376E+03
       317   3  2.355407E+06 -2.866280E+04 -2.337754E+04 -2.180533E+04  1.464973E+03  2.719326E+03
       317   4  2.471165E+06  7.921567E+02  9.639989E+03 -2.170476E+04  6.843476E+03  5.789732E+03
       317   5  2.470812E+06 -1.730237E+02  6.051228E+03 -4.199282E+03  3.828008E+03  4.240410E+03
       317   6  2.471172E+06  4.825226E+01  4.721581E+03 -2.170484E+04  8.119769E+02  2.719475E+03
       317   7  2.667528E+06  4.941729E+04  5.696216E+04 -2.179779E+04  6.167195E+03  5.789653E+03
       317   8  2.626883E+06  3.849576E+04  4.376569E+04 -4.195812E+03  3.163212E+03  4.240444E+03
       317   9  2.586949E+06  2.875833E+04  3.281973E+04 -2.160433E+04  1.588595E+02  2.719623E+03
       317  10  2.274836E+06 -4.783583E+04 -3.768509E+04 -2.161180E+04 -2.796555E-10 -2.447819E-10
       317  11  2.314764E+06 -3.884361E+04 -3.166505E+04 -4.202767E+03 -5.300516E-10 -6.637596E-11
       317  12  2.355407E+06 -2.866281E+04 -2.337755E+04 -2.180533E+04 -1.420050E-10  9.897169E-11
       317  13  2.471165E+06  7.921082E+02  9.639838E+03 -2.170479E+04 -2.046249E-09  1.297693E-10
       317  14  2.470812E+06 -1.730470E+02  6.051167E+03 -4.199296E+03 -3.625526E-10 -1.375429E-10
       317  15  2.471172E+06  4.824414E+01  4.721565E+03 -2.170484E+04 -4.772626E-10 -5.573923E-11
       317  16  2.667528E+06  4.941724E+04  5.696202E+04 -2.179782E+04  1.108903E-09  2.065028E-10
       317  17  2.626883E+06  3.849574E+04  4.376564E+04 -4.195822E+03 -3.873733E-10 -6.047533E-10
       317  18  2.586949E+06  2.875832E+04  3.281972E+04 -2.160433E+04  2.599064E-10  3.204834E-11
       317  19  2.274836E+06 -4.783578E+04 -3.768492E+04 -2.161176E+04 -7.519544E+03 -5.789811E+03
       317  20  2.314764E+06 -3.884358E+04 -3.166498E+04 -4.202752E+03 -4.492637E+03 -4.240376E+03
       317  21  2.355407E+06 -2.866280E+04 -2.337754E+04 -2.180533E+04 -1.464973E+03 -2.719326E+03
       317  22  2.471165E+06  7.921567E+02  9.639989E+03 -2.170476E+04 -6.843476E+03 -5.789732E+03
       317  23  2.470812E+06 -1.730237E+02  6.051228E+03 -4.199282E+03 -3.828008E+03 -4.240410E+03
       317  24  2.471172E+06  4.825226E+01  4.721581E+03 -2.170484E+04 -8.119769E+02 -2.719475E+03
       317  25  2.667528E+06  4.941729E+04  5.696216E+04 -2.179779E+04 -6.167195E+03 -5.789653E+03
       317  26  2.626883E+06  3.849576E+04  4.376569E+04 -4.195812E+03 -3.163212E+03 -4.240444E+03
       317  27  2.586949E+06  2.875833E+04  3.281973E+04 -2.160433E+04 -1.588595E+02 -2.719623E+03
       318   1  2.419239E+06 -1.277089E+04 -7.834897E+03 -2.138308E+04  6.209653E+02  1.844168E+03
       318   2  2.458125E+06 -3.293573E+03  2.259709E+03 -4.456708E+03 -2.041331E+03  3.461964E+02
       318   3  2.497585E+06  7.195188E+03  1.432978E+04 -2.157343E+04 -4.703802E+03 -1.142350E+03
       318   4  2.471145E+06  6.688242E+01  4.587806E+03 -2.148977E+04 -3.043754E+01  1.844361E+03
       318   5  2.470858E+06 -1.384031E+02  5.337117E+03 -4.468144E+03 -2.688741E+03  3.463943E+02
       318   6  2.471143E+06  6.673217E+02  8.059380E+03 -2.148957E+04 -5.347054E+03 -1.142143E+03
       318   7  2.523054E+06  1.290446E+04  1.701032E+04 -2.159646E+04 -6.818944E+02  1.844553E+03
       318   8  2.483591E+06  3.016755E+03  8.414514E+03 -4.479580E+03 -3.336164E+03  3.465922E+02
       318   9  2.444703E+06 -5.860594E+03  1.788929E+03 -2.140571E+04 -5.990278E+03 -1.141935E+03
       318  10  2.419239E+06 -1.277089E+04 -7.834904E+03 -2.138308E+04  1.319319E-11 -3.224801E-10
       318  11  2.458125E+06 -3.293574E+03  2.259701E+03 -4.456708E+03  5.935593E-10 -5.341249E-10
       318  12  2.497585E+06  7.195180E+03  1.432974E+04 -2.157343E+04  4.331994E-11  6.545670E-10
       318  13  2.471145E+06  6.687877E+01  4.587800E+03 -2.148977E+04 -2.216052E-09  3.594554E-10
       318  14  2.470858E+06 -1.384052E+02  5.337103E+03 -4.468143E+03 -1.700664E-09 -1.211744E-10
       318  15  2.471143E+06  6.673127E+02  8.059324E+03 -2.148957E+04  1.078077E-09 -3.373966E-10
       318  16  2.523054E+06  1.290446E+04  1.701031E+04 -2.159646E+04 -3.868072E-10 -3.172753E-11
       318  17  2.483591E+06  3.016752E+03  8.414493E+03 -4.479579E+03 -5.737756E-10 -1.142889E-10
       318  18  2.444703E+06 -5.860605E+03  1.788859E+03 -2.140571E+04  7.662816E-10 -4.465205E-10
       318  19  2.419239E+06 -1.277089E+04 -7.834897E+03 -2.138308E+04 -6.209653E+02 -1.844168E+03
       318  20  2.458125E+06 -3.293573E+03  2.259709E+03 -4.456708E+03  2.041331E+03 -3.461964E+02
       318  21  2.497585E+06  7.195188E+03  1.432978E+04 -2.157343E+04  4.703802E+03  1.142350E+03
       318  22  2.471145E+06  6.688242E+01  4.587806E+03 -2.148977E+04  3.043754E+01 -1.844361E+03
       318  23  2.470858E+06 -1.384031E+02  5.337117E+03 -4.468144E+03  2.688741E+03 -3.463943E+02
       318  24  2.471143E+06  6.673217E+02  8.059380E+03 -2.148957E+04  5.347054E+03  1.142143E+03
       318  25  2.523054E+06  1.290446E+04  1.701032E+04 -2.159646E+04  6.818944E+02 -1.844553E+03
       318  26  2.483591E+06  3.016755E+03  8.414514E+03 -4.479580E+03  3.336164E+03 -3.465922E+02
       318  27  2.444703E+06 -5.860594E+03  1.788929E+03 -2.140571E+04  5.990278E+03  1.141935E+03
       319   1  2.561721E+06  2.208376E+04  3.194615E+04 -2.083180E+04 -6.313971E+03 -2.022888E+03
       319   2  2.600153E+06  3.116801E+04  4.796865E+04 -4.488704E+03 -1.467967E+04 -3.533920E+03
       319   3  2.641607E+06  4.796965E+04  7.135160E+04 -2.285687E+04 -2.304562E+04 -4.996887E+03
       319   4  2.471686E+06 -2.478976E+02  1.006969E+04 -2.163860E+04 -6.979338E+03 -2.022695E+03
       319   5  2.470166E+06 -1.038382E+03  1.655840E+04 -4.282320E+03 -1.532266E+04 -3.533843E+03
       319   6  2.471665E+06  5.885705E+03  3.039340E+04 -2.163768E+04 -2.366571E+04 -4.996943E+03
       319   7  2.381657E+06 -2.258015E+04 -1.180736E+04 -2.244528E+04 -7.644608E+03 -2.022500E+03
       319   8  2.340195E+06 -3.324601E+04 -1.485305E+04 -4.075979E+03 -1.596552E+04 -3.533767E+03
       319   9  2.301750E+06 -3.620034E+04 -1.056685E+04 -2.041882E+04 -2.428564E+04 -4.997001E+03
       319  10  2.561721E+06  2.208375E+04  3.194607E+04 -2.083181E+04 -8.283954E-10  5.700190E-10
       319  11  2.600152E+06  3.116794E+04  4.796822E+04 -4.488746E+03  9.132988E-10 -6.999146E-10
       319  12  2.641607E+06  4.796949E+04  7.135056E+04 -2.285696E+04  1.735033E-10  4.238721E-10
       319  13  2.471686E+06 -2.479150E+02  1.006959E+04 -2.163861E+04  1.760206E-09  6.190313E-11
       319  14  2.470166E+06 -1.038458E+03  1.655794E+04 -4.282364E+03  2.585249E-10 -5.197142E-10
       319  15  2.471665E+06  5.885529E+03  3.039231E+04 -2.163777E+04 -4.727298E-11 -2.563764E-11
       319  16  2.381657E+06 -2.258017E+04 -1.180748E+04 -2.244530E+04 -2.656042E-10  4.599314E-11
       319  17  2.340195E+06 -3.324609E+04 -1.485355E+04 -4.076024E+03  1.584258E-10 -1.710393E-10
       319  18  2.301749E+06 -3.620052E+04 -1.056800E+04 -2.041892E+04  6.920449E-10 -6.804686E-11
       319  19  2.561721E+06  2.208376E+04  3.194615E+04 -2.083180E+04  6.313971E+03  2.022888E+03
       319  20  2.600153E+06  3.116801E+04  4.796865E+04 -4.488704E+03  1.467967E+04  3.533920E+03
       319  21  2.641607E+06  4.796965E+04  7.135160E+04 -2.285687E+04  2.304562E+04  4.996887E+03
       319  22  2.471686E+06 -2.478976E+02  1.006969E+04 -2.163860E+04  6.979338E+03  2.022695E+03
       319  23  2.470166E+06 -1.038382E+03  1.655840E+04 -4.282320E+03  1.532266E+04  3.533843E+03
       319  24  2.471665E+06  5.885705E+03  3.039340E+04 -2.163768E+04  2.366571E+04  4.996943E+03
       319  25  2.381657E+06 -2.258015E+04 -1.180736E+04 -2.244528E+04  7.644608E+03  2.022500E+03
       319  26  2.340195E+06 -3.324601E+04 -1.485305E+04 -4.075979E+03  1.596552E+04  3.533767E+03
       319  27  2.301750E+06 -3.620034E+04 -1.056685E+04 -2.041882E+04  2.428564E+04  4.997001E+03
       320   1  2.711995E+06  5.612139E+04  9.578075E+04 -1.556134E+04 -2.893332E+04 -6.038031E+03
       320   2  2.744085E+06  6.038934E+04  1.314771E+05 -6.852823E+03 -6.234817E+04 -7.647402E+03
       320   3  2.797235E+06  1.311057E+05  2.054998E+05 -3.520315E+04 -9.576535E+04 -8.428015E+03
       320   4  2.475667E+06 -2.450276E+03  3.856847E+04 -2.215574E+04 -2.980224E+04 -6.037835E+03
       320   5  2.465116E+06 -8.720213E+03  6.408715E+04 -3.634104E+03 -6.284502E+04 -7.648032E+03
       320   6  2.475572E+06  5.141061E+04  1.276880E+05 -2.217173E+04 -9.588786E+04 -8.430352E+03
       320   7  2.239390E+06 -6.102585E+04 -1.864779E+04 -2.874763E+04 -3.067083E+04 -6.037621E+03
       320   8  2.186218E+06 -7.783540E+04 -3.308339E+03 -4.168332E+02 -6.334164E+04 -7.648667E+03
       320   9  2.154002E+06 -2.829133E+04  4.986888E+04 -9.147051E+03 -9.601028E+04 -8.432696E+03
       320  10  2.711995E+06  5.612112E+04  9.577912E+04 -1.556148E+04  1.060442E-09  3.705010E-10
       320  11  2.744081E+06  6.038824E+04  1.314697E+05 -6.853207E+03  4.640247E-10 -4.460919E-10
       320  12  2.797226E+06  1.311031E+05  2.054825E+05 -3.520380E+04 -5.483856E-10 -2.949502E-10
       320  13  2.475666E+06 -2.450553E+03  3.856674E+04 -2.215588E+04  6.076710E-10  1.786887E-10
       320  14  2.465112E+06 -8.721331E+03  6.407965E+04 -3.634491E+03 -9.579418E-11 -2.337912E-10
       320  15  2.475562E+06  5.140808E+04  1.276707E+05 -2.217238E+04 -6.574449E-10 -2.169484E-10
       320  16  2.239389E+06 -6.102614E+04 -1.864962E+04 -2.874778E+04 -5.607479E-10 -3.327398E-10
       320  17  2.186214E+06 -7.783653E+04 -3.315962E+03 -4.172231E+02 -6.494571E-10 -1.353283E-10
       320  18  2.153992E+06 -2.829387E+04  4.985148E+04 -9.147702E+03  3.462073E-10  2.648501E-10
       320  19  2.711995E+06  5.612139E+04  9.578075E+04 -1.556134E+04  2.893332E+04  6.038031E+03
       320  20  2.744085E+06  6.038934E+04  1.314771E+05 -6.852823E+03  6.234817E+04  7.647402E+03
       320  21  2.797235E+06  1.311057E+05  2.054998E+05 -3.520315E+04  9.576535E+04  8.428015E+03
       320  22  2.475667E+06 -2.450276E+03  3.856847E+04 -2.215574E+04  2.980224E+04  6.037835E+03
       320  23  2.465116E+06 -8.720213E+03  6.408715E+04 -3.634104E+03  6.284502E+04  7.648032E+03
       320  24  2.475572E+06  5.141061E+04  1.276880E+05 -2.217173E+04  9.588786E+04  8.430352E+03
       320  25  2.239390E+06 -6.102585E+04 -1.864779E+04 -2.874763E+04  3.067083E+04  6.037621E+03
       320  26  2.186218E+06 -7.783540E+04 -3.308339E+03 -4.168332E+02  6.334164E+04  7.648667E+03
       320  27  2.154002E+06 -2.829133E+04  4.986888E+04 -9.147051E+03  9.601028E+04  8.432696E+03
       321   1  2.900486E+06  7.615254E+04  2.510243E+05  3.135094E+04 -1.176228E+05 -1.094297E+04
       321   2  2.867604E+06  3.553139E+04  3.526491E+05 -3.683503E+04 -2.554154E+05 -1.284598E+04
       321   3  2.995337E+06  5.650462E+05  6.863316E+05 -1.465014E+05 -3.932221E+05 -4.680510E+03
       321   4  2.506566E+06 -2.149197E+04  1.558931E+05 -2.300115E+04 -1.205453E+05 -1.093462E+04
       321   5  2.426323E+06 -7.368697E+04  2.462376E+05 -2.506750E+03 -2.539058E+05 -1.285951E+04
       321   6  2.506029E+06  4.436763E+05  5.656862E+05 -2.347809E+04 -3.872689E+05 -4.751984E+03
       321   7  2.112795E+06 -1.191367E+05  6.075235E+04 -7.731879E+04 -1.234660E+05 -1.092575E+04
       321   8  1.985221E+06 -1.829151E+05  1.398127E+05  3.179711E+04 -2.523973E+05 -1.287288E+04
       321   9  2.016971E+06  3.223453E+05  4.450314E+05  9.944854E+04 -3.813203E+05 -4.821159E+03
       321  10  2.900471E+06  7.614872E+04  2.509982E+05  3.134990E+04 -6.754973E-10 -3.729962E-10
       321  11  2.867535E+06  3.551380E+04  3.525268E+05 -3.683767E+04 -1.231820E-09 -3.936588E-10
       321  12  2.995171E+06  5.650050E+05  6.860424E+05 -1.465029E+05  9.963718E-10  4.994403E-10
       321  13  2.506551E+06 -2.149598E+04  1.558657E+05 -2.300221E+04 -2.498503E-09 -9.126947E-10
       321  14  2.426254E+06 -7.370436E+04  2.461166E+05 -2.509377E+03  5.729285E-10 -1.492904E-10
       321  15  2.505869E+06  4.436362E+05  5.654055E+05 -2.347958E+04  1.089077E-09 -4.693223E-10
       321  16  2.112778E+06 -1.191410E+05  6.072358E+04 -7.731988E+04  5.777435E-10  2.192997E-10
       321  17  1.985152E+06 -1.829323E+05  1.396931E+05  3.179449E+04 -1.095706E-09 -5.448817E-10
       321  18  2.016815E+06  3.223064E+05  4.447590E+05  9.944707E+04  1.017568E-09  9.225475E-10
       321  19  2.900486E+06  7.615254E+04  2.510243E+05  3.135094E+04  1.176228E+05  1.094297E+04
       321  20  2.867604E+06  3.553139E+04  3.526491E+05 -3.683503E+04  2.554154E+05  1.284598E+04
       321  21  2.995337E+06  5.650462E+05  6.863316E+05 -1.465014E+05  3.932221E+05  4.680510E+03
       321  22  2.506566E+06 -2.149197E+04  1.558931E+05 -2.300115E+04  1.205453E+05  1.093462E+04
       321  23  2.426323E+06 -7.368697E+04  2.462376E+05 -2.506750E+03  2.539058E+05  1.285951E+04
       321  24  2.506029E+06  4.436763E+05  5.656862E+05 -2.347809E+04  3.872689E+05  4.751984E+03
       321  25  2.112795E+06 -1.191367E+05  6.075235E+04 -7.731879E+04  1.234660E+05  1.092575E+04
       321  26  1.985221E+06 -1.829151E+05  1.398127E+05  3.179711E+04  2.523973E+05  1.287288E+04
       321  27  2.016971E+06  3.223453E+05  4.450314E+05  9.944854E+04  3.813203E+05  4.821159E+03
       322   1  1.392466E+05  2.016519E+05  2.074788E+05 -7.229681E+04 -4.391096E+03  2.005779E+05
       322   2 -1.453610E+05  1.490673E+05  3.706538E+04 -2.024748E+04 -1.231339E+04  1.288226E+05
       322   3 -1.165034E+05  1.844284E+05 -8.214116E+03  2.442324E+04 -1.238906E+04  5.708524E+04
       322   4  2.419848E+05  6.154234E+05  3.096969E+05 -5.559994E+03 -4.382576E+03  2.058807E+05
       322   5 -4.064333E+04  5.712106E+05  1.391540E+05 -2.178919E+03 -1.231313E+04  1.306864E+05
       322   6 -9.330436E+03  6.154810E+05  9.607409E+04 -6.172728E+03 -1.238820E+04  5.550951E+04
       322   7  3.447272E+05  1.029360E+06  4.119050E+05  6.122142E+04 -4.372925E+03  2.111870E+05
       322   8  6.406259E+04  9.935175E+05  2.412300E+05  1.590205E+04 -1.231276E+04  1.325514E+05
       322   9  9.783240E+04  1.046705E+06  2.003494E+05 -3.678992E+04 -1.238717E+04  5.393269E+04
       322  10  1.392358E+05  2.016087E+05  2.074032E+05 -7.229611E+04 -1.913062E-12 -2.343663E-09
       322  11 -1.453656E+05  1.490494E+05  3.703392E+04 -2.024620E+04 -8.895357E-10  1.329948E-10
       322  12 -1.165045E+05  1.844248E+05 -8.220527E+03  2.442381E+04  1.821606E-09  3.988477E-10
       322  13  2.419734E+05  6.153779E+05  3.096173E+05 -5.559268E+03  1.171491E-09  2.632536E-09
       322  14 -4.064807E+04  5.711923E+05  1.391216E+05 -2.177623E+03 -3.497788E-09  1.128389E-09
       322  15 -9.331427E+03  6.154776E+05  9.606802E+04 -6.172175E+03  4.637753E-10  1.448859E-09
       322  16  3.447152E+05  1.029312E+06  4.118212E+05  6.122216E+04 -4.131556E-10  1.716429E-09
       322  17  6.405772E+04  9.934986E+05  2.411967E+05  1.590337E+04 -6.526455E-10  2.491235E-10
       322  18  9.783145E+04  1.046702E+06  2.003437E+05 -3.678938E+04  5.559203E-10 -5.032204E-10
       322  19  1.392466E+05  2.016519E+05  2.074788E+05 -7.229681E+04  4.391096E+03 -2.005779E+05
       322  20 -1.453610E+05  1.490673E+05  3.706538E+04 -2.024748E+04  1.231339E+04 -1.288226E+05
       322  21 -1.165034E+05  1.844284E+05 -8.214116E+03  2.442324E+04  1.238906E+04 -5.708524E+04
       322  22  2.419848E+05  6.154234E+05  3.096969E+05 -5.559994E+03  4.382576E+03 -2.058807E+05
       322  23 -4.064333E+04  5.712106E+05  1.391540E+05 -2.178919E+03  1.231313E+04 -1.306864E+05
       322  24 -9.330436E+03  6.154810E+05  9.607409E+04 -6.172728E+03  1.238820E+04 -5.550951E+04
       322  25  3.447272E+05  1.029360E+06  4.119050E+05  6.122142E+04  4.372925E+03 -2.111870E+05
       322  26  6.406259E+04  9.935175E+05  2.412300E+05  1.590205E+04  1.231276E+04 -1.325514E+05
       322  27  9.783240E+04  1.046705E+06  2.003494E+05 -3.678992E+04  1.238717E+04 -5.393269E+04
       323   1 -8.389588E+04  1.534014E+05 -2.427732E+04 -1.552608E+04 -1.154907E+04  3.899892E+04
       323   2 -1.218494E+05  1.330770E+05 -5.089222E+04 -1.810523E+03 -1.257167E+04  8.833134E+03
       323   3 -9.672966E+04  1.327367E+05 -4.204024E+04  2.956998E+03 -1.205576E+04 -2.132947E+04
       323   4  2.708595E+04  6.002621E+05  8.415279E+04 -6.312065E+03 -1.154937E+04  3.981668E+04
       323   5 -8.314185E+03  5.902183E+05  5.981449E+04 -1.849253E+03 -1.257126E+04  8.966092E+03
       323   6  1.945231E+04  6.002635E+05  7.140088E+04 -6.333933E+03 -1.205424E+04 -2.188180E+04
       323   7  1.380535E+05  1.047305E+06  1.925686E+05  2.908680E+03 -1.154964E+04  4.063502E+04
       323   8  1.052057E+05  1.047550E+06  1.705062E+05 -1.887942E+03 -1.257084E+04  9.099146E+03
       323   9  1.356186E+05  1.067990E+06  1.848263E+05 -1.563182E+04 -1.205271E+04 -2.243455E+04
       323  10 -8.389643E+04  1.533998E+05 -2.428043E+04 -1.552572E+04  7.220699E-10 -1.826070E-09
       323  11 -1.218496E+05  1.330769E+05 -5.089267E+04 -1.810434E+03 -5.226403E-10 -2.153610E-10
       323  12 -9.672994E+04  1.327362E+05 -4.204137E+04  2.956791E+03 -2.749016E-10  3.507784E-10
       323  13  2.708538E+04  6.002603E+05  8.414956E+04 -6.311695E+03  5.921550E-10  2.150804E-09
       323  14 -8.314376E+03  5.902182E+05  5.981404E+04 -1.849162E+03 -6.869457E-11  1.420119E-09
       323  15  1.945203E+04  6.002629E+05  7.139971E+04 -6.334145E+03  8.184237E-10  5.887795E-10
       323  16  1.380529E+05  1.047303E+06  1.925652E+05  2.909058E+03 -7.373111E-11  1.834868E-09
       323  17  1.052055E+05  1.047550E+06  1.705057E+05 -1.887850E+03 -1.711139E-09  8.345712E-10
       323  18  1.356183E+05  1.067989E+06  1.848251E+05 -1.563204E+04 -2.229428E-10 -3.846535E-10
       323  19 -8.389588E+04  1.534014E+05 -2.427732E+04 -1.552608E+04  1.154907E+04 -3.899892E+04
       323  20 -1.218494E+05  1.330770E+05 -5.089222E+04 -1.810523E+03  1.257167E+04 -8.833134E+03
       323  21 -9.672966E+04  1.327367E+05 -4.204024E+04  2.956998E+03  1.205576E+04  2.132947E+04
       323  22  2.708595E+04  6.002621E+05  8.415279E+04 -6.312065E+03  1.154937E+04 -3.981668E+04
       323  23 -8.314185E+03  5.902183E+05  5.981449E+04 -1.849253E+03  1.257126E+04 -8.966092E+03
       323  24  1.945231E+04  6.002635E+05  7.140088E+04 -6.333933E+03  1.205424E+04  2.188180E+04
       323  25  1.380535E+05  1.047305E+06  1.925686E+05  2.908680E+03  1.154964E+04 -4.063502E+04
       323  26  1.052057E+05  1.047550E+06  1.705062E+05 -1.887942E+03  1.257084E+04 -9.099146E+03
       323  27  1.356186E+05  1.067990E+06  1.848263E+05 -1.563182E+04  1.205271E+04  2.243455E+04
       324   1 -1.260049E+05  1.249870E+05 -3.938689E+04 -2.876988E+04 -1.365412E+04 -3.731669E+04
       324   2 -1.538817E+05  8.013611E+04 -1.408187E+04  1.257071E+04 -1.416336E+04 -9.020859E+04
       324   3  5.216324E+04  1.010266E+05  1.042265E+05  4.381162E+04 -4.647139E+03 -1.430944E+05
       324   4 -5.478083E+03  6.105716E+05  7.809748E+04 -6.618746E+03 -1.365700E+04 -3.492884E+04
       324   5 -3.040494E+04  5.773243E+05  1.061740E+05 -1.537193E+03 -1.415944E+04 -9.219442E+04
       324   6  1.792446E+05  6.105237E+05  2.302374E+05 -6.555688E+03 -4.633789E+03 -1.494553E+05
       324   7  1.150333E+05  1.096373E+06  1.955652E+05  1.554981E+04 -1.365972E+04 -3.253911E+04
       324   8  9.305448E+04  1.074739E+06  2.264123E+05 -1.565640E+04 -1.415544E+04 -9.418181E+04
       324   9  3.063160E+05  1.120262E+06  3.562306E+05 -5.696435E+04 -4.619416E+03 -1.558215E+05
       324  10 -1.260054E+05  1.249855E+05 -3.938985E+04 -2.877029E+04  5.188295E-10 -1.018911E-09
       324  11 -1.538841E+05  8.012731E+04 -1.409754E+04  1.256968E+04 -3.864966E-11 -4.428209E-11
       324  12  5.215772E+04  1.010046E+05  1.041880E+05  4.381108E+04 -1.772587E-10  1.561343E-10
       324  13 -5.478610E+03  6.105703E+05  7.809484E+04 -6.619130E+03  1.834564E-11  9.691258E-10
       324  14 -3.040744E+04  5.773152E+05  1.061577E+05 -1.538244E+03  2.022983E-10  8.567583E-11
       324  15  1.792385E+05  6.104998E+05  2.301954E+05 -6.556246E+03  1.135302E-10  3.196156E-11
       324  16  1.150328E+05  1.096371E+06  1.955629E+05  1.554946E+04  5.735992E-10  3.097072E-10
       324  17  9.305189E+04  1.074729E+06  2.263953E+05 -1.565747E+04  3.175174E-11 -4.326798E-11
       324  18  3.063095E+05  1.120236E+06  3.561850E+05 -5.696493E+04 -1.603307E-10 -1.164205E-10
       324  19 -1.260049E+05  1.249870E+05 -3.938689E+04 -2.876988E+04  1.365412E+04  3.731669E+04
       324  20 -1.538817E+05  8.013611E+04 -1.408187E+04  1.257071E+04  1.416336E+04  9.020859E+04
       324  21  5.216324E+04  1.010266E+05  1.042265E+05  4.381162E+04  4.647139E+03  1.430944E+05
       324  22 -5.478083E+03  6.105716E+05  7.809748E+04 -6.618746E+03  1.365700E+04  3.492884E+04
       324  23 -3.040494E+04  5.773243E+05  1.061740E+05 -1.537193E+03  1.415944E+04  9.219442E+04
       324  24  1.792446E+05  6.105237E+05  2.302374E+05 -6.555688E+03  4.633789E+03  1.494553E+05
       324  25  1.150333E+05  1.096373E+06  1.955652E+05  1.554981E+04  1.365972E+04  3.253911E+04
       324  26  9.305448E+04  1.074739E+06  2.264123E+05 -1.565640E+04  1.415544E+04  9.418181E+04
       324  27  3.063160E+05  1.120262E+06  3.562306E+05 -5.696435E+04  4.619416E+03  1.558215E+05
       325   1 -3.051394E+06 -1.121864E+06 -5.971460E+05 -1.148733E+06 -2.847838E+05 -8.222426E+04
       325   2 -2.982148E+06 -8.889442E+05 -3.820239E+05 -1.117766E+06 -1.840369E+05  1.630685E+04
       325   3 -2.961821E+06 -7.815150E+05 -2.882262E+05 -1.072730E+06 -6.970660E+04  7.900927E+04
       325   4 -1.686996E+06 -4.882570E+05 -2.256759E+05 -6.509854E+05 -1.549163E+05 -3.324134E+04
       325   5 -1.656753E+06 -3.459873E+05 -1.060936E+05 -6.904493E+05 -1.198344E+05  4.050353E+04
       325   6 -1.662260E+06 -3.160159E+05 -5.549417E+04 -7.158781E+05 -7.120196E+04  7.842301E+04
       325   7 -3.207272E+05  1.457726E+05  1.456909E+05 -1.521460E+05 -2.473960E+04  1.592193E+04
       325   8 -3.295197E+05  1.972497E+05  1.697612E+05 -2.622400E+05 -5.548449E+04  6.477068E+04
       325   9 -3.608924E+05  1.496420E+05  1.771865E+05 -3.583257E+05 -7.270065E+04  7.783556E+04
       325  10 -3.051483E+06 -1.121893E+06 -5.973120E+05 -1.148752E+06 -2.853427E-09 -1.218952E-09
       325  11 -2.982185E+06 -8.889536E+05 -3.820883E+05 -1.117763E+06 -4.010314E-10  2.044680E-10
       325  12 -2.961828E+06 -7.815230E+05 -2.882471E+05 -1.072725E+06  2.677695E-09  1.551939E-09
       325  13 -1.687022E+06 -4.882647E+05 -2.257232E+05 -6.509895E+05  1.018635E-09  1.541969E-09
       325  14 -1.656768E+06 -3.459929E+05 -1.061237E+05 -6.904454E+05 -1.974025E-09 -7.995375E-10
       325  15 -1.662267E+06 -3.160238E+05 -5.551524E+04 -7.158736E+05 -2.336565E-10 -7.413430E-10
       325  16 -3.207279E+05  1.457721E+05  1.456893E+05 -1.521457E+05  1.349118E-09  2.098335E-09
       325  17 -3.295241E+05  1.972444E+05  1.697475E+05 -2.622371E+05 -1.797840E-09  7.520055E-10
       325  18 -3.608996E+05  1.496341E+05  1.771652E+05 -3.583211E+05 -3.299003E-09 -5.151104E-10
       325  19 -3.051394E+06 -1.121864E+06 -5.971460E+05 -1.148733E+06  2.847838E+05  8.222426E+04
       325  20 -2.982148E+06 -8.889442E+05 -3.820239E+05 -1.117766E+06  1.840369E+05 -1.630685E+04
       325  21 -2.961821E+06 -7.815150E+05 -2.882262E+05 -1.072730E+06  6.970660E+04 -7.900927E+04
       325  22 -1.686996E+06 -4.882570E+05 -2.256759E+05 -6.509854E+05  1.549163E+05  3.324134E+04
       325  23 -1.656753E+06 -3.459873E+05 -1.060936E+05 -6.904493E+05  1.198344E+05 -4.050353E+04
       325  24 -1.662260E+06 -3.160159E+05 -5.549417E+04 -7.158781E+05  7.120196E+04 -7.842301E+04
       325  25 -3.207272E+05  1.457726E+05  1.456909E+05 -1.521460E+05  2.473960E+04 -1.592193E+04
       325  26 -3.295197E+05  1.972497E+05  1.697612E+05 -2.622400E+05  5.548449E+04 -6.477068E+04
       325  27 -3.608924E+05  1.496420E+05  1.771865E+05 -3.583257E+05  7.270065E+04 -7.783556E+04
       326   1 -2.895125E+06 -7.701411E+05 -2.617642E+05 -1.065743E+06 -6.626219E+04  7.881140E+04
       326   2 -2.822029E+06 -7.244131E+05 -2.212218E+05 -1.037397E+06 -4.869662E+04  8.460050E+04
       326   3 -2.742078E+06 -6.979634E+05 -1.955324E+05 -1.021206E+06 -2.983192E+04  8.694016E+04
       326   4 -1.655454E+06 -3.158235E+05 -4.156738E+04 -7.138489E+05 -6.447322E+04  7.946378E+04
       326   5 -1.658788E+06 -3.020168E+05 -2.180242E+04 -7.095602E+05 -5.321345E+04  8.287814E+04
       326   6 -1.654009E+06 -3.062230E+05 -1.185800E+04 -7.174272E+05 -4.065834E+04  8.284565E+04
       326   7 -4.141509E+05  1.386533E+05  1.785797E+05 -3.612915E+05 -6.268041E+04  8.011767E+04
       326   8 -4.941076E+05  1.205156E+05  1.775774E+05 -3.811463E+05 -5.773929E+04  8.115238E+04
       326   9 -5.646852E+05  8.563064E+04  1.717827E+05 -4.131515E+05 -5.150490E+04  7.874363E+04
       326  10 -2.895132E+06 -7.701490E+05 -2.617841E+05 -1.065739E+06 -2.071893E-09  7.358197E-10
       326  11 -2.822034E+06 -7.244214E+05 -2.212397E+05 -1.037394E+06 -3.862940E-10  1.489432E-09
       326  12 -2.742081E+06 -6.979718E+05 -1.955483E+05 -1.021204E+06  2.979518E-09  1.205362E-09
       326  13 -1.655460E+06 -3.158313E+05 -4.158705E+04 -7.138448E+05  9.799007E-10 -1.477340E-09
       326  14 -1.658792E+06 -3.020249E+05 -2.182064E+04 -7.095567E+05  4.231727E-10  2.154928E-10
       326  15 -1.654012E+06 -3.062308E+05 -1.187399E+04 -7.174244E+05 -1.484391E-10 -5.452085E-11
       326  16 -4.141569E+05  1.386453E+05  1.785602E+05 -3.612875E+05  7.706537E-10  8.306778E-10
       326  17 -4.941130E+05  1.205077E+05  1.775588E+05 -3.811425E+05 -9.399645E-10 -6.416424E-11
       326  18 -5.646897E+05  8.562328E+04  1.717661E+05 -4.131482E+05 -2.825201E-09 -6.918841E-10
       326  19 -2.895125E+06 -7.701411E+05 -2.617642E+05 -1.065743E+06  6.626219E+04 -7.881140E+04
       326  20 -2.822029E+06 -7.244131E+05 -2.212218E+05 -1.037397E+06  4.869662E+04 -8.460050E+04
       326  21 -2.742078E+06 -6.979634E+05 -1.955324E+05 -1.021206E+06  2.983192E+04 -8.694016E+04
       326  22 -1.655454E+06 -3.158235E+05 -4.156738E+04 -7.138489E+05  6.447322E+04 -7.946378E+04
       326  23 -1.658788E+06 -3.020168E+05 -2.180242E+04 -7.095602E+05  5.321345E+04 -8.287814E+04
       326  24 -1.654009E+06 -3.062230E+05 -1.185800E+04 -7.174272E+05  4.065834E+04 -8.284565E+04
       326  25 -4.141509E+05  1.386533E+05  1.785797E+05 -3.612915E+05  6.268041E+04 -8.011767E+04
       326  26 -4.941076E+05  1.205156E+05  1.775774E+05 -3.811463E+05  5.773929E+04 -8.115238E+04
       326  27 -5.646852E+05  8.563064E+04  1.717827E+05 -4.131515E+05  5.150490E+04 -7.874363E+04
       327   1 -2.690474E+06 -6.802334E+05 -1.834018E+05 -1.007577E+06 -2.715991E+04  8.392890E+04
       327   2 -2.617459E+06 -6.452305E+05 -1.656232E+05 -9.786898E+05 -2.185359E+04  7.916871E+04
       327   3 -2.532896E+06 -6.227298E+05 -1.502292E+05 -9.634991E+05 -1.641983E+04  7.405791E+04
       327   4 -1.653390E+06 -3.062806E+05 -8.900005E+03 -7.172691E+05 -3.770612E+04  7.994283E+04
       327   5 -1.659161E+06 -2.998692E+05 -4.883351E+03 -7.104915E+05 -3.303875E+04  7.494672E+04
       327   6 -1.653267E+06 -3.058324E+05 -2.742753E+03 -7.174113E+05 -2.824449E+04  6.960016E+04
       327   7 -6.151425E+05  6.778486E+04  1.655779E+05 -4.265019E+05 -4.827124E+04  7.594967E+04
       327   8 -6.998749E+05  4.558669E+04  1.558353E+05 -4.419020E+05 -4.424238E+04  7.071781E+04
       327   9 -7.728093E+05  1.114305E+04  1.447249E+05 -4.709952E+05 -4.008702E+04  6.513571E+04
       327  10 -2.690477E+06 -6.802412E+05 -1.834164E+05 -1.007575E+06  7.601919E-10 -1.480167E-10
       327  11 -2.617461E+06 -6.452373E+05 -1.656358E+05 -9.786884E+05 -1.117900E-09  1.308275E-09
       327  12 -2.532898E+06 -6.227357E+05 -1.502400E+05 -9.634982E+05 -1.168025E-09  7.677646E-10
       327  13 -1.653393E+06 -3.062879E+05 -8.914673E+03 -7.172666E+05  2.214025E-10 -1.845573E-12
       327  14 -1.659164E+06 -2.998756E+05 -4.895946E+03 -7.104895E+05  4.851824E-10  1.765484E-10
       327  15 -1.653269E+06 -3.058378E+05 -2.753346E+03 -7.174098E+05 -8.391610E-10  1.548429E-09
       327  16 -6.151466E+05  6.777805E+04  1.655627E+05 -4.264990E+05 -1.553577E-09 -1.322480E-10
       327  17 -6.998783E+05  4.558080E+04  1.558223E+05 -4.418995E+05 -3.084096E-10 -1.061049E-09
       327  18 -7.728121E+05  1.113807E+04  1.447139E+05 -4.709931E+05 -1.932972E-11  6.570469E-11
       327  19 -2.690474E+06 -6.802334E+05 -1.834018E+05 -1.007577E+06  2.715991E+04 -8.392890E+04
       327  20 -2.617459E+06 -6.452305E+05 -1.656232E+05 -9.786898E+05  2.185359E+04 -7.916871E+04
       327  21 -2.532896E+06 -6.227298E+05 -1.502292E+05 -9.634991E+05  1.641983E+04 -7.405791E+04
       327  22 -1.653390E+06 -3.062806E+05 -8.900005E+03 -7.172691E+05  3.770612E+04 -7.994283E+04
       327  23 -1.659161E+06 -2.998692E+05 -4.883351E+03 -7.104915E+05  3.303875E+04 -7.494672E+04
       327  24 -1.653267E+06 -3.058324E+05 -2.742753E+03 -7.174113E+05  2.824449E+04 -6.960016E+04
       327  25 -6.151425E+05  6.778486E+04  1.655779E+05 -4.265019E+05  4.827124E+04 -7.594967E+04
       327  26 -6.998749E+05  4.558669E+04  1.558353E+05 -4.419020E+05  4.424238E+04 -7.071781E+04
       327  27 -7.728093E+05  1.114305E+04  1.447249E+05 -4.709952E+05  4.008702E+04 -6.513571E+04
       328   1 -2.482011E+06 -6.043903E+05 -1.406747E+05 -9.493428E+05 -1.460221E+04  7.044756E+04
       328   2 -2.408530E+06 -5.696413E+05 -1.266918E+05 -9.201493E+05 -1.142141E+04  6.426338E+04
       328   3 -2.322962E+06 -5.470368E+05 -1.132514E+05 -9.048124E+05 -8.225961E+03  5.802933E+04
       328   4 -1.653161E+06 -3.058451E+05 -2.110425E+03 -7.174130E+05 -2.642794E+04  6.599199E+04
       328   5 -1.659185E+06 -2.997425E+05 -1.321538E+03 -7.104900E+05 -2.333747E+04  5.977769E+04
       328   6 -1.653111E+06 -3.057666E+05 -1.004104E+03 -7.174256E+05 -2.023242E+04  5.351351E+04
       328   7 -8.235834E+05 -7.233967E+03  1.364349E+05 -4.851941E+05 -3.827038E+04  6.153014E+04
       328   8 -9.092384E+05 -2.978690E+04  1.240353E+05 -5.005924E+05 -3.526885E+04  5.528626E+04
       328   9 -9.827724E+05 -6.444848E+04  1.112345E+05 -5.298466E+05 -3.225282E+04  4.899245E+04
       328  10 -2.482013E+06 -6.043957E+05 -1.406844E+05 -9.493420E+05  2.169914E-10  1.510277E-09
       328  11 -2.408532E+06 -5.696458E+05 -1.266998E+05 -9.201488E+05  7.368197E-10  4.388218E-10
       328  12 -2.322963E+06 -5.470404E+05 -1.132578E+05 -9.048120E+05  3.640656E-10  2.165168E-10
       328  13 -1.653163E+06 -3.058500E+05 -2.119912E+03 -7.174116E+05 -1.781535E-10  1.165400E-09
       328  14 -1.659187E+06 -2.997465E+05 -1.329269E+03 -7.104889E+05  9.886033E-10  1.628041E-10
       328  15 -1.653113E+06 -3.057698E+05 -1.010249E+03 -7.174248E+05 -7.001147E-10  2.501834E-10
       328  16 -8.235860E+05 -7.238421E+03  1.364250E+05 -4.851922E+05 -4.966681E-10  3.114916E-10
       328  17 -9.092406E+05 -2.979051E+04  1.240272E+05 -5.005908E+05 -1.406678E-09  5.902990E-10
       328  18 -9.827742E+05 -6.445133E+04  1.112280E+05 -5.298453E+05 -1.224969E-09  2.931780E-10
       328  19 -2.482011E+06 -6.043903E+05 -1.406747E+05 -9.493428E+05  1.460221E+04 -7.044756E+04
       328  20 -2.408530E+06 -5.696413E+05 -1.266918E+05 -9.201493E+05  1.142141E+04 -6.426338E+04
       328  21 -2.322962E+06 -5.470368E+05 -1.132514E+05 -9.048124E+05  8.225961E+03 -5.802933E+04
       328  22 -1.653161E+06 -3.058451E+05 -2.110425E+03 -7.174130E+05  2.642794E+04 -6.599199E+04
       328  23 -1.659185E+06 -2.997425E+05 -1.321538E+03 -7.104900E+05  2.333747E+04 -5.977769E+04
       328  24 -1.653111E+06 -3.057666E+05 -1.004104E+03 -7.174256E+05  2.023242E+04 -5.351351E+04
       328  25 -8.235834E+05 -7.233967E+03  1.364349E+05 -4.851941E+05  3.827038E+04 -6.153014E+04
       328  26 -9.092384E+05 -2.978690E+04  1.240353E+05 -5.005924E+05  3.526885E+04 -5.528626E+04
       328  27 -9.827724E+05 -6.444848E+04  1.112345E+05 -5.298466E+05  3.225282E+04 -4.899245E+04
       329   1 -2.271785E+06 -5.285345E+05 -1.042769E+05 -8.905495E+05 -6.606410E+03  5.428972E+04
       329   2 -2.197765E+06 -4.936018E+05 -9.130152E+04 -8.612003E+05 -3.510948E+03  4.797228E+04
       329   3 -2.111594E+06 -4.708772E+05 -7.878813E+04 -8.458125E+05 -4.137582E+02  4.164223E+04
       329   4 -1.653082E+06 -3.057637E+05 -9.890824E+02 -7.174495E+05 -1.863419E+04  4.976784E+04
       329   5 -1.659133E+06 -2.996120E+05 -1.226365E+03 -7.104800E+05 -1.556124E+04  4.344474E+04
       329   6 -1.653037E+06 -3.056637E+05 -1.908663E+03 -7.174734E+05 -1.248667E+04  3.710901E+04
       329   7 -1.033969E+06 -8.295437E+04  1.022899E+05 -5.441871E+05 -3.067473E+04  4.524117E+04
       329   8 -1.120193E+06 -1.055940E+05  8.884132E+04 -5.596373E+05 -2.762261E+04  3.891304E+04
       329   9 -1.194259E+06 -1.404309E+05  7.496471E+04 -5.890464E+05 -2.456895E+04  3.257226E+04
       329  10 -2.271786E+06 -5.285376E+05 -1.042825E+05 -8.905492E+05  8.315212E-10  2.342489E-10
       329  11 -2.197766E+06 -4.936042E+05 -9.130586E+04 -8.612002E+05  6.563901E-10  4.810719E-10
       329  12 -2.111595E+06 -4.708790E+05 -7.879138E+04 -8.458125E+05 -6.491611E-10  7.398165E-10
       329  13 -1.653083E+06 -3.057665E+05 -9.943845E+02 -7.174487E+05 -1.795123E-10  3.073701E-10
       329  14 -1.659134E+06 -2.996141E+05 -1.230364E+03 -7.104794E+05 -3.048027E-10  3.009998E-10
       329  15 -1.653037E+06 -3.056652E+05 -1.911541E+03 -7.174730E+05 -4.516192E-10  4.257501E-10
       329  16 -1.033971E+06 -8.295682E+04  1.022843E+05 -5.441859E+05 -7.047221E-10  2.550461E-10
       329  17 -1.120194E+06 -1.055958E+05  8.883705E+04 -5.596365E+05 -2.009943E-10  1.965717E-10
       329  18 -1.194260E+06 -1.404322E+05  7.496158E+04 -5.890458E+05 -4.555749E-10  1.463411E-10
       329  19 -2.271785E+06 -5.285345E+05 -1.042769E+05 -8.905495E+05  6.606410E+03 -5.428972E+04
       329  20 -2.197765E+06 -4.936018E+05 -9.130152E+04 -8.612003E+05  3.510948E+03 -4.797228E+04
       329  21 -2.111594E+06 -4.708772E+05 -7.878813E+04 -8.458125E+05  4.137582E+02 -4.164223E+04
       329  22 -1.653082E+06 -3.057637E+05 -9.890824E+02 -7.174495E+05  1.863419E+04 -4.976784E+04
       329  23 -1.659133E+06 -2.996120E+05 -1.226365E+03 -7.104800E+05  1.556124E+04 -4.344474E+04
       329  24 -1.653037E+06 -3.056637E+05 -1.908663E+03 -7.174734E+05  1.248667E+04 -3.710901E+04
       329  25 -1.033969E+06 -8.295437E+04  1.022899E+05 -5.441871E+05  3.067473E+04 -4.524117E+04
       329  26 -1.120193E+06 -1.055940E+05  8.884132E+04 -5.596373E+05  2.762261E+04 -3.891304E+04
       329  27 -1.194259E+06 -1.404309E+05  7.496471E+04 -5.890464E+05  2.456895E+04 -3.257226E+04
       330   1 -2.060123E+06 -4.523137E+05 -7.033560E+04 -8.315541E+05  1.404954E+03  3.795490E+04
       330   2 -1.985604E+06 -4.172450E+05 -5.893155E+04 -8.020332E+05  5.976361E+03  3.218179E+04
       330   3 -1.899208E+06 -3.947514E+05 -4.917365E+04 -7.865407E+05  1.053250E+04  2.644535E+04
       330   4 -1.653081E+06 -3.056509E+05 -2.470358E+03 -7.175228E+05 -1.068788E+04  3.341553E+04
       330   5 -1.659016E+06 -2.994726E+05 -4.361524E+03 -7.104598E+05 -6.048562E+03  2.766955E+04
       330   6 -1.653097E+06 -3.058840E+05 -7.953921E+03 -7.174278E+05 -1.424800E+03  2.196015E+04
       330   7 -1.245858E+06 -1.589694E+05  6.539271E+04 -6.034197E+05 -2.278929E+04  2.887293E+04
       330   8 -1.332312E+06 -1.816885E+05  5.020701E+04 -6.188403E+05 -1.808029E+04  2.315475E+04
       330   9 -1.406921E+06 -2.170102E+05  3.326493E+04 -6.482890E+05 -1.338715E+04  1.747303E+04
       330  10 -2.060123E+06 -4.523152E+05 -7.033831E+04 -8.315542E+05 -1.867983E-10  8.563601E-10
       330  11 -1.985604E+06 -4.172461E+05 -5.893357E+04 -8.020334E+05 -9.663986E-10  1.981898E-11
       330  12 -1.899208E+06 -3.947522E+05 -4.917517E+04 -7.865410E+05 -3.807032E-10  3.304103E-11
       330  13 -1.653082E+06 -3.056521E+05 -2.472669E+03 -7.175225E+05 -1.051714E-09  4.009189E-10
       330  14 -1.659016E+06 -2.994734E+05 -4.363030E+03 -7.104596E+05 -7.679046E-10  2.178893E-10
       330  15 -1.653097E+06 -3.058845E+05 -7.954831E+03 -7.174278E+05 -1.188992E-09 -1.671342E-10
       330  16 -1.245859E+06 -1.589705E+05  6.539017E+04 -6.034192E+05 -3.633527E-10  5.595406E-11
       330  17 -1.332313E+06 -1.816891E+05  5.020539E+04 -6.188400E+05 -7.967949E-11  2.823138E-10
       330  18 -1.406921E+06 -2.170105E+05  3.326402E+04 -6.482888E+05 -4.760389E-10  1.450246E-10
       330  19 -2.060123E+06 -4.523137E+05 -7.033560E+04 -8.315541E+05 -1.404954E+03 -3.795490E+04
       330  20 -1.985604E+06 -4.172450E+05 -5.893155E+04 -8.020332E+05 -5.976361E+03 -3.218179E+04
       330  21 -1.899208E+06 -3.947514E+05 -4.917365E+04 -7.865407E+05 -1.053250E+04 -2.644535E+04
       330  22 -1.653081E+06 -3.056509E+05 -2.470358E+03 -7.175228E+05  1.068788E+04 -3.341553E+04
       330  23 -1.659016E+06 -2.994726E+05 -4.361524E+03 -7.104598E+05  6.048562E+03 -2.766955E+04
       330  24 -1.653097E+06 -3.058840E+05 -7.953921E+03 -7.174278E+05  1.424800E+03 -2.196015E+04
       330  25 -1.245858E+06 -1.589694E+05  6.539271E+04 -6.034197E+05  2.278929E+04 -2.887293E+04
       330  26 -1.332312E+06 -1.816885E+05  5.020701E+04 -6.188403E+05  1.808029E+04 -2.315475E+04
       330  27 -1.406921E+06 -2.170102E+05  3.326493E+04 -6.482890E+05  1.338715E+04 -1.747303E+04
       331   1 -1.847482E+06 -3.766010E+05 -4.273565E+04 -7.729755E+05  1.346835E+04  2.319563E+04
       331   2 -1.773819E+06 -3.409648E+05 -3.791420E+04 -7.402492E+05  2.476965E+04  2.024884E+04
       331   3 -1.691092E+06 -3.230859E+05 -4.121899E+04 -7.205217E+05  3.589386E+04  1.777520E+04
       331   4 -1.653581E+06 -3.058591E+05 -1.060203E+04 -7.176515E+05  1.458327E+03  1.869137E+04
       331   5 -1.658622E+06 -3.011171E+05 -1.947047E+04 -7.095688E+05  1.362946E+04  1.607122E+04
       331   6 -1.654779E+06 -3.143060E+05 -3.715616E+04 -7.144880E+05  2.562246E+04  1.392365E+04
       331   7 -1.459642E+06 -2.351138E+05  2.153075E+04 -6.623116E+05 -1.055556E+04  1.418561E+04
       331   8 -1.543411E+06 -2.612683E+05 -1.026471E+03 -6.788830E+05  2.487062E+03  1.189285E+04
       331   9 -1.618464E+06 -3.055257E+05 -3.309276E+04 -7.084541E+05  1.535031E+04  1.007199E+04
       331  10 -1.847483E+06 -3.766016E+05 -4.273700E+04 -7.729757E+05  1.952949E-10  1.305431E-10
       331  11 -1.773820E+06 -3.409654E+05 -3.791613E+04 -7.402496E+05 -8.428922E-10 -2.653710E-11
       331  12 -1.691094E+06 -3.230866E+05 -4.122202E+04 -7.205222E+05 -5.605252E-10  1.693231E-10
       331  13 -1.653581E+06 -3.058595E+05 -1.060269E+04 -7.176515E+05 -2.419601E-10  1.879015E-10
       331  14 -1.658623E+06 -3.011174E+05 -1.947131E+04 -7.095690E+05 -1.322287E-09 -9.974318E-11
       331  15 -1.654780E+06 -3.143063E+05 -3.715777E+04 -7.144883E+05  9.306475E-11  1.863541E-10
       331  16 -1.459642E+06 -2.351141E+05  2.153016E+04 -6.623114E+05 -2.169665E-10  8.719831E-11
       331  17 -1.543411E+06 -2.612684E+05 -1.026749E+03 -6.788830E+05  1.051038E-10  1.818203E-10
       331  18 -1.618465E+06 -3.055259E+05 -3.309339E+04 -7.084542E+05  2.813587E-10  1.024235E-10
       331  19 -1.847482E+06 -3.766010E+05 -4.273565E+04 -7.729755E+05 -1.346835E+04 -2.319563E+04
       331  20 -1.773819E+06 -3.409648E+05 -3.791420E+04 -7.402492E+05 -2.476965E+04 -2.024884E+04
       331  21 -1.691092E+06 -3.230859E+05 -4.121899E+04 -7.205217E+05 -3.589386E+04 -1.777520E+04
       331  22 -1.653581E+06 -3.058591E+05 -1.060203E+04 -7.176515E+05 -1.458327E+03 -1.869137E+04
       331  23 -1.658622E+06 -3.011171E+05 -1.947047E+04 -7.095688E+05 -1.362946E+04 -1.607122E+04
       331  24 -1.654779E+06 -3.143060E+05 -3.715616E+04 -7.144880E+05 -2.562246E+04 -1.392365E+04
       331  25 -1.459642E+06 -2.351138E+05  2.153075E+04 -6.623116E+05  1.055556E+04 -1.418561E+04
       331  26 -1.543411E+06 -2.612683E+05 -1.026471E+03 -6.788830E+05 -2.487062E+03 -1.189285E+04
       331  27 -1.618464E+06 -3.055257E+05 -3.309276E+04 -7.084541E+05 -1.535031E+04 -1.007199E+04
       332   1 -1.637453E+06 -3.120586E+05 -4.409345E+04 -7.166866E+05  4.325609E+04  1.652314E+04
       332   2 -1.595057E+06 -2.666990E+05 -7.176204E+04 -6.229715E+05  8.457108E+04  2.821358E+04
       332   3 -1.579642E+06 -3.234628E+05 -1.538653E+05 -5.206443E+05  1.240149E+05  4.491017E+04
       332   4 -1.660525E+06 -3.147680E+05 -4.961080E+04 -7.166805E+05  3.251810E+04  1.249750E+04
       332   5 -1.657041E+06 -3.399520E+05 -9.482066E+04 -6.920754E+05  8.301500E+04  2.762147E+04
       332   6 -1.682389E+06 -4.691120E+05 -2.017643E+05 -6.588662E+05  1.316365E+05  4.774117E+04
       332   7 -1.683595E+06 -3.174774E+05 -5.512770E+04 -7.166744E+05  2.178049E+04  8.471748E+03
       332   8 -1.719014E+06 -4.131854E+05 -1.178778E+05 -7.611682E+05  8.145911E+04  2.702975E+04
       332   9 -1.785092E+06 -6.146782E+05 -2.496563E+05 -7.970482E+05  1.392565E+05  5.056821E+04
       332  10 -1.637456E+06 -3.120594E+05 -4.409749E+04 -7.166872E+05 -3.746319E-10  2.078245E-10
       332  11 -1.595065E+06 -2.667017E+05 -7.177702E+04 -6.229734E+05 -6.841316E-10  1.090231E-10
       332  12 -1.579659E+06 -3.234691E+05 -1.538981E+05 -5.206488E+05  1.098953E-10  9.970719E-11
       332  13 -1.660526E+06 -3.147685E+05 -4.961309E+04 -7.166808E+05 -4.657623E-10 -5.235229E-11
       332  14 -1.657049E+06 -3.399547E+05 -9.483509E+04 -6.920772E+05  3.337242E-10  1.591362E-10
       332  15 -1.682408E+06 -4.691191E+05 -2.018013E+05 -6.588713E+05  7.196919E-11 -9.261020E-12
       332  16 -1.683595E+06 -3.174776E+05 -5.512873E+04 -7.166746E+05  1.553313E-10  8.549323E-11
       332  17 -1.719021E+06 -4.131880E+05 -1.178917E+05 -7.611700E+05 -2.208665E-10 -2.091844E-10
       332  18 -1.785113E+06 -6.146862E+05 -2.496977E+05 -7.970539E+05 -3.963854E-11 -1.536752E-11
       332  19 -1.637453E+06 -3.120586E+05 -4.409345E+04 -7.166866E+05 -4.325609E+04 -1.652314E+04
       332  20 -1.595057E+06 -2.666990E+05 -7.176204E+04 -6.229715E+05 -8.457108E+04 -2.821358E+04
       332  21 -1.579642E+06 -3.234628E+05 -1.538653E+05 -5.206443E+05 -1.240149E+05 -4.491017E+04
       332  22 -1.660525E+06 -3.147680E+05 -4.961080E+04 -7.166805E+05 -3.251810E+04 -1.249750E+04
       332  23 -1.657041E+06 -3.399520E+05 -9.482066E+04 -6.920754E+05 -8.301500E+04 -2.762147E+04
       332  24 -1.682389E+06 -4.691120E+05 -2.017643E+05 -6.588662E+05 -1.316365E+05 -4.774117E+04
       332  25 -1.683595E+06 -3.174774E+05 -5.512770E+04 -7.166744E+05 -2.178049E+04 -8.471748E+03
       332  26 -1.719014E+06 -4.131854E+05 -1.178778E+05 -7.611682E+05 -8.145911E+04 -2.702975E+04
       332  27 -1.785092E+06 -6.146782E+05 -2.496563E+05 -7.970482E+05 -1.392565E+05 -5.056821E+04
       333   1  9.901197E+05  1.736813E+05  2.422365E+05  5.687323E+04  2.126672E+05  2.941751E+03
       333   2  9.699081E+05 -1.093581E+05  7.117126E+04  1.804896E+04  1.408292E+05  8.029891E+03
       333   3  1.038710E+06 -7.432582E+04  2.639856E+04 -4.184516E+04  6.899213E+04  7.022393E+03
       333   4  1.289447E+06  2.480542E+05  3.161762E+05 -1.173457E+04  2.163022E+05  2.922339E+03
       333   5  1.244809E+06 -4.120646E+04  1.375815E+05 -1.055055E+03  1.417908E+05  8.026231E+03
       333   6  1.289600E+06 -1.201739E+04  8.708950E+04 -1.144564E+04  6.728331E+04  7.024237E+03
       333   7  1.588866E+06  3.224382E+05  3.901119E+05 -8.037545E+04  2.199390E+05  2.902134E+03
       333   8  1.519780E+06  2.694109E+04  2.039866E+05 -2.016756E+04  1.427527E+05  8.022514E+03
       333   9  1.540550E+06  5.028990E+04  1.477764E+05  1.896618E+04  6.557380E+04  7.025913E+03
       333  10  9.900712E+05  1.736692E+05  2.421516E+05  5.687273E+04  2.930461E-09 -1.402312E-09
       333  11  9.698868E+05 -1.093635E+05  7.113393E+04  1.804805E+04  1.392729E-09 -2.687634E-10
       333  12  1.038704E+06 -7.432715E+04  2.638954E+04 -4.184555E+04 -4.122115E-09 -8.145938E-10
       333  13  1.289397E+06  2.480417E+05  3.160885E+05 -1.173508E+04  1.106650E-09  6.471758E-10
       333  14  1.244788E+06 -4.121191E+04  1.375437E+05 -1.055971E+03  1.264422E-09 -4.202229E-10
       333  15  1.289595E+06 -1.201865E+04  8.708092E+04 -1.144602E+04  6.005839E-10 -8.270129E-10
       333  16  1.588814E+06  3.224252E+05  3.900212E+05 -8.037597E+04 -1.440179E-09  5.706881E-10
       333  17  1.519759E+06  2.693557E+04  2.039483E+05 -2.016848E+04  4.276023E-10  1.279105E-11
       333  18  1.540546E+06  5.028870E+04  1.477683E+05  1.896581E+04  5.856798E-09  2.013661E-09
       333  19  9.901197E+05  1.736813E+05  2.422365E+05  5.687323E+04 -2.126672E+05 -2.941751E+03
       333  20  9.699081E+05 -1.093581E+05  7.117126E+04  1.804896E+04 -1.408292E+05 -8.029891E+03
       333  21  1.038710E+06 -7.432582E+04  2.639856E+04 -4.184516E+04 -6.899213E+04 -7.022393E+03
       333  22  1.289447E+06  2.480542E+05  3.161762E+05 -1.173457E+04 -2.163022E+05 -2.922339E+03
       333  23  1.244809E+06 -4.120646E+04  1.375815E+05 -1.055055E+03 -1.417908E+05 -8.026231E+03
       333  24  1.289600E+06 -1.201739E+04  8.708950E+04 -1.144564E+04 -6.728331E+04 -7.024237E+03
       333  25  1.588866E+06  3.224382E+05  3.901119E+05 -8.037545E+04 -2.199390E+05 -2.902134E+03
       333  26  1.519780E+06  2.694109E+04  2.039866E+05 -2.016756E+04 -1.427527E+05 -8.022514E+03
       333  27  1.540550E+06  5.028990E+04  1.477764E+05  1.896618E+04 -6.557380E+04 -7.025913E+03
       334   1  1.058901E+06 -2.420982E+04  1.961339E+04 -3.996387E+03  5.354387E+04  5.594736E+03
       334   2  1.075535E+06 -5.224726E+04 -1.042024E+04  3.138930E+02  3.533552E+04  5.251744E+03
       334   3  1.103890E+06 -4.319515E+04 -1.932254E+04 -1.492927E+04  1.712674E+04  4.390284E+03
       334   4  1.272306E+06  2.874729E+04  7.132913E+04 -1.120922E+04  5.352544E+04  5.593969E+03
       334   5  1.266442E+06 -4.878797E+03  3.577218E+04 -1.423020E+03  3.508696E+04  5.251397E+03
       334   6  1.272334E+06 -1.382079E+03  2.150079E+04 -1.118967E+04  1.664871E+04  4.390109E+03
       334   7  1.485753E+06  8.170126E+04  1.230416E+05 -1.842454E+04  5.350700E+04  5.593203E+03
       334   8  1.457382E+06  4.248701E+04  8.196199E+04 -3.160472E+03  3.483832E+04  5.251051E+03
       334   9  1.440803E+06  4.042897E+04  6.232208E+04 -7.449060E+03  1.617054E+04  4.389928E+03
       334  10  1.058898E+06 -2.421062E+04  1.960795E+04 -3.996628E+03 -1.468148E-09 -5.647770E-10
       334  11  1.075534E+06 -5.224762E+04 -1.042263E+04  3.137436E+02  6.607768E-10  3.241395E-11
       334  12  1.103890E+06 -4.319525E+04 -1.932312E+04 -1.492933E+04 -1.266589E-09 -5.726429E-10
       334  13  1.272303E+06  2.874649E+04  7.132370E+04 -1.120946E+04 -7.961644E-10  1.100060E-09
       334  14  1.266441E+06 -4.879156E+03  3.576982E+04 -1.423168E+03  3.970063E-10  7.992306E-11
       334  15  1.272333E+06 -1.382174E+03  2.150024E+04 -1.118973E+04  5.686555E-10 -7.002885E-10
       334  16  1.485750E+06  8.170046E+04  1.230362E+05 -1.842478E+04  1.171973E-09  8.217413E-10
       334  17  1.457381E+06  4.248666E+04  8.195966E+04 -3.160619E+03  3.816754E-10 -7.319445E-10
       334  18  1.440802E+06  4.042888E+04  6.232156E+04 -7.449118E+03  3.017765E-10  6.346192E-11
       334  19  1.058901E+06 -2.420982E+04  1.961339E+04 -3.996387E+03 -5.354387E+04 -5.594736E+03
       334  20  1.075535E+06 -5.224726E+04 -1.042024E+04  3.138930E+02 -3.533552E+04 -5.251744E+03
       334  21  1.103890E+06 -4.319515E+04 -1.932254E+04 -1.492927E+04 -1.712674E+04 -4.390284E+03
       334  22  1.272306E+06  2.874729E+04  7.132913E+04 -1.120922E+04 -5.352544E+04 -5.593969E+03
       334  23  1.266442E+06 -4.878797E+03  3.577218E+04 -1.423020E+03 -3.508696E+04 -5.251397E+03
       334  24  1.272334E+06 -1.382079E+03  2.150079E+04 -1.118967E+04 -1.664871E+04 -4.390109E+03
       334  25  1.485753E+06  8.170126E+04  1.230416E+05 -1.842454E+04 -5.350700E+04 -5.593203E+03
       334  26  1.457382E+06  4.248701E+04  8.196199E+04 -3.160472E+03 -3.483832E+04 -5.251051E+03
       334  27  1.440803E+06  4.042897E+04  6.232208E+04 -7.449060E+03 -1.617054E+04 -4.389928E+03
       335   1  1.137104E+06 -2.970789E+04 -1.520513E+04 -1.035940E+04  1.356128E+04  3.822785E+03
       335   2  1.157699E+06 -2.826434E+04 -1.783293E+04 -1.590782E+03  8.961323E+03  3.041835E+03
       335   3  1.179997E+06 -2.252574E+04 -1.638940E+04 -1.147261E+04  4.361097E+03  2.226803E+03
       335   4  1.270100E+06  3.281451E+03  1.692543E+04 -1.099577E+04  1.323335E+04  3.822600E+03
       335   5  1.269249E+06 -5.850753E+02  9.162433E+03 -1.670076E+03  8.617737E+03  3.041699E+03
       335   6  1.270105E+06 -1.542411E+02  5.481014E+03 -1.099461E+04  4.002017E+03  2.226713E+03
       335   7  1.403111E+06  3.626950E+04  4.905474E+04 -1.163227E+04  1.290534E+04  3.822416E+03
       335   8  1.380811E+06  2.709328E+04  3.615690E+04 -1.749384E+03  8.274089E+03  3.041564E+03
       335   9  1.360220E+06  2.221666E+04  2.735084E+04 -1.051654E+04  3.642885E+03  2.226622E+03
       335  10  1.137104E+06 -2.970796E+04 -1.520551E+04 -1.035944E+04 -1.498004E-10 -5.485580E-10
       335  11  1.157699E+06 -2.826438E+04 -1.783310E+04 -1.590804E+03 -1.386612E-09 -7.679406E-10
       335  12  1.179997E+06 -2.252575E+04 -1.638945E+04 -1.147262E+04  8.702117E-10 -3.569842E-10
       335  13  1.270099E+06  3.281389E+03  1.692508E+04 -1.099581E+04 -2.698881E-10 -8.077055E-11
       335  14  1.269249E+06 -5.851051E+02  9.162277E+03 -1.670097E+03 -2.441325E-09  1.114966E-10
       335  15  1.270105E+06 -1.542507E+02  5.480974E+03 -1.099462E+04 -1.409177E-09 -6.308215E-10
       335  16  1.403111E+06  3.626944E+04  4.905440E+04 -1.163231E+04 -1.059169E-09  5.409514E-10
       335  17  1.380811E+06  2.709326E+04  3.615676E+04 -1.749405E+03 -8.311410E-10 -2.012728E-10
       335  18  1.360220E+06  2.221665E+04  2.735081E+04 -1.051655E+04 -1.512154E-09 -1.850767E-10
       335  19  1.137104E+06 -2.970789E+04 -1.520513E+04 -1.035940E+04 -1.356128E+04 -3.822785E+03
       335  20  1.157699E+06 -2.826434E+04 -1.783293E+04 -1.590782E+03 -8.961323E+03 -3.041835E+03
       335  21  1.179997E+06 -2.252574E+04 -1.638940E+04 -1.147261E+04 -4.361097E+03 -2.226803E+03
       335  22  1.270100E+06  3.281451E+03  1.692543E+04 -1.099577E+04 -1.323335E+04 -3.822600E+03
       335  23  1.269249E+06 -5.850753E+02  9.162433E+03 -1.670076E+03 -8.617737E+03 -3.041699E+03
       335  24  1.270105E+06 -1.542411E+02  5.481014E+03 -1.099461E+04 -4.002017E+03 -2.226713E+03
       335  25  1.403111E+06  3.626950E+04  4.905474E+04 -1.163227E+04 -1.290534E+04 -3.822416E+03
       335  26  1.380811E+06  2.709328E+04  3.615690E+04 -1.749384E+03 -8.274089E+03 -3.041564E+03
       335  27  1.360220E+06  2.221666E+04  2.735084E+04 -1.051654E+04 -3.642885E+03 -2.226622E+03
       336   1  1.213912E+06 -1.349345E+04 -9.144234E+03 -1.086804E+04  3.466826E+03  1.750750E+03
       336   2  1.234702E+06 -8.746240E+03 -5.792433E+03 -1.803579E+03  2.140449E+03  9.514905E+02
       336   3  1.255805E+06 -3.477361E+03 -1.445949E+03 -1.095824E+04  8.139435E+02  1.526694E+02
       336   4  1.269797E+06  3.599487E+02  4.315367E+03 -1.089918E+04  3.121205E+03  1.750680E+03
       336   5  1.269641E+06 -7.712333E+01  2.662657E+03 -1.789629E+03  1.794904E+03  9.514336E+02
       336   6  1.269798E+06  7.374192E+00  2.004441E+03 -1.089912E+04  4.685175E+02  1.526268E+02
       336   7  1.325684E+06  1.421312E+04  1.777475E+04 -1.093033E+04  2.775554E+03  1.750610E+03
       336   8  1.304581E+06  8.591904E+03  1.111766E+04 -1.775678E+03  1.449339E+03  9.513767E+02
       336   9  1.283791E+06  3.492095E+03  5.454816E+03 -1.084001E+04  1.230837E+02  1.525841E+02
       336  10  1.213912E+06 -1.349346E+04 -9.144263E+03 -1.086804E+04 -6.839850E-10 -8.194690E-11
       336  11  1.234702E+06 -8.746242E+03 -5.792443E+03 -1.803581E+03 -5.411213E-10  2.852738E-10
       336  12  1.255805E+06 -3.477361E+03 -1.445950E+03 -1.095824E+04 -5.103961E-10  7.931766E-11
       336  13  1.269797E+06  3.599428E+02  4.315343E+03 -1.089919E+04 -1.494613E-09 -1.483757E-10
       336  14  1.269641E+06 -7.712517E+01  2.662649E+03 -1.789630E+03 -7.511865E-10 -1.126780E-10
       336  15  1.269798E+06  7.374108E+00  2.004440E+03 -1.089912E+04 -9.195424E-10  2.220592E-10
       336  16  1.325684E+06  1.421312E+04  1.777473E+04 -1.093034E+04 -1.903516E-10 -1.154824E-10
       336  17  1.304581E+06  8.591903E+03  1.111765E+04 -1.775679E+03 -4.161496E-10 -1.844118E-10
       336  18  1.283791E+06  3.492095E+03  5.454816E+03 -1.084001E+04  3.360339E-10 -1.126932E-10
       336  19  1.213912E+06 -1.349345E+04 -9.144234E+03 -1.086804E+04 -3.466826E+03 -1.750750E+03
       336  20  1.234702E+06 -8.746240E+03 -5.792433E+03 -1.803579E+03 -2.140449E+03 -9.514905E+02
       336  21  1.255805E+06 -3.477361E+03 -1.445949E+03 -1.095824E+04 -8.139435E+02 -1.526694E+02
       336  22  1.269797E+06  3.599487E+02  4.315367E+03 -1.089918E+04 -3.121205E+03 -1.750680E+03
       336  23  1.269641E+06 -7.712333E+01  2.662657E+03 -1.789629E+03 -1.794904E+03 -9.514336E+02
       336  24  1.269798E+06  7.374192E+00  2.004441E+03 -1.089912E+04 -4.685175E+02 -1.526268E+02
       336  25  1.325684E+06  1.421312E+04  1.777475E+04 -1.093033E+04 -2.775554E+03 -1.750610E+03
       336  26  1.304581E+06  8.591904E+03  1.111766E+04 -1.775678E+03 -1.449339E+03 -9.513767E+02
       336  27  1.283791E+06  3.492095E+03  5.454816E+03 -1.084001E+04 -1.230837E+02 -1.525841E+02
       337   1  1.289630E+06  4.961797E+03  6.772995E+03 -1.086577E+04  4.606685E+02 -3.119898E+02
       337   2  1.310475E+06  1.006885E+04  1.199974E+04 -1.777700E+03 -5.958797E+02 -1.111137E+03
       337   3  1.331564E+06  1.555875E+04  1.801103E+04 -1.092562E+04 -1.652385E+03 -1.911379E+03
       337   4  1.269782E+06  2.450136E+01  1.905923E+03 -1.090291E+04  1.151918E+02 -3.120333E+02
       337   5  1.269660E+06 -5.774288E+01  2.123145E+03 -1.784904E+03 -9.417822E+02 -1.111197E+03
       337   6  1.269782E+06  2.429832E+02  3.125267E+03 -1.090295E+04 -1.998678E+03 -1.911454E+03
       337   7  1.249935E+06 -4.912823E+03 -2.961178E+03 -1.094005E+04 -2.302738E+02 -3.120768E+02
       337   8  1.228847E+06 -1.018446E+04 -7.753573E+03 -1.792107E+03 -1.287662E+03 -1.111257E+03
       337   9  1.208003E+06 -1.507306E+04 -1.176077E+04 -1.088029E+04 -2.344937E+03 -1.911529E+03
       337  10  1.289630E+06  4.961797E+03  6.772995E+03 -1.086577E+04 -8.801140E-10  3.215384E-11
       337  11  1.310475E+06  1.006885E+04  1.199974E+04 -1.777701E+03  1.380363E-09  5.444780E-10
       337  12  1.331564E+06  1.555875E+04  1.801102E+04 -1.092562E+04 -4.918972E-11 -8.971058E-11
       337  13  1.269782E+06  2.450125E+01  1.905923E+03 -1.090291E+04  2.157952E-09  5.549514E-10
       337  14  1.269660E+06 -5.774445E+01  2.123141E+03 -1.784905E+03  1.455822E-09  7.134771E-10
       337  15  1.269782E+06  2.429782E+02  3.125253E+03 -1.090296E+04  1.711653E-09 -1.975594E-10
       337  16  1.249935E+06 -4.912823E+03 -2.961178E+03 -1.094005E+04  9.705938E-11  5.008333E-10
       337  17  1.228847E+06 -1.018446E+04 -7.753579E+03 -1.792108E+03 -3.159928E-10  1.756162E-10
       337  18  1.208003E+06 -1.507307E+04 -1.176079E+04 -1.088030E+04  1.346277E-09 -2.686256E-10
       337  19  1.289630E+06  4.961797E+03  6.772995E+03 -1.086577E+04 -4.606685E+02  3.119898E+02
       337  20  1.310475E+06  1.006885E+04  1.199974E+04 -1.777700E+03  5.958797E+02  1.111137E+03
       337  21  1.331564E+06  1.555875E+04  1.801103E+04 -1.092562E+04  1.652385E+03  1.911379E+03
       337  22  1.269782E+06  2.450136E+01  1.905923E+03 -1.090291E+04 -1.151918E+02  3.120333E+02
       337  23  1.269660E+06 -5.774288E+01  2.123145E+03 -1.784904E+03  9.417822E+02  1.111197E+03
       337  24  1.269782E+06  2.429832E+02  3.125267E+03 -1.090295E+04  1.998678E+03  1.911454E+03
       337  25  1.249935E+06 -4.912823E+03 -2.961178E+03 -1.094005E+04  2.302738E+02  3.120768E+02
       337  26  1.228847E+06 -1.018446E+04 -7.753573E+03 -1.792107E+03  1.287662E+03  1.111257E+03
       337  27  1.208003E+06 -1.507306E+04 -1.176077E+04 -1.088029E+04  2.344937E+03  1.911529E+03
       338   1  1.366066E+06  2.374431E+04  2.719345E+04 -1.067629E+04 -2.268703E+03 -2.388360E+03
       338   2  1.386977E+06  2.876975E+04  3.479209E+04 -1.699661E+03 -5.477956E+03 -3.204769E+03
       338   3  1.409076E+06  3.673502E+04  4.521882E+04 -1.142845E+04 -8.687066E+03 -3.986652E+03
       338   4  1.269989E+06 -1.054422E+02  3.881155E+03 -1.100703E+04 -2.628824E+03 -2.388460E+03
       338   5  1.269395E+06 -4.021920E+02  6.340904E+03 -1.654629E+03 -5.822602E+03 -3.204913E+03
       338   6  1.269985E+06  2.238668E+03  1.161854E+04 -1.100787E+04 -9.016127E+03 -3.986841E+03
       338   7  1.173922E+06 -2.395587E+04 -1.943180E+04 -1.133771E+04 -2.988891E+03 -2.388559E+03
       338   8  1.151825E+06 -2.957515E+04 -2.211128E+04 -1.609606E+03 -6.167182E+03 -3.205058E+03
       338   9  1.130912E+06 -3.225910E+04 -2.198312E+04 -1.058738E+04 -9.345113E+03 -3.987030E+03
       338  10  1.366066E+06  2.374430E+04  2.719343E+04 -1.067630E+04  5.070261E-10  1.687274E-10
       338  11  1.386977E+06  2.876973E+04  3.479202E+04 -1.699675E+03  4.129918E-11 -4.726467E-10
       338  12  1.409076E+06  3.673499E+04  4.521865E+04 -1.142848E+04 -3.183846E-10  1.850990E-11
       338  13  1.269989E+06 -1.054501E+02  3.881131E+03 -1.100703E+04  2.316019E-09  2.263796E-11
       338  14  1.269395E+06 -4.022121E+02  6.340821E+03 -1.654644E+03  1.696744E-09  8.738521E-11
       338  15  1.269985E+06  2.238629E+03  1.161836E+04 -1.100790E+04 -1.040416E-09 -4.206844E-10
       338  16  1.173921E+06 -2.395587E+04 -1.943183E+04 -1.133771E+04  9.422250E-10 -1.543806E-10
       338  17  1.151825E+06 -2.957517E+04 -2.211137E+04 -1.609622E+03  3.226047E-10  7.386959E-10
       338  18  1.130912E+06 -3.225914E+04 -2.198331E+04 -1.058741E+04  1.317171E-09 -1.522495E-10
       338  19  1.366066E+06  2.374431E+04  2.719345E+04 -1.067629E+04  2.268703E+03  2.388360E+03
       338  20  1.386977E+06  2.876975E+04  3.479209E+04 -1.699661E+03  5.477956E+03  3.204769E+03
       338  21  1.409076E+06  3.673502E+04  4.521882E+04 -1.142845E+04  8.687066E+03  3.986652E+03
       338  22  1.269989E+06 -1.054422E+02  3.881155E+03 -1.100703E+04  2.628824E+03  2.388460E+03
       338  23  1.269395E+06 -4.021920E+02  6.340904E+03 -1.654629E+03  5.822602E+03  3.204913E+03
       338  24  1.269985E+06  2.238668E+03  1.161854E+04 -1.100787E+04  9.016127E+03  3.986841E+03
       338  25  1.173922E+06 -2.395587E+04 -1.943180E+04 -1.133771E+04  2.988891E+03  2.388559E+03
       338  26  1.151825E+06 -2.957515E+04 -2.211128E+04 -1.609606E+03  6.167182E+03  3.205058E+03
       338  27  1.130912E+06 -3.225910E+04 -2.198312E+04 -1.058738E+04  9.345113E+03  3.987030E+03
       339   1  1.446198E+06  4.240205E+04  5.706274E+04 -8.630453E+03 -1.087624E+04 -4.557064E+03
       339   2  1.464725E+06  4.559246E+04  7.219893E+04 -2.555733E+03 -2.372813E+04 -5.418355E+03
       339   3  1.491361E+06  7.420123E+04  1.020608E+05 -1.611407E+04 -3.658079E+04 -5.748365E+03
       339   4  1.271515E+06 -9.493675E+02  1.473815E+04 -1.120922E+04 -1.135907E+04 -4.557316E+03
       339   5  1.267470E+06 -3.340403E+03  2.448129E+04 -1.399582E+03 -2.397752E+04 -5.418661E+03
       339   6  1.271496E+06  1.965092E+04  4.879166E+04 -1.122321E+04 -3.659627E+04 -5.748802E+03
       339   7  1.096860E+06 -4.430299E+04 -2.758864E+04 -1.378726E+04 -1.184176E+04 -4.557564E+03
       339   8  1.070251E+06 -5.227610E+04 -2.323915E+04 -2.438049E+02 -2.422683E+04 -5.418967E+03
       339   9  1.051675E+06 -3.490283E+04 -4.480917E+03 -6.334084E+03 -3.661174E+04 -5.749239E+03
       339  10  1.446198E+06  4.240199E+04  5.706248E+04 -8.630493E+03 -1.820953E-09 -2.987670E-10
       339  11  1.464724E+06  4.559228E+04  7.219782E+04 -2.555836E+03 -3.594977E-10 -1.253984E-09
       339  12  1.491359E+06  7.420084E+04  1.020582E+05 -1.611424E+04 -2.035870E-10 -1.340658E-09
       339  13  1.271515E+06 -9.494244E+02  1.473786E+04 -1.120926E+04 -1.348824E-09 -5.780724E-10
       339  14  1.267469E+06 -3.340588E+03  2.448015E+04 -1.399687E+03 -1.077141E-09 -5.847005E-10
       339  15  1.271494E+06  1.965053E+04  4.878909E+04 -1.122337E+04 -2.517190E-09 -9.646596E-10
       339  16  1.096860E+06 -4.430305E+04 -2.758895E+04 -1.378730E+04  8.765278E-10 -4.130124E-10
       339  17  1.070250E+06 -5.227629E+04 -2.324031E+04 -2.439106E+02  8.931589E-10  1.567342E-09
       339  18  1.051674E+06 -3.490323E+04 -4.483494E+03 -6.334253E+03 -1.355603E-10 -1.047779E-10
       339  19  1.446198E+06  4.240205E+04  5.706274E+04 -8.630453E+03  1.087624E+04  4.557064E+03
       339  20  1.464725E+06  4.559246E+04  7.219893E+04 -2.555733E+03  2.372813E+04  5.418355E+03
       339  21  1.491361E+06  7.420123E+04  1.020608E+05 -1.611407E+04  3.658079E+04  5.748365E+03
       339  22  1.271515E+06 -9.493675E+02  1.473815E+04 -1.120922E+04  1.135907E+04  4.557316E+03
       339  23  1.267470E+06 -3.340403E+03  2.448129E+04 -1.399582E+03  2.397752E+04  5.418661E+03
       339  24  1.271496E+06  1.965092E+04  4.879166E+04 -1.122321E+04  3.659627E+04  5.748802E+03
       339  25  1.096860E+06 -4.430299E+04 -2.758864E+04 -1.378726E+04  1.184176E+04  4.557564E+03
       339  26  1.070251E+06 -5.227610E+04 -2.323915E+04 -2.438049E+02  2.422683E+04  5.418967E+03
       339  27  1.051675E+06 -3.490283E+04 -4.480917E+03 -6.334084E+03  3.661174E+04  5.749239E+03
       340   1  1.540922E+06  5.570979E+04  1.218578E+05  9.376171E+03 -4.426060E+04 -7.197516E+03
       340   2  1.534388E+06  4.164467E+04  1.621223E+05 -1.402247E+04 -9.794337E+04 -8.179081E+03
       340   3  1.589519E+06  2.457907E+05  2.918664E+05 -5.853132E+04 -1.516349E+05 -2.905637E+03
       340   4  1.283327E+06 -8.227852E+03  5.956771E+04 -1.147927E+04 -4.600626E+04 -7.197655E+03
       340   5  1.252663E+06 -2.818988E+04  9.408311E+04 -1.027874E+03 -9.696374E+04 -8.180402E+03
       340   6  1.283219E+06  1.696359E+05  2.162167E+05 -1.168436E+04 -1.479276E+05 -2.912733E+03
       340   7  1.025794E+06 -7.216872E+04 -2.726857E+03 -3.232605E+04 -4.775120E+04 -7.197677E+03
       340   8  9.710116E+05 -9.802958E+04  2.603832E+04  1.196080E+04 -9.598455E+04 -8.181683E+03
       340   9  9.770079E+05  9.348230E+04  1.405613E+05  3.513949E+04 -1.442221E+05 -2.919276E+03
       340  10  1.540920E+06  5.570921E+04  1.218540E+05  9.375915E+03 -9.677187E-10 -1.686885E-09
       340  11  1.534378E+06  4.164203E+04  1.621042E+05 -1.402311E+04 -7.304783E-10 -2.840955E-09
       340  12  1.589495E+06  2.457845E+05  2.918233E+05 -5.853167E+04  5.105456E-10 -8.571576E-10
       340  13  1.283325E+06 -8.228475E+03  5.956365E+04 -1.147953E+04 -1.966510E-09 -4.236566E-09
       340  14  1.252653E+06 -2.819247E+04  9.406535E+04 -1.028513E+03  3.498352E-09  2.091169E-09
       340  15  1.283195E+06  1.696300E+05  2.161756E+05 -1.168471E+04 -1.889631E-09 -7.820531E-11
       340  16  1.025792E+06 -7.216939E+04 -2.731232E+03 -3.232633E+04 -1.050747E-09 -8.295467E-10
       340  17  9.710017E+05 -9.803212E+04  2.602091E+04  1.196016E+04  8.028655E-10  1.580737E-09
       340  18  9.769855E+05  9.347672E+04  1.405222E+05  3.513915E+04  6.707812E-10 -1.266831E-09
       340  19  1.540922E+06  5.570979E+04  1.218578E+05  9.376171E+03  4.426060E+04  7.197516E+03
       340  20  1.534388E+06  4.164467E+04  1.621223E+05 -1.402247E+04  9.794337E+04  8.179081E+03
       340  21  1.589519E+06  2.457907E+05  2.918664E+05 -5.853132E+04  1.516349E+05  2.905637E+03
       340  22  1.283327E+06 -8.227852E+03  5.956771E+04 -1.147927E+04  4.600626E+04  7.197655E+03
       340  23  1.252663E+06 -2.818988E+04  9.408311E+04 -1.027874E+03  9.696374E+04  8.180402E+03
       340  24  1.283219E+06  1.696359E+05  2.162167E+05 -1.168436E+04  1.479276E+05  2.912733E+03
       340  25  1.025794E+06 -7.216872E+04 -2.726857E+03 -3.232605E+04  4.775120E+04  7.197677E+03
       340  26  9.710116E+05 -9.802958E+04  2.603832E+04  1.196080E+04  9.598455E+04  8.181683E+03
       340  27  9.770079E+05  9.348230E+04  1.405613E+05  3.513949E+04  1.442221E+05  2.919276E+03
       341   1  1.032568E+06  4.255325E+06  1.071790E+06 -4.791070E+05  2.867661E+04  1.729938E+05
       341   2  6.365160E+05  3.416966E+06  7.452174E+05 -1.004102E+05  7.789714E+04  8.589798E+04
       341   3  4.688086E+05  2.651644E+06  5.329586E+05 -4.152109E+05  4.832007E+04 -1.413644E+03
       341   4  1.639330E+05  7.649806E+05  2.099780E+05 -4.261467E+05  2.880286E+04  1.341670E+05
       341   5 -2.890764E+04  7.318779E+05  9.757985E+04 -7.955025E+04  7.793927E+04  8.157163E+04
       341   6  1.201665E+03  7.656056E+05  7.603501E+04 -4.265956E+05  4.813689E+04  2.864623E+04
       341   7 -7.055995E+05 -2.714339E+06 -6.527300E+05 -3.734720E+05  2.892297E+04  9.555540E+04
       341   8 -6.948557E+05 -1.946645E+06 -5.505729E+05 -5.877305E+04  7.798122E+04  7.726325E+04
       341   9 -4.666642E+05 -1.117192E+06 -3.811410E+05 -4.379396E+05  4.795231E+04  5.861525E+04
       341  10  1.032560E+06  4.255293E+06  1.071733E+06 -4.791109E+05  6.488610E-10  2.029476E-09
       341  11  6.365076E+05  3.416957E+06  7.451922E+05 -1.004156E+05  5.025770E-10  2.236560E-09
       341  12  4.688061E+05  2.651643E+06  5.329542E+05 -4.152108E+05 -1.492729E-09  3.122901E-09
       341  13  1.639273E+05  7.649610E+05  2.099427E+05 -4.261498E+05  1.553427E-09 -7.024956E-11
       341  14 -2.891595E+04  7.318692E+05  9.755594E+04 -7.955537E+04  3.829274E-10  2.244077E-09
       341  15  1.198954E+03  7.656040E+05  7.602910E+04 -4.265967E+05 -1.743895E-10  7.952925E-10
       341  16 -7.056029E+05 -2.714349E+06 -6.527488E+05 -3.734742E+05  9.018453E-10 -3.193728E-09
       341  17 -6.948638E+05 -1.946653E+06 -5.505956E+05 -5.877791E+04  2.212032E-09  4.410972E-10
       341  18 -4.666676E+05 -1.117196E+06 -3.811518E+05 -4.379419E+05 -3.707576E-10  1.415186E-09
       341  19  1.032568E+06  4.255325E+06  1.071790E+06 -4.791070E+05 -2.867661E+04 -1.729938E+05
       341  20  6.365160E+05  3.416966E+06  7.452174E+05 -1.004102E+05 -7.789714E+04 -8.589798E+04
       341  21  4.688086E+05  2.651644E+06  5.329586E+05 -4.152109E+05 -4.832007E+04  1.413644E+03
       341  22  1.639330E+05  7.649806E+05  2.099780E+05 -4.261467E+05 -2.880286E+04 -1.341670E+05
       341  23 -2.890764E+04  7.318779E+05  9.757985E+04 -7.955025E+04 -7.793927E+04 -8.157163E+04
       341  24  1.201665E+03  7.656056E+05  7.603501E+04 -4.265956E+05 -4.813689E+04 -2.864623E+04
       341  25 -7.055995E+05 -2.714339E+06 -6.527300E+05 -3.734720E+05 -2.892297E+04 -9.555540E+04
       341  26 -6.948557E+05 -1.946645E+06 -5.505729E+05 -5.877305E+04 -7.798122E+04 -7.726325E+04
       341  27 -4.666642E+05 -1.117192E+06 -3.811410E+05 -4.379396E+05 -4.795231E+04 -5.861525E+04
       342   1  1.696988E+05  1.348942E+06  2.140048E+05 -4.373968E+05  1.778963E+04  5.278694E+03
       342   2 -5.715838E+04  5.481684E+05  1.570644E+04 -7.856081E+04 -5.317526E+03 -2.759571E+04
       342   3 -2.107765E+05 -2.399419E+05 -1.452202E+05 -4.104188E+05 -2.773843E+04 -6.041254E+04
       342   4  2.206745E+04  7.543744E+05  7.052784E+04 -4.257520E+05  1.772007E+04  1.550923E+04
       342   5 -7.451220E+03  7.482893E+05  6.415734E+04 -8.037609E+04 -5.381901E+03 -1.766389E+04
       342   6  3.635232E+04  7.543255E+05  9.539986E+04 -4.256641E+05 -2.779815E+04 -5.082074E+04
       342   7 -1.255892E+05  1.601301E+05 -7.297403E+04 -4.141178E+05  1.765086E+04  2.573000E+04
       342   8  4.225307E+04  9.484470E+05  1.126057E+05 -8.219189E+04 -5.446324E+03 -7.728882E+03
       342   9  2.834095E+05  1.749496E+06  3.359493E+05 -4.409322E+05 -2.785828E+04 -4.121357E+04
       342  10  1.696984E+05  1.348942E+06  2.140042E+05 -4.373969E+05 -1.657322E-09  5.573460E-09
       342  11 -5.715862E+04  5.481675E+05  1.570496E+04 -7.856093E+04  4.870464E-09  3.230436E-09
       342  12 -2.107783E+05 -2.399460E+05 -1.452285E+05 -4.104202E+05 -5.120638E-09  1.566150E-09
       342  13  2.206705E+04  7.543741E+05  7.052679E+04 -4.257523E+05 -7.642956E-10  4.936290E-11
       342  14 -7.451334E+03  7.482890E+05  6.415670E+04 -8.037616E+04  6.211467E-09  3.274963E-09
       342  15  3.635079E+04  7.543225E+05  9.539355E+04 -4.256653E+05  3.639546E-09  5.745643E-10
       342  16 -1.255897E+05  1.601293E+05 -7.297586E+04 -4.141182E+05  3.744973E-10 -8.793829E-09
       342  17  4.225303E+04  9.484469E+05  1.126056E+05 -8.219192E+04 -3.458456E-09  2.961685E-10
       342  18  2.834082E+05  1.749494E+06  3.359447E+05 -4.409331E+05 -1.195635E-09  3.668582E-09
       342  19  1.696988E+05  1.348942E+06  2.140048E+05 -4.373968E+05 -1.778963E+04 -5.278694E+03
       342  20 -5.715838E+04  5.481684E+05  1.570644E+04 -7.856081E+04  5.317526E+03  2.759571E+04
       342  21 -2.107765E+05 -2.399419E+05 -1.452202E+05 -4.104188E+05  2.773843E+04  6.041254E+04
       342  22  2.206745E+04  7.543744E+05  7.052784E+04 -4.257520E+05 -1.772007E+04 -1.550923E+04
       342  23 -7.451220E+03  7.482893E+05  6.415734E+04 -8.037609E+04  5.381901E+03  1.766389E+04
       342  24  3.635232E+04  7.543255E+05  9.539986E+04 -4.256641E+05  2.779815E+04  5.082074E+04
       342  25 -1.255892E+05  1.601301E+05 -7.297403E+04 -4.141178E+05 -1.765086E+04 -2.573000E+04
       342  26  4.225307E+04  9.484470E+05  1.126057E+05 -8.219189E+04  5.446324E+03  7.728882E+03
       342  27  2.834095E+05  1.749496E+06  3.359493E+05 -4.409322E+05  2.785828E+04  4.121357E+04
       343   1 -5.740874E+05 -1.507635E+06 -4.428947E+05 -4.517592E+05 -5.908880E+04 -1.007925E+05
       343   2 -8.158599E+05 -2.362425E+06 -5.839249E+05 -4.931810E+04 -8.926776E+04 -1.508444E+05
       343   3 -6.848303E+05 -3.107571E+06 -5.972585E+05 -3.421755E+05 -3.260408E+04 -2.005409E+05
       343   4 -6.683811E+03  7.759741E+05  1.113980E+05 -4.269691E+05 -5.926901E+04 -6.916864E+04
       343   5 -4.972142E+04  7.180869E+05  1.617606E+05 -7.918123E+04 -8.921157E+04 -1.570090E+05
       343   6  2.856542E+05  7.752250E+05  3.655595E+05 -4.264147E+05 -3.249256E+04 -2.445628E+05
       343   7  5.603407E+05  3.064354E+06  6.653189E+05 -4.020786E+05 -5.944634E+04 -3.742823E+04
       343   8  7.157242E+05  3.807287E+06  9.067645E+05 -1.091853E+05 -8.915497E+04 -1.632026E+05
       343   9  1.255035E+06  4.671767E+06  1.327264E+06 -5.111731E+05 -3.236957E+04 -2.888569E+05
       343  10 -5.740939E+05 -1.507647E+06 -4.429204E+05 -4.517640E+05 -3.464754E-09  3.755826E-09
       343  11 -8.158746E+05 -2.362452E+06 -5.839828E+05 -4.932897E+04  3.166206E-09  3.609338E-09
       343  12 -6.848423E+05 -3.107615E+06 -5.973365E+05 -3.421808E+05  1.477860E-09  1.252351E-09
       343  13 -6.688871E+03  7.759680E+05  1.113824E+05 -4.269724E+05 -5.292218E-09  1.414398E-10
       343  14 -4.973658E+04  7.180583E+05  1.616993E+05 -7.919250E+04  2.463827E-09  1.737805E-09
       343  15  2.856370E+05  7.751606E+05  3.654452E+05 -4.264211E+05  2.753768E-10  1.875990E-10
       343  16  5.603365E+05  3.064352E+06  6.653096E+05 -4.020804E+05  1.809634E-09 -6.654985E-09
       343  17  7.157086E+05  3.807257E+06  9.066998E+05 -1.091970E+05 -2.349445E-11 -2.115969E-09
       343  18  1.255012E+06  4.671678E+06  1.327107E+06 -5.111806E+05 -9.445069E-10 -3.538329E-10
       343  19 -5.740874E+05 -1.507635E+06 -4.428947E+05 -4.517592E+05  5.908880E+04  1.007925E+05
       343  20 -8.158599E+05 -2.362425E+06 -5.839249E+05 -4.931810E+04  8.926776E+04  1.508444E+05
       343  21 -6.848303E+05 -3.107571E+06 -5.972585E+05 -3.421755E+05  3.260408E+04  2.005409E+05
       343  22 -6.683811E+03  7.759741E+05  1.113980E+05 -4.269691E+05  5.926901E+04  6.916864E+04
       343  23 -4.972142E+04  7.180869E+05  1.617606E+05 -7.918123E+04  8.921157E+04  1.570090E+05
       343  24  2.856542E+05  7.752250E+05  3.655595E+05 -4.264147E+05  3.249256E+04  2.445628E+05
       343  25  5.603407E+05  3.064354E+06  6.653189E+05 -4.020786E+05  5.944634E+04  3.742823E+04
       343  26  7.157242E+05  3.807287E+06  9.067645E+05 -1.091853E+05  8.915497E+04  1.632026E+05
       343  27  1.255035E+06  4.671767E+06  1.327264E+06 -5.111731E+05  3.236957E+04  2.888569E+05
       344   1 -1.431914E+06 -6.153732E+05 -3.245878E+05 -6.008591E+05 -1.621341E+05 -5.112803E+04
       344   2 -1.371022E+06 -4.420238E+05 -1.888954E+05 -5.713956E+05 -1.004956E+05 -5.461805E+03
       344   3 -1.339651E+06 -3.602240E+05 -1.267454E+05 -5.346628E+05 -3.304950E+04  2.482053E+04
       344   4 -8.830751E+05 -3.206600E+05 -1.670013E+05 -3.593564E+05 -1.117985E+05 -3.221993E+04
       344   5 -8.620607E+05 -2.138859E+05 -7.850987E+04 -3.869672E+05 -7.844230E+04  2.822593E+03
       344   6 -8.649272E+05 -1.930188E+05 -4.108149E+04 -4.073214E+05 -3.928956E+04  2.247158E+04
       344   7 -3.339059E+05 -2.581206E+04 -9.427788E+03 -1.176235E+05 -6.141370E+04 -1.327515E+04
       344   8 -3.528209E+05  1.431638E+04  3.186490E+04 -2.023840E+05 -5.636943E+04  1.111811E+04
       344   9 -3.899661E+05 -2.579543E+04  4.457479E+04 -2.798903E+05 -4.553471E+04  2.012084E+04
       344  10 -1.431943E+06 -6.153831E+05 -3.246422E+05 -6.008658E+05  4.263417E-10  7.213257E-11
       344  11 -1.371033E+06 -4.420266E+05 -1.889145E+05 -5.713960E+05 -9.093016E-11  2.031833E-10
       344  12 -1.339652E+06 -3.602250E+05 -1.267487E+05 -5.346622E+05  1.894418E-10 -1.567702E-09
       344  13 -8.830888E+05 -3.206644E+05 -1.670267E+05 -3.593593E+05 -5.446547E-10 -6.544924E-11
       344  14 -8.620673E+05 -2.138875E+05 -7.852146E+04 -3.869670E+05  1.313172E-10  8.835493E-10
       344  15 -8.649290E+05 -1.930197E+05 -4.108534E+04 -4.073207E+05 -7.269306E-10 -1.654928E-09
       344  16 -3.339100E+05 -2.581326E+04 -9.435211E+03 -1.176241E+05 -1.247116E-10  9.326375E-10
       344  17 -3.528244E+05  1.431539E+04  3.185869E+04 -2.023835E+05 -9.672276E-11  2.363927E-09
       344  18 -3.899685E+05 -2.579642E+04  4.457014E+04 -2.798896E+05 -2.499569E-10  2.034343E-09
       344  19 -1.431914E+06 -6.153732E+05 -3.245878E+05 -6.008591E+05  1.621341E+05  5.112803E+04
       344  20 -1.371022E+06 -4.420238E+05 -1.888954E+05 -5.713956E+05  1.004956E+05  5.461805E+03
       344  21 -1.339651E+06 -3.602240E+05 -1.267454E+05 -5.346628E+05  3.304950E+04 -2.482053E+04
       344  22 -8.830751E+05 -3.206600E+05 -1.670013E+05 -3.593564E+05  1.117985E+05  3.221993E+04
       344  23 -8.620607E+05 -2.138859E+05 -7.850987E+04 -3.869672E+05  7.844230E+04 -2.822593E+03
       344  24 -8.649272E+05 -1.930188E+05 -4.108149E+04 -4.073214E+05  3.928956E+04 -2.247158E+04
       344  25 -3.339059E+05 -2.581206E+04 -9.427788E+03 -1.176235E+05  6.141370E+04  1.327515E+04
       344  26 -3.528209E+05  1.431638E+04  3.186490E+04 -2.023840E+05  5.636943E+04 -1.111811E+04
       344  27 -3.899661E+05 -2.579543E+04  4.457479E+04 -2.798903E+05  4.553471E+04 -2.012084E+04
       345   1 -1.282554E+06 -3.491208E+05 -1.068777E+05 -5.271715E+05 -2.896789E+04  2.368962E+04
       345   2 -1.216612E+06 -3.102557E+05 -7.720780E+04 -5.013863E+05 -1.687390E+04  2.440872E+04
       345   3 -1.143290E+06 -2.873120E+05 -5.698489E+04 -4.869451E+05 -4.225338E+03  2.365345E+04
       345   4 -8.600371E+05 -1.927454E+05 -3.077034E+04 -4.056594E+05 -3.378993E+04  2.187423E+04
       345   5 -8.634854E+05 -1.815311E+05 -1.612951E+04 -4.013056E+05 -2.440291E+04  2.157688E+04
       345   6 -8.590192E+05 -1.856992E+05 -8.783012E+03 -4.082977E+05 -1.446268E+04  1.980509E+04
       345   7 -4.373360E+05 -3.635236E+04  4.532980E+04 -2.840703E+05 -3.861542E+04  2.005748E+04
       345   8 -5.102264E+05 -5.279362E+04  4.494540E+04 -3.011713E+05 -3.193649E+04  1.874329E+04
       345   9 -5.746588E+05 -8.407756E+04  3.941798E+04 -3.296158E+05 -2.470512E+04  1.595485E+04
       345  10 -1.282555E+06 -3.491217E+05 -1.068803E+05 -5.271709E+05 -1.885148E-09 -1.377155E-09
       345  11 -1.216612E+06 -3.102564E+05 -7.720945E+04 -5.013860E+05 -2.406664E-09  4.728607E-10
       345  12 -1.143290E+06 -2.873126E+05 -5.698597E+04 -4.869450E+05 -3.399735E-10 -9.319984E-10
       345  13 -8.600384E+05 -1.927462E+05 -3.077339E+04 -4.056588E+05 -2.343142E-09  1.976729E-09
       345  14 -8.634862E+05 -1.815318E+05 -1.613151E+04 -4.013052E+05 -5.275173E-10 -7.325090E-10
       345  15 -8.590195E+05 -1.856997E+05 -8.784141E+03 -4.082975E+05  6.756453E-11 -6.222467E-10
       345  16 -4.373378E+05 -3.635320E+04  4.532624E+04 -2.840697E+05  2.145504E-09  8.426406E-10
       345  17 -5.102276E+05 -5.279427E+04  4.494282E+04 -3.011708E+05  1.262431E-09  1.149849E-09
       345  18 -5.746595E+05 -8.407800E+04  3.941636E+04 -3.296155E+05  8.950161E-10 -8.570635E-10
       345  19 -1.282554E+06 -3.491208E+05 -1.068777E+05 -5.271715E+05  2.896789E+04 -2.368962E+04
       345  20 -1.216612E+06 -3.102557E+05 -7.720780E+04 -5.013863E+05  1.687390E+04 -2.440872E+04
       345  21 -1.143290E+06 -2.873120E+05 -5.698489E+04 -4.869451E+05  4.225338E+03 -2.365345E+04
       345  22 -8.600371E+05 -1.927454E+05 -3.077034E+04 -4.056594E+05  3.378993E+04 -2.187423E+04
       345  23 -8.634854E+05 -1.815311E+05 -1.612951E+04 -4.013056E+05  2.440291E+04 -2.157688E+04
       345  24 -8.590192E+05 -1.856992E+05 -8.783012E+03 -4.082977E+05  1.446268E+04 -1.980509E+04
       345  25 -4.373360E+05 -3.635236E+04  4.532980E+04 -2.840703E+05  3.861542E+04 -2.005748E+04
       345  26 -5.102264E+05 -5.279362E+04  4.494540E+04 -3.011713E+05  3.193649E+04 -1.874329E+04
       345  27 -5.746588E+05 -8.407756E+04  3.941798E+04 -3.296158E+05  2.470512E+04 -1.595485E+04
       346   1 -1.097027E+06 -2.713585E+05 -4.671477E+04 -4.746188E+05 -1.921695E+03  2.078291E+04
       346   2 -1.031421E+06 -2.402282E+05 -3.176850E+04 -4.487308E+05  2.233761E+03  1.599492E+04
       346   3 -9.554215E+05 -2.202065E+05 -1.844007E+04 -4.351566E+05  6.442145E+03  1.106445E+04
       346   4 -8.585917E+05 -1.857265E+05 -6.590259E+03 -4.081389E+05 -1.202814E+04  1.698440E+04
       346   5 -8.637895E+05 -1.800713E+05 -3.612476E+03 -4.020267E+05 -8.134536E+03  1.209877E+04
       346   6 -8.585464E+05 -1.854729E+05 -2.044604E+03 -4.082300E+05 -4.188275E+03  7.070593E+03
       346   7 -6.200957E+05 -1.000888E+05  3.353319E+04 -3.416351E+05 -2.213870E+04  1.318436E+04
       346   8 -6.961284E+05 -1.199120E+05  2.454303E+04 -3.553110E+05 -1.850575E+04  8.201524E+03
       346   9 -7.616621E+05 -1.507387E+05  1.435080E+04 -3.812996E+05 -1.482034E+04  3.076120E+03
       346  10 -1.097027E+06 -2.713590E+05 -4.671559E+04 -4.746188E+05 -5.825044E-08 -2.372652E-08
       346  11 -1.031421E+06 -2.402285E+05 -3.176899E+04 -4.487309E+05 -1.424075E-09 -3.648875E-09
       346  12 -9.554216E+05 -2.202067E+05 -1.844038E+04 -4.351567E+05  5.740581E-08  1.952797E-08
       346  13 -8.585920E+05 -1.857269E+05 -6.591073E+03 -4.081388E+05 -1.363467E-10 -1.939954E-09
       346  14 -8.637896E+05 -1.800715E+05 -3.612875E+03 -4.020267E+05 -2.855206E-09 -3.140611E-09
       346  15 -8.585465E+05 -1.854730E+05 -2.044731E+03 -4.082299E+05 -9.218768E-10 -1.977358E-09
       346  16 -6.200963E+05 -1.000891E+05  3.353194E+04 -3.416348E+05  5.600819E-08  1.993594E-08
       346  17 -6.961288E+05 -1.199121E+05  2.454226E+04 -3.553109E+05 -4.205631E-09 -3.046320E-09
       346  18 -7.616624E+05 -1.507388E+05  1.435037E+04 -3.812996E+05 -5.921043E-08 -2.424689E-08
       346  19 -1.097027E+06 -2.713585E+05 -4.671477E+04 -4.746188E+05  1.921695E+03 -2.078291E+04
       346  20 -1.031421E+06 -2.402282E+05 -3.176850E+04 -4.487308E+05 -2.233761E+03 -1.599492E+04
       346  21 -9.554215E+05 -2.202065E+05 -1.844007E+04 -4.351566E+05 -6.442145E+03 -1.106445E+04
       346  22 -8.585917E+05 -1.857265E+05 -6.590259E+03 -4.081389E+05  1.202814E+04 -1.698440E+04
       346  23 -8.637895E+05 -1.800713E+05 -3.612476E+03 -4.020267E+05  8.134536E+03 -1.209877E+04
       346  24 -8.585464E+05 -1.854729E+05 -2.044604E+03 -4.082300E+05  4.188275E+03 -7.070593E+03
       346  25 -6.200957E+05 -1.000888E+05  3.353319E+04 -3.416351E+05  2.213870E+04 -1.318436E+04
       346  26 -6.961284E+05 -1.199120E+05  2.454303E+04 -3.553110E+05  1.850575E+04 -8.201524E+03
       346  27 -7.616621E+05 -1.507387E+05  1.435080E+04 -3.812996E+05  1.482034E+04 -3.076120E+03
       347   1 -9.099493E+05 -2.038686E+05 -1.003171E+04 -4.225073E+05  7.994801E+03  7.806848E+03
       347   2 -8.444760E+05 -1.730634E+05  2.219202E+03 -3.965466E+05  1.068870E+04  2.227620E+03
       347   3 -7.682892E+05 -1.530587E+05  1.407797E+04 -3.829182E+05  1.338697E+04 -3.362900E+03
       347   4 -8.584951E+05 -1.854835E+05 -1.580734E+03 -4.082082E+05 -2.624480E+03  3.817371E+03
       347   5 -8.638521E+05 -1.800952E+05 -1.008888E+03 -4.020369E+05  4.788895E+01 -1.770059E+03
       347   6 -8.584985E+05 -1.855044E+05 -8.129712E+02 -4.082006E+05  2.724559E+03 -7.368793E+03
       347   7 -8.070373E+05 -1.670979E+05  6.870820E+03 -3.939079E+05 -1.324481E+04 -1.724957E+02
       347   8 -8.832278E+05 -1.871269E+05 -4.236531E+03 -4.075270E+05 -1.059263E+04 -5.767625E+03
       347   9 -9.486989E+05 -2.179492E+05 -1.570362E+04 -4.334794E+05 -7.936212E+03 -1.137407E+04
       347  10 -9.099494E+05 -2.038687E+05 -1.003194E+04 -4.225073E+05  4.016321E-10  1.960450E-10
       347  11 -8.444761E+05 -1.730634E+05  2.218978E+03 -3.965466E+05 -2.932308E-10  1.283281E-09
       347  12 -7.682894E+05 -1.530588E+05  1.407761E+04 -3.829182E+05 -4.740335E-10  1.523147E-09
       347  13 -8.584951E+05 -1.854836E+05 -1.580775E+03 -4.082082E+05  3.003065E-10 -1.123858E-09
       347  14 -8.638521E+05 -1.800952E+05 -1.008894E+03 -4.020369E+05  6.601643E-10 -4.048927E-10
       347  15 -8.584985E+05 -1.855045E+05 -8.130872E+02 -4.082005E+05 -7.888242E-10  1.869882E-09
       347  16 -8.070375E+05 -1.670980E+05  6.870490E+03 -3.939079E+05  2.968809E-10 -2.407159E-09
       347  17 -8.832279E+05 -1.871270E+05 -4.236805E+03 -4.075270E+05 -4.791195E-10 -2.220284E-10
       347  18 -9.486990E+05 -2.179494E+05 -1.570398E+04 -4.334794E+05 -9.411831E-10  7.225050E-10
       347  19 -9.099493E+05 -2.038686E+05 -1.003171E+04 -4.225073E+05 -7.994801E+03 -7.806848E+03
       347  20 -8.444760E+05 -1.730634E+05  2.219202E+03 -3.965466E+05 -1.068870E+04 -2.227620E+03
       347  21 -7.682892E+05 -1.530587E+05  1.407797E+04 -3.829182E+05 -1.338697E+04  3.362900E+03
       347  22 -8.584951E+05 -1.854835E+05 -1.580734E+03 -4.082082E+05  2.624480E+03 -3.817371E+03
       347  23 -8.638521E+05 -1.800952E+05 -1.008888E+03 -4.020369E+05 -4.788895E+01  1.770059E+03
       347  24 -8.584985E+05 -1.855044E+05 -8.129712E+02 -4.082006E+05 -2.724559E+03  7.368793E+03
       347  25 -8.070373E+05 -1.670979E+05  6.870820E+03 -3.939079E+05  1.324481E+04  1.724957E+02
       347  26 -8.832278E+05 -1.871269E+05 -4.236531E+03 -4.075270E+05  1.059263E+04  5.767625E+03
       347  27 -9.486989E+05 -2.179492E+05 -1.570362E+04 -4.334794E+05  7.936212E+03  1.137407E+04
       348   1 -7.229130E+05 -1.366865E+05  2.199631E+04 -3.702523E+05  1.478977E+04 -6.684220E+03
       348   2 -6.574815E+05 -1.058906E+05  3.340080E+04 -3.443048E+05  1.746277E+04 -1.227785E+04
       348   3 -5.813355E+05 -8.587960E+04  4.443331E+04 -3.306808E+05  2.012931E+04 -1.785168E+04
       348   4 -8.585034E+05 -1.855059E+05 -8.248358E+02 -4.081987E+05  4.128615E+03 -1.068993E+04
       348   5 -8.638595E+05 -1.801111E+05 -1.075768E+03 -4.020374E+05  6.836939E+03 -1.627121E+04
       348   6 -8.585132E+05 -1.855087E+05 -1.726842E+03 -4.082017E+05  9.538756E+03 -2.183273E+04
       348   7 -9.940725E+05 -2.343228E+05 -2.364557E+04 -4.461368E+05 -6.529954E+03 -1.469467E+04
       348   8 -1.070192E+06 -2.543273E+05 -3.555291E+04 -4.597519E+05 -3.785140E+03 -2.026315E+04
       348   9 -1.135611E+06 -2.851312E+05 -4.788922E+04 -4.856909E+05 -1.046885E+03 -2.581193E+04
       348  10 -7.229133E+05 -1.366866E+05  2.199581E+04 -3.702522E+05  1.302166E-09  1.365255E-09
       348  11 -6.574819E+05 -1.058909E+05  3.339995E+04 -3.443046E+05 -2.897782E-10  2.164728E-09
       348  12 -5.813360E+05 -8.588005E+04  4.443195E+04 -3.306805E+05 -9.983095E-10 -2.445377E-10
       348  13 -8.585035E+05 -1.855060E+05 -8.250825E+02 -4.081986E+05 -1.741017E-09  1.739710E-09
       348  14 -8.638597E+05 -1.801114E+05 -1.076354E+03 -4.020373E+05 -7.721582E-10  2.286666E-10
       348  15 -8.585134E+05 -1.855093E+05 -1.727908E+03 -4.082016E+05  1.492289E-09  4.656557E-10
       348  16 -9.940726E+05 -2.343230E+05 -2.364605E+04 -4.461369E+05 -3.133665E-09 -3.458831E-10
       348  17 -1.070192E+06 -2.543277E+05 -3.555371E+04 -4.597520E+05 -4.971382E-10  1.502036E-09
       348  18 -1.135612E+06 -2.851319E+05 -4.789048E+04 -4.856909E+05  1.290620E-10  7.132294E-11
       348  19 -7.229130E+05 -1.366865E+05  2.199631E+04 -3.702523E+05 -1.478977E+04  6.684220E+03
       348  20 -6.574815E+05 -1.058906E+05  3.340080E+04 -3.443048E+05 -1.746277E+04  1.227785E+04
       348  21 -5.813355E+05 -8.587960E+04  4.443331E+04 -3.306808E+05 -2.012931E+04  1.785168E+04
       348  22 -8.585034E+05 -1.855059E+05 -8.248358E+02 -4.081987E+05 -4.128615E+03  1.068993E+04
       348  23 -8.638595E+05 -1.801111E+05 -1.075768E+03 -4.020374E+05 -6.836939E+03  1.627121E+04
       348  24 -8.585132E+05 -1.855087E+05 -1.726842E+03 -4.082017E+05 -9.538756E+03  2.183273E+04
       348  25 -9.940725E+05 -2.343228E+05 -2.364557E+04 -4.461368E+05  6.529954E+03  1.469467E+04
       348  26 -1.070192E+06 -2.543273E+05 -3.555291E+04 -4.597519E+05  3.785140E+03  2.026315E+04
       348  27 -1.135611E+06 -2.851312E+05 -4.788922E+04 -4.856909E+05  1.046885E+03  2.581193E+04
       349   1 -5.360282E+05 -6.953996E+04  5.185185E+04 -3.180802E+05  2.173153E+04 -2.108049E+04
       349   2 -4.706327E+05 -3.876474E+04  6.188486E+04 -2.921205E+05  2.549346E+04 -2.612679E+04
       349   3 -3.947683E+05 -1.898334E+04  7.064699E+04 -2.784419E+05  2.918392E+04 -3.097789E+04
       349   4 -8.585782E+05 -1.855001E+05 -2.245624E+03 -4.082212E+05  1.112885E+04 -2.506690E+04
       349   5 -8.638075E+05 -1.801202E+05 -3.988690E+03 -4.020267E+05  1.524784E+04 -2.998074E+04
       349   6 -8.586438E+05 -1.858062E+05 -7.286563E+03 -4.081160E+05  1.929512E+04 -3.469936E+04
       349   7 -1.181017E+06 -3.014497E+05 -5.634523E+04 -4.983182E+05  5.320319E+02 -2.905113E+04
       349   8 -1.256815E+06 -3.214593E+05 -6.986507E+04 -5.118671E+05  5.009171E+03 -3.383208E+04
       349   9 -1.322284E+06 -3.526055E+05 -8.522378E+04 -5.376980E+05  9.414285E+03 -3.841784E+04
       349  10 -5.360288E+05 -6.954057E+04  5.185013E+04 -3.180798E+05  1.370192E-10  5.185766E-10
       349  11 -4.706335E+05 -3.876565E+04  6.188236E+04 -2.921200E+05 -1.800663E-09 -1.567629E-09
       349  12 -3.947694E+05 -1.898460E+04  7.064358E+04 -2.784411E+05 -2.157059E-09  8.245875E-10
       349  13 -8.585785E+05 -1.855008E+05 -2.247037E+03 -4.082210E+05 -1.818707E-10  7.111359E-10
       349  14 -8.638080E+05 -1.801212E+05 -3.990815E+03 -4.020264E+05 -2.273204E-09  9.553833E-10
       349  15 -8.586445E+05 -1.858076E+05 -7.289524E+03 -4.081155E+05  5.164733E-10  7.476447E-10
       349  16 -1.181017E+06 -3.014506E+05 -5.634681E+04 -4.983182E+05 -3.029986E-10  1.988266E-10
       349  17 -1.256815E+06 -3.214605E+05 -6.986727E+04 -5.118669E+05  2.191027E-09  1.203392E-11
       349  18 -1.322285E+06 -3.526071E+05 -8.522672E+04 -5.376977E+05  7.711524E-11  2.037449E-09
       349  19 -5.360282E+05 -6.953996E+04  5.185185E+04 -3.180802E+05 -2.173153E+04  2.108049E+04
       349  20 -4.706327E+05 -3.876474E+04  6.188486E+04 -2.921205E+05 -2.549346E+04  2.612679E+04
       349  21 -3.947683E+05 -1.898334E+04  7.064699E+04 -2.784419E+05 -2.918392E+04  3.097789E+04
       349  22 -8.585782E+05 -1.855001E+05 -2.245624E+03 -4.082212E+05 -1.112885E+04  2.506690E+04
       349  23 -8.638075E+05 -1.801202E+05 -3.988690E+03 -4.020267E+05 -1.524784E+04  2.998074E+04
       349  24 -8.586438E+05 -1.858062E+05 -7.286563E+03 -4.081160E+05 -1.929512E+04  3.469936E+04
       349  25 -1.181017E+06 -3.014497E+05 -5.634523E+04 -4.983182E+05 -5.320319E+02  2.905113E+04
       349  26 -1.256815E+06 -3.214593E+05 -6.986507E+04 -5.118671E+05 -5.009171E+03  3.383208E+04
       349  27 -1.322284E+06 -3.526055E+05 -8.522378E+04 -5.376980E+05 -9.414285E+03  3.841784E+04
       350   1 -3.494363E+05 -3.023762E+03  7.633208E+04 -2.664901E+05  3.190655E+04 -3.363856E+04
       350   2 -2.853907E+05  2.825222E+04  8.147589E+04 -2.378839E+05  3.890873E+04 -3.610134E+04
       350   3 -2.130349E+05  4.445114E+04  8.147064E+04 -2.204410E+05  4.516248E+04 -3.656805E+04
       350   4 -8.591222E+05 -1.857729E+05 -9.711687E+03 -4.082798E+05  2.184201E+04 -3.742733E+04
       350   5 -8.634806E+05 -1.817742E+05 -1.784178E+04 -4.012352E+05  3.251142E+04 -3.851300E+04
       350   6 -8.602649E+05 -1.935857E+05 -3.403490E+04 -4.053577E+05  4.243138E+04 -3.760180E+04
       350   7 -1.368537E+06 -3.684988E+05 -9.576342E+04 -5.499622E+05  1.178616E+04 -4.121287E+04
       350   8 -1.441218E+06 -3.917676E+05 -1.171696E+05 -5.644445E+05  2.612042E+04 -4.092225E+04
       350   9 -1.507052E+06 -4.315784E+05 -1.495543E+05 -5.900931E+05  3.970332E+04 -3.863438E+04
       350  10 -3.494377E+05 -3.025249E+03  7.632804E+04 -2.664892E+05 -1.657296E-10  1.950559E-09
       350  11 -2.853927E+05  2.825042E+04  8.147060E+04 -2.378828E+05  6.770426E-10 -4.987796E-10
       350  12 -2.130375E+05  4.444916E+04  8.146430E+04 -2.204396E+05  1.897010E-09 -9.011486E-10
       350  13 -8.591231E+05 -1.857745E+05 -9.715215E+03 -4.082791E+05  2.422159E-10  1.474362E-09
       350  14 -8.634821E+05 -1.817761E+05 -1.784655E+04 -4.012342E+05  1.723813E-09  8.879109E-10
       350  15 -8.602672E+05 -1.935877E+05 -3.404094E+04 -4.053565E+05  1.210142E-09 -2.349782E-09
       350  16 -1.368538E+06 -3.685006E+05 -9.576687E+04 -5.499618E+05 -4.118933E-10  1.613008E-09
       350  17 -1.441219E+06 -3.917696E+05 -1.171741E+05 -5.644436E+05 -1.109961E-09  4.364596E-10
       350  18 -1.507054E+06 -4.315804E+05 -1.495601E+05 -5.900919E+05 -6.864415E-10 -1.155562E-09
       350  19 -3.494363E+05 -3.023762E+03  7.633208E+04 -2.664901E+05 -3.190655E+04  3.363856E+04
       350  20 -2.853907E+05  2.825222E+04  8.147589E+04 -2.378839E+05 -3.890873E+04  3.610134E+04
       350  21 -2.130349E+05  4.445114E+04  8.147064E+04 -2.204410E+05 -4.516248E+04  3.656805E+04
       350  22 -8.591222E+05 -1.857729E+05 -9.711687E+03 -4.082798E+05 -2.184201E+04  3.742733E+04
       350  23 -8.634806E+05 -1.817742E+05 -1.784178E+04 -4.012352E+05 -3.251142E+04  3.851300E+04
       350  24 -8.602649E+05 -1.935857E+05 -3.403490E+04 -4.053577E+05 -4.243138E+04  3.760180E+04
       350  25 -1.368537E+06 -3.684988E+05 -9.576342E+04 -5.499622E+05 -1.178616E+04  4.121287E+04
       350  26 -1.441218E+06 -3.917676E+05 -1.171696E+05 -5.644445E+05 -2.612042E+04  4.092225E+04
       350  27 -1.507052E+06 -4.315784E+05 -1.495543E+05 -5.900931E+05 -3.970332E+04  3.863438E+04
       351   1 -1.654513E+05  5.452748E+04  8.017257E+04 -2.170908E+05  5.293186E+04 -3.587849E+04
       351   2 -1.320684E+05  9.583229E+04  6.806755E+04 -1.347236E+05  5.673939E+04 -2.541981E+04
       351   3 -1.188396E+05  5.123426E+04  2.991286E+04 -4.270549E+04  5.270253E+04  5.858457E+03
       351   4 -8.657186E+05 -1.938482E+05 -4.543912E+04 -4.071446E+05  4.827982E+04 -3.763550E+04
       351   5 -8.618763E+05 -2.176220E+05 -8.684108E+04 -3.854320E+05  9.040640E+04 -1.275180E+04
       351   6 -8.858360E+05 -3.349723E+05 -1.847151E+05 -3.540640E+05  1.246803E+05  3.296135E+04
       351   7 -1.565468E+06 -4.421820E+05 -1.710671E+05 -5.970003E+05  4.363338E+04 -3.939052E+04
       351   8 -1.591111E+06 -5.309636E+05 -2.417693E+05 -6.358424E+05  1.240304E+05 -1.063392E+02
       351   9 -1.652193E+06 -7.209687E+05 -3.993653E+05 -6.650136E+05  1.965588E+05  5.999816E+04
       351  10 -1.654547E+05  5.452534E+04  8.016489E+04 -2.170893E+05 -3.254442E-09 -1.546494E-09
       351  11 -1.320720E+05  9.583073E+04  6.806028E+04 -1.347224E+05 -8.611504E-10  6.902304E-10
       351  12 -1.188425E+05  5.123348E+04  2.990757E+04 -4.270574E+04  9.322177E-10 -4.262446E-10
       351  13 -8.657215E+05 -1.938504E+05 -4.544616E+04 -4.071431E+05 -1.220405E-09 -1.961451E-09
       351  14 -8.618852E+05 -2.176244E+05 -8.685677E+04 -3.854311E+05  3.404743E-09 -5.638120E-09
       351  15 -8.858530E+05 -3.349777E+05 -1.847464E+05 -3.540674E+05 -2.835638E-10  2.751301E-09
       351  16 -1.565471E+06 -4.421842E+05 -1.710736E+05 -5.969989E+05  3.876040E-09  7.865989E-10
       351  17 -1.591127E+06 -5.309677E+05 -2.417983E+05 -6.358423E+05 -3.025425E-09  3.056012E-09
       351  18 -1.652236E+06 -7.209830E+05 -3.994449E+05 -6.650231E+05 -6.665615E-10 -7.440425E-10
       351  19 -1.654513E+05  5.452748E+04  8.017257E+04 -2.170908E+05 -5.293186E+04  3.587849E+04
       351  20 -1.320684E+05  9.583229E+04  6.806755E+04 -1.347236E+05 -5.673939E+04  2.541981E+04
       351  21 -1.188396E+05  5.123426E+04  2.991286E+04 -4.270549E+04 -5.270253E+04 -5.858457E+03
       351  22 -8.657186E+05 -1.938482E+05 -4.543912E+04 -4.071446E+05 -4.827982E+04  3.763550E+04
       351  23 -8.618763E+05 -2.176220E+05 -8.684108E+04 -3.854320E+05 -9.040640E+04  1.275180E+04
       351  24 -8.858360E+05 -3.349723E+05 -1.847151E+05 -3.540640E+05 -1.246803E+05 -3.296135E+04
       351  25 -1.565468E+06 -4.421820E+05 -1.710671E+05 -5.970003E+05 -4.363338E+04  3.939052E+04
       351  26 -1.591111E+06 -5.309636E+05 -2.417693E+05 -6.358424E+05 -1.240304E+05  1.063392E+02
       351  27 -1.652193E+06 -7.209687E+05 -3.993653E+05 -6.650136E+05 -1.965588E+05 -5.999816E+04
       352   1 -4.532889E+05 -7.556374E+04 -1.238055E+05 -3.885829E+04 -1.464370E+05 -3.764131E+03
       352   2 -4.415197E+05  1.217679E+05 -5.672074E+03 -1.256198E+04 -9.771123E+04 -1.089569E+04
       352   3 -4.915102E+05  9.685026E+04  2.521393E+04  3.025636E+04 -4.900033E+04 -1.007255E+04
       352   4 -8.469005E+05 -1.736795E+05 -2.212463E+05  8.864465E+03 -1.511927E+05 -3.782229E+03
       352   5 -8.156685E+05  2.882623E+04 -9.624571E+04  4.699431E+02 -9.906385E+04 -1.090046E+04
       352   6 -8.468287E+05  8.414810E+03 -6.089709E+04  8.597937E+03 -4.694809E+04 -1.006733E+04
       352   7 -1.240366E+06 -2.717983E+05 -3.186972E+05  5.655687E+04 -1.559453E+05 -3.801067E+03
       352   8 -1.189689E+06 -6.412502E+04 -1.868293E+05  1.349393E+04 -1.004156E+05 -1.090529E+04
       352   9 -1.202031E+06 -8.002819E+04 -1.470169E+05 -1.304810E+04 -4.489702E+04 -1.006225E+04
       352  10 -4.533119E+05 -7.556952E+04 -1.238459E+05 -3.885874E+04 -2.079177E-10  7.195629E-10
       352  11 -4.415300E+05  1.217652E+05 -5.690253E+03 -1.256283E+04  3.602405E-10 -6.316277E-10
       352  12 -4.915128E+05  9.684951E+04  2.520922E+04  3.025596E+04  1.967293E-09 -3.627072E-09
       352  13 -8.469250E+05 -1.736857E+05 -2.212893E+05  8.864004E+03  4.347688E-10  2.061827E-09
       352  14 -8.156791E+05  2.882347E+04 -9.626440E+04  4.690731E+02 -3.228036E-09  3.451552E-10
       352  15 -8.468310E+05  8.414108E+03 -6.090142E+04  8.597556E+03 -1.017112E-09 -2.818176E-11
       352  16 -1.240392E+06 -2.718048E+05 -3.187430E+05  5.655639E+04  5.920017E-10  1.055226E-09
       352  17 -1.189700E+06 -6.412786E+04 -1.868485E+05  1.349304E+04  1.431200E-10 -3.113205E-09
       352  18 -1.202033E+06 -8.002884E+04 -1.470209E+05 -1.304846E+04 -1.714471E-11 -4.907644E-09
       352  19 -4.532889E+05 -7.556374E+04 -1.238055E+05 -3.885829E+04  1.464370E+05  3.764131E+03
       352  20 -4.415197E+05  1.217679E+05 -5.672074E+03 -1.256198E+04  9.771123E+04  1.089569E+04
       352  21 -4.915102E+05  9.685026E+04  2.521393E+04  3.025636E+04  4.900033E+04  1.007255E+04
       352  22 -8.469005E+05 -1.736795E+05 -2.212463E+05  8.864465E+03  1.511927E+05  3.782229E+03
       352  23 -8.156685E+05  2.882623E+04 -9.624571E+04  4.699431E+02  9.906385E+04  1.090046E+04
       352  24 -8.468287E+05  8.414810E+03 -6.089709E+04  8.597937E+03  4.694809E+04  1.006733E+04
       352  25 -1.240366E+06 -2.717983E+05 -3.186972E+05  5.655687E+04  1.559453E+05  3.801067E+03
       352  26 -1.189689E+06 -6.412502E+04 -1.868293E+05  1.349393E+04  1.004156E+05  1.090529E+04
       352  27 -1.202031E+06 -8.002819E+04 -1.470169E+05 -1.304810E+04  4.489702E+04  1.006225E+04
       353   1 -5.115134E+05  6.024409E+04  2.863382E+04  4.383720E+03 -3.723686E+04 -8.457874E+03
       353   2 -5.279674E+05  7.866664E+04  4.838940E+04 -6.953720E+02 -2.466043E+04 -8.364105E+03
       353   3 -5.524877E+05  7.122070E+04  5.349509E+04  1.207415E+04 -1.208617E+04 -7.541424E+03
       353   4 -8.347806E+05 -2.013612E+04 -4.988147E+04  9.012406E+03 -3.735161E+04 -8.458702E+03
       353   5 -8.307115E+05  3.397764E+03 -2.501560E+04  6.547340E+01 -2.446655E+04 -8.363983E+03
       353   6 -8.347669E+05  1.002410E+03 -1.501954E+04  8.967776E+03 -1.158324E+04 -7.540351E+03
       353   7 -1.157952E+06 -1.005239E+05 -1.284043E+05  1.363862E+04 -3.746629E+04 -8.459531E+03
       353   8 -1.133372E+06 -7.187784E+04 -9.842721E+04  8.258993E+02 -2.427277E+04 -8.363861E+03
       353   9 -1.116973E+06 -6.922171E+04 -8.353992E+04  5.862778E+03 -1.108055E+04 -7.539284E+03
       353  10 -5.115149E+05  6.024364E+04  2.863108E+04  4.383466E+03 -1.562433E-09 -5.995559E-09
       353  11 -5.279681E+05  7.866640E+04  4.838812E+04 -6.955381E+02 -2.342806E-09  1.835752E-09
       353  12 -5.524879E+05  7.122060E+04  5.349471E+04  1.207407E+04 -2.133415E-09  2.172233E-09
       353  13 -8.347821E+05 -2.013657E+04 -4.988423E+04  9.012151E+03  4.091548E-11 -4.792571E-09
       353  14 -8.307122E+05  3.397528E+03 -2.501686E+04  6.530854E+01 -3.226758E-09 -1.203720E-09
       353  15 -8.347671E+05  1.002313E+03 -1.501990E+04  8.967706E+03  1.085533E-09 -2.117031E-09
       353  16 -1.157954E+06 -1.005244E+05 -1.284071E+05  1.363837E+04  2.362071E-09 -1.540620E-09
       353  17 -1.133373E+06 -7.187808E+04 -9.842845E+04  8.257357E+02  2.986348E-09 -6.124062E-10
       353  18 -1.116973E+06 -6.922180E+04 -8.354026E+04  5.862711E+03  2.566530E-09  1.759536E-09
       353  19 -5.115134E+05  6.024409E+04  2.863382E+04  4.383720E+03  3.723686E+04  8.457874E+03
       353  20 -5.279674E+05  7.866664E+04  4.838940E+04 -6.953720E+02  2.466043E+04  8.364105E+03
       353  21 -5.524877E+05  7.122070E+04  5.349509E+04  1.207415E+04  1.208617E+04  7.541424E+03
       353  22 -8.347806E+05 -2.013612E+04 -4.988147E+04  9.012406E+03  3.735161E+04  8.458702E+03
       353  23 -8.307115E+05  3.397764E+03 -2.501560E+04  6.547340E+01  2.446655E+04  8.363983E+03
       353  24 -8.347669E+05  1.002410E+03 -1.501954E+04  8.967776E+03  1.158324E+04  7.540351E+03
       353  25 -1.157952E+06 -1.005239E+05 -1.284043E+05  1.363862E+04  3.746629E+04  8.459531E+03
       353  26 -1.133372E+06 -7.187784E+04 -9.842721E+04  8.258993E+02  2.427277E+04  8.363861E+03
       353  27 -1.116973E+06 -6.922171E+04 -8.353992E+04  5.862778E+03  1.108055E+04  7.539284E+03
       354   1 -5.852248E+05  5.938381E+04  4.826604E+04  9.218094E+03 -9.515119E+03 -6.962856E+03
       354   2 -6.062850E+05  5.668488E+04  4.847467E+04  1.673167E+02 -6.321537E+03 -6.198249E+03
       354   3 -6.285386E+05  5.107767E+04  4.586495E+04  9.978577E+03 -3.128714E+03 -5.352487E+03
       354   4 -8.332248E+05 -2.272604E+03 -1.183074E+04  9.211937E+03 -9.203672E+03 -6.962240E+03
       354   5 -8.326230E+05  4.023694E+02 -6.416448E+03 -2.225432E+02 -5.976220E+03 -6.197452E+03
       354   6 -8.332214E+05  1.624895E+02 -3.844859E+03  9.205457E+03 -2.749416E+03 -5.351500E+03
       354   7 -1.081169E+06 -6.393353E+04 -7.193195E+04  9.205745E+03 -8.892350E+03 -6.961623E+03
       354   8 -1.058914E+06 -5.588391E+04 -6.131126E+04 -6.122923E+02 -5.631029E+03 -6.196655E+03
       354   9 -1.037866E+06 -5.075577E+04 -5.355770E+04  8.432565E+03 -2.370244E+03 -5.350513E+03
       354  10 -5.852249E+05  5.938373E+04  4.826578E+04  9.218040E+03 -1.150733E-09  5.610261E-09
       354  11 -6.062851E+05  5.668483E+04  4.847452E+04  1.672851E+02 -2.466556E-09  5.805559E-09
       354  12 -6.285386E+05  5.107763E+04  4.586488E+04  9.978563E+03  3.268883E-09 -7.872883E-10
       354  13 -8.332249E+05 -2.272679E+03 -1.183099E+04  9.211885E+03  8.845296E-10 -1.786772E-09
       354  14 -8.326230E+05  4.023186E+02 -6.416587E+03 -2.225730E+02 -5.604876E-10  5.987063E-09
       354  15 -8.332215E+05  1.624567E+02 -3.844927E+03  9.205445E+03  4.006555E-10  8.036602E-09
       354  16 -1.081169E+06 -6.393360E+04 -7.193219E+04  9.205695E+03  1.965280E-09  3.807068E-09
       354  17 -1.058914E+06 -5.588396E+04 -6.131139E+04 -6.123204E+02  3.194717E-09  4.936778E-09
       354  18 -1.037866E+06 -5.075580E+04 -5.355777E+04  8.432555E+03 -5.073458E-10  5.374889E-09
       354  19 -5.852248E+05  5.938381E+04  4.826604E+04  9.218094E+03  9.515119E+03  6.962856E+03
       354  20 -6.062850E+05  5.668488E+04  4.847467E+04  1.673167E+02  6.321537E+03  6.198249E+03
       354  21 -6.285386E+05  5.107767E+04  4.586495E+04  9.978577E+03  3.128714E+03  5.352487E+03
       354  22 -8.332248E+05 -2.272604E+03 -1.183074E+04  9.211937E+03  9.203672E+03  6.962240E+03
       354  23 -8.326230E+05  4.023694E+02 -6.416448E+03 -2.225432E+02  5.976220E+03  6.197452E+03
       354  24 -8.332214E+05  1.624895E+02 -3.844859E+03  9.205457E+03  2.749416E+03  5.351500E+03
       354  25 -1.081169E+06 -6.393353E+04 -7.193195E+04  9.205745E+03  8.892350E+03  6.961623E+03
       354  26 -1.058914E+06 -5.588391E+04 -6.131126E+04 -6.122923E+02  5.631029E+03  6.196655E+03
       354  27 -1.037866E+06 -5.075577E+04 -5.355770E+04  8.432565E+03  2.370244E+03  5.350513E+03
       355   1 -6.642619E+05  4.174991E+04  3.781941E+04  9.715410E+03 -2.496178E+03 -4.848302E+03
       355   2 -6.865988E+05  3.642982E+04  3.355930E+04 -8.186803E+01 -1.552695E+03 -3.996923E+03
       355   3 -7.092397E+05  3.085321E+04  2.859551E+04  9.704638E+03 -6.096143E+02 -3.128272E+03
       355   4 -8.330190E+05 -2.030203E+02 -3.043438E+03  9.368399E+03 -2.133238E+03 -4.847307E+03
       355   5 -8.328653E+05  5.580157E+01 -1.915453E+03 -4.240977E+02 -1.182536E+03 -3.995847E+03
       355   6 -8.330177E+05  5.671876E+01 -1.496372E+03  9.367478E+03 -2.322012E+02 -3.127110E+03
       355   7 -1.001750E+06 -4.215804E+04 -4.390834E+04  9.021462E+03 -1.770397E+03 -4.846312E+03
       355   8 -9.791122E+05 -3.631979E+04 -3.739175E+04 -7.662613E+02 -8.124632E+02 -3.994771E+03
       355   9 -9.567817E+05 -3.074090E+04 -3.158936E+04  9.030374E+03  1.451369E+02 -3.125949E+03
       355  10 -6.642619E+05  4.174988E+04  3.781936E+04  9.715401E+03  2.346256E-09 -1.597190E-09
       355  11 -6.865988E+05  3.642980E+04  3.355927E+04 -8.187303E+01 -2.046783E-09  8.896498E-09
       355  12 -7.092397E+05  3.085319E+04  2.859549E+04  9.704636E+03 -4.224869E-10  7.554318E-09
       355  13 -8.330190E+05 -2.030468E+02 -3.043491E+03  9.368390E+03  2.132758E-09  2.034873E-09
       355  14 -8.328653E+05  5.578405E+01 -1.915486E+03 -4.241015E+02 -6.032929E-10  7.597400E-09
       355  15 -8.330177E+05  5.670825E+01 -1.496391E+03  9.367477E+03  6.061524E-10  5.837365E-10
       355  16 -1.001750E+06 -4.215806E+04 -4.390839E+04  9.021455E+03 -2.271283E-09  2.943182E-09
       355  17 -9.791122E+05 -3.631981E+04 -3.739178E+04 -7.662640E+02  2.122426E-09 -1.993647E-09
       355  18 -9.567817E+05 -3.074091E+04 -3.158938E+04  9.030374E+03  2.085664E-09 -2.516560E-09
       355  19 -6.642619E+05  4.174991E+04  3.781941E+04  9.715410E+03  2.496178E+03  4.848302E+03
       355  20 -6.865988E+05  3.642982E+04  3.355930E+04 -8.186803E+01  1.552695E+03  3.996923E+03
       355  21 -7.092397E+05  3.085321E+04  2.859551E+04  9.704638E+03  6.096143E+02  3.128272E+03
       355  22 -8.330190E+05 -2.030203E+02 -3.043438E+03  9.368399E+03  2.133238E+03  4.847307E+03
       355  23 -8.328653E+05  5.580157E+01 -1.915453E+03 -4.240977E+02  1.182536E+03  3.995847E+03
       355  24 -8.330177E+05  5.671876E+01 -1.496372E+03  9.367478E+03  2.322012E+02  3.127110E+03
       355  25 -1.001750E+06 -4.215804E+04 -4.390834E+04  9.021462E+03  1.770397E+03  4.846312E+03
       355  26 -9.791122E+05 -3.631979E+04 -3.739175E+04 -7.662613E+02  8.124632E+02  3.994771E+03
       355  27 -9.567817E+05 -3.074090E+04 -3.158936E+04  9.030374E+03 -1.451369E+02  3.125949E+03
       356   1 -7.462262E+05  2.161806E+04  1.951970E+04  9.636971E+03 -3.443624E+02 -2.618167E+03
       356   2 -7.690242E+05  1.592801E+04  1.377319E+04 -3.856677E+02  5.026711E+02 -1.740409E+03
       356   3 -7.921386E+05  1.004058E+04  7.392153E+03  9.587796E+03  1.349542E+03 -8.598952E+02
       356   4 -8.330177E+05  4.785504E+01 -1.461221E+03  9.459083E+03  3.270785E+01 -2.616974E+03
       356   5 -8.328592E+05  5.247210E+01 -1.709907E+03 -5.387739E+02  8.808454E+02 -1.739187E+03
       356   6 -8.330175E+05 -1.403711E+02 -2.593811E+03  9.459599E+03  1.728852E+03 -8.586407E+02
       356   7 -9.198023E+05 -2.152291E+04 -2.244268E+04  9.281215E+03  4.097255E+02 -2.615782E+03
       356   8 -8.966905E+05 -1.582336E+04 -1.719330E+04 -6.918673E+02  1.258981E+03 -1.737964E+03
       356   9 -8.738948E+05 -1.032145E+04 -1.257990E+04  9.331409E+03  2.108136E+03 -8.573864E+02
       356  10 -7.462262E+05  2.161806E+04  1.951969E+04  9.636971E+03  3.293651E-09  1.663973E-09
       356  11 -7.690242E+05  1.592800E+04  1.377319E+04 -3.856670E+02 -7.239606E-10  8.219398E-10
       356  12 -7.921386E+05  1.004058E+04  7.392148E+03  9.587797E+03 -1.817580E-09 -4.100870E-09
       356  13 -8.330177E+05  4.784769E+01 -1.461234E+03  9.459083E+03  1.119414E-09  1.063294E-08
       356  14 -8.328592E+05  5.246865E+01 -1.709914E+03 -5.387727E+02 -8.449569E-10  1.086916E-09
       356  15 -8.330175E+05 -1.403727E+02 -2.593818E+03  9.459600E+03 -1.352351E-09 -6.381582E-09
       356  16 -9.198023E+05 -2.152291E+04 -2.244269E+04  9.281216E+03 -2.661780E-09  3.893813E-09
       356  17 -8.966905E+05 -1.582337E+04 -1.719331E+04 -6.918656E+02  1.215937E-09 -1.293908E-09
       356  18 -8.738949E+05 -1.032145E+04 -1.257991E+04  9.331411E+03  2.727176E-09 -5.304585E-09
       356  19 -7.462262E+05  2.161806E+04  1.951970E+04  9.636971E+03  3.443624E+02  2.618167E+03
       356  20 -7.690242E+05  1.592801E+04  1.377319E+04 -3.856677E+02 -5.026711E+02  1.740409E+03
       356  21 -7.921386E+05  1.004058E+04  7.392153E+03  9.587796E+03 -1.349542E+03  8.598952E+02
       356  22 -8.330177E+05  4.785504E+01 -1.461221E+03  9.459083E+03 -3.270785E+01  2.616974E+03
       356  23 -8.328592E+05  5.247210E+01 -1.709907E+03 -5.387739E+02 -8.808454E+02  1.739187E+03
       356  24 -8.330175E+05 -1.403711E+02 -2.593811E+03  9.459599E+03 -1.728852E+03  8.586407E+02
       356  25 -9.198023E+05 -2.152291E+04 -2.244268E+04  9.281215E+03 -4.097255E+02  2.615782E+03
       356  26 -8.966905E+05 -1.582336E+04 -1.719330E+04 -6.918673E+02 -1.258981E+03  1.737964E+03
       356  27 -8.738948E+05 -1.032145E+04 -1.257990E+04  9.331409E+03 -2.108136E+03  8.573864E+02
       357   1 -8.297594E+05  9.952551E+02 -2.482672E+03  9.216484E+03  1.862470E+03 -3.387371E+02
       357   2 -8.522602E+05 -4.534690E+03 -1.010391E+04 -5.495453E+02  4.565604E+03  5.528775E+02
       357   3 -8.758734E+05 -1.244417E+04 -2.011669E+04  9.769711E+03  7.268787E+03  1.408961E+03
       357   4 -8.331931E+05  1.576202E+02 -3.244457E+03  9.476785E+03  2.251079E+03 -3.374439E+02
       357   5 -8.326391E+05  3.446249E+02 -5.345334E+03 -5.625449E+02  4.938955E+03  5.541096E+02
       357   6 -8.331951E+05 -1.845139E+03 -9.826996E+03  9.483381E+03  7.626981E+03  1.410132E+03
       357   7 -8.366268E+05 -6.800151E+02 -4.006242E+03  9.737084E+03  2.639685E+03 -3.361503E+02
       357   8 -8.130177E+05  5.223912E+03 -5.867837E+02 -5.755451E+02  5.312318E+03  5.553417E+02
       357   9 -7.905152E+05  8.753758E+03  4.625685E+02  9.197031E+03  7.985199E+03  1.411302E+03
       357  10 -8.297594E+05  9.952540E+02 -2.482679E+03  9.216485E+03 -2.499444E-09  2.565164E-09
       357  11 -8.522602E+05 -4.534696E+03 -1.010395E+04 -5.495473E+02 -1.286070E-09  5.944780E-09
       357  12 -8.758734E+05 -1.244418E+04 -2.011679E+04  9.769702E+03  3.120328E-10  2.194548E-09
       357  13 -8.331931E+05  1.576187E+02 -3.244466E+03  9.476786E+03 -3.983406E-10 -3.797464E-09
       357  14 -8.326392E+05  3.446180E+02 -5.345380E+03 -5.625471E+02 -3.781349E-09  4.546032E-09
       357  15 -8.331952E+05 -1.845157E+03 -9.827109E+03  9.483373E+03  9.725818E-10  7.071236E-10
       357  16 -8.366268E+05 -6.800171E+02 -4.006255E+03  9.737085E+03  2.891179E-09 -6.933702E-10
       357  17 -8.130177E+05  5.223904E+03 -5.868374E+02 -5.755475E+02  3.102069E-09 -7.735598E-09
       357  18 -7.905153E+05  8.753739E+03  4.624448E+02  9.197022E+03  1.302723E-09 -1.709676E-09
       357  19 -8.297594E+05  9.952551E+02 -2.482672E+03  9.216484E+03 -1.862470E+03  3.387371E+02
       357  20 -8.522602E+05 -4.534690E+03 -1.010391E+04 -5.495453E+02 -4.565604E+03 -5.528775E+02
       357  21 -8.758734E+05 -1.244417E+04 -2.011669E+04  9.769711E+03 -7.268787E+03 -1.408961E+03
       357  22 -8.331931E+05  1.576202E+02 -3.244457E+03  9.476785E+03 -2.251079E+03  3.374439E+02
       357  23 -8.326391E+05  3.446249E+02 -5.345334E+03 -5.625449E+02 -4.938955E+03 -5.541096E+02
       357  24 -8.331951E+05 -1.845139E+03 -9.826996E+03  9.483381E+03 -7.626981E+03 -1.410132E+03
       357  25 -8.366268E+05 -6.800151E+02 -4.006242E+03  9.737084E+03 -2.639685E+03  3.361503E+02
       357  26 -8.130177E+05  5.223912E+03 -5.867837E+02 -5.755451E+02 -5.312318E+03 -5.553417E+02
       357  27 -7.905152E+05  8.753758E+03  4.625685E+02  9.197031E+03 -7.985199E+03 -1.411302E+03
       358   1 -9.144471E+05 -1.905259E+04 -3.193439E+04  7.082134E+03  9.139488E+03  1.983489E+03
       358   2 -9.337900E+05 -2.271360E+04 -4.565538E+04  3.117025E+02  1.998846E+04  2.894056E+03
       358   3 -9.600613E+05 -4.785363E+04 -7.184715E+04  1.342182E+04  3.083823E+04  3.411185E+03
       358   4 -8.344813E+05  8.667430E+02 -1.246912E+04  9.415735E+03  9.603020E+03  1.985021E+03
       358   5 -8.310375E+05  2.833183E+03 -2.073915E+04 -4.969498E+02  2.028377E+04  2.894934E+03
       358   6 -8.344922E+05 -1.664815E+04 -4.136139E+04  9.470866E+03  3.096572E+04  3.411328E+03
       358   7 -7.545096E+05  2.078562E+04  6.995697E+03  1.174963E+04  1.006661E+04  1.986557E+03
       358   8 -7.282754E+05  2.837919E+04  4.176318E+03 -1.305744E+03  2.057913E+04  2.895812E+03
       358   9 -7.089087E+05  1.455623E+04 -1.087677E+04  5.519098E+03  3.109324E+04  3.411471E+03
       358  10 -9.144472E+05 -1.905262E+04 -3.193455E+04  7.082120E+03 -3.997399E-09  6.177624E-09
       358  11 -9.337905E+05 -2.271372E+04 -4.565614E+04  3.116559E+02 -8.042192E-10  4.791289E-09
       358  12 -9.600623E+05 -4.785390E+04 -7.184896E+04  1.342173E+04  3.883832E-09  2.870791E-09
       358  13 -8.344814E+05  8.667140E+02 -1.246930E+04  9.415720E+03  1.705159E-09  3.057233E-09
       358  14 -8.310380E+05  2.833064E+03 -2.073994E+04 -4.969971E+02 -1.651592E-11  6.796262E-09
       358  15 -8.344933E+05 -1.664842E+04 -4.136322E+04  9.470781E+03  1.467556E-09 -1.097937E-09
       358  16 -7.545097E+05  2.078559E+04  6.995499E+03  1.174962E+04  4.679167E-09  1.646000E-09
       358  17 -7.282759E+05  2.837907E+04  4.175506E+03 -1.305792E+03  1.886856E-09  9.219543E-10
       358  18 -7.089097E+05  1.455596E+04 -1.087861E+04  5.519013E+03 -1.464782E-09 -6.195658E-09
       358  19 -9.144471E+05 -1.905259E+04 -3.193439E+04  7.082134E+03 -9.139488E+03 -1.983489E+03
       358  20 -9.337900E+05 -2.271360E+04 -4.565538E+04  3.117025E+02 -1.998846E+04 -2.894056E+03
       358  21 -9.600613E+05 -4.785363E+04 -7.184715E+04  1.342182E+04 -3.083823E+04 -3.411185E+03
       358  22 -8.344813E+05  8.667430E+02 -1.246912E+04  9.415735E+03 -9.603020E+03 -1.985021E+03
       358  23 -8.310375E+05  2.833183E+03 -2.073915E+04 -4.969498E+02 -2.028377E+04 -2.894934E+03
       358  24 -8.344922E+05 -1.664815E+04 -4.136139E+04  9.470866E+03 -3.096572E+04 -3.411328E+03
       358  25 -7.545096E+05  2.078562E+04  6.995697E+03  1.174963E+04 -1.006661E+04 -1.986557E+03
       358  26 -7.282754E+05  2.837919E+04  4.176318E+03 -1.305744E+03 -2.057913E+04 -2.895812E+03
       358  27 -7.089087E+05  1.455623E+04 -1.087677E+04  5.519098E+03 -3.109324E+04 -3.411471E+03
       359   1 -1.006505E+06 -3.340946E+04 -8.981750E+04 -8.676919E+03  3.760633E+04  4.565142E+03
       359   2 -1.002747E+06 -2.179406E+04 -1.243716E+05  1.043896E+04  8.267766E+04  5.560038E+03
       359   3 -1.051258E+06 -1.953040E+05 -2.346010E+05  4.909973E+04  1.277609E+05  2.198319E+03
       359   4 -8.444869E+05  7.021929E+03 -5.049461E+04  9.220814E+03  3.892337E+04  4.570173E+03
       359   5 -8.185530E+05  2.392133E+04 -7.978580E+04 -3.376977E+02  8.212463E+04  5.556821E+03
       359   6 -8.445477E+05 -1.439527E+05 -1.834362E+05  9.650060E+03  1.253396E+05  2.183250E+03
       359   7 -6.824440E+05  4.745257E+04 -1.117345E+04  2.712322E+04  4.024075E+04  4.575280E+03
       359   8 -6.343276E+05  6.963469E+04 -3.520236E+04 -1.111759E+04  8.157143E+04  5.553623E+03
       359   9 -6.377954E+05 -9.259868E+04 -1.322737E+05 -2.981280E+04  1.229174E+05  2.168494E+03
       359  10 -1.006507E+06 -3.340987E+04 -8.982020E+04 -8.677057E+03 -1.287096E-10  1.252593E-09
       359  11 -1.002754E+06 -2.179594E+04 -1.243845E+05  1.043859E+04 -1.082072E-09 -2.161793E-09
       359  12 -1.051275E+06 -1.953084E+05 -2.346317E+05  4.909951E+04  3.525140E-10 -1.070041E-09
       359  13 -8.444885E+05  7.021499E+03 -5.049751E+04  9.220671E+03  1.572611E-09  4.861870E-09
       359  14 -8.185603E+05  2.391948E+04 -7.979855E+04 -3.380654E+02  5.318801E-11 -5.287804E-09
       359  15 -8.445645E+05 -1.439569E+05 -1.834658E+05  9.649839E+03 -4.649549E-10  4.753319E-09
       359  16 -6.824457E+05  4.745212E+04 -1.117654E+04  2.712307E+04  1.436822E-09  2.251185E-09
       359  17 -6.343347E+05  6.963286E+04 -3.521493E+04 -1.111796E+04  1.051096E-09  1.288823E-09
       359  18 -6.378116E+05 -9.260274E+04 -1.323021E+05 -2.981301E+04  1.575565E-10 -1.179216E-09
       359  19 -1.006505E+06 -3.340946E+04 -8.981750E+04 -8.676919E+03 -3.760633E+04 -4.565142E+03
       359  20 -1.002747E+06 -2.179406E+04 -1.243716E+05  1.043896E+04 -8.267766E+04 -5.560038E+03
       359  21 -1.051258E+06 -1.953040E+05 -2.346010E+05  4.909973E+04 -1.277609E+05 -2.198319E+03
       359  22 -8.444869E+05  7.021929E+03 -5.049461E+04  9.220814E+03 -3.892337E+04 -4.570173E+03
       359  23 -8.185530E+05  2.392133E+04 -7.978580E+04 -3.376977E+02 -8.212463E+04 -5.556821E+03
       359  24 -8.445477E+05 -1.439527E+05 -1.834362E+05  9.650060E+03 -1.253396E+05 -2.183250E+03
       359  25 -6.824440E+05  4.745257E+04 -1.117345E+04  2.712322E+04 -4.024075E+04 -4.575280E+03
       359  26 -6.343276E+05  6.963469E+04 -3.520236E+04 -1.111759E+04 -8.157143E+04 -5.553623E+03
       359  27 -6.377954E+05 -9.259868E+04 -1.322737E+05 -2.981280E+04 -1.229174E+05 -2.168494E+03
       360   1  6.990175E+05  3.784479E+06  7.914739E+05 -2.618453E+05  1.158482E+04  3.004773E+05
       360   2  2.262117E+05  3.419221E+06  4.747879E+05 -6.310184E+04  3.275865E+04  1.789592E+05
       360   3  1.987749E+05  3.181320E+06  3.482898E+05 -1.251802E+05  2.180234E+04  5.741776E+04
       360   4  3.387191E+05  2.337142E+06  4.342870E+05 -1.647299E+05  1.166280E+04  2.840255E+05
       360   5 -5.728511E+04  2.274815E+06  1.989364E+05 -3.466294E+04  3.277597E+04  1.766705E+05
       360   6 -9.918336E+03  2.337601E+06  1.442801E+05 -1.654081E+05  2.175967E+04  6.923176E+04
       360   7 -2.170029E+04  8.917177E+05  7.695104E+04 -6.783895E+04  1.173580E+04  2.676111E+05
       360   8 -3.408743E+05  1.131601E+06 -7.700822E+04 -6.275604E+03  3.279310E+04  1.743857E+05
       360   9 -2.186571E+05  1.494534E+06 -5.977903E+04 -2.055807E+05  2.171544E+04  8.102977E+04
       360  10  6.989933E+05  3.784382E+06  7.913050E+05 -2.618481E+05 -1.489356E-09 -1.691274E-09
       360  11  2.262020E+05  3.419187E+06  4.747261E+05 -6.310656E+04 -2.129246E-09 -2.270560E-09
       360  12  1.987736E+05  3.181316E+06  3.482827E+05 -1.251812E+05  1.282453E-09 -1.466978E-09
       360  13  3.386974E+05  2.337055E+06  4.341357E+05 -1.647326E+05  8.226988E-11 -2.130201E-09
       360  14 -5.729460E+04  2.274781E+06  1.988759E+05 -3.466760E+04 -2.551399E-09 -5.070269E-09
       360  15 -9.920126E+03  2.337596E+06  1.442703E+05 -1.654093E+05  1.590940E-10  6.989636E-09
       360  16 -2.171963E+04  8.916409E+05  7.681640E+04 -6.784148E+04  9.145024E-10 -2.424557E-10
       360  17 -3.408836E+05  1.131568E+06 -7.706727E+04 -6.280209E+03  9.379366E-10  4.008846E-09
       360  18 -2.186594E+05  1.494527E+06 -5.979223E+04 -2.055821E+05 -7.750756E-10  2.672479E-10
       360  19  6.990175E+05  3.784479E+06  7.914739E+05 -2.618453E+05 -1.158482E+04 -3.004773E+05
       360  20  2.262117E+05  3.419221E+06  4.747879E+05 -6.310184E+04 -3.275865E+04 -1.789592E+05
       360  21  1.987749E+05  3.181320E+06  3.482898E+05 -1.251802E+05 -2.180234E+04 -5.741776E+04
       360  22  3.387191E+05  2.337142E+06  4.342870E+05 -1.647299E+05 -1.166280E+04 -2.840255E+05
       360  23 -5.728511E+04  2.274815E+06  1.989364E+05 -3.466294E+04 -3.277597E+04 -1.766705E+05
       360  24 -9.918336E+03  2.337601E+06  1.442801E+05 -1.654081E+05 -2.175967E+04 -6.923176E+04
       360  25 -2.170029E+04  8.917177E+05  7.695104E+04 -6.783895E+04 -1.173580E+04 -2.676111E+05
       360  26 -3.408743E+05  1.131601E+06 -7.700822E+04 -6.275604E+03 -3.279310E+04 -1.743857E+05
       360  27 -2.186571E+05  1.494534E+06 -5.977903E+04 -2.055807E+05 -2.171544E+04 -8.102977E+04
       361   1  1.284012E+05  2.681517E+06  2.184177E+05 -1.808298E+05  1.012860E+04  4.161979E+04
       361   2  3.162574E+03  2.371078E+06  1.225452E+05 -3.601111E+04  1.974927E+03 -1.296965E+04
       361   3 -9.573500E+03  2.093680E+06  8.976219E+04 -1.462875E+05 -6.410134E+03 -6.753627E+04
       361   4  3.800673E+04  2.317206E+06  1.304629E+05 -1.638584E+05  1.011694E+04  4.517620E+04
       361   5 -1.426704E+04  2.300730E+06  1.055473E+05 -3.629811E+04  1.961610E+03 -9.298296E+03
       361   6  4.595488E+04  2.317200E+06  1.436581E+05 -1.638267E+05 -6.422383E+03 -6.377539E+04
       361   7 -5.239635E+04  1.953017E+06  4.249887E+04 -1.468967E+05  1.010547E+04  4.873054E+04
       361   8 -3.169700E+04  2.230387E+06  8.854911E+04 -3.658506E+04  1.948289E+03 -5.627361E+03
       361   9  1.014807E+05  2.540765E+06  1.975507E+05 -1.813721E+05 -6.434843E+03 -6.001315E+04
       361  10  1.284006E+05  2.681515E+06  2.184143E+05 -1.808302E+05  1.007467E-09  3.336490E-10
       361  11  3.162525E+03  2.371078E+06  1.225448E+05 -3.601109E+04 -4.174663E-10 -2.661580E-09
       361  12 -9.574764E+03  2.093676E+06  8.975357E+04 -1.462879E+05 -1.900409E-09 -1.778490E-10
       361  13  3.800607E+04  2.317204E+06  1.304589E+05 -1.638587E+05  1.020205E-09 -4.060474E-09
       361  14 -1.426707E+04  2.300730E+06  1.055471E+05 -3.629809E+04  1.137563E-09 -8.524948E-09
       361  15  4.595375E+04  2.317195E+06  1.436504E+05 -1.638270E+05  2.720708E-09  7.580864E-09
       361  16 -5.239710E+04  1.953014E+06  4.249423E+04 -1.468971E+05 -5.204055E-10 -3.959738E-09
       361  17 -3.169702E+04  2.230387E+06  8.854904E+04 -3.658506E+04 -3.284416E-09  5.066540E-09
       361  18  1.014797E+05  2.540761E+06  1.975438E+05 -1.813724E+05  5.278371E-12  1.174633E-10
       361  19  1.284012E+05  2.681517E+06  2.184177E+05 -1.808298E+05 -1.012860E+04 -4.161979E+04
       361  20  3.162574E+03  2.371078E+06  1.225452E+05 -3.601111E+04 -1.974927E+03  1.296965E+04
       361  21 -9.573500E+03  2.093680E+06  8.976219E+04 -1.462875E+05  6.410134E+03  6.753627E+04
       361  22  3.800673E+04  2.317206E+06  1.304629E+05 -1.638584E+05 -1.011694E+04 -4.517620E+04
       361  23 -1.426704E+04  2.300730E+06  1.055473E+05 -3.629811E+04 -1.961610E+03  9.298296E+03
       361  24  4.595488E+04  2.317200E+06  1.436581E+05 -1.638267E+05  6.422383E+03  6.377539E+04
       361  25 -5.239635E+04  1.953017E+06  4.249887E+04 -1.468967E+05 -1.010547E+04 -4.873054E+04
       361  26 -3.169700E+04  2.230387E+06  8.854911E+04 -3.658506E+04 -1.948289E+03  5.627361E+03
       361  27  1.014807E+05  2.540765E+06  1.975507E+05 -1.813721E+05  6.434843E+03  6.001315E+04
       362   1 -1.873122E+05  1.641503E+06 -6.884764E+03 -2.133161E+05 -1.760566E+04 -1.017176E+05
       362   2 -3.157770E+05  1.269146E+06 -8.142958E+03 -1.711027E+03 -2.853840E+04 -2.148354E+05
       362   3  7.938351E+04  1.042341E+06  1.950766E+05 -4.928391E+04 -1.018896E+04 -3.278095E+05
       362   4 -1.386824E+04  2.342602E+06  1.628549E+05 -1.651199E+05 -1.765266E+04 -9.057224E+04
       362   5 -6.778526E+04  2.268655E+06  2.330842E+05 -3.508376E+04 -2.851975E+04 -2.165515E+05
       362   6  4.036627E+05  2.342085E+06  5.164323E+05 -1.641696E+05 -1.009584E+04 -3.424432E+05
       362   7  1.595489E+05  3.044155E+06  3.325610E+05 -1.168687E+05 -1.769790E+04 -7.941429E+04
       362   8  1.801377E+05  3.269077E+06  4.742405E+05 -6.850965E+04 -2.850095E+04 -2.182701E+05
       362   9  7.278648E+05  3.643388E+06  8.376704E+05 -2.792946E+05 -9.997462E+03 -3.571069E+05
       362  10 -1.873153E+05  1.641492E+06 -6.904741E+03 -2.133176E+05  5.087585E-10 -1.972478E-09
       362  11 -3.157902E+05  1.269097E+06 -8.231035E+03 -1.715963E+03 -2.742017E-10 -3.597064E-09
       362  12  7.935461E+04  1.042225E+06  1.948748E+05 -4.928660E+04 -3.268866E-10 -1.408926E-09
       362  13 -1.387077E+04  2.342594E+06  1.628389E+05 -1.651212E+05 -1.526074E-09 -2.860654E-09
       362  14 -6.779866E+04  2.268605E+06  2.329949E+05 -3.508873E+04 -8.408884E-10 -5.947517E-09
       362  15  4.036313E+05  2.341960E+06  5.162126E+05 -1.641724E+05 -8.872812E-10  4.760038E-09
       362  16  1.595469E+05  3.044148E+06  3.325486E+05 -1.168699E+05  1.726773E-09 -1.884744E-09
       362  17  1.801241E+05  3.269026E+06  4.741499E+05 -6.851465E+04 -1.879617E-09  5.236540E-09
       362  18  7.278307E+05  3.643252E+06  8.374320E+05 -2.792975E+05 -1.328036E-09  1.404138E-09
       362  19 -1.873122E+05  1.641503E+06 -6.884764E+03 -2.133161E+05  1.760566E+04  1.017176E+05
       362  20 -3.157770E+05  1.269146E+06 -8.142958E+03 -1.711027E+03  2.853840E+04  2.148354E+05
       362  21  7.938351E+04  1.042341E+06  1.950766E+05 -4.928391E+04  1.018896E+04  3.278095E+05
       362  22 -1.386824E+04  2.342602E+06  1.628549E+05 -1.651199E+05  1.765266E+04  9.057224E+04
       362  23 -6.778526E+04  2.268655E+06  2.330842E+05 -3.508376E+04  2.851975E+04  2.165515E+05
       362  24  4.036627E+05  2.342085E+06  5.164323E+05 -1.641696E+05  1.009584E+04  3.424432E+05
       362  25  1.595489E+05  3.044155E+06  3.325610E+05 -1.168687E+05  1.769790E+04  7.941429E+04
       362  26  1.801377E+05  3.269077E+06  4.742405E+05 -6.850965E+04  2.850095E+04  2.182701E+05
       362  27  7.278648E+05  3.643388E+06  8.376704E+05 -2.792946E+05  9.997462E+03  3.571069E+05
       363   1  6.059908E+03 -1.214764E+04 -3.003544E+04 -1.279005E+04 -7.741998E+04 -3.316346E+04
       363   2  1.134632E+04  9.490407E+04  3.909969E+04 -4.456814E+04 -4.818046E+04 -3.012715E+04
       363   3 -4.559483E+04  9.323420E+04  5.507404E+04 -2.959416E+04 -2.192752E+04 -1.916757E+04
       363   4 -3.817973E+05 -1.342412E+05 -1.310326E+05 -9.353292E+04 -8.180817E+04 -3.482015E+04
       363   5 -3.436251E+05 -3.219754E+04 -5.430924E+04 -1.347436E+05 -4.938201E+04 -3.058124E+04
       363   6 -3.683413E+05 -3.954931E+04 -3.329846E+04 -1.291941E+05 -1.994138E+04 -1.841815E+04
       363   7 -7.695066E+05 -2.563349E+05 -2.320408E+05 -1.742348E+05 -8.619327E+04 -3.647611E+04
       363   8 -6.984737E+05 -1.592941E+05 -1.477284E+05 -2.248735E+05 -5.058279E+04 -3.103507E+04
       363   9 -6.909867E+05 -1.723209E+05 -1.216804E+05 -2.287454E+05 -1.795638E+04 -1.766924E+04
       363  10  6.053176E+03 -1.215043E+04 -3.004877E+04 -1.279212E+04  1.192559E-09 -1.571447E-10
       363  11  1.134359E+04  9.490247E+04  3.909362E+04 -4.456931E+04 -1.129214E-09 -5.104500E-09
       363  12 -4.559545E+04  9.323368E+04  5.507245E+04 -2.959450E+04 -2.843459E-09 -3.319247E-09
       363  13 -3.818048E+05 -1.342443E+05 -1.310475E+05 -9.353521E+04  2.019159E-10 -1.482167E-09
       363  14 -3.436280E+05 -3.219920E+04 -5.431558E+04 -1.347448E+05  9.539282E-10 -5.358161E-09
       363  15 -3.683418E+05 -3.954978E+04 -3.329985E+04 -1.291944E+05  2.467485E-10  7.886598E-10
       363  16 -7.695150E+05 -2.563383E+05 -2.320573E+05 -1.742373E+05 -2.558527E-10 -1.409400E-09
       363  17 -6.984767E+05 -1.592958E+05 -1.477350E+05 -2.248748E+05  4.866660E-09 -2.607078E-09
       363  18 -6.909871E+05 -1.723214E+05 -1.216816E+05 -2.287456E+05  3.967239E-09 -1.122609E-09
       363  19  6.059908E+03 -1.214764E+04 -3.003544E+04 -1.279005E+04  7.741998E+04  3.316346E+04
       363  20  1.134632E+04  9.490407E+04  3.909969E+04 -4.456814E+04  4.818046E+04  3.012715E+04
       363  21 -4.559483E+04  9.323420E+04  5.507404E+04 -2.959416E+04  2.192752E+04  1.916757E+04
       363  22 -3.817973E+05 -1.342412E+05 -1.310326E+05 -9.353292E+04  8.180817E+04  3.482015E+04
       363  23 -3.436251E+05 -3.219754E+04 -5.430924E+04 -1.347436E+05  4.938201E+04  3.058124E+04
       363  24 -3.683413E+05 -3.954931E+04 -3.329846E+04 -1.291941E+05  1.994138E+04  1.841815E+04
       363  25 -7.695066E+05 -2.563349E+05 -2.320408E+05 -1.742348E+05  8.619327E+04  3.647611E+04
       363  26 -6.984737E+05 -1.592941E+05 -1.477284E+05 -2.248735E+05  5.058279E+04  3.103507E+04
       363  27 -6.909867E+05 -1.723209E+05 -1.216804E+05 -2.287454E+05  1.795638E+04  1.766924E+04
       364   1 -6.682022E+04  5.598725E+04  5.193241E+04 -4.228366E+04 -1.562636E+04 -1.491729E+04
       364   2 -7.780945E+04  5.605145E+04  6.073835E+04 -5.790155E+04 -9.253701E+03 -1.241292E+04
       364   3 -1.087667E+05  5.511018E+04  6.078063E+04 -5.420362E+04 -3.170168E+03 -9.144618E+03
       364   4 -3.642297E+05 -5.358765E+04 -2.720341E+04 -1.209264E+05 -1.573902E+04 -1.496022E+04
       364   5 -3.534011E+05 -4.736421E+04 -1.282704E+04 -1.327313E+05 -9.060481E+03 -1.234025E+04
       364   6 -3.626046E+05 -4.221071E+04 -7.460137E+03 -1.252194E+05 -2.670891E+03 -8.956135E+03
       364   7 -6.615549E+05 -1.631586E+05 -1.063471E+05 -1.995360E+05 -1.585161E+04 -1.500313E+04
       364   8 -6.289200E+05 -1.507757E+05 -8.639917E+04 -2.075314E+05 -8.867355E+03 -1.226761E+04
       364   9 -6.163804E+05 -1.395272E+05 -7.570662E+04 -1.962089E+05 -2.171837E+03 -8.767740E+03
       364  10 -6.682054E+04  5.598695E+04  5.193154E+04 -4.228385E+04  1.507495E-09 -6.828424E-09
       364  11 -7.780959E+04  5.605126E+04  6.073790E+04 -5.790164E+04 -3.857539E-10 -7.446173E-09
       364  12 -1.087667E+05  5.511009E+04  6.078046E+04 -5.420364E+04 -3.859181E-09 -5.575822E-09
       364  13 -3.642300E+05 -5.358795E+04 -2.720430E+04 -1.209266E+05 -8.241360E-10  1.401745E-09
       364  14 -3.534013E+05 -4.736440E+04 -1.282748E+04 -1.327314E+05 -1.673185E-09  8.364039E-09
       364  15 -3.626046E+05 -4.221080E+04 -7.460301E+03 -1.252195E+05 -2.140927E-09  3.193362E-09
       364  16 -6.615552E+05 -1.631589E+05 -1.063480E+05 -1.995362E+05 -1.595263E-09  1.991954E-10
       364  17 -6.289202E+05 -1.507758E+05 -8.639960E+04 -2.075315E+05  1.314099E-09  5.903879E-09
       364  18 -6.163804E+05 -1.395273E+05 -7.570678E+04 -1.962090E+05  2.743294E-09  3.997492E-09
       364  19 -6.682022E+04  5.598725E+04  5.193241E+04 -4.228366E+04  1.562636E+04  1.491729E+04
       364  20 -7.780945E+04  5.605145E+04  6.073835E+04 -5.790155E+04  9.253701E+03  1.241292E+04
       364  21 -1.087667E+05  5.511018E+04  6.078063E+04 -5.420362E+04  3.170168E+03  9.144618E+03
       364  22 -3.642297E+05 -5.358765E+04 -2.720341E+04 -1.209264E+05  1.573902E+04  1.496022E+04
       364  23 -3.534011E+05 -4.736421E+04 -1.282704E+04 -1.327313E+05  9.060481E+03  1.234025E+04
       364  24 -3.626046E+05 -4.221071E+04 -7.460137E+03 -1.252194E+05  2.670891E+03  8.956135E+03
       364  25 -6.615549E+05 -1.631586E+05 -1.063471E+05 -1.995360E+05  1.585161E+04  1.500313E+04
       364  26 -6.289200E+05 -1.507757E+05 -8.639917E+04 -2.075314E+05  8.867355E+03  1.226761E+04
       364  27 -6.163804E+05 -1.395272E+05 -7.570662E+04 -1.962089E+05  2.171837E+03  8.767740E+03
       365   1 -1.434812E+05  3.855998E+04  5.252069E+04 -6.442968E+04 -2.117191E+03 -8.058748E+03
       365   2 -1.569081E+05  2.539337E+04  4.989570E+04 -7.841442E+04 -9.247909E+02 -6.716933E+03
       365   3 -1.852585E+05  2.458610E+04  4.569695E+04 -7.595853E+04  2.364595E+02 -5.294263E+03
       365   4 -3.621187E+05 -4.380183E+04 -5.860869E+03 -1.241289E+05 -1.817164E+03 -7.945501E+03
       365   5 -3.545546E+05 -4.929498E+04 -2.977251E+03 -1.326075E+05 -5.925550E+02 -6.591410E+03
       365   6 -3.619216E+05 -4.243515E+04 -1.693396E+03 -1.246450E+05  6.009577E+02 -5.156428E+03
       365   7 -5.807097E+05 -1.261606E+05 -6.424647E+04 -1.838091E+05 -1.517255E+03 -7.832298E+03
       365   8 -5.521636E+05 -1.239810E+05 -5.585363E+04 -1.867850E+05 -2.604353E+02 -6.465931E+03
       365   9 -5.385552E+05 -1.094546E+05 -4.908660E+04 -1.733191E+05  9.653426E+02 -5.018636E+03
       365  10 -1.434812E+05  3.855990E+04  5.252056E+04 -6.442969E+04 -2.392781E-10  5.127058E-10
       365  11 -1.569081E+05  2.539332E+04  4.989562E+04 -7.841442E+04  7.442277E-10  1.142447E-08
       365  12 -1.852585E+05  2.458607E+04  4.569689E+04 -7.595853E+04  1.753869E-09 -1.371013E-09
       365  13 -3.621187E+05 -4.380190E+04 -5.860994E+03 -1.241289E+05 -3.517003E-09  1.074892E-10
       365  14 -3.545546E+05 -4.929503E+04 -2.977334E+03 -1.326075E+05 -1.322400E-10 -2.108815E-09
       365  15 -3.619216E+05 -4.243517E+04 -1.693447E+03 -1.246450E+05  1.093823E-09 -2.335871E-09
       365  16 -5.807097E+05 -1.261607E+05 -6.424659E+04 -1.838091E+05 -1.867726E-09  3.583429E-09
       365  17 -5.521636E+05 -1.239810E+05 -5.585371E+04 -1.867850E+05 -4.216353E-09  3.329303E-09
       365  18 -5.385552E+05 -1.094546E+05 -4.908665E+04 -1.733191E+05  1.278074E-10 -1.362888E-09
       365  19 -1.434812E+05  3.855998E+04  5.252069E+04 -6.442968E+04  2.117191E+03  8.058748E+03
       365  20 -1.569081E+05  2.539337E+04  4.989570E+04 -7.841442E+04  9.247909E+02  6.716933E+03
       365  21 -1.852585E+05  2.458610E+04  4.569695E+04 -7.595853E+04 -2.364595E+02  5.294263E+03
       365  22 -3.621187E+05 -4.380183E+04 -5.860869E+03 -1.241289E+05  1.817164E+03  7.945501E+03
       365  23 -3.545546E+05 -4.929498E+04 -2.977251E+03 -1.326075E+05  5.925550E+02  6.591410E+03
       365  24 -3.619216E+05 -4.243515E+04 -1.693396E+03 -1.246450E+05 -6.009577E+02  5.156428E+03
       365  25 -5.807097E+05 -1.261606E+05 -6.424647E+04 -1.838091E+05  1.517255E+03  7.832298E+03
       365  26 -5.521636E+05 -1.239810E+05 -5.585363E+04 -1.867850E+05  2.604353E+02  6.465931E+03
       365  27 -5.385552E+05 -1.094546E+05 -4.908660E+04 -1.733191E+05 -9.653426E+02  5.018636E+03
       366   1 -2.223016E+05  1.020774E+04  3.596379E+04 -8.613539E+04  3.073373E+02 -4.680346E+03
       366   2 -2.362346E+05 -4.775327E+03  3.096562E+04 -1.001326E+05  3.408437E+02 -3.684049E+03
       366   3 -2.646742E+05 -5.579423E+03  2.564555E+04 -9.779057E+04  3.694354E+02 -2.675637E+03
       366   4 -3.619022E+05 -4.257503E+04 -1.312658E+03 -1.244598E+05  6.529371E+02 -4.549601E+03
       366   5 -3.546359E+05 -4.958190E+04 -7.228207E+02 -1.326604E+05  6.912789E+02 -3.551413E+03
       366   6 -3.618780E+05 -4.241077E+04 -4.588180E+02 -1.245218E+05  7.247180E+02 -2.541102E+03
       366   7 -5.014840E+05 -9.535660E+04 -3.859081E+04 -1.627764E+05  9.984513E+02 -4.418888E+03
       366   8 -4.730236E+05 -9.438756E+04 -3.241246E+04 -1.651825E+05  1.041640E+03 -3.418804E+03
       366   9 -4.590724E+05 -7.924145E+04 -2.656396E+04 -1.512492E+05  1.079939E+03 -2.406590E+03
       366  10 -2.223016E+05  1.020771E+04  3.596375E+04 -8.613539E+04 -8.660565E-10 -2.297662E-09
       366  11 -2.362346E+05 -4.775342E+03  3.096560E+04 -1.001326E+05 -1.456369E-09  9.091872E-09
       366  12 -2.646742E+05 -5.579430E+03  2.564554E+04 -9.779057E+04  1.288786E-09 -5.578440E-10
       366  13 -3.619022E+05 -4.257505E+04 -1.312698E+03 -1.244598E+05  1.099135E-10 -1.323349E-09
       366  14 -3.546359E+05 -4.958192E+04 -7.228453E+02 -1.326604E+05 -4.564230E-10  4.995434E-09
       366  15 -3.618780E+05 -4.241078E+04 -4.588311E+02 -1.245218E+05 -4.531388E-10  5.292000E-09
       366  16 -5.014841E+05 -9.535662E+04 -3.859085E+04 -1.627764E+05  3.168287E-09  5.433192E-10
       366  17 -4.730236E+05 -9.438758E+04 -3.241248E+04 -1.651825E+05 -7.210586E-10 -1.411704E-08
       366  18 -4.590724E+05 -7.924145E+04 -2.656397E+04 -1.512492E+05 -3.379583E-09  1.001440E-09
       366  19 -2.223016E+05  1.020774E+04  3.596379E+04 -8.613539E+04 -3.073373E+02  4.680346E+03
       366  20 -2.362346E+05 -4.775327E+03  3.096562E+04 -1.001326E+05 -3.408437E+02  3.684049E+03
       366  21 -2.646742E+05 -5.579423E+03  2.564555E+04 -9.779057E+04 -3.694354E+02  2.675637E+03
       366  22 -3.619022E+05 -4.257503E+04 -1.312658E+03 -1.244598E+05 -6.529371E+02  4.549601E+03
       366  23 -3.546359E+05 -4.958190E+04 -7.228207E+02 -1.326604E+05 -6.912789E+02  3.551413E+03
       366  24 -3.618780E+05 -4.241077E+04 -4.588180E+02 -1.245218E+05 -7.247180E+02  2.541102E+03
       366  25 -5.014840E+05 -9.535660E+04 -3.859081E+04 -1.627764E+05 -9.984513E+02  4.418888E+03
       366  26 -4.730236E+05 -9.438756E+04 -3.241246E+04 -1.651825E+05 -1.041640E+03  3.418804E+03
       366  27 -4.590724E+05 -7.924145E+04 -2.656396E+04 -1.512492E+05 -1.079939E+03  2.406590E+03
       367   1 -3.023618E+05 -1.988246E+04  1.545825E+04 -1.081170E+05  2.468631E+02 -2.137343E+03
       367   2 -3.164332E+05 -3.517939E+04  9.871672E+03 -1.222033E+05  9.032076E+01 -1.195000E+03
       367   3 -3.450913E+05 -3.603423E+04  4.130833E+03 -1.198446E+05 -6.571292E+01 -2.542700E+02
       367   4 -3.619003E+05 -4.240019E+04 -3.951045E+02 -1.244792E+05  6.013626E+02 -2.003073E+03
       367   5 -3.546085E+05 -4.963294E+04 -3.473081E+02 -1.326973E+05  4.441593E+02 -1.060960E+03
       367   6 -3.619034E+05 -4.242328E+04 -4.531092E+02 -1.244704E+05  2.874705E+02 -1.204566E+02
       367   7 -4.214355E+05 -6.491776E+04 -1.624881E+04 -1.408400E+05  9.558255E+02 -1.868817E+03
       367   8 -3.927825E+05 -6.408641E+04 -1.056643E+04 -1.431908E+05  7.979743E+02 -9.269295E+02
       367   9 -3.787153E+05 -4.881230E+04 -5.037077E+03 -1.290961E+05  6.406434E+02  1.335282E+01
       367  10 -3.023618E+05 -1.988246E+04  1.545824E+04 -1.081170E+05 -1.759501E-09 -6.624233E-09
       367  11 -3.164332E+05 -3.517940E+04  9.871669E+03 -1.222033E+05  2.274292E-09 -1.564059E-09
       367  12 -3.450913E+05 -3.603423E+04  4.130833E+03 -1.198446E+05  5.768774E-09 -3.245691E-09
       367  13 -3.619003E+05 -4.240019E+04 -3.951127E+02 -1.244792E+05 -1.610138E-09 -6.225871E-10
       367  14 -3.546085E+05 -4.963294E+04 -3.473106E+02 -1.326973E+05 -4.734570E-09  3.947682E-10
       367  15 -3.619034E+05 -4.242328E+04 -4.531094E+02 -1.244704E+05 -2.027576E-09  2.731883E-09
       367  16 -4.214355E+05 -6.491776E+04 -1.624882E+04 -1.408400E+05  5.732362E-10  5.639071E-09
       367  17 -3.927825E+05 -6.408641E+04 -1.056643E+04 -1.431908E+05 -1.759795E-09  7.229314E-09
       367  18 -3.787153E+05 -4.881230E+04 -5.037078E+03 -1.290961E+05 -4.539610E-09 -6.144309E-09
       367  19 -3.023618E+05 -1.988246E+04  1.545825E+04 -1.081170E+05 -2.468631E+02  2.137343E+03
       367  20 -3.164332E+05 -3.517939E+04  9.871672E+03 -1.222033E+05 -9.032076E+01  1.195000E+03
       367  21 -3.450913E+05 -3.603423E+04  4.130833E+03 -1.198446E+05  6.571292E+01  2.542700E+02
       367  22 -3.619003E+05 -4.240019E+04 -3.951045E+02 -1.244792E+05 -6.013626E+02  2.003073E+03
       367  23 -3.546085E+05 -4.963294E+04 -3.473081E+02 -1.326973E+05 -4.441593E+02  1.060960E+03
       367  24 -3.619034E+05 -4.242328E+04 -4.531092E+02 -1.244704E+05 -2.874705E+02  1.204566E+02
       367  25 -4.214355E+05 -6.491776E+04 -1.624881E+04 -1.408400E+05 -9.558255E+02  1.868817E+03
       367  26 -3.927825E+05 -6.408641E+04 -1.056643E+04 -1.431908E+05 -7.979743E+02  9.269295E+02
       367  27 -3.787153E+05 -4.881230E+04 -5.037077E+03 -1.290961E+05 -6.406434E+02 -1.335282E+01
       368   1 -3.829149E+05 -5.038258E+04 -6.254191E+03 -1.303196E+05 -1.918783E+02  2.909565E+02
       368   2 -3.969514E+05 -6.560087E+04 -1.222356E+04 -1.443357E+05 -5.673053E+01  1.347303E+03
       368   3 -4.257653E+05 -6.681304E+04 -1.868175E+04 -1.418098E+05  9.601200E+01  2.357493E+03
       368   4 -3.619238E+05 -4.237172E+04 -5.434741E+02 -1.245049E+05  1.728212E+02  4.291318E+02
       368   5 -3.545649E+05 -4.957042E+04 -8.812992E+02 -1.327024E+05  2.893274E+02  1.478392E+03
       368   6 -3.619799E+05 -4.275939E+04 -1.693062E+03 -1.243582E+05  4.234454E+02  2.481506E+03
       368   7 -3.409324E+05 -3.436086E+04  5.167190E+03 -1.186900E+05  5.375334E+02  5.673120E+02
       368   8 -3.121766E+05 -3.353986E+04  1.046080E+04 -1.210684E+05  6.354114E+02  1.609490E+03
       368   9 -2.981904E+05 -1.870543E+04  1.529531E+04 -1.069049E+05  7.509166E+02  2.605534E+03
       368  10 -3.829149E+05 -5.038258E+04 -6.254191E+03 -1.303196E+05  3.527317E-09 -9.850771E-10
       368  11 -3.969514E+05 -6.560087E+04 -1.222356E+04 -1.443357E+05  6.019639E-09 -1.236064E-08
       368  12 -4.257653E+05 -6.681305E+04 -1.868176E+04 -1.418098E+05  2.643181E-09 -5.380815E-09
       368  13 -3.619238E+05 -4.237172E+04 -5.434745E+02 -1.245049E+05 -5.633611E-10  5.785495E-09
       368  14 -3.545649E+05 -4.957042E+04 -8.813035E+02 -1.327024E+05  1.803128E-09 -5.661672E-09
       368  15 -3.619799E+05 -4.275939E+04 -1.693074E+03 -1.243582E+05  2.510830E-09 -8.880020E-09
       368  16 -3.409324E+05 -3.436086E+04  5.167189E+03 -1.186900E+05  4.933596E-10 -6.711173E-09
       368  17 -3.121766E+05 -3.353987E+04  1.046080E+04 -1.210684E+05  2.151683E-09 -7.000666E-09
       368  18 -2.981904E+05 -1.870544E+04  1.529529E+04 -1.069049E+05  3.075897E-09 -1.681564E-09
       368  19 -3.829149E+05 -5.038258E+04 -6.254191E+03 -1.303196E+05  1.918783E+02 -2.909565E+02
       368  20 -3.969514E+05 -6.560087E+04 -1.222356E+04 -1.443357E+05  5.673053E+01 -1.347303E+03
       368  21 -4.257653E+05 -6.681304E+04 -1.868175E+04 -1.418098E+05 -9.601200E+01 -2.357493E+03
       368  22 -3.619238E+05 -4.237172E+04 -5.434741E+02 -1.245049E+05 -1.728212E+02 -4.291318E+02
       368  23 -3.545649E+05 -4.957042E+04 -8.812992E+02 -1.327024E+05 -2.893274E+02 -1.478392E+03
       368  24 -3.619799E+05 -4.275939E+04 -1.693062E+03 -1.243582E+05 -4.234454E+02 -2.481506E+03
       368  25 -3.409324E+05 -3.436086E+04  5.167190E+03 -1.186900E+05 -5.375334E+02 -5.673120E+02
       368  26 -3.121766E+05 -3.353986E+04  1.046080E+04 -1.210684E+05 -6.354114E+02 -1.609490E+03
       368  27 -2.981904E+05 -1.870543E+04  1.529531E+04 -1.069049E+05 -7.509166E+02 -2.605534E+03
       369   1 -4.632216E+05 -8.098961E+04 -2.936181E+04 -1.528556E+05  6.471706E+01  3.006936E+03
       369   2 -4.769349E+05 -9.524522E+04 -3.646360E+04 -1.662315E+05  1.842390E+03  4.686099E+03
       369   3 -5.068801E+05 -9.938713E+04 -4.629661E+04 -1.622675E+05  3.798961E+03  5.893248E+03
       369   4 -3.621099E+05 -4.230993E+04 -2.144996E+03 -1.246765E+05  5.159535E+02  3.177809E+03
       369   5 -3.542468E+05 -4.901308E+04 -3.672259E+03 -1.327305E+05  2.103201E+03  4.784791E+03
       369   6 -3.625777E+05 -4.556442E+04 -7.779176E+03 -1.234451E+05  3.869407E+03  5.919830E+03
       369   7 -2.609885E+05 -3.629570E+03  2.507091E+04 -9.649323E+04  9.672709E+02  3.348713E+03
       369   8 -2.315443E+05 -2.780106E+03  2.911772E+04 -9.922365E+04  2.364067E+03  4.883503E+03
       369   9 -2.182556E+05  8.259289E+03  3.073634E+04 -8.461470E+04  3.939870E+03  5.946419E+03
       369  10 -4.632216E+05 -8.098962E+04 -2.936182E+04 -1.528556E+05 -2.967752E-09 -5.013300E-09
       369  11 -4.769349E+05 -9.524525E+04 -3.646365E+04 -1.662315E+05 -4.280115E-09  1.779882E-09
       369  12 -5.068801E+05 -9.938717E+04 -4.629670E+04 -1.622675E+05 -1.229846E-09 -5.933517E-10
       369  13 -3.621100E+05 -4.230994E+04 -2.145016E+03 -1.246765E+05  1.754693E-09  5.912986E-09
       369  14 -3.542468E+05 -4.901311E+04 -3.672310E+03 -1.327305E+05 -3.046313E-09 -1.730570E-09
       369  15 -3.625777E+05 -4.556446E+04 -7.779270E+03 -1.234451E+05 -5.174809E-11  2.862476E-09
       369  16 -2.609885E+05 -3.629583E+03  2.507088E+04 -9.649323E+04  4.312815E-09 -1.512776E-09
       369  17 -2.315443E+05 -2.780134E+03  2.911767E+04 -9.922366E+04  5.395449E-09 -6.643194E-09
       369  18 -2.182556E+05  8.259247E+03  3.073625E+04 -8.461472E+04  1.646827E-09  7.789374E-09
       369  19 -4.632216E+05 -8.098961E+04 -2.936181E+04 -1.528556E+05 -6.471706E+01 -3.006936E+03
       369  20 -4.769349E+05 -9.524522E+04 -3.646360E+04 -1.662315E+05 -1.842390E+03 -4.686099E+03
       369  21 -5.068801E+05 -9.938713E+04 -4.629661E+04 -1.622675E+05 -3.798961E+03 -5.893248E+03
       369  22 -3.621099E+05 -4.230993E+04 -2.144996E+03 -1.246765E+05 -5.159535E+02 -3.177809E+03
       369  23 -3.542468E+05 -4.901308E+04 -3.672259E+03 -1.327305E+05 -2.103201E+03 -4.784791E+03
       369  24 -3.625777E+05 -4.556442E+04 -7.779176E+03 -1.234451E+05 -3.869407E+03 -5.919830E+03
       369  25 -2.609885E+05 -3.629570E+03  2.507091E+04 -9.649323E+04 -9.672709E+02 -3.348713E+03
       369  26 -2.315443E+05 -2.780106E+03  2.911772E+04 -9.922365E+04 -2.364067E+03 -4.883503E+03
       369  27 -2.182556E+05  8.259289E+03  3.073634E+04 -8.461470E+04 -3.939870E+03 -5.946419E+03
       370   1 -5.423239E+05 -1.123064E+05 -5.792854E+04 -1.781010E+05  3.406925E+03  7.148332E+03
       370   2 -5.544746E+05 -1.194429E+05 -6.935481E+04 -1.869843E+05  1.355131E+04  1.205837E+04
       370   3 -5.952966E+05 -1.479194E+05 -9.828105E+04 -1.708267E+05  2.555782E+04  1.204336E+04
       370   4 -3.637074E+05 -4.158839E+04 -9.518102E+03 -1.258521E+05  4.782495E+03  7.668798E+03
       370   5 -3.515073E+05 -4.464211E+04 -1.552578E+04 -1.332604E+05  1.293923E+04  1.182663E+04
       370   6 -3.675795E+05 -6.863427E+04 -3.745184E+04 -1.156288E+05  2.295820E+04  1.106015E+04
       370   7 -1.850595E+05  2.913269E+04  3.888965E+04 -7.358911E+04  6.158505E+03  8.189447E+03
       370   8 -1.485004E+05  3.016066E+04  3.829965E+04 -7.952086E+04  1.232692E+04  1.159482E+04
       370   9 -1.398139E+05  1.065161E+04  2.337264E+04 -6.041385E+04  2.035753E+04  1.007662E+04
       370  10 -5.423239E+05 -1.123065E+05 -5.792866E+04 -1.781010E+05 -1.227742E-09  3.887467E-09
       370  11 -5.544748E+05 -1.194431E+05 -6.935543E+04 -1.869845E+05  2.145279E-09  4.678137E-09
       370  12 -5.952973E+05 -1.479198E+05 -9.828255E+04 -1.708270E+05  1.646988E-09  1.872546E-09
       370  13 -3.637074E+05 -4.158846E+04 -9.518256E+03 -1.258521E+05  1.528798E-09 -6.033796E-09
       370  14 -3.515075E+05 -4.464231E+04 -1.552636E+04 -1.332605E+05 -1.219069E-09  3.323453E-09
       370  15 -3.675801E+05 -6.863455E+04 -3.745306E+04 -1.156290E+05 -2.119725E-10  1.005193E-09
       370  16 -1.850595E+05  2.913261E+04  3.888945E+04 -7.358915E+04 -2.150278E-10  7.203165E-09
       370  17 -1.485006E+05  3.016048E+04  3.829912E+04 -7.952097E+04 -3.545597E-10  1.804619E-09
       370  18 -1.398143E+05  1.065139E+04  2.337167E+04 -6.041402E+04 -1.281326E-09 -2.599274E-09
       370  19 -5.423239E+05 -1.123064E+05 -5.792854E+04 -1.781010E+05 -3.406925E+03 -7.148332E+03
       370  20 -5.544746E+05 -1.194429E+05 -6.935481E+04 -1.869843E+05 -1.355131E+04 -1.205837E+04
       370  21 -5.952966E+05 -1.479194E+05 -9.828105E+04 -1.708267E+05 -2.555782E+04 -1.204336E+04
       370  22 -3.637074E+05 -4.158839E+04 -9.518102E+03 -1.258521E+05 -4.782495E+03 -7.668798E+03
       370  23 -3.515073E+05 -4.464211E+04 -1.552578E+04 -1.332604E+05 -1.293923E+04 -1.182663E+04
       370  24 -3.675795E+05 -6.863427E+04 -3.745184E+04 -1.156288E+05 -2.295820E+04 -1.106015E+04
       370  25 -1.850595E+05  2.913269E+04  3.888965E+04 -7.358911E+04 -6.158505E+03 -8.189447E+03
       370  26 -1.485004E+05  3.016066E+04  3.829965E+04 -7.952086E+04 -1.232692E+04 -1.159482E+04
       370  27 -1.398139E+05  1.065161E+04  2.337264E+04 -6.041385E+04 -2.035753E+04 -1.007662E+04
       371   1 -2.440791E+05  1.079062E+03 -3.700799E+04 -2.007490E+04 -1.113732E+05 -5.255242E+03
       371   2 -2.554069E+05  1.496677E+05  4.885405E+04 -8.449915E+03 -7.547455E+04 -1.495969E+04
       371   3 -3.144365E+05  1.254799E+05  6.820892E+04  3.366358E+04 -3.961237E+04 -1.347800E+04
       371   4 -7.919148E+05 -1.354199E+05 -1.726066E+05  1.629058E+04 -1.179516E+05 -5.281284E+03
       371   5 -7.675962E+05  2.245976E+04 -7.511165E+04  8.327434E+02 -7.725484E+04 -1.496753E+04
       371   6 -7.918570E+05  6.649512E+03 -4.750019E+04  1.586551E+04 -3.659214E+04 -1.346671E+04
       371   7 -1.339474E+06 -2.719362E+05 -3.082267E+05  5.262373E+04 -1.245242E+05 -5.308111E+03
       371   8 -1.279545E+06 -1.047670E+05 -1.990961E+05  1.010752E+04 -7.903365E+04 -1.497543E+04
       371   9 -1.269068E+06 -1.121965E+05 -1.632255E+05 -1.919014E+03 -3.357422E+04 -1.345559E+04
       371  10 -2.440924E+05  1.075700E+03 -3.703136E+04 -2.007537E+04 -4.344921E-09  1.966525E-09
       371  11 -2.554131E+05  1.496659E+05  4.884292E+04 -8.450824E+03 -1.637349E-09  1.358325E-08
       371  12 -3.144383E+05  1.254793E+05  6.820563E+04  3.366315E+04  2.421772E-09  1.949341E-09
       371  13 -7.919297E+05 -1.354237E+05 -1.726329E+05  1.629008E+04  1.578806E-09 -3.664257E-09
       371  14 -7.676026E+05  2.245791E+04 -7.512330E+04  8.318118E+02  2.961698E-10 -6.839853E-09
       371  15 -7.918584E+05  6.648957E+03 -4.750305E+04  1.586511E+04 -1.032069E-09 -5.442788E-10
       371  16 -1.339491E+06 -2.719404E+05 -3.082560E+05  5.262320E+04  4.936116E-09  1.698326E-09
       371  17 -1.279552E+06 -1.047690E+05 -1.991083E+05  1.010657E+04  1.582318E-09  8.142827E-09
       371  18 -1.269070E+06 -1.121970E+05 -1.632280E+05 -1.919378E+03 -1.684924E-09 -3.852362E-09
       371  19 -2.440791E+05  1.079062E+03 -3.700799E+04 -2.007490E+04  1.113732E+05  5.255242E+03
       371  20 -2.554069E+05  1.496677E+05  4.885405E+04 -8.449915E+03  7.547455E+04  1.495969E+04
       371  21 -3.144365E+05  1.254799E+05  6.820892E+04  3.366358E+04  3.961237E+04  1.347800E+04
       371  22 -7.919148E+05 -1.354199E+05 -1.726066E+05  1.629058E+04  1.179516E+05  5.281284E+03
       371  23 -7.675962E+05  2.245976E+04 -7.511165E+04  8.327434E+02  7.725484E+04  1.496753E+04
       371  24 -7.918570E+05  6.649512E+03 -4.750019E+04  1.586551E+04  3.659214E+04  1.346671E+04
       371  25 -1.339474E+06 -2.719362E+05 -3.082267E+05  5.262373E+04  1.245242E+05  5.308111E+03
       371  26 -1.279545E+06 -1.047670E+05 -1.990961E+05  1.010752E+04  7.903365E+04  1.497543E+04
       371  27 -1.269068E+06 -1.121965E+05 -1.632255E+05 -1.919014E+03  3.357422E+04  1.345559E+04
       372   1 -3.633540E+05  8.857372E+04  6.286193E+04  1.358849E+04 -2.908291E+04 -1.101656E+04
       372   2 -3.970153E+05  9.767618E+04  7.315020E+04  5.008813E+02 -1.946377E+04 -1.057496E+04
       372   3 -4.370129E+05  8.683722E+04  7.216999E+04  1.947548E+04 -9.850406E+03 -9.114543E+03
       372   4 -7.824859E+05 -1.562873E+04 -3.891347E+04  1.639855E+04 -2.911475E+04 -1.101735E+04
       372   5 -7.792704E+05  2.646430E+03 -1.952223E+04  3.347088E+02 -1.906182E+04 -1.057379E+04
       372   6 -7.824730E+05  8.975676E+02 -1.170666E+04  1.633454E+04 -9.014082E+03 -9.111217E+03
       372   7 -1.201457E+06 -1.198441E+05 -1.407016E+05  1.920656E+04 -2.914657E+04 -1.101814E+04
       372   8 -1.161392E+06 -9.239405E+04 -1.122052E+05  1.685043E+02 -1.866010E+04 -1.057261E+04
       372   9 -1.127824E+06 -8.505084E+04 -9.559194E+04  1.319524E+04 -8.178221E+03 -9.107900E+03
       372  10 -3.633549E+05  8.857336E+04  6.286011E+04  1.358823E+04 -3.296757E-09 -5.659120E-09
       372  11 -3.970158E+05  9.767595E+04  7.314927E+04  5.007156E+02 -6.657886E-10  2.772303E-09
       372  12 -4.370130E+05  8.683711E+04  7.216965E+04  1.947541E+04  7.501850E-09  1.233172E-08
       372  13 -7.824868E+05 -1.562909E+04 -3.891529E+04  1.639829E+04  1.418676E-09  7.463837E-09
       372  14 -7.792709E+05  2.646212E+03 -1.952313E+04  3.345464E+02  1.093549E-10 -2.066643E-08
       372  15 -7.824731E+05  8.974567E+02 -1.170697E+04  1.633448E+04  1.577637E-09  1.173270E-08
       372  16 -1.201458E+06 -1.198444E+05 -1.407034E+05  1.920630E+04  4.108547E-09 -1.099426E-08
       372  17 -1.161392E+06 -9.239426E+04 -1.122061E+05  1.683453E+02  3.479368E-09 -5.322369E-09
       372  18 -1.127824E+06 -8.505094E+04 -9.559222E+04  1.319518E+04 -4.469315E-09  3.038674E-10
       372  19 -3.633540E+05  8.857372E+04  6.286193E+04  1.358849E+04  2.908291E+04  1.101656E+04
       372  20 -3.970153E+05  9.767618E+04  7.315020E+04  5.008813E+02  1.946377E+04  1.057496E+04
       372  21 -4.370129E+05  8.683722E+04  7.216999E+04  1.947548E+04  9.850406E+03  9.114543E+03
       372  22 -7.824859E+05 -1.562873E+04 -3.891347E+04  1.639855E+04  2.911475E+04  1.101735E+04
       372  23 -7.792704E+05  2.646430E+03 -1.952223E+04  3.347088E+02  1.906182E+04  1.057379E+04
       372  24 -7.824730E+05  8.975676E+02 -1.170666E+04  1.633454E+04  9.014082E+03  9.111217E+03
       372  25 -1.201457E+06 -1.198441E+05 -1.407016E+05  1.920656E+04  2.914657E+04  1.101814E+04
       372  26 -1.161392E+06 -9.239405E+04 -1.122052E+05  1.685043E+02  1.866010E+04  1.057261E+04
       372  27 -1.127824E+06 -8.505084E+04 -9.559194E+04  1.319524E+04  8.178221E+03  9.107900E+03
       373   1 -4.967719E+05  6.906014E+04  5.968049E+04  1.719261E+04 -7.729389E+03 -8.125206E+03
       373   2 -5.343247E+05  6.159239E+04  5.475691E+04  8.046176E+02 -5.266615E+03 -6.753891E+03
       373   3 -5.729984E+05  5.208110E+04  4.765688E+04  1.761265E+04 -2.805283E+03 -5.275935E+03
       373   4 -7.812880E+05 -1.664505E+03 -9.223081E+03  1.661292E+04 -7.162968E+03 -8.122926E+03
       373   5 -7.807207E+05  3.234086E+02 -4.994689E+03  1.000375E+01 -4.655208E+03 -6.751241E+03
       373   6 -7.812835E+05  2.595858E+02 -2.974581E+03  1.660395E+04 -2.148740E+03 -5.272893E+03
       373   7 -1.065730E+06 -7.239509E+04 -7.813248E+04  1.603341E+04 -6.596806E+03 -8.120648E+03
       373   8 -1.027061E+06 -6.095003E+04 -6.475067E+04 -7.843573E+02 -4.044043E+03 -6.748592E+03
       373   9 -9.895290E+05 -5.156512E+04 -5.360919E+04  1.559553E+04 -1.492417E+03 -5.269853E+03
       373  10 -4.967720E+05  6.906005E+04  5.968025E+04  1.719256E+04  3.709778E-09 -5.387510E-09
       373  11 -5.343248E+05  6.159233E+04  5.475678E+04  8.045889E+02 -4.902292E-09 -6.038582E-09
       373  12 -5.729984E+05  5.208106E+04  4.765682E+04  1.761264E+04 -1.461153E-09 -9.113553E-09
       373  13 -7.812880E+05 -1.664590E+03 -9.223301E+03  1.661287E+04  2.348738E-09 -3.513347E-09
       373  14 -7.807208E+05  3.233539E+02 -4.994816E+03  9.978431E+00 -2.402550E-10 -6.744524E-09
       373  15 -7.812835E+05  2.595547E+02 -2.974642E+03  1.660394E+04  8.662052E-10 -8.436717E-09
       373  16 -1.065730E+06 -7.239517E+04 -7.813268E+04  1.603337E+04 -2.770665E-09 -1.279598E-08
       373  17 -1.027061E+06 -6.095008E+04 -6.475079E+04 -7.843793E+02  5.825650E-09  5.566446E-09
       373  18 -9.895290E+05 -5.156515E+04 -5.360924E+04  1.559553E+04  2.801098E-09  1.369337E-08
       373  19 -4.967719E+05  6.906014E+04  5.968049E+04  1.719261E+04  7.729389E+03  8.125206E+03
       373  20 -5.343247E+05  6.159239E+04  5.475691E+04  8.046176E+02  5.266615E+03  6.753891E+03
       373  21 -5.729984E+05  5.208110E+04  4.765688E+04  1.761265E+04  2.805283E+03  5.275935E+03
       373  22 -7.812880E+05 -1.664505E+03 -9.223081E+03  1.661292E+04  7.162968E+03  8.122926E+03
       373  23 -7.807207E+05  3.234086E+02 -4.994689E+03  1.000375E+01  4.655208E+03  6.751241E+03
       373  24 -7.812835E+05  2.595858E+02 -2.974581E+03  1.660395E+04  2.148740E+03  5.272893E+03
       373  25 -1.065730E+06 -7.239509E+04 -7.813248E+04  1.603341E+04  6.596806E+03  8.120648E+03
       373  26 -1.027061E+06 -6.095003E+04 -6.475067E+04 -7.843573E+02  4.044043E+03  6.748592E+03
       373  27 -9.895290E+05 -5.156512E+04 -5.360919E+04  1.559553E+04  1.492417E+03  5.269853E+03
       374   1 -6.354724E+05  3.617004E+04  3.286452E+04  1.725842E+04 -2.309416E+03 -4.400811E+03
       374   2 -6.740794E+05  2.662187E+04  2.446345E+04  2.314429E+02 -1.605211E+03 -2.923332E+03
       374   3 -7.131673E+05  1.711059E+04  1.552824E+04  1.703789E+04 -9.015047E+02 -1.430568E+03
       374   4 -7.811334E+05 -2.967736E+01 -2.345232E+03  1.674889E+04 -1.676198E+03 -4.397790E+03
       374   5 -7.808908E+05  5.906289E+01 -1.441431E+03 -1.686424E+02 -9.655619E+02 -2.920204E+03
       374   6 -7.811317E+05  1.836262E+02 -1.076249E+03  1.674760E+04 -2.553813E+02 -1.427329E+03
       374   7 -9.267749E+05 -3.623094E+04 -3.755650E+04  1.623945E+04 -1.043127E+03 -4.394769E+03
       374   8 -8.876918E+05 -2.650459E+04 -2.734713E+04 -5.686714E+02 -3.260226E+02 -2.917078E+03
       374   9 -8.490919E+05 -1.674368E+04 -1.768108E+04  1.645735E+04  3.906716E+02 -1.424090E+03
       374  10 -6.354724E+05  3.617001E+04  3.286447E+04  1.725841E+04  3.747191E-09 -1.719005E-08
       374  11 -6.740794E+05  2.662186E+04  2.446343E+04  2.314391E+02 -3.385936E-09  3.602817E-09
       374  12 -7.131673E+05  1.711059E+04  1.552824E+04  1.703788E+04 -4.061400E-09 -2.989518E-09
       374  13 -7.811334E+05 -2.969887E+01 -2.345274E+03  1.674888E+04  2.039443E-09  1.049404E-09
       374  14 -7.808908E+05  5.905349E+01 -1.441449E+03 -1.686447E+02  5.740763E-10 -1.115302E-08
       374  15 -7.811317E+05  1.836240E+02 -1.076253E+03  1.674760E+04  1.387660E-09 -8.321781E-09
       374  16 -9.267749E+05 -3.623096E+04 -3.755654E+04  1.623945E+04 -3.172778E-09  7.711130E-09
       374  17 -8.876918E+05 -2.650459E+04 -2.734715E+04 -5.686722E+02  1.857054E-09  1.328727E-08
       374  18 -8.490919E+05 -1.674368E+04 -1.768108E+04  1.645735E+04  5.747454E-09  1.009894E-09
       374  19 -6.354724E+05  3.617004E+04  3.286452E+04  1.725842E+04  2.309416E+03  4.400811E+03
       374  20 -6.740794E+05  2.662187E+04  2.446345E+04  2.314429E+02  1.605211E+03  2.923332E+03
       374  21 -7.131673E+05  1.711059E+04  1.552824E+04  1.703789E+04  9.015047E+02  1.430568E+03
       374  22 -7.811334E+05 -2.967736E+01 -2.345232E+03  1.674889E+04  1.676198E+03  4.397790E+03
       374  23 -7.808908E+05  5.906289E+01 -1.441431E+03 -1.686424E+02  9.655619E+02  2.920204E+03
       374  24 -7.811317E+05  1.836262E+02 -1.076249E+03  1.674760E+04  2.553813E+02  1.427329E+03
       374  25 -9.267749E+05 -3.623094E+04 -3.755650E+04  1.623945E+04  1.043127E+03  4.394769E+03
       374  26 -8.876918E+05 -2.650459E+04 -2.734713E+04 -5.686714E+02  3.260226E+02  2.917078E+03
       374  27 -8.490919E+05 -1.674368E+04 -1.768108E+04  1.645735E+04 -3.906716E+02  1.424090E+03
       375   1 -7.765026E+05  1.297826E+03 -1.927069E+01  1.677405E+04 -7.168832E+02 -5.574789E+02
       375   2 -8.152653E+05 -8.498230E+03 -9.464348E+03 -3.350629E+02 -1.592248E+02  9.376909E+02
       375   3 -8.544913E+05 -1.817403E+04 -1.933219E+04  1.652148E+04  3.985566E+02  2.424033E+03
       375   4 -7.811261E+05  1.722435E+02 -1.020356E+03  1.677700E+04 -7.090412E+01 -5.542211E+02
       375   5 -7.808941E+05  5.023813E+01 -1.127683E+03 -2.054526E+02  4.829411E+02  9.409021E+02
       375   6 -7.811267E+05  4.912626E+01 -1.655162E+03  1.677763E+04  1.036945E+03  2.427203E+03
       375   7 -7.857496E+05 -9.533402E+02 -2.021440E+03  1.677994E+04  5.750702E+02 -5.509632E+02
       375   8 -7.465218E+05  8.598620E+03  7.208899E+03 -7.583647E+01  1.125142E+03  9.441136E+02
       375   9 -7.077571E+05  1.827189E+04  1.602149E+04  1.703380E+04  1.675408E+03  2.430374E+03
       375  10 -7.765026E+05  1.297825E+03 -1.927224E+01  1.677405E+04 -6.831270E-09 -4.634048E-09
       375  11 -8.152653E+05 -8.498231E+03 -9.464350E+03 -3.350628E+02 -2.958921E-09 -6.734573E-09
       375  12 -8.544913E+05 -1.817403E+04 -1.933220E+04  1.652148E+04 -1.106889E-09 -7.294825E-09
       375  13 -7.811261E+05  1.722431E+02 -1.020356E+03  1.677700E+04  2.654371E-09  1.258301E-08
       375  14 -7.808941E+05  5.023711E+01 -1.127685E+03 -2.054530E+02  1.887765E-09 -4.568712E-09
       375  15 -7.811267E+05  4.911965E+01 -1.655175E+03  1.677763E+04  2.180034E-09 -5.999967E-09
       375  16 -7.857496E+05 -9.533406E+02 -2.021442E+03  1.677994E+04  8.553500E-09 -3.708591E-10
       375  17 -7.465218E+05  8.598619E+03  7.208895E+03 -7.583733E+01  5.812786E-09 -1.857569E-08
       375  18 -7.077571E+05  1.827188E+04  1.602147E+04  1.703380E+04  4.336584E-09 -1.054840E-08
       375  19 -7.765026E+05  1.297826E+03 -1.927069E+01  1.677405E+04  7.168832E+02  5.574789E+02
       375  20 -8.152653E+05 -8.498230E+03 -9.464348E+03 -3.350629E+02  1.592248E+02 -9.376909E+02
       375  21 -8.544913E+05 -1.817403E+04 -1.933219E+04  1.652148E+04 -3.985566E+02 -2.424033E+03
       375  22 -7.811261E+05  1.722435E+02 -1.020356E+03  1.677700E+04  7.090412E+01  5.542211E+02
       375  23 -7.808941E+05  5.023813E+01 -1.127683E+03 -2.054526E+02 -4.829411E+02 -9.409021E+02
       375  24 -7.811267E+05  4.912626E+01 -1.655162E+03  1.677763E+04 -1.036945E+03 -2.427203E+03
       375  25 -7.857496E+05 -9.533402E+02 -2.021440E+03  1.677994E+04 -5.750702E+02  5.509632E+02
       375  26 -7.465218E+05  8.598620E+03  7.208899E+03 -7.583647E+01 -1.125142E+03 -9.441136E+02
       375  27 -7.077571E+05  1.827189E+04  1.602149E+04  1.703380E+04 -1.675408E+03 -2.430374E+03
       376   1 -9.176873E+05 -3.372856E+04 -3.527023E+04  1.601344E+04  7.056338E+02  3.303846E+03
       376   2 -9.557961E+05 -4.330637E+04 -4.580729E+04 -6.900450E+02  2.425692E+03  4.793818E+03
       376   3 -9.947993E+05 -5.413930E+04 -5.785537E+04  1.619006E+04  4.146712E+03  6.192647E+03
       376   4 -7.812247E+05  2.391214E+02 -2.049272E+03  1.669028E+04  1.364797E+03  3.307063E+03
       376   5 -7.807822E+05  2.240325E+02 -3.355441E+03 -9.808045E+01  3.045942E+03  4.796717E+03
       376   6 -7.812279E+05 -1.038877E+03 -6.144973E+03  1.669656E+04  4.728155E+03  6.195243E+03
       376   7 -6.447450E+05  3.420543E+04  3.117033E+04  1.736725E+04  2.024106E+03  3.310282E+03
       376   8 -6.057403E+05  4.375218E+04  3.909420E+04  4.940181E+02  3.666367E+03  4.799617E+03
       376   9 -5.676148E+05  5.205820E+04  4.556214E+04  1.720319E+04  5.309797E+03  6.197840E+03
       376  10 -9.176873E+05 -3.372857E+04 -3.527025E+04  1.601344E+04 -7.652814E-09 -4.749939E-09
       376  11 -9.557961E+05 -4.330640E+04 -4.580735E+04 -6.900544E+02 -5.634277E-09 -8.644485E-09
       376  12 -9.947993E+05 -5.413935E+04 -5.785547E+04  1.619004E+04  3.143777E-09  1.466015E-09
       376  13 -7.812247E+05  2.391092E+02 -2.049296E+03  1.669028E+04  1.601417E-09 -7.972284E-09
       376  14 -7.807822E+05  2.240053E+02 -3.355501E+03 -9.809222E+01 -5.538954E-10  1.086191E-09
       376  15 -7.812280E+05 -1.038924E+03 -6.145087E+03  1.669654E+04  2.163265E-10  1.170868E-08
       376  16 -6.447450E+05  3.420542E+04  3.117030E+04  1.736725E+04  7.982229E-09  5.585364E-09
       376  17 -6.057403E+05  4.375216E+04  3.909413E+04  4.940040E+02  6.847960E-09 -6.593338E-09
       376  18 -5.676149E+05  5.205815E+04  4.556201E+04  1.720316E+04 -7.727916E-10  1.364429E-08
       376  19 -9.176873E+05 -3.372856E+04 -3.527023E+04  1.601344E+04 -7.056338E+02 -3.303846E+03
       376  20 -9.557961E+05 -4.330637E+04 -4.580729E+04 -6.900450E+02 -2.425692E+03 -4.793818E+03
       376  21 -9.947993E+05 -5.413930E+04 -5.785537E+04  1.619006E+04 -4.146712E+03 -6.192647E+03
       376  22 -7.812247E+05  2.391214E+02 -2.049272E+03  1.669028E+04 -1.364797E+03 -3.307063E+03
       376  23 -7.807822E+05  2.240325E+02 -3.355441E+03 -9.808045E+01 -3.045942E+03 -4.796717E+03
       376  24 -7.812279E+05 -1.038877E+03 -6.144973E+03  1.669656E+04 -4.728155E+03 -6.195243E+03
       376  25 -6.447450E+05  3.420543E+04  3.117033E+04  1.736725E+04 -2.024106E+03 -3.310282E+03
       376  26 -6.057403E+05  4.375218E+04  3.909420E+04  4.940181E+02 -3.666367E+03 -4.799617E+03
       376  27 -5.676148E+05  5.205820E+04  4.556214E+04  1.720319E+04 -5.309797E+03 -6.197840E+03
       377   1 -1.057473E+06 -6.789315E+04 -7.471577E+04  1.419282E+04  5.137632E+03  7.175368E+03
       377   2 -1.092807E+06 -7.607925E+04 -8.887249E+04 -2.139632E+02  1.219351E+04  8.655046E+03
       377   3 -1.132581E+06 -9.751174E+04 -1.109855E+05  1.808927E+04  1.925373E+04  9.232775E+03
       377   4 -7.820100E+05  6.624059E+02 -7.785787E+03  1.648337E+04  5.958568E+03  7.178954E+03
       377   5 -7.798290E+05  1.762319E+03 -1.296448E+04  1.520933E+02  1.262833E+04  8.656651E+03
       377   6 -7.820196E+05 -1.031307E+04 -2.582797E+04  1.652991E+04  1.930287E+04  9.232560E+03
       377   7 -5.064781E+05  6.921238E+04  5.913871E+04  1.877486E+04  6.779869E+03  7.182545E+03
       377   8 -4.667617E+05  7.959669E+04  6.293646E+04  5.182376E+02  1.306338E+04  8.658256E+03
       377   9 -4.313459E+05  7.687658E+04  5.932069E+04  1.496956E+04  1.935203E+04  9.232345E+03
       377  10 -1.057473E+06 -6.789321E+04 -7.471592E+04  1.419279E+04  1.008251E-08  1.606768E-09
       377  11 -1.092807E+06 -7.607937E+04 -8.887291E+04 -2.140483E+02 -2.902802E-09  1.263651E-08
       377  12 -1.132581E+06 -9.751193E+04 -1.109864E+05  1.808912E+04 -4.242848E-09 -8.173152E-09
       377  13 -7.820101E+05  6.623410E+02 -7.785951E+03  1.648334E+04  2.489835E-09 -4.619291E-09
       377  14 -7.798292E+05  1.762196E+03 -1.296492E+04  1.520052E+02  7.704839E-10  1.381067E-08
       377  15 -7.820200E+05 -1.031326E+04 -2.582883E+04  1.652977E+04 -7.572018E-10  3.359983E-09
       377  16 -5.064781E+05  6.921232E+04  5.913852E+04  1.877482E+04 -9.777704E-09 -1.015913E-09
       377  17 -4.667619E+05  7.959656E+04  6.293600E+04  5.181465E+02  4.002379E-09 -2.288064E-08
       377  18 -4.313464E+05  7.687638E+04  5.931982E+04  1.496942E+04  6.404394E-09  1.731998E-10
       377  19 -1.057473E+06 -6.789315E+04 -7.471577E+04  1.419282E+04 -5.137632E+03 -7.175368E+03
       377  20 -1.092807E+06 -7.607925E+04 -8.887249E+04 -2.139632E+02 -1.219351E+04 -8.655046E+03
       377  21 -1.132581E+06 -9.751174E+04 -1.109855E+05  1.808927E+04 -1.925373E+04 -9.232775E+03
       377  22 -7.820100E+05  6.624059E+02 -7.785787E+03  1.648337E+04 -5.958568E+03 -7.178954E+03
       377  23 -7.798290E+05  1.762319E+03 -1.296448E+04  1.520933E+02 -1.262833E+04 -8.656651E+03
       377  24 -7.820196E+05 -1.031307E+04 -2.582797E+04  1.652991E+04 -1.930287E+04 -9.232560E+03
       377  25 -5.064781E+05  6.921238E+04  5.913871E+04  1.877486E+04 -6.779869E+03 -7.182545E+03
       377  26 -4.667617E+05  7.959669E+04  6.293646E+04  5.182376E+02 -1.306338E+04 -8.658256E+03
       377  27 -4.313459E+05  7.687658E+04  5.932069E+04  1.496956E+04 -1.935203E+04 -9.232345E+03
       378   1 -1.198506E+06 -9.768630E+04 -1.310197E+05  3.911078E+03  2.150387E+04  1.150457E+04
       378   2 -1.218151E+06 -9.595401E+04 -1.578677E+05  6.324951E+03  5.275284E+04  1.303002E+04
       378   3 -1.270854E+06 -2.101484E+05 -2.340704E+05  4.008957E+04  8.403421E+04  4.623100E+03
       378   4 -7.882289E+05  4.471341E+03 -3.152198E+04  1.608987E+04  2.426195E+04  1.151552E+04
       378   5 -7.721023E+05  1.490259E+04 -4.984910E+04  5.778682E+02  5.124334E+04  1.302326E+04
       378   6 -7.882697E+05 -8.980733E+04 -1.145397E+05  1.641693E+04  7.825924E+04  4.599962E+03
       378   7 -3.777979E+05  1.066171E+05  6.796366E+04  2.827660E+04  2.702185E+04  1.152657E+04
       378   8 -3.258717E+05  1.257447E+05  5.815520E+04 -5.173531E+03  4.973275E+04  1.301652E+04
       378   9 -3.054723E+05  3.051854E+04  4.974188E+03 -7.274329E+03  7.247976E+04  4.577276E+03
       378  10 -1.198506E+06 -9.768657E+04 -1.310208E+05  3.910879E+03  4.827258E-09 -6.949042E-09
       378  11 -1.218154E+06 -9.595494E+04 -1.578732E+05  6.324397E+03  4.023866E-09 -3.102904E-09
       378  12 -1.270861E+06 -2.101504E+05 -2.340838E+05  4.008925E+04  2.326092E-09  1.061994E-08
       378  13 -7.882296E+05  4.471040E+03 -3.152334E+04  1.608965E+04  3.195068E-09  5.750456E-10
       378  14 -7.721051E+05  1.490170E+04 -4.985436E+04  5.773306E+02  7.954459E-10  3.046796E-11
       378  15 -7.882763E+05 -8.980900E+04 -1.145512E+05  1.641664E+04 -5.821049E-10  6.349079E-09
       378  16 -3.777987E+05  1.066168E+05  6.796204E+04  2.827635E+04 -4.182263E-09  7.400026E-09
       378  17 -3.258744E+05  1.257439E+05  5.815023E+04 -5.174052E+03 -2.573195E-09  1.171490E-08
       378  18 -3.054779E+05  3.051710E+04  4.964271E+03 -7.274596E+03 -8.624248E-10 -1.753668E-09
       378  19 -1.198506E+06 -9.768630E+04 -1.310197E+05  3.911078E+03 -2.150387E+04 -1.150457E+04
       378  20 -1.218151E+06 -9.595401E+04 -1.578677E+05  6.324951E+03 -5.275284E+04 -1.303002E+04
       378  21 -1.270854E+06 -2.101484E+05 -2.340704E+05  4.008957E+04 -8.403421E+04 -4.623100E+03
       378  22 -7.882289E+05  4.471341E+03 -3.152198E+04  1.608987E+04 -2.426195E+04 -1.151552E+04
       378  23 -7.721023E+05  1.490259E+04 -4.984910E+04  5.778682E+02 -5.124334E+04 -1.302326E+04
       378  24 -7.882697E+05 -8.980733E+04 -1.145397E+05  1.641693E+04 -7.825924E+04 -4.599962E+03
       378  25 -3.777979E+05  1.066171E+05  6.796366E+04  2.827660E+04 -2.702185E+04 -1.152657E+04
       378  26 -3.258717E+05  1.257447E+05  5.815520E+04 -5.173531E+03 -4.973275E+04 -1.301652E+04
       378  27 -3.054723E+05  3.051854E+04  4.974188E+03 -7.274329E+03 -7.247976E+04 -4.577276E+03
       379   1 -1.584796E+05 -6.060868E+05 -1.523030E+05  1.533294E+05 -6.264198E+03 -5.220641E+04
       379   2 -1.124325E+05 -4.797529E+05 -9.455187E+04  1.363899E+05 -1.974929E+04 -2.225852E+04
       379   3 -7.878577E+04 -3.602413E+05 -5.940200E+04  1.424298E+05 -1.996675E+04  7.733185E+03
       379   4 -1.638225E+04 -3.163678E+04 -1.681595E+04  1.421670E+05 -6.361272E+03 -1.279224E+04
       379   5 -5.118453E+03 -3.046731E+04 -7.562286E+03  1.306953E+05 -1.978038E+04 -8.929424E+03
       379   6 -1.718330E+03 -3.160031E+04 -2.781469E+03  1.422033E+05 -1.993574E+04 -5.029612E+03
       379   7  1.256927E+05  5.431206E+05  1.186542E+05  1.309943E+05 -6.459722E+03  2.665821E+04
       379   8  1.021838E+05  4.190128E+05  7.941852E+04  1.249966E+05 -1.981170E+04  4.409106E+03
       379   9  7.534340E+04  2.971471E+05  5.383600E+04  1.419767E+05 -1.990474E+04 -1.779896E+04
       379  10 -1.584803E+05 -6.060898E+05 -1.523082E+05  1.533292E+05  6.941608E-10  5.558083E-09
       379  11 -1.124331E+05 -4.797535E+05 -9.455354E+04  1.363896E+05 -1.389474E-09  3.756918E-09
       379  12 -7.878621E+04 -3.602415E+05 -5.940287E+04  1.424299E+05  1.524772E-09  4.169847E-10
       379  13 -1.638234E+04 -3.163697E+04 -1.681633E+04  1.421670E+05  1.513955E-09  6.961430E-09
       379  14 -5.118895E+03 -3.046750E+04 -7.563171E+03  1.306952E+05 -4.139138E-09 -5.743097E-09
       379  15 -1.718764E+03 -3.160044E+04 -2.782263E+03  1.422032E+05 -5.773802E-10  3.506145E-09
       379  16  1.256925E+05  5.431198E+05  1.186528E+05  1.309945E+05 -1.121378E-10 -2.078455E-09
       379  17  1.021834E+05  4.190127E+05  7.941775E+04  1.249966E+05 -1.625513E-09 -3.599093E-09
       379  18  7.534289E+04  2.971467E+05  5.383466E+04  1.419764E+05 -3.790995E-09 -3.330388E-09
       379  19 -1.584796E+05 -6.060868E+05 -1.523030E+05  1.533294E+05  6.264198E+03  5.220641E+04
       379  20 -1.124325E+05 -4.797529E+05 -9.455187E+04  1.363899E+05  1.974929E+04  2.225852E+04
       379  21 -7.878577E+04 -3.602413E+05 -5.940200E+04  1.424298E+05  1.996675E+04 -7.733185E+03
       379  22 -1.638225E+04 -3.163678E+04 -1.681595E+04  1.421670E+05  6.361272E+03  1.279224E+04
       379  23 -5.118453E+03 -3.046731E+04 -7.562286E+03  1.306953E+05  1.978038E+04  8.929424E+03
       379  24 -1.718330E+03 -3.160031E+04 -2.781469E+03  1.422033E+05  1.993574E+04  5.029612E+03
       379  25  1.256927E+05  5.431206E+05  1.186542E+05  1.309943E+05  6.459722E+03 -2.665821E+04
       379  26  1.021838E+05  4.190128E+05  7.941852E+04  1.249966E+05  1.981170E+04 -4.409106E+03
       379  27  7.534340E+04  2.971471E+05  5.383600E+04  1.419767E+05  1.990474E+04  1.779896E+04
       380   1 -6.006992E+04 -2.809754E+05 -4.338897E+04  1.430694E+05 -1.572140E+04  7.519248E+03
       380   2 -2.975523E+04 -1.582337E+05 -1.746579E+04  1.313039E+05 -9.161786E+03  7.435652E+03
       380   3  9.885666E+02 -3.520068E+04  8.659897E+03  1.434045E+05 -1.998409E+03  7.353016E+03
       380   4 -1.578963E+03 -3.097278E+04 -9.966623E+02  1.423955E+05 -1.569217E+04 -4.792592E+03
       380   5 -3.345140E+02 -3.120919E+04  2.578319E+03  1.304664E+05 -9.130327E+03 -6.065194E+03
       380   6  1.546270E+03 -3.096220E+04  7.181891E+03  1.424029E+05 -1.964808E+03 -7.336825E+03
       380   7  5.690877E+04  2.190917E+05  4.139419E+04  1.417215E+05 -1.566292E+04 -1.710923E+04
       380   8  2.908550E+04  9.583179E+04  2.262271E+04  1.296288E+05 -9.098836E+03 -1.956870E+04
       380   9  2.104095E+03 -2.672324E+04  5.704708E+03  1.414014E+05 -1.931159E+03 -2.202674E+04
       380  10 -6.007020E+04 -2.809756E+05 -4.338954E+04  1.430695E+05  7.528307E-10  6.181607E-09
       380  11 -2.975533E+04 -1.582338E+05 -1.746605E+04  1.313040E+05  4.981173E-10  7.092376E-09
       380  12  9.885478E+02 -3.520074E+04  8.659787E+03  1.434045E+05  6.705131E-10  7.624427E-12
       380  13 -1.579234E+03 -3.097287E+04 -9.971682E+02  1.423955E+05 -7.990358E-10  6.597597E-09
       380  14 -3.346134E+02 -3.120925E+04  2.578093E+03  1.304664E+05  1.918456E-09 -6.005548E-09
       380  15  1.546251E+03 -3.096226E+04  7.181783E+03  1.424029E+05  1.517384E-09  6.374296E-09
       380  16  5.690843E+04  2.190914E+05  4.139318E+04  1.417213E+05 -1.868397E-09 -4.514211E-09
       380  17  2.908531E+04  9.583136E+04  2.262183E+04  1.296286E+05  1.032268E-09 -4.351087E-09
       380  18  2.103960E+03 -2.672376E+04  5.703789E+03  1.414014E+05 -8.880068E-10 -1.497423E-09
       380  19 -6.006992E+04 -2.809754E+05 -4.338897E+04  1.430694E+05  1.572140E+04 -7.519248E+03
       380  20 -2.975523E+04 -1.582337E+05 -1.746579E+04  1.313039E+05  9.161786E+03 -7.435652E+03
       380  21  9.885666E+02 -3.520068E+04  8.659897E+03  1.434045E+05  1.998409E+03 -7.353016E+03
       380  22 -1.578963E+03 -3.097278E+04 -9.966623E+02  1.423955E+05  1.569217E+04  4.792592E+03
       380  23 -3.345140E+02 -3.120919E+04  2.578319E+03  1.304664E+05  9.130327E+03  6.065194E+03
       380  24  1.546270E+03 -3.096220E+04  7.181891E+03  1.424029E+05  1.964808E+03  7.336825E+03
       380  25  5.690877E+04  2.190917E+05  4.139419E+04  1.417215E+05  1.566292E+04  1.710923E+04
       380  26  2.908550E+04  9.583179E+04  2.262271E+04  1.296288E+05  9.098836E+03  1.956870E+04
       380  27  2.104095E+03 -2.672324E+04  5.704708E+03  1.414014E+05  1.931159E+03  2.202674E+04
       381   1  1.968404E+04  4.441455E+04  2.516898E+04  1.414245E+05  2.732217E+03  6.334717E+03
       381   2  5.715667E+04  1.630510E+05  6.030640E+04  1.420479E+05  6.538988E+03 -1.885084E+04
       381   3  1.158674E+05  2.904433E+05  1.171835E+05  1.661283E+05  2.681249E+03 -4.406136E+04
       381   4  1.852527E+03 -2.970875E+04  1.015673E+04  1.423025E+05  2.766435E+03 -8.584843E+03
       381   5  9.936001E+03 -3.278052E+04  1.968985E+04  1.306169E+05  6.539113E+03 -1.868322E+04
       381   6  3.664359E+04 -2.972380E+04  4.048974E+04  1.423865E+05  2.647169E+03 -2.880165E+04
       381   7 -1.597920E+04 -1.038263E+05 -4.854968E+03  1.431804E+05  2.800613E+03 -2.350266E+04
       381   8 -3.728660E+04 -2.285754E+05 -2.092871E+04  1.191895E+05  6.539232E+03 -1.851565E+04
       381   9 -4.258536E+04 -3.497952E+05 -3.621005E+04  1.186570E+05  2.611915E+03 -1.354977E+04
       381  10  1.968402E+04  4.441450E+04  2.516889E+04  1.414245E+05  1.317318E-09  8.091409E-09
       381  11  5.715653E+04  1.630506E+05  6.030566E+04  1.420480E+05  5.209328E-10  8.244449E-09
       381  12  1.158669E+05  2.904412E+05  1.171798E+05  1.661284E+05 -1.404861E-10  4.693993E-10
       381  13  1.852499E+03 -2.970883E+04  1.015658E+04  1.423025E+05 -2.382449E-09  5.439932E-09
       381  14  9.935861E+03 -3.278091E+04  1.968912E+04  1.306170E+05  2.436772E-09 -2.804720E-09
       381  15  3.664336E+04 -2.972469E+04  4.048817E+04  1.423865E+05  4.696335E-10  3.231141E-09
       381  16 -1.597936E+04 -1.038269E+05 -4.856021E+03  1.431804E+05 -2.424137E-09 -6.441775E-09
       381  17 -3.728674E+04 -2.285758E+05 -2.092944E+04  1.191896E+05  1.858077E-09 -4.385235E-09
       381  18 -4.258541E+04 -3.497954E+05 -3.621040E+04  1.186570E+05 -1.323194E-10 -6.702352E-09
       381  19  1.968404E+04  4.441455E+04  2.516898E+04  1.414245E+05 -2.732217E+03 -6.334717E+03
       381  20  5.715667E+04  1.630510E+05  6.030640E+04  1.420479E+05 -6.538988E+03  1.885084E+04
       381  21  1.158674E+05  2.904433E+05  1.171835E+05  1.661283E+05 -2.681249E+03  4.406136E+04
       381  22  1.852527E+03 -2.970875E+04  1.015673E+04  1.423025E+05 -2.766435E+03  8.584843E+03
       381  23  9.936001E+03 -3.278052E+04  1.968985E+04  1.306169E+05 -6.539113E+03  1.868322E+04
       381  24  3.664359E+04 -2.972380E+04  4.048974E+04  1.423865E+05 -2.647169E+03  2.880165E+04
       381  25 -1.597920E+04 -1.038263E+05 -4.854968E+03  1.431804E+05 -2.800613E+03  2.350266E+04
       381  26 -3.728660E+04 -2.285754E+05 -2.092871E+04  1.191895E+05 -6.539232E+03  1.851565E+04
       381  27 -4.258536E+04 -3.497952E+05 -3.621005E+04  1.186570E+05 -2.611915E+03  1.354977E+04
       382   1  1.245424E+06  4.444987E+05  3.006848E+05  4.283494E+05  1.269817E+05  4.368985E+04
       382   2  1.198717E+06  2.475445E+05  1.791489E+05  4.378465E+05  8.300316E+04  1.855217E+04
       382   3  1.206702E+06  2.480398E+05  1.413905E+05  4.225766E+05  3.573189E+04  2.122952E+03
       382   4  8.664911E+05  2.652013E+05  1.902656E+05  2.879102E+05  1.221527E+05  4.185384E+04
       382   5  8.296836E+05  9.816250E+04  7.882935E+04  3.262831E+05  8.172694E+04  1.806683E+04
       382   6  8.469044E+05  1.279328E+05  4.839619E+04  3.398783E+05  3.800623E+04  2.985475E+03
       382   7  4.877021E+05  8.593892E+04  7.983323E+04  1.475573E+05  1.173269E+05  4.001974E+04
       382   8  4.607820E+05 -5.120524E+04 -2.150232E+04  2.147815E+05  8.045153E+04  1.758185E+04
       382   9  4.872303E+05  7.826859E+03 -4.460882E+04  2.572196E+05  4.027912E+04  3.847597E+03
       382  10  1.245407E+06  4.444923E+05  3.006510E+05  4.283449E+05  1.966543E-09  6.376259E-09
       382  11  1.198710E+06  2.475423E+05  1.791354E+05  4.378453E+05  4.422471E-10 -5.402850E-09
       382  12  1.206700E+06  2.480394E+05  1.413881E+05  4.225766E+05 -2.657874E-09  1.632538E-08
       382  13  8.664746E+05  2.651954E+05  1.902343E+05  2.879061E+05 -3.059355E-10 -7.417304E-09
       382  14  8.296763E+05  9.816036E+04  7.881620E+04  3.262819E+05  1.590280E-09  6.135058E-09
       382  15  8.469029E+05  1.279324E+05  4.839346E+04  3.398782E+05 -7.258913E-10  1.884817E-09
       382  16  4.876869E+05  8.593351E+04  7.980438E+04  1.475535E+05 -3.966459E-10  9.008673E-09
       382  17  4.607750E+05 -5.120731E+04 -2.151506E+04  2.147804E+05 -2.034424E-09 -6.283500E-09
       382  18  4.872285E+05  7.826408E+03 -4.461190E+04  2.572195E+05  2.371741E-09  4.644914E-09
       382  19  1.245424E+06  4.444987E+05  3.006848E+05  4.283494E+05 -1.269817E+05 -4.368985E+04
       382  20  1.198717E+06  2.475445E+05  1.791489E+05  4.378465E+05 -8.300316E+04 -1.855217E+04
       382  21  1.206702E+06  2.480398E+05  1.413905E+05  4.225766E+05 -3.573189E+04 -2.122952E+03
       382  22  8.664911E+05  2.652013E+05  1.902656E+05  2.879102E+05 -1.221527E+05 -4.185384E+04
       382  23  8.296836E+05  9.816250E+04  7.882935E+04  3.262831E+05 -8.172694E+04 -1.806683E+04
       382  24  8.469044E+05  1.279328E+05  4.839619E+04  3.398783E+05 -3.800623E+04 -2.985475E+03
       382  25  4.877021E+05  8.593892E+04  7.983323E+04  1.475573E+05 -1.173269E+05 -4.001974E+04
       382  26  4.607820E+05 -5.120524E+04 -2.150232E+04  2.147815E+05 -8.045153E+04 -1.758185E+04
       382  27  4.872303E+05  7.826859E+03 -4.460882E+04  2.572196E+05 -4.027912E+04 -3.847597E+03
       383   1  1.138283E+06  2.647388E+05  1.198937E+05  4.136745E+05  3.030715E+04  2.293475E+03
       383   2  1.117113E+06  2.247053E+05  9.181979E+04  3.997161E+05  2.012624E+04 -1.244796E+03
       383   3  1.087628E+06  2.241274E+05  7.715621E+04  4.005968E+05  9.643668E+03 -3.987999E+03
       383   4  8.409509E+05  1.481997E+05  3.952752E+04  3.277607E+05  3.025078E+04  2.271562E+03
       383   5  8.439642E+05  1.202906E+05  1.862558E+04  3.234578E+05  2.039655E+04 -1.142553E+03
       383   6  8.386010E+05  1.317787E+05  1.088018E+04  3.339933E+05  1.024017E+04 -3.761706E+03
       383   7  5.437037E+05  3.166767E+04 -4.084654E+04  2.418845E+05  3.019443E+04  2.249659E+03
       383   8  5.708874E+05  1.588096E+04 -5.457510E+04  2.472299E+05  2.066672E+04 -1.040361E+03
       383   9  5.896342E+05  3.943342E+04 -5.540106E+04  2.674136E+05  1.083641E+04 -3.535509E+03
       383  10  1.138282E+06  2.647386E+05  1.198919E+05  4.136745E+05  1.321758E-10  5.879201E-09
       383  11  1.117113E+06  2.247052E+05  9.181903E+04  3.997162E+05  1.783952E-09 -4.563016E-09
       383  12  1.087628E+06  2.241274E+05  7.715600E+04  4.005968E+05 -1.848450E-09  1.275201E-08
       383  13  8.409499E+05  1.481994E+05  3.952579E+04  3.277606E+05  3.891301E-10 -1.638866E-09
       383  14  8.439637E+05  1.202904E+05  1.862480E+04  3.234579E+05  1.885252E-09  1.643847E-08
       383  15  8.386009E+05  1.317787E+05  1.087996E+04  3.339933E+05 -1.578368E-09  3.620179E-09
       383  16  5.437027E+05  3.166742E+04 -4.084826E+04  2.418844E+05 -4.572983E-09 -1.168133E-08
       383  17  5.708869E+05  1.588084E+04 -5.457591E+04  2.472299E+05 -1.305702E-09 -8.893479E-09
       383  18  5.896340E+05  3.943337E+04 -5.540130E+04  2.674136E+05  2.753681E-09  9.128136E-09
       383  19  1.138283E+06  2.647388E+05  1.198937E+05  4.136745E+05 -3.030715E+04 -2.293475E+03
       383  20  1.117113E+06  2.247053E+05  9.181979E+04  3.997161E+05 -2.012624E+04  1.244796E+03
       383  21  1.087628E+06  2.241274E+05  7.715621E+04  4.005968E+05 -9.643668E+03  3.987999E+03
       383  22  8.409509E+05  1.481997E+05  3.952752E+04  3.277607E+05 -3.025078E+04 -2.271562E+03
       383  23  8.439642E+05  1.202906E+05  1.862558E+04  3.234578E+05 -2.039655E+04  1.142553E+03
       383  24  8.386010E+05  1.317787E+05  1.088018E+04  3.339933E+05 -1.024017E+04  3.761706E+03
       383  25  5.437037E+05  3.166767E+04 -4.084654E+04  2.418845E+05 -3.019443E+04 -2.249659E+03
       383  26  5.708874E+05  1.588096E+04 -5.457510E+04  2.472299E+05 -2.066672E+04  1.040361E+03
       383  27  5.896342E+05  3.943342E+04 -5.540106E+04  2.674136E+05 -1.083641E+04  3.535509E+03
       384   1  1.040019E+06  2.109519E+05  6.258364E+04  3.884606E+05  8.004539E+03 -3.771955E+03
       384   2  1.022976E+06  1.904904E+05  5.179733E+04  3.723742E+05  5.387809E+03 -3.666558E+03
       384   3  9.902206E+05  1.896710E+05  4.340315E+04  3.748940E+05  2.749033E+03 -3.504420E+03
       384   4  8.379257E+05  1.339930E+05  8.546887E+03  3.323268E+05  8.380778E+03 -3.629222E+03
       384   5  8.456460E+05  1.232112E+05  4.364529E+03  3.233899E+05  5.787780E+03 -3.514701E+03
       384   6  8.376503E+05  1.320678E+05  2.556299E+03  3.330595E+05  3.172638E+03 -3.343468E+03
       384   7  6.358708E+05  5.703665E+04 -4.549358E+04  2.762092E+05  8.756884E+03 -3.486540E+03
       384   8  6.683463E+05  5.593396E+04 -4.307109E+04  2.744181E+05  6.187627E+03 -3.362891E+03
       384   9  6.851023E+05  7.446597E+04 -3.829260E+04  2.912341E+05  3.596129E+03 -3.182559E+03
       384  10  1.040019E+06  2.109518E+05  6.258349E+04  3.884607E+05  7.171384E-10  7.130724E-09
       384  11  1.022976E+06  1.904904E+05  5.179725E+04  3.723742E+05 -1.452605E-09  4.271171E-10
       384  12  9.902206E+05  1.896710E+05  4.340312E+04  3.748941E+05 -6.266163E-09 -1.084538E-08
       384  13  8.379256E+05  1.339930E+05  8.546731E+03  3.323268E+05  6.083104E-10  6.629259E-09
       384  14  8.456460E+05  1.232112E+05  4.364443E+03  3.233899E+05  6.427390E-09 -8.989765E-09
       384  15  8.376503E+05  1.320678E+05  2.556260E+03  3.330595E+05  1.151344E-09  1.674124E-08
       384  16  6.358707E+05  5.703662E+04 -4.549374E+04  2.762093E+05 -3.092363E-10 -3.380276E-09
       384  17  6.683463E+05  5.593393E+04 -4.307118E+04  2.744181E+05  6.697259E-09  1.378068E-08
       384  18  6.851023E+05  7.446595E+04 -3.829265E+04  2.912341E+05  2.035950E-09  2.992409E-09
       384  19  1.040019E+06  2.109519E+05  6.258364E+04  3.884606E+05 -8.004539E+03  3.771955E+03
       384  20  1.022976E+06  1.904904E+05  5.179733E+04  3.723742E+05 -5.387809E+03  3.666558E+03
       384  21  9.902206E+05  1.896710E+05  4.340315E+04  3.748940E+05 -2.749033E+03  3.504420E+03
       384  22  8.379257E+05  1.339930E+05  8.546887E+03  3.323268E+05 -8.380778E+03  3.629222E+03
       384  23  8.456460E+05  1.232112E+05  4.364529E+03  3.233899E+05 -5.787780E+03  3.514701E+03
       384  24  8.376503E+05  1.320678E+05  2.556299E+03  3.330595E+05 -3.172638E+03  3.343468E+03
       384  25  6.358708E+05  5.703665E+04 -4.549358E+04  2.762092E+05 -8.756884E+03  3.486540E+03
       384  26  6.683463E+05  5.593396E+04 -4.307109E+04  2.744181E+05 -6.187627E+03  3.362891E+03
       384  27  6.851023E+05  7.446597E+04 -3.829260E+04  2.912341E+05 -3.596129E+03  3.182559E+03
       385   1  9.466174E+05  1.735639E+05  3.108225E+04  3.628746E+05  2.165778E+03 -3.043012E+03
       385   2  9.305437E+05  1.558287E+05  2.392209E+04  3.469177E+05  1.160376E+03 -2.287318E+03
       385   3  8.981542E+05  1.549828E+05  1.732393E+04  3.495031E+05  1.560302E+02 -1.534992E+03
       385   4  8.376306E+05  1.322221E+05  2.020022E+03  3.327561E+05  2.568991E+03 -2.889753E+03
       385   5  8.457757E+05  1.236841E+05  1.249391E+03  3.235207E+05  1.562339E+03 -2.134486E+03
       385   6  8.376045E+05  1.320359E+05  1.041882E+03  3.328276E+05  5.567128E+02 -1.382593E+03
       385   7  7.286556E+05  9.088109E+04 -2.704318E+04  3.026424E+05  2.972125E+03 -2.736525E+03
       385   8  7.610146E+05  9.153998E+04 -2.142394E+04  3.001265E+05  1.964241E+03 -1.981677E+03
       385   9  7.770582E+05  1.090892E+05 -1.524052E+04  3.161534E+05  9.573533E+02 -1.230211E+03
       385  10  9.466174E+05  1.735639E+05  3.108223E+04  3.628746E+05 -1.067553E-09 -1.477792E-08
       385  11  9.305437E+05  1.558287E+05  2.392208E+04  3.469177E+05 -1.424428E-09  3.176333E-09
       385  12  8.981542E+05  1.549828E+05  1.732392E+04  3.495031E+05 -4.799025E-10 -2.683496E-09
       385  13  8.376306E+05  1.322221E+05  2.019993E+03  3.327561E+05 -8.031844E-10  3.300772E-09
       385  14  8.457757E+05  1.236841E+05  1.249378E+03  3.235207E+05  4.213665E-09 -1.843754E-08
       385  15  8.376045E+05  1.320359E+05  1.041877E+03  3.328276E+05  1.637963E-09 -6.132796E-09
       385  16  7.286556E+05  9.088108E+04 -2.704321E+04  3.026424E+05 -2.848434E-09  9.035570E-09
       385  17  7.610146E+05  9.153997E+04 -2.142395E+04  3.001265E+05  1.351752E-09 -2.125584E-09
       385  18  7.770582E+05  1.090892E+05 -1.524053E+04  3.161534E+05  3.515303E-09  5.885515E-10
       385  19  9.466174E+05  1.735639E+05  3.108225E+04  3.628746E+05 -2.165778E+03  3.043012E+03
       385  20  9.305437E+05  1.558287E+05  2.392209E+04  3.469177E+05 -1.160376E+03  2.287318E+03
       385  21  8.981542E+05  1.549828E+05  1.732393E+04  3.495031E+05 -1.560302E+02  1.534992E+03
       385  22  8.376306E+05  1.322221E+05  2.020022E+03  3.327561E+05 -2.568991E+03  2.889753E+03
       385  23  8.457757E+05  1.236841E+05  1.249391E+03  3.235207E+05 -1.562339E+03  2.134486E+03
       385  24  8.376045E+05  1.320359E+05  1.041882E+03  3.328276E+05 -5.567128E+02  1.382593E+03
       385  25  7.286556E+05  9.088109E+04 -2.704318E+04  3.026424E+05 -2.972125E+03  2.736525E+03
       385  26  7.610146E+05  9.153998E+04 -2.142394E+04  3.001265E+05 -1.964241E+03  1.981677E+03
       385  27  7.770582E+05  1.090892E+05 -1.524052E+04  3.161534E+05 -9.573533E+02  1.230211E+03
       386   1  8.556279E+05  1.388396E+05  5.789859E+03  3.378035E+05 -2.366587E+02 -1.025547E+03
       386   2  8.397385E+05  1.214485E+05 -2.226504E+02  3.219148E+05 -1.304816E+03 -3.029368E+02
       386   3  8.077008E+05  1.208395E+05 -5.614300E+03  3.243778E+05 -2.371253E+03  4.153533E+02
       386   4  8.376402E+05  1.319948E+05  1.063775E+03  3.327922E+05  1.636138E+02 -8.732862E+02
       386   5  8.457317E+05  1.237232E+05  1.380705E+03  3.235710E+05 -9.063152E+02 -1.513552E+02
       386   6  8.376745E+05  1.322339E+05  2.319880E+03  3.327012E+05 -1.974553E+03  5.662466E+02
       386   7  8.196528E+05  1.251500E+05 -3.662335E+03  3.277812E+05  5.638736E+02 -7.210304E+02
       386   8  8.517249E+05  1.259979E+05  2.984055E+03  3.252272E+05 -5.078102E+02  2.277964E-01
       386   9  8.676490E+05  1.436285E+05  1.025396E+04  3.410249E+05 -1.577832E+03  7.171476E+02
       386  10  8.556279E+05  1.388396E+05  5.789857E+03  3.378035E+05  1.240454E-09 -1.068303E-08
       386  11  8.397385E+05  1.214485E+05 -2.226538E+02  3.219148E+05  3.555788E-09 -1.322216E-09
       386  12  8.077008E+05  1.208394E+05 -5.614311E+03  3.243778E+05  2.873776E-09 -1.350606E-08
       386  13  8.376402E+05  1.319948E+05  1.063774E+03  3.327922E+05  2.316640E-09  4.353504E-09
       386  14  8.457317E+05  1.237232E+05  1.380703E+03  3.235710E+05 -1.503398E-09 -9.199905E-09
       386  15  8.376745E+05  1.322339E+05  2.319872E+03  3.327012E+05  1.992756E-09  3.532498E-09
       386  16  8.196528E+05  1.251500E+05 -3.662336E+03  3.277812E+05  6.591405E-09  4.061820E-09
       386  17  8.517249E+05  1.259979E+05  2.984055E+03  3.252272E+05  4.157560E-09 -1.965617E-09
       386  18  8.676490E+05  1.436285E+05  1.025396E+04  3.410249E+05  2.495088E-09 -1.518950E-08
       386  19  8.556279E+05  1.388396E+05  5.789859E+03  3.378035E+05  2.366587E+02  1.025547E+03
       386  20  8.397385E+05  1.214485E+05 -2.226504E+02  3.219148E+05  1.304816E+03  3.029368E+02
       386  21  8.077008E+05  1.208395E+05 -5.614300E+03  3.243778E+05  2.371253E+03 -4.153533E+02
       386  22  8.376402E+05  1.319948E+05  1.063775E+03  3.327922E+05 -1.636138E+02  8.732862E+02
       386  23  8.457317E+05  1.237232E+05  1.380705E+03  3.235710E+05  9.063152E+02  1.513552E+02
       386  24  8.376745E+05  1.322339E+05  2.319880E+03  3.327012E+05  1.974553E+03 -5.662466E+02
       386  25  8.196528E+05  1.251500E+05 -3.662335E+03  3.277812E+05 -5.638736E+02  7.210304E+02
       386  26  8.517249E+05  1.259979E+05  2.984055E+03  3.252272E+05  5.078102E+02 -2.277964E-01
       386  27  8.676490E+05  1.436285E+05  1.025396E+04  3.410249E+05  1.577832E+03 -7.171476E+02
       387   1  7.649812E+05  1.046293E+05 -1.655163E+04  3.131687E+05 -3.043383E+03  8.280056E+02
       387   2  7.486612E+05  8.647796E+04 -2.081944E+04  2.967321E+05 -6.002063E+03  8.415370E+02
       387   3  7.172535E+05  8.794249E+04 -2.234087E+04  2.982568E+05 -8.941348E+03  8.050405E+02
       387   4  8.377790E+05  1.319598E+05  2.956457E+03  3.329579E+05 -2.630581E+03  9.850017E+02
       387   5  8.454837E+05  1.232847E+05  5.096350E+03  3.235451E+05 -5.609953E+03  9.906024E+02
       387   6  8.381044E+05  1.342293E+05  9.998824E+03  3.320936E+05 -8.570039E+03  9.461364E+02
       387   7  9.105822E+05  1.592906E+05  2.246413E+04  3.527491E+05 -2.217724E+03  1.142018E+03
       387   8  9.423154E+05  1.600921E+05  3.101135E+04  3.503620E+05 -5.217776E+03  1.139694E+03
       387   9  9.589695E+05  1.805171E+05  4.233723E+04  3.659363E+05 -8.198651E+03  1.087263E+03
       387  10  7.649812E+05  1.046293E+05 -1.655165E+04  3.131688E+05 -4.794118E-09 -1.809111E-08
       387  11  7.486612E+05  8.647795E+04 -2.081951E+04  2.967321E+05 -9.253041E-09 -1.177796E-08
       387  12  7.172534E+05  8.794247E+04 -2.234102E+04  2.982569E+05  3.946347E-09 -9.677822E-09
       387  13  8.377790E+05  1.319598E+05  2.956442E+03  3.329579E+05  1.006188E-09 -4.147934E-09
       387  14  8.454837E+05  1.232847E+05  5.096289E+03  3.235451E+05 -5.374052E-09  2.450257E-09
       387  15  8.381044E+05  1.342293E+05  9.998685E+03  3.320936E+05 -2.241334E-09  8.836195E-10
       387  16  9.105821E+05  1.592906E+05  2.246412E+04  3.527491E+05  9.789591E-09  1.099475E-08
       387  17  9.423153E+05  1.600921E+05  3.101130E+04  3.503620E+05  4.512533E-09  3.825950E-08
       387  18  9.589694E+05  1.805171E+05  4.233711E+04  3.659363E+05 -7.843237E-09  2.274499E-09
       387  19  7.649812E+05  1.046293E+05 -1.655163E+04  3.131687E+05  3.043383E+03 -8.280056E+02
       387  20  7.486612E+05  8.647796E+04 -2.081944E+04  2.967321E+05  6.002063E+03 -8.415370E+02
       387  21  7.172535E+05  8.794249E+04 -2.234087E+04  2.982568E+05  8.941348E+03 -8.050405E+02
       387  22  8.377790E+05  1.319598E+05  2.956457E+03  3.329579E+05  2.630581E+03 -9.850017E+02
       387  23  8.454837E+05  1.232847E+05  5.096350E+03  3.235451E+05  5.609953E+03 -9.906024E+02
       387  24  8.381044E+05  1.342293E+05  9.998824E+03  3.320936E+05  8.570039E+03 -9.461364E+02
       387  25  9.105822E+05  1.592906E+05  2.246413E+04  3.527491E+05  2.217724E+03 -1.142018E+03
       387  26  9.423154E+05  1.600921E+05  3.101135E+04  3.503620E+05  5.217776E+03 -1.139694E+03
       387  27  9.589695E+05  1.805171E+05  4.233723E+04  3.659363E+05  8.198651E+03 -1.087263E+03
       388   1  6.725519E+05  7.075213E+04 -3.141778E+04  2.903959E+05 -1.122342E+04  7.210340E+02
       388   2  6.543911E+05  4.718735E+04 -2.895136E+04  2.704542E+05 -2.277264E+04 -2.483438E+03
       388   3  6.301138E+05  6.587865E+04 -1.129642E+04  2.635196E+05 -3.408274E+04 -6.314887E+03
       388   4  8.389889E+05  1.315302E+05  1.273115E+04  3.339319E+05 -1.067916E+04  9.278525E+02
       388   5  8.434044E+05  1.199995E+05  2.181672E+04  3.237721E+05 -2.248575E+04 -2.374633E+03
       388   6  8.417507E+05  1.507701E+05  4.629098E+04  3.266189E+05 -3.405372E+04 -6.304332E+03
       388   7  1.005452E+06  1.923094E+05  5.687758E+04  3.774782E+05 -1.013475E+04  1.134727E+03
       388   8  1.032452E+06  1.928141E+05  7.258163E+04  3.771047E+05 -2.219876E+04 -2.265789E+03
       388   9  1.053431E+06  2.356661E+05  1.038745E+05  3.897383E+05 -3.402469E+04 -6.293773E+03
       388  10  6.725517E+05  7.075209E+04 -3.141801E+04  2.903959E+05  2.142088E-09  2.103165E-09
       388  11  6.543906E+05  4.718720E+04 -2.895234E+04  2.704542E+05  1.471102E-09  2.082936E-08
       388  12  6.301126E+05  6.587830E+04 -1.129867E+04  2.635194E+05  4.264168E-09  1.452026E-08
       388  13  8.389888E+05  1.315302E+05  1.273093E+04  3.339319E+05 -8.490108E-10 -1.527199E-09
       388  14  8.434039E+05  1.199993E+05  2.181576E+04  3.237720E+05 -9.179762E-09  1.995785E-08
       388  15  8.417495E+05  1.507698E+05  4.628873E+04  3.266187E+05 -9.089901E-10  3.612512E-10
       388  16  1.005452E+06  1.923093E+05  5.687739E+04  3.774782E+05 -4.192793E-09 -2.630928E-09
       388  17  1.032452E+06  1.928140E+05  7.258070E+04  3.771046E+05  1.675288E-09  1.099853E-08
       388  18  1.053430E+06  2.356657E+05  1.038722E+05  3.897381E+05 -4.910240E-09 -1.379392E-11
       388  19  6.725519E+05  7.075213E+04 -3.141778E+04  2.903959E+05  1.122342E+04 -7.210340E+02
       388  20  6.543911E+05  4.718735E+04 -2.895136E+04  2.704542E+05  2.277264E+04  2.483438E+03
       388  21  6.301138E+05  6.587865E+04 -1.129642E+04  2.635196E+05  3.408274E+04  6.314887E+03
       388  22  8.389889E+05  1.315302E+05  1.273115E+04  3.339319E+05  1.067916E+04 -9.278525E+02
       388  23  8.434044E+05  1.199995E+05  2.181672E+04  3.237721E+05  2.248575E+04  2.374633E+03
       388  24  8.417507E+05  1.507701E+05  4.629098E+04  3.266189E+05  3.405372E+04  6.304332E+03
       388  25  1.005452E+06  1.923094E+05  5.687758E+04  3.774782E+05  1.013475E+04 -1.134727E+03
       388  26  1.032452E+06  1.928141E+05  7.258163E+04  3.771047E+05  2.219876E+04  2.265789E+03
       388  27  1.053431E+06  2.356661E+05  1.038745E+05  3.897383E+05  3.402469E+04  6.293773E+03
       389   1  5.747142E+05  4.186168E+04 -1.295982E+04  2.842494E+05 -4.474628E+04 -8.495969E+03
       389   2  5.481097E+05 -2.276450E+04  1.579185E+04  2.387554E+05 -9.303917E+04 -2.544499E+04
       389   3  5.885141E+05  1.381812E+05  1.372031E+05  1.591825E+05 -1.387406E+05 -4.921896E+04
       389   4  8.488100E+05  1.269330E+05  5.667552E+04  3.406942E+05 -4.288975E+04 -7.789886E+03
       389   5  8.265618E+05  9.424552E+04  9.234107E+04  3.272532E+05 -9.396922E+04 -2.580020E+04
       389   6  8.718335E+05  2.876180E+05  2.228405E+05  2.797430E+05 -1.424581E+05 -5.063987E+04
       389   7  1.122979E+06  2.120039E+05  1.263053E+05  3.971588E+05 -4.103231E+04 -7.083598E+03
       389   8  1.105088E+06  2.112651E+05  1.688829E+05  4.157881E+05 -9.489972E+04 -2.615563E+04
       389   9  1.155232E+06  4.370837E+05  3.084695E+05  4.003595E+05 -1.461775E+05 -5.206209E+04
       389  10  5.747120E+05  4.186106E+04 -1.296371E+04  2.842491E+05  2.977067E-09 -1.028201E-09
       389  11  5.481002E+05 -2.276751E+04  1.577438E+04  2.387535E+05  7.579973E-10  8.094704E-09
       389  12  5.884928E+05  1.381735E+05  1.371624E+05  1.591770E+05  3.548448E-10  4.506583E-09
       389  13  8.488080E+05  1.269325E+05  5.667196E+04  3.406939E+05 -3.692311E-09  1.811862E-09
       389  14  8.265522E+05  9.424244E+04  9.232326E+04  3.272512E+05  3.232148E-09  1.623535E-09
       389  15  8.718110E+05  2.876098E+05  2.227977E+05  2.797372E+05 -6.486108E-10  5.346544E-09
       389  16  1.122977E+06  2.120034E+05  1.263020E+05  3.971585E+05 -1.842737E-09  4.103677E-10
       389  17  1.105078E+06  2.112619E+05  1.688647E+05  4.157861E+05  2.412608E-09  2.301992E-09
       389  18  1.155209E+06  4.370751E+05  3.084244E+05  4.003534E+05  1.062047E-09  8.736469E-10
       389  19  5.747142E+05  4.186168E+04 -1.295982E+04  2.842494E+05  4.474628E+04  8.495969E+03
       389  20  5.481097E+05 -2.276450E+04  1.579185E+04  2.387554E+05  9.303917E+04  2.544499E+04
       389  21  5.885141E+05  1.381812E+05  1.372031E+05  1.591825E+05  1.387406E+05  4.921896E+04
       389  22  8.488100E+05  1.269330E+05  5.667552E+04  3.406942E+05  4.288975E+04  7.789886E+03
       389  23  8.265618E+05  9.424552E+04  9.234107E+04  3.272532E+05  9.396922E+04  2.580020E+04
       389  24  8.718335E+05  2.876180E+05  2.228405E+05  2.797430E+05  1.424581E+05  5.063987E+04
       389  25  1.122979E+06  2.120039E+05  1.263053E+05  3.971588E+05  4.103231E+04  7.083598E+03
       389  26  1.105088E+06  2.112651E+05  1.688829E+05  4.157881E+05  9.489972E+04  2.615563E+04
       389  27  1.155232E+06  4.370837E+05  3.084695E+05  4.003595E+05  1.461775E+05  5.206209E+04
       390   1 -1.816779E+05 -1.002607E+06 -1.860192E+05  8.588190E+04 -5.301838E+03 -2.434494E+04
       390   2 -1.191920E+05 -8.521893E+05 -1.323235E+05  1.762200E+04 -1.440425E+04 -1.113723E+04
       390   3 -8.631748E+04 -7.096311E+05 -9.440997E+04  7.645614E+04 -8.920863E+03  2.113472E+03
       390   4 -2.167102E+04 -3.620827E+05 -2.726161E+04  7.848438E+04 -5.322359E+03 -1.729840E+04
       390   5  3.473423E+03 -3.586812E+05 -1.291652E+04  1.497214E+04 -1.440552E+04 -1.037701E+04
       390   6  1.131541E+02 -3.620596E+05 -9.973989E+03  7.854888E+04 -8.907795E+03 -3.415919E+03
       390   7  1.383053E+05  2.788149E+05  1.314656E+05  7.107947E+04 -5.343038E+03 -1.024457E+04
       390   8  1.261211E+05  1.350498E+05  1.064730E+05  1.232032E+04 -1.440680E+04 -9.616192E+03
       390   9  8.653494E+04 -1.437753E+04  7.445337E+04  8.064285E+04 -8.894768E+03 -8.948400E+03
       390  10 -1.816781E+05 -1.002608E+06 -1.860204E+05  8.588179E+04  2.595335E-10 -2.146279E-11
       390  11 -1.191923E+05 -8.521894E+05 -1.323242E+05  1.762187E+04  6.849809E-10  2.657088E-09
       390  12 -8.631756E+04 -7.096311E+05 -9.441012E+04  7.645616E+04  2.111781E-09  3.570453E-09
       390  13 -2.167113E+04 -3.620830E+05 -2.726223E+04  7.848431E+04  2.774680E-09 -8.894346E-09
       390  14  3.473171E+03 -3.586813E+05 -1.291711E+04  1.497202E+04 -1.452197E-09 -1.048261E-08
       390  15  1.130658E+02 -3.620596E+05 -9.974160E+03  7.854885E+04  1.448442E-09 -3.599565E-09
       390  16  1.383052E+05  2.788148E+05  1.314653E+05  7.107943E+04  1.073628E-09 -1.042586E-09
       390  17  1.261208E+05  1.350496E+05  1.064724E+05  1.232020E+04  2.773459E-09  7.644888E-09
       390  18  8.653483E+04 -1.437764E+04  7.445307E+04  8.064279E+04 -7.159693E-10  1.756278E-09
       390  19 -1.816779E+05 -1.002607E+06 -1.860192E+05  8.588190E+04  5.301838E+03  2.434494E+04
       390  20 -1.191920E+05 -8.521893E+05 -1.323235E+05  1.762200E+04  1.440425E+04  1.113723E+04
       390  21 -8.631748E+04 -7.096311E+05 -9.440997E+04  7.645614E+04  8.920863E+03 -2.113472E+03
       390  22 -2.167102E+04 -3.620827E+05 -2.726161E+04  7.848438E+04  5.322359E+03  1.729840E+04
       390  23  3.473423E+03 -3.586812E+05 -1.291652E+04  1.497214E+04  1.440552E+04  1.037701E+04
       390  24  1.131541E+02 -3.620596E+05 -9.973989E+03  7.854888E+04  8.907795E+03  3.415919E+03
       390  25  1.383053E+05  2.788149E+05  1.314656E+05  7.107947E+04  5.343038E+03  1.024457E+04
       390  26  1.261211E+05  1.350498E+05  1.064730E+05  1.232032E+04  1.440680E+04  9.616192E+03
       390  27  8.653494E+04 -1.437753E+04  7.445337E+04  8.064285E+04  8.894768E+03  8.948400E+03
       391   1 -2.977211E+04 -4.703234E+05 -3.586193E+04  8.012310E+04 -3.290039E+03  1.827506E+02
       391   2  1.051090E+04 -3.222876E+05  2.938293E+02  1.457406E+04  1.022989E+03  4.684024E+03
       391   3  4.079806E+04 -1.765601E+05  3.117211E+04  7.682165E+04  5.207148E+03  9.186466E+03
       391   4 -2.616353E+03 -3.610414E+05 -9.452193E+03  7.868668E+04 -3.285815E+03 -1.711908E+03
       391   5  1.168032E+03 -3.598734E+05 -8.815699E+03  1.478507E+04  1.027201E+03  2.844879E+03
       391   6 -5.051924E+03 -3.610435E+05 -1.349410E+04  7.868097E+04  5.211310E+03  7.401787E+03
       391   7  2.453854E+04 -2.517486E+05  1.695670E+04  7.725002E+04 -3.281583E+03 -3.606900E+03
       391   8 -8.174936E+03 -3.974579E+05 -1.792532E+04  1.499608E+04  1.031412E+03  1.005846E+03
       391   9 -5.090439E+04 -5.454959E+05 -5.816274E+04  8.053975E+04  5.215462E+03  5.617636E+03
       391  10 -2.977213E+04 -4.703234E+05 -3.586195E+04  8.012311E+04  1.233893E-09  7.681342E-09
       391  11  1.051089E+04 -3.222876E+05  2.937861E+02  1.457405E+04  1.820920E-10  1.710602E-09
       391  12  4.079800E+04 -1.765602E+05  3.117191E+04  7.682161E+04 -1.776925E-10  1.618862E-09
       391  13 -2.616366E+03 -3.610415E+05 -9.452219E+03  7.868668E+04 -3.440376E-10 -9.396651E-09
       391  14  1.168029E+03 -3.598734E+05 -8.815717E+03  1.478507E+04  2.227805E-09 -1.152112E-08
       391  15 -5.051968E+03 -3.610436E+05 -1.349425E+04  7.868094E+04  2.630101E-09 -6.172573E-09
       391  16  2.453853E+04 -2.517486E+05  1.695666E+04  7.725001E+04 -1.385326E-09 -6.587800E-09
       391  17 -8.174937E+03 -3.974579E+05 -1.792532E+04  1.499608E+04 -6.181407E-10 -2.474191E-09
       391  18 -5.090443E+04 -5.454959E+05 -5.816285E+04  8.053972E+04  1.241944E-09 -1.666547E-12
       391  19 -2.977211E+04 -4.703234E+05 -3.586193E+04  8.012310E+04  3.290039E+03 -1.827506E+02
       391  20  1.051090E+04 -3.222876E+05  2.938293E+02  1.457406E+04 -1.022989E+03 -4.684024E+03
       391  21  4.079806E+04 -1.765601E+05  3.117211E+04  7.682165E+04 -5.207148E+03 -9.186466E+03
       391  22 -2.616353E+03 -3.610414E+05 -9.452193E+03  7.868668E+04  3.285815E+03  1.711908E+03
       391  23  1.168032E+03 -3.598734E+05 -8.815699E+03  1.478507E+04 -1.027201E+03 -2.844879E+03
       391  24 -5.051924E+03 -3.610435E+05 -1.349410E+04  7.868097E+04 -5.211310E+03 -7.401787E+03
       391  25  2.453854E+04 -2.517486E+05  1.695670E+04  7.725002E+04  3.281583E+03  3.606900E+03
       391  26 -8.174936E+03 -3.974579E+05 -1.792532E+04  1.499608E+04 -1.031412E+03 -1.005846E+03
       391  27 -5.090439E+04 -5.454959E+05 -5.816274E+04  8.053975E+04 -5.215462E+03 -5.617636E+03
       392   1  1.063908E+05  5.919952E+04  8.693949E+04  8.282499E+04  1.100681E+04  1.579846E+04
       392   2  1.479644E+05  2.118522E+05  1.141445E+05  1.060877E+04  1.651132E+04  2.151909E+04
       392   3  1.371025E+05  3.520936E+05  1.248113E+05  6.524704E+04  5.980736E+03  2.719489E+04
       392   4  1.325529E+03 -3.635970E+05 -1.566420E+04  7.852031E+04  1.102114E+04  9.944031E+03
       392   5  6.702173E+03 -3.567886E+05 -2.336910E+04  1.502153E+04  1.650940E+04  2.258374E+04
       392   6 -4.158277E+04 -3.636268E+05 -5.243033E+04  7.838625E+04  5.956266E+03  3.517704E+04
       392   7 -1.037528E+05 -7.862301E+05 -1.182806E+05  7.421866E+04  1.103556E+04  4.093576E+03
       392   8 -1.345836E+05 -9.251338E+05 -1.609059E+05  1.943044E+04  1.650750E+04  2.364741E+04
       392   9 -2.203058E+05 -1.078882E+06 -2.297098E+05  9.151064E+04  5.932121E+03  4.314998E+04
       392  10  1.063906E+05  5.919922E+04  8.693879E+04  8.282485E+04  2.675684E-10  6.020484E-09
       392  11  1.479639E+05  2.118516E+05  1.141431E+05  1.060848E+04 -2.359825E-09  3.642927E-09
       392  12  1.371023E+05  3.520928E+05  1.248099E+05  6.524691E+04 -1.606679E-09 -1.299499E-09
       392  13  1.325372E+03 -3.635971E+05 -1.566461E+04  7.852022E+04 -1.268057E-09 -7.713508E-09
       392  14  6.701744E+03 -3.567893E+05 -2.337057E+04  1.502123E+04 -1.150701E-09 -1.058977E-08
       392  15 -4.158314E+04 -3.636282E+05 -5.243272E+04  7.838608E+04 -1.793205E-09 -4.611777E-09
       392  16 -1.037530E+05 -7.862302E+05 -1.182809E+05  7.421862E+04  1.340160E-09 -8.117631E-09
       392  17 -1.345841E+05 -9.251345E+05 -1.609074E+05  1.943013E+04 -2.411458E-09  1.715812E-09
       392  18 -2.203063E+05 -1.078884E+06 -2.297134E+05  9.151043E+04 -2.475859E-09  6.074895E-09
       392  19  1.063908E+05  5.919952E+04  8.693949E+04  8.282499E+04 -1.100681E+04 -1.579846E+04
       392  20  1.479644E+05  2.118522E+05  1.141445E+05  1.060877E+04 -1.651132E+04 -2.151909E+04
       392  21  1.371025E+05  3.520936E+05  1.248113E+05  6.524704E+04 -5.980736E+03 -2.719489E+04
       392  22  1.325529E+03 -3.635970E+05 -1.566420E+04  7.852031E+04 -1.102114E+04 -9.944031E+03
       392  23  6.702173E+03 -3.567886E+05 -2.336910E+04  1.502153E+04 -1.650940E+04 -2.258374E+04
       392  24 -4.158277E+04 -3.636268E+05 -5.243033E+04  7.838625E+04 -5.956266E+03 -3.517704E+04
       392  25 -1.037528E+05 -7.862301E+05 -1.182806E+05  7.421866E+04 -1.103556E+04 -4.093576E+03
       392  26 -1.345836E+05 -9.251338E+05 -1.609059E+05  1.943044E+04 -1.650750E+04 -2.364741E+04
       392  27 -2.203058E+05 -1.078882E+06 -2.297098E+05  9.151064E+04 -5.932121E+03 -4.314998E+04
       393   1  5.891782E+05 -5.639826E+04 -4.800355E+04 -3.565441E+03  2.036316E+04  3.068416E+03
       393   2  6.069332E+05 -8.308973E+04 -6.081363E+04  6.688212E+02  1.490823E+04  9.076656E+03
       393   3  6.344797E+05 -7.424921E+04 -6.115418E+04 -1.460678E+04  9.460600E+03  8.204846E+03
       393   4  9.280005E+05  2.804270E+04  3.577064E+04 -1.105597E+04  2.445954E+04  3.072893E+03
       393   5  9.228574E+05 -4.689091E+03  1.555139E+04 -1.285010E+03  1.602645E+04  9.077385E+03
       393   6  9.280163E+05 -1.382213E+03  9.862721E+03 -1.102307E+04  7.600865E+03  8.203271E+03
       393   7  1.266927E+06  1.124753E+05  1.195364E+05 -1.855062E+04  2.855815E+04  3.077269E+03
       393   8  1.238873E+06  7.370427E+04  9.190927E+04 -3.239859E+03  1.714524E+04  9.078107E+03
       393   9  1.221632E+06  7.147853E+04  8.087346E+04 -7.437677E+03  5.740254E+03  8.201676E+03
       393  10  5.891777E+05 -5.639838E+04 -4.800435E+04 -3.565491E+03 -7.699283E-11  3.266562E-11
       393  11  6.069330E+05 -8.308987E+04 -6.081421E+04  6.687122E+02 -3.629024E-10 -1.033299E-10
       393  12  6.344796E+05 -7.424931E+04 -6.115448E+04 -1.460684E+04  1.133924E-10 -3.687232E-11
       393  13  9.279998E+05  2.804253E+04  3.576950E+04 -1.105603E+04  2.470694E-11  3.527001E-11
       393  14  9.228571E+05 -4.689248E+03  1.555075E+04 -1.285127E+03 -2.299129E-11  5.933048E-11
       393  15  9.280162E+05 -1.382301E+03  9.862487E+03 -1.102312E+04 -6.255037E-11  2.018079E-11
       393  16  1.266926E+06  1.124751E+05  1.195349E+05 -1.855069E+04  8.792607E-11  9.246129E-11
       393  17  1.238872E+06  7.370410E+04  9.190856E+04 -3.239984E+03  6.406078E-10  7.737849E-11
       393  18  1.221632E+06  7.147845E+04  8.087327E+04 -7.437715E+03 -2.206708E-10 -6.024169E-11
       393  19  5.891782E+05 -5.639826E+04 -4.800355E+04 -3.565441E+03 -2.036316E+04 -3.068416E+03
       393  20  6.069332E+05 -8.308973E+04 -6.081363E+04  6.688212E+02 -1.490823E+04 -9.076656E+03
       393  21  6.344797E+05 -7.424921E+04 -6.115418E+04 -1.460678E+04 -9.460600E+03 -8.204846E+03
       393  22  9.280005E+05  2.804270E+04  3.577064E+04 -1.105597E+04 -2.445954E+04 -3.072893E+03
       393  23  9.228574E+05 -4.689091E+03  1.555139E+04 -1.285010E+03 -1.602645E+04 -9.077385E+03
       393  24  9.280163E+05 -1.382213E+03  9.862721E+03 -1.102307E+04 -7.600865E+03 -8.203271E+03
       393  25  1.266927E+06  1.124753E+05  1.195364E+05 -1.855062E+04 -2.855815E+04 -3.077269E+03
       393  26  1.238873E+06  7.370427E+04  9.190927E+04 -3.239859E+03 -1.714524E+04 -9.078107E+03
       393  27  1.221632E+06  7.147853E+04  8.087346E+04 -7.437677E+03 -5.740254E+03 -8.201676E+03
       394   1  6.678937E+05 -6.087566E+04 -5.451797E+04 -1.008995E+04  6.005283E+03  6.707137E+03
       394   2  6.884000E+05 -5.938034E+04 -5.330074E+04 -1.458799E+03  4.171077E+03  6.494750E+03
       394   3  7.102900E+05 -5.373635E+04 -4.983082E+04 -1.125430E+04  2.336739E+03  5.692207E+03
       394   4  9.260467E+05  3.228009E+03  8.078269E+03 -1.079368E+04  6.043215E+03  6.706971E+03
       394   5  9.253348E+05 -5.643662E+02  4.054390E+03 -1.579601E+03  3.953085E+03  6.494485E+03
       394   6  9.260501E+05 -1.645300E+02  2.460078E+03 -1.079172E+04  1.862887E+03  5.691940E+03
       394   7  1.184260E+06  6.732680E+04  7.066971E+04 -1.149771E+04  6.081162E+03  6.706806E+03
       394   8  1.162321E+06  5.824750E+04  6.140549E+04 -1.700456E+03  3.735011E+03  6.494221E+03
       394   9  1.141853E+06  5.340388E+04  5.474763E+04 -1.032898E+04  1.388871E+03  5.691672E+03
       394  10  6.678937E+05 -6.087572E+04 -5.451812E+04 -1.008998E+04 -2.863164E-11 -3.976434E-11
       394  11  6.884000E+05 -5.938039E+04 -5.330085E+04 -1.458821E+03 -2.945535E-10  1.510534E-10
       394  12  7.102900E+05 -5.373638E+04 -4.983089E+04 -1.125431E+04 -4.852265E-11  2.519685E-10
       394  13  9.260467E+05  3.227951E+03  8.078116E+03 -1.079371E+04 -7.979710E-11 -3.871779E-11
       394  14  9.253348E+05 -5.644157E+02  4.054281E+03 -1.579622E+03 -1.111934E-10  2.405882E-10
       394  15  9.260500E+05 -1.645657E+02  2.460011E+03 -1.079173E+04 -2.299623E-11  3.284163E-11
       394  16  1.184260E+06  6.732674E+04  7.066955E+04 -1.149774E+04  3.285889E-11  4.442994E-11
       394  17  1.162321E+06  5.824745E+04  6.140538E+04 -1.700475E+03  3.143155E-10  1.707560E-10
       394  18  1.141853E+06  5.340384E+04  5.474756E+04 -1.032899E+04  3.029375E-11 -4.001823E-11
       394  19  6.678937E+05 -6.087566E+04 -5.451797E+04 -1.008995E+04 -6.005283E+03 -6.707137E+03
       394  20  6.884000E+05 -5.938034E+04 -5.330074E+04 -1.458799E+03 -4.171077E+03 -6.494750E+03
       394  21  7.102900E+05 -5.373635E+04 -4.983082E+04 -1.125430E+04 -2.336739E+03 -5.692207E+03
       394  22  9.260467E+05  3.228009E+03  8.078269E+03 -1.079368E+04 -6.043215E+03 -6.706971E+03
       394  23  9.253348E+05 -5.643662E+02  4.054390E+03 -1.579601E+03 -3.953085E+03 -6.494485E+03
       394  24  9.260501E+05 -1.645300E+02  2.460078E+03 -1.079172E+04 -1.862887E+03 -5.691940E+03
       394  25  1.184260E+06  6.732680E+04  7.066971E+04 -1.149771E+04 -6.081162E+03 -6.706806E+03
       394  26  1.162321E+06  5.824750E+04  6.140549E+04 -1.700456E+03 -3.735011E+03 -6.494221E+03
       394  27  1.141853E+06  5.340388E+04  5.474763E+04 -1.032898E+04 -1.388871E+03 -5.691672E+03
       395   1  7.434914E+05 -4.488461E+04 -4.213880E+04 -1.055781E+04  1.775933E+03  5.143934E+03
       395   2  7.635769E+05 -4.030913E+04 -3.815348E+04 -1.817721E+03  1.244489E+03  4.417683E+03
       395   3  7.838977E+05 -3.525043E+04 -3.369231E+04 -1.065151E+04  7.127476E+02  3.651974E+03
       395   4  9.257893E+05  3.587095E+02  1.947211E+03 -1.060288E+04  1.470773E+03  5.143769E+03
       395   5  9.256707E+05 -7.180040E+01  1.089874E+03 -1.816046E+03  9.221218E+02  4.417573E+03
       395   6  9.257903E+05 -1.607778E+01  7.203278E+02 -1.060280E+04  3.731902E+02  3.651924E+03
       395   7  1.108118E+06  4.559960E+04  4.603084E+04 -1.064796E+04  1.165524E+03  5.143605E+03
       395   8  1.087789E+06  4.016360E+04  4.033134E+04 -1.814372E+03  5.996707E+02  4.417463E+03
       395   9  1.067701E+06  3.521680E+04  3.513152E+04 -1.055409E+04  3.355542E+01  3.651874E+03
       395  10  7.434914E+05 -4.488464E+04 -4.213886E+04 -1.055782E+04  3.636616E-11  1.998318E-11
       395  11  7.635769E+05 -4.030915E+04 -3.815352E+04 -1.817726E+03 -8.373093E-11 -1.260156E-10
       395  12  7.838977E+05 -3.525044E+04 -3.369234E+04 -1.065151E+04 -7.227189E-11  3.507485E-11
       395  13  9.257893E+05  3.586805E+02  1.947157E+03 -1.060289E+04 -2.931553E-11 -2.318056E-11
       395  14  9.256707E+05 -7.182160E+01  1.089836E+03 -1.816050E+03  5.893719E-11 -3.238233E-11
       395  15  9.257903E+05 -1.609215E+01  7.203025E+02 -1.060281E+04 -1.335556E-11 -1.717886E-11
       395  16  1.108118E+06  4.559957E+04  4.603079E+04 -1.064797E+04 -9.170453E-11 -1.408203E-10
       395  17  1.087789E+06  4.016358E+04  4.033131E+04 -1.814374E+03  1.509256E-10 -2.725905E-11
       395  18  1.067701E+06  3.521678E+04  3.513149E+04 -1.055409E+04  1.708506E-10 -5.203223E-11
       395  19  7.434914E+05 -4.488461E+04 -4.213880E+04 -1.055781E+04 -1.775933E+03 -5.143934E+03
       395  20  7.635769E+05 -4.030913E+04 -3.815348E+04 -1.817721E+03 -1.244489E+03 -4.417683E+03
       395  21  7.838977E+05 -3.525043E+04 -3.369231E+04 -1.065151E+04 -7.127476E+02 -3.651974E+03
       395  22  9.257893E+05  3.587095E+02  1.947211E+03 -1.060288E+04 -1.470773E+03 -5.143769E+03
       395  23  9.256707E+05 -7.180040E+01  1.089874E+03 -1.816046E+03 -9.221218E+02 -4.417573E+03
       395  24  9.257903E+05 -1.607778E+01  7.203278E+02 -1.060280E+04 -3.731902E+02 -3.651924E+03
       395  25  1.108118E+06  4.559960E+04  4.603084E+04 -1.064796E+04 -1.165524E+03 -5.143605E+03
       395  26  1.087789E+06  4.016360E+04  4.033134E+04 -1.814372E+03 -5.996707E+02 -4.417463E+03
       395  27  1.067701E+06  3.521680E+04  3.513152E+04 -1.055409E+04 -3.355542E+01 -3.651874E+03
       396   1  8.160191E+05 -2.718986E+04 -2.588870E+04 -1.047067E+04  5.767618E+02  3.203362E+03
       396   2  8.355635E+05 -2.239284E+04 -2.130187E+04 -1.956330E+03  3.139060E+02  2.455265E+03
       396   3  8.551716E+05 -1.751164E+04 -1.652141E+04 -1.047582E+04  5.087683E+01  1.710812E+03
       396   4  9.257536E+05  3.721223E+01  6.175994E+02 -1.048284E+04  2.525008E+02  3.203346E+03
       396   5  9.257224E+05 -1.314515E+01  5.253824E+02 -1.965997E+03 -8.823654E+00  2.455280E+03
       396   6  9.257540E+05  2.036352E+01  6.256596E+02 -1.048283E+04 -2.703132E+02  1.710860E+03
       396   7  1.035499E+06  2.726341E+04  2.712304E+04 -1.049501E+04 -7.181725E+01  3.203329E+03
       396   8  1.015889E+06  2.236596E+04  2.235205E+04 -1.975665E+03 -3.316000E+02  2.455295E+03
       396   9  9.963409E+05  1.755200E+04  1.777236E+04 -1.048984E+04 -5.915397E+02  1.710908E+03
       396  10  8.160191E+05 -2.718987E+04 -2.588872E+04 -1.047067E+04  9.852222E-12  9.329063E-12
       396  11  8.355635E+05 -2.239285E+04 -2.130188E+04 -1.956330E+03  1.012118E-10  2.126263E-11
       396  12  8.551716E+05 -1.751164E+04 -1.652141E+04 -1.047582E+04  1.142317E-10 -1.583362E-10
       396  13  9.257536E+05  3.720119E+01  6.175799E+02 -1.048284E+04  3.337396E-11 -1.322417E-10
       396  14  9.257224E+05 -1.315162E+01  5.253711E+02 -1.965997E+03  4.236463E-11 -5.540661E-11
       396  15  9.257540E+05  2.036036E+01  6.256539E+02 -1.048283E+04  1.662207E-10 -7.024478E-11
       396  16  1.035499E+06  2.726339E+04  2.712302E+04 -1.049501E+04  6.564271E-11 -9.160169E-11
       396  17  1.015889E+06  2.236595E+04  2.235204E+04 -1.975664E+03  4.926115E-11  9.612189E-11
       396  18  9.963409E+05  1.755200E+04  1.777236E+04 -1.048984E+04  5.067818E-12  4.092291E-11
       396  19  8.160191E+05 -2.718986E+04 -2.588870E+04 -1.047067E+04 -5.767618E+02 -3.203362E+03
       396  20  8.355635E+05 -2.239284E+04 -2.130187E+04 -1.956330E+03 -3.139060E+02 -2.455265E+03
       396  21  8.551716E+05 -1.751164E+04 -1.652141E+04 -1.047582E+04 -5.087683E+01 -1.710812E+03
       396  22  9.257536E+05  3.721223E+01  6.175994E+02 -1.048284E+04 -2.525008E+02 -3.203346E+03
       396  23  9.257224E+05 -1.314515E+01  5.253824E+02 -1.965997E+03  8.823654E+00 -2.455280E+03
       396  24  9.257540E+05  2.036352E+01  6.256596E+02 -1.048283E+04  2.703132E+02 -1.710860E+03
       396  25  1.035499E+06  2.726341E+04  2.712304E+04 -1.049501E+04  7.181725E+01 -3.203329E+03
       396  26  1.015889E+06  2.236596E+04  2.235205E+04 -1.975665E+03  3.316000E+02 -2.455295E+03
       396  27  9.963409E+05  1.755200E+04  1.777236E+04 -1.048984E+04  5.915397E+02 -1.710908E+03
       397   1  8.866208E+05 -9.705871E+03 -8.680439E+03 -1.039497E+04 -7.307778E+01  1.279022E+03
       397   2  9.058619E+05 -4.958905E+03 -3.662676E+03 -2.022805E+03 -6.438917E+02  5.402800E+02
       397   3  9.252305E+05  3.279229E+01  1.785693E+03 -1.044579E+04 -1.214758E+03 -1.939435E+02
       397   4  9.257692E+05 -5.149497E-01  7.371242E+02 -1.042983E+04 -3.935961E+02  1.279084E+03
       397   5  9.257057E+05 -3.336927E+01  1.141323E+03 -2.032249E+03 -9.624754E+02  5.403481E+02
       397   6  9.257690E+05  1.781972E+02  1.974810E+03 -1.042978E+04 -1.531389E+03 -1.938682E+02
       397   7  9.649191E+05  9.704730E+03  1.015458E+04 -1.046469E+04 -7.141345E+02  1.279147E+03
       397   8  9.455498E+05  4.892138E+03  5.945294E+03 -2.041694E+03 -1.281069E+03  5.404163E+02
       397   9  9.263075E+05  3.236022E+02  2.163926E+03 -1.041377E+04 -1.848021E+03 -1.937928E+02
       397  10  8.866208E+05 -9.705873E+03 -8.680443E+03 -1.039497E+04  1.800984E-11 -1.886115E-10
       397  11  9.058619E+05 -4.958905E+03 -3.662677E+03 -2.022804E+03  1.863938E-10 -2.767470E-12
       397  12  9.252305E+05  3.279186E+01  1.785690E+03 -1.044579E+04 -2.665559E-10  1.955326E-10
       397  13  9.257692E+05 -5.167488E-01  7.371208E+02 -1.042983E+04  3.421906E-11 -1.136566E-10
       397  14  9.257057E+05 -3.336984E+01  1.141321E+03 -2.032249E+03 -7.547264E-11  5.985077E-11
       397  15  9.257690E+05  1.781966E+02  1.974805E+03 -1.042978E+04 -8.899688E-11  3.836088E-11
       397  16  9.649191E+05  9.704728E+03  1.015458E+04 -1.046469E+04 -1.780198E-11 -1.358749E-10
       397  17  9.455498E+05  4.892137E+03  5.945291E+03 -2.041694E+03 -2.517287E-10  2.565457E-10
       397  18  9.263075E+05  3.236012E+02  2.163920E+03 -1.041378E+04  2.445566E-10 -4.630567E-11
       397  19  8.866208E+05 -9.705871E+03 -8.680439E+03 -1.039497E+04  7.307778E+01 -1.279022E+03
       397  20  9.058619E+05 -4.958905E+03 -3.662676E+03 -2.022805E+03  6.438917E+02 -5.402800E+02
       397  21  9.252305E+05  3.279229E+01  1.785693E+03 -1.044579E+04  1.214758E+03  1.939435E+02
       397  22  9.257692E+05 -5.149497E-01  7.371242E+02 -1.042983E+04  3.935961E+02 -1.279084E+03
       397  23  9.257057E+05 -3.336927E+01  1.141323E+03 -2.032249E+03  9.624754E+02 -5.403481E+02
       397  24  9.257690E+05  1.781972E+02  1.974810E+03 -1.042978E+04  1.531389E+03  1.938682E+02
       397  25  9.649191E+05  9.704730E+03  1.015458E+04 -1.046469E+04  7.141345E+02 -1.279147E+03
       397  26  9.455498E+05  4.892138E+03  5.945294E+03 -2.041694E+03  1.281069E+03 -5.404163E+02
       397  27  9.263075E+05  3.236022E+02  2.163926E+03 -1.041377E+04  1.848021E+03  1.937928E+02
       398   1  9.566535E+05  7.573894E+03  1.004268E+04 -1.022902E+04 -1.611303E+03 -6.275120E+02
       398   2  9.756377E+05  1.216436E+04  1.644138E+04 -2.069797E+03 -3.795994E+03 -1.366172E+03
       398   3  9.954138E+05  1.880221E+04  2.477161E+04 -1.077064E+04 -5.980632E+03 -2.074315E+03
       398   4  9.259161E+05 -6.698921E+01  2.542980E+03 -1.044435E+04 -1.937498E+03 -6.274378E+02
       398   5  9.255203E+05 -2.748957E+02  4.309727E+03 -2.014144E+03 -4.108832E+03 -1.366120E+03
       398   6  9.259141E+05  1.562474E+03  7.998975E+03 -1.044407E+04 -6.280045E+03 -2.074285E+03
       398   7  8.951796E+05 -7.707942E+03 -4.956788E+03 -1.065968E+04 -2.263677E+03 -6.273634E+02
       398   8  8.754052E+05 -1.271434E+04 -7.822111E+03 -1.958496E+03 -4.421644E+03 -1.366068E+03
       398   9  8.564188E+05 -1.567761E+04 -8.774004E+03 -1.011755E+04 -6.579426E+03 -2.074255E+03
       398  10  9.566535E+05  7.573893E+03  1.004267E+04 -1.022902E+04 -9.019162E-11 -1.933047E-11
       398  11  9.756377E+05  1.216436E+04  1.644135E+04 -2.069801E+03  7.076684E-11 -1.625497E-10
       398  12  9.954138E+05  1.880219E+04  2.477153E+04 -1.077065E+04 -2.309802E-10 -3.768812E-11
       398  13  9.259161E+05 -6.699064E+01  2.542972E+03 -1.044435E+04 -5.114016E-11 -2.376436E-11
       398  14  9.255203E+05 -2.749022E+02  4.309692E+03 -2.014148E+03 -1.184982E-10 -2.007512E-10
       398  15  9.259141E+05  1.562459E+03  7.998893E+03 -1.044409E+04 -1.467448E-10 -9.164856E-11
       398  16  8.951796E+05 -7.707944E+03 -4.956799E+03 -1.065968E+04  4.360605E-11 -1.930376E-11
       398  17  8.754051E+05 -1.271434E+04 -7.822151E+03 -1.958500E+03 -1.502908E-10 -3.688051E-11
       398  18  8.564188E+05 -1.567763E+04 -8.774093E+03 -1.011756E+04 -1.361779E-10  9.900982E-11
       398  19  9.566535E+05  7.573894E+03  1.004268E+04 -1.022902E+04  1.611303E+03  6.275120E+02
       398  20  9.756377E+05  1.216436E+04  1.644138E+04 -2.069797E+03  3.795994E+03  1.366172E+03
       398  21  9.954138E+05  1.880221E+04  2.477161E+04 -1.077064E+04  5.980632E+03  2.074315E+03
       398  22  9.259161E+05 -6.698921E+01  2.542980E+03 -1.044435E+04  1.937498E+03  6.274378E+02
       398  23  9.255203E+05 -2.748957E+02  4.309727E+03 -2.014144E+03  4.108832E+03  1.366120E+03
       398  24  9.259141E+05  1.562474E+03  7.998975E+03 -1.044407E+04  6.280045E+03  2.074285E+03
       398  25  8.951796E+05 -7.707942E+03 -4.956788E+03 -1.065968E+04  2.263677E+03  6.273634E+02
       398  26  8.754052E+05 -1.271434E+04 -7.822111E+03 -1.958496E+03  4.421644E+03  1.366068E+03
       398  27  8.564188E+05 -1.567761E+04 -8.774004E+03 -1.011755E+04  6.579426E+03  2.074255E+03
       399   1  1.028155E+06  2.447591E+04  3.471598E+04 -8.787106E+03 -7.486242E+03 -2.566275E+03
       399   2  1.045170E+06  2.771485E+04  4.621369E+04 -2.778375E+03 -1.638321E+04 -3.319424E+03
       399   3  1.067768E+06  4.858181E+04  6.790783E+04 -1.398945E+04 -2.528045E+04 -3.687988E+03
       399   4  9.269727E+05 -6.471308E+02  1.017025E+04 -1.052421E+04 -7.894655E+03 -2.566229E+03
       399   5  9.241905E+05 -2.310188E+03  1.693599E+04 -1.914415E+03 -1.662377E+04 -3.319480E+03
       399   6  9.269629E+05  1.362756E+04  3.378322E+04 -1.052451E+04 -2.535288E+04 -3.688186E+03
       399   7  8.258000E+05 -2.577091E+04 -1.437621E+04 -1.226103E+04 -8.303001E+03 -2.566180E+03
       399   8  8.032243E+05 -3.233629E+04 -1.234277E+04 -1.050624E+03 -1.686429E+04 -3.319537E+03
       399   9  7.861756E+05 -2.132809E+04 -3.428150E+02 -7.060366E+03 -2.542530E+04 -3.688385E+03
       399  10  1.028155E+06  2.447588E+04  3.471586E+04 -8.787121E+03 -1.867234E-10 -1.755434E-10
       399  11  1.045170E+06  2.771476E+04  4.621317E+04 -2.778419E+03  3.186252E-10  1.033811E-10
       399  12  1.067768E+06  4.858162E+04  6.790661E+04 -1.398952E+04  1.585192E-11  3.008245E-10
       399  13  9.269727E+05 -6.471546E+02  1.017013E+04 -1.052423E+04 -1.757921E-10  3.554390E-11
       399  14  9.241902E+05 -2.310274E+03  1.693545E+04 -1.914460E+03 -1.856465E-10  1.475817E-10
       399  15  9.269622E+05  1.362738E+04  3.378199E+04 -1.052459E+04  2.788151E-11  5.006471E-11
       399  16  8.258000E+05 -2.577093E+04 -1.437635E+04 -1.226105E+04 -1.110735E-11  1.440482E-10
       399  17  8.032240E+05 -3.233638E+04 -1.234332E+04 -1.050669E+03 -3.015754E-10  3.299843E-10
       399  18  7.861749E+05 -2.132828E+04 -3.440538E+02 -7.060442E+03 -2.870093E-10  1.127138E-10
       399  19  1.028155E+06  2.447591E+04  3.471598E+04 -8.787106E+03  7.486242E+03  2.566275E+03
       399  20  1.045170E+06  2.771485E+04  4.621369E+04 -2.778375E+03  1.638321E+04  3.319424E+03
       399  21  1.067768E+06  4.858181E+04  6.790783E+04 -1.398945E+04  2.528045E+04  3.687988E+03
       399  22  9.269727E+05 -6.471308E+02  1.017025E+04 -1.052421E+04  7.894655E+03  2.566229E+03
       399  23  9.241905E+05 -2.310188E+03  1.693599E+04 -1.914415E+03  1.662377E+04  3.319480E+03
       399  24  9.269629E+05  1.362756E+04  3.378322E+04 -1.052451E+04  2.535288E+04  3.688186E+03
       399  25  8.258000E+05 -2.577091E+04 -1.437621E+04 -1.226103E+04  8.303001E+03  2.566180E+03
       399  26  8.032243E+05 -3.233629E+04 -1.234277E+04 -1.050624E+03  1.686429E+04  3.319537E+03
       399  27  7.861756E+05 -2.132809E+04 -3.428150E+02 -7.060366E+03  2.542530E+04  3.688385E+03
       400   1  1.108617E+06  3.736479E+04  8.321933E+04  3.693768E+03 -3.056621E+04 -4.792178E+03
       400   2  1.107896E+06  2.858910E+04  1.120278E+05 -1.085848E+04 -6.779504E+04 -5.592346E+03
       400   3  1.149866E+06  1.710209E+05  2.028599E+05 -4.326541E+04 -1.050263E+05 -1.940032E+03
       400   4  9.351541E+05 -5.686346E+03  4.124991E+04 -1.065320E+04 -3.186708E+04 -4.791698E+03
       400   5  9.139420E+05 -1.952565E+04  6.516502E+04 -1.747523E+03 -6.716120E+04 -5.593300E+03
       400   6  9.350989E+05  1.175305E+05  1.497754E+05 -1.069532E+04 -1.024564E+05 -1.944617E+03
       400   7  7.617194E+05 -4.873891E+04 -7.215500E+02 -2.499615E+04 -3.316757E+04 -4.791157E+03
       400   8  7.200228E+05 -6.764283E+04  1.829958E+04  7.360582E+03 -6.652756E+04 -5.594235E+03
       400   9  7.203755E+05  6.404070E+04  9.668809E+04  2.186351E+04 -9.988736E+04 -1.948934E+03
       400  10  1.108616E+06  3.736451E+04  8.321754E+04  3.693651E+03  2.167320E-10  1.310572E-10
       400  11  1.107891E+06  2.858784E+04  1.120191E+05 -1.085879E+04  5.336264E-11 -1.230146E-10
       400  12  1.149855E+06  1.710179E+05  2.028392E+05 -4.326558E+04 -5.779169E-11 -1.535164E-10
       400  13  9.351530E+05 -5.686643E+03  4.124797E+04 -1.065332E+04 -1.684749E-11  2.012902E-11
       400  14  9.139371E+05 -1.952689E+04  6.515650E+04 -1.747825E+03  1.804714E-11  2.941705E-11
       400  15  9.350876E+05  1.175277E+05  1.497557E+05 -1.069548E+04 -7.558392E-11 -3.138200E-11
       400  16  7.617182E+05 -4.873923E+04 -7.236579E+02 -2.499628E+04 -1.013011E-10 -6.883109E-11
       400  17  7.200181E+05 -6.764405E+04  1.829121E+04  7.360282E+03  1.600920E-10  2.788264E-10
       400  18  7.203648E+05  6.403802E+04  9.666936E+04  2.186336E+04 -1.067823E-10  7.473270E-11
       400  19  1.108617E+06  3.736479E+04  8.321933E+04  3.693768E+03  3.056621E+04  4.792178E+03
       400  20  1.107896E+06  2.858910E+04  1.120278E+05 -1.085848E+04  6.779504E+04  5.592346E+03
       400  21  1.149866E+06  1.710209E+05  2.028599E+05 -4.326541E+04  1.050263E+05  1.940032E+03
       400  22  9.351541E+05 -5.686346E+03  4.124991E+04 -1.065320E+04  3.186708E+04  4.791698E+03
       400  23  9.139420E+05 -1.952565E+04  6.516502E+04 -1.747523E+03  6.716120E+04  5.593300E+03
       400  24  9.350989E+05  1.175305E+05  1.497754E+05 -1.069532E+04  1.024564E+05  1.944617E+03
       400  25  7.617194E+05 -4.873891E+04 -7.215500E+02 -2.499615E+04  3.316757E+04  4.791157E+03
       400  26  7.200228E+05 -6.764283E+04  1.829958E+04  7.360582E+03  6.652756E+04  5.594235E+03
       400  27  7.203755E+05  6.404070E+04  9.668809E+04  2.186351E+04  9.988736E+04  1.948934E+03
       401   1 -5.976858E+04 -7.576291E+04 -7.021438E+04 -9.175683E+03  1.067839E+04  3.358723E+03
       401   2 -3.625878E+04 -8.906291E+04 -7.424210E+04 -1.192630E+03  8.742813E+03  9.961703E+03
       401   3 -6.839268E+03 -8.049660E+04 -7.150457E+04 -1.600031E+04  6.809124E+03  8.938189E+03
       401   4  3.138092E+05  1.742662E+04  2.222356E+04 -1.391780E+04  1.518439E+04  3.360040E+03
       401   5  3.105727E+05 -2.927328E+03  9.652170E+03 -2.520370E+03  9.951860E+03  9.961448E+03
       401   6  3.138145E+05 -8.491237E+02  6.131934E+03 -1.391283E+04  4.721388E+03  8.938217E+03
       401   7  6.875139E+05  1.106058E+05  1.146512E+05 -1.866277E+04  1.969308E+04  3.361288E+03
       401   8  6.575141E+05  8.319946E+04  9.353780E+04 -3.848857E+03  1.116158E+04  9.961188E+03
       401   9  6.345622E+05  7.879084E+04  8.376106E+04 -1.182426E+04  2.632577E+03  8.938231E+03
       401  10 -5.976870E+04 -7.576295E+04 -7.021461E+04 -9.175712E+03 -2.788523E-11  1.708715E-10
       401  11 -3.625889E+04 -8.906304E+04 -7.424243E+04 -1.192700E+03  2.787758E-10  1.339153E-10
       401  12 -6.839339E+03 -8.049670E+04 -7.150481E+04 -1.600036E+04  1.092292E-10 -1.927879E-10
       401  13  3.138090E+05  1.742654E+04  2.222310E+04 -1.391784E+04  9.405080E-11  5.160867E-11
       401  14  3.105726E+05 -2.927461E+03  9.651797E+03 -2.520450E+03  1.346239E-10  7.606456E-11
       401  15  3.138145E+05 -8.492155E+02  6.131742E+03 -1.391286E+04 -1.028029E-10 -1.070014E-10
       401  16  6.875135E+05  1.106057E+05  1.146505E+05 -1.866283E+04  2.066952E-10  2.161100E-10
       401  17  6.575140E+05  8.319932E+04  9.353738E+04 -3.848947E+03 -2.674188E-10  1.892658E-10
       401  18  6.345622E+05  7.879076E+04  8.376090E+04 -1.182428E+04 -3.496938E-11 -6.566260E-11
       401  19 -5.976858E+04 -7.576291E+04 -7.021438E+04 -9.175683E+03 -1.067839E+04 -3.358723E+03
       401  20 -3.625878E+04 -8.906291E+04 -7.424210E+04 -1.192630E+03 -8.742813E+03 -9.961703E+03
       401  21 -6.839268E+03 -8.049660E+04 -7.150457E+04 -1.600031E+04 -6.809124E+03 -8.938189E+03
       401  22  3.138092E+05  1.742662E+04  2.222356E+04 -1.391780E+04 -1.518439E+04 -3.360040E+03
       401  23  3.105727E+05 -2.927328E+03  9.652170E+03 -2.520370E+03 -9.951860E+03 -9.961448E+03
       401  24  3.138145E+05 -8.491237E+02  6.131934E+03 -1.391283E+04 -4.721388E+03 -8.938217E+03
       401  25  6.875139E+05  1.106058E+05  1.146512E+05 -1.866277E+04 -1.969308E+04 -3.361288E+03
       401  26  6.575141E+05  8.319946E+04  9.353780E+04 -3.848857E+03 -1.116158E+04 -9.961188E+03
       401  27  6.345622E+05  7.879084E+04  8.376106E+04 -1.182426E+04 -2.632577E+03 -8.938231E+03
       402   1  3.429530E+04 -6.713999E+04 -6.250049E+04 -1.328546E+04  3.743957E+03  7.241197E+03
       402   2  5.975144E+04 -6.304783E+04 -5.861326E+04 -2.386867E+03  2.732694E+03  6.922325E+03
       402   3  8.606077E+04 -5.636720E+04 -5.340511E+04 -1.400315E+04  1.720617E+03  5.934763E+03
       402   4  3.125821E+05  2.012194E+03  5.021824E+03 -1.385231E+04  3.751647E+03  7.240981E+03
       402   5  3.121322E+05 -3.541542E+02  2.522399E+03 -2.595491E+03  2.450984E+03  6.922264E+03
       402   6  3.125843E+05 -8.241925E+01  1.544314E+03 -1.385297E+04  1.149545E+03  5.934978E+03
       402   7  5.909396E+05  7.115869E+04  7.253855E+04 -1.441940E+04  3.759340E+03  7.240765E+03
       402   8  5.645711E+05  6.233486E+04  6.365348E+04 -2.804195E+03  2.169160E+03  6.922203E+03
       402   9  5.391547E+05  5.619859E+04  5.649004E+04 -1.370272E+04  5.782659E+02  5.935193E+03
       402  10  3.429527E+04 -6.714005E+04 -6.250061E+04 -1.328548E+04 -1.833432E-10 -2.017100E-10
       402  11  5.975142E+04 -6.304789E+04 -5.861337E+04 -2.386882E+03 -3.799181E-11 -1.340003E-10
       402  12  8.606075E+04 -5.636723E+04 -5.340518E+04 -1.400316E+04 -2.283751E-10  2.331113E-10
       402  13  3.125821E+05  2.012133E+03  5.021699E+03 -1.385233E+04 -3.297974E-10 -7.315124E-11
       402  14  3.121322E+05 -3.542073E+02  2.522298E+03 -2.595505E+03 -2.209058E-11 -4.830525E-10
       402  15  3.125843E+05 -8.245744E+01  1.544246E+03 -1.385297E+04 -2.026304E-10  6.319774E-11
       402  16  5.909396E+05  7.115863E+04  7.253842E+04 -1.441943E+04  1.191628E-10 -1.681117E-10
       402  17  5.645711E+05  6.233481E+04  6.365338E+04 -2.804207E+03 -3.472021E-10  1.284211E-11
       402  18  5.391547E+05  5.619855E+04  5.648997E+04 -1.370272E+04  3.831134E-10  2.015149E-12
       402  19  3.429530E+04 -6.713999E+04 -6.250049E+04 -1.328546E+04 -3.743957E+03 -7.241197E+03
       402  20  5.975144E+04 -6.304783E+04 -5.861326E+04 -2.386867E+03 -2.732694E+03 -6.922325E+03
       402  21  8.606077E+04 -5.636720E+04 -5.340511E+04 -1.400315E+04 -1.720617E+03 -5.934763E+03
       402  22  3.125821E+05  2.012194E+03  5.021824E+03 -1.385231E+04 -3.751647E+03 -7.240981E+03
       402  23  3.121322E+05 -3.541542E+02  2.522399E+03 -2.595491E+03 -2.450984E+03 -6.922264E+03
       402  24  3.125843E+05 -8.241925E+01  1.544314E+03 -1.385297E+04 -1.149545E+03 -5.934978E+03
       402  25  5.909396E+05  7.115869E+04  7.253855E+04 -1.441940E+04 -3.759340E+03 -7.240765E+03
       402  26  5.645711E+05  6.233486E+04  6.365348E+04 -2.804195E+03 -2.169160E+03 -6.922203E+03
       402  27  5.391547E+05  5.619859E+04  5.649004E+04 -1.370272E+04 -5.782659E+02 -5.935193E+03
       403   1  1.275564E+05 -4.566883E+04 -4.349487E+04 -1.364476E+04  1.287320E+03  5.264627E+03
       403   2  1.530296E+05 -3.961922E+04 -3.788881E+04 -2.572053E+03  9.532433E+02  4.345339E+03
       403   3  1.786255E+05 -3.323342E+04 -3.198253E+04 -1.372461E+04  6.187432E+02  3.371077E+03
       403   4  3.124168E+05  2.393788E+02  1.228440E+03 -1.378830E+04  9.020753E+02  5.264797E+03
       403   5  3.123543E+05 -4.238137E+01  7.100460E+02 -2.675927E+03  5.441453E+02  4.345597E+03
       403   6  3.124180E+05  1.618274E+01  5.084104E+02 -1.378846E+04  1.858053E+02  3.371432E+03
       403   7  4.973084E+05  4.614509E+04  4.594930E+04 -1.393188E+04  5.167165E+02  5.264966E+03
       403   8  4.717022E+05  3.953260E+04  3.930708E+04 -2.779823E+03  1.349426E+02  4.345855E+03
       403   9  4.462267E+05  3.326447E+04  3.299806E+04 -1.385232E+04 -2.472257E+02  3.371787E+03
       403  10  1.275564E+05 -4.566886E+04 -4.349492E+04 -1.364476E+04 -6.038819E-11  1.361873E-11
       403  11  1.530296E+05 -3.961924E+04 -3.788885E+04 -2.572056E+03  3.316411E-10  2.317611E-10
       403  12  1.786255E+05 -3.323343E+04 -3.198255E+04 -1.372461E+04 -2.881667E-10 -5.925213E-10
       403  13  3.124168E+05  2.393488E+02  1.228387E+03 -1.378830E+04 -2.945173E-10  4.648244E-11
       403  14  3.123543E+05 -4.240174E+01  7.100099E+02 -2.675929E+03  5.015983E-11  5.218387E-10
       403  15  3.124179E+05  1.617052E+01  5.083890E+02 -1.378846E+04 -2.357399E-10  6.441792E-10
       403  16  4.973084E+05  4.614506E+04  4.594924E+04 -1.393188E+04 -6.245130E-11  4.441575E-12
       403  17  4.717022E+05  3.953257E+04  3.930704E+04 -2.779824E+03 -6.454385E-10 -5.333467E-10
       403  18  4.462267E+05  3.326446E+04  3.299804E+04 -1.385232E+04  1.665050E-10 -2.043029E-10
       403  19  1.275564E+05 -4.566883E+04 -4.349487E+04 -1.364476E+04 -1.287320E+03 -5.264627E+03
       403  20  1.530296E+05 -3.961922E+04 -3.788881E+04 -2.572053E+03 -9.532433E+02 -4.345339E+03
       403  21  1.786255E+05 -3.323342E+04 -3.198253E+04 -1.372461E+04 -6.187432E+02 -3.371077E+03
       403  22  3.124168E+05  2.393788E+02  1.228440E+03 -1.378830E+04 -9.020753E+02 -5.264797E+03
       403  23  3.123543E+05 -4.238137E+01  7.100460E+02 -2.675927E+03 -5.441453E+02 -4.345597E+03
       403  24  3.124180E+05  1.618274E+01  5.084104E+02 -1.378846E+04 -1.858053E+02 -3.371432E+03
       403  25  4.973084E+05  4.614509E+04  4.594930E+04 -1.393188E+04 -5.167165E+02 -5.264966E+03
       403  26  4.717022E+05  3.953260E+04  3.930708E+04 -2.779823E+03 -1.349426E+02 -4.345855E+03
       403  27  4.462267E+05  3.326447E+04  3.299806E+04 -1.385232E+04  2.472257E+02 -3.371787E+03
       404   1  2.198307E+05 -2.293046E+04 -2.188482E+04 -1.367776E+04  5.140598E+02  2.796894E+03
       404   2  2.451730E+05 -1.670128E+04 -1.581957E+04 -2.667748E+03  2.837077E+02  1.831854E+03
       404   3  2.705232E+05 -1.036764E+04 -9.588672E+03 -1.371771E+04  5.319084E+01  8.639936E+02
       404   4  3.123944E+05  4.648666E+01  4.626336E+02 -1.375172E+04  9.756811E+01  2.797273E+03
       404   5  3.123907E+05 -4.984036E+00  4.644310E+02 -2.721804E+03 -1.340323E+02  1.832264E+03
       404   6  3.123949E+05  4.835532E+01  6.328699E+02 -1.375172E+04 -3.657882E+02  8.644376E+02
       404   7  4.049660E+05  2.302281E+04  2.280947E+04 -1.382568E+04 -3.189854E+02  2.797651E+03
       404   8  3.796125E+05  1.669098E+04  1.674811E+04 -2.775864E+03 -5.518174E+02  1.832675E+03
       404   9  3.542681E+05  1.046422E+04  1.085428E+04 -1.378572E+04 -7.847954E+02  8.648817E+02
       404  10  2.198307E+05 -2.293047E+04 -2.188483E+04 -1.367776E+04 -2.123947E-10 -1.349702E-10
       404  11  2.451730E+05 -1.670128E+04 -1.581958E+04 -2.667749E+03  4.640079E-10  5.291066E-11
       404  12  2.705232E+05 -1.036764E+04 -9.588673E+03 -1.371771E+04  4.713126E-11 -3.225807E-10
       404  13  3.123944E+05  4.647825E+01  4.626189E+02 -1.375172E+04 -2.007262E-10 -7.453099E-10
       404  14  3.123907E+05 -4.987646E+00  4.644246E+02 -2.721803E+03 -5.647174E-11  2.619047E-10
       404  15  3.123949E+05  4.835448E+01  6.328683E+02 -1.375172E+04  1.580363E-10 -6.362324E-10
       404  16  4.049660E+05  2.302280E+04  2.280946E+04 -1.382568E+04  8.428546E-11  1.952687E-10
       404  17  3.796125E+05  1.669097E+04  1.674810E+04 -2.775863E+03 -4.910795E-10 -1.895970E-10
       404  18  3.542681E+05  1.046422E+04  1.085428E+04 -1.378572E+04  1.834008E-10 -1.053056E-09
       404  19  2.198307E+05 -2.293046E+04 -2.188482E+04 -1.367776E+04 -5.140598E+02 -2.796894E+03
       404  20  2.451730E+05 -1.670128E+04 -1.581957E+04 -2.667748E+03 -2.837077E+02 -1.831854E+03
       404  21  2.705232E+05 -1.036764E+04 -9.588672E+03 -1.371771E+04 -5.319084E+01 -8.639936E+02
       404  22  3.123944E+05  4.648666E+01  4.626336E+02 -1.375172E+04 -9.756811E+01 -2.797273E+03
       404  23  3.123907E+05 -4.984036E+00  4.644310E+02 -2.721804E+03  1.340323E+02 -1.832264E+03
       404  24  3.123949E+05  4.835532E+01  6.328699E+02 -1.375172E+04  3.657882E+02 -8.644376E+02
       404  25  4.049660E+05  2.302281E+04  2.280947E+04 -1.382568E+04  3.189854E+02 -2.797651E+03
       404  26  3.796125E+05  1.669098E+04  1.674811E+04 -2.775864E+03  5.518174E+02 -1.832675E+03
       404  27  3.542681E+05  1.046422E+04  1.085428E+04 -1.378572E+04  7.847954E+02 -8.648817E+02
       405   1  3.115946E+05 -1.662608E+02  6.568477E+02 -1.371141E+04 -7.509760E+01  2.997483E+02
       405   2  3.368542E+05  6.049796E+03  7.194220E+03 -2.741722E+03 -7.063717E+02 -6.668919E+02
       405   3  3.622183E+05  1.257719E+04  1.420825E+04 -1.380113E+04 -1.337621E+03 -1.630030E+03
       405   4  3.124166E+05  2.239047E+01  7.780025E+02 -1.374498E+04 -4.938854E+02  3.001995E+02
       405   5  3.123648E+05 -3.280332E+01  1.261847E+03 -2.730297E+03 -1.123633E+03 -6.664549E+02
       405   6  3.124163E+05  2.230422E+02  2.221256E+03 -1.374476E+04 -1.753330E+03 -1.629605E+03
       405   7  3.132385E+05  2.110418E+02  8.991580E+02 -1.377854E+04 -9.126738E+02  3.006507E+02
       405   8  2.878759E+05 -6.115446E+03 -4.670569E+03 -2.718871E+03 -1.540878E+03 -6.660179E+02
       405   9  2.626165E+05 -1.213129E+04 -9.765910E+03 -1.368840E+04 -2.169006E+03 -1.629180E+03
       405  10  3.115946E+05 -1.662609E+02  6.568476E+02 -1.371141E+04 -5.907931E-10  3.598197E-10
       405  11  3.368542E+05  6.049795E+03  7.194218E+03 -2.741723E+03  5.253465E-10  1.323948E-09
       405  12  3.622183E+05  1.257719E+04  1.420824E+04 -1.380113E+04  1.031227E-09 -9.416102E-10
       405  13  3.124166E+05  2.239031E+01  7.780019E+02 -1.374497E+04 -1.558410E-10 -8.721142E-11
       405  14  3.123648E+05 -3.280413E+01  1.261844E+03 -2.730297E+03 -2.521505E-10 -7.013719E-10
       405  15  3.124163E+05  2.230385E+02  2.221245E+03 -1.374477E+04 -1.437130E-10  1.896814E-10
       405  16  3.132385E+05  2.110415E+02  8.991563E+02 -1.377854E+04  3.934759E-10 -1.122110E-10
       405  17  2.878759E+05 -6.115447E+03 -4.670574E+03 -2.718872E+03 -7.362680E-10 -2.781398E-10
       405  18  2.626165E+05 -1.213129E+04 -9.765924E+03 -1.368840E+04 -8.845194E-10  2.439293E-11
       405  19  3.115946E+05 -1.662608E+02  6.568477E+02 -1.371141E+04  7.509760E+01 -2.997483E+02
       405  20  3.368542E+05  6.049796E+03  7.194220E+03 -2.741722E+03  7.063717E+02  6.668919E+02
       405  21  3.622183E+05  1.257719E+04  1.420825E+04 -1.380113E+04  1.337621E+03  1.630030E+03
       405  22  3.124166E+05  2.239047E+01  7.780025E+02 -1.374498E+04  4.938854E+02 -3.001995E+02
       405  23  3.123648E+05 -3.280332E+01  1.261847E+03 -2.730297E+03  1.123633E+03  6.664549E+02
       405  24  3.124163E+05  2.230422E+02  2.221256E+03 -1.374476E+04  1.753330E+03  1.629605E+03
       405  25  3.132385E+05  2.110418E+02  8.991580E+02 -1.377854E+04  9.126738E+02 -3.006507E+02
       405  26  2.878759E+05 -6.115446E+03 -4.670569E+03 -2.718871E+03  1.540878E+03  6.660179E+02
       405  27  2.626165E+05 -1.213129E+04 -9.765910E+03 -1.368840E+04  2.169006E+03  1.629180E+03
       406   1  4.035090E+05  2.254305E+04  2.497335E+04 -1.358699E+04 -1.781264E+03 -2.201265E+03
       406   2  4.284987E+05  2.858706E+04  3.306411E+04 -2.837027E+03 -4.262673E+03 -3.170046E+03
       406   3  4.543717E+05  3.699090E+04  4.335290E+04 -1.421713E+04 -6.743878E+03 -4.089523E+03
       406   4  3.125870E+05 -5.385475E+01  2.871736E+03 -1.376792E+04 -2.211458E+03 -2.200849E+03
       406   5  3.121467E+05 -3.105097E+02  4.880938E+03 -2.701951E+03 -4.671148E+03 -3.169707E+03
       406   6  3.125856E+05  1.789223E+03  9.073467E+03 -1.376630E+04 -7.130535E+03 -4.089259E+03
       406   7  2.216726E+05 -2.265136E+04 -1.923048E+04 -1.394881E+04 -2.641588E+03 -2.200433E+03
       406   8  1.958071E+05 -2.920907E+04 -2.330321E+04 -2.566899E+03 -5.079548E+03 -3.169369E+03
       406   9  1.708178E+05 -3.341392E+04 -2.520741E+04 -1.331557E+04 -7.517105E+03 -4.088995E+03
       406  10  4.035090E+05  2.254304E+04  2.497334E+04 -1.358700E+04  1.082077E-10 -1.021865E-09
       406  11  4.284987E+05  2.858704E+04  3.306406E+04 -2.837038E+03  2.690836E-10  1.169441E-10
       406  12  4.543717E+05  3.699087E+04  4.335278E+04 -1.421715E+04 -2.927537E-10  3.086539E-10
       406  13  3.125870E+05 -5.386127E+01  2.871718E+03 -1.376792E+04 -4.729913E-10 -1.635593E-11
       406  14  3.121467E+05 -3.105263E+02  4.880878E+03 -2.701963E+03 -7.851585E-11 -3.046425E-10
       406  15  3.125855E+05  1.789192E+03  9.073341E+03 -1.376632E+04  1.636839E-10 -1.375413E-10
       406  16  2.216726E+05 -2.265137E+04 -1.923050E+04 -1.394882E+04 -2.752578E-10  1.052734E-10
       406  17  1.958070E+05 -2.920909E+04 -2.330328E+04 -2.566912E+03 -3.416300E-10  1.173263E-09
       406  18  1.708178E+05 -3.341396E+04 -2.520754E+04 -1.331560E+04  4.485164E-10  3.080027E-10
       406  19  4.035090E+05  2.254305E+04  2.497335E+04 -1.358699E+04  1.781264E+03  2.201265E+03
       406  20  4.284987E+05  2.858706E+04  3.306411E+04 -2.837027E+03  4.262673E+03  3.170046E+03
       406  21  4.543717E+05  3.699090E+04  4.335290E+04 -1.421713E+04  6.743878E+03  4.089523E+03
       406  22  3.125870E+05 -5.385475E+01  2.871736E+03 -1.376792E+04  2.211458E+03  2.200849E+03
       406  23  3.121467E+05 -3.105097E+02  4.880938E+03 -2.701951E+03  4.671148E+03  3.169707E+03
       406  24  3.125856E+05  1.789223E+03  9.073467E+03 -1.376630E+04  7.130535E+03  4.089259E+03
       406  25  2.216726E+05 -2.265136E+04 -1.923048E+04 -1.394881E+04  2.641588E+03  2.200433E+03
       406  26  1.958071E+05 -2.920907E+04 -2.330321E+04 -2.566899E+03  5.079548E+03  3.169369E+03
       406  27  1.708178E+05 -3.341392E+04 -2.520741E+04 -1.331557E+04  7.517105E+03  4.088995E+03
       407   1  4.970235E+05  4.479805E+04  5.599043E+04 -1.194628E+04 -8.410980E+03 -4.744467E+03
       407   2  5.195452E+05  4.925692E+04  6.981056E+04 -3.714030E+03 -1.857431E+04 -5.720380E+03
       407   3  5.484354E+05  7.377797E+04  9.526524E+04 -1.783458E+04 -2.873722E+04 -6.105071E+03
       407   4  3.137925E+05 -7.176900E+02  1.154091E+04 -1.381988E+04 -8.962060E+03 -4.744098E+03
       407   5  3.106272E+05 -2.627220E+03  1.921795E+04 -2.638966E+03 -1.886687E+04 -5.720350E+03
       407   6  3.137878E+05  1.548449E+04  3.835316E+04 -1.381125E+04 -2.877084E+04 -6.105387E+03
       407   7  1.305922E+05 -4.623588E+04 -3.291104E+04 -1.569292E+04 -9.512978E+03 -4.743726E+03
       407   8  1.017491E+05 -5.451456E+04 -3.137781E+04 -1.564259E+03 -1.915932E+04 -5.720322E+03
       407   9  7.919052E+04 -4.281296E+04 -1.856288E+04 -9.789438E+03 -2.880444E+04 -6.105703E+03
       407  10  4.970234E+05  4.479801E+04  5.599026E+04 -1.194632E+04 -6.757910E-11  2.895940E-10
       407  11  5.195448E+05  4.925680E+04  6.980985E+04 -3.714116E+03  5.649520E-10 -1.069152E-09
       407  12  5.484345E+05  7.377770E+04  9.526362E+04 -1.783472E+04 -3.375075E-10 -1.569865E-10
       407  13  3.137924E+05 -7.177357E+02  1.154071E+04 -1.381991E+04 -4.121363E-10  2.655882E-10
       407  14  3.106268E+05 -2.627350E+03  1.921722E+04 -2.639053E+03 -1.782564E-10  6.675134E-10
       407  15  3.137869E+05  1.548423E+04  3.835154E+04 -1.381139E+04 -1.640398E-11 -2.044291E-10
       407  16  1.305921E+05 -4.623593E+04 -3.291125E+04 -1.569295E+04 -1.196077E-10  1.536848E-10
       407  17  1.017487E+05 -5.451469E+04 -3.137856E+04 -1.564347E+03 -4.228708E-10  3.421900E-11
       407  18  7.918962E+04 -4.281323E+04 -1.856451E+04 -9.789580E+03  4.157811E-10  1.563931E-10
       407  19  4.970235E+05  4.479805E+04  5.599043E+04 -1.194628E+04  8.410980E+03  4.744467E+03
       407  20  5.195452E+05  4.925692E+04  6.981056E+04 -3.714030E+03  1.857431E+04  5.720380E+03
       407  21  5.484354E+05  7.377797E+04  9.526524E+04 -1.783458E+04  2.873722E+04  6.105071E+03
       407  22  3.137925E+05 -7.176900E+02  1.154091E+04 -1.381988E+04  8.962060E+03  4.744098E+03
       407  23  3.106272E+05 -2.627220E+03  1.921795E+04 -2.638966E+03  1.886687E+04  5.720350E+03
       407  24  3.137878E+05  1.548449E+04  3.835316E+04 -1.381125E+04  2.877084E+04  6.105387E+03
       407  25  1.305922E+05 -4.623588E+04 -3.291104E+04 -1.569292E+04  9.512978E+03  4.743726E+03
       407  26  1.017491E+05 -5.451456E+04 -3.137781E+04 -1.564259E+03  1.915932E+04  5.720322E+03
       407  27  7.919052E+04 -4.281296E+04 -1.856288E+04 -9.789438E+03  2.880444E+04  6.105703E+03
       408   1  5.997676E+05  6.223808E+04  1.138014E+05  2.311058E+03 -3.427531E+04 -7.671641E+03
       408   2  6.016270E+05  5.294928E+04  1.471598E+05 -1.299356E+04 -7.727094E+04 -8.679600E+03
       408   3  6.521664E+05  2.155352E+05  2.514875E+05 -5.089799E+04 -1.202685E+05 -2.940700E+03
       408   4  3.230905E+05 -6.447606E+03  4.683425E+04 -1.387521E+04 -3.616486E+04 -7.670232E+03
       408   5  2.989841E+05 -2.218869E+04  7.398447E+04 -2.574619E+03 -7.622780E+04 -8.681343E+03
       408   6  3.230708E+05  1.334785E+05  1.700924E+05 -1.387200E+04 -1.162906E+05 -2.947828E+03
       408   7  4.648394E+04 -7.513791E+04 -2.013827E+04 -3.005424E+04 -3.805356E+04 -7.668724E+03
       408   8 -3.574978E+03 -9.733295E+04  8.026633E+02  7.839231E+03 -7.518515E+04 -8.683051E+03
       408   9 -5.923614E+03  5.141879E+04  8.869009E+04  2.313436E+04 -1.123148E+05 -2.954486E+03
       408  10  5.997663E+05  6.223770E+04  1.137991E+05  2.310846E+03  1.631680E-10 -7.519536E-11
       408  11  6.016206E+05  5.294760E+04  1.471484E+05 -1.299410E+04  4.493543E-10 -8.716128E-10
       408  12  6.521509E+05  2.155314E+05  2.514603E+05 -5.089827E+04 -2.014436E-10 -5.063623E-10
       408  13  3.230891E+05 -6.448020E+03  4.683168E+04 -1.387543E+04  1.001058E-10 -8.168668E-10
       408  14  2.989778E+05 -2.219033E+04  7.397342E+04 -2.575152E+03  2.382336E-11 -8.061426E-10
       408  15  3.230563E+05  1.334749E+05  1.700670E+05 -1.387227E+04  1.826013E-10 -2.268904E-10
       408  16  4.648237E+04 -7.513836E+04 -2.014110E+04 -3.005447E+04 -3.597956E-10 -5.396191E-11
       408  17 -3.581068E+03 -9.733455E+04  7.918993E+02  7.838705E+03 -1.330970E-10 -4.635989E-10
       408  18 -5.937162E+03  5.141540E+04  8.866637E+04  2.313409E+04  2.168321E-10 -2.288080E-10
       408  19  5.997676E+05  6.223808E+04  1.138014E+05  2.311058E+03  3.427531E+04  7.671641E+03
       408  20  6.016270E+05  5.294928E+04  1.471598E+05 -1.299356E+04  7.727094E+04  8.679600E+03
       408  21  6.521664E+05  2.155352E+05  2.514875E+05 -5.089799E+04  1.202685E+05  2.940700E+03
       408  22  3.230905E+05 -6.447606E+03  4.683425E+04 -1.387521E+04  3.616486E+04  7.670232E+03
       408  23  2.989841E+05 -2.218869E+04  7.398447E+04 -2.574619E+03  7.622780E+04  8.681343E+03
       408  24  3.230708E+05  1.334785E+05  1.700924E+05 -1.387200E+04  1.162906E+05  2.947828E+03
       408  25  4.648394E+04 -7.513791E+04 -2.013827E+04 -3.005424E+04  3.805356E+04  7.668724E+03
       408  26 -3.574978E+03 -9.733295E+04  8.026633E+02  7.839231E+03  7.518515E+04  8.683051E+03
       408  27 -5.923614E+03  5.141879E+04  8.869009E+04  2.313436E+04  1.123148E+05  2.954486E+03
       409   1 -1.116974E+06 -8.788280E+04 -1.206525E+05 -2.890560E+04 -1.018774E+05 -1.127717E+03
       409   2 -1.103713E+06  4.848273E+04 -3.780081E+04 -8.712828E+03 -6.733478E+04 -3.339785E+03
       409   3 -1.133034E+06  3.252984E+04 -1.553769E+04  1.843165E+04 -3.279351E+04 -3.015692E+03
       409   4 -1.240751E+06 -1.187948E+05 -1.513216E+05  3.975269E+03 -1.033648E+05 -1.133372E+03
       409   5 -1.219323E+06  1.973549E+04 -6.580513E+04  4.884122E+02 -6.773556E+04 -3.340922E+03
       409   6 -1.240676E+06  5.740952E+03 -4.164162E+04  3.952850E+03 -3.210712E+04 -3.014742E+03
       409   7 -1.364511E+06 -1.497038E+05 -1.819913E+05  3.684956E+04 -1.048520E+05 -1.139185E+03
       409   8 -1.334921E+06 -9.012416E+03 -9.381035E+04  9.687930E+03 -6.813627E+04 -3.342071E+03
       409   9 -1.348308E+06 -2.104800E+04 -6.774627E+04 -1.052343E+04 -3.142084E+04 -3.013824E+03
       409  10 -1.116985E+06 -8.788559E+04 -1.206721E+05 -2.890569E+04  8.826121E-11 -1.346486E-10
       409  11 -1.103718E+06  4.848150E+04 -3.780937E+04 -8.713009E+03  4.044048E-10 -9.306670E-10
       409  12 -1.133035E+06  3.252954E+04 -1.553973E+04  1.843157E+04 -5.129396E-11 -5.187121E-11
       409  13 -1.240762E+06 -1.187976E+05 -1.513418E+05  3.975175E+03 -2.606670E-10 -1.135791E-10
       409  14 -1.219328E+06  1.973424E+04 -6.581379E+04  4.882299E+02  7.235303E-10 -7.370380E-10
       409  15 -1.240678E+06  5.740665E+03 -4.164358E+04  3.952772E+03 -1.238892E-10  1.464934E-10
       409  16 -1.364522E+06 -1.497068E+05 -1.820120E+05  3.684946E+04 -2.416513E-10 -1.683749E-10
       409  17 -1.334926E+06 -9.013678E+03 -9.381912E+04  9.687746E+03 -3.093218E-12 -3.343219E-10
       409  18 -1.348309E+06 -2.104828E+04 -6.774815E+04 -1.052350E+04  3.075652E-10 -3.475201E-10
       409  19 -1.116974E+06 -8.788280E+04 -1.206525E+05 -2.890560E+04  1.018774E+05  1.127717E+03
       409  20 -1.103713E+06  4.848273E+04 -3.780081E+04 -8.712828E+03  6.733478E+04  3.339785E+03
       409  21 -1.133034E+06  3.252984E+04 -1.553769E+04  1.843165E+04  3.279351E+04  3.015692E+03
       409  22 -1.240751E+06 -1.187948E+05 -1.513216E+05  3.975269E+03  1.033648E+05  1.133372E+03
       409  23 -1.219323E+06  1.973549E+04 -6.580513E+04  4.884122E+02  6.773556E+04  3.340922E+03
       409  24 -1.240676E+06  5.740952E+03 -4.164162E+04  3.952850E+03  3.210712E+04  3.014742E+03
       409  25 -1.364511E+06 -1.497038E+05 -1.819913E+05  3.684956E+04  1.048520E+05  1.139185E+03
       409  26 -1.334921E+06 -9.012416E+03 -9.381035E+04  9.687930E+03  6.813627E+04  3.342071E+03
       409  27 -1.348308E+06 -2.104800E+04 -6.774627E+04 -1.052343E+04  3.142084E+04  3.013824E+03
       410   1 -1.138426E+06  9.606550E+03 -1.126179E+04  6.269807E+02 -2.554182E+04 -2.458435E+03
       410   2 -1.144333E+06  2.355216E+04  3.604391E+03 -5.296009E+02 -1.683985E+04 -2.351027E+03
       410   3 -1.155816E+06  1.972542E+04  8.355757E+03  5.887820E+03 -8.138225E+03 -2.009574E+03
       410   4 -1.232430E+06 -1.378463E+04 -3.410456E+04  4.103024E+03 -2.554469E+04 -2.458605E+03
       410   5 -1.229626E+06  2.333449E+03 -1.708782E+04  3.132204E+02 -1.674298E+04 -2.351031E+03
       410   6 -1.232417E+06  6.603701E+02 -1.025641E+04  4.097565E+03 -7.941504E+03 -2.009472E+03
       410   7 -1.326426E+06 -3.717641E+04 -5.694797E+04  7.578537E+03 -2.554755E+04 -2.458775E+03
       410   8 -1.314913E+06 -1.888580E+04 -3.778055E+04  1.155925E+03 -1.664613E+04 -2.351035E+03
       410   9 -1.309013E+06 -1.840510E+04 -2.886899E+04  2.307530E+03 -7.744808E+03 -2.009372E+03
       410  10 -1.138426E+06  9.606368E+03 -1.126303E+04  6.269301E+02  2.444893E-10 -2.685626E-11
       410  11 -1.144333E+06  2.355208E+04  3.603847E+03 -5.296328E+02 -3.492168E-10  1.725181E-10
       410  12 -1.155816E+06  1.972540E+04  8.355625E+03  5.887807E+03  5.654990E-10 -3.522285E-10
       410  13 -1.232431E+06 -1.378481E+04 -3.410580E+04  4.102973E+03 -2.522930E-10  1.357847E-10
       410  14 -1.229626E+06  2.333368E+03 -1.708836E+04  3.131887E+02 -4.036191E-10 -1.640064E-10
       410  15 -1.232417E+06  6.603488E+02 -1.025653E+04  4.097552E+03  2.961086E-10 -5.892262E-10
       410  16 -1.326427E+06 -3.717659E+04 -5.694921E+04  7.578487E+03 -3.972343E-10  1.082432E-10
       410  17 -1.314913E+06 -1.888588E+04 -3.778109E+04  1.155893E+03  3.840795E-10 -9.482490E-10
       410  18 -1.309013E+06 -1.840512E+04 -2.886911E+04  2.307518E+03 -4.768740E-10 -5.713550E-10
       410  19 -1.138426E+06  9.606550E+03 -1.126179E+04  6.269807E+02  2.554182E+04  2.458435E+03
       410  20 -1.144333E+06  2.355216E+04  3.604391E+03 -5.296009E+02  1.683985E+04  2.351027E+03
       410  21 -1.155816E+06  1.972542E+04  8.355757E+03  5.887820E+03  8.138225E+03  2.009574E+03
       410  22 -1.232430E+06 -1.378463E+04 -3.410456E+04  4.103024E+03  2.554469E+04  2.458605E+03
       410  23 -1.229626E+06  2.333449E+03 -1.708782E+04  3.132204E+02  1.674298E+04  2.351031E+03
       410  24 -1.232417E+06  6.603701E+02 -1.025641E+04  4.097565E+03  7.941504E+03  2.009472E+03
       410  25 -1.326426E+06 -3.717641E+04 -5.694797E+04  7.578537E+03  2.554755E+04  2.458775E+03
       410  26 -1.314913E+06 -1.888580E+04 -3.778055E+04  1.155925E+03  1.664613E+04  2.351035E+03
       410  27 -1.309013E+06 -1.840510E+04 -2.886899E+04  2.307530E+03  7.744808E+03  2.009372E+03
       411   1 -1.169303E+06  1.385681E+04  6.965998E+03  3.890660E+03 -6.452355E+03 -1.776343E+03
       411   2 -1.178054E+06  1.343930E+04  8.487099E+03  1.723796E+02 -4.274759E+03 -1.448082E+03
       411   3 -1.187609E+06  1.096707E+04  8.073420E+03  4.430706E+03 -2.097215E+03 -1.093597E+03
       411   4 -1.231354E+06 -1.576614E+03 -8.068851E+03  4.189407E+03 -6.316472E+03 -1.776289E+03
       411   5 -1.230950E+06  2.789829E+02 -4.347989E+03  2.006483E+02 -4.127764E+03 -1.448010E+03
       411   6 -1.231352E+06  7.785966E+01 -2.569748E+03  4.188540E+03 -1.939076E+03 -1.093509E+03
       411   7 -1.293402E+06 -1.701032E+04 -2.310398E+04  4.488123E+03 -6.180603E+03 -1.776235E+03
       411   8 -1.283843E+06 -1.288154E+04 -1.718328E+04  2.289143E+02 -3.980782E+03 -1.447939E+03
       411   9 -1.275093E+06 -1.081149E+04 -1.321306E+04  3.946391E+03 -1.780949E+03 -1.093421E+03
       411  10 -1.169303E+06  1.385680E+04  6.965914E+03  3.890651E+03 -2.082452E-10  8.045753E-11
       411  11 -1.178054E+06  1.343929E+04  8.487060E+03  1.723746E+02 -3.154034E-10 -2.729588E-10
       411  12 -1.187609E+06  1.096707E+04  8.073409E+03  4.430705E+03  3.910198E-10 -4.057123E-10
       411  13 -1.231354E+06 -1.576629E+03 -8.068932E+03  4.189398E+03  1.699922E-11 -6.494258E-10
       411  14 -1.230950E+06  2.789761E+02 -4.348025E+03  2.006435E+02 -4.746236E-10 -3.254993E-11
       411  15 -1.231352E+06  7.785737E+01 -2.569758E+03  4.188539E+03 -8.240202E-11 -6.397904E-11
       411  16 -1.293402E+06 -1.701034E+04 -2.310405E+04  4.488114E+03  2.830291E-11 -4.810123E-10
       411  17 -1.283843E+06 -1.288154E+04 -1.718331E+04  2.289096E+02  2.099831E-10 -3.954996E-10
       411  18 -1.275093E+06 -1.081149E+04 -1.321306E+04  3.946389E+03  1.925640E-10 -9.626093E-10
       411  19 -1.169303E+06  1.385681E+04  6.965998E+03  3.890660E+03  6.452355E+03  1.776343E+03
       411  20 -1.178054E+06  1.343930E+04  8.487099E+03  1.723796E+02  4.274759E+03  1.448082E+03
       411  21 -1.187609E+06  1.096707E+04  8.073420E+03  4.430706E+03  2.097215E+03  1.093597E+03
       411  22 -1.231354E+06 -1.576614E+03 -8.068851E+03  4.189407E+03  6.316472E+03  1.776289E+03
       411  23 -1.230950E+06  2.789829E+02 -4.347989E+03  2.006483E+02  4.127764E+03  1.448010E+03
       411  24 -1.231352E+06  7.785966E+01 -2.569748E+03  4.188540E+03  1.939076E+03  1.093509E+03
       411  25 -1.293402E+06 -1.701032E+04 -2.310398E+04  4.488123E+03  6.180603E+03  1.776235E+03
       411  26 -1.283843E+06 -1.288154E+04 -1.718328E+04  2.289143E+02  3.980782E+03  1.447939E+03
       411  27 -1.275093E+06 -1.081149E+04 -1.321306E+04  3.946391E+03  1.780949E+03  1.093421E+03
       412   1 -1.202581E+06  6.945293E+03  4.916947E+03  4.230531E+03 -1.682225E+03 -8.826650E+02
       412   2 -1.211901E+06  4.820720E+03  3.497000E+03  1.575615E+02 -1.101726E+03 -5.259095E+02
       412   3 -1.221367E+06  2.461152E+03  1.637322E+03  4.268823E+03 -5.212551E+02 -1.652375E+02
       412   4 -1.231205E+06 -1.707172E+02 -2.000710E+03  4.235026E+03 -1.529285E+03 -8.825762E+02
       412   5 -1.231131E+06  3.614862E+01 -1.169383E+03  1.428464E+02 -9.471223E+02 -5.258164E+02
       412   6 -1.231204E+06  7.727359E+00 -7.789585E+02  4.234915E+03 -3.649785E+02 -1.651399E+02
       412   7 -1.259828E+06 -7.286788E+03 -8.918426E+03  4.239519E+03 -1.376351E+03 -8.824873E+02
       412   8 -1.250361E+06 -4.748450E+03 -5.835793E+03  1.281316E+02 -7.925229E+02 -5.257234E+02
       412   9 -1.241041E+06 -2.445704E+03 -3.195247E+03  4.201007E+03 -2.087045E+02 -1.650423E+02
       412  10 -1.202581E+06  6.945292E+03  4.916940E+03  4.230530E+03  2.583462E-11 -8.008820E-11
       412  11 -1.211901E+06  4.820720E+03  3.496997E+03  1.575611E+02  5.871050E-10 -5.581161E-10
       412  12 -1.221367E+06  2.461152E+03  1.637322E+03  4.268823E+03  7.340011E-10 -3.989439E-10
       412  13 -1.231205E+06 -1.707187E+02 -2.000716E+03  4.235025E+03  3.611260E-10 -5.879179E-10
       412  14 -1.231131E+06  3.614808E+01 -1.169385E+03  1.428460E+02 -2.731873E-10  4.786355E-10
       412  15 -1.231204E+06  7.727294E+00 -7.789588E+02  4.234915E+03 -2.051304E-10  3.969390E-10
       412  16 -1.259828E+06 -7.286789E+03 -8.918431E+03  4.239519E+03 -4.430880E-10  4.694713E-10
       412  17 -1.250361E+06 -4.748451E+03 -5.835795E+03  1.281313E+02  1.122531E-10  3.516829E-10
       412  18 -1.241041E+06 -2.445704E+03 -3.195247E+03  4.201007E+03 -9.097278E-10  6.772582E-10
       412  19 -1.202581E+06  6.945293E+03  4.916947E+03  4.230531E+03  1.682225E+03  8.826650E+02
       412  20 -1.211901E+06  4.820720E+03  3.497000E+03  1.575615E+02  1.101726E+03  5.259095E+02
       412  21 -1.221367E+06  2.461152E+03  1.637322E+03  4.268823E+03  5.212551E+02  1.652375E+02
       412  22 -1.231205E+06 -1.707172E+02 -2.000710E+03  4.235026E+03  1.529285E+03  8.825762E+02
       412  23 -1.231131E+06  3.614862E+01 -1.169383E+03  1.428464E+02  9.471223E+02  5.258164E+02
       412  24 -1.231204E+06  7.727360E+00 -7.789585E+02  4.234915E+03  3.649785E+02  1.651399E+02
       412  25 -1.259828E+06 -7.286788E+03 -8.918426E+03  4.239519E+03  1.376351E+03  8.824873E+02
       412  26 -1.250361E+06 -4.748450E+03 -5.835793E+03  1.281316E+02  7.925229E+02  5.257234E+02
       412  27 -1.241041E+06 -2.445704E+03 -3.195247E+03  4.201007E+03  2.087045E+02  1.650423E+02
       413   1 -1.236676E+06 -1.381162E+03 -2.038370E+03  4.229055E+03 -3.900537E+02  4.599544E+01
       413   2 -1.246046E+06 -3.689975E+03 -4.228565E+03  1.343081E+02 -8.351029E+01  4.068007E+02
       413   3 -1.255491E+06 -6.090905E+03 -6.644219E+03  4.236459E+03  2.230388E+02  7.642566E+02
       413   4 -1.231188E+06 -9.955653E+00 -6.775765E+02  4.237753E+03 -2.337806E+02  4.609331E+01
       413   5 -1.231151E+06  1.599341E+01 -6.141392E+02  1.393239E+02  7.132029E+01  4.068949E+02
       413   6 -1.231189E+06 -4.995237E+01 -7.751865E+02  4.237780E+03  3.764315E+02  7.643475E+02
       413   7 -1.225701E+06  1.361249E+03  6.832149E+02  4.246452E+03 -7.750617E+01  4.619118E+01
       413   8 -1.216256E+06  3.721945E+03  3.000270E+03  1.443398E+02  2.261546E+02  4.069892E+02
       413   9 -1.206886E+06  5.990957E+03  5.093804E+03  4.239101E+03  5.298302E+02  7.644384E+02
       413  10 -1.236676E+06 -1.381162E+03 -2.038370E+03  4.229055E+03 -8.811153E-12 -2.075066E-10
       413  11 -1.246046E+06 -3.689975E+03 -4.228565E+03  1.343082E+02 -2.055304E-10 -2.073887E-10
       413  12 -1.255491E+06 -6.090906E+03 -6.644220E+03  4.236459E+03  1.284026E-10  1.493983E-11
       413  13 -1.231188E+06 -9.955670E+00 -6.775766E+02  4.237753E+03  5.462553E-10 -9.374522E-10
       413  14 -1.231151E+06  1.599323E+01 -6.141395E+02  1.393239E+02  4.789344E-10 -8.418247E-10
       413  15 -1.231189E+06 -4.995304E+01 -7.751878E+02  4.237780E+03 -6.405299E-10  7.894009E-10
       413  16 -1.225701E+06  1.361249E+03  6.832148E+02  4.246452E+03 -5.579332E-11 -4.618444E-11
       413  17 -1.216256E+06  3.721945E+03  3.000270E+03  1.443397E+02  8.605457E-10 -6.949634E-10
       413  18 -1.206886E+06  5.990957E+03  5.093802E+03  4.239101E+03 -5.163118E-10  2.256523E-10
       413  19 -1.236676E+06 -1.381162E+03 -2.038370E+03  4.229055E+03  3.900537E+02 -4.599544E+01
       413  20 -1.246046E+06 -3.689975E+03 -4.228565E+03  1.343081E+02  8.351029E+01 -4.068007E+02
       413  21 -1.255491E+06 -6.090905E+03 -6.644219E+03  4.236459E+03 -2.230388E+02 -7.642566E+02
       413  22 -1.231188E+06 -9.955653E+00 -6.775765E+02  4.237753E+03  2.337806E+02 -4.609331E+01
       413  23 -1.231151E+06  1.599341E+01 -6.141392E+02  1.393239E+02 -7.132029E+01 -4.068949E+02
       413  24 -1.231189E+06 -4.995237E+01 -7.751865E+02  4.237780E+03 -3.764315E+02 -7.643475E+02
       413  25 -1.225701E+06  1.361249E+03  6.832149E+02  4.246452E+03  7.750617E+01 -4.619118E+01
       413  26 -1.216256E+06  3.721945E+03  3.000270E+03  1.443398E+02 -2.261546E+02 -4.069892E+02
       413  27 -1.206886E+06  5.990957E+03  5.093804E+03  4.239101E+03 -5.298302E+02 -7.644384E+02
       414   1 -1.270697E+06 -9.798401E+03 -1.052822E+04  4.109744E+03  3.702682E+02  9.756214E+02
       414   2 -1.279761E+06 -1.201838E+04 -1.325000E+04  1.875129E+02  1.105972E+03  1.330793E+03
       414   3 -1.289092E+06 -1.489009E+04 -1.661606E+04  4.277451E+03  1.841729E+03  1.660869E+03
       414   4 -1.231231E+06  2.719628E+01 -9.221723E+02  4.196614E+03  5.287172E+02  9.757113E+02
       414   5 -1.231099E+06  8.937955E+01 -1.441516E+03  1.906921E+02  1.253647E+03  1.330869E+03
       414   6 -1.231232E+06 -4.982327E+02 -2.597571E+03  4.196901E+03  1.978641E+03  1.660931E+03
       414   7 -1.191763E+06  9.852679E+03  8.683759E+03  4.283489E+03  6.871763E+02  9.758012E+02
       414   8 -1.182435E+06  1.219696E+04  1.036680E+04  1.938712E+02  1.401333E+03  1.330944E+03
       414   9 -1.173369E+06  1.389338E+04  1.142068E+04  4.116342E+03  2.115565E+03  1.660992E+03
       414  10 -1.270697E+06 -9.798402E+03 -1.052822E+04  4.109744E+03  6.814485E-10 -6.609279E-10
       414  11 -1.279761E+06 -1.201838E+04 -1.325000E+04  1.875117E+02 -5.931029E-11  2.867263E-10
       414  12 -1.289092E+06 -1.489010E+04 -1.661608E+04  4.277449E+03  3.505928E-10 -1.609413E-10
       414  13 -1.231231E+06  2.719519E+01 -9.221746E+02  4.196614E+03 -5.123427E-10  3.838692E-10
       414  14 -1.231099E+06  8.937722E+01 -1.441522E+03  1.906907E+02 -8.358525E-10  8.362478E-10
       414  15 -1.231232E+06 -4.982368E+02 -2.597583E+03  4.196898E+03  8.196551E-11 -3.741907E-10
       414  16 -1.191763E+06  9.852678E+03  8.683756E+03  4.283488E+03 -1.462049E-10 -4.610858E-10
       414  17 -1.182435E+06  1.219696E+04  1.036679E+04  1.938697E+02 -5.012515E-10  4.657192E-10
       414  18 -1.173369E+06  1.389338E+04  1.142067E+04  4.116340E+03 -6.582809E-10  4.272246E-11
       414  19 -1.270697E+06 -9.798401E+03 -1.052822E+04  4.109744E+03 -3.702682E+02 -9.756214E+02
       414  20 -1.279761E+06 -1.201838E+04 -1.325000E+04  1.875129E+02 -1.105972E+03 -1.330793E+03
       414  21 -1.289092E+06 -1.489009E+04 -1.661606E+04  4.277451E+03 -1.841729E+03 -1.660869E+03
       414  22 -1.231231E+06  2.719628E+01 -9.221723E+02  4.196614E+03 -5.287172E+02 -9.757113E+02
       414  23 -1.231099E+06  8.937955E+01 -1.441516E+03  1.906921E+02 -1.253647E+03 -1.330869E+03
       414  24 -1.231232E+06 -4.982327E+02 -2.597571E+03  4.196901E+03 -1.978641E+03 -1.660931E+03
       414  25 -1.191763E+06  9.852679E+03  8.683759E+03  4.283489E+03 -6.871763E+02 -9.758012E+02
       414  26 -1.182435E+06  1.219696E+04  1.036680E+04  1.938712E+02 -1.401333E+03 -1.330944E+03
       414  27 -1.173369E+06  1.389338E+04  1.142068E+04  4.116342E+03 -2.115565E+03 -1.660992E+03
       415   1 -1.304069E+06 -1.783244E+04 -2.090235E+04  3.525536E+03  2.304165E+03  1.893994E+03
       415   2 -1.311942E+06 -1.947728E+04 -2.515894E+04  5.459738E+02  5.204758E+03  2.235887E+03
       415   3 -1.321609E+06 -2.678577E+04 -3.272252E+04  5.200472E+03  8.105455E+03  2.350991E+03
       415   4 -1.231568E+06  2.126398E+02 -3.283710E+03  4.112079E+03  2.500135E+03  1.894079E+03
       415   5 -1.230682E+06  7.407101E+02 -5.443226E+03  2.959928E+02  5.303238E+03  2.235908E+03
       415   6 -1.231572E+06 -4.377498E+03 -1.084161E+04  4.113915E+03  8.106485E+03  2.350954E+03
       415   7 -1.159062E+06  1.825733E+04  1.433455E+04  4.698691E+03  2.696128E+03  1.894165E+03
       415   8 -1.149415E+06  2.095821E+04  1.427201E+04  4.597823E+01  5.401730E+03  2.235930E+03
       415   9 -1.141527E+06  1.803018E+04  1.103871E+04  3.027199E+03  8.107515E+03  2.350918E+03
       415  10 -1.304069E+06 -1.783244E+04 -2.090237E+04  3.525532E+03 -1.817082E-10  7.606811E-11
       415  11 -1.311942E+06 -1.947729E+04 -2.515900E+04  5.459644E+02 -1.544294E-10 -9.523935E-11
       415  12 -1.321609E+06 -2.678579E+04 -3.272265E+04  5.200456E+03 -1.921448E-10  6.649682E-11
       415  13 -1.231568E+06  2.126342E+02 -3.283729E+03  4.112076E+03 -3.346312E-11 -3.274254E-10
       415  14 -1.230682E+06  7.406972E+02 -5.443288E+03  2.959832E+02 -2.894595E-10 -1.017374E-10
       415  15 -1.231572E+06 -4.377521E+03 -1.084174E+04  4.113900E+03  1.625732E-10 -4.139596E-11
       415  16 -1.159062E+06  1.825732E+04  1.433453E+04  4.698687E+03 -3.383055E-10 -2.777734E-10
       415  17 -1.149415E+06  2.095820E+04  1.427194E+04  4.596850E+01  2.886596E-10 -4.994619E-10
       415  18 -1.141528E+06  1.803016E+04  1.103858E+04  3.027184E+03  1.801518E-10  3.507893E-10
       415  19 -1.304069E+06 -1.783244E+04 -2.090235E+04  3.525536E+03 -2.304165E+03 -1.893994E+03
       415  20 -1.311942E+06 -1.947728E+04 -2.515894E+04  5.459738E+02 -5.204758E+03 -2.235887E+03
       415  21 -1.321609E+06 -2.678577E+04 -3.272252E+04  5.200472E+03 -8.105455E+03 -2.350991E+03
       415  22 -1.231568E+06  2.126398E+02 -3.283710E+03  4.112079E+03 -2.500135E+03 -1.894079E+03
       415  23 -1.230682E+06  7.407101E+02 -5.443226E+03  2.959928E+02 -5.303238E+03 -2.235908E+03
       415  24 -1.231572E+06 -4.377498E+03 -1.084161E+04  4.113915E+03 -8.106485E+03 -2.350954E+03
       415  25 -1.159062E+06  1.825733E+04  1.433455E+04  4.698691E+03 -2.696128E+03 -1.894165E+03
       415  26 -1.149415E+06  2.095821E+04  1.427201E+04  4.597823E+01 -5.401730E+03 -2.235930E+03
       415  27 -1.141527E+06  1.803018E+04  1.103871E+04  3.027199E+03 -8.107515E+03 -2.350918E+03
       416   1 -1.338002E+06 -2.400635E+04 -3.841042E+04 -6.413495E+02  9.521519E+03  2.897797E+03
       416   2 -1.339284E+06 -2.155802E+04 -4.801160E+04  3.371445E+03  2.189961E+04  3.224043E+03
       416   3 -1.354332E+06 -6.774094E+04 -7.783922E+04  1.441376E+04  3.427788E+04  1.090029E+03
       416   4 -1.234190E+06  1.824913E+03 -1.323339E+04  3.975488E+03  1.019220E+04  2.898066E+03
       416   5 -1.227413E+06  6.266933E+03 -2.090891E+04  4.647358E+02  2.151088E+04  3.223799E+03
       416   6 -1.234215E+06 -3.773361E+04 -4.807155E+04  3.983717E+03  3.282995E+04  1.089169E+03
       416   7 -1.130368E+06  2.765546E+04  1.194289E+04  8.593101E+03  1.086300E+04  2.898345E+03
       416   8 -1.115530E+06  3.409100E+04  6.192896E+03 -2.442501E+03  2.112208E+04  3.223560E+03
       416   9 -1.114083E+06 -7.726941E+03 -1.830489E+04 -6.448352E+03  3.138173E+04  1.088357E+03
       416  10 -1.338002E+06 -2.400638E+04 -3.841061E+04 -6.413717E+02  4.447482E-11  1.049128E-10
       416  11 -1.339285E+06 -2.155816E+04 -4.801253E+04  3.371389E+03 -9.517311E-12  2.578894E-11
       416  12 -1.354334E+06 -6.774126E+04 -7.784143E+04  1.441373E+04 -1.144117E-10  1.480456E-10
       416  13 -1.234190E+06  1.824876E+03 -1.323360E+04  3.975464E+03  8.684688E-10 -4.796164E-10
       416  14 -1.227413E+06  6.266797E+03 -2.090980E+04  4.646799E+02 -1.682930E-11  7.084703E-11
       416  15 -1.234216E+06 -3.773390E+04 -4.807358E+04  3.983688E+03  1.330667E-10 -5.135224E-11
       416  16 -1.130369E+06  2.765542E+04  1.194265E+04  8.593076E+03  1.444833E-10  3.140512E-10
       416  17 -1.115530E+06  3.409087E+04  6.192036E+03 -2.442556E+03  4.011832E-10 -9.414891E-11
       416  18 -1.114084E+06 -7.727208E+03 -1.830675E+04 -6.448379E+03 -3.118111E-10  1.922870E-10
       416  19 -1.338002E+06 -2.400635E+04 -3.841042E+04 -6.413495E+02 -9.521519E+03 -2.897797E+03
       416  20 -1.339284E+06 -2.155802E+04 -4.801160E+04  3.371445E+03 -2.189961E+04 -3.224043E+03
       416  21 -1.354332E+06 -6.774094E+04 -7.783922E+04  1.441376E+04 -3.427788E+04 -1.090029E+03
       416  22 -1.234190E+06  1.824913E+03 -1.323339E+04  3.975488E+03 -1.019220E+04 -2.898066E+03
       416  23 -1.227413E+06  6.266933E+03 -2.090891E+04  4.647358E+02 -2.151088E+04 -3.223799E+03
       416  24 -1.234215E+06 -3.773361E+04 -4.807155E+04  3.983717E+03 -3.282995E+04 -1.089169E+03
       416  25 -1.130368E+06  2.765546E+04  1.194289E+04  8.593101E+03 -1.086300E+04 -2.898345E+03
       416  26 -1.115530E+06  3.409100E+04  6.192896E+03 -2.442501E+03 -2.112208E+04 -3.223560E+03
       416  27 -1.114083E+06 -7.726941E+03 -1.830489E+04 -6.448352E+03 -3.138173E+04 -1.088357E+03
       417   1  3.333008E+06  7.016949E+05  8.914200E+05  1.917412E+05  6.033346E+05 -1.429736E+02
       417   2  3.211082E+06 -1.027178E+05  3.946735E+05  5.434006E+04  3.954584E+05 -1.231606E+03
       417   3  3.337340E+06 -2.126168E+04  2.543705E+05 -8.454995E+04  1.875656E+05 -1.393422E+03
       417   4  3.287175E+06  6.901684E+05  8.801107E+05 -3.271623E+02  6.027308E+05 -3.287873E+02
       417   5  3.163660E+06 -1.144876E+05  3.832339E+05  4.926819E+02  3.952299E+05 -1.265784E+03
       417   6  3.288240E+06 -3.337572E+04  2.425483E+05 -2.008618E+02  1.877129E+05 -1.368040E+03
       417   7  3.241422E+06  6.787796E+05  8.688210E+05 -1.923814E+05  6.021270E+05 -5.142412E+02
       417   8  3.116246E+06 -1.262467E+05  3.717958E+05 -5.335059E+04  3.950015E+05 -1.299925E+03
       417   9  3.239158E+06 -4.546333E+04  2.307298E+05  8.414157E+04  1.878602E+05 -1.342617E+03
       417  10  3.332619E+06  7.015978E+05  8.907395E+05  1.917413E+05  7.689755E-12 -6.584096E-10
       417  11  3.210915E+06 -1.027595E+05  3.943811E+05  5.434046E+04  1.160526E-09 -7.067277E-10
       417  12  3.337303E+06 -2.127106E+04  2.543047E+05 -8.454974E+04 -1.667380E-09 -5.766284E-10
       417  13  3.286786E+06  6.900715E+05  8.794316E+05 -3.270031E+02  9.887678E-10 -2.674119E-10
       417  14  3.163493E+06 -1.145292E+05  3.829419E+05  4.930842E+02  1.081579E-09 -7.927779E-10
       417  15  3.288203E+06 -3.338512E+04  2.424825E+05 -2.006553E+02 -1.422575E-09 -3.943065E-10
       417  16  3.241034E+06  6.786829E+05  8.681432E+05 -1.923812E+05  6.334536E-10 -4.946484E-10
       417  17  3.116079E+06 -1.262883E+05  3.715041E+05 -5.335018E+04  1.663103E-09 -6.882797E-10
       417  18  3.239120E+06 -4.547275E+04  2.306638E+05  8.414178E+04  2.687273E-09  6.596642E-10
       417  19  3.333008E+06  7.016949E+05  8.914200E+05  1.917412E+05 -6.033346E+05  1.429736E+02
       417  20  3.211082E+06 -1.027178E+05  3.946735E+05  5.434006E+04 -3.954584E+05  1.231606E+03
       417  21  3.337340E+06 -2.126168E+04  2.543705E+05 -8.454995E+04 -1.875656E+05  1.393422E+03
       417  22  3.287175E+06  6.901684E+05  8.801107E+05 -3.271623E+02 -6.027308E+05  3.287873E+02
       417  23  3.163660E+06 -1.144876E+05  3.832339E+05  4.926819E+02 -3.952299E+05  1.265784E+03
       417  24  3.288240E+06 -3.337572E+04  2.425483E+05 -2.008618E+02 -1.877129E+05  1.368040E+03
       417  25  3.241422E+06  6.787796E+05  8.688210E+05 -1.923814E+05 -6.021270E+05  5.142412E+02
       417  26  3.116246E+06 -1.262467E+05  3.717958E+05 -5.335059E+04 -3.950015E+05  1.299925E+03
       417  27  3.239158E+06 -4.546333E+04  2.307298E+05  8.414157E+04 -1.878602E+05  1.342617E+03
       418   1  3.292391E+06  9.299736E+04  2.113353E+05  2.001933E+04  1.494099E+05 -1.287936E+03
       418   2  3.278752E+06  5.161145E+01  1.129613E+05  5.774471E+03  9.795971E+04 -1.464244E+03
       418   3  3.297571E+06  1.037188E+04  7.378274E+04 -1.065125E+04  4.651121E+04 -1.582726E+03
       418   4  3.240048E+06  8.002066E+04  1.986693E+05 -4.064767E+02  1.493200E+05 -1.292854E+03
       418   5  3.223913E+06 -1.352868E+04  9.972054E+04  6.948940E+02  9.789746E+04 -1.465066E+03
       418   6  3.240233E+06 -3.812852E+03  5.995123E+04 -3.844245E+02  4.647692E+04 -1.581981E+03
       418   7  3.187708E+06  6.704533E+04  1.860033E+05 -2.083057E+04  1.492300E+05 -1.297766E+03
       418   8  3.169076E+06 -2.710910E+04  8.647962E+04 -4.384236E+03  9.783522E+04 -1.465887E+03
       418   9  3.182898E+06 -1.799743E+04  4.611955E+04  9.881452E+03  4.644263E+04 -1.581236E+03
       418  10  3.292367E+06  9.299140E+04  2.112936E+05  2.001949E+04 -8.772192E-10  6.583706E-13
       418  11  3.278742E+06  4.904969E+01  1.129433E+05  5.774587E+03  8.338261E-10  9.228545E-11
       418  12  3.297569E+06  1.037130E+04  7.377869E+04 -1.065119E+04 -1.741726E-10 -5.508887E-10
       418  13  3.240024E+06  8.001471E+04  1.986276E+05 -4.063214E+02  8.208398E-10  3.622988E-10
       418  14  3.223903E+06 -1.353124E+04  9.970262E+04  6.950094E+02  1.602444E-09  5.167676E-11
       418  15  3.240230E+06 -3.813431E+03  5.994719E+04 -3.843654E+02 -1.255630E-09 -7.875027E-10
       418  16  3.187684E+06  6.703938E+04  1.859616E+05 -2.083041E+04  1.289283E-10  3.214026E-10
       418  17  3.169066E+06 -2.711166E+04  8.646172E+04 -4.384120E+03  1.007303E-09 -4.806348E-10
       418  18  3.182895E+06 -1.799800E+04  4.611551E+04  9.881511E+03 -4.036899E-10 -3.871219E-10
       418  19  3.292391E+06  9.299736E+04  2.113353E+05  2.001933E+04 -1.494099E+05  1.287936E+03
       418  20  3.278752E+06  5.161145E+01  1.129613E+05  5.774471E+03 -9.795971E+04  1.464244E+03
       418  21  3.297571E+06  1.037188E+04  7.378274E+04 -1.065125E+04 -4.651121E+04  1.582726E+03
       418  22  3.240048E+06  8.002066E+04  1.986693E+05 -4.064767E+02 -1.493200E+05  1.292854E+03
       418  23  3.223913E+06 -1.352868E+04  9.972054E+04  6.948940E+02 -9.789746E+04  1.465066E+03
       418  24  3.240233E+06 -3.812852E+03  5.995123E+04 -3.844245E+02 -4.647692E+04  1.581981E+03
       418  25  3.187708E+06  6.704533E+04  1.860033E+05 -2.083057E+04 -1.492300E+05  1.297766E+03
       418  26  3.169076E+06 -2.710910E+04  8.647962E+04 -4.384236E+03 -9.783522E+04  1.465887E+03
       418  27  3.182898E+06 -1.799743E+04  4.611955E+04  9.881452E+03 -4.644263E+04  1.581236E+03
       419   1  3.296187E+06  2.455622E+04  6.223180E+04  1.300419E+03  3.699216E+04 -1.638784E+03
       419   2  3.297397E+06  1.464717E+04  4.147060E+04  1.254069E+03  2.408892E+04 -1.773682E+03
       419   3  3.303279E+06  1.671472E+04  3.207358E+04 -1.859898E+03  1.118602E+04 -1.923582E+03
       419   4  3.234032E+06  9.164846E+03  4.721364E+04 -5.912317E+02  3.693631E+04 -1.638925E+03
       419   5  3.231712E+06 -1.614779E+03  2.561030E+04  9.443204E+02  2.402765E+04 -1.773730E+03
       419   6  3.234065E+06 -4.161667E+02  1.537559E+04 -5.877660E+02  1.111940E+04 -1.923602E+03
       419   7  3.171880E+06 -6.226797E+03  3.219520E+04 -2.482694E+03  3.688046E+04 -1.639066E+03
       419   8  3.166031E+06 -1.787704E+04  9.749687E+03  6.346042E+02  2.396638E+04 -1.773777E+03
       419   9  3.164856E+06 -1.754739E+04 -1.322736E+03  6.842239E+02  1.105279E+04 -1.923622E+03
       419  10  3.296185E+06  2.455585E+04  6.222923E+04  1.300468E+03 -1.157380E-09 -7.208087E-10
       419  11  3.297397E+06  1.464701E+04  4.146951E+04  1.254103E+03 -2.730879E-09 -7.678040E-10
       419  12  3.303279E+06  1.671468E+04  3.207334E+04 -1.859881E+03 -3.157371E-10 -4.084643E-10
       419  13  3.234030E+06  9.164479E+03  4.721108E+04 -5.911830E+02 -1.502364E-09 -4.882142E-10
       419  14  3.231712E+06 -1.614936E+03  2.560921E+04  9.443547E+02 -2.023409E-10  3.912721E-10
       419  15  3.234065E+06 -4.162037E+02  1.537535E+04 -5.877488E+02 -2.529099E-09 -7.033864E-10
       419  16  3.171878E+06 -6.227163E+03  3.219265E+04 -2.482645E+03 -5.796956E-10 -1.264520E-10
       419  17  3.166030E+06 -1.787720E+04  9.748607E+03  6.346384E+02 -8.367150E-10  1.402070E-10
       419  18  3.164856E+06 -1.754743E+04 -1.322972E+03  6.842410E+02 -9.774558E-11  4.216278E-10
       419  19  3.296187E+06  2.455622E+04  6.223180E+04  1.300419E+03 -3.699216E+04  1.638784E+03
       419  20  3.297397E+06  1.464717E+04  4.147060E+04  1.254069E+03 -2.408892E+04  1.773682E+03
       419  21  3.303279E+06  1.671472E+04  3.207358E+04 -1.859898E+03 -1.118602E+04  1.923582E+03
       419  22  3.234032E+06  9.164846E+03  4.721364E+04 -5.912317E+02 -3.693631E+04  1.638925E+03
       419  23  3.231712E+06 -1.614779E+03  2.561030E+04  9.443204E+02 -2.402765E+04  1.773730E+03
       419  24  3.234065E+06 -4.161667E+02  1.537559E+04 -5.877660E+02 -1.111940E+04  1.923602E+03
       419  25  3.171880E+06 -6.226797E+03  3.219520E+04 -2.482694E+03 -3.688046E+04  1.639066E+03
       419  26  3.166031E+06 -1.787704E+04  9.749687E+03  6.346042E+02 -2.396638E+04  1.773777E+03
       419  27  3.164856E+06 -1.754739E+04 -1.322736E+03  6.842239E+02 -1.105279E+04  1.923622E+03
       420   1  3.309097E+06  1.980396E+04  3.048683E+04 -6.938008E+02  8.709513E+03 -2.014441E+03
       420   2  3.313451E+06  1.975452E+04  2.710144E+04  1.255681E+03  4.920096E+03 -2.187004E+03
       420   3  3.318682E+06  2.119055E+04  2.654802E+04 -9.534137E+02  1.130656E+03 -2.384508E+03
       420   4  3.233219E+06  1.016558E+03  1.215380E+04 -8.317178E+02  8.640104E+03 -2.014491E+03
       420   5  3.232782E+06 -2.164382E+02  7.623193E+03  1.247792E+03  4.840273E+03 -2.187064E+03
       420   6  3.233224E+06  3.793420E+01  5.931962E+03 -8.313044E+02  1.040447E+03 -2.384581E+03
       420   7  3.157347E+06 -1.777127E+04 -6.179648E+03 -9.696185E+02  8.570704E+03 -2.014541E+03
       420   8  3.152120E+06 -2.018787E+04 -1.185552E+04  1.239904E+03  4.760460E+03 -2.187124E+03
       420   9  3.147773E+06 -2.111521E+04 -1.468462E+04 -7.092129E+02  9.502506E+02 -2.384655E+03
       420  10  3.309097E+06  1.980394E+04  3.048668E+04 -6.937867E+02  3.302944E-10 -4.874535E-10
       420  11  3.313451E+06  1.975451E+04  2.710138E+04  1.255690E+03 -5.563493E-10 -6.544644E-10
       420  12  3.318682E+06  2.119054E+04  2.654801E+04 -9.534116E+02 -1.663930E-09 -8.281377E-10
       420  13  3.233219E+06  1.016534E+03  1.215365E+04 -8.317038E+02  2.943050E-13 -3.196149E-10
       420  14  3.232782E+06 -2.164495E+02  7.623141E+03  1.247801E+03 -3.134554E-10 -1.001799E-09
       420  15  3.233224E+06  3.792780E+01  5.931949E+03 -8.313024E+02  1.087939E-09  4.471210E-10
       420  16  3.157347E+06 -1.777129E+04 -6.179793E+03 -9.696046E+02  1.055353E-10  1.821017E-10
       420  17  3.152120E+06 -2.018788E+04 -1.185557E+04  1.239912E+03 -4.127041E-10 -9.603877E-10
       420  18  3.147773E+06 -2.111522E+04 -1.468463E+04 -7.092110E+02  9.809062E-10  1.589235E-10
       420  19  3.309097E+06  1.980396E+04  3.048683E+04 -6.938008E+02 -8.709513E+03  2.014441E+03
       420  20  3.313451E+06  1.975452E+04  2.710144E+04  1.255681E+03 -4.920096E+03  2.187004E+03
       420  21  3.318682E+06  2.119055E+04  2.654802E+04 -9.534137E+02 -1.130656E+03  2.384508E+03
       420  22  3.233219E+06  1.016558E+03  1.215380E+04 -8.317178E+02 -8.640104E+03  2.014491E+03
       420  23  3.232782E+06 -2.164382E+02  7.623193E+03  1.247792E+03 -4.840273E+03  2.187064E+03
       420  24  3.233224E+06  3.793420E+01  5.931962E+03 -8.313044E+02 -1.040447E+03  2.384581E+03
       420  25  3.157347E+06 -1.777127E+04 -6.179648E+03 -9.696185E+02 -8.570704E+03  2.014541E+03
       420  26  3.152120E+06 -2.018787E+04 -1.185552E+04  1.239904E+03 -4.760460E+03  2.187124E+03
       420  27  3.147773E+06 -2.111521E+04 -1.468462E+04 -7.092129E+02 -9.502506E+02  2.384655E+03
       421   1  3.327584E+06  2.343771E+04  2.856602E+04 -9.693143E+02  7.449238E+01 -2.507354E+03
       421   2  3.333553E+06  2.475638E+04  3.100660E+04  1.688340E+03 -3.243215E+03 -2.736717E+03
       421   3  3.340286E+06  2.731702E+04  3.591425E+04 -1.171257E+03 -6.560886E+03 -2.995044E+03
       421   4  3.233199E+06  6.778596E+01  5.760497E+03 -1.133245E+03 -1.781468E+01 -2.507435E+03
       421   5  3.232814E+06 -1.831568E+02  6.682453E+03  1.625108E+03 -3.347621E+03 -2.736817E+03
       421   6  3.233196E+06  8.101042E+02  1.008012E+04 -1.133844E+03 -6.677356E+03 -2.995167E+03
       421   7  3.138821E+06 -2.330278E+04 -1.704566E+04 -1.297152E+03 -1.101078E+02 -2.507517E+03
       421   8  3.132084E+06 -2.512343E+04 -1.764242E+04  1.561885E+03 -3.452009E+03 -2.736918E+03
       421   9  3.126115E+06 -2.569764E+04 -1.575484E+04 -1.096440E+03 -6.793806E+03 -2.995289E+03
       421  10  3.327584E+06  2.343770E+04  2.856601E+04 -9.693141E+02 -1.313797E-09  2.730269E-11
       421  11  3.333553E+06  2.475637E+04  3.100657E+04  1.688333E+03  1.347166E-09  1.353656E-09
       421  12  3.340286E+06  2.731700E+04  3.591416E+04 -1.171273E+03  5.441430E-10  3.789624E-10
       421  13  3.233199E+06  6.777920E+01  5.760485E+03 -1.133245E+03  2.535683E-09  1.749549E-09
       421  14  3.232814E+06 -1.831678E+02  6.682418E+03  1.625101E+03  2.602513E-09  2.128488E-09
       421  15  3.233195E+06  8.100827E+02  1.008001E+04 -1.133860E+03 -2.203943E-10 -1.120287E-10
       421  16  3.138821E+06 -2.330279E+04 -1.704567E+04 -1.297152E+03  1.780538E-09  1.714666E-09
       421  17  3.132084E+06 -2.512344E+04 -1.764246E+04  1.561877E+03 -4.093220E-10  6.548315E-10
       421  18  3.126115E+06 -2.569766E+04 -1.575495E+04 -1.096456E+03 -1.467464E-09 -1.931043E-10
       421  19  3.327584E+06  2.343771E+04  2.856602E+04 -9.693143E+02 -7.449238E+01  2.507354E+03
       421  20  3.333553E+06  2.475638E+04  3.100660E+04  1.688340E+03  3.243215E+03  2.736717E+03
       421  21  3.340286E+06  2.731702E+04  3.591425E+04 -1.171257E+03  6.560886E+03  2.995044E+03
       421  22  3.233199E+06  6.778596E+01  5.760497E+03 -1.133245E+03  1.781468E+01  2.507435E+03
       421  23  3.232814E+06 -1.831568E+02  6.682453E+03  1.625108E+03  3.347621E+03  2.736817E+03
       421  24  3.233196E+06  8.101042E+02  1.008012E+04 -1.133844E+03  6.677356E+03  2.995167E+03
       421  25  3.138821E+06 -2.330278E+04 -1.704566E+04 -1.297152E+03  1.101078E+02  2.507517E+03
       421  26  3.132084E+06 -2.512343E+04 -1.764242E+04  1.561885E+03  3.452009E+03  2.736918E+03
       421  27  3.126115E+06 -2.569764E+04 -1.575484E+04 -1.096440E+03  6.793806E+03  2.995289E+03
       422   1  3.352713E+06  2.909299E+04  4.130425E+04 -4.047420E+02 -8.591759E+03 -3.162545E+03
       422   2  3.359123E+06  3.018197E+04  5.139746E+04  1.949455E+03 -1.902046E+04 -3.470543E+03
       422   3  3.369322E+06  4.087906E+04  7.066391E+04 -2.925239E+03 -2.944917E+04 -3.784835E+03
       422   4  3.233869E+06 -3.343469E+02  1.258882E+04 -1.511542E+03 -8.719155E+03 -3.162672E+03
       422   5  3.231961E+06 -1.297837E+03  2.069467E+04  2.099297E+03 -1.914872E+04 -3.470710E+03
       422   6  3.233843E+06  7.348149E+03  3.797573E+04 -1.518858E+03 -2.957817E+04 -3.785085E+03
       422   7  3.115038E+06 -2.976271E+04 -1.612762E+04 -2.618133E+03 -8.846528E+03 -3.162798E+03
       422   8  3.104813E+06 -3.277882E+04 -1.000928E+04  2.249104E+03 -1.927696E+04 -3.470877E+03
       422   9  3.098381E+06 -2.618409E+04  5.286240E+03 -1.127870E+02 -2.970713E+04 -3.785336E+03
       422  10  3.352713E+06  2.909296E+04  4.130409E+04 -4.047639E+02 -4.992250E-10  7.861286E-10
       422  11  3.359122E+06  3.018186E+04  5.139676E+04  1.949402E+03 -2.727307E-09 -8.777503E-10
       422  12  3.369321E+06  4.087881E+04  7.066226E+04 -2.925329E+03  1.131885E-09  1.307295E-09
       422  13  3.233869E+06 -3.343779E+02  1.258866E+04 -1.511564E+03  1.344572E-10  1.379136E-10
       422  14  3.231960E+06 -1.297948E+03  2.069396E+04  2.099243E+03 -1.570885E-09  2.508396E-10
       422  15  3.233842E+06  7.347900E+03  3.797406E+04 -1.518948E+03 -6.834457E-10 -5.220030E-12
       422  16  3.115038E+06 -2.976274E+04 -1.612779E+04 -2.618156E+03 -1.565809E-10 -7.558781E-10
       422  17  3.104813E+06 -3.277893E+04 -1.000999E+04  2.249051E+03 -4.768781E-10  8.171499E-10
       422  18  3.098380E+06 -2.618434E+04  5.284563E+03 -1.128775E+02 -9.798905E-10  1.287577E-10
       422  19  3.352713E+06  2.909299E+04  4.130425E+04 -4.047420E+02  8.591759E+03  3.162545E+03
       422  20  3.359123E+06  3.018197E+04  5.139746E+04  1.949455E+03  1.902046E+04  3.470543E+03
       422  21  3.369322E+06  4.087906E+04  7.066391E+04 -2.925239E+03  2.944917E+04  3.784835E+03
       422  22  3.233869E+06 -3.343469E+02  1.258882E+04 -1.511542E+03  8.719155E+03  3.162672E+03
       422  23  3.231961E+06 -1.297837E+03  2.069467E+04  2.099297E+03  1.914872E+04  3.470710E+03
       422  24  3.233843E+06  7.348149E+03  3.797573E+04 -1.518858E+03  2.957817E+04  3.785085E+03
       422  25  3.115038E+06 -2.976271E+04 -1.612762E+04 -2.618133E+03  8.846528E+03  3.162798E+03
       422  26  3.104813E+06 -3.277882E+04 -1.000928E+04  2.249104E+03  1.927696E+04  3.470877E+03
       422  27  3.098381E+06 -2.618409E+04  5.286240E+03 -1.127870E+02  2.970713E+04  3.785336E+03
       423   1  3.389599E+06  3.428408E+04  8.460832E+04  6.386896E+03 -3.700979E+04 -4.061961E+03
       423   2  3.387297E+06  2.913377E+04  1.190754E+05 -1.227558E+03 -7.845286E+04 -4.500958E+03
       423   3  3.411123E+06  1.068651E+05  2.011566E+05 -1.828734E+04 -1.198988E+05 -4.599633E+03
       423   4  3.238823E+06 -3.066897E+03  4.818071E+04 -1.980679E+03 -3.724896E+04 -4.061782E+03
       423   5  3.225695E+06 -1.085947E+04  8.006712E+04  2.700599E+03 -7.853559E+04 -4.501639E+03
       423   6  3.238673E+06  6.421392E+04  1.594681E+05 -2.063288E+03 -1.198244E+05 -4.602767E+03
       423   7  3.088068E+06 -4.041928E+04  1.175151E+04 -1.034623E+04 -3.748807E+04 -4.061597E+03
       423   8  3.064116E+06 -5.085456E+04  4.105695E+04  6.627729E+03 -7.861830E+04 -4.502321E+03
       423   9  3.066251E+06  2.156157E+04  1.177777E+05  1.415626E+04 -1.197499E+05 -4.605899E+03
       423  10  3.389598E+06  3.428370E+04  8.460573E+04  6.386775E+03  6.551020E-10  1.245408E-10
       423  11  3.387291E+06  2.913211E+04  1.190639E+05 -1.227842E+03  1.077765E-10 -2.036842E-09
       423  12  3.411108E+06  1.068612E+05  2.011296E+05 -1.828779E+04  6.924129E-10 -2.188101E-09
       423  13  3.238822E+06 -3.067285E+03  4.817808E+04 -1.980801E+03  3.400452E-11 -6.514768E-10
       423  14  3.225688E+06 -1.086114E+04  8.005556E+04  2.700315E+03 -4.034649E-10 -8.252608E-10
       423  15  3.238658E+06  6.421007E+04  1.594412E+05 -2.063732E+03  2.602197E-10 -1.497103E-09
       423  16  3.088067E+06 -4.041967E+04  1.174885E+04 -1.034635E+04 -2.503729E-10 -5.615650E-10
       423  17  3.064109E+06 -5.085623E+04  4.104535E+04  6.627444E+03  2.715612E-09  2.974957E-09
       423  18  3.066236E+06  2.155772E+04  1.177508E+05  1.415582E+04  8.375083E-10 -3.238611E-10
       423  19  3.389599E+06  3.428408E+04  8.460832E+04  6.386896E+03  3.700979E+04  4.061961E+03
       423  20  3.387297E+06  2.913377E+04  1.190754E+05 -1.227558E+03  7.845286E+04  4.500958E+03
       423  21  3.411123E+06  1.068651E+05  2.011566E+05 -1.828734E+04  1.198988E+05  4.599633E+03
       423  22  3.238823E+06 -3.066897E+03  4.818071E+04 -1.980679E+03  3.724896E+04  4.061782E+03
       423  23  3.225695E+06 -1.085947E+04  8.006712E+04  2.700599E+03  7.853559E+04  4.501639E+03
       423  24  3.238673E+06  6.421392E+04  1.594681E+05 -2.063288E+03  1.198244E+05  4.602767E+03
       423  25  3.088068E+06 -4.041928E+04  1.175151E+04 -1.034623E+04  3.748807E+04  4.061597E+03
       423  26  3.064116E+06 -5.085456E+04  4.105695E+04  6.627729E+03  7.861830E+04  4.502321E+03
       423  27  3.066251E+06  2.156157E+04  1.177777E+05  1.415626E+04  1.197499E+05  4.605899E+03
       424   1  3.469394E+06  2.095815E+04  2.410338E+05  6.541890E+04 -1.494798E+05 -5.592268E+03
       424   2  3.383572E+06 -4.100540E+04  3.572204E+05 -3.949489E+04 -3.179914E+05 -6.334631E+03
       424   3  3.497264E+06  6.082039E+05  7.605746E+05 -1.573162E+05 -4.865062E+05 -2.638977E+03
       424   4  3.277358E+06 -2.680292E+04  1.946757E+05 -2.487805E+03 -1.506367E+05 -5.577699E+03
       424   5  3.177310E+06 -9.189757E+04  3.075360E+05  3.497329E+03 -3.172005E+05 -6.355611E+03
       424   6  3.276482E+06  5.539240E+05  7.062770E+05 -3.405577E+03 -4.837629E+05 -2.754764E+03
       424   7  3.085365E+06 -7.454947E+04  1.483174E+05 -7.037355E+04 -1.517933E+05 -5.562874E+03
       424   8  2.971092E+06 -1.427859E+05  2.578496E+05  4.647527E+04 -3.164098E+05 -6.376489E+03
       424   9  3.055795E+06  4.997292E+05  6.519886E+05  1.504506E+05 -4.810205E+05 -2.869234E+03
       424  10  3.469370E+06  2.095216E+04  2.409920E+05  6.541823E+04 -2.219611E-10 -1.946621E-09
       424  11  3.383464E+06 -4.103240E+04  3.570314E+05 -3.949651E+04 -2.020895E-09 -4.507059E-09
       424  12  3.497011E+06  6.081408E+05  7.601323E+05 -1.573173E+05 -1.210834E-09 -1.142036E-09
       424  13  3.277334E+06 -2.680900E+04  1.946332E+05 -2.488481E+03 -2.850618E-09 -6.395865E-09
       424  14  3.177203E+06 -9.192444E+04  3.073479E+05  3.495708E+03  3.395761E-09  2.982477E-09
       424  15  3.276232E+06  5.538616E+05  7.058395E+05 -3.406648E+03 -5.615799E-10 -3.547185E-10
       424  16  3.085340E+06 -7.455565E+04  1.482742E+05 -7.037423E+04  6.922635E-10 -1.668580E-09
       424  17  2.970984E+06 -1.428126E+05  2.576623E+05  4.647365E+04  3.812734E-09  2.703204E-09
       424  18  3.055548E+06  4.996674E+05  6.515558E+05  1.504495E+05 -2.456612E-10 -1.536862E-09
       424  19  3.469394E+06  2.095815E+04  2.410338E+05  6.541890E+04  1.494798E+05  5.592268E+03
       424  20  3.383572E+06 -4.100540E+04  3.572204E+05 -3.949489E+04  3.179914E+05  6.334631E+03
       424  21  3.497264E+06  6.082039E+05  7.605746E+05 -1.573162E+05  4.865062E+05  2.638977E+03
       424  22  3.277358E+06 -2.680292E+04  1.946757E+05 -2.487805E+03  1.506367E+05  5.577699E+03
       424  23  3.177310E+06 -9.189757E+04  3.075360E+05  3.497329E+03  3.172005E+05  6.355611E+03
       424  24  3.276482E+06  5.539240E+05  7.062770E+05 -3.405577E+03  4.837629E+05  2.754764E+03
       424  25  3.085365E+06 -7.454947E+04  1.483174E+05 -7.037355E+04  1.517933E+05  5.562874E+03
       424  26  2.971092E+06 -1.427859E+05  2.578496E+05  4.647527E+04  3.164098E+05  6.376489E+03
       424  27  3.055795E+06  4.997292E+05  6.519886E+05  1.504506E+05  4.810205E+05  2.869234E+03
       425   1  6.045752E+05  1.952395E+05  1.811765E+05  5.409626E+04  6.121948E+04 -1.187582E+04
       425   2  5.456554E+05  1.862580E+05  1.396000E+05  5.555869E+04  2.852727E+04 -4.067801E+04
       425   3  4.903087E+05  1.744848E+05  1.186342E+05  6.666291E+04 -4.191097E+03 -5.021247E+04
       425   4 -2.637304E+05 -1.866470E+04 -2.049005E+04  6.516661E+04 -1.435100E+04 -1.201339E+04
       425   5 -2.622055E+05 -5.205034E+03 -1.013455E+04  6.032828E+04 -9.089337E+03 -4.075535E+04
       425   6 -2.636991E+05 -1.127612E+03 -5.516691E+03  6.513146E+04 -3.858050E+03 -5.021741E+04
       425   7 -1.131328E+06 -2.326185E+05 -2.221858E+05  7.622104E+04 -8.981660E+04 -1.215376E+04
       425   8 -1.069431E+06 -1.967046E+05 -1.598912E+05  6.509119E+04 -4.665829E+04 -4.083333E+04
       425   9 -1.017145E+06 -1.767693E+05 -1.296843E+05  6.360161E+04 -3.525390E+03 -5.022236E+04
       425  10  6.045711E+05  1.952383E+05  1.811692E+05  5.409685E+04  5.659881E-09 -8.973883E-10
       425  11  5.456541E+05  1.862560E+05  1.395954E+05  5.555962E+04  4.386315E-09 -4.962945E-09
       425  12  4.903080E+05  1.744821E+05  1.186295E+05  6.666274E+04  5.223059E-10 -3.770407E-09
       425  13 -2.637307E+05 -1.866491E+04 -2.049071E+04  6.516647E+04 -6.346499E-10  1.002554E-09
       425  14 -2.622061E+05 -5.206840E+03 -1.013783E+04  6.032798E+04  3.171947E-10 -3.693778E-09
       425  15 -2.636998E+05 -1.130323E+03 -5.521457E+03  6.513130E+04  4.697728E-10 -7.762944E-10
       425  16 -1.131336E+06 -2.326208E+05 -2.222013E+05  7.622016E+04 -5.354460E-09 -4.298409E-10
       425  17 -1.069434E+06 -1.967070E+05 -1.598984E+05  6.508965E+04 -4.137279E-09 -7.076478E-09
       425  18 -1.017145E+06 -1.767721E+05 -1.296890E+05  6.360147E+04  3.677387E-10 -6.528282E-09
       425  19  6.045752E+05  1.952395E+05  1.811765E+05  5.409626E+04 -6.121948E+04  1.187582E+04
       425  20  5.456554E+05  1.862580E+05  1.396000E+05  5.555869E+04 -2.852727E+04  4.067801E+04
       425  21  4.903087E+05  1.744848E+05  1.186342E+05  6.666291E+04  4.191097E+03  5.021247E+04
       425  22 -2.637304E+05 -1.866470E+04 -2.049005E+04  6.516661E+04  1.435100E+04  1.201339E+04
       425  23 -2.622055E+05 -5.205034E+03 -1.013455E+04  6.032828E+04  9.089337E+03  4.075535E+04
       425  24 -2.636991E+05 -1.127612E+03 -5.516691E+03  6.513146E+04  3.858050E+03  5.021741E+04
       425  25 -1.131328E+06 -2.326185E+05 -2.221858E+05  7.622104E+04  8.981660E+04  1.215376E+04
       425  26 -1.069431E+06 -1.967046E+05 -1.598912E+05  6.509119E+04  4.665829E+04  4.083333E+04
       425  27 -1.017145E+06 -1.767693E+05 -1.296843E+05  6.360161E+04  3.525390E+03  5.022236E+04
       426   1  4.536789E+05  1.655311E+05  1.116110E+05  6.603615E+04 -2.782930E+03 -4.948789E+04
       426   2  3.964371E+05  1.522864E+05  1.002597E+05  6.083144E+04 -5.788727E+03 -4.862739E+04
       426   3  3.395954E+05  1.391646E+05  9.089195E+04  6.662089E+04 -8.799955E+03 -4.566192E+04
       426   4 -2.630900E+05 -9.572917E+02 -4.159315E+03  6.543541E+04 -3.145156E+03 -4.949401E+04
       426   5 -2.629165E+05 -7.988057E+01 -2.276202E+03  5.993664E+04 -2.006527E+03 -4.862385E+04
       426   6 -2.630646E+05  2.012960E+02 -1.286928E+03  6.543277E+04 -8.735314E+02 -4.564758E+04
       426   7 -9.793491E+05 -1.674717E+05 -1.199437E+05  6.483509E+04 -3.506978E+03 -4.950013E+04
       426   8 -9.218362E+05 -1.524674E+05 -1.048222E+05  5.904257E+04  1.771811E+03 -4.862032E+04
       426   9 -8.653611E+05 -1.387795E+05 -9.347343E+04  6.424563E+04  7.045500E+03 -4.563326E+04
       426  10  4.536783E+05  1.655285E+05  1.116064E+05  6.603604E+04 -1.644965E-08 -4.627710E-09
       426  11  3.964364E+05  1.522839E+05  1.002552E+05  6.083122E+04  2.186012E-08  1.492737E-09
       426  12  3.395948E+05  1.391624E+05  9.088788E+04  6.662057E+04  5.148220E-08  2.092802E-09
       426  13 -2.630906E+05 -9.599245E+02 -4.163936E+03  6.543528E+04  2.877641E-11 -3.534052E-09
       426  14 -2.629172E+05 -8.242015E+01 -2.280652E+03  5.993656E+04 -1.653490E-09 -3.469058E-11
       426  15 -2.630652E+05  1.990586E+02 -1.290844E+03  6.543274E+04 -6.331390E-10 -1.522031E-09
       426  16 -9.793498E+05 -1.674743E+05 -1.199483E+05  6.483495E+04  1.687018E-08  6.062448E-10
       426  17 -9.218368E+05 -1.524700E+05 -1.048267E+05  5.904264E+04 -2.216674E-08  3.335078E-09
       426  18 -8.653617E+05 -1.387818E+05 -9.347744E+04  6.424589E+04 -5.174621E-08  8.856975E-10
       426  19  4.536789E+05  1.655311E+05  1.116110E+05  6.603615E+04  2.782930E+03  4.948789E+04
       426  20  3.964371E+05  1.522864E+05  1.002597E+05  6.083144E+04  5.788727E+03  4.862739E+04
       426  21  3.395954E+05  1.391646E+05  9.089195E+04  6.662089E+04  8.799955E+03  4.566192E+04
       426  22 -2.630900E+05 -9.572917E+02 -4.159315E+03  6.543541E+04  3.145156E+03  4.949401E+04
       426  23 -2.629165E+05 -7.988057E+01 -2.276202E+03  5.993664E+04  2.006527E+03  4.862385E+04
       426  24 -2.630646E+05  2.012960E+02 -1.286928E+03  6.543277E+04  8.735314E+02  4.564758E+04
       426  25 -9.793491E+05 -1.674717E+05 -1.199437E+05  6.483509E+04  3.506978E+03  4.950013E+04
       426  26 -9.218362E+05 -1.524674E+05 -1.048222E+05  5.904257E+04 -1.771811E+03  4.862032E+04
       426  27 -8.653611E+05 -1.387795E+05 -9.347343E+04  6.424563E+04 -7.045500E+03  4.563326E+04
       427   1  3.033924E+05  1.307323E+05  8.522990E+04  6.653212E+04 -8.535666E+03 -4.325019E+04
       427   2  2.463135E+05  1.175448E+05  7.663067E+04  6.087945E+04 -8.722015E+03 -3.914718E+04
       427   3  1.892394E+05  1.044511E+05  6.816318E+04  6.637526E+04 -8.910265E+03 -3.481331E+04
       427   4 -2.630023E+05  2.140996E+02 -9.759970E+02  6.546729E+04 -6.833590E+02 -4.323514E+04
       427   5 -2.629538E+05  2.518968E+02 -5.566614E+02  5.989269E+04 -4.157046E+02 -3.912971E+04
       427   6 -2.629827E+05  3.047811E+02 -3.211076E+02  6.546710E+04 -1.499661E+02 -3.479331E+04
       427   7 -8.290757E+05 -1.303194E+05 -8.718844E+04  6.440328E+04  7.162067E+03 -4.322011E+04
       427   8 -7.719611E+05 -1.170534E+05 -7.774911E+04  5.890661E+04  7.884063E+03 -3.911225E+04
       427   9 -7.149995E+05 -1.038513E+05 -6.880932E+04  6.455949E+04  8.604205E+03 -3.477334E+04
       427  10  3.033918E+05  1.307303E+05  8.522625E+04  6.653182E+04 -5.437276E-08  3.334776E-09
       427  11  2.463130E+05  1.175431E+05  7.662765E+04  6.087918E+04 -1.834097E-08  3.086376E-09
       427  12  1.892389E+05  1.044498E+05  6.816075E+04  6.637501E+04  1.783818E-08 -5.798337E-10
       427  13 -2.630028E+05  2.120925E+02 -9.795102E+02  6.546727E+04 -5.800686E-10 -3.610957E-09
       427  14 -2.629542E+05  2.502528E+02 -5.595387E+02  5.989268E+04 -1.722472E-09  3.152108E-09
       427  15 -2.629830E+05  3.034813E+02 -3.233823E+02  6.546709E+04 -1.276040E-09  4.899383E-09
       427  16 -8.290762E+05 -1.303215E+05 -8.719205E+04  6.440353E+04  5.532359E-08  3.100650E-09
       427  17 -7.719615E+05 -1.170550E+05 -7.775210E+04  5.890686E+04  1.676523E-08  4.143468E-09
       427  18 -7.149999E+05 -1.038526E+05 -6.881174E+04  6.455973E+04 -1.780428E-08 -1.989982E-10
       427  19  3.033924E+05  1.307323E+05  8.522990E+04  6.653212E+04  8.535666E+03  4.325019E+04
       427  20  2.463135E+05  1.175448E+05  7.663067E+04  6.087945E+04  8.722015E+03  3.914718E+04
       427  21  1.892394E+05  1.044511E+05  6.816318E+04  6.637526E+04  8.910265E+03  3.481331E+04
       427  22 -2.630023E+05  2.140996E+02 -9.759970E+02  6.546729E+04  6.833590E+02  4.323514E+04
       427  23 -2.629538E+05  2.518968E+02 -5.566614E+02  5.989269E+04  4.157046E+02  3.912971E+04
       427  24 -2.629827E+05  3.047811E+02 -3.211076E+02  6.546710E+04  1.499661E+02  3.479331E+04
       427  25 -8.290757E+05 -1.303194E+05 -8.718844E+04  6.440328E+04 -7.162067E+03  4.322011E+04
       427  26 -7.719611E+05 -1.170534E+05 -7.774911E+04  5.890661E+04 -7.884063E+03  3.911225E+04
       427  27 -7.149995E+05 -1.038513E+05 -6.880932E+04  6.455949E+04 -8.604205E+03  3.477334E+04
       428   1  1.530698E+05  9.608020E+04  6.252245E+04  6.631156E+04 -8.858471E+03 -3.221558E+04
       428   2  9.598076E+04  8.292965E+04  5.405365E+04  6.061944E+04 -8.842943E+03 -2.775611E+04
       428   3  3.884863E+04  6.984495E+04  4.557322E+04  6.609833E+04 -8.828485E+03 -2.327156E+04
       428   4 -2.629719E+05  3.113588E+02 -2.473310E+02  6.547209E+04 -1.048865E+02 -3.219490E+04
       428   5 -2.629371E+05  2.968098E+02 -1.516962E+02  5.988638E+04 -4.048636E+01 -2.773430E+04
       428   6 -2.629580E+05  3.394783E+02 -1.021190E+02  6.547204E+04  2.284525E+01 -2.324862E+04
       428   7 -6.788398E+05 -9.546569E+04 -6.302033E+04  6.463309E+04  8.643065E+03 -3.217423E+04
       428   8 -6.217255E+05 -8.234213E+04 -5.435937E+04  5.915367E+04  8.757083E+03 -2.771250E+04
       428   9 -5.646732E+05 -6.917030E+04 -4.577904E+04  6.484601E+04  8.870042E+03 -2.322569E+04
       428  10  1.530694E+05  9.607907E+04  6.252036E+04  6.631133E+04 -2.756962E-11  2.726356E-10
       428  11  9.598047E+04  8.292880E+04  5.405206E+04  6.061924E+04  1.890548E-09  8.632389E-09
       428  12  3.884840E+04  6.984435E+04  4.557206E+04  6.609816E+04 -1.301434E-09  6.631981E-09
       428  13 -2.629722E+05  3.102459E+02 -2.492785E+02  6.547209E+04 -2.651342E-10  6.014715E-10
       428  14 -2.629373E+05  2.959839E+02 -1.531415E+02  5.988638E+04 -1.155255E-09  6.710184E-09
       428  15 -2.629582E+05  3.388979E+02 -1.031346E+02  6.547204E+04  2.047604E-10  1.376109E-09
       428  16 -6.788402E+05 -9.546682E+04 -6.302242E+04  6.463331E+04  6.524754E-10 -1.011597E-09
       428  17 -6.217258E+05 -8.234298E+04 -5.436096E+04  5.915387E+04 -1.166499E-09  8.207168E-10
       428  18 -5.646734E+05 -6.917090E+04 -4.578020E+04  6.484618E+04  1.896477E-09 -6.287157E-10
       428  19  1.530698E+05  9.608020E+04  6.252245E+04  6.631156E+04  8.858471E+03  3.221558E+04
       428  20  9.598076E+04  8.292965E+04  5.405365E+04  6.061944E+04  8.842943E+03  2.775611E+04
       428  21  3.884863E+04  6.984495E+04  4.557322E+04  6.609833E+04  8.828485E+03  2.327156E+04
       428  22 -2.629719E+05  3.113588E+02 -2.473310E+02  6.547209E+04  1.048865E+02  3.219490E+04
       428  23 -2.629371E+05  2.968098E+02 -1.516962E+02  5.988638E+04  4.048636E+01  2.773430E+04
       428  24 -2.629580E+05  3.394783E+02 -1.021190E+02  6.547204E+04 -2.284525E+01  2.324862E+04
       428  25 -6.788398E+05 -9.546569E+04 -6.302033E+04  6.463309E+04 -8.643065E+03  3.217423E+04
       428  26 -6.217255E+05 -8.234213E+04 -5.435937E+04  5.915367E+04 -8.757083E+03  2.771250E+04
       428  27 -5.646732E+05 -6.917030E+04 -4.577904E+04  6.484601E+04 -8.870042E+03  2.322569E+04
       429   1  2.664935E+03  6.147504E+04  3.989338E+04  6.602783E+04 -8.818068E+03 -2.065279E+04
       429   2 -5.443627E+04  4.832172E+04  3.136996E+04  6.031844E+04 -8.773809E+03 -1.615776E+04
       429   3 -1.115982E+05  3.522570E+04  2.281047E+04  6.578906E+04 -8.730125E+03 -1.166848E+04
       429   4 -2.629553E+05  3.448993E+02 -9.123730E+01  6.547400E+04  3.360259E+01 -2.062938E+04
       429   5 -2.629207E+05  3.242452E+02 -8.980100E+01  5.988388E+04  6.622170E+01 -1.613380E+04
       429   6 -2.629473E+05  3.632210E+02 -1.162982E+02  6.547397E+04  9.827086E+01 -1.164397E+04
       429   7 -5.285046E+05 -6.078856E+04 -4.007698E+04  6.492038E+04  8.881636E+03 -2.060598E+04
       429   8 -4.713613E+05 -4.767526E+04 -3.155015E+04  5.944944E+04  8.903402E+03 -1.610984E+04
       429   9 -4.142732E+05 -3.450031E+04 -2.304324E+04  6.515895E+04  8.924599E+03 -1.161946E+04
       429  10  2.664737E+03  6.147457E+04  3.989244E+04  6.602768E+04  1.273807E-08  9.985483E-10
       429  11 -5.443643E+04  4.832142E+04  3.136932E+04  6.031832E+04  4.559018E-09 -1.749758E-09
       429  12 -1.115984E+05  3.522553E+04  2.281007E+04  6.578898E+04 -7.121926E-09 -1.695280E-09
       429  13 -2.629554E+05  3.444424E+02 -9.203694E+01  6.547400E+04  5.990552E-10  8.559592E-09
       429  14 -2.629208E+05  3.239657E+02 -9.029010E+01  5.988388E+04 -2.989674E-12 -3.037647E-11
       429  15 -2.629473E+05  3.630754E+02 -1.165530E+02  6.547397E+04 -9.619216E-10 -1.792675E-09
       429  16 -5.285048E+05 -6.078903E+04 -4.007792E+04  6.492053E+04 -1.123973E-08  2.900569E-09
       429  17 -4.713615E+05 -4.767556E+04 -3.155078E+04  5.944955E+04 -5.705863E-09 -6.862451E-10
       429  18 -4.142733E+05 -3.450048E+04 -2.304365E+04  6.515903E+04  7.436641E-09 -3.597726E-09
       429  19  2.664935E+03  6.147504E+04  3.989338E+04  6.602783E+04  8.818068E+03  2.065279E+04
       429  20 -5.443627E+04  4.832172E+04  3.136996E+04  6.031844E+04  8.773809E+03  1.615776E+04
       429  21 -1.115982E+05  3.522570E+04  2.281047E+04  6.578906E+04  8.730125E+03  1.166848E+04
       429  22 -2.629553E+05  3.448993E+02 -9.123730E+01  6.547400E+04 -3.360259E+01  2.062938E+04
       429  23 -2.629207E+05  3.242452E+02 -8.980100E+01  5.988388E+04 -6.622170E+01  1.613380E+04
       429  24 -2.629473E+05  3.632210E+02 -1.162982E+02  6.547397E+04 -9.827086E+01  1.164397E+04
       429  25 -5.285046E+05 -6.078856E+04 -4.007698E+04  6.492038E+04 -8.881636E+03  2.060598E+04
       429  26 -4.713613E+05 -4.767526E+04 -3.155015E+04  5.944944E+04 -8.903402E+03  1.610984E+04
       429  27 -4.142732E+05 -3.450031E+04 -2.304324E+04  6.515895E+04 -8.924599E+03  1.161946E+04
       430   1 -1.477959E+05  2.684895E+04  1.708405E+04  6.570718E+04 -8.717235E+03 -9.053592E+03
       430   2 -2.048835E+05  1.367457E+04  8.407532E+03  5.999554E+04 -8.452123E+03 -4.605416E+03
       430   3 -2.620750E+05  5.154530E+02 -4.606451E+02  6.546021E+04 -8.186979E+03 -2.393961E+02
       430   4 -2.629494E+05  3.668146E+02 -1.429118E+02  6.547310E+04  1.143467E+02 -9.028852E+03
       430   5 -2.629087E+05  3.380733E+02 -2.327601E+02  5.988494E+04  2.174138E+02 -4.580971E+03
       430   6 -2.629472E+05  3.528160E+02 -4.019059E+02  6.547314E+04  3.205371E+02 -2.152505E+02
       430   7 -3.780895E+05 -2.611591E+04 -1.736984E+04  6.523905E+04  8.944356E+03 -9.004115E+03
       430   8 -3.209305E+05 -1.299855E+04 -8.872834E+03  5.977435E+04  8.886173E+03 -4.556528E+03
       430   9 -2.638192E+05  1.902179E+02 -3.428943E+02  6.548607E+04  8.828043E+03 -1.911046E+02
       430  10 -1.477960E+05  2.684884E+04  1.708376E+04  6.570712E+04 -4.604236E-10  3.762093E-09
       430  11 -2.048836E+05  1.367453E+04  8.407358E+03  5.999551E+04 -1.108108E-09  1.213716E-10
       430  12 -2.620750E+05  5.154349E+02 -4.607712E+02  6.546021E+04 -7.272306E-09  6.504198E-10
       430  13 -2.629494E+05  3.667271E+02 -1.430650E+02  6.547310E+04  2.815035E-10  1.239246E-10
       430  14 -2.629088E+05  3.380508E+02 -2.327996E+02  5.988494E+04 -1.272637E-09 -8.553322E-10
       430  15 -2.629472E+05  3.528159E+02 -4.019061E+02  6.547314E+04  8.270532E-11  2.505097E-09
       430  16 -3.780896E+05 -2.611602E+04 -1.737014E+04  6.523911E+04  1.701224E-09  1.496088E-09
       430  17 -3.209306E+05 -1.299859E+04 -8.873021E+03  5.977438E+04  8.026955E-10 -5.950857E-09
       430  18 -2.638193E+05  1.901969E+02 -3.430409E+02  6.548607E+04  7.553452E-09  1.066800E-09
       430  19 -1.477959E+05  2.684895E+04  1.708405E+04  6.570718E+04  8.717235E+03  9.053592E+03
       430  20 -2.048835E+05  1.367457E+04  8.407532E+03  5.999554E+04  8.452123E+03  4.605416E+03
       430  21 -2.620750E+05  5.154530E+02 -4.606451E+02  6.546021E+04  8.186979E+03  2.393961E+02
       430  22 -2.629494E+05  3.668146E+02 -1.429118E+02  6.547310E+04 -1.143467E+02  9.028852E+03
       430  23 -2.629087E+05  3.380733E+02 -2.327601E+02  5.988494E+04 -2.174138E+02  4.580971E+03
       430  24 -2.629472E+05  3.528160E+02 -4.019059E+02  6.547314E+04 -3.205371E+02  2.152505E+02
       430  25 -3.780895E+05 -2.611591E+04 -1.736984E+04  6.523905E+04 -8.944356E+03  9.004115E+03
       430  26 -3.209305E+05 -1.299855E+04 -8.872834E+03  5.977435E+04 -8.886173E+03  4.556528E+03
       430  27 -2.638192E+05  1.902179E+02 -3.428943E+02  6.548607E+04 -8.828043E+03  1.911046E+02
       431   1 -2.983319E+05 -7.893627E+03 -6.382172E+03  6.533684E+04 -8.141161E+03  2.310079E+03
       431   2 -3.552497E+05 -2.126295E+04 -1.596835E+04  5.979315E+04 -6.197392E+03  6.275417E+03
       431   3 -4.126085E+05 -3.509792E+04 -2.695870E+04  6.537359E+04 -4.251590E+03  9.483614E+03
       431   4 -2.629713E+05  3.521127E+02 -5.285160E+02  6.546136E+04  3.934415E+02  2.334275E+03
       431   5 -2.628799E+05  2.252273E+02 -9.304453E+02  5.989999E+04  8.474801E+02  6.295180E+03
       431   6 -2.629749E+05 -1.086406E+02 -1.701936E+03  6.546264E+04  1.303744E+03  9.499004E+03
       431   7 -2.276092E+05  8.597826E+03  5.325376E+03  6.558588E+04  8.928514E+03  2.358474E+03
       431   8 -1.705016E+05  2.171300E+04  1.410741E+04  6.000684E+04  7.893365E+03  6.314944E+03
       431   9 -1.133192E+05  3.487948E+04  2.355423E+04  6.555170E+04  6.860374E+03  9.514393E+03
       431  10 -2.983320E+05 -7.893650E+03 -6.382307E+03  6.533686E+04  6.871025E-09  6.205530E-09
       431  11 -3.552497E+05 -2.126300E+04 -1.596850E+04  5.979319E+04 -1.645007E-08 -3.608898E-10
       431  12 -4.126085E+05 -3.509802E+04 -2.695891E+04  6.537362E+04 -4.095813E-08  1.775032E-09
       431  13 -2.629713E+05  3.521068E+02 -5.285266E+02  6.546136E+04 -2.897594E-10  4.684820E-09
       431  14 -2.628799E+05  2.251846E+02 -9.305211E+02  5.989999E+04 -1.275826E-09  1.586812E-09
       431  15 -2.629749E+05 -1.087380E+02 -1.702108E+03  6.546263E+04 -2.875646E-11 -1.839792E-09
       431  16 -2.276093E+05  8.597799E+03  5.325216E+03  6.558586E+04 -6.064456E-09  3.847919E-09
       431  17 -1.705017E+05  2.171294E+04  1.410722E+04  6.000680E+04  1.594412E-08 -2.695419E-10
       431  18 -1.133193E+05  3.487937E+04  2.355398E+04  6.555164E+04  4.144707E-08 -8.052575E-09
       431  19 -2.983319E+05 -7.893627E+03 -6.382172E+03  6.533684E+04  8.141161E+03 -2.310079E+03
       431  20 -3.552497E+05 -2.126295E+04 -1.596835E+04  5.979315E+04  6.197392E+03 -6.275417E+03
       431  21 -4.126085E+05 -3.509792E+04 -2.695870E+04  6.537359E+04  4.251590E+03 -9.483614E+03
       431  22 -2.629713E+05  3.521127E+02 -5.285160E+02  6.546136E+04 -3.934415E+02 -2.334275E+03
       431  23 -2.628799E+05  2.252273E+02 -9.304453E+02  5.989999E+04 -8.474801E+02 -6.295180E+03
       431  24 -2.629749E+05 -1.086406E+02 -1.701936E+03  6.546264E+04 -1.303744E+03 -9.499004E+03
       431  25 -2.276092E+05  8.597826E+03  5.325376E+03  6.558588E+04 -8.928514E+03 -2.358474E+03
       431  26 -1.705016E+05  2.171300E+04  1.410741E+04  6.000684E+04 -7.893365E+03 -6.314944E+03
       431  27 -1.133192E+05  3.487948E+04  2.355423E+04  6.555170E+04 -6.860374E+03 -9.514393E+03
       432   1 -4.494420E+05 -4.382130E+04 -3.417740E+04  6.481617E+04 -4.214857E+03  1.142595E+04
       432   2 -5.047913E+05 -5.963348E+04 -5.072868E+04  6.198386E+04  1.155481E+04  1.095342E+04
       432   3 -5.638057E+05 -8.163359E+04 -7.911158E+04  6.979436E+04  2.734100E+04  3.545217E+03
       432   4 -2.632239E+05 -1.761020E+02 -2.257712E+03  6.535375E+04  1.590381E+03  1.144185E+04
       432   5 -2.625805E+05 -1.867533E+03 -4.145390E+03  6.004217E+04  3.720219E+03  1.093147E+04
       432   6 -2.632339E+05 -7.376043E+03 -8.386907E+03  6.537341E+04  5.867966E+03  3.486550E+03
       432   7 -7.697165E+04  4.346726E+04  2.966094E+04  6.589148E+04  7.397306E+03  1.145776E+04
       432   8 -2.031315E+04  5.589499E+04  4.243543E+04  5.809967E+04 -4.117358E+03  1.090958E+04
       432   9  3.742202E+04  6.687539E+04  6.233330E+04  6.095025E+04 -1.561541E+04  3.428203E+03
       432  10 -4.494421E+05 -4.382144E+04 -3.417768E+04  6.481621E+04  4.838579E-08  1.625166E-09
       432  11 -5.047915E+05 -5.963365E+04 -5.072916E+04  6.198376E+04  2.254732E-08 -5.590779E-09
       432  12 -5.638065E+05 -8.163381E+04 -7.911301E+04  6.979428E+04 -1.089887E-08 -1.435540E-09
       432  13 -2.632240E+05 -1.762433E+02 -2.257962E+03  6.535374E+04  5.007455E-11  2.245459E-09
       432  14 -2.625806E+05 -1.867666E+03 -4.145640E+03  6.004214E+04 -1.583880E-09 -7.037631E-09
       432  15 -2.632340E+05 -7.376065E+03 -8.386994E+03  6.537339E+04 -6.487653E-10  2.315847E-09
       432  16 -7.697174E+04  4.346710E+04  2.966059E+04  6.589141E+04 -4.796476E-08 -1.872030E-09
       432  17 -2.031320E+04  5.589485E+04  4.243518E+04  5.809971E+04 -2.299557E-08  2.602859E-09
       432  18  3.742175E+04  6.687531E+04  6.233282E+04  6.095029E+04  1.250965E-08 -1.511338E-10
       432  19 -4.494420E+05 -4.382130E+04 -3.417740E+04  6.481617E+04  4.214857E+03 -1.142595E+04
       432  20 -5.047913E+05 -5.963348E+04 -5.072868E+04  6.198386E+04 -1.155481E+04 -1.095342E+04
       432  21 -5.638057E+05 -8.163359E+04 -7.911158E+04  6.979436E+04 -2.734100E+04 -3.545217E+03
       432  22 -2.632239E+05 -1.761020E+02 -2.257712E+03  6.535375E+04 -1.590381E+03 -1.144185E+04
       432  23 -2.625805E+05 -1.867533E+03 -4.145390E+03  6.004217E+04 -3.720219E+03 -1.093147E+04
       432  24 -2.632339E+05 -7.376043E+03 -8.386907E+03  6.537341E+04 -5.867966E+03 -3.486550E+03
       432  25 -7.697165E+04  4.346726E+04  2.966094E+04  6.589148E+04 -7.397306E+03 -1.145776E+04
       432  26 -2.031315E+04  5.589499E+04  4.243543E+04  5.809967E+04  4.117358E+03 -1.090958E+04
       432  27  3.742202E+04  6.687539E+04  6.233330E+04  6.095025E+04  1.561541E+04 -3.428203E+03
       433   1 -4.195970E+05  1.613710E+04 -1.754503E+04 -1.765039E+04 -9.733036E+04 -5.170674E+03
       433   2 -4.309387E+05  1.465992E+05  5.741949E+04 -7.933556E+03 -6.622873E+04 -1.486749E+04
       433   3 -4.841622E+05  1.249740E+05  7.417116E+04  2.972635E+04 -3.516081E+04 -1.350955E+04
       433   4 -9.628344E+05 -1.192829E+05 -1.520361E+05  1.430630E+04 -1.038770E+05 -5.194038E+03
       433   5 -9.414309E+05  1.977461E+04 -6.616336E+04  1.564750E+02 -6.803060E+04 -1.487482E+04
       433   6 -9.627719E+05  5.850621E+03 -4.183795E+04  1.395161E+04 -3.221595E+04 -1.349923E+04
       433   7 -1.505801E+06 -2.547211E+05 -2.865484E+05  4.623480E+04 -1.104179E+05 -5.218089E+03
       433   8 -1.451684E+06 -1.070688E+05 -1.897649E+05  8.239646E+03 -6.983097E+04 -1.488221E+04
       433   9 -1.441171E+06 -1.132888E+05 -1.578634E+05 -1.811106E+03 -2.927334E+04 -1.348907E+04
       433  10 -4.196071E+05  1.613452E+04 -1.756290E+04 -1.765079E+04 -4.703055E-09  2.125271E-09
       433  11 -4.309435E+05  1.465978E+05  5.741083E+04 -7.934349E+03 -1.709653E-09  1.332217E-08
       433  12 -4.841636E+05  1.249735E+05  7.416850E+04  2.972597E+04  2.418803E-09  6.365881E-09
       433  13 -9.628460E+05 -1.192859E+05 -1.520565E+05  1.430587E+04 -1.273613E-10 -2.817381E-09
       433  14 -9.414359E+05  1.977313E+04 -6.617249E+04  1.556597E+02  1.947164E-09 -6.137739E-09
       433  15 -9.627730E+05  5.850146E+03 -4.184025E+04  1.395126E+04 -3.091717E-10  1.000800E-09
       433  16 -1.505814E+06 -2.547244E+05 -2.865715E+05  4.623433E+04  4.849520E-09  2.212883E-09
       433  17 -1.451690E+06 -1.070704E+05 -1.897745E+05  8.238808E+03  1.551523E-09  1.382331E-08
       433  18 -1.441172E+06 -1.132892E+05 -1.578654E+05 -1.811424E+03 -2.317196E-09 -4.750622E-10
       433  19 -4.195970E+05  1.613710E+04 -1.754503E+04 -1.765039E+04  9.733036E+04  5.170674E+03
       433  20 -4.309387E+05  1.465992E+05  5.741949E+04 -7.933556E+03  6.622873E+04  1.486749E+04
       433  21 -4.841622E+05  1.249740E+05  7.417116E+04  2.972635E+04  3.516081E+04  1.350955E+04
       433  22 -9.628344E+05 -1.192829E+05 -1.520361E+05  1.430630E+04  1.038770E+05  5.194038E+03
       433  23 -9.414309E+05  1.977461E+04 -6.616336E+04  1.564750E+02  6.803060E+04  1.487482E+04
       433  24 -9.627719E+05  5.850621E+03 -4.183795E+04  1.395161E+04  3.221595E+04  1.349923E+04
       433  25 -1.505801E+06 -2.547211E+05 -2.865484E+05  4.623480E+04  1.104179E+05  5.218089E+03
       433  26 -1.451684E+06 -1.070688E+05 -1.897649E+05  8.239646E+03  6.983097E+04  1.488221E+04
       433  27 -1.441171E+06 -1.132888E+05 -1.578634E+05 -1.811106E+03  2.927334E+04  1.348907E+04
       434   1 -5.299448E+05  9.181095E+04  6.884497E+04  1.218099E+04 -2.556288E+04 -1.113114E+04
       434   2 -5.615674E+05  9.933224E+04  7.739771E+04 -1.845239E+02 -1.713684E+04 -1.077962E+04
       434   3 -5.987314E+05  8.930532E+04  7.606476E+04  1.739025E+04 -8.716214E+03 -9.414464E+03
       434   4 -9.545224E+05 -1.377175E+04 -3.427647E+04  1.454918E+04 -2.563136E+04 -1.113203E+04
       434   5 -9.517046E+05  2.323439E+03 -1.720396E+04 -4.487000E+02 -1.677315E+04 -1.077867E+04
       434   6 -9.545090E+05  7.888142E+02 -1.032261E+04  1.449508E+04 -7.919913E+03 -9.411458E+03
       434   7 -1.378935E+06 -1.193677E+05 -1.374109E+05  1.691560E+04 -2.569978E+04 -1.113291E+04
       434   8 -1.341703E+06 -9.469655E+04 -1.118166E+05 -7.128444E+02 -1.640969E+04 -1.077772E+04
       434   9 -1.310171E+06 -8.773698E+04 -9.671914E+04  1.160146E+04 -7.124066E+03 -9.408458E+03
       434  10 -5.299455E+05  9.181064E+04  6.884351E+04  1.218076E+04 -9.053592E-10 -1.432897E-09
       434  11 -5.615678E+05  9.933204E+04  7.739694E+04 -1.846726E+02 -4.856354E-10  7.016027E-09
       434  12 -5.987316E+05  8.930521E+04  7.606445E+04  1.739019E+04  3.061394E-09  1.233597E-08
       434  13 -9.545231E+05 -1.377206E+04 -3.427794E+04  1.454895E+04  8.334718E-11  1.215924E-08
       434  14 -9.517050E+05  2.323238E+03 -1.720471E+04 -4.488456E+02  1.829401E-09 -2.255596E-08
       434  15 -9.545091E+05  7.887022E+02 -1.032290E+04  1.449502E+04 -1.302692E-09  1.254135E-08
       434  16 -1.378936E+06 -1.193680E+05 -1.374124E+05  1.691537E+04  2.323814E-09 -7.307461E-09
       434  17 -1.341703E+06 -9.469675E+04 -1.118173E+05 -7.129869E+02  2.397068E-09 -4.166704E-09
       434  18 -1.310171E+06 -8.773709E+04 -9.671940E+04  1.160140E+04 -4.848835E-09  3.201040E-10
       434  19 -5.299448E+05  9.181095E+04  6.884497E+04  1.218099E+04  2.556288E+04  1.113114E+04
       434  20 -5.615674E+05  9.933224E+04  7.739771E+04 -1.845239E+02  1.713684E+04  1.077962E+04
       434  21 -5.987314E+05  8.930532E+04  7.606476E+04  1.739025E+04  8.716214E+03  9.414464E+03
       434  22 -9.545224E+05 -1.377175E+04 -3.427647E+04  1.454918E+04  2.563136E+04  1.113203E+04
       434  23 -9.517046E+05  2.323439E+03 -1.720396E+04 -4.487000E+02  1.677315E+04  1.077867E+04
       434  24 -9.545090E+05  7.888142E+02 -1.032261E+04  1.449508E+04  7.919913E+03  9.411458E+03
       434  25 -1.378935E+06 -1.193677E+05 -1.374109E+05  1.691560E+04  2.569978E+04  1.113291E+04
       434  26 -1.341703E+06 -9.469655E+04 -1.118166E+05 -7.128444E+02  1.640969E+04  1.077772E+04
       434  27 -1.310171E+06 -8.773698E+04 -9.671914E+04  1.160146E+04  7.124066E+03  9.408458E+03
       435   1 -6.550062E+05  7.273938E+04  6.416499E+04  1.547741E+04 -6.817596E+03 -8.477721E+03
       435   2 -6.905527E+05  6.554415E+04  5.921611E+04 -2.859336E+01 -4.639572E+03 -7.189217E+03
       435   3 -7.270754E+05  5.656238E+04  5.234938E+04  1.585454E+04 -2.462984E+03 -5.789487E+03
       435   4 -9.534692E+05 -1.468489E+03 -8.140924E+03  1.483945E+04 -6.287491E+03 -8.475701E+03
       435   5 -9.529742E+05  2.785479E+02 -4.433278E+03 -8.594192E+02 -4.062431E+03 -7.186824E+03
       435   6 -9.534647E+05  2.305188E+02 -2.676679E+03  1.483168E+04 -1.838682E+03 -5.786696E+03
       435   7 -1.251851E+06 -7.568290E+04 -8.045326E+04  1.420172E+04 -5.757639E+03 -8.473682E+03
       435   8 -1.215333E+06 -6.499211E+04 -6.808763E+04 -1.689963E+03 -3.485534E+03 -7.184432E+03
       435   9 -1.179807E+06 -5.610512E+04 -5.770645E+04  1.380914E+04 -1.214608E+03 -5.783908E+03
       435  10 -6.550063E+05  7.273929E+04  6.416477E+04  1.547736E+04  3.765514E-09 -2.200137E-09
       435  11 -6.905527E+05  6.554409E+04  5.921597E+04 -2.862022E+01 -1.231356E-09 -3.509806E-09
       435  12 -7.270754E+05  5.656234E+04  5.234931E+04  1.585453E+04 -1.293272E-09 -8.061473E-09
       435  13 -9.534693E+05 -1.468577E+03 -8.141133E+03  1.483941E+04  3.459081E-10 -6.466143E-11
       435  14 -9.529742E+05  2.784880E+02 -4.433406E+03 -8.594427E+02  3.676971E-10 -4.430766E-09
       435  15 -9.534648E+05  2.304819E+02 -2.676748E+03  1.483167E+04  3.796284E-10 -6.338909E-09
       435  16 -1.251851E+06 -7.568298E+04 -8.045346E+04  1.420168E+04 -3.413823E-09 -1.082922E-08
       435  17 -1.215333E+06 -6.499217E+04 -6.808775E+04 -1.689983E+03  2.703319E-09  3.892756E-09
       435  18 -1.179807E+06 -5.610515E+04 -5.770652E+04  1.380913E+04  5.896286E-10  1.366590E-08
       435  19 -6.550062E+05  7.273938E+04  6.416499E+04  1.547741E+04  6.817596E+03  8.477721E+03
       435  20 -6.905527E+05  6.554415E+04  5.921611E+04 -2.859336E+01  4.639572E+03  7.189217E+03
       435  21 -7.270754E+05  5.656238E+04  5.234938E+04  1.585454E+04  2.462984E+03  5.789487E+03
       435  22 -9.534692E+05 -1.468489E+03 -8.140924E+03  1.483945E+04  6.287491E+03  8.475701E+03
       435  23 -9.529742E+05  2.785479E+02 -4.433278E+03 -8.594192E+02  4.062431E+03  7.186824E+03
       435  24 -9.534647E+05  2.305188E+02 -2.676679E+03  1.483168E+04  1.838682E+03  5.786696E+03
       435  25 -1.251851E+06 -7.568290E+04 -8.045326E+04  1.420172E+04  5.757639E+03  8.473682E+03
       435  26 -1.215333E+06 -6.499211E+04 -6.808763E+04 -1.689963E+03  3.485534E+03  7.184432E+03
       435  27 -1.179807E+06 -5.610512E+04 -5.770645E+04  1.380914E+04  1.214608E+03  5.783908E+03
       436   1 -7.864454E+05  4.146406E+04  3.823027E+04  1.560081E+04 -2.012347E+03 -4.957548E+03
       436   2 -8.232574E+05  3.234863E+04  3.009610E+04 -6.284266E+02 -1.328647E+03 -3.551528E+03
       436   3 -8.605121E+05  2.327188E+04  2.144898E+04  1.539914E+04 -6.455216E+02 -2.126295E+03
       436   4 -9.533379E+05 -2.402767E+01 -2.141960E+03  1.502727E+04 -1.410855E+03 -4.954767E+03
       436   5 -9.531142E+05  4.911794E+01 -1.403500E+03 -1.101957E+03 -7.190414E+02 -3.548622E+03
       436   6 -9.533359E+05  1.595901E+02 -1.183645E+03  1.502604E+04 -2.776121E+01 -2.123257E+03
       436   7 -1.120205E+06 -4.151416E+04 -4.251620E+04  1.445385E+04 -8.095245E+02 -4.951987E+03
       436   8 -1.082956E+06 -3.225163E+04 -3.290431E+04 -1.575407E+03 -1.095630E+02 -3.545717E+03
       436   9 -1.046152E+06 -2.295333E+04 -2.381689E+04  1.465298E+04  5.899069E+02 -2.120220E+03
       436  10 -7.864454E+05  4.146403E+04  3.823022E+04  1.560080E+04 -2.770040E-09 -1.396881E-08
       436  11 -8.232574E+05  3.234861E+04  3.009607E+04 -6.284304E+02 -6.031154E-09  5.363502E-09
       436  12 -8.605121E+05  2.327187E+04  2.144897E+04  1.539914E+04 -2.120640E-09 -2.560996E-09
       436  13 -9.533379E+05 -2.405456E+01 -2.142010E+03  1.502726E+04 -2.999474E-10  4.744736E-09
       436  14 -9.531142E+05  4.910428E+01 -1.403525E+03 -1.101959E+03  1.418629E-10 -9.874164E-09
       436  15 -9.533359E+05  1.595852E+02 -1.183654E+03  1.502604E+04  9.967829E-11 -8.984629E-09
       436  16 -1.120205E+06 -4.151419E+04 -4.251624E+04  1.445385E+04  3.022270E-09  1.083672E-08
       436  17 -1.082956E+06 -3.225164E+04 -3.290434E+04 -1.575408E+03  6.188630E-09  2.103735E-08
       436  18 -1.046152E+06 -2.295334E+04 -2.381690E+04  1.465298E+04  1.735507E-09  1.293502E-09
       436  19 -7.864454E+05  4.146406E+04  3.823027E+04  1.560081E+04  2.012347E+03  4.957548E+03
       436  20 -8.232574E+05  3.234863E+04  3.009610E+04 -6.284266E+02  1.328647E+03  3.551528E+03
       436  21 -8.605121E+05  2.327188E+04  2.144898E+04  1.539914E+04  6.455216E+02  2.126295E+03
       436  22 -9.533379E+05 -2.402767E+01 -2.141960E+03  1.502727E+04  1.410855E+03  4.954767E+03
       436  23 -9.531142E+05  4.911794E+01 -1.403500E+03 -1.101957E+03  7.190414E+02  3.548622E+03
       436  24 -9.533359E+05  1.595901E+02 -1.183645E+03  1.502604E+04  2.776121E+01  2.123257E+03
       436  25 -1.120205E+06 -4.151416E+04 -4.251620E+04  1.445385E+04  8.095245E+02  4.951987E+03
       436  26 -1.082956E+06 -3.225163E+04 -3.290431E+04 -1.575407E+03  1.095630E+02  3.545717E+03
       436  27 -1.046152E+06 -2.295333E+04 -2.381689E+04  1.465298E+04 -5.899069E+02  2.120220E+03
       437   1 -9.210863E+05  8.162394E+03  6.501897E+03  1.517490E+04 -4.339895E+02 -1.291137E+03
       437   2 -9.581860E+05 -1.208250E+03 -2.763257E+03 -1.202486E+03  3.227434E+02  1.409029E+02
       437   3 -9.957825E+05 -1.056695E+04 -1.260384E+04  1.495453E+04  1.079466E+03  1.566961E+03
       437   4 -9.533453E+05  1.613942E+02 -1.208823E+03  1.508752E+04  1.836137E+02 -1.288068E+03
       437   5 -9.530964E+05  5.782363E+01 -1.528660E+03 -1.179221E+03  9.377450E+02  1.439531E+02
       437   6 -9.533457E+05 -3.338378E+01 -2.422158E+03  1.508842E+04  1.691911E+03  1.569997E+03
       437   7 -9.856034E+05 -7.839681E+03 -8.919614E+03  1.500014E+04  8.011850E+02 -1.284999E+03
       437   8 -9.480069E+05  1.323896E+03 -2.940639E+02 -1.155956E+03  1.552752E+03  1.470032E+02
       437   9 -9.109072E+05  1.050005E+04  7.759398E+03  1.522232E+04  2.304398E+03  1.573033E+03
       437  10 -9.210863E+05  8.162392E+03  6.501893E+03  1.517490E+04  7.304920E-10 -5.342287E-09
       437  11 -9.581860E+05 -1.208250E+03 -2.763257E+03 -1.202486E+03  1.295083E-09 -5.383983E-09
       437  12 -9.957825E+05 -1.056695E+04 -1.260385E+04  1.495453E+04 -5.315559E-09 -1.672955E-09
       437  13 -9.533453E+05  1.613924E+02 -1.208826E+03  1.508752E+04 -4.579973E-10  8.446544E-09
       437  14 -9.530965E+05  5.782337E+01 -1.528662E+03 -1.179221E+03  4.927506E-11 -7.797902E-09
       437  15 -9.533457E+05 -3.338719E+01 -2.422168E+03  1.508842E+04  5.742447E-11 -2.302733E-09
       437  16 -9.856034E+05 -7.839683E+03 -8.919618E+03  1.500014E+04 -6.145188E-10 -1.254642E-09
       437  17 -9.480069E+05  1.323895E+03 -2.940684E+02 -1.155956E+03  2.615706E-09 -1.469358E-08
       437  18 -9.109072E+05  1.050005E+04  7.759383E+03  1.522232E+04  5.594002E-09 -1.428650E-08
       437  19 -9.210863E+05  8.162394E+03  6.501897E+03  1.517490E+04  4.339895E+02  1.291137E+03
       437  20 -9.581860E+05 -1.208250E+03 -2.763257E+03 -1.202486E+03 -3.227434E+02 -1.409029E+02
       437  21 -9.957825E+05 -1.056695E+04 -1.260384E+04  1.495453E+04 -1.079466E+03 -1.566961E+03
       437  22 -9.533453E+05  1.613942E+02 -1.208823E+03  1.508752E+04 -1.836137E+02  1.288068E+03
       437  23 -9.530964E+05  5.782363E+01 -1.528660E+03 -1.179221E+03 -9.377450E+02 -1.439531E+02
       437  24 -9.533457E+05 -3.338378E+01 -2.422158E+03  1.508842E+04 -1.691911E+03 -1.569997E+03
       437  25 -9.856034E+05 -7.839681E+03 -8.919614E+03  1.500014E+04 -8.011850E+02  1.284999E+03
       437  26 -9.480069E+05  1.323896E+03 -2.940639E+02 -1.155956E+03 -1.552752E+03 -1.470032E+02
       437  27 -9.109072E+05  1.050005E+04  7.759398E+03  1.522232E+04 -2.304398E+03 -1.573033E+03
       438   1 -1.056457E+06 -2.538063E+04 -2.814874E+04  1.437233E+04  1.548011E+03  2.411120E+03
       438   2 -1.092825E+06 -3.447440E+04 -3.903886E+04 -1.535728E+03  4.140094E+03  3.844644E+03
       438   3 -1.130414E+06 -4.566952E+04 -5.222038E+04  1.477048E+04  6.732922E+03  5.194933E+03
       438   4 -9.535076E+05  2.559337E+02 -3.057358E+03  1.501356E+04  2.179225E+03  2.414212E+03
       438   5 -9.529017E+05  3.335671E+02 -5.093200E+03 -1.088620E+03  4.735908E+03  3.847464E+03
       438   6 -9.535115E+05 -1.683392E+03 -9.395158E+03  1.502302E+04  7.293490E+03  5.197491E+03
       438   7 -8.505486E+05  2.589171E+04  2.203325E+04  1.565488E+04  2.810544E+03  2.417306E+03
       438   8 -8.129608E+05  3.514010E+04  2.885104E+04 -6.414333E+02  5.331857E+03  3.850285E+03
       438   9 -7.765803E+05  4.230044E+04  3.342781E+04  1.527560E+04  7.854217E+03  5.200049E+03
       438  10 -1.056457E+06 -2.538063E+04 -2.814875E+04  1.437232E+04 -4.939268E-09  1.211842E-09
       438  11 -1.092825E+06 -3.447442E+04 -3.903892E+04 -1.535741E+03 -4.902465E-09 -6.016838E-09
       438  12 -1.130414E+06 -4.566956E+04 -5.222051E+04  1.477045E+04 -4.002365E-09 -2.895399E-09
       438  13 -9.535076E+05  2.559262E+02 -3.057378E+03  1.501355E+04  7.003707E-11 -9.622216E-10
       438  14 -9.529018E+05  3.335452E+02 -5.093270E+03 -1.088635E+03 -1.084695E-10  7.510932E-09
       438  15 -9.535115E+05 -1.683435E+03 -9.395308E+03  1.502299E+04 -3.228175E-10  6.393073E-09
       438  16 -8.505487E+05  2.589171E+04  2.203322E+04  1.565488E+04  3.860621E-09  8.368653E-09
       438  17 -8.129609E+05  3.514008E+04  2.885096E+04 -6.414498E+02  8.068749E-09 -6.785047E-10
       438  18 -7.765804E+05  4.230040E+04  3.342764E+04  1.527557E+04  4.438345E-09  1.521675E-08
       438  19 -1.056457E+06 -2.538063E+04 -2.814874E+04  1.437233E+04 -1.548011E+03 -2.411120E+03
       438  20 -1.092825E+06 -3.447440E+04 -3.903886E+04 -1.535728E+03 -4.140094E+03 -3.844644E+03
       438  21 -1.130414E+06 -4.566952E+04 -5.222038E+04  1.477048E+04 -6.732922E+03 -5.194933E+03
       438  22 -9.535076E+05  2.559337E+02 -3.057358E+03  1.501356E+04 -2.179225E+03 -2.414212E+03
       438  23 -9.529017E+05  3.335671E+02 -5.093200E+03 -1.088620E+03 -4.735908E+03 -3.847464E+03
       438  24 -9.535115E+05 -1.683392E+03 -9.395158E+03  1.502302E+04 -7.293490E+03 -5.197491E+03
       438  25 -8.505486E+05  2.589171E+04  2.203325E+04  1.565488E+04 -2.810544E+03 -2.417306E+03
       438  26 -8.129608E+05  3.514010E+04  2.885104E+04 -6.414333E+02 -5.331857E+03 -3.850285E+03
       438  27 -7.765803E+05  4.230044E+04  3.342781E+04  1.527560E+04 -7.854217E+03 -5.200049E+03
       439   1 -1.190959E+06 -5.789528E+04 -6.934491E+04  1.192249E+04  8.402804E+03  6.133243E+03
       439   2 -1.223551E+06 -6.498665E+04 -8.587617E+04 -7.302393E+02  1.897496E+04  7.567628E+03
       439   3 -1.262870E+06 -9.252147E+04 -1.144619E+05  1.795054E+04  2.955079E+04  8.183730E+03
       439   4 -9.547278E+05  9.193790E+02 -1.192400E+04  1.479763E+04  9.179480E+03  6.136737E+03
       439   5 -9.514029E+05  2.706297E+03 -1.986124E+04 -8.323202E+02  1.940265E+04  7.569287E+03
       439   6 -9.547421E+05 -1.588433E+04 -3.960618E+04  1.487054E+04  2.963012E+04  8.183614E+03
       439   7 -7.184460E+05  5.972996E+04  4.549288E+04  1.767382E+04  9.956452E+03  6.140238E+03
       439   8 -6.791873E+05  7.039380E+04  4.614833E+04 -9.345211E+02  1.983054E+04  7.570946E+03
       439   9 -6.465275E+05  6.074587E+04  3.524263E+04  1.178891E+04  2.970949E+04  8.183497E+03
       439  10 -1.190959E+06 -5.789534E+04 -6.934511E+04  1.192245E+04  5.723226E-09 -2.387332E-09
       439  11 -1.223551E+06 -6.498681E+04 -8.587695E+04 -7.303551E+02 -1.901932E-09  6.093454E-09
       439  12 -1.262871E+06 -9.252177E+04 -1.144636E+05  1.795035E+04  7.472826E-10 -6.344092E-09
       439  13 -9.547279E+05  9.193159E+02 -1.192422E+04  1.479759E+04  1.461895E-10 -1.526611E-08
       439  14 -9.514033E+05  2.706134E+03 -1.986206E+04 -8.324385E+02 -1.304532E-09  3.203002E-09
       439  15 -9.547431E+05 -1.588463E+04 -3.960796E+04  1.487035E+04 -3.703539E-10 -2.697201E-09
       439  16 -7.184461E+05  5.972989E+04  4.549262E+04  1.767377E+04 -5.442117E-09 -6.151883E-09
       439  17 -6.791877E+05  7.039363E+04  4.614748E+04 -9.346420E+02  2.683288E-09 -2.267186E-08
       439  18 -6.465285E+05  6.074556E+04  3.524085E+04  1.178872E+04 -1.299467E-09  2.394912E-09
       439  19 -1.190959E+06 -5.789528E+04 -6.934491E+04  1.192249E+04 -8.402804E+03 -6.133243E+03
       439  20 -1.223551E+06 -6.498665E+04 -8.587617E+04 -7.302393E+02 -1.897496E+04 -7.567628E+03
       439  21 -1.262870E+06 -9.252147E+04 -1.144619E+05  1.795054E+04 -2.955079E+04 -8.183730E+03
       439  22 -9.547278E+05  9.193790E+02 -1.192400E+04  1.479763E+04 -9.179480E+03 -6.136737E+03
       439  23 -9.514029E+05  2.706297E+03 -1.986124E+04 -8.323202E+02 -1.940265E+04 -7.569287E+03
       439  24 -9.547421E+05 -1.588433E+04 -3.960618E+04  1.487054E+04 -2.963012E+04 -8.183614E+03
       439  25 -7.184460E+05  5.972996E+04  4.549288E+04  1.767382E+04 -9.956452E+03 -6.140238E+03
       439  26 -6.791873E+05  7.039380E+04  4.614833E+04 -9.345211E+02 -1.983054E+04 -7.570946E+03
       439  27 -6.465275E+05  6.074587E+04  3.524263E+04  1.178891E+04 -2.970949E+04 -8.183497E+03
       440   1 -1.329388E+06 -8.421244E+04 -1.369250E+05 -3.554347E+03  3.471765E+04  1.028822E+04
       440   2 -1.338733E+06 -7.630650E+04 -1.731151E+05  9.162045E+03  7.993998E+04  1.180374E+04
       440   3 -1.398428E+06 -2.459217E+05 -2.831838E+05  5.190903E+04  1.251923E+05  4.348238E+03
       440   4 -9.642893E+05  6.788260E+03 -4.834766E+04  1.436047E+04  3.724138E+04  1.029921E+04
       440   5 -9.394989E+05  2.288527E+04 -7.642768E+04 -3.916843E+02  7.861676E+04  1.179679E+04
       440   6 -9.643600E+05 -1.378112E+05 -1.756782E+05  1.488848E+04  1.200250E+05  4.321866E+03
       440   7 -5.990675E+05  9.778030E+04  4.022023E+04  3.228575E+04  3.976659E+04  1.031035E+04
       440   8 -5.401190E+05  1.220657E+05  2.024835E+04 -9.951727E+03  7.729268E+04  1.178987E+04
       440   9 -5.301177E+05 -2.970961E+04 -6.818587E+04 -2.215818E+04  1.148541E+05  4.296123E+03
       440  10 -1.329390E+06 -8.421288E+04 -1.369275E+05 -3.554635E+03  7.712242E-09 -5.937104E-09
       440  11 -1.338739E+06 -7.630837E+04 -1.731274E+05  9.161284E+03  4.181850E-09  9.335827E-10
       440  12 -1.398444E+06 -2.459259E+05 -2.832133E+05  5.190859E+04  6.430633E-10  1.155955E-08
       440  13 -9.642908E+05  6.787773E+03 -4.835047E+04  1.436016E+04 -8.184128E-10  2.694710E-09
       440  14 -9.395056E+05  2.288345E+04 -7.643957E+04 -3.924316E+02 -4.070560E-10  8.788331E-10
       440  15 -9.643755E+05 -1.378151E+05 -1.757054E+05  1.488806E+04 -9.874444E-10  1.992553E-09
       440  16 -5.990692E+05  9.777976E+04  4.021705E+04  3.228542E+04 -7.809597E-09  7.162478E-09
       440  17 -5.401255E+05  1.220640E+05  2.023686E+04 -9.952461E+03 -3.399683E-09  1.105251E-08
       440  18 -5.301319E+05 -2.971318E+04 -6.821072E+04 -2.215858E+04 -1.770784E-09 -1.709556E-09
       440  19 -1.329388E+06 -8.421244E+04 -1.369250E+05 -3.554347E+03 -3.471765E+04 -1.028822E+04
       440  20 -1.338733E+06 -7.630650E+04 -1.731151E+05  9.162045E+03 -7.993998E+04 -1.180374E+04
       440  21 -1.398428E+06 -2.459217E+05 -2.831838E+05  5.190903E+04 -1.251923E+05 -4.348238E+03
       440  22 -9.642893E+05  6.788260E+03 -4.834766E+04  1.436047E+04 -3.724138E+04 -1.029921E+04
       440  23 -9.394989E+05  2.288527E+04 -7.642768E+04 -3.916843E+02 -7.861676E+04 -1.179679E+04
       440  24 -9.643600E+05 -1.378112E+05 -1.756782E+05  1.488848E+04 -1.200250E+05 -4.321866E+03
       440  25 -5.990675E+05  9.778030E+04  4.022023E+04  3.228575E+04 -3.976659E+04 -1.031035E+04
       440  26 -5.401190E+05  1.220657E+05  2.024835E+04 -9.951727E+03 -7.729268E+04 -1.178987E+04
       440  27 -5.301177E+05 -2.970961E+04 -6.818587E+04 -2.215818E+04 -1.148541E+05 -4.296123E+03
