    1C
    1UUSER                                                              
    1UDATE              11.october.2022                                 
    1UTIME              17:34:41                                        
    1UHOST                                                              
    1UPGM               CalculiX                                        
    1UVERSION           Version 2.20                             
    1UCOMPILETIME       Sun Jul 31 18:08:37 CEST 2022                    
    1UDIR                                                               
    1UDBN                                                               
    1UMAT    1MESH_MATERIAL                                             
    2C                           841                                     1
 -1         1 0.00000E+00 0.00000E+00 0.00000E+00
 -1         2 1.66667E-02 0.00000E+00 0.00000E+00
 -1         3 3.33333E-02 0.00000E+00 0.00000E+00
 -1         4 5.00000E-02 0.00000E+00 0.00000E+00
 -1         5 6.66667E-02 0.00000E+00 0.00000E+00
 -1         8 0.00000E+00 6.25000E-03 0.00000E+00
 -1         9 1.66667E-02 6.25000E-03 0.00000E+00
 -1        10 3.33333E-02 6.25000E-03 0.00000E+00
 -1        11 5.00000E-02 6.25000E-03 0.00000E+00
 -1        12 6.66667E-02 6.25000E-03 0.00000E+00
 -1        15 0.00000E+00 1.25000E-02 0.00000E+00
 -1        16 1.66667E-02 1.25000E-02 0.00000E+00
 -1        17 3.33333E-02 1.25000E-02 0.00000E+00
 -1        18 5.00000E-02 1.25000E-02 0.00000E+00
 -1        19 6.66667E-02 1.25000E-02 0.00000E+00
 -1        20 8.33333E-02 1.25000E-02 0.00000E+00
 -1        21 1.00000E-01 1.25000E-02 0.00000E+00
 -1        22 0.00000E+00 1.87500E-02 0.00000E+00
 -1        23 1.66667E-02 1.87500E-02 0.00000E+00
 -1        24 3.33333E-02 1.87500E-02 0.00000E+00
 -1        25 5.00000E-02 1.87500E-02 0.00000E+00
 -1        26 6.66667E-02 1.87500E-02 0.00000E+00
 -1        27 8.33333E-02 1.87500E-02 0.00000E+00
 -1        28 1.00000E-01 1.87500E-02 0.00000E+00
 -1        29 0.00000E+00 2.50000E-02 0.00000E+00
 -1        30 1.66667E-02 2.50000E-02 0.00000E+00
 -1        31 3.33333E-02 2.50000E-02 0.00000E+00
 -1        32 5.00000E-02 2.50000E-02 0.00000E+00
 -1        33 6.66667E-02 2.50000E-02 0.00000E+00
 -1        34 8.33333E-02 2.50000E-02 0.00000E+00
 -1        35 1.00000E-01 2.50000E-02 0.00000E+00
 -1        36 1.04167E-03 0.00000E+00 0.00000E+00
 -1        37 2.08333E-03 0.00000E+00 0.00000E+00
 -1        38 3.12500E-03 0.00000E+00 0.00000E+00
 -1        39 4.16667E-03 0.00000E+00 0.00000E+00
 -1        40 5.20833E-03 0.00000E+00 0.00000E+00
 -1        41 6.25000E-03 0.00000E+00 0.00000E+00
 -1        42 7.29167E-03 0.00000E+00 0.00000E+00
 -1        43 8.33333E-03 0.00000E+00 0.00000E+00
 -1        44 9.37500E-03 0.00000E+00 0.00000E+00
 -1        45 1.04167E-02 0.00000E+00 0.00000E+00
 -1        46 1.14583E-02 0.00000E+00 0.00000E+00
 -1        47 1.25000E-02 0.00000E+00 0.00000E+00
 -1        48 1.35417E-02 0.00000E+00 0.00000E+00
 -1        49 1.45833E-02 0.00000E+00 0.00000E+00
 -1        50 1.56250E-02 0.00000E+00 0.00000E+00
 -1        51 0.00000E+00 1.04167E-03 0.00000E+00
 -1        52 0.00000E+00 2.08333E-03 0.00000E+00
 -1        53 0.00000E+00 3.12500E-03 0.00000E+00
 -1        54 0.00000E+00 4.16667E-03 0.00000E+00
 -1        55 0.00000E+00 5.20833E-03 0.00000E+00
 -1        56 1.04167E-03 3.90630E-04 0.00000E+00
 -1        57 2.08333E-03 7.81250E-04 0.00000E+00
 -1        58 3.12500E-03 1.17188E-03 0.00000E+00
 -1        59 4.16667E-03 1.56250E-03 0.00000E+00
 -1        60 5.20833E-03 1.95312E-03 0.00000E+00
 -1        61 6.25000E-03 2.34375E-03 0.00000E+00
 -1        62 7.29167E-03 2.73438E-03 0.00000E+00
 -1        63 8.33333E-03 3.12500E-03 0.00000E+00
 -1        64 9.37500E-03 3.51563E-03 0.00000E+00
 -1        65 1.04167E-02 3.90625E-03 0.00000E+00
 -1        66 1.14583E-02 4.29688E-03 0.00000E+00
 -1        67 1.25000E-02 4.68750E-03 0.00000E+00
 -1        68 1.35417E-02 5.07813E-03 0.00000E+00
 -1        69 1.45833E-02 5.46875E-03 0.00000E+00
 -1        70 1.56250E-02 5.85938E-03 0.00000E+00
 -1        71 1.77083E-02 0.00000E+00 0.00000E+00
 -1        72 1.87500E-02 0.00000E+00 0.00000E+00
 -1        73 1.97917E-02 0.00000E+00 0.00000E+00
 -1        74 2.08333E-02 0.00000E+00 0.00000E+00
 -1        75 2.18750E-02 0.00000E+00 0.00000E+00
 -1        76 2.29167E-02 0.00000E+00 0.00000E+00
 -1        77 2.39583E-02 0.00000E+00 0.00000E+00
 -1        78 2.50000E-02 0.00000E+00 0.00000E+00
 -1        79 2.60417E-02 0.00000E+00 0.00000E+00
 -1        80 2.70833E-02 0.00000E+00 0.00000E+00
 -1        81 2.81250E-02 0.00000E+00 0.00000E+00
 -1        82 2.91667E-02 0.00000E+00 0.00000E+00
 -1        83 3.02083E-02 0.00000E+00 0.00000E+00
 -1        84 3.12500E-02 0.00000E+00 0.00000E+00
 -1        85 3.22917E-02 0.00000E+00 0.00000E+00
 -1        86 1.66667E-02 1.04167E-03 0.00000E+00
 -1        87 1.66667E-02 2.08333E-03 0.00000E+00
 -1        88 1.66667E-02 3.12500E-03 0.00000E+00
 -1        89 1.66667E-02 4.16667E-03 0.00000E+00
 -1        90 1.66667E-02 5.20833E-03 0.00000E+00
 -1        91 1.77083E-02 3.90630E-04 0.00000E+00
 -1        92 1.87500E-02 7.81250E-04 0.00000E+00
 -1        93 1.97917E-02 1.17188E-03 0.00000E+00
 -1        94 2.08333E-02 1.56250E-03 0.00000E+00
 -1        95 2.18750E-02 1.95312E-03 0.00000E+00
 -1        96 2.29167E-02 2.34375E-03 0.00000E+00
 -1        97 2.39583E-02 2.73438E-03 0.00000E+00
 -1        98 2.50000E-02 3.12500E-03 0.00000E+00
 -1        99 2.60417E-02 3.51563E-03 0.00000E+00
 -1       100 2.70833E-02 3.90625E-03 0.00000E+00
 -1       101 2.81250E-02 4.29688E-03 0.00000E+00
 -1       102 2.91667E-02 4.68750E-03 0.00000E+00
 -1       103 3.02083E-02 5.07813E-03 0.00000E+00
 -1       104 3.12500E-02 5.46875E-03 0.00000E+00
 -1       105 3.22917E-02 5.85938E-03 0.00000E+00
 -1       106 3.43750E-02 0.00000E+00 0.00000E+00
 -1       107 3.54167E-02 0.00000E+00 0.00000E+00
 -1       108 3.64583E-02 0.00000E+00 0.00000E+00
 -1       109 3.75000E-02 0.00000E+00 0.00000E+00
 -1       110 3.85417E-02 0.00000E+00 0.00000E+00
 -1       111 3.95833E-02 0.00000E+00 0.00000E+00
 -1       112 4.06250E-02 0.00000E+00 0.00000E+00
 -1       113 4.16667E-02 0.00000E+00 0.00000E+00
 -1       114 4.27083E-02 0.00000E+00 0.00000E+00
 -1       115 4.37500E-02 0.00000E+00 0.00000E+00
 -1       116 4.47917E-02 0.00000E+00 0.00000E+00
 -1       117 4.58333E-02 0.00000E+00 0.00000E+00
 -1       118 4.68750E-02 0.00000E+00 0.00000E+00
 -1       119 4.79167E-02 0.00000E+00 0.00000E+00
 -1       120 4.89583E-02 0.00000E+00 0.00000E+00
 -1       121 3.33333E-02 1.04167E-03 0.00000E+00
 -1       122 3.33333E-02 2.08333E-03 0.00000E+00
 -1       123 3.33333E-02 3.12500E-03 0.00000E+00
 -1       124 3.33333E-02 4.16667E-03 0.00000E+00
 -1       125 3.33333E-02 5.20833E-03 0.00000E+00
 -1       126 3.43750E-02 3.90630E-04 0.00000E+00
 -1       127 3.54167E-02 7.81250E-04 0.00000E+00
 -1       128 3.64583E-02 1.17188E-03 0.00000E+00
 -1       129 3.75000E-02 1.56250E-03 0.00000E+00
 -1       130 3.85417E-02 1.95312E-03 0.00000E+00
 -1       131 3.95833E-02 2.34375E-03 0.00000E+00
 -1       132 4.06250E-02 2.73438E-03 0.00000E+00
 -1       133 4.16667E-02 3.12500E-03 0.00000E+00
 -1       134 4.27083E-02 3.51563E-03 0.00000E+00
 -1       135 4.37500E-02 3.90625E-03 0.00000E+00
 -1       136 4.47917E-02 4.29688E-03 0.00000E+00
 -1       137 4.58333E-02 4.68750E-03 0.00000E+00
 -1       138 4.68750E-02 5.07813E-03 0.00000E+00
 -1       139 4.79167E-02 5.46875E-03 0.00000E+00
 -1       140 4.89583E-02 5.85938E-03 0.00000E+00
 -1       141 5.10417E-02 0.00000E+00 0.00000E+00
 -1       142 5.20833E-02 0.00000E+00 0.00000E+00
 -1       143 5.31250E-02 0.00000E+00 0.00000E+00
 -1       144 5.41667E-02 0.00000E+00 0.00000E+00
 -1       145 5.52083E-02 0.00000E+00 0.00000E+00
 -1       146 5.62500E-02 0.00000E+00 0.00000E+00
 -1       147 5.72917E-02 0.00000E+00 0.00000E+00
 -1       148 5.83333E-02 0.00000E+00 0.00000E+00
 -1       149 5.93750E-02 0.00000E+00 0.00000E+00
 -1       150 6.04167E-02 0.00000E+00 0.00000E+00
 -1       151 6.14583E-02 0.00000E+00 0.00000E+00
 -1       152 6.25000E-02 0.00000E+00 0.00000E+00
 -1       153 6.35417E-02 0.00000E+00 0.00000E+00
 -1       154 6.45833E-02 0.00000E+00 0.00000E+00
 -1       155 6.56250E-02 0.00000E+00 0.00000E+00
 -1       156 5.00000E-02 1.04167E-03 0.00000E+00
 -1       157 5.00000E-02 2.08333E-03 0.00000E+00
 -1       158 5.00000E-02 3.12500E-03 0.00000E+00
 -1       159 5.00000E-02 4.16667E-03 0.00000E+00
 -1       160 5.00000E-02 5.20833E-03 0.00000E+00
 -1       161 5.10417E-02 3.90630E-04 0.00000E+00
 -1       162 5.20833E-02 7.81250E-04 0.00000E+00
 -1       163 5.31250E-02 1.17188E-03 0.00000E+00
 -1       164 5.41667E-02 1.56250E-03 0.00000E+00
 -1       165 5.52083E-02 1.95312E-03 0.00000E+00
 -1       166 5.62500E-02 2.34375E-03 0.00000E+00
 -1       167 5.72917E-02 2.73438E-03 0.00000E+00
 -1       168 5.83333E-02 3.12500E-03 0.00000E+00
 -1       169 5.93750E-02 3.51563E-03 0.00000E+00
 -1       170 6.04167E-02 3.90625E-03 0.00000E+00
 -1       171 6.14583E-02 4.29688E-03 0.00000E+00
 -1       172 6.25000E-02 4.68750E-03 0.00000E+00
 -1       173 6.35417E-02 5.07813E-03 0.00000E+00
 -1       174 6.45833E-02 5.46875E-03 0.00000E+00
 -1       175 6.56250E-02 5.85938E-03 0.00000E+00
 -1       191 6.66667E-02 1.04167E-03 0.00000E+00
 -1       192 6.66667E-02 2.08333E-03 0.00000E+00
 -1       193 6.66667E-02 3.12500E-03 0.00000E+00
 -1       194 6.66667E-02 4.16667E-03 0.00000E+00
 -1       195 6.66667E-02 5.20833E-03 0.00000E+00
 -1       251 1.04167E-03 6.25000E-03 0.00000E+00
 -1       252 2.08333E-03 6.25000E-03 0.00000E+00
 -1       253 3.12500E-03 6.25000E-03 0.00000E+00
 -1       254 4.16667E-03 6.25000E-03 0.00000E+00
 -1       255 5.20833E-03 6.25000E-03 0.00000E+00
 -1       256 6.25000E-03 6.25000E-03 0.00000E+00
 -1       257 7.29167E-03 6.25000E-03 0.00000E+00
 -1       258 8.33333E-03 6.25000E-03 0.00000E+00
 -1       259 9.37500E-03 6.25000E-03 0.00000E+00
 -1       260 1.04167E-02 6.25000E-03 0.00000E+00
 -1       261 1.14583E-02 6.25000E-03 0.00000E+00
 -1       262 1.25000E-02 6.25000E-03 0.00000E+00
 -1       263 1.35417E-02 6.25000E-03 0.00000E+00
 -1       264 1.45833E-02 6.25000E-03 0.00000E+00
 -1       265 1.56250E-02 6.25000E-03 0.00000E+00
 -1       266 0.00000E+00 7.29167E-03 0.00000E+00
 -1       267 0.00000E+00 8.33333E-03 0.00000E+00
 -1       268 0.00000E+00 9.37500E-03 0.00000E+00
 -1       269 0.00000E+00 1.04167E-02 0.00000E+00
 -1       270 0.00000E+00 1.14583E-02 0.00000E+00
 -1       271 1.04167E-03 6.64063E-03 0.00000E+00
 -1       272 2.08333E-03 7.03125E-03 0.00000E+00
 -1       273 3.12500E-03 7.42188E-03 0.00000E+00
 -1       274 4.16667E-03 7.81250E-03 0.00000E+00
 -1       275 5.20833E-03 8.20313E-03 0.00000E+00
 -1       276 6.25000E-03 8.59375E-03 0.00000E+00
 -1       277 7.29167E-03 8.98438E-03 0.00000E+00
 -1       278 8.33333E-03 9.37500E-03 0.00000E+00
 -1       279 9.37500E-03 9.76562E-03 0.00000E+00
 -1       280 1.04167E-02 1.01562E-02 0.00000E+00
 -1       281 1.14583E-02 1.05469E-02 0.00000E+00
 -1       282 1.25000E-02 1.09375E-02 0.00000E+00
 -1       283 1.35417E-02 1.13281E-02 0.00000E+00
 -1       284 1.45833E-02 1.17188E-02 0.00000E+00
 -1       285 1.56250E-02 1.21094E-02 0.00000E+00
 -1       286 1.77083E-02 6.25000E-03 0.00000E+00
 -1       287 1.87500E-02 6.25000E-03 0.00000E+00
 -1       288 1.97917E-02 6.25000E-03 0.00000E+00
 -1       289 2.08333E-02 6.25000E-03 0.00000E+00
 -1       290 2.18750E-02 6.25000E-03 0.00000E+00
 -1       291 2.29167E-02 6.25000E-03 0.00000E+00
 -1       292 2.39583E-02 6.25000E-03 0.00000E+00
 -1       293 2.50000E-02 6.25000E-03 0.00000E+00
 -1       294 2.60417E-02 6.25000E-03 0.00000E+00
 -1       295 2.70833E-02 6.25000E-03 0.00000E+00
 -1       296 2.81250E-02 6.25000E-03 0.00000E+00
 -1       297 2.91667E-02 6.25000E-03 0.00000E+00
 -1       298 3.02083E-02 6.25000E-03 0.00000E+00
 -1       299 3.12500E-02 6.25000E-03 0.00000E+00
 -1       300 3.22917E-02 6.25000E-03 0.00000E+00
 -1       301 1.66667E-02 7.29167E-03 0.00000E+00
 -1       302 1.66667E-02 8.33333E-03 0.00000E+00
 -1       303 1.66667E-02 9.37500E-03 0.00000E+00
 -1       304 1.66667E-02 1.04167E-02 0.00000E+00
 -1       305 1.66667E-02 1.14583E-02 0.00000E+00
 -1       306 1.77083E-02 6.64063E-03 0.00000E+00
 -1       307 1.87500E-02 7.03125E-03 0.00000E+00
 -1       308 1.97917E-02 7.42188E-03 0.00000E+00
 -1       309 2.08333E-02 7.81250E-03 0.00000E+00
 -1       310 2.18750E-02 8.20313E-03 0.00000E+00
 -1       311 2.29167E-02 8.59375E-03 0.00000E+00
 -1       312 2.39583E-02 8.98438E-03 0.00000E+00
 -1       313 2.50000E-02 9.37500E-03 0.00000E+00
 -1       314 2.60417E-02 9.76562E-03 0.00000E+00
 -1       315 2.70833E-02 1.01562E-02 0.00000E+00
 -1       316 2.81250E-02 1.05469E-02 0.00000E+00
 -1       317 2.91667E-02 1.09375E-02 0.00000E+00
 -1       318 3.02083E-02 1.13281E-02 0.00000E+00
 -1       319 3.12500E-02 1.17188E-02 0.00000E+00
 -1       320 3.22917E-02 1.21094E-02 0.00000E+00
 -1       321 3.43750E-02 6.25000E-03 0.00000E+00
 -1       322 3.54167E-02 6.25000E-03 0.00000E+00
 -1       323 3.64583E-02 6.25000E-03 0.00000E+00
 -1       324 3.75000E-02 6.25000E-03 0.00000E+00
 -1       325 3.85417E-02 6.25000E-03 0.00000E+00
 -1       326 3.95833E-02 6.25000E-03 0.00000E+00
 -1       327 4.06250E-02 6.25000E-03 0.00000E+00
 -1       328 4.16667E-02 6.25000E-03 0.00000E+00
 -1       329 4.27083E-02 6.25000E-03 0.00000E+00
 -1       330 4.37500E-02 6.25000E-03 0.00000E+00
 -1       331 4.47917E-02 6.25000E-03 0.00000E+00
 -1       332 4.58333E-02 6.25000E-03 0.00000E+00
 -1       333 4.68750E-02 6.25000E-03 0.00000E+00
 -1       334 4.79167E-02 6.25000E-03 0.00000E+00
 -1       335 4.89583E-02 6.25000E-03 0.00000E+00
 -1       336 3.33333E-02 7.29167E-03 0.00000E+00
 -1       337 3.33333E-02 8.33333E-03 0.00000E+00
 -1       338 3.33333E-02 9.37500E-03 0.00000E+00
 -1       339 3.33333E-02 1.04167E-02 0.00000E+00
 -1       340 3.33333E-02 1.14583E-02 0.00000E+00
 -1       341 3.43750E-02 6.64063E-03 0.00000E+00
 -1       342 3.54167E-02 7.03125E-03 0.00000E+00
 -1       343 3.64583E-02 7.42188E-03 0.00000E+00
 -1       344 3.75000E-02 7.81250E-03 0.00000E+00
 -1       345 3.85417E-02 8.20313E-03 0.00000E+00
 -1       346 3.95833E-02 8.59375E-03 0.00000E+00
 -1       347 4.06250E-02 8.98438E-03 0.00000E+00
 -1       348 4.16667E-02 9.37500E-03 0.00000E+00
 -1       349 4.27083E-02 9.76562E-03 0.00000E+00
 -1       350 4.37500E-02 1.01562E-02 0.00000E+00
 -1       351 4.47917E-02 1.05469E-02 0.00000E+00
 -1       352 4.58333E-02 1.09375E-02 0.00000E+00
 -1       353 4.68750E-02 1.13281E-02 0.00000E+00
 -1       354 4.79167E-02 1.17188E-02 0.00000E+00
 -1       355 4.89583E-02 1.21094E-02 0.00000E+00
 -1       356 5.10417E-02 6.25000E-03 0.00000E+00
 -1       357 5.20833E-02 6.25000E-03 0.00000E+00
 -1       358 5.31250E-02 6.25000E-03 0.00000E+00
 -1       359 5.41667E-02 6.25000E-03 0.00000E+00
 -1       360 5.52083E-02 6.25000E-03 0.00000E+00
 -1       361 5.62500E-02 6.25000E-03 0.00000E+00
 -1       362 5.72917E-02 6.25000E-03 0.00000E+00
 -1       363 5.83333E-02 6.25000E-03 0.00000E+00
 -1       364 5.93750E-02 6.25000E-03 0.00000E+00
 -1       365 6.04167E-02 6.25000E-03 0.00000E+00
 -1       366 6.14583E-02 6.25000E-03 0.00000E+00
 -1       367 6.25000E-02 6.25000E-03 0.00000E+00
 -1       368 6.35417E-02 6.25000E-03 0.00000E+00
 -1       369 6.45833E-02 6.25000E-03 0.00000E+00
 -1       370 6.56250E-02 6.25000E-03 0.00000E+00
 -1       371 5.00000E-02 7.29167E-03 0.00000E+00
 -1       372 5.00000E-02 8.33333E-03 0.00000E+00
 -1       373 5.00000E-02 9.37500E-03 0.00000E+00
 -1       374 5.00000E-02 1.04167E-02 0.00000E+00
 -1       375 5.00000E-02 1.14583E-02 0.00000E+00
 -1       376 5.10417E-02 6.64063E-03 0.00000E+00
 -1       377 5.20833E-02 7.03125E-03 0.00000E+00
 -1       378 5.31250E-02 7.42188E-03 0.00000E+00
 -1       379 5.41667E-02 7.81250E-03 0.00000E+00
 -1       380 5.52083E-02 8.20313E-03 0.00000E+00
 -1       381 5.62500E-02 8.59375E-03 0.00000E+00
 -1       382 5.72917E-02 8.98438E-03 0.00000E+00
 -1       383 5.83333E-02 9.37500E-03 0.00000E+00
 -1       384 5.93750E-02 9.76562E-03 0.00000E+00
 -1       385 6.04167E-02 1.01562E-02 0.00000E+00
 -1       386 6.14583E-02 1.05469E-02 0.00000E+00
 -1       387 6.25000E-02 1.09375E-02 0.00000E+00
 -1       388 6.35417E-02 1.13281E-02 0.00000E+00
 -1       389 6.45833E-02 1.17188E-02 0.00000E+00
 -1       390 6.56250E-02 1.21094E-02 0.00000E+00
 -1       406 6.66667E-02 7.29167E-03 0.00000E+00
 -1       407 6.66667E-02 8.33333E-03 0.00000E+00
 -1       408 6.66667E-02 9.37500E-03 0.00000E+00
 -1       409 6.66667E-02 1.04167E-02 0.00000E+00
 -1       410 6.66667E-02 1.14583E-02 0.00000E+00
 -1       466 1.04167E-03 1.25000E-02 0.00000E+00
 -1       467 2.08333E-03 1.25000E-02 0.00000E+00
 -1       468 3.12500E-03 1.25000E-02 0.00000E+00
 -1       469 4.16667E-03 1.25000E-02 0.00000E+00
 -1       470 5.20833E-03 1.25000E-02 0.00000E+00
 -1       471 6.25000E-03 1.25000E-02 0.00000E+00
 -1       472 7.29167E-03 1.25000E-02 0.00000E+00
 -1       473 8.33333E-03 1.25000E-02 0.00000E+00
 -1       474 9.37500E-03 1.25000E-02 0.00000E+00
 -1       475 1.04167E-02 1.25000E-02 0.00000E+00
 -1       476 1.14583E-02 1.25000E-02 0.00000E+00
 -1       477 1.25000E-02 1.25000E-02 0.00000E+00
 -1       478 1.35417E-02 1.25000E-02 0.00000E+00
 -1       479 1.45833E-02 1.25000E-02 0.00000E+00
 -1       480 1.56250E-02 1.25000E-02 0.00000E+00
 -1       481 0.00000E+00 1.35417E-02 0.00000E+00
 -1       482 0.00000E+00 1.45833E-02 0.00000E+00
 -1       483 0.00000E+00 1.56250E-02 0.00000E+00
 -1       484 0.00000E+00 1.66667E-02 0.00000E+00
 -1       485 0.00000E+00 1.77083E-02 0.00000E+00
 -1       486 1.04167E-03 1.28906E-02 0.00000E+00
 -1       487 2.08333E-03 1.32813E-02 0.00000E+00
 -1       488 3.12500E-03 1.36719E-02 0.00000E+00
 -1       489 4.16667E-03 1.40625E-02 0.00000E+00
 -1       490 5.20833E-03 1.44531E-02 0.00000E+00
 -1       491 6.25000E-03 1.48437E-02 0.00000E+00
 -1       492 7.29167E-03 1.52344E-02 0.00000E+00
 -1       493 8.33333E-03 1.56250E-02 0.00000E+00
 -1       494 9.37500E-03 1.60156E-02 0.00000E+00
 -1       495 1.04167E-02 1.64062E-02 0.00000E+00
 -1       496 1.14583E-02 1.67969E-02 0.00000E+00
 -1       497 1.25000E-02 1.71875E-02 0.00000E+00
 -1       498 1.35417E-02 1.75781E-02 0.00000E+00
 -1       499 1.45833E-02 1.79687E-02 0.00000E+00
 -1       500 1.56250E-02 1.83594E-02 0.00000E+00
 -1       501 1.77083E-02 1.25000E-02 0.00000E+00
 -1       502 1.87500E-02 1.25000E-02 0.00000E+00
 -1       503 1.97917E-02 1.25000E-02 0.00000E+00
 -1       504 2.08333E-02 1.25000E-02 0.00000E+00
 -1       505 2.18750E-02 1.25000E-02 0.00000E+00
 -1       506 2.29167E-02 1.25000E-02 0.00000E+00
 -1       507 2.39583E-02 1.25000E-02 0.00000E+00
 -1       508 2.50000E-02 1.25000E-02 0.00000E+00
 -1       509 2.60417E-02 1.25000E-02 0.00000E+00
 -1       510 2.70833E-02 1.25000E-02 0.00000E+00
 -1       511 2.81250E-02 1.25000E-02 0.00000E+00
 -1       512 2.91667E-02 1.25000E-02 0.00000E+00
 -1       513 3.02083E-02 1.25000E-02 0.00000E+00
 -1       514 3.12500E-02 1.25000E-02 0.00000E+00
 -1       515 3.22917E-02 1.25000E-02 0.00000E+00
 -1       516 1.66667E-02 1.35417E-02 0.00000E+00
 -1       517 1.66667E-02 1.45833E-02 0.00000E+00
 -1       518 1.66667E-02 1.56250E-02 0.00000E+00
 -1       519 1.66667E-02 1.66667E-02 0.00000E+00
 -1       520 1.66667E-02 1.77083E-02 0.00000E+00
 -1       521 1.77083E-02 1.28906E-02 0.00000E+00
 -1       522 1.87500E-02 1.32813E-02 0.00000E+00
 -1       523 1.97917E-02 1.36719E-02 0.00000E+00
 -1       524 2.08333E-02 1.40625E-02 0.00000E+00
 -1       525 2.18750E-02 1.44531E-02 0.00000E+00
 -1       526 2.29167E-02 1.48437E-02 0.00000E+00
 -1       527 2.39583E-02 1.52344E-02 0.00000E+00
 -1       528 2.50000E-02 1.56250E-02 0.00000E+00
 -1       529 2.60417E-02 1.60156E-02 0.00000E+00
 -1       530 2.70833E-02 1.64062E-02 0.00000E+00
 -1       531 2.81250E-02 1.67969E-02 0.00000E+00
 -1       532 2.91667E-02 1.71875E-02 0.00000E+00
 -1       533 3.02083E-02 1.75781E-02 0.00000E+00
 -1       534 3.12500E-02 1.79687E-02 0.00000E+00
 -1       535 3.22917E-02 1.83594E-02 0.00000E+00
 -1       536 3.43750E-02 1.25000E-02 0.00000E+00
 -1       537 3.54167E-02 1.25000E-02 0.00000E+00
 -1       538 3.64583E-02 1.25000E-02 0.00000E+00
 -1       539 3.75000E-02 1.25000E-02 0.00000E+00
 -1       540 3.85417E-02 1.25000E-02 0.00000E+00
 -1       541 3.95833E-02 1.25000E-02 0.00000E+00
 -1       542 4.06250E-02 1.25000E-02 0.00000E+00
 -1       543 4.16667E-02 1.25000E-02 0.00000E+00
 -1       544 4.27083E-02 1.25000E-02 0.00000E+00
 -1       545 4.37500E-02 1.25000E-02 0.00000E+00
 -1       546 4.47917E-02 1.25000E-02 0.00000E+00
 -1       547 4.58333E-02 1.25000E-02 0.00000E+00
 -1       548 4.68750E-02 1.25000E-02 0.00000E+00
 -1       549 4.79167E-02 1.25000E-02 0.00000E+00
 -1       550 4.89583E-02 1.25000E-02 0.00000E+00
 -1       551 3.33333E-02 1.35417E-02 0.00000E+00
 -1       552 3.33333E-02 1.45833E-02 0.00000E+00
 -1       553 3.33333E-02 1.56250E-02 0.00000E+00
 -1       554 3.33333E-02 1.66667E-02 0.00000E+00
 -1       555 3.33333E-02 1.77083E-02 0.00000E+00
 -1       556 3.43750E-02 1.28906E-02 0.00000E+00
 -1       557 3.54167E-02 1.32813E-02 0.00000E+00
 -1       558 3.64583E-02 1.36719E-02 0.00000E+00
 -1       559 3.75000E-02 1.40625E-02 0.00000E+00
 -1       560 3.85417E-02 1.44531E-02 0.00000E+00
 -1       561 3.95833E-02 1.48437E-02 0.00000E+00
 -1       562 4.06250E-02 1.52344E-02 0.00000E+00
 -1       563 4.16667E-02 1.56250E-02 0.00000E+00
 -1       564 4.27083E-02 1.60156E-02 0.00000E+00
 -1       565 4.37500E-02 1.64062E-02 0.00000E+00
 -1       566 4.47917E-02 1.67969E-02 0.00000E+00
 -1       567 4.58333E-02 1.71875E-02 0.00000E+00
 -1       568 4.68750E-02 1.75781E-02 0.00000E+00
 -1       569 4.79167E-02 1.79687E-02 0.00000E+00
 -1       570 4.89583E-02 1.83594E-02 0.00000E+00
 -1       571 5.10417E-02 1.25000E-02 0.00000E+00
 -1       572 5.20833E-02 1.25000E-02 0.00000E+00
 -1       573 5.31250E-02 1.25000E-02 0.00000E+00
 -1       574 5.41667E-02 1.25000E-02 0.00000E+00
 -1       575 5.52083E-02 1.25000E-02 0.00000E+00
 -1       576 5.62500E-02 1.25000E-02 0.00000E+00
 -1       577 5.72917E-02 1.25000E-02 0.00000E+00
 -1       578 5.83333E-02 1.25000E-02 0.00000E+00
 -1       579 5.93750E-02 1.25000E-02 0.00000E+00
 -1       580 6.04167E-02 1.25000E-02 0.00000E+00
 -1       581 6.14583E-02 1.25000E-02 0.00000E+00
 -1       582 6.25000E-02 1.25000E-02 0.00000E+00
 -1       583 6.35417E-02 1.25000E-02 0.00000E+00
 -1       584 6.45833E-02 1.25000E-02 0.00000E+00
 -1       585 6.56250E-02 1.25000E-02 0.00000E+00
 -1       586 5.00000E-02 1.35417E-02 0.00000E+00
 -1       587 5.00000E-02 1.45833E-02 0.00000E+00
 -1       588 5.00000E-02 1.56250E-02 0.00000E+00
 -1       589 5.00000E-02 1.66667E-02 0.00000E+00
 -1       590 5.00000E-02 1.77083E-02 0.00000E+00
 -1       591 5.10417E-02 1.28906E-02 0.00000E+00
 -1       592 5.20833E-02 1.32813E-02 0.00000E+00
 -1       593 5.31250E-02 1.36719E-02 0.00000E+00
 -1       594 5.41667E-02 1.40625E-02 0.00000E+00
 -1       595 5.52083E-02 1.44531E-02 0.00000E+00
 -1       596 5.62500E-02 1.48437E-02 0.00000E+00
 -1       597 5.72917E-02 1.52344E-02 0.00000E+00
 -1       598 5.83333E-02 1.56250E-02 0.00000E+00
 -1       599 5.93750E-02 1.60156E-02 0.00000E+00
 -1       600 6.04167E-02 1.64062E-02 0.00000E+00
 -1       601 6.14583E-02 1.67969E-02 0.00000E+00
 -1       602 6.25000E-02 1.71875E-02 0.00000E+00
 -1       603 6.35417E-02 1.75781E-02 0.00000E+00
 -1       604 6.45833E-02 1.79687E-02 0.00000E+00
 -1       605 6.56250E-02 1.83594E-02 0.00000E+00
 -1       606 6.77083E-02 1.25000E-02 0.00000E+00
 -1       607 6.87500E-02 1.25000E-02 0.00000E+00
 -1       608 6.97917E-02 1.25000E-02 0.00000E+00
 -1       609 7.08333E-02 1.25000E-02 0.00000E+00
 -1       610 7.18750E-02 1.25000E-02 0.00000E+00
 -1       611 7.29167E-02 1.25000E-02 0.00000E+00
 -1       612 7.39583E-02 1.25000E-02 0.00000E+00
 -1       613 7.50000E-02 1.25000E-02 0.00000E+00
 -1       614 7.60417E-02 1.25000E-02 0.00000E+00
 -1       615 7.70833E-02 1.25000E-02 0.00000E+00
 -1       616 7.81250E-02 1.25000E-02 0.00000E+00
 -1       617 7.91667E-02 1.25000E-02 0.00000E+00
 -1       618 8.02083E-02 1.25000E-02 0.00000E+00
 -1       619 8.12500E-02 1.25000E-02 0.00000E+00
 -1       620 8.22917E-02 1.25000E-02 0.00000E+00
 -1       621 6.66667E-02 1.35417E-02 0.00000E+00
 -1       622 6.66667E-02 1.45833E-02 0.00000E+00
 -1       623 6.66667E-02 1.56250E-02 0.00000E+00
 -1       624 6.66667E-02 1.66667E-02 0.00000E+00
 -1       625 6.66667E-02 1.77083E-02 0.00000E+00
 -1       626 6.77083E-02 1.28906E-02 0.00000E+00
 -1       627 6.87500E-02 1.32813E-02 0.00000E+00
 -1       628 6.97917E-02 1.36719E-02 0.00000E+00
 -1       629 7.08333E-02 1.40625E-02 0.00000E+00
 -1       630 7.18750E-02 1.44531E-02 0.00000E+00
 -1       631 7.29167E-02 1.48437E-02 0.00000E+00
 -1       632 7.39583E-02 1.52344E-02 0.00000E+00
 -1       633 7.50000E-02 1.56250E-02 0.00000E+00
 -1       634 7.60417E-02 1.60156E-02 0.00000E+00
 -1       635 7.70833E-02 1.64062E-02 0.00000E+00
 -1       636 7.81250E-02 1.67969E-02 0.00000E+00
 -1       637 7.91667E-02 1.71875E-02 0.00000E+00
 -1       638 8.02083E-02 1.75781E-02 0.00000E+00
 -1       639 8.12500E-02 1.79687E-02 0.00000E+00
 -1       640 8.22917E-02 1.83594E-02 0.00000E+00
 -1       641 8.43750E-02 1.25000E-02 0.00000E+00
 -1       642 8.54167E-02 1.25000E-02 0.00000E+00
 -1       643 8.64583E-02 1.25000E-02 0.00000E+00
 -1       644 8.75000E-02 1.25000E-02 0.00000E+00
 -1       645 8.85417E-02 1.25000E-02 0.00000E+00
 -1       646 8.95833E-02 1.25000E-02 0.00000E+00
 -1       647 9.06250E-02 1.25000E-02 0.00000E+00
 -1       648 9.16667E-02 1.25000E-02 0.00000E+00
 -1       649 9.27083E-02 1.25000E-02 0.00000E+00
 -1       650 9.37500E-02 1.25000E-02 0.00000E+00
 -1       651 9.47917E-02 1.25000E-02 0.00000E+00
 -1       652 9.58333E-02 1.25000E-02 0.00000E+00
 -1       653 9.68750E-02 1.25000E-02 0.00000E+00
 -1       654 9.79167E-02 1.25000E-02 0.00000E+00
 -1       655 9.89583E-02 1.25000E-02 0.00000E+00
 -1       656 8.33333E-02 1.35417E-02 0.00000E+00
 -1       657 8.33333E-02 1.45833E-02 0.00000E+00
 -1       658 8.33333E-02 1.56250E-02 0.00000E+00
 -1       659 8.33333E-02 1.66667E-02 0.00000E+00
 -1       660 8.33333E-02 1.77083E-02 0.00000E+00
 -1       661 8.43750E-02 1.28906E-02 0.00000E+00
 -1       662 8.54167E-02 1.32813E-02 0.00000E+00
 -1       663 8.64583E-02 1.36719E-02 0.00000E+00
 -1       664 8.75000E-02 1.40625E-02 0.00000E+00
 -1       665 8.85417E-02 1.44531E-02 0.00000E+00
 -1       666 8.95833E-02 1.48437E-02 0.00000E+00
 -1       667 9.06250E-02 1.52344E-02 0.00000E+00
 -1       668 9.16667E-02 1.56250E-02 0.00000E+00
 -1       669 9.27083E-02 1.60156E-02 0.00000E+00
 -1       670 9.37500E-02 1.64062E-02 0.00000E+00
 -1       671 9.47917E-02 1.67969E-02 0.00000E+00
 -1       672 9.58333E-02 1.71875E-02 0.00000E+00
 -1       673 9.68750E-02 1.75781E-02 0.00000E+00
 -1       674 9.79167E-02 1.79687E-02 0.00000E+00
 -1       675 9.89583E-02 1.83594E-02 0.00000E+00
 -1       676 1.00000E-01 1.35417E-02 0.00000E+00
 -1       677 1.00000E-01 1.45833E-02 0.00000E+00
 -1       678 1.00000E-01 1.56250E-02 0.00000E+00
 -1       679 1.00000E-01 1.66667E-02 0.00000E+00
 -1       680 1.00000E-01 1.77083E-02 0.00000E+00
 -1       681 1.04167E-03 1.87500E-02 0.00000E+00
 -1       682 2.08333E-03 1.87500E-02 0.00000E+00
 -1       683 3.12500E-03 1.87500E-02 0.00000E+00
 -1       684 4.16667E-03 1.87500E-02 0.00000E+00
 -1       685 5.20833E-03 1.87500E-02 0.00000E+00
 -1       686 6.25000E-03 1.87500E-02 0.00000E+00
 -1       687 7.29167E-03 1.87500E-02 0.00000E+00
 -1       688 8.33333E-03 1.87500E-02 0.00000E+00
 -1       689 9.37500E-03 1.87500E-02 0.00000E+00
 -1       690 1.04167E-02 1.87500E-02 0.00000E+00
 -1       691 1.14583E-02 1.87500E-02 0.00000E+00
 -1       692 1.25000E-02 1.87500E-02 0.00000E+00
 -1       693 1.35417E-02 1.87500E-02 0.00000E+00
 -1       694 1.45833E-02 1.87500E-02 0.00000E+00
 -1       695 1.56250E-02 1.87500E-02 0.00000E+00
 -1       696 0.00000E+00 1.97917E-02 0.00000E+00
 -1       697 0.00000E+00 2.08333E-02 0.00000E+00
 -1       698 0.00000E+00 2.18750E-02 0.00000E+00
 -1       699 0.00000E+00 2.29167E-02 0.00000E+00
 -1       700 0.00000E+00 2.39583E-02 0.00000E+00
 -1       701 1.04167E-03 1.91406E-02 0.00000E+00
 -1       702 2.08333E-03 1.95312E-02 0.00000E+00
 -1       703 3.12500E-03 1.99219E-02 0.00000E+00
 -1       704 4.16667E-03 2.03125E-02 0.00000E+00
 -1       705 5.20833E-03 2.07031E-02 0.00000E+00
 -1       706 6.25000E-03 2.10938E-02 0.00000E+00
 -1       707 7.29167E-03 2.14844E-02 0.00000E+00
 -1       708 8.33333E-03 2.18750E-02 0.00000E+00
 -1       709 9.37500E-03 2.22656E-02 0.00000E+00
 -1       710 1.04167E-02 2.26563E-02 0.00000E+00
 -1       711 1.14583E-02 2.30469E-02 0.00000E+00
 -1       712 1.25000E-02 2.34375E-02 0.00000E+00
 -1       713 1.35417E-02 2.38281E-02 0.00000E+00
 -1       714 1.45833E-02 2.42187E-02 0.00000E+00
 -1       715 1.56250E-02 2.46094E-02 0.00000E+00
 -1       716 1.77083E-02 1.87500E-02 0.00000E+00
 -1       717 1.87500E-02 1.87500E-02 0.00000E+00
 -1       718 1.97917E-02 1.87500E-02 0.00000E+00
 -1       719 2.08333E-02 1.87500E-02 0.00000E+00
 -1       720 2.18750E-02 1.87500E-02 0.00000E+00
 -1       721 2.29167E-02 1.87500E-02 0.00000E+00
 -1       722 2.39583E-02 1.87500E-02 0.00000E+00
 -1       723 2.50000E-02 1.87500E-02 0.00000E+00
 -1       724 2.60417E-02 1.87500E-02 0.00000E+00
 -1       725 2.70833E-02 1.87500E-02 0.00000E+00
 -1       726 2.81250E-02 1.87500E-02 0.00000E+00
 -1       727 2.91667E-02 1.87500E-02 0.00000E+00
 -1       728 3.02083E-02 1.87500E-02 0.00000E+00
 -1       729 3.12500E-02 1.87500E-02 0.00000E+00
 -1       730 3.22917E-02 1.87500E-02 0.00000E+00
 -1       731 1.66667E-02 1.97917E-02 0.00000E+00
 -1       732 1.66667E-02 2.08333E-02 0.00000E+00
 -1       733 1.66667E-02 2.18750E-02 0.00000E+00
 -1       734 1.66667E-02 2.29167E-02 0.00000E+00
 -1       735 1.66667E-02 2.39583E-02 0.00000E+00
 -1       736 1.77083E-02 1.91406E-02 0.00000E+00
 -1       737 1.87500E-02 1.95312E-02 0.00000E+00
 -1       738 1.97917E-02 1.99219E-02 0.00000E+00
 -1       739 2.08333E-02 2.03125E-02 0.00000E+00
 -1       740 2.18750E-02 2.07031E-02 0.00000E+00
 -1       741 2.29167E-02 2.10938E-02 0.00000E+00
 -1       742 2.39583E-02 2.14844E-02 0.00000E+00
 -1       743 2.50000E-02 2.18750E-02 0.00000E+00
 -1       744 2.60417E-02 2.22656E-02 0.00000E+00
 -1       745 2.70833E-02 2.26563E-02 0.00000E+00
 -1       746 2.81250E-02 2.30469E-02 0.00000E+00
 -1       747 2.91667E-02 2.34375E-02 0.00000E+00
 -1       748 3.02083E-02 2.38281E-02 0.00000E+00
 -1       749 3.12500E-02 2.42187E-02 0.00000E+00
 -1       750 3.22917E-02 2.46094E-02 0.00000E+00
 -1       751 3.43750E-02 1.87500E-02 0.00000E+00
 -1       752 3.54167E-02 1.87500E-02 0.00000E+00
 -1       753 3.64583E-02 1.87500E-02 0.00000E+00
 -1       754 3.75000E-02 1.87500E-02 0.00000E+00
 -1       755 3.85417E-02 1.87500E-02 0.00000E+00
 -1       756 3.95833E-02 1.87500E-02 0.00000E+00
 -1       757 4.06250E-02 1.87500E-02 0.00000E+00
 -1       758 4.16667E-02 1.87500E-02 0.00000E+00
 -1       759 4.27083E-02 1.87500E-02 0.00000E+00
 -1       760 4.37500E-02 1.87500E-02 0.00000E+00
 -1       761 4.47917E-02 1.87500E-02 0.00000E+00
 -1       762 4.58333E-02 1.87500E-02 0.00000E+00
 -1       763 4.68750E-02 1.87500E-02 0.00000E+00
 -1       764 4.79167E-02 1.87500E-02 0.00000E+00
 -1       765 4.89583E-02 1.87500E-02 0.00000E+00
 -1       766 3.33333E-02 1.97917E-02 0.00000E+00
 -1       767 3.33333E-02 2.08333E-02 0.00000E+00
 -1       768 3.33333E-02 2.18750E-02 0.00000E+00
 -1       769 3.33333E-02 2.29167E-02 0.00000E+00
 -1       770 3.33333E-02 2.39583E-02 0.00000E+00
 -1       771 3.43750E-02 1.91406E-02 0.00000E+00
 -1       772 3.54167E-02 1.95312E-02 0.00000E+00
 -1       773 3.64583E-02 1.99219E-02 0.00000E+00
 -1       774 3.75000E-02 2.03125E-02 0.00000E+00
 -1       775 3.85417E-02 2.07031E-02 0.00000E+00
 -1       776 3.95833E-02 2.10938E-02 0.00000E+00
 -1       777 4.06250E-02 2.14844E-02 0.00000E+00
 -1       778 4.16667E-02 2.18750E-02 0.00000E+00
 -1       779 4.27083E-02 2.22656E-02 0.00000E+00
 -1       780 4.37500E-02 2.26563E-02 0.00000E+00
 -1       781 4.47917E-02 2.30469E-02 0.00000E+00
 -1       782 4.58333E-02 2.34375E-02 0.00000E+00
 -1       783 4.68750E-02 2.38281E-02 0.00000E+00
 -1       784 4.79167E-02 2.42187E-02 0.00000E+00
 -1       785 4.89583E-02 2.46094E-02 0.00000E+00
 -1       786 5.10417E-02 1.87500E-02 0.00000E+00
 -1       787 5.20833E-02 1.87500E-02 0.00000E+00
 -1       788 5.31250E-02 1.87500E-02 0.00000E+00
 -1       789 5.41667E-02 1.87500E-02 0.00000E+00
 -1       790 5.52083E-02 1.87500E-02 0.00000E+00
 -1       791 5.62500E-02 1.87500E-02 0.00000E+00
 -1       792 5.72917E-02 1.87500E-02 0.00000E+00
 -1       793 5.83333E-02 1.87500E-02 0.00000E+00
 -1       794 5.93750E-02 1.87500E-02 0.00000E+00
 -1       795 6.04167E-02 1.87500E-02 0.00000E+00
 -1       796 6.14583E-02 1.87500E-02 0.00000E+00
 -1       797 6.25000E-02 1.87500E-02 0.00000E+00
 -1       798 6.35417E-02 1.87500E-02 0.00000E+00
 -1       799 6.45833E-02 1.87500E-02 0.00000E+00
 -1       800 6.56250E-02 1.87500E-02 0.00000E+00
 -1       801 5.00000E-02 1.97917E-02 0.00000E+00
 -1       802 5.00000E-02 2.08333E-02 0.00000E+00
 -1       803 5.00000E-02 2.18750E-02 0.00000E+00
 -1       804 5.00000E-02 2.29167E-02 0.00000E+00
 -1       805 5.00000E-02 2.39583E-02 0.00000E+00
 -1       806 5.10417E-02 1.91406E-02 0.00000E+00
 -1       807 5.20833E-02 1.95312E-02 0.00000E+00
 -1       808 5.31250E-02 1.99219E-02 0.00000E+00
 -1       809 5.41667E-02 2.03125E-02 0.00000E+00
 -1       810 5.52083E-02 2.07031E-02 0.00000E+00
 -1       811 5.62500E-02 2.10938E-02 0.00000E+00
 -1       812 5.72917E-02 2.14844E-02 0.00000E+00
 -1       813 5.83333E-02 2.18750E-02 0.00000E+00
 -1       814 5.93750E-02 2.22656E-02 0.00000E+00
 -1       815 6.04167E-02 2.26563E-02 0.00000E+00
 -1       816 6.14583E-02 2.30469E-02 0.00000E+00
 -1       817 6.25000E-02 2.34375E-02 0.00000E+00
 -1       818 6.35417E-02 2.38281E-02 0.00000E+00
 -1       819 6.45833E-02 2.42187E-02 0.00000E+00
 -1       820 6.56250E-02 2.46094E-02 0.00000E+00
 -1       821 6.77083E-02 1.87500E-02 0.00000E+00
 -1       822 6.87500E-02 1.87500E-02 0.00000E+00
 -1       823 6.97917E-02 1.87500E-02 0.00000E+00
 -1       824 7.08333E-02 1.87500E-02 0.00000E+00
 -1       825 7.18750E-02 1.87500E-02 0.00000E+00
 -1       826 7.29167E-02 1.87500E-02 0.00000E+00
 -1       827 7.39583E-02 1.87500E-02 0.00000E+00
 -1       828 7.50000E-02 1.87500E-02 0.00000E+00
 -1       829 7.60417E-02 1.87500E-02 0.00000E+00
 -1       830 7.70833E-02 1.87500E-02 0.00000E+00
 -1       831 7.81250E-02 1.87500E-02 0.00000E+00
 -1       832 7.91667E-02 1.87500E-02 0.00000E+00
 -1       833 8.02083E-02 1.87500E-02 0.00000E+00
 -1       834 8.12500E-02 1.87500E-02 0.00000E+00
 -1       835 8.22917E-02 1.87500E-02 0.00000E+00
 -1       836 6.66667E-02 1.97917E-02 0.00000E+00
 -1       837 6.66667E-02 2.08333E-02 0.00000E+00
 -1       838 6.66667E-02 2.18750E-02 0.00000E+00
 -1       839 6.66667E-02 2.29167E-02 0.00000E+00
 -1       840 6.66667E-02 2.39583E-02 0.00000E+00
 -1       841 6.77083E-02 1.91406E-02 0.00000E+00
 -1       842 6.87500E-02 1.95312E-02 0.00000E+00
 -1       843 6.97917E-02 1.99219E-02 0.00000E+00
 -1       844 7.08333E-02 2.03125E-02 0.00000E+00
 -1       845 7.18750E-02 2.07031E-02 0.00000E+00
 -1       846 7.29167E-02 2.10938E-02 0.00000E+00
 -1       847 7.39583E-02 2.14844E-02 0.00000E+00
 -1       848 7.50000E-02 2.18750E-02 0.00000E+00
 -1       849 7.60417E-02 2.22656E-02 0.00000E+00
 -1       850 7.70833E-02 2.26563E-02 0.00000E+00
 -1       851 7.81250E-02 2.30469E-02 0.00000E+00
 -1       852 7.91667E-02 2.34375E-02 0.00000E+00
 -1       853 8.02083E-02 2.38281E-02 0.00000E+00
 -1       854 8.12500E-02 2.42187E-02 0.00000E+00
 -1       855 8.22917E-02 2.46094E-02 0.00000E+00
 -1       856 8.43750E-02 1.87500E-02 0.00000E+00
 -1       857 8.54167E-02 1.87500E-02 0.00000E+00
 -1       858 8.64583E-02 1.87500E-02 0.00000E+00
 -1       859 8.75000E-02 1.87500E-02 0.00000E+00
 -1       860 8.85417E-02 1.87500E-02 0.00000E+00
 -1       861 8.95833E-02 1.87500E-02 0.00000E+00
 -1       862 9.06250E-02 1.87500E-02 0.00000E+00
 -1       863 9.16667E-02 1.87500E-02 0.00000E+00
 -1       864 9.27083E-02 1.87500E-02 0.00000E+00
 -1       865 9.37500E-02 1.87500E-02 0.00000E+00
 -1       866 9.47917E-02 1.87500E-02 0.00000E+00
 -1       867 9.58333E-02 1.87500E-02 0.00000E+00
 -1       868 9.68750E-02 1.87500E-02 0.00000E+00
 -1       869 9.79167E-02 1.87500E-02 0.00000E+00
 -1       870 9.89583E-02 1.87500E-02 0.00000E+00
 -1       871 8.33333E-02 1.97917E-02 0.00000E+00
 -1       872 8.33333E-02 2.08333E-02 0.00000E+00
 -1       873 8.33333E-02 2.18750E-02 0.00000E+00
 -1       874 8.33333E-02 2.29167E-02 0.00000E+00
 -1       875 8.33333E-02 2.39583E-02 0.00000E+00
 -1       876 8.43750E-02 1.91406E-02 0.00000E+00
 -1       877 8.54167E-02 1.95312E-02 0.00000E+00
 -1       878 8.64583E-02 1.99219E-02 0.00000E+00
 -1       879 8.75000E-02 2.03125E-02 0.00000E+00
 -1       880 8.85417E-02 2.07031E-02 0.00000E+00
 -1       881 8.95833E-02 2.10938E-02 0.00000E+00
 -1       882 9.06250E-02 2.14844E-02 0.00000E+00
 -1       883 9.16667E-02 2.18750E-02 0.00000E+00
 -1       884 9.27083E-02 2.22656E-02 0.00000E+00
 -1       885 9.37500E-02 2.26563E-02 0.00000E+00
 -1       886 9.47917E-02 2.30469E-02 0.00000E+00
 -1       887 9.58333E-02 2.34375E-02 0.00000E+00
 -1       888 9.68750E-02 2.38281E-02 0.00000E+00
 -1       889 9.79167E-02 2.42187E-02 0.00000E+00
 -1       890 9.89583E-02 2.46094E-02 0.00000E+00
 -1       891 1.00000E-01 1.97917E-02 0.00000E+00
 -1       892 1.00000E-01 2.08333E-02 0.00000E+00
 -1       893 1.00000E-01 2.18750E-02 0.00000E+00
 -1       894 1.00000E-01 2.29167E-02 0.00000E+00
 -1       895 1.00000E-01 2.39583E-02 0.00000E+00
 -1       896 1.04167E-03 2.50000E-02 0.00000E+00
 -1       897 2.08333E-03 2.50000E-02 0.00000E+00
 -1       898 3.12500E-03 2.50000E-02 0.00000E+00
 -1       899 4.16667E-03 2.50000E-02 0.00000E+00
 -1       900 5.20833E-03 2.50000E-02 0.00000E+00
 -1       901 6.25000E-03 2.50000E-02 0.00000E+00
 -1       902 7.29167E-03 2.50000E-02 0.00000E+00
 -1       903 8.33333E-03 2.50000E-02 0.00000E+00
 -1       904 9.37500E-03 2.50000E-02 0.00000E+00
 -1       905 1.04167E-02 2.50000E-02 0.00000E+00
 -1       906 1.14583E-02 2.50000E-02 0.00000E+00
 -1       907 1.25000E-02 2.50000E-02 0.00000E+00
 -1       908 1.35417E-02 2.50000E-02 0.00000E+00
 -1       909 1.45833E-02 2.50000E-02 0.00000E+00
 -1       910 1.56250E-02 2.50000E-02 0.00000E+00
 -1       911 1.77083E-02 2.50000E-02 0.00000E+00
 -1       912 1.87500E-02 2.50000E-02 0.00000E+00
 -1       913 1.97917E-02 2.50000E-02 0.00000E+00
 -1       914 2.08333E-02 2.50000E-02 0.00000E+00
 -1       915 2.18750E-02 2.50000E-02 0.00000E+00
 -1       916 2.29167E-02 2.50000E-02 0.00000E+00
 -1       917 2.39583E-02 2.50000E-02 0.00000E+00
 -1       918 2.50000E-02 2.50000E-02 0.00000E+00
 -1       919 2.60417E-02 2.50000E-02 0.00000E+00
 -1       920 2.70833E-02 2.50000E-02 0.00000E+00
 -1       921 2.81250E-02 2.50000E-02 0.00000E+00
 -1       922 2.91667E-02 2.50000E-02 0.00000E+00
 -1       923 3.02083E-02 2.50000E-02 0.00000E+00
 -1       924 3.12500E-02 2.50000E-02 0.00000E+00
 -1       925 3.22917E-02 2.50000E-02 0.00000E+00
 -1       926 3.43750E-02 2.50000E-02 0.00000E+00
 -1       927 3.54167E-02 2.50000E-02 0.00000E+00
 -1       928 3.64583E-02 2.50000E-02 0.00000E+00
 -1       929 3.75000E-02 2.50000E-02 0.00000E+00
 -1       930 3.85417E-02 2.50000E-02 0.00000E+00
 -1       931 3.95833E-02 2.50000E-02 0.00000E+00
 -1       932 4.06250E-02 2.50000E-02 0.00000E+00
 -1       933 4.16667E-02 2.50000E-02 0.00000E+00
 -1       934 4.27083E-02 2.50000E-02 0.00000E+00
 -1       935 4.37500E-02 2.50000E-02 0.00000E+00
 -1       936 4.47917E-02 2.50000E-02 0.00000E+00
 -1       937 4.58333E-02 2.50000E-02 0.00000E+00
 -1       938 4.68750E-02 2.50000E-02 0.00000E+00
 -1       939 4.79167E-02 2.50000E-02 0.00000E+00
 -1       940 4.89583E-02 2.50000E-02 0.00000E+00
 -1       941 5.10417E-02 2.50000E-02 0.00000E+00
 -1       942 5.20833E-02 2.50000E-02 0.00000E+00
 -1       943 5.31250E-02 2.50000E-02 0.00000E+00
 -1       944 5.41667E-02 2.50000E-02 0.00000E+00
 -1       945 5.52083E-02 2.50000E-02 0.00000E+00
 -1       946 5.62500E-02 2.50000E-02 0.00000E+00
 -1       947 5.72917E-02 2.50000E-02 0.00000E+00
 -1       948 5.83333E-02 2.50000E-02 0.00000E+00
 -1       949 5.93750E-02 2.50000E-02 0.00000E+00
 -1       950 6.04167E-02 2.50000E-02 0.00000E+00
 -1       951 6.14583E-02 2.50000E-02 0.00000E+00
 -1       952 6.25000E-02 2.50000E-02 0.00000E+00
 -1       953 6.35417E-02 2.50000E-02 0.00000E+00
 -1       954 6.45833E-02 2.50000E-02 0.00000E+00
 -1       955 6.56250E-02 2.50000E-02 0.00000E+00
 -1       956 6.77083E-02 2.50000E-02 0.00000E+00
 -1       957 6.87500E-02 2.50000E-02 0.00000E+00
 -1       958 6.97917E-02 2.50000E-02 0.00000E+00
 -1       959 7.08333E-02 2.50000E-02 0.00000E+00
 -1       960 7.18750E-02 2.50000E-02 0.00000E+00
 -1       961 7.29167E-02 2.50000E-02 0.00000E+00
 -1       962 7.39583E-02 2.50000E-02 0.00000E+00
 -1       963 7.50000E-02 2.50000E-02 0.00000E+00
 -1       964 7.60417E-02 2.50000E-02 0.00000E+00
 -1       965 7.70833E-02 2.50000E-02 0.00000E+00
 -1       966 7.81250E-02 2.50000E-02 0.00000E+00
 -1       967 7.91667E-02 2.50000E-02 0.00000E+00
 -1       968 8.02083E-02 2.50000E-02 0.00000E+00
 -1       969 8.12500E-02 2.50000E-02 0.00000E+00
 -1       970 8.22917E-02 2.50000E-02 0.00000E+00
 -1       971 8.43750E-02 2.50000E-02 0.00000E+00
 -1       972 8.54167E-02 2.50000E-02 0.00000E+00
 -1       973 8.64583E-02 2.50000E-02 0.00000E+00
 -1       974 8.75000E-02 2.50000E-02 0.00000E+00
 -1       975 8.85417E-02 2.50000E-02 0.00000E+00
 -1       976 8.95833E-02 2.50000E-02 0.00000E+00
 -1       977 9.06250E-02 2.50000E-02 0.00000E+00
 -1       978 9.16667E-02 2.50000E-02 0.00000E+00
 -1       979 9.27083E-02 2.50000E-02 0.00000E+00
 -1       980 9.37500E-02 2.50000E-02 0.00000E+00
 -1       981 9.47917E-02 2.50000E-02 0.00000E+00
 -1       982 9.58333E-02 2.50000E-02 0.00000E+00
 -1       983 9.68750E-02 2.50000E-02 0.00000E+00
 -1       984 9.79167E-02 2.50000E-02 0.00000E+00
 -1       985 9.89583E-02 2.50000E-02 0.00000E+00
 -3
    3C                           440                                     1
 -1         1   12    0    1
 -2         1        37        36
 -1         2   12    0    1
 -2        37        39        38
 -1         3   12    0    1
 -2        39        41        40
 -1         4   12    0    1
 -2        41        43        42
 -1         5   12    0    1
 -2        43        45        44
 -1         6   12    0    1
 -2        45        47        46
 -1         7   12    0    1
 -2        47        49        48
 -1         8   12    0    1
 -2        49         2        50
 -1         9   12    0    1
 -2         1        52        51
 -1        10   12    0    1
 -2        52        54        53
 -1        11   12    0    1
 -2        54         8        55
 -1        12   12    0    1
 -2         1        57        56
 -1        13   12    0    1
 -2        57        59        58
 -1        14   12    0    1
 -2        59        61        60
 -1        15   12    0    1
 -2        61        63        62
 -1        16   12    0    1
 -2        63        65        64
 -1        17   12    0    1
 -2        65        67        66
 -1        18   12    0    1
 -2        67        69        68
 -1        19   12    0    1
 -2        69         9        70
 -1        20   12    0    1
 -2         2        72        71
 -1        21   12    0    1
 -2        72        74        73
 -1        22   12    0    1
 -2        74        76        75
 -1        23   12    0    1
 -2        76        78        77
 -1        24   12    0    1
 -2        78        80        79
 -1        25   12    0    1
 -2        80        82        81
 -1        26   12    0    1
 -2        82        84        83
 -1        27   12    0    1
 -2        84         3        85
 -1        28   12    0    1
 -2         2        87        86
 -1        29   12    0    1
 -2        87        89        88
 -1        30   12    0    1
 -2        89         9        90
 -1        31   12    0    1
 -2         2        92        91
 -1        32   12    0    1
 -2        92        94        93
 -1        33   12    0    1
 -2        94        96        95
 -1        34   12    0    1
 -2        96        98        97
 -1        35   12    0    1
 -2        98       100        99
 -1        36   12    0    1
 -2       100       102       101
 -1        37   12    0    1
 -2       102       104       103
 -1        38   12    0    1
 -2       104        10       105
 -1        39   12    0    1
 -2         3       107       106
 -1        40   12    0    1
 -2       107       109       108
 -1        41   12    0    1
 -2       109       111       110
 -1        42   12    0    1
 -2       111       113       112
 -1        43   12    0    1
 -2       113       115       114
 -1        44   12    0    1
 -2       115       117       116
 -1        45   12    0    1
 -2       117       119       118
 -1        46   12    0    1
 -2       119         4       120
 -1        47   12    0    1
 -2         3       122       121
 -1        48   12    0    1
 -2       122       124       123
 -1        49   12    0    1
 -2       124        10       125
 -1        50   12    0    1
 -2         3       127       126
 -1        51   12    0    1
 -2       127       129       128
 -1        52   12    0    1
 -2       129       131       130
 -1        53   12    0    1
 -2       131       133       132
 -1        54   12    0    1
 -2       133       135       134
 -1        55   12    0    1
 -2       135       137       136
 -1        56   12    0    1
 -2       137       139       138
 -1        57   12    0    1
 -2       139        11       140
 -1        58   12    0    1
 -2         4       142       141
 -1        59   12    0    1
 -2       142       144       143
 -1        60   12    0    1
 -2       144       146       145
 -1        61   12    0    1
 -2       146       148       147
 -1        62   12    0    1
 -2       148       150       149
 -1        63   12    0    1
 -2       150       152       151
 -1        64   12    0    1
 -2       152       154       153
 -1        65   12    0    1
 -2       154         5       155
 -1        66   12    0    1
 -2         4       157       156
 -1        67   12    0    1
 -2       157       159       158
 -1        68   12    0    1
 -2       159        11       160
 -1        69   12    0    1
 -2         4       162       161
 -1        70   12    0    1
 -2       162       164       163
 -1        71   12    0    1
 -2       164       166       165
 -1        72   12    0    1
 -2       166       168       167
 -1        73   12    0    1
 -2       168       170       169
 -1        74   12    0    1
 -2       170       172       171
 -1        75   12    0    1
 -2       172       174       173
 -1        76   12    0    1
 -2       174        12       175
 -1        77   12    0    1
 -2         5       192       191
 -1        78   12    0    1
 -2       192       194       193
 -1        79   12    0    1
 -2       194        12       195
 -1        80   12    0    1
 -2         8       252       251
 -1        81   12    0    1
 -2       252       254       253
 -1        82   12    0    1
 -2       254       256       255
 -1        83   12    0    1
 -2       256       258       257
 -1        84   12    0    1
 -2       258       260       259
 -1        85   12    0    1
 -2       260       262       261
 -1        86   12    0    1
 -2       262       264       263
 -1        87   12    0    1
 -2       264         9       265
 -1        88   12    0    1
 -2         8       267       266
 -1        89   12    0    1
 -2       267       269       268
 -1        90   12    0    1
 -2       269        15       270
 -1        91   12    0    1
 -2         8       272       271
 -1        92   12    0    1
 -2       272       274       273
 -1        93   12    0    1
 -2       274       276       275
 -1        94   12    0    1
 -2       276       278       277
 -1        95   12    0    1
 -2       278       280       279
 -1        96   12    0    1
 -2       280       282       281
 -1        97   12    0    1
 -2       282       284       283
 -1        98   12    0    1
 -2       284        16       285
 -1        99   12    0    1
 -2         9       287       286
 -1       100   12    0    1
 -2       287       289       288
 -1       101   12    0    1
 -2       289       291       290
 -1       102   12    0    1
 -2       291       293       292
 -1       103   12    0    1
 -2       293       295       294
 -1       104   12    0    1
 -2       295       297       296
 -1       105   12    0    1
 -2       297       299       298
 -1       106   12    0    1
 -2       299        10       300
 -1       107   12    0    1
 -2         9       302       301
 -1       108   12    0    1
 -2       302       304       303
 -1       109   12    0    1
 -2       304        16       305
 -1       110   12    0    1
 -2         9       307       306
 -1       111   12    0    1
 -2       307       309       308
 -1       112   12    0    1
 -2       309       311       310
 -1       113   12    0    1
 -2       311       313       312
 -1       114   12    0    1
 -2       313       315       314
 -1       115   12    0    1
 -2       315       317       316
 -1       116   12    0    1
 -2       317       319       318
 -1       117   12    0    1
 -2       319        17       320
 -1       118   12    0    1
 -2        10       322       321
 -1       119   12    0    1
 -2       322       324       323
 -1       120   12    0    1
 -2       324       326       325
 -1       121   12    0    1
 -2       326       328       327
 -1       122   12    0    1
 -2       328       330       329
 -1       123   12    0    1
 -2       330       332       331
 -1       124   12    0    1
 -2       332       334       333
 -1       125   12    0    1
 -2       334        11       335
 -1       126   12    0    1
 -2        10       337       336
 -1       127   12    0    1
 -2       337       339       338
 -1       128   12    0    1
 -2       339        17       340
 -1       129   12    0    1
 -2        10       342       341
 -1       130   12    0    1
 -2       342       344       343
 -1       131   12    0    1
 -2       344       346       345
 -1       132   12    0    1
 -2       346       348       347
 -1       133   12    0    1
 -2       348       350       349
 -1       134   12    0    1
 -2       350       352       351
 -1       135   12    0    1
 -2       352       354       353
 -1       136   12    0    1
 -2       354        18       355
 -1       137   12    0    1
 -2        11       357       356
 -1       138   12    0    1
 -2       357       359       358
 -1       139   12    0    1
 -2       359       361       360
 -1       140   12    0    1
 -2       361       363       362
 -1       141   12    0    1
 -2       363       365       364
 -1       142   12    0    1
 -2       365       367       366
 -1       143   12    0    1
 -2       367       369       368
 -1       144   12    0    1
 -2       369        12       370
 -1       145   12    0    1
 -2        11       372       371
 -1       146   12    0    1
 -2       372       374       373
 -1       147   12    0    1
 -2       374        18       375
 -1       148   12    0    1
 -2        11       377       376
 -1       149   12    0    1
 -2       377       379       378
 -1       150   12    0    1
 -2       379       381       380
 -1       151   12    0    1
 -2       381       383       382
 -1       152   12    0    1
 -2       383       385       384
 -1       153   12    0    1
 -2       385       387       386
 -1       154   12    0    1
 -2       387       389       388
 -1       155   12    0    1
 -2       389        19       390
 -1       156   12    0    1
 -2        12       407       406
 -1       157   12    0    1
 -2       407       409       408
 -1       158   12    0    1
 -2       409        19       410
 -1       159   12    0    1
 -2        15       467       466
 -1       160   12    0    1
 -2       467       469       468
 -1       161   12    0    1
 -2       469       471       470
 -1       162   12    0    1
 -2       471       473       472
 -1       163   12    0    1
 -2       473       475       474
 -1       164   12    0    1
 -2       475       477       476
 -1       165   12    0    1
 -2       477       479       478
 -1       166   12    0    1
 -2       479        16       480
 -1       167   12    0    1
 -2        15       482       481
 -1       168   12    0    1
 -2       482       484       483
 -1       169   12    0    1
 -2       484        22       485
 -1       170   12    0    1
 -2        15       487       486
 -1       171   12    0    1
 -2       487       489       488
 -1       172   12    0    1
 -2       489       491       490
 -1       173   12    0    1
 -2       491       493       492
 -1       174   12    0    1
 -2       493       495       494
 -1       175   12    0    1
 -2       495       497       496
 -1       176   12    0    1
 -2       497       499       498
 -1       177   12    0    1
 -2       499        23       500
 -1       178   12    0    1
 -2        16       502       501
 -1       179   12    0    1
 -2       502       504       503
 -1       180   12    0    1
 -2       504       506       505
 -1       181   12    0    1
 -2       506       508       507
 -1       182   12    0    1
 -2       508       510       509
 -1       183   12    0    1
 -2       510       512       511
 -1       184   12    0    1
 -2       512       514       513
 -1       185   12    0    1
 -2       514        17       515
 -1       186   12    0    1
 -2        16       517       516
 -1       187   12    0    1
 -2       517       519       518
 -1       188   12    0    1
 -2       519        23       520
 -1       189   12    0    1
 -2        16       522       521
 -1       190   12    0    1
 -2       522       524       523
 -1       191   12    0    1
 -2       524       526       525
 -1       192   12    0    1
 -2       526       528       527
 -1       193   12    0    1
 -2       528       530       529
 -1       194   12    0    1
 -2       530       532       531
 -1       195   12    0    1
 -2       532       534       533
 -1       196   12    0    1
 -2       534        24       535
 -1       197   12    0    1
 -2        17       537       536
 -1       198   12    0    1
 -2       537       539       538
 -1       199   12    0    1
 -2       539       541       540
 -1       200   12    0    1
 -2       541       543       542
 -1       201   12    0    1
 -2       543       545       544
 -1       202   12    0    1
 -2       545       547       546
 -1       203   12    0    1
 -2       547       549       548
 -1       204   12    0    1
 -2       549        18       550
 -1       205   12    0    1
 -2        17       552       551
 -1       206   12    0    1
 -2       552       554       553
 -1       207   12    0    1
 -2       554        24       555
 -1       208   12    0    1
 -2        17       557       556
 -1       209   12    0    1
 -2       557       559       558
 -1       210   12    0    1
 -2       559       561       560
 -1       211   12    0    1
 -2       561       563       562
 -1       212   12    0    1
 -2       563       565       564
 -1       213   12    0    1
 -2       565       567       566
 -1       214   12    0    1
 -2       567       569       568
 -1       215   12    0    1
 -2       569        25       570
 -1       216   12    0    1
 -2        18       572       571
 -1       217   12    0    1
 -2       572       574       573
 -1       218   12    0    1
 -2       574       576       575
 -1       219   12    0    1
 -2       576       578       577
 -1       220   12    0    1
 -2       578       580       579
 -1       221   12    0    1
 -2       580       582       581
 -1       222   12    0    1
 -2       582       584       583
 -1       223   12    0    1
 -2       584        19       585
 -1       224   12    0    1
 -2        18       587       586
 -1       225   12    0    1
 -2       587       589       588
 -1       226   12    0    1
 -2       589        25       590
 -1       227   12    0    1
 -2        18       592       591
 -1       228   12    0    1
 -2       592       594       593
 -1       229   12    0    1
 -2       594       596       595
 -1       230   12    0    1
 -2       596       598       597
 -1       231   12    0    1
 -2       598       600       599
 -1       232   12    0    1
 -2       600       602       601
 -1       233   12    0    1
 -2       602       604       603
 -1       234   12    0    1
 -2       604        26       605
 -1       235   12    0    1
 -2        19       607       606
 -1       236   12    0    1
 -2       607       609       608
 -1       237   12    0    1
 -2       609       611       610
 -1       238   12    0    1
 -2       611       613       612
 -1       239   12    0    1
 -2       613       615       614
 -1       240   12    0    1
 -2       615       617       616
 -1       241   12    0    1
 -2       617       619       618
 -1       242   12    0    1
 -2       619        20       620
 -1       243   12    0    1
 -2        19       622       621
 -1       244   12    0    1
 -2       622       624       623
 -1       245   12    0    1
 -2       624        26       625
 -1       246   12    0    1
 -2        19       627       626
 -1       247   12    0    1
 -2       627       629       628
 -1       248   12    0    1
 -2       629       631       630
 -1       249   12    0    1
 -2       631       633       632
 -1       250   12    0    1
 -2       633       635       634
 -1       251   12    0    1
 -2       635       637       636
 -1       252   12    0    1
 -2       637       639       638
 -1       253   12    0    1
 -2       639        27       640
 -1       254   12    0    1
 -2        20       642       641
 -1       255   12    0    1
 -2       642       644       643
 -1       256   12    0    1
 -2       644       646       645
 -1       257   12    0    1
 -2       646       648       647
 -1       258   12    0    1
 -2       648       650       649
 -1       259   12    0    1
 -2       650       652       651
 -1       260   12    0    1
 -2       652       654       653
 -1       261   12    0    1
 -2       654        21       655
 -1       262   12    0    1
 -2        20       657       656
 -1       263   12    0    1
 -2       657       659       658
 -1       264   12    0    1
 -2       659        27       660
 -1       265   12    0    1
 -2        20       662       661
 -1       266   12    0    1
 -2       662       664       663
 -1       267   12    0    1
 -2       664       666       665
 -1       268   12    0    1
 -2       666       668       667
 -1       269   12    0    1
 -2       668       670       669
 -1       270   12    0    1
 -2       670       672       671
 -1       271   12    0    1
 -2       672       674       673
 -1       272   12    0    1
 -2       674        28       675
 -1       273   12    0    1
 -2        21       677       676
 -1       274   12    0    1
 -2       677       679       678
 -1       275   12    0    1
 -2       679        28       680
 -1       276   12    0    1
 -2        22       682       681
 -1       277   12    0    1
 -2       682       684       683
 -1       278   12    0    1
 -2       684       686       685
 -1       279   12    0    1
 -2       686       688       687
 -1       280   12    0    1
 -2       688       690       689
 -1       281   12    0    1
 -2       690       692       691
 -1       282   12    0    1
 -2       692       694       693
 -1       283   12    0    1
 -2       694        23       695
 -1       284   12    0    1
 -2        22       697       696
 -1       285   12    0    1
 -2       697       699       698
 -1       286   12    0    1
 -2       699        29       700
 -1       287   12    0    1
 -2        22       702       701
 -1       288   12    0    1
 -2       702       704       703
 -1       289   12    0    1
 -2       704       706       705
 -1       290   12    0    1
 -2       706       708       707
 -1       291   12    0    1
 -2       708       710       709
 -1       292   12    0    1
 -2       710       712       711
 -1       293   12    0    1
 -2       712       714       713
 -1       294   12    0    1
 -2       714        30       715
 -1       295   12    0    1
 -2        23       717       716
 -1       296   12    0    1
 -2       717       719       718
 -1       297   12    0    1
 -2       719       721       720
 -1       298   12    0    1
 -2       721       723       722
 -1       299   12    0    1
 -2       723       725       724
 -1       300   12    0    1
 -2       725       727       726
 -1       301   12    0    1
 -2       727       729       728
 -1       302   12    0    1
 -2       729        24       730
 -1       303   12    0    1
 -2        23       732       731
 -1       304   12    0    1
 -2       732       734       733
 -1       305   12    0    1
 -2       734        30       735
 -1       306   12    0    1
 -2        23       737       736
 -1       307   12    0    1
 -2       737       739       738
 -1       308   12    0    1
 -2       739       741       740
 -1       309   12    0    1
 -2       741       743       742
 -1       310   12    0    1
 -2       743       745       744
 -1       311   12    0    1
 -2       745       747       746
 -1       312   12    0    1
 -2       747       749       748
 -1       313   12    0    1
 -2       749        31       750
 -1       314   12    0    1
 -2        24       752       751
 -1       315   12    0    1
 -2       752       754       753
 -1       316   12    0    1
 -2       754       756       755
 -1       317   12    0    1
 -2       756       758       757
 -1       318   12    0    1
 -2       758       760       759
 -1       319   12    0    1
 -2       760       762       761
 -1       320   12    0    1
 -2       762       764       763
 -1       321   12    0    1
 -2       764        25       765
 -1       322   12    0    1
 -2        24       767       766
 -1       323   12    0    1
 -2       767       769       768
 -1       324   12    0    1
 -2       769        31       770
 -1       325   12    0    1
 -2        24       772       771
 -1       326   12    0    1
 -2       772       774       773
 -1       327   12    0    1
 -2       774       776       775
 -1       328   12    0    1
 -2       776       778       777
 -1       329   12    0    1
 -2       778       780       779
 -1       330   12    0    1
 -2       780       782       781
 -1       331   12    0    1
 -2       782       784       783
 -1       332   12    0    1
 -2       784        32       785
 -1       333   12    0    1
 -2        25       787       786
 -1       334   12    0    1
 -2       787       789       788
 -1       335   12    0    1
 -2       789       791       790
 -1       336   12    0    1
 -2       791       793       792
 -1       337   12    0    1
 -2       793       795       794
 -1       338   12    0    1
 -2       795       797       796
 -1       339   12    0    1
 -2       797       799       798
 -1       340   12    0    1
 -2       799        26       800
 -1       341   12    0    1
 -2        25       802       801
 -1       342   12    0    1
 -2       802       804       803
 -1       343   12    0    1
 -2       804        32       805
 -1       344   12    0    1
 -2        25       807       806
 -1       345   12    0    1
 -2       807       809       808
 -1       346   12    0    1
 -2       809       811       810
 -1       347   12    0    1
 -2       811       813       812
 -1       348   12    0    1
 -2       813       815       814
 -1       349   12    0    1
 -2       815       817       816
 -1       350   12    0    1
 -2       817       819       818
 -1       351   12    0    1
 -2       819        33       820
 -1       352   12    0    1
 -2        26       822       821
 -1       353   12    0    1
 -2       822       824       823
 -1       354   12    0    1
 -2       824       826       825
 -1       355   12    0    1
 -2       826       828       827
 -1       356   12    0    1
 -2       828       830       829
 -1       357   12    0    1
 -2       830       832       831
 -1       358   12    0    1
 -2       832       834       833
 -1       359   12    0    1
 -2       834        27       835
 -1       360   12    0    1
 -2        26       837       836
 -1       361   12    0    1
 -2       837       839       838
 -1       362   12    0    1
 -2       839        33       840
 -1       363   12    0    1
 -2        26       842       841
 -1       364   12    0    1
 -2       842       844       843
 -1       365   12    0    1
 -2       844       846       845
 -1       366   12    0    1
 -2       846       848       847
 -1       367   12    0    1
 -2       848       850       849
 -1       368   12    0    1
 -2       850       852       851
 -1       369   12    0    1
 -2       852       854       853
 -1       370   12    0    1
 -2       854        34       855
 -1       371   12    0    1
 -2        27       857       856
 -1       372   12    0    1
 -2       857       859       858
 -1       373   12    0    1
 -2       859       861       860
 -1       374   12    0    1
 -2       861       863       862
 -1       375   12    0    1
 -2       863       865       864
 -1       376   12    0    1
 -2       865       867       866
 -1       377   12    0    1
 -2       867       869       868
 -1       378   12    0    1
 -2       869        28       870
 -1       379   12    0    1
 -2        27       872       871
 -1       380   12    0    1
 -2       872       874       873
 -1       381   12    0    1
 -2       874        34       875
 -1       382   12    0    1
 -2        27       877       876
 -1       383   12    0    1
 -2       877       879       878
 -1       384   12    0    1
 -2       879       881       880
 -1       385   12    0    1
 -2       881       883       882
 -1       386   12    0    1
 -2       883       885       884
 -1       387   12    0    1
 -2       885       887       886
 -1       388   12    0    1
 -2       887       889       888
 -1       389   12    0    1
 -2       889        35       890
 -1       390   12    0    1
 -2        28       892       891
 -1       391   12    0    1
 -2       892       894       893
 -1       392   12    0    1
 -2       894        35       895
 -1       393   12    0    1
 -2        29       897       896
 -1       394   12    0    1
 -2       897       899       898
 -1       395   12    0    1
 -2       899       901       900
 -1       396   12    0    1
 -2       901       903       902
 -1       397   12    0    1
 -2       903       905       904
 -1       398   12    0    1
 -2       905       907       906
 -1       399   12    0    1
 -2       907       909       908
 -1       400   12    0    1
 -2       909        30       910
 -1       401   12    0    1
 -2        30       912       911
 -1       402   12    0    1
 -2       912       914       913
 -1       403   12    0    1
 -2       914       916       915
 -1       404   12    0    1
 -2       916       918       917
 -1       405   12    0    1
 -2       918       920       919
 -1       406   12    0    1
 -2       920       922       921
 -1       407   12    0    1
 -2       922       924       923
 -1       408   12    0    1
 -2       924        31       925
 -1       409   12    0    1
 -2        31       927       926
 -1       410   12    0    1
 -2       927       929       928
 -1       411   12    0    1
 -2       929       931       930
 -1       412   12    0    1
 -2       931       933       932
 -1       413   12    0    1
 -2       933       935       934
 -1       414   12    0    1
 -2       935       937       936
 -1       415   12    0    1
 -2       937       939       938
 -1       416   12    0    1
 -2       939        32       940
 -1       417   12    0    1
 -2        32       942       941
 -1       418   12    0    1
 -2       942       944       943
 -1       419   12    0    1
 -2       944       946       945
 -1       420   12    0    1
 -2       946       948       947
 -1       421   12    0    1
 -2       948       950       949
 -1       422   12    0    1
 -2       950       952       951
 -1       423   12    0    1
 -2       952       954       953
 -1       424   12    0    1
 -2       954        33       955
 -1       425   12    0    1
 -2        33       957       956
 -1       426   12    0    1
 -2       957       959       958
 -1       427   12    0    1
 -2       959       961       960
 -1       428   12    0    1
 -2       961       963       962
 -1       429   12    0    1
 -2       963       965       964
 -1       430   12    0    1
 -2       965       967       966
 -1       431   12    0    1
 -2       967       969       968
 -1       432   12    0    1
 -2       969        34       970
 -1       433   12    0    1
 -2        34       972       971
 -1       434   12    0    1
 -2       972       974       973
 -1       435   12    0    1
 -2       974       976       975
 -1       436   12    0    1
 -2       976       978       977
 -1       437   12    0    1
 -2       978       980       979
 -1       438   12    0    1
 -2       980       982       981
 -1       439   12    0    1
 -2       982       984       983
 -1       440   12    0    1
 -2       984        35       985
 -3
    1PSTEP                         1           1           1          
  100CL  101 1.000000000         841                     0    1           1
 -4  DISP        4    1
 -5  D1          1    2    1    0
 -5  D2          1    2    2    0
 -5  D3          1    2    3    0
 -5  ALL         1    2    0    0    1ALL
 -1         1 9.49806E-05 0.00000E+00 0.00000E+00
 -1         2 7.38075E-05 0.00000E+00 0.00000E+00
 -1         3 6.49985E-05 0.00000E+00 0.00000E+00
 -1         4 6.20926E-05 0.00000E+00 0.00000E+00
 -1         5 6.17987E-05 0.00000E+00 0.00000E+00
 -1         8 6.76077E-05-1.09722E-06 0.00000E+00
 -1         9 6.31549E-05 1.45642E-06 0.00000E+00
 -1        10 5.99763E-05-4.02570E-06 0.00000E+00
 -1        11 5.81888E-05-9.46081E-07 0.00000E+00
 -1        12 5.79802E-05 2.79840E-06 0.00000E+00
 -1        15 2.68501E-05-1.94541E-06 0.00000E+00
 -1        16 3.55626E-05 1.65434E-06 0.00000E+00
 -1        17 3.65903E-05-8.01484E-06 0.00000E+00
 -1        18 4.29317E-05-1.74689E-06 0.00000E+00
 -1        19 4.73683E-05 5.49115E-06 0.00000E+00
 -1        20 4.83661E-05 5.52584E-05 0.00000E+00
 -1        21 4.82746E-05 1.27407E-04 0.00000E+00
 -1        22 1.04255E-05-1.22422E-06 0.00000E+00
 -1        23 1.36436E-05 2.16007E-06 0.00000E+00
 -1        24 1.57532E-05-8.81039E-06 0.00000E+00
 -1        25 2.93875E-05-1.43070E-06 0.00000E+00
 -1        26 3.64137E-05 7.02941E-06 0.00000E+00
 -1        27 3.17355E-05 5.36611E-05 0.00000E+00
 -1        28 2.72414E-05 1.25949E-04 0.00000E+00
 -1        29 0.00000E+00 0.00000E+00 0.00000E+00
 -1        30 5.14987E-06 2.59454E-06 0.00000E+00
 -1        31 6.86823E-06-7.63455E-06 0.00000E+00
 -1        32 0.00000E+00 0.00000E+00 0.00000E+00
 -1        33 1.78415E-05 1.17240E-05 0.00000E+00
 -1        34 1.63237E-05 5.35717E-05 0.00000E+00
 -1        35 1.08732E-05 1.25180E-04 0.00000E+00
 -1        36 9.36914E-05 3.11020E-22-2.64698E-23
 -1        37 9.23678E-05 7.14022E-21 0.00000E+00
 -1        38 9.10452E-05 2.02196E-20 0.00000E+00
 -1        39 8.97171E-05 4.87342E-20 0.00000E+00
 -1        40 8.83883E-05 6.43083E-20 0.00000E+00
 -1        41 8.70586E-05 6.04239E-20 2.64698E-23
 -1        42 8.57285E-05 7.02773E-20-5.29396E-23
 -1        43 8.43983E-05 5.79589E-20 0.00000E+00
 -1        44 8.30681E-05 3.02086E-20 0.00000E+00
 -1        45 8.17380E-05 2.98381E-20 2.64698E-23
 -1        46 8.04082E-05 1.81285E-20 0.00000E+00
 -1        47 7.90792E-05 1.63285E-20 0.00000E+00
 -1        48 7.77507E-05 1.16599E-20-5.29396E-23
 -1        49 7.64271E-05 3.92084E-21 1.32349E-23
 -1        50 7.51025E-05 8.99973E-21 0.00000E+00
 -1        51 9.31383E-05-1.90361E-07 0.00000E+00
 -1        52 8.98160E-05-3.67550E-07 0.00000E+00
 -1        53 8.53016E-05-5.44284E-07 0.00000E+00
 -1        54 7.98948E-05-7.23179E-07 0.00000E+00
 -1        55 7.38963E-05-9.05703E-07 6.61744E-24
 -1        56 9.33870E-05-8.11907E-07 0.00000E+00
 -1        57 9.18585E-05-1.95363E-06 2.64698E-23
 -1        58 9.04129E-05-3.31019E-06 0.00000E+00
 -1        59 8.90021E-05-4.78478E-06-2.64698E-23
 -1        60 8.75949E-05-6.27049E-06 0.00000E+00
 -1        61 8.61513E-05-7.66330E-06 2.64698E-23
 -1        62 8.46346E-05-8.86134E-06 0.00000E+00
 -1        63 8.30084E-05-9.76803E-06 2.64698E-23
 -1        64 8.12400E-05-1.02954E-05-5.29396E-23
 -1        65 7.93000E-05-1.03649E-05 0.00000E+00
 -1        66 7.71639E-05-9.91161E-06-5.29396E-23
 -1        67 7.48131E-05-8.88340E-06-2.64698E-23
 -1        68 7.22333E-05-7.24591E-06 5.29396E-23
 -1        69 6.94256E-05-4.97639E-06 0.00000E+00
 -1        70 6.63770E-05-2.07838E-06 0.00000E+00
 -1        71 7.32534E-05 5.38660E-21 1.32349E-23
 -1        72 7.27021E-05 5.31050E-22 0.00000E+00
 -1        73 7.21507E-05-4.35924E-21-1.32349E-23
 -1        74 7.15998E-05-1.30397E-20-6.61744E-24
 -1        75 7.10489E-05 4.30134E-23 1.32349E-23
 -1        76 7.04982E-05 1.01280E-20 0.00000E+00
 -1        77 6.99474E-05 2.37103E-20 0.00000E+00
 -1        78 6.93967E-05 3.16479E-20-6.61744E-24
 -1        79 6.88460E-05 2.01733E-20-1.32349E-23
 -1        80 6.82953E-05 6.73987E-21 0.00000E+00
 -1        81 6.77447E-05 5.10205E-21 1.32349E-23
 -1        82 6.71942E-05 1.62127E-21-6.61744E-24
 -1        83 6.66437E-05-8.00876E-21-1.32349E-23
 -1        84 6.60940E-05-7.69443E-21 0.00000E+00
 -1        85 6.55441E-05-5.76710E-21 0.00000E+00
 -1        86 7.36411E-05 2.18515E-07-6.61744E-24
 -1        87 7.30264E-05 4.72630E-07 4.13590E-25
 -1        88 7.18186E-05 7.24536E-07-3.30872E-24
 -1        89 6.98709E-05 9.77453E-07-1.65436E-24
 -1        90 6.70338E-05 1.22976E-06 8.27181E-25
 -1        91 7.30052E-05-3.90427E-07 0.00000E+00
 -1        92 7.22440E-05-9.18874E-07-1.32349E-23
 -1        93 7.15216E-05-1.54971E-06-2.64698E-23
 -1        94 7.08237E-05-2.25033E-06 0.00000E+00
 -1        95 7.01387E-05-2.98593E-06 0.00000E+00
 -1        96 6.94535E-05-3.72182E-06-1.32349E-23
 -1        97 6.87554E-05-4.42324E-06-2.64698E-23
 -1        98 6.80315E-05-5.05594E-06 1.32349E-23
 -1        99 6.72693E-05-5.58663E-06 0.00000E+00
 -1       100 6.64570E-05-5.98323E-06 0.00000E+00
 -1       101 6.55832E-05-6.21567E-06-2.64698E-23
 -1       102 6.46376E-05-6.25575E-06-1.32349E-23
 -1       103 6.36104E-05-6.07828E-06 2.64698E-23
 -1       104 6.24949E-05-5.66000E-06 1.32349E-23
 -1       105 6.12815E-05-4.98263E-06 0.00000E+00
 -1       106 6.48045E-05-4.39233E-22 0.00000E+00
 -1       107 6.46217E-05 4.33112E-21-3.30872E-24
 -1       108 6.44385E-05 2.31900E-21-6.61744E-24
 -1       109 6.42572E-05 7.16338E-22-3.30872E-24
 -1       110 6.40760E-05-6.59925E-21 0.00000E+00
 -1       111 6.38952E-05-1.55742E-20-3.30872E-24
 -1       112 6.37145E-05-2.15423E-20 0.00000E+00
 -1       113 6.35339E-05-1.98556E-20 3.30872E-24
 -1       114 6.33533E-05-1.20115E-20-6.61744E-24
 -1       115 6.31727E-05-1.83469E-21-3.30872E-24
 -1       116 6.29921E-05-1.62624E-21 0.00000E+00
 -1       117 6.28116E-05-4.33360E-21-3.30872E-24
 -1       118 6.26312E-05-9.40256E-21 0.00000E+00
 -1       119 6.24510E-05 1.32680E-21 0.00000E+00
 -1       120 6.22708E-05-2.86204E-22 0.00000E+00
 -1       121 6.48237E-05-6.63367E-07 1.32349E-23
 -1       122 6.43290E-05-1.33605E-06 0.00000E+00
 -1       123 6.35537E-05-2.00851E-06 2.64698E-23
 -1       124 6.25399E-05-2.68194E-06-1.32349E-23
 -1       125 6.13320E-05-3.35591E-06 0.00000E+00
 -1       126 6.46230E-05-2.02523E-07-1.32349E-23
 -1       127 6.42840E-05-4.95328E-07 0.00000E+00
 -1       128 6.39703E-05-8.55951E-07 0.00000E+00
 -1       129 6.36735E-05-1.26043E-06 0.00000E+00
 -1       130 6.33842E-05-1.68476E-06 0.00000E+00
 -1       131 6.30933E-05-2.10471E-06 6.61744E-24
 -1       132 6.27917E-05-2.49615E-06 0.00000E+00
 -1       133 6.24704E-05-2.83506E-06 6.61744E-24
 -1       134 6.21207E-05-3.09779E-06 1.32349E-23
 -1       135 6.17337E-05-3.26111E-06 0.00000E+00
 -1       136 6.13010E-05-3.30248E-06 0.00000E+00
 -1       137 6.08145E-05-3.19996E-06 0.00000E+00
 -1       138 6.02664E-05-2.93275E-06 1.32349E-23
 -1       139 5.96501E-05-2.48049E-06 0.00000E+00
 -1       140 5.89571E-05-1.82508E-06 0.00000E+00
 -1       141 6.20672E-05 4.23619E-21 0.00000E+00
 -1       142 6.20465E-05 8.51593E-21 0.00000E+00
 -1       143 6.20257E-05 7.53717E-22 0.00000E+00
 -1       144 6.20056E-05 7.83821E-21 0.00000E+00
 -1       145 6.19855E-05 9.64968E-21 8.27181E-25
 -1       146 6.19657E-05 1.12093E-20 0.00000E+00
 -1       147 6.19459E-05 1.86082E-20 0.00000E+00
 -1       148 6.19261E-05 2.19113E-20 0.00000E+00
 -1       149 6.19064E-05 1.88944E-20 0.00000E+00
 -1       150 6.18868E-05 4.70066E-21 0.00000E+00
 -1       151 6.18673E-05-1.93880E-20 2.06795E-25
 -1       152 6.18484E-05-3.08236E-20 0.00000E+00
 -1       153 6.18298E-05-2.79806E-20 8.27181E-25
 -1       154 6.18140E-05-1.82285E-20 0.00000E+00
 -1       155 6.17976E-05-9.15648E-21 6.61744E-24
 -1       156 6.19614E-05-1.55867E-07 3.30872E-24
 -1       157 6.15877E-05-3.12900E-07-1.65436E-24
 -1       158 6.09973E-05-4.70045E-07 0.00000E+00
 -1       159 6.02162E-05-6.27858E-07 3.30872E-24
 -1       160 5.92711E-05-7.85750E-07-6.61744E-24
 -1       161 6.19360E-05-9.47717E-08 3.30872E-24
 -1       162 6.17964E-05-2.39683E-07 3.30872E-24
 -1       163 6.16685E-05-4.15702E-07-6.61744E-24
 -1       164 6.15451E-05-6.04426E-07 0.00000E+00
 -1       165 6.14195E-05-7.87207E-07 0.00000E+00
 -1       166 6.12846E-05-9.45514E-07 0.00000E+00
 -1       167 6.11336E-05-1.06087E-06 0.00000E+00
 -1       168 6.09597E-05-1.11492E-06 0.00000E+00
 -1       169 6.07560E-05-1.08947E-06 0.00000E+00
 -1       170 6.05158E-05-9.66524E-07 3.30872E-24
 -1       171 6.02325E-05-7.28384E-07-3.30872E-24
 -1       172 5.99002E-05-3.57449E-07 1.65436E-24
 -1       173 5.95119E-05 1.63155E-07 3.30872E-24
 -1       174 5.90648E-05 8.51335E-07 0.00000E+00
 -1       175 5.85482E-05 1.72154E-06 0.00000E+00
 -1       191 6.16826E-05 4.64703E-07-1.32349E-23
 -1       192 6.13554E-05 9.32361E-07 0.00000E+00
 -1       193 6.08186E-05 1.40051E-06 0.00000E+00
 -1       194 6.00750E-05 1.86844E-06 0.00000E+00
 -1       195 5.91274E-05 2.33541E-06 0.00000E+00
 -1       251 6.73188E-05 3.34951E-06 0.00000E+00
 -1       252 6.70384E-05 6.20870E-06 0.00000E+00
 -1       253 6.67610E-05 7.68702E-06-6.61744E-24
 -1       254 6.64850E-05 7.99683E-06 0.00000E+00
 -1       255 6.62091E-05 7.35507E-06-6.61744E-24
 -1       256 6.59325E-05 5.98220E-06 0.00000E+00
 -1       257 6.56553E-05 4.10162E-06 0.00000E+00
 -1       258 6.53775E-05 1.93858E-06 0.00000E+00
 -1       259 6.50996E-05-2.80555E-07-6.61744E-24
 -1       260 6.48221E-05-2.32919E-06-3.30872E-24
 -1       261 6.45452E-05-3.98142E-06 0.00000E+00
 -1       262 6.42690E-05-5.01280E-06 3.30872E-24
 -1       263 6.39933E-05-5.20137E-06 0.00000E+00
 -1       264 6.37169E-05-4.32828E-06 0.00000E+00
 -1       265 6.34386E-05-2.17881E-06-6.61744E-24
 -1       266 6.13840E-05-1.24437E-06 0.00000E+00
 -1       267 5.39496E-05-1.38958E-06-3.30872E-24
 -1       268 4.60411E-05-1.53836E-06-3.30872E-24
 -1       269 3.83970E-05-1.68299E-06 0.00000E+00
 -1       270 3.17549E-05-1.82099E-06 0.00000E+00
 -1       271 6.42136E-05 2.92443E-06 2.64698E-23
 -1       272 6.12531E-05 5.63094E-06-2.64698E-23
 -1       273 5.87465E-05 7.14393E-06 5.29396E-23
 -1       274 5.66321E-05 7.58868E-06 2.64698E-23
 -1       275 5.48568E-05 7.12920E-06-5.29396E-23
 -1       276 5.33499E-05 5.94856E-06 0.00000E+00
 -1       277 5.20358E-05 4.25206E-06 5.29396E-23
 -1       278 5.08329E-05 2.25740E-06-2.64698E-23
 -1       279 4.96567E-05 1.91187E-07 0.00000E+00
 -1       280 4.84222E-05-1.71808E-06 0.00000E+00
 -1       281 4.70458E-05-3.24682E-06 0.00000E+00
 -1       282 4.54485E-05-4.18049E-06 0.00000E+00
 -1       283 4.35552E-05-4.32292E-06 0.00000E+00
 -1       284 4.13082E-05-3.49385E-06 0.00000E+00
 -1       285 3.86373E-05-1.54971E-06 2.64698E-23
 -1       286 6.29474E-05 5.23547E-06 0.00000E+00
 -1       287 6.27483E-05 7.76431E-06 3.30872E-24
 -1       288 6.25512E-05 9.18614E-06 6.61744E-24
 -1       289 6.23557E-05 9.64762E-06 3.30872E-24
 -1       290 6.21604E-05 9.29802E-06 0.00000E+00
 -1       291 6.19648E-05 8.28874E-06 0.00000E+00
 -1       292 6.17687E-05 6.77309E-06 6.61744E-24
 -1       293 6.15720E-05 4.90562E-06 3.30872E-24
 -1       294 6.13750E-05 2.84192E-06-6.61744E-24
 -1       295 6.11778E-05 7.38126E-07 0.00000E+00
 -1       296 6.09807E-05-1.24961E-06 0.00000E+00
 -1       297 6.07836E-05-2.96536E-06-3.30872E-24
 -1       298 6.05868E-05-4.25398E-06 6.61744E-24
 -1       299 6.03880E-05-4.96148E-06 0.00000E+00
 -1       300 6.01900E-05-4.93544E-06 0.00000E+00
 -1       301 5.85970E-05 1.47663E-06 0.00000E+00
 -1       302 5.39961E-05 1.51195E-06-4.13590E-25
 -1       303 4.93719E-05 1.55040E-06 4.13590E-25
 -1       304 4.47448E-05 1.58948E-06 0.00000E+00
 -1       305 4.01350E-05 1.62684E-06-3.30872E-24
 -1       306 6.01000E-05 4.73109E-06 0.00000E+00
 -1       307 5.74148E-05 6.85797E-06-2.64698E-23
 -1       308 5.51312E-05 7.92797E-06 5.29396E-23
 -1       309 5.32010E-05 8.03161E-06 2.64698E-23
 -1       310 5.15857E-05 7.29424E-06 0.00000E+00
 -1       311 5.02304E-05 5.85809E-06 2.64698E-23
 -1       312 4.90750E-05 3.88633E-06 0.00000E+00
 -1       313 4.80538E-05 1.55453E-06 0.00000E+00
 -1       314 4.70974E-05-9.51118E-07 0.00000E+00
 -1       315 4.61352E-05-3.44024E-06 2.64698E-23
 -1       316 4.50964E-05-5.72325E-06-5.29396E-23
 -1       317 4.39133E-05-7.61498E-06-2.64698E-23
 -1       318 4.25199E-05-8.94230E-06 0.00000E+00
 -1       319 4.08646E-05-9.54223E-06 2.64698E-23
 -1       320 3.88827E-05-9.27996E-06 0.00000E+00
 -1       321 5.98440E-05-2.81895E-06-1.32349E-23
 -1       322 5.97309E-05-1.98205E-06 0.00000E+00
 -1       323 5.96175E-05-1.46580E-06 0.00000E+00
 -1       324 5.95071E-05-1.22041E-06 0.00000E+00
 -1       325 5.93972E-05-1.19567E-06 0.00000E+00
 -1       326 5.92878E-05-1.34104E-06 0.00000E+00
 -1       327 5.91786E-05-1.60572E-06-3.30872E-24
 -1       328 5.90694E-05-1.93872E-06 0.00000E+00
 -1       329 5.89602E-05-2.28895E-06-3.30872E-24
 -1       330 5.88511E-05-2.60531E-06 1.65436E-24
 -1       331 5.87420E-05-2.83673E-06 0.00000E+00
 -1       332 5.86328E-05-2.93228E-06 1.65436E-24
 -1       333 5.85235E-05-2.84124E-06 0.00000E+00
 -1       334 5.84134E-05-2.51316E-06-1.65436E-24
 -1       335 5.83033E-05-1.89795E-06-3.30872E-24
 -1       336 5.75769E-05-4.68682E-06 0.00000E+00
 -1       337 5.37107E-05-5.35576E-06 0.00000E+00
 -1       338 4.90242E-05-6.02738E-06-1.32349E-23
 -1       339 4.41720E-05-6.69767E-06 0.00000E+00
 -1       340 3.98104E-05-7.36655E-06 0.00000E+00
 -1       341 5.86254E-05-3.09056E-06 0.00000E+00
 -1       342 5.73635E-05-2.43419E-06 1.32349E-23
 -1       343 5.61942E-05-2.02225E-06 2.64698E-23
 -1       344 5.51025E-05-1.82363E-06 1.32349E-23
 -1       345 5.40772E-05-1.80211E-06 2.64698E-23
 -1       346 5.31037E-05-1.92004E-06 0.00000E+00
 -1       347 5.21675E-05-2.13744E-06 0.00000E+00
 -1       348 5.12532E-05-2.41313E-06 0.00000E+00
 -1       349 5.03449E-05-2.70497E-06-2.64698E-23
 -1       350 4.94270E-05-2.97059E-06 0.00000E+00
 -1       351 4.84838E-05-3.16817E-06 2.64698E-23
 -1       352 4.75008E-05-3.25641E-06 1.32349E-23
 -1       353 4.64626E-05-3.19625E-06 0.00000E+00
 -1       354 4.53607E-05-2.94820E-06 1.32349E-23
 -1       355 4.41745E-05-2.48056E-06 0.00000E+00
 -1       356 5.81646E-05 2.32136E-08 0.00000E+00
 -1       357 5.81490E-05 6.86651E-07 0.00000E+00
 -1       358 5.81332E-05 1.08858E-06 0.00000E+00
 -1       359 5.81188E-05 1.27352E-06 0.00000E+00
 -1       360 5.81045E-05 1.28601E-06 0.00000E+00
 -1       361 5.80905E-05 1.17063E-06 0.00000E+00
 -1       362 5.80766E-05 9.71988E-07 0.00000E+00
 -1       363 5.80628E-05 7.34706E-07 0.00000E+00
 -1       364 5.80490E-05 5.03410E-07-4.13590E-25
 -1       365 5.80353E-05 3.22730E-07 1.03398E-25
 -1       366 5.80218E-05 2.37287E-07 0.00000E+00
 -1       367 5.80088E-05 2.91679E-07 0.00000E+00
 -1       368 5.79960E-05 5.30480E-07 8.27181E-25
 -1       369 5.79859E-05 9.98214E-07-1.65436E-24
 -1       370 5.79750E-05 1.73942E-06-6.61744E-24
 -1       371 5.64154E-05-1.08264E-06 6.61744E-24
 -1       372 5.37353E-05-1.21748E-06 0.00000E+00
 -1       373 5.05972E-05-1.35350E-06 3.30872E-24
 -1       374 4.74508E-05-1.48799E-06 0.00000E+00
 -1       375 4.47461E-05-1.62145E-06 0.00000E+00
 -1       376 5.73643E-05-1.23989E-07 1.32349E-23
 -1       377 5.66290E-05 4.28767E-07 0.00000E+00
 -1       378 5.59780E-05 7.58525E-07 1.32349E-23
 -1       379 5.53927E-05 9.08311E-07 6.61744E-24
 -1       380 5.48575E-05 9.23949E-07 1.32349E-23
 -1       381 5.43551E-05 8.51529E-07-6.61744E-24
 -1       382 5.38680E-05 7.38014E-07 0.00000E+00
 -1       383 5.33787E-05 6.30556E-07 6.61744E-24
 -1       384 5.28694E-05 5.76286E-07-1.32349E-23
 -1       385 5.23227E-05 6.22005E-07 0.00000E+00
 -1       386 5.17215E-05 8.13619E-07 1.32349E-23
 -1       387 5.10494E-05 1.19629E-06 0.00000E+00
 -1       388 5.02896E-05 1.81325E-06 0.00000E+00
 -1       389 4.94306E-05 2.70788E-06 6.61744E-24
 -1       390 4.84517E-05 3.91768E-06 0.00000E+00
 -1       406 5.65484E-05 3.24790E-06 0.00000E+00
 -1       407 5.49434E-05 3.70016E-06-6.61744E-24
 -1       408 5.31934E-05 4.15254E-06 0.00000E+00
 -1       409 5.13278E-05 4.60385E-06 0.00000E+00
 -1       410 4.93762E-05 5.05270E-06 0.00000E+00
 -1       466 2.73689E-05 1.09546E-06 0.00000E+00
 -1       467 2.79145E-05 2.89930E-06 0.00000E+00
 -1       468 2.84607E-05 3.66514E-06 0.00000E+00
 -1       469 2.90112E-05 3.58483E-06 6.61744E-24
 -1       470 2.95618E-05 2.84339E-06 0.00000E+00
 -1       471 3.01127E-05 1.62102E-06-6.61744E-24
 -1       472 3.06635E-05 9.40569E-08 0.00000E+00
 -1       473 3.12141E-05-1.56338E-06 6.61744E-24
 -1       474 3.17648E-05-3.17826E-06 1.32349E-23
 -1       475 3.23156E-05-4.57720E-06 0.00000E+00
 -1       476 3.28666E-05-5.58509E-06-1.32349E-23
 -1       477 3.34171E-05-6.02398E-06-6.61744E-24
 -1       478 3.39670E-05-5.71131E-06 1.32349E-23
 -1       479 3.45111E-05-4.45909E-06 6.61744E-24
 -1       480 3.50542E-05-2.07167E-06 6.61744E-24
 -1       481 2.32483E-05-1.83276E-06 0.00000E+00
 -1       482 1.99506E-05-1.71293E-06 0.00000E+00
 -1       483 1.69879E-05-1.59234E-06 0.00000E+00
 -1       484 1.43913E-05-1.47006E-06 1.65436E-24
 -1       485 1.21931E-05-1.34669E-06 3.30872E-24
 -1       486 2.49770E-05 1.16810E-06 0.00000E+00
 -1       487 2.33599E-05 3.52648E-06 6.61744E-24
 -1       488 2.20019E-05 5.20181E-06 0.00000E+00
 -1       489 2.08714E-05 6.26071E-06-6.61744E-24
 -1       490 1.99436E-05 6.77999E-06-2.64698E-23
 -1       491 1.91875E-05 6.83997E-06 1.32349E-23
 -1       492 1.85713E-05 6.52648E-06 0.00000E+00
 -1       493 1.80616E-05 5.92865E-06 0.00000E+00
 -1       494 1.76238E-05 5.13880E-06 0.00000E+00
 -1       495 1.72227E-05 4.25109E-06 0.00000E+00
 -1       496 1.68228E-05 3.36073E-06 2.64698E-23
 -1       497 1.63888E-05 2.56311E-06 0.00000E+00
 -1       498 1.58851E-05 1.95232E-06-1.32349E-23
 -1       499 1.52802E-05 1.62200E-06 6.61744E-24
 -1       500 1.45363E-05 1.65984E-06 0.00000E+00
 -1       501 3.56119E-05 5.32798E-06-3.30872E-24
 -1       502 3.56761E-05 7.54618E-06 0.00000E+00
 -1       503 3.57419E-05 8.50059E-06 4.13590E-25
 -1       504 3.58100E-05 8.38239E-06 8.27181E-25
 -1       505 3.58778E-05 7.38154E-06-1.65436E-24
 -1       506 3.59451E-05 5.68726E-06 8.27181E-25
 -1       507 3.60115E-05 3.48810E-06-1.65436E-24
 -1       508 3.60773E-05 9.72071E-07 0.00000E+00
 -1       509 3.61428E-05-1.67307E-06 1.65436E-24
 -1       510 3.62084E-05-4.25968E-06 0.00000E+00
 -1       511 3.62744E-05-6.60013E-06 0.00000E+00
 -1       512 3.63408E-05-8.50649E-06-8.27181E-25
 -1       513 3.64080E-05-9.79040E-06 1.65436E-24
 -1       514 3.64735E-05-1.02630E-05 1.03398E-25
 -1       515 3.65394E-05-9.73456E-06 1.65436E-24
 -1       516 3.09550E-05 1.72731E-06-1.65436E-24
 -1       517 2.63310E-05 1.81170E-06 2.06795E-25
 -1       518 2.19889E-05 1.89670E-06 0.00000E+00
 -1       519 1.82271E-05 1.98438E-06-2.06795E-25
 -1       520 1.53454E-05 2.07528E-06 0.00000E+00
 -1       521 3.28715E-05 4.99709E-06 2.64698E-23
 -1       522 3.06087E-05 7.06670E-06 0.00000E+00
 -1       523 2.87825E-05 7.98476E-06 2.64698E-23
 -1       524 2.73348E-05 7.87360E-06 0.00000E+00
 -1       525 2.62156E-05 6.88468E-06 0.00000E+00
 -1       526 2.53614E-05 5.18344E-06 0.00000E+00
 -1       527 2.47049E-05 2.95218E-06 0.00000E+00
 -1       528 2.41743E-05 3.82872E-07-2.64698E-23
 -1       529 2.36951E-05-2.32467E-06 0.00000E+00
 -1       530 2.31923E-05-4.96799E-06 0.00000E+00
 -1       531 2.25908E-05-7.34625E-06 0.00000E+00
 -1       532 2.18185E-05-9.26326E-06 2.64698E-23
 -1       533 2.08050E-05-1.05339E-05 0.00000E+00
 -1       534 1.94914E-05-1.09830E-05 1.32349E-23
 -1       535 1.78103E-05-1.04590E-05-2.64698E-23
 -1       536 3.69567E-05-5.92379E-06 0.00000E+00
 -1       537 3.73515E-05-4.37565E-06 3.30872E-24
 -1       538 3.77461E-05-3.29730E-06 0.00000E+00
 -1       539 3.81455E-05-2.61785E-06-6.61744E-24
 -1       540 3.85456E-05-2.26882E-06 0.00000E+00
 -1       541 3.89466E-05-2.18346E-06-6.61744E-24
 -1       542 3.93478E-05-2.29656E-06 0.00000E+00
 -1       543 3.97491E-05-2.54396E-06 6.61744E-24
 -1       544 4.01504E-05-2.86228E-06 0.00000E+00
 -1       545 4.05517E-05-3.18855E-06-6.61744E-24
 -1       546 4.09528E-05-3.45981E-06 0.00000E+00
 -1       547 4.13535E-05-3.61283E-06 0.00000E+00
 -1       548 4.17540E-05-3.58368E-06 0.00000E+00
 -1       549 4.21517E-05-3.30746E-06 0.00000E+00
 -1       550 4.25499E-05-2.71782E-06 0.00000E+00
 -1       551 3.34945E-05-8.15003E-06-3.61892E-24
 -1       552 3.00573E-05-8.28022E-06-2.48154E-24
 -1       553 2.64203E-05-8.40986E-06 3.30872E-24
 -1       554 2.27279E-05-8.53993E-06 0.00000E+00
 -1       555 1.91247E-05-8.67144E-06-1.32349E-23
 -1       556 3.55823E-05-6.12486E-06 0.00000E+00
 -1       557 3.47444E-05-4.68579E-06 0.00000E+00
 -1       558 3.40572E-05-3.64661E-06 0.00000E+00
 -1       559 3.35000E-05-2.95265E-06 0.00000E+00
 -1       560 3.30518E-05-2.54906E-06 0.00000E+00
 -1       561 3.26921E-05-2.38055E-06 0.00000E+00
 -1       562 3.23998E-05-2.39176E-06 0.00000E+00
 -1       563 3.21541E-05-2.52728E-06 0.00000E+00
 -1       564 3.19343E-05-2.73162E-06 0.00000E+00
 -1       565 3.17195E-05-2.94930E-06 0.00000E+00
 -1       566 3.14890E-05-3.12482E-06 0.00000E+00
 -1       567 3.12220E-05-3.20271E-06-1.65436E-24
 -1       568 3.08978E-05-3.12749E-06-6.61744E-24
 -1       569 3.04963E-05-2.84381E-06-7.23783E-25
 -1       570 2.99974E-05-2.29641E-06-3.30872E-24
 -1       571 4.31941E-05-8.55665E-07-2.06795E-24
 -1       572 4.34683E-05-2.30519E-07 2.48154E-24
 -1       573 4.37454E-05 1.71232E-07 0.00000E+00
 -1       574 4.40240E-05 3.94284E-07-1.65436E-24
 -1       575 4.43031E-05 4.83428E-07 0.00000E+00
 -1       576 4.45825E-05 4.83652E-07-3.30872E-24
 -1       577 4.48620E-05 4.39944E-07-6.61744E-24
 -1       578 4.51415E-05 3.97304E-07 0.00000E+00
 -1       579 4.54211E-05 4.00734E-07 1.32349E-23
 -1       580 4.57006E-05 4.95248E-07 0.00000E+00
 -1       581 4.59800E-05 7.25867E-07 1.32349E-23
 -1       582 4.62593E-05 1.13762E-06 0.00000E+00
 -1       583 4.65384E-05 1.77554E-06 0.00000E+00
 -1       584 4.68168E-05 2.68441E-06 0.00000E+00
 -1       585 4.70942E-05 3.90894E-06 0.00000E+00
 -1       586 4.09838E-05-1.69357E-06 6.61744E-24
 -1       587 3.87011E-05-1.63892E-06 3.30872E-24
 -1       588 3.62403E-05-1.58436E-06 0.00000E+00
 -1       589 3.37616E-05-1.53037E-06 0.00000E+00
 -1       590 3.14249E-05-1.47759E-06 0.00000E+00
 -1       591 4.23838E-05-7.96728E-07-6.61744E-24
 -1       592 4.18942E-05-2.71758E-08 0.00000E+00
 -1       593 4.14600E-05 5.89647E-07-6.61744E-24
 -1       594 4.10719E-05 1.08083E-06-3.30872E-24
 -1       595 4.07205E-05 1.47347E-06 0.00000E+00
 -1       596 4.03957E-05 1.79463E-06 0.00000E+00
 -1       597 4.00876E-05 2.07136E-06-6.61744E-24
 -1       598 3.97860E-05 2.33072E-06 0.00000E+00
 -1       599 3.94808E-05 2.59977E-06 3.30872E-24
 -1       600 3.91618E-05 2.90556E-06 1.65436E-24
 -1       601 3.88189E-05 3.27514E-06 0.00000E+00
 -1       602 3.84422E-05 3.73557E-06-1.65436E-24
 -1       603 3.80215E-05 4.31392E-06-3.30872E-24
 -1       604 3.75478E-05 5.03733E-06 0.00000E+00
 -1       605 3.70120E-05 5.93297E-06 0.00000E+00
 -1       606 4.74418E-05 7.56581E-06 0.00000E+00
 -1       607 4.75085E-05 9.83959E-06 0.00000E+00
 -1       608 4.75732E-05 1.23007E-05 0.00000E+00
 -1       609 4.76366E-05 1.49358E-05 0.00000E+00
 -1       610 4.76994E-05 1.77319E-05 6.61744E-24
 -1       611 4.77617E-05 2.06752E-05 0.00000E+00
 -1       612 4.78235E-05 2.37526E-05 0.00000E+00
 -1       613 4.78850E-05 2.69504E-05 0.00000E+00
 -1       614 4.79461E-05 3.02553E-05 0.00000E+00
 -1       615 4.80069E-05 3.36538E-05 0.00000E+00
 -1       616 4.80674E-05 3.71324E-05 0.00000E+00
 -1       617 4.81277E-05 4.06779E-05 3.30872E-24
 -1       618 4.81878E-05 4.42766E-05 0.00000E+00
 -1       619 4.82476E-05 4.79152E-05 0.00000E+00
 -1       620 4.83072E-05 5.15803E-05 0.00000E+00
 -1       621 4.53491E-05 5.74792E-06 0.00000E+00
 -1       622 4.33672E-05 6.00651E-06 0.00000E+00
 -1       623 4.14528E-05 6.26536E-06 6.61744E-24
 -1       624 3.96359E-05 6.52364E-06 0.00000E+00
 -1       625 3.79467E-05 6.78033E-06 0.00000E+00
 -1       626 4.67163E-05 7.65630E-06 0.00000E+00
 -1       627 4.59778E-05 1.00405E-05 0.00000E+00
 -1       628 4.51635E-05 1.26231E-05 0.00000E+00
 -1       629 4.42826E-05 1.53811E-05 0.00000E+00
 -1       630 4.33439E-05 1.82914E-05 0.00000E+00
 -1       631 4.23565E-05 2.13305E-05 6.61744E-24
 -1       632 4.13292E-05 2.44750E-05 0.00000E+00
 -1       633 4.02708E-05 2.77016E-05 3.30872E-24
 -1       634 3.91902E-05 3.09868E-05-6.61744E-24
 -1       635 3.80962E-05 3.43074E-05 1.65436E-24
 -1       636 3.69977E-05 3.76398E-05 0.00000E+00
 -1       637 3.59034E-05 4.09608E-05 1.65436E-24
 -1       638 3.48221E-05 4.42469E-05 0.00000E+00
 -1       639 3.37621E-05 4.74748E-05-8.27181E-25
 -1       640 3.27318E-05 5.06208E-05 4.13590E-25
 -1       641 4.83659E-05 5.90342E-05 0.00000E+00
 -1       642 4.83629E-05 6.30646E-05 0.00000E+00
 -1       643 4.83591E-05 6.73159E-05 4.13590E-25
 -1       644 4.83543E-05 7.17546E-05-2.06795E-25
 -1       645 4.83487E-05 7.63471E-05 0.00000E+00
 -1       646 4.83425E-05 8.10598E-05 0.00000E+00
 -1       647 4.83359E-05 8.58591E-05 2.06795E-25
 -1       648 4.83290E-05 9.07113E-05-5.16988E-26
 -1       649 4.83221E-05 9.55830E-05 0.00000E+00
 -1       650 4.83152E-05 1.00440E-04-5.16988E-26
 -1       651 4.83084E-05 1.05250E-04 2.58494E-26
 -1       652 4.83019E-05 1.09979E-04 0.00000E+00
 -1       653 4.82958E-05 1.14592E-04 0.00000E+00
 -1       654 4.82895E-05 1.19057E-04 0.00000E+00
 -1       655 4.82841E-05 1.23340E-04 1.65436E-24
 -1       656 4.50133E-05 5.49992E-05 0.00000E+00
 -1       657 4.20999E-05 5.47285E-05 3.30872E-24
 -1       658 3.94713E-05 5.44592E-05 0.00000E+00
 -1       659 3.69719E-05 5.41900E-05 0.00000E+00
 -1       660 3.44453E-05 5.39201E-05 0.00000E+00
 -1       661 4.72382E-05 5.91401E-05 0.00000E+00
 -1       662 4.60280E-05 6.32715E-05-3.30872E-24
 -1       663 4.47390E-05 6.76090E-05 6.61744E-24
 -1       664 4.33879E-05 7.21153E-05 0.00000E+00
 -1       665 4.19873E-05 7.67522E-05-6.61744E-24
 -1       666 4.05513E-05 8.14831E-05 0.00000E+00
 -1       667 3.90935E-05 8.62715E-05 6.61744E-24
 -1       668 3.76277E-05 9.10815E-05-3.30872E-24
 -1       669 3.61673E-05 9.58768E-05 0.00000E+00
 -1       670 3.47260E-05 1.00622E-04 0.00000E+00
 -1       671 3.33176E-05 1.05280E-04 0.00000E+00
 -1       672 3.19558E-05 1.09814E-04 3.30872E-24
 -1       673 3.06547E-05 1.14188E-04 6.61744E-24
 -1       674 2.94266E-05 1.18361E-04-3.30872E-24
 -1       675 2.82894E-05 1.22297E-04 3.30872E-24
 -1       676 4.44494E-05 1.27166E-04-6.61744E-24
 -1       677 4.08221E-05 1.26920E-04 0.00000E+00
 -1       678 3.73405E-05 1.26675E-04 6.61744E-24
 -1       679 3.39519E-05 1.26431E-04 0.00000E+00
 -1       680 3.06032E-05 1.26187E-04 0.00000E+00
 -1       681 1.06218E-05 1.02707E-07 0.00000E+00
 -1       682 1.08237E-05 1.04794E-06 3.30872E-24
 -1       683 1.10256E-05 1.66320E-06-6.61744E-24
 -1       684 1.12286E-05 1.99949E-06-3.30872E-24
 -1       685 1.14317E-05 2.10691E-06 6.61744E-24
 -1       686 1.16349E-05 2.03502E-06 3.30872E-24
 -1       687 1.18382E-05 1.83280E-06 0.00000E+00
 -1       688 1.20414E-05 1.54889E-06 0.00000E+00
 -1       689 1.22446E-05 1.23170E-06 6.61744E-24
 -1       690 1.24478E-05 9.29535E-07 0.00000E+00
 -1       691 1.26509E-05 6.90756E-07 0.00000E+00
 -1       692 1.28535E-05 5.63885E-07-3.30872E-24
 -1       693 1.30560E-05 5.97784E-07 0.00000E+00
 -1       694 1.32562E-05 8.41732E-07 0.00000E+00
 -1       695 1.34568E-05 1.34566E-06 1.65436E-24
 -1       696 8.76430E-06-1.02551E-06 3.30872E-24
 -1       697 6.93959E-06-8.21705E-07 0.00000E+00
 -1       698 5.05107E-06-6.18131E-07-6.61744E-24
 -1       699 3.19839E-06-4.13232E-07 0.00000E+00
 -1       700 1.48138E-06-2.08078E-07 6.61744E-24
 -1       701 9.70640E-06 8.61811E-08 0.00000E+00
 -1       702 9.08256E-06 1.10644E-06 0.00000E+00
 -1       703 8.55585E-06 1.86998E-06 6.61744E-24
 -1       704 8.11265E-06 2.40541E-06 0.00000E+00
 -1       705 7.74331E-06 2.74373E-06 0.00000E+00
 -1       706 7.43597E-06 2.91586E-06 0.00000E+00
 -1       707 7.17903E-06 2.95348E-06-6.61744E-24
 -1       708 6.96048E-06 2.88861E-06-3.30872E-24
 -1       709 6.76822E-06 2.75363E-06 0.00000E+00
 -1       710 6.59006E-06 2.58118E-06 0.00000E+00
 -1       711 6.41374E-06 2.40399E-06 6.61744E-24
 -1       712 6.22725E-06 2.25493E-06 0.00000E+00
 -1       713 6.01816E-06 2.16658E-06 0.00000E+00
 -1       714 5.77604E-06 2.17206E-06 0.00000E+00
 -1       715 5.48643E-06 2.30261E-06 0.00000E+00
 -1       716 1.37667E-05 2.73979E-06-1.03398E-25
 -1       717 1.39006E-05 2.59649E-06 8.27181E-25
 -1       718 1.40339E-05 1.85067E-06 0.00000E+00
 -1       719 1.41685E-05 6.22034E-07 0.00000E+00
 -1       720 1.43029E-05-9.70743E-07 3.30872E-24
 -1       721 1.44371E-05-2.80960E-06-1.65436E-24
 -1       722 1.45712E-05-4.77694E-06-3.30872E-24
 -1       723 1.47053E-05-6.75547E-06 0.00000E+00
 -1       724 1.48396E-05-8.62785E-06 3.30872E-24
 -1       725 1.49742E-05-1.02766E-05-1.65436E-24
 -1       726 1.51091E-05-1.15837E-05 0.00000E+00
 -1       727 1.52439E-05-1.24307E-05 1.65436E-24
 -1       728 1.53786E-05-1.26980E-05-3.30872E-24
 -1       729 1.55103E-05-1.22652E-05 0.00000E+00
 -1       730 1.56418E-05-1.10104E-05 1.65436E-24
 -1       731 1.23815E-05 2.22535E-06 4.13590E-25
 -1       732 1.07576E-05 2.29832E-06 0.00000E+00
 -1       733 8.99700E-06 2.37081E-06 0.00000E+00
 -1       734 7.32520E-06 2.44477E-06 0.00000E+00
 -1       735 5.96767E-06 2.51932E-06-1.65436E-24
 -1       736 1.27895E-05 2.75251E-06 0.00000E+00
 -1       737 1.20495E-05 2.98313E-06 0.00000E+00
 -1       738 1.14302E-05 2.89466E-06 0.00000E+00
 -1       739 1.09134E-05 2.52377E-06-6.61744E-24
 -1       740 1.04864E-05 1.91235E-06 0.00000E+00
 -1       741 1.01328E-05 1.10319E-06 6.61744E-24
 -1       742 9.83638E-06 1.41319E-07-1.32349E-23
 -1       743 9.57968E-06-9.27145E-07 6.61744E-24
 -1       744 9.34518E-06-2.05495E-06 0.00000E+00
 -1       745 9.11510E-06-3.19436E-06-6.61744E-24
 -1       746 8.87157E-06-4.29756E-06 0.00000E+00
 -1       747 8.59718E-06-5.31690E-06-6.61744E-24
 -1       748 8.27421E-06-6.20578E-06 0.00000E+00
 -1       749 7.88802E-06-6.91772E-06 0.00000E+00
 -1       750 7.41879E-06-7.41012E-06 0.00000E+00
 -1       751 1.65544E-05-6.43536E-06 0.00000E+00
 -1       752 1.74056E-05-4.68034E-06-6.61744E-24
 -1       753 1.82560E-05-3.45416E-06 2.64698E-23
 -1       754 1.91148E-05-2.67144E-06 1.32349E-23
 -1       755 1.99747E-05-2.25241E-06-2.64698E-23
 -1       756 2.08361E-05-2.12143E-06-1.32349E-23
 -1       757 2.16979E-05-2.20647E-06-2.64698E-23
 -1       758 2.25599E-05-2.43799E-06 1.32349E-23
 -1       759 2.34219E-05-2.74826E-06 0.00000E+00
 -1       760 2.42837E-05-3.07049E-06 1.32349E-23
 -1       761 2.51453E-05-3.33801E-06 0.00000E+00
 -1       762 2.60057E-05-3.48353E-06-1.32349E-23
 -1       763 2.68654E-05-3.43824E-06 0.00000E+00
 -1       764 2.77187E-05-3.13114E-06 0.00000E+00
 -1       765 2.85730E-05-2.48796E-06 0.00000E+00
 -1       766 1.32229E-05-8.63122E-06 1.65436E-24
 -1       767 1.10899E-05-8.43018E-06 0.00000E+00
 -1       768 9.37031E-06-8.22939E-06-3.30872E-24
 -1       769 8.08108E-06-8.02707E-06 8.27181E-25
 -1       770 7.24058E-06-7.82335E-06 2.06795E-25
 -1       771 1.41613E-05-6.59063E-06 0.00000E+00
 -1       772 1.26813E-05-4.71692E-06 1.32349E-23
 -1       773 1.13175E-05-3.16177E-06 0.00000E+00
 -1       774 1.00619E-05-1.89917E-06-1.32349E-23
 -1       775 8.90602E-06-9.03102E-07 0.00000E+00
 -1       776 7.84034E-06-1.47474E-07 1.32349E-23
 -1       777 6.85509E-06 3.93905E-07 5.29396E-23
 -1       778 5.94046E-06 7.47334E-07-1.32349E-23
 -1       779 5.08651E-06 9.39192E-07 2.64698E-23
 -1       780 4.28335E-06 9.95977E-07 0.00000E+00
 -1       781 3.52102E-06 9.44246E-07 0.00000E+00
 -1       782 2.78972E-06 8.10673E-07 0.00000E+00
 -1       783 2.07966E-06 6.21989E-07 2.64698E-23
 -1       784 1.38199E-06 4.05272E-07 6.61744E-24
 -1       785 6.88145E-07 1.87712E-07 1.32349E-23
 -1       786 2.98039E-05-2.79612E-07 6.61744E-24
 -1       787 3.02426E-05 6.12973E-07 0.00000E+00
 -1       788 3.06808E-05 1.28714E-06-1.32349E-23
 -1       789 3.11227E-05 1.78180E-06 6.61744E-24
 -1       790 3.15650E-05 2.13465E-06-1.32349E-23
 -1       791 3.20080E-05 2.38261E-06 0.00000E+00
 -1       792 3.24512E-05 2.56191E-06 1.32349E-23
 -1       793 3.28945E-05 2.70834E-06 6.61744E-24
 -1       794 3.33378E-05 2.85754E-06 0.00000E+00
 -1       795 3.37811E-05 3.04511E-06 6.61744E-24
 -1       796 3.42243E-05 3.30692E-06 0.00000E+00
 -1       797 3.46669E-05 3.67929E-06-6.61744E-24
 -1       798 3.51092E-05 4.19924E-06 0.00000E+00
 -1       799 3.55490E-05 4.90464E-06 0.00000E+00
 -1       800 3.59890E-05 5.83459E-06 6.61744E-24
 -1       801 2.62780E-05-1.19058E-06-3.30872E-24
 -1       802 2.06443E-05-9.46670E-07 0.00000E+00
 -1       803 1.38441E-05-7.10036E-07 0.00000E+00
 -1       804 7.23230E-06-4.74030E-07 1.65436E-24
 -1       805 2.16436E-06-2.29156E-07 0.00000E+00
 -1       806 2.86059E-05-4.07664E-07 0.00000E+00
 -1       807 2.78624E-05 4.77003E-07 6.61744E-24
 -1       808 2.71583E-05 1.24901E-06 0.00000E+00
 -1       809 2.64862E-05 1.93197E-06 6.61744E-24
 -1       810 2.58382E-05 2.54948E-06 0.00000E+00
 -1       811 2.52058E-05 3.12499E-06 6.61744E-24
 -1       812 2.45802E-05 3.68194E-06-1.32349E-23
 -1       813 2.39528E-05 4.24373E-06 0.00000E+00
 -1       814 2.33147E-05 4.83379E-06-1.32349E-23
 -1       815 2.26573E-05 5.47551E-06 0.00000E+00
 -1       816 2.19718E-05 6.19229E-06 1.32349E-23
 -1       817 2.12495E-05 7.00753E-06 0.00000E+00
 -1       818 2.04819E-05 7.94461E-06 0.00000E+00
 -1       819 1.96613E-05 9.02702E-06-3.30872E-24
 -1       820 1.87803E-05 1.02783E-05 6.61744E-24
 -1       821 3.61398E-05 8.56175E-06 3.30872E-24
 -1       822 3.58498E-05 1.04469E-05-3.30872E-24
 -1       823 3.55598E-05 1.26520E-05 0.00000E+00
 -1       824 3.52665E-05 1.51425E-05-3.30872E-24
 -1       825 3.49724E-05 1.78831E-05-6.61744E-24
 -1       826 3.46772E-05 2.08372E-05-3.30872E-24
 -1       827 3.43814E-05 2.39672E-05 0.00000E+00
 -1       828 3.40850E-05 2.72353E-05 0.00000E+00
 -1       829 3.37884E-05 3.06026E-05-6.61744E-24
 -1       830 3.34916E-05 3.40301E-05 3.30872E-24
 -1       831 3.31949E-05 3.74786E-05-6.61744E-24
 -1       832 3.28986E-05 4.09085E-05-3.30872E-24
 -1       833 3.26027E-05 4.42806E-05-6.61744E-24
 -1       834 3.23092E-05 4.75557E-05-3.30872E-24
 -1       835 3.20157E-05 5.06953E-05 3.30872E-24
 -1       836 3.43234E-05 7.79719E-06 0.00000E+00
 -1       837 3.11589E-05 8.59121E-06 6.61744E-24
 -1       838 2.74270E-05 9.38180E-06 1.32349E-23
 -1       839 2.36292E-05 1.01712E-05 0.00000E+00
 -1       840 2.02658E-05 1.09638E-05 1.32349E-23
 -1       841 3.56998E-05 8.53281E-06 0.00000E+00
 -1       842 3.48301E-05 1.04212E-05-1.65436E-24
 -1       843 3.38298E-05 1.26571E-05 0.00000E+00
 -1       844 3.27127E-05 1.51977E-05 1.65436E-24
 -1       845 3.14963E-05 1.80009E-05 0.00000E+00
 -1       846 3.01966E-05 2.10233E-05-1.65436E-24
 -1       847 2.88304E-05 2.42212E-05 0.00000E+00
 -1       848 2.74145E-05 2.75506E-05 0.00000E+00
 -1       849 2.59655E-05 3.09670E-05 0.00000E+00
 -1       850 2.45006E-05 3.44257E-05-1.65436E-24
 -1       851 2.30364E-05 3.78821E-05 3.30872E-24
 -1       852 2.15903E-05 4.12916E-05 0.00000E+00
 -1       853 2.01788E-05 4.46093E-05 0.00000E+00
 -1       854 1.88193E-05 4.77912E-05 0.00000E+00
 -1       855 1.75278E-05 5.07929E-05 0.00000E+00
 -1       856 3.14721E-05 5.67902E-05 0.00000E+00
 -1       857 3.11951E-05 6.04022E-05 3.30872E-24
 -1       858 3.09169E-05 6.44368E-05 6.61744E-24
 -1       859 3.06353E-05 6.88319E-05-3.30872E-24
 -1       860 3.03522E-05 7.35239E-05 0.00000E+00
 -1       861 3.00677E-05 7.84483E-05 3.30872E-24
 -1       862 2.97823E-05 8.35395E-05-6.61744E-24
 -1       863 2.94963E-05 8.87316E-05-3.30872E-24
 -1       864 2.92102E-05 9.39577E-05-6.61744E-24
 -1       865 2.89242E-05 9.91515E-05 0.00000E+00
 -1       866 2.86388E-05 1.04246E-04 0.00000E+00
 -1       867 2.83545E-05 1.09176E-04 0.00000E+00
 -1       868 2.80713E-05 1.13875E-04 0.00000E+00
 -1       869 2.77907E-05 1.18279E-04 0.00000E+00
 -1       870 2.75113E-05 1.22325E-04 6.61744E-24
 -1       871 2.90436E-05 5.36483E-05 0.00000E+00
 -1       872 2.64458E-05 5.36343E-05 0.00000E+00
 -1       873 2.39089E-05 5.36201E-05 0.00000E+00
 -1       874 2.13989E-05 5.36055E-05-4.13590E-25
 -1       875 1.88817E-05 5.35902E-05 8.27181E-25
 -1       876 3.08926E-05 5.68770E-05 0.00000E+00
 -1       877 2.99054E-05 6.05147E-05-3.30872E-24
 -1       878 2.87814E-05 6.45114E-05-6.61744E-24
 -1       879 2.75445E-05 6.88125E-05 0.00000E+00
 -1       880 2.62130E-05 7.33630E-05 0.00000E+00
 -1       881 2.48073E-05 7.81101E-05 0.00000E+00
 -1       882 2.33465E-05 8.30022E-05 0.00000E+00
 -1       883 2.18500E-05 8.79883E-05 0.00000E+00
 -1       884 2.03370E-05 9.30178E-05 0.00000E+00
 -1       885 1.88265E-05 9.80407E-05 6.61744E-24
 -1       886 1.73374E-05 1.03007E-04 0.00000E+00
 -1       887 1.58888E-05 1.07865E-04 0.00000E+00
 -1       888 1.45003E-05 1.12565E-04 0.00000E+00
 -1       889 1.31892E-05 1.17054E-04 3.30872E-24
 -1       890 1.19788E-05 1.21279E-04 0.00000E+00
 -1       891 2.41845E-05 1.25821E-04 3.30872E-24
 -1       892 2.15929E-05 1.25692E-04 0.00000E+00
 -1       893 1.92166E-05 1.25564E-04 0.00000E+00
 -1       894 1.68048E-05 1.25436E-04 0.00000E+00
 -1       895 1.41070E-05 1.25307E-04 1.65436E-24
 -1       896 3.19755E-07 1.15881E-06-6.61744E-24
 -1       897 6.42295E-07 2.02034E-06 3.30872E-24
 -1       898 9.64942E-07 2.62227E-06-1.32349E-23
 -1       899 1.28810E-06 3.00127E-06 0.00000E+00
 -1       900 1.61136E-06 3.19294E-06 0.00000E+00
 -1       901 1.93471E-06 3.23212E-06 6.61744E-24
 -1       902 2.25807E-06 3.15290E-06 0.00000E+00
 -1       903 2.58142E-06 2.98885E-06-6.61744E-24
 -1       904 2.90474E-06 2.77316E-06 0.00000E+00
 -1       905 3.22800E-06 2.53881E-06 6.61744E-24
 -1       906 3.55118E-06 2.31867E-06 1.32349E-23
 -1       907 3.87405E-06 2.14568E-06 3.30872E-24
 -1       908 4.19675E-06 2.05299E-06 0.00000E+00
 -1       909 4.51773E-06 2.07411E-06-3.30872E-24
 -1       910 4.83905E-06 2.24310E-06 6.61744E-24
 -1       911 5.25714E-06 2.86988E-06-3.30872E-24
 -1       912 5.36599E-06 2.81855E-06-1.65436E-24
 -1       913 5.47476E-06 2.48518E-06 0.00000E+00
 -1       914 5.58367E-06 1.91413E-06 0.00000E+00
 -1       915 5.69248E-06 1.14935E-06-3.30872E-24
 -1       916 5.80123E-06 2.34535E-07-1.65436E-24
 -1       917 5.90987E-06-7.86860E-07 3.30872E-24
 -1       918 6.01845E-06-1.87156E-06 0.00000E+00
 -1       919 6.12699E-06-2.97636E-06-3.30872E-24
 -1       920 6.23547E-06-4.05810E-06-1.65436E-24
 -1       921 6.34393E-06-5.07358E-06-3.30872E-24
 -1       922 6.45213E-06-5.97951E-06 0.00000E+00
 -1       923 6.56023E-06-6.73240E-06-1.65436E-24
 -1       924 6.66652E-06-7.28860E-06 0.00000E+00
 -1       925 6.77329E-06-7.60406E-06 0.00000E+00
 -1       926 6.45018E-06-7.44468E-06 0.00000E+00
 -1       927 6.02153E-06-7.14570E-06-6.61744E-24
 -1       928 5.59320E-06-6.75161E-06 1.32349E-23
 -1       929 5.16310E-06-6.27702E-06 0.00000E+00
 -1       930 4.73279E-06-5.73703E-06 0.00000E+00
 -1       931 4.30213E-06-5.14713E-06 6.61744E-24
 -1       932 3.87137E-06-4.52308E-06-1.32349E-23
 -1       933 3.44053E-06-3.88089E-06 6.61744E-24
 -1       934 3.00968E-06-3.23664E-06 0.00000E+00
 -1       935 2.57885E-06-2.60646E-06 6.61744E-24
 -1       936 2.14805E-06-2.00635E-06 1.32349E-23
 -1       937 1.71737E-06-1.45217E-06 6.61744E-24
 -1       938 1.28679E-06-9.59485E-07 1.32349E-23
 -1       939 8.56781E-07-5.43497E-07 0.00000E+00
 -1       940 4.26700E-07-2.18949E-07 0.00000E+00
 -1       941 1.05423E-06 1.82151E-07-1.32349E-23
 -1       942 2.16981E-06 4.08794E-07-1.32349E-23
 -1       943 3.28338E-06 6.83031E-07-2.64698E-23
 -1       944 4.40697E-06 1.00869E-06-1.32349E-23
 -1       945 5.53163E-06 1.39042E-06-2.64698E-23
 -1       946 6.65814E-06 1.83373E-06 1.32349E-23
 -1       947 7.78505E-06 2.34513E-06 2.64698E-23
 -1       948 8.91223E-06 2.93215E-06 0.00000E+00
 -1       949 1.00394E-05 3.60357E-06 2.64698E-23
 -1       950 1.11663E-05 4.36944E-06 1.32349E-23
 -1       951 1.22927E-05 5.24132E-06 2.64698E-23
 -1       952 1.34176E-05 6.23242E-06 0.00000E+00
 -1       953 1.45414E-05 7.35785E-06-2.64698E-23
 -1       954 1.56570E-05 8.63476E-06-1.32349E-23
 -1       955 1.67741E-05 1.00828E-05 1.32349E-23
 -1       956 1.77500E-05 1.36125E-05 8.27181E-25
 -1       957 1.76568E-05 1.56705E-05 0.00000E+00
 -1       958 1.75629E-05 1.78837E-05 0.00000E+00
 -1       959 1.74685E-05 2.02365E-05 8.27181E-25
 -1       960 1.73738E-05 2.27130E-05-4.13590E-25
 -1       961 1.72788E-05 2.52974E-05 1.55096E-24
 -1       962 1.71835E-05 2.79737E-05-3.30872E-24
 -1       963 1.70881E-05 3.07261E-05 0.00000E+00
 -1       964 1.69925E-05 3.35386E-05-1.65436E-24
 -1       965 1.68968E-05 3.63953E-05 8.27181E-25
 -1       966 1.68010E-05 3.92802E-05 0.00000E+00
 -1       967 1.67052E-05 4.21774E-05-1.65436E-24
 -1       968 1.66094E-05 4.50710E-05-3.30872E-24
 -1       969 1.65137E-05 4.79451E-05 0.00000E+00
 -1       970 1.64183E-05 5.07838E-05 0.00000E+00
 -1       971 1.59987E-05 5.65376E-05-6.61744E-24
 -1       972 1.56617E-05 5.99850E-05 0.00000E+00
 -1       973 1.53236E-05 6.38581E-05-6.61744E-24
 -1       974 1.49823E-05 6.80993E-05 0.00000E+00
 -1       975 1.46395E-05 7.26489E-05 0.00000E+00
 -1       976 1.42953E-05 7.74460E-05 6.61744E-24
 -1       977 1.39501E-05 8.24286E-05 0.00000E+00
 -1       978 1.36043E-05 8.75337E-05 0.00000E+00
 -1       979 1.32582E-05 9.26978E-05-1.32349E-23
 -1       980 1.29122E-05 9.78571E-05 0.00000E+00
 -1       981 1.25666E-05 1.02948E-04-1.32349E-23
 -1       982 1.22220E-05 1.07906E-04 0.00000E+00
 -1       983 1.18786E-05 1.12670E-04 0.00000E+00
 -1       984 1.15383E-05 1.17177E-04-3.30872E-24
 -1       985 1.11989E-05 1.21367E-04-6.61744E-24
 -3
    1PSTEP                         2           1           1          
  100CL  101 1.000000000         841                     0    1           1
 -4  STRESS      6    1
 -5  SXX         1    4    1    1
 -5  SYY         1    4    2    2
 -5  SZZ         1    4    3    3
 -5  SXY         1    4    1    2
 -5  SYZ         1    4    2    3
 -5  SZX         1    4    3    1
 -1         1-2.71068E+06-8.19156E+05-4.23830E+05-9.00869E+05-2.42532E-11-7.16924E-09
 -1         2-1.73025E+06-2.33771E+04 2.76490E+03-1.71309E+05-1.81899E-12 2.71029E-10
 -1         3-8.02526E+05-4.83555E+05-6.42427E+02-1.01598E+05-2.56250E-10 3.00088E-09
 -1         4-2.53387E+05-1.23550E+05 3.26762E+02-4.25666E+04 2.96097E-10 2.29238E-09
 -1         5-2.18929E+04 5.19634E+05-1.28291E+05-6.34168E+03 1.39335E-09 9.87495E-09
 -1         8-1.23274E+06-5.65016E+05-1.62421E+05-7.81071E+05 1.63709E-10 5.30417E-09
 -1         9-1.59461E+06-3.27861E+05-2.10658E+05-4.67026E+05 7.96717E-10-8.45830E-11
 -1        10-8.97606E+05-7.11040E+05-1.09995E+03-3.22512E+05-1.61936E-09 1.63179E-09
 -1        11-4.04883E+05-1.99264E+05 6.85077E+01-1.67796E+05 3.42197E-09-1.15809E-09
 -1        12-1.18772E+05 4.84344E+05-1.44581E+05-5.39223E+04 6.84258E-09 3.21158E-09
 -1        15-4.40839E+03-4.87260E+04 2.43852E+03-2.39346E+05-2.71029E-10-5.67525E-10
 -1        16-9.45695E+05-2.79196E+05-1.38781E+05-4.61891E+05 2.14701E-09 1.63224E-09
 -1        17-6.03716E+05-5.52438E+05-8.30651E+04-4.61232E+05-3.63737E-09-1.36060E-09
 -1        18-1.43790E+05-1.53066E+05-6.81276E+04-3.34884E+05 1.40426E-09-1.15809E-09
 -1        19 3.33397E+04 2.39303E+05-6.94576E+04-8.21702E+04 5.53973E-09 2.28162E-09
 -1        20 1.90826E+05-1.32678E+05-1.69765E+04 1.00214E+05 9.41873E-09-2.76486E-10
 -1        21-3.40950E+04-3.05091E+05-1.44859E+03 2.14454E+04 4.77794E-08-5.42894E-09
 -1        22 3.65195E+04 1.95908E+05 1.02089E+03-5.94925E+04 1.40517E-10-1.37334E-09
 -1        23-3.09566E+05-2.40447E+04 2.16461E+03-2.19136E+05 6.53320E-11 4.64449E-10
 -1        24-2.61773E+05-3.44721E+04 1.17794E+05-4.06815E+05-7.14256E-10-7.46998E-10
 -1        25 4.70266E+05 2.25604E+05 1.88405E+05-3.55794E+05 1.51582E-09-1.09018E-09
 -1        26 4.75415E+04 4.41376E+05 5.15580E+04-1.08487E+05 1.57555E-09-1.31210E-09
 -1        27-1.18996E+05-1.22302E+05-5.79696E+04 1.18731E+05 3.34391E-09-3.65617E-09
 -1        28-3.18202E+04-2.07783E+05-1.82121E+03 9.93009E+04 2.75195E-08-3.68573E-10
 -1        29 4.44784E+05 3.14836E+05 1.16707E+03-3.33728E+04 5.08891E-11-3.13776E-11
 -1        30 1.73474E+05 3.97825E+04 1.47541E+03-7.43574E+04-1.38733E-10-1.50067E-10
 -1        31-5.33217E+05 4.44518E+04 3.11202E+03-1.23792E+05-7.69575E-10 6.91216E-11
 -1        32 2.22380E+05 3.32794E+05 3.10183E+05-3.25131E+05 1.19559E-09 2.80852E-09
 -1        33 7.05204E+05 7.14300E+05 3.16712E+05-1.33223E+05-3.72964E-10-8.73115E-10
 -1        34-3.92499E+05-7.63334E+04-4.92064E+04 3.42531E+04 9.00879E-09-2.45382E-09
 -1        35-4.95760E+04-6.63820E+04-1.40045E+03 1.35049E+05 3.17622E-08-4.88217E-09
 -1        36-3.75865E+06 6.43295E+04-2.13891E+05 2.35577E-08-7.36724E-10-1.58616E-09
 -1        37-3.84061E+06-7.94763E+04-1.41634E+05 1.44282E-08 1.26241E-09 1.60253E-09
 -1        38-3.79213E+06 7.60991E+03-5.55202E+04 2.85960E-08-4.81455E-10 3.10320E-09
 -1        39-3.80260E+06-9.26139E+03-3.20434E+04-2.76132E-08 2.61087E-10 1.05506E-08
 -1        40-3.79642E+06 9.09872E+02-1.42198E+04-9.03304E-08 1.71922E-10-4.05726E-09
 -1        41-3.79766E+06-1.08140E+03-7.93203E+03-3.38574E-08-1.23763E-09 5.37739E-09
 -1        42-3.79700E+06 1.22331E+02-4.26198E+03-3.91045E-08 1.06444E-09-9.69430E-09
 -1        43-3.79705E+06-2.25862E+02-3.39761E+03-3.92486E-08-1.12634E-09 8.66756E-10
 -1        44-3.79701E+06 1.08831E+02-3.89306E+03-1.71284E-09 1.17690E-10 2.66039E-09
 -1        45-3.79754E+06-9.33544E+02-6.93870E+03 1.95667E-08-7.78086E-10 4.36887E-09
 -1        46-3.79652E+06 7.83062E+02-1.22867E+04 2.05223E-08 9.68370E-10 4.42560E-09
 -1        47-3.80179E+06-7.96589E+03-2.75889E+04-3.18313E-08-1.40811E-09 3.19687E-10
 -1        48-3.79283E+06 6.54506E+03-4.77676E+04 7.86486E-09 3.03271E-10 1.02591E-09
 -1        49-3.83448E+06-6.83574E+04-1.21825E+05 4.55511E-08-1.60303E-09 6.49015E-09
 -1        50-3.76405E+06 5.53258E+04-1.83991E+05-1.19198E-08-9.19574E-10 5.73345E-09
 -1        51 4.94509E+04-4.49932E+05 1.00524E+05-1.15028E+06-2.61934E-10 3.62343E-09
 -1        52 2.15739E+04-4.40200E+05 5.60048E+04-1.31778E+06-1.96451E-10 2.72848E-09
 -1        53 1.07410E+04-4.61423E+05 3.42343E+04-1.14634E+06-5.45697E-10 2.41562E-09
 -1        54 2.32612E+04-4.61409E+05 3.88792E+04-1.32178E+06-2.47383E-10 3.11411E-09
 -1        55 4.22350E+04-4.74751E+05 5.98856E+04-1.14568E+06-5.82077E-11-4.00905E-09
 -1        56-4.24645E+06-5.12916E+05-2.98262E+05-1.63148E+06-1.70985E-10-5.60249E-09
 -1        57-4.35652E+06-7.46937E+05-1.94516E+05-1.62862E+06 2.40561E-09-2.70484E-09
 -1        58-4.30225E+06-5.94552E+05-7.02702E+04-1.61804E+06-1.40426E-09-2.99042E-09
 -1        59-4.29204E+06-6.47448E+05-4.00844E+04-1.64616E+06-9.92031E-10-4.74211E-09
 -1        60-4.30934E+06-6.04615E+05-1.63674E+04-1.61664E+06 1.02091E-09-3.15595E-10
 -1        61-4.28473E+06-6.34430E+05-8.99629E+03-1.64683E+06-9.27912E-10 2.83649E-10
 -1        62-4.30941E+06-6.06904E+05-4.66371E+03-1.61759E+06-1.20326E-09 3.44107E-09
 -1        63-4.28654E+06-6.30504E+05-4.03403E+03-1.64371E+06-7.75344E-10 2.48258E-09
 -1        64-4.30760E+06-6.08807E+05-5.17030E+03-1.61969E+06-1.12323E-10-2.86491E-09
 -1        65-4.29186E+06-6.27664E+05-1.03262E+04-1.63841E+06-1.85423E-09 4.53315E-09
 -1        66-4.30386E+06-6.09855E+05-1.90362E+04-1.62275E+06-1.15824E-09 1.41790E-09
 -1        67-4.30664E+06-6.36147E+05-4.65075E+04-1.63000E+06-3.26850E-10 4.79486E-09
 -1        68-4.29256E+06-6.00979E+05-8.16807E+04-1.62770E+06-1.83536E-09 4.69663E-09
 -1        69-4.38644E+06-7.46682E+05-2.25940E+05-1.60403E+06-2.09184E-11-4.90763E-09
 -1        70-4.22571E+06-5.08079E+05-3.46545E+05-1.64556E+06-2.88128E-09-4.67116E-09
 -1        71-1.57717E+06-5.29077E+03 1.76397E+04-2.97599E-08 7.67152E-10-2.37469E-09
 -1        72-1.57025E+06 6.54103E+03 1.16686E+04-2.51885E-08-1.06402E-09-1.66870E-09
 -1        73-1.57441E+06-6.25767E+02 4.57115E+03-4.85264E-08 3.77310E-10 2.55523E-09
 -1        74-1.57338E+06 7.61626E+02 2.62271E+03-5.45281E-08-1.25510E-09-5.66581E-09
 -1        75-1.57405E+06-7.44504E+01 1.13235E+03 7.93109E-09 6.87232E-10-1.96599E-09
 -1        76-1.57379E+06 8.63680E+01 5.68178E+02-4.49372E-08-1.18629E-09 5.37318E-09
 -1        77-1.57400E+06-7.36447E+00 1.82194E+02-3.12620E-09 2.63341E-10-2.94746E-09
 -1        78-1.57386E+06-4.93561E+00-7.47708E+01 3.62027E-08-4.49142E-10-1.13630E-09
 -1        79-1.57398E+06 1.24273E+01-3.61638E+02 6.19274E-09 9.86225E-10 9.32374E-10
 -1        80-1.57395E+06-1.30439E+02-8.95065E+02 2.29012E-08-1.70335E-09 4.11507E-09
 -1        81-1.57391E+06 1.11490E+02-1.71482E+03-5.30047E-11 4.29696E-10 4.29691E-09
 -1        82-1.57457E+06-1.13863E+03-3.93171E+03 3.56503E-08-1.13241E-09 1.59816E-08
 -1        83-1.57338E+06 9.35484E+02-6.83821E+03-2.50985E-08 6.19121E-10 1.30799E-08
 -1        84-1.57924E+06-9.77767E+03-1.74448E+04 6.96355E-09-4.43463E-10 5.76097E-09
 -1        85-1.56925E+06 7.90945E+03-2.63645E+04 1.20840E-08-2.08949E-10-6.63931E-10
 -1        86-6.89535E+04 7.10133E+05 2.35518E+05 7.67253E+03 1.74623E-10 6.81212E-10
 -1        87 9.05913E+04 8.02691E+05 1.71421E+05 6.95309E+04 1.04774E-09-6.24959E-09
 -1        88-1.34624E+04 7.42887E+05 9.59179E+04 7.11203E+03 2.88310E-10 8.35826E-10
 -1        89 6.37436E+04 7.89156E+05 1.29372E+05 7.09317E+04 2.56841E-09 5.37693E-09
 -1        90-4.53336E+04 7.24530E+05 1.58096E+05 6.28893E+03 6.25732E-10-5.27507E-10
 -1        91-2.09827E+06-2.80033E+05-5.47642E+04-7.94505E+05 4.90218E-10-1.39335E-09
 -1        92-2.11442E+06-3.26795E+05-3.56886E+04-7.98429E+05 1.82695E-10 1.95041E-09
 -1        93-2.10858E+06-2.94935E+05-1.29198E+04-7.91983E+05 5.27052E-10 7.26095E-09
 -1        94-2.10249E+06-3.08723E+05-7.37606E+03-8.01804E+05-5.05054E-10 3.85808E-09
 -1        95-2.10996E+06-2.96702E+05-3.02337E+03-7.91642E+05 1.13437E-09 8.40555E-09
 -1        96-2.10099E+06-3.06496E+05-1.67062E+03-8.02124E+05 7.91431E-10 2.42916E-09
 -1        97-2.11005E+06-2.97014E+05-8.75145E+02-7.91715E+05-1.27216E-10-3.41007E-09
 -1        98-2.10114E+06-3.05944E+05-7.78283E+02-8.01768E+05-1.36521E-09 7.32507E-09
 -1        99-2.10981E+06-2.97257E+05-1.01377E+03-7.91994E+05 3.37423E-10-2.75918E-10
 -1       100-2.10198E+06-3.05624E+05-2.05443E+03-8.00994E+05 9.78275E-10 1.34020E-09
 -1       101-2.10920E+06-2.97366E+05-3.78740E+03-7.92468E+05-2.53976E-10-9.93396E-10
 -1       102-2.10475E+06-3.07517E+05-9.25666E+03-7.99534E+05 1.41949E-09 3.72256E-09
 -1       103-2.10703E+06-2.95558E+05-1.62410E+04-7.93370E+05-5.23841E-10-6.15728E-10
 -1       104-2.12046E+06-3.29482E+05-4.48442E+04-7.94438E+05 2.47525E-09-7.63976E-10
 -1       105-2.09375E+06-2.77156E+05-6.88314E+04-7.96910E+05-4.32919E-10 4.74029E-09
 -1       106-5.29016E+05-2.08180E+04 6.94792E+04-1.52381E-08-7.14891E-10-6.11544E-09
 -1       107-5.02273E+05 2.57427E+04 4.59633E+04 7.29096E-09-4.12153E-10-5.01223E-09
 -1       108-5.18136E+05-2.46203E+03 1.80342E+04 2.99056E-08 1.38088E-10-8.16726E-10
 -1       109-5.14578E+05 2.99732E+03 1.03815E+04 6.09979E-08-4.15025E-10 2.88719E-09
 -1       110-5.16733E+05-2.93688E+02 4.55714E+03 3.80013E-08-3.35011E-11-2.15095E-09
 -1       111-5.16182E+05 3.45375E+02 2.43229E+03 2.76222E-08 7.47218E-10 1.59707E-09
 -1       112-5.16536E+05-3.48943E+01 1.09384E+03 6.93096E-09-1.12277E-09-7.19126E-10
 -1       113-5.16416E+05 3.21999E+01 4.88998E+02 2.38405E-09 2.79071E-09 3.84522E-09
 -1       114-5.16500E+05 1.92385E+00 7.96413E+01-3.16444E-08-3.02168E-10-9.88962E-10
 -1       115-5.16493E+05-5.79487E+01-2.95660E+02 2.75147E-08-1.12943E-09 4.44479E-09
 -1       116-5.16459E+05 5.22118E+01-7.50515E+02-3.69052E-08 1.49064E-10 8.41851E-10
 -1       117-5.16788E+05-5.38390E+02-1.83131E+03 2.50054E-09-1.60083E-10-3.04314E-09
 -1       118-5.16205E+05 4.42518E+02-3.22469E+03-2.24995E-09 3.19017E-10-4.03361E-10
 -1       119-5.19001E+05-4.62734E+03-8.25388E+03-3.61296E-08-2.15582E-10-2.57751E-09
 -1       120-5.14248E+05 3.74276E+03-1.24819E+04-2.08768E-08 3.68541E-10 7.04040E-09
 -1       121 1.76084E+04-1.91706E+06-5.98480E+04-1.53270E+03-1.15688E-09 3.63434E-09
 -1       122-2.29081E+04-1.94010E+06-4.26706E+04-1.83412E+04-1.86083E-09-6.27983E-09
 -1       123 3.09300E+03-1.92561E+06-2.24226E+04-7.47685E+02-2.32967E-09-6.09361E-11
 -1       124-1.33215E+04-1.93500E+06-2.75608E+04-1.96610E+04-3.43937E-09-5.89989E-09
 -1       125 9.00654E+03-1.92223E+06-3.21614E+04-2.14070E+02-3.66526E-09-4.08750E-09
 -1       126-9.87527E+05-1.43342E+05 1.36620E+04-3.69374E+05 3.54248E-10 3.93811E-09
 -1       127-9.74951E+05-1.40056E+05 8.90227E+03-3.77968E+05 1.28011E-09 1.76487E-09
 -1       128-9.85097E+05-1.39476E+05 3.21693E+03-3.69833E+05-8.55835E-10 1.25397E-10
 -1       129-9.77744E+05-1.44752E+05 1.82341E+03-3.77352E+05-1.07957E-09-1.47804E-09
 -1       130-9.84794E+05-1.38989E+05 7.16683E+02-3.69866E+05-9.12763E-10-7.94586E-09
 -1       131-9.78131E+05-1.45305E+05 3.31668E+02-3.77264E+05 4.97764E-10-4.30276E-09
 -1       132-9.84716E+05-1.38960E+05 4.42443E+01-3.69907E+05-1.36026E-09 9.04834E-10
 -1       133-9.78317E+05-1.45285E+05-1.94135E+02-3.77118E+05 1.14187E-09 6.96588E-10
 -1       134-9.84603E+05-1.39018E+05-5.16548E+02-3.70006E+05 3.59250E-10 5.55019E-10
 -1       135-9.78700E+05-1.45293E+05-1.25998E+03-3.76833E+05 8.67828E-10 2.94739E-09
 -1       136-9.84322E+05-1.38971E+05-2.41710E+03-3.70180E+05 1.50067E-11 3.50155E-09
 -1       137-9.80225E+05-1.46787E+05-5.96622E+03-3.76198E+05-2.97860E-10-1.83570E-09
 -1       138-9.83079E+05-1.37653E+05-1.04865E+04-3.70585E+05-6.36760E-10 2.12958E-09
 -1       139-9.90040E+05-1.61284E+05-2.89513E+04-3.73279E+05 9.76087E-10 3.10274E-09
 -1       140-9.74661E+05-1.25610E+05-4.44383E+04-3.72668E+05 5.35238E-10-4.46380E-09
 -1       141-6.18701E+04-8.73739E+03 2.91571E+04 1.28166E-08 1.39880E-10-4.18186E-09
 -1       142-5.06553E+04 1.08038E+04 1.92831E+04 3.11813E-08-1.54412E-10-4.44902E-09
 -1       143-5.72978E+04-1.03308E+03 7.54644E+03 2.48431E-08 5.34121E-10-4.07408E-09
 -1       144-5.58210E+04 1.25723E+03 4.30591E+03 1.70780E-08-1.69048E-10-6.43729E-09
 -1       145-5.67062E+04-1.22342E+02 1.80871E+03-1.07055E-08 1.23853E-10-3.79259E-10
 -1       146-5.65040E+04 1.38599E+02 8.04539E+02-2.98522E-08-6.67299E-11-3.51633E-10
 -1       147-5.66151E+04-7.97838E+00 3.59122E+01 5.15164E-09-9.15003E-11-4.63251E-09
 -1       148-5.66563E+04-4.46491E+01-6.78992E+02 3.12395E-08-3.31879E-10-6.92827E-09
 -1       149-5.65540E+04 5.37158E+01-1.66527E+03-2.39884E-08 1.57764E-11-2.35468E-09
 -1       150-5.70259E+04-5.37216E+02-3.77063E+03-4.45537E-08-5.41060E-10 3.52122E-09
 -1       151-5.62456E+04 4.57280E+02-7.09244E+03-1.37546E-08 5.40289E-10 2.87901E-09
 -1       152-5.95240E+04-4.66775E+03-1.61717E+04-3.53488E-08-2.39330E-10 2.05955E-09
 -1       153-5.40554E+04 3.83454E+03-2.80936E+04-7.67261E-09 3.32542E-10 4.21278E-09
 -1       154-7.86844E+04-4.00917E+04-7.15985E+04 6.13118E-08 2.12602E-10-6.00630E-09
 -1       155-3.70687E+04 3.24317E+04-1.08155E+05 4.05635E-09 6.84653E-10 1.18598E-09
 -1       156 1.84350E+03-4.48101E+05-5.70543E+03-1.33721E+03 1.10549E-09 2.70984E-09
 -1       157-1.76348E+03-4.50045E+05-2.22291E+03-1.21977E+04 2.58854E-09-2.15766E-09
 -1       158-2.82790E+02-4.49395E+05 1.96490E+03-1.17100E+03 3.07682E-09 1.34378E-09
 -1       159 4.97110E+03-4.46443E+05 8.40944E+03-1.24790E+04 4.48961E-09-3.54510E-09
 -1       160-4.20841E+03-4.51740E+05 1.37784E+04-1.05543E+03 4.52110E-09 1.06229E-09
 -1       161-4.24661E+05-5.75592E+04-9.29344E+03-1.61063E+05 9.24956E-10-3.24098E-09
 -1       162-4.23909E+05-6.89704E+04-6.06258E+03-1.65725E+05-1.85594E-09 1.41654E-09
 -1       163-4.26390E+05-6.01077E+04-2.21176E+03-1.60664E+05-3.82840E-11 4.38297E-09
 -1       164-4.21930E+05-6.58694E+04-1.29158E+03-1.66250E+05 6.80288E-10 2.50225E-09
 -1       165-4.26606E+05-6.04240E+04-5.93616E+02-1.60626E+05-4.60574E-10-8.16479E-10
 -1       166-4.21708E+05-6.54776E+04-4.57507E+02-1.66276E+05 2.42267E-10-1.40869E-09
 -1       167-4.26605E+05-6.04756E+04-4.99168E+02-1.60645E+05 6.31189E-10 3.01702E-09
 -1       168-4.21800E+05-6.54551E+04-9.11881E+02-1.66207E+05-4.82999E-10 7.61531E-10
 -1       169-4.26508E+05-6.04497E+04-1.71048E+03-1.60691E+05 1.59503E-10 1.01898E-09
 -1       170-4.22384E+05-6.60244E+04-3.90114E+03-1.66024E+05-4.10637E-10 2.70893E-09
 -1       171-4.26017E+05-5.99453E+04-7.36473E+03-1.60810E+05 1.20309E-10 2.30148E-09
 -1       172-4.26206E+05-7.13891E+04-1.81340E+04-1.65085E+05 1.06024E-09 4.58067E-09
 -1       173-4.22729E+05-5.54572E+04-3.18241E+04-1.61486E+05-8.14453E-10-2.07547E-09
 -1       174-4.54895E+05-1.16479E+05-8.78634E+04-1.57539E+05-1.61617E-09-6.02267E-09
 -1       175-3.97791E+05-1.82630E+04-1.34767E+05-1.67065E+05 5.92991E-10-1.91358E-09
 -1       191 1.10855E+04 1.34245E+06 2.24192E+04-1.23231E+04 2.43745E-10-8.91305E-10
 -1       192 3.62801E+03 1.34644E+06 1.35003E+04-1.31019E+04 2.18597E-09-7.18137E-09
 -1       193 1.04578E+03 1.34385E+06 1.05974E+04-1.18672E+04-4.66116E-11 1.77533E-09
 -1       194 4.50814E+03 1.34684E+06 1.55858E+04-1.39673E+04 4.10591E-09-3.73984E-09
 -1       195 1.39298E+04 1.34194E+06 2.75222E+04-1.14223E+04-1.60071E-10 1.58252E-10
 -1       251-7.91082E+05-6.47802E+03 1.77262E+04-1.43273E+04 7.63976E-11-2.21326E-09
 -1       252-7.80709E+05 6.09016E+03 1.23446E+04-1.02113E+05 4.88399E-10-9.04583E-09
 -1       253-7.88220E+05-1.09942E+03 4.48854E+03-1.26293E+04 1.56433E-10 5.51609E-10
 -1       254-7.85913E+05 6.25765E+02 2.85437E+03-1.04867E+05 8.25821E-10 1.07821E-09
 -1       255-7.87884E+05-2.09706E+02 1.12424E+03-1.15812E+04 2.12822E-10 6.23504E-09
 -1       256-7.87575E+05 3.49858E+02 7.10337E+02-1.06473E+05 1.72804E-10 3.99302E-09
 -1       257-7.87850E+05 2.75006E+01 3.37862E+02-1.10242E+04-1.18143E-09 1.27159E-09
 -1       258-7.88115E+05 4.46182E+02 2.43792E+02-1.07089E+05 1.39772E-09 3.38071E-09
 -1       259-7.87847E+05 5.11550E+01 2.16820E+02-1.09642E+04-5.98902E-10 5.43537E-10
 -1       260-7.87806E+05 3.66443E+02 3.47367E+02-1.06720E+05-7.45786E-11 3.09649E-09
 -1       261-7.87855E+05-1.09901E+02 4.67704E+02-1.13939E+04 1.54341E-09 4.25837E-09
 -1       262-7.86571E+05 2.97990E+02 1.25536E+03-1.05351E+05-5.20231E-10-2.25623E-09
 -1       263-7.87982E+05-6.34636E+02 1.78930E+03-1.23334E+04-4.45652E-10-3.32463E-09
 -1       264-7.83404E+05 2.33199E+03 5.30642E+03-1.02826E+05-3.60160E-09-1.47566E-09
 -1       265-7.89184E+05-3.17186E+03 7.20580E+03-1.39128E+04-1.84264E-09 1.19417E-09
 -1       266-1.76868E+04-3.45309E+05 5.78519E+04-3.90696E+04 1.96451E-10-1.88811E-09
 -1       267 2.61585E+04-3.26848E+05 3.59832E+04-3.51651E+05-1.96223E-10 3.43516E-09
 -1       268-5.62655E+02-3.35477E+05 9.08771E+03-3.85973E+04-3.32875E-10-2.14277E-09
 -1       269-1.68976E+03-3.40167E+05-7.28596E+03-3.51433E+05 1.46088E-10 7.13362E-09
 -1       270 6.39923E+03-3.30450E+05-2.19317E+04-3.93139E+04-3.31056E-10 5.09681E-09
 -1       271-4.19046E+06-5.10767E+05-3.33423E+05-1.63494E+06-1.14233E-09-4.54020E-09
 -1       272-4.31266E+06-7.70619E+05-2.17098E+05-1.62965E+06-2.27192E-09 4.69299E-10
 -1       273-4.25768E+06-5.97065E+05-7.87354E+04-1.61454E+06-8.20194E-10-9.85892E-09
 -1       274-4.23249E+06-6.68734E+05-4.47382E+04-1.66010E+06 1.42245E-09-7.27141E-09
 -1       275-4.26995E+06-6.03870E+05-1.84275E+04-1.60809E+06 5.34783E-10 5.18958E-09
 -1       276-4.21727E+06-6.61841E+05-1.00367E+04-1.67033E+06 9.52241E-10 4.16071E-09
 -1       277-4.27340E+06-6.02578E+05-5.16150E+03-1.60513E+06-1.77897E-09 1.67233E-09
 -1       278-4.21371E+06-6.63105E+05-4.38562E+03-1.67395E+06 7.49026E-10-5.73436E-10
 -1       279-4.27370E+06-6.02168E+05-5.51333E+03-1.60473E+06 1.24487E-10 4.45198E-10
 -1       280-4.21625E+06-6.63336E+05-1.11027E+04-1.67195E+06 7.72161E-10-3.47609E-09
 -1       281-4.27077E+06-6.02614E+05-2.04780E+04-1.60697E+06 9.90440E-10 6.30098E-09
 -1       282-4.23153E+06-6.73059E+05-4.99924E+04-1.66292E+06 1.56456E-09 2.64390E-09
 -1       283-4.25817E+06-5.93996E+05-8.78860E+04-1.61298E+06-1.15551E-09 6.18456E-10
 -1       284-4.31905E+06-7.89083E+05-2.42562E+05-1.63140E+06 3.87445E-10-6.89397E-09
 -1       285-4.18416E+06-4.96442E+05-3.72300E+05-1.63453E+06-2.21917E-09 3.71074E-09
 -1       286-5.62592E+05-9.18075E+03 2.82452E+04-9.75846E+03 3.68891E-09 2.48201E-09
 -1       287-5.49462E+05 1.01542E+04 1.90808E+04-7.05861E+04 1.80171E-09 3.34330E-09
 -1       288-5.58114E+05-1.31981E+03 7.26832E+03-8.74218E+03 7.63976E-11-1.99316E-09
 -1       289-5.55642E+05 1.08653E+03 4.40431E+03-7.22371E+04-2.05409E-09-4.45425E-10
 -1       290-5.57558E+05-2.41944E+02 1.90151E+03-8.10882E+03 2.96495E-10 6.14364E-10
 -1       291-5.57062E+05 2.61866E+02 1.24841E+03-7.32600E+04 2.78851E-09 4.48694E-09
 -1       292-5.57497E+05-2.52306E+01 8.47038E+02-7.72007E+03 1.81944E-09 1.70576E-09
 -1       293-5.57520E+05 3.32204E+02 1.07366E+03-7.37999E+04 2.39197E-09-3.33296E-09
 -1       294-5.57531E+05-9.20753E+00 1.69130E+03-7.56768E+03 2.03801E-09 1.50828E-09
 -1       295-5.57272E+05 7.54954E+02 3.42920E+03-7.38616E+04 2.71893E-09 4.24550E-09
 -1       296-5.57794E+05-3.87583E+02 6.26485E+03-7.65793E+03 1.80034E-09 5.38876E-10
 -1       297-5.54762E+05 4.26320E+03 1.42303E+04-7.34343E+04 2.97132E-09-3.49132E-09
 -1       298-5.59701E+05-3.45083E+03 2.45787E+04-7.99563E+03 1.38789E-09 1.33696E-09
 -1       299-5.37258E+05 3.51321E+04 6.28505E+04-7.24107E+04-3.97904E-10 1.72531E-09
 -1       300-5.74555E+05-2.87192E+04 9.47252E+04-8.68661E+03-4.72937E-10 3.05590E-10
 -1       301 5.73160E+04 1.40988E+05 1.10242E+05-7.80656E+04 3.84534E-09-4.78985E-09
 -1       302 1.94832E+04 1.60446E+05 6.11985E+04-8.98951E+04-5.29326E-10-3.33773E-09
 -1       303 5.34375E+03 1.48472E+05 3.95841E+04-7.81990E+04 3.51099E-09-4.92827E-09
 -1       304 1.37509E+04 1.57512E+05 4.72813E+04-8.99211E+04-2.03727E-10 2.18415E-09
 -1       305 3.85662E+04 1.43904E+05 7.61909E+04-7.81425E+04 3.89991E-09 5.77666E-09
 -1       306-4.07176E+06-4.90960E+05-3.31370E+05-1.58553E+06 1.22236E-09-2.61934E-09
 -1       307-4.20175E+06-7.41242E+05-2.15838E+05-1.57122E+06 8.20819E-10 3.08501E-09
 -1       308-4.13776E+06-5.77594E+05-7.82188E+04-1.56614E+06-7.12816E-11 1.61162E-09
 -1       309-4.12299E+06-6.38803E+05-4.44721E+04-1.59998E+06 7.27823E-10-4.64570E-09
 -1       310-4.14961E+06-5.84837E+05-1.82978E+04-1.56016E+06 1.30876E-09 4.24279E-09
 -1       311-4.10809E+06-6.31666E+05-9.94905E+03-1.60964E+06 1.87447E-09-3.90901E-09
 -1       312-4.15311E+06-5.83585E+05-5.07724E+03-1.55717E+06-1.95678E-09-3.71915E-09
 -1       313-4.10404E+06-6.33406E+05-4.19701E+03-1.61381E+06-5.20038E-09-5.11394E-09
 -1       314-4.15386E+06-5.82678E+05-5.13657E+03-1.55625E+06-4.16321E-09-2.62480E-09
 -1       315-4.10526E+06-6.34744E+05-1.02452E+04-1.61347E+06-2.88185E-09 4.98403E-09
 -1       316-4.15186E+06-5.82291E+05-1.88053E+04-1.55749E+06 4.12797E-10 1.16233E-09
 -1       317-4.11795E+06-6.45249E+05-4.59990E+04-1.60712E+06 2.11230E-10-3.28146E-09
 -1       318-4.14117E+06-5.73471E+05-8.07568E+04-1.56203E+06 2.71029E-10 1.00408E-09
 -1       319-4.19682E+06-7.53816E+05-2.23093E+05-1.58035E+06 2.37105E-09 1.06229E-09
 -1       320-4.07412E+06-4.82783E+05-3.42283E+05-1.58077E+06-9.05857E-10 2.06637E-09
 -1       321-3.32907E+05-3.51510E+04 1.17155E+05-3.07600E+03 8.04903E-11-2.42289E-09
 -1       322-2.87682E+05 4.33594E+04 7.75280E+04-2.39719E+04-2.02022E-09-2.98041E-09
 -1       323-3.14564E+05-4.17580E+03 3.04132E+04-2.90031E+03 3.14230E-10-4.49654E-09
 -1       324-3.08534E+05 5.03689E+03 1.75393E+04-2.42427E+04-7.02926E-10-5.49312E-09
 -1       325-3.12200E+05-5.03643E+02 7.73028E+03-2.79983E+03 3.46517E-10-8.43102E-10
 -1       326-3.11300E+05 5.90610E+02 4.20532E+03-2.43941E+04-7.50333E-12 5.15456E-09
 -1       327-3.11872E+05-6.09531E+01 2.04098E+03-2.74885E+03-8.83460E-10-1.95882E-10
 -1       328-3.11696E+05 9.60256E+01 1.23467E+03-2.44525E+04 8.70159E-10-9.93685E-09
 -1       329-3.11832E+05-1.89030E+01 9.20296E+02-2.74136E+03 1.34662E-10 1.18010E-09
 -1       330-3.11658E+05 1.49723E+02 1.18854E+03-2.44225E+04-1.37072E-09 1.68129E-09
 -1       331-3.11897E+05-1.17450E+02 1.86412E+03-2.77892E+03 3.69937E-10 1.44752E-09
 -1       332-3.11004E+05 1.13846E+03 4.03639E+03-2.43013E+04 1.36060E-09-6.66000E-09
 -1       333-3.12430E+05-9.59809E+02 6.91327E+03-2.86253E+03-6.09816E-10-2.78828E-09
 -1       334-3.06210E+05 9.80493E+03 1.75933E+04-2.40522E+04 1.50817E-09 2.39038E-09
 -1       335-3.16591E+05-8.00173E+03 2.65315E+04-3.02900E+03-1.48020E-09-1.38425E-09
 -1       336 7.73712E+03-1.89000E+06-3.19969E+04-3.01233E+04-9.89257E-09 3.09228E-11
 -1       337-1.17640E+04-1.90381E+06-3.18818E+04-3.03883E+05-1.42891E-08-5.86169E-09
 -1       338 4.99550E+03-1.89198E+06-3.32955E+04-2.77585E+04-1.27620E-08-6.93512E-09
 -1       339-3.70689E+04-1.91850E+06-7.23213E+04-3.04825E+05-1.64609E-08 6.97946E-09
 -1       340 3.11633E+04-1.87621E+06-1.05715E+05-2.91821E+04-8.79663E-09 3.23780E-09
 -1       341-2.21506E+06-2.91202E+05-8.09909E+04-8.44538E+05-1.24237E-09 1.55342E-09
 -1       342-2.24381E+06-3.55507E+05-5.27797E+04-8.44748E+05-1.57343E-09 2.20007E-09
 -1       343-2.23058E+06-3.12977E+05-1.91306E+04-8.40507E+05-1.05160E-10-3.18323E-11
 -1       344-2.22561E+06-3.29376E+05-1.09431E+04-8.50426E+05-5.85885E-10-3.63980E-09
 -1       345-2.23295E+06-3.15263E+05-4.55345E+03-8.39633E+05-1.78284E-09-1.41972E-09
 -1       346-2.22273E+06-3.26787E+05-2.63943E+03-8.51720E+05 1.69450E-10-2.20041E-09
 -1       347-2.23345E+06-3.15329E+05-1.63451E+03-8.39309E+05-5.03633E-11-5.25577E-09
 -1       348-2.22227E+06-3.26808E+05-1.90996E+03-8.52100E+05 4.48267E-10-4.80202E-09
 -1       349-2.23342E+06-3.15215E+05-2.98861E+03-8.39269E+05 3.92149E-10-1.77931E-09
 -1       350-2.22319E+06-3.27726E+05-6.49894E+03-8.51829E+05-9.15794E-10-5.47732E-09
 -1       351-2.23254E+06-3.14469E+05-1.21349E+04-8.39559E+05 3.70619E-10-3.51974E-09
 -1       352-2.22982E+06-3.36238E+05-2.98381E+04-8.49902E+05 1.93273E-09 2.73212E-09
 -1       353-2.22689E+06-3.07325E+05-5.23336E+04-8.40970E+05-4.99313E-10 3.33239E-09
 -1       354-2.27777E+06-4.09897E+05-1.44639E+05-8.36712E+05 3.63798E-12-5.05315E-09
 -1       355-2.18547E+06-2.46428E+05-2.21797E+05-8.50672E+05 2.57205E-09-5.02041E-09
 -1       356-4.87858E+04-1.53788E+04 5.11849E+04-2.54311E+03 5.86624E-10-4.00178E-09
 -1       357-2.89759E+04 1.89390E+04 3.38792E+04-2.13608E+04-9.04947E-10 5.48243E-09
 -1       358-4.07591E+04-1.83020E+03 1.32643E+04-2.49188E+03-3.52657E-10-1.93086E-09
 -1       359-3.81208E+04 2.19732E+03 7.61047E+03-2.14225E+04-4.43720E-10 9.76343E-10
 -1       360-3.97231E+04-2.19938E+02 3.26345E+03-2.47952E+03 2.32831E-10 4.18959E-09
 -1       361-3.93552E+04 2.52829E+02 1.59961E+03-2.14404E+04-1.11208E-09-2.95171E-09
 -1       362-3.95708E+04-1.85176E+01 4.25301E+02-2.47399E+03-4.13138E-10-2.66641E-09
 -1       363-3.95897E+04-2.00388E+01-4.36221E+02-2.14455E+04-2.85592E-10 3.95229E-09
 -1       364-3.95026E+04 4.99478E+01-1.47316E+03-2.47445E+03 5.78552E-10 1.75419E-10
 -1       365-3.99335E+04-5.02648E+02-3.50531E+03-2.14400E+04-8.09280E-10 1.46372E-09
 -1       366-3.92089E+04 4.25658E+02-6.66948E+03-2.47948E+03-2.50111E-11 1.04455E-09
 -1       367-4.22444E+04-4.41658E+03-1.52387E+04-2.14191E+04 1.71894E-10-1.33491E-09
 -1       368-3.71411E+04 3.59901E+03-2.65060E+04-2.49536E+03-1.36424E-12-1.30058E-09
 -1       369-6.02389E+04-3.78547E+04-6.75289E+04-2.13330E+04-3.06318E-09 6.40284E-10
 -1       370-2.11175E+04 3.05524E+04-1.02050E+05-2.56132E+03 1.44746E-09 3.68891E-09
 -1       371-6.29496E+03-3.78206E+05 1.87937E+04-2.43054E+04 9.69158E-09-1.48793E-09
 -1       372 7.30489E+03-3.71788E+05 8.53476E+03-2.14668E+05 1.55934E-08-5.65979E-09
 -1       373 7.82453E+02-3.74156E+05-4.26621E+03-2.39164E+04 1.39999E-08-3.78009E-12
 -1       374-1.18847E+04-3.82218E+05-2.18352E+04-2.14697E+05 1.54089E-08 1.88038E-10
 -1       375 1.10463E+04-3.67813E+05-3.68041E+04-2.42772E+04 1.02118E-08 4.72392E-09
 -1       376-1.14913E+06-1.45921E+05-6.19218E+04-4.41292E+05 2.10821E-09 2.55022E-09
 -1       377-1.16579E+06-2.00427E+05-4.03514E+04-4.47630E+05 7.23503E-10-1.96042E-09
 -1       378-1.16084E+06-1.62723E+05-1.46347E+04-4.38417E+05-1.12050E-09-2.72485E-09
 -1       379-1.15224E+06-1.80121E+05-8.37161E+03-4.51589E+05 8.41283E-11 1.06297E-10
 -1       380-1.16248E+06-1.64634E+05-3.48265E+03-4.37943E+05 1.23197E-09 6.09361E-10
 -1       381-1.15034E+06-1.77836E+05-2.01708E+03-4.52229E+05 2.13163E-12-2.78078E-10
 -1       382-1.16272E+06-1.64825E+05-1.24298E+03-4.37854E+05-1.28090E-09-1.60257E-09
 -1       383-1.15021E+06-1.77615E+05-1.44375E+03-4.52240E+05 1.57479E-09-1.82953E-09
 -1       384-1.16261E+06-1.64843E+05-2.25395E+03-4.37935E+05 7.13385E-10 7.76527E-09
 -1       385-1.15104E+06-1.78147E+05-4.88716E+03-4.51839E+05 3.07921E-10 4.29372E-09
 -1       386-1.16188E+06-1.64350E+05-9.13001E+03-4.38223E+05-6.49550E-10 2.09639E-10
 -1       387-1.15608E+06-1.84441E+05-2.24183E+04-4.50266E+05 2.53621E-09-2.49884E-09
 -1       388-1.15760E+06-1.59029E+05-3.93360E+04-4.39312E+05-7.65795E-10-4.74756E-09
 -1       389-1.19206E+06-2.39665E+05-1.08608E+05-4.40288E+05 6.54836E-11 1.64982E-09
 -1       390-1.12647E+06-1.13363E+05-1.66598E+05-4.46590E+05 3.67436E-10 6.07542E-09
 -1       406 1.20700E+04 1.30184E+06 2.53991E+04-1.15657E+05 2.25555E-10 3.30510E-09
 -1       407 4.68212E+03 1.30631E+06 1.88809E+04-1.32089E+05 7.58610E-09-1.49976E-09
 -1       408 2.77561E+03 1.30278E+06 2.08153E+04-1.15264E+05-2.05546E-10-4.00178E-10
 -1       409 1.27434E+04 1.31013E+06 3.81651E+04-1.32567E+05 8.11087E-09-7.15954E-09
 -1       410 3.82582E+04 1.29740E+06 7.25830E+04-1.15091E+05-1.42973E-09 3.21143E-09
 -1       466 1.55431E+06-4.52353E+04 1.48917E+05-7.86187E+03 1.78261E-10-2.33558E-09
 -1       467 1.61340E+06 5.48385E+04 9.88944E+04-9.21980E+04-1.35515E-10 5.67525E-10
 -1       468 1.57773E+06-5.50713E+03 3.86961E+04-9.99067E+03 1.73713E-10-1.56433E-10
 -1       469 1.58574E+06 6.39534E+03 2.24977E+04-8.86241E+04 5.36602E-11-7.05768E-10
 -1       470 1.58073E+06-6.74003E+02 1.00003E+04-1.14214E+04-2.16460E-10-4.85670E-10
 -1       471 1.58166E+06 9.45598E+02 5.72100E+03-8.65334E+04 7.22139E-10 1.46292E-09
 -1       472 1.58113E+06-4.89131E+01 3.26800E+03-1.20821E+04 2.59206E-11 2.15550E-10
 -1       473 1.58110E+06 4.45219E+02 2.94738E+03-8.59652E+04-1.19087E-11-1.11106E-09
 -1       474 1.58111E+06-7.97459E+01 3.78688E+03-1.19896E+04-1.46656E-10-2.91323E-12
 -1       475 1.58194E+06 1.11163E+03 7.13783E+03-8.69116E+04-2.27374E-10 5.15786E-09
 -1       476 1.58059E+06-8.86883E+02 1.27266E+04-1.11355E+04 6.52108E-10-2.49656E-10
 -1       477 1.58712E+06 8.13081E+03 2.88203E+04-8.93844E+04-1.52795E-10-1.41199E-09
 -1       478 1.57674E+06-7.06256E+03 4.96449E+04-9.51558E+03-3.09228E-11 2.75941E-09
 -1       479 1.62243E+06 7.03550E+04 1.26893E+05-9.33746E+04-3.14230E-09 9.27685E-11
 -1       480 1.54669E+06-5.79836E+04 1.91183E+05-7.16704E+03-2.03545E-09-7.85803E-10
 -1       481-1.17114E+04 3.54591E+05 3.94482E+04-2.87280E+03 1.09139E-10 2.82398E-09
 -1       482 1.49958E+04 3.69951E+05 2.73907E+04-1.60170E+04-2.80124E-10 6.69320E-09
 -1       483-1.83637E+03 3.60446E+05 1.30322E+04-2.72908E+03-9.59517E-11 3.25872E-09
 -1       484 6.21287E+03 3.65297E+05 1.35367E+04-1.63053E+04 1.43473E-10-2.86491E-10
 -1       485-3.84849E+03 3.59340E+05 1.40416E+04-2.58887E+03 2.00544E-10-3.09228E-09
 -1       486-1.57511E+06-1.83958E+05-1.51743E+05-6.17060E+05-5.63887E-10 1.79716E-09
 -1       487-1.62660E+06-3.06400E+05-9.88026E+04-6.19753E+05 1.45462E-10 3.74712E-10
 -1       488-1.60433E+06-2.24546E+05-3.58570E+04-6.09389E+05 2.38742E-10 4.00178E-10
 -1       489-1.59241E+06-2.57741E+05-2.03849E+04-6.30802E+05-5.32054E-10-4.34738E-10
 -1       490-1.60893E+06-2.28655E+05-8.38227E+03-6.07603E+05-4.77030E-10-1.01272E-09
 -1       491-1.58681E+06-2.53205E+05-4.52855E+03-6.33719E+05 9.31323E-10 1.92586E-10
 -1       492-1.61008E+06-2.28562E+05-2.26333E+03-6.06767E+05 5.30235E-10 7.95239E-10
 -1       493-1.58544E+06-2.53534E+05-1.75825E+03-6.35064E+05 1.08491E-09-3.91310E-10
 -1       494-1.61044E+06-2.28199E+05-2.01980E+03-6.06370E+05 5.45015E-10 9.83505E-10
 -1       495-1.58553E+06-2.54414E+05-3.89218E+03-6.35436E+05 2.18228E-09 2.53272E-09
 -1       496-1.61003E+06-2.27669E+05-7.06337E+03-6.06420E+05 4.88356E-10-2.77851E-10
 -1       497-1.58933E+06-2.59291E+05-1.72337E+04-6.34275E+05 9.81103E-10 2.70666E-09
 -1       498-1.60666E+06-2.23702E+05-3.02057E+04-6.07374E+05 1.06866E-09 2.81761E-09
 -1       499-1.61733E+06-3.01256E+05-8.33728E+04-6.26032E+05 9.87711E-10 2.85218E-09
 -1       500-1.58242E+06-1.89034E+05-1.27944E+05-6.13374E+05-7.27596E-10 1.22964E-09
 -1       501 1.85287E+05-2.06613E+04 6.57739E+04-1.03821E+04 4.05453E-09-2.98314E-10
 -1       502 2.13420E+05 2.40266E+04 4.40416E+04-9.16627E+04 8.92214E-10 3.15777E-09
 -1       503 1.95674E+05-2.71734E+03 1.70053E+04-1.05369E+04 8.38554E-10 1.68166E-09
 -1       504 2.00078E+05 2.78395E+03 1.00521E+04-9.12786E+04-9.89530E-10 3.07000E-09
 -1       505 1.96986E+05-3.94678E+02 4.36791E+03-1.07646E+04 1.83809E-09-9.69976E-10
 -1       506 1.97552E+05 6.02815E+02 2.56747E+03-9.09142E+04 2.85627E-09 2.20757E-09
 -1       507 1.97149E+05-1.22244E+01 1.43891E+03-1.09017E+04 2.16824E-09 4.39968E-11
 -1       508 1.96925E+05 5.12777E+02 1.31747E+03-9.07419E+04 2.14447E-09 1.85150E-09
 -1       509 1.97135E+05 1.49888E+01 1.69361E+03-1.09357E+04 2.08502E-09 2.53027E-09
 -1       510 1.97253E+05 8.27382E+02 3.18129E+03-9.07740E+04 3.60774E-09 9.75888E-10
 -1       511 1.96908E+05-3.67111E+02 5.66010E+03-1.08698E+04 1.31377E-09-8.71296E-10
 -1       512 1.99842E+05 3.86691E+03 1.28520E+04-9.09978E+04 3.62979E-09 7.09633E-10
 -1       513 1.95202E+05-3.20853E+03 2.20523E+04-1.07127E+04 5.00222E-10 6.73026E-10
 -1       514 2.16156E+05 3.14561E+04 5.65891E+04-9.12660E+04-2.01908E-09-7.13499E-10
 -1       515 1.81832E+05-2.60862E+04 8.50105E+04-1.06071E+04 5.18412E-10-1.52431E-09
 -1       516-2.21087E+04 2.65081E+05 7.64160E+04-1.79126E+04 7.02130E-10 1.76459E-09
 -1       517 3.08939E+04 2.94124E+05 5.65991E+04-1.44614E+05 5.13501E-09 4.14070E-09
 -1       518-4.55823E+03 2.75487E+05 3.32237E+04-1.77486E+04 4.85102E-10 3.38787E-09
 -1       519 2.48749E+04 2.92437E+05 4.77655E+04-1.44949E+05 4.45107E-09 9.82254E-11
 -1       520-1.76144E+04 2.68160E+05 5.97452E+04-1.75940E+04 3.87445E-10-2.02999E-09
 -1       521-3.20543E+06-3.83956E+05-2.74361E+05-1.25113E+06 4.80213E-10-2.28465E-09
 -1       522-3.29994E+06-6.03254E+05-1.78556E+05-1.25339E+06 3.98359E-10-4.35102E-09
 -1       523-3.26022E+06-4.55335E+05-6.48188E+04-1.23493E+06 3.82897E-10-8.14907E-10
 -1       524-3.23498E+06-5.18658E+05-3.67908E+04-1.27756E+06-1.44337E-09 9.67702E-10
 -1       525-3.26999E+06-4.61263E+05-1.51512E+04-1.23002E+06 1.99179E-09 2.31103E-09
 -1       526-3.22298E+06-5.12560E+05-8.17770E+03-1.28551E+06 4.67776E-09 2.72303E-09
 -1       527-3.27275E+06-4.60313E+05-4.09485E+03-1.22769E+06-1.13778E-09-1.95359E-09
 -1       528-3.21997E+06-5.13688E+05-3.23080E+03-1.28869E+06-1.82615E-09-5.46976E-10
 -1       529-3.27324E+06-4.59759E+05-3.77210E+03-1.22711E+06-3.28555E-11 7.55335E-10
 -1       530-3.22113E+06-5.14282E+05-7.35931E+03-1.28799E+06 3.77929E-09-1.30785E-09
 -1       531-3.27154E+06-4.59812E+05-1.34609E+04-1.22832E+06 3.48609E-09 9.56788E-10
 -1       532-3.23073E+06-5.21005E+05-3.27920E+04-1.28243E+06 2.47201E-09-1.10049E-10
 -1       533-3.26341E+06-4.54087E+05-5.76486E+04-1.23212E+06 2.53078E-09 9.34961E-10
 -1       534-3.28780E+06-5.97093E+05-1.58944E+05-1.26173E+06 1.98452E-09-3.45426E-09
 -1       535-3.21489E+06-3.90354E+05-2.44137E+05-1.24629E+06-1.58980E-09-6.11180E-10
 -1       536 1.11862E+06-5.14507E+04 1.71551E+05-2.21492E+03 7.18501E-11-8.00355E-10
 -1       537 1.18486E+06 6.33832E+04 1.13543E+05-3.32330E+04-3.81260E-09 2.98132E-09
 -1       538 1.14552E+06-6.12572E+03 4.45726E+04-2.91676E+03-4.75666E-10 4.17822E-09
 -1       539 1.15429E+06 7.33591E+03 2.57401E+04-3.20017E+04 1.47725E-09 4.43742E-09
 -1       540 1.14899E+06-7.47174E+02 1.13944E+04-3.43340E+03-9.09495E-11-1.15961E-10
 -1       541 1.15022E+06 8.49759E+02 6.30023E+03-3.11698E+04 1.14665E-09 1.72577E-09
 -1       542 1.14947E+06-9.72421E+01 3.24682E+03-3.74874E+03-8.41510E-10-2.86298E-09
 -1       543 1.14964E+06 1.67475E+02 2.34168E+03-3.07421E+04 4.63444E-10-2.22025E-09
 -1       544 1.14950E+06-5.81770E+01 2.36658E+03-3.86133E+03-3.79245E-10 2.27963E-10
 -1       545 1.14988E+06 5.25208E+02 3.92045E+03-3.07158E+04 8.54072E-10 7.07445E-10
 -1       546 1.14923E+06-4.25913E+02 6.78277E+03-3.77495E+03-7.27596E-11-5.16798E-09
 -1       547 1.15223E+06 4.31790E+03 1.51034E+04-3.10870E+04-7.00311E-11-1.23964E-09
 -1       548 1.14720E+06-3.56857E+03 2.60901E+04-3.49001E+03 1.13232E-10 2.81943E-09
 -1       549 1.17009E+06 3.70816E+04 6.63857E+04-3.18271E+04 1.43882E-09 3.50337E-09
 -1       550 1.13147E+06-3.00712E+04 1.00269E+05-3.03883E+03-2.08047E-09 4.07454E-10
 -1       551 2.49066E+04-3.52564E+05 4.37375E+04-5.52879E+05 4.07454E-09-7.78527E-10
 -1       552 1.17071E+04-3.46091E+05 2.68576E+04-6.35428E+05 8.52742E-09 3.09228E-09
 -1       553 6.37785E+03-3.51384E+05 2.17404E+04-5.51997E+05 3.42334E-09 1.32786E-09
 -1       554 1.43991E+04-3.45375E+05 3.27559E+04-6.35669E+05 7.43603E-09 4.00132E-09
 -1       555 3.33244E+04-3.54650E+05 5.82035E+04-5.52590E+05 3.29419E-09-1.36606E-09
 -1       556-5.28178E+05-2.14018E+05-1.32748E+02-3.82265E+05 1.26602E-09-1.36788E-09
 -1       557-5.08620E+05-2.33334E+05-1.35808E-01-4.04735E+05 5.56611E-10 3.74393E-09
 -1       558-5.29662E+05-2.12981E+05-5.95172E+01-3.81942E+05-3.07045E-09-6.68024E-09
 -1       559-5.08743E+05-2.33794E+05-4.77082E+00-4.06186E+05 5.67525E-10 4.68475E-09
 -1       560-5.30353E+05-2.12561E+05-4.23332E+01-3.82262E+05 1.63709E-10 2.07274E-09
 -1       561-5.09256E+05-2.33625E+05-4.53305E+01-4.06681E+05 1.63709E-11 2.91061E-09
 -1       562-5.30758E+05-2.12334E+05-1.11977E+02-3.82509E+05-8.69477E-10-4.90218E-10
 -1       563-5.09562E+05-2.33492E+05-2.29303E+02-4.06910E+05 1.24055E-09 9.73159E-11
 -1       564-5.30900E+05-2.12229E+05-4.91525E+02-3.82610E+05 1.16052E-09 1.33696E-09
 -1       565-5.09650E+05-2.33466E+05-1.06638E+03-4.06952E+05-1.00840E-10 2.81943E-09
 -1       566-5.30757E+05-2.12255E+05-2.21326E+03-3.82551E+05-4.98403E-10 1.13141E-09
 -1       567-5.09862E+05-2.33840E+05-4.86840E+03-4.06756E+05 2.06455E-10 2.58296E-10
 -1       568-5.30179E+05-2.13351E+05-1.00393E+04-3.81932E+05-1.34605E-10-1.20053E-09
 -1       569-5.14843E+05-2.40680E+05-2.36890E+04-4.04796E+05-4.54929E-09-1.49266E-08
 -1       570-5.28370E+05-2.34023E+05-4.88934E+04-3.73084E+05-4.36557E-10-4.57021E-09
 -1       571 7.94669E+05 4.13613E+04 7.93601E+04-1.72122E+05 1.61526E-09-2.78760E-09
 -1       572 8.08403E+05 1.30167E+04 3.97282E+04-1.96933E+05 2.65572E-10-7.12316E-09
 -1       573 8.00120E+05 1.77472E+03 1.78022E+04-1.71424E+05 8.36735E-11-2.53385E-09
 -1       574 8.01353E+05 4.31814E+02 9.03885E+03-1.97605E+05-5.15683E-10-1.72986E-09
 -1       575 8.00366E+05-1.46915E+02 4.33745E+03-1.71366E+05-1.05683E-09-6.54836E-10
 -1       576 8.00438E+05-5.20298E+01 2.24023E+03-1.97668E+05-2.56205E-09 3.70710E-09
 -1       577 8.00335E+05-6.00405E+01 1.14464E+03-1.71362E+05-8.49582E-10 5.36966E-09
 -1       578 8.00350E+05-3.23030E+01 6.87693E+02-1.97676E+05 1.59434E-09-2.28283E-09
 -1       579 8.00464E+05-9.95330E+01 5.26981E+02-1.71358E+05 1.25328E-09-1.34787E-09
 -1       580 8.00619E+05-1.67384E+02 6.67001E+02-1.97681E+05 1.36879E-09 8.76753E-10
 -1       581 8.00793E+05-3.06583E+02 1.08290E+03-1.71356E+05-8.47649E-10 1.91358E-09
 -1       582 8.01299E+05-3.05167E+02 2.18040E+03-1.97608E+05-1.61344E-09 3.62343E-09
 -1       583 8.01223E+05-1.49142E+02 4.20940E+03-1.71430E+05-9.56788E-10 1.17598E-09
 -1       584 8.03641E+05 2.35333E+03 9.42844E+03-1.96745E+05-6.08998E-09-5.14228E-09
 -1       585 8.00525E+05 8.94376E+03 1.87551E+04-1.72246E+05 1.67711E-09 1.37516E-09
 -1       586 8.87604E+03 1.65128E+05 1.46580E+04-6.14032E+05-1.52431E-09-3.95448E-09
 -1       587 5.72949E+03 1.66494E+05 1.12570E+04-7.05631E+05-3.26690E-09-4.33920E-09
 -1       588 4.32298E+03 1.64288E+05 1.25844E+04-6.13132E+05-2.04818E-09 1.11686E-09
 -1       589 1.07694E+04 1.68832E+05 2.32589E+04-7.05700E+05-2.73576E-09 3.86535E-10
 -1       590 2.52129E+04 1.62295E+05 4.40258E+04-6.13937E+05-1.01136E-09 6.83940E-10
 -1       591-3.88413E+05-1.45913E+05-5.48037E+04-2.25412E+05-1.41472E-09 1.63709E-10
 -1       592-3.85902E+05-1.40716E+05-2.65844E+04-2.46225E+05-1.41881E-10-1.53523E-09
 -1       593-3.89706E+05-1.23197E+05-1.12659E+04-2.35387E+05 1.63709E-10 1.88629E-09
 -1       594-3.80201E+05-1.32893E+05-5.49396E+03-2.47780E+05-8.87667E-10 7.45410E-09
 -1       595-3.90054E+05-1.22139E+05-2.53029E+03-2.35943E+05-2.80124E-10 4.47744E-09
 -1       596-3.79811E+05-1.32520E+05-1.29435E+03-2.47840E+05-3.09910E-09-4.45561E-09
 -1       597-3.90150E+05-1.22134E+05-7.33224E+02-2.35978E+05 6.20730E-10 1.32695E-09
 -1       598-3.79789E+05-1.32512E+05-6.39550E+02-2.47842E+05-6.69388E-10 2.28829E-09
 -1       599-3.90136E+05-1.22132E+05-8.81791E+02-2.35973E+05 3.30147E-10 1.36424E-11
 -1       600-3.79812E+05-1.32525E+05-1.68718E+03-2.47835E+05-2.64663E-09-2.14186E-09
 -1       601-3.89997E+05-1.22132E+05-3.36730E+03-2.35922E+05-2.68028E-09 5.03496E-09
 -1       602-3.80340E+05-1.33029E+05-7.35383E+03-2.47768E+05 2.04636E-10-8.69477E-10
 -1       603-3.89555E+05-1.23538E+05-1.50908E+04-2.35182E+05 7.26322E-09 7.09224E-09
 -1       604-3.87930E+05-1.43573E+05-3.56209E+04-2.45790E+05-1.31513E-09-1.21236E-09
 -1       605-3.87913E+05-1.53872E+05-7.34206E+04-2.21749E+05-9.31323E-10-4.25644E-10
 -1       606 1.93815E+05-2.36829E+04-4.50085E+04 5.22398E+04-1.46520E-08-1.99088E-09
 -1       607 1.85865E+05-7.49107E+03-2.25127E+04 5.90854E+04-3.06318E-09-6.38056E-09
 -1       608 1.90317E+05-1.06056E+03-1.01028E+04 5.17824E+04 9.92077E-09-3.36058E-09
 -1       609 1.89412E+05-1.38433E+02-5.11013E+03 5.95426E+04-6.67205E-09-1.07207E-09
 -1       610 1.89870E+05 2.17975E+02-2.45162E+03 5.17358E+04-1.47884E-08-1.71894E-10
 -1       611 1.89656E+05 2.86331E+02-1.23709E+03 5.95866E+04-2.66473E-08-1.56069E-09
 -1       612 1.89723E+05 2.68826E+02-5.97744E+02 5.17331E+04-1.09794E-08-2.32649E-09
 -1       613 1.89607E+05 3.28925E+02-2.76537E+02 5.95881E+04-1.94377E-08-5.03542E-09
 -1       614 1.89632E+05 2.91858E+02-8.95643E+01 5.17329E+04-4.68026E-09-5.03724E-09
 -1       615 1.89543E+05 3.61851E+02 5.85572E+01 5.95858E+04 1.70658E-08-3.19596E-09
 -1       616 1.89564E+05 3.20799E+02 2.28021E+02 5.17345E+04-7.36418E-09-3.81851E-09
 -1       617 1.89528E+05 4.29845E+02 5.40965E+02 5.95824E+04 1.76124E-09 4.01860E-09
 -1       618 1.89488E+05 4.76086E+02 1.09582E+03 5.17349E+04-4.63842E-11-1.59071E-09
 -1       619 1.89900E+05 1.24608E+03 2.46268E+03 5.95786E+04 4.64388E-09-3.94857E-09
 -1       620 1.89097E+05 2.96249E+03 4.92864E+03 5.17256E+04 2.92471E-09-5.82077E-11
 -1       621 7.59750E+03 7.47262E+05 1.58125E+04-1.16373E+05-9.32232E-10 1.55387E-09
 -1       622 3.18904E+03 7.50142E+05 1.25857E+04-1.34027E+05 8.11178E-09 2.21371E-09
 -1       623 2.12906E+03 7.47991E+05 1.50060E+04-1.16436E+05-1.08048E-09 6.78119E-09
 -1       624 9.67004E+03 7.53693E+05 2.85453E+04-1.33602E+05 7.79983E-09 9.92259E-10
 -1       625 2.89267E+04 7.44203E+05 5.48327E+04-1.16779E+05 1.59616E-10-5.56065E-09
 -1       626 2.94035E+05 9.14238E+04-2.22804E+04 1.93668E+05-1.00044E-08-1.93540E-09
 -1       627 2.82744E+05 1.05788E+05-1.08017E+04 1.99090E+05-9.40054E-09 2.60820E-09
 -1       628 2.93824E+05 1.00243E+05-4.58314E+03 1.89046E+05 6.46833E-09 9.51195E-09
 -1       629 2.84456E+05 1.09496E+05-2.21795E+03 1.98926E+05 1.33696E-08 1.21033E-08
 -1       630 2.93628E+05 1.00684E+05-1.00062E+03 1.88711E+05 1.76642E-08 1.40892E-09
 -1       631 2.84469E+05 1.09729E+05-4.54903E+02 1.98883E+05-8.37645E-10 6.26784E-10
 -1       632 2.93510E+05 1.00719E+05-1.50079E+02 1.88644E+05-1.10649E-08 7.82165E-10
 -1       633 2.84411E+05 1.09761E+05 6.18028E+01 1.98841E+05-6.41512E-09 1.16129E-08
 -1       634 2.93440E+05 1.00723E+05 3.01132E+02 1.88614E+05-4.85306E-09-4.69481E-09
 -1       635 2.84414E+05 1.09767E+05 7.35822E+02 1.98832E+05-5.07816E-09-7.06314E-09
 -1       636 2.93395E+05 1.00707E+05 1.54549E+03 1.88605E+05-1.92704E-08-3.23325E-09
 -1       637 2.84727E+05 1.09972E+05 3.41817E+03 1.98844E+05 6.66660E-09 3.81806E-09
 -1       638 2.93275E+05 1.01311E+05 7.02027E+03 1.88317E+05-5.55974E-09 2.56205E-09
 -1       639 2.88443E+05 1.14790E+05 1.65880E+04 1.97976E+05-2.28770E-08-4.63297E-09
 -1       640 2.92638E+05 1.15404E+05 3.41802E+04 1.82172E+05-2.80670E-09-1.12941E-08
 -1       641 1.48390E+04 3.52045E+03-1.17891E+04 1.95183E+03-1.40317E-08 2.84081E-09
 -1       642 1.02714E+04-4.24145E+03-7.78323E+03 1.61831E+04-8.91612E-09 7.45479E-09
 -1       643 1.29920E+04 4.22505E+02-3.05766E+03 1.92666E+03-1.94011E-08 1.46974E-09
 -1       644 1.23074E+04-3.72168E+02-1.74254E+03 1.62078E+04 2.33047E-09 1.85992E-10
 -1       645 1.27526E+04 6.28492E+01-7.45610E+02 1.92553E+03 2.57864E-09-2.48349E-10
 -1       646 1.25511E+04 8.95401E+01-3.49939E+02 1.62067E+04-1.66074E-08-4.59178E-09
 -1       647 1.27163E+04 2.17854E+01-6.58591E+01 1.92727E+03 2.16341E-08 3.85637E-09
 -1       648 1.25925E+04 1.62082E+02 1.67607E+02 1.62044E+04 4.13280E-08 6.71209E-09
 -1       649 1.26970E+04 3.46458E+00 4.67179E+02 1.92759E+03 1.65757E-08-7.63976E-10
 -1       650 1.27045E+04 3.04605E+02 1.08167E+03 1.62041E+04 2.13755E-08-3.30823E-09
 -1       651 1.26080E+04-1.15577E+02 2.04230E+03 1.92752E+03 2.10343E-09-5.35124E-10
 -1       652 1.34465E+04 1.48928E+03 4.66628E+03 1.62020E+04 7.42023E-09 2.90447E-09
 -1       653 1.19768E+04-1.09587E+03 8.10195E+03 1.92930E+03 1.36324E-08-9.48148E-10
 -1       654 1.90143E+04 1.16982E+04 2.06627E+04 1.61571E+04-7.05313E-10-1.89721E-09
 -1       655 7.08114E+03-9.35506E+03 3.12119E+04 1.96889E+03 1.70380E-08-3.37423E-09
 -1       656 2.49733E+04-7.56255E+05-8.64108E+04 1.09782E+04 9.37143E-09 5.60340E-09
 -1       657-3.42562E+04-7.89683E+05-6.50709E+04 7.64465E+04 7.23958E-10-1.88265E-09
 -1       658 5.50923E+03-7.67716E+05-4.01291E+04 1.05864E+04 1.33434E-08 6.33759E-09
 -1       659-3.14019E+04-7.88316E+05-6.06343E+04 7.67624E+04-1.91039E-09-9.06216E-10
 -1       660 2.25038E+04-7.57783E+05-7.82364E+04 1.06660E+04 8.97853E-09-1.81421E-09
 -1       661 7.53512E+05 9.16313E+04 6.29404E+04 2.95221E+05 5.28144E-09 1.97178E-09
 -1       662 7.71582E+05 1.46042E+05 4.10271E+04 3.00446E+05-9.25866E-09 4.73437E-09
 -1       663 7.64956E+05 1.09181E+05 1.48743E+04 2.92841E+05-3.16930E-09 3.09592E-09
 -1       664 7.58498E+05 1.24680E+05 8.50280E+03 3.03560E+05 2.39004E-09-7.00857E-09
 -1       665 7.66346E+05 1.11426E+05 3.49916E+03 2.92690E+05-1.37987E-09 2.69370E-09
 -1       666 7.56920E+05 1.21970E+05 1.95315E+03 3.03735E+05 3.10015E-09-2.72848E-09
 -1       667 7.66494E+05 1.11735E+05 1.05801E+03 2.92719E+05 9.55100E-09 5.35431E-09
 -1       668 7.56770E+05 1.21679E+05 1.00255E+03 3.03721E+05 1.24130E-08-2.51441E-09
 -1       669 7.66490E+05 1.11705E+05 1.36652E+03 2.92706E+05 2.19555E-08 3.42368E-09
 -1       670 7.57015E+05 1.22195E+05 2.83310E+03 3.03778E+05 1.95357E-08 4.11615E-09
 -1       671 7.66262E+05 1.11234E+05 5.22530E+03 2.92661E+05-4.70459E-09-2.34172E-09
 -1       672 7.59430E+05 1.26261E+05 1.28006E+04 3.03481E+05-1.41580E-08 9.55401E-09
 -1       673 7.64131E+05 1.07878E+05 2.24238E+04 2.92921E+05 2.87628E-10 8.15817E-10
 -1       674 7.79246E+05 1.58401E+05 6.18787E+04 2.98684E+05-2.62844E-09-7.93716E-09
 -1       675 7.46817E+05 8.14677E+04 9.49469E+04 2.96573E+05 2.24572E-08 4.36557E-10
 -1       676 9.76855E+03-6.81812E+05-3.42370E+04 5.39082E+03 2.94167E-08-1.68484E-10
 -1       677-1.38833E+04-6.95154E+05-2.70852E+04 2.74812E+04 1.57368E-08 1.19940E-09
 -1       678 2.57555E+03-6.86012E+05-1.88115E+04 5.21364E+03 3.13219E-08-2.36355E-10
 -1       679-1.68795E+04-6.96820E+05-3.18413E+04 2.76776E+04 1.95423E-08-4.22338E-09
 -1       680 1.24997E+04-6.80188E+05-4.29299E+04 5.19412E+03 3.76640E-08-2.27297E-09
 -1       681 5.76212E+05-9.67665E+03 3.20877E+04-2.33505E+03-4.54747E-13-2.17551E-09
 -1       682 5.88707E+05 1.18420E+04 2.12760E+04-2.42498E+04-2.34877E-10-3.54703E-10
 -1       683 5.81251E+05-1.16427E+03 8.34986E+03-2.55262E+03-1.13687E-11 1.50976E-10
 -1       684 5.82913E+05 1.36345E+03 4.85615E+03-2.38508E+04-5.60931E-10-7.45558E-10
 -1       685 5.81898E+05-1.45922E+02 2.19593E+03-2.73269E+03-1.81899E-10-2.69210E-10
 -1       686 5.82113E+05 1.66413E+02 1.31818E+03-2.35676E+04 4.42924E-10 4.18623E-10
 -1       687 5.81981E+05-2.20217E+01 8.75876E+02-2.83585E+03-1.43359E-10-2.55540E-10
 -1       688 5.82021E+05 7.75540E+01 9.99106E+02-2.34374E+04-3.75508E-10-2.56847E-09
 -1       689 5.81958E+05-4.29141E+01 1.51966E+03-2.86285E+03-1.25851E-10 4.30248E-10
 -1       690 5.82285E+05 4.30039E+02 3.04450E+03-2.34613E+04-9.85096E-11 3.11104E-10
 -1       691 5.81723E+05-3.57322E+02 5.56106E+03-2.81188E+03 5.13865E-11-8.24002E-10
 -1       692 5.84258E+05 3.61596E+03 1.25839E+04-2.36363E+04 5.00222E-12 2.60115E-10
 -1       693 5.80024E+05-2.98746E+03 2.18131E+04-2.68780E+03-1.72349E-10-2.73758E-10
 -1       694 5.99199E+05 3.10677E+04 5.55709E+04-2.39342E+04-2.58296E-10-1.30967E-09
 -1       695 5.66858E+05-2.51804E+04 8.39577E+04-2.51678E+03-4.43833E-10-1.83354E-09
 -1       696-9.78468E+03 5.84644E+05 3.21337E+04-6.59880E+03 2.41926E-10-7.36691E-10
 -1       697 1.17241E+04 5.96668E+05 1.96217E+04-4.90002E+04 2.42380E-10-1.12959E-09
 -1       698-6.17222E+02 5.90114E+05 4.63785E+03-6.61673E+03-2.46473E-10 1.47139E-09
 -1       699-3.90320E+03 5.88237E+05-5.09537E+03-4.90610E+04-3.26736E-10 2.26032E-09
 -1       700 4.29932E+03 5.93114E+05-1.31404E+04-6.53995E+03-2.41016E-10 1.60753E-09
 -1       701-5.17701E+05-5.37402E+04-7.15964E+04-2.04864E+05-1.85537E-10 2.91038E-11
 -1       702-5.42448E+05-1.11335E+05-4.66531E+04-2.06012E+05 6.30564E-10 2.75850E-09
 -1       703-5.31058E+05-7.33538E+04-1.69149E+04-2.01758E+05-1.29674E-10 3.31056E-10
 -1       704-5.27040E+05-8.75947E+04-9.64432E+03-2.10272E+05 5.51779E-10 2.41744E-09
 -1       705-5.32883E+05-7.56503E+04-3.95559E+03-2.01308E+05-3.47768E-10-3.98586E-10
 -1       706-5.24908E+05-8.48798E+04-2.16011E+03-2.10937E+05-4.54975E-10 7.09974E-11
 -1       707-5.33188E+05-7.58572E+04-1.09292E+03-2.01185E+05-8.62883E-11 4.09386E-10
 -1       708-5.24574E+05-8.46887E+04-8.93676E+02-2.11127E+05 1.80705E-10-1.79668E-10
 -1       709-5.33231E+05-7.58129E+04-1.07346E+03-2.01137E+05 3.71074E-10 8.07489E-10
 -1       710-5.24759E+05-8.50340E+04-2.11212E+03-2.11148E+05-4.85727E-11 1.89431E-10
 -1       711-5.33013E+05-7.55237E+04-3.85082E+03-2.01164E+05 7.90465E-10 2.37924E-09
 -1       712-5.26701E+05-8.78365E+04-9.40227E+03-2.10699E+05 6.16751E-11 9.07221E-10
 -1       713-5.31314E+05-7.32026E+04-1.64721E+04-2.01513E+05-3.00133E-10 3.45608E-11
 -1       714-5.41565E+05-1.11136E+05-4.54599E+04-2.06756E+05-2.66482E-10-8.36735E-10
 -1       715-5.18389E+05-5.39972E+04-6.97430E+04-2.04436E+05-1.25692E-09-1.32059E-09
 -1       716 3.77452E+05-2.01147E+04 6.64203E+04-6.79265E+03 2.27374E-11-1.12050E-09
 -1       717 4.03508E+05 2.46381E+04 4.40813E+04-5.78744E+04-4.89308E-10 7.67614E-10
 -1       718 3.87882E+05-2.41536E+03 1.72666E+04-7.00993E+03-7.94898E-10 2.80943E-09
 -1       719 3.91281E+05 2.99227E+03 1.00328E+04-5.74668E+04-6.27097E-10 1.87129E-09
 -1       720 3.89220E+05-2.74637E+02 4.49202E+03-7.19775E+03 1.72622E-09 3.79396E-09
 -1       721 3.89536E+05 5.35872E+02 2.60791E+03-5.72107E+04 2.51771E-09 2.39038E-09
 -1       722 3.89396E+05-1.14366E+01 1.57976E+03-7.26604E+03 2.06194E-09 3.07739E-09
 -1       723 3.89369E+05 3.03565E+02 1.57236E+03-5.71985E+04 1.60662E-09 8.20989E-10
 -1       724 3.89376E+05-5.20065E+01 2.17894E+03-7.20994E+03 1.37334E-09 2.96816E-09
 -1       725 3.89914E+05 7.10250E+02 4.25570E+03-5.74383E+04 2.06091E-09 2.23159E-09
 -1       726 3.89062E+05-5.37785E+02 7.64735E+03-7.02648E+03 3.54703E-10 1.71212E-09
 -1       727 3.92994E+05 4.97502E+03 1.73794E+04-5.79246E+04 1.81581E-09 1.12550E-10
 -1       728 3.86734E+05-4.25099E+03 2.99649E+04-6.72331E+03 1.48793E-09-2.49929E-09
 -1       729 4.14135E+05 4.26394E+04 7.66169E+04-5.85607E+04-1.87811E-10-2.43290E-09
 -1       730 3.68607E+05-3.49747E+04 1.15486E+05-6.39908E+03 3.89264E-10-3.86353E-09
 -1       731-1.52686E+04 2.07854E+05 5.09157E+04-1.29436E+04 2.80124E-10-4.98858E-10
 -1       732 1.92559E+04 2.27206E+05 3.37625E+04-1.08656E+05 1.85582E-09-4.41389E-10
 -1       733-1.78787E+03 2.15823E+05 1.32931E+04-1.29147E+04 8.82210E-11 2.08672E-09
 -1       734 2.85498E+03 2.18504E+05 7.89098E+03-1.08697E+05 1.76070E-09 1.59184E-09
 -1       735-5.75171E+02 2.16717E+05 3.47522E+03-1.29039E+04-5.47971E-11 1.42154E-09
 -1       736-1.41833E+06-1.69345E+05-1.11442E+05-5.48040E+05 9.09495E-11 5.09317E-11
 -1       737-1.45927E+06-2.56574E+05-7.26221E+04-5.47000E+05 1.38243E-10 8.36735E-10
 -1       738-1.43938E+06-1.99627E+05-2.63134E+04-5.42884E+05 1.60298E-10-1.92813E-10
 -1       739-1.43480E+06-2.20071E+05-1.50019E+04-5.54181E+05-4.38376E-10-1.94063E-09
 -1       740-1.44242E+06-2.02997E+05-6.14240E+03-5.41942E+05 7.08837E-10 4.33374E-10
 -1       741-1.43115E+06-2.16166E+05-3.34380E+03-5.55593E+05 1.28352E-09 2.37435E-09
 -1       742-1.44302E+06-2.03200E+05-1.66675E+03-5.41613E+05 7.90124E-10-4.74074E-11
 -1       743-1.43047E+06-2.16011E+05-1.32058E+03-5.56061E+05 5.72072E-10-6.92353E-10
 -1       744-1.44312E+06-2.03106E+05-1.53284E+03-5.41502E+05-8.39066E-10-4.03531E-10
 -1       745-1.43075E+06-2.16467E+05-2.97275E+03-5.56060E+05 1.02924E-09-1.35469E-09
 -1       746-1.44276E+06-2.02765E+05-5.40098E+03-5.41608E+05 1.66995E-09 1.72145E-09
 -1       747-1.43368E+06-2.20180E+05-1.31780E+04-5.55167E+05 1.40378E-09 1.31513E-09
 -1       748-1.44022E+06-1.99674E+05-2.30879E+04-5.42285E+05 6.93490E-10 1.79443E-09
 -1       749-1.45493E+06-2.52458E+05-6.37392E+04-5.49148E+05 4.17458E-10 1.20053E-09
 -1       750-1.42186E+06-1.72989E+05-9.77943E+04-5.46687E+05 2.66482E-09 2.89583E-09
 -1       751 2.41625E+06-9.10030E+04 3.04156E+05-4.49324E+02-1.43882E-09-3.01225E-09
 -1       752 2.53335E+06 1.12278E+05 2.01203E+05-3.91232E+04-3.44107E-09-2.86673E-09
 -1       753 2.46394E+06-1.08083E+04 7.90763E+04-2.22795E+03 8.18545E-11-3.14321E-09
 -1       754 2.47934E+06 1.30135E+04 4.56737E+04-3.60840E+04 1.24942E-09-1.42245E-09
 -1       755 2.47011E+06-1.30985E+03 2.02962E+04-3.46198E+03-2.33285E-10-4.10182E-09
 -1       756 2.47222E+06 1.51073E+03 1.13229E+04-3.41121E+04-2.49656E-10 1.09776E-09
 -1       757 2.47095E+06-1.74519E+02 6.05012E+03-4.19983E+03-7.86940E-10 1.17529E-09
 -1       758 2.47128E+06 3.25607E+02 4.74901E+03-3.31057E+04-6.18172E-10-1.07849E-09
 -1       759 2.47098E+06-1.38442E+02 5.33738E+03-4.46871E+03-4.41901E-10-5.51154E-10
 -1       760 2.47192E+06 1.26122E+03 9.39104E+03-3.30225E+04 9.78844E-11-5.43309E-10
 -1       761 2.47030E+06-1.03936E+03 1.65587E+04-4.28290E+03-4.54747E-13-1.14778E-09
 -1       762 2.47761E+06 1.05954E+04 3.70428E+04-3.38552E+04 7.05086E-10 2.16414E-09
 -1       763 2.46530E+06-8.72367E+03 6.40924E+04-3.63582E+03 5.54792E-10 5.02041E-10
 -1       764 2.52126E+06 9.10217E+04 1.62971E+05-3.56201E+04-2.39879E-10 2.63572E-09
 -1       765 2.42666E+06-7.36687E+04 2.46345E+05-2.52903E+03-2.28192E-09 3.63798E-10
 -1       766-4.06450E+04 5.71394E+05 1.39181E+05-2.16943E+03-5.76983E-09-1.11731E-09
 -1       767 5.39885E+04 6.26092E+05 1.02711E+05-9.01533E+03-6.61385E-09-1.09139E-10
 -1       768-8.32634E+03 5.90408E+05 5.98068E+04-1.84951E+03-3.81124E-09 5.67070E-10
 -1       769 4.26023E+04 6.19991E+05 8.47180E+04-9.64946E+03-4.15457E-09 1.87401E-09
 -1       770-3.04148E+04 5.77552E+05 1.06181E+05-1.54669E+03-1.24055E-09 1.29512E-09
 -1       771-1.65529E+06-3.45763E+05-1.06137E+05-6.89738E+05-3.00315E-09-7.49424E-10
 -1       772-1.66025E+06-3.25668E+05-5.14724E+04-7.18433E+05 1.03682E-10 2.72848E-11
 -1       773-1.65767E+06-3.01913E+05-2.18254E+04-7.09116E+05 3.63798E-12 8.91305E-11
 -1       774-1.64923E+06-3.10540E+05-1.06275E+04-7.21483E+05 1.66438E-09-4.02270E-09
 -1       775-1.65842E+06-2.99801E+05-4.89285E+03-7.10202E+05 5.74801E-10-4.71118E-10
 -1       776-1.64854E+06-3.09821E+05-2.45965E+03-7.21731E+05-1.65528E-10 3.67163E-09
 -1       777-1.65876E+06-2.99708E+05-1.32767E+03-7.10327E+05 3.92902E-10 1.60253E-09
 -1       778-1.64862E+06-3.09772E+05-1.00502E+03-7.21899E+05 2.40107E-10 6.98492E-10
 -1       779-1.65896E+06-2.99602E+05-1.22990E+03-7.10413E+05 3.96540E-10 1.05479E-09
 -1       780-1.64882E+06-3.09737E+05-2.21676E+03-7.22079E+05 6.76664E-10 1.27716E-09
 -1       781-1.65900E+06-2.99477E+05-4.36191E+03-7.10456E+05 4.25644E-10 7.24867E-10
 -1       782-1.64969E+06-3.10345E+05-9.49802E+03-7.22224E+05-3.61979E-10-2.69483E-09
 -1       783-1.65869E+06-3.01131E+05-1.94707E+04-7.09599E+05 2.54659E-11-4.56566E-10
 -1       784-1.65941E+06-3.24232E+05-4.60036E+04-7.20268E+05 6.45741E-11 1.58252E-10
 -1       785-1.65710E+06-3.39944E+05-9.48109E+04-6.92096E+05-3.63798E-12 1.81899E-11
 -1       786 1.24495E+06-4.12011E+04 1.37618E+05-1.06273E+03 1.04592E-09-3.29601E-09
 -1       787 1.29782E+06 5.08947E+04 9.10568E+04-1.80711E+04-6.32099E-10-5.03496E-09
 -1       788 1.26653E+06-4.88056E+03 3.57740E+04-1.42370E+03-8.96307E-10-2.36287E-09
 -1       789 1.27343E+06 5.90955E+03 2.06460E+04-1.74577E+04-1.46883E-10-8.79027E-10
 -1       790 1.26932E+06-5.85806E+02 9.16231E+03-1.67035E+03 5.51154E-10 2.21007E-10
 -1       791 1.27024E+06 6.81379E+02 5.07916E+03-1.70913E+04 8.19114E-10 1.81217E-09
 -1       792 1.26971E+06-7.72049E+01 2.66272E+03-1.78990E+03 4.96414E-10 1.00852E-09
 -1       793 1.26983E+06 1.25154E+02 1.99482E+03-1.69765E+04 3.33637E-10 2.29535E-09
 -1       794 1.26973E+06-5.78522E+01 2.12315E+03-1.78517E+03-6.09020E-10-3.73353E-09
 -1       795 1.27008E+06 4.67180E+02 3.62893E+03-1.71115E+04 3.41799E-10-1.34060E-09
 -1       796 1.26947E+06-4.03020E+02 6.34048E+03-1.65490E+03-1.09094E-09-2.70961E-09
 -1       797 1.27226E+06 4.03492E+03 1.41591E+04-1.74967E+04-5.74801E-10-1.96178E-09
 -1       798 1.26756E+06-3.34253E+03 2.44813E+04-1.40013E+03-9.32005E-10 6.66660E-10
 -1       799 1.28896E+06 3.47949E+04 6.22845E+04-1.81223E+04-4.68935E-09-7.31234E-10
 -1       800 1.25280E+06-2.81898E+04 9.40992E+04-1.03330E+03 2.20098E-10-9.67702E-10
 -1       801-2.93588E+04 7.37583E+05 9.71510E+04-7.96419E+04 1.80953E-08-1.90994E-09
 -1       802 4.80561E+04 7.74176E+05 8.30585E+04-6.56886E+05 3.35640E-08-6.15182E-09
 -1       803-7.46782E+03 7.48551E+05 6.41462E+04-8.03924E+04 2.95986E-08 1.00622E-08
 -1       804 6.97465E+04 7.88246E+05 1.18409E+05-6.57216E+05 3.06391E-08 2.06637E-09
 -1       805-5.03061E+04 7.25578E+05 1.61226E+05-7.93292E+04 1.58907E-08 4.93310E-09
 -1       806-8.61865E+05-2.13838E+05-7.85129E+04-3.86855E+05 1.76487E-09 4.29281E-10
 -1       807-8.63686E+05-2.00973E+05-3.80948E+04-4.10391E+05-1.80626E-09 2.21462E-09
 -1       808-8.63416E+05-1.81529E+05-1.61320E+04-4.01281E+05 1.00044E-10-3.98359E-10
 -1       809-8.55581E+05-1.89612E+05-7.86794E+03-4.12308E+05-1.75123E-09 3.02225E-09
 -1       810-8.63806E+05-1.80078E+05-3.61278E+03-4.02037E+05-4.55111E-09-2.13413E-09
 -1       811-8.54955E+05-1.89093E+05-1.83506E+03-4.12318E+05-6.15273E-10 1.47656E-09
 -1       812-8.63893E+05-1.80104E+05-1.00849E+03-4.02056E+05 2.21053E-09-2.09275E-09
 -1       813-8.54888E+05-1.89096E+05-8.26228E+02-4.12289E+05 4.39286E-10 3.96540E-10
 -1       814-8.63863E+05-1.80116E+05-1.07595E+03-4.02042E+05 2.48110E-09-1.00044E-09
 -1       815-8.54915E+05-1.89111E+05-2.01195E+03-4.12275E+05-1.37152E-09 1.38243E-09
 -1       816-8.63709E+05-1.80115E+05-3.98980E+03-4.01992E+05-3.51702E-09 2.73394E-09
 -1       817-8.55567E+05-1.89695E+05-8.70130E+03-4.12214E+05-2.58296E-10-2.68119E-09
 -1       818-8.63228E+05-1.81754E+05-1.78483E+04-4.01137E+05 1.68438E-09-2.81398E-09
 -1       819-8.64544E+05-2.02213E+05-4.21382E+04-4.09988E+05-5.43150E-09-2.25555E-10
 -1       820-8.61433E+05-2.17533E+05-8.68485E+04-3.85200E+05 4.87489E-10-1.58252E-10
 -1       821-8.15593E+05 2.88212E+04-9.62438E+04 4.63450E+02-7.50833E-09 6.73026E-10
 -1       822-8.52432E+05-3.56311E+04-6.36850E+04 1.45242E+04-4.45948E-09-1.99634E-09
 -1       823-8.30683E+05 3.39225E+03-2.50215E+04 6.53711E+01 7.47514E-09-7.59792E-09
 -1       824-8.35462E+05-4.08591E+03-1.44255E+04 1.52063E+04-4.13843E-09 1.84696E-09
 -1       825-8.32625E+05 3.99248E+02-6.41978E+03-2.22257E+02-1.48495E-08-4.18413E-09
 -1       826-8.33311E+05-3.92900E+02-3.56953E+03 1.56942E+04-2.72603E-08 2.20876E-09
 -1       827-8.32890E+05 5.44918E+01-1.91683E+03-4.23865E+02-1.67706E-08-7.49947E-09
 -1       828-8.33080E+05 8.31827E+00-1.50844E+03 1.60097E+04-1.97924E-08-6.64011E-09
 -1       829-8.32898E+05 5.22135E+01-1.71025E+03-5.38591E+02-8.22297E-10-5.55538E-09
 -1       830-8.33309E+05-2.88418E+02-3.02518E+03 1.61478E+04 9.93667E-09-4.94768E-09
 -1       831-8.32680E+05 3.44589E+02-5.34562E+03-5.62374E+02-9.80492E-09-4.68185E-09
 -1       832-8.35136E+05-3.33157E+03-1.19802E+04 1.61069E+04-3.65753E-09-4.06544E-09
 -1       833-8.31071E+05 2.83257E+03-2.07403E+04-4.96900E+02 4.03622E-09-6.83121E-09
 -1       834-8.49242E+05-2.94743E+04-5.28096E+04 1.58922E+04 1.19496E-09-4.27190E-09
 -1       835-8.18561E+05 2.39215E+04-7.97816E+04-3.40434E+02 2.40289E-09-7.61065E-09
 -1       836-5.73496E+04 2.27598E+06 1.98922E+05-3.47200E+04-2.81580E-09-2.68301E-09
 -1       837 8.07255E+04 2.35394E+06 1.55897E+05-2.50628E+05 1.21418E-09 1.95246E-09
 -1       838-1.42681E+04 2.30088E+06 1.05555E+05-3.63049E+04-4.91764E-09 2.35752E-09
 -1       839 9.25438E+04 2.36003E+06 1.74488E+05-2.50199E+05-2.74667E-10 6.35919E-09
 -1       840-6.78238E+04 2.26961E+06 2.33116E+05-3.51441E+04-4.07454E-09 5.83168E-09
 -1       841-3.43537E+05-3.21945E+04-5.43156E+04-1.34711E+05-6.03723E-09-1.07138E-09
 -1       842-3.79155E+05-5.89084E+04-3.53700E+04-1.16290E+05-1.32491E-08-1.04683E-09
 -1       843-3.53358E+05-4.73629E+04-1.28331E+04-1.32713E+05-1.04314E-08 1.07912E-09
 -1       844-3.68026E+05-4.03924E+04-7.29915E+03-1.18965E+05-3.58614E-09-2.35150E-09
 -1       845-3.54541E+05-4.92953E+04-2.98022E+03-1.32601E+05 2.43790E-09 7.12760E-09
 -1       846-3.66772E+05-3.79928E+04-1.58467E+03-1.19109E+05-2.03958E-08 3.45314E-09
 -1       847-3.54642E+05-4.95835E+04-7.23850E+02-1.32662E+05-1.67088E-08 8.78089E-10
 -1       848-3.66717E+05-3.76197E+04-4.40931E+02-1.19034E+05-1.00963E-08 5.87017E-09
 -1       849-3.54625E+05-4.96352E+04-3.47457E+02-1.32703E+05 7.68409E-09 1.09896E-09
 -1       850-3.66789E+05-3.76272E+04-5.23440E+02-1.18995E+05 5.32084E-09 3.19972E-10
 -1       851-3.54581E+05-4.95726E+04-8.81484E+02-1.32708E+05 2.01671E-08-2.47404E-10
 -1       852-3.67156E+05-3.82970E+04-2.10206E+03-1.18942E+05 1.92961E-08-6.81813E-09
 -1       853-3.54253E+05-4.90147E+04-3.67358E+03-1.32732E+05 1.40312E-09-1.26272E-09
 -1       854-3.70271E+05-4.36395E+04-1.01107E+04-1.18225E+05-1.17623E-08-5.37966E-10
 -1       855-3.51492E+05-4.46428E+04-1.55293E+04-1.33254E+05-6.35691E-09-6.34554E-09
 -1       856-7.67429E+05 2.24457E+04-7.51221E+04 8.26320E+02-1.70057E-08-9.74615E-09
 -1       857-7.96150E+05-2.76531E+04-4.96711E+04 2.65387E+04-1.42029E-08-5.24597E-09
 -1       858-7.79197E+05 2.63755E+03-1.95314E+04 3.35068E+02-1.78734E-08-5.26325E-09
 -1       859-7.83031E+05-3.00636E+03-1.12428E+04 2.73470E+04 5.07043E-10-3.71983E-09
 -1       860-7.80713E+05 3.19691E+02-4.99855E+03 1.05605E+01 6.33736E-09-8.13566E-09
 -1       861-7.81422E+05-9.84419E+01-2.75715E+03 2.78474E+04-1.88444E-08-3.23308E-09
 -1       862-7.80921E+05 5.83393E+01-1.44221E+03-1.68262E+02 2.13018E-08-9.24922E-09
 -1       863-7.81255E+05 2.28472E+02-1.06959E+03 2.80616E+04 4.68220E-08-1.31350E-08
 -1       864-7.80932E+05 5.01352E+01-1.12784E+03-2.05116E+02 2.21975E-08-1.02646E-08
 -1       865-7.81362E+05 3.96803E+01-1.91822E+03 2.79913E+04 1.80016E-08-8.05723E-09
 -1       866-7.80797E+05 2.22139E+02-3.35745E+03-9.76311E+01-2.83421E-09-9.42225E-09
 -1       867-7.82419E+05-1.89014E+03-7.48194E+03 2.76359E+04-6.74572E-09-1.22293E-09
 -1       868-7.79793E+05 1.75633E+03-1.29708E+04 1.52521E+02 5.94446E-09-1.00868E-08
 -1       869-7.91092E+05-1.82547E+04-3.29632E+04 2.69703E+04-2.63044E-08-6.70798E-09
 -1       870-7.71986E+05 1.48911E+04-4.98597E+04 5.74441E+02 7.53334E-09-8.94215E-09
 -1       871-5.12916E+03-3.03024E+04-7.56971E+03 1.30698E+05 1.60380E-08-1.29239E-09
 -1       872-2.01633E+03-3.15242E+04-2.03783E+03 1.50104E+05 1.61490E-08-1.30422E-09
 -1       873-3.35289E+02-3.11920E+04 2.57874E+03 1.30473E+05 1.19167E-08 1.29603E-09
 -1       874 2.60586E+03-2.92362E+04 9.10728E+03 1.50228E+05 2.18597E-08-1.86640E-09
 -1       875 9.93492E+03-3.27465E+04 1.96897E+04 1.30627E+05 2.25018E-08 2.10957E-09
 -1       876 8.29842E+05 9.81846E+04 7.88354E+04 3.26352E+05 3.41061E-09 2.66300E-09
 -1       877 8.50335E+05 1.68638E+05 5.14069E+04 3.35507E+05-1.89478E-08-3.40515E-09
 -1       878 8.44067E+05 1.20301E+05 1.86219E+04 3.23500E+05-7.00908E-09-3.68800E-09
 -1       879 8.34104E+05 1.41668E+05 1.06495E+04 3.39137E+05 1.32113E-08-4.73824E-09
 -1       880 8.45713E+05 1.23219E+05 4.36247E+03 3.23417E+05-4.73528E-09 3.09524E-09
 -1       881 8.32264E+05 1.38102E+05 2.41173E+03 3.39140E+05 2.09400E-09-4.29372E-09
 -1       882 8.45824E+05 1.23691E+05 1.24893E+03 3.23540E+05 1.66657E-08-4.84988E-09
 -1       883 8.32175E+05 1.37591E+05 1.08766E+03 3.38958E+05 8.35450E-09 9.78716E-09
 -1       884 8.45774E+05 1.23730E+05 1.38076E+03 3.23587E+05 1.83887E-08 8.80493E-09
 -1       885 8.32469E+05 1.38011E+05 2.78103E+03 3.38926E+05 2.62531E-08 5.47385E-09
 -1       886 8.45534E+05 1.23292E+05 5.09601E+03 3.23565E+05-7.63799E-09-3.60319E-09
 -1       887 8.34827E+05 1.41961E+05 1.24588E+04 3.38636E+05-1.88509E-08-6.98856E-09
 -1       888 8.43476E+05 1.20008E+05 2.18161E+04 3.23801E+05-1.50635E-10-6.10271E-10
 -1       889 8.54063E+05 1.73282E+05 6.01983E+04 3.34050E+05-1.13851E-08-2.47019E-09
 -1       890 8.26674E+05 9.42649E+04 9.23561E+04 3.27302E+05 4.11364E-09-2.32831E-10
 -1       891 3.45790E+03-3.58507E+05-1.29323E+04 1.49722E+04 2.47824E-08 2.33194E-09
 -1       892-5.91029E+03-3.63019E+05-1.09496E+04 1.21103E+05 7.23549E-09 3.57886E-10
 -1       893 1.16740E+03-3.59884E+05-8.81672E+03 1.47870E+04 1.05908E-08 1.19701E-09
 -1       894-9.53459E+03-3.64903E+05-1.66478E+04 1.21053E+05 2.77851E-09-8.41283E-12
 -1       895 6.68188E+03-3.56553E+05-2.33896E+04 1.50197E+04 3.40242E-08-5.09317E-11
 -1       896 9.22980E+05-4.69495E+03 1.55468E+04-1.28615E+03-1.12323E-10-1.36879E-09
 -1       897 9.29008E+05 5.72948E+03 1.03162E+04-1.72274E+04-4.02451E-10-6.56655E-10
 -1       898 9.25424E+05-5.67757E+02 4.05131E+03-1.57990E+03-1.25510E-10-7.20320E-10
 -1       899 9.26190E+05 6.54889E+02 2.36796E+03-1.66967E+04-2.83762E-10-4.05407E-10
 -1       900 9.25737E+05-7.33969E+01 1.08838E+03-1.81631E+03-2.01680E-10-2.33854E-10
 -1       901 9.25797E+05 7.85933E+01 6.91540E+02-1.63104E+04-1.26306E-10-2.51205E-10
 -1       902 9.25775E+05-1.36451E+01 5.24923E+02-1.96627E+03-3.22871E-11 4.89706E-11
 -1       903 9.25758E+05 5.02355E+01 6.95358E+02-1.60942E+04-4.38263E-11 2.39478E-10
 -1       904 9.25752E+05-3.34006E+01 1.14136E+03-2.03252E+03 8.81073E-13 2.73843E-10
 -1       905 9.25958E+05 3.31662E+02 2.34384E+03-1.60460E+04 4.14957E-11-3.32875E-10
 -1       906 9.25569E+05-2.75046E+02 4.30983E+03-2.01442E+03-3.04112E-11-2.14413E-10
 -1       907 9.27470E+05 2.81157E+03 9.76341E+03-1.61636E+04-5.17275E-12 4.90218E-10
 -1       908 9.24248E+05-2.31095E+03 1.69365E+04-1.91482E+03 5.84350E-11 7.18501E-11
 -1       909 9.39030E+05 2.41258E+04 4.31313E+04-1.64288E+04-4.43379E-10-1.15006E-09
 -1       910 9.14022E+05-1.95254E+04 6.51740E+04-1.75033E+03-9.50422E-11-8.54925E-10
 -1       911 3.10680E+05-2.93457E+03 9.64570E+03-2.52137E+03 1.11868E-10-1.10049E-10
 -1       912 3.14484E+05 3.57725E+03 6.41573E+03-2.14319E+04-5.25233E-10 7.47718E-10
 -1       913 3.12196E+05-3.58022E+02 2.51876E+03-2.59591E+03-2.96041E-10 4.92946E-10
 -1       914 3.12692E+05 4.36177E+02 1.48956E+03-2.12768E+04-3.08205E-10 8.09109E-10
 -1       915 3.12389E+05-4.39323E+01 7.08572E+02-2.67630E+03 9.39053E-10 1.20025E-09
 -1       916 3.12426E+05 8.83848E+01 5.00550E+02-2.11505E+04 1.21599E-09 1.10728E-09
 -1       917 3.12410E+05-5.27153E+00 4.64176E+02-2.72216E+03 1.20622E-09 1.33576E-09
 -1       918 3.12412E+05 9.02015E+01 7.19803E+02-2.10961E+04 5.97709E-10 1.13780E-09
 -1       919 3.12381E+05-3.28526E+01 1.26187E+03-2.73065E+03 7.37259E-10 1.74072E-09
 -1       920 3.12657E+05 4.09379E+02 2.64304E+03-2.11159E+04 1.55393E-09 5.47743E-10
 -1       921 3.12173E+05-3.11331E+02 4.88043E+03-2.70232E+03 7.80119E-10 6.80757E-10
 -1       922 3.14398E+05 3.21907E+03 1.10792E+04-2.12068E+04 1.22407E-09 5.85032E-10
 -1       923 3.10677E+05-2.62972E+03 1.92170E+04-2.63960E+03 2.85809E-10 6.99401E-10
 -1       924 3.27564E+05 2.74179E+04 4.89731E+04-2.13302E+04 3.62775E-10-2.80124E-10
 -1       925 2.99075E+05-2.21911E+04 7.39928E+04-2.57942E+03 4.73847E-10-2.54659E-11
 -1       926-1.21937E+06 1.97362E+04-6.58023E+04 4.87027E+02 3.80169E-10-1.09139E-10
 -1       927-1.24455E+06-2.43985E+04-4.35508E+04 6.44889E+03-9.68612E-10 4.11092E-10
 -1       928-1.22968E+06 2.33302E+03-1.70888E+04 3.13223E+02-6.68592E-10-9.26775E-10
 -1       929-1.23290E+06-2.83580E+03-9.84886E+03 6.73496E+03 1.21554E-09-7.13953E-10
 -1       930-1.23101E+06 2.78808E+02-4.34837E+03 2.00738E+02-2.48917E-10-2.57160E-10
 -1       931-1.23139E+06-3.21118E+02-2.37126E+03 6.90511E+03-6.70468E-11-4.53156E-10
 -1       932-1.23119E+06 3.61238E+01-1.16947E+03 1.42936E+02 6.32127E-10-9.73500E-10
 -1       933-1.23118E+06-3.97505E+01-7.43141E+02 6.96640E+03-5.02929E-10-7.22764E-10
 -1       934-1.23121E+06 1.59778E+01-6.14187E+02 1.39413E+02-3.54447E-10-7.92561E-10
 -1       935-1.23122E+06-9.97355E+01-8.77440E+02 6.91857E+03 1.32991E-09-9.23841E-10
 -1       936-1.23116E+06 8.92320E+01-1.44173E+03 1.90782E+02-9.92486E-11-5.69969E-10
 -1       937-1.23169E+06-8.96666E+02-3.15871E+03 6.76199E+03 5.94355E-10-1.41199E-09
 -1       938-1.23074E+06 7.40295E+02-5.44388E+03 2.96058E+02 9.83846E-10-1.51340E-09
 -1       939-1.23538E+06-7.74748E+03-1.38404E+04 6.48851E+03 7.20831E-10-5.62295E-10
 -1       940-1.22746E+06 6.26620E+03-2.09101E+04 4.64375E+02-1.30967E-10 9.36780E-11
 -1       941 3.16398E+06-1.14416E+05 3.83510E+05 4.95869E+02 2.16420E-09 3.34694E-09
 -1       942 3.31083E+06 1.41623E+05 2.53519E+05-9.15123E+02 2.41792E-09-3.16140E-09
 -1       943 3.22409E+06-1.35260E+04 9.97412E+04 6.95188E+02 5.95946E-10-5.12955E-10
 -1       944 3.24320E+06 1.64807E+04 5.75608E+04-1.36169E+03-7.51243E-10-1.98906E-09
 -1       945 3.23188E+06-1.61486E+03 2.56124E+04 9.44339E+02 1.27716E-09 1.83172E-09
 -1       946 3.23444E+06 1.91826E+03 1.42680E+04-1.91397E+03 1.11959E-09 4.29759E-09
 -1       947 3.23295E+06-2.16819E+02 7.62327E+03 1.24781E+03 8.39350E-10 2.20393E-09
 -1       948 3.23336E+06 3.82427E+02 5.96437E+03-2.59484E+03 1.13982E-09 1.40911E-09
 -1       949 3.23298E+06-1.83760E+02 6.68224E+03 1.62515E+03-1.98065E-09-5.38489E-09
 -1       950 3.23417E+06 1.54112E+03 1.17422E+04-3.44646E+03 2.25782E-09 4.52769E-09
 -1       951 3.23214E+06-1.29869E+03 2.06954E+04 2.09933E+03-1.79648E-09-5.09681E-09
 -1       952 3.24121E+06 1.32158E+04 4.62730E+04-4.52217E+03-8.22183E-10-3.08137E-09
 -1       953 3.22588E+06-1.08591E+04 8.00799E+04 2.69990E+03-2.16187E-09 3.60160E-10
 -1       954 3.29552E+06 1.13647E+05 2.03494E+05-5.92543E+03-5.43571E-09-2.20825E-09
 -1       955 3.17761E+06-9.18537E+04 3.07715E+05 3.48524E+03-1.62049E-09-2.76486E-09
 -1       956-2.61688E+05-5.23570E+03-1.01511E+04 6.03258E+04-1.30476E-08 1.76442E-10
 -1       957-2.63493E+05-1.53425E+03-5.07193E+03 6.87199E+04-1.35333E-09-7.90351E-10
 -1       958-2.62567E+05-9.61421E+01-2.28212E+03 5.99404E+04 1.04319E-08-1.70985E-10
 -1       959-2.62805E+05 1.76464E+02-1.15282E+03 6.91388E+04-6.17729E-09 4.34738E-10
 -1       960-2.62749E+05 2.42650E+02-5.59052E+02 5.98964E+04-1.54105E-08 1.40972E-10
 -1       961-2.62832E+05 3.18075E+02-2.86961E+02 6.91875E+04-2.45518E-08 7.91260E-10
 -1       962-2.62841E+05 2.92258E+02-1.52665E+02 5.98898E+04-9.72432E-09 1.08912E-09
 -1       963-2.62899E+05 3.59605E+02-9.71196E+01 6.91959E+04-1.27802E-08 8.76298E-10
 -1       964-2.62896E+05 3.22724E+02-8.99477E+01 5.98871E+04-1.76169E-09-1.17825E-09
 -1       965-2.62947E+05 3.84006E+02-1.30359E+02 6.91971E+04 1.19965E-08-1.84127E-09
 -1       966-2.62918E+05 3.37972E+02-2.32545E+02 5.98881E+04-9.64519E-09-1.04546E-09
 -1       967-2.62994E+05 3.57796E+02-4.73210E+02 6.91813E+04-8.19682E-11 1.09503E-09
 -1       968-2.62885E+05 2.24870E+02-9.30510E+02 5.99031E+04-4.06703E-09-7.50788E-10
 -1       969-2.63314E+05-3.23696E+02-2.07348E+03 6.90323E+04-4.62865E-09-6.89397E-10
 -1       970-2.62546E+05-1.87064E+03-4.14757E+03 6.00445E+04 3.81351E-09 1.12504E-09
 -1       971-9.41275E+05 1.97601E+04-6.61753E+04 1.50900E+02-1.42327E-08-3.09592E-09
 -1       972-9.66511E+05-2.43630E+04-4.37496E+04 2.38827E+04-1.58643E-08-3.41333E-09
 -1       973-9.51636E+05 2.31417E+03-1.72135E+04-4.48349E+02-1.57506E-08-5.06861E-09
 -1       974-9.54970E+05-2.64804E+03-9.91618E+03 2.48864E+04-3.08705E-09-5.62341E-09
 -1       975-9.52969E+05 2.74336E+02-4.43760E+03-8.58900E+02 6.14045E-09-8.85166E-09
 -1       976-9.53572E+05-8.17881E+01-2.49526E+03 2.55367E+04-1.38006E-08-4.67628E-09
 -1       977-9.53149E+05 4.80655E+01-1.40460E+03-1.10162E+03 2.72146E-08-8.62156E-09
 -1       978-9.53457E+05 1.96086E+02-1.22044E+03 2.58549E+04 4.53629E-08-8.63207E-09
 -1       979-9.53144E+05 5.77932E+01-1.52877E+03-1.17895E+03 2.27825E-08-9.29492E-09
 -1       980-9.53670E+05-1.09138E+02-2.84039E+03 2.58414E+04 1.44319E-08-7.13248E-09
 -1       981-9.52934E+05 3.32347E+02-5.09463E+03-1.08828E+03 4.37467E-10-7.01925E-09
 -1       982-9.55362E+05-3.04845E+03-1.14544E+04 2.54971E+04-2.23793E-09-5.16980E-09
 -1       983-9.51393E+05 2.70179E+03-1.98662E+04-8.32127E+02 1.63063E-08-7.09406E-09
 -1       984-9.68773E+05-2.81185E+04-5.05620E+04 2.48155E+04-7.51243E-09-3.69982E-09
 -1       985-9.39418E+05 2.28775E+04-7.64317E+04-3.96926E+02 7.72479E-09-7.05404E-09
 -3
 9999
