
 stresses (elem, integ.pnt.,sxx,syy,szz,sxy,sxz,syz) for set ELALL and time  0.1000000E+01

         1   1  6.930932E+06  4.610926E+05  5.679484E+05  1.905754E+05  3.875490E+05  1.177137E+02
         1   2  6.860640E+06 -3.153877E+04  2.573908E+05  6.119211E+04  2.499202E+05  2.437553E+01
         1   3  6.932519E+06 -2.514930E+04  1.605219E+05 -6.817511E+04  1.122845E+05 -1.219980E+01
         1   4  6.930894E+06  4.610251E+05  5.679388E+05 -4.261924E-08  3.875490E+05  1.997373E-09
         1   5  6.860636E+06 -3.154573E+04  2.573898E+05  2.615447E-08  2.499202E+05  5.830946E-09
         1   6  6.932514E+06 -2.515794E+04  1.605206E+05  1.502191E-08  1.122845E+05  5.203099E-09
         1   7  6.930932E+06  4.610926E+05  5.679484E+05 -1.905754E+05  3.875490E+05 -1.177137E+02
         1   8  6.860640E+06 -3.153877E+04  2.573908E+05 -6.119211E+04  2.499202E+05 -2.437553E+01
         1   9  6.932519E+06 -2.514930E+04  1.605219E+05  6.817511E+04  1.122845E+05  1.219980E+01
         1  10  6.930772E+06  4.610529E+05  5.676692E+05  1.905753E+05 -3.553953E-09 -8.866375E-11
         1  11  6.860573E+06 -3.155531E+04  2.572747E+05  6.119211E+04 -3.215527E-09 -7.494223E-11
         1  12  6.932506E+06 -2.515264E+04  1.604985E+05 -6.817511E+04 -9.930326E-09  2.649905E-09
         1  13  6.930734E+06  4.609853E+05  5.676596E+05  9.120265E-09  8.371339E-09 -3.949364E-10
         1  14  6.860569E+06 -3.156228E+04  2.572737E+05  3.776922E-10 -1.724438E-08 -4.167758E-10
         1  15  6.932501E+06 -2.516128E+04  1.604972E+05 -3.925676E-09 -4.523119E-09  2.401544E-09
         1  16  6.930772E+06  4.610529E+05  5.676692E+05 -1.905753E+05 -2.765751E-09 -4.997800E-10
         1  17  6.860573E+06 -3.155531E+04  2.572747E+05 -6.119211E+04 -5.862976E-11 -9.040262E-11
         1  18  6.932506E+06 -2.515264E+04  1.604985E+05  6.817511E+04  4.453110E-10  2.435673E-09
         1  19  6.930932E+06  4.610926E+05  5.679484E+05  1.905754E+05 -3.875490E+05 -1.177137E+02
         1  20  6.860640E+06 -3.153877E+04  2.573908E+05  6.119211E+04 -2.499202E+05 -2.437553E+01
         1  21  6.932519E+06 -2.514930E+04  1.605219E+05 -6.817511E+04 -1.122845E+05  1.219980E+01
         1  22  6.930894E+06  4.610251E+05  5.679388E+05  8.926526E-09 -3.875490E+05 -2.730495E-09
         1  23  6.860636E+06 -3.154573E+04  2.573898E+05  2.648444E-08 -2.499202E+05 -6.152751E-09
         1  24  6.932514E+06 -2.515794E+04  1.605206E+05 -1.636810E-08 -1.122845E+05 -4.528117E-10
         1  25  6.930932E+06  4.610926E+05  5.679484E+05 -1.905754E+05 -3.875490E+05  1.177137E+02
         1  26  6.860640E+06 -3.153877E+04  2.573908E+05 -6.119211E+04 -2.499202E+05  2.437553E+01
         1  27  6.932519E+06 -2.514930E+04  1.605219E+05  6.817511E+04 -1.122845E+05 -1.219980E+01
         2   1  6.904078E+06  3.422085E+04  1.331612E+05  1.239500E+04  8.796402E+04  1.737714E+00
         2   2  6.896352E+06 -3.168937E+03  8.249522E+04  3.145257E+03  4.627530E+04  2.319716E-01
         2   3  6.904256E+06  5.956591E+02  6.904292E+04 -6.104551E+03  4.587585E+03 -4.463360E-02
         2   4  6.904078E+06  3.422056E+04  1.331612E+05 -3.769947E-09  8.796402E+04  2.356962E-09
         2   5  6.896352E+06 -3.168955E+03  8.249522E+04 -3.771859E-08  4.627530E+04 -3.106783E-09
         2   6  6.904256E+06  5.955898E+02  6.904291E+04 -3.062180E-08  4.587585E+03 -8.220297E-09
         2   7  6.904078E+06  3.422085E+04  1.331612E+05 -1.239500E+04  8.796402E+04 -1.737714E+00
         2   8  6.896352E+06 -3.168937E+03  8.249522E+04 -3.145257E+03  4.627530E+04 -2.319716E-01
         2   9  6.904256E+06  5.956591E+02  6.904292E+04  6.104551E+03  4.587585E+03  4.463358E-02
         2  10  6.904070E+06  3.421880E+04  1.331468E+05  1.239500E+04  1.358001E-09  1.829078E-09
         2  11  6.896349E+06 -3.169504E+03  8.249124E+04  3.145257E+03 -3.529713E-09 -1.921647E-09
         2  12  6.904256E+06  5.956535E+02  6.904288E+04 -6.104551E+03 -2.391832E-09  1.916857E-09
         2  13  6.904070E+06  3.421851E+04  1.331468E+05  1.298422E-08 -8.795645E-09  2.009113E-09
         2  14  6.896349E+06 -3.169522E+03  8.249124E+04 -7.246189E-08 -3.879397E-10 -1.219961E-09
         2  15  6.904256E+06  5.955842E+02  6.904287E+04 -4.989973E-08 -6.334627E-09 -1.107108E-09
         2  16  6.904070E+06  3.421880E+04  1.331468E+05 -1.239500E+04 -1.087261E-09  2.560822E-09
         2  17  6.896349E+06 -3.169504E+03  8.249124E+04 -3.145257E+03  6.246073E-09 -1.184935E-09
         2  18  6.904256E+06  5.956535E+02  6.904288E+04  6.104551E+03 -8.151669E-09 -5.006787E-09
         2  19  6.904078E+06  3.422085E+04  1.331612E+05  1.239500E+04 -8.796402E+04 -1.737714E+00
         2  20  6.896352E+06 -3.168937E+03  8.249522E+04  3.145257E+03 -4.627530E+04 -2.319716E-01
         2  21  6.904256E+06  5.956591E+02  6.904292E+04 -6.104551E+03 -4.587585E+03  4.463360E-02
         2  22  6.904078E+06  3.422056E+04  1.331612E+05 -2.230966E-08 -8.796402E+04  1.554534E-09
         2  23  6.896352E+06 -3.168955E+03  8.249522E+04 -2.082056E-08 -4.627530E+04  5.972885E-10
         2  24  6.904256E+06  5.955898E+02  6.904291E+04 -1.165761E-07 -4.587585E+03  5.991142E-09
         2  25  6.904078E+06  3.422085E+04  1.331612E+05 -1.239500E+04 -8.796402E+04  1.737714E+00
         2  26  6.896352E+06 -3.168937E+03  8.249522E+04 -3.145257E+03 -4.627530E+04  2.319716E-01
         2  27  6.904256E+06  5.956591E+02  6.904292E+04  6.104551E+03 -4.587585E+03 -4.463359E-02
         3   1  6.904410E+06  3.444368E+02  6.954280E+04  6.431534E+03 -7.676360E+03 -7.868534E-02
         3   2  6.896154E+06 -3.312548E+03  8.530774E+04 -3.298955E+03 -5.079758E+04  2.670848E-01
         3   3  6.904217E+06  3.619700E+04  1.397157E+05 -1.302921E+04 -9.391932E+04  1.950294E+00
         3   4  6.904410E+06  3.443599E+02  6.954279E+04  1.650052E-08 -7.676360E+03 -4.982884E-09
         3   5  6.896154E+06 -3.312569E+03  8.530774E+04 -1.565441E-08 -5.079758E+04  3.386516E-09
         3   6  6.904217E+06  3.619668E+04  1.397156E+05 -1.100733E-08 -9.391932E+04 -1.574617E-10
         3   7  6.904410E+06  3.444368E+02  6.954280E+04 -6.431534E+03 -7.676360E+03  7.868533E-02
         3   8  6.896154E+06 -3.312548E+03  8.530774E+04  3.298955E+03 -5.079758E+04 -2.670848E-01
         3   9  6.904217E+06  3.619700E+04  1.397157E+05  1.302921E+04 -9.391932E+04 -1.950294E+00
         3  10  6.904410E+06  3.444212E+02  6.954269E+04  6.431534E+03  8.154124E-09  3.956285E-09
         3  11  6.896152E+06 -3.313232E+03  8.530295E+04 -3.298955E+03 -1.416845E-08  4.239058E-10
         3  12  6.904207E+06  3.619466E+04  1.396993E+05 -1.302921E+04  7.841602E-09 -1.352971E-09
         3  13  6.904410E+06  3.443443E+02  6.954268E+04 -3.722534E-10 -8.253812E-09  6.586575E-10
         3  14  6.896152E+06 -3.313252E+03  8.530294E+04  3.608008E-08 -8.640236E-09  1.584385E-09
         3  15  6.904207E+06  3.619435E+04  1.396992E+05  3.333313E-09 -2.769310E-09 -1.711824E-09
         3  16  6.904410E+06  3.444212E+02  6.954269E+04 -6.431534E+03  4.225061E-09 -2.871247E-09
         3  17  6.896152E+06 -3.313232E+03  8.530295E+04  3.298955E+03  1.112231E-08  2.734679E-09
         3  18  6.904207E+06  3.619466E+04  1.396993E+05  1.302921E+04 -5.274970E-09 -2.316533E-09
         3  19  6.904410E+06  3.444368E+02  6.954280E+04  6.431534E+03  7.676360E+03  7.868534E-02
         3  20  6.896154E+06 -3.312548E+03  8.530774E+04 -3.298955E+03  5.079758E+04 -2.670848E-01
         3  21  6.904217E+06  3.619700E+04  1.397157E+05 -1.302921E+04  9.391932E+04 -1.950294E+00
         3  22  6.904410E+06  3.443599E+02  6.954279E+04 -1.731264E-08  7.676360E+03  6.440968E-09
         3  23  6.896154E+06 -3.312569E+03  8.530774E+04  6.182881E-08  5.079758E+04 -2.094025E-12
         3  24  6.904217E+06  3.619668E+04  1.397156E+05  2.000281E-08  9.391932E+04 -2.965390E-09
         3  25  6.904410E+06  3.444368E+02  6.954280E+04 -6.431534E+03  7.676360E+03 -7.868533E-02
         3  26  6.896154E+06 -3.312548E+03  8.530774E+04  3.298955E+03  5.079758E+04  2.670848E-01
         3  27  6.904217E+06  3.619700E+04  1.397157E+05  1.302921E+04  9.391932E+04  1.950294E+00
         4   1  6.934325E+06 -2.660333E+04  1.689270E+05  7.209500E+04 -1.194672E+05 -1.372651E+01
         4   2  6.858349E+06 -3.333604E+04  2.717664E+05 -6.467368E+04 -2.647945E+05  2.729579E+01
         4   3  6.932650E+06  4.874825E+05  6.003993E+05 -2.014644E+05 -4.101186E+05  1.316867E+02
         4   4  6.934319E+06 -2.661299E+04  1.689257E+05  2.939890E-08 -1.194672E+05 -1.349660E-09
         4   5  6.858345E+06 -3.334381E+04  2.717653E+05 -7.353144E-09 -2.647945E+05  2.904178E-09
         4   6  6.932607E+06  4.874071E+05  6.003885E+05 -4.630452E-08 -4.101186E+05  1.629757E-09
         4   7  6.934325E+06 -2.660333E+04  1.689270E+05 -7.209500E+04 -1.194672E+05  1.372651E+01
         4   8  6.858349E+06 -3.333604E+04  2.717664E+05  6.467368E+04 -2.647945E+05 -2.729579E+01
         4   9  6.932650E+06  4.874825E+05  6.003993E+05  2.014644E+05 -4.101186E+05 -1.316867E+02
         4  10  6.934310E+06 -2.660711E+04  1.689005E+05  7.209500E+04 -1.491193E-09 -1.604505E-09
         4  11  6.858274E+06 -3.335461E+04  2.716361E+05 -6.467367E+04 -1.775599E-08 -1.519503E-09
         4  12  6.932471E+06  4.874380E+05  6.000867E+05 -2.014644E+05 -4.757728E-09  5.702782E-11
         4  13  6.934304E+06 -2.661677E+04  1.688991E+05  2.976255E-08  3.749360E-10 -2.803803E-09
         4  14  6.858270E+06 -3.336238E+04  2.716350E+05  1.871471E-08 -3.072640E-10 -9.507192E-10
         4  15  6.932428E+06  4.873626E+05  6.000759E+05 -9.571032E-09 -4.802198E-09 -9.263154E-11
         4  16  6.934310E+06 -2.660711E+04  1.689005E+05 -7.209500E+04  6.119118E-09 -4.461825E-09
         4  17  6.858274E+06 -3.335461E+04  2.716361E+05  6.467367E+04  1.096285E-08 -1.312147E-09
         4  18  6.932471E+06  4.874380E+05  6.000867E+05  2.014644E+05  5.731382E-09 -7.740380E-11
         4  19  6.934325E+06 -2.660333E+04  1.689270E+05  7.209500E+04  1.194672E+05  1.372651E+01
         4  20  6.858349E+06 -3.333604E+04  2.717664E+05 -6.467368E+04  2.647945E+05 -2.729579E+01
         4  21  6.932650E+06  4.874825E+05  6.003993E+05 -2.014644E+05  4.101186E+05 -1.316867E+02
         4  22  6.934319E+06 -2.661299E+04  1.689257E+05  6.458882E-08  1.194672E+05 -4.240954E-09
         4  23  6.858345E+06 -3.334381E+04  2.717653E+05  7.936802E-08  2.647945E+05 -4.959989E-09
         4  24  6.932607E+06  4.874071E+05  6.003885E+05 -2.890402E-08  4.101186E+05 -1.809037E-09
         4  25  6.934325E+06 -2.660333E+04  1.689270E+05 -7.209500E+04  1.194672E+05 -1.372651E+01
         4  26  6.858349E+06 -3.333604E+04  2.717664E+05  6.467368E+04  2.647945E+05  2.729579E+01
         4  27  6.932650E+06  4.874825E+05  6.003993E+05  2.014644E+05  4.101186E+05  1.316867E+02
         5   1 -4.485948E+06 -1.462489E+07 -4.524962E+06  1.929576E+06 -1.825371E+05 -7.856632E+05
         5   2 -3.176961E+06 -1.147232E+07 -3.264238E+06  9.649811E+05 -5.203843E+05 -3.411904E+05
         5   3 -2.361501E+06 -8.431844E+06 -2.408406E+06  1.617103E+06 -4.281780E+05  1.030347E+05
         5   4 -4.742903E+05  1.360899E+06 -5.791736E+05  1.800456E+06 -1.800857E+05 -3.987837E+05
         5   5  1.301836E+04  1.402782E+06 -2.674072E+05  9.907327E+05 -5.187545E+05 -2.542436E+05
         5   6  6.696845E+04  1.381698E+06 -1.447056E+05  1.796577E+06 -4.310913E+05 -1.122618E+05
         5   7  3.518413E+06  1.758270E+07  3.348304E+06  1.667329E+06 -1.778436E+05 -1.671105E+03
         5   8  3.191270E+06  1.443255E+07  2.718284E+06  1.016540E+06 -5.171390E+05 -1.654369E+05
         5   9  2.488771E+06  1.128512E+07  2.112779E+06  1.978466E+06 -4.341042E+05 -3.309576E+05
         5  10 -4.486153E+06 -1.462558E+07 -4.526209E+06  1.929460E+06 -8.904028E-09 -9.456032E-10
         5  11 -3.177284E+06 -1.147251E+07 -3.264968E+06  9.648371E+05 -1.772314E-08  2.700461E-09
         5  12 -2.361701E+06 -8.431905E+06 -2.408772E+06  1.617139E+06 -5.060044E-09  7.388643E-09
         5  13 -4.743674E+05  1.360720E+06 -5.795318E+05  1.800399E+06 -5.087477E-10 -1.345257E-10
         5  14  1.271214E+04  1.402640E+06 -2.680335E+05  9.906266E+05 -1.257672E-08 -3.905608E-12
         5  15  6.676559E+04  1.381635E+06 -1.450780E+05  1.796538E+06 -8.424561E-09  8.143200E-11
         5  16  3.518379E+06  1.758269E+07  3.348244E+06  1.667329E+06 -4.948514E-10  1.141178E-09
         5  17  3.190976E+06  1.443245E+07  2.717731E+06  1.016472E+06 -6.264191E-09 -2.401368E-09
         5  18  2.488541E+06  1.128495E+07  2.112224E+06  1.978352E+06 -1.924782E-09 -7.294479E-09
         5  19 -4.485948E+06 -1.462489E+07 -4.524962E+06  1.929576E+06  1.825371E+05  7.856632E+05
         5  20 -3.176961E+06 -1.147232E+07 -3.264238E+06  9.649811E+05  5.203843E+05  3.411904E+05
         5  21 -2.361501E+06 -8.431844E+06 -2.408406E+06  1.617103E+06  4.281780E+05 -1.030347E+05
         5  22 -4.742903E+05  1.360899E+06 -5.791736E+05  1.800456E+06  1.800857E+05  3.987837E+05
         5  23  1.301836E+04  1.402782E+06 -2.674072E+05  9.907327E+05  5.187545E+05  2.542436E+05
         5  24  6.696845E+04  1.381698E+06 -1.447056E+05  1.796577E+06  4.310913E+05  1.122618E+05
         5  25  3.518413E+06  1.758270E+07  3.348304E+06  1.667329E+06  1.778436E+05  1.671105E+03
         5  26  3.191270E+06  1.443255E+07  2.718284E+06  1.016540E+06  5.171390E+05  1.654369E+05
         5  27  2.488771E+06  1.128512E+07  2.112779E+06  1.978466E+06  4.341042E+05  3.309576E+05
         6   1 -1.686952E+06 -5.474242E+06 -1.704181E+06  1.723804E+06 -2.894227E+05 -6.695915E+03
         6   2 -9.003524E+05 -2.371279E+06 -9.261078E+05  9.438685E+05 -1.625049E+05  2.439434E+04
         6   3 -9.998873E+04  6.820494E+05 -1.791465E+05  1.778418E+06 -2.661304E+04  5.466425E+04
         6   4  8.958490E+03  1.395247E+06 -1.176558E+05  1.797781E+06 -2.907661E+05 -9.453666E+04
         6   5  3.546101E+04  1.426851E+06 -5.209807E+04  9.903325E+05 -1.642044E+05 -6.975725E+04
         6   6  7.769193E+04  1.401450E+06 -1.240110E+04  1.796679E+06 -2.872643E+04 -4.595522E+04
         6   7  1.701570E+06  8.308580E+06  1.465758E+06  1.872333E+06 -2.921224E+05 -1.833435E+05
         6   8  9.702748E+05  5.238366E+06  8.209907E+05  1.037012E+06 -1.659123E+05 -1.644808E+05
         6   9  2.553423E+05  2.121350E+06  1.543477E+05  1.814959E+06 -3.084435E+04 -1.466903E+05
         6  10 -1.687042E+06 -5.474264E+06 -1.704339E+06  1.723803E+06 -1.579823E-09 -2.516565E-10
         6  11 -9.003810E+05 -2.371287E+06 -9.261587E+05  9.438717E+05 -5.966294E-09  5.153662E-09
         6  12 -9.999030E+04  6.820460E+05 -1.791535E+05  1.778419E+06 -3.190597E-09  7.332306E-09
         6  13  8.865367E+03  1.395215E+06 -1.178312E+05  1.797758E+06  3.638404E-09 -1.234205E-10
         6  14  3.543076E+04  1.426838E+06 -5.215780E+04  9.903233E+05 -3.564593E-09 -2.751290E-10
         6  15  7.769048E+04  1.401448E+06 -1.240660E+04  1.796678E+06 -1.981362E-08 -2.120887E-10
         6  16  1.701469E+06  8.308522E+06  1.465536E+06  1.872291E+06  2.718286E-09  6.900758E-11
         6  17  9.702381E+05  5.238329E+06  8.208887E+05  1.036990E+06  1.995244E-09 -5.687993E-09
         6  18  2.553356E+05  2.121327E+06  1.543056E+05  1.814956E+06 -4.385567E-09 -7.824130E-09
         6  19 -1.686952E+06 -5.474242E+06 -1.704181E+06  1.723804E+06  2.894227E+05  6.695915E+03
         6  20 -9.003524E+05 -2.371279E+06 -9.261078E+05  9.438685E+05  1.625049E+05 -2.439434E+04
         6  21 -9.998873E+04  6.820494E+05 -1.791465E+05  1.778418E+06  2.661304E+04 -5.466425E+04
         6  22  8.958490E+03  1.395247E+06 -1.176558E+05  1.797781E+06  2.907661E+05  9.453666E+04
         6  23  3.546101E+04  1.426851E+06 -5.209807E+04  9.903325E+05  1.642044E+05  6.975725E+04
         6  24  7.769193E+04  1.401450E+06 -1.240110E+04  1.796679E+06  2.872643E+04  4.595522E+04
         6  25  1.701570E+06  8.308580E+06  1.465758E+06  1.872333E+06  2.921224E+05  1.833435E+05
         6  26  9.702748E+05  5.238366E+06  8.209907E+05  1.037012E+06  1.659123E+05  1.644808E+05
         6  27  2.553423E+05  2.121350E+06  1.543477E+05  1.814959E+06  3.084435E+04  1.466903E+05
         7   1  6.101911E+05  3.645510E+06  5.163711E+05  1.820130E+06  9.364493E+04  1.202579E+05
         7   2  1.329066E+06  6.730990E+06  1.257072E+06  1.070816E+06  2.037690E+05 -7.000543E+04
         7   3  2.217985E+06  9.845468E+06  2.151048E+06  1.927276E+06  7.661240E+04 -2.572993E+05
         7   4  6.141533E+04  1.411031E+06  2.027912E+03  1.795766E+06  9.016209E+04 -4.802814E+04
         7   5  2.278255E+04  1.411157E+06  2.921923E+04  9.919452E+05  2.039609E+05 -6.602888E+04
         7   6  1.256219E+05  1.402291E+06  9.154948E+04  1.794555E+06  7.959507E+04 -8.010734E+04
         7   7 -4.876925E+05 -8.187918E+05 -5.125399E+05  1.771460E+06  8.668533E+04 -2.157156E+05
         7   8 -1.285467E+06 -3.882725E+06 -1.200516E+06  9.136154E+05  2.041529E+05 -6.208412E+04
         7   9 -1.971928E+06 -6.976560E+06 -1.973015E+06  1.663273E+06  8.252608E+04  9.471471E+04
         7  10  6.101778E+05  3.645492E+06  5.163278E+05  1.820121E+06  6.833761E-09 -1.687076E-08
         7  11  1.329020E+06  6.730974E+06  1.256984E+06  1.070827E+06  2.447820E-09 -6.370262E-09
         7  12  2.217961E+06  9.845396E+06  2.150914E+06  1.927292E+06  8.337984E-09  5.175305E-09
         7  13  6.140596E+04  1.411026E+06  2.008242E+03  1.795769E+06 -8.630762E-10 -4.199458E-10
         7  14  2.273665E+04  1.411141E+06  2.913273E+04  9.919560E+05 -1.640013E-09 -1.915636E-10
         7  15  1.256133E+05  1.402282E+06  9.152544E+04  1.794560E+06 -3.900955E-09 -1.568100E-10
         7  16 -4.877132E+05 -8.188440E+05 -5.126419E+05  1.771475E+06 -6.483363E-09  1.628078E-08
         7  17 -1.285513E+06 -3.882741E+06 -1.200602E+06  9.136257E+05 -6.370018E-09  6.412322E-09
         7  18 -1.971938E+06 -6.976572E+06 -1.973044E+06  1.663266E+06 -5.906405E-10 -5.237175E-09
         7  19  6.101911E+05  3.645510E+06  5.163711E+05  1.820130E+06 -9.364493E+04 -1.202579E+05
         7  20  1.329066E+06  6.730990E+06  1.257072E+06  1.070816E+06 -2.037690E+05  7.000543E+04
         7  21  2.217985E+06  9.845468E+06  2.151048E+06  1.927276E+06 -7.661240E+04  2.572993E+05
         7  22  6.141533E+04  1.411031E+06  2.027912E+03  1.795766E+06 -9.016209E+04  4.802814E+04
         7  23  2.278255E+04  1.411157E+06  2.921923E+04  9.919452E+05 -2.039609E+05  6.602888E+04
         7  24  1.256219E+05  1.402291E+06  9.154948E+04  1.794555E+06 -7.959507E+04  8.010734E+04
         7  25 -4.876925E+05 -8.187918E+05 -5.125399E+05  1.771460E+06 -8.668533E+04  2.157156E+05
         7  26 -1.285467E+06 -3.882725E+06 -1.200516E+06  9.136154E+05 -2.041529E+05  6.208412E+04
         7  27 -1.971928E+06 -6.976560E+06 -1.973015E+06  1.663273E+06 -8.252608E+04 -9.471471E+04
         8   1  5.532167E+06  2.539543E+05  3.128885E+05  1.048535E+05  2.124315E+05  3.557547E+01
         8   2  5.493307E+06 -1.742064E+04  1.424217E+05  3.369101E+04  1.363138E+05  7.335268E+00
         8   3  5.532873E+06 -1.382153E+04  8.994782E+04 -3.746596E+04  6.019466E+04 -3.601880E+00
         8   4  5.532155E+06  2.539338E+05  3.128856E+05 -3.772572E-08  2.124315E+05 -1.421395E-10
         8   5  5.493305E+06 -1.742275E+04  1.424214E+05 -3.614244E-09  1.363138E+05 -1.172165E-10
         8   6  5.532871E+06 -1.382414E+04  8.994745E+04  6.751115E-09  6.019466E+04  1.706150E-10
         8   7  5.532167E+06  2.539543E+05  3.128885E+05 -1.048535E+05  2.124315E+05 -3.557547E+01
         8   8  5.493307E+06 -1.742064E+04  1.424217E+05 -3.369101E+04  1.363138E+05 -7.335268E+00
         8   9  5.532873E+06 -1.382153E+04  8.994782E+04  3.746596E+04  6.019466E+04  3.601880E+00
         8  10  5.532118E+06  2.539423E+05  3.128044E+05  1.048535E+05  2.181000E-10 -3.332455E-10
         8  11  5.493287E+06 -1.742557E+04  1.423871E+05  3.369101E+04 -1.074573E-08 -6.862413E-10
         8  12  5.532869E+06 -1.382249E+04  8.994107E+04 -3.746596E+04 -7.728681E-09  2.889435E-09
         8  13  5.532107E+06  2.539219E+05  3.128015E+05  1.404569E-08 -9.197354E-09 -9.530018E-11
         8  14  5.493286E+06 -1.742768E+04  1.423868E+05  2.224606E-08 -4.564673E-09 -3.855048E-10
         8  15  5.532867E+06 -1.382510E+04  8.994070E+04  1.749778E-08 -2.621544E-09 -2.759330E-10
         8  16  5.532118E+06  2.539423E+05  3.128044E+05 -1.048535E+05  9.116191E-11  2.703054E-10
         8  17  5.493287E+06 -1.742557E+04  1.423871E+05 -3.369101E+04  2.081994E-09 -4.643916E-10
         8  18  5.532869E+06 -1.382249E+04  8.994107E+04  3.746596E+04  1.690085E-09 -3.675858E-09
         8  19  5.532167E+06  2.539543E+05  3.128885E+05  1.048535E+05 -2.124315E+05 -3.557547E+01
         8  20  5.493307E+06 -1.742064E+04  1.424217E+05  3.369101E+04 -1.363138E+05 -7.335268E+00
         8  21  5.532873E+06 -1.382153E+04  8.994782E+04 -3.746596E+04 -6.019466E+04  3.601880E+00
         8  22  5.532155E+06  2.539338E+05  3.128856E+05 -2.062770E-08 -2.124315E+05 -1.203502E-10
         8  23  5.493305E+06 -1.742275E+04  1.424214E+05  9.132379E-08 -1.363138E+05 -6.388843E-10
         8  24  5.532871E+06 -1.382414E+04  8.994745E+04  1.982969E-08 -6.019466E+04 -6.291621E-10
         8  25  5.532167E+06  2.539543E+05  3.128885E+05 -1.048535E+05 -2.124315E+05  3.557547E+01
         8  26  5.493307E+06 -1.742064E+04  1.424217E+05 -3.369101E+04 -1.363138E+05  7.335268E+00
         8  27  5.532873E+06 -1.382153E+04  8.994782E+04  3.746596E+04 -6.019466E+04 -3.601880E+00
         9   1  5.517313E+06  1.882379E+04  7.546375E+04  6.976560E+03  4.648614E+04  5.179765E-01
         9   2  5.512826E+06 -1.826149E+03  4.927983E+04  1.784726E+03  2.161868E+04  6.162369E-02
         9   3  5.517384E+06  9.145139E+02  4.502881E+04 -3.407043E+03 -3.248139E+03  1.767486E-02
         9   4  5.517313E+06  1.882370E+04  7.546373E+04 -2.137245E-08  4.648614E+04 -2.735044E-09
         9   5  5.512826E+06 -1.826155E+03  4.927983E+04 -1.744069E-08  2.161868E+04 -5.646327E-09
         9   6  5.517384E+06  9.144923E+02  4.502880E+04  1.672081E-08 -3.248139E+03  2.117574E-09
         9   7  5.517313E+06  1.882379E+04  7.546375E+04 -6.976560E+03  4.648614E+04 -5.179765E-01
         9   8  5.512826E+06 -1.826149E+03  4.927983E+04 -1.784726E+03  2.161868E+04 -6.162369E-02
         9   9  5.517384E+06  9.145139E+02  4.502881E+04  3.407043E+03 -3.248139E+03 -1.767486E-02
         9  10  5.517311E+06  1.882322E+04  7.545972E+04  6.976560E+03 -6.149498E-09  2.966571E-09
         9  11  5.512826E+06 -1.826273E+03  4.927896E+04  1.784726E+03 -8.544868E-09 -2.088214E-09
         9  12  5.517384E+06  9.145111E+02  4.502879E+04 -3.407043E+03 -3.726494E-09 -6.878273E-10
         9  13  5.517311E+06  1.882313E+04  7.545971E+04  4.758731E-08  4.949513E-09 -3.693817E-10
         9  14  5.512826E+06 -1.826279E+03  4.927896E+04 -2.602457E-08  4.290005E-10 -7.488941E-10
         9  15  5.517384E+06  9.144895E+02  4.502878E+04 -4.705441E-09 -5.362592E-09 -3.896167E-10
         9  16  5.517311E+06  1.882322E+04  7.545972E+04 -6.976560E+03  4.036179E-09 -3.614084E-09
         9  17  5.512826E+06 -1.826273E+03  4.927896E+04 -1.784726E+03 -5.058355E-09 -9.413479E-11
         9  18  5.517384E+06  9.145111E+02  4.502879E+04  3.407043E+03 -3.252629E-09 -5.997506E-11
         9  19  5.517313E+06  1.882379E+04  7.546375E+04  6.976560E+03 -4.648614E+04 -5.179765E-01
         9  20  5.512826E+06 -1.826149E+03  4.927983E+04  1.784726E+03 -2.161868E+04 -6.162369E-02
         9  21  5.517384E+06  9.145139E+02  4.502881E+04 -3.407043E+03  3.248139E+03 -1.767487E-02
         9  22  5.517313E+06  1.882370E+04  7.546373E+04  1.286233E-08 -4.648614E+04  1.972256E-09
         9  23  5.512826E+06 -1.826155E+03  4.927983E+04 -1.205999E-10 -2.161868E+04  3.994604E-09
         9  24  5.517384E+06  9.144923E+02  4.502880E+04  1.712223E-08  3.248139E+03 -2.900300E-09
         9  25  5.517313E+06  1.882379E+04  7.546375E+04 -6.976560E+03 -4.648614E+04  5.179765E-01
         9  26  5.512826E+06 -1.826149E+03  4.927983E+04 -1.784726E+03 -2.161868E+04  6.162370E-02
         9  27  5.517384E+06  9.145139E+02  4.502881E+04  3.407043E+03  3.248139E+03  1.767486E-02
        10   1  5.518115E+06 -2.829423E+02  4.740585E+04  4.961463E+03 -1.141858E+04 -9.048261E-02
        10   2  5.511892E+06 -2.511456E+03  6.265745E+04 -2.517081E+03 -4.310106E+04  1.732739E-01
        10   3  5.517987E+06  2.823980E+04  1.066494E+05 -9.995673E+03 -7.478475E+04  1.193908E+00
        10   4  5.518115E+06 -2.829881E+02  4.740584E+04 -4.544119E-08 -1.141858E+04  5.112591E-09
        10   5  5.511892E+06 -2.511468E+03  6.265745E+04  4.703874E-08 -4.310106E+04  1.682764E-09
        10   6  5.517987E+06  2.823961E+04  1.066494E+05 -7.632656E-08 -7.478475E+04  7.885177E-10
        10   7  5.518115E+06 -2.829423E+02  4.740585E+04 -4.961463E+03 -1.141858E+04  9.048262E-02
        10   8  5.511892E+06 -2.511456E+03  6.265745E+04  2.517081E+03 -4.310106E+04 -1.732739E-01
        10   9  5.517987E+06  2.823980E+04  1.066494E+05  9.995673E+03 -7.478475E+04 -1.193908E+00
        10  10  5.518115E+06 -2.829769E+02  4.740561E+04  4.961463E+03 -1.043146E-09  1.058474E-09
        10  11  5.511890E+06 -2.511949E+03  6.265399E+04 -2.517081E+03  4.990532E-09  2.486312E-09
        10  12  5.517981E+06  2.823832E+04  1.066390E+05 -9.995673E+03  6.927805E-09  4.061601E-09
        10  13  5.518115E+06 -2.830227E+02  4.740560E+04 -1.746873E-08 -3.610740E-10 -4.888178E-10
        10  14  5.511890E+06 -2.511961E+03  6.265399E+04 -7.040421E-08 -4.069500E-09  2.963191E-10
        10  15  5.517981E+06  2.823813E+04  1.066390E+05 -2.405870E-08  4.614893E-09  3.377782E-09
        10  16  5.518115E+06 -2.829769E+02  4.740561E+04 -4.961463E+03 -1.521309E-09 -2.174846E-09
        10  17  5.511890E+06 -2.511949E+03  6.265399E+04  2.517081E+03 -6.724141E-09 -2.064342E-09
        10  18  5.517981E+06  2.823832E+04  1.066390E+05  9.995673E+03 -6.976513E-09  2.822367E-09
        10  19  5.518115E+06 -2.829423E+02  4.740585E+04  4.961463E+03  1.141858E+04  9.048261E-02
        10  20  5.511892E+06 -2.511456E+03  6.265745E+04 -2.517081E+03  4.310106E+04 -1.732739E-01
        10  21  5.517987E+06  2.823980E+04  1.066494E+05 -9.995673E+03  7.478475E+04 -1.193908E+00
        10  22  5.518115E+06 -2.829881E+02  4.740584E+04 -1.104965E-07  1.141858E+04 -5.814033E-09
        10  23  5.511892E+06 -2.511468E+03  6.265745E+04 -6.697097E-08  4.310106E+04 -1.393486E-09
        10  24  5.517987E+06  2.823961E+04  1.066494E+05  2.449036E-09  7.478475E+04  6.077741E-09
        10  25  5.518115E+06 -2.829423E+02  4.740585E+04 -4.961463E+03  1.141858E+04 -9.048262E-02
        10  26  5.511892E+06 -2.511456E+03  6.265745E+04  2.517081E+03  4.310106E+04  1.732739E-01
        10  27  5.517987E+06  2.823980E+04  1.066494E+05  9.995673E+03  7.478475E+04  1.193908E+00
        11   1  5.541474E+06 -2.074786E+04  1.299345E+05  5.611565E+04 -9.431453E+04 -8.452638E+00
        11   2  5.482422E+06 -2.600732E+04  2.108022E+05 -5.024244E+04 -2.070382E+05  1.661469E+01
        11   3  5.540429E+06  3.795868E+05  4.673309E+05 -1.566126E+05 -3.197588E+05  7.998355E+01
        11   4  5.541471E+06 -2.075372E+04  1.299337E+05 -3.363571E-08 -9.431453E+04 -1.661081E-09
        11   5  5.482419E+06 -2.601202E+04  2.108016E+05  8.554721E-09 -2.070382E+05 -5.911746E-09
        11   6  5.540403E+06  3.795411E+05  4.673244E+05 -4.644312E-08 -3.197588E+05 -2.204413E-09
        11   7  5.541474E+06 -2.074786E+04  1.299345E+05 -5.611565E+04 -9.431453E+04  8.452638E+00
        11   8  5.482422E+06 -2.600732E+04  2.108022E+05  5.024244E+04 -2.070382E+05 -1.661469E+01
        11   9  5.540429E+06  3.795868E+05  4.673309E+05  1.566126E+05 -3.197588E+05 -7.998355E+01
        11  10  5.541465E+06 -2.075022E+04  1.299179E+05  5.611565E+04 -3.788071E-09  4.029695E-10
        11  11  5.482376E+06 -2.601870E+04  2.107224E+05 -5.024244E+04 -8.891872E-09 -5.315140E-09
        11  12  5.540320E+06  3.795597E+05  4.671404E+05 -1.566126E+05 -9.094244E-09 -2.422492E-09
        11  13  5.541461E+06 -2.075608E+04  1.299171E+05  2.149891E-08  1.281868E-08  1.933119E-09
        11  14  5.482373E+06 -2.602341E+04  2.107217E+05 -1.214691E-08  4.072420E-09 -3.282086E-09
        11  15  5.540294E+06  3.795140E+05  4.671339E+05  3.195688E-08  4.987299E-09 -1.777946E-09
        11  16  5.541465E+06 -2.075022E+04  1.299179E+05 -5.611565E+04  8.664971E-09  3.382384E-09
        11  17  5.482376E+06 -2.601870E+04  2.107224E+05  5.024244E+04  9.561636E-09 -1.144401E-09
        11  18  5.540320E+06  3.795597E+05  4.671404E+05  1.566126E+05  6.532837E-10 -7.973264E-10
        11  19  5.541474E+06 -2.074786E+04  1.299345E+05  5.611565E+04  9.431453E+04  8.452638E+00
        11  20  5.482422E+06 -2.600732E+04  2.108022E+05 -5.024244E+04  2.070382E+05 -1.661469E+01
        11  21  5.540429E+06  3.795868E+05  4.673309E+05 -1.566126E+05  3.197588E+05 -7.998355E+01
        11  22  5.541471E+06 -2.075372E+04  1.299337E+05 -2.716001E-08  9.431453E+04  5.576917E-09
        11  23  5.482419E+06 -2.601202E+04  2.108016E+05  3.620622E-08  2.070382E+05 -5.629808E-10
        11  24  5.540403E+06  3.795411E+05  4.673244E+05 -1.915709E-08  3.197588E+05 -1.239467E-09
        11  25  5.541474E+06 -2.074786E+04  1.299345E+05 -5.611565E+04  9.431453E+04 -8.452638E+00
        11  26  5.482422E+06 -2.600732E+04  2.108022E+05  5.024244E+04  2.070382E+05  1.661469E+01
        11  27  5.540429E+06  3.795868E+05  4.673309E+05  1.566126E+05  3.197588E+05  7.998355E+01
        12   1 -4.323021E+06 -1.468595E+07 -4.438541E+06  1.990897E+06 -1.616089E+05 -9.660802E+05
        12   2 -2.733007E+06 -1.156531E+07 -3.031005E+06  9.781230E+05 -4.528898E+05 -4.697241E+05
        12   3 -1.955696E+06 -8.662963E+06 -2.146954E+06  1.538084E+06 -3.579454E+05  2.699683E+04
        12   4 -7.550248E+05 -4.786762E+05 -9.271984E+05  1.735899E+06 -1.593347E+05 -6.300368E+05
        12   5  3.927200E+04 -3.831299E+05 -4.253008E+05  9.471878E+05 -4.516487E+05 -4.015197E+05
        12   6  7.755632E+04 -4.606345E+05 -2.519023E+05  1.730691E+06 -3.604557E+05 -1.751767E+05
        12   7  2.798172E+06  1.391539E+07  2.569646E+06  1.474481E+06 -1.573796E+05 -2.860387E+05
        12   8  2.802692E+06  1.091591E+07  2.171973E+06  9.153457E+05 -4.504291E+05 -3.320252E+05
        12   9  2.106184E+06  7.804617E+06  1.638825E+06  1.925591E+06 -3.630734E+05 -3.800168E+05
        12  10 -4.323306E+06 -1.468698E+07 -4.440383E+06  1.990770E+06 -7.214471E-09 -8.967668E-09
        12  11 -2.733287E+06 -1.156561E+07 -3.031811E+06  9.779505E+05 -1.091811E-08  6.614747E-09
        12  12 -1.955834E+06 -8.662998E+06 -2.147196E+06  1.538091E+06  2.058064E-09  1.402742E-08
        12  13 -7.551583E+05 -4.791094E+05 -9.279913E+05  1.735818E+06 -5.126743E-09 -2.172021E-10
        12  14  3.901000E+04 -3.833575E+05 -4.259860E+05  9.470418E+05 -1.803849E-08  5.262621E-11
        12  15  7.740884E+04 -4.607021E+05 -2.522033E+05  1.730640E+06 -3.457471E-09 -1.021048E-09
        12  16  2.798124E+06  1.391529E+07  2.569449E+06  1.474445E+06 -6.288696E-10  9.559011E-09
        12  17  2.802446E+06  1.091574E+07  2.171389E+06  9.152262E+05  3.369278E-09 -6.725300E-09
        12  18  2.106005E+06  7.804429E+06  1.638311E+06  1.925481E+06 -1.712640E-09 -1.582415E-08
        12  19 -4.323021E+06 -1.468595E+07 -4.438541E+06  1.990897E+06  1.616089E+05  9.660802E+05
        12  20 -2.733007E+06 -1.156531E+07 -3.031005E+06  9.781230E+05  4.528898E+05  4.697241E+05
        12  21 -1.955696E+06 -8.662963E+06 -2.146954E+06  1.538084E+06  3.579454E+05 -2.699683E+04
        12  22 -7.550248E+05 -4.786762E+05 -9.271984E+05  1.735899E+06  1.593347E+05  6.300368E+05
        12  23  3.927200E+04 -3.831299E+05 -4.253008E+05  9.471878E+05  4.516487E+05  4.015197E+05
        12  24  7.755632E+04 -4.606345E+05 -2.519023E+05  1.730691E+06  3.604557E+05  1.751767E+05
        12  25  2.798172E+06  1.391539E+07  2.569646E+06  1.474481E+06  1.573796E+05  2.860387E+05
        12  26  2.802692E+06  1.091591E+07  2.171973E+06  9.153457E+05  4.504291E+05  3.320252E+05
        12  27  2.106184E+06  7.804617E+06  1.638825E+06  1.925591E+06  3.630734E+05  3.800168E+05
        13   1 -1.327989E+06 -5.741553E+06 -1.438184E+06  1.700167E+06 -2.253251E+05 -5.159143E+04
        13   2 -5.311786E+05 -2.684700E+06 -6.501564E+05  9.202308E+05 -9.830316E+04  1.238188E+04
        13   3  2.278556E+05  3.115980E+05  7.371199E+04  1.728260E+06  3.424032E+04  7.609982E+04
        13   4 -1.547449E+04 -4.276724E+05 -2.098646E+05  1.736174E+06 -2.265883E+05 -1.404548E+05
        13   5  3.416742E+04 -3.917622E+05 -1.219492E+05  9.419334E+05 -9.976629E+04 -8.015848E+04
        13   6  4.756537E+04 -4.239363E+05 -9.468283E+04  1.735273E+06  3.253733E+04 -2.042922E+04
        13   7  1.295059E+06  4.912496E+06  1.016600E+06  1.772356E+06 -2.278557E+05 -2.300743E+05
        13   8  5.991503E+05  1.906073E+06  4.059413E+05  9.636943E+05 -1.012329E+05 -1.730387E+05
        13   9 -1.327569E+05 -1.158949E+06 -2.630780E+05  1.742276E+06  3.083099E+04 -1.168449E+05
        13  10 -1.328044E+06 -5.741569E+06 -1.438284E+06  1.700158E+06  5.062665E-09 -2.604047E-08
        13  11 -5.311890E+05 -2.684702E+06 -6.501748E+05  9.202317E+05  1.550524E-08 -4.334530E-09
        13  12  2.278528E+05  3.115914E+05  7.369894E+04  1.728258E+06  7.530086E-09  1.569330E-08
        13  13 -1.553478E+04 -4.277073E+05 -2.099978E+05  1.736148E+06 -4.255080E-09 -1.846217E-09
        13  14  3.415502E+04 -3.917718E+05 -1.219799E+05  9.419269E+05 -1.848197E-10  1.963010E-10
        13  15  4.756411E+04 -4.239370E+05 -9.468561E+04  1.735274E+06  1.622659E-08 -1.200754E-09
        13  16  1.294989E+06  4.912426E+06  1.016404E+06  1.772314E+06 -6.989243E-10  2.688866E-08
        13  17  5.991314E+05  1.906038E+06  4.058661E+05  9.636803E+05  8.304495E-10  4.346069E-09
        13  18 -1.327616E+05 -1.158964E+06 -2.631056E+05  1.742279E+06 -5.878838E-09 -1.745612E-08
        13  19 -1.327989E+06 -5.741553E+06 -1.438184E+06  1.700167E+06  2.253251E+05  5.159143E+04
        13  20 -5.311786E+05 -2.684700E+06 -6.501564E+05  9.202308E+05  9.830316E+04 -1.238188E+04
        13  21  2.278556E+05  3.115980E+05  7.371199E+04  1.728260E+06 -3.424032E+04 -7.609982E+04
        13  22 -1.547449E+04 -4.276724E+05 -2.098646E+05  1.736174E+06  2.265883E+05  1.404548E+05
        13  23  3.416742E+04 -3.917622E+05 -1.219492E+05  9.419334E+05  9.976629E+04  8.015848E+04
        13  24  4.756537E+04 -4.239363E+05 -9.468283E+04  1.735273E+06 -3.253733E+04  2.042922E+04
        13  25  1.295059E+06  4.912496E+06  1.016600E+06  1.772356E+06  2.278557E+05  2.300743E+05
        13  26  5.991503E+05  1.906073E+06  4.059413E+05  9.636943E+05  1.012329E+05  1.730387E+05
        13  27 -1.327569E+05 -1.158949E+06 -2.630780E+05  1.742276E+06 -3.083099E+04  1.168449E+05
        14   1  9.553234E+05  3.224390E+06  7.505701E+05  1.801213E+06  1.567697E+05  1.667061E+05
        14   2  1.664929E+06  6.275942E+06  1.438906E+06  9.899445E+05  2.610745E+05  2.485703E+04
        14   3  2.297023E+06  9.315570E+06  2.193482E+06  1.755787E+06  9.664971E+04 -1.144428E+05
        14   4  5.738552E+04 -4.240623E+05 -8.821773E+04  1.732893E+06  1.538339E+05 -7.822925E+03
        14   5  2.546617E+04 -4.021462E+05 -1.025791E+05  9.447054E+05  2.615415E+05  4.481799E+04
        14   6 -1.178431E+05 -4.348150E+05 -1.851893E+05  1.734846E+06  9.921615E+04  1.007038E+05
        14   7 -8.414562E+05 -4.060164E+06 -9.277723E+05  1.664909E+06  1.509265E+05 -1.813382E+05
        14   8 -1.617114E+06 -7.039257E+06 -1.647035E+06  8.997855E+05  2.620088E+05  6.456529E+04
        14   9 -2.539678E+06 -1.009923E+07 -2.570609E+06  1.713875E+06  1.017922E+05  3.125066E+05
        14  10  9.552897E+05  3.224354E+06  7.504723E+05  1.801192E+06  9.404630E-09 -1.033693E-08
        14  11  1.664856E+06  6.275923E+06  1.438776E+06  9.899393E+05 -4.356718E-09 -2.047333E-09
        14  12  2.297010E+06  9.315554E+06  2.193440E+06  1.755796E+06  3.719607E-09  6.625352E-09
        14  13  5.736009E+04 -4.240687E+05 -8.826232E+04  1.732894E+06  1.411143E-09 -1.960373E-09
        14  14  2.539221E+04 -4.021667E+05 -1.027113E+05  9.446959E+05 -1.151065E-08  8.448611E-12
        14  15 -1.178563E+05 -4.348285E+05 -1.852267E+05  1.734838E+06 -2.455265E-09 -7.397547E-10
        14  16 -8.414897E+05 -4.060206E+06 -9.278776E+05  1.664931E+06 -2.228639E-09  1.113530E-08
        14  17 -1.617189E+06 -7.039280E+06 -1.647171E+06  8.997718E+05 -7.776694E-09  1.655552E-09
        14  18 -2.539716E+06 -1.009934E+07 -2.570814E+06  1.713849E+06 -5.966265E-09 -7.325736E-09
        14  19  9.553234E+05  3.224390E+06  7.505701E+05  1.801213E+06 -1.567697E+05 -1.667061E+05
        14  20  1.664929E+06  6.275942E+06  1.438906E+06  9.899445E+05 -2.610745E+05 -2.485703E+04
        14  21  2.297023E+06  9.315570E+06  2.193482E+06  1.755787E+06 -9.664971E+04  1.144428E+05
        14  22  5.738552E+04 -4.240623E+05 -8.821773E+04  1.732893E+06 -1.538339E+05  7.822925E+03
        14  23  2.546617E+04 -4.021462E+05 -1.025791E+05  9.447054E+05 -2.615415E+05 -4.481799E+04
        14  24 -1.178431E+05 -4.348150E+05 -1.851893E+05  1.734846E+06 -9.921615E+04 -1.007038E+05
        14  25 -8.414562E+05 -4.060164E+06 -9.277723E+05  1.664909E+06 -1.509265E+05  1.813382E+05
        14  26 -1.617114E+06 -7.039257E+06 -1.647035E+06  8.997855E+05 -2.620088E+05 -6.456529E+04
        14  27 -2.539678E+06 -1.009923E+07 -2.570609E+06  1.713875E+06 -1.017922E+05 -3.125066E+05
        15   1  4.408575E+06  1.905814E+05  2.348193E+05  7.860238E+04  1.591395E+05  2.001271E+01
        15   2  4.379333E+06 -1.309775E+04  1.069717E+05  2.525775E+04  1.019881E+05  4.121415E+00
        15   3  4.408998E+06 -1.036676E+04  6.774919E+04 -2.808298E+04  4.483668E+04 -2.014457E+00
        15   4  4.408568E+06  1.905699E+05  2.348177E+05 -5.785489E-08  1.591395E+05  1.973505E-09
        15   5  4.379333E+06 -1.309894E+04  1.069715E+05 -2.218212E-08  1.019881E+05  5.264881E-09
        15   6  4.408997E+06 -1.036823E+04  6.774898E+04 -1.021339E-08  4.483668E+04  3.028963E-09
        15   7  4.408575E+06  1.905814E+05  2.348193E+05 -7.860238E+04  1.591395E+05 -2.001271E+01
        15   8  4.379333E+06 -1.309775E+04  1.069717E+05 -2.525775E+04  1.019881E+05 -4.121415E+00
        15   9  4.408998E+06 -1.036676E+04  6.774919E+04  2.808298E+04  4.483668E+04  2.014457E+00
        15  10  4.408548E+06  1.905747E+05  2.347721E+05  7.860238E+04 -4.920378E-09  2.807090E-09
        15  11  4.379322E+06 -1.310052E+04  1.069523E+05  2.525775E+04 -5.151393E-09  5.731092E-09
        15  12  4.408996E+06 -1.036730E+04  6.774544E+04 -2.808298E+04  9.714256E-09 -1.704691E-09
        15  13  4.408541E+06  1.905631E+05  2.347704E+05 -5.056837E-08 -4.642092E-09  2.002329E-09
        15  14  4.379322E+06 -1.310171E+04  1.069521E+05 -4.282333E-08 -4.315870E-09  4.327288E-09
        15  15  4.408995E+06 -1.036877E+04  6.774523E+04 -1.645436E-07 -2.388469E-09 -3.014451E-10
        15  16  4.408548E+06  1.905747E+05  2.347721E+05 -7.860238E+04  3.448422E-09  1.046523E-09
        15  17  4.379322E+06 -1.310052E+04  1.069523E+05 -2.525775E+04 -1.112132E-09  2.719075E-09
        15  18  4.408996E+06 -1.036730E+04  6.774544E+04  2.808298E+04 -3.820886E-09  1.137318E-09
        15  19  4.408575E+06  1.905814E+05  2.348193E+05  7.860238E+04 -1.591395E+05 -2.001271E+01
        15  20  4.379333E+06 -1.309775E+04  1.069717E+05  2.525775E+04 -1.019881E+05 -4.121415E+00
        15  21  4.408998E+06 -1.036676E+04  6.774919E+04 -2.808298E+04 -4.483668E+04  2.014457E+00
        15  22  4.408568E+06  1.905699E+05  2.348177E+05 -2.607784E-08 -1.591395E+05  2.090713E-09
        15  23  4.379333E+06 -1.309894E+04  1.069715E+05 -2.891712E-08 -1.019881E+05  3.596160E-09
        15  24  4.408997E+06 -1.036823E+04  6.774898E+04 -1.784805E-07 -4.483668E+04 -3.638863E-09
        15  25  4.408575E+06  1.905814E+05  2.348193E+05 -7.860238E+04 -1.591395E+05  2.001271E+01
        15  26  4.379333E+06 -1.309775E+04  1.069717E+05 -2.525775E+04 -1.019881E+05  4.121415E+00
        15  27  4.408998E+06 -1.036676E+04  6.774919E+04  2.808298E+04 -4.483668E+04 -2.014457E+00
        16   1  4.397350E+06  1.412688E+04  5.698450E+04  5.260240E+03  3.450407E+04  2.903791E-01
        16   2  4.393935E+06 -1.386458E+03  3.763991E+04  1.347901E+03  1.552155E+04  3.347217E-02
        16   3  4.397391E+06  7.924156E+02  3.501335E+04 -2.564502E+03 -3.461112E+03  1.420061E-02
        16   4  4.397350E+06  1.412683E+04  5.698450E+04 -1.156206E-07  3.450407E+04  2.131862E-10
        16   5  4.393935E+06 -1.386462E+03  3.763991E+04 -7.284168E-09  1.552155E+04 -3.059651E-09
        16   6  4.397391E+06  7.924033E+02  3.501335E+04 -3.705898E-08 -3.461112E+03 -4.132255E-09
        16   7  4.397350E+06  1.412688E+04  5.698450E+04 -5.260240E+03  3.450407E+04 -2.903791E-01
        16   8  4.393935E+06 -1.386458E+03  3.763991E+04 -1.347901E+03  1.552155E+04 -3.347217E-02
        16   9  4.397391E+06  7.924156E+02  3.501335E+04  2.564502E+03 -3.461112E+03 -1.420062E-02
        16  10  4.397348E+06  1.412656E+04  5.698228E+04  5.260240E+03  5.407433E-09 -3.440269E-09
        16  11  4.393935E+06 -1.386522E+03  3.763947E+04  1.347901E+03  8.029191E-09  5.547955E-10
        16  12  4.397391E+06  7.924124E+02  3.501332E+04 -2.564502E+03 -3.720411E-09  2.520969E-10
        16  13  4.397348E+06  1.412651E+04  5.698228E+04 -1.021525E-07 -9.558354E-09 -1.780596E-09
        16  14  4.393935E+06 -1.386526E+03  3.763946E+04 -3.862182E-08  1.884632E-08  3.100352E-12
        16  15  4.397391E+06  7.924001E+02  3.501332E+04 -7.003155E-08  1.519373E-09 -2.081710E-09
        16  16  4.397348E+06  1.412656E+04  5.698228E+04 -5.260240E+03 -8.722295E-10 -1.131289E-10
        16  17  4.393935E+06 -1.386522E+03  3.763947E+04 -1.347901E+03 -3.235512E-09 -4.113030E-10
        16  18  4.397391E+06  7.924124E+02  3.501332E+04  2.564502E+03 -3.561051E-09 -4.842014E-09
        16  19  4.397350E+06  1.412688E+04  5.698450E+04  5.260240E+03 -3.450407E+04 -2.903791E-01
        16  20  4.393935E+06 -1.386458E+03  3.763991E+04  1.347901E+03 -1.552155E+04 -3.347217E-02
        16  21  4.397391E+06  7.924156E+02  3.501335E+04 -2.564502E+03  3.461112E+03 -1.420061E-02
        16  22  4.397350E+06  1.412683E+04  5.698450E+04 -8.878129E-08 -3.450407E+04 -3.622933E-09
        16  23  4.393935E+06 -1.386462E+03  3.763991E+04  1.634908E-08 -1.552155E+04  2.842713E-09
        16  24  4.397391E+06  7.924033E+02  3.501335E+04 -2.738244E-08  3.461112E+03 -1.762808E-11
        16  25  4.397350E+06  1.412688E+04  5.698450E+04 -5.260240E+03 -3.450407E+04  2.903791E-01
        16  26  4.393935E+06 -1.386458E+03  3.763991E+04 -1.347901E+03 -1.552155E+04  3.347217E-02
        16  27  4.397391E+06  7.924156E+02  3.501335E+04  2.564502E+03  3.461112E+03  1.420061E-02
        17   1  4.398055E+06 -2.962907E+02  3.717074E+04  3.975071E+03 -9.834830E+03 -6.254603E-02
        17   2  4.393090E+06 -2.010219E+03  4.978407E+04 -2.013518E+03 -3.500291E+04  1.127590E-01
        17   3  4.397972E+06  2.268555E+04  8.530224E+04 -8.002064E+03 -6.017148E+04  7.703407E-01
        17   4  4.398055E+06 -2.963202E+02  3.717073E+04 -1.073561E-08 -9.834830E+03 -3.295817E-09
        17   5  4.393090E+06 -2.010227E+03  4.978407E+04  1.774386E-08 -3.500291E+04 -1.047679E-09
        17   6  4.397972E+06  2.268543E+04  8.530223E+04  2.251398E-08 -6.017148E+04  1.134402E-10
        17   7  4.398055E+06 -2.962907E+02  3.717074E+04 -3.975071E+03 -9.834830E+03  6.254602E-02
        17   8  4.393090E+06 -2.010219E+03  4.978407E+04  2.013518E+03 -3.500291E+04 -1.127590E-01
        17   9  4.397972E+06  2.268555E+04  8.530224E+04  8.002064E+03 -6.017148E+04 -7.703407E-01
        17  10  4.398055E+06 -2.963165E+02  3.717056E+04  3.975071E+03  7.638399E-09  9.027380E-11
        17  11  4.393089E+06 -2.010545E+03  4.978179E+04 -2.013518E+03  3.481499E-09  1.817439E-09
        17  12  4.397968E+06  2.268459E+04  8.529549E+04 -8.002064E+03  2.793526E-09  5.528259E-09
        17  13  4.398055E+06 -2.963459E+02  3.717055E+04 -1.517929E-09  1.314956E-08 -2.059049E-09
        17  14  4.393089E+06 -2.010553E+03  4.978179E+04 -3.369065E-08 -5.502674E-09  1.562849E-09
        17  15  4.397968E+06  2.268447E+04  8.529547E+04 -1.837714E-08  1.695714E-08  3.416293E-09
        17  16  4.398055E+06 -2.963165E+02  3.717056E+04 -3.975071E+03  9.788221E-09 -3.996958E-09
        17  17  4.393089E+06 -2.010545E+03  4.978179E+04  2.013518E+03  1.378120E-08  1.151466E-09
        17  18  4.397968E+06  2.268459E+04  8.529549E+04  8.002064E+03 -1.050403E-09  1.722391E-09
        17  19  4.398055E+06 -2.962907E+02  3.717074E+04  3.975071E+03  9.834830E+03  6.254603E-02
        17  20  4.393090E+06 -2.010219E+03  4.978407E+04 -2.013518E+03  3.500291E+04 -1.127590E-01
        17  21  4.397972E+06  2.268555E+04  8.530224E+04 -8.002064E+03  6.017148E+04 -7.703407E-01
        17  22  4.398055E+06 -2.963202E+02  3.717073E+04 -9.902173E-10  9.834830E+03 -7.811330E-10
        17  23  4.393090E+06 -2.010227E+03  4.978407E+04  1.846586E-08  3.500291E+04  4.210969E-09
        17  24  4.397972E+06  2.268543E+04  8.530223E+04  3.789698E-08  6.017148E+04  6.793294E-09
        17  25  4.398055E+06 -2.962907E+02  3.717074E+04 -3.975071E+03  9.834830E+03 -6.254603E-02
        17  26  4.393090E+06 -2.010219E+03  4.978407E+04  2.013518E+03  3.500291E+04  1.127590E-01
        17  27  4.397972E+06  2.268555E+04  8.530224E+04  8.002064E+03  6.017148E+04  7.703407E-01
        18   1  4.416814E+06 -1.666020E+04  1.040579E+05  4.501080E+04 -7.578343E+04 -5.457177E+00
        18   2  4.369466E+06 -2.091364E+04  1.690641E+05 -4.027550E+04 -1.661700E+05  1.070789E+01
        18   3  4.416146E+06  3.047116E+05  3.751041E+05 -1.255683E+05 -2.565533E+05  5.154091E+01
        18   4  4.416812E+06 -1.666398E+04  1.040574E+05  2.740946E-08 -7.578343E+04 -1.008616E-10
        18   5  4.369464E+06 -2.091667E+04  1.690637E+05  2.898746E-08 -1.661700E+05 -5.041208E-10
        18   6  4.416129E+06  3.046821E+05  3.750999E+05 -9.026422E-08 -2.565533E+05  2.315640E-10
        18   7  4.416814E+06 -1.666020E+04  1.040579E+05 -4.501080E+04 -7.578343E+04  5.457177E+00
        18   8  4.369466E+06 -2.091364E+04  1.690641E+05  4.027550E+04 -1.661700E+05 -1.070789E+01
        18   9  4.416146E+06  3.047116E+05  3.751041E+05  1.255683E+05 -2.565533E+05 -5.154091E+01
        18  10  4.416808E+06 -1.666172E+04  1.040472E+05  4.501080E+04 -6.901487E-09  2.096041E-09
        18  11  4.369437E+06 -2.092099E+04  1.690126E+05 -4.027550E+04 -1.000479E-08 -5.795660E-09
        18  12  4.416076E+06  3.046940E+05  3.749813E+05 -1.255683E+05  6.639976E-09 -2.940862E-09
        18  13  4.416806E+06 -1.666551E+04  1.040467E+05  2.435058E-08  1.797969E-08  1.394042E-09
        18  14  4.369435E+06 -2.092401E+04  1.690121E+05  6.333928E-08  1.648079E-08 -2.707226E-09
        18  15  4.416059E+06  3.046646E+05  3.749771E+05  1.171509E-08  4.205719E-09 -1.348419E-09
        18  16  4.416808E+06 -1.666172E+04  1.040472E+05 -4.501080E+04  1.274391E-08  7.021745E-10
        18  17  4.369437E+06 -2.092099E+04  1.690126E+05  4.027550E+04 -4.897334E-10  5.166154E-10
        18  18  4.416076E+06  3.046940E+05  3.749813E+05  1.255683E+05  2.544734E-09  8.185999E-11
        18  19  4.416814E+06 -1.666020E+04  1.040579E+05  4.501080E+04  7.578343E+04  5.457177E+00
        18  20  4.369466E+06 -2.091364E+04  1.690641E+05 -4.027550E+04  1.661700E+05 -1.070789E+01
        18  21  4.416146E+06  3.047116E+05  3.751041E+05 -1.255683E+05  2.565533E+05 -5.154091E+01
        18  22  4.416812E+06 -1.666398E+04  1.040574E+05  3.963126E-09  7.578343E+04  2.844429E-09
        18  23  4.369464E+06 -2.091667E+04  1.690637E+05  9.766518E-08  1.661700E+05 -4.822964E-09
        18  24  4.416129E+06  3.046821E+05  3.750999E+05  2.417163E-08  2.565533E+05 -2.971140E-09
        18  25  4.416814E+06 -1.666020E+04  1.040579E+05 -4.501080E+04  7.578343E+04 -5.457177E+00
        18  26  4.369466E+06 -2.091364E+04  1.690641E+05  4.027550E+04  1.661700E+05  1.070789E+01
        18  27  4.416146E+06  3.047116E+05  3.751041E+05  1.255683E+05  2.565533E+05  5.154091E+01
        19   1 -3.528550E+06 -1.194150E+07 -3.613553E+06  1.603179E+06 -1.331140E+05 -7.647344E+05
        19   2 -2.275329E+06 -9.421022E+06 -2.494171E+06  7.954877E+05 -3.760592E+05 -3.671455E+05
        19   3 -1.653517E+06 -7.075412E+06 -1.789064E+06  1.256646E+06 -3.012323E+05  3.062768E+04
        19   4 -5.801794E+05 -1.812390E+05 -7.126031E+05  1.402084E+06 -1.316016E+05 -4.837175E+05
        19   5  3.078065E+04 -1.065923E+05 -3.269663E+05  7.662273E+05 -3.751967E+05 -3.081945E+05
        19   6  5.542007E+04 -1.691958E+05 -1.955914E+05  1.398804E+06 -3.029100E+05 -1.341280E+05
        19   7  2.358059E+06  1.170665E+07  2.178444E+06  1.196859E+06 -1.302947E+05 -1.972362E+05
        19   8  2.330758E+06  9.288737E+06  1.834404E+06  7.363281E+05 -3.743482E+05 -2.483272E+05
        19   9  1.761071E+06  6.781547E+06  1.394815E+06  1.542395E+06 -3.046530E+05 -3.007112E+05
        19  10 -3.528730E+06 -1.194214E+07 -3.614705E+06  1.603096E+06 -5.127210E-10 -1.449974E-08
        19  11 -2.275518E+06 -9.421206E+06 -2.494693E+06  7.953758E+05  2.655485E-09  5.038375E-09
        19  12 -1.653615E+06 -7.075438E+06 -1.789237E+06  1.256654E+06  6.315026E-09  2.036711E-08
        19  13 -5.802606E+05 -1.814948E+05 -7.130748E+05  1.402033E+06 -7.005724E-09 -8.340386E-10
        19  14  3.060415E+04 -1.067319E+05 -3.274087E+05  7.661342E+05 -2.286883E-09 -4.553497E-11
        19  15  5.531685E+04 -1.692396E+05 -1.957972E+05  1.398771E+06  3.571891E-09 -3.136209E-09
        19  16  2.358031E+06  1.170661E+07  2.178340E+06  1.196838E+06 -1.095493E-08  1.525802E-08
        19  17  2.330591E+06  9.288634E+06  1.834027E+06  7.362537E+05 -2.408789E-09 -4.138398E-09
        19  18  1.760948E+06  6.781426E+06  1.394474E+06  1.542321E+06  4.328179E-09 -2.224931E-08
        19  19 -3.528550E+06 -1.194150E+07 -3.613553E+06  1.603179E+06  1.331140E+05  7.647344E+05
        19  20 -2.275329E+06 -9.421022E+06 -2.494171E+06  7.954877E+05  3.760592E+05  3.671455E+05
        19  21 -1.653517E+06 -7.075412E+06 -1.789064E+06  1.256646E+06  3.012323E+05 -3.062768E+04
        19  22 -5.801794E+05 -1.812390E+05 -7.126031E+05  1.402084E+06  1.316016E+05  4.837175E+05
        19  23  3.078065E+04 -1.065923E+05 -3.269663E+05  7.662273E+05  3.751967E+05  3.081945E+05
        19  24  5.542007E+04 -1.691958E+05 -1.955914E+05  1.398804E+06  3.029100E+05  1.341280E+05
        19  25  2.358059E+06  1.170665E+07  2.178444E+06  1.196859E+06  1.302947E+05  1.972362E+05
        19  26  2.330758E+06  9.288737E+06  1.834404E+06  7.363281E+05  3.743482E+05  2.483272E+05
        19  27  1.761071E+06  6.781547E+06  1.394815E+06  1.542395E+06  3.046530E+05  3.007112E+05
        20   1 -1.145207E+06 -4.717787E+06 -1.220150E+06  1.378114E+06 -1.934552E+05 -3.569599E+04
        20   2 -5.035213E+05 -2.255884E+06 -5.898977E+05  7.453813E+05 -9.160848E+04  1.618143E+04
        20   3  1.039385E+05  1.620438E+05 -1.062898E+04  1.392418E+06  1.539931E+04  6.783257E+04
        20   4 -1.615870E+04 -1.429057E+05 -1.634352E+05  1.402572E+06 -1.942823E+05 -1.067655E+05
        20   5  2.351335E+04 -1.171731E+05 -9.743353E+04  7.625503E+05 -9.258881E+04 -5.839632E+04
        20   6  3.015807E+04 -1.401144E+05 -7.935825E+04  1.402023E+06  1.423805E+04 -1.045632E+04
        20   7  1.111422E+06  4.451435E+06  8.919041E+05  1.427128E+06 -1.951115E+05 -1.783554E+05
        20   8  5.502312E+05  2.025793E+06  3.947483E+05  7.797627E+05 -9.357142E+04 -1.332294E+05
        20   9 -4.362489E+04 -4.421744E+05 -1.480703E+05  1.411623E+06  1.307405E+04 -8.870745E+04
        20  10 -1.145247E+06 -4.717798E+06 -1.220223E+06  1.378109E+06  8.408904E-09 -2.392012E-10
        20  11 -5.035304E+05 -2.255887E+06 -5.899139E+05  7.453825E+05  4.207420E-09  5.071235E-09
        20  12  1.039370E+05  1.620388E+05 -1.063805E+04  1.392418E+06  9.115684E-09  2.318546E-09
        20  13 -1.620222E+04 -1.429280E+05 -1.635273E+05  1.402555E+06 -5.352431E-09 -5.968319E-09
        20  14  2.350324E+04 -1.171790E+05 -9.745601E+04  7.625460E+05  5.771162E-09  1.553999E-10
        20  15  3.015782E+04 -1.401146E+05 -7.935883E+04  1.402023E+06 -9.021740E-09 -4.255797E-09
        20  16  1.111373E+06  4.451391E+06  8.917735E+05  1.427101E+06  2.043013E-09  1.544931E-09
        20  17  5.502171E+05  2.025771E+06  3.946986E+05  7.797526E+05 -9.265473E-10 -3.495909E-09
        20  18 -4.362719E+04 -4.421830E+05 -1.480855E+05  1.411624E+06  8.477438E-09 -4.215664E-09
        20  19 -1.145207E+06 -4.717787E+06 -1.220150E+06  1.378114E+06  1.934552E+05  3.569599E+04
        20  20 -5.035213E+05 -2.255884E+06 -5.898977E+05  7.453813E+05  9.160848E+04 -1.618143E+04
        20  21  1.039385E+05  1.620438E+05 -1.062898E+04  1.392418E+06 -1.539931E+04 -6.783257E+04
        20  22 -1.615870E+04 -1.429057E+05 -1.634352E+05  1.402572E+06  1.942823E+05  1.067655E+05
        20  23  2.351335E+04 -1.171731E+05 -9.743353E+04  7.625503E+05  9.258881E+04  5.839632E+04
        20  24  3.015807E+04 -1.401144E+05 -7.935825E+04  1.402023E+06 -1.423805E+04  1.045632E+04
        20  25  1.111422E+06  4.451435E+06  8.919041E+05  1.427128E+06  1.951115E+05  1.783554E+05
        20  26  5.502312E+05  2.025793E+06  3.947483E+05  7.797627E+05  9.357142E+04  1.332294E+05
        20  27 -4.362489E+04 -4.421744E+05 -1.480703E+05  1.411623E+06 -1.307405E+04  8.870745E+04
        21   1  6.928916E+05  2.505463E+06  5.330494E+05  1.449204E+06  1.131624E+05  1.396013E+05
        21   2  1.271313E+06  4.969184E+06  1.084295E+06  7.892277E+05  1.987388E+05  3.526358E+04
        21   3  1.759935E+06  7.412686E+06  1.675792E+06  1.401435E+06  7.458516E+04 -6.726663E+04
        21   4  4.104385E+04 -1.426238E+05 -7.618694E+04  1.400260E+06  1.111789E+05  7.739945E+02
        21   5  2.135351E+04 -1.197470E+05 -9.130918E+04  7.645546E+05  1.990025E+05  4.800912E+04
        21   6 -1.145875E+05 -1.492213E+05 -1.711256E+05  1.401804E+06  7.631909E+04  9.746166E+04
        21   7 -6.112782E+05 -2.784195E+06 -6.858154E+05  1.351496E+06  1.092124E+05 -1.374676E+05
        21   8 -1.230418E+06 -5.184861E+06 -1.268640E+06  7.400008E+05  1.992666E+05  6.065027E+04
        21   9 -1.993306E+06 -7.659345E+06 -2.022110E+06  1.401983E+06  7.806564E+04  2.601999E+05
        21  10  6.928727E+05  2.505439E+06  5.329890E+05  1.449191E+06  1.216927E-08  2.516133E-09
        21  11  1.271270E+06  4.969172E+06  1.084218E+06  7.892221E+05  9.694461E-10 -1.506864E-09
        21  12  1.759928E+06  7.412680E+06  1.675773E+06  1.401439E+06  2.292459E-09 -9.588981E-09
        21  13  4.103057E+04 -1.426272E+05 -7.621017E+04  1.400259E+06 -2.607751E-09 -6.762354E-09
        21  14  2.131038E+04 -1.197601E+05 -9.138788E+04  7.645469E+05  9.005900E-09 -2.305778E-10
        21  15 -1.145963E+05 -1.492330E+05 -1.711543E+05  1.401798E+06  3.060635E-09 -2.761988E-09
        21  16 -6.112962E+05 -2.784219E+06 -6.858736E+05  1.351508E+06 -1.270724E-11 -7.317339E-10
        21  17 -1.230462E+06 -5.184875E+06 -1.268722E+06  7.399911E+05  1.157161E-08  2.808686E-09
        21  18 -1.993331E+06 -7.659420E+06 -2.022250E+06  1.401967E+06 -2.736539E-09  8.216644E-09
        21  19  6.928916E+05  2.505463E+06  5.330494E+05  1.449204E+06 -1.131624E+05 -1.396013E+05
        21  20  1.271313E+06  4.969184E+06  1.084295E+06  7.892277E+05 -1.987388E+05 -3.526358E+04
        21  21  1.759935E+06  7.412686E+06  1.675792E+06  1.401435E+06 -7.458516E+04  6.726663E+04
        21  22  4.104385E+04 -1.426238E+05 -7.618694E+04  1.400260E+06 -1.111789E+05 -7.739945E+02
        21  23  2.135351E+04 -1.197470E+05 -9.130918E+04  7.645546E+05 -1.990025E+05 -4.800912E+04
        21  24 -1.145875E+05 -1.492213E+05 -1.711256E+05  1.401804E+06 -7.631909E+04 -9.746166E+04
        21  25 -6.112782E+05 -2.784195E+06 -6.858154E+05  1.351496E+06 -1.092124E+05  1.374676E+05
        21  26 -1.230418E+06 -5.184861E+06 -1.268640E+06  7.400008E+05 -1.992666E+05 -6.065027E+04
        21  27 -1.993306E+06 -7.659345E+06 -2.022110E+06  1.401983E+06 -7.806564E+04 -2.601999E+05
        22   1  3.455583E+06  1.441227E+05  1.775840E+05  5.938482E+04  1.201663E+05  1.143358E+01
        22   2  3.433418E+06 -9.921418E+03  8.095017E+04  1.908366E+04  7.693084E+04  2.352306E+00
        22   3  3.455834E+06 -7.836030E+03  5.138765E+04 -2.121631E+04  3.369425E+04 -1.145359E+00
        22   4  3.455579E+06  1.441161E+05  1.775831E+05 -1.219362E-08  1.201663E+05 -3.226819E-09
        22   5  3.433418E+06 -9.922099E+03  8.095007E+04 -5.903136E-08  7.693084E+04 -6.893071E-09
        22   6  3.455833E+06 -7.836871E+03  5.138753E+04 -1.630178E-08  3.369425E+04  5.330464E-11
        22   7  3.455583E+06  1.441227E+05  1.775840E+05 -5.938482E+04  1.201663E+05 -1.143358E+01
        22   8  3.433418E+06 -9.921418E+03  8.095017E+04 -1.908366E+04  7.693084E+04 -2.352306E+00
        22   9  3.455834E+06 -7.836030E+03  5.138765E+04  2.121631E+04  3.369425E+04  1.145359E+00
        22  10  3.455568E+06  1.441188E+05  1.775570E+05  5.938482E+04 -6.204311E-09  5.888711E-10
        22  11  3.433412E+06 -9.922996E+03  8.093911E+04  1.908366E+04 -1.021399E-08  1.197459E-09
        22  12  3.455833E+06 -7.836333E+03  5.138553E+04 -2.121631E+04 -6.129889E-09 -4.179102E-10
        22  13  3.455564E+06  1.441123E+05  1.775561E+05  3.088836E-08  8.695992E-09 -1.537494E-10
        22  14  3.433411E+06 -9.923677E+03  8.093901E+04 -2.464815E-08 -3.421779E-09 -9.876819E-10
        22  15  3.455832E+06 -7.837174E+03  5.138541E+04 -2.845360E-08  6.691991E-09 -2.212239E-09
        22  16  3.455568E+06  1.441188E+05  1.775570E+05 -5.938482E+04 -5.148027E-09 -8.994037E-10
        22  17  3.433412E+06 -9.922996E+03  8.093911E+04 -1.908366E+04  9.596649E-09 -3.138730E-09
        22  18  3.455833E+06 -7.836333E+03  5.138553E+04  2.121631E+04 -2.857030E-10 -3.950584E-09
        22  19  3.455583E+06  1.441227E+05  1.775840E+05  5.938482E+04 -1.201663E+05 -1.143358E+01
        22  20  3.433418E+06 -9.921418E+03  8.095017E+04  1.908366E+04 -7.693084E+04 -2.352306E+00
        22  21  3.455834E+06 -7.836030E+03  5.138765E+04 -2.121631E+04 -3.369425E+04  1.145359E+00
        22  22  3.455579E+06  1.441161E+05  1.775831E+05 -3.681451E-09 -1.201663E+05  2.900563E-09
        22  23  3.433418E+06 -9.922099E+03  8.095007E+04  7.874244E-08 -7.693084E+04  4.957656E-09
        22  24  3.455833E+06 -7.836871E+03  5.138753E+04  1.557259E-09 -3.369425E+04 -4.588808E-09
        22  25  3.455583E+06  1.441227E+05  1.775840E+05 -5.938482E+04 -1.201663E+05  1.143358E+01
        22  26  3.433418E+06 -9.921418E+03  8.095017E+04 -1.908366E+04 -7.693084E+04  2.352306E+00
        22  27  3.455834E+06 -7.836030E+03  5.138765E+04  2.121631E+04 -3.369425E+04 -1.145359E+00
        23   1  3.447043E+06  1.068367E+04  4.331314E+04  3.993451E+03  2.585372E+04  1.654221E-01
        23   2  3.444431E+06 -1.058545E+03  2.887557E+04  1.024629E+03  1.129808E+04  1.854788E-02
        23   3  3.447067E+06  6.660319E+02  2.724276E+04 -1.944195E+03 -3.257478E+03  1.014712E-02
        23   4  3.447043E+06  1.068364E+04  4.331313E+04 -4.581427E-08  2.585372E+04  1.800022E-09
        23   5  3.444431E+06 -1.058547E+03  2.887557E+04  6.686660E-08  1.129808E+04 -2.757162E-09
        23   6  3.447067E+06  6.660249E+02  2.724276E+04  4.906746E-08 -3.257478E+03 -1.602137E-09
        23   7  3.447043E+06  1.068367E+04  4.331314E+04 -3.993451E+03  2.585372E+04 -1.654221E-01
        23   8  3.444431E+06 -1.058545E+03  2.887557E+04 -1.024629E+03  1.129808E+04 -1.854789E-02
        23   9  3.447067E+06  6.660319E+02  2.724276E+04  1.944195E+03 -3.257478E+03 -1.014712E-02
        23  10  3.447042E+06  1.068349E+04  4.331189E+04  3.993451E+03  3.900404E-09 -7.966063E-12
        23  11  3.444431E+06 -1.058579E+03  2.887533E+04  1.024629E+03 -3.496319E-09  2.525059E-09
        23  12  3.447067E+06  6.660291E+02  2.724274E+04 -1.944195E+03 -2.705424E-09  1.266574E-09
        23  13  3.447042E+06  1.068346E+04  4.331188E+04 -6.128276E-09  8.074566E-09 -9.583166E-10
        23  14  3.444431E+06 -1.058581E+03  2.887533E+04  6.049805E-08  3.081866E-08  1.770353E-09
        23  15  3.447067E+06  6.660220E+02  2.724274E+04 -6.519418E-09  2.001756E-08 -1.511743E-10
        23  16  3.447042E+06  1.068349E+04  4.331189E+04 -3.993451E+03  4.896342E-09 -1.903778E-09
        23  17  3.444431E+06 -1.058579E+03  2.887533E+04 -1.024629E+03  9.820787E-09  1.096921E-09
        23  18  3.447067E+06  6.660291E+02  2.724274E+04  1.944195E+03  1.751039E-08 -1.185072E-09
        23  19  3.447043E+06  1.068367E+04  4.331314E+04  3.993451E+03 -2.585372E+04 -1.654221E-01
        23  20  3.444431E+06 -1.058545E+03  2.887557E+04  1.024629E+03 -1.129808E+04 -1.854788E-02
        23  21  3.447067E+06  6.660319E+02  2.724276E+04 -1.944195E+03  3.257478E+03 -1.014711E-02
        23  22  3.447043E+06  1.068364E+04  4.331313E+04  1.613378E-08 -2.585372E+04 -3.646240E-09
        23  23  3.444431E+06 -1.058547E+03  2.887557E+04  2.372174E-09 -1.129808E+04  6.337563E-09
        23  24  3.447067E+06  6.660249E+02  2.724276E+04 -7.286975E-08  3.257478E+03  1.330094E-09
        23  25  3.447043E+06  1.068367E+04  4.331314E+04 -3.993451E+03 -2.585372E+04  1.654221E-01
        23  26  3.444431E+06 -1.058545E+03  2.887557E+04 -1.024629E+03 -1.129808E+04  1.854789E-02
        23  27  3.447067E+06  6.660319E+02  2.724276E+04  1.944195E+03  3.257478E+03  1.014712E-02
        24   1  3.447641E+06 -2.768044E+02  2.910841E+04  3.163908E+03 -8.228991E+03 -4.171492E-02
        24   2  3.443703E+06 -1.599249E+03  3.937934E+04 -1.600912E+03 -2.813321E+04  7.216234E-02
        24   3  3.447589E+06  1.809408E+04  6.781116E+04 -6.365634E+03 -4.803744E+04  4.899415E-01
        24   4  3.447641E+06 -2.768231E+02  2.910841E+04 -9.999081E-08 -8.228991E+03 -1.807521E-09
        24   5  3.443703E+06 -1.599254E+03  3.937934E+04 -3.779698E-09 -2.813321E+04 -2.816255E-09
        24   6  3.447589E+06  1.809400E+04  6.781115E+04 -1.411023E-09 -4.803744E+04  3.803049E-09
        24   7  3.447641E+06 -2.768044E+02  2.910841E+04 -3.163908E+03 -8.228991E+03  4.171491E-02
        24   8  3.443703E+06 -1.599249E+03  3.937934E+04  1.600912E+03 -2.813321E+04 -7.216235E-02
        24   9  3.447589E+06  1.809408E+04  6.781116E+04  6.365634E+03 -4.803744E+04 -4.899415E-01
        24  10  3.447641E+06 -2.768224E+02  2.910828E+04  3.163908E+03  1.501216E-08 -1.388256E-09
        24  11  3.443702E+06 -1.599460E+03  3.937786E+04 -1.600912E+03  8.234658E-09 -2.346557E-09
        24  12  3.447587E+06  1.809346E+04  6.780684E+04 -6.365634E+03 -2.095900E-09  2.410957E-09
        24  13  3.447641E+06 -2.768411E+02  2.910828E+04  2.909390E-08  1.725587E-08 -2.490244E-09
        24  14  3.443702E+06 -1.599465E+03  3.937786E+04 -1.432466E-08  3.073125E-09 -2.777971E-09
        24  15  3.447587E+06  1.809339E+04  6.780683E+04 -1.032484E-08  1.308727E-08  1.675083E-09
        24  16  3.447641E+06 -2.768224E+02  2.910828E+04 -3.163908E+03 -4.092237E-09 -3.544516E-09
        24  17  3.443702E+06 -1.599460E+03  3.937786E+04  1.600912E+03  1.479103E-09 -3.264970E-09
        24  18  3.447587E+06  1.809346E+04  6.780684E+04  6.365634E+03  1.578992E-08  1.054192E-09
        24  19  3.447641E+06 -2.768044E+02  2.910841E+04  3.163908E+03  8.228991E+03  4.171492E-02
        24  20  3.443703E+06 -1.599249E+03  3.937934E+04 -1.600912E+03  2.813321E+04 -7.216235E-02
        24  21  3.447589E+06  1.809408E+04  6.781116E+04 -6.365634E+03  4.803744E+04 -4.899415E-01
        24  22  3.447641E+06 -2.768231E+02  2.910841E+04  3.729477E-08  8.228991E+03 -3.123340E-09
        24  23  3.443703E+06 -1.599254E+03  3.937934E+04  2.686206E-08  2.813321E+04 -2.548281E-09
        24  24  3.447589E+06  1.809400E+04  6.781115E+04 -8.365691E-09  4.803744E+04 -2.999132E-10
        24  25  3.447641E+06 -2.768044E+02  2.910841E+04 -3.163908E+03  8.228991E+03 -4.171492E-02
        24  26  3.443703E+06 -1.599249E+03  3.937934E+04  1.600912E+03  2.813321E+04  7.216234E-02
        24  27  3.447589E+06  1.809408E+04  6.781116E+04  6.365634E+03  4.803744E+04  4.899415E-01
        25   1  3.462600E+06 -1.328314E+04  8.279909E+04  3.585388E+04 -6.044287E+04 -3.472109E+00
        25   2  3.424895E+06 -1.669458E+04  1.346709E+05 -3.206715E+04 -1.324272E+05  6.804186E+00
        25   3  3.462182E+06  2.428969E+05  2.989819E+05 -9.999413E+04 -2.044114E+05  3.274957E+01
        25   4  3.462598E+06 -1.328554E+04  8.279875E+04 -5.649313E-10 -6.044287E+04  5.262055E-09
        25   5  3.424894E+06 -1.669650E+04  1.346706E+05  6.495430E-08 -1.324272E+05  6.867522E-10
        25   6  3.462172E+06  2.428782E+05  2.989792E+05 -2.807475E-08 -2.044114E+05 -2.897216E-11
        25   7  3.462600E+06 -1.328314E+04  8.279909E+04 -3.585388E+04 -6.044287E+04  3.472109E+00
        25   8  3.424895E+06 -1.669458E+04  1.346709E+05  3.206715E+04 -1.324272E+05 -6.804186E+00
        25   9  3.462182E+06  2.428969E+05  2.989819E+05  9.999413E+04 -2.044114E+05 -3.274957E+01
        25  10  3.462596E+06 -1.328411E+04  8.279226E+04  3.585388E+04  9.526219E-09  3.545839E-09
        25  11  3.424877E+06 -1.669925E+04  1.346381E+05 -3.206715E+04  2.121529E-08  8.800608E-10
        25  12  3.462138E+06  2.428858E+05  2.989038E+05 -9.999413E+04  1.712209E-09  1.596781E-11
        25  13  3.462594E+06 -1.328651E+04  8.279192E+04  2.522051E-08  1.865393E-08  3.549325E-09
        25  14  3.424876E+06 -1.670118E+04  1.346378E+05 -2.151459E-08  1.047127E-08  2.415380E-09
        25  15  3.462127E+06  2.428671E+05  2.989011E+05 -3.538002E-09  3.587885E-09  6.187263E-10
        25  16  3.462596E+06 -1.328411E+04  8.279226E+04 -3.585388E+04  4.253285E-09  3.753503E-09
        25  17  3.424877E+06 -1.669925E+04  1.346381E+05  3.206715E+04 -1.243300E-08  4.111324E-09
        25  18  3.462138E+06  2.428858E+05  2.989038E+05  9.999413E+04 -5.470581E-09  1.488411E-09
        25  19  3.462600E+06 -1.328314E+04  8.279909E+04  3.585388E+04  6.044287E+04  3.472109E+00
        25  20  3.424895E+06 -1.669458E+04  1.346709E+05 -3.206715E+04  1.324272E+05 -6.804186E+00
        25  21  3.462182E+06  2.428969E+05  2.989819E+05 -9.999413E+04  2.044114E+05 -3.274957E+01
        25  22  3.462598E+06 -1.328554E+04  8.279875E+04 -3.531043E-08  6.044287E+04  1.919690E-09
        25  23  3.424894E+06 -1.669650E+04  1.346706E+05 -7.346641E-08  1.324272E+05  3.903156E-09
        25  24  3.462172E+06  2.428782E+05  2.989792E+05 -6.309029E-08  2.044114E+05  1.223402E-09
        25  25  3.462600E+06 -1.328314E+04  8.279909E+04 -3.585388E+04  6.044287E+04 -3.472109E+00
        25  26  3.424895E+06 -1.669458E+04  1.346709E+05  3.206715E+04  1.324272E+05  6.804186E+00
        25  27  3.462182E+06  2.428969E+05  2.989819E+05  9.999413E+04  2.044114E+05  3.274957E+01
        26   1 -2.994356E+06 -1.025272E+07 -3.057620E+06  1.349907E+06 -1.142802E+05 -6.237719E+05
        26   2 -1.968149E+06 -8.115814E+06 -2.130383E+06  6.755115E+05 -3.245026E+05 -2.937749E+05
        26   3 -1.443418E+06 -6.121029E+06 -1.541309E+06  1.077585E+06 -2.619645E+05  3.631054E+04
        26   4 -4.567545E+05 -1.209550E+05 -5.611835E+05  1.189584E+06 -1.131906E+05 -3.800658E+05
        26   5  2.445715E+04 -6.169733E+04 -2.580103E+05  6.504208E+05 -3.238590E+05 -2.416523E+05
        26   6  4.195129E+04 -1.121327E+05 -1.559003E+05  1.187371E+06 -2.631910E+05 -1.043048E+05
        26   7  2.073319E+06  1.010539E+07  1.927914E+06  1.026444E+06 -1.122413E+05 -1.322976E+05
        26   8  2.012483E+06  8.052832E+06  1.610006E+06  6.248766E+05 -3.232251E+05 -1.888354E+05
        26   9  1.524827E+06  5.930436E+06  1.227187E+06  1.298124E+06 -2.644607E+05 -2.462767E+05
        26  10 -2.994477E+06 -1.025314E+07 -3.058387E+06  1.349849E+06 -1.183906E-09  4.979528E-09
        26  11 -1.968286E+06 -8.115936E+06 -2.130744E+06  6.754343E+05 -8.999301E-09  1.075598E-08
        26  12 -1.443492E+06 -6.121049E+06 -1.541440E+06  1.077593E+06  4.921912E-09  1.112427E-08
        26  13 -4.568069E+05 -1.211135E+05 -5.614787E+05  1.189549E+06  1.024127E-09  4.995191E-11
        26  14  2.432894E+04 -6.178809E+04 -2.583167E+05  6.503578E+05  6.096603E-09 -2.733253E-09
        26  15  4.187406E+04 -1.121629E+05 -1.560507E+05  1.187349E+06  1.111729E-08  3.368709E-10
        26  16  2.073301E+06  1.010537E+07  1.927858E+06  1.026432E+06 -5.609014E-09 -5.523900E-09
        26  17  2.012361E+06  8.052766E+06  1.609744E+06  6.248277E+05 -2.562737E-09 -1.155978E-08
        26  18  1.524736E+06  5.930353E+06  1.226943E+06  1.298072E+06  1.895533E-09 -1.289247E-08
        26  19 -2.994356E+06 -1.025272E+07 -3.057620E+06  1.349907E+06  1.142802E+05  6.237719E+05
        26  20 -1.968149E+06 -8.115814E+06 -2.130383E+06  6.755115E+05  3.245026E+05  2.937749E+05
        26  21 -1.443418E+06 -6.121029E+06 -1.541309E+06  1.077585E+06  2.619645E+05 -3.631054E+04
        26  22 -4.567545E+05 -1.209550E+05 -5.611835E+05  1.189584E+06  1.131906E+05  3.800658E+05
        26  23  2.445715E+04 -6.169733E+04 -2.580103E+05  6.504208E+05  3.238590E+05  2.416523E+05
        26  24  4.195129E+04 -1.121327E+05 -1.559003E+05  1.187371E+06  2.631910E+05  1.043048E+05
        26  25  2.073319E+06  1.010539E+07  1.927914E+06  1.026444E+06  1.122413E+05  1.322976E+05
        26  26  2.012483E+06  8.052832E+06  1.610006E+06  6.248766E+05  3.232251E+05  1.888354E+05
        26  27  1.524827E+06  5.930436E+06  1.227187E+06  1.298124E+06  2.644607E+05  2.462767E+05
        27   1 -1.008253E+06 -4.120596E+06 -1.061405E+06  1.172498E+06 -1.700867E+05 -2.228301E+04
        27   2 -4.657474E+05 -2.033219E+06 -5.325273E+05  6.335481E+05 -8.396462E+04  2.122261E+04
        27   3  4.618883E+04  1.988740E+04 -4.590072E+04  1.180292E+06  6.900907E+03  6.453678E+04
        27   4 -1.423878E+04 -9.119770E+04 -1.310357E+05  1.190335E+06 -1.706841E+05 -8.227159E+04
        27   5  1.759386E+04 -7.134652E+04 -8.086384E+04  6.474201E+05 -8.468262E+04 -4.203334E+04
        27   6  1.984755E+04 -8.903133E+04 -7.023778E+04  1.189989E+06  6.041602E+03 -2.130497E+03
        27   7  9.786372E+05  3.953287E+06  7.982659E+05  1.208234E+06 -1.712829E+05 -1.426471E+05
        27   8  5.006682E+05  1.894103E+06  3.705596E+05  6.613244E+05 -8.540222E+04 -1.054879E+05
        27   9 -6.491750E+03 -1.979292E+05 -9.455881E+04  1.199684E+06  5.180126E+03 -6.878620E+04
        27  10 -1.008284E+06 -4.120604E+06 -1.061460E+06  1.172495E+06  1.187462E-08 -1.194363E-08
        27  11 -4.657551E+05 -2.033221E+06 -5.325414E+05  6.335495E+05  8.588734E-09  2.625131E-09
        27  12  4.618766E+04  1.988292E+04 -4.590863E+04  1.180291E+06  3.649188E-09  1.612831E-08
        27  13 -1.427184E+04 -9.121274E+04 -1.311031E+05  1.190324E+06  6.963547E-09 -1.624196E-10
        27  14  1.758569E+04 -7.135034E+04 -8.088062E+04  6.474172E+05 -9.113501E-09 -5.623728E-09
        27  15  1.984751E+04 -8.903134E+04 -7.023785E+04  1.189989E+06  1.409368E-08  8.035714E-10
        27  16  9.786004E+05  3.953257E+06  7.981729E+05  1.208215E+06  3.491550E-09  6.650394E-09
        27  17  5.006574E+05  1.894089E+06  3.705250E+05  6.613171E+05 -7.251854E-09 -3.795494E-09
        27  18 -6.493051E+03 -1.979343E+05 -9.456776E+04  1.199685E+06  1.200210E-08 -1.782387E-08
        27  19 -1.008253E+06 -4.120596E+06 -1.061405E+06  1.172498E+06  1.700867E+05  2.228301E+04
        27  20 -4.657474E+05 -2.033219E+06 -5.325273E+05  6.335481E+05  8.396462E+04 -2.122261E+04
        27  21  4.618883E+04  1.988740E+04 -4.590072E+04  1.180292E+06 -6.900907E+03 -6.453678E+04
        27  22 -1.423878E+04 -9.119770E+04 -1.310357E+05  1.190335E+06  1.706841E+05  8.227159E+04
        27  23  1.759386E+04 -7.134652E+04 -8.086384E+04  6.474201E+05  8.468262E+04  4.203334E+04
        27  24  1.984755E+04 -8.903133E+04 -7.023778E+04  1.189989E+06 -6.041602E+03  2.130497E+03
        27  25  9.786372E+05  3.953287E+06  7.982659E+05  1.208234E+06  1.712829E+05  1.426471E+05
        27  26  5.006682E+05  1.894103E+06  3.705596E+05  6.613244E+05  8.540222E+04  1.054879E+05
        27  27 -6.491750E+03 -1.979292E+05 -9.455881E+04  1.199684E+06 -5.180126E+03  6.878620E+04
        28   1  5.489338E+05  2.005313E+06  4.133661E+05  1.228584E+06  8.933120E+04  1.250973E+05
        28   2  1.043030E+06  4.098401E+06  8.759886E+05  6.620109E+05  1.627303E+05  4.472184E+04
        28   3  1.434637E+06  6.166414E+06  1.361220E+06  1.175086E+06  6.167708E+04 -3.428136E+04
        28   4  3.224397E+04 -9.313585E+04 -6.970590E+04  1.188502E+06  8.787163E+04  8.257850E+03
        28   5  1.881434E+04 -6.983582E+04 -8.749862E+04  6.490743E+05  1.629018E+05  5.383086E+04
        28   6 -1.191445E+05 -9.771783E+04 -1.699845E+05  1.189852E+06  6.294875E+04  1.010422E+05
        28   7 -4.847426E+05 -2.187489E+06 -5.530185E+05  1.148540E+06  8.642431E+04 -1.081908E+05
        28   8 -1.006619E+06 -4.222082E+06 -1.052146E+06  6.361757E+05  1.630735E+05  6.287851E+04
        28   9 -1.675807E+06 -6.326276E+06 -1.703983E+06  1.204359E+06  6.423431E+04  2.350093E+05
        28  10  5.489211E+05  2.005294E+06  4.133219E+05  1.228575E+06  3.324176E-10 -2.336492E-08
        28  11  1.043001E+06  4.098391E+06  8.759351E+05  6.620051E+05 -2.837985E-09 -8.762971E-09
        28  12  1.434633E+06  6.166412E+06  1.361210E+06  1.175087E+06  3.057403E-09  7.275238E-09
        28  13  3.223566E+04 -9.313800E+04 -6.972053E+04  1.188501E+06  5.236210E-09  9.342208E-11
        28  14  1.878508E+04 -6.984604E+04 -8.755389E+04  6.490672E+05  3.170359E-09 -4.881912E-09
        28  15 -1.191514E+05 -9.772984E+04 -1.700111E+05  1.189847E+06  3.687815E-09  4.448019E-10
        28  16 -4.847538E+05 -2.187503E+06 -5.530546E+05  1.148548E+06  1.868949E-08  1.731306E-08
        28  17 -1.006648E+06 -4.222093E+06 -1.052203E+06  6.361675E+05 -6.824966E-10  7.702528E-09
        28  18 -1.675826E+06 -6.326337E+06 -1.704096E+06  1.204347E+06  4.674712E-11 -8.333539E-09
        28  19  5.489338E+05  2.005313E+06  4.133661E+05  1.228584E+06 -8.933120E+04 -1.250973E+05
        28  20  1.043030E+06  4.098401E+06  8.759886E+05  6.620109E+05 -1.627303E+05 -4.472184E+04
        28  21  1.434637E+06  6.166414E+06  1.361220E+06  1.175086E+06 -6.167708E+04  3.428136E+04
        28  22  3.224397E+04 -9.313585E+04 -6.970590E+04  1.188502E+06 -8.787163E+04 -8.257850E+03
        28  23  1.881434E+04 -6.983582E+04 -8.749862E+04  6.490743E+05 -1.629018E+05 -5.383086E+04
        28  24 -1.191445E+05 -9.771783E+04 -1.699845E+05  1.189852E+06 -6.294875E+04 -1.010422E+05
        28  25 -4.847426E+05 -2.187489E+06 -5.530185E+05  1.148540E+06 -8.642431E+04  1.081908E+05
        28  26 -1.006619E+06 -4.222082E+06 -1.052146E+06  6.361757E+05 -1.630735E+05 -6.287851E+04
        28  27 -1.675807E+06 -6.326276E+06 -1.703983E+06  1.204359E+06 -6.423431E+04 -2.350093E+05
        29   1  2.618760E+06  1.017501E+05  1.253897E+05  4.189402E+04  8.466108E+04  5.690042E+00
        29   2  2.603077E+06 -7.015136E+03  5.724638E+04  1.346563E+04  5.409592E+04  1.168628E+00
        29   3  2.618894E+06 -5.527117E+03  3.650651E+04 -1.496186E+04  2.353052E+04 -5.647953E-01
        29   4  2.618758E+06  1.017468E+05  1.253892E+05 -1.875227E-08  8.466108E+04  4.345415E-10
        29   5  2.603077E+06 -7.015476E+03  5.724633E+04  1.330734E-08  5.409592E+04  1.749729E-09
        29   6  2.618893E+06 -5.527536E+03  3.650646E+04 -3.009005E-08  2.353052E+04  2.292660E-09
        29   7  2.618760E+06  1.017501E+05  1.253897E+05 -4.189402E+04  8.466108E+04 -5.690042E+00
        29   8  2.603077E+06 -7.015136E+03  5.724638E+04 -1.346563E+04  5.409592E+04 -1.168628E+00
        29   9  2.618894E+06 -5.527117E+03  3.650651E+04  1.496186E+04  2.353052E+04  5.647953E-01
        29  10  2.618752E+06  1.017482E+05  1.253763E+05  4.189402E+04  3.930569E-09 -1.517636E-09
        29  11  2.603074E+06 -7.015918E+03  5.724091E+04  1.346563E+04 -2.052492E-09 -2.671315E-09
        29  12  2.618893E+06 -5.527265E+03  3.650548E+04 -1.496186E+04 -7.001210E-11  2.060169E-09
        29  13  2.618750E+06  1.017449E+05  1.253758E+05  2.408039E-08 -1.011800E-10 -8.520934E-10
        29  14  2.603074E+06 -7.016257E+03  5.724086E+04 -2.965747E-08 -7.873835E-09 -1.292795E-09
        29  15  2.618893E+06 -5.527684E+03  3.650542E+04 -1.873588E-08  3.225511E-09  1.704471E-09
        29  16  2.618752E+06  1.017482E+05  1.253763E+05 -4.189402E+04 -5.774986E-09 -2.497227E-10
        29  17  2.603074E+06 -7.015918E+03  5.724091E+04 -1.346563E+04  3.155091E-09 -1.380515E-10
        29  18  2.618893E+06 -5.527265E+03  3.650548E+04  1.496186E+04 -4.118749E-10  1.312571E-09
        29  19  2.618760E+06  1.017501E+05  1.253897E+05  4.189402E+04 -8.466108E+04 -5.690042E+00
        29  20  2.603077E+06 -7.015136E+03  5.724638E+04  1.346563E+04 -5.409592E+04 -1.168628E+00
        29  21  2.618894E+06 -5.527117E+03  3.650651E+04 -1.496186E+04 -2.353052E+04  5.647953E-01
        29  22  2.618758E+06  1.017468E+05  1.253892E+05 -3.660107E-08 -8.466108E+04 -2.088293E-09
        29  23  2.603077E+06 -7.015476E+03  5.724633E+04 -3.811532E-08 -5.409592E+04 -4.562452E-09
        29  24  2.618893E+06 -5.527536E+03  3.650646E+04 -6.331788E-08 -2.353052E+04  1.133220E-09
        29  25  2.618760E+06  1.017501E+05  1.253897E+05 -4.189402E+04 -8.466108E+04  5.690042E+00
        29  26  2.603077E+06 -7.015136E+03  5.724638E+04 -1.346563E+04 -5.409592E+04  1.168628E+00
        29  27  2.618894E+06 -5.527117E+03  3.650651E+04  1.496186E+04 -2.353052E+04 -5.647953E-01
        30   1  2.612705E+06  7.539908E+03  3.089443E+04  2.841632E+03  1.795017E+04  8.183042E-02
        30   2  2.610825E+06 -7.599687E+02  2.096216E+04  7.309987E+02  7.389831E+03  8.666220E-03
        30   3  2.612717E+06  5.603040E+02  2.028894E+04 -1.379604E+03 -3.170319E+03  7.016739E-03
        30   4  2.612705E+06  7.539893E+03  3.089443E+04 -5.238745E-08  1.795017E+04 -1.835728E-09
        30   5  2.610825E+06 -7.599697E+02  2.096216E+04  7.931431E-10  7.389831E+03 -6.826284E-09
        30   6  2.612717E+06  5.603004E+02  2.028894E+04  1.086459E-08 -3.170319E+03  2.946771E-09
        30   7  2.612705E+06  7.539908E+03  3.089443E+04 -2.841632E+03  1.795017E+04 -8.183042E-02
        30   8  2.610825E+06 -7.599687E+02  2.096216E+04 -7.309987E+02  7.389831E+03 -8.666233E-03
        30   9  2.612717E+06  5.603040E+02  2.028894E+04  1.379604E+03 -3.170319E+03 -7.016734E-03
        30  10  2.612705E+06  7.539822E+03  3.089382E+04  2.841632E+03 -2.729649E-09  1.925015E-09
        30  11  2.610825E+06 -7.599833E+02  2.096206E+04  7.309987E+02 -4.218633E-09 -2.060297E-09
        30  12  2.612717E+06  5.603013E+02  2.028892E+04 -1.379604E+03 -8.222282E-09  2.903392E-09
        30  13  2.612705E+06  7.539807E+03  3.089382E+04 -3.591565E-08 -3.372652E-11  1.285294E-09
        30  14  2.610825E+06 -7.599843E+02  2.096206E+04 -7.730399E-09  1.297121E-08 -1.196296E-09
        30  15  2.612717E+06  5.602978E+02  2.028892E+04  3.770433E-08  3.252427E-09  3.017010E-09
        30  16  2.612705E+06  7.539822E+03  3.089382E+04 -2.841632E+03 -1.499247E-09  7.897899E-10
        30  17  2.610825E+06 -7.599833E+02  2.096206E+04 -7.309987E+02 -3.292458E-10 -5.036578E-10
        30  18  2.612717E+06  5.603013E+02  2.028892E+04  1.379604E+03  4.175439E-09  3.216939E-09
        30  19  2.612705E+06  7.539908E+03  3.089443E+04  2.841632E+03 -1.795017E+04 -8.183041E-02
        30  20  2.610825E+06 -7.599687E+02  2.096216E+04  7.309987E+02 -7.389831E+03 -8.666224E-03
        30  21  2.612717E+06  5.603040E+02  2.028894E+04 -1.379604E+03  3.170319E+03 -7.016734E-03
        30  22  2.612705E+06  7.539893E+03  3.089443E+04 -3.673357E-08 -1.795017E+04  4.478785E-09
        30  23  2.610825E+06 -7.599697E+02  2.096216E+04  1.014483E-09 -7.389831E+03  4.417518E-09
        30  24  2.612717E+06  5.603004E+02  2.028894E+04 -1.512551E-08  3.170319E+03  3.116652E-09
        30  25  2.612705E+06  7.539908E+03  3.089443E+04 -2.841632E+03 -1.795017E+04  8.183042E-02
        30  26  2.610825E+06 -7.599687E+02  2.096216E+04 -7.309987E+02 -7.389831E+03  8.666232E-03
        30  27  2.612717E+06  5.603040E+02  2.028894E+04  1.379604E+03  3.170319E+03  7.016741E-03
        31   1  2.613221E+06 -2.674514E+02  2.192474E+04  2.448894E+03 -6.892089E+03 -2.707685E-02
        31   2  2.610189E+06 -1.235018E+03  3.017331E+04 -1.236832E+03 -2.214147E+04  4.393360E-02
        31   3  2.613191E+06  1.404461E+04  5.238164E+04 -4.922595E+03 -3.739127E+04  2.952861E-01
        31   4  2.613221E+06 -2.674626E+02  2.192474E+04  3.946792E-08 -6.892089E+03  6.756068E-09
        31   5  2.610189E+06 -1.235021E+03  3.017331E+04  1.403136E-08 -2.214147E+04  7.049850E-10
        31   6  2.613191E+06  1.404457E+04  5.238163E+04 -2.109716E-08 -3.739127E+04 -6.082564E-09
        31   7  2.613221E+06 -2.674514E+02  2.192474E+04 -2.448894E+03 -6.892089E+03  2.707686E-02
        31   8  2.610189E+06 -1.235018E+03  3.017331E+04  1.236832E+03 -2.214147E+04 -4.393360E-02
        31   9  2.613191E+06  1.404461E+04  5.238164E+04  4.922595E+03 -3.739127E+04 -2.952861E-01
        31  10  2.613221E+06 -2.674641E+02  2.192466E+04  2.448894E+03  8.002368E-09  3.285187E-09
        31  11  2.610188E+06 -1.235149E+03  3.017239E+04 -1.236832E+03  2.573118E-09 -8.501286E-10
        31  12  2.613189E+06  1.404424E+04  5.237902E+04 -4.922595E+03 -3.819949E-09  2.448649E-09
        31  13  2.613221E+06 -2.674753E+02  2.192465E+04  5.386618E-08  1.297123E-08  3.646401E-09
        31  14  2.610188E+06 -1.235152E+03  3.017239E+04  1.054646E-08 -1.685920E-09 -3.885932E-10
        31  15  2.613189E+06  1.404419E+04  5.237901E+04  3.190435E-08  3.974958E-09 -7.998086E-10
        31  16  2.613221E+06 -2.674641E+02  2.192466E+04 -2.448894E+03 -5.308330E-09  4.050879E-09
        31  17  2.610188E+06 -1.235149E+03  3.017239E+04  1.236832E+03  4.130842E-09  9.567887E-11
        31  18  2.613189E+06  1.404424E+04  5.237902E+04  4.922595E+03  1.104547E-08 -4.182107E-09
        31  19  2.613221E+06 -2.674514E+02  2.192474E+04  2.448894E+03  6.892089E+03  2.707686E-02
        31  20  2.610189E+06 -1.235018E+03  3.017331E+04 -1.236832E+03  2.214147E+04 -4.393360E-02
        31  21  2.613191E+06  1.404461E+04  5.238164E+04 -4.922595E+03  3.739127E+04 -2.952861E-01
        31  22  2.613221E+06 -2.674626E+02  2.192474E+04  2.510262E-08  6.892089E+03  5.776662E-10
        31  23  2.610189E+06 -1.235021E+03  3.017331E+04 -1.019635E-08  2.214147E+04 -1.432189E-09
        31  24  2.613191E+06  1.404457E+04  5.238163E+04 -8.104884E-08  3.739127E+04  4.537702E-09
        31  25  2.613221E+06 -2.674514E+02  2.192474E+04 -2.448894E+03  6.892089E+03 -2.707686E-02
        31  26  2.610189E+06 -1.235018E+03  3.017331E+04  1.236832E+03  2.214147E+04  4.393360E-02
        31  27  2.613191E+06  1.404461E+04  5.238164E+04  4.922595E+03  3.739127E+04  2.952861E-01
        32   1  2.624832E+06 -1.030702E+04  6.405702E+04  2.779677E+04 -4.697144E+04 -2.094589E+00
        32   2  2.595611E+06 -1.296688E+04  1.043651E+05 -2.484679E+04 -1.027500E+05  4.095841E+00
        32   3  2.624586E+06  1.884145E+05  2.318946E+05 -7.749332E+04 -1.585277E+05  1.970838E+01
        32   4  2.624831E+06 -1.030847E+04  6.405681E+04 -2.011569E-08 -4.697144E+04 -5.195352E-09
        32   5  2.595610E+06 -1.296804E+04  1.043649E+05 -1.950441E-08 -1.027500E+05  1.009907E-09
        32   6  2.624580E+06  1.884032E+05  2.318930E+05 -4.264451E-08 -1.585277E+05  1.753584E-09
        32   7  2.624832E+06 -1.030702E+04  6.405702E+04 -2.779677E+04 -4.697144E+04  2.094589E+00
        32   8  2.595611E+06 -1.296688E+04  1.043651E+05  2.484679E+04 -1.027500E+05 -4.095841E+00
        32   9  2.624586E+06  1.884145E+05  2.318946E+05  7.749332E+04 -1.585277E+05 -1.970838E+01
        32  10  2.624829E+06 -1.030761E+04  6.405289E+04  2.779677E+04  1.126055E-09  2.629289E-09
        32  11  2.595600E+06 -1.296970E+04  1.043453E+05 -2.484679E+04 -2.622921E-09 -1.768215E-09
        32  12  2.624560E+06  1.884077E+05  2.318476E+05 -7.749332E+04 -8.060579E-09 -1.055797E-09
        32  13  2.624828E+06 -1.030906E+04  6.405268E+04  1.010639E-08 -5.277372E-09 -1.980630E-10
        32  14  2.595599E+06 -1.297086E+04  1.043452E+05 -7.665044E-09 -1.690898E-09 -1.112535E-10
        32  15  2.624553E+06  1.883965E+05  2.318460E+05  4.751079E-09 -1.690954E-09 -2.130366E-11
        32  16  2.624829E+06 -1.030761E+04  6.405289E+04 -2.779677E+04 -4.689802E-09 -2.987397E-09
        32  17  2.595600E+06 -1.296970E+04  1.043453E+05  2.484679E+04  4.926590E-09  1.551153E-09
        32  18  2.624560E+06  1.884077E+05  2.318476E+05  7.749332E+04  2.219029E-09  1.148922E-09
        32  19  2.624832E+06 -1.030702E+04  6.405702E+04  2.779677E+04  4.697144E+04  2.094589E+00
        32  20  2.595611E+06 -1.296688E+04  1.043651E+05 -2.484679E+04  1.027500E+05 -4.095841E+00
        32  21  2.624586E+06  1.884145E+05  2.318946E+05 -7.749332E+04  1.585277E+05 -1.970838E+01
        32  22  2.624831E+06 -1.030847E+04  6.405681E+04  5.750848E-08  4.697144E+04  4.794350E-09
        32  23  2.595610E+06 -1.296804E+04  1.043649E+05  1.076661E-07  1.027500E+05 -1.162842E-09
        32  24  2.624580E+06  1.884032E+05  2.318930E+05 -3.840141E-08  1.585277E+05 -1.825725E-09
        32  25  2.624832E+06 -1.030702E+04  6.405702E+04 -2.779677E+04  4.697144E+04 -2.094589E+00
        32  26  2.595611E+06 -1.296688E+04  1.043651E+05  2.484679E+04  1.027500E+05  4.095841E+00
        32  27  2.624586E+06  1.884145E+05  2.318946E+05  7.749332E+04  1.585277E+05  1.970838E+01
        33   1 -2.608216E+06 -9.093018E+06 -2.651686E+06  1.167217E+06 -1.014562E+05 -5.096998E+05
        33   2 -1.759980E+06 -7.222472E+06 -1.870049E+06  5.896503E+05 -2.893101E+05 -2.322514E+05
        33   3 -1.300482E+06 -5.464108E+06 -1.364373E+06  9.570444E+05 -2.351133E+05  4.521353E+04
        33   4 -3.511967E+05 -7.557228E+04 -4.315562E+05  1.044275E+06 -1.006264E+05 -2.915765E+05
        33   5  1.849676E+04 -3.041639E+04 -1.990630E+05  5.712033E+05 -2.887995E+05 -1.848141E+05
        33   6  3.224946E+04 -6.866171E+04 -1.210591E+05  1.042762E+06 -2.360716E+05 -7.888548E+04
        33   7  1.899844E+06  9.016703E+06  1.782765E+06  9.194109E+05 -9.989270E+04 -7.022988E+04
        33   8  1.793322E+06  7.209771E+06  1.468453E+06  5.524527E+05 -2.882955E+05 -1.368165E+05
        33   9  1.362966E+06  5.353912E+06  1.120382E+06  1.129156E+06 -2.370596E+05 -2.040592E+05
        33  10 -2.608298E+06 -9.093303E+06 -2.652200E+06  1.167175E+06  1.864753E-09 -5.256136E-09
        33  11 -1.760085E+06 -7.222553E+06 -1.870309E+06  5.895959E+05 -1.574881E-09  2.103798E-09
        33  12 -1.300542E+06 -5.464125E+06 -1.364481E+06  9.570530E+05  8.418978E-09 -5.848274E-10
        33  13 -3.512303E+05 -7.566625E+04 -4.317348E+05  1.044251E+06 -6.785837E-09 -5.340422E-11
        33  14  1.839808E+04 -3.047539E+04 -1.992837E+05  5.711603E+05 -7.954435E-09  5.035896E-09
        33  15  3.218799E+04 -6.868330E+04 -1.211754E+05  1.042747E+06 -6.825954E-09  8.366753E-09
        33  16  1.899832E+06  9.016695E+06  1.782737E+06  9.194053E+05 -6.885033E-09  5.913521E-09
        33  17  1.793228E+06  7.209728E+06  1.468262E+06  5.524211E+05 -8.047375E-09  2.844989E-09
        33  18  1.362895E+06  5.353853E+06  1.120199E+06  1.129117E+06 -1.654485E-08  3.902097E-09
        33  19 -2.608216E+06 -9.093018E+06 -2.651686E+06  1.167217E+06  1.014562E+05  5.096998E+05
        33  20 -1.759980E+06 -7.222472E+06 -1.870049E+06  5.896503E+05  2.893101E+05  2.322514E+05
        33  21 -1.300482E+06 -5.464108E+06 -1.364373E+06  9.570444E+05  2.351133E+05 -4.521353E+04
        33  22 -3.511967E+05 -7.557228E+04 -4.315562E+05  1.044275E+06  1.006264E+05  2.915765E+05
        33  23  1.849676E+04 -3.041639E+04 -1.990630E+05  5.712033E+05  2.887995E+05  1.848141E+05
        33  24  3.224946E+04 -6.866171E+04 -1.210591E+05  1.042762E+06  2.360716E+05  7.888548E+04
        33  25  1.899844E+06  9.016703E+06  1.782765E+06  9.194109E+05  9.989270E+04  7.022988E+04
        33  26  1.793322E+06  7.209771E+06  1.468453E+06  5.524527E+05  2.882955E+05  1.368165E+05
        33  27  1.362966E+06  5.353912E+06  1.120382E+06  1.129156E+06  2.370596E+05  2.040592E+05
        34   1 -9.125680E+05 -3.709593E+06 -9.465296E+05  1.030451E+06 -1.541227E+05 -9.305362E+03
        34   2 -4.397777E+05 -1.878524E+06 -4.890033E+05  5.567131E+05 -7.875258E+04  2.622508E+04
        34   3  8.111064E+03 -7.467637E+04 -6.570705E+04  1.035987E+06  1.072483E+03  6.158116E+04
        34   4 -1.071521E+04 -5.283735E+04 -1.024145E+05  1.045186E+06 -1.545845E+05 -6.171432E+04
        34   5  1.381399E+04 -3.712126E+04 -6.512752E+04  5.686546E+05 -7.931451E+04 -2.928919E+04
        34   6  1.429968E+04 -5.105533E+04 -5.959451E+04  1.044962E+06  3.936181E+02  2.858504E+03
        34   7  8.902007E+05  3.616338E+06  7.408209E+05  1.059969E+06 -1.550472E+05 -1.144302E+05
        34   8  4.671703E+05  1.807431E+06  3.585351E+05  5.806226E+05 -7.987767E+04 -8.496709E+04
        34   9  2.049039E+04 -2.742621E+04 -5.346902E+04  1.053938E+06 -2.869307E+02 -5.586640E+04
        34  10 -9.125935E+05 -3.709600E+06 -9.465744E+05  1.030449E+06  3.983381E-09  3.572810E-09
        34  11 -4.397846E+05 -1.878526E+06 -4.890162E+05  5.567147E+05 -1.923102E-09  1.282092E-08
        34  12  8.110044E+03 -7.468044E+04 -6.571418E+04  1.035987E+06 -4.226890E-09 -6.769328E-10
        34  13 -1.074187E+04 -5.284783E+04 -1.024665E+05  1.045178E+06 -1.184534E-08  2.673865E-11
        34  14  1.380701E+04 -3.712386E+04 -6.514094E+04  5.686528E+05 -2.353657E-09  1.036139E-08
        34  15  1.429967E+04 -5.105534E+04 -5.959453E+04  1.044962E+06 -1.492464E-09  1.126632E-08
        34  16  8.901714E+05  3.616318E+06  7.407514E+05  1.059955E+06 -9.042478E-09  9.359332E-10
        34  17  4.671616E+05  1.807422E+06  3.585096E+05  5.806171E+05  2.527331E-09 -2.606597E-09
        34  18  2.048956E+04 -2.742956E+04 -5.347488E+04  1.053938E+06  3.093265E-10  4.867596E-09
        34  19 -9.125680E+05 -3.709593E+06 -9.465296E+05  1.030451E+06  1.541227E+05  9.305362E+03
        34  20 -4.397777E+05 -1.878524E+06 -4.890033E+05  5.567131E+05  7.875258E+04 -2.622508E+04
        34  21  8.111064E+03 -7.467637E+04 -6.570705E+04  1.035987E+06 -1.072483E+03 -6.158116E+04
        34  22 -1.071521E+04 -5.283735E+04 -1.024145E+05  1.045186E+06  1.545845E+05  6.171432E+04
        34  23  1.381399E+04 -3.712126E+04 -6.512752E+04  5.686546E+05  7.931451E+04  2.928919E+04
        34  24  1.429968E+04 -5.105533E+04 -5.959451E+04  1.044962E+06 -3.936181E+02 -2.858504E+03
        34  25  8.902007E+05  3.616338E+06  7.408209E+05  1.059969E+06  1.550472E+05  1.144302E+05
        34  26  4.671703E+05  1.807431E+06  3.585351E+05  5.806226E+05  7.987767E+04  8.496709E+04
        34  27  2.049039E+04 -2.742621E+04 -5.346902E+04  1.053938E+06  2.869307E+02  5.586640E+04
        35   1  4.507524E+05  1.666771E+06  3.361064E+05  1.077068E+06  7.303200E+04  1.136701E+05
        35   2  8.863079E+05  3.504918E+06  7.395267E+05  5.773704E+05  1.380304E+05  4.641292E+04
        35   3  1.222574E+06  5.318118E+06  1.158505E+06  1.025618E+06  5.273740E+04 -1.974872E+04
        35   4  2.658253E+04 -5.564614E+04 -6.060732E+04  1.043684E+06  7.188542E+04  1.186290E+04
        35   5  1.650431E+04 -3.382541E+04 -7.881880E+04  5.700674E+05  1.381487E+05  5.305132E+04
        35   6 -1.118378E+05 -5.905862E+04 -1.566759E+05  1.044820E+06  5.373170E+04  9.552982E+04
        35   7 -3.977865E+05 -1.775300E+06 -4.574789E+05  1.010384E+06  7.074796E+04 -8.966467E+04
        35   8 -8.541771E+05 -3.561038E+06 -8.980008E+05  5.627742E+05  1.382673E+05  5.965164E+04
        35   9 -1.448372E+06 -5.410003E+06 -1.473919E+06  1.063782E+06  5.473810E+04  2.098155E+05
        35  10  4.507432E+05  1.666756E+06  3.360722E+05  1.077061E+06  4.222500E-09 -1.536187E-09
        35  11  8.862869E+05  3.504911E+06  7.394869E+05  5.773653E+05  2.798532E-09  9.735394E-09
        35  12  1.222571E+06  5.318117E+06  1.158499E+06  1.025619E+06  6.562304E-09  1.266371E-09
        35  13  2.657694E+04 -5.564767E+04 -6.061729E+04  1.043684E+06  6.664572E-09 -7.693079E-11
        35  14  1.648307E+04 -3.383355E+04 -7.885992E+04  5.700615E+05  1.311041E-08  9.103226E-09
        35  15 -1.118433E+05 -5.906919E+04 -1.566984E+05  1.044816E+06 -3.045340E-09  7.635272E-09
        35  16 -3.977941E+05 -1.775310E+06 -4.575035E+05  1.010389E+06  7.002362E-09  6.622452E-09
        35  17 -8.541986E+05 -3.561047E+06 -8.980434E+05  5.627675E+05  1.333105E-08 -7.184273E-10
        35  18 -1.448388E+06 -5.410052E+06 -1.474008E+06  1.063772E+06 -1.212682E-09  1.477509E-09
        35  19  4.507524E+05  1.666771E+06  3.361064E+05  1.077068E+06 -7.303200E+04 -1.136701E+05
        35  20  8.863079E+05  3.504918E+06  7.395267E+05  5.773704E+05 -1.380304E+05 -4.641292E+04
        35  21  1.222574E+06  5.318118E+06  1.158505E+06  1.025618E+06 -5.273740E+04  1.974872E+04
        35  22  2.658253E+04 -5.564614E+04 -6.060732E+04  1.043684E+06 -7.188542E+04 -1.186290E+04
        35  23  1.650431E+04 -3.382541E+04 -7.881880E+04  5.700674E+05 -1.381487E+05 -5.305132E+04
        35  24 -1.118378E+05 -5.905862E+04 -1.566759E+05  1.044820E+06 -5.373170E+04 -9.552982E+04
        35  25 -3.977865E+05 -1.775300E+06 -4.574789E+05  1.010384E+06 -7.074796E+04  8.966467E+04
        35  26 -8.541771E+05 -3.561038E+06 -8.980008E+05  5.627742E+05 -1.382673E+05 -5.965164E+04
        35  27 -1.448372E+06 -5.410003E+06 -1.473919E+06  1.063782E+06 -5.473810E+04 -2.098155E+05
        36   1  1.857090E+06  5.985914E+04  7.379840E+04  2.463554E+04  4.957738E+04  1.961695E+00
        36   2  1.847841E+06 -4.134234E+03  3.385500E+04  7.924502E+03  3.151176E+04  4.010823E-01
        36   3  1.857146E+06 -3.243257E+03  2.186879E+04 -8.785976E+03  1.344632E+04 -1.897473E-01
        36   4  1.857090E+06  5.985801E+04  7.379824E+04 -3.532469E-08  4.957738E+04 -1.051706E-09
        36   5  1.847841E+06 -4.134352E+03  3.385498E+04 -1.427641E-08  3.151176E+04 -1.512443E-09
        36   6  1.857146E+06 -3.243402E+03  2.186877E+04  3.568085E-09  1.344632E+04  1.006092E-09
        36   7  1.857090E+06  5.985914E+04  7.379840E+04 -2.463554E+04  4.957738E+04 -1.961695E+00
        36   8  1.847841E+06 -4.134234E+03  3.385500E+04 -7.924502E+03  3.151176E+04 -4.010823E-01
        36   9  1.857146E+06 -3.243257E+03  2.186879E+04  8.785976E+03  1.344632E+04  1.897473E-01
        36  10  1.857088E+06  5.985849E+04  7.379380E+04  2.463554E+04 -2.461307E-09 -1.249839E-09
        36  11  1.847840E+06 -4.134500E+03  3.385313E+04  7.924502E+03 -1.476529E-08 -2.514882E-09
        36  12  1.857146E+06 -3.243305E+03  2.186845E+04 -8.785976E+03 -3.599800E-09  4.089436E-10
        36  13  1.857087E+06  5.985735E+04  7.379364E+04  1.605683E-08 -7.159681E-10 -9.460282E-10
        36  14  1.847840E+06 -4.134618E+03  3.385312E+04  2.031927E-08 -6.653975E-10 -1.902242E-09
        36  15  1.857146E+06 -3.243450E+03  2.186843E+04 -1.275152E-09  3.153681E-09  7.394479E-10
        36  16  1.857088E+06  5.985849E+04  7.379380E+04 -2.463554E+04  6.789415E-09 -6.341042E-10
        36  17  1.847840E+06 -4.134500E+03  3.385313E+04 -7.924502E+03 -6.567036E-10 -1.255227E-09
        36  18  1.857146E+06 -3.243305E+03  2.186845E+04  8.785976E+03  7.914367E-09  9.498531E-10
        36  19  1.857090E+06  5.985914E+04  7.379840E+04  2.463554E+04 -4.957738E+04 -1.961695E+00
        36  20  1.847841E+06 -4.134234E+03  3.385500E+04  7.924502E+03 -3.151176E+04 -4.010823E-01
        36  21  1.857146E+06 -3.243257E+03  2.186879E+04 -8.785976E+03 -1.344632E+04  1.897473E-01
        36  22  1.857090E+06  5.985801E+04  7.379824E+04 -3.603243E-08 -4.957738E+04 -8.493728E-10
        36  23  1.847841E+06 -4.134352E+03  3.385498E+04  3.190028E-09 -3.151176E+04 -2.260961E-09
        36  24  1.857146E+06 -3.243402E+03  2.186877E+04 -2.871356E-08 -1.344632E+04  4.083396E-10
        36  25  1.857090E+06  5.985914E+04  7.379840E+04 -2.463554E+04 -4.957738E+04  1.961695E+00
        36  26  1.847841E+06 -4.134234E+03  3.385500E+04 -7.924502E+03 -3.151176E+04  4.010823E-01
        36  27  1.857146E+06 -3.243257E+03  2.186879E+04  8.785976E+03 -1.344632E+04 -1.897473E-01
        37   1  1.853529E+06  4.427776E+03  1.871237E+04  1.709443E+03  1.008167E+04  2.768039E-02
        37   2  1.852368E+06 -4.670570E+02  1.330004E+04  4.429518E+02  3.388672E+03  2.410855E-03
        37   3  1.853534E+06  4.778078E+02  1.369557E+04 -8.235583E+02 -3.304419E+03  4.370928E-03
        37   4  1.853529E+06  4.427771E+03  1.871237E+04 -5.021681E-08  1.008167E+04  1.469139E-09
        37   5  1.852368E+06 -4.670574E+02  1.330004E+04 -9.376513E-08  3.388672E+03 -1.477965E-09
        37   6  1.853534E+06  4.778065E+02  1.369557E+04  3.190076E-08 -3.304419E+03 -4.279603E-09
        37   7  1.853529E+06  4.427776E+03  1.871237E+04 -1.709443E+03  1.008167E+04 -2.768039E-02
        37   8  1.852368E+06 -4.670570E+02  1.330004E+04 -4.429518E+02  3.388672E+03 -2.410857E-03
        37   9  1.853534E+06  4.778078E+02  1.369557E+04  8.235583E+02 -3.304419E+03 -4.370937E-03
        37  10  1.853529E+06  4.427749E+03  1.871218E+04  1.709443E+03  8.534465E-09  4.230448E-10
        37  11  1.852367E+06 -4.670601E+02  1.330002E+04  4.429518E+02 -1.534073E-08 -2.500018E-09
        37  12  1.853534E+06  4.778048E+02  1.369555E+04 -8.235583E+02 -1.117332E-08 -3.282996E-09
        37  13  1.853529E+06  4.427744E+03  1.871218E+04 -2.907096E-08  5.029960E-09  1.115620E-09
        37  14  1.852367E+06 -4.670604E+02  1.330002E+04  3.746716E-08  3.157934E-09 -1.812579E-09
        37  15  1.853534E+06  4.778036E+02  1.369555E+04 -5.981593E-08  2.714503E-10 -3.721251E-09
        37  16  1.853529E+06  4.427749E+03  1.871218E+04 -1.709443E+03 -7.273163E-09  1.710696E-09
        37  17  1.852367E+06 -4.670601E+02  1.330002E+04 -4.429518E+02  2.498896E-09 -8.971847E-10
        37  18  1.853534E+06  4.778048E+02  1.369555E+04  8.235583E+02  5.336339E-09 -4.170528E-09
        37  19  1.853529E+06  4.427776E+03  1.871237E+04  1.709443E+03 -1.008167E+04 -2.768039E-02
        37  20  1.852368E+06 -4.670570E+02  1.330004E+04  4.429518E+02 -3.388672E+03 -2.410860E-03
        37  21  1.853534E+06  4.778078E+02  1.369557E+04 -8.235583E+02  3.304419E+03 -4.370935E-03
        37  22  1.853529E+06  4.427771E+03  1.871237E+04 -2.518632E-08 -1.008167E+04  8.067326E-10
        37  23  1.852368E+06 -4.670574E+02  1.330004E+04 -3.739618E-09 -3.388672E+03 -2.182677E-09
        37  24  1.853534E+06  4.778065E+02  1.369557E+04 -1.062578E-07  3.304419E+03 -3.211877E-09
        37  25  1.853529E+06  4.427776E+03  1.871237E+04 -1.709443E+03 -1.008167E+04  2.768039E-02
        37  26  1.852368E+06 -4.670570E+02  1.330004E+04 -4.429518E+02 -3.388672E+03  2.410856E-03
        37  27  1.853534E+06  4.778078E+02  1.369557E+04  8.235583E+02  3.304419E+03  4.370929E-03
        38   1  1.853993E+06 -2.766435E+02  1.518474E+04  1.796903E+03 -5.848762E+03 -1.688003E-02
        38   2  1.851789E+06 -9.003715E+02  2.168679E+04 -9.038769E+02 -1.681058E+04  2.440495E-02
        38   3  1.853976E+06  1.035540E+04  3.828007E+04 -3.604647E+03 -2.777250E+04  1.607915E-01
        38   4  1.853993E+06 -2.766495E+02  1.518474E+04 -5.892553E-08 -5.848762E+03 -7.402800E-09
        38   5  1.851789E+06 -9.003730E+02  2.168679E+04 -3.591058E-08 -1.681058E+04 -6.867274E-09
        38   6  1.853976E+06  1.035538E+04  3.828007E+04 -2.906078E-08 -2.777250E+04  6.939070E-09
        38   7  1.853993E+06 -2.766435E+02  1.518474E+04 -1.796903E+03 -5.848762E+03  1.688002E-02
        38   8  1.851789E+06 -9.003715E+02  2.168679E+04  9.038769E+02 -1.681058E+04 -2.440496E-02
        38   9  1.853976E+06  1.035540E+04  3.828007E+04  3.604647E+03 -2.777250E+04 -1.607915E-01
        38  10  1.853993E+06 -2.766526E+02  1.518467E+04  1.796903E+03  2.056149E-08 -1.781499E-09
        38  11  1.851789E+06 -9.004471E+02  2.168626E+04 -9.038769E+02  2.803913E-09  1.596766E-09
        38  12  1.853976E+06  1.035520E+04  3.827863E+04 -3.604647E+03  7.449419E-10  3.886005E-09
        38  13  1.853993E+06 -2.766587E+02  1.518467E+04  1.740044E-09 -8.639179E-09 -3.336710E-09
        38  14  1.851789E+06 -9.004486E+02  2.168626E+04  5.434979E-09 -1.821861E-09 -2.407983E-10
        38  15  1.853976E+06  1.035517E+04  3.827862E+04  4.951214E-10 -7.811796E-09  3.491072E-09
        38  16  1.853993E+06 -2.766526E+02  1.518467E+04 -1.796903E+03 -4.779681E-09 -4.890928E-09
        38  17  1.851789E+06 -9.004471E+02  2.168626E+04  9.038769E+02 -6.045729E-09 -2.070597E-09
        38  18  1.853976E+06  1.035520E+04  3.827863E+04  3.604647E+03  7.068930E-09  2.876062E-09
        38  19  1.853993E+06 -2.766435E+02  1.518474E+04  1.796903E+03  5.848762E+03  1.688003E-02
        38  20  1.851789E+06 -9.003715E+02  2.168679E+04 -9.038769E+02  1.681058E+04 -2.440495E-02
        38  21  1.853976E+06  1.035540E+04  3.828007E+04 -3.604647E+03  2.777250E+04 -1.607915E-01
        38  22  1.853993E+06 -2.766495E+02  1.518474E+04  1.924848E-08  5.848762E+03  8.047005E-10
        38  23  1.851789E+06 -9.003730E+02  2.168679E+04  2.952382E-08  1.681058E+04  6.440017E-09
        38  24  1.853976E+06  1.035538E+04  3.828007E+04 -5.398989E-08  2.777250E+04  3.489024E-11
        38  25  1.853993E+06 -2.766435E+02  1.518474E+04 -1.796903E+03  5.848762E+03 -1.688003E-02
        38  26  1.851789E+06 -9.003715E+02  2.168679E+04  9.038769E+02  1.681058E+04  2.440496E-02
        38  27  1.853976E+06  1.035540E+04  3.828007E+04  3.604647E+03  2.777250E+04  1.607915E-01
        39   1  1.862557E+06 -7.598052E+03  4.695788E+04  2.047103E+04 -3.477668E+04 -1.143424E+00
        39   2  1.841050E+06 -9.563053E+03  7.676481E+04 -1.828351E+04 -7.580129E+04  2.226028E+00
        39   3  1.862429E+06  1.388056E+05  1.708105E+05 -5.703908E+04 -1.168249E+05  1.070274E+01
        39   4  1.862556E+06 -7.598837E+03  4.695777E+04 -3.578318E-09 -3.477668E+04  9.094634E-09
        39   5  1.841050E+06 -9.563679E+03  7.676472E+04 -1.987210E-08 -7.580129E+04 -9.128694E-11
        39   6  1.862425E+06  1.387995E+05  1.708096E+05  3.280183E-08 -1.168249E+05 -1.086933E-09
        39   7  1.862557E+06 -7.598052E+03  4.695788E+04 -2.047103E+04 -3.477668E+04  1.143424E+00
        39   8  1.841050E+06 -9.563053E+03  7.676481E+04  1.828351E+04 -7.580129E+04 -2.226028E+00
        39   9  1.862429E+06  1.388056E+05  1.708105E+05  5.703908E+04 -1.168249E+05 -1.070274E+01
        39  10  1.862555E+06 -7.598375E+03  4.695561E+04  2.047103E+04  1.842155E-09  2.578384E-09
        39  11  1.841044E+06 -9.564590E+03  7.675404E+04 -1.828351E+04  2.181794E-09 -1.201151E-09
        39  12  1.862414E+06  1.388020E+05  1.707849E+05 -5.703908E+04  2.262645E-10 -9.289264E-10
        39  13  1.862555E+06 -7.599161E+03  4.695550E+04  1.288446E-08  1.600895E-08  2.727538E-09
        39  14  1.841043E+06 -9.565216E+03  7.675395E+04  5.751167E-09 -2.155685E-09 -1.179762E-09
        39  15  1.862411E+06  1.387959E+05  1.707840E+05  2.015219E-08  4.114432E-09 -8.725734E-10
        39  16  1.862555E+06 -7.598375E+03  4.695561E+04 -2.047103E+04 -2.037461E-09  2.713163E-09
        39  17  1.841044E+06 -9.564590E+03  7.675404E+04  1.828351E+04  1.642803E-09 -1.225963E-09
        39  18  1.862414E+06  1.388020E+05  1.707849E+05  5.703908E+04 -8.055082E-10 -9.030513E-10
        39  19  1.862557E+06 -7.598052E+03  4.695788E+04  2.047103E+04  3.477668E+04  1.143424E+00
        39  20  1.841050E+06 -9.563053E+03  7.676481E+04 -1.828351E+04  7.580129E+04 -2.226028E+00
        39  21  1.862429E+06  1.388056E+05  1.708105E+05 -5.703908E+04  1.168249E+05 -1.070274E+01
        39  22  1.862556E+06 -7.598837E+03  4.695777E+04  3.480792E-09  3.477668E+04 -3.610164E-09
        39  23  1.841050E+06 -9.563679E+03  7.676472E+04 -3.108848E-09  7.580129E+04 -2.265419E-09
        39  24  1.862425E+06  1.387995E+05  1.708096E+05  3.340415E-08  1.168249E+05 -6.761414E-10
        39  25  1.862557E+06 -7.598052E+03  4.695788E+04 -2.047103E+04  3.477668E+04 -1.143424E+00
        39  26  1.841050E+06 -9.563053E+03  7.676481E+04  1.828351E+04  7.580129E+04  2.226028E+00
        39  27  1.862429E+06  1.388056E+05  1.708105E+05  5.703908E+04  1.168249E+05  1.070274E+01
        40   1 -2.329116E+06 -8.302105E+06 -2.353009E+06  1.036555E+06 -9.312909E+04 -4.117834E+05
        40   2 -1.627324E+06 -6.609419E+06 -1.685267E+06  5.298083E+05 -2.664862E+05 -1.770198E+05
        40   3 -1.209295E+06 -5.000042E+06 -1.239501E+06  8.826317E+05 -2.177067E+05  5.769754E+04
        40   4 -2.538609E+05 -7.130904E+03 -3.119022E+05  9.500246E+05 -9.245954E+04 -2.101795E+05
        40   5  1.255340E+04  2.426189E+04 -1.446590E+05  5.198999E+05 -2.660549E+05 -1.325689E+05
        40   6  2.470839E+04 -1.340031E+03 -8.808315E+04  9.490119E+05 -2.185085E+05 -5.565633E+04
        40   7  1.816316E+06  8.351105E+06  1.724292E+06  8.622376E+05 -9.185322E+04 -5.843837E+03
        40   8  1.649325E+06  6.698865E+06  1.392999E+06  5.098168E+05 -2.656279E+05 -8.763657E+04
        40   9  1.256978E+06  5.020633E+06  1.061727E+06  1.015870E+06 -2.193311E+05 -1.699197E+05
        40  10 -2.329171E+06 -8.302291E+06 -2.353348E+06  1.036524E+06 -9.408720E-10  6.822723E-09
        40  11 -1.627409E+06 -6.609472E+06 -1.685460E+06  5.297702E+05 -1.963595E-09  1.526317E-08
        40  12 -1.209347E+06 -5.000058E+06 -1.239596E+06  8.826419E+05  2.143093E-09 -2.041203E-09
        40  13 -2.538819E+05 -7.180601E+03 -3.120011E+05  9.500090E+05  1.106645E-09 -3.396422E-11
        40  14  1.247271E+04  2.422406E+04 -1.448249E+05  5.198715E+05 -1.052984E-08  1.840648E-11
        40  15  2.465631E+04 -1.356146E+03 -8.817860E+04  9.490021E+05  2.292057E-09 -1.894505E-09
        40  16  1.816307E+06  8.351103E+06  1.724276E+06  8.622372E+05 -5.331599E-09 -7.183620E-09
        40  17  1.649247E+06  6.698838E+06  1.392852E+06  5.097981E+05 -8.715554E-10 -9.785752E-09
        40  18  1.256919E+06  5.020589E+06  1.061583E+06  1.015841E+06  9.682240E-10  1.890983E-09
        40  19 -2.329116E+06 -8.302105E+06 -2.353009E+06  1.036555E+06  9.312909E+04  4.117834E+05
        40  20 -1.627324E+06 -6.609419E+06 -1.685267E+06  5.298083E+05  2.664862E+05  1.770198E+05
        40  21 -1.209295E+06 -5.000042E+06 -1.239501E+06  8.826317E+05  2.177067E+05 -5.769754E+04
        40  22 -2.538609E+05 -7.130904E+03 -3.119022E+05  9.500246E+05  9.245954E+04  2.101795E+05
        40  23  1.255340E+04  2.426189E+04 -1.446590E+05  5.198999E+05  2.660549E+05  1.325689E+05
        40  24  2.470839E+04 -1.340031E+03 -8.808315E+04  9.490119E+05  2.185085E+05  5.565633E+04
        40  25  1.816316E+06  8.351105E+06  1.724292E+06  8.622376E+05  9.185322E+04  5.843837E+03
        40  26  1.649325E+06  6.698865E+06  1.392999E+06  5.098168E+05  2.656279E+05  8.763657E+04
        40  27  1.256978E+06  5.020633E+06  1.061727E+06  1.015870E+06  2.193311E+05  1.699197E+05
        41   1 -8.485416E+05 -3.407358E+06 -8.636618E+05  9.370579E+05 -1.438056E+05  4.228505E+03
        41   2 -4.235430E+05 -1.743599E+06 -4.553990E+05  5.067878E+05 -7.545175E+04  3.160967E+04
        41   3 -1.602206E+04 -1.014487E+05 -7.337137E+04  9.431711E+05 -2.829363E+03  5.882041E+04
        41   4 -6.038091E+03  9.371815E+03 -7.511073E+04  9.510234E+05 -1.441883E+05 -4.323500E+04
        41   5  1.130123E+04  2.192601E+04 -4.903896E+04  5.177006E+05 -7.592240E+04 -1.886426E+04
        41   6  1.193663E+04  1.092290E+04 -4.687005E+04  9.508788E+05 -3.402475E+03  5.263790E+03
        41   7  8.356476E+05  3.436941E+06  7.126720E+05  9.650341E+05 -1.445720E+05 -9.095826E+04
        41   8  4.459289E+05  1.790346E+06  3.571241E+05  5.286367E+05 -7.639410E+04 -6.948083E+04
        41   9  3.989616E+04  1.233124E+05 -2.035878E+04  9.585880E+05 -3.976859E+03 -4.830247E+04
        41  10 -8.485638E+05 -3.407364E+06 -8.637007E+05  9.370584E+05  1.990163E-09 -1.579207E-08
        41  11 -4.235493E+05 -1.743601E+06 -4.554115E+05  5.067898E+05 -7.474949E-09  5.651599E-09
        41  12 -1.602299E+04 -1.014524E+05 -7.337789E+04  9.431713E+05 -2.405328E-09 -1.448421E-08
        41  13 -6.060905E+03  9.364241E+03 -7.515326E+04  9.510183E+05 -7.101014E-09  3.527982E-11
        41  14  1.129494E+04  2.192408E+04 -4.905045E+04  5.176994E+05 -5.687512E-09 -4.053670E-11
        41  15  1.193661E+04  1.092287E+04 -4.687012E+04  9.508788E+05 -1.286974E-09 -2.513654E-09
        41  16  8.356230E+05  3.436926E+06  7.126173E+05  9.650235E+05  2.564476E-11  1.377152E-08
        41  17  4.459214E+05  1.790339E+06  3.571041E+05  5.286324E+05  3.583160E-09  5.930192E-09
        41  18  3.989552E+04  1.233099E+05 -2.036319E+04  9.585878E+05 -5.972236E-10  1.443154E-08
        41  19 -8.485416E+05 -3.407358E+06 -8.636618E+05  9.370579E+05  1.438056E+05 -4.228505E+03
        41  20 -4.235430E+05 -1.743599E+06 -4.553990E+05  5.067878E+05  7.545175E+04 -3.160967E+04
        41  21 -1.602206E+04 -1.014487E+05 -7.337137E+04  9.431711E+05  2.829363E+03 -5.882041E+04
        41  22 -6.038091E+03  9.371815E+03 -7.511073E+04  9.510234E+05  1.441883E+05  4.323500E+04
        41  23  1.130123E+04  2.192601E+04 -4.903896E+04  5.177006E+05  7.592240E+04  1.886426E+04
        41  24  1.193663E+04  1.092290E+04 -4.687005E+04  9.508788E+05  3.402475E+03 -5.263790E+03
        41  25  8.356476E+05  3.436941E+06  7.126720E+05  9.650341E+05  1.445720E+05  9.095826E+04
        41  26  4.459289E+05  1.790346E+06  3.571241E+05  5.286367E+05  7.639410E+04  6.948083E+04
        41  27  3.989616E+04  1.233124E+05 -2.035878E+04  9.585880E+05  3.976859E+03  4.830247E+04
        42   1  3.859764E+05  1.481963E+06  2.913265E+05  9.771879E+05  6.230648E+04  1.043598E+05
        42   2  7.828539E+05  3.152198E+06  6.581471E+05  5.248018E+05  1.217922E+05  4.139326E+04
        42   3  1.097388E+06  4.801828E+06  1.042368E+06  9.346164E+05  4.679275E+04 -2.065420E+04
        42   4  2.268419E+04  6.711035E+03 -4.858790E+04  9.497635E+05  6.134373E+04  1.234983E+04
        42   5  1.414048E+04  2.541142E+04 -6.514090E+04  5.189443E+05  1.218798E+05  4.641095E+04
        42   6 -9.367704E+04  3.974920E+03 -1.315698E+05  9.506628E+05  4.762320E+04  8.155665E+04
        42   7 -3.407538E+05 -1.466512E+06 -3.886150E+05  9.223982E+05  6.038780E+04 -7.944362E+04
        42   8 -7.552586E+05 -3.092371E+06 -7.890822E+05  5.130932E+05  1.219676E+05  5.140319E+04
        42   9 -1.286433E+06 -4.772986E+06 -1.307150E+06  9.665298E+05  4.846263E+04  1.829818E+05
        42  10  3.859693E+05  1.481950E+06  2.912989E+05  9.771827E+05  1.712614E-09  2.589454E-09
        42  11  7.828376E+05  3.152193E+06  6.581160E+05  5.247978E+05  1.621958E-09  1.953827E-08
        42  12  1.097385E+06  4.801827E+06  1.042363E+06  9.346171E+05  1.352171E-09 -3.450026E-09
        42  13  2.268011E+04  6.709863E+03 -4.859526E+04  9.497629E+05 -2.419664E-09 -1.106124E-11
        42  14  1.412396E+04  2.540513E+04 -6.517284E+04  5.189398E+05 -8.533350E-09 -9.876540E-11
        42  15 -9.368125E+04  3.967178E+03 -1.315866E+05  9.506596E+05  2.572211E-10 -1.759500E-09
        42  16 -3.407595E+05 -1.466520E+06 -3.886337E+05  9.224021E+05  4.230643E-09 -5.182097E-09
        42  17 -7.552753E+05 -3.092378E+06 -7.891151E+05  5.130881E+05 -1.146412E-08 -8.952990E-09
        42  18 -1.286445E+06 -4.773023E+06 -1.307218E+06  9.665227E+05 -3.737141E-09  3.415077E-09
        42  19  3.859764E+05  1.481963E+06  2.913265E+05  9.771879E+05 -6.230648E+04 -1.043598E+05
        42  20  7.828539E+05  3.152198E+06  6.581471E+05  5.248018E+05 -1.217922E+05 -4.139326E+04
        42  21  1.097388E+06  4.801828E+06  1.042368E+06  9.346164E+05 -4.679275E+04  2.065420E+04
        42  22  2.268419E+04  6.711035E+03 -4.858790E+04  9.497635E+05 -6.134373E+04 -1.234983E+04
        42  23  1.414048E+04  2.541142E+04 -6.514090E+04  5.189443E+05 -1.218798E+05 -4.641095E+04
        42  24 -9.367704E+04  3.974920E+03 -1.315698E+05  9.506628E+05 -4.762320E+04 -8.155665E+04
        42  25 -3.407538E+05 -1.466512E+06 -3.886150E+05  9.223982E+05 -6.038780E+04  7.944362E+04
        42  26 -7.552586E+05 -3.092371E+06 -7.890822E+05  5.130932E+05 -1.219676E+05 -5.140319E+04
        42  27 -1.286433E+06 -4.772986E+06 -1.307150E+06  9.665298E+05 -4.846263E+04 -1.829818E+05
        43   1  1.146296E+06  1.875367E+04  2.319836E+04  7.732424E+03  1.508097E+04  1.875009E-01
        43   2  1.143376E+06 -1.302363E+03  1.101833E+04  2.502290E+03  9.218122E+03  3.708853E-02
        43   3  1.146307E+06 -9.974924E+02  7.740424E+03 -2.727890E+03  3.355181E+03 -1.471636E-02
        43   4  1.146296E+06  1.875356E+04  2.319834E+04  1.650848E-08  1.508097E+04  1.334018E-09
        43   5  1.143376E+06 -1.302375E+03  1.101833E+04 -1.842976E-08  9.218122E+03  2.149212E-09
        43   6  1.146307E+06 -9.975063E+02  7.740422E+03 -4.905089E-08  3.355181E+03 -3.122900E-09
        43   7  1.146296E+06  1.875367E+04  2.319836E+04 -7.732424E+03  1.508097E+04 -1.875009E-01
        43   8  1.143376E+06 -1.302363E+03  1.101833E+04 -2.502290E+03  9.218122E+03 -3.708852E-02
        43   9  1.146307E+06 -9.974924E+02  7.740424E+03  2.727890E+03  3.355181E+03  1.471635E-02
        43  10  1.146296E+06  1.875361E+04  2.319793E+04  7.732424E+03 -9.770200E-09  5.445954E-10
        43  11  1.143376E+06 -1.302386E+03  1.101817E+04  2.502290E+03 -7.241758E-09  1.697425E-09
        43  12  1.146307E+06 -9.974954E+02  7.740403E+03 -2.727890E+03  1.478940E-08  1.755031E-09
        43  13  1.146296E+06  1.875350E+04  2.319791E+04  1.450532E-08 -8.241143E-09  2.700070E-10
        43  14  1.143376E+06 -1.302398E+03  1.101817E+04  4.196820E-08 -6.052470E-09  9.105206E-10
        43  15  1.146307E+06 -9.975094E+02  7.740401E+03  3.926252E-08 -7.467570E-09  1.156068E-09
        43  16  1.146296E+06  1.875361E+04  2.319793E+04 -7.732424E+03  5.645421E-09 -9.939917E-11
        43  17  1.143376E+06 -1.302386E+03  1.101817E+04 -2.502290E+03  1.258270E-08  9.202564E-11
        43  18  1.146307E+06 -9.974954E+02  7.740403E+03  2.727890E+03 -1.253403E-08  5.112938E-10
        43  19  1.146296E+06  1.875367E+04  2.319836E+04  7.732424E+03 -1.508097E+04 -1.875009E-01
        43  20  1.143376E+06 -1.302363E+03  1.101833E+04  2.502290E+03 -9.218122E+03 -3.708852E-02
        43  21  1.146307E+06 -9.974924E+02  7.740424E+03 -2.727890E+03 -3.355181E+03  1.471636E-02
        43  22  1.146296E+06  1.875356E+04  2.319834E+04 -3.061165E-08 -1.508097E+04 -7.860709E-10
        43  23  1.143376E+06 -1.302375E+03  1.101833E+04  8.512781E-08 -9.218122E+03 -3.741436E-10
        43  24  1.146307E+06 -9.975063E+02  7.740422E+03 -3.509000E-08 -3.355181E+03  5.464426E-09
        43  25  1.146296E+06  1.875367E+04  2.319836E+04 -7.732424E+03 -1.508097E+04  1.875009E-01
        43  26  1.143376E+06 -1.302363E+03  1.101833E+04 -2.502290E+03 -9.218122E+03  3.708852E-02
        43  27  1.146307E+06 -9.974924E+02  7.740424E+03  2.727890E+03 -3.355181E+03 -1.471635E-02
        44   1  1.145220E+06  1.366676E+03  7.074187E+03  6.207375E+02  2.112846E+03  2.108790E-03
        44   2  1.144735E+06 -1.899148E+02  6.338845E+03  1.678840E+02 -1.064829E+03 -2.874404E-04
        44   3  1.145220E+06  4.793424E+02  8.225960E+03 -2.849689E+02 -4.242507E+03  1.943916E-03
        44   4  1.145220E+06  1.366675E+03  7.074187E+03  3.071081E-08  2.112846E+03 -2.828027E-09
        44   5  1.144735E+06 -1.899148E+02  6.338845E+03  2.933521E-08 -1.064829E+03  1.151409E-09
        44   6  1.145220E+06  4.793422E+02  8.225960E+03 -1.408057E-08 -4.242507E+03 -3.869264E-09
        44   7  1.145220E+06  1.366676E+03  7.074187E+03 -6.207375E+02  2.112846E+03 -2.108795E-03
        44   8  1.144735E+06 -1.899148E+02  6.338845E+03 -1.678840E+02 -1.064829E+03  2.874431E-04
        44   9  1.145220E+06  4.793424E+02  8.225960E+03  2.849689E+02 -4.242507E+03 -1.943925E-03
        44  10  1.145220E+06  1.366675E+03  7.074179E+03  6.207375E+02  6.479420E-09 -1.961842E-10
        44  11  1.144735E+06 -1.899151E+02  6.338843E+03  1.678840E+02 -3.987702E-09 -3.656361E-09
        44  12  1.145220E+06  4.793375E+02  8.225926E+03 -2.849689E+02  2.696434E-09 -1.765477E-09
        44  13  1.145220E+06  1.366674E+03  7.074179E+03  5.615004E-08 -3.930435E-09  1.388017E-10
        44  14  1.144735E+06 -1.899151E+02  6.338843E+03  4.207849E-08  6.197329E-10 -2.224400E-09
        44  15  1.145220E+06  4.793374E+02  8.225926E+03 -1.078186E-08 -2.012529E-09 -2.706129E-09
        44  16  1.145220E+06  1.366675E+03  7.074179E+03 -6.207375E+02 -2.317142E-09  6.084607E-10
        44  17  1.144735E+06 -1.899151E+02  6.338843E+03 -1.678840E+02  5.676488E-09 -8.943506E-10
        44  18  1.145220E+06  4.793375E+02  8.225926E+03  2.849689E+02 -3.094358E-09 -3.678962E-09
        44  19  1.145220E+06  1.366676E+03  7.074187E+03  6.207375E+02 -2.112846E+03 -2.108790E-03
        44  20  1.144735E+06 -1.899148E+02  6.338845E+03  1.678840E+02  1.064829E+03  2.874332E-04
        44  21  1.145220E+06  4.793424E+02  8.225960E+03 -2.849689E+02  4.242507E+03 -1.943920E-03
        44  22  1.145220E+06  1.366675E+03  7.074187E+03  2.122259E-08 -2.112846E+03  3.143865E-09
        44  23  1.144735E+06 -1.899148E+02  6.338845E+03  2.896570E-08  1.064829E+03 -5.608012E-09
        44  24  1.145220E+06  4.793422E+02  8.225960E+03 -1.501805E-08  4.242507E+03 -1.513955E-09
        44  25  1.145220E+06  1.366676E+03  7.074187E+03 -6.207375E+02 -2.112846E+03  2.108797E-03
        44  26  1.144735E+06 -1.899148E+02  6.338845E+03 -1.678840E+02  1.064829E+03 -2.874446E-04
        44  27  1.145220E+06  4.793424E+02  8.225960E+03  2.849689E+02  4.242507E+03  1.943917E-03
        45   1  1.145726E+06 -3.528528E+02  9.866812E+03  1.357374E+03 -5.835462E+03 -1.273599E-02
        45   2  1.144099E+06 -6.682152E+02  1.558110E+04 -6.762027E+02 -1.371643E+04  1.491342E-02
        45   3  1.145718E+06  7.904120E+03  2.864146E+04 -2.709742E+03 -2.159735E+04  9.409945E-02
        45   4  1.145726E+06 -3.528562E+02  9.866811E+03 -2.522720E-08 -5.835462E+03 -2.948191E-09
        45   5  1.144099E+06 -6.682161E+02  1.558110E+04  2.300570E-08 -1.371643E+04  3.050556E-09
        45   6  1.145718E+06  7.904106E+03  2.864146E+04 -2.140746E-08 -2.159735E+04 -3.678380E-09
        45   7  1.145726E+06 -3.528528E+02  9.866812E+03 -1.357374E+03 -5.835462E+03  1.273598E-02
        45   8  1.144099E+06 -6.682152E+02  1.558110E+04  6.762027E+02 -1.371643E+04 -1.491342E-02
        45   9  1.145718E+06  7.904120E+03  2.864146E+04  2.709742E+03 -2.159735E+04 -9.409946E-02
        45  10  1.145726E+06 -3.528619E+02  9.866748E+03  1.357374E+03  8.286144E-09  1.636743E-09
        45  11  1.144099E+06 -6.682656E+02  1.558075E+04 -6.762027E+02 -6.477003E-09  2.824931E-09
        45  12  1.145717E+06  7.903995E+03  2.864059E+04 -2.709742E+03  1.539001E-09 -4.113983E-09
        45  13  1.145726E+06 -3.528654E+02  9.866747E+03 -1.357981E-08 -3.617676E-10 -1.583601E-10
        45  14  1.144099E+06 -6.682665E+02  1.558075E+04 -2.022858E-08  6.464903E-09  2.765405E-09
        45  15  1.145717E+06  7.903981E+03  2.864059E+04 -4.842037E-08 -9.478217E-09 -2.195890E-09
        45  16  1.145726E+06 -3.528619E+02  9.866748E+03 -1.357374E+03 -4.640987E-09 -1.899215E-09
        45  17  1.144099E+06 -6.682656E+02  1.558075E+04  6.762027E+02 -5.642009E-09  2.809806E-09
        45  18  1.145717E+06  7.903995E+03  2.864059E+04  2.709742E+03 -2.825688E-10 -2.427233E-10
        45  19  1.145726E+06 -3.528528E+02  9.866812E+03  1.357374E+03  5.835462E+03  1.273599E-02
        45  20  1.144099E+06 -6.682152E+02  1.558110E+04 -6.762027E+02  1.371643E+04 -1.491342E-02
        45  21  1.145718E+06  7.904120E+03  2.864146E+04 -2.709742E+03  2.159735E+04 -9.409946E-02
        45  22  1.145726E+06 -3.528562E+02  9.866811E+03  2.390469E-08  5.835462E+03  2.624822E-09
        45  23  1.144099E+06 -6.682161E+02  1.558110E+04 -1.173938E-08  1.371643E+04  2.501341E-09
        45  24  1.145718E+06  7.904106E+03  2.864146E+04 -8.940448E-08  2.159735E+04 -6.923772E-10
        45  25  1.145726E+06 -3.528528E+02  9.866812E+03 -1.357374E+03  5.835462E+03 -1.273598E-02
        45  26  1.144099E+06 -6.682152E+02  1.558110E+04  6.762027E+02  1.371643E+04  1.491342E-02
        45  27  1.145718E+06  7.904120E+03  2.864146E+04  2.709742E+03  2.159735E+04  9.409946E-02
        46   1  1.152272E+06 -5.798993E+03  3.539342E+04  1.560272E+04 -2.684920E+04 -6.735748E-01
        46   2  1.135900E+06 -7.293902E+03  5.831526E+04 -1.391415E+04 -5.801473E+04  1.297958E+00
        46   3  1.152213E+06  1.057929E+05  1.301478E+05 -4.343239E+04 -8.918049E+04  6.227930E+00
        46   4  1.152272E+06 -5.799450E+03  3.539335E+04  1.024190E-08 -2.684920E+04 -3.493926E-09
        46   5  1.135900E+06 -7.294265E+03  5.831520E+04  2.211517E-08 -5.801473E+04  4.942970E-09
        46   6  1.152210E+06  1.057893E+05  1.301473E+05 -3.928039E-08 -8.918049E+04  2.857688E-09
        46   7  1.152272E+06 -5.798993E+03  3.539342E+04 -1.560272E+04 -2.684920E+04  6.735747E-01
        46   8  1.135900E+06 -7.293902E+03  5.831526E+04  1.391415E+04 -5.801473E+04 -1.297958E+00
        46   9  1.152213E+06  1.057929E+05  1.301478E+05  4.343239E+04 -8.918049E+04 -6.227930E+00
        46  10  1.152271E+06 -5.799186E+03  3.539206E+04  1.560272E+04 -6.927002E-09 -4.205182E-09
        46  11  1.135896E+06 -7.294803E+03  5.830894E+04 -1.391415E+04  3.700350E-09  2.649872E-09
        46  12  1.152204E+06  1.057907E+05  1.301329E+05 -4.343239E+04  8.916589E-09  1.763004E-09
        46  13  1.152271E+06 -5.799643E+03  3.539200E+04  2.536985E-09  4.310027E-09 -2.922004E-09
        46  14  1.135896E+06 -7.295167E+03  5.830889E+04  2.237857E-08  4.106710E-09  1.492714E-09
        46  15  1.152202E+06  1.057872E+05  1.301324E+05 -2.674274E-08 -8.117264E-11  1.051698E-09
        46  16  1.152271E+06 -5.799186E+03  3.539206E+04 -1.560272E+04  4.975322E-09 -1.550598E-09
        46  17  1.135896E+06 -7.294803E+03  5.830894E+04  1.391415E+04 -8.745572E-10  3.819982E-10
        46  18  1.152204E+06  1.057907E+05  1.301329E+05  4.343239E+04  1.133935E-09  3.927525E-10
        46  19  1.152272E+06 -5.798993E+03  3.539342E+04  1.560272E+04  2.684920E+04  6.735747E-01
        46  20  1.135900E+06 -7.293902E+03  5.831526E+04 -1.391415E+04  5.801473E+04 -1.297958E+00
        46  21  1.152213E+06  1.057929E+05  1.301478E+05 -4.343239E+04  8.918049E+04 -6.227930E+00
        46  22  1.152272E+06 -5.799450E+03  3.539335E+04  3.412773E-09  2.684920E+04 -2.338764E-09
        46  23  1.135900E+06 -7.294265E+03  5.831520E+04 -1.184575E-08  5.801473E+04 -1.948758E-09
        46  24  1.152210E+06  1.057893E+05  1.301473E+05 -4.866773E-08  8.918049E+04 -7.693620E-10
        46  25  1.152272E+06 -5.798993E+03  3.539342E+04 -1.560272E+04  2.684920E+04 -6.735747E-01
        46  26  1.135900E+06 -7.293902E+03  5.831526E+04  1.391415E+04  5.801473E+04  1.297958E+00
        46  27  1.152213E+06  1.057929E+05  1.301478E+05  4.343239E+04  8.918049E+04  6.227930E+00
        47   1 -2.124023E+06 -7.770769E+06 -2.128475E+06  9.373360E+05 -8.795127E+04 -3.253831E+05
        47   2 -1.548783E+06 -6.202926E+06 -1.554586E+06  4.855864E+05 -2.525415E+05 -1.264960E+05
        47   3 -1.158109E+06 -4.690500E+06 -1.154450E+06  8.355002E+05 -2.075715E+05  7.228614E+04
        47   4 -1.623853E+05  7.244350E+04 -1.993351E+05  8.862066E+05 -8.738139E+04 -1.338191E+05
        47   5  6.637752E+03  9.036727E+04 -9.347327E+04  4.852380E+05 -2.521554E+05 -8.359707E+04
        47   6  1.840259E+04  7.755839E+04 -5.651421E+04  8.855813E+05 -2.082794E+05 -3.399157E+04
        47   7  1.794698E+06  7.972179E+06  1.725414E+06  8.343515E+05 -8.684857E+04  6.019238E+04
        47   8  1.559263E+06  6.420474E+06  1.364985E+06  4.848291E+05 -2.517718E+05 -4.025964E+04
        47   9  1.193333E+06  4.866780E+06  1.039958E+06  9.359978E+05 -2.090015E+05 -1.410828E+05
        47  10 -2.124060E+06 -7.770886E+06 -2.128691E+06  9.373129E+05 -1.428847E-09  6.994492E-09
        47  11 -1.548856E+06 -6.202960E+06 -1.554736E+06  4.855606E+05  6.798528E-09  8.555751E-09
        47  12 -1.158156E+06 -4.690517E+06 -1.154541E+06  8.355123E+05  1.021905E-08 -1.495447E-08
        47  13 -1.623982E+05  7.242224E+04 -1.993830E+05  8.861972E+05 -1.006228E-08  1.092984E-09
        47  14  6.567617E+03  9.034272E+04 -9.360581E+04  4.852210E+05 -1.644638E-09  4.285479E-09
        47  15  1.835570E+04  7.754552E+04 -5.659785E+04  8.855756E+05 -6.272510E-09  1.763385E-08
        47  16  1.794689E+06  7.972173E+06  1.725393E+06  8.343557E+05 -3.654048E-09 -7.007113E-09
        47  17  1.559195E+06  6.420455E+06  1.364863E+06  4.848210E+05 -1.253597E-08 -6.491814E-09
        47  18  1.193281E+06  4.866747E+06  1.039839E+06  9.359742E+05 -4.564507E-09  7.068075E-09
        47  19 -2.124023E+06 -7.770769E+06 -2.128475E+06  9.373360E+05  8.795127E+04  3.253831E+05
        47  20 -1.548783E+06 -6.202926E+06 -1.554586E+06  4.855864E+05  2.525415E+05  1.264960E+05
        47  21 -1.158109E+06 -4.690500E+06 -1.154450E+06  8.355002E+05  2.075715E+05 -7.228614E+04
        47  22 -1.623853E+05  7.244350E+04 -1.993351E+05  8.862066E+05  8.738139E+04  1.338191E+05
        47  23  6.637752E+03  9.036727E+04 -9.347327E+04  4.852380E+05  2.521554E+05  8.359707E+04
        47  24  1.840259E+04  7.755839E+04 -5.651421E+04  8.855813E+05  2.082794E+05  3.399157E+04
        47  25  1.794698E+06  7.972179E+06  1.725414E+06  8.343515E+05  8.684857E+04 -6.019238E+04
        47  26  1.559263E+06  6.420474E+06  1.364985E+06  4.848291E+05  2.517718E+05  4.025964E+04
        47  27  1.193333E+06  4.866780E+06  1.039958E+06  9.359978E+05  2.090015E+05  1.410828E+05
        48   1 -8.126555E+05 -3.209347E+06 -8.086101E+05  8.725191E+05 -1.383929E+05  1.782099E+04
        48   2 -4.222239E+05 -1.659802E+06 -4.362546E+05  4.726400E+05 -7.486654E+04  3.705796E+04
        48   3 -4.085867E+04 -1.270537E+05 -8.220938E+04  8.807296E+05 -7.107707E+03  5.611691E+04
        48   4 -8.557215E+02  8.321973E+04 -4.881798E+04  8.872687E+05 -1.387263E+05 -2.620649E+04
        48   5  9.485801E+03  9.315369E+04 -3.282534E+04  4.833114E+05 -7.528204E+04 -9.988029E+03
        48   6  1.148850E+04  8.465026E+04 -3.286139E+04  8.871784E+05 -7.618682E+03  6.004963E+03
        48   7  8.101848E+05  3.385849E+06  7.102602E+05  9.020690E+05 -1.390609E+05 -7.046628E+04
        48   8  4.409820E+05  1.848962E+06  3.704087E+05  4.940058E+05 -7.569852E+04 -5.716604E+04
        48   9  6.383396E+04  2.964010E+05  1.649302E+04  8.936293E+05 -8.130600E+03 -4.412396E+04
        48  10 -8.126761E+05 -3.209352E+06 -8.086467E+05  8.725211E+05  5.283227E-09 -1.944660E-08
        48  11 -4.222303E+05 -1.659805E+06 -4.362678E+05  4.726423E+05 -1.553438E-10  1.476889E-08
        48  12 -4.085957E+04 -1.270571E+05 -8.221539E+04  8.807299E+05 -1.398729E-09  7.275758E-09
        48  13 -8.765653E+02  8.321383E+04 -4.885541E+04  8.872658E+05  3.918470E-09  7.717694E-09
        48  14  9.479689E+03  9.315206E+04 -3.283617E+04  4.833108E+05 -3.819102E-09  8.990325E-09
        48  15  1.148842E+04  8.465021E+04 -3.286157E+04  8.871784E+05  5.000267E-10  2.482845E-08
        48  16  8.101627E+05  3.385838E+06  7.102147E+05  9.020612E+05 -8.837844E-10  1.936228E-08
        48  17  4.409750E+05  1.848957E+06  3.703919E+05  4.940023E+05 -5.365184E-09 -9.886637E-09
        48  18  6.383337E+04  2.963989E+05  1.648924E+04  8.936290E+05  5.580167E-09 -1.798770E-08
        48  19 -8.126555E+05 -3.209347E+06 -8.086101E+05  8.725191E+05  1.383929E+05 -1.782099E+04
        48  20 -4.222239E+05 -1.659802E+06 -4.362546E+05  4.726400E+05  7.486654E+04 -3.705796E+04
        48  21 -4.085867E+04 -1.270537E+05 -8.220938E+04  8.807296E+05  7.107707E+03 -5.611691E+04
        48  22 -8.557215E+02  8.321973E+04 -4.881798E+04  8.872687E+05  1.387263E+05  2.620649E+04
        48  23  9.485801E+03  9.315369E+04 -3.282534E+04  4.833114E+05  7.528204E+04  9.988029E+03
        48  24  1.148850E+04  8.465026E+04 -3.286139E+04  8.871784E+05  7.618682E+03 -6.004963E+03
        48  25  8.101848E+05  3.385849E+06  7.102602E+05  9.020690E+05  1.390609E+05  7.046628E+04
        48  26  4.409820E+05  1.848962E+06  3.704087E+05  4.940058E+05  7.569852E+04  5.716604E+04
        48  27  6.383396E+04  2.964010E+05  1.649302E+04  8.936293E+05  8.130600E+03  4.412396E+04
        49   1  3.320804E+05  1.349537E+06  2.576007E+05  9.076814E+05  5.328125E+04  9.596116E+04
        49   2  7.022651E+05  2.903868E+06  6.014445E+05  4.911692E+05  1.091263E+05  3.253172E+04
        49   3  1.015545E+06  4.444130E+06  9.695263E+05  8.785902E+05  4.218592E+04 -3.009299E+04
        49   4  1.979515E+04  8.131359E+04 -3.475329E+04  8.861973E+05  5.242915E+04  1.085188E+04
        49   5  1.182802E+04  9.604144E+04 -4.823312E+04  4.844251E+05  1.091905E+05  3.601456E+04
        49   6 -6.843307E+04  7.903179E+04 -9.887244E+04  8.868574E+05  4.291479E+04  6.213771E+04
        49   7 -2.925977E+05 -1.185409E+06 -3.271869E+05  8.647529E+05  5.158195E+04 -7.408519E+04
        49   8 -6.791621E+05 -2.704523E+06 -6.984378E+05  4.776936E+05  1.092549E+05  3.948153E+04
        49   9 -1.153813E+06 -4.268770E+06 -1.168632E+06  8.950221E+05  4.364906E+04  1.537235E+05
        49  10  3.320749E+05  1.349526E+06  2.575781E+05  9.076773E+05  5.408499E-09 -2.405143E-09
        49  11  7.022521E+05  2.903864E+06  6.014202E+05  4.911663E+05  1.307165E-08  7.079690E-09
        49  12  1.015543E+06  4.444128E+06  9.695212E+05  8.785912E+05  1.726245E-10 -1.283908E-08
        49  13  1.979217E+04  8.131272E+04 -3.475867E+04  8.861969E+05 -4.994654E-09  9.220878E-09
        49  14  1.181488E+04  9.603685E+04 -4.825795E+04  4.844219E+05  1.047526E-08  8.424541E-09
        49  15 -6.843608E+04  7.902716E+04 -9.888314E+04  8.868552E+05  4.444739E-09  1.778091E-08
        49  16 -2.926020E+05 -1.185415E+06 -3.272022E+05  8.647560E+05 -6.362296E-09  2.270377E-09
        49  17 -6.791754E+05 -2.704528E+06 -6.984632E+05  4.776901E+05  6.435225E-09 -2.784694E-09
        49  18 -1.153822E+06 -4.268796E+06 -1.168681E+06  8.950167E+05 -2.455006E-09  5.084321E-09
        49  19  3.320804E+05  1.349537E+06  2.576007E+05  9.076814E+05 -5.328125E+04 -9.596116E+04
        49  20  7.022651E+05  2.903868E+06  6.014445E+05  4.911692E+05 -1.091263E+05 -3.253172E+04
        49  21  1.015545E+06  4.444130E+06  9.695263E+05  8.785902E+05 -4.218592E+04  3.009299E+04
        49  22  1.979515E+04  8.131359E+04 -3.475329E+04  8.861973E+05 -5.242915E+04 -1.085188E+04
        49  23  1.182802E+04  9.604144E+04 -4.823312E+04  4.844251E+05 -1.091905E+05 -3.601456E+04
        49  24 -6.843307E+04  7.903179E+04 -9.887244E+04  8.868574E+05 -4.291479E+04 -6.213771E+04
        49  25 -2.925977E+05 -1.185409E+06 -3.271869E+05  8.647529E+05 -5.158195E+04  7.408519E+04
        49  26 -6.791621E+05 -2.704523E+06 -6.984378E+05  4.776936E+05 -1.092549E+05 -3.948153E+04
        49  27 -1.153813E+06 -4.268770E+06 -1.168632E+06  8.950221E+05 -4.364906E+04 -1.537235E+05
        50   1  4.381225E+05 -1.401140E+04 -1.716275E+04 -5.729682E+03 -1.221275E+04  1.126353E-01
        50   2  4.402703E+05  9.620588E+02 -7.338840E+03 -1.821503E+03 -8.275835E+03  2.426450E-02
        50   3  4.381191E+05  7.853492E+02 -3.864160E+03  2.086692E+03 -4.338919E+03 -1.457375E-02
        50   4  4.381224E+05 -1.401146E+04 -1.716276E+04 -3.506513E-08 -1.221275E+04  6.112382E-10
        50   5  4.402703E+05  9.620525E+02 -7.338841E+03 -5.350328E-08 -8.275835E+03 -4.894302E-11
        50   6  4.381191E+05  7.853410E+02 -3.864161E+03 -4.609152E-08 -4.338919E+03 -4.511142E-09
        50   7  4.381225E+05 -1.401140E+04 -1.716275E+04  5.729682E+03 -1.221275E+04 -1.126353E-01
        50   8  4.402703E+05  9.620588E+02 -7.338840E+03  1.821503E+03 -8.275835E+03 -2.426450E-02
        50   9  4.381191E+05  7.853492E+02 -3.864160E+03 -2.086692E+03 -4.338919E+03  1.457374E-02
        50  10  4.381223E+05 -1.401144E+04 -1.716303E+04 -5.729682E+03 -1.989533E-09 -7.587864E-11
        50  11  4.402703E+05  9.620404E+02 -7.338969E+03 -1.821503E+03 -1.275296E-08 -1.228848E-09
        50  12  4.381191E+05  7.853442E+02 -3.864195E+03  2.086692E+03 -3.375278E-09 -3.768913E-09
        50  13  4.381223E+05 -1.401150E+04 -1.716304E+04 -2.650256E-08 -3.997925E-09 -7.494173E-11
        50  14  4.402702E+05  9.620342E+02 -7.338970E+03  2.382617E-08 -6.143835E-09 -1.177724E-09
        50  15  4.381191E+05  7.853360E+02 -3.864196E+03 -2.063986E-08  3.821479E-09 -3.556115E-09
        50  16  4.381223E+05 -1.401144E+04 -1.716303E+04  5.729682E+03  4.236247E-09 -5.323326E-11
        50  17  4.402703E+05  9.620404E+02 -7.338969E+03  1.821503E+03  9.601267E-09 -1.119487E-09
        50  18  4.381191E+05  7.853442E+02 -3.864195E+03 -2.086692E+03 -4.531755E-09 -3.404842E-09
        50  19  4.381225E+05 -1.401140E+04 -1.716275E+04 -5.729682E+03  1.221275E+04 -1.126353E-01
        50  20  4.402703E+05  9.620588E+02 -7.338840E+03 -1.821503E+03  8.275835E+03 -2.426450E-02
        50  21  4.381191E+05  7.853492E+02 -3.864160E+03  2.086692E+03  4.338919E+03  1.457374E-02
        50  22  4.381224E+05 -1.401146E+04 -1.716276E+04  2.514111E-08  1.221275E+04 -7.514441E-10
        50  23  4.402703E+05  9.620525E+02 -7.338841E+03  6.668776E-08  8.275835E+03 -2.304924E-09
        50  24  4.381191E+05  7.853410E+02 -3.864161E+03  3.283128E-08  4.338919E+03 -2.595801E-09
        50  25  4.381225E+05 -1.401140E+04 -1.716275E+04  5.729682E+03  1.221275E+04  1.126353E-01
        50  26  4.402703E+05  9.620588E+02 -7.338840E+03  1.821503E+03  8.275835E+03  2.426450E-02
        50  27  4.381191E+05  7.853492E+02 -3.864160E+03 -2.086692E+03  4.338919E+03 -1.457375E-02
        51   1  4.390286E+05 -1.066615E+03 -2.672877E+03 -2.801454E+02 -3.818588E+03  1.721932E-03
        51   2  4.391327E+05  4.849149E+01 -5.772850E+01 -6.273154E+01 -3.773341E+03  3.810174E-04
        51   3  4.390279E+05  3.509543E+02  2.324842E+03  1.546788E+02 -3.728094E+03 -9.282163E-04
        51   4  4.390286E+05 -1.066615E+03 -2.672877E+03  7.416929E-09 -3.818588E+03 -3.866668E-09
        51   5  4.391327E+05  4.849148E+01 -5.772851E+01 -6.407391E-09 -3.773341E+03  1.011911E-09
        51   6  4.390279E+05  3.509542E+02  2.324842E+03 -1.064032E-07 -3.728094E+03 -7.657419E-10
        51   7  4.390286E+05 -1.066615E+03 -2.672877E+03  2.801454E+02 -3.818588E+03 -1.721940E-03
        51   8  4.391327E+05  4.849149E+01 -5.772850E+01  6.273154E+01 -3.773341E+03 -3.810152E-04
        51   9  4.390279E+05  3.509543E+02  2.324842E+03 -1.546788E+02 -3.728094E+03  9.282148E-04
        51  10  4.390286E+05 -1.066619E+03 -2.672904E+03 -2.801454E+02 -5.523275E-09 -3.145559E-09
        51  11  4.391327E+05  4.848767E+01 -5.775524E+01 -6.273154E+01  8.219178E-09 -2.340707E-10
        51  12  4.390278E+05  3.509506E+02  2.324816E+03  1.546788E+02  6.383017E-09 -1.141169E-09
        51  13  4.390286E+05 -1.066619E+03 -2.672904E+03 -1.589100E-08 -4.208415E-12 -3.497500E-09
        51  14  4.391327E+05  4.848766E+01 -5.775524E+01 -7.314121E-09 -1.586872E-10 -1.079465E-09
        51  15  4.390278E+05  3.509505E+02  2.324816E+03 -4.613246E-08 -2.225259E-09 -2.309817E-10
        51  16  4.390286E+05 -1.066619E+03 -2.672904E+03  2.801454E+02 -3.219663E-09 -3.798725E-09
        51  17  4.391327E+05  4.848767E+01 -5.775524E+01  6.273154E+01 -6.540911E-09 -1.924799E-09
        51  18  4.390278E+05  3.509506E+02  2.324816E+03 -1.546788E+02 -8.466424E-09  7.089167E-10
        51  19  4.390286E+05 -1.066615E+03 -2.672877E+03 -2.801454E+02  3.818588E+03 -1.721939E-03
        51  20  4.391327E+05  4.849149E+01 -5.772850E+01 -6.273154E+01  3.773341E+03 -3.810180E-04
        51  21  4.390279E+05  3.509543E+02  2.324842E+03  1.546788E+02  3.728094E+03  9.282139E-04
        51  22  4.390286E+05 -1.066615E+03 -2.672877E+03 -1.335065E-08  3.818588E+03 -3.130511E-09
        51  23  4.391327E+05  4.849148E+01 -5.772851E+01 -5.130429E-08  3.773341E+03 -3.191478E-09
        51  24  4.390279E+05  3.509542E+02  2.324842E+03 -2.462594E-08  3.728094E+03  3.105003E-10
        51  25  4.390286E+05 -1.066615E+03 -2.672877E+03  2.801454E+02  3.818588E+03  1.721932E-03
        51  26  4.391327E+05  4.849149E+01 -5.772850E+01  6.273154E+01  3.773341E+03  3.810116E-04
        51  27  4.390279E+05  3.509543E+02  2.324842E+03 -1.546788E+02  3.728094E+03 -9.282133E-04
        52   1  4.394293E+05 -3.092014E+02  3.625051E+03  6.949962E+02 -4.251655E+03 -4.756323E-03
        52   2  4.386301E+05 -3.311624E+02  7.266782E+03 -3.404294E+02 -7.932974E+03  4.347047E-03
        52   3  4.394275E+05  4.118539E+03  1.442191E+04 -1.375868E+03 -1.161437E+04  2.572192E-02
        52   4  4.394293E+05 -3.092023E+02  3.625051E+03  9.156726E-09 -4.251655E+03 -2.758963E-09
        52   5  4.386301E+05 -3.311626E+02  7.266782E+03  3.146442E-08 -7.932974E+03 -7.697581E-10
        52   6  4.394275E+05  4.118536E+03  1.442191E+04  9.609037E-09 -1.161437E+04  5.557369E-09
        52   7  4.394293E+05 -3.092014E+02  3.625051E+03 -6.949962E+02 -4.251655E+03  4.756317E-03
        52   8  4.386301E+05 -3.311624E+02  7.266782E+03  3.404294E+02 -7.932974E+03 -4.347049E-03
        52   9  4.394275E+05  4.118539E+03  1.442191E+04  1.375868E+03 -1.161437E+04 -2.572191E-02
        52  10  4.394293E+05 -3.092062E+02  3.625017E+03  6.949962E+02 -7.769293E-09 -1.109477E-09
        52  11  4.386300E+05 -3.311793E+02  7.266663E+03 -3.404294E+02 -8.219544E-09  1.428138E-09
        52  12  4.394274E+05  4.118503E+03  1.442165E+04 -1.375868E+03 -1.117182E-08  2.130841E-09
        52  13  4.394293E+05 -3.092071E+02  3.625017E+03 -4.678639E-08 -4.308672E-09 -2.852618E-10
        52  14  4.386300E+05 -3.311795E+02  7.266663E+03  4.995397E-08  4.308683E-09  2.942309E-10
        52  15  4.394274E+05  4.118499E+03  1.442165E+04  3.035879E-08  3.314738E-09  1.833242E-09
        52  16  4.394293E+05 -3.092062E+02  3.625017E+03 -6.949962E+02  1.002157E-08  5.050643E-10
        52  17  4.386300E+05 -3.311793E+02  7.266663E+03  3.404294E+02 -1.079982E-09 -8.385466E-10
        52  18  4.394274E+05  4.118503E+03  1.442165E+04  1.375868E+03  6.556524E-09  1.546689E-09
        52  19  4.394293E+05 -3.092014E+02  3.625051E+03  6.949962E+02  4.251655E+03  4.756320E-03
        52  20  4.386301E+05 -3.311624E+02  7.266782E+03 -3.404294E+02  7.932974E+03 -4.347045E-03
        52  21  4.394275E+05  4.118539E+03  1.442191E+04 -1.375868E+03  1.161437E+04 -2.572192E-02
        52  22  4.394293E+05 -3.092023E+02  3.625051E+03 -2.518061E-08  4.251655E+03  2.201990E-09
        52  23  4.386301E+05 -3.311626E+02  7.266782E+03  8.122518E-09  7.932974E+03  1.322750E-09
        52  24  4.394275E+05  4.118536E+03  1.442191E+04  5.758354E-08  1.161437E+04 -1.884675E-09
        52  25  4.394293E+05 -3.092014E+02  3.625051E+03 -6.949962E+02  4.251655E+03 -4.756316E-03
        52  26  4.386301E+05 -3.311624E+02  7.266782E+03  3.404294E+02  7.932974E+03  4.347047E-03
        52  27  4.394275E+05  4.118539E+03  1.442191E+04  1.375868E+03  1.161437E+04  2.572192E-02
        53   1  4.428499E+05 -3.021936E+03  1.805408E+04  8.115539E+03 -1.426962E+04 -1.864054E-01
        53   2  4.343509E+05 -3.794195E+03  3.015044E+04 -7.219365E+03 -3.038699E+04  3.531192E-01
        53   3  4.428382E+05  5.499829E+04  6.762647E+04 -2.255452E+04 -4.650429E+04  1.688334E+00
        53   4  4.428498E+05 -3.022059E+03  1.805406E+04  2.292056E-08 -1.426962E+04  5.653365E-09
        53   5  4.343509E+05 -3.794293E+03  3.015043E+04  4.998677E-08 -3.038699E+04  2.728179E-11
        53   6  4.428377E+05  5.499733E+04  6.762633E+04  1.135409E-08 -4.650429E+04 -4.551650E-10
        53   7  4.428499E+05 -3.021936E+03  1.805408E+04 -8.115539E+03 -1.426962E+04  1.864054E-01
        53   8  4.343509E+05 -3.794195E+03  3.015044E+04  7.219365E+03 -3.038699E+04 -3.531192E-01
        53   9  4.428382E+05  5.499829E+04  6.762647E+04  2.255452E+04 -4.650429E+04 -1.688334E+00
        53  10  4.428497E+05 -3.021990E+03  1.805370E+04  8.115539E+03  2.818506E-09  1.715116E-09
        53  11  4.343499E+05 -3.794443E+03  3.014871E+04 -7.219365E+03  2.626784E-09  8.918058E-10
        53  12  4.428359E+05  5.499771E+04  6.762241E+04 -2.255452E+04  2.781864E-09  1.787075E-10
        53  13  4.428496E+05 -3.022114E+03  1.805368E+04  2.279910E-08 -1.339137E-08  2.194492E-09
        53  14  4.343499E+05 -3.794541E+03  3.014869E+04  3.694108E-08  9.082698E-09  1.229723E-09
        53  15  4.428354E+05  5.499675E+04  6.762227E+04 -4.934152E-09  1.030418E-08  2.805635E-10
        53  16  4.428497E+05 -3.021990E+03  1.805370E+04 -8.115539E+03 -2.751504E-09  2.650758E-09
        53  17  4.343499E+05 -3.794443E+03  3.014871E+04  7.219365E+03  1.837040E-09  1.584186E-09
        53  18  4.428359E+05  5.499771E+04  6.762241E+04  2.255452E+04  3.003474E-11  3.545863E-10
        53  19  4.428499E+05 -3.021936E+03  1.805408E+04  8.115539E+03  1.426962E+04  1.864054E-01
        53  20  4.343509E+05 -3.794195E+03  3.015044E+04 -7.219365E+03  3.038699E+04 -3.531192E-01
        53  21  4.428382E+05  5.499829E+04  6.762647E+04 -2.255452E+04  4.650429E+04 -1.688334E+00
        53  22  4.428498E+05 -3.022059E+03  1.805406E+04  2.266916E-08  1.426962E+04 -1.258261E-09
        53  23  4.343509E+05 -3.794293E+03  3.015043E+04  1.096391E-08  3.038699E+04  2.438539E-09
        53  24  4.428377E+05  5.499733E+04  6.762633E+04 -2.898103E-09  4.650429E+04  1.122774E-09
        53  25  4.428499E+05 -3.021936E+03  1.805408E+04 -8.115539E+03  1.426962E+04 -1.864054E-01
        53  26  4.343509E+05 -3.794195E+03  3.015044E+04  7.219365E+03  3.038699E+04  3.531192E-01
        53  27  4.428382E+05  5.499829E+04  6.762647E+04  2.255452E+04  4.650429E+04  1.688334E+00
        54   1 -2.036593E+06 -7.803844E+06 -2.026147E+06  9.082570E+05 -8.671825E+04 -2.682965E+05
        54   2 -1.532772E+06 -6.249502E+06 -1.498521E+06  4.758875E+05 -2.489572E+05 -9.046246E+04
        54   3 -1.141744E+06 -4.730216E+06 -1.112945E+06  8.436763E+05 -2.038709E+05  8.721838E+04
        54   4 -9.647818E+04 -4.773382E+04 -1.182374E+05  8.837330E+05 -8.617573E+04 -7.882548E+04
        54   5  2.249147E+03 -3.976905E+04 -5.663688E+04  4.836574E+05 -2.485838E+05 -4.828587E+04
        54   6  1.482850E+04 -4.267765E+04 -3.346240E+04  8.833480E+05 -2.045692E+05 -1.835256E+04
        54   7  1.839174E+06  7.763655E+06  1.785375E+06  8.588288E+05 -8.565325E+04  1.130362E+05
        54   8  1.534547E+06  6.205812E+06  1.382662E+06  4.914513E+05 -2.482118E+05 -5.685286E+03
        54   9  1.169870E+06  4.665318E+06  1.044606E+06  9.232710E+05 -2.052781E+05 -1.247184E+05
        54  10 -2.036621E+06 -7.803924E+06 -2.026298E+06  9.082381E+05 -2.152415E-09 -1.236330E-09
        54  11 -1.532841E+06 -6.249528E+06 -1.498653E+06  4.758693E+05 -1.095896E-10 -8.877162E-09
        54  12 -1.141791E+06 -4.730236E+06 -1.113038E+06  8.436907E+05 -8.106248E-10 -4.550034E-09
        54  13 -9.648781E+04 -4.774247E+04 -1.182630E+05  8.837275E+05 -4.301976E-09  1.097316E-09
        54  14  2.182177E+03 -3.978813E+04 -5.675734E+04  4.836478E+05 -6.356467E-09 -4.258787E-09
        54  15  1.478348E+04 -4.268924E+04 -3.354164E+04  8.833449E+05 -1.295403E-08  7.577472E-09
        54  16  1.839163E+06  7.763639E+06  1.785338E+06  8.588365E+05 -2.176535E-09  7.300817E-10
        54  17  1.534481E+06  6.205795E+06  1.382546E+06  4.914502E+05 -1.057803E-08  6.931929E-09
        54  18  1.169821E+06  4.665290E+06  1.044498E+06  9.232505E+05 -3.723324E-09  7.778806E-09
        54  19 -2.036593E+06 -7.803844E+06 -2.026147E+06  9.082570E+05  8.671825E+04  2.682965E+05
        54  20 -1.532772E+06 -6.249502E+06 -1.498521E+06  4.758875E+05  2.489572E+05  9.046246E+04
        54  21 -1.141744E+06 -4.730216E+06 -1.112945E+06  8.436763E+05  2.038709E+05 -8.721838E+04
        54  22 -9.647818E+04 -4.773382E+04 -1.182374E+05  8.837330E+05  8.617573E+04  7.882548E+04
        54  23  2.249147E+03 -3.976905E+04 -5.663688E+04  4.836574E+05  2.485838E+05  4.828587E+04
        54  24  1.482850E+04 -4.267765E+04 -3.346240E+04  8.833480E+05  2.045692E+05  1.835256E+04
        54  25  1.839174E+06  7.763655E+06  1.785375E+06  8.588288E+05  8.565325E+04 -1.130362E+05
        54  26  1.534547E+06  6.205812E+06  1.382662E+06  4.914513E+05  2.482118E+05  5.685286E+03
        54  27  1.169870E+06  4.665318E+06  1.044606E+06  9.232710E+05  2.052781E+05  1.247184E+05
        55   1 -7.886439E+05 -3.254903E+06 -7.713098E+05  8.690993E+05 -1.350134E+05  3.002869E+04
        55   2 -4.040291E+05 -1.708655E+06 -4.064797E+05  4.713275E+05 -7.153363E+04  4.300568E+04
        55   3 -2.144054E+04 -1.764812E+05 -5.407620E+04  8.805200E+05 -4.003837E+03  5.579989E+04
        55   4  3.891548E+03 -4.089072E+04 -2.958781E+04  8.850576E+05 -1.353451E+05 -1.403122E+04
        55   5  8.849301E+03 -3.233291E+04 -2.065214E+04  4.816177E+05 -7.194345E+04 -3.970489E+03
        55   6  1.247270E+04 -3.951972E+04 -2.195853E+04  8.849998E+05 -4.504838E+03  5.875307E+03
        55   7  7.957034E+05  3.182712E+06  7.114541E+05  9.010726E+05 -1.356781E+05 -5.831821E+04
        55   8  4.215324E+05  1.646599E+06  3.649975E+05  4.919292E+05 -7.235424E+04 -5.107274E+04
        55   9  4.638601E+04  9.746440E+04  1.016725E+04  8.894805E+05 -5.006497E+03 -4.406023E+04
        55  10 -7.886637E+05 -3.254909E+06 -7.713458E+05  8.691026E+05  3.589499E-09 -7.562995E-09
        55  11 -4.040351E+05 -1.708659E+06 -4.064928E+05  4.713300E+05  8.112246E-11 -1.328618E-08
        55  12 -2.144139E+04 -1.764845E+05 -5.408209E+04  8.805201E+05  4.023258E-09  4.679231E-09
        55  13  3.871829E+03 -4.089585E+04 -2.962259E+04  8.850561E+05 -5.537815E-09  7.802388E-09
        55  14  8.843739E+03 -3.233432E+04 -2.066190E+04  4.816175E+05 -1.536899E-08 -8.948151E-09
        55  15  1.247267E+04 -3.951976E+04 -2.195863E+04  8.849998E+05  3.162080E-09  1.030567E-08
        55  16  7.956828E+05  3.182703E+06  7.114132E+05  9.010662E+05 -6.789582E-10  3.779889E-09
        55  17  4.215261E+05  1.646595E+06  3.649828E+05  4.919262E+05 -3.970703E-09  8.913071E-09
        55  18  4.638546E+04  9.746231E+04  1.016355E+04  8.894804E+05 -4.830052E-09  7.792165E-11
        55  19 -7.886439E+05 -3.254903E+06 -7.713098E+05  8.690993E+05  1.350134E+05 -3.002869E+04
        55  20 -4.040291E+05 -1.708655E+06 -4.064797E+05  4.713275E+05  7.153363E+04 -4.300568E+04
        55  21 -2.144054E+04 -1.764812E+05 -5.407620E+04  8.805200E+05  4.003837E+03 -5.579989E+04
        55  22  3.891548E+03 -4.089072E+04 -2.958781E+04  8.850576E+05  1.353451E+05  1.403122E+04
        55  23  8.849301E+03 -3.233291E+04 -2.065214E+04  4.816177E+05  7.194345E+04  3.970489E+03
        55  24  1.247270E+04 -3.951972E+04 -2.195853E+04  8.849998E+05  4.504838E+03 -5.875307E+03
        55  25  7.957034E+05  3.182712E+06  7.114541E+05  9.010726E+05  1.356781E+05  5.831821E+04
        55  26  4.215324E+05  1.646599E+06  3.649975E+05  4.919292E+05  7.235424E+04  5.107274E+04
        55  27  4.638601E+04  9.746440E+04  1.016725E+04  8.894805E+05  5.006497E+03  4.406023E+04
        56   1  3.488484E+05  1.299707E+06  2.854248E+05  9.026299E+05  5.649568E+04  9.434015E+04
        56   2  7.180152E+05  2.848026E+06  6.315018E+05  4.923732E+05  1.119439E+05  2.250065E+04
        56   3  1.054021E+06  4.389941E+06  1.013352E+06  8.848344E+05  4.295485E+04 -4.857001E+04
        56   4  1.860254E+04 -4.184030E+04 -2.373633E+04  8.840173E+05  5.565728E+04  8.882492E+03
        56   5  9.977330E+03 -3.089833E+04 -3.463259E+04  4.827644E+05  1.120162E+05  2.684998E+04
        56   6 -4.735053E+04 -4.418756E+04 -7.196380E+04  8.844919E+05  4.367722E+04  4.576313E+04
        56   7 -3.117646E+05 -1.381709E+06 -3.329895E+05  8.654401E+05  5.482296E+04 -7.639224E+04
        56   8 -6.986421E+05 -2.902187E+06 -7.013211E+05  4.731818E+05  1.120885E+05  3.117912E+04
        56   9 -1.150169E+06 -4.460466E+06 -1.158684E+06  8.841070E+05  4.440246E+04  1.394265E+05
        56  10  3.488426E+05  1.299696E+06  2.854021E+05  9.026256E+05  4.372379E-09 -8.193324E-09
        56  11  7.180016E+05  2.848022E+06  6.314773E+05  4.923711E+05 -1.400571E-09 -1.590989E-08
        56  12  1.054018E+06  4.389938E+06  1.013344E+06  8.848361E+05 -3.744658E-09 -1.251152E-09
        56  13  1.859920E+04 -4.184121E+04 -2.374229E+04  8.840169E+05 -1.032749E-08  8.963227E-09
        56  14  9.963666E+03 -3.090247E+04 -3.465752E+04  4.827619E+05 -1.146128E-08 -8.254604E-09
        56  15 -4.735313E+04 -4.419031E+04 -7.197131E+04  8.844903E+05 -5.055396E-09  7.328845E-09
        56  16 -3.117694E+05 -1.381716E+06 -3.330062E+05  8.654435E+05  5.012266E-09  3.464949E-09
        56  17 -6.986558E+05 -2.902191E+06 -7.013466E+05  4.731790E+05  2.921195E-09  1.188287E-08
        56  18 -1.150177E+06 -4.460488E+06 -1.158725E+06  8.841020E+05  1.586436E-09  4.427203E-09
        56  19  3.488484E+05  1.299707E+06  2.854248E+05  9.026299E+05 -5.649568E+04 -9.434015E+04
        56  20  7.180152E+05  2.848026E+06  6.315018E+05  4.923732E+05 -1.119439E+05 -2.250065E+04
        56  21  1.054021E+06  4.389941E+06  1.013352E+06  8.848344E+05 -4.295485E+04  4.857001E+04
        56  22  1.860254E+04 -4.184030E+04 -2.373633E+04  8.840173E+05 -5.565728E+04 -8.882492E+03
        56  23  9.977330E+03 -3.089833E+04 -3.463259E+04  4.827644E+05 -1.120162E+05 -2.684998E+04
        56  24 -4.735053E+04 -4.418756E+04 -7.196380E+04  8.844919E+05 -4.367722E+04 -4.576313E+04
        56  25 -3.117646E+05 -1.381709E+06 -3.329895E+05  8.654401E+05 -5.482296E+04  7.639224E+04
        56  26 -6.986421E+05 -2.902187E+06 -7.013211E+05  4.731818E+05 -1.120885E+05 -3.117912E+04
        56  27 -1.150169E+06 -4.460466E+06 -1.158684E+06  8.841070E+05 -4.440246E+04 -1.394265E+05
        57   1 -1.675064E+06 -6.696176E+06 -1.660196E+06  5.646527E+05 -7.473153E+04 -2.123883E+05
        57   2 -1.358338E+06 -5.726322E+06 -1.311599E+06  2.937591E+05 -2.215322E+05 -7.237419E+04
        57   3 -1.115404E+06 -4.779553E+06 -1.070466E+06  5.199734E+05 -1.993684E+05  6.752607E+04
        57   4 -5.980024E+04 -2.341568E+05 -7.281298E+04  5.495669E+05 -7.439307E+04 -4.728603E+04
        57   5 -4.341605E+02 -2.314759E+05 -3.664686E+04  3.010265E+05 -2.212240E+05 -2.757522E+04
        57   6  6.627928E+03 -2.313661E+05 -2.358667E+04  5.493746E+05 -1.997455E+05 -8.202803E+03
        57   7  1.552370E+06  6.266214E+06  1.511602E+06  5.342903E+05 -7.406520E+04  1.195478E+05
        57   8  1.355339E+06  5.291434E+06  1.236286E+06  3.083264E+05 -2.209165E+05  1.762104E+04
        57   9  1.127215E+06  4.336076E+06  1.021944E+06  5.789561E+05 -2.001283E+05 -8.448508E+04
        57  10 -1.675083E+06 -6.696227E+06 -1.660292E+06  5.646399E+05 -1.376346E-09 -8.937151E-09
        57  11 -1.358392E+06 -5.726340E+06 -1.311701E+06  2.937461E+05 -5.944890E-09  4.441120E-10
        57  12 -1.115447E+06 -4.779569E+06 -1.070550E+06  5.199843E+05  6.787468E-09  2.572029E-09
        57  13 -5.980678E+04 -2.341607E+05 -7.282757E+04  5.495641E+05  7.745464E-10 -8.929584E-10
        57  14 -4.869096E+02 -2.314898E+05 -3.674024E+04  3.010216E+05 -5.768254E-09 -4.346468E-11
        57  15  6.585072E+03 -2.313769E+05 -2.366175E+04  5.493733E+05 -4.470448E-09 -8.134976E-09
        57  16  1.552361E+06  6.266197E+06  1.511565E+06  5.342974E+05 -9.939579E-09  8.617132E-09
        57  17  1.355287E+06  5.291421E+06  1.236194E+06  3.083295E+05 -1.006682E-08 -2.089808E-09
        57  18  1.127170E+06  4.336058E+06  1.021856E+06  5.789425E+05 -2.952621E-09 -5.997360E-09
        57  19 -1.675064E+06 -6.696176E+06 -1.660196E+06  5.646527E+05  7.473153E+04  2.123883E+05
        57  20 -1.358338E+06 -5.726322E+06 -1.311599E+06  2.937591E+05  2.215322E+05  7.237419E+04
        57  21 -1.115404E+06 -4.779553E+06 -1.070466E+06  5.199734E+05  1.993684E+05 -6.752607E+04
        57  22 -5.980024E+04 -2.341568E+05 -7.281298E+04  5.495669E+05  7.439307E+04  4.728603E+04
        57  23 -4.341605E+02 -2.314759E+05 -3.664686E+04  3.010265E+05  2.212240E+05  2.757522E+04
        57  24  6.627928E+03 -2.313661E+05 -2.358667E+04  5.493746E+05  1.997455E+05  8.202803E+03
        57  25  1.552370E+06  6.266214E+06  1.511602E+06  5.342903E+05  7.406520E+04 -1.195478E+05
        57  26  1.355339E+06  5.291434E+06  1.236286E+06  3.083264E+05  2.209165E+05 -1.762104E+04
        57  27  1.127215E+06  4.336076E+06  1.021944E+06  5.789561E+05  2.001283E+05  8.448508E+04
        58   1 -8.947516E+05 -3.859041E+06 -8.602373E+05  5.345386E+05 -1.520461E+05  1.978812E+04
        58   2 -6.535543E+05 -2.894773E+06 -6.347078E+05  2.831177E+05 -1.143018E+05  3.430313E+04
        58   3 -4.174294E+05 -1.938301E+06 -4.212264E+05  5.356551E+05 -7.008841E+04  4.860920E+04
        58   4  4.146348E+02 -2.306798E+05 -2.222965E+04  5.509839E+05 -1.521657E+05 -4.892030E+03
        58   5  4.277515E+03 -2.260853E+05 -1.996626E+04  2.990651E+05 -1.145099E+05  5.011849E+03
        58   6  3.968757E+03 -2.293132E+05 -2.645986E+04  5.509724E+05 -7.040062E+04  1.468471E+04
        58   7  8.946567E+05  3.409907E+06  8.149030E+05  5.674992E+05 -1.522863E+05 -2.971592E+04
        58   8  6.616112E+05  2.449215E+06  5.943060E+05  3.150668E+05 -1.147190E+05 -2.440483E+04
        58   9  4.251629E+05  1.482384E+06  3.681163E+05  5.663248E+05 -7.071403E+04 -1.933272E+04
        58  10 -8.947766E+05 -3.859048E+06 -8.602815E+05  5.345410E+05  7.632626E-09 -2.007090E-09
        58  11 -6.535687E+05 -2.894778E+06 -6.347346E+05  2.831208E+05  1.151542E-08  5.562428E-09
        58  12 -4.174353E+05 -1.938305E+06 -4.212401E+05  5.356579E+05 -3.879889E-09 -1.202386E-08
        58  13  3.897678E+02 -2.306860E+05 -2.227320E+04  5.509833E+05  1.669681E-09 -7.033293E-09
        58  14  4.263428E+03 -2.260889E+05 -1.999095E+04  2.990655E+05 -5.008798E-09 -1.082801E-10
        58  15  3.963376E+03 -2.293148E+05 -2.646958E+04  5.509733E+05 -4.495028E-09 -1.289186E-08
        58  16  8.946315E+05  3.409900E+06  8.148578E+05  5.674955E+05  1.118288E-09 -1.497913E-09
        58  17  6.615970E+05  2.449211E+06  5.942802E+05  3.150646E+05  1.972603E-09 -9.870347E-09
        58  18  4.251574E+05  1.482382E+06  3.681062E+05  5.663237E+05  7.137192E-09  6.722113E-09
        58  19 -8.947516E+05 -3.859041E+06 -8.602373E+05  5.345386E+05  1.520461E+05 -1.978812E+04
        58  20 -6.535543E+05 -2.894773E+06 -6.347078E+05  2.831177E+05  1.143018E+05 -3.430313E+04
        58  21 -4.174294E+05 -1.938301E+06 -4.212264E+05  5.356551E+05  7.008841E+04 -4.860920E+04
        58  22  4.146348E+02 -2.306798E+05 -2.222965E+04  5.509839E+05  1.521657E+05  4.892030E+03
        58  23  4.277515E+03 -2.260853E+05 -1.996626E+04  2.990651E+05  1.145099E+05 -5.011849E+03
        58  24  3.968757E+03 -2.293132E+05 -2.645986E+04  5.509724E+05  7.040062E+04 -1.468471E+04
        58  25  8.946567E+05  3.409907E+06  8.149030E+05  5.674992E+05  1.522863E+05  2.971592E+04
        58  26  6.616112E+05  2.449215E+06  5.943060E+05  3.150668E+05  1.147190E+05  2.440483E+04
        58  27  4.251629E+05  1.482384E+06  3.681163E+05  5.663248E+05  7.071403E+04  1.933272E+04
        59   1 -1.791060E+05 -1.022400E+06 -2.105631E+05  5.576683E+05 -3.674515E+04  6.239122E+04
        59   2  5.423778E+04 -4.419546E+04 -6.202776E+03  2.895079E+05  4.300922E+03  5.989348E+04
        59   3  2.094380E+05  9.045512E+05  1.776591E+05  5.248743E+05  6.983903E+03  5.772492E+04
        59   4  1.418943E+04 -2.348139E+05 -3.108372E+04  5.506684E+05 -3.717280E+04  1.904502E+04
        59   5  1.155561E+04 -2.172908E+05 -4.769242E+04  2.992946E+05  4.150117E+03  4.412788E+04
        59   6 -7.397783E+04 -2.349197E+05 -1.039476E+05  5.514861E+05  7.103350E+03  6.954302E+04
        59   7  2.074433E+05  5.533525E+05  1.483625E+05  5.436579E+05 -3.759918E+04 -2.435576E+04
        59   8 -3.112819E+04 -3.903580E+05 -8.918319E+04  3.090784E+05  3.998792E+03  2.836667E+04
        59   9 -3.574871E+05 -1.373209E+06 -3.856495E+05  5.780457E+05  7.223929E+03  8.133939E+04
        59  10 -1.791085E+05 -1.022404E+06 -2.105730E+05  5.576701E+05 -4.731663E-09 -2.821790E-08
        59  11  5.423680E+04 -4.419931E+04 -6.209552E+03  2.895077E+05  5.838989E-09 -2.941530E-09
        59  12  2.094371E+05  9.045477E+05  1.776528E+05  5.248739E+05 -3.034036E-09  1.505038E-09
        59  13  1.418785E+04 -2.348147E+05 -3.108700E+04  5.506689E+05 -6.431094E-09 -9.630601E-09
        59  14  1.155507E+04 -2.172929E+05 -4.769612E+04  2.992944E+05 -1.480162E-09  5.786149E-11
        59  15 -7.397919E+04 -2.349249E+05 -1.039568E+05  5.514857E+05  3.246469E-09 -1.316573E-08
        59  16  2.074416E+05  5.533515E+05  1.483587E+05  5.436571E+05  5.479137E-09  2.346763E-08
        59  17 -3.112842E+04 -3.903588E+05 -8.918473E+04  3.090783E+05  1.333659E-09 -1.729090E-09
        59  18 -3.574889E+05 -1.373216E+06 -3.856621E+05  5.780452E+05 -5.590397E-10 -6.709372E-09
        59  19 -1.791060E+05 -1.022400E+06 -2.105631E+05  5.576683E+05  3.674515E+04 -6.239122E+04
        59  20  5.423778E+04 -4.419546E+04 -6.202776E+03  2.895079E+05 -4.300922E+03 -5.989348E+04
        59  21  2.094380E+05  9.045512E+05  1.776591E+05  5.248743E+05 -6.983903E+03 -5.772492E+04
        59  22  1.418943E+04 -2.348139E+05 -3.108372E+04  5.506684E+05  3.717280E+04 -1.904502E+04
        59  23  1.155561E+04 -2.172908E+05 -4.769242E+04  2.992946E+05 -4.150117E+03 -4.412788E+04
        59  24 -7.397783E+04 -2.349197E+05 -1.039476E+05  5.514861E+05 -7.103350E+03 -6.954302E+04
        59  25  2.074433E+05  5.533525E+05  1.483625E+05  5.436579E+05  3.759918E+04  2.435576E+04
        59  26 -3.112819E+04 -3.903580E+05 -8.918319E+04  3.090784E+05 -3.998792E+03 -2.836667E+04
        59  27 -3.574871E+05 -1.373209E+06 -3.856495E+05  5.780457E+05 -7.223929E+03 -8.133939E+04
        60   1  1.342122E+07  3.034879E+06  3.011156E+06  1.100052E+06  3.022704E+05 -1.425877E+05
        60   2  1.126243E+07  2.501597E+06  2.362743E+06  6.037673E+05  7.102425E+04 -4.118588E+05
        60   3  9.224892E+06  2.011369E+06  1.887127E+06  1.184032E+06 -1.567884E+05 -3.591589E+05
        60   4  9.424330E+05 -4.637598E+04 -1.698116E+04  1.187578E+06 -1.361146E+04 -1.399297E+05
        60   5  9.097047E+05 -2.974972E+04 -1.404513E+04  6.487209E+05 -8.686244E+03 -4.119221E+05
        60   6  9.536689E+05 -1.034587E+04  7.592297E+01  1.187624E+06 -1.085277E+03 -3.595369E+05
        60   7 -1.139608E+07 -3.138933E+06 -3.055986E+06  1.273556E+06 -3.232616E+05 -1.373379E+05
        60   8 -9.345047E+06 -2.568527E+06 -2.397884E+06  6.930052E+05 -8.709562E+04 -4.119996E+05
        60   9 -7.254746E+06 -2.036771E+06 -1.891352E+06  1.191117E+06  1.525844E+05 -3.599152E+05
        60  10  1.342112E+07  3.034833E+06  3.010950E+06  1.100086E+06  7.152521E-09 -6.227065E-10
        60  11  1.126238E+07  2.501414E+06  2.362414E+06  6.037907E+05  9.139858E-09 -2.145732E-09
        60  12  9.224831E+06  2.011224E+06  1.886840E+06  1.183987E+06  3.654206E-10 -3.153298E-09
        60  13  9.424275E+05 -4.639706E+04 -1.701830E+04  1.187577E+06  4.298569E-09 -8.603144E-10
        60  14  9.096590E+05 -2.993203E+04 -1.436426E+04  6.487181E+05 -6.938335E-09 -2.975385E-09
        60  15  9.536341E+05 -1.048474E+04 -1.671071E+02  1.187624E+06 -8.222337E-09 -2.320220E-09
        60  16 -1.139620E+07 -3.138982E+06 -3.056221E+06  1.273520E+06 -3.455464E-09 -1.363831E-09
        60  17 -9.345100E+06 -2.568712E+06 -2.398218E+06  6.929762E+05  4.548276E-09 -3.084688E-09
        60  18 -7.254806E+06 -2.036917E+06 -1.891641E+06  1.191162E+06 -2.948888E-09 -5.071590E-10
        60  19  1.342122E+07  3.034879E+06  3.011156E+06  1.100052E+06 -3.022704E+05  1.425877E+05
        60  20  1.126243E+07  2.501597E+06  2.362743E+06  6.037673E+05 -7.102425E+04  4.118588E+05
        60  21  9.224892E+06  2.011369E+06  1.887127E+06  1.184032E+06  1.567884E+05  3.591589E+05
        60  22  9.424330E+05 -4.637598E+04 -1.698116E+04  1.187578E+06  1.361146E+04  1.399297E+05
        60  23  9.097047E+05 -2.974972E+04 -1.404513E+04  6.487209E+05  8.686244E+03  4.119221E+05
        60  24  9.536689E+05 -1.034587E+04  7.592297E+01  1.187624E+06  1.085277E+03  3.595369E+05
        60  25 -1.139608E+07 -3.138933E+06 -3.055986E+06  1.273556E+06  3.232616E+05  1.373379E+05
        60  26 -9.345047E+06 -2.568527E+06 -2.397884E+06  6.930052E+05  8.709562E+04  4.119996E+05
        60  27 -7.254746E+06 -2.036771E+06 -1.891352E+06  1.191117E+06 -1.525844E+05  3.599152E+05
        61   1  7.215509E+06  1.525509E+06  1.435739E+06  1.190805E+06 -5.659369E+04 -2.618839E+05
        61   2  5.137940E+06  1.027644E+06  9.626233E+05  6.538180E+05 -6.810200E+04 -1.787916E+05
        61   3  3.073264E+06  5.320568E+05  4.984853E+05  1.197291E+06 -8.020868E+04 -8.052586E+04
        61   4  9.452275E+05 -9.979890E+03 -1.581203E+03  1.188322E+06 -1.761994E+03 -2.619856E+05
        61   5  9.440089E+05 -3.624806E+02  1.594293E+03  6.478394E+05 -2.336758E+03 -1.786912E+05
        61   6  9.497859E+05  9.883340E+03  6.397908E+03  1.188287E+06 -3.549209E+03 -8.016164E+04
        61   7 -5.288945E+06 -1.548195E+06 -1.441477E+06  1.185819E+06  5.252537E+04 -2.620882E+05
        61   8 -3.233725E+06 -1.029587E+06 -9.605751E+05  6.418822E+05  6.299074E+04 -1.785917E+05
        61   9 -1.169532E+06 -5.126035E+05 -4.859696E+05  1.179306E+06  7.285098E+04 -7.979882E+04
        61  10  7.215487E+06  1.525434E+06  1.435604E+06  1.190793E+06 -6.825017E-10 -2.063646E-09
        61  11  5.137927E+06  1.027608E+06  9.625546E+05  6.538083E+05  2.332966E-09  1.443761E-09
        61  12  3.073256E+06  5.320482E+05  4.984611E+05  1.197285E+06  2.042654E-11  4.475423E-09
        61  13  9.452091E+05 -1.005363E+04 -1.710246E+03  1.188322E+06 -7.173309E-11  1.145213E-10
        61  14  9.440004E+05 -3.967844E+02  1.534255E+03  6.478391E+05  8.624515E-09  2.518163E-09
        61  15  9.497842E+05  9.876434E+03  6.385807E+03  1.188287E+06  7.545947E-09  2.684659E-09
        61  16 -5.288967E+06 -1.548270E+06 -1.441612E+06  1.185831E+06 -3.481603E-09  1.738047E-09
        61  17 -3.233738E+06 -1.029623E+06 -9.606426E+05  6.418913E+05  6.019179E-09  3.129767E-09
        61  18 -1.169540E+06 -5.126117E+05 -4.859916E+05  1.179310E+06 -2.286665E-09  8.621846E-11
        61  19  7.215509E+06  1.525509E+06  1.435739E+06  1.190805E+06  5.659369E+04  2.618839E+05
        61  20  5.137940E+06  1.027644E+06  9.626233E+05  6.538180E+05  6.810200E+04  1.787916E+05
        61  21  3.073264E+06  5.320568E+05  4.984853E+05  1.197291E+06  8.020868E+04  8.052586E+04
        61  22  9.452275E+05 -9.979890E+03 -1.581203E+03  1.188322E+06  1.761994E+03  2.619856E+05
        61  23  9.440089E+05 -3.624806E+02  1.594293E+03  6.478394E+05  2.336758E+03  1.786912E+05
        61  24  9.497859E+05  9.883340E+03  6.397908E+03  1.188287E+06  3.549209E+03  8.016164E+04
        61  25 -5.288945E+06 -1.548195E+06 -1.441477E+06  1.185819E+06 -5.252537E+04  2.620882E+05
        61  26 -3.233725E+06 -1.029587E+06 -9.605751E+05  6.418822E+05 -6.299074E+04  1.785917E+05
        61  27 -1.169532E+06 -5.126035E+05 -4.859696E+05  1.179306E+06 -7.285098E+04  7.979882E+04
        62   1  1.096762E+06  4.409737E+04  3.624139E+04  1.187866E+06 -8.106403E+04 -1.796774E+04
        62   2 -9.639526E+05 -4.669497E+05 -4.279977E+05  6.430941E+05 -7.845051E+04  8.088253E+04
        62   3 -3.023545E+06 -9.711421E+05 -8.939609E+05  1.178208E+06 -7.553567E+04  1.672572E+05
        62   4  9.490425E+05  8.860411E+03  7.566860E+03  1.188017E+06 -5.407915E+03 -1.756929E+04
        62   5  9.486471E+05  3.654554E+03  1.212715E+04  6.481786E+05 -1.189431E+04  8.113372E+04
        62   6  9.469535E+05  7.144528E+03  2.145249E+04  1.188011E+06 -1.807021E+04  1.673935E+05
        62   7  8.013563E+05 -2.637478E+04 -2.108722E+04  1.188167E+06  7.023063E+04 -1.717074E+04
        62   8  2.864642E+06  4.740057E+05  4.520266E+05  6.532739E+05  5.486555E+04  8.138555E+04
        62   9  4.932074E+06  9.843291E+05  9.358319E+05  1.197852E+06  3.976147E+04  1.675310E+05
        62  10  1.096755E+06  4.409526E+04  3.622847E+04  1.187865E+06  4.308262E-09  4.673764E-09
        62  11 -9.639610E+05 -4.669584E+05 -4.280216E+05  6.430992E+05 -1.005508E-08  3.093712E-09
        62  12 -3.023559E+06 -9.711737E+05 -8.940244E+05  1.178218E+06 -7.771059E-09 -1.421181E-09
        62  13  9.490424E+05  8.860072E+03  7.566226E+03  1.188017E+06  4.326433E-09  2.426451E-09
        62  14  9.486452E+05  3.647443E+03  1.211450E+04  6.481794E+05  1.770974E-10  3.403499E-09
        62  15  9.469456E+05  7.114329E+03  2.139918E+04  1.188014E+06 -4.303537E-09 -1.599254E-09
        62  16  8.013509E+05 -2.637642E+04 -2.109704E+04  1.188168E+06 -1.324626E-08  4.478918E-10
        62  17  2.864637E+06  4.739978E+05  4.520085E+05  6.532703E+05  1.089705E-08  3.847133E-09
        62  18  4.932065E+06  9.842986E+05  9.357762E+05  1.197846E+06 -2.708910E-09 -1.688973E-09
        62  19  1.096762E+06  4.409737E+04  3.624139E+04  1.187866E+06  8.106403E+04  1.796774E+04
        62  20 -9.639526E+05 -4.669497E+05 -4.279977E+05  6.430941E+05  7.845051E+04 -8.088253E+04
        62  21 -3.023545E+06 -9.711421E+05 -8.939609E+05  1.178208E+06  7.553567E+04 -1.672572E+05
        62  22  9.490425E+05  8.860411E+03  7.566860E+03  1.188017E+06  5.407915E+03  1.756929E+04
        62  23  9.486471E+05  3.654554E+03  1.212715E+04  6.481786E+05  1.189431E+04 -8.113372E+04
        62  24  9.469535E+05  7.144528E+03  2.145249E+04  1.188011E+06  1.807021E+04 -1.673935E+05
        62  25  8.013563E+05 -2.637478E+04 -2.108722E+04  1.188167E+06 -7.023063E+04  1.717074E+04
        62  26  2.864642E+06  4.740057E+05  4.520266E+05  6.532739E+05 -5.486555E+04 -8.138555E+04
        62  27  4.932074E+06  9.843291E+05  9.358319E+05  1.197852E+06 -3.976147E+04 -1.675310E+05
        63   1 -4.984778E+06 -1.469738E+06 -1.339783E+06  1.190002E+06 -1.627489E+05  2.580995E+05
        63   2 -7.071249E+06 -1.997085E+06 -1.816816E+06  6.501803E+05  9.408778E+03  3.192422E+05
        63   3 -9.116498E+06 -2.459946E+06 -2.382036E+06  1.187545E+06  1.800229E+05  1.103260E+05
        63   4  9.582061E+05 -4.504695E+03  2.848789E+04  1.187215E+06 -2.300180E+04  2.582725E+05
        63   5  9.183248E+05 -2.197029E+04  3.853326E+04  6.491831E+05 -4.364108E+04  3.190294E+05
        63   6  9.494309E+05  5.862665E+04  9.494808E+04  1.187509E+06 -6.524675E+04  1.112724E+05
        63   7  6.934056E+06  1.458268E+06  1.394494E+06  1.184352E+06  1.180811E+05  2.584427E+05
        63   8  8.967238E+06  1.948639E+06  1.889606E+06  6.481642E+05 -9.737160E+04  3.188193E+05
        63   9  1.110851E+07  2.569680E+06  2.564695E+06  1.187489E+06 -3.145233E+05  1.122145E+05
        63  10 -4.984825E+06 -1.469817E+06 -1.339959E+06  1.190036E+06 -1.457645E-08 -2.208514E-09
        63  11 -7.071277E+06 -1.997194E+06 -1.817008E+06  6.501778E+05 -5.124717E-09 -5.910530E-10
        63  12 -9.116537E+06 -2.459968E+06 -2.382120E+06  1.187528E+06  7.451022E-09 -3.099793E-10
        63  13  9.581876E+05 -4.576515E+03  2.836143E+04  1.187220E+06 -4.288278E-09 -2.413481E-09
        63  14  9.182954E+05 -2.208016E+04  3.833826E+04  6.491943E+05  4.079046E-09  9.682244E-10
        63  15  9.494230E+05  5.861218E+04  9.491675E+04  1.187515E+06  9.523939E-09  1.379653E-09
        63  16  6.934023E+06  1.458193E+06  1.394343E+06  1.184327E+06  8.167180E-09 -2.842376E-09
        63  17  8.967201E+06  1.948527E+06  1.889397E+06  6.481891E+05 -1.993609E-09  1.073534E-09
        63  18  1.110840E+07  2.569640E+06  2.564489E+06  1.187517E+06 -1.046463E-09  9.052658E-10
        63  19 -4.984778E+06 -1.469738E+06 -1.339783E+06  1.190002E+06  1.627489E+05 -2.580995E+05
        63  20 -7.071249E+06 -1.997085E+06 -1.816816E+06  6.501803E+05 -9.408778E+03 -3.192422E+05
        63  21 -9.116498E+06 -2.459946E+06 -2.382036E+06  1.187545E+06 -1.800229E+05 -1.103260E+05
        63  22  9.582061E+05 -4.504695E+03  2.848789E+04  1.187215E+06  2.300180E+04 -2.582725E+05
        63  23  9.183248E+05 -2.197029E+04  3.853326E+04  6.491831E+05  4.364108E+04 -3.190294E+05
        63  24  9.494309E+05  5.862665E+04  9.494808E+04  1.187509E+06  6.524675E+04 -1.112724E+05
        63  25  6.934056E+06  1.458268E+06  1.394494E+06  1.184352E+06 -1.180811E+05 -2.584427E+05
        63  26  8.967238E+06  1.948639E+06  1.889606E+06  6.481642E+05  9.737160E+04 -3.188193E+05
        63  27  1.110851E+07  2.569680E+06  2.564695E+06  1.187489E+06  3.145233E+05 -1.122145E+05
        64   1 -8.185416E+05 -2.534920E+06 -8.425047E+05  6.120253E+05 -3.140383E+04 -1.360494E+05
        64   2 -4.683562E+05 -1.463958E+06 -4.987617E+05  3.252031E+05 -7.693219E+04 -5.068546E+04
        64   3 -2.033288E+05 -4.407603E+05 -2.351238E+05  5.844084E+05 -3.753067E+04  3.364582E+04
        64   4 -6.851028E+04  4.748872E+05 -1.030327E+05  6.086949E+05 -3.050591E+04 -7.221778E+04
        64   5  1.438167E+04  4.944461E+05 -4.456419E+04  3.351020E+05 -7.687155E+04 -4.769306E+04
        64   6  2.296549E+04  4.759714E+05 -2.364123E+04  6.074557E+05 -3.842224E+04 -2.434551E+04
        64   7  6.808517E+05  3.492969E+06  6.357891E+05  6.053160E+05 -2.961099E+04 -8.075554E+03
        64   8  4.968498E+05  2.456396E+06  4.093762E+05  3.450189E+05 -7.681092E+04 -4.469108E+04
        64   9  2.492040E+05  1.393488E+06  1.877982E+05  6.305342E+05 -3.931741E+04 -8.242183E+04
        64  10 -8.185476E+05 -2.534940E+06 -8.425414E+05  6.120219E+05  3.341656E-09 -2.813665E-09
        64  11 -4.683632E+05 -1.463962E+06 -4.987777E+05  3.252000E+05  5.710238E-09  6.299064E-09
        64  12 -2.033306E+05 -4.407619E+05 -2.351286E+05  5.844094E+05 -3.437911E-09  1.319077E-08
        64  13 -6.851267E+04  4.748814E+05 -1.030442E+05  6.086931E+05  1.289623E-08  7.032658E-12
        64  14  1.437472E+04  4.944420E+05 -4.457956E+04  3.350991E+05 -2.066369E-08 -2.632257E-10
        64  15  2.296375E+04  4.759704E+05 -2.364511E+04  6.074550E+05 -6.940625E-09 -1.132611E-10
        64  16  6.808507E+05  3.492969E+06  6.357874E+05  6.053158E+05  1.252771E-09  3.056289E-09
        64  17  4.968429E+05  2.456392E+06  4.093613E+05  3.450161E+05 -9.327635E-09 -5.779892E-09
        64  18  2.492005E+05  1.393480E+06  1.877826E+05  6.305316E+05 -7.716127E-09 -1.271314E-08
        64  19 -8.185416E+05 -2.534920E+06 -8.425047E+05  6.120253E+05  3.140383E+04  1.360494E+05
        64  20 -4.683562E+05 -1.463958E+06 -4.987617E+05  3.252031E+05  7.693219E+04  5.068546E+04
        64  21 -2.033288E+05 -4.407603E+05 -2.351238E+05  5.844084E+05  3.753067E+04 -3.364582E+04
        64  22 -6.851028E+04  4.748872E+05 -1.030327E+05  6.086949E+05  3.050591E+04  7.221778E+04
        64  23  1.438167E+04  4.944461E+05 -4.456419E+04  3.351020E+05  7.687155E+04  4.769306E+04
        64  24  2.296549E+04  4.759714E+05 -2.364123E+04  6.074557E+05  3.842224E+04  2.434551E+04
        64  25  6.808517E+05  3.492969E+06  6.357891E+05  6.053160E+05  2.961099E+04  8.075554E+03
        64  26  4.968498E+05  2.456396E+06  4.093762E+05  3.450189E+05  7.681092E+04  4.469108E+04
        64  27  2.492040E+05  1.393488E+06  1.877982E+05  6.305342E+05  3.931741E+04  8.242183E+04
        65   1  3.286587E+04  5.666281E+05  3.081651E+03  6.109210E+05  2.978230E+03  1.208796E+04
        65   2  2.881104E+05  1.620868E+06  2.574270E+05  3.475775E+05  4.864123E+04  1.080173E+04
        65   3  5.566749E+05  2.661086E+06  5.116191E+05  6.318053E+05  9.159323E+04  9.636429E+03
        65   4  1.170281E+04  4.812115E+05 -1.696745E+04  6.082554E+05  2.451045E+03 -2.180215E+04
        65   5  9.677162E+03  4.885739E+05 -2.624034E+03  3.343702E+05  4.817265E+04 -2.114711E+04
        65   6  2.071232E+04  4.805744E+05  1.029055E+04  6.081046E+05  9.117731E+04 -2.036994E+04
        65   7 -9.460131E+03  3.958041E+05 -3.701273E+04  6.055903E+05  1.924113E+03 -5.568762E+04
        65   8 -2.688446E+05 -6.425338E+05 -2.627559E+05  3.211826E+05  4.770499E+04 -5.303824E+04
        65   9 -5.155805E+05 -1.695548E+06 -4.913491E+05  5.844698E+05  9.076290E+04 -5.027201E+04
        65  10  3.286582E+04  5.666279E+05  3.081360E+03  6.109209E+05 -7.413945E-09 -1.170089E-08
        65  11  2.881078E+05  1.620867E+06  2.574223E+05  3.475771E+05 -6.916418E-09 -4.863251E-09
        65  12  5.566658E+05  2.661083E+06  5.116032E+05  6.318046E+05 -9.639744E-09  3.024761E-09
        65  13  1.170268E+04  4.812110E+05 -1.696835E+04  6.082555E+05 -1.549077E-08 -1.274224E-10
        65  14  9.674549E+03  4.885728E+05 -2.629238E+03  3.343711E+05 -6.659734E-09 -4.408001E-12
        65  15  2.070327E+04  4.805718E+05  1.027414E+04  6.081061E+05 -7.709498E-09 -3.136266E-11
        65  16 -9.460967E+03  3.958008E+05 -3.701856E+04  6.055904E+05  4.191767E-10  1.177508E-08
        65  17 -2.688478E+05 -6.425374E+05 -2.627654E+05  3.211847E+05 -5.168194E-09  5.386417E-09
        65  18 -5.155900E+05 -1.695553E+06 -4.913694E+05  5.844735E+05  3.206178E-09 -3.199848E-09
        65  19  3.286587E+04  5.666281E+05  3.081651E+03  6.109210E+05 -2.978230E+03 -1.208796E+04
        65  20  2.881104E+05  1.620868E+06  2.574270E+05  3.475775E+05 -4.864123E+04 -1.080173E+04
        65  21  5.566749E+05  2.661086E+06  5.116191E+05  6.318053E+05 -9.159323E+04 -9.636429E+03
        65  22  1.170281E+04  4.812115E+05 -1.696745E+04  6.082554E+05 -2.451045E+03  2.180215E+04
        65  23  9.677162E+03  4.885739E+05 -2.624034E+03  3.343702E+05 -4.817265E+04  2.114711E+04
        65  24  2.071232E+04  4.805744E+05  1.029055E+04  6.081046E+05 -9.117731E+04  2.036994E+04
        65  25 -9.460131E+03  3.958041E+05 -3.701273E+04  6.055903E+05 -1.924113E+03  5.568762E+04
        65  26 -2.688446E+05 -6.425338E+05 -2.627559E+05  3.211826E+05 -4.770499E+04  5.303824E+04
        65  27 -5.155805E+05 -1.695548E+06 -4.913491E+05  5.844698E+05 -9.076290E+04  5.027201E+04
        66   1  7.937009E+05  3.674959E+06  7.468474E+05  6.312496E+05  1.390968E+05  4.876089E+04
        66   2  1.039757E+06  4.710123E+06  1.007473E+06  3.807396E+05  1.674629E+05 -6.947632E+04
        66   3  1.388069E+06  5.781825E+06  1.368874E+06  6.741979E+05  5.634401E+04 -1.864182E+05
        66   4  1.134715E+04  4.867186E+05  1.659043E+04  6.076170E+05  1.381419E+05 -2.331896E+04
        66   5 -4.179428E+02  4.764241E+05  3.104992E+04  3.351870E+05  1.678900E+05 -4.038400E+04
        66   6  7.294766E+04  4.843756E+05  7.653497E+04  6.069151E+05  5.773808E+04 -5.594569E+04
        66   7 -7.717091E+05 -2.692135E+06 -7.143151E+05  5.840698E+05  1.371899E+05 -9.503313E+04
        66   8 -1.041842E+06 -3.740785E+06 -9.465623E+05  2.898927E+05  1.683145E+05 -1.148675E+04
        66   9 -1.244221E+06 -4.787611E+06 -1.217782E+06  5.401265E+05  5.911053E+04  7.342544E+04
        66  10  7.936795E+05  3.674951E+06  7.468066E+05  6.312442E+05 -1.326129E-09 -6.493902E-09
        66  11  1.039726E+06  4.710110E+06  1.007412E+06  3.807490E+05  3.125033E-09 -1.435212E-09
        66  12  1.388057E+06  5.781787E+06  1.368803E+06  6.742064E+05  3.059120E-10  3.458161E-09
        66  13  1.132650E+04  4.867129E+05  1.655352E+04  6.076196E+05  3.267501E-09 -4.237908E-11
        66  14 -4.486598E+02  4.764148E+05  3.099386E+04  3.351924E+05  1.176342E-09  3.037563E-10
        66  15  7.294324E+04  4.843714E+05  7.652282E+04  6.069177E+05  2.100075E-09  8.366924E-11
        66  16 -7.717318E+05 -2.692149E+06 -7.143676E+05  5.840803E+05  9.762543E-10  6.346668E-09
        66  17 -1.041872E+06 -3.740793E+06 -9.466158E+05  2.898943E+05  1.447133E-09  1.732613E-09
        66  18 -1.244227E+06 -4.787618E+06 -1.217799E+06  5.401230E+05  4.988652E-10 -3.395375E-09
        66  19  7.937009E+05  3.674959E+06  7.468474E+05  6.312496E+05 -1.390968E+05 -4.876089E+04
        66  20  1.039757E+06  4.710123E+06  1.007473E+06  3.807396E+05 -1.674629E+05  6.947632E+04
        66  21  1.388069E+06  5.781825E+06  1.368874E+06  6.741979E+05 -5.634401E+04  1.864182E+05
        66  22  1.134715E+04  4.867186E+05  1.659043E+04  6.076170E+05 -1.381419E+05  2.331896E+04
        66  23 -4.179428E+02  4.764241E+05  3.104992E+04  3.351870E+05 -1.678900E+05  4.038400E+04
        66  24  7.294766E+04  4.843756E+05  7.653497E+04  6.069151E+05 -5.773808E+04  5.594569E+04
        66  25 -7.717091E+05 -2.692135E+06 -7.143151E+05  5.840698E+05 -1.371899E+05  9.503313E+04
        66  26 -1.041842E+06 -3.740785E+06 -9.465623E+05  2.898927E+05 -1.683145E+05  1.148675E+04
        66  27 -1.244221E+06 -4.787611E+06 -1.217782E+06  5.401265E+05 -5.911053E+04 -7.342544E+04
        67   1  1.013080E+07  2.302059E+06  2.313859E+06  9.404073E+05  3.400098E+05 -9.927164E+04
        67   2  8.467185E+06  1.731285E+06  1.724460E+06  5.029849E+05  1.307075E+05 -2.849533E+05
        67   3  6.916142E+06  1.353139E+06  1.324200E+06  8.936782E+05 -7.704317E+04 -2.418261E+05
        67   4  1.336952E+06  1.282225E+05  1.760773E+05  9.127284E+05  1.196573E+05 -9.830807E+04
        67   5  1.298938E+06 -2.376745E+04  7.616722E+04  4.981180E+05  7.797077E+04 -2.850629E+05
        67   6  1.343032E+06 -1.070603E+04  5.099588E+04  9.121389E+05  3.728728E+04 -2.418543E+05
        67   7 -7.387040E+06 -2.051240E+06 -1.967115E+06  8.854744E+05 -9.762992E+04 -9.732025E+04
        67   8 -5.822234E+06 -1.782391E+06 -1.575514E+06  4.933159E+05  2.582776E+04 -2.851731E+05
        67   9 -4.201507E+06 -1.376690E+06 -1.224191E+06  9.304069E+05  1.506076E+05 -2.418757E+05
        67  10  1.013067E+07  2.302017E+06  2.313626E+06  9.404344E+05 -2.357206E-09 -7.494998E-10
        67  11  8.467145E+06  1.731194E+06  1.724276E+06  5.030147E+05  6.225930E-10 -1.578112E-09
        67  12  6.916120E+06  1.353074E+06  1.324080E+06  8.936633E+05  3.220811E-09 -1.891207E-10
        67  13  1.336934E+06  1.282083E+05  1.760322E+05  9.127379E+05 -4.438124E-09  8.641970E-10
        67  14  1.298909E+06 -2.385641E+04  7.600294E+04  4.981359E+05  1.261200E-08 -1.547742E-09
        67  15  1.343015E+06 -1.076927E+04  5.088322E+04  9.121462E+05 -1.413621E-08 -8.097122E-10
        67  16 -7.387053E+06 -2.051253E+06 -1.967151E+06  8.854667E+05 -1.285668E-09 -1.189082E-09
        67  17 -5.822256E+06 -1.782479E+06 -1.575668E+06  4.933219E+05 -2.231623E-09 -2.085969E-09
        67  18 -4.201547E+06 -1.376759E+06 -1.224344E+06  9.304363E+05 -1.520650E-09 -1.598412E-09
        67  19  1.013080E+07  2.302059E+06  2.313859E+06  9.404073E+05 -3.400098E+05  9.927164E+04
        67  20  8.467185E+06  1.731285E+06  1.724460E+06  5.029849E+05 -1.307075E+05  2.849533E+05
        67  21  6.916142E+06  1.353139E+06  1.324200E+06  8.936782E+05  7.704317E+04  2.418261E+05
        67  22  1.336952E+06  1.282225E+05  1.760773E+05  9.127284E+05 -1.196573E+05  9.830807E+04
        67  23  1.298938E+06 -2.376745E+04  7.616722E+04  4.981180E+05 -7.797077E+04  2.850629E+05
        67  24  1.343032E+06 -1.070603E+04  5.099588E+04  9.121389E+05 -3.728728E+04  2.418543E+05
        67  25 -7.387040E+06 -2.051240E+06 -1.967115E+06  8.854744E+05  9.762992E+04  9.732025E+04
        67  26 -5.822234E+06 -1.782391E+06 -1.575514E+06  4.933159E+05 -2.582776E+04  2.851731E+05
        67  27 -4.201507E+06 -1.376690E+06 -1.224191E+06  9.304069E+05 -1.506076E+05  2.418757E+05
        68   1  5.373196E+06  1.000044E+06  9.684369E+05  9.206511E+05 -1.369315E+04 -1.692629E+05
        68   2  3.783623E+06  6.028475E+05  5.878087E+05  5.033107E+05 -3.387549E+04 -1.045520E+05
        68   3  2.202765E+06  2.209753E+05  2.237117E+05  9.138423E+05 -5.430293E+04 -2.915276E+04
        68   4  1.329462E+06  8.902679E+03  4.079563E+04  9.121507E+05  2.923112E+04 -1.692417E+05
        68   5  1.327960E+06  5.202600E+02  2.467091E+04  4.981213E+05  1.681085E+04 -1.044305E+05
        68   6  1.331517E+06  6.308971E+03  1.988876E+04  9.121620E+05  4.094614E+03 -2.890309E+04
        68   7 -2.699232E+06 -9.833730E+05 -8.879157E+05  9.036871E+05  7.187947E+04 -1.692216E+05
        68   8 -1.122143E+06 -6.022245E+05 -5.388542E+05  4.929464E+05  6.729919E+04 -1.043096E+05
        68   9  4.609736E+05 -2.084093E+05 -1.839731E+05  9.104830E+05  6.241096E+04 -2.865352E+04
        68  10  5.373188E+06  1.000013E+06  9.683827E+05  9.206493E+05  2.670373E-09  7.325273E-10
        68  11  3.783619E+06  6.028354E+05  5.877860E+05  5.033078E+05 -3.290114E-09  5.095442E-10
        68  12  2.202762E+06  2.209736E+05  2.237046E+05  9.138410E+05 -3.663298E-10  1.067336E-09
        68  13  1.329453E+06  8.871664E+03  4.074013E+04  9.121547E+05  4.446860E-09  5.841218E-10
        68  14  1.327957E+06  5.084642E+02  2.464987E+04  4.981227E+05 -4.067407E-09  1.682956E-09
        68  15  1.331517E+06  6.308068E+03  1.988715E+04  9.121621E+05  6.720411E-10  1.663611E-09
        68  16 -2.699245E+06 -9.834052E+05 -8.879793E+05  9.036969E+05 -9.258376E-09 -8.506029E-11
        68  17 -1.122151E+06 -6.022374E+05 -5.388832E+05  4.929520E+05 -1.509078E-10  1.941762E-09
        68  18  4.609692E+05 -2.084112E+05 -1.839820E+05  9.104844E+05  2.150581E-09  2.293054E-10
        68  19  5.373196E+06  1.000044E+06  9.684369E+05  9.206511E+05  1.369315E+04  1.692629E+05
        68  20  3.783623E+06  6.028475E+05  5.878087E+05  5.033107E+05  3.387549E+04  1.045520E+05
        68  21  2.202765E+06  2.209753E+05  2.237117E+05  9.138423E+05  5.430293E+04  2.915276E+04
        68  22  1.329462E+06  8.902679E+03  4.079563E+04  9.121507E+05 -2.923112E+04  1.692417E+05
        68  23  1.327960E+06  5.202600E+02  2.467091E+04  4.981213E+05 -1.681085E+04  1.044305E+05
        68  24  1.331517E+06  6.308971E+03  1.988876E+04  9.121620E+05 -4.094614E+03  2.890309E+04
        68  25 -2.699232E+06 -9.833730E+05 -8.879157E+05  9.036871E+05 -7.187947E+04  1.692216E+05
        68  26 -1.122143E+06 -6.022245E+05 -5.388542E+05  4.929464E+05 -6.729919E+04  1.043096E+05
        68  27  4.609736E+05 -2.084093E+05 -1.839731E+05  9.104830E+05 -6.241096E+04  2.865352E+04
        69   1  6.901748E+05 -1.516550E+05 -1.319949E+05  9.106597E+05 -5.797148E+04  1.878651E+04
        69   2 -8.919410E+05 -5.451394E+05 -4.898425E+05  4.933895E+05 -6.112610E+04  9.444830E+04
        69   3 -2.469787E+06 -9.286413E+05 -8.438580E+05  9.041979E+05 -6.400251E+04  1.596508E+05
        69   4  1.331206E+06  6.646343E+03  1.915673E+04  9.121204E+05  2.676472E+02  1.903874E+04
        69   5  1.328638E+06  1.071395E+03  2.085434E+04  4.981724E+05 -1.049980E+04  9.458109E+04
        69   6  1.329347E+06  6.954924E+03  3.177037E+04  9.121151E+05 -2.099669E+04  1.596898E+05
        69   7  1.972621E+06  1.649201E+05  1.702928E+05  9.135820E+05  5.856651E+04  1.929109E+04
        69   8  3.553785E+06  5.469395E+05  5.312349E+05  5.029673E+05  4.030634E+04  9.471438E+04
        69   9  5.141853E+06  9.415425E+05  9.064483E+05  9.200638E+05  2.227129E+04  1.597298E+05
        69  10  6.901711E+05 -1.516562E+05 -1.320019E+05  9.106606E+05  1.679804E-08  1.215222E-09
        69  11 -8.919474E+05 -5.451500E+05 -4.898663E+05  4.933942E+05  4.908280E-09  6.129952E-10
        69  12 -2.469798E+06 -9.286699E+05 -8.439137E+05  9.042062E+05  1.192770E-09 -1.362154E-09
        69  13  1.331206E+06  6.645953E+03  1.915604E+04  9.121204E+05 -1.339689E-10 -7.978260E-10
        69  14  1.328636E+06  1.061752E+03  2.083731E+04  4.981732E+05 -4.148626E-09 -7.125212E-10
        69  15  1.329339E+06  6.927398E+03  3.172157E+04  9.121178E+05 -6.044262E-10 -1.337994E-09
        69  16  1.972617E+06  1.649188E+05  1.702857E+05  9.135811E+05 -1.065701E-08 -7.910544E-10
        69  17  3.553781E+06  5.469295E+05  5.312150E+05  5.029642E+05  1.381056E-09 -3.907775E-09
        69  18  5.141846E+06  9.415150E+05  9.063994E+05  9.200609E+05  7.314298E-10 -1.231492E-09
        69  19  6.901748E+05 -1.516550E+05 -1.319949E+05  9.106597E+05  5.797148E+04 -1.878651E+04
        69  20 -8.919410E+05 -5.451394E+05 -4.898425E+05  4.933895E+05  6.112610E+04 -9.444830E+04
        69  21 -2.469787E+06 -9.286413E+05 -8.438580E+05  9.041979E+05  6.400251E+04 -1.596508E+05
        69  22  1.331206E+06  6.646343E+03  1.915673E+04  9.121204E+05 -2.676472E+02 -1.903874E+04
        69  23  1.328638E+06  1.071395E+03  2.085434E+04  4.981724E+05  1.049980E+04 -9.458109E+04
        69  24  1.329347E+06  6.954924E+03  3.177037E+04  9.121151E+05  2.099669E+04 -1.596898E+05
        69  25  1.972621E+06  1.649201E+05  1.702928E+05  9.135820E+05 -5.856651E+04 -1.929109E+04
        69  26  3.553785E+06  5.469395E+05  5.312349E+05  5.029673E+05 -4.030634E+04 -9.471438E+04
        69  27  5.141853E+06  9.415425E+05  9.064483E+05  9.200638E+05 -2.227129E+04 -1.597298E+05
        70   1 -3.974203E+06 -1.317015E+06 -1.182892E+06  9.239201E+05 -1.393379E+05  2.315986E+05
        70   2 -5.587321E+06 -1.721651E+06 -1.541547E+06  4.958205E+05 -8.155245E+03  2.757056E+05
        70   3 -7.157859E+06 -2.028817E+06 -1.955086E+06  8.963451E+05  1.218168E+05  9.430933E+04
        70   4  1.340392E+06 -7.845202E+03  3.933639E+04  9.120598E+05 -2.737208E+04  2.316175E+05
        70   5  1.303360E+06 -2.015701E+04  5.653497E+04  4.982359E+05 -5.756343E+04  2.755860E+05
        70   6  1.334533E+06  9.274815E+04  1.311445E+05  9.124573E+05 -8.862754E+04  9.516834E+04
        70   7  6.681231E+06  1.299360E+06  1.259746E+06  9.000696E+05  8.554974E+04  2.316318E+05
        70   8  8.238110E+06  1.677994E+06  1.651444E+06  5.006825E+05 -1.075168E+05  2.754673E+05
        70   9  9.893098E+06  2.208978E+06  2.212245E+06  9.288201E+05 -3.019633E+05  9.601227E+04
        70  10 -3.974238E+06 -1.317078E+06 -1.183029E+06  9.239462E+05  3.893171E-09 -4.649491E-10
        70  11 -5.587342E+06 -1.721733E+06 -1.541690E+06  4.958224E+05 -2.408082E-09  9.576875E-10
        70  12 -7.157877E+06 -2.028830E+06 -1.955131E+06  8.963358E+05  4.743553E-09  1.479527E-09
        70  13  1.340376E+06 -7.903059E+03  3.923406E+04  9.120649E+05  4.327638E-09 -1.484583E-10
        70  14  1.303336E+06 -2.023952E+04  5.638588E+04  4.982486E+05  1.883158E-09  1.507281E-09
        70  15  1.334522E+06  9.273629E+04  1.311127E+05  9.124641E+05 -5.584353E-11  3.596906E-10
        70  16  6.681209E+06  1.299300E+06  1.259631E+06  9.000537E+05 -8.028760E-09  2.295468E-10
        70  17  8.238077E+06  1.677909E+06  1.651280E+06  5.007062E+05  2.566171E-09  2.795763E-10
        70  18  9.892998E+06  2.208944E+06  2.212059E+06  9.288434E+05  1.383735E-09  4.788507E-10
        70  19 -3.974203E+06 -1.317015E+06 -1.182892E+06  9.239201E+05  1.393379E+05 -2.315986E+05
        70  20 -5.587321E+06 -1.721651E+06 -1.541547E+06  4.958205E+05  8.155245E+03 -2.757056E+05
        70  21 -7.157859E+06 -2.028817E+06 -1.955086E+06  8.963451E+05 -1.218168E+05 -9.430933E+04
        70  22  1.340392E+06 -7.845202E+03  3.933639E+04  9.120598E+05  2.737208E+04 -2.316175E+05
        70  23  1.303360E+06 -2.015701E+04  5.653497E+04  4.982359E+05  5.756343E+04 -2.755860E+05
        70  24  1.334533E+06  9.274815E+04  1.311445E+05  9.124573E+05  8.862754E+04 -9.516834E+04
        70  25  6.681231E+06  1.299360E+06  1.259746E+06  9.000696E+05 -8.554974E+04 -2.316318E+05
        70  26  8.238110E+06  1.677994E+06  1.651444E+06  5.006825E+05  1.075168E+05 -2.754673E+05
        70  27  9.893098E+06  2.208978E+06  2.212245E+06  9.288201E+05  3.019633E+05 -9.601227E+04
        71   1 -2.191945E+06 -8.599099E+06 -2.203874E+06  1.235505E+06 -9.186786E+04 -2.835054E+05
        71   2 -1.517948E+06 -6.382116E+06 -1.504325E+06  6.432691E+05 -2.470870E+05 -8.467525E+04
        71   3 -9.537033E+05 -4.224273E+06 -9.645752E+05  1.193063E+06 -1.718722E+05  1.122956E+05
        71   4 -8.993564E+04 -2.016539E+05 -1.350259E+05  1.257337E+06 -8.971768E+04 -8.986645E+04
        71   5  1.583601E+04 -1.809270E+05 -6.307543E+04  6.859158E+05 -2.465304E+05 -5.460050E+04
        71   6  4.164897E+04 -1.943887E+05 -3.555932E+04  1.255922E+06 -1.739158E+05 -2.189736E+04
        71   7  2.006827E+06  8.260618E+06  1.928755E+06  1.279234E+06 -8.757069E+04  1.064221E+05
        71   8  1.546903E+06  6.056013E+06  1.375588E+06  7.288633E+05 -2.459730E+05 -2.422282E+04
        71   9  1.035879E+06  3.850628E+06  8.924460E+05  1.319121E+06 -1.759793E+05 -1.569587E+05
        71  10 -2.191976E+06 -8.599188E+06 -2.204042E+06  1.235484E+06  7.826795E-10  7.170352E-09
        71  11 -1.518015E+06 -6.382140E+06 -1.504453E+06  6.432522E+05 -6.298034E-09  8.384524E-09
        71  12 -9.537385E+05 -4.224295E+06 -9.646548E+05  1.193079E+06  4.868862E-09  2.469401E-09
        71  13 -8.994643E+04 -2.016647E+05 -1.350562E+05  1.257330E+06  1.227903E-08 -1.065421E-09
        71  14  1.576997E+04 -1.809465E+05 -6.319517E+04  6.859050E+05 -1.907768E-09 -2.327987E-10
        71  15  4.161638E+04 -1.943974E+05 -3.561701E+04  1.255919E+06 -2.660903E-09 -1.485466E-09
        71  16  2.006815E+06  8.260604E+06  1.928720E+06  1.279242E+06  7.075770E-09 -6.514327E-09
        71  17  1.546838E+06  6.055996E+06  1.375473E+06  7.288586E+05  7.769192E-09 -9.229866E-09
        71  18  1.035839E+06  3.850594E+06  8.923420E+05  1.319098E+06  5.538799E-09 -4.563234E-09
        71  19 -2.191945E+06 -8.599099E+06 -2.203874E+06  1.235505E+06  9.186786E+04  2.835054E+05
        71  20 -1.517948E+06 -6.382116E+06 -1.504325E+06  6.432691E+05  2.470870E+05  8.467525E+04
        71  21 -9.537033E+05 -4.224273E+06 -9.645752E+05  1.193063E+06  1.718722E+05 -1.122956E+05
        71  22 -8.993564E+04 -2.016539E+05 -1.350259E+05  1.257337E+06  8.971768E+04  8.986645E+04
        71  23  1.583601E+04 -1.809270E+05 -6.307543E+04  6.859158E+05  2.465304E+05  5.460050E+04
        71  24  4.164897E+04 -1.943887E+05 -3.555932E+04  1.255922E+06  1.739158E+05  2.189736E+04
        71  25  2.006827E+06  8.260618E+06  1.928755E+06  1.279234E+06  8.757069E+04 -1.064221E+05
        71  26  1.546903E+06  6.056013E+06  1.375588E+06  7.288633E+05  2.459730E+05  2.422282E+04
        71  27  1.035879E+06  3.850628E+06  8.924460E+05  1.319121E+06  1.759793E+05  1.569587E+05
        72   1 -4.468621E+05 -2.123019E+06 -4.752612E+05  1.239458E+06 -8.137494E+04  4.888638E+04
        72   2  8.682787E+04  8.788772E+04  4.189021E+04  6.870004E+05  1.210649E+04  5.641986E+04
        72   3  6.381935E+05  2.265887E+06  5.487057E+05  1.283331E+06  1.049600E+05  6.403306E+04
        72   4  2.910573E+04 -1.920193E+05 -3.032064E+04  1.257998E+06 -8.247364E+04 -1.846561E+04
        72   5  2.246716E+04 -1.734579E+05 -1.821602E+04  6.835743E+05  1.103531E+04 -1.056190E+04
        72   6  3.376288E+04 -1.923256E+05 -1.643927E+04  1.257914E+06  1.038996E+05 -2.608245E+03
        72   7  5.048153E+05  1.742448E+06  4.143895E+05  1.276578E+06 -8.357447E+04 -8.602594E+04
        72   8 -4.189588E+04 -4.347307E+05 -7.830990E+04  6.801495E+05  9.964626E+03 -7.751568E+04
        72   9 -5.710863E+05 -2.644948E+06 -5.819674E+05  1.232569E+06  1.028423E+05 -6.898847E+04
        72  10 -4.468699E+05 -2.123024E+06 -4.752782E+05  1.239461E+06  5.348176E-09 -1.397884E-08
        72  11  8.682686E+04  8.788427E+04  4.188396E+04  6.869998E+05 -1.716707E-10 -6.566301E-09
        72  12  6.381806E+05  2.265880E+06  5.486774E+05  1.283326E+06  3.030286E-09  1.298252E-09
        72  13  2.909834E+04 -1.920215E+05 -3.033405E+04  1.257996E+06 -1.156312E-08 -2.333440E-09
        72  14  2.246700E+04 -1.734581E+05 -1.821645E+04  6.835744E+05 -9.724446E-09 -2.865957E-10
        72  15  3.375128E+04 -1.923285E+05 -1.645957E+04  1.257914E+06 -8.298174E-09 -1.060078E-09
        72  16  5.048058E+05  1.742439E+06  4.143626E+05  1.276573E+06 -1.853234E-09  1.455256E-08
        72  17 -4.189761E+04 -4.347372E+05 -7.832139E+04  6.801501E+05  1.584669E-09  5.907252E-09
        72  18 -5.710989E+05 -2.644956E+06 -5.819963E+05  1.232575E+06 -3.216048E-09 -2.951985E-09
        72  19 -4.468621E+05 -2.123019E+06 -4.752612E+05  1.239458E+06  8.137494E+04 -4.888638E+04
        72  20  8.682787E+04  8.788772E+04  4.189021E+04  6.870004E+05 -1.210649E+04 -5.641986E+04
        72  21  6.381935E+05  2.265887E+06  5.487057E+05  1.283331E+06 -1.049600E+05 -6.403306E+04
        72  22  2.910573E+04 -1.920193E+05 -3.032064E+04  1.257998E+06  8.247364E+04  1.846561E+04
        72  23  2.246716E+04 -1.734579E+05 -1.821602E+04  6.835743E+05 -1.103531E+04  1.056190E+04
        72  24  3.376288E+04 -1.923256E+05 -1.643927E+04  1.257914E+06 -1.038996E+05  2.608245E+03
        72  25  5.048153E+05  1.742448E+06  4.143895E+05  1.276578E+06  8.357447E+04  8.602594E+04
        72  26 -4.189588E+04 -4.347307E+05 -7.830990E+04  6.801495E+05 -9.964626E+03  7.751568E+04
        72  27 -5.710863E+05 -2.644948E+06 -5.819674E+05  1.232569E+06 -1.028423E+05  6.898847E+04
        73   1  1.158125E+06  4.381200E+06  1.032606E+06  1.312878E+06  1.987453E+05  1.362737E+05
        73   2  1.668051E+06  6.571854E+06  1.534434E+06  7.407044E+05  2.665445E+05 -2.644605E+04
        73   3  2.209166E+06  8.791379E+06  2.147282E+06  1.308143E+06  9.348476E+04 -1.872245E+05
        73   4  3.580849E+04 -1.889396E+05 -1.508791E+04  1.255951E+06  1.967050E+05 -1.945646E+03
        73   5  8.430497E+03 -1.899518E+05 -2.456097E+04  6.860074E+05  2.671892E+05  1.014189E+04
        73   6 -1.776809E+04 -1.967880E+05 -4.361182E+04  1.256467E+06  9.564424E+04  2.475548E+04
        73   7 -1.087946E+06 -4.739779E+06 -1.064086E+06  1.199353E+06  1.946817E+05 -1.391612E+05
        73   8 -1.654380E+06 -6.909753E+06 -1.586592E+06  6.317582E+05  2.678318E+05  4.633686E+04
        73   9 -2.250616E+06 -9.111847E+06 -2.240213E+06  1.205286E+06  9.778706E+04  2.337038E+05
        73  10  1.158078E+06  4.381169E+06  1.032498E+06  1.312857E+06  8.416642E-09  5.915043E-10
        73  11  1.667975E+06  6.571834E+06  1.534300E+06  7.407101E+05  1.592495E-09 -3.240362E-10
        73  12  2.209147E+06  8.791339E+06  2.147201E+06  1.308157E+06 -2.416571E-09 -2.172340E-09
        73  13  3.576694E+04 -1.889499E+05 -1.516063E+04  1.255952E+06  4.291729E-09 -1.684392E-09
        73  14  8.353819E+03 -1.899711E+05 -2.469529E+04  6.860052E+05  1.740955E-10 -1.134726E-10
        73  15 -1.777807E+04 -1.967911E+05 -4.363014E+04  1.256465E+06 -9.641198E-10 -7.154330E-10
        73  16 -1.087992E+06 -4.739811E+06 -1.064194E+06  1.199375E+06 -1.287797E-09  2.646358E-10
        73  17 -1.654458E+06 -6.909775E+06 -1.586731E+06  6.317482E+05  5.325368E-09 -5.853657E-10
        73  18 -2.250641E+06 -9.111909E+06 -2.240335E+06  1.205268E+06  4.369874E-10  1.139217E-09
        73  19  1.158125E+06  4.381200E+06  1.032606E+06  1.312878E+06 -1.987453E+05 -1.362737E+05
        73  20  1.668051E+06  6.571854E+06  1.534434E+06  7.407044E+05 -2.665445E+05  2.644605E+04
        73  21  2.209166E+06  8.791379E+06  2.147282E+06  1.308143E+06 -9.348476E+04  1.872245E+05
        73  22  3.580849E+04 -1.889396E+05 -1.508791E+04  1.255951E+06 -1.967050E+05  1.945646E+03
        73  23  8.430497E+03 -1.899518E+05 -2.456097E+04  6.860074E+05 -2.671892E+05 -1.014189E+04
        73  24 -1.776809E+04 -1.967880E+05 -4.361182E+04  1.256467E+06 -9.564424E+04 -2.475548E+04
        73  25 -1.087946E+06 -4.739779E+06 -1.064086E+06  1.199353E+06 -1.946817E+05  1.391612E+05
        73  26 -1.654380E+06 -6.909753E+06 -1.586592E+06  6.317582E+05 -2.678318E+05 -4.633686E+04
        73  27 -2.250616E+06 -9.111847E+06 -2.240213E+06  1.205286E+06 -9.778706E+04 -2.337038E+05
        74   1  9.570956E+06  2.119470E+06  2.129016E+06  8.643244E+05  3.115804E+05 -9.135052E+04
        74   2  8.044901E+06  1.596340E+06  1.588506E+06  4.619078E+05  1.192897E+05 -2.625716E+05
        74   3  6.619301E+06  1.248162E+06  1.220923E+06  8.199399E+05 -7.166443E+04 -2.230627E+05
        74   4  1.474594E+06  1.174865E+05  1.602770E+05  8.377483E+05  1.087381E+05 -9.051440E+04
        74   5  1.440907E+06 -2.085294E+04  6.968842E+04  4.570548E+05  7.065201E+04 -2.626601E+05
        74   6  1.479753E+06 -9.721731E+03  4.665502E+04  8.372439E+05  3.343715E+04 -2.230969E+05
        74   7 -6.562534E+06 -1.889268E+06 -1.813050E+06  8.115458E+05 -9.150389E+04 -8.965720E+04
        74   8 -5.123118E+06 -1.641077E+06 -1.452005E+06  4.522611E+05  2.251944E+04 -2.627490E+05
        74   9 -3.635492E+06 -1.269425E+06 -1.129299E+06  8.543839E+05  1.376822E+05 -2.231252E+05
        74  10  9.570851E+06  2.119436E+06  2.128820E+06  8.643472E+05  4.119652E-09 -1.706112E-09
        74  11  8.044867E+06  1.596262E+06  1.588350E+06  4.619329E+05 -7.424022E-09 -7.919842E-10
        74  12  6.619283E+06  1.248107E+06  1.220820E+06  8.199271E+05 -2.242190E-09  2.688413E-09
        74  13  1.474579E+06  1.174745E+05  1.602394E+05  8.377563E+05 -8.074473E-11  7.803626E-10
        74  14  1.440883E+06 -2.092843E+04  6.954926E+04  4.570698E+05 -2.497827E-10 -1.261478E-09
        74  15  1.479739E+06 -9.775528E+03  4.655928E+04  8.372499E+05 -4.350154E-09  1.499276E-09
        74  16 -6.562545E+06 -1.889279E+06 -1.813081E+06  8.115391E+05 -5.726202E-09 -2.502146E-09
        74  17 -5.123137E+06 -1.641151E+06 -1.452136E+06  4.522659E+05 -1.072787E-10 -1.332479E-10
        74  18 -3.635526E+06 -1.269483E+06 -1.129429E+06  8.544087E+05  7.889962E-09  2.890589E-10
        74  19  9.570956E+06  2.119470E+06  2.129016E+06  8.643244E+05 -3.115804E+05  9.135052E+04
        74  20  8.044901E+06  1.596340E+06  1.588506E+06  4.619078E+05 -1.192897E+05  2.625716E+05
        74  21  6.619301E+06  1.248162E+06  1.220923E+06  8.199399E+05  7.166443E+04  2.230627E+05
        74  22  1.474594E+06  1.174865E+05  1.602770E+05  8.377483E+05 -1.087381E+05  9.051440E+04
        74  23  1.440907E+06 -2.085294E+04  6.968842E+04  4.570548E+05 -7.065201E+04  2.626601E+05
        74  24  1.479753E+06 -9.721731E+03  4.665502E+04  8.372439E+05 -3.343715E+04  2.230969E+05
        74  25 -6.562534E+06 -1.889268E+06 -1.813050E+06  8.115458E+05  9.150389E+04  8.965720E+04
        74  26 -5.123118E+06 -1.641077E+06 -1.452005E+06  4.522611E+05 -2.251944E+04  2.627490E+05
        74  27 -3.635492E+06 -1.269425E+06 -1.129299E+06  8.543839E+05 -1.376822E+05  2.231252E+05
        75   1  5.204063E+06  9.238564E+05  8.947538E+05  8.443624E+05 -1.327571E+04 -1.563923E+05
        75   2  3.745737E+06  5.593697E+05  5.460249E+05  4.616004E+05 -3.213496E+04 -9.704993E+04
        75   3  2.295406E+06  2.087990E+05  2.127165E+05  8.384330E+05 -5.120242E+04 -2.787742E+04
        75   4  1.467720E+06  8.032934E+03  3.759795E+04  8.371133E+05  2.607685E+04 -1.563787E+05
        75   5  1.466167E+06  2.650668E+02  2.329798E+04  4.572363E+05  1.435542E+04 -9.695158E+04
        75   6  1.469471E+06  5.349308E+03  1.964393E+04  8.371225E+05  2.382423E+03 -2.767066E+04
        75   7 -2.255782E+06 -9.087592E+05 -8.204715E+05  8.298935E+05  6.519567E+04 -1.563658E+05
        75   8 -8.086112E+05 -5.591993E+05 -4.997628E+05  4.528834E+05  6.067724E+04 -9.685366E+04
        75   9  6.441677E+05 -1.981471E+05 -1.734642E+05  8.358128E+05  5.589665E+04 -2.746395E+04
        75  10  5.204056E+06  9.238301E+05  8.947075E+05  8.443607E+05 -2.889867E-09  3.716363E-09
        75  11  3.745733E+06  5.593593E+05  5.460053E+05  4.615979E+05 -5.594284E-09  3.042515E-09
        75  12  2.295403E+06  2.087974E+05  2.127101E+05  8.384318E+05 -2.208451E-09  3.036167E-09
        75  13  1.467712E+06  8.006467E+03  3.755067E+04  8.371166E+05  4.165195E-09  2.359694E-09
        75  14  1.466165E+06  2.549098E+02  2.327991E+04  4.572374E+05  7.099377E-09  5.623594E-09
        75  15  1.469471E+06  5.348484E+03  1.964248E+04  8.371226E+05  6.486253E-09  1.571506E-09
        75  16 -2.255793E+06 -9.087866E+05 -8.205256E+05  8.299017E+05  7.423367E-10  2.310530E-09
        75  17 -8.086177E+05 -5.592104E+05 -4.997874E+05  4.528881E+05  1.297357E-09  4.094762E-09
        75  18  6.441641E+05 -1.981487E+05 -1.734715E+05  8.358140E+05 -7.493968E-09  3.077298E-10
        75  19  5.204063E+06  9.238564E+05  8.947538E+05  8.443624E+05  1.327571E+04  1.563923E+05
        75  20  3.745737E+06  5.593697E+05  5.460249E+05  4.616004E+05  3.213496E+04  9.704993E+04
        75  21  2.295406E+06  2.087990E+05  2.127165E+05  8.384330E+05  5.120242E+04  2.787742E+04
        75  22  1.467720E+06  8.032934E+03  3.759795E+04  8.371133E+05 -2.607685E+04  1.563787E+05
        75  23  1.466167E+06  2.650668E+02  2.329798E+04  4.572363E+05 -1.435542E+04  9.695158E+04
        75  24  1.469471E+06  5.349308E+03  1.964393E+04  8.371225E+05 -2.382423E+03  2.767066E+04
        75  25 -2.255782E+06 -9.087592E+05 -8.204715E+05  8.298935E+05 -6.519567E+04  1.563658E+05
        75  26 -8.086112E+05 -5.591993E+05 -4.997628E+05  4.528834E+05 -6.067724E+04  9.685366E+04
        75  27  6.441677E+05 -1.981471E+05 -1.734642E+05  8.358128E+05 -5.589665E+04  2.746395E+04
        76   1  9.080927E+05 -1.331878E+05 -1.130156E+05  8.363603E+05 -5.480702E+04  1.609449E+04
        76   2 -5.439612E+05 -4.937501E+05 -4.397057E+05  4.531736E+05 -5.945039E+04  8.548975E+04
        76   3 -1.991458E+06 -8.432665E+05 -7.612025E+05  8.296576E+05 -6.385889E+04  1.453314E+05
        76   4  1.469323E+06  5.407574E+03  1.945848E+04  8.370672E+05 -1.385673E+03  1.630404E+04
        76   5  1.466656E+06  6.756614E+02  2.257697E+04  4.573053E+05 -1.298471E+04  8.560013E+04
        76   6  1.467776E+06  8.315963E+03  3.578947E+04  8.370568E+05 -2.435923E+04  1.453639E+05
        76   7  2.030849E+06  1.439820E+05  1.519216E+05  8.377742E+05  5.208364E+04  1.651359E+04
        76   8  3.481015E+06  4.948207E+05  4.846007E+05  4.614466E+05  3.363037E+04  8.571091E+04
        76   9  4.938091E+06  8.590628E+05  8.319941E+05  8.444845E+05  1.535956E+04  1.453972E+05
        76  10  9.080894E+05 -1.331889E+05 -1.130218E+05  8.363610E+05 -7.083144E-09  4.320783E-09
        76  11 -5.439670E+05 -4.937590E+05 -4.397261E+05  4.531777E+05 -8.223613E-10  6.173508E-10
        76  12 -1.991468E+06 -8.432903E+05 -7.612500E+05  8.296651E+05  4.203400E-09 -7.801852E-10
        76  13  1.469323E+06  5.407288E+03  1.945798E+04  8.370672E+05 -8.606524E-09  1.243667E-09
        76  14  1.466653E+06  6.677414E+02  2.256287E+04  4.573062E+05  8.312093E-09 -1.124728E-09
        76  15  1.467769E+06  8.293091E+03  3.574860E+04  8.370597E+05  4.922284E-09 -3.620853E-09
        76  16  2.030846E+06  1.439810E+05  1.519160E+05  8.377735E+05  1.664238E-10 -1.438703E-09
        76  17  3.481012E+06  4.948125E+05  4.845848E+05  4.614442E+05  2.759998E-09  8.875440E-10
        76  18  4.938085E+06  8.590400E+05  8.319539E+05  8.444827E+05  1.037560E-09 -3.026103E-09
        76  19  9.080927E+05 -1.331878E+05 -1.130156E+05  8.363603E+05  5.480702E+04 -1.609449E+04
        76  20 -5.439612E+05 -4.937501E+05 -4.397057E+05  4.531736E+05  5.945039E+04 -8.548975E+04
        76  21 -1.991458E+06 -8.432665E+05 -7.612025E+05  8.296576E+05  6.385889E+04 -1.453314E+05
        76  22  1.469323E+06  5.407574E+03  1.945848E+04  8.370672E+05  1.385673E+03 -1.630404E+04
        76  23  1.466656E+06  6.756614E+02  2.257697E+04  4.573053E+05  1.298471E+04 -8.560013E+04
        76  24  1.467776E+06  8.315963E+03  3.578947E+04  8.370568E+05  2.435923E+04 -1.453639E+05
        76  25  2.030849E+06  1.439820E+05  1.519216E+05  8.377742E+05 -5.208364E+04 -1.651359E+04
        76  26  3.481015E+06  4.948207E+05  4.846007E+05  4.614466E+05 -3.363037E+04 -8.571091E+04
        76  27  4.938091E+06  8.590628E+05  8.319941E+05  8.444845E+05 -1.535956E+04 -1.453972E+05
        77   1 -3.371263E+06 -1.202708E+06 -1.070738E+06  8.521243E+05 -1.340054E+05  2.112740E+05
        77   2 -4.855518E+06 -1.573619E+06 -1.394084E+06  4.508050E+05 -2.148440E+04  2.518690E+05
        77   3 -6.295805E+06 -1.828639E+06 -1.756496E+06  8.104420E+05  9.003851E+04  8.631308E+04
        77   4  1.479101E+06 -8.420314E+03  4.424362E+04  8.371716E+05 -3.137990E+04  2.112897E+05
        77   5  1.442900E+06 -1.918579E+04  6.589229E+04  4.571535E+05 -6.657486E+04  2.517697E+05
        77   6  1.474155E+06  1.111856E+05  1.511234E+05  8.375864E+05 -1.025018E+05  8.703468E+04
        77   7  6.351311E+06  1.184232E+06  1.157712E+06  8.220801E+05  7.204483E+04  2.113002E+05
        77   8  7.778107E+06  1.532457E+06  1.523221E+06  4.635705E+05 -1.121193E+05  2.516704E+05
        77   9  9.299461E+06  2.046552E+06  2.054453E+06  8.650952E+05 -2.974589E+05  8.773621E+04
        77  10 -3.371294E+06 -1.202761E+06 -1.070856E+06  8.521472E+05 -2.058068E-09 -1.625389E-09
        77  11 -4.855536E+06 -1.573687E+06 -1.394205E+06  4.508094E+05 -4.289989E-09 -1.255809E-09
        77  12 -6.295816E+06 -1.828649E+06 -1.756525E+06  8.104357E+05 -7.397781E-10 -1.689535E-09
        77  13  1.479088E+06 -8.468563E+03  4.415778E+04  8.371770E+05  4.583285E-09 -1.895509E-09
        77  14  1.442878E+06 -1.925511E+04  6.576472E+04  4.571670E+05 -6.905552E-09  1.550349E-09
        77  15  1.474142E+06  1.111747E+05  1.510894E+05  8.375936E+05  4.748562E-10 -6.031298E-10
        77  16  6.351293E+06  1.184183E+06  1.157618E+06  8.220679E+05  4.017384E-09 -2.831344E-09
        77  17  7.778076E+06  1.532386E+06  1.523078E+06  4.635931E+05 -1.464266E-09  2.832574E-09
        77  18  9.299365E+06  2.046520E+06  2.054275E+06  8.651161E+05  3.450914E-09  3.942308E-10
        77  19 -3.371263E+06 -1.202708E+06 -1.070738E+06  8.521243E+05  1.340054E+05 -2.112740E+05
        77  20 -4.855518E+06 -1.573619E+06 -1.394084E+06  4.508050E+05  2.148440E+04 -2.518690E+05
        77  21 -6.295805E+06 -1.828639E+06 -1.756496E+06  8.104420E+05 -9.003851E+04 -8.631308E+04
        77  22  1.479101E+06 -8.420314E+03  4.424362E+04  8.371716E+05  3.137990E+04 -2.112897E+05
        77  23  1.442900E+06 -1.918579E+04  6.589229E+04  4.571535E+05  6.657486E+04 -2.517697E+05
        77  24  1.474155E+06  1.111856E+05  1.511234E+05  8.375864E+05  1.025018E+05 -8.703468E+04
        77  25  6.351311E+06  1.184232E+06  1.157712E+06  8.220801E+05 -7.204483E+04 -2.113002E+05
        77  26  7.778107E+06  1.532457E+06  1.523221E+06  4.635705E+05  1.121193E+05 -2.516704E+05
        77  27  9.299461E+06  2.046552E+06  2.054453E+06  8.650952E+05  2.974589E+05 -8.773621E+04
        78   1 -2.187599E+06 -8.393565E+06 -2.202287E+06  1.218479E+06 -9.107782E+04 -2.966293E+05
        78   2 -1.507291E+06 -6.226275E+06 -1.504417E+06  6.336440E+05 -2.456354E+05 -9.469817E+04
        78   3 -9.575995E+05 -4.122070E+06 -9.732196E+05  1.163644E+06 -1.726462E+05  1.055297E+05
        78   4 -1.093086E+05 -8.849202E+04 -1.567017E+05  1.228943E+06 -8.904999E+04 -1.046133E+05
        78   5  1.603396E+04 -6.585719E+04 -7.294250E+04  6.710346E+05 -2.450920E+05 -6.417252E+04
        78   6  4.027244E+04 -8.145475E+04 -4.191123E+04  1.227398E+06 -1.745701E+05 -2.613480E+04
        78   7  1.963853E+06  8.279973E+06  1.883931E+06  1.239331E+06 -8.703150E+04  9.000160E+04
        78   8  1.536679E+06  6.129835E+06  1.355982E+06  7.086773E+05 -2.445482E+05 -3.334119E+04
        78   9  1.037017E+06  3.974370E+06  8.883787E+05  1.291502E+06 -1.765142E+05 -1.586534E+05
        78  10 -2.187632E+06 -8.393663E+06 -2.202470E+06  1.218457E+06 -4.430247E-09 -5.304935E-09
        78  11 -1.507358E+06 -6.226301E+06 -1.504548E+06  6.336252E+05  4.294365E-09  9.715565E-09
        78  12 -9.576346E+05 -4.122090E+06 -9.732969E+05  1.163659E+06  1.141974E-08  1.364197E-08
        78  13 -1.093200E+05 -8.850587E+04 -1.567371E+05  1.228935E+06  2.869134E-09 -4.322812E-09
        78  14  1.596837E+04 -6.587771E+04 -7.306303E+04  6.710220E+05  1.421902E-09  2.843067E-10
        78  15  4.023955E+04 -8.146365E+04 -4.196974E+04  1.227394E+06  9.014984E-09 -4.539721E-09
        78  16  1.963842E+06  8.279962E+06  1.883902E+06  1.239337E+06 -2.104191E-09  6.508970E-09
        78  17  1.536614E+06  6.129817E+06  1.355867E+06  7.086708E+05 -8.447891E-09 -7.966533E-09
        78  18  1.036977E+06  3.974335E+06  8.882734E+05  1.291479E+06  1.029382E-08 -1.603771E-08
        78  19 -2.187599E+06 -8.393565E+06 -2.202287E+06  1.218479E+06  9.107782E+04  2.966293E+05
        78  20 -1.507291E+06 -6.226275E+06 -1.504417E+06  6.336440E+05  2.456354E+05  9.469817E+04
        78  21 -9.575995E+05 -4.122070E+06 -9.732196E+05  1.163644E+06  1.726462E+05 -1.055297E+05
        78  22 -1.093086E+05 -8.849202E+04 -1.567017E+05  1.228943E+06  8.904999E+04  1.046133E+05
        78  23  1.603396E+04 -6.585719E+04 -7.294250E+04  6.710346E+05  2.450920E+05  6.417252E+04
        78  24  4.027244E+04 -8.145475E+04 -4.191123E+04  1.227398E+06  1.745701E+05  2.613480E+04
        78  25  1.963853E+06  8.279973E+06  1.883931E+06  1.239331E+06  8.703150E+04 -9.000160E+04
        78  26  1.536679E+06  6.129835E+06  1.355982E+06  7.086773E+05  2.445482E+05  3.334119E+04
        78  27  1.037017E+06  3.974370E+06  8.883787E+05  1.291502E+06  1.765142E+05  1.586534E+05
        79   1 -4.655565E+05 -2.070347E+06 -4.947450E+05  1.211452E+06 -8.399487E+04  4.391301E+04
        79   2  5.765343E+04  8.717528E+04  1.208636E+04  6.709588E+05  7.132622E+03  5.350384E+04
        79   3  5.947128E+05  2.212680E+06  5.068412E+05  1.251568E+06  9.790541E+04  6.315796E+04
        79   4  2.546635E+04 -7.797169E+04 -3.566489E+04  1.229402E+06 -8.502387E+04 -2.163693E+04
        79   5  2.142521E+04 -5.991094E+04 -2.174287E+04  6.688182E+05  6.121767E+03 -1.186231E+04
        79   6  3.151209E+04 -7.813943E+04 -1.976560E+04  1.229304E+06  9.689676E+04 -2.060170E+03
        79   7  5.162138E+05  1.918093E+06  4.231679E+05  1.247393E+06 -8.605481E+04 -8.739605E+04
        79   8 -1.480222E+04 -2.069680E+05 -5.555748E+04  6.666781E+05  5.111233E+03 -7.721310E+04
        79   9 -5.320519E+05 -2.364103E+06 -5.467036E+05  1.207099E+06  9.589071E+04 -6.704018E+04
        79  10 -4.655646E+05 -2.070351E+06 -4.947619E+05  1.211455E+06  9.888075E-09 -1.953270E-09
        79  11  5.765261E+04  8.717219E+04  1.208089E+04  6.709585E+05 -1.832673E-09  8.742300E-09
        79  12  5.947014E+05  2.212673E+06  5.068158E+05  1.251563E+06 -6.298659E-10  4.574829E-09
        79  13  2.545846E+04 -7.797413E+04 -3.567934E+04  1.229401E+06  5.903481E-09 -7.801084E-09
        79  14  2.142513E+04 -5.991110E+04 -2.174321E+04  6.688182E+05  4.217735E-10  2.069634E-10
        79  15  3.150201E+04 -7.814196E+04 -1.978325E+04  1.229304E+06 -1.220573E-09 -4.748196E-09
        79  16  5.162039E+05  1.918083E+06  4.231398E+05  1.247387E+06  4.598540E-09  3.556280E-09
        79  17 -1.480385E+04 -2.069744E+05 -5.556873E+04  6.666784E+05 -6.709894E-09 -6.752035E-09
        79  18 -5.320630E+05 -2.364110E+06 -5.467294E+05  1.207105E+06  1.733776E-09 -7.031665E-09
        79  19 -4.655565E+05 -2.070347E+06 -4.947450E+05  1.211452E+06  8.399487E+04 -4.391301E+04
        79  20  5.765343E+04  8.717528E+04  1.208636E+04  6.709588E+05 -7.132622E+03 -5.350384E+04
        79  21  5.947128E+05  2.212680E+06  5.068412E+05  1.251568E+06 -9.790541E+04 -6.315796E+04
        79  22  2.546635E+04 -7.797169E+04 -3.566489E+04  1.229402E+06  8.502387E+04  2.163693E+04
        79  23  2.142521E+04 -5.991094E+04 -2.174287E+04  6.688182E+05 -6.121767E+03  1.186231E+04
        79  24  3.151209E+04 -7.813943E+04 -1.976560E+04  1.229304E+06 -9.689676E+04  2.060170E+03
        79  25  5.162138E+05  1.918093E+06  4.231679E+05  1.247393E+06  8.605481E+04  8.739605E+04
        79  26 -1.480222E+04 -2.069680E+05 -5.555748E+04  6.666781E+05 -5.111233E+03  7.721310E+04
        79  27 -5.320519E+05 -2.364103E+06 -5.467036E+05  1.207099E+06 -9.589071E+04  6.704018E+04
        80   1  1.103044E+06  4.276032E+06  9.789898E+05  1.281615E+06  1.891173E+05  1.335343E+05
        80   2  1.602107E+06  6.416488E+06  1.467938E+06  7.208898E+05  2.558146E+05 -2.080888E+04
        80   3  2.121160E+06  8.581240E+06  2.059652E+06  1.272909E+06  8.999819E+04 -1.733116E+05
        80   4  3.441126E+04 -7.546525E+04 -1.864353E+04  1.227500E+06  1.871888E+05 -7.074248E+02
        80   5  8.945310E+03 -7.456291E+04 -2.873337E+04  6.710396E+05  2.564065E+05  1.363954E+04
        80   6 -2.554144E+04 -8.282239E+04 -5.247737E+04  1.228072E+06  9.202522E+04  3.036748E+04
        80   7 -1.035525E+06 -4.409464E+06 -1.017457E+06  1.173685E+06  1.852761E+05 -1.340208E+05
        80   8 -1.587156E+06 -6.526905E+06 -1.528203E+06  6.215779E+05  2.569967E+05  4.773257E+04
        80   9 -2.177739E+06 -8.678949E+06 -2.169911E+06  1.183633E+06  9.403965E+04  2.312376E+05
        80  10  1.103001E+06  4.276003E+06  9.788896E+05  1.281595E+06  2.914289E-09 -5.948590E-09
        80  11  1.602036E+06  6.416470E+06  1.467815E+06  7.208941E+05  6.895748E-09 -1.668505E-09
        80  12  2.121143E+06  8.581206E+06  2.059581E+06  1.272922E+06  7.625567E-10 -4.562606E-09
        80  13  3.437363E+04 -7.547465E+04 -1.870937E+04  1.227500E+06  7.324027E-09 -7.178881E-09
        80  14  8.874669E+03 -7.458076E+04 -2.885724E+04  6.710368E+05  5.926981E-09  6.047743E-11
        80  15 -2.555078E+04 -8.282564E+04 -5.249499E+04  1.228070E+06 -3.096309E-10 -2.637785E-09
        80  16 -1.035566E+06 -4.409493E+06 -1.017555E+06  1.173705E+06  2.993811E-09  7.286434E-09
        80  17 -1.587227E+06 -6.526926E+06 -1.528331E+06  6.215680E+05  8.884730E-10  2.907033E-09
        80  18 -2.177763E+06 -8.679009E+06 -2.170029E+06  1.183615E+06 -2.550721E-09  3.469351E-09
        80  19  1.103044E+06  4.276032E+06  9.789898E+05  1.281615E+06 -1.891173E+05 -1.335343E+05
        80  20  1.602107E+06  6.416488E+06  1.467938E+06  7.208898E+05 -2.558146E+05  2.080888E+04
        80  21  2.121160E+06  8.581240E+06  2.059652E+06  1.272909E+06 -8.999819E+04  1.733116E+05
        80  22  3.441126E+04 -7.546525E+04 -1.864353E+04  1.227500E+06 -1.871888E+05  7.074248E+02
        80  23  8.945310E+03 -7.456291E+04 -2.873337E+04  6.710396E+05 -2.564065E+05 -1.363954E+04
        80  24 -2.554144E+04 -8.282239E+04 -5.247737E+04  1.228072E+06 -9.202522E+04 -3.036748E+04
        80  25 -1.035525E+06 -4.409464E+06 -1.017457E+06  1.173685E+06 -1.852761E+05  1.340208E+05
        80  26 -1.587156E+06 -6.526905E+06 -1.528203E+06  6.215779E+05 -2.569967E+05 -4.773257E+04
        80  27 -2.177739E+06 -8.678949E+06 -2.169911E+06  1.183633E+06 -9.403965E+04 -2.312376E+05
        81   1  8.924417E+06  1.956448E+06  1.964315E+06  8.029151E+05  2.871125E+05 -8.412060E+04
        81   2  7.512533E+06  1.472301E+06  1.464544E+06  4.290511E+05  1.096927E+05 -2.419800E+05
        81   3  6.190827E+06  1.149030E+06  1.123872E+06  7.598534E+05 -6.660071E+04 -2.052722E+05
        81   4  1.457336E+06  1.093000E+05  1.478511E+05  7.762387E+05  1.002493E+05 -8.341804E+04
        81   5  1.427271E+06 -1.835194E+04  6.455784E+04  4.235099E+05  6.504247E+04 -2.420573E+05
        81   6  1.461748E+06 -8.703437E+03  4.308488E+04  7.758152E+05  3.056771E+04 -2.052969E+05
        81   7 -5.959330E+06 -1.741909E+06 -1.672518E+06  7.499034E+05 -8.440230E+04 -8.269659E+04
        81   8 -4.624039E+06 -1.511580E+06 -1.337872E+06  4.180286E+05  2.081994E+04 -2.421346E+05
        81   9 -3.246746E+06 -1.167978E+06 -1.039130E+06  7.916391E+05  1.270072E+05 -2.053166E+05
        81  10  8.924328E+06  1.956419E+06  1.964149E+06  8.029344E+05 -3.384455E-09  1.913677E-09
        81  11  7.512505E+06  1.472235E+06  1.464411E+06  4.290724E+05 -1.239316E-08  5.129411E-09
        81  12  6.190811E+06  1.148984E+06  1.123784E+06  7.598424E+05 -1.115476E-08  5.313263E-09
        81  13  1.457324E+06  1.092899E+05  1.478192E+05  7.762454E+05 -6.229953E-12  9.480802E-10
        81  14  1.427251E+06 -1.841604E+04  6.443968E+04  4.235226E+05  2.335662E-09  1.342434E-09
        81  15  1.461736E+06 -8.748988E+03  4.300384E+04  7.758203E+05 -4.439991E-09  3.299308E-09
        81  16 -5.959339E+06 -1.741918E+06 -1.672544E+06  7.498978E+05 -4.700250E-09  2.726942E-09
        81  17 -4.624055E+06 -1.511643E+06 -1.337983E+06  4.180327E+05  9.527941E-09  2.320773E-09
        81  18 -3.246775E+06 -1.168028E+06 -1.039240E+06  7.916602E+05  1.106084E-08  1.360149E-09
        81  19  8.924417E+06  1.956448E+06  1.964315E+06  8.029151E+05 -2.871125E+05  8.412060E+04
        81  20  7.512533E+06  1.472301E+06  1.464544E+06  4.290511E+05 -1.096927E+05  2.419800E+05
        81  21  6.190827E+06  1.149030E+06  1.123872E+06  7.598534E+05  6.660071E+04  2.052722E+05
        81  22  1.457336E+06  1.093000E+05  1.478511E+05  7.762387E+05 -1.002493E+05  8.341804E+04
        81  23  1.427271E+06 -1.835194E+04  6.455784E+04  4.235099E+05 -6.504247E+04  2.420573E+05
        81  24  1.461748E+06 -8.703437E+03  4.308488E+04  7.758152E+05 -3.056771E+04  2.052969E+05
        81  25 -5.959330E+06 -1.741909E+06 -1.672518E+06  7.499034E+05  8.440230E+04  8.269659E+04
        81  26 -4.624039E+06 -1.511580E+06 -1.337872E+06  4.180286E+05 -2.081994E+04  2.421346E+05
        81  27 -3.246746E+06 -1.167978E+06 -1.039130E+06  7.916391E+05 -1.270072E+05  2.053166E+05
        82   1  4.880279E+06  8.483412E+05  8.217602E+05  7.821826E+05 -1.272807E+04 -1.435831E+05
        82   2  3.529211E+06  5.103621E+05  4.988261E+05  4.274655E+05 -3.030901E+04 -8.854152E+04
        82   3  2.185332E+06  1.852273E+05  1.902405E+05  7.766274E+05 -4.806524E+04 -2.442693E+04
        82   4  1.450942E+06  7.600001E+03  3.487973E+04  7.756889E+05  2.378236E+04 -1.435693E+05
        82   5  1.449484E+06  2.019463E+02  2.185414E+04  4.236825E+05  1.278516E+04 -8.845585E+04
        82   6  1.452423E+06  4.651372E+03  1.875658E+04  7.756976E+05  1.575161E+03 -2.424930E+04
        82   7 -1.967575E+06 -8.339574E+05 -7.527705E+05  7.692199E+05  6.009371E+04 -1.435562E+05
        82   8 -6.262535E+05 -5.102577E+05 -4.553955E+05  4.199086E+05  5.573675E+04 -8.837053E+04
        82   9  7.200128E+05 -1.759612E+05 -1.527547E+05  7.747681E+05  5.115750E+04 -2.407167E+04
        82  10  4.880273E+06  8.483190E+05  8.217211E+05  7.821811E+05 -1.583629E-09  3.396115E-09
        82  11  3.529208E+06  5.103534E+05  4.988096E+05  4.274633E+05 -9.400647E-10 -3.462391E-09
        82  12  2.185329E+06  1.852260E+05  1.902351E+05  7.766265E+05  1.051026E-08 -1.596924E-09
        82  13  1.450936E+06  7.577695E+03  3.483989E+04  7.756917E+05 -2.996581E-10 -3.956025E-10
        82  14  1.449482E+06  1.934937E+02  2.183912E+04  4.236835E+05  2.513162E-09 -3.207030E-09
        82  15  1.452423E+06  4.650740E+03  1.875547E+04  7.756976E+05  3.675033E-09  4.259251E-10
        82  16 -1.967584E+06 -8.339806E+05 -7.528161E+05  7.692269E+05  2.136345E-09 -2.971527E-09
        82  17 -6.262589E+05 -5.102669E+05 -4.554161E+05  4.199126E+05 -1.093785E-09 -7.790608E-09
        82  18  7.200099E+05 -1.759626E+05 -1.527607E+05  7.747691E+05 -3.798235E-09 -1.427891E-09
        82  19  4.880279E+06  8.483412E+05  8.217602E+05  7.821826E+05  1.272807E+04  1.435831E+05
        82  20  3.529211E+06  5.103621E+05  4.988261E+05  4.274655E+05  3.030901E+04  8.854152E+04
        82  21  2.185332E+06  1.852273E+05  1.902405E+05  7.766274E+05  4.806524E+04  2.442693E+04
        82  22  1.450942E+06  7.600001E+03  3.487973E+04  7.756889E+05 -2.378236E+04  1.435693E+05
        82  23  1.449484E+06  2.019463E+02  2.185414E+04  4.236825E+05 -1.278516E+04  8.845585E+04
        82  24  1.452423E+06  4.651372E+03  1.875658E+04  7.756976E+05 -1.575161E+03  2.424930E+04
        82  25 -1.967575E+06 -8.339574E+05 -7.527705E+05  7.692199E+05 -6.009371E+04  1.435562E+05
        82  26 -6.262535E+05 -5.102577E+05 -4.553955E+05  4.199086E+05 -5.573675E+04  8.837053E+04
        82  27  7.200128E+05 -1.759612E+05 -1.527547E+05  7.747681E+05 -5.115750E+04  2.407167E+04
        83   1  8.998371E+05 -1.318084E+05 -1.114009E+05  7.752299E+05 -5.153044E+04  1.632391E+04
        83   2 -4.460725E+05 -4.657545E+05 -4.134802E+05  4.200331E+05 -5.652895E+04  8.062625E+04
        83   3 -1.787422E+06 -7.886698E+05 -7.100274E+05  7.688519E+05 -6.132120E+04  1.360354E+05
        83   4  1.452383E+06  4.600271E+03  1.881300E+04  7.756663E+05 -2.011852E+03  1.650334E+04
        83   5  1.449725E+06  4.105714E+02  2.237608E+04  4.237217E+05 -1.348309E+04  8.071942E+04
        83   6  1.451029E+06  8.469539E+03  3.601805E+04  7.756551E+05 -2.475836E+04  1.360609E+05
        83   7  2.005215E+06  1.409884E+05  1.490150E+05  7.761026E+05  4.755050E+04  1.668273E+04
        83   8  3.348850E+06  4.663261E+05  4.580019E+05  4.274186E+05  2.969325E+04  8.081293E+04
        83   9  4.699191E+06  8.048766E+05  7.813734E+05  7.824835E+05  1.199434E+04  1.360871E+05
        83  10  8.998341E+05 -1.318094E+05 -1.114063E+05  7.752306E+05  1.746751E-09 -1.742051E-09
        83  11 -4.460777E+05 -4.657624E+05 -4.134985E+05  4.200368E+05 -5.507611E-09  5.806926E-10
        83  12 -1.787431E+06 -7.886907E+05 -7.100693E+05  7.688586E+05  1.912524E-09 -9.575668E-10
        83  13  1.452383E+06  4.599977E+03  1.881248E+04  7.756663E+05 -3.171895E-11 -1.156445E-09
        83  14  1.449723E+06  4.035204E+02  2.236349E+04  4.237226E+05  1.716010E-09 -4.650343E-09
        83  15  1.451024E+06  8.449477E+03  3.598207E+04  7.756578E+05  2.686517E-09 -3.398727E-10
        83  16  2.005212E+06  1.409875E+05  1.490103E+05  7.761019E+05 -6.052105E-09 -7.544104E-10
        83  17  3.348847E+06  4.663188E+05  4.579880E+05  4.274166E+05  2.175787E-09 -3.350904E-09
        83  18  4.699186E+06  8.048567E+05  7.813384E+05  7.824822E+05  7.080549E-09  4.410762E-11
        83  19  8.998371E+05 -1.318084E+05 -1.114009E+05  7.752299E+05  5.153044E+04 -1.632391E+04
        83  20 -4.460725E+05 -4.657545E+05 -4.134802E+05  4.200331E+05  5.652895E+04 -8.062625E+04
        83  21 -1.787422E+06 -7.886698E+05 -7.100274E+05  7.688519E+05  6.132120E+04 -1.360354E+05
        83  22  1.452383E+06  4.600271E+03  1.881300E+04  7.756663E+05  2.011852E+03 -1.650334E+04
        83  23  1.449725E+06  4.105714E+02  2.237608E+04  4.237217E+05  1.348309E+04 -8.071942E+04
        83  24  1.451029E+06  8.469539E+03  3.601805E+04  7.756551E+05  2.475836E+04 -1.360609E+05
        83  25  2.005215E+06  1.409884E+05  1.490150E+05  7.761026E+05 -4.755050E+04 -1.668273E+04
        83  26  3.348850E+06  4.663261E+05  4.580019E+05  4.274186E+05 -2.969325E+04 -8.081293E+04
        83  27  4.699191E+06  8.048766E+05  7.813734E+05  7.824835E+05 -1.199434E+04 -1.360871E+05
        84   1 -3.066029E+06 -1.123104E+06 -9.961956E+05  7.915189E+05 -1.270743E+05  1.972404E+05
        84   2 -4.442613E+06 -1.466359E+06 -1.293242E+06  4.159652E+05 -2.545245E+04  2.347302E+05
        84   3 -5.777034E+06 -1.691086E+06 -1.622258E+06  7.454342E+05  7.530550E+04  8.044693E+04
        84   4  1.461966E+06 -8.389473E+03  4.448622E+04  7.757211E+05 -3.175421E+04  1.972488E+05
        84   5  1.427739E+06 -1.793214E+04  6.716267E+04  4.236297E+05 -6.762781E+04  2.346461E+05
        84   6  1.457682E+06  1.145220E+05  1.533786E+05  7.761172E+05 -1.041473E+05  8.108283E+04
        84   7  6.008996E+06  1.104901E+06  1.083849E+06  7.597903E+05  6.425858E+04  1.972522E+05
        84   8  7.330037E+06  1.428072E+06  1.425268E+06  4.313708E+05 -1.101987E+05  2.345618E+05
        84   9  8.740361E+06  1.916268E+06  1.925298E+06  8.071789E+05 -2.856960E+05  8.169829E+04
        84  10 -3.066057E+06 -1.123150E+06 -9.962994E+05  7.915392E+05  3.876217E-09  1.041092E-09
        84  11 -4.442629E+06 -1.466418E+06 -1.293347E+06  4.159700E+05 -3.070650E-09  4.156568E-09
        84  12 -5.777042E+06 -1.691094E+06 -1.622280E+06  7.454293E+05 -4.919479E-09  2.779698E-09
        84  13  1.461955E+06 -8.431562E+03  4.441113E+04  7.757261E+05  4.872132E-09  2.326823E-09
        84  14  1.427719E+06 -1.799254E+04  6.705051E+04  4.236425E+05  7.064180E-09  3.703996E-11
        84  15  1.457669E+06  1.145120E+05  1.533459E+05  7.761240E+05  6.337329E-09  1.832266E-09
        84  16  6.008981E+06  1.104858E+06  1.083769E+06  7.597801E+05  1.388591E-09  2.828693E-09
        84  17  7.330009E+06  1.428009E+06  1.425142E+06  4.313915E+05  6.915546E-09  2.155325E-09
        84  18  8.740273E+06  1.916239E+06  1.925134E+06  8.071977E+05 -5.139748E-09  2.360436E-09
        84  19 -3.066029E+06 -1.123104E+06 -9.961956E+05  7.915189E+05  1.270743E+05 -1.972404E+05
        84  20 -4.442613E+06 -1.466359E+06 -1.293242E+06  4.159652E+05  2.545245E+04 -2.347302E+05
        84  21 -5.777034E+06 -1.691086E+06 -1.622258E+06  7.454342E+05 -7.530550E+04 -8.044693E+04
        84  22  1.461966E+06 -8.389473E+03  4.448622E+04  7.757211E+05  3.175421E+04 -1.972488E+05
        84  23  1.427739E+06 -1.793214E+04  6.716267E+04  4.236297E+05  6.762781E+04 -2.346461E+05
        84  24  1.457682E+06  1.145220E+05  1.533786E+05  7.761172E+05  1.041473E+05 -8.108283E+04
        84  25  6.008996E+06  1.104901E+06  1.083849E+06  7.597903E+05 -6.425858E+04 -1.972522E+05
        84  26  7.330037E+06  1.428072E+06  1.425268E+06  4.313708E+05  1.101987E+05 -2.345618E+05
        84  27  8.740361E+06  1.916268E+06  1.925298E+06  8.071789E+05  2.856960E+05 -8.169829E+04
        85   1 -2.194934E+06 -8.373435E+06 -2.208227E+06  1.204862E+06 -9.137547E+04 -2.990714E+05
        85   2 -1.519761E+06 -6.238676E+06 -1.516697E+06  6.265687E+05 -2.476192E+05 -9.643348E+04
        85   3 -9.788608E+05 -4.165870E+06 -9.927759E+05  1.146277E+06 -1.763056E+05  1.046301E+05
        85   4 -1.130178E+05 -5.341804E+04 -1.591644E+05  1.210903E+06 -8.945253E+04 -1.059418E+05
        85   5  1.505488E+04 -3.144687E+04 -7.444518E+04  6.614381E+05 -2.470778E+05 -6.479130E+04
        85   6  3.837388E+04 -4.644351E+04 -4.339740E+04  1.209421E+06 -1.781351E+05 -2.590804E+04
        85   7  1.963752E+06  8.330218E+06  1.884931E+06  1.216818E+06 -8.754098E+04  8.980644E+04
        85   8  1.547149E+06  6.211594E+06  1.365217E+06  6.965404E+05 -2.465361E+05 -3.282989E+04
        85   9  1.054436E+06  4.088790E+06  9.049191E+05  1.272919E+06 -1.799844E+05 -1.573095E+05
        85  10 -2.194967E+06 -8.373534E+06 -2.208413E+06  1.204840E+06  7.552445E-10 -7.506958E-10
        85  11 -1.519829E+06 -6.238702E+06 -1.516829E+06  6.265494E+05  7.035074E-10  1.575488E-09
        85  12 -9.788972E+05 -4.165890E+06 -9.928552E+05  1.146291E+06  8.417998E-09  3.956309E-09
        85  13 -1.130294E+05 -5.343222E+04 -1.592005E+05  1.210895E+06  1.486346E-09 -5.736859E-11
        85  14  1.498823E+04 -3.146774E+04 -7.456771E+04  6.614252E+05 -6.230988E-09 -5.682751E-09
        85  15  3.833964E+04 -4.645273E+04 -4.345824E+04  1.209417E+06 -4.688889E-09  5.653419E-10
        85  16  1.963742E+06  8.330207E+06  1.884901E+06  1.216824E+06 -5.735403E-09 -3.208462E-09
        85  17  1.547084E+06  6.211577E+06  1.365101E+06  6.965339E+05 -1.507002E-08 -3.365796E-09
        85  18  1.054394E+06  4.088755E+06  9.048123E+05  1.272896E+06  6.829439E-09 -6.495873E-09
        85  19 -2.194934E+06 -8.373435E+06 -2.208227E+06  1.204862E+06  9.137547E+04  2.990714E+05
        85  20 -1.519761E+06 -6.238676E+06 -1.516697E+06  6.265687E+05  2.476192E+05  9.643348E+04
        85  21 -9.788608E+05 -4.165870E+06 -9.927759E+05  1.146277E+06  1.763056E+05 -1.046301E+05
        85  22 -1.130178E+05 -5.341804E+04 -1.591644E+05  1.210903E+06  8.945253E+04  1.059418E+05
        85  23  1.505488E+04 -3.144687E+04 -7.444518E+04  6.614381E+05  2.470778E+05  6.479130E+04
        85  24  3.837388E+04 -4.644351E+04 -4.339740E+04  1.209421E+06  1.781351E+05  2.590804E+04
        85  25  1.963752E+06  8.330218E+06  1.884931E+06  1.216818E+06  8.754098E+04 -8.980644E+04
        85  26  1.547149E+06  6.211594E+06  1.365217E+06  6.965404E+05  2.465361E+05  3.282989E+04
        85  27  1.054436E+06  4.088790E+06  9.049191E+05  1.272919E+06  1.799844E+05  1.573095E+05
        86   1 -4.946508E+05 -2.145116E+06 -5.217601E+05  1.193197E+06 -8.858442E+04  4.324876E+04
        86   2  2.181777E+04 -2.042961E+04 -2.281758E+04  6.597627E+05  1.023322E+03  5.427184E+04
        86   3  5.494318E+05  2.073069E+06  4.628728E+05  1.230566E+06  9.062087E+04  6.533583E+04
        86   4  2.342968E+04 -4.297203E+04 -3.732395E+04  1.211393E+06 -8.955661E+04 -2.106905E+04
        86   5  2.059473E+04 -2.532911E+04 -2.395206E+04  6.592527E+05  5.839844E+01 -1.010514E+04
        86   6  2.921811E+04 -4.297683E+04 -2.353872E+04  1.211306E+06  8.964778E+04  8.598964E+02
        86   7  5.412033E+05  2.063278E+06  4.468344E+05  1.229633E+06 -9.053073E+04 -8.560343E+04
        86   8  1.937392E+04 -3.021967E+04 -2.507097E+04  6.587427E+05 -9.064239E+02 -7.448162E+04
        86   9 -4.913054E+05 -2.154878E+06 -5.102307E+05  1.192092E+06  8.867683E+04 -6.339857E+04
        86  10 -4.946598E+05 -2.145120E+06 -5.217784E+05  1.193200E+06  2.009897E-09  3.530726E-09
        86  11  2.181698E+04 -2.043278E+04 -2.282311E+04  6.597627E+05  2.126515E-10  5.160350E-09
        86  12  5.494219E+05  2.073062E+06  4.628494E+05  1.230561E+06 -1.766902E-09  4.597083E-09
        86  13  2.342096E+04 -4.297465E+04 -3.733984E+04  1.211392E+06 -4.068534E-09 -3.287051E-10
        86  14  2.059471E+04 -2.532922E+04 -2.395226E+04  6.592527E+05 -1.580831E-08 -7.901765E-09
        86  15  2.920948E+04 -4.297899E+04 -2.355382E+04  1.211306E+06 -7.274173E-10  5.748700E-10
        86  16  5.411925E+05  2.063268E+06  4.468054E+05  1.229626E+06  1.148132E-08 -1.105890E-08
        86  17  1.937243E+04 -3.022563E+04 -2.508140E+04  6.587427E+05  7.621103E-10 -7.320812E-09
        86  18 -4.913149E+05 -2.154884E+06 -5.102532E+05  1.192097E+06  3.545767E-09 -7.417655E-09
        86  19 -4.946508E+05 -2.145116E+06 -5.217601E+05  1.193197E+06  8.858442E+04 -4.324876E+04
        86  20  2.181777E+04 -2.042961E+04 -2.281758E+04  6.597627E+05 -1.023322E+03 -5.427184E+04
        86  21  5.494318E+05  2.073069E+06  4.628728E+05  1.230566E+06 -9.062087E+04 -6.533583E+04
        86  22  2.342968E+04 -4.297203E+04 -3.732395E+04  1.211393E+06  8.955661E+04  2.106905E+04
        86  23  2.059473E+04 -2.532911E+04 -2.395206E+04  6.592527E+05 -5.839844E+01  1.010514E+04
        86  24  2.921811E+04 -4.297683E+04 -2.353872E+04  1.211306E+06 -8.964778E+04 -8.598964E+02
        86  25  5.412033E+05  2.063278E+06  4.468344E+05  1.229633E+06  9.053073E+04  8.560343E+04
        86  26  1.937392E+04 -3.021967E+04 -2.507097E+04  6.587427E+05  9.064239E+02  7.448162E+04
        86  27 -4.913054E+05 -2.154878E+06 -5.102307E+05  1.192092E+06 -8.867683E+04  6.339857E+04
        87   1  1.052050E+06  4.103801E+06  9.271575E+05  1.262276E+06  1.800576E+05  1.343558E+05
        87   2  1.544714E+06  6.214919E+06  1.405876E+06  7.061548E+05  2.463948E+05 -1.101112E+04
        87   3  2.040047E+06  8.344166E+06  1.977159E+06  1.246341E+06  8.705052E+04 -1.546131E+05
        87   4  3.392683E+04 -4.144436E+04 -2.336171E+04  1.209547E+06  1.782130E+05  2.992448E+03
        87   5  9.979454E+03 -3.774013E+04 -3.603963E+04  6.613791E+05  2.469392E+05  2.127506E+04
        87   6 -3.953202E+04 -4.842406E+04 -6.916170E+04  1.210243E+06  8.896738E+04  4.182273E+04
        87   7 -9.853778E+05 -4.170807E+06 -9.749483E+05  1.157100E+06  1.763837E+05 -1.275053E+05
        87   8 -1.527484E+06 -6.254477E+06 -1.480552E+06  6.169340E+05  2.474822E+05  5.324001E+04
        87   9 -2.124270E+06 -8.377260E+06 -2.120462E+06  1.174423E+06  9.087677E+04  2.356327E+05
        87  10  1.052010E+06  4.103773E+06  9.270631E+05  1.262257E+06  1.664859E-09 -6.046743E-09
        87  11  1.544649E+06  6.214903E+06  1.405761E+06  7.061570E+05 -9.786549E-10  1.438637E-09
        87  12  2.040032E+06  8.344139E+06  1.977100E+06  1.246352E+06 -3.018299E-09  5.711415E-09
        87  13  3.389272E+04 -4.145289E+04 -2.342140E+04  1.209547E+06  1.023521E-09 -1.213875E-10
        87  14  9.913860E+03 -3.775698E+04 -3.615505E+04  6.613749E+05  1.790727E-09 -5.425596E-09
        87  15 -3.954097E+04 -4.842805E+04 -6.917983E+04  1.210240E+06 -3.704928E-09  5.369335E-10
        87  16 -9.854157E+05 -4.170833E+06 -9.750377E+05  1.157118E+06  7.238130E-10 -7.364894E-10
        87  17 -1.527550E+06 -6.254497E+06 -1.480672E+06  6.169234E+05 -2.102084E-09 -3.060329E-09
        87  18 -2.124294E+06 -8.377322E+06 -2.120583E+06  1.174406E+06 -4.972537E-09 -6.761159E-09
        87  19  1.052050E+06  4.103801E+06  9.271575E+05  1.262276E+06 -1.800576E+05 -1.343558E+05
        87  20  1.544714E+06  6.214919E+06  1.405876E+06  7.061548E+05 -2.463948E+05  1.101112E+04
        87  21  2.040047E+06  8.344166E+06  1.977159E+06  1.246341E+06 -8.705052E+04  1.546131E+05
        87  22  3.392683E+04 -4.144436E+04 -2.336171E+04  1.209547E+06 -1.782130E+05 -2.992448E+03
        87  23  9.979454E+03 -3.774013E+04 -3.603963E+04  6.613791E+05 -2.469392E+05 -2.127506E+04
        87  24 -3.953202E+04 -4.842406E+04 -6.916170E+04  1.210243E+06 -8.896738E+04 -4.182273E+04
        87  25 -9.853778E+05 -4.170807E+06 -9.749483E+05  1.157100E+06 -1.763837E+05  1.275053E+05
        87  26 -1.527484E+06 -6.254477E+06 -1.480552E+06  6.169340E+05 -2.474822E+05 -5.324001E+04
        87  27 -2.124270E+06 -8.377260E+06 -2.120462E+06  1.174423E+06 -9.087677E+04 -2.356327E+05
        88   1  8.388839E+06  1.840237E+06  1.844843E+06  7.590790E+05  2.631245E+05 -7.936351E+04
        88   2  7.052652E+06  1.391557E+06  1.377965E+06  4.066551E+05  9.827972E+04 -2.284750E+05
        88   3  5.797270E+06  1.084419E+06  1.056823E+06  7.223916E+05 -6.557033E+04 -1.935745E+05
        88   4  1.334352E+06  9.441337E+04  1.280594E+05  7.363666E+05  8.677639E+04 -7.874280E+04
        88   5  1.308036E+06 -1.613059E+04  5.589366E+04  4.019485E+05  5.628368E+04 -2.285457E+05
        88   6  1.338295E+06 -7.520138E+03  3.744349E+04  7.360241E+05  2.643672E+04 -1.935921E+05
        88   7 -5.675112E+06 -1.655037E+06 -1.592213E+06  7.139291E+05 -8.759785E+04 -7.810682E+04
        88   8 -4.406307E+06 -1.426115E+06 -1.268357E+06  3.972898E+05  1.466795E+04 -2.286165E+05
        88   9 -3.102371E+06 -1.100831E+06 -9.832065E+05  7.495447E+05  1.177927E+05 -1.936056E+05
        88  10  8.388763E+06  1.840211E+06  1.844702E+06  7.590957E+05  3.385495E-09 -1.388663E-09
        88  11  7.052628E+06  1.391499E+06  1.377849E+06  4.066731E+05 -1.621333E-08 -1.044365E-09
        88  12  5.797256E+06  1.084378E+06  1.056745E+06  7.223814E+05  5.091042E-09 -2.987551E-09
        88  13  1.334343E+06  9.440468E+04  1.280335E+05  7.363721E+05  4.046660E-11 -2.498872E-10
        88  14  1.308019E+06 -1.618757E+04  5.578946E+04  4.019588E+05  7.722044E-09  1.571491E-09
        88  15  1.338284E+06 -7.560604E+03  3.737168E+04  7.360283E+05 -1.239149E-08 -3.663381E-09
        88  16 -5.675122E+06 -1.655046E+06 -1.592239E+06  7.139236E+05 -2.535436E-09  7.467184E-10
        88  17 -4.406322E+06 -1.426171E+06 -1.268456E+06  3.972925E+05  5.288243E-10  4.141945E-10
        88  18 -3.102396E+06 -1.100875E+06 -9.833033E+05  7.495631E+05 -1.143381E-09 -4.240822E-09
        88  19  8.388839E+06  1.840237E+06  1.844843E+06  7.590790E+05 -2.631245E+05  7.936351E+04
        88  20  7.052652E+06  1.391557E+06  1.377965E+06  4.066551E+05 -9.827972E+04  2.284750E+05
        88  21  5.797270E+06  1.084419E+06  1.056823E+06  7.223916E+05  6.557033E+04  1.935745E+05
        88  22  1.334352E+06  9.441337E+04  1.280594E+05  7.363666E+05 -8.677639E+04  7.874280E+04
        88  23  1.308036E+06 -1.613059E+04  5.589366E+04  4.019485E+05 -5.628368E+04  2.285457E+05
        88  24  1.338295E+06 -7.520138E+03  3.744349E+04  7.360241E+05 -2.643672E+04  1.935921E+05
        88  25 -5.675112E+06 -1.655037E+06 -1.592213E+06  7.139291E+05  8.759785E+04  7.810682E+04
        88  26 -4.406307E+06 -1.426115E+06 -1.268357E+06  3.972898E+05 -1.466795E+04  2.286165E+05
        88  27 -3.102371E+06 -1.100831E+06 -9.832065E+05  7.495447E+05 -1.177927E+05  1.936056E+05
        89   1  4.554778E+06  7.976977E+05  7.707352E+05  7.418412E+05 -1.416921E+04 -1.351142E+05
        89   2  3.272798E+06  4.775021E+05  4.653742E+05  4.053053E+05 -3.003392E+04 -8.282328E+04
        89   3  1.997157E+06  1.686160E+05  1.728777E+05  7.368807E+05 -4.605551E+04 -2.194598E+04
        89   4  1.328846E+06  6.621913E+03  3.033923E+04  7.360468E+05  2.052477E+04 -1.350997E+05
        89   5  1.327628E+06  2.457986E+02  1.916084E+04  4.019313E+05  1.088310E+04 -8.274470E+04
        89   6  1.330161E+06  4.223532E+03  1.665292E+04  7.360537E+05  1.052311E+03 -2.178540E+04
        89   7 -1.887507E+06 -7.851765E+05 -7.107381E+05  7.302730E+05  5.504075E+04 -1.350859E+05
        89   8 -6.140511E+05 -4.772726E+05 -4.272954E+05  3.985648E+05  5.167345E+04 -8.266642E+04
        89   9  6.635773E+05 -1.601993E+05 -1.395939E+05  7.352269E+05  4.810997E+04 -2.162483E+04
        89  10  4.554773E+06  7.976780E+05  7.707005E+05  7.418396E+05 -1.411465E-08 -2.030053E-09
        89  11  3.272795E+06  4.774945E+05  4.653596E+05  4.053033E+05 -7.417347E-10  6.316877E-10
        89  12  1.997155E+06  1.686149E+05  1.728728E+05  7.368799E+05  3.895046E-09 -1.379542E-09
        89  13  1.328841E+06  6.602184E+03  3.030411E+04  7.360490E+05  1.484781E-11 -3.230337E-09
        89  14  1.327626E+06  2.384094E+02  1.914774E+04  4.019320E+05 -2.083363E-09 -5.225978E-12
        89  15  1.330160E+06  4.223022E+03  1.665203E+04  7.360537E+05  5.669448E-09 -9.202156E-11
        89  16 -1.887515E+06 -7.851969E+05 -7.107782E+05  7.302790E+05  9.298145E-09 -3.646347E-09
        89  17 -6.140558E+05 -4.772806E+05 -4.273133E+05  3.985682E+05 -6.218175E-10 -1.051628E-09
        89  18  6.635747E+05 -1.602004E+05 -1.395991E+05  7.352278E+05 -1.024467E-08  4.264541E-09
        89  19  4.554778E+06  7.976977E+05  7.707352E+05  7.418412E+05  1.416921E+04  1.351142E+05
        89  20  3.272798E+06  4.775021E+05  4.653742E+05  4.053053E+05  3.003392E+04  8.282328E+04
        89  21  1.997157E+06  1.686160E+05  1.728777E+05  7.368807E+05  4.605551E+04  2.194598E+04
        89  22  1.328846E+06  6.621913E+03  3.033923E+04  7.360468E+05 -2.052477E+04  1.350997E+05
        89  23  1.327628E+06  2.457986E+02  1.916084E+04  4.019313E+05 -1.088310E+04  8.274470E+04
        89  24  1.330161E+06  4.223532E+03  1.665292E+04  7.360537E+05 -1.052311E+03  2.178540E+04
        89  25 -1.887507E+06 -7.851765E+05 -7.107381E+05  7.302730E+05 -5.504075E+04  1.350859E+05
        89  26 -6.140511E+05 -4.772726E+05 -4.272954E+05  3.985648E+05 -5.167345E+04  8.266642E+04
        89  27  6.635773E+05 -1.601993E+05 -1.395939E+05  7.352269E+05 -4.810997E+04  2.162483E+04
        90   1  7.767978E+05 -1.324743E+05 -1.134300E+05  7.355914E+05 -4.916373E+04  1.674532E+04
        90   2 -5.007180E+05 -4.493114E+05 -4.001686E+05  3.985982E+05 -5.337035E+04  7.778999E+04
        90   3 -1.774113E+06 -7.561700E+05 -6.820972E+05  7.298795E+05 -5.738967E+04  1.303509E+05
        90   4  1.330179E+06  4.124215E+03  1.682233E+04  7.360345E+05 -2.146715E+03  1.690698E+04
        90   5  1.327720E+06  3.309207E+02  2.023699E+04  4.019553E+05 -1.252250E+04  7.787295E+04
        90   6  1.328940E+06  7.681870E+03  3.280279E+04  7.360249E+05 -2.271934E+04  1.303722E+05
        90   7  1.883846E+06  1.407021E+05  1.470620E+05  7.364776E+05  4.491191E+04  1.706861E+04
        90   8  3.159253E+06  4.497410E+05  4.404279E+05  4.053197E+05  2.844478E+04  7.795621E+04
        90   9  4.440908E+06  7.708613E+05  7.470690E+05  7.421921E+05  1.212347E+04  1.303941E+05
        90  10  7.767952E+05 -1.324752E+05 -1.134351E+05  7.355921E+05  5.169076E-09  2.389698E-09
        90  11 -5.007227E+05 -4.493187E+05 -4.001853E+05  3.986015E+05 -3.744858E-09  1.696744E-09
        90  12 -1.774121E+06 -7.561892E+05 -6.821354E+05  7.298855E+05 -5.182775E-09 -1.500230E-09
        90  13  1.330179E+06  4.123907E+03  1.682178E+04  7.360346E+05 -4.378612E-09  5.740589E-10
        90  14  1.327718E+06  3.243619E+02  2.022529E+04  4.019561E+05  3.308830E-10 -8.015274E-10
        90  15  1.328935E+06  7.663464E+03  3.276985E+04  7.360273E+05 -5.309604E-09 -1.092223E-10
        90  16  1.883843E+06  1.407012E+05  1.470576E+05  7.364770E+05 -7.833535E-09  3.796824E-10
        90  17  3.159250E+06  4.497343E+05  4.404150E+05  4.053179E+05  6.192833E-10 -5.001859E-09
        90  18  4.440903E+06  7.708430E+05  7.470368E+05  7.421909E+05  2.434413E-10 -1.148177E-09
        90  19  7.767978E+05 -1.324743E+05 -1.134300E+05  7.355914E+05  4.916373E+04 -1.674532E+04
        90  20 -5.007180E+05 -4.493114E+05 -4.001686E+05  3.985982E+05  5.337035E+04 -7.778999E+04
        90  21 -1.774113E+06 -7.561700E+05 -6.820972E+05  7.298795E+05  5.738967E+04 -1.303509E+05
        90  22  1.330179E+06  4.124215E+03  1.682233E+04  7.360345E+05  2.146715E+03 -1.690698E+04
        90  23  1.327720E+06  3.309207E+02  2.023699E+04  4.019553E+05  1.252250E+04 -7.787295E+04
        90  24  1.328940E+06  7.681870E+03  3.280279E+04  7.360249E+05  2.271934E+04 -1.303722E+05
        90  25  1.883846E+06  1.407021E+05  1.470620E+05  7.364776E+05 -4.491191E+04 -1.706861E+04
        90  26  3.159253E+06  4.497410E+05  4.404279E+05  4.053197E+05 -2.844478E+04 -7.795621E+04
        90  27  4.440908E+06  7.708613E+05  7.470690E+05  7.421921E+05 -1.212347E+04 -1.303941E+05
        91   1 -2.988186E+06 -1.073008E+06 -9.539543E+05  7.505542E+05 -1.197338E+05  1.885229E+05
        91   2 -4.292843E+06 -1.398188E+06 -1.236466E+06  3.950907E+05 -2.151835E+04  2.239655E+05
        91   3 -5.559986E+06 -1.616015E+06 -1.551931E+06  7.083679E+05  7.590140E+04  7.671417E+04
        91   4  1.338919E+06 -7.729535E+03  4.056747E+04  7.359880E+05 -2.908835E+04  1.885264E+05
        91   5  1.307697E+06 -1.637538E+04  6.136087E+04  4.019923E+05 -6.186355E+04  2.238906E+05
        91   6  1.335049E+06  1.047293E+05  1.402059E+05  7.363372E+05 -9.523239E+04  7.729918E+04
        91   7  5.683408E+06  1.056247E+06  1.033884E+06  7.213051E+05  6.218647E+04  1.885256E+05
        91   8  6.937312E+06  1.363232E+06  1.357095E+06  4.089600E+05 -1.025699E+05  2.238155E+05
        91   9  8.273644E+06  1.821966E+06  1.828967E+06  7.646359E+05 -2.682710E+05  7.786640E+04
        91  10 -2.988211E+06 -1.073050E+06 -9.540483E+05  7.505725E+05  1.611697E-10 -3.052902E-10
        91  11 -4.292857E+06 -1.398242E+06 -1.236561E+06  3.950946E+05 -1.345572E-08  3.090217E-09
        91  12 -5.559994E+06 -1.616023E+06 -1.551953E+06  7.083632E+05 -4.905952E-09  2.941715E-09
        91  13  1.338909E+06 -7.767960E+03  4.049902E+04  7.359925E+05 -1.343091E-08  3.180118E-10
        91  14  1.307679E+06 -1.643028E+04  6.125939E+04  4.020035E+05 -8.568986E-09 -4.245507E-10
        91  15  1.335038E+06  1.047205E+05  1.401776E+05  7.363431E+05  3.902552E-09 -2.060402E-09
        91  16  5.683394E+06  1.056208E+06  1.033810E+06  7.212957E+05 -8.208282E-09  2.192990E-09
        91  17  6.937287E+06  1.363175E+06  1.356981E+06  4.089784E+05  2.627632E-09  6.499743E-10
        91  18  8.273566E+06  1.821940E+06  1.828822E+06  7.646527E+05  3.019305E-09 -3.765675E-09
        91  19 -2.988186E+06 -1.073008E+06 -9.539543E+05  7.505542E+05  1.197338E+05 -1.885229E+05
        91  20 -4.292843E+06 -1.398188E+06 -1.236466E+06  3.950907E+05  2.151835E+04 -2.239655E+05
        91  21 -5.559986E+06 -1.616015E+06 -1.551931E+06  7.083679E+05 -7.590140E+04 -7.671417E+04
        91  22  1.338919E+06 -7.729535E+03  4.056747E+04  7.359880E+05  2.908835E+04 -1.885264E+05
        91  23  1.307697E+06 -1.637538E+04  6.136087E+04  4.019923E+05  6.186355E+04 -2.238906E+05
        91  24  1.335049E+06  1.047293E+05  1.402059E+05  7.363372E+05  9.523239E+04 -7.729918E+04
        91  25  5.683408E+06  1.056247E+06  1.033884E+06  7.213051E+05 -6.218647E+04 -1.885256E+05
        91  26  6.937312E+06  1.363232E+06  1.357095E+06  4.089600E+05  1.025699E+05 -2.238155E+05
        91  27  8.273644E+06  1.821966E+06  1.828967E+06  7.646359E+05  2.682710E+05 -7.786640E+04
        92   1 -2.183885E+06 -8.335354E+06 -2.194422E+06  1.191252E+06 -9.112734E+04 -2.926037E+05
        92   2 -1.521755E+06 -6.225766E+06 -1.513937E+06  6.203334E+05 -2.477460E+05 -9.242444E+04
        92   3 -9.872253E+05 -4.174826E+06 -9.975047E+05  1.135039E+06 -1.775751E+05  1.062663E+05
        92   4 -1.070243E+05 -3.542345E+04 -1.504373E+05  1.197470E+06 -8.928768E+04 -9.949662E+04
        92   5  1.386340E+04 -1.512773E+04 -7.095878E+04  6.542589E+05 -2.472122E+05 -6.028894E+04
        92   6  3.652786E+04 -2.852960E+04 -4.200022E+04  1.196121E+06 -1.793347E+05 -2.324653E+04
        92   7  1.964715E+06  8.327817E+06  1.888605E+06  1.203572E+06 -8.745867E+04  9.622165E+04
        92   8  1.546758E+06  6.231361E+06  1.369429E+06  6.884117E+05 -2.466781E+05 -2.782929E+04
        92   9  1.059092E+06  4.133779E+06  9.124267E+05  1.257547E+06 -1.811133E+05 -1.536216E+05
        92  10 -2.183917E+06 -8.335449E+06 -2.194601E+06  1.191230E+06  1.555105E-09  2.361667E-09
        92  11 -1.521824E+06 -6.225791E+06 -1.514069E+06  6.203149E+05 -4.142772E-09  1.708473E-08
        92  12 -9.872623E+05 -4.174846E+06 -9.975855E+05  1.135054E+06  8.447810E-10  1.012049E-08
        92  13 -1.070355E+05 -3.543620E+04 -1.504708E+05  1.197463E+06  4.400731E-09 -2.701188E-11
        92  14  1.379682E+04 -1.514802E+04 -7.108038E+04  6.542469E+05 -1.100180E-08  1.095046E-08
        92  15  3.649319E+04 -2.853880E+04 -4.206163E+04  1.196118E+06  1.669909E-10  1.387311E-08
        92  16  1.964704E+06  8.327805E+06  1.888573E+06  1.203578E+06  1.556499E-09  1.392347E-09
        92  17  1.546693E+06  6.231344E+06  1.369313E+06  6.884062E+05 -1.143630E-08 -6.455047E-09
        92  18  1.059050E+06  4.133745E+06  9.123212E+05  1.257524E+06  1.734592E-09 -5.029444E-09
        92  19 -2.183885E+06 -8.335354E+06 -2.194422E+06  1.191252E+06  9.112734E+04  2.926037E+05
        92  20 -1.521755E+06 -6.225766E+06 -1.513937E+06  6.203334E+05  2.477460E+05  9.242444E+04
        92  21 -9.872253E+05 -4.174826E+06 -9.975047E+05  1.135039E+06  1.775751E+05 -1.062663E+05
        92  22 -1.070243E+05 -3.542345E+04 -1.504373E+05  1.197470E+06  8.928768E+04  9.949662E+04
        92  23  1.386340E+04 -1.512773E+04 -7.095878E+04  6.542589E+05  2.472122E+05  6.028894E+04
        92  24  3.652786E+04 -2.852960E+04 -4.200022E+04  1.196121E+06  1.793347E+05  2.324653E+04
        92  25  1.964715E+06  8.327817E+06  1.888605E+06  1.203572E+06  8.745867E+04 -9.622165E+04
        92  26  1.546758E+06  6.231361E+06  1.369429E+06  6.884117E+05  2.466781E+05  2.782929E+04
        92  27  1.059092E+06  4.133779E+06  9.124267E+05  1.257547E+06  1.811133E+05  1.536216E+05
        93   1 -5.076265E+05 -2.177224E+06 -5.325857E+05  1.179937E+06 -9.062224E+04  4.496155E+04
        93   2  3.147452E+03 -7.663237E+04 -4.090920E+04  6.517120E+05 -2.097846E+03  5.680098E+04
        93   3  5.232861E+05  1.993509E+06  4.368669E+05  1.215361E+06  8.659685E+04  6.867017E+04
        93   4  2.264825E+04 -2.559391E+04 -3.671677E+04  1.198047E+06 -9.155449E+04 -1.850295E+04
        93   5  1.994885E+04 -8.333708E+03 -2.521106E+04  6.521031E+05 -3.028294E+03 -6.851749E+03
        93   6  2.694189E+04 -2.551734E+04 -2.723185E+04  1.197985E+06  8.565311E+04  4.787364E+03
        93   7  5.526013E+05  2.130338E+06  4.588600E+05  1.216200E+06 -9.248864E+04 -8.218620E+04
        93   8  3.675210E+04  5.997798E+04 -9.498001E+03  6.524943E+05 -3.958768E+03 -7.051143E+04
        93   9 -4.696842E+05 -2.040769E+06 -4.915848E+05  1.180648E+06  8.471122E+04 -5.888986E+04
        93  10 -5.076359E+05 -2.177229E+06 -5.326050E+05  1.179940E+06  4.013228E-10  1.705287E-10
        93  11  3.146580E+03 -7.663584E+04 -4.091528E+04  6.517121E+05 -5.491637E-09  1.519741E-08
        93  12  5.232768E+05  1.993501E+06  4.368440E+05  1.215356E+06  4.717852E-09  1.901655E-09
        93  13  2.263916E+04 -2.559652E+04 -3.673314E+04  1.198045E+06 -3.377962E-09 -2.096782E-10
        93  14  1.994883E+04 -8.333761E+03 -2.521117E+04  6.521030E+05 -6.301388E-09  1.459820E-08
        93  15  2.693400E+04 -2.551934E+04 -2.724567E+04  1.197985E+06  3.807069E-09  1.467150E-08
        93  16  5.525903E+05  2.130328E+06  4.588314E+05  1.216194E+06  5.726518E-09  6.246486E-09
        93  17  3.675075E+04  5.997264E+04 -9.507371E+03  6.524940E+05 -1.754047E-09 -5.753488E-10
        93  18 -4.696929E+05 -2.040775E+06 -4.916049E+05  1.180652E+06 -1.254528E-09  3.368515E-09
        93  19 -5.076265E+05 -2.177224E+06 -5.325857E+05  1.179937E+06  9.062224E+04 -4.496155E+04
        93  20  3.147452E+03 -7.663237E+04 -4.090920E+04  6.517120E+05  2.097846E+03 -5.680098E+04
        93  21  5.232861E+05  1.993509E+06  4.368669E+05  1.215361E+06 -8.659685E+04 -6.867017E+04
        93  22  2.264825E+04 -2.559391E+04 -3.671677E+04  1.198047E+06  9.155449E+04  1.850295E+04
        93  23  1.994885E+04 -8.333708E+03 -2.521106E+04  6.521031E+05  3.028294E+03  6.851749E+03
        93  24  2.694189E+04 -2.551734E+04 -2.723185E+04  1.197985E+06 -8.565311E+04 -4.787364E+03
        93  25  5.526013E+05  2.130338E+06  4.588600E+05  1.216200E+06  9.248864E+04  8.218620E+04
        93  26  3.675210E+04  5.997798E+04 -9.498001E+03  6.524943E+05  3.958768E+03  7.051143E+04
        93  27 -4.696842E+05 -2.040769E+06 -4.915848E+05  1.180648E+06 -8.471122E+04  5.888986E+04
        94   1  1.022584E+06  4.000010E+06  8.948065E+05  1.249092E+06  1.748188E+05  1.371328E+05
        94   2  1.510478E+06  6.090295E+06  1.364423E+06  6.945221E+05  2.407863E+05 -5.265581E+02
        94   3  1.982056E+06  8.192870E+06  1.916913E+06  1.224167E+06  8.532961E+04 -1.364779E+05
        94   4  3.382891E+04 -2.520062E+04 -2.829337E+04  1.196228E+06  1.730381E+05  7.680301E+03
        94   5  1.098035E+04 -1.874378E+04 -4.449114E+04  6.541835E+05  2.413008E+05  3.051456E+04
        94   6 -5.597444E+04 -3.194270E+04 -8.871706E+04  1.197070E+06  8.716311E+04  5.552379E+04
        94   7 -9.560398E+05 -4.035433E+06 -9.523981E+05  1.143642E+06  1.712729E+05 -1.209439E+05
        94   8 -1.491123E+06 -6.093488E+06 -1.455885E+06  6.141293E+05  2.418143E+05  6.125353E+04
        94   9 -2.098960E+06 -8.195519E+06 -2.099130E+06  1.170135E+06  8.899421E+04  2.450088E+05
        94  10  1.022546E+06  3.999982E+06  8.947142E+05  1.249073E+06  1.177837E-08 -7.531513E-09
        94  11  1.510416E+06  6.090280E+06  1.364314E+06  6.945222E+05  8.766345E-09  1.020677E-08
        94  12  1.982043E+06  8.192849E+06  1.916864E+06  1.224176E+06  8.673403E-10  5.479892E-09
        94  13  3.379675E+04 -2.520871E+04 -2.834974E+04  1.196227E+06 -1.785939E-09 -3.452225E-10
        94  14  1.091759E+04 -1.876040E+04 -4.460227E+04  6.541776E+05 -2.504962E-09  1.117662E-08
        94  15 -5.598341E+04 -3.194804E+04 -8.873709E+04  1.197066E+06  1.940373E-09  8.291872E-09
        94  16 -9.560753E+05 -4.035457E+06 -9.524811E+05  1.143659E+06 -2.022446E-09  1.356875E-08
        94  17 -1.491187E+06 -6.093508E+06 -1.456002E+06  6.141173E+05  5.827690E-09  4.846553E-10
        94  18 -2.098985E+06 -8.195586E+06 -2.099259E+06  1.170117E+06 -4.833372E-09 -2.274943E-09
        94  19  1.022584E+06  4.000010E+06  8.948065E+05  1.249092E+06 -1.748188E+05 -1.371328E+05
        94  20  1.510478E+06  6.090295E+06  1.364423E+06  6.945221E+05 -2.407863E+05  5.265581E+02
        94  21  1.982056E+06  8.192870E+06  1.916913E+06  1.224167E+06 -8.532961E+04  1.364779E+05
        94  22  3.382891E+04 -2.520062E+04 -2.829337E+04  1.196228E+06 -1.730381E+05 -7.680301E+03
        94  23  1.098035E+04 -1.874378E+04 -4.449114E+04  6.541835E+05 -2.413008E+05 -3.051456E+04
        94  24 -5.597444E+04 -3.194270E+04 -8.871706E+04  1.197070E+06 -8.716311E+04 -5.552379E+04
        94  25 -9.560398E+05 -4.035433E+06 -9.523981E+05  1.143642E+06 -1.712729E+05  1.209439E+05
        94  26 -1.491123E+06 -6.093488E+06 -1.455885E+06  6.141293E+05 -2.418143E+05 -6.125353E+04
        94  27 -2.098960E+06 -8.195519E+06 -2.099130E+06  1.170135E+06 -8.899421E+04 -2.450088E+05
        95   1  7.967563E+06  1.763158E+06  1.762453E+06  7.324750E+05  2.373736E+05 -7.674432E+04
        95   2  6.669426E+06  1.348465E+06  1.322279E+06  3.945934E+05  8.376060E+04 -2.210667E+05
        95   3  5.442462E+06  1.048600E+06  1.013713E+06  7.077707E+05 -6.893993E+04 -1.869072E+05
        95   4  1.133673E+06  7.121571E+04  9.871177E+04  7.180400E+05  6.680495E+04 -7.616983E+04
        95   5  1.111715E+06 -1.388472E+04  4.278215E+04  3.922217E+05  4.336678E+04 -2.211354E+05
        95   6  1.137373E+06 -5.994989E+03  2.917360E+04  7.177877E+05  2.052302E+04 -1.869170E+05
        95   7 -5.657946E+06 -1.624135E+06 -1.568307E+06  7.037791E+05 -1.019122E+05 -7.558525E+04
        95   8 -4.417646E+06 -1.378386E+06 -1.238755E+06  3.898747E+05  3.327434E+03 -2.212043E+05
        95   9 -3.150640E+06 -1.061869E+06 -9.565501E+05  7.277221E+05  1.093746E+05 -1.869239E+05
        95  10  7.967501E+06  1.763137E+06  1.762338E+06  7.324896E+05  1.542095E-09 -3.429040E-10
        95  11  6.669405E+06  1.348411E+06  1.322174E+06  3.946082E+05 -1.025466E-08 -2.439134E-09
        95  12  5.442448E+06  1.048561E+06  1.013638E+06  7.077603E+05 -3.464065E-09  1.131913E-09
        95  13  1.133667E+06  7.120828E+04  9.869246E+04  7.180441E+05 -4.067526E-10  3.913086E-09
        95  14  1.111700E+06 -1.393777E+04  4.268665E+04  3.922294E+05 -5.853852E-10  6.769169E-10
        95  15  1.137364E+06 -6.032645E+03  2.910710E+04  7.177908E+05 -5.051679E-10  1.697938E-09
        95  16 -5.657959E+06 -1.624144E+06 -1.568337E+06  7.037729E+05  2.660573E-09 -1.244252E-09
        95  17 -4.417659E+06 -1.378438E+06 -1.238847E+06  3.898753E+05  1.765375E-09  6.876594E-10
        95  18 -3.150663E+06 -1.061910E+06 -9.566385E+05  7.277386E+05  9.657508E-09  1.536167E-09
        95  19  7.967563E+06  1.763158E+06  1.762453E+06  7.324750E+05 -2.373736E+05  7.674432E+04
        95  20  6.669426E+06  1.348465E+06  1.322279E+06  3.945934E+05 -8.376060E+04  2.210667E+05
        95  21  5.442462E+06  1.048600E+06  1.013713E+06  7.077707E+05  6.893993E+04  1.869072E+05
        95  22  1.133673E+06  7.121571E+04  9.871177E+04  7.180400E+05 -6.680495E+04  7.616983E+04
        95  23  1.111715E+06 -1.388472E+04  4.278215E+04  3.922217E+05 -4.336678E+04  2.211354E+05
        95  24  1.137373E+06 -5.994989E+03  2.917360E+04  7.177877E+05 -2.052302E+04  1.869170E+05
        95  25 -5.657946E+06 -1.624135E+06 -1.568307E+06  7.037791E+05  1.019122E+05  7.558525E+04
        95  26 -4.417646E+06 -1.378386E+06 -1.238755E+06  3.898747E+05 -3.327434E+03  2.212043E+05
        95  27 -3.150640E+06 -1.061869E+06 -9.565501E+05  7.277221E+05 -1.093746E+05  1.869239E+05
        96   1  4.231867E+06  7.660073E+05  7.357922E+05  7.231256E+05 -1.806312E+04 -1.299998E+05
        96   2  2.981288E+06  4.550669E+05  4.401724E+05  3.949712E+05 -3.168453E+04 -7.889163E+04
        96   3  1.735977E+06  1.532735E+05  1.554011E+05  7.189835E+05 -4.545556E+04 -1.944638E+04
        96   4  1.129576E+06  5.029707E+03  2.356897E+04  7.180462E+05  1.586466E+04 -1.299831E+05
        96   5  1.128777E+06  4.188142E+02  1.508934E+04  3.919056E+05  8.274726E+03 -7.881483E+04
        96   6  1.130795E+06  4.031089E+03  1.339207E+04  7.180501E+05  5.082911E+02 -1.929281E+04
        96   7 -1.963852E+06 -7.566166E+05 -6.892847E+05  7.129836E+05  4.962501E+04 -1.299668E+05
        96   8 -7.205653E+05 -4.544671E+05 -4.102139E+05  3.888464E+05  4.811614E+04 -7.873829E+04
        96   9  5.259541E+05 -1.452363E+05 -1.286340E+05  7.171170E+05  4.642772E+04 -1.913927E+04
        96  10  4.231862E+06  7.659891E+05  7.357599E+05  7.231237E+05 -9.139285E-09  5.341038E-10
        96  11  2.981285E+06  4.550600E+05  4.401589E+05  3.949692E+05 -4.015342E-09 -1.444407E-09
        96  12  1.735975E+06  1.532726E+05  1.553965E+05  7.189828E+05  4.309476E-09 -4.607242E-09
        96  13  1.129571E+06  5.011484E+03  2.353672E+04  7.180479E+05  4.831549E-09  2.603528E-09
        96  14  1.128776E+06  4.121214E+02  1.507753E+04  3.919061E+05  7.147949E-09  1.292316E-09
        96  15  1.130795E+06  4.030690E+03  1.339137E+04  7.180501E+05 -4.967782E-09 -4.991036E-09
        96  16 -1.963859E+06 -7.566354E+05 -6.893211E+05  7.129888E+05  4.132327E-09  4.906268E-10
        96  17 -7.205695E+05 -4.544744E+05 -4.102299E+05  3.888495E+05  8.409334E-10  1.154030E-09
        96  18  5.259517E+05 -1.452372E+05 -1.286388E+05  7.171177E+05 -1.653210E-08 -2.166852E-09
        96  19  4.231867E+06  7.660073E+05  7.357922E+05  7.231256E+05  1.806312E+04  1.299998E+05
        96  20  2.981288E+06  4.550669E+05  4.401724E+05  3.949712E+05  3.168453E+04  7.889163E+04
        96  21  1.735977E+06  1.532735E+05  1.554011E+05  7.189835E+05  4.545556E+04  1.944638E+04
        96  22  1.129576E+06  5.029707E+03  2.356897E+04  7.180462E+05 -1.586466E+04  1.299831E+05
        96  23  1.128777E+06  4.188142E+02  1.508934E+04  3.919056E+05 -8.274726E+03  7.881483E+04
        96  24  1.130795E+06  4.031089E+03  1.339207E+04  7.180501E+05 -5.082911E+02  1.929281E+04
        96  25 -1.963852E+06 -7.566166E+05 -6.892847E+05  7.129836E+05 -4.962501E+04  1.299668E+05
        96  26 -7.205653E+05 -4.544671E+05 -4.102139E+05  3.888464E+05 -4.811614E+04  7.873829E+04
        96  27  5.259541E+05 -1.452363E+05 -1.286340E+05  7.171170E+05 -4.642772E+04  1.913927E+04
        97   1  5.445911E+05 -1.408056E+05 -1.241107E+05  7.173253E+05 -4.802397E+04  1.833394E+04
        97   2 -7.020758E+05 -4.499511E+05 -4.044596E+05  3.887827E+05 -5.047986E+04  7.793374E+04
        97   3 -1.945211E+06 -7.509443E+05 -6.815447E+05  7.126211E+05 -5.275635E+04  1.291852E+05
        97   4  1.130870E+06  3.897156E+03  1.365178E+04  7.180449E+05 -2.112015E+03  1.848766E+04
        97   5  1.128702E+06  3.643740E+02  1.657169E+04  3.919123E+05 -1.063237E+04  7.801102E+04
        97   6  1.129661E+06  6.125533E+03  2.702052E+04  7.180385E+05 -1.897798E+04  1.292026E+05
        97   7  1.717469E+06  1.485766E+05  1.513986E+05  7.187648E+05  4.384301E+04  1.864139E+04
        97   8  2.962583E+06  4.504468E+05  4.373873E+05  3.950484E+05  2.933180E+04  7.808857E+04
        97   9  4.213290E+06  7.625347E+05  7.349630E+05  7.234743E+05  1.496692E+04  1.292205E+05
        97  10  5.445885E+05 -1.408066E+05 -1.241157E+05  7.173260E+05  4.162186E-09 -4.040628E-10
        97  11 -7.020801E+05 -4.499583E+05 -4.044758E+05  3.887859E+05  1.868262E-10  6.550957E-10
        97  12 -1.945219E+06 -7.509630E+05 -6.815814E+05  7.126266E+05  1.225154E-09  4.387865E-09
        97  13  1.130870E+06  3.896788E+03  1.365113E+04  7.180449E+05 -8.631527E-09 -3.277934E-09
        97  14  1.128700E+06  3.578045E+02  1.656003E+04  3.919129E+05  6.753779E-09  1.129178E-09
        97  15  1.129656E+06  6.107497E+03  2.698844E+04  7.180405E+05  1.455555E-09  2.838939E-09
        97  16  1.717467E+06  1.485757E+05  1.513944E+05  7.187641E+05 -1.875357E-09 -3.139438E-09
        97  17  2.962581E+06  4.504401E+05  4.373743E+05  3.950466E+05  8.870599E-09 -1.058021E-09
        97  18  4.213285E+06  7.625167E+05  7.349312E+05  7.234727E+05  9.701358E-10  2.253716E-09
        97  19  5.445911E+05 -1.408056E+05 -1.241107E+05  7.173253E+05  4.802397E+04 -1.833394E+04
        97  20 -7.020758E+05 -4.499511E+05 -4.044596E+05  3.887827E+05  5.047986E+04 -7.793374E+04
        97  21 -1.945211E+06 -7.509443E+05 -6.815447E+05  7.126211E+05  5.275635E+04 -1.291852E+05
        97  22  1.130870E+06  3.897156E+03  1.365178E+04  7.180449E+05  2.112015E+03 -1.848766E+04
        97  23  1.128702E+06  3.643740E+02  1.657169E+04  3.919123E+05  1.063237E+04 -7.801102E+04
        97  24  1.129661E+06  6.125533E+03  2.702052E+04  7.180385E+05  1.897798E+04 -1.292026E+05
        97  25  1.717469E+06  1.485766E+05  1.513986E+05  7.187648E+05 -4.384301E+04 -1.864139E+04
        97  26  2.962583E+06  4.504468E+05  4.373873E+05  3.950484E+05 -2.933180E+04 -7.808857E+04
        97  27  4.213290E+06  7.625347E+05  7.349630E+05  7.234743E+05 -1.496692E+04 -1.292205E+05
        98   1 -3.131085E+06 -1.057986E+06 -9.478455E+05  7.297304E+05 -1.129997E+05  1.860851E+05
        98   2 -4.400135E+06 -1.374660E+06 -1.226849E+06  3.878742E+05 -1.131609E+04  2.204502E+05
        98   3 -5.638215E+06 -1.605375E+06 -1.546564E+06  6.979222E+05  8.957509E+04  7.539562E+04
        98   4  1.138319E+06 -6.709946E+03  3.359344E+04  7.178096E+05 -2.427747E+04  1.860814E+05
        98   5  1.110600E+06 -1.477471E+04  5.036156E+04  3.921902E+05 -5.117717E+04  2.203805E+05
        98   6  1.134623E+06  8.520365E+04  1.158177E+05  7.181007E+05 -7.866213E+04  7.597246E+04
        98   7  5.424650E+06  1.043299E+06  1.013858E+06  7.057928E+05  6.505261E+04  1.860741E+05
        98   8  6.649493E+06  1.342974E+06  1.325545E+06  3.965483E+05 -9.138970E+04  2.203109E+05
        98   9  7.949498E+06  1.772394E+06  1.774941E+06  7.385174E+05 -2.487398E+05  7.653607E+04
        98  10 -3.131109E+06 -1.058027E+06 -9.479349E+05  7.297474E+05  1.058558E-08  2.659664E-09
        98  11 -4.400148E+06 -1.374712E+06 -1.226941E+06  3.878763E+05  7.545364E-09 -2.761042E-09
        98  12 -5.638225E+06 -1.605383E+06 -1.546590E+06  6.979167E+05 -7.485289E-09 -3.654661E-09
        98  13  1.138309E+06 -6.747314E+03  3.352720E+04  7.178133E+05  7.795409E-09  8.602488E-10
        98  14  1.110584E+06 -1.482760E+04  5.026529E+04  3.921993E+05 -1.915902E-10 -3.107386E-09
        98  15  1.134615E+06  8.519578E+04  1.157952E+05  7.181055E+05 -1.301900E-09  1.161829E-10
        98  16  5.424636E+06  1.043260E+06  1.013785E+06  7.057831E+05 -1.205891E-08  3.996542E-10
        98  17  6.649471E+06  1.342919E+06  1.325438E+06  3.965645E+05 -1.122913E-08 -2.007827E-09
        98  18  7.949431E+06  1.772371E+06  1.774815E+06  7.385327E+05  3.871914E-10 -4.883007E-09
        98  19 -3.131085E+06 -1.057986E+06 -9.478455E+05  7.297304E+05  1.129997E+05 -1.860851E+05
        98  20 -4.400135E+06 -1.374660E+06 -1.226849E+06  3.878742E+05  1.131609E+04 -2.204502E+05
        98  21 -5.638215E+06 -1.605375E+06 -1.546564E+06  6.979222E+05 -8.957509E+04 -7.539562E+04
        98  22  1.138319E+06 -6.709946E+03  3.359344E+04  7.178096E+05  2.427747E+04 -1.860814E+05
        98  23  1.110600E+06 -1.477471E+04  5.036156E+04  3.921902E+05  5.117717E+04 -2.203805E+05
        98  24  1.134623E+06  8.520365E+04  1.158177E+05  7.181007E+05  7.866213E+04 -7.597246E+04
        98  25  5.424650E+06  1.043299E+06  1.013858E+06  7.057928E+05 -6.505261E+04 -1.860741E+05
        98  26  6.649493E+06  1.342974E+06  1.325545E+06  3.965483E+05  9.138970E+04 -2.203109E+05
        98  27  7.949498E+06  1.772394E+06  1.774941E+06  7.385174E+05  2.487398E+05 -7.653607E+04
        99   1 -2.178104E+06 -8.333697E+06 -2.183961E+06  1.187824E+06 -9.143820E+04 -2.791141E+05
        99   2 -1.532838E+06 -6.223786E+06 -1.514036E+06  6.203922E+05 -2.491718E+05 -8.290211E+04
        99   3 -9.972956E+05 -4.166642E+06 -1.000918E+06  1.140241E+06 -1.790744E+05  1.118517E+05
        99   4 -9.068974E+04  8.088481E+03 -1.297269E+05  1.199700E+06 -8.963752E+04 -8.478519E+04
        99   5  1.232946E+04  2.543674E+04 -6.213355E+04  6.557693E+05 -2.486390E+05 -5.034056E+04
        99   6  3.503871E+04  1.502532E+04 -3.733117E+04  1.198550E+06 -1.808111E+05 -1.801753E+04
        99   7  1.991551E+06  8.413822E+06  1.919515E+06  1.211539E+06 -8.784372E+04  1.121836E+05
        99   8  1.554739E+06  6.310956E+06  1.387146E+06  6.913912E+05 -2.481057E+05 -1.744896E+04
        99   9  1.066163E+06  4.212979E+06  9.251592E+05  1.257185E+06 -1.825657E+05 -1.487588E+05
        99  10 -2.178134E+06 -8.333784E+06 -2.184125E+06  1.187803E+06 -3.110872E-09  1.664571E-09
        99  11 -1.532906E+06 -6.223811E+06 -1.514166E+06  6.203755E+05 -3.378252E-09  1.991795E-08
        99  12 -9.973335E+05 -4.166664E+06 -1.001002E+06  1.140257E+06 -6.010587E-09 -3.910169E-09
        99  13 -9.070027E+04  8.078627E+03 -1.297555E+05  1.199693E+06 -2.911549E-10  6.096878E-11
        99  14  1.226241E+04  2.541745E+04 -6.225443E+04  6.557593E+05 -9.120827E-09  3.502715E-11
        99  15  3.500352E+04  1.501620E+04 -3.739318E+04  1.198547E+06 -3.636253E-09 -3.218077E-09
        99  16  1.991540E+06  8.413806E+06  1.919477E+06  1.211546E+06 -9.593935E-09 -3.435574E-09
        99  17  1.554673E+06  6.310939E+06  1.387029E+06  6.913878E+05  5.534717E-09 -6.724865E-09
        99  18  1.066121E+06  4.212946E+06  9.250556E+05  1.257163E+06  2.642323E-09  4.220245E-09
        99  19 -2.178104E+06 -8.333697E+06 -2.183961E+06  1.187824E+06  9.143820E+04  2.791141E+05
        99  20 -1.532838E+06 -6.223786E+06 -1.514036E+06  6.203922E+05  2.491718E+05  8.290211E+04
        99  21 -9.972956E+05 -4.166642E+06 -1.000918E+06  1.140241E+06  1.790744E+05 -1.118517E+05
        99  22 -9.068974E+04  8.088481E+03 -1.297269E+05  1.199700E+06  8.963752E+04  8.478519E+04
        99  23  1.232946E+04  2.543674E+04 -6.213355E+04  6.557693E+05  2.486390E+05  5.034056E+04
        99  24  3.503871E+04  1.502532E+04 -3.733117E+04  1.198550E+06  1.808111E+05  1.801753E+04
        99  25  1.991551E+06  8.413822E+06  1.919515E+06  1.211539E+06  8.784372E+04 -1.121836E+05
        99  26  1.554739E+06  6.310956E+06  1.387146E+06  6.913912E+05  2.481057E+05  1.744896E+04
        99  27  1.066163E+06  4.212979E+06  9.251592E+05  1.257185E+06  1.825657E+05  1.487588E+05
       100   1 -5.147305E+05 -2.167239E+06 -5.368117E+05  1.182043E+06 -9.191076E+04  4.960392E+04
       100   2 -4.289786E+03 -6.375588E+04 -4.753236E+04  6.527768E+05 -3.297271E+03  6.146300E+04
       100   3  5.151942E+05  2.009685E+06  4.278647E+05  1.217001E+06  8.556323E+04  7.334657E+04
       100   4  2.351249E+04  1.676800E+04 -3.348584E+04  1.200394E+06 -9.283026E+04 -1.389469E+04
       100   5  1.973107E+04  3.384494E+04 -2.509640E+04  6.536624E+05 -4.217121E+03 -2.283747E+03
       100   6  2.532905E+04  1.687706E+04 -3.018125E+04  1.200370E+06  8.462790E+04  9.309775E+03
       100   7  5.614239E+05  2.205206E+06  4.695386E+05  1.218790E+06 -9.375172E+04 -7.761547E+04
       100   8  4.375344E+04  1.314633E+05 -2.645791E+03  6.545481E+05 -5.137074E+03 -6.604044E+04
       100   9 -4.648106E+05 -1.972254E+06 -4.884744E+05  1.183776E+06  8.369431E+04 -5.452363E+04
       100  10 -5.147402E+05 -2.167244E+06 -5.368323E+05  1.182047E+06  1.292983E-09 -1.324544E-08
       100  11 -4.290812E+03 -6.375994E+04 -4.753948E+04  6.527770E+05  5.408395E-09  2.683344E-08
       100  12  5.151849E+05  2.009677E+06  4.278409E+05  1.216996E+06  2.256186E-09 -1.341676E-09
       100  13  2.350319E+04  1.676549E+04 -3.350238E+04  1.200393E+06 -2.649051E-09 -7.985033E-11
       100  14  1.973104E+04  3.384493E+04 -2.509644E+04  6.536624E+05 -1.957658E-09 -1.940679E-10
       100  15  2.532134E+04  1.687504E+04 -3.019487E+04  1.200369E+06  1.437017E-09 -3.675958E-09
       100  16  5.614129E+05  2.205198E+06  4.695109E+05  1.218784E+06  2.084364E-09  1.014822E-08
       100  17  4.375224E+04  1.314586E+05 -2.654033E+03  6.545478E+05 -8.085304E-09 -8.774150E-09
       100  18 -4.648190E+05 -1.972259E+06 -4.884932E+05  1.183779E+06 -4.236153E-09  6.810948E-10
       100  19 -5.147305E+05 -2.167239E+06 -5.368117E+05  1.182043E+06  9.191076E+04 -4.960392E+04
       100  20 -4.289786E+03 -6.375588E+04 -4.753236E+04  6.527768E+05  3.297271E+03 -6.146300E+04
       100  21  5.151942E+05  2.009685E+06  4.278647E+05  1.217001E+06 -8.556323E+04 -7.334657E+04
       100  22  2.351249E+04  1.676800E+04 -3.348584E+04  1.200394E+06  9.283026E+04  1.389469E+04
       100  23  1.973107E+04  3.384494E+04 -2.509640E+04  6.536624E+05  4.217121E+03  2.283747E+03
       100  24  2.532905E+04  1.687706E+04 -3.018125E+04  1.200370E+06 -8.462790E+04 -9.309775E+03
       100  25  5.614239E+05  2.205206E+06  4.695386E+05  1.218790E+06  9.375172E+04  7.761547E+04
       100  26  4.375344E+04  1.314633E+05 -2.645791E+03  6.545481E+05  5.137074E+03  6.604044E+04
       100  27 -4.648106E+05 -1.972254E+06 -4.884744E+05  1.183776E+06 -8.369431E+04  5.452363E+04
       101   1  1.017534E+06  4.017972E+06  8.851172E+05  1.253105E+06  1.738336E+05  1.422948E+05
       101   2  1.506464E+06  6.114150E+06  1.351435E+06  6.930341E+05  2.400759E+05  9.429784E+03
       101   3  1.961393E+06  8.217895E+06  1.893170E+06  1.219025E+06  8.524388E+04 -1.217481E+05
       101   4  3.447061E+04  1.607090E+04 -3.263679E+04  1.198608E+06  1.720725E+05  1.279963E+04
       101   5  1.195345E+04  2.491344E+04 -5.286781E+04  6.557096E+05  2.405809E+05  4.013786E+04
       101   6 -7.240054E+04  9.347780E+03 -1.084353E+05  1.199603E+06  8.704177E+04  6.961359E+04
       101   7 -9.496925E+05 -3.971025E+06 -9.513832E+05  1.144399E+06  1.703276E+05 -1.158719E+05
       101   8 -1.485146E+06 -6.030253E+06 -1.459634E+06  6.186407E+05  2.410851E+05  7.054764E+04
       101   9 -2.111129E+06 -8.138208E+06 -2.114804E+06  1.180245E+06  8.884174E+04  2.584710E+05
       101  10  1.017496E+06  4.017942E+06  8.850229E+05  1.253085E+06  3.535507E-09 -1.154146E-08
       101  11  1.506402E+06  6.114134E+06  1.351326E+06  6.930323E+05  1.246240E-08  1.882379E-08
       101  12  1.961381E+06  8.217877E+06  1.893128E+06  1.219033E+06  6.612853E-09  2.751239E-09
       101  13  3.443878E+04  1.606278E+04 -3.269272E+04  1.198606E+06  5.691020E-09 -1.978178E-10
       101  14  1.189088E+04  2.489619E+04 -5.297956E+04  6.557019E+05  1.347704E-08 -1.701228E-11
       101  15 -7.240996E+04  9.340560E+03 -1.084586E+05  1.199598E+06  2.992413E-09 -1.967699E-09
       101  16 -9.497273E+05 -3.971047E+06 -9.514633E+05  1.144415E+06  1.327208E-09  7.872011E-09
       101  17 -1.485210E+06 -6.030274E+06 -1.459752E+06  6.186270E+05 -3.883733E-09 -5.436971E-09
       101  18 -2.111156E+06 -8.138283E+06 -2.114946E+06  1.180226E+06 -3.893362E-09 -1.887185E-09
       101  19  1.017534E+06  4.017972E+06  8.851172E+05  1.253105E+06 -1.738336E+05 -1.422948E+05
       101  20  1.506464E+06  6.114150E+06  1.351435E+06  6.930341E+05 -2.400759E+05 -9.429784E+03
       101  21  1.961393E+06  8.217895E+06  1.893170E+06  1.219025E+06 -8.524388E+04  1.217481E+05
       101  22  3.447061E+04  1.607090E+04 -3.263679E+04  1.198608E+06 -1.720725E+05 -1.279963E+04
       101  23  1.195345E+04  2.491344E+04 -5.286781E+04  6.557096E+05 -2.405809E+05 -4.013786E+04
       101  24 -7.240054E+04  9.347780E+03 -1.084353E+05  1.199603E+06 -8.704177E+04 -6.961359E+04
       101  25 -9.496925E+05 -3.971025E+06 -9.513832E+05  1.144399E+06 -1.703276E+05  1.158719E+05
       101  26 -1.485146E+06 -6.030253E+06 -1.459634E+06  6.186407E+05 -2.410851E+05 -7.054764E+04
       101  27 -2.111129E+06 -8.138208E+06 -2.114804E+06  1.180245E+06 -8.884174E+04 -2.584710E+05
       102   1  7.510020E+06  1.686457E+06  1.678761E+06  6.947621E+05  2.061856E+05 -7.468364E+04
       102   2  6.262561E+06  1.316728E+06  1.272819E+06  3.768854E+05  6.551280E+04 -2.155493E+05
       102   3  5.074853E+06  1.026829E+06  9.812799E+05  6.869922E+05 -7.429975E+04 -1.827792E+05
       102   4  8.633583E+05  4.006370E+04  5.994249E+04  6.929532E+05  4.019893E+04 -7.411368E+04
       102   5  8.466690E+05 -1.137113E+04  2.551606E+04  3.787214E+05  2.600199E+04 -2.156092E+05
       102   6  8.668174E+05 -4.367398E+03  1.859510E+04  6.927944E+05  1.238929E+04 -1.827993E+05
       102   7 -5.743293E+06 -1.609558E+06 -1.561979E+06  6.911799E+05 -1.240331E+05 -7.354055E+04
       102   8 -4.542287E+06 -1.341515E+06 -1.223726E+06  3.805454E+05 -1.317024E+04 -2.156699E+05
       102   9 -3.324896E+06 -1.036787E+06 -9.452228E+05  6.985455E+05  9.849911E+04 -1.828179E+05
       102  10  7.509973E+06  1.686440E+06  1.678672E+06  6.947745E+05 -4.695616E-09  5.830248E-09
       102  11  6.262544E+06  1.316677E+06  1.272723E+06  3.768967E+05  3.979027E-09  4.608310E-09
       102  12  5.074838E+06  1.026792E+06  9.812069E+05  6.869813E+05  9.011180E-09  1.128109E-09
       102  13  8.633551E+05  4.005736E+04  5.992912E+04  6.929556E+05  4.590634E-09 -1.749441E-09
       102  14  8.466558E+05 -1.142125E+04  2.542738E+04  3.787259E+05 -2.022718E-09  5.165249E-09
       102  15  8.668083E+05 -4.403340E+03  1.853198E+04  6.927962E+05 -2.542958E-09  2.344729E-09
       102  16 -5.743311E+06 -1.609568E+06 -1.562018E+06  6.911726E+05 -5.804669E-09 -2.315544E-09
       102  17 -4.542299E+06 -1.341565E+06 -1.223814E+06  3.805431E+05 -7.295494E-09  4.188756E-09
       102  18 -3.324916E+06 -1.036826E+06 -9.453040E+05  6.985601E+05 -8.829599E-09  4.378026E-09
       102  19  7.510020E+06  1.686457E+06  1.678761E+06  6.947621E+05 -2.061856E+05  7.468364E+04
       102  20  6.262561E+06  1.316728E+06  1.272819E+06  3.768854E+05 -6.551280E+04  2.155493E+05
       102  21  5.074853E+06  1.026829E+06  9.812799E+05  6.869922E+05  7.429975E+04  1.827792E+05
       102  22  8.633583E+05  4.006370E+04  5.994249E+04  6.929532E+05 -4.019893E+04  7.411368E+04
       102  23  8.466690E+05 -1.137113E+04  2.551606E+04  3.787214E+05 -2.600199E+04  2.156092E+05
       102  24  8.668174E+05 -4.367398E+03  1.859510E+04  6.927944E+05 -1.238929E+04  1.827993E+05
       102  25 -5.743293E+06 -1.609558E+06 -1.561979E+06  6.911799E+05  1.240331E+05  7.354055E+04
       102  26 -4.542287E+06 -1.341515E+06 -1.223726E+06  3.805454E+05  1.317024E+04  2.156699E+05
       102  27 -3.324896E+06 -1.036787E+06 -9.452228E+05  6.985455E+05 -9.849911E+04  1.828179E+05
       103   1  3.907501E+06  7.500438E+05  7.146974E+05  6.971961E+05 -2.339861E+04 -1.276818E+05
       103   2  2.699518E+06  4.518807E+05  4.325753E+05  3.807674E+05 -3.453664E+04 -7.835104E+04
       103   3  1.495948E+06  1.600887E+05  1.590748E+05  6.945728E+05 -4.582179E+04 -2.089012E+04
       103   4  8.611363E+05  2.538197E+03  1.506758E+04  6.932860E+05  9.320620E+03 -1.276708E+05
       103   5  8.606933E+05  4.566431E+02  1.050993E+04  3.781113E+05  4.052767E+03 -7.828317E+04
       103   6  8.623072E+05  3.832017E+03  1.059738E+04  6.932857E+05 -1.383582E+03 -2.074928E+04
       103   7 -2.176677E+06 -7.456128E+05 -6.851707E+05  6.893871E+05  4.188129E+04 -1.276603E+05
       103   8 -9.750091E+05 -4.512019E+05 -4.117728E+05  3.754605E+05  4.252918E+04 -7.821550E+04
       103   9  2.290396E+05 -1.524521E+05 -1.379000E+05  6.919994E+05  4.300964E+04 -2.060854E+04
       103  10  3.907496E+06  7.500262E+05  7.146657E+05  6.971938E+05  6.164737E-09 -3.830083E-09
       103  11  2.699515E+06  4.518738E+05  4.325615E+05  3.807652E+05 -1.459152E-09  2.743330E-10
       103  12  1.495946E+06  1.600877E+05  1.590700E+05  6.945721E+05 -5.465188E-09  2.692501E-09
       103  13  8.611318E+05  2.520662E+03  1.503677E+04  6.932869E+05  2.421341E-10 -5.263204E-10
       103  14  8.606917E+05  4.500552E+02  1.049838E+04  3.781116E+05  4.853852E-09  5.423055E-10
       103  15  8.623071E+05  3.831554E+03  1.059657E+04  6.932857E+05  7.259972E-09 -4.579013E-10
       103  16 -2.176684E+06 -7.456308E+05 -6.852047E+05  6.893914E+05 -6.755675E-09 -2.782226E-10
       103  17 -9.750126E+05 -4.512090E+05 -4.117877E+05  3.754632E+05  2.066357E-09 -2.082105E-09
       103  18  2.290375E+05 -1.524531E+05 -1.379043E+05  6.920001E+05  1.036770E-08  1.451693E-09
       103  19  3.907501E+06  7.500438E+05  7.146974E+05  6.971961E+05  2.339861E+04  1.276818E+05
       103  20  2.699518E+06  4.518807E+05  4.325753E+05  3.807674E+05  3.453664E+04  7.835104E+04
       103  21  1.495948E+06  1.600887E+05  1.590748E+05  6.945728E+05  4.582179E+04  2.089012E+04
       103  22  8.611363E+05  2.538197E+03  1.506758E+04  6.932860E+05 -9.320620E+03  1.276708E+05
       103  23  8.606933E+05  4.566431E+02  1.050993E+04  3.781113E+05 -4.052767E+03  7.828317E+04
       103  24  8.623072E+05  3.832017E+03  1.059738E+04  6.932857E+05  1.383582E+03  2.074928E+04
       103  25 -2.176677E+06 -7.456128E+05 -6.851707E+05  6.893871E+05 -4.188129E+04  1.276603E+05
       103  26 -9.750091E+05 -4.512019E+05 -4.117728E+05  3.754605E+05 -4.252918E+04  7.821550E+04
       103  27  2.290396E+05 -1.524521E+05 -1.379000E+05  6.919994E+05 -4.300964E+04  2.060854E+04
       104   1  3.443600E+05 -1.245582E+05 -1.106604E+05  6.927670E+05 -4.789194E+04  1.563292E+04
       104   2 -8.600713E+05 -4.229621E+05 -3.806978E+05  3.752811E+05 -4.983548E+04  7.324446E+04
       104   3 -2.061270E+06 -7.136772E+05 -6.479022E+05  6.882086E+05 -5.161673E+04  1.228343E+05
       104   4  8.625196E+05  3.416813E+03  1.139100E+04  6.932774E+05 -3.540522E+03  1.577474E+04
       104   5  8.605373E+05  3.546588E+02  1.509714E+04  3.781224E+05 -1.130840E+04  7.331659E+04
       104   6  8.614195E+05  6.070735E+03  2.572682E+04  6.932698E+05 -1.891744E+04  1.228519E+05
       104   7  1.380930E+06  1.313737E+05  1.334313E+05  6.937879E+05  4.084768E+04  1.591655E+04
       104   8  2.583889E+06  4.234655E+05  4.107018E+05  3.809693E+05  2.732473E+04  7.338896E+04
       104   9  3.792024E+06  7.252214E+05  6.987931E+05  6.983474E+05  1.393511E+04  1.228699E+05
       104  10  3.443575E+05 -1.245591E+05 -1.106652E+05  6.927676E+05  8.188022E-09  9.978939E-10
       104  11 -8.600754E+05 -4.229685E+05 -3.807126E+05  3.752841E+05  3.087110E-09 -3.739724E-09
       104  12 -2.061277E+06 -7.136941E+05 -6.479357E+05  6.882138E+05  2.891000E-09  6.495717E-10
       104  13  8.625195E+05  3.416542E+03  1.139051E+04  6.932774E+05  8.296080E-09  4.786799E-11
       104  14  8.605357E+05  3.488493E+02  1.508680E+04  3.781231E+05  8.700326E-09 -5.515663E-11
       104  15  8.614151E+05  6.054423E+03  2.569776E+04  6.932716E+05  9.069249E-09 -6.601054E-10
       104  16  1.380928E+06  1.313730E+05  1.334277E+05  6.937873E+05  8.104487E-09  4.866437E-10
       104  17  2.583887E+06  4.234595E+05  4.106903E+05  3.809677E+05  4.510507E-09 -3.085758E-09
       104  18  3.792020E+06  7.252052E+05  6.987643E+05  6.983460E+05  5.311226E-09  2.892887E-09
       104  19  3.443600E+05 -1.245582E+05 -1.106604E+05  6.927670E+05  4.789194E+04 -1.563292E+04
       104  20 -8.600713E+05 -4.229621E+05 -3.806978E+05  3.752811E+05  4.983548E+04 -7.324446E+04
       104  21 -2.061270E+06 -7.136772E+05 -6.479022E+05  6.882086E+05  5.161673E+04 -1.228343E+05
       104  22  8.625196E+05  3.416813E+03  1.139100E+04  6.932774E+05  3.540522E+03 -1.577474E+04
       104  23  8.605373E+05  3.546588E+02  1.509714E+04  3.781224E+05  1.130840E+04 -7.331659E+04
       104  24  8.614195E+05  6.070735E+03  2.572682E+04  6.932698E+05  1.891744E+04 -1.228519E+05
       104  25  1.380930E+06  1.313737E+05  1.334313E+05  6.937879E+05 -4.084768E+04 -1.591655E+04
       104  26  2.583889E+06  4.234655E+05  4.107018E+05  3.809693E+05 -2.732473E+04 -7.338896E+04
       104  27  3.792024E+06  7.252214E+05  6.987931E+05  6.983474E+05 -1.393511E+04 -1.228699E+05
       105   1 -3.206688E+06 -1.010358E+06 -9.050454E+05  7.044423E+05 -1.093233E+05  1.776432E+05
       105   2 -4.430186E+06 -1.315498E+06 -1.173511E+06  3.740560E+05 -1.216054E+04  2.109761E+05
       105   3 -5.624600E+06 -1.536984E+06 -1.480678E+06  6.722940E+05  8.428036E+04  7.223149E+04
       105   4  8.697126E+05 -6.415405E+03  3.222899E+04  6.927580E+05 -2.396664E+04  1.776420E+05
       105   5  8.434676E+05 -1.391397E+04  4.895382E+04  3.787546E+05 -5.011933E+04  2.109113E+05
       105   6  8.663084E+05  8.343875E+04  1.127375E+05  6.930281E+05 -7.680676E+04  7.275765E+04
       105   7  4.961549E+06  9.963705E+05  9.684330E+05  6.809845E+05  6.194850E+04  1.776375E+05
       105   8  6.142915E+06  1.285712E+06  1.269561E+06  3.834963E+05 -8.839846E+04  2.108466E+05
       105   9  7.395836E+06  1.700748E+06  1.703159E+06  7.139948E+05 -2.395829E+05  7.327103E+04
       105  10 -3.206710E+06 -1.010395E+06 -9.051274E+05  7.044580E+05  8.740286E-09  2.433889E-09
       105  11 -4.430198E+06 -1.315545E+06 -1.173595E+06  3.740581E+05 -1.535855E-09  5.443346E-09
       105  12 -5.624609E+06 -1.536991E+06 -1.480701E+06  6.722891E+05  3.423027E-09  5.189655E-09
       105  13  8.697035E+05 -6.449466E+03  3.216856E+04  6.927614E+05  1.293962E-08  3.405975E-09
       105  14  8.434530E+05 -1.396244E+04  4.886545E+04  3.787631E+05  1.476551E-08  3.839299E-09
       105  15  8.663007E+05  8.343148E+04  1.127165E+05  6.930326E+05  1.317753E-09 -4.183353E-09
       105  16  4.961536E+06  9.963356E+05  9.683666E+05  6.809756E+05 -3.326676E-09  4.849413E-09
       105  17  6.142895E+06  1.285662E+06  1.269463E+06  3.835113E+05 -2.929296E-09  2.304532E-09
       105  18  7.395773E+06  1.700727E+06  1.703042E+06  7.140089E+05 -4.454216E-09 -2.176143E-09
       105  19 -3.206688E+06 -1.010358E+06 -9.050454E+05  7.044423E+05  1.093233E+05 -1.776432E+05
       105  20 -4.430186E+06 -1.315498E+06 -1.173511E+06  3.740560E+05  1.216054E+04 -2.109761E+05
       105  21 -5.624600E+06 -1.536984E+06 -1.480678E+06  6.722940E+05 -8.428036E+04 -7.223149E+04
       105  22  8.697126E+05 -6.415405E+03  3.222899E+04  6.927580E+05  2.396664E+04 -1.776420E+05
       105  23  8.434676E+05 -1.391397E+04  4.895382E+04  3.787546E+05  5.011933E+04 -2.109113E+05
       105  24  8.663084E+05  8.343875E+04  1.127375E+05  6.930281E+05  7.680676E+04 -7.275765E+04
       105  25  4.961549E+06  9.963705E+05  9.684330E+05  6.809845E+05 -6.194850E+04 -1.776375E+05
       105  26  6.142915E+06  1.285712E+06  1.269561E+06  3.834963E+05  8.839846E+04 -2.108466E+05
       105  27  7.395836E+06  1.700748E+06  1.703159E+06  7.139948E+05  2.395829E+05 -7.327103E+04
       106   1 -2.180527E+06 -8.372651E+06 -2.179873E+06  1.198790E+06 -9.242986E+04 -2.584591E+05
       106   2 -1.554282E+06 -6.228669E+06 -1.518188E+06  6.290354E+05 -2.520927E+05 -6.746052E+04
       106   3 -1.008164E+06 -4.129075E+06 -1.002460E+06  1.166559E+06 -1.806460E+05  1.220377E+05
       106   4 -6.349456E+04  8.671883E+04 -9.665456E+04  1.222441E+06 -9.060759E+04 -6.144225E+04
       106   5  1.055454E+04  9.989204E+04 -4.786983E+04  6.686683E+05 -2.515521E+05 -3.462486E+04
       106   6  3.416310E+04  9.385005E+04 -2.943774E+04  1.221559E+06 -1.824216E+05 -9.963225E+03
       106   7  2.048218E+06  8.611849E+06  1.981430E+06  1.246213E+06 -8.878496E+04  1.382870E+05
       106   8  1.572564E+06  6.465674E+06  1.419758E+06  7.085910E+05 -2.510107E+05 -1.452770E+03
       106   9  1.075255E+06  4.333382E+06  9.424672E+05  1.276865E+06 -1.842140E+05 -1.428593E+05
       106  10 -2.180555E+06 -8.372726E+06 -2.180016E+06  1.198771E+06 -5.951967E-09 -1.766442E-08
       106  11 -1.554352E+06 -6.228690E+06 -1.518316E+06  6.290217E+05 -6.288980E-10  1.970415E-08
       106  12 -1.008203E+06 -4.129100E+06 -1.002550E+06  1.166576E+06 -3.427901E-09  1.089722E-08
       106  13 -6.350437E+04  8.671259E+04 -9.667704E+04  1.222436E+06 -1.573286E-08  7.354085E-09
       106  14  1.048628E+04  9.987377E+04 -4.799095E+04  6.686613E+05 -1.927307E-08  1.080479E-08
       106  15  3.412734E+04  9.384102E+04 -2.950044E+04  1.221557E+06 -3.269456E-09  3.409936E-08
       106  16  2.048204E+06  8.611827E+06  1.981379E+06  1.246222E+06 -1.248957E-09  1.791068E-08
       106  17  1.572496E+06  6.465657E+06  1.419640E+06  7.085907E+05 -1.343343E-08 -1.433624E-08
       106  18  1.075213E+06  4.333352E+06  9.423655E+05  1.276844E+06  6.103013E-09 -2.569968E-08
       106  19 -2.180527E+06 -8.372651E+06 -2.179873E+06  1.198790E+06  9.242986E+04  2.584591E+05
       106  20 -1.554282E+06 -6.228669E+06 -1.518188E+06  6.290354E+05  2.520927E+05  6.746052E+04
       106  21 -1.008164E+06 -4.129075E+06 -1.002460E+06  1.166559E+06  1.806460E+05 -1.220377E+05
       106  22 -6.349456E+04  8.671883E+04 -9.665456E+04  1.222441E+06  9.060759E+04  6.144225E+04
       106  23  1.055454E+04  9.989204E+04 -4.786983E+04  6.686683E+05  2.515521E+05  3.462486E+04
       106  24  3.416310E+04  9.385005E+04 -2.943774E+04  1.221559E+06  1.824216E+05  9.963225E+03
       106  25  2.048218E+06  8.611849E+06  1.981430E+06  1.246213E+06  8.878496E+04 -1.382870E+05
       106  26  1.572564E+06  6.465674E+06  1.419758E+06  7.085910E+05  2.510107E+05  1.452770E+03
       106  27  1.075255E+06  4.333382E+06  9.424672E+05  1.276865E+06  1.842140E+05  1.428593E+05
       107   1 -5.130447E+05 -2.095130E+06 -5.321424E+05  1.204377E+06 -9.200512E+04  5.771926E+04
       107   2  4.271154E+03  4.658994E+04 -3.874008E+04  6.658032E+05 -1.759138E+03  6.893607E+04
       107   3  5.317571E+05  2.158078E+06  4.413057E+05  1.240598E+06  8.866271E+04  8.018164E+04
       107   4  2.635487E+04  9.369197E+04 -2.775949E+04  1.223285E+06 -9.294774E+04 -6.982866E+03
       107   5  2.011334E+04  1.109297E+05 -2.395352E+04  6.666399E+05 -2.699682E+03  4.025228E+03
       107   6  2.437621E+04  9.376446E+04 -3.312881E+04  1.223314E+06  8.770857E+04  1.502154E+04
       107   7  5.654216E+05  2.286965E+06  4.763212E+05  1.242239E+06 -9.389246E+04 -7.191189E+04
       107   8  3.595751E+04  1.752823E+05 -9.151392E+03  6.674768E+05 -3.640348E+03 -6.089229E+04
       107   9 -4.832992E+05 -1.966605E+06 -5.078291E+05  1.206069E+06  8.675627E+04 -4.992425E+04
       107  10 -5.130547E+05 -2.095136E+06 -5.321647E+05  1.204382E+06 -1.129054E-09 -8.697475E-09
       107  11  4.269874E+03  4.658483E+04 -3.874901E+04  6.658033E+05  4.864803E-09  2.464126E-08
       107  12  5.317469E+05  2.158069E+06  4.412789E+05  1.240592E+06  7.090953E-09 -5.102381E-10
       107  13  2.634558E+04  9.368960E+04 -2.777581E+04  1.223284E+06 -6.769950E-09  1.369589E-08
       107  14  2.011333E+04  1.109297E+05 -2.395356E+04  6.666399E+05  7.239841E-09  1.426299E-08
       107  15  2.436789E+04  9.376216E+04 -3.314368E+04  1.223313E+06  4.896156E-09  3.661246E-08
       107  16  5.654108E+05  2.286957E+06  4.762950E+05  1.242234E+06  8.747218E-09  8.713112E-09
       107  17  3.595650E+04  1.752784E+05 -9.158382E+03  6.674766E+05 -8.786394E-09 -1.680926E-08
       107  18 -4.833080E+05 -1.966609E+06 -5.078480E+05  1.206073E+06  1.083060E-09 -1.586356E-08
       107  19 -5.130447E+05 -2.095130E+06 -5.321424E+05  1.204377E+06  9.200512E+04 -5.771926E+04
       107  20  4.271154E+03  4.658994E+04 -3.874008E+04  6.658032E+05  1.759138E+03 -6.893607E+04
       107  21  5.317571E+05  2.158078E+06  4.413057E+05  1.240598E+06 -8.866271E+04 -8.018164E+04
       107  22  2.635487E+04  9.369197E+04 -2.775949E+04  1.223285E+06  9.294774E+04  6.982866E+03
       107  23  2.011334E+04  1.109297E+05 -2.395352E+04  6.666399E+05  2.699682E+03 -4.025228E+03
       107  24  2.437621E+04  9.376446E+04 -3.312881E+04  1.223314E+06 -8.770857E+04 -1.502154E+04
       107  25  5.654216E+05  2.286965E+06  4.763212E+05  1.242239E+06  9.389246E+04  7.191189E+04
       107  26  3.595751E+04  1.752823E+05 -9.151392E+03  6.674768E+05  3.640348E+03  6.089229E+04
       107  27 -4.832992E+05 -1.966605E+06 -5.078291E+05  1.206069E+06 -8.675627E+04  4.992425E+04
       108   1  1.045805E+06  4.201974E+06  9.051230E+05  1.280043E+06  1.786484E+05  1.511938E+05
       108   2  1.543372E+06  6.339414E+06  1.375181E+06  7.044435E+05  2.459975E+05  2.010690E+04
       108   3  1.987887E+06  8.480340E+06  1.914862E+06  1.234970E+06  8.738638E+04 -1.092636E+05
       108   4  3.621474E+04  9.180358E+04 -3.731158E+04  1.221524E+06  1.768491E+05  1.906631E+04
       108   5  1.307109E+04  1.029769E+05 -6.279028E+04  6.686651E+05  2.465196E+05  5.172221E+04
       108   6 -9.168277E+04  8.481524E+04 -1.318906E+05  1.222711E+06  8.920969E+04  8.654593E+04
       108   7 -9.745355E+05 -4.002754E+06 -9.807935E+05  1.163324E+06  1.750679E+05 -1.121984E+05
       108   8 -1.519944E+06 -6.097733E+06 -1.503344E+06  6.331301E+05  2.470413E+05  8.302264E+04
       108   9 -2.176413E+06 -8.246927E+06 -2.183624E+06  1.210418E+06  9.103987E+04  2.797344E+05
       108  10  1.045765E+06  4.201941E+06  9.050206E+05  1.280022E+06  6.926260E-09 -6.001081E-10
       108  11  1.543307E+06  6.339398E+06  1.375067E+06  7.044396E+05 -1.568614E-09  1.633960E-08
       108  12  1.987876E+06  8.480325E+06  1.914825E+06  1.234977E+06 -1.816298E-09 -9.503617E-09
       108  13  3.618106E+04  9.179480E+04 -3.737101E+04  1.221521E+06  7.466658E-09  1.295362E-08
       108  14  1.300513E+04  1.029578E+05 -6.290945E+04  6.686548E+05  5.489225E-10  1.089822E-08
       108  15 -9.169330E+04  8.480508E+04 -1.319195E+05  1.222705E+06 -3.734315E-09  1.972396E-08
       108  16 -9.745719E+05 -4.002776E+06 -9.808751E+05  1.163340E+06  3.797315E-09  3.886491E-10
       108  17 -1.520012E+06 -6.097757E+06 -1.503472E+06  6.331135E+05 -6.765144E-09 -1.089104E-08
       108  18 -2.176443E+06 -8.247014E+06 -2.183789E+06  1.210397E+06 -2.918435E-09  9.414083E-10
       108  19  1.045805E+06  4.201974E+06  9.051230E+05  1.280043E+06 -1.786484E+05 -1.511938E+05
       108  20  1.543372E+06  6.339414E+06  1.375181E+06  7.044435E+05 -2.459975E+05 -2.010690E+04
       108  21  1.987887E+06  8.480340E+06  1.914862E+06  1.234970E+06 -8.738638E+04  1.092636E+05
       108  22  3.621474E+04  9.180358E+04 -3.731158E+04  1.221524E+06 -1.768491E+05 -1.906631E+04
       108  23  1.307109E+04  1.029769E+05 -6.279028E+04  6.686651E+05 -2.465196E+05 -5.172221E+04
       108  24 -9.168277E+04  8.481524E+04 -1.318906E+05  1.222711E+06 -8.920969E+04 -8.654593E+04
       108  25 -9.745355E+05 -4.002754E+06 -9.807935E+05  1.163324E+06 -1.750679E+05  1.121984E+05
       108  26 -1.519944E+06 -6.097733E+06 -1.503344E+06  6.331301E+05 -2.470413E+05 -8.302264E+04
       108  27 -2.176413E+06 -8.246927E+06 -2.183624E+06  1.210418E+06 -9.103987E+04 -2.797344E+05
       109   1  8.114021E+06  1.903058E+06  1.890133E+06  8.730862E+05  2.152720E+05 -8.377993E+04
       109   2  6.545594E+06  1.467434E+06  1.406550E+06  4.780723E+05  5.992906E+04 -2.393616E+05
       109   3  5.041211E+06  1.102579E+06  1.045183E+06  8.759291E+05 -9.450931E+04 -1.951615E+05
       109   4  5.303936E+05  2.474020E+04  4.287853E+04  8.759019E+05  2.907874E+04 -8.326952E+04
       109   5  5.143099E+05 -1.163568E+04  1.723140E+04  4.791814E+05  1.933043E+04 -2.394846E+05
       109   6  5.352380E+05 -1.900126E+03  1.380128E+04  8.758027E+05  1.010137E+04 -1.950565E+05
       109   7 -7.001170E+06 -1.857783E+06 -1.808422E+06  8.786893E+05 -1.548697E+05 -8.275903E+04
       109   8 -5.483570E+06 -1.493242E+06 -1.374496E+06  4.802752E+05 -2.088070E+04 -2.396089E+05
       109   9 -3.952011E+06 -1.107782E+06 -1.018873E+06  8.756560E+05  1.139636E+05 -1.949510E+05
       109  10  8.113969E+06  1.903039E+06  1.890034E+06  8.731006E+05 -2.238702E-09  4.319985E-09
       109  11  6.545575E+06  1.467371E+06  1.406436E+06  4.780838E+05 -1.731530E-09 -1.168243E-09
       109  12  5.041191E+06  1.102536E+06  1.045095E+06  8.759143E+05  1.691610E-09 -5.109747E-09
       109  13  5.303909E+05  2.473252E+04  4.286389E+04  8.759039E+05  3.801245E-10 -8.000024E-09
       109  14  5.142941E+05 -1.169738E+04  1.712288E+04  4.791851E+05  1.530279E-08 -3.199293E-09
       109  15  5.352277E+05 -1.941023E+03  1.372955E+04  8.758043E+05  2.746290E-09 -2.797769E-09
       109  16 -7.001198E+06 -1.857797E+06 -1.808480E+06  8.786790E+05 -1.942165E-09 -5.789085E-09
       109  17 -5.483586E+06 -1.493304E+06 -1.374604E+06  4.802712E+05 -4.332053E-09 -7.446994E-11
       109  18 -3.952035E+06 -1.107826E+06 -1.018969E+06  8.756740E+05 -2.535663E-09 -2.338949E-09
       109  19  8.114021E+06  1.903058E+06  1.890133E+06  8.730862E+05 -2.152720E+05  8.377993E+04
       109  20  6.545594E+06  1.467434E+06  1.406550E+06  4.780723E+05 -5.992906E+04  2.393616E+05
       109  21  5.041211E+06  1.102579E+06  1.045183E+06  8.759291E+05  9.450931E+04  1.951615E+05
       109  22  5.303936E+05  2.474020E+04  4.287853E+04  8.759019E+05 -2.907874E+04  8.326952E+04
       109  23  5.143099E+05 -1.163568E+04  1.723140E+04  4.791814E+05 -1.933043E+04  2.394846E+05
       109  24  5.352380E+05 -1.900126E+03  1.380128E+04  8.758027E+05 -1.010137E+04  1.950565E+05
       109  25 -7.001170E+06 -1.857783E+06 -1.808422E+06  8.786893E+05  1.548697E+05  8.275903E+04
       109  26 -5.483570E+06 -1.493242E+06 -1.374496E+06  4.802752E+05  2.088070E+04  2.396089E+05
       109  27 -3.952011E+06 -1.107782E+06 -1.018873E+06  8.756560E+05 -1.139636E+05  1.949510E+05
       110   1  3.567007E+06  7.490871E+05  7.083512E+05  8.826067E+05 -3.495729E+04 -1.277570E+05
       110   2  2.040479E+06  3.730593E+05  3.540938E+05  4.810783E+05 -4.530851E+04 -6.420075E+04
       110   3  5.163637E+05  2.853724E+03  7.102764E+03  8.772069E+05 -5.581670E+04  8.659616E+03
       110   4  5.295039E+05  3.500302E+03  1.065036E+04  8.768075E+05  7.613287E+03 -1.276778E+05
       110   5  5.305716E+05  2.144670E+03  7.206530E+03  4.779194E+05  3.950151E+03 -6.405446E+04
       110   6  5.307188E+05  5.602552E+03  6.515937E+03  8.768060E+05  1.048353E+02  8.891497E+03
       110   7 -2.499491E+06 -7.427281E+05 -6.876530E+05  8.710251E+05  4.997810E+04 -1.275992E+05
       110   8 -9.772255E+05 -3.689275E+05 -3.398222E+05  4.747659E+05  5.309027E+04 -6.390846E+04
       110   9  5.450809E+05  8.353060E+03  5.940886E+03  8.764051E+05  5.602752E+04  9.123301E+03
       110  10  3.567002E+06  7.490692E+05  7.083183E+05  8.826032E+05 -2.180652E-09 -4.319860E-10
       110  11  2.040475E+06  3.730543E+05  3.540822E+05  4.810760E+05 -4.154226E-09 -1.308376E-09
       110  12  5.163603E+05  2.852807E+03  7.096770E+03  8.772073E+05  6.215924E-09  3.021410E-09
       110  13  5.294995E+05  3.482775E+03  1.061960E+04  8.768083E+05  1.377501E-11 -1.510844E-09
       110  14  5.305705E+05  2.140259E+03  7.198788E+03  4.779196E+05 -7.893892E-11  1.436245E-09
       110  15  5.307188E+05  5.602467E+03  6.515789E+03  8.768060E+05 -8.141986E-09  1.162969E-09
       110  16 -2.499498E+06 -7.427462E+05 -6.876883E+05  8.710302E+05  1.337478E-08 -3.832924E-09
       110  17 -9.772296E+05 -3.689327E+05 -3.398352E+05  4.747686E+05  6.624556E-09  1.119862E-09
       110  18  5.450775E+05  8.352130E+03  5.934839E+03  8.764046E+05 -6.767758E-09  4.860709E-09
       110  19  3.567007E+06  7.490871E+05  7.083512E+05  8.826067E+05  3.495729E+04  1.277570E+05
       110  20  2.040479E+06  3.730593E+05  3.540938E+05  4.810783E+05  4.530851E+04  6.420075E+04
       110  21  5.163637E+05  2.853724E+03  7.102764E+03  8.772069E+05  5.581670E+04 -8.659616E+03
       110  22  5.295039E+05  3.500302E+03  1.065036E+04  8.768075E+05 -7.613287E+03  1.276778E+05
       110  23  5.305716E+05  2.144670E+03  7.206530E+03  4.779194E+05 -3.950151E+03  6.405446E+04
       110  24  5.307188E+05  5.602552E+03  6.515937E+03  8.768060E+05 -1.048353E+02 -8.891497E+03
       110  25 -2.499491E+06 -7.427281E+05 -6.876530E+05  8.710251E+05 -4.997810E+04  1.275992E+05
       110  26 -9.772255E+05 -3.689275E+05 -3.398222E+05  4.747659E+05 -5.309027E+04  6.390846E+04
       110  27  5.450809E+05  8.353060E+03  5.940886E+03  8.764051E+05 -5.602752E+04 -9.123301E+03
       111   1 -9.407411E+05 -3.573524E+05 -3.354008E+05  8.725275E+05 -5.784775E+04  5.494148E+04
       111   2 -2.465047E+06 -7.372441E+05 -6.818689E+05  4.736508E+05 -5.365886E+04  1.278910E+05
       111   3 -3.984260E+06 -1.114064E+06 -1.030205E+06  8.732077E+05 -4.913924E+04  1.896343E+05
       111   4  5.313626E+05  5.629628E+03  6.868973E+03  8.768990E+05 -1.428884E+03  5.515620E+04
       111   5  5.279690E+05 -6.930367E+01  7.283930E+03  4.778037E+05 -5.354996E+03  1.279632E+05
       111   6  5.289490E+05 -1.123271E+03  1.158207E+04  8.769081E+05 -8.940189E+03  1.895964E+05
       111   7  2.005474E+06  3.684605E+05  3.490047E+05  8.812777E+05  5.512297E+04  5.537139E+04
       111   8  3.529296E+06  7.364800E+05  6.958520E+05  4.819689E+05  4.318062E+04  1.280358E+05
       111   9  5.061067E+06  1.110390E+06  1.052020E+06  8.806164E+05  3.155042E+04  1.895592E+05
       111  10 -9.407455E+05 -3.573565E+05 -3.354128E+05  8.725300E+05  4.452252E-09  6.360815E-10
       111  11 -2.465054E+06 -7.372624E+05 -6.819051E+05  4.736563E+05 -9.583741E-09 -2.712721E-09
       111  12 -3.984273E+06 -1.114104E+06 -1.030277E+06  8.732152E+05  1.684186E-09 -4.584714E-09
       111  13  5.313618E+05  5.626360E+03  6.863250E+03  8.768991E+05 -4.308891E-09  2.843212E-11
       111  14  5.279646E+05 -8.689986E+01  7.253095E+03  4.778042E+05  2.230718E-09 -3.131003E-09
       111  15  5.289392E+05 -1.161906E+03  1.151434E+04  8.769094E+05  7.662477E-09 -4.393176E-09
       111  16  2.005470E+06  3.684564E+05  3.489933E+05  8.812752E+05 -5.104028E-09  1.049921E-09
       111  17  3.529289E+06  7.364620E+05  6.958177E+05  4.819645E+05  6.611662E-09  1.225432E-09
       111  18  5.061056E+06  1.110351E+06  1.051951E+06  8.806117E+05 -4.982783E-09 -3.962612E-09
       111  19 -9.407411E+05 -3.573524E+05 -3.354008E+05  8.725275E+05  5.784775E+04 -5.494148E+04
       111  20 -2.465047E+06 -7.372441E+05 -6.818689E+05  4.736508E+05  5.365886E+04 -1.278910E+05
       111  21 -3.984260E+06 -1.114064E+06 -1.030205E+06  8.732077E+05  4.913924E+04 -1.896343E+05
       111  22  5.313626E+05  5.629628E+03  6.868973E+03  8.768990E+05  1.428884E+03 -5.515620E+04
       111  23  5.279690E+05 -6.930367E+01  7.283930E+03  4.778037E+05  5.354996E+03 -1.279632E+05
       111  24  5.289490E+05 -1.123271E+03  1.158207E+04  8.769081E+05  8.940189E+03 -1.895964E+05
       111  25  2.005474E+06  3.684605E+05  3.490047E+05  8.812777E+05 -5.512297E+04 -5.537139E+04
       111  26  3.529296E+06  7.364800E+05  6.958520E+05  4.819689E+05 -4.318062E+04 -1.280358E+05
       111  27  5.061067E+06  1.110390E+06  1.052020E+06  8.806164E+05 -3.155042E+04 -1.895592E+05
       112   1 -5.435394E+06 -1.480367E+06 -1.359331E+06  8.828972E+05 -1.244262E+05  2.614392E+05
       112   2 -6.975178E+06 -1.868375E+06 -1.718608E+06  4.945850E+05  3.576946E+04  3.003438E+05
       112   3 -8.487896E+06 -2.233333E+06 -2.168974E+06  9.003263E+05  1.942244E+05  1.010486E+05
       112   4  5.363745E+05 -7.414683E+03  1.553606E+04  8.758088E+05 -1.161407E+04  2.612821E+05
       112   5  5.059777E+05 -1.874177E+04  1.827981E+04  4.791663E+05 -2.134762E+04  3.002827E+05
       112   6  5.303281E+05  2.271355E+04  4.861717E+04  8.760369E+05 -3.241704E+04  1.023556E+05
       112   7  6.541342E+06  1.463048E+06  1.388089E+06  8.686279E+05  1.022821E+05  2.611229E+05
       112   8  8.039181E+06  1.826942E+06  1.751421E+06  4.635834E+05 -7.915249E+04  3.002256E+05
       112   9  9.623317E+06  2.272728E+06  2.260416E+06  8.514557E+05 -2.623762E+05  1.036731E+05
       112  10 -5.435429E+06 -1.480445E+06 -1.359489E+06  8.829235E+05  1.005889E-09  1.514679E-09
       112  11 -6.975203E+06 -1.868473E+06 -1.718780E+06  4.945763E+05 -8.657909E-09  1.700684E-08
       112  12 -8.487939E+06 -2.233354E+06 -2.169065E+06  9.003104E+05  4.451332E-09  6.886772E-09
       112  13  5.363561E+05 -7.488052E+03  1.540746E+04  8.758113E+05  3.816064E-09  2.861889E-09
       112  14  5.059530E+05 -1.883875E+04  1.810944E+04  4.791715E+05  1.317686E-08 -1.692185E-09
       112  15  5.303241E+05  2.270201E+04  4.859548E+04  8.760396E+05  5.370885E-10  1.876790E-09
       112  16  6.541313E+06  1.462972E+06  1.387942E+06  8.686065E+05  2.723807E-09 -5.361405E-10
       112  17  8.039150E+06  1.826843E+06  1.751240E+06  4.636024E+05  1.607249E-08 -1.207639E-10
       112  18  9.623241E+06  2.272699E+06  2.260268E+06  8.514775E+05 -7.244228E-09  8.799850E-09
       112  19 -5.435394E+06 -1.480367E+06 -1.359331E+06  8.828972E+05  1.244262E+05 -2.614392E+05
       112  20 -6.975178E+06 -1.868375E+06 -1.718608E+06  4.945850E+05 -3.576946E+04 -3.003438E+05
       112  21 -8.487896E+06 -2.233333E+06 -2.168974E+06  9.003263E+05 -1.942244E+05 -1.010486E+05
       112  22  5.363745E+05 -7.414683E+03  1.553606E+04  8.758088E+05  1.161407E+04 -2.612821E+05
       112  23  5.059777E+05 -1.874177E+04  1.827981E+04  4.791663E+05  2.134762E+04 -3.002827E+05
       112  24  5.303281E+05  2.271355E+04  4.861717E+04  8.760369E+05  3.241704E+04 -1.023556E+05
       112  25  6.541342E+06  1.463048E+06  1.388089E+06  8.686279E+05 -1.022821E+05 -2.611229E+05
       112  26  8.039181E+06  1.826942E+06  1.751421E+06  4.635834E+05  7.915249E+04 -3.002256E+05
       112  27  9.623317E+06  2.272728E+06  2.260416E+06  8.514557E+05  2.623762E+05 -1.036731E+05
       113   1 -2.348603E+06 -9.304946E+06 -2.347463E+06  1.273627E+06 -9.966985E+04 -2.777798E+05
       113   2 -1.679382E+06 -7.024194E+06 -1.641557E+06  6.655275E+05 -2.723742E+05 -7.147488E+04
       113   3 -1.096817E+06 -4.789040E+06 -1.093054E+06  1.236327E+06 -1.964846E+05  1.332641E+05
       113   4 -7.021308E+04 -2.072500E+05 -1.055388E+05  1.298308E+06 -9.770700E+04 -6.543843E+04
       113   5  1.061344E+04 -1.937778E+05 -5.368747E+04  7.087260E+05 -2.717636E+05 -3.547737E+04
       113   6  3.678682E+04 -1.990141E+05 -3.489644E+04  1.297342E+06 -1.984270E+05 -7.836104E+03
       113   7  2.202015E+06  8.966591E+06  2.130440E+06  1.323114E+06 -9.574440E+04  1.500512E+05
       113   8  1.697311E+06  6.680040E+06  1.531045E+06  7.522642E+05 -2.711521E+05  9.186622E+02
       113   9  1.168930E+06  4.410648E+06  1.021937E+06  1.358725E+06 -2.003893E+05 -1.499773E+05
       113  10 -2.348635E+06 -9.305032E+06 -2.347629E+06  1.273604E+06 -2.179471E-09 -3.338415E-09
       113  11 -1.679463E+06 -7.024219E+06 -1.641706E+06  6.655118E+05  1.230380E-09 -1.812770E-08
       113  12 -1.096863E+06 -4.789070E+06 -1.093161E+06  1.236348E+06 -2.190110E-09 -1.707742E-09
       113  13 -7.022446E+04 -2.072572E+05 -1.055647E+05  1.298303E+06  7.535292E-10  7.175512E-09
       113  14  1.053381E+04 -1.937990E+05 -5.382856E+04  7.087183E+05 -3.381458E-09 -1.079836E-08
       113  15  3.674453E+04 -1.990248E+05 -3.497052E+04  1.297340E+06  6.628089E-09  1.499532E-08
       113  16  2.202000E+06  8.966564E+06  2.130381E+06  1.323126E+06  2.152440E-09  5.259709E-11
       113  17  1.697232E+06  6.680020E+06  1.530907E+06  7.522644E+05  6.033060E-09  1.297851E-08
       113  18  1.168881E+06  4.410613E+06  1.021820E+06  1.358701E+06  8.865488E-09  8.582177E-09
       113  19 -2.348603E+06 -9.304946E+06 -2.347463E+06  1.273627E+06  9.966985E+04  2.777798E+05
       113  20 -1.679382E+06 -7.024194E+06 -1.641557E+06  6.655275E+05  2.723742E+05  7.147488E+04
       113  21 -1.096817E+06 -4.789040E+06 -1.093054E+06  1.236327E+06  1.964846E+05 -1.332641E+05
       113  22 -7.021308E+04 -2.072500E+05 -1.055388E+05  1.298308E+06  9.770700E+04  6.543843E+04
       113  23  1.061344E+04 -1.937778E+05 -5.368747E+04  7.087260E+05  2.717636E+05  3.547737E+04
       113  24  3.678682E+04 -1.990141E+05 -3.489644E+04  1.297342E+06  1.984270E+05  7.836104E+03
       113  25  2.202015E+06  8.966591E+06  2.130440E+06  1.323114E+06  9.574440E+04 -1.500512E+05
       113  26  1.697311E+06  6.680040E+06  1.531045E+06  7.522642E+05  2.711521E+05 -9.186622E+02
       113  27  1.168930E+06  4.410648E+06  1.021937E+06  1.358725E+06  2.003893E+05  1.499773E+05
       114   1 -5.685341E+05 -2.622821E+06 -5.928284E+05  1.278405E+06 -1.017922E+05  6.473637E+04
       114   2 -1.692488E+04 -3.395720E+05 -6.976572E+04  7.040050E+05 -5.630850E+03  8.066770E+04
       114   3  5.415542E+05  1.909204E+06  4.352046E+05  1.316310E+06  9.095029E+04  9.662827E+04
       114   4  2.886014E+04 -1.998111E+05 -3.418880E+04  1.299472E+06 -1.028223E+05 -4.034869E+03
       114   5  2.235660E+04 -1.801182E+05 -3.309635E+04  7.061969E+05 -6.665569E+03  1.150227E+04
       114   6  2.312802E+04 -1.996202E+05 -4.956826E+04  1.299560E+06  8.989307E+04  2.700836E+04
       114   7  6.258459E+05  2.228655E+06  5.240786E+05  1.320597E+06 -1.038548E+05 -7.307328E+04
       114   8  6.163889E+04 -2.063053E+04  3.589323E+03  7.083893E+05 -7.700633E+03 -5.768080E+04
       114   9 -4.956056E+05 -2.304325E+06 -5.346171E+05  1.282848E+06  8.883759E+04 -4.237759E+04
       114  10 -5.685464E+05 -2.622828E+06 -5.928559E+05  1.278410E+06  3.601832E-09 -4.553866E-10
       114  11 -1.692667E+04 -3.395790E+05 -6.977801E+04  7.040054E+05  1.140660E-08 -2.223796E-08
       114  12  5.415429E+05  1.909192E+06  4.351717E+05  1.316303E+06  5.034780E-09 -5.433266E-09
       114  13  2.884878E+04 -1.998140E+05 -3.420869E+04  1.299472E+06 -3.650699E-09  1.414622E-08
       114  14  2.235652E+04 -1.801183E+05 -3.309668E+04  7.061969E+05 -4.526320E-09 -1.493257E-08
       114  15  2.311915E+04 -1.996231E+05 -4.958479E+04  1.299558E+06  3.076071E-09  1.632382E-08
       114  16  6.258329E+05  2.228647E+06  5.240484E+05  1.320591E+06  7.496997E-09 -6.555680E-09
       114  17  6.163793E+04 -2.063412E+04  3.582961E+03  7.083889E+05  6.773197E-09  1.467318E-08
       114  18 -4.956146E+05 -2.304329E+06 -5.346354E+05  1.282851E+06  5.833976E-09  1.282080E-08
       114  19 -5.685341E+05 -2.622821E+06 -5.928284E+05  1.278405E+06  1.017922E+05 -6.473637E+04
       114  20 -1.692488E+04 -3.395720E+05 -6.976572E+04  7.040050E+05  5.630850E+03 -8.066770E+04
       114  21  5.415542E+05  1.909204E+06  4.352046E+05  1.316310E+06 -9.095029E+04 -9.662827E+04
       114  22  2.886014E+04 -1.998111E+05 -3.418880E+04  1.299472E+06  1.028223E+05  4.034869E+03
       114  23  2.235660E+04 -1.801182E+05 -3.309635E+04  7.061969E+05  6.665569E+03 -1.150227E+04
       114  24  2.312802E+04 -1.996202E+05 -4.956826E+04  1.299560E+06 -8.989307E+04 -2.700836E+04
       114  25  6.258459E+05  2.228655E+06  5.240786E+05  1.320597E+06  1.038548E+05  7.307328E+04
       114  26  6.163889E+04 -2.063053E+04  3.589323E+03  7.083893E+05  7.700633E+03  5.768080E+04
       114  27 -4.956056E+05 -2.304325E+06 -5.346171E+05  1.282848E+06 -8.883759E+04  4.237759E+04
       115   1  1.096735E+06  4.084204E+06  9.263777E+05  1.368188E+06  1.866665E+05  1.741180E+05
       115   2  1.625837E+06  6.368415E+06  1.414862E+06  7.405708E+05  2.588338E+05  5.190824E+04
       115   3  2.041573E+06  8.640473E+06  1.952054E+06  1.291002E+06  9.238214E+04 -6.839057E+04
       115   4  4.259211E+04 -2.048517E+05 -5.743283E+04  1.297257E+06  1.846839E+05  3.385444E+04
       115   5  1.769994E+04 -1.850894E+05 -9.643187E+04  7.086986E+05  2.593964E+05  8.440094E+04
       115   6 -1.510645E+05 -2.127231E+05 -2.064292E+05  1.299116E+06  9.435295E+04  1.373033E+05
       115   7 -1.012811E+06 -4.476898E+06 -1.042382E+06  1.226740E+06  1.827255E+05 -1.054534E+05
       115   8 -1.593437E+06 -6.699133E+06 -1.610579E+06  6.770302E+05  2.599592E+05  1.165521E+05
       115   9 -2.349438E+06 -8.994986E+06 -2.370454E+06  1.306886E+06  9.634570E+04  3.400899E+05
       115  10  1.096689E+06  4.084163E+06  9.262559E+05  1.368162E+06  8.390689E-09 -7.378486E-09
       115  11  1.625764E+06  6.368394E+06  1.414731E+06  7.405601E+05 -2.999251E-09 -1.598402E-08
       115  12  2.041563E+06  8.640465E+06  1.952030E+06  1.291007E+06 -4.101771E-11  6.920942E-10
       115  13  4.255520E+04 -2.048621E+05 -5.749901E+04  1.297252E+06  9.699033E-09  1.360470E-08
       115  14  1.762582E+04 -1.851151E+05 -9.657157E+04  7.086810E+05  4.611398E-09 -1.116682E-08
       115  15 -1.510790E+05 -2.127457E+05 -2.064812E+05  1.299106E+06 -2.217540E-09  8.557810E-09
       115  16 -1.012850E+06 -4.476919E+06 -1.042466E+06  1.226755E+06  3.077836E-09  2.134854E-10
       115  17 -1.593513E+06 -6.699166E+06 -1.610732E+06  6.770057E+05  5.580695E-09  9.804452E-09
       115  18 -2.349479E+06 -8.995114E+06 -2.370691E+06  1.306860E+06 -3.339089E-10  3.626545E-09
       115  19  1.096735E+06  4.084204E+06  9.263777E+05  1.368188E+06 -1.866665E+05 -1.741180E+05
       115  20  1.625837E+06  6.368415E+06  1.414862E+06  7.405708E+05 -2.588338E+05 -5.190824E+04
       115  21  2.041573E+06  8.640473E+06  1.952054E+06  1.291002E+06 -9.238214E+04  6.839057E+04
       115  22  4.259211E+04 -2.048517E+05 -5.743283E+04  1.297257E+06 -1.846839E+05 -3.385444E+04
       115  23  1.769994E+04 -1.850894E+05 -9.643187E+04  7.086986E+05 -2.593964E+05 -8.440094E+04
       115  24 -1.510645E+05 -2.127231E+05 -2.064292E+05  1.299116E+06 -9.435295E+04 -1.373033E+05
       115  25 -1.012811E+06 -4.476898E+06 -1.042382E+06  1.226740E+06 -1.827255E+05  1.054534E+05
       115  26 -1.593437E+06 -6.699133E+06 -1.610579E+06  6.770302E+05 -2.599592E+05 -1.165521E+05
       115  27 -2.349438E+06 -8.994986E+06 -2.370454E+06  1.306886E+06 -9.634570E+04 -3.400899E+05
       116   1 -1.734398E+06 -6.700972E+06 -1.721435E+06  1.139977E+06 -7.506889E+04 -1.270116E+05
       116   2 -1.237874E+06 -4.588414E+06 -1.158265E+06  6.142111E+05 -1.986166E+05  8.733128E+03
       116   3 -6.960420E+05 -2.495512E+06 -6.760129E+05  1.185543E+06 -1.237202E+05  1.425561E+05
       116   4  5.583941E+04  4.553512E+05  4.015901E+04  1.214976E+06 -7.315608E+04  3.356537E+04
       116   5  9.123533E+03  4.576707E+05  1.347375E+04  6.669002E+05 -1.982541E+05  2.762581E+04
       116   6  3.268077E+04  4.610250E+05  5.056239E+03  1.215314E+06 -1.256326E+05  1.931327E+04
       116   7  1.842282E+06  7.658642E+06  1.798074E+06  1.290669E+06 -7.121685E+04  1.960037E+05
       116   8  1.254329E+06  5.527374E+06  1.183503E+06  7.199334E+05 -1.978901E+05  4.667118E+04
       116   9  7.608011E+05  3.425700E+06  6.856030E+05  1.245190E+06 -1.275518E+05 -1.045139E+05
       116  10 -1.734408E+06 -6.700991E+06 -1.721477E+06  1.139969E+06 -5.629155E-09 -1.670352E-08
       116  11 -1.237917E+06 -4.588425E+06 -1.158339E+06  6.142125E+05 -1.758227E-08  3.351949E-09
       116  12 -6.960640E+05 -2.495538E+06 -6.760802E+05  1.185557E+06  1.546716E-09 -4.969234E-09
       116  13  5.583335E+04  4.553486E+05  4.014681E+04  1.214978E+06 -2.549284E-09 -1.026085E-08
       116  14  9.081104E+03  4.576593E+05  1.339841E+04  6.669046E+05 -9.030575E-09 -2.586466E-11
       116  15  3.266371E+04  4.610203E+05  5.025851E+03  1.215316E+06  1.707130E-09 -2.087898E-08
       116  16  1.842266E+06  7.658600E+06  1.797993E+06  1.290680E+06 -1.046130E-09  1.167421E-08
       116  17  1.254287E+06  5.527361E+06  1.183425E+06  7.199408E+05  7.310556E-10 -9.709106E-09
       116  18  7.607808E+05  3.425684E+06  6.855521E+05  1.245180E+06  1.017557E-08 -3.743420E-09
       116  19 -1.734398E+06 -6.700972E+06 -1.721435E+06  1.139977E+06  7.506889E+04  1.270116E+05
       116  20 -1.237874E+06 -4.588414E+06 -1.158265E+06  6.142111E+05  1.986166E+05 -8.733128E+03
       116  21 -6.960420E+05 -2.495512E+06 -6.760129E+05  1.185543E+06  1.237202E+05 -1.425561E+05
       116  22  5.583941E+04  4.553512E+05  4.015901E+04  1.214976E+06  7.315608E+04 -3.356537E+04
       116  23  9.123533E+03  4.576707E+05  1.347375E+04  6.669002E+05  1.982541E+05 -2.762581E+04
       116  24  3.268077E+04  4.610250E+05  5.056239E+03  1.215314E+06  1.256326E+05 -1.931327E+04
       116  25  1.842282E+06  7.658642E+06  1.798074E+06  1.290669E+06  7.121685E+04 -1.960037E+05
       116  26  1.254329E+06  5.527374E+06  1.183503E+06  7.199334E+05  1.978901E+05 -4.667118E+04
       116  27  7.608011E+05  3.425700E+06  6.856030E+05  1.245190E+06  1.275518E+05  1.045139E+05
       117   1 -1.921731E+05 -4.857127E+05 -2.168188E+05  1.207527E+06 -3.939069E+04  8.347129E+04
       117   2  3.067580E+05  1.635883E+06  2.540103E+05  6.770780E+05  5.120634E+04  8.713785E+04
       117   3  8.244934E+05  3.728903E+06  7.182355E+05  1.248528E+06  1.390688E+05  9.103156E+04
       117   4  3.941074E+04  4.553862E+05 -6.234696E+02  1.216327E+06 -4.046756E+04  1.726809E+04
       117   5  2.045486E+04  4.712673E+05 -1.346000E+04  6.654704E+05  5.022266E+04  2.278265E+04
       117   6  2.024528E+04  4.540766E+05 -3.401541E+04  1.216591E+06  1.381607E+05  2.850884E+04
       117   7  2.709353E+05  1.397315E+06  2.155299E+05  1.225136E+06 -4.154540E+04 -4.903472E+04
       117   8 -2.659404E+05 -6.920869E+05 -2.810043E+05  6.538795E+05  4.924039E+04 -4.145307E+04
       117   9 -7.847463E+05 -2.810857E+06 -7.869600E+05  1.184776E+06  1.372564E+05 -3.368854E+04
       117  10 -1.921767E+05 -4.857207E+05 -2.168348E+05  1.207530E+06  5.896936E-09 -1.813294E-08
       117  11  3.067531E+05  1.635874E+06  2.539912E+05  6.770744E+05  1.202038E-09  1.049622E-08
       117  12  8.244704E+05  3.728889E+06  7.181838E+05  1.248518E+06  2.441298E-09 -3.434325E-09
       117  13  3.940890E+04  4.553854E+05 -6.271141E+02  1.216328E+06  1.921214E-09 -1.582668E-08
       117  14  2.045201E+04  4.712660E+05 -1.346571E+04  6.654695E+05 -7.473187E-09 -7.604681E-11
       117  15  2.022457E+04  4.540706E+05 -3.405277E+04  1.216587E+06  1.913589E-09 -2.012888E-08
       117  16  2.709328E+05  1.397312E+06  2.155221E+05  1.225135E+06  1.360389E-08  9.993156E-09
       117  17 -2.659434E+05 -6.920894E+05 -2.810121E+05  6.538811E+05 -6.159546E-09 -1.798821E-08
       117  18 -7.847669E+05 -2.810863E+06 -7.869976E+05  1.184780E+06  3.937681E-09 -5.179405E-09
       117  19 -1.921731E+05 -4.857127E+05 -2.168188E+05  1.207527E+06  3.939069E+04 -8.347129E+04
       117  20  3.067580E+05  1.635883E+06  2.540103E+05  6.770780E+05 -5.120634E+04 -8.713785E+04
       117  21  8.244934E+05  3.728903E+06  7.182355E+05  1.248528E+06 -1.390688E+05 -9.103156E+04
       117  22  3.941074E+04  4.553862E+05 -6.234696E+02  1.216327E+06  4.046756E+04 -1.726809E+04
       117  23  2.045486E+04  4.712673E+05 -1.346000E+04  6.654704E+05 -5.022266E+04 -2.278265E+04
       117  24  2.024528E+04  4.540766E+05 -3.401541E+04  1.216591E+06 -1.381607E+05 -2.850884E+04
       117  25  2.709353E+05  1.397315E+06  2.155299E+05  1.225136E+06  4.154540E+04  4.903472E+04
       117  26 -2.659404E+05 -6.920869E+05 -2.810043E+05  6.538795E+05 -4.924039E+04  4.145307E+04
       117  27 -7.847463E+05 -2.810857E+06 -7.869600E+05  1.184776E+06 -1.372564E+05  3.368854E+04
       118   1  1.338679E+06  5.754527E+06  1.171821E+06  1.291075E+06  2.316181E+05  1.715543E+05
       118   2  1.828332E+06  7.875120E+06  1.626657E+06  7.057525E+05  2.936275E+05  2.976171E+04
       118   3  2.235005E+06  1.000325E+07  2.152637E+06  1.216364E+06  1.022127E+05 -1.102849E+05
       118   4  3.748044E+04  4.507472E+05 -4.217329E+04  1.214925E+06  2.297661E+05  3.282529E+04
       118   5  1.129699E+04  4.610836E+05 -8.027450E+04  6.672320E+05  2.943540E+05  7.498023E+04
       118   6 -1.302382E+05  4.425246E+05 -1.744412E+05  1.216414E+06  1.041562E+05  1.193653E+05
       118   7 -1.265649E+06 -4.827097E+06 -1.257942E+06  1.139312E+06  2.279391E+05 -1.047376E+05
       118   8 -1.809566E+06 -6.902538E+06 -1.790844E+06  6.290121E+05  2.950803E+05  1.196637E+05
       118   9 -2.502154E+06 -9.035612E+06 -2.507949E+06  1.216224E+06  1.061177E+05  3.455190E+05
       118  10  1.338614E+06  5.754481E+06  1.171665E+06  1.291043E+06  8.799659E-09 -3.111664E-08
       118  11  1.828240E+06  7.875096E+06  1.626493E+06  7.057455E+05  8.487698E-09 -7.640513E-09
       118  12  2.234991E+06  1.000324E+07  2.152595E+06  1.216373E+06  2.136926E-09 -4.697903E-09
       118  13  3.742348E+04  4.507319E+05 -4.227446E+04  1.214919E+06  2.878434E-09 -1.343205E-08
       118  14  1.120245E+04  4.610544E+05 -8.044780E+04  6.672142E+05  7.262853E-09  9.948486E-11
       118  15 -1.302536E+05  4.425064E+05 -1.744883E+05  1.216404E+06  3.459788E-09 -8.939764E-09
       118  16 -1.265708E+06 -4.827122E+06 -1.258061E+06  1.139331E+06  6.068926E-09  2.411965E-08
       118  17 -1.809663E+06 -6.902577E+06 -1.791034E+06  6.289836E+05 -1.540609E-09  2.082721E-09
       118  18 -2.502199E+06 -9.035744E+06 -2.508198E+06  1.216195E+06 -2.532015E-09  1.065307E-09
       118  19  1.338679E+06  5.754527E+06  1.171821E+06  1.291075E+06 -2.316181E+05 -1.715543E+05
       118  20  1.828332E+06  7.875120E+06  1.626657E+06  7.057525E+05 -2.936275E+05 -2.976171E+04
       118  21  2.235005E+06  1.000325E+07  2.152637E+06  1.216364E+06 -1.022127E+05  1.102849E+05
       118  22  3.748044E+04  4.507472E+05 -4.217329E+04  1.214925E+06 -2.297661E+05 -3.282529E+04
       118  23  1.129699E+04  4.610836E+05 -8.027450E+04  6.672320E+05 -2.943540E+05 -7.498023E+04
       118  24 -1.302382E+05  4.425246E+05 -1.744412E+05  1.216414E+06 -1.041562E+05 -1.193653E+05
       118  25 -1.265649E+06 -4.827097E+06 -1.257942E+06  1.139312E+06 -2.279391E+05  1.047376E+05
       118  26 -1.809566E+06 -6.902538E+06 -1.790844E+06  6.290121E+05 -2.950803E+05 -1.196637E+05
       118  27 -2.502154E+06 -9.035612E+06 -2.507949E+06  1.216224E+06 -1.061177E+05 -3.455190E+05
       119   1  8.955078E+06  2.172738E+06  2.148882E+06  8.363703E+05  2.119776E+05 -1.008952E+05
       119   2  7.372498E+06  1.781872E+06  1.676261E+06  4.606201E+05  4.775556E+04 -2.919896E+05
       119   3  5.858002E+06  1.414570E+06  1.322327E+06  8.820367E+05 -1.147456E+05 -2.517393E+05
       119   4  6.058807E+04 -2.998573E+04 -1.626362E+04  8.822399E+05 -1.177772E+04 -9.959279E+04
       119   5  4.511186E+04 -1.459826E+04 -1.069202E+04  4.833699E+05 -7.342372E+03 -2.920348E+05
       119   6  6.650709E+04 -4.558344E+03 -2.420518E+03  8.822853E+05 -1.587699E+03 -2.519091E+05
       119   7 -8.762299E+06 -2.238487E+06 -2.186963E+06  9.275205E+05 -2.323688E+05 -9.831574E+04
       119   8 -7.232984E+06 -1.814811E+06 -1.701195E+06  5.058761E+05 -6.180053E+04 -2.920850E+05
       119   9 -5.694076E+06 -1.426006E+06 -1.329321E+06  8.825115E+05  1.105310E+05 -2.520795E+05
       119  10  8.955027E+06  2.172715E+06  2.148780E+06  8.363874E+05  2.417249E-09 -8.559019E-10
       119  11  7.372472E+06  1.781780E+06  1.676096E+06  4.606313E+05 -2.225950E-09 -2.434220E-09
       119  12  5.857971E+06  1.414498E+06  1.322183E+06  8.820135E+05 -2.524172E-11 -3.230809E-09
       119  13  6.058526E+04 -2.999642E+04 -1.628252E+04  8.822389E+05 -2.176017E-09 -6.844474E-10
       119  14  4.508890E+04 -1.468986E+04 -1.085239E+04  4.833682E+05  5.586799E-09 -1.981021E-09
       119  15  6.649005E+04 -4.626489E+03 -2.539775E+03  8.822850E+05 -4.520576E-09 -2.393968E-09
       119  16 -8.762361E+06 -2.238512E+06 -2.187084E+06  9.275020E+05 -6.774836E-09 -4.928303E-10
       119  17 -7.233011E+06 -1.814903E+06 -1.701363E+06  5.058615E+05  2.833845E-09 -1.425734E-09
       119  18 -5.694106E+06 -1.426078E+06 -1.329463E+06  8.825341E+05  1.142403E-10 -1.024890E-09
       119  19  8.955078E+06  2.172738E+06  2.148882E+06  8.363703E+05 -2.119776E+05  1.008952E+05
       119  20  7.372498E+06  1.781872E+06  1.676261E+06  4.606201E+05 -4.775556E+04  2.919896E+05
       119  21  5.858002E+06  1.414570E+06  1.322327E+06  8.820367E+05  1.147456E+05  2.517393E+05
       119  22  6.058807E+04 -2.998573E+04 -1.626362E+04  8.822399E+05  1.177772E+04  9.959279E+04
       119  23  4.511186E+04 -1.459826E+04 -1.069202E+04  4.833699E+05  7.342372E+03  2.920348E+05
       119  24  6.650709E+04 -4.558344E+03 -2.420518E+03  8.822853E+05  1.587699E+03  2.519091E+05
       119  25 -8.762299E+06 -2.238487E+06 -2.186963E+06  9.275205E+05  2.323688E+05  9.831574E+04
       119  26 -7.232984E+06 -1.814811E+06 -1.701195E+06  5.058761E+05  6.180053E+04  2.920850E+05
       119  27 -5.694076E+06 -1.426006E+06 -1.329321E+06  8.825115E+05 -1.105310E+05  2.520795E+05
       120   1  4.369736E+06  1.051925E+06  9.863619E+05  8.853159E+05 -4.280411E+04 -1.803648E+05
       120   2  2.825456E+06  6.787711E+05  6.332291E+05  4.839269E+05 -5.000040E+04 -1.178914E+05
       120   3  1.287226E+06  3.061554E+05  2.851972E+05  8.879816E+05 -5.749210E+04 -4.445972E+04
       120   4  6.251006E+04 -5.111204E+03 -3.061637E+03  8.840267E+05 -1.556730E+03 -1.804029E+05
       120   5  6.240016E+04  2.454554E+02 -1.127209E+03  4.811846E+05 -8.769395E+02 -1.178288E+05
       120   6  6.475839E+04  4.917180E+03  5.664495E+02  8.840152E+05 -5.107451E+02 -4.426592E+04
       120   7 -4.227619E+06 -1.063439E+06 -9.937045E+05  8.827302E+05  3.940832E+04 -1.804413E+05
       120   8 -2.693604E+06 -6.788108E+05 -6.359783E+05  4.784485E+05  4.803043E+04 -1.177664E+05
       120   9 -1.156325E+06 -2.964248E+05 -2.841531E+05  8.800546E+05  5.635935E+04 -4.407259E+04
       120  10  4.369725E+06  1.051889E+06  9.862974E+05  8.853097E+05 -4.876946E-10 -1.359660E-09
       120  11  2.825450E+06  6.787555E+05  6.331983E+05  4.839221E+05  8.196703E-10  1.982189E-09
       120  12  1.287222E+06  3.061524E+05  2.851873E+05  8.879795E+05  3.150698E-09  2.851791E-10
       120  13  6.250132E+04 -5.146153E+03 -3.122801E+03  8.840265E+05  2.152970E-09 -7.839202E-10
       120  14  6.239644E+04  2.305463E+02 -1.153300E+03  4.811845E+05  1.956240E-09  1.185285E-09
       120  15  6.475786E+04  4.915076E+03  5.627668E+02  8.840152E+05  8.145559E-10 -2.156369E-10
       120  16 -4.227630E+06 -1.063474E+06 -9.937687E+05  8.827360E+05 -1.553448E-09 -1.290436E-11
       120  17 -2.693611E+06 -6.788264E+05 -6.360088E+05  4.784531E+05 -1.571223E-09  6.946254E-10
       120  18 -1.156329E+06 -2.964278E+05 -2.841627E+05  8.800566E+05 -5.043517E-09 -9.719076E-10
       120  19  4.369736E+06  1.051925E+06  9.863619E+05  8.853159E+05  4.280411E+04  1.803648E+05
       120  20  2.825456E+06  6.787711E+05  6.332291E+05  4.839269E+05  5.000040E+04  1.178914E+05
       120  21  1.287226E+06  3.061554E+05  2.851972E+05  8.879816E+05  5.749210E+04  4.445972E+04
       120  22  6.251006E+04 -5.111204E+03 -3.061637E+03  8.840267E+05  1.556730E+03  1.804029E+05
       120  23  6.240016E+04  2.454554E+02 -1.127209E+03  4.811846E+05  8.769395E+02  1.178288E+05
       120  24  6.475839E+04  4.917180E+03  5.664495E+02  8.840152E+05  5.107451E+02  4.426592E+04
       120  25 -4.227619E+06 -1.063439E+06 -9.937045E+05  8.827302E+05 -3.940832E+04  1.804413E+05
       120  26 -2.693604E+06 -6.788108E+05 -6.359783E+05  4.784485E+05 -4.803043E+04  1.177664E+05
       120  27 -1.156325E+06 -2.964248E+05 -2.841531E+05  8.800546E+05 -5.635935E+04  4.407259E+04
       121   1 -1.873000E+05 -5.801118E+04 -6.106408E+04  8.825304E+05 -5.751386E+04  2.271232E+03
       121   2 -1.724074E+06 -4.387339E+05 -4.108025E+05  4.785973E+05 -5.108254E+04  7.603708E+04
       121   3 -3.260355E+06 -8.198828E+05 -7.654756E+05  8.804903E+05 -4.445732E+04  1.400128E+05
       121   4  6.445107E+04  4.708585E+03  7.122713E+02  8.840187E+05 -9.598668E+02  2.476053E+03
       121   5  6.396773E+04  1.592485E+03  9.523447E+02  4.811805E+05 -1.624472E+03  7.614779E+04
       121   6  6.299069E+04 -5.628419E+02  1.296312E+03  8.840249E+05 -2.079258E+03  1.400505E+05
       121   7  3.162667E+05  6.742537E+04  6.249600E+04  8.855075E+05  5.561703E+04  2.681091E+03
       121   8  1.854978E+06  4.416964E+05  4.125044E+05  4.837683E+05  4.797521E+04  7.625871E+04
       121   9  3.396589E+06  8.179833E+05  7.673404E+05  8.875665E+05  4.052481E+04  1.400884E+05
       121  10 -1.873036E+05 -5.801207E+04 -6.107031E+04  8.825305E+05 -7.452637E-10 -1.580557E-10
       121  11 -1.724079E+06 -4.387408E+05 -4.108183E+05  4.786004E+05  3.603134E-10  2.346467E-09
       121  12 -3.260363E+06 -8.199044E+05 -7.655162E+05  8.804954E+05  1.389387E-09  1.878369E-11
       121  13  6.445106E+04  4.708578E+03  7.122581E+02  8.840187E+05  2.152135E-09 -6.550490E-10
       121  14  6.396617E+04  1.586257E+03  9.414425E+02  4.811806E+05 -8.945503E-09  1.195650E-09
       121  15  6.298542E+04 -5.839066E+02  1.259442E+03  8.840252E+05 -1.680094E-09 -5.700924E-11
       121  16  3.162634E+05  6.742453E+04  6.249017E+04  8.855074E+05  4.563910E-09 -1.157845E-09
       121  17  1.854974E+06  4.416895E+05  4.124892E+05  4.837654E+05 -1.648681E-10  1.628878E-10
       121  18  3.396582E+06  8.179618E+05  7.673005E+05  8.875620E+05 -6.918350E-09 -1.018066E-10
       121  19 -1.873000E+05 -5.801118E+04 -6.106408E+04  8.825304E+05  5.751386E+04 -2.271232E+03
       121  20 -1.724074E+06 -4.387339E+05 -4.108025E+05  4.785973E+05  5.108254E+04 -7.603708E+04
       121  21 -3.260355E+06 -8.198828E+05 -7.654756E+05  8.804903E+05  4.445732E+04 -1.400128E+05
       121  22  6.445107E+04  4.708585E+03  7.122713E+02  8.840187E+05  9.598668E+02 -2.476053E+03
       121  23  6.396773E+04  1.592485E+03  9.523447E+02  4.811805E+05  1.624472E+03 -7.614779E+04
       121  24  6.299069E+04 -5.628419E+02  1.296312E+03  8.840249E+05  2.079258E+03 -1.400505E+05
       121  25  3.162667E+05  6.742537E+04  6.249600E+04  8.855075E+05 -5.561703E+04 -2.681091E+03
       121  26  1.854978E+06  4.416964E+05  4.125044E+05  4.837683E+05 -4.797521E+04 -7.625871E+04
       121  27  3.396589E+06  8.179833E+05  7.673404E+05  8.875665E+05 -4.052481E+04 -1.400884E+05
       122   1 -4.727441E+06 -1.184497E+06 -1.101279E+06  8.804566E+05 -1.091757E+05  2.087922E+05
       122   2 -6.265769E+06 -1.572289E+06 -1.466645E+06  4.932746E+05  4.093654E+04  2.526598E+05
       122   3 -7.796878E+06 -1.974520E+06 -1.928370E+06  9.051009E+05  1.899008E+05  8.660403E+04
       122   4  6.714199E+04 -2.039692E+03  2.813709E+03  8.824342E+05 -2.852017E+03  2.087984E+05
       122   5  4.885300E+04 -1.131989E+04 -4.841328E+02  4.831716E+05 -2.591450E+03  2.525628E+05
       122   6  6.200352E+04 -8.614083E+03  4.613384E+03  8.824639E+05 -3.100956E+03  8.734772E+04
       122   7  4.883124E+06  1.178814E+06  1.105426E+06  8.844071E+05  1.042911E+05  2.088050E+05
       122   8  6.400543E+06  1.546833E+06  1.463005E+06  4.729681E+05 -4.656221E+04  2.524683E+05
       122   9  7.977636E+06  1.952708E+06  1.933187E+06  8.595587E+05 -1.985647E+05  8.810238E+04
       122  10 -4.727466E+06 -1.184548E+06 -1.101384E+06  8.804750E+05  9.251914E-10 -5.823358E-10
       122  11 -6.265788E+06 -1.572358E+06 -1.466769E+06  4.932663E+05 -1.703676E-09  7.985224E-10
       122  12 -7.796919E+06 -1.974538E+06 -1.928453E+06  9.050876E+05  1.776087E-09  2.188934E-10
       122  13  6.713027E+04 -2.086512E+03  2.731759E+03  8.824347E+05 -2.158210E-09 -2.124864E-10
       122  14  4.883587E+04 -1.138840E+04 -6.040230E+02  4.831721E+05 -3.448210E-09  1.181143E-09
       122  15  6.200147E+04 -8.622280E+03  4.599026E+03  8.824641E+05 -3.095964E-09  1.156090E-09
       122  16  4.883101E+06  1.178764E+06  1.105324E+06  8.843897E+05 -7.948608E-10 -1.285583E-10
       122  17  6.400523E+06  1.546764E+06  1.462881E+06  4.729775E+05 -7.847318E-10 -1.127824E-10
       122  18  7.977592E+06  1.952689E+06  1.933099E+06  8.595728E+05 -9.963898E-10  3.602782E-11
       122  19 -4.727441E+06 -1.184497E+06 -1.101279E+06  8.804566E+05  1.091757E+05 -2.087922E+05
       122  20 -6.265769E+06 -1.572289E+06 -1.466645E+06  4.932746E+05 -4.093654E+04 -2.526598E+05
       122  21 -7.796878E+06 -1.974520E+06 -1.928370E+06  9.051009E+05 -1.899008E+05 -8.660403E+04
       122  22  6.714199E+04 -2.039692E+03  2.813709E+03  8.824342E+05  2.852017E+03 -2.087984E+05
       122  23  4.885300E+04 -1.131989E+04 -4.841328E+02  4.831716E+05  2.591450E+03 -2.525628E+05
       122  24  6.200352E+04 -8.614083E+03  4.613384E+03  8.824639E+05  3.100956E+03 -8.734772E+04
       122  25  4.883124E+06  1.178814E+06  1.105426E+06  8.844071E+05 -1.042911E+05 -2.088050E+05
       122  26  6.400543E+06  1.546833E+06  1.463005E+06  4.729681E+05  4.656221E+04 -2.524683E+05
       122  27  7.977636E+06  1.952708E+06  1.933187E+06  8.595587E+05  1.985647E+05 -8.810238E+04
       123   1 -8.857564E+05 -3.585551E+06 -8.951481E+05  5.255646E+05 -3.631612E+04 -1.247798E+05
       123   2 -5.916556E+05 -2.646109E+06 -5.950883E+05  2.750525E+05 -9.654284E+04 -4.170135E+04
       123   3 -3.586422E+05 -1.740845E+06 -3.661298E+05  5.050634E+05 -6.452180E+04  4.055772E+04
       123   4 -4.726089E+04 -2.251217E+05 -6.960363E+04  5.276600E+05 -3.552968E+04 -4.806936E+04
       123   5  8.745146E+03 -2.128572E+05 -3.075690E+04  2.871336E+05 -9.640005E+04 -3.100666E+04
       123   6  1.538154E+04 -2.239275E+05 -1.684596E+04  5.270318E+05 -6.518029E+04 -1.488781E+04
       123   7  7.903983E+05  3.145641E+06  7.551325E+05  5.297369E+05 -3.474501E+04  2.905798E+04
       123   8  6.087288E+05  2.225879E+06  5.331776E+05  2.992466E+05 -9.625716E+04 -2.027002E+04
       123   9  3.892469E+05  1.295130E+06  3.322969E+05  5.490474E+05 -6.584183E+04 -7.046800E+04
       123  10 -8.857620E+05 -3.585568E+06 -8.951800E+05  5.255609E+05 -4.749246E-10 -3.889317E-09
       123  11 -5.916661E+05 -2.646113E+06 -5.951091E+05  2.750493E+05 -3.198956E-10 -2.557864E-09
       123  12 -3.586471E+05 -1.740848E+06 -3.661407E+05  5.050655E+05  2.771040E-09  1.498029E-09
       123  13 -4.726286E+04 -2.251245E+05 -6.961034E+04  5.276586E+05 -6.535176E-09  4.034775E-11
       123  14  8.734912E+03 -2.128607E+05 -3.077616E+04  2.871312E+05 -1.197529E-09 -7.031069E-11
       123  15  1.537692E+04 -2.239289E+05 -1.685436E+04  5.270310E+05 -7.870405E-09  1.199987E-10
       123  16  7.903968E+05  3.145640E+06  7.551287E+05  5.297377E+05 -1.486105E-09  3.934348E-09
       123  17  6.087188E+05  2.225876E+06  5.331595E+05  2.992451E+05 -1.118816E-08  1.699338E-09
       123  18  3.892409E+05  1.295124E+06  3.322795E+05  5.490436E+05 -1.379455E-09 -9.315024E-10
       123  19 -8.857564E+05 -3.585551E+06 -8.951481E+05  5.255646E+05  3.631612E+04  1.247798E+05
       123  20 -5.916556E+05 -2.646109E+06 -5.950883E+05  2.750525E+05  9.654284E+04  4.170135E+04
       123  21 -3.586422E+05 -1.740845E+06 -3.661298E+05  5.050634E+05  6.452180E+04 -4.055772E+04
       123  22 -4.726089E+04 -2.251217E+05 -6.960363E+04  5.276600E+05  3.552968E+04  4.806936E+04
       123  23  8.745146E+03 -2.128572E+05 -3.075690E+04  2.871336E+05  9.640005E+04  3.100666E+04
       123  24  1.538154E+04 -2.239275E+05 -1.684596E+04  5.270318E+05  6.518029E+04  1.488781E+04
       123  25  7.903983E+05  3.145641E+06  7.551325E+05  5.297369E+05  3.474501E+04 -2.905798E+04
       123  26  6.087288E+05  2.225879E+06  5.331776E+05  2.992466E+05  9.625716E+04  2.027002E+04
       123  27  3.892469E+05  1.295130E+06  3.322969E+05  5.490474E+05  6.584183E+04  7.046800E+04
       124   1 -1.476593E+05 -8.532215E+05 -1.583481E+05  5.235126E+05 -2.684801E+04  1.564248E+04
       124   2  7.860394E+04  7.557514E+04  6.272111E+04  2.892425E+05  1.265957E+04  1.678072E+04
       124   3  3.126750E+05  9.933406E+05  2.818395E+05  5.383140E+05  5.146394E+04  1.794821E+04
       124   4  8.022964E+03 -2.209230E+05 -1.284057E+04  5.278979E+05 -2.720024E+04 -1.302905E+04
       124   5  7.061084E+03 -2.150426E+05 -4.109104E+03  2.861877E+05  1.232090E+04 -1.139738E+04
       124   6  1.388042E+04 -2.210630E+05  2.380311E+03  5.278247E+05  5.113577E+04 -9.738675E+03
       124   7  1.636777E+05  4.117476E+05  1.326436E+05  5.322864E+05 -2.755268E+04 -4.172958E+04
       124   8 -6.448723E+04 -5.055804E+05 -7.094192E+04  2.831341E+05  1.198242E+04 -3.956239E+04
       124   9 -2.850166E+05 -1.434101E+06 -2.771737E+05  5.173515E+05  5.080818E+04 -3.737188E+04
       124  10 -1.476601E+05 -8.532220E+05 -1.583499E+05  5.235130E+05  4.330698E-09  4.279394E-09
       124  11  7.860369E+04  7.557479E+04  6.272028E+04  2.892424E+05  5.288956E-10 -1.153090E-09
       124  12  3.126720E+05  9.933396E+05  2.818339E+05  5.383133E+05  3.742101E-09 -5.393186E-09
       124  13  8.022124E+03 -2.209234E+05 -1.284227E+04  5.278976E+05 -5.360816E-10 -9.129672E-11
       124  14  7.060886E+03 -2.150428E+05 -4.109633E+03  2.861878E+05 -3.516254E-09 -1.089341E-10
       124  15  1.387759E+04 -2.210638E+05  2.375218E+03  5.278251E+05  1.824769E-09 -3.967063E-10
       124  16  1.636765E+05  4.117455E+05  1.326389E+05  5.322855E+05  2.082296E-09 -4.218824E-09
       124  17 -6.448780E+04 -5.055821E+05 -7.094513E+04  2.831345E+05  1.987499E-09  6.216153E-10
       124  18 -2.850198E+05 -1.434104E+06 -2.771812E+05  5.173530E+05 -3.494591E-09  5.041222E-09
       124  19 -1.476593E+05 -8.532215E+05 -1.583481E+05  5.235126E+05  2.684801E+04 -1.564248E+04
       124  20  7.860394E+04  7.557514E+04  6.272111E+04  2.892425E+05 -1.265957E+04 -1.678072E+04
       124  21  3.126750E+05  9.933406E+05  2.818395E+05  5.383140E+05 -5.146394E+04 -1.794821E+04
       124  22  8.022964E+03 -2.209230E+05 -1.284057E+04  5.278979E+05  2.720024E+04  1.302905E+04
       124  23  7.061084E+03 -2.150426E+05 -4.109104E+03  2.861877E+05 -1.232090E+04  1.139738E+04
       124  24  1.388042E+04 -2.210630E+05  2.380311E+03  5.278247E+05 -5.113577E+04  9.738675E+03
       124  25  1.636777E+05  4.117476E+05  1.326436E+05  5.322864E+05  2.755268E+04  4.172958E+04
       124  26 -6.448723E+04 -5.055804E+05 -7.094192E+04  2.831341E+05 -1.198242E+04  3.956239E+04
       124  27 -2.850166E+05 -1.434101E+06 -2.771737E+05  5.173515E+05 -5.080818E+04  3.737188E+04
       125   1  5.263496E+05  1.883380E+06  4.877633E+05  5.415695E+05  9.131342E+04  4.821193E+04
       125   2  7.451302E+05  2.799280E+06  7.094505E+05  3.132821E+05  1.192923E+05 -3.492784E+04
       125   3  1.015719E+06  3.733320E+06  9.965006E+05  5.640934E+05  4.133679E+04 -1.171919E+05
       125   4  9.847614E+03 -2.182121E+05  5.411584E+03  5.270107E+05  9.064374E+04 -1.089667E+04
       125   5  2.096774E+03 -2.210260E+05  1.158052E+04  2.872812E+05  1.195114E+05 -1.745012E+04
       125   6  3.304177E+04 -2.196658E+05  3.014241E+04  5.267783E+05  4.221789E+04 -2.300167E+04
       125   7 -5.069600E+05 -2.315714E+06 -4.772184E+05  5.124882E+05  8.997560E+04 -6.980720E+04
       125   8 -7.415750E+05 -3.232922E+06 -6.868971E+05  2.613843E+05  1.197295E+05 -5.637096E+01
       125   9 -9.507822E+05 -4.158443E+06 -9.373239E+05  4.896624E+05  4.309076E+04  7.059316E+04
       125  10  5.263400E+05  1.883375E+06  4.877433E+05  5.415660E+05  3.320147E-09  5.475159E-09
       125  11  7.451146E+05  2.799275E+06  7.094215E+05  3.132855E+05 -7.529662E-09  2.836645E-09
       125  12  1.015713E+06  3.733304E+06  9.964717E+05  5.640973E+05 -1.640478E-09  5.946516E-10
       125  13  9.838759E+03 -2.182144E+05  5.395918E+03  5.270115E+05 -2.932459E-09 -1.058420E-10
       125  14  2.081355E+03 -2.210302E+05  1.155310E+04  2.872829E+05 -5.244505E-09 -1.792683E-10
       125  15  3.303972E+04 -2.196669E+05  3.013806E+04  5.267790E+05 -4.363869E-09 -7.740529E-11
       125  16 -5.069700E+05 -2.315722E+06 -4.772428E+05  5.124932E+05  2.673153E-09 -6.105669E-09
       125  17 -7.415904E+05 -3.232926E+06 -6.869240E+05  2.613843E+05 -6.348547E-09 -2.970368E-09
       125  18 -9.507855E+05 -4.158449E+06 -9.373368E+05  4.896599E+05 -1.701900E-09 -3.262762E-10
       125  19  5.263496E+05  1.883380E+06  4.877633E+05  5.415695E+05 -9.131342E+04 -4.821193E+04
       125  20  7.451302E+05  2.799280E+06  7.094505E+05  3.132821E+05 -1.192923E+05  3.492784E+04
       125  21  1.015719E+06  3.733320E+06  9.965006E+05  5.640934E+05 -4.133679E+04  1.171919E+05
       125  22  9.847614E+03 -2.182121E+05  5.411584E+03  5.270107E+05 -9.064374E+04  1.089667E+04
       125  23  2.096774E+03 -2.210260E+05  1.158052E+04  2.872812E+05 -1.195114E+05  1.745012E+04
       125  24  3.304177E+04 -2.196658E+05  3.014241E+04  5.267783E+05 -4.221789E+04  2.300167E+04
       125  25 -5.069600E+05 -2.315714E+06 -4.772184E+05  5.124882E+05 -8.997560E+04  6.980720E+04
       125  26 -7.415750E+05 -3.232922E+06 -6.868971E+05  2.613843E+05 -1.197295E+05  5.637096E+01
       125  27 -9.507822E+05 -4.158443E+06 -9.373239E+05  4.896624E+05 -4.309076E+04 -7.059316E+04
       126   1  8.224506E+06  1.995664E+06  1.984220E+06  8.230667E+05  2.330230E+05 -8.924124E+04
       126   2  6.731137E+06  1.570829E+06  1.508923E+06  4.493623E+05  7.014342E+04 -2.572431E+05
       126   3  5.309132E+06  1.225208E+06  1.163636E+06  8.270970E+05 -9.156204E+04 -2.178932E+05
       126   4  2.873233E+05  2.979251E+04  5.131897E+04  8.307141E+05  3.480552E+04 -8.846573E+04
       126   5  2.679788E+05 -1.411826E+04  2.040930E+04  4.546755E+05  2.310739E+04 -2.573380E+05
       126   6  2.922419E+05 -4.395687E+03  1.568763E+04  8.305517E+05  1.219975E+04 -2.178999E+05
       126   7 -7.592815E+06 -1.940684E+06 -1.886008E+06  8.382895E+05 -1.609114E+05 -8.769154E+04
       126   8 -6.156816E+06 -1.601979E+06 -1.470868E+06  4.599385E+05 -2.344776E+04 -2.574347E+05
       126   9 -4.701443E+06 -1.235740E+06 -1.133872E+06  8.339576E+05  1.151352E+05 -2.179052E+05
       126  10  8.224446E+06  1.995641E+06  1.984104E+06  8.230834E+05  1.218868E-09 -1.164719E-11
       126  11  6.731114E+06  1.570757E+06  1.508789E+06  4.493768E+05 -3.901273E-09  2.990185E-10
       126  12  5.309111E+06  1.225155E+06  1.163531E+06  8.270810E+05 -7.680951E-10  8.104448E-10
       126  13  2.873199E+05  2.978377E+04  5.130197E+04  8.307166E+05  2.868715E-12  1.401213E-09
       126  14  2.679605E+05 -1.418953E+04  2.028381E+04  4.546803E+05  5.147494E-09  4.129148E-10
       126  15  2.922290E+05 -4.446724E+03  1.559809E+04  8.305539E+05  7.409588E-11  3.482395E-10
       126  16 -7.592845E+06 -1.940699E+06 -1.886072E+06  8.382781E+05 -8.625392E-10 -3.153653E-10
       126  17 -6.156835E+06 -1.602050E+06 -1.470994E+06  4.599336E+05  4.861446E-10  2.497228E-11
       126  18 -4.701470E+06 -1.235795E+06 -1.133987E+06  8.339779E+05 -1.413664E-09  4.417356E-10
       126  19  8.224506E+06  1.995664E+06  1.984220E+06  8.230667E+05 -2.330230E+05  8.924124E+04
       126  20  6.731137E+06  1.570829E+06  1.508923E+06  4.493623E+05 -7.014342E+04  2.572431E+05
       126  21  5.309132E+06  1.225208E+06  1.163636E+06  8.270970E+05  9.156204E+04  2.178932E+05
       126  22  2.873233E+05  2.979251E+04  5.131897E+04  8.307141E+05 -3.480552E+04  8.846573E+04
       126  23  2.679788E+05 -1.411826E+04  2.040930E+04  4.546755E+05 -2.310739E+04  2.573380E+05
       126  24  2.922419E+05 -4.395687E+03  1.568763E+04  8.305517E+05 -1.219975E+04  2.178999E+05
       126  25 -7.592815E+06 -1.940684E+06 -1.886008E+06  8.382895E+05  1.609114E+05  8.769154E+04
       126  26 -6.156816E+06 -1.601979E+06 -1.470868E+06  4.599385E+05  2.344776E+04  2.574347E+05
       126  27 -4.701443E+06 -1.235740E+06 -1.133872E+06  8.339576E+05 -1.151352E+05  2.179052E+05
       127   1  3.907602E+06  8.909240E+05  8.438857E+05  8.370781E+05 -2.983903E+04 -1.518703E+05
       127   2  2.456549E+06  5.342166E+05  5.055145E+05  4.569064E+05 -4.042181E+04 -9.254067E+04
       127   3  1.009976E+06  1.836180E+05  1.751618E+05  8.340893E+05 -5.122093E+04 -2.345236E+04
       127   4  2.857719E+05  1.950467E+03  1.185105E+04  8.318343E+05  9.517872E+03 -1.518457E+05
       127   5  2.859508E+05  1.105103E+03  7.070960E+03  4.530732E+05  5.966637E+03 -9.243364E+04
       127   6  2.874295E+05  5.286951E+03  5.553732E+03  8.318306E+05  2.174424E+03 -2.324008E+04
       127   7 -3.323966E+06 -8.879361E+05 -8.210444E+05  8.266072E+05  4.864799E+04 -1.518216E+05
       127   8 -1.880294E+06 -5.323336E+05 -4.916755E+05  4.492490E+05  5.219467E+04 -9.232696E+04
       127   9 -4.346305E+05 -1.730797E+05 -1.640794E+05  8.295738E+05  5.550809E+04 -2.302802E+04
       127  10  3.907595E+06  8.908990E+05  8.438407E+05  8.370745E+05 -3.039256E-09  7.195730E-10
       127  11  2.456545E+06  5.342070E+05  5.054953E+05  4.569034E+05  2.472959E-09  9.746559E-11
       127  12  1.009973E+06  1.836167E+05  1.751559E+05  8.340884E+05  1.043432E-08 -3.739214E-10
       127  13  2.857656E+05  1.925677E+03  1.180754E+04  8.318355E+05  2.166599E-09  1.379940E-10
       127  14  2.859485E+05  1.095917E+03  7.054833E+03  4.530736E+05  3.905685E-09 -8.779874E-10
       127  15  2.874294E+05  5.286370E+03  5.552707E+03  8.318307E+05  7.820322E-09  9.414057E-10
       127  16 -3.323975E+06 -8.879615E+05 -8.210922E+05  8.266131E+05  7.154724E-09 -1.225052E-09
       127  17 -1.880299E+06 -5.323435E+05 -4.916967E+05  4.492529E+05 -8.248101E-10 -2.464149E-09
       127  18 -4.346340E+05 -1.730811E+05 -1.640862E+05  8.295749E+05 -4.009215E-09  2.961677E-10
       127  19  3.907602E+06  8.909240E+05  8.438857E+05  8.370781E+05  2.983903E+04  1.518703E+05
       127  20  2.456549E+06  5.342166E+05  5.055145E+05  4.569064E+05  4.042181E+04  9.254067E+04
       127  21  1.009976E+06  1.836180E+05  1.751618E+05  8.340893E+05  5.122093E+04  2.345236E+04
       127  22  2.857719E+05  1.950467E+03  1.185105E+04  8.318343E+05 -9.517872E+03  1.518457E+05
       127  23  2.859508E+05  1.105103E+03  7.070960E+03  4.530732E+05 -5.966637E+03  9.243364E+04
       127  24  2.874295E+05  5.286951E+03  5.553732E+03  8.318306E+05 -2.174424E+03  2.324008E+04
       127  25 -3.323966E+06 -8.879361E+05 -8.210444E+05  8.266072E+05 -4.864799E+04  1.518216E+05
       127  26 -1.880294E+06 -5.323336E+05 -4.916755E+05  4.492490E+05 -5.219467E+04  9.232696E+04
       127  27 -4.346305E+05 -1.730797E+05 -1.640794E+05  8.295738E+05 -5.550809E+04  2.302802E+04
       128   1 -3.754126E+05 -1.582152E+05 -1.509323E+05  8.294054E+05 -5.240101E+04  2.048056E+04
       128   2 -1.820673E+06 -5.174769E+05 -4.807995E+05  4.494505E+05 -4.772632E+04  8.978428E+04
       128   3 -3.264828E+06 -8.750885E+05 -8.138747E+05  8.271665E+05 -4.282746E+04  1.493604E+05
       128   4  2.872522E+05  5.537423E+03  5.045236E+03  8.318276E+05  9.143482E+02  2.069324E+04
       128   5  2.862410E+05  1.333836E+03  4.278828E+03  4.530763E+05 -1.455783E+03  8.989379E+04
       128   6  2.856409E+05  1.511244E+02  5.305661E+03  8.318367E+05 -3.590922E+03  1.493889E+05
       128   7  9.503274E+05  1.692602E+05  1.610032E+05  8.342519E+05  5.428630E+04  2.090619E+04
       128   8  2.397274E+06  5.198352E+05  4.890711E+05  4.567102E+05  4.497088E+04  9.000363E+04
       128   9  3.847808E+06  8.745075E+05  8.236535E+05  8.365200E+05  3.586919E+04  1.494180E+05
       128  10 -3.754157E+05 -1.582164E+05 -1.509382E+05  8.294062E+05  5.002440E-09  1.184920E-10
       128  11 -1.820678E+06 -5.174861E+05 -4.808190E+05  4.494540E+05  7.099784E-09  1.150752E-09
       128  12 -3.264836E+06 -8.751129E+05 -8.139201E+05  8.271717E+05  2.464005E-09 -2.526997E-10
       128  13  2.872521E+05  5.536963E+03  5.044430E+03  8.318276E+05  8.589855E-09 -2.977379E-10
       128  14  2.862388E+05  1.325157E+03  4.263636E+03  4.530764E+05  3.895244E-09 -5.048321E-10
       128  15  2.856349E+05  1.271521E+02  5.263689E+03  8.318371E+05  3.247452E-09 -6.045526E-10
       128  16  9.503241E+05  1.692590E+05  1.609969E+05  8.342510E+05 -2.450685E-09  1.208384E-09
       128  17  2.397269E+06  5.198259E+05  4.890521E+05  4.567069E+05  6.166742E-09 -3.802996E-09
       128  18  3.847800E+06  8.744832E+05  8.236092E+05  8.365157E+05  8.863520E-09 -1.082163E-09
       128  19 -3.754126E+05 -1.582152E+05 -1.509323E+05  8.294054E+05  5.240101E+04 -2.048056E+04
       128  20 -1.820673E+06 -5.174769E+05 -4.807995E+05  4.494505E+05  4.772632E+04 -8.978428E+04
       128  21 -3.264828E+06 -8.750885E+05 -8.138747E+05  8.271665E+05  4.282746E+04 -1.493604E+05
       128  22  2.872522E+05  5.537423E+03  5.045236E+03  8.318276E+05 -9.143482E+02 -2.069324E+04
       128  23  2.862410E+05  1.333836E+03  4.278828E+03  4.530763E+05  1.455783E+03 -8.989379E+04
       128  24  2.856409E+05  1.511244E+02  5.305661E+03  8.318367E+05  3.590922E+03 -1.493889E+05
       128  25  9.503274E+05  1.692602E+05  1.610032E+05  8.342519E+05 -5.428630E+04 -2.090619E+04
       128  26  2.397274E+06  5.198352E+05  4.890711E+05  4.567102E+05 -4.497088E+04 -9.000363E+04
       128  27  3.847808E+06  8.745075E+05  8.236535E+05  8.365200E+05 -3.586919E+04 -1.494180E+05
       129   1 -4.644071E+06 -1.219449E+06 -1.128642E+06  8.298231E+05 -1.076729E+05  2.152694E+05
       129   2 -6.095071E+06 -1.585228E+06 -1.471420E+06  4.628342E+05  3.749854E+04  2.549976E+05
       129   3 -7.535387E+06 -1.952159E+06 -1.903975E+06  8.480924E+05  1.815640E+05  8.687162E+04
       129   4  2.903974E+05 -2.736361E+03  7.274899E+03  8.305538E+05 -5.056527E+03  2.152732E+05
       129   5  2.705483E+05 -1.203697E+04  6.092102E+03  4.546822E+05 -8.308168E+03  2.548983E+05
       129   6  2.855276E+05  3.587143E+03  1.880871E+04  8.306226E+05 -1.231962E+04  8.761275E+04
       129   7  5.247523E+06  1.212278E+06  1.141619E+06  8.312694E+05  9.837362E+04  2.152771E+05
       129   8  6.673825E+06  1.558295E+06  1.480891E+06  4.464495E+05 -5.458424E+04  2.548014E+05
       129   9  8.162627E+06  1.954797E+06  1.937232E+06  8.129535E+05 -2.086631E+05  8.836162E+04
       129  10 -4.644096E+06 -1.219502E+06 -1.128752E+06  8.298418E+05  4.399460E-09 -4.409755E-10
       129  11 -6.095090E+06 -1.585298E+06 -1.471545E+06  4.628265E+05  4.149091E-09 -2.280074E-10
       129  12 -7.535424E+06 -1.952176E+06 -1.904052E+06  8.480796E+05  6.624282E-10  7.425798E-10
       129  13  2.903850E+05 -2.786141E+03  7.187745E+03  8.305547E+05  6.446285E-09  6.077860E-10
       129  14  2.705308E+05 -1.210677E+04  5.969850E+03  4.546840E+05  5.112603E-09  1.518376E-09
       129  15  2.855253E+05  3.578856E+03  1.879400E+04  8.306235E+05 -4.418294E-09  2.759759E-10
       129  16  5.247501E+06  1.212225E+06  1.141514E+06  8.312525E+05  2.543161E-11  1.418166E-09
       129  17  6.673804E+06  1.558224E+06  1.480764E+06  4.464606E+05  4.196167E-09  1.456057E-09
       129  18  8.162578E+06  1.954777E+06  1.937136E+06  8.129683E+05 -2.884158E-10  8.059235E-10
       129  19 -4.644071E+06 -1.219449E+06 -1.128642E+06  8.298231E+05  1.076729E+05 -2.152694E+05
       129  20 -6.095071E+06 -1.585228E+06 -1.471420E+06  4.628342E+05 -3.749854E+04 -2.549976E+05
       129  21 -7.535387E+06 -1.952159E+06 -1.903975E+06  8.480924E+05 -1.815640E+05 -8.687162E+04
       129  22  2.903974E+05 -2.736361E+03  7.274899E+03  8.305538E+05  5.056527E+03 -2.152732E+05
       129  23  2.705483E+05 -1.203697E+04  6.092102E+03  4.546822E+05  8.308168E+03 -2.548983E+05
       129  24  2.855276E+05  3.587143E+03  1.880871E+04  8.306226E+05  1.231962E+04 -8.761275E+04
       129  25  5.247523E+06  1.212278E+06  1.141619E+06  8.312694E+05 -9.837362E+04 -2.152771E+05
       129  26  6.673825E+06  1.558295E+06  1.480891E+06  4.464495E+05  5.458424E+04 -2.548014E+05
       129  27  8.162627E+06  1.954797E+06  1.937232E+06  8.129535E+05  2.086631E+05 -8.836162E+04
       130   1 -1.611317E+06 -6.536084E+06 -1.605654E+06  9.449778E+05 -6.874872E+04 -1.682230E+05
       130   2 -1.149031E+06 -4.819449E+06 -1.103180E+06  5.009487E+05 -1.857115E+05 -3.359181E+04
       130   3 -7.135199E+05 -3.132768E+06 -6.971020E+05  9.444081E+05 -1.273187E+05  9.975423E+04
       130   4 -1.314771E+04 -1.449952E+05 -3.292532E+04  9.772077E+05 -6.737329E+04 -2.120689E+04
       130   5  7.919782E+03 -1.375917E+05 -1.602151E+04  5.334995E+05 -1.853804E+05 -1.163340E+04
       130   6  2.445755E+04 -1.407505E+05 -7.825492E+03  9.768803E+05 -1.286186E+05 -3.713483E+03
       130   7  1.581988E+06  6.283571E+06  1.536873E+06  1.009661E+06 -6.599063E+04  1.273333E+05
       130   8  1.163324E+06  4.564613E+06  1.069665E+06  5.662371E+05 -1.850486E+05  1.049071E+04
       130   9  7.618152E+05  2.859601E+06  6.808974E+05  1.009478E+06 -1.299259E+05 -1.076778E+05
       130  10 -1.611330E+06 -6.536116E+06 -1.605717E+06  9.449684E+05 -2.427839E-09 -6.119655E-09
       130  11 -1.149068E+06 -4.819460E+06 -1.103247E+06  5.009437E+05  1.187650E-09  4.100961E-09
       130  12 -7.135400E+05 -3.132783E+06 -6.971513E+05  9.444183E+05  1.168800E-09  1.356356E-08
       130  13 -1.315270E+04 -1.449969E+05 -3.293468E+04  9.772066E+05 -6.201383E-09 -1.018309E-09
       130  14  7.882848E+03 -1.376010E+05 -1.608634E+04  5.334978E+05 -1.272046E-10 -2.902165E-10
       130  15  2.443978E+04 -1.407550E+05 -7.856598E+03  9.768800E+05 -1.897765E-09 -1.143039E-09
       130  16  1.581979E+06  6.283552E+06  1.536835E+06  1.009667E+06 -1.229005E-09  6.668524E-09
       130  17  1.163287E+06  4.564604E+06  1.069600E+06  5.662387E+05 -1.086230E-08 -6.546991E-09
       130  18  7.617940E+05  2.859584E+06  6.808441E+05  1.009467E+06  2.900066E-09 -1.498693E-08
       130  19 -1.611317E+06 -6.536084E+06 -1.605654E+06  9.449778E+05  6.874872E+04  1.682230E+05
       130  20 -1.149031E+06 -4.819449E+06 -1.103180E+06  5.009487E+05  1.857115E+05  3.359181E+04
       130  21 -7.135199E+05 -3.132768E+06 -6.971020E+05  9.444081E+05  1.273187E+05 -9.975423E+04
       130  22 -1.314771E+04 -1.449952E+05 -3.292532E+04  9.772077E+05  6.737329E+04  2.120689E+04
       130  23  7.919782E+03 -1.375917E+05 -1.602151E+04  5.334995E+05  1.853804E+05  1.163340E+04
       130  24  2.445755E+04 -1.407505E+05 -7.825492E+03  9.768803E+05  1.286186E+05  3.713483E+03
       130  25  1.581988E+06  6.283571E+06  1.536873E+06  1.009661E+06  6.599063E+04 -1.273333E+05
       130  26  1.163324E+06  4.564613E+06  1.069665E+06  5.662371E+05  1.850486E+05 -1.049071E+04
       130  27  7.618152E+05  2.859601E+06  6.808974E+05  1.009478E+06  1.299259E+05  1.076778E+05
       131   1 -3.129378E+05 -1.500627E+06 -3.199376E+05  9.666106E+05 -5.727181E+04  4.886990E+04
       131   2  9.891657E+04  2.149284E+05  7.538025E+04  5.350861E+05  1.545731E+04  4.955564E+04
       131   3  5.266952E+05  1.911160E+06  4.680093E+05  9.965194E+05  8.736315E+04  5.029666E+04
       131   4  2.188195E+04 -1.415664E+05 -6.971283E+03  9.782739E+05 -5.797446E+04 -3.730700E+03
       131   5  1.386162E+04 -1.306644E+05 -4.083157E+03  5.317914E+05  1.478014E+04 -2.512737E+03
       131   6  2.186432E+04 -1.418808E+05 -4.106575E+03  9.782671E+05  8.670135E+04 -1.243209E+03
       131   7  3.565741E+05  1.219211E+06  3.058829E+05  9.899560E+05 -5.867823E+04 -5.644575E+04
       131   8 -7.120020E+04 -4.761409E+05 -8.354428E+04  5.284983E+05  1.410332E+04 -5.455237E+04
       131   9 -4.832590E+05 -2.191023E+06 -4.764914E+05  9.600598E+05  8.604137E+04 -5.261437E+04
       131  10 -3.129420E+05 -1.500630E+06 -3.199482E+05  9.666129E+05  4.929629E-09 -9.088831E-09
       131  11  9.891565E+04  2.149257E+05  7.537519E+04  5.350855E+05 -1.359617E-09 -1.930696E-09
       131  12  5.266864E+05  1.911156E+06  4.679902E+05  9.965159E+05  4.458975E-10  4.425598E-09
       131  13  2.187834E+04 -1.415674E+05 -6.977623E+03  9.782737E+05  6.578410E-09 -1.740792E-09
       131  14  1.386138E+04 -1.306645E+05 -4.083579E+03  5.317915E+05  4.928633E-09 -1.860206E-11
       131  15  2.185624E+04 -1.418828E+05 -4.120703E+03  9.782672E+05  5.738385E-09 -1.033400E-09
       131  16  3.565696E+05  1.219207E+06  3.058705E+05  9.899534E+05  5.177540E-09  9.852535E-09
       131  17 -7.120122E+04 -4.761442E+05 -8.355025E+04  5.284989E+05  7.814423E-09  1.245164E-09
       131  18 -4.832677E+05 -2.191028E+06 -4.765106E+05  9.600635E+05  4.688688E-10 -5.995138E-09
       131  19 -3.129378E+05 -1.500627E+06 -3.199376E+05  9.666106E+05  5.727181E+04 -4.886990E+04
       131  20  9.891657E+04  2.149284E+05  7.538025E+04  5.350861E+05 -1.545731E+04 -4.955564E+04
       131  21  5.266952E+05  1.911160E+06  4.680093E+05  9.965194E+05 -8.736315E+04 -5.029666E+04
       131  22  2.188195E+04 -1.415664E+05 -6.971283E+03  9.782739E+05  5.797446E+04  3.730700E+03
       131  23  1.386162E+04 -1.306644E+05 -4.083157E+03  5.317914E+05 -1.478014E+04  2.512737E+03
       131  24  2.186432E+04 -1.418808E+05 -4.106575E+03  9.782671E+05 -8.670135E+04  1.243209E+03
       131  25  3.565741E+05  1.219211E+06  3.058829E+05  9.899560E+05  5.867823E+04  5.644575E+04
       131  26 -7.120020E+04 -4.761409E+05 -8.354428E+04  5.284983E+05 -1.410332E+04  5.455237E+04
       131  27 -4.832590E+05 -2.191023E+06 -4.764914E+05  9.600598E+05 -8.604137E+04  5.261437E+04
       132   1  9.292935E+05  3.554614E+06  8.437175E+05  1.012183E+06  1.604902E+05  1.063674E+05
       132   2  1.329650E+06  5.253977E+06  1.236672E+06  5.708271E+05  2.129629E+05 -2.817222E+04
       132   3  1.767090E+06  6.979889E+06  1.724775E+06  1.015305E+06  7.461956E+04 -1.614600E+05
       132   4  2.211534E+04 -1.392757E+05 -3.353058E+03  9.767589E+05  1.592006E+05 -1.870052E+03
       132   5  4.476483E+03 -1.417016E+05 -8.207622E+03  5.336866E+05  2.133876E+05  1.904242E+03
       132   6  2.120555E+02 -1.441323E+05 -1.341210E+04  9.769255E+05  7.602082E+04  7.305495E+03
       132   7 -8.860043E+05 -3.820550E+06 -8.512787E+05  9.414986E+05  1.579189E+05 -1.094715E+05
       132   8 -1.322731E+06 -5.510602E+06 -1.255022E+06  4.967933E+05  2.138111E+05  3.172281E+04
       132   9 -1.770387E+06 -7.222151E+06 -1.755189E+06  9.388586E+05  7.741075E+04  1.741547E+05
       132  10  9.292629E+05  3.554595E+06  8.436481E+05  1.012169E+06  1.042472E-09  5.159919E-09
       132  11  1.329601E+06  5.253963E+06  1.236585E+06  5.708319E+05 -7.419060E-09 -8.789078E-10
       132  12  1.767077E+06  6.979860E+06  1.724716E+06  1.015315E+06 -2.013663E-09 -4.493719E-09
       132  13  2.208812E+04 -1.392825E+05 -3.400690E+03  9.767591E+05 -1.213250E-09 -1.591607E-09
       132  14  4.427590E+03 -1.417138E+05 -8.293189E+03  5.336863E+05  1.680096E-09 -1.446025E-10
       132  15  2.058370E+02 -1.441339E+05 -1.342306E+04  9.769250E+05 -3.266816E-09 -5.464364E-10
       132  16 -8.860344E+05 -3.820569E+06 -8.513483E+05  9.415126E+05  6.748694E-09 -4.987530E-09
       132  17 -1.322780E+06 -5.510616E+06 -1.255110E+06  4.967878E+05 -1.952333E-09  3.530965E-12
       132  18 -1.770401E+06 -7.222185E+06 -1.755257E+06  9.388477E+05 -3.009981E-09  4.349293E-09
       132  19  9.292935E+05  3.554614E+06  8.437175E+05  1.012183E+06 -1.604902E+05 -1.063674E+05
       132  20  1.329650E+06  5.253977E+06  1.236672E+06  5.708271E+05 -2.129629E+05  2.817222E+04
       132  21  1.767090E+06  6.979889E+06  1.724775E+06  1.015305E+06 -7.461956E+04  1.614600E+05
       132  22  2.211534E+04 -1.392757E+05 -3.353058E+03  9.767589E+05 -1.592006E+05  1.870052E+03
       132  23  4.476483E+03 -1.417016E+05 -8.207622E+03  5.336866E+05 -2.133876E+05 -1.904242E+03
       132  24  2.120555E+02 -1.441323E+05 -1.341210E+04  9.769255E+05 -7.602082E+04 -7.305495E+03
       132  25 -8.860043E+05 -3.820550E+06 -8.512787E+05  9.414986E+05 -1.579189E+05  1.094715E+05
       132  26 -1.322731E+06 -5.510602E+06 -1.255022E+06  4.967933E+05 -2.138111E+05 -3.172281E+04
       132  27 -1.770387E+06 -7.222151E+06 -1.755189E+06  9.388586E+05 -7.741075E+04 -1.741547E+05
       133   1  8.179283E+06  1.942906E+06  1.933621E+06  8.021378E+05  2.329777E+05 -8.648362E+04
       133   2  6.729273E+06  1.521648E+06  1.466907E+06  4.367446E+05  7.250639E+04 -2.492335E+05
       133   3  5.350208E+06  1.186056E+06  1.129968E+06  8.005269E+05 -8.683795E+04 -2.110270E+05
       133   4  4.862412E+05  3.768672E+04  6.031638E+04  8.056856E+05  4.088235E+04 -8.574270E+04
       133   5  4.665016E+05 -1.400134E+04  2.468339E+04  4.407856E+05  2.693983E+04 -2.493192E+05
       133   6  4.908715E+05 -4.780400E+03  1.821969E+04  8.055022E+05  1.375482E+04 -2.110408E+05
       133   7 -7.153218E+06 -1.871858E+06 -1.817145E+06  8.092135E+05 -1.488645E+05 -8.500069E+04
       133   8 -5.760254E+06 -1.552385E+06 -1.420134E+06  4.447910E+05 -1.817549E+04 -2.494064E+05
       133   9 -4.346698E+06 -1.197249E+06 -1.095040E+06  8.104200E+05  1.135716E+05 -2.110529E+05
       133  10  8.179223E+06  1.942884E+06  1.933506E+06  8.021540E+05  1.040765E-08 -8.947909E-10
       133  11  6.729250E+06  1.521580E+06  1.466780E+06  4.367591E+05  6.031123E-09  1.192822E-09
       133  12  5.350188E+06  1.186006E+06  1.129870E+06  8.005122E+05 -8.767726E-09  3.003541E-09
       133  13  4.862375E+05  3.767837E+04  6.029940E+04  8.056884E+05 -2.218159E-09  1.471142E-09
       133  14  4.664841E+05 -1.406831E+04  2.456516E+04  4.407910E+05 -3.489687E-09  5.896932E-10
       133  15  4.908593E+05 -4.828294E+03  1.813560E+04  8.055046E+05  1.637046E-09  2.539967E-09
       133  16 -7.153244E+06 -1.871871E+06 -1.817201E+06  8.092033E+05 -8.093969E-09 -1.485868E-09
       133  17 -5.760271E+06 -1.552452E+06 -1.420252E+06  4.447874E+05  3.716695E-09  2.300202E-09
       133  18 -4.346724E+06 -1.197300E+06 -1.095148E+06  8.104394E+05  8.106682E-09  1.871936E-09
       133  19  8.179283E+06  1.942906E+06  1.933621E+06  8.021378E+05 -2.329777E+05  8.648362E+04
       133  20  6.729273E+06  1.521648E+06  1.466907E+06  4.367446E+05 -7.250639E+04  2.492335E+05
       133  21  5.350208E+06  1.186056E+06  1.129968E+06  8.005269E+05  8.683795E+04  2.110270E+05
       133  22  4.862412E+05  3.768672E+04  6.031638E+04  8.056856E+05 -4.088235E+04  8.574270E+04
       133  23  4.665016E+05 -1.400134E+04  2.468339E+04  4.407856E+05 -2.693983E+04  2.493192E+05
       133  24  4.908715E+05 -4.780400E+03  1.821969E+04  8.055022E+05 -1.375482E+04  2.110408E+05
       133  25 -7.153218E+06 -1.871858E+06 -1.817145E+06  8.092135E+05  1.488645E+05  8.500069E+04
       133  26 -5.760254E+06 -1.552385E+06 -1.420134E+06  4.447910E+05  1.817549E+04  2.494064E+05
       133  27 -4.346698E+06 -1.197249E+06 -1.095040E+06  8.104200E+05 -1.135716E+05  2.110529E+05
       134   1  3.991214E+06  8.631050E+05  8.195919E+05  8.115277E+05 -2.743630E+04 -1.470320E+05
       134   2  2.584824E+06  5.167511E+05  4.908668E+05  4.430300E+05 -3.854343E+04 -8.953498E+04
       134   3  1.183093E+06  1.769503E+05  1.706546E+05  8.084785E+05 -4.985109E+04 -2.259700E+04
       134   4  4.841939E+05  2.442553E+03  1.405778E+04  8.065411E+05  1.071073E+04 -1.470116E+05
       134   5  4.841298E+05  9.011762E+02  8.561729E+03  4.394903E+05  6.412239E+03 -8.943793E+04
       134   6  4.857483E+05  4.874470E+03  6.984951E+03  8.065392E+05  1.888418E+03 -2.240182E+04
       134   7 -3.011491E+06 -8.590756E+05 -7.922831E+05  8.015702E+05  4.864493E+04 -1.469918E+05
       134   8 -1.612487E+06 -5.152551E+05 -4.740270E+05  4.359588E+05  5.121749E+04 -8.934120E+04
       134   9 -2.111436E+05 -1.672345E+05 -1.567079E+05  8.046014E+05  5.357025E+04 -2.220683E+04
       134  10  3.991208E+06  8.630816E+05  8.195499E+05  8.115245E+05  6.203387E-09  1.605877E-09
       134  11  2.584820E+06  5.167421E+05  4.908490E+05  4.430272E+05  5.584160E-09 -2.245859E-09
       134  12  1.183090E+06  1.769491E+05  1.706490E+05  8.084776E+05 -1.864893E-09  1.050078E-10
       134  13  4.841880E+05  2.419306E+03  1.401693E+04  8.065423E+05  4.226335E-09  3.498545E-10
       134  14  4.841276E+05  8.925730E+02  8.546614E+03  4.394908E+05 -4.516591E-09 -6.979823E-11
       134  15  4.857482E+05  4.873930E+03  6.984000E+03  8.065392E+05  2.087542E-09 -7.664192E-10
       134  16 -3.011500E+06 -8.590995E+05 -7.923282E+05  8.015759E+05 -5.214194E-09  8.149578E-10
       134  17 -1.612492E+06 -5.152643E+05 -4.740469E+05  4.359625E+05 -4.716355E-10 -1.791787E-09
       134  18 -2.111468E+05 -1.672358E+05 -1.567142E+05  8.046024E+05  2.681270E-09 -1.258930E-09
       134  19  3.991214E+06  8.631050E+05  8.195919E+05  8.115277E+05  2.743630E+04  1.470320E+05
       134  20  2.584824E+06  5.167511E+05  4.908668E+05  4.430300E+05  3.854343E+04  8.953498E+04
       134  21  1.183093E+06  1.769503E+05  1.706546E+05  8.084785E+05  4.985109E+04  2.259700E+04
       134  22  4.841939E+05  2.442553E+03  1.405778E+04  8.065411E+05 -1.071073E+04  1.470116E+05
       134  23  4.841298E+05  9.011762E+02  8.561729E+03  4.394903E+05 -6.412239E+03  8.943793E+04
       134  24  4.857483E+05  4.874470E+03  6.984951E+03  8.065392E+05 -1.888418E+03  2.240182E+04
       134  25 -3.011491E+06 -8.590756E+05 -7.922831E+05  8.015702E+05 -4.864493E+04  1.469918E+05
       134  26 -1.612487E+06 -5.152551E+05 -4.740270E+05  4.359588E+05 -5.121749E+04  8.934120E+04
       134  27 -2.111436E+05 -1.672345E+05 -1.567079E+05  8.046014E+05 -5.357025E+04  2.220683E+04
       135   1 -1.590025E+05 -1.541914E+05 -1.450678E+05  8.044880E+05 -5.127674E+04  1.996274E+04
       135   2 -1.560031E+06 -5.022036E+05 -4.640503E+05  4.361156E+05 -4.793088E+04  8.710120E+04
       135   3 -2.959414E+06 -8.474895E+05 -7.850295E+05  8.019643E+05 -4.437251E+04  1.448228E+05
       135   4  4.856152E+05  5.058326E+03  6.609611E+03  8.065319E+05  3.881700E+02  2.015827E+04
       135   5  4.843547E+05  1.079051E+03  6.509136E+03  4.394991E+05 -3.089969E+03  8.720034E+04
       135   6  4.841002E+05  1.140835E+03  9.242894E+03  8.065374E+05 -6.347966E+03  1.448464E+05
       135   7  1.130621E+06  1.642799E+05  1.582685E+05  8.085774E+05  5.210642E+04  2.035400E+04
       135   8  2.532617E+06  5.040706E+05  4.767993E+05  4.428900E+05  4.189771E+04  8.729977E+04
       135   9  3.938613E+06  8.489408E+05  8.027327E+05  8.111237E+05  3.188666E+04  1.448705E+05
       135  10 -1.590055E+05 -1.541925E+05 -1.450735E+05  8.044888E+05  3.013422E-09  2.195332E-09
       135  11 -1.560036E+06 -5.022124E+05 -4.640689E+05  4.361189E+05  1.967636E-09 -2.372550E-09
       135  12 -2.959422E+06 -8.475125E+05 -7.850727E+05  8.019695E+05  3.541219E-09 -6.002967E-10
       135  13  4.856150E+05  5.057890E+03  6.608847E+03  8.065319E+05  4.290808E-09  5.524910E-10
       135  14  4.843526E+05  1.070881E+03  6.494824E+03  4.394993E+05  3.791188E-09 -2.078879E-09
       135  15  4.840945E+05  1.118288E+03  9.203377E+03  8.065381E+05  1.972115E-09 -1.830295E-09
       135  16  1.130618E+06  1.642787E+05  1.582626E+05  8.085765E+05 -2.578313E-09 -6.017711E-10
       135  17  2.532613E+06  5.040619E+05  4.767817E+05  4.428871E+05 -2.903155E-09  1.682129E-09
       135  18  3.938606E+06  8.489180E+05  8.026913E+05  8.111200E+05 -3.006315E-09  1.627158E-10
       135  19 -1.590025E+05 -1.541914E+05 -1.450678E+05  8.044880E+05  5.127674E+04 -1.996274E+04
       135  20 -1.560031E+06 -5.022036E+05 -4.640503E+05  4.361156E+05  4.793088E+04 -8.710120E+04
       135  21 -2.959414E+06 -8.474895E+05 -7.850295E+05  8.019643E+05  4.437251E+04 -1.448228E+05
       135  22  4.856152E+05  5.058326E+03  6.609611E+03  8.065319E+05 -3.881700E+02 -2.015827E+04
       135  23  4.843547E+05  1.079051E+03  6.509136E+03  4.394991E+05  3.089969E+03 -8.720034E+04
       135  24  4.841002E+05  1.140835E+03  9.242894E+03  8.065374E+05  6.347966E+03 -1.448464E+05
       135  25  1.130621E+06  1.642799E+05  1.582685E+05  8.085774E+05 -5.210642E+04 -2.035400E+04
       135  26  2.532617E+06  5.040706E+05  4.767993E+05  4.428900E+05 -4.189771E+04 -8.729977E+04
       135  27  3.938613E+06  8.489408E+05  8.027327E+05  8.111237E+05 -3.188666E+04 -1.448705E+05
       136   1 -4.295899E+06 -1.183120E+06 -1.089218E+06  8.073713E+05 -1.080263E+05  2.087290E+05
       136   2 -5.706159E+06 -1.537897E+06 -1.418532E+06  4.468224E+05  2.841554E+04  2.472605E+05
       136   3 -7.102221E+06 -1.878080E+06 -1.828216E+06  8.163455E+05  1.638097E+05  8.429015E+04
       136   4  4.895108E+05 -3.536416E+03  1.202869E+04  8.055289E+05 -8.496915E+03  2.087249E+05
       136   5  4.684277E+05 -1.244045E+04  1.415592E+04  4.407595E+05 -1.605289E+04  2.471711E+05
       136   6  4.849242E+05  1.843760E+04  3.639839E+04  8.056428E+05 -2.433976E+04  8.500448E+04
       136   7  5.296219E+06  1.174450E+06  1.111797E+06  8.036535E+05  9.179770E+04  2.087199E+05
       136   8  6.678426E+06  1.510327E+06  1.444292E+06  4.346398E+05 -6.096276E+04  2.470835E+05
       136   9  8.124917E+06  1.910689E+06  1.896912E+06  7.948302E+05 -2.148028E+05  8.572227E+04
       136  10 -4.295923E+06 -1.183170E+06 -1.089322E+06  8.073895E+05  3.320720E-09 -2.907814E-10
       136  11 -5.706176E+06 -1.537963E+06 -1.418648E+06  4.468167E+05 -9.454944E-10 -1.169956E-09
       136  12 -7.102252E+06 -1.878095E+06 -1.828280E+06  8.163343E+05  5.112157E-10 -1.716338E-09
       136  13  4.894990E+05 -3.583232E+03  1.194666E+04  8.055303E+05  3.998726E-11 -7.868496E-10
       136  14  4.684110E+05 -1.250615E+04  1.404059E+04  4.407627E+05  5.034991E-09 -9.946137E-10
       136  15  4.849216E+05  1.842968E+04  3.638368E+04  8.056445E+05 -1.653542E-09 -1.797336E-09
       136  16  5.296199E+06  1.174401E+06  1.111699E+06  8.036381E+05 -8.684904E-09 -2.129835E-09
       136  17  6.678406E+06  1.510261E+06  1.444171E+06  4.346519E+05 -2.075016E-09 -2.222320E-09
       136  18  8.124866E+06  1.910669E+06  1.896812E+06  7.948449E+05  6.381611E-09 -2.064848E-09
       136  19 -4.295899E+06 -1.183120E+06 -1.089218E+06  8.073713E+05  1.080263E+05 -2.087290E+05
       136  20 -5.706159E+06 -1.537897E+06 -1.418532E+06  4.468224E+05 -2.841554E+04 -2.472605E+05
       136  21 -7.102221E+06 -1.878080E+06 -1.828216E+06  8.163455E+05 -1.638097E+05 -8.429015E+04
       136  22  4.895108E+05 -3.536416E+03  1.202869E+04  8.055289E+05  8.496915E+03 -2.087249E+05
       136  23  4.684277E+05 -1.244045E+04  1.415592E+04  4.407595E+05  1.605289E+04 -2.471711E+05
       136  24  4.849242E+05  1.843760E+04  3.639839E+04  8.056428E+05  2.433976E+04 -8.500448E+04
       136  25  5.296219E+06  1.174450E+06  1.111797E+06  8.036535E+05 -9.179770E+04 -2.087199E+05
       136  26  6.678426E+06  1.510327E+06  1.444292E+06  4.346398E+05  6.096276E+04 -2.470835E+05
       136  27  8.124917E+06  1.910689E+06  1.896912E+06  7.948302E+05  2.148028E+05 -8.572227E+04
       137   1 -1.622614E+06 -6.446644E+06 -1.619328E+06  9.529396E+05 -6.879345E+04 -1.775153E+05
       137   2 -1.147751E+06 -4.725010E+06 -1.108541E+06  5.048206E+05 -1.856642E+05 -3.971550E+04
       137   3 -7.117664E+05 -3.036543E+06 -6.992199E+05  9.459262E+05 -1.271257E+05  9.683109E+04
       137   4 -2.431832E+04 -5.401901E+04 -4.637997E+04  9.801089E+05 -6.743578E+04 -3.057838E+04
       137   5  8.570911E+03 -4.501982E+04 -2.192967E+04  5.354739E+05 -1.853370E+05 -1.785861E+04
       137   6  2.488181E+04 -4.976708E+04 -1.121153E+04  9.796721E+05 -1.284140E+05 -6.770684E+03
       137   7  1.570943E+06  6.376094E+06  1.523636E+06  1.007450E+06 -6.607323E+04  1.178824E+05
       137   8  1.163347E+06  4.655299E+06  1.063211E+06  5.663001E+05 -1.850092E+05  4.163255E+03
       137   9  7.609128E+05  2.945313E+06  6.762456E+05  1.013550E+06 -1.297101E+05 -1.108687E+05
       137  10 -1.622628E+06 -6.446679E+06 -1.619396E+06  9.529297E+05 -2.410838E-09 -9.990771E-10
       137  11 -1.147788E+06 -4.725021E+06 -1.108609E+06  5.048146E+05  2.451384E-09  1.992947E-09
       137  12 -7.117863E+05 -3.036558E+06 -6.992681E+05  9.459361E+05  4.061889E-09 -2.963006E-10
       137  13 -2.432345E+04 -5.402123E+04 -4.639026E+04  9.801072E+05 -9.452292E-09 -3.893726E-09
       137  14  8.533944E+03 -4.502938E+04 -2.199480E+04  5.354712E+05 -2.614870E-09 -4.831786E-11
       137  15  2.486409E+04 -4.977155E+04 -1.124259E+04  9.796714E+05 -2.380280E-09 -3.638264E-09
       137  16  1.570935E+06  6.376078E+06  1.523602E+06  1.007456E+06  8.344170E-10  1.999768E-09
       137  17  1.163311E+06  4.655290E+06  1.063147E+06  5.663007E+05 -1.645498E-08 -2.416084E-09
       137  18  7.608915E+05  2.945295E+06  6.761911E+05  1.013539E+06 -3.474383E-09 -1.326841E-09
       137  19 -1.622614E+06 -6.446644E+06 -1.619328E+06  9.529396E+05  6.879345E+04  1.775153E+05
       137  20 -1.147751E+06 -4.725010E+06 -1.108541E+06  5.048206E+05  1.856642E+05  3.971550E+04
       137  21 -7.117664E+05 -3.036543E+06 -6.992199E+05  9.459262E+05  1.271257E+05 -9.683109E+04
       137  22 -2.431832E+04 -5.401901E+04 -4.637997E+04  9.801089E+05  6.743578E+04  3.057838E+04
       137  23  8.570911E+03 -4.501982E+04 -2.192967E+04  5.354739E+05  1.853370E+05  1.785861E+04
       137  24  2.488181E+04 -4.976708E+04 -1.121153E+04  9.796721E+05  1.284140E+05  6.770684E+03
       137  25  1.570943E+06  6.376094E+06  1.523636E+06  1.007450E+06  6.607323E+04 -1.178824E+05
       137  26  1.163347E+06  4.655299E+06  1.063211E+06  5.663001E+05  1.850092E+05 -4.163255E+03
       137  27  7.609128E+05  2.945313E+06  6.762456E+05  1.013550E+06  1.297101E+05  1.108687E+05
       138   1 -3.119856E+05 -1.401056E+06 -3.206751E+05  9.698099E+05 -5.697767E+04  4.641421E+04
       138   2  1.014829E+05  3.173493E+05  7.688668E+04  5.372768E+05  1.588372E+04  4.756908E+04
       138   3  5.300888E+05  2.016451E+06  4.713123E+05  9.991381E+05  8.789456E+04  4.878203E+04
       138   4  2.084494E+04 -4.987561E+04 -9.562273E+03  9.810342E+05 -5.767502E+04 -6.294973E+03
       138   5  1.379238E+04 -3.898407E+04 -5.037301E+03  5.338257E+05  1.521252E+04 -4.586173E+03
       138   6  2.197394E+04 -5.020014E+04 -3.882413E+03  9.810136E+05  8.723935E+04 -2.824241E+03
       138   7  3.535494E+05  1.303002E+06  3.014400E+05  9.922763E+05 -5.837343E+04 -5.911816E+04
       138   8 -7.390553E+04 -3.951941E+05 -8.695946E+04  5.303763E+05  1.454169E+04 -5.671174E+04
       138   9 -4.864371E+05 -2.112901E+06 -4.793497E+05  9.629343E+05  8.658593E+04 -5.426049E+04
       138  10 -3.119897E+05 -1.401059E+06 -3.206853E+05  9.698120E+05  5.695332E-09 -1.176902E-08
       138  11  1.014820E+05  3.173468E+05  7.688196E+04  5.372762E+05  4.175306E-09  5.771624E-09
       138  12  5.300799E+05  2.016446E+06  4.712933E+05  9.991346E+05  1.528729E-09  1.160075E-08
       138  13  2.084136E+04 -4.987654E+04 -9.568596E+03  9.810339E+05  1.952529E-09 -6.332716E-09
       138  14  1.379213E+04 -3.898415E+04 -5.037776E+03  5.338258E+05 -1.467899E-09  4.673413E-11
       138  15  2.196577E+04 -5.020219E+04 -3.896731E+03  9.810138E+05  6.816770E-09 -3.964655E-09
       138  16  3.535448E+05  1.302997E+06  3.014270E+05  9.922735E+05  4.892050E-09  1.372639E-08
       138  17 -7.390662E+04 -3.951976E+05 -8.696591E+04  5.303770E+05  6.657521E-09 -4.097729E-09
       138  18 -4.864460E+05 -2.112906E+06 -4.793694E+05  9.629381E+05  3.903739E-09 -1.340548E-08
       138  19 -3.119856E+05 -1.401056E+06 -3.206751E+05  9.698099E+05  5.697767E+04 -4.641421E+04
       138  20  1.014829E+05  3.173493E+05  7.688668E+04  5.372768E+05 -1.588372E+04 -4.756908E+04
       138  21  5.300888E+05  2.016451E+06  4.713123E+05  9.991381E+05 -8.789456E+04 -4.878203E+04
       138  22  2.084494E+04 -4.987561E+04 -9.562273E+03  9.810342E+05  5.767502E+04  6.294973E+03
       138  23  1.379238E+04 -3.898407E+04 -5.037301E+03  5.338257E+05 -1.521252E+04  4.586173E+03
       138  24  2.197394E+04 -5.020014E+04 -3.882413E+03  9.810136E+05 -8.723935E+04  2.824241E+03
       138  25  3.535494E+05  1.303002E+06  3.014400E+05  9.922763E+05  5.837343E+04  5.911816E+04
       138  26 -7.390553E+04 -3.951941E+05 -8.695946E+04  5.303763E+05 -1.454169E+04  5.671174E+04
       138  27 -4.864371E+05 -2.112901E+06 -4.793497E+05  9.629343E+05 -8.658593E+04  5.426049E+04
       139   1  9.326619E+05  3.663029E+06  8.480819E+05  1.014162E+06  1.611646E+05  1.049834E+05
       139   2  1.333922E+06  5.365054E+06  1.243042E+06  5.728259E+05  2.137058E+05 -3.102771E+04
       139   3  1.776481E+06  7.095293E+06  1.735229E+06  1.019053E+06  7.486673E+04 -1.658174E+05
       139   4  2.159123E+04 -4.725849E+04 -2.638256E+03  9.795893E+05  1.598878E+05 -3.512181E+03
       139   5  4.020230E+03 -5.049830E+04 -6.277641E+03  5.356351E+05  2.141286E+05 -7.726445E+02
       139   6  3.987320E+03 -5.214494E+04 -8.464009E+03  9.797211E+05  7.624684E+04  3.568465E+03
       139   7 -8.904292E+05 -3.744820E+06 -8.542211E+05  9.451756E+05  1.586189E+05 -1.113675E+05
       139   8 -1.327930E+06 -5.439080E+06 -1.257546E+06  4.986935E+05  2.145501E+05  2.922216E+04
       139   9 -1.772251E+06 -7.153286E+06 -1.755769E+06  9.407160E+05  7.761495E+04  1.710251E+05
       139  10  9.326311E+05  3.663010E+06  8.480126E+05  1.014149E+06  3.261817E-09 -1.437646E-09
       139  11  1.333873E+06  5.365040E+06  1.242954E+06  5.728312E+05 -3.242325E-09  1.290558E-09
       139  12  1.776468E+06  7.095263E+06  1.735168E+06  1.019063E+06 -1.196377E-09  1.167954E-09
       139  13  2.156378E+04 -4.726536E+04 -2.686321E+03  9.795898E+05 -1.573501E-09 -6.036514E-09
       139  14  3.970995E+03 -5.051061E+04 -6.363803E+03  5.356352E+05  1.523811E-09 -8.514532E-11
       139  15  3.981075E+03 -5.214652E+04 -8.474955E+03  9.797209E+05 -2.278039E-12 -2.149473E-09
       139  16 -8.904596E+05 -3.744840E+06 -8.542919E+05  9.451899E+05  9.076350E-09  2.294595E-09
       139  17 -1.327980E+06 -5.439093E+06 -1.257634E+06  4.986884E+05 -4.315393E-10 -2.545918E-10
       139  18 -1.772265E+06 -7.153319E+06 -1.755836E+06  9.407053E+05 -6.998315E-10 -1.537565E-09
       139  19  9.326619E+05  3.663029E+06  8.480819E+05  1.014162E+06 -1.611646E+05 -1.049834E+05
       139  20  1.333922E+06  5.365054E+06  1.243042E+06  5.728259E+05 -2.137058E+05  3.102771E+04
       139  21  1.776481E+06  7.095293E+06  1.735229E+06  1.019053E+06 -7.486673E+04  1.658174E+05
       139  22  2.159123E+04 -4.725849E+04 -2.638256E+03  9.795893E+05 -1.598878E+05  3.512181E+03
       139  23  4.020230E+03 -5.049830E+04 -6.277641E+03  5.356351E+05 -2.141286E+05  7.726445E+02
       139  24  3.987320E+03 -5.214494E+04 -8.464009E+03  9.797211E+05 -7.624684E+04 -3.568465E+03
       139  25 -8.904292E+05 -3.744820E+06 -8.542211E+05  9.451756E+05 -1.586189E+05  1.113675E+05
       139  26 -1.327930E+06 -5.439080E+06 -1.257546E+06  4.986935E+05 -2.145501E+05 -2.922216E+04
       139  27 -1.772251E+06 -7.153286E+06 -1.755769E+06  9.407160E+05 -7.761495E+04 -1.710251E+05
       140   1  8.218771E+06  1.917559E+06  1.911931E+06  7.913347E+05  2.411817E+05 -8.469256E+04
       140   2  6.797811E+06  1.488787E+06  1.444795E+06  4.290557E+05  7.944086E+04 -2.439998E+05
       140   3  5.450420E+06  1.160453E+06  1.111730E+06  7.804862E+05 -8.120883E+04 -2.066399E+05
       140   4  6.872780E+05  5.266297E+04  7.821699E+04  7.880177E+05  5.305793E+04 -8.398074E+04
       140   5  6.657822E+05 -1.458017E+04  3.288374E+04  4.308427E+05  3.476398E+04 -2.440810E+05
       140   6  6.917225E+05 -5.525865E+03  2.319933E+04  7.877889E+05  1.720013E+04 -2.066559E+05
       140   7 -6.792868E+06 -1.816377E+06 -1.759479E+06  7.847633E+05 -1.328151E+05 -8.326385E+04
       140   8 -5.431728E+06 -1.520568E+06 -1.381514E+06  4.326171E+05 -9.480052E+03 -2.441634E+05
       140   9 -4.046105E+06 -1.173069E+06 -1.066780E+06  7.950184E+05  1.148657E+05 -2.066694E+05
       140  10  8.218707E+06  1.917536E+06  1.911809E+06  7.913510E+05  1.317152E-09  1.906578E-09
       140  11  6.797789E+06  1.488722E+06  1.444672E+06  4.290713E+05 -6.158372E-09  3.600693E-09
       140  12  5.450401E+06  1.160405E+06  1.111638E+06  7.804727E+05  3.890912E-09 -7.008678E-10
       140  13  6.872731E+05  5.265463E+04  7.819842E+04  7.880213E+05  4.857506E-11 -2.577586E-10
       140  14  6.657649E+05 -1.464450E+04  3.276945E+04  4.308495E+05  2.086184E-09 -2.502033E-09
       140  15  6.917107E+05 -5.571825E+03  2.311847E+04  7.877918E+05  9.368635E-09  1.036876E-10
       140  16 -6.792889E+06 -1.816389E+06 -1.759525E+06  7.847543E+05 -9.680755E-10  1.190084E-10
       140  17 -5.431744E+06 -1.520632E+06 -1.381626E+06  4.326152E+05  1.683822E-09 -3.443858E-09
       140  18 -4.046131E+06 -1.173118E+06 -1.066886E+06  7.950376E+05  1.340189E-09  1.001182E-09
       140  19  8.218771E+06  1.917559E+06  1.911931E+06  7.913347E+05 -2.411817E+05  8.469256E+04
       140  20  6.797811E+06  1.488787E+06  1.444795E+06  4.290557E+05 -7.944086E+04  2.439998E+05
       140  21  5.450420E+06  1.160453E+06  1.111730E+06  7.804862E+05  8.120883E+04  2.066399E+05
       140  22  6.872780E+05  5.266297E+04  7.821699E+04  7.880177E+05 -5.305793E+04  8.398074E+04
       140  23  6.657822E+05 -1.458017E+04  3.288374E+04  4.308427E+05 -3.476398E+04  2.440810E+05
       140  24  6.917225E+05 -5.525865E+03  2.319933E+04  7.877889E+05 -1.720013E+04  2.066559E+05
       140  25 -6.792868E+06 -1.816377E+06 -1.759479E+06  7.847633E+05  1.328151E+05  8.326385E+04
       140  26 -5.431728E+06 -1.520568E+06 -1.381514E+06  4.326171E+05  9.480052E+03  2.441634E+05
       140  27 -4.046105E+06 -1.173069E+06 -1.066780E+06  7.950184E+05 -1.148657E+05  2.066694E+05
       141   1  4.121139E+06  8.468184E+05  8.074919E+05  7.937120E+05 -2.384161E+04 -1.440539E+05
       141   2  2.746486E+06  5.071040E+05  4.845641E+05  4.333840E+05 -3.608878E+04 -8.788721E+04
       141   3  1.376939E+06  1.751470E+05  1.712168E+05  7.901947E+05 -4.852502E+04 -2.249526E+04
       141   4  6.843058E+05  3.531432E+03  1.822237E+04  7.885451E+05  1.342082E+04 -1.440356E+05
       141   5  6.839417E+05  7.231213E+02  1.111453E+04  4.299029E+05  7.834693E+03 -8.779549E+04
       141   6  6.857976E+05  4.652025E+03  9.091939E+03  7.885460E+05  2.032716E+03 -2.230966E+04
       141   7 -2.741645E+06 -8.405770E+05 -7.718216E+05  7.833953E+05  5.047952E+04 -1.440178E+05
       141   8 -1.374674E+06 -5.059529E+05 -4.626084E+05  4.264298E+05  5.161389E+04 -8.770408E+04
       141   9 -4.899325E+03 -1.658755E+05 -1.530560E+05  7.868984E+05  5.253462E+04 -2.212420E+04
       141  10  4.121133E+06  8.467960E+05  8.074519E+05  7.937092E+05  6.034116E-09 -2.518197E-10
       141  11  2.746483E+06  5.070954E+05  4.845472E+05  4.333814E+05  4.510689E-09  9.401554E-10
       141  12  1.376936E+06  1.751458E+05  1.712115E+05  7.901939E+05  5.029247E-09  5.223251E-10
       141  13  6.843000E+05  3.509095E+03  1.818302E+04  7.885467E+05  6.366392E-09  3.420308E-10
       141  14  6.839396E+05  7.148244E+02  1.109992E+04  4.299035E+05  2.973580E-09  2.146973E-09
       141  15  6.857975E+05  4.651489E+03  9.090996E+03  7.885460E+05  6.335638E-09  1.806707E-09
       141  16 -2.741653E+06 -8.406000E+05 -7.718655E+05  7.834011E+05  9.749098E-10  2.109437E-09
       141  17 -1.374679E+06 -5.059619E+05 -4.626278E+05  4.264335E+05  5.941422E-09 -1.099107E-09
       141  18 -4.902423E+03 -1.658768E+05 -1.530621E+05  7.868993E+05 -2.263563E-09 -8.171275E-10
       141  19  4.121139E+06  8.468184E+05  8.074919E+05  7.937120E+05  2.384161E+04  1.440539E+05
       141  20  2.746486E+06  5.071040E+05  4.845641E+05  4.333840E+05  3.608878E+04  8.788721E+04
       141  21  1.376939E+06  1.751470E+05  1.712168E+05  7.901947E+05  4.852502E+04  2.249526E+04
       141  22  6.843058E+05  3.531432E+03  1.822237E+04  7.885451E+05 -1.342082E+04  1.440356E+05
       141  23  6.839417E+05  7.231213E+02  1.111453E+04  4.299029E+05 -7.834693E+03  8.779549E+04
       141  24  6.857976E+05  4.652025E+03  9.091939E+03  7.885460E+05 -2.032716E+03  2.230966E+04
       141  25 -2.741645E+06 -8.405770E+05 -7.718216E+05  7.833953E+05 -5.047952E+04  1.440178E+05
       141  26 -1.374674E+06 -5.059529E+05 -4.626084E+05  4.264298E+05 -5.161389E+04  8.770408E+04
       141  27 -4.899325E+03 -1.658755E+05 -1.530560E+05  7.868984E+05 -5.253462E+04  2.212420E+04
       142   1  6.586785E+04 -1.482605E+05 -1.371278E+05  7.868395E+05 -5.030413E+04  1.907745E+04
       142   2 -1.303562E+06 -4.882947E+05 -4.482691E+05  4.265888E+05 -4.844385E+04  8.466112E+04
       142   3 -2.670873E+06 -8.242783E+05 -7.600813E+05  7.837538E+05 -4.637878E+04  1.410683E+05
       142   4  6.856619E+05  4.828635E+03  8.726468E+03  7.885422E+05  1.748487E+02  1.926362E+04
       142   5  6.841888E+05  9.202271E+02  9.137750E+03  4.299073E+05 -4.619565E+03  8.475572E+04
       142   6  6.842225E+05  2.333213E+03  1.357683E+04  7.885446E+05 -9.204850E+03  1.410912E+05
       142   7  1.305815E+06  1.578917E+05  1.545640E+05  7.902461E+05  5.070392E+04  1.944996E+04
       142   8  2.675602E+06  4.898602E+05  4.662903E+05  4.332329E+05  3.934414E+04  8.485060E+04
       142   9  4.049755E+06  8.281570E+05  7.864926E+05  7.933502E+05  2.816914E+04  1.411145E+05
       142  10  6.586503E+04 -1.482615E+05 -1.371333E+05  7.868403E+05  8.495113E-10 -2.183301E-09
       142  11 -1.303566E+06 -4.883031E+05 -4.482870E+05  4.265921E+05 -2.451170E-09  2.541992E-10
       142  12 -2.670881E+06 -8.243002E+05 -7.601228E+05  7.837590E+05  1.423300E-10  1.363502E-10
       142  13  6.856618E+05  4.828236E+03  8.725770E+03  7.885422E+05  6.467425E-09 -2.138138E-09
       142  14  6.841869E+05  9.125047E+02  9.124205E+03  4.299076E+05  3.685056E-09 -4.178057E-09
       142  15  6.842170E+05  2.311805E+03  1.353924E+04  7.885457E+05 -4.874075E-09  1.017220E-09
       142  16  1.305812E+06  1.578906E+05  1.545584E+05  7.902453E+05 -1.273062E-10 -2.139062E-09
       142  17  2.675599E+06  4.898520E+05  4.662739E+05  4.332302E+05 -2.963663E-09 -1.805063E-09
       142  18  4.049749E+06  8.281354E+05  7.864537E+05  7.933470E+05  2.060040E-09  1.707763E-09
       142  19  6.586785E+04 -1.482605E+05 -1.371278E+05  7.868395E+05  5.030413E+04 -1.907745E+04
       142  20 -1.303562E+06 -4.882947E+05 -4.482691E+05  4.265888E+05  4.844385E+04 -8.466112E+04
       142  21 -2.670873E+06 -8.242783E+05 -7.600813E+05  7.837538E+05  4.637878E+04 -1.410683E+05
       142  22  6.856619E+05  4.828635E+03  8.726468E+03  7.885422E+05 -1.748487E+02 -1.926362E+04
       142  23  6.841888E+05  9.202271E+02  9.137750E+03  4.299073E+05  4.619565E+03 -8.475572E+04
       142  24  6.842225E+05  2.333213E+03  1.357683E+04  7.885446E+05  9.204850E+03 -1.410912E+05
       142  25  1.305815E+06  1.578917E+05  1.545640E+05  7.902461E+05 -5.070392E+04 -1.944996E+04
       142  26  2.675602E+06  4.898602E+05  4.662903E+05  4.332329E+05 -3.934414E+04 -8.485060E+04
       142  27  4.049755E+06  8.281570E+05  7.864926E+05  7.933502E+05 -2.816914E+04 -1.411145E+05
       143   1 -3.976554E+06 -1.154302E+06 -1.056441E+06  7.919390E+05 -1.093798E+05  2.035080E+05
       143   2 -5.358884E+06 -1.501420E+06 -1.375182E+06  4.344794E+05  1.912685E+04  2.412510E+05
       143   3 -6.723114E+06 -1.817160E+06 -1.765121E+06  7.913139E+05  1.466510E+05  8.232241E+04
       143   4  6.903991E+05 -4.263834E+03  1.721977E+04  7.877545E+05 -1.212057E+04  2.035051E+05
       143   5  6.677356E+05 -1.299438E+04  2.273871E+04  4.308928E+05 -2.425985E+04  2.411659E+05
       143   6  6.860122E+05  3.416153E+04  5.512867E+04  7.879139E+05 -3.709484E+04  8.300367E+04
       143   7  5.377601E+06  1.144256E+06  1.089475E+06  7.835208E+05  8.586764E+04  2.035007E+05
       143   8  6.728074E+06  1.472872E+06  1.418231E+06  4.272750E+05 -6.806643E+04  2.410821E+05
       143   9  8.145510E+06  1.881418E+06  1.871471E+06  7.844935E+05 -2.230452E+05  8.368408E+04
       143  10 -3.976578E+06 -1.154350E+06 -1.056541E+06  7.919570E+05 -1.884508E-10  7.372356E-10
       143  11 -5.358900E+06 -1.501483E+06 -1.375293E+06  4.344757E+05 -1.129946E-09  4.783754E-10
       143  12 -6.723139E+06 -1.817173E+06 -1.765175E+06  7.913042E+05  2.803579E-09  1.316249E-09
       143  13  6.903878E+05 -4.308364E+03  1.714163E+04  7.877565E+05 -4.053454E-09  2.005340E-09
       143  14  6.677194E+05 -1.305702E+04  2.262825E+04  4.308976E+05 -1.003598E-09 -2.921640E-09
       143  15  6.860089E+05  3.415375E+04  5.511311E+04  7.879164E+05 -4.884891E-09  6.163446E-10
       143  16  5.377582E+06  1.144210E+06  1.089384E+06  7.835068E+05 -1.209035E-09  2.541966E-09
       143  17  6.728054E+06  1.472808E+06  1.418113E+06  4.272882E+05  2.125320E-09 -3.621076E-11
       143  18  8.145455E+06  1.881397E+06  1.871365E+06  7.845085E+05 -9.777136E-11  1.435381E-09
       143  19 -3.976554E+06 -1.154302E+06 -1.056441E+06  7.919390E+05  1.093798E+05 -2.035080E+05
       143  20 -5.358884E+06 -1.501420E+06 -1.375182E+06  4.344794E+05 -1.912685E+04 -2.412510E+05
       143  21 -6.723114E+06 -1.817160E+06 -1.765121E+06  7.913139E+05 -1.466510E+05 -8.232241E+04
       143  22  6.903991E+05 -4.263834E+03  1.721977E+04  7.877545E+05  1.212057E+04 -2.035051E+05
       143  23  6.677356E+05 -1.299438E+04  2.273871E+04  4.308928E+05  2.425985E+04 -2.411659E+05
       143  24  6.860122E+05  3.416153E+04  5.512867E+04  7.879139E+05  3.709484E+04 -8.300367E+04
       143  25  5.377601E+06  1.144256E+06  1.089475E+06  7.835208E+05 -8.586764E+04 -2.035007E+05
       143  26  6.728074E+06  1.472872E+06  1.418231E+06  4.272750E+05  6.806643E+04 -2.410821E+05
       143  27  8.145510E+06  1.881418E+06  1.871471E+06  7.844935E+05  2.230452E+05 -8.368408E+04
       144   1 -1.605672E+06 -6.291494E+06 -1.605885E+06  9.404778E+05 -6.751520E+04 -1.868471E+05
       144   2 -1.124131E+06 -4.603148E+06 -1.095263E+06  4.971986E+05 -1.820971E+05 -4.727182E+04
       144   3 -6.979229E+05 -2.952141E+06 -6.913251E+05  9.246349E+05 -1.247953E+05  9.111021E+04
       144   4 -3.947764E+04 -2.604281E+04 -6.442022E+04  9.600529E+05 -6.620697E+04 -4.285585E+04
       144   5  9.356305E+03 -1.489514E+04 -3.005982E+04  5.245931E+05 -1.817820E+05 -2.583231E+04
       144   6  2.476858E+04 -2.196202E+04 -1.639214E+04  9.594848E+05 -1.260332E+05 -1.037852E+04
       144   7  1.523803E+06  6.275414E+06  1.474230E+06  9.797228E+05 -6.489720E+04  1.025991E+05
       144   8  1.141359E+06  4.592894E+06  1.033731E+06  5.521349E+05 -1.814665E+05 -4.234000E+03
       144   9  7.468664E+05  2.916208E+06  6.580102E+05  9.944707E+05 -1.272793E+05 -1.123441E+05
       144  10 -1.605687E+06 -6.291533E+06 -1.605960E+06  9.404677E+05  2.471803E-09 -4.892440E-09
       144  11 -1.124168E+06 -4.603159E+06 -1.095330E+06  4.971917E+05  6.100617E-09  1.566498E-09
       144  12 -6.979419E+05 -2.952154E+06 -6.913701E+05  9.246441E+05  6.588745E-09  1.064711E-08
       144  13 -3.948284E+04 -2.604595E+04 -6.443189E+04  9.600506E+05 -1.590452E-10 -5.401664E-11
       144  14  9.320647E+03 -1.490472E+04 -3.012315E+04  5.245893E+05 -5.892601E-09 -5.009953E-09
       144  15  2.475150E+04 -2.196640E+04 -1.642218E+04  9.594838E+05 -6.936356E-09  6.214723E-10
       144  16  1.523795E+06  6.275402E+06  1.474202E+06  9.797281E+05 -3.940445E-09  9.933163E-10
       144  17  1.141324E+06  4.592885E+06  1.033669E+06  5.521343E+05 -1.358053E-08 -5.012042E-09
       144  18  7.468457E+05  2.916191E+06  6.579563E+05  9.944592E+05  1.570476E-09 -1.296286E-08
       144  19 -1.605672E+06 -6.291494E+06 -1.605885E+06  9.404778E+05  6.751520E+04  1.868471E+05
       144  20 -1.124131E+06 -4.603148E+06 -1.095263E+06  4.971986E+05  1.820971E+05  4.727182E+04
       144  21 -6.979229E+05 -2.952141E+06 -6.913251E+05  9.246349E+05  1.247953E+05 -9.111021E+04
       144  22 -3.947764E+04 -2.604281E+04 -6.442022E+04  9.600529E+05  6.620697E+04  4.285585E+04
       144  23  9.356305E+03 -1.489514E+04 -3.005982E+04  5.245931E+05  1.817820E+05  2.583231E+04
       144  24  2.476858E+04 -2.196202E+04 -1.639214E+04  9.594848E+05  1.260332E+05  1.037852E+04
       144  25  1.523803E+06  6.275414E+06  1.474230E+06  9.797228E+05  6.489720E+04 -1.025991E+05
       144  26  1.141359E+06  4.592894E+06  1.033731E+06  5.521349E+05  1.814665E+05  4.234000E+03
       144  27  7.468664E+05  2.916208E+06  6.580102E+05  9.944707E+05  1.272793E+05  1.123441E+05
       145   1 -3.084495E+05 -1.349929E+06 -3.198087E+05  9.504639E+05 -5.607960E+04  4.252431E+04
       145   2  9.778131E+04  3.326324E+05  7.109829E+04  5.263238E+05  1.526697E+04  4.509933E+04
       145   3  5.168375E+05  1.996004E+06  4.576037E+05  9.778472E+05  8.579321E+04  4.773299E+04
       145   4  1.884261E+04 -2.109486E+04 -1.385477E+04  9.608379E+05 -5.674942E+04 -9.075618E+03
       145   5  1.338794E+04 -1.030933E+04 -7.744879E+03  5.229893E+05  1.462194E+04 -5.963471E+03
       145   6  2.085105E+04 -2.140040E+04 -6.261958E+03  9.608070E+05  8.516321E+04 -2.801210E+03
       145   7  3.460127E+05  1.309381E+06  2.919922E+05  9.712279E+05 -5.742018E+04 -6.078529E+04
       145   8 -7.101223E+04 -3.531367E+05 -8.658603E+04  5.196562E+05  1.397727E+04 -5.699830E+04
       145   9 -4.754177E+05 -2.035041E+06 -4.703873E+05  9.438080E+05  8.453484E+04 -5.317288E+04
       145  10 -3.084533E+05 -1.349932E+06 -3.198181E+05  9.504658E+05  6.749699E-09  4.115652E-09
       145  11  9.778051E+04  3.326302E+05  7.109404E+04  5.263233E+05 -2.244025E-09  3.009348E-09
       145  12  5.168290E+05  1.996000E+06  4.575856E+05  9.778439E+05 -1.835697E-09  3.275319E-09
       145  13  1.883914E+04 -2.109581E+04 -1.386097E+04  9.608375E+05 -6.778970E-09 -1.819195E-10
       145  14  1.338770E+04 -1.030943E+04 -7.745348E+03  5.229893E+05  9.018461E-09 -6.360514E-09
       145  15  2.084326E+04 -2.140236E+04 -6.275604E+03  9.608072E+05 -3.345332E-10  6.967252E-10
       145  16  3.460082E+05  1.309376E+06  2.919791E+05  9.712251E+05  1.814136E-10 -1.054935E-08
       145  17 -7.101331E+04 -3.531402E+05 -8.659251E+04  5.196569E+05 -9.928783E-10 -4.991164E-09
       145  18 -4.754261E+05 -2.035046E+06 -4.704061E+05  9.438116E+05  1.038190E-09 -5.522473E-09
       145  19 -3.084495E+05 -1.349929E+06 -3.198087E+05  9.504639E+05  5.607960E+04 -4.252431E+04
       145  20  9.778131E+04  3.326324E+05  7.109829E+04  5.263238E+05 -1.526697E+04 -4.509933E+04
       145  21  5.168375E+05  1.996004E+06  4.576037E+05  9.778472E+05 -8.579321E+04 -4.773299E+04
       145  22  1.884261E+04 -2.109486E+04 -1.385477E+04  9.608379E+05  5.674942E+04  9.075618E+03
       145  23  1.338794E+04 -1.030933E+04 -7.744879E+03  5.229893E+05 -1.462194E+04  5.963471E+03
       145  24  2.085105E+04 -2.140040E+04 -6.261958E+03  9.608070E+05 -8.516321E+04  2.801210E+03
       145  25  3.460127E+05  1.309381E+06  2.919922E+05  9.712279E+05  5.742018E+04  6.078529E+04
       145  26 -7.101223E+04 -3.531367E+05 -8.658603E+04  5.196562E+05 -1.397727E+04  5.699830E+04
       145  27 -4.754177E+05 -2.035041E+06 -4.703873E+05  9.438080E+05 -8.453484E+04  5.317288E+04
       146   1  9.114683E+05  3.607721E+06  8.264718E+05  9.933227E+05  1.575080E+05  1.031535E+05
       146   2  1.304846E+06  5.275047E+06  1.212747E+06  5.598546E+05  2.090177E+05 -2.833940E+04
       146   3  1.733090E+06  6.968271E+06  1.691748E+06  9.954758E+05  7.327396E+04 -1.586503E+05
       146   4  2.094965E+04 -1.878647E+04 -5.057734E+03  9.594266E+05  1.562805E+05 -3.034760E+03
       146   5  4.250514E+03 -2.107214E+04 -9.067732E+03  5.247347E+05  2.094231E+05  1.203813E+03
       146   6 -8.562855E+02 -2.346509E+04 -1.406533E+04  9.595922E+05  7.460157E+04  6.984066E+03
       146   7 -8.704763E+05 -3.633136E+06 -8.374113E+05  9.256843E+05  1.550605E+05 -1.086105E+05
       146   8 -1.298305E+06 -5.291396E+06 -1.232747E+06  4.898437E+05  2.098273E+05  3.049842E+04
       146   9 -1.738385E+06 -6.970895E+06 -1.723336E+06  9.239939E+05  7.591891E+04  1.707726E+05
       146  10  9.114389E+05  3.607703E+06  8.264055E+05  9.933096E+05  1.368811E-09  2.394586E-09
       146  11  1.304799E+06  5.275034E+06  1.212664E+06  5.598594E+05 -8.161169E-09 -3.159564E-10
       146  12  1.733077E+06  6.968243E+06  1.691691E+06  9.954851E+05 -2.139210E-09 -3.250688E-10
       146  13  2.092342E+04 -1.879303E+04 -5.103650E+03  9.594270E+05 -4.480206E-09 -7.038134E-11
       146  14  4.203418E+03 -2.108391E+04 -9.150150E+03  5.247345E+05 -8.009460E-10 -4.763643E-09
       146  15 -8.622736E+02 -2.346664E+04 -1.407587E+04  9.595918E+05 -2.566973E-09  3.611361E-10
       146  16 -8.705053E+05 -3.633155E+06 -8.374789E+05  9.256979E+05  4.349150E-09 -8.654569E-09
       146  17 -1.298352E+06 -5.291408E+06 -1.232831E+06  4.898385E+05 -4.325936E-09 -1.390775E-09
       146  18 -1.738400E+06 -6.970928E+06 -1.723402E+06  9.239835E+05 -4.594744E-09 -2.010051E-10
       146  19  9.114683E+05  3.607721E+06  8.264718E+05  9.933227E+05 -1.575080E+05 -1.031535E+05
       146  20  1.304846E+06  5.275047E+06  1.212747E+06  5.598546E+05 -2.090177E+05  2.833940E+04
       146  21  1.733090E+06  6.968271E+06  1.691748E+06  9.954758E+05 -7.327396E+04  1.586503E+05
       146  22  2.094965E+04 -1.878647E+04 -5.057734E+03  9.594266E+05 -1.562805E+05  3.034760E+03
       146  23  4.250514E+03 -2.107214E+04 -9.067732E+03  5.247347E+05 -2.094231E+05 -1.203813E+03
       146  24 -8.562855E+02 -2.346509E+04 -1.406533E+04  9.595922E+05 -7.460157E+04 -6.984066E+03
       146  25 -8.704763E+05 -3.633136E+06 -8.374113E+05  9.256843E+05 -1.550605E+05  1.086105E+05
       146  26 -1.298305E+06 -5.291396E+06 -1.232747E+06  4.898437E+05 -2.098273E+05 -3.049842E+04
       146  27 -1.738385E+06 -6.970895E+06 -1.723336E+06  9.239939E+05 -7.591891E+04 -1.707726E+05
       147   1  8.263870E+06  1.893224E+06  1.891909E+06  7.821705E+05  2.516455E+05 -8.279476E+04
       147   2  6.871086E+06  1.453727E+06  1.422364E+06  4.221103E+05  8.791564E+04 -2.384245E+05
       147   3  5.555335E+06  1.132604E+06  1.092429E+06  7.603353E+05 -7.475795E+04 -2.018661E+05
       147   4  9.017677E+05  7.060991E+04  9.969925E+04  7.705583E+05  6.771821E+04 -8.212048E+04
       147   5  8.781135E+05 -1.531517E+04  4.267932E+04  4.210851E+05  4.422584E+04 -2.385029E+05
       147   6  9.060317E+05 -6.369378E+03  2.911724E+04  7.702790E+05  2.142893E+04 -2.018805E+05
       147   7 -6.411281E+06 -1.755960E+06 -1.696313E+06  7.591036E+05 -1.140591E+05 -8.143655E+04
       147   8 -5.081895E+06 -1.486859E+06 -1.339379E+06  4.200745E+05  9.493448E+02 -2.385819E+05
       147   9 -3.723356E+06 -1.146835E+06 -1.035577E+06  7.801319E+05  1.169060E+05 -2.018918E+05
       147  10  8.263801E+06  1.893200E+06  1.891778E+06  7.821872E+05  8.175214E-09 -1.286639E-09
       147  11  6.871062E+06  1.453664E+06  1.422243E+06  4.221271E+05  3.400104E-10  2.095647E-10
       147  12  5.555318E+06  1.132558E+06  1.092342E+06  7.603232E+05 -3.466546E-10  4.048671E-11
       147  13  9.017610E+05  7.060142E+04  9.967794E+04  7.705628E+05  2.153248E-09 -2.819945E-10
       147  14  8.780961E+05 -1.537681E+04  4.256868E+04  4.210936E+05  2.491591E-09  2.846338E-09
       147  15  9.060202E+05 -6.413292E+03  2.903973E+04  7.702825E+05  9.153935E-10  1.675481E-10
       147  16 -6.411297E+06 -1.755971E+06 -1.696351E+06  7.590961E+05 -3.437006E-09  7.809386E-10
       147  17 -5.081910E+06 -1.486920E+06 -1.339486E+06  4.200747E+05 -2.031819E-09  1.201591E-09
       147  18 -3.723381E+06 -1.146882E+06 -1.035680E+06  7.801510E+05 -2.120957E-09 -4.711894E-10
       147  19  8.263870E+06  1.893224E+06  1.891909E+06  7.821705E+05 -2.516455E+05  8.279476E+04
       147  20  6.871086E+06  1.453727E+06  1.422364E+06  4.221103E+05 -8.791564E+04  2.384245E+05
       147  21  5.555335E+06  1.132604E+06  1.092429E+06  7.603353E+05  7.475795E+04  2.018661E+05
       147  22  9.017677E+05  7.060991E+04  9.969925E+04  7.705583E+05 -6.771821E+04  8.212048E+04
       147  23  8.781135E+05 -1.531517E+04  4.267932E+04  4.210851E+05 -4.422584E+04  2.385029E+05
       147  24  9.060317E+05 -6.369378E+03  2.911724E+04  7.702790E+05 -2.142893E+04  2.018805E+05
       147  25 -6.411281E+06 -1.755960E+06 -1.696313E+06  7.591036E+05  1.140591E+05  8.143655E+04
       147  26 -5.081895E+06 -1.486859E+06 -1.339379E+06  4.200745E+05 -9.493448E+02  2.385819E+05
       147  27 -3.723356E+06 -1.146835E+06 -1.035577E+06  7.801319E+05 -1.169060E+05  2.018918E+05
       148   1  4.255255E+06  8.285819E+05  7.940416E+05  7.762768E+05 -1.962556E+04 -1.406984E+05
       148   2  2.911973E+06  4.951563E+05  4.764351E+05  4.239310E+05 -3.318120E+04 -8.583426E+04
       148   3  1.574261E+06  1.709530E+05  1.696339E+05  7.721005E+05 -4.691376E+04 -2.197010E+04
       148   4  8.976961E+05  4.901018E+03  2.312645E+04  7.707852E+05  1.677491E+04 -1.406805E+05
       148   5  8.970215E+05  5.624949E+02  1.400741E+04  4.204600E+05  9.726475E+03 -8.574634E+04
       148   6  8.991210E+05  4.446277E+03  1.130207E+04  7.707890E+05  2.472151E+03 -2.179261E+04
       148   7 -2.449479E+06 -8.195634E+05 -7.485275E+05  7.653124E+05  5.298095E+04 -1.406632E+05
       148   8 -1.114182E+06 -4.943128E+05 -4.486810E+05  4.169969E+05  5.249650E+04 -8.565873E+04
       148   9  2.244052E+05 -1.620915E+05 -1.470517E+05  7.694784E+05  5.180479E+04 -2.161521E+04
       148  10  4.255249E+06  8.285605E+05  7.940037E+05  7.762746E+05  1.972173E-10 -8.855625E-11
       148  11  2.911970E+06  4.951481E+05  4.764192E+05  4.239287E+05 -3.710972E-10  1.234908E-10
       148  12  1.574258E+06  1.709519E+05  1.696288E+05  7.720996E+05 -2.747501E-09  1.788284E-10
       148  13  8.976905E+05  4.879678E+03  2.308870E+04  7.707871E+05 -5.881185E-11 -4.640878E-10
       148  14  8.970194E+05  5.545702E+02  1.399340E+04  4.204607E+05  1.783520E-09 -1.419020E-09
       148  15  8.991209E+05  4.445765E+03  1.130116E+04  7.707890E+05  2.612117E-09 -1.024139E-09
       148  16 -2.449487E+06 -8.195855E+05 -7.485700E+05  7.653184E+05 -7.287953E-10 -8.050633E-10
       148  17 -1.114187E+06 -4.943215E+05 -4.487000E+05  4.170005E+05  5.918175E-09 -3.542975E-09
       148  18  2.244022E+05 -1.620927E+05 -1.470576E+05  7.694793E+05  2.150538E-09  1.134376E-09
       148  19  4.255255E+06  8.285819E+05  7.940416E+05  7.762768E+05  1.962556E+04  1.406984E+05
       148  20  2.911973E+06  4.951563E+05  4.764351E+05  4.239310E+05  3.318120E+04  8.583426E+04
       148  21  1.574261E+06  1.709530E+05  1.696339E+05  7.721005E+05  4.691376E+04  2.197010E+04
       148  22  8.976961E+05  4.901018E+03  2.312645E+04  7.707852E+05 -1.677491E+04  1.406805E+05
       148  23  8.970215E+05  5.624949E+02  1.400741E+04  4.204600E+05 -9.726475E+03  8.574634E+04
       148  24  8.991210E+05  4.446277E+03  1.130207E+04  7.707890E+05 -2.472151E+03  2.179261E+04
       148  25 -2.449479E+06 -8.195634E+05 -7.485275E+05  7.653124E+05 -5.298095E+04  1.406632E+05
       148  26 -1.114182E+06 -4.943128E+05 -4.486810E+05  4.169969E+05 -5.249650E+04  8.565873E+04
       148  27  2.244052E+05 -1.620915E+05 -1.470517E+05  7.694784E+05 -5.180479E+04  2.161521E+04
       149   1  2.938342E+05 -1.447622E+05 -1.315125E+05  7.693532E+05 -4.906467E+04  1.862726E+04
       149   2 -1.044335E+06 -4.769578E+05 -4.351132E+05  4.171865E+05 -4.857830E+04  8.267448E+04
       149   3 -2.380028E+06 -8.039293E+05 -7.381853E+05  7.657762E+05 -4.789367E+04  1.377706E+05
       149   4  8.989608E+05  4.665112E+03  1.085393E+04  7.707801E+05  2.450502E+02  1.880534E+04
       149   5  8.972965E+05  7.801193E+02  1.156171E+04  4.204706E+05 -5.763089E+03  8.276515E+04
       149   6  8.975872E+05  3.363485E+03  1.738821E+04  7.707803E+05 -1.157182E+04  1.377928E+05
       149   7  1.504429E+06  1.540676E+05  1.532043E+05  7.722079E+05  4.960253E+04  1.898353E+04
       149   8  2.842422E+06  4.782557E+05  4.579941E+05  4.237618E+05  3.718513E+04  8.285611E+04
       149   9  4.185158E+06  8.099050E+05  7.722536E+05  7.758003E+05  2.494094E+04  1.378154E+05
       149  10  2.938315E+05 -1.447632E+05 -1.315176E+05  7.693540E+05  3.821328E-09  4.612909E-09
       149  11 -1.044340E+06 -4.769657E+05 -4.351305E+05  4.171897E+05 -5.960968E-09  1.246396E-09
       149  12 -2.380035E+06 -8.039504E+05 -7.382253E+05  7.657815E+05  2.728808E-09 -2.241124E-09
       149  13  8.989607E+05  4.664732E+03  1.085326E+04  7.707801E+05  2.161411E-09  1.098613E-09
       149  14  8.972946E+05  7.727511E+02  1.154877E+04  4.204710E+05 -3.444302E-09 -8.344890E-11
       149  15  8.975819E+05  3.343049E+03  1.735226E+04  7.707815E+05  1.139916E-09  8.166168E-11
       149  16  1.504426E+06  1.540666E+05  1.531990E+05  7.722071E+05 -4.655822E-09 -7.642293E-10
       149  17  2.842419E+06  4.782480E+05  4.579786E+05  4.237594E+05 -4.401212E-09 -3.095341E-09
       149  18  4.185152E+06  8.098845E+05  7.722167E+05  7.757976E+05 -1.779830E-09 -3.377135E-10
       149  19  2.938342E+05 -1.447622E+05 -1.315125E+05  7.693532E+05  4.906467E+04 -1.862726E+04
       149  20 -1.044335E+06 -4.769578E+05 -4.351132E+05  4.171865E+05  4.857830E+04 -8.267448E+04
       149  21 -2.380028E+06 -8.039293E+05 -7.381853E+05  7.657762E+05  4.789367E+04 -1.377706E+05
       149  22  8.989608E+05  4.665112E+03  1.085393E+04  7.707801E+05 -2.450502E+02 -1.880534E+04
       149  23  8.972965E+05  7.801193E+02  1.156171E+04  4.204706E+05  5.763089E+03 -8.276515E+04
       149  24  8.975872E+05  3.363485E+03  1.738821E+04  7.707803E+05  1.157182E+04 -1.377928E+05
       149  25  1.504429E+06  1.540676E+05  1.532043E+05  7.722079E+05 -4.960253E+04 -1.898353E+04
       149  26  2.842422E+06  4.782557E+05  4.579941E+05  4.237618E+05 -3.718513E+04 -8.285611E+04
       149  27  4.185158E+06  8.099050E+05  7.722536E+05  7.758003E+05 -2.494094E+04 -1.378154E+05
       150   1 -3.655367E+06 -1.128152E+06 -1.026935E+06  7.764355E+05 -1.102412E+05  1.987900E+05
       150   2 -5.009869E+06 -1.467722E+06 -1.335727E+06  4.225137E+05  1.117480E+04  2.357167E+05
       150   3 -6.342906E+06 -1.761464E+06 -1.707652E+06  7.674996E+05  1.316628E+05  8.049437E+04
       150   4  9.044082E+05 -4.872745E+03  2.173754E+04  7.702656E+05 -1.515873E+04  1.987887E+05
       150   5  8.804333E+05 -1.343689E+04  3.013608E+04  4.211103E+05 -3.124815E+04  2.356351E+05
       150   6  9.002050E+05  4.769127E+04  7.119493E+04  7.704607E+05 -4.799959E+04  8.114412E+04
       150   7  5.483504E+06  1.116959E+06  1.069070E+06  7.640336E+05  8.061984E+04  1.987854E+05
       150   8  6.802931E+06  1.438404E+06  1.393681E+06  4.196971E+05 -7.407192E+04  2.355546E+05
       150   9  8.191431E+06  1.852964E+06  1.846310E+06  7.734758E+05 -2.297675E+05  8.178946E+04
       150  10 -3.655391E+06 -1.128198E+06 -1.027032E+06  7.764532E+05  2.049507E-09 -1.823686E-10
       150  11 -5.009884E+06 -1.467781E+06 -1.335832E+06  4.225115E+05  2.552059E-09  4.184218E-09
       150  12 -6.342927E+06 -1.761475E+06 -1.707697E+06  7.674911E+05  2.721884E-09  3.534835E-09
       150  13  9.043973E+05 -4.915264E+03  2.166279E+04  7.702681E+05  3.962049E-09 -1.704360E-10
       150  14  8.804174E+05 -1.349681E+04  3.002984E+04  4.211162E+05 -3.370264E-09 -1.191416E-09
       150  15  9.002008E+05  4.768357E+04  7.117821E+04  7.704639E+05  1.595293E-09 -2.548928E-09
       150  16  5.483486E+06  1.116915E+06  1.068983E+06  7.640207E+05 -3.261435E-10  9.696121E-10
       150  17  6.802910E+06  1.438343E+06  1.393566E+06  4.197111E+05 -1.564692E-09 -2.109961E-09
       150  18  8.191373E+06  1.852943E+06  1.846199E+06  7.734909E+05  4.669867E-09 -5.221422E-09
       150  19 -3.655367E+06 -1.128152E+06 -1.026935E+06  7.764355E+05  1.102412E+05 -1.987900E+05
       150  20 -5.009869E+06 -1.467722E+06 -1.335727E+06  4.225137E+05 -1.117480E+04 -2.357167E+05
       150  21 -6.342906E+06 -1.761464E+06 -1.707652E+06  7.674996E+05 -1.316628E+05 -8.049437E+04
       150  22  9.044082E+05 -4.872745E+03  2.173754E+04  7.702656E+05  1.515873E+04 -1.987887E+05
       150  23  8.804333E+05 -1.343689E+04  3.013608E+04  4.211103E+05  3.124815E+04 -2.356351E+05
       150  24  9.002050E+05  4.769127E+04  7.119493E+04  7.704607E+05  4.799959E+04 -8.114412E+04
       150  25  5.483504E+06  1.116959E+06  1.069070E+06  7.640336E+05 -8.061984E+04 -1.987854E+05
       150  26  6.802931E+06  1.438404E+06  1.393681E+06  4.196971E+05  7.407192E+04 -2.355546E+05
       150  27  8.191431E+06  1.852964E+06  1.846310E+06  7.734758E+05  2.297675E+05 -8.178946E+04
       151   1 -1.579220E+06 -6.103910E+06 -1.583196E+06  9.193322E+05 -6.580162E+04 -1.964217E+05
       151   2 -1.093764E+06 -4.465479E+06 -1.076343E+06  4.847603E+05 -1.774719E+05 -5.559716E+04
       151   3 -6.817106E+05 -2.868776E+06 -6.814132E+05  8.936436E+05 -1.220514E+05  8.410956E+04
       151   4 -5.618325E+04 -9.758260E+03 -8.410343E+04  9.302376E+05 -6.455850E+04 -5.628239E+04
       151   5  1.012175E+04  3.670989E+03 -3.891231E+04  5.083244E+05 -1.771712E+05 -3.457973E+04
       151   6  2.438374E+04 -5.908898E+03 -2.202951E+04  9.295363E+05 -1.232207E+05 -1.436397E+04
       151   7  1.464097E+06  6.118451E+06  1.412327E+06  9.411546E+05 -6.331745E+04  8.524271E+04
       151   8  1.112599E+06  4.491353E+06  9.971782E+05  5.320070E+05 -1.768702E+05 -1.341052E+04
       151   9  7.299117E+05  2.864586E+06  6.368472E+05  9.655682E+05 -1.243985E+05 -1.132895E+05
       151  10 -1.579235E+06 -6.103953E+06 -1.583277E+06  9.193218E+05 -4.490771E-09  7.865864E-09
       151  11 -1.093798E+06 -4.465490E+06 -1.076408E+06  4.847523E+05 -4.969312E-10  8.360703E-09
       151  12 -6.817285E+05 -2.868788E+06 -6.814546E+05  8.936519E+05  4.741945E-09 -1.015998E-08
       151  13 -5.618856E+04 -9.762772E+03 -8.411719E+04  9.302346E+05 -2.858328E-09  7.516161E-11
       151  14  1.008773E+04  3.661286E+03 -3.897352E+04  5.083194E+05  1.111856E-09  1.002489E-08
       151  15  2.436739E+04 -5.913191E+03 -2.205841E+04  9.295349E+05 -3.894572E-09  1.232380E-08
       151  16  1.464090E+06  6.118442E+06  1.412306E+06  9.411590E+05 -3.522739E-09 -4.272067E-09
       151  17  1.112565E+06  4.491344E+06  9.971191E+05  5.320051E+05 -8.565335E-09 -1.093957E-10
       151  18  7.298917E+05  2.864568E+06  6.367942E+05  9.655568E+05  7.896312E-10  1.429514E-08
       151  19 -1.579220E+06 -6.103910E+06 -1.583196E+06  9.193322E+05  6.580162E+04  1.964217E+05
       151  20 -1.093764E+06 -4.465479E+06 -1.076343E+06  4.847603E+05  1.774719E+05  5.559716E+04
       151  21 -6.817106E+05 -2.868776E+06 -6.814132E+05  8.936436E+05  1.220514E+05 -8.410956E+04
       151  22 -5.618325E+04 -9.758260E+03 -8.410343E+04  9.302376E+05  6.455850E+04  5.628239E+04
       151  23  1.012175E+04  3.670989E+03 -3.891231E+04  5.083244E+05  1.771712E+05  3.457973E+04
       151  24  2.438374E+04 -5.908898E+03 -2.202951E+04  9.295363E+05  1.232207E+05  1.436397E+04
       151  25  1.464097E+06  6.118451E+06  1.412327E+06  9.411546E+05  6.331745E+04 -8.524271E+04
       151  26  1.112599E+06  4.491353E+06  9.971782E+05  5.320070E+05  1.768702E+05  1.341052E+04
       151  27  7.299117E+05  2.864586E+06  6.368472E+05  9.655682E+05  1.243985E+05  1.132895E+05
       152   1 -3.066807E+05 -1.315735E+06 -3.205339E+05  9.213941E+05 -5.540284E+04  3.779321E+04
       152   2  8.847906E+04  3.141289E+05  6.007027E+04  5.097893E+05  1.369574E+04  4.192694E+04
       152   3  4.938047E+05  1.925105E+06  4.349152E+05  9.463670E+05  8.205675E+04  4.611643E+04
       152   4  1.638210E+04 -3.956779E+03 -1.850743E+04  9.308803E+05 -5.603429E+04 -1.214933E+04
       152   5  1.280219E+04  6.612192E+03 -1.062889E+04  5.067664E+05  1.308625E+04 -7.531778E+03
       152   6  1.947936E+04 -4.221895E+03 -8.703374E+03  9.308375E+05  8.146004E+04 -2.870598E+03
       152   7  3.393260E+05  1.309421E+06  2.834144E+05  9.403807E+05 -5.666652E+04 -6.219672E+04
       152   8 -6.287995E+04 -3.008117E+05 -8.132512E+04  5.037448E+05  1.247707E+04 -5.696620E+04
       152   9 -4.551042E+05 -1.930105E+06 -4.525592E+05  9.153434E+05  8.086474E+04 -5.170695E+04
       152  10 -3.066844E+05 -1.315738E+06 -3.205424E+05  9.213958E+05  1.028647E-08  1.968652E-09
       152  11  8.847839E+04  3.141269E+05  6.006662E+04  5.097889E+05 -2.914224E-10  1.551956E-08
       152  12  4.937969E+05  1.925100E+06  4.348986E+05  9.463640E+05 -2.323069E-09 -5.237041E-10
       152  13  1.637869E+04 -3.957779E+03 -1.851360E+04  9.308798E+05  4.303084E-09  6.549027E-11
       152  14  1.280199E+04  6.612084E+03 -1.062932E+04  5.067665E+05  1.225925E-08  1.268289E-08
       152  15  1.947224E+04 -4.223686E+03 -8.715860E+03  9.308376E+05 -8.594238E-10  1.266427E-08
       152  16  3.393215E+05  1.309416E+06  2.834011E+05  9.403779E+05  5.872025E-09  3.921232E-09
       152  17 -6.288099E+04 -3.008153E+05 -8.133152E+04  5.037454E+05  8.688305E-09 -2.769434E-09
       152  18 -4.551119E+05 -1.930110E+06 -4.525766E+05  9.153468E+05 -1.332779E-09  4.996449E-09
       152  19 -3.066807E+05 -1.315735E+06 -3.205339E+05  9.213941E+05  5.540284E+04 -3.779321E+04
       152  20  8.847906E+04  3.141289E+05  6.007027E+04  5.097893E+05 -1.369574E+04 -4.192694E+04
       152  21  4.938047E+05  1.925105E+06  4.349152E+05  9.463670E+05 -8.205675E+04 -4.611643E+04
       152  22  1.638210E+04 -3.956779E+03 -1.850743E+04  9.308803E+05  5.603429E+04  1.214933E+04
       152  23  1.280219E+04  6.612192E+03 -1.062889E+04  5.067664E+05 -1.308625E+04  7.531778E+03
       152  24  1.947936E+04 -4.221895E+03 -8.703374E+03  9.308375E+05 -8.146004E+04  2.870598E+03
       152  25  3.393260E+05  1.309421E+06  2.834144E+05  9.403807E+05  5.666652E+04  6.219672E+04
       152  26 -6.287995E+04 -3.008117E+05 -8.132512E+04  5.037448E+05 -1.247707E+04  5.696620E+04
       152  27 -4.551042E+05 -1.930105E+06 -4.525592E+05  9.153434E+05 -8.086474E+04  5.170695E+04
       153   1  8.765352E+05  3.485737E+06  7.922517E+05  9.621108E+05  1.514455E+05  1.000766E+05
       153   2  1.258228E+06  5.101678E+06  1.166067E+06  5.409833E+05  2.014836E+05 -2.526453E+04
       153   3  1.667899E+06  6.740619E+06  1.626908E+06  9.617574E+05  7.071273E+04 -1.494737E+05
       153   4  2.003771E+04 -1.988204E+03 -7.521732E+03  9.295085E+05  1.502841E+05 -2.620575E+03
       153   5  4.515931E+03 -3.147486E+03 -1.173757E+04  5.084385E+05  2.018634E+05  3.058095E+03
       153   6 -5.523562E+03 -6.356589E+03 -1.941775E+04  9.297029E+05  7.197154E+04  1.020045E+04
       153   7 -8.372990E+05 -3.478467E+06 -8.080570E+05  8.970495E+05  1.491299E+05 -1.047480E+05
       153   8 -1.251016E+06 -5.084004E+06 -1.191274E+06  4.760971E+05  2.022420E+05  3.115090E+04
       153   9 -1.682283E+06 -6.712067E+06 -1.668963E+06  8.978886E+05  7.322195E+04  1.681569E+05
       153  10  8.765080E+05  3.485720E+06  7.921900E+05  9.620987E+05  5.462044E-09 -8.628041E-11
       153  11  1.258184E+06  5.101666E+06  1.165990E+06  5.409874E+05 -2.777168E-09  9.558847E-09
       153  12  1.667887E+06  6.740594E+06  1.626857E+06  9.617659E+05  5.048048E-10  3.800143E-09
       153  13  2.001345E+04 -1.994276E+03 -7.564189E+03  9.295088E+05 -3.030272E-09  1.534983E-10
       153  14  4.472172E+03 -3.158434E+03 -1.181416E+04  5.084381E+05 -5.349143E-10  9.411230E-09
       153  15 -5.529151E+03 -6.358089E+03 -1.942767E+04  9.297024E+05 -2.109761E-09  7.054790E-09
       153  16 -8.373259E+05 -3.478485E+06 -8.081196E+05  8.970621E+05  4.118222E-09  5.316852E-09
       153  17 -1.251061E+06 -5.084016E+06 -1.191353E+06  4.760920E+05 -4.065987E-09 -2.355323E-10
       153  18 -1.682297E+06 -6.712099E+06 -1.669027E+06  8.978786E+05 -1.798803E-09 -4.446791E-10
       153  19  8.765352E+05  3.485737E+06  7.922517E+05  9.621108E+05 -1.514455E+05 -1.000766E+05
       153  20  1.258228E+06  5.101678E+06  1.166067E+06  5.409833E+05 -2.014836E+05  2.526453E+04
       153  21  1.667899E+06  6.740619E+06  1.626908E+06  9.617574E+05 -7.071273E+04  1.494737E+05
       153  22  2.003771E+04 -1.988204E+03 -7.521732E+03  9.295085E+05 -1.502841E+05  2.620575E+03
       153  23  4.515931E+03 -3.147486E+03 -1.173757E+04  5.084385E+05 -2.018634E+05 -3.058095E+03
       153  24 -5.523562E+03 -6.356589E+03 -1.941775E+04  9.297029E+05 -7.197154E+04 -1.020045E+04
       153  25 -8.372990E+05 -3.478467E+06 -8.080570E+05  8.970495E+05 -1.491299E+05  1.047480E+05
       153  26 -1.251016E+06 -5.084004E+06 -1.191274E+06  4.760971E+05 -2.022420E+05 -3.115090E+04
       153  27 -1.682283E+06 -6.712067E+06 -1.668963E+06  8.978886E+05 -7.322195E+04 -1.681569E+05
       154   1  8.354908E+06  1.872401E+06  1.876044E+06  7.745005E+05  2.645405E+05 -8.093689E+04
       154   2  6.989023E+06  1.419063E+06  1.401994E+06  4.157003E+05  9.794845E+04 -2.329449E+05
       154   3  5.704539E+06  1.105014E+06  1.074402E+06  7.401760E+05 -6.761876E+04 -1.971662E+05
       154   4  1.158676E+06  9.128254E+04  1.245578E+05  7.535025E+05  8.471630E+04 -8.029960E+04
       154   5  1.132426E+06 -1.625173E+04  5.397361E+04  4.115214E+05  5.522318E+04 -2.330206E+05
       154   6  1.162779E+06 -7.361479E+03  3.592888E+04  7.531674E+05  2.639243E+04 -1.971792E+05
       154   7 -5.990699E+06 -1.693613E+06 -1.630560E+06  7.327654E+05 -9.305447E+04 -7.964766E+04
       154   8 -4.692701E+06 -1.453955E+06 -1.296313E+06  4.073862E+05  1.289244E+04 -2.330965E+05
       154   9 -3.359981E+06 -1.121160E+06 -1.003863E+06  7.660484E+05  1.197260E+05 -1.971882E+05
       154  10  8.354831E+06  1.872376E+06  1.875902E+06  7.745177E+05 -2.123455E-09  9.326149E-10
       154  11  6.988998E+06  1.419002E+06  1.401874E+06  4.157186E+05 -3.598817E-09  1.312443E-10
       154  12  5.704524E+06  1.104971E+06  1.074321E+06  7.401653E+05  3.605502E-09  1.838648E-10
       154  13  1.158666E+06  9.127368E+04  1.245322E+05  7.535080E+05  1.756409E-09  5.217800E-09
       154  14  1.132408E+06 -1.631090E+04  5.386576E+04  4.115318E+05  3.615782E-09  2.577246E-09
       154  15  1.162768E+06 -7.403447E+03  3.585445E+04  7.531716E+05  2.005907E-09  1.443318E-10
       154  16 -5.990710E+06 -1.693622E+06 -1.630588E+06  7.327594E+05  4.775122E-09 -4.180523E-10
       154  17 -4.692716E+06 -1.454013E+06 -1.296415E+06  4.073886E+05  6.316429E-09  2.183054E-09
       154  18 -3.360007E+06 -1.121206E+06 -1.003963E+06  7.660675E+05 -9.462675E-10 -5.298751E-10
       154  19  8.354908E+06  1.872401E+06  1.876044E+06  7.745005E+05 -2.645405E+05  8.093689E+04
       154  20  6.989023E+06  1.419063E+06  1.401994E+06  4.157003E+05 -9.794845E+04  2.329449E+05
       154  21  5.704539E+06  1.105014E+06  1.074402E+06  7.401760E+05  6.761876E+04  1.971662E+05
       154  22  1.158676E+06  9.128254E+04  1.245578E+05  7.535025E+05 -8.471630E+04  8.029960E+04
       154  23  1.132426E+06 -1.625173E+04  5.397361E+04  4.115214E+05 -5.522318E+04  2.330206E+05
       154  24  1.162779E+06 -7.361479E+03  3.592888E+04  7.531674E+05 -2.639243E+04  1.971792E+05
       154  25 -5.990699E+06 -1.693613E+06 -1.630560E+06  7.327654E+05  9.305447E+04  7.964766E+04
       154  26 -4.692701E+06 -1.453955E+06 -1.296313E+06  4.073862E+05 -1.289244E+04  2.330965E+05
       154  27 -3.359981E+06 -1.121160E+06 -1.003863E+06  7.660484E+05 -1.197260E+05  1.971882E+05
       155   1  4.432847E+06  8.108231E+05  7.815453E+05  7.592943E+05 -1.482048E+04 -1.373899E+05
       155   2  3.120406E+06  4.833618E+05  4.687861E+05  4.147147E+05 -2.985336E+04 -8.380750E+04
       155   3  1.814015E+06  1.667887E+05  1.682035E+05  7.543568E+05 -4.505175E+04 -2.144943E+04
       155   4  1.153347E+06  6.480658E+03  2.873521E+04  7.534063E+05  2.073216E+04 -1.373725E+05
       155   5  1.152325E+06  3.958652E+02  1.723128E+04  4.112331E+05  1.205491E+04 -8.372324E+04
       155   6  1.154709E+06  4.234718E+03  1.363111E+04  7.534130E+05  3.181022E+03 -2.127977E+04
       155   7 -2.116251E+06 -7.986089E+05 -7.247793E+05  7.475392E+05  5.609933E+04 -1.373556E+05
       155   8 -8.121806E+05 -4.828385E+05 -4.345721E+05  4.077593E+05  5.383189E+04 -8.363930E+04
       155   9  4.958059E+05 -1.583488E+05 -1.409622E+05  7.524697E+05  5.136301E+04 -2.111013E+04
       155  10  4.432842E+06  8.108027E+05  7.815095E+05  7.592927E+05 -1.891703E-09 -3.074284E-10
       155  11  3.120403E+06  4.833541E+05  4.687712E+05  4.147127E+05 -1.565193E-09  1.824572E-09
       155  12  1.814013E+06  1.667876E+05  1.681988E+05  7.543560E+05  4.413434E-09 -6.988556E-10
       155  13  1.153341E+06  6.460263E+03  2.869891E+04  7.534086E+05  4.478776E-10  1.609117E-09
       155  14  1.152323E+06  3.882942E+02  1.721782E+04  4.112339E+05  5.630779E-09  5.046109E-09
       155  15  1.154708E+06  4.234229E+03  1.363024E+04  7.534131E+05  2.170284E-09 -1.255278E-09
       155  16 -2.116260E+06 -7.986300E+05 -7.248208E+05  7.475454E+05  2.178479E-09 -8.972372E-10
       155  17 -8.121856E+05 -4.828468E+05 -4.345907E+05  4.077629E+05  3.060912E-09  5.282358E-09
       155  18  4.958030E+05 -1.583500E+05 -1.409680E+05  7.524706E+05 -1.681640E-09  1.448058E-09
       155  19  4.432847E+06  8.108231E+05  7.815453E+05  7.592943E+05  1.482048E+04  1.373899E+05
       155  20  3.120406E+06  4.833618E+05  4.687861E+05  4.147147E+05  2.985336E+04  8.380750E+04
       155  21  1.814015E+06  1.667887E+05  1.682035E+05  7.543568E+05  4.505175E+04  2.144943E+04
       155  22  1.153347E+06  6.480658E+03  2.873521E+04  7.534063E+05 -2.073216E+04  1.373725E+05
       155  23  1.152325E+06  3.958652E+02  1.723128E+04  4.112331E+05 -1.205491E+04  8.372324E+04
       155  24  1.154709E+06  4.234718E+03  1.363111E+04  7.534130E+05 -3.181022E+03  2.127977E+04
       155  25 -2.116251E+06 -7.986089E+05 -7.247793E+05  7.475392E+05 -5.609933E+04  1.373556E+05
       155  26 -8.121806E+05 -4.828385E+05 -4.345721E+05  4.077593E+05 -5.383189E+04  8.363930E+04
       155  27  4.958059E+05 -1.583488E+05 -1.409622E+05  7.524697E+05 -5.136301E+04  2.111013E+04
       156   1  5.638078E+05 -1.412787E+05 -1.259126E+05  7.522220E+05 -4.758787E+04  1.818562E+04
       156   2 -7.436288E+05 -4.657785E+05 -4.222726E+05  4.080071E+05 -4.839596E+04  8.071843E+04
       156   3 -2.048209E+06 -7.839972E+05 -7.169746E+05  7.482172E+05 -4.901229E+04  1.345246E+05
       156   4  1.154497E+06  4.538752E+03  1.301466E+04  7.533983E+05  5.714199E+02  1.835589E+04
       156   5  1.152660E+06  6.574283E+02  1.383447E+04  4.112509E+05 -6.572482E+03  8.080531E+04
       156   6  1.153184E+06  4.260875E+03  2.077947E+04  7.533971E+05 -1.352609E+04  1.345461E+05
       156   7  1.745512E+06  1.503326E+05  1.519267E+05  7.545752E+05  4.877622E+04  1.852624E+04
       156   8  3.052280E+06  4.668433E+05  4.497104E+05  4.145017E+05  3.537784E+04  8.089247E+04
       156   9  4.364070E+06  7.918027E+05  7.578585E+05  7.585939E+05  2.214223E+04  1.345681E+05
       156  10  5.638052E+05 -1.412797E+05 -1.259175E+05  7.522227E+05 -9.798430E-10  1.303260E-09
       156  11 -7.436331E+05 -4.657861E+05 -4.222893E+05  4.080102E+05 -1.393426E-10 -1.967793E-09
       156  12 -2.048217E+06 -7.840173E+05 -7.170132E+05  7.482225E+05 -3.866430E-09  2.367962E-09
       156  13  1.154497E+06  4.538389E+03  1.301403E+04  7.533983E+05 -2.201933E-09 -2.199830E-09
       156  14  1.152658E+06  6.504009E+02  1.382211E+04  4.112514E+05 -2.295691E-09 -1.695065E-09
       156  15  1.153179E+06  4.241373E+03  2.074508E+04  7.533985E+05  3.545050E-09  1.129345E-09
       156  16  1.745509E+06  1.503316E+05  1.519216E+05  7.545745E+05 -3.227024E-10 -2.612984E-09
       156  17  3.052277E+06  4.668360E+05  4.496958E+05  4.144994E+05 -2.299815E-09 -3.936330E-09
       156  18  4.364065E+06  7.917832E+05  7.578235E+05  7.585915E+05  7.572224E-09  8.749796E-10
       156  19  5.638078E+05 -1.412787E+05 -1.259126E+05  7.522220E+05  4.758787E+04 -1.818562E+04
       156  20 -7.436288E+05 -4.657785E+05 -4.222726E+05  4.080071E+05  4.839596E+04 -8.071843E+04
       156  21 -2.048209E+06 -7.839972E+05 -7.169746E+05  7.482172E+05  4.901229E+04 -1.345246E+05
       156  22  1.154497E+06  4.538752E+03  1.301466E+04  7.533983E+05 -5.714199E+02 -1.835589E+04
       156  23  1.152660E+06  6.574283E+02  1.383447E+04  4.112509E+05  6.572482E+03 -8.080531E+04
       156  24  1.153184E+06  4.260875E+03  2.077947E+04  7.533971E+05  1.352609E+04 -1.345461E+05
       156  25  1.745512E+06  1.503326E+05  1.519267E+05  7.545752E+05 -4.877622E+04 -1.852624E+04
       156  26  3.052280E+06  4.668433E+05  4.497104E+05  4.145017E+05 -3.537784E+04 -8.089247E+04
       156  27  4.364070E+06  7.918027E+05  7.578585E+05  7.585939E+05 -2.214223E+04 -1.345681E+05
       157   1 -3.293929E+06 -1.102332E+06 -9.983759E+05  7.610644E+05 -1.106627E+05  1.941510E+05
       157   2 -4.621154E+06 -1.434533E+06 -1.297819E+06  4.109992E+05  4.241929E+03  2.302782E+05
       157   3 -5.924066E+06 -1.708409E+06 -1.653187E+06  7.448425E+05  1.182694E+05  7.869137E+04
       157   4  1.160542E+06 -5.383535E+03  2.570670E+04  7.531728E+05 -1.770643E+04  1.941512E+05
       157   5  1.135498E+06 -1.377352E+04  3.656598E+04  4.115267E+05 -3.722869E+04  2.302000E+05
       157   6  1.156505E+06  5.940935E+04  8.506456E+04  7.533968E+05 -5.738061E+04  7.931058E+04
       157   7  5.633440E+06  1.090185E+06  1.048511E+06  7.452087E+05  7.591430E+04  1.941490E+05
       157   8  6.922882E+06  1.404654E+06  1.368739E+06  4.120625E+05 -7.908184E+04  2.301224E+05
       157   9  8.283029E+06  1.823521E+06  1.819754E+06  7.620673E+05 -2.350413E+05  7.992242E+04
       157  10 -3.293952E+06 -1.102376E+06 -9.984700E+05  7.610818E+05  2.506593E-09  2.442988E-09
       157  11 -4.621168E+06 -1.434590E+06 -1.297919E+06  4.109984E+05 -2.360097E-09 -1.334533E-09
       157  12 -5.924083E+06 -1.708419E+06 -1.653226E+06  7.448349E+05 -9.147571E-10 -3.027584E-09
       157  13  1.160531E+06 -5.424124E+03  2.563522E+04  7.531756E+05  5.637846E-09  9.731566E-10
       157  14  1.135482E+06 -1.383084E+04  3.646372E+04  4.115336E+05  1.828142E-09 -1.578853E-09
       157  15  1.156500E+06  5.940170E+04  8.504653E+04  7.534004E+05  1.269742E-11  9.506043E-10
       157  16  5.633424E+06  1.090143E+06  1.048430E+06  7.451969E+05 -2.776098E-09  1.291599E-09
       157  17  6.922861E+06  1.404596E+06  1.368627E+06  4.120771E+05  3.958671E-09  9.982184E-11
       157  18  8.282969E+06  1.823499E+06  1.819639E+06  7.620823E+05  9.110736E-09 -4.213880E-09
       157  19 -3.293929E+06 -1.102332E+06 -9.983759E+05  7.610644E+05  1.106627E+05 -1.941510E+05
       157  20 -4.621154E+06 -1.434533E+06 -1.297819E+06  4.109992E+05 -4.241929E+03 -2.302782E+05
       157  21 -5.924066E+06 -1.708409E+06 -1.653187E+06  7.448425E+05 -1.182694E+05 -7.869137E+04
       157  22  1.160542E+06 -5.383535E+03  2.570670E+04  7.531728E+05  1.770643E+04 -1.941512E+05
       157  23  1.135498E+06 -1.377352E+04  3.656598E+04  4.115267E+05  3.722869E+04 -2.302000E+05
       157  24  1.156505E+06  5.940935E+04  8.506456E+04  7.533968E+05  5.738061E+04 -7.931058E+04
       157  25  5.633440E+06  1.090185E+06  1.048511E+06  7.452087E+05 -7.591430E+04 -1.941490E+05
       157  26  6.922882E+06  1.404654E+06  1.368739E+06  4.120625E+05  7.908184E+04 -2.301224E+05
       157  27  8.283029E+06  1.823521E+06  1.819754E+06  7.620673E+05  2.350413E+05 -7.992242E+04
       158   1 -1.520688E+06 -5.761536E+06 -1.528654E+06  8.786193E+05 -6.270306E+04 -2.033955E+05
       158   2 -1.040441E+06 -4.209142E+06 -1.035546E+06  4.620511E+05 -1.691523E+05 -6.398150E+04
       158   3 -6.518846E+05 -2.702624E+06 -6.578858E+05  8.428420E+05 -1.168887E+05  7.441261E+04
       158   4 -7.321030E+04  3.225613E+04 -1.038276E+05  8.798919E+05 -6.155538E+04 -7.003000E+04
       158   5  1.079678E+04  4.794767E+04 -4.754799E+04  4.809429E+05 -1.688746E+05 -4.377722E+04
       158   6  2.345433E+04  3.571690E+04 -2.727242E+04  8.790694E+05 -1.179556E+05 -1.889095E+04
       158   7  1.371777E+06  5.856821E+06  1.318594E+06  8.810927E+05 -6.041331E+04  6.458921E+04
       158   8  1.060756E+06  4.321848E+06  9.392348E+05  4.999193E+05 -1.685968E+05 -2.343384E+04
       158   9  6.982755E+05  2.781034E+06  6.028766E+05  9.154335E+05 -1.190307E+05 -1.126040E+05
       158  10 -1.520703E+06 -5.761581E+06 -1.528740E+06  8.786090E+05 -3.982654E-10 -6.897815E-09
       158  11 -1.040472E+06 -4.209154E+06 -1.035608E+06  4.620424E+05  3.643553E-09  1.906346E-08
       158  12 -6.519008E+05 -2.702634E+06 -6.579220E+05  8.428490E+05  1.788575E-09  7.031646E-09
       158  13 -7.321568E+04  3.224985E+04 -1.038439E+05  8.798884E+05 -1.687081E-09 -2.425426E-11
       158  14  1.076564E+04  4.793797E+04 -4.760516E+04  4.809370E+05 -3.339987E-09 -3.326859E-11
       158  15  2.343930E+04  3.571279E+04 -2.729922E+04  8.790676E+05 -1.152237E-08 -2.899938E-09
       158  16  1.371772E+06  5.856816E+06  1.318580E+06  8.810958E+05 -3.418026E-09  5.034495E-09
       158  17  1.060726E+06  4.321840E+06  9.391804E+05  4.999161E+05 -1.748314E-08 -8.864233E-09
       158  18  6.982569E+05  2.781017E+06  6.028264E+05  9.154228E+05  2.355529E-09 -7.154334E-09
       158  19 -1.520688E+06 -5.761536E+06 -1.528654E+06  8.786193E+05  6.270306E+04  2.033955E+05
       158  20 -1.040441E+06 -4.209142E+06 -1.035546E+06  4.620511E+05  1.691523E+05  6.398150E+04
       158  21 -6.518846E+05 -2.702624E+06 -6.578858E+05  8.428420E+05  1.168887E+05 -7.441261E+04
       158  22 -7.321030E+04  3.225613E+04 -1.038276E+05  8.798919E+05  6.155538E+04  7.003000E+04
       158  23  1.079678E+04  4.794767E+04 -4.754799E+04  4.809429E+05  1.688746E+05  4.377722E+04
       158  24  2.345433E+04  3.571690E+04 -2.727242E+04  8.790694E+05  1.179556E+05  1.889095E+04
       158  25  1.371777E+06  5.856821E+06  1.318594E+06  8.810927E+05  6.041331E+04 -6.458921E+04
       158  26  1.060756E+06  4.321848E+06  9.392348E+05  4.999193E+05  1.685968E+05  2.343384E+04
       158  27  6.982755E+05  2.781034E+06  6.028766E+05  9.154335E+05  1.190307E+05  1.126040E+05
       159   1 -3.000091E+05 -1.233287E+06 -3.154746E+05  8.719449E+05 -5.377942E+04  3.134162E+04
       159   2  7.540121E+04  3.072624E+05  4.697724E+04  4.821201E+05  1.150821E+04  3.652820E+04
       159   3  4.585242E+05  1.829899E+06  4.028562E+05  8.939975E+05  7.617309E+04  4.176352E+04
       159   4  1.326177E+04  3.889169E+04 -2.257467E+04  8.803624E+05 -5.435337E+04 -1.581527E+04
       159   5  1.180976E+04  4.886228E+04 -1.242912E+04  4.794799E+05  1.095227E+04 -1.021875E+04
       159   6  1.815768E+04  3.868152E+04 -9.008710E+03  8.803008E+05  7.562700E+04 -4.587371E+03
       159   7  3.264207E+05  1.312575E+06  2.702264E+05  8.887918E+05 -5.492795E+04 -6.306816E+04
       159   8 -5.178517E+04 -2.094714E+05 -7.183168E+04  4.768407E+05  1.039661E+04 -5.694640E+04
       159   9 -4.224314E+05 -1.749568E+06 -4.210778E+05  8.666330E+05  7.508207E+04 -5.080587E+04
       159  10 -3.000125E+05 -1.233289E+06 -3.154819E+05  8.719462E+05  1.869017E-09 -1.020021E-08
       159  11  7.540071E+04  3.072610E+05  4.697448E+04  4.821198E+05 -5.815561E-09  2.060875E-08
       159  12  4.585175E+05  1.829896E+06  4.028420E+05  8.939950E+05 -8.227268E-09 -4.078465E-09
       159  13  1.325853E+04  3.889063E+04 -2.258069E+04  8.803617E+05 -1.792269E-09 -1.233806E-10
       159  14  1.180960E+04  4.886213E+04 -1.242954E+04  4.794800E+05  6.223473E-09  2.703865E-13
       159  15  1.815153E+04  3.867996E+04 -9.019500E+03  8.803011E+05 -2.235220E-10 -2.875657E-09
       159  16  3.264164E+05  1.312570E+06  2.702133E+05  8.887890E+05  5.174517E-09  7.246372E-09
       159  17 -5.178616E+04 -2.094749E+05 -7.183798E+04  4.768411E+05  7.772486E-09 -5.518753E-09
       159  18 -4.224382E+05 -1.749572E+06 -4.210933E+05  8.666361E+05 -2.916115E-09  3.712304E-09
       159  19 -3.000091E+05 -1.233287E+06 -3.154746E+05  8.719449E+05  5.377942E+04 -3.134162E+04
       159  20  7.540121E+04  3.072624E+05  4.697724E+04  4.821201E+05 -1.150821E+04 -3.652820E+04
       159  21  4.585242E+05  1.829899E+06  4.028562E+05  8.939975E+05 -7.617309E+04 -4.176352E+04
       159  22  1.326177E+04  3.889169E+04 -2.257467E+04  8.803624E+05  5.435337E+04  1.581527E+04
       159  23  1.180976E+04  4.886228E+04 -1.242912E+04  4.794799E+05 -1.095227E+04  1.021875E+04
       159  24  1.815768E+04  3.868152E+04 -9.008710E+03  8.803008E+05 -7.562700E+04  4.587371E+03
       159  25  3.264207E+05  1.312575E+06  2.702264E+05  8.887918E+05  5.492795E+04  6.306816E+04
       159  26 -5.178517E+04 -2.094714E+05 -7.183168E+04  4.768407E+05 -1.039661E+04  5.694640E+04
       159  27 -4.224314E+05 -1.749568E+06 -4.210778E+05  8.666330E+05 -7.508207E+04  5.080587E+04
       160   1  8.197353E+05  3.304900E+06  7.411880E+05  9.082811E+05  1.416565E+05  9.265035E+04
       160   2  1.181371E+06  4.832285E+06  1.096024E+06  5.111598E+05  1.891228E+05 -2.590887E+04
       160   3  1.571691E+06  6.381259E+06  1.533651E+06  9.099568E+05  6.643228E+04 -1.434138E+05
       160   4  1.814925E+04  4.092447E+04 -7.352317E+03  8.790896E+05  1.405947E+05 -4.206969E+03
       160   5  4.235247E+03  3.991440E+04 -9.862259E+03  4.810155E+05  1.894648E+05  4.967642E+02
       160   6 -2.155585E+03  3.705000E+04 -1.472651E+04  8.792413E+05  6.759353E+04  6.551399E+03
       160   7 -7.841718E+05 -3.213200E+06 -7.565593E+05  8.500178E+05  1.395390E+05 -1.005612E+05
       160   8 -1.174506E+06 -4.731327E+06 -1.117275E+06  4.510490E+05  1.898058E+05  2.670124E+04
       160   9 -1.578954E+06 -6.270663E+06 -1.565952E+06  8.487465E+05  6.874692E+04  1.549990E+05
       160  10  8.197115E+05  3.304886E+06  7.411343E+05  9.082706E+05  4.560014E-09  5.548942E-09
       160  11  1.181333E+06  4.832275E+06  1.095955E+06  5.111637E+05  4.770641E-09  1.693300E-08
       160  12  1.571681E+06  6.381236E+06  1.533604E+06  9.099645E+05  3.900115E-09 -6.789200E-09
       160  13  1.812801E+04  4.091915E+04 -7.389500E+03  8.790900E+05 -2.893685E-09 -1.426525E-10
       160  14  4.196699E+03  3.990476E+04 -9.929718E+03  4.810155E+05  5.808985E-09 -1.685107E-10
       160  15 -2.160502E+03  3.704873E+04 -1.473518E+04  8.792409E+05  2.454711E-09 -1.621656E-09
       160  16 -7.841955E+05 -3.213216E+06 -7.566151E+05  8.500292E+05 -7.910329E-10 -8.161136E-09
       160  17 -1.174545E+06 -4.731338E+06 -1.117344E+06  4.510449E+05 -2.236177E-09 -5.903504E-09
       160  18 -1.578966E+06 -6.270690E+06 -1.566006E+06  8.487379E+05  1.572005E-09  6.138073E-09
       160  19  8.197353E+05  3.304900E+06  7.411880E+05  9.082811E+05 -1.416565E+05 -9.265035E+04
       160  20  1.181371E+06  4.832285E+06  1.096024E+06  5.111598E+05 -1.891228E+05  2.590887E+04
       160  21  1.571691E+06  6.381259E+06  1.533651E+06  9.099568E+05 -6.643228E+04  1.434138E+05
       160  22  1.814925E+04  4.092447E+04 -7.352317E+03  8.790896E+05 -1.405947E+05  4.206969E+03
       160  23  4.235247E+03  3.991440E+04 -9.862259E+03  4.810155E+05 -1.894648E+05 -4.967642E+02
       160  24 -2.155585E+03  3.705000E+04 -1.472651E+04  8.792413E+05 -6.759353E+04 -6.551399E+03
       160  25 -7.841718E+05 -3.213200E+06 -7.565593E+05  8.500178E+05 -1.395390E+05  1.005612E+05
       160  26 -1.174506E+06 -4.731327E+06 -1.117275E+06  4.510490E+05 -1.898058E+05 -2.670124E+04
       160  27 -1.578954E+06 -6.270663E+06 -1.565952E+06  8.487465E+05 -6.874692E+04 -1.549990E+05
       161   1  8.441736E+06  1.833836E+06  1.844641E+06  7.642957E+05  2.809123E+05 -7.787719E+04
       161   2  7.112021E+06  1.361352E+06  1.364861E+06  4.067788E+05  1.109288E+05 -2.237528E+05
       161   3  5.869459E+06  1.056679E+06  1.040522E+06  7.126828E+05 -5.807345E+04 -1.888324E+05
       161   4  1.513963E+06  1.196962E+05  1.588826E+05  7.306200E+05  1.079343E+05 -7.728280E+04
       161   5  1.484176E+06 -1.753973E+04  6.980166E+04  3.985464E+05  7.003026E+04 -2.238207E+05
       161   6  1.517832E+06 -8.830225E+03  4.579947E+04  7.302021E+05  3.275109E+04 -1.888507E+05
       161   7 -5.370397E+06 -1.597938E+06 -1.530239E+06  6.973347E+05 -6.314363E+04 -7.666752E+04
       161   8 -4.114620E+06 -1.398635E+06 -1.227348E+06  3.903927E+05  2.949405E+04 -2.238881E+05
       161   9 -2.816361E+06 -1.075644E+06 -9.501311E+05  7.475854E+05  1.229484E+05 -1.888638E+05
       161  10  8.441650E+06  1.833809E+06  1.844483E+06  7.643132E+05 -8.260892E-09  4.112020E-09
       161  11  7.111994E+06  1.361295E+06  1.364744E+06  4.067987E+05  5.415646E-09  1.222982E-09
       161  12  5.869445E+06  1.056639E+06  1.040448E+06  7.126740E+05  1.050871E-08  2.485970E-09
       161  13  1.513949E+06  1.196867E+05  1.588494E+05  7.306267E+05 -3.821388E-09 -3.705900E-09
       161  14  1.484157E+06 -1.759489E+04  6.969821E+04  3.985590E+05  1.333922E-09  8.652158E-10
       161  15  1.517821E+06 -8.868847E+03  4.573036E+04  7.302071E+05 -2.994711E-09  1.775268E-09
       161  16 -5.370403E+06 -1.597945E+06 -1.530258E+06  6.973308E+05  3.827692E-09 -4.421399E-09
       161  17 -4.114634E+06 -1.398689E+06 -1.227444E+06  3.903981E+05 -7.129651E-10 -6.548034E-10
       161  18 -2.816387E+06 -1.075686E+06 -9.502269E+05  7.476042E+05 -1.223789E-08  1.943532E-09
       161  19  8.441736E+06  1.833836E+06  1.844641E+06  7.642957E+05 -2.809123E+05  7.787719E+04
       161  20  7.112021E+06  1.361352E+06  1.364861E+06  4.067788E+05 -1.109288E+05  2.237528E+05
       161  21  5.869459E+06  1.056679E+06  1.040522E+06  7.126828E+05  5.807345E+04  1.888324E+05
       161  22  1.513963E+06  1.196962E+05  1.588826E+05  7.306200E+05 -1.079343E+05  7.728280E+04
       161  23  1.484176E+06 -1.753973E+04  6.980166E+04  3.985464E+05 -7.003026E+04  2.238207E+05
       161  24  1.517832E+06 -8.830225E+03  4.579947E+04  7.302021E+05 -3.275109E+04  1.888507E+05
       161  25 -5.370397E+06 -1.597938E+06 -1.530239E+06  6.973347E+05  6.314363E+04  7.666752E+04
       161  26 -4.114620E+06 -1.398635E+06 -1.227348E+06  3.903927E+05 -2.949405E+04  2.238881E+05
       161  27 -2.816361E+06 -1.075644E+06 -9.501311E+05  7.475854E+05 -1.229484E+05  1.888638E+05
       162   1  4.635780E+06  7.756934E+05  7.551261E+05  7.362234E+05 -8.884915E+03 -1.310503E+05
       162   2  3.364276E+06  4.561107E+05  4.492445E+05  4.020356E+05 -2.650701E+04 -7.910981E+04
       162   3  2.099766E+06  1.497496E+05  1.578372E+05  7.303086E+05 -4.427254E+04 -1.874901E+04
       162   4  1.506936E+06  8.534452E+03  3.713024E+04  7.300439E+05  2.560726E+04 -1.310358E+05
       162   5  1.505327E+06  7.293042E+01  2.286223E+04  3.987599E+05  1.409676E+04 -7.903468E+04
       162   6  1.508193E+06  3.904671E+03  1.896321E+04  7.300555E+05  2.407480E+03 -1.859628E+04
       162   7 -1.612898E+06 -7.593040E+05 -6.815061E+05  7.238869E+05  5.992776E+04 -1.310219E+05
       162   8 -3.504347E+05 -4.562040E+05 -4.037413E+05  3.954913E+05  5.458042E+04 -7.895985E+04
       162   9  9.169452E+05 -1.419639E+05 -1.199266E+05  7.298022E+05  4.904341E+04 -1.844348E+04
       162  10  4.635775E+06  7.756749E+05  7.550936E+05  7.362224E+05 -1.690315E-09 -9.972886E-10
       162  11  3.364274E+06  4.561038E+05  4.492314E+05  4.020339E+05  3.400331E-09 -1.979792E-10
       162  12  2.099764E+06  1.497487E+05  1.578329E+05  7.303079E+05  8.479371E-09  1.004328E-09
       162  13  1.506931E+06  8.515820E+03  3.709670E+04  7.300466E+05  2.661357E-09  1.209456E-09
       162  14  1.505325E+06  6.616388E+01  2.285011E+04  3.987608E+05  3.718766E-09  1.135320E-09
       162  15  1.508193E+06  3.904297E+03  1.896255E+04  7.300555E+05  4.143633E-09 -1.723762E-09
       162  16 -1.612906E+06 -7.593234E+05 -6.815452E+05  7.238932E+05  5.139901E-09  3.479703E-10
       162  17 -3.504396E+05 -4.562115E+05 -4.037586E+05  3.954948E+05  3.843628E-09 -4.774212E-10
       162  18  9.169425E+05 -1.419649E+05 -1.199317E+05  7.298029E+05 -2.561207E-09  5.124661E-10
       162  19  4.635780E+06  7.756934E+05  7.551261E+05  7.362234E+05  8.884915E+03  1.310503E+05
       162  20  3.364276E+06  4.561107E+05  4.492445E+05  4.020356E+05  2.650701E+04  7.910981E+04
       162  21  2.099766E+06  1.497496E+05  1.578372E+05  7.303086E+05  4.427254E+04  1.874901E+04
       162  22  1.506936E+06  8.534452E+03  3.713024E+04  7.300439E+05 -2.560726E+04  1.310358E+05
       162  23  1.505327E+06  7.293042E+01  2.286223E+04  3.987599E+05 -1.409676E+04  7.903468E+04
       162  24  1.508193E+06  3.904671E+03  1.896321E+04  7.300555E+05 -2.407480E+03  1.859628E+04
       162  25 -1.612898E+06 -7.593040E+05 -6.815061E+05  7.238869E+05 -5.992776E+04  1.310219E+05
       162  26 -3.504347E+05 -4.562040E+05 -4.037413E+05  3.954913E+05 -5.458042E+04  7.895985E+04
       162  27  9.169452E+05 -1.419639E+05 -1.199266E+05  7.298022E+05 -4.904341E+04  1.844348E+04
       163   1  8.899608E+05 -1.484769E+05 -1.263109E+05  7.296164E+05 -4.780218E+04  1.960761E+04
       163   2 -3.773386E+05 -4.628074E+05 -4.111031E+05  3.955313E+05 -5.272564E+04  8.012316E+04
       163   3 -1.639916E+06 -7.668414E+05 -6.904368E+05  7.241924E+05 -5.745818E+04  1.321521E+05
       163   4  1.508139E+06  4.010349E+03  1.876169E+04  7.300635E+05 -1.155806E+03  1.976014E+04
       163   5  1.505369E+06  1.009095E+02  2.169818E+04  3.987497E+05 -1.225313E+04  8.019690E+04
       163   6  1.506867E+06  7.642098E+03  3.442498E+04  7.300540E+05 -2.316910E+04  1.321643E+05
       163   7  2.126673E+06  1.564716E+05  1.638163E+05  7.305106E+05  4.553668E+04  1.991264E+04
       163   8  3.391358E+06  4.627630E+05  4.542715E+05  4.019752E+05  2.834120E+04  8.027093E+04
       163   9  4.662816E+06  7.814342E+05  7.586350E+05  7.359368E+05  1.129296E+04  1.321771E+05
       163  10  8.899583E+05 -1.484780E+05 -1.263159E+05  7.296172E+05  2.129459E-09  3.645404E-10
       163  11 -3.773433E+05 -4.628151E+05 -4.111204E+05  3.955347E+05  5.731137E-11 -2.566725E-09
       163  12 -1.639925E+06 -7.668610E+05 -6.904759E+05  7.241985E+05 -1.015082E-09  1.579623E-09
       163  13  1.508139E+06  4.009929E+03  1.876095E+04  7.300635E+05 -5.967453E-10 -5.056124E-10
       163  14  1.505367E+06  9.395720E+01  2.168580E+04  3.987505E+05 -3.547078E-09  1.869961E-09
       163  15  1.506861E+06  7.623179E+03  3.439111E+04  7.300565E+05 -8.731955E-10  2.264909E-10
       163  16  2.126670E+06  1.564707E+05  1.638117E+05  7.305099E+05 -1.655292E-09  2.109318E-10
       163  17  3.391355E+06  4.627559E+05  4.542579E+05  4.019734E+05  2.855351E-09 -5.702066E-10
       163  18  4.662811E+06  7.814154E+05  7.586019E+05  7.359356E+05 -1.435782E-09  3.330397E-09
       163  19  8.899608E+05 -1.484769E+05 -1.263109E+05  7.296164E+05  4.780218E+04 -1.960761E+04
       163  20 -3.773386E+05 -4.628074E+05 -4.111031E+05  3.955313E+05  5.272564E+04 -8.012316E+04
       163  21 -1.639916E+06 -7.668414E+05 -6.904368E+05  7.241924E+05  5.745818E+04 -1.321521E+05
       163  22  1.508139E+06  4.010349E+03  1.876169E+04  7.300635E+05  1.155806E+03 -1.976014E+04
       163  23  1.505369E+06  1.009095E+02  2.169818E+04  3.987497E+05  1.225313E+04 -8.019690E+04
       163  24  1.506867E+06  7.642098E+03  3.442498E+04  7.300540E+05  2.316910E+04 -1.321643E+05
       163  25  2.126673E+06  1.564716E+05  1.638163E+05  7.305106E+05 -4.553668E+04 -1.991264E+04
       163  26  3.391358E+06  4.627630E+05  4.542715E+05  4.019752E+05 -2.834120E+04 -8.027093E+04
       163  27  4.662816E+06  7.814342E+05  7.586350E+05  7.359368E+05 -1.129296E+04 -1.321771E+05
       164   1 -2.844132E+06 -1.081795E+06 -9.598126E+05  7.460614E+05 -1.201868E+05  1.900776E+05
       164   2 -4.140911E+06 -1.404699E+06 -1.239591E+06  3.920669E+05 -2.308791E+04  2.249901E+05
       164   3 -5.398481E+06 -1.615843E+06 -1.550373E+06  7.020973E+05  7.317631E+04  7.697160E+04
       164   4  1.517098E+06 -8.306393E+03  4.233903E+04  7.301866E+05 -2.981053E+04  1.900601E+05
       164   5  1.484994E+06 -1.689089E+04  6.385319E+04  3.985692E+05 -6.390559E+04  2.249238E+05
       164   6  1.513217E+06  1.086902E+05  1.454816E+05  7.305765E+05 -9.863903E+04  7.759913E+04
       164   7  5.895981E+06  1.063861E+06  1.043267E+06  7.141858E+05  6.119808E+04  1.900380E+05
       164   8  7.140231E+06  1.368692E+06  1.365186E+06  4.051360E+05 -1.050901E+05  2.248573E+05
       164   9  8.468674E+06  1.829701E+06  1.837947E+06  7.593944E+05 -2.723708E+05  7.820829E+04
       164  10 -2.844157E+06 -1.081838E+06 -9.599079E+05  7.460798E+05  2.127758E-09  1.826762E-09
       164  11 -4.140925E+06 -1.404753E+06 -1.239687E+06  3.920711E+05  3.413949E-09  3.576095E-09
       164  12 -5.398489E+06 -1.615851E+06 -1.550395E+06  7.020927E+05  2.959433E-09  4.924224E-09
       164  13  1.517088E+06 -8.345458E+03  4.226940E+04  7.301912E+05  2.141023E-09  2.638512E-09
       164  14  1.484976E+06 -1.694636E+04  6.375035E+04  3.985808E+05  2.684707E-09  2.551013E-09
       164  15  1.513205E+06  1.086811E+05  1.454520E+05  7.305827E+05 -2.822933E-09 -5.142313E-09
       164  16  5.895967E+06  1.063821E+06  1.043192E+06  7.141765E+05  2.089335E-10  3.505993E-09
       164  17  7.140206E+06  1.368635E+06  1.365070E+06  4.051550E+05 -6.565759E-09  1.300063E-09
       164  18  8.468593E+06  1.829674E+06  1.837797E+06  7.594115E+05 -8.324767E-12 -2.815788E-09
       164  19 -2.844132E+06 -1.081795E+06 -9.598126E+05  7.460614E+05  1.201868E+05 -1.900776E+05
       164  20 -4.140911E+06 -1.404699E+06 -1.239591E+06  3.920669E+05  2.308791E+04 -2.249901E+05
       164  21 -5.398481E+06 -1.615843E+06 -1.550373E+06  7.020973E+05 -7.317631E+04 -7.697160E+04
       164  22  1.517098E+06 -8.306393E+03  4.233903E+04  7.301866E+05  2.981053E+04 -1.900601E+05
       164  23  1.484994E+06 -1.689089E+04  6.385319E+04  3.985692E+05  6.390559E+04 -2.249238E+05
       164  24  1.513217E+06  1.086902E+05  1.454816E+05  7.305765E+05  9.863903E+04 -7.759913E+04
       164  25  5.895981E+06  1.063861E+06  1.043267E+06  7.141858E+05 -6.119808E+04 -1.900380E+05
       164  26  7.140231E+06  1.368692E+06  1.365186E+06  4.051360E+05  1.050901E+05 -2.248573E+05
       164  27  8.468674E+06  1.829701E+06  1.837947E+06  7.593944E+05  2.723708E+05 -7.820829E+04
       165   1 -1.394853E+06 -5.099268E+06 -1.407687E+06  7.918864E+05 -5.669630E+04 -2.063415E+05
       165   2 -9.393495E+05 -3.718250E+06 -9.504541E+05  4.147421E+05 -1.532042E+05 -7.351176E+04
       165   3 -5.963165E+05 -2.387157E+06 -6.093410E+05  7.442743E+05 -1.071880E+05  5.844442E+04
       165   4 -9.288061E+04  1.152860E+05 -1.259863E+05  7.807399E+05 -5.570588E+04 -8.590594E+04
       165   5  1.134663E+04  1.334280E+05 -5.691032E+04  4.270430E+05 -1.529643E+05 -5.474498E+04
       165   6  2.141547E+04  1.180441E+05 -3.259383E+04  7.798115E+05 -1.080805E+05 -2.475182E+04
       165   7  1.207078E+06  5.354752E+06  1.153769E+06  7.694355E+05 -5.472455E+04  3.554817E+04
       165   8  9.609972E+05  3.998861E+06  8.356391E+05  4.393852E+05 -1.527245E+05 -3.586124E+04
       165   9  6.387147E+05  2.629082E+06  5.437636E+05  8.154743E+05 -1.089806E+05 -1.082819E+05
       165  10 -1.394868E+06 -5.099315E+06 -1.407774E+06  7.918770E+05 -1.220844E-11 -5.498867E-09
       165  11 -9.393761E+05 -3.718262E+06 -9.505084E+05  4.147331E+05  3.797966E-09  1.932111E-08
       165  12 -5.963298E+05 -2.387164E+06 -6.093690E+05  7.442793E+05  2.536440E-09  3.923147E-09
       165  13 -9.288591E+04  1.152773E+05 -1.260060E+05  7.807360E+05 -1.192898E-08  7.084912E-09
       165  14  1.132071E+04  1.334185E+05 -5.695989E+04  4.270362E+05 -6.795509E-09  9.253676E-09
       165  15  2.140277E+04  1.180403E+05 -3.261692E+04  7.798093E+05 -6.220448E-09  2.767050E-08
       165  16  1.207075E+06  5.354750E+06  1.153761E+06  7.694370E+05 -2.032148E-09  5.640381E-09
       165  17  9.609719E+05  3.998853E+06  8.355929E+05  4.393808E+05 -1.911523E-08 -1.607469E-08
       165  18  6.386989E+05  2.629066E+06  5.437194E+05  8.154649E+05 -1.684427E-09 -1.636491E-08
       165  19 -1.394853E+06 -5.099268E+06 -1.407687E+06  7.918864E+05  5.669630E+04  2.063415E+05
       165  20 -9.393495E+05 -3.718250E+06 -9.504541E+05  4.147421E+05  1.532042E+05  7.351176E+04
       165  21 -5.963165E+05 -2.387157E+06 -6.093410E+05  7.442743E+05  1.071880E+05 -5.844442E+04
       165  22 -9.288061E+04  1.152860E+05 -1.259863E+05  7.807399E+05  5.570588E+04  8.590594E+04
       165  23  1.134663E+04  1.334280E+05 -5.691032E+04  4.270430E+05  1.529643E+05  5.474498E+04
       165  24  2.141547E+04  1.180441E+05 -3.259383E+04  7.798115E+05  1.080805E+05  2.475182E+04
       165  25  1.207078E+06  5.354752E+06  1.153769E+06  7.694355E+05  5.472455E+04 -3.554817E+04
       165  26  9.609972E+05  3.998861E+06  8.356391E+05  4.393852E+05  1.527245E+05  3.586124E+04
       165  27  6.387147E+05  2.629082E+06  5.437636E+05  8.154743E+05  1.089806E+05  1.082819E+05
       166   1 -2.883131E+05 -1.083146E+06 -3.039459E+05  7.739099E+05 -5.102654E+04  2.088661E+04
       166   2  4.698802E+04  2.817366E+05  2.165121E+04  4.276394E+05  6.737360E+03  2.659407E+04
       166   3  3.874077E+05  1.630886E+06  3.405172E+05  7.917135E+05  6.413383E+04  3.233307E+04
       166   4  8.594769E+03  1.227970E+05 -2.630153E+04  7.809861E+05 -5.150153E+04 -2.077132E+04
       166   5  1.000172E+04  1.314772E+05 -1.289396E+04  4.257695E+05  6.272901E+03 -1.482388E+04
       166   6  1.661332E+04  1.226893E+05 -6.271705E+03  7.808943E+05  6.367353E+04 -8.858134E+03
       166   7  3.054019E+05  1.330091E+06  2.512530E+05  7.880715E+05 -5.197695E+04 -6.250961E+04
       166   8 -2.698524E+04 -1.875765E+04 -4.743418E+04  4.239000E+05  5.808632E+03 -5.623189E+04
       166   9 -3.543387E+05 -1.383402E+06 -3.532047E+05  7.700944E+05  6.321405E+04 -4.995024E+04
       166  10 -2.883160E+05 -1.083147E+06 -3.039516E+05  7.739107E+05  2.379705E-09 -1.272581E-08
       166  11  4.698779E+04  2.817358E+05  2.164979E+04  4.276393E+05 -3.942628E-10  1.470509E-08
       166  12  3.874030E+05  1.630884E+06  3.405075E+05  7.917119E+05  4.220841E-09 -2.630820E-09
       166  13  8.591806E+03  1.227959E+05 -2.630731E+04  7.809852E+05 -2.097298E-09  1.079277E-08
       166  14  1.000161E+04  1.314769E+05 -1.289445E+04  4.257696E+05  7.740394E-09  1.131584E-08
       166  15  1.660894E+04  1.226881E+05 -6.279475E+03  7.808948E+05  7.272174E-09  2.869669E-08
       166  16  3.053979E+05  1.330086E+06  2.512406E+05  7.880689E+05  8.043444E-09  1.222570E-08
       166  17 -2.698613E+04 -1.876105E+04 -4.744019E+04  4.239002E+05  3.422099E-09 -8.956699E-09
       166  18 -3.543437E+05 -1.383406E+06 -3.532170E+05  7.700969E+05  3.590622E-09 -1.007924E-08
       166  19 -2.883131E+05 -1.083146E+06 -3.039459E+05  7.739099E+05  5.102654E+04 -2.088661E+04
       166  20  4.698802E+04  2.817366E+05  2.165121E+04  4.276394E+05 -6.737360E+03 -2.659407E+04
       166  21  3.874077E+05  1.630886E+06  3.405172E+05  7.917135E+05 -6.413383E+04 -3.233307E+04
       166  22  8.594769E+03  1.227970E+05 -2.630153E+04  7.809861E+05  5.150153E+04  2.077132E+04
       166  23  1.000172E+04  1.314772E+05 -1.289396E+04  4.257695E+05 -6.272901E+03  1.482388E+04
       166  24  1.661332E+04  1.226893E+05 -6.271705E+03  7.808943E+05 -6.367353E+04  8.858134E+03
       166  25  3.054019E+05  1.330091E+06  2.512530E+05  7.880715E+05  5.197695E+04  6.250961E+04
       166  26 -2.698524E+04 -1.875765E+04 -4.743418E+04  4.239000E+05 -5.808632E+03  5.623189E+04
       166  27 -3.543387E+05 -1.383402E+06 -3.532047E+05  7.700944E+05 -6.321405E+04  4.995024E+04
       167   1  7.053068E+05  2.938167E+06  6.418088E+05  8.017818E+05  1.219149E+05  7.647960E+04
       167   2  1.026999E+06  4.290121E+06  9.606759E+05  4.543943E+05  1.643120E+05 -3.123824E+04
       167   3  1.388513E+06  5.663512E+06  1.358009E+06  8.124598E+05  5.779253E+04 -1.380309E+05
       167   4  1.449998E+04  1.254512E+05 -3.382196E+03  7.799123E+05  1.210227E+05 -8.827068E+03
       167   5  3.208547E+03  1.233832E+05 -1.158748E+03  4.270431E+05  1.645876E+05 -8.720907E+03
       167   6  1.327075E+04  1.224771E+05  5.045378E+03  7.799107E+05  5.879270E+04 -7.450500E+03
       167   7 -6.768530E+05 -2.679946E+06 -6.490672E+05  7.581184E+05  1.201343E+05 -9.375171E+04
       167   8 -1.021795E+06 -4.027375E+06 -9.641481E+05  3.998358E+05  1.648623E+05  1.364735E+04
       167   9 -1.364223E+06 -5.390701E+06 -1.350093E+06  7.475834E+05  5.978438E+04  1.219752E+05
       167  10  7.052893E+05  2.938157E+06  6.417699E+05  8.017743E+05  2.484294E-09 -3.091989E-10
       167  11  1.026969E+06  4.290112E+06  9.606233E+05  4.543984E+05 -2.848620E-09  1.211365E-08
       167  12  1.388504E+06  5.663490E+06  1.357968E+06  8.124662E+05  1.003604E-09 -8.182443E-09
       167  13  1.448422E+04  1.254472E+05 -3.409873E+03  7.799131E+05  4.829367E-10  1.021474E-08
       167  14  3.179435E+03  1.233759E+05 -1.209804E+03  4.270443E+05 -2.408547E-09  8.706389E-09
       167  15  1.326702E+04  1.224761E+05  5.038776E+03  7.799111E+05 -3.049273E-09  1.732485E-08
       167  16 -6.768709E+05 -2.679960E+06 -6.491110E+05  7.581275E+05  1.061201E-09 -4.264946E-10
       167  17 -1.021824E+06 -4.027383E+06 -9.641995E+05  3.998340E+05 -5.610691E-09 -7.822688E-09
       167  18 -1.364231E+06 -5.390718E+06 -1.350128E+06  7.475775E+05 -1.906374E-09  2.769945E-10
       167  19  7.053068E+05  2.938167E+06  6.418088E+05  8.017818E+05 -1.219149E+05 -7.647960E+04
       167  20  1.026999E+06  4.290121E+06  9.606759E+05  4.543943E+05 -1.643120E+05  3.123824E+04
       167  21  1.388513E+06  5.663512E+06  1.358009E+06  8.124598E+05 -5.779253E+04  1.380309E+05
       167  22  1.449998E+04  1.254512E+05 -3.382196E+03  7.799123E+05 -1.210227E+05  8.827068E+03
       167  23  3.208547E+03  1.233832E+05 -1.158748E+03  4.270431E+05 -1.645876E+05  8.720907E+03
       167  24  1.327075E+04  1.224771E+05  5.045378E+03  7.799107E+05 -5.879270E+04  7.450500E+03
       167  25 -6.768530E+05 -2.679946E+06 -6.490672E+05  7.581184E+05 -1.201343E+05  9.375171E+04
       167  26 -1.021795E+06 -4.027375E+06 -9.641481E+05  3.998358E+05 -1.648623E+05 -1.364735E+04
       167  27 -1.364223E+06 -5.390701E+06 -1.350093E+06  7.475834E+05 -5.978438E+04 -1.219752E+05
       168   1  8.841275E+06  1.882773E+06  1.909819E+06  7.573780E+05  3.390024E+05 -7.755848E+04
       168   2  7.561101E+06  1.351086E+06  1.397895E+06  3.956490E+05  1.503520E+05 -2.231004E+05
       168   3  6.388610E+06  1.061763E+06  1.071968E+06  6.663604E+05 -3.727332E+04 -1.906918E+05
       168   4  1.993206E+06  1.895606E+05  2.445209E+05  6.952950E+05  1.667583E+05 -7.696490E+04
       168   5  1.952769E+06 -2.226838E+04  1.080813E+05  3.786196E+05  1.083720E+05 -2.231632E+05
       168   6  1.996978E+06 -1.291865E+04  6.879086E+04  6.946366E+05  5.062755E+04 -1.907269E+05
       168   7 -4.812462E+06 -1.507050E+06 -1.424055E+06  6.339103E+05 -3.619234E+03 -7.633496E+04
       168   8 -3.626737E+06 -1.397807E+06 -1.183805E+06  3.617493E+05  6.676119E+04 -2.232245E+05
       168   9 -2.376913E+06 -1.088925E+06 -9.356175E+05  7.227005E+05  1.379159E+05 -1.907540E+05
       168  10  8.841151E+06  1.882737E+06  1.909595E+06  7.573991E+05  3.028604E-09  2.919462E-09
       168  11  7.561064E+06  1.351027E+06  1.397759E+06  3.956759E+05  8.695858E-10 -4.941975E-09
       168  12  6.388598E+06  1.061723E+06  1.071897E+06  6.663547E+05 -5.252255E-09 -9.543904E-10
       168  13  1.993175E+06  1.895468E+05  2.444576E+05  6.953053E+05  1.337783E-09 -1.099310E-08
       168  14  1.952743E+06 -2.232507E+04  1.079655E+05  3.786391E+05 -2.114556E-09 -7.388819E-09
       168  15  1.996965E+06 -1.295845E+04  6.871759E+04  6.946444E+05  4.298913E-09  2.153253E-10
       168  16 -4.812464E+06 -1.507056E+06 -1.424066E+06  6.339101E+05 -4.752345E-09 -7.756181E-09
       168  17 -3.626756E+06 -1.397862E+06 -1.183908E+06  3.617614E+05  2.949346E-09 -1.085530E-09
       168  18 -2.376943E+06 -1.088970E+06 -9.357220E+05  7.227218E+05  2.858283E-09  9.896349E-11
       168  19  8.841275E+06  1.882773E+06  1.909819E+06  7.573780E+05 -3.390024E+05  7.755848E+04
       168  20  7.561101E+06  1.351086E+06  1.397895E+06  3.956490E+05 -1.503520E+05  2.231004E+05
       168  21  6.388610E+06  1.061763E+06  1.071968E+06  6.663604E+05  3.727332E+04  1.906918E+05
       168  22  1.993206E+06  1.895606E+05  2.445209E+05  6.952950E+05 -1.667583E+05  7.696490E+04
       168  23  1.952769E+06 -2.226838E+04  1.080813E+05  3.786196E+05 -1.083720E+05  2.231632E+05
       168  24  1.996978E+06 -1.291865E+04  6.879086E+04  6.946366E+05 -5.062755E+04  1.907269E+05
       168  25 -4.812462E+06 -1.507050E+06 -1.424055E+06  6.339103E+05  3.619234E+03  7.633496E+04
       168  26 -3.626737E+06 -1.397807E+06 -1.183805E+06  3.617493E+05 -6.676119E+04  2.232245E+05
       168  27 -2.376913E+06 -1.088925E+06 -9.356175E+05  7.227005E+05 -1.379159E+05  1.907540E+05
       169   1  5.211064E+06  8.047521E+05  7.962527E+05  7.017463E+05  7.751416E+03 -1.350413E+05
       169   2  4.002411E+06  4.954594E+05  4.962256E+05  3.834215E+05 -1.465514E+04 -8.610597E+04
       169   3  2.803126E+06  2.052160E+05  2.153403E+05  6.937815E+05 -3.720289E+04 -2.889622E+04
       169   4  1.981838E+06  1.343214E+04  5.561446E+04  6.939269E+05  4.010287E+04 -1.350376E+05
       169   5  1.978984E+06 -6.119119E+02  3.245000E+04  3.795344E+05  2.373674E+04 -8.604072E+04
       169   6  1.983141E+06  3.479460E+03  2.438593E+04  6.939473E+05  7.186752E+03 -2.875227E+04
       169   7 -1.237800E+06 -7.786108E+05 -6.857061E+05  6.861396E+05  7.228810E+04 -1.350348E+05
       169   8 -4.066956E+04 -4.969664E+05 -4.315892E+05  3.756569E+05  6.200506E+04 -8.597582E+04
       169   9  1.163779E+06 -1.983034E+05 -1.666065E+05  6.941121E+05  5.151838E+04 -2.860817E+04
       169  10  5.211059E+06  8.047325E+05  7.962183E+05  7.017471E+05 -1.420825E-09  2.537208E-09
       169  11  4.002408E+06  4.954513E+05  4.962113E+05  3.834205E+05 -5.069636E-09 -3.297931E-09
       169  12  2.803124E+06  2.052147E+05  2.153362E+05  6.937807E+05  4.061044E-09 -8.999646E-10
       169  13  1.981832E+06  1.341210E+04  5.557712E+04  6.939313E+05  2.155922E-09  1.678647E-09
       169  14  1.978982E+06 -6.200212E+02  3.243502E+04  3.795361E+05 -2.108760E-09 -5.023641E-10
       169  15  1.983141E+06  3.478557E+03  2.438428E+04  6.939475E+05  5.506458E-10 -2.979481E-09
       169  16 -1.237810E+06 -7.786318E+05 -6.857503E+05  6.861474E+05  4.121184E-09  4.847673E-10
       169  17 -4.067568E+04 -4.969754E+05 -4.316103E+05  3.756612E+05  2.373206E-09  2.936701E-10
       169  18  1.163776E+06 -1.983049E+05 -1.666130E+05  6.941133E+05 -5.369716E-09 -1.981963E-10
       169  19  5.211064E+06  8.047521E+05  7.962527E+05  7.017463E+05 -7.751416E+03  1.350413E+05
       169  20  4.002411E+06  4.954594E+05  4.962256E+05  3.834215E+05  1.465514E+04  8.610597E+04
       169  21  2.803126E+06  2.052160E+05  2.153403E+05  6.937815E+05  3.720289E+04  2.889622E+04
       169  22  1.981838E+06  1.343214E+04  5.561446E+04  6.939269E+05 -4.010287E+04  1.350376E+05
       169  23  1.978984E+06 -6.119119E+02  3.245000E+04  3.795344E+05 -2.373674E+04  8.604072E+04
       169  24  1.983141E+06  3.479460E+03  2.438593E+04  6.939473E+05 -7.186752E+03  2.875227E+04
       169  25 -1.237800E+06 -7.786108E+05 -6.857061E+05  6.861396E+05 -7.228810E+04  1.350348E+05
       169  26 -4.066956E+04 -4.969664E+05 -4.315892E+05  3.756569E+05 -6.200506E+04  8.597582E+04
       169  27  1.163779E+06 -1.983034E+05 -1.666065E+05  6.941121E+05 -5.151838E+04  2.860817E+04
       170   1  1.655264E+06 -7.665974E+04 -5.535293E+04  6.940441E+05 -4.134337E+04  7.458495E+03
       170   2  4.533320E+05 -3.747447E+05 -3.272042E+05  3.766206E+05 -4.776300E+04  6.483076E+04
       170   3 -7.447782E+05 -6.620676E+05 -5.927069E+05  6.875200E+05 -5.402809E+04  1.144936E+05
       170   4  1.982490E+06  4.265395E+03  2.272396E+04  6.938150E+05  2.810675E+03  7.606847E+03
       170   5  1.980272E+06  4.208619E+02  2.358941E+04  3.796984E+05 -9.218749E+03  6.491493E+04
       170   6  1.981512E+06  8.395061E+03  3.474840E+04  6.938044E+05 -2.110566E+04  1.145272E+05
       170   7  2.309817E+06  8.518385E+04  1.008007E+05  6.935856E+05  4.698783E+04  7.755116E+03
       170   8  3.509368E+06  3.754249E+05  3.742348E+05  3.827819E+05  2.941948E+04  6.499937E+04
       170   9  4.714675E+06  6.783398E+05  6.617161E+05  7.001095E+05  1.196045E+04  1.145614E+05
       170  10  1.655262E+06 -7.666025E+04 -5.535624E+04  6.940443E+05  5.344049E-10 -1.874151E-09
       170  11  4.533284E+05 -3.747498E+05 -3.272164E+05  3.766231E+05 -3.973067E-09 -3.538187E-09
       170  12 -7.447849E+05 -6.620824E+05 -5.927371E+05  6.875250E+05  5.460883E-10 -1.944994E-09
       170  13  1.982490E+06  4.265330E+03  2.272384E+04  6.938149E+05 -4.587996E-11 -2.885647E-09
       170  14  1.980270E+06  4.163094E+02  2.358132E+04  3.796989E+05  3.925967E-09 -2.664711E-09
       170  15  1.981508E+06  8.380840E+03  3.472288E+04  6.938063E+05  9.112379E-09 -9.857172E-10
       170  16  2.309815E+06  8.518320E+04  1.007964E+05  6.935853E+05 -1.898671E-09 -2.482247E-09
       170  17  3.509365E+06  3.754201E+05  3.742253E+05  3.827804E+05  6.418801E-09  3.914658E-09
       170  18  4.714672E+06  6.783256E+05  6.616911E+05  7.001084E+05 -4.830484E-10  6.895584E-10
       170  19  1.655264E+06 -7.665974E+04 -5.535293E+04  6.940441E+05  4.134337E+04 -7.458495E+03
       170  20  4.533320E+05 -3.747447E+05 -3.272042E+05  3.766206E+05  4.776300E+04 -6.483076E+04
       170  21 -7.447782E+05 -6.620676E+05 -5.927069E+05  6.875200E+05  5.402809E+04 -1.144936E+05
       170  22  1.982490E+06  4.265395E+03  2.272396E+04  6.938150E+05 -2.810675E+03 -7.606847E+03
       170  23  1.980272E+06  4.208619E+02  2.358941E+04  3.796984E+05  9.218749E+03 -6.491493E+04
       170  24  1.981512E+06  8.395061E+03  3.474840E+04  6.938044E+05  2.110566E+04 -1.145272E+05
       170  25  2.309817E+06  8.518385E+04  1.008007E+05  6.935856E+05 -4.698783E+04 -7.755116E+03
       170  26  3.509368E+06  3.754249E+05  3.742348E+05  3.827819E+05 -2.941948E+04 -6.499937E+04
       170  27  4.714675E+06  6.783398E+05  6.617161E+05  7.001095E+05 -1.196045E+04 -1.145614E+05
       171   1 -1.887845E+06 -9.608449E+05 -8.487548E+05  7.083031E+05 -1.120375E+05  1.686764E+05
       171   2 -3.119820E+06 -1.267248E+06 -1.113920E+06  3.693140E+05 -2.540441E+04  2.028326E+05
       171   3 -4.316763E+06 -1.464734E+06 -1.404879E+06  6.615552E+05  6.063133E+04  6.980778E+04
       171   4  1.990970E+06 -6.887598E+03  4.189313E+04  6.943354E+05 -2.774322E+04  1.687139E+05
       171   5  1.962128E+06 -1.467662E+04  6.258570E+04  3.790339E+05 -6.116460E+04  2.027574E+05
       171   6  1.987608E+06  1.069417E+05  1.407842E+05  6.946114E+05 -9.501605E+04  7.023301E+04
       171   7  5.883732E+06  9.460267E+05  9.315768E+05  6.802679E+05  5.707485E+04  1.687474E+05
       171   8  7.067977E+06  1.236082E+06  1.237371E+06  3.888342E+05 -9.721474E+04  2.026816E+05
       171   9  8.328334E+06  1.675692E+06  1.683630E+06  7.280139E+05 -2.522448E+05  7.064020E+04
       171  10 -1.887866E+06 -9.608789E+05 -8.488321E+05  7.083183E+05 -3.259828E-09  1.122381E-09
       171  11 -3.119832E+06 -1.267292E+06 -1.113998E+06  3.693182E+05 -8.003987E-10  6.777645E-09
       171  12 -4.316769E+06 -1.464740E+06 -1.404895E+06  6.615517E+05  1.842797E-10  3.047799E-09
       171  13  1.990961E+06 -6.918405E+03  4.183812E+04  6.943392E+05  4.332609E-11 -2.185186E-09
       171  14  1.962113E+06 -1.472182E+04  6.250133E+04  3.790439E+05  9.162149E-09 -1.831344E-09
       171  15  1.987597E+06  1.069340E+05  1.407580E+05  6.946168E+05 -1.560871E-09 -1.485415E-10
       171  16  5.883721E+06  9.459953E+05  9.315172E+05  6.802602E+05  7.657108E-09 -7.013757E-10
       171  17  7.067956E+06  1.236036E+06  1.237276E+06  3.888500E+05  1.279950E-08 -2.868985E-09
       171  18  8.328265E+06  1.675670E+06  1.683502E+06  7.280282E+05 -3.593273E-09  2.633702E-09
       171  19 -1.887845E+06 -9.608449E+05 -8.487548E+05  7.083031E+05  1.120375E+05 -1.686764E+05
       171  20 -3.119820E+06 -1.267248E+06 -1.113920E+06  3.693140E+05  2.540441E+04 -2.028326E+05
       171  21 -4.316763E+06 -1.464734E+06 -1.404879E+06  6.615552E+05 -6.063133E+04 -6.980778E+04
       171  22  1.990970E+06 -6.887598E+03  4.189313E+04  6.943354E+05  2.774322E+04 -1.687139E+05
       171  23  1.962128E+06 -1.467662E+04  6.258570E+04  3.790339E+05  6.116460E+04 -2.027574E+05
       171  24  1.987608E+06  1.069417E+05  1.407842E+05  6.946114E+05  9.501605E+04 -7.023301E+04
       171  25  5.883732E+06  9.460267E+05  9.315768E+05  6.802679E+05 -5.707485E+04 -1.687474E+05
       171  26  7.067977E+06  1.236082E+06  1.237371E+06  3.888342E+05  9.721474E+04 -2.026816E+05
       171  27  8.328334E+06  1.675692E+06  1.683630E+06  7.280139E+05  2.522448E+05 -7.064020E+04
       172   1 -1.266752E+06 -4.634915E+06 -1.295846E+06  7.449769E+05 -4.845624E+04 -2.365629E+05
       172   2 -7.823230E+05 -3.373107E+06 -8.390493E+05  3.845697E+05 -1.286047E+05 -1.008067E+05
       172   3 -4.742843E+05 -2.178592E+06 -5.164331E+05  6.644081E+05 -8.593612E+04  3.424426E+04
       172   4 -1.520687E+05 -1.679173E+05 -1.978620E+05  7.049624E+05 -4.762659E+04 -1.349798E+05
       172   5  1.535276E+04 -1.403647E+05 -8.903539E+04  3.842102E+05 -1.284315E+05 -8.678990E+04
       172   6  2.232424E+04 -1.657922E+05 -5.281809E+04  7.035834E+05 -8.668552E+04 -3.957971E+04
       172   7  9.611452E+05  4.317363E+06  8.986948E+05  6.646130E+05 -4.681350E+04 -3.266010E+04
       172   8  8.122923E+05  3.102066E+06  6.602778E+05  3.838249E+05 -1.282589E+05 -7.269942E+04
       172   9  5.186559E+05  1.850778E+06  4.105490E+05  7.428754E+05 -8.744292E+04 -1.136416E+05
       172  10 -1.266770E+06 -4.634976E+06 -1.295957E+06  7.449676E+05 -1.997236E-09 -1.047217E-09
       172  11 -7.823435E+05 -3.373123E+06 -8.390996E+05  3.845592E+05  5.498461E-09 -1.554927E-08
       172  12 -4.742926E+05 -2.178595E+06 -5.164492E+05  6.644105E+05  7.042585E-10 -3.559022E-09
       172  13 -1.520761E+05 -1.679374E+05 -1.979004E+05  7.049573E+05 -8.518574E-09  7.076040E-09
       172  14  1.533304E+04 -1.403772E+05 -8.908051E+04  3.842012E+05 -5.414045E-10 -8.890798E-09
       172  15  2.231575E+04 -1.657959E+05 -5.283513E+04  7.035806E+05 -6.694029E-09  1.122183E-08
       172  16  9.611425E+05  4.317361E+06  8.986887E+05  6.646118E+05  1.175030E-10 -2.427202E-09
       172  17  8.122732E+05  3.102056E+06  6.602370E+05  3.838174E+05 -9.492542E-09  1.005695E-08
       172  18  5.186443E+05  1.850762E+06  4.105105E+05  7.428674E+05 -3.165237E-09  8.804019E-09
       172  19 -1.266752E+06 -4.634915E+06 -1.295846E+06  7.449769E+05  4.845624E+04  2.365629E+05
       172  20 -7.823230E+05 -3.373107E+06 -8.390493E+05  3.845697E+05  1.286047E+05  1.008067E+05
       172  21 -4.742843E+05 -2.178592E+06 -5.164331E+05  6.644081E+05  8.593612E+04 -3.424426E+04
       172  22 -1.520687E+05 -1.679173E+05 -1.978620E+05  7.049624E+05  4.762659E+04  1.349798E+05
       172  23  1.535276E+04 -1.403647E+05 -8.903539E+04  3.842102E+05  1.284315E+05  8.678990E+04
       172  24  2.232424E+04 -1.657922E+05 -5.281809E+04  7.035834E+05  8.668552E+04  3.957971E+04
       172  25  9.611452E+05  4.317363E+06  8.986948E+05  6.646130E+05  4.681350E+04  3.266010E+04
       172  26  8.122923E+05  3.102066E+06  6.602778E+05  3.838249E+05  1.282589E+05  7.269942E+04
       172  27  5.186559E+05  1.850778E+06  4.105490E+05  7.428754E+05  8.744292E+04  1.136416E+05
       173   1 -2.036964E+05 -9.924694E+05 -2.350609E+05  7.028882E+05 -3.567631E+04  5.758693E+03
       173   2  1.056768E+05  2.448866E+05  6.773029E+04  3.868148E+05  1.703030E+04  1.608782E+04
       173   3  4.123532E+05  1.466616E+06  3.595242E+05  7.143974E+05  6.877617E+04  2.648126E+04
       173   4  1.922510E+03 -1.570057E+05 -4.280708E+04  7.048396E+05 -3.608495E+04 -3.244143E+04
       173   5  8.841506E+03 -1.485690E+05 -2.273389E+04  3.829427E+05  1.664233E+04 -2.143578E+04
       173   6  1.305140E+04 -1.572601E+05 -1.402722E+04  7.047199E+05  6.840341E+04 -1.038660E+04
       173   7  2.074934E+05  6.791077E+05  1.494060E+05  7.067916E+05 -3.649353E+04 -7.069259E+04
       173   8 -8.800377E+04 -5.418783E+05 -1.132030E+05  3.790726E+05  1.625470E+04 -5.893578E+04
       173   9 -3.864338E+05 -1.778697E+06 -3.877481E+05  6.950603E+05  6.803126E+04 -4.715893E+04
       173  10 -2.036978E+05 -9.924697E+05 -2.350634E+05  7.028884E+05 -2.899303E-09  1.962072E-09
       173  11  1.056764E+05  2.448863E+05  6.772926E+04  3.868146E+05 -1.127661E-08 -1.578414E-08
       173  12  4.123479E+05  1.466614E+06  3.595140E+05  7.143959E+05 -7.717894E-09 -5.487866E-09
       173  13  1.920831E+03 -1.570072E+05 -4.281150E+04  7.048387E+05 -3.155316E-09  1.040032E-08
       173  14  8.841085E+03 -1.485696E+05 -2.273527E+04  3.829430E+05  1.207972E-08 -1.074850E-08
       173  15  1.304634E+04 -1.572615E+05 -1.403622E+04  7.047205E+05 -2.548510E-09  1.129529E-08
       173  16  2.074907E+05  6.791020E+05  1.493942E+05  7.067895E+05  2.541420E-10 -7.114074E-09
       173  17 -8.800499E+04 -5.418821E+05 -1.132100E+05  3.790734E+05  8.774431E-09  1.026901E-08
       173  18 -3.864393E+05 -1.778700E+06 -3.877610E+05  6.950629E+05 -2.483181E-09  1.031826E-08
       173  19 -2.036964E+05 -9.924694E+05 -2.350609E+05  7.028882E+05  3.567631E+04 -5.758693E+03
       173  20  1.056768E+05  2.448866E+05  6.773029E+04  3.868148E+05 -1.703030E+04 -1.608782E+04
       173  21  4.123532E+05  1.466616E+06  3.595242E+05  7.143974E+05 -6.877617E+04 -2.648126E+04
       173  22  1.922510E+03 -1.570057E+05 -4.280708E+04  7.048396E+05  3.608495E+04  3.244143E+04
       173  23  8.841506E+03 -1.485690E+05 -2.273389E+04  3.829427E+05 -1.664233E+04  2.143578E+04
       173  24  1.305140E+04 -1.572601E+05 -1.402722E+04  7.047199E+05 -6.840341E+04  1.038660E+04
       173  25  2.074934E+05  6.791077E+05  1.494060E+05  7.067916E+05  3.649353E+04  7.069259E+04
       173  26 -8.800377E+04 -5.418783E+05 -1.132030E+05  3.790726E+05 -1.625470E+04  5.893578E+04
       173  27 -3.864338E+05 -1.778697E+06 -3.877481E+05  6.950603E+05 -6.803126E+04  4.715893E+04
       174   1  7.011960E+05  2.650713E+06  6.329044E+05  7.250244E+05  1.218061E+05  6.987526E+04
       174   2  9.934845E+05  3.874844E+06  9.216226E+05  4.066040E+05  1.593480E+05 -2.794980E+04
       174   3  1.309356E+06  5.116783E+06  1.278873E+06  7.264728E+05  5.573445E+04 -1.249956E+05
       174   4  1.192518E+04 -1.550072E+05 -1.074636E+04  7.036009E+05  1.210634E+05 -8.937392E+03
       174   5  2.881635E+03 -1.557022E+05 -8.986831E+03  3.843661E+05  1.596047E+05 -4.624143E+03
       174   6 -1.448175E+02 -1.576188E+05 -9.321186E+03  7.036760E+05  5.658280E+04  6.648302E+02
       174   7 -6.778899E+05 -2.953444E+06 -6.548928E+05  6.822531E+05  1.203242E+05 -8.739784E+04
       174   8 -9.888579E+05 -4.171287E+06 -9.406770E+05  3.622393E+05  1.598607E+05  1.855198E+04
       174   9 -1.311689E+06 -5.406760E+06 -1.299485E+06  6.810181E+05  5.742610E+04  1.252666E+05
       174  10  7.011788E+05  2.650704E+06  6.328675E+05  7.250176E+05 -1.387541E-09  6.775493E-10
       174  11  9.934570E+05  3.874836E+06  9.215734E+05  4.066076E+05 -1.603891E-09 -1.050917E-08
       174  12  1.309349E+06  5.116766E+06  1.278838E+06  7.264784E+05 -5.606547E-10 -8.706849E-10
       174  13  1.190942E+04 -1.550113E+05 -1.077406E+04  7.036018E+05 -5.554437E-09  9.403886E-09
       174  14  2.854276E+03 -1.557090E+05 -9.034740E+03  3.843667E+05 -9.008157E-10 -7.749250E-09
       174  15 -1.482553E+02 -1.576196E+05 -9.327202E+03  7.036760E+05  3.864489E-10  6.584428E-09
       174  16 -6.779075E+05 -2.953456E+06 -6.549345E+05  6.822616E+05 -4.606651E-09 -5.139868E-09
       174  17 -9.888854E+05 -4.171294E+06 -9.407256E+05  3.622369E+05 -4.826950E-09  6.561948E-09
       174  18 -1.311696E+06 -5.406778E+06 -1.299521E+06  6.810123E+05  2.782181E-09  3.327556E-09
       174  19  7.011960E+05  2.650713E+06  6.329044E+05  7.250244E+05 -1.218061E+05 -6.987526E+04
       174  20  9.934845E+05  3.874844E+06  9.216226E+05  4.066040E+05 -1.593480E+05  2.794980E+04
       174  21  1.309356E+06  5.116783E+06  1.278873E+06  7.264728E+05 -5.573445E+04  1.249956E+05
       174  22  1.192518E+04 -1.550072E+05 -1.074636E+04  7.036009E+05 -1.210634E+05  8.937392E+03
       174  23  2.881635E+03 -1.557022E+05 -8.986831E+03  3.843661E+05 -1.596047E+05  4.624143E+03
       174  24 -1.448175E+02 -1.576188E+05 -9.321186E+03  7.036760E+05 -5.658280E+04 -6.648302E+02
       174  25 -6.778899E+05 -2.953444E+06 -6.548928E+05  6.822531E+05 -1.203242E+05  8.739784E+04
       174  26 -9.888579E+05 -4.171287E+06 -9.406770E+05  3.622393E+05 -1.598607E+05 -1.855198E+04
       174  27 -1.311689E+06 -5.406760E+06 -1.299485E+06  6.810181E+05 -5.742610E+04 -1.252666E+05
       175   1  1.089272E+07  2.277449E+06  2.290090E+06  8.249847E+05  3.613822E+05 -9.768032E+04
       175   2  9.482194E+06  1.737721E+06  1.744873E+06  4.436995E+05  1.504720E+05 -2.864567E+05
       175   3  8.186260E+06  1.422518E+06  1.397022E+06  7.579692E+05 -5.948113E+04 -2.551409E+05
       175   4  2.322283E+06  1.609285E+05  2.094006E+05  7.700643E+05  1.418993E+05 -9.723364E+04
       175   5  2.281927E+06 -2.320919E+04  9.144919E+04  4.219478E+05  9.248490E+04 -2.866953E+05
       175   6  2.327532E+06 -9.201534E+03  6.081897E+04  7.697910E+05  4.355123E+04 -2.549578E+05
       175   7 -6.181892E+06 -1.960914E+06 -1.876405E+06  7.158977E+05 -7.461299E+04 -9.674729E+04
       175   8 -4.870920E+06 -1.787731E+06 -1.565381E+06  4.004310E+05  3.515234E+04 -2.869320E+05
       175   9 -3.499689E+06 -1.443280E+06 -1.277581E+06  7.814570E+05  1.456280E+05 -2.547698E+05
       175  10  1.089258E+07  2.277405E+06  2.289831E+06  8.250130E+05 -3.100462E-10 -5.487448E-11
       175  11  9.482147E+06  1.737627E+06  1.744677E+06  4.437340E+05 -1.589378E-09 -2.623042E-09
       175  12  8.186239E+06  1.422447E+06  1.396893E+06  7.579570E+05  4.991429E-09 -9.436456E-09
       175  13  2.322259E+06  1.609130E+05  2.093450E+05  7.700755E+05  2.992665E-09 -2.891815E-09
       175  14  2.281895E+06 -2.329985E+04  9.127846E+04  4.219692E+05  2.407254E-10 -8.987271E-10
       175  15  2.327512E+06 -9.271937E+03  6.069306E+04  7.698000E+05  4.056366E-09 -2.835997E-09
       175  16 -6.181900E+06 -1.960925E+06 -1.876433E+06  7.158918E+05  6.412059E-10 -4.738548E-10
       175  17 -4.870943E+06 -1.787820E+06 -1.565538E+06  4.004392E+05  6.454730E-09  1.669400E-09
       175  18 -3.499729E+06 -1.443355E+06 -1.277744E+06  7.814870E+05  1.319190E-10 -9.004270E-09
       175  19  1.089272E+07  2.277449E+06  2.290090E+06  8.249847E+05 -3.613822E+05  9.768032E+04
       175  20  9.482194E+06  1.737721E+06  1.744873E+06  4.436995E+05 -1.504720E+05  2.864567E+05
       175  21  8.186260E+06  1.422518E+06  1.397022E+06  7.579692E+05  5.948113E+04  2.551409E+05
       175  22  2.322283E+06  1.609285E+05  2.094006E+05  7.700643E+05 -1.418993E+05  9.723364E+04
       175  23  2.281927E+06 -2.320919E+04  9.144919E+04  4.219478E+05 -9.248490E+04  2.866953E+05
       175  24  2.327532E+06 -9.201534E+03  6.081897E+04  7.697910E+05 -4.355123E+04  2.549578E+05
       175  25 -6.181892E+06 -1.960914E+06 -1.876405E+06  7.158977E+05  7.461299E+04  9.674729E+04
       175  26 -4.870920E+06 -1.787731E+06 -1.565381E+06  4.004310E+05 -3.515234E+04  2.869320E+05
       175  27 -3.499689E+06 -1.443280E+06 -1.277581E+06  7.814570E+05 -1.456280E+05  2.547698E+05
       176   1  6.892987E+06  1.134888E+06  1.098887E+06  7.869529E+05 -1.341997E+02 -1.909579E+05
       176   2  5.569646E+06  7.992683E+05  7.767784E+05  4.379022E+05 -2.333471E+04 -1.388930E+05
       176   3  4.254378E+06  4.864310E+05  4.746588E+05  7.769440E+05 -4.684176E+04 -7.658708E+04
       176   4  2.312785E+06  1.370674E+04  4.943613E+04  7.681045E+05  3.386745E+04 -1.908955E+05
       176   5  2.311311E+06  1.279200E+03  3.091368E+04  4.239647E+05  1.816870E+04 -1.387039E+05
       176   6  2.315064E+06  1.050235E+04  2.737165E+04  7.681337E+05  2.115279E+03 -7.624101E+04
       176   7 -2.248166E+06 -1.108926E+06 -1.001388E+06  7.493617E+05  6.762177E+04 -1.908350E+05
       176   8 -9.372641E+05 -7.974437E+05 -7.156408E+05  4.100834E+05  5.945745E+04 -1.385161E+05
       176   9  3.792102E+05 -4.656872E+05 -4.201563E+05  7.593425E+05  5.092139E+04 -7.589570E+04
       176  10  6.892977E+06  1.134849E+06  1.098818E+06  7.869528E+05 -9.504342E-09 -1.256684E-08
       176  11  5.569641E+06  7.992474E+05  7.767411E+05  4.378996E+05 -7.280297E-10  3.961772E-09
       176  12  4.254374E+06  4.864241E+05  4.746437E+05  7.769412E+05 -9.037544E-09  1.114838E-08
       176  13  2.312774E+06  1.366725E+04  4.936539E+04  7.681097E+05 -4.190374E-11 -9.379922E-09
       176  14  2.311305E+06  1.258428E+03  3.087686E+04  4.239667E+05 -4.507979E-09 -2.355131E-09
       176  15  2.315063E+06  1.049610E+04  2.736071E+04  7.681338E+05  1.659770E-09 -2.893806E-09
       176  16 -2.248180E+06 -1.108967E+06 -1.001465E+06  7.493721E+05  7.298816E-09 -4.086559E-09
       176  17 -9.372731E+05 -7.974653E+05 -7.156836E+05  4.100901E+05  1.859379E-09 -1.188256E-09
       176  18  3.792059E+05 -4.656941E+05 -4.201720E+05  7.593457E+05  6.052137E-09  3.764850E-09
       176  19  6.892987E+06  1.134888E+06  1.098887E+06  7.869529E+05  1.341997E+02  1.909579E+05
       176  20  5.569646E+06  7.992683E+05  7.767784E+05  4.379022E+05  2.333471E+04  1.388930E+05
       176  21  4.254378E+06  4.864310E+05  4.746588E+05  7.769440E+05  4.684176E+04  7.658708E+04
       176  22  2.312785E+06  1.370674E+04  4.943613E+04  7.681045E+05 -3.386745E+04  1.908955E+05
       176  23  2.311311E+06  1.279200E+03  3.091368E+04  4.239647E+05 -1.816870E+04  1.387039E+05
       176  24  2.315064E+06  1.050235E+04  2.737165E+04  7.681337E+05 -2.115279E+03  7.624101E+04
       176  25 -2.248166E+06 -1.108926E+06 -1.001388E+06  7.493617E+05 -6.762177E+04  1.908350E+05
       176  26 -9.372641E+05 -7.974437E+05 -7.156408E+05  4.100834E+05 -5.945745E+04  1.385161E+05
       176  27  3.792102E+05 -4.656872E+05 -4.201563E+05  7.593425E+05 -5.092139E+04  7.589570E+04
       177   1  2.999915E+06  1.776956E+05  1.811851E+05  7.729954E+05 -5.097044E+04 -3.693811E+04
       177   2  1.691855E+06 -1.485709E+05 -1.092257E+05  4.205382E+05 -6.330577E+04  2.563772E+04
       177   3  3.825393E+05 -4.516320E+05 -3.883995E+05  7.526903E+05 -7.551642E+04  8.105292E+04
       177   4  2.314272E+06  1.015552E+04  2.740349E+04  7.673149E+05 -3.137659E+03 -3.657138E+04
       177   5  2.315030E+06  4.482415E+03  3.399506E+04  4.249939E+05 -2.069539E+04  2.594209E+04
       177   6  2.313818E+06  2.301384E+04  5.549864E+04  7.672215E+05 -3.815313E+04  8.130400E+04
       177   7  1.629071E+06 -1.574153E+05 -1.263993E+05  7.616396E+05  4.464305E+04 -3.620528E+04
       177   8  2.938566E+06  1.575097E+05  1.771970E+05  4.294534E+05  2.195732E+04  2.624690E+04
       177   9  4.248543E+06  4.974011E+05  4.991559E+05  7.817900E+05 -6.744836E+02  8.155640E+04
       177  10  2.999911E+06  1.776935E+05  1.811777E+05  7.729939E+05 -6.299718E-09  1.496624E-08
       177  11  1.691851E+06 -1.485727E+05 -1.092345E+05  4.205395E+05 -7.095021E-12  7.740194E-09
       177  12  3.825314E+05 -4.516406E+05 -3.884226E+05  7.526953E+05  1.272093E-09 -2.886291E-09
       177  13  2.314272E+06  1.015408E+04  2.740096E+04  7.673148E+05 -1.827886E-09 -4.114921E-09
       177  14  2.315029E+06  4.481577E+03  3.399299E+04  4.249944E+05 -6.039534E-09  1.044015E-08
       177  15  2.313815E+06  2.300634E+04  5.548346E+04  7.672240E+05 -5.368078E-09  1.360883E-08
       177  16  1.629068E+06 -1.574172E+05 -1.264055E+05  7.616409E+05  4.779841E-09  1.063400E-08
       177  17  2.938566E+06  1.575089E+05  1.771948E+05  4.294530E+05 -2.133982E-09  1.342382E-08
       177  18  4.248541E+06  4.973939E+05  4.991433E+05  7.817901E+05 -9.299066E-09  6.952966E-09
       177  19  2.999915E+06  1.776956E+05  1.811851E+05  7.729954E+05  5.097044E+04  3.693811E+04
       177  20  1.691855E+06 -1.485709E+05 -1.092257E+05  4.205382E+05  6.330577E+04 -2.563772E+04
       177  21  3.825393E+05 -4.516320E+05 -3.883995E+05  7.526903E+05  7.551642E+04 -8.105292E+04
       177  22  2.314272E+06  1.015552E+04  2.740349E+04  7.673149E+05  3.137659E+03  3.657138E+04
       177  23  2.315030E+06  4.482415E+03  3.399506E+04  4.249939E+05  2.069539E+04 -2.594209E+04
       177  24  2.313818E+06  2.301384E+04  5.549864E+04  7.672215E+05  3.815313E+04 -8.130400E+04
       177  25  1.629071E+06 -1.574153E+05 -1.263993E+05  7.616396E+05 -4.464305E+04  3.620528E+04
       177  26  2.938566E+06  1.575097E+05  1.771970E+05  4.294534E+05 -2.195732E+04 -2.624690E+04
       177  27  4.248543E+06  4.974011E+05  4.991559E+05  7.817900E+05  6.744836E+02 -8.155640E+04
       178   1 -8.582525E+05 -7.852232E+05 -6.636137E+05  7.812228E+05 -1.343611E+05  1.367312E+05
       178   2 -2.204094E+06 -1.122207E+06 -9.343329E+05  3.851002E+05 -7.867288E+04  1.780747E+05
       178   3 -3.499447E+06 -1.257443E+06 -1.190011E+06  6.757453E+05 -2.259335E+04  6.290827E+04
       178   4  2.327829E+06 -2.476063E+03  6.775272E+04  7.678911E+05 -4.890178E+04  1.372507E+05
       178   5  2.292166E+06 -1.433953E+04  1.062906E+05  4.243765E+05 -1.059009E+05  1.778625E+05
       178   6  2.324474E+06  1.944318E+05  2.377962E+05  7.672252E+05 -1.623975E+05  6.247586E+04
       178   7  5.523315E+06  7.795705E+05  7.984787E+05  7.544696E+05  3.699333E+04  1.377651E+05
       178   8  6.807113E+06  1.092114E+06  1.145568E+06  4.639137E+05 -1.333229E+05  1.776479E+05
       178   9  8.179392E+06  1.643833E+06  1.663198E+06  8.595290E+05 -3.035100E+05  6.200493E+04
       178  10 -8.582770E+05 -7.852482E+05 -6.636829E+05  7.812377E+05  6.116320E-09 -2.800838E-09
       178  11 -2.204109E+06 -1.122243E+06 -9.344043E+05  3.851115E+05  1.727229E-09  7.961733E-09
       178  12 -3.499449E+06 -1.257447E+06 -1.190019E+06  6.757464E+05  1.186032E-10  2.260053E-09
       178  13  2.327821E+06 -2.496965E+03  6.771277E+04  7.678965E+05 -4.327148E-09  3.145913E-09
       178  14  2.292145E+06 -1.437655E+04  1.062100E+05  4.243917E+05 -1.373307E-09  7.581431E-09
       178  15  2.324444E+06  1.944205E+05  2.377394E+05  7.672334E+05  3.134771E-09 -2.231114E-09
       178  16  5.523308E+06  7.795498E+05  7.984405E+05  7.544655E+05 -7.356627E-09  5.320876E-09
       178  17  6.807085E+06  1.092076E+06  1.145475E+06  4.639327E+05 -3.309669E-09 -9.950739E-10
       178  18  8.179293E+06  1.643805E+06  1.663020E+06  8.595441E+05  3.170097E-10 -2.802018E-09
       178  19 -8.582525E+05 -7.852232E+05 -6.636137E+05  7.812228E+05  1.343611E+05 -1.367312E+05
       178  20 -2.204094E+06 -1.122207E+06 -9.343329E+05  3.851002E+05  7.867288E+04 -1.780747E+05
       178  21 -3.499447E+06 -1.257443E+06 -1.190011E+06  6.757453E+05  2.259335E+04 -6.290827E+04
       178  22  2.327829E+06 -2.476063E+03  6.775272E+04  7.678911E+05  4.890178E+04 -1.372507E+05
       178  23  2.292166E+06 -1.433953E+04  1.062906E+05  4.243765E+05  1.059009E+05 -1.778625E+05
       178  24  2.324474E+06  1.944318E+05  2.377962E+05  7.672252E+05  1.623975E+05 -6.247586E+04
       178  25  5.523315E+06  7.795705E+05  7.984787E+05  7.544696E+05 -3.699333E+04 -1.377651E+05
       178  26  6.807113E+06  1.092114E+06  1.145568E+06  4.639137E+05  1.333229E+05 -1.776479E+05
       178  27  8.179392E+06  1.643833E+06  1.663198E+06  8.595290E+05  3.035100E+05 -6.200493E+04
       179   1 -1.362786E+06 -4.497622E+06 -1.386846E+06  8.333005E+05 -5.238253E+04 -2.384755E+05
       179   2 -8.505338E+05 -3.085024E+06 -8.944744E+05  4.359735E+05 -1.390534E+05 -9.818328E+04
       179   3 -5.034944E+05 -1.736015E+06 -5.363071E+05  7.583316E+05 -9.087638E+04  4.146861E+04
       179   4 -1.418507E+05  3.957496E+05 -1.843087E+05  7.969414E+05 -5.157900E+04 -1.279684E+05
       179   5  1.427704E+04  4.210791E+05 -8.131875E+04  4.366003E+05 -1.388814E+05 -8.385928E+04
       179   6  2.267312E+04  3.982849E+05 -4.493203E+04  7.957833E+05 -9.165654E+04 -4.070885E+04
       179   7  1.077320E+06  5.311043E+06  1.016515E+06  7.602430E+05 -5.079216E+04 -1.658379E+04
       179   8  8.782225E+05  3.938570E+06  7.310132E+05  4.372043E+05 -1.387099E+05 -6.945361E+04
       179   9  5.485292E+05  2.536822E+06  4.461669E+05  8.333524E+05 -9.244513E+04 -1.231670E+05
       179  10 -1.362805E+06 -4.497684E+06 -1.386958E+06  8.332904E+05 -4.046897E-09 -1.293717E-08
       179  11 -8.505571E+05 -3.085040E+06 -8.945289E+05  4.359625E+05 -4.035863E-09  1.014308E-09
       179  12 -5.035037E+05 -1.736019E+06 -5.363259E+05  7.583347E+05 -2.808561E-10 -1.502954E-09
       179  13 -1.418579E+05  3.957313E+05 -1.843444E+05  7.969360E+05 -8.241597E-09 -5.996182E-09
       179  14  1.425445E+04  4.210664E+05 -8.136817E+04  4.365909E+05 -5.049510E-09 -1.217229E-10
       179  15  2.266366E+04  3.982809E+05 -4.495091E+04  7.957803E+05 -6.640945E-09 -1.284935E-08
       179  16  1.077317E+06  5.311042E+06  1.016510E+06  7.602423E+05 -4.881601E-09  1.000779E-08
       179  17  8.782006E+05  3.938559E+06  7.309681E+05  4.371965E+05 -1.186098E-08 -6.096747E-09
       179  18  5.485160E+05  2.536803E+06  4.461225E+05  8.333432E+05 -8.390697E-10 -3.809216E-09
       179  19 -1.362786E+06 -4.497622E+06 -1.386846E+06  8.333005E+05  5.238253E+04  2.384755E+05
       179  20 -8.505338E+05 -3.085024E+06 -8.944744E+05  4.359735E+05  1.390534E+05  9.818328E+04
       179  21 -5.034944E+05 -1.736015E+06 -5.363071E+05  7.583316E+05  9.087638E+04 -4.146861E+04
       179  22 -1.418507E+05  3.957496E+05 -1.843087E+05  7.969414E+05  5.157900E+04  1.279684E+05
       179  23  1.427704E+04  4.210791E+05 -8.131875E+04  4.366003E+05  1.388814E+05  8.385928E+04
       179  24  2.267312E+04  3.982849E+05 -4.493203E+04  7.957833E+05  9.165654E+04  4.070885E+04
       179  25  1.077320E+06  5.311043E+06  1.016515E+06  7.602430E+05  5.079216E+04  1.658379E+04
       179  26  8.782225E+05  3.938570E+06  7.310132E+05  4.372043E+05  1.387099E+05  6.945361E+04
       179  27  5.485292E+05  2.536822E+06  4.461669E+05  8.333524E+05  9.244513E+04  1.231670E+05
       180   1 -1.967794E+05 -4.058506E+05 -2.210320E+05  7.944557E+05 -3.478255E+04  8.079752E+03
       180   2  1.482625E+05  9.816007E+05  1.191894E+05  4.406957E+05  2.443308E+04  1.228174E+04
       180   3  4.974126E+05  2.356111E+06  4.539849E+05  8.094711E+05  8.227069E+04  1.656121E+04
       180   4  3.064754E+03  4.066412E+05 -3.424294E+04  7.968647E+05 -3.521657E+04 -3.503322E+04
       180   5  8.646025E+03  4.138546E+05 -1.124895E+04  4.355063E+05  2.402967E+04 -2.985764E+04
       180   6  1.830249E+04  4.062212E+05  5.774307E+03  7.967129E+05  8.189079E+04 -2.461460E+04
       180   7  2.028639E+05  1.219748E+06  1.525095E+05  7.992751E+05 -3.565060E+04 -7.820217E+04
       180   8 -1.309920E+05 -1.535898E+05 -1.417019E+05  4.303210E+05  2.362677E+04 -7.195882E+04
       180   9 -4.610716E+05 -1.540156E+06 -4.426813E+05  7.839844E+05  8.151191E+04 -6.566241E+04
       180  10 -1.967807E+05 -4.058510E+05 -2.210344E+05  7.944559E+05 -2.108794E-10 -1.221058E-08
       180  11  1.482619E+05  9.816004E+05  1.191879E+05  4.406954E+05 -1.939140E-09  5.353207E-09
       180  12  4.974052E+05  2.356109E+06  4.539717E+05  8.094700E+05 -9.874833E-10 -5.907421E-10
       180  13  3.063095E+03  4.066395E+05 -3.424757E+04  7.968637E+05  6.858508E-10 -9.809762E-09
       180  14  8.645165E+03  4.138534E+05 -1.125171E+04  4.355069E+05  8.056647E-09 -1.576022E-10
       180  15  1.829512E+04  4.062188E+05  5.760553E+03  7.967145E+05  4.477023E-09 -1.256086E-08
       180  16  2.028609E+05  1.219741E+06  1.524956E+05  7.992728E+05  4.194962E-09  7.144265E-09
       180  17 -1.309940E+05 -1.535955E+05 -1.417127E+05  4.303224E+05  5.372485E-09 -1.044965E-08
       180  18 -4.610799E+05 -1.540163E+06 -4.427020E+05  7.839887E+05  2.800343E-09 -4.688042E-09
       180  19 -1.967794E+05 -4.058506E+05 -2.210320E+05  7.944557E+05  3.478255E+04 -8.079752E+03
       180  20  1.482625E+05  9.816007E+05  1.191894E+05  4.406957E+05 -2.443308E+04 -1.228174E+04
       180  21  4.974126E+05  2.356111E+06  4.539849E+05  8.094711E+05 -8.227069E+04 -1.656121E+04
       180  22  3.064754E+03  4.066412E+05 -3.424294E+04  7.968647E+05  3.521657E+04  3.503322E+04
       180  23  8.646025E+03  4.138546E+05 -1.124895E+04  4.355063E+05 -2.402967E+04  2.985764E+04
       180  24  1.830249E+04  4.062212E+05  5.774307E+03  7.967129E+05 -8.189079E+04  2.461460E+04
       180  25  2.028639E+05  1.219748E+06  1.525095E+05  7.992751E+05  3.565060E+04  7.820217E+04
       180  26 -1.309920E+05 -1.535898E+05 -1.417019E+05  4.303210E+05 -2.362677E+04  7.195882E+04
       180  27 -4.610716E+05 -1.540156E+06 -4.426813E+05  7.839844E+05 -8.151191E+04  6.566241E+04
       181   1  8.122332E+05  3.691455E+06  7.648138E+05  8.080165E+05  1.420994E+05  6.250476E+04
       181   2  1.140114E+06  5.056636E+06  1.104194E+06  4.675524E+05  1.838135E+05 -7.113271E+04
       181   3  1.571728E+06  6.468479E+06  1.555968E+06  8.451432E+05  6.405367E+04 -2.041775E+05
       181   4  7.956773E+03  4.133625E+05  1.362859E+04  7.959509E+05  1.413463E+05 -2.685821E+04
       181   5 -3.506020E+03  3.992045E+05  2.995645E+04  4.366024E+05  1.840974E+05 -4.334149E+04
       181   6  6.897906E+04  4.099604E+05  7.796910E+04  7.955999E+05  6.484381E+04 -5.892744E+04
       181   7 -7.970620E+05 -2.854802E+06 -7.382335E+05  7.839212E+05  1.405945E+05 -1.157551E+05
       181   8 -1.148640E+06 -4.238281E+06 -1.045721E+06  4.058450E+05  1.843798E+05 -1.575498E+04
       181   9 -1.436454E+06 -5.615280E+06 -1.402622E+06  7.464754E+05  6.561560E+04  8.492172E+04
       181  10  8.122105E+05  3.691445E+06  7.647686E+05  8.080094E+05 -4.429623E-09 -8.716257E-09
       181  11  1.140076E+06  5.056622E+06  1.104121E+06  4.675629E+05 -3.193288E-09 -2.009789E-09
       181  12  1.571712E+06  6.468433E+06  1.555883E+06  8.451537E+05 -1.130174E-09 -7.364992E-09
       181  13  7.935114E+03  4.133563E+05  1.358966E+04  7.959539E+05 -1.423884E-09 -8.452430E-09
       181  14 -3.542932E+03  3.991933E+05  2.988920E+04  4.366088E+05 -1.837416E-09 -1.152291E-10
       181  15  6.897361E+04  4.099555E+05  7.795465E+04  7.956030E+05  2.647480E-10 -5.679933E-09
       181  16 -7.970869E+05 -2.854822E+06 -7.382960E+05  7.839344E+05  1.651993E-09  4.066824E-09
       181  17 -1.148677E+06 -4.238290E+06 -1.045785E+06  4.058474E+05 -1.749020E-09 -1.567089E-09
       181  18 -1.436461E+06 -5.615289E+06 -1.402644E+06  7.464709E+05  7.875145E-10  4.550787E-09
       181  19  8.122332E+05  3.691455E+06  7.648138E+05  8.080165E+05 -1.420994E+05 -6.250476E+04
       181  20  1.140114E+06  5.056636E+06  1.104194E+06  4.675524E+05 -1.838135E+05  7.113271E+04
       181  21  1.571728E+06  6.468479E+06  1.555968E+06  8.451432E+05 -6.405367E+04  2.041775E+05
       181  22  7.956773E+03  4.133625E+05  1.362859E+04  7.959509E+05 -1.413463E+05  2.685821E+04
       181  23 -3.506020E+03  3.992045E+05  2.995645E+04  4.366024E+05 -1.840974E+05  4.334149E+04
       181  24  6.897906E+04  4.099604E+05  7.796910E+04  7.955999E+05 -6.484381E+04  5.892744E+04
       181  25 -7.970620E+05 -2.854802E+06 -7.382335E+05  7.839212E+05 -1.405945E+05  1.157551E+05
       181  26 -1.148640E+06 -4.238281E+06 -1.045721E+06  4.058450E+05 -1.843798E+05  1.575498E+04
       181  27 -1.436454E+06 -5.615280E+06 -1.402622E+06  7.464754E+05 -6.561560E+04 -8.492172E+04
       182   1  4.984549E+06  9.330784E+05  9.240074E+05  4.460342E+05  1.119846E+05 -3.973609E+04
       182   2  4.228234E+06  7.084131E+05  6.834057E+05  2.466033E+05  3.384888E+04 -1.148577E+05
       182   3  3.496481E+06  5.305332E+05  5.055723E+05  4.318135E+05 -4.440819E+04 -9.360643E+04
       182   4  1.338077E+06  2.849523E+04  3.444974E+04  4.289484E+05  2.272796E+04 -3.993015E+04
       182   5  1.332613E+06 -2.432734E+03  1.571526E+04  2.366104E+05  1.449584E+04 -1.149535E+05
       182   6  1.339223E+06  1.488116E+03  1.154877E+04  4.290138E+05  6.047740E+03 -9.340654E+04
       182   7 -2.296332E+06 -8.770609E+05 -8.560448E+05  4.119526E+05 -6.600924E+04 -4.012006E+04
       182   8 -1.555297E+06 -7.138635E+05 -6.525307E+05  2.266571E+05 -4.768224E+03 -1.150490E+05
       182   9 -8.137395E+05 -5.278785E+05 -4.827708E+05  4.262179E+05  5.633055E+04 -9.320673E+04
       182  10  4.984535E+06  9.330733E+05  9.239810E+05  4.460378E+05  1.927899E-09 -4.560473E-10
       182  11  4.228229E+06  7.083986E+05  6.833787E+05  2.466064E+05  1.122658E-09 -2.170385E-09
       182  12  3.496477E+06  5.305233E+05  5.055521E+05  4.318101E+05 -6.466400E-09 -3.525403E-09
       182  13  1.338076E+06  2.849338E+04  3.444577E+04  4.289491E+05 -1.199573E-09  3.078108E-09
       182  14  1.332609E+06 -2.446990E+03  1.569001E+04  2.366118E+05 -3.398078E-09  2.696166E-10
       182  15  1.339221E+06  1.478731E+03  1.153230E+04  4.290143E+05  3.076344E-09 -4.994524E-09
       182  16 -2.296337E+06 -8.770638E+05 -8.560560E+05  4.119505E+05 -3.503081E-09  9.617384E-10
       182  17 -1.555301E+06 -7.138778E+05 -6.525557E+05  2.266567E+05 -3.062981E-09 -2.581695E-09
       182  18 -8.137453E+05 -5.278887E+05 -4.827931E+05  4.262222E+05  9.461751E-10 -3.919176E-09
       182  19  4.984549E+06  9.330784E+05  9.240074E+05  4.460342E+05 -1.119846E+05  3.973609E+04
       182  20  4.228234E+06  7.084131E+05  6.834057E+05  2.466033E+05 -3.384888E+04  1.148577E+05
       182  21  3.496481E+06  5.305332E+05  5.055723E+05  4.318135E+05  4.440819E+04  9.360643E+04
       182  22  1.338077E+06  2.849523E+04  3.444974E+04  4.289484E+05 -2.272796E+04  3.993015E+04
       182  23  1.332613E+06 -2.432734E+03  1.571526E+04  2.366104E+05 -1.449584E+04  1.149535E+05
       182  24  1.339223E+06  1.488116E+03  1.154877E+04  4.290138E+05 -6.047740E+03  9.340654E+04
       182  25 -2.296332E+06 -8.770609E+05 -8.560448E+05  4.119526E+05  6.600924E+04  4.012006E+04
       182  26 -1.555297E+06 -7.138635E+05 -6.525307E+05  2.266571E+05  4.768224E+03  1.150490E+05
       182  27 -8.137395E+05 -5.278785E+05 -4.827708E+05  4.262179E+05 -5.633055E+04  9.320673E+04
       183   1  2.785396E+06  3.608599E+05  3.429414E+05  4.348699E+05 -1.656900E+04 -6.097992E+04
       183   2  2.049384E+06  1.766663E+05  1.722025E+05  2.392706E+05 -2.430433E+04 -3.028878E+04
       183   3  1.312604E+06 -8.065876E+02  7.216103E+03  4.287781E+05 -3.208770E+04  4.859901E+03
       183   4  1.336754E+06  5.226897E+03  1.017681E+04  4.290749E+05  4.008234E+03 -6.088984E+04
       183   5  1.337806E+06  1.923686E+03  8.786433E+03  2.365109E+05 -5.128359E+02 -3.017225E+04
       183   6  1.337031E+06  4.822272E+03  1.095255E+04  4.290784E+05 -5.090840E+03  5.007059E+03
       183   7 -1.099521E+05 -3.505519E+05 -3.227247E+05  4.232906E+05  2.453800E+04 -6.080003E+04
       183   8  6.266958E+05 -1.728539E+05 -1.546609E+05  2.337538E+05  2.325168E+04 -3.005587E+04
       183   9  1.361461E+06  1.045149E+04  1.469173E+04  4.293787E+05  2.190704E+04  5.154239E+03
       183  10  2.785395E+06  3.608558E+05  3.429339E+05  4.348691E+05 -1.276470E-08  3.003501E-09
       183  11  2.049383E+06  1.766652E+05  1.721997E+05  2.392700E+05 -5.883467E-09  3.796804E-09
       183  12  1.312603E+06 -8.068889E+02  7.214127E+03  4.287782E+05 -2.910078E-09  3.669949E-09
       183  13  1.336753E+06  5.222909E+03  1.016981E+04  4.290751E+05 -2.146083E-09 -3.101410E-10
       183  14  1.337805E+06  1.922708E+03  8.784721E+03  2.365109E+05 -4.465536E-09  4.121290E-09
       183  15  1.337031E+06  4.822238E+03  1.095246E+04  4.290784E+05  7.582680E-09  4.632194E-09
       183  16 -1.099537E+05 -3.505560E+05 -3.227328E+05  4.232918E+05  1.094913E-08  3.922055E-09
       183  17  6.266949E+05 -1.728550E+05 -1.546636E+05  2.337544E+05  8.368723E-09 -1.272274E-08
       183  18  1.361460E+06  1.045134E+04  1.469078E+04  4.293786E+05  2.178458E-09 -4.217021E-09
       183  19  2.785396E+06  3.608599E+05  3.429414E+05  4.348699E+05  1.656900E+04  6.097992E+04
       183  20  2.049384E+06  1.766663E+05  1.722025E+05  2.392706E+05  2.430433E+04  3.028878E+04
       183  21  1.312604E+06 -8.065876E+02  7.216103E+03  4.287781E+05  3.208770E+04 -4.859901E+03
       183  22  1.336754E+06  5.226897E+03  1.017681E+04  4.290749E+05 -4.008234E+03  6.088984E+04
       183  23  1.337806E+06  1.923686E+03  8.786433E+03  2.365109E+05  5.128359E+02  3.017225E+04
       183  24  1.337031E+06  4.822272E+03  1.095255E+04  4.290784E+05  5.090840E+03 -5.007059E+03
       183  25 -1.099521E+05 -3.505519E+05 -3.227247E+05  4.232906E+05 -2.453800E+04  6.080003E+04
       183  26  6.266958E+05 -1.728539E+05 -1.546609E+05  2.337538E+05 -2.325168E+04  3.005587E+04
       183  27  1.361461E+06  1.045149E+04  1.469173E+04  4.293787E+05 -2.190704E+04 -5.154239E+03
       184   1  6.097073E+05 -1.754237E+05 -1.560057E+05  4.278704E+05 -3.463381E+04  2.717640E+04
       184   2 -1.278318E+05 -3.592011E+05 -3.167118E+05  2.307737E+05 -4.092075E+04  6.233453E+04
       184   3 -8.633435E+05 -5.295730E+05 -4.706772E+05  4.194629E+05 -4.710157E+04  9.210050E+04
       184   4  1.337791E+06  3.838989E+03  1.299464E+04  4.292212E+05 -7.359156E+03  2.732049E+04
       184   5  1.336412E+06  8.109417E+02  1.982091E+04  2.363392E+05 -1.756287E+04  6.243148E+04
       184   6  1.337208E+06  1.188384E+04  3.610788E+04  4.291827E+05 -2.766757E+04  9.215789E+04
       184   7  2.066364E+06  1.830648E+05  1.819622E+05  4.305728E+05  1.994723E+04  2.746461E+04
       184   8  2.802639E+06  3.606739E+05  3.562141E+05  2.419154E+05  5.849684E+03  6.252872E+04
       184   9  3.542239E+06  5.530027E+05  5.425736E+05  4.389313E+05 -8.165035E+03  9.221577E+04
       184  10  6.097058E+05 -1.754248E+05 -1.560094E+05  4.278712E+05  1.243055E-08  9.866743E-09
       184  11 -1.278347E+05 -3.592057E+05 -3.167222E+05  2.307757E+05  1.136380E-09  1.568980E-09
       184  12 -8.633481E+05 -5.295827E+05 -4.706973E+05  4.194664E+05 -6.073669E-09  7.045700E-09
       184  13  1.337790E+06  3.838173E+03  1.299313E+04  4.292214E+05  4.229506E-09  3.105042E-09
       184  14  1.336411E+06  8.066704E+02  1.981300E+04  2.363401E+05  3.228190E-09  3.810070E-09
       184  15  1.337205E+06  1.187451E+04  3.609047E+04  4.291848E+05 -4.193167E-09  1.575809E-09
       184  16  2.066363E+06  1.830639E+05  1.819600E+05  4.305723E+05 -8.442809E-09  1.376474E-09
       184  17  2.802638E+06  3.606696E+05  3.562067E+05  2.419151E+05 -3.185032E-09 -2.360424E-09
       184  18  3.542236E+06  5.529936E+05  5.425574E+05  4.389319E+05  2.568737E-09 -8.410586E-09
       184  19  6.097073E+05 -1.754237E+05 -1.560057E+05  4.278704E+05  3.463381E+04 -2.717640E+04
       184  20 -1.278318E+05 -3.592011E+05 -3.167118E+05  2.307737E+05  4.092075E+04 -6.233453E+04
       184  21 -8.633435E+05 -5.295730E+05 -4.706772E+05  4.194629E+05  4.710157E+04 -9.210050E+04
       184  22  1.337791E+06  3.838989E+03  1.299464E+04  4.292212E+05  7.359156E+03 -2.732049E+04
       184  23  1.336412E+06  8.109417E+02  1.982091E+04  2.363392E+05  1.756287E+04 -6.243148E+04
       184  24  1.337208E+06  1.188384E+04  3.610788E+04  4.291827E+05  2.766757E+04 -9.215789E+04
       184  25  2.066364E+06  1.830648E+05  1.819622E+05  4.305728E+05 -1.994723E+04 -2.746461E+04
       184  26  2.802639E+06  3.606739E+05  3.562141E+05  2.419154E+05 -5.849684E+03 -6.252872E+04
       184  27  3.542239E+06  5.530027E+05  5.425736E+05  4.389313E+05  8.165035E+03 -9.221577E+04
       185   1 -1.562296E+06 -7.209498E+05 -6.228710E+05  4.416269E+05 -8.942818E+04  1.267474E+05
       185   2 -2.324298E+06 -9.098824E+05 -7.713971E+05  2.143057E+05 -4.521962E+04  1.458536E+05
       185   3 -3.051580E+06 -9.640767E+05 -9.138122E+05  3.731061E+05 -9.795589E+02  4.965667E+04
       185   4  1.346611E+06 -5.584125E+03  4.493049E+04  4.293097E+05 -3.454050E+04  1.269012E+05
       185   5  1.321649E+06 -1.132195E+04  7.233658E+04  2.362633E+05 -7.325669E+04  1.457423E+05
       185   6  1.345092E+06  1.316980E+05  1.633036E+05  4.291671E+05 -1.118940E+05  4.958572E+04
       185   7  4.263362E+06  7.091946E+05  7.121860E+05  4.169249E+05  2.060300E+04  1.270524E+05
       185   8  4.979897E+06  8.863069E+05  9.151855E+05  2.583435E+05 -1.014566E+05  1.456295E+05
       185   9  5.759443E+06  1.226059E+06  1.239053E+06  4.856197E+05 -2.235928E+05  4.949520E+04
       185  10 -1.562309E+06 -7.209692E+05 -6.229163E+05  4.416360E+05  2.577371E-09  4.633226E-09
       185  11 -2.324306E+06 -9.099058E+05 -7.714410E+05  2.143110E+05  3.921860E-09 -1.295497E-09
       185  12 -3.051581E+06 -9.640794E+05 -9.138169E+05  3.731062E+05  9.387587E-10  1.824088E-09
       185  13  1.346605E+06 -5.601753E+03  4.489796E+04  4.293132E+05 -1.240288E-09  1.015096E-08
       185  14  1.321637E+06 -1.134622E+04  7.228656E+04  2.362719E+05 -5.574470E-09  5.223117E-10
       185  15  1.345078E+06  1.316920E+05  1.632754E+05  4.291716E+05  1.224677E-09  1.421444E-09
       185  16  4.263358E+06  7.091771E+05  7.121548E+05  4.169228E+05 -5.691584E-09  9.202707E-10
       185  17  4.979880E+06  8.862814E+05  9.151264E+05  2.583554E+05 -2.529480E-09 -1.747627E-10
       185  18  5.759389E+06  1.226044E+06  1.238955E+06  4.856286E+05 -8.390677E-10  4.555419E-10
       185  19 -1.562296E+06 -7.209498E+05 -6.228710E+05  4.416269E+05  8.942818E+04 -1.267474E+05
       185  20 -2.324298E+06 -9.098824E+05 -7.713971E+05  2.143057E+05  4.521962E+04 -1.458536E+05
       185  21 -3.051580E+06 -9.640767E+05 -9.138122E+05  3.731061E+05  9.795589E+02 -4.965667E+04
       185  22  1.346611E+06 -5.584125E+03  4.493049E+04  4.293097E+05  3.454050E+04 -1.269012E+05
       185  23  1.321649E+06 -1.132195E+04  7.233658E+04  2.362633E+05  7.325669E+04 -1.457423E+05
       185  24  1.345092E+06  1.316980E+05  1.633036E+05  4.291671E+05  1.118940E+05 -4.958572E+04
       185  25  4.263362E+06  7.091946E+05  7.121860E+05  4.169249E+05 -2.060300E+04 -1.270524E+05
       185  26  4.979897E+06  8.863069E+05  9.151855E+05  2.583435E+05  1.014566E+05 -1.456295E+05
       185  27  5.759443E+06  1.226059E+06  1.239053E+06  4.856197E+05  2.235928E+05 -4.949520E+04
       186   1 -2.586278E+06 -9.587666E+06 -2.598192E+06  1.302123E+06 -1.033296E+05 -4.140126E+05
       186   2 -1.788407E+06 -7.419968E+06 -1.817583E+06  6.759199E+05 -2.908974E+05 -1.649823E+05
       186   3 -1.245127E+06 -5.324658E+06 -1.260836E+06  1.161465E+06 -2.232894E+05  8.416752E+04
       186   4 -2.293305E+05 -1.765032E+05 -2.793698E+05  1.226634E+06 -1.026446E+05 -1.908439E+05
       186   5  9.844153E+03 -1.506186E+05 -1.278261E+05  6.705894E+05 -2.904399E+05 -1.221698E+05
       186   6  2.819820E+04 -1.682687E+05 -7.227124E+04  1.225765E+06 -2.243293E+05 -5.426174E+04
       186   7  2.121051E+06  9.316178E+06  2.033102E+06  1.149862E+06 -1.020228E+05  3.576003E+04
       186   8  1.804359E+06  7.167909E+06  1.558380E+06  6.651101E+05 -2.899867E+05 -7.884824E+04
       186   9  1.299678E+06  5.012902E+06  1.114601E+06  1.290532E+06 -2.253928E+05 -1.938377E+05
       186  10 -2.586336E+06 -9.587855E+06 -2.598538E+06  1.302089E+06 -1.438991E-09 -3.725196E-09
       186  11 -1.788505E+06 -7.420020E+06 -1.817794E+06  6.758811E+05  5.295918E-09 -5.642875E-09
       186  12 -1.245183E+06 -5.324679E+06 -1.260944E+06  1.161480E+06  9.899107E-09  3.850391E-09
       186  13 -2.293515E+05 -1.765451E+05 -2.794579E+05  1.226619E+06 -3.063623E-10  1.192539E-09
       186  14  9.749618E+03 -1.506573E+05 -1.280125E+05  6.705609E+05  1.478079E-10  1.063369E-09
       186  15  2.814341E+04 -1.682853E+05 -7.237122E+04  1.225755E+06 -1.180322E-09  3.313890E-09
       186  16  2.121039E+06  9.316173E+06  2.033080E+06  1.149864E+06 -2.564318E-09  3.363797E-09
       186  17  1.804267E+06  7.167880E+06  1.558211E+06  6.650918E+05 -1.058813E-08 -1.305620E-08
       186  18  1.299613E+06  5.012849E+06  1.114436E+06  1.290497E+06 -1.059542E-08 -7.487954E-09
       186  19 -2.586278E+06 -9.587666E+06 -2.598192E+06  1.302123E+06  1.033296E+05  4.140126E+05
       186  20 -1.788407E+06 -7.419968E+06 -1.817583E+06  6.759199E+05  2.908974E+05  1.649823E+05
       186  21 -1.245127E+06 -5.324658E+06 -1.260836E+06  1.161465E+06  2.232894E+05 -8.416752E+04
       186  22 -2.293305E+05 -1.765032E+05 -2.793698E+05  1.226634E+06  1.026446E+05  1.908439E+05
       186  23  9.844153E+03 -1.506186E+05 -1.278261E+05  6.705894E+05  2.904399E+05  1.221698E+05
       186  24  2.819820E+04 -1.682687E+05 -7.227124E+04  1.225765E+06  2.243293E+05  5.426174E+04
       186  25  2.121051E+06  9.316178E+06  2.033102E+06  1.149862E+06  1.020228E+05 -3.576003E+04
       186  26  1.804359E+06  7.167909E+06  1.558380E+06  6.651101E+05  2.899867E+05  7.884824E+04
       186  27  1.299678E+06  5.012902E+06  1.114601E+06  1.290532E+06  2.253928E+05  1.938377E+05
       187   1 -7.669398E+05 -3.271027E+06 -7.770324E+05  1.214387E+06 -1.312732E+05  1.871112E+04
       187   2 -2.266873E+05 -1.122699E+06 -2.542799E+05  6.630074E+05 -4.151287E+04  3.490872E+04
       187   3  3.088936E+05  1.005506E+06  2.513083E+05  1.232160E+06  5.057945E+04  5.099638E+04
       187   4  2.153293E+02 -1.597640E+05 -5.920046E+04  1.228155E+06 -1.318318E+05 -4.487998E+04
       187   5  1.347721E+04 -1.472059E+05 -2.982839E+04  6.678548E+05 -4.212615E+04 -3.037610E+04
       187   6  2.271089E+04 -1.586540E+05 -1.611920E+04  1.227961E+06  4.989428E+04 -1.603827E+04
       187   7  7.666936E+05  2.960492E+06  6.580029E+05  1.241964E+06 -1.323916E+05 -1.087881E+05
       187   8  2.535775E+05  8.291780E+05  1.945761E+05  6.727075E+05 -4.273991E+04 -9.576279E+04
       187   9 -2.635639E+05 -1.321551E+06 -2.836193E+05  1.223765E+06  4.920925E+04 -8.294836E+04
       187  10 -7.669584E+05 -3.271032E+06 -7.770655E+05  1.214389E+06  5.629392E-09 -8.621683E-09
       187  11 -2.266895E+05 -1.122701E+06 -2.542854E+05  6.630086E+05 -3.887990E-09 -5.400415E-09
       187  12  3.088902E+05  1.005502E+06  2.512986E+05  1.232158E+06 -4.930494E-09  1.095129E-08
       187  13  1.961446E+02 -1.597708E+05 -5.923684E+04  1.228151E+06  3.495315E-09  1.662495E-08
       187  14  1.347506E+04 -1.472074E+05 -2.983345E+04  6.678538E+05  1.011692E-08  4.932591E-10
       187  15  2.270815E+04 -1.586550E+05 -1.612437E+04  1.227961E+06  6.954469E-11  2.187652E-09
       187  16  7.666717E+05  2.960475E+06  6.579479E+05  1.241953E+06 -3.916989E-09  1.101143E-09
       187  17  2.535731E+05  8.291677E+05  1.945555E+05  6.727042E+05  7.575074E-09 -2.679388E-08
       187  18 -2.635684E+05 -1.321559E+06 -2.836369E+05  1.223768E+06 -1.627435E-09 -1.368481E-08
       187  19 -7.669398E+05 -3.271027E+06 -7.770324E+05  1.214387E+06  1.312732E+05 -1.871112E+04
       187  20 -2.266873E+05 -1.122699E+06 -2.542799E+05  6.630074E+05  4.151287E+04 -3.490872E+04
       187  21  3.088936E+05  1.005506E+06  2.513083E+05  1.232160E+06 -5.057945E+04 -5.099638E+04
       187  22  2.153293E+02 -1.597640E+05 -5.920046E+04  1.228155E+06  1.318318E+05  4.487998E+04
       187  23  1.347721E+04 -1.472059E+05 -2.982839E+04  6.678548E+05  4.212615E+04  3.037610E+04
       187  24  2.271089E+04 -1.586540E+05 -1.611920E+04  1.227961E+06 -4.989428E+04  1.603827E+04
       187  25  7.666936E+05  2.960492E+06  6.580029E+05  1.241964E+06  1.323916E+05  1.087881E+05
       187  26  2.535775E+05  8.291780E+05  1.945761E+05  6.727075E+05  4.273991E+04  9.576279E+04
       187  27 -2.635639E+05 -1.321551E+06 -2.836193E+05  1.223765E+06 -4.920925E+04  8.294836E+04
       188   1  8.106116E+05  3.066759E+06  7.288166E+05  1.249406E+06  1.382582E+05  1.120846E+05
       188   2  1.318355E+06  5.197139E+06  1.229574E+06  6.961482E+05  2.099474E+05 -3.356439E+04
       188   3  1.872893E+06  7.363233E+06  1.835545E+06  1.255538E+06  7.637955E+04 -1.785365E+05
       188   4  1.939921E+04 -1.542167E+05 -1.077177E+04  1.226424E+06  1.370646E+05 -1.497966E+04
       188   5  2.604591E+03 -1.601784E+05 -7.194042E+03  6.698294E+05  2.102252E+05 -1.189372E+04
       188   6  7.265875E+03 -1.602523E+05 -9.925922E+02  1.226480E+06  7.734021E+04 -7.624996E+03
       188   7 -7.725269E+05 -3.365583E+06 -7.509846E+05  1.203530E+06  1.358768E+05 -1.413923E+05
       188   8 -1.315154E+06 -5.491101E+06 -1.245873E+06  6.436786E+05  2.105027E+05  9.592842E+03
       188   9 -1.862515E+06 -7.632463E+06 -1.841546E+06  1.197658E+06  7.829253E+04  1.612387E+05
       188  10  8.105878E+05  3.066741E+06  7.287573E+05  1.249394E+06  3.757126E-09 -7.633897E-09
       188  11  1.318308E+06  5.197126E+06  1.229489E+06  6.961538E+05  3.507311E-09 -1.376564E-08
       188  12  1.872878E+06  7.363197E+06  1.835475E+06  1.255549E+06  1.854089E-09 -2.093098E-09
       188  13  1.937897E+04 -1.542220E+05 -1.080752E+04  1.226426E+06 -6.836325E-09  1.774297E-08
       188  14  2.557094E+03 -1.601904E+05 -7.277365E+03  6.698314E+05  3.652935E-10  5.364553E-10
       188  15  7.259435E+03 -1.602540E+05 -1.003947E+03  1.226480E+06  9.853848E-10  6.644862E-11
       188  16 -7.725522E+05 -3.365610E+06 -7.510573E+05  1.203546E+06 -4.369928E-09 -6.650251E-10
       188  17 -1.315201E+06 -5.491113E+06 -1.245956E+06  6.436770E+05 -5.485868E-09 -1.036688E-08
       188  18 -1.862528E+06 -7.632493E+06 -1.841607E+06  1.197648E+06  1.119563E-09 -9.043765E-10
       188  19  8.106116E+05  3.066759E+06  7.288166E+05  1.249406E+06 -1.382582E+05 -1.120846E+05
       188  20  1.318355E+06  5.197139E+06  1.229574E+06  6.961482E+05 -2.099474E+05  3.356439E+04
       188  21  1.872893E+06  7.363233E+06  1.835545E+06  1.255538E+06 -7.637955E+04  1.785365E+05
       188  22  1.939921E+04 -1.542167E+05 -1.077177E+04  1.226424E+06 -1.370646E+05  1.497966E+04
       188  23  2.604591E+03 -1.601784E+05 -7.194042E+03  6.698294E+05 -2.102252E+05  1.189372E+04
       188  24  7.265875E+03 -1.602523E+05 -9.925922E+02  1.226480E+06 -7.734021E+04  7.624996E+03
       188  25 -7.725269E+05 -3.365583E+06 -7.509846E+05  1.203530E+06 -1.358768E+05  1.413923E+05
       188  26 -1.315154E+06 -5.491101E+06 -1.245873E+06  6.436786E+05 -2.105027E+05 -9.592842E+03
       188  27 -1.862515E+06 -7.632463E+06 -1.841546E+06  1.197658E+06 -7.829253E+04 -1.612387E+05
       189   1  3.082778E+06  6.222105E+05  6.155092E+05  3.046422E+05  6.920512E+04 -2.681032E+04
       189   2  2.552278E+06  4.731742E+05  4.527203E+05  1.666164E+05  1.826118E+04 -7.666227E+04
       189   3  2.036118E+06  3.465812E+05  3.289386E+05  2.995495E+05 -3.264973E+04 -6.111066E+04
       189   4  6.240952E+05  1.139186E+04  1.473727E+04  2.997037E+05  9.534959E+03 -2.681678E+04
       189   5  6.213967E+05 -1.465885E+03  6.837077E+03  1.642008E+05  5.893405E+03 -7.668722E+04
       189   6  6.246295E+05 -1.729598E+01  5.232791E+03  2.997058E+05  2.241366E+03 -6.106425E+04
       189   7 -1.829091E+06 -5.998708E+05 -5.864622E+05  2.947835E+05 -4.990037E+04 -2.682235E+04
       189   8 -1.306049E+06 -4.763669E+05 -4.392939E+05  1.617917E+05 -6.436338E+03 -7.671214E+04
       189   9 -7.850170E+05 -3.467537E+05 -3.185996E+05  2.998606E+05  3.705399E+04 -6.101776E+04
       189  10  3.082773E+06  6.222085E+05  6.154989E+05  3.046437E+05 -3.661155E-09  7.884071E-10
       189  11  2.552276E+06  4.731678E+05  4.527086E+05  1.666175E+05 -2.081486E-09 -6.577687E-10
       189  12  2.036116E+06  3.465769E+05  3.289296E+05  2.995479E+05 -9.519221E-11  5.302362E-10
       189  13  6.240949E+05  1.139107E+04  1.473575E+04  2.997039E+05 -4.729771E-10 -2.917610E-10
       189  14  6.213950E+05 -1.472211E+03  6.825957E+03  1.642011E+05 -3.332982E-09 -2.237161E-09
       189  15  6.246285E+05 -2.130271E+01  5.225772E+03  2.997059E+05 -5.469967E-09 -7.406087E-10
       189  16 -1.829094E+06 -5.998723E+05 -5.864682E+05  2.947824E+05  8.365393E-10  9.391209E-10
       189  17 -1.306051E+06 -4.763733E+05 -4.393050E+05  1.617913E+05 -3.421974E-09  1.396715E-09
       189  18 -7.850194E+05 -3.467581E+05 -3.186092E+05  2.998624E+05 -3.687958E-09 -2.270273E-09
       189  19  3.082778E+06  6.222105E+05  6.155092E+05  3.046422E+05 -6.920512E+04  2.681032E+04
       189  20  2.552278E+06  4.731742E+05  4.527203E+05  1.666164E+05 -1.826118E+04  7.666227E+04
       189  21  2.036118E+06  3.465812E+05  3.289386E+05  2.995495E+05  3.264973E+04  6.111066E+04
       189  22  6.240952E+05  1.139186E+04  1.473727E+04  2.997037E+05 -9.534959E+03  2.681678E+04
       189  23  6.213967E+05 -1.465885E+03  6.837077E+03  1.642008E+05 -5.893405E+03  7.668722E+04
       189  24  6.246295E+05 -1.729598E+01  5.232791E+03  2.997058E+05 -2.241366E+03  6.106425E+04
       189  25 -1.829091E+06 -5.998708E+05 -5.864622E+05  2.947835E+05  4.990037E+04  2.682235E+04
       189  26 -1.306049E+06 -4.763669E+05 -4.392939E+05  1.617917E+05  6.436338E+03  7.671214E+04
       189  27 -7.850170E+05 -3.467537E+05 -3.185996E+05  2.998606E+05 -3.705399E+04  6.101776E+04
       190   1  1.534912E+06  2.255334E+05  2.142910E+05  3.015354E+05 -1.336798E+04 -3.843652E+04
       190   2  1.014195E+06  9.644968E+04  9.425329E+04  1.644368E+05 -1.780257E+04 -1.655089E+04
       190   3  4.939846E+05 -3.015291E+04 -2.252983E+04  2.997309E+05 -2.225247E+04  8.359511E+03
       190   4  6.235658E+05  1.577711E+03  4.742841E+03  3.000140E+05  1.329691E+03 -3.841258E+04
       190   5  6.236848E+05  4.597575E+02  4.457940E+03  1.638127E+05 -9.277245E+02 -1.651872E+04
       190   6  6.236734E+05  1.461765E+03  5.929840E+03  3.000143E+05 -3.204110E+03  8.401723E+03
       190   7 -2.870128E+05 -2.224358E+05 -2.048595E+05  2.984943E+05  1.600600E+04 -3.838870E+04
       190   8  2.333160E+05 -9.554065E+04 -8.534643E+04  1.631890E+05  1.593661E+04 -1.648657E+04
       190   9  7.533787E+05  3.307551E+04  3.438985E+04  3.002978E+05  1.584817E+04  8.443948E+03
       190  10  1.534911E+06  2.255318E+05  2.142879E+05  3.015350E+05 -6.281912E-09  1.767890E-09
       190  11  1.014195E+06  9.644930E+04  9.425218E+04  1.644365E+05 -7.450163E-10  1.622946E-09
       190  12  4.939841E+05 -3.015312E+04 -2.253089E+04  2.997311E+05  1.941827E-09  6.193384E-09
       190  13  6.235654E+05  1.576125E+03  4.740064E+03  3.000140E+05 -6.008542E-09  6.381991E-09
       190  14  6.236848E+05  4.594641E+02  4.457426E+03  1.638127E+05 -6.060969E-09 -1.471314E-08
       190  15  6.236734E+05  1.461686E+03  5.929688E+03  3.000143E+05 -1.972722E-09  6.086766E-09
       190  16 -2.870134E+05 -2.224375E+05 -2.048627E+05  2.984948E+05 -1.484198E-09 -7.255516E-09
       190  17  2.333157E+05 -9.554101E+04 -8.534742E+04  1.631892E+05 -2.457347E-09 -5.176253E-09
       190  18  7.533784E+05  3.307537E+04  3.438924E+04  3.002977E+05 -2.539271E-09 -3.264755E-10
       190  19  1.534912E+06  2.255334E+05  2.142910E+05  3.015354E+05  1.336798E+04  3.843652E+04
       190  20  1.014195E+06  9.644968E+04  9.425329E+04  1.644368E+05  1.780257E+04  1.655089E+04
       190  21  4.939846E+05 -3.015291E+04 -2.252983E+04  2.997309E+05  2.225247E+04 -8.359511E+03
       190  22  6.235658E+05  1.577711E+03  4.742841E+03  3.000140E+05 -1.329691E+03  3.841258E+04
       190  23  6.236848E+05  4.597575E+02  4.457940E+03  1.638127E+05  9.277245E+02  1.651872E+04
       190  24  6.236734E+05  1.461765E+03  5.929840E+03  3.000143E+05  3.204110E+03 -8.401723E+03
       190  25 -2.870128E+05 -2.224358E+05 -2.048595E+05  2.984943E+05 -1.600600E+04  3.838870E+04
       190  26  2.333160E+05 -9.554065E+04 -8.534643E+04  1.631890E+05 -1.593661E+04  1.648657E+04
       190  27  7.533787E+05  3.307551E+04  3.438985E+04  3.002978E+05 -1.584817E+04 -8.443948E+03
       191   1 -3.509946E+03 -1.537366E+05 -1.383256E+05  2.999960E+05 -2.374043E+04  2.416054E+04
       191   2 -5.251172E+05 -2.826497E+05 -2.527413E+05  1.621195E+05 -2.659308E+04  4.902940E+04
       191   3 -1.044517E+06 -4.051113E+05 -3.637519E+05  2.969317E+05 -2.939613E+04  6.992543E+04
       191   4  6.241555E+05  8.580403E+02  7.190374E+03  3.000727E+05 -4.412661E+03  2.420007E+04
       191   5  6.227686E+05 -2.752308E+02  1.122622E+04  1.637410E+05 -1.013987E+04  4.904838E+04
       191   6  6.238363E+05  5.554368E+03  2.066928E+04  3.000659E+05 -1.581983E+04  6.992811E+04
       191   7  1.252185E+06  1.554252E+05  1.526813E+05  3.001491E+05  1.493451E+04  2.423957E+04
       191   8  1.771874E+06  2.820074E+05  2.751076E+05  1.653649E+05  6.343558E+03  4.906742E+04
       191   9  2.294767E+06  4.160255E+05  4.049065E+05  3.032072E+05 -2.207242E+03  6.993092E+04
       191  10 -3.510709E+03 -1.537374E+05 -1.383277E+05  2.999965E+05  5.172909E-09 -2.416477E-09
       191  11 -5.251186E+05 -2.826524E+05 -2.527471E+05  1.621205E+05 -6.356696E-10 -1.674940E-09
       191  12 -1.044520E+06 -4.051168E+05 -3.637627E+05  2.969334E+05  2.909949E-09 -4.740051E-09
       191  13  6.241553E+05  8.574059E+02  7.189237E+03  3.000728E+05  2.147703E-09 -2.411387E-09
       191  14  6.227678E+05 -2.778427E+02  1.122151E+04  1.637414E+05  5.615652E-10 -5.587437E-09
       191  15  6.238347E+05  5.549047E+03  2.065961E+04  3.000668E+05 -1.612160E-09  1.173096E-09
       191  16  1.252185E+06  1.554245E+05  1.526798E+05  3.001488E+05 -2.787727E-09 -7.145258E-09
       191  17  1.771874E+06  2.820048E+05  2.751030E+05  1.653647E+05  1.111063E-09 -4.896180E-09
       191  18  2.294765E+06  4.160202E+05  4.048972E+05  3.032073E+05 -3.593370E-11  1.869926E-09
       191  19 -3.509946E+03 -1.537366E+05 -1.383256E+05  2.999960E+05  2.374043E+04 -2.416054E+04
       191  20 -5.251172E+05 -2.826497E+05 -2.527413E+05  1.621195E+05  2.659308E+04 -4.902940E+04
       191  21 -1.044517E+06 -4.051113E+05 -3.637519E+05  2.969317E+05  2.939613E+04 -6.992543E+04
       191  22  6.241555E+05  8.580403E+02  7.190374E+03  3.000727E+05  4.412661E+03 -2.420007E+04
       191  23  6.227686E+05 -2.752308E+02  1.122622E+04  1.637410E+05  1.013987E+04 -4.904838E+04
       191  24  6.238363E+05  5.554368E+03  2.066928E+04  3.000659E+05  1.581983E+04 -6.992811E+04
       191  25  1.252185E+06  1.554252E+05  1.526813E+05  3.001491E+05 -1.493451E+04 -2.423957E+04
       191  26  1.771874E+06  2.820074E+05  2.751076E+05  1.653649E+05 -6.343558E+03 -4.906742E+04
       191  27  2.294767E+06  4.160255E+05  4.049065E+05  3.032072E+05  2.207242E+03 -6.993092E+04
       192   1 -1.539204E+06 -5.380114E+05 -4.722244E+05  3.101092E+05 -5.910595E+04  9.477163E+04
       192   2 -2.072114E+06 -6.692626E+05 -5.802062E+05  1.554545E+05 -2.087418E+04  1.076784E+05
       192   3 -2.586550E+06 -7.265065E+05 -6.936623E+05  2.722124E+05  1.720981E+04  3.646949E+04
       192   4  6.291899E+05 -4.486984E+03  2.574720E+04  2.997535E+05 -1.969466E+04  9.477694E+04
       192   5  6.144863E+05 -7.086927E+03  4.159133E+04  1.641343E+05 -4.192554E+04  1.076574E+05
       192   6  6.284256E+05  7.467008E+04  9.392233E+04  2.998433E+05 -6.427329E+04  3.658628E+04
       192   7  2.801945E+06  5.287107E+05  5.234145E+05  2.893595E+05  1.985350E+04  9.478092E+04
       192   8  3.307768E+06  6.545820E+05  6.629081E+05  1.728522E+05 -6.306724E+04  1.076359E+05
       192   9  3.852853E+06  8.750876E+05  8.807758E+05  3.276197E+05 -1.461781E+05  3.669558E+04
       192  10 -1.539210E+06 -5.380220E+05 -4.722479E+05  3.101138E+05  1.057956E-08 -1.717802E-09
       192  11 -2.072118E+06 -6.692751E+05 -5.802288E+05  1.554563E+05 -1.694588E-09 -5.631730E-10
       192  12 -2.586550E+06 -7.265080E+05 -6.936654E+05  2.722119E+05 -3.078867E-09 -1.526195E-09
       192  13  6.291870E+05 -4.496738E+03  2.572958E+04  2.997550E+05 -2.162449E-09  1.883329E-09
       192  14  6.144813E+05 -7.099849E+03  4.156624E+04  1.641380E+05 -1.721817E-10  2.797911E-09
       192  15  6.284208E+05  7.466753E+04  9.391205E+04  2.998452E+05 -2.815409E-09  2.851267E-09
       192  16  2.801942E+06  5.287010E+05  5.233969E+05  2.893580E+05 -7.834146E-09  3.662241E-09
       192  17  3.307761E+06  6.545685E+05  6.628789E+05  1.728576E+05 -1.154197E-09  4.550093E-09
       192  18  3.852830E+06  8.750805E+05  8.807334E+05  3.276240E+05  2.088691E-09 -7.177408E-10
       192  19 -1.539204E+06 -5.380114E+05 -4.722244E+05  3.101092E+05  5.910595E+04 -9.477163E+04
       192  20 -2.072114E+06 -6.692626E+05 -5.802062E+05  1.554545E+05  2.087418E+04 -1.076784E+05
       192  21 -2.586550E+06 -7.265065E+05 -6.936623E+05  2.722124E+05 -1.720981E+04 -3.646949E+04
       192  22  6.291899E+05 -4.486984E+03  2.574720E+04  2.997535E+05  1.969466E+04 -9.477694E+04
       192  23  6.144863E+05 -7.086927E+03  4.159133E+04  1.641343E+05  4.192554E+04 -1.076574E+05
       192  24  6.284256E+05  7.467008E+04  9.392233E+04  2.998433E+05  6.427329E+04 -3.658628E+04
       192  25  2.801945E+06  5.287107E+05  5.234145E+05  2.893595E+05 -1.985350E+04 -9.478092E+04
       192  26  3.307768E+06  6.545820E+05  6.629081E+05  1.728522E+05  6.306724E+04 -1.076359E+05
       192  27  3.852853E+06  8.750876E+05  8.807758E+05  3.276197E+05  1.461781E+05 -3.669558E+04
       193   1 -1.823183E+06 -7.035397E+06 -1.832065E+06  9.405219E+05 -7.332165E+04 -2.825683E+05
       193   2 -1.259951E+06 -5.447534E+06 -1.276123E+06  4.908871E+05 -2.050052E+05 -1.083365E+05
       193   3 -8.663342E+05 -3.915759E+06 -8.755967E+05  8.540825E+05 -1.550196E+05  6.569681E+04
       193   4 -1.470736E+05 -3.324835E+05 -1.828596E+05  8.956822E+05 -7.275091E+04 -1.240275E+05
       193   5  8.874243E+03 -3.127989E+05 -8.381506E+04  4.891014E+05 -2.047385E+05 -7.889466E+04
       193   6  1.879822E+04 -3.282165E+05 -4.921740E+04  8.950587E+05 -1.556998E+05 -3.441129E+04
       193   7  1.525708E+06  6.411690E+06  1.463130E+06  8.502932E+05 -7.220749E+04  3.624272E+04
       193   8  1.275838E+06  4.846431E+06  1.106724E+06  4.872616E+05 -2.044733E+05 -4.920727E+04
       193   9  9.030379E+05  3.271309E+06  7.763461E+05  9.362447E+05 -1.563910E+05 -1.350956E+05
       193  10 -1.823210E+06 -7.035485E+06 -1.832227E+06  9.405051E+05 -1.321988E-09 -6.943297E-09
       193  11 -1.260000E+06 -5.447558E+06 -1.276225E+06  4.908692E+05  1.609523E-09 -4.724045E-09
       193  12 -8.663612E+05 -3.915770E+06 -8.756501E+05  8.540907E+05  2.301935E-09 -1.130967E-10
       193  13 -1.470834E+05 -3.325014E+05 -1.828984E+05  8.956750E+05 -1.424766E-09  1.528892E-11
       193  14  8.827582E+03 -3.128168E+05 -8.390546E+04  4.890884E+05 -2.625244E-09 -2.698058E-09
       193  15  1.877188E+04 -3.282243E+05 -4.926514E+04  8.950544E+05  4.635987E-09 -9.989324E-09
       193  16  1.525702E+06  6.411687E+06  1.463118E+06  8.502953E+05 -1.272867E-09  5.146032E-09
       193  17  1.275793E+06  4.846418E+06  1.106641E+06  4.872535E+05 -8.533403E-09 -5.348594E-09
       193  18  9.030068E+05  3.271283E+06  7.762662E+05  9.362277E+05  1.605818E-08 -1.281622E-08
       193  19 -1.823183E+06 -7.035397E+06 -1.832065E+06  9.405219E+05  7.332165E+04  2.825683E+05
       193  20 -1.259951E+06 -5.447534E+06 -1.276123E+06  4.908871E+05  2.050052E+05  1.083365E+05
       193  21 -8.663342E+05 -3.915759E+06 -8.755967E+05  8.540825E+05  1.550196E+05 -6.569681E+04
       193  22 -1.470736E+05 -3.324835E+05 -1.828596E+05  8.956822E+05  7.275091E+04  1.240275E+05
       193  23  8.874243E+03 -3.127989E+05 -8.381506E+04  4.891014E+05  2.047385E+05  7.889466E+04
       193  24  1.879822E+04 -3.282165E+05 -4.921740E+04  8.950587E+05  1.556998E+05  3.441129E+04
       193  25  1.525708E+06  6.411690E+06  1.463130E+06  8.502932E+05  7.220749E+04 -3.624272E+04
       193  26  1.275838E+06  4.846431E+06  1.106724E+06  4.872616E+05  2.044733E+05  4.920727E+04
       193  27  9.030379E+05  3.271309E+06  7.763461E+05  9.362447E+05  1.563910E+05  1.350956E+05
       194   1 -5.145637E+05 -2.412122E+06 -5.229186E+05  8.895351E+05 -8.820672E+04  1.900398E+04
       194   2 -1.210796E+05 -8.406440E+05 -1.447032E+05  4.848726E+05 -2.235429E+04  3.138976E+04
       194   3  2.672401E+05  7.165011E+05  2.207076E+05  8.997909E+05  4.476484E+04  4.373980E+04
       194   4  5.547466E+02 -3.219763E+05 -4.094091E+04  8.968410E+05 -8.856753E+04 -2.782039E+04
       194   5  8.673932E+03 -3.135470E+05 -2.343547E+04  4.870326E+05 -2.273676E+04 -1.636138E+04
       194   6  1.197049E+04 -3.215355E+05 -1.792764E+04  8.967551E+05  4.435192E+04 -4.969418E+03
       194   7  5.153681E+05  1.772226E+06  4.407547E+05  9.041609E+05 -8.892875E+04 -7.480151E+04
       194   8  1.384093E+05  2.138123E+05  9.782248E+04  4.891939E+05 -2.311937E+04 -6.415277E+04
       194   9 -2.433731E+05 -1.358570E+06 -2.566252E+05  8.937217E+05  4.393907E+04 -5.359790E+04
       194  10 -5.145722E+05 -2.412125E+06 -5.229340E+05  8.895364E+05  1.388296E-09 -1.006156E-08
       194  11 -1.210805E+05 -8.406452E+05 -1.447060E+05  4.848732E+05 -4.200792E-09 -1.093283E-08
       194  12  2.672375E+05  7.164985E+05  2.207003E+05  8.997893E+05 -9.426069E-10 -3.069303E-09
       194  13  5.461220E+02 -3.219792E+05 -4.095708E+04  8.968390E+05  4.758260E-09 -2.152880E-09
       194  14  8.673305E+03 -3.135474E+05 -2.343695E+04  4.870323E+05  1.859559E-09 -2.784485E-09
       194  15  1.196838E+04 -3.215361E+05 -1.793138E+04  8.967553E+05  5.602307E-09 -1.137217E-08
       194  16  5.153581E+05  1.772218E+06  4.407294E+05  9.041556E+05  8.018459E-09  4.353172E-09
       194  17  1.384076E+05  2.138077E+05  9.781375E+04  4.891927E+05 -2.312350E-09  6.122985E-09
       194  18 -2.433760E+05 -1.358574E+06 -2.566343E+05  8.937236E+05  6.202581E-09 -8.014149E-09
       194  19 -5.145637E+05 -2.412122E+06 -5.229186E+05  8.895351E+05  8.820672E+04 -1.900398E+04
       194  20 -1.210796E+05 -8.406440E+05 -1.447032E+05  4.848726E+05  2.235429E+04 -3.138976E+04
       194  21  2.672401E+05  7.165011E+05  2.207076E+05  8.997909E+05 -4.476484E+04 -4.373980E+04
       194  22  5.547466E+02 -3.219763E+05 -4.094091E+04  8.968410E+05  8.856753E+04  2.782039E+04
       194  23  8.673932E+03 -3.135470E+05 -2.343547E+04  4.870326E+05  2.273676E+04  1.636138E+04
       194  24  1.197049E+04 -3.215355E+05 -1.792764E+04  8.967551E+05 -4.435192E+04  4.969418E+03
       194  25  5.153681E+05  1.772226E+06  4.407547E+05  9.041609E+05  8.892875E+04  7.480151E+04
       194  26  1.384093E+05  2.138123E+05  9.782248E+04  4.891939E+05  2.311937E+04  6.415277E+04
       194  27 -2.433731E+05 -1.358570E+06 -2.566252E+05  8.937217E+05 -4.393907E+04  5.359790E+04
       195   1  6.381719E+05  2.221439E+06  5.676652E+05  9.145460E+05  1.093567E+05  9.119007E+04
       195   2  1.012102E+06  3.782750E+06  9.282720E+05  5.026582E+05  1.612809E+05 -1.083142E+04
       195   3  1.389432E+06  5.359898E+06  1.355257E+06  9.041807E+05  5.840855E+04 -1.123249E+05
       195   4  1.340142E+04 -3.204929E+05 -1.621248E+04  8.954513E+05  1.086211E+05 -2.839537E+03
       195   5  3.822966E+03 -3.192850E+05 -1.945685E+04  4.886555E+05  1.614632E+05  7.076352E+03
       195   6 -2.163426E+04 -3.238783E+05 -3.374821E+04  8.956209E+05  5.905125E+04  1.777810E+04
       195   7 -6.118144E+05 -2.856437E+06 -6.004839E+05  8.764194E+05  1.078895E+05 -9.648825E+04
       195   8 -1.005635E+06 -4.405822E+06 -9.683073E+05  4.747166E+05  1.616455E+05  2.486709E+04
       195   9 -1.435076E+06 -5.978332E+06 -1.425049E+06  8.870854E+05  5.969405E+04  1.466996E+05
       195  10  6.381569E+05  2.221427E+06  5.676272E+05  9.145380E+05  2.338803E-09 -1.328167E-08
       195  11  1.012074E+06  3.782743E+06  9.282229E+05  5.026596E+05 -1.996445E-09 -1.558835E-08
       195  12  1.389425E+06  5.359883E+06  1.355227E+06  9.041860E+05  6.985861E-10 -2.407625E-09
       195  13  1.338875E+04 -3.204961E+05 -1.623467E+04  8.954516E+05  2.098839E-09  1.084259E-09
       195  14  3.794962E+03 -3.192920E+05 -1.950592E+04  4.886546E+05 -4.122236E-09 -1.592898E-09
       195  15 -2.163809E+04 -3.238796E+05 -3.375535E+04  8.956201E+05 -1.729304E-09 -2.413173E-09
       195  16 -6.118295E+05 -2.856450E+06 -6.005234E+05  8.764278E+05  7.240051E-09  8.900664E-09
       195  17 -1.005663E+06 -4.405830E+06 -9.683576E+05  4.747134E+05 -9.946930E-09  1.057506E-08
       195  18 -1.435086E+06 -5.978356E+06 -1.425096E+06  8.870783E+05 -1.790534E-09 -3.142795E-09
       195  19  6.381719E+05  2.221439E+06  5.676652E+05  9.145460E+05 -1.093567E+05 -9.119007E+04
       195  20  1.012102E+06  3.782750E+06  9.282720E+05  5.026582E+05 -1.612809E+05  1.083142E+04
       195  21  1.389432E+06  5.359898E+06  1.355257E+06  9.041807E+05 -5.840855E+04  1.123249E+05
       195  22  1.340142E+04 -3.204929E+05 -1.621248E+04  8.954513E+05 -1.086211E+05  2.839537E+03
       195  23  3.822966E+03 -3.192850E+05 -1.945685E+04  4.886555E+05 -1.614632E+05 -7.076352E+03
       195  24 -2.163426E+04 -3.238783E+05 -3.374821E+04  8.956209E+05 -5.905125E+04 -1.777810E+04
       195  25 -6.118144E+05 -2.856437E+06 -6.004839E+05  8.764194E+05 -1.078895E+05  9.648825E+04
       195  26 -1.005635E+06 -4.405822E+06 -9.683073E+05  4.747166E+05 -1.616455E+05 -2.486709E+04
       195  27 -1.435076E+06 -5.978332E+06 -1.425049E+06  8.870854E+05 -5.969405E+04 -1.466996E+05
       196   1  1.205280E+06  2.553920E+05  2.525178E+05  1.483940E+05  2.502612E+04 -1.085505E+04
       196   2  9.415922E+05  1.863414E+05  1.768517E+05  8.063261E+04  4.329401E+03 -3.000529E+04
       196   3  6.829232E+05  1.223260E+05  1.160672E+05  1.484547E+05 -1.630228E+04 -2.139157E+04
       196   4  1.829407E+05  1.028974E+03  2.205130E+03  1.492676E+05  1.178460E+03 -1.080641E+04
       196   5  1.822510E+05 -5.575750E+02  1.202869E+03  8.146895E+04  5.054091E+02 -3.000085E+04
       196   6  1.830454E+05 -5.745639E+02  1.198491E+03  1.492640E+05 -1.116147E+02 -2.141624E+04
       196   7 -8.384471E+05 -2.534111E+05 -2.481819E+05  1.501400E+05 -2.263007E+04 -1.075780E+04
       196   8 -5.765580E+05 -1.874971E+05 -1.744844E+05  8.230447E+04 -3.313946E+03 -2.999641E+04
       196   9 -3.166006E+05 -1.234924E+05 -1.136857E+05  1.500728E+05  1.606613E+04 -2.144087E+04
       196  10  1.205280E+06  2.553917E+05  2.525164E+05  1.483943E+05 -3.820571E-09 -3.786849E-10
       196  11  9.415920E+05  1.863405E+05  1.768499E+05  8.063272E+04 -1.821061E-10  9.846104E-10
       196  12  6.829228E+05  1.223255E+05  1.160658E+05  1.484544E+05  4.796598E-09  2.553662E-09
       196  13  1.829407E+05  1.028849E+03  2.204907E+03  1.492676E+05 -2.023511E-09 -5.517467E-09
       196  14  1.822507E+05 -5.585417E+02  1.201177E+03  8.146896E+04  1.631601E-09 -3.422096E-09
       196  15  1.830453E+05 -5.750564E+02  1.197629E+03  1.492640E+05  1.365340E-09  1.634343E-09
       196  16 -8.384476E+05 -2.534113E+05 -2.481830E+05  1.501398E+05  3.202346E-09  2.894221E-10
       196  17 -5.765583E+05 -1.874980E+05 -1.744861E+05  8.230439E+04  3.240076E-09  5.809021E-09
       196  18 -3.166010E+05 -1.234930E+05 -1.136871E+05  1.500730E+05 -1.069895E-09  3.254871E-09
       196  19  1.205280E+06  2.553920E+05  2.525178E+05  1.483940E+05 -2.502612E+04  1.085505E+04
       196  20  9.415922E+05  1.863414E+05  1.768517E+05  8.063261E+04 -4.329401E+03  3.000529E+04
       196  21  6.829232E+05  1.223260E+05  1.160672E+05  1.484547E+05  1.630228E+04  2.139157E+04
       196  22  1.829407E+05  1.028974E+03  2.205130E+03  1.492676E+05 -1.178460E+03  1.080641E+04
       196  23  1.822510E+05 -5.575750E+02  1.202869E+03  8.146895E+04 -5.054091E+02  3.000085E+04
       196  24  1.830454E+05 -5.745639E+02  1.198491E+03  1.492640E+05  1.116147E+02  2.141624E+04
       196  25 -8.384471E+05 -2.534111E+05 -2.481819E+05  1.501400E+05  2.263007E+04  1.075780E+04
       196  26 -5.765580E+05 -1.874971E+05 -1.744844E+05  8.230447E+04  3.313946E+03  2.999641E+04
       196  27 -3.166006E+05 -1.234924E+05 -1.136857E+05  1.500728E+05 -1.606613E+04  2.144087E+04
       197   1  4.326562E+05  6.106320E+04  5.869466E+04  1.492725E+05 -7.971644E+03 -1.065055E+04
       197   2  1.716148E+05 -2.957086E+03 -7.802144E+02  8.126352E+04 -9.697366E+03  6.087491E+02
       197   3 -8.856862E+04 -6.692330E+04 -5.900701E+04  1.497468E+05 -1.141998E+04  1.312752E+04
       197   4  1.829041E+05 -3.534124E+02  1.276163E+03  1.494647E+05 -3.171553E+02 -1.066123E+04
       197   5  1.825827E+05 -2.712912E+02  1.682188E+03  8.121864E+04 -1.137223E+03  5.966260E+02
       197   6  1.829026E+05 -2.869380E+02  2.711703E+03  1.494648E+05 -1.954893E+03  1.311419E+04
       197   7 -6.679019E+04 -6.177434E+04 -5.614624E+04  1.496569E+05  7.334281E+03 -1.067191E+04
       197   8  1.935509E+05  2.414535E+03  4.144857E+03  8.117376E+04  7.423069E+03  5.845017E+02
       197   9  4.544424E+05  6.634438E+04  6.442597E+04  1.491826E+05  7.514300E+03  1.310085E+04
       197  10  4.326561E+05  6.106306E+04  5.869433E+04  1.492724E+05  2.405024E-09  1.067714E-10
       197  11  1.716147E+05 -2.957112E+03 -7.803918E+02  8.126352E+04 -3.684094E-10 -6.185831E-10
       197  12 -8.856880E+04 -6.692352E+04 -5.900758E+04  1.497469E+05  4.274851E-09 -4.334519E-09
       197  13  1.829040E+05 -3.535345E+02  1.275949E+03  1.494647E+05  4.324867E-09  1.171317E-10
       197  14  1.825827E+05 -2.712919E+02  1.682184E+03  8.121864E+04  4.750223E-09 -1.652168E-09
       197  15  1.829026E+05 -2.871237E+02  2.711372E+03  1.494648E+05  8.895003E-10 -3.895014E-09
       197  16 -6.679028E+04 -6.177448E+04 -5.614655E+04  1.496570E+05 -2.881435E-09 -1.464248E-09
       197  17  1.935508E+05  2.414520E+03  4.144753E+03  8.117375E+04  5.225909E-10  3.144144E-09
       197  18  4.544423E+05  6.634418E+04  6.442554E+04  1.491825E+05 -1.968777E-09 -2.942949E-09
       197  19  4.326562E+05  6.106320E+04  5.869466E+04  1.492725E+05  7.971644E+03  1.065055E+04
       197  20  1.716148E+05 -2.957086E+03 -7.802144E+02  8.126352E+04  9.697366E+03 -6.087491E+02
       197  21 -8.856862E+04 -6.692330E+04 -5.900701E+04  1.497468E+05  1.141998E+04 -1.312752E+04
       197  22  1.829041E+05 -3.534124E+02  1.276163E+03  1.494647E+05  3.171553E+02  1.066123E+04
       197  23  1.825827E+05 -2.712912E+02  1.682188E+03  8.121864E+04  1.137223E+03 -5.966260E+02
       197  24  1.829026E+05 -2.869380E+02  2.711703E+03  1.494648E+05  1.954893E+03 -1.311419E+04
       197  25 -6.679019E+04 -6.177434E+04 -5.614624E+04  1.496569E+05 -7.334281E+03  1.067191E+04
       197  26  1.935509E+05  2.414535E+03  4.144857E+03  8.117376E+04 -7.423069E+03 -5.845017E+02
       197  27  4.544424E+05  6.634438E+04  6.442597E+04  1.491826E+05 -7.514300E+03 -1.310085E+04
       198   1 -3.378584E+05 -1.289547E+05 -1.169555E+05  1.505605E+05 -1.224977E+04  2.105014E+04
       198   2 -5.994729E+05 -1.929850E+05 -1.740243E+05  8.210412E+04 -1.350154E+04  3.348851E+04
       198   3 -8.591842E+05 -2.544989E+05 -2.294318E+05  1.502123E+05 -1.474284E+04  4.367126E+04
       198   4  1.831827E+05 -6.487214E+02  3.460623E+03  1.494766E+05 -2.491506E+03  2.103465E+04
       198   5  1.820684E+05 -6.825047E+02  5.727160E+03  8.120263E+04 -5.370979E+03  3.347055E+04
       198   6  1.830745E+05  2.084760E+03  1.078608E+04  1.494825E+05 -8.240508E+03  4.365235E+04
       198   7  7.044750E+05  1.276382E+05  1.238590E+05  1.483919E+05  7.274888E+03  2.101913E+04
       198   8  9.641754E+05  1.915773E+05  1.854385E+05  8.030022E+04  2.769743E+03  3.345258E+04
       198   9  1.226339E+06  2.585924E+05  2.509320E+05  1.487518E+05 -1.727323E+03  4.363345E+04
       198  10 -3.378586E+05 -1.289552E+05 -1.169566E+05  1.505607E+05 -3.604488E-09 -2.734741E-09
       198  11 -5.994734E+05 -1.929862E+05 -1.740268E+05  8.210449E+04 -1.132869E-09 -3.557348E-09
       198  12 -8.591850E+05 -2.545010E+05 -2.294358E+05  1.502129E+05  4.661275E-09  1.460498E-09
       198  13  1.831826E+05 -6.491983E+02  3.459780E+03  1.494767E+05  2.023712E-09  1.937789E-09
       198  14  1.820681E+05 -6.837156E+02  5.725000E+03  8.120278E+04  1.833249E-09 -3.806569E-09
       198  15  1.830739E+05  2.082695E+03  1.078237E+04  1.494828E+05  1.369159E-09 -6.323367E-10
       198  16  7.044748E+05  1.276378E+05  1.238580E+05  1.483918E+05  5.894182E-09  9.465305E-10
       198  17  9.641751E+05  1.915761E+05  1.854364E+05  8.030014E+04  3.120885E-09  1.237318E-08
       198  18  1.226338E+06  2.585904E+05  2.509284E+05  1.487519E+05 -2.527845E-09 -2.502797E-09
       198  19 -3.378584E+05 -1.289547E+05 -1.169555E+05  1.505605E+05  1.224977E+04 -2.105014E+04
       198  20 -5.994729E+05 -1.929850E+05 -1.740243E+05  8.210412E+04  1.350154E+04 -3.348851E+04
       198  21 -8.591842E+05 -2.544989E+05 -2.294318E+05  1.502123E+05  1.474284E+04 -4.367126E+04
       198  22  1.831827E+05 -6.487214E+02  3.460623E+03  1.494766E+05  2.491506E+03 -2.103465E+04
       198  23  1.820684E+05 -6.825047E+02  5.727160E+03  8.120263E+04  5.370979E+03 -3.347055E+04
       198  24  1.830745E+05  2.084760E+03  1.078608E+04  1.494825E+05  8.240508E+03 -4.365235E+04
       198  25  7.044750E+05  1.276382E+05  1.238590E+05  1.483919E+05 -7.274888E+03 -2.101913E+04
       198  26  9.641754E+05  1.915773E+05  1.854385E+05  8.030022E+04 -2.769743E+03 -3.345258E+04
       198  27  1.226339E+06  2.585924E+05  2.509320E+05  1.487518E+05  1.727323E+03 -4.363345E+04
       199   1 -1.106849E+06 -3.212456E+05 -2.833437E+05  1.575078E+05 -3.117918E+04  5.673332E+04
       199   2 -1.372929E+06 -3.860378E+05 -3.368950E+05  8.001117E+04 -9.044777E+03  6.233103E+04
       199   3 -1.629966E+06 -4.132853E+05 -3.949734E+05  1.378297E+05  1.290931E+04  2.084261E+04
       199   4  1.857567E+05 -3.175755E+03  1.344079E+04  1.491578E+05 -1.020849E+04  5.667488E+04
       199   5  1.782323E+05 -3.827780E+03  2.196874E+04  8.158469E+04 -2.193402E+04  6.236038E+04
       199   6  1.855406E+05  3.889863E+04  4.948081E+04  1.493029E+05 -3.383030E+04  2.101277E+04
       199   7  1.479912E+06  3.147779E+05  3.101167E+05  1.407909E+05  1.080558E+04  5.661593E+04
       199   8  1.731620E+06  3.782133E+05  3.806724E+05  8.316376E+04 -3.485523E+04  6.238962E+04
       199   9  2.004061E+06  4.908403E+05  4.937022E+05  1.608123E+05 -8.070645E+04  2.118096E+04
       199  10 -1.106851E+06 -3.212493E+05 -2.833516E+05  1.575093E+05 -4.553721E-09  2.243493E-09
       199  11 -1.372930E+06 -3.860420E+05 -3.369025E+05  8.001163E+04 -4.249151E-09  2.460582E-09
       199  12 -1.629967E+06 -4.132858E+05 -3.949745E+05  1.378295E+05 -9.957889E-10 -9.829720E-09
       199  13  1.857558E+05 -3.179233E+03  1.343456E+04  1.491583E+05 -9.462709E-12 -3.686114E-09
       199  14  1.782307E+05 -3.832085E+03  2.196053E+04  8.158579E+04  1.975873E-09 -2.327885E-10
       199  15  1.855393E+05  3.889785E+04  4.947783E+04  1.493035E+05 -8.680162E-10 -3.382426E-09
       199  16  1.479911E+06  3.147745E+05  3.101105E+05  1.407904E+05  5.791464E-09 -6.717772E-09
       199  17  1.731618E+06  3.782088E+05  3.806628E+05  8.316551E+04  6.515039E-09 -6.520939E-09
       199  18  2.004053E+06  4.908381E+05  4.936892E+05  1.608136E+05 -1.794230E-10  1.156960E-09
       199  19 -1.106849E+06 -3.212456E+05 -2.833437E+05  1.575078E+05  3.117918E+04 -5.673332E+04
       199  20 -1.372929E+06 -3.860378E+05 -3.368950E+05  8.001117E+04  9.044777E+03 -6.233103E+04
       199  21 -1.629966E+06 -4.132853E+05 -3.949734E+05  1.378297E+05 -1.290931E+04 -2.084261E+04
       199  22  1.857567E+05 -3.175755E+03  1.344079E+04  1.491578E+05  1.020849E+04 -5.667488E+04
       199  23  1.782323E+05 -3.827780E+03  2.196874E+04  8.158469E+04  2.193402E+04 -6.236038E+04
       199  24  1.855406E+05  3.889863E+04  4.948081E+04  1.493029E+05  3.383030E+04 -2.101277E+04
       199  25  1.479912E+06  3.147779E+05  3.101167E+05  1.407909E+05 -1.080558E+04 -5.661593E+04
       199  26  1.731620E+06  3.782133E+05  3.806724E+05  8.316376E+04  3.485523E+04 -6.238962E+04
       199  27  2.004061E+06  4.908403E+05  4.937022E+05  1.608123E+05  8.070645E+04 -2.118096E+04
       200   1 -1.112734E+06 -4.454604E+06 -1.117421E+06  5.739755E+05 -4.538869E+04 -1.647444E+05
       200   2 -7.777297E+05 -3.470840E+06 -7.818854E+05  3.009740E+05 -1.266147E+05 -6.022460E+04
       200   3 -5.361215E+05 -2.523015E+06 -5.379668E+05  5.306479E+05 -9.575740E+04  4.399511E+04
       200   4 -7.723369E+04 -3.068074E+05 -9.851850E+04  5.533877E+05 -4.497911E+04 -6.638010E+04
       200   5  6.194760E+03 -2.946788E+05 -4.526145E+04  3.019234E+05 -1.264770E+05 -4.191988E+04
       200   6  1.053567E+04 -3.051719E+05 -2.754141E+04  5.530142E+05 -9.613894E+04 -1.792675E+04
       200   7  9.569945E+05  3.856751E+06  9.191554E+05  5.326394E+05 -4.457772E+04  3.264504E+04
       200   8  7.894082E+05  2.890838E+06  6.906868E+05  3.028641E+05 -1.263396E+05 -2.352135E+04
       200   9  5.568517E+05  1.917245E+06  4.825726E+05  5.754521E+05 -9.652419E+04 -8.006864E+04
       200  10 -1.112744E+06 -4.454634E+06 -1.117476E+06  5.739694E+05 -4.795500E-10 -6.408882E-09
       200  11 -7.777479E+05 -3.470848E+06 -7.819223E+05  3.009678E+05  8.280610E-10 -1.809579E-08
       200  12 -5.361318E+05 -2.523019E+06 -5.379877E+05  5.306513E+05 -1.509630E-09 -8.066060E-09
       200  13 -7.723704E+04 -3.068127E+05 -9.853057E+04  5.533853E+05 -3.910338E-09 -2.123131E-09
       200  14  6.177117E+03 -2.946850E+05 -4.529480E+04  3.019192E+05 -5.010957E-09  2.814275E-08
       200  15  1.052566E+04 -3.051748E+05 -2.755937E+04  5.530129E+05 -4.248778E-09 -7.685496E-09
       200  16  9.569921E+05  3.856749E+06  9.191496E+05  5.326406E+05  2.771505E-09  5.913006E-09
       200  17  7.893909E+05  2.890833E+06  6.906557E+05  3.028617E+05 -3.100197E-09  1.163682E-08
       200  18  5.568400E+05  1.917235E+06  4.825432E+05  5.754459E+05 -1.622785E-09 -3.430648E-09
       200  19 -1.112734E+06 -4.454604E+06 -1.117421E+06  5.739755E+05  4.538869E+04  1.647444E+05
       200  20 -7.777297E+05 -3.470840E+06 -7.818854E+05  3.009740E+05  1.266147E+05  6.022460E+04
       200  21 -5.361215E+05 -2.523015E+06 -5.379668E+05  5.306479E+05  9.575740E+04 -4.399511E+04
       200  22 -7.723369E+04 -3.068074E+05 -9.851850E+04  5.533877E+05  4.497911E+04  6.638010E+04
       200  23  6.194760E+03 -2.946788E+05 -4.526145E+04  3.019234E+05  1.264770E+05  4.191988E+04
       200  24  1.053567E+04 -3.051719E+05 -2.754141E+04  5.530142E+05  9.613894E+04  1.792675E+04
       200  25  9.569945E+05  3.856751E+06  9.191554E+05  5.326394E+05  4.457772E+04 -3.264504E+04
       200  26  7.894082E+05  2.890838E+06  6.906868E+05  3.028641E+05  1.263396E+05  2.352135E+04
       200  27  5.568517E+05  1.917245E+06  4.825726E+05  5.754521E+05  9.652419E+04  8.006864E+04
       201   1 -3.172606E+05 -1.592400E+06 -3.207604E+05  5.502068E+05 -5.444257E+04  1.482044E+04
       201   2 -7.497584E+04 -6.205518E+05 -8.919212E+04  2.994095E+05 -1.373368E+04  2.258561E+04
       201   3  1.638683E+05  3.425661E+05  1.345954E+05  5.554153E+05  2.775624E+04  3.033588E+04
       201   4  7.297663E+02 -3.014574E+05 -2.322840E+04  5.540820E+05 -5.463730E+04 -1.413995E+04
       201   5  4.752770E+03 -2.966272E+05 -1.467813E+04  3.006741E+05 -1.393773E+04 -6.944197E+03
       201   6  5.501846E+03 -3.012898E+05 -1.345362E+04  5.540507E+05  2.753950E+04  2.245309E+02
       201   7  3.186038E+05  9.910313E+05  2.741961E+05  5.579620E+05 -5.483217E+04 -4.316019E+04
       201   8  8.447451E+04  2.739643E+04  5.983220E+04  3.019391E+05 -1.414185E+04 -3.648930E+04
       201   9 -1.528931E+05 -9.447601E+05 -1.615267E+05  5.526866E+05  2.732277E+04 -2.985585E+04
       201  10 -3.172638E+05 -1.592401E+06 -3.207664E+05  5.502074E+05 -2.488015E-10 -5.978529E-09
       201  11 -7.497618E+04 -6.205524E+05 -8.919344E+04  2.994098E+05  6.522416E-10 -1.418034E-08
       201  12  1.638672E+05  3.425649E+05  1.345922E+05  5.554146E+05 -5.940752E-10 -7.216884E-09
       201  13  7.265085E+02 -3.014584E+05 -2.323438E+04  5.540814E+05 -8.130230E-11 -4.317359E-09
       201  14  4.752548E+03 -2.966273E+05 -1.467858E+04  3.006740E+05 -4.885411E-10  4.048914E-08
       201  15  5.501032E+03 -3.012900E+05 -1.345504E+04  5.540507E+05  1.241309E-09 -7.930711E-09
       201  16  3.186001E+05  9.910285E+05  2.741870E+05  5.579601E+05  3.505438E-09  3.783783E-09
       201  17  8.447394E+04  2.739495E+04  5.982932E+04  3.019387E+05  6.070818E-09  8.703089E-09
       201  18 -1.528941E+05 -9.447613E+05 -1.615297E+05  5.526873E+05  1.355898E-09 -4.787506E-09
       201  19 -3.172606E+05 -1.592400E+06 -3.207604E+05  5.502068E+05  5.444257E+04 -1.482044E+04
       201  20 -7.497584E+04 -6.205518E+05 -8.919212E+04  2.994095E+05  1.373368E+04 -2.258561E+04
       201  21  1.638683E+05  3.425661E+05  1.345954E+05  5.554153E+05 -2.775624E+04 -3.033588E+04
       201  22  7.297663E+02 -3.014574E+05 -2.322840E+04  5.540820E+05  5.463730E+04  1.413995E+04
       201  23  4.752770E+03 -2.966272E+05 -1.467813E+04  3.006741E+05  1.393773E+04  6.944197E+03
       201  24  5.501846E+03 -3.012898E+05 -1.345362E+04  5.540507E+05 -2.753950E+04 -2.245309E+02
       201  25  3.186038E+05  9.910313E+05  2.741961E+05  5.579620E+05  5.483217E+04  4.316019E+04
       201  26  8.447451E+04  2.739643E+04  5.983220E+04  3.019391E+05  1.414185E+04  3.648930E+04
       201  27 -1.528931E+05 -9.447601E+05 -1.615267E+05  5.526866E+05 -2.732277E+04  2.985585E+04
       202   1  3.950573E+05  1.271383E+06  3.480711E+05  5.655149E+05  6.768405E+04  6.023868E+04
       202   2  6.280271E+05  2.239333E+06  5.687325E+05  3.083906E+05  9.987667E+04  3.564045E+02
       202   3  8.492621E+05  3.210342E+06  8.245873E+05  5.543956E+05  3.619154E+04 -5.913049E+04
       202   4  8.155352E+03 -3.018645E+05 -1.350317E+04  5.532301E+05  6.728903E+04  2.117319E+03
       202   5  3.898939E+03 -2.976083E+05 -1.793472E+04  3.016768E+05  9.996815E+04  1.143192E+04
       202   6 -2.407513E+04 -3.031638E+05 -3.513093E+04  5.533902E+05  3.659383E+04  2.123483E+04
       202   7 -3.789172E+05 -1.872816E+06 -3.752284E+05  5.409719E+05  6.689576E+04 -5.585816E+04
       202   8 -6.206808E+05 -2.828613E+06 -6.050315E+05  2.949809E+05  1.000596E+05  2.246256E+04
       202   9 -8.983216E+05 -3.805442E+06 -8.957278E+05  5.523723E+05  3.699718E+04  1.011477E+05
       202  10  3.950514E+05  1.271378E+06  3.480557E+05  5.655116E+05 -2.672100E-10 -3.871166E-09
       202  11  6.280164E+05  2.239330E+06  5.687137E+05  3.083905E+05 -1.082651E-09 -1.371488E-08
       202  12  8.492598E+05  3.210338E+06  8.245783E+05  5.543974E+05  3.232457E-10 -3.233197E-09
       202  13  8.150490E+03 -3.018657E+05 -1.351168E+04  5.532300E+05 -2.502562E-09  3.337771E-11
       202  14  3.888174E+03 -2.976111E+05 -1.795374E+04  3.016759E+05 -3.557037E-09  3.379129E-08
       202  15 -2.407668E+04 -3.031646E+05 -3.513429E+04  5.533896E+05 -1.783370E-09 -4.645377E-09
       202  16 -3.789229E+05 -1.872821E+06 -3.752427E+05  5.409749E+05  3.341535E-09  4.662497E-09
       202  17 -6.206917E+05 -2.828617E+06 -6.050513E+05  2.949791E+05 -2.873928E-09  7.908169E-09
       202  18 -8.983259E+05 -3.805454E+06 -8.957497E+05  5.523693E+05 -1.817740E-09 -3.092197E-09
       202  19  3.950573E+05  1.271383E+06  3.480711E+05  5.655149E+05 -6.768405E+04 -6.023868E+04
       202  20  6.280271E+05  2.239333E+06  5.687325E+05  3.083906E+05 -9.987667E+04 -3.564045E+02
       202  21  8.492621E+05  3.210342E+06  8.245873E+05  5.543956E+05 -3.619154E+04  5.913049E+04
       202  22  8.155352E+03 -3.018645E+05 -1.350317E+04  5.532301E+05 -6.728903E+04 -2.117319E+03
       202  23  3.898939E+03 -2.976083E+05 -1.793472E+04  3.016768E+05 -9.996815E+04 -1.143192E+04
       202  24 -2.407513E+04 -3.031638E+05 -3.513093E+04  5.533902E+05 -3.659383E+04 -2.123483E+04
       202  25 -3.789172E+05 -1.872816E+06 -3.752284E+05  5.409719E+05 -6.689576E+04  5.585816E+04
       202  26 -6.206808E+05 -2.828613E+06 -6.050315E+05  2.949809E+05 -1.000596E+05 -2.246256E+04
       202  27 -8.983216E+05 -3.805442E+06 -8.957278E+05  5.523723E+05 -3.699718E+04 -1.011477E+05
       203   1 -4.750365E+05 -2.050784E+06 -4.796025E+05  2.397354E+05 -1.924297E+04 -7.549490E+04
       203   2 -3.275774E+05 -1.639081E+06 -3.347281E+05  1.247447E+05 -5.356412E+04 -2.909403E+04
       203   3 -2.280891E+05 -1.246851E+06 -2.323582E+05  2.187195E+05 -4.081716E+04  1.710744E+04
       203   4 -3.918480E+04 -3.021138E+05 -5.070480E+04  2.291447E+05 -1.903843E+04 -3.383398E+04
       203   5  3.753429E+03 -2.951142E+05 -2.339269E+04  1.245636E+05 -5.351431E+04 -2.119561E+04
       203   6  4.664741E+03 -3.018209E+05 -1.504257E+04  2.289278E+05 -4.096575E+04 -8.787712E+03
       203   7  3.964415E+05  1.449352E+06  3.779752E+05  2.185203E+05 -1.883562E+04  7.944464E+03
       203   8  3.349571E+05  1.050525E+06  2.878219E+05  1.243799E+05 -5.346457E+04 -1.328013E+04
       203   9  2.373568E+05  6.440382E+05  2.022165E+05  2.391505E+05 -4.111508E+04 -3.472202E+04
       203  10 -4.750385E+05 -2.050790E+06 -4.796140E+05  2.397342E+05  2.301168E-09  8.773995E-09
       203  11 -3.275807E+05 -1.639083E+06 -3.347350E+05  1.247434E+05  9.519921E-09  1.329039E-08
       203  12 -2.280910E+05 -1.246851E+06 -2.323619E+05  2.187200E+05  3.335417E-09  1.106554E-08
       203  13 -3.918550E+04 -3.021152E+05 -5.070763E+04  2.291442E+05 -3.404662E-09  1.109013E-09
       203  14  3.750234E+03 -2.951154E+05 -2.339891E+04  1.245627E+05  3.466442E-09  1.063378E-09
       203  15  4.662919E+03 -3.018215E+05 -1.504587E+04  2.289275E+05  1.057420E-09  1.866025E-08
       203  16  3.964411E+05  1.449352E+06  3.779744E+05  2.185204E+05  1.212499E-09  5.756399E-10
       203  17  3.349540E+05  1.050524E+06  2.878162E+05  1.243793E+05 -1.927605E-09 -1.298979E-08
       203  18  2.373546E+05  6.440365E+05  2.022111E+05  2.391493E+05  2.899411E-09 -2.502849E-08
       203  19 -4.750365E+05 -2.050784E+06 -4.796025E+05  2.397354E+05  1.924297E+04  7.549490E+04
       203  20 -3.275774E+05 -1.639081E+06 -3.347281E+05  1.247447E+05  5.356412E+04  2.909403E+04
       203  21 -2.280891E+05 -1.246851E+06 -2.323582E+05  2.187195E+05  4.081716E+04 -1.710744E+04
       203  22 -3.918480E+04 -3.021138E+05 -5.070480E+04  2.291447E+05  1.903843E+04  3.383398E+04
       203  23  3.753429E+03 -2.951142E+05 -2.339269E+04  1.245636E+05  5.351431E+04  2.119561E+04
       203  24  4.664741E+03 -3.018209E+05 -1.504257E+04  2.289278E+05  4.096575E+04  8.787712E+03
       203  25  3.964415E+05  1.449352E+06  3.779752E+05  2.185203E+05  1.883562E+04 -7.944464E+03
       203  26  3.349571E+05  1.050525E+06  2.878219E+05  1.243799E+05  5.346457E+04  1.328013E+04
       203  27  2.373568E+05  6.440382E+05  2.022165E+05  2.391505E+05  4.111508E+04  3.472202E+04
       204   1 -1.380835E+05 -8.589972E+05 -1.418221E+05  2.282870E+05 -2.357871E+04  5.403999E+03
       204   2 -3.676817E+04 -4.545884E+05 -4.545862E+04  1.234325E+05 -6.677650E+03  1.029048E+04
       204   3  6.123304E+04 -5.451876E+04  4.620038E+04  2.292626E+05  1.060269E+04  1.517344E+04
       204   4 -3.617948E+02 -2.996208E+05 -1.295155E+04  2.293838E+05 -2.365044E+04 -6.599154E+03
       204   5  1.921657E+03 -2.973835E+05 -9.299304E+03  1.240393E+05 -6.752168E+03 -1.986101E+03
       204   6  9.504243E+02 -2.995867E+05 -1.015094E+04  2.293761E+05  1.052480E+04  2.620286E+03
       204   7  1.373381E+05  2.600458E+05  1.158987E+05  2.304812E+05 -2.372218E+04 -1.861305E+04
       204   8  4.060984E+04 -1.401553E+05  2.685894E+04  1.246463E+05 -6.826699E+03 -1.426577E+04
       204   9 -5.933630E+04 -5.445987E+05 -6.650564E+04  2.294894E+05  1.044689E+04 -9.927953E+03
       204  10 -1.380841E+05 -8.589974E+05 -1.418232E+05  2.282871E+05  1.093177E-09  1.950488E-08
       204  11 -3.676824E+04 -4.545886E+05 -4.545890E+04  1.234325E+05 -4.991367E-10  1.641654E-08
       204  12  6.123286E+04 -5.451904E+04  4.619974E+04  2.292625E+05 -3.344820E-09  1.561758E-08
       204  13 -3.624069E+02 -2.996210E+05 -1.295269E+04  2.293837E+05 -2.348047E-10 -7.111275E-12
       204  14  1.921607E+03 -2.973835E+05 -9.299397E+03  1.240393E+05 -3.338049E-09 -2.127636E-09
       204  15  9.503035E+02 -2.995867E+05 -1.015116E+04  2.293760E+05  3.575533E-10  1.815489E-08
       204  16  1.373374E+05  2.600453E+05  1.158970E+05  2.304808E+05  1.135128E-09 -7.335713E-09
       204  17  4.060973E+04 -1.401555E+05  2.685847E+04  1.246462E+05 -5.889671E-09 -1.713205E-08
       204  18 -5.933644E+04 -5.445988E+05 -6.650603E+04  2.294894E+05 -1.342978E-09 -2.711907E-08
       204  19 -1.380835E+05 -8.589972E+05 -1.418221E+05  2.282870E+05  2.357871E+04 -5.403999E+03
       204  20 -3.676817E+04 -4.545884E+05 -4.545862E+04  1.234325E+05  6.677650E+03 -1.029048E+04
       204  21  6.123304E+04 -5.451876E+04  4.620038E+04  2.292626E+05 -1.060269E+04 -1.517344E+04
       204  22 -3.617948E+02 -2.996208E+05 -1.295155E+04  2.293838E+05  2.365044E+04  6.599154E+03
       204  23  1.921657E+03 -2.973835E+05 -9.299304E+03  1.240393E+05  6.752168E+03  1.986101E+03
       204  24  9.504243E+02 -2.995867E+05 -1.015094E+04  2.293761E+05 -1.052480E+04 -2.620286E+03
       204  25  1.373381E+05  2.600458E+05  1.158987E+05  2.304812E+05  2.372218E+04  1.861305E+04
       204  26  4.060984E+04 -1.401553E+05  2.685894E+04  1.246463E+05  6.826699E+03  1.426577E+04
       204  27 -5.933630E+04 -5.445987E+05 -6.650564E+04  2.294894E+05 -1.044689E+04  9.927953E+03
       205   1  1.592535E+05  3.303027E+05  1.341533E+05  2.357910E+05  2.713785E+04  2.827353E+04
       205   2  2.569366E+05  7.353258E+05  2.231680E+05  1.252493E+05  4.065422E+04  8.130316E+03
       205   3  3.334554E+05  1.135653E+06  3.194935E+05  2.239801E+05  1.481910E+04 -1.181513E+04
       205   4  3.919513E+03 -3.008538E+05 -1.100641E+04  2.290248E+05  2.699260E+04  4.266806E+03
       205   5  2.987432E+03 -2.960791E+05 -1.557060E+04  1.244504E+05  4.068325E+04  1.247162E+04
       205   6 -2.404037E+04 -3.010778E+05 -3.250664E+04  2.291740E+05  1.499287E+04  2.088680E+04
       205   7 -1.514419E+05 -9.316403E+05 -1.561903E+05  2.222649E+05  2.684780E+04 -1.971572E+04
       205   8 -2.510365E+05 -1.326501E+06 -2.543803E+05  1.236514E+05  4.071229E+04  1.680576E+04
       205   9 -3.816883E+05 -1.735928E+06 -3.846540E+05  2.343531E+05  1.516741E+04  5.351325E+04
       205  10  1.592525E+05  3.303016E+05  1.341504E+05  2.357904E+05 -2.892846E-09  2.248496E-08
       205  11  2.569348E+05  7.353253E+05  2.231647E+05  1.252490E+05 -1.026150E-08  1.093165E-08
       205  12  3.334552E+05  1.135653E+06  3.194928E+05  2.239802E+05 -2.845357E-09 -1.273149E-09
       205  13  3.918725E+03 -3.008540E+05 -1.100782E+04  2.290247E+05 -4.311142E-09  2.115603E-11
       205  14  2.985614E+03 -2.960797E+05 -1.557400E+04  1.244500E+05 -5.708310E-09 -1.087291E-09
       205  15 -2.404072E+04 -3.010784E+05 -3.250788E+04  2.291737E+05 -4.943874E-09  1.434384E-08
       205  16 -1.514428E+05 -9.316410E+05 -1.561924E+05  2.222653E+05 -1.420176E-09 -1.185825E-08
       205  17 -2.510383E+05 -1.326502E+06 -2.543839E+05  1.236508E+05 -6.644931E-09 -1.331647E-08
       205  18 -3.816893E+05 -1.735931E+06 -3.846598E+05  2.343524E+05 -1.821291E-09 -9.099528E-09
       205  19  1.592535E+05  3.303027E+05  1.341533E+05  2.357910E+05 -2.713785E+04 -2.827353E+04
       205  20  2.569366E+05  7.353258E+05  2.231680E+05  1.252493E+05 -4.065422E+04 -8.130316E+03
       205  21  3.334554E+05  1.135653E+06  3.194935E+05  2.239801E+05 -1.481910E+04  1.181513E+04
       205  22  3.919513E+03 -3.008538E+05 -1.100641E+04  2.290248E+05 -2.699260E+04 -4.266806E+03
       205  23  2.987432E+03 -2.960791E+05 -1.557060E+04  1.244504E+05 -4.068325E+04 -1.247162E+04
       205  24 -2.404037E+04 -3.010778E+05 -3.250664E+04  2.291740E+05 -1.499287E+04 -2.088680E+04
       205  25 -1.514419E+05 -9.316403E+05 -1.561903E+05  2.222649E+05 -2.684780E+04  1.971572E+04
       205  26 -2.510365E+05 -1.326501E+06 -2.543803E+05  1.236514E+05 -4.071229E+04 -1.680576E+04
       205  27 -3.816883E+05 -1.735928E+06 -3.846540E+05  2.343531E+05 -1.516741E+04 -5.351325E+04
       206   1  7.674173E+06  1.951076E+06  1.942772E+06  7.446362E+05  2.359039E+05 -8.806344E+04
       206   2  6.312396E+06  1.551664E+06  1.495749E+06  4.039262E+05  7.546169E+04 -2.548405E+05
       206   3  5.023621E+06  1.236743E+06  1.178681E+06  7.462243E+05 -8.359884E+04 -2.206671E+05
       206   4 -5.368520E+04  3.618125E+04  6.027574E+04  7.561495E+05  4.083411E+04 -8.704361E+04
       206   5 -7.467510E+04 -1.527212E+04  2.432049E+04  4.143089E+05  2.683524E+04 -2.548648E+05
       206   6 -4.924979E+04 -6.999639E+03  1.770254E+04  7.558980E+05  1.387671E+04 -2.208177E+05
       206   7 -7.727421E+06 -1.883082E+06 -1.826416E+06  7.675649E+05 -1.518383E+05 -8.602585E+04
       206   8 -6.424254E+06 -1.585056E+06 -1.449808E+06  4.246029E+05 -2.129976E+04 -2.548914E+05
       206   9 -5.098383E+06 -1.252523E+06 -1.144930E+06  7.654804E+05  1.105669E+05 -2.209658E+05
       206  10  7.674112E+06  1.951053E+06  1.942654E+06  7.446528E+05  5.785268E-10 -2.152304E-10
       206  11  6.312372E+06  1.551593E+06  1.495616E+06  4.039417E+05  3.599766E-09 -5.495626E-10
       206  12  5.023600E+06  1.236689E+06  1.178577E+06  7.462095E+05 -9.369756E-10 -6.065573E-10
       206  13 -5.368903E+04  3.617266E+04  6.025834E+04  7.561524E+05 -3.785963E-09 -2.213949E-10
       206  14 -7.469332E+04 -1.534207E+04  2.419705E+04  4.143144E+05  1.791793E-09 -8.225936E-10
       206  15 -4.926309E+04 -7.052055E+03  1.761053E+04  7.559005E+05 -6.837497E-10 -3.286616E-10
       206  16 -7.727448E+06 -1.883096E+06 -1.826474E+06  7.675543E+05 -4.019886E-10 -4.122682E-10
       206  17 -6.424272E+06 -1.585125E+06 -1.449931E+06  4.245985E+05  1.460368E-11 -9.751154E-10
       206  18 -5.098409E+06 -1.252579E+06 -1.145045E+06  7.655002E+05 -1.437918E-09  3.640521E-11
       206  19  7.674173E+06  1.951076E+06  1.942772E+06  7.446362E+05 -2.359039E+05  8.806344E+04
       206  20  6.312396E+06  1.551664E+06  1.495749E+06  4.039262E+05 -7.546169E+04  2.548405E+05
       206  21  5.023621E+06  1.236743E+06  1.178681E+06  7.462243E+05  8.359884E+04  2.206671E+05
       206  22 -5.368520E+04  3.618125E+04  6.027574E+04  7.561495E+05 -4.083411E+04  8.704361E+04
       206  23 -7.467510E+04 -1.527212E+04  2.432049E+04  4.143089E+05 -2.683524E+04  2.548648E+05
       206  24 -4.924979E+04 -6.999639E+03  1.770254E+04  7.558980E+05 -1.387671E+04  2.208177E+05
       206  25 -7.727421E+06 -1.883082E+06 -1.826416E+06  7.675649E+05  1.518383E+05  8.602585E+04
       206  26 -6.424254E+06 -1.585056E+06 -1.449808E+06  4.246029E+05  2.129976E+04  2.548914E+05
       206  27 -5.098383E+06 -1.252523E+06 -1.144930E+06  7.654804E+05 -1.105669E+05  2.209658E+05
       207   1  3.745943E+06  9.336616E+05  8.871242E+05  7.595490E+05 -2.409445E+04 -1.591921E+05
       207   2  2.421823E+06  6.085622E+05  5.766301E+05  4.145129E+05 -3.460545E+04 -1.057888E+05
       207   3  1.104552E+06  2.887797E+05  2.746105E+05  7.598719E+05 -4.533390E+04 -4.284346E+04
       207   4 -5.591064E+04  2.365239E+02  1.339346E+04  7.575469E+05  1.103358E+04 -1.592300E+05
       207   5 -5.706477E+04 -3.630272E+02  7.357339E+03  4.122621E+05  7.408270E+03 -1.057506E+05
       207   6 -5.417213E+04  3.281347E+03  5.131781E+03  7.575458E+05  3.543154E+03 -4.270576E+04
       207   7 -3.844436E+06 -9.341958E+05 -8.612883E+05  7.555469E+05  4.594904E+04 -1.592683E+05
       207   8 -2.530274E+06 -6.097157E+05 -5.623145E+05  4.100164E+05  4.925603E+04 -1.057126E+05
       207   9 -1.211654E+06 -2.823104E+05 -2.644285E+05  7.552224E+05  5.232974E+04 -4.256826E+04
       207  10  3.745936E+06  9.336343E+05  8.870755E+05  7.595459E+05  2.140390E-09 -5.101038E-10
       207  11  2.421818E+06  6.085499E+05  5.766068E+05  4.145100E+05  9.340643E-10 -6.062902E-11
       207  12  1.104550E+06  2.887771E+05  2.746032E+05  7.598704E+05  2.197713E-09  8.547795E-10
       207  13 -5.591758E+04  2.092628E+02  1.334558E+04  7.575484E+05 -2.465653E-09  6.460869E-12
       207  14 -5.706783E+04 -3.750512E+02  7.336218E+03  4.122628E+05 -2.408960E-09 -1.655736E-10
       207  15 -5.417264E+04  3.279385E+03  5.128330E+03  7.575459E+05 -2.228014E-09  6.543068E-10
       207  16 -3.844445E+06 -9.342236E+05 -8.613400E+05  7.555528E+05 -2.861834E-10  6.247779E-10
       207  17 -2.530280E+06 -6.097284E+05 -5.623401E+05  4.100206E+05 -5.912105E-09  1.952558E-10
       207  18 -1.211657E+06 -2.823131E+05 -2.644370E+05  7.552242E+05 -9.299258E-10  1.855599E-10
       207  19  3.745943E+06  9.336616E+05  8.871242E+05  7.595490E+05  2.409445E+04  1.591921E+05
       207  20  2.421823E+06  6.085622E+05  5.766301E+05  4.145129E+05  3.460545E+04  1.057888E+05
       207  21  1.104552E+06  2.887797E+05  2.746105E+05  7.598719E+05  4.533390E+04  4.284346E+04
       207  22 -5.591064E+04  2.365239E+02  1.339346E+04  7.575469E+05 -1.103358E+04  1.592300E+05
       207  23 -5.706477E+04 -3.630272E+02  7.357339E+03  4.122621E+05 -7.408270E+03  1.057506E+05
       207  24 -5.417213E+04  3.281347E+03  5.131781E+03  7.575458E+05 -3.543154E+03  4.270576E+04
       207  25 -3.844436E+06 -9.341958E+05 -8.612883E+05  7.555469E+05 -4.594904E+04  1.592683E+05
       207  26 -2.530274E+06 -6.097157E+05 -5.623145E+05  4.100164E+05 -4.925603E+04  1.057126E+05
       207  27 -1.211654E+06 -2.823104E+05 -2.644285E+05  7.552224E+05 -5.232974E+04  4.256826E+04
       208   1 -1.600179E+05 -2.285181E+04 -2.347577E+04  7.567043E+05 -4.595007E+04 -2.782905E+03
       208   2 -1.477482E+06 -3.489973E+05 -3.250432E+05  4.104608E+05 -4.133903E+04  6.044856E+04
       208   3 -2.794738E+06 -6.754292E+05 -6.301924E+05  7.549696E+05 -3.659440E+04  1.154291E+05
       208   4 -5.483103E+04  3.701048E+03  4.060054E+03  7.575641E+05  2.492421E+03 -2.634744E+03
       208   5 -5.514001E+04  1.243437E+03  2.489712E+03  4.122393E+05  1.128721E+03  6.053155E+04
       208   6 -5.583671E+04 -3.503314E+02  1.569503E+03  7.575685E+05 -9.156391E+01  1.154616E+05
       208   7  5.037081E+04  3.025430E+04  3.160381E+04  7.584239E+05  5.094316E+04 -2.486466E+03
       208   8  1.369080E+06  3.513435E+05  3.298952E+05  4.140203E+05  4.369317E+04  6.061468E+04
       208   9  2.690026E+06  6.742031E+05  6.328376E+05  7.601718E+05  3.657161E+04  1.154942E+05
       208  10 -1.600202E+05 -2.285238E+04 -2.347975E+04  7.567042E+05 -2.972856E-10  7.753645E-11
       208  11 -1.477485E+06 -3.490017E+05 -3.250533E+05  4.104629E+05 -2.343665E-09 -8.921596E-10
       208  12 -2.794743E+06 -6.754438E+05 -6.302200E+05  7.549730E+05 -5.211585E-10 -1.056970E-09
       208  13 -5.483104E+04  3.701039E+03  4.060030E+03  7.575641E+05 -1.259662E-09  7.266831E-11
       208  14 -5.514099E+04  1.239502E+03  2.482824E+03  4.122392E+05 -1.107054E-09 -2.810645E-10
       208  15 -5.584029E+04 -3.646467E+02  1.544452E+03  7.575685E+05 -1.858850E-10 -7.273157E-10
       208  16  5.036802E+04  3.025359E+04  3.159892E+04  7.584240E+05  7.673289E-10  9.979422E-11
       208  17  1.369077E+06  3.513391E+05  3.298848E+05  4.140182E+05 -2.339492E-09  3.854626E-10
       208  18  2.690021E+06  6.741885E+05  6.328101E+05  7.601684E+05 -6.096805E-10 -3.581839E-10
       208  19 -1.600179E+05 -2.285181E+04 -2.347577E+04  7.567043E+05  4.595007E+04  2.782905E+03
       208  20 -1.477482E+06 -3.489973E+05 -3.250432E+05  4.104608E+05  4.133903E+04 -6.044856E+04
       208  21 -2.794738E+06 -6.754292E+05 -6.301924E+05  7.549696E+05  3.659440E+04 -1.154291E+05
       208  22 -5.483103E+04  3.701048E+03  4.060054E+03  7.575641E+05 -2.492421E+03  2.634744E+03
       208  23 -5.514001E+04  1.243437E+03  2.489712E+03  4.122393E+05 -1.128721E+03 -6.053155E+04
       208  24 -5.583671E+04 -3.503314E+02  1.569503E+03  7.575685E+05  9.156391E+01 -1.154616E+05
       208  25  5.037081E+04  3.025430E+04  3.160381E+04  7.584239E+05 -5.094316E+04  2.486466E+03
       208  26  1.369080E+06  3.513435E+05  3.298952E+05  4.140203E+05 -4.369317E+04 -6.061468E+04
       208  27  2.690026E+06  6.742031E+05  6.328376E+05  7.601718E+05 -3.657161E+04 -1.154942E+05
       209   1 -4.053617E+06 -9.874218E+05 -9.187677E+05  7.541615E+05 -9.123480E+04  1.740507E+05
       209   2 -5.369462E+06 -1.318247E+06 -1.231898E+06  4.211102E+05  3.589164E+04  2.120397E+05
       209   3 -6.684369E+06 -1.664919E+06 -1.628281E+06  7.725181E+05  1.622160E+05  7.293779E+04
       209   4 -5.305331E+04 -1.120002E+03  2.213822E+03  7.561160E+05 -7.343469E+02  1.740655E+05
       209   5 -6.570537E+04 -7.803399E+03 -1.007232E+03  4.140575E+05 -1.782612E+02  2.119676E+05
       209   6 -5.676739E+04 -8.052116E+03  9.271003E+02  7.561289E+05 -1.506323E+02  7.344796E+04
       209   7  3.962401E+06  9.840653E+05  9.221659E+05  7.580709E+05  9.034753E+04  1.740807E+05
       209   8  5.264181E+06  1.300655E+06  1.227999E+06  4.069453E+05 -3.655607E+04  2.118969E+05
       209   9  6.611157E+06  1.645557E+06  1.627001E+06  7.395744E+05 -1.642617E+05  7.396495E+04
       209  10 -4.053634E+06 -9.874566E+05 -9.188405E+05  7.541743E+05 -1.029490E-09 -5.358448E-10
       209  11 -5.369476E+06 -1.318296E+06 -1.231985E+06  4.211040E+05 -9.369978E-10 -1.435951E-10
       209  12 -6.684398E+06 -1.664932E+06 -1.628341E+06  7.725086E+05 -1.383860E-09 -1.096679E-10
       209  13 -5.306145E+04 -1.152537E+03  2.156884E+03  7.561161E+05 -1.291535E-09 -3.538484E-10
       209  14 -6.571743E+04 -7.851645E+03 -1.091663E+03  4.140576E+05  3.568950E-09  6.568647E-10
       209  15 -5.676883E+04 -8.057909E+03  9.169628E+02  7.561289E+05  1.562029E-09  7.901803E-10
       209  16  3.962384E+06  9.840307E+05  9.220938E+05  7.580582E+05  1.166486E-09 -2.476000E-10
       209  17  5.264168E+06  1.300607E+06  1.227912E+06  4.069516E+05  2.548228E-10  3.720266E-10
       209  18  6.611127E+06  1.645544E+06  1.626941E+06  7.395842E+05 -2.327432E-09  2.443473E-10
       209  19 -4.053617E+06 -9.874218E+05 -9.187677E+05  7.541615E+05  9.123480E+04 -1.740507E+05
       209  20 -5.369462E+06 -1.318247E+06 -1.231898E+06  4.211102E+05 -3.589164E+04 -2.120397E+05
       209  21 -6.684369E+06 -1.664919E+06 -1.628281E+06  7.725181E+05 -1.622160E+05 -7.293779E+04
       209  22 -5.305331E+04 -1.120002E+03  2.213822E+03  7.561160E+05  7.343469E+02 -1.740655E+05
       209  23 -6.570537E+04 -7.803399E+03 -1.007232E+03  4.140575E+05  1.782612E+02 -2.119676E+05
       209  24 -5.676739E+04 -8.052116E+03  9.271003E+02  7.561289E+05  1.506323E+02 -7.344796E+04
       209  25  3.962401E+06  9.840653E+05  9.221659E+05  7.580709E+05 -9.034753E+04 -1.740807E+05
       209  26  5.264181E+06  1.300655E+06  1.227999E+06  4.069453E+05  3.655607E+04 -2.118969E+05
       209  27  6.611157E+06  1.645557E+06  1.627001E+06  7.395744E+05  1.642617E+05 -7.396495E+04
       210   1 -9.259134E+05 -4.266690E+06 -9.402988E+05  6.046052E+05 -3.629918E+04 -1.434195E+05
       210   2 -5.769939E+05 -3.194477E+06 -5.931845E+05  3.146612E+05 -9.404147E+04 -5.267161E+04
       210   3 -3.118110E+05 -2.163446E+06 -3.281151E+05  5.732119E+05 -5.615447E+04  3.733501E+04
       210   4 -6.806936E+04 -8.308256E+05 -9.521917E+04  5.965771E+05 -3.557877E+04 -6.739643E+04
       210   5  1.044240E+04 -8.150913E+05 -4.077008E+04  3.219870E+05 -9.393906E+04 -4.500498E+04
       210   6  1.742283E+04 -8.294683E+05 -2.047199E+04  5.957907E+05 -5.682835E+04 -2.351044E+04
       210   7  7.888994E+05  2.615853E+06  7.490123E+05  5.884745E+05 -3.486251E+04  9.049776E+03
       210   8  5.974791E+05  1.569544E+06  5.112638E+05  3.293268E+05 -9.383670E+04 -3.730878E+04
       210   9  3.465350E+05  5.061683E+05  2.870668E+05  6.184132E+05 -5.750588E+04 -8.448593E+04
       210  10 -9.259203E+05 -4.266713E+06 -9.403402E+05  6.046010E+05 -5.209446E-10  3.505996E-10
       210  11 -5.770042E+05 -3.194482E+06 -5.932063E+05  3.146572E+05 -1.526681E-09  1.852661E-10
       210  12 -3.118148E+05 -2.163448E+06 -3.281237E+05  5.732136E+05 -5.700459E-09 -4.859164E-10
       210  13 -6.807194E+04 -8.308308E+05 -9.523008E+04  5.965751E+05 -4.130310E-09  1.134294E-10
       210  14  1.043239E+04 -8.150958E+05 -4.079046E+04  3.219836E+05  1.047284E-08 -3.664555E-10
       210  15  1.741922E+04 -8.294698E+05 -2.047909E+04  5.957896E+05 -3.090311E-09  1.134879E-10
       210  16  7.888980E+05  2.615853E+06  7.490099E+05  5.884748E+05  5.568168E-10 -2.595271E-10
       210  17  5.974693E+05  1.569540E+06  5.112446E+05  3.293240E+05  4.279191E-09 -2.276258E-10
       210  18  3.465295E+05  5.061597E+05  2.870472E+05  6.184093E+05  5.557951E-10  9.729115E-10
       210  19 -9.259134E+05 -4.266690E+06 -9.402988E+05  6.046052E+05  3.629918E+04  1.434195E+05
       210  20 -5.769939E+05 -3.194477E+06 -5.931845E+05  3.146612E+05  9.404147E+04  5.267161E+04
       210  21 -3.118110E+05 -2.163446E+06 -3.281151E+05  5.732119E+05  5.615447E+04 -3.733501E+04
       210  22 -6.806936E+04 -8.308256E+05 -9.521917E+04  5.965771E+05  3.557877E+04  6.739643E+04
       210  23  1.044240E+04 -8.150913E+05 -4.077008E+04  3.219870E+05  9.393906E+04  4.500498E+04
       210  24  1.742283E+04 -8.294683E+05 -2.047199E+04  5.957907E+05  5.682835E+04  2.351044E+04
       210  25  7.888994E+05  2.615853E+06  7.490123E+05  5.884745E+05  3.486251E+04 -9.049776E+03
       210  26  5.974791E+05  1.569544E+06  5.112638E+05  3.293268E+05  9.383670E+04  3.730878E+04
       210  27  3.465350E+05  5.061683E+05  2.870668E+05  6.184132E+05  5.750588E+04  8.448593E+04
       211   1 -7.282724E+04 -1.148423E+06 -8.825559E+04  5.954099E+05 -1.415132E+04  1.207844E+04
       211   2  1.866245E+05 -8.965706E+04  1.686670E+05  3.275799E+05  3.140758E+04  9.952301E+03
       211   3  4.569340E+05  9.595287E+05  4.264666E+05  6.115708E+05  7.518980E+04  7.895828E+03
       211   4  6.835468E+03 -8.247785E+05 -1.395101E+04  5.968399E+05 -1.453289E+04 -2.134498E+04
       211   5  6.894479E+03 -8.195680E+05  7.553071E+02  3.208526E+05  3.105962E+04 -2.220499E+04
       211   6  1.767216E+04 -8.251726E+05  1.553363E+04  5.967157E+05  7.487077E+04 -2.299246E+04
       211   7  8.649146E+04 -5.010341E+05  6.035085E+04  5.982704E+05 -1.491450E+04 -5.478571E+04
       211   8 -1.728722E+05 -1.548983E+06 -1.671878E+05  3.141317E+05  3.071214E+04 -5.432476E+04
       211   9 -4.218117E+05 -2.606926E+06 -3.956071E+05  5.818945E+05  7.455272E+04 -5.379267E+04
       211  10 -7.282749E+04 -1.148424E+06 -8.825624E+04  5.954100E+05 -7.476793E-10  4.284208E-09
       211  11  1.866234E+05 -8.965743E+04  1.686649E+05  3.275797E+05 -7.546709E-10  1.745904E-09
       211  12  4.569279E+05  9.595271E+05  4.264559E+05  6.115704E+05  4.589761E-09 -1.004384E-09
       211  13  6.835120E+03 -8.247791E+05 -1.395227E+04  5.968397E+05 -1.121521E-09  3.641306E-11
       211  14  6.893310E+03 -8.195688E+05  7.525655E+02  3.208531E+05 -8.298520E-09  1.628490E-10
       211  15  1.766600E+04 -8.251747E+05  1.552210E+04  5.967171E+05 -7.189534E-09  1.555658E-10
       211  16  8.649042E+04 -5.010373E+05  6.034479E+04  5.982698E+05 -6.187946E-10 -4.240672E-09
       211  17 -1.728740E+05 -1.548987E+06 -1.671951E+05  3.141331E+05  6.505581E-09 -1.814832E-09
       211  18 -4.218184E+05 -2.606930E+06 -3.956230E+05  5.818977E+05  3.579855E-09  7.347329E-10
       211  19 -7.282724E+04 -1.148423E+06 -8.825559E+04  5.954099E+05  1.415132E+04 -1.207844E+04
       211  20  1.866245E+05 -8.965706E+04  1.686670E+05  3.275799E+05 -3.140758E+04 -9.952301E+03
       211  21  4.569340E+05  9.595287E+05  4.264666E+05  6.115708E+05 -7.518980E+04 -7.895828E+03
       211  22  6.835468E+03 -8.247785E+05 -1.395101E+04  5.968399E+05  1.453289E+04  2.134498E+04
       211  23  6.894479E+03 -8.195680E+05  7.553071E+02  3.208526E+05 -3.105962E+04  2.220499E+04
       211  24  1.767216E+04 -8.251726E+05  1.553363E+04  5.967157E+05 -7.487077E+04  2.299246E+04
       211  25  8.649146E+04 -5.010341E+05  6.035085E+04  5.982704E+05  1.491450E+04  5.478571E+04
       211  26 -1.728722E+05 -1.548983E+06 -1.671878E+05  3.141317E+05 -3.071214E+04  5.432476E+04
       211  27 -4.218117E+05 -2.606926E+06 -3.956071E+05  5.818945E+05 -7.455272E+04  5.379267E+04
       212   1  6.935367E+05  1.979345E+06  6.647807E+05  6.046228E+05  1.216628E+05  4.308506E+04
       212   2  9.420194E+05  3.010533E+06  9.289998E+05  3.568247E+05  1.520565E+05 -7.365100E+04
       212   3  1.306152E+06  4.084534E+06  1.297165E+06  6.536955E+05  5.209369E+04 -1.896288E+05
       212   4  6.098952E+03 -8.182024E+05  2.277302E+04  5.954029E+05  1.209867E+05 -2.668294E+04
       212   5 -3.439869E+03 -8.320723E+05  4.117865E+04  3.226809E+05  1.523296E+05 -4.904694E+04
       212   6  8.673079E+04 -8.202538E+05  9.838653E+04  5.947929E+05  5.296560E+04 -7.044874E+04
       212   7 -6.818818E+05 -3.608502E+06 -6.197328E+05  5.862033E+05  1.203110E+05 -9.613962E+04
       212   8 -9.499326E+05 -4.661059E+06 -8.476259E+05  2.887177E+05  1.526010E+05 -2.459278E+04
       212   9 -1.134452E+06 -5.703157E+06 -1.102096E+06  5.363066E+05  5.381888E+04  4.779804E+04
       212  10  6.935203E+05  1.979339E+06  6.647495E+05  6.046186E+05  2.532991E-10 -9.742242E-11
       212  11  9.419932E+05  3.010521E+06  9.289462E+05  3.568337E+05 -1.518568E-09 -6.258402E-10
       212  12  1.306139E+06  4.084495E+06  1.297093E+06  6.537035E+05  9.587875E-10 -4.436899E-10
       212  13  6.083043E+03 -8.182071E+05  2.274417E+04  5.954055E+05  7.341429E-09 -3.169478E-10
       212  14 -3.465428E+03 -8.320811E+05  4.113052E+04  3.226869E+05 -2.982665E-09  6.413618E-11
       212  15  8.672644E+04 -8.202598E+05  9.837191E+04  5.947959E+05  1.697637E-09 -1.172805E-10
       212  16 -6.818998E+05 -3.608516E+06 -6.197775E+05  5.862126E+05 -1.451592E-09  1.689050E-10
       212  17 -9.499577E+05 -4.661066E+06 -8.476708E+05  2.887207E+05  3.473290E-10  8.937736E-10
       212  18 -1.134456E+06 -5.703161E+06 -1.102106E+06  5.363045E+05  2.681834E-09  4.705655E-10
       212  19  6.935367E+05  1.979345E+06  6.647807E+05  6.046228E+05 -1.216628E+05 -4.308506E+04
       212  20  9.420194E+05  3.010533E+06  9.289998E+05  3.568247E+05 -1.520565E+05  7.365100E+04
       212  21  1.306152E+06  4.084534E+06  1.297165E+06  6.536955E+05 -5.209369E+04  1.896288E+05
       212  22  6.098952E+03 -8.182024E+05  2.277302E+04  5.954029E+05 -1.209867E+05  2.668294E+04
       212  23 -3.439869E+03 -8.320723E+05  4.117865E+04  3.226809E+05 -1.523296E+05  4.904694E+04
       212  24  8.673079E+04 -8.202538E+05  9.838653E+04  5.947929E+05 -5.296560E+04  7.044874E+04
       212  25 -6.818818E+05 -3.608502E+06 -6.197328E+05  5.862033E+05 -1.203110E+05  9.613962E+04
       212  26 -9.499326E+05 -4.661059E+06 -8.476259E+05  2.887177E+05 -1.526010E+05  2.459278E+04
       212  27 -1.134452E+06 -5.703157E+06 -1.102096E+06  5.363066E+05 -5.381888E+04 -4.779804E+04
       213   1  6.579169E+06  1.636262E+06  1.617998E+06  6.755136E+05  1.689720E+05 -7.423388E+04
       213   2  5.346188E+06  1.314583E+06  1.243050E+06  3.715691E+05  4.218653E+04 -2.146702E+05
       213   3  4.159023E+06  1.025671E+06  9.618210E+05  6.918724E+05 -8.380571E+04 -1.820389E+05
       213   4 -3.258335E+04 -3.332628E+03  6.015208E+03  6.906542E+05  3.982928E+03 -7.369529E+04
       213   5 -4.229894E+04 -8.137575E+03  8.172346E+02  3.783467E+05  2.994285E+03 -2.147371E+05
       213   6 -2.917801E+04 -1.714454E+03  2.658571E+03  6.906285E+05  2.551658E+03 -1.820413E+05
       213   7 -6.604684E+06 -1.646129E+06 -1.609046E+06  7.056489E+05 -1.592673E+05 -7.316265E+04
       213   8 -5.404080E+06 -1.332887E+06 -1.243340E+06  3.850683E+05 -3.586270E+04 -2.148055E+05
       213   9 -4.201185E+06 -1.030315E+06 -9.576290E+05  6.893808E+05  8.833417E+04 -1.820440E+05
       213  10  6.579137E+06  1.636248E+06  1.617935E+06  6.755237E+05  1.051246E-09 -2.691588E-10
       213  11  5.346174E+06  1.314533E+06  1.242960E+06  3.715763E+05  1.722673E-09 -8.938089E-11
       213  12  4.159007E+06  1.025634E+06  9.617457E+05  6.918602E+05 -1.112209E-09  3.271037E-10
       213  13 -3.258482E+04 -3.338464E+03  6.004971E+03  6.906544E+05 -1.530806E-09  9.909512E-10
       213  14 -4.231133E+04 -8.187093E+03  7.305629E+02  3.783472E+05  2.468606E-09 -1.904027E-10
       213  15 -2.918691E+04 -1.750042E+03  2.596283E+03  6.906289E+05  2.556571E-09 -3.409236E-10
       213  16 -6.604713E+06 -1.646142E+06 -1.609104E+06  7.056395E+05 -2.771879E-10 -3.301610E-10
       213  17 -5.404094E+06 -1.332937E+06 -1.243429E+06  3.850620E+05 -1.978697E-09 -8.075199E-10
       213  18 -4.201203E+06 -1.030353E+06 -9.577061E+05  6.893938E+05 -3.094980E-10 -5.118231E-10
       213  19  6.579169E+06  1.636262E+06  1.617998E+06  6.755136E+05 -1.689720E+05  7.423388E+04
       213  20  5.346188E+06  1.314583E+06  1.243050E+06  3.715691E+05 -4.218653E+04  2.146702E+05
       213  21  4.159023E+06  1.025671E+06  9.618210E+05  6.918724E+05  8.380571E+04  1.820389E+05
       213  22 -3.258335E+04 -3.332628E+03  6.015208E+03  6.906542E+05 -3.982928E+03  7.369529E+04
       213  23 -4.229894E+04 -8.137575E+03  8.172346E+02  3.783467E+05 -2.994285E+03  2.147371E+05
       213  24 -2.917801E+04 -1.714454E+03  2.658571E+03  6.906285E+05 -2.551658E+03  1.820413E+05
       213  25 -6.604684E+06 -1.646129E+06 -1.609046E+06  7.056489E+05  1.592673E+05  7.316265E+04
       213  26 -5.404080E+06 -1.332887E+06 -1.243340E+06  3.850683E+05  3.586270E+04  2.148055E+05
       213  27 -4.201185E+06 -1.030315E+06 -9.576290E+05  6.893808E+05 -8.833417E+04  1.820440E+05
       214   1  2.995858E+06  7.433420E+05  6.975930E+05  6.951061E+05 -3.082146E+04 -1.270541E+05
       214   2  1.788667E+06  4.482749E+05  4.191599E+05  3.791717E+05 -3.714105E+04 -7.764834E+04
       214   3  5.839603E+05  1.555757E+05  1.451608E+05  6.939441E+05 -4.361697E+04 -2.007895E+04
       214   4 -3.219108E+04 -4.138505E+02  1.463235E+03  6.920197E+05  1.921182E+03 -1.270365E+05
       214   5 -3.166023E+04  9.429936E+02  9.153912E+02  3.766057E+05  1.470261E+03 -7.757298E+04
       214   6 -3.103291E+04  3.739011E+03  8.029433E+02  6.920139E+05  8.506566E+02 -1.992986E+04
       214   7 -3.051779E+06 -7.448088E+05 -6.952691E+05  6.889402E+05  3.450596E+04 -1.270192E+05
       214   8 -1.848923E+06 -4.466193E+05 -4.175425E+05  3.740446E+05  3.996951E+04 -7.749782E+04
       214   9 -6.456738E+05 -1.481235E+05 -1.435734E+05  6.900851E+05  4.527453E+04 -1.978094E+04
       214  10  2.995853E+06  7.433244E+05  6.975609E+05  6.951030E+05  1.817117E-09  6.691209E-10
       214  11  1.788664E+06  4.482681E+05  4.191460E+05  3.791694E+05 -2.354804E-10  7.204833E-10
       214  12  5.839582E+05  1.555748E+05  1.451565E+05  6.939434E+05  5.624042E-10  1.197265E-09
       214  13 -3.219542E+04 -4.311813E+02  1.432901E+03  6.920199E+05  2.456504E-09  6.973467E-10
       214  14 -3.166185E+04  9.365312E+02  9.040788E+02  3.766058E+05 -2.871748E-09  9.201852E-10
       214  15 -3.103302E+04  3.738584E+03  8.021955E+02  6.920139E+05 -5.026884E-09  1.130155E-09
       214  16 -3.051784E+06 -7.448265E+05 -6.953016E+05  6.889437E+05 -2.052522E-09 -4.694495E-10
       214  17 -1.848927E+06 -4.466262E+05 -4.175568E+05  3.740471E+05 -5.221231E-09  2.164452E-10
       214  18 -6.456761E+05 -1.481245E+05 -1.435780E+05  6.900859E+05 -1.074093E-09 -5.852602E-10
       214  19  2.995858E+06  7.433420E+05  6.975930E+05  6.951061E+05  3.082146E+04  1.270541E+05
       214  20  1.788667E+06  4.482749E+05  4.191599E+05  3.791717E+05  3.714105E+04  7.764834E+04
       214  21  5.839603E+05  1.555757E+05  1.451608E+05  6.939441E+05  4.361697E+04  2.007895E+04
       214  22 -3.219108E+04 -4.138505E+02  1.463235E+03  6.920197E+05 -1.921182E+03  1.270365E+05
       214  23 -3.166023E+04  9.429936E+02  9.153912E+02  3.766057E+05 -1.470261E+03  7.757298E+04
       214  24 -3.103291E+04  3.739011E+03  8.029433E+02  6.920139E+05 -8.506566E+02  1.992986E+04
       214  25 -3.051779E+06 -7.448088E+05 -6.952691E+05  6.889402E+05 -3.450596E+04  1.270192E+05
       214  26 -1.848923E+06 -4.466193E+05 -4.175425E+05  3.740446E+05 -3.996951E+04  7.749782E+04
       214  27 -6.456738E+05 -1.481235E+05 -1.435734E+05  6.900851E+05 -4.527453E+04  1.978094E+04
       215   1 -5.701315E+05 -1.294010E+05 -1.264053E+05  6.901176E+05 -4.389875E+04  1.652500E+04
       215   2 -1.773196E+06 -4.278460E+05 -4.013351E+05  3.741594E+05 -3.805536E+04  7.424871E+04
       215   3 -2.976363E+06 -7.268278E+05 -6.806306E+05  6.891379E+05 -3.206085E+04  1.238735E+05
       215   4 -3.112404E+04  3.845561E+03  5.773173E+02  6.920146E+05  5.003825E+02  1.667459E+04
       215   5 -3.147371E+04  1.094098E+03 -2.790384E+02  3.766046E+05  4.901036E+02  7.432686E+04
       215   6 -3.223394E+04 -1.071876E+03 -1.355208E+03  6.920223E+05  6.421254E+02  1.238956E+05
       215   7  5.081551E+05  1.370724E+05  1.275474E+05  6.939129E+05  4.493787E+04  1.682437E+04
       215   8  1.713064E+06  4.298227E+05  4.005815E+05  3.790542E+05  3.914308E+04  7.440519E+04
       215   9  2.919938E+06  7.240765E+05  6.773476E+05  6.949124E+05  3.349954E+04  1.239178E+05
       215  10 -5.701336E+05 -1.294018E+05 -1.264095E+05  6.901182E+05  7.575225E-10  1.611893E-09
       215  11 -1.773199E+06 -4.278523E+05 -4.013482E+05  3.741616E+05 -6.583086E-10  1.159880E-09
       215  12 -2.976368E+06 -7.268445E+05 -6.806614E+05  6.891412E+05  1.624180E-09 -1.724990E-09
       215  13 -3.112412E+04  3.845262E+03  5.767944E+02  6.920146E+05  2.208646E-09  1.561887E-10
       215  14 -3.147519E+04  1.088166E+03 -2.894202E+02  3.766045E+05  3.383833E-10  6.585630E-10
       215  15 -3.223806E+04 -1.088359E+03 -1.384054E+03  6.920222E+05  2.165825E-09 -1.579830E-09
       215  16  5.081529E+05  1.370716E+05  1.275431E+05  6.939123E+05 -2.138476E-09  2.619314E-10
       215  17  1.713060E+06  4.298163E+05  4.005682E+05  3.790519E+05 -2.733865E-09 -1.165216E-09
       215  18  2.919933E+06  7.240598E+05  6.773167E+05  6.949091E+05 -2.082907E-09 -1.313560E-09
       215  19 -5.701315E+05 -1.294010E+05 -1.264053E+05  6.901176E+05  4.389875E+04 -1.652500E+04
       215  20 -1.773196E+06 -4.278460E+05 -4.013351E+05  3.741594E+05  3.805536E+04 -7.424871E+04
       215  21 -2.976363E+06 -7.268278E+05 -6.806306E+05  6.891379E+05  3.206085E+04 -1.238735E+05
       215  22 -3.112404E+04  3.845561E+03  5.773173E+02  6.920146E+05 -5.003825E+02 -1.667459E+04
       215  23 -3.147371E+04  1.094098E+03 -2.790384E+02  3.766046E+05 -4.901036E+02 -7.432686E+04
       215  24 -3.223394E+04 -1.071876E+03 -1.355208E+03  6.920223E+05 -6.421254E+02 -1.238956E+05
       215  25  5.081551E+05  1.370724E+05  1.275474E+05  6.939129E+05 -4.493787E+04 -1.682437E+04
       215  26  1.713064E+06  4.298227E+05  4.005815E+05  3.790542E+05 -3.914308E+04 -7.440519E+04
       215  27  2.919938E+06  7.240765E+05  6.773476E+05  6.949124E+05 -3.349954E+04 -1.239178E+05
       216   1 -4.126612E+06 -1.010851E+06 -9.439012E+05  6.874607E+05 -8.480963E+04  1.786786E+05
       216   2 -5.327568E+06 -1.313191E+06 -1.232000E+06  3.859515E+05  4.134797E+04  2.117241E+05
       216   3 -6.530208E+06 -1.638453E+06 -1.604578E+06  7.093561E+05  1.667414E+05  7.220156E+04
       216   4 -2.999300E+04 -8.734063E+02 -9.767831E+02  6.906437E+05  5.354719E+02  1.786862E+05
       216   5 -4.100409E+04 -7.079177E+03 -5.324691E+03  3.783306E+05  3.375640E+03  2.116532E+05
       216   6 -3.335301E+04 -1.448456E+04 -8.012910E+03  6.906369E+05  5.702229E+03  7.270125E+04
       216   7  4.082239E+06  1.007933E+06  9.408636E+05  6.938358E+05  8.644206E+04  1.786945E+05
       216   8  5.271520E+06  1.297061E+06  1.219480E+06  3.706457E+05 -3.491987E+04  2.115838E+05
       216   9  6.502246E+06  1.606355E+06  1.585544E+06  6.717326E+05 -1.570328E+05  7.320892E+04
       216  10 -4.126629E+06 -1.010887E+06 -9.439749E+05  6.874729E+05 -3.200104E-09 -1.386980E-09
       216  11 -5.327582E+06 -1.313239E+06 -1.232087E+06  3.859445E+05  1.462025E-09  5.522186E-10
       216  12 -6.530239E+06 -1.638466E+06 -1.604640E+06  7.093463E+05  1.745215E-09  1.164937E-09
       216  13 -3.000157E+04 -9.076917E+02 -1.036783E+03  6.906436E+05  9.826985E-10 -1.125446E-09
       216  14 -4.101613E+04 -7.127284E+03 -5.408893E+03  3.783300E+05  2.405387E-09  7.977221E-10
       216  15 -3.335446E+04 -1.449024E+04 -8.022901E+03  6.906366E+05  2.040584E-09  2.799356E-10
       216  16  4.082223E+06  1.007897E+06  9.407897E+05  6.938234E+05  3.288266E-09 -9.335608E-10
       216  17  5.271507E+06  1.297012E+06  1.219393E+06  3.706517E+05  1.865551E-09 -1.306918E-10
       216  18  6.502219E+06  1.606343E+06  1.585488E+06  6.717418E+05 -8.105990E-10  2.950516E-10
       216  19 -4.126612E+06 -1.010851E+06 -9.439012E+05  6.874607E+05  8.480963E+04 -1.786786E+05
       216  20 -5.327568E+06 -1.313191E+06 -1.232000E+06  3.859515E+05 -4.134797E+04 -2.117241E+05
       216  21 -6.530208E+06 -1.638453E+06 -1.604578E+06  7.093561E+05 -1.667414E+05 -7.220156E+04
       216  22 -2.999300E+04 -8.734063E+02 -9.767831E+02  6.906437E+05 -5.354719E+02 -1.786862E+05
       216  23 -4.100409E+04 -7.079177E+03 -5.324691E+03  3.783306E+05 -3.375640E+03 -2.116532E+05
       216  24 -3.335301E+04 -1.448456E+04 -8.012910E+03  6.906369E+05 -5.702229E+03 -7.270125E+04
       216  25  4.082239E+06  1.007933E+06  9.408636E+05  6.938358E+05 -8.644206E+04 -1.786945E+05
       216  26  5.271520E+06  1.297061E+06  1.219480E+06  3.706457E+05  3.491987E+04 -2.115838E+05
       216  27  6.502246E+06  1.606355E+06  1.585544E+06  6.717326E+05  1.570328E+05 -7.320892E+04
       217   1 -1.421080E+06 -5.811991E+06 -1.409327E+06  9.140945E+05 -6.017987E+04 -1.335962E+05
       217   2 -9.996845E+05 -4.153667E+06 -9.421308E+05  4.904869E+05 -1.606093E+05 -2.098129E+04
       217   3 -5.791235E+05 -2.515249E+06 -5.503647E+05  9.266134E+05 -1.027576E+05  9.065143E+04
       217   4  9.809084E+03 -8.788822E+04 -8.948207E+02  9.468916E+05 -5.914171E+04 -4.525183E+03
       217   5  5.376742E+03 -8.482110E+04  2.540594E+03  5.171693E+05 -1.603903E+05 -4.988466E+03
       217   6  2.009570E+04 -8.432709E+04  9.704024E+03  9.468253E+05 -1.038206E+05 -6.732731E+03
       217   7  1.438266E+06  5.666252E+06  1.405185E+06  9.799142E+05 -5.809542E+04  1.257426E+05
       217   8  1.009270E+06  3.999382E+06  9.461002E+05  5.439879E+05 -1.601708E+05  1.110907E+04
       217   9  6.189067E+05  2.352097E+06  5.694164E+05  9.670982E+05 -1.048876E+05 -1.044964E+05
       217  10 -1.421088E+06 -5.812011E+06 -1.409368E+06  9.140880E+05 -3.328412E-10  1.365069E-11
       217  11 -9.997123E+05 -4.153675E+06 -9.421801E+05  4.904842E+05  1.821732E-09 -6.175366E-10
       217  12 -5.791371E+05 -2.515261E+06 -5.504001E+05  9.266209E+05 -4.795009E-09 -1.804976E-09
       217  13  9.805323E+03 -8.788918E+04 -9.014298E+02  9.468914E+05 -1.802314E-09 -7.803945E-10
       217  14  5.349114E+03 -8.482803E+04  2.492211E+03  5.171686E+05  7.835499E-09 -1.857117E-11
       217  15  2.008411E+04 -8.433003E+04  9.683690E+03  9.468247E+05 -1.479488E-09 -8.150612E-10
       217  16  1.438258E+06  5.666234E+06  1.405149E+06  9.799201E+05 -3.253191E-10  7.025197E-10
       217  17  1.009243E+06  3.999375E+06  9.460517E+05  5.439893E+05 -3.561725E-10  1.385319E-11
       217  18  6.188919E+05  2.352083E+06  5.693753E+05  9.670894E+05  4.861625E-11  1.396037E-09
       217  19 -1.421080E+06 -5.811991E+06 -1.409327E+06  9.140945E+05  6.017987E+04  1.335962E+05
       217  20 -9.996845E+05 -4.153667E+06 -9.421308E+05  4.904869E+05  1.606093E+05  2.098129E+04
       217  21 -5.791235E+05 -2.515249E+06 -5.503647E+05  9.266134E+05  1.027576E+05 -9.065143E+04
       217  22  9.809084E+03 -8.788822E+04 -8.948207E+02  9.468916E+05  5.914171E+04  4.525183E+03
       217  23  5.376742E+03 -8.482110E+04  2.540594E+03  5.171693E+05  1.603903E+05  4.988466E+03
       217  24  2.009570E+04 -8.432709E+04  9.704024E+03  9.468253E+05  1.038206E+05  6.732731E+03
       217  25  1.438266E+06  5.666252E+06  1.405185E+06  9.799142E+05  5.809542E+04 -1.257426E+05
       217  26  1.009270E+06  3.999382E+06  9.461002E+05  5.439879E+05  1.601708E+05 -1.110907E+04
       217  27  6.189067E+05  2.352097E+06  5.694164E+05  9.670982E+05  1.048876E+05  1.044964E+05
       218   1 -1.899011E+05 -9.341565E+05 -1.829330E+05  9.398537E+05 -3.612261E+04  4.207512E+04
       218   2  2.073704E+05  7.227474E+05  2.058765E+05  5.227834E+05  3.468624E+04  2.913967E+04
       218   3  6.319792E+05  2.370320E+06  6.049357E+05  9.702440E+05  1.035642E+05  1.628458E+04
       218   4  1.916851E+04 -8.516068E+04  1.230133E+04  9.480189E+05 -3.672004E+04 -9.687331E+03
       218   5  1.001464E+04 -7.947607E+04  2.149219E+04  5.156814E+05  3.413860E+04 -2.127634E+04
       218   6  2.816041E+04 -8.586163E+04  4.016007E+04  9.479121E+05  1.030563E+05 -3.275285E+04
       218   7  2.281893E+05  7.645087E+05  2.074981E+05  9.561930E+05 -3.731838E+04 -6.152008E+04
       218   8 -1.873846E+05 -8.810988E+05 -1.629251E+05  5.085869E+05  3.359174E+04 -7.162777E+04
       218   9 -5.760774E+05 -2.536468E+06 -5.250057E+05  9.256500E+05  1.025509E+05 -8.159818E+04
       218  10 -1.899030E+05 -9.341588E+05 -1.829388E+05  9.398549E+05 -1.609024E-09  4.058945E-09
       218  11  2.073689E+05  7.227462E+05  2.058726E+05  5.227826E+05 -6.480779E-10 -5.041009E-09
       218  12  6.319677E+05  2.370317E+06  6.049150E+05  9.702426E+05  5.471270E-09 -1.227253E-08
       218  13  1.916704E+04 -8.516115E+04  1.229863E+04  9.480186E+05 -6.659548E-10 -1.534192E-09
       218  14  1.001327E+04 -7.947687E+04  2.148914E+04  5.156820E+05 -6.687260E-09 -1.838981E-11
       218  15  2.814871E+04 -8.586564E+04  4.013807E+04  9.479148E+05 -6.713918E-09 -7.864686E-10
       218  16  2.281868E+05  7.645043E+05  2.074884E+05  9.561911E+05 -4.570711E-10 -3.681112E-09
       218  17 -1.873872E+05 -8.811046E+05 -1.629369E+05  5.085888E+05  4.781467E-09  4.154870E-09
       218  18 -5.760906E+05 -2.536478E+06 -5.250381E+05  9.256568E+05  3.937167E-09  1.103837E-08
       218  19 -1.899011E+05 -9.341565E+05 -1.829330E+05  9.398537E+05  3.612261E+04 -4.207512E+04
       218  20  2.073704E+05  7.227474E+05  2.058765E+05  5.227834E+05 -3.468624E+04 -2.913967E+04
       218  21  6.319792E+05  2.370320E+06  6.049357E+05  9.702440E+05 -1.035642E+05 -1.628458E+04
       218  22  1.916851E+04 -8.516068E+04  1.230133E+04  9.480189E+05  3.672004E+04  9.687331E+03
       218  23  1.001464E+04 -7.947607E+04  2.149219E+04  5.156814E+05 -3.413860E+04  2.127634E+04
       218  24  2.816041E+04 -8.586163E+04  4.016007E+04  9.479121E+05 -1.030563E+05  3.275285E+04
       218  25  2.281893E+05  7.645087E+05  2.074981E+05  9.561930E+05  3.731838E+04  6.152008E+04
       218  26 -1.873846E+05 -8.810988E+05 -1.629251E+05  5.085869E+05 -3.359174E+04  7.162777E+04
       218  27 -5.760774E+05 -2.536468E+06 -5.250057E+05  9.256500E+05 -1.025509E+05  8.159818E+04
       219   1  1.000522E+06  3.972798E+06  9.780316E+05  9.544135E+05  1.754412E+05  6.626035E+04
       219   2  1.387981E+06  5.589773E+06  1.392881E+06  5.671485E+05  2.245188E+05 -1.192123E+05
       219   3  1.981358E+06  7.289311E+06  1.979610E+06  1.036996E+06  7.776632E+04 -3.040379E+05
       219   4  7.971189E+03 -7.324900E+04  5.088221E+04  9.466931E+05  1.744331E+05 -4.127663E+04
       219   5 -1.017325E+04 -1.037442E+05  7.980165E+04  5.175046E+05  2.249217E+05 -8.435094E+04
       219   6  1.540639E+05 -7.817464E+04  1.828243E+05  9.458027E+05  7.880531E+04 -1.262700E+05
       219   7 -9.857116E+05 -4.104170E+06 -8.773007E+05  9.389750E+05  1.734240E+05 -1.481212E+05
       219   8 -1.410589E+06 -5.767453E+06 -1.235430E+06  4.682505E+05  2.253213E+05 -4.980202E+04
       219   9 -1.677186E+06 -7.396455E+06 -1.617792E+06  8.555843E+05  7.980016E+04  4.941859E+04
       219  10  1.000488E+06  3.972785E+06  9.779656E+05  9.544041E+05  1.505622E-09  1.084209E-08
       219  11  1.387923E+06  5.589744E+06  1.392760E+06  5.671700E+05 -1.555554E-09  5.608085E-09
       219  12  1.981327E+06  7.289211E+06  1.979427E+06  1.037015E+06  6.631489E-10 -1.668902E-09
       219  13  7.938044E+03 -7.325902E+04  5.082178E+04  9.466990E+05  7.723058E-09 -1.191667E-09
       219  14 -1.022950E+04 -1.037655E+05  7.969314E+04  5.175199E+05 -2.840161E-09  3.454174E-10
       219  15  1.540529E+05 -7.819345E+04  1.827826E+05  9.458107E+05  9.455351E-10 -3.234526E-10
       219  16 -9.857499E+05 -4.104202E+06 -8.773989E+05  9.389958E+05 -1.358543E-09 -1.030099E-08
       219  17 -1.410644E+06 -5.767469E+06 -1.235530E+06  4.682596E+05 -8.174316E-11 -5.287673E-09
       219  18 -1.677193E+06 -7.396460E+06 -1.617808E+06  8.555811E+05  2.055398E-09  1.406391E-09
       219  19  1.000522E+06  3.972798E+06  9.780316E+05  9.544135E+05 -1.754412E+05 -6.626035E+04
       219  20  1.387981E+06  5.589773E+06  1.392881E+06  5.671485E+05 -2.245188E+05  1.192123E+05
       219  21  1.981358E+06  7.289311E+06  1.979610E+06  1.036996E+06 -7.776632E+04  3.040379E+05
       219  22  7.971189E+03 -7.324900E+04  5.088221E+04  9.466931E+05 -1.744331E+05  4.127663E+04
       219  23 -1.017325E+04 -1.037442E+05  7.980165E+04  5.175046E+05 -2.249217E+05  8.435094E+04
       219  24  1.540639E+05 -7.817464E+04  1.828243E+05  9.458027E+05 -7.880531E+04  1.262700E+05
       219  25 -9.857116E+05 -4.104170E+06 -8.773007E+05  9.389750E+05 -1.734240E+05  1.481212E+05
       219  26 -1.410589E+06 -5.767453E+06 -1.235430E+06  4.682505E+05 -2.253213E+05  4.980202E+04
       219  27 -1.677186E+06 -7.396455E+06 -1.617792E+06  8.555843E+05 -7.980016E+04 -4.941859E+04
       220   1  6.384874E+06  1.570909E+06  1.553872E+06  6.510450E+05  1.641876E+05 -7.108550E+04
       220   2  5.199402E+06  1.258656E+06  1.191795E+06  3.576140E+05  4.180926E+04 -2.055062E+05
       220   3  4.057895E+06  9.805667E+05  9.206731E+05  6.644388E+05 -7.982611E+04 -1.740441E+05
       220   4  5.008661E+04 -1.083562E+02  9.287809E+03  6.639822E+05  6.205967E+03 -7.058193E+04
       220   5  4.066496E+04 -7.725373E+03  2.464546E+03  3.636828E+05  4.375330E+03 -2.055653E+05
       220   6  5.322397E+04 -1.817051E+03  3.519900E+03  6.639517E+05  3.056244E+03 -1.740514E+05
       220   7 -6.248299E+06 -1.574065E+06 -1.538122E+06  6.768014E+05 -1.501801E+05 -7.008306E+04
       220   8 -5.093593E+06 -1.275966E+06 -1.188630E+06  3.697040E+05 -3.275203E+04 -2.056256E+05
       220   9 -3.936641E+06 -9.853115E+05 -9.146617E+05  6.634572E+05  8.541099E+04 -1.740588E+05
       220  10  6.384844E+06  1.570896E+06  1.553812E+06  6.510543E+05  1.966531E-10 -5.611144E-10
       220  11  5.199389E+06  1.258611E+06  1.191713E+06  3.576209E+05 -1.545455E-09  9.659607E-10
       220  12  4.057880E+06  9.805325E+05  9.206043E+05  6.644277E+05 -9.930287E-10  6.062751E-10
       220  13  5.008523E+04 -1.137169E+02  9.278372E+03  6.639826E+05 -4.699082E-09  8.571662E-10
       220  14  4.065360E+04 -7.770757E+03  2.385096E+03  3.636836E+05  1.367026E-09 -2.174014E-10
       220  15  5.321582E+04 -1.849586E+03  3.462950E+03  6.639521E+05 -1.057565E-09  1.012898E-09
       220  16 -6.248324E+06 -1.574077E+06 -1.538174E+06  6.767929E+05  2.192253E-10 -1.996187E-09
       220  17 -5.093605E+06 -1.276012E+06 -1.188712E+06  3.696986E+05  2.964569E-09 -2.172212E-10
       220  18 -3.936657E+06 -9.853460E+05 -9.147325E+05  6.634692E+05  1.477429E-09  7.855978E-10
       220  19  6.384874E+06  1.570909E+06  1.553872E+06  6.510450E+05 -1.641876E+05  7.108550E+04
       220  20  5.199402E+06  1.258656E+06  1.191795E+06  3.576140E+05 -4.180926E+04  2.055062E+05
       220  21  4.057895E+06  9.805667E+05  9.206731E+05  6.644388E+05  7.982611E+04  1.740441E+05
       220  22  5.008661E+04 -1.083562E+02  9.287809E+03  6.639822E+05 -6.205967E+03  7.058193E+04
       220  23  4.066496E+04 -7.725373E+03  2.464546E+03  3.636828E+05 -4.375330E+03  2.055653E+05
       220  24  5.322397E+04 -1.817051E+03  3.519900E+03  6.639517E+05 -3.056244E+03  1.740514E+05
       220  25 -6.248299E+06 -1.574065E+06 -1.538122E+06  6.768014E+05  1.501801E+05  7.008306E+04
       220  26 -5.093593E+06 -1.275966E+06 -1.188630E+06  3.697040E+05  3.275203E+04  2.056256E+05
       220  27 -3.936641E+06 -9.853115E+05 -9.146617E+05  6.634572E+05 -8.541099E+04  1.740588E+05
       221   1  2.939946E+06  7.095321E+05  6.665540E+05  6.679771E+05 -2.917852E+04 -1.212525E+05
       221   2  1.779780E+06  4.257057E+05  3.986990E+05  3.643447E+05 -3.550450E+04 -7.374197E+04
       221   3  6.220738E+05  1.442612E+05  1.353172E+05  6.668799E+05 -4.197221E+04 -1.841517E+04
       221   4  5.026990E+04 -2.288155E+02  2.246154E+03  6.652268E+05  2.316855E+03 -1.212380E+05
       221   5  5.067096E+04  8.056943E+02  1.424811E+03  3.620880E+05  1.611896E+03 -7.367508E+04
       221   6  5.132734E+04  3.338987E+03  1.254165E+03  6.652222E+05  7.535114E+02 -1.828130E+04
       221   7 -2.831700E+06 -7.105717E+05 -6.626103E+05  6.624822E+05  3.366731E+04 -1.212237E+05
       221   8 -1.675673E+06 -4.243021E+05 -3.960418E+05  3.598354E+05  3.862597E+04 -7.360834E+04
       221   9 -5.191155E+05 -1.376055E+05 -1.328243E+05  6.635656E+05  4.344022E+04 -1.814757E+04
       221  10  2.939941E+06  7.095161E+05  6.665248E+05  6.679743E+05 -2.672249E-10  6.174549E-10
       221  11  1.779777E+06  4.256995E+05  3.986864E+05  3.643426E+05  4.991286E-10  8.874557E-10
       221  12  6.220719E+05  1.442604E+05  1.353133E+05  6.668793E+05 -1.013266E-09 -1.263367E-09
       221  13  5.026595E+04 -2.446015E+02  2.218520E+03  6.652270E+05  2.504833E-10  7.136209E-10
       221  14  5.066950E+04  7.998647E+02  1.414605E+03  3.620881E+05 -2.243222E-09  2.454295E-09
       221  15  5.132725E+04  3.338628E+03  1.253536E+03  6.652222E+05 -1.726189E-09 -9.969423E-10
       221  16 -2.831705E+06 -7.105878E+05 -6.626401E+05  6.624855E+05  1.154139E-09  1.414689E-09
       221  17 -1.675676E+06 -4.243083E+05 -3.960548E+05  3.598377E+05 -1.180153E-09  6.913695E-10
       221  18 -5.191177E+05 -1.376063E+05 -1.328285E+05  6.635663E+05 -1.948217E-09 -5.209685E-10
       221  19  2.939946E+06  7.095321E+05  6.665540E+05  6.679771E+05  2.917852E+04  1.212525E+05
       221  20  1.779780E+06  4.257057E+05  3.986990E+05  3.643447E+05  3.550450E+04  7.374197E+04
       221  21  6.220738E+05  1.442612E+05  1.353172E+05  6.668799E+05  4.197221E+04  1.841517E+04
       221  22  5.026990E+04 -2.288155E+02  2.246154E+03  6.652268E+05 -2.316855E+03  1.212380E+05
       221  23  5.067096E+04  8.056943E+02  1.424811E+03  3.620880E+05 -1.611896E+03  7.367508E+04
       221  24  5.132734E+04  3.338987E+03  1.254165E+03  6.652222E+05 -7.535114E+02  1.828130E+04
       221  25 -2.831700E+06 -7.105717E+05 -6.626103E+05  6.624822E+05 -3.366731E+04  1.212237E+05
       221  26 -1.675673E+06 -4.243021E+05 -3.960418E+05  3.598354E+05 -3.862597E+04  7.360834E+04
       221  27 -5.191155E+05 -1.376055E+05 -1.328243E+05  6.635656E+05 -4.344022E+04  1.814757E+04
       222   1 -4.868688E+05 -1.295655E+05 -1.255753E+05  6.635159E+05 -4.233519E+04  1.675822E+04
       222   2 -1.643287E+06 -4.162592E+05 -3.895940E+05  3.599116E+05 -3.705022E+04  7.222228E+04
       222   3 -2.799519E+06 -7.032344E+05 -6.574711E+05  6.626703E+05 -3.162424E+04  1.198824E+05
       222   4  5.126274E+04  3.427366E+03  1.073548E+03  6.652191E+05  3.407835E+02  1.689221E+04
       222   5  5.078144E+04  8.933668E+02  4.387826E+02  3.620917E+05 -1.529198E+01  7.229024E+04
       222   6  5.022510E+04 -8.500538E+02 -6.783699E+01  6.652252E+05 -2.205720E+02  1.198986E+05
       222   7  5.896648E+05  1.364006E+05  1.277093E+05  6.669235E+05  4.305355E+04  1.702637E+04
       222   8  1.747513E+06  4.178458E+05  3.902865E+05  3.642756E+05  3.712009E+04  7.235836E+04
       222   9  2.907503E+06  7.009653E+05  6.567991E+05  6.677850E+05  3.132662E+04  1.199150E+05
       222  10 -4.868708E+05 -1.295663E+05 -1.255792E+05  6.635164E+05 -3.235121E-09 -2.215790E-10
       222  11 -1.643290E+06 -4.162651E+05 -3.896064E+05  3.599138E+05 -1.283726E-09 -5.132661E-10
       222  12 -2.799524E+06 -7.032501E+05 -6.575000E+05  6.626733E+05 -3.784916E-10 -3.147171E-11
       222  13  5.126266E+04  3.427060E+03  1.073011E+03  6.652191E+05  1.041702E-09 -7.174838E-10
       222  14  5.078003E+04  8.877549E+02  4.289619E+02  3.620917E+05 -6.665587E-10 -1.264467E-09
       222  15  5.022124E+04 -8.654912E+02 -9.485263E+01  6.652252E+05  5.370217E-11 -1.337565E-09
       222  16  5.896628E+05  1.363998E+05  1.277053E+05  6.669229E+05  7.842909E-10 -8.704748E-10
       222  17  1.747510E+06  4.178399E+05  3.902741E+05  3.642734E+05 -1.606329E-09  1.166448E-09
       222  18  2.907498E+06  7.009496E+05  6.567703E+05  6.677819E+05  5.937072E-10 -1.464886E-10
       222  19 -4.868688E+05 -1.295655E+05 -1.255753E+05  6.635159E+05  4.233519E+04 -1.675822E+04
       222  20 -1.643287E+06 -4.162592E+05 -3.895940E+05  3.599116E+05  3.705022E+04 -7.222228E+04
       222  21 -2.799519E+06 -7.032344E+05 -6.574711E+05  6.626703E+05  3.162424E+04 -1.198824E+05
       222  22  5.126274E+04  3.427366E+03  1.073548E+03  6.652191E+05 -3.407835E+02 -1.689221E+04
       222  23  5.078144E+04  8.933668E+02  4.387826E+02  3.620917E+05  1.529198E+01 -7.229024E+04
       222  24  5.022510E+04 -8.500538E+02 -6.783699E+01  6.652252E+05  2.205720E+02 -1.198986E+05
       222  25  5.896648E+05  1.364006E+05  1.277093E+05  6.669235E+05 -4.305355E+04 -1.702637E+04
       222  26  1.747513E+06  4.178458E+05  3.902865E+05  3.642756E+05 -3.712009E+04 -7.235836E+04
       222  27  2.907503E+06  7.009653E+05  6.567991E+05  6.677850E+05 -3.132662E+04 -1.199150E+05
       223   1 -3.905094E+06 -9.767568E+05 -9.102237E+05  6.620004E+05 -8.270329E+04  1.726236E+05
       223   2 -5.060501E+06 -1.267245E+06 -1.186217E+06  3.706474E+05  3.759543E+04  2.043067E+05
       223   3 -6.216710E+06 -1.575274E+06 -1.541707E+06  6.802341E+05  1.571647E+05  6.965953E+04
       223   4  5.256915E+04 -1.214006E+03  5.441376E+02  6.639800E+05 -5.300339E+02  1.726204E+05
       223   5  4.159727E+04 -6.968301E+03 -2.593898E+03  3.636501E+05  8.556289E+02  2.042452E+05
       223   6  4.945181E+04 -9.356489E+03 -2.209457E+03  6.639845E+05  1.743159E+03  7.014427E+04
       223   7  4.024800E+06  9.732360E+05  9.103004E+05  6.659619E+05  8.216536E+04  1.726176E+05
       223   8  5.167868E+06  1.251473E+06  1.179287E+06  3.565970E+05 -3.618578E+04  2.041852E+05
       223   9  6.351644E+06  1.553652E+06  1.534491E+06  6.475817E+05 -1.552562E+05  7.063548E+04
       223  10 -3.905109E+06 -9.767907E+05 -9.102927E+05  6.620119E+05 -6.896452E-10 -1.420149E-10
       223  11 -5.060514E+06 -1.267290E+06 -1.186298E+06  3.706412E+05  3.885353E-10  2.245802E-10
       223  12 -6.216738E+06 -1.575286E+06 -1.541763E+06  6.802253E+05 -6.939606E-10 -9.328610E-10
       223  13  5.256115E+04 -1.246004E+03  4.881392E+02  6.639801E+05  9.088968E-10 -4.610287E-10
       223  14  4.158607E+04 -7.013098E+03 -2.672294E+03  3.636500E+05  4.565106E-09  4.989850E-10
       223  15  4.945049E+04 -9.361773E+03 -2.218709E+03  6.639844E+05 -6.822429E-10 -9.642385E-10
       223  16  4.024784E+06  9.732023E+05  9.102318E+05  6.659505E+05  2.410395E-09 -1.501428E-09
       223  17  5.167856E+06  1.251428E+06  1.179207E+06  3.566029E+05 -3.841943E-10 -3.873138E-10
       223  18  6.351617E+06  1.553640E+06  1.534437E+06  6.475905E+05  1.344683E-09 -1.099524E-09
       223  19 -3.905094E+06 -9.767568E+05 -9.102237E+05  6.620004E+05  8.270329E+04 -1.726236E+05
       223  20 -5.060501E+06 -1.267245E+06 -1.186217E+06  3.706474E+05 -3.759543E+04 -2.043067E+05
       223  21 -6.216710E+06 -1.575274E+06 -1.541707E+06  6.802341E+05 -1.571647E+05 -6.965953E+04
       223  22  5.256915E+04 -1.214006E+03  5.441376E+02  6.639800E+05  5.300339E+02 -1.726204E+05
       223  23  4.159727E+04 -6.968301E+03 -2.593898E+03  3.636501E+05 -8.556289E+02 -2.042452E+05
       223  24  4.945181E+04 -9.356489E+03 -2.209457E+03  6.639845E+05 -1.743159E+03 -7.014427E+04
       223  25  4.024800E+06  9.732360E+05  9.103004E+05  6.659619E+05 -8.216536E+04 -1.726176E+05
       223  26  5.167868E+06  1.251473E+06  1.179287E+06  3.565970E+05  3.618578E+04 -2.041852E+05
       223  27  6.351644E+06  1.553652E+06  1.534491E+06  6.475817E+05  1.552562E+05 -7.063548E+04
       224   1 -1.310881E+06 -5.302287E+06 -1.300428E+06  8.486423E+05 -5.535256E+04 -1.222103E+05
       224   2 -9.195304E+05 -3.766423E+06 -8.689105E+05  4.560249E+05 -1.476834E+05 -1.722270E+04
       224   3 -5.314996E+05 -2.249923E+06 -5.083006E+05  8.592138E+05 -9.410583E+04  8.689498E+04
       224   4  7.668664E+03 -2.567387E+04 -2.520581E+03  8.769949E+05 -5.443891E+04 -3.351754E+03
       224   5  4.988196E+03 -2.254081E+04  9.296271E+01  4.792100E+05 -1.474953E+05 -2.668451E+03
       224   6  1.740064E+04 -2.263887E+04  4.767136E+03  8.769290E+05 -9.503571E+04 -3.113048E+03
       224   7  1.324153E+06  5.276450E+06  1.293389E+06  9.055265E+05 -5.351886E+04  1.165220E+05
       224   8  9.285187E+05  3.734337E+06  8.681554E+05  5.025039E+05 -1.473068E+05  1.197340E+04
       224   9  5.659583E+05  2.209263E+06  5.175363E+05  8.946934E+05 -9.596886E+04 -9.344232E+04
       224  10 -1.310888E+06 -5.302304E+06 -1.300462E+06  8.486368E+05 -1.027990E-09  4.313105E-09
       224  11 -9.195539E+05 -3.766429E+06 -8.689520E+05  4.560229E+05 -1.682760E-10  5.506314E-09
       224  12 -5.315112E+05 -2.249934E+06 -5.083315E+05  8.592204E+05 -3.593020E-09 -2.092421E-09
       224  13  7.665479E+03 -2.567468E+04 -2.526170E+03  8.769948E+05 -3.921858E-09 -3.240084E-09
       224  14  4.964834E+03 -2.254665E+04  5.206989E+01  4.792097E+05  6.828525E-09 -6.513073E-11
       224  15  1.739094E+04 -2.264130E+04  4.750148E+03  8.769288E+05 -3.033720E-09 -3.041863E-09
       224  16  1.324146E+06  5.276435E+06  1.293358E+06  9.055315E+05 -1.079980E-09 -3.651382E-09
       224  17  9.284953E+05  3.734331E+06  8.681144E+05  5.025053E+05 -7.573204E-10 -4.609921E-09
       224  18  5.659461E+05  2.209252E+06  5.175027E+05  8.946862E+05 -4.748026E-10  9.178117E-10
       224  19 -1.310881E+06 -5.302287E+06 -1.300428E+06  8.486423E+05  5.535256E+04  1.222103E+05
       224  20 -9.195304E+05 -3.766423E+06 -8.689105E+05  4.560249E+05  1.476834E+05  1.722270E+04
       224  21 -5.314996E+05 -2.249923E+06 -5.083006E+05  8.592138E+05  9.410583E+04 -8.689498E+04
       224  22  7.668664E+03 -2.567387E+04 -2.520581E+03  8.769949E+05  5.443891E+04  3.351754E+03
       224  23  4.988196E+03 -2.254081E+04  9.296271E+01  4.792100E+05  1.474953E+05  2.668451E+03
       224  24  1.740064E+04 -2.263887E+04  4.767136E+03  8.769290E+05  9.503571E+04  3.113048E+03
       224  25  1.324153E+06  5.276450E+06  1.293389E+06  9.055265E+05  5.351886E+04 -1.165220E+05
       224  26  9.285187E+05  3.734337E+06  8.681554E+05  5.025039E+05  1.473068E+05 -1.197340E+04
       224  27  5.659583E+05  2.209263E+06  5.175363E+05  8.946934E+05  9.596886E+04  9.344232E+04
       225   1 -1.708823E+05 -7.866109E+05 -1.694223E+05  8.717748E+05 -3.246006E+04  4.299559E+04
       225   2  1.973614E+05  7.475668E+05  1.866560E+05  4.839091E+05  3.315332E+04  3.564384E+04
       225   3  5.848267E+05  2.271828E+06  5.479572E+05  8.962135E+05  9.693241E+04  2.837534E+04
       225   4  1.696248E+04 -2.357595E+04  6.003445E+03  8.779954E+05 -3.298291E+04 -4.951442E+03
       225   5  9.116504E+03 -1.773788E+04  1.076720E+04  4.778709E+05  3.267459E+04 -1.102586E+04
       225   6  2.043125E+04 -2.419703E+04  1.999451E+04  8.779542E+05  9.648900E+04 -1.700053E+04
       225   7  2.047679E+05  7.400032E+05  1.813993E+05  8.842220E+05 -3.350635E+04 -5.295698E+04
       225   8 -1.791681E+05 -7.824962E+05 -1.651522E+05  4.718386E+05  3.219645E+04 -5.763853E+04
       225   9 -5.443306E+05 -2.315350E+06 -5.083093E+05  8.597473E+05  9.604735E+04 -6.221030E+04
       225  10 -1.708839E+05 -7.866131E+05 -1.694277E+05  8.717759E+05 -3.979732E-10 -6.775721E-09
       225  11  1.973599E+05  7.475652E+05  1.866516E+05  4.839082E+05 -1.385024E-09  1.345105E-09
       225  12  5.848164E+05  2.271824E+06  5.479381E+05  8.962113E+05  4.199405E-09  7.228197E-10
       225  13  1.696130E+04 -2.357627E+04  6.001355E+03  8.779953E+05 -1.183870E-09 -5.089469E-09
       225  14  9.115325E+03 -1.773830E+04  1.076496E+04  4.778712E+05 -5.098315E-09  1.291248E-11
       225  15  2.042118E+04 -2.419984E+04  1.997646E+04  8.779556E+05 -6.915563E-09 -3.033206E-09
       225  16  2.047659E+05  7.399999E+05  1.813919E+05  8.842206E+05 -2.959501E-10  7.853090E-09
       225  17 -1.791701E+05 -7.825000E+05 -1.651604E+05  4.718401E+05  5.348845E-09  3.699612E-10
       225  18 -5.443415E+05 -2.315357E+06 -5.083340E+05  8.597521E+05  3.670209E-09 -2.146842E-09
       225  19 -1.708823E+05 -7.866109E+05 -1.694223E+05  8.717748E+05  3.246006E+04 -4.299559E+04
       225  20  1.973614E+05  7.475668E+05  1.866560E+05  4.839091E+05 -3.315332E+04 -3.564384E+04
       225  21  5.848267E+05  2.271828E+06  5.479572E+05  8.962135E+05 -9.693241E+04 -2.837534E+04
       225  22  1.696248E+04 -2.357595E+04  6.003445E+03  8.779954E+05  3.298291E+04  4.951442E+03
       225  23  9.116504E+03 -1.773788E+04  1.076720E+04  4.778709E+05 -3.267459E+04  1.102586E+04
       225  24  2.043125E+04 -2.419703E+04  1.999451E+04  8.779542E+05 -9.648900E+04  1.700053E+04
       225  25  2.047679E+05  7.400032E+05  1.813993E+05  8.842220E+05  3.350635E+04  5.295698E+04
       225  26 -1.791681E+05 -7.824962E+05 -1.651522E+05  4.718386E+05 -3.219645E+04  5.763853E+04
       225  27 -5.443306E+05 -2.315350E+06 -5.083093E+05  8.597473E+05 -9.604735E+04  6.221030E+04
       226   1  9.345373E+05  3.750450E+06  8.890756E+05  8.920101E+05  1.635357E+05  7.806580E+04
       226   2  1.294727E+06  5.257649E+06  1.259418E+06  5.158205E+05  2.090592E+05 -7.511152E+04
       226   3  1.775467E+06  6.820762E+06  1.759366E+06  9.332562E+05  7.263037E+04 -2.276499E+05
       226   4  1.009619E+04 -1.670093E+04  2.571243E+04  8.767412E+05  1.626511E+05 -2.167465E+04
       226   5 -4.874668E+03 -3.445481E+04  3.874594E+04  4.795469E+05  2.094101E+05 -4.276392E+04
       226   6  7.846721E+04 -2.095747E+04  9.042776E+04  8.763443E+05  7.353673E+04 -6.282815E+04
       226   7 -9.153262E+05 -3.770738E+06 -8.385473E+05  8.615259E+05  1.617684E+05 -1.208173E+05
       226   8 -1.306431E+06 -5.300800E+06 -1.183786E+06  4.435289E+05  2.097591E+05 -1.068706E+04
       226   9 -1.621957E+06 -6.820237E+06 -1.581816E+06  8.199741E+05  7.441924E+04  1.001993E+05
       226  10  9.345070E+05  3.750436E+06  8.890140E+05  8.919998E+05  4.600837E-10 -2.637384E-09
       226  11  1.294678E+06  5.257631E+06  1.259325E+06  5.158331E+05 -1.494348E-09  1.462561E-09
       226  12  1.775448E+06  6.820706E+06  1.759260E+06  9.332695E+05  4.108480E-10  6.197482E-10
       226  13  1.006765E+04 -1.670854E+04  2.566181E+04  8.767441E+05  6.362122E-09 -4.559022E-09
       226  14 -4.922258E+03 -3.446856E+04  3.866007E+04  4.795541E+05 -3.238973E-09 -1.515290E-10
       226  15  7.846033E+04 -2.096317E+04  9.041015E+04  8.763480E+05  5.944853E-10 -1.272845E-09
       226  16 -9.153583E+05 -3.770761E+06 -8.386242E+05  8.615417E+05 -1.795502E-09  3.646078E-09
       226  17 -1.306479E+06 -5.300812E+06 -1.183869E+06  4.435308E+05 -3.115621E-10 -5.791687E-11
       226  18 -1.621965E+06 -6.820249E+06 -1.581845E+06  8.199681E+05  1.803506E-09 -9.849672E-10
       226  19  9.345373E+05  3.750450E+06  8.890756E+05  8.920101E+05 -1.635357E+05 -7.806580E+04
       226  20  1.294727E+06  5.257649E+06  1.259418E+06  5.158205E+05 -2.090592E+05  7.511152E+04
       226  21  1.775467E+06  6.820762E+06  1.759366E+06  9.332562E+05 -7.263037E+04  2.276499E+05
       226  22  1.009619E+04 -1.670093E+04  2.571243E+04  8.767412E+05 -1.626511E+05  2.167465E+04
       226  23 -4.874668E+03 -3.445481E+04  3.874594E+04  4.795469E+05 -2.094101E+05  4.276392E+04
       226  24  7.846721E+04 -2.095747E+04  9.042776E+04  8.763443E+05 -7.353673E+04  6.282815E+04
       226  25 -9.153262E+05 -3.770738E+06 -8.385473E+05  8.615259E+05 -1.617684E+05  1.208173E+05
       226  26 -1.306431E+06 -5.300800E+06 -1.183786E+06  4.435289E+05 -2.097591E+05  1.068706E+04
       226  27 -1.621957E+06 -6.820237E+06 -1.581816E+06  8.199741E+05 -7.441924E+04 -1.001993E+05
       227   1  6.382331E+06  1.554268E+06  1.538632E+06  6.452045E+05  1.663034E+05 -7.007984E+04
       227   2  5.211095E+06  1.240326E+06  1.177699E+06  3.537515E+05  4.403203E+04 -2.025503E+05
       227   3  4.084524E+06  9.657125E+05  9.088429E+05  6.551760E+05 -7.751662E+04 -1.714541E+05
       227   4  1.361057E+05  5.301881E+03  1.570543E+04  6.555611E+05  1.055573E+04 -6.959053E+04
       227   5  1.261074E+05 -7.886016E+03  5.427389E+03  3.589500E+05  7.157712E+03 -2.026075E+05
       227   6  1.391593E+05 -2.063891E+03  5.327283E+03  6.555169E+05  4.257363E+03 -1.714614E+05
       227   7 -6.074730E+06 -1.546522E+06 -1.509968E+06  6.658268E+05 -1.436412E+05 -6.910462E+04
       227   8 -4.935098E+06 -1.257905E+06 -1.168558E+06  3.641085E+05 -2.941902E+04 -2.026659E+05
       227   9 -3.791836E+06 -9.709182E+05 -8.991863E+05  6.558456E+05  8.551850E+04 -1.714686E+05
       227  10  6.382300E+06  1.554255E+06  1.538571E+06  6.452138E+05 -8.672159E-10  1.475330E-09
       227  11  5.211082E+06  1.240282E+06  1.177619E+06  3.537587E+05 -1.902384E-09  3.028903E-09
       227  12  4.084510E+06  9.656794E+05  9.087765E+05  6.551653E+05 -7.069714E-10  5.621127E-10
       227  13  1.361043E+05  5.296649E+03  1.569611E+04  6.555617E+05 -3.588023E-09  2.237789E-10
       227  14  1.260963E+05 -7.930114E+03  5.350143E+03  3.589511E+05  3.130780E-10 -8.737733E-10
       227  15  1.391514E+05 -2.095469E+03  5.271995E+03  6.555175E+05  1.222397E-09  4.218679E-10
       227  16 -6.074753E+06 -1.546532E+06 -1.510016E+06  6.658187E+05  2.742465E-09  1.065314E-09
       227  17 -4.935110E+06 -1.257949E+06 -1.168637E+06  3.641037E+05 -1.504034E-09 -1.050215E-09
       227  18 -3.791852E+06 -9.709517E+05 -8.992554E+05  6.558574E+05  8.176633E-11  2.313099E-10
       227  19  6.382331E+06  1.554268E+06  1.538632E+06  6.452045E+05 -1.663034E+05  7.007984E+04
       227  20  5.211095E+06  1.240326E+06  1.177699E+06  3.537515E+05 -4.403203E+04  2.025503E+05
       227  21  4.084524E+06  9.657125E+05  9.088429E+05  6.551760E+05  7.751662E+04  1.714541E+05
       227  22  1.361057E+05  5.301881E+03  1.570543E+04  6.555611E+05 -1.055573E+04  6.959053E+04
       227  23  1.261074E+05 -7.886016E+03  5.427389E+03  3.589500E+05 -7.157712E+03  2.026075E+05
       227  24  1.391593E+05 -2.063891E+03  5.327283E+03  6.555169E+05 -4.257363E+03  1.714614E+05
       227  25 -6.074730E+06 -1.546522E+06 -1.509968E+06  6.658268E+05  1.436412E+05  6.910462E+04
       227  26 -4.935098E+06 -1.257905E+06 -1.168558E+06  3.641085E+05  2.941902E+04  2.026659E+05
       227  27 -3.791836E+06 -9.709182E+05 -8.991863E+05  6.558456E+05 -8.551850E+04  1.714686E+05
       228   1  2.980801E+06  6.988797E+05  6.577307E+05  6.594702E+05 -2.784340E+04 -1.193648E+05
       228   2  1.835708E+06  4.183253E+05  3.928394E+05  3.597251E+05 -3.458381E+04 -7.246773E+04
       228   3  6.932257E+05  1.405843E+05  1.328072E+05  6.581853E+05 -4.146059E+04 -1.786989E+04
       228   4  1.359555E+05  1.776481E+02  3.775847E+03  6.566671E+05  3.250235E+03 -1.193507E+05
       228   5  1.362493E+05  7.434990E+02  2.407175E+03  3.575118E+05  2.050053E+03 -7.240283E+04
       228   6  1.369809E+05  3.248228E+03  2.126649E+03  6.566635E+05  7.011378E+02 -1.774007E+04
       228   7 -2.701423E+06 -6.990883E+05 -6.507106E+05  6.538703E+05  3.420302E+04 -1.193368E+05
       228   8 -1.560538E+06 -4.170390E+05 -3.882108E+05  3.553024E+05  3.858466E+04 -7.233809E+04
       228   9 -4.189755E+05 -1.341090E+05 -1.285684E+05  6.551428E+05  4.282535E+04 -1.761038E+04
       228  10  2.980797E+06  6.988642E+05  6.577025E+05  6.594675E+05 -3.059511E-11  7.706513E-10
       228  11  1.835705E+06  4.183193E+05  3.928273E+05  3.597231E+05 -1.141423E-09  1.356216E-10
       228  12  6.932238E+05  1.405835E+05  1.328034E+05  6.581847E+05  2.794954E-09 -6.875050E-10
       228  13  1.359517E+05  1.623475E+02  3.749055E+03  6.566675E+05  2.385440E-09 -1.704767E-10
       228  14  1.362479E+05  7.378682E+02  2.397315E+03  3.575119E+05 -3.839883E-09  1.124278E-09
       228  15  1.369808E+05  3.247890E+03  2.126057E+03  6.566635E+05 -1.001713E-09  1.313296E-09
       228  16 -2.701428E+06 -6.991040E+05 -6.507396E+05  6.538736E+05  4.184108E-10 -1.289436E-11
       228  17 -1.560541E+06 -4.170450E+05 -3.882235E+05  3.553046E+05 -2.152997E-09 -1.806833E-09
       228  18 -4.189775E+05 -1.341098E+05 -1.285725E+05  6.551434E+05 -1.294919E-09  2.114503E-10
       228  19  2.980801E+06  6.988797E+05  6.577307E+05  6.594702E+05  2.784340E+04  1.193648E+05
       228  20  1.835708E+06  4.183253E+05  3.928394E+05  3.597251E+05  3.458381E+04  7.246773E+04
       228  21  6.932257E+05  1.405843E+05  1.328072E+05  6.581853E+05  4.146059E+04  1.786989E+04
       228  22  1.359555E+05  1.776481E+02  3.775847E+03  6.566671E+05 -3.250235E+03  1.193507E+05
       228  23  1.362493E+05  7.434990E+02  2.407175E+03  3.575118E+05 -2.050053E+03  7.240283E+04
       228  24  1.369809E+05  3.248228E+03  2.126649E+03  6.566635E+05 -7.011378E+02  1.774007E+04
       228  25 -2.701423E+06 -6.990883E+05 -6.507106E+05  6.538703E+05 -3.420302E+04  1.193368E+05
       228  26 -1.560538E+06 -4.170390E+05 -3.882108E+05  3.553024E+05 -3.858466E+04  7.233809E+04
       228  27 -4.189755E+05 -1.341090E+05 -1.285684E+05  6.551428E+05 -4.282535E+04  1.761038E+04
       229   1 -4.010320E+05 -1.296140E+05 -1.245699E+05  6.550940E+05 -4.198165E+04  1.683769E+04
       229   2 -1.542489E+06 -4.125499E+05 -3.848311E+05  3.553511E+05 -3.737177E+04  7.156667E+04
       229   3 -2.683484E+06 -6.951450E+05 -6.483331E+05  6.540267E+05 -3.262312E+04  1.185897E+05
       229   4  1.369335E+05  3.316405E+03  1.988797E+03  6.566658E+05  1.370390E+02  1.696754E+04
       229   5  1.363249E+05  8.029301E+02  1.647901E+03  3.575088E+05 -8.252298E+02  7.163209E+04
       229   6  1.359191E+05 -3.175570E+02  1.996806E+03  6.566705E+05 -1.640190E+03  1.186047E+05
       229   7  6.751692E+05  1.362271E+05  1.285342E+05  6.582386E+05  4.229202E+04  1.709752E+04
       229   8  1.817754E+06  4.139594E+05  3.879452E+05  3.596704E+05  3.581954E+04  7.169765E+04
       229   9  2.962696E+06  6.939531E+05  6.518019E+05  6.593198E+05  2.948281E+04  1.186199E+05
       229  10 -4.010339E+05 -1.296148E+05 -1.245737E+05  6.550945E+05 -1.816382E-09 -2.028691E-09
       229  11 -1.542492E+06 -4.125558E+05 -3.848434E+05  3.553532E+05  2.055287E-10  1.799077E-09
       229  12 -2.683489E+06 -6.951604E+05 -6.483616E+05  6.540298E+05  4.944870E-09  1.950308E-09
       229  13  1.369334E+05  3.316096E+03  1.988256E+03  6.566658E+05  3.165401E-09 -1.251701E-09
       229  14  1.363236E+05  7.974195E+02  1.638257E+03  3.575089E+05  1.470143E-09 -2.122935E-09
       229  15  1.359153E+05 -3.326646E+02  1.970364E+03  6.566707E+05 -4.770083E-11  1.879255E-09
       229  16  6.751672E+05  1.362263E+05  1.285303E+05  6.582380E+05  1.867318E-09 -4.067957E-10
       229  17  1.817751E+06  4.139535E+05  3.879331E+05  3.596683E+05 -4.996663E-09 -3.742572E-10
       229  18  2.962691E+06  6.939377E+05  6.517739E+05  6.593170E+05 -5.057342E-09  1.859809E-09
       229  19 -4.010320E+05 -1.296140E+05 -1.245699E+05  6.550940E+05  4.198165E+04 -1.683769E+04
       229  20 -1.542489E+06 -4.125499E+05 -3.848311E+05  3.553511E+05  3.737177E+04 -7.156667E+04
       229  21 -2.683484E+06 -6.951450E+05 -6.483331E+05  6.540267E+05  3.262312E+04 -1.185897E+05
       229  22  1.369335E+05  3.316405E+03  1.988797E+03  6.566658E+05 -1.370390E+02 -1.696754E+04
       229  23  1.363249E+05  8.029301E+02  1.647901E+03  3.575088E+05  8.252298E+02 -7.163209E+04
       229  24  1.359191E+05 -3.175570E+02  1.996806E+03  6.566705E+05  1.640190E+03 -1.186047E+05
       229  25  6.751692E+05  1.362271E+05  1.285342E+05  6.582386E+05 -4.229202E+04 -1.709752E+04
       229  26  1.817754E+06  4.139594E+05  3.879452E+05  3.596704E+05 -3.581954E+04 -7.169765E+04
       229  27  2.962696E+06  6.939531E+05  6.518019E+05  6.593198E+05 -2.948281E+04 -1.186199E+05
       230   1 -3.774380E+06 -9.660409E+05 -8.973391E+05  6.547066E+05 -8.347697E+04  1.706691E+05
       230   2 -4.916486E+06 -1.252910E+06 -1.168288E+06  3.649399E+05  3.322073E+04  2.019292E+05
       230   3 -6.057327E+06 -1.549198E+06 -1.514414E+06  6.685063E+05  1.492102E+05  6.886278E+04
       230   4  1.386589E+05 -1.619547E+03  3.041373E+03  6.554960E+05 -2.316853E+03  1.706642E+05
       230   5  1.267957E+05 -7.328873E+03  1.534826E+03  3.589782E+05 -3.135549E+03  2.018702E+05
       230   6  1.356163E+05 -1.828394E+03  6.870337E+03  6.555201E+05 -4.444636E+03  6.934076E+04
       230   7  4.065936E+06  9.617338E+05  9.024331E+05  6.562803E+05  7.935308E+04  1.706593E+05
       230   8  5.193691E+06  1.236459E+06  1.169656E+06  3.529699E+05 -3.978668E+04  2.018124E+05
       230   9  6.363745E+06  1.542700E+06  1.525423E+06  6.424155E+05 -1.596406E+05  6.982352E+04
       230  10 -3.774395E+06 -9.660741E+05 -8.974071E+05  6.547181E+05 -2.466807E-09  1.246435E-09
       230  11 -4.916498E+06 -1.252954E+06 -1.168367E+06  3.649345E+05 -1.552700E-09 -5.771519E-10
       230  12 -6.057353E+06 -1.549209E+06 -1.514465E+06  6.684980E+05 -1.336575E-09  5.887679E-10
       230  13  1.386511E+05 -1.650828E+03  2.986623E+03  6.554963E+05  2.034847E-09  1.768744E-09
       230  14  1.267847E+05 -7.372639E+03  1.458220E+03  3.589787E+05  1.401096E-09 -3.821500E-09
       230  15  1.356150E+05 -1.833563E+03  6.861263E+03  6.555204E+05 -2.548773E-11 -1.208907E-11
       230  16  4.065921E+06  9.617009E+05  9.023667E+05  6.562694E+05  5.756083E-09  1.844703E-09
       230  17  5.193678E+06  1.236415E+06  1.169576E+06  3.529764E+05  5.191789E-09 -1.258901E-09
       230  18  6.363717E+06  1.542688E+06  1.525367E+06  6.424245E+05 -1.817736E-09  7.126300E-10
       230  19 -3.774380E+06 -9.660409E+05 -8.973391E+05  6.547066E+05  8.347697E+04 -1.706691E+05
       230  20 -4.916486E+06 -1.252910E+06 -1.168288E+06  3.649399E+05 -3.322073E+04 -2.019292E+05
       230  21 -6.057327E+06 -1.549198E+06 -1.514414E+06  6.685063E+05 -1.492102E+05 -6.886278E+04
       230  22  1.386589E+05 -1.619547E+03  3.041373E+03  6.554960E+05  2.316853E+03 -1.706642E+05
       230  23  1.267957E+05 -7.328873E+03  1.534826E+03  3.589782E+05  3.135549E+03 -2.018702E+05
       230  24  1.356163E+05 -1.828394E+03  6.870337E+03  6.555201E+05  4.444636E+03 -6.934076E+04
       230  25  4.065936E+06  9.617338E+05  9.024331E+05  6.562803E+05 -7.935308E+04 -1.706593E+05
       230  26  5.193691E+06  1.236459E+06  1.169656E+06  3.529699E+05  3.978668E+04 -2.018124E+05
       230  27  6.363745E+06  1.542700E+06  1.525423E+06  6.424155E+05  1.596406E+05 -6.982352E+04
       231   1 -1.279111E+06 -5.132657E+06 -1.270942E+06  8.286318E+05 -5.370419E+04 -1.223849E+05
       231   2 -8.911356E+05 -3.638290E+06 -8.484085E+05  4.448584E+05 -1.432003E+05 -1.744886E+04
       231   3 -5.148298E+05 -2.165288E+06 -4.987842E+05  8.346789E+05 -9.108230E+04  8.666310E+04
       231   4  3.141875E+02 -1.182740E+04 -1.148777E+04  8.526478E+05 -5.283323E+04 -7.099060E+03
       231   5  5.332090E+03 -7.577392E+03 -5.743088E+03  4.659343E+05 -1.430226E+05 -3.401188E+03
       231   6  1.657022E+04 -8.966740E+03 -2.081507E+03  8.525346E+05 -9.196660E+04 -7.782556E+02
       231   7  1.277794E+06  5.133025E+06  1.246084E+06  8.768042E+05 -5.195747E+04  1.091423E+05
       231   8  9.008705E+05  3.635356E+06  8.360375E+05  4.871048E+05 -1.428446E+05  1.072847E+04
       231   9  5.476493E+05  2.151682E+06  4.943415E+05  8.704392E+05 -9.285422E+04 -8.852173E+04
       231  10 -1.279118E+06 -5.132674E+06 -1.270976E+06  8.286265E+05  1.889374E-10 -1.171839E-09
       231  11 -8.911577E+05 -3.638296E+06 -8.484476E+05  4.448564E+05 -7.499839E-10  1.928060E-09
       231  12 -5.148408E+05 -2.165298E+06 -4.988140E+05  8.346853E+05 -1.365783E-09  5.107384E-09
       231  13  3.111774E+02 -1.182820E+04 -1.149310E+04  8.526475E+05 -2.563928E-09 -4.841597E-11
       231  14  5.310122E+03 -7.582895E+03 -5.781547E+03  4.659339E+05  7.979798E-09 -4.100520E-09
       231  15  1.656113E+04 -8.969011E+03 -2.097401E+03  8.525345E+05 -1.244035E-10  5.362436E-10
       231  16  1.277788E+06  5.133011E+06  1.246057E+06  8.768088E+05 -1.410972E-09 -2.162976E-09
       231  17  9.008486E+05  3.635351E+06  8.359990E+05  4.871060E+05  1.936264E-09 -3.475412E-09
       231  18  5.476379E+05  2.151672E+06  4.943107E+05  8.704326E+05  8.564460E-10 -6.293647E-09
       231  19 -1.279111E+06 -5.132657E+06 -1.270942E+06  8.286318E+05  5.370419E+04  1.223849E+05
       231  20 -8.911356E+05 -3.638290E+06 -8.484085E+05  4.448584E+05  1.432003E+05  1.744886E+04
       231  21 -5.148298E+05 -2.165288E+06 -4.987842E+05  8.346789E+05  9.108230E+04 -8.666310E+04
       231  22  3.141875E+02 -1.182740E+04 -1.148777E+04  8.526478E+05  5.283323E+04  7.099060E+03
       231  23  5.332090E+03 -7.577392E+03 -5.743088E+03  4.659343E+05  1.430226E+05  3.401188E+03
       231  24  1.657022E+04 -8.966740E+03 -2.081507E+03  8.525346E+05  9.196660E+04  7.782556E+02
       231  25  1.277794E+06  5.133025E+06  1.246084E+06  8.768042E+05  5.195747E+04 -1.091423E+05
       231  26  9.008705E+05  3.635356E+06  8.360375E+05  4.871048E+05  1.428446E+05 -1.072847E+04
       231  27  5.476493E+05  2.151682E+06  4.943415E+05  8.704392E+05  9.285422E+04  8.852173E+04
       232   1 -1.644856E+05 -7.428379E+05 -1.703998E+05  8.488296E+05 -3.116050E+04  4.531821E+04
       232   2  1.942768E+05  7.495489E+05  1.720979E+05  4.700379E+05  3.268688E+04  4.391919E+04
       232   3  5.647249E+05  2.230117E+06  5.142830E+05  8.690707E+05  9.473600E+04  4.261345E+04
       232   4  1.592704E+04 -9.832572E+03 -1.895050E+03  8.535674E+05 -3.165799E+04 -1.301872E+03
       232   5  9.163776E+03 -3.085033E+03 -8.765730E+02  4.646414E+05  3.223162E+04 -1.453538E+03
       232   6  1.401356E+04 -1.042672E+04 -9.284613E+02  8.535804E+05  9.431451E+04 -1.509748E+03
       232   7  1.963033E+05  7.236752E+05  1.665824E+05  8.583092E+05 -3.215587E+04 -4.797661E+04
       232   8 -1.759876E+05 -7.551907E+05 -1.738808E+05  4.592500E+05  3.177685E+04 -4.677175E+04
       232   9 -5.370467E+05 -2.246331E+06 -5.164648E+05  8.381318E+05  9.389437E+04 -4.547540E+04
       232  10 -1.644872E+05 -7.428404E+05 -1.704055E+05  8.488308E+05  1.289780E-09 -7.642553E-10
       232  11  1.942751E+05  7.495466E+05  1.720923E+05  4.700367E+05 -6.904644E-10  2.366297E-09
       232  12  5.647147E+05  2.230112E+06  5.142628E+05  8.690674E+05  4.128627E-09  5.495344E-09
       232  13  1.592596E+04 -9.832843E+03 -1.896936E+03  8.535674E+05  1.669085E-12 -1.038726E-10
       232  14  9.162659E+03 -3.085314E+03 -8.785293E+02  4.646414E+05 -8.290554E-09 -5.204719E-09
       232  15  1.400401E+04 -1.042911E+04 -9.451820E+02  8.535805E+05 -7.115460E-09  6.276440E-10
       232  16  1.963016E+05  7.236724E+05  1.665761E+05  8.583080E+05 -1.558231E-11 -4.503582E-09
       232  17 -1.759893E+05 -7.551933E+05 -1.738868E+05  4.592512E+05  2.815874E-09 -4.050924E-09
       232  18 -5.370568E+05 -2.246336E+06 -5.164853E+05  8.381352E+05  2.591589E-09 -6.973085E-09
       232  19 -1.644856E+05 -7.428379E+05 -1.703998E+05  8.488296E+05  3.116050E+04 -4.531821E+04
       232  20  1.942768E+05  7.495489E+05  1.720979E+05  4.700379E+05 -3.268688E+04 -4.391919E+04
       232  21  5.647249E+05  2.230117E+06  5.142830E+05  8.690707E+05 -9.473600E+04 -4.261345E+04
       232  22  1.592704E+04 -9.832572E+03 -1.895050E+03  8.535674E+05  3.165799E+04  1.301872E+03
       232  23  9.163776E+03 -3.085033E+03 -8.765730E+02  4.646414E+05 -3.223162E+04  1.453538E+03
       232  24  1.401356E+04 -1.042672E+04 -9.284613E+02  8.535804E+05 -9.431451E+04  1.509748E+03
       232  25  1.963033E+05  7.236752E+05  1.665824E+05  8.583092E+05  3.215587E+04  4.797661E+04
       232  26 -1.759876E+05 -7.551907E+05 -1.738808E+05  4.592500E+05 -3.177685E+04  4.677175E+04
       232  27 -5.370467E+05 -2.246331E+06 -5.164648E+05  8.381318E+05 -9.389437E+04  4.547540E+04
       233   1  9.145260E+05  3.662520E+06  8.411647E+05  8.776296E+05  1.595310E+05  9.476817E+04
       233   2  1.265705E+06  5.139399E+06  1.185202E+06  4.912821E+05  2.038911E+05 -3.225067E+04
       233   3  1.653428E+06  6.647556E+06  1.620935E+06  8.765496E+05  7.106257E+04 -1.585984E+05
       233   4  1.356764E+04 -7.784611E+03 -8.900393E+01  8.522735E+05  1.586873E+05 -2.308238E+03
       233   5  4.320657E+02 -1.334888E+04 -3.372188E+03  4.663009E+05  2.042233E+05 -8.787955E+02
       233   6  1.821175E+03 -1.181716E+04 -3.648631E+03  8.523400E+05  7.191645E+04  1.530045E+03
       233   7 -8.883217E+05 -3.665641E+06 -8.421941E+05  8.270312E+05  1.578488E+05 -9.881798E+04
       233   8 -1.266696E+06 -5.141676E+06 -1.193710E+06  4.414773E+05  2.045548E+05  3.023628E+04
       233   9 -1.653036E+06 -6.630981E+06 -1.631365E+06  8.283129E+05  7.276355E+04  1.599584E+05
       233  10  9.144963E+05  3.662504E+06  8.411002E+05  8.776175E+05  1.208557E-09 -2.642357E-09
       233  11  1.265660E+06  5.139387E+06  1.185122E+06  4.912874E+05 -1.724202E-09 -1.240042E-09
       233  12  1.653415E+06  6.647528E+06  1.620879E+06  8.765587E+05  4.602913E-10  1.058595E-09
       233  13  1.354060E+04 -7.791378E+03 -1.363365E+02  8.522738E+05  6.234287E-09  6.329287E-12
       233  14  3.872791E+02 -1.336008E+04 -3.450566E+03  4.663010E+05 -2.770877E-09 -3.219220E-09
       233  15  1.815621E+03 -1.181855E+04 -3.658354E+03  8.523399E+05  9.048865E-10  1.365770E-10
       233  16 -8.883511E+05 -3.665658E+06 -8.422595E+05  8.270438E+05 -9.103018E-10 -1.695316E-09
       233  17 -1.266741E+06 -5.141688E+06 -1.193790E+06  4.414723E+05 -6.317558E-10  6.297453E-10
       233  18 -1.653049E+06 -6.631010E+06 -1.631423E+06  8.283035E+05  1.275692E-09 -1.532515E-09
       233  19  9.145260E+05  3.662520E+06  8.411647E+05  8.776296E+05 -1.595310E+05 -9.476817E+04
       233  20  1.265705E+06  5.139399E+06  1.185202E+06  4.912821E+05 -2.038911E+05  3.225067E+04
       233  21  1.653428E+06  6.647556E+06  1.620935E+06  8.765496E+05 -7.106257E+04  1.585984E+05
       233  22  1.356764E+04 -7.784611E+03 -8.900393E+01  8.522735E+05 -1.586873E+05  2.308238E+03
       233  23  4.320657E+02 -1.334888E+04 -3.372188E+03  4.663009E+05 -2.042233E+05  8.787955E+02
       233  24  1.821175E+03 -1.181716E+04 -3.648631E+03  8.523400E+05 -7.191645E+04 -1.530045E+03
       233  25 -8.883217E+05 -3.665641E+06 -8.421941E+05  8.270312E+05 -1.578488E+05  9.881798E+04
       233  26 -1.266696E+06 -5.141676E+06 -1.193710E+06  4.414773E+05 -2.045548E+05 -3.023628E+04
       233  27 -1.653036E+06 -6.630981E+06 -1.631365E+06  8.283129E+05 -7.276355E+04 -1.599584E+05
       234   1  6.417862E+06  1.552264E+06  1.536777E+06  6.457364E+05  1.664950E+05 -6.993374E+04
       234   2  5.246286E+06  1.237614E+06  1.175535E+06  3.539966E+05  4.421121E+04 -2.020975E+05
       234   3  4.119446E+06  9.629508E+05  9.065211E+05  6.552354E+05 -7.735491E+04 -1.709585E+05
       234   4  1.821871E+05  5.984867E+03  1.648233E+04  6.556313E+05  1.105872E+04 -6.945134E+04
       234   5  1.721419E+05 -7.880823E+03  5.810235E+03  3.589692E+05  7.463479E+03 -2.021557E+05
       234   6  1.852356E+05 -2.046793E+03  5.597724E+03  6.555858E+05  4.358931E+03 -1.709631E+05
       234   7 -6.018220E+06 -1.543142E+06 -1.506549E+06  6.654396E+05 -1.428326E+05 -6.897213E+04
       234   8 -4.878323E+06 -1.255174E+06 -1.165621E+06  3.639037E+05 -2.898833E+04 -2.022149E+05
       234   9 -3.734687E+06 -9.681160E+05 -8.963178E+05  6.559239E+05  8.556178E+04 -1.709676E+05
       234  10  6.417831E+06  1.552251E+06  1.536716E+06  6.457458E+05  3.519939E-10 -9.335222E-10
       234  11  5.246273E+06  1.237570E+06  1.175454E+06  3.540037E+05 -5.540810E-11  7.713341E-10
       234  12  4.119432E+06  9.629179E+05  9.064551E+05  6.552247E+05  2.335498E-10  9.786303E-10
       234  13  1.821857E+05  5.979653E+03  1.647303E+04  6.556319E+05 -2.478194E-09  8.522916E-11
       234  14  1.721308E+05 -7.924727E+03  5.733322E+03  3.589704E+05  2.326936E-09  3.317338E-09
       234  15  1.852277E+05 -2.078188E+03  5.542754E+03  6.555864E+05 -1.042024E-09  6.623550E-10
       234  16 -6.018243E+06 -1.543152E+06 -1.506597E+06  6.654316E+05  2.026850E-09  1.237813E-09
       234  17 -4.878335E+06 -1.255218E+06 -1.165699E+06  3.638990E+05 -1.586182E-09  2.326272E-09
       234  18 -3.734703E+06 -9.681494E+05 -8.963867E+05  6.559358E+05 -2.257732E-09 -4.023558E-12
       234  19  6.417862E+06  1.552264E+06  1.536777E+06  6.457364E+05 -1.664950E+05  6.993374E+04
       234  20  5.246286E+06  1.237614E+06  1.175535E+06  3.539966E+05 -4.421121E+04  2.020975E+05
       234  21  4.119446E+06  9.629508E+05  9.065211E+05  6.552354E+05  7.735491E+04  1.709585E+05
       234  22  1.821871E+05  5.984867E+03  1.648233E+04  6.556313E+05 -1.105872E+04  6.945134E+04
       234  23  1.721419E+05 -7.880823E+03  5.810235E+03  3.589692E+05 -7.463479E+03  2.021557E+05
       234  24  1.852356E+05 -2.046793E+03  5.597724E+03  6.555858E+05 -4.358931E+03  1.709631E+05
       234  25 -6.018220E+06 -1.543142E+06 -1.506549E+06  6.654396E+05  1.428326E+05  6.897213E+04
       234  26 -4.878323E+06 -1.255174E+06 -1.165621E+06  3.639037E+05  2.898833E+04  2.022149E+05
       234  27 -3.734687E+06 -9.681160E+05 -8.963178E+05  6.559239E+05 -8.556178E+04  1.709676E+05
       235   1  3.015719E+06  6.962086E+05  6.553960E+05  6.595657E+05 -2.780198E+04 -1.188982E+05
       235   2  1.870701E+06  4.156075E+05  3.905288E+05  3.598129E+05 -3.465496E+04 -7.199112E+04
       235   3  7.282991E+05  1.379229E+05  1.306109E+05  6.581880E+05 -4.164323E+04 -1.739968E+04
       235   4  1.820037E+05  2.715203E+02  4.031139E+03  6.566967E+05  3.306553E+03 -1.188829E+05
       235   5  1.822999E+05  7.606933E+02  2.652577E+03  3.575802E+05  1.982310E+03 -7.192526E+04
       235   6  1.830229E+05  3.289509E+03  2.456268E+03  6.566929E+05  5.101448E+02 -1.726915E+04
       235   7 -2.644302E+06 -6.962250E+05 -6.478611E+05  6.538340E+05  3.427472E+04 -1.188679E+05
       235   8 -1.503465E+06 -4.142842E+05 -3.854069E+05  3.553516E+05  3.852097E+04 -7.185956E+04
       235   9 -3.619761E+05 -1.313641E+05 -1.257121E+05  6.551989E+05  4.262675E+04 -1.713875E+04
       235  10  3.015714E+06  6.961932E+05  6.553680E+05  6.595630E+05 -1.000567E-10  1.256842E-09
       235  11  1.870699E+06  4.156016E+05  3.905168E+05  3.598108E+05  8.756390E-10  1.156548E-09
       235  12  7.282972E+05  1.379221E+05  1.306071E+05  6.581874E+05 -3.887206E-10 -1.586984E-09
       235  13  1.819999E+05  2.563389E+02  4.004555E+03  6.566970E+05  2.630469E-10  2.846462E-10
       235  14  1.822985E+05  7.551365E+02  2.642847E+03  3.575804E+05  2.051097E-09 -2.161689E-10
       235  15  1.830228E+05  3.289189E+03  2.455707E+03  6.566929E+05 -6.664529E-10 -1.870483E-09
       235  16 -2.644307E+06 -6.962405E+05 -6.478899E+05  6.538373E+05 -1.017235E-09 -4.075604E-10
       235  17 -1.503468E+06 -4.142901E+05 -3.854194E+05  3.553538E+05 -2.258718E-09 -2.276374E-09
       235  18 -3.619781E+05 -1.313649E+05 -1.257161E+05  6.551995E+05 -1.009228E-09  6.657984E-10
       235  19  3.015719E+06  6.962086E+05  6.553960E+05  6.595657E+05  2.780198E+04  1.188982E+05
       235  20  1.870701E+06  4.156075E+05  3.905288E+05  3.598129E+05  3.465496E+04  7.199112E+04
       235  21  7.282991E+05  1.379229E+05  1.306109E+05  6.581880E+05  4.164323E+04  1.739968E+04
       235  22  1.820037E+05  2.715203E+02  4.031139E+03  6.566967E+05 -3.306553E+03  1.188829E+05
       235  23  1.822999E+05  7.606933E+02  2.652577E+03  3.575802E+05 -1.982310E+03  7.192526E+04
       235  24  1.830229E+05  3.289509E+03  2.456268E+03  6.566929E+05 -5.101448E+02  1.726915E+04
       235  25 -2.644302E+06 -6.962250E+05 -6.478611E+05  6.538340E+05 -3.427472E+04  1.188679E+05
       235  26 -1.503465E+06 -4.142842E+05 -3.854069E+05  3.553516E+05 -3.852097E+04  7.185956E+04
       235  27 -3.619761E+05 -1.313641E+05 -1.257121E+05  6.551989E+05 -4.262675E+04  1.713875E+04
       236   1 -3.657696E+05 -1.322606E+05 -1.266436E+05  6.551490E+05 -4.223694E+04  1.730274E+04
       236   2 -1.507217E+06 -4.151985E+05 -3.866368E+05  3.553693E+05 -3.794472E+04  7.202333E+04
       236   3 -2.648092E+06 -6.974196E+05 -6.495749E+05  6.539198E+05 -3.351207E+04  1.190268E+05
       236   4  1.830044E+05  3.322275E+03  2.392810E+03  6.566928E+05 -1.189111E+02  1.743311E+04
       236   5  1.823202E+05  7.756979E+02  2.291355E+03  3.575803E+05 -1.407288E+03  7.208889E+04
       236   6  1.819837E+05  7.449764E+00  3.189328E+03  6.566971E+05 -2.547437E+03  1.190416E+05
       236   7  7.320595E+05  1.388846E+05  1.314152E+05  6.582377E+05  4.203614E+04  1.756361E+04
       236   8  1.874505E+06  4.165510E+05  3.910354E+05  3.597952E+05  3.522897E+04  7.215461E+04
       236   9  3.019488E+06  6.968735E+05  6.554247E+05  6.594805E+05  2.855772E+04  1.190567E+05
       236  10 -3.657716E+05 -1.322614E+05 -1.266475E+05  6.551496E+05  2.066767E-09  1.117322E-09
       236  11 -1.507220E+06 -4.152045E+05 -3.866493E+05  3.553715E+05 -2.789422E-09 -6.611889E-10
       236  12 -2.648097E+06 -6.974351E+05 -6.496036E+05  6.539230E+05 -1.513301E-09 -9.950316E-10
       236  13  1.830043E+05  3.321948E+03  2.392239E+03  6.566928E+05  2.083932E-09 -7.211397E-10
       236  14  1.823188E+05  7.701163E+02  2.281584E+03  3.575804E+05 -2.219686E-09 -7.703345E-10
       236  15  1.819798E+05 -7.770843E+00  3.162682E+03  6.566974E+05 -2.995231E-09 -1.505064E-10
       236  16  7.320575E+05  1.388838E+05  1.314113E+05  6.582371E+05 -1.993878E-09 -1.184893E-09
       236  17  1.874502E+06  4.165451E+05  3.910233E+05  3.597931E+05  3.848447E-09 -2.326640E-09
       236  18  3.019484E+06  6.968581E+05  6.553966E+05  6.594778E+05  1.735881E-09 -1.493713E-09
       236  19 -3.657696E+05 -1.322606E+05 -1.266436E+05  6.551490E+05  4.223694E+04 -1.730274E+04
       236  20 -1.507217E+06 -4.151985E+05 -3.866368E+05  3.553693E+05  3.794472E+04 -7.202333E+04
       236  21 -2.648092E+06 -6.974196E+05 -6.495749E+05  6.539198E+05  3.351207E+04 -1.190268E+05
       236  22  1.830044E+05  3.322275E+03  2.392810E+03  6.566928E+05  1.189111E+02 -1.743311E+04
       236  23  1.823202E+05  7.756979E+02  2.291355E+03  3.575803E+05  1.407288E+03 -7.208889E+04
       236  24  1.819837E+05  7.449764E+00  3.189328E+03  6.566971E+05  2.547437E+03 -1.190416E+05
       236  25  7.320595E+05  1.388846E+05  1.314152E+05  6.582377E+05 -4.203614E+04 -1.756361E+04
       236  26  1.874505E+06  4.165510E+05  3.910354E+05  3.597952E+05 -3.522897E+04 -7.215461E+04
       236  27  3.019488E+06  6.968735E+05  6.554247E+05  6.594805E+05 -2.855772E+04 -1.190567E+05
       237   1 -3.738691E+06 -9.688704E+05 -8.982654E+05  6.554346E+05 -8.467263E+04  1.711378E+05
       237   2 -4.881806E+06 -1.255885E+06 -1.168343E+06  3.643771E+05  3.092820E+04  2.023672E+05
       237   3 -6.022221E+06 -1.547512E+06 -1.511655E+06  6.668589E+05  1.458195E+05  6.900947E+04
       237   4  1.850051E+05 -1.868462E+03  4.519368E+03  6.555849E+05 -3.443436E+03  1.711327E+05
       237   5  1.724189E+05 -7.658613E+03  3.961836E+03  3.589712E+05 -5.559003E+03  2.023080E+05
       237   6  1.819542E+05  2.574587E+03  1.230743E+04  6.556209E+05 -8.166811E+03  6.948983E+04
       237   7  4.123016E+06  9.640597E+05  9.063101E+05  6.557260E+05  7.829740E+04  1.711276E+05
       237   8  5.250358E+06  1.238766E+06  1.174558E+06  3.535232E+05 -4.234268E+04  2.022499E+05
       237   9  6.421441E+06  1.549810E+06  1.533530E+06  6.442819E+05 -1.637000E+05  6.997409E+04
       237  10 -3.738706E+06 -9.689038E+05 -8.983341E+05  6.554464E+05  1.226691E-09  7.502001E-10
       237  11 -4.881818E+06 -1.255929E+06 -1.168422E+06  3.643720E+05  4.454513E-09  2.300983E-09
       237  12 -6.022246E+06 -1.547523E+06 -1.511705E+06  6.668508E+05  1.384177E-09  2.358419E-09
       237  13  1.849972E+05 -1.899917E+03  4.464303E+03  6.555854E+05  8.293213E-10 -3.699487E-10
       237  14  1.724079E+05 -7.702576E+03  3.884855E+03  3.589721E+05  1.905998E-09 -1.704427E-09
       237  15  1.819529E+05  2.569382E+03  1.229822E+04  6.556213E+05  9.687519E-10 -2.497012E-09
       237  16  4.123001E+06  9.640267E+05  9.062437E+05  6.557153E+05  1.054440E-09 -6.251256E-10
       237  17  5.250345E+06  1.238722E+06  1.174478E+06  3.535300E+05 -3.568299E-09 -1.941728E-09
       237  18  6.421411E+06  1.549797E+06  1.533470E+06  6.442911E+05 -1.192673E-10 -4.326844E-09
       237  19 -3.738691E+06 -9.688704E+05 -8.982654E+05  6.554346E+05  8.467263E+04 -1.711378E+05
       237  20 -4.881806E+06 -1.255885E+06 -1.168343E+06  3.643771E+05 -3.092820E+04 -2.023672E+05
       237  21 -6.022221E+06 -1.547512E+06 -1.511655E+06  6.668589E+05 -1.458195E+05 -6.900947E+04
       237  22  1.850051E+05 -1.868462E+03  4.519368E+03  6.555849E+05  3.443436E+03 -1.711327E+05
       237  23  1.724189E+05 -7.658613E+03  3.961836E+03  3.589712E+05  5.559003E+03 -2.023080E+05
       237  24  1.819542E+05  2.574587E+03  1.230743E+04  6.556209E+05  8.166811E+03 -6.948983E+04
       237  25  4.123016E+06  9.640597E+05  9.063101E+05  6.557260E+05 -7.829740E+04 -1.711276E+05
       237  26  5.250358E+06  1.238766E+06  1.174558E+06  3.535232E+05  4.234268E+04 -2.022499E+05
       237  27  6.421441E+06  1.549810E+06  1.533530E+06  6.442819E+05  1.637000E+05 -6.997409E+04
       238   1 -1.324715E+06 -5.284402E+06 -1.317773E+06  8.497283E+05 -5.551955E+04 -1.287645E+05
       238   2 -9.219861E+05 -3.755102E+06 -8.829903E+05  4.554770E+05 -1.482671E+05 -1.805739E+04
       238   3 -5.373794E+05 -2.249312E+06 -5.264902E+05  8.525067E+05 -9.506982E+04  9.180873E+04
       238   4 -5.096431E+03 -2.976469E+03 -1.876064E+04  8.722572E+05 -5.461637E+04 -9.603619E+03
       238   5  5.779694E+03  2.199714E+03 -1.091701E+04  4.766845E+05 -1.480774E+05 -3.190950E+03
       238   6  1.699294E+04  5.194962E+01 -8.363269E+03  8.721008E+05 -9.598614E+04  2.110091E+03
       238   7  1.312453E+06  5.304006E+06  1.278250E+06  8.949159E+05 -5.370896E+04  1.105761E+05
       238   8  9.325502E+05  3.772590E+06  8.602087E+05  4.979894E+05 -1.478873E+05  1.176529E+04
       238   9  5.710159E+05  2.254125E+06  5.094584E+05  8.917514E+05 -9.690628E+04 -8.791189E+04
       238  10 -1.324723E+06 -5.284421E+06 -1.317810E+06  8.497225E+05 -1.204850E-09  3.605742E-09
       238  11 -9.220098E+05 -3.755108E+06 -8.830323E+05  4.554748E+05  2.163614E-09  9.982369E-09
       238  12 -5.373914E+05 -2.249323E+06 -5.265232E+05  8.525137E+05 -2.271012E-09  1.378720E-10
       238  13 -5.099658E+03 -2.977368E+03 -1.876642E+04  8.722568E+05 -1.331812E-09 -3.571141E-11
       238  14  5.756146E+03  2.193817E+03 -1.095823E+04  4.766841E+05  1.146052E-08  8.521180E-09
       238  15  1.698304E+04  4.947105E+01 -8.380592E+03  8.721009E+05 -1.416975E-10  1.028713E-08
       238  16  1.312446E+06  5.303992E+06  1.278221E+06  8.949207E+05  9.345860E-10 -4.799242E-10
       238  17  9.325266E+05  3.772584E+06  8.601674E+05  4.979908E+05  2.882042E-09 -1.623905E-09
       238  18  5.710038E+05  2.254114E+06  5.094263E+05  8.917446E+05  2.585892E-09  4.289574E-09
       238  19 -1.324715E+06 -5.284402E+06 -1.317773E+06  8.497283E+05  5.551955E+04  1.287645E+05
       238  20 -9.219861E+05 -3.755102E+06 -8.829903E+05  4.554770E+05  1.482671E+05  1.805739E+04
       238  21 -5.373794E+05 -2.249312E+06 -5.264902E+05  8.525067E+05  9.506982E+04 -9.180873E+04
       238  22 -5.096431E+03 -2.976469E+03 -1.876064E+04  8.722572E+05  5.461637E+04  9.603619E+03
       238  23  5.779694E+03  2.199714E+03 -1.091701E+04  4.766845E+05  1.480774E+05  3.190950E+03
       238  24  1.699294E+04  5.194962E+01 -8.363269E+03  8.721008E+05  9.598614E+04 -2.110091E+03
       238  25  1.312453E+06  5.304006E+06  1.278250E+06  8.949159E+05  5.370896E+04 -1.105761E+05
       238  26  9.325502E+05  3.772590E+06  8.602087E+05  4.979894E+05  1.478873E+05 -1.176529E+04
       238  27  5.710159E+05  2.254125E+06  5.094584E+05  8.917514E+05  9.690628E+04  8.791189E+04
       239   1 -1.789346E+05 -7.946789E+05 -1.918569E+05  8.690327E+05 -3.365230E+04  5.034533E+04
       239   2  1.885566E+05  7.331345E+05  1.545450E+05  4.801892E+05  3.166074E+04  5.476397E+04
       239   3  5.613268E+05  2.246232E+06  4.950969E+05  8.869775E+05  9.524631E+04  5.928826E+04
       239   4  1.638925E+04 -1.026944E+03 -9.379161E+03  8.731599E+05 -3.416661E+04  2.740649E+03
       239   5  1.002488E+04  7.222387E+03 -1.228922E+04  4.753574E+05  3.118817E+04  8.346627E+03
       239   6  8.875407E+03 -1.613501E+03 -2.177323E+04  8.732291E+05  9.480666E+04  1.404655E+04
       239   7  2.116703E+05  7.932133E+05  1.730654E+05  8.772905E+05 -3.468119E+04 -4.492446E+04
       239   8 -1.685425E+05 -7.181977E+05 -1.791502E+05  4.705299E+05  3.071603E+04 -3.801693E+04
       239   9 -5.439273E+05 -2.244789E+06 -5.389700E+05  8.595159E+05  9.436813E+04 -3.103317E+04
       239  10 -1.789365E+05 -7.946819E+05 -1.918638E+05  8.690341E+05  2.159395E-09  4.171833E-09
       239  11  1.885548E+05  7.331310E+05  1.545375E+05  4.801878E+05 -2.969171E-09  1.236788E-08
       239  12  5.613161E+05  2.246226E+06  4.950733E+05  8.869730E+05  4.974875E-09  2.688864E-10
       239  13  1.638800E+04 -1.027266E+03 -9.381369E+03  8.731600E+05  5.169019E-10 -4.482279E-11
       239  14  1.002382E+04  7.222051E+03 -1.229117E+04  4.753572E+05 -6.358631E-09  1.016838E-08
       239  15  8.865705E+03 -1.616123E+03 -2.179049E+04  8.732281E+05 -6.967700E-09  1.013062E-08
       239  16  2.116685E+05  7.932108E+05  1.730594E+05  8.772892E+05  1.038098E-09  8.722664E-10
       239  17 -1.685439E+05 -7.181995E+05 -1.791547E+05  4.705309E+05  5.289722E-09 -2.423010E-09
       239  18 -5.439371E+05 -2.244793E+06 -5.389886E+05  8.595183E+05  1.057566E-09  3.801444E-09
       239  19 -1.789346E+05 -7.946789E+05 -1.918569E+05  8.690327E+05  3.365230E+04 -5.034533E+04
       239  20  1.885566E+05  7.331345E+05  1.545450E+05  4.801892E+05 -3.166074E+04 -5.476397E+04
       239  21  5.613268E+05  2.246232E+06  4.950969E+05  8.869775E+05 -9.524631E+04 -5.928826E+04
       239  22  1.638925E+04 -1.026944E+03 -9.379161E+03  8.731599E+05  3.416661E+04 -2.740649E+03
       239  23  1.002488E+04  7.222387E+03 -1.228922E+04  4.753574E+05 -3.118817E+04 -8.346627E+03
       239  24  8.875407E+03 -1.613501E+03 -2.177323E+04  8.732291E+05 -9.480666E+04 -1.404655E+04
       239  25  2.116703E+05  7.932133E+05  1.730654E+05  8.772905E+05  3.468119E+04  4.492446E+04
       239  26 -1.685425E+05 -7.181977E+05 -1.791502E+05  4.705299E+05 -3.071603E+04  3.801693E+04
       239  27 -5.439273E+05 -2.244789E+06 -5.389700E+05  8.595159E+05 -9.436813E+04  3.103317E+04
       240   1  9.293009E+05  3.706548E+06  8.246483E+05  9.091801E+05  1.614486E+05  1.161352E+05
       240   2  1.289055E+06  5.229468E+06  1.159838E+06  4.927174E+05  2.070879E+05  9.680124E+03
       240   3  1.603457E+06  6.760765E+06  1.552955E+06  8.657173E+05  7.246190E+04 -9.602067E+04
       240   4  1.831256E+04 -3.616466E+03 -2.579232E+04  8.717705E+05  1.605698E+05  1.702650E+04
       240   5  5.816813E+03  2.550559E+03 -4.577023E+04  4.770767E+05  2.074278E+05  4.109762E+04
       240   6 -7.479696E+04 -7.802128E+03 -9.816397E+04  8.723093E+05  7.333833E+04  6.618363E+04
       240   7 -8.936254E+05 -3.701060E+06 -8.771023E+05  8.345472E+05  1.597000E+05 -8.149765E+04
       240   8 -1.279331E+06 -5.199240E+06 -1.253192E+06  4.615155E+05  2.077679E+05  7.225312E+04
       240   9 -1.756408E+06 -6.734836E+06 -1.752519E+06  8.787503E+05  7.422403E+04  2.266349E+05
       240  10  9.292694E+05  3.706527E+06  8.245743E+05  9.091651E+05  1.884671E-09  2.133067E-09
       240  11  1.289009E+06  5.229457E+06  1.159757E+06  4.927158E+05 -6.355057E-10  7.515935E-09
       240  12  1.603449E+06  6.760754E+06  1.552928E+06  8.657229E+05  5.236658E-10  8.276606E-10
       240  13  1.828481E+04 -3.623693E+03 -2.584130E+04  8.717683E+05  5.986220E-09 -3.843430E-11
       240  14  5.770165E+03  2.537205E+03 -4.585422E+04  4.770698E+05 -1.557955E-09  6.689221E-09
       240  15 -7.480390E+04 -7.808266E+03 -9.818228E+04  8.723054E+05  1.226586E-09  4.181588E-09
       240  16 -8.936546E+05 -3.701074E+06 -8.771629E+05  8.345577E+05 -2.609240E-09  2.223060E-09
       240  17 -1.279378E+06 -5.199257E+06 -1.253283E+06  4.615034E+05  1.159584E-09 -2.766890E-10
       240  18 -1.756428E+06 -6.734893E+06 -1.752627E+06  8.787367E+05  2.695389E-09  9.212554E-10
       240  19  9.293009E+05  3.706548E+06  8.246483E+05  9.091801E+05 -1.614486E+05 -1.161352E+05
       240  20  1.289055E+06  5.229468E+06  1.159838E+06  4.927174E+05 -2.070879E+05 -9.680124E+03
       240  21  1.603457E+06  6.760765E+06  1.552955E+06  8.657173E+05 -7.246190E+04  9.602067E+04
       240  22  1.831256E+04 -3.616466E+03 -2.579232E+04  8.717705E+05 -1.605698E+05 -1.702650E+04
       240  23  5.816813E+03  2.550559E+03 -4.577023E+04  4.770767E+05 -2.074278E+05 -4.109762E+04
       240  24 -7.479696E+04 -7.802128E+03 -9.816397E+04  8.723093E+05 -7.333833E+04 -6.618363E+04
       240  25 -8.936254E+05 -3.701060E+06 -8.771023E+05  8.345472E+05 -1.597000E+05  8.149765E+04
       240  26 -1.279331E+06 -5.199240E+06 -1.253192E+06  4.615155E+05 -2.077679E+05 -7.225312E+04
       240  27 -1.756408E+06 -6.734836E+06 -1.752519E+06  8.787503E+05 -7.422403E+04 -2.266349E+05
       241   1  6.468979E+06  1.565538E+06  1.547015E+06  6.560744E+05  1.587519E+05 -7.097949E+04
       241   2  5.271866E+06  1.256792E+06  1.186228E+06  3.610096E+05  3.803511E+04 -2.050579E+05
       241   3  4.116742E+06  9.756499E+05  9.136491E+05  6.727313E+05 -8.195867E+04 -1.730431E+05
       241   4  1.308044E+05 -6.207976E+03  1.691473E+03  6.710408E+05  9.744929E+02 -7.049387E+04
       241   5  1.224277E+05 -7.205096E+03 -8.836799E+02  3.674818E+05  9.529430E+02 -2.051209E+05
       241   6  1.339853E+05 -1.289069E+03  1.561537E+03  6.710280E+05  1.423979E+03 -1.730402E+05
       241   7 -6.170934E+06 -1.580897E+06 -1.546460E+06  6.858672E+05 -1.552086E+05 -7.001406E+04
       241   8 -5.002623E+06 -1.273055E+06 -1.189753E+06  3.739024E+05 -3.582602E+04 -2.051852E+05
       241   9 -3.834128E+06 -9.793263E+05 -9.115425E+05  6.693248E+05  8.427881E+04 -1.730376E+05
       241  10  6.468950E+06  1.565526E+06  1.546958E+06  6.560835E+05  6.723156E-11 -2.365842E-10
       241  11  5.271853E+06  1.256747E+06  1.186146E+06  3.610159E+05  1.382754E-09 -2.417119E-09
       241  12  4.116727E+06  9.756160E+05  9.135804E+05  6.727199E+05 -3.113782E-10  1.311815E-10
       241  13  1.308031E+05 -6.213313E+03  1.682132E+03  6.710409E+05 -3.622890E-09  3.752954E-09
       241  14  1.224164E+05 -7.250280E+03 -9.627540E+02  3.674820E+05  4.505079E-09  7.014560E-10
       241  15  1.339773E+05 -1.321226E+03  1.505260E+03  6.710282E+05  2.460830E-09  7.237183E-10
       241  16 -6.170961E+06 -1.580908E+06 -1.546515E+06  6.858585E+05  1.502758E-09 -6.747078E-10
       241  17 -5.002636E+06 -1.273100E+06 -1.189835E+06  3.738965E+05  6.161975E-10  1.183818E-09
       241  18 -3.834144E+06 -9.793605E+05 -9.116123E+05  6.693366E+05 -6.953637E-10  2.262000E-10
       241  19  6.468979E+06  1.565538E+06  1.547015E+06  6.560744E+05 -1.587519E+05  7.097949E+04
       241  20  5.271866E+06  1.256792E+06  1.186228E+06  3.610096E+05 -3.803511E+04  2.050579E+05
       241  21  4.116742E+06  9.756499E+05  9.136491E+05  6.727313E+05  8.195867E+04  1.730431E+05
       241  22  1.308044E+05 -6.207976E+03  1.691473E+03  6.710408E+05 -9.744929E+02  7.049387E+04
       241  23  1.224277E+05 -7.205096E+03 -8.836799E+02  3.674818E+05 -9.529430E+02  2.051209E+05
       241  24  1.339853E+05 -1.289069E+03  1.561537E+03  6.710280E+05 -1.423979E+03  1.730402E+05
       241  25 -6.170934E+06 -1.580897E+06 -1.546460E+06  6.858672E+05  1.552086E+05  7.001406E+04
       241  26 -5.002623E+06 -1.273055E+06 -1.189753E+06  3.739024E+05  3.582602E+04  2.051852E+05
       241  27 -3.834128E+06 -9.793263E+05 -9.115425E+05  6.693248E+05 -8.427881E+04  1.730376E+05
       242   1  2.987578E+06  7.009795E+05  6.572593E+05  6.749896E+05 -3.095454E+04 -1.198735E+05
       242   2  1.815656E+06  4.146813E+05  3.875805E+05  3.682311E+05 -3.693786E+04 -7.178753E+04
       242   3  6.458627E+05  1.303388E+05  1.219959E+05  6.738656E+05 -4.306156E+04 -1.588831E+04
       242   4  1.314164E+05 -4.977742E+02  7.150171E+02  6.722297E+05  9.626110E+02 -1.198543E+05
       242   5  1.319917E+05  9.725977E+02  7.622803E+02  3.659782E+05  5.958809E+02 -7.171612E+04
       242   6  1.324648E+05  3.517169E+03  1.083864E+03  6.722233E+05  7.759810E+01 -1.575030E+04
       242   7 -2.717218E+06 -7.025435E+05 -6.563649E+05  6.694755E+05  3.273463E+04 -1.198353E+05
       242   8 -1.549051E+06 -4.129330E+05 -3.862380E+05  3.637293E+05  3.802888E+04 -7.164487E+04
       242   9 -3.806868E+05 -1.233223E+05 -1.198393E+05  6.705821E+05  4.318131E+04 -1.561245E+04
       242  10  2.987573E+06  7.009638E+05  6.572305E+05  6.749866E+05 -1.771849E-09  2.647568E-10
       242  11  1.815653E+06  4.146754E+05  3.875683E+05  3.682290E+05  1.860822E-09  1.364301E-09
       242  12  6.458607E+05  1.303381E+05  1.219919E+05  6.738651E+05  4.145098E-09 -9.978647E-10
       242  13  1.314126E+05 -5.132012E+02  6.880183E+02  6.722298E+05  3.343419E-10  2.027511E-09
       242  14  1.319903E+05  9.670743E+02  7.526138E+02  3.659783E+05 -7.212969E-11  3.748288E-09
       242  15  1.324647E+05  3.516902E+03  1.083397E+03  6.722233E+05 -1.368466E-09 -1.994254E-09
       242  16 -2.717223E+06 -7.025592E+05 -6.563940E+05  6.694787E+05  2.565929E-10 -6.768132E-10
       242  17 -1.549054E+06 -4.129389E+05 -3.862504E+05  3.637315E+05 -2.146285E-09  3.160727E-09
       242  18 -3.806889E+05 -1.233231E+05 -1.198433E+05  6.705826E+05 -2.494086E-09  1.444417E-10
       242  19  2.987578E+06  7.009795E+05  6.572593E+05  6.749896E+05  3.095454E+04  1.198735E+05
       242  20  1.815656E+06  4.146813E+05  3.875805E+05  3.682311E+05  3.693786E+04  7.178753E+04
       242  21  6.458627E+05  1.303388E+05  1.219959E+05  6.738656E+05  4.306156E+04  1.588831E+04
       242  22  1.314164E+05 -4.977742E+02  7.150171E+02  6.722297E+05 -9.626110E+02  1.198543E+05
       242  23  1.319917E+05  9.725977E+02  7.622803E+02  3.659782E+05 -5.958809E+02  7.171612E+04
       242  24  1.324648E+05  3.517169E+03  1.083864E+03  6.722233E+05 -7.759810E+01  1.575030E+04
       242  25 -2.717218E+06 -7.025435E+05 -6.563649E+05  6.694755E+05 -3.273463E+04  1.198353E+05
       242  26 -1.549051E+06 -4.129330E+05 -3.862380E+05  3.637293E+05 -3.802888E+04  7.164487E+04
       242  27 -3.806868E+05 -1.233223E+05 -1.198393E+05  6.705821E+05 -4.318131E+04  1.561245E+04
       243   1 -4.741851E+05 -1.463567E+05 -1.412994E+05  6.704021E+05 -4.346278E+04  1.964355E+04
       243   2 -1.642637E+06 -4.360818E+05 -4.075860E+05  3.636673E+05 -3.831679E+04  7.566872E+04
       243   3 -2.810626E+06 -7.257101E+05 -6.775221E+05  6.695291E+05 -3.302124E+04  1.237335E+05
       243   4  1.325044E+05  3.502123E+03  1.130855E+03  6.722217E+05 -3.278161E+02  1.978058E+04
       243   5  1.318512E+05  8.536060E+02  9.354470E+02  3.659805E+05 -9.368629E+02  7.573639E+04
       243   6  1.313939E+05 -6.048673E+02  1.156530E+03  6.722280E+05 -1.386692E+03  1.237469E+05
       243   7  7.395369E+05  1.533357E+05  1.435429E+05  6.740427E+05  4.284906E+04  1.991777E+04
       243   8  1.909261E+06  4.375695E+05  4.092535E+05  3.682979E+05  3.654927E+04  7.580424E+04
       243   9  3.081443E+06  7.238940E+05  6.792634E+05  6.749323E+05  3.039712E+04  1.237605E+05
       243  10 -4.741872E+05 -1.463576E+05 -1.413037E+05  6.704027E+05  1.176969E-09  1.982538E-09
       243  11 -1.642641E+06 -4.360884E+05 -4.075996E+05  3.636696E+05  1.997691E-10 -5.112141E-11
       243  12 -2.810631E+06 -7.257269E+05 -6.775529E+05  6.695324E+05 -4.357941E-09  8.509494E-10
       243  13  1.325043E+05  3.501703E+03  1.130119E+03  6.722217E+05  2.139165E-09 -1.257379E-09
       243  14  1.318497E+05  8.474458E+02  9.246654E+02  3.659805E+05  4.504292E-10  5.051772E-10
       243  15  1.313898E+05 -6.213129E+02  1.127747E+03  6.722281E+05 -5.450949E-09  5.355237E-12
       243  16  7.395348E+05  1.533348E+05  1.435387E+05  6.740420E+05 -8.472234E-10 -1.750612E-09
       243  17  1.909258E+06  4.375630E+05  4.092402E+05  3.682957E+05  2.074027E-09 -1.173661E-09
       243  18  3.081438E+06  7.238773E+05  6.792329E+05  6.749293E+05  3.649546E-09  6.700053E-11
       243  19 -4.741851E+05 -1.463567E+05 -1.412994E+05  6.704021E+05  4.346278E+04 -1.964355E+04
       243  20 -1.642637E+06 -4.360818E+05 -4.075860E+05  3.636673E+05  3.831679E+04 -7.566872E+04
       243  21 -2.810626E+06 -7.257101E+05 -6.775221E+05  6.695291E+05  3.302124E+04 -1.237335E+05
       243  22  1.325044E+05  3.502123E+03  1.130855E+03  6.722217E+05  3.278161E+02 -1.978058E+04
       243  23  1.318512E+05  8.536060E+02  9.354470E+02  3.659805E+05  9.368629E+02 -7.573639E+04
       243  24  1.313939E+05 -6.048673E+02  1.156530E+03  6.722280E+05  1.386692E+03 -1.237469E+05
       243  25  7.395369E+05  1.533357E+05  1.435429E+05  6.740427E+05 -4.284906E+04 -1.991777E+04
       243  26  1.909261E+06  4.375695E+05  4.092535E+05  3.682979E+05 -3.654927E+04 -7.580424E+04
       243  27  3.081443E+06  7.238940E+05  6.792634E+05  6.749323E+05 -3.039712E+04 -1.237605E+05
       244   1 -3.927316E+06 -1.002742E+06 -9.324448E+05  6.699147E+05 -8.534503E+04  1.772096E+05
       244   2 -5.096325E+06 -1.296591E+06 -1.210475E+06  3.743641E+05  3.589317E+04  2.089957E+05
       244   3 -6.264051E+06 -1.602756E+06 -1.567128E+06  6.862551E+05  1.563641E+05  7.117155E+04
       244   4  1.341444E+05 -1.649299E+03  2.153940E+03  6.710377E+05 -1.930942E+03  1.771995E+05
       244   5  1.218848E+05 -7.662444E+03  3.966421E+01  3.674697E+05 -1.952268E+03  2.089343E+05
       244   6  1.309104E+05 -4.695784E+03  3.945725E+03  6.710566E+05 -2.505304E+03  7.168966E+04
       244   7  4.210946E+06  9.982931E+05  9.356869E+05  6.721571E+05  8.202710E+04  1.771897E+05
       244   8  5.365380E+06  1.279346E+06  1.208732E+06  3.605196E+05 -4.011538E+04  2.088744E+05
       244   9  6.563397E+06  1.590334E+06  1.572107E+06  6.557142E+05 -1.630206E+05  7.221369E+04
       244  10 -3.927332E+06 -1.002778E+06 -9.325177E+05  6.699270E+05 -5.531840E-10 -8.063438E-11
       244  11 -5.096339E+06 -1.296638E+06 -1.210559E+06  3.743581E+05  2.039945E-10 -2.375993E-09
       244  12 -6.264078E+06 -1.602768E+06 -1.567184E+06  6.862461E+05 -3.046479E-09 -2.885936E-09
       244  13  1.341360E+05 -1.683021E+03  2.094921E+03  6.710380E+05 -2.916553E-10 -1.028300E-09
       244  14  1.218730E+05 -7.709325E+03 -4.238338E+01  3.674700E+05 -2.160582E-10 -2.260352E-09
       244  15  1.309090E+05 -4.701305E+03  3.936053E+03  6.710567E+05  1.809901E-09  6.650062E-10
       244  16  4.210930E+06  9.982576E+05  9.356154E+05  6.721454E+05 -1.695596E-09 -1.044698E-09
       244  17  5.365366E+06  1.279298E+06  1.208647E+06  3.605264E+05 -1.255906E-09 -6.141728E-10
       244  18  6.563367E+06  1.590321E+06  1.572048E+06  6.557236E+05  2.476405E-09 -3.927989E-09
       244  19 -3.927316E+06 -1.002742E+06 -9.324448E+05  6.699147E+05  8.534503E+04 -1.772096E+05
       244  20 -5.096325E+06 -1.296591E+06 -1.210475E+06  3.743641E+05 -3.589317E+04 -2.089957E+05
       244  21 -6.264051E+06 -1.602756E+06 -1.567128E+06  6.862551E+05 -1.563641E+05 -7.117155E+04
       244  22  1.341444E+05 -1.649299E+03  2.153940E+03  6.710377E+05  1.930942E+03 -1.771995E+05
       244  23  1.218848E+05 -7.662444E+03  3.966421E+01  3.674697E+05  1.952268E+03 -2.089343E+05
       244  24  1.309104E+05 -4.695784E+03  3.945725E+03  6.710566E+05  2.505304E+03 -7.168966E+04
       244  25  4.210946E+06  9.982931E+05  9.356869E+05  6.721571E+05 -8.202710E+04 -1.771897E+05
       244  26  5.365380E+06  1.279346E+06  1.208732E+06  3.605196E+05  4.011538E+04 -2.088744E+05
       244  27  6.563397E+06  1.590334E+06  1.572107E+06  6.557142E+05  1.630206E+05 -7.221369E+04
       245   1 -1.449657E+06 -5.764099E+06 -1.441548E+06  9.160336E+05 -6.107059E+04 -1.371734E+05
       245   2 -1.017225E+06 -4.112891E+06 -9.740757E+05  4.906373E+05 -1.636047E+05 -1.587912E+04
       245   3 -6.011357E+05 -2.485727E+06 -5.913945E+05  9.200873E+05 -1.063564E+05  1.044823E+05
       245   4 -2.778882E+03  2.500140E+04 -1.736574E+04  9.426026E+05 -6.004921E+04 -6.038020E+03
       245   5  5.983369E+03  3.004278E+04 -1.235111E+04  5.152746E+05 -1.633774E+05  1.151524E+03
       245   6  1.862062E+04  2.861006E+04 -1.222599E+04  9.424444E+05 -1.073972E+05  7.088442E+03
       245   7  1.441611E+06  5.844822E+06  1.404411E+06  9.693423E+05 -5.902212E+04  1.263270E+05
       245   8  1.027981E+06  4.188896E+06  9.482212E+05  5.400371E+05 -1.631497E+05  1.829558E+04
       245   9  6.379401E+05  2.548832E+06  5.665590E+05  9.648730E+05 -1.084427E+05 -9.069798E+04
       245  10 -1.449666E+06 -5.764120E+06 -1.441590E+06  9.160268E+05  3.846145E-10  1.020499E-08
       245  11 -1.017254E+06 -4.112899E+06 -9.741264E+05  4.906352E+05  2.447335E-09  1.617442E-08
       245  12 -6.011508E+05 -2.485742E+06 -5.914364E+05  9.200962E+05 -1.333072E-09 -1.478974E-08
       245  13 -2.782763E+03  2.500039E+04 -1.737258E+04  9.426023E+05 -5.312843E-09 -5.643034E-11
       245  14  5.954705E+03  3.003562E+04 -1.240128E+04  5.152748E+05  6.330748E-09 -8.927165E-11
       245  15  1.860822E+04  2.860691E+04 -1.224776E+04  9.424450E+05  3.955543E-10 -2.658413E-09
       245  16  1.441603E+06  5.844804E+06  1.404375E+06  9.693483E+05 -1.330922E-09 -1.205160E-08
       245  17  1.027953E+06  4.188888E+06  9.481705E+05  5.400395E+05 -3.823362E-09 -5.771678E-09
       245  18  6.379253E+05  2.548820E+06  5.665215E+05  9.648651E+05  2.822499E-09  1.519345E-08
       245  19 -1.449657E+06 -5.764099E+06 -1.441548E+06  9.160336E+05  6.107059E+04  1.371734E+05
       245  20 -1.017225E+06 -4.112891E+06 -9.740757E+05  4.906373E+05  1.636047E+05  1.587912E+04
       245  21 -6.011357E+05 -2.485727E+06 -5.913945E+05  9.200873E+05  1.063564E+05 -1.044823E+05
       245  22 -2.778882E+03  2.500140E+04 -1.736574E+04  9.426026E+05  6.004921E+04  6.038020E+03
       245  23  5.983369E+03  3.004278E+04 -1.235111E+04  5.152746E+05  1.633774E+05 -1.151524E+03
       245  24  1.862062E+04  2.861006E+04 -1.222599E+04  9.424444E+05  1.073972E+05 -7.088442E+03
       245  25  1.441611E+06  5.844822E+06  1.404411E+06  9.693423E+05  5.902212E+04 -1.263270E+05
       245  26  1.027981E+06  4.188896E+06  9.482212E+05  5.400371E+05  1.631497E+05 -1.829558E+04
       245  27  6.379401E+05  2.548832E+06  5.665590E+05  9.648730E+05  1.084427E+05  9.069798E+04
       246   1 -2.127926E+05 -9.153849E+05 -2.316526E+05  9.389829E+05 -3.979214E+04  5.969735E+04
       246   2  1.838514E+05  7.365108E+05  1.379673E+05  5.182484E+05  3.071795E+04  6.942679E+04
       246   3  5.810853E+05  2.369780E+06  4.965215E+05  9.570649E+05  9.957539E+04  7.927988E+04
       246   4  1.905902E+04  2.664101E+04 -1.499371E+04  9.435694E+05 -4.037405E+04  8.426851E+03
       246   5  1.182764E+04  3.701512E+04 -2.279424E+04  5.138433E+05  3.017955E+04  1.927369E+04
       246   6  5.150268E+03  2.602854E+04 -4.233281E+04  9.437125E+05  9.907037E+04  3.021770E+04
       246   7  2.508501E+05  9.694946E+05  2.016164E+05  9.481600E+05 -4.095622E+04 -4.292092E+04
       246   8 -1.602289E+05 -6.620227E+05 -1.835787E+05  5.094417E+05  2.964152E+04 -3.082340E+04
       246   9 -5.711666E+05 -2.312647E+06 -5.815415E+05  9.303936E+05  9.856639E+04 -1.866143E+04
       246  10 -2.127953E+05 -9.153892E+05 -2.316623E+05  9.389848E+05  3.120525E-09 -8.255061E-09
       246  11  1.838491E+05  7.365054E+05  1.379565E+05  5.182467E+05  4.015009E-10  1.664843E-08
       246  12  5.810730E+05  2.369770E+06  4.964912E+05  9.570585E+05  2.008801E-09 -9.120568E-09
       246  13  1.905725E+04  2.664049E+04 -1.499691E+04  9.435696E+05  1.430988E-09 -1.414214E-11
       246  14  1.182656E+04  3.701448E+04 -2.279665E+04  5.138428E+05  1.643767E-08  9.290072E-11
       246  15  5.139490E+03  2.602493E+04 -4.235295E+04  9.437101E+05 -1.006694E-08 -2.481618E-09
       246  16  2.508478E+05  9.694922E+05  2.016098E+05  9.481586E+05  2.464371E-09  5.342383E-09
       246  17 -1.602301E+05 -6.620239E+05 -1.835821E+05  5.094425E+05  4.385395E-09 -3.339368E-09
       246  18 -5.711771E+05 -2.312650E+06 -5.815605E+05  9.303951E+05  1.829927E-09  9.143195E-09
       246  19 -2.127926E+05 -9.153849E+05 -2.316526E+05  9.389829E+05  3.979214E+04 -5.969735E+04
       246  20  1.838514E+05  7.365108E+05  1.379673E+05  5.182484E+05 -3.071795E+04 -6.942679E+04
       246  21  5.810853E+05  2.369780E+06  4.965215E+05  9.570649E+05 -9.957539E+04 -7.927988E+04
       246  22  1.905902E+04  2.664101E+04 -1.499371E+04  9.435694E+05  4.037405E+04 -8.426851E+03
       246  23  1.182764E+04  3.701512E+04 -2.279424E+04  5.138433E+05 -3.017955E+04 -1.927369E+04
       246  24  5.150268E+03  2.602854E+04 -4.233281E+04  9.437125E+05 -9.907037E+04 -3.021770E+04
       246  25  2.508501E+05  9.694946E+05  2.016164E+05  9.481600E+05  4.095622E+04  4.292092E+04
       246  26 -1.602289E+05 -6.620227E+05 -1.835787E+05  5.094417E+05 -2.964152E+04  3.082340E+04
       246  27 -5.711666E+05 -2.312647E+06 -5.815415E+05  9.303936E+05 -9.856639E+04  1.866143E+04
       247   1  9.881918E+05  3.943167E+06  8.479828E+05  9.940333E+05  1.709308E+05  1.434954E+05
       247   2  1.376601E+06  5.600145E+06  1.194032E+06  5.241810E+05  2.206061E+05  5.109106E+04
       247   3  1.639458E+06  7.244635E+06  1.568919E+06  9.075123E+05  7.752186E+04 -4.040982E+04
       247   4  2.462350E+04  1.956020E+04 -5.134651E+04  9.420408E+05  1.699266E+05  3.683635E+04
       247   5  1.128946E+04  3.694803E+04 -8.885345E+04  5.156952E+05  2.209856E+05  8.388888E+04
       247   6 -1.523286E+05  1.475628E+04 -1.942536E+05  9.431200E+05  7.850479E+04  1.320851E+05
       247   7 -9.400035E+05 -3.889822E+06 -9.516464E+05  8.903327E+05  1.689366E+05 -6.915799E+04
       247   8 -1.356184E+06 -5.497795E+06 -1.373793E+06  5.072229E+05  2.213664E+05  1.163944E+05
       247   9 -1.947936E+06 -7.167755E+06 -1.961116E+06  9.782196E+05  7.951439E+04  3.025864E+05
       247  10  9.881550E+05  3.943137E+06  8.478896E+05  9.940137E+05 -7.457116E-10 -3.707277E-09
       247  11  1.376548E+06  5.600129E+06  1.193935E+06  5.241720E+05  6.028799E-09  1.354408E-08
       247  12  1.639451E+06  7.244632E+06  1.568905E+06  9.075148E+05  3.972637E-09  4.834816E-11
       247  13  2.459214E+04  1.955101E+04 -5.140328E+04  9.420357E+05  6.159388E-09  6.270645E-11
       247  14  1.123515E+04  3.692738E+04 -8.895838E+04  5.156803E+05  9.452704E-09  7.138811E-11
       247  15 -1.523398E+05  1.473591E+04 -1.942979E+05  9.431116E+05  3.460160E-09 -1.018767E-09
       247  16 -9.400355E+05 -3.889835E+06 -9.517092E+05  8.903421E+05 -1.804846E-09  1.550060E-09
       247  17 -1.356240E+06 -5.497823E+06 -1.373910E+06  5.072021E+05  2.152251E-09 -4.150442E-09
       247  18 -1.947968E+06 -7.167856E+06 -1.961302E+06  9.782001E+05  3.079703E-09  5.472144E-11
       247  19  9.881918E+05  3.943167E+06  8.479828E+05  9.940333E+05 -1.709308E+05 -1.434954E+05
       247  20  1.376601E+06  5.600145E+06  1.194032E+06  5.241810E+05 -2.206061E+05 -5.109106E+04
       247  21  1.639458E+06  7.244635E+06  1.568919E+06  9.075123E+05 -7.752186E+04  4.040982E+04
       247  22  2.462350E+04  1.956020E+04 -5.134651E+04  9.420408E+05 -1.699266E+05 -3.683635E+04
       247  23  1.128946E+04  3.694803E+04 -8.885345E+04  5.156952E+05 -2.209856E+05 -8.388888E+04
       247  24 -1.523286E+05  1.475628E+04 -1.942536E+05  9.431200E+05 -7.850479E+04 -1.320851E+05
       247  25 -9.400035E+05 -3.889822E+06 -9.516464E+05  8.903327E+05 -1.689366E+05  6.915799E+04
       247  26 -1.356184E+06 -5.497795E+06 -1.373793E+06  5.072229E+05 -2.213664E+05 -1.163944E+05
       247  27 -1.947936E+06 -7.167755E+06 -1.961116E+06  9.782196E+05 -7.951439E+04 -3.025864E+05
       248   1  5.905624E+06  1.444020E+06  1.419610E+06  5.809391E+05  1.250919E+05 -6.710722E+04
       248   2  4.824416E+06  1.194773E+06  1.109477E+06  3.220590E+05  2.049868E+04 -1.947680E+05
       248   3  3.773033E+06  9.388855E+05  8.683775E+05  6.132513E+05 -8.339489E+04 -1.664820E+05
       248   4 -5.726834E+04 -3.542142E+04 -3.472408E+04  6.087442E+05 -2.409178E+04 -6.659057E+04
       248   5 -6.051113E+04 -4.738473E+03 -1.699094E+04  3.336043E+05 -1.552309E+04 -1.948051E+05
       248   6 -5.453469E+04 -2.560783E+02 -8.358755E+03  6.088228E+05 -6.431041E+03 -1.665230E+05
       248   7 -5.987889E+06 -1.517467E+06 -1.491563E+06  6.362986E+05 -1.718553E+05 -6.608531E+04
       248   8 -4.923479E+06 -1.205918E+06 -1.145041E+06  3.450635E+05 -5.126490E+04 -1.948440E+05
       248   9 -3.868573E+06 -9.404128E+05 -8.860361E+05  6.044142E+05  7.006450E+04 -1.665651E+05
       248  10  5.905606E+06  1.444011E+06  1.419573E+06  5.809458E+05 -4.129978E-09  3.582246E-09
       248  11  4.824406E+06  1.194733E+06  1.109405E+06  3.220622E+05  4.839839E-09 -2.003902E-10
       248  12  3.773018E+06  9.388539E+05  8.683125E+05  6.132402E+05  2.809978E-09  9.129302E-10
       248  13 -5.727015E+04 -3.542634E+04 -3.473350E+04  6.087429E+05 -2.614339E-09 -3.302475E-09
       248  14 -6.052158E+04 -4.779286E+03 -1.706270E+04  3.336019E+05  3.102460E-09  6.872692E-10
       248  15 -5.454218E+04 -2.858643E+02 -8.410936E+03  6.088219E+05  1.126642E-09  1.088890E-09
       248  16 -5.987922E+06 -1.517480E+06 -1.491627E+06  6.362894E+05  1.533448E-09 -3.680484E-09
       248  17 -4.923492E+06 -1.205959E+06 -1.145117E+06  3.450554E+05 -2.916050E-09  1.626686E-10
       248  18 -3.868585E+06 -9.404439E+05 -8.860976E+05  6.044236E+05 -4.873071E-09  9.077121E-10
       248  19  5.905624E+06  1.444020E+06  1.419610E+06  5.809391E+05 -1.250919E+05  6.710722E+04
       248  20  4.824416E+06  1.194773E+06  1.109477E+06  3.220590E+05 -2.049868E+04  1.947680E+05
       248  21  3.773033E+06  9.388855E+05  8.683775E+05  6.132513E+05  8.339489E+04  1.664820E+05
       248  22 -5.726834E+04 -3.542142E+04 -3.472408E+04  6.087442E+05  2.409178E+04  6.659057E+04
       248  23 -6.051113E+04 -4.738473E+03 -1.699094E+04  3.336043E+05  1.552309E+04  1.948051E+05
       248  24 -5.453469E+04 -2.560783E+02 -8.358755E+03  6.088228E+05  6.431041E+03  1.665230E+05
       248  25 -5.987889E+06 -1.517467E+06 -1.491563E+06  6.362986E+05  1.718553E+05  6.608531E+04
       248  26 -4.923479E+06 -1.205918E+06 -1.145041E+06  3.450635E+05  5.126490E+04  1.948440E+05
       248  27 -3.868573E+06 -9.404128E+05 -8.860361E+05  6.044142E+05 -7.006450E+04  1.665651E+05
       249   1  2.749995E+06  6.856822E+05  6.378010E+05  6.109296E+05 -3.405724E+04 -1.176447E+05
       249   2  1.685940E+06  4.282979E+05  3.965102E+05  3.334812E+05 -3.760862E+04 -7.426509E+04
       249   3  6.236958E+05  1.699489E+05  1.572547E+05  6.121129E+05 -4.129284E+04 -2.351601E+04
       249   4 -5.496267E+04 -3.388899E+03 -7.173375E+03  6.100973E+05 -5.373891E+03 -1.176471E+05
       249   5 -5.438871E+04  6.012679E+02 -3.363117E+03  3.320046E+05 -3.634532E+03 -7.422139E+04
       249   6 -5.397869E+04  2.775711E+03 -1.137180E+03  6.100908E+05 -2.034181E+03 -2.341288E+04
       249   7 -2.852659E+06 -6.930086E+05 -6.526653E+05  6.092634E+05  2.318137E+04 -1.176496E+05
       249   8 -1.791916E+06 -4.273061E+05 -4.034323E+05  3.305303E+05  3.024529E+04 -7.417777E+04
       249   9 -7.312268E+05 -1.644292E+05 -1.595545E+05  6.080704E+05  3.718193E+04 -2.330993E+04
       249  10  2.749990E+06  6.856670E+05  6.377728E+05  6.109263E+05  8.472254E-10 -6.617868E-10
       249  11  1.685937E+06  4.282916E+05  3.964972E+05  3.334790E+05  2.487588E-09  1.824478E-09
       249  12  6.236938E+05  1.699479E+05  1.572505E+05  6.121121E+05  8.226504E-11  8.676843E-10
       249  13 -5.496642E+04 -3.403768E+03 -7.199435E+03  6.100968E+05 -1.055918E-09  8.255385E-10
       249  14 -5.439020E+04  5.953492E+02 -3.373493E+03  3.320044E+05 -1.540531E-09  2.885572E-09
       249  15 -5.397884E+04  2.775122E+03 -1.138217E+03  6.100907E+05 -1.952890E-09 -1.345804E-09
       249  16 -2.852663E+06 -6.930236E+05 -6.526924E+05  6.092656E+05 -2.218862E-09  2.401789E-10
       249  17 -1.791919E+06 -4.273122E+05 -4.034443E+05  3.305321E+05 -5.137568E-09  1.442356E-09
       249  18 -7.312284E+05 -1.644302E+05 -1.595582E+05  6.080711E+05  1.421257E-09  6.119516E-10
       249  19  2.749995E+06  6.856822E+05  6.378010E+05  6.109296E+05  3.405724E+04  1.176447E+05
       249  20  1.685940E+06  4.282979E+05  3.965102E+05  3.334812E+05  3.760862E+04  7.426509E+04
       249  21  6.236958E+05  1.699489E+05  1.572547E+05  6.121129E+05  4.129284E+04  2.351601E+04
       249  22 -5.496267E+04 -3.388899E+03 -7.173375E+03  6.100973E+05  5.373891E+03  1.176471E+05
       249  23 -5.438871E+04  6.012679E+02 -3.363117E+03  3.320046E+05  3.634532E+03  7.422139E+04
       249  24 -5.397869E+04  2.775711E+03 -1.137180E+03  6.100908E+05  2.034181E+03  2.341288E+04
       249  25 -2.852659E+06 -6.930086E+05 -6.526653E+05  6.092634E+05 -2.318137E+04  1.176496E+05
       249  26 -1.791916E+06 -4.273061E+05 -4.034323E+05  3.305303E+05 -3.024529E+04  7.417777E+04
       249  27 -7.312268E+05 -1.644292E+05 -1.595545E+05  6.080704E+05 -3.718193E+04  2.330993E+04
       250   1 -3.937649E+05 -8.175402E+04 -8.133099E+04  6.091299E+05 -4.115868E+04  8.755740E+03
       250   2 -1.454800E+06 -3.441109E+05 -3.218852E+05  3.304254E+05 -3.651484E+04  5.965379E+04
       250   3 -2.515674E+06 -6.063542E+05 -5.657329E+05  6.080115E+05 -3.176497E+04  1.035821E+05
       250   4 -5.386341E+04  2.416401E+03 -4.918478E+02  6.100997E+05 -2.057632E+03  8.861436E+03
       250   5 -5.424507E+04  7.491012E+02  5.742728E+02  3.319940E+05 -2.453257E+03  5.970906E+04
       250   6 -5.465435E+04  1.419494E+02  1.897308E+03  6.101010E+05 -2.734895E+03  1.035980E+05
       250   7  2.861475E+05  8.657931E+04  8.034496E+04  6.110700E+05  3.706473E+04  8.967218E+03
       250   8  1.348130E+06  3.454725E+05  3.229080E+05  3.335648E+05  3.168470E+04  5.976442E+04
       250   9  2.411984E+06  6.062138E+05  5.691280E+05  6.121941E+05  2.640974E+04  1.036140E+05
       250  10 -3.937668E+05 -8.175455E+04 -8.133432E+04  6.091302E+05 -1.916780E-09 -5.483966E-10
       250  11 -1.454802E+06 -3.441151E+05 -3.218944E+05  3.304272E+05  3.782678E-09 -2.181589E-09
       250  12 -2.515678E+06 -6.063660E+05 -5.657550E+05  6.080142E+05  2.081027E-09  1.737538E-10
       250  13 -5.386344E+04  2.416316E+03 -4.920034E+02  6.100997E+05  8.625605E-10 -1.396870E-09
       250  14 -5.424603E+04  7.452712E+02  5.675617E+02  3.319941E+05 -5.341495E-10  7.680396E-10
       250  15 -5.465724E+04  1.304224E+02  1.877125E+03  6.101012E+05  8.216299E-10 -1.668401E-09
       250  16  2.861460E+05  8.657886E+04  8.034223E+04  6.110697E+05  5.479580E-10 -9.756153E-10
       250  17  1.348128E+06  3.454684E+05  3.228994E+05  3.335632E+05 -1.514893E-09 -2.020859E-09
       250  18  2.411980E+06  6.062021E+05  5.691066E+05  6.121919E+05 -1.705759E-10  5.086257E-10
       250  19 -3.937649E+05 -8.175402E+04 -8.133099E+04  6.091299E+05  4.115868E+04 -8.755740E+03
       250  20 -1.454800E+06 -3.441109E+05 -3.218852E+05  3.304254E+05  3.651484E+04 -5.965379E+04
       250  21 -2.515674E+06 -6.063542E+05 -5.657329E+05  6.080115E+05  3.176497E+04 -1.035821E+05
       250  22 -5.386341E+04  2.416401E+03 -4.918478E+02  6.100997E+05  2.057632E+03 -8.861436E+03
       250  23 -5.424507E+04  7.491012E+02  5.742728E+02  3.319940E+05  2.453257E+03 -5.970906E+04
       250  24 -5.465435E+04  1.419494E+02  1.897308E+03  6.101010E+05  2.734895E+03 -1.035980E+05
       250  25  2.861475E+05  8.657931E+04  8.034496E+04  6.110700E+05 -3.706473E+04 -8.967218E+03
       250  26  1.348130E+06  3.454725E+05  3.229080E+05  3.335648E+05 -3.168470E+04 -5.976442E+04
       250  27  2.411984E+06  6.062138E+05  5.691280E+05  6.121941E+05 -2.640974E+04 -1.036140E+05
       251   1 -3.529710E+06 -8.584939E+05 -7.970208E+05  6.087717E+05 -7.780486E+04  1.515181E+05
       251   2 -4.589777E+06 -1.124242E+06 -1.047050E+06  3.378301E+05  2.698960E+04  1.811469E+05
       251   3 -5.649546E+06 -1.395610E+06 -1.364172E+06  6.178661E+05  1.312097E+05  6.203077E+04
       251   4 -5.215600E+04 -1.433643E+03  3.186301E+03  6.088801E+05 -3.360169E+03  1.515185E+05
       251   5 -6.238499E+04 -6.181584E+03  3.055633E+03  3.335206E+05 -4.998298E+03  1.810980E+05
       251   6 -5.470262E+04  2.104922E+03  1.008737E+04  6.089072E+05 -7.029742E+03  6.241356E+04
       251   7  3.436643E+06  8.547831E+05  8.026137E+05  6.089818E+05  7.150001E+04  1.515188E+05
       251   8  4.484034E+06  1.110434E+06  1.051790E+06  3.291808E+05 -3.721895E+04  1.810500E+05
       251   9  5.568851E+06  1.397501E+06  1.382117E+06  5.998752E+05 -1.465211E+05  6.279916E+04
       251  10 -3.529723E+06 -8.585202E+05 -7.970755E+05  6.087812E+05 -7.216821E-10  3.619703E-10
       251  11 -4.589787E+06 -1.124278E+06 -1.047113E+06  3.378262E+05 -1.113554E-10  2.873150E-09
       251  12 -5.649566E+06 -1.395619E+06 -1.364212E+06  6.178595E+05  2.642531E-09  4.026757E-09
       251  13 -5.216218E+04 -1.458299E+03  3.143136E+03  6.088806E+05  8.973237E-10  1.114541E-09
       251  14 -6.239382E+04 -6.216808E+03  2.993954E+03  3.335213E+05  3.378525E-09  2.867147E-09
       251  15 -5.470372E+04  2.100725E+03  1.007995E+04  6.089075E+05  2.453912E-09 -3.482285E-09
       251  16  3.436632E+06  8.547571E+05  8.025610E+05  6.089731E+05  1.588611E-09  1.946223E-09
       251  17  4.484024E+06  1.110398E+06  1.051725E+06  3.291862E+05 -1.527801E-09  2.733563E-09
       251  18  5.568827E+06  1.397491E+06  1.382070E+06  5.998826E+05  5.027107E-10 -1.304317E-09
       251  19 -3.529710E+06 -8.584939E+05 -7.970208E+05  6.087717E+05  7.780486E+04 -1.515181E+05
       251  20 -4.589777E+06 -1.124242E+06 -1.047050E+06  3.378301E+05 -2.698960E+04 -1.811469E+05
       251  21 -5.649546E+06 -1.395610E+06 -1.364172E+06  6.178661E+05 -1.312097E+05 -6.203077E+04
       251  22 -5.215600E+04 -1.433643E+03  3.186301E+03  6.088801E+05  3.360169E+03 -1.515185E+05
       251  23 -6.238499E+04 -6.181584E+03  3.055633E+03  3.335206E+05  4.998298E+03 -1.810980E+05
       251  24 -5.470262E+04  2.104922E+03  1.008737E+04  6.089072E+05  7.029742E+03 -6.241356E+04
       251  25  3.436643E+06  8.547831E+05  8.026137E+05  6.089818E+05 -7.150001E+04 -1.515188E+05
       251  26  4.484034E+06  1.110434E+06  1.051790E+06  3.291808E+05  3.721895E+04 -1.810500E+05
       251  27  5.568851E+06  1.397501E+06  1.382117E+06  5.998752E+05  1.465211E+05 -6.279916E+04
       252   1 -1.572679E+06 -6.218987E+06 -1.555540E+06  9.706433E+05 -6.774688E+04 -1.373540E+05
       252   2 -1.136997E+06 -4.450814E+06 -1.063591E+06  5.216513E+05 -1.826855E+05 -1.563767E+04
       252   3 -6.863733E+05 -2.698445E+06 -6.488752E+05  9.906753E+05 -1.218379E+05  1.049665E+05
       252   4  2.438008E+04  1.689157E+05  1.610985E+04  1.013599E+06 -6.655271E+04  8.431297E+03
       252   5  4.347615E+03  1.693990E+05  8.980379E+03  5.548277E+05 -1.823996E+05  4.609855E+03
       252   6  2.139945E+04  1.732212E+05  1.248559E+04  1.013635E+06 -1.230447E+05 -6.673821E+02
       252   7  1.618412E+06  6.594236E+06  1.584832E+06  1.056898E+06 -6.534545E+04  1.557252E+05
       252   8  1.144187E+06  4.809415E+06  1.080119E+06  5.881993E+05 -1.821128E+05  2.500774E+04
       252   9  7.286016E+05  3.052561E+06  6.733417E+05  1.036674E+06 -1.242562E+05 -1.067876E+05
       252  10 -1.572689E+06 -6.219009E+06 -1.555584E+06  9.706358E+05 -2.467561E-10 -1.063009E-08
       252  11 -1.137033E+06 -4.450823E+06 -1.063654E+06  5.216490E+05  5.212857E-10  1.402721E-08
       252  12 -6.863923E+05 -2.698460E+06 -6.489239E+05  9.906857E+05 -8.248189E-10  2.426556E-11
       252  13  2.437530E+04  1.689144E+05  1.610138E+04  1.013599E+06 -6.607011E-09  6.741580E-09
       252  14  4.311880E+03  1.693900E+05  8.917811E+03  5.548283E+05  5.434214E-09  9.477400E-09
       252  15  2.138319E+04  1.732171E+05  1.245714E+04  1.013635E+06  1.552993E-09  2.884956E-08
       252  16  1.618401E+06  6.594209E+06  1.584779E+06  1.056906E+06 -3.309765E-09  1.091954E-08
       252  17  1.144152E+06  4.809405E+06  1.080055E+06  5.882030E+05 -9.378864E-09 -1.005349E-08
       252  18  7.285820E+05  3.052545E+06  6.732914E+05  1.036664E+06  4.030901E-09 -1.139043E-08
       252  19 -1.572679E+06 -6.218987E+06 -1.555540E+06  9.706433E+05  6.774688E+04  1.373540E+05
       252  20 -1.136997E+06 -4.450814E+06 -1.063591E+06  5.216513E+05  1.826855E+05  1.563767E+04
       252  21 -6.863733E+05 -2.698445E+06 -6.488752E+05  9.906753E+05  1.218379E+05 -1.049665E+05
       252  22  2.438008E+04  1.689157E+05  1.610985E+04  1.013599E+06  6.655271E+04 -8.431297E+03
       252  23  4.347615E+03  1.693990E+05  8.980379E+03  5.548277E+05  1.823996E+05 -4.609855E+03
       252  24  2.139945E+04  1.732212E+05  1.248559E+04  1.013635E+06  1.230447E+05  6.673821E+02
       252  25  1.618412E+06  6.594236E+06  1.584832E+06  1.056898E+06  6.534545E+04 -1.557252E+05
       252  26  1.144187E+06  4.809415E+06  1.080119E+06  5.881993E+05  1.821128E+05 -2.500774E+04
       252  27  7.286016E+05  3.052561E+06  6.733417E+05  1.036674E+06  1.242562E+05  1.067876E+05
       253   1 -2.687408E+05 -1.012900E+06 -2.590776E+05  1.003434E+06 -5.000979E+04  5.070399E+04
       253   2  1.541594E+05  7.567834E+05  1.515771E+05  5.587354E+05  2.524858E+04  3.956428E+04
       253   3  6.045727E+05  2.514207E+06  5.706245E+05  1.036794E+06  9.912120E+04  2.848206E+04
       253   4  2.275604E+04  1.707647E+05  1.328377E+04  1.014778E+06 -5.067629E+04 -4.053027E+03
       253   5  1.182092E+04  1.781402E+05  1.859805E+04  5.533558E+05  2.462160E+04 -1.425601E+04
       253   6  2.845072E+04  1.702248E+05  3.182452E+04  1.014707E+06  9.852295E+04 -2.437237E+04
       253   7  3.141568E+05  1.355734E+06  2.855636E+05  1.026139E+06 -5.134409E+04 -5.891373E+04
       253   8 -1.305393E+05 -4.001872E+05 -1.143923E+05  5.479802E+05  2.399523E+04 -6.802658E+04
       253   9 -5.480523E+05 -2.168680E+06 -5.073283E+05  9.926848E+05  9.792720E+04 -7.702931E+04
       253  10 -2.687442E+05 -1.012904E+06 -2.590871E+05  1.003436E+06  1.969416E-09 -5.339740E-09
       253  11  1.541583E+05  7.567815E+05  1.515730E+05  5.587346E+05 -4.627339E-09  1.632760E-08
       253  12  6.045620E+05  2.514203E+06  5.706045E+05  1.036792E+06  2.433385E-09 -9.323097E-09
       253  13  2.275328E+04  1.707640E+05  1.327892E+04  1.014778E+06  3.814196E-09  1.154542E-08
       253  14  1.182021E+04  1.781398E+05  1.859653E+04  5.533561E+05 -7.525869E-09  1.152926E-08
       253  15  2.844013E+04  1.702216E+05  3.180514E+04  1.014709E+06 -9.361166E-09  2.868961E-08
       253  16  3.141530E+05  1.355729E+06  2.855522E+05  1.026137E+06  3.773463E-09  5.389372E-09
       253  17 -1.305412E+05 -4.001923E+05 -1.144020E+05  5.479815E+05  3.555363E-09 -1.058809E-08
       253  18 -5.480642E+05 -2.168689E+06 -5.073576E+05  9.926909E+05  8.997406E-10 -2.972931E-09
       253  19 -2.687408E+05 -1.012900E+06 -2.590776E+05  1.003434E+06  5.000979E+04 -5.070399E+04
       253  20  1.541594E+05  7.567834E+05  1.515771E+05  5.587354E+05 -2.524858E+04 -3.956428E+04
       253  21  6.045727E+05  2.514207E+06  5.706245E+05  1.036794E+06 -9.912120E+04 -2.848206E+04
       253  22  2.275604E+04  1.707647E+05  1.328377E+04  1.014778E+06  5.067629E+04  4.053027E+03
       253  23  1.182092E+04  1.781402E+05  1.859805E+04  5.533558E+05 -2.462160E+04  1.425601E+04
       253  24  2.845072E+04  1.702248E+05  3.182452E+04  1.014707E+06 -9.852295E+04  2.437237E+04
       253  25  3.141568E+05  1.355734E+06  2.855636E+05  1.026139E+06  5.134409E+04  5.891373E+04
       253  26 -1.305393E+05 -4.001872E+05 -1.143923E+05  5.479802E+05 -2.399523E+04  6.802658E+04
       253  27 -5.480523E+05 -2.168680E+06 -5.073283E+05  9.926848E+05 -9.792720E+04  7.702931E+04
       254   1  1.004234E+06  4.221776E+06  9.658705E+05  1.029314E+06  1.751585E+05  8.173641E+04
       254   2  1.417837E+06  5.958511E+06  1.398207E+06  6.039127E+05  2.285507E+05 -9.816410E+04
       254   3  2.001993E+06  7.766764E+06  1.989455E+06  1.094660E+06  7.954136E+04 -2.772293E+05
       254   4  1.299867E+04  1.806994E+05  3.996437E+04  1.013629E+06  1.739917E+05 -3.147630E+04
       254   5 -6.568809E+03  1.561390E+05  6.035670E+04  5.549687E+05  2.289784E+05 -6.423121E+04
       254   6  1.199152E+05  1.753204E+05  1.385551E+05  1.012894E+06  8.074027E+04 -9.562644E+04
       254   7 -9.793648E+05 -3.845294E+06 -8.869677E+05  9.979945E+05  1.728265E+05 -1.439614E+05
       254   8 -1.433322E+06 -5.615293E+06 -1.279728E+06  5.064067E+05  2.294033E+05 -3.060865E+04
       254   9 -1.766367E+06 -7.363924E+06 -1.716412E+06  9.320017E+05  8.190073E+04  8.378739E+04
       254  10  1.004200E+06  4.221761E+06  9.658005E+05  1.029302E+06 -8.449827E-10 -1.634161E-09
       254  11  1.417779E+06  5.958486E+06  1.398091E+06  6.039307E+05 -1.511774E-09  1.123445E-08
       254  12  2.001966E+06  7.766681E+06  1.989300E+06  1.094677E+06  5.848436E-10 -4.326016E-09
       254  13  1.296588E+04  1.806902E+05  3.990557E+04  1.013633E+06  6.729115E-09  1.009359E-08
       254  14 -6.626240E+03  1.561204E+05  6.025035E+04  5.549805E+05 -4.108474E-09  7.914566E-09
       254  15  1.199057E+05  1.753088E+05  1.385256E+05  1.012900E+06  1.106014E-09  1.273892E-08
       254  16 -9.794026E+05 -3.845324E+06 -8.870633E+05  9.980146E+05 -2.703636E-09  1.437407E-09
       254  17 -1.433379E+06 -5.615308E+06 -1.279828E+06  5.064123E+05 -2.478679E-09 -6.665724E-09
       254  18 -1.766377E+06 -7.363933E+06 -1.716438E+06  9.319962E+05  1.534325E-09 -1.147174E-09
       254  19  1.004234E+06  4.221776E+06  9.658705E+05  1.029314E+06 -1.751585E+05 -8.173641E+04
       254  20  1.417837E+06  5.958511E+06  1.398207E+06  6.039127E+05 -2.285507E+05  9.816410E+04
       254  21  2.001993E+06  7.766764E+06  1.989455E+06  1.094660E+06 -7.954136E+04  2.772293E+05
       254  22  1.299867E+04  1.806994E+05  3.996437E+04  1.013629E+06 -1.739917E+05  3.147630E+04
       254  23 -6.568809E+03  1.561390E+05  6.035670E+04  5.549687E+05 -2.289784E+05  6.423121E+04
       254  24  1.199152E+05  1.753204E+05  1.385551E+05  1.012894E+06 -8.074027E+04  9.562644E+04
       254  25 -9.793648E+05 -3.845294E+06 -8.869677E+05  9.979945E+05 -1.728265E+05  1.439614E+05
       254  26 -1.433322E+06 -5.615293E+06 -1.279728E+06  5.064067E+05 -2.294033E+05  3.060865E+04
       254  27 -1.766367E+06 -7.363924E+06 -1.716412E+06  9.320017E+05 -8.190073E+04 -8.378739E+04
       255   1  5.100334E+06  1.291373E+06  1.272151E+06  4.967950E+05  1.244100E+05 -5.961244E+04
       255   2  4.187576E+06  1.065382E+06  9.978296E+05  2.742467E+05  2.812565E+04 -1.739114E+05
       255   3  3.303672E+06  8.495578E+05  7.907587E+05  5.151104E+05 -6.761832E+04 -1.509424E+05
       255   4 -1.632908E+05 -1.514783E+04 -1.212769E+04  5.131883E+05 -8.245106E+03 -5.921532E+04
       255   5 -1.677312E+05 -4.514113E+03 -6.856134E+03  2.813885E+05 -4.989292E+03 -1.739429E+05
       255   6 -1.612453E+05 -8.718289E+02 -3.086687E+03  5.132075E+05 -1.332409E+03 -1.509719E+05
       255   7 -5.401748E+06 -1.323701E+06 -1.298358E+06  5.294535E+05 -1.397848E+05 -5.882388E+04
       255   8 -4.505570E+06 -1.075737E+06 -1.012800E+06  2.884833E+05 -3.787479E+04 -1.739753E+05
       255   9 -3.615071E+06 -8.521340E+05 -7.977053E+05  5.113097E+05  6.458811E+04 -1.510019E+05
       255  10  5.100317E+06  1.291365E+06  1.272116E+06  4.968009E+05  3.396592E-10  3.187047E-09
       255  11  4.187567E+06  1.065349E+06  9.977713E+05  2.742507E+05  2.207879E-09 -2.251441E-09
       255  12  3.303661E+06  8.495321E+05  7.907074E+05  5.151022E+05 -4.639151E-09 -1.259364E-09
       255  13 -1.632919E+05 -1.515161E+04 -1.213441E+04  5.131879E+05 -1.304198E-09 -7.784692E-09
       255  14 -1.677393E+05 -4.546607E+03 -6.913032E+03  2.813878E+05  3.292074E-09 -4.252081E-09
       255  15 -1.612514E+05 -8.963025E+02 -3.129518E+03  5.132073E+05  2.083269E-09 -5.540178E-10
       255  16 -5.401770E+06 -1.323710E+06 -1.298402E+06  5.294469E+05 -1.053530E-10 -5.120869E-09
       255  17 -4.505580E+06 -1.075770E+06 -1.012860E+06  2.884779E+05  2.143770E-09  8.966598E-10
       255  18 -3.615081E+06 -8.521596E+05 -7.977561E+05  5.113176E+05  4.794554E-09 -6.923481E-12
       255  19  5.100334E+06  1.291373E+06  1.272151E+06  4.967950E+05 -1.244100E+05  5.961244E+04
       255  20  4.187576E+06  1.065382E+06  9.978296E+05  2.742467E+05 -2.812565E+04  1.739114E+05
       255  21  3.303672E+06  8.495578E+05  7.907587E+05  5.151104E+05  6.761832E+04  1.509424E+05
       255  22 -1.632908E+05 -1.514783E+04 -1.212769E+04  5.131883E+05  8.245106E+03  5.921532E+04
       255  23 -1.677312E+05 -4.514113E+03 -6.856134E+03  2.813885E+05  4.989292E+03  1.739429E+05
       255  24 -1.612453E+05 -8.718289E+02 -3.086687E+03  5.132075E+05  1.332409E+03  1.509719E+05
       255  25 -5.401748E+06 -1.323701E+06 -1.298358E+06  5.294535E+05  1.397848E+05  5.882388E+04
       255  26 -4.505570E+06 -1.075737E+06 -1.012800E+06  2.884833E+05  3.787479E+04  1.739753E+05
       255  27 -3.615071E+06 -8.521340E+05 -7.977053E+05  5.113097E+05 -6.458811E+04  1.510019E+05
       256   1  2.440446E+06  6.378549E+05  5.955214E+05  5.156813E+05 -2.480992E+04 -1.090826E+05
       256   2  1.542866E+06  4.194181E+05  3.893816E+05  2.814955E+05 -2.828658E+04 -7.281787E+04
       256   3  6.470842E+05  2.013918E+05  1.856090E+05  5.163332E+05 -3.187427E+04 -3.003039E+04
       256   4 -1.623483E+05 -1.716922E+03 -3.157116E+03  5.144221E+05 -9.769871E+02 -1.090862E+05
       256   5 -1.620563E+05  3.692881E+02 -2.378775E+03  2.798678E+05  2.353126E+02 -7.278293E+04
       256   6 -1.615418E+05  2.098528E+03 -2.450391E+03  5.144180E+05  1.331446E+03 -2.994604E+04
       256   7 -2.758888E+06 -6.417615E+05 -6.022820E+05  5.131641E+05  2.275712E+04 -1.090898E+05
       256   8 -1.864290E+06 -4.188819E+05 -3.943283E+05  2.782428E+05  2.867965E+04 -7.274808E+04
       256   9 -9.695623E+05 -1.972403E+05 -1.905497E+05  5.125048E+05  3.449425E+04 -2.986183E+04
       256  10  2.440442E+06  6.378420E+05  5.954979E+05  5.156791E+05 -1.135886E-08  2.498982E-10
       256  11  1.542863E+06  4.194122E+05  3.893702E+05  2.814939E+05 -6.967819E-10 -3.522422E-09
       256  12  6.470829E+05  2.013905E+05  1.856054E+05  5.163325E+05  1.049347E-08 -6.819553E-10
       256  13 -1.623515E+05 -1.729700E+03 -3.179478E+03  5.144221E+05  2.279691E-09 -2.873432E-10
       256  14 -1.620577E+05  3.636000E+02 -2.388729E+03  2.798678E+05  6.115727E-10 -1.255756E-09
       256  15 -1.615420E+05  2.097565E+03 -2.452080E+03  5.144181E+05 -2.676342E-09 -1.356196E-09
       256  16 -2.758892E+06 -6.417744E+05 -6.023054E+05  5.131661E+05  1.316649E-08 -1.363461E-09
       256  17 -1.864292E+06 -4.188878E+05 -3.943398E+05  2.782445E+05 -2.764586E-11 -3.809692E-10
       256  18 -9.695638E+05 -1.972416E+05 -1.905536E+05  5.125056E+05 -1.086253E-08  1.581983E-09
       256  19  2.440446E+06  6.378549E+05  5.955214E+05  5.156813E+05  2.480992E+04  1.090826E+05
       256  20  1.542866E+06  4.194181E+05  3.893816E+05  2.814955E+05  2.828658E+04  7.281787E+04
       256  21  6.470842E+05  2.013918E+05  1.856090E+05  5.163332E+05  3.187427E+04  3.003039E+04
       256  22 -1.623483E+05 -1.716922E+03 -3.157116E+03  5.144221E+05  9.769871E+02  1.090862E+05
       256  23 -1.620563E+05  3.692881E+02 -2.378775E+03  2.798678E+05 -2.353126E+02  7.278293E+04
       256  24 -1.615418E+05  2.098528E+03 -2.450391E+03  5.144180E+05 -1.331446E+03  2.994604E+04
       256  25 -2.758888E+06 -6.417615E+05 -6.022820E+05  5.131641E+05 -2.275712E+04  1.090898E+05
       256  26 -1.864290E+06 -4.188819E+05 -3.943283E+05  2.782428E+05 -2.867965E+04  7.274808E+04
       256  27 -9.695623E+05 -1.972403E+05 -1.905497E+05  5.125048E+05 -3.449425E+04  2.986183E+04
       257   1 -2.119122E+05 -1.046700E+04 -1.676901E+04  5.136031E+05 -3.122689E+04 -2.804770E+03
       257   2 -1.106195E+06 -2.315225E+05 -2.223928E+05  2.788030E+05 -2.486132E+04  4.015789E+04
       257   3 -2.002405E+06 -4.553736E+05 -4.332760E+05  5.132672E+05 -1.843638E+04  7.754080E+04
       257   4 -1.618660E+05  2.307173E+03 -2.980644E+03  5.144428E+05  1.678341E+03 -2.715508E+03
       257   5 -1.611121E+05  1.157205E+03 -4.793702E+03  2.798363E+05  4.015270E+03  4.021503E+04
       257   6 -1.623140E+05 -2.028289E+03 -9.020382E+03  5.144500E+05  6.420598E+03  7.757247E+04
       257   7 -1.118152E+05  1.508172E+04  1.081157E+04  5.152826E+05  3.458626E+04 -2.626161E+03
       257   8  7.847995E+05  2.337748E+05  2.127493E+05  2.808705E+05  3.293553E+04  4.027222E+04
       257   9  1.680917E+06  4.510800E+05  4.150126E+05  5.156336E+05  3.135083E+04  7.760418E+04
       257  10 -2.119132E+05 -1.046727E+04 -1.677085E+04  5.136030E+05  9.091637E-10 -2.413167E-10
       257  11 -1.106196E+06 -2.315244E+05 -2.223970E+05  2.788038E+05  8.191666E-10 -9.283684E-10
       257  12 -2.002407E+06 -4.553802E+05 -4.332880E+05  5.132684E+05  3.238899E-10 -2.168240E-09
       257  13 -1.618660E+05  2.307164E+03 -2.980664E+03  5.144428E+05 -1.314162E-10 -6.642953E-10
       257  14 -1.611126E+05  1.155465E+03 -4.796771E+03  2.798361E+05 -1.940671E-10 -1.139703E-09
       257  15 -1.623157E+05 -2.034761E+03 -9.031765E+03  5.144496E+05  1.194908E-09 -1.002923E-09
       257  16 -1.118165E+05  1.508139E+04  1.080931E+04  5.152827E+05 -7.201342E-10  1.655121E-10
       257  17  7.847979E+05  2.337728E+05  2.127442E+05  2.808694E+05 -4.028616E-10  3.767868E-09
       257  18  1.680914E+06  4.510733E+05  4.149994E+05  5.156317E+05  2.191565E-09  7.861910E-10
       257  19 -2.119122E+05 -1.046700E+04 -1.676901E+04  5.136031E+05  3.122689E+04  2.804770E+03
       257  20 -1.106195E+06 -2.315225E+05 -2.223928E+05  2.788030E+05  2.486132E+04 -4.015789E+04
       257  21 -2.002405E+06 -4.553736E+05 -4.332760E+05  5.132672E+05  1.843638E+04 -7.754080E+04
       257  22 -1.618660E+05  2.307173E+03 -2.980644E+03  5.144428E+05 -1.678341E+03  2.715508E+03
       257  23 -1.611121E+05  1.157205E+03 -4.793702E+03  2.798363E+05 -4.015270E+03 -4.021503E+04
       257  24 -1.623140E+05 -2.028289E+03 -9.020382E+03  5.144500E+05 -6.420598E+03 -7.757247E+04
       257  25 -1.118152E+05  1.508172E+04  1.081157E+04  5.152826E+05 -3.458626E+04  2.626161E+03
       257  26  7.847995E+05  2.337748E+05  2.127493E+05  2.808705E+05 -3.293553E+04 -4.027222E+04
       257  27  1.680917E+06  4.510800E+05  4.150126E+05  5.156336E+05 -3.135083E+04 -7.760418E+04
       258   1 -2.861109E+06 -6.627139E+05 -6.314792E+05  5.061680E+05 -5.355415E+04  1.172751E+05
       258   2 -3.747332E+06 -8.855358E+05 -8.504210E+05  2.870506E+05  4.246888E+04  1.431755E+05
       258   3 -4.649190E+06 -1.156897E+06 -1.142640E+06  5.325757E+05  1.381878E+05  4.941823E+04
       258   4 -1.631272E+05  2.022439E+03 -1.076478E+04  5.134073E+05  7.868232E+03  1.173224E+05
       258   5 -1.633180E+05 -8.395809E+02 -1.941943E+04  2.811387E+05  1.822776E+04  1.431262E+05
       258   6 -1.648211E+05 -3.711164E+04 -4.155252E+04  5.133713E+05  2.842516E+04  4.957537E+04
       258   7  2.541620E+06  6.662516E+05  6.094820E+05  5.206736E+05  6.955628E+04  1.173711E+05
       258   8  3.432611E+06  8.829515E+05  8.107227E+05  2.751907E+05 -6.153152E+03  1.430776E+05
       258   9  4.337975E+06  1.081185E+06  1.058102E+06  4.940275E+05 -8.213392E+04  4.973906E+04
       258  10 -2.861116E+06 -6.627294E+05 -6.315105E+05  5.061731E+05 -5.175421E-10 -1.246653E-09
       258  11 -3.747339E+06 -8.855583E+05 -8.504629E+05  2.870457E+05  1.522711E-09  2.747781E-09
       258  12 -4.649211E+06 -1.156905E+06 -1.142681E+06  5.325702E+05 -8.501037E-10  1.583760E-09
       258  13 -1.631310E+05  2.007643E+03 -1.079076E+04  5.134066E+05  1.466999E-09 -3.952148E-09
       258  14 -1.633238E+05 -8.616645E+02 -1.945854E+04  2.811366E+05 -6.489868E-10 -2.879658E-10
       258  15 -1.648227E+05 -3.711450E+04 -4.155865E+04  5.133702E+05  1.034160E-09 -1.000477E-10
       258  16  2.541611E+06  6.662355E+05  6.094471E+05  5.206670E+05  2.537880E-09  1.546861E-10
       258  17  3.432605E+06  8.829295E+05  8.106842E+05  2.751914E+05  4.825330E-09 -2.830442E-10
       258  18  4.337967E+06  1.081181E+06  1.058085E+06  4.940308E+05 -2.145608E-09  1.917443E-09
       258  19 -2.861109E+06 -6.627139E+05 -6.314792E+05  5.061680E+05  5.355415E+04 -1.172751E+05
       258  20 -3.747332E+06 -8.855358E+05 -8.504210E+05  2.870506E+05 -4.246888E+04 -1.431755E+05
       258  21 -4.649190E+06 -1.156897E+06 -1.142640E+06  5.325757E+05 -1.381878E+05 -4.941823E+04
       258  22 -1.631272E+05  2.022439E+03 -1.076478E+04  5.134073E+05 -7.868232E+03 -1.173224E+05
       258  23 -1.633180E+05 -8.395809E+02 -1.941943E+04  2.811387E+05 -1.822776E+04 -1.431262E+05
       258  24 -1.648211E+05 -3.711164E+04 -4.155252E+04  5.133713E+05 -2.842516E+04 -4.957537E+04
       258  25  2.541620E+06  6.662516E+05  6.094820E+05  5.206736E+05 -6.955628E+04 -1.173711E+05
       258  26  3.432611E+06  8.829515E+05  8.107227E+05  2.751907E+05  6.153152E+03 -1.430776E+05
       258  27  4.337975E+06  1.081185E+06  1.058102E+06  4.940275E+05  8.213392E+04 -4.973906E+04
       259   1 -1.293555E+06 -5.314836E+06 -1.278057E+06  8.091154E+05 -5.528162E+04 -1.230950E+05
       259   2 -9.270758E+05 -3.847765E+06 -8.625275E+05  4.352744E+05 -1.489262E+05 -2.544276E+04
       259   3 -5.544376E+05 -2.394992E+06 -5.103548E+05  8.225322E+05 -9.846281E+04  7.142388E+04
       259   4  1.430248E+04 -8.109130E+04  9.137877E+03  8.384350E+05 -5.445082E+04 -4.034329E+03
       259   5  3.250425E+03 -8.052346E+04  1.183909E+04  4.580278E+05 -1.487354E+05 -9.426756E+03
       259   6  1.650275E+04 -7.817517E+04  2.324144E+04  8.384256E+05 -9.930236E+04 -1.583520E+04
       259   7  1.320128E+06  5.177755E+06  1.294368E+06  8.679458E+05 -5.361281E+04  1.160350E+05
       259   8  9.325761E+05  3.699879E+06  8.852531E+05  4.808903E+05 -1.485440E+05  6.686347E+03
       259   9  5.870717E+05  2.243638E+06  5.565104E+05  8.543636E+05 -1.001446E+05 -1.034182E+05
       259  10 -1.293562E+06 -5.314853E+06 -1.278092E+06  8.091099E+05  1.829710E-09  2.543488E-09
       259  11 -9.270998E+05 -3.847771E+06 -8.625704E+05  4.352713E+05  9.691521E-09 -1.437834E-08
       259  12 -5.544494E+05 -2.395001E+06 -5.103827E+05  8.225379E+05 -3.118803E-10 -8.734521E-09
       259  13  1.429929E+04 -8.109211E+04  9.132277E+03  8.384348E+05  9.331387E-10  5.762761E-09
       259  14  3.226649E+03 -8.052950E+04  1.179735E+04  4.580267E+05  1.585571E-08 -7.972385E-09
       259  15  1.649210E+04 -7.817808E+04  2.322245E+04  8.384243E+05 -1.193804E-09  1.044314E-08
       259  16  1.320121E+06  5.177739E+06  1.294338E+06  8.679508E+05  1.780559E-09 -5.459627E-09
       259  17  9.325524E+05  3.699873E+06  8.852116E+05  4.808911E+05  5.459125E-09  1.030875E-08
       259  18  5.870581E+05  2.243623E+06  5.564716E+05  8.543553E+05 -9.447424E-10  1.395423E-08
       259  19 -1.293555E+06 -5.314836E+06 -1.278057E+06  8.091154E+05  5.528162E+04  1.230950E+05
       259  20 -9.270758E+05 -3.847765E+06 -8.625275E+05  4.352744E+05  1.489262E+05  2.544276E+04
       259  21 -5.544376E+05 -2.394992E+06 -5.103548E+05  8.225322E+05  9.846281E+04 -7.142388E+04
       259  22  1.430248E+04 -8.109130E+04  9.137877E+03  8.384350E+05  5.445082E+04  4.034329E+03
       259  23  3.250425E+03 -8.052346E+04  1.183909E+04  4.580278E+05  1.487354E+05  9.426756E+03
       259  24  1.650275E+04 -7.817517E+04  2.324144E+04  8.384256E+05  9.930236E+04  1.583520E+04
       259  25  1.320128E+06  5.177755E+06  1.294368E+06  8.679458E+05  5.361281E+04 -1.160350E+05
       259  26  9.325761E+05  3.699879E+06  8.852531E+05  4.808903E+05  1.485440E+05 -6.686347E+03
       259  27  5.870717E+05  2.243638E+06  5.565104E+05  8.543636E+05  1.001446E+05  1.034182E+05
       260   1 -2.110721E+05 -9.939187E+05 -1.814347E+05  8.287865E+05 -3.900671E+04  2.432639E+04
       260   2  1.409213E+05  4.691533E+05  1.749190E+05  4.625239E+05  2.337292E+04 -2.164435E+03
       260   3  5.338571E+05  1.931573E+06  5.547448E+05  8.617516E+05  8.441544E+04 -2.864761E+04
       260   4  1.453622E+04 -7.806639E+04  2.930134E+04  8.395328E+05 -3.947243E+04 -2.123412E+04
       260   5  6.541208E+03 -7.690391E+04  4.939328E+04  4.566604E+05  2.293821E+04 -4.678399E+04
       260   6  3.949777E+04 -7.848267E+04  9.246365E+04  8.392870E+05  8.400500E+04 -7.226632E+04
       260   7  2.400872E+05  8.385676E+05  2.399897E+05  8.502926E+05 -3.993934E+04 -6.686138E+04
       260   8 -1.278586E+05 -6.226810E+05 -7.614467E+04  4.508013E+05  2.250415E+04 -9.136461E+04
       260   9 -4.551417E+05 -2.084802E+06 -3.700778E+05  8.168841E+05  8.359698E+04 -1.157450E+05
       260  10 -2.110739E+05 -9.939198E+05 -1.814387E+05  8.287873E+05  4.113624E-10 -1.219827E-11
       260  11  1.409207E+05  4.691532E+05  1.749180E+05  4.625240E+05 -1.582870E-09 -1.156373E-08
       260  12  5.338492E+05  1.931570E+06  5.547299E+05  8.617536E+05  4.900857E-09  1.141768E-09
       260  13  1.453443E+04 -7.806729E+04  2.929757E+04  8.395321E+05 -8.467847E-10  9.696936E-09
       260  14  6.540054E+03 -7.690641E+04  4.938817E+04  4.566612E+05  1.456476E-08 -9.926144E-09
       260  15  3.948878E+04 -7.849018E+04  9.244054E+04  8.392919E+05 -6.063601E-09  1.026534E-08
       260  16  2.400843E+05  8.385623E+05  2.399783E+05  8.502905E+05 -2.548366E-09 -4.634329E-09
       260  17 -1.278614E+05 -6.226901E+05 -7.616133E+04  4.508029E+05  5.455846E-09  6.885783E-09
       260  18 -4.551528E+05 -2.084819E+06 -3.701162E+05  8.168919E+05  2.080352E-09  3.321907E-09
       260  19 -2.110721E+05 -9.939187E+05 -1.814347E+05  8.287865E+05  3.900671E+04 -2.432639E+04
       260  20  1.409213E+05  4.691533E+05  1.749190E+05  4.625239E+05 -2.337292E+04  2.164435E+03
       260  21  5.338571E+05  1.931573E+06  5.547448E+05  8.617516E+05 -8.441544E+04  2.864761E+04
       260  22  1.453622E+04 -7.806639E+04  2.930134E+04  8.395328E+05  3.947243E+04  2.123412E+04
       260  23  6.541208E+03 -7.690391E+04  4.939328E+04  4.566604E+05 -2.293821E+04  4.678399E+04
       260  24  3.949777E+04 -7.848267E+04  9.246365E+04  8.392870E+05 -8.400500E+04  7.226632E+04
       260  25  2.400872E+05  8.385676E+05  2.399897E+05  8.502926E+05  3.993934E+04  6.686138E+04
       260  26 -1.278586E+05 -6.226810E+05 -7.614467E+04  4.508013E+05 -2.250415E+04  9.136461E+04
       260  27 -4.551417E+05 -2.084802E+06 -3.700778E+05  8.168841E+05 -8.359698E+04  1.157450E+05
       261   1  8.322915E+05  3.362804E+06  8.987816E+05  8.105812E+05  1.474800E+05  3.865243E+03
       261   2  1.175172E+06  4.762122E+06  1.312681E+06  5.271976E+05  1.913489E+05 -2.200862E+05
       261   3  1.926491E+06  6.296310E+06  1.973633E+06  1.002584E+06  6.588304E+04 -4.436428E+05
       261   4 -5.671758E+03 -5.469640E+04  1.154459E+05  8.385851E+05  1.466734E+05 -9.012977E+04
       261   5 -2.303866E+04 -1.129052E+05  1.876714E+05  4.581264E+05  1.916687E+05 -1.907192E+05
       261   6  3.485134E+05 -5.839446E+04  4.227125E+05  8.365699E+05  6.680581E+04 -2.903649E+05
       261   7 -8.444369E+05 -3.461394E+06 -6.686239E+05  8.664031E+05  1.458559E+05 -1.836127E+05
       261   8 -1.222900E+06 -4.966057E+06 -9.389169E+05  3.895541E+05  1.919836E+05 -1.615752E+05
       261   9 -1.232338E+06 -6.376418E+06 -1.131052E+06  6.721764E+05  6.765316E+04 -1.386285E+05
       261  10  8.322682E+05  3.362798E+06  8.987407E+05  8.105807E+05  1.753438E-09 -5.900669E-09
       261  11  1.175120E+06  4.762060E+06  1.312522E+06  5.272314E+05  5.988881E-10 -1.143639E-08
       261  12  1.926434E+06  6.296099E+06  1.973258E+06  1.002608E+06  1.315997E-09 -7.600506E-10
       261  13 -5.697065E+03 -5.471093E+04  1.153901E+05  8.385957E+05  5.947499E-09  8.409759E-09
       261  14 -2.308791E+04 -1.129541E+05  1.875339E+05  4.581558E+05  5.428802E-09 -6.865932E-09
       261  15  3.484859E+05 -5.848621E+04  4.225456E+05  8.365855E+05  1.422363E-09  4.518415E-09
       261  16 -8.444689E+05 -3.461436E+06 -6.687277E+05  8.664247E+05 -2.766211E-09  1.541097E-09
       261  17 -1.222947E+06 -4.966096E+06 -9.390357E+05  3.895792E+05  1.916388E-09  8.648309E-09
       261  18 -1.232348E+06 -6.376440E+06 -1.131097E+06  6.721840E+05  2.842276E-09  2.891224E-09
       261  19  8.322915E+05  3.362804E+06  8.987816E+05  8.105812E+05 -1.474800E+05 -3.865243E+03
       261  20  1.175172E+06  4.762122E+06  1.312681E+06  5.271976E+05 -1.913489E+05  2.200862E+05
       261  21  1.926491E+06  6.296310E+06  1.973633E+06  1.002584E+06 -6.588304E+04  4.436428E+05
       261  22 -5.671758E+03 -5.469640E+04  1.154459E+05  8.385851E+05 -1.466734E+05  9.012977E+04
       261  23 -2.303866E+04 -1.129052E+05  1.876714E+05  4.581264E+05 -1.916687E+05  1.907192E+05
       261  24  3.485134E+05 -5.839446E+04  4.227125E+05  8.365699E+05 -6.680581E+04  2.903649E+05
       261  25 -8.444369E+05 -3.461394E+06 -6.686239E+05  8.664031E+05 -1.458559E+05  1.836127E+05
       261  26 -1.222900E+06 -4.966057E+06 -9.389169E+05  3.895541E+05 -1.919836E+05  1.615752E+05
       261  27 -1.232338E+06 -6.376418E+06 -1.131052E+06  6.721764E+05 -6.765316E+04  1.386285E+05
       262   1  7.667026E+06  1.912360E+06  1.871503E+06  7.908521E+05  1.502163E+05 -8.910106E+04
       262   2  6.212921E+06  1.596378E+06  1.468094E+06  4.473496E+05  1.721360E+04 -2.597997E+05
       262   3  4.794724E+06  1.257398E+06  1.149150E+06  8.438230E+05 -1.154303E+05 -2.220962E+05
       262   4 -3.085137E+05 -6.443639E+04 -7.192938E+04  8.185649E+05 -4.910740E+04 -8.901889E+04
       262   5 -3.099107E+05 -4.122968E+03 -3.501259E+04  4.482836E+05 -3.059818E+04 -2.600680E+05
       262   6 -3.036134E+05  6.887324E+03 -1.816340E+04  8.185079E+05 -1.203961E+04 -2.217314E+05
       262   7 -8.226403E+06 -2.045888E+06 -2.019837E+06  8.458996E+05 -2.458970E+05 -8.895530E+04
       262   8 -6.793631E+06 -1.607595E+06 -1.540938E+06  4.491785E+05 -7.791392E+04 -2.603386E+05
       262   9 -5.377964E+06 -1.245423E+06 -1.187145E+06  7.933585E+05  9.051429E+04 -2.213733E+05
       262  10  7.667000E+06  1.912346E+06  1.871446E+06  7.908628E+05 -4.237594E-10  1.786904E-10
       262  11  6.212902E+06  1.596305E+06  1.467966E+06  4.473532E+05 -2.828675E-09 -3.332681E-09
       262  12  4.794697E+06  1.257342E+06  1.149032E+06  8.438024E+05  6.226732E-09 -8.335703E-09
       262  13 -3.085184E+05 -6.444554E+04 -7.194878E+04  8.185613E+05  1.889187E-09 -9.960810E-10
       262  14 -3.099299E+05 -4.195831E+03 -3.514141E+04  4.482772E+05  1.357572E-09 -1.095549E-09
       262  15 -3.036268E+05  6.834503E+03 -1.825603E+04  8.185058E+05  9.682560E-10 -7.609946E-10
       262  16 -8.226470E+06 -2.045913E+06 -2.019966E+06  8.458819E+05  2.053934E-10  1.576778E-10
       262  17 -6.793656E+06 -1.607669E+06 -1.541077E+06  4.491621E+05  2.514352E-09 -2.421860E-09
       262  18 -5.377986E+06 -1.245478E+06 -1.187253E+06  7.933747E+05 -1.390468E-09 -1.127302E-08
       262  19  7.667026E+06  1.912360E+06  1.871503E+06  7.908521E+05 -1.502163E+05  8.910106E+04
       262  20  6.212921E+06  1.596378E+06  1.468094E+06  4.473496E+05 -1.721360E+04  2.597997E+05
       262  21  4.794724E+06  1.257398E+06  1.149150E+06  8.438230E+05  1.154303E+05  2.220962E+05
       262  22 -3.085137E+05 -6.443639E+04 -7.192938E+04  8.185649E+05  4.910740E+04  8.901889E+04
       262  23 -3.099107E+05 -4.122968E+03 -3.501259E+04  4.482836E+05  3.059818E+04  2.600680E+05
       262  24 -3.036134E+05  6.887324E+03 -1.816340E+04  8.185079E+05  1.203961E+04  2.217314E+05
       262  25 -8.226403E+06 -2.045888E+06 -2.019837E+06  8.458996E+05  2.458970E+05  8.895530E+04
       262  26 -6.793631E+06 -1.607595E+06 -1.540938E+06  4.491785E+05  7.791392E+04  2.603386E+05
       262  27 -5.377964E+06 -1.245423E+06 -1.187145E+06  7.933585E+05 -9.051429E+04  2.213733E+05
       263   1  3.415529E+06  9.138417E+05  8.392817E+05  8.335862E+05 -4.869651E+04 -1.562180E+05
       263   2  1.984282E+06  5.662131E+05  5.161969E+05  4.554544E+05 -5.163585E+04 -9.768973E+04
       263   3  5.490731E+05  2.217672E+05  1.939994E+05  8.268125E+05 -5.485587E+04 -2.929618E+04
       263   4 -3.039408E+05  2.963763E+02 -1.574150E+04  8.205781E+05 -9.917004E+03 -1.560572E+05
       263   5 -2.995279E+05  4.919422E+03 -8.542576E+03  4.457208E+05 -5.792785E+03 -9.741749E+04
       263   6 -3.022104E+05  1.162085E+04 -5.267351E+03  8.205214E+05 -1.955858E+03 -2.888886E+04
       263   7 -4.010646E+06 -9.142132E+05 -8.716744E+05  8.076220E+05  2.863312E+04 -1.558975E+05
       263   8 -2.578514E+06 -5.567369E+05 -5.336189E+05  4.360138E+05  3.988343E+04 -9.714615E+04
       263   9 -1.152820E+06 -1.985754E+05 -2.045730E+05  8.142374E+05  5.087212E+04 -2.848230E+04
       263  10  3.415519E+06  9.138148E+05  8.392315E+05  8.335801E+05 -7.544008E-09 -1.271403E-08
       263  11  1.984276E+06  5.662022E+05  5.161740E+05  4.554504E+05 -4.237383E-09  3.769421E-09
       263  12  5.490696E+05  2.217655E+05  1.939921E+05  8.268112E+05 -4.871812E-09  9.124191E-09
       263  13 -3.039475E+05  2.702046E+02 -1.578743E+04  8.205769E+05  2.348410E-09 -9.436709E-09
       263  14 -2.995305E+05  4.909224E+03 -8.560468E+03  4.457203E+05 -1.283235E-10 -2.952983E-09
       263  15 -3.022106E+05  1.161996E+04 -5.268925E+03  8.205214E+05  1.556318E-09 -3.387588E-09
       263  16 -4.010653E+06 -9.142395E+05 -8.717217E+05  8.076256E+05  1.994920E-09 -3.219367E-09
       263  17 -2.578518E+06 -5.567475E+05 -5.336396E+05  4.360170E+05  2.170115E-09 -3.955735E-10
       263  18 -1.152823E+06 -1.985770E+05 -2.045794E+05  8.142386E+05  8.202356E-09  6.016308E-09
       263  19  3.415529E+06  9.138417E+05  8.392817E+05  8.335862E+05  4.869651E+04  1.562180E+05
       263  20  1.984282E+06  5.662131E+05  5.161969E+05  4.554544E+05  5.163585E+04  9.768973E+04
       263  21  5.490731E+05  2.217672E+05  1.939994E+05  8.268125E+05  5.485587E+04  2.929618E+04
       263  22 -3.039408E+05  2.963763E+02 -1.574150E+04  8.205781E+05  9.917004E+03  1.560572E+05
       263  23 -2.995279E+05  4.919422E+03 -8.542576E+03  4.457208E+05  5.792785E+03  9.741749E+04
       263  24 -3.022104E+05  1.162085E+04 -5.267351E+03  8.205214E+05  1.955858E+03  2.888886E+04
       263  25 -4.010646E+06 -9.142132E+05 -8.716744E+05  8.076220E+05 -2.863312E+04  1.558975E+05
       263  26 -2.578514E+06 -5.567369E+05 -5.336189E+05  4.360138E+05 -3.988343E+04  9.714615E+04
       263  27 -1.152820E+06 -1.985754E+05 -2.045730E+05  8.142374E+05 -5.087212E+04  2.848230E+04
       264   1 -8.227733E+05 -1.176176E+05 -1.280915E+05  8.164751E+05 -5.428397E+04  1.422222E+04
       264   2 -2.248789E+06 -4.751912E+05 -4.541515E+05  4.369922E+05 -4.536883E+04  8.290796E+04
       264   3 -3.681432E+06 -8.294344E+05 -7.874373E+05  8.073639E+05 -3.622195E+04  1.421012E+05
       264   4 -3.021506E+05  1.129688E+04 -4.712606E+03  8.205370E+05 -1.564505E+03  1.463197E+04
       264   5 -2.992268E+05  5.197709E+03 -5.018867E+03  4.457038E+05  4.883928E+02  8.319543E+04
       264   6 -3.036304E+05  3.766488E+03 -7.673693E+03  8.205730E+05  2.793939E+03  1.422871E+05
       264   7  2.187274E+05  1.401933E+05  1.186579E+05  8.246018E+05  5.119898E+04  1.504222E+04
       264   8  1.653865E+06  4.853216E+05  4.438695E+05  4.544361E+05  4.648888E+04  8.348371E+04
       264   9  3.084768E+06  8.361671E+05  7.713359E+05  8.338322E+05  4.202139E+04  1.424741E+05
       264  10 -8.227765E+05 -1.176186E+05 -1.280974E+05  8.164758E+05 -5.203975E-10  1.367639E-08
       264  11 -2.248793E+06 -4.751992E+05 -4.541683E+05  4.369953E+05 -1.269127E-09  6.705928E-09
       264  12 -3.681439E+06 -8.294564E+05 -7.874777E+05  8.073681E+05  9.299429E-09 -2.943756E-09
       264  13 -3.021507E+05  1.129665E+04 -4.713013E+03  8.205371E+05  4.637114E-09 -4.507524E-09
       264  14 -2.992287E+05  5.190278E+03 -5.031872E+03  4.457038E+05 -8.207816E-10  8.483969E-09
       264  15 -3.036358E+05  3.744750E+03 -7.711745E+03  8.205727E+05 -2.951328E-09  1.260987E-08
       264  16  2.187245E+05  1.401924E+05  1.186526E+05  8.246011E+05 -4.146738E-10  1.160970E-08
       264  17  1.653861E+06  4.853136E+05  4.438523E+05  4.544330E+05 -6.943704E-10  1.168858E-08
       264  18  3.084761E+06  8.361449E+05  7.712945E+05  8.338274E+05 -4.571503E-09  6.219971E-09
       264  19 -8.227733E+05 -1.176176E+05 -1.280915E+05  8.164751E+05  5.428397E+04 -1.422222E+04
       264  20 -2.248789E+06 -4.751912E+05 -4.541515E+05  4.369922E+05  4.536883E+04 -8.290796E+04
       264  21 -3.681432E+06 -8.294344E+05 -7.874373E+05  8.073639E+05  3.622195E+04 -1.421012E+05
       264  22 -3.021506E+05  1.129688E+04 -4.712606E+03  8.205370E+05  1.564505E+03 -1.463197E+04
       264  23 -2.992268E+05  5.197709E+03 -5.018867E+03  4.457038E+05 -4.883928E+02 -8.319543E+04
       264  24 -3.036304E+05  3.766488E+03 -7.673693E+03  8.205730E+05 -2.793939E+03 -1.422871E+05
       264  25  2.187274E+05  1.401933E+05  1.186579E+05  8.246018E+05 -5.119898E+04 -1.504222E+04
       264  26  1.653865E+06  4.853216E+05  4.438695E+05  4.544361E+05 -4.648888E+04 -8.348371E+04
       264  27  3.084768E+06  8.361671E+05  7.713359E+05  8.338322E+05 -4.202139E+04 -1.424741E+05
       265   1 -5.047498E+06 -1.164828E+06 -1.101154E+06  7.978823E+05 -9.713825E+04  2.066238E+05
       265   2 -6.467553E+06 -1.527247E+06 -1.446875E+06  4.426421E+05  5.606813E+04  2.468857E+05
       265   3 -7.896900E+06 -1.929823E+06 -1.899378E+06  8.289926E+05  2.090013E+05  8.492491E+04
       265   4 -3.015597E+05  6.196027E+03 -7.930686E+03  8.186587E+05  3.424423E+03  2.070295E+05
       265   5 -3.110423E+05 -4.952650E+03 -1.711479E+04  4.480920E+05  1.239324E+04  2.466174E+05
       265   6 -3.062096E+05 -3.066795E+04 -3.214168E+04  8.187181E+05  2.145023E+04  8.486676E+04
       265   7  4.465356E+06  1.175646E+06  1.083837E+06  8.395566E+05  1.047544E+05  2.074403E+05
       265   8  5.880720E+06  1.514663E+06  1.410104E+06  4.535654E+05 -3.171556E+04  2.463503E+05
       265   9  7.337447E+06  1.864208E+06  1.830981E+06  8.082845E+05 -1.684136E+05  8.481658E+04
       265  10 -5.047520E+06 -1.164876E+06 -1.101252E+06  7.978985E+05  6.402540E-09 -2.761607E-09
       265  11 -6.467572E+06 -1.527313E+06 -1.446995E+06  4.426309E+05 -1.354803E-09  3.608596E-09
       265  12 -7.896949E+06 -1.929842E+06 -1.899475E+06  8.289783E+05 -2.085500E-09  6.023700E-10
       265  13 -3.015712E+05  6.150006E+03 -8.011236E+03  8.186581E+05  4.079102E-09  3.338339E-09
       265  14 -3.110588E+05 -5.017990E+03 -1.722934E+04  4.480896E+05 -2.318567E-10  4.714357E-09
       265  15 -3.062120E+05 -3.067581E+04 -3.215607E+04  8.187167E+05  2.245636E-09 -1.362902E-09
       265  16  4.465333E+06  1.175597E+06  1.083736E+06  8.395391E+05 -9.016702E-09  6.560870E-09
       265  17  5.880703E+06  1.514598E+06  1.409988E+06  4.535717E+05 -1.370210E-09  1.569129E-09
       265  18  7.337415E+06  1.864192E+06  1.830915E+06  8.082959E+05 -9.664575E-10 -7.245385E-10
       265  19 -5.047498E+06 -1.164828E+06 -1.101154E+06  7.978823E+05  9.713825E+04 -2.066238E+05
       265  20 -6.467553E+06 -1.527247E+06 -1.446875E+06  4.426421E+05 -5.606813E+04 -2.468857E+05
       265  21 -7.896900E+06 -1.929823E+06 -1.899378E+06  8.289926E+05 -2.090013E+05 -8.492491E+04
       265  22 -3.015597E+05  6.196027E+03 -7.930686E+03  8.186587E+05 -3.424423E+03 -2.070295E+05
       265  23 -3.110423E+05 -4.952650E+03 -1.711479E+04  4.480920E+05 -1.239324E+04 -2.466174E+05
       265  24 -3.062096E+05 -3.066795E+04 -3.214168E+04  8.187181E+05 -2.145023E+04 -8.486676E+04
       265  25  4.465356E+06  1.175646E+06  1.083837E+06  8.395566E+05 -1.047544E+05 -2.074403E+05
       265  26  5.880720E+06  1.514663E+06  1.410104E+06  4.535654E+05  3.171556E+04 -2.463503E+05
       265  27  7.337447E+06  1.864208E+06  1.830981E+06  8.082845E+05  1.684136E+05 -8.481658E+04
       266   1 -1.476457E+06 -5.861031E+06 -1.452545E+06  9.323614E+05 -6.336059E+04 -1.255649E+05
       266   2 -1.070270E+06 -4.178225E+06 -9.875052E+05  5.044256E+05 -1.713477E+05 -1.647534E+04
       266   3 -6.420919E+05 -2.503080E+06 -5.888120E+05  9.520362E+05 -1.134456E+05  9.195502E+04
       266   4  2.904275E+04  1.625128E+05  2.918613E+04  9.661883E+05 -6.258450E+04  1.151788E+04
       266   5  9.111687E+02  1.592070E+05  1.927217E+04  5.286517E+05 -1.711378E+05  2.040833E+03
       266   6  1.561955E+04  1.663733E+05  2.593317E+04  9.662664E+05 -1.143202E+05 -8.391192E+03
       266   7  1.531852E+06  6.219316E+06  1.508315E+06  1.000277E+06 -6.179804E+04  1.499375E+05
       266   8  1.070766E+06  4.514087E+06  1.024787E+06  5.530125E+05 -1.709274E+05  2.068608E+04
       266   9  6.728379E+05  2.842458E+06  6.402439E+05  9.805390E+05 -1.151972E+05 -1.091667E+05
       266  10 -1.476466E+06 -5.861049E+06 -1.452583E+06  9.323549E+05 -1.245069E-09 -4.355066E-09
       266  11 -1.070302E+06 -4.178233E+06 -9.875609E+05  5.044234E+05  1.633089E-09  2.176133E-09
       266  12 -6.421081E+05 -2.503093E+06 -5.888522E+05  9.520446E+05 -1.428073E-09 -5.194422E-09
       266  13  2.903851E+04  1.625116E+05  2.917852E+04  9.661888E+05 -9.318159E-10 -4.164168E-09
       266  14  8.797151E+02  1.591992E+05  1.921712E+04  5.286520E+05  8.360300E-09 -6.166956E-11
       266  15  1.560550E+04  1.663697E+05  2.590849E+04  9.662657E+05  1.661301E-09 -1.125175E-08
       266  16  1.531841E+06  6.219291E+06  1.508266E+06  1.000285E+06 -6.750087E-10  2.380947E-09
       266  17  1.070735E+06  4.514079E+06  1.024731E+06  5.530153E+05 -1.792532E-09 -6.156896E-09
       266  18  6.728205E+05  2.842442E+06  6.401968E+05  9.805289E+05  5.048618E-09  1.150590E-09
       266  19 -1.476457E+06 -5.861031E+06 -1.452545E+06  9.323614E+05  6.336059E+04  1.255649E+05
       266  20 -1.070270E+06 -4.178225E+06 -9.875052E+05  5.044256E+05  1.713477E+05  1.647534E+04
       266  21 -6.420919E+05 -2.503080E+06 -5.888120E+05  9.520362E+05  1.134456E+05 -9.195502E+04
       266  22  2.904275E+04  1.625128E+05  2.918613E+04  9.661883E+05  6.258450E+04 -1.151788E+04
       266  23  9.111687E+02  1.592070E+05  1.927217E+04  5.286517E+05  1.711378E+05 -2.040833E+03
       266  24  1.561955E+04  1.663733E+05  2.593317E+04  9.662664E+05  1.143202E+05  8.391192E+03
       266  25  1.531852E+06  6.219316E+06  1.508315E+06  1.000277E+06  6.179804E+04 -1.499375E+05
       266  26  1.070766E+06  4.514087E+06  1.024787E+06  5.530125E+05  1.709274E+05 -2.068608E+04
       266  27  6.728379E+05  2.842458E+06  6.402439E+05  9.805390E+05  1.151972E+05  1.091667E+05
       267   1 -2.443595E+05 -8.946320E+05 -2.139816E+05  9.567328E+05 -4.501931E+04  3.825535E+04
       267   2  1.600144E+05  7.879518E+05  1.872848E+05  5.327312E+05  2.674774E+04  1.415372E+04
       267   3  6.019082E+05  2.469301E+06  6.094767E+05  9.887936E+05  9.700727E+04 -9.925401E+03
       267   4  1.647911E+04  1.646362E+05  2.970366E+04  9.673718E+05 -4.551164E+04 -1.410249E+04
       267   5  7.123777E+03  1.663525E+05  4.444272E+04  5.272461E+05  2.629325E+04 -3.715887E+04
       267   6  3.532218E+04  1.640820E+05  7.956867E+04  9.672032E+05  9.658121E+04 -6.013017E+04
       267   7  2.772410E+05  1.224949E+06  2.733250E+05  9.780258E+05 -4.600528E+04 -6.654903E+04
       267   8 -1.457923E+05 -4.548839E+05 -9.841505E+04  5.217657E+05  2.583941E+04 -8.842053E+04
       267   9 -5.316323E+05 -2.136227E+06 -4.506812E+05  9.456790E+05  9.615774E+04 -1.101503E+05
       267  10 -2.443620E+05 -8.946341E+05 -2.139882E+05  9.567342E+05  7.114724E-10 -2.797226E-09
       267  11  1.600135E+05  7.879514E+05  1.872831E+05  5.327309E+05 -1.452291E-09  2.540213E-10
       267  12  6.018981E+05  2.469298E+06  6.094588E+05  9.887944E+05  1.516137E-09 -1.621749E-08
       267  13  1.647684E+04  1.646354E+05  2.969940E+04  9.673712E+05  1.106401E-09 -8.788402E-09
       267  14  7.122663E+03  1.663508E+05  4.443882E+04  5.272469E+05 -7.782531E-09 -1.752986E-10
       267  15  3.531118E+04  1.640756E+05  7.954430E+04  9.672079E+05 -7.862376E-09 -1.098861E-08
       267  16  2.772375E+05  1.224944E+06  2.733127E+05  9.780234E+05  2.184677E-09 -1.702787E-09
       267  17 -1.457951E+05 -4.548925E+05 -9.843101E+04  5.217675E+05  2.250085E-09 -4.940745E-09
       267  18 -5.316456E+05 -2.136242E+06 -4.507216E+05  9.456875E+05  7.492051E-10  1.176062E-08
       267  19 -2.443595E+05 -8.946320E+05 -2.139816E+05  9.567328E+05  4.501931E+04 -3.825535E+04
       267  20  1.600144E+05  7.879518E+05  1.872848E+05  5.327312E+05 -2.674774E+04 -1.415372E+04
       267  21  6.019082E+05  2.469301E+06  6.094767E+05  9.887936E+05 -9.700727E+04  9.925401E+03
       267  22  1.647911E+04  1.646362E+05  2.970366E+04  9.673718E+05  4.551164E+04  1.410249E+04
       267  23  7.123777E+03  1.663525E+05  4.444272E+04  5.272461E+05 -2.629325E+04  3.715887E+04
       267  24  3.532218E+04  1.640820E+05  7.956867E+04  9.672032E+05 -9.658121E+04  6.013017E+04
       267  25  2.772410E+05  1.224949E+06  2.733250E+05  9.780258E+05  4.600528E+04  6.654903E+04
       267  26 -1.457923E+05 -4.548839E+05 -9.841505E+04  5.217657E+05 -2.583941E+04  8.842053E+04
       267  27 -5.316323E+05 -2.136227E+06 -4.506812E+05  9.456790E+05 -9.615774E+04  1.101503E+05
       268   1  9.590703E+05  4.109067E+06  9.978984E+05  9.466963E+05  1.694985E+05  3.248971E+04
       268   2  1.354186E+06  5.734640E+06  1.449981E+06  5.884826E+05  2.204239E+05 -1.940003E+05
       268   3  2.103665E+06  7.488354E+06  2.138186E+06  1.104071E+06  7.682319E+04 -4.203360E+05
       268   4 -2.882025E+03  1.852155E+05  9.894500E+04  9.663664E+05  1.686857E+05 -7.570773E+04
       268   5 -2.152979E+04  1.316478E+05  1.579603E+05  5.287169E+05  2.207573E+05 -1.604189E+05
       268   6  2.915180E+05  1.802522E+05  3.562246E+05  9.651376E+05  7.757838E+04 -2.443407E+05
       268   7 -9.658943E+05 -3.724411E+06 -8.009760E+05  9.858729E+05  1.678631E+05 -1.832292E+05
       268   8 -1.399430E+06 -5.442484E+06 -1.136143E+06  4.694402E+05  2.210861E+05 -1.271311E+05
       268   9 -1.524479E+06 -7.079428E+06 -1.429499E+06  8.277508E+05  7.826157E+04 -7.038018E+04
       268  10  9.590392E+05  4.109059E+06  9.978425E+05  9.466919E+05 -6.496123E-10 -8.108279E-09
       268  11  1.354124E+06  5.734587E+06  1.449819E+06  5.885169E+05  6.534058E-10 -4.949869E-10
       268  12  2.103612E+06  7.488165E+06  2.137847E+06  1.104097E+06  8.585104E-10 -2.701408E-09
       268  13 -2.914150E+03  1.852016E+05  9.888066E+04  9.663767E+05  4.740592E-09 -7.157338E-09
       268  14 -2.158907E+04  1.316071E+05  1.578202E+05  5.287455E+05 -1.946553E-09  7.742988E-12
       268  15  2.914954E+05  1.801864E+05  3.561010E+05  9.651529E+05  1.388025E-09 -2.822226E-09
       268  16 -9.659337E+05 -3.724455E+06 -8.010927E+05  9.858978E+05 -1.713416E-09  4.523107E-09
       268  17 -1.399487E+06 -5.442514E+06 -1.136266E+06  4.694630E+05  2.075934E-12 -1.409546E-09
       268  18 -1.524487E+06 -7.079435E+06 -1.429520E+06  8.277553E+05  1.708855E-09  1.536553E-09
       268  19  9.590703E+05  4.109067E+06  9.978984E+05  9.466963E+05 -1.694985E+05 -3.248971E+04
       268  20  1.354186E+06  5.734640E+06  1.449981E+06  5.884826E+05 -2.204239E+05  1.940003E+05
       268  21  2.103665E+06  7.488354E+06  2.138186E+06  1.104071E+06 -7.682319E+04  4.203360E+05
       268  22 -2.882025E+03  1.852155E+05  9.894500E+04  9.663664E+05 -1.686857E+05  7.570773E+04
       268  23 -2.152979E+04  1.316478E+05  1.579603E+05  5.287169E+05 -2.207573E+05  1.604189E+05
       268  24  2.915180E+05  1.802522E+05  3.562246E+05  9.651376E+05 -7.757838E+04  2.443407E+05
       268  25 -9.658943E+05 -3.724411E+06 -8.009760E+05  9.858729E+05 -1.678631E+05  1.832292E+05
       268  26 -1.399430E+06 -5.442484E+06 -1.136143E+06  4.694402E+05 -2.210861E+05  1.271311E+05
       268  27 -1.524479E+06 -7.079428E+06 -1.429499E+06  8.277508E+05 -7.826157E+04  7.038018E+04
       269   1  6.678233E+06  1.690027E+06  1.665417E+06  7.204140E+05  1.696424E+05 -7.605440E+04
       269   2  5.392067E+06  1.358201E+06  1.278485E+06  4.012453E+05  4.064168E+04 -2.211462E+05
       269   3  4.147891E+06  1.058487E+06  9.859872E+05  7.348545E+05 -8.811666E+04 -1.871631E+05
       269   4 -1.564169E+05 -4.797730E+03 -9.535299E+02  7.218010E+05 -5.904152E+02 -7.605175E+04
       269   5 -1.636461E+05 -5.613189E+03 -2.365801E+03  3.952166E+05  5.765617E+02 -2.213521E+05
       269   6 -1.527429E+05  3.380846E+03  9.619045E+02  7.217768E+05  1.722027E+03 -1.868627E+05
       269   7 -6.948697E+06 -1.703045E+06 -1.670614E+06  7.231533E+05 -1.689686E+05 -7.605079E+04
       269   8 -5.690968E+06 -1.371584E+06 -1.285263E+06  3.892213E+05 -3.913511E+04 -2.215585E+05
       269   9 -4.436300E+06 -1.053007E+06 -9.852493E+05  7.087626E+05  9.094663E+04 -1.865648E+05
       269  10  6.678200E+06  1.690013E+06  1.665353E+06  7.204243E+05 -2.885173E-10 -5.539842E-10
       269  11  5.392052E+06  1.358148E+06  1.278390E+06  4.012526E+05 -6.949294E-10 -4.392154E-09
       269  12  4.147873E+06  1.058448E+06  9.859069E+05  7.348413E+05  1.846991E-09 -6.010190E-09
       269  13 -1.564184E+05 -4.803941E+03 -9.643986E+02  7.218009E+05 -2.105828E-09 -3.454654E-09
       269  14 -1.636592E+05 -5.665800E+03 -2.457871E+03  3.952167E+05 -2.569776E-09 -7.379027E-10
       269  15 -1.527522E+05  3.343352E+03  8.962851E+02  7.217771E+05  1.215293E-09 -6.775419E-09
       269  16 -6.948730E+06 -1.703059E+06 -1.670679E+06  7.231429E+05 -3.962608E-09 -9.578608E-10
       269  17 -5.690983E+06 -1.371637E+06 -1.285358E+06  3.892143E+05 -3.593743E-09 -9.530030E-10
       269  18 -4.436318E+06 -1.053046E+06 -9.853304E+05  7.087763E+05 -2.130531E-10 -5.324446E-09
       269  19  6.678233E+06  1.690027E+06  1.665417E+06  7.204140E+05 -1.696424E+05  7.605440E+04
       269  20  5.392067E+06  1.358201E+06  1.278485E+06  4.012453E+05 -4.064168E+04  2.211462E+05
       269  21  4.147891E+06  1.058487E+06  9.859872E+05  7.348545E+05  8.811666E+04  1.871631E+05
       269  22 -1.564169E+05 -4.797730E+03 -9.535299E+02  7.218010E+05  5.904152E+02  7.605175E+04
       269  23 -1.636461E+05 -5.613189E+03 -2.365801E+03  3.952166E+05 -5.765617E+02  2.213521E+05
       269  24 -1.527429E+05  3.380846E+03  9.619045E+02  7.217768E+05 -1.722027E+03  1.868627E+05
       269  25 -6.948697E+06 -1.703045E+06 -1.670614E+06  7.231533E+05  1.689686E+05  7.605079E+04
       269  26 -5.690968E+06 -1.371584E+06 -1.285263E+06  3.892213E+05  3.913511E+04  2.215585E+05
       269  27 -4.436300E+06 -1.053007E+06 -9.852493E+05  7.087626E+05 -9.094663E+04  1.865648E+05
       270   1  2.931336E+06  7.623510E+05  7.098401E+05  7.341910E+05 -3.325134E+04 -1.296911E+05
       270   2  1.670618E+06  4.518892E+05  4.194074E+05  4.004514E+05 -3.967712E+04 -7.790366E+04
       270   3  4.078701E+05  1.477921E+05  1.332158E+05  7.266709E+05 -4.629510E+04 -1.767203E+04
       270   4 -1.556011E+05  4.003272E+03  1.083796E+02  7.233221E+05  1.124886E+03 -1.295552E+05
       270   5 -1.527110E+05  3.718422E+03  3.986737E+02  3.932755E+05  7.656211E+02 -7.768673E+04
       270   6 -1.543857E+05  8.848021E+03  8.033081E+02  7.233039E+05  2.013955E+02 -1.735729E+04
       270   7 -3.233742E+06 -7.550086E+05 -7.102495E+05  7.124914E+05  3.533215E+04 -1.294201E+05
       270   8 -1.972965E+06 -4.446834E+05 -4.188236E+05  3.861155E+05  4.109078E+04 -7.747039E+04
       270   9 -7.163461E+05 -1.301175E+05 -1.316228E+05  7.199393E+05  4.665604E+04 -1.704289E+04
       270  10  2.931330E+06  7.623326E+05  7.098065E+05  7.341875E+05 -1.483599E-09  8.251192E-10
       270  11  1.670615E+06  4.518823E+05  4.193930E+05  4.004489E+05 -4.827344E-09  3.575557E-09
       270  12  4.078677E+05  1.477912E+05  1.332112E+05  7.266702E+05 -5.086035E-10  7.232330E-09
       270  13 -1.556056E+05  3.985249E+03  7.683748E+01  7.233223E+05  5.333452E-09 -1.559334E-09
       270  14 -1.527126E+05  3.711942E+03  3.873319E+02  3.932755E+05 -3.774827E-10  5.068355E-09
       270  15 -1.543858E+05  8.847698E+03  8.027419E+02  7.233039E+05 -1.029212E-09  6.467536E-09
       270  16 -3.233748E+06 -7.550269E+05 -7.102833E+05  7.124951E+05  1.107819E-09  2.153764E-09
       270  17 -1.972968E+06 -4.446903E+05 -4.188381E+05  3.861181E+05  3.854866E-09 -1.188270E-08
       270  18 -7.163485E+05 -1.301184E+05 -1.316275E+05  7.199399E+05  4.823970E-09 -7.254572E-10
       270  19  2.931336E+06  7.623510E+05  7.098401E+05  7.341910E+05  3.325134E+04  1.296911E+05
       270  20  1.670618E+06  4.518892E+05  4.194074E+05  4.004514E+05  3.967712E+04  7.790366E+04
       270  21  4.078701E+05  1.477921E+05  1.332158E+05  7.266709E+05  4.629510E+04  1.767203E+04
       270  22 -1.556011E+05  4.003272E+03  1.083796E+02  7.233221E+05 -1.124886E+03  1.295552E+05
       270  23 -1.527110E+05  3.718422E+03  3.986737E+02  3.932755E+05 -7.656211E+02  7.768673E+04
       270  24 -1.543857E+05  8.848021E+03  8.033081E+02  7.233039E+05 -2.013955E+02  1.735729E+04
       270  25 -3.233742E+06 -7.550086E+05 -7.102495E+05  7.124914E+05 -3.533215E+04  1.294201E+05
       270  26 -1.972965E+06 -4.446834E+05 -4.188236E+05  3.861155E+05 -4.109078E+04  7.747039E+04
       270  27 -7.163461E+05 -1.301175E+05 -1.316228E+05  7.199393E+05 -4.665604E+04  1.704289E+04
       271   1 -7.996219E+05 -1.506316E+05 -1.507622E+05  7.195451E+05 -4.679897E+04  2.063426E+04
       271   2 -2.056279E+06 -4.653017E+05 -4.379511E+05  3.858513E+05 -4.118092E+04  8.105411E+04
       271   3 -3.316835E+06 -7.757195E+05 -7.293411E+05  7.123662E+05 -3.536197E+04  1.328901E+05
       271   4 -1.543538E+05  8.845714E+03  8.264257E+02  7.233047E+05 -3.165773E+02  2.094796E+04
       271   5 -1.528342E+05  3.613818E+03  4.403926E+02  3.932746E+05 -9.038868E+02  8.126686E+04
       271   6 -1.556245E+05  3.816580E+03  2.407577E+02  7.233235E+05 -1.278522E+03  1.330194E+05
       271   7  4.913026E+05  1.682946E+05  1.523946E+05  7.270674E+05  4.621389E+04  2.126204E+04
       271   8  1.753973E+06  4.722766E+05  4.385977E+05  4.007152E+05  3.949597E+04  8.148022E+04
       271   9  3.014863E+06  7.826520E+05  7.291619E+05  7.343203E+05  3.297784E+04  1.331495E+05
       271  10 -7.996243E+05 -1.506327E+05 -1.507671E+05  7.195458E+05 -3.748750E-09  1.360369E-08
       271  11 -2.056282E+06 -4.653092E+05 -4.379667E+05  3.858540E+05  6.559141E-10  5.124331E-09
       271  12 -3.316841E+06 -7.757388E+05 -7.293767E+05  7.123700E+05  7.415529E-09  8.955128E-09
       271  13 -1.543539E+05  8.845243E+03  8.256010E+02  7.233047E+05  5.048632E-09  8.567780E-09
       271  14 -1.528360E+05  3.606727E+03  4.279810E+02  3.932747E+05  1.639015E-10  6.879773E-09
       271  15 -1.556293E+05  3.797580E+03  2.075055E+02  7.233236E+05  5.100929E-10  2.559228E-10
       271  16  4.913002E+05  1.682935E+05  1.523897E+05  7.270666E+05  2.752171E-09  3.719019E-09
       271  17  1.753970E+06  4.722690E+05  4.385823E+05  4.007126E+05 -3.673383E-09  2.510450E-10
       271  18  3.014857E+06  7.826327E+05  7.291266E+05  7.343167E+05 -8.155722E-09 -1.021068E-08
       271  19 -7.996219E+05 -1.506316E+05 -1.507622E+05  7.195451E+05  4.679897E+04 -2.063426E+04
       271  20 -2.056279E+06 -4.653017E+05 -4.379511E+05  3.858513E+05  4.118092E+04 -8.105411E+04
       271  21 -3.316835E+06 -7.757195E+05 -7.293411E+05  7.123662E+05  3.536197E+04 -1.328901E+05
       271  22 -1.543538E+05  8.845714E+03  8.264257E+02  7.233047E+05  3.165773E+02 -2.094796E+04
       271  23 -1.528342E+05  3.613818E+03  4.403926E+02  3.932746E+05  9.038868E+02 -8.126686E+04
       271  24 -1.556245E+05  3.816580E+03  2.407577E+02  7.233235E+05  1.278522E+03 -1.330194E+05
       271  25  4.913026E+05  1.682946E+05  1.523946E+05  7.270674E+05 -4.621389E+04 -2.126204E+04
       271  26  1.753973E+06  4.722766E+05  4.385977E+05  4.007152E+05 -3.949597E+04 -8.148022E+04
       271  27  3.014863E+06  7.826520E+05  7.291619E+05  7.343203E+05 -3.297784E+04 -1.331495E+05
       272   1 -4.519207E+06 -1.073791E+06 -1.004177E+06  7.088912E+05 -9.161839E+04  1.902745E+05
       272   2 -5.774133E+06 -1.392449E+06 -1.304260E+06  3.896823E+05  3.977420E+04  2.249463E+05
       272   3 -7.031484E+06 -1.723555E+06 -1.690286E+06  7.237399E+05  1.708887E+05  7.707967E+04
       272   4 -1.526658E+05  3.105560E+03  1.156441E+03  7.217304E+05 -1.901520E+03  1.905619E+05
       272   5 -1.640607E+05 -5.965307E+03 -2.121169E+03  3.952760E+05 -8.831965E+02  2.247396E+05
       272   6 -1.563947E+05 -4.528079E+03 -2.447143E+02  7.217546E+05  1.258161E+02  7.710930E+04
       272   7  4.231622E+06  1.078670E+06  1.005256E+06  7.346328E+05  8.844485E+04  1.908518E+05
       272   8  5.475261E+06  1.378297E+06  1.297910E+06  4.009006E+05 -4.190790E+04  2.245334E+05
       272   9  6.762107E+06  1.710992E+06  1.686427E+06  7.197287E+05 -1.725411E+05  7.714084E+04
       272  10 -4.519226E+06 -1.073832E+06 -1.004261E+06  7.089053E+05 -5.482337E-09  6.682690E-09
       272  11 -5.774148E+06 -1.392504E+06 -1.304358E+06  3.896751E+05  4.312159E-09  1.446915E-11
       272  12 -7.031517E+06 -1.723569E+06 -1.690353E+06  7.237292E+05  5.663010E-09  1.462110E-09
       272  13 -1.526755E+05  3.066566E+03  1.088196E+03  7.217307E+05  3.588310E-09  1.023917E-08
       272  14 -1.640743E+05 -6.019540E+03 -2.216079E+03  3.952761E+05  9.007868E-10  5.822054E-10
       272  15 -1.563963E+05 -4.534463E+03 -2.558870E+02  7.217546E+05 -2.031423E-09  9.753425E-11
       272  16  4.231604E+06  1.078629E+06  1.005173E+06  7.346193E+05  3.124962E-09  3.485601E-09
       272  17  5.475246E+06  1.378242E+06  1.297812E+06  4.009082E+05 -2.825011E-09  7.039882E-09
       272  18  6.762074E+06  1.710978E+06  1.686360E+06  7.197393E+05 -8.050399E-09  4.762545E-09
       272  19 -4.519207E+06 -1.073791E+06 -1.004177E+06  7.088912E+05  9.161839E+04 -1.902745E+05
       272  20 -5.774133E+06 -1.392449E+06 -1.304260E+06  3.896823E+05 -3.977420E+04 -2.249463E+05
       272  21 -7.031484E+06 -1.723555E+06 -1.690286E+06  7.237399E+05 -1.708887E+05 -7.707967E+04
       272  22 -1.526658E+05  3.105560E+03  1.156441E+03  7.217304E+05  1.901520E+03 -1.905619E+05
       272  23 -1.640607E+05 -5.965307E+03 -2.121169E+03  3.952760E+05  8.831965E+02 -2.247396E+05
       272  24 -1.563947E+05 -4.528079E+03 -2.447143E+02  7.217546E+05 -1.258161E+02 -7.710930E+04
       272  25  4.231622E+06  1.078670E+06  1.005256E+06  7.346328E+05 -8.844485E+04 -1.908518E+05
       272  26  5.475261E+06  1.378297E+06  1.297910E+06  4.009006E+05  4.190790E+04 -2.245334E+05
       272  27  6.762107E+06  1.710992E+06  1.686427E+06  7.197287E+05  1.725411E+05 -7.714084E+04
       273   1 -1.556973E+06 -6.383020E+06 -1.534063E+06  1.014753E+06 -6.581856E+04 -1.346605E+05
       273   2 -1.106264E+06 -4.562943E+06 -1.029734E+06  5.481246E+05 -1.768712E+05 -1.548420E+04
       273   3 -6.446917E+05 -2.752979E+06 -6.010570E+05  1.028480E+06 -1.135017E+05  1.031349E+05
       273   4  1.956260E+04 -7.784924E+04  1.783944E+04  1.043215E+06 -6.508942E+04  7.555890E+03
       273   5  1.210647E+03 -8.002956E+04  1.130195E+04  5.699507E+05 -1.766708E+05  2.176679E+03
       273   6  1.570722E+04 -7.353635E+04  1.632106E+04  1.043238E+06 -1.143923E+05 -4.109745E+03
       273   7  1.593146E+06  6.263786E+06  1.566886E+06  1.071897E+06 -6.435191E+04  1.512253E+05
       273   8  1.107267E+06  4.421532E+06  1.050988E+06  5.918992E+05 -1.764700E+05  1.996486E+04
       273   9  6.756096E+05  2.612592E+06  6.332661E+05  1.058040E+06 -1.152859E+05 -1.118151E+05
       273  10 -1.556983E+06 -6.383041E+06 -1.534106E+06  1.014746E+06  6.019243E-10 -3.693953E-09
       273  11 -1.106298E+06 -4.562952E+06 -1.029793E+06  5.481224E+05  5.380514E-09 -3.532056E-09
       273  12 -6.447084E+05 -2.752994E+06 -6.011014E+05  1.028490E+06  1.661043E-09  7.324943E-09
       273  13  1.955804E+04 -7.785044E+04  1.783136E+04  1.043216E+06 -2.025776E-09  7.866603E-09
       273  14  1.177130E+03 -8.003795E+04  1.124328E+04  5.699511E+05  7.826343E-09  4.999285E-10
       273  15  1.569317E+04 -7.353988E+04  1.629644E+04  1.043237E+06 -1.505763E-09  1.671868E-09
       273  16  1.593135E+06  6.263761E+06  1.566835E+06  1.071905E+06  6.110978E-10  3.418948E-10
       273  17  1.107234E+06  4.421523E+06  1.050928E+06  5.919021E+05  1.732773E-09 -1.729388E-08
       273  18  6.755920E+05  2.612575E+06  6.332178E+05  1.058029E+06 -2.491890E-09 -9.849672E-09
       273  19 -1.556973E+06 -6.383020E+06 -1.534063E+06  1.014753E+06  6.581856E+04  1.346605E+05
       273  20 -1.106264E+06 -4.562943E+06 -1.029734E+06  5.481246E+05  1.768712E+05  1.548420E+04
       273  21 -6.446917E+05 -2.752979E+06 -6.010570E+05  1.028480E+06  1.135017E+05 -1.031349E+05
       273  22  1.956260E+04 -7.784924E+04  1.783944E+04  1.043215E+06  6.508942E+04 -7.555890E+03
       273  23  1.210647E+03 -8.002956E+04  1.130195E+04  5.699507E+05  1.766708E+05 -2.176679E+03
       273  24  1.570722E+04 -7.353635E+04  1.632106E+04  1.043238E+06  1.143923E+05  4.109745E+03
       273  25  1.593146E+06  6.263786E+06  1.566886E+06  1.071897E+06  6.435191E+04 -1.512253E+05
       273  26  1.107267E+06  4.421532E+06  1.050988E+06  5.918992E+05  1.764700E+05 -1.996486E+04
       273  27  6.756096E+05  2.612592E+06  6.332661E+05  1.058040E+06  1.152859E+05  1.118151E+05
       274   1 -2.141220E+05 -1.012866E+06 -1.972682E+05  1.036958E+06 -3.997060E+04  4.894442E+04
       274   2  2.246508E+05  8.091183E+05  2.294557E+05  5.742900E+05  3.803158E+04  3.328961E+04
       274   3  6.899660E+05  2.627015E+06  6.688960E+05  1.063896E+06  1.139144E+05  1.771936E+04
       274   4  1.666271E+04 -7.555554E+04  1.827733E+04  1.044523E+06 -4.048311E+04 -8.057830E+03
       274   5  7.874181E+03 -7.228700E+04  2.689169E+04  5.683202E+05  3.757374E+04 -2.224127E+04
       274   6  2.561021E+04 -7.640235E+04  4.739554E+04  1.044444E+06  1.134991E+05 -3.629653E+04
       274   7  2.473879E+05  8.625762E+05  2.337769E+05  1.052098E+06 -4.099656E+04 -6.514555E+04
       274   8 -2.089550E+05 -9.529671E+05 -1.757121E+05  5.623571E+05  3.711660E+04 -7.769400E+04
       274   9 -6.392534E+05 -2.773067E+06 -5.745775E+05  1.025058E+06  1.130861E+05 -9.007957E+04
       274  10 -2.141244E+05 -1.012869E+06 -1.972757E+05  1.036960E+06  7.378043E-10 -1.058569E-08
       274  11  2.246490E+05  8.091167E+05  2.294510E+05  5.742890E+05 -3.977362E-09 -1.555973E-08
       274  12  6.899520E+05  2.627011E+06  6.688711E+05  1.063894E+06  4.066371E-09  2.670796E-09
       274  13  1.666094E+04 -7.555604E+04  1.827413E+04  1.044523E+06 -1.257166E-09  1.585304E-08
       274  14  7.872531E+03 -7.228791E+04  2.688811E+04  5.683209E+05  7.734970E-09  2.089598E-09
       274  15  2.559602E+04 -7.640723E+04  4.736883E+04  1.044447E+06 -4.861991E-09  8.337493E-10
       274  16  2.473849E+05  8.625712E+05  2.337658E+05  1.052096E+06 -2.338315E-09  2.351571E-09
       274  17 -2.089581E+05 -9.529740E+05 -1.757261E+05  5.623595E+05  3.831667E-09 -1.601218E-08
       274  18 -6.392694E+05 -2.773079E+06 -5.746169E+05  1.025066E+06  2.097132E-10 -4.569370E-09
       274  19 -2.141220E+05 -1.012866E+06 -1.972682E+05  1.036958E+06  3.997060E+04 -4.894442E+04
       274  20  2.246508E+05  8.091183E+05  2.294557E+05  5.742900E+05 -3.803158E+04 -3.328961E+04
       274  21  6.899660E+05  2.627015E+06  6.688960E+05  1.063896E+06 -1.139144E+05 -1.771936E+04
       274  22  1.666271E+04 -7.555554E+04  1.827733E+04  1.044523E+06  4.048311E+04  8.057830E+03
       274  23  7.874181E+03 -7.228700E+04  2.689169E+04  5.683202E+05 -3.757374E+04  2.224127E+04
       274  24  2.561021E+04 -7.640235E+04  4.739554E+04  1.044444E+06 -1.134991E+05  3.629653E+04
       274  25  2.473879E+05  8.625762E+05  2.337769E+05  1.052098E+06  4.099656E+04  6.514555E+04
       274  26 -2.089550E+05 -9.529671E+05 -1.757121E+05  5.623571E+05 -3.711660E+04  7.769400E+04
       274  27 -6.392534E+05 -2.773067E+06 -5.745775E+05  1.025058E+06 -1.130861E+05  9.007957E+04
       275   1  1.095047E+06  4.393134E+06  1.080052E+06  1.041276E+06  1.929103E+05  7.238086E+04
       275   2  1.523061E+06  6.169753E+06  1.537595E+06  6.117295E+05  2.475422E+05 -1.339701E+05
       275   3  2.180837E+06  8.047871E+06  2.188364E+06  1.126641E+06  8.666021E+04 -3.403452E+05
       275   4  2.514568E+03 -6.179346E+04  5.947602E+04  1.043024E+06  1.921276E+05 -4.606492E+04
       275   5 -1.593200E+04 -1.008462E+05  9.199336E+04  5.703244E+05  2.478885E+05 -9.552355E+04
       275   6  1.696209E+05 -6.777375E+04  2.101613E+05  1.042546E+06  8.719544E+04 -1.443857E+05
       275   7 -1.091389E+06 -4.498391E+06 -9.623528E+05  1.044711E+06  1.913411E+05 -1.636714E+05
       275   8 -1.557668E+06 -6.335309E+06 -1.356217E+06  5.292827E+05  2.482321E+05 -5.745574E+04
       275   9 -1.846397E+06 -8.123753E+06 -1.772685E+06  9.594622E+05  8.768351E+04  4.905264E+04
       275  10  1.095006E+06  4.393119E+06  1.079973E+06  1.041265E+06  3.207417E-09 -4.294127E-09
       275  11  1.522991E+06  6.169718E+06  1.537447E+06  6.117561E+05  3.354259E-10 -6.382889E-09
       275  12  2.180798E+06  8.047745E+06  2.188135E+06  1.126665E+06  7.312058E-10  3.756290E-10
       275  13  2.474340E+03 -6.180568E+04  5.940260E+04  1.043031E+06  4.837854E-09  1.185043E-08
       275  14 -1.600046E+04 -1.008725E+05  9.186064E+04  5.703435E+05  2.795706E-09  1.072703E-09
       275  15  1.696071E+05 -6.779821E+04  2.101078E+05  1.042556E+06  1.295229E-10 -3.323220E-10
       275  16 -1.091436E+06 -4.498430E+06 -9.624725E+05  1.044736E+06 -2.699833E-09 -1.618970E-09
       275  17 -1.557736E+06 -6.335329E+06 -1.356339E+06  5.292943E+05 -1.635081E-09 -9.395696E-09
       275  18 -1.846406E+06 -8.123757E+06 -1.772704E+06  9.594588E+05 -5.590274E-11  2.095163E-10
       275  19  1.095047E+06  4.393134E+06  1.080052E+06  1.041276E+06 -1.929103E+05 -7.238086E+04
       275  20  1.523061E+06  6.169753E+06  1.537595E+06  6.117295E+05 -2.475422E+05  1.339701E+05
       275  21  2.180837E+06  8.047871E+06  2.188364E+06  1.126641E+06 -8.666021E+04  3.403452E+05
       275  22  2.514568E+03 -6.179346E+04  5.947602E+04  1.043024E+06 -1.921276E+05  4.606492E+04
       275  23 -1.593200E+04 -1.008462E+05  9.199336E+04  5.703244E+05 -2.478885E+05  9.552355E+04
       275  24  1.696209E+05 -6.777375E+04  2.101613E+05  1.042546E+06 -8.719544E+04  1.443857E+05
       275  25 -1.091389E+06 -4.498391E+06 -9.623528E+05  1.044711E+06 -1.913411E+05  1.636714E+05
       275  26 -1.557668E+06 -6.335309E+06 -1.356217E+06  5.292827E+05 -2.482321E+05  5.745574E+04
       275  27 -1.846397E+06 -8.123753E+06 -1.772685E+06  9.594622E+05 -8.768351E+04 -4.905264E+04
       276   1  4.166003E+06  1.065685E+06  1.053259E+06  4.724535E+05  1.146574E+05 -4.721801E+04
       276   2  3.328004E+06  8.377899E+05  7.957056E+05  2.592915E+05  3.026071E+04 -1.362790E+05
       276   3  2.516048E+06  6.393641E+05  6.015157E+05  4.726266E+05 -5.391642E+04 -1.131271E+05
       276   4 -8.981281E+04  8.776956E+03  1.397817E+04  4.715155E+05  9.531745E+03 -4.710975E+04
       276   5 -9.478156E+04 -3.456977E+03  5.565379E+03  2.581895E+05  6.430135E+03 -1.363316E+05
       276   6 -8.833403E+04 -1.739618E+02  4.361821E+03  4.715027E+05  3.434767E+03 -1.130657E+05
       276   7 -4.329165E+06 -1.049461E+06 -1.026582E+06  4.705830E+05 -9.487873E+04 -4.700104E+04
       276   8 -3.506771E+06 -8.455240E+05 -7.853533E+05  2.570915E+05 -1.727066E+04 -1.363844E+05
       276   9 -2.686444E+06 -6.401824E+05 -5.932264E+05  4.703788E+05  6.054806E+04 -1.130044E+05
       276  10  4.165989E+06  1.065679E+06  1.053230E+06  4.724579E+05  4.063397E-09  3.846129E-09
       276  11  3.327998E+06  8.377697E+05  7.956690E+05  2.592948E+05 -2.705868E-10  2.946500E-09
       276  12  2.516042E+06  6.393496E+05  6.014862E+05  4.726217E+05 -7.735316E-09 -1.812231E-09
       276  13 -8.981350E+04  8.774548E+03  1.397383E+04  4.715158E+05 -1.154709E-11  2.424743E-09
       276  14 -9.478660E+04 -3.476947E+03  5.530373E+03  2.581902E+05  1.068732E-09  3.436365E-09
       276  15 -8.833747E+04 -1.876924E+02  4.337775E+03  4.715030E+05  1.761524E-09 -1.543770E-09
       276  16 -4.329176E+06 -1.049466E+06 -1.026603E+06  4.705794E+05 -4.258936E-09 -1.162704E-09
       276  17 -3.506776E+06 -8.455441E+05 -7.853888E+05  2.570896E+05 -2.173627E-09 -1.110105E-09
       276  18 -2.686452E+06 -6.401971E+05 -5.932573E+05  4.703843E+05  5.885793E-09 -1.707930E-09
       276  19  4.166003E+06  1.065685E+06  1.053259E+06  4.724535E+05 -1.146574E+05  4.721801E+04
       276  20  3.328004E+06  8.377899E+05  7.957056E+05  2.592915E+05 -3.026071E+04  1.362790E+05
       276  21  2.516048E+06  6.393641E+05  6.015157E+05  4.726266E+05  5.391642E+04  1.131271E+05
       276  22 -8.981281E+04  8.776956E+03  1.397817E+04  4.715155E+05 -9.531745E+03  4.710975E+04
       276  23 -9.478156E+04 -3.456977E+03  5.565379E+03  2.581895E+05 -6.430135E+03  1.363316E+05
       276  24 -8.833403E+04 -1.739618E+02  4.361821E+03  4.715027E+05 -3.434767E+03  1.130657E+05
       276  25 -4.329165E+06 -1.049461E+06 -1.026582E+06  4.705830E+05  9.487873E+04  4.700104E+04
       276  26 -3.506771E+06 -8.455240E+05 -7.853533E+05  2.570915E+05  1.727066E+04  1.363844E+05
       276  27 -2.686444E+06 -6.401824E+05 -5.932264E+05  4.703788E+05 -6.054806E+04  1.130044E+05
       277   1  1.723134E+06  4.473164E+05  4.204591E+05  4.751902E+05 -2.006249E+04 -7.625946E+04
       277   2  8.997548E+05  2.441978E+05  2.295528E+05  2.586602E+05 -2.491679E+04 -4.215882E+04
       277   3  7.698932E+04  4.381823E+04  4.209634E+04  4.728991E+05 -2.983230E+04 -2.796158E+03
       277   4 -9.016918E+04  1.580068E+03  3.308790E+03  4.724314E+05  2.639853E+03 -7.622515E+04
       277   5 -8.961281E+04  9.215436E+02  2.065951E+03  2.570257E+05  1.569017E+03 -4.209900E+04
       277   6 -8.973921E+04  2.387872E+03  1.680960E+03  4.724308E+05  4.305945E+02 -2.704641E+03
       277   7 -1.900434E+06 -4.443856E+05 -4.140574E+05  4.696778E+05  2.527654E+04 -7.619099E+04
       277   8 -1.078074E+06 -2.424227E+05 -2.254830E+05  2.553931E+05  2.801300E+04 -4.203926E+04
       277   9 -2.564404E+05 -3.904403E+04 -3.873299E+04  4.719627E+05  3.068538E+04 -2.613155E+03
       277  10  1.723132E+06  4.473101E+05  4.204474E+05  4.751890E+05 -3.531701E-09 -4.143291E-09
       277  11  8.997536E+05  2.441958E+05  2.295483E+05  2.586593E+05 -5.177697E-09 -3.084378E-09
       277  12  7.698836E+04  4.381798E+04  4.209466E+04  4.728991E+05 -1.959755E-09  8.669639E-09
       277  13 -9.017075E+04  1.573827E+03  3.297858E+03  4.724315E+05 -3.666885E-09  4.910233E-09
       277  14 -8.961329E+04  9.196398E+02  2.062615E+03  2.570257E+05 -1.807048E-09 -1.290563E-08
       277  15 -8.973921E+04  2.387864E+03  1.680946E+03  4.724308E+05  3.882626E-10  1.012306E-08
       277  16 -1.900437E+06 -4.443921E+05 -4.140695E+05  4.696794E+05  1.158579E-09 -5.882423E-09
       277  17 -1.078075E+06 -2.424248E+05 -2.254878E+05  2.553940E+05  2.860989E-09 -2.516589E-09
       277  18 -2.564414E+05 -3.904429E+04 -3.873477E+04  4.719627E+05  1.836297E-09  4.461560E-09
       277  19  1.723134E+06  4.473164E+05  4.204591E+05  4.751902E+05  2.006249E+04  7.625946E+04
       277  20  8.997548E+05  2.441978E+05  2.295528E+05  2.586602E+05  2.491679E+04  4.215882E+04
       277  21  7.698932E+04  4.381823E+04  4.209634E+04  4.728991E+05  2.983230E+04  2.796158E+03
       277  22 -9.016918E+04  1.580068E+03  3.308790E+03  4.724314E+05 -2.639853E+03  7.622515E+04
       277  23 -8.961281E+04  9.215436E+02  2.065951E+03  2.570257E+05 -1.569017E+03  4.209900E+04
       277  24 -8.973921E+04  2.387872E+03  1.680960E+03  4.724308E+05 -4.305945E+02  2.704641E+03
       277  25 -1.900434E+06 -4.443856E+05 -4.140574E+05  4.696778E+05 -2.527654E+04  7.619099E+04
       277  26 -1.078074E+06 -2.424227E+05 -2.254830E+05  2.553931E+05 -2.801300E+04  4.203926E+04
       277  27 -2.564404E+05 -3.904403E+04 -3.873299E+04  4.719627E+05 -3.068538E+04  2.613155E+03
       278   1 -7.108712E+05 -1.508417E+05 -1.432948E+05  4.709472E+05 -3.039548E+04  2.220519E+04
       278   2 -1.532542E+06 -3.546230E+05 -3.306354E+05  2.549999E+05 -2.700734E+04  6.158743E+04
       278   3 -2.354293E+06 -5.575398E+05 -5.202211E+05  4.698785E+05 -2.352941E+04  9.511963E+04
       278   4 -8.966720E+04  2.448212E+03  1.628200E+03  4.724199E+05  1.580618E+01  2.229397E+04
       278   5 -8.999966E+04  5.885272E+02  1.453471E+03  2.570393E+05 -8.178155E+02  6.163477E+04
       278   6 -9.029484E+04  3.755417E+02  2.003640E+03  4.724225E+05 -1.557220E+03  9.513402E+04
       278   7  5.318950E+05  1.557113E+05  1.465285E+05  4.738937E+05  3.045734E+04  2.238285E+04
       278   8  1.354473E+06  3.556548E+05  3.334070E+05  2.590820E+05  2.543219E+04  6.168221E+04
       278   9  2.178457E+06  5.579318E+05  5.238894E+05  4.749720E+05  2.049471E+04  9.514856E+04
       278  10 -7.108723E+05 -1.508425E+05 -1.432975E+05  4.709477E+05  9.320744E-09 -8.412942E-10
       278  11 -1.532544E+06 -3.546273E+05 -3.306439E+05  2.550012E+05  5.279086E-09 -5.464663E-09
       278  12 -2.354296E+06 -5.575497E+05 -5.202392E+05  4.698804E+05 -7.292573E-10 -6.712588E-09
       278  13 -8.966733E+04  2.447678E+03  1.627266E+03  4.724199E+05 -1.025885E-09 -3.505864E-10
       278  14 -9.000068E+04  5.844479E+02  1.446332E+03  2.570393E+05 -7.594261E-10 -8.726692E-10
       278  15 -9.029727E+04  3.658226E+02  1.986628E+03  4.724226E+05  7.651567E-10 -2.487301E-09
       278  16  5.318938E+05  1.557105E+05  1.465258E+05  4.738931E+05 -8.496679E-09 -1.957596E-09
       278  17  1.354471E+06  3.556506E+05  3.333987E+05  2.590807E+05 -8.366977E-09  9.774886E-10
       278  18  2.178454E+06  5.579219E+05  5.238716E+05  4.749705E+05  2.379236E-09 -7.677597E-10
       278  19 -7.108712E+05 -1.508417E+05 -1.432948E+05  4.709472E+05  3.039548E+04 -2.220519E+04
       278  20 -1.532542E+06 -3.546230E+05 -3.306354E+05  2.549999E+05  2.700734E+04 -6.158743E+04
       278  21 -2.354293E+06 -5.575398E+05 -5.202211E+05  4.698785E+05  2.352941E+04 -9.511963E+04
       278  22 -8.966720E+04  2.448212E+03  1.628200E+03  4.724199E+05 -1.580618E+01 -2.229397E+04
       278  23 -8.999966E+04  5.885272E+02  1.453471E+03  2.570393E+05  8.178155E+02 -6.163477E+04
       278  24 -9.029484E+04  3.755417E+02  2.003640E+03  4.724225E+05  1.557220E+03 -9.513402E+04
       278  25  5.318950E+05  1.557113E+05  1.465285E+05  4.738937E+05 -3.045734E+04 -2.238285E+04
       278  26  1.354473E+06  3.556548E+05  3.334070E+05  2.590820E+05 -2.543219E+04 -6.168221E+04
       278  27  2.178457E+06  5.579318E+05  5.238894E+05  4.749720E+05 -2.049471E+04 -9.514856E+04
       279   1 -3.140144E+06 -7.526440E+05 -6.991111E+05  4.703228E+05 -6.194451E+04  1.332403E+05
       279   2 -3.960047E+06 -9.581681E+05 -8.933201E+05  2.600858E+05  2.538080E+04  1.548731E+05
       279   3 -4.782329E+06 -1.168965E+06 -1.143977E+06  4.761478E+05  1.123564E+05  5.265156E+04
       279   4 -8.855264E+04 -7.579346E+02  2.776843E+03  4.713931E+05 -2.112577E+03  1.332603E+05
       279   5 -9.564439E+04 -4.218020E+03  2.540330E+03  2.583278E+05 -3.479439E+03  1.548267E+05
       279   6 -9.022705E+04  2.562974E+03  7.689453E+03  4.714084E+05 -5.078051E+03  5.288071E+04
       279   7  2.971693E+06  7.504786E+05  7.040621E+05  4.724632E+05  5.801223E+04  1.332805E+05
       279   8  3.782613E+06  9.486798E+05  8.974026E+05  2.565584E+05 -3.251882E+04  1.547807E+05
       279   9  4.622053E+06  1.172462E+06  1.157791E+06  4.666366E+05 -1.234035E+05  5.311109E+04
       279  10 -3.140152E+06 -7.526641E+05 -6.991517E+05  4.703295E+05 -5.020687E-09 -3.855875E-09
       279  11 -3.960054E+06 -9.581940E+05 -8.933664E+05  2.600827E+05  4.417683E-09  2.389758E-09
       279  12 -4.782343E+06 -1.168971E+06 -1.144007E+06  4.761430E+05  5.997194E-09  7.871502E-10
       279  13 -8.855742E+04 -7.770047E+02  2.743464E+03  4.713933E+05  1.077636E-10 -5.273351E-10
       279  14 -9.565083E+04 -4.243764E+03  2.495261E+03  2.583282E+05  1.377858E-09  1.123603E-08
       279  15 -9.022783E+04  2.559964E+03  7.684149E+03  4.714086E+05  3.544448E-10  8.525508E-09
       279  16  2.971685E+06  7.504586E+05  7.040225E+05  4.724570E+05  6.096863E-09  2.623824E-09
       279  17  3.782606E+06  9.486538E+05  8.973556E+05  2.565624E+05 -2.584968E-09  1.047468E-08
       279  18  4.622036E+06  1.172454E+06  1.157757E+06  4.666418E+05 -7.646649E-09  2.970949E-09
       279  19 -3.140144E+06 -7.526440E+05 -6.991111E+05  4.703228E+05  6.194451E+04 -1.332403E+05
       279  20 -3.960047E+06 -9.581681E+05 -8.933201E+05  2.600858E+05 -2.538080E+04 -1.548731E+05
       279  21 -4.782329E+06 -1.168965E+06 -1.143977E+06  4.761478E+05 -1.123564E+05 -5.265156E+04
       279  22 -8.855264E+04 -7.579346E+02  2.776843E+03  4.713931E+05  2.112577E+03 -1.332603E+05
       279  23 -9.564439E+04 -4.218020E+03  2.540330E+03  2.583278E+05  3.479439E+03 -1.548267E+05
       279  24 -9.022705E+04  2.562974E+03  7.689453E+03  4.714084E+05  5.078051E+03 -5.288071E+04
       279  25  2.971693E+06  7.504786E+05  7.040621E+05  4.724632E+05 -5.801223E+04 -1.332805E+05
       279  26  3.782613E+06  9.486798E+05  8.974026E+05  2.565584E+05  3.251882E+04 -1.547807E+05
       279  27  4.622053E+06  1.172462E+06  1.157791E+06  4.666366E+05  1.234035E+05 -5.311109E+04
       280   1 -1.244216E+06 -5.147784E+06 -1.227091E+06  7.985271E+05 -5.261006E+04 -1.095727E+05
       280   2 -8.866016E+05 -3.716895E+06 -8.289851E+05  4.315083E+05 -1.419302E+05 -1.297346E+04
       280   3 -5.263416E+05 -2.297305E+06 -4.937678E+05  8.075528E+05 -9.255641E+04  8.318430E+04
       280   4  1.199923E+04 -1.198470E+05  9.457346E+03  8.184228E+05 -5.207186E+04  4.356965E+03
       280   5  1.367660E+03 -1.205783E+05  5.695582E+03  4.470305E+05 -1.417892E+05  1.768666E+03
       280   6  1.083885E+04 -1.171328E+05  8.386617E+03  8.184305E+05 -9.317106E+04 -1.484116E+03
       280   7  1.266339E+06  4.931253E+06  1.244192E+06  8.384407E+05 -5.152903E+04  1.192135E+05
       280   8  8.884248E+05  3.487730E+06  8.395082E+05  4.626227E+05 -1.416480E+05  1.659595E+04
       280   9  5.476905E+05  2.067464E+06  5.102528E+05  8.293359E+05 -9.378744E+04 -8.644835E+04
       280  10 -1.244222E+06 -5.147798E+06 -1.227119E+06  7.985224E+05 -1.794524E-09 -6.936634E-09
       280  11 -8.866233E+05 -3.716900E+06 -8.290233E+05  4.315068E+05 -1.184200E-09 -7.957827E-09
       280  12 -5.263527E+05 -2.297315E+06 -4.937970E+05  8.075590E+05 -2.079126E-09 -3.606725E-09
       280  13  1.199632E+04 -1.198477E+05  9.452214E+03  8.184230E+05 -3.031326E-09 -2.130302E-09
       280  14  1.346072E+03 -1.205837E+05  5.657798E+03  4.470307E+05  3.207279E-09  5.034527E-10
       280  15  1.082953E+04 -1.171351E+05  8.370302E+03  8.184304E+05 -5.912391E-10 -7.030002E-09
       280  16  1.266332E+06  4.931237E+06  1.244161E+06  8.384457E+05 -1.207349E-09  4.336864E-09
       280  17  8.884032E+05  3.487725E+06  8.394700E+05  4.626246E+05 -6.601862E-09  1.987756E-09
       280  18  5.476791E+05  2.067453E+06  5.102223E+05  8.293294E+05  6.847958E-09 -3.546047E-09
       280  19 -1.244216E+06 -5.147784E+06 -1.227091E+06  7.985271E+05  5.261006E+04  1.095727E+05
       280  20 -8.866016E+05 -3.716895E+06 -8.289851E+05  4.315083E+05  1.419302E+05  1.297346E+04
       280  21 -5.263416E+05 -2.297305E+06 -4.937678E+05  8.075528E+05  9.255641E+04 -8.318430E+04
       280  22  1.199923E+04 -1.198470E+05  9.457346E+03  8.184228E+05  5.207186E+04 -4.356965E+03
       280  23  1.367660E+03 -1.205783E+05  5.695582E+03  4.470305E+05  1.417892E+05 -1.768666E+03
       280  24  1.083885E+04 -1.171328E+05  8.386617E+03  8.184305E+05  9.317106E+04  1.484116E+03
       280  25  1.266339E+06  4.931253E+06  1.244192E+06  8.384407E+05  5.152903E+04 -1.192135E+05
       280  26  8.884248E+05  3.487730E+06  8.395082E+05  4.626227E+05  1.416480E+05 -1.659595E+04
       280  27  5.476905E+05  2.067464E+06  5.102528E+05  8.293359E+05  9.378744E+04  8.644835E+04
       281   1 -1.884938E+05 -9.308583E+05 -1.776546E+05  8.142656E+05 -3.459194E+04  4.096889E+04
       281   2  1.570287E+05  4.995791E+05  1.547065E+05  4.492867E+05  2.659266E+04  3.280238E+04
       281   3  5.181947E+05  1.925559E+06  4.934244E+05  8.317926E+05  8.630090E+04  2.468964E+04
       281   4  1.150044E+04 -1.185034E+05  9.199239E+03  8.194793E+05 -3.494095E+04 -3.641206E+03
       281   5  5.739197E+03 -1.154766E+05  1.332567E+04  4.457055E+05  2.627478E+04 -1.078361E+04
       281   6  1.558472E+04 -1.189673E+05  2.320940E+04  8.194466E+05  8.600672E+04 -1.785456E+04
       281   7  2.114497E+05  6.944671E+05  1.960169E+05  8.246984E+05 -3.529045E+04 -4.830928E+04
       281   8 -1.455757E+05 -7.301783E+05 -1.280730E+05  4.421271E+05  2.595724E+04 -5.432679E+04
       281   9 -4.873160E+05 -2.159629E+06 -4.472755E+05  8.071322E+05  8.571367E+04 -6.026001E+04
       281  10 -1.884955E+05 -9.308604E+05 -1.776600E+05  8.142667E+05 -2.517227E-09 -1.102906E-08
       281  11  1.570277E+05  4.995778E+05  1.547031E+05  4.492860E+05 -6.018880E-09 -1.688246E-08
       281  12  5.181866E+05  1.925556E+06  4.934093E+05  8.317909E+05  7.525514E-10 -7.590587E-09
       281  13  1.149912E+04 -1.185037E+05  9.196921E+03  8.194792E+05 -1.257474E-09 -2.011255E-11
       281  14  5.738424E+03 -1.154769E+05  1.332415E+04  4.457057E+05 -1.136066E-08 -1.003776E-09
       281  15  1.557669E+04 -1.189696E+05  2.319490E+04  8.194479E+05 -3.529145E-09 -4.869534E-09
       281  16  2.114477E+05  6.944643E+05  1.960102E+05  8.246970E+05  5.800392E-09  7.581238E-09
       281  17 -1.455772E+05 -7.301816E+05 -1.280798E+05  4.421282E+05 -2.748253E-09  1.040305E-08
       281  18 -4.873249E+05 -2.159635E+06 -4.472962E+05  8.071363E+05  3.840480E-09  1.656849E-09
       281  19 -1.884938E+05 -9.308583E+05 -1.776546E+05  8.142656E+05  3.459194E+04 -4.096889E+04
       281  20  1.570287E+05  4.995791E+05  1.547065E+05  4.492867E+05 -2.659266E+04 -3.280238E+04
       281  21  5.181947E+05  1.925559E+06  4.934244E+05  8.317926E+05 -8.630090E+04 -2.468964E+04
       281  22  1.150044E+04 -1.185034E+05  9.199239E+03  8.194793E+05  3.494095E+04  3.641206E+03
       281  23  5.739197E+03 -1.154766E+05  1.332567E+04  4.457055E+05 -2.627478E+04  1.078361E+04
       281  24  1.558472E+04 -1.189673E+05  2.320940E+04  8.194466E+05 -8.600672E+04  1.785456E+04
       281  25  2.114497E+05  6.944671E+05  1.960169E+05  8.246984E+05  3.529045E+04  4.830928E+04
       281  26 -1.455757E+05 -7.301783E+05 -1.280730E+05  4.421271E+05 -2.595724E+04  5.432679E+04
       281  27 -4.873160E+05 -2.159629E+06 -4.472755E+05  8.071322E+05 -8.571367E+04  6.026001E+04
       282   1  8.431876E+05  3.306691E+06  8.128544E+05  8.223521E+05  1.480986E+05  6.967529E+04
       282   2  1.181910E+06  4.710322E+06  1.161644E+06  4.729774E+05  1.913698E+05 -7.589805E+04
       282   3  1.643796E+06  6.172300E+06  1.636540E+06  8.648099E+05  6.707631E+04 -2.212943E+05
       282   4  4.233197E+03 -1.114030E+05  2.920614E+04  8.182249E+05  1.475365E+05 -2.282108E+04
       282   5 -7.314071E+03 -1.311034E+05  4.448618E+04  4.473419E+05  1.916006E+05 -4.682148E+04
       282   6  8.385584E+04 -1.150304E+05  1.021329E+05  8.179732E+05  6.752883E+04 -7.030332E+04
       282   7 -8.355294E+05 -3.518695E+06 -7.551793E+05  8.140960E+05  1.469738E+05 -1.148141E+05
       282   8 -1.198177E+06 -4.950958E+06 -1.074229E+06  4.218762E+05  1.918303E+05 -1.796757E+04
       282   9 -1.478979E+06 -6.366495E+06 -1.435068E+06  7.715628E+05  6.796191E+04  7.917626E+04
       282  10  8.431628E+05  3.306680E+06  8.128042E+05  8.223438E+05  4.798381E-10 -2.214611E-09
       282  11  1.181869E+06  4.710306E+06  1.161565E+06  4.729891E+05  2.594024E-10 -2.848533E-09
       282  12  1.643778E+06  6.172246E+06  1.636440E+06  8.648218E+05  1.123379E-10 -3.868167E-10
       282  13  4.209678E+03 -1.114094E+05  2.916424E+04  8.182276E+05  6.150524E-09  2.146827E-09
       282  14 -7.354087E+03 -1.311156E+05  4.441305E+04  4.473492E+05 -3.829878E-09 -1.041642E-09
       282  15  8.384961E+04 -1.150369E+05  1.021150E+05  8.179770E+05 -9.075927E-10 -1.608499E-09
       282  16 -8.355562E+05 -3.518715E+06 -7.552449E+05  8.141097E+05  2.401027E-09 -4.906250E-10
       282  17 -1.198217E+06 -4.950968E+06 -1.074299E+06  4.218790E+05 -7.592613E-09  5.077059E-09
       282  18 -1.478985E+06 -6.366503E+06 -1.435089E+06  7.715585E+05 -2.216446E-09 -1.762771E-09
       282  19  8.431876E+05  3.306691E+06  8.128544E+05  8.223521E+05 -1.480986E+05 -6.967529E+04
       282  20  1.181910E+06  4.710322E+06  1.161644E+06  4.729774E+05 -1.913698E+05  7.589805E+04
       282  21  1.643796E+06  6.172300E+06  1.636540E+06  8.648099E+05 -6.707631E+04  2.212943E+05
       282  22  4.233197E+03 -1.114030E+05  2.920614E+04  8.182249E+05 -1.475365E+05  2.282108E+04
       282  23 -7.314071E+03 -1.311034E+05  4.448618E+04  4.473419E+05 -1.916006E+05  4.682148E+04
       282  24  8.385584E+04 -1.150304E+05  1.021329E+05  8.179732E+05 -6.752883E+04  7.030332E+04
       282  25 -8.355294E+05 -3.518695E+06 -7.551793E+05  8.140960E+05 -1.469738E+05  1.148141E+05
       282  26 -1.198177E+06 -4.950958E+06 -1.074229E+06  4.218762E+05 -1.918303E+05  1.796757E+04
       282  27 -1.478979E+06 -6.366495E+06 -1.435068E+06  7.715628E+05 -6.796191E+04 -7.917626E+04
       283   1  2.038231E+06  5.295835E+05  5.265557E+05  2.491571E+05  6.381826E+04 -2.288930E+04
       283   2  1.599374E+06  4.005525E+05  3.872037E+05  1.344179E+05  1.921924E+04 -6.517571E+04
       283   3  1.175372E+06  2.953999E+05  2.832808E+05  2.431622E+05 -2.519826E+04 -5.235345E+04
       283   4 -3.444020E+04  1.420722E+04  1.966432E+04  2.470055E+05  1.329894E+04 -2.275045E+04
       283   5 -3.815764E+04 -2.334287E+03  8.740180E+03  1.352250E+05  8.507510E+03 -6.516343E+04
       283   6 -3.406980E+04 -1.852014E+03  5.684543E+03  2.469616E+05  3.865711E+03 -5.240362E+04
       283   7 -2.103199E+06 -5.014851E+05 -4.875314E+05  2.448630E+05 -3.705256E+04 -2.261104E+04
       283   8 -1.673215E+06 -4.054091E+05 -3.699018E+05  1.360311E+05 -2.176254E+03 -6.515116E+04
       283   9 -1.242157E+06 -2.992054E+05 -2.720051E+05  2.507538E+05  3.287360E+04 -5.245347E+04
       283  10  2.038226E+06  5.295818E+05  5.265471E+05  2.491583E+05 -1.579546E-09  9.280432E-11
       283  11  1.599373E+06  4.005479E+05  3.871950E+05  1.344189E+05  4.148345E-09  2.819691E-09
       283  12  1.175370E+06  2.953968E+05  2.832745E+05  2.431611E+05  6.514402E-09 -3.724916E-09
       283  13 -3.444053E+04  1.420662E+04  1.966301E+04  2.470057E+05 -2.891367E-09 -7.708991E-09
       283  14 -3.815886E+04 -2.338866E+03  8.732063E+03  1.352255E+05 -1.806698E-09  8.818599E-10
       283  15 -3.407056E+04 -1.854967E+03  5.679354E+03  2.469617E+05 -1.097431E-09  3.298181E-09
       283  16 -2.103201E+06 -5.014861E+05 -4.875349E+05  2.448624E+05  2.363839E-09  2.146109E-10
       283  17 -1.673216E+06 -4.054137E+05 -3.699098E+05  1.360310E+05 -5.934516E-10  1.089239E-08
       283  18 -1.242159E+06 -2.992087E+05 -2.720123E+05  2.507551E+05 -5.991303E-09  3.580620E-09
       283  19  2.038231E+06  5.295835E+05  5.265557E+05  2.491571E+05 -6.381826E+04  2.288930E+04
       283  20  1.599374E+06  4.005525E+05  3.872037E+05  1.344179E+05 -1.921924E+04  6.517571E+04
       283  21  1.175372E+06  2.953999E+05  2.832808E+05  2.431622E+05  2.519826E+04  5.235345E+04
       283  22 -3.444020E+04  1.420722E+04  1.966432E+04  2.470055E+05 -1.329894E+04  2.275045E+04
       283  23 -3.815764E+04 -2.334287E+03  8.740180E+03  1.352250E+05 -8.507510E+03  6.516343E+04
       283  24 -3.406980E+04 -1.852014E+03  5.684543E+03  2.469616E+05 -3.865711E+03  5.240362E+04
       283  25 -2.103199E+06 -5.014851E+05 -4.875314E+05  2.448630E+05  3.705256E+04  2.261104E+04
       283  26 -1.673215E+06 -4.054091E+05 -3.699018E+05  1.360311E+05  2.176254E+03  6.515116E+04
       283  27 -1.242157E+06 -2.992054E+05 -2.720051E+05  2.507538E+05 -3.287360E+04  5.245347E+04
       284   1  7.605772E+05  1.960173E+05  1.878222E+05  2.469717E+05 -9.077692E+03 -3.353325E+04
       284   2  3.290868E+05  8.931838E+04  8.692732E+04  1.344074E+05 -1.237272E+04 -1.546078E+04
       284   3 -1.006348E+05 -1.644349E+04 -1.141251E+04  2.473244E+05 -1.567281E+04  5.174318E+03
       284   4 -3.531607E+04  2.763125E+02  4.660703E+03  2.474131E+05  3.015800E+03 -3.355112E+04
       284   5 -3.591647E+04 -4.654890E+02  2.946777E+03  1.346676E+05  1.564853E+03 -1.547770E+04
       284   6 -3.523305E+04 -5.757680E+02  2.520063E+03  2.474119E+05  1.066034E+02  5.159699E+03
       284   7 -8.306233E+05 -1.955088E+05 -1.785422E+05  2.478541E+05  1.509392E+04 -3.356899E+04
       284   8 -4.007961E+05 -9.025857E+04 -8.104186E+04  1.349278E+05  1.549430E+04 -1.549460E+04
       284   9  3.017326E+04  1.529181E+04  1.645332E+04  2.474993E+05  1.588765E+04  5.145086E+03
       284  10  7.605768E+05  1.960161E+05  1.878199E+05  2.469715E+05  2.721844E-09 -4.785504E-09
       284  11  3.290866E+05  8.931808E+04  8.692659E+04  1.344072E+05  1.300700E-09  3.863484E-09
       284  12 -1.006351E+05 -1.644359E+04 -1.141302E+04  2.473245E+05 -1.006498E-09 -2.730281E-10
       284  13 -3.531638E+04  2.751013E+02  4.658571E+03  2.474132E+05 -1.987882E-09  5.996774E-10
       284  14 -3.591654E+04 -4.657469E+02  2.946322E+03  1.346677E+05  1.902043E-09  1.577607E-10
       284  15 -3.523306E+04 -5.757965E+02  2.520013E+03  2.474119E+05  1.385296E-11 -1.194120E-09
       284  16 -8.306239E+05 -1.955101E+05 -1.785447E+05  2.478545E+05 -2.300133E-09 -3.221187E-09
       284  17 -4.007964E+05 -9.025889E+04 -8.104277E+04  1.349280E+05 -1.712840E-09  3.982916E-09
       284  18  3.017298E+04  1.529171E+04  1.645280E+04  2.474993E+05 -6.757271E-10 -5.410925E-09
       284  19  7.605772E+05  1.960173E+05  1.878222E+05  2.469717E+05  9.077692E+03  3.353325E+04
       284  20  3.290868E+05  8.931838E+04  8.692732E+04  1.344074E+05  1.237272E+04  1.546078E+04
       284  21 -1.006348E+05 -1.644349E+04 -1.141251E+04  2.473244E+05  1.567281E+04 -5.174318E+03
       284  22 -3.531607E+04  2.763125E+02  4.660703E+03  2.474131E+05 -3.015800E+03  3.355112E+04
       284  23 -3.591647E+04 -4.654890E+02  2.946777E+03  1.346676E+05 -1.564853E+03  1.547770E+04
       284  24 -3.523305E+04 -5.757680E+02  2.520063E+03  2.474119E+05 -1.066034E+02 -5.159699E+03
       284  25 -8.306233E+05 -1.955088E+05 -1.785422E+05  2.478541E+05 -1.509392E+04  3.356899E+04
       284  26 -4.007961E+05 -9.025857E+04 -8.104186E+04  1.349278E+05 -1.549430E+04  1.549460E+04
       284  27  3.017326E+04  1.529181E+04  1.645332E+04  2.474993E+05 -1.588765E+04 -5.145086E+03
       285   1 -5.128936E+05 -1.183490E+05 -1.083400E+05  2.479582E+05 -1.631724E+04  1.826005E+04
       285   2 -9.439373E+05 -2.241333E+05 -2.057815E+05  1.356881E+05 -1.550908E+04  3.884153E+04
       285   3 -1.373351E+06 -3.296225E+05 -3.033854E+05  2.488907E+05 -1.467926E+04  5.617196E+04
       285   4 -3.515913E+04 -5.855333E+02  2.580726E+03  2.474036E+05 -3.427710E+02  1.824327E+04
       285   5 -3.619441E+04 -7.011112E+02  3.091406E+03  1.346780E+05 -1.878973E+03  3.881763E+04
       285   6 -3.536566E+04 -1.031363E+02  5.076110E+03  2.474050E+05 -3.392972E+03  5.614373E+04
       285   7  4.427868E+05  1.171620E+05  1.134870E+05  2.468486E+05  1.564391E+04  1.822646E+04
       285   8  8.723121E+05  2.226736E+05  2.119104E+05  1.336666E+05  1.177093E+04  3.879370E+04
       285   9  1.304278E+06  3.292909E+05  3.134191E+05  2.459164E+05  7.917493E+03  5.611547E+04
       285  10 -5.128940E+05 -1.183494E+05 -1.083411E+05  2.479584E+05 -6.096168E-09 -2.490693E-09
       285  11 -9.439380E+05 -2.241350E+05 -2.057848E+05  1.356886E+05 -2.414543E-09 -4.892261E-09
       285  12 -1.373352E+06 -3.296260E+05 -3.033917E+05  2.488914E+05  1.758362E-09 -2.381185E-09
       285  13 -3.515922E+04 -5.858907E+02  2.580100E+03  2.474036E+05 -3.984171E-09  1.430951E-09
       285  14 -3.619482E+04 -7.027302E+02  3.088567E+03  1.346781E+05  1.483078E-09 -4.666244E-09
       285  15 -3.536652E+04 -1.065243E+02  5.070165E+03  2.474051E+05 -8.618229E-10 -2.623131E-09
       285  16  4.427864E+05  1.171616E+05  1.134860E+05  2.468483E+05  5.320978E-09 -2.417993E-09
       285  17  8.723116E+05  2.226719E+05  2.119073E+05  1.336662E+05  4.275241E-10  6.801879E-09
       285  18  1.304277E+06  3.292875E+05  3.134131E+05  2.459160E+05 -7.534405E-10 -3.235696E-09
       285  19 -5.128936E+05 -1.183490E+05 -1.083400E+05  2.479582E+05  1.631724E+04 -1.826005E+04
       285  20 -9.439373E+05 -2.241333E+05 -2.057815E+05  1.356881E+05  1.550908E+04 -3.884153E+04
       285  21 -1.373351E+06 -3.296225E+05 -3.033854E+05  2.488907E+05  1.467926E+04 -5.617196E+04
       285  22 -3.515913E+04 -5.855333E+02  2.580726E+03  2.474036E+05  3.427710E+02 -1.824327E+04
       285  23 -3.619441E+04 -7.011112E+02  3.091406E+03  1.346780E+05  1.878973E+03 -3.881763E+04
       285  24 -3.536566E+04 -1.031363E+02  5.076110E+03  2.474050E+05  3.392972E+03 -5.614373E+04
       285  25  4.427868E+05  1.171620E+05  1.134870E+05  2.468486E+05 -1.564391E+04 -1.822646E+04
       285  26  8.723121E+05  2.226736E+05  2.119104E+05  1.336666E+05 -1.177093E+04 -3.879370E+04
       285  27  1.304278E+06  3.292909E+05  3.134191E+05  2.459164E+05 -7.917493E+03 -5.611547E+04
       286   1 -1.784573E+06 -4.334959E+05 -3.960079E+05  2.524419E+05 -3.658884E+04  7.661928E+04
       286   2 -2.215832E+06 -5.398950E+05 -4.944615E+05  1.383372E+05  7.485313E+03  8.724249E+04
       286   3 -2.645439E+06 -6.357171E+05 -6.180855E+05  2.473260E+05  5.126637E+04  2.941479E+04
       286   4 -3.386587E+04 -2.490872E+03  6.272491E+03  2.468503E+05 -4.317810E+03  7.653544E+04
       286   5 -3.912277E+04 -3.153953E+03  9.549363E+03  1.353611E+05 -9.390990E+03  8.727441E+04
       286   6 -3.435815E+04  1.529402E+04  2.184127E+04  2.469176E+05 -1.472541E+04  2.966959E+04
       286   7  1.719686E+06  4.283007E+05  4.083543E+05  2.412438E+05  2.804369E+04  7.645113E+04
       286   8  2.141976E+06  5.332539E+05  5.132442E+05  1.323776E+05 -2.632614E+04  8.730646E+04
       286   9  2.582959E+06  6.658017E+05  6.612848E+05  2.465124E+05 -8.099497E+04  2.992399E+04
       286  10 -1.784576E+06 -4.335026E+05 -3.960215E+05  2.524442E+05 -7.372792E-09  1.753845E-10
       286  11 -2.215834E+06 -5.399032E+05 -4.944759E+05  1.383366E+05 -8.951253E-10 -2.329320E-10
       286  12 -2.645442E+06 -6.357187E+05 -6.180921E+05  2.473247E+05 -3.559835E-09 -9.256621E-09
       286  13 -3.386747E+04 -2.497167E+03  6.261447E+03  2.468506E+05 -1.402047E-09 -3.066214E-09
       286  14 -3.912491E+04 -3.162156E+03  9.534883E+03  1.353618E+05 -8.039499E-10 -2.592983E-10
       286  15 -3.435861E+04  1.529301E+04  2.183921E+04  2.469179E+05  1.224208E-09 -5.988549E-09
       286  16  1.719684E+06  4.282942E+05  4.083419E+05  2.412420E+05  6.642469E-09 -4.411224E-09
       286  17  2.141973E+06  5.332455E+05  5.132285E+05  1.323794E+05  5.529256E-09 -2.818165E-09
       286  18  2.582952E+06  6.657990E+05  6.612708E+05  2.465144E+05 -2.878369E-09  1.933138E-09
       286  19 -1.784573E+06 -4.334959E+05 -3.960079E+05  2.524419E+05  3.658884E+04 -7.661928E+04
       286  20 -2.215832E+06 -5.398950E+05 -4.944615E+05  1.383372E+05 -7.485313E+03 -8.724249E+04
       286  21 -2.645439E+06 -6.357171E+05 -6.180855E+05  2.473260E+05 -5.126637E+04 -2.941479E+04
       286  22 -3.386587E+04 -2.490872E+03  6.272491E+03  2.468503E+05  4.317810E+03 -7.653544E+04
       286  23 -3.912277E+04 -3.153953E+03  9.549363E+03  1.353611E+05  9.390990E+03 -8.727441E+04
       286  24 -3.435815E+04  1.529402E+04  2.184127E+04  2.469176E+05  1.472541E+04 -2.966959E+04
       286  25  1.719686E+06  4.283007E+05  4.083543E+05  2.412438E+05 -2.804369E+04 -7.645113E+04
       286  26  2.141976E+06  5.332539E+05  5.132442E+05  1.323776E+05  2.632614E+04 -8.730646E+04
       286  27  2.582959E+06  6.658017E+05  6.612848E+05  2.465124E+05  8.099497E+04 -2.992399E+04
       287   1 -7.404534E+05 -3.111738E+06 -7.317269E+05  4.752612E+05 -3.127266E+04 -6.629723E+04
       287   2 -5.258310E+05 -2.257928E+06 -4.940197E+05  2.570395E+05 -8.430027E+04 -7.912169E+03
       287   3 -3.129825E+05 -1.414157E+06 -2.953806E+05  4.808603E+05 -5.496767E+04  5.015285E+04
       287   4  5.938660E+03 -1.206517E+05  2.989249E+03  4.867034E+05 -3.094565E+04  1.501287E+03
       287   5  1.580750E+03 -1.199682E+05  1.748093E+03  2.657313E+05 -8.423293E+04  8.315235E+02
       287   6  5.788488E+03 -1.196915E+05  2.616717E+03  4.867053E+05 -5.528660E+04 -2.386951E+02
       287   7  7.516681E+05  2.878617E+06  7.370647E+05  4.981886E+05 -3.061703E+04  6.962709E+04
       287   8  5.286706E+05  2.022225E+06  4.972095E+05  2.744469E+05 -8.416549E+04  9.605189E+03
       287   9  3.244436E+05  1.176333E+06  3.005126E+05  4.925595E+05 -5.560611E+04 -5.073465E+04
       287  10 -7.404556E+05 -3.111743E+06 -7.317371E+05  4.752595E+05  1.282131E-09 -2.490792E-09
       287  11 -5.258387E+05 -2.257930E+06 -4.940332E+05  2.570390E+05  4.290592E-09 -2.056416E-08
       287  12 -3.129864E+05 -1.414161E+06 -2.953911E+05  4.808625E+05 -4.068882E-09 -1.634018E-08
       287  13  5.937631E+03 -1.206520E+05  2.987445E+03  4.867035E+05 -3.145144E-09  1.107651E-09
       287  14  1.573131E+03 -1.199701E+05  1.734760E+03  2.657314E+05  1.051198E-08  3.233775E-08
       287  15  5.785206E+03 -1.196923E+05  2.610973E+03  4.867052E+05 -2.905404E-09 -7.721244E-09
       287  16  7.516658E+05  2.878611E+06  7.370539E+05  4.981903E+05  1.261608E-09  8.710691E-10
       287  17  5.286630E+05  2.022223E+06  4.971960E+05  2.744475E+05 -1.671870E-09  1.333215E-08
       287  18  3.244396E+05  1.176329E+06  3.005019E+05  4.925572E+05 -1.083024E-09  6.799586E-09
       287  19 -7.404534E+05 -3.111738E+06 -7.317269E+05  4.752612E+05  3.127266E+04  6.629723E+04
       287  20 -5.258310E+05 -2.257928E+06 -4.940197E+05  2.570395E+05  8.430027E+04  7.912169E+03
       287  21 -3.129825E+05 -1.414157E+06 -2.953806E+05  4.808603E+05  5.496767E+04 -5.015285E+04
       287  22  5.938660E+03 -1.206517E+05  2.989249E+03  4.867034E+05  3.094565E+04 -1.501287E+03
       287  23  1.580750E+03 -1.199682E+05  1.748093E+03  2.657313E+05  8.423293E+04 -8.315235E+02
       287  24  5.788488E+03 -1.196915E+05  2.616717E+03  4.867053E+05  5.528660E+04  2.386951E+02
       287  25  7.516681E+05  2.878617E+06  7.370647E+05  4.981886E+05  3.061703E+04 -6.962709E+04
       287  26  5.286706E+05  2.022225E+06  4.972095E+05  2.744469E+05  8.416549E+04 -9.605189E+03
       287  27  3.244436E+05  1.176333E+06  3.005126E+05  4.925595E+05  5.560611E+04  5.073465E+04
       288   1 -1.121464E+05 -6.003559E+05 -1.075883E+05  4.848356E+05 -2.046680E+04  2.554973E+04
       288   2  9.394257E+04  2.510143E+05  8.892787E+04  2.667511E+05  1.596404E+04  2.266015E+04
       288   3  3.070070E+05  1.098927E+06  2.875607E+05  4.934312E+05  5.150933E+04  1.979426E+04
       288   4  6.032592E+03 -1.201871E+05  2.833154E+03  4.873333E+05 -2.064377E+04 -1.004575E+03
       288   5  3.127870E+03 -1.181530E+05  4.056538E+03  2.649412E+05  1.579947E+04 -3.271423E+03
       288   6  7.139203E+03 -1.203529E+05  7.001513E+03  4.873255E+05  5.135450E+04 -5.510959E+03
       288   7  1.241959E+05  3.601968E+05  1.132420E+05  4.898325E+05 -2.082088E+04 -2.757927E+04
       288   8 -8.769598E+04 -4.871927E+05 -8.082128E+04  2.631322E+05  1.563500E+04 -2.918771E+04
       288   9 -2.928321E+05 -1.338258E+06 -2.736538E+05  4.812291E+05  5.120001E+04 -3.076693E+04
       288  10 -1.121470E+05 -6.003567E+05 -1.075904E+05  4.848360E+05 -2.163619E-09  5.786394E-09
       288  11  9.394215E+04  2.510137E+05  8.892643E+04  2.667508E+05  2.304669E-09 -1.430755E-08
       288  12  3.070041E+05  1.098926E+06  2.875550E+05  4.934304E+05  5.248947E-09 -1.162488E-08
       288  13  6.032134E+03 -1.201872E+05  2.832351E+03  4.873333E+05 -2.527764E-09  4.584772E-11
       288  14  3.127599E+03 -1.181530E+05  4.056049E+03  2.649412E+05 -9.976675E-10  4.189084E-08
       288  15  7.136363E+03 -1.203537E+05  6.996499E+03  4.873257E+05 -2.960458E-09 -5.602017E-09
       288  16  1.241952E+05  3.601958E+05  1.132398E+05  4.898321E+05 -2.605650E-09 -5.696055E-09
       288  17 -8.769647E+04 -4.871937E+05 -8.082334E+04  2.631325E+05  5.779465E-09  6.310079E-09
       288  18 -2.928352E+05 -1.338259E+06 -2.736605E+05  4.812304E+05  2.515903E-09 -1.831958E-10
       288  19 -1.121464E+05 -6.003559E+05 -1.075883E+05  4.848356E+05  2.046680E+04 -2.554973E+04
       288  20  9.394257E+04  2.510143E+05  8.892787E+04  2.667511E+05 -1.596404E+04 -2.266015E+04
       288  21  3.070070E+05  1.098927E+06  2.875607E+05  4.934312E+05 -5.150933E+04 -1.979426E+04
       288  22  6.032592E+03 -1.201871E+05  2.833154E+03  4.873333E+05  2.064377E+04  1.004575E+03
       288  23  3.127870E+03 -1.181530E+05  4.056538E+03  2.649412E+05 -1.579947E+04  3.271423E+03
       288  24  7.139203E+03 -1.203529E+05  7.001513E+03  4.873255E+05 -5.135450E+04  5.510959E+03
       288  25  1.241959E+05  3.601968E+05  1.132420E+05  4.898325E+05  2.082088E+04  2.757927E+04
       288  26 -8.769598E+04 -4.871927E+05 -8.082128E+04  2.631322E+05 -1.563500E+04  2.918771E+04
       288  27 -2.928321E+05 -1.338258E+06 -2.736538E+05  4.812291E+05 -5.120001E+04  3.076693E+04
       289   1  5.038166E+05  1.917737E+06  4.759515E+05  4.917699E+05  8.829239E+04  4.790582E+04
       289   2  7.073255E+05  2.757899E+06  6.789017E+05  2.787675E+05  1.140838E+05 -3.158517E+04
       289   3  9.564843E+05  3.620681E+06  9.447588E+05  5.068029E+05  3.991949E+04 -1.108019E+05
       289   4  3.696267E+03 -1.179472E+05  8.838441E+03  4.865578E+05  8.798294E+04 -7.120133E+03
       289   5 -1.214425E+03 -1.233503E+05  1.327345E+04  2.659351E+05  1.141998E+05 -1.434699E+04
       289   6  2.714696E+04 -1.192341E+05  3.063264E+04  4.864657E+05  4.025646E+04 -2.118944E+04
       289   7 -4.967111E+05 -2.149795E+06 -4.585365E+05  4.813558E+05  8.767385E+04 -6.196752E+04
       289   8 -7.103358E+05 -2.996946E+06 -6.529074E+05  2.531523E+05  1.143154E+05  2.812179E+03
       289   9 -9.032181E+05 -3.846431E+06 -8.844846E+05  4.662348E+05  4.058880E+04  6.788701E+04
       289  10  5.038076E+05  1.917732E+06  4.759326E+05  4.917665E+05  5.801686E-10 -7.237712E-09
       289  11  7.073112E+05  2.757894E+06  6.788754E+05  2.787704E+05 -2.344664E-09 -1.369700E-08
       289  12  9.564794E+05  3.620667E+06  9.447328E+05  5.068064E+05 -1.662228E-10 -2.535611E-09
       289  13  3.687941E+03 -1.179494E+05  8.823798E+03  4.865583E+05  2.259320E-09  3.206899E-09
       289  14 -1.228485E+03 -1.233540E+05  1.324855E+04  2.659364E+05 -1.594381E-09  2.939680E-08
       289  15  2.714510E+04 -1.192350E+05  3.062875E+04  4.864663E+05  3.321242E-11 -5.036295E-09
       289  16 -4.967204E+05 -2.149801E+06 -4.585582E+05  4.813601E+05 -2.901858E-09  7.770102E-09
       289  17 -7.103498E+05 -2.996950E+06 -6.529320E+05  2.531520E+05 -1.780795E-09  6.265483E-09
       289  18 -9.032211E+05 -3.846436E+06 -8.844964E+05  4.662325E+05  1.273537E-09 -2.062000E-09
       289  19  5.038166E+05  1.917737E+06  4.759515E+05  4.917699E+05 -8.829239E+04 -4.790582E+04
       289  20  7.073255E+05  2.757899E+06  6.789017E+05  2.787675E+05 -1.140838E+05  3.158517E+04
       289  21  9.564843E+05  3.620681E+06  9.447588E+05  5.068029E+05 -3.991949E+04  1.108019E+05
       289  22  3.696267E+03 -1.179472E+05  8.838441E+03  4.865578E+05 -8.798294E+04  7.120133E+03
       289  23 -1.214425E+03 -1.233503E+05  1.327345E+04  2.659351E+05 -1.141998E+05  1.434699E+04
       289  24  2.714696E+04 -1.192341E+05  3.063264E+04  4.864657E+05 -4.025646E+04  2.118944E+04
       289  25 -4.967111E+05 -2.149795E+06 -4.585365E+05  4.813558E+05 -8.767385E+04  6.196752E+04
       289  26 -7.103358E+05 -2.996946E+06 -6.529074E+05  2.531523E+05 -1.143154E+05 -2.812179E+03
       289  27 -9.032181E+05 -3.846431E+06 -8.844846E+05  4.662348E+05 -4.058880E+04 -6.788701E+04
       290   1 -2.496556E+05 -1.138662E+06 -2.457432E+05  1.769774E+05 -1.058980E+04 -1.687045E+04
       290   2 -1.756545E+05 -8.157759E+05 -1.614964E+05  9.647708E+04 -2.799117E+04  1.763441E+03
       290   3 -9.545793E+04 -4.955078E+05 -8.817469E+04  1.833537E+05 -1.657297E+04  2.025789E+04
       290   4  9.031008E+03 -1.009917E+05  8.953206E+03  1.839393E+05 -1.047106E+04  6.079396E+03
       290   5  4.500023E+02 -1.013725E+05  4.082366E+03  1.002762E+05 -2.797700E+04  3.991030E+03
       290   6  1.668161E+03 -1.008703E+05  2.694936E+03  1.839766E+05 -1.667832E+04  1.753390E+03
       290   7  2.676381E+05  9.376612E+05  2.635725E+05  1.909115E+05 -1.035191E+04  2.906758E+04
       290   8  1.765186E+05  6.135028E+05  1.696270E+05  1.040792E+05 -2.796281E+04  6.221165E+03
       290   9  9.878355E+04  2.939122E+05  9.355552E+04  1.845997E+05 -1.678366E+04 -1.676279E+04
       290  10 -2.496558E+05 -1.138662E+06 -2.457440E+05  1.769772E+05  4.074538E-10  9.330573E-09
       290  11 -1.756554E+05 -8.157761E+05 -1.614979E+05  9.647712E+04  3.163223E-09  1.061332E-08
       290  12 -9.545834E+04 -4.955083E+05 -8.817597E+04  1.833540E+05  2.985694E-10  5.841510E-09
       290  13  9.030881E+03 -1.009918E+05  8.952931E+03  1.839393E+05 -1.368406E-09 -1.061712E-09
       290  14  4.491576E+02 -1.013727E+05  4.080866E+03  1.002763E+05  9.401069E-09 -5.973428E-10
       290  15  1.667861E+03 -1.008703E+05  2.694407E+03  1.839766E+05  1.792127E-09  1.777412E-08
       290  16  2.676377E+05  9.376602E+05  2.635707E+05  1.909118E+05  1.465278E-09  1.507904E-09
       290  17  1.765178E+05  6.135026E+05  1.696254E+05  1.040793E+05  7.743756E-10 -1.129691E-08
       290  18  9.878317E+04  2.939118E+05  9.355446E+04  1.845994E+05  6.914231E-09 -1.832241E-08
       290  19 -2.496556E+05 -1.138662E+06 -2.457432E+05  1.769774E+05  1.058980E+04  1.687045E+04
       290  20 -1.756545E+05 -8.157759E+05 -1.614964E+05  9.647708E+04  2.799117E+04 -1.763441E+03
       290  21 -9.545793E+04 -4.955078E+05 -8.817469E+04  1.833537E+05  1.657297E+04 -2.025789E+04
       290  22  9.031008E+03 -1.009917E+05  8.953206E+03  1.839393E+05  1.047106E+04 -6.079396E+03
       290  23  4.500023E+02 -1.013725E+05  4.082366E+03  1.002762E+05  2.797700E+04 -3.991030E+03
       290  24  1.668161E+03 -1.008703E+05  2.694936E+03  1.839766E+05  1.667832E+04 -1.753390E+03
       290  25  2.676381E+05  9.376612E+05  2.635725E+05  1.909115E+05  1.035191E+04 -2.906758E+04
       290  26  1.765186E+05  6.135028E+05  1.696270E+05  1.040792E+05  2.796281E+04 -6.221165E+03
       290  27  9.878355E+04  2.939122E+05  9.355552E+04  1.845997E+05  1.678366E+04  1.676279E+04
       291   1 -1.861177E+04 -1.875835E+05 -1.747473E+04  1.836113E+05 -3.764606E+03  1.147834E+04
       291   2  5.892438E+04  1.346435E+05  5.570692E+04  1.009590E+05  1.014066E+04  1.018262E+04
       291   3  1.392146E+05  4.555911E+05  1.299090E+05  1.866631E+05  2.348122E+04  8.894679E+03
       291   4  2.596206E+03 -1.013512E+05  2.291931E+03  1.841852E+05 -3.823742E+03  1.258584E+03
       291   5  1.042154E+03 -1.006484E+05  1.610882E+03  1.000065E+05  1.008573E+04  3.671866E+02
       291   6  2.178862E+03 -1.013914E+05  1.674417E+03  1.841875E+05  2.343005E+04 -5.158071E+02
       291   7  2.380372E+04 -1.511183E+04  2.205849E+04  1.847592E+05 -3.882891E+03 -8.962574E+03
       291   8 -5.684389E+04 -3.358889E+05 -5.248845E+04  9.905437E+04  1.003082E+04 -9.444553E+03
       291   9 -1.348785E+05 -6.580869E+05 -1.265804E+05  1.817137E+05  2.337894E+04 -9.917921E+03
       291  10 -1.861182E+04 -1.875837E+05 -1.747500E+04  1.836113E+05  3.896290E-10  1.390044E-08
       291  11  5.892424E+04  1.346434E+05  5.570653E+04  1.009589E+05 -2.117229E-09  1.792966E-08
       291  12  1.392140E+05  4.555909E+05  1.299078E+05  1.866629E+05 -1.988662E-10  1.587738E-08
       291  13  2.596190E+03 -1.013512E+05  2.291901E+03  1.841852E+05  2.887282E-09 -2.159566E-09
       291  14  1.042044E+03 -1.006484E+05  1.610691E+03  1.000065E+05 -4.456998E-09 -2.647442E-09
       291  15  2.178272E+03 -1.013916E+05  1.673385E+03  1.841875E+05 -5.890487E-09  1.623894E-08
       291  16  2.380368E+04 -1.511192E+04  2.205831E+04  1.847592E+05  2.376454E-09 -3.250419E-09
       291  17 -5.684402E+04 -3.358890E+05 -5.248881E+04  9.905445E+04  1.896854E-09 -1.549107E-08
       291  18 -1.348791E+05 -6.580871E+05 -1.265816E+05  1.817139E+05  1.742089E-09 -2.803548E-08
       291  19 -1.861177E+04 -1.875835E+05 -1.747473E+04  1.836113E+05  3.764606E+03 -1.147834E+04
       291  20  5.892438E+04  1.346435E+05  5.570692E+04  1.009590E+05 -1.014066E+04 -1.018262E+04
       291  21  1.392146E+05  4.555911E+05  1.299090E+05  1.866631E+05 -2.348122E+04 -8.894679E+03
       291  22  2.596206E+03 -1.013512E+05  2.291931E+03  1.841852E+05  3.823742E+03 -1.258584E+03
       291  23  1.042154E+03 -1.006484E+05  1.610882E+03  1.000065E+05 -1.008573E+04 -3.671866E+02
       291  24  2.178862E+03 -1.013914E+05  1.674417E+03  1.841875E+05 -2.343005E+04  5.158071E+02
       291  25  2.380372E+04 -1.511183E+04  2.205849E+04  1.847592E+05  3.882891E+03  8.962574E+03
       291  26 -5.684389E+04 -3.358889E+05 -5.248845E+04  9.905437E+04 -1.003082E+04  9.444553E+03
       291  27 -1.348785E+05 -6.580869E+05 -1.265804E+05  1.817137E+05 -2.337894E+04  9.917921E+03
       292   1  2.145320E+05  7.647372E+05  2.005915E+05  1.867526E+05  3.766649E+04  2.049941E+04
       292   2  2.921304E+05  1.083855E+06  2.763999E+05  1.052126E+05  4.708839E+04 -9.787310E+03
       292   3  3.811784E+05  1.408721E+06  3.744988E+05  1.905590E+05  1.630240E+04 -3.990753E+04
       292   4  1.683257E+03 -1.010369E+05  1.837410E+03  1.838699E+05  3.755425E+04 -8.994943E+02
       292   5  3.686634E+02 -1.014547E+05  2.339700E+03  1.004091E+05  4.713144E+04 -2.191413E+03
       292   6  5.490253E+03 -1.012380E+05  5.024883E+03  1.838530E+05  1.646679E+04 -3.301215E+03
       292   7 -2.112175E+05 -9.661166E+05 -1.969644E+05  1.809902E+05  3.744212E+04 -2.226883E+04
       292   8 -2.914916E+05 -1.285468E+06 -2.718141E+05  9.561309E+04  4.717442E+04  5.390112E+03
       292   9 -3.703658E+05 -1.609119E+06 -3.646107E+05  1.771609E+05  1.663060E+04  3.321641E+04
       292  10  2.145303E+05  7.647364E+05  2.005880E+05  1.867520E+05 -3.530956E-09  1.040449E-08
       292  11  2.921280E+05  1.083855E+06  2.763956E+05  1.052130E+05 -3.372677E-09  7.992987E-09
       292  12  3.811777E+05  1.408719E+06  3.744953E+05  1.905595E+05 -3.897697E-10  2.674388E-09
       292  13  1.681743E+03 -1.010373E+05  1.834759E+03  1.838699E+05 -4.543424E-10 -4.202514E-11
       292  14  3.662768E+02 -1.014553E+05  2.335517E+03  1.004092E+05 -6.488761E-09 -1.575722E-09
       292  15  5.489959E+03 -1.012381E+05  5.024353E+03  1.838531E+05 -1.672696E-09  1.574320E-08
       292  16 -2.112191E+05 -9.661175E+05 -1.969680E+05  1.809908E+05 -2.094023E-09  1.064984E-09
       292  17 -2.914940E+05 -1.285468E+06 -2.718184E+05  9.561289E+04 -4.767361E-09 -4.872548E-09
       292  18 -3.703664E+05 -1.609121E+06 -3.646133E+05  1.771604E+05 -1.424970E-09 -1.162466E-08
       292  19  2.145320E+05  7.647372E+05  2.005915E+05  1.867526E+05 -3.766649E+04 -2.049941E+04
       292  20  2.921304E+05  1.083855E+06  2.763999E+05  1.052126E+05 -4.708839E+04  9.787310E+03
       292  21  3.811784E+05  1.408721E+06  3.744988E+05  1.905590E+05 -1.630240E+04  3.990753E+04
       292  22  1.683257E+03 -1.010369E+05  1.837410E+03  1.838699E+05 -3.755425E+04  8.994943E+02
       292  23  3.686634E+02 -1.014547E+05  2.339700E+03  1.004091E+05 -4.713144E+04  2.191413E+03
       292  24  5.490253E+03 -1.012380E+05  5.024883E+03  1.838530E+05 -1.646679E+04  3.301215E+03
       292  25 -2.112175E+05 -9.661166E+05 -1.969644E+05  1.809902E+05 -3.744212E+04  2.226883E+04
       292  26 -2.914916E+05 -1.285468E+06 -2.718141E+05  9.561309E+04 -4.717442E+04 -5.390112E+03
       292  27 -3.703658E+05 -1.609119E+06 -3.646107E+05  1.771609E+05 -1.663060E+04 -3.321641E+04
       293   1  3.230081E+06  1.158982E+06  1.122960E+06  4.168295E+05  5.627023E+04 -5.729256E+04
       293   2  2.418856E+06  1.035832E+06  9.228783E+05  2.385995E+05 -1.266179E+04 -1.684326E+05
       293   3  1.611932E+06  8.395084E+05  7.515860E+05  4.777477E+05 -8.101462E+04 -1.485810E+05
       293   4 -1.794061E+06 -9.088856E+04 -1.051751E+05  4.668070E+05 -7.119656E+04 -5.680255E+04
       293   5 -1.786677E+06  7.178472E+02 -4.900808E+04  2.581589E+05 -4.552001E+04 -1.684315E+05
       293   6 -1.792161E+06  2.484965E+03 -2.974021E+04  4.670942E+05 -1.934902E+04 -1.486671E+05
       293   7 -6.795201E+06 -1.342612E+06 -1.335095E+06  5.163956E+05 -1.976360E+05 -5.633135E+04
       293   8 -5.975875E+06 -1.035637E+06 -1.022072E+06  2.775918E+05 -7.815711E+04 -1.684326E+05
       293   9 -5.185518E+06 -8.353453E+05 -8.118175E+05  4.564970E+05  4.198203E+04 -1.487554E+05
       293  10  3.230077E+06  1.158978E+06  1.122948E+06  4.168321E+05  1.402177E-09 -2.867787E-10
       293  11  2.418849E+06  1.035801E+06  9.228248E+05  2.385978E+05  9.058104E-10 -1.051376E-09
       293  12  1.611919E+06  8.394829E+05  7.515323E+05  4.777380E+05 -4.371415E-10 -4.284901E-10
       293  13 -1.794068E+06 -9.089338E+04 -1.051907E+05  4.668037E+05  7.488522E-11 -4.438149E-10
       293  14 -1.786687E+06  6.868545E+02 -4.906523E+04  2.581527E+05  1.521019E-09 -9.561359E-10
       293  15 -1.792167E+06  2.461153E+03 -2.978240E+04  4.670919E+05  1.509710E-10 -2.037766E-10
       293  16 -6.795244E+06 -1.342626E+06 -1.335175E+06  5.163866E+05  1.254715E-09 -4.315856E-10
       293  17 -5.975889E+06 -1.035669E+06 -1.022137E+06  2.775812E+05 -8.780698E-10 -1.240721E-09
       293  18 -5.185526E+06 -8.353695E+05 -8.118624E+05  4.565021E+05  7.554212E-10  4.765619E-11
       293  19  3.230081E+06  1.158982E+06  1.122960E+06  4.168295E+05 -5.627023E+04  5.729256E+04
       293  20  2.418856E+06  1.035832E+06  9.228783E+05  2.385995E+05  1.266179E+04  1.684326E+05
       293  21  1.611932E+06  8.395084E+05  7.515860E+05  4.777477E+05  8.101462E+04  1.485810E+05
       293  22 -1.794061E+06 -9.088856E+04 -1.051751E+05  4.668070E+05  7.119656E+04  5.680255E+04
       293  23 -1.786677E+06  7.178472E+02 -4.900808E+04  2.581589E+05  4.552001E+04  1.684315E+05
       293  24 -1.792161E+06  2.484965E+03 -2.974021E+04  4.670942E+05  1.934902E+04  1.486671E+05
       293  25 -6.795201E+06 -1.342612E+06 -1.335095E+06  5.163956E+05  1.976360E+05  5.633135E+04
       293  26 -5.975875E+06 -1.035637E+06 -1.022072E+06  2.775918E+05  7.815711E+04  1.684326E+05
       293  27 -5.185518E+06 -8.353453E+05 -8.118175E+05  4.564970E+05 -4.198203E+04  1.487554E+05
       294   1  8.307189E+05  6.366505E+05  5.781783E+05  4.670456E+05 -3.632101E+04 -1.098320E+05
       294   2  1.121965E+04  4.432412E+05  3.971730E+05  2.550427E+05 -3.234189E+04 -7.698671E+04
       294   3 -8.083254E+05  2.426299E+05  2.120615E+05  4.721749E+05 -2.847480E+04 -3.777882E+04
       294   4 -1.788485E+06 -8.126226E+03 -2.542384E+04  4.696034E+05 -1.490747E+04 -1.098591E+05
       294   5 -1.787350E+06  4.063905E+02 -1.680822E+04  2.549935E+05 -6.386917E+03 -7.698058E+04
       294   6 -1.787693E+06  9.737194E+02 -1.544301E+04  4.695999E+05  2.026565E+03 -3.772882E+04
       294   7 -4.401337E+06 -6.533837E+05 -6.294805E+05  4.721477E+05  6.416616E+03 -1.098861E+05
       294   8 -3.582920E+06 -4.426547E+05 -4.310016E+05  2.549433E+05  1.949346E+04 -7.697445E+04
       294   9 -2.766171E+06 -2.407498E+05 -2.430086E+05  4.670282E+05  3.248010E+04 -3.767902E+04
       294  10  8.307142E+05  6.366372E+05  5.781532E+05  4.670424E+05  5.856281E-10  3.218381E-10
       294  11  1.121694E+04  4.432346E+05  3.971600E+05  2.550407E+05  4.486390E-10 -6.221658E-11
       294  12 -8.083266E+05  2.426282E+05  2.120573E+05  4.721740E+05 -1.211273E-10 -6.258581E-11
       294  13 -1.788488E+06 -8.139233E+03 -2.544692E+04  4.696021E+05  1.246000E-10  2.451196E-10
       294  14 -1.787352E+06  4.000216E+02 -1.681943E+04  2.549931E+05 -1.071392E-10 -1.260233E-10
       294  15 -1.787694E+06  9.721909E+02 -1.544569E+04  4.695999E+05  8.688234E-11  3.323300E-12
       294  16 -4.401340E+06 -6.533967E+05 -6.295032E+05  4.721483E+05 -3.068670E-10  5.202056E-10
       294  17 -3.582922E+06 -4.426612E+05 -4.310135E+05  2.549445E+05 -3.255279E-10 -1.304402E-11
       294  18 -2.766173E+06 -2.407516E+05 -2.430133E+05  4.670292E+05 -4.927408E-11  9.693704E-11
       294  19  8.307189E+05  6.366505E+05  5.781783E+05  4.670456E+05  3.632101E+04  1.098320E+05
       294  20  1.121965E+04  4.432412E+05  3.971730E+05  2.550427E+05  3.234189E+04  7.698671E+04
       294  21 -8.083254E+05  2.426299E+05  2.120615E+05  4.721749E+05  2.847480E+04  3.777882E+04
       294  22 -1.788485E+06 -8.126226E+03 -2.542384E+04  4.696034E+05  1.490747E+04  1.098591E+05
       294  23 -1.787350E+06  4.063905E+02 -1.680822E+04  2.549935E+05  6.386917E+03  7.698058E+04
       294  24 -1.787693E+06  9.737194E+02 -1.544301E+04  4.695999E+05 -2.026565E+03  3.772882E+04
       294  25 -4.401337E+06 -6.533837E+05 -6.294805E+05  4.721477E+05 -6.416616E+03  1.098861E+05
       294  26 -3.582920E+06 -4.426547E+05 -4.310016E+05  2.549433E+05 -1.949346E+04  7.697445E+04
       294  27 -2.766171E+06 -2.407498E+05 -2.430086E+05  4.670282E+05 -3.248010E+04  3.767902E+04
       295   1 -1.597398E+06  4.809242E+04  2.523411E+04  4.680438E+05 -2.533542E+04 -1.277666E+04
       295   2 -2.415536E+06 -1.536506E+05 -1.678488E+05  2.550060E+05 -1.048688E+04  2.671353E+04
       295   3 -3.238801E+06 -3.681080E+05 -3.740745E+05  4.725719E+05  4.382703E+03  6.136303E+04
       295   4 -1.788284E+06  1.482531E+03 -1.661180E+04  4.699005E+05  4.752122E+03 -1.271936E+04
       295   5 -1.785867E+06  1.632712E+03 -2.258476E+04  2.546177E+05  1.611772E+04  2.675094E+04
       295   6 -1.788596E+06 -1.027340E+04 -3.923318E+04  4.699146E+05  2.752373E+04  6.138500E+04
       295   7 -1.979135E+06 -4.512930E+04 -5.845651E+04  4.717567E+05  3.483051E+04 -1.266186E+04
       295   8 -1.155829E+06  1.568885E+05  1.226556E+05  2.542287E+05  4.274918E+04  2.678829E+04
       295   9 -3.364348E+05  3.474136E+05  2.954700E+05  4.672498E+05  5.071857E+04  6.140673E+04
       295  10 -1.597398E+06  4.809207E+04  2.523259E+04  4.680436E+05  2.130173E-10 -1.454614E-10
       295  11 -2.415537E+06 -1.536514E+05 -1.678504E+05  2.550062E+05  2.197254E-10 -2.091325E-10
       295  12 -3.238802E+06 -3.681121E+05 -3.740816E+05  4.725716E+05  4.013642E-10 -8.455815E-10
       295  13 -1.788284E+06  1.482351E+03 -1.661215E+04  4.699006E+05  2.350247E-11 -1.359664E-10
       295  14 -1.785868E+06  1.631875E+03 -2.258659E+04  2.546173E+05 -6.511099E-10 -4.566053E-10
       295  15 -1.788598E+06 -1.027764E+04 -3.924168E+04  4.699133E+05 -7.592514E-11 -9.182653E-10
       295  16 -1.979136E+06 -4.512980E+04 -5.845910E+04  4.717570E+05 -5.860693E-10 -3.000103E-11
       295  17 -1.155831E+06  1.568872E+05  1.226508E+05  2.542278E+05 -2.558779E-10 -5.512847E-10
       295  18 -3.364385E+05  3.474089E+05  2.954580E+05  4.672473E+05 -7.811826E-10 -8.902972E-10
       295  19 -1.597398E+06  4.809242E+04  2.523411E+04  4.680438E+05  2.533542E+04  1.277666E+04
       295  20 -2.415536E+06 -1.536506E+05 -1.678488E+05  2.550060E+05  1.048688E+04 -2.671353E+04
       295  21 -3.238801E+06 -3.681080E+05 -3.740745E+05  4.725719E+05 -4.382703E+03 -6.136303E+04
       295  22 -1.788284E+06  1.482531E+03 -1.661180E+04  4.699005E+05 -4.752122E+03  1.271936E+04
       295  23 -1.785867E+06  1.632712E+03 -2.258476E+04  2.546177E+05 -1.611772E+04 -2.675094E+04
       295  24 -1.788596E+06 -1.027340E+04 -3.923318E+04  4.699146E+05 -2.752373E+04 -6.138500E+04
       295  25 -1.979135E+06 -4.512930E+04 -5.845651E+04  4.717567E+05 -3.483051E+04  1.266186E+04
       295  26 -1.155829E+06  1.568885E+05  1.226556E+05  2.542287E+05 -4.274918E+04 -2.678829E+04
       295  27 -3.364348E+05  3.474136E+05  2.954700E+05  4.672498E+05 -5.071857E+04 -6.140673E+04
       296   1 -4.032214E+06 -5.440089E+05 -5.630164E+05  4.461858E+05 -2.018788E+04  9.707836E+04
       296   2 -4.820113E+06 -7.445216E+05 -7.852242E+05  2.770133E+05  9.603122E+04  1.215099E+05
       296   3 -5.657609E+06 -1.109818E+06 -1.123503E+06  5.304106E+05  2.119512E+05  4.213120E+04
       296   4 -1.796358E+06  7.774212E+03 -4.766710E+04  4.681571E+05  3.452488E+04  9.710383E+04
       296   5 -1.778622E+06  7.402208E+03 -7.887974E+04  2.568164E+05  7.664348E+04  1.214758E+05
       296   6 -1.797830E+06 -1.443344E+05 -1.741734E+05  4.679772E+05  1.186212E+05  4.224847E+04
       296   7  4.441562E+05  5.592094E+05  4.673614E+05  4.902059E+05  8.943396E+04  9.713309E+04
       296   8  1.271471E+06  7.586731E+05  6.268434E+05  2.365187E+05  5.716015E+04  1.214432E+05
       296   9  2.075636E+06  8.200551E+05  7.740921E+05  4.051527E+05  2.470587E+04  4.238450E+04
       296  10 -4.032217E+06 -5.440191E+05 -5.630349E+05  4.461874E+05 -7.966118E-10 -6.300579E-10
       296  11 -4.820127E+06 -7.445399E+05 -7.852693E+05  2.770039E+05 -2.958091E-10 -1.000702E-10
       296  12 -5.657658E+06 -1.109832E+06 -1.123592E+06  5.304034E+05  8.665954E-10  7.523490E-11
       296  13 -1.796362E+06  7.763778E+03 -4.768704E+04  4.681544E+05 -1.263057E-11 -5.171226E-10
       296  14 -1.778632E+06  7.384798E+03 -7.891850E+04  2.568089E+05  6.082190E-10  5.169148E-10
       296  15 -1.797846E+06 -1.443401E+05 -1.742032E+05  4.679732E+05  2.765966E-10  5.146800E-10
       296  16  4.441451E+05  5.591971E+05  4.673286E+05  4.901989E+05  5.974000E-10 -4.694331E-10
       296  17  1.271463E+06  7.586564E+05  6.268096E+05  2.365132E+05  2.210140E-10  4.828528E-10
       296  18  2.075635E+06  8.200530E+05  7.740875E+05  4.051519E+05 -3.142804E-10  1.726912E-10
       296  19 -4.032214E+06 -5.440089E+05 -5.630164E+05  4.461858E+05  2.018788E+04 -9.707836E+04
       296  20 -4.820113E+06 -7.445216E+05 -7.852242E+05  2.770133E+05 -9.603122E+04 -1.215099E+05
       296  21 -5.657609E+06 -1.109818E+06 -1.123503E+06  5.304106E+05 -2.119512E+05 -4.213120E+04
       296  22 -1.796358E+06  7.774212E+03 -4.766710E+04  4.681571E+05 -3.452488E+04 -9.710383E+04
       296  23 -1.778622E+06  7.402208E+03 -7.887974E+04  2.568164E+05 -7.664348E+04 -1.214758E+05
       296  24 -1.797830E+06 -1.443344E+05 -1.741734E+05  4.679772E+05 -1.186212E+05 -4.224847E+04
       296  25  4.441562E+05  5.592094E+05  4.673614E+05  4.902059E+05 -8.943396E+04 -9.713309E+04
       296  26  1.271471E+06  7.586731E+05  6.268434E+05  2.365187E+05 -5.716015E+04 -1.214432E+05
       296  27  2.075636E+06  8.200551E+05  7.740921E+05  4.051527E+05 -2.470587E+04 -4.238450E+04
       297   1  2.542403E+06  8.740928E+05  8.583659E+05  3.644312E+05  7.897372E+04 -4.009602E+04
       297   2  1.881962E+06  7.161732E+05  6.656369E+05  2.018643E+05  1.522555E+04 -1.164398E+05
       297   3  1.235881E+06  5.579102E+05  5.152606E+05  3.771084E+05 -4.830373E+04 -9.872200E+04
       297   4 -1.032969E+06 -1.514389E+04 -1.587258E+04  3.744953E+05 -1.015262E+04 -3.994582E+04
       297   5 -1.033563E+06 -1.356209E+03 -8.230783E+03  2.055469E+05 -5.934687E+03 -1.164617E+05
       297   6 -1.031971E+06  3.210618E+02 -5.322172E+03  3.745114E+05 -1.565171E+03 -9.871814E+04
       297   7 -4.596694E+06 -9.053218E+05 -8.910159E+05  3.845036E+05 -9.876817E+04 -3.979820E+04
       297   8 -3.941240E+06 -7.194822E+05 -6.826646E+05  2.092125E+05 -2.699647E+04 -1.164839E+05
       297   9 -3.295058E+06 -5.576259E+05 -5.262363E+05  3.719218E+05  4.500429E+04 -9.871464E+04
       297  10  2.542395E+06  8.740894E+05  8.583512E+05  3.644338E+05  2.192775E-10  2.854638E-10
       297  11  1.881958E+06  7.161586E+05  6.656110E+05  2.018657E+05  3.334212E-10 -2.931429E-10
       297  12  1.235876E+06  5.578992E+05  5.152379E+05  3.771046E+05 -8.578258E-11 -4.288782E-10
       297  13 -1.032970E+06 -1.514563E+04 -1.587577E+04  3.744950E+05 -4.117311E-11  5.792163E-10
       297  14 -1.033567E+06 -1.370776E+03 -8.256324E+03  2.055464E+05  6.145897E-10 -2.531445E-10
       297  15 -1.031974E+06  3.106016E+02 -5.340480E+03  3.745113E+05  8.332773E-11 -3.119348E-10
       297  16 -4.596705E+06 -9.053261E+05 -8.910373E+05  3.845004E+05  1.018054E-09  2.298448E-13
       297  17 -3.941244E+06 -7.194970E+05 -6.826915E+05  2.092099E+05 -1.907800E-10 -9.947154E-12
       297  18 -3.295063E+06 -5.576369E+05 -5.262584E+05  3.719254E+05 -7.639484E-11  2.123264E-11
       297  19  2.542403E+06  8.740928E+05  8.583659E+05  3.644312E+05 -7.897372E+04  4.009602E+04
       297  20  1.881962E+06  7.161732E+05  6.656369E+05  2.018643E+05 -1.522555E+04  1.164398E+05
       297  21  1.235881E+06  5.579102E+05  5.152606E+05  3.771084E+05  4.830373E+04  9.872200E+04
       297  22 -1.032969E+06 -1.514389E+04 -1.587258E+04  3.744953E+05  1.015262E+04  3.994582E+04
       297  23 -1.033563E+06 -1.356209E+03 -8.230783E+03  2.055469E+05  5.934687E+03  1.164617E+05
       297  24 -1.031971E+06  3.210618E+02 -5.322172E+03  3.745114E+05  1.565171E+03  9.871814E+04
       297  25 -4.596694E+06 -9.053218E+05 -8.910159E+05  3.845036E+05  9.876817E+04  3.979820E+04
       297  26 -3.941240E+06 -7.194822E+05 -6.826646E+05  2.092125E+05  2.699647E+04  1.164839E+05
       297  27 -3.295058E+06 -5.576259E+05 -5.262363E+05  3.719218E+05 -4.500429E+04  9.871464E+04
       298   1  6.060445E+05  4.020553E+05  3.720771E+05  3.763369E+05 -1.857408E+04 -6.884837E+04
       298   2 -5.034034E+04  2.419658E+05  2.206936E+05  2.046136E+05 -1.922925E+04 -4.189271E+04
       298   3 -7.066001E+05  8.110054E+04  6.944623E+04  3.766095E+05 -1.993373E+04 -1.046697E+04
       298   4 -1.032045E+06 -1.080278E+03 -5.249910E+03  3.758056E+05 -7.635277E+02 -6.884141E+04
       298   5 -1.031452E+06  4.752770E+02 -5.097822E+03  2.039282E+05  1.787914E+03 -4.186839E+04
       298   6 -1.031704E+06  7.222307E+02 -7.020086E+03  3.758042E+05  4.289267E+03 -1.042058E+04
       298   7 -2.667650E+06 -4.044037E+05 -3.827539E+05  3.752743E+05  1.700043E+04 -6.883448E+04
       298   8 -2.011672E+06 -2.410823E+05 -2.309514E+05  2.032434E+05  2.277212E+04 -4.184410E+04
       298   9 -1.356709E+06 -7.966331E+04 -8.349146E+04  3.749993E+05  2.849964E+04 -1.037424E+04
       298  10  6.060429E+05  4.020502E+05  3.720675E+05  3.763359E+05 -4.740483E-10 -2.803894E-10
       298  11 -5.034121E+04  2.419638E+05  2.206896E+05  2.046130E+05  1.067076E-10  1.397223E-10
       298  12 -7.066006E+05  8.110032E+04  6.944528E+04  3.766093E+05  3.756932E-10  1.392702E-10
       298  13 -1.032046E+06 -1.085365E+03 -5.258812E+03  3.758056E+05  1.759803E-10  1.588448E-10
       298  14 -1.031453E+06  4.733947E+02 -5.101121E+03  2.039282E+05 -2.628809E-10  3.537791E-10
       298  15 -1.031704E+06  7.221092E+02 -7.020325E+03  3.758042E+05  1.614878E-11 -1.363871E-10
       298  16 -2.667652E+06 -4.044088E+05 -3.827633E+05  3.752752E+05  1.981145E-10  1.277698E-10
       298  17 -2.011673E+06 -2.410844E+05 -2.309557E+05  2.032442E+05 -2.398812E-10  3.024922E-10
       298  18 -1.356710E+06 -7.966365E+04 -8.349319E+04  3.749995E+05 -2.127720E-10 -9.493671E-10
       298  19  6.060445E+05  4.020553E+05  3.720771E+05  3.763369E+05  1.857408E+04  6.884837E+04
       298  20 -5.034034E+04  2.419658E+05  2.206936E+05  2.046136E+05  1.922925E+04  4.189271E+04
       298  21 -7.066001E+05  8.110054E+04  6.944623E+04  3.766095E+05  1.993373E+04  1.046697E+04
       298  22 -1.032045E+06 -1.080278E+03 -5.249910E+03  3.758056E+05  7.635277E+02  6.884141E+04
       298  23 -1.031452E+06  4.752770E+02 -5.097822E+03  2.039282E+05 -1.787914E+03  4.186839E+04
       298  24 -1.031704E+06  7.222307E+02 -7.020086E+03  3.758042E+05 -4.289267E+03  1.042058E+04
       298  25 -2.667650E+06 -4.044037E+05 -3.827539E+05  3.752743E+05 -1.700043E+04  6.883448E+04
       298  26 -2.011672E+06 -2.410823E+05 -2.309514E+05  2.032434E+05 -2.277212E+04  4.184410E+04
       298  27 -1.356709E+06 -7.966331E+04 -8.349146E+04  3.749993E+05 -2.849964E+04  1.037424E+04
       299   1 -1.336715E+06 -7.379854E+04 -8.038887E+04  3.739737E+05 -1.861039E+04  9.510160E+03
       299   2 -1.990582E+06 -2.355511E+05 -2.353223E+05  2.037499E+05 -8.293039E+03  4.098463E+04
       299   3 -2.647746E+06 -4.057741E+05 -3.992479E+05  3.773268E+05  2.062796E+03  6.800880E+04
       299   4 -1.032206E+06  1.542729E+03 -8.633781E+03  3.758053E+05  5.595230E+03  9.556578E+03
       299   5 -1.030816E+06  9.617611E+02 -1.418021E+04  2.039257E+05  1.271610E+04  4.100937E+04
       299   6 -1.032546E+06 -7.492566E+03 -2.645977E+04  3.758157E+05  1.988613E+04  6.801643E+04
       299   7 -7.276095E+05  7.687768E+04  6.311712E+04  3.776377E+05  2.981268E+04  9.603126E+03
       299   8 -7.019415E+04  2.374103E+05  2.069023E+05  2.041013E+05  3.375753E+04  4.103411E+04
       299   9  5.850763E+05  3.906059E+05  3.461558E+05  3.742993E+05  3.775557E+04  6.802396E+04
       299  10 -1.336715E+06 -7.379873E+04 -8.038970E+04  3.739738E+05 -2.460897E-10 -4.588485E-10
       299  11 -1.990583E+06 -2.355530E+05 -2.353256E+05  2.037502E+05 -4.204108E-10  2.218789E-10
       299  12 -2.647748E+06 -4.057790E+05 -3.992566E+05  3.773267E+05 -3.482584E-10  8.963912E-10
       299  13 -1.032206E+06  1.542622E+03 -8.634011E+03  3.758052E+05  3.122413E-10 -1.129660E-09
       299  14 -1.030817E+06  9.599128E+02 -1.418367E+04  2.039252E+05 -2.219193E-10 -4.717018E-11
       299  15 -1.032548E+06 -7.497637E+03 -2.646920E+04  3.758147E+05  1.475256E-10  5.375342E-11
       299  16 -7.276105E+05  7.687734E+04  6.311528E+04  3.776375E+05 -2.431712E-10 -8.084421E-10
       299  17 -7.019582E+04  2.374082E+05  2.068970E+05  2.041002E+05  7.450638E-10 -1.222623E-09
       299  18  5.850735E+05  3.906005E+05  3.461444E+05  3.742973E+05  4.283739E-10 -4.195026E-10
       299  19 -1.336715E+06 -7.379854E+04 -8.038887E+04  3.739737E+05  1.861039E+04 -9.510160E+03
       299  20 -1.990582E+06 -2.355511E+05 -2.353223E+05  2.037499E+05  8.293039E+03 -4.098463E+04
       299  21 -2.647746E+06 -4.057741E+05 -3.992479E+05  3.773268E+05 -2.062796E+03 -6.800880E+04
       299  22 -1.032206E+06  1.542729E+03 -8.633781E+03  3.758053E+05 -5.595230E+03 -9.556578E+03
       299  23 -1.030816E+06  9.617611E+02 -1.418021E+04  2.039257E+05 -1.271610E+04 -4.100937E+04
       299  24 -1.032546E+06 -7.492566E+03 -2.645977E+04  3.758157E+05 -1.988613E+04 -6.801643E+04
       299  25 -7.276095E+05  7.687768E+04  6.311712E+04  3.776377E+05 -2.981268E+04 -9.603126E+03
       299  26 -7.019415E+04  2.374103E+05  2.069023E+05  2.041013E+05 -3.375753E+04 -4.103411E+04
       299  27  5.850763E+05  3.906059E+05  3.461558E+05  3.742993E+05 -3.775557E+04 -6.802396E+04
       300   1 -3.280636E+06 -5.478749E+05 -5.487729E+05  3.592639E+05 -2.188141E+04  9.783389E+04
       300   2 -3.913603E+06 -7.085266E+05 -7.244803E+05  2.203120E+05  7.458782E+04  1.156414E+05
       300   3 -4.582470E+06 -9.861343E+05 -9.913959E+05  4.192188E+05  1.708042E+05  3.942754E+04
       300   4 -1.037852E+06  5.079164E+03 -3.252008E+04  3.745176E+05  2.462243E+04  9.783856E+04
       300   5 -1.026194E+06  4.598403E+03 -5.474427E+04  2.055509E+05  5.386648E+04  1.156173E+05
       300   6 -1.038898E+06 -1.007983E+05 -1.211343E+05  3.743815E+05  8.296386E+04  3.955989E+04
       300   7  1.209612E+06  5.576827E+05  4.834075E+05  3.898251E+05  7.129350E+04  9.784549E+04
       300   8  1.868955E+06  7.171358E+05  6.144336E+05  1.907205E+05  3.304853E+04  1.155942E+05
       300   9  2.516191E+06  7.836138E+05  7.482332E+05  3.292882E+05 -5.380870E+03  3.970476E+04
       300  10 -3.280639E+06 -5.478853E+05 -5.487918E+05  3.592656E+05  3.705518E-10  8.428331E-10
       300  11 -3.913613E+06 -7.085424E+05 -7.245159E+05  2.203051E+05  5.325113E-10 -6.115034E-11
       300  12 -4.582502E+06 -9.861439E+05 -9.914540E+05  4.192134E+05  2.406507E-10 -4.153725E-10
       300  13 -1.037855E+06  5.068729E+03 -3.253920E+04  3.745157E+05  1.598016E-10  7.664955E-11
       300  14 -1.026201E+06  4.583278E+03 -5.477483E+04  2.055459E+05  4.612945E-10 -1.685203E-10
       300  15 -1.038906E+06 -1.008018E+05 -1.211502E+05  3.743789E+05  3.576095E-10 -2.035909E-10
       300  16  1.209604E+06  5.576711E+05  4.833800E+05  3.898195E+05 -6.927880E-10 -5.801439E-10
       300  17  1.868951E+06  7.171212E+05  6.144064E+05  1.907174E+05  4.414836E-10 -9.095785E-10
       300  18  2.516191E+06  7.836121E+05  7.482302E+05  3.292884E+05  4.679569E-10 -2.213993E-10
       300  19 -3.280636E+06 -5.478749E+05 -5.487729E+05  3.592639E+05  2.188141E+04 -9.783389E+04
       300  20 -3.913603E+06 -7.085266E+05 -7.244803E+05  2.203120E+05 -7.458782E+04 -1.156414E+05
       300  21 -4.582470E+06 -9.861343E+05 -9.913959E+05  4.192188E+05 -1.708042E+05 -3.942754E+04
       300  22 -1.037852E+06  5.079164E+03 -3.252008E+04  3.745176E+05 -2.462243E+04 -9.783856E+04
       300  23 -1.026194E+06  4.598403E+03 -5.474427E+04  2.055509E+05 -5.386648E+04 -1.156173E+05
       300  24 -1.038898E+06 -1.007983E+05 -1.211343E+05  3.743815E+05 -8.296386E+04 -3.955989E+04
       300  25  1.209612E+06  5.576827E+05  4.834075E+05  3.898251E+05 -7.129350E+04 -9.784549E+04
       300  26  1.868955E+06  7.171358E+05  6.144336E+05  1.907205E+05 -3.304853E+04 -1.155942E+05
       300  27  2.516191E+06  7.836138E+05  7.482332E+05  3.292882E+05  5.380870E+03 -3.970476E+04
       301   1  3.070330E+06  8.635595E+05  8.562264E+05  3.608772E+05  1.025046E+05 -3.812975E+04
       301   2  2.434754E+06  6.779174E+05  6.504086E+05  1.963831E+05  3.209427E+04 -1.105668E+05
       301   3  1.822685E+06  5.272283E+05  4.999625E+05  3.544069E+05 -3.809753E+04 -9.363461E+04
       301   4 -3.303881E+05  1.840439E+04  2.526178E+04  3.569927E+05  1.773146E+04 -3.798784E+04
       301   5 -3.359367E+05 -3.491616E+03  1.045251E+04  1.956763E+05  1.198471E+04 -1.105846E+05
       301   6 -3.294848E+05 -1.534086E+03  6.302767E+03  3.569609E+05  6.383615E+03 -9.363571E+04
       301   7 -3.720580E+06 -8.276009E+05 -8.065201E+05  3.531314E+05 -6.658025E+04 -3.784460E+04
       301   8 -3.099546E+06 -6.854386E+05 -6.300140E+05  1.949731E+05 -8.036137E+03 -1.106025E+05
       301   9 -2.477368E+06 -5.306181E+05 -4.876548E+05  3.595044E+05  5.071213E+04 -9.363643E+04
       301  10  3.070319E+06  8.635551E+05  8.562041E+05  3.608804E+05  4.738335E-10 -4.091607E-10
       301  11  2.434750E+06  6.779040E+05  6.503837E+05  1.963859E+05  1.014597E-10  3.098959E-10
       301  12  1.822681E+06  5.272185E+05  4.999433E+05  3.544040E+05 -3.407023E-10  5.047110E-10
       301  13 -3.303889E+05  1.840275E+04  2.525847E+04  3.569932E+05 -9.571269E-11  4.401000E-10
       301  14 -3.359402E+05 -3.504785E+03  1.042926E+04  1.956774E+05  9.910446E-10 -2.459865E-10
       301  15 -3.294872E+05 -1.543511E+03  6.286216E+03  3.569614E+05  3.259080E-10  5.778095E-10
       301  16 -3.720586E+06 -8.276037E+05 -8.065311E+05  3.531294E+05  2.586860E-10 -9.923171E-10
       301  17 -3.099550E+06 -6.854517E+05 -6.300371E+05  1.949724E+05 -3.246432E-10  2.115093E-10
       301  18 -2.477373E+06 -5.306282E+05 -4.876762E+05  3.595082E+05  5.071379E-10  6.607911E-10
       301  19  3.070330E+06  8.635595E+05  8.562264E+05  3.608772E+05 -1.025046E+05  3.812975E+04
       301  20  2.434754E+06  6.779174E+05  6.504086E+05  1.963831E+05 -3.209427E+04  1.105668E+05
       301  21  1.822685E+06  5.272283E+05  4.999625E+05  3.544069E+05  3.809753E+04  9.363461E+04
       301  22 -3.303881E+05  1.840439E+04  2.526178E+04  3.569927E+05 -1.773146E+04  3.798784E+04
       301  23 -3.359367E+05 -3.491616E+03  1.045251E+04  1.956763E+05 -1.198471E+04  1.105846E+05
       301  24 -3.294848E+05 -1.534086E+03  6.302767E+03  3.569609E+05 -6.383615E+03  9.363571E+04
       301  25 -3.720580E+06 -8.276009E+05 -8.065201E+05  3.531314E+05  6.658025E+04  3.784460E+04
       301  26 -3.099546E+06 -6.854386E+05 -6.300140E+05  1.949731E+05  8.036137E+03  1.106025E+05
       301  27 -2.477368E+06 -5.306181E+05 -4.876548E+05  3.595044E+05 -5.071213E+04  9.363643E+04
       302   1  1.221579E+06  3.832936E+05  3.619287E+05  3.590548E+05 -1.148962E+04 -6.522736E+04
       302   2  5.972846E+05  2.286263E+05  2.145975E+05  1.953408E+05 -1.504411E+04 -3.962316E+04
       302   3 -2.574759E+04  7.606882E+04  7.003083E+04  3.581150E+05 -1.863964E+04 -9.796509E+03
       302   4 -3.315225E+05  1.351751E+03  4.444492E+03  3.578386E+05  5.441788E+03 -6.522270E+04
       302   5 -3.315623E+05  1.710743E+02  9.947275E+02  1.945801E+05  4.925801E+03 -3.960323E+04
       302   6 -3.312166E+05  6.026214E+02 -1.774090E+03  3.578399E+05  4.365273E+03 -9.757092E+03
       302   7 -1.882394E+06 -3.807586E+05 -3.531985E+05  3.566242E+05  2.233123E+04 -6.521809E+04
       302   8 -1.259610E+06 -2.283443E+05 -2.126637E+05  1.938201E+05  2.486609E+04 -3.958333E+04
       302   9 -6.365985E+05 -7.486994E+04 -7.358342E+04  3.575648E+05  2.735893E+04 -9.717684E+03
       302  10  1.221578E+06  3.832890E+05  3.619204E+05  3.590542E+05  5.451704E-10  7.260486E-10
       302  11  5.972839E+05  2.286246E+05  2.145942E+05  1.953404E+05  1.480442E-10  8.191461E-10
       302  12 -2.574799E+04  7.606862E+04  7.003000E+04  3.581149E+05 -1.226270E-11 -6.269098E-10
       302  13 -3.315236E+05  1.347176E+03  4.436443E+03  3.578389E+05  4.596661E-10  4.438576E-10
       302  14 -3.315627E+05  1.693838E+02  9.917347E+02  1.945802E+05 -8.854295E-10  1.334511E-09
       302  15 -3.312166E+05  6.025141E+02 -1.774305E+03  3.578399E+05 -1.309469E-10 -7.033708E-10
       302  16 -1.882395E+06 -3.807633E+05 -3.532075E+05  3.566254E+05 -6.481712E-10  8.216493E-10
       302  17 -1.259611E+06 -2.283461E+05 -2.126678E+05  1.938209E+05 -3.057621E-13  5.773588E-11
       302  18 -6.365994E+05 -7.487025E+04 -7.358501E+04  3.575651E+05 -4.367932E-10 -4.415848E-10
       302  19  1.221579E+06  3.832936E+05  3.619287E+05  3.590548E+05  1.148962E+04  6.522736E+04
       302  20  5.972846E+05  2.286263E+05  2.145975E+05  1.953408E+05  1.504411E+04  3.962316E+04
       302  21 -2.574759E+04  7.606882E+04  7.003083E+04  3.581150E+05  1.863964E+04  9.796509E+03
       302  22 -3.315225E+05  1.351751E+03  4.444492E+03  3.578386E+05 -5.441788E+03  6.522270E+04
       302  23 -3.315623E+05  1.710743E+02  9.947275E+02  1.945801E+05 -4.925801E+03  3.960323E+04
       302  24 -3.312166E+05  6.026214E+02 -1.774090E+03  3.578399E+05 -4.365273E+03  9.757092E+03
       302  25 -1.882394E+06 -3.807586E+05 -3.531985E+05  3.566242E+05 -2.233123E+04  6.521809E+04
       302  26 -1.259610E+06 -2.283443E+05 -2.126637E+05  1.938201E+05 -2.486609E+04  3.958333E+04
       302  27 -6.365985E+05 -7.486994E+04 -7.358342E+04  3.575648E+05 -2.735893E+04  9.717684E+03
       303   1 -6.236949E+05 -7.082928E+04 -7.199730E+04  3.566076E+05 -1.824352E+04  9.157989E+03
       303   2 -1.245680E+06 -2.246119E+05 -2.179599E+05  1.942873E+05 -1.151571E+04  3.902642E+04
       303   3 -1.869537E+06 -3.833830E+05 -3.696616E+05  3.585121E+05 -4.750606E+03  6.468332E+04
       303   4 -3.316778E+05  1.357484E+03 -3.260564E+03  3.578375E+05  4.747188E+03  9.197433E+03
       303   5 -3.309799E+05  6.137046E+02 -7.373364E+03  1.945823E+05  8.443480E+03  3.904661E+04
       303   6 -3.319815E+05 -4.560178E+03 -1.509235E+04  3.578435E+05  1.218371E+04  6.468839E+04
       303   7 -3.958104E+04  7.353844E+04  6.547230E+04  3.590680E+05  2.774866E+04  9.236955E+03
       303   8  5.844964E+05  2.257810E+05  2.031592E+05  1.948774E+05  2.843188E+04  3.906680E+04
       303   9  1.207766E+06  3.740970E+05  3.393208E+05  3.571721E+05  2.915971E+04  6.469342E+04
       303  10 -6.236953E+05 -7.082946E+04 -7.199809E+04  3.566077E+05 -1.059746E-09 -3.262193E-11
       303  11 -1.245681E+06 -2.246136E+05 -2.179630E+05  1.942877E+05  1.273168E-10  1.971448E-11
       303  12 -1.869539E+06 -3.833875E+05 -3.696695E+05  3.585124E+05  6.822679E-10 -1.562784E-10
       303  13 -3.316779E+05  1.357387E+03 -3.260765E+03  3.578375E+05  1.306490E-10 -3.360570E-10
       303  14 -3.309804E+05  6.120487E+02 -7.376362E+03  1.945820E+05 -6.771042E-12 -5.134860E-10
       303  15 -3.319828E+05 -4.564710E+03 -1.510049E+04  3.578429E+05  5.979398E-10 -7.701426E-10
       303  16 -3.958189E+04  7.353815E+04  6.547069E+04  3.590678E+05  5.424931E-10 -4.293941E-10
       303  17  5.844951E+05  2.257791E+05  2.031548E+05  1.948765E+05  1.393273E-10  5.920240E-10
       303  18  1.207764E+06  3.740923E+05  3.393113E+05  3.571705E+05 -5.608231E-10  1.043160E-10
       303  19 -6.236949E+05 -7.082928E+04 -7.199730E+04  3.566076E+05  1.824352E+04 -9.157989E+03
       303  20 -1.245680E+06 -2.246119E+05 -2.179599E+05  1.942873E+05  1.151571E+04 -3.902642E+04
       303  21 -1.869537E+06 -3.833830E+05 -3.696616E+05  3.585121E+05  4.750606E+03 -6.468332E+04
       303  22 -3.316778E+05  1.357484E+03 -3.260564E+03  3.578375E+05 -4.747188E+03 -9.197433E+03
       303  23 -3.309799E+05  6.137046E+02 -7.373364E+03  1.945823E+05 -8.443480E+03 -3.904661E+04
       303  24 -3.319815E+05 -4.560178E+03 -1.509235E+04  3.578435E+05 -1.218371E+04 -6.468839E+04
       303  25 -3.958104E+04  7.353844E+04  6.547230E+04  3.590680E+05 -2.774866E+04 -9.236955E+03
       303  26  5.844964E+05  2.257810E+05  2.031592E+05  1.948774E+05 -2.843188E+04 -3.906680E+04
       303  27  1.207766E+06  3.740970E+05  3.393208E+05  3.571721E+05 -2.915971E+04 -6.469342E+04
       304   1 -2.469523E+06 -5.229895E+05 -5.096668E+05  3.478574E+05 -2.942828E+04  9.306520E+04
       304   2 -3.079465E+06 -6.766978E+05 -6.697790E+05  2.052193E+05  5.195629E+04  1.100420E+05
       304   3 -3.712734E+06 -9.033439E+05 -9.002540E+05  3.851661E+05  1.331123E+05  3.756475E+04
       304   4 -3.348975E+05  2.838123E+03 -1.874849E+04  3.569736E+05  1.486855E+04  9.306478E+04
       304   5 -3.291509E+05  1.977461E+03 -3.238997E+04  1.956726E+05  3.218217E+04  1.100231E+05
       304   6 -3.358099E+05 -6.046796E+04 -7.166741E+04  3.568908E+05  4.935299E+04  3.769872E+04
       304   7  1.803962E+06  5.283483E+05  4.718758E+05  3.661199E+05  5.931686E+04  9.306566E+04
       304   8  2.428177E+06  6.801202E+05  6.044935E+05  1.860835E+05  1.232051E+04  1.100049E+05
       304   9  3.051559E+06  7.815668E+05  7.561085E+05  3.284625E+05 -3.486372E+04  3.784010E+04
       304  10 -2.469526E+06 -5.229990E+05 -5.096847E+05  3.478596E+05  6.548289E-10 -3.699127E-10
       304  11 -3.079472E+06 -6.767115E+05 -6.698069E+05  2.052147E+05  1.016801E-09  1.780920E-10
       304  12 -3.712754E+06 -9.033502E+05 -9.002902E+05  3.851621E+05  1.728939E-10 -4.070516E-10
       304  13 -3.349001E+05  2.828766E+03 -1.876518E+04  3.569725E+05  2.061329E-10 -4.047733E-10
       304  14 -3.291553E+05  1.964188E+03 -3.241466E+04  1.956698E+05  8.988334E-10  2.019574E-11
       304  15 -3.358129E+05 -6.047014E+04 -7.167465E+04  3.568893E+05  3.081552E-11 -5.840912E-10
       304  16  1.803955E+06  5.283381E+05  4.718529E+05  3.661155E+05 -5.613059E-10 -7.266918E-10
       304  17  2.428174E+06  6.801072E+05  6.044705E+05  1.860824E+05 -1.049118E-09 -6.620910E-10
       304  18  3.051557E+06  7.815650E+05  7.561035E+05  3.284636E+05  4.913656E-10 -7.967133E-10
       304  19 -2.469523E+06 -5.229895E+05 -5.096668E+05  3.478574E+05  2.942828E+04 -9.306520E+04
       304  20 -3.079465E+06 -6.766978E+05 -6.697790E+05  2.052193E+05 -5.195629E+04 -1.100420E+05
       304  21 -3.712734E+06 -9.033439E+05 -9.002540E+05  3.851661E+05 -1.331123E+05 -3.756475E+04
       304  22 -3.348975E+05  2.838123E+03 -1.874849E+04  3.569736E+05 -1.486855E+04 -9.306478E+04
       304  23 -3.291509E+05  1.977461E+03 -3.238997E+04  1.956726E+05 -3.218217E+04 -1.100231E+05
       304  24 -3.358099E+05 -6.046796E+04 -7.166741E+04  3.568908E+05 -4.935299E+04 -3.769872E+04
       304  25  1.803962E+06  5.283483E+05  4.718758E+05  3.661199E+05 -5.931686E+04 -9.306566E+04
       304  26  2.428177E+06  6.801202E+05  6.044935E+05  1.860835E+05 -1.232051E+04 -1.100049E+05
       304  27  3.051559E+06  7.815668E+05  7.561085E+05  3.284625E+05  3.486372E+04 -3.784010E+04
       305   1  3.730868E+06  8.939769E+05  8.953032E+05  3.759319E+05  1.326560E+05 -3.784442E+04
       305   2  3.088848E+06  6.691048E+05  6.649716E+05  2.008461E+05  5.170329E+04 -1.095206E+05
       305   3  2.481459E+06  5.188075E+05  5.066852E+05  3.487627E+05 -2.902477E+04 -9.250394E+04
       305   4  3.529515E+05  5.519111E+04  7.052351E+04  3.568176E+05  4.849689E+04 -3.770936E+04
       305   5  3.417639E+05 -5.993074E+03  3.092729E+04  1.952380E+05  3.182027E+04 -1.095387E+05
       305   6  3.538601E+05 -3.522716E+03  1.903508E+04  3.567329E+05  1.528558E+04 -9.250460E+04
       305   7 -3.014591E+06 -7.844306E+05 -7.550608E+05  3.378089E+05 -3.520799E+04 -3.756888E+04
       305   8 -2.398367E+06 -6.816188E+05 -6.036179E+05  1.896552E+05  1.202397E+04 -1.095566E+05
       305   9 -1.769555E+06 -5.261664E+05 -4.689055E+05  3.646741E+05  5.944573E+04 -9.250410E+04
       305  10  3.730849E+06  8.939707E+05  8.952676E+05  3.759359E+05  5.904391E-11  6.379015E-10
       305  11  3.088842E+06  6.690912E+05  6.649440E+05  2.008507E+05 -4.841064E-10  1.075106E-09
       305  12  2.481456E+06  5.187981E+05  5.066676E+05  3.487606E+05  1.621097E-10 -5.634284E-10
       305  13  3.529486E+05  5.518895E+04  7.051642E+04  3.568191E+05  1.427644E-10 -9.184951E-11
       305  14  3.417596E+05 -6.006233E+03  3.090283E+04  1.952408E+05  8.081538E-10 -9.665410E-10
       305  15  3.538575E+05 -3.531970E+03  1.901856E+04  3.567341E+05  2.015042E-10 -2.558582E-10
       305  16 -3.014592E+06 -7.844324E+05 -7.550658E+05  3.378079E+05  1.061902E-09  3.037577E-10
       305  17 -2.398371E+06 -6.816317E+05 -6.036407E+05  1.896562E+05 -1.358971E-09 -1.006816E-09
       305  18 -1.769561E+06 -5.261766E+05 -4.689282E+05  3.646785E+05  1.808003E-10 -2.948715E-11
       305  19  3.730868E+06  8.939769E+05  8.953032E+05  3.759319E+05 -1.326560E+05  3.784442E+04
       305  20  3.088848E+06  6.691048E+05  6.649716E+05  2.008461E+05 -5.170329E+04  1.095206E+05
       305  21  2.481459E+06  5.188075E+05  5.066852E+05  3.487627E+05  2.902477E+04  9.250394E+04
       305  22  3.529515E+05  5.519111E+04  7.052351E+04  3.568176E+05 -4.849689E+04  3.770936E+04
       305  23  3.417639E+05 -5.993074E+03  3.092729E+04  1.952380E+05 -3.182027E+04  1.095387E+05
       305  24  3.538601E+05 -3.522716E+03  1.903508E+04  3.567329E+05 -1.528558E+04  9.250460E+04
       305  25 -3.014591E+06 -7.844306E+05 -7.550608E+05  3.378089E+05  3.520799E+04  3.756888E+04
       305  26 -2.398367E+06 -6.816188E+05 -6.036179E+05  1.896552E+05 -1.202397E+04  1.095566E+05
       305  27 -1.769555E+06 -5.261664E+05 -4.689055E+05  3.646741E+05 -5.944573E+04  9.250410E+04
       306   1  1.879482E+06  3.800593E+05  3.668672E+05  3.594262E+05 -4.475093E+03 -6.421140E+04
       306   2  1.256636E+06  2.230128E+05  2.160672E+05  1.955923E+05 -1.126795E+04 -3.868314E+04
       306   3  6.362813E+05  7.134120E+04  7.094800E+04  3.570071E+05 -1.809741E+04 -8.988955E+03
       306   4  3.495773E+05  4.101570E+03  1.499233E+04  3.572415E+05  1.242774E+04 -6.420646E+04
       306   5  3.489180E+05 -8.057441E+01  7.477074E+03  1.946048E+05  8.641931E+03 -3.866333E+04
       306   6  3.498764E+05  6.217608E+02  3.586030E+03  3.572455E+05  4.812815E+03 -8.950195E+03
       306   7 -1.178166E+06 -3.720193E+05 -3.370364E+05  3.550611E+05  2.928933E+04 -6.420162E+04
       306   8 -5.580379E+05 -2.232312E+05 -2.011660E+05  1.936185E+05  2.852297E+04 -3.864357E+04
       306   9  6.354810E+04 -7.010325E+04 -6.377960E+04  3.574837E+05  2.771255E+04 -8.911405E+03
       306  10  1.879481E+06  3.800548E+05  3.668594E+05  3.594260E+05 -3.434646E-10 -1.666978E-10
       306  11  1.256636E+06  2.230112E+05  2.160642E+05  1.955919E+05  1.480192E-10  8.071184E-11
       306  12  6.362809E+05  7.134103E+04  7.094723E+04  3.570070E+05  7.634638E-10 -4.383827E-10
       306  13  3.495760E+05  4.097100E+03  1.498429E+04  3.572422E+05 -2.183901E-10 -4.812895E-10
       306  14  3.489175E+05 -8.220008E+01  7.474123E+03  1.946051E+05  2.411373E-10  7.208285E-10
       306  15  3.498764E+05  6.216685E+02  3.585836E+03  3.572455E+05  9.121347E-11  4.893870E-10
       306  16 -1.178168E+06 -3.720240E+05 -3.370457E+05  3.550627E+05  8.182239E-10  1.034807E-10
       306  17 -5.580392E+05 -2.232330E+05 -2.011704E+05  1.936194E+05  2.992267E-10 -8.250712E-10
       306  18  6.354726E+04 -7.010354E+04 -6.378120E+04  3.574839E+05 -6.598710E-10 -1.817340E-10
       306  19  1.879482E+06  3.800593E+05  3.668672E+05  3.594262E+05  4.475093E+03  6.421140E+04
       306  20  1.256636E+06  2.230128E+05  2.160672E+05  1.955923E+05  1.126795E+04  3.868314E+04
       306  21  6.362813E+05  7.134120E+04  7.094800E+04  3.570071E+05  1.809741E+04  8.988955E+03
       306  22  3.495773E+05  4.101570E+03  1.499233E+04  3.572415E+05 -1.242774E+04  6.420646E+04
       306  23  3.489180E+05 -8.057441E+01  7.477074E+03  1.946048E+05 -8.641931E+03  3.866333E+04
       306  24  3.498764E+05  6.217608E+02  3.586030E+03  3.572455E+05 -4.812815E+03  8.950195E+03
       306  25 -1.178166E+06 -3.720193E+05 -3.370364E+05  3.550611E+05 -2.928933E+04  6.420162E+04
       306  26 -5.580379E+05 -2.232312E+05 -2.011660E+05  1.936185E+05 -2.852297E+04  3.864357E+04
       306  27  6.354810E+04 -7.010325E+04 -6.377960E+04  3.574837E+05 -2.771255E+04  8.911405E+03
       307   1  4.110039E+04 -7.476595E+04 -7.031126E+04  3.564938E+05 -1.865784E+04  9.875244E+03
       307   2 -5.794752E+05 -2.282247E+05 -2.145539E+05  1.940680E+05 -1.522085E+04  3.960629E+04
       307   3 -1.200616E+06 -3.833609E+05 -3.615487E+05  3.569615E+05 -1.174303E+04  6.513792E+04
       307   4  3.494238E+05  1.372645E+03  2.109757E+03  3.572463E+05  4.251703E+03  9.913897E+03
       307   5  3.494737E+05  3.378578E+02 -8.509881E+02  1.946031E+05  4.659446E+03  3.962563E+04
       307   6  3.491196E+05 -1.822729E+03 -4.440671E+03  3.572495E+05  5.111468E+03  6.514214E+04
       307   7  6.578359E+05  7.750476E+04  7.452623E+04  3.579991E+05  2.717255E+04  9.952592E+03
       307   8  1.279222E+06  2.288404E+05  2.127963E+05  1.951387E+05  2.456927E+04  3.964499E+04
       307   9  1.901080E+06  3.795475E+05  3.525090E+05  3.575371E+05  2.200775E+04  6.514637E+04
       307  10  4.109999E+04 -7.476615E+04 -7.031210E+04  3.564940E+05 -1.282162E-09 -9.597319E-10
       307  11 -5.794758E+05 -2.282265E+05 -2.145573E+05  1.940685E+05 -6.586336E-11  1.535463E-09
       307  12 -1.200617E+06 -3.833655E+05 -3.615569E+05  3.569621E+05  1.012235E-09  1.242745E-10
       307  13  3.494238E+05  1.372534E+03  2.109538E+03  3.572463E+05  1.724139E-11 -5.769659E-10
       307  14  3.494732E+05  3.361656E+02 -8.539798E+02  1.946030E+05 -4.715302E-10 -5.911015E-10
       307  15  3.491185E+05 -1.827294E+03 -4.448695E+03  3.572492E+05 -2.324248E-10  2.517723E-10
       307  16  6.578350E+05  7.750445E+04  7.452466E+04  3.579989E+05  8.288761E-10 -1.149062E-10
       307  17  1.279221E+06  2.288385E+05  2.127922E+05  1.951379E+05 -2.815666E-10  4.390537E-10
       307  18  1.901078E+06  3.795428E+05  3.525001E+05  3.575359E+05 -1.250202E-09  3.549413E-10
       307  19  4.110039E+04 -7.476595E+04 -7.031126E+04  3.564938E+05  1.865784E+04 -9.875244E+03
       307  20 -5.794752E+05 -2.282247E+05 -2.145539E+05  1.940680E+05  1.522085E+04 -3.960629E+04
       307  21 -1.200616E+06 -3.833609E+05 -3.615487E+05  3.569615E+05  1.174303E+04 -6.513792E+04
       307  22  3.494238E+05  1.372645E+03  2.109757E+03  3.572463E+05 -4.251703E+03 -9.913897E+03
       307  23  3.494737E+05  3.378578E+02 -8.509881E+02  1.946031E+05 -4.659446E+03 -3.962563E+04
       307  24  3.491196E+05 -1.822729E+03 -4.440671E+03  3.572495E+05 -5.111468E+03 -6.514214E+04
       307  25  6.578359E+05  7.750476E+04  7.452623E+04  3.579991E+05 -2.717255E+04 -9.952592E+03
       307  26  1.279222E+06  2.288404E+05  2.127963E+05  1.951387E+05 -2.456927E+04 -3.964499E+04
       307  27  1.901080E+06  3.795475E+05  3.525090E+05  3.575371E+05 -2.200775E+04 -6.514637E+04
       308   1 -1.796983E+06 -5.273164E+05 -4.988926E+05  3.531186E+05 -3.847644E+04  9.350625E+04
       308   2 -2.413665E+06 -6.816930E+05 -6.513353E+05  2.000323E+05  3.208170E+04  1.104340E+05
       308   3 -3.042066E+06 -8.686254E+05 -8.569166E+05  3.698778E+05  1.024210E+05  3.772778E+04
       308   4  3.484871E+05  7.735663E+02 -5.877921E+03  3.567150E+05  5.863253E+03  9.350416E+04
       308   5  3.484438E+05 -6.265665E+02 -1.169598E+04  1.952727E+05  1.212895E+04  1.104164E+05
       308   6  3.475850E+05 -2.329387E+04 -2.585905E+04  3.566850E+05  1.824759E+04  3.786995E+04
       308   7  2.498229E+06  5.285432E+05  4.868401E+05  3.603223E+05  5.035523E+04  9.350257E+04
       308   8  3.117618E+06  6.799035E+05  6.274344E+05  1.904921E+05 -7.912266E+03  1.103992E+05
       308   9  3.747746E+06  8.211895E+05  8.043829E+05  3.434218E+05 -6.638634E+04  3.801543E+04
       308  10 -1.796987E+06 -5.273262E+05 -4.989118E+05  3.531215E+05  3.148836E-10 -4.184543E-10
       308  11 -2.413669E+06 -6.817064E+05 -6.513602E+05  2.000295E+05  6.851361E-11 -1.826271E-10
       308  12 -3.042078E+06 -8.686297E+05 -8.569391E+05  3.698747E+05 -7.848997E-11  5.587694E-10
       308  13  3.484847E+05  7.641675E+02 -5.894417E+03  3.567145E+05 -1.474208E-10 -1.403418E-11
       308  14  3.484404E+05 -6.396995E+02 -1.171917E+04  1.952716E+05  3.832672E-10 -1.972942E-09
       308  15  3.475843E+05 -2.329550E+04 -2.586237E+04  3.566845E+05  5.201221E-10  1.313872E-10
       308  16  2.498224E+06  5.285331E+05  4.868190E+05  3.603185E+05  2.096911E-10  5.648657E-11
       308  17  3.117615E+06  6.798904E+05  6.274113E+05  1.904928E+05  8.826035E-10 -7.296335E-10
       308  18  3.747741E+06  8.211868E+05  8.043719E+05  3.434239E+05  1.198699E-10  5.363363E-10
       308  19 -1.796983E+06 -5.273164E+05 -4.988926E+05  3.531186E+05  3.847644E+04 -9.350625E+04
       308  20 -2.413665E+06 -6.816930E+05 -6.513353E+05  2.000323E+05 -3.208170E+04 -1.104340E+05
       308  21 -3.042066E+06 -8.686254E+05 -8.569166E+05  3.698778E+05 -1.024210E+05 -3.772778E+04
       308  22  3.484871E+05  7.735663E+02 -5.877921E+03  3.567150E+05 -5.863253E+03 -9.350416E+04
       308  23  3.484438E+05 -6.265665E+02 -1.169598E+04  1.952727E+05 -1.212895E+04 -1.104164E+05
       308  24  3.475850E+05 -2.329387E+04 -2.585905E+04  3.566850E+05 -1.824759E+04 -3.786995E+04
       308  25  2.498229E+06  5.285432E+05  4.868401E+05  3.603223E+05 -5.035523E+04 -9.350257E+04
       308  26  3.117618E+06  6.799035E+05  6.274344E+05  1.904921E+05  7.912266E+03 -1.103992E+05
       308  27  3.747746E+06  8.211895E+05  8.043829E+05  3.434218E+05  6.638634E+04 -3.801543E+04
       309   1  4.529681E+06  9.575521E+05  9.678603E+05  4.041177E+05  1.684759E+05 -3.894138E+04
       309   2  3.859016E+06  6.846600E+05  7.043501E+05  2.123007E+05  7.378134E+04 -1.124873E+05
       309   3  3.235854E+06  5.297221E+05  5.326192E+05  3.548762E+05 -2.066418E+04 -9.483732E+04
       309   4  1.052174E+06  9.484060E+04  1.194774E+05  3.687777E+05  8.184093E+04 -3.880702E+04
       309   5  1.034740E+06 -8.835012E+03  5.301442E+04  2.014773E+05  5.335952E+04 -1.125079E+05
       309   6  1.053181E+06 -5.686649E+03  3.276544E+04  3.686346E+05  2.502510E+04 -9.483637E+04
       309   7 -2.414349E+06 -7.687517E+05 -7.297561E+05  3.336369E+05 -4.313630E+03 -3.866262E+04
       309   8 -1.782195E+06 -7.028865E+05 -5.988497E+05  1.907036E+05  3.302901E+04 -1.125279E+05
       309   9 -1.125094E+06 -5.414242E+05 -4.673932E+05  3.823426E+05  7.055561E+04 -9.483337E+04
       309  10  4.529650E+06  9.575430E+05  9.678044E+05  4.041230E+05  6.996238E-10 -3.603962E-10
       309  11  3.859007E+06  6.846449E+05  7.043161E+05  2.123074E+05 -4.262819E-11  3.395812E-11
       309  12  3.235851E+06  5.297123E+05  5.326014E+05  3.548747E+05  1.184513E-09 -1.421395E-09
       309  13  1.052167E+06  9.483719E+04  1.194620E+05  3.687803E+05  4.292020E-10 -1.422052E-11
       309  14  1.034734E+06 -8.849377E+03  5.298527E+04  2.014822E+05  2.974936E-10  1.020572E-09
       309  15  1.053178E+06 -5.696481E+03  3.274735E+04  3.686365E+05  3.481901E-10 -1.028061E-09
       309  16 -2.414350E+06 -7.687533E+05 -7.297589E+05  3.336367E+05  6.248940E-10  2.497387E-10
       309  17 -1.782199E+06 -7.029004E+05 -5.988756E+05  1.907066E+05 -1.806771E-09  2.221842E-10
       309  18 -1.125102E+06 -5.414352E+05 -4.674195E+05  3.823480E+05 -1.134196E-09 -7.902926E-10
       309  19  4.529681E+06  9.575521E+05  9.678603E+05  4.041177E+05 -1.684759E+05  3.894138E+04
       309  20  3.859016E+06  6.846600E+05  7.043501E+05  2.123007E+05 -7.378134E+04  1.124873E+05
       309  21  3.235854E+06  5.297221E+05  5.326192E+05  3.548762E+05  2.066418E+04  9.483732E+04
       309  22  1.052174E+06  9.484060E+04  1.194774E+05  3.687777E+05 -8.184093E+04  3.880702E+04
       309  23  1.034740E+06 -8.835012E+03  5.301442E+04  2.014773E+05 -5.335952E+04  1.125079E+05
       309  24  1.053181E+06 -5.686649E+03  3.276544E+04  3.686346E+05 -2.502510E+04  9.483637E+04
       309  25 -2.414349E+06 -7.687517E+05 -7.297561E+05  3.336369E+05  4.313630E+03  3.866262E+04
       309  26 -1.782195E+06 -7.028865E+05 -5.988497E+05  1.907036E+05 -3.302901E+04  1.125279E+05
       309  27 -1.125094E+06 -5.414242E+05 -4.673932E+05  3.823426E+05 -7.055561E+04  9.483337E+04
       310   1  2.612469E+06  3.916140E+05  3.862138E+05  3.721126E+05  2.661673E+03 -6.567878E+04
       310   2  1.969948E+06  2.268026E+05  2.266880E+05  2.025809E+05 -7.668619E+03 -3.937430E+04
       310   3  1.331256E+06  7.092103E+04  7.601274E+04  3.680634E+05 -1.803380E+04 -8.810099E+03
       310   4  1.046410E+06  7.077170E+03  2.631697E+04  3.687967E+05  2.009753E+04 -6.567287E+04
       310   5  1.045111E+06 -3.207982E+02  1.433027E+04  2.012786E+05  1.285194E+04 -3.935270E+04
       310   6  1.046729E+06  7.112247E+02  9.091252E+03  3.688039E+05  5.560971E+03 -8.768558E+03
       310   7 -5.173861E+05 -3.776304E+05 -3.337407E+05  3.654879E+05  3.748985E+04 -6.566713E+04
       310   8  1.210655E+05 -2.275035E+05 -1.980823E+05  1.999779E+05  3.334225E+04 -3.933117E+04
       310   9  7.622787E+05 -6.950404E+04 -5.783371E+04  3.695439E+05  2.914501E+04 -8.726948E+03
       310  10  2.612468E+06  3.916094E+05  3.862057E+05  3.721128E+05 -4.753206E-10 -9.732094E-10
       310  11  1.969947E+06  2.268009E+05  2.266849E+05  2.025807E+05  4.481506E-10  8.771022E-10
       310  12  1.331255E+06  7.092086E+04  7.601199E+04  3.680633E+05  1.992520E-10 -4.735128E-10
       310  13  1.046409E+06  7.072427E+03  2.630810E+04  3.687977E+05  8.492648E-12 -9.232608E-10
       310  14  1.045111E+06 -3.225064E+02  1.432704E+04  2.012790E+05 -3.786421E-10 -2.577313E-10
       310  15  1.046729E+06  7.111337E+02  9.091049E+03  3.688039E+05 -6.120201E-10 -9.627088E-10
       310  16 -5.173888E+05 -3.776354E+05 -3.337515E+05  3.654899E+05  2.653814E-10 -6.010786E-10
       310  17  1.210639E+05 -2.275055E+05 -1.980873E+05  1.999790E+05  2.221176E-10 -1.578155E-09
       310  18  7.622777E+05 -6.950435E+04 -5.783545E+04  3.695441E+05 -4.638825E-10  2.357580E-10
       310  19  2.612469E+06  3.916140E+05  3.862138E+05  3.721126E+05 -2.661673E+03  6.567878E+04
       310  20  1.969948E+06  2.268026E+05  2.266880E+05  2.025809E+05  7.668619E+03  3.937430E+04
       310  21  1.331256E+06  7.092103E+04  7.601274E+04  3.680634E+05  1.803380E+04  8.810099E+03
       310  22  1.046410E+06  7.077170E+03  2.631697E+04  3.687967E+05 -2.009753E+04  6.567287E+04
       310  23  1.045111E+06 -3.207982E+02  1.433027E+04  2.012786E+05 -1.285194E+04  3.935270E+04
       310  24  1.046729E+06  7.112247E+02  9.091252E+03  3.688039E+05 -5.560971E+03  8.768558E+03
       310  25 -5.173861E+05 -3.776304E+05 -3.337407E+05  3.654879E+05 -3.748985E+04  6.566713E+04
       310  26  1.210655E+05 -2.275035E+05 -1.980823E+05  1.999779E+05 -3.334225E+04  3.933117E+04
       310  27  7.622787E+05 -6.950404E+04 -5.783371E+04  3.695439E+05 -2.914501E+04  8.726948E+03
       311   1  7.186681E+05 -7.931505E+04 -6.930001E+04  3.684745E+05 -1.956827E+04  1.060224E+04
       311   2  7.847693E+04 -2.376880E+05 -2.168182E+05  2.004419E+05 -1.925268E+04  4.120507E+04
       311   3 -5.610747E+05 -3.945579E+05 -3.642686E+05  3.675129E+05 -1.888995E+04  6.748886E+04
       311   4  1.046255E+06  1.505703E+03  7.530680E+03  3.688079E+05  4.033661E+03  1.064360E+04
       311   5  1.045687E+06  1.099203E+02  5.516748E+03  2.012728E+05  1.227348E+03  4.122574E+04
       311   6  1.045930E+06  7.874880E+02  5.758728E+03  3.688088E+05 -1.531515E+03  6.749332E+04
       311   7  1.373941E+06  8.231913E+04  8.435613E+04  3.691413E+05  2.764795E+04  1.068497E+04
       311   8  2.013764E+06  2.378428E+05  2.277915E+05  2.021047E+05  2.173902E+04  4.124644E+04
       311   9  2.655324E+06  3.959526E+05  3.756161E+05  3.701068E+05  1.587152E+04  6.749784E+04
       311  10  7.186677E+05 -7.931527E+04 -6.930094E+04  3.684747E+05  9.751659E-10  8.987895E-10
       311  11  7.847607E+04 -2.376899E+05 -2.168221E+05  2.004426E+05 -6.293156E-10  3.665646E-10
       311  12 -5.610763E+05 -3.945629E+05 -3.642779E+05  3.675139E+05 -1.315901E-09  1.025377E-09
       311  13  1.046255E+06  1.505577E+03  7.530436E+03  3.688078E+05  2.527298E-10 -2.645008E-10
       311  14  1.045687E+06  1.080940E+02  5.513549E+03  2.012728E+05 -1.099652E-10  2.938577E-10
       311  15  1.045929E+06  7.825933E+02  5.750159E+03  3.688088E+05  1.769415E-10  1.201677E-09
       311  16  1.373940E+06  8.231880E+04  8.435449E+04  3.691411E+05 -1.277593E-09 -7.580126E-10
       311  17  2.013763E+06  2.378409E+05  2.277874E+05  2.021039E+05  7.366134E-10 -6.783649E-10
       311  18  2.655323E+06  3.959477E+05  3.756071E+05  3.701059E+05  1.119401E-09  8.008340E-11
       311  19  7.186681E+05 -7.931505E+04 -6.930001E+04  3.684745E+05  1.956827E+04 -1.060224E+04
       311  20  7.847693E+04 -2.376880E+05 -2.168182E+05  2.004419E+05  1.925268E+04 -4.120507E+04
       311  21 -5.610747E+05 -3.945579E+05 -3.642686E+05  3.675129E+05  1.888995E+04 -6.748886E+04
       311  22  1.046255E+06  1.505703E+03  7.530680E+03  3.688079E+05 -4.033661E+03 -1.064360E+04
       311  23  1.045687E+06  1.099203E+02  5.516748E+03  2.012728E+05 -1.227348E+03 -4.122574E+04
       311  24  1.045930E+06  7.874880E+02  5.758728E+03  3.688088E+05  1.531515E+03 -6.749332E+04
       311  25  1.373941E+06  8.231913E+04  8.435613E+04  3.691413E+05 -2.764795E+04 -1.068497E+04
       311  26  2.013764E+06  2.378428E+05  2.277915E+05  2.021047E+05 -2.173902E+04 -4.124644E+04
       311  27  2.655324E+06  3.959526E+05  3.756161E+05  3.701068E+05 -1.587152E+04 -6.749784E+04
       312   1 -1.174119E+06 -5.475962E+05 -5.037051E+05  3.701753E+05 -4.848593E+04  9.678658E+04
       312   2 -1.818519E+06 -7.079643E+05 -6.539851E+05  2.017419E+05  1.387641E+04  1.142760E+05
       312   3 -2.463620E+06 -8.628785E+05 -8.424362E+05  3.677355E+05  7.601602E+04  3.907992E+04
       312   4  1.047508E+06 -1.170030E+03  6.413097E+03  3.686395E+05 -2.637864E+03  9.678492E+04
       312   5  1.041774E+06 -3.200095E+03  7.918132E+03  2.014840E+05 -6.844948E+03  1.142573E+05
       312   6  1.046534E+06  1.180457E+04  1.753974E+04  3.686626E+05 -1.120910E+04  3.923406E+04
       312   7  3.273711E+06  5.449132E+05  5.162138E+05  3.670964E+05  4.337315E+04  9.678302E+04
       312   8  3.909634E+06  7.009898E+05  6.692765E+05  2.012252E+05 -2.766120E+04  1.142388E+05
       312   9  4.567946E+06  8.855792E+05  8.766426E+05  3.695973E+05 -9.892764E+04  3.938764E+04
       312  10 -1.174124E+06 -5.476069E+05 -5.037272E+05  3.701791E+05  1.458749E-09  1.685720E-09
       312  11 -1.818523E+06 -7.079784E+05 -6.540100E+05  2.017406E+05  7.776297E-10  1.120666E-09
       312  12 -2.463627E+06 -8.628817E+05 -8.424500E+05  3.677331E+05 -1.332242E-10  1.174347E-09
       312  13  1.047506E+06 -1.180096E+03  6.395471E+03  3.686398E+05 -8.882624E-11  6.717628E-10
       312  14  1.041770E+06 -3.214133E+03  7.893498E+03  2.014846E+05  1.127981E-09 -1.247638E-09
       312  15  1.046534E+06  1.180288E+04  1.753661E+04  3.686630E+05  3.450642E-10 -1.588752E-09
       312  16  3.273706E+06  5.449027E+05  5.161927E+05  3.670930E+05 -7.715722E-11  1.441739E-10
       312  17  3.909630E+06  7.009756E+05  6.692505E+05  2.012278E+05 -6.143755E-10 -1.410612E-09
       312  18  4.567935E+06  8.855749E+05  8.766214E+05  3.696004E+05  2.118839E-09 -2.643676E-09
       312  19 -1.174119E+06 -5.475962E+05 -5.037051E+05  3.701753E+05  4.848593E+04 -9.678658E+04
       312  20 -1.818519E+06 -7.079643E+05 -6.539851E+05  2.017419E+05 -1.387641E+04 -1.142760E+05
       312  21 -2.463620E+06 -8.628785E+05 -8.424362E+05  3.677355E+05 -7.601602E+04 -3.907992E+04
       312  22  1.047508E+06 -1.170030E+03  6.413097E+03  3.686395E+05  2.637864E+03 -9.678492E+04
       312  23  1.041774E+06 -3.200095E+03  7.918132E+03  2.014840E+05  6.844948E+03 -1.142573E+05
       312  24  1.046534E+06  1.180457E+04  1.753974E+04  3.686626E+05  1.120910E+04 -3.923406E+04
       312  25  3.273711E+06  5.449132E+05  5.162138E+05  3.670964E+05 -4.337315E+04 -9.678302E+04
       312  26  3.909634E+06  7.009898E+05  6.692765E+05  2.012252E+05  2.766120E+04 -1.142388E+05
       312  27  4.567946E+06  8.855792E+05  8.766426E+05  3.695973E+05  9.892764E+04 -3.938764E+04
       313   1  5.628632E+06  1.085889E+06  1.106033E+06  4.711867E+05  2.117075E+05 -4.257396E+04
       313   2  4.863183E+06  7.433076E+05  7.896428E+05  2.448633E+05  9.592911E+04 -1.224318E+05
       313   3  4.161387E+06  5.685480E+05  5.912099E+05  3.976856E+05 -1.955014E+04 -1.020403E+05
       313   4  1.807959E+06  1.390932E+05  1.748331E+05  4.176814E+05  1.169249E+05 -4.243915E+04
       313   5  1.783194E+06 -1.224058E+04  7.998710E+04  2.279744E+05  7.410927E+04 -1.224617E+05
       313   6  1.809292E+06 -7.867013E+03  5.304094E+04  4.174813E+05  3.145015E+04 -1.020281E+05
       313   7 -1.999475E+06 -8.087582E+05 -7.573910E+05  3.645054E+05  2.271829E+04 -4.228790E+04
       313   8 -1.288079E+06 -7.684487E+05 -6.302958E+05  2.111694E+05  5.239547E+04 -1.224905E+05
       313   9 -5.377015E+05 -5.846623E+05 -4.854806E+05  4.371993E+05  8.225968E+04 -1.020126E+05
       313  10  5.628584E+06  1.085875E+06  1.105946E+06  4.711940E+05  2.008071E-10 -2.955529E-10
       313  11  4.863170E+06  7.432890E+05  7.895974E+05  2.448727E+05  3.535456E-11 -1.294301E-09
       313  12  4.161384E+06  5.685367E+05  5.911896E+05  3.976840E+05 -5.016709E-10  2.401099E-10
       313  13  1.807944E+06  1.390876E+05  1.748041E+05  4.176854E+05 -7.735906E-10  2.019493E-09
       313  14  1.783184E+06 -1.225817E+04  7.994859E+04  2.279817E+05 -1.464789E-10  6.052310E-11
       313  15  1.809288E+06 -7.878468E+03  5.301950E+04  4.174839E+05  9.748067E-10  5.201856E-10
       313  16 -1.999476E+06 -8.087603E+05 -7.573953E+05  3.645062E+05  5.786921E-10 -5.142354E-10
       313  17 -1.288086E+06 -7.684656E+05 -6.303292E+05  2.111745E+05 -1.877379E-10  1.464177E-10
       313  18 -5.377116E+05 -5.846753E+05 -4.855129E+05  4.372061E+05  4.675245E-10 -4.385455E-10
       313  19  5.628632E+06  1.085889E+06  1.106033E+06  4.711867E+05 -2.117075E+05  4.257396E+04
       313  20  4.863183E+06  7.433076E+05  7.896428E+05  2.448633E+05 -9.592911E+04  1.224318E+05
       313  21  4.161387E+06  5.685480E+05  5.912099E+05  3.976856E+05  1.955014E+04  1.020403E+05
       313  22  1.807959E+06  1.390932E+05  1.748331E+05  4.176814E+05 -1.169249E+05  4.243915E+04
       313  23  1.783194E+06 -1.224058E+04  7.998710E+04  2.279744E+05 -7.410927E+04  1.224617E+05
       313  24  1.809292E+06 -7.867013E+03  5.304094E+04  4.174813E+05 -3.145015E+04  1.020281E+05
       313  25 -1.999475E+06 -8.087582E+05 -7.573910E+05  3.645054E+05 -2.271829E+04  4.228790E+04
       313  26 -1.288079E+06 -7.684487E+05 -6.302958E+05  2.111694E+05 -5.239547E+04  1.224905E+05
       313  27 -5.377015E+05 -5.846623E+05 -4.854806E+05  4.371993E+05 -8.225968E+04  1.020126E+05
       314   1  3.455264E+06  4.165957E+05  4.256539E+05  4.225514E+05  3.298535E+03 -6.941509E+04
       314   2  2.728850E+06  2.279469E+05  2.474922E+05  2.301676E+05 -1.704591E+04 -3.960373E+04
       314   3  2.008952E+06  5.444018E+04  8.615193E+04  4.157926E+05 -3.741988E+04 -5.153636E+03
       314   4  1.799866E+06  1.048278E+04  4.559216E+04  4.172637E+05  2.315259E+04 -6.940276E+04
       314   5  1.797312E+06 -6.361315E+02  3.375850E+04  2.282478E+05  6.184533E+03 -3.957288E+04
       314   6  1.800233E+06  2.855013E+03  3.646272E+04  4.172722E+05 -1.083614E+04 -5.099460E+03
       314   7  1.469912E+05 -3.958203E+05 -3.346487E+05  4.119887E+05  4.295430E+04 -6.939075E+04
       314   8  8.665757E+05 -2.292792E+05 -1.800304E+05  2.263305E+05  2.938053E+04 -3.954215E+04
       314   9  1.591556E+06 -4.873290E+04 -1.322688E+04  4.187513E+05  1.573874E+04 -5.045147E+03
       314  10  3.455263E+06  4.165905E+05  4.256448E+05  4.225516E+05 -1.338028E-09  1.538625E-10
       314  11  2.728849E+06  2.279452E+05  2.474887E+05  2.301671E+05  7.781649E-10  7.895507E-10
       314  12  2.008951E+06  5.443977E+04  8.614926E+04  4.157925E+05  1.205368E-09 -3.981089E-10
       314  13  1.799864E+06  1.047746E+04  4.558209E+04  4.172650E+05  7.306465E-10  1.260002E-09
       314  14  1.797312E+06 -6.378249E+02  3.375548E+04  2.282480E+05  2.894863E-10  2.502346E-09
       314  15  1.800233E+06  2.854953E+03  3.646245E+04  4.172722E+05 -4.460877E-10 -1.188167E-09
       314  16  1.469879E+05 -3.958260E+05 -3.346613E+05  4.119911E+05 -1.343271E-10 -7.796540E-10
       314  17  8.665743E+05 -2.292811E+05 -1.800349E+05  2.263314E+05  1.835366E-10  2.628359E-09
       314  18  1.591555E+06 -4.873299E+04 -1.322740E+04  4.187514E+05 -1.378272E-09  7.696968E-11
       314  19  3.455264E+06  4.165957E+05  4.256539E+05  4.225514E+05 -3.298535E+03  6.941509E+04
       314  20  2.728850E+06  2.279469E+05  2.474922E+05  2.301676E+05  1.704591E+04  3.960373E+04
       314  21  2.008952E+06  5.444018E+04  8.615193E+04  4.157926E+05  3.741988E+04  5.153636E+03
       314  22  1.799866E+06  1.048278E+04  4.559216E+04  4.172637E+05 -2.315259E+04  6.940276E+04
       314  23  1.797312E+06 -6.361315E+02  3.375850E+04  2.282478E+05 -6.184533E+03  3.957288E+04
       314  24  1.800233E+06  2.855013E+03  3.646272E+04  4.172722E+05  1.083614E+04  5.099460E+03
       314  25  1.469912E+05 -3.958203E+05 -3.346487E+05  4.119887E+05 -4.295430E+04  6.939075E+04
       314  26  8.665757E+05 -2.292792E+05 -1.800304E+05  2.263305E+05 -2.938053E+04  3.954215E+04
       314  27  1.591556E+06 -4.873290E+04 -1.322688E+04  4.187513E+05 -1.573874E+04  5.045147E+03
       315   1  1.320262E+06 -1.180510E+05 -7.114296E+04  4.214809E+05 -4.442097E+04  1.672370E+04
       315   2  5.913939E+05 -2.979740E+05 -2.166742E+05  2.247056E+05 -7.106916E+04  5.121182E+04
       315   3 -1.252210E+05 -4.451378E+05 -3.367496E+05  4.063100E+05 -9.762164E+04  8.071582E+04
       315   4  1.801715E+06  5.085881E+02  4.112485E+04  4.173420E+05 -1.774971E+04  1.677686E+04
       315   5  1.795278E+06 -2.186630E+03  5.985165E+04  2.281633E+05 -4.805500E+04  5.123588E+04
       315   6  1.801194E+06  2.850078E+04  1.065406E+05  4.173102E+05 -7.829486E+04  8.071637E+04
       315   7  2.283383E+06  1.190523E+05  1.533797E+05  4.131998E+05  8.942061E+03  1.682964E+04
       315   8  3.000502E+06  2.935001E+05  3.362839E+05  2.316271E+05 -2.499654E+04  5.126018E+04
       315   9  3.731039E+06  5.018811E+05  5.495868E+05  4.283430E+05 -5.890830E+04  8.071761E+04
       315  10  1.320260E+06 -1.180519E+05 -7.114719E+04  4.214815E+05  6.572441E-10  1.515278E-09
       315  11  5.913878E+05 -2.979782E+05 -2.166886E+05  2.247085E+05 -4.947877E-10 -1.446123E-10
       315  12 -1.252330E+05 -4.451474E+05 -3.367798E+05  4.063163E+05 -1.580904E-09 -1.060394E-10
       315  13  1.801715E+06  5.082010E+02  4.112373E+04  4.173423E+05  3.439386E-11 -7.587703E-10
       315  14  1.795275E+06 -2.190071E+03  5.984238E+04  2.281653E+05 -2.607478E-10  1.317441E-10
       315  15  1.801186E+06  2.849213E+04  1.065168E+05  4.173153E+05 -3.076440E-10 -3.184906E-10
       315  16  2.283383E+06  1.190520E+05  1.533790E+05  4.131997E+05 -7.750800E-10 -1.348997E-09
       315  17  3.000501E+06  2.934972E+05  3.362778E+05  2.316281E+05  9.316903E-10 -5.044689E-10
       315  18  3.731033E+06  5.018732E+05  5.495680E+05  4.283468E+05  2.337405E-09  1.055048E-10
       315  19  1.320262E+06 -1.180510E+05 -7.114296E+04  4.214809E+05  4.442097E+04 -1.672370E+04
       315  20  5.913939E+05 -2.979740E+05 -2.166742E+05  2.247056E+05  7.106916E+04 -5.121182E+04
       315  21 -1.252210E+05 -4.451378E+05 -3.367496E+05  4.063100E+05  9.762164E+04 -8.071582E+04
       315  22  1.801715E+06  5.085881E+02  4.112485E+04  4.173420E+05  1.774971E+04 -1.677686E+04
       315  23  1.795278E+06 -2.186630E+03  5.985165E+04  2.281633E+05  4.805500E+04 -5.123588E+04
       315  24  1.801194E+06  2.850078E+04  1.065406E+05  4.173102E+05  7.829486E+04 -8.071637E+04
       315  25  2.283383E+06  1.190523E+05  1.533797E+05  4.131998E+05 -8.942061E+03 -1.682964E+04
       315  26  3.000502E+06  2.935001E+05  3.362839E+05  2.316271E+05  2.499654E+04 -5.126018E+04
       315  27  3.731039E+06  5.018811E+05  5.495868E+05  4.283430E+05  5.890830E+04 -8.071761E+04
       316   1 -7.951513E+05 -6.662014E+05 -4.701936E+05  4.742380E+05 -1.502812E+05  1.141651E+05
       316   2 -1.585835E+06 -8.539441E+05 -5.604940E+05  1.800099E+05 -1.868332E+05  1.338597E+05
       316   3 -2.260613E+06 -6.318393E+05 -5.227513E+05  2.666472E+05 -2.235518E+05  4.633914E+04
       316   4  1.826207E+06 -2.191292E+04  1.312400E+05  4.176505E+05 -9.793469E+04  1.141689E+05
       316   5  1.761329E+06 -2.977061E+04  2.135994E+05  2.277058E+05 -2.120438E+05  1.338229E+05
       316   6  1.824565E+06  3.844529E+05  4.772117E+05  4.183938E+05 -3.263750E+05  4.650586E+04
       316   7  4.453935E+06  6.219111E+05  7.322336E+05  3.608193E+05 -4.536815E+04  1.141632E+05
       316   8  5.118855E+06  7.936265E+05  9.869494E+05  2.756624E+05 -2.373871E+05  1.337824E+05
       316   9  5.925039E+06  1.399607E+06  1.476009E+06  5.711478E+05 -4.298694E+05  4.662204E+04
       316  10 -7.951791E+05 -6.662215E+05 -4.702607E+05  4.742518E+05  5.802222E-11 -7.998570E-10
       316  11 -1.585878E+06 -8.539728E+05 -5.605935E+05  1.800301E+05 -7.474166E-10 -1.783222E-09
       316  12 -2.260668E+06 -6.318551E+05 -5.228496E+05  2.666555E+05 -1.403521E-09 -2.014480E-09
       316  13  1.826193E+06 -2.192950E+04  1.311975E+05  4.176595E+05 -1.294884E-09 -1.121792E-09
       316  14  1.761276E+06 -2.980189E+04  2.134815E+05  2.277287E+05  7.819916E-10 -1.954447E-09
       316  15  1.824450E+06  3.844221E+05  4.770080E+05  4.184060E+05 -5.261002E-11  3.593453E-10
       316  16  4.453929E+06  6.218966E+05  7.322052E+05  3.608234E+05  1.070812E-10 -9.002842E-10
       316  17  5.118790E+06  7.935922E+05  9.868107E+05  2.756879E+05 -5.555465E-12 -9.263458E-10
       316  18  5.924841E+06  1.399556E+06  1.475661E+06  5.711639E+05  3.394197E-09 -2.744296E-09
       316  19 -7.951513E+05 -6.662014E+05 -4.701936E+05  4.742380E+05  1.502812E+05 -1.141651E+05
       316  20 -1.585835E+06 -8.539441E+05 -5.604940E+05  1.800099E+05  1.868332E+05 -1.338597E+05
       316  21 -2.260613E+06 -6.318393E+05 -5.227513E+05  2.666472E+05  2.235518E+05 -4.633914E+04
       316  22  1.826207E+06 -2.191292E+04  1.312400E+05  4.176505E+05  9.793469E+04 -1.141689E+05
       316  23  1.761329E+06 -2.977061E+04  2.135994E+05  2.277058E+05  2.120438E+05 -1.338229E+05
       316  24  1.824565E+06  3.844529E+05  4.772117E+05  4.183938E+05  3.263750E+05 -4.650586E+04
       316  25  4.453935E+06  6.219111E+05  7.322336E+05  3.608193E+05  4.536815E+04 -1.141632E+05
       316  26  5.118855E+06  7.936265E+05  9.869494E+05  2.756624E+05  2.373871E+05 -1.337824E+05
       316  27  5.925039E+06  1.399607E+06  1.476009E+06  5.711478E+05  4.298694E+05 -4.662204E+04
       317   1  1.729504E+05  4.073407E+05  2.770093E+05  1.551106E+05 -3.336322E+05 -4.049748E+04
       317   2 -3.962741E+05  7.793424E+05  4.207969E+05  1.355041E+05 -2.532733E+05 -1.210624E+05
       317   3 -1.102245E+06  6.170154E+05  3.801251E+05  4.449332E+05 -1.727976E+05 -1.045310E+05
       317   4 -3.497931E+06 -5.096675E+05 -6.232579E+05  3.695488E+05 -4.247612E+05 -4.039590E+04
       317   5 -3.421925E+06  3.256557E+04 -2.803414E+05  2.054526E+05 -2.752648E+05 -1.211009E+05
       317   6 -3.496026E+06  2.690322E+04 -1.708619E+05  3.706104E+05 -1.255505E+05 -1.045360E+05
       317   7 -7.156396E+06 -1.427507E+06 -1.524462E+06  5.827199E+05 -5.153463E+05 -4.035749E+04
       317   8 -6.439079E+06 -7.148399E+05 -9.820908E+05  2.750588E+05 -2.971473E+05 -1.211446E+05
       317   9 -5.884465E+06 -5.635895E+05 -7.222183E+05  2.965756E+05 -7.848363E+04 -1.045523E+05
       317  10  1.728305E+05  4.073090E+05  2.767971E+05  1.550997E+05 -1.127349E-09  2.686226E-09
       317  11 -3.963469E+05  7.793094E+05  4.206488E+05  1.354794E+05  1.870551E-09 -1.031097E-10
       317  12 -1.102280E+06  6.169957E+05  3.800485E+05  4.449186E+05  4.832351E-09  5.339784E-10
       317  13 -3.498126E+06 -5.097180E+05 -6.236019E+05  3.695349E+05 -1.269812E-09 -2.162538E-09
       317  14 -3.422011E+06  3.252938E+04 -2.805120E+05  2.054257E+05 -2.151700E-10  4.031456E-10
       317  15 -3.496046E+06  2.688725E+04 -1.709121E+05  3.705998E+05  1.429723E-09  1.817715E-10
       317  16 -7.156684E+06 -1.427581E+06 -1.524970E+06  5.827032E+05  6.170203E-10 -2.107408E-09
       317  17 -6.439178E+06 -7.148796E+05 -9.822859E+05  2.750297E+05 -4.369595E-09 -2.627369E-10
       317  18 -5.884475E+06 -5.636029E+05 -7.222504E+05  2.965689E+05 -6.853664E-09 -4.676013E-10
       317  19  1.729504E+05  4.073407E+05  2.770093E+05  1.551106E+05  3.336322E+05  4.049748E+04
       317  20 -3.962741E+05  7.793424E+05  4.207969E+05  1.355041E+05  2.532733E+05  1.210624E+05
       317  21 -1.102245E+06  6.170154E+05  3.801251E+05  4.449332E+05  1.727976E+05  1.045310E+05
       317  22 -3.497931E+06 -5.096675E+05 -6.232579E+05  3.695488E+05  4.247612E+05  4.039590E+04
       317  23 -3.421925E+06  3.256557E+04 -2.803414E+05  2.054526E+05  2.752648E+05  1.211009E+05
       317  24 -3.496026E+06  2.690322E+04 -1.708619E+05  3.706104E+05  1.255505E+05  1.045360E+05
       317  25 -7.156396E+06 -1.427507E+06 -1.524462E+06  5.827199E+05  5.153463E+05  4.035749E+04
       317  26 -6.439079E+06 -7.148399E+05 -9.820908E+05  2.750588E+05  2.971473E+05  1.211446E+05
       317  27 -5.884465E+06 -5.635895E+05 -7.222183E+05  2.965756E+05  7.848363E+04  1.045523E+05
       318   1 -1.696584E+06  3.980080E+05  2.690808E+05  3.605953E+05 -1.178910E+05 -7.453368E+04
       318   2 -2.342862E+06  2.785113E+05  1.780118E+05  1.991310E+05 -8.118537E+04 -4.781822E+04
       318   3 -3.003854E+06  1.161010E+05  5.232798E+04  3.805479E+05 -4.457066E+04 -1.638028E+04
       318   4 -3.465708E+06 -3.852457E+04 -1.395687E+05  3.733865E+05 -1.002406E+05 -7.454096E+04
       318   5 -3.457578E+06  3.424699E+03 -7.919217E+04  2.019077E+05 -6.025766E+04 -4.780562E+04
       318   6 -3.465201E+06  1.854255E+03 -5.578631E+04  3.733595E+05 -2.032775E+04 -1.634368E+04
       318   7 -5.231924E+06 -4.752769E+05 -5.484260E+05  3.861396E+05 -8.263997E+04 -7.454753E+04
       318   8 -4.571138E+06 -2.717492E+05 -3.364773E+05  2.046789E+05 -3.936728E+04 -4.779282E+04
       318   9 -3.926349E+06 -1.124072E+05 -1.639129E+05  3.661763E+05  3.897191E+03 -1.630762E+04
       318  10 -1.696600E+06  3.979983E+05  2.690442E+05  3.605883E+05  1.559431E-09 -7.873204E-10
       318  11 -2.342870E+06  2.785071E+05  1.779951E+05  1.991279E+05  5.238098E-10  7.234055E-10
       318  12 -3.003856E+06  1.161002E+05  5.232372E+04  3.805474E+05 -3.310166E-10  1.343585E-09
       318  13 -3.465721E+06 -3.853323E+04 -1.395981E+05  3.733805E+05 -1.312332E-09 -1.392880E-10
       318  14 -3.457583E+06  3.421269E+03 -7.920331E+04  2.019054E+05 -2.090336E-09  1.723711E-09
       318  15 -3.465201E+06  1.853857E+03 -5.578759E+04  3.733592E+05  1.306613E-09 -4.972934E-10
       318  16 -5.231933E+06 -4.752847E+05 -5.484494E+05  3.861346E+05 -1.506709E-09 -5.015976E-10
       318  17 -4.571140E+06 -2.717520E+05 -3.364846E+05  2.046774E+05 -2.249966E-09  1.421368E-09
       318  18 -3.926349E+06 -1.124075E+05 -1.639134E+05  3.661764E+05  5.600439E-10  4.002387E-10
       318  19 -1.696584E+06  3.980080E+05  2.690808E+05  3.605953E+05  1.178910E+05  7.453368E+04
       318  20 -2.342862E+06  2.785113E+05  1.780118E+05  1.991310E+05  8.118537E+04  4.781822E+04
       318  21 -3.003854E+06  1.161010E+05  5.232798E+04  3.805479E+05  4.457066E+04  1.638028E+04
       318  22 -3.465708E+06 -3.852457E+04 -1.395687E+05  3.733865E+05  1.002406E+05  7.454096E+04
       318  23 -3.457578E+06  3.424699E+03 -7.919217E+04  2.019077E+05  6.025766E+04  4.780562E+04
       318  24 -3.465201E+06  1.854255E+03 -5.578631E+04  3.733595E+05  2.032775E+04  1.634368E+04
       318  25 -5.231924E+06 -4.752769E+05 -5.484260E+05  3.861396E+05  8.263997E+04  7.454753E+04
       318  26 -4.571138E+06 -2.717492E+05 -3.364773E+05  2.046789E+05  3.936728E+04  4.779282E+04
       318  27 -3.926349E+06 -1.124072E+05 -1.639129E+05  3.661763E+05 -3.897191E+03  1.630762E+04
       319   1 -3.632912E+06 -4.292388E+04 -9.141211E+04  3.699774E+05 -3.518708E+04  3.643557E+03
       319   2 -4.282380E+06 -2.012614E+05 -2.403198E+05  2.029271E+05 -6.916936E+03  3.520004E+04
       319   3 -4.940996E+06 -3.826315E+05 -4.135812E+05  3.794849E+05  2.136447E+04  6.241859E+04
       319   4 -3.463658E+06 -7.766582E+02 -5.066333E+04  3.735088E+05 -1.105393E+04  3.680976E+03
       319   5 -3.459318E+06  2.100608E+03 -5.015195E+04  2.017225E+05  1.411948E+04  3.521933E+04
       319   6 -3.463977E+06 -1.746940E+04 -7.179668E+04  3.735212E+05  3.933353E+04  6.242339E+04
       319   7 -3.294376E+06  4.136882E+04 -9.914392E+03  3.770412E+05  1.308580E+04  3.718665E+03
       319   8 -2.635624E+06  2.054150E+05  1.399723E+05  2.005160E+05  3.518371E+04  3.523852E+04
       319   9 -1.984923E+06  3.475388E+05  2.698429E+05  3.675422E+05  5.734521E+04  6.242783E+04
       319  10 -3.632913E+06 -4.292423E+04 -9.141448E+04  3.699775E+05  2.798272E-10  4.585886E-10
       319  11 -4.282381E+06 -2.012627E+05 -2.403222E+05  2.029273E+05  3.788290E-09 -7.317483E-10
       319  12 -4.940998E+06 -3.826358E+05 -4.135894E+05  3.794838E+05  1.025585E-09  6.206222E-10
       319  13 -3.463658E+06 -7.767058E+02 -5.066359E+04  3.735089E+05  1.213490E-09 -5.677544E-10
       319  14 -3.459319E+06  2.099224E+03 -5.015465E+04  2.017221E+05 -4.090599E-10  6.179340E-10
       319  15 -3.463979E+06 -1.747400E+04 -7.180690E+04  3.735193E+05  2.450818E-09 -1.059884E-09
       319  16 -3.294376E+06  4.136876E+04 -9.914741E+03  3.770412E+05  8.930429E-10 -6.260327E-10
       319  17 -2.635626E+06  2.054134E+05  1.399676E+05  2.005150E+05  5.172272E-10 -1.082268E-09
       319  18 -1.984928E+06  3.475337E+05  2.698294E+05  3.675393E+05 -1.077546E-09 -1.862956E-10
       319  19 -3.632912E+06 -4.292388E+04 -9.141211E+04  3.699774E+05  3.518708E+04 -3.643557E+03
       319  20 -4.282380E+06 -2.012614E+05 -2.403198E+05  2.029271E+05  6.916936E+03 -3.520004E+04
       319  21 -4.940996E+06 -3.826315E+05 -4.135812E+05  3.794849E+05 -2.136447E+04 -6.241859E+04
       319  22 -3.463658E+06 -7.766582E+02 -5.066333E+04  3.735088E+05  1.105393E+04 -3.680976E+03
       319  23 -3.459318E+06  2.100608E+03 -5.015195E+04  2.017225E+05 -1.411948E+04 -3.521933E+04
       319  24 -3.463977E+06 -1.746940E+04 -7.179668E+04  3.735212E+05 -3.933353E+04 -6.242339E+04
       319  25 -3.294376E+06  4.136882E+04 -9.914392E+03  3.770412E+05 -1.308580E+04 -3.718665E+03
       319  26 -2.635624E+06  2.054150E+05  1.399723E+05  2.005160E+05 -3.518371E+04 -3.523852E+04
       319  27 -1.984923E+06  3.475388E+05  2.698429E+05  3.675422E+05 -5.734521E+04 -6.242783E+04
       320   1 -5.578625E+06 -5.072447E+05 -5.691145E+05  3.367150E+05  6.808162E+03  9.170879E+04
       320   2 -6.179173E+06 -6.630619E+05 -7.676619E+05  2.374861E+05  1.412795E+05  1.097209E+05
       320   3 -6.857732E+06 -1.081940E+06 -1.119129E+06  4.704190E+05  2.754547E+05  3.737452E+04
       320   4 -3.477272E+06  1.223926E+04 -8.401818E+04  3.710644E+05  5.210668E+04  9.170597E+04
       320   5 -3.444589E+06  1.413849E+04 -1.316670E+05  2.048105E+05  1.222914E+05  1.096969E+05
       320   6 -3.478623E+06 -2.351295E+05 -2.869182E+05  3.707035E+05  1.923271E+05  3.747779E+04
       320   7 -1.371792E+06  5.314172E+05  4.007918E+05  4.055304E+05  9.755822E+04  9.170819E+04
       320   8 -7.030325E+05  6.908118E+05  5.038244E+05  1.719891E+05  1.032187E+05  1.096749E+05
       320   9 -8.898145E+04  6.108655E+05  5.444781E+05  2.704410E+05  1.087415E+05  3.760791E+04
       320  10 -5.578628E+06 -5.072537E+05 -5.691304E+05  3.367145E+05 -5.176778E-10  5.917872E-10
       320  11 -6.179198E+06 -6.630802E+05 -7.677224E+05  2.374736E+05  1.701949E-09  2.008610E-09
       320  12 -6.857814E+06 -1.081962E+06 -1.119276E+06  4.704107E+05  3.960238E-09  2.556396E-09
       320  13 -3.477278E+06  1.222952E+04 -8.403907E+04  3.710606E+05 -1.339688E-10  5.560263E-10
       320  14 -3.444609E+06  1.412155E+04 -1.317178E+05  2.047997E+05  1.325637E-09  2.096986E-09
       320  15 -3.478663E+06 -2.351410E+05 -2.869907E+05  3.706977E+05 -8.816329E-10 -2.047968E-09
       320  16 -1.371805E+06  5.314056E+05  4.007582E+05  4.055232E+05  6.169650E-10  7.185089E-10
       320  17 -7.030472E+05  6.907960E+05  5.037818E+05  1.719800E+05  2.021389E-11  2.115090E-09
       320  18 -8.899452E+04  6.108608E+05  5.444533E+05  2.704377E+05 -1.295184E-09 -7.535737E-10
       320  19 -5.578625E+06 -5.072447E+05 -5.691145E+05  3.367150E+05 -6.808162E+03 -9.170879E+04
       320  20 -6.179173E+06 -6.630619E+05 -7.676619E+05  2.374861E+05 -1.412795E+05 -1.097209E+05
       320  21 -6.857732E+06 -1.081940E+06 -1.119129E+06  4.704190E+05 -2.754547E+05 -3.737452E+04
       320  22 -3.477272E+06  1.223926E+04 -8.401818E+04  3.710644E+05 -5.210668E+04 -9.170597E+04
       320  23 -3.444589E+06  1.413849E+04 -1.316670E+05  2.048105E+05 -1.222914E+05 -1.096969E+05
       320  24 -3.478623E+06 -2.351295E+05 -2.869182E+05  3.707035E+05 -1.923271E+05 -3.747779E+04
       320  25 -1.371792E+06  5.314172E+05  4.007918E+05  4.055304E+05 -9.755822E+04 -9.170819E+04
       320  26 -7.030325E+05  6.908118E+05  5.038244E+05  1.719891E+05 -1.032187E+05 -1.096749E+05
       320  27 -8.898145E+04  6.108655E+05  5.444781E+05  2.704410E+05 -1.087415E+05 -3.760791E+04
       321   1  3.244838E+05  6.589486E+05  6.196448E+05  2.281018E+05 -1.886599E+04 -3.569205E+04
       321   2 -1.513506E+05  6.559348E+05  5.428553E+05  1.379870E+05 -4.197035E+04 -1.057596E+05
       321   3 -6.483578E+05  5.360581E+05  4.527966E+05  2.991019E+05 -6.490296E+04 -9.417357E+04
       321   4 -2.801509E+06 -1.204749E+05 -1.461555E+05  2.815167E+05 -9.844072E+04 -3.553843E+04
       321   5 -2.785207E+06  6.344195E+03 -6.704091E+04  1.559567E+05 -6.284914E+04 -1.057693E+05
       321   6 -2.800675E+06  5.821258E+03 -4.214215E+04  2.817154E+05 -2.710090E+04 -9.418941E+04
       321   7 -5.918561E+06 -9.006114E+05 -9.126482E+05  3.346649E+05 -1.776146E+05 -3.539822E+04
       321   8 -5.412635E+06 -6.437345E+05 -6.774007E+05  1.738505E+05 -8.363951E+04 -1.057803E+05
       321   9 -4.948687E+06 -5.247384E+05 -5.373825E+05  2.643887E+05  1.057115E+04 -9.420739E+04
       321  10  3.244831E+05  6.589471E+05  6.196417E+05  2.281012E+05  9.272875E-10  1.861152E-09
       321  11 -1.513555E+05  6.559223E+05  5.428310E+05  1.379835E+05 -1.280331E-09 -2.478973E-09
       321  12 -6.483647E+05  5.360474E+05  4.527721E+05  2.990969E+05 -2.503033E-09 -1.175917E-09
       321  13 -2.801520E+06 -1.204789E+05 -1.461761E+05  2.815139E+05 -2.278948E-09 -5.457122E-09
       321  14 -2.785215E+06  6.331133E+03 -6.706935E+04  1.559513E+05 -1.205679E-09 -3.905243E-09
       321  15 -2.800678E+06  5.811547E+03 -4.216018E+04  2.817133E+05 -2.165511E-10 -7.589515E-10
       321  16 -5.918596E+06 -9.006213E+05 -9.127104E+05  3.346598E+05 -2.369656E-09 -3.867196E-09
       321  17 -5.412646E+06 -6.437484E+05 -6.774349E+05  1.738433E+05  6.039823E-10 -9.221637E-10
       321  18 -4.948689E+06 -5.247480E+05 -5.373994E+05  2.643895E+05  3.075425E-09 -6.924394E-10
       321  19  3.244838E+05  6.589486E+05  6.196448E+05  2.281018E+05  1.886599E+04  3.569205E+04
       321  20 -1.513506E+05  6.559348E+05  5.428553E+05  1.379870E+05  4.197035E+04  1.057596E+05
       321  21 -6.483578E+05  5.360581E+05  4.527966E+05  2.991019E+05  6.490296E+04  9.417357E+04
       321  22 -2.801509E+06 -1.204749E+05 -1.461555E+05  2.815167E+05  9.844072E+04  3.553843E+04
       321  23 -2.785207E+06  6.344195E+03 -6.704091E+04  1.559567E+05  6.284914E+04  1.057693E+05
       321  24 -2.800675E+06  5.821258E+03 -4.214215E+04  2.817154E+05  2.710090E+04  9.418941E+04
       321  25 -5.918561E+06 -9.006114E+05 -9.126482E+05  3.346649E+05  1.776146E+05  3.539822E+04
       321  26 -5.412635E+06 -6.437345E+05 -6.774007E+05  1.738505E+05  8.363951E+04  1.057803E+05
       321  27 -4.948687E+06 -5.247384E+05 -5.373825E+05  2.643887E+05 -1.057115E+04  9.420739E+04
       322   1 -1.116998E+06  4.042581E+05  3.514109E+05  2.810573E+05 -3.360699E+04 -7.041583E+04
       322   2 -1.613412E+06  2.914935E+05  2.476016E+05  1.531462E+05 -2.435610E+04 -5.054552E+04
       322   3 -2.113010E+06  1.683078E+05  1.352162E+05  2.863060E+05 -1.515726E+04 -2.665168E+04
       322   4 -2.794079E+06 -9.294152E+03 -3.575351E+04  2.838427E+05 -2.073650E+04 -7.042138E+04
       322   5 -2.791948E+06  8.872218E+02 -2.406490E+04  1.532873E+05 -8.625367E+03 -5.053638E+04
       322   6 -2.793753E+06  1.489488E+02 -2.295304E+04  2.838359E+05  3.440919E+03 -2.662360E+04
       322   7 -4.468549E+06 -4.230442E+05 -4.231050E+05  2.866195E+05 -7.900514E+03 -7.042682E+04
       322   8 -3.969194E+06 -2.898165E+05 -2.958229E+05  1.534277E+05  7.075681E+03 -5.052721E+04
       322   9 -3.474065E+06 -1.680425E+05 -1.811522E+05  2.813684E+05  2.201878E+04 -2.659565E+04
       322  10 -1.117000E+06  4.042524E+05  3.513995E+05  2.810554E+05 -2.609822E-09  3.965695E-10
       322  11 -1.613413E+06  2.914906E+05  2.475957E+05  1.531452E+05  1.359702E-09 -1.908060E-09
       322  12 -2.113010E+06  1.683070E+05  1.352144E+05  2.863056E+05  1.358312E-09 -1.442811E-09
       322  13 -2.794081E+06 -9.299586E+03 -3.576363E+04  2.838415E+05  3.025686E-10  1.908447E-10
       322  14 -2.791949E+06  8.844629E+02 -2.406984E+04  1.532869E+05  9.289945E-10 -3.175871E-10
       322  15 -2.793753E+06  1.481854E+02 -2.295439E+04  2.838360E+05  9.605972E-11 -1.730032E-09
       322  16 -4.468550E+06 -4.230495E+05 -4.231144E+05  2.866191E+05  4.714720E-09 -4.591618E-10
       322  17 -3.969195E+06 -2.898193E+05 -2.958278E+05  1.534279E+05  1.228849E-09  1.645121E-10
       322  18 -3.474066E+06 -1.680434E+05 -1.811545E+05  2.813689E+05 -2.287053E-09 -6.286374E-11
       322  19 -1.116998E+06  4.042581E+05  3.514109E+05  2.810573E+05  3.360699E+04  7.041583E+04
       322  20 -1.613412E+06  2.914935E+05  2.476016E+05  1.531462E+05  2.435610E+04  5.054552E+04
       322  21 -2.113010E+06  1.683078E+05  1.352162E+05  2.863060E+05  1.515726E+04  2.665168E+04
       322  22 -2.794079E+06 -9.294152E+03 -3.575351E+04  2.838427E+05  2.073650E+04  7.042138E+04
       322  23 -2.791948E+06  8.872218E+02 -2.406490E+04  1.532873E+05  8.625367E+03  5.053638E+04
       322  24 -2.793753E+06  1.489488E+02 -2.295304E+04  2.838359E+05 -3.440919E+03  2.662360E+04
       322  25 -4.468549E+06 -4.230442E+05 -4.231050E+05  2.866195E+05  7.900514E+03  7.042682E+04
       322  26 -3.969194E+06 -2.898165E+05 -2.958229E+05  1.534277E+05 -7.075681E+03  5.052721E+04
       322  27 -3.474065E+06 -1.680425E+05 -1.811522E+05  2.813684E+05 -2.201878E+04  2.659565E+04
       323   1 -2.594570E+06  5.008068E+04  2.000067E+04  2.815625E+05 -1.072441E+04 -1.139361E+04
       323   2 -3.091250E+06 -7.233666E+04 -1.034024E+05  1.539529E+05  8.437668E+03  1.272911E+04
       323   3 -3.595498E+06 -2.132118E+05 -2.441393E+05  2.890443E+05  2.759829E+04  3.400540E+04
       323   4 -2.794423E+06  1.044686E+03 -2.477987E+04  2.841855E+05  7.585291E+03 -1.136232E+04
       323   5 -2.790769E+06  1.835446E+03 -3.399300E+04  1.528488E+05  2.470616E+04  1.275294E+04
       323   6 -2.794540E+06 -1.544926E+04 -5.909219E+04  2.842083E+05  4.184075E+04  3.402302E+04
       323   7 -2.994237E+06 -4.799383E+04 -6.956166E+04  2.868076E+05  2.588913E+04 -1.133087E+04
       323   8 -2.490203E+06  7.600134E+04  3.541133E+04  1.517441E+05  4.098250E+04  1.277670E+04
       323   9 -1.992985E+06  1.822682E+05  1.259128E+05  2.793656E+05  5.610149E+04  3.404041E+04
       323  10 -2.594571E+06  5.008051E+04  2.000021E+04  2.815624E+05 -8.370746E-10 -1.325790E-09
       323  11 -3.091251E+06 -7.233685E+04 -1.034028E+05  1.539528E+05 -1.365596E-09 -1.294438E-09
       323  12 -3.595499E+06 -2.132132E+05 -2.441429E+05  2.890436E+05  8.213778E-10 -1.838546E-09
       323  13 -2.794423E+06  1.044532E+03 -2.478022E+04  2.841856E+05  1.776326E-12 -1.891257E-09
       323  14 -2.790769E+06  1.835107E+03 -3.399446E+04  1.528485E+05 -1.242423E-09 -1.574161E-09
       323  15 -2.794542E+06 -1.545098E+04 -5.909766E+04  2.842071E+05 -6.661760E-10 -1.126498E-09
       323  16 -2.994237E+06 -4.799415E+04 -6.956317E+04  2.868078E+05 -4.872992E-10 -1.253073E-09
       323  17 -2.490204E+06  7.600071E+04  3.540786E+04  1.517437E+05 -1.858334E-09  1.824873E-09
       323  18 -1.992988E+06  1.822661E+05  1.259047E+05  2.793641E+05 -2.208501E-09  1.601216E-10
       323  19 -2.594570E+06  5.008068E+04  2.000067E+04  2.815625E+05  1.072441E+04  1.139361E+04
       323  20 -3.091250E+06 -7.233666E+04 -1.034024E+05  1.539529E+05 -8.437668E+03 -1.272911E+04
       323  21 -3.595498E+06 -2.132118E+05 -2.441393E+05  2.890443E+05 -2.759829E+04 -3.400540E+04
       323  22 -2.794423E+06  1.044686E+03 -2.477987E+04  2.841855E+05 -7.585291E+03  1.136232E+04
       323  23 -2.790769E+06  1.835446E+03 -3.399300E+04  1.528488E+05 -2.470616E+04 -1.275294E+04
       323  24 -2.794540E+06 -1.544926E+04 -5.909219E+04  2.842083E+05 -4.184075E+04 -3.402302E+04
       323  25 -2.994237E+06 -4.799383E+04 -6.956166E+04  2.868076E+05 -2.588913E+04  1.133087E+04
       323  26 -2.490203E+06  7.600134E+04  3.541133E+04  1.517441E+05 -4.098250E+04 -1.277670E+04
       323  27 -1.992985E+06  1.822682E+05  1.259128E+05  2.793656E+05 -5.610149E+04 -3.404041E+04
       324   1 -4.087425E+06 -3.041200E+05 -3.674591E+05  2.505540E+05  1.969637E+04  5.553251E+04
       324   2 -4.545472E+06 -4.234812E+05 -5.292263E+05  1.820638E+05  1.263654E+05  7.075640E+04
       324   3 -5.075212E+06 -7.809160E+05 -8.200246E+05  3.703416E+05  2.329377E+05  2.478378E+04
       324   4 -2.807307E+06  1.204725E+04 -7.216666E+04  2.828772E+05  5.252804E+04  5.556524E+04
       324   5 -2.775668E+06  1.416830E+04 -1.180472E+05  1.544842E+05  1.155357E+05  7.073274E+04
       324   6 -2.808072E+06 -2.137815E+05 -2.622607E+05  2.828663E+05  1.785368E+05  2.476088E+04
       324   7 -1.525658E+06  3.281036E+05  2.230212E+05  3.152671E+05  8.542716E+04  5.560135E+04
       324   8 -1.002948E+06  4.515989E+05  2.929216E+05  1.268242E+05  1.046748E+05  7.071011E+04
       324   9 -5.361941E+05  3.529992E+05  2.951386E+05  1.950680E+05  1.239352E+05  2.475354E+04
       324  10 -4.087427E+06 -3.041234E+05 -3.674656E+05  2.505531E+05 -2.574584E-10 -1.676745E-09
       324  11 -4.545491E+06 -4.234909E+05 -5.292660E+05  1.820566E+05  2.531866E-09 -3.744689E-10
       324  12 -5.075271E+06 -7.809314E+05 -8.201285E+05  3.703370E+05  1.327254E-09  3.995443E-10
       324  13 -2.807311E+06  1.204319E+04 -7.217766E+04  2.828748E+05  3.223761E-09 -4.331257E-09
       324  14 -2.775683E+06  1.415933E+04 -1.180818E+05  1.544776E+05 -3.220872E-09  1.225299E-09
       324  15 -2.808106E+06 -2.137908E+05 -2.623221E+05  2.828627E+05  4.883196E-10  7.605232E-11
       324  16 -1.525667E+06  3.280983E+05  2.230017E+05  3.152633E+05 -4.154015E-10  6.515592E-12
       324  17 -1.002961E+06  4.515905E+05  2.928916E+05  1.268183E+05 -1.500782E-09  1.287646E-09
       324  18 -5.362108E+05  3.529944E+05  2.951086E+05  1.950655E+05 -5.843169E-10  7.636205E-10
       324  19 -4.087425E+06 -3.041200E+05 -3.674591E+05  2.505540E+05 -1.969637E+04 -5.553251E+04
       324  20 -4.545472E+06 -4.234812E+05 -5.292263E+05  1.820638E+05 -1.263654E+05 -7.075640E+04
       324  21 -5.075212E+06 -7.809160E+05 -8.200246E+05  3.703416E+05 -2.329377E+05 -2.478378E+04
       324  22 -2.807307E+06  1.204725E+04 -7.216666E+04  2.828772E+05 -5.252804E+04 -5.556524E+04
       324  23 -2.775668E+06  1.416830E+04 -1.180472E+05  1.544842E+05 -1.155357E+05 -7.073274E+04
       324  24 -2.808072E+06 -2.137815E+05 -2.622607E+05  2.828663E+05 -1.785368E+05 -2.476088E+04
       324  25 -1.525658E+06  3.281036E+05  2.230212E+05  3.152671E+05 -8.542716E+04 -5.560135E+04
       324  26 -1.002948E+06  4.515989E+05  2.929216E+05  1.268242E+05 -1.046748E+05 -7.071011E+04
       324  27 -5.361941E+05  3.529992E+05  2.951386E+05  1.950680E+05 -1.239352E+05 -2.475354E+04
       325   1  3.153043E+06  1.205373E+06  1.165832E+06  4.666165E+05  6.224606E+04 -5.850153E+04
       325   2  2.272963E+06  1.059943E+06  9.452905E+05  2.665717E+05 -1.035570E+04 -1.719330E+05
       325   3  1.395486E+06  8.491672E+05  7.573248E+05  5.202926E+05 -8.295558E+04 -1.496746E+05
       325   4 -2.030990E+06 -8.403866E+04 -1.016680E+05  4.984896E+05 -6.834126E+04 -5.858426E+04
       325   5 -2.022312E+06  2.645865E+03 -4.759622E+04  2.714374E+05 -4.294000E+04 -1.720824E+05
       325   6 -2.028923E+06  6.738091E+03 -2.899276E+04  4.983767E+05 -1.764004E+04 -1.494660E+05
       325   7 -7.190529E+06 -1.375428E+06 -1.371070E+06  5.300852E+05 -1.978425E+05 -5.868110E+04
       325   8 -6.300542E+06 -1.055948E+06 -1.041713E+06  2.762572E+05 -7.530032E+04 -1.722329E+05
       325   9 -5.442462E+06 -8.365072E+05 -8.160695E+05  4.765675E+05  4.731889E+04 -1.492613E+05
       325  10  3.153037E+06  1.205369E+06  1.165818E+06  4.666195E+05 -4.514287E-10  1.172246E-10
       325  11  2.272955E+06  1.059911E+06  9.452348E+05  2.665703E+05  2.120377E-09 -3.328117E-09
       325  12  1.395473E+06  8.491414E+05  7.572699E+05  5.202826E+05  4.648595E-09 -7.581434E-09
       325  13 -2.030996E+06 -8.404360E+04 -1.016832E+05  4.984864E+05 -3.927552E-10  5.054296E-10
       325  14 -2.022322E+06  2.613604E+03 -4.765527E+04  2.714315E+05 -1.615145E-10 -1.127948E-09
       325  15 -2.028929E+06  6.714044E+03 -2.903528E+04  4.983745E+05 -2.059388E-09 -1.657755E-09
       325  16 -7.190572E+06 -1.375442E+06 -1.371151E+06  5.300758E+05 -4.103303E-10  5.491314E-10
       325  17 -6.300556E+06 -1.055981E+06 -1.041779E+06  2.762467E+05  1.185565E-09 -4.187112E-09
       325  18 -5.442470E+06 -8.365318E+05 -8.161156E+05  4.765732E+05 -3.415330E-09 -1.194873E-08
       325  19  3.153043E+06  1.205373E+06  1.165832E+06  4.666165E+05 -6.224606E+04  5.850153E+04
       325  20  2.272963E+06  1.059943E+06  9.452905E+05  2.665717E+05  1.035570E+04  1.719330E+05
       325  21  1.395486E+06  8.491672E+05  7.573248E+05  5.202926E+05  8.295558E+04  1.496746E+05
       325  22 -2.030990E+06 -8.403866E+04 -1.016680E+05  4.984896E+05  6.834126E+04  5.858426E+04
       325  23 -2.022312E+06  2.645865E+03 -4.759622E+04  2.714374E+05  4.294000E+04  1.720824E+05
       325  24 -2.028923E+06  6.738091E+03 -2.899276E+04  4.983767E+05  1.764004E+04  1.494660E+05
       325  25 -7.190529E+06 -1.375428E+06 -1.371070E+06  5.300852E+05  1.978425E+05  5.868110E+04
       325  26 -6.300542E+06 -1.055948E+06 -1.041713E+06  2.762572E+05  7.530032E+04  1.722329E+05
       325  27 -5.442462E+06 -8.365072E+05 -8.160695E+05  4.765675E+05 -4.731889E+04  1.492613E+05
       326   1  5.462056E+05  6.298656E+05  5.678155E+05  5.074289E+05 -3.715016E+04 -1.081360E+05
       326   2 -3.419172E+05  4.167756E+05  3.699528E+05  2.736221E+05 -3.340670E+04 -7.204463E+04
       326   3 -1.234336E+06  2.006345E+05  1.679631E+05  5.061567E+05 -2.980630E+04 -2.938962E+04
       326   4 -2.025593E+06 -3.436015E+03 -2.499486E+04  5.011950E+05 -1.349552E+04 -1.080539E+05
       326   5 -2.022265E+06  2.874649E+03 -1.697946E+04  2.679651E+05 -5.069125E+03 -7.190753E+04
       326   6 -2.024790E+06  5.359348E+03 -1.632460E+04  5.011556E+05  3.219523E+03 -2.918671E+04
       326   7 -4.591264E+06 -6.372013E+05 -6.182432E+05  4.949776E+05  1.006202E+04 -1.079721E+05
       326   8 -3.699993E+06 -4.112238E+05 -4.040962E+05  2.623196E+05  2.319232E+04 -7.177075E+04
       326   9 -2.814664E+06 -1.899595E+05 -2.006505E+05  4.961598E+05  3.620350E+04 -2.898419E+04
       326  10  5.462010E+05  6.298527E+05  5.677910E+05  5.074257E+05 -6.098254E-09 -1.077022E-08
       326  11 -3.419198E+05  4.167697E+05  3.699409E+05  2.736202E+05 -2.530599E-09  3.708227E-09
       326  12 -1.234337E+06  2.006334E+05  1.679598E+05  5.061560E+05 -3.256350E-09  6.080509E-09
       326  13 -2.025596E+06 -3.448588E+03 -2.501712E+04  5.011938E+05  1.214501E-11 -8.124376E-09
       326  14 -2.022267E+06  2.869095E+03 -1.698922E+04  2.679648E+05 -2.717341E-09 -3.191603E-11
       326  15 -2.024791E+06  5.358431E+03 -1.632622E+04  5.011557E+05  9.359330E-10 -4.070500E-09
       326  16 -4.591267E+06 -6.372139E+05 -6.182653E+05  4.949785E+05  2.398866E-09 -3.430645E-09
       326  17 -3.699995E+06 -4.112295E+05 -4.041069E+05  2.623210E+05  1.605414E-09  1.809643E-09
       326  18 -2.814666E+06 -1.899608E+05 -2.006546E+05  4.961607E+05  1.595281E-09  2.823371E-09
       326  19  5.462056E+05  6.298656E+05  5.678155E+05  5.074289E+05  3.715016E+04  1.081360E+05
       326  20 -3.419172E+05  4.167756E+05  3.699528E+05  2.736221E+05  3.340670E+04  7.204463E+04
       326  21 -1.234336E+06  2.006345E+05  1.679631E+05  5.061567E+05  2.980630E+04  2.938962E+04
       326  22 -2.025593E+06 -3.436015E+03 -2.499486E+04  5.011950E+05  1.349552E+04  1.080539E+05
       326  23 -2.022265E+06  2.874649E+03 -1.697946E+04  2.679651E+05  5.069125E+03  7.190753E+04
       326  24 -2.024790E+06  5.359348E+03 -1.632460E+04  5.011556E+05 -3.219523E+03  2.918671E+04
       326  25 -4.591264E+06 -6.372013E+05 -6.182432E+05  4.949776E+05 -1.006202E+04  1.079721E+05
       326  26 -3.699993E+06 -4.112238E+05 -4.040962E+05  2.623196E+05 -2.319232E+04  7.177075E+04
       326  27 -2.814664E+06 -1.899595E+05 -2.006505E+05  4.961598E+05 -3.620350E+04  2.898419E+04
       327   1 -2.091275E+06 -1.065006E+04 -3.531401E+04  4.986798E+05 -2.677116E+04 -2.212024E+03
       327   2 -2.977086E+06 -2.319717E+05 -2.456229E+05  2.649022E+05 -1.034439E+04  4.071504E+04
       327   3 -3.872240E+06 -4.636503E+05 -4.706019E+05  4.985331E+05  6.148011E+03  7.801899E+04
       327   4 -2.025416E+06  6.082385E+03 -1.784815E+04  5.013549E+05  5.991846E+03 -2.005396E+03
       327   5 -2.020974E+06  3.923309E+03 -2.502321E+04  2.677093E+05  1.838141E+04  4.087484E+04
       327   6 -2.025890E+06 -7.820440E+03 -4.399741E+04  5.014286E+05  3.086003E+04  7.813859E+04
       327   7 -1.959551E+06  2.281509E+04 -3.786008E+02  5.040302E+05  3.875836E+04 -1.798497E+03
       327   8 -1.064010E+06  2.397545E+05  1.955187E+05  2.705194E+05  4.715126E+04  4.103478E+04
       327   9 -1.763676E+05  4.477697E+05  3.823818E+05  5.043274E+05  5.564525E+04  7.825823E+04
       327  10 -2.091276E+06 -1.065026E+04 -3.531537E+04  4.986798E+05  2.112556E-09  1.002490E-08
       327  11 -2.977087E+06 -2.319735E+05 -2.456262E+05  2.649025E+05  1.551722E-10  9.803424E-09
       327  12 -3.872242E+06 -4.636568E+05 -4.706134E+05  4.985327E+05 -6.398087E-10 -2.020038E-09
       327  13 -2.025416E+06  6.082371E+03 -1.784823E+04  5.013549E+05  1.597161E-09 -4.826625E-09
       327  14 -2.020975E+06  3.921426E+03 -2.502698E+04  2.677087E+05 -2.401856E-09  1.088698E-08
       327  15 -2.025893E+06 -7.827244E+03 -4.401066E+04  5.014267E+05 -1.055131E-09  1.070047E-08
       327  16 -1.959552E+06  2.281468E+04 -3.814390E+02  5.040303E+05 -4.932345E-09  7.094380E-09
       327  17 -1.064013E+06  2.397521E+05  1.955114E+05  2.705179E+05  3.752977E-10  1.073894E-08
       327  18 -1.763725E+05  4.477623E+05  3.823645E+05  5.043239E+05  7.349612E-10  4.157806E-09
       327  19 -2.091275E+06 -1.065006E+04 -3.531401E+04  4.986798E+05  2.677116E+04  2.212024E+03
       327  20 -2.977086E+06 -2.319717E+05 -2.456229E+05  2.649022E+05  1.034439E+04 -4.071504E+04
       327  21 -3.872240E+06 -4.636503E+05 -4.706019E+05  4.985331E+05 -6.148011E+03 -7.801899E+04
       327  22 -2.025416E+06  6.082385E+03 -1.784815E+04  5.013549E+05 -5.991846E+03  2.005396E+03
       327  23 -2.020974E+06  3.923309E+03 -2.502321E+04  2.677093E+05 -1.838141E+04 -4.087484E+04
       327  24 -2.025890E+06 -7.820440E+03 -4.399741E+04  5.014286E+05 -3.086003E+04 -7.813859E+04
       327  25 -1.959551E+06  2.281509E+04 -3.786008E+02  5.040302E+05 -3.875836E+04  1.798497E+03
       327  26 -1.064010E+06  2.397545E+05  1.955187E+05  2.705194E+05 -4.715126E+04 -4.103478E+04
       327  27 -1.763676E+05  4.477697E+05  3.823818E+05  5.043274E+05 -5.564525E+04 -7.825823E+04
       328   1 -4.732177E+06 -6.539075E+05 -6.755765E+05  4.661415E+05 -2.239943E+04  1.174069E+05
       328   2 -5.582758E+06 -8.728475E+05 -9.182357E+05  2.832312E+05  1.100405E+05  1.433544E+05
       328   3 -6.491518E+06 -1.273773E+06 -1.292457E+06  5.579914E+05  2.425469E+05  5.001747E+04
       328   4 -2.034429E+06  1.248484E+04 -5.350568E+04  4.990849E+05  3.853425E+04  1.176708E+05
       328   5 -2.013523E+06  9.866955E+03 -8.899999E+04  2.705053E+05  8.594901E+04  1.432153E+05
       328   6 -2.036257E+06 -1.592567E+05 -1.963229E+05  4.995064E+05  1.336280E+05  4.976125E+04
       328   7  6.701078E+05  6.783704E+05  5.680952E+05  5.321627E+05  9.973194E+04  1.179407E+05
       328   8  1.567568E+06  8.916804E+05  7.393797E+05  2.576932E+05  6.171795E+04  1.430778E+05
       328   9  2.437259E+06  9.537970E+05  8.983932E+05  4.405818E+05  2.391962E+04  4.952698E+04
       328  10 -4.732182E+06 -6.539224E+05 -6.756033E+05  4.661436E+05  2.790604E-09 -2.511812E-09
       328  11 -5.582777E+06 -8.728728E+05 -9.182972E+05  2.832185E+05 -2.419198E-09  8.265282E-09
       328  12 -6.491582E+06 -1.273792E+06 -1.292574E+06  5.579816E+05 -1.823776E-11  2.589680E-09
       328  13 -2.034434E+06  1.246959E+04 -5.353446E+04  4.990812E+05  5.841881E-11  1.773067E-09
       328  14 -2.013536E+06  9.842966E+03 -8.905240E+04  2.704954E+05 -2.788536E-09  7.862129E-09
       328  15 -2.036277E+06 -1.592641E+05 -1.963612E+05  4.995011E+05 -2.537814E-10  6.478502E-12
       328  16  6.700934E+05  6.783528E+05  5.680504E+05  5.321532E+05 -3.866496E-09  4.152973E-09
       328  17  1.567559E+06  8.916575E+05  7.393341E+05  2.576861E+05  3.565882E-10 -4.001863E-10
       328  18  2.437258E+06  9.537942E+05  8.983875E+05  4.405808E+05 -8.413328E-10 -2.061431E-09
       328  19 -4.732177E+06 -6.539075E+05 -6.755765E+05  4.661415E+05  2.239943E+04 -1.174069E+05
       328  20 -5.582758E+06 -8.728475E+05 -9.182357E+05  2.832312E+05 -1.100405E+05 -1.433544E+05
       328  21 -6.491518E+06 -1.273773E+06 -1.292457E+06  5.579914E+05 -2.425469E+05 -5.001747E+04
       328  22 -2.034429E+06  1.248484E+04 -5.350568E+04  4.990849E+05 -3.853425E+04 -1.176708E+05
       328  23 -2.013523E+06  9.866955E+03 -8.899999E+04  2.705053E+05 -8.594901E+04 -1.432153E+05
       328  24 -2.036257E+06 -1.592567E+05 -1.963229E+05  4.995064E+05 -1.336280E+05 -4.976125E+04
       328  25  6.701078E+05  6.783704E+05  5.680952E+05  5.321627E+05 -9.973194E+04 -1.179407E+05
       328  26  1.567568E+06  8.916804E+05  7.393797E+05  2.576932E+05 -6.171795E+04 -1.430778E+05
       328  27  2.437259E+06  9.537970E+05  8.983932E+05  4.405818E+05 -2.391962E+04 -4.952698E+04
       329   1  2.541614E+06  9.114569E+05  8.915193E+05  4.112745E+05  7.803912E+04 -4.121649E+04
       329   2  1.807297E+06  7.384839E+05  6.823380E+05  2.286185E+05  1.257275E+04 -1.195301E+05
       329   3  1.084344E+06  5.632867E+05  5.157389E+05  4.230880E+05 -5.300762E+04 -9.905196E+04
       329   4 -1.192568E+06 -1.733215E+04 -2.179207E+04  4.136985E+05 -1.403372E+04 -4.138519E+04
       329   5 -1.191242E+06  4.174523E+02 -1.089365E+04  2.250548E+05 -8.123751E+03 -1.196275E+05
       329   6 -1.191410E+06  3.581018E+03 -6.864278E+03  4.136536E+05 -2.404659E+03 -9.886445E+04
       329   7 -4.914045E+06 -9.471487E+05 -9.360916E+05  4.160987E+05 -1.055553E+05 -4.155527E+04
       329   8 -4.181477E+06 -7.382805E+05 -7.047246E+05  2.215013E+05 -2.872117E+04 -1.197250E+05
       329   9 -3.462364E+06 -5.564849E+05 -5.298000E+05  4.042476E+05  4.801455E+04 -9.867809E+04
       329  10  2.541607E+06  9.114535E+05  8.915047E+05  4.112770E+05 -2.858492E-10 -1.127493E-09
       329  11  1.807293E+06  7.384686E+05  6.823108E+05  2.286197E+05  5.907994E-10 -1.730477E-09
       329  12  1.084339E+06  5.632755E+05  5.157152E+05  4.230838E+05  1.607322E-09 -5.302665E-09
       329  13 -1.192569E+06 -1.733404E+04 -2.179566E+04  4.136980E+05 -8.815395E-10  3.191924E-09
       329  14 -1.191246E+06  4.020762E+02 -1.092065E+04  2.250540E+05 -1.053604E-09  1.474084E-09
       329  15 -1.191412E+06  3.570526E+03 -6.882645E+03  4.136534E+05  1.339407E-09 -6.110705E-09
       329  16 -4.914057E+06 -9.471535E+05 -9.361159E+05  4.160952E+05 -1.966457E-09  1.440924E-10
       329  17 -4.181482E+06 -7.382961E+05 -7.047530E+05  2.214985E+05  3.255950E-10 -1.856101E-09
       329  18 -3.462369E+06 -5.564960E+05 -5.298226E+05  4.042514E+05 -9.518039E-10 -8.338385E-09
       329  19  2.541614E+06  9.114569E+05  8.915193E+05  4.112745E+05 -7.803912E+04  4.121649E+04
       329  20  1.807297E+06  7.384839E+05  6.823380E+05  2.286185E+05 -1.257275E+04  1.195301E+05
       329  21  1.084344E+06  5.632867E+05  5.157389E+05  4.230880E+05  5.300762E+04  9.905196E+04
       329  22 -1.192568E+06 -1.733215E+04 -2.179207E+04  4.136985E+05  1.403372E+04  4.138519E+04
       329  23 -1.191242E+06  4.174523E+02 -1.089365E+04  2.250548E+05  8.123751E+03  1.196275E+05
       329  24 -1.191410E+06  3.581018E+03 -6.864278E+03  4.136536E+05  2.404659E+03  9.886445E+04
       329  25 -4.914045E+06 -9.471487E+05 -9.360916E+05  4.160987E+05  1.055553E+05  4.155527E+04
       329  26 -4.181477E+06 -7.382805E+05 -7.047246E+05  2.215013E+05  2.872117E+04  1.197250E+05
       329  27 -3.462364E+06 -5.564849E+05 -5.298000E+05  4.042476E+05 -4.801455E+04  9.867809E+04
       330   1  3.819304E+05  3.888540E+05  3.559064E+05  4.196139E+05 -2.174069E+04 -6.632869E+04
       330   2 -3.487397E+05  2.091388E+05  1.877783E+05  2.260404E+05 -2.231710E+04 -3.590193E+04
       330   3 -1.082188E+06  3.085606E+04  1.949050E+04  4.159583E+05 -2.295698E+04 -8.133812E+02
       330   4 -1.191276E+06  1.592480E+03 -6.505465E+03  4.150653E+05 -1.503202E+03 -6.624575E+04
       330   5 -1.189183E+06  2.197076E+03 -5.730894E+03  2.233003E+05  1.261246E+03 -3.579030E+04
       330   6 -1.190950E+06  3.687093E+03 -7.413428E+03  4.150577E+05  3.961609E+03 -6.683332E+02
       330   7 -2.762191E+06 -3.858422E+05 -3.690802E+05  4.105250E+05  1.868343E+04 -6.616299E+04
       330   8 -2.028972E+06 -2.047938E+05 -1.992849E+05  2.205631E+05  2.480791E+04 -3.567881E+04
       330   9 -1.299700E+06 -2.348237E+04 -3.431550E+04  4.141573E+05  3.087548E+04 -5.233495E+02
       330  10  3.819287E+05  3.888491E+05  3.558973E+05  4.196127E+05 -6.889915E-09 -7.634106E-10
       330  11 -3.487406E+05  2.091372E+05  1.877750E+05  2.260398E+05 -1.690716E-09  1.621787E-09
       330  12 -1.082189E+06  3.085592E+04  1.948950E+04  4.159583E+05 -3.892713E-12  2.100311E-09
       330  13 -1.191277E+06  1.587769E+03 -6.513711E+03  4.150652E+05  1.539517E-09 -2.429865E-09
       330  14 -1.189184E+06  2.195701E+03 -5.733302E+03  2.233004E+05 -1.770183E-09  4.098495E-09
       330  15 -1.190950E+06  3.687089E+03 -7.413458E+03  4.150577E+05  4.643172E-10  3.152410E-09
       330  16 -2.762192E+06 -3.858470E+05 -3.690891E+05  4.105260E+05  5.925521E-09 -8.197726E-10
       330  17 -2.028973E+06 -2.047953E+05 -1.992885E+05  2.205638E+05  4.052223E-09 -7.148831E-09
       330  18 -1.299701E+06 -2.348263E+04 -3.431730E+04  4.141573E+05 -1.119826E-09 -1.478816E-09
       330  19  3.819304E+05  3.888540E+05  3.559064E+05  4.196139E+05  2.174069E+04  6.632869E+04
       330  20 -3.487397E+05  2.091388E+05  1.877783E+05  2.260404E+05  2.231710E+04  3.590193E+04
       330  21 -1.082188E+06  3.085606E+04  1.949050E+04  4.159583E+05  2.295698E+04  8.133812E+02
       330  22 -1.191276E+06  1.592480E+03 -6.505465E+03  4.150653E+05  1.503202E+03  6.624575E+04
       330  23 -1.189183E+06  2.197076E+03 -5.730894E+03  2.233003E+05 -1.261246E+03  3.579030E+04
       330  24 -1.190950E+06  3.687093E+03 -7.413428E+03  4.150577E+05 -3.961609E+03  6.683332E+02
       330  25 -2.762191E+06 -3.858422E+05 -3.690802E+05  4.105250E+05 -1.868343E+04  6.616299E+04
       330  26 -2.028972E+06 -2.047938E+05 -1.992849E+05  2.205631E+05 -2.480791E+04  3.567881E+04
       330  27 -1.299700E+06 -2.348237E+04 -3.431550E+04  4.141573E+05 -3.087548E+04  5.233495E+02
       331   1 -1.784582E+06 -1.420966E+05 -1.473548E+05  4.111937E+05 -2.183768E+04  2.147392E+04
       331   2 -2.512259E+06 -3.239227E+05 -3.194177E+05  2.197503E+05 -1.091515E+04  5.657683E+04
       331   3 -3.245287E+06 -5.118987E+05 -5.009094E+05  4.115274E+05  8.536443E+01  8.638230E+04
       331   4 -1.191327E+06  4.476771E+03 -8.905192E+03  4.149699E+05  5.237240E+03  2.161672E+04
       331   5 -1.188997E+06  2.304312E+03 -1.443588E+04  2.234046E+05  1.235841E+04  5.667579E+04
       331   6 -1.191848E+06 -5.310421E+03 -2.671094E+04  4.150102E+05  1.957041E+04  8.644436E+04
       331   7 -5.977454E+05  1.510256E+05  1.295233E+05  4.187492E+05  3.233792E+04  2.175977E+04
       331   8  1.358921E+05  3.284087E+05  2.904316E+05  2.270647E+05  3.568134E+04  5.677492E+04
       331   9  8.655076E+05  5.009816E+05  4.472078E+05  4.184994E+05  3.911959E+04  8.650653E+04
       331  10 -1.784582E+06 -1.420973E+05 -1.473565E+05  4.111941E+05 -8.568439E-09  8.223996E-09
       331  11 -2.512260E+06 -3.239261E+05 -3.194240E+05  2.197508E+05 -1.205504E-09  1.792045E-09
       331  12 -3.245289E+06 -5.119067E+05 -5.009234E+05  4.115274E+05  6.576064E-09  6.234829E-09
       331  13 -1.191327E+06  4.476262E+03 -8.906121E+03  4.149698E+05 -6.074471E-10  3.197106E-09
       331  14 -1.188998E+06  2.300824E+03 -1.444220E+04  2.234041E+05 -2.442467E-09  4.423932E-09
       331  15 -1.191851E+06 -5.318542E+03 -2.672569E+04  4.150088E+05 -3.478362E-10 -1.718364E-09
       331  16 -5.977466E+05  1.510248E+05  1.295204E+05  4.187487E+05  6.933439E-09  4.749231E-10
       331  17  1.358899E+05  3.284049E+05  2.904232E+05  2.270631E+05  5.427649E-10 -4.235175E-11
       331  18  8.655039E+05  5.009732E+05  4.471909E+05  4.184966E+05 -9.442019E-09 -1.125224E-08
       331  19 -1.784582E+06 -1.420966E+05 -1.473548E+05  4.111937E+05  2.183768E+04 -2.147392E+04
       331  20 -2.512259E+06 -3.239227E+05 -3.194177E+05  2.197503E+05  1.091515E+04 -5.657683E+04
       331  21 -3.245287E+06 -5.118987E+05 -5.009094E+05  4.115274E+05 -8.536443E+01 -8.638230E+04
       331  22 -1.191327E+06  4.476771E+03 -8.905192E+03  4.149699E+05 -5.237240E+03 -2.161672E+04
       331  23 -1.188997E+06  2.304312E+03 -1.443588E+04  2.234046E+05 -1.235841E+04 -5.667579E+04
       331  24 -1.191848E+06 -5.310421E+03 -2.671094E+04  4.150102E+05 -1.957041E+04 -8.644436E+04
       331  25 -5.977454E+05  1.510256E+05  1.295233E+05  4.187492E+05 -3.233792E+04 -2.175977E+04
       331  26  1.358921E+05  3.284087E+05  2.904316E+05  2.270647E+05 -3.568134E+04 -5.677492E+04
       331  27  8.655076E+05  5.009816E+05  4.472078E+05  4.184994E+05 -3.911959E+04 -8.650653E+04
       332   1 -3.948898E+06 -6.716936E+05 -6.663927E+05  3.916607E+05 -2.907032E+04  1.202339E+05
       332   2 -4.653881E+06 -8.519615E+05 -8.601685E+05  2.336868E+05  7.968780E+04  1.394059E+05
       332   3 -5.396610E+06 -1.149035E+06 -1.153296E+06  4.514467E+05  1.884188E+05  4.762371E+04
       332   4 -1.196874E+06  7.254508E+03 -3.268820E+04  4.132713E+05  2.421442E+04  1.203884E+05
       332   5 -1.185501E+06  5.002245E+03 -5.536019E+04  2.255186E+05  5.372792E+04  1.392983E+05
       332   6 -1.198261E+06 -9.983530E+04 -1.218833E+05  4.134106E+05  8.334586E+04  4.751956E+04
       332   7  1.562201E+06  6.856742E+05  6.005246E+05  4.349705E+05  7.773446E+04  1.205462E+05
       332   8  2.294058E+06  8.611168E+05  7.486422E+05  2.172967E+05  2.762256E+04  1.391919E+05
       332   9  3.016269E+06  9.480626E+05  9.082737E+05  3.751072E+05 -2.244266E+04  4.742895E+04
       332  10 -3.948903E+06 -6.717094E+05 -6.664214E+05  3.916635E+05 -2.449879E-09  5.338013E-09
       332  11 -4.653893E+06 -8.519841E+05 -8.602170E+05  2.336778E+05 -1.331586E-10 -1.923837E-09
       332  12 -5.396649E+06 -1.149047E+06 -1.153367E+06  4.514394E+05  1.390452E-09  7.822420E-10
       332  13 -1.196879E+06  7.238798E+03 -3.271651E+04  4.132689E+05 -8.597941E-10  6.754110E-09
       332  14 -1.185509E+06  4.980647E+03 -5.540206E+04  2.255126E+05  1.129417E-10 -2.627510E-09
       332  15 -1.198269E+06 -9.983959E+04 -1.219006E+05  4.134074E+05 -1.199014E-09  1.069718E-09
       332  16  1.562190E+06  6.856570E+05  6.004860E+05  4.349630E+05  6.491900E-10 -1.696751E-09
       332  17  2.294052E+06  8.610958E+05  7.486044E+05  2.172937E+05  3.341595E-10  9.603916E-11
       332  18  3.016268E+06  9.480601E+05  9.082686E+05  3.751081E+05 -1.926302E-09 -2.165558E-11
       332  19 -3.948898E+06 -6.716936E+05 -6.663927E+05  3.916607E+05  2.907032E+04 -1.202339E+05
       332  20 -4.653881E+06 -8.519615E+05 -8.601685E+05  2.336868E+05 -7.968780E+04 -1.394059E+05
       332  21 -5.396610E+06 -1.149035E+06 -1.153296E+06  4.514467E+05 -1.884188E+05 -4.762371E+04
       332  22 -1.196874E+06  7.254508E+03 -3.268820E+04  4.132713E+05 -2.421442E+04 -1.203884E+05
       332  23 -1.185501E+06  5.002245E+03 -5.536019E+04  2.255186E+05 -5.372792E+04 -1.392983E+05
       332  24 -1.198261E+06 -9.983530E+04 -1.218833E+05  4.134106E+05 -8.334586E+04 -4.751956E+04
       332  25  1.562201E+06  6.856742E+05  6.005246E+05  4.349705E+05 -7.773446E+04 -1.205462E+05
       332  26  2.294058E+06  8.611168E+05  7.486422E+05  2.172967E+05 -2.762256E+04 -1.391919E+05
       332  27  3.016269E+06  9.480626E+05  9.082737E+05  3.751072E+05  2.244266E+04 -4.742895E+04
       333   1  1.641427E+06  5.536940E+05  5.479235E+05  2.774068E+05  6.342737E+04 -2.366154E+04
       333   2  1.159262E+06  4.164424E+05  3.988164E+05  1.511516E+05  1.800543E+04 -6.741990E+04
       333   3  6.900089E+05  3.010828E+05  2.849462E+05  2.715001E+05 -2.740155E+04 -5.299383E+04
       333   4 -5.351356E+05  1.216566E+04  1.526940E+04  2.719590E+05  1.086488E+04 -2.367750E+04
       333   5 -5.376478E+05 -1.286643E+03  6.379458E+03  1.486402E+05  7.448145E+03 -6.744120E+04
       333   6 -5.347155E+05 -8.568676E+01  3.629099E+03  2.719638E+05  4.010973E+03 -5.295017E+04
       333   7 -2.707382E+06 -5.297118E+05 -5.177210E+05  2.665291E+05 -4.151412E+04 -2.369259E+04
       333   8 -2.231898E+06 -4.192179E+05 -3.862495E+05  1.461348E+05 -3.080563E+03 -6.746246E+04
       333   9 -1.758050E+06 -3.013584E+05 -2.777834E+05  2.724256E+05  3.536207E+04 -5.290642E+04
       333  10  1.641423E+06  5.536923E+05  5.479149E+05  2.774080E+05 -1.815761E-09  1.754751E-10
       333  11  1.159261E+06  4.164375E+05  3.988072E+05  1.511526E+05 -8.559385E-11  1.461625E-09
       333  12  6.900073E+05  3.010796E+05  2.849395E+05  2.714990E+05 -9.735220E-10 -3.541082E-10
       333  13 -5.351359E+05  1.216502E+04  1.526813E+04  2.719592E+05  9.445910E-10 -2.705931E-09
       333  14 -5.376491E+05 -1.291541E+03  6.370808E+03  1.486406E+05  2.172951E-10 -3.072559E-09
       333  15 -5.347162E+05 -8.870117E+01  3.623801E+03  2.719639E+05  9.065006E-12 -2.488358E-09
       333  16 -2.707384E+06 -5.297128E+05 -5.177253E+05  2.665283E+05  1.631049E-09  9.415602E-10
       333  17 -2.231900E+06 -4.192228E+05 -3.862581E+05  1.461346E+05 -9.665395E-10  1.845628E-10
       333  18 -1.758052E+06 -3.013617E+05 -2.777910E+05  2.724271E+05  4.733067E-10 -4.243853E-09
       333  19  1.641427E+06  5.536940E+05  5.479235E+05  2.774068E+05 -6.342737E+04  2.366154E+04
       333  20  1.159262E+06  4.164424E+05  3.988164E+05  1.511516E+05 -1.800543E+04  6.741990E+04
       333  21  6.900089E+05  3.010828E+05  2.849462E+05  2.715001E+05  2.740155E+04  5.299383E+04
       333  22 -5.351356E+05  1.216566E+04  1.526940E+04  2.719590E+05 -1.086488E+04  2.367750E+04
       333  23 -5.376478E+05 -1.286643E+03  6.379458E+03  1.486402E+05 -7.448145E+03  6.744120E+04
       333  24 -5.347155E+05 -8.568676E+01  3.629099E+03  2.719638E+05 -4.010973E+03  5.295017E+04
       333  25 -2.707382E+06 -5.297118E+05 -5.177210E+05  2.665291E+05  4.151412E+04  2.369259E+04
       333  26 -2.231898E+06 -4.192179E+05 -3.862495E+05  1.461348E+05  3.080563E+03  6.746246E+04
       333  27 -1.758050E+06 -3.013584E+05 -2.777834E+05  2.724256E+05 -3.536207E+04  5.290642E+04
       334   1  2.319164E+05  1.905639E+05  1.792495E+05  2.737470E+05 -1.006901E+04 -3.245896E+04
       334   2 -2.440694E+05  7.222398E+04  6.737200E+04  1.483227E+05 -1.216756E+04 -1.232459E+04
       334   3 -7.200391E+05 -4.446146E+04 -4.295608E+04  2.722374E+05 -1.427831E+04  1.050676E+04
       334   4 -5.358213E+05  1.642324E+03  2.495299E+03  2.725616E+05  3.458781E+03 -3.243646E+04
       334   5 -5.355165E+05  4.837445E+02  2.454780E+02  1.478897E+05  3.297923E+03 -1.229572E+04
       334   6 -5.357489E+05  6.568918E+02 -1.790114E+03  2.725637E+05  3.123251E+03  1.054336E+04
       334   7 -1.303013E+06 -1.873204E+05 -1.742973E+05  2.713773E+05  1.696998E+04 -3.241398E+04
       334   8 -8.268845E+05 -7.126231E+04 -6.688578E+04  1.474568E+05  1.875620E+04 -1.226687E+04
       334   9 -3.514264E+05  4.577310E+04  3.937485E+04  2.728901E+05  2.052993E+04  1.057996E+04
       334  10  2.319160E+05  1.905628E+05  1.792473E+05  2.737468E+05 -4.174278E-09 -4.035479E-09
       334  11 -2.440696E+05  7.222378E+04  6.737144E+04  1.483225E+05 -1.336385E-09  1.045600E-09
       334  12 -7.200393E+05 -4.446164E+04 -4.295667E+04  2.722375E+05  8.058347E-10  3.164368E-09
       334  13 -5.358216E+05  1.641191E+03  2.493299E+03  2.725617E+05 -1.457802E-09  5.194582E-09
       334  14 -5.355166E+05  4.835793E+02  2.451734E+02  1.478897E+05  3.675877E-10 -1.016269E-08
       334  15 -5.357489E+05  6.567699E+02 -1.790341E+03  2.725637E+05 -6.711373E-10  6.364899E-09
       334  16 -1.303014E+06 -1.873216E+05 -1.742998E+05  2.713778E+05  4.624380E-09 -4.963587E-09
       334  17 -8.268849E+05 -7.126256E+04 -6.688673E+04  1.474570E+05  8.146864E-10 -8.807891E-10
       334  18 -3.514269E+05  4.577287E+04  3.937385E+04  2.728900E+05 -5.192329E-10 -6.418319E-10
       334  19  2.319164E+05  1.905639E+05  1.792495E+05  2.737470E+05  1.006901E+04  3.245896E+04
       334  20 -2.440694E+05  7.222398E+04  6.737200E+04  1.483227E+05  1.216756E+04  1.232459E+04
       334  21 -7.200391E+05 -4.446146E+04 -4.295608E+04  2.722374E+05  1.427831E+04 -1.050676E+04
       334  22 -5.358213E+05  1.642324E+03  2.495299E+03  2.725616E+05 -3.458781E+03  3.243646E+04
       334  23 -5.355165E+05  4.837445E+02  2.454780E+02  1.478897E+05 -3.297923E+03  1.229572E+04
       334  24 -5.357489E+05  6.568918E+02 -1.790114E+03  2.725637E+05 -3.123251E+03 -1.054336E+04
       334  25 -1.303013E+06 -1.873204E+05 -1.742973E+05  2.713773E+05 -1.696998E+04  3.241398E+04
       334  26 -8.268845E+05 -7.126231E+04 -6.688578E+04  1.474568E+05 -1.875620E+04  1.226687E+04
       334  27 -3.514264E+05  4.577310E+04  3.937485E+04  2.728901E+05 -2.052993E+04 -1.057996E+04
       335   1 -1.176223E+06 -1.566483E+05 -1.513445E+05  2.709028E+05 -1.420857E+04  2.497979E+04
       335   2 -1.650528E+06 -2.741997E+05 -2.627766E+05  1.472251E+05 -8.492074E+03  4.772753E+04
       335   3 -2.126282E+06 -3.954957E+05 -3.789211E+05  2.726054E+05 -2.737744E+03  6.672348E+04
       335   4 -5.359833E+05  1.229996E+03 -2.848913E+03  2.724915E+05  3.484841E+03  2.501364E+04
       335   5 -5.355360E+05  4.280855E+02 -6.050872E+03  1.479788E+05  6.505685E+03  4.774321E+04
       335   6 -5.362655E+05 -3.627544E+03 -1.207213E+04  2.724973E+05  9.568646E+03  6.672479E+04
       335   7  1.046360E+05  1.590795E+05  1.456204E+05  2.740816E+05  2.119639E+04  2.504756E+04
       335   8  5.806095E+05  2.749690E+05  2.505932E+05  1.487333E+05  2.153021E+04  4.775890E+04
       335   9  1.056096E+06  3.880633E+05  3.546091E+05  2.723877E+05  2.190637E+04  6.672610E+04
       335  10 -1.176223E+06 -1.566490E+05 -1.513461E+05  2.709031E+05 -6.836532E-09 -4.313240E-09
       335  11 -1.650529E+06 -2.742022E+05 -2.627810E+05  1.472254E+05 -5.829858E-11 -3.399685E-09
       335  12 -2.126283E+06 -3.955005E+05 -3.789294E+05  2.726056E+05  8.999112E-09 -4.425592E-09
       335  13 -5.359834E+05  1.229321E+03 -2.850111E+03  2.724914E+05  5.441351E-10 -1.801937E-09
       335  14 -5.355367E+05  4.256271E+02 -6.055234E+03  1.479785E+05 -3.714115E-10 -3.069382E-09
       335  15 -5.362668E+05 -3.632348E+03 -1.208067E+04  2.724967E+05 -3.777383E-10 -3.201392E-09
       335  16  1.046354E+05  1.590788E+05  1.456184E+05  2.740811E+05  6.724453E-09 -5.345532E-09
       335  17  5.806084E+05  2.749664E+05  2.505881E+05  1.487325E+05 -1.371455E-11 -2.270941E-09
       335  18  1.056094E+06  3.880584E+05  3.545999E+05  2.723865E+05 -9.109509E-09  1.056565E-09
       335  19 -1.176223E+06 -1.566483E+05 -1.513445E+05  2.709028E+05  1.420857E+04 -2.497979E+04
       335  20 -1.650528E+06 -2.741997E+05 -2.627766E+05  1.472251E+05  8.492074E+03 -4.772753E+04
       335  21 -2.126282E+06 -3.954957E+05 -3.789211E+05  2.726054E+05  2.737744E+03 -6.672348E+04
       335  22 -5.359833E+05  1.229996E+03 -2.848913E+03  2.724915E+05 -3.484841E+03 -2.501364E+04
       335  23 -5.355360E+05  4.280855E+02 -6.050872E+03  1.479788E+05 -6.505685E+03 -4.774321E+04
       335  24 -5.362655E+05 -3.627544E+03 -1.207213E+04  2.724973E+05 -9.568646E+03 -6.672479E+04
       335  25  1.046360E+05  1.590795E+05  1.456204E+05  2.740816E+05 -2.119639E+04 -2.504756E+04
       335  26  5.806095E+05  2.749690E+05  2.505932E+05  1.487333E+05 -2.153021E+04 -4.775890E+04
       335  27  1.056096E+06  3.880633E+05  3.546091E+05  2.723877E+05 -2.190637E+04 -6.672610E+04
       336   1 -2.583734E+06 -5.015958E+05 -4.852100E+05  2.640643E+05 -2.454535E+04  8.953057E+04
       336   2 -3.047039E+06 -6.185441E+05 -6.080329E+05  1.563338E+05  4.531336E+04  1.009024E+05
       336   3 -3.529872E+06 -7.940057E+05 -7.902968E+05  2.936487E+05  1.150119E+05  3.395428E+04
       336   4 -5.386013E+05  2.242937E+03 -1.495642E+04  2.716103E+05  1.171675E+04  8.953231E+04
       336   5 -5.339853E+05  1.598744E+03 -2.573889E+04  1.490865E+05  2.546936E+04  1.008842E+05
       336   6 -5.392403E+05 -4.764818E+04 -5.681182E+04  2.715612E+05  3.911756E+04  3.405401E+04
       336   7  1.510418E+06  5.057899E+05  4.550254E+05  2.791801E+05  4.809767E+04  8.953492E+04
       336   8  1.984925E+06  6.212970E+05  5.561333E+05  1.418096E+05  5.545158E+03  1.008666E+05
       336   9  2.459584E+06  6.980495E+05  6.760386E+05  2.493680E+05 -3.714361E+04  3.415901E+04
       336  10 -2.583737E+06 -5.016045E+05 -4.852262E+05  2.640661E+05  5.636176E-09 -1.731237E-09
       336  11 -3.047044E+06 -6.185556E+05 -6.080559E+05  1.563301E+05  1.463927E-09  4.867528E-09
       336  12 -3.529887E+06 -7.940105E+05 -7.903240E+05  2.936455E+05 -1.105512E-09  4.333672E-10
       336  13 -5.386036E+05  2.234295E+03 -1.497173E+04  2.716095E+05 -5.431033E-10 -4.063911E-09
       336  14 -5.339888E+05  1.587644E+03 -2.575923E+04  1.490844E+05  1.427450E-09  7.656340E-09
       336  15 -5.392423E+05 -4.764984E+04 -5.681687E+04  2.715601E+05  3.651135E-10  4.206763E-09
       336  16  1.510414E+06  5.057807E+05  4.550060E+05  2.791766E+05 -5.594587E-09  9.879604E-10
       336  17  1.984923E+06  6.212860E+05  5.561141E+05  1.418092E+05 -1.503994E-09  3.802739E-09
       336  18  2.459583E+06  6.980479E+05  6.760338E+05  2.493690E+05  1.751669E-09  1.367395E-09
       336  19 -2.583734E+06 -5.015958E+05 -4.852100E+05  2.640643E+05  2.454535E+04 -8.953057E+04
       336  20 -3.047039E+06 -6.185441E+05 -6.080329E+05  1.563338E+05 -4.531336E+04 -1.009024E+05
       336  21 -3.529872E+06 -7.940057E+05 -7.902968E+05  2.936487E+05 -1.150119E+05 -3.395428E+04
       336  22 -5.386013E+05  2.242937E+03 -1.495642E+04  2.716103E+05 -1.171675E+04 -8.953231E+04
       336  23 -5.339853E+05  1.598744E+03 -2.573889E+04  1.490865E+05 -2.546936E+04 -1.008842E+05
       336  24 -5.392403E+05 -4.764818E+04 -5.681182E+04  2.715612E+05 -3.911756E+04 -3.405401E+04
       336  25  1.510418E+06  5.057899E+05  4.550254E+05  2.791801E+05 -4.809767E+04 -8.953492E+04
       336  26  1.984925E+06  6.212970E+05  5.561333E+05  1.418096E+05 -5.545158E+03 -1.008666E+05
       336  27  2.459584E+06  6.980495E+05  6.760386E+05  2.493680E+05  3.714361E+04 -3.415901E+04
       337   1  6.700958E+05  2.224888E+05  2.245133E+05  1.325159E+05  3.581193E+04 -8.606681E+03
       337   2  4.467742E+05  1.448816E+05  1.488373E+05  7.051726E+04  1.382588E+04 -2.350786E+04
       337   3  2.331772E+05  9.154471E+04  9.365571E+04  1.220318E+05 -8.108505E+03 -1.613585E+04
       337   4 -1.451804E+05  1.957805E+04  2.477149E+04  1.254852E+05  1.700627E+04 -8.570142E+03
       337   5 -1.485978E+05 -1.720980E+03  1.103360E+04  6.870548E+04  1.107915E+04 -2.350453E+04
       337   6 -1.451139E+05 -1.520294E+03  6.656148E+03  1.254438E+05  5.195575E+03 -1.615659E+04
       337   7 -9.598505E+05 -1.833816E+05 -1.750177E+05  1.184639E+05 -1.774773E+03 -8.533155E+03
       337   8 -7.436423E+05 -1.483485E+05 -1.267938E+05  6.689558E+04  8.335019E+03 -2.350117E+04
       337   9 -5.232721E+05 -9.459516E+04 -8.035222E+04  1.288537E+05  1.849162E+04 -1.617719E+04
       337  10  6.700944E+05  2.224884E+05  2.245108E+05  1.325162E+05  5.814880E-09  1.561325E-09
       337  11  4.467739E+05  1.448810E+05  1.488359E+05  7.051752E+04  1.631528E-09  3.098269E-09
       337  12  2.331771E+05  9.154441E+04  9.365510E+04  1.220317E+05 -4.101202E-09  2.867506E-09
       337  13 -1.451807E+05  1.957790E+04  2.477080E+04  1.254853E+05  4.208048E-10 -8.226171E-10
       337  14 -1.485981E+05 -1.721606E+03  1.103233E+04  6.870569E+04  1.060031E-09 -2.049907E-09
       337  15 -1.451140E+05 -1.520582E+03  6.655607E+03  1.254439E+05  8.158713E-10  5.798898E-10
       337  16 -9.598506E+05 -1.833816E+05 -1.750178E+05  1.184639E+05 -4.879270E-09 -2.045623E-09
       337  17 -7.436426E+05 -1.483491E+05 -1.267950E+05  6.689574E+04 -9.430545E-10  7.125583E-09
       337  18 -5.232726E+05 -9.459554E+04 -8.035335E+04  1.288539E+05  4.063995E-09  2.318721E-09
       337  19  6.700958E+05  2.224888E+05  2.245133E+05  1.325159E+05 -3.581193E+04  8.606681E+03
       337  20  4.467742E+05  1.448816E+05  1.488373E+05  7.051726E+04 -1.382588E+04  2.350786E+04
       337  21  2.331772E+05  9.154471E+04  9.365571E+04  1.220318E+05  8.108505E+03  1.613585E+04
       337  22 -1.451804E+05  1.957805E+04  2.477149E+04  1.254852E+05 -1.700627E+04  8.570142E+03
       337  23 -1.485978E+05 -1.720980E+03  1.103360E+04  6.870548E+04 -1.107915E+04  2.350453E+04
       337  24 -1.451139E+05 -1.520294E+03  6.656148E+03  1.254438E+05 -5.195575E+03  1.615659E+04
       337  25 -9.598505E+05 -1.833816E+05 -1.750177E+05  1.184639E+05  1.774773E+03  8.533155E+03
       337  26 -7.436423E+05 -1.483485E+05 -1.267938E+05  6.689558E+04 -8.335019E+03  2.350117E+04
       337  27 -5.232721E+05 -9.459516E+04 -8.035222E+04  1.288537E+05 -1.849162E+04  1.617719E+04
       338   1  2.246401E+04  4.264560E+04  4.413937E+04  1.259351E+05 -2.242151E+03 -7.253480E+03
       338   2 -1.963284E+05 -1.248252E+04 -8.594819E+03  6.865948E+04 -4.326667E+03  2.234662E+03
       338   3 -4.139871E+05 -6.626668E+04 -5.953808E+04  1.257092E+05 -6.407893E+03  1.272701E+04
       338   4 -1.464041E+05  1.107754E+03  5.321765E+03  1.256364E+05  4.224675E+03 -7.262908E+03
       338   5 -1.468910E+05 -3.290380E+02  2.722594E+03  6.847279E+04  2.862512E+03  2.223838E+03
       338   6 -1.464101E+05 -5.431898E+02  1.416449E+03  1.256339E+05  1.502927E+03  1.271492E+04
       338   7 -3.152457E+05 -4.043206E+04 -3.349757E+04  1.253378E+05  1.068976E+04 -7.272344E+03
       338   8 -9.745113E+04  1.182430E+04  1.404004E+04  6.828609E+04  1.005226E+04  2.213011E+03
       338   9  1.212336E+05  6.517538E+04  6.236655E+04  1.255586E+05  9.417127E+03  1.270284E+04
       338  10  2.246399E+04  4.264554E+04  4.413927E+04  1.259351E+05  1.649088E-09  7.352720E-10
       338  11 -1.963285E+05 -1.248253E+04 -8.594863E+03  6.865949E+04  8.255765E-10  5.329285E-09
       338  12 -4.139872E+05 -6.626687E+04 -5.953846E+04  1.257093E+05 -2.927807E-10  4.913846E-10
       338  13 -1.464041E+05  1.107693E+03  5.321632E+03  1.256364E+05 -1.069322E-09  7.373442E-10
       338  14 -1.468910E+05 -3.290455E+02  2.722570E+03  6.847279E+04  1.986572E-09 -5.587301E-09
       338  15 -1.464101E+05 -5.433640E+02  1.416141E+03  1.256339E+05  1.178373E-09  5.199375E-10
       338  16 -3.152458E+05 -4.043215E+04 -3.349789E+04  1.253379E+05 -8.456223E-10 -3.692770E-09
       338  17 -9.745124E+04  1.182427E+04  1.403984E+04  6.828607E+04 -1.689299E-10  3.688393E-09
       338  18  1.212334E+05  6.517518E+04  6.236608E+04  1.255585E+05  9.862204E-10 -3.280578E-09
       338  19  2.246401E+04  4.264560E+04  4.413937E+04  1.259351E+05  2.242151E+03  7.253480E+03
       338  20 -1.963284E+05 -1.248252E+04 -8.594819E+03  6.865948E+04  4.326667E+03 -2.234662E+03
       338  21 -4.139871E+05 -6.626668E+04 -5.953808E+04  1.257092E+05  6.407893E+03 -1.272701E+04
       338  22 -1.464041E+05  1.107754E+03  5.321765E+03  1.256364E+05 -4.224675E+03  7.262908E+03
       338  23 -1.468910E+05 -3.290380E+02  2.722594E+03  6.847279E+04 -2.862512E+03 -2.223838E+03
       338  24 -1.464101E+05 -5.431898E+02  1.416449E+03  1.256339E+05 -1.502927E+03 -1.271492E+04
       338  25 -3.152457E+05 -4.043206E+04 -3.349757E+04  1.253378E+05 -1.068976E+04  7.272344E+03
       338  26 -9.745113E+04  1.182430E+04  1.404004E+04  6.828609E+04 -1.005226E+04 -2.213011E+03
       338  27  1.212336E+05  6.517538E+04  6.236655E+04  1.255586E+05 -9.417127E+03 -1.270284E+04
       339   1 -6.230750E+05 -1.176898E+05 -1.091452E+05  1.261327E+05 -6.883934E+03  1.936096E+04
       339   2 -8.413385E+05 -1.712778E+05 -1.596370E+05  6.956563E+04 -5.527463E+03  2.976067E+04
       339   3 -1.059096E+06 -2.257773E+05 -2.110599E+05  1.272302E+05 -4.164670E+03  3.821517E+04
       339   4 -1.465065E+05 -3.069732E+02  9.804675E+02  1.256127E+05  1.298867E+03  1.934709E+04
       339   5 -1.468994E+05 -3.529112E+02  1.293743E+02  6.850020E+04  1.255315E+03  2.974540E+04
       339   6 -1.465865E+05 -1.063599E+03 -6.773934E+02  1.256116E+05  1.218549E+03  3.819966E+04
       339   7  3.302722E+05  1.170599E+05  1.110912E+05  1.250924E+05  9.487907E+03  1.933320E+04
       339   8  5.479865E+05  1.705382E+05  1.598639E+05  6.743376E+04  8.045627E+03  2.973012E+04
       339   9  7.666939E+05  2.235917E+05  2.096499E+05  1.239909E+05  6.609629E+03  3.818414E+04
       339  10 -6.230751E+05 -1.176902E+05 -1.091460E+05  1.261328E+05 -3.587102E-09 -6.818382E-10
       339  11 -8.413388E+05 -1.712787E+05 -1.596387E+05  6.956576E+04  5.933835E-10 -5.343195E-09
       339  12 -1.059096E+06 -2.257788E+05 -2.110627E+05  1.272304E+05  4.080558E-09  1.365014E-09
       339  13 -1.465066E+05 -3.073755E+02  9.797610E+02  1.256127E+05  1.736168E-09  1.930484E-09
       339  14 -1.468996E+05 -3.538617E+02  1.277088E+02  6.850017E+04  2.045856E-09 -2.092699E-09
       339  15 -1.465869E+05 -1.065166E+03 -6.801381E+02  1.256116E+05  1.773966E-09  2.278767E-10
       339  16  3.302720E+05  1.170595E+05  1.110903E+05  1.250923E+05  4.386092E-09  3.581125E-09
       339  17  5.479862E+05  1.705373E+05  1.598622E+05  6.743357E+04 -2.253654E-09  1.088033E-08
       339  18  7.666934E+05  2.235902E+05  2.096471E+05  1.239907E+05 -2.315357E-09 -2.141497E-09
       339  19 -6.230750E+05 -1.176898E+05 -1.091452E+05  1.261327E+05  6.883934E+03 -1.936096E+04
       339  20 -8.413385E+05 -1.712778E+05 -1.596370E+05  6.956563E+04  5.527463E+03 -2.976067E+04
       339  21 -1.059096E+06 -2.257773E+05 -2.110599E+05  1.272302E+05  4.164670E+03 -3.821517E+04
       339  22 -1.465065E+05 -3.069732E+02  9.804675E+02  1.256127E+05 -1.298867E+03 -1.934709E+04
       339  23 -1.468994E+05 -3.529112E+02  1.293743E+02  6.850020E+04 -1.255315E+03 -2.974540E+04
       339  24 -1.465865E+05 -1.063599E+03 -6.773934E+02  1.256116E+05 -1.218549E+03 -3.819966E+04
       339  25  3.302722E+05  1.170599E+05  1.110912E+05  1.250924E+05 -9.487907E+03 -1.933320E+04
       339  26  5.479865E+05  1.705382E+05  1.598639E+05  6.743376E+04 -8.045627E+03 -2.973012E+04
       339  27  7.666939E+05  2.235917E+05  2.096499E+05  1.239909E+05 -6.609629E+03 -3.818414E+04
       340   1 -1.268445E+06 -2.766221E+05 -2.586044E+05  1.267521E+05 -1.640568E+04  4.923943E+04
       340   2 -1.484197E+06 -3.301174E+05 -3.116031E+05  7.254386E+04  1.377507E+04  5.371009E+04
       340   3 -1.704350E+06 -3.932028E+05 -3.862863E+05  1.309634E+05  4.380454E+04  1.782767E+04
       340   4 -1.467136E+05 -5.625661E+02 -9.974028E+02  1.252585E+05  1.365245E+03  4.919044E+04
       340   5 -1.470916E+05 -5.389244E+02 -2.194057E+03  6.894438E+04  2.554552E+03  5.373591E+04
       340   6 -1.468667E+05 -5.053949E+03 -4.909564E+03  1.252447E+05  3.604053E+03  1.796676E+04
       340   7  9.761847E+05  2.754093E+05  2.565277E+05  1.237628E+05  1.916806E+04  4.914142E+04
       340   8  1.191669E+06  3.289139E+05  3.070960E+05  6.533823E+04 -8.690005E+03  5.376184E+04
       340   9  1.412834E+06  3.829160E+05  3.762956E+05  1.195134E+05 -3.669730E+04  1.810643E+04
       340  10 -1.268446E+06 -2.766248E+05 -2.586094E+05  1.267528E+05 -4.282233E-09  3.425003E-09
       340  11 -1.484198E+06 -3.301205E+05 -3.116089E+05  7.254326E+04 -3.114995E-09  2.028871E-09
       340  12 -1.704352E+06 -3.932036E+05 -3.862905E+05  1.309628E+05 -1.473015E-09 -8.255703E-09
       340  13 -1.467142E+05 -5.651647E+02 -1.001953E+03  1.252585E+05  1.066951E-09  7.265650E-10
       340  14 -1.470924E+05 -5.420266E+02 -2.199495E+03  6.894427E+04  3.070071E-09  9.499134E-10
       340  15 -1.468668E+05 -5.054299E+03 -4.910195E+03  1.252447E+05 -2.273378E-10 -4.684426E-09
       340  16  9.761837E+05  2.754066E+05  2.565225E+05  1.237620E+05  5.855278E-09 -3.507821E-09
       340  17  1.191668E+06  3.289108E+05  3.070904E+05  6.533860E+04  4.116529E-09 -5.013772E-09
       340  18  1.412832E+06  3.829153E+05  3.762925E+05  1.195139E+05  7.573043E-10  1.046174E-09
       340  19 -1.268445E+06 -2.766221E+05 -2.586044E+05  1.267521E+05  1.640568E+04 -4.923943E+04
       340  20 -1.484197E+06 -3.301174E+05 -3.116031E+05  7.254386E+04 -1.377507E+04 -5.371009E+04
       340  21 -1.704350E+06 -3.932028E+05 -3.862863E+05  1.309634E+05 -4.380454E+04 -1.782767E+04
       340  22 -1.467136E+05 -5.625661E+02 -9.974028E+02  1.252585E+05 -1.365245E+03 -4.919044E+04
       340  23 -1.470916E+05 -5.389244E+02 -2.194057E+03  6.894438E+04 -2.554552E+03 -5.373591E+04
       340  24 -1.468667E+05 -5.053949E+03 -4.909564E+03  1.252447E+05 -3.604053E+03 -1.796676E+04
       340  25  9.761847E+05  2.754093E+05  2.565277E+05  1.237628E+05 -1.916806E+04 -4.914142E+04
       340  26  1.191669E+06  3.289139E+05  3.070960E+05  6.533823E+04  8.690005E+03 -5.376184E+04
       340  27  1.412834E+06  3.829160E+05  3.762956E+05  1.195134E+05  3.669730E+04 -1.810643E+04
