
 stresses (elem, integ.pnt.,sxx,syy,szz,sxy,sxz,syz) for set ELALL and time  0.1000000E+01

         1   1  4.633048E+06  2.422504E+05  2.985611E+05  9.994937E+04  2.019411E+05  3.228129E+01
         1   2  4.595879E+06 -1.664798E+04  1.363343E+05  3.213089E+04  1.291166E+05  6.635348E+00
         1   3  4.633608E+06 -1.316130E+04  8.687322E+04 -3.568357E+04  5.628978E+04 -3.212404E+00
         1   4  4.633038E+06  2.422317E+05  2.985584E+05 -4.319963E-09  2.019411E+05  4.865498E-10
         1   5  4.595878E+06 -1.664990E+04  1.363340E+05  4.376955E-09  1.291166E+05  6.372507E-10
         1   6  4.633607E+06 -1.316368E+04  8.687288E+04 -3.881331E-09  5.628978E+04 -4.412387E-10
         1   7  4.633048E+06  2.422504E+05  2.985611E+05 -9.994937E+04  2.019411E+05 -3.228129E+01
         1   8  4.595879E+06 -1.664798E+04  1.363343E+05 -3.213089E+04  1.291166E+05 -6.635348E+00
         1   9  4.633608E+06 -1.316130E+04  8.687322E+04  3.568357E+04  5.628978E+04  3.212404E+00
         1  10  4.633005E+06  2.422395E+05  2.984850E+05  9.994937E+04 -1.111521E-09  5.524341E-10
         1  11  4.595861E+06 -1.665241E+04  1.363032E+05  3.213089E+04  1.619358E-09  9.242730E-10
         1  12  4.633605E+06 -1.316214E+04  8.686731E+04 -3.568357E+04  9.186383E-11 -1.139642E-10
         1  13  4.632994E+06  2.422209E+05  2.984823E+05 -2.060584E-09 -5.952300E-28  3.593651E-10
         1  14  4.595860E+06 -1.665434E+04  1.363029E+05 -5.354221E-09  5.653371E-10  8.804658E-10
         1  15  4.633603E+06 -1.316452E+04  8.686697E+04 -5.647994E-10 -6.184491E-10  2.153327E-10
         1  16  4.633005E+06  2.422395E+05  2.984850E+05 -9.994937E+04 -1.214773E-09  9.979374E-11
         1  17  4.595861E+06 -1.665241E+04  1.363032E+05 -3.213089E+04 -1.372156E-09  9.661572E-10
         1  18  4.633605E+06 -1.316214E+04  8.686731E+04  3.568357E+04 -1.395483E-09  4.537986E-10
         1  19  4.633048E+06  2.422504E+05  2.985611E+05  9.994937E+04 -2.019411E+05 -3.228129E+01
         1  20  4.595879E+06 -1.664798E+04  1.363343E+05  3.213089E+04 -1.291166E+05 -6.635348E+00
         1  21  4.633608E+06 -1.316130E+04  8.687322E+04 -3.568357E+04 -5.628978E+04  3.212404E+00
         1  22  4.633038E+06  2.422317E+05  2.985584E+05 -8.408322E-09 -2.019411E+05  3.593858E-10
         1  23  4.595878E+06 -1.664990E+04  1.363340E+05 -4.283888E-09 -1.291166E+05  1.078387E-09
         1  24  4.633607E+06 -1.316368E+04  8.687288E+04 -6.056605E-09 -5.628978E+04  9.250269E-10
         1  25  4.633048E+06  2.422504E+05  2.985611E+05 -9.994937E+04 -2.019411E+05  3.228129E+01
         1  26  4.595879E+06 -1.664798E+04  1.363343E+05 -3.213089E+04 -1.291166E+05  6.635348E+00
         1  27  4.633608E+06 -1.316130E+04  8.687322E+04  3.568357E+04 -5.628978E+04 -3.212404E+00
         2   1  4.618836E+06  1.793723E+04  7.345922E+04  6.758208E+03  4.299333E+04  4.647028E-01
         2   2  4.614396E+06 -1.797858E+03  4.967320E+04  1.738308E+03  1.795108E+04  4.990703E-02
         2   3  4.618887E+06  1.280155E+03  4.780652E+04 -3.281598E+03 -7.090953E+03  3.721614E-02
         2   4  4.618836E+06  1.793715E+04  7.345921E+04  4.746252E-09  4.299333E+04 -8.328499E-10
         2   5  4.614396E+06 -1.797864E+03  4.967320E+04  1.241403E-09  1.795108E+04  1.484075E-10
         2   6  4.618887E+06  1.280134E+03  4.780652E+04 -1.450030E-09 -7.090953E+03 -7.147645E-13
         2   7  4.618836E+06  1.793723E+04  7.345922E+04 -6.758208E+03  4.299333E+04 -4.647028E-01
         2   8  4.614396E+06 -1.797858E+03  4.967320E+04 -1.738308E+03  1.795108E+04 -4.990703E-02
         2   9  4.618887E+06  1.280155E+03  4.780652E+04  3.281598E+03 -7.090953E+03 -3.721614E-02
         2  10  4.618834E+06  1.793674E+04  7.345578E+04  6.758208E+03 -9.052977E-10 -5.461356E-10
         2  11  4.614396E+06 -1.797944E+03  4.967260E+04  1.738308E+03 -8.815151E-10  2.191227E-11
         2  12  4.618887E+06  1.280141E+03  4.780643E+04 -3.281598E+03  7.826373E-11  3.480196E-10
         2  13  4.618834E+06  1.793666E+04  7.345576E+04  6.891525E-09  8.399977E-10 -2.818250E-10
         2  14  4.614396E+06 -1.797950E+03  4.967260E+04 -3.040608E-09 -2.597613E-10 -2.868051E-10
         2  15  4.618887E+06  1.280121E+03  4.780642E+04  5.479213E-10 -7.794117E-10  1.198141E-10
         2  16  4.618834E+06  1.793674E+04  7.345578E+04 -6.758208E+03  1.799839E-10  2.539065E-11
         2  17  4.614396E+06 -1.797944E+03  4.967260E+04 -1.738308E+03  5.308382E-10 -5.502043E-10
         2  18  4.618887E+06  1.280141E+03  4.780643E+04  3.281598E+03  7.511894E-10 -2.443148E-10
         2  19  4.618836E+06  1.793723E+04  7.345922E+04  6.758208E+03 -4.299333E+04 -4.647028E-01
         2  20  4.614396E+06 -1.797858E+03  4.967320E+04  1.738308E+03 -1.795108E+04 -4.990703E-02
         2  21  4.618887E+06  1.280155E+03  4.780652E+04 -3.281598E+03  7.090953E+03 -3.721614E-02
         2  22  4.618836E+06  1.793715E+04  7.345921E+04  8.943871E-09 -4.299333E+04  1.497413E-10
         2  23  4.614396E+06 -1.797864E+03  4.967320E+04  1.317419E-09 -1.795108E+04 -9.182686E-10
         2  24  4.618887E+06  1.280134E+03  4.780652E+04 -9.396099E-10  7.090953E+03  1.794401E-10
         2  25  4.618836E+06  1.793723E+04  7.345922E+04 -6.758208E+03 -4.299333E+04  4.647028E-01
         2  26  4.614396E+06 -1.797858E+03  4.967320E+04 -1.738308E+03 -1.795108E+04  4.990703E-02
         2  27  4.618887E+06  1.280155E+03  4.780652E+04  3.281598E+03  7.090953E+03  3.721614E-02
         3   1  4.620033E+06 -5.982258E+02  5.153045E+04  5.716423E+03 -1.586397E+04 -1.450364E-01
         3   2  4.612938E+06 -2.873836E+03  7.063491E+04 -2.886769E+03 -5.158264E+04  2.381560E-01
         3   3  4.619907E+06  3.270495E+04  1.223354E+05 -1.148974E+04 -8.730177E+04  1.604269E+00
         3   4  4.620033E+06 -5.982868E+02  5.153044E+04 -8.224367E-12 -1.586397E+04 -2.665883E-10
         3   5  4.612938E+06 -2.873852E+03  7.063491E+04 -2.411424E-09 -5.158264E+04 -3.539649E-10
         3   6  4.619907E+06  3.270471E+04  1.223353E+05 -1.796992E-09 -8.730177E+04 -9.893897E-11
         3   7  4.620033E+06 -5.982258E+02  5.153045E+04 -5.716423E+03 -1.586397E+04  1.450364E-01
         3   8  4.612938E+06 -2.873836E+03  7.063491E+04  2.886769E+03 -5.158264E+04 -2.381560E-01
         3   9  4.619907E+06  3.270495E+04  1.223354E+05  1.148974E+04 -8.730177E+04 -1.604269E+00
         3  10  4.620033E+06 -5.982927E+02  5.152998E+04  5.716423E+03  6.862569E-10  2.371579E-10
         3  11  4.612935E+06 -2.874544E+03  7.062994E+04 -2.886769E+03 -9.521312E-10 -5.372624E-11
         3  12  4.619899E+06  3.270292E+04  1.223212E+05 -1.148974E+04  7.077474E-10  2.323337E-11
         3  13  4.620033E+06 -5.983537E+02  5.152997E+04 -2.195685E-09 -2.389082E-10  2.385999E-10
         3  14  4.612935E+06 -2.874560E+03  7.062994E+04  1.900085E-09  2.158065E-09 -1.090716E-10
         3  15  4.619899E+06  3.270268E+04  1.223211E+05 -9.835650E-10 -4.717254E-10  7.894216E-11
         3  16  4.620033E+06 -5.982927E+02  5.152998E+04 -5.716423E+03  4.549488E-10  1.813428E-10
         3  17  4.612935E+06 -2.874544E+03  7.062994E+04  2.886769E+03 -5.366867E-10  1.803136E-10
         3  18  4.619899E+06  3.270292E+04  1.223212E+05  1.148974E+04  4.288403E-10  4.730637E-10
         3  19  4.620033E+06 -5.982258E+02  5.153045E+04  5.716423E+03  1.586397E+04  1.450364E-01
         3  20  4.612938E+06 -2.873836E+03  7.063491E+04 -2.886769E+03  5.158264E+04 -2.381560E-01
         3  21  4.619907E+06  3.270495E+04  1.223354E+05 -1.148974E+04  8.730177E+04 -1.604269E+00
         3  22  4.620033E+06 -5.982868E+02  5.153044E+04 -1.517824E-10  1.586397E+04  7.324780E-10
         3  23  4.612938E+06 -2.873852E+03  7.063491E+04 -1.357829E-09  5.158264E+04  1.943561E-10
         3  24  4.619907E+06  3.270471E+04  1.223353E+05  4.444979E-09  8.730177E+04  3.498042E-10
         3  25  4.620033E+06 -5.982258E+02  5.153045E+04 -5.716423E+03  1.586397E+04 -1.450364E-01
         3  26  4.612938E+06 -2.873836E+03  7.063491E+04  2.886769E+03  5.158264E+04  2.381560E-01
         3  27  4.619907E+06  3.270495E+04  1.223354E+05  1.148974E+04  8.730177E+04  1.604269E+00
         4   1  4.647098E+06 -2.401928E+04  1.495448E+05  6.489834E+04 -1.097170E+05 -1.138760E+01
         4   2  4.578849E+06 -3.012669E+04  2.435236E+05 -5.805174E+04 -2.398995E+05  2.227498E+01
         4   3  4.646103E+06  4.392200E+05  5.407094E+05 -1.810198E+05 -3.700799E+05  1.071449E+02
         4   4  4.647093E+06 -2.402714E+04  1.495437E+05  4.389993E-10 -1.097170E+05 -5.382664E-10
         4   5  4.578845E+06 -3.013298E+04  2.435227E+05 -5.364163E-09 -2.398995E+05 -8.935302E-10
         4   6  4.646068E+06  4.391589E+05  5.407007E+05 -5.504103E-09 -3.700799E+05 -2.077578E-10
         4   7  4.647098E+06 -2.401928E+04  1.495448E+05 -6.489834E+04 -1.097170E+05  1.138760E+01
         4   8  4.578849E+06 -3.012669E+04  2.435236E+05  5.805174E+04 -2.398995E+05 -2.227498E+01
         4   9  4.646103E+06  4.392200E+05  5.407094E+05  1.810198E+05 -3.700799E+05 -1.071449E+02
         4  10  4.647085E+06 -2.402248E+04  1.495224E+05  6.489834E+04  8.092362E-10 -9.257319E-11
         4  11  4.578787E+06 -3.014200E+04  2.434162E+05 -5.805174E+04 -1.127652E-09 -5.393515E-10
         4  12  4.645957E+06  4.391836E+05  5.404540E+05 -1.810198E+05 -2.555170E-11 -2.871793E-10
         4  13  4.647080E+06 -2.403034E+04  1.495212E+05 -1.706179E-09  1.148731E-09  7.622222E-12
         4  14  4.578784E+06 -3.014829E+04  2.434153E+05 -6.443158E-09  1.414017E-09 -3.223574E-10
         4  15  4.645922E+06  4.391225E+05  5.404452E+05  3.428220E-09  1.455871E-09 -9.771685E-11
         4  16  4.647085E+06 -2.402248E+04  1.495224E+05 -6.489834E+04  8.283768E-10  5.659416E-12
         4  17  4.578787E+06 -3.014200E+04  2.434162E+05  5.805174E+04 -5.187985E-10  3.733201E-11
         4  18  4.645957E+06  4.391836E+05  5.404540E+05  1.810198E+05  1.022805E-09  1.089017E-10
         4  19  4.647098E+06 -2.401928E+04  1.495448E+05  6.489834E+04  1.097170E+05  1.138760E+01
         4  20  4.578849E+06 -3.012669E+04  2.435236E+05 -5.805174E+04  2.398995E+05 -2.227498E+01
         4  21  4.646103E+06  4.392200E+05  5.407094E+05 -1.810198E+05  3.700799E+05 -1.071449E+02
         4  22  4.647093E+06 -2.402714E+04  1.495437E+05  4.649041E-09  1.097170E+05  6.023482E-10
         4  23  4.578845E+06 -3.013298E+04  2.435227E+05  2.166412E-09  2.398995E+05  4.958749E-10
         4  24  4.646068E+06  4.391589E+05  5.407007E+05 -3.299469E-09  3.700799E+05 -4.239769E-11
         4  25  4.647098E+06 -2.401928E+04  1.495448E+05 -6.489834E+04  1.097170E+05 -1.138760E+01
         4  26  4.578849E+06 -3.012669E+04  2.435236E+05  5.805174E+04  2.398995E+05  2.227498E+01
         4  27  4.646103E+06  4.392200E+05  5.407094E+05  1.810198E+05  3.700799E+05  1.071449E+02
         5   1 -1.396497E+06 -3.194403E+06 -1.470982E+06  6.426711E+05 -4.460055E+04 -4.339513E+05
         5   2 -7.525322E+05 -2.288602E+06 -9.487867E+05  3.124535E+05 -1.266209E+05 -2.416124E+05
         5   3 -5.482990E+05 -1.513951E+06 -6.615778E+05  4.184186E+05 -1.014425E+05 -4.916470E+04
         5   4 -3.975965E+05  8.129233E+05 -4.881834E+05  4.842181E+05 -4.434448E+04 -3.377390E+05
         5   5  2.633406E+04  8.723707E+05 -2.168540E+05  2.657436E+05 -1.265072E+05 -2.215740E+05
         5   6  2.508834E+04  8.141167E+05 -1.265858E+05  4.834836E+05 -1.016432E+05 -1.055781E+05
         5   7  6.002150E+05  4.834984E+06  4.934870E+05  3.247264E+05 -4.413894E+04 -2.408989E+05
         5   8  8.045076E+05  4.042596E+06  5.144133E+05  2.187860E+05 -1.263968E+05 -2.014318E+05
         5   9  5.981136E+05  3.147220E+06  4.080621E+05  5.487883E+05 -1.018554E+05 -1.622010E+05
         5  10 -1.396550E+06 -3.194607E+06 -1.471341E+06  6.426555E+05 -5.870859E-10  7.024689E-11
         5  11 -7.525652E+05 -2.288669E+06 -9.489269E+05  3.124288E+05 -6.620632E-10  4.414590E-10
         5  12 -5.483107E+05 -1.513956E+06 -6.616017E+05  4.184146E+05  6.264248E-10  4.258411E-10
         5  13 -3.976291E+05  8.128003E+05 -4.884011E+05  4.842061E+05  9.701151E-10  5.936983E-11
         5  14  2.630372E+04  8.723138E+05 -2.169762E+05  2.657210E+05  4.888472E-10  7.272110E-11
         5  15  2.507427E+04  8.141020E+05 -1.266261E+05  4.834750E+05 -1.664384E-10  6.540657E-11
         5  16  6.001975E+05  4.834921E+06  4.933751E+05  3.247179E+05 -1.112553E-09  1.183275E-10
         5  17  8.044797E+05  4.042548E+06  5.143076E+05  2.187655E+05  3.865481E-10 -3.772161E-10
         5  18  5.980955E+05  3.147189E+06  4.079935E+05  5.487751E+05 -5.766908E-10 -7.481275E-10
         5  19 -1.396497E+06 -3.194403E+06 -1.470982E+06  6.426711E+05  4.460055E+04  4.339513E+05
         5  20 -7.525322E+05 -2.288602E+06 -9.487867E+05  3.124535E+05  1.266209E+05  2.416124E+05
         5  21 -5.482990E+05 -1.513951E+06 -6.615778E+05  4.184186E+05  1.014425E+05  4.916470E+04
         5  22 -3.975965E+05  8.129233E+05 -4.881834E+05  4.842181E+05  4.434448E+04  3.377390E+05
         5  23  2.633406E+04  8.723707E+05 -2.168540E+05  2.657436E+05  1.265072E+05  2.215740E+05
         5  24  2.508834E+04  8.141167E+05 -1.265858E+05  4.834836E+05  1.016432E+05  1.055781E+05
         5  25  6.002150E+05  4.834984E+06  4.934870E+05  3.247264E+05  4.413894E+04  2.408989E+05
         5  26  8.045076E+05  4.042596E+06  5.144133E+05  2.187860E+05  1.263968E+05  2.014318E+05
         5  27  5.981136E+05  3.147220E+06  4.080621E+05  5.487883E+05  1.018554E+05  1.622010E+05
         6   1 -4.024141E+05 -6.880328E+05 -4.509941E+05  4.886075E+05 -6.448493E+04 -6.293817E+04
         6   2 -1.655185E+05  1.542970E+05 -2.029060E+05  2.659678E+05 -2.975809E+04 -3.952338E+04
         6   3  4.759288E+04  9.842917E+05  2.297025E+04  4.811256E+05  6.592163E+03 -1.612403E+04
         6   4 -2.694290E+04  8.382337E+05 -9.951947E+04  4.841478E+05 -6.458099E+04 -8.738029E+04
         6   5  4.205136E+03  8.447350E+05 -4.424826E+04  2.651764E+05 -2.987147E+04 -6.508403E+04
         6   6  1.184781E+04  8.385079E+05 -1.030165E+04  4.839784E+05  6.458650E+03 -4.283420E+04
         6   7  3.483660E+05  2.366656E+06  2.518030E+05  4.796740E+05 -6.467656E+04 -1.118819E+05
         6   8  1.738959E+05  1.535615E+06  1.143804E+05  2.643835E+05 -2.998470E+04 -9.067284E+04
         6   9 -2.389831E+04  6.927453E+05 -4.357224E+04  4.868304E+05  6.324873E+03 -6.953817E+04
         6  10 -4.024196E+05 -6.880381E+05 -4.510093E+05  4.886042E+05  1.760150E-09 -6.671525E-10
         6  11 -1.655199E+05  1.542950E+05 -2.029106E+05  2.659668E+05 -3.479292E-10 -9.123944E-10
         6  12  4.759276E+04  9.842914E+05  2.296968E+04  4.811257E+05 -5.814717E-10 -2.726969E-09
         6  13 -2.694942E+04  8.382244E+05 -9.954162E+04  4.841433E+05  1.336575E-10 -1.211758E-10
         6  14  4.203044E+03  8.447302E+05 -4.425789E+04  2.651748E+05 -1.874417E-09 -2.157734E-11
         6  15  1.184727E+04  8.385059E+05 -1.030517E+04  4.839786E+05  3.039312E-10  2.057566E-11
         6  16  3.483582E+05  2.366642E+06  2.517717E+05  4.796682E+05  8.306623E-11  6.465625E-10
         6  17  1.738928E+05  1.535606E+06  1.143633E+05  2.643813E+05 -4.061861E-10  9.639219E-10
         6  18 -2.389965E+04  6.927401E+05 -4.358140E+04  4.868307E+05  1.528782E-09  2.809488E-09
         6  19 -4.024141E+05 -6.880328E+05 -4.509941E+05  4.886075E+05  6.448493E+04  6.293817E+04
         6  20 -1.655185E+05  1.542970E+05 -2.029060E+05  2.659678E+05  2.975809E+04  3.952338E+04
         6  21  4.759288E+04  9.842917E+05  2.297025E+04  4.811256E+05 -6.592163E+03  1.612403E+04
         6  22 -2.694290E+04  8.382337E+05 -9.951947E+04  4.841478E+05  6.458099E+04  8.738029E+04
         6  23  4.205136E+03  8.447350E+05 -4.424826E+04  2.651764E+05  2.987147E+04  6.508403E+04
         6  24  1.184781E+04  8.385079E+05 -1.030165E+04  4.839784E+05 -6.458650E+03  4.283420E+04
         6  25  3.483660E+05  2.366656E+06  2.518030E+05  4.796740E+05  6.467656E+04  1.118819E+05
         6  26  1.738959E+05  1.535615E+06  1.143804E+05  2.643835E+05  2.998470E+04  9.067284E+04
         6  27 -2.389831E+04  6.927453E+05 -4.357224E+04  4.868304E+05 -6.324873E+03  6.953817E+04
         7   1  2.305926E+05  1.793792E+06  2.206287E+05  4.757695E+05  3.989213E+04  5.573336E+03
         7   2  4.344823E+05  2.617045E+06  4.439813E+05  2.805660E+05  6.928948E+04 -6.462421E+04
         7   3  7.328703E+05  3.471783E+06  7.359509E+05  5.210679E+05  2.582859E+04 -1.346635E+05
         7   4 -2.149366E+03  8.459881E+05  2.746063E+03  4.836707E+05  3.966443E+04 -4.211818E+04
         7   5 -3.824377E+03  8.346461E+05  3.185735E+04  2.656501E+05  6.932380E+04 -5.964091E+04
         7   6  8.007583E+04  8.451650E+05  9.323203E+04  4.833832E+05  2.603674E+04 -7.690916E+04
         7   7 -2.349524E+05 -1.009819E+05 -2.151873E+05  4.915586E+05  3.943533E+04 -8.973759E+04
         7   8 -4.423531E+05 -9.448264E+05 -3.804786E+05  2.507738E+05  6.935795E+04 -5.467157E+04
         7   9 -5.732218E+05 -1.775186E+06 -5.499780E+05  4.458500E+05  2.623844E+04 -1.939707E+04
         7  10  2.305909E+05  1.793792E+06  2.206256E+05  4.757693E+05  4.999803E-10 -1.657507E-08
         7  11  4.344760E+05  2.617039E+06  4.439645E+05  2.805696E+05  7.083654E-10 -1.093068E-09
         7  12  7.328647E+05  3.471764E+06  7.359157E+05  5.210707E+05  8.687852E-10  1.279283E-08
         7  13 -2.151533E+03  8.459857E+05  2.739770E+03  4.836721E+05  1.796863E-09  1.142914E-10
         7  14 -3.830496E+03  8.346410E+05  3.184164E+04  2.656534E+05  1.989424E-09  1.279215E-10
         7  15  8.007351E+04  8.451585E+05  9.321965E+04  4.833848E+05  7.933813E-10 -3.480420E-11
         7  16 -2.349562E+05 -1.009910E+05 -2.152054E+05  4.915614E+05  1.791590E-09  1.647432E-08
         7  17 -4.423590E+05 -9.448309E+05 -3.804932E+05  2.507768E+05  7.478197E-10  1.202388E-09
         7  18 -5.732227E+05 -1.775186E+06 -5.499800E+05  4.458504E+05 -6.168294E-12 -1.265393E-08
         7  19  2.305926E+05  1.793792E+06  2.206287E+05  4.757695E+05 -3.989213E+04 -5.573336E+03
         7  20  4.344823E+05  2.617045E+06  4.439813E+05  2.805660E+05 -6.928948E+04  6.462421E+04
         7  21  7.328703E+05  3.471783E+06  7.359509E+05  5.210679E+05 -2.582859E+04  1.346635E+05
         7  22 -2.149366E+03  8.459881E+05  2.746063E+03  4.836707E+05 -3.966443E+04  4.211818E+04
         7  23 -3.824377E+03  8.346461E+05  3.185735E+04  2.656501E+05 -6.932380E+04  5.964091E+04
         7  24  8.007583E+04  8.451650E+05  9.323203E+04  4.833832E+05 -2.603674E+04  7.690916E+04
         7  25 -2.349524E+05 -1.009819E+05 -2.151873E+05  4.915586E+05 -3.943533E+04  8.973759E+04
         7  26 -4.423531E+05 -9.448264E+05 -3.804786E+05  2.507738E+05 -6.935795E+04  5.467157E+04
         7  27 -5.732218E+05 -1.775186E+06 -5.499780E+05  4.458500E+05 -2.623844E+04  1.939707E+04
         8   1  1.947980E+06  1.034568E+06 -6.010220E+04  1.525786E+06  7.724756E+04  7.311291E+04
         8   2  1.978537E+06  9.769352E+05 -1.227959E+05  1.638813E+06  4.033797E+04  7.605872E+04
         8   3  2.163649E+06  9.795826E+05 -1.252071E+05  1.674264E+06  1.942423E+04  5.765187E+04
         8   4  2.775120E+06  1.515287E+06  1.951663E+05  1.885769E+06  9.925717E+04  8.959612E+04
         8   5  2.666311E+06  1.430088E+06  8.813736E+04  1.964741E+06  4.686235E+04  8.093792E+04
         8   6  2.715276E+06  1.408396E+06  5.469357E+04  1.966161E+06  1.046129E+04  5.094250E+04
         8   7  3.602978E+06  1.996217E+06  4.503584E+05  2.246232E+06  1.213068E+05  1.061022E+05
         8   8  3.354586E+06  1.883450E+06  2.990147E+05  2.291057E+06  5.339648E+04  8.582375E+04
         8   9  3.267226E+06  1.837418E+06  2.345545E+05  2.258361E+06  1.487620E+03  4.422404E+04
         8  10  1.947973E+06  1.034561E+06 -6.012335E+04  1.525782E+06 -2.191855E-09 -2.559003E-10
         8  11  1.978534E+06  9.769285E+05 -1.228098E+05  1.638811E+06  2.209483E-10  2.633294E-09
         8  12  2.163648E+06  9.795790E+05 -1.252140E+05  1.674263E+06  7.080950E-09  6.255970E-09
         8  13  2.775107E+06  1.515276E+06  1.951329E+05  1.885762E+06 -4.072387E-10 -5.710508E-11
         8  14  2.666307E+06  1.430080E+06  8.812101E+04  1.964738E+06  1.183974E-09  5.543329E-10
         8  15  2.715275E+06  1.408394E+06  5.468851E+04  1.966161E+06  3.251969E-09  2.438540E-09
         8  16  3.602960E+06  1.996201E+06  4.503100E+05  2.246221E+06 -5.972778E-10  6.197086E-10
         8  17  3.354581E+06  1.883441E+06  2.989957E+05  2.291054E+06 -2.485699E-09 -1.386583E-09
         8  18  3.267226E+06  1.837416E+06  2.345508E+05  2.258361E+06 -1.416497E-09 -1.044910E-09
         8  19  1.947980E+06  1.034568E+06 -6.010220E+04  1.525786E+06 -7.724756E+04 -7.311291E+04
         8  20  1.978537E+06  9.769352E+05 -1.227959E+05  1.638813E+06 -4.033797E+04 -7.605872E+04
         8  21  2.163649E+06  9.795826E+05 -1.252071E+05  1.674264E+06 -1.942423E+04 -5.765187E+04
         8  22  2.775120E+06  1.515287E+06  1.951663E+05  1.885769E+06 -9.925717E+04 -8.959612E+04
         8  23  2.666311E+06  1.430088E+06  8.813736E+04  1.964741E+06 -4.686235E+04 -8.093792E+04
         8  24  2.715276E+06  1.408396E+06  5.469357E+04  1.966161E+06 -1.046129E+04 -5.094250E+04
         8  25  3.602978E+06  1.996217E+06  4.503584E+05  2.246232E+06 -1.213068E+05 -1.061022E+05
         8  26  3.354586E+06  1.883450E+06  2.990147E+05  2.291057E+06 -5.339648E+04 -8.582375E+04
         8  27  3.267226E+06  1.837418E+06  2.345545E+05  2.258361E+06 -1.487620E+03 -4.422404E+04
         9   1  2.225467E+06  1.078375E+06 -1.079101E+05  1.711359E+06  1.016971E+04  4.230112E+04
         9   2  2.280900E+06  1.160782E+06 -9.728127E+04  1.769025E+06  2.613199E+03  3.094566E+04
         9   3  2.406013E+06  1.191915E+06 -7.497004E+04  1.804661E+06 -4.211744E+03  1.860016E+04
         9   4  2.715740E+06  1.418607E+06  4.513010E+04  1.951750E+06  7.901198E+03  4.060113E+04
         9   5  2.678670E+06  1.440273E+06  2.725946E+04  1.965711E+06 -3.796231E+02  2.870575E+04
         9   6  2.711415E+06  1.410815E+06  2.168649E+04  1.957636E+06 -7.927074E+03  1.582223E+04
         9   7  3.206272E+06  1.758964E+06  1.981423E+05  2.192353E+06  5.630231E+03  3.889935E+04
         9   8  3.076608E+06  1.719848E+06  1.517809E+05  2.162537E+06 -3.375046E+03  2.646391E+04
         9   9  3.016913E+06  1.629765E+06  1.183307E+05  2.110693E+06 -1.164485E+04  1.304244E+04
         9  10  2.225467E+06  1.078373E+06 -1.079136E+05  1.711359E+06  2.035226E-09  9.109043E-11
         9  11  2.280900E+06  1.160781E+06 -9.728308E+04  1.769025E+06  5.580107E-10 -2.202888E-09
         9  12  2.406013E+06  1.191914E+06 -7.497072E+04  1.804661E+06 -5.842038E-10 -8.932995E-11
         9  13  2.715739E+06  1.418605E+06  4.512690E+04  1.951750E+06  3.610487E-09  1.996649E-09
         9  14  2.678670E+06  1.440273E+06  2.725791E+04  1.965711E+06 -6.977194E-10 -4.785742E-10
         9  15  2.711414E+06  1.410814E+06  2.168590E+04  1.957636E+06 -8.060168E-10 -1.046188E-11
         9  16  3.206271E+06  1.758962E+06  1.981394E+05  2.192353E+06  6.414224E-09  4.034931E-09
         9  17  3.076608E+06  1.719848E+06  1.517795E+05  2.162537E+06  1.461283E-09  1.401146E-09
         9  18  3.016913E+06  1.629764E+06  1.183301E+05  2.110694E+06 -7.779474E-10  5.227117E-10
         9  19  2.225467E+06  1.078375E+06 -1.079101E+05  1.711359E+06 -1.016971E+04 -4.230112E+04
         9  20  2.280900E+06  1.160782E+06 -9.728127E+04  1.769025E+06 -2.613199E+03 -3.094566E+04
         9  21  2.406013E+06  1.191915E+06 -7.497004E+04  1.804661E+06  4.211744E+03 -1.860016E+04
         9  22  2.715740E+06  1.418607E+06  4.513010E+04  1.951750E+06 -7.901198E+03 -4.060113E+04
         9  23  2.678670E+06  1.440273E+06  2.725946E+04  1.965711E+06  3.796231E+02 -2.870575E+04
         9  24  2.711415E+06  1.410815E+06  2.168649E+04  1.957636E+06  7.927074E+03 -1.582223E+04
         9  25  3.206272E+06  1.758964E+06  1.981423E+05  2.192353E+06 -5.630231E+03 -3.889935E+04
         9  26  3.076608E+06  1.719848E+06  1.517809E+05  2.162537E+06  3.375046E+03 -2.646391E+04
         9  27  3.016913E+06  1.629765E+06  1.183307E+05  2.110693E+06  1.164485E+04 -1.304244E+04
        10   1  2.487181E+06  1.254842E+06 -4.827489E+04  1.846342E+06 -5.477724E+03  1.314594E+04
        10   2  2.543640E+06  1.344485E+06 -1.740427E+04  1.898142E+06 -1.208801E+04  9.561429E+02
        10   3  2.663341E+06  1.378147E+06  2.274890E+04  1.931448E+06 -1.870713E+04 -1.122895E+04
        10   4  2.711084E+06  1.411746E+06  2.140276E+04  1.956928E+06 -8.844896E+03  1.062909E+04
        10   5  2.679870E+06  1.440463E+06  2.527003E+04  1.965634E+06 -1.545349E+04 -1.558787E+03
        10   6  2.711889E+06  1.413195E+06  3.841721E+04  1.955839E+06 -2.206907E+04 -1.374056E+04
        10   7  2.935041E+06  1.568676E+06  9.107442E+04  2.067559E+06 -1.221371E+04  8.111023E+03
        10   8  2.816121E+06  1.536451E+06  6.794231E+04  2.033143E+06 -1.881999E+04 -4.074469E+03
        10   9  2.760439E+06  1.448244E+06  5.408540E+04  1.980233E+06 -2.543140E+04 -1.625246E+04
        10  10  2.487181E+06  1.254842E+06 -4.827527E+04  1.846342E+06  1.132745E-09  1.622916E-09
        10  11  2.543639E+06  1.344485E+06 -1.740454E+04  1.898142E+06 -4.947968E-09 -1.612303E-09
        10  12  2.663341E+06  1.378147E+06  2.274801E+04  1.931448E+06 -5.306969E-09 -2.666450E-09
        10  13  2.711084E+06  1.411746E+06  2.140240E+04  1.956928E+06 -3.386711E-09  4.600761E-11
        10  14  2.679870E+06  1.440463E+06  2.526958E+04  1.965634E+06 -2.301815E-09 -1.365061E-09
        10  15  2.711888E+06  1.413194E+06  3.841595E+04  1.955839E+06  1.365427E-09 -6.805468E-10
        10  16  2.935041E+06  1.568676E+06  9.107401E+04  2.067559E+06 -4.246521E-09 -9.480303E-10
        10  17  2.816120E+06  1.536451E+06  6.794162E+04  2.033143E+06 -3.182016E-09 -7.982378E-10
        10  18  2.760438E+06  1.448244E+06  5.408370E+04  1.980233E+06  4.173701E-09  1.242236E-09
        10  19  2.487181E+06  1.254842E+06 -4.827489E+04  1.846342E+06  5.477724E+03 -1.314594E+04
        10  20  2.543640E+06  1.344485E+06 -1.740427E+04  1.898142E+06  1.208801E+04 -9.561429E+02
        10  21  2.663341E+06  1.378147E+06  2.274890E+04  1.931448E+06  1.870713E+04  1.122895E+04
        10  22  2.711084E+06  1.411746E+06  2.140276E+04  1.956928E+06  8.844896E+03 -1.062909E+04
        10  23  2.679870E+06  1.440463E+06  2.527003E+04  1.965634E+06  1.545349E+04  1.558787E+03
        10  24  2.711889E+06  1.413195E+06  3.841721E+04  1.955839E+06  2.206907E+04  1.374056E+04
        10  25  2.935041E+06  1.568676E+06  9.107442E+04  2.067559E+06  1.221371E+04 -8.111023E+03
        10  26  2.816121E+06  1.536451E+06  6.794231E+04  2.033143E+06  1.881999E+04  4.074469E+03
        10  27  2.760439E+06  1.448244E+06  5.408540E+04  1.980233E+06  2.543140E+04  1.625246E+04
        11   1  2.739186E+06  1.441669E+06  5.897051E+04  1.978564E+06 -2.254376E+04 -1.847025E+04
        11   2  2.800592E+06  1.519200E+06  1.174848E+05  2.024154E+06 -5.186202E+04 -4.752102E+04
        11   3  2.948943E+06  1.572360E+06  2.139360E+05  2.038142E+06 -8.167298E+04 -7.592473E+04
        11   4  2.712007E+06  1.411005E+06  4.803200E+04  1.959807E+06 -2.609568E+04 -2.112332E+04
        11   5  2.676323E+06  1.437161E+06  7.954181E+04  1.965145E+06 -5.493452E+04 -4.981743E+04
        11   6  2.727482E+06  1.438850E+06  1.485885E+05  1.938877E+06 -8.425932E+04 -7.786098E+04
        11   7  2.684829E+06  1.380342E+06  3.709354E+04  1.941051E+06 -2.964736E+04 -2.377610E+04
        11   8  2.552070E+06  1.355129E+06  4.159724E+04  1.906149E+06 -5.800617E+04 -5.211325E+04
        11   9  2.506074E+06  1.305357E+06  8.323592E+04  1.839648E+06 -8.684440E+04 -7.979647E+04
        11  10  2.739186E+06  1.441668E+06  5.896893E+04  1.978564E+06 -8.003173E-09 -6.381226E-09
        11  11  2.800589E+06  1.519197E+06  1.174756E+05  2.024152E+06  4.173898E-09 -3.185290E-10
        11  12  2.948934E+06  1.572352E+06  2.139128E+05  2.038137E+06  9.719579E-09  5.752909E-09
        11  13  2.712006E+06  1.411004E+06  4.802990E+04  1.959806E+06  3.085915E-09  6.864180E-12
        11  14  2.676319E+06  1.437158E+06  7.953155E+04  1.965143E+06  6.031287E-09 -4.224498E-10
        11  15  2.727473E+06  1.438841E+06  1.485640E+05  1.938871E+06  6.761924E-10  1.875399E-10
        11  16  2.684828E+06  1.380342E+06  3.709084E+04  1.941050E+06  1.155563E-08  5.993317E-09
        11  17  2.552066E+06  1.355126E+06  4.158589E+04  1.906146E+06  2.872886E-09 -8.782450E-11
        11  18  2.506064E+06  1.305349E+06  8.320994E+04  1.839642E+06 -7.652258E-09 -6.082193E-09
        11  19  2.739186E+06  1.441669E+06  5.897051E+04  1.978564E+06  2.254376E+04  1.847025E+04
        11  20  2.800592E+06  1.519200E+06  1.174848E+05  2.024154E+06  5.186202E+04  4.752102E+04
        11  21  2.948943E+06  1.572360E+06  2.139360E+05  2.038142E+06  8.167298E+04  7.592473E+04
        11  22  2.712007E+06  1.411005E+06  4.803200E+04  1.959807E+06  2.609568E+04  2.112332E+04
        11  23  2.676323E+06  1.437161E+06  7.954181E+04  1.965145E+06  5.493452E+04  4.981743E+04
        11  24  2.727482E+06  1.438850E+06  1.485885E+05  1.938877E+06  8.425932E+04  7.786098E+04
        11  25  2.684829E+06  1.380342E+06  3.709354E+04  1.941051E+06  2.964736E+04  2.377610E+04
        11  26  2.552070E+06  1.355129E+06  4.159724E+04  1.906149E+06  5.800617E+04  5.211325E+04
        11  27  2.506074E+06  1.305357E+06  8.323592E+04  1.839648E+06  8.684440E+04  7.979647E+04
        12   1  2.937831E+06  1.689726E+06  2.756194E+05  2.157705E+06 -9.609266E+04 -9.351570E+04
        12   2  3.086705E+06  1.599404E+06  4.245370E+05  2.129616E+06 -2.342712E+05 -2.010007E+05
        12   3  3.622220E+06  1.894309E+06  8.367442E+05  1.878691E+06 -3.826317E+05 -2.949284E+05
        12   4  2.724165E+06  1.405043E+06  1.841622E+05  1.989584E+06 -1.029166E+05 -9.859515E+04
        12   5  2.635918E+06  1.399855E+06  3.043139E+05  1.961106E+06 -2.311832E+05 -1.987378E+05
        12   6  2.932275E+06  1.777979E+06  6.793823E+05  1.709771E+06 -3.695524E+05 -2.853641E+05
        12   7  2.510555E+06  1.120476E+06  9.269773E+04  1.821547E+06 -1.097376E+05 -1.036696E+05
        12   8  2.185358E+06  1.200342E+06  1.840756E+05  1.792703E+06 -2.280982E+05 -1.964762E+05
        12   9  2.242933E+06  1.661704E+06  5.220200E+05  1.540942E+06 -3.564934E+05 -2.758005E+05
        12  10  2.937819E+06  1.689715E+06  2.755858E+05  2.157698E+06  1.050974E-09  8.485195E-10
        12  11  3.086635E+06  1.599346E+06  4.243592E+05  2.129578E+06  1.104695E-09  6.865575E-10
        12  12  3.622041E+06  1.894177E+06  8.363089E+05  1.878601E+06  5.696878E-10  4.571078E-10
        12  13  2.724151E+06  1.405030E+06  1.841243E+05  1.989575E+06  4.261180E-10  3.995478E-10
        12  14  2.635850E+06  1.399799E+06  3.041403E+05  1.961069E+06  5.806509E-10  5.773278E-10
        12  15  2.932108E+06  1.777856E+06  6.789754E+05  1.709687E+06  3.690806E-10  2.186682E-10
        12  16  2.510539E+06  1.120461E+06  9.265516E+04  1.821537E+06 -1.480030E-09 -3.750616E-10
        12  17  2.185292E+06  1.200287E+06  1.839063E+05  1.792667E+06 -7.821338E-10  2.386958E-10
        12  18  2.242777E+06  1.661589E+06  5.216404E+05  1.540863E+06 -3.331860E-10 -2.103144E-10
        12  19  2.937831E+06  1.689726E+06  2.756194E+05  2.157705E+06  9.609266E+04  9.351570E+04
        12  20  3.086705E+06  1.599404E+06  4.245370E+05  2.129616E+06  2.342712E+05  2.010007E+05
        12  21  3.622220E+06  1.894309E+06  8.367442E+05  1.878691E+06  3.826317E+05  2.949284E+05
        12  22  2.724165E+06  1.405043E+06  1.841622E+05  1.989584E+06  1.029166E+05  9.859515E+04
        12  23  2.635918E+06  1.399855E+06  3.043139E+05  1.961106E+06  2.311832E+05  1.987378E+05
        12  24  2.932275E+06  1.777979E+06  6.793823E+05  1.709771E+06  3.695524E+05  2.853641E+05
        12  25  2.510555E+06  1.120476E+06  9.269773E+04  1.821547E+06  1.097376E+05  1.036696E+05
        12  26  2.185358E+06  1.200342E+06  1.840756E+05  1.792703E+06  2.280982E+05  1.964762E+05
        12  27  2.242933E+06  1.661704E+06  5.220200E+05  1.540942E+06  3.564934E+05  2.758005E+05
        13   1  2.911861E+06  1.492460E+05  1.839397E+05  6.147050E+04  1.241407E+05  1.223680E+01
        13   2  2.888869E+06 -1.028555E+04  8.404035E+04  1.976063E+04  7.927103E+04  2.511945E+00
        13   3  2.912077E+06 -8.104010E+03  5.368671E+04 -2.194733E+04  3.440090E+04 -1.210682E+00
        13   4  2.911857E+06  1.492389E+05  1.839387E+05 -3.703830E-09  1.241407E+05 -8.382848E-11
        13   5  2.888868E+06 -1.028628E+04  8.404024E+04 -2.728132E-10  7.927103E+04  8.863186E-11
        13   6  2.912077E+06 -8.104911E+03  5.368659E+04 -5.206639E-09  3.440090E+04  3.424344E-10
        13   7  2.911861E+06  1.492460E+05  1.839397E+05 -6.147050E+04  1.241407E+05 -1.223680E+01
        13   8  2.888869E+06 -1.028555E+04  8.404035E+04 -1.976063E+04  7.927103E+04 -2.511945E+00
        13   9  2.912077E+06 -8.104010E+03  5.368671E+04  2.194733E+04  3.440090E+04  1.210682E+00
        13  10  2.911844E+06  1.492419E+05  1.839109E+05  6.147050E+04  4.425560E-10 -2.706530E-10
        13  11  2.888862E+06 -1.028722E+04  8.402859E+04  1.976063E+04 -2.572797E-10 -2.062513E-10
        13  12  2.912076E+06 -8.104326E+03  5.368450E+04 -2.194733E+04 -5.962901E-10  2.973751E-10
        13  13  2.911840E+06  1.492348E+05  1.839099E+05  5.144408E-10  3.133696E-10 -2.464339E-10
        13  14  2.888862E+06 -1.028795E+04  8.402849E+04  2.961720E-09  9.485407E-10 -4.429783E-10
        13  15  2.912076E+06 -8.105227E+03  5.368437E+04 -1.590741E-09  1.610575E-10  1.496046E-10
        13  16  2.911844E+06  1.492419E+05  1.839109E+05 -6.147050E+04 -1.755645E-10 -1.902038E-10
        13  17  2.888862E+06 -1.028722E+04  8.402859E+04 -1.976063E+04  2.248445E-10 -5.369983E-10
        13  18  2.912076E+06 -8.104326E+03  5.368450E+04  2.194733E+04  1.068026E-09 -4.675509E-10
        13  19  2.911861E+06  1.492460E+05  1.839397E+05  6.147050E+04 -1.241407E+05 -1.223680E+01
        13  20  2.888869E+06 -1.028555E+04  8.404035E+04  1.976063E+04 -7.927103E+04 -2.511945E+00
        13  21  2.912077E+06 -8.104010E+03  5.368671E+04 -2.194733E+04 -3.440090E+04  1.210682E+00
        13  22  2.911857E+06  1.492389E+05  1.839387E+05 -6.075406E-09 -1.241407E+05 -3.782447E-10
        13  23  2.888868E+06 -1.028628E+04  8.404024E+04 -2.399601E-09 -7.927103E+04 -9.656342E-10
        13  24  2.912077E+06 -8.104911E+03  5.368659E+04 -3.009863E-09 -3.440090E+04 -5.196401E-11
        13  25  2.911861E+06  1.492460E+05  1.839397E+05 -6.147050E+04 -1.241407E+05  1.223680E+01
        13  26  2.888869E+06 -1.028555E+04  8.404035E+04 -1.976063E+04 -7.927103E+04  2.511945E+00
        13  27  2.912077E+06 -8.104010E+03  5.368671E+04  2.194733E+04 -3.440090E+04 -1.210682E+00
        14   1  2.903004E+06  1.105470E+04  4.550173E+04  4.181043E+03  2.618417E+04  1.755531E-01
        14   2  2.900230E+06 -1.120609E+03  3.107464E+04  1.076737E+03  1.052977E+04  1.818087E-02
        14   3  2.903023E+06  8.696069E+02  3.034597E+04 -2.027524E+03 -5.124308E+03  1.666040E-02
        14   4  2.903004E+06  1.105467E+04  4.550172E+04 -2.899441E-09  2.618417E+04 -2.600809E-10
        14   5  2.900230E+06 -1.120611E+03  3.107464E+04 -2.514860E-09  1.052977E+04 -1.172234E-09
        14   6  2.903023E+06  8.695992E+02  3.034597E+04 -4.819509E-09 -5.124308E+03 -7.114802E-11
        14   7  2.903004E+06  1.105470E+04  4.550173E+04 -4.181043E+03  2.618417E+04 -1.755531E-01
        14   8  2.900230E+06 -1.120609E+03  3.107464E+04 -1.076737E+03  1.052977E+04 -1.818088E-02
        14   9  2.903023E+06  8.696069E+02  3.034597E+04  2.027524E+03 -5.124308E+03 -1.666040E-02
        14  10  2.903003E+06  1.105452E+04  4.550045E+04  4.181043E+03  1.985356E-09  2.841794E-10
        14  11  2.900230E+06 -1.120639E+03  3.107444E+04  1.076737E+03 -2.045654E-11 -7.470174E-10
        14  12  2.903023E+06  8.695999E+02  3.034592E+04 -2.027524E+03 -1.043399E-09 -6.288034E-10
        14  13  2.903003E+06  1.105448E+04  4.550044E+04  2.361351E-10  1.912463E-09  7.964581E-11
        14  14  2.900230E+06 -1.120641E+03  3.107444E+04 -3.373354E-10  8.004543E-10 -5.443528E-10
        14  15  2.903023E+06  8.695922E+02  3.034592E+04  1.220329E-09 -9.834678E-10 -5.637461E-11
        14  16  2.903003E+06  1.105452E+04  4.550045E+04 -4.181043E+03  4.914329E-11 -2.500281E-10
        14  17  2.900230E+06 -1.120639E+03  3.107444E+04 -1.076737E+03  2.817817E-10 -2.658170E-10
        14  18  2.903023E+06  8.695999E+02  3.034592E+04  2.027524E+03  5.955074E-10  2.860638E-10
        14  19  2.903004E+06  1.105470E+04  4.550173E+04  4.181043E+03 -2.618417E+04 -1.755531E-01
        14  20  2.900230E+06 -1.120609E+03  3.107464E+04  1.076737E+03 -1.052977E+04 -1.818088E-02
        14  21  2.903023E+06  8.696069E+02  3.034597E+04 -2.027524E+03  5.124308E+03 -1.666040E-02
        14  22  2.903004E+06  1.105467E+04  4.550172E+04  1.149896E-09 -2.618417E+04  4.127969E-10
        14  23  2.900230E+06 -1.120611E+03  3.107464E+04 -2.519067E-09 -1.052977E+04  1.435712E-11
        14  24  2.903023E+06  8.695992E+02  3.034597E+04 -2.399527E-09  5.124308E+03 -3.439353E-11
        14  25  2.903004E+06  1.105470E+04  4.550173E+04 -4.181043E+03 -2.618417E+04  1.755531E-01
        14  26  2.900230E+06 -1.120609E+03  3.107464E+04 -1.076737E+03 -1.052977E+04  1.818088E-02
        14  27  2.903023E+06  8.696069E+02  3.034597E+04  2.027524E+03  5.124308E+03  1.666040E-02
        15   1  2.903816E+06 -4.313903E+02  3.291831E+04  3.708995E+03 -1.070347E+04 -6.365968E-02
        15   2  2.899228E+06 -1.867027E+03  4.555874E+04 -1.871816E+03 -3.373137E+04  1.012475E-01
        15   3  2.903764E+06  2.127909E+04  7.928718E+04 -7.452670E+03 -5.676005E+04  6.783290E-01
        15   4  2.903816E+06 -4.314160E+02  3.291830E+04 -7.708168E-09 -1.070347E+04  6.381443E-10
        15   5  2.899228E+06 -1.867034E+03  4.555874E+04 -2.993435E-09 -3.373137E+04  4.058765E-10
        15   6  2.903764E+06  2.127899E+04  7.928717E+04 -5.272383E-09 -5.676005E+04 -7.050179E-11
        15   7  2.903816E+06 -4.313903E+02  3.291831E+04 -3.708995E+03 -1.070347E+04  6.365968E-02
        15   8  2.899228E+06 -1.867027E+03  4.555874E+04  1.871816E+03 -3.373137E+04 -1.012475E-01
        15   9  2.903764E+06  2.127909E+04  7.928718E+04  7.452670E+03 -5.676005E+04 -6.783290E-01
        15  10  2.903816E+06 -4.314209E+02  3.291809E+04  3.708995E+03  3.354273E-10  1.039447E-10
        15  11  2.899227E+06 -1.867331E+03  4.555661E+04 -1.871816E+03 -5.556735E-10  1.199241E-10
        15  12  2.903761E+06  2.127823E+04  7.928116E+04 -7.452670E+03 -8.096179E-10  2.106741E-10
        15  13  2.903816E+06 -4.314466E+02  3.291809E+04 -2.344487E-09 -1.339247E-09  2.476040E-10
        15  14  2.899227E+06 -1.867338E+03  4.555661E+04 -8.686326E-10  1.304955E-10  2.171146E-10
        15  15  2.903761E+06  2.127813E+04  7.928114E+04  3.328038E-09 -1.140363E-09  1.176323E-10
        15  16  2.903816E+06 -4.314209E+02  3.291809E+04 -3.708995E+03  6.419392E-10  5.313634E-10
        15  17  2.899227E+06 -1.867331E+03  4.555661E+04  1.871816E+03 -2.928325E-10  3.035517E-10
        15  18  2.903761E+06  2.127823E+04  7.928116E+04  7.452670E+03 -3.659552E-10  3.808325E-11
        15  19  2.903816E+06 -4.313903E+02  3.291831E+04  3.708995E+03  1.070347E+04  6.365968E-02
        15  20  2.899228E+06 -1.867027E+03  4.555874E+04 -1.871816E+03  3.373137E+04 -1.012475E-01
        15  21  2.903764E+06  2.127909E+04  7.928718E+04 -7.452670E+03  5.676005E+04 -6.783290E-01
        15  22  2.903816E+06 -4.314160E+02  3.291830E+04 -5.625522E-09  1.070347E+04 -1.004723E-10
        15  23  2.899228E+06 -1.867034E+03  4.555874E+04  3.439983E-09  3.373137E+04 -1.288927E-11
        15  24  2.903764E+06  2.127899E+04  7.928717E+04 -9.721625E-10  5.676005E+04  2.574966E-10
        15  25  2.903816E+06 -4.313903E+02  3.291831E+04 -3.708995E+03  1.070347E+04 -6.365968E-02
        15  26  2.899228E+06 -1.867027E+03  4.555874E+04  1.871816E+03  3.373137E+04  1.012475E-01
        15  27  2.903764E+06  2.127909E+04  7.928718E+04  7.452670E+03  5.676005E+04  6.783290E-01
        16   1  2.921413E+06 -1.561723E+04  9.700682E+04  4.212941E+04 -7.126830E+04 -4.814545E+00
        16   2  2.877127E+06 -1.963717E+04  1.581341E+05 -3.765765E+04 -1.557804E+05  9.407424E+00
        16   3  2.921008E+06  2.854961E+05  3.514040E+05 -1.174515E+05 -2.402909E+05  4.525700E+01
        16   4  2.921411E+06 -1.562055E+04  9.700635E+04 -2.833914E-09 -7.126830E+04 -2.643394E-10
        16   5  2.877125E+06 -1.963982E+04  1.581337E+05  9.312740E-10 -1.557804E+05 -6.757743E-10
        16   6  2.920993E+06  2.854703E+05  3.514003E+05 -1.054221E-08 -2.402909E+05 -1.473650E-10
        16   7  2.921413E+06 -1.561723E+04  9.700682E+04 -4.212941E+04 -7.126830E+04  4.814545E+00
        16   8  2.877127E+06 -1.963717E+04  1.581341E+05  3.765765E+04 -1.557804E+05 -9.407424E+00
        16   9  2.921008E+06  2.854961E+05  3.514040E+05  1.174515E+05 -2.402909E+05 -4.525700E+01
        16  10  2.921407E+06 -1.561858E+04  9.699732E+04  4.212941E+04  1.531570E-10  1.744124E-10
        16  11  2.877101E+06 -1.964365E+04  1.580887E+05 -3.765765E+04 -5.055784E-11 -4.213544E-11
        16  12  2.920946E+06  2.854807E+05  3.512960E+05 -1.174515E+05 -5.553399E-10 -1.733731E-10
        16  13  2.921405E+06 -1.562190E+04  9.699685E+04  1.489346E-09  4.716929E-10  4.893394E-11
        16  14  2.877099E+06 -1.964630E+04  1.580883E+05  4.717308E-09  4.105260E-10 -3.998641E-12
        16  15  2.920931E+06  2.854549E+05  3.512923E+05 -1.485092E-10  9.420478E-10 -1.620478E-11
        16  16  2.921407E+06 -1.561858E+04  9.699732E+04 -4.212941E+04 -4.012743E-10 -1.978858E-11
        16  17  2.877101E+06 -1.964365E+04  1.580887E+05  3.765765E+04  5.375943E-10  1.550552E-10
        16  18  2.920946E+06  2.854807E+05  3.512960E+05  1.174515E+05  1.915513E-10  1.344590E-10
        16  19  2.921413E+06 -1.561723E+04  9.700682E+04  4.212941E+04  7.126830E+04  4.814545E+00
        16  20  2.877127E+06 -1.963717E+04  1.581341E+05 -3.765765E+04  1.557804E+05 -9.407424E+00
        16  21  2.921008E+06  2.854961E+05  3.514040E+05 -1.174515E+05  2.402909E+05 -4.525700E+01
        16  22  2.921411E+06 -1.562055E+04  9.700635E+04  1.461964E-09  7.126830E+04  4.556365E-10
        16  23  2.877125E+06 -1.963982E+04  1.581337E+05  9.418128E-10  1.557804E+05  6.589443E-10
        16  24  2.920993E+06  2.854703E+05  3.514003E+05 -7.534621E-09  2.402909E+05  1.409845E-10
        16  25  2.921413E+06 -1.561723E+04  9.700682E+04 -4.212941E+04  7.126830E+04 -4.814545E+00
        16  26  2.877127E+06 -1.963717E+04  1.581341E+05  3.765765E+04  1.557804E+05  9.407424E+00
        16  27  2.921008E+06  2.854961E+05  3.514040E+05  1.174515E+05  2.402909E+05  4.525700E+01
        17   1 -8.965580E+05 -2.723215E+06 -1.028840E+06  3.722326E+05 -1.414876E+04 -5.160754E+05
        17   2 -2.055073E+05 -2.399772E+06 -5.658060E+05  1.480566E+05 -4.030938E+04 -3.145891E+05
        17   3 -1.599785E+05 -2.263816E+06 -3.956132E+05  4.279042E+04 -3.383882E+04 -1.130403E+05
        17   4 -5.896186E+05 -1.492384E+06 -7.268194E+05  1.307037E+05 -1.393407E+04 -4.859937E+05
        17   5  4.093621E+04 -1.400542E+06 -3.342151E+05  7.104512E+04 -4.026032E+04 -3.076701E+05
        17   6  3.049561E+04 -1.491886E+06 -2.179532E+05  1.303779E+05 -3.387154E+04 -1.293661E+05
        17   7 -2.825709E+05 -2.600412E+05 -4.248755E+05 -1.113069E+05 -1.374323E+04 -4.558516E+05
        17   8  2.873319E+05 -4.003729E+05 -1.026877E+05 -6.091863E+03 -4.021305E+04 -3.007397E+05
        17   9  2.209568E+05 -7.193855E+05 -4.032772E+04  2.180753E+05 -3.390886E+04 -1.457120E+05
        17  10 -8.966301E+05 -2.723502E+06 -1.029343E+06  3.722268E+05 -5.979114E-11 -1.440546E-09
        17  11 -2.055358E+05 -2.399879E+06 -5.659957E+05  1.480464E+05 -5.171665E-10  3.513680E-09
        17  12 -1.599832E+05 -2.263830E+06 -3.956394E+05  4.278733E+04  5.276037E-10  6.640273E-09
        17  13 -5.896824E+05 -1.492639E+06 -7.272646E+05  1.306983E+05  5.772764E-10 -1.984539E-11
        17  14  4.090898E+04 -1.400644E+06 -3.343964E+05  7.103514E+04 -3.174374E-10 -3.462777E-11
        17  15  3.048987E+04 -1.491904E+06 -2.179869E+05  1.303743E+05  3.263264E-10 -1.602885E-10
        17  16 -2.826269E+05 -2.602646E+05 -4.252666E+05 -1.113120E+05 -1.975735E-10  1.426273E-09
        17  17  2.873059E+05 -4.004705E+05 -1.028609E+05 -6.101605E+03 -6.251011E-10 -3.486221E-09
        17  18  2.209499E+05 -7.194086E+05 -4.036982E+04  2.180713E+05 -9.697523E-10 -6.755977E-09
        17  19 -8.965580E+05 -2.723215E+06 -1.028840E+06  3.722326E+05  1.414876E+04  5.160754E+05
        17  20 -2.055073E+05 -2.399772E+06 -5.658060E+05  1.480566E+05  4.030938E+04  3.145891E+05
        17  21 -1.599785E+05 -2.263816E+06 -3.956132E+05  4.279042E+04  3.383882E+04  1.130403E+05
        17  22 -5.896186E+05 -1.492384E+06 -7.268194E+05  1.307037E+05  1.393407E+04  4.859937E+05
        17  23  4.093621E+04 -1.400542E+06 -3.342151E+05  7.104512E+04  4.026032E+04  3.076701E+05
        17  24  3.049561E+04 -1.491886E+06 -2.179532E+05  1.303779E+05  3.387154E+04  1.293661E+05
        17  25 -2.825709E+05 -2.600412E+05 -4.248755E+05 -1.113069E+05  1.374323E+04  4.558516E+05
        17  26  2.873319E+05 -4.003729E+05 -1.026877E+05 -6.091863E+03  4.021305E+04  3.007397E+05
        17  27  2.209568E+05 -7.193855E+05 -4.032772E+04  2.180753E+05  3.390886E+04  1.457120E+05
        18   1 -1.779132E+05 -2.008341E+06 -3.145785E+05  1.504699E+05 -2.327745E+04 -8.940116E+04
        18   2 -7.237786E+04 -1.762112E+06 -2.098942E+05  7.125387E+04 -1.373766E+04 -1.988891E+04
        18   3 -4.824626E+04 -1.545604E+06 -1.709846E+05  1.133624E+05 -3.409265E+03  4.964350E+04
        18   4 -4.223857E+04 -1.457784E+06 -1.875193E+05  1.310270E+05 -2.328213E+04 -9.594888E+04
        18   5  6.273249E+03 -1.442927E+06 -1.363747E+05  7.035355E+04 -1.374746E+04 -2.695979E+04
        18   6 -2.649724E+04 -1.457728E+06 -1.506014E+05  1.310077E+05 -3.420366E+03  4.202409E+04
        18   7  9.341629E+04 -9.069446E+05 -6.047998E+04  1.115666E+05 -2.328640E+04 -1.025023E+05
        18   8  8.491725E+04 -1.123647E+06 -6.286178E+04  6.945273E+04 -1.375724E+04 -3.403429E+04
        18   9 -4.747567E+03 -1.369844E+06 -1.302183E+05  1.486555E+05 -3.431901E+03  3.440360E+04
        18  10 -1.779160E+05 -2.008350E+06 -3.145946E+05  1.504683E+05  1.590176E-12 -6.217942E-09
        18  11 -7.237817E+04 -1.762112E+06 -2.098953E+05  7.125365E+04 -1.423987E-09 -2.838231E-09
        18  12 -4.824694E+04 -1.545606E+06 -1.709892E+05  1.133626E+05 -3.616683E-10  1.319767E-09
        18  13 -4.224163E+04 -1.457794E+06 -1.875377E+05  1.310252E+05 -8.591538E-10 -1.426785E-10
        18  14  6.272850E+03 -1.442928E+06 -1.363764E+05  7.035326E+04 -5.929234E-10  8.903313E-11
        18  15 -2.649773E+04 -1.457730E+06 -1.506047E+05  1.310078E+05 -4.254591E-10 -1.322542E-10
        18  16  9.341288E+04 -9.069561E+05 -6.050077E+04  1.115647E+05 -2.454850E-10  6.331457E-09
        18  17  8.491673E+04 -1.123648E+06 -6.286431E+04  6.945236E+04  9.898165E-10  2.904552E-09
        18  18 -4.747899E+03 -1.369845E+06 -1.302206E+05  1.486556E+05  6.991502E-10 -1.555421E-09
        18  19 -1.779132E+05 -2.008341E+06 -3.145785E+05  1.504699E+05  2.327745E+04  8.940116E+04
        18  20 -7.237786E+04 -1.762112E+06 -2.098942E+05  7.125387E+04  1.373766E+04  1.988891E+04
        18  21 -4.824626E+04 -1.545604E+06 -1.709846E+05  1.133624E+05  3.409265E+03 -4.964350E+04
        18  22 -4.223857E+04 -1.457784E+06 -1.875193E+05  1.310270E+05  2.328213E+04  9.594888E+04
        18  23  6.273249E+03 -1.442927E+06 -1.363747E+05  7.035355E+04  1.374746E+04  2.695979E+04
        18  24 -2.649724E+04 -1.457728E+06 -1.506014E+05  1.310077E+05  3.420366E+03 -4.202409E+04
        18  25  9.341629E+04 -9.069446E+05 -6.047998E+04  1.115666E+05  2.328640E+04  1.025023E+05
        18  26  8.491725E+04 -1.123647E+06 -6.286178E+04  6.945273E+04  1.375724E+04  3.403429E+04
        18  27 -4.747567E+03 -1.369844E+06 -1.302183E+05  1.486555E+05  3.431901E+03 -3.440360E+04
        19   1  5.219830E+04 -1.344170E+06 -1.331868E+05  1.889846E+05  5.524940E+03  8.064778E+04
        19   2  1.176110E+05 -1.051815E+06 -1.466377E+05  1.898024E+04  1.435756E+04  1.914719E+05
        19   3 -2.435985E+05 -8.807820E+05 -3.389924E+05 -3.004505E+04  5.992791E+03  3.023637E+05
        19   4  1.881506E+04 -1.478563E+06 -1.643604E+05  1.307756E+05  5.497077E+03  6.821574E+04
        19   5  2.771974E+04 -1.416889E+06 -2.313975E+05  7.054031E+04  1.437396E+04  1.913134E+05
        19   6 -3.923246E+05 -1.478867E+06 -4.859743E+05  1.313137E+05  6.088208E+03  3.144360E+05
        19   7 -1.455664E+04 -1.612930E+06 -1.955328E+05  7.257935E+04  5.471547E+03  5.578638E+04
        19   8 -6.217084E+04 -1.781833E+06 -3.161649E+05  1.220697E+05  1.439034E+04  1.911549E+05
        19   9 -5.409789E+05 -2.076570E+06 -6.329679E+05  2.925165E+05  6.189986E+03  3.264965E+05
        19  10  5.219651E+04 -1.344177E+06 -1.331991E+05  1.889842E+05  1.136393E-10 -3.840028E-10
        19  11  1.176009E+05 -1.051855E+06 -1.467071E+05  1.897803E+04  2.011975E-10 -3.422256E-10
        19  12 -2.436231E+05 -8.808803E+05 -3.391645E+05 -3.004651E+04  3.487043E-10  1.245952E-11
        19  13  1.881378E+04 -1.478568E+06 -1.643692E+05  1.307753E+05  1.725676E-10 -2.154546E-10
        19  14  2.770966E+04 -1.416928E+06 -2.314668E+05  7.053809E+04  1.382374E-10  1.807198E-13
        19  15 -3.923512E+05 -1.478974E+06 -4.861606E+05  1.313122E+05  7.153018E-10 -1.204487E-10
        19  16 -1.455751E+04 -1.612934E+06 -1.955387E+05  7.257911E+04  7.122736E-10  5.948854E-10
        19  17 -6.218091E+04 -1.781873E+06 -3.162341E+05  1.220675E+05  4.371965E-10  1.965322E-10
        19  18 -5.410076E+05 -2.076685E+06 -6.331690E+05  2.925149E+05 -2.032464E-10 -1.759692E-10
        19  19  5.219830E+04 -1.344170E+06 -1.331868E+05  1.889846E+05 -5.524940E+03 -8.064778E+04
        19  20  1.176110E+05 -1.051815E+06 -1.466377E+05  1.898024E+04 -1.435756E+04 -1.914719E+05
        19  21 -2.435985E+05 -8.807820E+05 -3.389924E+05 -3.004505E+04 -5.992791E+03 -3.023637E+05
        19  22  1.881506E+04 -1.478563E+06 -1.643604E+05  1.307756E+05 -5.497077E+03 -6.821574E+04
        19  23  2.771974E+04 -1.416889E+06 -2.313975E+05  7.054031E+04 -1.437396E+04 -1.913134E+05
        19  24 -3.923246E+05 -1.478867E+06 -4.859743E+05  1.313137E+05 -6.088208E+03 -3.144360E+05
        19  25 -1.455664E+04 -1.612930E+06 -1.955328E+05  7.257935E+04 -5.471547E+03 -5.578638E+04
        19  26 -6.217084E+04 -1.781833E+06 -3.161649E+05  1.220697E+05 -1.439034E+04 -1.911549E+05
        19  27 -5.409789E+05 -2.076570E+06 -6.329679E+05  2.925165E+05 -6.189986E+03 -3.264965E+05
        20   1  8.627306E+05  3.434410E+05 -1.583568E+05  7.188711E+05 -2.163491E+04 -7.246158E+03
        20   2  9.030361E+05  4.112019E+05 -1.273212E+05  7.503473E+05 -1.986931E+04  1.213891E+04
        20   3  9.767935E+05  4.333918E+05 -1.068472E+05  7.727840E+05 -8.594876E+03  1.884408E+04
        20   4  1.311545E+06  6.667166E+05 -7.395900E+03  9.426378E+05 -8.726090E+03  2.431646E+03
        20   5  1.294993E+06  6.905728E+05 -2.991942E+03  9.456201E+05 -1.610204E+04  1.496062E+04
        20   6  1.313869E+06  6.708402E+05 -1.226155E+03  9.395589E+05 -1.397420E+04  1.481331E+04
        20   7  1.760573E+06  9.901039E+05  1.435391E+05  1.166587E+06  4.195540E+03  1.211922E+04
        20   8  1.687115E+06  9.700294E+05  1.213190E+05  1.141033E+06 -1.233152E+04  1.778478E+04
        20   9  1.651068E+06  9.083507E+05  1.043818E+05  1.106436E+06 -1.935752E+04  1.077956E+04
        20  10  8.627301E+05  3.434408E+05 -1.583578E+05  7.188710E+05 -2.261450E-10 -9.171703E-11
        20  11  9.030356E+05  4.112016E+05 -1.273223E+05  7.503475E+05  8.428911E-11  3.655050E-10
        20  12  9.767933E+05  4.333914E+05 -1.068480E+05  7.727841E+05 -2.085001E-10  3.545614E-10
        20  13  1.311545E+06  6.667165E+05 -7.396054E+03  9.426379E+05  9.187952E-10  1.344719E-10
        20  14  1.294992E+06  6.905724E+05 -2.992851E+03  9.456203E+05  1.318865E-09  2.235756E-10
        20  15  1.313869E+06  6.708399E+05 -1.226935E+03  9.395591E+05 -1.496097E-10  1.220603E-10
        20  16  1.760573E+06  9.901038E+05  1.435388E+05  1.166587E+06  5.365671E-10  1.829316E-10
        20  17  1.687115E+06  9.700290E+05  1.213181E+05  1.141033E+06  6.827821E-10  2.686943E-11
        20  18  1.651067E+06  9.083505E+05  1.043809E+05  1.106436E+06  1.157246E-09 -6.669034E-11
        20  19  8.627306E+05  3.434410E+05 -1.583568E+05  7.188711E+05  2.163491E+04  7.246158E+03
        20  20  9.030361E+05  4.112019E+05 -1.273212E+05  7.503473E+05  1.986931E+04 -1.213891E+04
        20  21  9.767935E+05  4.333918E+05 -1.068472E+05  7.727840E+05  8.594876E+03 -1.884408E+04
        20  22  1.311545E+06  6.667166E+05 -7.395900E+03  9.426378E+05  8.726090E+03 -2.431646E+03
        20  23  1.294993E+06  6.905728E+05 -2.991942E+03  9.456201E+05  1.610204E+04 -1.496062E+04
        20  24  1.313869E+06  6.708402E+05 -1.226155E+03  9.395589E+05  1.397420E+04 -1.481331E+04
        20  25  1.760573E+06  9.901039E+05  1.435391E+05  1.166587E+06 -4.195540E+03 -1.211922E+04
        20  26  1.687115E+06  9.700294E+05  1.213190E+05  1.141033E+06  1.233152E+04 -1.778478E+04
        20  27  1.651068E+06  9.083507E+05  1.043818E+05  1.106436E+06  1.935752E+04 -1.077956E+04
        21   1  1.031619E+06  4.704206E+05 -8.957996E+04  7.999733E+05 -9.988910E+03  1.270793E+04
        21   2  1.068216E+06  5.295990E+05 -7.022537E+04  8.330657E+05 -8.243428E+03  1.042588E+04
        21   3  1.142954E+06  5.500889E+05 -5.099932E+04  8.551101E+05 -6.044496E+03  7.535420E+03
        21   4  1.313730E+06  6.705800E+05 -5.503525E+02  9.401534E+05 -1.142894E+04  1.162862E+04
        21   5  1.294726E+06  6.900718E+05  1.066548E+03  9.455360E+05 -1.012210E+04  9.018712E+03
        21   6  1.313953E+06  6.709699E+05  2.935119E+03  9.398684E+05 -8.361915E+03  5.800547E+03
        21   7  1.595925E+06  8.707810E+05  8.846861E+04  1.080404E+06 -1.286985E+04  1.054864E+04
        21   8  1.521289E+06  8.505716E+05  7.235182E+04  1.058052E+06 -1.200169E+04  7.610852E+03
        21   9  1.484983E+06  7.918666E+05  5.686593E+04  1.024653E+06 -1.068020E+04  4.065027E+03
        21  10  1.031619E+06  4.704204E+05 -8.958045E+04  7.999734E+05 -9.528444E-10  6.846683E-11
        21  11  1.068216E+06  5.295989E+05 -7.022570E+04  8.330658E+05  7.892608E-10 -4.358356E-10
        21  12  1.142954E+06  5.500888E+05 -5.099949E+04  8.551101E+05 -8.143775E-11 -4.718152E-10
        21  13  1.313730E+06  6.705798E+05 -5.508525E+02  9.401535E+05  4.561840E-11  1.457541E-10
        21  14  1.294725E+06  6.900717E+05  1.066202E+03  9.455360E+05 -9.589694E-10 -1.279798E-10
        21  15  1.313953E+06  6.709699E+05  2.934924E+03  9.398684E+05  1.583620E-09 -4.296351E-10
        21  16  1.595924E+06  8.707808E+05  8.846809E+04  1.080404E+06  2.518810E-09  2.239895E-10
        21  17  1.521289E+06  8.505715E+05  7.235144E+04  1.058052E+06  1.236834E-09  1.132692E-10
        21  18  1.484983E+06  7.918666E+05  5.686569E+04  1.024653E+06  7.536825E-10 -5.583188E-10
        21  19  1.031619E+06  4.704206E+05 -8.957996E+04  7.999733E+05  9.988910E+03 -1.270793E+04
        21  20  1.068216E+06  5.295990E+05 -7.022537E+04  8.330657E+05  8.243428E+03 -1.042588E+04
        21  21  1.142954E+06  5.500889E+05 -5.099932E+04  8.551101E+05  6.044496E+03 -7.535420E+03
        21  22  1.313730E+06  6.705800E+05 -5.503525E+02  9.401534E+05  1.142894E+04 -1.162862E+04
        21  23  1.294726E+06  6.900718E+05  1.066548E+03  9.455360E+05  1.012210E+04 -9.018712E+03
        21  24  1.313953E+06  6.709699E+05  2.935119E+03  9.398684E+05  8.361915E+03 -5.800547E+03
        21  25  1.595925E+06  8.707810E+05  8.846861E+04  1.080404E+06  1.286985E+04 -1.054864E+04
        21  26  1.521289E+06  8.505716E+05  7.235182E+04  1.058052E+06  1.200169E+04 -7.610852E+03
        21  27  1.484983E+06  7.918666E+05  5.686593E+04  1.024653E+06  1.068020E+04 -4.065027E+03
        22   1  1.195645E+06  5.877411E+05 -3.278303E+04  8.815621E+05 -5.391359E+03  5.191133E+03
        22   2  1.231627E+06  6.453134E+05 -1.216745E+04  9.142453E+05 -6.227214E+03 -2.502911E+01
        22   3  1.306552E+06  6.661428E+05  1.125263E+04  9.355420E+05 -7.062041E+03 -5.244246E+03
        22   4  1.313902E+06  6.710032E+05  4.128465E+03  9.400810E+05 -7.514023E+03  3.602332E+03
        22   5  1.294663E+06  6.897896E+05  7.627841E+03  9.454647E+05 -8.352180E+03 -1.615371E+03
        22   6  1.314365E+06  6.718320E+05  1.393384E+04  9.394593E+05 -9.188944E+03 -6.835815E+03
        22   7  1.432174E+06  7.542735E+05  4.103858E+04  9.986127E+05 -9.637251E+03  2.013111E+03
        22   8  1.357704E+06  7.342678E+05  2.742267E+04  9.766877E+05 -1.047744E+04 -3.205931E+03
        22   9  1.322177E+06  6.775213E+05  1.661506E+04  9.433766E+05 -1.131587E+04 -8.427400E+03
        22  10  1.195644E+06  5.877410E+05 -3.278314E+04  8.815621E+05 -1.488528E-10 -8.764520E-10
        22  11  1.231627E+06  6.453134E+05 -1.216753E+04  9.142453E+05 -3.811591E-10  3.145738E-10
        22  12  1.306552E+06  6.661427E+05  1.125248E+04  9.355419E+05  1.251385E-10  2.497200E-10
        22  13  1.313901E+06  6.710032E+05  4.128334E+03  9.400810E+05  5.847323E-10  1.757677E-11
        22  14  1.294663E+06  6.897895E+05  7.627705E+03  9.454647E+05  8.738215E-10  4.004890E-10
        22  15  1.314365E+06  6.718319E+05  1.393360E+04  9.394592E+05 -2.698912E-10  2.157824E-10
        22  16  1.432174E+06  7.542734E+05  4.103840E+04  9.986128E+05  4.523070E-10  5.080390E-10
        22  17  1.357704E+06  7.342678E+05  2.742245E+04  9.766876E+05 -4.875204E-10  9.961086E-10
        22  18  1.322177E+06  6.775212E+05  1.661468E+04  9.433765E+05 -1.412641E-09 -7.165765E-11
        22  19  1.195645E+06  5.877411E+05 -3.278303E+04  8.815621E+05  5.391359E+03 -5.191133E+03
        22  20  1.231627E+06  6.453134E+05 -1.216745E+04  9.142453E+05  6.227214E+03  2.502911E+01
        22  21  1.306552E+06  6.661428E+05  1.125263E+04  9.355420E+05  7.062041E+03  5.244246E+03
        22  22  1.313902E+06  6.710032E+05  4.128465E+03  9.400810E+05  7.514023E+03 -3.602332E+03
        22  23  1.294663E+06  6.897896E+05  7.627841E+03  9.454647E+05  8.352180E+03  1.615371E+03
        22  24  1.314365E+06  6.718320E+05  1.393384E+04  9.394593E+05  9.188944E+03  6.835815E+03
        22  25  1.432174E+06  7.542735E+05  4.103858E+04  9.986127E+05  9.637251E+03 -2.013111E+03
        22  26  1.357704E+06  7.342678E+05  2.742267E+04  9.766877E+05  1.047744E+04  3.205931E+03
        22  27  1.322177E+06  6.775213E+05  1.661506E+04  9.433766E+05  1.131587E+04  8.427400E+03
        23   1  1.356444E+06  7.053111E+05  3.237934E+04  9.640570E+05 -7.854516E+03 -8.625563E+03
        23   2  1.394322E+06  7.577885E+05  6.261261E+04  9.944357E+05 -1.864833E+04 -2.123952E+04
        23   3  1.481051E+06  7.865051E+05  1.079630E+05  1.008068E+06 -2.977682E+04 -3.340895E+04
        23   4  1.314440E+06  6.709306E+05  1.812008E+04  9.410918E+05 -1.011304E+04 -1.031559E+04
        23   5  1.293171E+06  6.884325E+05  3.119846E+04  9.452714E+05 -2.058258E+04 -2.268735E+04
        23   6  1.320684E+06  6.821046E+05  5.911725E+04  9.327021E+05 -3.138522E+04 -3.461359E+04
        23   7  1.272437E+06  6.365514E+05  3.860592E+03  9.181284E+05 -1.237135E+04 -1.200543E+04
        23   8  1.192031E+06  6.190813E+05 -2.170291E+02  8.961157E+05 -2.251642E+04 -2.413489E+04
        23   9  1.160343E+06  5.777144E+05  1.026811E+04  8.573563E+05 -3.299306E+04 -3.581786E+04
        23  10  1.356444E+06  7.053110E+05  3.237908E+04  9.640570E+05  2.545470E-10 -1.420879E-10
        23  11  1.394321E+06  7.577879E+05  6.261111E+04  9.944354E+05 -8.322756E-10  4.355700E-10
        23  12  1.481050E+06  7.865037E+05  1.079593E+05  1.008068E+06 -7.707689E-10  9.545160E-11
        23  13  1.314440E+06  6.709304E+05  1.811969E+04  9.410917E+05 -5.609462E-10  1.619072E-10
        23  14  1.293170E+06  6.884318E+05  3.119671E+04  9.452710E+05 -1.136595E-09  2.244116E-11
        23  15  1.320683E+06  6.821030E+05  5.911316E+04  9.327013E+05  1.708823E-11  1.896831E-10
        23  16  1.272437E+06  6.365512E+05  3.860035E+03  9.181283E+05  8.745416E-11 -1.566126E-10
        23  17  1.192030E+06  6.190805E+05 -2.190707E+02  8.961153E+05  5.476165E-11 -7.019104E-10
        23  18  1.160342E+06  5.777128E+05  1.026367E+04  8.573554E+05  1.515617E-10  2.170132E-10
        23  19  1.356444E+06  7.053111E+05  3.237934E+04  9.640570E+05  7.854516E+03  8.625563E+03
        23  20  1.394322E+06  7.577885E+05  6.261261E+04  9.944357E+05  1.864833E+04  2.123952E+04
        23  21  1.481051E+06  7.865051E+05  1.079630E+05  1.008068E+06  2.977682E+04  3.340895E+04
        23  22  1.314440E+06  6.709306E+05  1.812008E+04  9.410918E+05  1.011304E+04  1.031559E+04
        23  23  1.293171E+06  6.884325E+05  3.119846E+04  9.452714E+05  2.058258E+04  2.268735E+04
        23  24  1.320684E+06  6.821046E+05  5.911725E+04  9.327021E+05  3.138522E+04  3.461359E+04
        23  25  1.272437E+06  6.365514E+05  3.860592E+03  9.181284E+05  1.237135E+04  1.200543E+04
        23  26  1.192031E+06  6.190813E+05 -2.170291E+02  8.961157E+05  2.251642E+04  2.413489E+04
        23  27  1.160343E+06  5.777144E+05  1.026811E+04  8.573563E+05  3.299306E+04  3.581786E+04
        24   1  1.496032E+06  8.473904E+05  1.388213E+05  1.065607E+06 -3.351071E+04 -4.061670E+04
        24   2  1.568698E+06  8.323823E+05  2.051200E+05  1.066417E+06 -9.103472E+04 -8.618078E+04
        24   3  1.810791E+06  9.585450E+05  3.792791E+05  9.739285E+05 -1.554505E+05 -1.225569E+05
        24   4  1.319247E+06  6.686264E+05  7.344510E+04  9.530377E+05 -3.797211E+04 -4.395361E+04
        24   5  1.277068E+06  6.733958E+05  1.216651E+05  9.436819E+05 -8.883339E+04 -8.454032E+04
        24   6  1.402911E+06  8.179592E+05  2.720276E+05  8.410169E+05 -1.465718E+05 -1.159425E+05
        24   7  1.142499E+06  4.899051E+05  8.064845E+03  8.405111E+05 -4.243179E+04 -4.728850E+04
        24   8  9.855313E+05  5.144337E+05  3.820240E+04  8.210036E+05 -8.663349E+04 -8.290059E+04
        24   9  9.952231E+05  6.773919E+05  1.647670E+05  7.081720E+05 -1.377012E+05 -1.093303E+05
        24  10  1.496030E+06  8.473883E+05  1.388161E+05  1.065606E+06  1.563020E-09  2.956576E-10
        24  11  1.568688E+06  8.323721E+05  2.050906E+05  1.066411E+06  1.384873E-09 -1.232495E-10
        24  12  1.810761E+06  9.585225E+05  3.792058E+05  9.739132E+05 -8.308707E-10 -1.504927E-10
        24  13  1.319245E+06  6.686240E+05  7.343878E+04  9.530364E+05 -1.191656E-10  1.310282E-10
        24  14  1.277058E+06  6.733860E+05  1.216370E+05  9.436759E+05 -1.220802E-09 -4.263694E-11
        24  15  1.402885E+06  8.179390E+05  2.719622E+05  8.410033E+05  6.956212E-10 -7.107325E-11
        24  16  1.142497E+06  4.899022E+05  8.057279E+03  8.405095E+05 -7.015400E-10  2.300220E-10
        24  17  9.855214E+05  5.144244E+05  3.817545E+04  8.209978E+05  2.577988E-10 -4.066789E-10
        24  18  9.951996E+05  6.773740E+05  1.647091E+05  7.081599E+05 -7.823475E-10 -1.050986E-11
        24  19  1.496032E+06  8.473904E+05  1.388213E+05  1.065607E+06  3.351071E+04  4.061670E+04
        24  20  1.568698E+06  8.323823E+05  2.051200E+05  1.066417E+06  9.103472E+04  8.618078E+04
        24  21  1.810791E+06  9.585450E+05  3.792791E+05  9.739285E+05  1.554505E+05  1.225569E+05
        24  22  1.319247E+06  6.686264E+05  7.344510E+04  9.530377E+05  3.797211E+04  4.395361E+04
        24  23  1.277068E+06  6.733958E+05  1.216651E+05  9.436819E+05  8.883339E+04  8.454032E+04
        24  24  1.402911E+06  8.179592E+05  2.720276E+05  8.410169E+05  1.465718E+05  1.159425E+05
        24  25  1.142499E+06  4.899051E+05  8.064845E+03  8.405111E+05  4.243179E+04  4.728850E+04
        24  26  9.855313E+05  5.144337E+05  3.820240E+04  8.210036E+05  8.663349E+04  8.290059E+04
        24  27  9.952231E+05  6.773919E+05  1.647670E+05  7.081720E+05  1.377012E+05  1.093303E+05
        25   1  1.982318E+06  1.283078E+05  1.580644E+05  5.277750E+04  1.070194E+05  9.070218E+00
        25   2  1.962524E+06 -8.850130E+03  7.187945E+04  1.695131E+04  6.863951E+04  1.868489E+00
        25   3  1.982444E+06 -6.982406E+03  4.538321E+04 -1.887295E+04  3.025986E+04 -9.170773E-01
        25   4  1.982315E+06  1.283026E+05  1.580636E+05 -1.317753E-09  1.070194E+05 -8.451463E-11
        25   5  1.962524E+06 -8.850668E+03  7.187937E+04 -2.743299E-09  6.863951E+04 -2.521094E-10
        25   6  1.982444E+06 -6.983073E+03  4.538311E+04  7.189411E-10  3.025986E+04 -1.351138E-11
        25   7  1.982318E+06  1.283078E+05  1.580644E+05 -5.277750E+04  1.070194E+05 -9.070218E+00
        25   8  1.962524E+06 -8.850130E+03  7.187945E+04 -1.695131E+04  6.863951E+04 -1.868489E+00
        25   9  1.982444E+06 -6.982406E+03  4.538321E+04  1.887295E+04  3.025986E+04  9.170773E-01
        25  10  1.982306E+06  1.283047E+05  1.580429E+05  5.277750E+04  1.196865E-09 -8.296434E-11
        25  11  1.962519E+06 -8.851390E+03  7.187063E+04  1.695131E+04 -1.136915E-10 -1.345606E-10
        25  12  1.982443E+06 -6.982651E+03  4.538149E+04 -1.887295E+04  3.025384E-10  1.582697E-12
        25  13  1.982303E+06  1.282995E+05  1.580422E+05 -1.336707E-09 -6.982149E-10 -7.243169E-11
        25  14  1.962519E+06 -8.851928E+03  7.187055E+04 -3.816858E-09  2.694726E-10 -2.201504E-10
        25  15  1.982443E+06 -6.983318E+03  4.538140E+04 -8.956627E-10 -8.805176E-11  2.724123E-11
        25  16  1.982306E+06  1.283047E+05  1.580429E+05 -5.277750E+04 -1.371367E-10 -3.587890E-11
        25  17  1.962519E+06 -8.851390E+03  7.187063E+04 -1.695131E+04  1.300847E-10 -1.052064E-11
        25  18  1.982443E+06 -6.982651E+03  4.538149E+04  1.887295E+04  2.844098E-10 -3.553119E-11
        25  19  1.982318E+06  1.283078E+05  1.580644E+05  5.277750E+04 -1.070194E+05 -9.070218E+00
        25  20  1.962524E+06 -8.850130E+03  7.187945E+04  1.695131E+04 -6.863951E+04 -1.868489E+00
        25  21  1.982444E+06 -6.982406E+03  4.538321E+04 -1.887295E+04 -3.025986E+04  9.170773E-01
        25  22  1.982315E+06  1.283026E+05  1.580636E+05 -1.378839E-09 -1.070194E+05 -4.237047E-11
        25  23  1.962524E+06 -8.850668E+03  7.187937E+04 -3.811588E-09 -6.863951E+04 -4.524465E-11
        25  24  1.982444E+06 -6.983073E+03  4.538311E+04 -4.556709E-10 -3.025986E+04  4.889122E-11
        25  25  1.982318E+06  1.283078E+05  1.580644E+05 -5.277750E+04 -1.070194E+05  9.070218E+00
        25  26  1.962524E+06 -8.850130E+03  7.187945E+04 -1.695131E+04 -6.863951E+04  1.868489E+00
        25  27  1.982444E+06 -6.982406E+03  4.538321E+04  1.887295E+04 -3.025986E+04 -9.170773E-01
        26   1  1.974613E+06  9.525261E+03  3.807568E+04  3.521102E+03  2.336416E+04  1.321093E-01
        26   2  1.972325E+06 -9.281831E+02  2.486350E+04  9.003927E+02  1.083234E+04  1.566246E-02
        26   3  1.974626E+06  4.723248E+02  2.275498E+04 -1.720359E+03 -1.699588E+03  4.695337E-03
        26   4  1.974613E+06  9.525238E+03  3.807568E+04 -8.497461E-09  2.336416E+04  1.960008E-10
        26   5  1.972325E+06 -9.281846E+02  2.486350E+04 -1.733881E-09  1.083234E+04  7.970471E-11
        26   6  1.974626E+06  4.723192E+02  2.275498E+04 -3.879174E-09 -1.699588E+03 -5.071035E-10
        26   7  1.974613E+06  9.525261E+03  3.807568E+04 -3.521102E+03  2.336416E+04 -1.321093E-01
        26   8  1.972325E+06 -9.281831E+02  2.486350E+04 -9.003927E+02  1.083234E+04 -1.566246E-02
        26   9  1.974626E+06  4.723248E+02  2.275498E+04  1.720359E+03 -1.699588E+03 -4.695338E-03
        26  10  1.974612E+06  9.525115E+03  3.807466E+04  3.521102E+03 -5.357316E-10  1.686839E-10
        26  11  1.972325E+06 -9.282145E+02  2.486329E+04  9.003927E+02 -1.157206E-10 -1.271288E-10
        26  12  1.974626E+06  4.723240E+02  2.275497E+04 -1.720359E+03  6.278768E-11 -5.968783E-10
        26  13  1.974612E+06  9.525092E+03  3.807465E+04 -4.137724E-09 -3.553794E-10  2.593261E-10
        26  14  1.972325E+06 -9.282160E+02  2.486328E+04 -3.937972E-09  9.802214E-10  2.028760E-10
        26  15  1.974626E+06  4.723185E+02  2.275497E+04  4.677733E-11  1.071631E-10 -5.411609E-10
        26  16  1.974612E+06  9.525115E+03  3.807466E+04 -3.521102E+03  9.988146E-10  2.884755E-10
        26  17  1.972325E+06 -9.282145E+02  2.486329E+04 -9.003927E+02 -4.621282E-10  3.340090E-10
        26  18  1.974626E+06  4.723240E+02  2.275497E+04  1.720359E+03 -8.345535E-10 -6.703709E-10
        26  19  1.974613E+06  9.525261E+03  3.807568E+04  3.521102E+03 -2.336416E+04 -1.321093E-01
        26  20  1.972325E+06 -9.281831E+02  2.486350E+04  9.003927E+02 -1.083234E+04 -1.566246E-02
        26  21  1.974626E+06  4.723248E+02  2.275498E+04 -1.720359E+03  1.699588E+03 -4.695338E-03
        26  22  1.974613E+06  9.525238E+03  3.807568E+04 -8.446908E-09 -2.336416E+04  2.940963E-10
        26  23  1.972325E+06 -9.281846E+02  2.486350E+04  1.937350E-09 -1.083234E+04  2.694705E-10
        26  24  1.974626E+06  4.723192E+02  2.275498E+04 -2.115291E-09  1.699588E+03 -5.843407E-10
        26  25  1.974613E+06  9.525261E+03  3.807568E+04 -3.521102E+03 -2.336416E+04  1.321093E-01
        26  26  1.972325E+06 -9.281831E+02  2.486350E+04 -9.003927E+02 -1.083234E+04  1.566246E-02
        26  27  1.974626E+06  4.723248E+02  2.275498E+04  1.720359E+03  1.699588E+03  4.695337E-03
        27   1  1.975003E+06 -1.470329E+02  2.397779E+04  2.519576E+03 -5.817182E+03 -2.353661E-02
        27   2  1.971850E+06 -1.283853E+03  3.175011E+04 -1.278789E+03 -2.185421E+04  4.487869E-02
        27   3  1.974980E+06  1.439168E+04  5.414287E+04 -5.077138E+03 -3.789143E+04  3.089335E-01
        27   4  1.975003E+06 -1.470448E+02  2.397779E+04 -3.597141E-09 -5.817182E+03 -7.359627E-10
        27   5  1.971850E+06 -1.283856E+03  3.175011E+04  8.996639E-09 -2.185421E+04 -6.964284E-10
        27   6  1.974979E+06  1.439163E+04  5.414286E+04  1.647298E-08 -3.789143E+04 -8.638723E-10
        27   7  1.975003E+06 -1.470329E+02  2.397779E+04 -2.519576E+03 -5.817182E+03  2.353661E-02
        27   8  1.971850E+06 -1.283853E+03  3.175011E+04  1.278789E+03 -2.185421E+04 -4.487869E-02
        27   9  1.974980E+06  1.439168E+04  5.414287E+04  5.077138E+03 -3.789143E+04 -3.089335E-01
        27  10  1.975003E+06 -1.470420E+02  2.397772E+04  2.519576E+03  1.319049E-10 -6.574220E-10
        27  11  1.971850E+06 -1.283981E+03  3.174921E+04 -1.278789E+03  1.592404E-09 -8.680962E-10
        27  12  1.974978E+06  1.439130E+04  5.414018E+04 -5.077138E+03  2.519740E-09 -4.447513E-10
        27  13  1.975003E+06 -1.470538E+02  2.397772E+04 -3.110165E-10 -8.427317E-11 -8.742608E-10
        27  14  1.971850E+06 -1.283984E+03  3.174921E+04 -1.211000E-09 -1.054664E-09 -7.520197E-10
        27  15  1.974978E+06  1.439125E+04  5.414017E+04  1.922405E-09 -3.186390E-11 -4.189738E-10
        27  16  1.975003E+06 -1.470420E+02  2.397772E+04 -2.519576E+03  6.641578E-11 -1.154252E-09
        27  17  1.971850E+06 -1.283981E+03  3.174921E+04  1.278789E+03  2.938453E-10 -8.260336E-10
        27  18  1.974978E+06  1.439130E+04  5.414018E+04  5.077138E+03 -2.741073E-09 -5.261217E-10
        27  19  1.975003E+06 -1.470329E+02  2.397779E+04  2.519576E+03  5.817182E+03  2.353661E-02
        27  20  1.971850E+06 -1.283853E+03  3.175011E+04 -1.278789E+03  2.185421E+04 -4.487869E-02
        27  21  1.974980E+06  1.439168E+04  5.414287E+04 -5.077138E+03  3.789143E+04 -3.089335E-01
        27  22  1.975003E+06 -1.470448E+02  2.397779E+04 -3.548693E-09  5.817182E+03 -1.016772E-09
        27  23  1.971850E+06 -1.283856E+03  3.175011E+04 -1.722532E-09  2.185421E+04 -7.799759E-10
        27  24  1.974979E+06  1.439163E+04  5.414286E+04 -1.375431E-08  3.789143E+04  6.823188E-11
        27  25  1.975003E+06 -1.470329E+02  2.397779E+04 -2.519576E+03  5.817182E+03 -2.353661E-02
        27  26  1.971850E+06 -1.283853E+03  3.175011E+04  1.278789E+03  2.185421E+04  4.487869E-02
        27  27  1.974980E+06  1.439168E+04  5.414287E+04  5.077138E+03  3.789143E+04  3.089335E-01
        28   1  1.986887E+06 -1.055737E+04  6.598439E+04  2.846776E+04 -4.777589E+04 -2.184031E+00
        28   2  1.956948E+06 -1.330650E+04  1.071158E+05 -2.545704E+04 -1.050065E+05  4.292814E+00
        28   3  1.986700E+06  1.931277E+05  2.377259E+05 -7.938418E+04 -1.622355E+05  2.068177E+01
        28   4  1.986886E+06 -1.055888E+04  6.598417E+04 -5.725673E-08 -4.777589E+04 -2.694319E-10
        28   5  1.956947E+06 -1.330772E+04  1.071156E+05  8.413902E-09 -1.050065E+05  8.894704E-10
        28   6  1.986693E+06  1.931159E+05  2.377242E+05  7.098702E-08 -1.622355E+05  7.243709E-10
        28   7  1.986887E+06 -1.055737E+04  6.598439E+04 -2.846776E+04 -4.777589E+04  2.184031E+00
        28   8  1.956948E+06 -1.330650E+04  1.071158E+05  2.545704E+04 -1.050065E+05 -4.292814E+00
        28   9  1.986700E+06  1.931277E+05  2.377259E+05  7.938418E+04 -1.622355E+05 -2.068177E+01
        28  10  1.986884E+06 -1.055798E+04  6.598011E+04  2.846776E+04  1.558904E-08  2.054544E-10
        28  11  1.956936E+06 -1.330945E+04  1.070951E+05 -2.545704E+04  2.309910E-10  1.123432E-09
        28  12  1.986672E+06  1.931207E+05  2.376766E+05 -7.938418E+04 -1.203472E-08  3.432505E-10
        28  13  1.986883E+06 -1.055949E+04  6.597990E+04  1.144348E-09 -2.225558E-10  2.367771E-10
        28  14  1.956936E+06 -1.331066E+04  1.070950E+05  2.505236E-09  1.888523E-10  1.184924E-09
        28  15  1.986665E+06  1.931088E+05  2.376749E+05  3.601251E-09  9.758413E-11  4.842083E-10
        28  16  1.986884E+06 -1.055798E+04  6.598011E+04 -2.846776E+04 -1.550133E-08  3.200333E-10
        28  17  1.956936E+06 -1.330945E+04  1.070951E+05  2.545704E+04 -7.158374E-10  1.207390E-09
        28  18  1.986672E+06  1.931207E+05  2.376766E+05  7.938418E+04  1.354038E-08  4.884409E-10
        28  19  1.986887E+06 -1.055737E+04  6.598439E+04  2.846776E+04  4.777589E+04  2.184031E+00
        28  20  1.956948E+06 -1.330650E+04  1.071158E+05 -2.545704E+04  1.050065E+05 -4.292814E+00
        28  21  1.986700E+06  1.931277E+05  2.377259E+05 -7.938418E+04  1.622355E+05 -2.068177E+01
        28  22  1.986886E+06 -1.055888E+04  6.598417E+04  5.733720E-08  4.777589E+04  7.899007E-10
        28  23  1.956947E+06 -1.330772E+04  1.071156E+05 -2.329838E-09  1.050065E+05  1.382402E-09
        28  24  1.986693E+06  1.931159E+05  2.377242E+05 -7.508567E-08  1.622355E+05  2.354277E-10
        28  25  1.986887E+06 -1.055737E+04  6.598439E+04 -2.846776E+04  4.777589E+04 -2.184031E+00
        28  26  1.956948E+06 -1.330650E+04  1.071158E+05  2.545704E+04  1.050065E+05  4.292814E+00
        28  27  1.986700E+06  1.931277E+05  2.377259E+05  7.938418E+04  1.622355E+05  2.068177E+01
        29   1 -4.858594E+05 -1.515173E+06 -5.784246E+05  1.923989E+05 -3.994508E+03 -3.389479E+05
        29   2 -4.286042E+04 -1.404015E+06 -2.957383E+05  6.772193E+04 -1.163067E+04 -2.105131E+05
        29   3 -3.878576E+04 -1.419362E+06 -2.064972E+05 -3.228768E+04 -1.056701E+04 -8.206953E+04
        29   4 -4.021848E+05 -1.179280E+06 -4.961367E+05  2.717338E+04 -3.903212E+03 -3.303727E+05
        29   5  2.800984E+04 -1.116480E+06 -2.291747E+05  1.479800E+04 -1.161183E+04 -2.081630E+05
        29   6  2.042907E+04 -1.179064E+06 -1.512652E+05  2.711368E+04 -1.057586E+04 -8.595593E+04
        29   7 -3.184158E+05 -8.432245E+05 -4.138421E+05 -1.381419E+05 -3.816534E+03 -3.217929E+05
        29   8  9.888485E+04 -8.288624E+05 -1.626150E+05 -3.815068E+04 -1.159341E+04 -2.058118E+05
        29   9  7.965315E+04 -9.387049E+05 -9.603512E+04  8.653827E+04 -1.058546E+04 -8.984381E+04
        29  10 -4.858904E+05 -1.515297E+06 -5.786410E+05  1.923978E+05  6.909614E-11 -4.962711E-10
        29  11 -4.287250E+04 -1.404063E+06 -2.958220E+05  6.771995E+04 -2.353795E-10 -1.543709E-10
        29  12 -3.878769E+04 -1.419369E+06 -2.065101E+05 -3.228838E+04 -6.767842E-10  2.010280E-10
        29  13 -4.022142E+05 -1.179397E+06 -4.963422E+05  2.717234E+04  3.072994E-10 -2.739896E-11
        29  14  2.799804E+04 -1.116527E+06 -2.292565E+05  1.479605E+04 -2.144813E-10  3.100851E-13
        29  15  2.042697E+04 -1.179072E+06 -1.512793E+05  2.711295E+04 -9.128351E-10 -1.238478E-10
        29  16 -3.184436E+05 -8.433358E+05 -4.140370E+05 -1.381429E+05 -1.235965E-10  4.996937E-10
        29  17  9.887331E+04 -8.289080E+05 -1.626950E+05 -3.815260E+04 -9.024657E-10  2.067747E-10
        29  18  7.965086E+04 -9.387136E+05 -9.605052E+04  8.653750E+04  9.928863E-10 -2.570243E-10
        29  19 -4.858594E+05 -1.515173E+06 -5.784246E+05  1.923989E+05  3.994508E+03  3.389479E+05
        29  20 -4.286042E+04 -1.404015E+06 -2.957383E+05  6.772193E+04  1.163067E+04  2.105131E+05
        29  21 -3.878576E+04 -1.419362E+06 -2.064972E+05 -3.228768E+04  1.056701E+04  8.206953E+04
        29  22 -4.021848E+05 -1.179280E+06 -4.961367E+05  2.717338E+04  3.903212E+03  3.303727E+05
        29  23  2.800984E+04 -1.116480E+06 -2.291747E+05  1.479800E+04  1.161183E+04  2.081630E+05
        29  24  2.042907E+04 -1.179064E+06 -1.512652E+05  2.711368E+04  1.057586E+04  8.595593E+04
        29  25 -3.184158E+05 -8.432245E+05 -4.138421E+05 -1.381419E+05  3.816534E+03  3.217929E+05
        29  26  9.888485E+04 -8.288624E+05 -1.626150E+05 -3.815068E+04  1.159341E+04  2.058118E+05
        29  27  7.965315E+04 -9.387049E+05 -9.603512E+04  8.653827E+04  1.058546E+04  8.984381E+04
        30   1 -7.660939E+04 -1.350128E+06 -1.761345E+05  4.140746E+04 -8.158081E+03 -6.138199E+04
        30   2 -3.149164E+04 -1.291139E+06 -1.326484E+05  1.514074E+04 -6.264700E+03 -1.100678E+04
        30   3 -4.562845E+04 -1.253552E+06 -1.368174E+05  1.418696E+04 -4.013404E+03  3.937198E+04
        30   4 -2.878165E+04 -1.155989E+06 -1.313430E+05  2.727645E+04 -8.156969E+03 -6.261128E+04
        30   5  4.429069E+03 -1.145306E+06 -9.907288E+04  1.461864E+04 -6.265228E+03 -1.248227E+04
        30   6 -2.156407E+04 -1.155979E+06 -1.142773E+05  2.727445E+04 -4.013404E+03  3.764644E+04
        30   7  1.904420E+04 -9.618137E+05 -8.655382E+04  1.314097E+04 -8.155801E+03 -6.384095E+04
        30   8  4.034829E+04 -9.994525E+05 -6.549872E+04  1.409643E+04 -6.265754E+03 -1.395811E+04
        30   9  2.500283E+03 -1.058396E+06 -9.173775E+04  4.036401E+04 -4.013477E+03  3.592064E+04
        30  10 -7.661047E+04 -1.350132E+06 -1.761418E+05  4.140705E+04 -5.406778E-10 -6.792383E-10
        30  11 -3.149171E+04 -1.291139E+06 -1.326488E+05  1.514068E+04  3.246318E-10  4.217129E-10
        30  12 -4.562888E+04 -1.253554E+06 -1.368203E+05  1.418709E+04 -4.760313E-10  5.459721E-10
        30  13 -2.878277E+04 -1.155993E+06 -1.313505E+05  2.727603E+04 -8.091422E-10 -1.696070E-10
        30  14  4.428985E+03 -1.145306E+06 -9.907325E+04  1.461858E+04  1.157925E-09  5.550669E-11
        30  15 -2.156447E+04 -1.155980E+06 -1.142800E+05  2.727457E+04 -8.047929E-11 -3.070093E-10
        30  16  1.904304E+04 -9.618181E+05 -8.656162E+04  1.314055E+04  1.032506E-09  6.779842E-10
        30  17  4.034820E+04 -9.994528E+05 -6.549916E+04  1.409636E+04 -7.775700E-10 -2.645416E-10
        30  18  2.499919E+03 -1.058397E+06 -9.174021E+04  4.036412E+04  1.492891E-09 -6.028768E-10
        30  19 -7.660939E+04 -1.350128E+06 -1.761345E+05  4.140746E+04  8.158081E+03  6.138199E+04
        30  20 -3.149164E+04 -1.291139E+06 -1.326484E+05  1.514074E+04  6.264700E+03  1.100678E+04
        30  21 -4.562845E+04 -1.253552E+06 -1.368174E+05  1.418696E+04  4.013404E+03 -3.937198E+04
        30  22 -2.878165E+04 -1.155989E+06 -1.313430E+05  2.727645E+04  8.156969E+03  6.261128E+04
        30  23  4.429069E+03 -1.145306E+06 -9.907288E+04  1.461864E+04  6.265228E+03  1.248227E+04
        30  24 -2.156407E+04 -1.155979E+06 -1.142773E+05  2.727445E+04  4.013404E+03 -3.764644E+04
        30  25  1.904420E+04 -9.618137E+05 -8.655382E+04  1.314097E+04  8.155801E+03  6.384095E+04
        30  26  4.034829E+04 -9.994525E+05 -6.549872E+04  1.409643E+04  6.265754E+03  1.395811E+04
        30  27  2.500283E+03 -1.058396E+06 -9.173775E+04  4.036401E+04  4.013477E+03 -3.592064E+04
        31   1  2.445422E+03 -1.224046E+06 -1.381513E+05  7.321436E+04 -2.356041E+03  5.975987E+04
        31   2  2.109912E+04 -1.126853E+06 -1.821954E+05 -2.650328E+04 -2.086202E+02  1.552673E+05
        31   3 -2.997239E+05 -1.127028E+06 -3.733463E+05 -1.007387E+05  2.584846E+02  2.507839E+05
        31   4  1.496581E+04 -1.172885E+06 -1.264757E+05  2.726280E+04 -2.361568E+03  5.764730E+04
        31   5  2.179522E+04 -1.124167E+06 -1.816437E+05  1.460483E+04 -1.987976E+02  1.543437E+05
        31   6 -3.110893E+05 -1.173049E+06 -3.847535E+05  2.742580E+04  3.104885E+02  2.510419E+05
        31   7  2.749398E+04 -1.121718E+06 -1.147992E+05 -1.869258E+04 -2.366782E+03  5.553456E+04
        31   8  2.249767E+04 -1.121477E+06 -1.810911E+05  5.571311E+04 -1.890976E+02  1.534201E+05
        31   9 -3.223930E+05 -1.219034E+06 -3.961520E+05  1.555808E+05  3.626024E+02  2.512998E+05
        31  10  2.444455E+03 -1.224050E+06 -1.381580E+05  7.321447E+04  9.018702E-10 -3.898946E-10
        31  11  2.109263E+04 -1.126879E+06 -1.822408E+05 -2.650325E+04  1.093146E-09 -2.099363E-11
        31  12 -2.997409E+05 -1.127095E+06 -3.734647E+05 -1.007388E+05  5.050300E-10  1.672199E-11
        31  13  1.496491E+04 -1.172889E+06 -1.264820E+05  2.726291E+04 -4.058298E-10 -3.138997E-10
        31  14  2.178880E+04 -1.124192E+06 -1.816885E+05  1.460485E+04  8.061028E-10  1.093145E-10
        31  15 -3.111063E+05 -1.173117E+06 -3.848721E+05  2.742574E+04 -3.654614E-10 -1.807744E-10
        31  16  2.749314E+04 -1.121721E+06 -1.148050E+05 -1.869248E+04  6.203717E-10  5.133800E-10
        31  17  2.249134E+04 -1.121502E+06 -1.811354E+05  5.571314E+04  3.621351E-11  1.022071E-10
        31  18 -3.224100E+05 -1.219102E+06 -3.962709E+05  1.555808E+05  8.175364E-10 -1.017261E-10
        31  19  2.445422E+03 -1.224046E+06 -1.381513E+05  7.321436E+04  2.356041E+03 -5.975987E+04
        31  20  2.109912E+04 -1.126853E+06 -1.821954E+05 -2.650328E+04  2.086202E+02 -1.552673E+05
        31  21 -2.997239E+05 -1.127028E+06 -3.733463E+05 -1.007387E+05 -2.584846E+02 -2.507839E+05
        31  22  1.496581E+04 -1.172885E+06 -1.264757E+05  2.726280E+04  2.361568E+03 -5.764730E+04
        31  23  2.179522E+04 -1.124167E+06 -1.816437E+05  1.460483E+04  1.987976E+02 -1.543437E+05
        31  24 -3.110893E+05 -1.173049E+06 -3.847535E+05  2.742580E+04 -3.104885E+02 -2.510419E+05
        31  25  2.749398E+04 -1.121718E+06 -1.147992E+05 -1.869258E+04  2.366782E+03 -5.553456E+04
        31  26  2.249767E+04 -1.121477E+06 -1.810911E+05  5.571311E+04  1.890976E+02 -1.534201E+05
        31  27 -3.223930E+05 -1.219034E+06 -3.961520E+05  1.555808E+05 -3.626024E+02 -2.512998E+05
        32   1  4.629403E+05  1.584257E+05 -1.141951E+05  3.958215E+05 -2.233357E+04 -1.121763E+04
        32   2  4.910523E+05  2.142843E+05 -8.580360E+04  4.106796E+05 -1.804197E+04  3.107412E+03
        32   3  5.322137E+05  2.308472E+05 -7.017227E+04  4.248461E+05 -7.876757E+03  9.601079E+03
        32   4  7.342076E+05  3.629895E+05 -2.109588E+04  5.352172E+05 -1.439232E+04 -5.263381E+03
        32   5  7.303325E+05  3.878268E+05 -9.296672E+03  5.312127E+05 -1.574173E+04  4.831131E+03
        32   6  7.407315E+05  3.745960E+05 -5.362379E+03  5.265144E+05 -1.121969E+04  7.095340E+03
        32   7  1.005552E+06  5.675987E+05  7.199329E+04  6.746830E+05 -6.446342E+03  6.946970E+02
        32   8  9.696730E+05  5.614016E+05  6.720278E+04  6.517982E+05 -1.344029E+04  6.555775E+03
        32   9  9.492944E+05  5.183658E+05  5.944189E+04  6.282199E+05 -1.456412E+04  4.588514E+03
        32  10  4.629397E+05  1.584254E+05 -1.141963E+05  3.958213E+05 -1.181851E-10 -1.785698E-10
        32  11  4.910519E+05  2.142842E+05 -8.580423E+04  4.106796E+05 -1.451053E-09 -3.215666E-10
        32  12  5.322136E+05  2.308470E+05 -7.017256E+04  4.248462E+05 -5.266650E-10 -1.914475E-11
        32  13  7.342074E+05  3.629894E+05 -2.109632E+04  5.352172E+05  5.806581E-10 -1.066857E-10
        32  14  7.303322E+05  3.878267E+05 -9.297181E+03  5.312128E+05  1.848845E-10 -1.082678E-10
        32  15  7.407313E+05  3.745959E+05 -5.362710E+03  5.265145E+05 -8.097419E-10 -6.850898E-11
        32  16  1.005552E+06  5.675987E+05  7.199322E+04  6.746830E+05 -2.172178E-10 -2.377383E-11
        32  17  9.696728E+05  5.614015E+05  6.720236E+04  6.517983E+05  8.218941E-10  3.173400E-11
        32  18  9.492942E+05  5.183657E+05  5.944145E+04  6.282199E+05  1.058243E-09 -1.133435E-10
        32  19  4.629403E+05  1.584257E+05 -1.141951E+05  3.958215E+05  2.233357E+04  1.121763E+04
        32  20  4.910523E+05  2.142843E+05 -8.580360E+04  4.106796E+05  1.804197E+04 -3.107412E+03
        32  21  5.322137E+05  2.308472E+05 -7.017227E+04  4.248461E+05  7.876757E+03 -9.601079E+03
        32  22  7.342076E+05  3.629895E+05 -2.109588E+04  5.352172E+05  1.439232E+04  5.263381E+03
        32  23  7.303325E+05  3.878268E+05 -9.296672E+03  5.312127E+05  1.574173E+04 -4.831131E+03
        32  24  7.407315E+05  3.745960E+05 -5.362379E+03  5.265144E+05  1.121969E+04 -7.095340E+03
        32  25  1.005552E+06  5.675987E+05  7.199329E+04  6.746830E+05  6.446342E+03 -6.946970E+02
        32  26  9.696730E+05  5.614016E+05  6.720278E+04  6.517982E+05  1.344029E+04 -6.555775E+03
        32  27  9.492944E+05  5.183658E+05  5.944189E+04  6.282199E+05  1.456412E+04 -4.588514E+03
        33   1  5.689301E+05  2.510805E+05 -5.847023E+04  4.425236E+05 -8.159888E+03  6.210518E+03
        33   2  5.923642E+05  2.895476E+05 -4.470918E+04  4.631103E+05 -6.136045E+03  5.441313E+03
        33   3  6.392528E+05  3.026343E+05 -3.205692E+04  4.770437E+05 -3.827393E+03  4.291114E+03
        33   4  7.406120E+05  3.735572E+05 -4.128746E+03  5.280974E+05 -9.078349E+03  5.521974E+03
        33   5  7.291099E+05  3.866696E+05 -1.593238E+03  5.310874E+05 -7.328771E+03  4.547498E+03
        33   6  7.411204E+05  3.744605E+05  7.145449E+01  5.274228E+05 -5.294494E+03  3.192028E+03
        33   7  9.123253E+05  4.960501E+05  5.020907E+04  6.136978E+05 -9.997154E+03  4.833169E+03
        33   8  8.658761E+05  4.838021E+05  4.152058E+04  5.990815E+05 -8.521858E+03  3.653412E+03
        33   9  8.429997E+05  4.462927E+05  3.219883E+04  5.778115E+05 -6.761934E+03  2.092691E+03
        33  10  5.689301E+05  2.510804E+05 -5.847043E+04  4.425236E+05  1.267470E-10  3.980628E-11
        33  11  5.923641E+05  2.895476E+05 -4.470931E+04  4.631104E+05 -8.661393E-10 -3.925098E-11
        33  12  6.392528E+05  3.026343E+05 -3.205698E+04  4.770437E+05 -7.975027E-10  2.473482E-10
        33  13  7.406119E+05  3.735571E+05 -4.128959E+03  5.280974E+05  6.148091E-10  5.182295E-12
        33  14  7.291098E+05  3.866695E+05 -1.593378E+03  5.310874E+05 -6.336602E-10  1.201848E-10
        33  15  7.411203E+05  3.744605E+05  7.138265E+01  5.274228E+05 -4.938023E-10  2.503897E-10
        33  16  9.123252E+05  4.960500E+05  5.020884E+04  6.136978E+05  5.570135E-10 -1.053245E-10
        33  17  8.658761E+05  4.838020E+05  4.152042E+04  5.990815E+05 -2.229635E-10  3.037936E-10
        33  18  8.429997E+05  4.462927E+05  3.219873E+04  5.778115E+05  5.573699E-10  2.939256E-10
        33  19  5.689301E+05  2.510805E+05 -5.847023E+04  4.425236E+05  8.159888E+03 -6.210518E+03
        33  20  5.923642E+05  2.895476E+05 -4.470918E+04  4.631103E+05  6.136045E+03 -5.441313E+03
        33  21  6.392528E+05  3.026343E+05 -3.205692E+04  4.770437E+05  3.827393E+03 -4.291114E+03
        33  22  7.406120E+05  3.735572E+05 -4.128746E+03  5.280974E+05  9.078349E+03 -5.521974E+03
        33  23  7.291099E+05  3.866696E+05 -1.593238E+03  5.310874E+05  7.328771E+03 -4.547498E+03
        33  24  7.411204E+05  3.744605E+05  7.145449E+01  5.274228E+05  5.294494E+03 -3.192028E+03
        33  25  9.123253E+05  4.960501E+05  5.020907E+04  6.136978E+05  9.997154E+03 -4.833169E+03
        33  26  8.658761E+05  4.838021E+05  4.152058E+04  5.990815E+05  8.521858E+03 -3.653412E+03
        33  27  8.429997E+05  4.462927E+05  3.219883E+04  5.778115E+05  6.761934E+03 -2.092691E+03
        34   1  6.729804E+05  3.263044E+05 -2.043370E+04  4.938597E+05 -3.152892E+03  2.996753E+03
        34   2  6.959127E+05  3.631132E+05 -7.610960E+03  5.146699E+05 -2.857130E+03  2.946644E+02
        34   3  7.433618E+05  3.762080E+05  6.234948E+03  5.283170E+05 -2.559739E+03 -2.410059E+03
        34   4  7.411140E+05  3.744065E+05  8.613876E+02  5.276201E+05 -4.502258E+03  1.985976E+03
        34   5  7.289709E+05  3.864688E+05  2.783882E+03  5.310479E+05 -4.208388E+03 -7.174591E+02
        34   6  7.413441E+05  3.748173E+05  5.731529E+03  5.273118E+05 -3.912812E+03 -3.423466E+03
        34   7  8.092521E+05  4.225108E+05  2.215573E+04  5.613844E+05 -5.851814E+03  9.750561E+02
        34   8  7.620301E+05  4.098249E+05  1.317855E+04  5.474268E+05 -5.559738E+03 -1.729652E+03
        34   9  7.393264E+05  3.734266E+05  5.228121E+03  5.263066E+05 -5.265879E+03 -4.436868E+03
        34  10  6.729804E+05  3.263044E+05 -2.043373E+04  4.938597E+05 -1.439199E-09  2.920787E-10
        34  11  6.959127E+05  3.631132E+05 -7.610975E+03  5.146699E+05 -4.931721E-10  1.234235E-10
        34  12  7.433618E+05  3.762080E+05  6.234925E+03  5.283170E+05  5.463718E-10 -5.144523E-10
        34  13  7.411140E+05  3.744065E+05  8.613421E+02  5.276201E+05 -2.037480E-10  1.955944E-10
        34  14  7.289709E+05  3.864688E+05  2.783847E+03  5.310479E+05  7.948363E-12  2.324119E-10
        34  15  7.413440E+05  3.748173E+05  5.731478E+03  5.273118E+05 -5.791715E-10 -1.836580E-10
        34  16  8.092520E+05  4.225108E+05  2.215566E+04  5.613844E+05  5.617307E-10  4.883234E-10
        34  17  7.620301E+05  4.098248E+05  1.317849E+04  5.474268E+05 -1.691675E-10  9.077393E-10
        34  18  7.393263E+05  3.734266E+05  5.228032E+03  5.263066E+05  4.247720E-10  3.496472E-10
        34  19  6.729804E+05  3.263044E+05 -2.043370E+04  4.938597E+05  3.152892E+03 -2.996753E+03
        34  20  6.959127E+05  3.631132E+05 -7.610960E+03  5.146699E+05  2.857130E+03 -2.946644E+02
        34  21  7.433618E+05  3.762080E+05  6.234948E+03  5.283170E+05  2.559739E+03  2.410059E+03
        34  22  7.411140E+05  3.744065E+05  8.613876E+02  5.276201E+05  4.502258E+03 -1.985976E+03
        34  23  7.289709E+05  3.864688E+05  2.783882E+03  5.310479E+05  4.208388E+03  7.174591E+02
        34  24  7.413441E+05  3.748173E+05  5.731529E+03  5.273118E+05  3.912812E+03  3.423466E+03
        34  25  8.092521E+05  4.225108E+05  2.215573E+04  5.613844E+05  5.851814E+03 -9.750561E+02
        34  26  7.620301E+05  4.098249E+05  1.317855E+04  5.474268E+05  5.559738E+03  1.729652E+03
        34  27  7.393264E+05  3.734266E+05  5.228121E+03  5.263066E+05  5.265879E+03  4.436868E+03
        35   1  7.757227E+05  4.007884E+05  1.892466E+04  5.459928E+05 -2.558709E+03 -4.188789E+03
        35   2  7.994551E+05  4.353354E+05  3.561015E+04  5.658399E+05 -6.804430E+03 -1.025749E+04
        35   3  8.520884E+05  4.518689E+05  5.886400E+04  5.761809E+05 -1.127099E+04 -1.603190E+04
        35   4  7.413816E+05  3.744223E+05  7.614109E+03  5.280282E+05 -3.998730E+03 -5.267336E+03
        35   5  7.283107E+05  3.858735E+05  1.337293E+04  5.309644E+05 -8.031300E+03 -1.117657E+04
        35   6  7.440942E+05  3.792648E+05  2.551659E+04  5.243931E+05 -1.228424E+04 -1.679115E+04
        35   7  7.070414E+05  3.480569E+05 -3.696684E+03  5.100647E+05 -5.438654E+03 -6.345801E+03
        35   8  6.571717E+05  3.364142E+05 -8.864903E+03  4.960933E+05 -9.257979E+03 -1.209550E+04
        35   9  6.361134E+05  3.066667E+05 -7.831941E+03  4.726156E+05 -1.329725E+04 -1.755022E+04
        35  10  7.757227E+05  4.007884E+05  1.892462E+04  5.459928E+05 -6.195898E-09 -5.940015E-09
        35  11  7.994550E+05  4.353353E+05  3.560987E+04  5.658399E+05 -1.065948E-09 -1.940165E-09
        35  12  8.520882E+05  4.518686E+05  5.886328E+04  5.761807E+05  6.765496E-09  4.373263E-09
        35  13  7.413815E+05  3.744223E+05  7.614027E+03  5.280282E+05 -5.256042E-10 -1.095086E-09
        35  14  7.283106E+05  3.858734E+05  1.337257E+04  5.309643E+05 -2.228197E-09 -2.526536E-09
        35  15  7.440940E+05  3.792644E+05  2.551577E+04  5.243929E+05 -3.686956E-10 -8.649905E-10
        35  16  7.070414E+05  3.480568E+05 -3.696815E+03  5.100646E+05  6.303029E-09  3.809359E-09
        35  17  6.571716E+05  3.364140E+05 -8.865338E+03  4.960932E+05 -1.528606E-09 -2.208280E-09
        35  18  6.361131E+05  3.066664E+05 -7.832850E+03  4.726154E+05 -6.646485E-09 -5.813020E-09
        35  19  7.757227E+05  4.007884E+05  1.892466E+04  5.459928E+05  2.558709E+03  4.188789E+03
        35  20  7.994551E+05  4.353354E+05  3.561015E+04  5.658399E+05  6.804430E+03  1.025749E+04
        35  21  8.520884E+05  4.518689E+05  5.886400E+04  5.761809E+05  1.127099E+04  1.603190E+04
        35  22  7.413816E+05  3.744223E+05  7.614109E+03  5.280282E+05  3.998730E+03  5.267336E+03
        35  23  7.283107E+05  3.858735E+05  1.337293E+04  5.309644E+05  8.031300E+03  1.117657E+04
        35  24  7.440942E+05  3.792648E+05  2.551659E+04  5.243931E+05  1.228424E+04  1.679115E+04
        35  25  7.070414E+05  3.480569E+05 -3.696684E+03  5.100647E+05  5.438654E+03  6.345801E+03
        35  26  6.571717E+05  3.364142E+05 -8.864903E+03  4.960933E+05  9.257979E+03  1.209550E+04
        35  27  6.361134E+05  3.066667E+05 -7.831941E+03  4.726156E+05  1.329725E+04  1.755022E+04
        36   1  8.692786E+05  4.858784E+05  7.558306E+04  6.064295E+05 -1.179737E+04 -1.926287E+04
        36   2  9.079880E+05  4.910669E+05  1.079367E+05  6.133971E+05 -3.793483E+04 -4.038085E+04
        36   3  1.028033E+06  5.501047E+05  1.882854E+05  5.777437E+05 -6.859428E+04 -5.547021E+04
        36   4  7.434353E+05  3.734602E+05  3.173797E+04  5.332095E+05 -1.467707E+04 -2.141987E+04
        36   5  7.213757E+05  3.793230E+05  5.263829E+04  5.302742E+05 -3.645772E+04 -3.927568E+04
        36   6  7.797194E+05  4.381107E+05  1.177720E+05  4.847139E+05 -6.275714E+04 -5.110241E+04
        36   7  6.176090E+05  2.610573E+05 -1.210938E+04  4.600079E+05 -1.755599E+04 -2.357609E+04
        36   8  5.348002E+05  2.675910E+05 -2.664060E+03  4.471768E+05 -3.498121E+04 -3.817087E+04
        36   9  5.314721E+05  3.261265E+05  4.725296E+04  3.917164E+05 -5.692320E+04 -4.673586E+04
        36  10  8.692784E+05  4.858780E+05  7.558210E+04  6.064294E+05  5.377928E-10  1.085289E-09
        36  11  9.079860E+05  4.910648E+05  1.079309E+05  6.133959E+05 -4.290809E-11  9.749946E-10
        36  12  1.028027E+06  5.501002E+05  1.882708E+05  5.777406E+05  7.618364E-10  6.768197E-10
        36  13  7.434349E+05  3.734596E+05  3.173670E+04  5.332092E+05 -8.101620E-10  4.296055E-10
        36  14  7.213739E+05  3.793210E+05  5.263290E+04  5.302730E+05 -1.317717E-09  4.508589E-10
        36  15  7.797145E+05  4.381069E+05  1.177597E+05  4.847113E+05  6.895417E-11  3.347638E-10
        36  16  6.176086E+05  2.610567E+05 -1.211100E+04  4.600075E+05  2.227473E-12 -2.567652E-10
        36  17  5.347985E+05  2.675891E+05 -2.669091E+03  4.471757E+05 -2.659913E-10  6.600844E-10
        36  18  5.314680E+05  3.261233E+05  4.724278E+04  3.917143E+05 -1.272749E-10 -6.552119E-11
        36  19  8.692786E+05  4.858784E+05  7.558306E+04  6.064295E+05  1.179737E+04  1.926287E+04
        36  20  9.079880E+05  4.910669E+05  1.079367E+05  6.133971E+05  3.793483E+04  4.038085E+04
        36  21  1.028033E+06  5.501047E+05  1.882854E+05  5.777437E+05  6.859428E+04  5.547021E+04
        36  22  7.434353E+05  3.734602E+05  3.173797E+04  5.332095E+05  1.467707E+04  2.141987E+04
        36  23  7.213757E+05  3.793230E+05  5.263829E+04  5.302742E+05  3.645772E+04  3.927568E+04
        36  24  7.797194E+05  4.381107E+05  1.177720E+05  4.847139E+05  6.275714E+04  5.110241E+04
        36  25  6.176090E+05  2.610573E+05 -1.210938E+04  4.600079E+05  1.755599E+04  2.357609E+04
        36  26  5.348002E+05  2.675910E+05 -2.664060E+03  4.471768E+05  3.498121E+04  3.817087E+04
        36  27  5.314721E+05  3.261265E+05  4.725296E+04  3.917164E+05  5.692320E+04  4.673586E+04
        37   1  1.410905E+06  9.662657E+04  1.190152E+05  3.971721E+04  8.065314E+04  5.148568E+00
        37   2  1.395982E+06 -6.670092E+03  5.403099E+04  1.275263E+04  5.180411E+04  1.061831E+00
        37   3  1.410972E+06 -5.262420E+03  3.397642E+04 -1.421156E+04  2.295446E+04 -5.243121E-01
        37   4  1.410903E+06  9.662361E+04  1.190148E+05 -2.026436E-10  8.065314E+04 -5.014884E-12
        37   5  1.395982E+06 -6.670396E+03  5.403094E+04 -8.317356E-11  5.180411E+04  1.114799E-10
        37   6  1.410972E+06 -5.262798E+03  3.397636E+04 -3.727878E-09  2.295446E+04 -2.331836E-10
        37   7  1.410905E+06  9.662657E+04  1.190152E+05 -3.971721E+04  8.065314E+04 -5.148568E+00
        37   8  1.395982E+06 -6.670092E+03  5.403099E+04 -1.275263E+04  5.180411E+04 -1.061831E+00
        37   9  1.410972E+06 -5.262420E+03  3.397642E+04  1.421156E+04  2.295446E+04  5.243121E-01
        37  10  1.410898E+06  9.662483E+04  1.190030E+05  3.971721E+04 -4.427908E-11  1.511061E-10
        37  11  1.395980E+06 -6.670810E+03  5.402596E+04  1.275262E+04 -4.030746E-10  1.950232E-10
        37  12  1.410971E+06 -5.262561E+03  3.397543E+04 -1.421156E+04  8.517326E-10 -3.628056E-10
        37  13  1.410896E+06  9.662187E+04  1.190026E+05  9.055092E-10  5.388235E-10  3.777499E-11
        37  14  1.395979E+06 -6.671115E+03  5.402591E+04  2.045599E-09  1.183934E-09 -2.971170E-11
        37  15  1.410971E+06 -5.262939E+03  3.397538E+04 -1.124508E-09  4.411901E-10 -2.411495E-10
        37  16  1.410898E+06  9.662483E+04  1.190030E+05 -3.971721E+04  1.895007E-10  1.056659E-11
        37  17  1.395980E+06 -6.670810E+03  5.402596E+04 -1.275262E+04  9.608266E-10 -2.879466E-10
        37  18  1.410971E+06 -5.262561E+03  3.397543E+04  1.421156E+04 -1.876661E-10 -1.600896E-10
        37  19  1.410905E+06  9.662657E+04  1.190152E+05  3.971721E+04 -8.065314E+04 -5.148568E+00
        37  20  1.395982E+06 -6.670092E+03  5.403099E+04  1.275263E+04 -5.180411E+04 -1.061831E+00
        37  21  1.410972E+06 -5.262420E+03  3.397642E+04 -1.421156E+04 -2.295446E+04  5.243121E-01
        37  22  1.410903E+06  9.662361E+04  1.190148E+05 -3.393385E-09 -8.065314E+04  7.370427E-11
        37  23  1.395982E+06 -6.670396E+03  5.403094E+04 -6.651173E-10 -5.180411E+04 -1.017142E-10
        37  24  1.410972E+06 -5.262798E+03  3.397636E+04 -3.724786E-09 -2.295446E+04 -2.976064E-10
        37  25  1.410905E+06  9.662657E+04  1.190152E+05 -3.971721E+04 -8.065314E+04  5.148568E+00
        37  26  1.395982E+06 -6.670092E+03  5.403099E+04 -1.275263E+04 -5.180411E+04  1.061831E+00
        37  27  1.410972E+06 -5.262420E+03  3.397642E+04  1.421156E+04 -2.295446E+04 -5.243121E-01
        38   1  1.405068E+06  7.179765E+03  2.840479E+04  2.632794E+03  1.780669E+04  7.535034E-02
        38   2  1.403369E+06 -6.902597E+02  1.824881E+04  6.715881E+02  8.607590E+03  9.291168E-03
        38   3  1.405075E+06  2.855821E+02  1.628356E+04 -1.289620E+03 -5.914739E+02  1.225975E-03
        38   4  1.405068E+06  7.179752E+03  2.840479E+04  2.647182E-09  1.780669E+04 -7.032614E-11
        38   5  1.403369E+06 -6.902606E+02  1.824881E+04  4.314814E-09  8.607590E+03  3.448097E-10
        38   6  1.405075E+06  2.855790E+02  1.628356E+04 -1.952042E-09 -5.914739E+02 -3.853684E-11
        38   7  1.405068E+06  7.179765E+03  2.840479E+04 -2.632794E+03  1.780669E+04 -7.535034E-02
        38   8  1.403369E+06 -6.902597E+02  1.824881E+04 -6.715881E+02  8.607590E+03 -9.291167E-03
        38   9  1.405075E+06  2.855821E+02  1.628356E+04  1.289620E+03 -5.914739E+02 -1.225975E-03
        38  10  1.405068E+06  7.179680E+03  2.840419E+04  2.632794E+03  9.421259E-11 -2.793076E-10
        38  11  1.403369E+06 -6.902795E+02  1.824867E+04  6.715881E+02 -5.245156E-10  2.018182E-10
        38  12  1.405075E+06  2.855820E+02  1.628356E+04 -1.289620E+03  3.471556E-10 -2.025614E-11
        38  13  1.405068E+06  7.179667E+03  2.840419E+04  7.095422E-09  3.196186E-10 -1.076325E-10
        38  14  1.403369E+06 -6.902804E+02  1.824867E+04  4.874656E-09 -2.859231E-10  3.185130E-10
        38  15  1.405075E+06  2.855789E+02  1.628356E+04  2.653904E-09  3.940762E-10  3.062586E-11
        38  16  1.405068E+06  7.179680E+03  2.840419E+04 -2.632794E+03  3.182373E-10  2.080109E-11
        38  17  1.403369E+06 -6.902795E+02  1.824867E+04 -6.715881E+02 -2.506363E-10  4.143384E-10
        38  18  1.405075E+06  2.855820E+02  1.628356E+04  1.289620E+03 -2.700544E-10  1.355722E-10
        38  19  1.405068E+06  7.179765E+03  2.840479E+04  2.632794E+03 -1.780669E+04 -7.535035E-02
        38  20  1.403369E+06 -6.902597E+02  1.824881E+04  6.715881E+02 -8.607590E+03 -9.291167E-03
        38  21  1.405075E+06  2.855821E+02  1.628356E+04 -1.289620E+03  5.914739E+02 -1.225975E-03
        38  22  1.405068E+06  7.179752E+03  2.840479E+04  2.893566E-09 -1.780669E+04 -1.103707E-10
        38  23  1.403369E+06 -6.902606E+02  1.824881E+04  6.496279E-09 -8.607590E+03  3.121416E-10
        38  24  1.405075E+06  2.855790E+02  1.628356E+04 -1.379006E-11  5.914739E+02  1.103849E-10
        38  25  1.405068E+06  7.179765E+03  2.840479E+04 -2.632794E+03 -1.780669E+04  7.535035E-02
        38  26  1.403369E+06 -6.902597E+02  1.824881E+04 -6.715881E+02 -8.607590E+03  9.291168E-03
        38  27  1.405075E+06  2.855821E+02  1.628356E+04  1.289620E+03  5.914739E+02  1.225976E-03
        39   1  1.405281E+06 -5.354978E+01  1.695254E+04  1.726855E+03 -3.518394E+03 -9.765282E-03
        39   2  1.403109E+06 -8.851283E+02  2.201673E+04 -8.787499E+02 -1.463502E+04  2.067019E-02
        39   3  1.405270E+06  9.844064E+03  3.719691E+04 -3.484308E+03 -2.575157E+04  1.442134E-01
        39   4  1.405281E+06 -5.355537E+01  1.695254E+04 -4.344771E-09 -3.518394E+03 -2.263288E-10
        39   5  1.403109E+06 -8.851298E+02  2.201673E+04  3.542412E-09 -1.463502E+04 -4.452498E-11
        39   6  1.405270E+06  9.844041E+03  3.719691E+04  1.042153E-09 -2.575157E+04  1.069260E-10
        39   7  1.405281E+06 -5.354978E+01  1.695254E+04 -1.726855E+03 -3.518394E+03  9.765282E-03
        39   8  1.403109E+06 -8.851283E+02  2.201673E+04  8.787499E+02 -1.463502E+04 -2.067019E-02
        39   9  1.405270E+06  9.844064E+03  3.719691E+04  3.484308E+03 -2.575157E+04 -1.442134E-01
        39  10  1.405281E+06 -5.355309E+01  1.695251E+04  1.726855E+03 -8.848865E-10 -1.716968E-10
        39  11  1.403109E+06 -8.851857E+02  2.201633E+04 -8.787498E+02  8.749703E-10  9.649338E-12
        39  12  1.405270E+06  9.843886E+03  3.719567E+04 -3.484308E+03  7.653718E-10  6.943471E-13
        39  13  1.405281E+06 -5.355868E+01  1.695251E+04  3.218264E-09  8.423436E-11 -1.317892E-10
        39  14  1.403109E+06 -8.851871E+02  2.201633E+04 -2.448841E-10 -2.360018E-10 -1.063069E-10
        39  15  1.405270E+06  9.843863E+03  3.719566E+04 -3.703826E-09  8.902627E-10 -2.023159E-10
        39  16  1.405281E+06 -5.355309E+01  1.695251E+04 -1.726855E+03  7.080695E-10 -7.558314E-11
        39  17  1.403109E+06 -8.851857E+02  2.201633E+04  8.787498E+02 -9.599304E-11 -2.570731E-10
        39  18  1.405270E+06  9.843886E+03  3.719567E+04  3.484308E+03 -2.960150E-10 -3.864906E-10
        39  19  1.405281E+06 -5.354978E+01  1.695254E+04  1.726855E+03  3.518394E+03  9.765281E-03
        39  20  1.403109E+06 -8.851283E+02  2.201673E+04 -8.787499E+02  1.463502E+04 -2.067019E-02
        39  21  1.405270E+06  9.844064E+03  3.719691E+04 -3.484308E+03  2.575157E+04 -1.442134E-01
        39  22  1.405281E+06 -5.355537E+01  1.695254E+04 -1.828070E-12  3.518394E+03 -4.186857E-12
        39  23  1.403109E+06 -8.851298E+02  2.201673E+04 -7.773540E-10  1.463502E+04 -1.254616E-10
        39  24  1.405270E+06  9.844041E+03  3.719691E+04 -1.681275E-09  2.575157E+04 -4.718101E-10
        39  25  1.405281E+06 -5.354978E+01  1.695254E+04 -1.726855E+03  3.518394E+03 -9.765282E-03
        39  26  1.403109E+06 -8.851283E+02  2.201673E+04  8.787499E+02  1.463502E+04  2.067019E-02
        39  27  1.405270E+06  9.844064E+03  3.719691E+04  3.484308E+03  2.575157E+04  1.442134E-01
        40   1  1.413403E+06 -7.219251E+03  4.524974E+04  1.946017E+04 -3.253476E+04 -1.017592E+00
        40   2  1.392934E+06 -9.110759E+03  7.331363E+04 -1.740533E+04 -7.169871E+04  2.005801E+00
        40   3  1.413312E+06  1.321053E+05  1.626138E+05 -5.427285E+04 -1.108629E+05  9.670656E+00
        40   4  1.413403E+06 -7.219961E+03  4.524964E+04 -3.228861E-10 -3.253476E+04  6.643670E-11
        40   5  1.392934E+06 -9.111327E+03  7.331355E+04  2.462832E-09 -7.169871E+04 -1.978099E-10
        40   6  1.413309E+06  1.320997E+05  1.626130E+05 -4.591645E-09 -1.108629E+05  5.198180E-11
        40   7  1.413403E+06 -7.219251E+03  4.524974E+04 -1.946017E+04 -3.253476E+04  1.017592E+00
        40   8  1.392934E+06 -9.110759E+03  7.331363E+04  1.740533E+04 -7.169871E+04 -2.005801E+00
        40   9  1.413312E+06  1.321053E+05  1.626138E+05  5.427285E+04 -1.108629E+05 -9.670656E+00
        40  10  1.413402E+06 -7.219535E+03  4.524776E+04  1.946017E+04  1.002528E-09  3.615490E-11
        40  11  1.392929E+06 -9.112135E+03  7.330399E+04 -1.740533E+04 -4.001250E-10  9.798355E-11
        40  12  1.413299E+06  1.321020E+05  1.625907E+05 -5.427285E+04 -2.893392E-10  5.354450E-11
        40  13  1.413402E+06 -7.220245E+03  4.524766E+04  4.068433E-09  4.817822E-10 -1.528770E-10
        40  14  1.392928E+06 -9.112703E+03  7.330391E+04  1.945109E-09  2.259855E-10  9.808714E-11
        40  15  1.413296E+06  1.320964E+05  1.625899E+05 -9.988590E-10 -5.169657E-10  6.638138E-11
        40  16  1.413402E+06 -7.219535E+03  4.524776E+04 -1.946017E+04  1.123544E-10 -1.777589E-10
        40  17  1.392929E+06 -9.112135E+03  7.330399E+04  1.740533E+04  1.930433E-10  6.624557E-11
        40  18  1.413299E+06  1.321020E+05  1.625907E+05  5.427285E+04 -5.216007E-10  4.572182E-11
        40  19  1.413403E+06 -7.219251E+03  4.524974E+04  1.946017E+04  3.253476E+04  1.017592E+00
        40  20  1.392934E+06 -9.110759E+03  7.331363E+04 -1.740533E+04  7.169871E+04 -2.005801E+00
        40  21  1.413312E+06  1.321053E+05  1.626138E+05 -5.427285E+04  1.108629E+05 -9.670656E+00
        40  22  1.413403E+06 -7.219961E+03  4.524964E+04 -1.270947E-09  3.253476E+04 -3.514970E-10
        40  23  1.392934E+06 -9.111327E+03  7.331355E+04  1.951447E-09  7.169871E+04  3.586109E-10
        40  24  1.413309E+06  1.320997E+05  1.626130E+05 -4.661126E-09  1.108629E+05  7.235883E-11
        40  25  1.413403E+06 -7.219251E+03  4.524974E+04 -1.946017E+04  3.253476E+04 -1.017592E+00
        40  26  1.392934E+06 -9.110759E+03  7.331363E+04  1.740533E+04  7.169871E+04  2.005801E+00
        40  27  1.413312E+06  1.321053E+05  1.626138E+05  5.427285E+04  1.108629E+05  9.670656E+00
        41   1 -2.775084E+05 -8.082839E+05 -3.410578E+05  1.039963E+05 -4.329386E+02 -2.240920E+05
        41   2  1.015987E+04 -7.794748E+05 -1.636511E+05  3.157239E+04 -1.512928E+03 -1.409548E+05
        41   3  1.582238E+03 -8.355726E+05 -1.144581E+05 -4.804996E+04 -2.225161E+03 -5.781961E+04
        41   4 -2.720475E+05 -7.862419E+05 -3.357275E+05 -7.881762E+03 -3.925158E+02 -2.231600E+05
        41   5  1.895213E+04 -7.437604E+05 -1.554197E+05 -4.286517E+03 -1.504766E+03 -1.402996E+05
        41   6  1.374022E+04 -7.861484E+05 -1.031339E+05 -7.883761E+03 -2.228886E+03 -5.743957E+04
        41   7 -2.665395E+05 -7.641725E+05 -3.303906E+05 -1.197638E+05 -3.524305E+02 -2.222279E+05
        41   8  2.774915E+04 -7.080421E+05 -1.471876E+05 -4.014750E+04 -1.496680E+03 -1.396443E+05
        41   9  2.590410E+04 -7.367186E+05 -9.180901E+04  3.228566E+04 -2.232562E+03 -5.705950E+04
        41  10 -2.775219E+05 -8.083379E+05 -3.411523E+05  1.039962E+05 -7.699225E-11 -1.630600E-10
        41  11  1.015452E+04 -7.794961E+05 -1.636885E+05  3.157221E+04 -2.792002E-10  1.148148E-10
        41  12  1.581334E+03 -8.355762E+05 -1.144644E+05 -4.805006E+04  8.698679E-10  4.185262E-10
        41  13 -2.720609E+05 -7.862954E+05 -3.358212E+05 -7.881833E+03 -6.234796E-10 -1.939074E-12
        41  14  1.894684E+04 -7.437816E+05 -1.554567E+05 -4.286687E+03  9.333394E-10 -2.502928E-11
        41  15  1.373933E+04 -7.861520E+05 -1.031401E+05 -7.883864E+03  9.366311E-11 -2.886595E-11
        41  16 -2.665528E+05 -7.642256E+05 -3.304835E+05 -1.197639E+05 -8.849478E-10  1.606890E-10
        41  17  2.774390E+04 -7.080631E+05 -1.472243E+05 -4.014767E+04 -1.086893E-09 -1.091874E-10
        41  18  2.590322E+04 -7.367221E+05 -9.181514E+04  3.228556E+04 -9.714171E-11 -4.493069E-10
        41  19 -2.775084E+05 -8.082839E+05 -3.410578E+05  1.039963E+05  4.329386E+02  2.240920E+05
        41  20  1.015987E+04 -7.794748E+05 -1.636511E+05  3.157239E+04  1.512928E+03  1.409548E+05
        41  21  1.582238E+03 -8.355726E+05 -1.144581E+05 -4.804996E+04  2.225161E+03  5.781961E+04
        41  22 -2.720475E+05 -7.862419E+05 -3.357275E+05 -7.881762E+03  3.925158E+02  2.231600E+05
        41  23  1.895213E+04 -7.437604E+05 -1.554197E+05 -4.286517E+03  1.504766E+03  1.402996E+05
        41  24  1.374022E+04 -7.861484E+05 -1.031339E+05 -7.883761E+03  2.228886E+03  5.743957E+04
        41  25 -2.665395E+05 -7.641725E+05 -3.303906E+05 -1.197638E+05  3.524305E+02  2.222279E+05
        41  26  2.774915E+04 -7.080421E+05 -1.471876E+05 -4.014750E+04  1.496680E+03  1.396443E+05
        41  27  2.590410E+04 -7.367186E+05 -9.180901E+04  3.228566E+04  2.232562E+03  5.705950E+04
        42   1 -3.481311E+04 -8.331140E+05 -1.043459E+05  1.902696E+03 -2.597343E+03 -4.202054E+04
        42   2 -1.566188E+04 -8.392724E+05 -8.641346E+04 -4.010812E+03 -3.264586E+03 -7.021075E+03
        42   3 -3.770330E+04 -8.602888E+05 -1.015818E+05 -1.704211E+04 -3.746482E+03  2.797783E+04
        42   4 -1.941644E+04 -7.706064E+05 -8.992121E+04 -7.865647E+03 -2.596644E+03 -4.147538E+04
        42   5  3.070056E+03 -7.631886E+05 -6.890487E+04 -4.306598E+03 -3.264526E+03 -6.606617E+03
        42   6 -1.561094E+04 -7.706048E+05 -8.089622E+04 -7.865512E+03 -3.746002E+03  2.826234E+04
        42   7 -4.019678E+03 -7.080951E+05 -7.549671E+04 -1.763498E+04 -2.595963E+03 -4.093017E+04
        42   8  2.180159E+04 -6.870995E+05 -5.139667E+04 -4.602420E+03 -3.264467E+03 -6.192108E+03
        42   9  6.481166E+03 -6.809131E+05 -6.021110E+04  1.312426E+03 -3.745515E+03  2.854689E+04
        42  10 -3.481359E+04 -8.331159E+05 -1.043493E+05  1.902608E+03  2.092451E-10 -1.386897E-10
        42  11 -1.566191E+04 -8.392724E+05 -8.641357E+04 -4.010831E+03 -1.331049E-10  1.798163E-10
        42  12 -3.770352E+04 -8.602896E+05 -1.015833E+05 -1.704203E+04  9.025115E-10  2.686891E-10
        42  13 -1.941691E+04 -7.706083E+05 -8.992446E+04 -7.865733E+03  7.395907E-10 -2.091825E-11
        42  14  3.070032E+03 -7.631886E+05 -6.890498E+04 -4.306615E+03  1.768477E-09 -5.138811E-11
        42  15 -1.561117E+04 -7.706056E+05 -8.089775E+04 -7.865427E+03  7.308698E-10 -1.678901E-11
        42  16 -4.020135E+03 -7.080969E+05 -7.549987E+04 -1.763507E+04  4.785623E-10  8.747243E-11
        42  17  2.180157E+04 -6.870995E+05 -5.139677E+04 -4.602436E+03  5.271447E-10 -1.707548E-10
        42  18  6.480932E+03 -6.809140E+05 -6.021266E+04  1.312513E+03  5.565651E-10 -3.433240E-10
        42  19 -3.481311E+04 -8.331140E+05 -1.043459E+05  1.902696E+03  2.597343E+03  4.202054E+04
        42  20 -1.566188E+04 -8.392724E+05 -8.641346E+04 -4.010812E+03  3.264586E+03  7.021075E+03
        42  21 -3.770330E+04 -8.602888E+05 -1.015818E+05 -1.704211E+04  3.746482E+03 -2.797783E+04
        42  22 -1.941644E+04 -7.706064E+05 -8.992121E+04 -7.865647E+03  2.596644E+03  4.147538E+04
        42  23  3.070056E+03 -7.631886E+05 -6.890487E+04 -4.306598E+03  3.264526E+03  6.606617E+03
        42  24 -1.561094E+04 -7.706048E+05 -8.089622E+04 -7.865512E+03  3.746002E+03 -2.826234E+04
        42  25 -4.019678E+03 -7.080951E+05 -7.549671E+04 -1.763498E+04  2.595963E+03  4.093017E+04
        42  26  2.180159E+04 -6.870995E+05 -5.139667E+04 -4.602420E+03  3.264467E+03  6.192108E+03
        42  27  6.481166E+03 -6.809131E+05 -6.021110E+04  1.312426E+03  3.745515E+03 -2.854689E+04
        43   1 -1.442254E+04 -8.855780E+05 -1.135994E+05  2.525182E+04 -4.515156E+03  4.115052E+04
        43   2 -1.292823E+04 -8.637639E+05 -1.570951E+05 -3.395965E+04 -4.667055E+03  1.128914E+05
        43   3 -2.562113E+05 -9.125025E+05 -3.085237E+05 -1.000341E+05 -1.522482E+03  1.846299E+05
        43   4  1.084043E+04 -7.828778E+05 -9.002106E+04 -7.823174E+03 -4.517141E+03  4.245684E+04
        43   5  1.564907E+04 -7.478494E+05 -1.302806E+05 -4.365507E+03 -4.661793E+03  1.118277E+05
        43   6 -2.238977E+05 -7.829568E+05 -2.768141E+05 -7.777560E+03 -1.495748E+03  1.811981E+05
        43   7  3.610679E+04 -6.801654E+05 -6.644285E+04 -4.090369E+04 -4.519265E+03  4.376338E+04
        43   8  4.422872E+04 -6.319207E+05 -1.034664E+05  2.523421E+04 -4.656634E+03  1.107638E+05
        43   9 -1.915534E+05 -6.533774E+05 -2.451011E+05  8.449833E+04 -1.470040E+03  1.777655E+05
        43  10 -1.442302E+04 -8.855798E+05 -1.136026E+05  2.525197E+04  8.482907E-10 -1.188389E-09
        43  11 -1.293168E+04 -8.637776E+05 -1.571192E+05 -3.395923E+04 -3.902939E-10 -2.391662E-10
        43  12 -2.562205E+05 -9.125392E+05 -3.085878E+05 -1.000339E+05 -6.524521E-11  6.189688E-10
        43  13  1.083993E+04 -7.828797E+05 -9.002449E+04 -7.823019E+03  8.141600E-10 -3.413047E-11
        43  14  1.564568E+04 -7.478629E+05 -1.303041E+05 -4.365087E+03  1.075222E-09 -8.685252E-11
        43  15 -2.239066E+05 -7.829921E+05 -2.768759E+05 -7.777342E+03 -3.471670E-10  2.421309E-11
        43  16  3.610625E+04 -6.801674E+05 -6.644649E+04 -4.090353E+04  1.244338E-09  1.148244E-09
        43  17  4.422539E+04 -6.319339E+05 -1.034895E+05  2.523463E+04  2.560311E-10  1.219737E-10
        43  18 -1.915619E+05 -6.534114E+05 -2.451605E+05  8.449854E+04  5.915858E-10 -7.286038E-10
        43  19 -1.442254E+04 -8.855780E+05 -1.135994E+05  2.525182E+04  4.515156E+03 -4.115052E+04
        43  20 -1.292823E+04 -8.637639E+05 -1.570951E+05 -3.395965E+04  4.667055E+03 -1.128914E+05
        43  21 -2.562113E+05 -9.125025E+05 -3.085237E+05 -1.000341E+05  1.522482E+03 -1.846299E+05
        43  22  1.084043E+04 -7.828778E+05 -9.002106E+04 -7.823174E+03  4.517141E+03 -4.245684E+04
        43  23  1.564907E+04 -7.478494E+05 -1.302806E+05 -4.365507E+03  4.661793E+03 -1.118277E+05
        43  24 -2.238977E+05 -7.829568E+05 -2.768141E+05 -7.777560E+03  1.495748E+03 -1.811981E+05
        43  25  3.610679E+04 -6.801654E+05 -6.644285E+04 -4.090369E+04  4.519265E+03 -4.376338E+04
        43  26  4.422872E+04 -6.319207E+05 -1.034664E+05  2.523421E+04  4.656634E+03 -1.107638E+05
        43  27 -1.915534E+05 -6.533774E+05 -2.451011E+05  8.449833E+04  1.470040E+03 -1.777655E+05
        44   1  2.971196E+05  9.170823E+04 -8.441741E+04  2.564502E+05 -2.112504E+04 -1.240003E+04
        44   2  3.173114E+05  1.378828E+05 -5.927671E+04  2.621438E+05 -1.589597E+04 -1.583186E+03
        44   3  3.396697E+05  1.505608E+05 -4.706908E+04  2.712887E+05 -6.997809E+03  4.341605E+03
        44   4  4.620080E+05  2.234835E+05 -2.635387E+04  3.445760E+05 -1.618636E+04 -8.696958E+03
        44   5  4.646103E+05  2.470869E+05 -1.172441E+04  3.374210E+05 -1.447989E+04 -5.217505E+02
        44   6  4.701460E+05  2.379611E+05 -6.969542E+03  3.337160E+05 -9.105183E+03  2.761676E+03
        44   7  6.269235E+05  3.552771E+05  3.170528E+04  4.327287E+05 -1.124593E+04 -4.992360E+03
        44   8  6.119317E+05  3.563036E+05  3.582487E+04  4.127183E+05 -1.306336E+04  5.400427E+02
        44   9  6.006406E+05  3.253694E+05  3.312800E+04  3.961576E+05 -1.121316E+04  1.181329E+03
        44  10  2.971190E+05  9.170794E+04 -8.441854E+04  2.564500E+05  5.599968E-10  6.024337E-10
        44  11  3.173111E+05  1.378827E+05 -5.927719E+04  2.621438E+05 -1.919815E-09 -1.575433E-09
        44  12  3.396697E+05  1.505607E+05 -4.706920E+04  2.712888E+05 -3.646451E-09 -1.847145E-09
        44  13  4.620077E+05  2.234833E+05 -2.635450E+04  3.445759E+05 -7.326588E-10 -7.919427E-10
        44  14  4.646101E+05  2.470868E+05 -1.172481E+04  3.374210E+05 -2.498342E-09 -1.765797E-09
        44  15  4.701459E+05  2.379611E+05 -6.969712E+03  3.337160E+05 -8.643286E-10 -5.670188E-10
        44  16  6.269233E+05  3.552770E+05  3.170500E+04  4.327286E+05 -2.719452E-09 -1.869136E-09
        44  17  6.119315E+05  3.563035E+05  3.582455E+04  4.127183E+05 -2.875394E-09 -1.926220E-09
        44  18  6.006404E+05  3.253694E+05  3.312776E+04  3.961576E+05  1.135700E-09  3.993063E-10
        44  19  2.971196E+05  9.170823E+04 -8.441741E+04  2.564502E+05  2.112504E+04  1.240003E+04
        44  20  3.173114E+05  1.378828E+05 -5.927671E+04  2.621438E+05  1.589597E+04  1.583186E+03
        44  21  3.396697E+05  1.505608E+05 -4.706908E+04  2.712887E+05  6.997809E+03 -4.341605E+03
        44  22  4.620080E+05  2.234835E+05 -2.635387E+04  3.445760E+05  1.618636E+04  8.696958E+03
        44  23  4.646103E+05  2.470869E+05 -1.172441E+04  3.374210E+05  1.447989E+04  5.217505E+02
        44  24  4.701460E+05  2.379611E+05 -6.969542E+03  3.337160E+05  9.105183E+03 -2.761676E+03
        44  25  6.269235E+05  3.552771E+05  3.170528E+04  4.327287E+05  1.124593E+04  4.992360E+03
        44  26  6.119317E+05  3.563036E+05  3.582487E+04  4.127183E+05  1.306336E+04 -5.400427E+02
        44  27  6.006406E+05  3.253694E+05  3.312800E+04  3.961576E+05  1.121316E+04 -1.181329E+03
        45   1  3.648488E+05  1.611238E+05 -3.891877E+04  2.830487E+05 -6.727510E+03  2.532144E+03
        45   2  3.800948E+05  1.865876E+05 -2.885678E+04  2.959786E+05 -4.763954E+03  2.526995E+03
        45   3  4.098626E+05  1.950914E+05 -2.026203E+04  3.049067E+05 -2.621235E+03  2.282551E+03
        45   4  4.700153E+05  2.366431E+05 -5.529368E+03  3.356845E+05 -7.323159E+03  2.085534E+03
        45   5  4.630452E+05  2.456540E+05 -2.665476E+03  3.372742E+05 -5.531750E+03  1.951442E+03
        45   6  4.706333E+05  2.377423E+05 -1.119291E+03  3.348615E+05 -3.561269E+03  1.578027E+03
        45   7  5.751945E+05  3.121692E+05  2.785892E+04  3.883308E+05 -7.918948E+03  1.638816E+03
        45   8  5.460030E+05  3.047242E+05  2.352498E+04  3.785759E+05 -6.299686E+03  1.375784E+03
        45   9  5.314076E+05  2.803948E+05  1.802284E+04  3.648194E+05 -4.501420E+03  8.734154E+02
        45  10  3.648487E+05  1.611237E+05 -3.891887E+04  2.830487E+05 -7.545159E-10  9.262318E-12
        45  11  3.800947E+05  1.865876E+05 -2.885684E+04  2.959786E+05 -7.831622E-10  9.610467E-11
        45  12  4.098626E+05  1.950914E+05 -2.026206E+04  3.049067E+05  5.037337E-10 -1.882062E-10
        45  13  4.700153E+05  2.366431E+05 -5.529477E+03  3.356845E+05 -4.668062E-10 -2.436953E-11
        45  14  4.630451E+05  2.456540E+05 -2.665541E+03  3.372742E+05 -3.169699E-10 -2.262334E-10
        45  15  4.706333E+05  2.377423E+05 -1.119319E+03  3.348615E+05 -3.735460E-11 -4.198220E-10
        45  16  5.751944E+05  3.121692E+05  2.785880E+04  3.883308E+05  6.833563E-10 -4.634999E-11
        45  17  5.460029E+05  3.047242E+05  2.352490E+04  3.785759E+05  4.732738E-10 -4.116901E-10
        45  18  5.314075E+05  2.803948E+05  1.802280E+04  3.648194E+05 -4.214025E-10 -3.066413E-10
        45  19  3.648488E+05  1.611238E+05 -3.891877E+04  2.830487E+05  6.727510E+03 -2.532144E+03
        45  20  3.800948E+05  1.865876E+05 -2.885678E+04  2.959786E+05  4.763954E+03 -2.526995E+03
        45  21  4.098626E+05  1.950914E+05 -2.026203E+04  3.049067E+05  2.621235E+03 -2.282551E+03
        45  22  4.700153E+05  2.366431E+05 -5.529368E+03  3.356845E+05  7.323159E+03 -2.085534E+03
        45  23  4.630452E+05  2.456540E+05 -2.665476E+03  3.372742E+05  5.531750E+03 -1.951442E+03
        45  24  4.706333E+05  2.377423E+05 -1.119291E+03  3.348615E+05  3.561269E+03 -1.578027E+03
        45  25  5.751945E+05  3.121692E+05  2.785892E+04  3.883308E+05  7.918948E+03 -1.638816E+03
        45  26  5.460030E+05  3.047242E+05  2.352498E+04  3.785759E+05  6.299686E+03 -1.375784E+03
        45  27  5.314076E+05  2.803948E+05  1.802284E+04  3.648194E+05  4.501420E+03 -8.734154E+02
        46   1  4.316834E+05  2.101053E+05 -1.269434E+04  3.157262E+05 -2.026880E+03  1.572602E+03
        46   2  4.464575E+05  2.338729E+05 -4.456290E+03  3.291066E+05 -1.406833E+03  1.565383E+02
        46   3  4.768563E+05  2.422209E+05  4.042882E+03  3.379226E+05 -7.855521E+02 -1.261273E+03
        46   4  4.706366E+05  2.376598E+05 -5.141363E+02  3.350492E+05 -2.894141E+03  9.226609E+02
        46   5  4.628886E+05  2.454839E+05  7.126089E+02  3.372461E+05 -2.275348E+03 -4.943251E+02
        46   6  4.707648E+05  2.378881E+05  2.201573E+03  3.348781E+05 -1.655309E+03 -1.913049E+03
        46   7  5.095915E+05  2.652152E+05  1.166589E+04  3.543736E+05 -3.761476E+03  2.726644E+02
        46   8  4.793200E+05  2.570950E+05  5.881502E+03  3.453859E+05 -3.143898E+03 -1.145214E+03
        46   9  4.646733E+05  2.335553E+05  3.602482E+02  3.318335E+05 -2.525061E+03 -2.564821E+03
        46  10  4.316834E+05  2.101053E+05 -1.269435E+04  3.157262E+05  9.008808E-12 -3.414447E-10
        46  11  4.464575E+05  2.338729E+05 -4.456294E+03  3.291066E+05  6.073355E-10  4.997068E-11
        46  12  4.768563E+05  2.422209E+05  4.042877E+03  3.379226E+05  7.823944E-12 -5.788293E-11
        46  13  4.706366E+05  2.376598E+05 -5.141536E+02  3.350492E+05  1.855464E-10 -2.861900E-10
        46  14  4.628886E+05  2.454839E+05  7.125987E+02  3.372461E+05 -6.153026E-10  6.782323E-11
        46  15  4.707648E+05  2.378881E+05  2.201561E+03  3.348781E+05 -3.470136E-10  3.182144E-10
        46  16  5.095915E+05  2.652152E+05  1.166586E+04  3.543736E+05  5.677110E-10  1.002563E-10
        46  17  4.793200E+05  2.570950E+05  5.881481E+03  3.453859E+05 -1.909900E-10  7.140764E-11
        46  18  4.646733E+05  2.335553E+05  3.602238E+02  3.318335E+05 -5.977951E-11  3.474647E-10
        46  19  4.316834E+05  2.101053E+05 -1.269434E+04  3.157262E+05  2.026880E+03 -1.572602E+03
        46  20  4.464575E+05  2.338729E+05 -4.456290E+03  3.291066E+05  1.406833E+03 -1.565383E+02
        46  21  4.768563E+05  2.422209E+05  4.042882E+03  3.379226E+05  7.855521E+02  1.261273E+03
        46  22  4.706366E+05  2.376598E+05 -5.141363E+02  3.350492E+05  2.894141E+03 -9.226609E+02
        46  23  4.628886E+05  2.454839E+05  7.126089E+02  3.372461E+05  2.275348E+03  4.943251E+02
        46  24  4.707648E+05  2.378881E+05  2.201573E+03  3.348781E+05  1.655309E+03  1.913049E+03
        46  25  5.095915E+05  2.652152E+05  1.166589E+04  3.543736E+05  3.761476E+03 -2.726644E+02
        46  26  4.793200E+05  2.570950E+05  5.881502E+03  3.453859E+05  3.143898E+03  1.145214E+03
        46  27  4.646733E+05  2.335553E+05  3.602482E+02  3.318335E+05  2.525061E+03  2.564821E+03
        47   1  4.979398E+05  2.578664E+05  1.188699E+04  3.490808E+05 -5.489419E+02 -2.230431E+03
        47   2  5.130327E+05  2.805841E+05  2.150717E+04  3.620672E+05 -2.101543E+03 -5.250845E+03
        47   3  5.457232E+05  2.904342E+05  3.397994E+04  3.694538E+05 -3.801205E+03 -8.074988E+03
        47   4  4.707841E+05  2.377145E+05  3.086687E+03  3.351980E+05 -1.476469E+03 -2.925512E+03
        47   5  4.625909E+05  2.452157E+05  5.680308E+03  3.372082E+05 -2.887371E+03 -5.839802E+03
        47   6  4.719647E+05  2.398189E+05  1.100418E+04  3.336183E+05 -4.445229E+03 -8.557737E+03
        47   7  4.436293E+05  2.175631E+05 -5.713630E+03  3.213159E+05 -2.403934E+03 -3.620543E+03
        47   8  4.121520E+05  2.098488E+05 -1.014679E+04  3.123515E+05 -3.673109E+03 -6.428693E+03
        47   9  3.982120E+05  1.892063E+05 -1.197224E+04  2.977876E+05 -5.089147E+03 -9.040411E+03
        47  10  4.979398E+05  2.578664E+05  1.188698E+04  3.490808E+05  4.233405E-10 -2.686304E-10
        47  11  5.130327E+05  2.805841E+05  2.150711E+04  3.620672E+05  2.763090E-10  1.966824E-10
        47  12  5.457231E+05  2.904342E+05  3.397979E+04  3.694538E+05 -1.766362E-12  2.411731E-10
        47  13  4.707841E+05  2.377144E+05  3.086667E+03  3.351980E+05  3.515412E-10  2.842462E-10
        47  14  4.625909E+05  2.452156E+05  5.680228E+03  3.372082E+05  1.067492E-09  1.189716E-10
        47  15  4.719646E+05  2.398188E+05  1.100400E+04  3.336183E+05  3.859453E-10  4.706076E-10
        47  16  4.436293E+05  2.175631E+05 -5.713666E+03  3.213159E+05  7.025012E-10  3.655436E-10
        47  17  4.121520E+05  2.098487E+05 -1.014689E+04  3.123515E+05  1.166933E-09  5.176646E-10
        47  18  3.982120E+05  1.892062E+05 -1.197244E+04  2.977876E+05 -5.607264E-11  6.811818E-10
        47  19  4.979398E+05  2.578664E+05  1.188699E+04  3.490808E+05  5.489419E+02  2.230431E+03
        47  20  5.130327E+05  2.805841E+05  2.150717E+04  3.620672E+05  2.101543E+03  5.250845E+03
        47  21  5.457232E+05  2.904342E+05  3.397994E+04  3.694538E+05  3.801205E+03  8.074988E+03
        47  22  4.707841E+05  2.377145E+05  3.086687E+03  3.351980E+05  1.476469E+03  2.925512E+03
        47  23  4.625909E+05  2.452157E+05  5.680308E+03  3.372082E+05  2.887371E+03  5.839802E+03
        47  24  4.719647E+05  2.398189E+05  1.100418E+04  3.336183E+05  4.445229E+03  8.557737E+03
        47  25  4.436293E+05  2.175631E+05 -5.713630E+03  3.213159E+05  2.403934E+03  3.620543E+03
        47  26  4.121520E+05  2.098488E+05 -1.014679E+04  3.123515E+05  3.673109E+03  6.428693E+03
        47  27  3.982120E+05  1.892063E+05 -1.197224E+04  2.977876E+05  5.089147E+03  9.040411E+03
        48   1  5.602021E+05  3.101982E+05  4.343728E+04  3.860810E+05 -3.297167E+03 -9.543010E+03
        48   2  5.817666E+05  3.201180E+05  5.988689E+04  3.934370E+05 -1.548819E+04 -1.963372E+04
        48   3  6.438514E+05  3.486298E+05  9.802905E+04  3.808369E+05 -3.068203E+04 -2.572072E+04
        48   4  4.716649E+05  2.373132E+05  1.372202E+04  3.374498E+05 -5.178761E+03 -1.095329E+04
        48   5  4.595956E+05  2.423552E+05  2.281777E+04  3.369055E+05 -1.448131E+04 -1.887934E+04
        48   6  4.874242E+05  2.653681E+05  5.110547E+04  3.164038E+05 -2.678588E+04 -2.280110E+04
        48   7  3.831354E+05  1.644339E+05 -1.599455E+04  2.888265E+05 -7.060007E+03 -1.236325E+04
        48   8  3.374405E+05  1.645984E+05 -1.425304E+04  2.803859E+05 -1.347471E+04 -1.812513E+04
        48   9  3.310245E+05  1.821132E+05  4.179802E+03  2.519869E+05 -2.289111E+04 -1.988219E+04
        48  10  5.602021E+05  3.101981E+05  4.343709E+04  3.860810E+05  1.060097E-10  5.614375E-10
        48  11  5.817663E+05  3.201176E+05  5.988572E+04  3.934367E+05  4.662109E-10  4.526997E-10
        48  12  6.438502E+05  3.486288E+05  9.802604E+04  3.808363E+05 -1.684413E-11  1.189107E-10
        48  13  4.716648E+05  2.373131E+05  1.372174E+04  3.374497E+05  3.015621E-10  3.266535E-10
        48  14  4.595952E+05  2.423547E+05  2.281671E+04  3.369053E+05  2.275515E-10  1.213560E-10
        48  15  4.874233E+05  2.653673E+05  5.110314E+04  3.164033E+05  6.321404E-11  8.283907E-11
        48  16  3.831353E+05  1.644337E+05 -1.599493E+04  2.888264E+05 -1.344816E-10  3.595128E-10
        48  17  3.374402E+05  1.645980E+05 -1.425400E+04  2.803857E+05  1.519276E-10 -1.664584E-12
        48  18  3.310238E+05  1.821126E+05  4.178076E+03  2.519865E+05 -1.749755E-10 -5.430817E-11
        48  19  5.602021E+05  3.101982E+05  4.343728E+04  3.860810E+05  3.297167E+03  9.543010E+03
        48  20  5.817666E+05  3.201180E+05  5.988689E+04  3.934370E+05  1.548819E+04  1.963372E+04
        48  21  6.438514E+05  3.486298E+05  9.802905E+04  3.808369E+05  3.068203E+04  2.572072E+04
        48  22  4.716649E+05  2.373132E+05  1.372202E+04  3.374498E+05  5.178761E+03  1.095329E+04
        48  23  4.595956E+05  2.423552E+05  2.281777E+04  3.369055E+05  1.448131E+04  1.887934E+04
        48  24  4.874242E+05  2.653681E+05  5.110547E+04  3.164038E+05  2.678588E+04  2.280110E+04
        48  25  3.831354E+05  1.644339E+05 -1.599455E+04  2.888265E+05  7.060007E+03  1.236325E+04
        48  26  3.374405E+05  1.645984E+05 -1.425304E+04  2.803859E+05  1.347471E+04  1.812513E+04
        48  27  3.310245E+05  1.821132E+05  4.179802E+03  2.519869E+05  2.289111E+04  1.988219E+04
        49   1  1.020283E+06  6.619911E+04  8.153511E+04  2.719931E+04  5.524023E+04  2.416346E+00
        49   2  1.010051E+06 -4.572474E+03  3.701037E+04  8.732842E+03  3.548039E+04  4.983029E-01
        49   3  1.020316E+06 -3.605365E+03  2.327049E+04 -9.733251E+03  1.572046E+04 -2.460738E-01
        49   4  1.020282E+06  6.619773E+04  8.153491E+04  1.902974E-09  5.524023E+04  7.779279E-11
        49   5  1.010051E+06 -4.572617E+03  3.701034E+04  1.596928E-09  3.548039E+04  2.273256E-10
        49   6  1.020316E+06 -3.605543E+03  2.327047E+04 -1.910786E-10  1.572046E+04 -2.977316E-10
        49   7  1.020283E+06  6.619911E+04  8.153511E+04 -2.719931E+04  5.524023E+04 -2.416346E+00
        49   8  1.010051E+06 -4.572474E+03  3.701037E+04 -8.732842E+03  3.548039E+04 -4.983029E-01
        49   9  1.020316E+06 -3.605365E+03  2.327049E+04  9.733251E+03  1.572046E+04  2.460738E-01
        49  10  1.020280E+06  6.619830E+04  8.152938E+04  2.719931E+04 -1.147833E-10 -2.595340E-11
        49  11  1.010050E+06 -4.572811E+03  3.700800E+04  8.732842E+03  1.263521E-10 -1.970830E-10
        49  12  1.020316E+06 -3.605431E+03  2.327003E+04 -9.733251E+03  5.760261E-10 -1.064464E-10
        49  13  1.020279E+06  6.619691E+04  8.152919E+04 -1.333029E-09 -2.946271E-10 -3.483658E-11
        49  14  1.010050E+06 -4.572954E+03  3.700798E+04  1.587449E-09 -5.439245E-10 -1.224301E-10
        49  15  1.020316E+06 -3.605609E+03  2.327000E+04 -1.417890E-09  1.068450E-10 -1.386986E-10
        49  16  1.020280E+06  6.619830E+04  8.152938E+04 -2.719931E+04 -3.481589E-10 -6.916871E-12
        49  17  1.010050E+06 -4.572811E+03  3.700800E+04 -8.732842E+03  1.433180E-10 -8.452589E-11
        49  18  1.020316E+06 -3.605431E+03  2.327003E+04  9.733251E+03 -7.259708E-10 -9.989410E-11
        49  19  1.020283E+06  6.619911E+04  8.153511E+04  2.719931E+04 -5.524023E+04 -2.416346E+00
        49  20  1.010051E+06 -4.572474E+03  3.701037E+04  8.732842E+03 -3.548039E+04 -4.983029E-01
        49  21  1.020316E+06 -3.605365E+03  2.327049E+04 -9.733251E+03 -1.572046E+04  2.460738E-01
        49  22  1.020282E+06  6.619773E+04  8.153491E+04 -2.776886E-10 -5.524023E+04 -1.484705E-10
        49  23  1.010051E+06 -4.572617E+03  3.701034E+04 -5.699540E-10 -3.548039E+04 -4.459132E-10
        49  24  1.020316E+06 -3.605543E+03  2.327047E+04 -5.585459E-09 -1.572046E+04  3.789548E-11
        49  25  1.020283E+06  6.619911E+04  8.153511E+04 -2.719931E+04 -5.524023E+04  2.416346E+00
        49  26  1.010051E+06 -4.572474E+03  3.701037E+04 -8.732842E+03 -3.548039E+04  4.983029E-01
        49  27  1.020316E+06 -3.605365E+03  2.327049E+04  9.733251E+03 -1.572046E+04 -2.460738E-01
        50   1  1.016273E+06  4.919885E+03  1.945289E+04  1.803287E+03  1.219615E+04  3.536980E-02
        50   2  1.015108E+06 -4.730433E+02  1.249264E+04  4.599514E+02  5.899427E+03  4.363823E-03
        50   3  1.016277E+06  1.950323E+02  1.114217E+04 -8.833648E+02 -3.971856E+02  5.642584E-04
        50   4  1.016273E+06  4.919879E+03  1.945289E+04 -2.747695E-09  1.219615E+04 -4.744602E-10
        50   5  1.015108E+06 -4.730437E+02  1.249264E+04  2.057757E-09  5.899427E+03 -2.820943E-10
        50   6  1.016277E+06  1.950309E+02  1.114217E+04  3.100705E-09 -3.971856E+02  1.266237E-10
        50   7  1.016273E+06  4.919885E+03  1.945289E+04 -1.803287E+03  1.219615E+04 -3.536980E-02
        50   8  1.015108E+06 -4.730433E+02  1.249264E+04 -4.599514E+02  5.899427E+03 -4.363823E-03
        50   9  1.016277E+06  1.950323E+02  1.114217E+04  8.833648E+02 -3.971856E+02 -5.642583E-04
        50  10  1.016273E+06  4.919846E+03  1.945262E+04  1.803287E+03  2.093563E-10 -2.219606E-10
        50  11  1.015108E+06 -4.730526E+02  1.249258E+04  4.599514E+02  1.126439E-11 -2.129355E-10
        50  12  1.016277E+06  1.950323E+02  1.114217E+04 -8.833648E+02 -4.232921E-10  2.041321E-11
        50  13  1.016273E+06  4.919839E+03  1.945261E+04  4.782255E-10  7.996513E-10 -1.629329E-10
        50  14  1.015108E+06 -4.730530E+02  1.249258E+04  2.604883E-09  5.387126E-10 -1.295864E-10
        50  15  1.016277E+06  1.950308E+02  1.114217E+04  3.115442E-09 -1.781941E-10  2.809011E-12
        50  16  1.016273E+06  4.919846E+03  1.945262E+04 -1.803287E+03  3.785258E-11 -6.759307E-11
        50  17  1.015108E+06 -4.730526E+02  1.249258E+04 -4.599514E+02  3.614670E-11 -7.640568E-11
        50  18  1.016277E+06  1.950323E+02  1.114217E+04  8.833648E+02 -2.081069E-10  4.721334E-11
        50  19  1.016273E+06  4.919885E+03  1.945289E+04  1.803287E+03 -1.219615E+04 -3.536980E-02
        50  20  1.015108E+06 -4.730433E+02  1.249264E+04  4.599514E+02 -5.899427E+03 -4.363824E-03
        50  21  1.016277E+06  1.950323E+02  1.114217E+04 -8.833648E+02  3.971856E+02 -5.642585E-04
        50  22  1.016273E+06  4.919879E+03  1.945289E+04 -3.855628E-09 -1.219615E+04  1.725164E-10
        50  23  1.015108E+06 -4.730437E+02  1.249264E+04  2.073547E-09 -5.899427E+03 -1.087043E-11
        50  24  1.016277E+06  1.950309E+02  1.114217E+04 -2.114663E-10  3.971856E+02 -7.763925E-11
        50  25  1.016273E+06  4.919885E+03  1.945289E+04 -1.803287E+03 -1.219615E+04  3.536980E-02
        50  26  1.015108E+06 -4.730433E+02  1.249264E+04 -4.599514E+02 -5.899427E+03  4.363824E-03
        50  27  1.016277E+06  1.950323E+02  1.114217E+04  8.833648E+02  3.971856E+02  5.642583E-04
        51   1  1.016417E+06 -3.595780E+01  1.159753E+04  1.180959E+03 -2.399196E+03 -4.556644E-03
        51   2  1.014932E+06 -6.058104E+02  1.505760E+04 -6.010411E+02 -1.000099E+04  9.667018E-03
        51   3  1.016412E+06  6.734431E+03  2.543849E+04 -2.383065E+03 -1.760293E+04  6.746304E-02
        51   4  1.016417E+06 -3.596041E+01  1.159753E+04 -5.578721E-10 -2.399196E+03  1.594525E-10
        51   5  1.014932E+06 -6.058110E+02  1.505760E+04  1.149526E-10 -1.000099E+04 -8.235871E-11
        51   6  1.016412E+06  6.734420E+03  2.543849E+04 -2.107763E-09 -1.760293E+04 -2.206746E-10
        51   7  1.016417E+06 -3.595780E+01  1.159753E+04 -1.180959E+03 -2.399196E+03  4.556644E-03
        51   8  1.014932E+06 -6.058104E+02  1.505760E+04  6.010411E+02 -1.000099E+04 -9.667018E-03
        51   9  1.016412E+06  6.734431E+03  2.543849E+04  2.383065E+03 -1.760293E+04 -6.746304E-02
        51  10  1.016417E+06 -3.595934E+01  1.159752E+04  1.180959E+03  3.503384E-10  2.232609E-10
        51  11  1.014932E+06 -6.058372E+02  1.505741E+04 -6.010411E+02  2.264777E-10  3.270411E-10
        51  12  1.016411E+06  6.734348E+03  2.543791E+04 -2.383065E+03 -1.920013E-10  1.549304E-10
        51  13  1.016417E+06 -3.596196E+01  1.159752E+04 -5.199786E-10 -3.030393E-10  1.393588E-10
        51  14  1.014932E+06 -6.058378E+02  1.505741E+04 -4.269093E-10  7.215492E-10  2.425139E-10
        51  15  1.016411E+06  6.734337E+03  2.543791E+04 -8.514995E-10  3.776191E-10  7.714010E-11
        51  16  1.016417E+06 -3.595934E+01  1.159752E+04 -1.180959E+03  3.032947E-11  7.599635E-11
        51  17  1.014932E+06 -6.058372E+02  1.505741E+04  6.010411E+02  7.403497E-10  1.420310E-10
        51  18  1.016411E+06  6.734348E+03  2.543791E+04  2.383065E+03 -4.802222E-11 -2.420614E-11
        51  19  1.016417E+06 -3.595780E+01  1.159753E+04  1.180959E+03  2.399196E+03  4.556644E-03
        51  20  1.014932E+06 -6.058104E+02  1.505760E+04 -6.010411E+02  1.000099E+04 -9.667018E-03
        51  21  1.016412E+06  6.734431E+03  2.543849E+04 -2.383065E+03  1.760293E+04 -6.746304E-02
        51  22  1.016417E+06 -3.596041E+01  1.159753E+04 -3.219818E-09  2.399196E+03  1.503375E-10
        51  23  1.014932E+06 -6.058110E+02  1.505760E+04  1.096933E-10  1.000099E+04  5.305668E-10
        51  24  1.016412E+06  6.734420E+03  2.543849E+04 -2.150917E-09  1.760293E+04  3.724949E-10
        51  25  1.016417E+06 -3.595780E+01  1.159753E+04 -1.180959E+03  2.399196E+03 -4.556644E-03
        51  26  1.014932E+06 -6.058104E+02  1.505760E+04  6.010411E+02  1.000099E+04  9.667019E-03
        51  27  1.016412E+06  6.734431E+03  2.543849E+04  2.383065E+03  1.760293E+04  6.746304E-02
        52   1  1.021972E+06 -4.937935E+03  3.094509E+04  1.330621E+04 -2.223981E+04 -4.759121E-01
        52   2  1.007977E+06 -6.235784E+03  5.013725E+04 -1.189957E+04 -4.902178E+04  9.381478E-01
        52   3  1.021927E+06  9.035653E+04  1.112194E+05 -3.710603E+04 -7.580358E+04  4.523562E+00
        52   4  1.021972E+06 -4.938267E+03  3.094505E+04  1.808844E-10 -2.223981E+04 -1.206506E-10
        52   5  1.007977E+06 -6.236050E+03  5.013721E+04  1.079707E-09 -4.902178E+04  5.714741E-11
        52   6  1.021926E+06  9.035395E+04  1.112190E+05 -5.787569E-09 -7.580358E+04  3.470615E-10
        52   7  1.021972E+06 -4.937935E+03  3.094509E+04 -1.330621E+04 -2.223981E+04  4.759121E-01
        52   8  1.007977E+06 -6.235784E+03  5.013725E+04  1.189957E+04 -4.902178E+04 -9.381478E-01
        52   9  1.021927E+06  9.035653E+04  1.112194E+05  3.710603E+04 -7.580358E+04 -4.523562E+00
        52  10  1.021972E+06 -4.938068E+03  3.094417E+04  1.330621E+04 -2.333598E-10  1.675175E-10
        52  11  1.007974E+06 -6.236428E+03  5.013274E+04 -1.189957E+04 -3.152037E-10 -4.522407E-12
        52  12  1.021921E+06  9.035499E+04  1.112086E+05 -3.710603E+04 -8.524338E-10  4.054869E-11
        52  13  1.021972E+06 -4.938400E+03  3.094412E+04  1.987761E-10 -3.441977E-10  2.054172E-11
        52  14  1.007974E+06 -6.236694E+03  5.013271E+04  5.431221E-10  3.152038E-10  3.427886E-11
        52  15  1.021920E+06  9.035241E+04  1.112082E+05  1.965025E-09 -3.835600E-11  2.255157E-11
        52  16  1.021972E+06 -4.938068E+03  3.094417E+04 -1.330621E+04  8.113980E-10 -1.116372E-10
        52  17  1.007974E+06 -6.236428E+03  5.013274E+04  1.189957E+04  1.561846E-10  9.077318E-11
        52  18  1.021921E+06  9.035499E+04  1.112086E+05  3.710603E+04 -6.173695E-11  4.397058E-11
        52  19  1.021972E+06 -4.937935E+03  3.094509E+04  1.330621E+04  2.223981E+04  4.759121E-01
        52  20  1.007977E+06 -6.235784E+03  5.013725E+04 -1.189957E+04  4.902178E+04 -9.381478E-01
        52  21  1.021927E+06  9.035653E+04  1.112194E+05 -3.710603E+04  7.580358E+04 -4.523562E+00
        52  22  1.021972E+06 -4.938267E+03  3.094505E+04  1.966739E-10  2.223981E+04  1.630598E-10
        52  23  1.007977E+06 -6.236050E+03  5.013721E+04  5.389246E-09  4.902178E+04  4.348023E-11
        52  24  1.021926E+06  9.035395E+04  1.112190E+05 -3.622147E-09  7.580358E+04 -3.134527E-10
        52  25  1.021972E+06 -4.937935E+03  3.094509E+04 -1.330621E+04  2.223981E+04 -4.759121E-01
        52  26  1.007977E+06 -6.235784E+03  5.013725E+04  1.189957E+04  4.902178E+04  9.381478E-01
        52  27  1.021927E+06  9.035653E+04  1.112194E+05  3.710603E+04  7.580358E+04  4.523562E+00
        53   1 -1.566883E+05 -3.511910E+05 -1.989234E+05  5.526135E+04  8.509226E+02 -1.447610E+05
        53   2  2.643181E+04 -3.554163E+05 -8.914665E+04  1.359128E+04  2.203244E+03 -9.203059E+04
        53   3  1.515422E+04 -4.151069E+05 -6.230096E+04 -4.472923E+04  1.029260E+03 -3.930304E+04
        53   4 -1.788352E+05 -4.400482E+05 -2.207439E+05 -1.832160E+04  8.681738E+02 -1.466198E+05
        53   5  1.245511E+04 -4.121342E+05 -1.023004E+05 -9.993066E+03  2.206759E+03 -9.208465E+04
        53   6  9.013986E+03 -4.400138E+05 -6.805178E+04 -1.831409E+04  1.027434E+03 -3.754955E+04
        53   7 -2.009624E+05 -5.288865E+05 -2.425620E+05 -9.189399E+04  8.858680E+02 -1.484783E+05
        53   8 -1.519722E+03 -4.688479E+05 -1.154541E+05 -3.357524E+04  2.210279E+03 -9.213871E+04
        53   9  2.876334E+03 -4.649185E+05 -7.380226E+04  8.099983E+03  1.025757E+03 -3.579614E+04
        53  10 -1.566939E+05 -3.512136E+05 -1.989628E+05  5.526145E+04 -4.880130E-10 -4.616068E-10
        53  11  2.642953E+04 -3.554254E+05 -8.916259E+04  1.359145E+04 -6.895248E-10  4.173355E-11
        53  12  1.515380E+04 -4.151086E+05 -6.230386E+04 -4.472920E+04  3.391683E-10  4.905676E-10
        53  13 -1.788410E+05 -4.400713E+05 -2.207843E+05 -1.832149E+04  3.086242E-10 -1.300433E-13
        53  14  1.245283E+04 -4.121433E+05 -1.023164E+05 -9.992902E+03 -1.310211E-09 -4.809810E-11
        53  15  9.013606E+03 -4.400153E+05 -6.805444E+04 -1.831406E+04 -3.329545E-10 -7.084076E-11
        53  16 -2.009683E+05 -5.289101E+05 -2.426035E+05 -9.189388E+04 -1.031742E-10  4.618035E-10
        53  17 -1.522009E+03 -4.688570E+05 -1.154701E+05 -3.357508E+04  1.570216E-10 -9.881074E-11
        53  18  2.875988E+03 -4.649199E+05 -7.380468E+04  8.100012E+03 -2.679555E-11 -4.923501E-10
        53  19 -1.566883E+05 -3.511910E+05 -1.989234E+05  5.526135E+04 -8.509226E+02  1.447610E+05
        53  20  2.643181E+04 -3.554163E+05 -8.914665E+04  1.359128E+04 -2.203244E+03  9.203059E+04
        53  21  1.515422E+04 -4.151069E+05 -6.230096E+04 -4.472923E+04 -1.029260E+03  3.930304E+04
        53  22 -1.788352E+05 -4.400482E+05 -2.207439E+05 -1.832160E+04 -8.681738E+02  1.466198E+05
        53  23  1.245511E+04 -4.121342E+05 -1.023004E+05 -9.993066E+03 -2.206759E+03  9.208465E+04
        53  24  9.013986E+03 -4.400138E+05 -6.805178E+04 -1.831409E+04 -1.027434E+03  3.754955E+04
        53  25 -2.009624E+05 -5.288865E+05 -2.425620E+05 -9.189399E+04 -8.858680E+02  1.484783E+05
        53  26 -1.519722E+03 -4.688479E+05 -1.154541E+05 -3.357524E+04 -2.210279E+03  9.213871E+04
        53  27  2.876334E+03 -4.649185E+05 -7.380226E+04  8.099983E+03 -1.025757E+03  3.579614E+04
        54   1 -1.416146E+04 -4.355735E+05 -6.078562E+04 -1.185832E+04 -2.136197E+02 -2.804059E+04
        54   2 -7.233770E+03 -4.625812E+05 -5.455256E+04 -9.794639E+03 -1.616380E+03 -4.755692E+03
        54   3 -2.771449E+04 -4.994753E+05 -7.033715E+04 -2.446616E+04 -2.927883E+03  1.852817E+04
        54   4 -1.274067E+04 -4.298174E+05 -5.944695E+04 -1.833566E+04 -2.134217E+02 -2.699995E+04
        54   5  2.044771E+03 -4.248796E+05 -4.588011E+04 -9.967787E+03 -1.616439E+03 -3.780482E+03
        54   6 -1.056612E+04 -4.298174E+05 -5.428505E+04 -1.833539E+04 -2.927731E+03  1.943913E+04
        54   7 -1.131972E+04 -4.240612E+05 -5.810827E+04 -2.481306E+04 -2.132455E+02 -2.595931E+04
        54   8  1.132321E+04 -3.871766E+05 -3.720775E+04 -1.014095E+04 -1.616498E+03 -2.805213E+03
        54   9  6.582053E+03 -3.601549E+05 -3.823325E+04 -1.220392E+04 -2.927561E+03  2.035018E+04
        54  10 -1.416168E+04 -4.355744E+05 -6.078710E+04 -1.185833E+04  6.033457E-10 -8.930274E-10
        54  11 -7.233779E+03 -4.625812E+05 -5.455261E+04 -9.794646E+03  7.679032E-10 -6.677219E-11
        54  12 -2.771459E+04 -4.994756E+05 -7.033781E+04 -2.446612E+04 -5.900841E-10  4.982792E-10
        54  13 -1.274087E+04 -4.298182E+05 -5.944833E+04 -1.833567E+04  4.816433E-10  2.411000E-11
        54  14  2.044765E+03 -4.248796E+05 -4.588014E+04 -9.967792E+03 -7.196546E-10 -3.773526E-11
        54  15 -1.056623E+04 -4.298178E+05 -5.428578E+04 -1.833534E+04 -5.268583E-10 -2.095035E-11
        54  16 -1.131990E+04 -4.240620E+05 -5.810953E+04 -2.481307E+04 -6.428535E-11  8.580644E-10
        54  17  1.132321E+04 -3.871766E+05 -3.720777E+04 -1.014095E+04 -6.159896E-10  3.120446E-11
        54  18  6.581932E+03 -3.601554E+05 -3.823405E+04 -1.220387E+04 -3.698035E-10 -5.163046E-10
        54  19 -1.416146E+04 -4.355735E+05 -6.078562E+04 -1.185832E+04  2.136197E+02  2.804059E+04
        54  20 -7.233770E+03 -4.625812E+05 -5.455256E+04 -9.794639E+03  1.616380E+03  4.755692E+03
        54  21 -2.771449E+04 -4.994753E+05 -7.033715E+04 -2.446616E+04  2.927883E+03 -1.852817E+04
        54  22 -1.274067E+04 -4.298174E+05 -5.944695E+04 -1.833566E+04  2.134217E+02  2.699995E+04
        54  23  2.044771E+03 -4.248796E+05 -4.588011E+04 -9.967787E+03  1.616439E+03  3.780482E+03
        54  24 -1.056612E+04 -4.298174E+05 -5.428505E+04 -1.833539E+04  2.927731E+03 -1.943913E+04
        54  25 -1.131972E+04 -4.240612E+05 -5.810827E+04 -2.481306E+04  2.132455E+02  2.595931E+04
        54  26  1.132321E+04 -3.871766E+05 -3.720775E+04 -1.014095E+04  1.616498E+03  2.805213E+03
        54  27  6.582053E+03 -3.601549E+05 -3.823325E+04 -1.220392E+04  2.927561E+03 -2.035018E+04
        55   1 -1.732887E+04 -5.384552E+05 -8.359615E+04  4.072570E+03 -4.368964E+03  2.676275E+04
        55   2 -2.194427E+04 -5.464145E+05 -1.184549E+05 -3.001756E+04 -5.268472E+03  7.670544E+04
        55   3 -1.921924E+05 -6.022866E+05 -2.272501E+05 -8.063112E+04 -1.823062E+03  1.266449E+05
        55   4  7.354370E+03 -4.381428E+05 -6.055116E+04 -1.829119E+04 -4.369964E+03  2.897600E+04
        55   5  1.056477E+04 -4.144767E+05 -8.792030E+04 -1.002296E+04 -5.265944E+03  7.579631E+04
        55   6 -1.513023E+05 -4.381738E+05 -1.870462E+05 -1.828279E+04 -1.810597E+03  1.226162E+05
        55   7  3.203879E+04 -3.378200E+05 -3.750654E+04 -4.065860E+04 -4.371124E+03  3.118961E+04
        55   8  4.307409E+04 -2.825220E+05 -5.738666E+04  9.975927E+03 -5.263476E+03  7.488698E+04
        55   9 -1.103995E+05 -2.740280E+05 -1.468420E+05  4.408207E+04 -1.798944E+03  1.185865E+05
        55  10 -1.732908E+04 -5.384560E+05 -8.359753E+04  4.072664E+03 -1.292911E-10 -1.734220E-10
        55  11 -2.194588E+04 -5.464209E+05 -1.184660E+05 -3.001724E+04 -4.532431E-10  2.199766E-10
        55  12 -1.921967E+05 -6.023038E+05 -2.272803E+05 -8.063093E+04 -3.068610E-10  4.681630E-10
        55  13  7.354124E+03 -4.381437E+05 -6.055277E+04 -1.829109E+04 -1.242284E-10  3.214314E-11
        55  14  1.056319E+04 -4.144829E+05 -8.793115E+04 -1.002264E+04 -7.754201E-10  7.403577E-11
        55  15 -1.513063E+05 -4.381899E+05 -1.870744E+05 -1.828261E+04 -3.532148E-10  9.697215E-11
        55  16  3.203850E+04 -3.378210E+05 -3.750841E+04 -4.065849E+04  1.616393E-11  2.159382E-10
        55  17  4.307255E+04 -2.825280E+05 -5.739725E+04  9.976244E+03 -2.240157E-10 -2.062575E-10
        55  18 -1.104033E+05 -2.740432E+05 -1.468685E+05  4.408224E+04 -4.765303E-10 -4.265873E-10
        55  19 -1.732887E+04 -5.384552E+05 -8.359615E+04  4.072570E+03  4.368964E+03 -2.676275E+04
        55  20 -2.194427E+04 -5.464145E+05 -1.184549E+05 -3.001756E+04  5.268472E+03 -7.670544E+04
        55  21 -1.921924E+05 -6.022866E+05 -2.272501E+05 -8.063112E+04  1.823062E+03 -1.266449E+05
        55  22  7.354370E+03 -4.381428E+05 -6.055116E+04 -1.829119E+04  4.369964E+03 -2.897600E+04
        55  23  1.056477E+04 -4.144767E+05 -8.792030E+04 -1.002296E+04  5.265944E+03 -7.579631E+04
        55  24 -1.513023E+05 -4.381738E+05 -1.870462E+05 -1.828279E+04  1.810597E+03 -1.226162E+05
        55  25  3.203879E+04 -3.378200E+05 -3.750654E+04 -4.065860E+04  4.371124E+03 -3.118961E+04
        55  26  4.307409E+04 -2.825220E+05 -5.738666E+04  9.975927E+03  5.263476E+03 -7.488698E+04
        55  27 -1.103995E+05 -2.740280E+05 -1.468420E+05  4.408207E+04  1.798944E+03 -1.185865E+05
        56   1  2.196784E+05  6.697211E+04 -6.346605E+04  1.885861E+05 -1.891974E+04 -1.202288E+04
        56   2  2.343804E+05  1.047509E+05 -4.187945E+04  1.893162E+05 -1.364522E+04 -3.738230E+03
        56   3  2.457144E+05  1.145191E+05 -3.231036E+04  1.952675E+05 -6.055596E+03  1.460038E+03
        56   4  3.202802E+05  1.532905E+05 -2.687509E+04  2.450659E+05 -1.581416E+04 -9.694346E+03
        56   5  3.258705E+05  1.744323E+05 -1.199524E+04  2.369212E+05 -1.276194E+04 -3.076059E+03
        56   6  3.285766E+05  1.680471E+05 -7.203233E+03  2.339968E+05 -7.394990E+03  4.557427E+02
        56   7  4.208933E+05  2.396182E+05  9.714569E+03  3.015572E+05 -1.270789E+04 -7.365142E+03
        56   8  4.173701E+05  2.441196E+05  1.788807E+04  2.845346E+05 -1.187847E+04 -2.413738E+03
        56   9  4.114466E+05  2.215785E+05  1.790329E+04  2.727319E+05 -8.734637E+03 -5.487202E+02
        56  10  2.196780E+05  6.697186E+04 -6.346700E+04  1.885859E+05  3.907672E-10  6.304504E-11
        56  11  2.343802E+05  1.047508E+05 -4.187983E+04  1.893162E+05  8.123466E-10  4.451947E-10
        56  12  2.457144E+05  1.145190E+05 -3.231043E+04  1.952675E+05 -8.146854E-10 -4.497141E-10
        56  13  3.202799E+05  1.532904E+05 -2.687574E+04  2.450657E+05  6.630958E-10  7.146516E-11
        56  14  3.258703E+05  1.744322E+05 -1.199556E+04  2.369211E+05 -6.678203E-10 -5.960999E-11
        56  15  3.285765E+05  1.680471E+05 -7.203336E+03  2.339968E+05 -2.169321E-09 -1.271499E-09
        56  16  4.208931E+05  2.396181E+05  9.714164E+03  3.015571E+05  1.827892E-10  1.972909E-10
        56  17  4.173699E+05  2.441195E+05  1.788780E+04  2.845346E+05 -8.904888E-10 -6.338617E-10
        56  18  4.114465E+05  2.215785E+05  1.790315E+04  2.727319E+05 -3.451730E-09 -2.115826E-09
        56  19  2.196784E+05  6.697211E+04 -6.346605E+04  1.885861E+05  1.891974E+04  1.202288E+04
        56  20  2.343804E+05  1.047509E+05 -4.187945E+04  1.893162E+05  1.364522E+04  3.738230E+03
        56  21  2.457144E+05  1.145191E+05 -3.231036E+04  1.952675E+05  6.055596E+03 -1.460038E+03
        56  22  3.202802E+05  1.532905E+05 -2.687509E+04  2.450659E+05  1.581416E+04  9.694346E+03
        56  23  3.258705E+05  1.744323E+05 -1.199524E+04  2.369212E+05  1.276194E+04  3.076059E+03
        56  24  3.285766E+05  1.680471E+05 -7.203233E+03  2.339968E+05  7.394990E+03 -4.557427E+02
        56  25  4.208933E+05  2.396182E+05  9.714569E+03  3.015572E+05  1.270789E+04  7.365142E+03
        56  26  4.173701E+05  2.441196E+05  1.788807E+04  2.845346E+05  1.187847E+04  2.413738E+03
        56  27  4.114466E+05  2.215785E+05  1.790329E+04  2.727319E+05  8.734637E+03  5.487202E+02
        57   1  2.631885E+05  1.194758E+05 -2.655932E+04  2.031771E+05 -5.544129E+03  5.609207E+02
        57   2  2.731620E+05  1.364647E+05 -1.911819E+04  2.112811E+05 -3.778165E+03  9.296448E+02
        57   3  2.920721E+05  1.420223E+05 -1.319689E+04  2.170164E+05 -1.898817E+03  1.147002E+03
        57   4  3.284413E+05  1.667057E+05 -5.770250E+03  2.360041E+05 -5.930456E+03  2.712242E+02
        57   5  3.242734E+05  1.729651E+05 -2.957538E+03  2.367718E+05 -4.273355E+03  5.583741E+02
        57   6  3.290658E+05  1.678171E+05 -1.569975E+03  2.351706E+05 -2.502910E+03  6.941369E+02
        57   7  3.936981E+05  2.139377E+05  1.501810E+04  2.688347E+05 -6.316836E+03 -1.851247E+01
        57   8  3.753874E+05  2.094668E+05  1.320271E+04  2.622647E+05 -4.768599E+03  1.870630E+02
        57   9  3.660610E+05  1.936125E+05  1.005677E+04  2.533261E+05 -3.107052E+03  2.412365E+02
        57  10  2.631884E+05  1.194757E+05 -2.655938E+04  2.031771E+05 -3.155099E-09 -2.194945E-09
        57  11  2.731620E+05  1.364647E+05 -1.911821E+04  2.112811E+05 -9.467866E-10 -8.873941E-10
        57  12  2.920721E+05  1.420223E+05 -1.319690E+04  2.170164E+05  1.839513E-10 -4.257347E-11
        57  13  3.284412E+05  1.667057E+05 -5.770317E+03  2.360041E+05 -1.954995E-09 -1.436420E-09
        57  14  3.242734E+05  1.729651E+05 -2.957573E+03  2.367718E+05  6.897031E-10 -5.023679E-10
        57  15  3.290658E+05  1.678171E+05 -1.569988E+03  2.351706E+05  2.879726E-10 -2.049398E-10
        57  16  3.936981E+05  2.139377E+05  1.501803E+04  2.688347E+05 -8.662552E-10 -7.055277E-10
        57  17  3.753874E+05  2.094668E+05  1.320267E+04  2.622647E+05  4.329870E-10 -1.329644E-10
        57  18  3.660610E+05  1.936125E+05  1.005676E+04  2.533261E+05  1.286384E-10 -9.966257E-11
        57  19  2.631885E+05  1.194758E+05 -2.655932E+04  2.031771E+05  5.544129E+03 -5.609207E+02
        57  20  2.731620E+05  1.364647E+05 -1.911819E+04  2.112811E+05  3.778165E+03 -9.296448E+02
        57  21  2.920721E+05  1.420223E+05 -1.319689E+04  2.170164E+05  1.898817E+03 -1.147002E+03
        57  22  3.284413E+05  1.667057E+05 -5.770250E+03  2.360041E+05  5.930456E+03 -2.712242E+02
        57  23  3.242734E+05  1.729651E+05 -2.957538E+03  2.367718E+05  4.273355E+03 -5.583741E+02
        57  24  3.290658E+05  1.678171E+05 -1.569975E+03  2.351706E+05  2.502910E+03 -6.941369E+02
        57  25  3.936981E+05  2.139377E+05  1.501810E+04  2.688347E+05  6.316836E+03  1.851247E+01
        57  26  3.753874E+05  2.094668E+05  1.320271E+04  2.622647E+05  4.768599E+03 -1.870630E+02
        57  27  3.660610E+05  1.936125E+05  1.005677E+04  2.533261E+05  3.107052E+03 -2.412365E+02
        58   1  3.062375E+05  1.515441E+05 -8.231036E+03  2.240005E+05 -1.401119E+03  7.766084E+02
        58   2  3.157780E+05  1.669220E+05 -2.879892E+03  2.326169E+05 -7.175603E+02  7.718858E+01
        58   3  3.352891E+05  1.722557E+05  2.376786E+03  2.383194E+05 -3.333728E+01 -6.231383E+02
        58   4  3.290712E+05  1.677298E+05 -1.088303E+03  2.353423E+05 -1.959752E+03  3.578374E+02
        58   5  3.241231E+05  1.728180E+05 -2.543972E+02  2.367498E+05 -1.276837E+03 -3.420615E+02
        58   6  3.291454E+05  1.678619E+05  4.856072E+02  2.352432E+05 -5.932657E+02 -1.042866E+03
        58   7  3.519056E+05  1.839160E+05  6.054426E+03  2.466846E+05 -2.518416E+03 -6.095763E+01
        58   8  3.324682E+05  1.787141E+05  2.371091E+03  2.408828E+05 -1.836125E+03 -7.613192E+02
        58   9  3.230017E+05  1.634682E+05 -1.405558E+03  2.321671E+05 -1.153182E+03 -1.462585E+03
        58  10  3.062375E+05  1.515441E+05 -8.231041E+03  2.240005E+05  7.594656E-10 -1.428682E-10
        58  11  3.157780E+05  1.669220E+05 -2.879893E+03  2.326169E+05  2.874765E-10 -3.702715E-10
        58  12  3.352891E+05  1.722557E+05  2.376785E+03  2.383194E+05  7.725015E-11 -2.011291E-10
        58  13  3.290712E+05  1.677298E+05 -1.088311E+03  2.353423E+05  4.807700E-10 -3.339070E-10
        58  14  3.241231E+05  1.728180E+05 -2.544005E+02  2.367498E+05 -7.230202E-11 -2.630945E-10
        58  15  3.291454E+05  1.678619E+05  4.856045E+02  2.352432E+05 -2.045424E-10 -2.529721E-10
        58  16  3.519056E+05  1.839160E+05  6.054414E+03  2.466846E+05  1.220531E-10 -2.327317E-10
        58  17  3.324682E+05  1.787141E+05  2.371084E+03  2.408828E+05 -5.665321E-10 -2.676256E-10
        58  18  3.230017E+05  1.634682E+05 -1.405565E+03  2.321671E+05  6.829371E-11 -2.545834E-10
        58  19  3.062375E+05  1.515441E+05 -8.231036E+03  2.240005E+05  1.401119E+03 -7.766084E+02
        58  20  3.157780E+05  1.669220E+05 -2.879892E+03  2.326169E+05  7.175603E+02 -7.718858E+01
        58  21  3.352891E+05  1.722557E+05  2.376786E+03  2.383194E+05  3.333728E+01  6.231383E+02
        58  22  3.290712E+05  1.677298E+05 -1.088303E+03  2.353423E+05  1.959752E+03 -3.578374E+02
        58  23  3.241231E+05  1.728180E+05 -2.543972E+02  2.367498E+05  1.276837E+03  3.420615E+02
        58  24  3.291454E+05  1.678619E+05  4.856072E+02  2.352432E+05  5.932657E+02  1.042866E+03
        58  25  3.519056E+05  1.839160E+05  6.054426E+03  2.466846E+05  2.518416E+03  6.095763E+01
        58  26  3.324682E+05  1.787141E+05  2.371091E+03  2.408828E+05  1.836125E+03  7.613192E+02
        58  27  3.230017E+05  1.634682E+05 -1.405558E+03  2.321671E+05  1.153182E+03  1.462585E+03
        59   1  3.490232E+05  1.822219E+05  7.241285E+03  2.453743E+05  2.653234E+02 -1.138387E+03
        59   2  3.586461E+05  1.971571E+05  1.277860E+04  2.538752E+05 -1.687688E+01 -2.545344E+03
        59   3  3.790049E+05  2.030294E+05  1.931855E+04  2.590793E+05 -3.960534E+02 -3.822890E+03
        59   4  3.291553E+05  1.677987E+05  8.677465E+02  2.353655E+05 -3.326482E+02 -1.586638E+03
        59   5  3.240068E+05  1.727129E+05  1.879370E+03  2.367344E+05 -5.215584E+02 -2.923694E+03
        59   6  3.295737E+05  1.685438E+05  3.812782E+03  2.348063E+05 -8.074231E+02 -4.131316E+03
        59   7  3.092879E+05  1.533759E+05 -5.505842E+03  2.253570E+05 -9.305939E+02 -2.034870E+03
        59   8  2.893686E+05  1.482693E+05 -9.020052E+03  2.195946E+05 -1.026204E+03 -3.302017E+03
        59   9  2.801447E+05  1.340592E+05 -1.169342E+04  2.105352E+05 -1.218751E+03 -4.439712E+03
        59  10  3.490232E+05  1.822219E+05  7.241282E+03  2.453743E+05  2.768322E-10 -1.862332E-10
        59  11  3.586461E+05  1.971571E+05  1.277859E+04  2.538752E+05 -1.028492E-10  1.197110E-10
        59  12  3.790049E+05  2.030294E+05  1.931853E+04  2.590793E+05  1.080020E-10  2.449941E-10
        59  13  3.291553E+05  1.677987E+05  8.677415E+02  2.353655E+05  2.647190E-10  1.925636E-11
        59  14  3.240068E+05  1.727129E+05  1.879354E+03  2.367344E+05  1.046960E-10  2.541133E-10
        59  15  3.295737E+05  1.685438E+05  3.812749E+03  2.348063E+05 -1.206784E-10 -4.404670E-11
        59  16  3.092879E+05  1.533759E+05 -5.505852E+03  2.253570E+05  3.669335E-10 -1.307364E-10
        59  17  2.893686E+05  1.482693E+05 -9.020075E+03  2.195946E+05  6.338056E-10  9.946639E-11
        59  18  2.801447E+05  1.340592E+05 -1.169346E+04  2.105352E+05 -3.610366E-11 -3.244275E-10
        59  19  3.490232E+05  1.822219E+05  7.241285E+03  2.453743E+05 -2.653234E+02  1.138387E+03
        59  20  3.586461E+05  1.971571E+05  1.277860E+04  2.538752E+05  1.687688E+01  2.545344E+03
        59  21  3.790049E+05  2.030294E+05  1.931855E+04  2.590793E+05  3.960534E+02  3.822890E+03
        59  22  3.291553E+05  1.677987E+05  8.677465E+02  2.353655E+05  3.326482E+02  1.586638E+03
        59  23  3.240068E+05  1.727129E+05  1.879370E+03  2.367344E+05  5.215584E+02  2.923694E+03
        59  24  3.295737E+05  1.685438E+05  3.812782E+03  2.348063E+05  8.074231E+02  4.131316E+03
        59  25  3.092879E+05  1.533759E+05 -5.505842E+03  2.253570E+05  9.305939E+02  2.034870E+03
        59  26  2.893686E+05  1.482693E+05 -9.020052E+03  2.195946E+05  1.026204E+03  3.302017E+03
        59  27  2.801447E+05  1.340592E+05 -1.169342E+04  2.105352E+05  1.218751E+03  4.439712E+03
        60   1  3.904146E+05  2.144880E+05  2.463309E+04  2.680863E+05  4.315018E+02 -4.401554E+03
        60   2  4.023023E+05  2.248694E+05  3.260039E+04  2.745676E+05 -4.615857E+03 -8.783717E+03
        60   3  4.331630E+05  2.375152E+05  4.897927E+04  2.726989E+05 -1.164111E+04 -1.052831E+04
        60   4  3.294591E+05  1.676691E+05  4.790009E+03  2.361613E+05 -7.942929E+02 -5.320585E+03
        60   5  3.229592E+05  1.716906E+05  8.025621E+03  2.366243E+05 -3.940535E+03 -8.277468E+03
        60   6  3.350211E+05  1.775656E+05  1.802485E+04  2.287371E+05 -9.064611E+03 -8.596555E+03
        60   7  2.685080E+05  1.208530E+05 -1.505338E+04  2.042401E+05 -2.019915E+03 -6.239474E+03
        60   8  2.436231E+05  1.185149E+05 -1.654979E+04  1.986864E+05 -3.265333E+03 -7.771304E+03
        60   9  2.368894E+05  1.176195E+05 -1.293068E+04  1.847824E+05 -6.488679E+03 -6.665140E+03
        60  10  3.904146E+05  2.144879E+05  2.463305E+04  2.680863E+05 -5.030651E-11 -1.329971E-10
        60  11  4.023023E+05  2.248693E+05  3.260020E+04  2.745675E+05  4.974870E-10  1.243722E-10
        60  12  4.331628E+05  2.375151E+05  4.897881E+04  2.726988E+05 -7.942110E-11  1.792094E-10
        60  13  3.294591E+05  1.676690E+05  4.789955E+03  2.361613E+05  2.466871E-10 -1.334010E-11
        60  14  3.229592E+05  1.716905E+05  8.025463E+03  2.366242E+05  4.515548E-11  1.409665E-10
        60  15  3.350210E+05  1.775655E+05  1.802455E+04  2.287370E+05  8.377956E-10  8.783932E-11
        60  16  2.685080E+05  1.208530E+05 -1.505346E+04  2.042401E+05  2.227979E-10  2.919416E-11
        60  17  2.436231E+05  1.185149E+05 -1.654992E+04  1.986864E+05 -2.794047E-10  1.496045E-10
        60  18  2.368893E+05  1.176195E+05 -1.293084E+04  1.847824E+05  5.181108E-11 -5.811667E-13
        60  19  3.904146E+05  2.144880E+05  2.463309E+04  2.680863E+05 -4.315018E+02  4.401554E+03
        60  20  4.023023E+05  2.248694E+05  3.260039E+04  2.745676E+05  4.615857E+03  8.783717E+03
        60  21  4.331630E+05  2.375152E+05  4.897927E+04  2.726989E+05  1.164111E+04  1.052831E+04
        60  22  3.294591E+05  1.676691E+05  4.790009E+03  2.361613E+05  7.942929E+02  5.320585E+03
        60  23  3.229592E+05  1.716906E+05  8.025621E+03  2.366243E+05  3.940535E+03  8.277468E+03
        60  24  3.350211E+05  1.775656E+05  1.802485E+04  2.287371E+05  9.064611E+03  8.596555E+03
        60  25  2.685080E+05  1.208530E+05 -1.505338E+04  2.042401E+05  2.019915E+03  6.239474E+03
        60  26  2.436231E+05  1.185149E+05 -1.654979E+04  1.986864E+05  3.265333E+03  7.771304E+03
        60  27  2.368894E+05  1.176195E+05 -1.293068E+04  1.847824E+05  6.488679E+03  6.665140E+03
        61   1  6.972113E+05  3.588371E+04  4.421020E+04  1.474257E+04  2.985285E+04  7.081400E-01
        61   2  6.916581E+05 -2.480762E+03  2.013732E+04  4.736060E+03  1.910513E+04  1.455892E-01
        61   3  6.972238E+05 -1.950853E+03  1.277963E+04 -5.270192E+03  8.357546E+03 -7.087016E-02
        61   4  6.972111E+05  3.588330E+04  4.421015E+04 -3.197607E-10  2.985285E+04  4.089986E-11
        61   5  6.916581E+05 -2.480804E+03  2.013732E+04  1.146942E-09  1.910513E+04  6.203749E-11
        61   6  6.972237E+05 -1.950905E+03  1.277962E+04 -8.911711E-10  8.357546E+03 -8.917626E-10
        61   7  6.972113E+05  3.588371E+04  4.421020E+04 -1.474257E+04  2.985285E+04 -7.081400E-01
        61   8  6.916581E+05 -2.480762E+03  2.013732E+04 -4.736060E+03  1.910513E+04 -1.455892E-01
        61   9  6.972238E+05 -1.950853E+03  1.277963E+04  5.270192E+03  8.357546E+03  7.087016E-02
        61  10  6.972103E+05  3.588347E+04  4.420853E+04  1.474257E+04  5.382199E-11  3.499631E-11
        61  11  6.916577E+05 -2.480859E+03  2.013664E+04  4.736060E+03  4.763140E-11 -7.374050E-11
        61  12  6.972237E+05 -1.950871E+03  1.277950E+04 -5.270192E+03  6.878973E-10 -6.748926E-10
        61  13  6.972101E+05  3.588306E+04  4.420847E+04  2.567660E-10  2.908577E-11  9.253555E-11
        61  14  6.916577E+05 -2.480901E+03  2.013663E+04 -2.146409E-09 -1.139927E-10 -2.812618E-11
        61  15  6.972237E+05 -1.950924E+03  1.277949E+04 -2.123651E-09 -6.467123E-11 -8.034374E-10
        61  16  6.972103E+05  3.588347E+04  4.420853E+04 -1.474257E+04  3.775243E-10  1.517005E-10
        61  17  6.916577E+05 -2.480859E+03  2.013664E+04 -4.736060E+03 -5.759438E-10  6.806001E-11
        61  18  6.972237E+05 -1.950871E+03  1.277950E+04  5.270192E+03 -7.744668E-10 -9.611009E-10
        61  19  6.972113E+05  3.588371E+04  4.421020E+04  1.474257E+04 -2.985285E+04 -7.081400E-01
        61  20  6.916581E+05 -2.480762E+03  2.013732E+04  4.736060E+03 -1.910513E+04 -1.455892E-01
        61  21  6.972238E+05 -1.950853E+03  1.277963E+04 -5.270192E+03 -8.357546E+03  7.087016E-02
        61  22  6.972111E+05  3.588330E+04  4.421015E+04 -1.324970E-09 -2.985285E+04  1.548415E-10
        61  23  6.916581E+05 -2.480804E+03  2.013732E+04 -3.278390E-09 -1.910513E+04 -1.219001E-10
        61  24  6.972237E+05 -1.950905E+03  1.277962E+04 -2.739119E-09 -8.357546E+03 -7.164543E-10
        61  25  6.972113E+05  3.588371E+04  4.421020E+04 -1.474257E+04 -2.985285E+04  7.081400E-01
        61  26  6.916581E+05 -2.480762E+03  2.013732E+04 -4.736060E+03 -1.910513E+04  1.455892E-01
        61  27  6.972238E+05 -1.950853E+03  1.277963E+04  5.270192E+03 -8.357546E+03 -7.087016E-02
        62   1  6.950415E+05  2.663284E+03  1.077105E+04  9.933813E+02  6.412320E+03  1.024922E-02
        62   2  6.943871E+05 -2.647228E+02  7.178801E+03  2.547508E+02  2.796920E+03  1.146451E-03
        62   3  6.950427E+05  1.678333E+02  6.778589E+03 -4.838908E+02 -8.185294E+02  6.372974E-04
        62   4  6.950415E+05  2.663282E+03  1.077105E+04  1.718006E-08  6.412320E+03 -1.134966E-09
        62   5  6.943871E+05 -2.647229E+02  7.178801E+03 -1.356468E-08  2.796920E+03  1.396574E-11
        62   6  6.950427E+05  1.678329E+02  6.778589E+03 -5.730248E-08 -8.185294E+02  1.740657E-09
        62   7  6.950415E+05  2.663284E+03  1.077105E+04 -9.933813E+02  6.412320E+03 -1.024922E-02
        62   8  6.943871E+05 -2.647228E+02  7.178801E+03 -2.547508E+02  2.796920E+03 -1.146451E-03
        62   9  6.950427E+05  1.678333E+02  6.778589E+03  4.838908E+02 -8.185294E+02 -6.372942E-04
        62  10  6.950415E+05  2.663273E+03  1.077097E+04  9.933813E+02 -1.713801E-09 -8.297257E-10
        62  11  6.943870E+05 -2.647249E+02  7.178786E+03  2.547508E+02  6.074651E-09 -2.394574E-11
        62  12  6.950427E+05  1.678331E+02  6.778588E+03 -4.838908E+02  1.103451E-08  1.657533E-09
        62  13  6.950415E+05  2.663271E+03  1.077097E+04 -1.635302E-09  5.113142E-10 -1.014217E-09
        62  14  6.943870E+05 -2.647250E+02  7.178786E+03 -1.346665E-09  9.788089E-11 -5.833966E-11
        62  15  6.950427E+05  1.678327E+02  6.778587E+03 -4.289848E-09  2.764098E-10  1.592127E-09
        62  16  6.950415E+05  2.663273E+03  1.077097E+04 -9.933813E+02  2.074088E-09 -1.234125E-09
        62  17  6.943870E+05 -2.647249E+02  7.178786E+03 -2.547508E+02 -6.040409E-09 -1.263896E-10
        62  18  6.950427E+05  1.678331E+02  6.778588E+03  4.838908E+02 -1.133077E-08  1.637420E-09
        62  19  6.950415E+05  2.663284E+03  1.077105E+04  9.933813E+02 -6.412320E+03 -1.024922E-02
        62  20  6.943871E+05 -2.647228E+02  7.178801E+03  2.547508E+02 -2.796920E+03 -1.146451E-03
        62  21  6.950427E+05  1.678333E+02  6.778589E+03 -4.838908E+02  8.185294E+02 -6.372945E-04
        62  22  6.950415E+05  2.663282E+03  1.077105E+04 -1.776222E-08 -6.412320E+03 -8.696348E-10
        62  23  6.943871E+05 -2.647229E+02  7.178801E+03  1.006076E-08 -2.796920E+03 -1.341248E-10
        62  24  6.950427E+05  1.678329E+02  6.778589E+03  5.074214E-08  8.185294E+02  1.459009E-09
        62  25  6.950415E+05  2.663284E+03  1.077105E+04 -9.933813E+02 -6.412320E+03  1.024922E-02
        62  26  6.943871E+05 -2.647228E+02  7.178801E+03 -2.547508E+02 -2.796920E+03  1.146451E-03
        62  27  6.950427E+05  1.678333E+02  6.778589E+03  4.838908E+02  8.185294E+02  6.372975E-04
        63   1  6.951871E+05 -6.955357E+01  7.246319E+03  7.895544E+02 -2.052847E+03 -2.607940E-03
        63   2  6.942061E+05 -4.012140E+02  9.813585E+03 -3.997305E+02 -7.008911E+03  4.507939E-03
        63   3  6.951845E+05  4.527928E+03  1.692009E+04 -1.589014E+03 -1.196500E+04  3.059144E-02
        63   4  6.951871E+05 -6.955474E+01  7.246319E+03  5.236088E-08 -2.052847E+03  1.764997E-09
        63   5  6.942061E+05 -4.012143E+02  9.813585E+03  9.140123E-09 -7.008911E+03  1.605135E-10
        63   6  6.951845E+05  4.527924E+03  1.692009E+04 -1.960470E-08 -1.196500E+04 -7.636609E-10
        63   7  6.951871E+05 -6.955357E+01  7.246319E+03 -7.895544E+02 -2.052847E+03  2.607944E-03
        63   8  6.942061E+05 -4.012140E+02  9.813585E+03  3.997305E+02 -7.008911E+03 -4.507938E-03
        63   9  6.951845E+05  4.527928E+03  1.692009E+04  1.589014E+03 -1.196500E+04 -3.059144E-02
        63  10  6.951871E+05 -6.955470E+01  7.246311E+03  7.895544E+02 -1.076908E-08  1.662752E-09
        63  11  6.942060E+05 -4.012272E+02  9.813493E+03 -3.997305E+02 -5.984558E-09  2.137253E-10
        63  12  6.951844E+05  4.527890E+03  1.691982E+04 -1.589014E+03  2.183383E-09 -8.120447E-10
        63  13  6.951871E+05 -6.955587E+01  7.246311E+03 -2.173486E-09  2.440647E-10  1.634290E-09
        63  14  6.942060E+05 -4.012275E+02  9.813492E+03 -6.461221E-10  3.944049E-10  5.128569E-11
        63  15  6.951844E+05  4.527885E+03  1.691982E+04 -1.546830E-09  5.626546E-10 -8.361156E-10
        63  16  6.951871E+05 -6.955470E+01  7.246311E+03 -7.895544E+02  1.103187E-08  1.502589E-09
        63  17  6.942060E+05 -4.012272E+02  9.813493E+03  3.997305E+02  6.657860E-09  2.479103E-11
        63  18  6.951844E+05  4.527890E+03  1.691982E+04  1.589014E+03 -1.814267E-09 -9.033085E-10
        63  19  6.951871E+05 -6.955357E+01  7.246319E+03  7.895544E+02  2.052847E+03  2.607944E-03
        63  20  6.942061E+05 -4.012140E+02  9.813585E+03 -3.997305E+02  7.008911E+03 -4.507938E-03
        63  21  6.951845E+05  4.527928E+03  1.692009E+04 -1.589014E+03  1.196500E+04 -3.059144E-02
        63  22  6.951871E+05 -6.955474E+01  7.246319E+03 -5.995545E-08  2.052847E+03  1.503173E-09
        63  23  6.942061E+05 -4.012143E+02  9.813585E+03 -1.204722E-08  7.008911E+03 -2.088405E-11
        63  24  6.951845E+05  4.527924E+03  1.692009E+04  1.262645E-08  1.196500E+04 -9.194271E-10
        63  25  6.951871E+05 -6.955357E+01  7.246319E+03 -7.895544E+02  2.052847E+03 -2.607941E-03
        63  26  6.942061E+05 -4.012140E+02  9.813585E+03  3.997305E+02  7.008911E+03  4.507938E-03
        63  27  6.951845E+05  4.527928E+03  1.692009E+04  1.589014E+03  1.196500E+04  3.059144E-02
        64   1  6.989253E+05 -3.320129E+03  2.066370E+04  8.940430E+03 -1.505262E+04 -2.165348E-01
        64   2  6.895280E+05 -4.190816E+03  3.362227E+04 -7.988594E+03 -3.301399E+04  4.243578E-01
        64   3  6.989045E+05  6.070392E+04  7.470724E+04 -2.491768E+04 -5.097501E+04  2.043739E+00
        64   4  6.989252E+05 -3.320279E+03  2.066367E+04  1.981516E-09 -1.505262E+04 -6.445980E-10
        64   5  6.895279E+05 -4.190936E+03  3.362226E+04  4.577573E-11 -3.301399E+04 -1.389666E-11
        64   6  6.989038E+05  6.070275E+04  7.470707E+04  1.413379E-09 -5.097501E+04  1.338151E-10
        64   7  6.989253E+05 -3.320129E+03  2.066370E+04 -8.940430E+03 -1.505262E+04  2.165348E-01
        64   8  6.895280E+05 -4.190816E+03  3.362227E+04  7.988594E+03 -3.301399E+04 -4.243578E-01
        64   9  6.989045E+05  6.070392E+04  7.470724E+04  2.491768E+04 -5.097501E+04 -2.043739E+00
        64  10  6.989250E+05 -3.320190E+03  2.066327E+04  8.940430E+03 -1.339944E-10 -7.937501E-10
        64  11  6.895268E+05 -4.191108E+03  3.362023E+04 -7.988594E+03 -3.961795E-10 -2.304216E-10
        64  12  6.989017E+05  6.070322E+04  7.470236E+04 -2.491768E+04  2.885305E-10 -9.923026E-12
        64  13  6.989250E+05 -3.320340E+03  2.066325E+04  1.021049E-09  2.886421E-10 -7.305806E-10
        64  14  6.895268E+05 -4.191228E+03  3.362021E+04 -1.249230E-09  5.386520E-10 -1.661153E-10
        64  15  6.989011E+05  6.070205E+04  7.470220E+04  7.895156E-10 -2.862172E-10  1.685610E-11
        64  16  6.989250E+05 -3.320190E+03  2.066327E+04 -8.940430E+03  1.283001E-10 -7.294507E-10
        64  17  6.895268E+05 -4.191108E+03  3.362023E+04  7.988594E+03 -6.263275E-11 -9.733723E-11
        64  18  6.989017E+05  6.070322E+04  7.470236E+04  2.491768E+04 -5.997682E-10  7.740931E-11
        64  19  6.989253E+05 -3.320129E+03  2.066370E+04  8.940430E+03  1.505262E+04  2.165348E-01
        64  20  6.895280E+05 -4.190816E+03  3.362227E+04 -7.988594E+03  3.301399E+04 -4.243578E-01
        64  21  6.989045E+05  6.070392E+04  7.470724E+04 -2.491768E+04  5.097501E+04 -2.043739E+00
        64  22  6.989252E+05 -3.320279E+03  2.066367E+04 -2.644158E-09  1.505262E+04 -8.094930E-10
        64  23  6.895279E+05 -4.190936E+03  3.362226E+04 -2.544770E-09  3.301399E+04 -2.940696E-10
        64  24  6.989038E+05  6.070275E+04  7.470707E+04  8.478987E-10  5.097501E+04 -8.039139E-11
        64  25  6.989253E+05 -3.320129E+03  2.066370E+04 -8.940430E+03  1.505262E+04 -2.165348E-01
        64  26  6.895280E+05 -4.190816E+03  3.362227E+04  7.988594E+03  3.301399E+04  4.243578E-01
        64  27  6.989045E+05  6.070392E+04  7.470724E+04  2.491768E+04  5.097501E+04  2.043739E+00
        65   1 -8.936967E+04 -1.012398E+05 -1.170256E+05  2.948943E+04  1.092804E+03 -9.264095E+04
        65   2  2.659276E+04 -1.152365E+05 -4.915912E+04  5.325008E+03  2.953464E+03 -5.929065E+04
        65   3  1.650648E+04 -1.650831E+05 -3.451411E+04 -3.544322E+04  1.847389E+03 -2.594212E+04
        65   4 -1.160842E+05 -2.084893E+05 -1.433292E+05 -1.829510E+04  1.100051E+03 -9.503417E+04
        65   5  8.085180E+03 -1.903696E+05 -6.656244E+04 -9.990256E+03  2.954970E+03 -5.955628E+04
        65   6  5.823487E+03 -2.084786E+05 -4.450192E+04 -1.828933E+04  1.846482E+03 -2.407831E+04
        65   7 -1.427911E+05 -3.157235E+05 -1.696324E+05 -6.607136E+04  1.107668E+03 -9.742697E+04
        65   8 -1.042192E+04 -2.654969E+05 -8.396600E+04 -2.530365E+04  2.956489E+03 -5.982186E+04
        65   9 -4.858527E+03 -2.518716E+05 -5.448968E+04 -1.136655E+03  1.845679E+03 -2.221463E+04
        65  10 -8.937197E+04 -1.012490E+05 -1.170417E+05  2.948951E+04  1.850996E-10  9.500336E-11
        65  11  2.659181E+04 -1.152403E+05 -4.916575E+04  5.325149E+03  3.688456E-10 -2.117004E-10
        65  12  1.650629E+04 -1.650839E+05 -3.451539E+04 -3.544318E+04  2.254856E-10 -4.465719E-10
        65  13 -1.160867E+05 -2.084990E+05 -1.433462E+05 -1.829502E+04  3.255908E-10 -4.027738E-15
        65  14  8.084218E+03 -1.903734E+05 -6.656912E+04 -9.990114E+03 -1.943783E-10  7.408869E-12
        65  15  5.823328E+03 -2.084792E+05 -4.450302E+04 -1.828930E+04 -4.397296E-10  4.810911E-11
        65  16 -1.427936E+05 -3.157337E+05 -1.696503E+05 -6.607127E+04 -4.621459E-10 -9.197317E-11
        65  17 -1.042289E+04 -2.655008E+05 -8.397274E+04 -2.530351E+04 -6.292382E-11  1.377654E-10
        65  18 -4.858664E+03 -2.518722E+05 -5.449061E+04 -1.136622E+03 -7.126335E-10  4.368288E-10
        65  19 -8.936967E+04 -1.012398E+05 -1.170256E+05  2.948943E+04 -1.092804E+03  9.264095E+04
        65  20  2.659276E+04 -1.152365E+05 -4.915912E+04  5.325008E+03 -2.953464E+03  5.929065E+04
        65  21  1.650648E+04 -1.650831E+05 -3.451411E+04 -3.544322E+04 -1.847389E+03  2.594212E+04
        65  22 -1.160842E+05 -2.084893E+05 -1.433292E+05 -1.829510E+04 -1.100051E+03  9.503417E+04
        65  23  8.085180E+03 -1.903696E+05 -6.656244E+04 -9.990256E+03 -2.954970E+03  5.955628E+04
        65  24  5.823487E+03 -2.084786E+05 -4.450192E+04 -1.828933E+04 -1.846482E+03  2.407831E+04
        65  25 -1.427911E+05 -3.157235E+05 -1.696324E+05 -6.607136E+04 -1.107668E+03  9.742697E+04
        65  26 -1.042192E+04 -2.654969E+05 -8.396600E+04 -2.530365E+04 -2.956489E+03  5.982186E+04
        65  27 -4.858527E+03 -2.518716E+05 -5.448968E+04 -1.136655E+03 -1.845679E+03  2.221463E+04
        66   1 -5.100613E+03 -1.891060E+05 -3.608970E+04 -1.403987E+04  5.583253E+02 -1.816883E+04
        66   2 -3.341632E+03 -2.177208E+05 -3.494872E+04 -9.881968E+03 -8.192823E+02 -2.672320E+03
        66   3 -1.982506E+04 -2.529164E+05 -4.845937E+04 -2.243242E+04 -2.150822E+03  1.282348E+04
        66   4 -8.244289E+03 -2.018910E+05 -3.902577E+04 -1.831459E+04  5.583370E+02 -1.716167E+04
        66   5  1.362075E+03 -1.986032E+05 -3.055229E+04 -9.960253E+03 -8.193763E+02 -1.698479E+03
        66   6 -7.267945E+03 -2.018912E+05 -3.670727E+04 -1.831445E+04 -2.150816E+03  1.376477E+04
        66   7 -1.138791E+04 -2.146759E+05 -4.196184E+04 -2.258923E+04  5.583348E+02 -1.615452E+04
        66   8  6.065758E+03 -1.794852E+05 -2.615588E+04 -1.003854E+04 -8.194706E+02 -7.246083E+02
        66   9  5.289047E+03 -1.508636E+05 -2.495533E+04 -1.419614E+04 -2.150797E+03  1.470614E+04
        66  10 -5.100702E+03 -1.891064E+05 -3.609032E+04 -1.403986E+04 -7.720720E-11 -3.315045E-10
        66  11 -3.341635E+03 -2.177208E+05 -3.494873E+04 -9.881970E+03  2.079456E-10 -3.171080E-10
        66  12 -1.982510E+04 -2.529166E+05 -4.845969E+04 -2.243240E+04 -4.410274E-10 -1.818412E-11
        66  13 -8.244369E+03 -2.018914E+05 -3.902633E+04 -1.831458E+04 -6.098342E-10  1.047967E-11
        66  14  1.362074E+03 -1.986032E+05 -3.055230E+04 -9.960254E+03 -3.135414E-10  4.108334E-13
        66  15 -7.268001E+03 -2.018914E+05 -3.670764E+04 -1.831443E+04 -2.233166E-10  4.123875E-12
        66  16 -1.138798E+04 -2.146761E+05 -4.196233E+04 -2.258922E+04 -7.474537E-10  3.508372E-10
        66  17  6.065757E+03 -1.794852E+05 -2.615588E+04 -1.003854E+04 -3.239221E-10  2.137570E-10
        66  18  5.288984E+03 -1.508638E+05 -2.495575E+04 -1.419612E+04  2.745752E-10  1.057294E-11
        66  19 -5.100613E+03 -1.891060E+05 -3.608970E+04 -1.403987E+04 -5.583253E+02  1.816883E+04
        66  20 -3.341632E+03 -2.177208E+05 -3.494872E+04 -9.881968E+03  8.192823E+02  2.672320E+03
        66  21 -1.982506E+04 -2.529164E+05 -4.845937E+04 -2.243242E+04  2.150822E+03 -1.282348E+04
        66  22 -8.244289E+03 -2.018910E+05 -3.902577E+04 -1.831459E+04 -5.583370E+02  1.716167E+04
        66  23  1.362075E+03 -1.986032E+05 -3.055229E+04 -9.960253E+03  8.193763E+02  1.698479E+03
        66  24 -7.267945E+03 -2.018912E+05 -3.670727E+04 -1.831445E+04  2.150816E+03 -1.376477E+04
        66  25 -1.138791E+04 -2.146759E+05 -4.196184E+04 -2.258923E+04 -5.583348E+02  1.615452E+04
        66  26  6.065758E+03 -1.794852E+05 -2.615588E+04 -1.003854E+04  8.194706E+02  7.246083E+02
        66  27  5.289047E+03 -1.508636E+05 -2.495533E+04 -1.419614E+04  2.150797E+03 -1.470614E+04
        67   1 -1.500811E+04 -2.892775E+05 -5.988994E+04 -2.945645E+03 -3.541028E+03  1.812907E+04
        67   2 -2.067368E+04 -3.047247E+05 -8.632480E+04 -2.370378E+04 -4.509011E+03  5.293928E+04
        67   3 -1.399472E+05 -3.531045E+05 -1.638292E+05 -6.101458E+04 -1.586488E+03  8.774731E+04
        67   4  5.078020E+03 -2.076382E+05 -4.113284E+04 -1.828003E+04 -3.541613E+03  2.022639E+04
        67   5  7.236246E+03 -1.914223E+05 -6.010299E+04 -1.000236E+04 -4.507767E+03  5.223930E+04
        67   6 -1.037192E+05 -2.076488E+05 -1.281933E+05 -1.828005E+04 -1.580472E+03  8.425198E+04
        67   7  2.516457E+04 -1.259923E+05 -2.237603E+04 -3.361645E+04 -3.542302E+03  2.232398E+04
        67   8  3.514597E+04 -7.810763E+04 -3.388193E+04  3.701581E+03 -4.506553E+03  5.153919E+04
        67   9 -6.748598E+04 -6.216981E+04 -9.255793E+04  2.446452E+04 -1.574939E+03  8.075583E+04
        67  10 -1.500822E+04 -2.892778E+05 -5.989058E+04 -2.945593E+03  5.346955E-10 -7.974330E-10
        67  11 -2.067445E+04 -3.047278E+05 -8.633011E+04 -2.370359E+04 -2.366336E-11 -7.028379E-11
        67  12 -1.399493E+05 -3.531128E+05 -1.638437E+05 -6.101447E+04 -4.998576E-10  5.308586E-10
        67  13  5.077897E+03 -2.076387E+05 -4.113363E+04 -1.827997E+04  3.980757E-10  5.228713E-13
        67  14  7.235492E+03 -1.914253E+05 -6.010816E+04 -1.000217E+04  2.392501E-10 -1.191047E-12
        67  15 -1.037212E+05 -2.076564E+05 -1.282067E+05 -1.827994E+04 -3.456871E-10  5.019368E-13
        67  16  2.516443E+04 -1.259928E+05 -2.237699E+04 -3.361639E+04  2.646388E-10  8.080394E-10
        67  17  3.514524E+04 -7.811049E+04 -3.388696E+04  3.701768E+03 -5.732396E-10  2.933761E-11
        67  18 -6.748773E+04 -6.217681E+04 -9.257019E+04  2.446462E+04 -7.530866E-10 -5.331059E-10
        67  19 -1.500811E+04 -2.892775E+05 -5.988994E+04 -2.945645E+03  3.541028E+03 -1.812907E+04
        67  20 -2.067368E+04 -3.047247E+05 -8.632480E+04 -2.370378E+04  4.509011E+03 -5.293928E+04
        67  21 -1.399472E+05 -3.531045E+05 -1.638292E+05 -6.101458E+04  1.586488E+03 -8.774731E+04
        67  22  5.078020E+03 -2.076382E+05 -4.113284E+04 -1.828003E+04  3.541613E+03 -2.022639E+04
        67  23  7.236246E+03 -1.914223E+05 -6.010299E+04 -1.000236E+04  4.507767E+03 -5.223930E+04
        67  24 -1.037192E+05 -2.076488E+05 -1.281933E+05 -1.828005E+04  1.580472E+03 -8.425198E+04
        67  25  2.516457E+04 -1.259923E+05 -2.237603E+04 -3.361645E+04  3.542302E+03 -2.232398E+04
        67  26  3.514597E+04 -7.810763E+04 -3.388193E+04  3.701581E+03  4.506553E+03 -5.153919E+04
        67  27 -6.748598E+04 -6.216981E+04 -9.255793E+04  2.446452E+04  1.574939E+03 -8.075583E+04
        68   1  1.874843E+05  6.696493E+04 -4.325354E+04  1.577274E+05 -1.121805E+04 -6.705019E+03
        68   2  1.977092E+05  9.093649E+04 -3.005407E+04  1.601115E+05 -8.355381E+03 -1.134889E+03
        68   3  2.083038E+05  9.742386E+04 -2.379642E+04  1.646338E+05 -3.673219E+03  2.009381E+03
        68   4  2.688017E+05  1.327567E+05 -1.445563E+04  2.015513E+05 -8.767165E+03 -4.867105E+03
        68   5  2.706587E+05  1.452776E+05 -6.451235E+03  1.975056E+05 -7.651312E+03 -6.069920E+02
        68   6  2.732649E+05  1.406941E+05 -3.872254E+03  1.955976E+05 -4.716206E+03  1.227290E+03
        68   7  3.501261E+05  1.985535E+05  1.434136E+04  2.453820E+05 -6.315843E+03 -3.028803E+03
        68   8  3.436137E+05  1.996218E+05  1.715084E+04  2.349045E+05 -6.947131E+03 -7.900607E+01
        68   9  3.382301E+05  1.839661E+05  1.605129E+04  2.265648E+05 -5.759336E+03  4.450999E+02
        68  10  1.874841E+05  6.696484E+04 -4.325386E+04  1.577273E+05  2.905699E-10  3.151704E-11
        68  11  1.977091E+05  9.093647E+04 -3.005420E+04  1.601115E+05  3.245400E-10  6.667873E-11
        68  12  2.083037E+05  9.742385E+04 -2.379646E+04  1.646338E+05  5.641931E-10 -2.988294E-11
        68  13  2.688016E+05  1.327567E+05 -1.445582E+04  2.015512E+05  1.209437E-09  4.653671E-11
        68  14  2.706586E+05  1.452776E+05 -6.451345E+03  1.975056E+05  4.872360E-10 -4.386911E-12
        68  15  2.732649E+05  1.406941E+05 -3.872298E+03  1.955976E+05 -2.132428E-10 -6.333598E-11
        68  16  3.501260E+05  1.985534E+05  1.434127E+04  2.453820E+05  4.127850E-11 -1.096950E-10
        68  17  3.436136E+05  1.996218E+05  1.715075E+04  2.349045E+05 -3.171648E-10 -1.316638E-10
        68  18  3.382301E+05  1.839661E+05  1.605123E+04  2.265648E+05 -2.638741E-10 -3.520345E-11
        68  19  1.874843E+05  6.696493E+04 -4.325354E+04  1.577274E+05  1.121805E+04  6.705019E+03
        68  20  1.977092E+05  9.093649E+04 -3.005407E+04  1.601115E+05  8.355381E+03  1.134889E+03
        68  21  2.083038E+05  9.742386E+04 -2.379642E+04  1.646338E+05  3.673219E+03 -2.009381E+03
        68  22  2.688017E+05  1.327567E+05 -1.445563E+04  2.015513E+05  8.767165E+03  4.867105E+03
        68  23  2.706587E+05  1.452776E+05 -6.451235E+03  1.975056E+05  7.651312E+03  6.069920E+02
        68  24  2.732649E+05  1.406941E+05 -3.872254E+03  1.955976E+05  4.716206E+03 -1.227290E+03
        68  25  3.501261E+05  1.985535E+05  1.434136E+04  2.453820E+05  6.315843E+03  3.028803E+03
        68  26  3.436137E+05  1.996218E+05  1.715084E+04  2.349045E+05  6.947131E+03  7.900607E+01
        68  27  3.382301E+05  1.839661E+05  1.605129E+04  2.265648E+05  5.759336E+03 -4.450999E+02
        69   1  2.209433E+05  1.023806E+05 -1.970654E+04  1.704974E+05 -3.487669E+03  1.152270E+03
        69   2  2.285172E+05  1.150757E+05 -1.462683E+04  1.768687E+05 -2.408544E+03  1.230676E+03
        69   3  2.432160E+05  1.192919E+05 -1.038675E+04  1.812877E+05 -1.240092E+03  1.189900E+03
        69   4  2.731970E+05  1.399668E+05 -3.100919E+03  1.966752E+05 -3.781794E+03  9.317076E+02
        69   5  2.697934E+05  1.444960E+05 -1.585624E+03  1.974273E+05 -2.788453E+03  9.458176E+02
        69   6  2.735332E+05  1.405649E+05 -8.354927E+02  1.962268E+05 -1.705803E+03  8.407371E+02
        69   7  3.254536E+05  1.775545E+05  1.350436E+04  2.228555E+05 -4.075952E+03  7.111194E+02
        69   8  3.110716E+05  1.739174E+05  1.145543E+04  2.179875E+05 -3.168397E+03  6.609322E+02
        69   9  3.038517E+05  1.618384E+05  8.715731E+03  2.111669E+05 -2.171548E+03  4.915489E+02
        69  10  2.209433E+05  1.023805E+05 -1.970657E+04  1.704974E+05 -1.375574E-10 -7.097819E-11
        69  11  2.285171E+05  1.150757E+05 -1.462684E+04  1.768687E+05 -3.682101E-11 -2.465894E-10
        69  12  2.432160E+05  1.192919E+05 -1.038675E+04  1.812877E+05 -8.593634E-11 -1.534089E-10
        69  13  2.731970E+05  1.399668E+05 -3.100948E+03  1.966752E+05 -1.894646E-10 -9.612374E-11
        69  14  2.697934E+05  1.444960E+05 -1.585640E+03  1.974273E+05  1.365583E-09 -2.573754E-10
        69  15  2.735332E+05  1.405649E+05 -8.354995E+02  1.962268E+05  2.613142E-10  2.649276E-11
        69  16  3.254536E+05  1.775545E+05  1.350433E+04  2.228555E+05 -3.000014E-11 -1.086354E-10
        69  17  3.110716E+05  1.739174E+05  1.145541E+04  2.179875E+05  3.631590E-10 -1.000841E-11
        69  18  3.038517E+05  1.618384E+05  8.715721E+03  2.111669E+05  2.544368E-10  2.007123E-10
        69  19  2.209433E+05  1.023806E+05 -1.970654E+04  1.704974E+05  3.487669E+03 -1.152270E+03
        69  20  2.285172E+05  1.150757E+05 -1.462683E+04  1.768687E+05  2.408544E+03 -1.230676E+03
        69  21  2.432160E+05  1.192919E+05 -1.038675E+04  1.812877E+05  1.240092E+03 -1.189900E+03
        69  22  2.731970E+05  1.399668E+05 -3.100919E+03  1.966752E+05  3.781794E+03 -9.317076E+02
        69  23  2.697934E+05  1.444960E+05 -1.585624E+03  1.974273E+05  2.788453E+03 -9.458176E+02
        69  24  2.735332E+05  1.405649E+05 -8.354927E+02  1.962268E+05  1.705803E+03 -8.407371E+02
        69  25  3.254536E+05  1.775545E+05  1.350436E+04  2.228555E+05  4.075952E+03 -7.111194E+02
        69  26  3.110716E+05  1.739174E+05  1.145543E+04  2.179875E+05  3.168397E+03 -6.609322E+02
        69  27  3.038517E+05  1.618384E+05  8.715731E+03  2.111669E+05  2.171548E+03 -4.915489E+02
        70   1  2.540626E+05  1.267093E+05 -6.670778E+03  1.866459E+05 -9.022046E+02  8.702634E+02
        70   2  2.613945E+05  1.385254E+05 -2.736001E+03  1.932896E+05 -4.075202E+02  3.082440E+02
        70   3  2.764123E+05  1.426215E+05  1.155225E+03  1.976881E+05  8.780589E+01 -2.546640E+02
        70   4  2.735356E+05  1.405189E+05 -5.735213E+02  1.963200E+05 -1.332100E+03  5.479629E+02
        70   5  2.697131E+05  1.444154E+05 -1.162945E+02  1.974151E+05 -8.380478E+02 -1.452256E+01
        70   6  2.735768E+05  1.405921E+05  2.980085E+02  1.962649E+05 -3.433543E+02 -5.778978E+02
        70   7  2.930089E+05  1.543285E+05  5.523638E+03  2.059943E+05 -1.762011E+03  2.256512E+02
        70   8  2.780318E+05  1.503054E+05  2.503393E+03  2.015406E+05 -1.268582E+03 -3.372937E+02
        70   9  2.707412E+05  1.385628E+05 -5.592075E+02  1.948418E+05 -7.745118E+02 -9.011295E+02
        70  10  2.540626E+05  1.267093E+05 -6.670781E+03  1.866459E+05  3.322814E-10  1.496306E-10
        70  11  2.613945E+05  1.385254E+05 -2.736001E+03  1.932896E+05 -1.051917E-10  4.034372E-11
        70  12  2.764123E+05  1.426215E+05  1.155225E+03  1.976881E+05  1.517275E-11 -2.857443E-10
        70  13  2.735356E+05  1.405189E+05 -5.735252E+02  1.963200E+05  5.026238E-11 -3.663492E-11
        70  14  2.697131E+05  1.444154E+05 -1.162958E+02  1.974151E+05 -6.102299E-10  2.584378E-10
        70  15  2.735768E+05  1.405921E+05  2.980076E+02  1.962649E+05  3.828182E-10 -2.992251E-10
        70  16  2.930089E+05  1.543285E+05  5.523632E+03  2.059943E+05 -2.504885E-10 -1.098294E-11
        70  17  2.780318E+05  1.503054E+05  2.503389E+03  2.015406E+05  2.029271E-10 -2.683380E-10
        70  18  2.707412E+05  1.385628E+05 -5.592102E+02  1.948418E+05 -5.342293E-10 -3.460644E-10
        70  19  2.540626E+05  1.267093E+05 -6.670778E+03  1.866459E+05  9.022046E+02 -8.702634E+02
        70  20  2.613945E+05  1.385254E+05 -2.736001E+03  1.932896E+05  4.075202E+02 -3.082440E+02
        70  21  2.764123E+05  1.426215E+05  1.155225E+03  1.976881E+05 -8.780589E+01  2.546640E+02
        70  22  2.735356E+05  1.405189E+05 -5.735213E+02  1.963200E+05  1.332100E+03 -5.479629E+02
        70  23  2.697131E+05  1.444154E+05 -1.162945E+02  1.974151E+05  8.380478E+02  1.452256E+01
        70  24  2.735768E+05  1.405921E+05  2.980085E+02  1.962649E+05  3.433543E+02  5.778978E+02
        70  25  2.930089E+05  1.543285E+05  5.523638E+03  2.059943E+05  1.762011E+03 -2.256512E+02
        70  26  2.780318E+05  1.503054E+05  2.503393E+03  2.015406E+05  1.268582E+03  3.372937E+02
        70  27  2.707412E+05  1.385628E+05 -5.592075E+02  1.948418E+05  7.745118E+02  9.011295E+02
        71   1  2.870138E+05  1.502759E+05  4.822875E+03  2.030862E+05  3.326846E+02 -6.396962E+02
        71   2  2.943961E+05  1.618420E+05  8.884915E+03  2.096624E+05  2.612651E+02 -1.614104E+03
        71   3  3.099071E+05  1.662531E+05  1.354246E+04  2.137730E+05  1.169511E+02 -2.491258E+03
        71   4  2.735825E+05  1.405555E+05  5.143991E+02  1.963350E+05 -1.270099E+02 -9.843265E+02
        71   5  2.696465E+05  1.443557E+05  1.092692E+03  1.974064E+05 -1.283480E+02 -1.906212E+03
        71   6  2.738240E+05  1.409856E+05  2.205721E+03  1.960120E+05 -2.025680E+02 -2.730827E+03
        71   7  2.601512E+05  1.308351E+05 -3.794133E+03  1.895839E+05 -5.866943E+02 -1.328949E+03
        71   8  2.448976E+05  1.268697E+05 -6.699605E+03  1.851509E+05 -5.179401E+02 -2.198305E+03
        71   9  2.377425E+05  1.157190E+05 -9.131088E+03  1.782523E+05 -5.220595E+02 -2.970376E+03
        71  10  2.870138E+05  1.502759E+05  4.822874E+03  2.030862E+05  4.450799E-10 -6.366758E-10
        71  11  2.943961E+05  1.618420E+05  8.884910E+03  2.096624E+05  3.602143E-10 -1.127080E-10
        71  12  3.099071E+05  1.662531E+05  1.354245E+04  2.137730E+05  1.000400E-10  2.971688E-10
        71  13  2.735825E+05  1.405555E+05  5.143973E+02  1.963350E+05 -1.013171E-10 -2.072044E-10
        71  14  2.696465E+05  1.443557E+05  1.092686E+03  1.974064E+05 -2.763514E-10  3.366974E-10
        71  15  2.738240E+05  1.409856E+05  2.205707E+03  1.960120E+05  1.975275E-10 -5.716111E-11
        71  16  2.601512E+05  1.308351E+05 -3.794137E+03  1.895839E+05 -6.502270E-11  1.724993E-10
        71  17  2.448976E+05  1.268697E+05 -6.699615E+03  1.851509E+05  3.441219E-10  1.722615E-10
        71  18  2.377425E+05  1.157190E+05 -9.131105E+03  1.782523E+05 -3.207607E-11 -6.117923E-11
        71  19  2.870138E+05  1.502759E+05  4.822875E+03  2.030862E+05 -3.326846E+02  6.396962E+02
        71  20  2.943961E+05  1.618420E+05  8.884915E+03  2.096624E+05 -2.612651E+02  1.614104E+03
        71  21  3.099071E+05  1.662531E+05  1.354246E+04  2.137730E+05 -1.169511E+02  2.491258E+03
        71  22  2.735825E+05  1.405555E+05  5.143991E+02  1.963350E+05  1.270099E+02  9.843265E+02
        71  23  2.696465E+05  1.443557E+05  1.092692E+03  1.974064E+05  1.283480E+02  1.906212E+03
        71  24  2.738240E+05  1.409856E+05  2.205721E+03  1.960120E+05  2.025680E+02  2.730827E+03
        71  25  2.601512E+05  1.308351E+05 -3.794133E+03  1.895839E+05  5.866943E+02  1.328949E+03
        71  26  2.448976E+05  1.268697E+05 -6.699605E+03  1.851509E+05  5.179401E+02  2.198305E+03
        71  27  2.377425E+05  1.157190E+05 -9.131088E+03  1.782523E+05  5.220595E+02  2.970376E+03
        72   1  3.191645E+05  1.747716E+05  1.744471E+04  2.203044E+05  8.408686E+02 -2.861779E+03
        72   2  3.278466E+05  1.836888E+05  2.294604E+04  2.256979E+05 -2.341688E+03 -5.719751E+03
        72   3  3.494627E+05  1.920807E+05  3.359065E+04  2.257145E+05 -7.008394E+03 -6.598727E+03
        72   4  2.737536E+05  1.404853E+05  2.769025E+03  1.967960E+05 -8.949042E+01 -3.559342E+03
        72   5  2.690472E+05  1.437596E+05  4.635547E+03  1.973412E+05 -1.845953E+03 -5.348089E+03
        72   6  2.769657E+05  1.461999E+05  1.040859E+04  1.925093E+05 -5.086541E+03 -5.157673E+03
        72   7  2.283448E+05  1.062002E+05 -1.190692E+04  1.732896E+05 -1.019758E+03 -4.256830E+03
        72   8  2.102512E+05  1.038318E+05 -1.367545E+04  1.689874E+05 -1.350281E+03 -4.976471E+03
        72   9  2.044738E+05  1.003207E+05 -1.277428E+04  1.593079E+05 -3.164983E+03 -3.716806E+03
        72  10  3.191645E+05  1.747716E+05  1.744469E+04  2.203044E+05 -2.114173E-10  3.506354E-10
        72  11  3.278466E+05  1.836888E+05  2.294597E+04  2.256979E+05  5.970625E-10  3.094955E-10
        72  12  3.494626E+05  1.920807E+05  3.359048E+04  2.257144E+05  6.615845E-10  2.495037E-10
        72  13  2.737536E+05  1.404853E+05  2.769001E+03  1.967960E+05  4.713048E-10  1.194933E-10
        72  14  2.690471E+05  1.437595E+05  4.635487E+03  1.973412E+05  6.060428E-10  1.657326E-10
        72  15  2.769657E+05  1.461998E+05  1.040849E+04  1.925092E+05 -1.101600E-10  7.405979E-11
        72  16  2.283448E+05  1.062002E+05 -1.190696E+04  1.732895E+05  3.099959E-10 -3.735894E-11
        72  17  2.102511E+05  1.038318E+05 -1.367550E+04  1.689874E+05 -1.348066E-12  1.532086E-10
        72  18  2.044737E+05  1.003207E+05 -1.277432E+04  1.593079E+05 -2.695233E-10 -4.979117E-11
        72  19  3.191645E+05  1.747716E+05  1.744471E+04  2.203044E+05 -8.408686E+02  2.861779E+03
        72  20  3.278466E+05  1.836888E+05  2.294604E+04  2.256979E+05  2.341688E+03  5.719751E+03
        72  21  3.494627E+05  1.920807E+05  3.359065E+04  2.257145E+05  7.008394E+03  6.598727E+03
        72  22  2.737536E+05  1.404853E+05  2.769025E+03  1.967960E+05  8.949042E+01  3.559342E+03
        72  23  2.690472E+05  1.437596E+05  4.635547E+03  1.973412E+05  1.845953E+03  5.348089E+03
        72  24  2.769657E+05  1.461999E+05  1.040859E+04  1.925093E+05  5.086541E+03  5.157673E+03
        72  25  2.283448E+05  1.062002E+05 -1.190692E+04  1.732896E+05  1.019758E+03  4.256830E+03
        72  26  2.102512E+05  1.038318E+05 -1.367545E+04  1.689874E+05  1.350281E+03  4.976471E+03
        72  27  2.044738E+05  1.003207E+05 -1.277428E+04  1.593079E+05  3.164983E+03  3.716806E+03
        73   1  2.953960E+05 -7.014407E+03 -8.602385E+03 -2.870564E+03 -6.055190E+03  2.798476E-02
        73   2  2.964739E+05  4.824691E+02 -3.728185E+03 -9.145568E+02 -4.057571E+03  5.974520E-03
        73   3  2.953949E+05  3.907154E+02 -2.051227E+03  1.041483E+03 -2.059924E+03 -3.454065E-03
        73   4  2.953960E+05 -7.014423E+03 -8.602387E+03  2.981714E-10 -6.055190E+03 -7.375908E-11
        73   5  2.964739E+05  4.824676E+02 -3.728185E+03  9.920871E-10 -4.057571E+03 -1.895602E-10
        73   6  2.953949E+05  3.907133E+02 -2.051228E+03  1.345109E-10 -2.059924E+03 -1.269743E-11
        73   7  2.953960E+05 -7.014407E+03 -8.602385E+03  2.870564E+03 -6.055190E+03 -2.798476E-02
        73   8  2.964739E+05  4.824691E+02 -3.728185E+03  9.145568E+02 -4.057571E+03 -5.974521E-03
        73   9  2.953949E+05  3.907154E+02 -2.051227E+03 -1.041483E+03 -2.059924E+03  3.454065E-03
        73  10  2.953960E+05 -7.014417E+03 -8.602454E+03 -2.870564E+03  5.121264E-11 -1.726290E-11
        73  11  2.964739E+05  4.824647E+02 -3.728216E+03 -9.145568E+02  6.446053E-10 -2.198310E-11
        73  12  2.953949E+05  3.907142E+02 -2.051235E+03  1.041483E+03  4.339403E-10 -3.501758E-11
        73  13  2.953960E+05 -7.014432E+03 -8.602456E+03  1.896726E-09  6.206730E-10 -5.546489E-11
        73  14  2.964739E+05  4.824632E+02 -3.728216E+03 -6.141028E-10 -4.311770E-10 -9.845659E-11
        73  15  2.953949E+05  3.907122E+02 -2.051236E+03  1.185586E-09  1.821393E-10  1.014898E-10
        73  16  2.953960E+05 -7.014417E+03 -8.602454E+03  2.870564E+03 -4.014387E-10 -1.236842E-10
        73  17  2.964739E+05  4.824647E+02 -3.728216E+03  9.145568E+02  6.336067E-10 -1.498489E-10
        73  18  2.953949E+05  3.907142E+02 -2.051235E+03 -1.041483E+03  5.460741E-10  2.167268E-10
        73  19  2.953960E+05 -7.014407E+03 -8.602385E+03 -2.870564E+03  6.055190E+03 -2.798476E-02
        73  20  2.964739E+05  4.824691E+02 -3.728185E+03 -9.145568E+02  4.057571E+03 -5.974520E-03
        73  21  2.953949E+05  3.907154E+02 -2.051227E+03  1.041483E+03  2.059924E+03  3.454065E-03
        73  22  2.953960E+05 -7.014423E+03 -8.602387E+03  7.943784E-10  6.055190E+03 -3.951646E-11
        73  23  2.964739E+05  4.824676E+02 -3.728185E+03 -1.679373E-09  4.057571E+03 -6.310047E-12
        73  24  2.953949E+05  3.907133E+02 -2.051228E+03 -1.864536E-09  2.059924E+03  2.061897E-10
        73  25  2.953960E+05 -7.014407E+03 -8.602385E+03  2.870564E+03  6.055190E+03  2.798476E-02
        73  26  2.964739E+05  4.824691E+02 -3.728185E+03  9.145568E+02  4.057571E+03  5.974520E-03
        73  27  2.953949E+05  3.907154E+02 -2.051227E+03 -1.041483E+03  2.059924E+03 -3.454065E-03
        74   1  2.958442E+05 -5.312424E+02 -1.497143E+03 -1.514194E+02 -1.774682E+03  4.326421E-04
        74   2  2.959121E+05  2.998570E+01 -3.138808E+02 -3.522288E+01 -1.610206E+03  9.131339E-05
        74   3  2.958440E+05  1.324641E+02  6.476518E+02  8.097355E+01 -1.445729E+03 -1.884767E-04
        74   4  2.958442E+05 -5.312425E+02 -1.497143E+03 -1.279090E-09 -1.774682E+03  2.256112E-10
        74   5  2.959121E+05  2.998570E+01 -3.138808E+02  2.646056E-10 -1.610206E+03  2.492299E-10
        74   6  2.958440E+05  1.324641E+02  6.476518E+02 -1.288894E-09 -1.445729E+03 -2.573008E-10
        74   7  2.958442E+05 -5.312424E+02 -1.497143E+03  1.514194E+02 -1.774682E+03 -4.326417E-04
        74   8  2.959121E+05  2.998570E+01 -3.138808E+02  3.522288E+01 -1.610206E+03 -9.131275E-05
        74   9  2.958440E+05  1.324641E+02  6.476518E+02 -8.097355E+01 -1.445729E+03  1.884761E-04
        74  10  2.958442E+05 -5.312433E+02 -1.497149E+03 -1.514194E+02 -1.084663E-10  1.677143E-11
        74  11  2.959121E+05  2.998500E+01 -3.138857E+02 -3.522288E+01 -1.563011E-10  4.067031E-11
        74  12  2.958440E+05  1.324635E+02  6.476478E+02  8.097355E+01  1.985760E-10 -8.780834E-11
        74  13  2.958442E+05 -5.312433E+02 -1.497149E+03  1.939858E-09  3.678153E-10  1.691830E-10
        74  14  2.959121E+05  2.998500E+01 -3.138857E+02  5.202058E-10  5.601392E-10  5.495161E-11
        74  15  2.958440E+05  1.324635E+02  6.476478E+02 -3.591149E-09  2.675061E-10 -4.173131E-11
        74  16  2.958442E+05 -5.312433E+02 -1.497149E+03  1.514194E+02  4.236465E-11  3.138749E-10
        74  17  2.959121E+05  2.998500E+01 -3.138857E+02  3.522288E+01  1.820972E-10  6.916050E-11
        74  18  2.958440E+05  1.324635E+02  6.476478E+02 -8.097355E+01  6.710038E-11 -1.154748E-11
        74  19  2.958442E+05 -5.312424E+02 -1.497143E+03 -1.514194E+02  1.774682E+03 -4.326421E-04
        74  20  2.959121E+05  2.998570E+01 -3.138808E+02 -3.522288E+01  1.610206E+03 -9.131329E-05
        74  21  2.958440E+05  1.324641E+02  6.476518E+02  8.097355E+01  1.445729E+03  1.884765E-04
        74  22  2.958442E+05 -5.312425E+02 -1.497143E+03  3.063202E-10  1.774682E+03  1.106356E-10
        74  23  2.959121E+05  2.998570E+01 -3.138808E+02  1.852119E-09  1.610206E+03 -1.309220E-10
        74  24  2.958440E+05  1.324641E+02  6.476518E+02 -3.533298E-09  1.445729E+03  1.838916E-10
        74  25  2.958442E+05 -5.312424E+02 -1.497143E+03  1.514194E+02  1.774682E+03  4.326422E-04
        74  26  2.959121E+05  2.998570E+01 -3.138808E+02  3.522288E+01  1.610206E+03  9.131302E-05
        74  27  2.958440E+05  1.324641E+02  6.476518E+02 -8.097355E+01  1.445729E+03 -1.884762E-04
        75   1  2.959974E+05 -1.198801E+02  1.144542E+03  2.437408E+02 -1.603400E+03 -6.292120E-04
        75   2  2.957201E+05 -1.151658E+02  2.485358E+03 -1.188753E+02 -2.863103E+03  5.479685E-04
        75   3  2.959970E+05  1.450708E+03  5.036309E+03 -4.814858E+02 -4.122789E+03  3.195960E-03
        75   4  2.959974E+05 -1.198802E+02  1.144542E+03 -1.846364E-09 -1.603400E+03 -3.608010E-10
        75   5  2.957201E+05 -1.151658E+02  2.485358E+03 -1.891829E-09 -2.863103E+03  6.520083E-12
        75   6  2.959970E+05  1.450707E+03  5.036309E+03  4.159709E-10 -4.122789E+03  3.276535E-11
        75   7  2.959974E+05 -1.198801E+02  1.144542E+03 -2.437408E+02 -1.603400E+03  6.292113E-04
        75   8  2.957201E+05 -1.151658E+02  2.485358E+03  1.188753E+02 -2.863103E+03 -5.479685E-04
        75   9  2.959970E+05  1.450708E+03  5.036309E+03  4.814858E+02 -4.122789E+03 -3.195960E-03
        75  10  2.959974E+05 -1.198808E+02  1.144537E+03  2.437408E+02  4.233373E-10 -4.490527E-11
        75  11  2.957201E+05 -1.151680E+02  2.485342E+03 -1.188753E+02 -3.947848E-10  6.581347E-11
        75  12  2.959970E+05  1.450703E+03  5.036277E+03 -4.814858E+02  3.859044E-10 -8.537613E-11
        75  13  2.959974E+05 -1.198809E+02  1.144537E+03 -1.823484E-09 -1.109036E-10 -3.051882E-11
        75  14  2.957201E+05 -1.151680E+02  2.485342E+03 -5.444007E-10 -1.384751E-29  3.158651E-11
        75  15  2.959970E+05  1.450703E+03  5.036277E+03 -7.442292E-10  1.063752E-10 -1.268768E-11
        75  16  2.959974E+05 -1.198808E+02  1.144537E+03 -2.437408E+02 -2.273735E-11 -1.550878E-11
        75  17  2.957201E+05 -1.151680E+02  2.485342E+03  1.188753E+02  2.499832E-10 -1.222484E-11
        75  18  2.959970E+05  1.450703E+03  5.036277E+03  4.814858E+02 -9.386402E-11  7.851035E-11
        75  19  2.959974E+05 -1.198801E+02  1.144542E+03  2.437408E+02  1.603400E+03  6.292118E-04
        75  20  2.957201E+05 -1.151658E+02  2.485358E+03 -1.188753E+02  2.863103E+03 -5.479684E-04
        75  21  2.959970E+05  1.450708E+03  5.036309E+03 -4.814858E+02  4.122789E+03 -3.195961E-03
        75  22  2.959974E+05 -1.198802E+02  1.144542E+03 -3.964800E-09  1.603400E+03  3.064719E-10
        75  23  2.957201E+05 -1.151658E+02  2.485358E+03  2.687955E-09  2.863103E+03  6.247840E-11
        75  24  2.959970E+05  1.450707E+03  5.036309E+03  1.467036E-09  4.122789E+03 -5.597878E-11
        75  25  2.959974E+05 -1.198801E+02  1.144542E+03 -2.437408E+02  1.603400E+03 -6.292112E-04
        75  26  2.957201E+05 -1.151658E+02  2.485358E+03  1.188753E+02  2.863103E+03  5.479686E-04
        75  27  2.959970E+05  1.450708E+03  5.036309E+03  4.814858E+02  4.122789E+03  3.195960E-03
        76   1  2.972031E+05 -1.064531E+03  6.325695E+03  2.857469E+03 -5.051108E+03 -2.323775E-02
        76   2  2.942121E+05 -1.335814E+03  1.059978E+04 -2.540469E+03 -1.071788E+04  4.383801E-02
        76   3  2.972002E+05  1.936186E+04  2.380416E+04 -7.938518E+03 -1.638473E+04  2.094140E-01
        76   4  2.972031E+05 -1.064547E+03  6.325693E+03  1.580541E-09 -5.051108E+03 -2.449594E-11
        76   5  2.942121E+05 -1.335826E+03  1.059978E+04  3.327878E-09 -1.071788E+04 -5.689027E-11
        76   6  2.972001E+05  1.936174E+04  2.380415E+04 -9.818682E-10 -1.638473E+04  1.188302E-11
        76   7  2.972031E+05 -1.064531E+03  6.325695E+03 -2.857469E+03 -5.051108E+03  2.323775E-02
        76   8  2.942121E+05 -1.335814E+03  1.059978E+04  2.540469E+03 -1.071788E+04 -4.383801E-02
        76   9  2.972002E+05  1.936186E+04  2.380416E+04  7.938518E+03 -1.638473E+04 -2.094140E-01
        76  10  2.972031E+05 -1.064538E+03  6.325647E+03  2.857469E+03  1.445071E-10 -1.425659E-10
        76  11  2.942120E+05 -1.335844E+03  1.059956E+04 -2.540469E+03  4.470932E-10  1.425500E-11
        76  12  2.971999E+05  1.936179E+04  2.380366E+04 -7.938518E+03 -3.840266E-11  2.675695E-11
        76  13  2.972031E+05 -1.064553E+03  6.325645E+03  1.044359E-09  2.861090E-10 -4.676209E-11
        76  14  2.942120E+05 -1.335857E+03  1.059956E+04  3.869581E-09  8.181259E-11 -4.094852E-11
        76  15  2.971999E+05  1.936167E+04  2.380364E+04 -1.923550E-09  1.819723E-10 -1.515767E-11
        76  16  2.972031E+05 -1.064538E+03  6.325647E+03 -2.857469E+03 -6.344441E-10  2.695233E-11
        76  17  2.942120E+05 -1.335844E+03  1.059956E+04  2.540469E+03 -4.854266E-10 -8.426832E-11
        76  18  2.971999E+05  1.936179E+04  2.380366E+04  7.938518E+03  5.387257E-12 -4.008590E-11
        76  19  2.972031E+05 -1.064531E+03  6.325695E+03  2.857469E+03  5.051108E+03  2.323775E-02
        76  20  2.942121E+05 -1.335814E+03  1.059978E+04 -2.540469E+03  1.071788E+04 -4.383801E-02
        76  21  2.972002E+05  1.936186E+04  2.380416E+04 -7.938518E+03  1.638473E+04 -2.094140E-01
        76  22  2.972031E+05 -1.064547E+03  6.325693E+03 -1.111944E-09  5.051108E+03 -6.909450E-11
        76  23  2.942121E+05 -1.335826E+03  1.059978E+04 -1.245310E-09  1.071788E+04 -3.455172E-11
        76  24  2.972001E+05  1.936174E+04  2.380415E+04 -2.591221E-09  1.638473E+04 -3.917253E-11
        76  25  2.972031E+05 -1.064531E+03  6.325695E+03 -2.857469E+03  5.051108E+03 -2.323775E-02
        76  26  2.942121E+05 -1.335814E+03  1.059978E+04  2.540469E+03  1.071788E+04  4.383801E-02
        76  27  2.972002E+05  1.936186E+04  2.380416E+04  7.938518E+03  1.638473E+04  2.094140E-01
        77   1 -8.221258E+04 -1.541433E+05 -1.017389E+05  3.099160E+04 -1.578696E+01 -6.751296E+04
        77   2  5.075900E+03 -1.466761E+05 -4.853543E+04  9.231693E+03 -1.363229E+02 -4.209453E+04
        77   3  2.034600E+03 -1.651018E+05 -3.446370E+04 -1.539619E+04 -3.833105E+02 -1.667611E+04
        77   4 -8.287110E+04 -1.567661E+05 -1.024006E+05 -3.148223E+03 -1.207381E+01 -6.746897E+04
        77   5  5.780027E+03 -1.438086E+05 -4.788207E+04 -1.714538E+03 -1.355809E+02 -4.196101E+04
        77   6  4.083912E+03 -1.567610E+05 -3.255793E+04 -3.148067E+03 -3.836399E+02 -1.645283E+04
        77   7 -8.352523E+04 -1.593865E+05 -1.030617E+05 -3.728790E+04 -8.365481E+00 -6.742498E+04
        77   8  6.484605E+03 -1.409409E+05 -4.722865E+04 -1.266082E+04 -1.348436E+02 -4.182748E+04
        77   9  6.133783E+03 -1.484197E+05 -3.065208E+04  9.100216E+03 -3.839605E+02 -1.622954E+04
        77  10 -8.221381E+04 -1.541482E+05 -1.017475E+05  3.099160E+04 -2.494873E-11 -3.137020E-10
        77  11  5.075424E+03 -1.466780E+05 -4.853876E+04  9.231688E+03 -2.334926E-10 -7.809025E-11
        77  12  2.034525E+03 -1.651021E+05 -3.446422E+04 -1.539619E+04 -1.631512E-10  8.745890E-11
        77  13 -8.287232E+04 -1.567710E+05 -1.024091E+05 -3.148223E+03  1.427699E-10  1.158717E-13
        77  14  5.779554E+03 -1.438105E+05 -4.788538E+04 -1.714543E+03 -3.045126E-10 -1.710830E-12
        77  15  4.083839E+03 -1.567613E+05 -3.255844E+04 -3.148072E+03 -1.054641E-09  2.605852E-12
        77  16 -8.352645E+04 -1.593914E+05 -1.030702E+05 -3.728791E+04 -5.298683E-10  3.143778E-10
        77  17  6.484135E+03 -1.409428E+05 -4.723194E+04 -1.266082E+04 -1.255932E-10  8.516304E-11
        77  18  6.133712E+03 -1.484200E+05 -3.065258E+04  9.100211E+03 -5.991591E-10 -8.231410E-11
        77  19 -8.221258E+04 -1.541433E+05 -1.017389E+05  3.099160E+04  1.578696E+01  6.751296E+04
        77  20  5.075900E+03 -1.466761E+05 -4.853543E+04  9.231693E+03  1.363229E+02  4.209453E+04
        77  21  2.034600E+03 -1.651018E+05 -3.446370E+04 -1.539619E+04  3.833105E+02  1.667611E+04
        77  22 -8.287110E+04 -1.567661E+05 -1.024006E+05 -3.148223E+03  1.207381E+01  6.746897E+04
        77  23  5.780027E+03 -1.438086E+05 -4.788207E+04 -1.714538E+03  1.355809E+02  4.196101E+04
        77  24  4.083912E+03 -1.567610E+05 -3.255793E+04 -3.148067E+03  3.836399E+02  1.645283E+04
        77  25 -8.352523E+04 -1.593865E+05 -1.030617E+05 -3.728790E+04  8.365481E+00  6.742498E+04
        77  26  6.484605E+03 -1.409409E+05 -4.722865E+04 -1.266082E+04  1.348436E+02  4.182748E+04
        77  27  6.133783E+03 -1.484197E+05 -3.065208E+04  9.100216E+03  3.839605E+02  1.622954E+04
        78   1 -9.176957E+03 -1.657288E+05 -3.205130E+04  7.683228E+01 -5.621773E+02 -1.155277E+04
        78   2 -3.636637E+03 -1.686552E+05 -2.806337E+04 -1.743155E+03 -8.172530E+02  4.648717E+02
        78   3 -1.223633E+04 -1.766816E+05 -3.543533E+04 -6.430793E+03 -1.026421E+03  1.248241E+04
        78   4 -5.831017E+03 -1.521366E+05 -2.891611E+04 -3.148170E+03 -5.621165E+02 -1.135274E+04
        78   5  1.054011E+03 -1.495896E+05 -2.367914E+04 -1.714314E+03 -8.172498E+02  6.320432E+02
        78   6 -6.195070E+03 -1.521367E+05 -2.977904E+04 -3.148132E+03 -1.026350E+03  1.261683E+04
        78   7 -2.485050E+03 -1.385442E+05 -2.578092E+04 -6.373243E+03 -5.620578E+02 -1.115270E+04
        78   8  5.744633E+03 -1.305236E+05 -1.929493E+04 -1.685472E+03 -8.172465E+02  7.992197E+02
        78   9 -1.538114E+02 -1.275911E+05 -2.412278E+04  1.346602E+02 -1.026278E+03  1.275125E+04
        78  10 -9.176993E+03 -1.657289E+05 -3.205155E+04  7.682705E+01  4.007384E-12 -9.129638E-11
        78  11 -3.636637E+03 -1.686552E+05 -2.806337E+04 -1.743155E+03  8.234913E-11  8.072118E-11
        78  12 -1.223637E+04 -1.766818E+05 -3.543563E+04 -6.430783E+03 -3.321642E-10  1.344020E-10
        78  13 -5.831052E+03 -1.521367E+05 -2.891635E+04 -3.148175E+03 -1.394130E-10  9.084424E-12
        78  14  1.054010E+03 -1.495896E+05 -2.367914E+04 -1.714313E+03 -4.520847E-10  2.584766E-11
        78  15 -6.195114E+03 -1.521368E+05 -2.977934E+04 -3.148122E+03 -3.496645E-10  4.986258E-11
        78  16 -2.485083E+03 -1.385443E+05 -2.578116E+04 -6.373248E+03 -1.305535E-10  9.521339E-11
        78  17  5.744632E+03 -1.305236E+05 -1.929493E+04 -1.685471E+03 -9.439200E-11 -6.801735E-11
        78  18 -1.538562E+02 -1.275913E+05 -2.412309E+04  1.346707E+02 -3.567936E-10 -1.645630E-10
        78  19 -9.176957E+03 -1.657288E+05 -3.205130E+04  7.683228E+01  5.621773E+02  1.155277E+04
        78  20 -3.636637E+03 -1.686552E+05 -2.806337E+04 -1.743155E+03  8.172530E+02 -4.648717E+02
        78  21 -1.223633E+04 -1.766816E+05 -3.543533E+04 -6.430793E+03  1.026421E+03 -1.248241E+04
        78  22 -5.831017E+03 -1.521366E+05 -2.891611E+04 -3.148170E+03  5.621165E+02  1.135274E+04
        78  23  1.054011E+03 -1.495896E+05 -2.367914E+04 -1.714314E+03  8.172498E+02 -6.320432E+02
        78  24 -6.195070E+03 -1.521367E+05 -2.977904E+04 -3.148132E+03  1.026350E+03 -1.261683E+04
        78  25 -2.485050E+03 -1.385442E+05 -2.578092E+04 -6.373243E+03  5.620578E+02  1.115270E+04
        78  26  5.744633E+03 -1.305236E+05 -1.929493E+04 -1.685472E+03  8.172465E+02 -7.992197E+02
        78  27 -1.538114E+02 -1.275911E+05 -2.412278E+04  1.346602E+02  1.026278E+03 -1.275125E+04
        79   1 -2.968367E+03 -1.868780E+05 -4.065124E+04  9.785192E+03 -1.307035E+03  1.742966E+04
        79   2 -2.578461E+03 -1.786316E+05 -5.842814E+04 -1.327350E+04 -1.414822E+03  4.498369E+04
        79   3 -9.762343E+04 -1.978326E+05 -1.180042E+05 -3.915295E+04 -4.724896E+02  7.253717E+04
        79   4  4.360559E+03 -1.570735E+05 -3.381172E+04 -3.139132E+03 -1.307383E+03  1.788627E+04
        79   5  6.094611E+03 -1.434184E+05 -5.028644E+04 -1.726063E+03 -1.413991E+03  4.468416E+04
        79   6 -8.747421E+04 -1.570790E+05 -1.080338E+05 -3.134987E+03 -4.683333E+02  7.148177E+04
        79   7  1.169005E+04 -1.272678E+05 -2.697218E+04 -1.606408E+04 -1.307750E+03  1.834291E+04
        79   8  1.476810E+04 -1.082037E+05 -4.214475E+04  9.822037E+03 -1.413172E+03  4.438461E+04
        79   9 -7.732023E+04 -1.163211E+05 -9.806281E+04  3.288534E+04 -4.642997E+02  7.042631E+04
        79  10 -2.968450E+03 -1.868783E+05 -4.065181E+04  9.785211E+03 -2.827164E-10 -3.055460E-12
        79  11 -2.579007E+03 -1.786338E+05 -5.843194E+04 -1.327345E+04 -1.263755E-10  2.209140E-10
        79  12 -9.762484E+04 -1.978383E+05 -1.180140E+05 -3.915292E+04 -3.353469E-10  2.575957E-10
        79  13  4.360472E+03 -1.570738E+05 -3.381233E+04 -3.139113E+03 -6.912714E-10  3.066903E-11
        79  14  6.094073E+03 -1.434205E+05 -5.029020E+04 -1.726012E+03 -5.531697E-10  7.375795E-11
        79  15 -8.747558E+04 -1.570845E+05 -1.080434E+05 -3.134960E+03 -2.100871E-10  1.552700E-10
        79  16  1.168996E+04 -1.272682E+05 -2.697281E+04 -1.606406E+04 -2.756148E-10  7.165992E-12
        79  17  1.476757E+04 -1.082058E+05 -4.214846E+04  9.822088E+03  4.620485E-11 -1.947344E-10
        79  18 -7.732156E+04 -1.163264E+05 -9.807214E+04  3.288537E+04  2.158298E-10 -3.299048E-10
        79  19 -2.968367E+03 -1.868780E+05 -4.065124E+04  9.785192E+03  1.307035E+03 -1.742966E+04
        79  20 -2.578461E+03 -1.786316E+05 -5.842814E+04 -1.327350E+04  1.414822E+03 -4.498369E+04
        79  21 -9.762343E+04 -1.978326E+05 -1.180042E+05 -3.915295E+04  4.724896E+02 -7.253717E+04
        79  22  4.360559E+03 -1.570735E+05 -3.381172E+04 -3.139132E+03  1.307383E+03 -1.788627E+04
        79  23  6.094611E+03 -1.434184E+05 -5.028644E+04 -1.726063E+03  1.413991E+03 -4.468416E+04
        79  24 -8.747421E+04 -1.570790E+05 -1.080338E+05 -3.134987E+03  4.683333E+02 -7.148177E+04
        79  25  1.169005E+04 -1.272678E+05 -2.697218E+04 -1.606408E+04  1.307750E+03 -1.834291E+04
        79  26  1.476810E+04 -1.082037E+05 -4.214475E+04  9.822037E+03  1.413172E+03 -4.438461E+04
        79  27 -7.732023E+04 -1.163211E+05 -9.806281E+04  3.288534E+04  4.642997E+02 -7.042631E+04
        80   1  2.762378E+05  1.723999E+05  1.819064E+04  2.064907E+05  1.674149E+04  1.351850E+04
        80   2  2.732275E+05  1.492154E+05  1.689237E+03  2.189332E+05  1.022111E+04  1.061939E+04
        80   3  2.891008E+05  1.451627E+05 -2.863513E+03  2.202872E+05  4.677783E+03  6.417557E+03
        80   4  3.341566E+05  1.950164E+05  3.394459E+04  2.265769E+05  1.813045E+04  1.455970E+04
        80   5  3.193768E+05  1.760361E+05  1.521360E+04  2.391083E+05  1.067074E+04  1.095646E+04
        80   6  3.236832E+05  1.763897E+05  9.245187E+03  2.405516E+05  4.188182E+03  6.050451E+03
        80   7  3.920787E+05  2.176332E+05  4.969820E+04  2.466645E+05  1.951958E+04  1.560095E+04
        80   8  3.655282E+05  2.028575E+05  2.873769E+04  2.592848E+05  1.112040E+04  1.129355E+04
        80   9  3.582669E+05  2.076180E+05  2.135371E+04  2.608174E+05  3.698545E+03  5.683307E+03
        80  10  2.762375E+05  1.723996E+05  1.818977E+04  2.064906E+05 -1.760175E-11  1.004386E-11
        80  11  2.732273E+05  1.492152E+05  1.688829E+03  2.189331E+05  1.140723E-10  2.530991E-10
        80  12  2.891007E+05  1.451626E+05 -2.863631E+03  2.202872E+05 -7.368990E-11  1.973203E-10
        80  13  3.341562E+05  1.950161E+05  3.394358E+04  2.265767E+05  6.844081E-11  1.259155E-10
        80  14  3.193766E+05  1.760360E+05  1.521316E+04  2.391082E+05 -4.586023E-11 -3.930273E-11
        80  15  3.236832E+05  1.763897E+05  9.245085E+03  2.405516E+05 -6.702513E-10  8.681165E-11
        80  16  3.920782E+05  2.176328E+05  4.969703E+04  2.466643E+05  1.634401E-10  2.833429E-10
        80  17  3.655280E+05  2.028573E+05  2.873722E+04  2.592847E+05 -9.370913E-11  1.960666E-10
        80  18  3.582669E+05  2.076179E+05  2.135362E+04  2.608174E+05  2.418964E-10  8.653278E-11
        80  19  2.762378E+05  1.723999E+05  1.819064E+04  2.064907E+05 -1.674149E+04 -1.351850E+04
        80  20  2.732275E+05  1.492154E+05  1.689237E+03  2.189332E+05 -1.022111E+04 -1.061939E+04
        80  21  2.891008E+05  1.451627E+05 -2.863513E+03  2.202872E+05 -4.677783E+03 -6.417557E+03
        80  22  3.341566E+05  1.950164E+05  3.394459E+04  2.265769E+05 -1.813045E+04 -1.455970E+04
        80  23  3.193768E+05  1.760361E+05  1.521360E+04  2.391083E+05 -1.067074E+04 -1.095646E+04
        80  24  3.236832E+05  1.763897E+05  9.245187E+03  2.405516E+05 -4.188182E+03 -6.050451E+03
        80  25  3.920787E+05  2.176332E+05  4.969820E+04  2.466645E+05 -1.951958E+04 -1.560095E+04
        80  26  3.655282E+05  2.028575E+05  2.873769E+04  2.592848E+05 -1.112040E+04 -1.129355E+04
        80  27  3.582669E+05  2.076180E+05  2.135371E+04  2.608174E+05 -3.698545E+03 -5.683307E+03
        81   1  2.887675E+05  1.542805E+05 -3.395704E+03  2.211025E+05  3.391703E+03  5.006908E+03
        81   2  2.909501E+05  1.566267E+05 -5.432155E+03  2.243334E+05  1.893073E+03  3.643770E+03
        81   3  2.973857E+05  1.578459E+05 -5.583542E+03  2.260218E+05  4.422386E+02  2.216816E+03
        81   4  3.238829E+05  1.780582E+05  7.490974E+03  2.380123E+05  3.304563E+03  4.941542E+03
        81   5  3.213607E+05  1.779214E+05  4.103690E+03  2.393055E+05  1.759851E+03  3.543861E+03
        81   6  3.231013E+05  1.766674E+05  2.641307E+03  2.390562E+05  2.629626E+02  2.082383E+03
        81   7  3.589999E+05  2.018368E+05  1.837759E+04  2.549233E+05  3.217415E+03  4.876171E+03
        81   8  3.517723E+05  1.992165E+05  1.363942E+04  2.542784E+05  1.626621E+03  3.443945E+03
        81   9  3.488175E+05  1.954891E+05  1.086601E+04  2.520911E+05  8.367781E+01  1.947944E+03
        81  10  2.887675E+05  1.542804E+05 -3.395773E+03  2.211025E+05 -2.427296E-10  1.087660E-10
        81  11  2.909501E+05  1.566267E+05 -5.432187E+03  2.243334E+05  2.526335E-11 -1.051664E-10
        81  12  2.973857E+05  1.578459E+05 -5.583551E+03  2.260218E+05  8.493385E-10 -6.730668E-11
        81  13  3.238829E+05  1.780582E+05  7.490908E+03  2.380123E+05  9.397857E-10  2.817639E-11
        81  14  3.213607E+05  1.779214E+05  4.103661E+03  2.393055E+05 -2.850419E-10 -1.268078E-10
        81  15  3.231013E+05  1.766674E+05  2.641299E+03  2.390562E+05  5.237537E-10 -4.500126E-12
        81  16  3.589999E+05  2.018368E+05  1.837753E+04  2.549233E+05  3.424980E-10 -1.444947E-10
        81  17  3.517723E+05  1.992165E+05  1.363940E+04  2.542784E+05 -5.233953E-10 -1.352083E-10
        81  18  3.488175E+05  1.954891E+05  1.086600E+04  2.520911E+05 -6.968501E-10  1.729077E-10
        81  19  2.887675E+05  1.542805E+05 -3.395704E+03  2.211025E+05 -3.391703E+03 -5.006908E+03
        81  20  2.909501E+05  1.566267E+05 -5.432155E+03  2.243334E+05 -1.893073E+03 -3.643770E+03
        81  21  2.973857E+05  1.578459E+05 -5.583542E+03  2.260218E+05 -4.422386E+02 -2.216816E+03
        81  22  3.238829E+05  1.780582E+05  7.490974E+03  2.380123E+05 -3.304563E+03 -4.941542E+03
        81  23  3.213607E+05  1.779214E+05  4.103690E+03  2.393055E+05 -1.759851E+03 -3.543861E+03
        81  24  3.231013E+05  1.766674E+05  2.641307E+03  2.390562E+05 -2.629626E+02 -2.082383E+03
        81  25  3.589999E+05  2.018368E+05  1.837759E+04  2.549233E+05 -3.217415E+03 -4.876171E+03
        81  26  3.517723E+05  1.992165E+05  1.363942E+04  2.542784E+05 -1.626621E+03 -3.443945E+03
        81  27  3.488175E+05  1.954891E+05  1.086601E+04  2.520911E+05 -8.367781E+01 -1.947944E+03
        82   1  3.010086E+05  1.611732E+05 -4.693863E+03  2.279279E+05  1.816128E+02  1.803643E+03
        82   2  3.036531E+05  1.653751E+05 -3.808304E+03  2.304412E+05 -3.781759E+02  1.036963E+03
        82   3  3.094189E+05  1.669835E+05 -2.250120E+03  2.320538E+05 -9.364714E+02  2.682519E+02
        82   4  3.230948E+05  1.767789E+05  2.240908E+03  2.388692E+05  2.237668E+01  1.684240E+03
        82   5  3.215306E+05  1.780693E+05  1.827920E+03  2.393242E+05 -5.388945E+02  9.164524E+02
        82   6  3.230878E+05  1.767664E+05  2.088809E+03  2.388786E+05 -1.098669E+03  1.466363E+02
        82   7  3.451816E+05  1.923849E+05  9.175621E+03  2.498109E+05 -1.368672E+02  1.564831E+03
        82   8  3.394084E+05  1.907636E+05  7.464129E+03  2.482076E+05 -6.996202E+02  7.959368E+02
        82   9  3.367571E+05  1.865495E+05  6.427752E+03  2.457036E+05 -1.260872E+03  2.501606E+01
        82  10  3.010086E+05  1.611732E+05 -4.693870E+03  2.279279E+05  1.264441E-09  5.741505E-10
        82  11  3.036531E+05  1.653751E+05 -3.808306E+03  2.304412E+05 -2.544348E-09 -1.300035E-09
        82  12  3.094189E+05  1.669835E+05 -2.250122E+03  2.320538E+05 -2.873162E-09 -1.563377E-09
        82  13  3.230948E+05  1.767789E+05  2.240903E+03  2.388692E+05 -8.661501E-10 -5.387809E-10
        82  14  3.215306E+05  1.780693E+05  1.827918E+03  2.393242E+05 -2.012540E-09 -1.454787E-09
        82  15  3.230878E+05  1.767664E+05  2.088807E+03  2.388786E+05 -9.943047E-10 -5.080886E-10
        82  16  3.451816E+05  1.923849E+05  9.175617E+03  2.498109E+05 -3.501741E-09 -1.544887E-09
        82  17  3.394084E+05  1.907636E+05  7.464127E+03  2.482076E+05 -3.032300E-09 -1.505779E-09
        82  18  3.367571E+05  1.865495E+05  6.427749E+03  2.457036E+05  9.061883E-10  5.213938E-10
        82  19  3.010086E+05  1.611732E+05 -4.693863E+03  2.279279E+05 -1.816128E+02 -1.803643E+03
        82  20  3.036531E+05  1.653751E+05 -3.808304E+03  2.304412E+05  3.781759E+02 -1.036963E+03
        82  21  3.094189E+05  1.669835E+05 -2.250120E+03  2.320538E+05  9.364714E+02 -2.682519E+02
        82  22  3.230948E+05  1.767789E+05  2.240908E+03  2.388692E+05 -2.237668E+01 -1.684240E+03
        82  23  3.215306E+05  1.780693E+05  1.827920E+03  2.393242E+05  5.388945E+02 -9.164524E+02
        82  24  3.230878E+05  1.767664E+05  2.088809E+03  2.388786E+05  1.098669E+03 -1.466363E+02
        82  25  3.451816E+05  1.923849E+05  9.175621E+03  2.498109E+05  1.368672E+02 -1.564831E+03
        82  26  3.394084E+05  1.907636E+05  7.464129E+03  2.482076E+05  6.996202E+02 -7.959368E+02
        82  27  3.367571E+05  1.865495E+05  6.427752E+03  2.457036E+05  1.260872E+03 -2.501606E+01
        83   1  3.130729E+05  1.700567E+05 -6.450852E+02  2.342873E+05 -1.150320E+03 -1.005866E+02
        83   2  3.159706E+05  1.738255E+05  1.878909E+03  2.364908E+05 -2.466039E+03 -1.434327E+03
        83   3  3.229331E+05  1.762848E+05  6.111309E+03  2.372495E+05 -3.794484E+03 -2.751089E+03
        83   4  3.230861E+05  1.766760E+05  2.405637E+03  2.390390E+05 -1.316582E+03 -2.252474E+02
        83   5  3.213955E+05  1.779381E+05  3.636278E+03  2.393067E+05 -2.620088E+03 -1.549830E+03
        83   6  3.237671E+05  1.778881E+05  6.564752E+03  2.381296E+05 -3.936310E+03 -2.857431E+03
        83   7  3.330993E+05  1.832953E+05  5.456321E+03  2.437909E+05 -1.482847E+03 -3.499096E+02
        83   8  3.268204E+05  1.820507E+05  5.393636E+03  2.421227E+05 -2.774138E+03 -1.665334E+03
        83   9  3.246011E+05  1.794914E+05  7.018194E+03  2.390098E+05 -4.078137E+03 -2.963774E+03
        83  10  3.130729E+05  1.700567E+05 -6.450877E+02  2.342873E+05 -5.305762E-10  4.143324E-12
        83  11  3.159706E+05  1.738255E+05  1.878893E+03  2.364908E+05 -2.868074E-10 -8.599931E-11
        83  12  3.229331E+05  1.762848E+05  6.111268E+03  2.372495E+05  3.638612E-10 -1.123094E-10
        83  13  3.230861E+05  1.766760E+05  2.405633E+03  2.390390E+05  4.598495E-10  8.818703E-11
        83  14  3.213955E+05  1.779381E+05  3.636261E+03  2.393067E+05  5.712682E-10  2.369761E-11
        83  15  3.237671E+05  1.778881E+05  6.564707E+03  2.381296E+05 -2.771274E-10  2.084827E-11
        83  16  3.330993E+05  1.832953E+05  5.456317E+03  2.437909E+05  8.918535E-10  2.122672E-10
        83  17  3.268204E+05  1.820507E+05  5.393616E+03  2.421227E+05  2.381119E-10  1.652905E-10
        83  18  3.246011E+05  1.794914E+05  7.018146E+03  2.390098E+05  1.499322E-10 -1.646598E-12
        83  19  3.130729E+05  1.700567E+05 -6.450852E+02  2.342873E+05  1.150320E+03  1.005866E+02
        83  20  3.159706E+05  1.738255E+05  1.878909E+03  2.364908E+05  2.466039E+03  1.434327E+03
        83  21  3.229331E+05  1.762848E+05  6.111309E+03  2.372495E+05  3.794484E+03  2.751089E+03
        83  22  3.230861E+05  1.766760E+05  2.405637E+03  2.390390E+05  1.316582E+03  2.252474E+02
        83  23  3.213955E+05  1.779381E+05  3.636278E+03  2.393067E+05  2.620088E+03  1.549830E+03
        83  24  3.237671E+05  1.778881E+05  6.564752E+03  2.381296E+05  3.936310E+03  2.857431E+03
        83  25  3.330993E+05  1.832953E+05  5.456321E+03  2.437909E+05  1.482847E+03  3.499096E+02
        83  26  3.268204E+05  1.820507E+05  5.393636E+03  2.421227E+05  2.774138E+03  1.665334E+03
        83  27  3.246011E+05  1.794914E+05  7.018194E+03  2.390098E+05  4.078137E+03  2.963774E+03
        84   1  3.227446E+05  1.816454E+05  8.896152E+03  2.426037E+05 -4.522287E+03 -3.563832E+03
        84   2  3.293931E+05  1.780137E+05  1.540724E+04  2.415714E+05 -1.031633E+04 -8.177169E+03
        84   3  3.530889E+05  1.909447E+05  3.326490E+04  2.307661E+05 -1.636691E+04 -1.244855E+04
        84   4  3.235951E+05  1.764298E+05  8.085866E+03  2.403426E+05 -4.769588E+03 -3.749209E+03
        84   5  3.196637E+05  1.762986E+05  1.327862E+04  2.391360E+05 -1.031720E+04 -8.177903E+03
        84   6  3.327260E+05  1.926768E+05  2.960436E+04  2.281563E+05 -1.612115E+04 -1.226469E+04
        84   7  3.244457E+05  1.712142E+05  7.275580E+03  2.380816E+05 -5.016892E+03 -3.934584E+03
        84   8  3.099343E+05  1.745834E+05  1.114999E+04  2.367005E+05 -1.031806E+04 -8.178636E+03
        84   9  3.123638E+05  1.944091E+05  2.594389E+04  2.255465E+05 -1.587540E+04 -1.208083E+04
        84  10  3.227446E+05  1.816454E+05  8.896090E+03  2.426037E+05  1.905426E-10 -1.364747E-10
        84  11  3.293930E+05  1.780136E+05  1.540691E+04  2.415713E+05 -1.115115E-11 -1.088899E-10
        84  12  3.530886E+05  1.909445E+05  3.326411E+04  2.307659E+05  1.363089E-10 -5.803389E-11
        84  13  3.235951E+05  1.764298E+05  8.085797E+03  2.403426E+05 -1.453684E-11 -1.660551E-12
        84  14  3.196635E+05  1.762985E+05  1.327829E+04  2.391359E+05 -7.968580E-10  1.084230E-10
        84  15  3.327257E+05  1.926766E+05  2.960359E+04  2.281561E+05  4.119618E-10 -6.224932E-11
        84  16  3.244457E+05  1.712142E+05  7.275503E+03  2.380816E+05 -6.899695E-11  1.275604E-10
        84  17  3.099342E+05  1.745833E+05  1.114967E+04  2.367005E+05 -3.788364E-10  3.431366E-10
        84  18  3.123635E+05  1.944089E+05  2.594314E+04  2.255463E+05  2.597726E-11  1.679661E-11
        84  19  3.227446E+05  1.816454E+05  8.896152E+03  2.426037E+05  4.522287E+03  3.563832E+03
        84  20  3.293931E+05  1.780137E+05  1.540724E+04  2.415714E+05  1.031633E+04  8.177169E+03
        84  21  3.530889E+05  1.909447E+05  3.326490E+04  2.307661E+05  1.636691E+04  1.244855E+04
        84  22  3.235951E+05  1.764298E+05  8.085866E+03  2.403426E+05  4.769588E+03  3.749209E+03
        84  23  3.196637E+05  1.762986E+05  1.327862E+04  2.391360E+05  1.031720E+04  8.177903E+03
        84  24  3.327260E+05  1.926768E+05  2.960436E+04  2.281563E+05  1.612115E+04  1.226469E+04
        84  25  3.244457E+05  1.712142E+05  7.275580E+03  2.380816E+05  5.016892E+03  3.934584E+03
        84  26  3.099343E+05  1.745834E+05  1.114999E+04  2.367005E+05  1.031806E+04  8.178636E+03
        84  27  3.123638E+05  1.944091E+05  2.594389E+04  2.255465E+05  1.587540E+04  1.208083E+04
        85   1 -1.514900E+04 -3.307827E+04 -4.072772E+04 -1.357388E+04 -2.763595E+04  6.042428E-01
        85   2 -1.002713E+04  2.287870E+03 -1.843393E+04 -4.355806E+03 -1.779379E+04  1.248442E-01
        85   3 -1.514915E+04  1.804002E+03 -1.151004E+04  4.862366E+03 -7.951663E+03 -6.227884E-02
        85   4 -1.514920E+04 -3.307861E+04 -4.072777E+04 -4.078037E-09 -2.763595E+04  4.265545E-11
        85   5 -1.002715E+04  2.287834E+03 -1.843393E+04 -1.272729E-09 -1.779379E+04 -1.520137E-10
        85   6 -1.514918E+04  1.803958E+03 -1.151005E+04 -8.930525E-10 -7.951663E+03  1.035364E-10
        85   7 -1.514900E+04 -3.307827E+04 -4.072772E+04  1.357388E+04 -2.763595E+04 -6.042428E-01
        85   8 -1.002713E+04  2.287870E+03 -1.843393E+04  4.355806E+03 -1.779379E+04 -1.248442E-01
        85   9 -1.514915E+04  1.804002E+03 -1.151004E+04 -4.862366E+03 -7.951663E+03  6.227884E-02
        85  10 -1.514982E+04 -3.307847E+04 -4.072916E+04 -1.357388E+04 -1.221287E-11 -1.040791E-10
        85  11 -1.002747E+04  2.287785E+03 -1.843452E+04 -4.355806E+03 -3.045076E-10 -2.813380E-10
        85  12 -1.514922E+04  1.803985E+03 -1.151016E+04  4.862366E+03 -2.877893E-10 -8.775794E-11
        85  13 -1.515002E+04 -3.307882E+04 -4.072921E+04 -1.431921E-09 -4.913560E-12 -1.231635E-10
        85  14 -1.002749E+04  2.287749E+03 -1.843453E+04 -1.898351E-10 -2.741518E-10 -2.785601E-10
        85  15 -1.514924E+04  1.803941E+03 -1.151017E+04 -3.121542E-09  5.754189E-10 -2.546222E-11
        85  16 -1.514982E+04 -3.307847E+04 -4.072916E+04  1.357388E+04  1.434993E-10 -1.084188E-10
        85  17 -1.002747E+04  2.287785E+03 -1.843452E+04  4.355806E+03 -1.699911E-10 -2.820920E-10
        85  18 -1.514922E+04  1.803985E+03 -1.151016E+04 -4.862366E+03  3.703064E-10  3.160636E-11
        85  19 -1.514900E+04 -3.307827E+04 -4.072772E+04 -1.357388E+04  2.763595E+04 -6.042428E-01
        85  20 -1.002713E+04  2.287870E+03 -1.843393E+04 -4.355806E+03  1.779379E+04 -1.248442E-01
        85  21 -1.514915E+04  1.804002E+03 -1.151004E+04  4.862366E+03  7.951663E+03  6.227884E-02
        85  22 -1.514920E+04 -3.307861E+04 -4.072777E+04 -3.096004E-09  2.763595E+04 -2.877024E-10
        85  23 -1.002715E+04  2.287834E+03 -1.843393E+04  1.163089E-09  1.779379E+04 -4.088243E-10
        85  24 -1.514918E+04  1.803958E+03 -1.151005E+04 -2.993626E-09  7.951663E+03 -1.379929E-10
        85  25 -1.514900E+04 -3.307827E+04 -4.072772E+04  1.357388E+04  2.763595E+04  6.042428E-01
        85  26 -1.002713E+04  2.287870E+03 -1.843393E+04  4.355806E+03  1.779379E+04  1.248442E-01
        85  27 -1.514915E+04  1.804002E+03 -1.151004E+04 -4.862366E+03  7.951663E+03 -6.227884E-02
        86   1 -1.312539E+04 -2.462228E+03 -9.562547E+03 -8.900132E+02 -6.216999E+03  8.912729E-03
        86   2 -1.255700E+04  2.312694E+02 -5.964246E+03 -2.260684E+02 -3.210082E+03  1.168932E-03
        86   3 -1.312538E+04 -5.632245E+01 -5.068799E+03  4.378661E+02 -2.032036E+02 -1.433197E-04
        86   4 -1.312539E+04 -2.462230E+03 -9.562547E+03 -2.211348E-09 -6.216999E+03  2.606923E-10
        86   5 -1.255700E+04  2.312693E+02 -5.964246E+03 -3.089602E-09 -3.210082E+03  2.536538E-10
        86   6 -1.312538E+04 -5.632281E+01 -5.068799E+03 -2.150554E-09 -2.032036E+02  1.398759E-10
        86   7 -1.312539E+04 -2.462228E+03 -9.562547E+03  8.900132E+02 -6.216999E+03 -8.912729E-03
        86   8 -1.255700E+04  2.312694E+02 -5.964246E+03  2.260684E+02 -3.210082E+03 -1.168932E-03
        86   9 -1.312538E+04 -5.632245E+01 -5.068799E+03 -4.378661E+02 -2.032036E+02  1.433200E-04
        86  10 -1.312543E+04 -2.462239E+03 -9.562619E+03 -8.900132E+02  4.611863E-10  2.157754E-11
        86  11 -1.255701E+04  2.312666E+02 -5.964265E+03 -2.260684E+02 -3.031385E-10  1.120954E-11
        86  12 -1.312538E+04 -5.632247E+01 -5.068799E+03  4.378661E+02 -3.986428E-10  8.134802E-11
        86  13 -1.312543E+04 -2.462240E+03 -9.562620E+03 -3.299504E-09 -2.692403E-10  9.779846E-11
        86  14 -1.255701E+04  2.312665E+02 -5.964265E+03 -4.170915E-09  6.777517E-10  3.937462E-11
        86  15 -1.312538E+04 -5.632283E+01 -5.068799E+03 -2.080585E-09  1.035531E-10  3.152416E-11
        86  16 -1.312543E+04 -2.462239E+03 -9.562619E+03  8.900132E+02  8.040806E-11  1.725929E-10
        86  17 -1.255701E+04  2.312666E+02 -5.964265E+03  2.260684E+02  1.808893E-10  6.790489E-11
        86  18 -1.312538E+04 -5.632247E+01 -5.068799E+03 -4.378661E+02  6.510979E-10 -1.835871E-11
        86  19 -1.312539E+04 -2.462228E+03 -9.562547E+03 -8.900132E+02  6.216999E+03 -8.912729E-03
        86  20 -1.255700E+04  2.312694E+02 -5.964246E+03 -2.260684E+02  3.210082E+03 -1.168932E-03
        86  21 -1.312538E+04 -5.632245E+01 -5.068799E+03  4.378661E+02  2.032036E+02  1.433199E-04
        86  22 -1.312539E+04 -2.462230E+03 -9.562547E+03 -2.233704E-09  6.216999E+03 -6.421396E-11
        86  23 -1.255700E+04  2.312693E+02 -5.964246E+03 -6.750885E-10  3.210082E+03 -1.758357E-10
        86  24 -1.312538E+04 -5.632281E+01 -5.068799E+03  2.094854E-09  2.032036E+02 -7.705310E-11
        86  25 -1.312539E+04 -2.462228E+03 -9.562547E+03  8.900132E+02  6.216999E+03  8.912729E-03
        86  26 -1.255700E+04  2.312694E+02 -5.964246E+03  2.260684E+02  3.210082E+03  1.168932E-03
        86  27 -1.312538E+04 -5.632245E+01 -5.068799E+03 -4.378661E+02  2.032036E+02 -1.433200E-04
        87   1 -1.315017E+04 -1.554221E+01 -5.149058E+03 -4.903132E+02  6.955513E+02 -5.493339E-04
        87   2 -1.252601E+04  2.547325E+02 -6.416412E+03  2.509701E+02  3.932460E+03  1.589716E-03
        87   3 -1.315018E+04 -2.782499E+03 -1.061797E+04  9.922650E+02  7.169410E+03  1.145894E-02
        87   4 -1.315017E+04 -1.554267E+01 -5.149058E+03 -4.930804E-10  6.955513E+02  1.500703E-11
        87   5 -1.252601E+04  2.547324E+02 -6.416412E+03  3.200362E-10  3.932460E+03 -1.160230E-10
        87   6 -1.315018E+04 -2.782501E+03 -1.061797E+04  1.909185E-10  7.169410E+03 -1.304211E-10
        87   7 -1.315017E+04 -1.554221E+01 -5.149058E+03  4.903132E+02  6.955513E+02  5.493339E-04
        87   8 -1.252601E+04  2.547325E+02 -6.416412E+03 -2.509701E+02  3.932460E+03 -1.589716E-03
        87   9 -1.315018E+04 -2.782499E+03 -1.061797E+04 -9.922650E+02  7.169410E+03 -1.145894E-02
        87  10 -1.315017E+04 -1.554234E+01 -5.149059E+03 -4.903132E+02  2.141632E-10  8.652099E-12
        87  11 -1.252603E+04  2.547283E+02 -6.416441E+03  2.509701E+02 -4.805991E-10 -1.346798E-10
        87  12 -1.315023E+04 -2.782513E+03 -1.061807E+04  9.922650E+02 -3.157801E-10  6.400738E-11
        87  13 -1.315017E+04 -1.554280E+01 -5.149059E+03 -1.047161E-09  5.382191E-10 -5.942837E-13
        87  14 -1.252603E+04  2.547282E+02 -6.416441E+03  1.398241E-09  1.351462E-10 -5.519032E-11
        87  15 -1.315023E+04 -2.782515E+03 -1.061807E+04 -1.541279E-09  1.663658E-10  1.700315E-11
        87  16 -1.315017E+04 -1.554234E+01 -5.149059E+03  4.903132E+02  3.238556E-10 -9.515804E-12
        87  17 -1.252603E+04  2.547283E+02 -6.416441E+03 -2.509701E+02  6.640266E-11  2.560207E-11
        87  18 -1.315023E+04 -2.782513E+03 -1.061807E+04 -9.922650E+02  6.134575E-10 -2.986963E-11
        87  19 -1.315017E+04 -1.554221E+01 -5.149058E+03 -4.903132E+02 -6.955513E+02  5.493339E-04
        87  20 -1.252601E+04  2.547325E+02 -6.416412E+03  2.509701E+02 -3.932460E+03 -1.589716E-03
        87  21 -1.315018E+04 -2.782499E+03 -1.061797E+04  9.922650E+02 -7.169410E+03 -1.145894E-02
        87  22 -1.315017E+04 -1.554267E+01 -5.149058E+03  2.168452E-09 -6.955513E+02 -1.608292E-11
        87  23 -1.252601E+04  2.547324E+02 -6.416412E+03  3.014832E-09 -3.932460E+03  6.064303E-12
        87  24 -1.315018E+04 -2.782501E+03 -1.061797E+04  2.264961E-10 -7.169410E+03  1.654373E-10
        87  25 -1.315017E+04 -1.554221E+01 -5.149058E+03  4.903132E+02 -6.955513E+02 -5.493339E-04
        87  26 -1.252601E+04  2.547325E+02 -6.416412E+03 -2.509701E+02 -3.932460E+03  1.589716E-03
        87  27 -1.315018E+04 -2.782499E+03 -1.061797E+04 -9.922650E+02 -7.169410E+03  1.145894E-02
        88   1 -1.544130E+04  2.039142E+03 -1.286325E+04 -5.492154E+03  9.100038E+03 -8.050465E-02
        88   2 -9.661893E+03  2.581809E+03 -2.074841E+04  4.913839E+03  2.018030E+04  1.597274E-01
        88   3 -1.544108E+04 -3.733970E+04 -4.596304E+04  1.531971E+04  3.126060E+04  7.714021E-01
        88   4 -1.544133E+04  2.039085E+03 -1.286326E+04  7.229714E-10  9.100038E+03  3.672415E-11
        88   5 -9.661919E+03  2.581764E+03 -2.074842E+04  2.729011E-10  2.018030E+04  2.947781E-10
        88   6 -1.544133E+04 -3.734015E+04 -4.596310E+04 -7.133890E-10  3.126060E+04 -3.715625E-11
        88   7 -1.544130E+04  2.039142E+03 -1.286325E+04  5.492154E+03  9.100038E+03  8.050465E-02
        88   8 -9.661893E+03  2.581809E+03 -2.074841E+04 -4.913839E+03  2.018030E+04 -1.597274E-01
        88   9 -1.544108E+04 -3.733970E+04 -4.596304E+04 -1.531971E+04  3.126060E+04 -7.714021E-01
        88  10 -1.544139E+04  2.039120E+03 -1.286340E+04 -5.492154E+03  1.937526E-10  1.044626E-10
        88  11 -9.662331E+03  2.581700E+03 -2.074918E+04  4.913839E+03 -4.804693E-11 -5.860862E-11
        88  12 -1.544213E+04 -3.733997E+04 -4.596487E+04  1.531971E+04 -9.807848E-11 -4.925099E-11
        88  13 -1.544142E+04  2.039063E+03 -1.286341E+04 -3.641348E-10  2.784045E-10  3.852313E-11
        88  14 -9.662356E+03  2.581655E+03 -2.074919E+04  1.346603E-09  1.286084E-10 -1.274207E-11
        88  15 -1.544238E+04 -3.734041E+04 -4.596494E+04 -1.385495E-09  2.326610E-10 -1.027212E-11
        88  16 -1.544139E+04  2.039120E+03 -1.286340E+04  5.492154E+03  3.478420E-10 -2.197204E-11
        88  17 -9.662331E+03  2.581700E+03 -2.074918E+04 -4.913839E+03 -8.980274E-11  2.661213E-11
        88  18 -1.544213E+04 -3.733997E+04 -4.596487E+04 -1.531971E+04  1.402115E-10  4.015035E-11
        88  19 -1.544130E+04  2.039142E+03 -1.286325E+04 -5.492154E+03 -9.100038E+03  8.050465E-02
        88  20 -9.661893E+03  2.581809E+03 -2.074841E+04  4.913839E+03 -2.018030E+04 -1.597274E-01
        88  21 -1.544108E+04 -3.733970E+04 -4.596304E+04  1.531971E+04 -3.126060E+04 -7.714021E-01
        88  22 -1.544133E+04  2.039085E+03 -1.286326E+04  1.657537E-10 -9.100038E+03  3.884889E-11
        88  23 -9.661919E+03  2.581764E+03 -2.074842E+04 -2.719201E-10 -2.018030E+04 -3.163474E-10
        88  24 -1.544133E+04 -3.734015E+04 -4.596310E+04 -7.071708E-10 -3.126060E+04 -5.760834E-11
        88  25 -1.544130E+04  2.039142E+03 -1.286325E+04  5.492154E+03 -9.100038E+03 -8.050465E-02
        88  26 -9.661893E+03  2.581809E+03 -2.074841E+04 -4.913839E+03 -2.018030E+04  1.597274E-01
        88  27 -1.544108E+04 -3.733970E+04 -4.596304E+04 -1.531971E+04 -3.126060E+04  7.714021E-01
        89   1 -7.687383E+04 -1.652865E+05 -8.073367E+04  3.547857E+04 -2.521070E+03 -2.080855E+04
        89   2 -4.334229E+04 -1.141067E+05 -5.417224E+04  1.756632E+04 -7.234137E+03 -9.962694E+03
        89   3 -3.221079E+04 -6.992552E+04 -4.027094E+04  2.438296E+04 -5.835472E+03  8.836350E+02
        89   4 -1.968502E+04  6.440190E+04 -2.448850E+04  2.732614E+04 -2.520329E+03 -1.521868E+04
        89   5  1.387359E+03  6.752161E+04 -1.215386E+04  1.496065E+04 -7.233782E+03 -8.770161E+03
        89   6  8.268183E+02  6.440576E+04 -9.422853E+03  2.732414E+04 -5.836105E+03 -2.322098E+03
        89   7  3.750016E+04  2.941386E+05  3.175297E+04  1.917069E+04 -2.519735E+03 -9.626758E+03
        89   8  4.611472E+04  2.491804E+05  2.986233E+04  1.235420E+04 -7.233438E+03 -7.577281E+03
        89   9  3.386320E+04  1.987538E+05  2.142409E+04  3.026596E+04 -5.836768E+03 -5.528518E+03
        89  10 -7.687395E+04 -1.652870E+05 -8.073450E+04  3.547853E+04  4.529647E-11 -9.031190E-10
        89  11 -4.334238E+04 -1.141068E+05 -5.417252E+04  1.756627E+04  1.258513E-10  3.113612E-09
        89  12 -3.221082E+04 -6.992553E+04 -4.027101E+04  2.438296E+04 -1.133466E-10  6.077412E-09
        89  13 -1.968509E+04  6.440165E+04 -2.448894E+04  2.732611E+04  3.323638E-10  3.454243E-11
        89  14  1.387282E+03  6.752152E+04 -1.215410E+04  1.496060E+04 -6.872934E-10 -1.270746E-10
        89  15  8.267803E+02  6.440575E+04 -9.422928E+03  2.732413E+04 -5.960174E-10  2.114486E-10
        89  16  3.750012E+04  2.941385E+05  3.175278E+04  1.917067E+04  1.662038E-10  8.887088E-10
        89  17  4.611465E+04  2.491803E+05  2.986212E+04  1.235416E+04  3.388923E-10 -3.176022E-09
        89  18  3.386316E+04  1.987538E+05  2.142397E+04  3.026593E+04 -5.329185E-10 -5.983140E-09
        89  19 -7.687383E+04 -1.652865E+05 -8.073367E+04  3.547857E+04  2.521070E+03  2.080855E+04
        89  20 -4.334229E+04 -1.141067E+05 -5.417224E+04  1.756632E+04  7.234137E+03  9.962694E+03
        89  21 -3.221079E+04 -6.992552E+04 -4.027094E+04  2.438296E+04  5.835472E+03 -8.836350E+02
        89  22 -1.968502E+04  6.440190E+04 -2.448850E+04  2.732614E+04  2.520329E+03  1.521868E+04
        89  23  1.387359E+03  6.752161E+04 -1.215386E+04  1.496065E+04  7.233782E+03  8.770161E+03
        89  24  8.268183E+02  6.440576E+04 -9.422853E+03  2.732414E+04  5.836105E+03  2.322098E+03
        89  25  3.750016E+04  2.941386E+05  3.175297E+04  1.917069E+04  2.519735E+03  9.626758E+03
        89  26  4.611472E+04  2.491804E+05  2.986233E+04  1.235420E+04  7.233438E+03  7.577281E+03
        89  27  3.386320E+04  1.987538E+05  2.142409E+04  3.026596E+04  5.836768E+03  5.528518E+03
        90   1 -2.306202E+04 -2.330677E+04 -2.954591E+04  2.849073E+04 -3.726772E+03  6.181762E+02
        90   2 -9.654985E+03  2.534878E+04 -1.906479E+04  1.471139E+04 -1.756604E+03  5.564616E+03
        90   3 -1.999343E+03  7.191185E+04 -1.324477E+04  2.586004E+04  3.122671E+02  1.051125E+04
        90   4 -1.253016E+03  6.533131E+04 -9.133847E+03  2.736894E+04 -3.727086E+03 -7.640079E+02
        90   5  4.358846E+02  6.637308E+04 -9.633260E+03  1.490526E+04 -1.756973E+03  4.111669E+03
        90   6 -3.614005E+03  6.533252E+04 -1.474438E+04  2.736958E+04  3.118539E+02  8.987174E+03
        90   7  2.055545E+04  1.539767E+05  1.127771E+04  2.624699E+04 -3.727396E+03 -2.146388E+03
        90   8  1.052664E+04  1.073989E+05 -2.018360E+02  1.509915E+04 -1.757343E+03  2.658626E+03
        90   9 -5.228661E+03  5.875325E+04 -1.624398E+04  2.887909E+04  3.114332E+02  7.463109E+03
        90  10 -2.306204E+04 -2.330677E+04 -2.954594E+04  2.849073E+04  6.957310E-11 -6.073654E-09
        90  11 -9.654997E+03  2.534875E+04 -1.906485E+04  1.471140E+04 -1.120504E-10 -3.518713E-09
        90  12 -1.999373E+03  7.191173E+04 -1.324498E+04  2.586004E+04  4.025842E-10  1.258907E-09
        90  13 -1.253031E+03  6.533131E+04 -9.133874E+03  2.736894E+04 -2.147901E-10  2.199699E-10
        90  14  4.358767E+02  6.637306E+04 -9.633297E+03  1.490527E+04  2.105026E-11 -2.622948E-10
        90  15 -3.614027E+03  6.533243E+04 -1.474453E+04  2.736958E+04  5.794623E-10  3.017172E-10
        90  16  2.055543E+04  1.539767E+05  1.127767E+04  2.624698E+04 -8.808004E-10  5.960614E-09
        90  17  1.052663E+04  1.073989E+05 -2.018551E+02  1.509915E+04 -1.424127E-11  3.393329E-09
        90  18 -5.228676E+03  5.875319E+04 -1.624409E+04  2.887909E+04  4.124544E-10 -1.129425E-09
        90  19 -2.306202E+04 -2.330677E+04 -2.954591E+04  2.849073E+04  3.726772E+03 -6.181762E+02
        90  20 -9.654985E+03  2.534878E+04 -1.906479E+04  1.471139E+04  1.756604E+03 -5.564616E+03
        90  21 -1.999343E+03  7.191185E+04 -1.324477E+04  2.586004E+04 -3.122671E+02 -1.051125E+04
        90  22 -1.253016E+03  6.533131E+04 -9.133847E+03  2.736894E+04  3.727086E+03  7.640079E+02
        90  23  4.358846E+02  6.637308E+04 -9.633260E+03  1.490526E+04  1.756973E+03 -4.111669E+03
        90  24 -3.614005E+03  6.533252E+04 -1.474438E+04  2.736958E+04 -3.118539E+02 -8.987174E+03
        90  25  2.055545E+04  1.539767E+05  1.127771E+04  2.624699E+04  3.727396E+03  2.146388E+03
        90  26  1.052664E+04  1.073989E+05 -2.018360E+02  1.509915E+04  1.757343E+03 -2.658626E+03
        90  27 -5.228661E+03  5.875325E+04 -1.624398E+04  2.887909E+04 -3.114332E+02 -7.463109E+03
        91   1  1.548948E+04  1.146123E+05 -5.545799E+03  3.467114E+04  2.200272E+03  1.435097E+04
        91   2  2.798129E+04  1.697157E+05 -4.704652E+03  8.429965E+03  3.899040E+03  2.622243E+04
        91   3 -1.286213E+04  2.099379E+05 -2.492509E+04  6.988640E+03  1.482361E+03  3.809555E+04
        91   4  2.631535E+03  6.237195E+04 -1.757626E+04  2.733780E+04  2.199356E+03  1.164688E+04
        91   5  3.442459E+03  7.007209E+04 -2.778675E+04  1.494265E+04  3.899418E+03  2.647953E+04
        91   6 -4.960131E+04  6.237158E+04 -6.111785E+04  2.734823E+04  1.484268E+03  4.131284E+04
        91   7 -1.022640E+04  1.013422E+04 -2.960684E+04  2.000508E+04  2.198504E+03  8.943011E+03
        91   8 -2.109691E+04 -2.956223E+04 -5.086949E+04  2.145428E+04  3.899801E+03  2.673659E+04
        91   9 -8.634054E+04 -8.517404E+04 -9.731194E+04  4.770298E+04  1.486385E+03  4.452937E+04
        91  10  1.548942E+04  1.146121E+05 -5.546195E+03  3.467111E+04  6.619346E-10 -6.046127E-10
        91  11  2.798109E+04  1.697149E+05 -4.705972E+03  8.429882E+03  5.462935E-10 -4.960249E-10
        91  12 -1.286252E+04  2.099364E+05 -2.492782E+04  6.988594E+03  3.850981E-11  1.734204E-10
        91  13  2.631493E+03  6.237180E+04 -1.757652E+04  2.733778E+04  3.404356E-10  2.671254E-10
        91  14  3.442254E+03  7.007133E+04 -2.778809E+04  1.494256E+04  3.872760E-10 -2.267837E-10
        91  15 -4.960177E+04  6.236975E+04 -6.112106E+04  2.734819E+04  2.584969E-10  1.734109E-10
        91  16 -1.022642E+04  1.013413E+04 -2.960700E+04  2.000507E+04  6.048809E-10  4.603617E-10
        91  17 -2.109712E+04 -2.956301E+04 -5.087086E+04  2.145419E+04  2.801813E-10  3.726284E-10
        91  18 -8.634107E+04 -8.517617E+04 -9.731567E+04  4.770293E+04 -1.555101E-10 -9.765649E-11
        91  19  1.548948E+04  1.146123E+05 -5.545799E+03  3.467114E+04 -2.200272E+03 -1.435097E+04
        91  20  2.798129E+04  1.697157E+05 -4.704652E+03  8.429965E+03 -3.899040E+03 -2.622243E+04
        91  21 -1.286213E+04  2.099379E+05 -2.492509E+04  6.988640E+03 -1.482361E+03 -3.809555E+04
        91  22  2.631535E+03  6.237195E+04 -1.757626E+04  2.733780E+04 -2.199356E+03 -1.164688E+04
        91  23  3.442459E+03  7.007209E+04 -2.778675E+04  1.494265E+04 -3.899418E+03 -2.647953E+04
        91  24 -4.960131E+04  6.237158E+04 -6.111785E+04  2.734823E+04 -1.484268E+03 -4.131284E+04
        91  25 -1.022640E+04  1.013422E+04 -2.960684E+04  2.000508E+04 -2.198504E+03 -8.943011E+03
        91  26 -2.109691E+04 -2.956223E+04 -5.086949E+04  2.145428E+04 -3.899801E+03 -2.673659E+04
        91  27 -8.634054E+04 -8.517404E+04 -9.731194E+04  4.770298E+04 -1.486385E+03 -4.452937E+04
        92   1  3.326115E+05  2.681119E+05  7.781259E+04  2.294331E+05  2.566985E+04  1.713262E+04
        92   2  3.085167E+05  2.085153E+05  4.571852E+04  2.258785E+05  1.757838E+04  7.161130E+03
        92   3  2.863325E+05  1.927144E+05  3.054611E+04  2.155036E+05  6.966317E+03  5.509762E+02
        92   4  2.308857E+05  1.740844E+05  3.944230E+04  1.692345E+05  2.265740E+04  1.487221E+04
        92   5  2.241052E+05  1.416270E+05  1.763954E+04  1.807649E+05  1.698879E+04  6.718615E+03
        92   6  2.187126E+05  1.524429E+05  1.065901E+04  1.854737E+05  8.799003E+03  1.925953E+03
        92   7  1.291701E+05  8.006693E+04  1.070096E+03  1.090480E+05  1.964559E+04  1.261248E+04
        92   8  1.397008E+05  7.474333E+04 -1.044061E+04  1.356582E+05  1.639931E+04  6.276191E+03
        92   9  1.510973E+05  1.121727E+05 -9.228700E+03  1.554471E+05  1.063143E+04  3.300777E+03
        92  10  3.326107E+05  2.681114E+05  7.781080E+04  2.294327E+05 -2.213913E-10 -4.922061E-11
        92  11  3.085164E+05  2.085152E+05  4.571784E+04  2.258784E+05 -7.140120E-10  4.128209E-10
        92  12  2.863325E+05  1.927144E+05  3.054602E+04  2.155036E+05 -8.327651E-11  3.253716E-10
        92  13  2.308851E+05  1.740840E+05  3.944092E+04  1.692343E+05 -3.927139E-10  1.996944E-11
        92  14  2.241049E+05  1.416269E+05  1.763891E+04  1.807648E+05 -1.777136E-10  1.770788E-10
        92  15  2.187126E+05  1.524429E+05  1.065886E+04  1.854737E+05 -5.561754E-11  3.010912E-10
        92  16  1.291697E+05  8.006666E+04  1.069072E+03  1.090478E+05 -8.839320E-11  3.561637E-10
        92  17  1.397005E+05  7.474321E+04 -1.044119E+04  1.356581E+05 -2.408310E-10  1.978335E-10
        92  18  1.510972E+05  1.121727E+05 -9.228932E+03  1.554471E+05 -4.735262E-10  1.365481E-10
        92  19  3.326115E+05  2.681119E+05  7.781259E+04  2.294331E+05 -2.566985E+04 -1.713262E+04
        92  20  3.085167E+05  2.085153E+05  4.571852E+04  2.258785E+05 -1.757838E+04 -7.161130E+03
        92  21  2.863325E+05  1.927144E+05  3.054611E+04  2.155036E+05 -6.966317E+03 -5.509762E+02
        92  22  2.308857E+05  1.740844E+05  3.944230E+04  1.692345E+05 -2.265740E+04 -1.487221E+04
        92  23  2.241052E+05  1.416270E+05  1.763954E+04  1.807649E+05 -1.698879E+04 -6.718615E+03
        92  24  2.187126E+05  1.524429E+05  1.065901E+04  1.854737E+05 -8.799003E+03 -1.925953E+03
        92  25  1.291701E+05  8.006693E+04  1.070096E+03  1.090480E+05 -1.964559E+04 -1.261248E+04
        92  26  1.397008E+05  7.474333E+04 -1.044061E+04  1.356582E+05 -1.639931E+04 -6.276191E+03
        92  27  1.510973E+05  1.121727E+05 -9.228700E+03  1.554471E+05 -1.063143E+04 -3.300777E+03
        93   1  2.567687E+05  1.826437E+05  2.079203E+04  2.019579E+05  5.843806E+03  1.580378E+03
        93   2  2.394202E+05  1.533299E+05  8.717068E+03  1.875784E+05  2.988385E+03  1.294671E+03
        93   3  2.060946E+05  1.436718E+05 -1.088718E+03  1.775078E+05  8.932618E+00  1.174542E+03
        93   4  2.189119E+05  1.544114E+05  8.588350E+03  1.825288E+05  6.639737E+03  2.177518E+03
        93   5  2.264580E+05  1.437865E+05  4.558516E+03  1.809832E+05  3.903647E+03  1.981358E+03
        93   6  2.180002E+05  1.527907E+05  2.694446E+03  1.837458E+05  1.043404E+03  1.950691E+03
        93   7  1.810569E+05  1.261802E+05 -3.615405E+03  1.631011E+05  7.435596E+03  2.774601E+03
        93   8  2.134960E+05  1.342431E+05  3.999649E+02  1.743882E+05  4.818878E+03  2.668022E+03
        93   9  2.299060E+05  1.619097E+05  6.477596E+03  1.899839E+05  2.077902E+03  2.726863E+03
        93  10  2.567686E+05  1.826437E+05  2.079196E+04  2.019579E+05  1.483235E-10  2.947955E-10
        93  11  2.394202E+05  1.533299E+05  8.717049E+03  1.875784E+05 -7.204404E-10 -2.871001E-10
        93  12  2.060946E+05  1.436718E+05 -1.088720E+03  1.775078E+05 -1.846600E-11  6.400592E-10
        93  13  2.189118E+05  1.544114E+05  8.588259E+03  1.825288E+05  6.647024E-11 -1.203642E-10
        93  14  2.264580E+05  1.437865E+05  4.558480E+03  1.809832E+05  1.092032E-10 -7.641756E-10
        93  15  2.180002E+05  1.527907E+05  2.694437E+03  1.837458E+05  1.628401E-09  1.448286E-09
        93  16  1.810569E+05  1.261802E+05 -3.615524E+03  1.631011E+05 -1.113675E-09 -6.843206E-10
        93  17  2.134960E+05  1.342431E+05  3.999079E+02  1.743882E+05  6.900470E-10  6.071428E-10
        93  18  2.299059E+05  1.619097E+05  6.477574E+03  1.899839E+05  3.541886E-09  2.440100E-09
        93  19  2.567687E+05  1.826437E+05  2.079203E+04  2.019579E+05 -5.843806E+03 -1.580378E+03
        93  20  2.394202E+05  1.533299E+05  8.717068E+03  1.875784E+05 -2.988385E+03 -1.294671E+03
        93  21  2.060946E+05  1.436718E+05 -1.088718E+03  1.775078E+05 -8.932618E+00 -1.174542E+03
        93  22  2.189119E+05  1.544114E+05  8.588350E+03  1.825288E+05 -6.639737E+03 -2.177518E+03
        93  23  2.264580E+05  1.437865E+05  4.558516E+03  1.809832E+05 -3.903647E+03 -1.981358E+03
        93  24  2.180002E+05  1.527907E+05  2.694446E+03  1.837458E+05 -1.043404E+03 -1.950691E+03
        93  25  1.810569E+05  1.261802E+05 -3.615405E+03  1.631011E+05 -7.435596E+03 -2.774601E+03
        93  26  2.134960E+05  1.342431E+05  3.999649E+02  1.743882E+05 -4.818878E+03 -2.668022E+03
        93  27  2.299060E+05  1.619097E+05  6.477596E+03  1.899839E+05 -2.077902E+03 -2.726863E+03
        94   1  1.812704E+05  1.268613E+05 -9.557078E+03  1.652901E+05 -9.022012E+02  1.779603E+03
        94   2  1.645006E+05  9.978876E+04 -1.834468E+04  1.501018E+05 -2.427764E+03  2.774131E+03
        94   3  1.303036E+05  9.051070E+04 -2.666967E+04  1.400028E+05 -3.947791E+03  3.761714E+03
        94   4  2.179882E+05  1.529242E+05  2.110958E+03  1.835127E+05  8.626114E+01  2.521210E+03
        94   5  2.266710E+05  1.439728E+05  1.265832E+03  1.810082E+05 -1.444433E+03  3.511797E+03
        94   6  2.179273E+05  1.528168E+05  8.879238E+02  1.835925E+05 -2.969613E+03  4.495419E+03
        94   7  2.547077E+05  1.789880E+05  1.377892E+04  2.017367E+05  1.074810E+03  3.262883E+03
        94   8  2.888456E+05  1.881590E+05  2.087587E+04  2.119181E+05 -4.609666E+02  4.249563E+03
        94   9  3.055586E+05  2.151267E+05  2.844435E+04  2.271887E+05 -1.991254E+03  5.229259E+03
        94  10  1.812704E+05  1.268613E+05 -9.557085E+03  1.652901E+05  3.327700E-09  2.929433E-09
        94  11  1.645006E+05  9.978875E+04 -1.834470E+04  1.501018E+05  9.507290E-10  1.019674E-10
        94  12  1.303035E+05  9.051068E+04 -2.666972E+04  1.400028E+05  2.784424E-10 -8.479078E-10
        94  13  2.179882E+05  1.529242E+05  2.110946E+03  1.835127E+05  1.533729E-09  1.966510E-09
        94  14  2.266710E+05  1.439728E+05  1.265805E+03  1.810082E+05  1.900596E-10  7.690904E-11
        94  15  2.179273E+05  1.528168E+05  8.878692E+02  1.835925E+05  1.818867E-10 -1.519727E-10
        94  16  2.547077E+05  1.789880E+05  1.377890E+04  2.017367E+05 -7.669125E-11  4.933189E-10
        94  17  2.888456E+05  1.881589E+05  2.087583E+04  2.119181E+05 -8.503151E-10 -7.099260E-10
        94  18  3.055586E+05  2.151267E+05  2.844429E+04  2.271887E+05 -1.780889E-10  8.403684E-11
        94  19  1.812704E+05  1.268613E+05 -9.557078E+03  1.652901E+05  9.022012E+02 -1.779603E+03
        94  20  1.645006E+05  9.978876E+04 -1.834468E+04  1.501018E+05  2.427764E+03 -2.774131E+03
        94  21  1.303036E+05  9.051070E+04 -2.666967E+04  1.400028E+05  3.947791E+03 -3.761714E+03
        94  22  2.179882E+05  1.529242E+05  2.110958E+03  1.835127E+05 -8.626114E+01 -2.521210E+03
        94  23  2.266710E+05  1.439728E+05  1.265832E+03  1.810082E+05  1.444433E+03 -3.511797E+03
        94  24  2.179273E+05  1.528168E+05  8.879238E+02  1.835925E+05  2.969613E+03 -4.495419E+03
        94  25  2.547077E+05  1.789880E+05  1.377892E+04  2.017367E+05 -1.074810E+03 -3.262883E+03
        94  26  2.888456E+05  1.881590E+05  2.087587E+04  2.119181E+05  4.609666E+02 -4.249563E+03
        94  27  3.055586E+05  2.151267E+05  2.844435E+04  2.271887E+05  1.991254E+03 -5.229259E+03
        95   1  1.057512E+05  7.320536E+04 -3.464785E+04  1.279073E+05 -4.802992E+03  4.440307E+03
        95   2  8.901027E+04  4.613864E+04 -4.263856E+04  1.125862E+05 -5.887696E+03  5.710660E+03
        95   3  5.478691E+04  3.692779E+04 -5.048881E+04  1.023304E+05 -6.725287E+03  6.652265E+03
        95   4  2.179121E+05  1.528181E+05  8.016465E+02  1.836029E+05 -3.724022E+03  5.249516E+03
        95   5  2.266746E+05  1.439500E+05  7.997316E+02  1.810051E+05 -5.045650E+03  6.341960E+03
        95   6  2.180060E+05  1.529884E+05  1.144051E+03  1.834721E+05 -6.120212E+03  7.105700E+03
        95   7  3.300864E+05  2.324378E+05  3.624959E+04  2.393098E+05 -2.644786E+03  6.058923E+03
        95   8  3.643597E+05  2.417720E+05  4.423586E+04  2.494414E+05 -4.203348E+03  6.973453E+03
        95   9  3.812548E+05  2.690644E+05  5.277402E+04  2.646383E+05 -5.514916E+03  7.559302E+03
        95  10  1.057512E+05  7.320534E+04 -3.464793E+04  1.279073E+05  7.168160E-10 -1.738645E-10
        95  11  8.901022E+04  4.613859E+04 -4.263869E+04  1.125862E+05 -3.011823E-09 -1.747686E-09
        95  12  5.478685E+04  3.692773E+04 -5.048898E+04  1.023305E+05 -3.270700E-09 -1.759166E-09
        95  13  2.179120E+05  1.528181E+05  8.015686E+02  1.836029E+05 -7.903520E-10 -1.035408E-09
        95  14  2.266746E+05  1.439499E+05  7.996081E+02  1.810051E+05 -2.482060E-09 -1.821423E-09
        95  15  2.180059E+05  1.529883E+05  1.143886E+03  1.834721E+05 -1.483184E-09 -5.535723E-10
        95  16  3.300864E+05  2.324377E+05  3.624951E+04  2.393098E+05 -2.736708E-09 -1.624007E-09
        95  17  3.643597E+05  2.417720E+05  4.423574E+04  2.494414E+05 -2.651387E-09 -1.737846E-09
        95  18  3.812548E+05  2.690644E+05  5.277385E+04  2.646384E+05  1.164162E-09  5.775455E-10
        95  19  1.057512E+05  7.320536E+04 -3.464785E+04  1.279073E+05  4.802992E+03 -4.440307E+03
        95  20  8.901027E+04  4.613864E+04 -4.263856E+04  1.125862E+05  5.887696E+03 -5.710660E+03
        95  21  5.478691E+04  3.692779E+04 -5.048881E+04  1.023304E+05  6.725287E+03 -6.652265E+03
        95  22  2.179121E+05  1.528181E+05  8.016465E+02  1.836029E+05  3.724022E+03 -5.249516E+03
        95  23  2.266746E+05  1.439500E+05  7.997316E+02  1.810051E+05  5.045650E+03 -6.341960E+03
        95  24  2.180060E+05  1.529884E+05  1.144051E+03  1.834721E+05  6.120212E+03 -7.105700E+03
        95  25  3.300864E+05  2.324378E+05  3.624959E+04  2.393098E+05  2.644786E+03 -6.058923E+03
        95  26  3.643597E+05  2.417720E+05  4.423586E+04  2.494414E+05  4.203348E+03 -6.973453E+03
        95  27  3.812548E+05  2.690644E+05  5.277402E+04  2.646383E+05  5.514916E+03 -7.559302E+03
        96   1  2.954310E+04  1.982210E+04 -5.781180E+04  9.057583E+04 -1.015329E+04  6.572447E+03
        96   2  1.337587E+04 -8.243119E+03 -6.558150E+04  7.490701E+04 -6.487829E+03  9.884910E+03
        96   3 -1.908269E+04 -1.686733E+04 -7.579528E+04  6.298655E+04  2.199877E+03  6.495021E+03
        96   4  2.180209E+05  1.527260E+05  1.343985E+03  1.838035E+05 -7.480649E+03  8.575931E+03
        96   5  2.263431E+05  1.437304E+05  2.082373E+03  1.809927E+05 -8.640462E+03  8.270888E+03
        96   6  2.194196E+05  1.552206E+05  4.563329E+03  1.819295E+05 -4.778845E+03  1.265165E+03
        96   7  4.065356E+05  2.856481E+05  6.049501E+04  2.770622E+05 -4.806918E+03  1.058022E+04
        96   8  4.393572E+05  2.957278E+05  6.974009E+04  2.871186E+05 -1.079409E+04  6.656117E+03
        96   9  4.579799E+05  3.273386E+05  8.491381E+04  3.009231E+05 -1.176118E+04 -3.967455E+03
        96  10  2.954297E+04  1.982203E+04 -5.781207E+04  9.057588E+04 -3.972490E-10  1.135081E-10
        96  11  1.337580E+04 -8.243235E+03 -6.558177E+04  7.490706E+04 -3.712061E-10 -1.856321E-10
        96  12 -1.908271E+04 -1.686738E+04 -7.579536E+04  6.298654E+04 -6.629620E-11 -1.416420E-10
        96  13  2.180209E+05  1.527260E+05  1.343742E+03  1.838035E+05  2.053579E-10  3.632237E-10
        96  14  2.263430E+05  1.437303E+05  2.082104E+03  1.809927E+05  1.918674E-10 -3.813675E-10
        96  15  2.194196E+05  1.552206E+05  4.563283E+03  1.819295E+05  3.210261E-10 -3.379640E-10
        96  16  4.065355E+05  2.856480E+05  6.049476E+04  2.770623E+05  6.820804E-10  1.328489E-10
        96  17  4.393571E+05  2.957277E+05  6.973978E+04  2.871187E+05  2.452500E-10 -3.704771E-11
        96  18  4.579798E+05  3.273385E+05  8.491352E+04  3.009230E+05  2.910800E-10  1.045832E-10
        96  19  2.954310E+04  1.982210E+04 -5.781180E+04  9.057583E+04  1.015329E+04 -6.572447E+03
        96  20  1.337587E+04 -8.243119E+03 -6.558150E+04  7.490701E+04  6.487829E+03 -9.884910E+03
        96  21 -1.908269E+04 -1.686733E+04 -7.579528E+04  6.298655E+04 -2.199877E+03 -6.495021E+03
        96  22  2.180209E+05  1.527260E+05  1.343985E+03  1.838035E+05  7.480649E+03 -8.575931E+03
        96  23  2.263431E+05  1.437304E+05  2.082373E+03  1.809927E+05  8.640462E+03 -8.270888E+03
        96  24  2.194196E+05  1.552206E+05  4.563329E+03  1.819295E+05  4.778845E+03 -1.265165E+03
        96  25  4.065356E+05  2.856481E+05  6.049501E+04  2.770622E+05  4.806918E+03 -1.058022E+04
        96  26  4.393572E+05  2.957278E+05  6.974009E+04  2.871186E+05  1.079409E+04 -6.656117E+03
        96  27  4.579799E+05  3.273386E+05  8.491381E+04  3.009231E+05  1.176118E+04  3.967455E+03
        97   1  2.969693E+04  3.988087E+05  3.860984E+04 -3.152612E+04 -6.315113E+02  2.970590E+04
        97   2 -1.716604E+04  3.649252E+05  7.293359E+03 -1.370500E+04 -2.509000E+03  1.885350E+04
        97   3 -2.345630E+04  3.425989E+05 -6.817262E+03 -1.062740E+04 -3.944048E+03  8.001483E+03
        97   4  3.742808E+04  4.299885E+05  4.610589E+04 -1.614982E+04 -6.308083E+02  3.121991E+04
        97   5 -2.592379E+03  4.241862E+05  2.092601E+04 -8.778160E+03 -2.508824E+03  2.004812E+04
        97   6 -1.986693E+03  4.299957E+05  1.317343E+04 -1.614948E+04 -3.944057E+03  8.876265E+03
        97   7  4.516004E+04  4.611698E+05  5.360200E+04 -7.727453E+02 -6.300303E+02  3.273400E+04
        97   8  1.198113E+04  4.834505E+05  3.455845E+04 -3.850843E+03 -2.508629E+03  2.124286E+04
        97   9  1.948250E+04  5.173996E+05  3.316365E+04 -2.167234E+04 -3.944081E+03  9.751168E+03
        97  10  2.969670E+04  3.988078E+05  3.860818E+04 -3.152610E+04 -1.295460E-10 -3.048130E-10
        97  11 -1.716614E+04  3.649248E+05  7.292679E+03 -1.370497E+04 -3.442586E-10 -7.604879E-11
        97  12 -2.345633E+04  3.425989E+05 -6.817412E+03 -1.062737E+04  1.926334E-10  1.237368E-10
        97  13  3.742781E+04  4.299875E+05  4.610406E+04 -1.614980E+04  1.314326E-10 -1.835256E-11
        97  14 -2.592493E+03  4.241858E+05  2.092525E+04 -8.778120E+03  2.504554E-10 -1.828614E-12
        97  15 -1.986731E+03  4.299956E+05  1.317326E+04 -1.614945E+04 -3.277935E-10 -7.733003E-11
        97  16  4.515975E+04  4.611686E+05  5.359999E+04 -7.727287E+02 -2.641089E-10  3.184256E-10
        97  17  1.198100E+04  4.834500E+05  3.455759E+04 -3.850800E+03 -3.172961E-10  6.065067E-11
        97  18  1.948245E+04  5.173995E+05  3.316344E+04 -2.167231E+04  2.112465E-10 -1.560827E-10
        97  19  2.969693E+04  3.988087E+05  3.860984E+04 -3.152612E+04  6.315113E+02 -2.970590E+04
        97  20 -1.716604E+04  3.649252E+05  7.293359E+03 -1.370500E+04  2.509000E+03 -1.885350E+04
        97  21 -2.345630E+04  3.425989E+05 -6.817262E+03 -1.062740E+04  3.944048E+03 -8.001483E+03
        97  22  3.742808E+04  4.299885E+05  4.610589E+04 -1.614982E+04  6.308083E+02 -3.121991E+04
        97  23 -2.592379E+03  4.241862E+05  2.092601E+04 -8.778160E+03  2.508824E+03 -2.004812E+04
        97  24 -1.986693E+03  4.299957E+05  1.317343E+04 -1.614948E+04  3.944057E+03 -8.876265E+03
        97  25  4.516004E+04  4.611698E+05  5.360200E+04 -7.727453E+02  6.300303E+02 -3.273400E+04
        97  26  1.198113E+04  4.834505E+05  3.455845E+04 -3.850843E+03  2.508629E+03 -2.124286E+04
        97  27  1.948250E+04  5.173996E+05  3.316365E+04 -2.167234E+04  3.944081E+03 -9.751168E+03
        98   1 -2.539096E+04  3.134055E+05 -1.534682E+04 -1.728026E+04 -4.739915E+03  5.779070E+03
        98   2 -3.536940E+04  2.844436E+05 -2.570437E+04 -8.934742E+03 -6.105884E+03  2.453388E+03
        98   3 -4.118465E+04  2.569723E+05 -3.285339E+04 -1.536071E+04 -7.131621E+03 -8.719028E+02
        98   4  2.739959E+03  4.277529E+05  1.100632E+04 -1.615615E+04 -4.739787E+03  6.886294E+03
        98   5 -3.200895E+02  4.269860E+05  7.054970E+03 -8.770458E+03 -6.105684E+03  3.314942E+03
        98   6  8.252435E+02  4.277515E+05  6.482364E+03 -1.615600E+04 -7.131378E+03 -2.561665E+02
        98   7  3.086997E+04  5.421123E+05  3.735860E+04 -1.503183E+04 -4.739654E+03  7.993721E+03
        98   8  3.472781E+04  5.695472E+05  3.981297E+04 -8.606136E+03 -6.105484E+03  4.176692E+03
        98   9  4.283310E+04  5.985576E+05  4.581618E+04 -1.695151E+04 -7.131137E+03  3.597377E+02
        98  10 -2.539100E+04  3.134055E+05 -1.534692E+04 -1.728024E+04  2.709227E-11 -3.707472E-10
        98  11 -3.536944E+04  2.844435E+05 -2.570445E+04 -8.934730E+03 -1.852179E-10  1.968364E-11
        98  12 -4.118470E+04  2.569723E+05 -3.285349E+04 -1.536071E+04  2.800269E-10  1.004644E-11
        98  13  2.739922E+03  4.277528E+05  1.100619E+04 -1.615612E+04  1.919636E-10 -8.289910E-11
        98  14 -3.201324E+02  4.269860E+05  7.054880E+03 -8.770442E+03 -4.279644E-10 -3.663416E-11
        98  15  8.251889E+02  4.277515E+05  6.482268E+03 -1.615600E+04  5.000275E-10 -3.167367E-10
        98  16  3.086993E+04  5.421123E+05  3.735844E+04 -1.503180E+04  2.105187E-10  3.350745E-10
        98  17  3.472776E+04  5.695472E+05  3.981287E+04 -8.606116E+03  3.449411E-11 -9.721873E-11
        98  18  4.283304E+04  5.985576E+05  4.581609E+04 -1.695150E+04 -1.963695E-10 -9.181184E-11
        98  19 -2.539096E+04  3.134055E+05 -1.534682E+04 -1.728026E+04  4.739915E+03 -5.779070E+03
        98  20 -3.536940E+04  2.844436E+05 -2.570437E+04 -8.934742E+03  6.105884E+03 -2.453388E+03
        98  21 -4.118465E+04  2.569723E+05 -3.285339E+04 -1.536071E+04  7.131621E+03  8.719028E+02
        98  22  2.739959E+03  4.277529E+05  1.100632E+04 -1.615615E+04  4.739787E+03 -6.886294E+03
        98  23 -3.200895E+02  4.269860E+05  7.054970E+03 -8.770458E+03  6.105684E+03 -3.314942E+03
        98  24  8.252435E+02  4.277515E+05  6.482364E+03 -1.615600E+04  7.131378E+03  2.561665E+02
        98  25  3.086997E+04  5.421123E+05  3.735860E+04 -1.503183E+04  4.739654E+03 -7.993721E+03
        98  26  3.472781E+04  5.695472E+05  3.981297E+04 -8.606136E+03  6.105484E+03 -4.176692E+03
        98  27  4.283310E+04  5.985576E+05  4.581618E+04 -1.695151E+04  7.131137E+03 -3.597377E+02
        99   1 -4.920468E+04  2.303920E+05 -3.879275E+04 -1.813603E+04 -8.704516E+03 -3.987139E+03
        99   2 -5.659259E+04  2.001882E+05 -4.390269E+04 -7.084260E+03 -9.104066E+03 -3.712067E+03
        99   3 -5.012645E+04  1.734541E+05 -4.571928E+04 -1.067808E+04 -2.999600E+03 -3.439597E+03
        99   4 -5.452281E+02  4.283601E+05  6.601781E+03 -1.612664E+04 -8.703764E+03 -1.357648E+03
        99   5 -9.592772E+02  4.262170E+05  8.317952E+03 -8.806595E+03 -9.104481E+03 -5.767744E+03
        99   6  1.329094E+04  4.283541E+05  1.657839E+04 -1.613163E+04 -3.002238E+03 -1.018038E+04
        99   7  4.811151E+04  6.263646E+05  5.199376E+04 -1.411661E+04 -8.702995E+03  1.272674E+03
        99   8  5.467047E+04  6.522931E+05  6.053520E+04 -1.052956E+04 -9.104884E+03 -7.824163E+03
        99   9  7.670367E+04  6.833134E+05  7.887151E+04 -2.158743E+04 -3.004757E+03 -1.692393E+04
        99  10 -4.920477E+04  2.303920E+05 -3.879292E+04 -1.813606E+04  8.323158E-10 -6.994285E-10
        99  11 -5.659268E+04  2.001881E+05 -4.390287E+04 -7.084288E+03  7.907114E-10  3.736823E-12
        99  12 -5.012647E+04  1.734541E+05 -4.571932E+04 -1.067809E+04  2.136800E-11 -2.313691E-10
        99  13 -5.453100E+02  4.283601E+05  6.601635E+03 -1.612665E+04  4.068446E-10 -3.055440E-10
        99  14 -9.593752E+02  4.262170E+05  8.317734E+03 -8.806637E+03  2.372131E-10 -6.357889E-11
        99  15  1.329090E+04  4.283540E+05  1.657818E+04 -1.613166E+04  3.056517E-10 -6.674343E-10
        99  16  4.811143E+04  6.263645E+05  5.199361E+04 -1.411660E+04 -6.759400E-11  5.806326E-10
        99  17  5.467036E+04  6.522930E+05  6.053493E+04 -1.052962E+04 -3.897843E-10 -1.310748E-10
        99  18  7.670359E+04  6.833131E+05  7.887095E+04 -2.158747E+04 -1.698366E-10 -6.027079E-11
        99  19 -4.920468E+04  2.303920E+05 -3.879275E+04 -1.813603E+04  8.704516E+03  3.987139E+03
        99  20 -5.659259E+04  2.001882E+05 -4.390269E+04 -7.084260E+03  9.104066E+03  3.712067E+03
        99  21 -5.012645E+04  1.734541E+05 -4.571928E+04 -1.067808E+04  2.999600E+03  3.439597E+03
        99  22 -5.452281E+02  4.283601E+05  6.601781E+03 -1.612664E+04  8.703764E+03  1.357648E+03
        99  23 -9.592772E+02  4.262170E+05  8.317952E+03 -8.806595E+03  9.104481E+03  5.767744E+03
        99  24  1.329094E+04  4.283541E+05  1.657839E+04 -1.613163E+04  3.002238E+03  1.018038E+04
        99  25  4.811151E+04  6.263646E+05  5.199376E+04 -1.411661E+04  8.702995E+03 -1.272674E+03
        99  26  5.467047E+04  6.522931E+05  6.053520E+04 -1.052956E+04  9.104884E+03  7.824163E+03
        99  27  7.670367E+04  6.833134E+05  7.887151E+04 -2.158743E+04  3.004757E+03  1.692393E+04
       100   1  1.012607E+06  2.308519E+05  1.882844E+05  6.816686E+04 -9.069142E+04 -1.766576E+04
       100   2  7.991115E+05  3.356681E+05  2.176699E+05  5.228880E+04 -7.301107E+04 -5.291921E+04
       100   3  5.437221E+05  2.760193E+05  1.947153E+05  1.572698E+05 -5.526826E+04 -4.763951E+04
       100   4 -5.460626E+05 -1.573518E+05 -1.929718E+05  1.346442E+05 -1.304700E+05 -1.760458E+04
       100   5 -5.224039E+05  1.025912E+04 -8.781157E+04  7.433231E+04 -8.366840E+04 -5.291518E+04
       100   6 -5.458605E+05  8.150856E+03 -5.531728E+04  1.349082E+05 -3.679495E+04 -4.765682E+04
       100   7 -2.102507E+06 -5.457182E+05 -5.743975E+05  2.009554E+05 -1.701487E+05 -1.755185E+04
       100   8 -1.842305E+06 -3.152707E+05 -3.934090E+05  9.632903E+04 -9.430310E+04 -5.291191E+04
       100   9 -1.634342E+06 -2.597983E+05 -3.054266E+05  1.125862E+05 -1.835374E+04 -4.767547E+04
       100  10  1.012598E+06  2.308493E+05  1.882684E+05  6.816558E+04  7.731292E-11 -2.721316E-10
       100  11  7.991050E+05  3.356637E+05  2.176547E+05  5.228569E+04 -1.653029E-09 -5.064916E-10
       100  12  5.437182E+05  2.760161E+05  1.947053E+05  1.572677E+05 -9.541148E-10  2.862543E-10
       100  13 -5.460810E+05 -1.573567E+05 -1.930044E+05  1.346424E+05 -2.154920E-13 -9.929683E-11
       100  14 -5.224122E+05  1.025423E+04 -8.782999E+04  7.432874E+04 -6.449653E-10 -2.189677E-10
       100  15 -5.458626E+05  8.148054E+03 -5.532409E+04  1.349068E+05 -2.089709E-10  1.242113E-10
       100  16 -2.102538E+06 -5.457264E+05 -5.744527E+05  2.009529E+05 -6.170639E-10  9.161972E-11
       100  17 -1.842315E+06 -3.152761E+05 -3.934310E+05  9.632501E+04  1.295974E-09  1.502006E-10
       100  18 -1.634343E+06 -2.598008E+05 -3.054315E+05  1.125855E+05  2.780592E-10  8.075926E-11
       100  19  1.012607E+06  2.308519E+05  1.882844E+05  6.816686E+04  9.069142E+04  1.766576E+04
       100  20  7.991115E+05  3.356681E+05  2.176699E+05  5.228880E+04  7.301107E+04  5.291921E+04
       100  21  5.437221E+05  2.760193E+05  1.947153E+05  1.572698E+05  5.526826E+04  4.763951E+04
       100  22 -5.460626E+05 -1.573518E+05 -1.929718E+05  1.346442E+05  1.304700E+05  1.760458E+04
       100  23 -5.224039E+05  1.025912E+04 -8.781157E+04  7.433231E+04  8.366840E+04  5.291518E+04
       100  24 -5.458605E+05  8.150856E+03 -5.531728E+04  1.349082E+05  3.679495E+04  4.765682E+04
       100  25 -2.102507E+06 -5.457182E+05 -5.743975E+05  2.009554E+05  1.701487E+05  1.755185E+04
       100  26 -1.842305E+06 -3.152707E+05 -3.934090E+05  9.632903E+04  9.430310E+04  5.291191E+04
       100  27 -1.634342E+06 -2.597983E+05 -3.054266E+05  1.125862E+05  1.835374E+04  4.767547E+04
       101   1  3.272782E+05  2.005797E+05  1.525505E+05  1.306664E+05 -3.441579E+04 -3.615883E+04
       101   2  9.446625E+04  1.555864E+05  1.141548E+05  7.246811E+04 -2.051643E+04 -2.688404E+04
       101   3 -1.433275E+05  9.621923E+04  6.319624E+04  1.374733E+05 -6.631829E+03 -1.565300E+04
       101   4 -5.364656E+05 -1.198824E+04 -4.645124E+04  1.353502E+05 -2.841037E+04 -3.616551E+04
       101   5 -5.337827E+05  1.010362E+03 -3.033974E+04  7.374627E+04 -1.312138E+04 -2.688800E+04
       101   6 -5.363835E+05 -6.127583E+02 -2.776714E+04  1.353549E+05  2.158020E+03 -1.565332E+04
       101   7 -1.399519E+06 -2.246083E+05 -2.455023E+05  1.400273E+05 -2.241323E+04 -3.617211E+04
       101   8 -1.161666E+06 -1.535933E+05 -1.748602E+05  7.502313E+04 -5.733743E+03 -2.689194E+04
       101   9 -9.292964E+05 -9.745555E+04 -1.187406E+05  1.332378E+05  1.094234E+04 -1.565369E+04
       101  10  3.272766E+05  2.005780E+05  1.525458E+05  1.306654E+05  2.269482E-10  3.862299E-10
       101  11  9.446560E+04  1.555855E+05  1.141526E+05  7.246767E+04 -1.724516E-09 -1.894581E-10
       101  12 -1.433276E+05  9.621896E+04  6.319570E+04  1.374732E+05 -3.613421E-10 -7.733661E-11
       101  13 -5.364668E+05 -1.198986E+04 -4.645521E+04  1.353493E+05 -5.010913E-10  1.137502E-10
       101  14 -5.337831E+05  1.009540E+03 -3.034143E+04  7.374599E+04 -1.083271E-09 -2.193808E-10
       101  15 -5.363835E+05 -6.130226E+02 -2.776760E+04  1.353549E+05 -9.400937E-10 -1.812891E-10
       101  16 -1.399520E+06 -2.246099E+05 -2.455057E+05  1.400267E+05 -6.573353E-10 -1.098150E-10
       101  17 -1.161666E+06 -1.535940E+05 -1.748616E+05  7.502300E+04 -3.299649E-10 -2.469700E-10
       101  18 -9.292966E+05 -9.745585E+04 -1.187412E+05  1.332380E+05 -9.934682E-11 -1.857426E-10
       101  19  3.272782E+05  2.005797E+05  1.525505E+05  1.306664E+05  3.441579E+04  3.615883E+04
       101  20  9.446625E+04  1.555864E+05  1.141548E+05  7.246811E+04  2.051643E+04  2.688404E+04
       101  21 -1.433275E+05  9.621923E+04  6.319624E+04  1.374733E+05  6.631829E+03  1.565300E+04
       101  22 -5.364656E+05 -1.198824E+04 -4.645124E+04  1.353502E+05  2.841037E+04  3.616551E+04
       101  23 -5.337827E+05  1.010362E+03 -3.033974E+04  7.374627E+04  1.312138E+04  2.688800E+04
       101  24 -5.363835E+05 -6.127583E+02 -2.776714E+04  1.353549E+05 -2.158020E+03  1.565332E+04
       101  25 -1.399519E+06 -2.246083E+05 -2.455023E+05  1.400273E+05  2.241323E+04  3.617211E+04
       101  26 -1.161666E+06 -1.535933E+05 -1.748602E+05  7.502313E+04  5.733743E+03  2.689194E+04
       101  27 -9.292964E+05 -9.745555E+04 -1.187406E+05  1.332378E+05 -1.094234E+04  1.565369E+04
       102   1 -3.696186E+05  4.119590E+04  8.559542E+03  1.322940E+05 -1.415765E+03 -8.492323E+03
       102   2 -6.012694E+05 -1.521967E+04 -5.460161E+04  7.525938E+04  1.908806E+04  2.822328E+03
       102   3 -8.407193E+05 -9.255860E+04 -1.363496E+05  1.416514E+05  3.958455E+04  1.290183E+04
       102   4 -5.368878E+05  1.543627E+02 -2.929861E+04  1.354018E+05  7.170109E+03 -8.491560E+03
       102   5 -5.330485E+05  1.581814E+03 -3.885727E+04  7.368799E+04  2.678511E+04  2.822489E+03
       102   6 -5.369033E+05 -1.775413E+04 -6.637903E+04  1.354017E+05  4.640040E+04  1.290134E+04
       102   7 -7.041309E+05 -4.088902E+04 -6.715829E+04  1.385089E+05  1.575369E+04 -8.490710E+03
       102   8 -4.648232E+05  1.838301E+04 -2.311302E+04  7.211643E+04  3.448300E+04  2.822612E+03
       102   9 -2.330015E+05  5.704405E+04  3.585630E+03  1.291489E+05  5.321957E+04  1.290071E+04
       102  10 -3.696186E+05  4.119582E+04  8.559403E+03  1.322939E+05  8.852532E-10  4.659655E-11
       102  11 -6.012697E+05 -1.521978E+04 -5.460231E+04  7.525933E+04 -2.793165E-10 -2.743928E-10
       102  12 -8.407210E+05 -9.255920E+04 -1.363529E+05  1.416510E+05  1.101610E-09 -1.364782E-10
       102  13 -5.368879E+05  1.542715E+02 -2.929884E+04  1.354019E+05  1.084376E-09 -7.168539E-11
       102  14 -5.330493E+05  1.581613E+03 -3.885864E+04  7.368793E+04  7.959846E-10 -6.932336E-11
       102  15 -5.369056E+05 -1.775488E+04 -6.638339E+04  1.354012E+05  6.611322E-10 -7.304462E-11
       102  16 -7.041312E+05 -4.088917E+04 -6.715889E+04  1.385090E+05 -2.277572E-11 -5.792626E-12
       102  17 -4.648245E+05  1.838269E+04 -2.311527E+04  7.211635E+04 -1.165707E-10  1.607296E-10
       102  18 -2.330046E+05  5.704312E+04  3.579994E+03  1.291484E+05 -8.112248E-11  1.721451E-11
       102  19 -3.696186E+05  4.119590E+04  8.559542E+03  1.322940E+05  1.415765E+03  8.492323E+03
       102  20 -6.012694E+05 -1.521967E+04 -5.460161E+04  7.525938E+04 -1.908806E+04 -2.822328E+03
       102  21 -8.407193E+05 -9.255860E+04 -1.363496E+05  1.416514E+05 -3.958455E+04 -1.290183E+04
       102  22 -5.368878E+05  1.543627E+02 -2.929861E+04  1.354018E+05 -7.170109E+03  8.491560E+03
       102  23 -5.330485E+05  1.581814E+03 -3.885727E+04  7.368799E+04 -2.678511E+04 -2.822489E+03
       102  24 -5.369033E+05 -1.775413E+04 -6.637903E+04  1.354017E+05 -4.640040E+04 -1.290134E+04
       102  25 -7.041309E+05 -4.088902E+04 -6.715829E+04  1.385089E+05 -1.575369E+04  8.490710E+03
       102  26 -4.648232E+05  1.838301E+04 -2.311302E+04  7.211643E+04 -3.448300E+04 -2.822612E+03
       102  27 -2.330015E+05  5.704405E+04  3.585630E+03  1.291489E+05 -5.321957E+04 -1.290071E+04
       103   1 -1.081227E+06 -1.175209E+05 -2.027650E+05  1.002885E+05  4.337529E+04  2.284231E+04
       103   2 -1.278224E+06 -1.719714E+05 -3.082482E+05  1.054874E+05  1.329703E+05  3.026219E+04
       103   3 -1.551560E+06 -4.869915E+05 -5.371963E+05  2.326824E+05  2.225149E+05  1.064026E+04
       103   4 -5.514272E+05  1.290023E+04 -8.089761E+04  1.351298E+05  5.848291E+04  2.284261E+04
       103   5 -5.150501E+05  1.621029E+04 -1.314470E+05  7.404627E+04  1.287037E+05  3.025473E+04
       103   6 -5.515779E+05 -2.375118E+05 -2.918826E+05  1.349784E+05  1.989099E+05  1.062066E+04
       103   7 -2.136399E+04  1.433064E+05  4.095274E+04  1.700011E+05  7.360331E+04  2.284460E+04
       103   8  2.486651E+05  2.043547E+05  4.531582E+04  4.256615E+04  1.244318E+05  3.024770E+04
       103   9  4.493384E+05  1.192980E+04 -4.663503E+04  3.711650E+04  1.752666E+05  1.060854E+04
       103  10 -1.081229E+06 -1.175219E+05 -2.027696E+05  1.002877E+05  1.053518E-09  2.413391E-11
       103  11 -1.278243E+06 -1.719772E+05 -3.082832E+05  1.054842E+05  2.167159E-10  1.796650E-10
       103  12 -1.551614E+06 -4.870050E+05 -5.372898E+05  2.326805E+05 -3.157488E-10 -5.372052E-11
       103  13 -5.514310E+05  1.289875E+04 -8.090502E+04  1.351287E+05  5.076908E-10  7.251372E-11
       103  14 -5.150682E+05  1.620486E+04 -1.314798E+05  7.404313E+04  1.061217E-09  3.951170E-10
       103  15 -5.516205E+05 -2.375225E+05 -2.919572E+05  1.349767E+05 -1.124131E-09  2.697960E-10
       103  16 -2.136995E+04  1.433044E+05  4.094158E+04  1.699998E+05  5.682743E-12  5.421839E-11
       103  17  2.486482E+05  2.043496E+05  4.528501E+04  4.256312E+04 -4.667330E-10  2.319703E-10
       103  18  4.493054E+05  1.192143E+04 -4.669293E+04  3.711501E+04  2.160973E-10  6.262491E-11
       103  19 -1.081227E+06 -1.175209E+05 -2.027650E+05  1.002885E+05 -4.337529E+04 -2.284231E+04
       103  20 -1.278224E+06 -1.719714E+05 -3.082482E+05  1.054874E+05 -1.329703E+05 -3.026219E+04
       103  21 -1.551560E+06 -4.869915E+05 -5.371963E+05  2.326824E+05 -2.225149E+05 -1.064026E+04
       103  22 -5.514272E+05  1.290023E+04 -8.089761E+04  1.351298E+05 -5.848291E+04 -2.284261E+04
       103  23 -5.150501E+05  1.621029E+04 -1.314470E+05  7.404627E+04 -1.287037E+05 -3.025473E+04
       103  24 -5.515779E+05 -2.375118E+05 -2.918826E+05  1.349784E+05 -1.989099E+05 -1.062066E+04
       103  25 -2.136399E+04  1.433064E+05  4.095274E+04  1.700011E+05 -7.360331E+04 -2.284460E+04
       103  26  2.486651E+05  2.043547E+05  4.531582E+04  4.256615E+04 -1.244318E+05 -3.024770E+04
       103  27  4.493384E+05  1.192980E+04 -4.663503E+04  3.711650E+04 -1.752666E+05 -1.060854E+04
       104   1  3.836689E+04  4.101058E+05  2.090173E+04  2.431118E+04  5.217654E+03 -4.480887E+04
       104   2  1.069347E+05  4.126013E+05  5.930725E+04  7.091060E+03  1.683576E+04 -3.268802E+04
       104   3  1.042054E+05  3.958099E+05  7.201089E+04 -1.336103E+04  1.807977E+04 -2.054431E+04
       104   4 -6.713333E+04 -1.336274E+04 -8.247921E+04 -3.888714E+03  5.193359E+03 -5.686735E+04
       104   5  4.582488E+03 -3.064453E+03 -3.667102E+04 -2.346813E+03  1.682769E+04 -3.728499E+04
       104   6  3.679286E+03 -1.336154E+04 -2.175805E+04 -4.036406E+03  1.808557E+04 -1.767918E+04
       104   7 -1.726438E+05 -4.366659E+05 -1.858723E+05 -3.206943E+04  5.170151E+03 -6.891762E+04
       104   8 -9.778151E+04 -4.185703E+05 -1.326607E+05 -1.177840E+04  1.681977E+04 -4.187891E+04
       104   9 -9.685818E+04 -4.223777E+05 -1.155379E+05  5.281958E+03  1.809146E+04 -1.481591E+04
       104  10  3.836632E+04  4.101036E+05  2.089791E+04  2.431137E+04 -1.316425E-10 -5.731794E-10
       104  11  1.069341E+05  4.126001E+05  5.930471E+04  7.091503E+03  4.156450E-10  1.288344E-11
       104  12  1.042050E+05  3.958093E+05  7.200948E+04 -1.336073E+04  8.340482E-10  6.457584E-10
       104  13 -6.713422E+04 -1.336622E+04 -8.248534E+04 -3.888477E+03  5.429510E-10  2.991149E-11
       104  14  4.581811E+03 -3.066022E+03 -3.667416E+04 -2.346307E+03 -1.345255E-09  9.624665E-12
       104  15  3.678851E+03 -1.336197E+04 -2.175925E+04 -4.036149E+03 -4.335478E-10 -7.596970E-11
       104  16 -1.726451E+05 -4.366710E+05 -1.858813E+05 -3.206914E+04 -9.209964E-10  5.502647E-10
       104  17 -9.778229E+04 -4.185723E+05 -1.326645E+05 -1.177783E+04 -5.317067E-10  5.862954E-11
       104  18 -9.685859E+04 -4.223781E+05 -1.155389E+05  5.282174E+03  1.172431E-10 -5.923535E-10
       104  19  3.836689E+04  4.101058E+05  2.090173E+04  2.431118E+04 -5.217654E+03  4.480887E+04
       104  20  1.069347E+05  4.126013E+05  5.930725E+04  7.091060E+03 -1.683576E+04  3.268802E+04
       104  21  1.042054E+05  3.958099E+05  7.201089E+04 -1.336103E+04 -1.807977E+04  2.054431E+04
       104  22 -6.713333E+04 -1.336274E+04 -8.247921E+04 -3.888714E+03 -5.193359E+03  5.686735E+04
       104  23  4.582488E+03 -3.064453E+03 -3.667102E+04 -2.346813E+03 -1.682769E+04  3.728499E+04
       104  24  3.679286E+03 -1.336154E+04 -2.175805E+04 -4.036406E+03 -1.808557E+04  1.767918E+04
       104  25 -1.726438E+05 -4.366659E+05 -1.858723E+05 -3.206943E+04 -5.170151E+03  6.891762E+04
       104  26 -9.778151E+04 -4.185703E+05 -1.326607E+05 -1.177840E+04 -1.681977E+04  4.187891E+04
       104  27 -9.685818E+04 -4.223777E+05 -1.155379E+05  5.281958E+03 -1.809146E+04  1.481591E+04
       105   1  9.385597E+04  3.929915E+05  7.542309E+04 -1.965553E+03  1.672657E+04 -1.403292E+04
       105   2  9.746170E+04  3.866457E+05  8.253334E+04 -1.302039E+03  1.690626E+04 -1.053730E+04
       105   3  9.627042E+04  3.787475E+05  8.619151E+04 -4.361970E+03  1.613674E+04 -7.040387E+03
       105   4 -5.095251E+03 -9.155182E+03 -1.724049E+04 -4.098523E+03  1.672656E+04 -1.449334E+04
       105   5  3.270430E+02 -8.318500E+03 -8.253405E+03 -2.241537E+03  1.690737E+04 -1.031632E+04
       105   6  8.322743E+02 -9.153720E+03 -3.193144E+03 -4.108158E+03  1.613871E+04 -6.137963E+03
       105   7 -1.040578E+05 -4.111523E+05 -1.099148E+05 -6.230166E+03  1.672654E+04 -1.495346E+04
       105   8 -9.681850E+04 -4.031384E+05 -9.905046E+04 -3.180489E+03  1.690847E+04 -1.009547E+04
       105   9 -9.461640E+04 -3.969158E+05 -9.258779E+04 -3.854553E+03  1.614068E+04 -5.236097E+03
       105  10  9.385562E+04  3.929912E+05  7.542219E+04 -1.965364E+03  7.439374E-10 -7.479910E-10
       105  11  9.746136E+04  3.866455E+05  8.253259E+04 -1.301896E+03 -2.370384E-10 -1.622319E-10
       105  12  9.627013E+04  3.787473E+05  8.619093E+04 -4.361879E+03 -4.915479E-10  1.054165E-11
       105  13 -5.095608E+03 -9.155483E+03 -1.724141E+04 -4.098328E+03 -6.229415E-10  2.979664E-11
       105  14  3.267075E+02 -8.318691E+03 -8.254142E+03 -2.241396E+03 -1.258633E-09  8.529009E-13
       105  15  8.319845E+02 -9.153830E+03 -3.193705E+03 -4.108078E+03 -1.877697E-09  1.073815E-11
       105  16 -1.040581E+05 -4.111527E+05 -1.099157E+05 -6.229965E+03  9.874491E-10  8.426473E-10
       105  17 -9.681884E+04 -4.031386E+05 -9.905119E+04 -3.180351E+03 -6.914851E-10  8.853127E-11
       105  18 -9.461669E+04 -3.969159E+05 -9.258833E+04 -3.854485E+03 -1.060810E-10 -9.666578E-11
       105  19  9.385597E+04  3.929915E+05  7.542309E+04 -1.965553E+03 -1.672657E+04  1.403292E+04
       105  20  9.746170E+04  3.866457E+05  8.253334E+04 -1.302039E+03 -1.690626E+04  1.053730E+04
       105  21  9.627042E+04  3.787475E+05  8.619151E+04 -4.361970E+03 -1.613674E+04  7.040387E+03
       105  22 -5.095251E+03 -9.155182E+03 -1.724049E+04 -4.098523E+03 -1.672656E+04  1.449334E+04
       105  23  3.270430E+02 -8.318500E+03 -8.253405E+03 -2.241537E+03 -1.690737E+04  1.031632E+04
       105  24  8.322743E+02 -9.153720E+03 -3.193144E+03 -4.108158E+03 -1.613871E+04  6.137963E+03
       105  25 -1.040578E+05 -4.111523E+05 -1.099148E+05 -6.230166E+03 -1.672654E+04  1.495346E+04
       105  26 -9.681850E+04 -4.031384E+05 -9.905046E+04 -3.180489E+03 -1.690847E+04  1.009547E+04
       105  27 -9.461640E+04 -3.969158E+05 -9.258779E+04 -3.854553E+03 -1.614068E+04  5.236097E+03
       106   1  9.286959E+04  3.729286E+05  8.600249E+04 -4.925522E+03  1.690931E+04 -3.741223E+03
       106   2  9.142380E+04  3.641894E+05  8.871188E+04 -8.464730E+02  1.522240E+04 -1.148992E+04
       106   3  9.911721E+04  3.588327E+05  9.876960E+04 -8.323544E+02  4.700621E+03 -1.923014E+04
       106   4 -8.213481E+02 -8.274485E+03 -1.348088E+03 -4.177968E+03  1.690743E+04 -5.713057E+03
       106   5 -5.317394E+02 -9.413184E+03  2.472418E+03 -2.150219E+03  1.522817E+04 -7.096424E+03
       106   6  7.794986E+03 -8.272942E+03  9.223459E+03 -4.187593E+03  4.711719E+03 -8.471420E+03
       106   7 -9.452240E+04 -3.893430E+05 -8.870821E+04 -3.430920E+03  1.690554E+04 -7.683691E+03
       106   8 -9.249704E+04 -3.828867E+05 -8.377627E+04 -3.453212E+03  1.523392E+04 -2.705549E+03
       106   9 -8.353708E+04 -3.752554E+05 -8.033205E+04 -7.540874E+03  4.722705E+03  2.280957E+03
       106  10  9.286928E+04  3.729285E+05  8.600192E+04 -4.925471E+03  5.058167E-11 -2.772454E-10
       106  11  9.142351E+04  3.641892E+05  8.871120E+04 -8.463322E+02 -1.036951E-10 -1.162002E-10
       106  12  9.911709E+04  3.588323E+05  9.876887E+04 -8.322816E+02 -2.228608E-10  4.229462E-12
       106  13 -8.216638E+02 -8.274597E+03 -1.348686E+03 -4.177890E+03  1.512316E-10 -3.168237E-11
       106  14 -5.320019E+02 -9.413300E+03  2.471888E+03 -2.150132E+03 -8.778607E-10  3.328069E-11
       106  15  7.794943E+03 -8.273025E+03  9.223283E+03 -4.187561E+03  2.052833E-10 -2.144514E-11
       106  16 -9.452272E+04 -3.893432E+05 -8.870885E+04 -3.430815E+03  1.831921E-10  2.227925E-10
       106  17 -9.249730E+04 -3.828868E+05 -8.377672E+04 -3.453179E+03  3.897324E-10  1.225465E-10
       106  18 -8.353711E+04 -3.752554E+05 -8.033210E+04 -7.540883E+03 -3.141317E-11  2.388673E-11
       106  19  9.286959E+04  3.729286E+05  8.600249E+04 -4.925522E+03 -1.690931E+04  3.741223E+03
       106  20  9.142380E+04  3.641894E+05  8.871188E+04 -8.464730E+02 -1.522240E+04  1.148992E+04
       106  21  9.911721E+04  3.588327E+05  9.876960E+04 -8.323544E+02 -4.700621E+03  1.923014E+04
       106  22 -8.213481E+02 -8.274485E+03 -1.348088E+03 -4.177968E+03 -1.690743E+04  5.713057E+03
       106  23 -5.317394E+02 -9.413184E+03  2.472418E+03 -2.150219E+03 -1.522817E+04  7.096424E+03
       106  24  7.794986E+03 -8.272942E+03  9.223459E+03 -4.187593E+03 -4.711719E+03  8.471420E+03
       106  25 -9.452240E+04 -3.893430E+05 -8.870821E+04 -3.430920E+03 -1.690554E+04  7.683691E+03
       106  26 -9.249704E+04 -3.828867E+05 -8.377627E+04 -3.453212E+03 -1.523392E+04  2.705549E+03
       106  27 -8.353708E+04 -3.752554E+05 -8.033205E+04 -7.540874E+03 -4.722705E+03 -2.280957E+03
       107   1  1.359044E+06  1.077180E+06  3.829934E+05  8.578211E+05  1.167765E+05  7.417951E+04
       107   2  1.283490E+06  8.681896E+05  2.576157E+05  8.673872E+05  8.450669E+04  2.336630E+04
       107   3  1.245438E+06  8.166937E+05  2.063230E+05  8.400351E+05  3.883303E+04 -9.481469E+03
       107   4  7.656431E+05  5.656506E+05  1.670446E+05  5.230672E+05  9.784615E+04  6.002596E+04
       107   5  7.226602E+05  4.423474E+05  7.491130E+04  5.758911E+05  7.857691E+04  1.892874E+04
       107   6  7.144374E+05  4.738042E+05  4.567729E+04  5.917721E+05  4.589225E+04 -4.204475E+03
       107   7  1.726163E+05  5.443009E+04 -4.895578E+04  1.887055E+05  7.894022E+04  4.589591E+04
       107   8  1.621667E+05  1.670899E+04 -1.078337E+05  2.847007E+05  7.265436E+04  1.449711E+04
       107   9  1.837395E+05  1.310356E+05 -1.150001E+05  3.437369E+05  5.294322E+04  1.067059E+03
       107  10  1.359028E+06  1.077170E+06  3.829576E+05  8.578141E+05 -2.315383E-10 -3.060389E-11
       107  11  1.283483E+06  8.681871E+05  2.576013E+05  8.673856E+05  2.576613E-10 -4.346535E-10
       107  12  1.245436E+06  8.166932E+05  2.063200E+05  8.400354E+05  3.908144E-10 -5.742356E-10
       107  13  7.656318E+05  5.656441E+05  1.670199E+05  5.230625E+05  4.859626E-11 -6.337091E-11
       107  14  7.226535E+05  4.423453E+05  7.489904E+04  5.758899E+05  1.705118E-09 -4.227772E-10
       107  15  7.144351E+05  4.738036E+05  4.567331E+04  5.917723E+05  3.165756E-10 -3.961159E-10
       107  16  1.726090E+05  5.442616E+04 -4.897144E+04  1.887026E+05  6.833174E-10 -1.518613E-10
       107  17  1.621610E+05  1.670734E+04 -1.078440E+05  2.846999E+05  6.745675E-10 -2.277898E-10
       107  18  1.837365E+05  1.310348E+05 -1.150054E+05  3.437369E+05  2.045698E-10 -2.841121E-10
       107  19  1.359044E+06  1.077180E+06  3.829934E+05  8.578211E+05 -1.167765E+05 -7.417951E+04
       107  20  1.283490E+06  8.681896E+05  2.576157E+05  8.673872E+05 -8.450669E+04 -2.336630E+04
       107  21  1.245438E+06  8.166937E+05  2.063230E+05  8.400351E+05 -3.883303E+04  9.481469E+03
       107  22  7.656431E+05  5.656506E+05  1.670446E+05  5.230672E+05 -9.784615E+04 -6.002596E+04
       107  23  7.226602E+05  4.423474E+05  7.491130E+04  5.758911E+05 -7.857691E+04 -1.892874E+04
       107  24  7.144374E+05  4.738042E+05  4.567729E+04  5.917721E+05 -4.589225E+04  4.204475E+03
       107  25  1.726163E+05  5.443009E+04 -4.895578E+04  1.887055E+05 -7.894022E+04 -4.589591E+04
       107  26  1.621667E+05  1.670899E+04 -1.078337E+05  2.847007E+05 -7.265436E+04 -1.449711E+04
       107  27  1.837395E+05  1.310356E+05 -1.150001E+05  3.437369E+05 -5.294322E+04 -1.067059E+03
       108   1  1.160457E+06  8.027955E+05  1.785209E+05  8.026918E+05  3.582545E+04 -5.202725E+03
       108   2  1.114587E+06  7.237895E+05  1.411224E+05  7.671791E+05  2.497437E+04 -9.391141E+03
       108   3  1.030762E+06  6.987029E+05  1.139018E+05  7.415260E+05  1.347352E+04 -1.271403E+04
       108   4  7.153778E+05  4.820289E+05  3.709415E+04  5.792665E+05  3.731773E+04 -4.088765E+03
       108   5  7.325364E+05  4.517514E+05  2.059504E+04  5.768830E+05  2.709866E+04 -7.803018E+03
       108   6  7.116031E+05  4.752611E+05  1.373401E+04  5.843552E+05  1.622842E+04 -1.065237E+04
       108   7  2.705064E+05  1.613714E+05 -1.043587E+05  3.560203E+05  3.880856E+04 -2.975914E+03
       108   8  3.506412E+05  1.797930E+05 -9.995043E+04  3.867184E+05  2.922118E+04 -6.216234E+03
       108   9  3.925548E+05  2.518742E+05 -8.644541E+04  4.272757E+05  1.898137E+04 -8.592145E+03
       108  10  1.160455E+06  8.027951E+05  1.785184E+05  8.026920E+05 -1.510931E-10 -5.850310E-10
       108  11  1.114586E+06  7.237892E+05  1.411210E+05  7.671793E+05  3.927693E-10  7.441808E-12
       108  12  1.030762E+06  6.987027E+05  1.139011E+05  7.415261E+05 -3.454270E-10  2.764572E-10
       108  13  7.153763E+05  4.820285E+05  3.709151E+04  5.792666E+05 -1.722928E-10 -2.726929E-10
       108  14  7.325356E+05  4.517511E+05  2.059355E+04  5.768832E+05  9.222072E-10  8.823739E-11
       108  15  7.116028E+05  4.752609E+05  1.373330E+04  5.843554E+05 -2.607186E-10  1.435583E-10
       108  16  2.705047E+05  1.613710E+05 -1.043616E+05  3.560204E+05  6.199053E-10  7.623577E-11
       108  17  3.506402E+05  1.797928E+05 -9.995210E+04  3.867185E+05  5.028599E-10  2.486426E-10
       108  18  3.925544E+05  2.518741E+05 -8.644623E+04  4.272758E+05 -7.503392E-11  7.931269E-11
       108  19  1.160457E+06  8.027955E+05  1.785209E+05  8.026918E+05 -3.582545E+04  5.202725E+03
       108  20  1.114587E+06  7.237895E+05  1.411224E+05  7.671791E+05 -2.497437E+04  9.391141E+03
       108  21  1.030762E+06  6.987029E+05  1.139018E+05  7.415260E+05 -1.347352E+04  1.271403E+04
       108  22  7.153778E+05  4.820289E+05  3.709415E+04  5.792665E+05 -3.731773E+04  4.088765E+03
       108  23  7.325364E+05  4.517514E+05  2.059504E+04  5.768830E+05 -2.709866E+04  7.803018E+03
       108  24  7.116031E+05  4.752611E+05  1.373401E+04  5.843552E+05 -1.622842E+04  1.065237E+04
       108  25  2.705064E+05  1.613714E+05 -1.043587E+05  3.560203E+05 -3.880856E+04  2.975914E+03
       108  26  3.506412E+05  1.797930E+05 -9.995043E+04  3.867184E+05 -2.922118E+04  6.216234E+03
       108  27  3.925548E+05  2.518742E+05 -8.644541E+04  4.272757E+05 -1.898137E+04  8.592145E+03
       109   1  9.668911E+05  6.569651E+05  9.216666E+04  7.103777E+05  1.032065E+04 -1.172312E+04
       109   2  9.241832E+05  5.880650E+05  7.076325E+04  6.718590E+05  3.489368E+03 -1.146670E+04
       109   3  8.384940E+05  5.652687E+05  5.329871E+04  6.460368E+05 -3.353575E+03 -1.119661E+04
       109   4  7.117030E+05  4.756617E+05  1.198283E+04  5.834204E+05  1.279731E+04 -9.869101E+03
       109   5  7.332405E+05  4.526831E+05  1.064735E+04  5.770241E+05  5.977743E+03 -9.603195E+03
       109   6  7.117891E+05  4.758057E+05  1.324210E+04  5.833213E+05 -8.541145E+02 -9.324047E+03
       109   7  4.565843E+05  2.943938E+05 -6.820903E+04  4.565216E+05  1.527259E+04 -8.016122E+03
       109   8  5.423360E+05  3.173203E+05 -4.947329E+04  4.822215E+05  8.465090E+03 -7.740460E+03
       109   9  5.851003E+05  3.863506E+05 -2.681681E+04  5.206196E+05  1.644672E+03 -7.451982E+03
       109  10  9.668910E+05  6.569649E+05  9.216620E+04  7.103778E+05  9.075430E-10  4.518305E-11
       109  11  9.241832E+05  5.880649E+05  7.076298E+04  6.718590E+05  7.391570E-10  3.246249E-10
       109  12  8.384939E+05  5.652686E+05  5.329846E+04  6.460368E+05 -3.930426E-10  2.678951E-11
       109  13  7.117028E+05  4.756616E+05  1.198234E+04  5.834205E+05  1.107191E-10  5.869541E-11
       109  14  7.332405E+05  4.526830E+05  1.064711E+04  5.770242E+05  5.006518E-10 -9.279540E-11
       109  15  7.117891E+05  4.758057E+05  1.324194E+04  5.833213E+05  1.404295E-09 -1.288838E-10
       109  16  4.565841E+05  2.943937E+05 -6.820959E+04  4.565217E+05 -7.158169E-11  1.588048E-10
       109  17  5.423359E+05  3.173202E+05 -4.947354E+04  4.822216E+05  1.565040E-10  6.392708E-11
       109  18  5.851003E+05  3.863506E+05 -2.681692E+04  5.206196E+05  6.987537E-10 -4.827998E-10
       109  19  9.668911E+05  6.569651E+05  9.216666E+04  7.103777E+05 -1.032065E+04  1.172312E+04
       109  20  9.241832E+05  5.880650E+05  7.076325E+04  6.718590E+05 -3.489368E+03  1.146670E+04
       109  21  8.384940E+05  5.652687E+05  5.329871E+04  6.460368E+05  3.353575E+03  1.119661E+04
       109  22  7.117030E+05  4.756617E+05  1.198283E+04  5.834204E+05 -1.279731E+04  9.869101E+03
       109  23  7.332405E+05  4.526831E+05  1.064735E+04  5.770241E+05 -5.977743E+03  9.603195E+03
       109  24  7.117891E+05  4.758057E+05  1.324210E+04  5.833213E+05  8.541145E+02  9.324047E+03
       109  25  4.565843E+05  2.943938E+05 -6.820903E+04  4.565216E+05 -1.527259E+04  8.016122E+03
       109  26  5.423360E+05  3.173203E+05 -4.947329E+04  4.822215E+05 -8.465090E+03  7.740460E+03
       109  27  5.851003E+05  3.863506E+05 -2.681681E+04  5.206196E+05 -1.644672E+03  7.451982E+03
       110   1  7.748228E+05  5.231256E+05  3.588240E+04  6.173033E+05 -7.050534E+03 -1.073062E+04
       110   2  7.340354E+05  4.513633E+05  2.469157E+04  5.770069E+05 -1.923993E+04 -1.453032E+04
       110   3  6.571071E+05  4.343961E+05  2.474113E+04  5.455049E+05 -3.114819E+04 -1.870243E+04
       110   4  7.118454E+05  4.751133E+05  1.567092E+04  5.844333E+05 -4.452646E+03 -8.784012E+03
       110   5  7.322206E+05  4.518459E+05  2.446640E+04  5.769193E+05 -1.691156E+04 -1.278578E+04
       110   6  7.165073E+05  4.834274E+05  4.473477E+04  5.781947E+05 -2.909064E+04 -1.716106E+04
       110   7  6.488727E+05  4.271040E+05 -4.540864E+03  5.515675E+05 -1.855135E+03 -6.837709E+03
       110   8  7.304059E+05  4.523286E+05  2.424127E+04  5.768316E+05 -1.458320E+04 -1.104125E+04
       110   9  7.759114E+05  5.324615E+05  6.472793E+04  6.108882E+05 -2.703283E+04 -1.561944E+04
       110  10  7.748227E+05  5.231254E+05  3.588209E+04  6.173032E+05 -2.310676E-09 -1.605264E-09
       110  11  7.340350E+05  4.513630E+05  2.469048E+04  5.770067E+05  3.669553E-09  3.704685E-09
       110  12  6.571059E+05  4.343954E+05  2.473865E+04  5.455044E+05  8.983073E-09  7.413022E-09
       110  13  7.118453E+05  4.751132E+05  1.567073E+04  5.844333E+05  6.481631E-10  3.053735E-10
       110  14  7.322203E+05  4.518457E+05  2.446556E+04  5.769191E+05  4.478451E-09  1.962734E-09
       110  15  7.165064E+05  4.834268E+05  4.473263E+04  5.781943E+05  4.165686E-09  3.602820E-09
       110  16  6.488726E+05  4.271040E+05 -4.540958E+03  5.515675E+05  3.407497E-09  1.935519E-09
       110  17  7.304056E+05  4.523284E+05  2.424064E+04  5.768315E+05  8.763182E-10  3.180764E-10
       110  18  7.759105E+05  5.324610E+05  6.472610E+04  6.108879E+05 -1.788922E-09 -5.487030E-10
       110  19  7.748228E+05  5.231256E+05  3.588240E+04  6.173033E+05  7.050534E+03  1.073062E+04
       110  20  7.340354E+05  4.513633E+05  2.469157E+04  5.770069E+05  1.923993E+04  1.453032E+04
       110  21  6.571071E+05  4.343961E+05  2.474113E+04  5.455049E+05  3.114819E+04  1.870243E+04
       110  22  7.118454E+05  4.751133E+05  1.567092E+04  5.844333E+05  4.452646E+03  8.784012E+03
       110  23  7.322206E+05  4.518459E+05  2.446640E+04  5.769193E+05  1.691156E+04  1.278578E+04
       110  24  7.165073E+05  4.834274E+05  4.473477E+04  5.781947E+05  2.909064E+04  1.716106E+04
       110  25  6.488727E+05  4.271040E+05 -4.540864E+03  5.515675E+05  1.855135E+03  6.837709E+03
       110  26  7.304059E+05  4.523286E+05  2.424127E+04  5.768316E+05  1.458320E+04  1.104125E+04
       110  27  7.759114E+05  5.324615E+05  6.472793E+04  6.108882E+05  2.703283E+04  1.561944E+04
       111   1  5.670677E+05  4.080496E+05  1.584522E+04  5.380849E+05 -4.222765E+04 -2.246039E+04
       111   2  5.518995E+05  2.856901E+05  3.091672E+04  4.757797E+05 -7.738637E+04 -4.516509E+04
       111   3  5.882891E+05  3.390224E+05  1.175149E+05  3.651866E+05 -1.068802E+05 -7.542238E+04
       111   4  7.154042E+05  4.733847E+05  5.522995E+04  5.933465E+05 -3.783600E+04 -1.916780E+04
       111   5  7.202585E+05  4.406459E+05  9.090803E+04  5.757511E+05 -7.845598E+04 -4.597054E+04
       111   6  7.778148E+05  5.847320E+05  2.028228E+05  5.098713E+05 -1.134134E+05 -8.033306E+04
       111   7  8.637667E+05  5.387241E+05  9.461350E+04  6.486202E+05 -3.344285E+04 -1.587462E+04
       111   8  8.886480E+05  5.956313E+05  1.508951E+05  6.757569E+05 -7.952597E+04 -4.677639E+04
       111   9  9.673828E+05  8.305249E+05  2.881238E+05  6.546195E+05 -1.199490E+05 -8.524785E+04
       111  10  5.670656E+05  4.080486E+05  1.584093E+04  5.380841E+05 -2.698776E-11  5.579436E-11
       111  11  5.518926E+05  2.856863E+05  3.090166E+04  4.757768E+05 -1.950559E-09 -1.877811E-09
       111  12  5.882753E+05  3.390132E+05  1.174828E+05  3.651802E+05  3.853263E-10 -2.957739E-10
       111  13  7.154026E+05  4.733839E+05  5.522658E+04  5.933459E+05  1.678427E-09  2.579653E-09
       111  14  7.202513E+05  4.406420E+05  9.089252E+04  5.757482E+05  6.670214E-10  1.667732E-10
       111  15  7.777993E+05  5.847217E+05  2.027865E+05  5.098640E+05 -1.469072E-10 -5.100318E-10
       111  16  8.637654E+05  5.387236E+05  9.461093E+04  6.486198E+05  4.486013E-09  5.153347E-09
       111  17  8.886406E+05  5.956273E+05  1.508792E+05  6.757539E+05  2.298517E-09  1.837662E-09
       111  18  9.673655E+05  8.305133E+05  2.880832E+05  6.546112E+05 -4.449928E-10 -4.169150E-10
       111  19  5.670677E+05  4.080496E+05  1.584522E+04  5.380849E+05  4.222765E+04  2.246039E+04
       111  20  5.518995E+05  2.856901E+05  3.091672E+04  4.757797E+05  7.738637E+04  4.516509E+04
       111  21  5.882891E+05  3.390224E+05  1.175149E+05  3.651866E+05  1.068802E+05  7.542238E+04
       111  22  7.154042E+05  4.733847E+05  5.522995E+04  5.933465E+05  3.783600E+04  1.916780E+04
       111  23  7.202585E+05  4.406459E+05  9.090803E+04  5.757511E+05  7.845598E+04  4.597054E+04
       111  24  7.778148E+05  5.847320E+05  2.028228E+05  5.098713E+05  1.134134E+05  8.033306E+04
       111  25  8.637667E+05  5.387241E+05  9.461350E+04  6.486202E+05  3.344285E+04  1.587462E+04
       111  26  8.886480E+05  5.956313E+05  1.508951E+05  6.757569E+05  7.952597E+04  4.677639E+04
       111  27  9.673828E+05  8.305249E+05  2.881238E+05  6.546195E+05  1.199490E+05  8.524785E+04
       112   1  2.239284E+06  3.204167E+05  3.264339E+05  1.212456E+05  6.560421E+04 -1.259535E+04
       112   2  2.048717E+06  2.242791E+05  2.389759E+05  6.206476E+04  3.124173E+04 -3.702460E+04
       112   3  1.876357E+06  1.806975E+05  1.870747E+05  9.664798E+04 -3.090764E+03 -3.257094E+04
       112   4  1.129864E+06  4.480972E+04  5.550323E+04  1.033031E+05  3.748451E+04 -1.257810E+04
       112   5  1.122626E+06 -3.349895E+03  2.522478E+04  5.640524E+04  2.400049E+04 -3.702593E+04
       112   6  1.129978E+06 -2.525155E+03  1.606735E+04  1.032760E+05  1.053585E+04 -3.257309E+04
       112   7  2.156454E+04 -2.308863E+05 -2.155139E+05  8.539277E+04  9.414760E+03 -1.255922E+04
       112   8  1.973259E+05 -2.310387E+05 -1.885832E+05  5.075424E+04  1.676992E+04 -3.702712E+04
       112   9  3.841136E+05 -1.857862E+05 -1.549759E+05  1.098959E+05  2.414625E+04 -3.257494E+04
       112  10  2.239279E+06  3.204153E+05  3.264255E+05  1.212462E+05  1.287942E-09 -1.569399E-10
       112  11  2.048716E+06  2.242774E+05  2.389715E+05  6.206569E+04 -6.031132E-11 -4.447333E-10
       112  12  1.876356E+06  1.806964E+05  1.870727E+05  9.664790E+04 -4.395025E-10 -1.481939E-10
       112  13  1.129862E+06  4.480917E+04  5.550030E+04  1.033035E+05 -6.989759E-10 -1.970070E-10
       112  14  1.122625E+06 -3.351522E+03  2.522112E+04  5.640595E+04  4.517686E-10 -6.103145E-10
       112  15  1.129977E+06 -2.526325E+03  1.606514E+04  1.032762E+05  4.331758E-10 -1.311901E-11
       112  16  2.156440E+04 -2.308865E+05 -2.155144E+05  8.539287E+04 -1.088268E-09 -5.217103E-10
       112  17  1.973252E+05 -2.310403E+05 -1.885863E+05  5.075474E+04  6.629408E-10 -8.105005E-10
       112  18  3.841126E+05 -1.857875E+05 -1.549790E+05  1.098965E+05  1.243198E-09  3.081369E-10
       112  19  2.239284E+06  3.204167E+05  3.264339E+05  1.212456E+05 -6.560421E+04  1.259535E+04
       112  20  2.048717E+06  2.242791E+05  2.389759E+05  6.206476E+04 -3.124173E+04  3.702460E+04
       112  21  1.876357E+06  1.806975E+05  1.870747E+05  9.664798E+04  3.090764E+03  3.257094E+04
       112  22  1.129864E+06  4.480972E+04  5.550323E+04  1.033031E+05 -3.748451E+04  1.257810E+04
       112  23  1.122626E+06 -3.349895E+03  2.522478E+04  5.640524E+04 -2.400049E+04  3.702593E+04
       112  24  1.129978E+06 -2.525155E+03  1.606735E+04  1.032760E+05 -1.053585E+04  3.257309E+04
       112  25  2.156454E+04 -2.308863E+05 -2.155139E+05  8.539277E+04 -9.414760E+03  1.255922E+04
       112  26  1.973259E+05 -2.310387E+05 -1.885832E+05  5.075424E+04 -1.676992E+04  3.702712E+04
       112  27  3.841136E+05 -1.857862E+05 -1.549759E+05  1.098959E+05 -2.414625E+04  3.257494E+04
       113   1  1.700780E+06  1.442092E+05  1.454376E+05  1.045989E+05  3.393344E+03 -2.401176E+04
       113   2  1.520470E+06  9.648007E+04  9.950171E+04  5.677783E+04 -2.122327E+03 -1.682515E+04
       113   3  1.342052E+06  5.316128E+04  5.825794E+04  1.027817E+05 -7.641673E+03 -8.280949E+03
       113   4  1.127162E+06  3.284980E+03  1.351934E+04  1.032958E+05  8.084726E+03 -2.401233E+04
       113   5  1.126336E+06 -3.293896E+02  9.002080E+03  5.638195E+04  3.551328E+03 -1.682399E+04
       113   6  1.127202E+06  2.996878E+02  8.499679E+03  1.032965E+05 -9.873186E+02 -8.277578E+03
       113   7  5.538478E+05 -1.376622E+05 -1.184206E+05  1.019938E+05  1.277182E+04 -2.401293E+04
       113   8  7.323458E+05 -9.714965E+04 -8.150767E+04  5.598631E+04  9.221417E+03 -1.682284E+04
       113   9  9.123942E+05 -5.256512E+04 -4.126150E+04  1.038111E+05  5.664754E+03 -8.274196E+03
       113  10  1.700780E+06  1.442086E+05  1.454365E+05  1.045990E+05  7.636886E-10 -3.816566E-11
       113  11  1.520470E+06  9.647977E+04  9.950117E+04  5.677780E+04 -1.626757E-10 -6.832265E-12
       113  12  1.342052E+06  5.316119E+04  5.825770E+04  1.027816E+05 -8.443043E-10  1.079597E-10
       113  13  1.127162E+06  3.284343E+03  1.351813E+04  1.032959E+05  2.290229E-09  3.784555E-10
       113  14  1.126336E+06 -3.296970E+02  9.001524E+03  5.638200E+04  1.443760E-09 -8.814536E-11
       113  15  1.127202E+06  2.996139E+02  8.499549E+03  1.032964E+05 -8.439374E-10  3.336557E-10
       113  16  5.538475E+05 -1.376628E+05 -1.184220E+05  1.019940E+05 -4.660153E-10  6.007867E-10
       113  17  7.323456E+05 -9.714998E+04 -8.150836E+04  5.598643E+04  7.624577E-10 -4.896137E-11
       113  18  9.123942E+05 -5.256520E+04 -4.126169E+04  1.038111E+05  3.549808E-10 -8.097662E-12
       113  19  1.700780E+06  1.442092E+05  1.454376E+05  1.045989E+05 -3.393344E+03  2.401176E+04
       113  20  1.520470E+06  9.648007E+04  9.950171E+04  5.677783E+04  2.122327E+03  1.682515E+04
       113  21  1.342052E+06  5.316128E+04  5.825794E+04  1.027817E+05  7.641673E+03  8.280949E+03
       113  22  1.127162E+06  3.284980E+03  1.351934E+04  1.032958E+05 -8.084726E+03  2.401233E+04
       113  23  1.126336E+06 -3.293896E+02  9.002080E+03  5.638195E+04 -3.551328E+03  1.682399E+04
       113  24  1.127202E+06  2.996878E+02  8.499679E+03  1.032965E+05  9.873186E+02  8.277578E+03
       113  25  5.538478E+05 -1.376622E+05 -1.184206E+05  1.019938E+05 -1.277182E+04  2.401293E+04
       113  26  7.323458E+05 -9.714965E+04 -8.150767E+04  5.598631E+04 -9.221417E+03  1.682284E+04
       113  27  9.123942E+05 -5.256512E+04 -4.126150E+04  1.038111E+05 -5.664754E+03  8.274196E+03
       114   1  1.170949E+06  1.062138E+04  1.861904E+04  1.042486E+05 -9.092319E+03 -2.850766E+03
       114   2  9.908512E+05 -3.370585E+04 -1.884553E+04  5.588877E+04 -1.453587E+04  5.715054E+03
       114   3  8.130391E+05 -7.156804E+04 -5.117447E+04  1.011905E+05 -1.997595E+04  1.323966E+04
       114   4  1.127367E+06  5.496400E+00  9.071286E+03  1.032595E+05 -2.539754E+03 -2.847040E+03
       114   5  1.126165E+06 -4.529483E+02  1.226073E+04  5.642831E+04 -8.735806E+03  5.717706E+03
       114   6  1.127349E+06  5.685650E+03  2.110828E+04  1.032570E+05 -1.492992E+04  1.324143E+04
       114   7  1.083788E+06 -1.061049E+04 -4.764188E+02  1.022704E+05  4.012359E+03 -2.843334E+03
       114   8  1.261495E+06  3.279870E+04  4.336592E+04  5.696796E+04 -2.934489E+03  5.720368E+03
       114   9  1.441751E+06  8.293248E+04  9.338460E+04  1.053245E+05 -9.881370E+03  1.324323E+04
       114  10  1.170949E+06  1.062135E+04  1.861887E+04  1.042486E+05  6.166576E-10  9.870365E-11
       114  11  9.908510E+05 -3.370594E+04 -1.884599E+04  5.588884E+04 -2.759403E-10 -1.727918E-10
       114  12  8.130386E+05 -7.156834E+04 -5.117554E+04  1.011907E+05 -2.718183E-10 -1.505344E-10
       114  13  1.127367E+06  5.485966E+00  9.071259E+03  1.032595E+05 -6.065813E-10 -1.200904E-11
       114  14  1.126165E+06 -4.530038E+02  1.226053E+04  5.642835E+04 -1.969180E-10 -1.895962E-11
       114  15  1.127349E+06  5.685402E+03  2.110754E+04  1.032572E+05 -5.135327E-10 -1.413771E-10
       114  16  1.083788E+06 -1.061050E+04 -4.764642E+02  1.022704E+05 -9.791033E-10  9.818940E-11
       114  17  1.261495E+06  3.279866E+04  4.336584E+04  5.696797E+04 -1.158770E-09 -5.335636E-10
       114  18  1.441751E+06  8.293227E+04  9.338409E+04  1.053246E+05 -1.464725E-12  2.896557E-11
       114  19  1.170949E+06  1.062138E+04  1.861904E+04  1.042486E+05  9.092319E+03  2.850766E+03
       114  20  9.908512E+05 -3.370585E+04 -1.884553E+04  5.588877E+04  1.453587E+04 -5.715054E+03
       114  21  8.130391E+05 -7.156804E+04 -5.117447E+04  1.011905E+05  1.997595E+04 -1.323966E+04
       114  22  1.127367E+06  5.496400E+00  9.071286E+03  1.032595E+05  2.539754E+03  2.847040E+03
       114  23  1.126165E+06 -4.529483E+02  1.226073E+04  5.642831E+04  8.735806E+03 -5.717706E+03
       114  24  1.127349E+06  5.685650E+03  2.110828E+04  1.032570E+05  1.492992E+04 -1.324143E+04
       114  25  1.083788E+06 -1.061049E+04 -4.764188E+02  1.022704E+05 -4.012359E+03  2.843334E+03
       114  26  1.261495E+06  3.279870E+04  4.336592E+04  5.696796E+04  2.934489E+03 -5.720368E+03
       114  27  1.441751E+06  8.293248E+04  9.338460E+04  1.053245E+05  9.881370E+03 -1.324323E+04
       115   1  6.459123E+05 -1.235434E+05 -8.576373E+04  1.142384E+05 -3.078781E+04  2.103412E+04
       115   2  4.552510E+05 -1.689283E+05 -1.118101E+05  4.653398E+04 -3.689596E+04  2.642202E+04
       115   3  2.855203E+05 -1.350032E+05 -1.139962E+05  7.229238E+04 -4.300493E+04  9.250108E+03
       115   4  1.132059E+06 -4.106429E+03  2.578651E+04  1.032103E+05 -1.879137E+04  2.103781E+04
       115   5  1.120160E+06 -5.318140E+03  4.188767E+04  5.648908E+04 -4.117164E+04  2.641931E+04
       115   6  1.131952E+06  7.555511E+04  9.311344E+04  1.032191E+05 -6.355502E+04  9.251307E+03
       115   7  1.618424E+06  1.153146E+05  1.373218E+05  9.217345E+04 -6.785615E+03  2.104107E+04
       115   8  1.785477E+06  1.582614E+05  1.955561E+05  6.645490E+04 -4.545184E+04  2.641647E+04
       115   9  1.979039E+06  2.860643E+05  3.001729E+05  1.341881E+05 -8.413300E+04  9.250462E+03
       115  10  6.459111E+05 -1.235441E+05 -8.576634E+04  1.142389E+05 -1.567856E-10 -1.191409E-10
       115  11  4.552494E+05 -1.689294E+05 -1.118140E+05  4.653476E+04  9.688382E-11 -2.363929E-10
       115  12  2.855183E+05 -1.350038E+05 -1.139998E+05  7.229270E+04 -1.637946E-10  1.055037E-11
       115  13  1.132058E+06 -4.107000E+03  2.578502E+04  1.032106E+05  5.555880E-10 -2.010921E-12
       115  14  1.120158E+06 -5.319344E+03  4.188317E+04  5.648996E+04  2.114474E-10  4.718435E-11
       115  15  1.131948E+06  7.555393E+04  9.310570E+04  1.032196E+05  1.218119E-09 -1.079942E-11
       115  16  1.618424E+06  1.153141E+05  1.373209E+05  9.217356E+04 -3.445082E-11  2.025507E-10
       115  17  1.785475E+06  1.582601E+05  1.955509E+05  6.645586E+04 -4.414614E-10  1.080300E-10
       115  18  1.979031E+06  2.860623E+05  3.001594E+05  1.341887E+05  1.287964E-10  6.642451E-11
       115  19  6.459123E+05 -1.235434E+05 -8.576373E+04  1.142384E+05  3.078781E+04 -2.103412E+04
       115  20  4.552510E+05 -1.689283E+05 -1.118101E+05  4.653398E+04  3.689596E+04 -2.642202E+04
       115  21  2.855203E+05 -1.350032E+05 -1.139962E+05  7.229238E+04  4.300493E+04 -9.250108E+03
       115  22  1.132059E+06 -4.106429E+03  2.578651E+04  1.032103E+05  1.879137E+04 -2.103781E+04
       115  23  1.120160E+06 -5.318140E+03  4.188767E+04  5.648908E+04  4.117164E+04 -2.641931E+04
       115  24  1.131952E+06  7.555511E+04  9.311344E+04  1.032191E+05  6.355502E+04 -9.251307E+03
       115  25  1.618424E+06  1.153146E+05  1.373218E+05  9.217345E+04  6.785615E+03 -2.104107E+04
       115  26  1.785477E+06  1.582614E+05  1.955561E+05  6.645490E+04  4.545184E+04 -2.641647E+04
       115  27  1.979039E+06  2.860643E+05  3.001729E+05  1.341881E+05  8.413300E+04 -9.250462E+03
       116   1 -4.369153E+05 -1.262399E+06 -4.773807E+05  2.304653E+05 -1.070700E+04 -1.799808E+05
       116   2 -1.657396E+05 -9.624033E+05 -2.742755E+05  1.078449E+05 -2.887067E+04 -1.038728E+05
       116   3 -1.027154E+05 -7.245657E+05 -1.728768E+05  1.251271E+05 -1.976559E+04 -2.777033E+04
       116   4 -1.886210E+05 -2.651889E+05 -2.327778E+05  1.539798E+05 -1.065111E+04 -1.571768E+05
       116   5  1.325677E+04 -2.357598E+05 -1.059478E+05  8.387325E+04 -2.885872E+04 -1.005935E+05
       116   6  1.051508E+04 -2.650673E+05 -6.714492E+04  1.536857E+05 -1.979884E+04 -4.405061E+04
       116   7  5.962210E+04  7.329419E+05  1.175740E+04  7.737064E+04 -1.060092E+04 -1.343359E+05
       116   8  1.922182E+05  4.913733E+05  6.234483E+04  5.987304E+04 -2.884703E+04 -9.731037E+04
       116   9  1.237339E+05  1.946290E+05  3.857442E+04  1.822655E+05 -1.983358E+04 -6.034284E+04
       116  10 -4.369242E+05 -1.262434E+06 -4.774419E+05  2.304638E+05  2.575539E-10 -7.676142E-10
       116  11 -1.657434E+05 -9.624151E+05 -2.742974E+05  1.078425E+05 -4.451500E-10  2.480988E-10
       116  12 -1.027160E+05 -7.245667E+05 -1.728790E+05  1.251267E+05  7.674052E-10  1.053755E-09
       116  13 -1.886278E+05 -2.652154E+05 -2.328244E+05  1.539785E+05  1.429507E-09 -1.697275E-10
       116  14  1.325316E+04 -2.357709E+05 -1.059684E+05  8.387091E+04 -5.676998E-10  1.970665E-11
       116  15  1.051414E+04 -2.650695E+05 -6.714930E+04  1.536850E+05 -1.222737E-10 -1.099757E-10
       116  16  5.961714E+04  7.329225E+05  1.172332E+04  7.736949E+04  8.258442E-10  7.559730E-10
       116  17  1.922148E+05  4.913629E+05  6.232549E+04  5.987078E+04  1.432318E-10 -3.589953E-10
       116  18  1.237325E+05  1.946250E+05  3.856685E+04  1.822645E+05  8.890062E-10 -1.241710E-09
       116  19 -4.369153E+05 -1.262399E+06 -4.773807E+05  2.304653E+05  1.070700E+04  1.799808E+05
       116  20 -1.657396E+05 -9.624033E+05 -2.742755E+05  1.078449E+05  2.887067E+04  1.038728E+05
       116  21 -1.027154E+05 -7.245657E+05 -1.728768E+05  1.251271E+05  1.976559E+04  2.777033E+04
       116  22 -1.886210E+05 -2.651889E+05 -2.327778E+05  1.539798E+05  1.065111E+04  1.571768E+05
       116  23  1.325677E+04 -2.357598E+05 -1.059478E+05  8.387325E+04  2.885872E+04  1.005935E+05
       116  24  1.051508E+04 -2.650673E+05 -6.714492E+04  1.536857E+05  1.979884E+04  4.405061E+04
       116  25  5.962210E+04  7.329419E+05  1.175740E+04  7.737064E+04  1.060092E+04  1.343359E+05
       116  26  1.922182E+05  4.913733E+05  6.234483E+04  5.987304E+04  2.884703E+04  9.731037E+04
       116  27  1.237339E+05  1.946290E+05  3.857442E+04  1.822655E+05  1.983358E+04  6.034284E+04
       117   1 -6.284336E+04 -4.556373E+05 -1.028845E+05  1.594968E+05 -8.661388E+03 -2.558121E+04
       117   2  1.848645E+04 -1.825880E+05 -2.183501E+04  8.435567E+04  2.859380E+03 -6.871052E+03
       117   3  7.804590E+04  8.201198E+04  4.143132E+04  1.500009E+05  1.421512E+04  1.184876E+04
       117   4 -1.321826E+04 -2.538747E+05 -5.646129E+04  1.539790E+05 -8.678518E+03 -3.390704E+04
       117   5  1.992299E+03 -2.496116E+05 -3.724874E+04  8.357556E+04  2.842797E+03 -1.507563E+04
       117   6 -4.583149E+03 -2.538828E+05 -3.589489E+04  1.539615E+05  1.419913E+04  3.757508E+03
       117   7  3.640415E+04 -5.207423E+04 -1.004046E+04  1.484594E+05 -8.695496E+03 -4.223556E+04
       117   8 -1.450213E+04 -3.166310E+05 -5.266252E+04  8.279553E+04  2.826233E+03 -2.327934E+04
       117   9 -8.721999E+04 -5.896730E+05 -1.132283E+05  1.579199E+05  1.418303E+04 -4.329398E+03
       117  10 -6.284361E+04 -4.556380E+05 -1.028859E+05  1.594967E+05 -1.147794E-10 -4.122105E-10
       117  11  1.848643E+04 -1.825880E+05 -2.183511E+04  8.435568E+04 -1.089068E-09 -1.358546E-10
       117  12  7.804564E+04  8.201178E+04  4.143067E+04  1.500007E+05 -1.453777E-09  1.016185E-09
       117  13 -1.321865E+04 -2.538760E+05 -5.646359E+04  1.539788E+05 -3.682002E-10 -2.228153E-10
       117  14  1.992230E+03 -2.496119E+05 -3.724918E+04  8.357559E+04 -2.026386E-09 -1.217037E-10
       117  15 -4.583370E+03 -2.538828E+05 -3.589530E+04  1.539614E+05 -1.115679E-09 -2.797664E-10
       117  16  3.640359E+04 -5.207616E+04 -1.004395E+04  1.484591E+05  2.014080E-11  6.284724E-10
       117  17 -1.450228E+04 -3.166315E+05 -5.266355E+04  8.279559E+04 -7.488255E-10 -1.062856E-10
       117  18 -8.722021E+04 -5.896730E+05 -1.132287E+05  1.579199E+05  6.458412E-10 -1.313994E-09
       117  19 -6.284336E+04 -4.556373E+05 -1.028845E+05  1.594968E+05  8.661388E+03  2.558121E+04
       117  20  1.848645E+04 -1.825880E+05 -2.183501E+04  8.435567E+04 -2.859380E+03  6.871052E+03
       117  21  7.804590E+04  8.201198E+04  4.143132E+04  1.500009E+05 -1.421512E+04 -1.184876E+04
       117  22 -1.321826E+04 -2.538747E+05 -5.646129E+04  1.539790E+05  8.678518E+03  3.390704E+04
       117  23  1.992299E+03 -2.496116E+05 -3.724874E+04  8.357556E+04 -2.842797E+03  1.507563E+04
       117  24 -4.583149E+03 -2.538828E+05 -3.589489E+04  1.539615E+05 -1.419913E+04 -3.757508E+03
       117  25  3.640415E+04 -5.207423E+04 -1.004046E+04  1.484594E+05  8.695496E+03  4.223556E+04
       117  26 -1.450213E+04 -3.166310E+05 -5.266252E+04  8.279553E+04 -2.826233E+03  2.327934E+04
       117  27 -8.721999E+04 -5.896730E+05 -1.132283E+05  1.579199E+05 -1.418303E+04  4.329398E+03
       118   1  1.499843E+05  3.362791E+05  9.919747E+04  1.662698E+05  2.570297E+04  2.695981E+04
       118   2  2.176349E+05  6.158498E+05  1.505408E+05  7.429533E+04  3.418128E+04  3.082753E+04
       118   3  2.027045E+05  8.743128E+05  1.787055E+05  1.219502E+05  1.216940E+04  3.473709E+04
       118   4  3.871640E+03 -2.576034E+05 -3.725294E+04  1.536777E+05  2.567102E+04  9.864015E+03
       118   5  5.674146E+03 -2.451582E+05 -4.865479E+04  8.390688E+04  3.419243E+04  3.567235E+04
       118   6 -7.897408E+04 -2.577341E+05 -9.849952E+04  1.537859E+05  1.220513E+04  6.151998E+04
       118   7 -1.422649E+05 -8.511585E+05 -1.737255E+05  1.410975E+05  2.563976E+04 -7.215568E+03
       118   8 -2.063382E+05 -1.105481E+06 -2.478998E+05  9.350471E+04  3.420375E+04  4.051048E+04
       118   9 -3.607433E+05 -1.388611E+06 -3.757951E+05  1.855630E+05  1.224365E+04  8.825411E+04
       118  10  1.499834E+05  3.362781E+05  9.919486E+04  1.662692E+05 -5.037537E-10  7.580587E-09
       118  11  2.176333E+05  6.158485E+05  1.505368E+05  7.429448E+04 -1.615427E-09  4.688726E-10
       118  12  2.027041E+05  8.743115E+05  1.787030E+05  1.219498E+05 -1.163575E-09 -6.048240E-09
       118  13  3.870906E+03 -2.576036E+05 -3.725436E+04  1.536774E+05 -4.848099E-10 -1.166898E-10
       118  14  5.672549E+03 -2.451599E+05 -4.865938E+04  8.390590E+04 -6.469884E-10 -3.209276E-11
       118  15 -7.897525E+04 -2.577382E+05 -9.850691E+04  1.537853E+05 -9.265093E-10 -9.276766E-11
       118  16 -1.422657E+05 -8.511587E+05 -1.737268E+05  1.410976E+05  4.202761E-10 -7.517481E-09
       118  17 -2.063399E+05 -1.105483E+06 -2.479051E+05  9.350359E+04 -3.373883E-10 -6.883211E-10
       118  18 -3.607455E+05 -1.388619E+06 -3.758101E+05  1.855621E+05 -1.073512E-10  5.847285E-09
       118  19  1.499843E+05  3.362791E+05  9.919747E+04  1.662698E+05 -2.570297E+04 -2.695981E+04
       118  20  2.176349E+05  6.158498E+05  1.505408E+05  7.429533E+04 -3.418128E+04 -3.082753E+04
       118  21  2.027045E+05  8.743128E+05  1.787055E+05  1.219502E+05 -1.216940E+04 -3.473709E+04
       118  22  3.871640E+03 -2.576034E+05 -3.725294E+04  1.536777E+05 -2.567102E+04 -9.864015E+03
       118  23  5.674146E+03 -2.451582E+05 -4.865479E+04  8.390688E+04 -3.419243E+04 -3.567235E+04
       118  24 -7.897408E+04 -2.577341E+05 -9.849952E+04  1.537859E+05 -1.220513E+04 -6.151998E+04
       118  25 -1.422649E+05 -8.511585E+05 -1.737255E+05  1.410975E+05 -2.563976E+04  7.215568E+03
       118  26 -2.063382E+05 -1.105481E+06 -2.478998E+05  9.350471E+04 -3.420375E+04 -4.051048E+04
       118  27 -3.607433E+05 -1.388611E+06 -3.757951E+05  1.855630E+05 -1.224365E+04 -8.825411E+04
       119   1  1.479076E+06  1.086685E+06  3.063180E+05  1.008476E+06  1.446922E+05  1.050435E+05
       119   2  1.424789E+06  8.638060E+05  1.595284E+05  1.073724E+06  9.622197E+04  6.196662E+04
       119   3  1.481604E+06  8.167378E+05  1.104189E+05  1.065737E+06  4.441950E+04  2.334412E+04
       119   4  1.398748E+06  8.913243E+05  2.524741E+05  9.050601E+05  1.399343E+05  1.014522E+05
       119   5  1.304746E+06  7.344438E+05  1.133731E+05  9.936459E+05  9.467735E+04  6.080395E+04
       119   6  1.321173E+06  7.526954E+05  6.918366E+04  1.008988E+06  4.609251E+04  2.459954E+04
       119   7  1.318437E+06  6.960289E+05  1.986306E+05  8.016706E+05  1.351771E+05  9.786342E+04
       119   8  1.184718E+06  6.051032E+05  6.721534E+04  9.135880E+05  9.313311E+04  5.964177E+04
       119   9  1.160770E+06  6.886562E+05  2.794643E+04  9.522516E+05  4.776494E+04  2.585477E+04
       119  10  1.479051E+06  1.086667E+06  3.062581E+05  1.008463E+06  1.274932E-10  1.011382E-10
       119  11  1.424778E+06  8.637994E+05  1.595039E+05  1.073720E+06  6.157664E-11  2.793211E-10
       119  12  1.481602E+06  8.167367E+05  1.104142E+05  1.065736E+06  1.236235E-09  3.223055E-11
       119  13  1.398724E+06  8.913080E+05  2.524182E+05  9.050487E+05  1.083142E-09  1.339165E-10
       119  14  1.304735E+06  7.344374E+05  1.133494E+05  9.936412E+05 -1.092898E-09 -2.087312E-10
       119  15  1.321170E+06  7.526942E+05  6.917854E+04  1.008987E+06  3.348971E-10 -2.373853E-10
       119  16  1.318414E+06  6.960137E+05  1.985784E+05  8.016600E+05 -2.140382E-10 -2.569072E-10
       119  17  1.184708E+06  6.050971E+05  6.719243E+04  9.135836E+05 -6.133986E-10 -4.899367E-10
       119  18  1.160767E+06  6.886549E+05  2.794091E+04  9.522506E+05 -5.573034E-10 -6.161418E-10
       119  19  1.479076E+06  1.086685E+06  3.063180E+05  1.008476E+06 -1.446922E+05 -1.050435E+05
       119  20  1.424789E+06  8.638060E+05  1.595284E+05  1.073724E+06 -9.622197E+04 -6.196662E+04
       119  21  1.481604E+06  8.167378E+05  1.104189E+05  1.065737E+06 -4.441950E+04 -2.334412E+04
       119  22  1.398748E+06  8.913243E+05  2.524741E+05  9.050601E+05 -1.399343E+05 -1.014522E+05
       119  23  1.304746E+06  7.344438E+05  1.133731E+05  9.936459E+05 -9.467735E+04 -6.080395E+04
       119  24  1.321173E+06  7.526954E+05  6.918366E+04  1.008988E+06 -4.609251E+04 -2.459954E+04
       119  25  1.318437E+06  6.960289E+05  1.986306E+05  8.016706E+05 -1.351771E+05 -9.786342E+04
       119  26  1.184718E+06  6.051032E+05  6.721534E+04  9.135880E+05 -9.313311E+04 -5.964177E+04
       119  27  1.160770E+06  6.886562E+05  2.794643E+04  9.522516E+05 -4.776494E+04 -2.585477E+04
       120   1  1.435151E+06  8.534801E+05  9.335484E+04  1.049987E+06  3.681793E+04  1.918062E+04
       120   2  1.421583E+06  8.230545E+05  6.404591E+04  1.046900E+06  2.352976E+04  1.003470E+04
       120   3  1.408545E+06  8.156561E+05  4.949765E+04  1.041496E+06  1.008454E+04  1.099837E+03
       120   4  1.322627E+06  7.651102E+05  5.627616E+04  9.901161E+05  3.710867E+04  1.939774E+04
       120   5  1.319493E+06  7.484559E+05  3.150893E+04  9.951473E+05  2.397518E+04  1.036807E+04
       120   6  1.316857E+06  7.547974E+05  2.137117E+04  9.978607E+05  1.068430E+04  1.548989E+03
       120   7  1.210118E+06  6.767497E+05  1.919609E+04  9.302585E+05  3.739933E+04  1.961479E+04
       120   8  1.217415E+06  6.738637E+05 -1.029221E+03  9.434043E+05  2.442050E+04  1.070136E+04
       120   9  1.225178E+06  6.939426E+05 -6.756281E+03  9.542323E+05  1.128394E+04  1.998058E+03
       120  10  1.435149E+06  8.534794E+05  9.335161E+04  1.049986E+06  8.062697E-10 -1.053347E-10
       120  11  1.421582E+06  8.230542E+05  6.404469E+04  1.046900E+06  2.041371E-10 -4.134316E-10
       120  12  1.408545E+06  8.156561E+05  4.949745E+04  1.041496E+06 -1.805864E-10 -1.377033E-10
       120  13  1.322625E+06  7.651094E+05  5.627288E+04  9.901156E+05 -6.769702E-10 -3.647248E-10
       120  14  1.319492E+06  7.484556E+05  3.150766E+04  9.951471E+05 -1.315761E-09 -4.029699E-10
       120  15  1.316857E+06  7.547974E+05  2.137095E+04  9.978607E+05  3.305877E-10  3.198400E-10
       120  16  1.210116E+06  6.767489E+05  1.919275E+04  9.302579E+05  1.071882E-11 -3.749855E-10
       120  17  1.217414E+06  6.738634E+05 -1.030553E+03  9.434041E+05  6.687620E-10 -3.144674E-10
       120  18  1.225178E+06  6.939425E+05 -6.756527E+03  9.542322E+05  1.168884E-09  8.077325E-10
       120  19  1.435151E+06  8.534801E+05  9.335484E+04  1.049987E+06 -3.681793E+04 -1.918062E+04
       120  20  1.421583E+06  8.230545E+05  6.404591E+04  1.046900E+06 -2.352976E+04 -1.003470E+04
       120  21  1.408545E+06  8.156561E+05  4.949765E+04  1.041496E+06 -1.008454E+04 -1.099837E+03
       120  22  1.322627E+06  7.651102E+05  5.627616E+04  9.901161E+05 -3.710867E+04 -1.939774E+04
       120  23  1.319493E+06  7.484559E+05  3.150893E+04  9.951473E+05 -2.397518E+04 -1.036807E+04
       120  24  1.316857E+06  7.547974E+05  2.137117E+04  9.978607E+05 -1.068430E+04 -1.548989E+03
       120  25  1.210118E+06  6.767497E+05  1.919609E+04  9.302585E+05 -3.739933E+04 -1.961479E+04
       120  26  1.217415E+06  6.738637E+05 -1.029221E+03  9.434043E+05 -2.442050E+04 -1.070136E+04
       120  27  1.225178E+06  6.939426E+05 -6.756281E+03  9.542323E+05 -1.128394E+04 -1.998058E+03
       121   1  1.392423E+06  8.098097E+05  4.277247E+04  1.034394E+06  6.950595E+03 -5.232962E+02
       121   2  1.382756E+06  7.937446E+05  3.708023E+04  1.026239E+06 -5.758717E+02 -5.017061E+03
       121   3  1.365986E+06  7.898298E+05  3.783282E+04  1.020272E+06 -8.104019E+03 -9.508498E+03
       121   4  1.316923E+06  7.555184E+05  1.892735E+04  9.965165E+05  7.478152E+03 -1.282264E+02
       121   5  1.320559E+06  7.495945E+05  1.750281E+04  9.953084E+05 -4.579858E+01 -4.620050E+03
       121   6  1.317092E+06  7.558206E+05  2.252155E+04  9.962889E+05 -7.571576E+03 -9.109672E+03
       121   7  1.241429E+06  7.012299E+05 -4.918671E+03  9.586443E+05  8.005625E+03  2.667799E+02
       121   8  1.258366E+06  7.054466E+05 -2.075089E+03  9.643816E+05  4.842025E+02 -4.223092E+03
       121   9  1.268201E+06  7.218128E+05  7.210116E+03  9.723076E+05 -7.039194E+03 -8.710891E+03
       121  10  1.392423E+06  8.098097E+05  4.277238E+04  1.034394E+06  4.143798E-10  7.275355E-10
       121  11  1.382756E+06  7.937446E+05  3.708018E+04  1.026239E+06  6.875787E-10  1.119600E-10
       121  12  1.365986E+06  7.898297E+05  3.783252E+04  1.020272E+06 -9.791248E-11 -1.763654E-10
       121  13  1.316923E+06  7.555184E+05  1.892724E+04  9.965165E+05  3.029882E-10  2.357646E-10
       121  14  1.320559E+06  7.495945E+05  1.750277E+04  9.953084E+05 -6.279499E-10 -6.753169E-10
       121  15  1.317092E+06  7.558205E+05  2.252129E+04  9.962888E+05 -4.906854E-11 -7.082425E-11
       121  16  1.241429E+06  7.012299E+05 -4.918792E+03  9.586443E+05 -1.383654E-09 -3.190427E-10
       121  17  1.258366E+06  7.054465E+05 -2.075123E+03  9.643816E+05 -7.067527E-10 -4.284165E-10
       121  18  1.268201E+06  7.218127E+05  7.209881E+03  9.723075E+05  3.357050E-10  3.291885E-10
       121  19  1.392423E+06  8.098097E+05  4.277247E+04  1.034394E+06 -6.950595E+03  5.232962E+02
       121  20  1.382756E+06  7.937446E+05  3.708023E+04  1.026239E+06  5.758717E+02  5.017061E+03
       121  21  1.365986E+06  7.898298E+05  3.783282E+04  1.020272E+06  8.104019E+03  9.508498E+03
       121  22  1.316923E+06  7.555184E+05  1.892735E+04  9.965165E+05 -7.478152E+03  1.282264E+02
       121  23  1.320559E+06  7.495945E+05  1.750281E+04  9.953084E+05  4.579858E+01  4.620050E+03
       121  24  1.317092E+06  7.558206E+05  2.252155E+04  9.962889E+05  7.571576E+03  9.109672E+03
       121  25  1.241429E+06  7.012299E+05 -4.918671E+03  9.586443E+05 -8.005625E+03 -2.667799E+02
       121  26  1.258366E+06  7.054466E+05 -2.075089E+03  9.643816E+05 -4.842025E+02  4.223092E+03
       121  27  1.268201E+06  7.218128E+05  7.210116E+03  9.723076E+05  7.039194E+03  8.710891E+03
       122   1  1.349188E+06  7.832794E+05  3.805160E+04  1.016930E+06 -1.193966E+04 -1.170293E+04
       122   2  1.342536E+06  7.617815E+05  4.946362E+04  1.005485E+06 -2.967156E+04 -2.385544E+04
       122   3  1.340811E+06  7.681220E+05  8.082240E+04  9.894735E+05 -4.736438E+04 -3.606019E+04
       122   4  1.317159E+06  7.546587E+05  2.693805E+04  9.982741E+05 -1.139750E+04 -1.129668E+04
       122   5  1.318764E+06  7.480066E+05  4.255428E+04  9.950954E+05 -2.916643E+04 -2.347717E+04
       122   6  1.325304E+06  7.692010E+05  7.814967E+04  9.873500E+05 -4.689662E+04 -3.571063E+04
       122   7  1.285132E+06  7.260390E+05  1.582436E+04  9.796190E+05 -1.085538E+04 -1.089046E+04
       122   8  1.294992E+06  7.342319E+05  3.564486E+04  9.847061E+05 -2.866132E+04 -2.309891E+04
       122   9  1.309797E+06  7.702802E+05  7.547693E+04  9.852265E+05 -4.642887E+04 -3.536107E+04
       122  10  1.349188E+06  7.832792E+05  3.805107E+04  1.016930E+06  3.920471E-10  4.343940E-10
       122  11  1.342535E+06  7.617807E+05  4.946090E+04  1.005485E+06 -4.999579E-10  1.332756E-10
       122  12  1.340809E+06  7.681200E+05  8.081576E+04  9.894721E+05  1.153560E-10  1.030780E-10
       122  13  1.317159E+06  7.546585E+05  2.693757E+04  9.982740E+05 -2.467576E-10 -8.363397E-11
       122  14  1.318763E+06  7.480058E+05  4.255166E+04  9.950949E+05 -1.672098E-10 -1.176606E-10
       122  15  1.325301E+06  7.691991E+05  7.814316E+04  9.873487E+05 -1.661366E-10  5.164019E-11
       122  16  1.285132E+06  7.260388E+05  1.582392E+04  9.796189E+05 -9.811496E-10 -5.287521E-10
       122  17  1.294991E+06  7.342311E+05  3.564232E+04  9.847056E+05  7.326599E-10 -5.596262E-10
       122  18  1.309794E+06  7.702783E+05  7.547055E+04  9.852252E+05  2.707371E-10 -8.618593E-11
       122  19  1.349188E+06  7.832794E+05  3.805160E+04  1.016930E+06  1.193966E+04  1.170293E+04
       122  20  1.342536E+06  7.617815E+05  4.946362E+04  1.005485E+06  2.967156E+04  2.385544E+04
       122  21  1.340811E+06  7.681220E+05  8.082240E+04  9.894735E+05  4.736438E+04  3.606019E+04
       122  22  1.317159E+06  7.546587E+05  2.693805E+04  9.982741E+05  1.139750E+04  1.129668E+04
       122  23  1.318764E+06  7.480066E+05  4.255428E+04  9.950954E+05  2.916643E+04  2.347717E+04
       122  24  1.325304E+06  7.692010E+05  7.814967E+04  9.873500E+05  4.689662E+04  3.571063E+04
       122  25  1.285132E+06  7.260390E+05  1.582436E+04  9.796190E+05  1.085538E+04  1.089046E+04
       122  26  1.294992E+06  7.342319E+05  3.564486E+04  9.847061E+05  2.866132E+04  2.309891E+04
       122  27  1.309797E+06  7.702802E+05  7.547693E+04  9.852265E+05  4.642887E+04  3.536107E+04
       123   1  1.278039E+06  7.893766E+05  9.513646E+04  1.023624E+06 -5.955620E+04 -4.435454E+04
       123   2  1.316432E+06  6.792416E+05  1.533841E+05  9.734367E+05 -1.273110E+05 -9.419643E+04
       123   3  1.514744E+06  8.103190E+05  3.443348E+05  8.188244E+05 -1.943204E+05 -1.450240E+05
       123   4  1.323342E+06  7.516816E+05  9.655844E+04  1.013873E+06 -5.878131E+04 -4.376767E+04
       123   5  1.297911E+06  7.284018E+05  1.590801E+05  9.930108E+05 -1.272562E+05 -9.416745E+04
       123   6  1.432526E+06  9.464659E+05  3.549268E+05  8.677298E+05 -1.949750E+05 -1.455720E+05
       123   7  1.368650E+06  7.139923E+05  9.798139E+04  1.004121E+06 -5.800634E+04 -4.318090E+04
       123   8  1.279392E+06  7.775679E+05  1.647769E+05  1.012585E+06 -1.272014E+05 -9.413847E+04
       123   9  1.350339E+06  1.082666E+06  3.655261E+05  9.166275E+05 -1.956294E+05 -1.461203E+05
       123  10  1.278035E+06  7.893736E+05  9.512613E+04  1.023622E+06  6.376752E-10  2.021987E-10
       123  11  1.316413E+06  6.792278E+05  1.533371E+05  9.734270E+05  2.969127E-10 -1.993063E-11
       123  12  1.514697E+06  8.102864E+05  3.442247E+05  8.188018E+05 -1.018681E-10 -8.450171E-11
       123  13  1.323338E+06  7.516787E+05  9.654839E+04  1.013871E+06 -2.290535E-11  4.685574E-10
       123  14  1.297891E+06  7.283879E+05  1.590332E+05  9.930012E+05 -8.757365E-10  1.692285E-10
       123  15  1.432479E+06  9.464331E+05  3.548159E+05  8.677070E+05 -3.351194E-10  2.855974E-12
       123  16  1.368646E+06  7.139894E+05  9.797160E+04  1.004119E+06 -3.966373E-11  1.861494E-10
       123  17  1.279372E+06  7.775541E+05  1.647300E+05  1.012575E+06 -8.891676E-10  2.498741E-10
       123  18  1.350292E+06  1.082633E+06  3.654144E+05  9.166046E+05 -2.088836E-10 -2.060122E-11
       123  19  1.278039E+06  7.893766E+05  9.513646E+04  1.023624E+06  5.955620E+04  4.435454E+04
       123  20  1.316432E+06  6.792416E+05  1.533841E+05  9.734367E+05  1.273110E+05  9.419643E+04
       123  21  1.514744E+06  8.103190E+05  3.443348E+05  8.188244E+05  1.943204E+05  1.450240E+05
       123  22  1.323342E+06  7.516816E+05  9.655844E+04  1.013873E+06  5.878131E+04  4.376767E+04
       123  23  1.297911E+06  7.284018E+05  1.590801E+05  9.930108E+05  1.272562E+05  9.416745E+04
       123  24  1.432526E+06  9.464659E+05  3.549268E+05  8.677298E+05  1.949750E+05  1.455720E+05
       123  25  1.368650E+06  7.139923E+05  9.798139E+04  1.004121E+06  5.800634E+04  4.318090E+04
       123  26  1.279392E+06  7.775679E+05  1.647769E+05  1.012585E+06  1.272014E+05  9.413847E+04
       123  27  1.350339E+06  1.082666E+06  3.655261E+05  9.166275E+05  1.956294E+05  1.461203E+05
       124   1  1.931713E+06  2.572879E+05  2.805738E+05  1.022545E+05  1.076200E+05 -6.665448E+03
       124   2  1.813976E+06  1.124385E+05  1.747339E+05  4.560048E+04  6.343857E+04 -1.952781E+04
       124   3  1.732646E+06  8.972410E+04  1.281533E+05  4.043848E+04  1.926951E+04 -1.701279E+04
       124   4  1.342344E+06  1.108797E+05  1.366275E+05  5.677154E+04  9.272945E+04 -6.669125E+03
       124   5  1.325143E+06 -7.719344E+03  6.189646E+04  3.101433E+04  5.967284E+04 -1.952989E+04
       124   6  1.342444E+06 -6.059946E+03  3.874929E+04  5.674520E+04  2.662070E+04 -1.701228E+04
       124   7  7.532949E+05 -3.554624E+04 -7.342088E+03  1.133171E+04  7.785293E+04 -6.670631E+03
       124   8  8.365302E+05 -1.278931E+05 -5.095672E+04  1.643972E+04  5.591003E+04 -1.953179E+04
       124   9  9.523833E+05 -1.018535E+05 -5.066435E+04  7.304160E+04  3.396731E+04 -1.701139E+04
       124  10  1.931701E+06  2.572847E+05  2.805520E+05  1.022551E+05  1.486475E-10 -8.236174E-11
       124  11  1.813972E+06  1.124371E+05  1.747257E+05  4.560147E+04 -7.452472E-10  3.319130E-12
       124  12  1.732646E+06  8.972369E+04  1.281520E+05  4.043875E+04  8.103491E-11 -2.327115E-11
       124  13  1.342335E+06  1.108773E+05  1.366113E+05  5.677204E+04  9.252316E-10  1.903993E-10
       124  14  1.325139E+06 -7.720707E+03  6.188906E+04  3.101527E+04 -8.223306E-10 -8.544146E-11
       124  15  1.342443E+06 -6.060447E+03  3.874741E+04  5.674556E+04 -2.951680E-10 -8.760408E-11
       124  16  7.532884E+05 -3.554791E+04 -7.353548E+03  1.133212E+04  1.427707E-10 -1.964014E-10
       124  17  8.365267E+05 -1.278944E+05 -5.096331E+04  1.644060E+04 -3.118862E-10 -5.186014E-11
       124  18  9.523819E+05 -1.018542E+05 -5.066706E+04  7.304206E+04  4.653938E-10 -7.050355E-11
       124  19  1.931713E+06  2.572879E+05  2.805738E+05  1.022545E+05 -1.076200E+05  6.665448E+03
       124  20  1.813976E+06  1.124385E+05  1.747339E+05  4.560048E+04 -6.343857E+04  1.952781E+04
       124  21  1.732646E+06  8.972410E+04  1.281533E+05  4.043848E+04 -1.926951E+04  1.701279E+04
       124  22  1.342344E+06  1.108797E+05  1.366275E+05  5.677154E+04 -9.272945E+04  6.669125E+03
       124  23  1.325143E+06 -7.719344E+03  6.189646E+04  3.101433E+04 -5.967284E+04  1.952989E+04
       124  24  1.342444E+06 -6.059946E+03  3.874929E+04  5.674520E+04 -2.662070E+04  1.701228E+04
       124  25  7.532949E+05 -3.554624E+04 -7.342088E+03  1.133171E+04 -7.785293E+04  6.670631E+03
       124  26  8.365302E+05 -1.278931E+05 -5.095672E+04  1.643972E+04 -5.591003E+04  1.953179E+04
       124  27  9.523833E+05 -1.018535E+05 -5.066435E+04  7.304160E+04 -3.396731E+04  1.701139E+04
       125   1  1.631146E+06  8.083956E+04  1.002016E+05  5.976794E+04  1.816861E+04 -1.237242E+04
       125   2  1.530870E+06  4.764728E+04  6.556438E+04  3.181567E+04  7.409345E+03 -8.408569E+03
       125   3  1.434531E+06  2.459477E+04  4.045182E+04  5.529549E+04 -3.349865E+03 -3.725122E+03
       125   4  1.335632E+06  8.243115E+03  3.224820E+04  5.673846E+04  2.076414E+04 -1.237244E+04
       125   5  1.333720E+06 -7.732098E+02  2.029876E+04  3.102287E+04  1.052798E+04 -8.407993E+03
       125   6  1.335650E+06  2.629271E+02  1.751561E+04  5.674007E+04  2.902108E+02 -3.723894E+03
       125   7  1.040198E+06 -6.435937E+04 -3.571091E+04  5.371042E+04  2.335845E+04 -1.237247E+04
       125   8  1.136605E+06 -4.919639E+04 -2.496939E+04  3.023032E+04  1.364563E+04 -8.407424E+03
       125   9  1.236777E+06 -2.406959E+04 -5.421191E+03  5.818441E+04  3.929712E+03 -3.722650E+03
       125  10  1.631146E+06  8.083930E+04  1.002007E+05  5.976812E+04 -7.616713E-10  6.175328E-11
       125  11  1.530870E+06  4.764719E+04  6.556414E+04  3.181572E+04 -7.454927E-10  1.743570E-10
       125  12  1.434531E+06  2.459475E+04  4.045177E+04  5.529548E+04 -3.763751E-10 -1.303162E-10
       125  13  1.335631E+06  8.242835E+03  3.224711E+04  5.673866E+04 -3.076090E-10  6.582392E-11
       125  14  1.333719E+06 -7.733155E+02  2.029842E+04  3.102294E+04  5.082073E-10  7.327590E-10
       125  15  1.335650E+06  2.629122E+02  1.751559E+04  5.674007E+04 -3.121028E-10 -1.107231E-10
       125  16  1.040197E+06 -6.435968E+04 -3.571222E+04  5.371065E+04  1.613437E-10  2.805855E-10
       125  17  1.136605E+06 -4.919652E+04 -2.496987E+04  3.023042E+04  6.932990E-11  6.446450E-10
       125  18  1.236777E+06 -2.406961E+04 -5.421246E+03  5.818442E+04 -3.941734E-10 -1.283165E-10
       125  19  1.631146E+06  8.083956E+04  1.002016E+05  5.976794E+04 -1.816861E+04  1.237242E+04
       125  20  1.530870E+06  4.764728E+04  6.556438E+04  3.181567E+04 -7.409345E+03  8.408569E+03
       125  21  1.434531E+06  2.459477E+04  4.045182E+04  5.529549E+04  3.349865E+03  3.725122E+03
       125  22  1.335632E+06  8.243115E+03  3.224820E+04  5.673846E+04 -2.076414E+04  1.237244E+04
       125  23  1.333720E+06 -7.732098E+02  2.029876E+04  3.102287E+04 -1.052798E+04  8.407993E+03
       125  24  1.335650E+06  2.629271E+02  1.751561E+04  5.674007E+04 -2.902108E+02  3.723894E+03
       125  25  1.040198E+06 -6.435937E+04 -3.571091E+04  5.371042E+04 -2.335845E+04  1.237247E+04
       125  26  1.136605E+06 -4.919639E+04 -2.496939E+04  3.023032E+04 -1.364563E+04  8.407424E+03
       125  27  1.236777E+06 -2.406959E+04 -5.421191E+03  5.818441E+04 -3.929712E+03  3.722650E+03
       126   1  1.340801E+06  1.238395E+03  1.883342E+04  5.846267E+04 -6.431691E+03 -7.498209E+02
       126   2  1.240503E+06 -2.374837E+04  1.252092E+03  3.013691E+04 -1.742902E+04  3.940955E+03
       126   3  1.144536E+06 -3.707144E+04 -6.270228E+03  5.316064E+04 -2.842396E+04  8.038588E+03
       126   4  1.335775E+06  5.240202E+01  1.792896E+04  5.672164E+04 -2.832772E+03 -7.484964E+02
       126   5  1.333570E+06 -8.841365E+02  2.263553E+04  3.104598E+04 -1.425948E+04  3.941851E+03
       126   6  1.335760E+06  9.916695E+03  3.769760E+04  5.671890E+04 -2.568550E+04  8.039037E+03
       126   7  1.330749E+06 -1.133574E+03  1.702455E+04  5.498063E+04  7.661174E+02 -7.471921E+02
       126   8  1.426645E+06  2.197951E+04  4.401844E+04  3.195518E+04 -1.108948E+04  3.942756E+03
       126   9  1.527017E+06  5.690234E+04  8.166305E+04  6.027826E+04 -2.294620E+04  8.039516E+03
       126  10  1.340801E+06  1.238383E+03  1.883334E+04  5.846267E+04 -5.628497E-10 -9.556286E-11
       126  11  1.240503E+06 -2.374847E+04  1.251493E+03  3.013697E+04 -1.472702E-09 -4.748027E-11
       126  12  1.144535E+06 -3.707173E+04 -6.271865E+03  5.316083E+04 -4.394143E-10  1.022046E-10
       126  13  1.335775E+06  5.239927E+01  1.792894E+04  5.672164E+04 -5.049143E-11 -2.445613E-10
       126  14  1.333570E+06 -8.842077E+02  2.263512E+04  3.104603E+04  1.523523E-09 -1.751255E-10
       126  15  1.335759E+06  9.916449E+03  3.769624E+04  5.671907E+04  1.722002E-10 -3.414330E-10
       126  16  1.330749E+06 -1.133574E+03  1.702454E+04  5.498063E+04 -2.070307E-10 -2.168494E-10
       126  17  1.426645E+06  2.197946E+04  4.401818E+04  3.195522E+04  7.612969E-10  2.278700E-10
       126  18  1.527017E+06  5.690213E+04  8.166194E+04  6.027841E+04 -4.833217E-11 -2.647217E-10
       126  19  1.340801E+06  1.238395E+03  1.883342E+04  5.846267E+04  6.431691E+03  7.498209E+02
       126  20  1.240503E+06 -2.374837E+04  1.252092E+03  3.013691E+04  1.742902E+04 -3.940955E+03
       126  21  1.144536E+06 -3.707144E+04 -6.270228E+03  5.316064E+04  2.842396E+04 -8.038588E+03
       126  22  1.335775E+06  5.240202E+01  1.792896E+04  5.672164E+04  2.832772E+03  7.484964E+02
       126  23  1.333570E+06 -8.841365E+02  2.263553E+04  3.104598E+04  1.425948E+04 -3.941851E+03
       126  24  1.335760E+06  9.916695E+03  3.769760E+04  5.671890E+04  2.568550E+04 -8.039037E+03
       126  25  1.330749E+06 -1.133574E+03  1.702455E+04  5.498063E+04 -7.661174E+02  7.471921E+02
       126  26  1.426645E+06  2.197951E+04  4.401844E+04  3.195518E+04  1.108948E+04 -3.942756E+03
       126  27  1.527017E+06  5.690234E+04  8.166305E+04  6.027826E+04  2.294620E+04 -8.039516E+03
       127   1  1.058437E+06 -7.736146E+04 -1.974413E+04  7.624080E+04 -3.924952E+04  1.236637E+04
       127   2  9.395912E+05 -1.035788E+05 -1.479913E+04  1.353877E+04 -6.943241E+04  1.525616E+04
       127   3  8.603915E+05  1.270176E+04  4.542516E+04  2.160910E+03 -9.960993E+04  5.325117E+03
       127   4  1.343948E+06 -7.249220E+03  4.573383E+04  5.671278E+04 -3.255472E+04  1.236873E+04
       127   5  1.323290E+06 -9.202227E+03  7.385168E+04  3.105692E+04 -7.200295E+04  1.525344E+04
       127   6  1.343838E+06  1.328946E+05  1.636456E+05  5.671842E+04 -1.114510E+05  5.317241E+03
       127   7  1.629534E+06  6.285881E+04  1.112068E+05  3.717571E+04 -2.585686E+04  1.237067E+04
       127   8  1.707124E+06  8.516515E+04  1.624929E+05  4.858595E+04 -7.457505E+04  1.525058E+04
       127   9  1.827504E+06  2.530814E+05  2.818512E+05  1.113184E+05 -1.233013E+05  5.307292E+03
       127  10  1.058435E+06 -7.736204E+04 -1.974731E+04  7.624119E+04 -8.501442E-10  7.398607E-11
       127  11  9.395859E+05 -1.035803E+05 -1.480861E+04  1.353962E+04 -1.750563E-09 -7.844529E-11
       127  12  8.603809E+05  1.269907E+04  4.540649E+04  2.161337E+03  6.834385E-10 -7.033104E-12
       127  13  1.343946E+06 -7.249668E+03  4.573156E+04  5.671310E+04 -2.683611E-10 -1.749140E-11
       127  14  1.323284E+06 -9.203865E+03  7.384152E+04  3.105780E+04 -7.781970E-10  4.201986E-11
       127  15  1.343825E+06  1.328912E+05  1.636223E+05  5.671889E+04 -9.980816E-11  1.362849E-11
       127  16  1.629534E+06  6.285847E+04  1.112053E+05  3.717597E+04  3.236229E-10 -4.043352E-10
       127  17  1.707118E+06  8.516341E+04  1.624820E+05  4.858687E+04  6.801076E-10  3.040170E-10
       127  18  1.827488E+06  2.530773E+05  2.818226E+05  1.113190E+05  2.255656E-10  1.721293E-10
       127  19  1.058437E+06 -7.736146E+04 -1.974413E+04  7.624080E+04  3.924952E+04 -1.236637E+04
       127  20  9.395912E+05 -1.035788E+05 -1.479913E+04  1.353877E+04  6.943241E+04 -1.525616E+04
       127  21  8.603915E+05  1.270176E+04  4.542516E+04  2.160910E+03  9.960993E+04 -5.325117E+03
       127  22  1.343948E+06 -7.249220E+03  4.573383E+04  5.671278E+04  3.255472E+04 -1.236873E+04
       127  23  1.323290E+06 -9.202227E+03  7.385168E+04  3.105692E+04  7.200295E+04 -1.525344E+04
       127  24  1.343838E+06  1.328946E+05  1.636456E+05  5.671842E+04  1.114510E+05 -5.317241E+03
       127  25  1.629534E+06  6.285881E+04  1.112068E+05  3.717571E+04  2.585686E+04 -1.237067E+04
       127  26  1.707124E+06  8.516515E+04  1.624929E+05  4.858595E+04  7.457505E+04 -1.525058E+04
       127  27  1.827504E+06  2.530814E+05  2.818512E+05  1.113184E+05  1.233013E+05 -5.307292E+03
       128   1 -4.851562E+05 -1.802562E+06 -5.465612E+05  2.295949E+05 -9.229402E+03 -2.457938E+05
       128   2 -1.373360E+05 -1.553007E+06 -3.045289E+05  9.925375E+04 -2.536400E+04 -1.456117E+05
       128   3 -9.221072E+04 -1.392238E+06 -2.035270E+05  7.554789E+04 -1.869667E+04 -4.541374E+04
       128   4 -2.754445E+05 -9.608500E+05 -3.400371E+05  1.168657E+05 -9.168478E+03 -2.261082E+05
       128   5  1.923084E+04 -9.178156E+05 -1.573304E+05  6.341305E+04 -2.535029E+04 -1.422179E+05
       128   6  1.420618E+04 -9.606618E+05 -1.041962E+05  1.166222E+05 -1.871567E+04 -5.834706E+04
       128   7 -6.573711E+04 -1.184626E+05 -1.335566E+05  3.982719E+03 -9.114785E+03 -2.063957E+05
       128   8  1.757741E+05 -2.822473E+05 -1.015815E+04  2.753522E+04 -2.533698E+04 -1.388206E+05
       128   9  1.206164E+05 -5.289092E+05 -4.876211E+03  1.577253E+05 -1.873637E+04 -7.128930E+04
       128  10 -4.851725E+05 -1.802627E+06 -5.466752E+05  2.295931E+05 -3.850114E-10  5.441660E-09
       128  11 -1.373424E+05 -1.553030E+06 -3.045700E+05  9.925078E+04 -3.976394E-10  9.874038E-11
       128  12 -9.221165E+04 -1.392240E+06 -2.035315E+05  7.554721E+04  1.421653E-09 -6.858515E-09
       128  13 -2.754583E+05 -9.609050E+05 -3.401334E+05  1.168640E+05  4.608121E-10 -3.563070E-10
       128  14  1.922471E+04 -9.178375E+05 -1.573696E+05  6.341014E+04 -1.248704E-09  8.493193E-11
       128  15  1.420489E+04 -9.606655E+05 -1.042032E+05  1.166213E+05  1.871006E-09 -2.572037E-10
       128  16 -6.574864E+04 -1.185084E+05 -1.336368E+05  3.981204E+03 -8.978711E-11 -5.401027E-09
       128  17  1.757683E+05 -2.822682E+05 -1.019559E+04  2.753239E+04 -2.940964E-11  1.009872E-10
       128  18  1.206147E+05 -5.289148E+05 -4.886428E+03  1.577242E+05 -5.811930E-10  6.580430E-09
       128  19 -4.851562E+05 -1.802562E+06 -5.465612E+05  2.295949E+05  9.229402E+03  2.457938E+05
       128  20 -1.373360E+05 -1.553007E+06 -3.045289E+05  9.925375E+04  2.536400E+04  1.456117E+05
       128  21 -9.221072E+04 -1.392238E+06 -2.035270E+05  7.554789E+04  1.869667E+04  4.541374E+04
       128  22 -2.754445E+05 -9.608500E+05 -3.400371E+05  1.168657E+05  9.168478E+03  2.261082E+05
       128  23  1.923084E+04 -9.178156E+05 -1.573304E+05  6.341305E+04  2.535029E+04  1.422179E+05
       128  24  1.420618E+04 -9.606618E+05 -1.041962E+05  1.166222E+05  1.871567E+04  5.834706E+04
       128  25 -6.573711E+04 -1.184626E+05 -1.335566E+05  3.982719E+03  9.114785E+03  2.063957E+05
       128  26  1.757741E+05 -2.822473E+05 -1.015815E+04  2.753522E+04  2.533698E+04  1.388206E+05
       128  27  1.206164E+05 -5.289092E+05 -4.876211E+03  1.577253E+05  1.873637E+04  7.128930E+04
       129   1 -7.713179E+04 -1.179425E+06 -1.447786E+05  1.265619E+05 -9.982784E+03 -3.601639E+04
       129   2 -3.864005E+03 -9.662760E+05 -7.586897E+04  6.337517E+04 -1.242347E+03 -9.605752E+02
       129   3  2.825382E+04 -7.682713E+05 -4.017361E+04  1.079171E+05  7.567182E+03  3.410623E+04
       129   4 -1.940496E+04 -9.449428E+05 -9.074635E+04  1.169424E+05 -9.990614E+03 -4.224842E+04
       129   5  3.256983E+03 -9.373532E+05 -6.921218E+04  6.307393E+04 -1.250872E+03 -7.236082E+03
       129   6 -1.521842E+04 -9.449366E+05 -8.085372E+04  1.169369E+05  7.558881E+03  2.777589E+04
       129   7  3.831839E+04 -7.104097E+05 -3.671752E+04  1.073192E+05 -9.998249E+03 -4.848278E+04
       129   8  1.037793E+04 -9.084295E+05 -6.255530E+04  6.277268E+04 -1.259391E+03 -1.351188E+04
       129   9 -5.869251E+04 -1.121573E+06 -1.215357E+05  1.259541E+05  7.550395E+03  2.144735E+04
       129  10 -7.713224E+04 -1.179426E+06 -1.447813E+05  1.265616E+05  1.219652E-09 -2.398356E-09
       129  11 -3.864007E+03 -9.662760E+05 -7.586897E+04  6.337517E+04 -1.124949E-10  6.197478E-11
       129  12  2.825344E+04 -7.682726E+05 -4.017591E+04  1.079169E+05  1.788166E-10  5.806152E-10
       129  13 -1.940555E+04 -9.449448E+05 -9.074989E+04  1.169421E+05  6.435426E-10 -6.185763E-10
       129  14  3.256967E+03 -9.373532E+05 -6.921228E+04  6.307392E+04  2.740657E-10  1.092683E-10
       129  15 -1.521869E+04 -9.449374E+05 -8.085528E+04  1.169368E+05 -2.179750E-10 -5.469476E-10
       129  16  3.831765E+04 -7.104122E+05 -3.672213E+04  1.073189E+05 -1.104086E-11  2.581611E-09
       129  17  1.037788E+04 -9.084297E+05 -6.255564E+04  6.277266E+04  8.596849E-10  4.624334E-12
       129  18 -5.869270E+04 -1.121573E+06 -1.215367E+05  1.259540E+05  9.037175E-10 -8.975483E-10
       129  19 -7.713179E+04 -1.179425E+06 -1.447786E+05  1.265619E+05  9.982784E+03  3.601639E+04
       129  20 -3.864005E+03 -9.662760E+05 -7.586897E+04  6.337517E+04  1.242347E+03  9.605752E+02
       129  21  2.825382E+04 -7.682713E+05 -4.017361E+04  1.079171E+05 -7.567182E+03 -3.410623E+04
       129  22 -1.940496E+04 -9.449428E+05 -9.074635E+04  1.169424E+05  9.990614E+03  4.224842E+04
       129  23  3.256983E+03 -9.373532E+05 -6.921218E+04  6.307393E+04  1.250872E+03  7.236082E+03
       129  24 -1.521842E+04 -9.449366E+05 -8.085372E+04  1.169369E+05 -7.558881E+03 -2.777589E+04
       129  25  3.831839E+04 -7.104097E+05 -3.671752E+04  1.073192E+05  9.998249E+03  4.848278E+04
       129  26  1.037793E+04 -9.084295E+05 -6.255530E+04  6.277268E+04  1.259391E+03  1.351188E+04
       129  27 -5.869251E+04 -1.121573E+06 -1.215357E+05  1.259541E+05 -7.550395E+03 -2.144735E+04
       130   1  1.032065E+05 -5.831606E+05 -3.775838E+03  1.499545E+05  1.614778E+04  5.451879E+04
       130   2  1.579967E+05 -3.443473E+05  4.085526E+03  3.436877E+04  2.296417E+04  1.082609E+05
       130   3 -2.727947E+04 -1.725348E+05 -8.306511E+04  2.553654E+04  8.374804E+03  1.620421E+05
       130   4  1.104452E+04 -9.570817E+05 -8.982653E+04  1.166563E+05  1.612861E+04  4.193546E+04
       130   5  1.563777E+04 -9.222626E+05 -1.297723E+05  6.337537E+04  2.297371E+04  1.110196E+05
       130   6 -2.226402E+05 -9.572418E+05 -2.754665E+05  1.168692E+05  8.414983E+03  1.801235E+05
       130   7 -8.112303E+04 -1.330870E+06 -1.758853E+05  8.337833E+04  1.611079E+04  2.935966E+04
       130   8 -1.267414E+05 -1.499867E+06 -2.636521E+05  9.235466E+04  2.298351E+04  1.137757E+05
       130   9 -4.180150E+05 -1.741369E+06 -4.679073E+05  2.080859E+05  8.460526E+03  1.981820E+05
       130  10  1.032054E+05 -5.831639E+05 -3.781918E+03  1.499538E+05  5.036620E-10 -7.668226E-10
       130  11  1.579929E+05 -3.443600E+05  4.062497E+03  3.436677E+04 -2.114121E-10  3.056710E-10
       130  12 -2.728660E+04 -1.725630E+05 -8.311460E+04  2.553545E+04  1.083840E-10  2.852623E-10
       130  13  1.104376E+04 -9.570836E+05 -8.983032E+04  1.166558E+05  5.850171E-10 -6.216195E-10
       130  14  1.563389E+04 -9.222760E+05 -1.297965E+05  6.337332E+04  1.090655E-09 -1.483709E-10
       130  15 -2.226490E+05 -9.572767E+05 -2.755277E+05  1.168679E+05  4.362399E-11 -2.343585E-10
       130  16 -8.112354E+04 -1.330871E+06 -1.758874E+05  8.337795E+04  4.682027E-10  9.147504E-10
       130  17 -1.267455E+05 -1.499881E+06 -2.636774E+05  9.235255E+04 -8.655093E-10 -5.361889E-11
       130  18 -4.180257E+05 -1.741411E+06 -4.679814E+05  2.080846E+05 -6.910560E-10 -3.063294E-10
       130  19  1.032065E+05 -5.831606E+05 -3.775838E+03  1.499545E+05 -1.614778E+04 -5.451879E+04
       130  20  1.579967E+05 -3.443473E+05  4.085526E+03  3.436877E+04 -2.296417E+04 -1.082609E+05
       130  21 -2.727947E+04 -1.725348E+05 -8.306511E+04  2.553654E+04 -8.374804E+03 -1.620421E+05
       130  22  1.104452E+04 -9.570817E+05 -8.982653E+04  1.166563E+05 -1.612861E+04 -4.193546E+04
       130  23  1.563777E+04 -9.222626E+05 -1.297723E+05  6.337537E+04 -2.297371E+04 -1.110196E+05
       130  24 -2.226402E+05 -9.572418E+05 -2.754665E+05  1.168692E+05 -8.414983E+03 -1.801235E+05
       130  25 -8.112303E+04 -1.330870E+06 -1.758853E+05  8.337833E+04 -1.611079E+04 -2.935966E+04
       130  26 -1.267414E+05 -1.499867E+06 -2.636521E+05  9.235466E+04 -2.298351E+04 -1.137757E+05
       130  27 -4.180150E+05 -1.741369E+06 -4.679073E+05  2.080859E+05 -8.460526E+03 -1.981820E+05
       131   1  1.013519E+06  7.231196E+05  1.847188E+05  7.099153E+05  1.095827E+05  8.321880E+04
       131   2  9.847005E+05  5.669170E+05  7.662454E+04  7.756313E+05  7.062826E+04  5.613191E+04
       131   3  1.059813E+06  5.369198E+05  4.415152E+04  7.777876E+05  3.289926E+04  2.740595E+04
       131   4  1.136102E+06  6.984894E+05  2.038862E+05  7.190919E+05  1.111701E+05  8.438929E+04
       131   5  1.052641E+06  5.793170E+05  9.151145E+04  7.928400E+05  7.101830E+04  5.642015E+04
       131   6  1.073354E+06  5.865909E+05  5.578050E+04  8.030311E+05  3.209734E+04  2.680729E+04
       131   7  1.258710E+06  6.738672E+05  2.230559E+05  7.282656E+05  1.127579E+05  8.555960E+04
       131   8  1.120586E+06  5.917176E+05  1.063983E+05  8.100496E+05  7.140840E+04  5.670839E+04
       131   9  1.086896E+06  6.362663E+05  6.740955E+04  8.282758E+05  3.129542E+04  2.620852E+04
       131  10  1.013504E+06  7.231089E+05  1.846833E+05  7.099079E+05 -8.602119E-10  3.559156E-11
       131  11  9.846944E+05  5.669123E+05  7.660929E+04  7.756281E+05 -8.646861E-10  4.428964E-10
       131  12  1.059811E+06  5.369187E+05  4.414808E+04  7.777868E+05 -6.188129E-10  4.689721E-10
       131  13  1.136087E+06  6.984784E+05  2.038497E+05  7.190844E+05 -7.774556E-10  3.283171E-10
       131  14  1.052634E+06  5.793123E+05  9.149603E+04  7.928368E+05 -5.167422E-10  5.865639E-10
       131  15  1.073352E+06  5.865899E+05  5.577723E+04  8.030304E+05 -3.998313E-11  1.925574E-10
       131  16  1.258694E+06  6.738560E+05  2.230183E+05  7.282579E+05  1.103024E-09  4.933044E-10
       131  17  1.120580E+06  5.917128E+05  1.063827E+05  8.100464E+05 -4.760545E-10  3.074496E-10
       131  18  1.086895E+06  6.362653E+05  6.740643E+04  8.282752E+05  7.632908E-10 -5.024703E-11
       131  19  1.013519E+06  7.231196E+05  1.847188E+05  7.099153E+05 -1.095827E+05 -8.321880E+04
       131  20  9.847005E+05  5.669170E+05  7.662454E+04  7.756313E+05 -7.062826E+04 -5.613191E+04
       131  21  1.059813E+06  5.369198E+05  4.415152E+04  7.777876E+05 -3.289926E+04 -2.740595E+04
       131  22  1.136102E+06  6.984894E+05  2.038862E+05  7.190919E+05 -1.111701E+05 -8.438929E+04
       131  23  1.052641E+06  5.793170E+05  9.151145E+04  7.928400E+05 -7.101830E+04 -5.642015E+04
       131  24  1.073354E+06  5.865909E+05  5.578050E+04  8.030311E+05 -3.209734E+04 -2.680729E+04
       131  25  1.258710E+06  6.738672E+05  2.230559E+05  7.282656E+05 -1.127579E+05 -8.555960E+04
       131  26  1.120586E+06  5.917176E+05  1.063983E+05  8.100496E+05 -7.140840E+04 -5.670839E+04
       131  27  1.086896E+06  6.362663E+05  6.740955E+04  8.282758E+05 -3.129542E+04 -2.620852E+04
       132   1  1.043004E+06  5.812992E+05  3.668144E+04  7.753812E+05  2.612335E+04  2.153924E+04
       132   2  1.046092E+06  5.792539E+05  1.973948E+04  7.856675E+05  1.630636E+04  1.348994E+04
       132   3  1.064271E+06  5.810377E+05  1.449438E+04  7.897623E+05  6.549121E+03  5.360440E+03
       132   4  1.074492E+06  5.966603E+05  4.532792E+04  7.878022E+05  2.583219E+04  2.132083E+04
       132   5  1.064605E+06  5.905710E+05  2.523760E+04  7.940276E+05  1.595671E+04  1.322796E+04
       132   6  1.069821E+06  5.883230E+05  1.689405E+04  7.940613E+05  6.141252E+03  5.054943E+03
       132   7  1.105981E+06  6.120216E+05  5.397432E+04  8.002237E+05  2.554100E+04  2.110240E+04
       132   8  1.083119E+06  6.018883E+05  3.073572E+04  8.023879E+05  1.560705E+04  1.296598E+04
       132   9  1.075372E+06  5.956085E+05  1.929374E+04  7.983605E+05  5.733376E+03  4.749435E+03
       132  10  1.043003E+06  5.812985E+05  3.667929E+04  7.753808E+05 -1.359223E-09 -5.894454E-10
       132  11  1.046092E+06  5.792536E+05  1.973864E+04  7.856674E+05  3.780168E-09  1.432336E-09
       132  12  1.064270E+06  5.810377E+05  1.449425E+04  7.897623E+05  4.146555E-09  1.856244E-09
       132  13  1.074491E+06  5.966596E+05  4.532582E+04  7.878017E+05  1.352053E-09  5.573522E-10
       132  14  1.064605E+06  5.905708E+05  2.523680E+04  7.940274E+05  3.534247E-09  1.673542E-09
       132  15  1.069821E+06  5.883230E+05  1.689394E+04  7.940613E+05  2.224813E-09  5.670827E-10
       132  16  1.105980E+06  6.120210E+05  5.397226E+04  8.002233E+05  3.480548E-09  1.641467E-09
       132  17  1.083119E+06  6.018881E+05  3.073495E+04  8.023878E+05  2.424323E-09  1.619854E-09
       132  18  1.075372E+06  5.956084E+05  1.929364E+04  7.983604E+05 -1.084727E-09 -6.518039E-10
       132  19  1.043004E+06  5.812992E+05  3.668144E+04  7.753812E+05 -2.612335E+04 -2.153924E+04
       132  20  1.046092E+06  5.792539E+05  1.973948E+04  7.856675E+05 -1.630636E+04 -1.348994E+04
       132  21  1.064271E+06  5.810377E+05  1.449438E+04  7.897623E+05 -6.549121E+03 -5.360440E+03
       132  22  1.074492E+06  5.966603E+05  4.532792E+04  7.878022E+05 -2.583219E+04 -2.132083E+04
       132  23  1.064605E+06  5.905710E+05  2.523760E+04  7.940276E+05 -1.595671E+04 -1.322796E+04
       132  24  1.069821E+06  5.883230E+05  1.689405E+04  7.940613E+05 -6.141252E+03 -5.054943E+03
       132  25  1.105981E+06  6.120216E+05  5.397432E+04  8.002237E+05 -2.554100E+04 -2.110240E+04
       132  26  1.083119E+06  6.018883E+05  3.073572E+04  8.023879E+05 -1.560705E+04 -1.296598E+04
       132  27  1.075372E+06  5.956085E+05  1.929374E+04  7.983605E+05 -5.733376E+03 -4.749435E+03
       133   1  1.071489E+06  5.907263E+05  1.547653E+04  7.940680E+05  4.520755E+03  3.336761E+03
       133   2  1.077472E+06  5.999298E+05  1.707109E+04  8.000819E+05 -3.849703E+02 -1.169096E+03
       133   3  1.092095E+06  6.043312E+05  2.356759E+04  8.036444E+05 -5.291416E+03 -5.674049E+03
       133   4  1.069820E+06  5.889597E+05  1.480827E+04  7.929756E+05  4.136354E+03  3.048804E+03
       133   5  1.065544E+06  5.914402E+05  1.331085E+04  7.941414E+05 -7.686358E+02 -1.456502E+03
       133   6  1.069908E+06  5.891184E+05  1.671486E+04  7.928559E+05 -5.674247E+03 -5.960840E+03
       133   7  1.068150E+06  5.871932E+05  1.414001E+04  7.918831E+05  3.751957E+03  2.760852E+03
       133   8  1.053616E+06  5.829507E+05  9.550605E+03  7.882010E+05 -1.152290E+03 -1.743899E+03
       133   9  1.047722E+06  5.739059E+05  9.862070E+03  7.820677E+05 -6.057060E+03 -6.247619E+03
       133  10  1.071489E+06  5.907262E+05  1.547647E+04  7.940680E+05  3.906233E-10  1.880534E-10
       133  11  1.077472E+06  5.999298E+05  1.707109E+04  8.000819E+05  5.175345E-10  6.552473E-10
       133  12  1.092095E+06  6.043311E+05  2.356747E+04  8.036444E+05  1.206375E-09  7.616005E-10
       133  13  1.069820E+06  5.889597E+05  1.480822E+04  7.929755E+05  2.608082E-10 -6.075684E-12
       133  14  1.065544E+06  5.914402E+05  1.331084E+04  7.941414E+05 -3.760142E-10  3.388347E-10
       133  15  1.069908E+06  5.891184E+05  1.671473E+04  7.928558E+05  7.967346E-10  1.663546E-10
       133  16  1.068150E+06  5.871932E+05  1.413997E+04  7.918831E+05  1.093370E-10 -5.769409E-11
       133  17  1.053616E+06  5.829507E+05  9.550597E+03  7.882010E+05 -3.018121E-10  1.693682E-10
       133  18  1.047722E+06  5.739059E+05  9.861928E+03  7.820677E+05 -7.103743E-10 -1.357871E-10
       133  19  1.071489E+06  5.907263E+05  1.547653E+04  7.940680E+05 -4.520755E+03 -3.336761E+03
       133  20  1.077472E+06  5.999298E+05  1.707109E+04  8.000819E+05  3.849703E+02  1.169096E+03
       133  21  1.092095E+06  6.043312E+05  2.356759E+04  8.036444E+05  5.291416E+03  5.674049E+03
       133  22  1.069820E+06  5.889597E+05  1.480827E+04  7.929756E+05 -4.136354E+03 -3.048804E+03
       133  23  1.065544E+06  5.914402E+05  1.331085E+04  7.941414E+05  7.686358E+02  1.456502E+03
       133  24  1.069908E+06  5.891184E+05  1.671486E+04  7.928559E+05  5.674247E+03  5.960840E+03
       133  25  1.068150E+06  5.871932E+05  1.414001E+04  7.918831E+05 -3.751957E+03 -2.760852E+03
       133  26  1.053616E+06  5.829507E+05  9.550605E+03  7.882010E+05  1.152290E+03  1.743899E+03
       133  27  1.047722E+06  5.739059E+05  9.862070E+03  7.820677E+05  6.057060E+03  6.247619E+03
       134   1  1.098864E+06  6.130824E+05  2.977439E+04  8.106372E+05 -7.597569E+03 -7.913711E+03
       134   2  1.107046E+06  6.183804E+05  4.415669E+04  8.142067E+05 -1.987076E+04 -1.792751E+04
       134   3  1.132557E+06  6.302656E+05  7.319517E+04  8.104404E+05 -3.222741E+04 -2.783099E+04
       134   4  1.069948E+06  5.882815E+05  1.984760E+04  7.942921E+05 -8.015738E+03 -8.226925E+03
       134   5  1.064256E+06  5.902865E+05  3.109670E+04  7.939878E+05 -2.020811E+04 -1.818033E+04
       134   6  1.075876E+06  5.988621E+05  5.693318E+04  7.863476E+05 -3.248344E+04 -2.802330E+04
       134   7  1.041033E+06  5.634812E+05  9.920605E+03  7.779477E+05 -8.433884E+03 -8.540115E+03
       134   8  1.021468E+06  5.621935E+05  1.803650E+04  7.737704E+05 -2.054542E+04 -1.843313E+04
       134   9  1.019199E+06  5.674596E+05  4.067100E+04  7.622571E+05 -3.273945E+04 -2.821559E+04
       134  10  1.098864E+06  6.130823E+05  2.977416E+04  8.106372E+05  1.874960E-09  8.075013E-10
       134  11  1.107046E+06  6.183800E+05  4.415534E+04  8.142065E+05 -1.920066E-09 -1.435037E-09
       134  12  1.132556E+06  6.302645E+05  7.319177E+04  8.104397E+05 -2.612101E-09 -1.872927E-09
       134  13  1.069948E+06  5.882814E+05  1.984735E+04  7.942920E+05 -1.141149E-09 -6.570057E-10
       134  14  1.064256E+06  5.902861E+05  3.109531E+04  7.939875E+05 -2.461593E-09 -1.824943E-09
       134  15  1.075874E+06  5.988609E+05  5.692973E+04  7.863469E+05 -1.209101E-09 -8.047601E-10
       134  16  1.041032E+06  5.634811E+05  9.920335E+03  7.779477E+05 -3.183547E-09 -1.886476E-09
       134  17  1.021467E+06  5.621930E+05  1.803507E+04  7.737701E+05 -3.165047E-09 -2.127907E-09
       134  18  1.019197E+06  5.674585E+05  4.066750E+04  7.622564E+05  1.116244E-09  1.411040E-10
       134  19  1.098864E+06  6.130824E+05  2.977439E+04  8.106372E+05  7.597569E+03  7.913711E+03
       134  20  1.107046E+06  6.183804E+05  4.415669E+04  8.142067E+05  1.987076E+04  1.792751E+04
       134  21  1.132557E+06  6.302656E+05  7.319517E+04  8.104404E+05  3.222741E+04  2.783099E+04
       134  22  1.069948E+06  5.882815E+05  1.984760E+04  7.942921E+05  8.015738E+03  8.226925E+03
       134  23  1.064256E+06  5.902865E+05  3.109670E+04  7.939878E+05  2.020811E+04  1.818033E+04
       134  24  1.075876E+06  5.988621E+05  5.693318E+04  7.863476E+05  3.248344E+04  2.802330E+04
       134  25  1.041033E+06  5.634812E+05  9.920605E+03  7.779477E+05  8.433884E+03  8.540115E+03
       134  26  1.021468E+06  5.621935E+05  1.803650E+04  7.737704E+05  2.054542E+04  1.843313E+04
       134  27  1.019199E+06  5.674596E+05  4.067100E+04  7.622571E+05  3.273945E+04  2.821559E+04
       135   1  1.105982E+06  6.592581E+05  8.955074E+04  8.447806E+05 -3.942849E+04 -3.415030E+04
       135   2  1.147021E+06  6.001746E+05  1.383701E+05  8.201930E+05 -9.045646E+04 -7.268659E+04
       135   3  1.318651E+06  7.033330E+05  2.856572E+05  7.156000E+05 -1.432133E+05 -1.089180E+05
       135   4  1.074444E+06  5.861076E+05  7.030526E+04  8.056450E+05 -4.039926E+04 -3.487443E+04
       135   5  1.049081E+06  5.760245E+05  1.157601E+05  7.924822E+05 -8.975879E+04 -7.217031E+04
       135   6  1.153947E+06  7.278348E+05  2.582508E+05  6.993137E+05 -1.408389E+05 -1.071699E+05
       135   7  1.042910E+06  5.129661E+05  5.105982E+04  7.665132E+05 -4.136997E+04 -3.559837E+04
       135   8  9.511517E+05  5.518753E+05  9.314978E+04  7.647740E+05 -8.906126E+04 -7.165405E+04
       135   9  9.892847E+05  7.523490E+05  2.308473E+05  6.830231E+05 -1.384654E+05 -1.054214E+05
       135  10  1.105980E+06  6.592565E+05  8.954564E+04  8.447795E+05  5.720922E-10  8.973048E-11
       135  11  1.147011E+06  6.001668E+05  1.383449E+05  8.201877E+05  5.233306E-10 -5.927693E-10
       135  12  1.318625E+06  7.033148E+05  2.855965E+05  7.155874E+05  2.165047E-10 -3.127971E-10
       135  13  1.074442E+06  5.861058E+05  7.029992E+04  8.056439E+05  5.113211E-10 -8.967426E-11
       135  14  1.049071E+06  5.760168E+05  1.157353E+05  7.924770E+05  2.482756E-09 -4.051563E-10
       135  15  1.153923E+06  7.278172E+05  2.581921E+05  6.993015E+05  1.757428E-10 -1.904363E-10
       135  16  1.042907E+06  5.129642E+05  5.105424E+04  7.665120E+05  3.017694E-10 -1.107672E-10
       135  17  9.511418E+05  5.518677E+05  9.312529E+04  7.647689E+05 -4.739619E-10  3.394056E-10
       135  18  9.892611E+05  7.523319E+05  2.307905E+05  6.830113E+05  2.532588E-10  2.355497E-10
       135  19  1.105982E+06  6.592581E+05  8.955074E+04  8.447806E+05  3.942849E+04  3.415030E+04
       135  20  1.147021E+06  6.001746E+05  1.383701E+05  8.201930E+05  9.045646E+04  7.268659E+04
       135  21  1.318651E+06  7.033330E+05  2.856572E+05  7.156000E+05  1.432133E+05  1.089180E+05
       135  22  1.074444E+06  5.861076E+05  7.030526E+04  8.056450E+05  4.039926E+04  3.487443E+04
       135  23  1.049081E+06  5.760245E+05  1.157601E+05  7.924822E+05  8.975879E+04  7.217031E+04
       135  24  1.153947E+06  7.278348E+05  2.582508E+05  6.993137E+05  1.408389E+05  1.071699E+05
       135  25  1.042910E+06  5.129661E+05  5.105982E+04  7.665132E+05  4.136997E+04  3.559837E+04
       135  26  9.511517E+05  5.518753E+05  9.314978E+04  7.647740E+05  8.906126E+04  7.165405E+04
       135  27  9.892847E+05  7.523490E+05  2.308473E+05  6.830231E+05  1.384654E+05  1.054214E+05
       136   1  1.503177E+06  1.875424E+05  2.096646E+05  7.525610E+04  9.378651E+04 -3.897442E+03
       136   2  1.428263E+06  6.331083E+04  1.228056E+05  3.171924E+04  5.696902E+04 -1.143052E+04
       136   3  1.386009E+06  5.045003E+04  8.772653E+04  1.850621E+04  2.015576E+04 -9.943874E+03
       136   4  1.157875E+06  1.017278E+05  1.252972E+05  3.347749E+04  8.507085E+04 -3.902569E+03
       136   5  1.142136E+06 -7.044902E+03  5.673670E+04  1.831127E+04  5.477285E+04 -1.143202E+04
       136   6  1.157943E+06 -5.550434E+03  3.545461E+04  3.346661E+04  2.447537E+04 -9.943255E+03
       136   7  8.126854E+05  1.591100E+04  4.092230E+04 -8.277887E+03  7.636000E+04 -3.906529E+03
       136   8  8.560856E+05 -7.740568E+04 -9.337488E+03  4.909513E+03  5.257768E+04 -1.143342E+04
       136   9  9.299247E+05 -6.155366E+04 -1.682054E+04  4.842148E+04  2.879341E+04 -9.942428E+03
       136  10  1.503167E+06  1.875400E+05  2.096481E+05  7.525639E+04  6.936190E-11 -5.461125E-11
       136  11  1.428259E+06  6.330982E+04  1.227992E+05  3.171977E+04 -5.640486E-10 -1.825162E-10
       136  12  1.386009E+06  5.044981E+04  8.772559E+04  1.850637E+04  2.655229E-10  1.343536E-10
       136  13  1.157867E+06  1.017258E+05  1.252836E+05  3.347775E+04  4.797891E-10 -6.433777E-11
       136  14  1.142133E+06 -7.045846E+03  5.673083E+04  1.831178E+04  3.005533E-10 -3.077435E-10
       136  15  1.157942E+06 -5.550700E+03  3.545330E+04  3.346680E+04 -1.189480E-10  4.157310E-11
       136  16  8.126792E+05  1.590942E+04  4.091133E+04 -8.277647E+03 -1.198350E-09 -6.551118E-11
       136  17  8.560826E+05 -7.740657E+04 -9.342921E+03  4.909998E+03 -3.070518E-10 -3.848508E-10
       136  18  9.299237E+05 -6.155399E+04 -1.682228E+04  4.842171E+04  1.469879E-10  4.680753E-12
       136  19  1.503177E+06  1.875424E+05  2.096646E+05  7.525610E+04 -9.378651E+04  3.897442E+03
       136  20  1.428263E+06  6.331083E+04  1.228056E+05  3.171924E+04 -5.696902E+04  1.143052E+04
       136  21  1.386009E+06  5.045003E+04  8.772653E+04  1.850621E+04 -2.015576E+04  9.943874E+03
       136  22  1.157875E+06  1.017278E+05  1.252972E+05  3.347749E+04 -8.507085E+04  3.902569E+03
       136  23  1.142136E+06 -7.044902E+03  5.673670E+04  1.831127E+04 -5.477285E+04  1.143202E+04
       136  24  1.157943E+06 -5.550434E+03  3.545461E+04  3.346661E+04 -2.447537E+04  9.943255E+03
       136  25  8.126854E+05  1.591100E+04  4.092230E+04 -8.277887E+03 -7.636000E+04  3.906529E+03
       136  26  8.560856E+05 -7.740568E+04 -9.337488E+03  4.909513E+03 -5.257768E+04  1.143342E+04
       136  27  9.299247E+05 -6.155366E+04 -1.682054E+04  4.842148E+04 -2.879341E+04  9.942428E+03
       137   1  1.323964E+06  4.989806E+04  6.909112E+04  3.622756E+04  1.759048E+04 -7.214065E+03
       137   2  1.264217E+06  2.736118E+04  4.466887E+04  1.901449E+04  7.989786E+03 -4.873601E+03
       137   3  1.208025E+06  1.405658E+04  2.879441E+04  3.213469E+04 -1.610513E+03 -2.110446E+03
       137   4  1.151704E+06  7.568542E+03  2.946913E+04  3.347115E+04  1.912372E+04 -7.214068E+03
       137   5  1.149959E+06 -7.080921E+02  1.842829E+04  1.830498E+04  9.829971E+03 -4.873351E+03
       137   6  1.151714E+06  1.958033E+02  1.572438E+04  3.347224E+04  5.357396E+02 -2.109958E+03
       137   7  9.794713E+05 -3.476302E+04 -1.015481E+04  3.071550E+04  2.065654E+04 -7.214085E+03
       137   8  1.035713E+06 -2.877827E+04 -7.813151E+03  1.759560E+04  1.166982E+04 -4.873105E+03
       137   9  1.095405E+06 -1.366518E+04  2.654159E+03  3.480966E+04  2.681799E+03 -2.109462E+03
       137  10  1.323963E+06  4.989792E+04  6.909045E+04  3.622766E+04  6.067246E-10  2.417585E-10
       137  11  1.264217E+06  2.736114E+04  4.466871E+04  1.901452E+04 -1.593954E-10  1.414422E-10
       137  12  1.208025E+06  1.405657E+04  2.879439E+04  3.213469E+04 -1.371747E-10  1.716333E-10
       137  13  1.151703E+06  7.568388E+03  2.946835E+04  3.347126E+04 -7.458586E-10  4.060432E-11
       137  14  1.149959E+06 -7.081435E+02  1.842806E+04  1.830502E+04  4.848863E-10  1.580505E-10
       137  15  1.151714E+06  1.957984E+02  1.572437E+04  3.347224E+04 -2.834791E-10  2.105635E-10
       137  16  9.794708E+05 -3.476319E+04 -1.015571E+04  3.071562E+04 -8.532061E-10 -9.878032E-11
       137  17  1.035713E+06 -2.877833E+04 -7.813451E+03  1.759564E+04 -8.983885E-10 -1.631551E-10
       137  18  1.095405E+06 -1.366519E+04  2.654138E+03  3.480967E+04 -1.980498E-10  6.011331E-11
       137  19  1.323964E+06  4.989806E+04  6.909112E+04  3.622756E+04 -1.759048E+04  7.214065E+03
       137  20  1.264217E+06  2.736118E+04  4.466887E+04  1.901449E+04 -7.989786E+03  4.873601E+03
       137  21  1.208025E+06  1.405658E+04  2.879441E+04  3.213469E+04  1.610513E+03  2.110446E+03
       137  22  1.151704E+06  7.568542E+03  2.946913E+04  3.347115E+04 -1.912372E+04  7.214068E+03
       137  23  1.149959E+06 -7.080921E+02  1.842829E+04  1.830498E+04 -9.829971E+03  4.873351E+03
       137  24  1.151714E+06  1.958033E+02  1.572438E+04  3.347224E+04 -5.357396E+02  2.109958E+03
       137  25  9.794713E+05 -3.476302E+04 -1.015481E+04  3.071550E+04 -2.065654E+04  7.214085E+03
       137  26  1.035713E+06 -2.877827E+04 -7.813151E+03  1.759560E+04 -1.166982E+04  4.873105E+03
       137  27  1.095405E+06 -1.366518E+04  2.654159E+03  3.480966E+04 -2.681799E+03  2.109462E+03
       138   1  1.152736E+06  2.548476E+02  1.607281E+04  3.499429E+04 -4.382353E+03 -3.549185E+02
       138   2  1.092924E+06 -1.477532E+04  6.927773E+03  1.752428E+04 -1.422637E+04  2.412477E+03
       138   3  1.036955E+06 -1.952805E+04  6.750563E+03  3.034951E+04 -2.406912E+04  4.827261E+03
       138   4  1.151799E+06  5.333430E+01  1.600471E+04  3.346380E+04 -2.258503E+03 -3.543943E+02
       138   5  1.149854E+06 -7.867166E+02  2.001006E+04  1.831557E+04 -1.235763E+04  2.412828E+03
       138   6  1.151790E+06  8.694155E+03  3.315920E+04  3.346216E+04 -2.245637E+04  4.827392E+03
       138   7  1.150863E+06 -1.481678E+02  1.593663E+04  3.193330E+04 -1.346554E+02 -3.538805E+02
       138   8  1.206786E+06  1.320166E+04  3.309215E+04  1.910694E+04 -1.048871E+04  2.413184E+03
       138   9  1.266637E+06  3.691548E+04  5.956698E+04  3.657538E+04 -2.084333E+04  4.827540E+03
       138  10  1.152736E+06  2.548423E+02  1.607277E+04  3.499429E+04 -6.492603E-10 -7.739197E-12
       138  11  1.092924E+06 -1.477538E+04  6.927382E+03  1.752431E+04 -5.026925E-10  1.793734E-10
       138  12  1.036955E+06 -1.952823E+04  6.749432E+03  3.034960E+04 -7.504240E-10 -9.972582E-11
       138  13  1.151799E+06  5.333280E+01  1.600470E+04  3.346380E+04  5.892765E-10  2.353563E-11
       138  14  1.149854E+06 -7.867637E+02  2.000977E+04  1.831560E+04 -1.481013E-09 -3.031534E-10
       138  15  1.151789E+06  8.693994E+03  3.315821E+04  3.346224E+04 -1.133584E-09 -5.494905E-12
       138  16  1.150863E+06 -1.481679E+02  1.593663E+04  3.193330E+04  5.459363E-10  3.626788E-11
       138  17  1.206786E+06  1.320163E+04  3.309194E+04  1.910696E+04 -3.840133E-10 -2.150477E-10
       138  18  1.266636E+06  3.691534E+04  5.956612E+04  3.657546E+04 -4.843370E-10  5.420164E-11
       138  19  1.152736E+06  2.548476E+02  1.607281E+04  3.499429E+04  4.382353E+03  3.549185E+02
       138  20  1.092924E+06 -1.477532E+04  6.927773E+03  1.752428E+04  1.422637E+04 -2.412477E+03
       138  21  1.036955E+06 -1.952805E+04  6.750563E+03  3.034951E+04  2.406912E+04 -4.827261E+03
       138  22  1.151799E+06  5.333430E+01  1.600471E+04  3.346380E+04  2.258503E+03  3.543943E+02
       138  23  1.149854E+06 -7.867166E+02  2.001006E+04  1.831557E+04  1.235763E+04 -2.412828E+03
       138  24  1.151790E+06  8.694155E+03  3.315920E+04  3.346216E+04  2.245637E+04 -4.827392E+03
       138  25  1.150863E+06 -1.481678E+02  1.593663E+04  3.193330E+04  1.346554E+02  3.538805E+02
       138  26  1.206786E+06  1.320166E+04  3.309215E+04  1.910694E+04  1.048871E+04 -2.413184E+03
       138  27  1.266637E+06  3.691548E+04  5.956698E+04  3.657538E+04  2.084333E+04 -4.827540E+03
       139   1  9.885068E+05 -4.822760E+04  1.089078E+03  5.060226E+04 -3.245516E+04  7.385457E+03
       139   2  9.125455E+05 -6.422591E+04  1.207406E+04  2.959646E+03 -6.158321E+04  9.080905E+03
       139   3  8.717630E+05  4.523415E+04  7.337770E+04 -1.444392E+04 -9.070849E+04  3.165981E+03
       139   4  1.158962E+06 -6.364143E+03  4.018532E+04  3.345074E+04 -2.849449E+04  7.386842E+03
       139   5  1.140869E+06 -8.059566E+03  6.483164E+04  1.833221E+04 -6.312139E+04  9.079075E+03
       139   6  1.158887E+06  1.166274E+05  1.435956E+05  3.345068E+04 -9.774864E+04  3.159130E+03
       139   7  1.329444E+06  3.549841E+04  7.927987E+04  1.629447E+04 -2.453274E+04  7.388009E+03
       139   8  1.369241E+06  4.810401E+04  1.175859E+05  3.371047E+04 -6.466013E+04  9.077170E+03
       139   9  1.446092E+06  1.880232E+05  2.138090E+05  8.136744E+04 -1.047920E+05  3.151198E+03
       139  10  9.885057E+05 -4.822794E+04  1.086999E+03  5.060245E+04  7.115713E-10  2.897061E-11
       139  11  9.125414E+05 -6.422701E+04  1.206679E+04  2.960096E+03 -3.281179E-10  1.934644E-11
       139  12  8.717542E+05  4.523193E+04  7.336224E+04 -1.444368E+04 -6.555670E-10  5.567963E-11
       139  13  1.158961E+06 -6.364419E+03  4.018369E+04  3.345090E+04 -1.306404E-10  2.259644E-10
       139  14  1.140865E+06 -8.060722E+03  6.482401E+04  1.833267E+04 -1.958828E-10  1.005575E-10
       139  15  1.158877E+06  1.166248E+05  1.435777E+05  3.345093E+04 -6.923993E-10  2.452347E-11
       139  16  1.329444E+06  3.549819E+04  7.927864E+04  1.629462E+04 -5.094738E-10  1.495432E-10
       139  17  1.369237E+06  4.810280E+04  1.175779E+05  3.371094E+04 -9.887329E-10  1.957892E-11
       139  18  1.446080E+06  1.880203E+05  2.137884E+05  8.136771E+04 -3.872461E-11 -5.871762E-11
       139  19  9.885068E+05 -4.822760E+04  1.089078E+03  5.060226E+04  3.245516E+04 -7.385457E+03
       139  20  9.125455E+05 -6.422591E+04  1.207406E+04  2.959646E+03  6.158321E+04 -9.080905E+03
       139  21  8.717630E+05  4.523415E+04  7.337770E+04 -1.444392E+04  9.070849E+04 -3.165981E+03
       139  22  1.158962E+06 -6.364143E+03  4.018532E+04  3.345074E+04  2.849449E+04 -7.386842E+03
       139  23  1.140869E+06 -8.059566E+03  6.483164E+04  1.833221E+04  6.312139E+04 -9.079075E+03
       139  24  1.158887E+06  1.166274E+05  1.435956E+05  3.345068E+04  9.774864E+04 -3.159130E+03
       139  25  1.329444E+06  3.549841E+04  7.927987E+04  1.629447E+04  2.453274E+04 -7.388009E+03
       139  26  1.369241E+06  4.810401E+04  1.175859E+05  3.371047E+04  6.466013E+04 -9.077170E+03
       139  27  1.446092E+06  1.880232E+05  2.138090E+05  8.136744E+04  1.047920E+05 -3.151198E+03
       140   1 -3.764382E+05 -1.424874E+06 -4.304690E+05  1.713885E+05 -6.058558E+03 -2.086843E+05
       140   2 -8.721346E+04 -1.258162E+06 -2.348866E+05  7.113765E+04 -1.683367E+04 -1.249202E+05
       140   3 -6.041586E+04 -1.167998E+06 -1.595261E+05  3.759209E+04 -1.276057E+04 -4.114481E+04
       140   4 -2.391957E+05 -8.739811E+05 -2.953558E+05  7.320075E+04 -6.019396E+03 -1.956584E+05
       140   5  1.668638E+04 -8.365908E+05 -1.372243E+05  3.977850E+04 -1.682511E+04 -1.225186E+05
       140   6  1.207622E+04 -8.738579E+05 -9.185714E+04  7.307856E+04 -1.276903E+04 -4.938619E+04
       140   7 -1.019393E+05 -3.227901E+05 -1.602591E+05 -2.507449E+04 -5.984392E+03 -1.826209E+05
       140   8  1.205774E+05 -4.148532E+05 -3.957337E+04  8.397830E+03 -1.681680E+04 -1.201154E+05
       140   9  8.456699E+04 -5.796348E+05 -2.419300E+04  1.085820E+05 -1.277842E+04 -5.763145E+04
       140  10 -3.764500E+05 -1.424921E+06 -4.305511E+05  1.713875E+05  3.725052E-10 -3.843376E-10
       140  11 -8.721796E+04 -1.258179E+06 -2.349165E+05  7.113595E+04  6.382049E-10  9.714925E-11
       140  12 -6.041649E+04 -1.168000E+06 -1.595296E+05  3.759167E+04  1.338249E-09  1.028914E-09
       140  13 -2.392061E+05 -8.740222E+05 -2.954279E+05  7.319980E+04 -9.979349E-11 -3.034649E-12
       140  14  1.668204E+04 -8.366070E+05 -1.372531E+05  3.977684E+04  1.633212E-10 -2.118697E-10
       140  15  1.207539E+04 -8.738606E+05 -9.186204E+04  7.307805E+04  9.032868E-10  5.162683E-11
       140  16 -1.019483E+05 -3.228259E+05 -1.603218E+05 -2.507537E+04 -5.729463E-10  1.992981E-10
       140  17  1.205732E+05 -4.148688E+05 -3.960103E+04  8.396203E+03  4.394326E-10 -4.172589E-10
       140  18  8.456592E+04 -5.796384E+05 -2.419955E+04  1.085814E+05  8.562336E-10 -1.152979E-09
       140  19 -3.764382E+05 -1.424874E+06 -4.304690E+05  1.713885E+05  6.058558E+03  2.086843E+05
       140  20 -8.721346E+04 -1.258162E+06 -2.348866E+05  7.113765E+04  1.683367E+04  1.249202E+05
       140  21 -6.041586E+04 -1.167998E+06 -1.595261E+05  3.759209E+04  1.276057E+04  4.114481E+04
       140  22 -2.391957E+05 -8.739811E+05 -2.953558E+05  7.320075E+04  6.019396E+03  1.956584E+05
       140  23  1.668638E+04 -8.365908E+05 -1.372243E+05  3.977850E+04  1.682511E+04  1.225186E+05
       140  24  1.207622E+04 -8.738579E+05 -9.185714E+04  7.307856E+04  1.276903E+04  4.938619E+04
       140  25 -1.019393E+05 -3.227901E+05 -1.602591E+05 -2.507449E+04  5.984392E+03  1.826209E+05
       140  26  1.205774E+05 -4.148532E+05 -3.957337E+04  8.397830E+03  1.681680E+04  1.201154E+05
       140  27  8.456699E+04 -5.796348E+05 -2.419300E+04  1.085820E+05  1.277842E+04  5.763145E+04
       141   1 -5.892393E+04 -1.031083E+06 -1.199941E+05  8.202711E+04 -7.242766E+03 -3.125568E+04
       141   2 -7.466606E+03 -8.955212E+05 -7.305623E+04  3.967455E+04 -1.804202E+03  8.786399E+02
       141   3  6.194817E+03 -7.737083E+05 -5.653852E+04  6.475411E+04  3.736307E+03  3.301906E+04
       141   4 -1.688461E+04 -8.603295E+05 -8.064394E+04  7.327820E+04 -7.245461E+03 -3.511505E+04
       141   5  2.891496E+03 -8.534520E+05 -6.337442E+04  3.956074E+04 -1.807495E+03 -3.049667E+03
       141   6 -1.511336E+04 -8.603254E+05 -7.647243E+04  7.327694E+04  3.733255E+03  2.901531E+04
       141   7  2.515297E+04 -6.895485E+05 -4.129557E+04  6.452685E+04 -7.248046E+03 -3.897547E+04
       141   8  1.324948E+04 -8.113811E+05 -5.369267E+04  3.944692E+04 -1.810787E+03 -6.978238E+03
       141   9 -3.642177E+04 -9.469354E+05 -9.640674E+04  8.179856E+04  3.730092E+03  2.501211E+04
       141  10 -5.892425E+04 -1.031084E+06 -1.199961E+05  8.202693E+04  3.515392E-10 -6.252656E-10
       141  11 -7.466609E+03 -8.955212E+05 -7.305623E+04  3.967455E+04 -1.102608E-09  2.924330E-10
       141  12  6.194509E+03 -7.737095E+05 -5.654060E+04  6.475401E+04  5.100995E-10  1.289932E-09
       141  13 -1.688500E+04 -8.603308E+05 -8.064636E+04  7.327800E+04  1.100880E-10  7.166009E-11
       141  14  2.891490E+03 -8.534520E+05 -6.337444E+04  3.956073E+04  8.976891E-10 -3.255541E-10
       141  15 -1.511360E+04 -8.603263E+05 -7.647404E+04  7.327685E+04  9.118225E-10  4.536152E-11
       141  16  2.515250E+04 -6.895502E+05 -4.129853E+04  6.452662E+04  1.063438E-09  1.748819E-10
       141  17  1.324947E+04 -8.113812E+05 -5.369277E+04  3.944691E+04  3.357369E-10 -3.562829E-10
       141  18 -3.642195E+04 -9.469360E+05 -9.640794E+04  8.179848E+04  7.764400E-10 -1.360914E-09
       141  19 -5.892393E+04 -1.031083E+06 -1.199941E+05  8.202711E+04  7.242766E+03  3.125568E+04
       141  20 -7.466606E+03 -8.955212E+05 -7.305623E+04  3.967455E+04  1.804202E+03 -8.786399E+02
       141  21  6.194817E+03 -7.737083E+05 -5.653852E+04  6.475411E+04 -3.736307E+03 -3.301906E+04
       141  22 -1.688461E+04 -8.603295E+05 -8.064394E+04  7.327820E+04  7.245461E+03  3.511505E+04
       141  23  2.891496E+03 -8.534520E+05 -6.337442E+04  3.956074E+04  1.807495E+03  3.049667E+03
       141  24 -1.511336E+04 -8.603254E+05 -7.647243E+04  7.327694E+04 -3.733255E+03 -2.901531E+04
       141  25  2.515297E+04 -6.895485E+05 -4.129557E+04  6.452685E+04  7.248046E+03  3.897547E+04
       141  26  1.324948E+04 -8.113811E+05 -5.369267E+04  3.944692E+04  1.810787E+03  6.978238E+03
       141  27 -3.642177E+04 -9.469354E+05 -9.640674E+04  8.179856E+04 -3.730092E+03 -2.501211E+04
       142   1  6.254289E+04 -6.622540E+05 -3.743304E+04  1.053074E+05  9.042434E+03  5.020035E+04
       142   2  9.842005E+04 -5.005653E+05 -4.732307E+04  1.124231E+04  1.340129E+04  1.079094E+05
       142   3 -1.005578E+05 -4.051128E+05 -1.535092E+05 -1.592811E+04  4.936121E+03  1.656391E+05
       142   4  1.075011E+04 -8.723504E+05 -8.579923E+04  7.311620E+04  9.033490E+03  4.246890E+04
       142   5  1.518331E+04 -8.384523E+05 -1.256025E+05  3.973112E+04  1.340776E+04  1.093655E+05
       142   6 -2.169208E+05 -8.724596E+05 -2.681316E+05  7.325041E+04  4.966208E+03  1.762699E+05
       142   7 -4.104185E+04 -1.082404E+06 -1.341676E+05  4.093593E+04  9.025346E+03  3.474006E+04
       142   8 -6.805840E+04 -1.176232E+06 -2.038891E+05  6.820428E+04  1.341438E+04  1.108208E+05
       142   9 -3.332700E+05 -1.339590E+06 -3.827653E+05  1.623616E+05  4.999371E+03  1.868927E+05
       142  10  6.254212E+04 -6.622567E+05 -3.743793E+04  1.053071E+05  6.899923E-10 -6.469697E-10
       142  11  9.841673E+04 -5.005779E+05 -4.734531E+04  1.124114E+04 -4.751122E-10 -1.953316E-10
       142  12 -1.005652E+05 -4.051423E+05 -1.535609E+05 -1.592877E+04 -8.281795E-12  4.704813E-10
       142  13  1.074954E+04 -8.723524E+05 -8.580278E+04  7.311589E+04  9.066097E-10 -8.622555E-12
       142  14  1.517990E+04 -8.384652E+05 -1.256253E+05  3.972994E+04  7.353816E-10 -3.043727E-10
       142  15 -2.169292E+05 -8.724930E+05 -2.681901E+05  7.324971E+04  1.071913E-10 -1.905667E-10
       142  16 -4.104226E+04 -1.082405E+06 -1.341700E+05  4.093568E+04  7.111207E-10  2.094411E-10
       142  17 -6.806190E+04 -1.176245E+06 -2.039126E+05  6.820308E+04 -6.359505E-11 -1.242286E-10
       142  18 -3.332795E+05 -1.339627E+06 -3.828311E+05  1.623608E+05 -4.002424E-10 -5.991862E-10
       142  19  6.254289E+04 -6.622540E+05 -3.743304E+04  1.053074E+05 -9.042434E+03 -5.020035E+04
       142  20  9.842005E+04 -5.005653E+05 -4.732307E+04  1.124231E+04 -1.340129E+04 -1.079094E+05
       142  21 -1.005578E+05 -4.051128E+05 -1.535092E+05 -1.592811E+04 -4.936121E+03 -1.656391E+05
       142  22  1.075011E+04 -8.723504E+05 -8.579923E+04  7.311620E+04 -9.033490E+03 -4.246890E+04
       142  23  1.518331E+04 -8.384523E+05 -1.256025E+05  3.973112E+04 -1.340776E+04 -1.093655E+05
       142  24 -2.169208E+05 -8.724596E+05 -2.681316E+05  7.325041E+04 -4.966208E+03 -1.762699E+05
       142  25 -4.104185E+04 -1.082404E+06 -1.341676E+05  4.093593E+04 -9.025346E+03 -3.474006E+04
       142  26 -6.805840E+04 -1.176232E+06 -2.038891E+05  6.820428E+04 -1.341438E+04 -1.108208E+05
       142  27 -3.332700E+05 -1.339590E+06 -3.827653E+05  1.623616E+05 -4.999371E+03 -1.868927E+05
       143   1  7.471555E+05  5.242711E+05  1.247064E+05  5.298210E+05  7.987258E+04  6.144696E+04
       143   2  7.282802E+05  4.123732E+05  4.632401E+04  5.807895E+05  5.097935E+04  4.289155E+04
       143   3  7.889255E+05  3.914739E+05  2.342855E+04  5.838443E+05  2.376799E+04  2.209110E+04
       143   4  8.751273E+05  5.323349E+05  1.513200E+05  5.549504E+05  8.213298E+04  6.313105E+04
       143   5  8.118885E+05  4.451490E+05  6.788988E+04  6.100552E+05  5.161071E+04  4.336255E+04
       143   6  8.285113E+05  4.492994E+05  4.134782E+04  6.172492E+05  2.277317E+04  2.134668E+04
       143   7  1.003120E+06  5.404015E+05  1.779340E+05  5.800807E+05  8.439403E+04  6.481506E+04
       143   8  8.955043E+05  4.779258E+05  8.945522E+04  6.393239E+05  5.224219E+04  4.383359E+04
       143   9  8.680993E+05  5.071299E+05  5.926686E+04  6.506573E+05  2.177826E+04  2.060210E+04
       143  10  7.471476E+05  5.242654E+05  1.246873E+05  5.298171E+05 -2.442095E-11 -1.309530E-10
       143  11  7.282770E+05  4.123705E+05  4.631569E+04  5.807878E+05  1.034997E-09  1.746543E-10
       143  12  7.889248E+05  3.914732E+05  2.342658E+04  5.838439E+05  5.308784E-10  1.653877E-10
       143  13  8.751190E+05  5.323288E+05  1.512999E+05  5.549462E+05  1.787025E-10  2.827687E-11
       143  14  8.118851E+05  4.451463E+05  6.788136E+04  6.100534E+05  1.316493E-09  2.062091E-10
       143  15  8.285107E+05  4.492988E+05  4.134599E+04  6.172488E+05  1.941824E-11  1.467783E-10
       143  16  1.003112E+06  5.403951E+05  1.779127E+05  5.800763E+05  2.727906E-10  2.299884E-10
       143  17  8.955009E+05  4.779230E+05  8.944650E+04  6.393221E+05  2.272020E-10  1.709014E-10
       143  18  8.680987E+05  5.071293E+05  5.926518E+04  6.506570E+05  1.741896E-10 -2.386157E-10
       143  19  7.471555E+05  5.242711E+05  1.247064E+05  5.298210E+05 -7.987258E+04 -6.144696E+04
       143  20  7.282802E+05  4.123732E+05  4.632401E+04  5.807895E+05 -5.097935E+04 -4.289155E+04
       143  21  7.889255E+05  3.914739E+05  2.342855E+04  5.838443E+05 -2.376799E+04 -2.209110E+04
       143  22  8.751273E+05  5.323349E+05  1.513200E+05  5.549504E+05 -8.213298E+04 -6.313105E+04
       143  23  8.118885E+05  4.451490E+05  6.788988E+04  6.100552E+05 -5.161071E+04 -4.336255E+04
       143  24  8.285113E+05  4.492994E+05  4.134782E+04  6.172492E+05 -2.277317E+04 -2.134668E+04
       143  25  1.003120E+06  5.404015E+05  1.779340E+05  5.800807E+05 -8.439403E+04 -6.481506E+04
       143  26  8.955043E+05  4.779258E+05  8.945522E+04  6.393239E+05 -5.224219E+04 -4.383359E+04
       143  27  8.680993E+05  5.071299E+05  5.926686E+04  6.506573E+05 -2.177826E+04 -2.060210E+04
       144   1  7.799879E+05  4.269050E+05  1.893955E+04  5.838030E+05  1.860961E+04  1.726843E+04
       144   2  7.846738E+05  4.292417E+05  7.485396E+03  5.936197E+05  1.151347E+04  1.121687E+04
       144   3  8.030648E+05  4.318910E+05  4.644445E+03  5.981051E+05  4.498870E+03  5.056059E+03
       144   4  8.293638E+05  4.567685E+05  3.357332E+04  6.059434E+05  1.831168E+04  1.704497E+04
       144   5  8.207671E+05  4.535085E+05  1.861161E+04  6.109327E+05  1.113603E+04  1.093398E+04
       144   6  8.258919E+05  4.505778E+05  1.233112E+04  6.105908E+05  4.042194E+03  4.713860E+03
       144   7  8.787426E+05  4.866330E+05  4.820695E+04  6.280857E+05  1.801372E+04  1.682150E+04
       144   8  8.568619E+05  4.777759E+05  2.973768E+04  6.282469E+05  1.075857E+04  1.065107E+04
       144   9  8.487194E+05  4.692649E+05  2.001766E+04  6.230769E+05  3.585499E+03  4.371644E+03
       144  10  7.799875E+05  4.269046E+05  1.893834E+04  5.838028E+05  9.701816E-11 -9.875611E-12
       144  11  7.846736E+05  4.292415E+05  7.484912E+03  5.936196E+05  1.592358E-09 -2.363691E-10
       144  12  8.030647E+05  4.318910E+05  4.644359E+03  5.981051E+05 -9.966343E-10 -5.296171E-11
       144  13  8.293633E+05  4.567681E+05  3.357215E+04  6.059431E+05  8.512352E-10 -1.780159E-10
       144  14  8.207670E+05  4.535083E+05  1.861116E+04  6.109326E+05  8.418827E-10 -2.066676E-10
       144  15  8.258918E+05  4.505778E+05  1.233105E+04  6.105908E+05 -4.236570E-10 -2.452649E-10
       144  16  8.787422E+05  4.866326E+05  4.820581E+04  6.280855E+05  4.347786E-10 -1.153752E-10
       144  17  8.568617E+05  4.777757E+05  2.973725E+04  6.282468E+05  3.806804E-10 -2.089086E-10
       144  18  8.487193E+05  4.692649E+05  2.001760E+04  6.230769E+05  9.757804E-10 -1.869977E-10
       144  19  7.799879E+05  4.269050E+05  1.893955E+04  5.838030E+05 -1.860961E+04 -1.726843E+04
       144  20  7.846738E+05  4.292417E+05  7.485396E+03  5.936197E+05 -1.151347E+04 -1.121687E+04
       144  21  8.030648E+05  4.318910E+05  4.644445E+03  5.981051E+05 -4.498870E+03 -5.056059E+03
       144  22  8.293638E+05  4.567685E+05  3.357332E+04  6.059434E+05 -1.831168E+04 -1.704497E+04
       144  23  8.207671E+05  4.535085E+05  1.861161E+04  6.109327E+05 -1.113603E+04 -1.093398E+04
       144  24  8.258919E+05  4.505778E+05  1.233112E+04  6.105908E+05 -4.042194E+03 -4.713860E+03
       144  25  8.787426E+05  4.866330E+05  4.820695E+04  6.280857E+05 -1.801372E+04 -1.682150E+04
       144  26  8.568619E+05  4.777759E+05  2.973768E+04  6.282469E+05 -1.075857E+04 -1.065107E+04
       144  27  8.487194E+05  4.692649E+05  2.001766E+04  6.230769E+05 -3.585499E+03 -4.371644E+03
       145   1  8.118748E+05  4.415313E+05  6.422084E+03  6.030012E+05  3.102372E+03  3.447893E+03
       145   2  8.186745E+05  4.521750E+05  8.528383E+03  6.096265E+05 -2.061460E+02  5.213723E+01
       145   3  8.343055E+05  4.567032E+05  1.410099E+04  6.137240E+05 -3.514498E+03 -3.344090E+03
       145   4  8.258800E+05  4.510603E+05  1.071909E+04  6.097784E+05  2.679310E+03  3.130870E+03
       145   5  8.214844E+05  4.541535E+05  9.410563E+03  6.110156E+05 -6.295405E+02 -2.651321E+02
       145   6  8.259198E+05  4.511313E+05  1.156856E+04  6.097250E+05 -3.938147E+03 -3.661553E+03
       145   7  8.398855E+05  4.605893E+05  1.501608E+04  6.165557E+05  2.256234E+03  2.813837E+03
       145   8  8.242943E+05  4.561321E+05  1.029275E+04  6.124048E+05 -1.052939E+03 -5.824046E+02
       145   9  8.175341E+05  4.455593E+05  9.036104E+03  6.057260E+05 -4.361791E+03 -3.979012E+03
       145  10  8.118748E+05  4.415313E+05  6.422044E+03  6.030012E+05 -1.370082E-09 -2.539905E-10
       145  11  8.186745E+05  4.521750E+05  8.528382E+03  6.096265E+05  3.971048E-10  2.850486E-10
       145  12  8.343055E+05  4.567032E+05  1.410094E+04  6.137240E+05  2.046293E-09 -1.391594E-10
       145  13  8.258800E+05  4.510603E+05  1.071906E+04  6.097784E+05  1.787466E-10 -1.759090E-10
       145  14  8.214844E+05  4.541535E+05  9.410562E+03  6.110156E+05 -2.748647E-10  4.105910E-12
       145  15  8.259198E+05  4.511313E+05  1.156851E+04  6.097250E+05 -2.763157E-10 -6.694587E-11
       145  16  8.398855E+05  4.605893E+05  1.501606E+04  6.165557E+05  8.084460E-10 -7.789182E-11
       145  17  8.242943E+05  4.561321E+05  1.029275E+04  6.124048E+05 -1.826502E-10 -1.286509E-10
       145  18  8.175341E+05  4.455593E+05  9.036039E+03  6.057260E+05 -1.442087E-09 -2.167681E-10
       145  19  8.118748E+05  4.415313E+05  6.422084E+03  6.030012E+05 -3.102372E+03 -3.447893E+03
       145  20  8.186745E+05  4.521750E+05  8.528383E+03  6.096265E+05  2.061460E+02 -5.213723E+01
       145  21  8.343055E+05  4.567032E+05  1.410099E+04  6.137240E+05  3.514498E+03  3.344090E+03
       145  22  8.258800E+05  4.510603E+05  1.071909E+04  6.097784E+05 -2.679310E+03 -3.130870E+03
       145  23  8.214844E+05  4.541535E+05  9.410563E+03  6.110156E+05  6.295405E+02  2.651321E+02
       145  24  8.259198E+05  4.511313E+05  1.156856E+04  6.097250E+05  3.938147E+03  3.661553E+03
       145  25  8.398855E+05  4.605893E+05  1.501608E+04  6.165557E+05 -2.256234E+03 -2.813837E+03
       145  26  8.242943E+05  4.561321E+05  1.029275E+04  6.124048E+05  1.052939E+03  5.824046E+02
       145  27  8.175341E+05  4.455593E+05  9.036104E+03  6.057260E+05  4.361791E+03  3.979012E+03
       146   1  8.429219E+05  4.655344E+05  1.957157E+04  6.204744E+05 -4.998765E+03 -5.016543E+03
       146   2  8.512154E+05  4.735369E+05  3.057844E+04  6.254006E+05 -1.322541E+04 -1.208594E+04
       146   3  8.741835E+05  4.831456E+05  5.159585E+04  6.244979E+05 -2.152868E+04 -1.905336E+04
       146   4  8.259381E+05  4.505696E+05  1.364684E+04  6.106963E+05 -5.453165E+03 -5.357028E+03
       146   5  8.206251E+05  4.533698E+05  2.122216E+04  6.109116E+05 -1.360570E+04 -1.237097E+04
       146   6  8.299711E+05  4.577609E+05  3.874450E+04  6.052979E+05 -2.183464E+04 -1.928288E+04
       146   7  8.089547E+05  4.356051E+05  7.722120E+03  6.009185E+05 -5.907546E+03 -5.697493E+03
       146   8  7.900360E+05  4.332033E+05  1.186581E+04  5.964233E+05 -1.398597E+04 -1.265598E+04
       146   9  7.857609E+05  4.323768E+05  2.589295E+04  5.860993E+05 -2.214057E+04 -1.951237E+04
       146  10  8.429219E+05  4.655344E+05  1.957148E+04  6.204744E+05  1.363869E-09 -3.942981E-10
       146  11  8.512152E+05  4.735367E+05  3.057784E+04  6.254005E+05 -3.695262E-09 -1.811866E-09
       146  12  8.741829E+05  4.831451E+05  5.159430E+04  6.244976E+05 -3.170636E-09 -1.755944E-09
       146  13  8.259380E+05  4.505695E+05  1.364673E+04  6.106963E+05 -2.124260E-09 -7.945391E-10
       146  14  8.206249E+05  4.533696E+05  2.122152E+04  6.109114E+05 -1.385423E-09 -1.652089E-09
       146  15  8.299705E+05  4.577604E+05  3.874291E+04  6.052976E+05 -1.477724E-09 -5.158470E-10
       146  16  8.089547E+05  4.356051E+05  7.721993E+03  6.009185E+05 -3.347743E-09 -1.515682E-09
       146  17  7.900357E+05  4.332031E+05  1.186514E+04  5.964232E+05 -3.883802E-09 -1.239406E-09
       146  18  7.857603E+05  4.323763E+05  2.589132E+04  5.860990E+05  7.430534E-10  6.270779E-10
       146  19  8.429219E+05  4.655344E+05  1.957157E+04  6.204744E+05  4.998765E+03  5.016543E+03
       146  20  8.512154E+05  4.735369E+05  3.057844E+04  6.254006E+05  1.322541E+04  1.208594E+04
       146  21  8.741835E+05  4.831456E+05  5.159585E+04  6.244979E+05  2.152868E+04  1.905336E+04
       146  22  8.259381E+05  4.505696E+05  1.364684E+04  6.106963E+05  5.453165E+03  5.357028E+03
       146  23  8.206251E+05  4.533698E+05  2.122216E+04  6.109116E+05  1.360570E+04  1.237097E+04
       146  24  8.299711E+05  4.577609E+05  3.874450E+04  6.052979E+05  2.183464E+04  1.928288E+04
       146  25  8.089547E+05  4.356051E+05  7.722120E+03  6.009185E+05  5.907546E+03  5.697493E+03
       146  26  7.900360E+05  4.332033E+05  1.186581E+04  5.964233E+05  1.398597E+04  1.265598E+04
       146  27  7.857609E+05  4.323768E+05  2.589295E+04  5.860993E+05  2.214057E+04  1.951237E+04
       147   1  8.601140E+05  5.056976E+05  6.395849E+04  6.498252E+05 -2.611666E+04 -2.342225E+04
       147   2  8.907294E+05  4.699222E+05  9.845939E+04  6.356078E+05 -6.107670E+04 -5.005614E+04
       147   3  1.013084E+06  5.416613E+05  2.002434E+05  5.661649E+05 -9.761145E+04 -7.459103E+04
       147   4  8.289859E+05  4.490961E+05  4.781971E+04  6.184172E+05 -2.707254E+04 -2.413716E+04
       147   5  8.103190E+05  4.436680E+05  7.869440E+04  6.098924E+05 -6.051536E+04 -4.963844E+04
       147   6  8.830645E+05  5.454336E+05  1.755452E+05  5.461418E+05 -9.552837E+04 -7.304416E+04
       147   7  7.978593E+05  3.924994E+05  3.168071E+04  5.870117E+05 -2.802837E+04 -2.485194E+04
       147   8  7.299161E+05  4.174145E+05  5.892912E+04  5.841795E+05 -5.995413E+04 -4.922076E+04
       147   9  7.530704E+05  5.492104E+05  1.508484E+05  5.261184E+05 -9.344593E+04 -7.149716E+04
       147  10  8.601131E+05  5.056968E+05  6.395618E+04  6.498247E+05  3.161559E-10  2.416659E-10
       147  11  8.907247E+05  4.699186E+05  9.844770E+04  6.356053E+05 -8.444817E-10 -1.807473E-10
       147  12  1.013072E+06  5.416527E+05  2.002151E+05  5.661590E+05  1.584767E-10 -3.382068E-10
       147  13  8.289850E+05  4.490953E+05  4.781724E+04  6.184167E+05  3.604349E-10 -1.023960E-10
       147  14  8.103144E+05  4.436644E+05  7.868291E+04  6.098900E+05 -1.939940E-10 -4.130410E-10
       147  15  8.830533E+05  5.454254E+05  1.755181E+05  5.461362E+05  2.704174E-10 -9.370342E-11
       147  16  7.978583E+05  3.924985E+05  3.167808E+04  5.870112E+05 -1.404586E-10 -3.685684E-10
       147  17  7.299116E+05  4.174109E+05  5.891783E+04  5.841771E+05  1.588822E-10 -5.540527E-10
       147  18  7.530597E+05  5.492026E+05  1.508224E+05  5.261131E+05  1.784185E-10  9.144691E-11
       147  19  8.601140E+05  5.056976E+05  6.395849E+04  6.498252E+05  2.611666E+04  2.342225E+04
       147  20  8.907294E+05  4.699222E+05  9.845939E+04  6.356078E+05  6.107670E+04  5.005614E+04
       147  21  1.013084E+06  5.416613E+05  2.002434E+05  5.661649E+05  9.761145E+04  7.459103E+04
       147  22  8.289859E+05  4.490961E+05  4.781971E+04  6.184172E+05  2.707254E+04  2.413716E+04
       147  23  8.103190E+05  4.436680E+05  7.869440E+04  6.098924E+05  6.051536E+04  4.963844E+04
       147  24  8.830645E+05  5.454336E+05  1.755452E+05  5.461418E+05  9.552837E+04  7.304416E+04
       147  25  7.978593E+05  3.924994E+05  3.168071E+04  5.870117E+05  2.802837E+04  2.485194E+04
       147  26  7.299161E+05  4.174145E+05  5.892912E+04  5.841795E+05  5.995413E+04  4.922076E+04
       147  27  7.530704E+05  5.492104E+05  1.508484E+05  5.261184E+05  9.344593E+04  7.149716E+04
       148   1  1.143236E+06  1.292519E+05  1.475353E+05  5.229938E+04  7.366595E+04 -2.121864E+03
       148   2  1.097920E+06  3.263253E+04  8.192997E+04  2.096442E+04  4.557743E+04 -6.225443E+03
       148   3  1.078739E+06  2.592881E+04  5.706923E+04  6.325160E+03  1.749067E+04 -5.400436E+03
       148   4  9.548284E+05  8.241012E+04  1.014852E+05  1.845011E+04  6.891897E+04 -2.125586E+03
       148   5  9.420877E+05 -5.697255E+03  4.593556E+04  1.010115E+04  4.438942E+04 -6.226334E+03
       148   6  9.548705E+05 -4.495203E+03  2.867003E+04  1.844638E+04  1.986001E+04 -5.400024E+03
       148   7  7.664557E+05  3.557001E+04  5.543321E+04 -1.538889E+04  6.417343E+04 -2.128791E+03
       148   8  7.862781E+05 -4.402830E+04  9.939605E+03 -7.593807E+02  4.320169E+04 -6.227183E+03
       148   9  8.310170E+05 -3.491973E+04  2.699243E+02  3.056517E+04  2.222887E+04 -5.399520E+03
       148  10  1.143230E+06  1.292505E+05  1.475251E+05  5.229950E+04  4.988456E-10 -4.392171E-11
       148  11  1.097918E+06  3.263193E+04  8.192600E+04  2.096465E+04 -7.355489E-10 -6.732921E-11
       148  12  1.078738E+06  2.592869E+04  5.706860E+04  6.325237E+03  2.193782E-10 -1.006107E-11
       148  13  9.548233E+05  8.240884E+04  1.014763E+05  1.845023E+04  4.966072E-10 -1.105060E-10
       148  14  9.420856E+05 -5.697825E+03  4.593179E+04  1.010137E+04  2.908082E-10 -1.655219E-10
       148  15  9.548701E+05 -4.495340E+03  2.866924E+04  1.844647E+04 -5.971228E-10  1.949124E-11
       148  16  7.664513E+05  3.556891E+04  5.542547E+04 -1.538878E+04 -5.983704E-10 -1.364311E-10
       148  17  7.862760E+05 -4.402884E+04  9.936029E+03 -7.591641E+02 -4.497465E-10 -3.517963E-10
       148  18  8.310164E+05 -3.491989E+04  2.689422E+02  3.056527E+04  2.293964E-10  1.059706E-10
       148  19  1.143236E+06  1.292519E+05  1.475353E+05  5.229938E+04 -7.366595E+04  2.121864E+03
       148  20  1.097920E+06  3.263253E+04  8.192997E+04  2.096442E+04 -4.557743E+04  6.225443E+03
       148  21  1.078739E+06  2.592881E+04  5.706923E+04  6.325160E+03 -1.749067E+04  5.400436E+03
       148  22  9.548284E+05  8.241012E+04  1.014852E+05  1.845011E+04 -6.891897E+04  2.125586E+03
       148  23  9.420877E+05 -5.697255E+03  4.593556E+04  1.010115E+04 -4.438942E+04  6.226334E+03
       148  24  9.548705E+05 -4.495203E+03  2.867003E+04  1.844638E+04 -1.986001E+04  5.400024E+03
       148  25  7.664557E+05  3.557001E+04  5.543321E+04 -1.538889E+04 -6.417343E+04  2.128791E+03
       148  26  7.862781E+05 -4.402830E+04  9.939605E+03 -7.593807E+02 -4.320169E+04  6.227183E+03
       148  27  8.310170E+05 -3.491973E+04  2.699243E+02  3.056517E+04 -2.222887E+04  5.399520E+03
       149   1  1.042926E+06  2.901803E+04  4.522860E+04  2.067684E+04  1.468785E+04 -3.900830E+03
       149   2  1.009527E+06  1.444508E+04  2.885697E+04  1.065653E+04  7.047432E+03 -2.607091E+03
       149   3  9.789818E+05  7.315506E+03  1.931391E+04  1.736855E+04 -5.926160E+02 -1.082063E+03
       149   4  9.498197E+05  6.132857E+03  2.380737E+04  1.845534E+04  1.553629E+04 -3.900848E+03
       149   5  9.484107E+05 -5.730025E+02  1.481709E+04  1.008946E+04  8.063526E+03 -2.607006E+03
       149   6  9.498250E+05  1.359228E+02  1.253981E+04  1.845590E+04  5.907458E+02 -1.081902E+03
       149   7  8.567216E+05 -1.675290E+04  2.385576E+03  1.623418E+04  1.638460E+04 -3.900872E+03
       149   8  8.872976E+05 -1.559135E+04  7.769635E+02  9.522444E+03  9.079521E+03 -2.606923E+03
       149   9  9.206689E+05 -7.043715E+03  5.765656E+03  1.954320E+04  1.774053E+03 -1.081738E+03
       149  10  1.042926E+06  2.901796E+04  4.522816E+04  2.067688E+04  4.484690E-10 -3.649618E-10
       149  11  1.009527E+06  1.444506E+04  2.885687E+04  1.065654E+04  3.696640E-10 -5.769560E-10
       149  12  9.789818E+05  7.315505E+03  1.931390E+04  1.736855E+04  7.334582E-10  9.777590E-11
       149  13  9.498194E+05  6.132776E+03  2.380689E+04  1.845539E+04  2.356770E-10 -2.162937E-10
       149  14  9.484106E+05 -5.730273E+02  1.481695E+04  1.008947E+04  5.413863E-12 -6.073697E-10
       149  15  9.498250E+05  1.359215E+02  1.253980E+04  1.845590E+04 -2.790767E-10 -1.487389E-10
       149  16  8.567213E+05 -1.675299E+04  2.385044E+03  1.623423E+04 -1.071181E-09  7.637721E-11
       149  17  8.872976E+05 -1.559137E+04  7.767961E+02  9.522463E+03 -2.329417E-10 -6.542904E-10
       149  18  9.206689E+05 -7.043717E+03  5.765648E+03  1.954320E+04 -8.996928E-10 -2.276693E-10
       149  19  1.042926E+06  2.901803E+04  4.522860E+04  2.067684E+04 -1.468785E+04  3.900830E+03
       149  20  1.009527E+06  1.444508E+04  2.885697E+04  1.065653E+04 -7.047432E+03  2.607091E+03
       149  21  9.789818E+05  7.315506E+03  1.931391E+04  1.736855E+04  5.926160E+02  1.082063E+03
       149  22  9.498197E+05  6.132857E+03  2.380737E+04  1.845534E+04 -1.553629E+04  3.900848E+03
       149  23  9.484107E+05 -5.730025E+02  1.481709E+04  1.008946E+04 -8.063526E+03  2.607006E+03
       149  24  9.498250E+05  1.359228E+02  1.253981E+04  1.845590E+04 -5.907458E+02  1.081902E+03
       149  25  8.567216E+05 -1.675290E+04  2.385576E+03  1.623418E+04 -1.638460E+04  3.900872E+03
       149  26  8.872976E+05 -1.559135E+04  7.769635E+02  9.522444E+03 -9.079521E+03  2.606923E+03
       149  27  9.206689E+05 -7.043715E+03  5.765656E+03  1.954320E+04 -1.774053E+03  1.081738E+03
       150   1  9.484740E+05 -3.107463E+02  1.230621E+04  1.965356E+04 -2.804889E+03 -1.131384E+02
       150   2  9.150148E+05 -8.813289E+03  8.112391E+03  9.475554E+03 -1.062161E+04  1.414133E+03
       150   3  8.845884E+05 -9.236327E+03  1.102120E+04  1.601491E+04 -1.843801E+04  2.744315E+03
       150   4  9.498771E+05  4.981374E+01  1.270938E+04  1.845260E+04 -1.632282E+03 -1.129655E+02
       150   5  9.483460E+05 -6.216259E+02  1.577302E+04  1.009360E+04 -9.591459E+03  1.414243E+03
       150   6  9.498716E+05  6.810992E+03  2.603789E+04  1.845183E+04 -1.755070E+04  2.744325E+03
       150   7  9.512802E+05  4.103798E+02  1.311256E+04  1.725163E+04 -4.596720E+02 -1.127971E+02
       150   8  9.816783E+05  7.569962E+03  2.343359E+04  1.071167E+04 -8.561248E+03  1.414355E+03
       150   9  1.015159E+06  2.285804E+04  4.105430E+04  2.088901E+04 -1.666330E+04  2.744341E+03
       150  10  9.484740E+05 -3.107484E+02  1.230620E+04  1.965356E+04  8.571916E-09  9.945992E-10
       150  11  9.150146E+05 -8.813322E+03  8.112175E+03  9.475566E+03 -2.743221E-10  1.179504E-09
       150  12  8.845880E+05 -9.236427E+03  1.102055E+04  1.601495E+04 -7.658506E-09  2.856648E-10
       150  13  9.498771E+05  4.981302E+01  1.270938E+04  1.845260E+04 -2.606241E-10  6.045903E-10
       150  14  9.483459E+05 -6.216527E+02  1.577285E+04  1.009361E+04  4.472721E-10  9.422143E-10
       150  15  9.498712E+05  6.810901E+03  2.603729E+04  1.845187E+04  1.459225E-10  2.792759E-10
       150  16  9.512802E+05  4.103797E+02  1.311256E+04  1.725163E+04 -8.193399E-09  2.797723E-10
       150  17  9.816782E+05  7.569940E+03  2.343345E+04  1.071168E+04 -5.200011E-10  7.011676E-10
       150  18  1.015158E+06  2.285795E+04  4.105376E+04  2.088905E+04  7.523526E-09  1.747085E-10
       150  19  9.484740E+05 -3.107463E+02  1.230621E+04  1.965356E+04  2.804889E+03  1.131384E+02
       150  20  9.150148E+05 -8.813289E+03  8.112391E+03  9.475554E+03  1.062161E+04 -1.414133E+03
       150  21  8.845884E+05 -9.236327E+03  1.102120E+04  1.601491E+04  1.843801E+04 -2.744315E+03
       150  22  9.498771E+05  4.981374E+01  1.270938E+04  1.845260E+04  1.632282E+03  1.129655E+02
       150  23  9.483460E+05 -6.216259E+02  1.577302E+04  1.009360E+04  9.591459E+03 -1.414243E+03
       150  24  9.498716E+05  6.810992E+03  2.603789E+04  1.845183E+04  1.755070E+04 -2.744325E+03
       150  25  9.512802E+05  4.103798E+02  1.311256E+04  1.725163E+04  4.596720E+02  1.127971E+02
       150  26  9.816783E+05  7.569962E+03  2.343359E+04  1.071167E+04  8.561248E+03 -1.414355E+03
       150  27  1.015159E+06  2.285804E+04  4.105430E+04  2.088901E+04  1.666330E+04 -2.744341E+03
       151   1  8.595168E+05 -2.856460E+04  9.514141E+03  3.189038E+04 -2.448556E+04  4.161157E+03
       151   2  8.134514E+05 -3.777376E+04  2.127837E+04 -1.937558E+03 -4.856592E+04  5.088692E+03
       151   3  7.951569E+05  5.155272E+04  7.334360E+04 -1.909786E+04 -7.264473E+04  1.770915E+03
       151   4  9.554872E+05 -4.989768E+03  3.152974E+04  1.844146E+04 -2.228899E+04  4.161851E+03
       151   5  9.413179E+05 -6.314516E+03  5.082776E+04  1.010774E+04 -4.943531E+04  5.087649E+03
       151   6  9.554414E+05  9.141433E+04  1.125469E+05  1.844084E+04 -7.658147E+04  1.766548E+03
       151   7  1.051467E+06  1.858511E+04  5.354485E+04  4.990456E+03 -2.009207E+04  4.162450E+03
       151   8  1.069200E+06  2.514413E+04  8.037614E+04  2.215553E+04 -5.030488E+04  5.086573E+03
       151   9  1.115752E+06  1.312793E+05  1.517491E+05  5.598923E+04 -8.051922E+04  1.761707E+03
       151  10  8.595162E+05 -2.856478E+04  9.512983E+03  3.189046E+04 -1.307766E-09 -2.822467E-10
       151  11  8.134489E+05 -3.777442E+04  2.127390E+04 -1.937359E+03 -4.507155E-10 -4.236020E-10
       151  12  7.951512E+05  5.155130E+04  7.333369E+04 -1.909775E+04 -9.305886E-10 -1.692624E-10
       151  13  9.554867E+05 -4.989920E+03  3.152877E+04  1.844154E+04 -6.062581E-10 -3.317080E-10
       151  14  9.413153E+05 -6.315199E+03  5.082313E+04  1.010794E+04  3.036224E-10 -4.117804E-10
       151  15  9.554351E+05  9.141276E+04  1.125359E+05  1.844095E+04  3.023355E-10 -1.750908E-10
       151  16  1.051466E+06  1.858498E+04  5.354406E+04  4.990523E+03  1.533021E-09 -1.463229E-10
       151  17  1.069197E+06  2.514342E+04  8.037134E+04  2.215573E+04  6.474201E-10 -4.206122E-10
       151  18  1.115745E+06  1.312776E+05  1.517370E+05  5.598935E+04  8.764077E-10 -1.282130E-10
       151  19  8.595168E+05 -2.856460E+04  9.514141E+03  3.189038E+04  2.448556E+04 -4.161157E+03
       151  20  8.134514E+05 -3.777376E+04  2.127837E+04 -1.937558E+03  4.856592E+04 -5.088692E+03
       151  21  7.951569E+05  5.155272E+04  7.334360E+04 -1.909786E+04  7.264473E+04 -1.770915E+03
       151  22  9.554872E+05 -4.989768E+03  3.152974E+04  1.844146E+04  2.228899E+04 -4.161851E+03
       151  23  9.413179E+05 -6.314516E+03  5.082776E+04  1.010774E+04  4.943531E+04 -5.087649E+03
       151  24  9.554414E+05  9.141433E+04  1.125469E+05  1.844084E+04  7.658147E+04 -1.766548E+03
       151  25  1.051467E+06  1.858511E+04  5.354485E+04  4.990456E+03  2.009207E+04 -4.162450E+03
       151  26  1.069200E+06  2.514413E+04  8.037614E+04  2.215553E+04  5.030488E+04 -5.086573E+03
       151  27  1.115752E+06  1.312793E+05  1.517491E+05  5.598923E+04  8.051922E+04 -1.761707E+03
       152   1 -2.624623E+05 -9.216220E+05 -3.010828E+05  1.168882E+05 -4.064095E+03 -1.479944E+05
       152   2 -5.877494E+04 -8.124344E+05 -1.645038E+05  4.792997E+04 -1.144380E+04 -8.862151E+04
       152   3 -4.209228E+04 -7.577378E+05 -1.133652E+05  2.149980E+04 -8.923639E+03 -2.924278E+04
       152   4 -1.704700E+05 -5.522892E+05 -2.105548E+05  4.680250E+04 -4.045026E+03 -1.391548E+05
       152   5  1.188721E+04 -5.256439E+05 -9.810061E+04  2.550904E+04 -1.143961E+04 -8.687931E+04
       152   6  8.514672E+03 -5.522350E+05 -6.612086E+04  4.675202E+04 -8.927235E+03 -3.460646E+04
       152   7 -7.846918E+04 -1.828212E+05 -1.200339E+05 -2.332508E+04 -4.027965E+03 -1.303099E+05
       152   8  8.254548E+04 -2.387761E+05 -3.170260E+04  3.077653E+03 -1.143555E+04 -8.513630E+04
       152   9  5.912108E+04 -3.466916E+05 -1.887889E+04  7.201267E+04 -8.931266E+03 -3.997191E+04
       152  10 -2.624682E+05 -9.216456E+05 -3.011240E+05  1.168878E+05  1.000490E-10 -3.021098E-10
       152  11 -5.877719E+04 -8.124429E+05 -1.645189E+05  4.792916E+04  6.840342E-10  4.985602E-10
       152  12 -4.209260E+04 -7.577387E+05 -1.133669E+05  2.149959E+04 -4.840899E-11  4.263050E-10
       152  13 -1.704752E+05 -5.523100E+05 -2.105912E+05  4.680205E+04  3.652528E-10 -1.895395E-12
       152  14  1.188505E+04 -5.256520E+05 -9.811505E+04  2.550824E+04 -1.368430E-09  3.363068E-10
       152  15  8.514265E+03 -5.522363E+05 -6.612326E+04  4.675177E+04  6.724558E-11  5.131141E-10
       152  16 -7.847376E+04 -1.828395E+05 -1.200658E+05 -2.332550E+04 -7.395107E-10  3.730352E-10
       152  17  8.254339E+04 -2.387840E+05 -3.171647E+04  3.076869E+03 -1.008566E-09 -2.063588E-10
       152  18  5.912057E+04 -3.466934E+05 -1.888205E+04  7.201238E+04 -1.104572E-10 -2.607394E-10
       152  19 -2.624623E+05 -9.216220E+05 -3.010828E+05  1.168882E+05  4.064095E+03  1.479944E+05
       152  20 -5.877494E+04 -8.124344E+05 -1.645038E+05  4.792997E+04  1.144380E+04  8.862151E+04
       152  21 -4.209228E+04 -7.577378E+05 -1.133652E+05  2.149980E+04  8.923639E+03  2.924278E+04
       152  22 -1.704700E+05 -5.522892E+05 -2.105548E+05  4.680250E+04  4.045026E+03  1.391548E+05
       152  23  1.188721E+04 -5.256439E+05 -9.810061E+04  2.550904E+04  1.143961E+04  8.687931E+04
       152  24  8.514672E+03 -5.522350E+05 -6.612086E+04  4.675202E+04  8.927235E+03  3.460646E+04
       152  25 -7.846918E+04 -1.828212E+05 -1.200339E+05 -2.332508E+04  4.027965E+03  1.303099E+05
       152  26  8.254548E+04 -2.387761E+05 -3.170260E+04  3.077653E+03  1.143555E+04  8.513630E+04
       152  27  5.912108E+04 -3.466916E+05 -1.887889E+04  7.201267E+04  8.931266E+03  3.997191E+04
       153   1 -4.323969E+04 -6.694892E+05 -8.757196E+04  5.326849E+04 -5.359320E+03 -2.186803E+04
       153   2 -8.921922E+03 -5.824123E+05 -5.701826E+04  2.539379E+04 -1.920799E+03  1.844461E+03
       153   3 -2.480946E+03 -5.054383E+05 -4.889284E+04  4.048934E+04  1.626297E+03  2.555970E+04
       153   4 -1.201797E+04 -5.426508E+05 -5.834784E+04  4.686593E+04 -5.360299E+03 -2.429625E+04
       153   5  2.107414E+03 -5.376022E+05 -4.670931E+04  2.538045E+04 -1.922117E+03 -6.593069E+02
       153   6 -1.162915E+04 -5.426487E+05 -5.744408E+04  4.686588E+04  1.625105E+03  2.297733E+04
       153   7  1.920278E+04 -4.157975E+05 -2.912474E+04  4.046204E+04 -5.361228E+03 -2.672497E+04
       153   8  1.313661E+04 -4.927903E+05 -3.640048E+04  2.536711E+04 -1.923434E+03 -3.163254E+03
       153   9 -2.077730E+04 -5.798578E+05 -6.599537E+04  5.324204E+04  1.623860E+03  2.039512E+04
       153  10 -4.323985E+04 -6.694897E+05 -8.757291E+04  5.326839E+04 -2.645369E-10 -5.545060E-10
       153  11 -8.921927E+03 -5.824123E+05 -5.701828E+04  2.539379E+04 -8.212964E-10  5.021707E-10
       153  12 -2.481124E+03 -5.054390E+05 -4.889407E+04  4.048931E+04 -1.575404E-10  4.680995E-10
       153  13 -1.201816E+04 -5.426515E+05 -5.834900E+04  4.686582E+04  4.923856E-12  5.206487E-11
       153  14  2.107410E+03 -5.376022E+05 -4.670932E+04  2.538045E+04 -1.411258E-09  5.738376E-10
       153  15 -1.162930E+04 -5.426493E+05 -5.744508E+04  4.686585E+04 -2.995159E-10  6.414008E-10
       153  16  1.920256E+04 -4.157982E+05 -2.912613E+04  4.046193E+04  4.533161E-10  7.852570E-10
       153  17  1.313661E+04 -4.927903E+05 -3.640050E+04  2.536711E+04  2.253546E-10  8.193233E-11
       153  18 -2.077741E+04 -5.798582E+05 -6.599615E+04  5.324201E+04  3.926790E-10 -2.062263E-10
       153  19 -4.323969E+04 -6.694892E+05 -8.757196E+04  5.326849E+04  5.359320E+03  2.186803E+04
       153  20 -8.921922E+03 -5.824123E+05 -5.701826E+04  2.539379E+04  1.920799E+03 -1.844461E+03
       153  21 -2.480946E+03 -5.054383E+05 -4.889284E+04  4.048934E+04 -1.626297E+03 -2.555970E+04
       153  22 -1.201797E+04 -5.426508E+05 -5.834784E+04  4.686593E+04  5.360299E+03  2.429625E+04
       153  23  2.107414E+03 -5.376022E+05 -4.670931E+04  2.538045E+04  1.922117E+03  6.593069E+02
       153  24 -1.162915E+04 -5.426487E+05 -5.744408E+04  4.686588E+04 -1.625105E+03 -2.297733E+04
       153  25  1.920278E+04 -4.157975E+05 -2.912474E+04  4.046204E+04  5.361228E+03  2.672497E+04
       153  26  1.313661E+04 -4.927903E+05 -3.640048E+04  2.536711E+04  1.923434E+03  3.163254E+03
       153  27 -2.077730E+04 -5.798578E+05 -6.599537E+04  5.324204E+04 -1.623860E+03 -2.039512E+04
       154   1  3.679777E+04 -4.359996E+05 -3.812217E+04  7.130734E+04  4.957125E+03  3.792887E+04
       154   2  6.021050E+04 -3.285679E+05 -4.983415E+04  3.660334E+03  7.799426E+03  8.330339E+04
       154   3 -9.591989E+04 -2.719384E+05 -1.359779E+05 -2.129632E+04  2.908089E+03  1.286873E+05
       154   4  8.233458E+03 -5.519103E+05 -6.480968E+04  4.678252E+04  4.953056E+03  3.311053E+04
       154   5  1.157195E+04 -5.260354E+05 -9.558180E+04  2.546955E+04  7.802859E+03  8.403184E+04
       154   6 -1.656366E+05 -5.519596E+05 -2.046601E+05  4.685074E+04  2.924707E+03  1.349561E+05
       154   7 -2.032953E+04 -6.678073E+05 -9.149767E+04  2.226232E+04  4.949368E+03  2.829308E+04
       154   8 -3.706756E+04 -7.234658E+05 -1.413318E+05  4.727177E+04  7.806344E+03  8.476006E+04
       154   9 -2.353417E+05 -8.318992E+05 -2.733453E+05  1.149670E+05  2.942708E+03  1.412221E+05
       154  10  3.679736E+04 -4.360011E+05 -3.812492E+04  7.130719E+04 -1.453816E-10 -2.346840E-11
       154  11  6.020857E+04 -3.285754E+05 -4.984731E+04  3.659811E+03  7.156584E-10  6.394970E-10
       154  12 -9.592435E+04 -2.719562E+05 -1.360091E+05 -2.129662E+04  2.093623E-10  2.379370E-10
       154  13  8.233137E+03 -5.519115E+05 -6.481179E+04  4.678239E+04  1.133844E-10  2.098213E-11
       154  14  1.156998E+04 -5.260430E+05 -9.559519E+04  2.546902E+04  1.363242E-10  4.856881E-10
       154  15 -1.656415E+05 -5.519792E+05 -2.046944E+05  4.685042E+04 -1.962838E-10  2.464255E-10
       154  16 -2.032977E+04 -6.678081E+05 -9.149923E+04  2.226221E+04  1.492039E-10  3.667337E-10
       154  17 -3.706955E+04 -7.234736E+05 -1.413454E+05  4.727123E+04  7.809140E-10 -2.132981E-10
       154  18 -2.353471E+05 -8.319207E+05 -2.733829E+05  1.149666E+05  1.573325E-10 -4.089474E-12
       154  19  3.679777E+04 -4.359996E+05 -3.812217E+04  7.130734E+04 -4.957125E+03 -3.792887E+04
       154  20  6.021050E+04 -3.285679E+05 -4.983415E+04  3.660334E+03 -7.799426E+03 -8.330339E+04
       154  21 -9.591989E+04 -2.719384E+05 -1.359779E+05 -2.129632E+04 -2.908089E+03 -1.286873E+05
       154  22  8.233458E+03 -5.519103E+05 -6.480968E+04  4.678252E+04 -4.953056E+03 -3.311053E+04
       154  23  1.157195E+04 -5.260354E+05 -9.558180E+04  2.546955E+04 -7.802859E+03 -8.403184E+04
       154  24 -1.656366E+05 -5.519596E+05 -2.046601E+05  4.685074E+04 -2.924707E+03 -1.349561E+05
       154  25 -2.032953E+04 -6.678073E+05 -9.149767E+04  2.226232E+04 -4.949368E+03 -2.829308E+04
       154  26 -3.706756E+04 -7.234658E+05 -1.413318E+05  4.727177E+04 -7.806344E+03 -8.476006E+04
       154  27 -2.353417E+05 -8.318992E+05 -2.733453E+05  1.149670E+05 -2.942708E+03 -1.412221E+05
       155   1  5.267140E+05  3.580263E+05  7.259877E+04  3.788420E+05  4.804838E+04  3.717611E+04
       155   2  5.153183E+05  2.902581E+05  2.524472E+04  4.097928E+05  3.049233E+04  2.632894E+04
       155   3  5.521647E+05  2.776099E+05  1.139971E+04  4.116692E+05  1.413937E+04  1.387608E+04
       155   4  6.134039E+05  3.693947E+05  9.178243E+04  3.985809E+05  4.970301E+04  3.841296E+04
       155   5  5.750118E+05  3.165304E+05  4.117615E+04  4.320103E+05  3.098587E+04  2.669815E+04
       155   6  5.851086E+05  3.190319E+05  2.508142E+04  4.363664E+05  1.347281E+04  1.337677E+04
       155   7  7.001034E+05  3.807641E+05  1.109662E+05  4.183209E+05  5.135797E+04  3.964981E+04
       155   8  6.347096E+05  3.428033E+05  5.710739E+04  4.542298E+05  3.147947E+04  2.706738E+04
       155   9  6.180540E+05  3.604566E+05  3.876307E+04  4.610658E+05  1.280620E+04  1.287739E+04
       155  10  5.267112E+05  3.580242E+05  7.259184E+04  3.788406E+05 -2.188378E-10 -6.738528E-11
       155  11  5.153171E+05  2.902571E+05  2.524168E+04  4.097922E+05 -1.010851E-10 -3.961859E-11
       155  12  5.521644E+05  2.776097E+05  1.139898E+04  4.116690E+05  8.884297E-11 -1.740552E-10
       155  13  6.134008E+05  3.693925E+05  9.177503E+04  3.985794E+05 -6.773942E-10 -7.631539E-12
       155  14  5.750106E+05  3.165294E+05  4.117301E+04  4.320096E+05 -1.622900E-10  8.295080E-11
       155  15  5.851083E+05  3.190316E+05  2.508074E+04  4.363663E+05 -2.247937E-10  7.229523E-11
       155  16  7.001002E+05  3.807617E+05  1.109583E+05  4.183193E+05  2.508282E-10  7.876183E-11
       155  17  6.347083E+05  3.428023E+05  5.710415E+04  4.542291E+05  2.539658E-10  2.089315E-10
       155  18  6.180538E+05  3.604564E+05  3.876245E+04  4.610656E+05 -2.353082E-11  2.202140E-10
       155  19  5.267140E+05  3.580263E+05  7.259877E+04  3.788420E+05 -4.804838E+04 -3.717611E+04
       155  20  5.153183E+05  2.902581E+05  2.524472E+04  4.097928E+05 -3.049233E+04 -2.632894E+04
       155  21  5.521647E+05  2.776099E+05  1.139971E+04  4.116692E+05 -1.413937E+04 -1.387608E+04
       155  22  6.134039E+05  3.693947E+05  9.178243E+04  3.985809E+05 -4.970301E+04 -3.841296E+04
       155  23  5.750118E+05  3.165304E+05  4.117615E+04  4.320103E+05 -3.098587E+04 -2.669815E+04
       155  24  5.851086E+05  3.190319E+05  2.508142E+04  4.363664E+05 -1.347281E+04 -1.337677E+04
       155  25  7.001034E+05  3.807641E+05  1.109662E+05  4.183209E+05 -5.135797E+04 -3.964981E+04
       155  26  6.347096E+05  3.428033E+05  5.710739E+04  4.542298E+05 -3.147947E+04 -2.706738E+04
       155  27  6.180540E+05  3.604566E+05  3.876307E+04  4.610658E+05 -1.280620E+04 -1.287739E+04
       156   1  5.468330E+05  2.991549E+05  8.691060E+03  4.116811E+05  1.096045E+04  1.086406E+04
       156   2  5.497175E+05  3.006472E+05  1.780347E+03  4.176757E+05  6.654065E+03  7.205941E+03
       156   3  5.609638E+05  3.022813E+05  9.194869E+01  4.204239E+05  2.406161E+03  3.469823E+03
       156   4  5.856327E+05  3.235591E+05  2.036866E+04  4.295080E+05  1.079096E+04  1.073692E+04
       156   5  5.803916E+05  3.216046E+05  1.129992E+04  4.325404E+05  6.427966E+03  7.036428E+03
       156   6  5.835243E+05  3.198039E+05  7.502267E+03  4.323265E+05  2.123519E+03  3.257953E+03
       156   7  6.244336E+05  3.479638E+05  3.204599E+04  4.473359E+05  1.062145E+04  1.060977E+04
       156   8  6.110665E+05  3.425624E+05  2.081933E+04  4.474059E+05  6.201853E+03  6.866905E+03
       156   9  6.060853E+05  3.373269E+05  1.491252E+04  4.442295E+05  1.840863E+03  3.046072E+03
       156  10  5.468329E+05  2.991547E+05  8.690613E+03  4.116810E+05 -3.181459E-10 -2.054347E-10
       156  11  5.497174E+05  3.006471E+05  1.780167E+03  4.176757E+05  4.591444E-10  1.278438E-11
       156  12  5.609638E+05  3.022813E+05  9.191523E+01  4.204239E+05 -8.055493E-11  8.283445E-11
       156  13  5.856325E+05  3.235590E+05  2.036822E+04  4.295079E+05  3.102246E-10  1.703783E-11
       156  14  5.803915E+05  3.216045E+05  1.129975E+04  4.325404E+05  1.365600E-09  8.132315E-11
       156  15  5.835243E+05  3.198039E+05  7.502239E+03  4.323265E+05  9.969684E-10 -6.460662E-11
       156  16  6.244335E+05  3.479637E+05  3.204557E+04  4.473358E+05  2.662544E-10  2.322474E-10
       156  17  6.110664E+05  3.425623E+05  2.081917E+04  4.474058E+05  9.418383E-10  1.153860E-10
       156  18  6.060853E+05  3.373269E+05  1.491249E+04  4.442295E+05  6.301749E-10 -1.150742E-10
       156  19  5.468330E+05  2.991549E+05  8.691060E+03  4.116811E+05 -1.096045E+04 -1.086406E+04
       156  20  5.497175E+05  3.006472E+05  1.780347E+03  4.176757E+05 -6.654065E+03 -7.205941E+03
       156  21  5.609638E+05  3.022813E+05  9.194869E+01  4.204239E+05 -2.406161E+03 -3.469823E+03
       156  22  5.856327E+05  3.235591E+05  2.036866E+04  4.295080E+05 -1.079096E+04 -1.073692E+04
       156  23  5.803916E+05  3.216046E+05  1.129992E+04  4.325404E+05 -6.427966E+03 -7.036428E+03
       156  24  5.835243E+05  3.198039E+05  7.502267E+03  4.323265E+05 -2.123519E+03 -3.257953E+03
       156  25  6.244336E+05  3.479638E+05  3.204599E+04  4.473359E+05 -1.062145E+04 -1.060977E+04
       156  26  6.110665E+05  3.425624E+05  2.081933E+04  4.474059E+05 -6.201853E+03 -6.866905E+03
       156  27  6.060853E+05  3.373269E+05  1.491252E+04  4.442295E+05 -1.840863E+03 -3.046072E+03
       157   1  5.663749E+05  3.081804E+05  1.200870E+03  4.234289E+05  1.554694E+03  2.485116E+03
       157   2  5.705410E+05  3.147069E+05  2.525540E+03  4.274855E+05 -4.707913E+02  4.057744E+02
       157   3  5.801202E+05  3.174852E+05  5.973734E+03  4.299942E+05 -2.495642E+03 -1.674537E+03
       157   4  5.835177E+05  3.200961E+05  6.532744E+03  4.318346E+05  1.296184E+03  2.291332E+03
       157   5  5.808250E+05  3.219948E+05  5.763921E+03  4.325901E+05 -7.300421E+02  2.114390E+02
       157   6  5.835454E+05  3.201454E+05  7.119200E+03  4.317977E+05 -2.755584E+03 -1.869386E+03
       157   7  6.006610E+05  3.320121E+05  1.186463E+04  4.402407E+05  1.037663E+03  2.097540E+03
       157   8  5.911091E+05  3.292828E+05  9.002289E+03  4.376949E+05 -9.892988E+02  1.709930E+01
       157   9  5.869705E+05  3.228056E+05  8.264655E+03  4.336012E+05 -3.015525E+03 -2.064235E+03
       157  10  5.663749E+05  3.081804E+05  1.200854E+03  4.234289E+05  8.926262E-11 -7.317541E-12
       157  11  5.705410E+05  3.147069E+05  2.525539E+03  4.274855E+05  3.886632E-10 -2.253747E-10
       157  12  5.801202E+05  3.174852E+05  5.973717E+03  4.299942E+05  1.076160E-10 -2.663928E-10
       157  13  5.835177E+05  3.200961E+05  6.532731E+03  4.318346E+05  1.087468E-10 -2.432553E-10
       157  14  5.808250E+05  3.219948E+05  5.763920E+03  4.325901E+05  3.550142E-10 -3.520194E-10
       157  15  5.835453E+05  3.201454E+05  7.119179E+03  4.317977E+05  6.472096E-10 -2.852709E-10
       157  16  6.006610E+05  3.320121E+05  1.186462E+04  4.402407E+05 -1.707284E-10 -2.510204E-10
       157  17  5.911091E+05  3.292828E+05  9.002287E+03  4.376949E+05  6.469780E-10 -4.445090E-10
       157  18  5.869705E+05  3.228056E+05  8.264630E+03  4.336012E+05 -8.281480E-10 -2.710402E-10
       157  19  5.663749E+05  3.081804E+05  1.200870E+03  4.234289E+05 -1.554694E+03 -2.485116E+03
       157  20  5.705410E+05  3.147069E+05  2.525540E+03  4.274855E+05  4.707913E+02 -4.057744E+02
       157  21  5.801202E+05  3.174852E+05  5.973734E+03  4.299942E+05  2.495642E+03  1.674537E+03
       157  22  5.835177E+05  3.200961E+05  6.532744E+03  4.318346E+05 -1.296184E+03 -2.291332E+03
       157  23  5.808250E+05  3.219948E+05  5.763921E+03  4.325901E+05  7.300421E+02 -2.114390E+02
       157  24  5.835454E+05  3.201454E+05  7.119200E+03  4.317977E+05  2.755584E+03  1.869386E+03
       157  25  6.006610E+05  3.320121E+05  1.186463E+04  4.402407E+05 -1.037663E+03 -2.097540E+03
       157  26  5.911091E+05  3.292828E+05  9.002289E+03  4.376949E+05  9.892988E+02 -1.709930E+01
       157  27  5.869705E+05  3.228056E+05  8.264655E+03  4.336012E+05  3.015525E+03  2.064235E+03
       158   1  5.853645E+05  3.228933E+05  9.338382E+03  4.341296E+05 -3.415662E+03 -2.704718E+03
       158   2  5.904326E+05  3.277484E+05  1.612323E+04  4.371215E+05 -8.486551E+03 -7.060869E+03
       158   3  6.045112E+05  3.336552E+05  2.908520E+04  4.365283E+05 -1.359606E+04 -1.136581E+04
       158   4  5.835522E+05  3.198025E+05  8.410562E+03  4.324005E+05 -3.690303E+03 -2.910574E+03
       158   5  5.802992E+05  3.215041E+05  1.310221E+04  4.325244E+05 -8.724085E+03 -7.238937E+03
       158   6  5.860485E+05  3.242493E+05  2.393894E+04  4.290632E+05 -1.379640E+04 -1.151607E+04
       158   7  5.817398E+05  3.167118E+05  7.482741E+03  4.306714E+05 -3.964942E+03 -3.116427E+03
       158   8  5.701658E+05  3.152597E+05  1.008116E+04  4.279274E+05 -8.961615E+03 -7.417002E+03
       158   9  5.675862E+05  3.148434E+05  1.879260E+04  4.215982E+05 -1.399675E+04 -1.166633E+04
       158  10  5.853645E+05  3.228932E+05  9.338347E+03  4.341296E+05 -2.171424E-10 -1.660291E-10
       158  11  5.904325E+05  3.277483E+05  1.612300E+04  4.371215E+05  8.208901E-10  1.876656E-10
       158  12  6.045109E+05  3.336550E+05  2.908461E+04  4.365282E+05  1.149501E-09  2.432030E-10
       158  13  5.835522E+05  3.198025E+05  8.410520E+03  4.324005E+05  3.737057E-10 -5.142474E-11
       158  14  5.802991E+05  3.215040E+05  1.310197E+04  4.325244E+05  2.319075E-10  2.370878E-10
       158  15  5.860483E+05  3.242491E+05  2.393833E+04  4.290630E+05  8.952918E-10 -4.880821E-11
       158  16  5.817398E+05  3.167118E+05  7.482693E+03  4.306714E+05 -2.562209E-10 -5.394629E-11
       158  17  5.701657E+05  3.152597E+05  1.008091E+04  4.279274E+05  3.328912E-10 -2.650368E-11
       158  18  5.675859E+05  3.148432E+05  1.879198E+04  4.215981E+05 -1.220036E-10 -1.337402E-10
       158  19  5.853645E+05  3.228933E+05  9.338382E+03  4.341296E+05  3.415662E+03  2.704718E+03
       158  20  5.904326E+05  3.277484E+05  1.612323E+04  4.371215E+05  8.486551E+03  7.060869E+03
       158  21  6.045112E+05  3.336552E+05  2.908520E+04  4.365283E+05  1.359606E+04  1.136581E+04
       158  22  5.835522E+05  3.198025E+05  8.410562E+03  4.324005E+05  3.690303E+03  2.910574E+03
       158  23  5.802992E+05  3.215041E+05  1.310221E+04  4.325244E+05  8.724085E+03  7.238937E+03
       158  24  5.860485E+05  3.242493E+05  2.393894E+04  4.290632E+05  1.379640E+04  1.151607E+04
       158  25  5.817398E+05  3.167118E+05  7.482741E+03  4.306714E+05  3.964942E+03  3.116427E+03
       158  26  5.701658E+05  3.152597E+05  1.008116E+04  4.279274E+05  8.961615E+03  7.417002E+03
       158  27  5.675862E+05  3.148434E+05  1.879260E+04  4.215982E+05  1.399675E+04  1.166633E+04
       159   1  5.957140E+05  3.475334E+05  3.671548E+04  4.521321E+05 -1.653000E+04 -1.408970E+04
       159   2  6.145492E+05  3.252905E+05  5.798200E+04  4.432811E+05 -3.793229E+04 -3.045033E+04
       159   3  6.899844E+05  3.695579E+05  1.206919E+05  4.003133E+05 -6.012277E+04 -4.575935E+04
       159   4  5.854305E+05  3.188982E+05  2.954975E+04  4.371745E+05 -1.705505E+04 -1.448272E+04
       159   5  5.739369E+05  3.155002E+05  4.863585E+04  4.318963E+05 -3.769856E+04 -3.027626E+04
       159   6  6.188792E+05  3.784497E+05  1.085098E+05  3.925015E+05 -5.912874E+04 -4.501966E+04
       159   7  5.751474E+05  2.902647E+05  2.238410E+04  4.222175E+05 -1.758008E+04 -1.487569E+04
       159   8  5.333267E+05  3.057101E+05  3.928970E+04  4.205119E+05 -3.746485E+04 -3.010219E+04
       159   9  5.477818E+05  3.873436E+05  9.632830E+04  3.846889E+05 -5.813487E+04 -4.427992E+04
       159  10  5.957137E+05  3.475332E+05  3.671460E+04  4.521319E+05  5.411364E-10 -1.023928E-10
       159  11  6.145474E+05  3.252892E+05  5.797756E+04  4.432802E+05  2.993221E-10  2.751608E-11
       159  12  6.899800E+05  3.695547E+05  1.206812E+05  4.003111E+05  3.158355E-10  1.003593E-10
       159  13  5.854301E+05  3.188979E+05  2.954881E+04  4.371743E+05  2.686924E-10 -1.877554E-11
       159  14  5.739351E+05  3.154988E+05  4.863146E+04  4.318953E+05 -2.283372E-10  2.949909E-11
       159  15  6.188749E+05  3.784466E+05  1.084995E+05  3.924993E+05  5.902112E-10  5.539508E-11
       159  16  5.751471E+05  2.902644E+05  2.238310E+04  4.222173E+05 -2.247898E-10 -1.936737E-11
       159  17  5.333250E+05  3.057087E+05  3.928537E+04  4.205110E+05 -2.344211E-10  1.605293E-10
       159  18  5.477776E+05  3.873405E+05  9.631827E+04  3.846869E+05 -1.110476E-10  2.306494E-11
       159  19  5.957140E+05  3.475334E+05  3.671548E+04  4.521321E+05  1.653000E+04  1.408970E+04
       159  20  6.145492E+05  3.252905E+05  5.798200E+04  4.432811E+05  3.793229E+04  3.045033E+04
       159  21  6.899844E+05  3.695579E+05  1.206919E+05  4.003133E+05  6.012277E+04  4.575935E+04
       159  22  5.854305E+05  3.188982E+05  2.954975E+04  4.371745E+05  1.705505E+04  1.448272E+04
       159  23  5.739369E+05  3.155002E+05  4.863585E+04  4.318963E+05  3.769856E+04  3.027626E+04
       159  24  6.188792E+05  3.784497E+05  1.085098E+05  3.925015E+05  5.912874E+04  4.501966E+04
       159  25  5.751474E+05  2.902647E+05  2.238410E+04  4.222175E+05  1.758008E+04  1.487569E+04
       159  26  5.333267E+05  3.057101E+05  3.928970E+04  4.205119E+05  3.746485E+04  3.010219E+04
       159  27  5.477818E+05  3.873436E+05  9.632830E+04  3.846889E+05  5.813487E+04  4.427992E+04
       160   1  9.528263E+05  9.802711E+04  1.153347E+05  4.056094E+04  6.603051E+04 -9.700404E+02
       160   2  9.247993E+05  1.216067E+04  5.893795E+04  1.509564E+04  4.164798E+04 -2.826923E+03
       160   3  9.206970E+05  9.330626E+03  3.915780E+04 -2.042006E+03  1.726646E+04 -2.390394E+03
       160   4  8.657262E+05  7.636733E+04  9.403806E+04  9.194249E+03  6.386163E+04 -9.733012E+02
       160   5  8.539232E+05 -5.275609E+03  4.256215E+04  5.030056E+03  4.113405E+04 -2.827615E+03
       160   6  8.657600E+05 -4.165491E+03  2.655806E+04  9.192221E+03  1.840675E+04 -2.390071E+03
       160   7  7.786352E+05  5.471068E+04  7.274137E+04 -2.216804E+04  6.169307E+04 -9.763436E+02
       160   8  7.830519E+05 -2.271186E+04  2.618607E+04 -5.034372E+03  4.062017E+04 -2.828289E+03
       160   9  8.108260E+05 -1.766134E+04  1.395820E+04  2.042545E+04  1.954693E+04 -2.389706E+03
       160  10  9.528216E+05  9.802595E+04  1.153266E+05  4.056100E+04 -1.285629E-10 -9.849778E-12
       160  11  9.247974E+05  1.216019E+04  5.893468E+04  1.509574E+04 -1.038132E-10 -1.030542E-11
       160  12  9.206967E+05  9.330540E+03  3.915723E+04 -2.041973E+03  2.061382E-10  2.769544E-10
       160  13  8.657219E+05  7.636624E+04  9.403040E+04  9.194299E+03  2.412491E-10  7.318216E-11
       160  14  8.539213E+05 -5.276071E+03  4.255896E+04  5.030150E+03 -3.074698E-10  1.014552E-10
       160  15  8.657596E+05 -4.165588E+03  2.655741E+04  9.192256E+03  1.095935E-10  1.045904E-10
       160  16  7.786311E+05  5.470966E+04  7.273423E+04 -2.216800E+04 -4.835034E-11  2.456137E-11
       160  17  7.830501E+05 -2.271231E+04  2.618296E+04 -5.034280E+03 -8.539178E-10  1.263719E-10
       160  18  8.108256E+05 -1.766145E+04  1.395747E+04  2.042548E+04 -5.078997E-10 -7.576359E-11
       160  19  9.528263E+05  9.802711E+04  1.153347E+05  4.056094E+04 -6.603051E+04  9.700404E+02
       160  20  9.247993E+05  1.216067E+04  5.893795E+04  1.509564E+04 -4.164798E+04  2.826923E+03
       160  21  9.206970E+05  9.330626E+03  3.915780E+04 -2.042006E+03 -1.726646E+04  2.390394E+03
       160  22  8.657262E+05  7.636733E+04  9.403806E+04  9.194249E+03 -6.386163E+04  9.733012E+02
       160  23  8.539232E+05 -5.275609E+03  4.256215E+04  5.030056E+03 -4.113405E+04  2.827615E+03
       160  24  8.657600E+05 -4.165491E+03  2.655806E+04  9.192221E+03 -1.840675E+04  2.390071E+03
       160  25  7.786352E+05  5.471068E+04  7.274137E+04 -2.216804E+04 -6.169307E+04  9.763436E+02
       160  26  7.830519E+05 -2.271186E+04  2.618607E+04 -5.034372E+03 -4.062017E+04  2.828289E+03
       160  27  8.108260E+05 -1.766134E+04  1.395820E+04  2.042545E+04 -1.954693E+04  2.389706E+03
       161   1  9.006746E+05  1.541576E+04  3.115952E+04  1.125242E+04  1.396873E+04 -1.661561E+03
       161   2  8.834011E+05  5.274643E+03  1.914076E+04  5.543559E+03  6.975926E+03 -1.006202E+03
       161   3  8.687558E+05  2.012923E+03  1.338961E+04  8.189020E+03 -1.681399E+01 -2.437247E+02
       161   4  8.610814E+05  5.682879E+03  2.205017E+04  9.198806E+03  1.440218E+04 -1.661599E+03
       161   5  8.597758E+05 -5.316274E+02  1.371202E+04  5.021740E+03  7.486936E+03 -1.006190E+03
       161   6  8.610852E+05  1.200899E+02  1.158808E+04  9.199001E+03  5.715867E+02 -2.436929E+02
       161   7  8.214897E+05 -4.050097E+03  1.294071E+04  7.145321E+03  1.483560E+04 -1.661641E+03
       161   8  8.361511E+05 -6.337936E+03  8.283248E+03  4.499940E+03  7.997927E+03 -1.006178E+03
       161   9  8.534147E+05 -1.772743E+03  9.786541E+03  1.020897E+04  1.159980E+03 -2.436591E+02
       161  10  9.006743E+05  1.541571E+04  3.115915E+04  1.125244E+04 -3.405065E-10  1.504887E-10
       161  11  8.834010E+05  5.274629E+03  1.914067E+04  5.543565E+03 -4.312882E-10 -2.015277E-11
       161  12  8.687558E+05  2.012923E+03  1.338961E+04  8.189020E+03 -3.441347E-10  2.737173E-10
       161  13  8.610812E+05  5.682821E+03  2.204977E+04  9.198825E+03 -1.279335E-10  1.778705E-12
       161  14  8.597758E+05 -5.316435E+02  1.371192E+04  5.021746E+03 -3.500147E-10 -1.305756E-11
       161  15  8.610852E+05  1.200898E+02  1.158808E+04  9.199001E+03  3.305679E-10  1.302451E-10
       161  16  8.214895E+05 -4.050159E+03  1.294030E+04  7.145341E+03 -3.623647E-10 -1.838083E-10
       161  17  8.361510E+05 -6.337954E+03  8.283126E+03  4.499947E+03  7.659801E-10 -2.879896E-11
       161  18  8.534147E+05 -1.772744E+03  9.786539E+03  1.020897E+04  1.909038E-10  9.555478E-11
       161  19  9.006746E+05  1.541576E+04  3.115952E+04  1.125242E+04 -1.396873E+04  1.661561E+03
       161  20  8.834011E+05  5.274643E+03  1.914076E+04  5.543559E+03 -6.975926E+03  1.006202E+03
       161  21  8.687558E+05  2.012923E+03  1.338961E+04  8.189020E+03  1.681399E+01  2.437247E+02
       161  22  8.610814E+05  5.682879E+03  2.205017E+04  9.198806E+03 -1.440218E+04  1.661599E+03
       161  23  8.597758E+05 -5.316274E+02  1.371202E+04  5.021740E+03 -7.486936E+03  1.006190E+03
       161  24  8.610852E+05  1.200899E+02  1.158808E+04  9.199001E+03 -5.715867E+02  2.436929E+02
       161  25  8.214897E+05 -4.050097E+03  1.294071E+04  7.145321E+03 -1.483560E+04  1.661641E+03
       161  26  8.361511E+05 -6.337936E+03  8.283248E+03  4.499940E+03 -7.997927E+03  1.006178E+03
       161  27  8.534147E+05 -1.772743E+03  9.786541E+03  1.020897E+04 -1.159980E+03  2.436591E+02
       162   1  8.535363E+05 -1.829288E+03  9.952157E+03  1.030577E+04 -2.069870E+03  2.403389E+02
       162   2  8.361697E+05 -6.362504E+03  9.135495E+03  4.454070E+03 -9.332616E+03  1.002865E+03
       162   3  8.216107E+05 -3.440781E+03  1.490637E+04  6.956544E+03 -1.659518E+04  1.658428E+03
       162   4  8.611310E+05  4.489182E+01  1.173628E+04  9.198960E+03 -1.481514E+03  2.403744E+02
       162   5  8.597185E+05 -5.748517E+02  1.454683E+04  5.021794E+03 -8.821614E+03  1.002875E+03
       162   6  8.611266E+05  6.273569E+03  2.399836E+04  9.198739E+03 -1.616172E+04  1.658376E+03
       162   7  8.687257E+05  1.919073E+03  1.352039E+04  8.092135E+03 -8.931512E+02  2.404079E+02
       162   8  8.832678E+05  5.212763E+03  1.995813E+04  5.589540E+03 -8.310593E+03  1.002886E+03
       162   9  9.006439E+05  1.598783E+04  3.309025E+04  1.144108E+04 -1.572823E+04  1.658327E+03
       162  10  8.535363E+05 -1.829290E+03  9.952149E+03  1.030577E+04  7.521603E-10  3.059038E-10
       162  11  8.361696E+05 -6.362529E+03  9.135329E+03  4.454077E+03 -5.452168E-10 -1.855499E-10
       162  12  8.216104E+05 -3.440858E+03  1.490584E+04  6.956567E+03 -1.630435E-10 -1.305609E-10
       162  13  8.611310E+05  4.489117E+01  1.173627E+04  9.198961E+03 -5.134226E-10  1.028476E-10
       162  14  8.597184E+05 -5.748737E+02  1.454668E+04  5.021801E+03 -5.166695E-10 -2.147800E-10
       162  15  8.611263E+05  6.273496E+03  2.399786E+04  9.198760E+03 -6.965852E-10 -1.378428E-10
       162  16  8.687257E+05  1.919072E+03  1.352039E+04  8.092135E+03 -7.337697E-10  1.196595E-11
       162  17  8.832677E+05  5.212744E+03  1.995800E+04  5.589547E+03  1.452101E-10 -3.263291E-10
       162  18  9.006437E+05  1.598776E+04  3.308978E+04  1.144110E+04  2.257444E-10 -8.577338E-11
       162  19  8.535363E+05 -1.829288E+03  9.952157E+03  1.030577E+04  2.069870E+03 -2.403389E+02
       162  20  8.361697E+05 -6.362504E+03  9.135495E+03  4.454070E+03  9.332616E+03 -1.002865E+03
       162  21  8.216107E+05 -3.440781E+03  1.490637E+04  6.956544E+03  1.659518E+04 -1.658428E+03
       162  22  8.611310E+05  4.489182E+01  1.173628E+04  9.198960E+03  1.481514E+03 -2.403744E+02
       162  23  8.597185E+05 -5.748517E+02  1.454683E+04  5.021794E+03  8.821614E+03 -1.002875E+03
       162  24  8.611266E+05  6.273569E+03  2.399836E+04  9.198739E+03  1.616172E+04 -1.658376E+03
       162  25  8.687257E+05  1.919073E+03  1.352039E+04  8.092135E+03  8.931512E+02 -2.404079E+02
       162  26  8.832678E+05  5.212763E+03  1.995813E+04  5.589540E+03  8.310593E+03 -1.002886E+03
       162  27  9.006439E+05  1.598783E+04  3.309025E+04  1.144108E+04  1.572823E+04 -1.658327E+03
       163   1  8.114413E+05 -1.807637E+04  1.647349E+04  2.158881E+04 -2.166763E+04  2.386177E+03
       163   2  7.824531E+05 -2.323493E+04  3.047589E+04 -6.065318E+03 -4.502779E+04  2.825337E+03
       163   3  7.792487E+05  6.259342E+04  8.242246E+04 -2.539096E+04 -6.838686E+04  9.762954E+02
       163   4  8.662991E+05 -4.599330E+03  2.905589E+04  9.192552E+03 -2.052802E+04  2.386621E+03
       163   5  8.532480E+05 -5.817495E+03  4.683435E+04  5.029624E+03 -4.554104E+04  2.824516E+03
       163   6  8.662620E+05  8.423003E+04  1.037001E+05  9.194776E+03 -7.055362E+04  9.725602E+02
       163   7  9.211601E+05  8.878076E+03  4.163817E+04 -3.204813E+03 -1.938830E+04  2.387019E+03
       163   8  9.240478E+05  1.160005E+04  6.319255E+04  1.612584E+04 -4.605435E+04  2.823677E+03
       163   9  9.532848E+05  1.058706E+05  1.249778E+05  4.378537E+04 -7.272069E+04  9.685844E+02
       163  10  8.114408E+05 -1.807650E+04  1.647260E+04  2.158886E+04  4.477151E-10 -1.194219E-10
       163  11  7.824509E+05 -2.323548E+04  3.047207E+04 -6.065216E+03 -2.757552E-10 -2.270245E-10
       163  12  7.792437E+05  6.259217E+04  8.241368E+04 -2.539091E+04 -3.746611E-11 -1.091924E-10
       163  13  8.662987E+05 -4.599449E+03  2.905508E+04  9.192591E+03 -8.716289E-10 -1.252726E-10
       163  14  8.532458E+05 -5.818059E+03  4.683045E+04  5.029727E+03  2.677435E-10 -2.587353E-10
       163  15  8.662567E+05  8.422869E+04  1.036907E+05  9.194832E+03 -6.456966E-10 -7.479883E-11
       163  16  9.211597E+05  8.877969E+03  4.163745E+04 -3.204776E+03 -1.119963E-09 -7.084213E-11
       163  17  9.240455E+05  1.159948E+04  6.318856E+04  1.612594E+04 -6.292374E-10 -2.951470E-10
       163  18  9.532792E+05  1.058691E+05  1.249679E+05  4.378542E+04  3.110641E-10 -1.139355E-10
       163  19  8.114413E+05 -1.807637E+04  1.647349E+04  2.158881E+04  2.166763E+04 -2.386177E+03
       163  20  7.824531E+05 -2.323493E+04  3.047589E+04 -6.065318E+03  4.502779E+04 -2.825337E+03
       163  21  7.792487E+05  6.259342E+04  8.242246E+04 -2.539096E+04  6.838686E+04 -9.762954E+02
       163  22  8.662991E+05 -4.599330E+03  2.905589E+04  9.192552E+03  2.052802E+04 -2.386621E+03
       163  23  8.532480E+05 -5.817495E+03  4.683435E+04  5.029624E+03  4.554104E+04 -2.824516E+03
       163  24  8.662620E+05  8.423003E+04  1.037001E+05  9.194776E+03  7.055362E+04 -9.725602E+02
       163  25  9.211601E+05  8.878076E+03  4.163817E+04 -3.204813E+03  1.938830E+04 -2.387019E+03
       163  26  9.240478E+05  1.160005E+04  6.319255E+04  1.612584E+04  4.605435E+04 -2.823677E+03
       163  27  9.532848E+05  1.058706E+05  1.249778E+05  4.378537E+04  7.272069E+04 -9.685844E+02
       164   1 -1.483618E+05 -4.002517E+05 -1.737361E+05  6.132600E+04 -1.713912E+03 -9.409982E+04
       164   2 -2.278886E+04 -3.550719E+05 -9.225074E+04  2.322139E+04 -4.960033E+03 -5.733446E+04
       164   3 -1.821459E+04 -3.449319E+05 -6.495867E+04 -5.583267E+02 -4.210398E+03 -2.056751E+04
       164   4 -1.105887E+05 -2.485253E+05 -1.365869E+05  1.581010E+04 -1.706577E+03 -9.033182E+04
       164   5  7.706728E+03 -2.312508E+05 -6.360567E+04  8.638915E+03 -4.958478E+03 -5.643697E+04
       164   6  5.512039E+03 -2.485120E+05 -4.281530E+04  1.579536E+04 -4.211311E+03 -2.254236E+04
       164   7 -7.280938E+04 -9.677338E+04 -9.943823E+04 -2.971696E+04 -1.699797E+03 -8.656289E+04
       164   8  3.820204E+04 -1.074151E+05 -3.496151E+04 -5.946496E+03 -4.956966E+03 -5.553929E+04
       164   9  2.923903E+04 -1.520830E+05 -2.067238E+04  3.215160E+04 -4.212329E+03 -2.451752E+04
       164  10 -1.483642E+05 -4.002612E+05 -1.737528E+05  6.132587E+04  2.498144E-10 -5.803161E-10
       164  11 -2.278977E+04 -3.550755E+05 -9.225696E+04  2.322116E+04  1.573867E-10  2.363314E-10
       164  12 -1.821473E+04 -3.449324E+05 -6.495950E+04 -5.583965E+02 -3.185802E-10  5.302222E-10
       164  13 -1.105909E+05 -2.485340E+05 -1.366023E+05  1.580997E+04 -1.106236E-11 -1.505985E-12
       164  14  7.705846E+03 -2.312543E+05 -6.361170E+04  8.638690E+03 -6.532859E-10  5.839209E-12
       164  15  5.511883E+03 -2.485126E+05 -4.281628E+04  1.579528E+04 -6.777865E-10 -5.562486E-11
       164  16 -7.281140E+04 -9.678143E+04 -9.945232E+04 -2.971708E+04 -2.962254E-10  5.539090E-10
       164  17  3.820119E+04 -1.074184E+05 -3.496735E+04 -5.946717E+03 -1.552893E-09 -7.197957E-11
       164  18  2.923885E+04 -1.520836E+05 -2.067354E+04  3.215152E+04  1.762702E-11 -5.080379E-10
       164  19 -1.483618E+05 -4.002517E+05 -1.737361E+05  6.132600E+04  1.713912E+03  9.409982E+04
       164  20 -2.278886E+04 -3.550719E+05 -9.225074E+04  2.322139E+04  4.960033E+03  5.733446E+04
       164  21 -1.821459E+04 -3.449319E+05 -6.495867E+04 -5.583267E+02  4.210398E+03  2.056751E+04
       164  22 -1.105887E+05 -2.485253E+05 -1.365869E+05  1.581010E+04  1.706577E+03  9.033182E+04
       164  23  7.706728E+03 -2.312508E+05 -6.360567E+04  8.638915E+03  4.958478E+03  5.643697E+04
       164  24  5.512039E+03 -2.485120E+05 -4.281530E+04  1.579536E+04  4.211311E+03  2.254236E+04
       164  25 -7.280938E+04 -9.677338E+04 -9.943823E+04 -2.971696E+04  1.699797E+03  8.656289E+04
       164  26  3.820204E+04 -1.074151E+05 -3.496151E+04 -5.946496E+03  4.956966E+03  5.553929E+04
       164  27  2.923903E+04 -1.520830E+05 -2.067238E+04  3.215160E+04  4.212329E+03  2.451752E+04
       165   1 -2.502146E+04 -3.121663E+05 -5.384427E+04  1.998910E+04 -2.935790E+03 -1.509530E+04
       165   2 -9.045054E+03 -2.812613E+05 -3.981359E+04  8.614083E+03 -1.810105E+03  2.124884E+02
       165   3 -1.104677E+04 -2.568514E+05 -4.024771E+04  1.172467E+04 -5.824681E+02  1.552085E+04
       165   4 -7.821571E+03 -2.422797E+05 -3.774171E+04  1.583562E+04 -2.935845E+03 -1.586721E+04
       165   5  1.344148E+03 -2.390380E+05 -3.010303E+04  8.592759E+03 -1.810302E+03 -6.316982E+02
       165   6 -7.454956E+03 -2.422790E+05 -3.687801E+04  1.583562E+04 -5.826097E+02  1.460371E+04
       165   7  9.378039E+03 -1.723885E+05 -2.163947E+04  1.168166E+04 -2.935889E+03 -1.663920E+04
       165   8  1.173323E+04 -1.968129E+05 -2.039258E+04  8.571433E+03 -1.810500E+03 -1.475942E+03
       165   9 -3.863095E+03 -2.277064E+05 -3.350831E+04  1.994668E+04 -5.827635E+02  1.368656E+04
       165  10 -2.502153E+04 -3.121666E+05 -5.384471E+04  1.998906E+04 -1.314395E-10 -2.384265E-10
       165  11 -9.045058E+03 -2.812613E+05 -3.981360E+04  8.614083E+03 -1.579062E-10  4.278384E-10
       165  12 -1.104683E+04 -2.568517E+05 -4.024817E+04  1.172468E+04 -5.249734E-12 -8.233271E-11
       165  13 -7.821648E+03 -2.422800E+05 -3.774220E+04  1.583558E+04 -2.598134E-11  6.258027E-13
       165  14  1.344144E+03 -2.390380E+05 -3.010303E+04  8.592758E+03  2.340652E-10 -1.460076E-11
       165  15 -7.455014E+03 -2.422793E+05 -3.687841E+04  1.583563E+04 -1.026588E-10 -5.376644E-11
       165  16  9.377956E+03 -1.723888E+05 -2.164000E+04  1.168162E+04 -7.745115E-11  2.016489E-10
       165  17  1.173322E+04 -1.968129E+05 -2.039259E+04  8.571430E+03 -1.232157E-09 -1.164483E-10
       165  18 -3.863146E+03 -2.277066E+05 -3.350866E+04  1.994668E+04 -4.855551E-11  1.042851E-10
       165  19 -2.502146E+04 -3.121663E+05 -5.384427E+04  1.998910E+04  2.935790E+03  1.509530E+04
       165  20 -9.045054E+03 -2.812613E+05 -3.981359E+04  8.614083E+03  1.810105E+03 -2.124884E+02
       165  21 -1.104677E+04 -2.568514E+05 -4.024771E+04  1.172467E+04  5.824681E+02 -1.552085E+04
       165  22 -7.821571E+03 -2.422797E+05 -3.774171E+04  1.583562E+04  2.935845E+03  1.586721E+04
       165  23  1.344148E+03 -2.390380E+05 -3.010303E+04  8.592759E+03  1.810302E+03  6.316982E+02
       165  24 -7.454956E+03 -2.422790E+05 -3.687801E+04  1.583562E+04  5.826097E+02 -1.460371E+04
       165  25  9.378039E+03 -1.723885E+05 -2.163947E+04  1.168166E+04  2.935889E+03  1.663920E+04
       165  26  1.173323E+04 -1.968129E+05 -2.039258E+04  8.571433E+03  1.810500E+03  1.475942E+03
       165  27 -3.863095E+03 -2.277064E+05 -3.350831E+04  1.994668E+04  5.827635E+02 -1.368656E+04
       166   1  8.194088E+03 -2.362477E+05 -3.878588E+04  3.148271E+04  4.671300E+02  2.256803E+04
       166   2  1.712798E+04 -1.921174E+05 -5.202813E+04 -5.379520E+03  1.526436E+03  5.377356E+04
       166   3 -8.922005E+04 -1.808774E+05 -1.144094E+05 -2.780281E+04  6.381111E+02  8.498077E+04
       166   4  5.237690E+03 -2.482000E+05 -4.156096E+04  1.581727E+04  4.661705E+02  2.110948E+04
       166   5  7.396119E+03 -2.316363E+05 -6.119895E+04  8.610675E+03  1.527641E+03  5.371295E+04
       166   6 -1.059778E+05 -2.482116E+05 -1.309502E+05  1.584295E+04  6.444063E+02  8.631667E+04
       166   7  2.282207E+03 -2.601517E+05 -4.433592E+04  1.521428E+02  4.652845E+02  1.965095E+04
       166   8 -2.335115E+03 -2.711534E+05 -7.036976E+04  2.259997E+04  1.528843E+03  5.365235E+04
       166   9 -1.227287E+05 -3.155376E+05 -1.474904E+05  5.948397E+04  6.508899E+02  8.765242E+04
       166  10  8.193951E+03 -2.362482E+05 -3.878683E+04  3.148270E+04  2.306223E-10 -5.216836E-10
       166  11  1.712720E+04 -1.921205E+05 -5.203357E+04 -5.379586E+03  4.474301E-10  3.895214E-10
       166  12 -8.922199E+04 -1.808852E+05 -1.144229E+05 -2.780286E+04  4.023984E-10  3.171278E-10
       166  13  5.237570E+03 -2.482005E+05 -4.156180E+04  1.581727E+04 -1.284429E-10  8.999064E-12
       166  14  7.395341E+03 -2.316394E+05 -6.120438E+04  8.610608E+03  8.225324E-11  7.515023E-14
       166  15 -1.059798E+05 -2.482196E+05 -1.309642E+05  1.584290E+04 -1.808963E-10 -9.538537E-11
       166  16  2.282103E+03 -2.601521E+05 -4.433665E+04  1.521354E+02  9.819751E-11  4.618266E-10
       166  17 -2.335891E+03 -2.711565E+05 -7.037518E+04  2.259991E+04  5.432718E-10 -7.524586E-11
       166  18 -1.227308E+05 -3.155459E+05 -1.475049E+05  5.948392E+04 -1.098323E-10 -3.003045E-10
       166  19  8.194088E+03 -2.362477E+05 -3.878588E+04  3.148271E+04 -4.671300E+02 -2.256803E+04
       166  20  1.712798E+04 -1.921174E+05 -5.202813E+04 -5.379520E+03 -1.526436E+03 -5.377356E+04
       166  21 -8.922005E+04 -1.808774E+05 -1.144094E+05 -2.780281E+04 -6.381111E+02 -8.498077E+04
       166  22  5.237690E+03 -2.482000E+05 -4.156096E+04  1.581727E+04 -4.661705E+02 -2.110948E+04
       166  23  7.396119E+03 -2.316363E+05 -6.119895E+04  8.610675E+03 -1.527641E+03 -5.371295E+04
       166  24 -1.059778E+05 -2.482116E+05 -1.309502E+05  1.584295E+04 -6.444063E+02 -8.631667E+04
       166  25  2.282207E+03 -2.601517E+05 -4.433592E+04  1.521428E+02 -4.652845E+02 -1.965095E+04
       166  26 -2.335115E+03 -2.711534E+05 -7.036976E+04  2.259997E+04 -1.528843E+03 -5.365235E+04
       166  27 -1.227287E+05 -3.155376E+05 -1.474904E+05  5.948397E+04 -6.508899E+02 -8.765242E+04
       167   1  2.885761E+05  1.636980E+05  4.489026E+03  2.199120E+05  1.539598E+04  1.330221E+04
       167   2  2.910035E+05  1.489548E+05 -8.795412E+03  2.372822E+05  8.951208E+03  1.196503E+04
       167   3  3.178689E+05  1.478170E+05 -1.074855E+04  2.418329E+05  4.395478E+03  8.108187E+03
       167   4  3.885385E+05  2.160294E+05  3.430126E+04  2.606801E+05  1.791819E+04  1.519300E+04
       167   5  3.708354E+05  1.996207E+05  1.540054E+04  2.741493E+05  9.657008E+03  1.249407E+04
       167   6  3.779611E+05  1.972088E+05  9.404915E+03  2.747994E+05  3.285013E+03  7.275676E+03
       167   7  4.885124E+05  2.683637E+05  6.411275E+04  3.014548E+05  2.044099E+04  1.708409E+04
       167   8  4.506741E+05  2.502892E+05  3.959577E+04  3.110214E+05  1.036293E+04  1.302318E+04
       167   9  4.380568E+05  2.466032E+05  2.955772E+04  3.077695E+05  2.174411E+03  6.443040E+03
       167  10  2.885758E+05  1.636977E+05  4.488248E+03  2.199118E+05  1.097113E-10 -4.002980E-11
       167  11  2.910034E+05  1.489547E+05 -8.795832E+03  2.372821E+05 -1.447589E-11  2.246129E-10
       167  12  3.178689E+05  1.478169E+05 -1.074871E+04  2.418328E+05 -5.965732E-11  3.563764E-10
       167  13  3.885381E+05  2.160291E+05  3.430022E+04  2.606799E+05  9.526599E-11  1.253424E-10
       167  14  3.708353E+05  1.996205E+05  1.540007E+04  2.741492E+05  3.829006E-11  2.307964E-10
       167  15  3.779611E+05  1.972088E+05  9.404795E+03  2.747993E+05  9.995721E-12  9.047095E-11
       167  16  4.885118E+05  2.683633E+05  6.411141E+04  3.014545E+05 -3.652372E-10  2.041619E-10
       167  17  4.506739E+05  2.502889E+05  3.959525E+04  3.110213E+05 -1.146608E-10  1.790125E-10
       167  18  4.380568E+05  2.466031E+05  2.955764E+04  3.077694E+05 -9.934075E-11 -4.552474E-11
       167  19  2.885761E+05  1.636980E+05  4.489026E+03  2.199120E+05 -1.539598E+04 -1.330221E+04
       167  20  2.910035E+05  1.489548E+05 -8.795412E+03  2.372822E+05 -8.951208E+03 -1.196503E+04
       167  21  3.178689E+05  1.478170E+05 -1.074855E+04  2.418329E+05 -4.395478E+03 -8.108187E+03
       167  22  3.885385E+05  2.160294E+05  3.430126E+04  2.606801E+05 -1.791819E+04 -1.519300E+04
       167  23  3.708354E+05  1.996207E+05  1.540054E+04  2.741493E+05 -9.657008E+03 -1.249407E+04
       167  24  3.779611E+05  1.972088E+05  9.404915E+03  2.747994E+05 -3.285013E+03 -7.275676E+03
       167  25  4.885124E+05  2.683637E+05  6.411275E+04  3.014548E+05 -2.044099E+04 -1.708409E+04
       167  26  4.506741E+05  2.502892E+05  3.959577E+04  3.110214E+05 -1.036293E+04 -1.302318E+04
       167  27  4.380568E+05  2.466032E+05  2.955772E+04  3.077695E+05 -2.174411E+03 -6.443040E+03
       168   1  3.252886E+05  1.625284E+05 -8.836031E+03  2.465114E+05  3.010057E+03  6.000324E+03
       168   2  3.327786E+05  1.734094E+05 -8.272420E+03  2.545951E+05  1.752568E+03  4.240169E+03
       168   3  3.501319E+05  1.775878E+05 -5.788683E+03  2.594961E+05  5.875735E+02  2.356424E+03
       168   4  3.781682E+05  1.988904E+05  7.655700E+03  2.722332E+05  2.677873E+03  5.751254E+03
       168   5  3.728337E+05  2.015319E+05  4.302769E+03  2.743502E+05  1.331200E+03  3.924270E+03
       168   6  3.773817E+05  1.974898E+05  2.947103E+03  2.732843E+05  7.705764E+01  1.973725E+03
       168   7  4.310507E+05  2.352538E+05  2.414710E+04  2.979574E+05  2.345650E+03  5.502155E+03
       168   8  4.128907E+05  2.296554E+05  1.687782E+04  2.941068E+05  9.097941E+02  3.608342E+03
       168   9  4.046324E+05  2.173924E+05  1.168287E+04  2.870733E+05 -4.334926E+02  1.590999E+03
       168  10  3.252886E+05  1.625283E+05 -8.836116E+03  2.465113E+05 -1.008369E-10  3.131921E-11
       168  11  3.327785E+05  1.734094E+05 -8.272459E+03  2.545951E+05  5.818113E-10  5.942434E-11
       168  12  3.501319E+05  1.775878E+05 -5.788694E+03  2.594961E+05  1.394978E-09  1.671017E-10
       168  13  3.781682E+05  1.988904E+05  7.655625E+03  2.722332E+05  2.806860E-10  1.221890E-10
       168  14  3.728337E+05  2.015319E+05  4.302737E+03  2.743502E+05  1.065713E-09 -6.095400E-11
       168  15  3.773817E+05  1.974898E+05  2.947096E+03  2.732843E+05  6.489324E-10 -3.116773E-11
       168  16  4.310507E+05  2.352538E+05  2.414703E+04  2.979574E+05  7.018132E-10  2.707087E-10
       168  17  4.128907E+05  2.296554E+05  1.687779E+04  2.941068E+05 -8.944847E-13  3.316112E-10
       168  18  4.046324E+05  2.173924E+05  1.168286E+04  2.870733E+05 -1.007662E-09 -2.487843E-10
       168  19  3.252886E+05  1.625284E+05 -8.836031E+03  2.465114E+05 -3.010057E+03 -6.000324E+03
       168  20  3.327786E+05  1.734094E+05 -8.272420E+03  2.545951E+05 -1.752568E+03 -4.240169E+03
       168  21  3.501319E+05  1.775878E+05 -5.788683E+03  2.594961E+05 -5.875735E+02 -2.356424E+03
       168  22  3.781682E+05  1.988904E+05  7.655700E+03  2.722332E+05 -2.677873E+03 -5.751254E+03
       168  23  3.728337E+05  2.015319E+05  4.302769E+03  2.743502E+05 -1.331200E+03 -3.924270E+03
       168  24  3.773817E+05  1.974898E+05  2.947103E+03  2.732843E+05 -7.705764E+01 -1.973725E+03
       168  25  4.310507E+05  2.352538E+05  2.414710E+04  2.979574E+05 -2.345650E+03 -5.502155E+03
       168  26  4.128907E+05  2.296554E+05  1.687782E+04  2.941068E+05 -9.097941E+02 -3.608342E+03
       168  27  4.046324E+05  2.173924E+05  1.168287E+04  2.870733E+05  4.334926E+02 -1.590999E+03
       169   1  3.615125E+05  1.864544E+05 -2.305841E+03  2.652713E+05  4.572629E+02  1.629792E+03
       169   2  3.694595E+05  1.991742E+05  1.372197E+03  2.726174E+05 -3.862254E+01  2.313687E+02
       169   3  3.862134E+05  2.038043E+05  5.965302E+03  2.774050E+05 -5.343165E+02 -1.167357E+03
       169   4  3.773798E+05  1.975991E+05  2.630426E+03  2.731071E+05 -1.622702E+01  1.274858E+03
       169   5  3.729910E+05  2.016700E+05  2.483298E+03  2.743668E+05 -5.123401E+02 -1.237317E+02
       169   6  3.774091E+05  1.976513E+05  3.251508E+03  2.730679E+05 -1.008239E+03 -1.522606E+03
       169   7  3.932473E+05  2.087439E+05  7.566622E+03  2.809431E+05 -4.897297E+02  9.199132E+02
       169   8  3.765225E+05  2.041657E+05  3.594394E+03  2.761162E+05 -9.860594E+02 -4.788335E+02
       169   9  3.686048E+05  1.914982E+05  5.377067E+02  2.687309E+05 -1.482151E+03 -1.877849E+03
       169  10  3.615125E+05  1.864544E+05 -2.305846E+03  2.652713E+05  7.655470E-10  2.132755E-11
       169  11  3.694595E+05  1.991742E+05  1.372197E+03  2.726174E+05 -1.200747E-10  2.850328E-10
       169  12  3.862134E+05  2.038043E+05  5.965299E+03  2.774050E+05  1.052881E-10 -1.429872E-10
       169  13  3.773798E+05  1.975991E+05  2.630423E+03  2.731071E+05 -8.048710E-12 -2.749374E-10
       169  14  3.729910E+05  2.016700E+05  2.483298E+03  2.743668E+05 -3.343113E-10  3.893915E-10
       169  15  3.774091E+05  1.976513E+05  3.251502E+03  2.730679E+05 -7.272192E-10 -3.892962E-11
       169  16  3.932473E+05  2.087439E+05  7.566620E+03  2.809431E+05 -6.291792E-10 -3.791792E-10
       169  17  3.765225E+05  2.041657E+05  3.594392E+03  2.761162E+05 -6.778174E-10 -3.219994E-10
       169  18  3.686048E+05  1.914982E+05  5.376960E+02  2.687309E+05 -6.820886E-11  1.106385E-10
       169  19  3.615125E+05  1.864544E+05 -2.305841E+03  2.652713E+05 -4.572629E+02 -1.629792E+03
       169  20  3.694595E+05  1.991742E+05  1.372197E+03  2.726174E+05  3.862254E+01 -2.313687E+02
       169  21  3.862134E+05  2.038043E+05  5.965302E+03  2.774050E+05  5.343165E+02  1.167357E+03
       169  22  3.773798E+05  1.975991E+05  2.630426E+03  2.731071E+05  1.622702E+01 -1.274858E+03
       169  23  3.729910E+05  2.016700E+05  2.483298E+03  2.743668E+05  5.123401E+02  1.237317E+02
       169  24  3.774091E+05  1.976513E+05  3.251508E+03  2.730679E+05  1.008239E+03  1.522606E+03
       169  25  3.932473E+05  2.087439E+05  7.566622E+03  2.809431E+05  4.897297E+02 -9.199132E+02
       169  26  3.765225E+05  2.041657E+05  3.594394E+03  2.761162E+05  9.860594E+02  4.788335E+02
       169  27  3.686048E+05  1.914982E+05  5.377067E+02  2.687309E+05  1.482151E+03  1.877849E+03
       170   1  3.974249E+05  2.125540E+05  1.041935E+04  2.836949E+05 -7.052911E+02 -1.922475E+03
       170   2  4.058005E+05  2.244547E+05  1.655813E+04  2.905559E+05 -2.815070E+03 -4.515951E+03
       170   3  4.247697E+05  2.306074E+05  2.569180E+04  2.938683E+05 -5.010522E+03 -6.995255E+03
       170   4  3.774172E+05  1.974826E+05  3.909139E+03  2.733614E+05 -1.213184E+03 -2.303195E+03
       170   5  3.727283E+05  2.014322E+05  6.211420E+03  2.743354E+05 -3.240505E+03 -4.834890E+03
       170   6  3.786150E+05  1.996158E+05  1.143727E+04  2.717606E+05 -5.353410E+03 -7.252346E+03
       170   7  3.574099E+05  1.824115E+05 -2.601179E+03  2.630281E+05 -1.721059E+03 -2.683901E+03
       170   8  3.396572E+05  1.784103E+05 -4.135423E+03  2.581159E+05 -3.665909E+03 -5.153806E+03
       170   9  3.324629E+05  1.686254E+05 -2.817390E+03  2.496549E+05 -5.696261E+03 -7.509410E+03
       170  10  3.974248E+05  2.125540E+05  1.041935E+04  2.836949E+05  1.639300E-09  1.079594E-10
       170  11  4.058005E+05  2.244547E+05  1.655808E+04  2.905559E+05 -2.303452E-09 -2.090816E-09
       170  12  4.247697E+05  2.306073E+05  2.569166E+04  2.938683E+05 -3.275368E-09 -1.836750E-09
       170  13  3.774172E+05  1.974826E+05  3.909126E+03  2.733614E+05 -1.305634E-09 -7.337846E-10
       170  14  3.727283E+05  2.014322E+05  6.211357E+03  2.743354E+05 -2.799638E-09 -1.659154E-09
       170  15  3.786150E+05  1.996157E+05  1.143712E+04  2.717606E+05 -9.377174E-10 -8.706094E-10
       170  16  3.574099E+05  1.824115E+05 -2.601198E+03  2.630281E+05 -3.286131E-09 -1.753472E-09
       170  17  3.396572E+05  1.784103E+05 -4.135498E+03  2.581158E+05 -2.878939E-09 -1.974118E-09
       170  18  3.324628E+05  1.686253E+05 -2.817557E+03  2.496548E+05  1.177167E-09  5.206690E-10
       170  19  3.974249E+05  2.125540E+05  1.041935E+04  2.836949E+05  7.052911E+02  1.922475E+03
       170  20  4.058005E+05  2.244547E+05  1.655813E+04  2.905559E+05  2.815070E+03  4.515951E+03
       170  21  4.247697E+05  2.306074E+05  2.569180E+04  2.938683E+05  5.010522E+03  6.995255E+03
       170  22  3.774172E+05  1.974826E+05  3.909139E+03  2.733614E+05  1.213184E+03  2.303195E+03
       170  23  3.727283E+05  2.014322E+05  6.211420E+03  2.743354E+05  3.240505E+03  4.834890E+03
       170  24  3.786150E+05  1.996158E+05  1.143727E+04  2.717606E+05  5.353410E+03  7.252346E+03
       170  25  3.574099E+05  1.824115E+05 -2.601179E+03  2.630281E+05  1.721059E+03  2.683901E+03
       170  26  3.396572E+05  1.784103E+05 -4.135423E+03  2.581159E+05  3.665909E+03  5.153806E+03
       170  27  3.324629E+05  1.686254E+05 -2.817390E+03  2.496549E+05  5.696261E+03  7.509410E+03
       171   1  4.292715E+05  2.434616E+05  3.206106E+04  3.056953E+05 -5.472351E+03 -8.375320E+03
       171   2  4.442375E+05  2.423434E+05  4.524631E+04  3.068435E+05 -1.688231E+04 -1.741452E+04
       171   3  4.928520E+05  2.671815E+05  7.944090E+04  2.898206E+05 -3.003928E+04 -2.412467E+04
       171   4  3.783086E+05  1.970607E+05  1.413764E+04  2.756536E+05 -6.534707E+03 -9.171673E+03
       171   5  3.696877E+05  1.985375E+05  2.330138E+04  2.740316E+05 -1.626479E+04 -1.695185E+04
       171   6  3.943530E+05  2.256099E+05  5.201978E+04  2.542378E+05 -2.774134E+04 -2.240299E+04
       171   7  3.273485E+05  1.506624E+05 -3.786152E+03  2.456149E+05 -7.596946E+03 -9.967905E+03
       171   8  2.951437E+05  1.547333E+05  1.355769E+03  2.412236E+05 -1.564736E+04 -1.648923E+04
       171   9  2.958641E+05  1.840394E+05  2.459771E+04  2.186596E+05 -2.544390E+04 -2.068148E+04
       171  10  4.292714E+05  2.434615E+05  3.206087E+04  3.056953E+05 -2.119678E-10  5.501291E-10
       171  11  4.442371E+05  2.423430E+05  4.524521E+04  3.068432E+05  3.697843E-10  2.314880E-10
       171  12  4.928508E+05  2.671807E+05  7.943812E+04  2.898200E+05 -2.093409E-10  1.049235E-10
       171  13  3.783085E+05  1.970606E+05  1.413740E+04  2.756535E+05  4.685898E-10  1.526086E-10
       171  14  3.696874E+05  1.985371E+05  2.330034E+04  2.740314E+05  6.855860E-11  6.781712E-11
       171  15  3.943520E+05  2.256092E+05  5.201739E+04  2.542373E+05  2.536406E-10  6.943030E-11
       171  16  3.273484E+05  1.506623E+05 -3.786447E+03  2.456149E+05  1.153266E-10 -1.110250E-10
       171  17  2.951434E+05  1.547330E+05  1.354799E+03  2.412234E+05  2.011589E-10  1.298243E-10
       171  18  2.958633E+05  1.840388E+05  2.459570E+04  2.186592E+05 -1.645572E-10 -5.705571E-12
       171  19  4.292715E+05  2.434616E+05  3.206106E+04  3.056953E+05  5.472351E+03  8.375320E+03
       171  20  4.442375E+05  2.423434E+05  4.524631E+04  3.068435E+05  1.688231E+04  1.741452E+04
       171  21  4.928520E+05  2.671815E+05  7.944090E+04  2.898206E+05  3.003928E+04  2.412467E+04
       171  22  3.783086E+05  1.970607E+05  1.413764E+04  2.756536E+05  6.534707E+03  9.171673E+03
       171  23  3.696877E+05  1.985375E+05  2.330138E+04  2.740316E+05  1.626479E+04  1.695185E+04
       171  24  3.943530E+05  2.256099E+05  5.201978E+04  2.542378E+05  2.774134E+04  2.240299E+04
       171  25  3.273485E+05  1.506624E+05 -3.786152E+03  2.456149E+05  7.596946E+03  9.967905E+03
       171  26  2.951437E+05  1.547333E+05  1.355769E+03  2.412236E+05  1.564736E+04  1.648923E+04
       171  27  2.958641E+05  1.840394E+05  2.459771E+04  2.186596E+05  2.544390E+04  2.068148E+04
       172   1  8.731300E+05  9.842898E+04  1.112608E+05  4.273938E+04  5.277131E+04 -1.770206E+03
       172   2  8.310849E+05  2.748659E+04  6.209369E+04  1.797891E+04  3.233728E+04 -5.096415E+03
       172   3  8.076413E+05  2.030957E+04  4.215951E+04  1.019641E+04  1.190404E+04 -4.145530E+03
       172   4  7.120073E+05  5.835116E+04  7.184728E+04  1.877562E+04  4.882606E+04 -1.772223E+03
       172   5  7.029837E+05 -4.033986E+03  3.248595E+04  1.028720E+04  3.147826E+04 -5.096918E+03
       172   6  7.120304E+05 -3.182288E+03  2.022142E+04  1.877606E+04  1.413012E+04 -4.145196E+03
       172   7  5.509095E+05  1.827358E+04  3.243223E+04 -5.181903E+03  4.488183E+04 -1.773937E+03
       172   8  5.748978E+05 -3.555549E+04  2.877142E+03  2.597083E+03  3.061941E+04 -5.097399E+03
       172   9  6.164281E+05 -2.667451E+04 -1.717219E+03  2.735437E+04  1.635587E+04 -4.144800E+03
       172  10  8.731270E+05  9.842823E+04  1.112556E+05  4.273945E+04 -4.076270E-10  4.608424E-11
       172  11  8.310837E+05  2.748628E+04  6.209168E+04  1.797904E+04  1.968745E-10  1.282930E-10
       172  12  8.076411E+05  2.030952E+04  4.215922E+04  1.019645E+04  2.109121E-10 -3.470303E-11
       172  13  7.120047E+05  5.835052E+04  7.184280E+04  1.877569E+04  2.561781E-10 -3.537266E-11
       172  14  7.029826E+05 -4.034280E+03  3.248404E+04  1.028733E+04  2.524699E-10  2.561258E-11
       172  15  7.120302E+05 -3.182360E+03  2.022101E+04  1.877611E+04 -3.581707E-10 -1.792047E-10
       172  16  5.509073E+05  1.827304E+04  3.242844E+04 -5.181838E+03 -4.896015E-11 -1.027406E-10
       172  17  5.748968E+05 -3.555577E+04  2.875333E+03  2.597209E+03  1.836503E-10 -7.818152E-11
       172  18  6.164278E+05 -2.667460E+04 -1.717753E+03  2.735443E+04  4.885391E-10  5.280077E-12
       172  19  8.731300E+05  9.842898E+04  1.112608E+05  4.273938E+04 -5.277131E+04  1.770206E+03
       172  20  8.310849E+05  2.748659E+04  6.209369E+04  1.797891E+04 -3.233728E+04  5.096415E+03
       172  21  8.076413E+05  2.030957E+04  4.215951E+04  1.019641E+04 -1.190404E+04  4.145530E+03
       172  22  7.120073E+05  5.835116E+04  7.184728E+04  1.877562E+04 -4.882606E+04  1.772223E+03
       172  23  7.029837E+05 -4.033986E+03  3.248595E+04  1.028720E+04 -3.147826E+04  5.096918E+03
       172  24  7.120304E+05 -3.182288E+03  2.022142E+04  1.877606E+04 -1.413012E+04  4.145196E+03
       172  25  5.509095E+05  1.827358E+04  3.243223E+04 -5.181903E+03 -4.488183E+04  1.773937E+03
       172  26  5.748978E+05 -3.555549E+04  2.877142E+03  2.597083E+03 -3.061941E+04  5.097399E+03
       172  27  6.164281E+05 -2.667451E+04 -1.717219E+03  2.735437E+04 -1.635587E+04  4.144800E+03
       173   1  7.727683E+05  2.015933E+04  3.154800E+04  2.035917E+04  1.017723E+04 -2.706223E+03
       173   2  7.391897E+05  7.398001E+03  1.759777E+04  1.066429E+04  4.836208E+03 -1.345928E+03
       173   3  7.076133E+05 -1.207004E+02  8.431291E+03  1.802358E+04 -5.046201E+02  2.128732E+02
       173   4  7.084510E+05  4.346744E+03  1.675119E+04  1.879260E+04  1.108586E+04 -2.706163E+03
       173   5  7.074641E+05 -4.008656E+02  1.030400E+04  1.026576E+04  5.888317E+03 -1.345807E+03
       173   6  7.084539E+05  6.956957E+01  8.541488E+03  1.879308E+04  6.907010E+02  2.130428E+02
       173   7  6.441376E+05 -1.146612E+04  1.954119E+03  1.722620E+04  1.199438E+04 -2.706108E+03
       173   8  6.757395E+05 -8.199802E+03  3.010173E+03  9.867255E+03  6.940372E+03 -1.345688E+03
       173   9  7.092945E+05  2.598425E+02  8.651690E+03  1.956259E+04  1.886024E+03  2.132153E+02
       173  10  7.727682E+05  2.015929E+04  3.154779E+04  2.035919E+04  2.586880E-10 -1.921814E-10
       173  11  7.391897E+05  7.397993E+03  1.759772E+04  1.066430E+04  5.106507E-10  1.818846E-11
       173  12  7.076133E+05 -1.207006E+02  8.431290E+03  1.802358E+04  1.605910E-10 -9.479160E-11
       173  13  7.084509E+05  4.346703E+03  1.675095E+04  1.879263E+04  5.242494E-10  3.704640E-12
       173  14  7.074641E+05 -4.008769E+02  1.030393E+04  1.026577E+04  7.927189E-10  1.212693E-10
       173  15  7.084539E+05  6.956939E+01  8.541487E+03  1.879308E+04  2.939575E-10 -1.329170E-10
       173  16  6.441375E+05 -1.146616E+04  1.953835E+03  1.722622E+04 -2.769319E-11 -8.857549E-11
       173  17  6.757395E+05 -8.199816E+03  3.010080E+03  9.867262E+03 -5.397477E-10 -8.098982E-12
       173  18  7.092945E+05  2.598415E+02  8.651683E+03  1.956259E+04 -2.331955E-10  9.008486E-11
       173  19  7.727683E+05  2.015933E+04  3.154800E+04  2.035917E+04 -1.017723E+04  2.706223E+03
       173  20  7.391897E+05  7.398001E+03  1.759777E+04  1.066429E+04 -4.836208E+03  1.345928E+03
       173  21  7.076133E+05 -1.207004E+02  8.431291E+03  1.802358E+04  5.046201E+02 -2.128732E+02
       173  22  7.084510E+05  4.346744E+03  1.675119E+04  1.879260E+04 -1.108586E+04  2.706163E+03
       173  23  7.074641E+05 -4.008656E+02  1.030400E+04  1.026576E+04 -5.888317E+03  1.345807E+03
       173  24  7.084539E+05  6.956957E+01  8.541488E+03  1.879308E+04 -6.907010E+02 -2.130428E+02
       173  25  6.441376E+05 -1.146612E+04  1.954119E+03  1.722620E+04 -1.199438E+04  2.706108E+03
       173  26  6.757395E+05 -8.199802E+03  3.010173E+03  9.867255E+03 -6.940372E+03  1.345688E+03
       173  27  7.092945E+05  2.598425E+02  8.651690E+03  1.956259E+04 -1.886024E+03 -2.132153E+02
       174   1  6.764396E+05 -7.826702E+03  1.126208E+03  1.957552E+04 -2.022619E+03  1.201661E+03
       174   2  6.428447E+05 -1.628978E+04 -4.430169E+03  9.855454E+03 -7.105037E+03  2.757709E+03
       174   3  6.112287E+05 -1.948283E+04 -5.362903E+03  1.720343E+04 -1.218697E+04  4.074576E+03
       174   4  7.084604E+05  5.938833E+01  8.561750E+03  1.879611E+04 -8.147693E+02  1.201826E+03
       174   5  7.074551E+05 -4.077770E+02  1.041723E+04  1.026199E+04 -6.070035E+03  2.757793E+03
       174   6  7.084569E+05  4.424644E+03  1.701580E+04  1.879571E+04 -1.132507E+04  4.074573E+03
       174   7  7.404821E+05  7.945410E+03  1.599723E+04  1.801665E+04  3.931417E+02  1.201989E+03
       174   8  7.720694E+05  1.547394E+04  2.526435E+04  1.066856E+04 -5.034926E+03  2.757878E+03
       174   9  8.056939E+05  2.833147E+04  3.939387E+04  2.038825E+04 -1.046304E+04  4.074574E+03
       174  10  6.764396E+05 -7.826705E+03  1.126197E+03  1.957552E+04 -3.422853E-10 -1.678658E-10
       174  11  6.428446E+05 -1.628980E+04 -4.430278E+03  9.855470E+03 -6.130367E-10 -1.633365E-10
       174  12  6.112285E+05 -1.948289E+04 -5.363213E+03  1.720347E+04  8.058135E-11 -1.643875E-11
       174  13  7.084604E+05  5.938660E+01  8.561746E+03  1.879611E+04  3.966421E-11 -9.978083E-11
       174  14  7.074551E+05 -4.077951E+02  1.041714E+04  1.026200E+04  4.091303E-10  2.220802E-11
       174  15  7.084568E+05  4.424592E+03  1.701552E+04  1.879575E+04 -9.660409E-11 -7.253855E-11
       174  16  7.404821E+05  7.945408E+03  1.599723E+04  1.801665E+04 -3.934220E-11 -3.904257E-11
       174  17  7.720694E+05  1.547392E+04  2.526429E+04  1.066857E+04 -2.246297E-10 -1.611452E-10
       174  18  8.056938E+05  2.833142E+04  3.939363E+04  2.038829E+04  8.376067E-11  1.332483E-10
       174  19  6.764396E+05 -7.826702E+03  1.126208E+03  1.957552E+04  2.022619E+03 -1.201661E+03
       174  20  6.428447E+05 -1.628978E+04 -4.430169E+03  9.855454E+03  7.105037E+03 -2.757709E+03
       174  21  6.112287E+05 -1.948283E+04 -5.362903E+03  1.720343E+04  1.218697E+04 -4.074576E+03
       174  22  7.084604E+05  5.938833E+01  8.561750E+03  1.879611E+04  8.147693E+02 -1.201826E+03
       174  23  7.074551E+05 -4.077770E+02  1.041723E+04  1.026199E+04  6.070035E+03 -2.757793E+03
       174  24  7.084569E+05  4.424644E+03  1.701580E+04  1.879571E+04  1.132507E+04 -4.074573E+03
       174  25  7.404821E+05  7.945410E+03  1.599723E+04  1.801665E+04 -3.931417E+02 -1.201989E+03
       174  26  7.720694E+05  1.547394E+04  2.526435E+04  1.066856E+04  5.034926E+03 -2.757878E+03
       174  27  8.056939E+05  2.833147E+04  3.939387E+04  2.038825E+04  1.046304E+04 -4.074574E+03
       175   1  5.835234E+05 -3.483865E+04 -8.930727E+03  2.751582E+04 -1.684692E+04  5.609054E+03
       175   2  5.417819E+05 -4.375522E+04 -4.162789E+03  2.460031E+03 -3.084103E+04  6.442543E+03
       175   3  5.178185E+05  1.109656E+04  2.565682E+04 -5.603974E+03 -4.483476E+04  2.196769E+03
       175   4  7.121039E+05 -3.243687E+03  2.056102E+04  1.877818E+04 -1.441878E+04  5.609347E+03
       175   5  7.028884E+05 -4.110563E+03  3.306608E+04  1.028419E+04 -3.207682E+04  6.442062E+03
       175   6  7.120799E+05  5.941651E+04  7.316026E+04  1.878140E+04 -4.973540E+04  2.195353E+03
       175   7  8.406998E+05  2.835042E+04  5.005174E+04  1.003871E+04 -1.199014E+04  5.609572E+03
       175   8  8.640190E+05  3.553251E+04  7.029326E+04  1.811038E+04 -3.331294E+04  6.441550E+03
       175   9  9.063769E+05  1.077359E+05  1.206614E+05  4.317441E+04 -5.463757E+04  2.193553E+03
       175  10  5.835231E+05 -3.483876E+04 -8.931319E+03  2.751590E+04  4.942874E-10  7.498233E-12
       175  11  5.417808E+05 -4.375552E+04 -4.164653E+03  2.460191E+03  7.076870E-11  1.950182E-10
       175  12  5.178163E+05  1.109601E+04  2.565303E+04 -5.603895E+03 -2.295955E-10  1.900370E-10
       175  13  7.121037E+05 -3.243776E+03  2.056057E+04  1.877824E+04  2.609058E-10  8.615996E-11
       175  14  7.028873E+05 -4.110884E+03  3.306407E+04  1.028435E+04  1.082909E-09  7.785436E-11
       175  15  7.120772E+05  5.941584E+04  7.315561E+04  1.878148E+04  8.622222E-10 -1.001070E-10
       175  16  8.406997E+05  2.835034E+04  5.005141E+04  1.003877E+04 -1.303440E-10  1.963167E-10
       175  17  8.640178E+05  3.553217E+04  7.029110E+04  1.811056E+04 -3.574734E-10 -5.381172E-11
       175  18  9.063737E+05  1.077351E+05  1.206558E+05  4.317451E+04 -1.114217E-10 -7.101853E-11
       175  19  5.835234E+05 -3.483865E+04 -8.930727E+03  2.751582E+04  1.684692E+04 -5.609054E+03
       175  20  5.417819E+05 -4.375522E+04 -4.162789E+03  2.460031E+03  3.084103E+04 -6.442543E+03
       175  21  5.178185E+05  1.109656E+04  2.565682E+04 -5.603974E+03  4.483476E+04 -2.196769E+03
       175  22  7.121039E+05 -3.243687E+03  2.056102E+04  1.877818E+04  1.441878E+04 -5.609347E+03
       175  23  7.028884E+05 -4.110563E+03  3.306608E+04  1.028419E+04  3.207682E+04 -6.442062E+03
       175  24  7.120799E+05  5.941651E+04  7.316026E+04  1.878140E+04  4.973540E+04 -2.195353E+03
       175  25  8.406998E+05  2.835042E+04  5.005174E+04  1.003871E+04  1.199014E+04 -5.609572E+03
       175  26  8.640190E+05  3.553251E+04  7.029326E+04  1.811038E+04  3.331294E+04 -6.441550E+03
       175  27  9.063769E+05  1.077359E+05  1.206614E+05  4.317441E+04  5.463757E+04 -2.193553E+03
       176   1 -1.061703E+05 -2.689016E+05 -1.311692E+05  4.248663E+04 -2.032781E+01 -8.697294E+04
       176   2  7.050203E+03 -2.545438E+05 -6.146124E+04  1.331704E+04 -7.275155E+01 -5.443168E+04
       176   3  4.388114E+03 -2.733964E+05 -4.191283E+04 -1.702941E+04 -1.721796E+02 -2.189032E+04
       176   4 -1.063742E+05 -2.696745E+05 -1.313681E+05 -1.306253E+03 -1.418878E+01 -8.694608E+04
       176   5  7.412536E+03 -2.530595E+05 -6.112245E+04 -7.219258E+02 -7.151662E+01 -5.437329E+04
       176   6  5.307899E+03 -2.696622E+05 -4.105883E+04 -1.313133E+03 -1.727284E+02 -2.180028E+04
       176   7 -1.065708E+05 -2.704433E+05 -1.315659E+05 -4.509908E+04 -8.053537E+00 -8.691923E+04
       176   8  7.775609E+03 -2.515747E+05 -6.078355E+04 -1.476093E+04 -7.028433E+01 -5.431491E+04
       176   9  6.228612E+03 -2.659275E+05 -4.020470E+04  1.440324E+04 -1.732726E+02 -2.171025E+04
       176  10 -1.061724E+05 -2.689097E+05 -1.311834E+05  4.248663E+04  2.083627E-10 -1.131319E-10
       176  11  7.049408E+03 -2.545470E+05 -6.146681E+04  1.331704E+04 -6.424211E-11  8.597036E-11
       176  12  4.387986E+03 -2.733970E+05 -4.191373E+04 -1.702942E+04  1.863945E-10 -1.799235E-11
       176  13 -1.063762E+05 -2.696826E+05 -1.313823E+05 -1.306254E+03  2.372987E-10  5.204822E-11
       176  14  7.411742E+03 -2.530626E+05 -6.112800E+04 -7.219290E+02 -1.904682E-11  9.986109E-11
       176  15  5.307772E+03 -2.696628E+05 -4.105972E+04 -1.313136E+03 -7.634501E-11  1.630043E-10
       176  16 -1.065728E+05 -2.704514E+05 -1.315801E+05 -4.509908E+04  8.906637E-11  1.232270E-10
       176  17  7.774816E+03 -2.515778E+05 -6.078909E+04 -1.476093E+04 -2.853673E-10 -6.573949E-11
       176  18  6.228486E+03 -2.659280E+05 -4.020558E+04  1.440324E+04 -8.432940E-11 -7.446223E-11
       176  19 -1.061703E+05 -2.689016E+05 -1.311692E+05  4.248663E+04  2.032781E+01  8.697294E+04
       176  20  7.050203E+03 -2.545438E+05 -6.146124E+04  1.331704E+04  7.275155E+01  5.443168E+04
       176  21  4.388114E+03 -2.733964E+05 -4.191283E+04 -1.702941E+04  1.721796E+02  2.189032E+04
       176  22 -1.063742E+05 -2.696745E+05 -1.313681E+05 -1.306253E+03  1.418878E+01  8.694608E+04
       176  23  7.412536E+03 -2.530595E+05 -6.112245E+04 -7.219258E+02  7.151662E+01  5.437329E+04
       176  24  5.307899E+03 -2.696622E+05 -4.105883E+04 -1.313133E+03  1.727284E+02  2.180028E+04
       176  25 -1.065708E+05 -2.704433E+05 -1.315659E+05 -4.509908E+04  8.053537E+00  8.691923E+04
       176  26  7.775609E+03 -2.515747E+05 -6.078355E+04 -1.476093E+04  7.028433E+01  5.431491E+04
       176  27  6.228612E+03 -2.659275E+05 -4.020470E+04  1.440324E+04  1.732726E+02  2.171025E+04
       177   1 -8.989414E+03 -2.695520E+05 -3.749642E+04  2.667064E+03 -2.450887E+02 -1.548770E+04
       177   2 -7.291486E+02 -2.687198E+05 -3.053445E+04 -6.817809E+02 -3.494435E+02 -9.682751E+02
       177   3 -9.581546E+03 -2.740570E+05 -3.730552E+04 -5.209785E+03 -4.342637E+02  1.355110E+04
       177   4 -7.537928E+03 -2.636538E+05 -3.613590E+04 -1.311769E+03 -2.449840E+02 -1.540488E+04
       177   5  1.276083E+03 -2.605703E+05 -2.866020E+04 -7.221907E+02 -3.494386E+02 -8.995087E+02
       177   6 -7.020063E+03 -2.636537E+05 -3.490768E+04 -1.311786E+03 -4.341743E+02  1.360587E+04
       177   7 -6.086385E+03 -2.577554E+05 -3.477538E+04 -5.290641E+03 -2.448805E+02 -1.532206E+04
       177   8  3.281311E+03 -2.524206E+05 -2.678596E+04 -7.626010E+02 -3.494336E+02 -8.307413E+02
       177   9 -4.458531E+03 -2.532502E+05 -3.250985E+04  2.586280E+03 -4.340842E+02  1.366064E+04
       177  10 -8.989479E+03 -2.695523E+05 -3.749687E+04  2.667061E+03 -8.490451E-11 -3.502421E-10
       177  11 -7.291490E+02 -2.687198E+05 -3.053445E+04 -6.817811E+02  1.596245E-10 -9.221986E-11
       177  12 -9.581595E+03 -2.740572E+05 -3.730586E+04 -5.209781E+03 -2.248453E-10 -1.041489E-10
       177  13 -7.537992E+03 -2.636540E+05 -3.613635E+04 -1.311772E+03 -6.603079E-10  6.553731E-11
       177  14  1.276083E+03 -2.605703E+05 -2.866020E+04 -7.221909E+02 -5.096367E-10  1.060966E-10
       177  15 -7.020113E+03 -2.636539E+05 -3.490803E+04 -1.311781E+03  2.477426E-10  2.191584E-10
       177  16 -6.086449E+03 -2.577557E+05 -3.477582E+04 -5.290644E+03  3.193119E-10  3.425559E-10
       177  17  3.281311E+03 -2.524206E+05 -2.678596E+04 -7.626013E+02  4.112657E-10  1.423257E-10
       177  18 -4.458582E+03 -2.532504E+05 -3.251020E+04  2.586284E+03  4.362085E-10  7.145959E-12
       177  19 -8.989414E+03 -2.695520E+05 -3.749642E+04  2.667064E+03  2.450887E+02  1.548770E+04
       177  20 -7.291486E+02 -2.687198E+05 -3.053445E+04 -6.817809E+02  3.494435E+02  9.682751E+02
       177  21 -9.581546E+03 -2.740570E+05 -3.730552E+04 -5.209785E+03  4.342637E+02 -1.355110E+04
       177  22 -7.537928E+03 -2.636538E+05 -3.613590E+04 -1.311769E+03  2.449840E+02  1.540488E+04
       177  23  1.276083E+03 -2.605703E+05 -2.866020E+04 -7.221907E+02  3.494386E+02  8.995087E+02
       177  24 -7.020063E+03 -2.636537E+05 -3.490768E+04 -1.311786E+03  4.341743E+02 -1.360587E+04
       177  25 -6.086385E+03 -2.577554E+05 -3.477538E+04 -5.290641E+03  2.448805E+02  1.532206E+04
       177  26  3.281311E+03 -2.524206E+05 -2.678596E+04 -7.626010E+02  3.494336E+02  8.307413E+02
       177  27 -4.458531E+03 -2.532502E+05 -3.250985E+04  2.586280E+03  4.340842E+02 -1.366064E+04
       178   1  1.825367E+03 -2.817858E+05 -4.215828E+04  1.344301E+04 -5.497261E+02  1.957061E+04
       178   2  3.319733E+03 -2.684022E+05 -6.111995E+04 -1.391266E+04 -5.918964E+02  5.062428E+04
       178   3 -1.040764E+05 -2.862875E+05 -1.275251E+05 -4.242093E+04 -1.965630E+02  8.167756E+04
       178   4  4.913720E+03 -2.692173E+05 -3.927423E+04 -1.308771E+03 -5.501769E+02  1.976025E+04
       178   5  6.964007E+03 -2.536156E+05 -5.770044E+04 -7.274867E+02 -5.908299E+02  5.049765E+04
       178   6 -9.982278E+04 -2.692289E+05 -1.233501E+05 -1.300218E+03 -1.911881E+02  8.123479E+04
       178   7  8.002880E+03 -2.566481E+05 -3.639006E+04 -1.606085E+04 -5.506367E+02  1.994990E+04
       178   8  1.060892E+04 -2.388285E+05 -5.428085E+04  1.245800E+04 -5.897688E+02  5.037102E+04
       178   9 -9.556284E+04 -2.521663E+05 -1.191742E+05  3.982163E+04 -1.858719E+02  8.079201E+04
       178  10  1.825264E+03 -2.817862E+05 -4.215901E+04  1.344302E+04  1.060203E-10 -5.694625E-10
       178  11  3.319044E+03 -2.684050E+05 -6.112477E+04 -1.391263E+04 -2.684135E-10 -5.237172E-12
       178  12 -1.040782E+05 -2.862947E+05 -1.275376E+05 -4.242092E+04 -1.871486E-10  1.756253E-10
       178  13  4.913615E+03 -2.692177E+05 -3.927496E+04 -1.308762E+03  2.226267E-10  8.341397E-11
       178  14  6.963321E+03 -2.536184E+05 -5.770523E+04 -7.274627E+02 -3.835988E-10  5.553011E-11
       178  15 -9.982455E+04 -2.692360E+05 -1.233625E+05 -1.300205E+03 -1.534831E-10  2.210173E-10
       178  16  8.002773E+03 -2.566486E+05 -3.639081E+04 -1.606084E+04  5.071847E-10  5.605758E-10
       178  17  1.060824E+04 -2.388312E+05 -5.428562E+04  1.245802E+04 -2.540279E-10  2.264095E-11
       178  18 -9.556459E+04 -2.521733E+05 -1.191864E+05  3.982164E+04 -2.567499E-10 -2.239051E-10
       178  19  1.825367E+03 -2.817858E+05 -4.215828E+04  1.344301E+04  5.497261E+02 -1.957061E+04
       178  20  3.319733E+03 -2.684022E+05 -6.111995E+04 -1.391266E+04  5.918964E+02 -5.062428E+04
       178  21 -1.040764E+05 -2.862875E+05 -1.275251E+05 -4.242093E+04  1.965630E+02 -8.167756E+04
       178  22  4.913720E+03 -2.692173E+05 -3.927423E+04 -1.308771E+03  5.501769E+02 -1.976025E+04
       178  23  6.964007E+03 -2.536156E+05 -5.770044E+04 -7.274867E+02  5.908299E+02 -5.049765E+04
       178  24 -9.982278E+04 -2.692289E+05 -1.233501E+05 -1.300218E+03  1.911881E+02 -8.123479E+04
       178  25  8.002880E+03 -2.566481E+05 -3.639006E+04 -1.606085E+04  5.506367E+02 -1.994990E+04
       178  26  1.060892E+04 -2.388285E+05 -5.428085E+04  1.245800E+04  5.897688E+02 -5.037102E+04
       178  27 -9.556284E+04 -2.521663E+05 -1.191742E+05  3.982163E+04  1.858719E+02 -8.079201E+04
       179   1  2.549520E+05  1.356585E+05 -7.489128E+01  1.964889E+05  2.123537E+04  1.874882E+04
       179   2  2.622650E+05  1.209300E+05 -1.673312E+04  2.245624E+05  1.226368E+04  1.753663E+04
       179   3  3.081210E+05  1.214358E+05 -1.769663E+04  2.332976E+05  6.406852E+03  1.216956E+04
       179   4  4.158534E+05  2.234932E+05  4.863308E+04  2.637599E+05  2.528113E+04  2.178144E+04
       179   5  3.887623E+05  2.022111E+05  2.179990E+04  2.834381E+05  1.331365E+04  1.832344E+04
       179   6  4.008579E+05  1.968073E+05  1.325628E+04  2.837791E+05  4.461205E+03  1.071115E+04
       179   7  5.767815E+05  3.113341E+05  9.733800E+04  3.310475E+05  2.932831E+04  2.481479E+04
       179   8  5.152763E+05  2.834986E+05  6.033093E+04  3.423264E+05  1.436390E+04  1.911044E+04
       179   9  4.936039E+05  2.721854E+05  4.420802E+04  3.342697E+05  2.515167E+03  9.252386E+03
       179  10  2.549514E+05  1.356580E+05 -7.639830E+01  1.964886E+05 -1.727939E-11  5.167804E-11
       179  11  2.622648E+05  1.209296E+05 -1.673398E+04  2.245622E+05 -3.447237E-10 -8.713540E-11
       179  12  3.081209E+05  1.214356E+05 -1.769698E+04  2.332975E+05 -6.982867E-10 -3.018994E-10
       179  13  4.158526E+05  2.234925E+05  4.863099E+04  2.637595E+05 -3.235514E-11 -3.233344E-11
       179  14  3.887621E+05  2.022107E+05  2.179894E+04  2.834379E+05 -9.522040E-10  8.270102E-11
       179  15  4.008578E+05  1.968072E+05  1.325603E+04  2.837791E+05 -2.131140E-10  1.644617E-10
       179  16  5.767804E+05  3.113332E+05  9.733523E+04  3.310470E+05  6.424293E-11 -1.231409E-10
       179  17  5.152760E+05  2.834981E+05  6.032986E+04  3.423262E+05  6.496837E-11 -5.110329E-11
       179  18  4.936039E+05  2.721853E+05  4.420785E+04  3.342697E+05  6.883271E-10  2.945445E-10
       179  19  2.549520E+05  1.356585E+05 -7.489128E+01  1.964889E+05 -2.123537E+04 -1.874882E+04
       179  20  2.622650E+05  1.209300E+05 -1.673312E+04  2.245624E+05 -1.226368E+04 -1.753663E+04
       179  21  3.081210E+05  1.214358E+05 -1.769663E+04  2.332976E+05 -6.406852E+03 -1.216956E+04
       179  22  4.158534E+05  2.234932E+05  4.863308E+04  2.637599E+05 -2.528113E+04 -2.178144E+04
       179  23  3.887623E+05  2.022111E+05  2.179990E+04  2.834381E+05 -1.331365E+04 -1.832344E+04
       179  24  4.008579E+05  1.968073E+05  1.325628E+04  2.837791E+05 -4.461205E+03 -1.071115E+04
       179  25  5.767815E+05  3.113341E+05  9.733800E+04  3.310475E+05 -2.932831E+04 -2.481479E+04
       179  26  5.152763E+05  2.834986E+05  6.033093E+04  3.423264E+05 -1.436390E+04 -1.911044E+04
       179  27  4.936039E+05  2.721854E+05  4.420802E+04  3.342697E+05 -2.515167E+03 -9.252386E+03
       180   1  3.242001E+05  1.462290E+05 -1.325791E+04  2.426854E+05  4.464373E+03  8.805612E+03
       180   2  3.386263E+05  1.677698E+05 -1.072405E+04  2.576132E+05  2.990549E+03  6.103801E+03
       180   3  3.710175E+05  1.757944E+05 -5.551700E+03  2.668569E+05  1.669203E+03  3.198033E+03
       180   4  4.011533E+05  1.991863E+05  1.074570E+04  2.801368E+05  3.801770E+03  8.308876E+03
       180   5  3.915974E+05  2.049339E+05  5.903154E+03  2.837259E+05  2.180708E+03  5.496776E+03
       180   6  4.000370E+05  1.971968E+05  3.826329E+03  2.816304E+05  7.122440E+02  2.480829E+03
       180   7  4.781135E+05  2.521470E+05  3.474879E+04  3.175937E+05  3.139050E+03  7.812055E+03
       180   8  4.445715E+05  2.420995E+05  2.253002E+04  3.098411E+05  1.370773E+03  4.889681E+03
       180   9  4.290571E+05  2.185995E+05  1.320418E+04  2.964045E+05 -2.447681E+02  1.763582E+03
       180  10  3.242000E+05  1.462289E+05 -1.325810E+04  2.426853E+05 -6.869642E-10 -2.297378E-11
       180  11  3.386263E+05  1.677698E+05 -1.072414E+04  2.576132E+05 -8.030164E-10 -2.111236E-10
       180  12  3.710175E+05  1.757944E+05 -5.551724E+03  2.668569E+05 -4.390952E-10  3.369201E-10
       180  13  4.011533E+05  1.991862E+05  1.074554E+04  2.801368E+05  2.920401E-10 -2.236846E-10
       180  14  3.915974E+05  2.049339E+05  5.903088E+03  2.837259E+05  2.764270E-10  1.570772E-10
       180  15  4.000370E+05  1.971968E+05  3.826316E+03  2.816304E+05  2.269516E-09  9.239618E-10
       180  16  4.781135E+05  2.521469E+05  3.474866E+04  3.175937E+05 -3.815745E-10 -8.940933E-11
       180  17  4.445715E+05  2.420994E+05  2.252997E+04  3.098411E+05  1.661391E-09  4.587542E-10
       180  18  4.290571E+05  2.185995E+05  1.320417E+04  2.964045E+05  3.942752E-09  2.009579E-09
       180  19  3.242001E+05  1.462290E+05 -1.325791E+04  2.426854E+05 -4.464373E+03 -8.805612E+03
       180  20  3.386263E+05  1.677698E+05 -1.072405E+04  2.576132E+05 -2.990549E+03 -6.103801E+03
       180  21  3.710175E+05  1.757944E+05 -5.551700E+03  2.668569E+05 -1.669203E+03 -3.198033E+03
       180  22  4.011533E+05  1.991863E+05  1.074570E+04  2.801368E+05 -3.801770E+03 -8.308876E+03
       180  23  3.915974E+05  2.049339E+05  5.903154E+03  2.837259E+05 -2.180708E+03 -5.496776E+03
       180  24  4.000370E+05  1.971968E+05  3.826329E+03  2.816304E+05 -7.122440E+02 -2.480829E+03
       180  25  4.781135E+05  2.521470E+05  3.474879E+04  3.175937E+05 -3.139050E+03 -7.812055E+03
       180  26  4.445715E+05  2.420995E+05  2.253002E+04  3.098411E+05 -1.370773E+03 -4.889681E+03
       180  27  4.290571E+05  2.185995E+05  1.320418E+04  2.964045E+05  2.447681E+02 -1.763582E+03
       181   1  3.927196E+05  1.922813E+05  1.065375E+03  2.777709E+05  1.675299E+03  2.019637E+03
       181   2  4.078040E+05  2.164777E+05  7.745756E+03  2.916841E+05  1.525841E+03 -3.522785E+01
       181   3  4.392747E+05  2.250732E+05  1.542724E+04  3.008243E+05  1.375189E+03 -2.088518E+03
       181   4  4.000313E+05  1.973530E+05  3.265583E+03  2.813631E+05  7.783383E+02  1.347414E+03
       181   5  3.918358E+05  2.051489E+05  2.713814E+03  2.837536E+05  6.300154E+02 -7.066258E+02
       181   6  4.000257E+05  1.973431E+05  3.162149E+03  2.813704E+05  4.805490E+02 -2.759053E+03
       181   7  4.073430E+05  2.024248E+05  5.465791E+03  2.849554E+05 -1.186365E+02  6.751809E+02
       181   8  3.758678E+05  1.938203E+05 -2.318178E+03  2.758233E+05 -2.657821E+02 -1.378003E+03
       181   9  3.607780E+05  1.696137E+05 -9.103231E+03  2.619177E+05 -4.140214E+02 -3.429536E+03
       181  10  3.927196E+05  1.922813E+05  1.065362E+03  2.777709E+05  3.418745E-09  2.485991E-09
       181  11  4.078040E+05  2.164777E+05  7.745752E+03  2.916841E+05  7.648968E-10  6.640128E-10
       181  12  4.392747E+05  2.250732E+05  1.542723E+04  3.008243E+05 -9.584819E-10 -5.958924E-10
       181  13  4.000313E+05  1.973530E+05  3.265579E+03  2.813631E+05  2.252952E-09  1.009132E-09
       181  14  3.918358E+05  2.051489E+05  2.713812E+03  2.837536E+05  2.115081E-10 -1.442463E-10
       181  15  4.000257E+05  1.973431E+05  3.162134E+03  2.813704E+05 -4.408395E-10  1.047108E-11
       181  16  4.073430E+05  2.024248E+05  5.465790E+03  2.849554E+05  3.738521E-10  5.069566E-11
       181  17  3.758678E+05  1.938203E+05 -2.318181E+03  2.758233E+05 -1.659851E-10 -3.209337E-10
       181  18  3.607780E+05  1.696137E+05 -9.103254E+03  2.619177E+05  3.251346E-10  3.486891E-10
       181  19  3.927196E+05  1.922813E+05  1.065375E+03  2.777709E+05 -1.675299E+03 -2.019637E+03
       181  20  4.078040E+05  2.164777E+05  7.745756E+03  2.916841E+05 -1.525841E+03  3.522785E+01
       181  21  4.392747E+05  2.250732E+05  1.542724E+04  3.008243E+05 -1.375189E+03  2.088518E+03
       181  22  4.000313E+05  1.973530E+05  3.265583E+03  2.813631E+05 -7.783383E+02 -1.347414E+03
       181  23  3.918358E+05  2.051489E+05  2.713814E+03  2.837536E+05 -6.300154E+02  7.066258E+02
       181  24  4.000257E+05  1.973431E+05  3.162149E+03  2.813704E+05 -4.805490E+02  2.759053E+03
       181  25  4.073430E+05  2.024248E+05  5.465791E+03  2.849554E+05  1.186365E+02 -6.751809E+02
       181  26  3.758678E+05  1.938203E+05 -2.318178E+03  2.758233E+05  2.657821E+02  1.378003E+03
       181  27  3.607780E+05  1.696137E+05 -9.103231E+03  2.619177E+05  4.140214E+02  3.429536E+03
       182   1  4.610508E+05  2.412456E+05  2.311583E+04  3.122596E+05  1.538149E+03 -3.157951E+03
       182   2  4.765666E+05  2.648505E+05  3.230013E+04  3.257491E+05  1.796112E+01 -6.205848E+03
       182   3  5.100314E+05  2.748293E+05  4.424995E+04  3.336099E+05 -1.686202E+03 -9.008091E+03
       182   4  4.000365E+05  1.971908E+05  3.666388E+03  2.816164E+05  5.692596E+02 -3.884181E+03
       182   5  3.916046E+05  2.049556E+05  5.585325E+03  2.837304E+05 -7.735376E+02 -6.799229E+03
       182   6  4.010833E+05  1.990562E+05  1.011658E+04  2.802156E+05 -2.300209E+03 -9.468524E+03
       182   7  3.390268E+05  1.531384E+05 -1.578335E+04  2.509768E+05 -3.994927E+02 -4.610305E+03
       182   8  3.066506E+05  1.450648E+05 -2.113025E+04  2.417184E+05 -1.564886E+03 -7.392498E+03
       182   9  2.921478E+05  1.232892E+05 -2.401822E+04  2.268316E+05 -2.914070E+03 -9.928850E+03
       182  10  4.610508E+05  2.412456E+05  2.311580E+04  3.122596E+05 -3.370060E-10  7.353646E-11
       182  11  4.765666E+05  2.648505E+05  3.230006E+04  3.257491E+05 -8.582881E-10  2.965362E-10
       182  12  5.100314E+05  2.748292E+05  4.424979E+04  3.336099E+05 -1.478033E-10  2.456315E-11
       182  13  4.000365E+05  1.971908E+05  3.666359E+03  2.816164E+05  2.014689E-10  7.788711E-11
       182  14  3.916046E+05  2.049556E+05  5.585237E+03  2.837304E+05  4.907567E-12 -5.020704E-11
       182  15  4.010832E+05  1.990561E+05  1.011641E+04  2.802155E+05 -4.277784E-10  1.902641E-10
       182  16  3.390268E+05  1.531384E+05 -1.578339E+04  2.509768E+05 -2.095557E-10  2.243215E-10
       182  17  3.066506E+05  1.450647E+05 -2.113036E+04  2.417184E+05  4.608262E-10 -1.499904E-10
       182  18  2.921478E+05  1.232891E+05 -2.401842E+04  2.268316E+05  1.863027E-10  2.412052E-10
       182  19  4.610508E+05  2.412456E+05  2.311583E+04  3.122596E+05 -1.538149E+03  3.157951E+03
       182  20  4.765666E+05  2.648505E+05  3.230013E+04  3.257491E+05 -1.796112E+01  6.205848E+03
       182  21  5.100314E+05  2.748293E+05  4.424995E+04  3.336099E+05  1.686202E+03  9.008091E+03
       182  22  4.000365E+05  1.971908E+05  3.666388E+03  2.816164E+05 -5.692596E+02  3.884181E+03
       182  23  3.916046E+05  2.049556E+05  5.585325E+03  2.837304E+05  7.735376E+02  6.799229E+03
       182  24  4.010833E+05  1.990562E+05  1.011658E+04  2.802156E+05  2.300209E+03  9.468524E+03
       182  25  3.390268E+05  1.531384E+05 -1.578335E+04  2.509768E+05  3.994927E+02  4.610305E+03
       182  26  3.066506E+05  1.450648E+05 -2.113025E+04  2.417184E+05  1.564886E+03  7.392498E+03
       182  27  2.921478E+05  1.232892E+05 -2.401822E+04  2.268316E+05  2.914070E+03  9.928850E+03
       183   1  5.260044E+05  2.946695E+05  5.351736E+04  3.499955E+05 -6.260870E+02 -1.028231E+04
       183   2  5.473211E+05  3.068433E+05  6.920536E+04  3.584249E+05 -1.262765E+04 -2.005693E+04
       183   3  6.072338E+05  3.337202E+05  1.052110E+05  3.484059E+05 -2.839025E+04 -2.481841E+04
       183   4  4.008040E+05  1.968233E+05  1.246924E+04  2.836383E+05 -2.789548E+03 -1.190442E+04
       183   5  3.889401E+05  2.023929E+05  2.048472E+04  2.834594E+05 -1.117471E+04 -1.896788E+04
       183   6  4.148929E+05  2.218873E+05  4.568604E+04  2.648302E+05 -2.332034E+04 -2.101724E+04
       183   7  2.756194E+05  9.898725E+04 -2.858128E+04  2.172963E+05 -4.952435E+03 -1.352603E+04
       183   8  2.305859E+05  9.795372E+04 -2.823885E+04  2.085146E+05 -9.722269E+03 -1.787917E+04
       183   9  2.225929E+05  1.100669E+05 -1.384255E+04  1.812814E+05 -1.825263E+04 -1.721733E+04
       183  10  5.260044E+05  2.946694E+05  5.351716E+04  3.499954E+05  5.135411E-10  1.699695E-10
       183  11  5.473208E+05  3.068428E+05  6.920431E+04  3.584247E+05  1.414354E-10  1.350115E-12
       183  12  6.072328E+05  3.337193E+05  1.052084E+05  3.484054E+05  4.060872E-10  1.796236E-10
       183  13  4.008040E+05  1.968232E+05  1.246896E+04  2.836382E+05 -3.763358E-11  1.321736E-10
       183  14  3.889398E+05  2.023925E+05  2.048381E+04  2.834592E+05  6.274700E-11 -9.413530E-11
       183  15  4.148922E+05  2.218867E+05  4.568419E+04  2.648298E+05  3.665205E-10  1.855029E-10
       183  16  2.756194E+05  9.898705E+04 -2.858167E+04  2.172963E+05 -1.499114E-10  7.367873E-11
       183  17  2.305857E+05  9.795335E+04 -2.823963E+04  2.085145E+05  5.104440E-10 -6.709611E-11
       183  18  2.225925E+05  1.100665E+05 -1.384373E+04  1.812811E+05 -6.982181E-11  1.487689E-11
       183  19  5.260044E+05  2.946695E+05  5.351736E+04  3.499955E+05  6.260870E+02  1.028231E+04
       183  20  5.473211E+05  3.068433E+05  6.920536E+04  3.584249E+05  1.262765E+04  2.005693E+04
       183  21  6.072338E+05  3.337202E+05  1.052110E+05  3.484059E+05  2.839025E+04  2.481841E+04
       183  22  4.008040E+05  1.968233E+05  1.246924E+04  2.836383E+05  2.789548E+03  1.190442E+04
       183  23  3.889401E+05  2.023929E+05  2.048472E+04  2.834594E+05  1.117471E+04  1.896788E+04
       183  24  4.148929E+05  2.218873E+05  4.568604E+04  2.648302E+05  2.332034E+04  2.101724E+04
       183  25  2.756194E+05  9.898725E+04 -2.858128E+04  2.172963E+05  4.952435E+03  1.352603E+04
       183  26  2.305859E+05  9.795372E+04 -2.823885E+04  2.085146E+05  9.722269E+03  1.787917E+04
       183  27  2.225929E+05  1.100669E+05 -1.384255E+04  1.812814E+05  1.825263E+04  1.721733E+04
       184   1  2.632263E+05  1.498184E+04 -5.018406E+03  1.539699E+04 -5.767894E+04 -4.137206E+03
       184   2  1.907797E+05  7.849241E+04  2.411513E+04  1.586573E+04 -4.128655E+04 -1.178247E+04
       184   3  9.494344E+04  5.673768E+04  2.127700E+04  5.997527E+04 -2.489697E+04 -9.210014E+03
       184   4 -1.179427E+05 -7.991942E+04 -9.836352E+04  4.819111E+04 -6.683672E+04 -4.140340E+03
       184   5 -1.055905E+05  5.511079E+03 -4.445245E+04  2.636755E+04 -4.309909E+04 -1.178374E+04
       184   6 -1.179260E+05  4.376214E+03 -2.762845E+04  4.818850E+04 -1.936178E+04 -9.208425E+03
       184   7 -4.989768E+05 -1.748273E+05 -1.917184E+05  8.096507E+04 -7.598888E+04 -4.144443E+03
       184   8 -4.018793E+05 -6.747600E+04 -1.130258E+05  3.686432E+04 -4.491076E+04 -1.178506E+04
       184   9 -3.307532E+05 -4.798788E+04 -7.653669E+04  3.640581E+04 -1.382848E+04 -9.207046E+03
       184  10  2.632227E+05  1.498093E+04 -5.024688E+03  1.539679E+04  7.676253E-12  1.234511E-10
       184  11  1.907778E+05  7.849180E+04  2.411167E+04  1.586534E+04 -3.221936E-10  1.087242E-10
       184  12  9.494275E+04  5.673743E+04  2.127567E+04  5.997508E+04 -1.980735E-10 -5.127129E-11
       184  13 -1.179475E+05 -7.992063E+04 -9.837195E+04  4.819089E+04 -6.091292E-10 -6.330877E-11
       184  14 -1.055925E+05  5.510432E+03 -4.445620E+04  2.636714E+04 -7.377010E-10  2.535602E-10
       184  15 -1.179265E+05  4.376022E+03 -2.762931E+04  4.818836E+04  2.248755E-10  1.180632E-10
       184  16 -4.989830E+05 -1.748289E+05 -1.917293E+05  8.096482E+04  3.533918E-10 -1.246435E-11
       184  17 -4.018815E+05 -6.747670E+04 -1.130299E+05  3.686390E+04  1.661490E-10  1.018381E-10
       184  18 -3.307534E+05 -4.798802E+04 -7.653721E+04  3.640571E+04 -6.139705E-11 -1.751348E-11
       184  19  2.632263E+05  1.498184E+04 -5.018406E+03  1.539699E+04  5.767894E+04  4.137206E+03
       184  20  1.907797E+05  7.849241E+04  2.411513E+04  1.586573E+04  4.128655E+04  1.178247E+04
       184  21  9.494344E+04  5.673768E+04  2.127700E+04  5.997527E+04  2.489697E+04  9.210014E+03
       184  22 -1.179427E+05 -7.991942E+04 -9.836352E+04  4.819111E+04  6.683672E+04  4.140340E+03
       184  23 -1.055905E+05  5.511079E+03 -4.445245E+04  2.636755E+04  4.309909E+04  1.178374E+04
       184  24 -1.179260E+05  4.376214E+03 -2.762845E+04  4.818850E+04  1.936178E+04  9.208425E+03
       184  25 -4.989768E+05 -1.748273E+05 -1.917184E+05  8.096507E+04  7.598888E+04  4.144443E+03
       184  26 -4.018793E+05 -6.747600E+04 -1.130258E+05  3.686432E+04  4.491076E+04  1.178506E+04
       184  27 -3.307532E+05 -4.798788E+04 -7.653669E+04  3.640581E+04  1.382848E+04  9.207046E+03
       185   1  1.914764E+04  2.658807E+04  7.563171E+03  4.616710E+04 -1.760661E+04 -5.592587E+03
       185   2 -6.359516E+04  1.239589E+04 -2.918696E+03  2.572765E+04 -1.088908E+04 -2.029381E+03
       185   3 -1.489901E+05 -8.849514E+03 -1.954228E+04  4.932283E+04 -4.172906E+03  2.005254E+03
       185   4 -1.130384E+05 -5.934775E+03 -2.286590E+04  4.827734E+04 -1.521049E+04 -5.592050E+03
       185   5 -1.116773E+05  5.645434E+02 -1.399067E+04  2.625900E+04 -8.155056E+03 -2.028618E+03
       185   6 -1.130359E+05 -4.854589E+01 -1.149308E+04  4.827576E+04 -1.100083E+03  2.006251E+03
       185   7 -2.452083E+05 -3.845882E+04 -5.329611E+04  5.038712E+04 -1.281488E+04 -5.591496E+03
       185   8 -1.597573E+05 -1.126696E+04 -2.506277E+04  2.679031E+04 -5.421238E+03 -2.027849E+03
       185   9 -7.708033E+04  8.752344E+03 -3.443931E+03  4.722863E+04  1.972917E+03  2.007237E+03
       185  10  1.914730E+04  2.658796E+04  7.562529E+03  4.616702E+04 -4.358988E-10  3.111513E-10
       185  11 -6.359529E+04  1.239586E+04 -2.918927E+03  2.572763E+04 -4.757234E-10 -4.069247E-10
       185  12 -1.489902E+05 -8.849523E+03 -1.954232E+04  4.932284E+04  4.621930E-10  8.022846E-11
       185  13 -1.130387E+05 -5.934871E+03 -2.286640E+04  4.827727E+04  2.078641E-12  1.470076E-10
       185  14 -1.116774E+05  5.645212E+02 -1.399080E+04  2.625899E+04  3.239548E-10  3.264565E-11
       185  15 -1.130359E+05 -4.855054E+01 -1.149309E+04  4.827576E+04  5.730892E-11 -1.119282E-10
       185  16 -2.452084E+05 -3.845890E+04 -5.329648E+04  5.038706E+04  7.912213E-10 -1.746667E-10
       185  17 -1.597574E+05 -1.126697E+04 -2.506283E+04  2.679031E+04  1.296834E-10  1.573041E-10
       185  18 -7.708034E+04  8.752338E+03 -3.443946E+03  4.722863E+04 -5.145887E-10  1.217786E-10
       185  19  1.914764E+04  2.658807E+04  7.563171E+03  4.616710E+04  1.760661E+04  5.592587E+03
       185  20 -6.359516E+04  1.239589E+04 -2.918696E+03  2.572765E+04  1.088908E+04  2.029381E+03
       185  21 -1.489901E+05 -8.849514E+03 -1.954228E+04  4.932283E+04  4.172906E+03 -2.005254E+03
       185  22 -1.130384E+05 -5.934775E+03 -2.286590E+04  4.827734E+04  1.521049E+04  5.592050E+03
       185  23 -1.116773E+05  5.645434E+02 -1.399067E+04  2.625900E+04  8.155056E+03  2.028618E+03
       185  24 -1.130359E+05 -4.854589E+01 -1.149308E+04  4.827576E+04  1.100083E+03 -2.006251E+03
       185  25 -2.452083E+05 -3.845882E+04 -5.329611E+04  5.038712E+04  1.281488E+04  5.591496E+03
       185  26 -1.597573E+05 -1.126696E+04 -2.506277E+04  2.679031E+04  5.421238E+03  2.027849E+03
       185  27 -7.708033E+04  8.752344E+03 -3.443931E+03  4.722863E+04 -1.972917E+03 -2.007237E+03
       186   1 -2.295145E+05 -2.876445E+04 -3.845312E+04  4.721019E+04 -2.211276E+03  4.561009E+03
       186   2 -3.121873E+05 -4.878537E+04 -5.994356E+04  2.677047E+04  5.238562E+03  8.577504E+03
       186   3 -3.975891E+05 -7.588900E+04 -8.805677E+04  5.034712E+04  1.268879E+04  1.192912E+04
       186   4 -1.130234E+05 -6.286208E+01 -1.146265E+04  4.827160E+04  9.175782E+02  4.561903E+03
       186   5 -1.117030E+05  5.437048E+02 -1.383003E+04  2.626422E+04  7.890599E+03  8.577847E+03
       186   6 -1.130327E+05 -5.847388E+03 -2.248668E+04  4.827253E+04  1.486500E+04  1.192899E+04
       186   7  3.480225E+03  2.863779E+04  1.552695E+04  4.933321E+04  4.047015E+03  4.562809E+03
       186   8  8.881848E+04  4.986998E+04  3.228086E+04  2.575781E+04  1.054349E+04  8.578186E+03
       186   9  1.715986E+05  6.418857E+04  4.307805E+04  4.619697E+04  1.704219E+04  1.192885E+04
       186  10 -2.295145E+05 -2.876448E+04 -3.845317E+04  4.721020E+04  7.769015E-10 -8.453422E-11
       186  11 -3.121873E+05 -4.878546E+04 -5.994375E+04  2.677043E+04 -4.266153E-10 -2.734388E-10
       186  12 -3.975893E+05 -7.588919E+04 -8.805734E+04  5.034700E+04 -1.843117E-10 -9.542869E-12
       186  13 -1.130234E+05 -6.288465E+01 -1.146269E+04  4.827159E+04  5.369268E-10 -2.668378E-10
       186  14 -1.117031E+05  5.436091E+02 -1.383029E+04  2.626417E+04  1.430082E-10 -4.230706E-10
       186  15 -1.130330E+05 -5.847600E+03 -2.248736E+04  4.827239E+04  5.531921E-10  6.080725E-11
       186  16  3.480202E+03  2.863776E+04  1.552688E+04  4.933319E+04  1.624060E-11 -3.599023E-10
       186  17  8.881834E+04  4.986987E+04  3.228051E+04  2.575774E+04  5.101762E-10 -4.559513E-11
       186  18  1.715982E+05  6.418834E+04  4.307724E+04  4.619681E+04  4.918307E-10  1.902150E-10
       186  19 -2.295145E+05 -2.876445E+04 -3.845312E+04  4.721019E+04  2.211276E+03 -4.561009E+03
       186  20 -3.121873E+05 -4.878537E+04 -5.994356E+04  2.677047E+04 -5.238562E+03 -8.577504E+03
       186  21 -3.975891E+05 -7.588900E+04 -8.805677E+04  5.034712E+04 -1.268879E+04 -1.192912E+04
       186  22 -1.130234E+05 -6.286208E+01 -1.146265E+04  4.827160E+04 -9.175782E+02 -4.561903E+03
       186  23 -1.117030E+05  5.437048E+02 -1.383003E+04  2.626422E+04 -7.890599E+03 -8.577847E+03
       186  24 -1.130327E+05 -5.847388E+03 -2.248668E+04  4.827253E+04 -1.486500E+04 -1.192899E+04
       186  25  3.480225E+03  2.863779E+04  1.552695E+04  4.933321E+04 -4.047015E+03 -4.562809E+03
       186  26  8.881848E+04  4.986998E+04  3.228086E+04  2.575781E+04 -1.054349E+04 -8.578186E+03
       186  27  1.715986E+05  6.418857E+04  4.307805E+04  4.619697E+04 -1.704219E+04 -1.192885E+04
       187   1 -4.830437E+05 -8.558051E+04 -1.109917E+05  3.662491E+04  1.249150E+04  1.597488E+04
       187   2 -5.541781E+05 -1.050976E+05 -1.473475E+05  3.678332E+04  4.578780E+04  1.797421E+04
       187   3 -6.511854E+05 -2.112773E+05 -2.270332E+05  8.039550E+04  7.907520E+04  6.054837E+03
       187   4 -1.178162E+05  4.261749E+03 -2.713921E+04  4.815244E+04  1.894579E+04  1.597482E+04
       187   5 -1.057667E+05  5.366915E+03 -4.362646E+04  2.641486E+04  4.224155E+04  1.797308E+04
       187   6 -1.178395E+05 -7.842045E+04 -9.647612E+04  4.813265E+04  6.553337E+04  6.054755E+03
       187   7  2.475353E+05  9.409523E+04  5.670466E+04  5.968680E+04  2.540385E+04  1.597501E+04
       187   8  3.428308E+05  1.158177E+05  6.008120E+04  1.603885E+04  3.869275E+04  1.797207E+04
       187   9  4.157685E+05  5.441933E+04  3.406143E+04  1.584201E+04  5.197990E+04  6.056083E+03
       187  10 -4.830439E+05 -8.558083E+04 -1.109924E+05  3.662474E+04 -6.255326E-11  2.730631E-10
       187  11 -5.541805E+05 -1.050985E+05 -1.473520E+05  3.678266E+04 -2.807477E-10  7.521248E-10
       187  12 -6.511921E+05 -2.112790E+05 -2.270451E+05  8.039512E+04  3.514516E-10  2.842409E-10
       187  13 -1.178166E+05  4.261378E+03 -2.714036E+04  4.815219E+04  3.714707E-10  2.495971E-10
       187  14 -1.057688E+05  5.366089E+03 -4.363042E+04  2.641424E+04  4.149568E-10 -1.743127E-10
       187  15 -1.178441E+05 -7.842164E+04 -9.648426E+04  4.813233E+04  4.173348E-10 -3.163943E-11
       187  16  2.475345E+05  9.409478E+04  5.670297E+04  5.968648E+04  4.438513E-10  3.631737E-10
       187  17  3.428291E+05  1.158169E+05  6.007778E+04  1.603829E+04  6.540785E-10 -1.342394E-10
       187  18  4.157656E+05  5.441857E+04  3.405628E+04  1.584176E+04 -2.797833E-10  3.898101E-10
       187  19 -4.830437E+05 -8.558051E+04 -1.109917E+05  3.662491E+04 -1.249150E+04 -1.597488E+04
       187  20 -5.541781E+05 -1.050976E+05 -1.473475E+05  3.678332E+04 -4.578780E+04 -1.797421E+04
       187  21 -6.511854E+05 -2.112773E+05 -2.270332E+05  8.039550E+04 -7.907520E+04 -6.054837E+03
       187  22 -1.178162E+05  4.261749E+03 -2.713921E+04  4.815244E+04 -1.894579E+04 -1.597482E+04
       187  23 -1.057667E+05  5.366915E+03 -4.362646E+04  2.641486E+04 -4.224155E+04 -1.797308E+04
       187  24 -1.178395E+05 -7.842045E+04 -9.647612E+04  4.813265E+04 -6.553337E+04 -6.054755E+03
       187  25  2.475353E+05  9.409523E+04  5.670466E+04  5.968680E+04 -2.540385E+04 -1.597501E+04
       187  26  3.428308E+05  1.158177E+05  6.008120E+04  1.603885E+04 -3.869275E+04 -1.797207E+04
       187  27  4.157685E+05  5.441933E+04  3.406143E+04  1.584201E+04 -5.197990E+04 -6.056083E+03
       188   1 -1.885604E+05 -6.958564E+05 -2.239985E+05  9.213562E+04 -1.444496E+03 -1.274026E+05
       188   2 -1.220618E+04 -6.204402E+05 -1.095551E+05  3.607720E+04 -3.625348E+03 -7.757252E+04
       188   3 -2.736184E+03 -5.932565E+05 -6.929811E+04  6.731794E+03 -1.729852E+03 -2.773887E+04
       188   4 -1.526219E+05 -5.515397E+05 -1.885565E+05  2.932145E+04 -1.430960E+03 -1.243671E+05
       188   5  1.065381E+04 -5.276601E+05 -8.803611E+04  1.594604E+04 -3.622767E+03 -7.746425E+04
       188   6  7.562561E+03 -5.514992E+05 -5.965668E+04  2.928963E+04 -1.731638E+03 -3.056209E+04
       188   7 -1.166701E+05 -4.071954E+05 -1.531139E+05 -3.350737E+04 -1.418042E+03 -1.213309E+05
       188   8  3.351472E+04 -4.348713E+05 -6.651751E+04 -4.188159E+03 -3.620192E+03 -7.735597E+04
       188   9  1.786310E+04 -5.097393E+05 -5.001505E+04  5.184900E+04 -1.733629E+03 -3.338549E+04
       188  10 -1.885648E+05 -6.958739E+05 -2.240291E+05  9.213548E+04 -3.322942E-11 -6.436283E-11
       188  11 -1.220781E+04 -6.204466E+05 -1.095664E+05  3.607697E+04  5.396836E-10 -2.806425E-10
       188  12 -2.736394E+03 -5.932573E+05 -6.929956E+04  6.731756E+03 -4.449353E-11  1.241437E-11
       188  13 -1.526261E+05 -5.515563E+05 -1.885856E+05  2.932130E+04  1.475307E-11  1.459305E-10
       188  14  1.065218E+04 -5.276666E+05 -8.804742E+04  1.594581E+04  1.976309E-10 -1.943571E-10
       188  15  7.562307E+03 -5.515003E+05 -5.965844E+04  2.928959E+04  2.872011E-11  3.010317E-10
       188  16 -1.166741E+05 -4.072112E+05 -1.531416E+05 -3.350751E+04  1.739679E-10 -3.383649E-11
       188  17  3.351310E+04 -4.348777E+05 -6.652878E+04 -4.188384E+03 -9.708779E-11  1.121892E-10
       188  18  1.786280E+04 -5.097405E+05 -5.001716E+04  5.184895E+04  5.321539E-10  1.585774E-10
       188  19 -1.885604E+05 -6.958564E+05 -2.239985E+05  9.213562E+04  1.444496E+03  1.274026E+05
       188  20 -1.220618E+04 -6.204402E+05 -1.095551E+05  3.607720E+04  3.625348E+03  7.757252E+04
       188  21 -2.736184E+03 -5.932565E+05 -6.929811E+04  6.731794E+03  1.729852E+03  2.773887E+04
       188  22 -1.526219E+05 -5.515397E+05 -1.885565E+05  2.932145E+04  1.430960E+03  1.243671E+05
       188  23  1.065381E+04 -5.276601E+05 -8.803611E+04  1.594604E+04  3.622767E+03  7.746425E+04
       188  24  7.562561E+03 -5.514992E+05 -5.965668E+04  2.928963E+04  1.731638E+03  3.056209E+04
       188  25 -1.166701E+05 -4.071954E+05 -1.531139E+05 -3.350737E+04  1.418042E+03  1.213309E+05
       188  26  3.351472E+04 -4.348713E+05 -6.651751E+04 -4.188159E+03  3.620192E+03  7.735597E+04
       188  27  1.786310E+04 -5.097393E+05 -5.001505E+04  5.184900E+04  1.733629E+03  3.338549E+04
       189   1 -8.911555E+03 -5.355325E+05 -5.111924E+04  3.520514E+04  2.652309E+02 -1.956961E+04
       189   2  1.635856E+04 -4.796652E+05 -2.940485E+04  1.589247E+04  2.516532E+03  2.039562E+03
       189   3  1.603441E+04 -4.330221E+05 -2.816742E+04  2.342745E+04  4.624739E+03  2.365072E+04
       189   4 -1.074756E+04 -5.429573E+05 -5.285019E+04  2.932839E+04  2.649459E+02 -2.123583E+04
       189   5  1.918556E+03 -5.383356E+05 -4.290167E+04  1.590417E+04  2.516162E+03  4.749883E+02
       189   6 -1.102843E+04 -5.429590E+05 -5.350132E+04  2.932827E+04  4.624681E+03  2.218605E+04
       189   7 -1.258343E+04 -5.503821E+05 -5.458111E+04  2.345171E+04  2.646924E+02 -2.290204E+04
       189   8 -1.252168E+04 -5.970029E+05 -5.639871E+04  1.591588E+04  2.515793E+03 -1.089439E+03
       189   9 -3.809199E+04 -6.528847E+05 -7.883601E+04  3.522803E+04  4.624594E+03  2.072164E+04
       189  10 -8.911658E+03 -5.355329E+05 -5.111996E+04  3.520515E+04  1.298900E-10 -3.826936E-10
       189  11  1.635855E+04 -4.796652E+05 -2.940487E+04  1.589246E+04  2.236304E-10 -5.607546E-10
       189  12  1.603424E+04 -4.330227E+05 -2.816851E+04  2.342736E+04  1.550475E-10 -1.821206E-10
       189  13 -1.074768E+04 -5.429578E+05 -5.285104E+04  2.932839E+04 -5.503009E-10  2.931066E-10
       189  14  1.918549E+03 -5.383356E+05 -4.290168E+04  1.590417E+04 -1.873142E-10 -2.009199E-10
       189  15 -1.102859E+04 -5.429596E+05 -5.350229E+04  2.932818E+04  4.775863E-11  2.318551E-10
       189  16 -1.258357E+04 -5.503826E+05 -5.458210E+04  2.345171E+04  2.461197E-10  2.778839E-10
       189  17 -1.252169E+04 -5.970029E+05 -5.639872E+04  1.591588E+04  4.199623E-10  4.654312E-10
       189  18 -3.809213E+04 -6.528852E+05 -7.883685E+04  3.522795E+04 -1.242599E-10  2.854088E-10
       189  19 -8.911555E+03 -5.355325E+05 -5.111924E+04  3.520514E+04 -2.652309E+02  1.956961E+04
       189  20  1.635856E+04 -4.796652E+05 -2.940485E+04  1.589247E+04 -2.516532E+03 -2.039562E+03
       189  21  1.603441E+04 -4.330221E+05 -2.816742E+04  2.342745E+04 -4.624739E+03 -2.365072E+04
       189  22 -1.074756E+04 -5.429573E+05 -5.285019E+04  2.932839E+04 -2.649459E+02  2.123583E+04
       189  23  1.918556E+03 -5.383356E+05 -4.290167E+04  1.590417E+04 -2.516162E+03 -4.749883E+02
       189  24 -1.102843E+04 -5.429590E+05 -5.350132E+04  2.932827E+04 -4.624681E+03 -2.218605E+04
       189  25 -1.258343E+04 -5.503821E+05 -5.458111E+04  2.345171E+04 -2.646924E+02  2.290204E+04
       189  26 -1.252168E+04 -5.970029E+05 -5.639871E+04  1.591588E+04 -2.515793E+03  1.089439E+03
       189  27 -3.809199E+04 -6.528847E+05 -7.883601E+04  3.522803E+04 -4.624594E+03 -2.072164E+04
       190   1  4.692334E+04 -3.926284E+05 -2.404842E+04  5.233521E+04  6.936034E+03  3.517878E+04
       190   2  6.257054E+04 -3.175537E+05 -4.129521E+04 -4.592238E+03  8.380797E+03  7.807824E+04
       190   3 -9.097905E+04 -2.903394E+05 -1.287679E+05 -3.500749E+04  2.885550E+03  1.209818E+05
       190   4  7.764307E+03 -5.517329E+05 -6.060117E+04  2.924987E+04  6.934144E+03  3.163984E+04
       190   5  1.087949E+04 -5.273798E+05 -8.985100E+04  1.599758E+04  8.383730E+03  7.951578E+04
       190   6 -1.561054E+05 -5.517773E+05 -1.928031E+05  2.925876E+04  2.898303E+03  1.273919E+05
       190   7 -3.139449E+04 -7.108128E+05 -9.715526E+04  6.170503E+03  6.932516E+03  2.810179E+04
       190   8 -4.081306E+04 -7.371642E+05 -1.384095E+05  3.658037E+04  8.386759E+03  8.095283E+04
       190   9 -2.212212E+05 -8.131440E+05 -2.568410E+05  9.349789E+04  2.912389E+03  1.337992E+05
       190  10  4.692296E+04 -3.926297E+05 -2.405083E+04  5.233501E+04  2.979341E-10 -4.089895E-10
       190  11  6.256882E+04 -3.175603E+05 -4.130681E+04 -4.592765E+03  1.397926E-10 -4.068678E-11
       190  12 -9.098299E+04 -2.903551E+05 -1.287954E+05 -3.500777E+04 -2.568037E-10  2.259434E-10
       190  13  7.763987E+03 -5.517340E+05 -6.060314E+04  2.924970E+04  1.492747E-10  1.691129E-10
       190  14  1.087771E+04 -5.273866E+05 -8.986303E+04  1.599704E+04 -2.359942E-10 -1.073615E-10
       190  15 -1.561097E+05 -5.517947E+05 -1.928337E+05  2.925847E+04  2.388110E-10 -9.618542E-11
       190  16 -3.139475E+04 -7.108137E+05 -9.715683E+04  6.170346E+03 -4.086953E-10  3.276003E-10
       190  17 -4.081490E+04 -7.371713E+05 -1.384220E+05  3.657983E+04 -2.825232E-10 -9.963168E-12
       190  18 -2.212260E+05 -8.131632E+05 -2.568747E+05  9.349757E+04 -2.798739E-10 -2.436478E-10
       190  19  4.692334E+04 -3.926284E+05 -2.404842E+04  5.233521E+04 -6.936034E+03 -3.517878E+04
       190  20  6.257054E+04 -3.175537E+05 -4.129521E+04 -4.592238E+03 -8.380797E+03 -7.807824E+04
       190  21 -9.097905E+04 -2.903394E+05 -1.287679E+05 -3.500749E+04 -2.885550E+03 -1.209818E+05
       190  22  7.764307E+03 -5.517329E+05 -6.060117E+04  2.924987E+04 -6.934144E+03 -3.163984E+04
       190  23  1.087949E+04 -5.273798E+05 -8.985100E+04  1.599758E+04 -8.383730E+03 -7.951578E+04
       190  24 -1.561054E+05 -5.517773E+05 -1.928031E+05  2.925876E+04 -2.898303E+03 -1.273919E+05
       190  25 -3.139449E+04 -7.108128E+05 -9.715526E+04  6.170503E+03 -6.932516E+03 -2.810179E+04
       190  26 -4.081306E+04 -7.371642E+05 -1.384095E+05  3.658037E+04 -8.386759E+03 -8.095283E+04
       190  27 -2.212212E+05 -8.131440E+05 -2.568410E+05  9.349789E+04 -2.912389E+03 -1.337992E+05
       191   1  8.181834E+05  5.872590E+05  1.792011E+05  5.593722E+05  1.251410E+05  9.712500E+04
       191   2  8.050810E+05  4.370024E+05  6.399949E+04  6.550639E+05  8.031587E+04  6.943682E+04
       191   3  9.348955E+05  4.131198E+05  3.542213E+04  6.698652E+05  3.945400E+04  3.645074E+04
       191   4  1.074488E+06  6.382998E+05  2.394096E+05  6.257448E+05  1.298366E+05  1.006196E+05
       191   5  9.657592E+05  5.090343E+05  1.071580E+05  7.154809E+05  8.116268E+04  7.006591E+04
       191   6  1.000737E+06  5.069342E+05  6.483135E+04  7.243332E+05  3.646104E+04  3.421075E+04
       191   7  1.330875E+06  6.893475E+05  2.996172E+05  6.921322E+05  1.345350E+05  1.041144E+05
       191   8  1.126467E+06  5.810711E+05  1.503148E+05  7.759122E+05  8.200979E+04  7.069513E+04
       191   9  1.066584E+06  6.007623E+05  9.424023E+04  7.788105E+05  3.346765E+04  3.197000E+04
       191  10  8.181641E+05  5.872447E+05  1.791540E+05  5.593624E+05  2.551175E-10 -1.212276E-10
       191  11  8.050728E+05  4.369955E+05  6.397836E+04  6.550594E+05  8.414634E-10  2.253159E-11
       191  12  9.348935E+05  4.131180E+05  3.541672E+04  6.698640E+05  2.728149E-10 -5.877097E-10
       191  13  1.074467E+06  6.382845E+05  2.393590E+05  6.257343E+05 -2.053309E-10  8.272267E-11
       191  14  9.657509E+05  5.090273E+05  1.071365E+05  7.154764E+05  1.101834E-09 -9.525770E-11
       191  15  1.000735E+06  5.069325E+05  6.482666E+04  7.243322E+05 -1.398728E-09 -1.537958E-09
       191  16  1.330852E+06  6.893310E+05  2.995630E+05  6.921209E+05 -8.955518E-11  3.073859E-10
       191  17  1.126458E+06  5.810640E+05  1.502928E+05  7.759075E+05 -1.146262E-09 -4.558650E-10
       191  18  1.066583E+06  6.007609E+05  9.423621E+04  7.788096E+05 -3.559111E-09 -2.493922E-09
       191  19  8.181834E+05  5.872590E+05  1.792011E+05  5.593722E+05 -1.251410E+05 -9.712500E+04
       191  20  8.050810E+05  4.370024E+05  6.399949E+04  6.550639E+05 -8.031587E+04 -6.943682E+04
       191  21  9.348955E+05  4.131198E+05  3.542213E+04  6.698652E+05 -3.945400E+04 -3.645074E+04
       191  22  1.074488E+06  6.382998E+05  2.394096E+05  6.257448E+05 -1.298366E+05 -1.006196E+05
       191  23  9.657592E+05  5.090343E+05  1.071580E+05  7.154809E+05 -8.116268E+04 -7.006591E+04
       191  24  1.000737E+06  5.069342E+05  6.483135E+04  7.243332E+05 -3.646104E+04 -3.421075E+04
       191  25  1.330875E+06  6.893475E+05  2.996172E+05  6.921322E+05 -1.345350E+05 -1.041144E+05
       191  26  1.126467E+06  5.810711E+05  1.503148E+05  7.759122E+05 -8.200979E+04 -7.069513E+04
       191  27  1.066584E+06  6.007623E+05  9.424023E+04  7.788105E+05 -3.346765E+04 -3.197000E+04
       192   1  9.449041E+05  4.862906E+05  3.577692E+04  6.817672E+05  3.160250E+04  2.749492E+04
       192   2  9.689135E+05  5.165997E+05  2.489196E+04  7.124048E+05  2.197241E+04  1.714318E+04
       192   3  1.031880E+06  5.298980E+05  2.707864E+04  7.295078E+05  1.253732E+04  6.529693E+03
       192   4  1.002082E+06  5.187333E+05  5.230408E+04  7.064255E+05  3.025065E+04  2.648142E+04
       192   5  9.798290E+05  5.223036E+05  2.796727E+04  7.168844E+05  2.043047E+04  1.598760E+04
       192   6  9.965705E+05  5.089031E+05  1.686507E+04  7.138072E+05  1.080637E+04  5.232656E+03
       192   7  1.059264E+06  5.511769E+05  6.883079E+04  7.310858E+05  2.889863E+04  2.546784E+04
       192   8  9.907446E+05  5.280076E+05  3.104257E+04  7.213640E+05  1.888850E+04  1.483201E+04
       192   9  9.612626E+05  4.879087E+05  6.651393E+03  6.981074E+05  9.075560E+03  3.935698E+03
       192  10  9.449028E+05  4.862895E+05  3.577363E+04  6.817665E+05 -2.657737E-09 -2.360643E-09
       192  11  9.689129E+05  5.165992E+05  2.489050E+04  7.124045E+05 -1.369431E-10  2.779209E-10
       192  12  1.031879E+06  5.298979E+05  2.707826E+04  7.295077E+05  9.433901E-10  3.361730E-10
       192  13  1.002081E+06  5.187323E+05  5.230105E+04  7.064248E+05 -1.312340E-09 -1.380969E-09
       192  14  9.798285E+05  5.223032E+05  2.796601E+04  7.168841E+05 -1.167379E-09  3.976819E-10
       192  15  9.965703E+05  5.089031E+05  1.686480E+04  7.138071E+05  7.920774E-13  2.782595E-10
       192  16  1.059263E+06  5.511759E+05  6.882800E+04  7.310852E+05 -9.117788E-10 -3.076449E-10
       192  17  9.907442E+05  5.280073E+05  3.104149E+04  7.213637E+05  9.135756E-10  5.747636E-11
       192  18  9.612625E+05  4.879086E+05  6.651210E+03  6.981074E+05 -1.082521E-10 -4.101624E-12
       192  19  9.449041E+05  4.862906E+05  3.577692E+04  6.817672E+05 -3.160250E+04 -2.749492E+04
       192  20  9.689135E+05  5.165997E+05  2.489196E+04  7.124048E+05 -2.197241E+04 -1.714318E+04
       192  21  1.031880E+06  5.298980E+05  2.707864E+04  7.295078E+05 -1.253732E+04 -6.529693E+03
       192  22  1.002082E+06  5.187333E+05  5.230408E+04  7.064255E+05 -3.025065E+04 -2.648142E+04
       192  23  9.798290E+05  5.223036E+05  2.796727E+04  7.168844E+05 -2.043047E+04 -1.598760E+04
       192  24  9.965705E+05  5.089031E+05  1.686507E+04  7.138072E+05 -1.080637E+04 -5.232656E+03
       192  25  1.059264E+06  5.511769E+05  6.883079E+04  7.310858E+05 -2.889863E+04 -2.546784E+04
       192  26  9.907446E+05  5.280076E+05  3.104257E+04  7.213640E+05 -1.888850E+04 -1.483201E+04
       192  27  9.612626E+05  4.879087E+05  6.651393E+03  6.981074E+05 -9.075560E+03 -3.935698E+03
       193   1  1.070247E+06  5.621853E+05  3.687890E+04  7.491097E+05  1.135924E+04  3.493174E+03
       193   2  1.097799E+06  6.062340E+05  4.557330E+04  7.750391E+05  9.558583E+03 -1.444388E+03
       193   3  1.156121E+06  6.220767E+05  5.752605E+04  7.920406E+05  7.752719E+03 -6.374489E+03
       193   4  9.965618E+05  5.096479E+05  1.347700E+04  7.123985E+05  9.697931E+03  2.248160E+03
       193   5  9.810312E+05  5.234923E+05  8.828115E+03  7.170574E+05  7.903113E+03 -2.685334E+03
       193   6  9.962685E+05  5.091278E+05  7.432835E+03  7.127861E+05  6.103424E+03 -7.611087E+03
       193   7  9.228814E+05  4.571130E+05 -9.925762E+03  6.756920E+05  8.036881E+03  1.003339E+03
       193   8  8.642778E+05  4.407581E+05 -2.791875E+04  6.590878E+05  6.248066E+03 -3.925965E+03
       193   9  8.364441E+05  3.961934E+05 -4.266310E+04  6.335550E+05  4.454719E+03 -8.847245E+03
       193  10  1.070247E+06  5.621853E+05  3.687864E+04  7.491097E+05  7.787496E-10 -2.658683E-10
       193  11  1.097799E+06  6.062339E+05  4.557313E+04  7.750392E+05 -1.860616E-10 -7.294644E-10
       193  12  1.156121E+06  6.220767E+05  5.752586E+04  7.920407E+05 -1.077578E-09 -6.461886E-10
       193  13  9.965617E+05  5.096479E+05  1.347681E+04  7.123985E+05  1.187437E-09 -3.189687E-10
       193  14  9.810311E+05  5.234923E+05  8.827985E+03  7.170574E+05  2.946974E-10 -4.429458E-10
       193  15  9.962684E+05  5.091277E+05  7.432656E+03  7.127862E+05  7.878022E-10  6.125255E-11
       193  16  9.228814E+05  4.571130E+05 -9.925885E+03  6.756920E+05  2.940308E-10 -1.048527E-10
       193  17  8.642778E+05  4.407580E+05 -2.791885E+04  6.590878E+05  1.971354E-10 -2.249721E-10
       193  18  8.364440E+05  3.961933E+05 -4.266328E+04  6.335551E+05  1.241061E-09  5.547996E-10
       193  19  1.070247E+06  5.621853E+05  3.687890E+04  7.491097E+05 -1.135924E+04 -3.493174E+03
       193  20  1.097799E+06  6.062340E+05  4.557330E+04  7.750391E+05 -9.558583E+03  1.444388E+03
       193  21  1.156121E+06  6.220767E+05  5.752605E+04  7.920406E+05 -7.752719E+03  6.374489E+03
       193  22  9.965618E+05  5.096479E+05  1.347700E+04  7.123985E+05 -9.697931E+03 -2.248160E+03
       193  23  9.810312E+05  5.234923E+05  8.828115E+03  7.170574E+05 -7.903113E+03  2.685334E+03
       193  24  9.962685E+05  5.091278E+05  7.432835E+03  7.127861E+05 -6.103424E+03  7.611087E+03
       193  25  9.228814E+05  4.571130E+05 -9.925762E+03  6.756920E+05 -8.036881E+03 -1.003339E+03
       193  26  8.642778E+05  4.407581E+05 -2.791875E+04  6.590878E+05 -6.248066E+03  3.925965E+03
       193  27  8.364441E+05  3.961934E+05 -4.266310E+04  6.335550E+05 -4.454719E+03  8.847245E+03
       194   1  1.196598E+06  6.520034E+05  7.089867E+04  8.130348E+05  7.940966E+03 -8.463051E+03
       194   2  1.225369E+06  6.964435E+05  8.635767E+04  8.384260E+05  5.436899E+03 -1.386733E+04
       194   3  1.287059E+06  7.146015E+05  1.064153E+05  8.537348E+05  2.512187E+03 -1.870929E+04
       194   4  9.963384E+05  5.088507E+05  7.508482E+03  7.130392E+05  6.109461E+03 -9.836546E+03
       194   5  9.806752E+05  5.233783E+05  9.392322E+03  7.170694E+05  4.012857E+03 -1.493593E+04
       194   6  9.978422E+05  5.115352E+05  1.552389E+04  7.110150E+05  1.495895E+03 -1.947258E+04
       194   7  7.961209E+05  3.657200E+05 -5.588673E+04  6.130800E+05  4.278759E+03 -1.120943E+04
       194   8  7.360437E+05  3.503446E+05 -6.758076E+04  5.957659E+05  2.589573E+03 -1.600397E+04
       194   9  7.087121E+05  3.085113E+05 -7.537865E+04  5.683681E+05  4.802400E+02 -2.023539E+04
       194  10  1.196598E+06  6.520033E+05  7.089842E+04  8.130348E+05 -6.603888E-10 -1.278275E-10
       194  11  1.225369E+06  6.964433E+05  8.635725E+04  8.384261E+05  9.106802E-10  7.649959E-10
       194  12  1.287059E+06  7.146012E+05  1.064147E+05  8.537348E+05  1.310648E-10  5.498702E-10
       194  13  9.963383E+05  5.088505E+05  7.508229E+03  7.130393E+05 -2.667652E-10 -1.343900E-10
       194  14  9.806751E+05  5.233780E+05  9.391873E+03  7.170695E+05 -1.984700E-10 -1.815188E-11
       194  15  9.978421E+05  5.115348E+05  1.552317E+04  7.110150E+05  8.078274E-11  1.498721E-10
       194  16  7.961208E+05  3.657198E+05 -5.588700E+04  6.130800E+05  6.408306E-10  1.057486E-10
       194  17  7.360436E+05  3.503443E+05 -6.758125E+04  5.957660E+05  9.804725E-11 -3.682424E-10
       194  18  7.087120E+05  3.085109E+05 -7.537942E+04  5.683682E+05  2.424819E-11 -2.541996E-11
       194  19  1.196598E+06  6.520034E+05  7.089867E+04  8.130348E+05 -7.940966E+03  8.463051E+03
       194  20  1.225369E+06  6.964435E+05  8.635767E+04  8.384260E+05 -5.436899E+03  1.386733E+04
       194  21  1.287059E+06  7.146015E+05  1.064153E+05  8.537348E+05 -2.512187E+03  1.870929E+04
       194  22  9.963384E+05  5.088507E+05  7.508482E+03  7.130392E+05 -6.109461E+03  9.836546E+03
       194  23  9.806752E+05  5.233783E+05  9.392322E+03  7.170694E+05 -4.012857E+03  1.493593E+04
       194  24  9.978422E+05  5.115352E+05  1.552389E+04  7.110150E+05 -1.495895E+03  1.947258E+04
       194  25  7.961209E+05  3.657200E+05 -5.588673E+04  6.130800E+05 -4.278759E+03  1.120943E+04
       194  26  7.360437E+05  3.503446E+05 -6.758076E+04  5.957659E+05 -2.589573E+03  1.600397E+04
       194  27  7.087121E+05  3.085113E+05 -7.537865E+04  5.683681E+05 -4.802400E+02  2.023539E+04
       195   1  1.319863E+06  7.502965E+05  1.225564E+05  8.824481E+05  5.948667E+03 -2.044212E+04
       195   2  1.357639E+06  7.787152E+05  1.488002E+05  9.007465E+05 -1.499492E+04 -3.709553E+04
       195   3  1.459698E+06  8.226108E+05  2.076775E+05  8.900310E+05 -4.471628E+04 -4.206419E+04
       195   4  9.975158E+05  5.081670E+05  1.880364E+04  7.160104E+05  1.302975E+03 -2.392890E+04
       195   5  9.766256E+05  5.197093E+05  3.030072E+04  7.167011E+05 -1.119386E+04 -3.424425E+04
       195   6  1.018208E+06  5.449217E+05  6.712909E+04  6.883719E+05 -3.246864E+04 -3.286994E+04
       195   7  6.752814E+05  2.661045E+05 -8.496155E+04  5.496734E+05 -3.339413E+03 -2.741302E+04
       195   8  5.957689E+05  2.607747E+05 -8.821567E+04  5.327803E+05 -7.395984E+03 -3.139522E+04
       195   9  5.769243E+05  2.673076E+05 -7.344222E+04  4.868634E+05 -2.023296E+04 -2.368330E+04
       195  10  1.319863E+06  7.502960E+05  1.225555E+05  8.824482E+05  2.768144E-11 -1.402705E-10
       195  11  1.357638E+06  7.787137E+05  1.487972E+05  9.007460E+05  8.807213E-11  1.840476E-10
       195  12  1.459696E+06  8.226084E+05  2.076704E+05  8.900295E+05  1.392041E-10  3.378394E-11
       195  13  9.975156E+05  5.081664E+05  1.880256E+04  7.160104E+05 -5.307275E-10 -1.153590E-09
       195  14  9.766251E+05  5.197080E+05  3.029828E+04  7.167008E+05 -7.150708E-10 -1.703215E-09
       195  15  1.018207E+06  5.449202E+05  6.712509E+04  6.883711E+05  2.672730E-10  8.771166E-10
       195  16  6.752812E+05  2.661037E+05 -8.496298E+04  5.496733E+05  1.067680E-11 -1.166479E-10
       195  17  5.957686E+05  2.607736E+05 -8.821763E+04  5.327801E+05  2.987052E-10  1.049129E-09
       195  18  5.769237E+05  2.673069E+05 -7.344404E+04  4.868630E+05  1.351554E-10  1.732692E-10
       195  19  1.319863E+06  7.502965E+05  1.225564E+05  8.824481E+05 -5.948667E+03  2.044212E+04
       195  20  1.357639E+06  7.787152E+05  1.488002E+05  9.007465E+05  1.499492E+04  3.709553E+04
       195  21  1.459698E+06  8.226108E+05  2.076775E+05  8.900310E+05  4.471628E+04  4.206419E+04
       195  22  9.975158E+05  5.081670E+05  1.880364E+04  7.160104E+05 -1.302975E+03  2.392890E+04
       195  23  9.766256E+05  5.197093E+05  3.030072E+04  7.167011E+05  1.119386E+04  3.424425E+04
       195  24  1.018208E+06  5.449217E+05  6.712909E+04  6.883719E+05  3.246864E+04  3.286994E+04
       195  25  6.752814E+05  2.661045E+05 -8.496155E+04  5.496734E+05  3.339413E+03  2.741302E+04
       195  26  5.957689E+05  2.607747E+05 -8.821567E+04  5.327803E+05  7.395984E+03  3.139522E+04
       195  27  5.769243E+05  2.673076E+05 -7.344222E+04  4.868634E+05  2.023296E+04  2.368330E+04
       196   1 -1.937748E+05 -3.142428E+05 -1.769281E+05  1.771683E+05 -9.980194E+03  3.105108E+04
       196   2 -1.680150E+05  2.972598E+04 -1.236712E+05  1.024969E+05 -2.586254E+04  3.524373E+04
       196   3 -8.104144E+04  3.884525E+05 -5.786736E+04  2.107253E+05 -1.308913E+04  3.941111E+04
       196   4  6.007926E+04  7.049120E+05  7.313002E+04  2.022215E+05 -9.957847E+03  5.285091E+04
       196   5 -3.942494E+03  6.958893E+05  3.066757E+04  1.108118E+05 -2.585889E+04  3.639435E+04
       196   6 -3.200461E+03  7.050575E+05  1.506620E+04  2.022804E+05 -1.311812E+04  1.991028E+04
       196   7  3.138588E+05  1.725015E+06  3.231141E+05  2.273155E+05 -9.933764E+03  7.468642E+04
       196   8  1.600991E+05  1.362462E+06  1.849766E+05  1.191356E+05 -2.585521E+04  3.754618E+04
       196   9  7.463399E+04  1.021756E+06  8.799459E+04  1.938310E+05 -1.314658E+04  3.995960E+02
       196  10 -1.937751E+05 -3.142438E+05 -1.769301E+05  1.771686E+05  1.241869E-11 -8.623334E-10
       196  11 -1.680161E+05  2.972446E+04 -1.236747E+05  1.024976E+05 -2.086451E-10  5.132000E-10
       196  12 -8.104204E+04  3.884508E+05 -5.787060E+04  2.107258E+05 -7.578742E-11 -4.910897E-10
       196  13  6.007841E+04  7.049090E+05  7.312459E+04  2.022219E+05 -1.047986E-10 -5.625259E-10
       196  14 -3.943567E+03  6.958877E+05  3.066383E+04  1.108126E+05 -2.157774E-10  2.972640E-12
       196  15 -3.200752E+03  7.050570E+05  1.506513E+04  2.022806E+05 -2.860012E-10 -1.694809E-09
       196  16  3.138572E+05  1.725009E+06  3.231034E+05  2.273161E+05 -1.904064E-10  6.652176E-10
       196  17  1.600980E+05  1.362461E+06  1.849727E+05  1.191363E+05 -2.596912E-10 -8.313667E-10
       196  18  7.463380E+04  1.021756E+06  8.799426E+04  1.938310E+05  3.634462E-10 -1.487044E-10
       196  19 -1.937748E+05 -3.142428E+05 -1.769281E+05  1.771683E+05  9.980194E+03 -3.105108E+04
       196  20 -1.680150E+05  2.972598E+04 -1.236712E+05  1.024969E+05  2.586254E+04 -3.524373E+04
       196  21 -8.104144E+04  3.884525E+05 -5.786736E+04  2.107253E+05  1.308913E+04 -3.941111E+04
       196  22  6.007926E+04  7.049120E+05  7.313002E+04  2.022215E+05  9.957847E+03 -5.285091E+04
       196  23 -3.942494E+03  6.958893E+05  3.066757E+04  1.108118E+05  2.585889E+04 -3.639435E+04
       196  24 -3.200461E+03  7.050575E+05  1.506620E+04  2.022804E+05  1.311812E+04 -1.991028E+04
       196  25  3.138588E+05  1.725015E+06  3.231141E+05  2.273155E+05  9.933764E+03 -7.468642E+04
       196  26  1.600991E+05  1.362462E+06  1.849766E+05  1.191356E+05  2.585521E+04 -3.754618E+04
       196  27  7.463399E+04  1.021756E+06  8.799459E+04  1.938310E+05  1.314658E+04 -3.995960E+02
       197   1  1.023044E+04  7.205248E+05  1.419196E+04  2.020427E+05  6.088386E+02  2.928205E+04
       197   2  9.148368E+04  1.072015E+06  8.211122E+04  1.100289E+05  1.591184E+04  3.017586E+04
       197   3  1.713149E+05  1.422770E+06  1.489908E+05  2.017136E+05  3.033617E+04  3.108027E+04
       197   4  5.362687E+03  7.008206E+05  9.533758E+03  2.024415E+05  5.916243E+02  1.793202E+04
       197   5  3.815597E+02  7.012720E+05 -3.041456E+03  1.105959E+05  1.589873E+04  1.945256E+04
       197   6 -6.125185E+03  7.007591E+05 -1.709165E+04  2.024558E+05  3.032650E+04  2.098320E+04
       197   7  4.949802E+02  6.811170E+05  4.876016E+03  2.028402E+05  5.743951E+02  6.582349E+03
       197   8 -9.073008E+04  3.306564E+05 -8.820277E+04  1.111625E+05  1.588559E+04  8.735596E+03
       197   9 -1.836016E+05 -2.077030E+04 -1.832082E+05  2.031968E+05  3.031680E+04  1.089774E+04
       197  10  1.023020E+04  7.205239E+05  1.419035E+04  2.020426E+05 -2.204880E-10 -1.415601E-09
       197  11  9.148317E+04  1.072014E+06  8.210904E+04  1.100285E+05 -2.908850E-10  1.432796E-10
       197  12  1.713137E+05  1.422769E+06  1.489873E+05  2.017129E+05  1.432391E-10 -8.281345E-10
       197  13  5.362600E+03  7.008202E+05  9.533154E+03  2.024414E+05 -5.690022E-10 -1.347172E-09
       197  14  3.811868E+02  7.012716E+05 -3.042642E+03  1.105956E+05 -1.966250E-10 -3.144395E-11
       197  15 -6.126291E+03  7.007584E+05 -1.709420E+04  2.024553E+05  3.070230E-10 -1.376249E-09
       197  16  4.949683E+02  6.811169E+05  4.875934E+03  2.028402E+05  6.270114E-10  7.397406E-10
       197  17 -9.073037E+04  3.306563E+05 -8.820339E+04  1.111624E+05 -1.360857E-11 -7.466738E-10
       197  18 -1.836026E+05 -2.077068E+04 -1.832102E+05  2.031966E+05  3.161524E-10  1.220454E-10
       197  19  1.023044E+04  7.205248E+05  1.419196E+04  2.020427E+05 -6.088386E+02 -2.928205E+04
       197  20  9.148368E+04  1.072015E+06  8.211122E+04  1.100289E+05 -1.591184E+04 -3.017586E+04
       197  21  1.713149E+05  1.422770E+06  1.489908E+05  2.017136E+05 -3.033617E+04 -3.108027E+04
       197  22  5.362687E+03  7.008206E+05  9.533758E+03  2.024415E+05 -5.916243E+02 -1.793202E+04
       197  23  3.815597E+02  7.012720E+05 -3.041456E+03  1.105959E+05 -1.589873E+04 -1.945256E+04
       197  24 -6.125185E+03  7.007591E+05 -1.709165E+04  2.024558E+05 -3.032650E+04 -2.098320E+04
       197  25  4.949802E+02  6.811170E+05  4.876016E+03  2.028402E+05 -5.743951E+02 -6.582349E+03
       197  26 -9.073008E+04  3.306564E+05 -8.820277E+04  1.111625E+05 -1.588559E+04 -8.735596E+03
       197  27 -1.836016E+05 -2.077030E+04 -1.832082E+05  2.031968E+05 -3.031680E+04 -1.089774E+04
       198   1  2.652402E+05  1.755012E+06  2.193737E+05  2.150583E+05  4.609075E+04  4.837345E+04
       198   2  3.518661E+05  2.117265E+06  2.820435E+05  1.003513E+05  5.612605E+04  3.802770E+04
       198   3  3.566737E+05  2.461643E+06  3.311992E+05  1.684565E+05  1.943979E+04  2.767391E+04
       198   4  5.027877E+03  6.955127E+05 -2.355458E+04  2.022571E+05  4.607142E+04  2.422741E+04
       198   5  5.230988E+03  7.073410E+05 -4.356214E+04  1.108333E+05  5.613855E+04  4.756773E+04
       198   6 -8.232152E+04  6.952837E+05 -1.004849E+05  2.022589E+05  1.943628E+04  7.090422E+04
       198   7 -2.552617E+05 -3.629483E+05 -2.665545E+05  1.894775E+05  4.605307E+04  1.221219E+02
       198   8 -3.415428E+05 -7.007501E+05 -3.692998E+05  1.212911E+05  5.615139E+04  5.708622E+04
       198   9 -5.215417E+05 -1.068235E+06 -5.323890E+05  2.359649E+05  1.943748E+04  1.140120E+05
       198  10  2.652373E+05  1.755009E+06  2.193653E+05  2.150565E+05  3.050312E-10 -8.112612E-10
       198  11  3.518623E+05  2.117263E+06  2.820348E+05  1.003496E+05 -3.887674E-10  2.917525E-11
       198  12  3.566731E+05  2.461642E+06  3.311971E+05  1.684561E+05 -7.962827E-11  2.959077E-10
       198  13  5.025440E+03  6.955115E+05 -2.355967E+04  2.022562E+05  1.418778E-10 -7.374403E-10
       198  14  5.226997E+03  7.073377E+05 -4.357231E+04  1.108311E+05 -3.427052E-10  4.773130E-11
       198  15 -8.232328E+04  6.952782E+05 -1.004951E+05  2.022578E+05 -4.031627E-10  7.915036E-10
       198  16 -2.552640E+05 -3.629489E+05 -2.665585E+05  1.894775E+05  1.330438E-10  3.184233E-10
       198  17 -3.415470E+05 -7.007545E+05 -3.693118E+05  1.212885E+05  1.120577E-10 -7.535858E-11
       198  18 -5.215456E+05 -1.068249E+06 -5.324142E+05  2.359631E+05  6.304783E-11  2.437023E-11
       198  19  2.652402E+05  1.755012E+06  2.193737E+05  2.150583E+05 -4.609075E+04 -4.837345E+04
       198  20  3.518661E+05  2.117265E+06  2.820435E+05  1.003513E+05 -5.612605E+04 -3.802770E+04
       198  21  3.566737E+05  2.461643E+06  3.311992E+05  1.684565E+05 -1.943979E+04 -2.767391E+04
       198  22  5.027877E+03  6.955127E+05 -2.355458E+04  2.022571E+05 -4.607142E+04 -2.422741E+04
       198  23  5.230988E+03  7.073410E+05 -4.356214E+04  1.108333E+05 -5.613855E+04 -4.756773E+04
       198  24 -8.232152E+04  6.952837E+05 -1.004849E+05  2.022589E+05 -1.943628E+04 -7.090422E+04
       198  25 -2.552617E+05 -3.629483E+05 -2.665545E+05  1.894775E+05 -4.605307E+04 -1.221219E+02
       198  26 -3.415428E+05 -7.007501E+05 -3.692998E+05  1.212911E+05 -5.615139E+04 -5.708622E+04
       198  27 -5.215417E+05 -1.068235E+06 -5.323890E+05  2.359649E+05 -1.943748E+04 -1.140120E+05
       199   1  2.387663E+03  3.859828E+04  2.532736E+04  1.336550E+04 -3.304390E+04 -4.031874E+03
       199   2 -5.009686E+04  7.700885E+04  4.051716E+04  1.214698E+04 -2.458607E+04 -1.193719E+04
       199   3 -1.170262E+05  6.158227E+04  3.676106E+04  4.179641E+04 -1.612119E+04 -1.044528E+04
       199   4 -3.564652E+05 -5.079871E+04 -6.250879E+04  3.442532E+04 -4.209687E+04 -4.025276E+03
       199   5 -3.486410E+05  3.465284E+03 -2.853354E+04  1.901226E+04 -2.688084E+04 -1.193612E+04
       199   6 -3.564470E+05  2.703654E+03 -1.820673E+04  3.446893E+04 -1.165668E+04 -1.044812E+04
       199   7 -7.151996E+05 -1.402035E+05 -1.503538E+05  5.547296E+04 -5.114461E+04 -4.019291E+03
       199   8 -6.471027E+05 -7.008437E+04 -9.759016E+04  2.587422E+04 -2.917452E+04 -1.193510E+04
       199   9 -5.958145E+05 -5.617875E+04 -7.317820E+04  2.714431E+04 -7.193887E+03 -1.045107E+04
       199  10  2.386486E+03  3.859796E+04  2.532528E+04  1.336539E+04  3.055756E-10 -1.200865E-10
       199  11 -5.009755E+04  7.700854E+04  4.051575E+04  1.214675E+04 -2.527243E-10 -2.280432E-10
       199  12 -1.170266E+05  6.158209E+04  3.676037E+04  4.179627E+04 -2.415621E-11 -1.597631E-10
       199  13 -3.564671E+05 -5.079921E+04 -6.251216E+04  3.442518E+04  2.565524E-10 -2.870746E-11
       199  14 -3.486418E+05  3.464937E+03 -2.853517E+04  1.901200E+04  2.158534E-10 -8.741065E-11
       199  15 -3.564472E+05  2.703500E+03 -1.820719E+04  3.446883E+04  1.704496E-10 -1.166326E-10
       199  16 -7.152024E+05 -1.402043E+05 -1.503588E+05  5.547279E+04 -4.637994E-10  1.616052E-11
       199  17 -6.471036E+05 -7.008475E+04 -9.759203E+04  2.587394E+04  5.336461E-10  5.162502E-11
       199  18 -5.958145E+05 -5.617888E+04 -7.317850E+04  2.714425E+04  5.914964E-10 -3.925901E-11
       199  19  2.387663E+03  3.859828E+04  2.532736E+04  1.336550E+04  3.304390E+04  4.031874E+03
       199  20 -5.009686E+04  7.700885E+04  4.051716E+04  1.214698E+04  2.458607E+04  1.193719E+04
       199  21 -1.170262E+05  6.158227E+04  3.676106E+04  4.179641E+04  1.612119E+04  1.044528E+04
       199  22 -3.564652E+05 -5.079871E+04 -6.250879E+04  3.442532E+04  4.209687E+04  4.025276E+03
       199  23 -3.486410E+05  3.465284E+03 -2.853354E+04  1.901226E+04  2.688084E+04  1.193612E+04
       199  24 -3.564470E+05  2.703654E+03 -1.820673E+04  3.446893E+04  1.165668E+04  1.044812E+04
       199  25 -7.151996E+05 -1.402035E+05 -1.503538E+05  5.547296E+04  5.114461E+04  4.019291E+03
       199  26 -6.471027E+05 -7.008437E+04 -9.759016E+04  2.587422E+04  2.917452E+04  1.193510E+04
       199  27 -5.958145E+05 -5.617875E+04 -7.317820E+04  2.714431E+04  7.193887E+03  1.045107E+04
       200   1 -1.713663E+05  4.099014E+04  2.651273E+04  3.305729E+04 -1.045496E+04 -7.629448E+03
       200   2 -2.302792E+05  3.042323E+04  1.759404E+04  1.847904E+04 -5.484504E+03 -5.219797E+03
       200   3 -2.909831E+05  1.505324E+04  4.249407E+03  3.522649E+04 -5.147778E+02 -2.362265E+03
       200   4 -3.533808E+05 -3.812780E+03 -1.542557E+04  3.455684E+04 -8.877973E+03 -7.630517E+03
       200   5 -3.524531E+05  3.590973E+02 -1.051135E+04  1.889472E+04 -3.586490E+03 -5.220868E+03
       200   6 -3.533762E+05 -3.282992E+02 -1.024688E+04  3.455878E+04  1.704735E+03 -2.363304E+03
       200   7 -5.353647E+05 -4.861800E+04 -5.736606E+04  3.605595E+04 -7.301447E+03 -7.631579E+03
       200   8 -4.746132E+05 -2.970607E+04 -3.861773E+04  1.931032E+04 -1.688846E+03 -5.221938E+03
       200   9 -4.157656E+05 -1.571011E+04 -2.474342E+04  3.389114E+04  3.924025E+03 -2.364348E+03
       200  10 -1.713664E+05  4.099004E+04  2.651242E+04  3.305722E+04  1.158259E-10  1.381923E-11
       200  11 -2.302792E+05  3.042319E+04  1.759394E+04  1.847902E+04  6.128134E-10  1.644914E-10
       200  12 -2.909831E+05  1.505323E+04  4.249396E+03  3.522649E+04  3.154307E-10 -1.015641E-10
       200  13 -3.533809E+05 -3.812863E+03 -1.542582E+04  3.455678E+04 -8.885018E-12  6.498616E-11
       200  14 -3.524531E+05  3.590646E+02 -1.051143E+04  1.889471E+04  7.134301E-10  1.524818E-10
       200  15 -3.533762E+05 -3.283060E+02 -1.024690E+04  3.455879E+04  9.938522E-11 -2.465892E-10
       200  16 -5.353648E+05 -4.861808E+04 -5.736627E+04  3.605590E+04  3.328988E-10 -4.988395E-12
       200  17 -4.746132E+05 -2.970610E+04 -3.861778E+04  1.931031E+04  3.085986E-10  1.571364E-10
       200  18 -4.157656E+05 -1.571012E+04 -2.474346E+04  3.389115E+04 -3.728009E-10 -2.201467E-10
       200  19 -1.713663E+05  4.099014E+04  2.651273E+04  3.305729E+04  1.045496E+04  7.629448E+03
       200  20 -2.302792E+05  3.042323E+04  1.759404E+04  1.847904E+04  5.484504E+03  5.219797E+03
       200  21 -2.909831E+05  1.505324E+04  4.249407E+03  3.522649E+04  5.147778E+02  2.362265E+03
       200  22 -3.533808E+05 -3.812780E+03 -1.542557E+04  3.455684E+04  8.877973E+03  7.630517E+03
       200  23 -3.524531E+05  3.590973E+02 -1.051135E+04  1.889472E+04  3.586490E+03  5.220868E+03
       200  24 -3.533762E+05 -3.282992E+02 -1.024688E+04  3.455878E+04 -1.704735E+03  2.363304E+03
       200  25 -5.353647E+05 -4.861800E+04 -5.736606E+04  3.605595E+04  7.301447E+03  7.631579E+03
       200  26 -4.746132E+05 -2.970607E+04 -3.861773E+04  1.931032E+04  1.688846E+03  5.221938E+03
       200  27 -4.157656E+05 -1.571011E+04 -2.474342E+04  3.389114E+04 -3.924025E+03  2.364348E+03
       201   1 -3.485991E+05  1.322138E+03 -1.010245E+04  3.330778E+04  1.388154E+03 -5.439950E+02
       201   2 -4.068779E+05 -1.286376E+04 -2.797578E+04  1.954343E+04  9.410653E+03  2.321005E+03
       201   3 -4.682578E+05 -3.546279E+04 -5.316860E+04  3.712215E+04  1.743227E+04  4.824140E+03
       201   4 -3.536437E+05  1.099748E+02 -1.110971E+04  3.456313E+04  3.583105E+03 -5.449863E+02
       201   5 -3.521159E+05  6.153403E+02 -1.536924E+04  1.888973E+04  1.134564E+04  2.320036E+03
       201   6 -3.536475E+05 -7.246689E+03 -2.676695E+04  3.455944E+04  1.910806E+04  4.823171E+03
       201   7 -3.586883E+05 -1.102182E+03 -1.211694E+04  3.581848E+04  5.778040E+03 -5.459687E+02
       201   8 -2.973511E+05  1.409423E+04 -2.762879E+03  1.823598E+04  1.328080E+04  2.319063E+03
       201   9 -2.390250E+05  2.096852E+04 -3.661545E+02  3.199625E+04  2.078416E+04  4.822189E+03
       201  10 -3.485991E+05  1.322137E+03 -1.010246E+04  3.330778E+04  4.613386E-10 -3.120313E-11
       201  11 -4.068780E+05 -1.286379E+04 -2.797595E+04  1.954341E+04  5.143424E-10 -3.608271E-11
       201  12 -4.682581E+05 -3.546290E+04 -5.316922E+04  3.712208E+04  2.032750E-10  3.341468E-11
       201  13 -3.536437E+05  1.099711E+02 -1.110973E+04  3.456314E+04  5.335703E-10 -2.136163E-10
       201  14 -3.521160E+05  6.153000E+02 -1.536949E+04  1.888971E+04  9.528622E-10  3.186203E-11
       201  15 -3.536479E+05 -7.246812E+03 -2.676768E+04  3.455936E+04 -1.746716E-10  4.797981E-11
       201  16 -3.586883E+05 -1.102191E+03 -1.211701E+04  3.581848E+04  3.716192E-10 -2.714973E-10
       201  17 -2.973513E+05  1.409418E+04 -2.763221E+03  1.823596E+04  4.262504E-10 -5.138868E-13
       201  18 -2.390254E+05  2.096838E+04 -3.670103E+02  3.199617E+04  7.788204E-11  9.660937E-12
       201  19 -3.485991E+05  1.322138E+03 -1.010245E+04  3.330778E+04 -1.388154E+03  5.439950E+02
       201  20 -4.068779E+05 -1.286376E+04 -2.797578E+04  1.954343E+04 -9.410653E+03 -2.321005E+03
       201  21 -4.682578E+05 -3.546279E+04 -5.316860E+04  3.712215E+04 -1.743227E+04 -4.824140E+03
       201  22 -3.536437E+05  1.099748E+02 -1.110971E+04  3.456313E+04 -3.583105E+03  5.449863E+02
       201  23 -3.521159E+05  6.153403E+02 -1.536924E+04  1.888973E+04 -1.134564E+04 -2.320036E+03
       201  24 -3.536475E+05 -7.246689E+03 -2.676695E+04  3.455944E+04 -1.910806E+04 -4.823171E+03
       201  25 -3.586883E+05 -1.102182E+03 -1.211694E+04  3.581848E+04 -5.778040E+03  5.459687E+02
       201  26 -2.973511E+05  1.409423E+04 -2.762879E+03  1.823598E+04 -1.328080E+04 -2.319063E+03
       201  27 -2.390250E+05  2.096852E+04 -3.661545E+02  3.199625E+04 -2.078416E+04 -4.822189E+03
       202   1 -5.316242E+05 -3.707105E+04 -7.227759E+04  2.035987E+04  1.993127E+04  7.453050E+03
       202   2 -5.759935E+05 -5.037084E+04 -1.069392E+05  3.178389E+04  5.404119E+04  9.185736E+03
       202   3 -6.511349E+05 -1.692852E+05 -1.902088E+05  7.415230E+04  8.814275E+04  3.149131E+03
       202   4 -3.595885E+05  5.240124E+03 -3.274895E+04  3.449372E+04  2.399208E+04  7.451192E+03
       202   5 -3.447043E+05  6.637779E+03 -5.340267E+04  1.898497E+04  5.251963E+04  9.185374E+03
       202   6 -3.596119E+05 -9.658960E+04 -1.187727E+05  3.442289E+04  8.104227E+04  3.148591E+03
       202   7 -1.875248E+05  4.754999E+04  6.777913E+03  4.863153E+04  2.805401E+04  7.449520E+03
       202   8 -1.133652E+05  6.364325E+04  1.303715E+02  6.181264E+03  5.099750E+04  9.185075E+03
       202   9 -6.800797E+04 -2.389434E+04 -4.734178E+04 -5.325220E+03  7.393847E+04  3.148960E+03
       202  10 -5.316247E+05 -3.707122E+04 -7.227844E+04  2.035975E+04  3.173347E-10  4.060161E-11
       202  11 -5.759967E+05 -5.037171E+04 -1.069448E+05  3.178349E+04 -3.040599E-10  4.687189E-11
       202  12 -6.511432E+05 -1.692873E+05 -1.902234E+05  7.415208E+04  8.888280E-10  5.599237E-11
       202  13 -3.595891E+05  5.239910E+03 -3.275013E+04  3.449358E+04  5.190258E-10 -2.291760E-11
       202  14 -3.447073E+05  6.636947E+03 -5.340801E+04  1.898459E+04 -6.886624E-11  1.850795E-10
       202  15 -3.596190E+05 -9.659137E+04 -1.187851E+05  3.442268E+04 -2.351384E-10  2.231639E-12
       202  16 -1.875257E+05  4.754972E+04  6.776330E+03  4.863136E+04 -1.694664E-10  2.951445E-11
       202  17 -1.133680E+05  6.364246E+04  1.253246E+02  6.180887E+03 -9.646706E-10 -2.480695E-11
       202  18 -6.801384E+04 -2.389581E+04 -4.735207E+04 -5.325408E+03 -2.089518E-10  2.818739E-11
       202  19 -5.316242E+05 -3.707105E+04 -7.227759E+04  2.035987E+04 -1.993127E+04 -7.453050E+03
       202  20 -5.759935E+05 -5.037084E+04 -1.069392E+05  3.178389E+04 -5.404119E+04 -9.185736E+03
       202  21 -6.511349E+05 -1.692852E+05 -1.902088E+05  7.415230E+04 -8.814275E+04 -3.149131E+03
       202  22 -3.595885E+05  5.240124E+03 -3.274895E+04  3.449372E+04 -2.399208E+04 -7.451192E+03
       202  23 -3.447043E+05  6.637779E+03 -5.340267E+04  1.898497E+04 -5.251963E+04 -9.185374E+03
       202  24 -3.596119E+05 -9.658960E+04 -1.187727E+05  3.442289E+04 -8.104227E+04 -3.148591E+03
       202  25 -1.875248E+05  4.754999E+04  6.777913E+03  4.863153E+04 -2.805401E+04 -7.449520E+03
       202  26 -1.133652E+05  6.364325E+04  1.303715E+02  6.181264E+03 -5.099750E+04 -9.185075E+03
       202  27 -6.800797E+04 -2.389434E+04 -4.734178E+04 -5.325220E+03 -7.393847E+04 -3.148960E+03
       203   1 -7.527576E+04 -4.365611E+05 -8.426636E+04  3.128390E+04 -1.575322E+03 -3.755206E+04
       203   2 -2.467671E+04 -4.040407E+05 -4.880643E+04  1.311729E+04 -4.490175E+03 -2.268729E+04
       203   3 -1.900749E+04 -3.847185E+05 -3.426527E+04  8.400332E+03 -3.763124E+03 -7.825361E+03
       203   4 -4.095706E+04 -2.985993E+05 -5.048976E+04  1.456252E+04 -1.570836E+03 -3.413728E+04
       203   5  2.855505E+03 -2.922247E+05 -2.293746E+04  7.815227E+03 -4.489086E+03 -2.189108E+04
       203   6  2.197141E+03 -2.985917E+05 -1.448175E+04  1.451821E+04 -3.765175E+03 -9.648444E+03
       203   7 -6.638707E+03 -1.606195E+05 -1.671436E+04 -2.162587E+03 -1.566534E+03 -3.072174E+04
       203   8  3.038694E+04 -1.803971E+05  2.930697E+03  2.512194E+03 -4.488010E+03 -2.109473E+04
       203   9  2.340139E+04 -2.124580E+05  5.301319E+03  2.063695E+04 -3.767263E+03 -1.147178E+04
       203  10 -7.527614E+04 -4.365626E+05 -8.426902E+04  3.128385E+04  1.899381E-10 -1.903289E-10
       203  11 -2.467687E+04 -4.040413E+05 -4.880744E+04  1.311721E+04  1.637646E-10 -4.937073E-11
       203  12 -1.900752E+04 -3.847186E+05 -3.426541E+04  8.400308E+03  7.265925E-10  4.872942E-10
       203  13 -4.095737E+04 -2.986005E+05 -5.049196E+04  1.456248E+04 -9.316654E-11  3.783066E-11
       203  14  2.855354E+03 -2.922252E+05 -2.293840E+04  7.815147E+03 -2.575491E-10 -2.978625E-11
       203  15  2.197101E+03 -2.985918E+05 -1.448195E+04  1.451818E+04  2.158463E-11 -3.379661E-11
       203  16 -6.638963E+03 -1.606205E+05 -1.671614E+04 -2.162626E+03 -8.741975E-11  2.210763E-10
       203  17  3.038680E+04 -1.803976E+05  2.929822E+03  2.512117E+03 -7.077886E-10  6.879105E-11
       203  18  2.340134E+04 -2.124582E+05  5.301045E+03  2.063691E+04  2.558900E-10 -4.574188E-10
       203  19 -7.527576E+04 -4.365611E+05 -8.426636E+04  3.128390E+04  1.575322E+03  3.755206E+04
       203  20 -2.467671E+04 -4.040407E+05 -4.880643E+04  1.311729E+04  4.490175E+03  2.268729E+04
       203  21 -1.900749E+04 -3.847185E+05 -3.426527E+04  8.400332E+03  3.763124E+03  7.825361E+03
       203  22 -4.095706E+04 -2.985993E+05 -5.048976E+04  1.456252E+04  1.570836E+03  3.413728E+04
       203  23  2.855505E+03 -2.922247E+05 -2.293746E+04  7.815227E+03  4.489086E+03  2.189108E+04
       203  24  2.197141E+03 -2.985917E+05 -1.448175E+04  1.451821E+04  3.765175E+03  9.648444E+03
       203  25 -6.638707E+03 -1.606195E+05 -1.671436E+04 -2.162587E+03  1.566534E+03  3.072174E+04
       203  26  3.038694E+04 -1.803971E+05  2.930697E+03  2.512194E+03  4.488010E+03  2.109473E+04
       203  27  2.340139E+04 -2.124580E+05  5.301319E+03  2.063695E+04  3.767263E+03  1.147178E+04
       204   1 -1.804969E+04 -3.574213E+05 -2.624876E+04  1.574829E+04 -2.579687E+03 -6.730522E+03
       204   2 -8.332066E+03 -3.306397E+05 -1.600104E+04  7.900308E+03 -1.518846E+03 -2.688118E+03
       204   3 -3.293361E+03 -3.055911E+05 -9.564179E+03  1.362640E+04 -3.727984E+02  1.354299E+03
       204   4 -2.969102E+03 -2.961435E+05 -1.212991E+04  1.456034E+04 -2.580475E+03 -7.460489E+03
       204   5  3.680707E+02 -2.952815E+05 -7.868968E+03  7.772181E+03 -1.519734E+03 -3.479102E+03
       204   6 -9.628404E+02 -2.961425E+05 -7.376172E+03  1.455810E+04 -3.737772E+02  5.021333E+02
       204   7  1.211123E+04 -2.348621E+05  1.988693E+03  1.337226E+04 -2.581260E+03 -8.190527E+03
       204   8  9.068120E+03 -2.599222E+05  2.630276E+02  7.644046E+03 -1.520622E+03 -4.270131E+03
       204   9  1.367677E+03 -2.866937E+05 -5.188168E+03  1.548981E+04 -3.747587E+02 -3.500455E+02
       204  10 -1.804971E+04 -3.574214E+05 -2.624886E+04  1.574828E+04  5.064283E-10  1.003484E-10
       204  11 -8.332070E+03 -3.306397E+05 -1.600106E+04  7.900305E+03  5.170312E-10  3.527039E-10
       204  12 -3.293362E+03 -3.055911E+05 -9.564182E+03  1.362640E+04  2.225233E-10  1.370033E-09
       204  13 -2.969124E+03 -2.961435E+05 -1.213003E+04  1.456032E+04 -1.852639E-10  3.326127E-11
       204  14  3.680649E+02 -2.952815E+05 -7.868995E+03  7.772177E+03  2.036515E-10 -1.633384E-11
       204  15 -9.628406E+02 -2.961425E+05 -7.376173E+03  1.455810E+04  2.136906E-10 -5.160473E-11
       204  16  1.211120E+04 -2.348622E+05  1.988554E+03  1.337225E+04  6.326476E-10 -1.763931E-10
       204  17  9.068112E+03 -2.599222E+05  2.629890E+02  7.644041E+03  7.694349E-10 -3.294376E-10
       204  18  1.367677E+03 -2.866937E+05 -5.188168E+03  1.548981E+04 -3.174880E-10 -1.383548E-09
       204  19 -1.804969E+04 -3.574213E+05 -2.624876E+04  1.574829E+04  2.579687E+03  6.730522E+03
       204  20 -8.332066E+03 -3.306397E+05 -1.600104E+04  7.900308E+03  1.518846E+03  2.688118E+03
       204  21 -3.293361E+03 -3.055911E+05 -9.564179E+03  1.362640E+04  3.727984E+02 -1.354299E+03
       204  22 -2.969102E+03 -2.961435E+05 -1.212991E+04  1.456034E+04  2.580475E+03  7.460489E+03
       204  23  3.680707E+02 -2.952815E+05 -7.868968E+03  7.772181E+03  1.519734E+03  3.479102E+03
       204  24 -9.628404E+02 -2.961425E+05 -7.376172E+03  1.455810E+04  3.737772E+02 -5.021333E+02
       204  25  1.211123E+04 -2.348621E+05  1.988693E+03  1.337226E+04  2.581260E+03  8.190527E+03
       204  26  9.068120E+03 -2.599222E+05  2.630276E+02  7.644046E+03  1.520622E+03  4.270131E+03
       204  27  1.367677E+03 -2.866937E+05 -5.188168E+03  1.548981E+04  3.747587E+02  3.500455E+02
       205   1  4.476070E+03 -2.814622E+05 -4.010003E+03  1.687333E+04  6.216073E+02  3.149269E+03
       205   2  1.127835E+04 -2.531456E+05 -1.275336E+02  5.740990E+03  1.597725E+03  6.903363E+03
       205   3  1.150217E+03 -2.295871E+05 -2.930516E+03  8.129890E+03  6.500453E+02  1.065972E+04
       205   4  6.740910E+02 -2.968702E+05 -7.574908E+03  1.454147E+04  6.199948E+02  1.757350E+03
       205   5  1.123517E+03 -2.943719E+05 -9.690841E+03  7.789832E+03  1.597747E+03  6.895831E+03
       205   6 -1.559850E+04 -2.968730E+05 -1.945421E+04  1.455959E+04  6.516975E+02  1.203639E+04
       205   7 -3.127883E+03 -3.122780E+05 -1.113982E+04  1.220967E+04  6.183928E+02  3.654658E+02
       205   8 -9.031422E+03 -3.355966E+05 -1.925426E+04  9.838537E+03  1.597768E+03  6.888300E+03
       205   9 -3.234740E+04 -3.641546E+05 -3.597821E+04  2.098858E+04  6.533783E+02  1.341291E+04
       205  10  4.476067E+03 -2.814622E+05 -4.010022E+03  1.687333E+04  5.863465E-10  7.847332E-09
       205  11  1.127834E+04 -2.531456E+05 -1.276280E+02  5.740981E+03 -7.135801E-10  3.728755E-10
       205  12  1.150186E+03 -2.295872E+05 -2.930731E+03  8.129884E+03 -2.378805E-10 -6.274238E-09
       205  13  6.740897E+02 -2.968702E+05 -7.574915E+03  1.454147E+04 -1.100129E-09 -1.430337E-11
       205  14  1.123502E+03 -2.943720E+05 -9.690935E+03  7.789823E+03 -5.332356E-10 -7.526488E-11
       205  15 -1.559854E+04 -2.968731E+05 -1.945448E+04  1.455958E+04 -2.717959E-10 -2.455759E-12
       205  16 -3.127884E+03 -3.122780E+05 -1.113982E+04  1.220967E+04 -8.472481E-11 -7.975295E-09
       205  17 -9.031438E+03 -3.355967E+05 -1.925435E+04  9.838528E+03 -9.757839E-10 -2.830309E-10
       205  18 -3.234745E+04 -3.641548E+05 -3.597855E+04  2.098858E+04 -5.494180E-10  6.283981E-09
       205  19  4.476070E+03 -2.814622E+05 -4.010003E+03  1.687333E+04 -6.216073E+02 -3.149269E+03
       205  20  1.127835E+04 -2.531456E+05 -1.275336E+02  5.740990E+03 -1.597725E+03 -6.903363E+03
       205  21  1.150217E+03 -2.295871E+05 -2.930516E+03  8.129890E+03 -6.500453E+02 -1.065972E+04
       205  22  6.740910E+02 -2.968702E+05 -7.574908E+03  1.454147E+04 -6.199948E+02 -1.757350E+03
       205  23  1.123517E+03 -2.943719E+05 -9.690841E+03  7.789832E+03 -1.597747E+03 -6.895831E+03
       205  24 -1.559850E+04 -2.968730E+05 -1.945421E+04  1.455959E+04 -6.516975E+02 -1.203639E+04
       205  25 -3.127883E+03 -3.122780E+05 -1.113982E+04  1.220967E+04 -6.183928E+02 -3.654658E+02
       205  26 -9.031422E+03 -3.355966E+05 -1.925426E+04  9.838537E+03 -1.597768E+03 -6.888300E+03
       205  27 -3.234740E+04 -3.641546E+05 -3.597821E+04  2.098858E+04 -6.533783E+02 -1.341291E+04
       206   1  3.565160E+05  3.084536E+05  1.300750E+05  2.229273E+05  5.851467E+04  4.199576E+04
       206   2  3.333740E+05  2.174939E+05  7.047271E+04  2.476607E+05  3.928445E+04  2.385420E+04
       206   3  3.531532E+05  1.980366E+05  5.016324E+04  2.436637E+05  1.821841E+04  8.166629E+03
       206   4  3.000353E+05  2.133922E+05  1.004325E+05  1.697520E+05  5.589808E+04  4.003228E+04
       206   5  2.633068E+05  1.502398E+05  4.502186E+04  2.047785E+05  3.843611E+04  2.321808E+04
       206   6  2.691215E+05  1.582104E+05  2.737418E+04  2.110730E+05  1.913878E+04  8.856088E+03
       206   7  2.435601E+05  1.183455E+05  7.078987E+04  1.165851E+05  5.328181E+04  3.806949E+04
       206   8  1.932453E+05  8.299166E+04  1.957038E+04  1.619027E+05  3.758790E+04  2.258210E+04
       206   9  1.850977E+05  1.183857E+05  4.584568E+03  1.784863E+05  2.005897E+04  9.545474E+03
       206  10  3.565118E+05  3.084508E+05  1.300652E+05  2.229253E+05 -2.236451E-10  5.594023E-11
       206  11  3.333722E+05  2.174928E+05  7.046875E+04  2.476599E+05  8.288961E-11  4.446195E-11
       206  12  3.531528E+05  1.980364E+05  5.016249E+04  2.436636E+05 -7.079555E-10 -1.383288E-10
       206  13  3.000315E+05  2.133896E+05  1.004236E+05  1.697502E+05 -7.878762E-10 -3.286811E-13
       206  14  2.633051E+05  1.502388E+05  4.501808E+04  2.047778E+05 -1.276118E-09 -1.121566E-10
       206  15  2.691211E+05  1.582102E+05  2.737335E+04  2.110729E+05  1.783054E-10 -1.319169E-10
       206  16  2.435567E+05  1.183432E+05  7.078181E+04  1.165834E+05  2.286248E-10 -1.204349E-10
       206  17  1.932436E+05  8.299074E+04  1.956677E+04  1.619020E+05 -5.031061E-10 -1.112650E-10
       206  18  1.850972E+05  1.183855E+05  4.583641E+03  1.784862E+05  4.696796E-10 -1.020930E-10
       206  19  3.565160E+05  3.084536E+05  1.300750E+05  2.229273E+05 -5.851467E+04 -4.199576E+04
       206  20  3.333740E+05  2.174939E+05  7.047271E+04  2.476607E+05 -3.928445E+04 -2.385420E+04
       206  21  3.531532E+05  1.980366E+05  5.016324E+04  2.436637E+05 -1.821841E+04 -8.166629E+03
       206  22  3.000353E+05  2.133922E+05  1.004325E+05  1.697520E+05 -5.589808E+04 -4.003228E+04
       206  23  2.633068E+05  1.502398E+05  4.502186E+04  2.047785E+05 -3.843611E+04 -2.321808E+04
       206  24  2.691215E+05  1.582104E+05  2.737418E+04  2.110730E+05 -1.913878E+04 -8.856088E+03
       206  25  2.435601E+05  1.183455E+05  7.078987E+04  1.165851E+05 -5.328181E+04 -3.806949E+04
       206  26  1.932453E+05  8.299166E+04  1.957038E+04  1.619027E+05 -3.758790E+04 -2.258210E+04
       206  27  1.850977E+05  1.183857E+05  4.584568E+03  1.784863E+05 -2.005897E+04 -9.545474E+03
       207   1  3.325338E+05  2.111663E+05  4.268170E+04  2.363434E+05  1.531909E+04  6.835787E+03
       207   2  3.256489E+05  1.966586E+05  3.014412E+04  2.337635E+05  1.008155E+04  3.364635E+03
       207   3  3.173929E+05  1.928738E+05  2.339541E+04  2.307171E+05  4.754150E+03  1.356655E+01
       207   4  2.696718E+05  1.631892E+05  2.219274E+04  2.035737E+05  1.548255E+04  6.958059E+03
       207   5  2.692128E+05  1.557780E+05  1.219620E+04  2.053496E+05  1.033208E+04  3.552174E+03
       207   6  2.673643E+05  1.590713E+05  7.913607E+03  2.066588E+05  5.091710E+03  2.663158E+02
       207   7  2.068136E+05  1.152144E+05  1.703083E+03  1.708077E+05  1.564599E+04  7.080314E+03
       207   8  2.127801E+05  1.148993E+05 -5.752121E+03  1.769386E+05  1.058258E+04  3.739688E+03
       207   9  2.173387E+05  1.252701E+05 -7.568364E+03  1.826028E+05  5.429230E+03  5.190371E+02
       207  10  3.325335E+05  2.111662E+05  4.268117E+04  2.363433E+05 -4.552590E-10 -2.111754E-10
       207  11  3.256488E+05  1.966586E+05  3.014391E+04  2.337635E+05 -6.196849E-10 -2.308979E-10
       207  12  3.173929E+05  1.928738E+05  2.339536E+04  2.307171E+05 -6.830513E-10  2.348130E-11
       207  13  2.696715E+05  1.631891E+05  2.219219E+04  2.035736E+05  1.623630E-10 -1.744731E-10
       207  14  2.692127E+05  1.557780E+05  1.219598E+04  2.053496E+05  1.685995E-10 -2.129075E-10
       207  15  2.673643E+05  1.590712E+05  7.913558E+03  2.066588E+05  1.552779E-10 -4.908933E-12
       207  16  2.068133E+05  1.152143E+05  1.702529E+03  1.708076E+05  5.738271E-10 -1.753575E-10
       207  17  2.127799E+05  1.148993E+05 -5.752358E+03  1.769386E+05  3.440896E-11 -1.654964E-10
       207  18  2.173387E+05  1.252701E+05 -7.568420E+03  1.826028E+05  1.017287E-10  2.810317E-11
       207  19  3.325338E+05  2.111663E+05  4.268170E+04  2.363434E+05 -1.531909E+04 -6.835787E+03
       207  20  3.256489E+05  1.966586E+05  3.014412E+04  2.337635E+05 -1.008155E+04 -3.364635E+03
       207  21  3.173929E+05  1.928738E+05  2.339541E+04  2.307171E+05 -4.754150E+03 -1.356655E+01
       207  22  2.696718E+05  1.631892E+05  2.219274E+04  2.035737E+05 -1.548255E+04 -6.958059E+03
       207  23  2.692128E+05  1.557780E+05  1.219620E+04  2.053496E+05 -1.033208E+04 -3.552174E+03
       207  24  2.673643E+05  1.590713E+05  7.913607E+03  2.066588E+05 -5.091710E+03 -2.663158E+02
       207  25  2.068136E+05  1.152144E+05  1.703083E+03  1.708077E+05 -1.564599E+04 -7.080314E+03
       207  26  2.127801E+05  1.148993E+05 -5.752121E+03  1.769386E+05 -1.058258E+04 -3.739688E+03
       207  27  2.173387E+05  1.252701E+05 -7.568364E+03  1.826028E+05 -5.429230E+03 -5.190371E+02
       208   1  3.087377E+05  1.889391E+05  1.981104E+04  2.267496E+05  3.556818E+03 -4.730365E+02
       208   2  3.033434E+05  1.800878E+05  1.623881E+04  2.221131E+05  9.955723E+02 -1.737529E+03
       208   3  2.932936E+05  1.775248E+05  1.474723E+04  2.188769E+05 -1.568419E+03 -2.998383E+03
       208   4  2.673638E+05  1.593835E+05  6.760753E+03  2.061053E+05  3.856990E+03 -2.482790E+02
       208   5  2.696882E+05  1.562328E+05  5.635821E+03  2.054103E+05  1.298539E+03 -1.510662E+03
       208   6  2.673563E+05  1.593699E+05  6.589255E+03  2.061156E+05 -1.262705E+03 -2.769442E+03
       208   7  2.259917E+05  1.298288E+05 -6.289754E+03  1.854624E+05  4.157135E+03 -2.354199E+01
       208   8  2.360339E+05  1.323783E+05 -4.967358E+03  1.887084E+05  1.601484E+03 -1.283811E+03
       208   9  2.414195E+05  1.412154E+05 -1.568874E+03  1.933548E+05 -9.570063E+02 -2.540512E+03
       208  10  3.087377E+05  1.889391E+05  1.981102E+04  2.267496E+05  4.150903E-11  2.739884E-10
       208  11  3.033434E+05  1.800878E+05  1.623881E+04  2.221131E+05  6.425708E-10 -5.437428E-11
       208  12  2.932936E+05  1.775247E+05  1.474721E+04  2.188769E+05  2.821188E-10 -1.345981E-10
       208  13  2.673637E+05  1.593835E+05  6.760725E+03  2.061053E+05  2.268447E-10  6.758755E-11
       208  14  2.696881E+05  1.562328E+05  5.635814E+03  2.054103E+05  1.003384E-10 -2.318530E-10
       208  15  2.673563E+05  1.593699E+05  6.589237E+03  2.061156E+05  9.174902E-10 -1.701293E-10
       208  16  2.259917E+05  1.298288E+05 -6.289787E+03  1.854624E+05 -9.862971E-11 -2.414813E-10
       208  17  2.360339E+05  1.323783E+05 -4.967366E+03  1.887084E+05  1.031022E-10 -6.125338E-11
       208  18  2.414195E+05  1.412153E+05 -1.568888E+03  1.933548E+05 -1.862173E-10 -2.119184E-10
       208  19  3.087377E+05  1.889391E+05  1.981104E+04  2.267496E+05 -3.556818E+03  4.730365E+02
       208  20  3.033434E+05  1.800878E+05  1.623881E+04  2.221131E+05 -9.955723E+02  1.737529E+03
       208  21  2.932936E+05  1.775248E+05  1.474723E+04  2.188769E+05  1.568419E+03  2.998383E+03
       208  22  2.673638E+05  1.593835E+05  6.760753E+03  2.061053E+05 -3.856990E+03  2.482790E+02
       208  23  2.696882E+05  1.562328E+05  5.635821E+03  2.054103E+05 -1.298539E+03  1.510662E+03
       208  24  2.673563E+05  1.593699E+05  6.589255E+03  2.061156E+05  1.262705E+03  2.769442E+03
       208  25  2.259917E+05  1.298288E+05 -6.289754E+03  1.854624E+05 -4.157135E+03  2.354199E+01
       208  26  2.360339E+05  1.323783E+05 -4.967358E+03  1.887084E+05 -1.601484E+03  1.283811E+03
       208  27  2.414195E+05  1.412154E+05 -1.568874E+03  1.933548E+05  9.570063E+02  2.540512E+03
       209   1  2.847324E+05  1.729528E+05  1.338101E+04  2.159878E+05 -2.771880E+03 -3.507042E+03
       209   2  2.801863E+05  1.627441E+05  1.496363E+04  2.104060E+05 -7.783039E+03 -6.605765E+03
       209   3  2.740928E+05  1.629389E+05  2.198365E+04  2.044443E+05 -1.277016E+04 -9.736330E+03
       209   4  2.673637E+05  1.590649E+05  7.647656E+03  2.066343E+05 -2.458404E+03 -3.272271E+03
       209   5  2.692329E+05  1.558189E+05  1.166915E+04  2.053571E+05 -7.492487E+03 -6.388178E+03
       209   6  2.695594E+05  1.629813E+05  2.114791E+04  2.036998E+05 -1.250261E+04 -9.536022E+03
       209   7  2.499954E+05  1.451774E+05  1.914312E+03  1.972812E+05 -2.144942E+03 -3.037512E+03
       209   8  2.582796E+05  1.488938E+05  8.374676E+03  2.003084E+05 -7.201943E+03 -6.170598E+03
       209   9  2.650260E+05  1.630236E+05  2.031217E+04  2.029554E+05 -1.223507E+04 -9.335714E+03
       209  10  2.847324E+05  1.729528E+05  1.338097E+04  2.159878E+05  3.612056E-10 -1.282250E-10
       209  11  2.801862E+05  1.627440E+05  1.496344E+04  2.104060E+05  6.619870E-11 -2.451271E-10
       209  12  2.740926E+05  1.629388E+05  2.198317E+04  2.044442E+05  2.801928E-10 -3.889607E-11
       209  13  2.673637E+05  1.590649E+05  7.647625E+03  2.066343E+05 -1.109293E-09 -1.329311E-10
       209  14  2.692328E+05  1.558189E+05  1.166897E+04  2.053571E+05 -3.701812E-10 -1.762524E-10
       209  15  2.695592E+05  1.629811E+05  2.114744E+04  2.036997E+05  1.481411E-10  1.248963E-10
       209  16  2.499954E+05  1.451774E+05  1.914287E+03  1.972812E+05 -5.472897E-10 -1.519722E-11
       209  17  2.582795E+05  1.488938E+05  8.374508E+03  2.003083E+05  1.622230E-10  1.225064E-10
       209  18  2.650258E+05  1.630235E+05  2.031172E+04  2.029553E+05 -5.959188E-10  1.391211E-10
       209  19  2.847324E+05  1.729528E+05  1.338101E+04  2.159878E+05  2.771880E+03  3.507042E+03
       209  20  2.801863E+05  1.627441E+05  1.496363E+04  2.104060E+05  7.783039E+03  6.605765E+03
       209  21  2.740928E+05  1.629389E+05  2.198365E+04  2.044443E+05  1.277016E+04  9.736330E+03
       209  22  2.673637E+05  1.590649E+05  7.647656E+03  2.066343E+05  2.458404E+03  3.272271E+03
       209  23  2.692329E+05  1.558189E+05  1.166915E+04  2.053571E+05  7.492487E+03  6.388178E+03
       209  24  2.695594E+05  1.629813E+05  2.114791E+04  2.036998E+05  1.250261E+04  9.536022E+03
       209  25  2.499954E+05  1.451774E+05  1.914312E+03  1.972812E+05  2.144942E+03  3.037512E+03
       209  26  2.582796E+05  1.488938E+05  8.374676E+03  2.003084E+05  7.201943E+03  6.170598E+03
       209  27  2.650260E+05  1.630236E+05  2.031217E+04  2.029554E+05  1.223507E+04  9.335714E+03
       210   1  2.531692E+05  1.657702E+05  2.451802E+04  2.116321E+05 -1.630967E+04 -1.188419E+04
       210   2  2.607363E+05  1.317562E+05  3.880681E+04  1.956495E+05 -3.440807E+04 -2.493005E+04
       210   3  3.084343E+05  1.655297E+05  8.861645E+04  1.524014E+05 -5.202328E+04 -3.862053E+04
       210   4  2.690278E+05  1.582527E+05  2.606640E+04  2.108347E+05 -1.584335E+04 -1.153449E+04
       210   5  2.636247E+05  1.505467E+05  4.283917E+04  2.048123E+05 -3.440705E+04 -2.493016E+04
       210   6  2.984507E+05  2.107267E+05  9.553573E+04  1.715248E+05 -5.248682E+04 -3.897183E+04
       210   7  2.848870E+05  1.507354E+05  2.761487E+04  2.100373E+05 -1.537700E+04 -1.118479E+04
       210   8  2.665132E+05  1.693380E+05  4.687157E+04  2.139751E+05 -3.440603E+04 -2.493027E+04
       210   9  2.884690E+05  2.559282E+05  1.024554E+05  1.906481E+05 -5.295035E+04 -3.932319E+04
       210  10  2.531689E+05  1.657700E+05  2.451725E+04  2.116319E+05  5.402234E-10 -7.278441E-11
       210  11  2.607348E+05  1.317552E+05  3.880341E+04  1.956489E+05  7.322422E-10 -1.485967E-10
       210  12  3.084310E+05  1.655273E+05  8.860856E+04  1.523998E+05  1.977404E-10 -1.423385E-10
       210  13  2.690275E+05  1.582525E+05  2.606568E+04  2.108346E+05 -2.035481E-10  2.940007E-11
       210  14  2.636232E+05  1.505457E+05  4.283578E+04  2.048116E+05 -3.225298E-10 -2.649715E-10
       210  15  2.984474E+05  2.107243E+05  9.552770E+04  1.715232E+05  6.629139E-11 -1.648047E-10
       210  16  2.848867E+05  1.507352E+05  2.761419E+04  2.100371E+05 -5.218611E-10  2.761045E-11
       210  17  2.665118E+05  1.693370E+05  4.686818E+04  2.139744E+05 -2.772179E-10 -2.185327E-10
       210  18  2.884656E+05  2.559258E+05  1.024473E+05  1.906464E+05 -3.259518E-10 -1.020124E-11
       210  19  2.531692E+05  1.657702E+05  2.451802E+04  2.116321E+05  1.630967E+04  1.188419E+04
       210  20  2.607363E+05  1.317562E+05  3.880681E+04  1.956495E+05  3.440807E+04  2.493005E+04
       210  21  3.084343E+05  1.655297E+05  8.861645E+04  1.524014E+05  5.202328E+04  3.862053E+04
       210  22  2.690278E+05  1.582527E+05  2.606640E+04  2.108347E+05  1.584335E+04  1.153449E+04
       210  23  2.636247E+05  1.505467E+05  4.283917E+04  2.048123E+05  3.440705E+04  2.493016E+04
       210  24  2.984507E+05  2.107267E+05  9.553573E+04  1.715248E+05  5.248682E+04  3.897183E+04
       210  25  2.848870E+05  1.507354E+05  2.761487E+04  2.100373E+05  1.537700E+04  1.118479E+04
       210  26  2.665132E+05  1.693380E+05  4.687157E+04  2.139751E+05  3.440603E+04  2.493027E+04
       210  27  2.884690E+05  2.559282E+05  1.024554E+05  1.906481E+05  5.295035E+04  3.932319E+04
       211   1  5.653370E+05  1.203557E+05  1.012337E+05  4.537526E+04 -3.844750E+04 -8.567787E+03
       211   2  4.452608E+05  1.599880E+05  1.072183E+05  3.136137E+04 -3.219194E+04 -2.523134E+04
       211   3  3.066231E+05  1.273266E+05  9.111884E+04  8.422584E+04 -2.592705E+04 -2.193646E+04
       211   4 -1.961624E+05 -6.921895E+04 -8.508106E+04  7.408060E+04 -5.759340E+04 -8.558603E+03
       211   5 -1.855906E+05  4.660654E+03 -3.863851E+04  4.065573E+04 -3.697893E+04 -2.523182E+04
       211   6 -1.961135E+05  3.712366E+03 -2.427237E+04  7.411683E+04 -1.635335E+04 -2.193799E+04
       211   7 -9.571312E+05 -2.588332E+05 -2.714364E+05  1.027507E+05 -7.671585E+04 -8.551185E+03
       211   8 -8.160741E+05 -1.506943E+05 -1.845217E+05  4.994060E+04 -4.176107E+04 -2.523245E+04
       211   9 -6.986158E+05 -1.199191E+05 -1.396799E+05  6.401606E+04 -6.787334E+03 -2.193984E+04
       211  10  5.653354E+05  1.203552E+05  1.012307E+05  4.537499E+04 -1.134456E-10  9.499187E-11
       211  11  4.452595E+05  1.599871E+05  1.072151E+05  3.136071E+04  6.787089E-11  2.944754E-10
       211  12  3.066222E+05  1.273259E+05  9.111667E+04  8.422538E+04 -2.843107E-10  2.322847E-10
       211  13 -1.961660E+05 -6.921992E+04 -8.508743E+04  7.408020E+04 -2.529635E-10  3.110529E-10
       211  14 -1.855922E+05  4.659603E+03 -3.864228E+04  4.065497E+04 -3.973689E-10  2.786029E-10
       211  15 -1.961140E+05  3.711777E+03 -2.427378E+04  7.411654E+04  1.999599E-10 -1.170882E-10
       211  16 -9.571376E+05 -2.588349E+05 -2.714476E+05  1.027502E+05  2.914372E-10  8.314640E-11
       211  17 -8.160761E+05 -1.506955E+05 -1.845262E+05  4.993975E+04  8.789408E-10  1.096870E-10
       211  18 -6.986159E+05 -1.199196E+05 -1.396808E+05  6.401594E+04  1.309121E-12 -1.876957E-10
       211  19  5.653370E+05  1.203557E+05  1.012337E+05  4.537526E+04  3.844750E+04  8.567787E+03
       211  20  4.452608E+05  1.599880E+05  1.072183E+05  3.136137E+04  3.219194E+04  2.523134E+04
       211  21  3.066231E+05  1.273266E+05  9.111884E+04  8.422584E+04  2.592705E+04  2.193646E+04
       211  22 -1.961624E+05 -6.921895E+04 -8.508106E+04  7.408060E+04  5.759340E+04  8.558603E+03
       211  23 -1.855906E+05  4.660654E+03 -3.863851E+04  4.065573E+04  3.697893E+04  2.523182E+04
       211  24 -1.961135E+05  3.712366E+03 -2.427237E+04  7.411683E+04  1.635335E+04  2.193799E+04
       211  25 -9.571312E+05 -2.588332E+05 -2.714364E+05  1.027507E+05  7.671585E+04  8.551185E+03
       211  26 -8.160741E+05 -1.506943E+05 -1.845217E+05  4.994060E+04  4.176107E+04  2.523245E+04
       211  27 -6.986158E+05 -1.199191E+05 -1.396799E+05  6.401606E+04  6.787334E+03  2.193984E+04
       212   1  1.866181E+05  8.796966E+04  6.688740E+04  7.240596E+04 -1.611691E+04 -1.588168E+04
       212   2  5.841053E+04  6.177907E+04  4.423972E+04  3.995918E+04 -1.021543E+04 -1.064500E+04
       212   3 -7.206871E+04  2.936561E+04  1.620143E+04  7.524315E+04 -4.317544E+03 -4.460311E+03
       212   4 -1.919357E+05 -5.178683E+03 -2.030646E+04  7.429554E+04 -1.268254E+04 -1.588229E+04
       212   5 -1.907225E+05  4.899404E+02 -1.305857E+04  4.042905E+04 -6.102185E+03 -1.064484E+04
       212   6 -1.919181E+05 -1.834241E+02 -1.167512E+04  7.429530E+04  4.757675E+02 -4.459195E+03
       212   7 -5.703570E+05 -9.833704E+04 -1.075098E+05  7.618396E+04 -9.250243E+03 -1.588287E+04
       212   8 -4.397980E+05 -6.080352E+04 -7.036091E+04  4.089872E+04 -1.990577E+03 -1.064468E+04
       212   9 -3.117541E+05 -2.973346E+04 -3.955255E+04  7.334762E+04  5.268160E+03 -4.458093E+03
       212  10  1.866178E+05  8.796932E+04  6.688644E+04  7.240575E+04 -7.243801E-10  1.315489E-10
       212  11  5.841039E+04  6.177892E+04  4.423932E+04  3.995910E+04 -4.487745E-10  3.194820E-10
       212  12 -7.206874E+04  2.936559E+04  1.620136E+04  7.524313E+04 -9.261036E-10  2.418850E-10
       212  13 -1.919360E+05 -5.178997E+03 -2.030724E+04  7.429538E+04  2.490500E-10 -1.254850E-10
       212  14 -1.907225E+05  4.898087E+02 -1.305886E+04  4.042899E+04  7.904170E-10  5.702687E-10
       212  15 -1.919181E+05 -1.834455E+02 -1.167516E+04  7.429530E+04 -3.408040E-10  3.457507E-10
       212  16 -5.703571E+05 -9.833733E+04 -1.075104E+05  7.618384E+04  6.173688E-10 -9.419254E-12
       212  17 -4.397980E+05 -6.080364E+04 -7.036113E+04  4.089870E+04  6.231031E-10  4.661826E-10
       212  18 -3.117541E+05 -2.973349E+04 -3.955264E+04  7.334764E+04  8.329413E-10  4.267560E-10
       212  19  1.866181E+05  8.796966E+04  6.688740E+04  7.240596E+04  1.611691E+04  1.588168E+04
       212  20  5.841053E+04  6.177907E+04  4.423972E+04  3.995918E+04  1.021543E+04  1.064500E+04
       212  21 -7.206871E+04  2.936561E+04  1.620143E+04  7.524315E+04  4.317544E+03  4.460311E+03
       212  22 -1.919357E+05 -5.178683E+03 -2.030646E+04  7.429554E+04  1.268254E+04  1.588229E+04
       212  23 -1.907225E+05  4.899404E+02 -1.305857E+04  4.042905E+04  6.102185E+03  1.064484E+04
       212  24 -1.919181E+05 -1.834241E+02 -1.167512E+04  7.429530E+04 -4.757675E+02  4.459195E+03
       212  25 -5.703570E+05 -9.833704E+04 -1.075098E+05  7.618396E+04  9.250243E+03  1.588287E+04
       212  26 -4.397980E+05 -6.080352E+04 -7.036091E+04  4.089872E+04  1.990577E+03  1.064468E+04
       212  27 -3.117541E+05 -2.973346E+04 -3.955255E+04  7.334762E+04 -5.268160E+03  4.458093E+03
       213   1 -1.961800E+05 -1.008339E+03 -1.344650E+04  7.304627E+04 -2.179552E+03 -5.279385E+02
       213   2 -3.239062E+05 -3.217633E+04 -4.654949E+04  4.104548E+04  6.394303E+03  5.672931E+03
       213   3 -4.548531E+05 -7.180348E+04 -8.735548E+04  7.679838E+04  1.496778E+04  1.107272E+04
       213   4 -1.920753E+05  6.820388E+01 -1.217283E+04  7.429966E+04  2.570875E+03 -5.267167E+02
       213   5 -1.905141E+05  6.494659E+02 -1.585003E+04  4.042358E+04  1.056918E+04  5.673569E+03
       213   6 -1.920854E+05 -7.125523E+03 -2.682741E+04  7.430066E+04  1.856884E+04  1.107285E+04
       213   7 -1.879707E+05  1.144764E+03 -1.089908E+04  7.555305E+04  7.321334E+03 -5.254757E+02
       213   8 -5.710550E+04  3.347403E+04  1.484833E+04  3.980155E+04  1.474494E+04  5.674198E+03
       213   9  7.074616E+04  5.754763E+04  3.369614E+04  7.180186E+04  2.217141E+04  1.107296E+04
       213  10 -1.961800E+05 -1.008341E+03 -1.344651E+04  7.304627E+04 -6.924948E-09 -3.099230E-10
       213  11 -3.239062E+05 -3.217638E+04 -4.654963E+04  4.104545E+04 -2.364506E-10 -9.429925E-10
       213  12 -4.548533E+05 -7.180367E+04 -8.735613E+04  7.679824E+04  6.798739E-09 -8.920801E-11
       213  13 -1.920753E+05  6.820181E+01 -1.217285E+04  7.429966E+04 -5.240174E-10 -4.796944E-10
       213  14 -1.905142E+05  6.494013E+02 -1.585030E+04  4.042353E+04 -2.644650E-11 -1.160334E-09
       213  15 -1.920858E+05 -7.125747E+03 -2.682829E+04  7.430049E+04  4.197621E-10 -2.229477E-10
       213  16 -1.879707E+05  1.144749E+03 -1.089918E+04  7.555305E+04  7.294081E-09 -4.821200E-10
       213  17 -5.710575E+04  3.347394E+04  1.484786E+04  3.980148E+04 -1.489169E-10 -1.238774E-09
       213  18  7.074560E+04  5.754737E+04  3.369498E+04  7.180167E+04 -6.237442E-09 -2.250837E-10
       213  19 -1.961800E+05 -1.008339E+03 -1.344650E+04  7.304627E+04  2.179552E+03  5.279385E+02
       213  20 -3.239062E+05 -3.217633E+04 -4.654949E+04  4.104548E+04 -6.394303E+03 -5.672931E+03
       213  21 -4.548531E+05 -7.180348E+04 -8.735548E+04  7.679838E+04 -1.496778E+04 -1.107272E+04
       213  22 -1.920753E+05  6.820388E+01 -1.217283E+04  7.429966E+04 -2.570875E+03  5.267167E+02
       213  23 -1.905141E+05  6.494659E+02 -1.585003E+04  4.042358E+04 -1.056918E+04 -5.673569E+03
       213  24 -1.920854E+05 -7.125523E+03 -2.682741E+04  7.430066E+04 -1.856884E+04 -1.107285E+04
       213  25 -1.879707E+05  1.144764E+03 -1.089908E+04  7.555305E+04 -7.321334E+03  5.254757E+02
       213  26 -5.710550E+04  3.347403E+04  1.484833E+04  3.980155E+04 -1.474494E+04 -5.674198E+03
       213  27  7.074616E+04  5.754763E+04  3.369614E+04  7.180186E+04 -2.217141E+04 -1.107296E+04
       214   1 -5.847920E+05 -8.998624E+04 -1.215229E+05  6.010394E+04  1.457821E+04  1.680324E+04
       214   2 -6.983726E+05 -1.203962E+05 -1.721448E+05  5.324200E+04  5.518175E+04  2.053456E+04
       214   3 -8.434386E+05 -2.563542E+05 -2.755733E+05  1.134113E+05  9.577085E+04  7.096882E+03
       214   4 -1.979245E+05  5.200301E+03 -3.263657E+04  7.414801E+04  2.345016E+04  1.680342E+04
       214   5 -1.832819E+05  6.522418E+03 -5.293125E+04  4.061622E+04  5.172201E+04  2.053288E+04
       214   6 -1.979674E+05 -9.551388E+04 -1.174348E+05  7.411863E+04  7.998847E+04  7.096187E+03
       214   7  1.890822E+05  1.003772E+05  5.624026E+04  8.820090E+04  3.232760E+04  1.680400E+04
       214   8  3.320546E+05  1.334230E+05  6.626473E+04  2.797988E+04  4.825940E+04  2.053135E+04
       214   9  4.478875E+05  6.530144E+04  4.067491E+04  3.478497E+04  6.418967E+04  7.097495E+03
       214  10 -5.847923E+05 -8.998660E+04 -1.215238E+05  6.010375E+04  1.365255E-09  5.347226E-10
       214  11 -6.983759E+05 -1.203975E+05 -1.721514E+05  5.324109E+04  2.784719E-10  4.854769E-10
       214  12 -8.434485E+05 -2.563567E+05 -2.755907E+05  1.134108E+05 -1.089465E-10  8.762792E-11
       214  13 -1.979252E+05  5.199850E+03 -3.263813E+04  7.414770E+04  5.284836E-10  4.229913E-10
       214  14 -1.832848E+05  6.521247E+03 -5.293707E+04  4.061537E+04 -7.202559E-10  4.672834E-10
       214  15 -1.979743E+05 -9.551566E+04 -1.174470E+05  7.411817E+04  1.151528E-10  1.967152E-10
       214  16  1.890810E+05  1.003766E+05  5.623777E+04  8.820047E+04 -1.090677E-09  2.880776E-10
       214  17  3.320520E+05  1.334219E+05  6.625956E+04  2.797909E+04 -3.185658E-11  1.961611E-10
       214  18  4.478831E+05  6.530028E+04  4.066707E+04  3.478460E+04 -3.084751E-10  5.553855E-11
       214  19 -5.847920E+05 -8.998624E+04 -1.215229E+05  6.010394E+04 -1.457821E+04 -1.680324E+04
       214  20 -6.983726E+05 -1.203962E+05 -1.721448E+05  5.324200E+04 -5.518175E+04 -2.053456E+04
       214  21 -8.434386E+05 -2.563542E+05 -2.755733E+05  1.134113E+05 -9.577085E+04 -7.096882E+03
       214  22 -1.979245E+05  5.200301E+03 -3.263657E+04  7.414801E+04 -2.345016E+04 -1.680342E+04
       214  23 -1.832819E+05  6.522418E+03 -5.293125E+04  4.061622E+04 -5.172201E+04 -2.053288E+04
       214  24 -1.979674E+05 -9.551388E+04 -1.174348E+05  7.411863E+04 -7.998847E+04 -7.096187E+03
       214  25  1.890822E+05  1.003772E+05  5.624026E+04  8.820090E+04 -3.232760E+04 -1.680400E+04
       214  26  3.320546E+05  1.334230E+05  6.626473E+04  2.797988E+04 -4.825940E+04 -2.053135E+04
       214  27  4.478875E+05  6.530144E+04  4.067491E+04  3.478497E+04 -6.418967E+04 -7.097495E+03
       215   1 -1.799394E+05 -6.367786E+05 -1.936921E+05  9.758581E+04 -4.841156E+03 -6.572756E+04
       215   2 -7.724850E+04 -5.021029E+05 -1.140931E+05  4.698679E+04 -1.316253E+04 -3.695121E+04
       215   3 -4.795644E+04 -3.896203E+05 -7.161129E+04  6.065831E+04 -8.999682E+03 -8.181329E+03
       215   4 -6.618566E+04 -1.799357E+05 -8.167455E+04  7.070951E+04 -4.827636E+03 -5.525123E+04
       215   5  4.654533E+03 -1.696048E+05 -3.708983E+04  3.853747E+04 -1.315985E+04 -3.544350E+04
       215   6  3.676532E+03 -1.799087E+05 -2.337340E+04  7.063814E+04 -9.009112E+03 -1.564836E+04
       215   7  4.755542E+04  2.770993E+05  3.032846E+04  4.381333E+04 -4.815031E+03 -4.476718E+04
       215   8  8.655007E+04  1.629956E+05  3.990605E+04  3.008355E+04 -1.315722E+04 -3.393499E+04
       215   9  5.530683E+04  2.984387E+04  2.486184E+04  8.062137E+04 -9.018781E+03 -2.311788E+04
       215  10 -1.799406E+05 -6.367832E+05 -1.937002E+05  9.758555E+04 -2.535137E-10 -5.456122E-10
       215  11 -7.724906E+04 -5.021044E+05 -1.140960E+05  4.698640E+04  3.098278E-10  3.594806E-11
       215  12 -4.795654E+04 -3.896204E+05 -7.161157E+04  6.065825E+04  5.038774E-10  9.627793E-10
       215  13 -6.618650E+04 -1.799390E+05 -8.168033E+04  7.070930E+04 -5.525897E-10 -3.576926E-11
       215  14  4.654009E+03 -1.696062E+05 -3.709252E+04  3.853709E+04 -1.407247E-09  2.666260E-11
       215  15  3.676379E+03 -1.799090E+05 -2.337401E+04  7.063803E+04  1.517242E-10 -2.849457E-10
       215  16  4.755486E+04  2.770971E+05  3.032466E+04  4.381316E+04  1.599254E-11  5.329506E-10
       215  17  8.654957E+04  1.629943E+05  3.990356E+04  3.008319E+04 -3.967388E-10 -4.127565E-10
       215  18  5.530660E+04  2.984327E+04  2.486068E+04  8.062120E+04  7.480710E-10 -1.151846E-09
       215  19 -1.799394E+05 -6.367786E+05 -1.936921E+05  9.758581E+04  4.841156E+03  6.572756E+04
       215  20 -7.724850E+04 -5.021029E+05 -1.140931E+05  4.698679E+04  1.316253E+04  3.695121E+04
       215  21 -4.795644E+04 -3.896203E+05 -7.161129E+04  6.065831E+04  8.999682E+03  8.181329E+03
       215  22 -6.618566E+04 -1.799357E+05 -8.167455E+04  7.070951E+04  4.827636E+03  5.525123E+04
       215  23  4.654533E+03 -1.696048E+05 -3.708983E+04  3.853747E+04  1.315985E+04  3.544350E+04
       215  24  3.676532E+03 -1.799087E+05 -2.337340E+04  7.063814E+04  9.009112E+03  1.564836E+04
       215  25  4.755542E+04  2.770993E+05  3.032846E+04  4.381333E+04  4.815031E+03  4.476718E+04
       215  26  8.655007E+04  1.629956E+05  3.990605E+04  3.008355E+04  1.315722E+04  3.393499E+04
       215  27  5.530683E+04  2.984387E+04  2.486184E+04  8.062137E+04  9.018781E+03  2.311788E+04
       216   1 -2.713201E+04 -2.672009E+05 -4.054699E+04  7.266411E+04 -3.904010E+03 -8.298782E+03
       216   2  8.594780E+03 -1.422642E+05 -5.193951E+03  3.870034E+04  1.380100E+03 -1.978671E+03
       216   3  3.694181E+04 -2.017122E+04  2.415359E+04  6.941778E+04  6.586018E+03  4.343064E+03
       216   4 -4.685496E+03 -1.759528E+05 -1.955497E+04  7.075299E+04 -3.908960E+03 -1.212505E+04
       216   5  6.581555E+02 -1.745201E+05 -1.261140E+04  3.841002E+04  1.375313E+03 -5.748323E+03
       216   6 -1.386657E+03 -1.759545E+05 -1.171103E+04  7.074879E+04  6.581374E+03  6.288013E+02
       216   7  1.776045E+04 -8.469700E+04  1.436556E+03  6.884159E+04 -3.913886E+03 -1.595188E+04
       216   8 -7.278534E+03 -2.067750E+05 -2.002886E+04  3.811972E+04  1.370529E+03 -9.517780E+03
       216   9 -3.971680E+04 -3.317153E+05 -4.757721E+04  7.207947E+04  6.576714E+03 -3.084537E+03
       216  10 -2.713204E+04 -2.672010E+05 -4.054715E+04  7.266408E+04  1.036849E-09 -3.360550E-10
       216  11  8.594777E+03 -1.422643E+05 -5.193962E+03  3.870034E+04  1.248971E-10 -2.659370E-10
       216  12  3.694176E+04 -2.017125E+04  2.415348E+04  6.941775E+04 -1.618864E-10 -7.941416E-11
       216  13 -4.685552E+03 -1.759530E+05 -1.955527E+04  7.075296E+04  6.045446E-10 -1.583971E-10
       216  14  6.581446E+02 -1.745202E+05 -1.261146E+04  3.841003E+04 -4.732894E-10  8.793615E-12
       216  15 -1.386703E+03 -1.759545E+05 -1.171111E+04  7.074879E+04  1.177372E-11  1.367791E-10
       216  16  1.776037E+04 -8.469728E+04  1.436049E+03  6.884154E+04  6.389993E-10  3.266191E-10
       216  17 -7.278560E+03 -2.067751E+05 -2.002904E+04  3.811973E+04  8.492749E-10  1.276357E-10
       216  18 -3.971685E+04 -3.317153E+05 -4.757731E+04  7.207948E+04  2.113793E-10 -2.439121E-12
       216  19 -2.713201E+04 -2.672009E+05 -4.054699E+04  7.266411E+04  3.904010E+03  8.298782E+03
       216  20  8.594780E+03 -1.422642E+05 -5.193951E+03  3.870034E+04 -1.380100E+03  1.978671E+03
       216  21  3.694181E+04 -2.017122E+04  2.415359E+04  6.941778E+04 -6.586018E+03 -4.343064E+03
       216  22 -4.685496E+03 -1.759528E+05 -1.955497E+04  7.075299E+04  3.908960E+03  1.212505E+04
       216  23  6.581555E+02 -1.745201E+05 -1.261140E+04  3.841002E+04 -1.375313E+03  5.748323E+03
       216  24 -1.386657E+03 -1.759545E+05 -1.171103E+04  7.074879E+04 -6.581374E+03 -6.288013E+02
       216  25  1.776045E+04 -8.469700E+04  1.436556E+03  6.884159E+04  3.913886E+03  1.595188E+04
       216  26 -7.278534E+03 -2.067750E+05 -2.002886E+04  3.811972E+04 -1.370529E+03  9.517780E+03
       216  27 -3.971680E+04 -3.317153E+05 -4.757721E+04  7.207947E+04 -6.576714E+03  3.084537E+03
       217   1  6.863043E+04  9.724669E+04  5.105419E+04  7.450811E+04  1.186254E+04  1.047293E+04
       217   2  9.954458E+04  2.238577E+05  7.663861E+04  3.559230E+04  1.575191E+04  8.436427E+03
       217   3  1.054606E+05  3.444361E+05  9.728290E+04  6.084441E+04  5.597512E+03  6.412754E+03
       217   4  1.150134E+03 -1.770641E+05 -1.197384E+04  7.062895E+04  1.185317E+04  2.612143E+03
       217   5  1.774999E+03 -1.731751E+05 -1.523446E+04  3.855511E+04  1.575499E+04  1.068605E+04
       217   6 -2.436139E+04 -1.770919E+05 -3.045965E+04  7.065290E+04  5.608994E+03  1.877297E+04
       217   7 -6.633532E+04 -4.513051E+05 -7.500661E+04  6.675149E+04  1.184389E+04 -5.245199E+03
       217   8 -9.600562E+04 -5.700622E+05 -1.071180E+05  4.151598E+04  1.575808E+04  1.293424E+04
       217   9 -1.542030E+05 -6.983717E+05 -1.582215E+05  8.045307E+04  5.620873E+03  3.112283E+04
       217  10  6.863024E+04  9.724653E+04  5.105372E+04  7.450801E+04  2.737380E-10 -4.650544E-10
       217  11  9.954430E+04  2.238576E+05  7.663801E+04  3.559219E+04 -8.208815E-10 -1.991908E-10
       217  12  1.054605E+05  3.444361E+05  9.728276E+04  6.084438E+04 -2.508485E-10  2.755827E-10
       217  13  1.149981E+03 -1.770641E+05 -1.197412E+04  7.062893E+04 -5.306963E-10 -6.386013E-11
       217  14  1.774702E+03 -1.731753E+05 -1.523514E+04  3.855498E+04  5.898468E-10  1.361556E-10
       217  15 -2.436152E+04 -1.770923E+05 -3.046038E+04  7.065282E+04  1.521762E-10 -7.535604E-11
       217  16 -6.633548E+04 -4.513051E+05 -7.500693E+04  6.675154E+04  9.557335E-10  3.161910E-10
       217  17 -9.600594E+04 -5.700625E+05 -1.071188E+05  4.151581E+04 -2.824893E-10  4.461284E-11
       217  18 -1.542033E+05 -6.983728E+05 -1.582234E+05  8.045293E+04 -2.696895E-10 -3.378931E-10
       217  19  6.863043E+04  9.724669E+04  5.105419E+04  7.450811E+04 -1.186254E+04 -1.047293E+04
       217  20  9.954458E+04  2.238577E+05  7.663861E+04  3.559230E+04 -1.575191E+04 -8.436427E+03
       217  21  1.054606E+05  3.444361E+05  9.728290E+04  6.084441E+04 -5.597512E+03 -6.412754E+03
       217  22  1.150134E+03 -1.770641E+05 -1.197384E+04  7.062895E+04 -1.185317E+04 -2.612143E+03
       217  23  1.774999E+03 -1.731751E+05 -1.523446E+04  3.855511E+04 -1.575499E+04 -1.068605E+04
       217  24 -2.436139E+04 -1.770919E+05 -3.045965E+04  7.065290E+04 -5.608994E+03 -1.877297E+04
       217  25 -6.633532E+04 -4.513051E+05 -7.500661E+04  6.675149E+04 -1.184389E+04  5.245199E+03
       217  26 -9.600562E+04 -5.700622E+05 -1.071180E+05  4.151598E+04 -1.575808E+04 -1.293424E+04
       217  27 -1.542030E+05 -6.983717E+05 -1.582215E+05  8.045307E+04 -5.620873E+03 -3.112283E+04
       218   1  8.253513E+05  6.574164E+05  2.294814E+05  5.416195E+05  1.014999E+05  7.263165E+04
       218   2  7.827463E+05  4.961541E+05  1.250982E+05  5.819527E+05  6.817936E+04  4.075468E+04
       218   3  8.115610E+05  4.610957E+05  8.881700E+04  5.734998E+05  3.136176E+04  1.355034E+04
       218   4  7.131064E+05  4.827387E+05  1.733789E+05  4.424854E+05  9.660582E+04  6.895244E+04
       218   5  6.510743E+05  3.723913E+05  7.777841E+04  5.025577E+05  6.665701E+04  3.961138E+04
       218   6  6.597491E+05  3.875333E+05  4.737005E+04  5.138384E+05  3.321221E+04  1.493765E+04
       218   7  6.008794E+05  3.081070E+05  1.172745E+05  3.433797E+05  9.171289E+04  6.527549E+04
       218   8  5.194206E+05  2.486472E+05  3.045581E+04  4.231838E+05  6.513507E+04  3.846853E+04
       218   9  5.079616E+05  3.139752E+05  5.920846E+03  4.541901E+05  3.506205E+04  1.632469E+04
       218  10  8.253388E+05  6.574079E+05  2.294521E+05  5.416136E+05 -8.536125E-11 -1.325877E-11
       218  11  7.827409E+05  4.961511E+05  1.250864E+05  5.819505E+05 -6.204887E-10  2.194086E-10
       218  12  8.115599E+05  4.610952E+05  8.881481E+04  5.734994E+05  1.264400E-09 -1.791189E-12
       218  13  7.130951E+05  4.827311E+05  1.733524E+05  4.424801E+05  7.545692E-10  3.552408E-10
       218  14  6.510691E+05  3.723885E+05  7.776713E+04  5.025556E+05 -1.155983E-09  3.505546E-10
       218  15  6.597479E+05  3.875328E+05  4.736756E+04  5.138380E+05  4.107025E-10 -2.268373E-10
       218  16  6.008693E+05  3.081002E+05  1.172507E+05  3.433749E+05  3.001404E-10  9.755937E-12
       218  17  5.194156E+05  2.486444E+05  3.044507E+04  4.231818E+05 -5.093127E-10  1.483822E-10
       218  18  5.079602E+05  3.139746E+05  5.918039E+03  4.541897E+05 -1.011460E-09 -3.534350E-10
       218  19  8.253513E+05  6.574164E+05  2.294814E+05  5.416195E+05 -1.014999E+05 -7.263165E+04
       218  20  7.827463E+05  4.961541E+05  1.250982E+05  5.819527E+05 -6.817936E+04 -4.075468E+04
       218  21  8.115610E+05  4.610957E+05  8.881700E+04  5.734998E+05 -3.136176E+04 -1.355034E+04
       218  22  7.131064E+05  4.827387E+05  1.733789E+05  4.424854E+05 -9.660582E+04 -6.895244E+04
       218  23  6.510743E+05  3.723913E+05  7.777841E+04  5.025577E+05 -6.665701E+04 -3.961138E+04
       218  24  6.597491E+05  3.875333E+05  4.737005E+04  5.138384E+05 -3.321221E+04 -1.493765E+04
       218  25  6.008794E+05  3.081070E+05  1.172745E+05  3.433797E+05 -9.171289E+04 -6.527549E+04
       218  26  5.194206E+05  2.486472E+05  3.045581E+04  4.231838E+05 -6.513507E+04 -3.846853E+04
       218  27  5.079616E+05  3.139752E+05  5.920846E+03  4.541901E+05 -3.506205E+04 -1.632469E+04
       219   1  7.722624E+05  4.811060E+05  7.477089E+04  5.589974E+05  2.634314E+04  1.151378E+04
       219   2  7.578646E+05  4.520381E+05  5.204149E+04  5.522567E+05  1.704521E+04  5.610599E+03
       219   3  7.384898E+05  4.441254E+05  3.940146E+04  5.454805E+05  7.578134E+03 -6.601025E+01
       219   4  6.607257E+05  3.960914E+05  3.846190E+04  5.008832E+05  2.674866E+04  1.181722E+04
       219   5  6.612439E+05  3.819850E+05  2.131891E+04  5.035623E+05  1.761569E+04  6.037875E+03
       219   6  6.567501E+05  3.889992E+05  1.412415E+04  5.062053E+05  8.313260E+03  4.847722E+02
       219   7  5.492030E+05  3.110856E+05  2.151578E+03  4.427816E+05  2.715408E+04  1.212058E+04
       219   8  5.646335E+05  3.119375E+05 -9.404722E+03  4.548766E+05  1.818606E+04  6.465056E+03
       219   9  5.750175E+05  3.338761E+05 -1.115395E+04  4.669359E+05  9.048253E+03  1.035462E+03
       219  10  7.722616E+05  4.811056E+05  7.476934E+04  5.589971E+05 -1.277514E-11 -4.375812E-10
       219  11  7.578643E+05  4.520380E+05  5.204089E+04  5.522566E+05 -3.867638E-10  3.465467E-10
       219  12  7.384898E+05  4.441254E+05  3.940135E+04  5.454805E+05 -7.916943E-10  4.619234E-10
       219  13  6.607248E+05  3.960911E+05  3.846030E+04  5.008829E+05 -1.967061E-10 -1.587156E-10
       219  14  6.612435E+05  3.819848E+05  2.131826E+04  5.035622E+05 -6.890611E-10  1.089358E-10
       219  15  6.567500E+05  3.889991E+05  1.412402E+04  5.062053E+05 -1.909501E-10  6.484754E-10
       219  16  5.492022E+05  3.110852E+05  2.149919E+03  4.427813E+05 -3.556969E-10  4.609849E-11
       219  17  5.646331E+05  3.119373E+05 -9.405421E+03  4.548765E+05 -6.791033E-10  1.088565E-10
       219  18  5.750174E+05  3.338761E+05 -1.115410E+04  4.669359E+05 -5.880326E-10  5.435211E-10
       219  19  7.722624E+05  4.811060E+05  7.477089E+04  5.589974E+05 -2.634314E+04 -1.151378E+04
       219  20  7.578646E+05  4.520381E+05  5.204149E+04  5.522567E+05 -1.704521E+04 -5.610599E+03
       219  21  7.384898E+05  4.441254E+05  3.940146E+04  5.454805E+05 -7.578134E+03  6.601025E+01
       219  22  6.607257E+05  3.960914E+05  3.846190E+04  5.008832E+05 -2.674866E+04 -1.181722E+04
       219  23  6.612439E+05  3.819850E+05  2.131891E+04  5.035623E+05 -1.761569E+04 -6.037875E+03
       219  24  6.567501E+05  3.889992E+05  1.412415E+04  5.062053E+05 -8.313260E+03 -4.847722E+02
       219  25  5.492030E+05  3.110856E+05  2.151578E+03  4.427816E+05 -2.715408E+04 -1.212058E+04
       219  26  5.646335E+05  3.119375E+05 -9.404722E+03  4.548766E+05 -1.818606E+04 -6.465056E+03
       219  27  5.750175E+05  3.338761E+05 -1.115395E+04  4.669359E+05 -9.048253E+03 -1.035462E+03
       220   1  7.199562E+05  4.347897E+05  3.220121E+04  5.368703E+05  5.350247E+03 -8.387377E+02
       220   2  7.082011E+05  4.155443E+05  2.532382E+04  5.266157E+05  3.635043E+02 -3.135334E+03
       220   3  6.859886E+05  4.098711E+05  2.241989E+04  5.194861E+05 -4.626056E+03 -5.428101E+03
       220   4  6.567719E+05  3.895162E+05  1.227678E+04  5.052638E+05  6.013545E+03 -3.417490E+02
       220   5  6.620244E+05  3.827723E+05  1.077655E+04  5.036701E+05  1.029950E+03 -2.635936E+03
       220   6  6.568190E+05  3.895998E+05  1.324741E+04  5.052013E+05 -3.956587E+03 -4.926396E+03
       220   7  5.935913E+05  3.442446E+05 -7.648299E+03  4.736607E+05  6.676757E+03  1.551737E+02
       220   8  6.158500E+05  3.500015E+05 -3.770976E+03  4.807265E+05  1.696329E+03 -2.136589E+03
       220   9  6.276505E+05  3.693292E+05  4.074911E+03  4.909174E+05 -3.287167E+03 -4.424726E+03
       220  10  7.199562E+05  4.347896E+05  3.220116E+04  5.368703E+05  1.094194E-09  9.421255E-10
       220  11  7.082011E+05  4.155443E+05  2.532380E+04  5.266157E+05 -2.761188E-09 -2.327888E-09
       220  12  6.859885E+05  4.098710E+05  2.241979E+04  5.194861E+05 -4.636531E-09 -4.835120E-09
       220  13  6.567718E+05  3.895162E+05  1.227672E+04  5.052638E+05 -1.337440E-09  1.762704E-10
       220  14  6.620244E+05  3.827723E+05  1.077654E+04  5.036701E+05 -1.179626E-10 -3.778422E-10
       220  15  6.568189E+05  3.895998E+05  1.324734E+04  5.052013E+05  1.375815E-09 -2.778297E-10
       220  16  5.935913E+05  3.442446E+05 -7.648383E+03  4.736607E+05 -2.075225E-09 -3.510163E-10
       220  17  6.158500E+05  3.500015E+05 -3.770990E+03  4.807265E+05  2.522222E-09  2.516016E-09
       220  18  6.276505E+05  3.693291E+05  4.074854E+03  4.909173E+05  7.052149E-09  4.091657E-09
       220  19  7.199562E+05  4.347897E+05  3.220121E+04  5.368703E+05 -5.350247E+03  8.387377E+02
       220  20  7.082011E+05  4.155443E+05  2.532382E+04  5.266157E+05 -3.635043E+02  3.135334E+03
       220  21  6.859886E+05  4.098711E+05  2.241989E+04  5.194861E+05  4.626056E+03  5.428101E+03
       220  22  6.567719E+05  3.895162E+05  1.227678E+04  5.052638E+05 -6.013545E+03  3.417490E+02
       220  23  6.620244E+05  3.827723E+05  1.077655E+04  5.036701E+05 -1.029950E+03  2.635936E+03
       220  24  6.568190E+05  3.895998E+05  1.324741E+04  5.052013E+05  3.956587E+03  4.926396E+03
       220  25  5.935913E+05  3.442446E+05 -7.648299E+03  4.736607E+05 -6.676757E+03 -1.551737E+02
       220  26  6.158500E+05  3.500015E+05 -3.770976E+03  4.807265E+05 -1.696329E+03  2.136589E+03
       220  27  6.276505E+05  3.693292E+05  4.074911E+03  4.909174E+05  3.287167E+03  4.424726E+03
       221   1  6.673067E+05  3.997115E+05  1.947416E+04  5.130619E+05 -7.114510E+03 -6.423754E+03
       221   2  6.572723E+05  3.774500E+05  2.278560E+04  5.008707E+05 -1.755506E+04 -1.281854E+04
       221   3  6.434455E+05  3.775613E+05  3.742340E+04  4.880190E+05 -2.791548E+04 -1.931989E+04
       221   4  6.568414E+05  3.889544E+05  1.562688E+04  5.063133E+05 -6.416122E+03 -5.900321E+03
       221   5  6.610406E+05  3.818791E+05  2.430192E+04  5.035523E+05 -1.693369E+04 -1.235292E+04
       221   6  6.614636E+05  3.971930E+05  4.436979E+04  5.001304E+05 -2.737147E+04 -1.891248E+04
       221   7  6.463762E+05  3.781973E+05  1.177958E+04  4.995649E+05 -5.717750E+03 -5.376907E+03
       221   8  6.648089E+05  3.863082E+05  2.581823E+04  5.062339E+05 -1.631232E+04 -1.188729E+04
       221   9  6.794822E+05  4.168254E+05  5.131619E+04  5.122424E+05 -2.682743E+04 -1.850504E+04
       221  10  6.673066E+05  3.997115E+05  1.947399E+04  5.130618E+05  7.281521E-09  4.468523E-09
       221  11  6.572719E+05  3.774497E+05  2.278472E+04  5.008705E+05  3.276741E-09  2.353185E-09
       221  12  6.434445E+05  3.775607E+05  3.742124E+04  4.880186E+05 -1.278606E-09 -6.042162E-10
       221  13  6.568413E+05  3.889543E+05  1.562674E+04  5.063133E+05  4.221662E-10 -2.942704E-10
       221  14  6.610403E+05  3.818788E+05  2.430109E+04  5.035521E+05 -5.527613E-10 -4.298160E-11
       221  15  6.614627E+05  3.971924E+05  4.436771E+04  5.001300E+05 -1.480478E-10  3.081671E-10
       221  16  6.463762E+05  3.781973E+05  1.177947E+04  4.995648E+05 -4.690577E-09 -4.730362E-09
       221  17  6.648086E+05  3.863080E+05  2.581747E+04  5.062338E+05 -2.921877E-09 -2.427716E-09
       221  18  6.794813E+05  4.168248E+05  5.131419E+04  5.122420E+05  8.528367E-10  1.092967E-09
       221  19  6.673067E+05  3.997115E+05  1.947416E+04  5.130619E+05  7.114510E+03  6.423754E+03
       221  20  6.572723E+05  3.774500E+05  2.278560E+04  5.008707E+05  1.755506E+04  1.281854E+04
       221  21  6.434455E+05  3.775613E+05  3.742340E+04  4.880190E+05  2.791548E+04  1.931989E+04
       221  22  6.568414E+05  3.889544E+05  1.562688E+04  5.063133E+05  6.416122E+03  5.900321E+03
       221  23  6.610406E+05  3.818791E+05  2.430192E+04  5.035523E+05  1.693369E+04  1.235292E+04
       221  24  6.614636E+05  3.971930E+05  4.436979E+04  5.001304E+05  2.737147E+04  1.891248E+04
       221  25  6.463762E+05  3.781973E+05  1.177958E+04  4.995649E+05  5.717750E+03  5.376907E+03
       221  26  6.648089E+05  3.863082E+05  2.581823E+04  5.062339E+05  1.631232E+04  1.188729E+04
       221  27  6.794822E+05  4.168254E+05  5.131619E+04  5.122424E+05  2.682743E+04  1.850504E+04
       222   1  5.986766E+05  3.830436E+05  4.262358E+04  5.027711E+05 -3.568693E+04 -2.390188E+04
       222   2  6.141124E+05  3.105904E+05  7.244441E+04  4.686810E+05 -7.311826E+04 -5.100408E+04
       222   3  7.133670E+05  3.811579E+05  1.764904E+05  3.773515E+05 -1.089314E+05 -8.026055E+04
       222   4  6.603395E+05  3.872618E+05  5.476315E+04  5.151538E+05 -3.447605E+04 -2.299237E+04
       222   5  6.492335E+05  3.707727E+05  9.012508E+04  5.023913E+05 -7.346688E+04 -5.126920E+04
       222   6  7.222689E+05  4.976242E+05  2.010578E+05  4.323926E+05 -1.108372E+05 -8.170683E+04
       222   7  7.220070E+05  3.914806E+05  6.690276E+04  5.275368E+05 -3.326500E+04 -2.208287E+04
       222   8  6.843565E+05  4.309605E+05  1.078055E+05  5.361047E+05 -7.381552E+04 -5.153438E+04
       222   9  7.311782E+05  6.141180E+05  2.256269E+05  4.874380E+05 -1.127430E+05 -8.315376E+04
       222  10  5.986751E+05  3.830426E+05  4.262012E+04  5.027704E+05  7.406021E-11  9.887257E-11
       222  11  6.141060E+05  3.105862E+05  7.242950E+04  4.686780E+05 -4.165533E-11 -7.821071E-11
       222  12  7.133525E+05  3.811479E+05  1.764561E+05  3.773445E+05 -5.079912E-10 -1.257200E-10
       222  13  6.603381E+05  3.872609E+05  5.475993E+04  5.151532E+05 -5.331100E-10  1.611468E-10
       222  14  6.492271E+05  3.707685E+05  9.011002E+04  5.023883E+05 -1.178403E-09  1.161984E-10
       222  15  7.222539E+05  4.976138E+05  2.010222E+05  4.323853E+05  4.148677E-10 -1.371175E-10
       222  16  7.220057E+05  3.914798E+05  6.689977E+04  5.275362E+05 -4.191621E-10  2.360631E-10
       222  17  6.843500E+05  4.309562E+05  1.077903E+05  5.361017E+05  1.341128E-10  2.891882E-10
       222  18  7.311628E+05  6.141071E+05  2.255901E+05  4.874305E+05 -3.907135E-10  6.755509E-11
       222  19  5.986766E+05  3.830436E+05  4.262358E+04  5.027711E+05  3.568693E+04  2.390188E+04
       222  20  6.141124E+05  3.105904E+05  7.244441E+04  4.686810E+05  7.311826E+04  5.100408E+04
       222  21  7.133670E+05  3.811579E+05  1.764904E+05  3.773515E+05  1.089314E+05  8.026055E+04
       222  22  6.603395E+05  3.872618E+05  5.476315E+04  5.151538E+05  3.447605E+04  2.299237E+04
       222  23  6.492335E+05  3.707727E+05  9.012508E+04  5.023913E+05  7.346688E+04  5.126920E+04
       222  24  7.222689E+05  4.976242E+05  2.010578E+05  4.323926E+05  1.108372E+05  8.170683E+04
       222  25  7.220070E+05  3.914806E+05  6.690276E+04  5.275368E+05  3.326500E+04  2.208287E+04
       222  26  6.843565E+05  4.309605E+05  1.078055E+05  5.361047E+05  7.381552E+04  5.153438E+04
       222  27  7.311782E+05  6.141180E+05  2.256269E+05  4.874380E+05  1.127430E+05  8.315376E+04
       223   1  1.127857E+06  1.868173E+05  1.845042E+05  7.451926E+04  2.120505E+04 -8.314666E+03
       223   2  9.975780E+05  1.496083E+05  1.424361E+05  4.055146E+04  6.348615E+03 -2.434882E+04
       223   3  8.709563E+05  1.182656E+05  1.115388E+05  7.301749E+04 -8.498388E+03 -2.101531E+04
       223   4  3.888798E+05  3.015178E+03  3.815763E+03  7.343606E+04  2.657905E+03 -8.308693E+03
       223   5  3.882902E+05 -3.089810E+02  1.649214E+03  4.021687E+04  1.768701E+03 -2.434988E+04
       223   6  3.889215E+05 -1.855579E+02  9.676651E+02  7.343521E+04  8.855864E+02 -2.101500E+04
       223   7 -3.495997E+05 -1.808271E+05 -1.769113E+05  7.235417E+04 -1.586725E+04 -8.302653E+03
       223   8 -2.206549E+05 -1.502523E+05 -1.391623E+05  3.988261E+04 -2.806758E+03 -2.435094E+04
       223   9 -9.289822E+04 -1.186529E+05 -1.096185E+05  7.385258E+04  1.026234E+04 -2.101468E+04
       223  10  1.127856E+06  1.868171E+05  1.845033E+05  7.451940E+04  4.988912E-10 -1.274384E-10
       223  11  9.975778E+05  1.496077E+05  1.424349E+05  4.055159E+04  4.449419E-10  6.024167E-11
       223  12  8.709561E+05  1.182651E+05  1.115378E+05  7.301734E+04 -1.316267E-10  2.957501E-10
       223  13  3.888798E+05  3.015102E+03  3.815620E+03  7.343608E+04  2.636284E-10 -8.367884E-11
       223  14  3.882901E+05 -3.096186E+02  1.648093E+03  4.021691E+04  6.410706E-11 -1.528441E-10
       223  15  3.889214E+05 -1.860324E+02  9.668336E+02  7.343522E+04  4.533680E-10  2.497909E-10
       223  16 -3.495999E+05 -1.808273E+05 -1.769119E+05  7.235406E+04 -3.555138E-10 -2.414726E-10
       223  17 -2.206550E+05 -1.502530E+05 -1.391635E+05  3.988255E+04 -2.027215E-10 -1.003630E-10
       223  18 -9.289845E+04 -1.186534E+05 -1.096195E+05  7.385275E+04  1.624366E-10 -1.993753E-11
       223  19  1.127857E+06  1.868173E+05  1.845042E+05  7.451926E+04 -2.120505E+04  8.314666E+03
       223  20  9.975780E+05  1.496083E+05  1.424361E+05  4.055146E+04 -6.348615E+03  2.434882E+04
       223  21  8.709563E+05  1.182656E+05  1.115388E+05  7.301749E+04  8.498388E+03  2.101531E+04
       223  22  3.888798E+05  3.015178E+03  3.815763E+03  7.343606E+04 -2.657905E+03  8.308693E+03
       223  23  3.882902E+05 -3.089810E+02  1.649214E+03  4.021687E+04 -1.768701E+03  2.434988E+04
       223  24  3.889215E+05 -1.855579E+02  9.676651E+02  7.343521E+04 -8.855864E+02  2.101500E+04
       223  25 -3.495997E+05 -1.808271E+05 -1.769113E+05  7.235417E+04  1.586725E+04  8.302653E+03
       223  26 -2.206549E+05 -1.502523E+05 -1.391623E+05  3.988261E+04  2.806758E+03  2.435094E+04
       223  27 -9.289822E+04 -1.186529E+05 -1.096185E+05  7.385258E+04 -1.026234E+04  2.101468E+04
       224   1  7.478573E+05  8.854991E+04  8.339974E+04  7.366986E+04 -2.669618E+03 -1.506513E+04
       224   2  6.199178E+05  5.685343E+04  5.340812E+04  4.014583E+04 -3.457623E+03 -9.870929E+03
       224   3  4.921767E+05  2.551714E+04  2.401498E+04  7.354579E+04 -4.247809E+03 -3.763685E+03
       224   4  3.886912E+05  2.289901E+02  7.280335E+02  7.354382E+04  7.443580E+02 -1.506486E+04
       224   5  3.886634E+05 -1.773865E+00  2.541028E+02  4.008109E+04  6.140980E+02 -9.869848E+03
       224   6  3.887069E+05  1.518308E+01 -7.636093E+01  7.354389E+04  4.815077E+02 -3.761588E+03
       224   7  2.964430E+04 -8.810094E+04 -8.195217E+04  7.341784E+04  4.156376E+03 -1.506458E+04
       224   8  1.574586E+05 -5.686070E+04 -5.290339E+04  4.001637E+04  4.684316E+03 -9.868768E+03
       224   9  2.852470E+05 -2.548752E+04 -2.416834E+04  7.354198E+04  5.210042E+03 -3.759491E+03
       224  10  7.478572E+05  8.854967E+04  8.339930E+04  7.366983E+04 -9.609134E-11  2.226296E-10
       224  11  6.199177E+05  5.685332E+04  5.340792E+04  4.014581E+04 -2.442761E-10 -4.916356E-11
       224  12  4.921767E+05  2.551712E+04  2.401492E+04  7.354578E+04  5.933022E-11 -2.484982E-11
       224  13  3.886911E+05  2.287462E+02  7.276059E+02  7.354383E+04  1.906495E-10  1.067604E-11
       224  14  3.886634E+05 -1.878591E+00  2.539190E+02  4.008110E+04  3.507369E-10  4.131097E-10
       224  15  3.887069E+05  1.516783E+01 -7.638796E+01  7.354389E+04 -2.111043E-10 -1.742292E-10
       224  16  2.964422E+04 -8.810119E+04 -8.195263E+04  7.341789E+04  3.746638E-10  1.020719E-10
       224  17  1.574585E+05 -5.686081E+04 -5.290361E+04  4.001641E+04  3.706067E-10  1.762086E-10
       224  18  2.852470E+05 -2.548754E+04 -2.416842E+04  7.354200E+04  6.598993E-10 -1.897534E-10
       224  19  7.478573E+05  8.854991E+04  8.339974E+04  7.366986E+04  2.669618E+03  1.506513E+04
       224  20  6.199178E+05  5.685343E+04  5.340812E+04  4.014583E+04  3.457623E+03  9.870929E+03
       224  21  4.921767E+05  2.551714E+04  2.401498E+04  7.354579E+04  4.247809E+03  3.763685E+03
       224  22  3.886912E+05  2.289901E+02  7.280335E+02  7.354382E+04 -7.443580E+02  1.506486E+04
       224  23  3.886634E+05 -1.773865E+00  2.541028E+02  4.008109E+04 -6.140980E+02  9.869848E+03
       224  24  3.887069E+05  1.518308E+01 -7.636093E+01  7.354389E+04 -4.815077E+02  3.761588E+03
       224  25  2.964430E+04 -8.810094E+04 -8.195217E+04  7.341784E+04 -4.156376E+03  1.506458E+04
       224  26  1.574586E+05 -5.686070E+04 -5.290339E+04  4.001637E+04 -4.684316E+03  9.868768E+03
       224  27  2.852470E+05 -2.548752E+04 -2.416834E+04  7.354198E+04 -5.210042E+03  3.759491E+03
       225   1  3.697787E+05 -4.609681E+03 -4.899120E+03  7.345979E+04 -4.190782E+03  1.169145E+02
       225   2  2.421401E+05 -3.599665E+04 -3.436040E+04  4.008342E+04 -3.282902E+03  6.234647E+03
       225   3  1.142395E+05 -6.788695E+04 -6.454902E+04  7.361497E+04 -2.373647E+03  1.154480E+04
       225   4  3.886545E+05  9.622077E+01 -2.378869E+02  7.353970E+04  5.061998E+02  1.190880E+02
       225   5  3.887376E+05  5.546749E+01 -6.467252E+02  4.008630E+04  8.321390E+02  6.236084E+03
       225   6  3.886447E+05 -3.864703E+02 -1.378047E+03  7.353986E+04  1.159637E+03  1.154565E+04
       225   7  4.075306E+05  4.802108E+03  4.423403E+03  7.361961E+04  5.203324E+03  1.212626E+02
       225   8  5.353551E+05  3.610609E+04  3.306559E+04  4.008918E+04  4.948144E+03  6.237522E+03
       225   9  6.631196E+05  6.710875E+04  6.178798E+04  7.346470E+04  4.694470E+03  1.154649E+04
       225  10  3.697787E+05 -4.609686E+03 -4.899153E+03  7.345979E+04 -4.307272E-10  2.060565E-10
       225  11  2.421401E+05 -3.599669E+04 -3.436049E+04  4.008344E+04 -1.589200E-10  2.947249E-11
       225  12  1.142395E+05 -6.788709E+04 -6.454928E+04  7.361500E+04 -2.447820E-10  2.717905E-10
       225  13  3.886545E+05  9.622069E+01 -2.378874E+02  7.353970E+04  5.302027E-10 -1.679108E-10
       225  14  3.887376E+05  5.542554E+01 -6.467996E+02  4.008630E+04 -7.152893E-10 -2.477621E-10
       225  15  3.886447E+05 -3.866138E+02 -1.378300E+03  7.353985E+04  9.637280E-11  1.475028E-10
       225  16  4.075306E+05  4.802100E+03  4.423352E+03  7.361961E+04  3.039154E-10 -3.473226E-10
       225  17  5.353550E+05  3.610604E+04  3.306547E+04  4.008916E+04  6.935061E-10  3.085840E-10
       225  18  6.631196E+05  6.710860E+04  6.178769E+04  7.346466E+04  8.001217E-10  4.638705E-10
       225  19  3.697787E+05 -4.609681E+03 -4.899120E+03  7.345979E+04  4.190782E+03 -1.169145E+02
       225  20  2.421401E+05 -3.599665E+04 -3.436040E+04  4.008342E+04  3.282902E+03 -6.234647E+03
       225  21  1.142395E+05 -6.788695E+04 -6.454902E+04  7.361497E+04  2.373647E+03 -1.154480E+04
       225  22  3.886545E+05  9.622077E+01 -2.378869E+02  7.353970E+04 -5.061998E+02 -1.190880E+02
       225  23  3.887376E+05  5.546749E+01 -6.467252E+02  4.008630E+04 -8.321390E+02 -6.236084E+03
       225  24  3.886447E+05 -3.864703E+02 -1.378047E+03  7.353986E+04 -1.159637E+03 -1.154565E+04
       225  25  4.075306E+05  4.802108E+03  4.423403E+03  7.361961E+04 -5.203324E+03 -1.212626E+02
       225  26  5.353551E+05  3.610609E+04  3.306559E+04  4.008918E+04 -4.948144E+03 -6.237522E+03
       225  27  6.631196E+05  6.710875E+04  6.178798E+04  7.346470E+04 -4.694470E+03 -1.154649E+04
       226   1 -8.746556E+03 -9.732523E+04 -9.289899E+04  7.257734E+04 -7.451335E+03  1.725112E+04
       226   2 -1.351468E+05 -1.287667E+05 -1.242036E+05  4.092547E+04  6.601426E+03  2.090016E+04
       226   3 -2.651775E+05 -1.681467E+05 -1.666098E+05  7.573830E+04  2.064858E+04  7.226737E+03
       226   4  3.883345E+05  3.088411E+02 -1.735220E+03  7.344095E+04  1.409703E+03  1.725262E+04
       226   5  3.890576E+05  3.096820E+02 -2.964584E+03  4.020981E+04  2.994483E+03  2.089890E+04
       226   6  3.883003E+05 -5.459460E+03 -6.635403E+03  7.344037E+04  4.576814E+03  7.229144E+03
       226   7  7.855616E+05  9.793197E+04  8.941844E+04  7.430510E+04  1.027636E+04  1.725414E+04
       226   8  9.135160E+05  1.293668E+05  1.182561E+05  3.949354E+04 -6.154840E+02  2.089766E+04
       226   9  1.042168E+06  1.571963E+05  1.533087E+05  7.114002E+04 -1.151184E+04  7.231668E+03
       226  10 -8.746696E+03 -9.732557E+04 -9.289965E+04  7.257745E+04  4.511035E-11 -3.972385E-11
       226  11 -1.351469E+05 -1.287672E+05 -1.242045E+05  4.092536E+04  1.657905E-10 -3.908474E-10
       226  12 -2.651779E+05 -1.681468E+05 -1.666107E+05  7.573818E+04 -2.897384E-10 -2.705705E-10
       226  13  3.883344E+05  3.085208E+02 -1.735783E+03  7.344093E+04  7.039335E-11  3.099098E-10
       226  14  3.890575E+05  3.092105E+02 -2.965422E+03  4.020976E+04 -5.778310E-10 -1.532326E-10
       226  15  3.883002E+05 -5.459521E+03 -6.635541E+03  7.344035E+04 -3.418662E-11 -2.970702E-10
       226  16  7.855614E+05  9.793162E+04  8.941769E+04  7.430496E+04 -5.627658E-10  1.091865E-10
       226  17  9.135158E+05  1.293663E+05  1.182553E+05  3.949355E+04 -3.196004E-10 -1.476724E-10
       226  18  1.042167E+06  1.571962E+05  1.533084E+05  7.114008E+04  6.976379E-10 -1.479156E-10
       226  19 -8.746556E+03 -9.732523E+04 -9.289899E+04  7.257734E+04  7.451335E+03 -1.725112E+04
       226  20 -1.351468E+05 -1.287667E+05 -1.242036E+05  4.092547E+04 -6.601426E+03 -2.090016E+04
       226  21 -2.651775E+05 -1.681467E+05 -1.666098E+05  7.573830E+04 -2.064858E+04 -7.226737E+03
       226  22  3.883345E+05  3.088411E+02 -1.735220E+03  7.344095E+04 -1.409703E+03 -1.725262E+04
       226  23  3.890576E+05  3.096820E+02 -2.964584E+03  4.020981E+04 -2.994483E+03 -2.089890E+04
       226  24  3.883003E+05 -5.459460E+03 -6.635403E+03  7.344037E+04 -4.576814E+03 -7.229144E+03
       226  25  7.855616E+05  9.793197E+04  8.941844E+04  7.430510E+04 -1.027636E+04 -1.725414E+04
       226  26  9.135160E+05  1.293668E+05  1.182561E+05  3.949354E+04  6.154840E+02 -2.089766E+04
       226  27  1.042168E+06  1.571963E+05  1.533087E+05  7.114002E+04  1.151184E+04 -7.231668E+03
       227   1 -3.218418E+05 -1.212149E+06 -3.541430E+05  1.651471E+05 -7.424404E+03 -1.389684E+05
       227   2 -1.152602E+05 -1.005128E+06 -2.027963E+05  7.601726E+04 -2.024825E+04 -8.025969E+04
       227   3 -7.308752E+04 -8.469262E+05 -1.308417E+05  8.185295E+04 -1.414817E+04 -2.154900E+04
       227   4 -1.490175E+05 -5.183382E+05 -1.839518E+05  1.043033E+05 -7.396926E+03 -1.229831E+05
       227   5  1.042313E+04 -4.950758E+05 -8.463016E+04  5.674707E+04 -2.024213E+04 -7.783679E+04
       227   6  7.887184E+03 -5.182540E+05 -5.521422E+04  1.041663E+05 -1.416244E+04 -3.270686E+04
       227   7  2.378532E+04  1.759198E+05 -1.379305E+04  4.339110E+04 -7.372607E+03 -1.069798E+05
       227   8  1.360896E+05  1.521827E+04  3.351873E+04  3.746085E+04 -2.023616E+04 -7.541190E+04
       227   9  8.885624E+04 -1.894805E+05  2.040687E+04  1.264916E+05 -1.417751E+04 -4.387058E+04
       227  10 -3.218471E+05 -1.212169E+06 -3.541795E+05  1.651463E+05 -3.045985E-11 -3.232500E-10
       227  11 -1.152624E+05 -1.005135E+06 -2.028092E+05  7.601595E+04  1.258749E-09  3.932303E-10
       227  12 -7.308786E+04 -8.469267E+05 -1.308430E+05  8.185270E+04  6.749202E-10  6.525288E-10
       227  13 -1.490216E+05 -5.183545E+05 -1.839804E+05  1.043025E+05 -7.174515E-10 -4.397921E-10
       227  14  1.042106E+04 -4.950824E+05 -8.464233E+04  5.674581E+04 -4.238344E-10 -2.151260E-11
       227  15  7.886681E+03 -5.182552E+05 -5.521661E+04  1.041660E+05  1.078402E-09 -1.961245E-10
       227  16  2.378219E+04  1.759075E+05 -1.381465E+04  4.339046E+04 -2.965734E-10  5.456795E-10
       227  17  1.360876E+05  1.521206E+04  3.350728E+04  3.745962E+04 -1.035612E-09 -2.585395E-10
       227  18  8.885551E+04 -1.894826E+05  2.040287E+04  1.264911E+05  1.210152E-09 -8.127757E-10
       227  19 -3.218418E+05 -1.212149E+06 -3.541430E+05  1.651471E+05  7.424404E+03  1.389684E+05
       227  20 -1.152602E+05 -1.005128E+06 -2.027963E+05  7.601726E+04  2.024825E+04  8.025969E+04
       227  21 -7.308752E+04 -8.469262E+05 -1.308417E+05  8.185295E+04  1.414817E+04  2.154900E+04
       227  22 -1.490175E+05 -5.183382E+05 -1.839518E+05  1.043033E+05  7.396926E+03  1.229831E+05
       227  23  1.042313E+04 -4.950758E+05 -8.463016E+04  5.674707E+04  2.024213E+04  7.783679E+04
       227  24  7.887184E+03 -5.182540E+05 -5.521422E+04  1.041663E+05  1.416244E+04  3.270686E+04
       227  25  2.378532E+04  1.759198E+05 -1.379305E+04  4.339110E+04  7.372607E+03  1.069798E+05
       227  26  1.360896E+05  1.521827E+04  3.351873E+04  3.746085E+04  2.023616E+04  7.541190E+04
       227  27  8.885624E+04 -1.894805E+05  2.040687E+04  1.264916E+05  1.417751E+04  4.387058E+04
       228   1 -4.825413E+04 -6.630823E+05 -8.285470E+04  1.093040E+05 -6.556627E+03 -1.860736E+04
       228   2  8.877920E+03 -4.765673E+05 -2.792331E+04  5.685161E+04  1.251644E+03 -1.136008E+03
       228   3  4.551359E+04 -2.976905E+05  1.043686E+04  1.000975E+05  8.988020E+03  1.634090E+04
       228   4 -1.049325E+04 -5.096269E+05 -4.752903E+04  1.043733E+05 -6.563773E+03 -2.423685E+04
       228   5  1.685025E+03 -5.057889E+05 -3.464555E+04  5.652088E+04  1.244592E+03 -6.712269E+03
       228   6 -6.639901E+03 -5.096282E+05 -3.836630E+04  1.043684E+05  8.981210E+03  1.081284E+04
       228   7  2.726610E+04 -3.561497E+05 -1.220478E+04  9.944141E+04 -6.570828E+03 -2.986772E+04
       228   8 -5.507912E+03 -5.350096E+05 -4.136773E+04  5.619017E+04  1.237545E+03 -1.228827E+04
       228   9 -5.879645E+04 -7.215241E+05 -8.717232E+04  1.086378E+05  8.974323E+03  5.286656E+03
       228  10 -4.825427E+04 -6.630826E+05 -8.285543E+04  1.093039E+05  1.185204E-09 -6.449399E-10
       228  11  8.877918E+03 -4.765673E+05 -2.792331E+04  5.685161E+04  2.329046E-10  3.952958E-10
       228  12  4.551343E+04 -2.976909E+05  1.043621E+04  1.000974E+05 -4.929897E-11 -1.295494E-10
       228  13 -1.049345E+04 -5.096276E+05 -4.753021E+04  1.043732E+05  8.981551E-10 -4.782850E-10
       228  14  1.685012E+03 -5.057889E+05 -3.464564E+04  5.652088E+04  6.528439E-10  2.243927E-10
       228  15 -6.640019E+03 -5.096283E+05 -3.836667E+04  1.043683E+05  5.449213E-10 -9.695760E-11
       228  16  2.726581E+04 -3.561506E+05 -1.220653E+04  9.944125E+04  1.181946E-09  6.580449E-10
       228  17 -5.507954E+03 -5.350097E+05 -4.136802E+04  5.619018E+04  7.349291E-10 -1.730008E-12
       228  18 -5.879654E+04 -7.215242E+05 -8.717252E+04  1.086377E+05 -3.515743E-10  4.134036E-11
       228  19 -4.825413E+04 -6.630823E+05 -8.285470E+04  1.093040E+05  6.556627E+03  1.860736E+04
       228  20  8.877920E+03 -4.765673E+05 -2.792331E+04  5.685161E+04 -1.251644E+03  1.136008E+03
       228  21  4.551359E+04 -2.976905E+05  1.043686E+04  1.000975E+05 -8.988020E+03 -1.634090E+04
       228  22 -1.049325E+04 -5.096269E+05 -4.752903E+04  1.043733E+05  6.563773E+03  2.423685E+04
       228  23  1.685025E+03 -5.057889E+05 -3.464555E+04  5.652088E+04 -1.244592E+03  6.712269E+03
       228  24 -6.639901E+03 -5.096282E+05 -3.836630E+04  1.043684E+05 -8.981210E+03 -1.081284E+04
       228  25  2.726610E+04 -3.561497E+05 -1.220478E+04  9.944141E+04  6.570828E+03  2.986772E+04
       228  26 -5.507912E+03 -5.350096E+05 -4.136773E+04  5.619017E+04 -1.237545E+03  1.228827E+04
       228  27 -5.879645E+04 -7.215241E+05 -8.717232E+04  1.086378E+05 -8.974323E+03 -5.286656E+03
       229   1  1.002556E+05 -1.276856E+05  4.712297E+04  1.193314E+05  1.674767E+04  2.899953E+04
       229   2  1.470924E+05  6.935555E+04  7.251139E+04  4.387454E+04  2.257901E+04  4.582220E+04
       229   3  8.719234E+04  2.375579E+05  6.026342E+04  6.326127E+04  8.078302E+03  6.266648E+04
       229   4  4.933662E+03 -5.149303E+05 -4.189828E+04  1.041544E+05  1.673368E+04  1.748485E+04
       229   5  7.054351E+03 -4.992480E+05 -5.910358E+04  5.676853E+04  2.258433E+04  4.892251E+04
       229   6 -1.001556E+05 -5.150089E+05 -1.241268E+05  1.042384E+05  8.096177E+03  8.037607E+04
       229   7 -9.039789E+04 -9.020354E+05 -1.309288E+05  8.898695E+04  1.672025E+04  5.977304E+03
       229   8 -1.330058E+05 -1.067552E+06 -1.907401E+05  6.965055E+04  2.258979E+04  5.201998E+04
       229   9 -2.875391E+05 -1.267055E+06 -3.085564E+05  1.451657E+05  8.116404E+03  9.806418E+04
       229  10  1.002551E+05 -1.276866E+05  4.712086E+04  1.193310E+05  4.989536E-10 -3.642106E-10
       229  11  1.470913E+05  6.935316E+04  7.250649E+04  4.387371E+04 -1.234020E-10  1.672392E-10
       229  12  8.719121E+04  2.375537E+05  6.025592E+04  6.326086E+04 -2.238030E-10  1.583156E-10
       229  13  4.933279E+03 -5.149307E+05 -4.189938E+04  1.041542E+05 -5.331604E-10 -6.369077E-10
       229  14  7.053160E+03 -4.992507E+05 -5.910904E+04  5.676764E+04 -9.648494E-10 -6.697696E-11
       229  15 -1.001574E+05 -5.150159E+05 -1.241391E+05  1.042379E+05 -7.330877E-11 -1.860881E-10
       229  16 -9.039819E+04 -9.020355E+05 -1.309294E+05  8.898687E+04  4.896522E-10  5.020256E-10
       229  17 -1.330071E+05 -1.067555E+06 -1.907461E+05  6.964960E+04 -9.276503E-10  9.423326E-11
       229  18 -2.875417E+05 -1.267066E+06 -3.085747E+05  1.451650E+05 -5.664658E-10 -1.719468E-10
       229  19  1.002556E+05 -1.276856E+05  4.712297E+04  1.193314E+05 -1.674767E+04 -2.899953E+04
       229  20  1.470924E+05  6.935555E+04  7.251139E+04  4.387454E+04 -2.257901E+04 -4.582220E+04
       229  21  8.719234E+04  2.375579E+05  6.026342E+04  6.326127E+04 -8.078302E+03 -6.266648E+04
       229  22  4.933662E+03 -5.149303E+05 -4.189828E+04  1.041544E+05 -1.673368E+04 -1.748485E+04
       229  23  7.054351E+03 -4.992480E+05 -5.910358E+04  5.676853E+04 -2.258433E+04 -4.892251E+04
       229  24 -1.001556E+05 -5.150089E+05 -1.241268E+05  1.042384E+05 -8.096177E+03 -8.037607E+04
       229  25 -9.039789E+04 -9.020354E+05 -1.309288E+05  8.898695E+04 -1.672025E+04 -5.977304E+03
       229  26 -1.330058E+05 -1.067552E+06 -1.907401E+05  6.965055E+04 -2.258979E+04 -5.201998E+04
       229  27 -2.875391E+05 -1.267055E+06 -3.085564E+05  1.451657E+05 -8.116404E+03 -9.806418E+04
       230   1  9.374887E+05  7.200032E+05  2.298436E+05  6.318513E+05  1.154887E+05  8.504319E+04
       230   2  8.974521E+05  5.452758E+05  1.133081E+05  6.886665E+05  7.610679E+04  5.241365E+04
       230   3  9.518781E+05  5.092202E+05  7.528357E+04  6.845941E+05  3.522402E+04  2.178746E+04
       230   4  9.306152E+05  6.024941E+05  2.055386E+05  5.766474E+05  1.133286E+05  8.340522E+04
       230   5  8.519006E+05  4.769024E+05  9.221248E+04  6.493964E+05  7.538541E+04  5.186907E+04
       230   6  8.673424E+05  4.896721E+05  5.615138E+04  6.612554E+05  3.594545E+04  2.233000E+04
       230   7  9.237493E+05  4.850124E+05  1.812352E+05  5.214472E+05  1.111685E+05  8.176797E+04
       230   8  8.063520E+05  4.085360E+05  7.111657E+04  6.101308E+05  7.466410E+04  5.132462E+04
       230   9  7.828162E+05  4.701248E+05  3.701921E+04  6.379189E+05  3.666674E+04  2.287252E+04
       230  10  9.374725E+05  7.199918E+05  2.298050E+05  6.318434E+05  3.063964E-10 -1.338932E-11
       230  11  8.974452E+05  5.452713E+05  1.132921E+05  6.886633E+05 -1.590855E-10 -1.725411E-10
       230  12  9.518766E+05  5.092194E+05  7.528036E+04  6.845935E+05 -2.121072E-11 -1.270530E-10
       230  13  9.305995E+05  6.024832E+05  2.055014E+05  5.766398E+05 -5.542241E-10  1.047952E-10
       230  14  8.518938E+05  4.768980E+05  9.219678E+04  6.493933E+05  3.924731E-10 -4.002188E-10
       230  15  8.673409E+05  4.896712E+05  5.614802E+04  6.612548E+05 -2.647134E-10 -2.105873E-10
       230  16  9.237343E+05  4.850019E+05  1.811994E+05  5.214399E+05 -1.589313E-10 -1.948004E-10
       230  17  8.063453E+05  4.085317E+05  7.110118E+04  6.101278E+05  8.618720E-10  1.002771E-10
       230  18  7.828146E+05  4.701239E+05  3.701571E+04  6.379182E+05  3.094088E-10  1.992119E-11
       230  19  9.374887E+05  7.200032E+05  2.298436E+05  6.318513E+05 -1.154887E+05 -8.504319E+04
       230  20  8.974521E+05  5.452758E+05  1.133081E+05  6.886665E+05 -7.610679E+04 -5.241365E+04
       230  21  9.518781E+05  5.092202E+05  7.528357E+04  6.845941E+05 -3.522402E+04 -2.178746E+04
       230  22  9.306152E+05  6.024941E+05  2.055386E+05  5.766474E+05 -1.133286E+05 -8.340522E+04
       230  23  8.519006E+05  4.769024E+05  9.221248E+04  6.493964E+05 -7.538541E+04 -5.186907E+04
       230  24  8.673424E+05  4.896721E+05  5.615138E+04  6.612554E+05 -3.594545E+04 -2.233000E+04
       230  25  9.237493E+05  4.850124E+05  1.812352E+05  5.214472E+05 -1.111685E+05 -8.176797E+04
       230  26  8.063520E+05  4.085360E+05  7.111657E+04  6.101308E+05 -7.466410E+04 -5.132462E+04
       230  27  7.828162E+05  4.701248E+05  3.701921E+04  6.379189E+05 -3.666674E+04 -2.287252E+04
       231   1  9.197887E+05  5.431975E+05  6.307278E+04  6.746067E+05  2.884742E+04  1.766098E+04
       231   2  9.126063E+05  5.245997E+05  4.091278E+04  6.756071E+05  1.841856E+04  1.014829E+04
       231   3  9.098518E+05  5.206840E+05  3.059418E+04  6.735272E+05  7.918175E+03  2.731319E+03
       231   4  8.685080E+05  4.998083E+05  4.558686E+04  6.458972E+05  2.895030E+04  1.773775E+04
       231   5  8.639436E+05  4.882694E+05  2.525117E+04  6.505939E+05  1.859138E+04  1.027772E+04
       231   6  8.637928E+05  4.913985E+05  1.669730E+04  6.522102E+05  8.160840E+03  2.913180E+03
       231   7  8.172301E+05  4.564212E+05  2.810056E+04  6.171906E+05  2.905318E+04  1.781450E+04
       231   8  8.152833E+05  4.519404E+05  9.589186E+03  6.255829E+05  1.876418E+04  1.040713E+04
       231   9  8.177357E+05  4.621136E+05  2.800074E+03  6.308947E+05  8.403483E+03  3.095027E+03
       231  10  9.197877E+05  5.431970E+05  6.307064E+04  6.746063E+05  4.783024E-11 -5.780026E-11
       231  11  9.126059E+05  5.245995E+05  4.091195E+04  6.756070E+05  3.533730E-10  4.511725E-10
       231  12  9.098517E+05  5.206840E+05  3.059405E+04  6.735272E+05  8.084000E-11  2.536594E-10
       231  13  8.685070E+05  4.998077E+05  4.558470E+04  6.458968E+05 -5.388624E-10  1.656913E-10
       231  14  8.639432E+05  4.882692E+05  2.525032E+04  6.505938E+05 -1.487892E-09  9.477159E-11
       231  15  8.637927E+05  4.913984E+05  1.669716E+04  6.522102E+05  4.324163E-11  1.295586E-10
       231  16  8.172291E+05  4.564206E+05  2.809838E+04  6.171902E+05  1.033684E-09  1.486923E-10
       231  17  8.152829E+05  4.519402E+05  9.588323E+03  6.255827E+05 -2.747418E-10  6.680323E-11
       231  18  8.177356E+05  4.621136E+05  2.799924E+03  6.308947E+05 -2.786336E-11 -3.953916E-10
       231  19  9.197887E+05  5.431975E+05  6.307278E+04  6.746067E+05 -2.884742E+04 -1.766098E+04
       231  20  9.126063E+05  5.245997E+05  4.091278E+04  6.756071E+05 -1.841856E+04 -1.014829E+04
       231  21  9.098518E+05  5.206840E+05  3.059418E+04  6.735272E+05 -7.918175E+03 -2.731319E+03
       231  22  8.685080E+05  4.998083E+05  4.558686E+04  6.458972E+05 -2.895030E+04 -1.773775E+04
       231  23  8.639436E+05  4.882694E+05  2.525117E+04  6.505939E+05 -1.859138E+04 -1.027772E+04
       231  24  8.637928E+05  4.913985E+05  1.669730E+04  6.522102E+05 -8.160840E+03 -2.913180E+03
       231  25  8.172301E+05  4.564212E+05  2.810056E+04  6.171906E+05 -2.905318E+04 -1.781450E+04
       231  26  8.152833E+05  4.519404E+05  9.589186E+03  6.255829E+05 -1.876418E+04 -1.040713E+04
       231  27  8.177357E+05  4.621136E+05  2.800074E+03  6.308947E+05 -8.403483E+03 -3.095027E+03
       232   1  9.022433E+05  5.198244E+05  2.667405E+04  6.704430E+05  5.601237E+03  1.287315E+03
       232   2  8.981057E+05  5.127734E+05  2.312756E+04  6.672342E+05  3.348958E+02 -2.200589E+03
       232   3  8.918682E+05  5.114775E+05  2.424700E+04  6.647149E+05 -4.933189E+03 -5.685922E+03
       232   4  8.638072E+05  4.920225E+05  1.449094E+04  6.510952E+05  5.811959E+03  1.445210E+03
       232   5  8.648812E+05  4.891874E+05  1.266235E+04  6.507187E+05  5.477484E+02 -2.041083E+03
       232   6  8.638547E+05  4.921071E+05  1.549806E+04  6.510317E+05 -4.718281E+03 -5.524870E+03
       232   7  8.253730E+05  4.642216E+05  2.307750E+03  6.317489E+05  6.022661E+03  1.603091E+03
       232   8  8.316580E+05  4.656022E+05  2.197042E+03  6.342043E+05  7.605847E+02 -1.881590E+03
       232   9  8.358421E+05  4.727371E+05  6.749026E+03  6.373492E+05 -4.503386E+03 -5.363828E+03
       232  10  9.022432E+05  5.198244E+05  2.667398E+04  6.704430E+05  1.670013E-10 -4.793997E-11
       232  11  8.981057E+05  5.127734E+05  2.312755E+04  6.672342E+05  6.484429E-11  9.511959E-11
       232  12  8.918681E+05  5.114774E+05  2.424689E+04  6.647149E+05 -3.834363E-10  1.215506E-10
       232  13  8.638072E+05  4.920225E+05  1.449087E+04  6.510952E+05  2.714540E-10 -4.222107E-11
       232  14  8.648812E+05  4.891874E+05  1.266234E+04  6.507187E+05 -3.233199E-10 -1.452414E-10
       232  15  8.638547E+05  4.921071E+05  1.549796E+04  6.510317E+05  2.696779E-10  1.433840E-10
       232  16  8.253730E+05  4.642216E+05  2.307677E+03  6.317489E+05  1.141188E-10 -2.890294E-10
       232  17  8.316580E+05  4.656022E+05  2.197035E+03  6.342043E+05  7.625801E-10  1.910485E-10
       232  18  8.358421E+05  4.727371E+05  6.748934E+03  6.373491E+05  5.431229E-10  2.966878E-10
       232  19  9.022433E+05  5.198244E+05  2.667405E+04  6.704430E+05 -5.601237E+03 -1.287315E+03
       232  20  8.981057E+05  5.127734E+05  2.312756E+04  6.672342E+05 -3.348958E+02  2.200589E+03
       232  21  8.918682E+05  5.114775E+05  2.424700E+04  6.647149E+05  4.933189E+03  5.685922E+03
       232  22  8.638072E+05  4.920225E+05  1.449094E+04  6.510952E+05 -5.811959E+03 -1.445210E+03
       232  23  8.648812E+05  4.891874E+05  1.266235E+04  6.507187E+05 -5.477484E+02  2.041083E+03
       232  24  8.638547E+05  4.921071E+05  1.549806E+04  6.510317E+05  4.718281E+03  5.524870E+03
       232  25  8.253730E+05  4.642216E+05  2.307750E+03  6.317489E+05 -6.022661E+03 -1.603091E+03
       232  26  8.316580E+05  4.656022E+05  2.197042E+03  6.342043E+05 -7.605847E+02  1.881590E+03
       232  27  8.358421E+05  4.727371E+05  6.749026E+03  6.373492E+05  4.503386E+03  5.363828E+03
       233   1  8.840894E+05  5.095730E+05  2.531440E+04  6.641617E+05 -7.451881E+03 -7.302203E+03
       233   2  8.819794E+05  4.990524E+05  3.371535E+04  6.587050E+05 -1.913273E+04 -1.559935E+04
       233   3  8.855585E+05  5.045249E+05  5.539155E+04  6.495276E+05 -3.080619E+04 -2.390661E+04
       233   4  8.638845E+05  4.913521E+05  1.825708E+04  6.523241E+05 -7.236821E+03 -7.140978E+03
       233   5  8.637304E+05  4.881525E+05  2.834628E+04  6.505824E+05 -1.892462E+04 -1.544343E+04
       233   6  8.692671E+05  5.009475E+05  5.171707E+04  6.451198E+05 -3.060497E+04 -2.375618E+04
       233   7  8.436799E+05  4.731315E+05  1.119965E+04  6.404870E+05 -7.021769E+03 -6.979761E+03
       233   8  8.454817E+05  4.772526E+05  2.297719E+04  6.424600E+05 -1.871652E+04 -1.528753E+04
       233   9  8.529761E+05  4.973701E+05  4.804262E+04  6.407121E+05 -3.040377E+04 -2.360575E+04
       233  10  8.840893E+05  5.095729E+05  2.531419E+04  6.641616E+05 -4.515316E-10  4.453374E-10
       233  11  8.819790E+05  4.990520E+05  3.371420E+04  6.587048E+05 -4.873693E-10  2.086827E-10
       233  12  8.855574E+05  5.045240E+05  5.538870E+04  6.495270E+05 -4.406377E-10  5.776086E-11
       233  13  8.638844E+05  4.913521E+05  1.825689E+04  6.523241E+05 -1.148729E-09 -1.043014E-10
       233  14  8.637299E+05  4.881521E+05  2.834517E+04  6.505821E+05  1.999495E-10 -9.265495E-11
       233  15  8.692659E+05  5.009466E+05  5.171426E+04  6.451192E+05  2.413662E-10  1.240437E-10
       233  16  8.436798E+05  4.731315E+05  1.119946E+04  6.404869E+05 -2.103852E-10  4.481495E-11
       233  17  8.454813E+05  4.772523E+05  2.297609E+04  6.424598E+05  1.940679E-11  1.525828E-10
       233  18  8.529749E+05  4.973693E+05  4.803984E+04  6.407115E+05 -2.812384E-10  4.192937E-10
       233  19  8.840894E+05  5.095730E+05  2.531440E+04  6.641617E+05  7.451881E+03  7.302203E+03
       233  20  8.819794E+05  4.990524E+05  3.371535E+04  6.587050E+05  1.913273E+04  1.559935E+04
       233  21  8.855585E+05  5.045249E+05  5.539155E+04  6.495276E+05  3.080619E+04  2.390661E+04
       233  22  8.638845E+05  4.913521E+05  1.825708E+04  6.523241E+05  7.236821E+03  7.140978E+03
       233  23  8.637304E+05  4.881525E+05  2.834628E+04  6.505824E+05  1.892462E+04  1.544343E+04
       233  24  8.692671E+05  5.009475E+05  5.171707E+04  6.451198E+05  3.060497E+04  2.375618E+04
       233  25  8.436799E+05  4.731315E+05  1.119965E+04  6.404870E+05  7.021769E+03  6.979761E+03
       233  26  8.454817E+05  4.772526E+05  2.297719E+04  6.424600E+05  1.871652E+04  1.528753E+04
       233  27  8.529761E+05  4.973701E+05  4.804262E+04  6.407121E+05  3.040377E+04  2.360575E+04
       234   1  8.474402E+05  5.208989E+05  6.583443E+04  6.737026E+05 -3.859212E+04 -2.944531E+04
       234   2  8.750634E+05  4.519027E+05  1.053393E+05  6.427087E+05 -8.356810E+04 -6.273466E+04
       234   3  1.010772E+06  5.397822E+05  2.327673E+05  5.420734E+05 -1.284097E+05 -9.620176E+04
       234   4  8.679526E+05  4.893858E+05  6.382367E+04  6.626252E+05 -3.833587E+04 -2.925052E+04
       234   5  8.499802E+05  4.752115E+05  1.050227E+05  6.492217E+05 -8.344191E+04 -6.264534E+04
       234   6  9.401118E+05  6.179360E+05  2.342591E+05  5.661790E+05 -1.284085E+05 -9.622607E+04
       234   7  8.884668E+05  4.578755E+05  6.181332E+04  6.515473E+05 -3.807962E+04 -2.905575E+04
       234   8  8.248987E+05  4.985224E+05  1.047066E+05  6.557342E+05 -8.331573E+04 -6.255601E+04
       234   9  8.694668E+05  6.961105E+05  2.357543E+05  5.902803E+05 -1.284074E+05 -9.625039E+04
       234  10  8.474384E+05  5.208976E+05  6.583001E+04  6.737017E+05  3.832709E-10  3.156100E-10
       234  11  8.750548E+05  4.518966E+05  1.053188E+05  6.427045E+05  6.717585E-10  8.057566E-11
       234  12  1.010752E+06  5.397678E+05  2.327190E+05  5.420635E+05  1.625170E-10 -1.952475E-10
       234  13  8.679508E+05  4.893844E+05  6.381931E+04  6.626243E+05 -2.389694E-10  1.516621E-10
       234  14  8.499717E+05  4.752055E+05  1.050023E+05  6.492175E+05  7.934123E-10  2.008622E-11
       234  15  9.400916E+05  6.179216E+05  2.342109E+05  5.661691E+05  1.893398E-10 -1.046169E-11
       234  16  8.884650E+05  4.578742E+05  6.180902E+04  6.515464E+05 -1.131905E-09 -6.343085E-11
       234  17  8.248902E+05  4.985163E+05  1.046862E+05  6.557300E+05 -5.982145E-10 -2.276712E-10
       234  18  8.694467E+05  6.960962E+05  2.357060E+05  5.902704E+05 -4.630308E-10 -2.127173E-10
       234  19  8.474402E+05  5.208989E+05  6.583443E+04  6.737026E+05  3.859212E+04  2.944531E+04
       234  20  8.750634E+05  4.519027E+05  1.053393E+05  6.427087E+05  8.356810E+04  6.273466E+04
       234  21  1.010772E+06  5.397822E+05  2.327673E+05  5.420734E+05  1.284097E+05  9.620176E+04
       234  22  8.679526E+05  4.893858E+05  6.382367E+04  6.626252E+05  3.833587E+04  2.925052E+04
       234  23  8.499802E+05  4.752115E+05  1.050227E+05  6.492217E+05  8.344191E+04  6.264534E+04
       234  24  9.401118E+05  6.179360E+05  2.342591E+05  5.661790E+05  1.284085E+05  9.622607E+04
       234  25  8.884668E+05  4.578755E+05  6.181332E+04  6.515473E+05  3.807962E+04  2.905575E+04
       234  26  8.248987E+05  4.985224E+05  1.047066E+05  6.557342E+05  8.331573E+04  6.255601E+04
       234  27  8.694668E+05  6.961105E+05  2.357543E+05  5.902803E+05  1.284074E+05  9.625039E+04
       235   1  1.188877E+06  1.775328E+05  1.815386E+05  7.209021E+04  3.854242E+04 -6.753681E+03
       235   2  1.077414E+06  1.196180E+05  1.297774E+05  3.689877E+04  1.884290E+04 -1.974336E+04
       235   3  9.767637E+05  9.410027E+04  9.894961E+04  5.658716E+04 -8.506119E+02 -1.696028E+04
       235   4  5.874949E+05  2.798034E+04  3.451016E+04  6.066631E+04  2.347399E+04 -6.751618E+03
       235   5  5.830927E+05 -1.993997E+03  1.556963E+04  3.322382E+04  1.515571E+04 -1.974446E+04
       235   6  5.875308E+05 -1.529558E+03  9.678761E+03  6.066248E+04  6.840048E+03 -1.695946E+04
       235   7 -1.355703E+04 -1.215982E+05 -1.125437E+05  4.925348E+04  8.420084E+03 -6.749001E+03
       235   8  8.899717E+04 -1.236231E+05 -9.865440E+04  2.955180E+04  1.147142E+04 -1.974552E+04
       235   9  1.984383E+05 -9.716983E+04 -7.960183E+04  6.473522E+04  1.452593E+04 -1.695853E+04
       235  10  1.188875E+06  1.775324E+05  1.815357E+05  7.209042E+04  1.096154E-10  7.425483E-11
       235  11  1.077413E+06  1.196175E+05  1.297760E+05  3.689907E+04 -3.568744E-10  9.346657E-11
       235  12  9.767636E+05  9.409996E+04  9.894906E+04  5.658715E+04 -2.427800E-10  3.389312E-10
       235  13  5.874943E+05  2.798015E+04  3.450904E+04  6.066644E+04 -7.911006E-10 -6.194466E-11
       235  14  5.830923E+05 -1.994477E+03  1.556846E+04  3.322406E+04 -8.063588E-11  1.950393E-10
       235  15  5.875307E+05 -1.529880E+03  9.678133E+03  6.066258E+04  4.248376E-10  7.176071E-11
       235  16 -1.355712E+04 -1.215983E+05 -1.125439E+05  4.925353E+04 -3.036758E-10 -2.608926E-11
       235  17  8.899692E+04 -1.236236E+05 -9.865538E+04  2.955198E+04 -2.415402E-11 -8.355400E-11
       235  18  1.984380E+05 -9.717020E+04 -7.960276E+04  6.473542E+04 -2.871240E-10  8.944917E-11
       235  19  1.188877E+06  1.775328E+05  1.815386E+05  7.209021E+04 -3.854242E+04  6.753681E+03
       235  20  1.077414E+06  1.196180E+05  1.297774E+05  3.689877E+04 -1.884290E+04  1.974336E+04
       235  21  9.767637E+05  9.410027E+04  9.894961E+04  5.658716E+04  8.506119E+02  1.696028E+04
       235  22  5.874949E+05  2.798034E+04  3.451016E+04  6.066631E+04 -2.347399E+04  6.751618E+03
       235  23  5.830927E+05 -1.993997E+03  1.556963E+04  3.322382E+04 -1.515571E+04  1.974446E+04
       235  24  5.875308E+05 -1.529558E+03  9.678761E+03  6.066248E+04 -6.840048E+03  1.695946E+04
       235  25 -1.355703E+04 -1.215982E+05 -1.125437E+05  4.925348E+04 -8.420084E+03  6.749001E+03
       235  26  8.899717E+04 -1.236231E+05 -9.865440E+04  2.955180E+04 -1.147142E+04  1.974552E+04
       235  27  1.984383E+05 -9.716983E+04 -7.960183E+04  6.473522E+04 -1.452593E+04  1.695853E+04
       236   1  8.736783E+05  7.287606E+04  7.424157E+04  6.152762E+04  2.556983E+03 -1.207534E+04
       236   2  7.677454E+05  4.466312E+04  4.676791E+04  3.336938E+04 -4.236667E+02 -7.781868E+03
       236   3  6.628438E+05  1.905211E+04  2.187800E+04  6.038973E+04 -3.405387E+03 -2.747061E+03
       236   4  5.857878E+05  2.094591E+03  7.989310E+03  6.072925E+04  5.383439E+03 -1.207492E+04
       236   5  5.853290E+05 -1.768459E+02  4.846345E+03  3.313980E+04  2.937864E+03 -7.780878E+03
       236   6  5.857989E+05  6.212096E+01  3.917307E+03  6.072986E+04  4.907235E+02 -2.745370E+03
       236   7  2.979740E+05 -6.869266E+04 -5.826841E+04  5.993124E+04  8.208595E+03 -1.207451E+04
       236   8  4.029434E+05 -4.501913E+04 -3.707737E+04  3.291029E+04  6.298417E+03 -7.779890E+03
       236   9  5.087596E+05 -1.892828E+04 -1.404373E+04  6.106995E+04  4.386354E+03 -2.743674E+03
       236  10  8.736783E+05  7.287590E+04  7.424129E+04  6.152765E+04 -1.091598E-10  5.175613E-10
       236  11  7.677453E+05  4.466306E+04  4.676779E+04  3.336938E+04 -3.336625E-10  3.389765E-11
       236  12  6.628438E+05  1.905209E+04  2.187796E+04  6.038973E+04 -2.770914E-11 -8.517482E-11
       236  13  5.857878E+05  2.094427E+03  7.988981E+03  6.072930E+04 -3.580663E-10  2.527563E-10
       236  14  5.853289E+05 -1.769132E+02  4.846215E+03  3.313982E+04 -1.039435E-09  3.521096E-10
       236  15  5.857989E+05  6.211280E+01  3.917292E+03  6.072986E+04  5.846548E-10  5.953644E-11
       236  16  2.979739E+05 -6.869283E+04 -5.826881E+04  5.993132E+04  3.761883E-10  9.830213E-11
       236  17  4.029433E+05 -4.501920E+04 -3.707756E+04  3.291033E+04  4.006188E-10 -1.988638E-10
       236  18  5.087596E+05 -1.892829E+04 -1.404378E+04  6.106996E+04  5.923862E-11 -1.787259E-10
       236  19  8.736783E+05  7.287606E+04  7.424157E+04  6.152762E+04 -2.556983E+03  1.207534E+04
       236  20  7.677454E+05  4.466312E+04  4.676791E+04  3.336938E+04  4.236667E+02  7.781868E+03
       236  21  6.628438E+05  1.905211E+04  2.187800E+04  6.038973E+04  3.405387E+03  2.747061E+03
       236  22  5.857878E+05  2.094591E+03  7.989310E+03  6.072925E+04 -5.383439E+03  1.207492E+04
       236  23  5.853290E+05 -1.768459E+02  4.846345E+03  3.313980E+04 -2.937864E+03  7.780878E+03
       236  24  5.857989E+05  6.212096E+01  3.917307E+03  6.072986E+04 -4.907235E+02  2.745370E+03
       236  25  2.979740E+05 -6.869266E+04 -5.826841E+04  5.993124E+04 -8.208595E+03  1.207451E+04
       236  26  4.029434E+05 -4.501913E+04 -3.707737E+04  3.291029E+04 -6.298417E+03  7.779890E+03
       236  27  5.087596E+05 -1.892828E+04 -1.404373E+04  6.106995E+04 -4.386354E+03  2.743674E+03
       237   1  5.619798E+05 -5.818047E+03 -1.865315E+03  6.105182E+04 -4.072299E+03  4.513143E+02
       237   2  4.562328E+05 -3.190431E+04 -2.510636E+04  3.293853E+04 -5.896460E+03  5.492347E+03
       237   3  3.512636E+05 -5.575649E+04 -4.661039E+04  5.998922E+04 -7.719127E+03  9.858029E+03
       237   4  5.857827E+05  8.606592E+01  3.869129E+03  6.072623E+04 -1.967063E+02  4.530483E+02
       237   5  5.853537E+05 -1.575595E+02  4.579675E+03  3.314433E+04 -2.508069E+03  5.493522E+03
       237   6  5.857747E+05  1.917412E+03  7.365083E+03  6.072562E+04 -4.818234E+03  9.858745E+03
       237   7  6.095862E+05  5.990146E+03  9.603590E+03  6.040063E+04  3.679034E+03  4.547783E+02
       237   8  7.144901E+05  3.158803E+04  3.426465E+04  3.335018E+04  8.810196E+02  5.494699E+03
       237   9  8.203367E+05  5.958747E+04  6.133694E+04  6.146228E+04 -1.916254E+03  9.859467E+03
       237  10  5.619798E+05 -5.818051E+03 -1.865347E+03  6.105183E+04 -1.264392E-09 -1.580431E-10
       237  11  4.562327E+05 -3.190435E+04 -2.510649E+04  3.293855E+04 -6.382470E-10  8.024161E-10
       237  12  3.512635E+05 -5.575661E+04 -4.661068E+04  5.998928E+04 -6.424308E-10  3.082059E-10
       237  13  5.857827E+05  8.606569E+01  3.869129E+03  6.072623E+04 -5.638354E-10 -1.123223E-10
       237  14  5.853537E+05 -1.575936E+02  4.579606E+03  3.314434E+04 -9.601057E-10  8.979739E-12
       237  15  5.857747E+05  1.917301E+03  7.364857E+03  6.072565E+04 -3.002994E-10  3.452867E-10
       237  16  6.095862E+05  5.990142E+03  9.603564E+03  6.040063E+04  1.052339E-09  9.957758E-11
       237  17  7.144901E+05  3.158800E+04  3.426460E+04  3.335018E+04 -4.910499E-10  5.436838E-10
       237  18  8.203367E+05  5.958737E+04  6.133675E+04  6.146230E+04  6.226088E-10  3.201889E-10
       237  19  5.619798E+05 -5.818047E+03 -1.865315E+03  6.105182E+04  4.072299E+03 -4.513143E+02
       237  20  4.562328E+05 -3.190431E+04 -2.510636E+04  3.293853E+04  5.896460E+03 -5.492347E+03
       237  21  3.512636E+05 -5.575649E+04 -4.661039E+04  5.998922E+04  7.719127E+03 -9.858029E+03
       237  22  5.857827E+05  8.606592E+01  3.869129E+03  6.072623E+04  1.967063E+02 -4.530483E+02
       237  23  5.853537E+05 -1.575595E+02  4.579675E+03  3.314433E+04  2.508069E+03 -5.493522E+03
       237  24  5.857747E+05  1.917412E+03  7.365083E+03  6.072562E+04  4.818234E+03 -9.858745E+03
       237  25  6.095862E+05  5.990146E+03  9.603590E+03  6.040063E+04 -3.679034E+03 -4.547783E+02
       237  26  7.144901E+05  3.158803E+04  3.426465E+04  3.335018E+04 -8.810196E+02 -5.494699E+03
       237  27  8.203367E+05  5.958747E+04  6.133694E+04  6.146228E+04  1.916254E+03 -9.859467E+03
       238   1  2.516509E+05 -8.389549E+04 -6.817067E+04  6.434863E+04 -1.351801E+04  1.458749E+04
       238   2  1.426596E+05 -1.102816E+05 -8.768512E+04  2.985695E+04 -1.066928E+04  1.756949E+04
       238   3  3.989497E+04 -1.107647E+05 -1.025555E+05  5.022746E+04 -7.821837E+03  6.068505E+03
       238   4  5.873559E+05 -1.377392E+03  8.877100E+03  6.065828E+04 -6.158926E+03  1.458900E+04
       238   5  5.833288E+05 -1.803310E+03  1.420331E+04  3.322934E+04 -1.374368E+04  1.756839E+04
       238   6  5.873237E+05  2.547499E+04  3.141149E+04  6.065922E+04 -2.132948E+04  6.069416E+03
       238   7  9.231653E+05  8.113293E+04  8.591765E+04  5.696592E+04  1.204101E+03  1.459042E+04
       238   8  1.024177E+06  1.066614E+05  1.160788E+05  3.660414E+04 -1.682023E+04  1.756725E+04
       238   9  1.135026E+06  1.616930E+05  1.653573E+05  7.110020E+04 -3.484900E+04  6.069873E+03
       238  10  2.516506E+05 -8.389576E+04 -6.817141E+04  6.434879E+04 -8.161021E-09  4.322264E-11
       238  11  1.426593E+05 -1.102820E+05 -8.768591E+04  2.985710E+04 -1.050757E-09 -1.421810E-10
       238  12  3.989490E+04 -1.107648E+05 -1.025557E+05  5.022750E+04  6.386665E-09 -2.975259E-13
       238  13  5.873558E+05 -1.377631E+03  8.876629E+03  6.065836E+04 -3.376754E-10  2.442528E-10
       238  14  5.833285E+05 -1.803693E+03  1.420237E+04  3.322953E+04 -3.505673E-10 -2.727747E-10
       238  15  5.873232E+05  2.547483E+04  3.141057E+04  6.065933E+04 -1.702719E-10 -4.135353E-11
       238  16  9.231653E+05  8.113270E+04  8.591725E+04  5.696590E+04  8.071263E-09  4.498080E-11
       238  17  1.024177E+06  1.066610E+05  1.160777E+05  3.660437E+04  1.107937E-09 -3.466331E-10
       238  18  1.135025E+06  1.616927E+05  1.653550E+05  7.110037E+04 -6.303949E-09 -1.287728E-10
       238  19  2.516509E+05 -8.389549E+04 -6.817067E+04  6.434863E+04  1.351801E+04 -1.458749E+04
       238  20  1.426596E+05 -1.102816E+05 -8.768512E+04  2.985695E+04  1.066928E+04 -1.756949E+04
       238  21  3.989497E+04 -1.107647E+05 -1.025555E+05  5.022746E+04  7.821837E+03 -6.068505E+03
       238  22  5.873559E+05 -1.377392E+03  8.877100E+03  6.065828E+04  6.158926E+03 -1.458900E+04
       238  23  5.833288E+05 -1.803310E+03  1.420331E+04  3.322934E+04  1.374368E+04 -1.756839E+04
       238  24  5.873237E+05  2.547499E+04  3.141149E+04  6.065922E+04  2.132948E+04 -6.069416E+03
       238  25  9.231653E+05  8.113293E+04  8.591765E+04  5.696592E+04 -1.204101E+03 -1.459042E+04
       238  26  1.024177E+06  1.066614E+05  1.160788E+05  3.660414E+04  1.682023E+04 -1.756725E+04
       238  27  1.135026E+06  1.616930E+05  1.653573E+05  7.110020E+04  3.484900E+04 -6.069873E+03
       239   1 -3.503889E+05 -1.353880E+06 -3.922937E+05  1.736963E+05 -6.957357E+03 -1.699920E+05
       239   2 -1.046351E+05 -1.154597E+06 -2.188609E+05  7.699594E+04 -1.899986E+04 -9.972970E+04
       239   3 -6.682728E+04 -1.016497E+06 -1.432352E+05  6.800615E+04 -1.338610E+04 -2.945889E+04
       239   4 -1.889807E+05 -7.059979E+05 -2.333452E+05  9.628015E+04 -6.926251E+03 -1.550394E+05
       239   5  1.319842E+04 -6.764700E+05 -1.080751E+05  5.235151E+04 -1.899302E+04 -9.742032E+04
       239   6  9.715154E+03 -7.058946E+05 -7.175384E+04  9.614746E+04 -1.339759E+04 -3.981298E+04
       239   7 -2.758101E+04 -5.771963E+04 -7.442355E+04  1.878287E+04 -6.898905E+03 -1.400712E+05
       239   8  1.310182E+05 -1.981300E+05  2.695787E+03  2.768787E+04 -1.898636E+04 -9.510915E+04
       239   9  8.625385E+04 -3.952006E+05 -2.780708E+02  1.243029E+05 -1.341003E+04 -5.017222E+04
       239  10 -3.503967E+05 -1.353911E+06 -3.923482E+05  1.736953E+05 -5.454853E-12 -6.670007E-10
       239  11 -1.046382E+05 -1.154608E+06 -2.188803E+05  7.699442E+04  6.159297E-10  9.925004E-11
       239  12 -6.682770E+04 -1.016498E+06 -1.432372E+05  6.800583E+04  3.939588E-10  1.003145E-09
       239  13 -1.889873E+05 -7.060237E+05 -2.333905E+05  9.627929E+04 -7.554055E-10  6.795615E-11
       239  14  1.319548E+04 -6.764803E+05 -1.080936E+05  5.235002E+04 -4.116763E-11 -3.095627E-10
       239  15  9.714535E+03 -7.058963E+05 -7.175716E+04  9.614703E+04 -4.651000E-10  1.111301E-10
       239  16 -2.758633E+04 -5.774071E+04 -7.446051E+04  1.878209E+04  1.130958E-10  3.131886E-10
       239  17  1.310154E+05 -1.981399E+05  2.678105E+03  2.768642E+04 -1.133386E-09 -4.859178E-10
       239  18  8.625298E+04 -3.952034E+05 -2.831415E+02  1.243024E+05 -3.322682E-10 -1.249611E-09
       239  19 -3.503889E+05 -1.353880E+06 -3.922937E+05  1.736963E+05  6.957357E+03  1.699920E+05
       239  20 -1.046351E+05 -1.154597E+06 -2.188609E+05  7.699594E+04  1.899986E+04  9.972970E+04
       239  21 -6.682728E+04 -1.016497E+06 -1.432352E+05  6.800615E+04  1.338610E+04  2.945889E+04
       239  22 -1.889807E+05 -7.059979E+05 -2.333452E+05  9.628015E+04  6.926251E+03  1.550394E+05
       239  23  1.319842E+04 -6.764700E+05 -1.080751E+05  5.235151E+04  1.899302E+04  9.742032E+04
       239  24  9.715154E+03 -7.058946E+05 -7.175384E+04  9.614746E+04  1.339759E+04  3.981298E+04
       239  25 -2.758101E+04 -5.771963E+04 -7.442355E+04  1.878287E+04  6.898905E+03  1.400712E+05
       239  26  1.310182E+05 -1.981300E+05  2.695787E+03  2.768787E+04  1.898636E+04  9.510915E+04
       239  27  8.625385E+04 -3.952006E+05 -2.780708E+02  1.243029E+05  1.341003E+04  5.017222E+04
       240   1 -4.988901E+04 -8.437831E+05 -9.683947E+04  1.030580E+05 -6.349020E+03 -2.351814E+04
       240   2  7.219502E+03 -6.696850E+05 -4.345241E+04  5.233654E+04  8.664511E+02  7.764036E+02
       240   3  3.573854E+04 -5.060755E+05 -1.309138E+04  9.007630E+04  8.031816E+03  2.507775E+04
       240   4 -1.330330E+04 -6.951269E+05 -6.260895E+04  9.635603E+04 -6.354283E+03 -2.871017E+04
       240   5  2.250894E+03 -6.898666E+05 -4.809606E+04  5.212312E+04  8.610945E+02 -4.377664E+03
       240   6 -1.078898E+04 -6.951273E+05 -5.663179E+04  9.635337E+04  8.026781E+03  1.995519E+04
       240   7  2.328106E+04 -5.464501E+05 -2.837976E+04  8.965245E+04 -6.359433E+03 -3.390343E+04
       240   8 -2.717727E+03 -7.100479E+05 -5.273965E+04  5.190970E+04  8.557413E+02 -9.531566E+03
       240   9 -5.731884E+04 -8.841459E+05 -1.001744E+05  1.026285E+05  8.021642E+03  1.483417E+04
       240  10 -4.988921E+04 -8.437837E+05 -9.684059E+04  1.030579E+05  2.057865E-10 -2.636948E-10
       240  11  7.219501E+03 -6.696850E+05 -4.345241E+04  5.233654E+04 -3.171054E-10  7.925215E-11
       240  12  3.573830E+04 -5.060762E+05 -1.309268E+04  9.007614E+04 -3.308293E-10  6.532819E-10
       240  13 -1.330356E+04 -6.951278E+05 -6.261057E+04  9.635589E+04  3.044542E-10  1.345691E-10
       240  14  2.250888E+03 -6.898666E+05 -4.809610E+04  5.212312E+04  9.172827E-10 -6.973904E-10
       240  15 -1.078916E+04 -6.951278E+05 -5.663266E+04  9.635325E+04  3.205757E-10  1.362259E-10
       240  16  2.328071E+04 -5.464514E+05 -2.838200E+04  8.965228E+04  7.164490E-11 -3.454528E-10
       240  17 -2.717752E+03 -7.100480E+05 -5.273982E+04  5.190971E+04 -4.778984E-11 -6.332277E-10
       240  18 -5.731897E+04 -8.841462E+05 -1.001750E+05  1.026284E+05  2.665652E-10 -8.995140E-10
       240  19 -4.988901E+04 -8.437831E+05 -9.683947E+04  1.030580E+05  6.349020E+03  2.351814E+04
       240  20  7.219502E+03 -6.696850E+05 -4.345241E+04  5.233654E+04 -8.664511E+02 -7.764036E+02
       240  21  3.573854E+04 -5.060755E+05 -1.309138E+04  9.007630E+04 -8.031816E+03 -2.507775E+04
       240  22 -1.330330E+04 -6.951269E+05 -6.260895E+04  9.635603E+04  6.354283E+03  2.871017E+04
       240  23  2.250894E+03 -6.898666E+05 -4.809606E+04  5.212312E+04 -8.610945E+02  4.377664E+03
       240  24 -1.078898E+04 -6.951273E+05 -5.663179E+04  9.635337E+04 -8.026781E+03 -1.995519E+04
       240  25  2.328106E+04 -5.464501E+05 -2.837976E+04  8.965245E+04  6.359433E+03  3.390343E+04
       240  26 -2.717727E+03 -7.100479E+05 -5.273965E+04  5.190970E+04 -8.557413E+02  9.531566E+03
       240  27 -5.731884E+04 -8.841459E+05 -1.001744E+05  1.026285E+05 -8.021642E+03 -1.483417E+04
       241   1  9.424241E+04 -3.526605E+05  1.766332E+04  1.196246E+05  1.518770E+04  4.048717E+04
       241   2  1.387396E+05 -1.606060E+05  2.864258E+04  3.187070E+04  2.060835E+04  7.578486E+04
       241   3  1.433021E+04 -1.531438E+04 -2.557723E+04  3.173867E+04  7.391897E+03  1.111044E+05
       241   4  7.788373E+03 -7.037264E+05 -6.306766E+04  9.613610E+04  1.517618E+04  2.988544E+04
       241   5  1.100030E+04 -6.791908E+05 -9.142445E+04  5.236934E+04  2.061414E+04  7.856059E+04
       241   6 -1.571033E+05 -7.038233E+05 -1.943202E+05  9.623792E+04  7.413094E+03  1.272470E+05
       241   7 -7.867216E+04 -1.054677E+06 -1.438061E+05  7.266097E+04  1.516546E+04  1.928966E+04
       241   8 -1.167563E+05 -1.197526E+06 -2.115092E+05  7.285067E+04  2.062013E+04  8.133400E+04
       241   9 -3.285560E+05 -1.391891E+06 -3.630947E+05  1.606654E+05  7.437665E+03  1.433717E+05
       241  10  9.424172E+04 -3.526623E+05  1.765980E+04  1.196241E+05 -2.354318E-10 -5.276422E-10
       241  11  1.387376E+05 -1.606123E+05  2.863099E+04  3.186944E+04 -9.238764E-10 -6.879483E-11
       241  12  1.432684E+04 -1.532765E+04 -2.560053E+04  3.173800E+04 -8.579485E-11  5.539113E-10
       241  13  7.787886E+03 -7.037274E+05 -6.306977E+04  9.613573E+04 -4.993539E-10  6.019893E-11
       241  14  1.099818E+04 -6.791976E+05 -9.143686E+04  5.236803E+04  1.761179E-10 -2.562471E-10
       241  15 -1.571077E+05 -7.038407E+05 -1.943508E+05  9.623716E+04  1.942673E-10  2.223853E-11
       241  16 -7.867251E+04 -1.054677E+06 -1.438072E+05  7.266074E+04  1.321428E-10 -7.605984E-11
       241  17 -1.167585E+05 -1.197533E+06 -2.115225E+05  7.284931E+04 -6.866787E-10 -2.744397E-12
       241  18 -3.285616E+05 -1.391913E+06 -3.631335E+05  1.606645E+05 -5.639636E-10 -5.353740E-10
       241  19  9.424241E+04 -3.526605E+05  1.766332E+04  1.196246E+05 -1.518770E+04 -4.048717E+04
       241  20  1.387396E+05 -1.606060E+05  2.864258E+04  3.187070E+04 -2.060835E+04 -7.578486E+04
       241  21  1.433021E+04 -1.531438E+04 -2.557723E+04  3.173867E+04 -7.391897E+03 -1.111044E+05
       241  22  7.788373E+03 -7.037264E+05 -6.306766E+04  9.613610E+04 -1.517618E+04 -2.988544E+04
       241  23  1.100030E+04 -6.791908E+05 -9.142445E+04  5.236934E+04 -2.061414E+04 -7.856059E+04
       241  24 -1.571033E+05 -7.038233E+05 -1.943202E+05  9.623792E+04 -7.413094E+03 -1.272470E+05
       241  25 -7.867216E+04 -1.054677E+06 -1.438061E+05  7.266097E+04 -1.516546E+04 -1.928966E+04
       241  26 -1.167563E+05 -1.197526E+06 -2.115092E+05  7.285067E+04 -2.062013E+04 -8.133400E+04
       241  27 -3.285560E+05 -1.391891E+06 -3.630947E+05  1.606654E+05 -7.437665E+03 -1.433717E+05
       242   1  9.018192E+05  6.796245E+05  2.054296E+05  6.168651E+05  1.115795E+05  8.345652E+04
       242   2  8.672802E+05  5.149521E+05  9.383758E+04  6.772922E+05  7.273829E+04  5.389010E+04
       242   3  9.307261E+05  4.819928E+05  5.865435E+04  6.761239E+05  3.376242E+04  2.450355E+04
       242   4  9.595276E+05  6.093907E+05  2.029941E+05  5.942302E+05  1.113194E+05  8.324268E+04
       242   5  8.792928E+05  4.878512E+05  9.104866E+04  6.668135E+05  7.259710E+04  5.378033E+04
       242   6  8.970133E+05  4.979889E+05  5.540251E+04  6.778022E+05  3.374438E+04  2.449207E+04
       242   7  1.017247E+06  5.391731E+05  2.005610E+05  5.715923E+05  1.110593E+05  8.302890E+04
       242   8  8.913063E+05  4.607523E+05  8.825999E+04  6.563347E+05  7.245590E+04  5.367059E+04
       242   9  8.633026E+05  5.139864E+05  5.215098E+04  6.794799E+05  3.372633E+04  2.448058E+04
       242  10  9.018039E+05  6.796137E+05  2.053932E+05  6.168576E+05  3.257644E-11  1.023585E-10
       242  11  8.672738E+05  5.149476E+05  9.382222E+04  6.772890E+05 -3.385736E-09 -1.683692E-09
       242  12  9.307247E+05  4.819919E+05  5.865108E+04  6.761233E+05 -2.869684E-09 -1.848748E-09
       242  13  9.595125E+05  6.093800E+05  2.029578E+05  5.942228E+05 -1.245734E-09 -5.074865E-10
       242  14  8.792864E+05  4.878467E+05  9.103335E+04  6.668104E+05 -4.072744E-09 -1.740177E-09
       242  15  8.970119E+05  4.979880E+05  5.539925E+04  6.778015E+05 -1.820196E-09 -4.752318E-10
       242  16  1.017232E+06  5.391624E+05  2.005249E+05  5.715849E+05 -2.273689E-09 -1.362105E-09
       242  17  8.912999E+05  4.607478E+05  8.824474E+04  6.563316E+05 -3.117748E-09 -1.225552E-09
       242  18  8.633013E+05  5.139855E+05  5.214772E+04  6.794793E+05  1.112625E-09  3.978450E-10
       242  19  9.018192E+05  6.796245E+05  2.054296E+05  6.168651E+05 -1.115795E+05 -8.345652E+04
       242  20  8.672802E+05  5.149521E+05  9.383758E+04  6.772922E+05 -7.273829E+04 -5.389010E+04
       242  21  9.307261E+05  4.819928E+05  5.865435E+04  6.761239E+05 -3.376242E+04 -2.450355E+04
       242  22  9.595276E+05  6.093907E+05  2.029941E+05  5.942302E+05 -1.113194E+05 -8.324268E+04
       242  23  8.792928E+05  4.878512E+05  9.104866E+04  6.668135E+05 -7.259710E+04 -5.378033E+04
       242  24  8.970133E+05  4.979889E+05  5.540251E+04  6.778022E+05 -3.374438E+04 -2.449207E+04
       242  25  1.017247E+06  5.391731E+05  2.005610E+05  5.715923E+05 -1.110593E+05 -8.302890E+04
       242  26  8.913063E+05  4.607523E+05  8.825999E+04  6.563347E+05 -7.245590E+04 -5.367059E+04
       242  27  8.633026E+05  5.139864E+05  5.215098E+04  6.794799E+05 -3.372633E+04 -2.448058E+04
       243   1  9.059514E+05  5.204519E+05  4.868834E+04  6.696993E+05  2.724536E+04  1.957781E+04
       243   2  9.035625E+05  5.096337E+05  2.902729E+04  6.749663E+05  1.727708E+04  1.195966E+04
       243   3  9.104528E+05  5.083614E+05  2.096028E+04  6.757455E+05  7.302994E+03  4.349293E+03
       243   4  8.981621E+05  5.080002E+05  4.494797E+04  6.626329E+05  2.717413E+04  1.952414E+04
       243   5  8.911930E+05  4.990733E+05  2.480304E+04  6.679959E+05  1.721146E+04  1.191043E+04
       243   6  8.935020E+05  4.996913E+05  1.624726E+04  6.688711E+05  7.243163E+03  4.304486E+03
       243   7  8.903727E+05  4.955486E+05  4.120757E+04  6.555666E+05  2.710289E+04  1.947048E+04
       243   8  8.788237E+05  4.885131E+05  2.057877E+04  6.610258E+05  1.714584E+04  1.186121E+04
       243   9  8.765516E+05  4.910213E+05  1.153425E+04  6.619970E+05  7.183336E+03  4.259680E+03
       243  10  9.059505E+05  5.204513E+05  4.868623E+04  6.696989E+05 -1.451935E-09 -5.585710E-10
       243  11  9.035622E+05  5.096335E+05  2.902646E+04  6.749661E+05 -1.160833E-09 -2.764341E-10
       243  12  9.104527E+05  5.083614E+05  2.096014E+04  6.757455E+05 -4.483868E-11 -1.839695E-10
       243  13  8.981612E+05  5.079996E+05  4.494587E+04  6.626325E+05  1.331717E-10 -3.736467E-11
       243  14  8.911927E+05  4.990731E+05  2.480222E+04  6.679958E+05  8.787329E-10 -3.489433E-10
       243  15  8.935019E+05  4.996912E+05  1.624712E+04  6.688711E+05  8.770173E-10 -1.418983E-10
       243  16  8.903718E+05  4.955480E+05  4.120548E+04  6.555662E+05  1.528815E-09  1.834547E-11
       243  17  8.788234E+05  4.885128E+05  2.057795E+04  6.610256E+05  1.238665E-09 -2.722086E-11
       243  18  8.765516E+05  4.910212E+05  1.153412E+04  6.619969E+05  8.192356E-10 -9.898092E-11
       243  19  9.059514E+05  5.204519E+05  4.868834E+04  6.696993E+05 -2.724536E+04 -1.957781E+04
       243  20  9.035625E+05  5.096337E+05  2.902729E+04  6.749663E+05 -1.727708E+04 -1.195966E+04
       243  21  9.104528E+05  5.083614E+05  2.096028E+04  6.757455E+05 -7.302994E+03 -4.349293E+03
       243  22  8.981621E+05  5.080002E+05  4.494797E+04  6.626329E+05 -2.717413E+04 -1.952414E+04
       243  23  8.911930E+05  4.990733E+05  2.480304E+04  6.679959E+05 -1.721146E+04 -1.191043E+04
       243  24  8.935020E+05  4.996913E+05  1.624726E+04  6.688711E+05 -7.243163E+03 -4.304486E+03
       243  25  8.903727E+05  4.955486E+05  4.120757E+04  6.555666E+05 -2.710289E+04 -1.947048E+04
       243  26  8.788237E+05  4.885131E+05  2.057877E+04  6.610258E+05 -1.714584E+04 -1.186121E+04
       243  27  8.765516E+05  4.910213E+05  1.153425E+04  6.619970E+05 -7.183336E+03 -4.259680E+03
       244   1  9.097190E+05  5.123259E+05  1.919582E+04  6.760509E+05  5.202842E+03  2.698301E+03
       244   2  9.102716E+05  5.128382E+05  1.765645E+04  6.771256E+05  5.080133E+02 -9.566499E+02
       244   3  9.135489E+05  5.140743E+05  2.051878E+04  6.774744E+05 -4.187635E+03 -4.610616E+03
       244   4  8.935008E+05  5.003228E+05  1.399115E+04  6.677638E+05  5.139346E+03  2.650708E+03
       244   5  8.921459E+05  4.999741E+05  1.194789E+04  6.681169E+05  4.454301E+02 -1.003558E+03
       244   6  8.935155E+05  5.003490E+05  1.430563E+04  6.677441E+05 -4.249303E+03 -4.656844E+03
       244   7  8.772829E+05  4.883199E+05  8.786447E+03  6.594769E+05  5.075853E+03  2.603117E+03
       244   8  8.740205E+05  4.871100E+05  6.239254E+03  6.591084E+05  3.828491E+02 -1.050464E+03
       244   9  8.734823E+05  4.866237E+05  8.092377E+03  6.580140E+05 -4.310970E+03 -4.703071E+03
       244  10  9.097190E+05  5.123259E+05  1.919576E+04  6.760509E+05 -2.636753E-10 -2.469764E-10
       244  11  9.102716E+05  5.128382E+05  1.765645E+04  6.771256E+05  6.854214E-10  1.375976E-10
       244  12  9.135489E+05  5.140743E+05  2.051871E+04  6.774744E+05  7.312641E-10 -8.464270E-11
       244  13  8.935008E+05  5.003228E+05  1.399109E+04  6.677637E+05 -1.162107E-11 -4.712480E-11
       244  14  8.921459E+05  4.999741E+05  1.194788E+04  6.681169E+05  3.283995E-10 -3.581557E-11
       244  15  8.935155E+05  5.003489E+05  1.430555E+04  6.677441E+05 -2.571715E-10  1.362321E-10
       244  16  8.772829E+05  4.883199E+05  8.786386E+03  6.594769E+05  6.782798E-10 -1.173735E-10
       244  17  8.740205E+05  4.871100E+05  6.239252E+03  6.591084E+05 -2.072015E-10 -1.551591E-10
       244  18  8.734823E+05  4.866237E+05  8.092301E+03  6.580140E+05 -5.004831E-10  1.137754E-10
       244  19  9.097190E+05  5.123259E+05  1.919582E+04  6.760509E+05 -5.202842E+03 -2.698301E+03
       244  20  9.102716E+05  5.128382E+05  1.765645E+04  6.771256E+05 -5.080133E+02  9.566499E+02
       244  21  9.135489E+05  5.140743E+05  2.051878E+04  6.774744E+05  4.187635E+03  4.610616E+03
       244  22  8.935008E+05  5.003228E+05  1.399115E+04  6.677638E+05 -5.139346E+03 -2.650708E+03
       244  23  8.921459E+05  4.999741E+05  1.194789E+04  6.681169E+05 -4.454301E+02  1.003558E+03
       244  24  8.935155E+05  5.003490E+05  1.430563E+04  6.677441E+05  4.249303E+03  4.656844E+03
       244  25  8.772829E+05  4.883199E+05  8.786447E+03  6.594769E+05 -5.075853E+03 -2.603117E+03
       244  26  8.740205E+05  4.871100E+05  6.239254E+03  6.591084E+05 -3.828491E+02  1.050464E+03
       244  27  8.734823E+05  4.866237E+05  8.092377E+03  6.580140E+05  4.310970E+03  4.703071E+03
       245   1  9.128263E+05  5.168660E+05  2.346008E+04  6.801099E+05 -6.328338E+03 -6.303995E+03
       245   2  9.152331E+05  5.142960E+05  3.302326E+04  6.791197E+05 -1.671848E+04 -1.422375E+04
       245   3  9.273538E+05  5.216612E+05  5.466873E+04  6.734338E+05 -2.713798E+04 -2.210434E+04
       245   4  8.935372E+05  4.996699E+05  1.673436E+04  6.689049E+05 -6.403367E+03 -6.360196E+03
       245   5  8.911174E+05  4.990445E+05  2.576946E+04  6.679947E+05 -1.676484E+04 -1.425854E+04
       245   6  8.984055E+05  5.083481E+05  4.686246E+04  6.623886E+05 -2.715557E+04 -2.211784E+04
       245   7  8.742487E+05  4.824744E+05  1.000865E+04  6.577005E+05 -6.478393E+03 -6.416394E+03
       245   8  8.670024E+05  4.837932E+05  1.851562E+04  6.568702E+05 -1.681119E+04 -1.429334E+04
       245   9  8.694583E+05  4.950353E+05  3.905613E+04  6.513439E+05 -2.717316E+04 -2.213135E+04
       245  10  9.128262E+05  5.168659E+05  2.345993E+04  6.801099E+05  6.377017E-10 -2.937348E-10
       245  11  9.152327E+05  5.142958E+05  3.302236E+04  6.791195E+05  1.374613E-10 -2.123406E-10
       245  12  9.273528E+05  5.216604E+05  5.466644E+04  6.734333E+05 -1.007060E-10 -1.391184E-11
       245  13  8.935372E+05  4.996699E+05  1.673421E+04  6.689049E+05 -4.137489E-10 -7.081885E-11
       245  14  8.911170E+05  4.990442E+05  2.576855E+04  6.679945E+05  6.439997E-10  1.035462E-10
       245  15  8.984046E+05  5.083474E+05  4.686016E+04  6.623881E+05  3.848931E-10  2.503611E-10
       245  16  8.742487E+05  4.824743E+05  1.000849E+04  6.577005E+05 -1.736249E-10  2.157180E-10
       245  17  8.670020E+05  4.837929E+05  1.851471E+04  6.568700E+05  3.407467E-10  3.569311E-10
       245  18  8.694574E+05  4.950346E+05  3.905383E+04  6.513435E+05 -1.274541E-11  1.297122E-10
       245  19  9.128263E+05  5.168660E+05  2.346008E+04  6.801099E+05  6.328338E+03  6.303995E+03
       245  20  9.152331E+05  5.142960E+05  3.302326E+04  6.791197E+05  1.671848E+04  1.422375E+04
       245  21  9.273538E+05  5.216612E+05  5.466873E+04  6.734338E+05  2.713798E+04  2.210434E+04
       245  22  8.935372E+05  4.996699E+05  1.673436E+04  6.689049E+05  6.403367E+03  6.360196E+03
       245  23  8.911174E+05  4.990445E+05  2.576946E+04  6.679947E+05  1.676484E+04  1.425854E+04
       245  24  8.984055E+05  5.083481E+05  4.686246E+04  6.623886E+05  2.715557E+04  2.211784E+04
       245  25  8.742487E+05  4.824744E+05  1.000865E+04  6.577005E+05  6.478393E+03  6.416394E+03
       245  26  8.670024E+05  4.837932E+05  1.851562E+04  6.568702E+05  1.681119E+04  1.429334E+04
       245  27  8.694583E+05  4.950353E+05  3.905613E+04  6.513439E+05  2.717316E+04  2.213135E+04
       246   1  8.992112E+05  5.409841E+05  6.608568E+04  6.984640E+05 -3.364369E+04 -2.721821E+04
       246   2  9.285587E+05  4.855373E+05  1.039505E+05  6.743731E+05 -7.490306E+04 -5.809128E+04
       246   3  1.060419E+06  5.676185E+05  2.219891E+05  5.859362E+05 -1.167790E+05 -8.814193E+04
       246   4  8.972163E+05  4.978860E+05  5.779866E+04  6.782270E+05 -3.391602E+04 -2.742013E+04
       246   5  8.786744E+05  4.873386E+05  9.504854E+04  6.667637E+05 -7.458159E+04 -5.785464E+04
       246   6  9.625128E+05  6.141918E+05  2.119625E+05  5.909559E+05 -1.158585E+05 -8.747267E+04
       246   7  8.952224E+05  4.547915E+05  4.951182E+04  6.579903E+05 -3.418835E+04 -2.762203E+04
       246   8  8.287937E+05  4.891406E+05  8.614673E+04  6.591542E+05 -7.426016E+04 -5.761799E+04
       246   9  8.646264E+05  6.607766E+05  2.019386E+05  5.959712E+05 -1.149381E+05 -8.680326E+04
       246  10  8.992098E+05  5.409830E+05  6.608217E+04  6.984633E+05  6.089475E-14  9.693290E-11
       246  11  9.285518E+05  4.855322E+05  1.039337E+05  6.743696E+05  1.539589E-10  1.073075E-10
       246  12  1.060402E+06  5.676065E+05  2.219489E+05  5.859279E+05  1.545564E-10  4.838148E-11
       246  13  8.972148E+05  4.978849E+05  5.779509E+04  6.782262E+05  3.455769E-10  8.500373E-11
       246  14  8.786675E+05  4.873335E+05  9.503183E+04  6.667603E+05 -1.803994E-10 -1.165255E-10
       246  15  9.624964E+05  6.141800E+05  2.119230E+05  5.909477E+05  1.808068E-11 -8.241538E-11
       246  16  8.952210E+05  4.547904E+05  4.950820E+04  6.579896E+05  2.312627E-10  6.530223E-11
       246  17  8.287869E+05  4.891356E+05  8.613016E+04  6.591508E+05 -2.808689E-10 -1.561299E-10
       246  18  8.646102E+05  6.607650E+05  2.018997E+05  5.959631E+05 -3.562547E-10 -1.506003E-10
       246  19  8.992112E+05  5.409841E+05  6.608568E+04  6.984640E+05  3.364369E+04  2.721821E+04
       246  20  9.285587E+05  4.855373E+05  1.039505E+05  6.743731E+05  7.490306E+04  5.809128E+04
       246  21  1.060419E+06  5.676185E+05  2.219891E+05  5.859362E+05  1.167790E+05  8.814193E+04
       246  22  8.972163E+05  4.978860E+05  5.779866E+04  6.782270E+05  3.391602E+04  2.742013E+04
       246  23  8.786744E+05  4.873386E+05  9.504854E+04  6.667637E+05  7.458159E+04  5.785464E+04
       246  24  9.625128E+05  6.141918E+05  2.119625E+05  5.909559E+05  1.158585E+05  8.747267E+04
       246  25  8.952224E+05  4.547915E+05  4.951182E+04  6.579903E+05  3.418835E+04  2.762203E+04
       246  26  8.287937E+05  4.891406E+05  8.614673E+04  6.591542E+05  7.426016E+04  5.761799E+04
       246  27  8.646264E+05  6.607766E+05  2.019386E+05  5.959712E+05  1.149381E+05  8.680326E+04
       247   1  9.058644E+05  1.148621E+05  1.140740E+05  4.696477E+04  1.479404E+04 -4.976562E+03
       247   2  8.254646E+05  8.926338E+04  8.670016E+04  2.532883E+04  5.031294E+03 -1.454483E+04
       247   3  7.480097E+05  7.002652E+04  6.728084E+04  4.453450E+04 -4.728860E+03 -1.245885E+04
       247   4  4.620569E+05  4.463990E+03  5.540601E+03  4.516150E+04  3.695015E+03 -4.975273E+03
       247   5  4.613231E+05 -3.416164E+02  2.549551E+03  2.473986E+04  2.334194E+03 -1.454541E+04
       247   6  4.620730E+05 -2.403079E+02  1.685606E+03  4.516111E+04  9.746906E+02 -1.245831E+04
       247   7  1.842890E+04 -1.059486E+05 -1.030067E+05  4.335951E+04 -7.396104E+03 -4.973918E+03
       247   8  9.730406E+04 -8.995591E+04 -8.160988E+04  2.415125E+04 -3.613376E+02 -1.454599E+04
       247   9  1.762121E+05 -7.051281E+04 -6.391489E+04  4.578743E+04  6.675638E+03 -1.245776E+04
       247  10  9.058642E+05  1.148620E+05  1.140736E+05  4.696483E+04  4.312819E-11 -6.931860E-11
       247  11  8.254645E+05  8.926315E+04  8.669972E+04  2.532889E+04 -4.487548E-10  6.678014E-11
       247  12  7.480096E+05  7.002635E+04  6.728051E+04  4.453445E+04  9.621703E-11  1.327000E-10
       247  13  4.620569E+05  4.463959E+03  5.540529E+03  4.516151E+04 -5.470191E-10 -5.382736E-11
       247  14  4.613230E+05 -3.418451E+02  2.549143E+03  2.473989E+04 -9.602005E-11 -5.180957E-12
       247  15  4.620730E+05 -2.404748E+02  1.685312E+03  4.516112E+04 -1.555576E-10  2.785863E-11
       247  16  1.842883E+04 -1.059486E+05 -1.030069E+05  4.335949E+04 -3.702300E-12 -5.344440E-11
       247  17  9.730401E+04 -8.995613E+04 -8.161028E+04  2.415124E+04 -2.197150E-10 -6.850765E-11
       247  18  1.762120E+05 -7.051299E+04 -6.391527E+04  4.578750E+04  2.569790E-11 -9.028063E-11
       247  19  9.058644E+05  1.148621E+05  1.140740E+05  4.696477E+04 -1.479404E+04  4.976562E+03
       247  20  8.254646E+05  8.926338E+04  8.670016E+04  2.532883E+04 -5.031294E+03  1.454483E+04
       247  21  7.480097E+05  7.002652E+04  6.728084E+04  4.453450E+04  4.728860E+03  1.245885E+04
       247  22  4.620569E+05  4.463990E+03  5.540601E+03  4.516150E+04 -3.695015E+03  4.975273E+03
       247  23  4.613231E+05 -3.416164E+02  2.549551E+03  2.473986E+04 -2.334194E+03  1.454541E+04
       247  24  4.620730E+05 -2.403079E+02  1.685606E+03  4.516111E+04 -9.746906E+02  1.245831E+04
       247  25  1.842890E+04 -1.059486E+05 -1.030067E+05  4.335951E+04  7.396104E+03  4.973918E+03
       247  26  9.730406E+04 -8.995591E+04 -8.160988E+04  2.415125E+04  3.613376E+02  1.454599E+04
       247  27  1.762121E+05 -7.051281E+04 -6.391489E+04  4.578743E+04 -6.675638E+03  1.245776E+04
       248   1  6.722595E+05  5.209184E+04  4.990316E+04  4.538294E+04 -1.399961E+03 -8.831850E+03
       248   2  5.936019E+05  3.239890E+04  3.141555E+04  2.472336E+04 -2.347058E+03 -5.627109E+03
       248   3  5.151982E+05  1.324522E+04  1.367588E+04  4.517258E+04 -3.294877E+03 -1.874432E+03
       248   4  4.617919E+05  3.365967E+02  1.459824E+03  4.522036E+04  7.118873E+02 -8.831578E+03
       248   5  4.617055E+05 -2.817563E+01  1.098443E+03  2.466573E+04  1.596171E+02 -5.626526E+03
       248   6  4.617975E+05  7.800024E+01  1.211115E+03  4.522041E+04 -3.934995E+02 -1.873463E+03
       248   7  2.513653E+05 -5.142174E+04 -4.698643E+04  4.505783E+04  2.823026E+03 -8.831307E+03
       248   8  3.298251E+05 -3.245646E+04 -2.921979E+04  2.460810E+04  2.665764E+03 -5.625943E+03
       248   9  4.083994E+05 -1.308941E+04 -1.125382E+04  4.526825E+04  2.507630E+03 -1.872494E+03
       248  10  6.722595E+05  5.209176E+04  4.990301E+04  4.538293E+04  4.340159E-11  1.030612E-11
       248  11  5.936019E+05  3.239886E+04  3.141548E+04  2.472335E+04 -3.096725E-10  1.125818E-10
       248  12  5.151982E+05  1.324521E+04  1.367586E+04  4.517257E+04 -7.151747E-10  3.260788E-10
       248  13  4.617919E+05  3.365128E+02  1.459676E+03  4.522036E+04 -2.819132E-10 -9.608086E-11
       248  14  4.617055E+05 -2.820964E+01  1.098383E+03  2.466573E+04 -4.532017E-10 -2.121352E-10
       248  15  4.617975E+05  7.799643E+01  1.211109E+03  4.522041E+04 -3.759131E-10  1.462028E-10
       248  16  2.513653E+05 -5.142183E+04 -4.698659E+04  4.505785E+04 -5.989743E-11 -4.361064E-11
       248  17  3.298251E+05 -3.245650E+04 -2.921987E+04  2.460812E+04  6.223437E-10 -4.855706E-10
       248  18  4.083994E+05 -1.308942E+04 -1.125383E+04  4.526825E+04  5.859631E-10  2.269766E-10
       248  19  6.722595E+05  5.209184E+04  4.990316E+04  4.538294E+04  1.399961E+03  8.831850E+03
       248  20  5.936019E+05  3.239890E+04  3.141555E+04  2.472336E+04  2.347058E+03  5.627109E+03
       248  21  5.151982E+05  1.324522E+04  1.367588E+04  4.517258E+04  3.294877E+03  1.874432E+03
       248  22  4.617919E+05  3.365967E+02  1.459824E+03  4.522036E+04 -7.118873E+02  8.831578E+03
       248  23  4.617055E+05 -2.817563E+01  1.098443E+03  2.466573E+04 -1.596171E+02  5.626526E+03
       248  24  4.617975E+05  7.800024E+01  1.211115E+03  4.522041E+04  3.934995E+02  1.873463E+03
       248  25  2.513653E+05 -5.142174E+04 -4.698643E+04  4.505783E+04 -2.823026E+03  8.831307E+03
       248  26  3.298251E+05 -3.245646E+04 -2.921979E+04  2.460810E+04 -2.665764E+03  5.625943E+03
       248  27  4.083994E+05 -1.308941E+04 -1.125382E+04  4.526825E+04 -2.507630E+03  1.872494E+03
       249   1  4.400973E+05 -5.393163E+03 -3.819116E+03  4.538247E+04 -3.511667E+03  5.092014E+02
       249   2  3.614244E+05 -2.471779E+04 -2.101112E+04  2.456296E+04 -4.173262E+03  4.265634E+03
       249   3  2.830955E+05 -4.296164E+04 -3.750755E+04  4.484571E+04 -4.834111E+03  7.513462E+03
       249   4  4.618480E+05 -6.209273E+00  1.376528E+03  4.521880E+04 -6.224587E+02  5.101886E+02
       249   5  4.616442E+05 -7.415951E+01  2.032354E+03  2.466777E+04 -1.650694E+03  4.266300E+03
       249   6  4.618434E+05  1.002847E+03  3.638657E+03  4.521854E+04 -2.678271E+03  7.513864E+03
       249   7  4.835991E+05  5.380715E+03  6.572170E+03  4.505514E+04  2.266850E+03  5.111743E+02
       249   8  5.618733E+05  2.456877E+04  2.507518E+04  2.477259E+04  8.722770E+02  4.266966E+03
       249   9  6.406208E+05  4.496510E+04  4.478276E+04  4.559148E+04 -5.218149E+02  7.514269E+03
       249  10  4.400973E+05 -5.393167E+03 -3.819140E+03  4.538247E+04  1.223743E-09  7.024568E-10
       249  11  3.614244E+05 -2.471781E+04 -2.101118E+04  2.456298E+04  5.752298E-10 -3.387326E-11
       249  12  2.830955E+05 -4.296170E+04 -3.750770E+04  4.484574E+04  1.772881E-10 -1.222190E-10
       249  13  4.618480E+05 -6.209656E+00  1.376527E+03  4.521880E+04 -2.819686E-10  2.112589E-10
       249  14  4.616442E+05 -7.417979E+01  2.032314E+03  2.466778E+04  2.526352E-11 -2.284494E-10
       249  15  4.618434E+05  1.002785E+03  3.638537E+03  4.521855E+04  1.765865E-10 -1.155979E-12
       249  16  4.835990E+05  5.380713E+03  6.572160E+03  4.505513E+04 -1.106541E-09 -4.559634E-11
       249  17  5.618733E+05  2.456875E+04  2.507515E+04  2.477259E+04 -3.162146E-10 -6.443490E-10
       249  18  6.406208E+05  4.496504E+04  4.478266E+04  4.559148E+04  2.635213E-10 -3.126875E-10
       249  19  4.400973E+05 -5.393163E+03 -3.819116E+03  4.538247E+04  3.511667E+03 -5.092014E+02
       249  20  3.614244E+05 -2.471779E+04 -2.101112E+04  2.456296E+04  4.173262E+03 -4.265634E+03
       249  21  2.830955E+05 -4.296164E+04 -3.750755E+04  4.484571E+04  4.834111E+03 -7.513462E+03
       249  22  4.618480E+05 -6.209273E+00  1.376528E+03  4.521880E+04  6.224587E+02 -5.101886E+02
       249  23  4.616442E+05 -7.415951E+01  2.032354E+03  2.466777E+04  1.650694E+03 -4.266300E+03
       249  24  4.618434E+05  1.002847E+03  3.638657E+03  4.521854E+04  2.678271E+03 -7.513864E+03
       249  25  4.835991E+05  5.380715E+03  6.572170E+03  4.505514E+04 -2.266850E+03 -5.111743E+02
       249  26  5.618733E+05  2.456877E+04  2.507518E+04  2.477259E+04 -8.722770E+02 -4.266966E+03
       249  27  6.406208E+05  4.496510E+04  4.478276E+04  4.559148E+04  5.218149E+02 -7.514269E+03
       250   1  2.085359E+05 -6.319467E+04 -5.385296E+04  4.708387E+04 -8.852228E+03  1.104842E+04
       250   2  1.282896E+05 -8.274396E+04 -6.950426E+04  2.298535E+04 -4.927096E+03  1.325358E+04
       250   3  5.086895E+04 -8.922377E+04 -8.443038E+04  3.973382E+04 -1.002944E+03  4.571496E+03
       250   4  4.626750E+05 -7.197733E+02  4.478612E+03  4.516166E+04 -3.345795E+03  1.104926E+04
       250   5  4.605774E+05 -9.403212E+02  7.328764E+03  2.473921E+04 -7.262051E+03  1.325296E+04
       250   6  4.626581E+05  1.326590E+04  1.634596E+04  4.516200E+04 -1.117883E+04  4.572063E+03
       250   7  7.168740E+05  6.175065E+04  6.280605E+04  4.323865E+04  2.162874E+03  1.105006E+04
       250   8  7.929672E+05  8.085559E+04  8.415444E+04  2.649401E+04 -9.598245E+03  1.325234E+04
       250   9  8.746019E+05  1.157432E+05  1.171103E+05  5.059378E+04 -2.136144E+04  4.572451E+03
       250  10  2.085357E+05 -6.319482E+04 -5.385334E+04  4.708395E+04  3.644747E-10  6.890503E-11
       250  11  1.282895E+05 -8.274416E+04 -6.950463E+04  2.298540E+04 -3.163620E-10 -9.069672E-11
       250  12  5.086894E+04 -8.922379E+04 -8.443042E+04  3.973382E+04  7.773689E-11  1.933528E-11
       250  13  4.626750E+05 -7.199075E+02  4.478361E+03  4.516169E+04 -1.828248E-10 -7.646816E-11
       250  14  4.605773E+05 -9.405240E+02  7.328335E+03  2.473929E+04  2.228584E-10 -3.112925E-11
       250  15  4.626579E+05  1.326585E+04  1.634568E+04  4.516204E+04  8.253110E-10 -4.317853E-11
       250  16  7.168740E+05  6.175052E+04  6.280581E+04  4.323863E+04  1.409157E-10  2.500140E-10
       250  17  7.929670E+05  8.085537E+04  8.415393E+04  2.649412E+04  2.230118E-10 -2.409885E-11
       250  18  8.746014E+05  1.157431E+05  1.171094E+05  5.059385E+04  6.931596E-10 -1.018697E-10
       250  19  2.085359E+05 -6.319467E+04 -5.385296E+04  4.708387E+04  8.852228E+03 -1.104842E+04
       250  20  1.282896E+05 -8.274396E+04 -6.950426E+04  2.298535E+04  4.927096E+03 -1.325358E+04
       250  21  5.086895E+04 -8.922377E+04 -8.443038E+04  3.973382E+04  1.002944E+03 -4.571496E+03
       250  22  4.626750E+05 -7.197733E+02  4.478612E+03  4.516166E+04  3.345795E+03 -1.104926E+04
       250  23  4.605774E+05 -9.403212E+02  7.328764E+03  2.473921E+04  7.262051E+03 -1.325296E+04
       250  24  4.626581E+05  1.326590E+04  1.634596E+04  4.516200E+04  1.117883E+04 -4.572063E+03
       250  25  7.168740E+05  6.175065E+04  6.280605E+04  4.323865E+04 -2.162874E+03 -1.105006E+04
       250  26  7.929672E+05  8.085559E+04  8.415444E+04  2.649401E+04  9.598245E+03 -1.325234E+04
       250  27  8.746019E+05  1.157432E+05  1.171103E+05  5.059378E+04  2.136144E+04 -4.572451E+03
       251   1 -3.296685E+05 -1.232630E+06 -3.689689E+05  1.618998E+05 -6.580235E+03 -1.589056E+05
       251   2 -9.983124E+04 -1.047687E+06 -2.072631E+05  7.175278E+04 -1.808909E+04 -9.272598E+04
       251   3 -6.496751E+04 -9.201234E+05 -1.374478E+05  6.282417E+04 -1.294374E+04 -2.653748E+04
       251   4 -1.770646E+05 -6.201040E+05 -2.187206E+05  8.926928E+04 -6.554158E+03 -1.446935E+05
       251   5  1.236327E+04 -5.924227E+05 -1.017915E+05  4.860408E+04 -1.808320E+04 -9.044396E+04
       251   6  8.967396E+03 -6.200171E+05 -6.839963E+04  8.916961E+04 -1.295289E+04 -3.620321E+04
       251   7 -2.446845E+04 -7.223929E+03 -6.849621E+04  1.656674E+04 -6.531431E+03 -1.304674E+05
       251   8  1.245452E+05 -1.369650E+05  3.666496E+03  2.543822E+04 -1.807747E+04 -8.816025E+04
       251   9  8.289864E+04 -3.198257E+05  6.432877E+02  1.155279E+05 -1.296286E+04 -4.587357E+04
       251  10 -3.296753E+05 -1.232657E+06 -3.690165E+05  1.618990E+05 -5.502083E-10 -6.801879E-12
       251  11 -9.983391E+04 -1.047697E+06 -2.072799E+05  7.175143E+04 -6.170815E-11  8.728758E-10
       251  12 -6.496788E+04 -9.201242E+05 -1.374494E+05  6.282389E+04  6.493218E-10  6.237032E-10
       251  13 -1.770702E+05 -6.201265E+05 -2.187601E+05  8.926851E+04  2.028390E-10 -2.366876E-11
       251  14  1.236072E+04 -5.924316E+05 -1.018075E+05  4.860277E+04  6.490839E-11  5.099212E-10
       251  15  8.966864E+03 -6.200186E+05 -6.840241E+04  8.916923E+04  2.134027E-11  6.794866E-10
       251  16 -2.447307E+04 -7.242220E+03 -6.852828E+04  1.656605E+04 -1.913213E-10  2.430136E-10
       251  17  1.245428E+05 -1.369734E+05  3.651273E+03  2.543694E+04  2.458640E-10 -3.922391E-10
       251  18  8.289790E+04 -3.198280E+05  6.390158E+02  1.155274E+05  7.078690E-10 -4.953473E-10
       251  19 -3.296685E+05 -1.232630E+06 -3.689689E+05  1.618998E+05  6.580235E+03  1.589056E+05
       251  20 -9.983124E+04 -1.047687E+06 -2.072631E+05  7.175278E+04  1.808909E+04  9.272598E+04
       251  21 -6.496751E+04 -9.201234E+05 -1.374478E+05  6.282417E+04  1.294374E+04  2.653748E+04
       251  22 -1.770646E+05 -6.201040E+05 -2.187206E+05  8.926928E+04  6.554158E+03  1.446935E+05
       251  23  1.236327E+04 -5.924227E+05 -1.017915E+05  4.860408E+04  1.808320E+04  9.044396E+04
       251  24  8.967396E+03 -6.200171E+05 -6.839963E+04  8.916961E+04  1.295289E+04  3.620321E+04
       251  25 -2.446845E+04 -7.223929E+03 -6.849621E+04  1.656674E+04  6.531431E+03  1.304674E+05
       251  26  1.245452E+05 -1.369650E+05  3.666496E+03  2.543822E+04  1.807747E+04  8.816025E+04
       251  27  8.289864E+04 -3.198257E+05  6.432877E+02  1.155279E+05  1.296286E+04  4.587357E+04
       252   1 -4.935105E+04 -7.601594E+05 -9.480012E+04  9.590228E+04 -6.393537E+03 -2.077089E+04
       252   2  3.759240E+03 -5.985684E+05 -4.640715E+04  4.845901E+04  2.716251E+02  3.424770E+03
       252   3  2.839703E+04 -4.473846E+05 -2.093456E+04  8.294122E+04  6.920970E+03  2.762649E+04
       252   4 -1.240606E+04 -6.100460E+05 -6.023181E+04  8.935783E+04 -6.397664E+03 -2.555788E+04
       252   5  2.217797E+03 -6.048301E+05 -4.784782E+04  4.839388E+04  2.673503E+02 -1.348876E+03
       252   6 -1.163128E+04 -6.100461E+05 -5.839020E+04  8.935712E+04  6.916974E+03  2.286023E+04
       252   7  2.453752E+04 -4.599115E+05 -2.566489E+04  8.281176E+04 -6.401690E+03 -3.034602E+04
       252   8  6.763639E+02 -6.110918E+05 -4.928842E+04  4.832875E+04  2.630765E+02 -6.122473E+03
       252   9 -5.166128E+04 -7.726830E+05 -9.584748E+04  9.577131E+04  6.912878E+03  1.809522E+04
       252  10 -4.935121E+04 -7.601599E+05 -9.480101E+04  9.590218E+04  3.345896E-10 -2.622388E-10
       252  11  3.759237E+03 -5.985684E+05 -4.640717E+04  4.845901E+04  1.160376E-10  8.237100E-10
       252  12  2.839677E+04 -4.473854E+05 -2.093609E+04  8.294107E+04  8.395029E-12  1.573794E-10
       252  13 -1.240628E+04 -6.100467E+05 -6.023312E+04  8.935769E+04  7.577581E-10 -5.500642E-11
       252  14  2.217797E+03 -6.048301E+05 -4.784783E+04  4.839388E+04  8.315806E-10  6.986558E-10
       252  15 -1.163147E+04 -6.100467E+05 -5.839127E+04  8.935699E+04  4.079682E-10  9.288635E-10
       252  16  2.453723E+04 -4.599125E+05 -2.566670E+04  8.281161E+04  8.608323E-10  5.729435E-10
       252  17  6.763538E+02 -6.110918E+05 -4.928849E+04  4.832875E+04  9.347454E-10 -1.113328E-10
       252  18 -5.166142E+04 -7.726833E+05 -9.584819E+04  9.577121E+04 -2.476035E-10  1.538486E-10
       252  19 -4.935105E+04 -7.601594E+05 -9.480012E+04  9.590228E+04  6.393537E+03  2.077089E+04
       252  20  3.759240E+03 -5.985684E+05 -4.640715E+04  4.845901E+04 -2.716251E+02 -3.424770E+03
       252  21  2.839703E+04 -4.473846E+05 -2.093456E+04  8.294122E+04 -6.920970E+03 -2.762649E+04
       252  22 -1.240606E+04 -6.100460E+05 -6.023181E+04  8.935783E+04  6.397664E+03  2.555788E+04
       252  23  2.217797E+03 -6.048301E+05 -4.784782E+04  4.839388E+04 -2.673503E+02  1.348876E+03
       252  24 -1.163128E+04 -6.100461E+05 -5.839020E+04  8.935712E+04 -6.916974E+03 -2.286023E+04
       252  25  2.453752E+04 -4.599115E+05 -2.566489E+04  8.281176E+04  6.401690E+03  3.034602E+04
       252  26  6.763639E+02 -6.110918E+05 -4.928842E+04  4.832875E+04 -2.630765E+02  6.122473E+03
       252  27 -5.166128E+04 -7.726830E+05 -9.584748E+04  9.577131E+04 -6.912878E+03 -1.809522E+04
       253   1  8.538208E+04 -3.066309E+05  6.191203E+03  1.140854E+05  1.351491E+04  4.289005E+04
       253   2  1.269464E+05 -1.253127E+05  1.168165E+04  2.672602E+04  1.858162E+04  8.220518E+04
       253   3 -1.153303E+04  5.934883E+03 -5.342396E+04  2.055949E+04  6.685440E+03  1.215398E+05
       253   4  8.373927E+03 -6.193491E+05 -6.572337E+04  8.916619E+04  1.350523E+04  3.314426E+04
       253   5  1.168640E+04 -5.932608E+05 -9.666129E+04  4.860931E+04  1.858706E+04  8.463284E+04
       253   6 -1.672428E+05 -6.194345E+05 -2.066970E+05  8.925754E+04  6.706254E+03  1.361301E+05
       253   7 -6.863869E+04 -9.319752E+05 -1.376437E+05  6.425963E+04  1.349632E+04  2.340335E+04
       253   8 -1.035872E+05 -1.061005E+06 -2.050186E+05  7.047594E+04  1.859267E+04  8.705867E+04
       253   9 -3.229638E+05 -1.244437E+06 -3.599954E+05  1.578862E+05  6.730315E+03  1.507056E+05
       253  10  8.538139E+04 -3.066330E+05  6.187402E+03  1.140849E+05  5.479158E-10 -3.138738E-10
       253  11  1.269442E+05 -1.253201E+05  1.166830E+04  2.672479E+04 -6.252040E-10  5.382857E-10
       253  12 -1.153705E+04  5.919007E+03 -5.345180E+04  2.055883E+04 -3.000308E-10  4.254579E-10
       253  13  8.373436E+03 -6.193504E+05 -6.572578E+04  8.916583E+04 -2.125012E-10 -1.936167E-11
       253  14  1.168410E+04 -5.932686E+05 -9.667541E+04  4.860804E+04  3.894527E-11  6.011795E-10
       253  15 -1.672479E+05 -6.194544E+05 -2.067320E+05  8.925681E+04 -3.502235E-10  4.730292E-10
       253  16 -6.863903E+04 -9.319759E+05 -1.376451E+05  6.425938E+04  1.971555E-10  5.717458E-10
       253  17 -1.035896E+05 -1.061014E+06 -2.050335E+05  7.047463E+04 -3.935515E-10  1.476895E-10
       253  18 -3.229699E+05 -1.244461E+06 -3.600382E+05  1.578854E+05 -9.399095E-11 -2.031000E-10
       253  19  8.538208E+04 -3.066309E+05  6.191203E+03  1.140854E+05 -1.351491E+04 -4.289005E+04
       253  20  1.269464E+05 -1.253127E+05  1.168165E+04  2.672602E+04 -1.858162E+04 -8.220518E+04
       253  21 -1.153303E+04  5.934883E+03 -5.342396E+04  2.055949E+04 -6.685440E+03 -1.215398E+05
       253  22  8.373927E+03 -6.193491E+05 -6.572337E+04  8.916619E+04 -1.350523E+04 -3.314426E+04
       253  23  1.168640E+04 -5.932608E+05 -9.666129E+04  4.860931E+04 -1.858706E+04 -8.463284E+04
       253  24 -1.672428E+05 -6.194345E+05 -2.066970E+05  8.925754E+04 -6.706254E+03 -1.361301E+05
       253  25 -6.863869E+04 -9.319752E+05 -1.376437E+05  6.425963E+04 -1.349632E+04 -2.340335E+04
       253  26 -1.035872E+05 -1.061005E+06 -2.050186E+05  7.047594E+04 -1.859267E+04 -8.705867E+04
       253  27 -3.229638E+05 -1.244437E+06 -3.599954E+05  1.578862E+05 -6.730315E+03 -1.507056E+05
       254   1  9.155238E+05  6.947324E+05  2.084264E+05  6.283756E+05  1.107655E+05  8.259784E+04
       254   2  8.775432E+05  5.259172E+05  9.600444E+04  6.846651E+05  7.224282E+04  5.284615E+04
       254   3  9.325093E+05  4.912517E+05  5.938095E+04  6.812497E+05  3.320883E+04  2.377590E+04
       254   4  9.562681E+05  6.137599E+05  2.005546E+05  5.979841E+05  1.101295E+05  8.210251E+04
       254   5  8.789555E+05  4.917173E+05  8.992772E+04  6.691244E+05  7.208929E+04  5.272720E+04
       254   6  8.944838E+05  5.037139E+05  5.467714E+04  6.805600E+05  3.354150E+04  2.402725E+04
       254   7  9.970218E+05  5.328052E+05  1.926850E+05  5.675905E+05  1.094934E+05  8.160734E+04
       254   8  8.803686E+05  4.575198E+05  8.385119E+04  6.535839E+05  7.193576E+04  5.260827E+04
       254   9  8.564606E+05  5.161773E+05  4.997356E+04  6.798698E+05  3.387414E+04  2.427861E+04
       254  10  9.155089E+05  6.947218E+05  2.083907E+05  6.283682E+05  1.541174E-10  3.802601E-11
       254  11  8.775369E+05  5.259128E+05  9.598942E+04  6.846620E+05  3.129433E-10  6.243282E-11
       254  12  9.325080E+05  4.912508E+05  5.937782E+04  6.812490E+05  8.938885E-10 -1.631089E-11
       254  13  9.562533E+05  6.137494E+05  2.005192E+05  5.979768E+05 -1.665087E-10 -4.379002E-11
       254  14  8.789492E+05  4.917129E+05  8.991277E+04  6.691214E+05  3.806454E-10 -1.521890E-10
       254  15  8.944824E+05  5.037129E+05  5.467394E+04  6.805593E+05 -3.483583E-10 -1.861366E-10
       254  16  9.970072E+05  5.327948E+05  1.926500E+05  5.675833E+05  1.699410E-10 -2.202076E-10
       254  17  8.803623E+05  4.575154E+05  8.383629E+04  6.535809E+05  7.152695E-10 -3.357461E-10
       254  18  8.564592E+05  5.161764E+05  4.997031E+04  6.798691E+05 -7.871417E-10 -1.526308E-10
       254  19  9.155238E+05  6.947324E+05  2.084264E+05  6.283756E+05 -1.107655E+05 -8.259784E+04
       254  20  8.775432E+05  5.259172E+05  9.600444E+04  6.846651E+05 -7.224282E+04 -5.284615E+04
       254  21  9.325093E+05  4.912517E+05  5.938095E+04  6.812497E+05 -3.320883E+04 -2.377590E+04
       254  22  9.562681E+05  6.137599E+05  2.005546E+05  5.979841E+05 -1.101295E+05 -8.210251E+04
       254  23  8.789555E+05  4.917173E+05  8.992772E+04  6.691244E+05 -7.208929E+04 -5.272720E+04
       254  24  8.944838E+05  5.037139E+05  5.467714E+04  6.805600E+05 -3.354150E+04 -2.402725E+04
       254  25  9.970218E+05  5.328052E+05  1.926850E+05  5.675905E+05 -1.094934E+05 -8.160734E+04
       254  26  8.803686E+05  4.575198E+05  8.385119E+04  6.535839E+05 -7.193576E+04 -5.260827E+04
       254  27  8.564606E+05  5.161773E+05  4.997356E+04  6.798698E+05 -3.387414E+04 -2.427861E+04
       255   1  9.025330E+05  5.253516E+05  4.777063E+04  6.721636E+05  2.675736E+04  1.927357E+04
       255   2  8.963987E+05  5.085880E+05  2.646878E+04  6.739237E+05  1.673882E+04  1.205845E+04
       255   3  8.954520E+05  5.052237E+05  1.658721E+04  6.724093E+05  6.695637E+03  4.876950E+03
       255   4  8.956167E+05  5.136050E+05  4.432554E+04  6.655711E+05  2.688153E+04  1.936637E+04
       255   5  8.907216E+05  5.028025E+05  2.435547E+04  6.702917E+05  1.688707E+04  1.216955E+04
       255   6  8.910090E+05  5.053940E+05  1.578501E+04  6.717378E+05  6.867924E+03  5.006138E+03
       255   7  8.887006E+05  5.018588E+05  4.088047E+04  6.589787E+05  2.700570E+04  1.945917E+04
       255   8  8.850446E+05  4.970170E+05  2.224217E+04  6.666598E+05  1.703533E+04  1.228064E+04
       255   9  8.865661E+05  5.055643E+05  1.498281E+04  6.710663E+05  7.040210E+03  5.135326E+03
       255  10  9.025321E+05  5.253510E+05  4.776859E+04  6.721632E+05  6.532323E-10  3.321236E-10
       255  11  8.963983E+05  5.085878E+05  2.646798E+04  6.739235E+05 -2.381140E-09 -1.461576E-09
       255  12  8.954519E+05  5.052237E+05  1.658708E+04  6.724092E+05 -2.686579E-09 -1.350145E-09
       255  13  8.956158E+05  5.136045E+05  4.432348E+04  6.655707E+05 -1.710077E-09 -7.444081E-10
       255  14  8.907212E+05  5.028023E+05  2.435466E+04  6.702915E+05 -2.822118E-09 -1.604190E-09
       255  15  8.910090E+05  5.053939E+05  1.578488E+04  6.717378E+05 -5.711561E-10 -4.377804E-10
       255  16  8.886997E+05  5.018582E+05  4.087839E+04  6.589783E+05 -2.799803E-09 -1.741709E-09
       255  17  8.850442E+05  4.970168E+05  2.224134E+04  6.666596E+05 -3.113815E-09 -1.749499E-09
       255  18  8.865660E+05  5.055642E+05  1.498267E+04  6.710663E+05  6.071207E-10  3.549383E-10
       255  19  9.025330E+05  5.253516E+05  4.777063E+04  6.721636E+05 -2.675736E+04 -1.927357E+04
       255  20  8.963987E+05  5.085880E+05  2.646878E+04  6.739237E+05 -1.673882E+04 -1.205845E+04
       255  21  8.954520E+05  5.052237E+05  1.658721E+04  6.724093E+05 -6.695637E+03 -4.876950E+03
       255  22  8.956167E+05  5.136050E+05  4.432554E+04  6.655711E+05 -2.688153E+04 -1.936637E+04
       255  23  8.907216E+05  5.028025E+05  2.435547E+04  6.702917E+05 -1.688707E+04 -1.216955E+04
       255  24  8.910090E+05  5.053940E+05  1.578501E+04  6.717378E+05 -6.867924E+03 -5.006138E+03
       255  25  8.887006E+05  5.018588E+05  4.088047E+04  6.589787E+05 -2.700570E+04 -1.945917E+04
       255  26  8.850446E+05  4.970170E+05  2.224217E+04  6.666598E+05 -1.703533E+04 -1.228064E+04
       255  27  8.865661E+05  5.055643E+05  1.498281E+04  6.710663E+05 -7.040210E+03 -5.135326E+03
       256   1  8.892057E+05  5.052066E+05  1.297516E+04  6.699547E+05  4.532680E+03  3.468805E+03
       256   2  8.859615E+05  4.996292E+05  9.389506E+03  6.675643E+05 -9.405925E+01  3.520438E+02
       256   3  8.813254E+05  4.986731E+05  9.926336E+03  6.656462E+05 -4.720500E+03 -2.765092E+03
       256   4  8.909983E+05  5.060262E+05  1.347143E+04  6.706341E+05  4.695231E+03  3.590658E+03
       256   5  8.916841E+05  5.036974E+05  1.119307E+04  6.704116E+05  6.816624E+01  4.736547E+02
       256   6  8.909780E+05  5.059899E+05  1.303745E+04  6.706614E+05 -4.558604E+03 -2.643733E+03
       256   7  8.927910E+05  5.068459E+05  1.396771E+04  6.713135E+05  4.857785E+03  3.712512E+03
       256   8  8.974067E+05  5.077657E+05  1.299663E+04  6.732590E+05  2.303938E+02  5.952672E+02
       256   9  9.006306E+05  5.133068E+05  1.614853E+04  6.756767E+05 -4.396706E+03 -2.522372E+03
       256  10  8.892057E+05  5.052066E+05  1.297510E+04  6.699547E+05  2.360079E-10  5.009876E-10
       256  11  8.859615E+05  4.996292E+05  9.389506E+03  6.675643E+05  2.977177E-10 -1.793144E-10
       256  12  8.813254E+05  4.986731E+05  9.926280E+03  6.656462E+05 -2.007845E-10 -9.776801E-11
       256  13  8.909983E+05  5.060262E+05  1.347137E+04  6.706341E+05  7.981864E-10  2.822677E-10
       256  14  8.916841E+05  5.036974E+05  1.119307E+04  6.704116E+05  3.075467E-10 -1.996491E-10
       256  15  8.909780E+05  5.059899E+05  1.303740E+04  6.706614E+05 -4.992502E-11  2.666915E-11
       256  16  8.927909E+05  5.068458E+05  1.396764E+04  6.713135E+05 -1.808745E-10 -1.202625E-10
       256  17  8.974067E+05  5.077657E+05  1.299662E+04  6.732590E+05  9.508558E-10  1.272046E-10
       256  18  9.006306E+05  5.133068E+05  1.614848E+04  6.756767E+05  8.082758E-11  3.924369E-10
       256  19  8.892057E+05  5.052066E+05  1.297516E+04  6.699547E+05 -4.532680E+03 -3.468805E+03
       256  20  8.859615E+05  4.996292E+05  9.389506E+03  6.675643E+05  9.405925E+01 -3.520438E+02
       256  21  8.813254E+05  4.986731E+05  9.926336E+03  6.656462E+05  4.720500E+03  2.765092E+03
       256  22  8.909983E+05  5.060262E+05  1.347143E+04  6.706341E+05 -4.695231E+03 -3.590658E+03
       256  23  8.916841E+05  5.036974E+05  1.119307E+04  6.704116E+05 -6.816624E+01 -4.736547E+02
       256  24  8.909780E+05  5.059899E+05  1.303745E+04  6.706614E+05  4.558604E+03  2.643733E+03
       256  25  8.927910E+05  5.068459E+05  1.396771E+04  6.713135E+05 -4.857785E+03 -3.712512E+03
       256  26  8.974067E+05  5.077657E+05  1.299663E+04  6.732590E+05 -2.303938E+02 -5.952672E+02
       256  27  9.006306E+05  5.133068E+05  1.614853E+04  6.756767E+05  4.396706E+03  2.522372E+03
       257   1  8.751894E+05  4.973088E+05  1.069830E+04  6.652765E+05 -6.832755E+03 -4.131614E+03
       257   2  8.735582E+05  4.889702E+05  1.728304E+04  6.609655E+05 -1.627581E+04 -1.086381E+04
       257   3  8.765898E+05  4.934071E+05  3.459085E+04  6.536440E+05 -2.568306E+04 -1.764396E+04
       257   4  8.909780E+05  5.054054E+05  1.511278E+04  6.716860E+05 -6.655660E+03 -3.998830E+03
       257   5  8.908033E+05  5.028642E+05  2.302179E+04  6.702999E+05 -1.613358E+04 -1.075724E+04
       257   6  8.952987E+05  5.131057E+05  4.168376E+04  6.659031E+05 -2.557575E+04 -1.756377E+04
       257   7  9.067669E+05  5.135022E+05  1.952724E+04  6.780957E+05 -6.478558E+03 -3.866044E+03
       257   8  9.080488E+05  5.167584E+05  2.876053E+04  6.796346E+05 -1.599135E+04 -1.065066E+04
       257   9  9.140081E+05  5.328049E+05  4.877668E+04  6.781629E+05 -2.546844E+04 -1.748358E+04
       257  10  8.751893E+05  4.973087E+05  1.069818E+04  6.652764E+05  1.641663E-10  3.770926E-10
       257  11  8.735579E+05  4.889700E+05  1.728232E+04  6.609654E+05  6.950557E-10  1.934537E-10
       257  12  8.765890E+05  4.934066E+05  3.458903E+04  6.536436E+05  9.226715E-10  1.643367E-10
       257  13  8.909779E+05  5.054054E+05  1.511267E+04  6.716860E+05 -1.221616E-09  4.936156E-11
       257  14  8.908030E+05  5.028640E+05  2.302109E+04  6.702997E+05 -2.123101E-10  6.594705E-11
       257  15  8.952979E+05  5.131052E+05  4.168195E+04  6.659028E+05  8.637781E-10 -9.773103E-11
       257  16  9.067668E+05  5.135021E+05  1.952714E+04  6.780957E+05 -2.046457E-10  1.877377E-10
       257  17  9.080485E+05  5.167582E+05  2.875984E+04  6.796344E+05 -2.246637E-10  1.151057E-10
       257  18  9.140073E+05  5.328044E+05  4.877489E+04  6.781625E+05 -4.727337E-10 -2.313113E-10
       257  19  8.751894E+05  4.973088E+05  1.069830E+04  6.652765E+05  6.832755E+03  4.131614E+03
       257  20  8.735582E+05  4.889702E+05  1.728304E+04  6.609655E+05  1.627581E+04  1.086381E+04
       257  21  8.765898E+05  4.934071E+05  3.459085E+04  6.536440E+05  2.568306E+04  1.764396E+04
       257  22  8.909780E+05  5.054054E+05  1.511278E+04  6.716860E+05  6.655660E+03  3.998830E+03
       257  23  8.908033E+05  5.028642E+05  2.302179E+04  6.702999E+05  1.613358E+04  1.075724E+04
       257  24  8.952987E+05  5.131057E+05  4.168376E+04  6.659031E+05  2.557575E+04  1.756377E+04
       257  25  9.067669E+05  5.135022E+05  1.952724E+04  6.780957E+05  6.478558E+03  3.866044E+03
       257  26  9.080488E+05  5.167584E+05  2.876053E+04  6.796346E+05  1.599135E+04  1.065066E+04
       257  27  9.140081E+05  5.328049E+05  4.877668E+04  6.781629E+05  2.546844E+04  1.748358E+04
       258   1  8.460289E+05  5.066287E+05  4.302193E+04  6.730915E+05 -3.228838E+04 -2.220533E+04
       258   2  8.682418E+05  4.512520E+05  7.463854E+04  6.482365E+05 -6.773026E+04 -4.863944E+04
       258   3  9.772002E+05  5.217209E+05  1.763738E+05  5.674255E+05 -1.024334E+05 -7.605644E+04
       258   4  8.942321E+05  5.038268E+05  5.137089E+04  6.799662E+05 -3.187528E+04 -2.189391E+04
       258   5  8.797696E+05  4.924614E+05  8.440787E+04  6.692041E+05 -6.802988E+04 -4.886740E+04
       258   6  9.521968E+05  6.070857E+05  1.881787E+05  6.024888E+05 -1.034426E+05 -7.682900E+04
       258   7  9.424383E+05  5.010257E+05  5.971996E+04  6.868407E+05 -3.146213E+04 -2.158250E+04
       258   8  8.912981E+05  5.336737E+05  9.417726E+04  6.901725E+05 -6.832951E+04 -4.909540E+04
       258   9  9.272007E+05  6.924683E+05  1.999856E+05  6.375517E+05 -1.044518E+05 -7.760183E+04
       258  10  8.460276E+05  5.066279E+05  4.301905E+04  6.730909E+05  2.428230E-10 -1.120801E-10
       258  11  8.682362E+05  4.512482E+05  7.462550E+04  6.482339E+05 -9.766960E-11 -1.998740E-10
       258  12  9.771874E+05  5.217119E+05  1.763433E+05  5.674192E+05 -1.035880E-10 -1.763689E-10
       258  13  8.942308E+05  5.038261E+05  5.136808E+04  6.799656E+05 -9.170015E-11 -1.381948E-10
       258  14  8.797640E+05  4.924576E+05  8.439472E+04  6.692014E+05 -6.998039E-10 -2.894752E-10
       258  15  9.521837E+05  6.070765E+05  1.881476E+05  6.024825E+05  3.204073E-11 -8.798302E-11
       258  16  9.424371E+05  5.010249E+05  5.971723E+04  6.868401E+05 -1.877054E-10 -1.585385E-10
       258  17  8.912925E+05  5.336698E+05  9.416399E+04  6.901698E+05 -4.425533E-10 -1.354345E-10
       258  18  9.271874E+05  6.924589E+05  1.999538E+05  6.375451E+05 -2.650398E-10 -9.834051E-11
       258  19  8.460289E+05  5.066287E+05  4.302193E+04  6.730915E+05  3.228838E+04  2.220533E+04
       258  20  8.682418E+05  4.512520E+05  7.463854E+04  6.482365E+05  6.773026E+04  4.863944E+04
       258  21  9.772002E+05  5.217209E+05  1.763738E+05  5.674255E+05  1.024334E+05  7.605644E+04
       258  22  8.942321E+05  5.038268E+05  5.137089E+04  6.799662E+05  3.187528E+04  2.189391E+04
       258  23  8.797696E+05  4.924614E+05  8.440787E+04  6.692041E+05  6.802988E+04  4.886740E+04
       258  24  9.521968E+05  6.070857E+05  1.881787E+05  6.024888E+05  1.034426E+05  7.682900E+04
       258  25  9.424383E+05  5.010257E+05  5.971996E+04  6.868407E+05  3.146213E+04  2.158250E+04
       258  26  8.912981E+05  5.336737E+05  9.417726E+04  6.901725E+05  6.832951E+04  4.909540E+04
       258  27  9.272007E+05  6.924683E+05  1.999856E+05  6.375517E+05  1.044518E+05  7.760183E+04
       259   1  7.516484E+05  7.820546E+04  8.377170E+04  3.006196E+04  2.827031E+04 -2.307058E+03
       259   2  7.142553E+05  3.989394E+04  5.475337E+04  1.387359E+04  1.618555E+04 -6.803141E+03
       259   3  6.861265E+05  3.227784E+04  4.127297E+04  1.462326E+04  4.102352E+03 -6.006614E+03
       259   4  5.486076E+05  2.770293E+04  3.412962E+04  1.870114E+04  2.311746E+04 -2.306879E+03
       259   5  5.443111E+05 -1.923602E+03  1.548627E+04  1.023061E+04  1.484933E+04 -6.803258E+03
       259   6  5.486183E+05 -1.512331E+03  9.735523E+03  1.869780E+04  6.582010E+03 -6.006683E+03
       259   7  3.456047E+05 -2.280215E+04 -1.551531E+04  7.344036E+03  1.796629E+04 -2.306512E+03
       259   8  3.743936E+05 -4.374312E+04 -2.378274E+04  6.588624E+03  1.351347E+04 -6.803359E+03
       259   9  4.111277E+05 -3.530376E+04 -2.180313E+04  2.277143E+04  9.061123E+03 -6.006720E+03
       259  10  7.516476E+05  7.820524E+04  8.377019E+04  3.006201E+04 -6.486900E-11 -9.093260E-11
       259  11  7.142550E+05  3.989382E+04  5.475279E+04  1.387368E+04  3.718049E-10 -2.940852E-10
       259  12  6.861264E+05  3.227780E+04  4.127287E+04  1.462328E+04 -1.493794E-10  1.754105E-10
       259  13  5.486071E+05  2.770278E+04  3.412860E+04  1.870118E+04 -4.650304E-10  1.096995E-10
       259  14  5.443108E+05 -1.923710E+03  1.548577E+04  1.023069E+04  1.025953E-10 -1.253379E-10
       259  15  5.486182E+05 -1.512381E+03  9.735374E+03  1.869783E+04  8.626299E-10  3.171802E-11
       259  16  3.456044E+05 -2.280224E+04 -1.551593E+04  7.344070E+03 -1.649593E-10 -8.175755E-11
       259  17  3.743934E+05 -4.374322E+04 -2.378317E+04  6.588698E+03  3.062586E-11 -6.533199E-11
       259  18  4.111276E+05 -3.530382E+04 -2.180335E+04  2.277148E+04  5.215322E-10 -1.504335E-10
       259  19  7.516484E+05  7.820546E+04  8.377170E+04  3.006196E+04 -2.827031E+04  2.307058E+03
       259  20  7.142553E+05  3.989394E+04  5.475337E+04  1.387359E+04 -1.618555E+04  6.803141E+03
       259  21  6.861265E+05  3.227784E+04  4.127297E+04  1.462326E+04 -4.102352E+03  6.006614E+03
       259  22  5.486076E+05  2.770293E+04  3.412962E+04  1.870114E+04 -2.311746E+04  2.306879E+03
       259  23  5.443111E+05 -1.923602E+03  1.548627E+04  1.023061E+04 -1.484933E+04  6.803258E+03
       259  24  5.486183E+05 -1.512331E+03  9.735523E+03  1.869780E+04 -6.582010E+03  6.006683E+03
       259  25  3.456047E+05 -2.280215E+04 -1.551531E+04  7.344036E+03 -1.796629E+04  2.306512E+03
       259  26  3.743936E+05 -4.374312E+04 -2.378274E+04  6.588624E+03 -1.351347E+04  6.803359E+03
       259  27  4.111277E+05 -3.530376E+04 -2.180313E+04  2.277143E+04 -9.061123E+03  6.006720E+03
       260   1  6.531287E+05  2.817392E+04  3.258300E+04  1.947695E+04  4.260459E+03 -4.448716E+03
       260   2  6.200727E+05  1.790411E+04  2.213911E+04  1.039578E+04  1.450531E+03 -3.146274E+03
       260   3  5.880265E+05  1.020204E+04  1.416533E+04  1.835485E+04 -1.359469E+03 -1.593354E+03
       260   4  5.469240E+05  2.057695E+03  8.135218E+03  1.872143E+04  5.108234E+03 -4.448750E+03
       260   5  5.464360E+05 -1.981012E+02  5.216861E+03  1.020129E+04  2.479158E+03 -3.146246E+03
       260   6  5.469261E+05  8.288440E+01  4.643593E+03  1.872150E+04 -1.501309E+02 -1.593253E+03
       260   7  4.407298E+05 -2.405932E+04 -1.631331E+04  1.796603E+04  5.955864E+03 -4.448786E+03
       260   8  4.728043E+05 -1.830069E+04 -1.170575E+04  1.000683E+04  3.507665E+03 -3.146219E+03
       260   9  5.058272E+05 -1.003639E+04 -4.878253E+03  1.908812E+04  1.059128E+03 -1.593150E+03
       260  10  6.531287E+05  2.817390E+04  3.258293E+04  1.947696E+04 -2.234974E-10  4.108680E-10
       260  11  6.200727E+05  1.790409E+04  2.213909E+04  1.039579E+04 -5.473115E-11  3.630849E-10
       260  12  5.880265E+05  1.020203E+04  1.416532E+04  1.835485E+04 -7.936497E-10  2.750845E-10
       260  13  5.469240E+05  2.057667E+03  8.135132E+03  1.872144E+04 -3.011827E-11  2.821803E-10
       260  14  5.464360E+05 -1.981135E+02  5.216831E+03  1.020130E+04  1.635489E-09  4.477823E-10
       260  15  5.469261E+05  8.288167E+01  4.643588E+03  1.872150E+04 -2.683140E-10  1.285035E-10
       260  16  4.407297E+05 -2.405935E+04 -1.631341E+04  1.796606E+04  4.061863E-10  1.359489E-11
       260  17  4.728043E+05 -1.830070E+04 -1.170579E+04  1.000684E+04  6.441936E-10  4.981572E-10
       260  18  5.058272E+05 -1.003639E+04 -4.878260E+03  1.908812E+04  1.707854E-09  1.295183E-10
       260  19  6.531287E+05  2.817392E+04  3.258300E+04  1.947695E+04 -4.260459E+03  4.448716E+03
       260  20  6.200727E+05  1.790411E+04  2.213911E+04  1.039578E+04 -1.450531E+03  3.146274E+03
       260  21  5.880265E+05  1.020204E+04  1.416533E+04  1.835485E+04  1.359469E+03  1.593354E+03
       260  22  5.469240E+05  2.057695E+03  8.135218E+03  1.872143E+04 -5.108234E+03  4.448750E+03
       260  23  5.464360E+05 -1.981012E+02  5.216861E+03  1.020129E+04 -2.479158E+03  3.146246E+03
       260  24  5.469261E+05  8.288440E+01  4.643593E+03  1.872150E+04  1.501309E+02  1.593253E+03
       260  25  4.407298E+05 -2.405932E+04 -1.631331E+04  1.796603E+04 -5.955864E+03  4.448786E+03
       260  26  4.728043E+05 -1.830069E+04 -1.170575E+04  1.000683E+04 -3.507665E+03  3.146219E+03
       260  27  5.058272E+05 -1.003639E+04 -4.878253E+03  1.908812E+04 -1.059128E+03  1.593150E+03
       261   1  5.569485E+05  2.422247E+03  7.034248E+03  1.920864E+04 -2.173711E+03 -6.059095E+02
       261   2  5.238276E+05 -5.792560E+03  1.073497E+03  9.954884E+03 -5.198064E+03  9.519471E+02
       261   3  4.919154E+05 -1.074246E+04 -2.103819E+03  1.772563E+04 -8.222207E+03  2.322830E+03
       261   4  5.469827E+05 -1.100054E+01  4.828232E+03  1.871799E+04 -9.837945E+02 -6.057935E+02
       261   5  5.463664E+05 -2.504559E+02  6.258392E+03  1.020568E+04 -4.142977E+03  9.520274E+02
       261   6  5.469811E+05  2.798350E+03  1.056547E+04  1.871779E+04 -7.302105E+03  2.322874E+03
       261   7  5.370169E+05 -2.444253E+03  2.622216E+03  1.822736E+04  2.061030E+02 -6.056793E+02
       261   8  5.689057E+05  5.291614E+03  1.144326E+04  1.045648E+04 -3.087852E+03  9.521085E+02
       261   9  6.020495E+05  1.633896E+04  2.323457E+04  1.971003E+04 -6.381922E+03  2.322921E+03
       261  10  5.569485E+05  2.422245E+03  7.034238E+03  1.920864E+04 -6.653750E-09 -2.439528E-10
       261  11  5.238276E+05 -5.792568E+03  1.073445E+03  9.954888E+03  3.736930E-11 -1.037090E-09
       261  12  4.919153E+05 -1.074249E+04 -2.103956E+03  1.772565E+04  7.473285E-09 -3.341318E-10
       261  13  5.469827E+05 -1.100120E+01  4.828230E+03  1.871799E+04  5.215833E-10 -4.397094E-10
       261  14  5.463664E+05 -2.504615E+02  6.258358E+03  1.020568E+04 -5.075415E-11 -1.036598E-09
       261  15  5.469810E+05  2.798330E+03  1.056536E+04  1.871780E+04 -3.329021E-10 -2.632590E-10
       261  16  5.370169E+05 -2.444253E+03  2.622215E+03  1.822736E+04  7.513132E-09 -5.424271E-10
       261  17  5.689057E+05  5.291610E+03  1.144324E+04  1.045648E+04 -2.470353E-10 -1.028071E-09
       261  18  6.020494E+05  1.633894E+04  2.323448E+04  1.971004E+04 -6.838889E-09 -1.545335E-10
       261  19  5.569485E+05  2.422247E+03  7.034248E+03  1.920864E+04  2.173711E+03  6.059095E+02
       261  20  5.238276E+05 -5.792560E+03  1.073497E+03  9.954884E+03  5.198064E+03 -9.519471E+02
       261  21  4.919154E+05 -1.074246E+04 -2.103819E+03  1.772563E+04  8.222207E+03 -2.322830E+03
       261  22  5.469827E+05 -1.100054E+01  4.828232E+03  1.871799E+04  9.837945E+02  6.057935E+02
       261  23  5.463664E+05 -2.504559E+02  6.258392E+03  1.020568E+04  4.142977E+03 -9.520274E+02
       261  24  5.469811E+05  2.798350E+03  1.056547E+04  1.871779E+04  7.302105E+03 -2.322874E+03
       261  25  5.370169E+05 -2.444253E+03  2.622216E+03  1.822736E+04 -2.061030E+02  6.056793E+02
       261  26  5.689057E+05  5.291614E+03  1.144326E+04  1.045648E+04  3.087852E+03 -9.521085E+02
       261  27  6.020495E+05  1.633896E+04  2.323457E+04  1.971003E+04  6.381922E+03 -2.322921E+03
       262   1  4.630090E+05 -2.325710E+04 -6.956733E+03  2.421700E+04 -1.139264E+04  3.732787E+03
       262   2  4.248018E+05 -3.180507E+04 -6.624911E+03  5.293305E+03 -1.959439E+04  4.716606E+03
       262   3  3.977105E+05 -1.975248E+02  9.085406E+03  3.303510E+03 -2.779563E+04  1.653868E+03
       262   4  5.492902E+05 -2.049703E+03  1.285107E+04  1.869742E+04 -9.227245E+03  3.732982E+03
       262   5  5.434752E+05 -2.594730E+03  2.081646E+04  1.023132E+04 -2.034609E+04  4.716385E+03
       262   6  5.492777E+05  3.751710E+04  4.618231E+04  1.869834E+04 -3.146486E+04  1.653298E+03
       262   7  6.355783E+05  1.915730E+04  3.265841E+04  1.317706E+04 -7.061557E+03  3.733140E+03
       262   8  6.621617E+05  2.661472E+04  4.825691E+04  1.517028E+04 -2.109793E+04  4.716153E+03
       262   9  7.008664E+05  7.523092E+04  8.327772E+04  3.409694E+04 -3.513498E+04  1.652547E+03
       262  10  4.630089E+05 -2.325715E+04 -6.957003E+03  2.421704E+04  1.365098E-09  2.886723E-10
       262  11  4.248014E+05 -3.180520E+04 -6.625674E+03  5.293379E+03  5.688566E-10  3.877992E-10
       262  12  3.977096E+05 -1.977350E+02  9.083950E+03  3.303547E+03  5.920121E-10  1.106667E-10
       262  13  5.492901E+05 -2.049740E+03  1.285088E+04  1.869745E+04  6.954866E-10  3.037886E-10
       262  14  5.434748E+05 -2.594865E+03  2.081564E+04  1.023139E+04  5.451586E-10  4.342742E-10
       262  15  5.492767E+05  3.751683E+04  4.618045E+04  1.869839E+04 -6.610958E-10  1.577303E-10
       262  16  6.355783E+05  1.915727E+04  3.265829E+04  1.317708E+04 -1.448190E-09  3.614492E-10
       262  17  6.621612E+05  2.661457E+04  4.825603E+04  1.517036E+04 -8.509420E-10  4.074619E-10
       262  18  7.008651E+05  7.523059E+04  8.327540E+04  3.409699E+04  3.120880E-10  1.025888E-10
       262  19  4.630090E+05 -2.325710E+04 -6.956733E+03  2.421700E+04  1.139264E+04 -3.732787E+03
       262  20  4.248018E+05 -3.180507E+04 -6.624911E+03  5.293305E+03  1.959439E+04 -4.716606E+03
       262  21  3.977105E+05 -1.975248E+02  9.085406E+03  3.303510E+03  2.779563E+04 -1.653868E+03
       262  22  5.492902E+05 -2.049703E+03  1.285107E+04  1.869742E+04  9.227245E+03 -3.732982E+03
       262  23  5.434752E+05 -2.594730E+03  2.081646E+04  1.023132E+04  2.034609E+04 -4.716385E+03
       262  24  5.492777E+05  3.751710E+04  4.618231E+04  1.869834E+04  3.146486E+04 -1.653298E+03
       262  25  6.355783E+05  1.915730E+04  3.265841E+04  1.317706E+04  7.061557E+03 -3.733140E+03
       262  26  6.621617E+05  2.661472E+04  4.825691E+04  1.517028E+04  2.109793E+04 -4.716153E+03
       262  27  7.008664E+05  7.523092E+04  8.327772E+04  3.409694E+04  3.513498E+04 -1.652547E+03
       263   1 -2.425535E+05 -7.625789E+05 -2.610442E+05  1.208582E+05 -6.673423E+03 -8.619757E+04
       263   2 -1.096768E+05 -6.000150E+05 -1.603439E+05  5.772689E+04 -1.868138E+04 -4.679622E+04
       263   3 -7.525196E+04 -4.671583E+05 -1.099264E+05  7.132063E+04 -1.398713E+04 -7.392329E+03
       263   4 -8.837265E+04 -1.435707E+05 -1.093207E+05  8.462196E+04 -6.661868E+03 -7.157991E+04
       263   5  6.176421E+03 -1.297412E+05 -5.146918E+04  4.623604E+04 -1.867799E+04 -4.416887E+04
       263   6  4.398704E+03 -1.435293E+05 -3.553790E+04  8.457855E+04 -1.399438E+04 -1.676529E+04
       263   7  6.578486E+04  4.757901E+05  4.237630E+04  4.834945E+04 -6.652029E+03 -5.694766E+04
       263   8  1.220146E+05  3.407375E+05  5.739084E+04  3.473639E+04 -1.867470E+04 -4.153953E+04
       263   9  8.404275E+04  1.801973E+05  3.884409E+04  9.784341E+04 -1.400204E+04 -2.614309E+04
       263  10 -2.425555E+05 -7.625869E+05 -2.610583E+05  1.208577E+05 -2.200453E-10 -2.048292E-10
       263  11 -1.096777E+05 -6.000175E+05 -1.603487E+05  5.772618E+04  1.261526E-11  8.960510E-10
       263  12 -7.525219E+04 -4.671584E+05 -1.099269E+05  7.132055E+04  4.995757E-10 -4.013677E-11
       263  13 -8.837408E+04 -1.435762E+05 -1.093304E+05  8.462157E+04 -6.373978E-10 -5.869541E-12
       263  14  6.175522E+03 -1.297434E+05 -5.147350E+04  4.623538E+04  8.911290E-10  1.165838E-11
       263  15  4.398418E+03 -1.435297E+05 -3.553880E+04  8.457836E+04  1.350407E-10 -1.440453E-10
       263  16  6.578395E+04  4.757866E+05  4.237013E+04  4.834914E+04 -3.601832E-10  1.505018E-10
       263  17  1.220137E+05  3.407355E+05  5.738694E+04  3.473576E+04 -8.147214E-10 -3.455194E-10
       263  18  8.404236E+04  1.801965E+05  3.884243E+04  9.784312E+04  3.318560E-10  5.105875E-11
       263  19 -2.425535E+05 -7.625789E+05 -2.610442E+05  1.208582E+05  6.673423E+03  8.619757E+04
       263  20 -1.096768E+05 -6.000150E+05 -1.603439E+05  5.772689E+04  1.868138E+04  4.679622E+04
       263  21 -7.525196E+04 -4.671583E+05 -1.099264E+05  7.132063E+04  1.398713E+04  7.392329E+03
       263  22 -8.837265E+04 -1.435707E+05 -1.093207E+05  8.462196E+04  6.661868E+03  7.157991E+04
       263  23  6.176421E+03 -1.297412E+05 -5.146918E+04  4.623604E+04  1.867799E+04  4.416887E+04
       263  24  4.398704E+03 -1.435293E+05 -3.553790E+04  8.457855E+04  1.399438E+04  1.676529E+04
       263  25  6.578486E+04  4.757901E+05  4.237630E+04  4.834945E+04  6.652029E+03  5.694766E+04
       263  26  1.220146E+05  3.407375E+05  5.739084E+04  3.473639E+04  1.867470E+04  4.153953E+04
       263  27  8.404275E+04  1.801973E+05  3.884409E+04  9.784341E+04  1.400204E+04  2.614309E+04
       264   1 -5.082264E+04 -3.207019E+05 -7.384412E+04  8.823704E+04 -7.697881E+03 -6.717469E+03
       264   2 -7.164704E+03 -1.700724E+05 -3.509342E+04  4.592613E+04 -1.466588E+03  7.100106E+03
       264   3  2.034642E+04 -2.540060E+04 -9.411791E+03  8.093770E+04  4.847853E+03  2.092045E+04
       264   4 -6.039201E+03 -1.387019E+05 -3.193823E+04  8.472510E+04 -7.701572E+03 -1.116573E+04
       264   5  1.287872E+03 -1.357168E+05 -2.719327E+04  4.606422E+04 -1.470444E+03  2.593479E+03
       264   6 -7.519692E+03 -1.386993E+05 -3.547453E+04  8.472643E+04  4.843921E+03  1.635224E+04
       264   7  3.874198E+04  4.332885E+04  9.965548E+03  8.121211E+04 -7.705212E+03 -1.561528E+04
       264   8  9.740376E+03 -1.013601E+05 -1.929312E+04  4.620231E+04 -1.474302E+03 -1.913395E+03
       264   9 -3.538664E+04 -2.519861E+05 -6.153803E+04  8.851446E+04  4.839932E+03  1.178487E+04
       264  10 -5.082271E+04 -3.207019E+05 -7.384432E+04  8.823700E+04  2.906894E-10 -6.701382E-10
       264  11 -7.164719E+03 -1.700725E+05 -3.509352E+04  4.592614E+04 -2.040605E-10  1.367905E-09
       264  12  2.034628E+04 -2.540108E+04 -9.412658E+03  8.093761E+04 -6.259490E-10 -3.764335E-10
       264  13 -6.039298E+03 -1.387020E+05 -3.193858E+04  8.472503E+04  4.442050E-11  4.960912E-13
       264  14  1.287868E+03 -1.357168E+05 -2.719329E+04  4.606422E+04  6.064556E-10  6.506522E-13
       264  15 -7.519789E+03 -1.386996E+05 -3.547508E+04  8.472636E+04 -6.475024E-11 -2.125354E-10
       264  16  3.874185E+04  4.332857E+04  9.964979E+03  8.121201E+04  1.585887E-10  4.662616E-10
       264  17  9.740373E+03 -1.013601E+05 -1.929313E+04  4.620230E+04  5.312895E-10 -4.020932E-10
       264  18 -3.538670E+04 -2.519862E+05 -6.153834E+04  8.851441E+04 -1.770737E-10  3.488437E-10
       264  19 -5.082264E+04 -3.207019E+05 -7.384412E+04  8.823704E+04  7.697881E+03  6.717469E+03
       264  20 -7.164704E+03 -1.700724E+05 -3.509342E+04  4.592613E+04  1.466588E+03 -7.100106E+03
       264  21  2.034642E+04 -2.540060E+04 -9.411791E+03  8.093770E+04 -4.847853E+03 -2.092045E+04
       264  22 -6.039201E+03 -1.387019E+05 -3.193823E+04  8.472510E+04  7.701572E+03  1.116573E+04
       264  23  1.287872E+03 -1.357168E+05 -2.719327E+04  4.606422E+04  1.470444E+03 -2.593479E+03
       264  24 -7.519692E+03 -1.386993E+05 -3.547453E+04  8.472643E+04 -4.843921E+03 -1.635224E+04
       264  25  3.874198E+04  4.332885E+04  9.965548E+03  8.121211E+04  7.705212E+03  1.561528E+04
       264  26  9.740376E+03 -1.013601E+05 -1.929312E+04  4.620231E+04  1.474302E+03  1.913395E+03
       264  27 -3.538664E+04 -2.519861E+05 -6.153803E+04  8.851446E+04 -4.839932E+03 -1.178487E+04
       265   1  6.829601E+04  1.101520E+05  1.794621E+04  1.006020E+05  1.096067E+04  3.160445E+04
       265   2  1.064259E+05  2.737130E+05  3.169249E+04  3.224941E+04  1.589030E+04  5.348892E+04
       265   3  2.982688E+04  4.057648E+05  2.513934E+03  4.070213E+04  5.792564E+03  7.538731E+04
       265   4  5.545648E+03 -1.448141E+05 -4.067883E+04  8.459244E+04  1.095249E+04  2.264620E+04
       265   5  7.487922E+03 -1.281156E+05 -6.132045E+04  4.621661E+04  1.589344E+04  5.533394E+04
       265   6 -1.072184E+05 -1.448509E+05 -1.324124E+05  8.465480E+04  5.804810E+03  8.802980E+04
       265   7 -5.720826E+04 -3.997194E+05 -9.930774E+04  6.858950E+04  1.094478E+04  1.369159E+04
       265   8 -9.146069E+04 -5.297947E+05 -1.543441E+05  6.017468E+04  1.589667E+04  5.717776E+04
       265   9 -2.442787E+05 -6.951861E+05 -2.673594E+05  1.285684E+05  5.818854E+03  1.006611E+05
       265  10  6.829562E+04  1.101509E+05  1.794411E+04  1.006017E+05  6.178070E-11 -3.908436E-10
       265  11  1.064249E+05  2.737099E+05  3.168664E+04  3.224872E+04  3.626852E-10  1.164983E-09
       265  12  2.982532E+04  4.057587E+05  2.503198E+03  4.070177E+04  2.726302E-10  2.924567E-10
       265  13  5.545381E+03 -1.448147E+05 -4.068002E+04  8.459224E+04 -5.156862E-10  3.380689E-11
       265  14  7.486829E+03 -1.281190E+05 -6.132668E+04  4.621590E+04  3.587100E-10 -5.051667E-11
       265  15 -1.072205E+05 -1.448593E+05 -1.324271E+05  8.465439E+04  2.285119E-10 -7.940309E-11
       265  16 -5.720844E+04 -3.997196E+05 -9.930831E+04  6.858938E+04  1.751645E-10  2.262817E-10
       265  17 -9.146184E+04 -5.297982E+05 -1.543507E+05  6.017395E+04 -3.544807E-10 -4.235184E-10
       265  18 -2.442815E+05 -6.951970E+05 -2.673785E+05  1.285679E+05 -1.025726E-10 -3.600309E-10
       265  19  6.829601E+04  1.101520E+05  1.794621E+04  1.006020E+05 -1.096067E+04 -3.160445E+04
       265  20  1.064259E+05  2.737130E+05  3.169249E+04  3.224941E+04 -1.589030E+04 -5.348892E+04
       265  21  2.982688E+04  4.057648E+05  2.513934E+03  4.070213E+04 -5.792564E+03 -7.538731E+04
       265  22  5.545648E+03 -1.448141E+05 -4.067883E+04  8.459244E+04 -1.095249E+04 -2.264620E+04
       265  23  7.487922E+03 -1.281156E+05 -6.132045E+04  4.621661E+04 -1.589344E+04 -5.533394E+04
       265  24 -1.072184E+05 -1.448509E+05 -1.324124E+05  8.465480E+04 -5.804810E+03 -8.802980E+04
       265  25 -5.720826E+04 -3.997194E+05 -9.930774E+04  6.858950E+04 -1.094478E+04 -1.369159E+04
       265  26 -9.146069E+04 -5.297947E+05 -1.543441E+05  6.017468E+04 -1.589667E+04 -5.717776E+04
       265  27 -2.442787E+05 -6.951861E+05 -2.673594E+05  1.285684E+05 -5.818854E+03 -1.006611E+05
       266   1  5.625755E+05  4.214402E+05  1.095690E+05  3.918016E+05  4.461854E+04  3.151496E+04
       266   2  5.348167E+05  3.369279E+05  5.948046E+04  4.008769E+05  2.980169E+04  1.678685E+04
       266   3  5.284227E+05  3.166782E+05  3.943662E+04  3.916968E+05  1.271773E+04  5.083871E+03
       266   4  4.829551E+05  3.237831E+05  7.483893E+04  3.336155E+05  4.185556E+04  2.944063E+04
       266   5  4.609707E+05  2.713567E+05  3.361901E+04  3.581458E+05  2.922019E+04  1.635021E+04
       266   6  4.598834E+05  2.827239E+05  2.055574E+04  3.644191E+05  1.431746E+04  6.283714E+03
       266   7  4.033415E+05  2.261384E+05  4.010754E+04  2.754396E+05  3.909303E+04  2.736698E+04
       266   8  3.871305E+05  2.057908E+05  7.756766E+03  3.154210E+05  2.863878E+04  1.591367E+04
       266   9  3.913497E+05  2.487709E+05  1.674621E+03  3.371444E+05  1.591694E+04  7.483437E+03
       266  10  5.625731E+05  4.214386E+05  1.095634E+05  3.918005E+05  2.698111E-10 -8.782880E-11
       266  11  5.348157E+05  3.369274E+05  5.947827E+04  4.008765E+05  3.990697E-10 -3.308493E-10
       266  12  5.284226E+05  3.166782E+05  3.943626E+04  3.916967E+05  1.448322E-12  1.712469E-12
       266  13  4.829530E+05  3.237817E+05  7.483402E+04  3.336145E+05 -5.849682E-11 -4.192277E-11
       266  14  4.609697E+05  2.713562E+05  3.361691E+04  3.581454E+05  2.096454E-10  1.545239E-11
       266  15  4.598831E+05  2.827238E+05  2.055528E+04  3.644190E+05 -3.220696E-11  1.749343E-10
       266  16  4.033396E+05  2.261372E+05  4.010327E+04  2.754388E+05  1.040278E-10  9.770640E-11
       266  17  3.871296E+05  2.057903E+05  7.754751E+03  3.154206E+05 -1.711457E-10  2.391913E-10
       266  18  3.913494E+05  2.487707E+05  1.674040E+03  3.371443E+05 -3.060659E-10  3.553597E-10
       266  19  5.625755E+05  4.214402E+05  1.095690E+05  3.918016E+05 -4.461854E+04 -3.151496E+04
       266  20  5.348167E+05  3.369279E+05  5.948046E+04  4.008769E+05 -2.980169E+04 -1.678685E+04
       266  21  5.284227E+05  3.166782E+05  3.943662E+04  3.916968E+05 -1.271773E+04 -5.083871E+03
       266  22  4.829551E+05  3.237831E+05  7.483893E+04  3.336155E+05 -4.185556E+04 -2.944063E+04
       266  23  4.609707E+05  2.713567E+05  3.361901E+04  3.581458E+05 -2.922019E+04 -1.635021E+04
       266  24  4.598834E+05  2.827239E+05  2.055574E+04  3.644191E+05 -1.431746E+04 -6.283714E+03
       266  25  4.033415E+05  2.261384E+05  4.010754E+04  2.754396E+05 -3.909303E+04 -2.736698E+04
       266  26  3.871305E+05  2.057908E+05  7.756766E+03  3.154210E+05 -2.863878E+04 -1.591367E+04
       266  27  3.913497E+05  2.487709E+05  1.674621E+03  3.371444E+05 -1.591694E+04 -7.483437E+03
       267   1  4.979635E+05  3.157424E+05  2.911910E+04  3.787324E+05  1.042292E+04  4.983823E+03
       267   2  4.825084E+05  2.883133E+05  1.500922E+04  3.673944E+05  5.737378E+03  3.030644E+03
       267   3  4.552020E+05  2.797698E+05  5.378387E+03  3.588766E+05  9.405981E+02  1.226046E+03
       267   4  4.602972E+05  2.864315E+05  1.675284E+04  3.588337E+05  1.108887E+04  5.483188E+03
       267   5  4.653764E+05  2.754731E+05  9.476810E+03  3.585702E+05  6.510629E+03  3.610523E+03
       267   6  4.585809E+05  2.833771E+05  6.587262E+03  3.611266E+05  1.820953E+03  1.886287E+03
       267   7  4.226324E+05  2.571216E+05  4.386381E+03  3.389364E+05  1.175477E+04  5.982506E+03
       267   8  4.482446E+05  2.626330E+05  3.944339E+03  3.497463E+05  7.283853E+03  4.190382E+03
       267   9  4.619598E+05  2.869845E+05  7.796151E+03  3.633767E+05  2.701322E+03  2.546540E+03
       267  10  4.979634E+05  3.157424E+05  2.911885E+04  3.787324E+05  1.379101E-10  4.363001E-10
       267  11  4.825084E+05  2.883133E+05  1.500914E+04  3.673944E+05  5.743776E-10  1.075466E-10
       267  12  4.552020E+05  2.797698E+05  5.378382E+03  3.588766E+05  6.042282E-10  3.558142E-11
       267  13  4.602971E+05  2.864314E+05  1.675255E+04  3.588337E+05  6.278940E-10  1.840178E-10
       267  14  4.653764E+05  2.754730E+05  9.476706E+03  3.585702E+05  1.024335E-09  1.504523E-10
       267  15  4.585809E+05  2.833771E+05  6.587249E+03  3.611266E+05 -3.656420E-10 -1.289377E-10
       267  16  4.226323E+05  2.571215E+05  4.386054E+03  3.389363E+05  2.068084E-10 -3.927798E-11
       267  17  4.482446E+05  2.626329E+05  3.944206E+03  3.497462E+05  3.221147E-10 -2.332844E-10
       267  18  4.619598E+05  2.869845E+05  7.796125E+03  3.633767E+05 -1.829919E-10 -2.121347E-10
       267  19  4.979635E+05  3.157424E+05  2.911910E+04  3.787324E+05 -1.042292E+04 -4.983823E+03
       267  20  4.825084E+05  2.883133E+05  1.500922E+04  3.673944E+05 -5.737378E+03 -3.030644E+03
       267  21  4.552020E+05  2.797698E+05  5.378387E+03  3.588766E+05 -9.405981E+02 -1.226046E+03
       267  22  4.602972E+05  2.864315E+05  1.675284E+04  3.588337E+05 -1.108887E+04 -5.483188E+03
       267  23  4.653764E+05  2.754731E+05  9.476810E+03  3.585702E+05 -6.510629E+03 -3.610523E+03
       267  24  4.585809E+05  2.833771E+05  6.587262E+03  3.611266E+05 -1.820953E+03 -1.886287E+03
       267  25  4.226324E+05  2.571216E+05  4.386381E+03  3.389364E+05 -1.175477E+04 -5.982506E+03
       267  26  4.482446E+05  2.626330E+05  3.944339E+03  3.497463E+05 -7.283853E+03 -4.190382E+03
       267  27  4.619598E+05  2.869845E+05  7.796151E+03  3.633767E+05 -2.701322E+03 -2.546540E+03
       268   1  4.336302E+05  2.661572E+05 -1.948208E+03  3.484806E+05 -4.314387E+02  1.291722E+03
       268   2  4.192436E+05  2.428112E+05 -8.862037E+03  3.355325E+05 -3.599160E+03  7.309056E+02
       268   3  3.906925E+05  2.353015E+05 -1.364902E+04  3.267547E+05 -6.763290E+03  1.658597E+02
       268   4  4.585820E+05  2.836118E+05  5.946060E+03  3.607459E+05  4.072186E+02  1.920676E+03
       268   5  4.657052E+05  2.757669E+05  5.776494E+03  3.586057E+05 -2.763858E+03  1.357276E+03
       268   6  4.586638E+05  2.837583E+05  7.736504E+03  3.606350E+05 -5.931463E+03  7.895636E+02
       268   7  4.835343E+05  3.010666E+05  1.384019E+04  3.730117E+05  1.245915E+03  2.549658E+03
       268   8  5.121688E+05  3.087237E+05  2.041470E+04  3.816807E+05 -1.928475E+03  1.983707E+03
       268   9  5.266400E+05  3.322177E+05  2.912145E+04  3.945195E+05 -5.099512E+03  1.413361E+03
       268  10  4.336302E+05  2.661572E+05 -1.948212E+03  3.484806E+05 -6.392471E-10 -7.015908E-11
       268  11  4.192436E+05  2.428112E+05 -8.862062E+03  3.355325E+05 -1.044638E-09  2.859312E-10
       268  12  3.906924E+05  2.353015E+05 -1.364910E+04  3.267547E+05 -4.113664E-10  1.642817E-10
       268  13  4.585820E+05  2.836118E+05  5.946053E+03  3.607459E+05 -1.189549E-10  1.419666E-10
       268  14  4.657052E+05  2.757669E+05  5.776476E+03  3.586057E+05 -1.159378E-09  1.760956E-11
       268  15  4.586637E+05  2.837583E+05  7.736437E+03  3.606351E+05 -3.181216E-10  1.656162E-10
       268  16  4.835343E+05  3.010666E+05  1.384017E+04  3.730117E+05 -4.927316E-10  1.814035E-10
       268  17  5.121688E+05  3.087237E+05  2.041468E+04  3.816807E+05 -1.952293E-10  3.614947E-10
       268  18  5.266399E+05  3.322176E+05  2.912140E+04  3.945195E+05 -1.458740E-10  8.329313E-11
       268  19  4.336302E+05  2.661572E+05 -1.948208E+03  3.484806E+05  4.314387E+02 -1.291722E+03
       268  20  4.192436E+05  2.428112E+05 -8.862037E+03  3.355325E+05  3.599160E+03 -7.309056E+02
       268  21  3.906925E+05  2.353015E+05 -1.364902E+04  3.267547E+05  6.763290E+03 -1.658597E+02
       268  22  4.585820E+05  2.836118E+05  5.946060E+03  3.607459E+05 -4.072186E+02 -1.920676E+03
       268  23  4.657052E+05  2.757669E+05  5.776494E+03  3.586057E+05  2.763858E+03 -1.357276E+03
       268  24  4.586638E+05  2.837583E+05  7.736504E+03  3.606350E+05  5.931463E+03 -7.895636E+02
       268  25  4.835343E+05  3.010666E+05  1.384019E+04  3.730117E+05 -1.245915E+03 -2.549658E+03
       268  26  5.121688E+05  3.087237E+05  2.041470E+04  3.816807E+05  1.928475E+03 -1.983707E+03
       268  27  5.266400E+05  3.322177E+05  2.912145E+04  3.945195E+05  5.099512E+03 -1.413361E+03
       269   1  3.685425E+05  2.214973E+05 -1.872994E+04  3.175606E+05 -8.592307E+03 -8.509364E+01
       269   2  3.550583E+05  1.959656E+05 -1.991387E+04  3.033554E+05 -1.530940E+04 -3.345924E+03
       269   3  3.315747E+05  1.919960E+05 -1.420662E+04  2.909518E+05 -2.182398E+04 -6.875952E+03
       269   4  4.586614E+05  2.833738E+05  9.361663E+03  3.613567E+05 -7.676881E+03  6.012509E+02
       269   5  4.650890E+05  2.751521E+05  1.497911E+04  3.585194E+05 -1.458948E+04 -2.806341E+03
       269   6  4.615583E+05  2.885334E+05  2.765610E+04  3.574835E+05 -2.129980E+04 -6.483313E+03
       269   7  5.487897E+05  3.452548E+05  3.745251E+04  4.051602E+05 -6.761267E+03  1.287731E+03
       269   8  5.751327E+05  3.543453E+05  4.987057E+04  4.136945E+05 -1.386939E+04 -2.266625E+03
       269   9  5.915588E+05  3.850805E+05  6.951630E+04  4.240307E+05 -2.077547E+04 -6.090559E+03
       269  10  3.685424E+05  2.214973E+05 -1.873008E+04  3.175606E+05  4.347209E-10 -1.781968E-10
       269  11  3.550580E+05  1.959655E+05 -1.991433E+04  3.033553E+05  1.457721E-10 -5.428086E-11
       269  12  3.315742E+05  1.919958E+05 -1.420761E+04  2.909517E+05 -8.433698E-11  2.311020E-10
       269  13  4.586614E+05  2.833738E+05  9.361552E+03  3.613567E+05 -1.724542E-10 -1.127985E-10
       269  14  4.650888E+05  2.751520E+05  1.497870E+04  3.585194E+05 -4.065554E-10  1.034754E-10
       269  15  4.615578E+05  2.885333E+05  2.765517E+04  3.574834E+05  2.632738E-10 -1.293614E-10
       269  16  5.487897E+05  3.452548E+05  3.745243E+04  4.051602E+05  1.223958E-10 -9.019437E-12
       269  17  5.751325E+05  3.543453E+05  4.987020E+04  4.136945E+05 -2.448974E-10 -7.915466E-11
       269  18  5.915584E+05  3.850803E+05  6.951542E+04  4.240306E+05  5.832337E-10 -1.478308E-10
       269  19  3.685425E+05  2.214973E+05 -1.872994E+04  3.175606E+05  8.592307E+03  8.509364E+01
       269  20  3.550583E+05  1.959656E+05 -1.991387E+04  3.033554E+05  1.530940E+04  3.345924E+03
       269  21  3.315747E+05  1.919960E+05 -1.420662E+04  2.909518E+05  2.182398E+04  6.875952E+03
       269  22  4.586614E+05  2.833738E+05  9.361663E+03  3.613567E+05  7.676881E+03 -6.012509E+02
       269  23  4.650890E+05  2.751521E+05  1.497911E+04  3.585194E+05  1.458948E+04  2.806341E+03
       269  24  4.615583E+05  2.885334E+05  2.765610E+04  3.574835E+05  2.129980E+04  6.483313E+03
       269  25  5.487897E+05  3.452548E+05  3.745251E+04  4.051602E+05  6.761267E+03 -1.287731E+03
       269  26  5.751327E+05  3.543453E+05  4.987057E+04  4.136945E+05  1.386939E+04  2.266625E+03
       269  27  5.915588E+05  3.850805E+05  6.951630E+04  4.240307E+05  2.077547E+04  6.090559E+03
       270   1  2.928578E+05  1.878566E+05 -1.408966E+04  2.948602E+05 -2.859524E+04 -9.859769E+03
       270   2  2.952293E+05  1.308487E+05  8.329123E+02  2.669736E+05 -4.897576E+04 -2.459892E+04
       270   3  3.419342E+05  1.703657E+05  5.963992E+04  2.054448E+05 -6.521161E+04 -4.486728E+04
       270   4  4.608609E+05  2.823061E+05  3.420235E+04  3.668957E+05 -2.636195E+04 -8.185201E+03
       270   5  4.576705E+05  2.681897E+05  5.639798E+04  3.577965E+05 -5.073419E+04 -2.591844E+04
       270   6  4.996607E+05  3.514408E+05  1.259280E+05  3.150596E+05 -7.096240E+04 -4.918282E+04
       270   7  6.288947E+05  3.767643E+05  8.249161E+04  4.389508E+05 -2.412782E+04 -6.510178E+03
       270   8  6.201406E+05  4.055535E+05  1.119596E+05  4.486486E+05 -5.249324E+04 -2.723855E+04
       270   9  6.574166E+05  5.325614E+05  1.922123E+05  4.247138E+05 -7.671516E+04 -5.350104E+04
       270  10  2.928569E+05  1.878563E+05 -1.409138E+04  2.948600E+05  6.559484E-10  5.621021E-10
       270  11  2.952266E+05  1.308475E+05  8.272721E+02  2.669727E+05  9.155281E-10 -7.745003E-10
       270  12  3.419291E+05  1.703624E+05  5.962815E+04  2.054424E+05 -8.486781E-12 -8.113976E-10
       270  13  4.608601E+05  2.823059E+05  3.420092E+04  3.668955E+05  3.688234E-10 -2.369384E-10
       270  14  4.576676E+05  2.681883E+05  5.639189E+04  3.577954E+05  9.027642E-10 -1.172520E-09
       270  15  4.996546E+05  3.514369E+05  1.259140E+05  3.150568E+05  2.854697E-10 -6.665178E-11
       270  16  6.288941E+05  3.767641E+05  8.249043E+04  4.389507E+05 -1.276762E-10 -9.095868E-10
       270  17  6.201374E+05  4.055519E+05  1.119530E+05  4.486475E+05  2.451241E-10 -6.203073E-10
       270  18  6.574095E+05  5.325567E+05  1.921959E+05  4.247105E+05  3.890182E-10  1.287024E-10
       270  19  2.928578E+05  1.878566E+05 -1.408966E+04  2.948602E+05  2.859524E+04  9.859769E+03
       270  20  2.952293E+05  1.308487E+05  8.329123E+02  2.669736E+05  4.897576E+04  2.459892E+04
       270  21  3.419342E+05  1.703657E+05  5.963992E+04  2.054448E+05  6.521161E+04  4.486728E+04
       270  22  4.608609E+05  2.823061E+05  3.420235E+04  3.668957E+05  2.636195E+04  8.185201E+03
       270  23  4.576705E+05  2.681897E+05  5.639798E+04  3.577965E+05  5.073419E+04  2.591844E+04
       270  24  4.996607E+05  3.514408E+05  1.259280E+05  3.150596E+05  7.096240E+04  4.918282E+04
       270  25  6.288947E+05  3.767643E+05  8.249161E+04  4.389508E+05  2.412782E+04  6.510178E+03
       270  26  6.201406E+05  4.055535E+05  1.119596E+05  4.486486E+05  5.249324E+04  2.723855E+04
       270  27  6.574166E+05  5.325614E+05  1.922123E+05  4.247138E+05  7.671516E+04  5.350104E+04
       271   1  9.994678E+05  1.157866E+05  1.404444E+05  4.409531E+04  9.088774E+04 -4.311263E+02
       271   2  9.826870E+05  9.037359E+02  6.749337E+04  1.412437E+04  5.841341E+04 -1.377778E+03
       271   3  9.992198E+05  2.422692E+03  4.476394E+04 -1.579758E+04  2.593848E+04 -1.498118E+03
       271   4  9.654469E+05  1.073375E+05  1.321520E+05  1.211590E+01  8.990695E+04 -4.374890E+02
       271   5  9.488675E+05 -7.410971E+03  5.969281E+04 -1.636905E+01  5.802757E+04 -1.379085E+03
       271   6  9.654984E+05 -5.860808E+03  3.704380E+04  3.607519E+00  2.614756E+04 -1.497476E+03
       271   7  9.314313E+05  9.889563E+04  1.238605E+05 -4.406866E+04  8.892621E+04 -4.437130E+02
       271   8  9.150496E+05 -1.572501E+04  5.189229E+04 -1.415633E+04  5.764176E+04 -1.380374E+03
       271   9  9.317786E+05 -1.414345E+04  2.932373E+04  1.580393E+04  2.635663E+04 -1.496824E+03
       271  10  9.994589E+05  1.157844E+05  1.404289E+05  4.409534E+04 -3.320373E-10  2.545604E-11
       271  11  9.826833E+05  9.028197E+02  6.748696E+04  1.412443E+04 -1.956423E-11 -1.194617E-10
       271  12  9.992191E+05  2.422509E+03  4.476267E+04 -1.579755E+04 -4.911529E-10  1.394049E-10
       271  13  9.654383E+05  1.073353E+05  1.321368E+05  1.214757E+01  4.445798E-11 -1.555090E-10
       271  14  9.488639E+05 -7.411875E+03  5.968649E+04 -1.630463E+01  2.233707E-10 -1.239493E-10
       271  15  9.654977E+05 -5.860994E+03  3.704252E+04  3.639042E+00 -8.858470E-10  2.748112E-10
       271  16  9.314229E+05  9.889351E+04  1.238457E+05 -4.406862E+04  2.068672E-10 -1.978456E-10
       271  17  9.150460E+05 -1.572590E+04  5.188605E+04 -1.415627E+04  9.590873E-10 -1.446311E-10
       271  18  9.317779E+05 -1.414364E+04  2.932242E+04  1.580396E+04  1.028528E-09  1.580595E-10
       271  19  9.994678E+05  1.157866E+05  1.404444E+05  4.409531E+04 -9.088774E+04  4.311263E+02
       271  20  9.826870E+05  9.037359E+02  6.749337E+04  1.412437E+04 -5.841341E+04  1.377778E+03
       271  21  9.992198E+05  2.422692E+03  4.476394E+04 -1.579758E+04 -2.593848E+04  1.498118E+03
       271  22  9.654469E+05  1.073375E+05  1.321520E+05  1.211590E+01 -8.990695E+04  4.374890E+02
       271  23  9.488675E+05 -7.410971E+03  5.969281E+04 -1.636905E+01 -5.802757E+04  1.379085E+03
       271  24  9.654984E+05 -5.860808E+03  3.704380E+04  3.607519E+00 -2.614756E+04  1.497476E+03
       271  25  9.314313E+05  9.889563E+04  1.238605E+05 -4.406866E+04 -8.892621E+04  4.437130E+02
       271  26  9.150496E+05 -1.572501E+04  5.189229E+04 -1.415633E+04 -5.764176E+04  1.380374E+03
       271  27  9.317786E+05 -1.414345E+04  2.932373E+04  1.580393E+04 -2.635663E+04  1.496824E+03
       272   1  9.925247E+05  1.625734E+04  3.834455E+04  2.858837E+03  2.062615E+04 -1.397725E+03
       272   2  9.906651E+05  7.510569E+03  2.628077E+04  7.091896E+02  1.122252E+04 -1.440440E+03
       272   3  9.924097E+05  8.291440E+03  2.271432E+04 -1.410189E+03  1.818956E+03 -1.441800E+03
       272   4  9.589077E+05  7.993523E+03  3.060437E+04  2.087614E+00  2.057943E+04 -1.397823E+03
       272   5  9.571110E+05 -7.337774E+02  1.857648E+04 -1.320273E+01  1.120602E+04 -1.440458E+03
       272   6  9.589135E+05  6.160597E+01  1.502527E+04  1.779208E+00  1.832671E+03 -1.441801E+03
       272   7  9.252916E+05 -2.703445E+02  2.286412E+04 -2.854506E+03  2.053272E+04 -1.397921E+03
       272   8  9.235580E+05 -8.978200E+03  1.087212E+04 -7.355557E+02  1.118953E+04 -1.440476E+03
       272   9  9.254184E+05 -8.168299E+03  7.336137E+03  1.413671E+03  1.846386E+03 -1.441803E+03
       272  10  9.925243E+05  1.625723E+04  3.834375E+04  2.858860E+03 -2.119621E-10  2.073806E-10
       272  11  9.906650E+05  7.510533E+03  2.628053E+04  7.092026E+02  1.166493E-10  1.023452E-10
       272  12  9.924097E+05  8.291437E+03  2.271431E+04 -1.410187E+03  1.453435E-10 -1.349170E-10
       272  13  9.589072E+05  7.993408E+03  3.060357E+04  2.110773E+00  3.529677E-10  1.112881E-10
       272  14  9.571109E+05 -7.338133E+02  1.857624E+04 -1.318973E+01  6.690003E-10 -2.868545E-10
       272  15  9.589135E+05  6.160283E+01  1.502526E+04  1.781336E+00  3.454801E-10 -1.286251E-10
       272  16  9.252912E+05 -2.704596E+02  2.286333E+04 -2.854483E+03 -4.705111E-10  1.645382E-10
       272  17  9.235578E+05 -8.978236E+03  1.087188E+04 -7.355427E+02  7.804801E-11 -4.442584E-10
       272  18  9.254184E+05 -8.168302E+03  7.336127E+03  1.413673E+03  2.054971E-11 -6.381871E-11
       272  19  9.925247E+05  1.625734E+04  3.834455E+04  2.858837E+03 -2.062615E+04  1.397725E+03
       272  20  9.906651E+05  7.510569E+03  2.628077E+04  7.091896E+02 -1.122252E+04  1.440440E+03
       272  21  9.924097E+05  8.291440E+03  2.271432E+04 -1.410189E+03 -1.818956E+03  1.441800E+03
       272  22  9.589077E+05  7.993523E+03  3.060437E+04  2.087614E+00 -2.057943E+04  1.397823E+03
       272  23  9.571110E+05 -7.337774E+02  1.857648E+04 -1.320273E+01 -1.120602E+04  1.440458E+03
       272  24  9.589135E+05  6.160597E+01  1.502527E+04  1.779208E+00 -1.832671E+03  1.441801E+03
       272  25  9.252916E+05 -2.703445E+02  2.286412E+04 -2.854506E+03 -2.053272E+04  1.397921E+03
       272  26  9.235580E+05 -8.978200E+03  1.087212E+04 -7.355557E+02 -1.118953E+04  1.440476E+03
       272  27  9.254184E+05 -8.168299E+03  7.336137E+03  1.413671E+03 -1.846386E+03  1.441803E+03
       273   1  9.923369E+05  8.371718E+03  2.254090E+04  1.294524E+03 -7.857028E+02 -1.441090E+03
       273   2  9.906656E+05  7.543862E+03  2.531658E+04 -6.737630E+02 -9.706018E+03 -1.437339E+03
       273   3  9.923647E+05  1.555921E+04  3.610416E+04 -2.649524E+03 -1.862625E+04 -1.392517E+03
       273   4  9.588615E+05  1.471086E+02  1.485673E+04 -6.530498E+00 -7.978357E+02 -1.441094E+03
       273   5  9.571763E+05 -6.846333E+02  1.762715E+04 -2.805807E+00 -9.688160E+03 -1.437354E+03
       273   6  9.588563E+05  7.321882E+03  2.838894E+04 -6.587153E+00 -1.857840E+04 -1.392600E+03
       273   7  9.253871E+05 -8.077572E+03  7.172495E+03 -1.307514E+03 -8.099680E+02 -1.441098E+03
       273   8  9.236879E+05 -8.913205E+03  9.937642E+03  6.681149E+02 -9.670303E+03 -1.437370E+03
       273   9  9.253490E+05 -9.154925E+02  2.067366E+04  2.636206E+03 -1.853055E+04 -1.392684E+03
       273  10  9.923369E+05  8.371715E+03  2.254089E+04  1.294523E+03  9.247588E-11 -3.098065E-10
       273  11  9.906655E+05  7.543835E+03  2.531640E+04 -6.737742E+02 -4.324004E-10  2.552735E-11
       273  12  9.923643E+05  1.555911E+04  3.610350E+04 -2.649544E+03  3.336129E-10  1.158517E-10
       273  13  9.588615E+05  1.471062E+02  1.485673E+04 -6.531424E+00  2.193315E-10 -1.256724E-10
       273  14  9.571762E+05 -6.846607E+02  1.762697E+04 -2.817018E+00 -2.616499E-10  8.675575E-12
       273  15  9.588560E+05  7.321788E+03  2.838829E+04 -6.607983E+00 -2.538617E-11  1.598039E-10
       273  16  9.253871E+05 -8.077574E+03  7.172490E+03 -1.307515E+03 -2.431265E-10  1.683969E-10
       273  17  9.236878E+05 -8.913232E+03  9.937463E+03  6.681037E+02 -4.217476E-10  2.980988E-12
       273  18  9.253487E+05 -9.155866E+02  2.067301E+04  2.636185E+03  7.357149E-11  1.237035E-10
       273  19  9.923369E+05  8.371718E+03  2.254090E+04  1.294524E+03  7.857028E+02  1.441090E+03
       273  20  9.906656E+05  7.543862E+03  2.531658E+04 -6.737630E+02  9.706018E+03  1.437339E+03
       273  21  9.923647E+05  1.555921E+04  3.610416E+04 -2.649524E+03  1.862625E+04  1.392517E+03
       273  22  9.588615E+05  1.471086E+02  1.485673E+04 -6.530498E+00  7.978357E+02  1.441094E+03
       273  23  9.571763E+05 -6.846333E+02  1.762715E+04 -2.805807E+00  9.688160E+03  1.437354E+03
       273  24  9.588563E+05  7.321882E+03  2.838894E+04 -6.587153E+00  1.857840E+04  1.392600E+03
       273  25  9.253871E+05 -8.077572E+03  7.172495E+03 -1.307514E+03  8.099680E+02  1.441098E+03
       273  26  9.236879E+05 -8.913205E+03  9.937642E+03  6.681149E+02  9.670303E+03  1.437370E+03
       273  27  9.253490E+05 -9.154925E+02  2.067366E+04  2.636206E+03  1.853055E+04  1.392684E+03
       274   1  9.984571E+05  2.877887E+03  4.188893E+04  1.446910E+04 -2.352915E+04 -1.490599E+03
       274   2  9.832596E+05  1.472987E+03  6.259017E+04 -1.296940E+04 -5.340021E+04 -1.368241E+03
       274   3  9.986170E+05  1.067892E+05  1.293987E+05 -4.043106E+04 -8.327160E+04 -4.262480E+02
       274   4  9.648853E+05 -5.367480E+03  3.420334E+04 -8.557807E+00 -2.373518E+04 -1.490062E+03
       274   5  9.496354E+05 -6.794830E+03  5.483452E+04  1.319636E-01 -5.301592E+04 -1.369345E+03
       274   6  9.648380E+05  9.839678E+04  1.211647E+05 -1.311139E+01 -8.229693E+04 -4.316107E+02
       274   7  9.313151E+05 -1.361214E+04  2.651780E+04 -1.448543E+04 -2.394119E+04 -1.489516E+03
       274   8  9.160127E+05 -1.506209E+04  4.707887E+04  1.296896E+04 -5.263165E+04 -1.370433E+03
       274   9  9.310637E+05  9.001043E+04  1.129314E+05  4.040264E+04 -8.132232E+04 -4.368470E+02
       274  10  9.984565E+05  2.877736E+03  4.188788E+04  1.446907E+04  6.764110E-10 -1.693824E-11
       274  11  9.832565E+05  1.472221E+03  6.258482E+04 -1.296946E+04 -7.325811E-11 -3.998138E-10
       274  12  9.986095E+05  1.067873E+05  1.293857E+05 -4.043109E+04 -5.056452E-10 -1.718256E-10
       274  13  9.648847E+05 -5.367633E+03  3.420228E+04 -8.586280E+00  8.501715E-10  1.090227E-11
       274  14  9.496324E+05 -6.795585E+03  5.482924E+04  7.351833E-02 -4.568857E-11 -4.161455E-10
       274  15  9.648308E+05  9.839497E+04  1.211519E+05 -1.313998E+01  7.842829E-10 -7.337495E-11
       274  16  9.313145E+05 -1.361229E+04  2.651672E+04 -1.448546E+04 -2.999217E-10 -2.602141E-11
       274  17  9.160098E+05 -1.506284E+04  4.707367E+04  1.296890E+04 -2.150786E-10 -4.144825E-10
       274  18  9.310566E+05  9.000866E+04  1.129190E+05  4.040261E+04  6.807601E-10 -1.272325E-10
       274  19  9.984571E+05  2.877887E+03  4.188893E+04  1.446910E+04  2.352915E+04  1.490599E+03
       274  20  9.832596E+05  1.472987E+03  6.259017E+04 -1.296940E+04  5.340021E+04  1.368241E+03
       274  21  9.986170E+05  1.067892E+05  1.293987E+05 -4.043106E+04  8.327160E+04  4.262480E+02
       274  22  9.648853E+05 -5.367480E+03  3.420334E+04 -8.557807E+00  2.373518E+04  1.490062E+03
       274  23  9.496354E+05 -6.794830E+03  5.483452E+04  1.319636E-01  5.301592E+04  1.369345E+03
       274  24  9.648380E+05  9.839678E+04  1.211647E+05 -1.311139E+01  8.229693E+04  4.316107E+02
       274  25  9.313151E+05 -1.361214E+04  2.651780E+04 -1.448543E+04  2.394119E+04  1.489516E+03
       274  26  9.160127E+05 -1.506209E+04  4.707887E+04  1.296896E+04  5.263165E+04  1.370433E+03
       274  27  9.310637E+05  9.001043E+04  1.129314E+05  4.040264E+04  8.132232E+04  4.368470E+02
       275   1 -5.717422E+04  5.375208E+03 -6.769978E+04  4.852646E+03 -7.494530E+02 -4.072400E+04
       275   2 -1.329955E+04 -1.223398E+04 -4.150973E+04 -1.640525E+03 -2.824794E+03 -2.628022E+04
       275   3 -2.016724E+04 -4.440186E+04 -3.740643E+04 -2.120439E+04 -4.148277E+03 -1.183674E+04
       275   4 -4.666332E+04  4.771546E+04 -5.746526E+04 -1.430460E+04 -7.480686E+02 -3.895975E+04
       275   5  3.228981E+03  5.494659E+04 -2.603790E+04 -7.771737E+03 -2.824386E+03 -2.505700E+04
       275   6  2.474911E+03  4.771294E+04 -1.632086E+04 -1.430963E+04 -4.148278E+03 -1.115403E+04
       275   7 -3.615116E+04  9.005814E+04 -4.723066E+04 -3.346315E+04 -7.467931E+02 -3.719539E+04
       275   8  1.975734E+04  1.221314E+05 -1.056635E+04 -1.390362E+04 -2.824002E+03 -2.383366E+04
       275   9  2.511665E+04  1.398357E+05  4.764176E+03 -7.413839E+03 -4.148265E+03 -1.047123E+04
       275  10 -5.717466E+04  5.373427E+03 -6.770290E+04  4.852622E+03  3.065579E-10 -1.443794E-10
       275  11 -1.329975E+04 -1.223473E+04 -4.151104E+04 -1.640585E+03  2.432008E-10  3.882222E-10
       275  12 -2.016730E+04 -4.440201E+04 -3.740673E+04 -2.120443E+04  3.671859E-10  1.779595E-10
       275  13 -4.666372E+04  4.771383E+04 -5.746812E+04 -1.430462E+04  1.654414E-10  7.392082E-11
       275  14  3.228804E+03  5.494591E+04 -2.603910E+04 -7.771794E+03 -6.232563E-11  1.714067E-10
       275  15  2.474859E+03  4.771280E+04 -1.632113E+04 -1.430967E+04 -3.403142E-10  4.396258E-10
       275  16 -3.615154E+04  9.005666E+04 -4.723326E+04 -3.346318E+04  1.719753E-10  1.444055E-10
       275  17  1.975718E+04  1.221308E+05 -1.056743E+04 -1.390367E+04  1.444529E-10 -3.471673E-10
       275  18  2.511660E+04  1.398356E+05  4.763938E+03 -7.413874E+03 -2.747102E-10 -3.820751E-10
       275  19 -5.717422E+04  5.375208E+03 -6.769978E+04  4.852646E+03  7.494530E+02  4.072400E+04
       275  20 -1.329955E+04 -1.223398E+04 -4.150973E+04 -1.640525E+03  2.824794E+03  2.628022E+04
       275  21 -2.016724E+04 -4.440186E+04 -3.740643E+04 -2.120439E+04  4.148277E+03  1.183674E+04
       275  22 -4.666332E+04  4.771546E+04 -5.746526E+04 -1.430460E+04  7.480686E+02  3.895975E+04
       275  23  3.228981E+03  5.494659E+04 -2.603790E+04 -7.771737E+03  2.824386E+03  2.505700E+04
       275  24  2.474911E+03  4.771294E+04 -1.632086E+04 -1.430963E+04  4.148278E+03  1.115403E+04
       275  25 -3.615116E+04  9.005814E+04 -4.723066E+04 -3.346315E+04  7.467931E+02  3.719539E+04
       275  26  1.975734E+04  1.221314E+05 -1.056635E+04 -1.390362E+04  2.824002E+03  2.383366E+04
       275  27  2.511665E+04  1.398357E+05  4.764176E+03 -7.413839E+03  4.148265E+03  1.047123E+04
       276   1 -3.197299E+04 -6.543900E+04 -4.031953E+04 -1.294135E+04 -4.812812E+03 -9.697969E+03
       276   2 -3.427412E+04 -8.941777E+04 -4.094380E+04 -7.606313E+03 -6.037496E+03 -5.122111E+03
       276   3 -4.173006E+04 -1.152617E+05 -4.583194E+04 -1.531528E+04 -6.923599E+03 -5.462518E+02
       276   4 -3.434122E+03  5.052115E+04 -1.358437E+04 -1.430165E+04 -4.812575E+03 -8.695121E+03
       276   5  3.732305E+02  5.143179E+04 -8.559877E+03 -7.779941E+03 -6.037234E+03 -4.362302E+03
       276   6 -9.314004E+02  5.051915E+04 -7.629987E+03 -1.430210E+04 -6.923331E+03 -2.930350E+01
       276   7  2.510381E+04  1.664937E+05  1.314990E+04 -1.566220E+04 -4.812342E+03 -7.692088E+03
       276   8  3.501919E+04  1.922997E+05  2.382273E+04 -7.953608E+03 -6.036973E+03 -3.602322E+03
       276   9  3.986534E+04  2.163255E+05  3.057015E+04 -1.328866E+04 -6.923062E+03  4.877818E+02
       276  10 -3.197304E+04 -6.543911E+04 -4.031975E+04 -1.294139E+04  3.029971E-10 -3.430837E-10
       276  11 -3.427416E+04 -8.941781E+04 -4.094392E+04 -7.606338E+03  1.579181E-10  3.474598E-10
       276  12 -4.173011E+04 -1.152617E+05 -4.583203E+04 -1.531528E+04 -3.085747E-10  1.000986E-11
       276  13 -3.434167E+03  5.052106E+04 -1.358456E+04 -1.430168E+04  1.417975E-10  2.056814E-10
       276  14  3.731862E+02  5.143176E+04 -8.559981E+03 -7.779962E+03 -5.612931E-11  2.654469E-10
       276  15 -9.314519E+02  5.051913E+04 -7.630077E+03 -1.430210E+04 -3.011236E-10  8.495548E-10
       276  16  2.510377E+04  1.664937E+05  1.314974E+04 -1.566223E+04 -7.780719E-10  3.301093E-10
       276  17  3.501915E+04  1.922997E+05  2.382264E+04 -7.953626E+03  6.301351E-11 -1.812838E-10
       276  18  3.986529E+04  2.163254E+05  3.057006E+04 -1.328866E+04 -8.983759E-11 -3.394101E-10
       276  19 -3.197299E+04 -6.543900E+04 -4.031953E+04 -1.294135E+04  4.812812E+03  9.697969E+03
       276  20 -3.427412E+04 -8.941777E+04 -4.094380E+04 -7.606313E+03  6.037496E+03  5.122111E+03
       276  21 -4.173006E+04 -1.152617E+05 -4.583194E+04 -1.531528E+04  6.923599E+03  5.462518E+02
       276  22 -3.434122E+03  5.052115E+04 -1.358437E+04 -1.430165E+04  4.812575E+03  8.695121E+03
       276  23  3.732305E+02  5.143179E+04 -8.559877E+03 -7.779941E+03  6.037234E+03  4.362302E+03
       276  24 -9.314004E+02  5.051915E+04 -7.629987E+03 -1.430210E+04  6.923331E+03  2.930350E+01
       276  25  2.510381E+04  1.664937E+05  1.314990E+04 -1.566220E+04  4.812342E+03  7.692088E+03
       276  26  3.501919E+04  1.922997E+05  2.382273E+04 -7.953608E+03  6.036973E+03  3.602322E+03
       276  27  3.986534E+04  2.163255E+05  3.057015E+04 -1.328866E+04  6.923062E+03 -4.877818E+02
       277   1 -4.609794E+04 -1.398711E+05 -5.119151E+04 -1.209065E+04 -8.350188E+03 -1.147646E+03
       277   2 -5.174078E+04 -1.621159E+05 -5.898710E+04 -9.896363E+03 -8.640519E+03  8.248819E+03
       277   3 -7.459524E+04 -1.898479E+05 -7.719587E+04 -2.053672E+04 -2.827537E+03  1.764173E+04
       277   4  5.561784E+02  4.987246E+04 -7.667004E+03 -1.425743E+04 -8.349247E+03  1.260658E+03
       277   5  1.041998E+03  5.223311E+04 -9.447222E+03 -7.836626E+03 -8.641101E+03  6.265214E+03
       277   6 -1.491818E+04  4.987005E+04 -1.858868E+04 -1.425047E+04 -2.830452E+03  1.126670E+04
       277   7  4.720780E+04  2.396494E+05  3.585515E+04 -1.642488E+04 -8.348323E+03  3.669692E+03
       277   8  5.382156E+04  2.666246E+05  4.008961E+04 -5.776176E+03 -8.641696E+03  4.280928E+03
       277   9  4.475480E+04  2.896405E+05  4.001448E+04 -7.961788E+03 -2.833495E+03  4.889212E+03
       277  10 -4.609801E+04 -1.398711E+05 -5.119164E+04 -1.209066E+04 -1.287871E-11  3.412102E-11
       277  11 -5.174087E+04 -1.621160E+05 -5.898737E+04 -9.896306E+03  1.773765E-10  9.538197E-10
       277  12 -7.459533E+04 -1.898482E+05 -7.719647E+04 -2.053668E+04  1.364986E-11 -3.699399E-10
       277  13  5.561031E+02  4.987244E+04 -7.667138E+03 -1.425742E+04 -2.223224E-10  3.662679E-10
       277  14  1.041907E+03  5.223305E+04 -9.447436E+03 -7.836582E+03 -1.633519E-11  4.821379E-10
       277  15 -1.491822E+04  4.986991E+04 -1.858894E+04 -1.425044E+04 -2.582259E-10  1.443847E-09
       277  16  4.720773E+04  2.396493E+05  3.585500E+04 -1.642486E+04  9.857865E-11  4.287338E-12
       277  17  5.382148E+04  2.666246E+05  4.008943E+04 -5.776146E+03 -5.472329E-10 -6.394098E-10
       277  18  4.475478E+04  2.896405E+05  4.001442E+04 -7.961777E+03 -1.580114E-11 -2.330726E-10
       277  19 -4.609794E+04 -1.398711E+05 -5.119151E+04 -1.209065E+04  8.350188E+03  1.147646E+03
       277  20 -5.174078E+04 -1.621159E+05 -5.898710E+04 -9.896363E+03  8.640519E+03 -8.248819E+03
       277  21 -7.459524E+04 -1.898479E+05 -7.719587E+04 -2.053672E+04  2.827537E+03 -1.764173E+04
       277  22  5.561784E+02  4.987246E+04 -7.667004E+03 -1.425743E+04  8.349247E+03 -1.260658E+03
       277  23  1.041998E+03  5.223311E+04 -9.447222E+03 -7.836626E+03  8.641101E+03 -6.265214E+03
       277  24 -1.491818E+04  4.987005E+04 -1.858868E+04 -1.425047E+04  2.830452E+03 -1.126670E+04
       277  25  4.720780E+04  2.396494E+05  3.585515E+04 -1.642488E+04  8.348323E+03 -3.669692E+03
       277  26  5.382156E+04  2.666246E+05  4.008961E+04 -5.776176E+03  8.641696E+03 -4.280928E+03
       277  27  4.475480E+04  2.896405E+05  4.001448E+04 -7.961788E+03  2.833495E+03 -4.889212E+03
       278   1  9.006434E+03 -5.764022E+04 -6.767140E+04  2.552395E+04 -3.042699E+04 -2.195496E+04
       278   2  2.452311E+04 -4.706201E+03 -3.481095E+04  1.570953E+04 -2.025551E+04 -1.272010E+04
       278   3  2.122174E+04  7.350146E+03 -2.243776E+04  1.984900E+04 -9.084847E+03 -4.817677E+03
       278   4  3.789558E+04 -8.401249E+03 -5.235528E+04  5.296484E+04 -2.920676E+04 -2.104131E+04
       278   5  5.528225E+04  2.630911E+04 -2.334478E+04  3.520775E+04 -1.999451E+04 -1.252469E+04
       278   6  5.406049E+04  2.035123E+04 -1.398804E+04  3.140413E+04 -9.783014E+03 -5.341015E+03
       278   7  6.678583E+04  4.084110E+04 -3.703939E+04  8.040764E+04 -2.798646E+04 -2.012751E+04
       278   8  8.604231E+04  5.732553E+04 -1.187880E+04  5.470715E+04 -1.973350E+04 -1.232926E+04
       278   9  8.690047E+04  3.335247E+04 -5.538382E+03  4.295977E+04 -1.048123E+04 -5.864369E+03
       278  10  9.005311E+03 -5.764098E+04 -6.767405E+04  2.552341E+04 -2.253657E-12 -6.516638E-11
       278  11  2.452262E+04 -4.706485E+03 -3.481203E+04  1.570933E+04  4.306092E-12 -3.558024E-10
       278  12  2.122165E+04  7.350099E+03 -2.243796E+04  1.984897E+04 -3.779833E-10 -2.365816E-10
       278  13  3.789455E+04 -8.401953E+03 -5.235771E+04  5.296435E+04  4.803174E-11 -1.390184E-10
       278  14  5.528178E+04  2.630883E+04 -2.334582E+04  3.520754E+04 -1.243762E-09  1.943972E-10
       278  15  5.406038E+04  2.035118E+04 -1.398827E+04  3.140409E+04  3.162730E-10 -7.420820E-12
       278  16  6.678488E+04  4.084045E+04 -3.704162E+04  8.040718E+04  1.552130E-11 -1.251390E-10
       278  17  8.604185E+04  5.732526E+04 -1.187982E+04  5.470696E+04 -4.021242E-10 -7.158075E-11
       278  18  8.690035E+04  3.335241E+04 -5.538653E+03  4.295972E+04  8.228459E-10 -1.863648E-10
       278  19  9.006434E+03 -5.764022E+04 -6.767140E+04  2.552395E+04  3.042699E+04  2.195496E+04
       278  20  2.452311E+04 -4.706201E+03 -3.481095E+04  1.570953E+04  2.025551E+04  1.272010E+04
       278  21  2.122174E+04  7.350146E+03 -2.243776E+04  1.984900E+04  9.084847E+03  4.817677E+03
       278  22  3.789558E+04 -8.401249E+03 -5.235528E+04  5.296484E+04  2.920676E+04  2.104131E+04
       278  23  5.528225E+04  2.630911E+04 -2.334478E+04  3.520775E+04  1.999451E+04  1.252469E+04
       278  24  5.406049E+04  2.035123E+04 -1.398804E+04  3.140413E+04  9.783014E+03  5.341015E+03
       278  25  6.678583E+04  4.084110E+04 -3.703939E+04  8.040764E+04  2.798646E+04  2.012751E+04
       278  26  8.604231E+04  5.732553E+04 -1.187880E+04  5.470715E+04  1.973350E+04  1.232926E+04
       278  27  8.690047E+04  3.335247E+04 -5.538382E+03  4.295977E+04  1.048123E+04  5.864369E+03
       279   1  3.699217E+04  4.078051E+03 -1.680872E+04  2.617359E+04 -7.511126E+03 -4.343253E+03
       279   2  4.399319E+04  1.717956E+04 -8.317727E+03  3.064689E+04 -4.848934E+03 -3.021685E+03
       279   3  5.538499E+04  2.110712E+04 -2.610063E+03  3.431779E+04 -2.137508E+03 -1.765649E+03
       279   4  5.377835E+04  1.775531E+04 -1.118013E+04  3.532125E+04 -7.798521E+03 -4.558749E+03
       279   5  5.218624E+04  2.341946E+04 -5.652298E+03  3.491099E+04 -5.183463E+03 -3.272503E+03
       279   6  5.499506E+04  1.991989E+04 -2.866757E+03  3.369825E+04 -2.519234E+03 -2.051840E+03
       279   7  7.056496E+04  3.143289E+04 -5.551542E+03  4.446927E+04 -8.085928E+03 -4.774257E+03
       279   8  6.037936E+04  2.965941E+04 -2.986877E+03  3.917516E+04 -5.517998E+03 -3.523326E+03
       279   9  5.460514E+04  1.873267E+04 -3.123448E+03  3.307871E+04 -2.900956E+03 -2.338028E+03
       279  10  3.699211E+04  4.078016E+03 -1.680886E+04  2.617356E+04 -8.391629E-10 -4.366770E-10
       279  11  4.399316E+04  1.717954E+04 -8.317789E+03  3.064688E+04  3.277533E-09  1.332003E-09
       279  12  5.538498E+04  2.110712E+04 -2.610078E+03  3.431779E+04  3.172639E-09  1.461545E-09
       279  13  5.377828E+04  1.775527E+04 -1.118029E+04  3.532122E+04  1.539920E-09  2.995889E-10
       279  14  5.218621E+04  2.341944E+04 -5.652368E+03  3.491098E+04  2.892802E-09  1.510685E-09
       279  15  5.499505E+04  1.991988E+04 -2.866777E+03  3.369824E+04  6.562376E-10  2.903828E-10
       279  16  7.056488E+04  3.143285E+04 -5.551708E+03  4.446924E+04  3.276268E-09  1.417226E-09
       279  17  6.037933E+04  2.965939E+04 -2.986957E+03  3.917514E+04  2.990936E-09  1.509414E-09
       279  18  5.460513E+04  1.873266E+04 -3.123474E+03  3.307870E+04 -6.279244E-10 -4.808221E-10
       279  19  3.699217E+04  4.078051E+03 -1.680872E+04  2.617359E+04  7.511126E+03  4.343253E+03
       279  20  4.399319E+04  1.717956E+04 -8.317727E+03  3.064689E+04  4.848934E+03  3.021685E+03
       279  21  5.538499E+04  2.110712E+04 -2.610063E+03  3.431779E+04  2.137508E+03  1.765649E+03
       279  22  5.377835E+04  1.775531E+04 -1.118013E+04  3.532125E+04  7.798521E+03  4.558749E+03
       279  23  5.218624E+04  2.341946E+04 -5.652298E+03  3.491099E+04  5.183463E+03  3.272503E+03
       279  24  5.499506E+04  1.991989E+04 -2.866757E+03  3.369825E+04  2.519234E+03  2.051840E+03
       279  25  7.056496E+04  3.143289E+04 -5.551542E+03  4.446927E+04  8.085928E+03  4.774257E+03
       279  26  6.037936E+04  2.965941E+04 -2.986877E+03  3.917516E+04  5.517998E+03  3.523326E+03
       279  27  5.460514E+04  1.873267E+04 -3.123448E+03  3.307871E+04  2.900956E+03  2.338028E+03
       280   1  6.488616E+04  2.680898E+04  1.289909E+03  3.896353E+04 -1.597239E+03 -1.835349E+03
       280   2  7.110656E+04  3.684762E+04  6.019877E+03  4.445205E+04 -1.198815E+03 -2.322677E+03
       280   3  8.378838E+04  4.040980E+04  1.073024E+04  4.805440E+04 -8.022102E+02 -2.807524E+03
       280   4  5.501668E+04  1.974112E+04 -1.867660E+03  3.403904E+04 -1.960412E+03 -2.107634E+03
       280   5  5.187078E+04  2.313007E+04 -5.761285E+01  3.486932E+04 -1.560201E+03 -2.593635E+03
       280   6  5.518578E+04  2.004206E+04  1.731285E+03  3.381331E+04 -1.161809E+03 -3.077153E+03
       280   7  4.514729E+04  1.267331E+04 -5.025241E+03  2.911464E+04 -2.323578E+03 -2.379914E+03
       280   8  3.263531E+04  9.412663E+03 -6.135175E+03  2.528688E+04 -1.921573E+03 -2.864581E+03
       280   9  2.658384E+04 -3.253853E+02 -7.267844E+03  1.957284E+04 -1.521388E+03 -3.346768E+03
       280  10  6.488616E+04  2.680897E+04  1.289898E+03  3.896353E+04  1.210480E-10  2.766316E-10
       280  11  7.110656E+04  3.684761E+04  6.019865E+03  4.445205E+04 -4.917795E-10  3.231795E-11
       280  12  8.378838E+04  4.040979E+04  1.073022E+04  4.805440E+04  1.150477E-10 -1.787175E-10
       280  13  5.501667E+04  1.974111E+04 -1.867675E+03  3.403904E+04 -2.270775E-10 -1.851884E-10
       280  14  5.187077E+04  2.313006E+04 -5.763007E+01  3.486931E+04  2.289343E-10 -2.169361E-10
       280  15  5.518578E+04  2.004205E+04  1.731265E+03  3.381330E+04 -2.346725E-11 -4.753737E-11
       280  16  4.514728E+04  1.267330E+04 -5.025262E+03  2.911463E+04 -6.231719E-10 -3.765602E-10
       280  17  3.263531E+04  9.412653E+03 -6.135198E+03  2.528687E+04  4.229308E-10 -1.257835E-10
       280  18  2.658384E+04 -3.253979E+02 -7.267870E+03  1.957284E+04  7.869139E-11  7.813324E-11
       280  19  6.488616E+04  2.680898E+04  1.289909E+03  3.896353E+04  1.597239E+03  1.835349E+03
       280  20  7.110656E+04  3.684762E+04  6.019877E+03  4.445205E+04  1.198815E+03  2.322677E+03
       280  21  8.378838E+04  4.040980E+04  1.073024E+04  4.805440E+04  8.022102E+02  2.807524E+03
       280  22  5.501668E+04  1.974112E+04 -1.867660E+03  3.403904E+04  1.960412E+03  2.107634E+03
       280  23  5.187078E+04  2.313007E+04 -5.761285E+01  3.486932E+04  1.560201E+03  2.593635E+03
       280  24  5.518578E+04  2.004206E+04  1.731285E+03  3.381331E+04  1.161809E+03  3.077153E+03
       280  25  4.514729E+04  1.267331E+04 -5.025241E+03  2.911464E+04  2.323578E+03  2.379914E+03
       280  26  3.263531E+04  9.412663E+03 -6.135175E+03  2.528688E+04  1.921573E+03  2.864581E+03
       280  27  2.658384E+04 -3.253853E+02 -7.267844E+03  1.957284E+04  1.521388E+03  3.346768E+03
       281   1  9.231616E+04  4.709932E+04  1.460586E+04  5.297769E+04 -8.450484E+02 -3.323464E+03
       281   2  9.879370E+04  5.597643E+04  2.023402E+04  5.810145E+04 -2.754258E+03 -5.520480E+03
       281   3  1.137424E+05  6.099659E+04  2.856317E+04  6.029402E+04 -4.750742E+03 -7.601055E+03
       281   4  5.520654E+04  1.987019E+04  2.707761E+03  3.414322E+04 -1.239665E+03 -3.619359E+03
       281   5  5.156482E+04  2.284795E+04  5.408152E+03  3.482852E+04 -3.064812E+03 -5.753374E+03
       281   6  5.637618E+04  2.195083E+04  1.073689E+04  3.258263E+04 -4.977197E+03 -7.770919E+03
       281   7  1.809868E+04 -7.357918E+03 -9.190418E+03  1.531019E+04 -1.634246E+03 -3.915227E+03
       281   8  4.338506E+03 -1.027922E+04 -9.417923E+03  1.155767E+04 -3.375333E+03 -5.986242E+03
       281   9 -9.864810E+02 -1.709332E+04 -7.089786E+03  4.874064E+03 -5.203623E+03 -7.940764E+03
       281  10  9.231615E+04  4.709931E+04  1.460584E+04  5.297768E+04  4.957850E-10  1.375236E-11
       281  11  9.879369E+04  5.597639E+04  2.023395E+04  5.810144E+04 -2.355904E-11  1.692185E-10
       281  12  1.137423E+05  6.099652E+04  2.856302E+04  6.029399E+04  1.831756E-10  8.443026E-11
       281  13  5.520653E+04  1.987017E+04  2.707733E+03  3.414322E+04 -4.101290E-10  3.800597E-12
       281  14  5.156480E+04  2.284791E+04  5.408072E+03  3.482851E+04  4.810939E-10 -2.387773E-11
       281  15  5.637614E+04  2.195075E+04  1.073673E+04  3.258259E+04 -1.655433E-10  1.215572E-10
       281  16  1.809867E+04 -7.357936E+03 -9.190452E+03  1.531018E+04  1.424726E-10  1.597855E-10
       281  17  4.338484E+03 -1.027926E+04 -9.418012E+03  1.155766E+04 -1.304600E-10  4.210419E-11
       281  18 -9.865270E+02 -1.709340E+04 -7.089955E+03  4.874030E+03 -2.601818E-10  8.896612E-11
       281  19  9.231616E+04  4.709932E+04  1.460586E+04  5.297769E+04  8.450484E+02  3.323464E+03
       281  20  9.879370E+04  5.597643E+04  2.023402E+04  5.810145E+04  2.754258E+03  5.520480E+03
       281  21  1.137424E+05  6.099659E+04  2.856317E+04  6.029402E+04  4.750742E+03  7.601055E+03
       281  22  5.520654E+04  1.987019E+04  2.707761E+03  3.414322E+04  1.239665E+03  3.619359E+03
       281  23  5.156482E+04  2.284795E+04  5.408152E+03  3.482852E+04  3.064812E+03  5.753374E+03
       281  24  5.637618E+04  2.195083E+04  1.073689E+04  3.258263E+04  4.977197E+03  7.770919E+03
       281  25  1.809868E+04 -7.357918E+03 -9.190418E+03  1.531019E+04  1.634246E+03  3.915227E+03
       281  26  4.338506E+03 -1.027922E+04 -9.417923E+03  1.155767E+04  3.375333E+03  5.986242E+03
       281  27 -9.864810E+02 -1.709332E+04 -7.089786E+03  4.874064E+03  5.203623E+03  7.940764E+03
       282   1  1.156592E+05  7.171687E+04  3.402652E+04  7.054136E+04 -5.175006E+03 -8.813771E+03
       282   2  1.284547E+05  6.790710E+04  4.612872E+04  7.010757E+04 -1.636495E+04 -1.743329E+04
       282   3  1.720654E+05  9.103399E+04  7.860727E+04  5.259693E+04 -2.932500E+04 -2.369351E+04
       282   4  5.607319E+04  1.948774E+04  1.344210E+04  3.636041E+04 -6.128858E+03 -9.529009E+03
       282   5  4.862387E+04  2.002507E+04  2.244693E+04  3.453113E+04 -1.561820E+04 -1.687355E+04
       282   6  7.162306E+04  4.713318E+04  5.035444E+04  1.562427E+04 -2.687709E+04 -2.185877E+04
       282   7 -3.509455E+03 -3.273850E+04 -7.142994E+03  2.183279E+03 -7.082595E+03 -1.024413E+04
       282   8 -3.120006E+04 -2.785470E+04 -1.235546E+03 -1.040568E+03 -1.487157E+04 -1.631389E+04
       282   9 -2.880728E+04  3.234353E+03  2.210105E+04 -2.134289E+04 -2.442975E+04 -2.002424E+04
       282  10  1.156592E+05  7.171678E+04  3.402632E+04  7.054132E+04  4.123658E-10  1.158322E-10
       282  11  1.284543E+05  6.790670E+04  4.612764E+04  7.010734E+04 -3.306060E-10 -1.082317E-10
       282  12  1.720643E+05  9.103316E+04  7.860460E+04  5.259637E+04  1.857441E-10 -7.578010E-11
       282  13  5.607313E+04  1.948763E+04  1.344186E+04  3.636037E+04  4.992596E-10  1.754172E-11
       282  14  4.862353E+04  2.002470E+04  2.244593E+04  3.453092E+04  4.577401E-10 -1.953179E-10
       282  15  7.162216E+04  4.713247E+04  5.035219E+04  1.562380E+04 -1.773954E-10  5.040543E-11
       282  16 -3.509537E+03 -3.273862E+04 -7.143285E+03  2.183221E+03 -5.938805E-11 -7.085383E-11
       282  17 -3.120037E+04 -2.785505E+04 -1.236462E+03 -1.040763E+03  6.523447E-10 -1.481545E-10
       282  18 -2.880803E+04  3.233762E+03  2.209917E+04 -2.134328E+04  2.701893E-10  7.917440E-11
       282  19  1.156592E+05  7.171687E+04  3.402652E+04  7.054136E+04  5.175006E+03  8.813771E+03
       282  20  1.284547E+05  6.790710E+04  4.612872E+04  7.010757E+04  1.636495E+04  1.743329E+04
       282  21  1.720654E+05  9.103399E+04  7.860727E+04  5.259693E+04  2.932500E+04  2.369351E+04
       282  22  5.607319E+04  1.948774E+04  1.344210E+04  3.636041E+04  6.128858E+03  9.529009E+03
       282  23  4.862387E+04  2.002507E+04  2.244693E+04  3.453113E+04  1.561820E+04  1.687355E+04
       282  24  7.162306E+04  4.713318E+04  5.035444E+04  1.562427E+04  2.687709E+04  2.185877E+04
       282  25 -3.509455E+03 -3.273850E+04 -7.142994E+03  2.183279E+03  7.082595E+03  1.024413E+04
       282  26 -3.120006E+04 -2.785470E+04 -1.235546E+03 -1.040568E+03  1.487157E+04  1.631389E+04
       282  27 -2.880728E+04  3.234353E+03  2.210105E+04 -2.134289E+04  2.442975E+04  2.002424E+04
       283   1  1.515218E+06  2.030391E+05  2.403177E+05  6.762128E+04  1.436201E+05 -1.912981E+03
       283   2  1.490085E+06  2.625146E+04  1.262917E+05  2.178448E+04  9.232500E+04 -6.208570E+03
       283   3  1.516412E+06  2.869567E+04  9.042020E+04 -2.449134E+04  4.102945E+04 -6.818967E+03
       283   4  1.362449E+06  1.650721E+05  2.030942E+05 -1.817733E+02  1.391834E+05 -1.928995E+03
       283   5  1.337002E+06 -1.138378E+04  9.099895E+04  4.918892E+01  9.055172E+04 -6.212147E+03
       283   6  1.362561E+06 -9.053931E+03  5.522255E+04 -1.610826E+02  4.191931E+04 -6.817297E+03
       283   7  1.209711E+06  1.271205E+05  1.658716E+05 -6.796814E+04  1.347478E+05 -1.944044E+03
       283   8  1.183942E+06 -4.901889E+04  5.570485E+04 -2.168071E+04  8.877887E+04 -6.215600E+03
       283   9  1.208733E+06 -4.680296E+04  2.002366E+04  2.416311E+04  4.280894E+04 -6.815557E+03
       283  10  1.515196E+06  2.030336E+05  2.402791E+05  6.762151E+04 -5.982664E-10 -1.481392E-11
       283  11  1.490076E+06  2.624913E+04  1.262757E+05  2.178494E+04  5.001776E-10  2.947557E-10
       283  12  1.516410E+06  2.869517E+04  9.041695E+04 -2.449112E+04 -1.656979E-10  1.223364E-10
       283  13  1.362429E+06  1.650669E+05  2.030579E+05 -1.815572E+02  1.013629E-09  2.474500E-10
       283  14  1.336993E+06 -1.138602E+04  9.098350E+04  4.964171E+01  7.820222E-10  5.195875E-10
       283  15  1.362559E+06 -9.054452E+03  5.521916E+04 -1.608525E+02  6.434006E-10  2.370391E-10
       283  16  1.209692E+06  1.271157E+05  1.658375E+05 -6.796793E+04  5.523543E-10  1.690611E-10
       283  17  1.183933E+06 -4.902104E+04  5.569000E+04 -2.168027E+04 -6.578878E-11  1.985981E-10
       283  18  1.208731E+06 -4.680350E+04  2.002014E+04  2.416335E+04 -1.791903E-10 -9.316522E-12
       283  19  1.515218E+06  2.030391E+05  2.403177E+05  6.762128E+04 -1.436201E+05  1.912981E+03
       283  20  1.490085E+06  2.625146E+04  1.262917E+05  2.178448E+04 -9.232500E+04  6.208570E+03
       283  21  1.516412E+06  2.869567E+04  9.042020E+04 -2.449134E+04 -4.102945E+04  6.818967E+03
       283  22  1.362449E+06  1.650721E+05  2.030942E+05 -1.817733E+02 -1.391834E+05  1.928995E+03
       283  23  1.337002E+06 -1.138378E+04  9.099895E+04  4.918892E+01 -9.055172E+04  6.212147E+03
       283  24  1.362561E+06 -9.053931E+03  5.522255E+04 -1.610826E+02 -4.191931E+04  6.817297E+03
       283  25  1.209711E+06  1.271205E+05  1.658716E+05 -6.796814E+04 -1.347478E+05  1.944044E+03
       283  26  1.183942E+06 -4.901889E+04  5.570485E+04 -2.168071E+04 -8.877887E+04  6.215600E+03
       283  27  1.208733E+06 -4.680296E+04  2.002366E+04  2.416311E+04 -4.280894E+04  6.815557E+03
       284   1  1.506894E+06  5.030847E+04  8.025212E+04  4.058369E+03  3.398084E+04 -6.409891E+03
       284   2  1.505414E+06  3.716918E+04  5.999946E+04  1.177792E+03  2.156057E+04 -6.669245E+03
       284   3  1.509030E+06  3.791425E+04  5.129309E+04 -2.267573E+03  9.140588E+03 -6.745870E+03
       284   4  1.352331E+06  1.232869E+04  4.468186E+04 -1.976097E+02  3.372437E+04 -6.410294E+03
       284   5  1.349801E+06 -1.046868E+03  2.428800E+04  8.664899E+01  2.143853E+04 -6.669435E+03
       284   6  1.352346E+06 -5.594332E+02  1.534911E+04 -1.939153E+02  9.152993E+03 -6.745952E+03
       284   7  1.197790E+06 -2.565268E+04  9.110026E+03 -4.452524E+03  3.346795E+04 -6.410694E+03
       284   8  1.194211E+06 -3.926460E+04 -1.142506E+04 -1.004221E+03  2.131652E+04 -6.669625E+03
       284   9  1.195684E+06 -3.903481E+04 -2.059648E+04  1.879214E+03  9.165395E+03 -6.746035E+03
       284  10  1.506893E+06  5.030812E+04  8.024988E+04  4.058544E+03 -2.681558E-10  3.315307E-10
       284  11  1.505414E+06  3.716901E+04  5.999850E+04  1.177908E+03 -1.304645E-09 -4.660625E-10
       284  12  1.509030E+06  3.791418E+04  5.129285E+04 -2.267523E+03  1.641745E-10  3.265756E-10
       284  13  1.352330E+06  1.232834E+04  4.467965E+04 -1.974357E+02 -2.189620E-10  1.464149E-10
       284  14  1.349801E+06 -1.047039E+03  2.428705E+04  8.676409E+01 -5.691336E-10 -1.899541E-11
       284  15  1.352346E+06 -5.595045E+02  1.534887E+04 -1.938656E+02  8.908827E-11 -5.810359E-11
       284  16  1.197789E+06 -2.565303E+04  9.107848E+03 -4.452351E+03  2.126509E-10 -2.015920E-10
       284  17  1.194211E+06 -3.926476E+04 -1.142600E+04 -1.004106E+03 -1.489511E-12  9.144931E-11
       284  18  1.195684E+06 -3.903488E+04 -2.059672E+04  1.879264E+03 -3.693527E-11  2.036661E-10
       284  19  1.506894E+06  5.030847E+04  8.025212E+04  4.058369E+03 -3.398084E+04  6.409891E+03
       284  20  1.505414E+06  3.716918E+04  5.999946E+04  1.177792E+03 -2.156057E+04  6.669245E+03
       284  21  1.509030E+06  3.791425E+04  5.129309E+04 -2.267573E+03 -9.140588E+03  6.745870E+03
       284  22  1.352331E+06  1.232869E+04  4.468186E+04 -1.976097E+02 -3.372437E+04  6.410294E+03
       284  23  1.349801E+06 -1.046868E+03  2.428800E+04  8.664899E+01 -2.143853E+04  6.669435E+03
       284  24  1.352346E+06 -5.594332E+02  1.534911E+04 -1.939153E+02 -9.152993E+03  6.745952E+03
       284  25  1.197790E+06 -2.565268E+04  9.110026E+03 -4.452524E+03 -3.346795E+04  6.410694E+03
       284  26  1.194211E+06 -3.926460E+04 -1.142506E+04 -1.004221E+03 -2.131652E+04  6.669625E+03
       284  27  1.195684E+06 -3.903481E+04 -2.059648E+04  1.879214E+03 -9.165395E+03  6.746035E+03
       285   1  1.509488E+06  3.953152E+04  4.901173E+04  2.333021E+02  6.787658E+03 -6.786294E+03
       285   2  1.510292E+06  3.887077E+04  4.638156E+04 -4.391717E+01  1.739281E+03 -6.840510E+03
       285   3  1.512624E+06  4.164282E+04  4.789381E+04 -1.132416E+03 -3.309269E+03 -6.693610E+03
       285   4  1.351551E+06  7.465272E+02  1.277325E+04 -2.497508E+02  6.676342E+03 -6.786464E+03
       285   5  1.350800E+06 -2.968076E+02  9.779456E+03  1.555384E+02  1.774137E+03 -6.840615E+03
       285   6  1.351551E+06  2.067845E+03  1.082743E+04 -2.504519E+02 -3.128227E+03 -6.693636E+03
       285   7  1.193638E+06 -3.804020E+04 -2.346687E+04 -7.326824E+02  6.565054E+03 -6.786634E+03
       285   8  1.191331E+06 -3.946615E+04 -2.682432E+04  3.549396E+02  1.808984E+03 -6.840719E+03
       285   9  1.190503E+06 -3.750894E+04 -2.624067E+04  6.312787E+02 -2.947231E+03 -6.693662E+03
       285  10  1.509488E+06  3.953145E+04  4.901156E+04  2.333392E+02  2.466129E-10  5.153358E-11
       285  11  1.510292E+06  3.887072E+04  4.638146E+04 -4.390759E+01  4.137173E-10 -8.513537E-10
       285  12  1.512624E+06  4.164277E+04  4.789371E+04 -1.132434E+03  3.024195E-11 -9.067703E-10
       285  13  1.351551E+06  7.464658E+02  1.277308E+04 -2.497143E+02  2.526008E-10 -1.511791E-10
       285  14  1.350799E+06 -2.968587E+02  9.779362E+03  1.555482E+02 -1.289967E-10 -5.565527E-10
       285  15  1.351551E+06  2.067794E+03  1.082733E+04 -2.504687E+02  6.349952E-10 -5.778386E-10
       285  16  1.193638E+06 -3.804026E+04 -2.346704E+04 -7.326465E+02 -1.301191E-10  5.161512E-11
       285  17  1.191331E+06 -3.946620E+04 -2.682442E+04  3.549496E+02  7.581622E-10  1.051822E-09
       285  18  1.190503E+06 -3.750899E+04 -2.624077E+04  6.312629E+02  2.988922E-10 -9.290386E-11
       285  19  1.509488E+06  3.953152E+04  4.901173E+04  2.333021E+02 -6.787658E+03  6.786294E+03
       285  20  1.510292E+06  3.887077E+04  4.638156E+04 -4.391717E+01 -1.739281E+03  6.840510E+03
       285  21  1.512624E+06  4.164282E+04  4.789381E+04 -1.132416E+03  3.309269E+03  6.693610E+03
       285  22  1.351551E+06  7.465272E+02  1.277325E+04 -2.497508E+02 -6.676342E+03  6.786464E+03
       285  23  1.350800E+06 -2.968076E+02  9.779456E+03  1.555384E+02 -1.774137E+03  6.840615E+03
       285  24  1.351551E+06  2.067845E+03  1.082743E+04 -2.504519E+02  3.128227E+03  6.693636E+03
       285  25  1.193638E+06 -3.804020E+04 -2.346687E+04 -7.326824E+02 -6.565054E+03  6.786634E+03
       285  26  1.191331E+06 -3.946615E+04 -2.682432E+04  3.549396E+02 -1.808984E+03  6.840719E+03
       285  27  1.190503E+06 -3.750894E+04 -2.624067E+04  6.312787E+02  2.947231E+03  6.693662E+03
       286   1  1.516070E+06  3.846358E+04  4.908459E+04  3.935797E+03 -3.944844E+03 -7.222028E+03
       286   2  1.513494E+06  3.850643E+04  5.473915E+04 -3.529047E+03 -1.579128E+04 -6.701263E+03
       286   3  1.520322E+06  6.996477E+04  7.594972E+04 -1.194977E+04 -2.764082E+04 -2.118866E+03
       286   4  1.353198E+06 -1.518274E+03  1.181530E+04 -2.763210E+02 -5.028113E+03 -7.222766E+03
       286   5  1.348739E+06 -1.982876E+03  1.675435E+04  1.913985E+02 -1.394286E+04 -6.700273E+03
       286   6  1.353179E+06  2.846409E+04  3.521936E+04 -2.966678E+02 -2.286059E+04 -2.115967E+03
       286   7  1.190351E+06 -4.150190E+04 -2.545571E+04 -4.487330E+03 -6.111100E+03 -7.223491E+03
       286   8  1.184010E+06 -4.247402E+04 -2.123223E+04  3.910847E+03 -1.209491E+04 -6.699260E+03
       286   9  1.186062E+06 -1.303811E+04 -5.512872E+03  1.135330E+04 -1.808164E+04 -2.112889E+03
       286  10  1.516070E+06  3.846352E+04  4.908446E+04  3.935774E+03 -1.898415E-10 -1.238729E-09
       286  11  1.513494E+06  3.850631E+04  5.473860E+04 -3.529132E+03 -1.292963E-09 -2.333867E-09
       286  12  1.520321E+06  6.996456E+04  7.594828E+04 -1.194982E+04 -1.054567E-09 -6.999894E-10
       286  13  1.353198E+06 -1.518337E+03  1.181516E+04 -2.763502E+02 -1.575172E-09 -3.066066E-09
       286  14  1.348739E+06 -1.982976E+03  1.675390E+04  1.913233E+02  1.349378E-09  9.343927E-10
       286  15  1.353179E+06  2.846395E+04  3.521837E+04 -2.967068E+02  6.853032E-10 -1.516972E-10
       286  16  1.190351E+06 -4.150197E+04 -2.545588E+04 -4.487366E+03  7.242748E-11 -8.033123E-10
       286  17  1.184010E+06 -4.247411E+04 -2.123258E+04  3.910782E+03  1.053281E-09  5.941308E-10
       286  18  1.186062E+06 -1.303820E+04 -5.513494E+03  1.135326E+04  5.807382E-10 -8.232182E-10
       286  19  1.516070E+06  3.846358E+04  4.908459E+04  3.935797E+03  3.944844E+03  7.222028E+03
       286  20  1.513494E+06  3.850643E+04  5.473915E+04 -3.529047E+03  1.579128E+04  6.701263E+03
       286  21  1.520322E+06  6.996477E+04  7.594972E+04 -1.194977E+04  2.764082E+04  2.118866E+03
       286  22  1.353198E+06 -1.518274E+03  1.181530E+04 -2.763210E+02  5.028113E+03  7.222766E+03
       286  23  1.348739E+06 -1.982876E+03  1.675435E+04  1.913985E+02  1.394286E+04  6.700273E+03
       286  24  1.353179E+06  2.846409E+04  3.521936E+04 -2.966678E+02  2.286059E+04  2.115967E+03
       286  25  1.190351E+06 -4.150190E+04 -2.545571E+04 -4.487330E+03  6.111100E+03  7.223491E+03
       286  26  1.184010E+06 -4.247402E+04 -2.123223E+04  3.910847E+03  1.209491E+04  6.699260E+03
       286  27  1.186062E+06 -1.303811E+04 -5.512872E+03  1.135330E+04  1.808164E+04  2.112889E+03
       287   1 -3.412886E+04  1.786993E+04 -6.198807E+04  6.933447E+01  3.454714E+03 -8.894020E+04
       287   2  6.768341E+04 -4.722204E+04 -7.743722E+03 -1.064802E+04  9.607944E+03 -6.116440E+04
       287   3  4.576648E+04 -1.468366E+05 -2.504414E+03 -6.414675E+04  6.929688E+03 -3.339419E+04
       287   4 -1.151500E+05 -3.075061E+05 -1.417286E+05 -4.714155E+04  3.462924E+03 -9.651739E+04
       287   5  7.969993E+03 -2.896679E+05 -6.386884E+04 -2.573691E+04  9.610015E+03 -6.240129E+04
       287   6  6.228294E+03 -3.074800E+05 -3.943708E+04 -4.711733E+04  6.926963E+03 -2.828668E+04
       287   7 -1.961706E+05 -6.327807E+05 -2.214754E+05 -9.432764E+04  3.472290E+03 -1.040906E+05
       287   8 -5.174670E+04 -5.320588E+05 -1.199978E+05 -4.081987E+04  9.612147E+03 -6.363769E+04
       287   9 -3.331060E+04 -4.680989E+05 -7.637120E+04 -3.009235E+04  6.924517E+03 -2.318049E+04
       287  10 -3.413100E+04  1.786143E+04 -6.200296E+04  6.958195E+01 -3.220830E-10  5.664534E-09
       287  11  6.768231E+04 -4.722608E+04 -7.750926E+03 -1.064754E+04 -1.171419E-09 -3.939045E-11
       287  12  4.576613E+04 -1.468378E+05 -2.506601E+03 -6.414656E+04 -1.631136E-10 -7.067398E-09
       287  13 -1.151525E+05 -3.075161E+05 -1.417461E+05 -4.714129E+04 -7.960595E-10 -1.146971E-10
       287  14  7.968848E+03 -2.896721E+05 -6.387633E+04 -2.573643E+04 -4.963262E-10  1.801906E-10
       287  15  6.228027E+03 -3.074809E+05 -3.943867E+04 -4.711717E+04 -2.666225E-10 -3.830242E-10
       287  16 -1.961736E+05 -6.327924E+05 -2.214958E+05 -9.432735E+04 -6.677145E-10 -5.616170E-09
       287  17 -5.174789E+04 -5.320632E+05 -1.200055E+05 -4.081938E+04 -9.635863E-10  2.992367E-10
       287  18 -3.331079E+04 -4.680995E+05 -7.637230E+04 -3.009222E+04 -6.012348E-10  6.849950E-09
       287  19 -3.412886E+04  1.786993E+04 -6.198807E+04  6.933447E+01 -3.454714E+03  8.894020E+04
       287  20  6.768341E+04 -4.722204E+04 -7.743722E+03 -1.064802E+04 -9.607944E+03  6.116440E+04
       287  21  4.576648E+04 -1.468366E+05 -2.504414E+03 -6.414675E+04 -6.929688E+03  3.339419E+04
       287  22 -1.151500E+05 -3.075061E+05 -1.417286E+05 -4.714155E+04 -3.462924E+03  9.651739E+04
       287  23  7.969993E+03 -2.896679E+05 -6.386884E+04 -2.573691E+04 -9.610015E+03  6.240129E+04
       287  24  6.228294E+03 -3.074800E+05 -3.943708E+04 -4.711733E+04 -6.926963E+03  2.828668E+04
       287  25 -1.961706E+05 -6.327807E+05 -2.214754E+05 -9.432764E+04 -3.472290E+03  1.040906E+05
       287  26 -5.174670E+04 -5.320588E+05 -1.199978E+05 -4.081987E+04 -9.612147E+03  6.363769E+04
       287  27 -3.331060E+04 -4.680989E+05 -7.637120E+04 -3.009235E+04 -6.924517E+03  2.318049E+04
       288   1  1.159869E+04 -2.188383E+05 -1.361294E+04 -4.401447E+04  3.472668E+03 -2.491059E+04
       288   2  7.003171E+02 -2.990998E+05 -1.930584E+04 -2.506260E+04 -2.391114E+01 -1.521882E+04
       288   3 -2.160649E+04 -3.835038E+05 -3.417003E+04 -4.923048E+04 -3.518193E+03 -5.528224E+03
       288   4 -8.489553E+03 -3.004787E+05 -3.240574E+04 -4.720090E+04  3.471800E+03 -2.239457E+04
       288   5  8.722802E+02 -2.984032E+05 -1.914564E+04 -2.563943E+04 -2.488064E+01 -1.270582E+04
       288   6 -1.173843E+03 -3.004770E+05 -1.505578E+04 -4.719808E+04 -3.519204E+03 -3.016998E+03
       288   7 -2.857822E+04 -3.821129E+05 -5.119894E+04 -5.038691E+04  3.470905E+03 -1.987888E+04
       288   8  1.044248E+03 -2.977065E+05 -1.898541E+04 -2.621627E+04 -2.585480E+01 -1.019282E+04
       288   9  1.925834E+04 -2.174438E+05  4.058036E+03 -4.516541E+04 -3.520199E+03 -5.054381E+02
       288  10  1.159851E+04 -2.188390E+05 -1.361413E+04 -4.401440E+04  4.128270E-10 -9.757043E-10
       288  11  7.002548E+02 -2.991000E+05 -1.930628E+04 -2.506260E+04  1.537506E-09  6.624600E-10
       288  12 -2.160651E+04 -3.835038E+05 -3.417012E+04 -4.923049E+04  8.917859E-10  1.191561E-09
       288  13 -8.489701E+03 -3.004792E+05 -3.240670E+04 -4.720084E+04  4.513469E-10 -3.522329E-10
       288  14  8.722368E+02 -2.984033E+05 -1.914594E+04 -2.563943E+04  6.202606E-10  2.504657E-10
       288  15 -1.173859E+03 -3.004770E+05 -1.505582E+04 -4.719809E+04  7.263511E-10 -3.749608E-10
       288  16 -2.857834E+04 -3.821133E+05 -5.119971E+04 -5.038685E+04  2.293797E-10  1.067934E-09
       288  17  1.044220E+03 -2.977066E+05 -1.898560E+04 -2.621627E+04  6.456560E-10 -5.038498E-10
       288  18  1.925833E+04 -2.174438E+05  4.058012E+03 -4.516541E+04  3.231540E-10 -1.337047E-09
       288  19  1.159869E+04 -2.188383E+05 -1.361294E+04 -4.401447E+04 -3.472668E+03  2.491059E+04
       288  20  7.003171E+02 -2.990998E+05 -1.930584E+04 -2.506260E+04  2.391114E+01  1.521882E+04
       288  21 -2.160649E+04 -3.835038E+05 -3.417003E+04 -4.923048E+04  3.518193E+03  5.528224E+03
       288  22 -8.489553E+03 -3.004787E+05 -3.240574E+04 -4.720090E+04 -3.471800E+03  2.239457E+04
       288  23  8.722802E+02 -2.984032E+05 -1.914564E+04 -2.563943E+04  2.488064E+01  1.270582E+04
       288  24 -1.173843E+03 -3.004770E+05 -1.505578E+04 -4.719808E+04  3.519204E+03  3.016998E+03
       288  25 -2.857822E+04 -3.821129E+05 -5.119894E+04 -5.038691E+04 -3.470905E+03  1.987888E+04
       288  26  1.044248E+03 -2.977065E+05 -1.898541E+04 -2.621627E+04  2.585480E+01  1.019282E+04
       288  27  1.925834E+04 -2.174438E+05  4.058036E+03 -4.516541E+04  3.520199E+03  5.054381E+02
       289   1 -3.920971E+04 -4.632103E+05 -5.147920E+04 -4.370414E+04 -6.975057E+03 -5.639579E+03
       289   2 -5.843197E+04 -5.412980E+05 -7.197652E+04 -2.874895E+04 -9.651526E+03  8.919153E+03
       289   3 -1.039809E+05 -6.278473E+05 -1.085384E+05 -5.657108E+04 -3.468045E+03  2.347745E+04
       289   4  6.608102E+02 -3.011943E+05 -1.422743E+04 -4.712112E+04 -6.976832E+03 -5.297423E+02
       289   5  1.634689E+03 -2.975219E+05 -1.552627E+04 -2.573473E+04 -9.650894E+03  7.656491E+03
       289   6 -2.260548E+04 -3.012078E+05 -2.845865E+04 -4.712563E+04 -3.466252E+03  1.584436E+04
       289   7  4.052956E+04 -1.391539E+05  2.302272E+04 -5.053899E+04 -6.978664E+03  4.581418E+03
       289   8  6.169720E+04 -5.369089E+04  4.092002E+04 -2.271931E+04 -9.650275E+03  6.393336E+03
       289   9  5.876243E+04  2.552927E+04  5.161351E+04 -3.767518E+04 -3.464691E+03  8.207258E+03
       289  10 -3.920978E+04 -4.632103E+05 -5.147935E+04 -4.370417E+04 -4.319410E-10  7.470154E-09
       289  11 -5.843209E+04 -5.412981E+05 -7.197685E+04 -2.874888E+04 -9.312354E-10  7.095254E-10
       289  12 -1.039811E+05 -6.278479E+05 -1.085394E+05 -5.657101E+04 -7.616651E-10 -6.033419E-09
       289  13  6.607579E+02 -3.011943E+05 -1.422752E+04 -4.712112E+04 -6.285032E-10 -2.897279E-10
       289  14  1.634573E+03 -2.975220E+05 -1.552655E+04 -2.573467E+04 -2.797522E-10  2.059528E-10
       289  15 -2.260556E+04 -3.012081E+05 -2.845914E+04 -4.712558E+04 -2.563827E-10 -1.126195E-10
       289  16  4.052950E+04 -1.391539E+05  2.302259E+04 -5.053897E+04 -2.353610E-10 -7.348327E-09
       289  17  6.169709E+04 -5.369096E+04  4.091977E+04 -2.271926E+04 -3.593945E-10 -5.152932E-10
       289  18  5.876239E+04  2.552920E+04  5.161336E+04 -3.767516E+04 -1.261164E-10  5.978143E-09
       289  19 -3.920971E+04 -4.632103E+05 -5.147920E+04 -4.370414E+04  6.975057E+03  5.639579E+03
       289  20 -5.843197E+04 -5.412980E+05 -7.197652E+04 -2.874895E+04  9.651526E+03 -8.919153E+03
       289  21 -1.039809E+05 -6.278473E+05 -1.085384E+05 -5.657108E+04  3.468045E+03 -2.347745E+04
       289  22  6.608102E+02 -3.011943E+05 -1.422743E+04 -4.712112E+04  6.976832E+03  5.297423E+02
       289  23  1.634689E+03 -2.975219E+05 -1.552627E+04 -2.573473E+04  9.650894E+03 -7.656491E+03
       289  24 -2.260548E+04 -3.012078E+05 -2.845865E+04 -4.712563E+04  3.466252E+03 -1.584436E+04
       289  25  4.052956E+04 -1.391539E+05  2.302272E+04 -5.053899E+04  6.978664E+03 -4.581418E+03
       289  26  6.169720E+04 -5.369089E+04  4.092002E+04 -2.271931E+04  9.650275E+03 -6.393336E+03
       289  27  5.876243E+04  2.552927E+04  5.161351E+04 -3.767518E+04  3.464691E+03 -8.207258E+03
       290   1  1.809537E+05  5.891330E+04 -2.291158E+04  1.228033E+05 -1.941148E+04 -1.587239E+04
       290   2  1.968250E+05  1.060920E+05  2.701161E+03  1.193274E+05 -1.103671E+04 -1.290410E+04
       290   3  2.033107E+05  1.177191E+05  1.402754E+04  1.251665E+05 -3.555014E+03 -8.744498E+03
       290   4  1.167414E+05  3.515234E+04 -4.002995E+04  1.011242E+05 -2.136500E+04 -1.733835E+04
       290   5  1.277083E+05  6.400779E+04 -1.786942E+04  8.822459E+04 -1.213347E+04 -1.372701E+04
       290   6  1.291022E+05  5.712288E+04 -1.074003E+04  8.464052E+04 -3.795081E+03 -8.924591E+03
       290   7  5.253371E+04  1.139187E+04 -5.714856E+04  7.944684E+04 -2.331823E+04 -1.880423E+04
       290   8  5.859651E+04  2.192521E+04 -3.844061E+04  5.712527E+04 -1.323008E+04 -1.454983E+04
       290   9  5.489898E+04 -3.469546E+03 -3.550856E+04  4.412007E+04 -4.035111E+03 -9.104651E+03
       290  10  1.809532E+05  5.891293E+04 -2.291276E+04  1.228031E+05 -5.734968E-10 -8.694995E-12
       290  11  1.968248E+05  1.060918E+05  2.700620E+03  1.193273E+05 -1.334210E-09 -2.001580E-11
       290  12  2.033107E+05  1.177190E+05  1.402738E+04  1.251665E+05  6.738840E-10  6.788067E-10
       290  13  1.167408E+05  3.515189E+04 -4.003137E+04  1.011239E+05 -2.608542E-10 -1.699391E-10
       290  14  1.277081E+05  6.400755E+04 -1.787005E+04  8.822446E+04  1.697303E-10  7.192586E-10
       290  15  1.291022E+05  5.712279E+04 -1.074020E+04  8.464050E+04  2.273552E-09  1.236083E-09
       290  16  5.253303E+04  1.139135E+04 -5.715025E+04  7.944649E+04  1.072543E-10 -1.306837E-10
       290  17  5.859627E+04  2.192493E+04 -3.844133E+04  5.712512E+04  7.946127E-10  4.501082E-10
       290  18  5.489894E+04 -3.469639E+03 -3.550875E+04  4.412004E+04  3.358361E-09  1.690972E-09
       290  19  1.809537E+05  5.891330E+04 -2.291158E+04  1.228033E+05  1.941148E+04  1.587239E+04
       290  20  1.968250E+05  1.060920E+05  2.701161E+03  1.193274E+05  1.103671E+04  1.290410E+04
       290  21  2.033107E+05  1.177191E+05  1.402754E+04  1.251665E+05  3.555014E+03  8.744498E+03
       290  22  1.167414E+05  3.515234E+04 -4.002995E+04  1.011242E+05  2.136500E+04  1.733835E+04
       290  23  1.277083E+05  6.400779E+04 -1.786942E+04  8.822459E+04  1.213347E+04  1.372701E+04
       290  24  1.291022E+05  5.712288E+04 -1.074003E+04  8.464052E+04  3.795081E+03  8.924591E+03
       290  25  5.253371E+04  1.139187E+04 -5.714856E+04  7.944684E+04  2.331823E+04  1.880423E+04
       290  26  5.859651E+04  2.192521E+04 -3.844061E+04  5.712527E+04  1.323008E+04  1.454983E+04
       290  27  5.489898E+04 -3.469546E+03 -3.550856E+04  4.412007E+04  4.035111E+03  9.104651E+03
       291   1  2.216709E+05  1.197403E+05  2.050692E+04  1.331240E+05 -1.699977E+03 -7.814160E+03
       291   2  2.313413E+05  1.367558E+05  2.893741E+04  1.405188E+05  6.657985E+02 -7.313637E+03
       291   3  2.489750E+05  1.421814E+05  3.527266E+04  1.459709E+05  2.987422E+03 -6.753862E+03
       291   4  1.288699E+05  5.515456E+04 -8.609656E+03  8.763899E+04 -2.307721E+03 -8.270218E+03
       291   5  1.253560E+05  6.177729E+04 -4.434518E+03  8.799213E+04  1.003514E+02 -7.738043E+03
       291   6  1.297960E+05  5.680075E+04 -2.391454E+03  8.640255E+04  2.464225E+03 -7.146647E+03
       291   7  3.607890E+04 -9.426238E+03 -3.772704E+04  4.216194E+04 -2.915337E+03 -8.726181E+03
       291   8  1.938314E+04 -1.319490E+04 -3.780769E+04  3.547573E+04 -4.649619E+02 -8.162348E+03
       291   9  1.063214E+04 -2.857201E+04 -4.005733E+04  2.684712E+04  1.941164E+03 -7.539328E+03
       291  10  2.216709E+05  1.197402E+05  2.050680E+04  1.331240E+05  3.411843E-09  2.129569E-09
       291  11  2.313413E+05  1.367558E+05  2.893731E+04  1.405188E+05  6.481423E-10  4.907090E-10
       291  12  2.489750E+05  1.421814E+05  3.527256E+04  1.459709E+05 -9.091589E-10  4.251658E-10
       291  13  1.288699E+05  5.515449E+04 -8.609794E+03  8.763898E+04  2.482274E-09  1.062650E-09
       291  14  1.253560E+05  6.177723E+04 -4.434631E+03  8.799213E+04  4.221089E-10 -7.538550E-10
       291  15  1.297959E+05  5.680069E+04 -2.391561E+03  8.640256E+04 -6.636676E-10  2.179072E-10
       291  16  3.607887E+04 -9.426322E+03 -3.772720E+04  4.216192E+04  9.082824E-10 -1.603457E-10
       291  17  1.938312E+04 -1.319497E+04 -3.780782E+04  3.547572E+04 -3.562734E-10  9.734385E-11
       291  18  1.063212E+04 -2.857207E+04 -4.005744E+04  2.684713E+04 -1.592501E-10  2.683875E-10
       291  19  2.216709E+05  1.197403E+05  2.050692E+04  1.331240E+05  1.699977E+03  7.814160E+03
       291  20  2.313413E+05  1.367558E+05  2.893741E+04  1.405188E+05 -6.657985E+02  7.313637E+03
       291  21  2.489750E+05  1.421814E+05  3.527266E+04  1.459709E+05 -2.987422E+03  6.753862E+03
       291  22  1.288699E+05  5.515456E+04 -8.609656E+03  8.763899E+04  2.307721E+03  8.270218E+03
       291  23  1.253560E+05  6.177729E+04 -4.434518E+03  8.799213E+04 -1.003514E+02  7.738043E+03
       291  24  1.297960E+05  5.680075E+04 -2.391454E+03  8.640255E+04 -2.464225E+03  7.146647E+03
       291  25  3.607890E+04 -9.426238E+03 -3.772704E+04  4.216194E+04  2.915337E+03  8.726181E+03
       291  26  1.938314E+04 -1.319490E+04 -3.780769E+04  3.547573E+04  4.649619E+02  8.162348E+03
       291  27  1.063214E+04 -2.857201E+04 -4.005733E+04  2.684712E+04 -1.941164E+03  7.539328E+03
       292   1  2.626331E+05  1.510727E+05  4.026400E+04  1.526784E+05  3.620950E+03 -6.952119E+03
       292   2  2.717477E+05  1.658454E+05  4.576499E+04  1.608894E+05  4.371529E+03 -7.562915E+03
       292   3  2.903829E+05  1.709846E+05  5.109770E+04  1.663450E+05  5.108805E+03 -8.155478E+03
       292   4  1.298183E+05  5.666008E+04 -1.689667E+03  8.665383E+04  3.073851E+03 -7.362911E+03
       292   5  1.251086E+05  6.156724E+04 -5.024070E+02  8.796407E+04  3.837445E+03 -7.964063E+03
       292   6  1.299169E+05  5.683740E+04  5.052889E+02  8.651849E+04  4.587723E+03 -8.546982E+03
       292   7 -2.978597E+03 -3.774365E+04 -4.364587E+04  2.064470E+04  2.526908E+03 -7.773587E+03
       292   8 -2.150751E+04 -4.269915E+04 -4.677249E+04  1.505811E+04  3.303532E+03 -8.365083E+03
       292   9 -3.052037E+04 -5.729486E+04 -5.008991E+04  6.715756E+03  4.066828E+03 -8.938345E+03
       292  10  2.626331E+05  1.510726E+05  4.026388E+04  1.526784E+05 -1.585351E-10  1.205923E-09
       292  11  2.717477E+05  1.658453E+05  4.576485E+04  1.608894E+05  2.658212E-10 -2.376714E-10
       292  12  2.903829E+05  1.709845E+05  5.109752E+04  1.663451E+05  1.336357E-09 -9.424206E-10
       292  13  1.298183E+05  5.666002E+04 -1.689787E+03  8.665385E+04  1.158932E-10  1.237235E-09
       292  14  1.251086E+05  6.156717E+04 -5.025539E+02  8.796410E+04  1.215300E-10  5.931607E-10
       292  15  1.299169E+05  5.683732E+04  5.051120E+02  8.651852E+04  7.318088E-10  6.288967E-10
       292  16 -2.978620E+03 -3.774372E+04 -4.364600E+04  2.064472E+04 -1.628784E-10  5.036427E-10
       292  17 -2.150754E+04 -4.269923E+04 -4.677264E+04  1.505813E+04 -1.679439E-11 -1.372044E-10
       292  18 -3.052041E+04 -5.729495E+04 -5.009009E+04  6.715785E+03 -3.122131E-10  4.233009E-10
       292  19  2.626331E+05  1.510727E+05  4.026400E+04  1.526784E+05 -3.620950E+03  6.952119E+03
       292  20  2.717477E+05  1.658454E+05  4.576499E+04  1.608894E+05 -4.371529E+03  7.562915E+03
       292  21  2.903829E+05  1.709846E+05  5.109770E+04  1.663450E+05 -5.108805E+03  8.155478E+03
       292  22  1.298183E+05  5.666008E+04 -1.689667E+03  8.665383E+04 -3.073851E+03  7.362911E+03
       292  23  1.251086E+05  6.156724E+04 -5.024070E+02  8.796407E+04 -3.837445E+03  7.964063E+03
       292  24  1.299169E+05  5.683740E+04  5.052889E+02  8.651849E+04 -4.587723E+03  8.546982E+03
       292  25 -2.978597E+03 -3.774365E+04 -4.364587E+04  2.064470E+04 -2.526908E+03  7.773587E+03
       292  26 -2.150751E+04 -4.269915E+04 -4.677249E+04  1.505811E+04 -3.303532E+03  8.365083E+03
       292  27 -3.052037E+04 -5.729486E+04 -5.008991E+04  6.715756E+03 -4.066828E+03  8.938345E+03
       293   1  3.035051E+05  1.805770E+05  5.588926E+04  1.731685E+05  5.464552E+03 -8.632939E+03
       293   2  3.127317E+05  1.948287E+05  6.155045E+04  1.812685E+05  4.818840E+03 -1.021792E+04
       293   3  3.325282E+05  2.007022E+05  6.856764E+04  1.861268E+05  3.927369E+03 -1.147524E+04
       293   4  1.299391E+05  5.675203E+04  1.011008E+03  8.667491E+04  4.840279E+03 -9.102012E+03
       293   5  1.249415E+05  6.143163E+04  2.310696E+03  8.794582E+04  4.430947E+03 -1.050964E+04
       293   6  1.304627E+05  5.768183E+04  4.761589E+03  8.597488E+04  3.775845E+03 -1.158952E+04
       293   7 -4.359475E+04 -6.705642E+04 -5.387102E+04  2.084854E+02  4.216243E+03 -9.570905E+03
       293   8 -6.281168E+04 -7.194683E+04 -5.693371E+04 -5.345475E+03  4.043213E+03 -1.080124E+04
       293   9 -7.156086E+04 -8.531770E+04 -5.905009E+04 -1.414128E+04  3.624388E+03 -1.170374E+04
       293  10  3.035050E+05  1.805769E+05  5.588906E+04  1.731686E+05 -3.111557E-10 -1.958815E-09
       293  11  3.127316E+05  1.948286E+05  6.155021E+04  1.812685E+05 -2.932540E-10  1.972370E-09
       293  12  3.325282E+05  2.007020E+05  6.856737E+04  1.861269E+05 -2.146183E-10  1.532910E-09
       293  13  1.299391E+05  5.675193E+04  1.010808E+03  8.667494E+04  2.328598E-10 -1.050684E-09
       293  14  1.249415E+05  6.143150E+04  2.310451E+03  8.794585E+04 -3.455622E-10  7.550045E-11
       293  15  1.304626E+05  5.768168E+04  4.761310E+03  8.597492E+04  1.189231E-10  6.440146E-10
       293  16 -4.359479E+04 -6.705653E+04 -5.387123E+04  2.085179E+02  5.970908E-10  1.001403E-09
       293  17 -6.281173E+04 -7.194696E+04 -5.693396E+04 -5.345440E+03  2.538803E-10 -6.427511E-10
       293  18 -7.156091E+04 -8.531785E+04 -5.905038E+04 -1.414125E+04  2.815296E-10 -5.548175E-10
       293  19  3.035051E+05  1.805770E+05  5.588926E+04  1.731685E+05 -5.464552E+03  8.632939E+03
       293  20  3.127317E+05  1.948287E+05  6.155045E+04  1.812685E+05 -4.818840E+03  1.021792E+04
       293  21  3.325282E+05  2.007022E+05  6.856764E+04  1.861268E+05 -3.927369E+03  1.147524E+04
       293  22  1.299391E+05  5.675203E+04  1.011008E+03  8.667491E+04 -4.840279E+03  9.102012E+03
       293  23  1.249415E+05  6.143163E+04  2.310696E+03  8.794582E+04 -4.430947E+03  1.050964E+04
       293  24  1.304627E+05  5.768183E+04  4.761589E+03  8.597488E+04 -3.775845E+03  1.158952E+04
       293  25 -4.359475E+04 -6.705642E+04 -5.387102E+04  2.084854E+02 -4.216243E+03  9.570905E+03
       293  26 -6.281168E+04 -7.194683E+04 -5.693371E+04 -5.345475E+03 -4.043213E+03  1.080124E+04
       293  27 -7.156086E+04 -8.531770E+04 -5.905009E+04 -1.414128E+04 -3.624388E+03  1.170374E+04
       294   1  3.427318E+05  2.122447E+05  7.371044E+04  1.954635E+05  6.192729E+03 -1.168152E+04
       294   2  3.547404E+05  2.206470E+05  8.263404E+04  2.009185E+05 -3.097073E+03 -1.824844E+04
       294   3  3.880539E+05  2.355168E+05  1.042164E+05  1.968252E+05 -1.738301E+04 -1.816957E+04
       294   4  1.302861E+05  5.661559E+04  5.995254E+03  8.768671E+04  3.989857E+03 -1.333708E+04
       294   5  1.236553E+05  6.010332E+04  1.006087E+04  8.779698E+04 -5.089884E+02 -1.630409E+04
       294   6  1.372933E+05  6.902354E+04  2.262873E+04  7.835779E+04 -1.000470E+04 -1.262378E+04
       294   7 -8.210964E+04 -9.898575E+04 -6.172506E+04 -2.004717E+04  1.788027E+03 -1.499182E+04
       294   8 -1.073717E+05 -1.004123E+05 -6.251852E+04 -2.527730E+04  2.077773E+03 -1.436070E+04
       294   9 -1.134011E+05 -9.744186E+04 -5.896673E+04 -4.005792E+04 -2.630487E+03 -7.080790E+03
       294  10  3.427317E+05  2.122445E+05  7.371011E+04  1.954636E+05  2.165842E-10  1.446020E-10
       294  11  3.547403E+05  2.206466E+05  8.263339E+04  2.009185E+05 -5.005406E-10 -1.691569E-10
       294  12  3.880535E+05  2.355164E+05  1.042152E+05  1.968250E+05  5.316790E-11  2.385781E-11
       294  13  1.302860E+05  5.661539E+04  5.994890E+03  8.768675E+04  6.980482E-10 -1.838226E-09
       294  14  1.236553E+05  6.010304E+04  1.006037E+04  8.779698E+04 -1.945870E-10 -2.117019E-09
       294  15  1.372931E+05  6.902334E+04  2.262824E+04  7.835769E+04 -3.854564E-10  1.185634E-09
       294  16 -8.210971E+04 -9.898599E+04 -6.172549E+04 -2.004715E+04  2.618873E-10 -4.529143E-10
       294  17 -1.073718E+05 -1.004125E+05 -6.251892E+04 -2.527728E+04  2.611104E-10  1.751791E-09
       294  18 -1.134011E+05 -9.744192E+04 -5.896684E+04 -4.005793E+04  2.773507E-11  2.351124E-10
       294  19  3.427318E+05  2.122447E+05  7.371044E+04  1.954635E+05 -6.192729E+03  1.168152E+04
       294  20  3.547404E+05  2.206470E+05  8.263404E+04  2.009185E+05  3.097073E+03  1.824844E+04
       294  21  3.880539E+05  2.355168E+05  1.042164E+05  1.968252E+05  1.738301E+04  1.816957E+04
       294  22  1.302861E+05  5.661559E+04  5.995254E+03  8.768671E+04 -3.989857E+03  1.333708E+04
       294  23  1.236553E+05  6.010332E+04  1.006087E+04  8.779698E+04  5.089884E+02  1.630409E+04
       294  24  1.372933E+05  6.902354E+04  2.262873E+04  7.835779E+04  1.000470E+04  1.262378E+04
       294  25 -8.210964E+04 -9.898575E+04 -6.172506E+04 -2.004717E+04 -1.788027E+03  1.499182E+04
       294  26 -1.073717E+05 -1.004123E+05 -6.251852E+04 -2.527730E+04 -2.077773E+03  1.436070E+04
       294  27 -1.134011E+05 -9.744186E+04 -5.896673E+04 -4.005792E+04  2.630487E+03  7.080790E+03
       295   1  3.036288E+06  4.362176E+05  4.409966E+05  1.424059E+05  8.149527E+04 -1.787789E+04
       295   2  2.818795E+06  3.269728E+05  3.387377E+05  7.552198E+04  3.752610E+04 -5.389001E+04
       295   3  2.622597E+06  2.776143E+05  2.801244E+05  1.151060E+05 -6.474135E+03 -5.001000E+04
       295   4  1.481003E+06  5.003091E+04  6.159251E+04  1.204563E+05  4.103235E+04 -1.792920E+04
       295   5  1.472943E+06 -3.639442E+03  2.838599E+04  6.725471E+04  2.593583E+04 -5.391759E+04
       295   6  1.481185E+06 -2.350050E+03  1.888243E+04  1.205295E+05  1.079209E+04 -4.997743E+04
       295   7 -7.208268E+04 -3.363312E+05 -3.179811E+05  9.856088E+04  6.700553E+02 -1.797773E+04
       295   8  1.287587E+05 -3.343780E+05 -2.820855E+05  5.900466E+04  1.437034E+04 -5.394490E+04
       295   9  3.409763E+05 -2.824045E+05 -2.424438E+05  1.259421E+05  2.802693E+04 -4.994453E+04
       295  10  3.036281E+06  4.362154E+05  4.409836E+05  1.424071E+05 -5.447771E-10 -8.395138E-12
       295  11  2.818792E+06  3.269694E+05  3.387296E+05  7.552361E+04  3.121564E-10 -2.512617E-09
       295  12  2.622596E+06  2.776116E+05  2.801196E+05  1.151058E+05  1.822683E-09 -3.446602E-09
       295  13  1.481001E+06  5.003011E+04  6.158875E+04  1.204569E+05  5.964986E-10  1.218401E-09
       295  14  1.472941E+06 -3.642747E+03  2.837926E+04  6.725584E+04 -2.450470E-10 -6.032955E-10
       295  15  1.481184E+06 -2.352765E+03  1.887751E+04  1.205299E+05  1.794646E-09  3.951152E-10
       295  16 -7.208277E+04 -3.363315E+05 -3.179817E+05  9.856089E+04  2.553659E-10  6.085770E-10
       295  17  1.287577E+05 -3.343811E+05 -2.820914E+05  5.900529E+04 -1.252498E-09 -3.584820E-09
       295  18  3.409748E+05 -2.824074E+05 -2.424500E+05  1.259432E+05 -1.948213E-09 -5.619550E-09
       295  19  3.036288E+06  4.362176E+05  4.409966E+05  1.424059E+05 -8.149527E+04  1.787789E+04
       295  20  2.818795E+06  3.269728E+05  3.387377E+05  7.552198E+04 -3.752610E+04  5.389001E+04
       295  21  2.622597E+06  2.776143E+05  2.801244E+05  1.151060E+05  6.474135E+03  5.001000E+04
       295  22  1.481003E+06  5.003091E+04  6.159251E+04  1.204563E+05 -4.103235E+04  1.792920E+04
       295  23  1.472943E+06 -3.639442E+03  2.838599E+04  6.725471E+04 -2.593583E+04  5.391759E+04
       295  24  1.481185E+06 -2.350050E+03  1.888243E+04  1.205295E+05 -1.079209E+04  4.997743E+04
       295  25 -7.208268E+04 -3.363312E+05 -3.179811E+05  9.856088E+04 -6.700553E+02  1.797773E+04
       295  26  1.287587E+05 -3.343780E+05 -2.820855E+05  5.900466E+04 -1.437034E+04  5.394490E+04
       295  27  3.409763E+05 -2.824045E+05 -2.424438E+05  1.259421E+05 -2.802693E+04  4.994453E+04
       296   1  2.423318E+06  2.361577E+05  2.337254E+05  1.236186E+05  2.935749E+03 -3.944440E+04
       296   2  2.219473E+06  1.820444E+05  1.828655E+05  6.929185E+04 -4.758248E+03 -3.174576E+04
       296   3  2.017758E+06  1.338828E+05  1.383997E+05  1.209786E+05 -1.246555E+04 -2.216072E+04
       296   4  1.478068E+06  4.052751E+03  1.642793E+04  1.204001E+05  7.820208E+03 -3.943626E+04
       296   5  1.477179E+06 -1.741261E+02  1.255387E+04  6.739321E+04  1.495572E+03 -3.173097E+04
       296   6  1.478149E+06  1.320832E+03  1.413351E+04  1.204073E+05 -4.844803E+03 -2.213815E+04
       296   7  5.336417E+05 -2.281144E+05 -2.009284E+05  1.171859E+05  1.269731E+04 -3.942818E+04
       296   8  7.353923E+05 -1.824310E+05 -1.577939E+05  6.549648E+04  7.741997E+03 -3.171622E+04
       296   9  9.388097E+05 -1.312614E+05 -1.101517E+05  1.198363E+05  2.769389E+03 -2.211558E+04
       296  10  2.423318E+06  2.361560E+05  2.337224E+05  1.236187E+05 -3.254461E-09 -5.537722E-09
       296  11  2.219473E+06  1.820433E+05  1.828635E+05  6.929173E+04 -1.544025E-09  1.825656E-09
       296  12  2.017757E+06  1.338822E+05  1.383985E+05  1.209784E+05 -4.118082E-09  4.138373E-09
       296  13  1.478068E+06  4.051063E+03  1.642489E+04  1.204004E+05  1.942048E-10 -3.871972E-09
       296  14  1.477178E+06 -1.752086E+02  1.255198E+04  6.739325E+04 -7.675828E-10 -9.069029E-10
       296  15  1.478149E+06  1.320299E+03  1.413255E+04  1.204072E+05  5.772246E-10 -1.650448E-09
       296  16  5.336411E+05 -2.281161E+05 -2.009317E+05  1.171863E+05  2.651719E-09 -1.264209E-09
       296  17  7.353919E+05 -1.824321E+05 -1.577959E+05  6.549668E+04  1.642571E-09 -6.394981E-10
       296  18  9.388095E+05 -1.312619E+05 -1.101527E+05  1.198363E+05  3.441219E-09  2.244529E-09
       296  19  2.423318E+06  2.361577E+05  2.337254E+05  1.236186E+05 -2.935749E+03  3.944440E+04
       296  20  2.219473E+06  1.820444E+05  1.828655E+05  6.929185E+04  4.758248E+03  3.174576E+04
       296  21  2.017758E+06  1.338828E+05  1.383997E+05  1.209786E+05  1.246555E+04  2.216072E+04
       296  22  1.478068E+06  4.052751E+03  1.642793E+04  1.204001E+05 -7.820208E+03  3.943626E+04
       296  23  1.477179E+06 -1.741261E+02  1.255387E+04  6.739321E+04 -1.495572E+03  3.173097E+04
       296  24  1.478149E+06  1.320832E+03  1.413351E+04  1.204073E+05  4.844803E+03  2.213815E+04
       296  25  5.336417E+05 -2.281144E+05 -2.009284E+05  1.171859E+05 -1.269731E+04  3.942818E+04
       296  26  7.353923E+05 -1.824310E+05 -1.577939E+05  6.549648E+04 -7.741997E+03  3.171622E+04
       296  27  9.388097E+05 -1.312614E+05 -1.101517E+05  1.198363E+05 -2.769389E+03  2.211558E+04
       297   1  1.825369E+06  8.529676E+04  9.515369E+04  1.230954E+05 -1.480326E+04 -1.605308E+04
       297   2  1.622125E+06  3.512496E+04  5.743384E+04  6.693519E+04 -2.642509E+04 -6.424361E+03
       297   3  1.423106E+06 -1.107248E+03  3.056760E+04  1.159918E+05 -3.804315E+04  2.393446E+03
       297   4  1.478732E+06  2.790685E+02  1.615405E+04  1.202384E+05 -7.534889E+03 -1.603007E+04
       297   5  1.476588E+06 -5.950822E+02  2.408495E+04  6.760974E+04 -1.974051E+04 -6.402684E+03
       297   6  1.478732E+06  1.257479E+04  4.327542E+04  1.201983E+05 -3.194602E+04  2.413720E+03
       297   7  1.132205E+06 -8.474688E+04 -6.285321E+04  1.173829E+05 -2.705339E+02 -1.600711E+04
       297   8  1.331071E+06 -3.631657E+04 -9.265170E+03  6.828411E+04 -1.305748E+04 -6.380989E+03
       297   9  1.534361E+06  2.625670E+04  5.598318E+04  1.244051E+05 -2.584835E+04  2.434074E+03
       297  10  1.825369E+06  8.529642E+04  9.515280E+04  1.230952E+05 -1.916663E-09  5.959585E-09
       297  11  1.622124E+06  3.512473E+04  5.743245E+04  6.693506E+04  3.767533E-09  3.418635E-09
       297  12  1.423104E+06 -1.107642E+03  3.056488E+04  1.159919E+05  7.788047E-09 -1.164108E-10
       297  13  1.478731E+06  2.787772E+02  1.615346E+04  1.202383E+05 -1.119916E-09 -1.825693E-09
       297  14  1.476588E+06 -5.952306E+02  2.408414E+04  6.760964E+04 -7.615286E-10  4.386874E-09
       297  15  1.478731E+06  1.257451E+04  4.327349E+04  1.201983E+05  1.938253E-09  7.614970E-09
       297  16  1.132205E+06 -8.474715E+04 -6.285369E+04  1.173829E+05  1.388618E-09  5.231547E-09
       297  17  1.331071E+06 -3.631665E+04 -9.265566E+03  6.828404E+04 -4.304712E-09  5.536560E-09
       297  18  1.534360E+06  2.625652E+04  5.598192E+04  1.244052E+05 -9.086184E-09  3.633383E-09
       297  19  1.825369E+06  8.529676E+04  9.515369E+04  1.230954E+05  1.480326E+04  1.605308E+04
       297  20  1.622125E+06  3.512496E+04  5.743384E+04  6.693519E+04  2.642509E+04  6.424361E+03
       297  21  1.423106E+06 -1.107248E+03  3.056760E+04  1.159918E+05  3.804315E+04 -2.393446E+03
       297  22  1.478732E+06  2.790685E+02  1.615405E+04  1.202384E+05  7.534889E+03  1.603007E+04
       297  23  1.476588E+06 -5.950822E+02  2.408495E+04  6.760974E+04  1.974051E+04  6.402684E+03
       297  24  1.478732E+06  1.257479E+04  4.327542E+04  1.201983E+05  3.194602E+04 -2.413720E+03
       297  25  1.132205E+06 -8.474688E+04 -6.285321E+04  1.173829E+05  2.705339E+02  1.600711E+04
       297  26  1.331071E+06 -3.631657E+04 -9.265170E+03  6.828411E+04  1.305748E+04  6.380989E+03
       297  27  1.534361E+06  2.625670E+04  5.598318E+04  1.244051E+05  2.584835E+04 -2.434074E+03
       298   1  1.240158E+06 -6.874413E+04 -3.816378E+03  1.429204E+05 -5.155420E+04  1.024509E+04
       298   2  1.015504E+06 -1.211048E+05 -1.649830E+04  4.584943E+04 -8.518655E+04  1.728496E+04
       298   3  8.370688E+05 -3.647849E+03  3.501110E+04  5.334956E+04 -1.187523E+05  6.249372E+03
       298   4  1.488540E+06 -7.908928E+03  5.326249E+04  1.202182E+05 -3.990173E+04  1.028555E+04
       298   5  1.464266E+06 -1.054774E+04  8.734268E+04  6.769328E+04 -8.659889E+04  1.727686E+04
       298   6  1.488376E+06  1.588187E+05  1.946295E+05  1.197218E+05 -1.332409E+05  6.193734E+03
       298   7  1.736982E+06  5.292403E+04  1.103381E+05  9.750695E+04 -2.824463E+04  1.032515E+04
       298   8  1.913215E+06  9.999691E+04  1.911705E+05  8.955287E+04 -8.801222E+04  1.726867E+04
       298   9  2.140079E+06  3.212701E+05  3.542199E+05  1.861634E+05 -1.477445E+05  6.135038E+03
       298  10  1.240155E+06 -6.874495E+04 -3.821560E+03  1.429208E+05  3.897091E-09  7.520440E-10
       298  11  1.015496E+06 -1.211071E+05 -1.651248E+04  4.585061E+04 -6.897692E-10  8.994119E-09
       298  12  8.370536E+05 -3.651671E+03  3.498456E+04  5.335016E+04 -5.786911E-09  3.362581E-09
       298  13  1.488539E+06 -7.909468E+03  5.325930E+04  1.202186E+05  3.456227E-11  3.067971E-09
       298  14  1.464258E+06 -1.055007E+04  8.732806E+04  6.769449E+04  3.202700E-10  7.377140E-09
       298  15  1.488357E+06  1.588139E+05  1.945961E+05  1.197225E+05  1.034178E-09 -8.089142E-10
       298  16  1.736981E+06  5.292370E+04  1.103364E+05  9.750719E+04 -4.821703E-09  3.288955E-09
       298  17  1.913206E+06  9.999452E+04  1.911554E+05  8.955409E+04  1.023136E-09  5.325097E-10
       298  18  2.140056E+06  3.212643E+05  3.541789E+05  1.861641E+05  5.148280E-09 -2.704695E-09
       298  19  1.240158E+06 -6.874413E+04 -3.816378E+03  1.429204E+05  5.155420E+04 -1.024509E+04
       298  20  1.015504E+06 -1.211048E+05 -1.649830E+04  4.584943E+04  8.518655E+04 -1.728496E+04
       298  21  8.370688E+05 -3.647849E+03  3.501110E+04  5.334956E+04  1.187523E+05 -6.249372E+03
       298  22  1.488540E+06 -7.908928E+03  5.326249E+04  1.202182E+05  3.990173E+04 -1.028555E+04
       298  23  1.464266E+06 -1.054774E+04  8.734268E+04  6.769328E+04  8.659889E+04 -1.727686E+04
       298  24  1.488376E+06  1.588187E+05  1.946295E+05  1.197218E+05  1.332409E+05 -6.193734E+03
       298  25  1.736982E+06  5.292403E+04  1.103381E+05  9.750695E+04  2.824463E+04 -1.032515E+04
       298  26  1.913215E+06  9.999691E+04  1.911705E+05  8.955287E+04  8.801222E+04 -1.726867E+04
       298  27  2.140079E+06  3.212701E+05  3.542199E+05  1.861634E+05  1.477445E+05 -6.135038E+03
       299   1 -7.328508E+04  6.606151E+05 -1.007189E+05  3.975845E+04  2.232724E+03 -9.663328E+04
       299   2  4.880333E+04  6.645277E+05 -2.467944E+04  1.056271E+04  6.745766E+03 -6.617850E+04
       299   3  4.423653E+04  6.328287E+05 -1.077133E+02 -2.575015E+04  6.737177E+03 -3.572796E+04
       299   4 -1.179025E+05  4.808670E+05 -1.445949E+05 -8.375709E+03  2.244068E+03 -1.015065E+05
       299   5  8.094258E+03  4.989444E+05 -6.290597E+04 -4.766392E+03  6.748911E+03 -6.780455E+04
       299   6  6.850002E+03  4.808348E+05 -3.494889E+04 -8.273410E+03  6.734800E+03 -3.410588E+04
       299   7 -1.625135E+05  3.011533E+05 -1.884719E+05 -5.649591E+04  2.256170E+03 -1.063783E+05
       299   8 -3.261585E+04  3.333870E+05 -1.011342E+05 -2.009137E+04  6.752136E+03 -6.943017E+04
       299   9 -3.053699E+04  3.288629E+05 -6.979142E+04  9.199020E+03  6.732514E+03 -3.248420E+04
       299  10 -7.328759E+04  6.606051E+05 -1.007364E+05  3.975863E+04  2.688888E-10  8.251489E-10
       299  11  4.880211E+04  6.645230E+05 -2.468774E+04  1.056307E+04  2.744919E-10 -1.918823E-10
       299  12  4.423614E+04  6.328274E+05 -1.101949E+02 -2.574995E+04  3.866132E-12  8.483026E-10
       299  13 -1.179052E+05  4.808559E+05 -1.446143E+05 -8.375526E+03  1.863332E-11  7.284510E-10
       299  14  8.092976E+03  4.989395E+05 -6.291469E+04 -4.766023E+03  3.841827E-10  5.689089E-11
       299  15  6.849642E+03  4.808336E+05 -3.495116E+04 -8.273225E+03  9.449521E-12  1.219479E-09
       299  16 -1.625165E+05  3.011411E+05 -1.884932E+05 -5.649572E+04  1.076847E-10 -4.165830E-10
       299  17 -3.261719E+04  3.333818E+05 -1.011433E+05 -2.009100E+04  9.647218E-10  5.901770E-10
       299  18 -3.053732E+04  3.288618E+05 -6.979349E+04  9.199196E+03 -4.026478E-10 -3.045306E-10
       299  19 -7.328508E+04  6.606151E+05 -1.007189E+05  3.975845E+04 -2.232724E+03  9.663328E+04
       299  20  4.880333E+04  6.645277E+05 -2.467944E+04  1.056271E+04 -6.745766E+03  6.617850E+04
       299  21  4.423653E+04  6.328287E+05 -1.077133E+02 -2.575015E+04 -6.737177E+03  3.572796E+04
       299  22 -1.179025E+05  4.808670E+05 -1.445949E+05 -8.375709E+03 -2.244068E+03  1.015065E+05
       299  23  8.094258E+03  4.989444E+05 -6.290597E+04 -4.766392E+03 -6.748911E+03  6.780455E+04
       299  24  6.850002E+03  4.808348E+05 -3.494889E+04 -8.273410E+03 -6.734800E+03  3.410588E+04
       299  25 -1.625135E+05  3.011533E+05 -1.884719E+05 -5.649591E+04 -2.256170E+03  1.063783E+05
       299  26 -3.261585E+04  3.333870E+05 -1.011342E+05 -2.009137E+04 -6.752136E+03  6.943017E+04
       299  27 -3.053699E+04  3.288629E+05 -6.979142E+04  9.199020E+03 -6.732514E+03  3.248420E+04
       300   1  2.504157E+04  6.274189E+05  6.085927E+03 -6.322125E+03  5.818555E+03 -2.938820E+04
       300   2  3.108574E+04  6.145114E+05  2.208271E+04 -3.668172E+03  5.389841E+03 -2.621561E+04
       300   3  3.319268E+04  6.001986E+05  3.502988E+04 -8.136011E+03  4.661961E+03 -2.304347E+04
       300   4 -9.103162E+03  4.885623E+05 -2.589153E+04 -8.311963E+03  5.818550E+03 -2.918491E+04
       300   5  3.032571E+02  4.892811E+05 -6.690852E+03 -4.743589E+03  5.389545E+03 -2.579759E+04
       300   6  5.734618E+03  4.885565E+05  9.310446E+03 -8.297120E+03  4.661357E+03 -2.241065E+04
       300   7 -4.324923E+04  3.497236E+05 -5.787026E+04 -1.030135E+04  5.818543E+03 -2.898166E+04
       300   8 -3.048032E+04  3.640653E+05 -3.546544E+04 -5.818783E+03  5.389248E+03 -2.537966E+04
       300   9 -2.172432E+04  3.769260E+05 -1.640981E+04 -8.458197E+03  4.660752E+03 -2.177794E+04
       300  10  2.504131E+04  6.274180E+05  6.084242E+03 -6.321987E+03  2.766769E-11  1.486259E-09
       300  11  3.108553E+04  6.145107E+05  2.208136E+04 -3.668059E+03  6.629084E-10 -2.742166E-10
       300  12  3.319252E+04  6.001980E+05  3.502884E+04 -8.135924E+03 -9.678914E-11  8.128175E-10
       300  13 -9.103427E+03  4.885614E+05 -2.589319E+04 -8.311826E+03  5.161417E-11  9.377810E-10
       300  14  3.030475E+02  4.892804E+05 -6.692156E+03 -4.743477E+03 -3.591038E-10  5.390243E-11
       300  15  5.734460E+03  4.885560E+05  9.309462E+03 -8.297036E+03  1.513886E-11  1.546996E-09
       300  16 -4.324949E+04  3.497227E+05 -5.787190E+04 -1.030121E+04 -6.258915E-10 -1.057268E-09
       300  17 -3.048052E+04  3.640646E+05 -3.546671E+04 -5.818673E+03 -5.220967E-10  8.958861E-10
       300  18 -2.172447E+04  3.769255E+05 -1.641074E+04 -8.458115E+03  6.027509E-11 -1.179409E-10
       300  19  2.504157E+04  6.274189E+05  6.085927E+03 -6.322125E+03 -5.818555E+03  2.938820E+04
       300  20  3.108574E+04  6.145114E+05  2.208271E+04 -3.668172E+03 -5.389841E+03  2.621561E+04
       300  21  3.319268E+04  6.001986E+05  3.502988E+04 -8.136011E+03 -4.661961E+03  2.304347E+04
       300  22 -9.103162E+03  4.885623E+05 -2.589153E+04 -8.311963E+03 -5.818550E+03  2.918491E+04
       300  23  3.032571E+02  4.892811E+05 -6.690852E+03 -4.743589E+03 -5.389545E+03  2.579759E+04
       300  24  5.734618E+03  4.885565E+05  9.310446E+03 -8.297120E+03 -4.661357E+03  2.241065E+04
       300  25 -4.324923E+04  3.497236E+05 -5.787026E+04 -1.030135E+04 -5.818543E+03  2.898166E+04
       300  26 -3.048032E+04  3.640653E+05 -3.546544E+04 -5.818783E+03 -5.389248E+03  2.537966E+04
       300  27 -2.172432E+04  3.769260E+05 -1.640981E+04 -8.458197E+03 -4.660752E+03  2.177794E+04
       301   1  1.983203E+04  5.922635E+05  3.879570E+04 -1.864998E+04  4.434966E+03 -2.447751E+04
       301   2  1.618992E+04  5.681566E+05  5.480965E+04  4.260765E+03  3.560339E+03 -4.454280E+04
       301   3  8.759350E+04  5.654031E+05  1.026375E+05  2.011427E+04  1.094915E+03 -6.460930E+04
       301   4 -4.437957E+03  4.935828E+05  1.620148E+04 -8.312914E+03  4.434529E+03 -2.440259E+04
       301   5 -4.733245E+03  4.829967E+05  3.518327E+04 -4.742568E+03  3.559654E+03 -4.332044E+04
       301   6  6.982184E+04  4.935657E+05  8.518471E+04 -8.229161E+03  1.095132E+03 -6.223986E+04
       301   7 -2.870823E+04  3.949114E+05 -6.393322E+03  2.022499E+03  4.434095E+03 -2.432768E+04
       301   8 -2.565661E+04  3.978437E+05  1.555646E+04 -1.374466E+04  3.558934E+03 -4.209825E+04
       301   9  5.205283E+04  4.217347E+05  6.773196E+04 -3.656931E+04  1.095132E+03 -5.987070E+04
       301  10  1.983185E+04  5.922628E+05  3.879454E+04 -1.864989E+04  4.045052E-10  1.233357E-09
       301  11  1.618937E+04  5.681545E+05  5.480590E+04  4.260892E+03  5.051081E-10 -2.669795E-10
       301  12  8.759238E+04  5.653987E+05  1.026297E+05  2.011433E+04  3.602713E-10  8.752205E-10
       301  13 -4.438138E+03  4.935822E+05  1.620033E+04 -8.312827E+03 -3.207829E-10  1.179165E-09
       301  14 -4.733762E+03  4.829947E+05  3.517972E+04 -4.742444E+03 -1.416503E-10 -1.571778E-13
       301  15  6.982080E+04  4.935615E+05  8.517743E+04 -8.229106E+03 -5.816664E-11  1.593176E-09
       301  16 -2.870841E+04  3.949108E+05 -6.394470E+03  2.022585E+03  1.406255E-10 -7.513008E-10
       301  17 -2.565710E+04  3.978418E+05  1.555310E+04 -1.374454E+04  1.918567E-10  6.767822E-10
       301  18  5.205187E+04  4.217309E+05  6.772522E+04 -3.656926E+04 -3.690569E-10 -3.110475E-10
       301  19  1.983203E+04  5.922635E+05  3.879570E+04 -1.864998E+04 -4.434966E+03  2.447751E+04
       301  20  1.618992E+04  5.681566E+05  5.480965E+04  4.260765E+03 -3.560339E+03  4.454280E+04
       301  21  8.759350E+04  5.654031E+05  1.026375E+05  2.011427E+04 -1.094915E+03  6.460930E+04
       301  22 -4.437957E+03  4.935828E+05  1.620148E+04 -8.312914E+03 -4.434529E+03  2.440259E+04
       301  23 -4.733245E+03  4.829967E+05  3.518327E+04 -4.742568E+03 -3.559654E+03  4.332044E+04
       301  24  6.982184E+04  4.935657E+05  8.518471E+04 -8.229161E+03 -1.095132E+03  6.223986E+04
       301  25 -2.870823E+04  3.949114E+05 -6.393322E+03  2.022499E+03 -4.434095E+03  2.432768E+04
       301  26 -2.565661E+04  3.978437E+05  1.555646E+04 -1.374466E+04 -3.558934E+03  4.209825E+04
       301  27  5.205283E+04  4.217347E+05  6.773196E+04 -3.656931E+04 -1.095132E+03  5.987070E+04
       302   1  1.584990E+06  1.132435E+06  2.903928E+05  1.060216E+06  7.172037E+04  4.165637E+04
       302   2  1.527270E+06  9.942327E+05  2.112761E+05  1.050613E+06  5.462347E+04  3.669259E+03
       302   3  1.473618E+06  9.577199E+05  1.760570E+05  1.026276E+06  2.495788E+04 -1.758343E+04
       302   4  1.010226E+06  6.739369E+05  8.852478E+04  7.531721E+05  5.404070E+04  2.836511E+04
       302   5  9.958259E+05  6.001761E+05  3.996278E+04  7.787746E+05  4.904812E+04 -5.268591E+02
       302   6  9.829086E+05  6.255237E+05  2.484276E+04  7.896308E+05  3.147727E+04 -1.268059E+04
       302   7  4.358028E+05  2.156689E+05 -1.133923E+05  4.464593E+05  3.638304E+04  1.509303E+04
       302   8  4.646822E+05  2.062898E+05 -1.313870E+05  5.072021E+05  4.347922E+04 -4.717858E+03
       302   9  4.924604E+05  2.934460E+05 -1.263985E+05  5.531921E+05  3.798957E+04 -7.782722E+03
       302  10  1.584984E+06  1.132432E+06  2.903800E+05  1.060214E+06  3.586011E-10  1.446621E-09
       302  11  1.527267E+06  9.942318E+05  2.112705E+05  1.050613E+06  9.772904E-10  2.612646E-09
       302  12  1.473617E+06  9.577194E+05  1.760552E+05  1.026277E+06  1.066840E-09 -3.249728E-09
       302  13  1.010223E+06  6.739352E+05  8.851780E+04  7.531709E+05  3.828045E-10  4.009527E-09
       302  14  9.958233E+05  6.001754E+05  3.995826E+04  7.787746E+05 -1.044081E-09 -3.533789E-09
       302  15  9.829075E+05  6.255233E+05  2.484060E+04  7.896311E+05  1.094389E-09 -1.748126E-09
       302  16  4.358013E+05  2.156683E+05 -1.133952E+05  4.464589E+05  1.411790E-11 -1.448065E-09
       302  17  4.646801E+05  2.062893E+05 -1.313906E+05  5.072023E+05 -1.840674E-11 -1.539927E-09
       302  18  4.924588E+05  2.934455E+05 -1.264014E+05  5.531923E+05  5.185795E-10 -1.432890E-09
       302  19  1.584990E+06  1.132435E+06  2.903928E+05  1.060216E+06 -7.172037E+04 -4.165637E+04
       302  20  1.527270E+06  9.942327E+05  2.112761E+05  1.050613E+06 -5.462347E+04 -3.669259E+03
       302  21  1.473618E+06  9.577199E+05  1.760570E+05  1.026276E+06 -2.495788E+04  1.758343E+04
       302  22  1.010226E+06  6.739369E+05  8.852478E+04  7.531721E+05 -5.404070E+04 -2.836511E+04
       302  23  9.958259E+05  6.001761E+05  3.996278E+04  7.787746E+05 -4.904812E+04  5.268591E+02
       302  24  9.829086E+05  6.255237E+05  2.484276E+04  7.896308E+05 -3.147727E+04  1.268059E+04
       302  25  4.358028E+05  2.156689E+05 -1.133923E+05  4.464593E+05 -3.638304E+04 -1.509303E+04
       302  26  4.646822E+05  2.062898E+05 -1.313870E+05  5.072021E+05 -4.347922E+04  4.717858E+03
       302  27  4.924604E+05  2.934460E+05 -1.263985E+05  5.531921E+05 -3.798957E+04  7.782722E+03
       303   1  1.405022E+06  9.332974E+05  1.543714E+05  9.944936E+05  2.427506E+04 -1.208113E+04
       303   2  1.364791E+06  8.655979E+05  1.274508E+05  9.611690E+05  1.697794E+04 -1.406548E+04
       303   3  1.287849E+06  8.434608E+05  1.066801E+05  9.377991E+05  9.076337E+03 -1.525021E+04
       303   4  9.835359E+05  6.297584E+05  2.052965E+04  7.829776E+05  2.559682E+04 -1.108831E+04
       303   5  1.000969E+06  6.052856E+05  1.248610E+04  7.793319E+05  1.888150E+04 -1.263368E+04
       303   6  9.815615E+05  6.262529E+05  1.009205E+04  7.856384E+05  1.156073E+04 -1.337970E+04
       303   7  5.622392E+05  3.263190E+05 -1.133345E+05  5.716235E+05  2.691737E+04 -1.009642E+04
       303   8  6.372866E+05  3.450454E+05 -1.024956E+05  5.976138E+05  2.078354E+04 -1.120303E+04
       303   9  6.753718E+05  4.090938E+05 -8.650846E+04  6.335605E+05  1.404346E+04 -1.151041E+04
       303  10  1.405021E+06  9.332971E+05  1.543700E+05  9.944939E+05  1.467634E-11 -4.315189E-09
       303  11  1.364790E+06  8.655976E+05  1.274498E+05  9.611692E+05  1.684316E-10  2.999300E-09
       303  12  1.287849E+06  8.434605E+05  1.066795E+05  9.377992E+05 -3.095663E-10  3.461405E-09
       303  13  9.835351E+05  6.297581E+05  2.052819E+04  7.829779E+05  6.274517E-11 -3.700340E-09
       303  14  1.000968E+06  6.052854E+05  1.248513E+04  7.793321E+05  8.072888E-10 -4.797820E-10
       303  15  9.815613E+05  6.262526E+05  1.009147E+04  7.856385E+05 -1.391575E-09 -4.330331E-09
       303  16  5.622384E+05  3.263187E+05 -1.133361E+05  5.716237E+05  2.081389E-09  2.808512E-10
       303  17  6.372861E+05  3.450452E+05 -1.024966E+05  5.976140E+05  6.246332E-10 -2.408643E-09
       303  18  6.753716E+05  4.090936E+05 -8.650908E+04  6.335606E+05 -8.123860E-10 -1.521475E-09
       303  19  1.405022E+06  9.332974E+05  1.543714E+05  9.944936E+05 -2.427506E+04  1.208113E+04
       303  20  1.364791E+06  8.655979E+05  1.274508E+05  9.611690E+05 -1.697794E+04  1.406548E+04
       303  21  1.287849E+06  8.434608E+05  1.066801E+05  9.377991E+05 -9.076337E+03  1.525021E+04
       303  22  9.835359E+05  6.297584E+05  2.052965E+04  7.829776E+05 -2.559682E+04  1.108831E+04
       303  23  1.000969E+06  6.052856E+05  1.248610E+04  7.793319E+05 -1.888150E+04  1.263368E+04
       303  24  9.815615E+05  6.262529E+05  1.009205E+04  7.856384E+05 -1.156073E+04  1.337970E+04
       303  25  5.622392E+05  3.263190E+05 -1.133345E+05  5.716235E+05 -2.691737E+04  1.009642E+04
       303  26  6.372866E+05  3.450454E+05 -1.024956E+05  5.976138E+05 -2.078354E+04  1.120303E+04
       303  27  6.753718E+05  4.090938E+05 -8.650846E+04  6.335605E+05 -1.404346E+04  1.151041E+04
       304   1  1.231199E+06  8.049867E+05  8.868056E+04  9.100151E+05  6.453586E+03 -1.420072E+04
       304   2  1.193127E+06  7.430131E+05  7.269832E+04  8.753037E+05 -6.763854E+02 -1.474186E+04
       304   3  1.116765E+06  7.228537E+05  6.117461E+04  8.516657E+05 -7.815350E+03 -1.527235E+04
       304   4  9.817458E+05  6.263340E+05  1.004842E+04  7.852277E+05  8.673935E+03 -1.252848E+04
       304   5  1.001107E+06  6.057986E+05  1.206934E+04  7.794167E+05  1.553426E+03 -1.306187E+04
       304   6  9.821698E+05  6.270743E+05  1.854133E+04  7.846757E+05 -5.576712E+03 -1.358504E+04
       304   7  7.323612E+05  4.477171E+05 -6.859076E+04  6.604977E+05  1.089305E+04 -1.085718E+04
       304   8  8.091265E+05  4.686050E+05 -4.856394E+04  6.835633E+05  3.782291E+03 -1.138259E+04
       304   9  8.475945E+05  5.313049E+05 -2.409417E+04  7.177020E+05 -3.338736E+03 -1.189823E+04
       304  10  1.231199E+06  8.049865E+05  8.868010E+04  9.100152E+05  2.742228E-09  6.489949E-09
       304  11  1.193127E+06  7.430129E+05  7.269791E+04  8.753037E+05 -1.867162E-09  3.467529E-10
       304  12  1.116764E+06  7.228534E+05  6.117406E+04  8.516656E+05 -1.663223E-09 -2.436542E-09
       304  13  9.817456E+05  6.263338E+05  1.004798E+04  7.852278E+05  1.382863E-09  5.849263E-09
       304  14  1.001107E+06  6.057984E+05  1.206902E+04  7.794167E+05  6.549613E-10  4.420465E-09
       304  15  9.821698E+05  6.270741E+05  1.854093E+04  7.846756E+05  6.630418E-10  1.063091E-08
       304  16  7.323610E+05  4.477169E+05 -6.859121E+04  6.604978E+05 -3.452421E-09 -4.356296E-09
       304  17  8.091265E+05  4.686048E+05 -4.856421E+04  6.835634E+05  2.950634E-10  3.172873E-09
       304  18  8.475944E+05  5.313047E+05 -2.409446E+04  7.177020E+05  2.351433E-09  1.242689E-09
       304  19  1.231199E+06  8.049867E+05  8.868056E+04  9.100151E+05 -6.453586E+03  1.420072E+04
       304  20  1.193127E+06  7.430131E+05  7.269832E+04  8.753037E+05  6.763854E+02  1.474186E+04
       304  21  1.116765E+06  7.228537E+05  6.117461E+04  8.516657E+05  7.815350E+03  1.527235E+04
       304  22  9.817458E+05  6.263340E+05  1.004842E+04  7.852277E+05 -8.673935E+03  1.252848E+04
       304  23  1.001107E+06  6.057986E+05  1.206934E+04  7.794167E+05 -1.553426E+03  1.306187E+04
       304  24  9.821698E+05  6.270743E+05  1.854133E+04  7.846757E+05  5.576712E+03  1.358504E+04
       304  25  7.323612E+05  4.477171E+05 -6.859076E+04  6.604977E+05 -1.089305E+04  1.085718E+04
       304  26  8.091265E+05  4.686050E+05 -4.856394E+04  6.835633E+05 -3.782291E+03  1.138259E+04
       304  27  8.475945E+05  5.313049E+05 -2.409417E+04  7.177020E+05  3.338736E+03  1.189823E+04
       305   1  1.058463E+06  6.859328E+05  4.809887E+04  8.272135E+05 -1.222805E+04 -1.570023E+04
       305   2  1.023171E+06  6.185068E+05  4.557949E+04  7.898284E+05 -2.989987E+04 -2.423291E+04
       305   3  9.614303E+05  6.078376E+05  6.113021E+04  7.569863E+05 -4.733884E+04 -3.307176E+04
       305   4  9.822814E+05  6.259445E+05  2.323479E+04  7.865931E+05 -9.913289E+03 -1.395515E+04
       305   5  9.993187E+05  6.043029E+05  3.858731E+04  7.792172E+05 -2.780651E+04 -2.265493E+04
       305   6  9.899523E+05  6.394634E+05  7.220155E+04  7.763807E+05 -4.546847E+04 -3.166248E+04
       305   7  9.061051E+05  5.659598E+05 -1.630240E+03  7.459782E+05 -7.598896E+03 -1.221039E+04
       305   8  9.754672E+05  5.900993E+05  3.159509E+04  7.686064E+05 -2.571326E+04 -2.107702E+04
       305   9  1.018475E+06  6.710903E+05  8.327268E+04  7.957761E+05 -4.359801E+04 -3.025306E+04
       305  10  1.058463E+06  6.859325E+05  4.809813E+04  8.272133E+05 -3.034429E-09  1.769568E-09
       305  11  1.023170E+06  6.185059E+05  4.557672E+04  7.898278E+05 -2.338639E-09  1.518290E-09
       305  12  9.614276E+05  6.078359E+05  6.112396E+04  7.569850E+05  1.682140E-09 -4.967680E-09
       305  13  9.822813E+05  6.259442E+05  2.323424E+04  7.865930E+05  2.453273E-12  1.742590E-09
       305  14  9.993177E+05  6.043022E+05  3.858490E+04  7.792167E+05 -1.845191E-09 -4.108547E-10
       305  15  9.899498E+05  6.394618E+05  7.219579E+04  7.763795E+05 -1.565042E-09 -4.001625E-09
       305  16  9.061050E+05  5.659596E+05 -1.630628E+03  7.459781E+05  9.204417E-10  3.781791E-09
       305  17  9.754664E+05  5.900987E+05  3.159302E+04  7.686060E+05 -3.850615E-09 -3.437237E-09
       305  18  1.018473E+06  6.710889E+05  8.326741E+04  7.957750E+05 -2.919591E-09  1.622023E-09
       305  19  1.058463E+06  6.859328E+05  4.809887E+04  8.272135E+05  1.222805E+04  1.570023E+04
       305  20  1.023171E+06  6.185068E+05  4.557949E+04  7.898284E+05  2.989987E+04  2.423291E+04
       305  21  9.614303E+05  6.078376E+05  6.113021E+04  7.569863E+05  4.733884E+04  3.307176E+04
       305  22  9.822814E+05  6.259445E+05  2.323479E+04  7.865931E+05  9.913289E+03  1.395515E+04
       305  23  9.993187E+05  6.043029E+05  3.858731E+04  7.792172E+05  2.780651E+04  2.265493E+04
       305  24  9.899523E+05  6.394634E+05  7.220155E+04  7.763807E+05  4.546847E+04  3.166248E+04
       305  25  9.061051E+05  5.659598E+05 -1.630240E+03  7.459782E+05  7.598896E+03  1.221039E+04
       305  26  9.754672E+05  5.900993E+05  3.159509E+04  7.686064E+05  2.571326E+04  2.107702E+04
       305  27  1.018475E+06  6.710903E+05  8.327268E+04  7.957761E+05  4.359801E+04  3.025306E+04
       306   1  8.599027E+05  5.971336E+05  6.106555E+04  7.671436E+05 -6.173979E+04 -3.996662E+04
       306   2  8.666003E+05  4.468778E+05  1.011265E+05  6.941190E+05 -1.220525E+05 -8.202016E+04
       306   3  9.911384E+05  5.509236E+05  2.614912E+05  5.324704E+05 -1.777161E+05 -1.302248E+05
       306   4  9.879913E+05  6.232802E+05  8.950328E+04  8.011355E+05 -5.796600E+04 -3.711590E+04
       306   5  9.798727E+05  5.860101E+05  1.479575E+05  7.772837E+05 -1.227399E+05 -8.254893E+04
       306   6  1.090505E+06  8.039402E+05  3.305596E+05  6.648152E+05 -1.828628E+05 -1.341525E+05
       306   7  1.116100E+06  6.494287E+05  1.179409E+05  8.351314E+05 -5.419111E+04 -3.426510E+04
       306   8  1.093161E+06  7.251700E+05  1.947867E+05  8.604706E+05 -1.234274E+05 -8.307793E+04
       306   9  1.189902E+06  1.057068E+06  3.996294E+05  7.972032E+05 -1.880106E+05 -1.380838E+05
       306  10  8.598982E+05  5.971308E+05  6.105541E+04  7.671416E+05 -1.560089E-09 -3.597155E-09
       306  11  8.665825E+05  4.468666E+05  1.010859E+05  6.941110E+05 -1.312001E-09 -1.953145E-09
       306  12  9.911000E+05  5.508970E+05  2.614002E+05  5.324517E+05  2.905462E-09  4.960415E-09
       306  13  9.879873E+05  6.232778E+05  8.949440E+04  8.011338E+05  1.119227E-09  3.219757E-10
       306  14  9.798548E+05  5.859988E+05  1.479165E+05  7.772756E+05 -6.689017E-10  3.760625E-09
       306  15  1.090465E+06  8.039120E+05  3.304632E+05  6.647955E+05 -1.340955E-09 -2.214217E-09
       306  16  1.116097E+06  6.494266E+05  1.179332E+05  8.351299E+05  8.291942E-10  6.203759E-09
       306  17  1.093143E+06  7.251585E+05  1.947452E+05  8.604624E+05 -1.585476E-09  2.030419E-09
       306  18  1.189859E+06  1.057038E+06  3.995275E+05  7.971823E+05 -2.263764E-09 -2.786673E-09
       306  19  8.599027E+05  5.971336E+05  6.106555E+04  7.671436E+05  6.173979E+04  3.996662E+04
       306  20  8.666003E+05  4.468778E+05  1.011265E+05  6.941190E+05  1.220525E+05  8.202016E+04
       306  21  9.911384E+05  5.509236E+05  2.614912E+05  5.324704E+05  1.777161E+05  1.302248E+05
       306  22  9.879913E+05  6.232802E+05  8.950328E+04  8.011355E+05  5.796600E+04  3.711590E+04
       306  23  9.798727E+05  5.860101E+05  1.479575E+05  7.772837E+05  1.227399E+05  8.254893E+04
       306  24  1.090505E+06  8.039402E+05  3.305596E+05  6.648152E+05  1.828628E+05  1.341525E+05
       306  25  1.116100E+06  6.494287E+05  1.179409E+05  8.351314E+05  5.419111E+04  3.426510E+04
       306  26  1.093161E+06  7.251700E+05  1.947867E+05  8.604706E+05  1.234274E+05  8.307793E+04
       306  27  1.189902E+06  1.057068E+06  3.996294E+05  7.972032E+05  1.880106E+05  1.380838E+05
       307   1  9.217434E+05  8.413390E+04  8.752764E+04  3.558927E+04  2.264754E+04 -2.842606E+03
       307   2  8.745227E+05  5.124779E+04  6.080381E+04  1.870051E+04  1.169167E+04 -8.502667E+03
       307   3  8.342217E+05  4.087405E+04  4.681615E+04  2.442206E+04  7.177585E+02 -7.420136E+03
       307   4  6.640462E+05  1.998183E+04  2.451143E+04  2.688425E+04  1.615565E+04 -2.860879E+03
       307   5  6.610128E+05 -1.303586E+03  1.146990E+04  1.560822E+04  1.006227E+04 -8.507542E+03
       307   6  6.640576E+05 -9.154883E+02  7.794249E+03  2.694264E+04  3.950097E+03 -7.410781E+03
       307   7  4.064097E+05 -4.417486E+04 -3.850944E+04  1.818280E+04  9.666453E+03 -2.878975E+03
       307   8  4.475450E+05 -5.385813E+04 -3.786703E+04  1.251698E+04  8.433433E+03 -8.512403E+03
       307   9  4.939204E+05 -4.270701E+04 -3.122952E+04  2.946250E+04  7.181557E+03 -7.401399E+03
       307  10  9.217429E+05  8.413376E+04  8.752666E+04  3.558933E+04 -1.798439E-10 -1.800838E-09
       307  11  8.745225E+05  5.124768E+04  6.080341E+04  1.870059E+04  1.384019E-09 -6.165683E-10
       307  12  8.342217E+05  4.087399E+04  4.681605E+04  2.442206E+04 -4.376961E-10 -4.544409E-09
       307  13  6.640460E+05  1.998175E+04  2.451092E+04  2.688429E+04  4.096552E-10  6.359818E-09
       307  14  6.610127E+05 -1.303691E+03  1.146958E+04  1.560829E+04 -4.320745E-10  1.041838E-09
       307  15  6.640576E+05 -9.155515E+02  7.794116E+03  2.694266E+04  1.181394E-09 -4.281708E-09
       307  16  4.064096E+05 -4.417489E+04 -3.850963E+04  1.818282E+04 -6.330222E-10  2.513515E-09
       307  17  4.475449E+05 -5.385823E+04 -3.786730E+04  1.251704E+04 -2.077105E-09 -8.628926E-10
       307  18  4.939203E+05 -4.270708E+04 -3.122972E+04  2.946254E+04 -5.605983E-10 -3.577687E-09
       307  19  9.217434E+05  8.413390E+04  8.752764E+04  3.558927E+04 -2.264754E+04  2.842606E+03
       307  20  8.745227E+05  5.124779E+04  6.080381E+04  1.870051E+04 -1.169167E+04  8.502667E+03
       307  21  8.342217E+05  4.087405E+04  4.681615E+04  2.442206E+04 -7.177585E+02  7.420136E+03
       307  22  6.640462E+05  1.998183E+04  2.451143E+04  2.688425E+04 -1.615565E+04  2.860879E+03
       307  23  6.610128E+05 -1.303586E+03  1.146990E+04  1.560822E+04 -1.006227E+04  8.507542E+03
       307  24  6.640576E+05 -9.154883E+02  7.794249E+03  2.694264E+04 -3.950097E+03  7.410781E+03
       307  25  4.064097E+05 -4.417486E+04 -3.850944E+04  1.818280E+04 -9.666453E+03  2.878975E+03
       307  26  4.475450E+05 -5.385813E+04 -3.786703E+04  1.251698E+04 -8.433433E+03  8.512403E+03
       307  27  4.939204E+05 -4.270701E+04 -3.122952E+04  2.946250E+04 -7.181557E+03  7.401399E+03
       308   1  7.912047E+05  3.316030E+04  3.647838E+04  2.786167E+04  1.561217E+03 -5.374616E+03
       308   2  7.473001E+05  2.075231E+04  2.522942E+04  1.593311E+04 -1.553657E+03 -3.625158E+03
       308   3  7.042255E+05  1.069880E+04  1.655868E+04  2.676573E+04 -4.669526E+03 -1.558287E+03
       308   4  6.628839E+05  1.604966E+03  6.944874E+03  2.695689E+04  2.713947E+03 -5.371267E+03
       308   5  6.624907E+05 -9.582827E+01  5.740567E+03  1.557783E+04 -1.717720E+02 -3.621047E+03
       308   6  6.628861E+05  5.184237E+02  6.955871E+03  2.696010E+04 -3.058699E+03 -1.553392E+03
       308   7  5.345784E+05 -2.995152E+04 -2.258972E+04  2.605229E+04  3.866442E+03 -5.367921E+03
       308   8  5.776879E+05 -2.094447E+04 -1.374875E+04  1.522259E+04  1.209926E+03 -3.616936E+03
       308   9  6.215482E+05 -9.662068E+03 -2.647043E+03  2.715446E+04 -1.447978E+03 -1.548495E+03
       308  10  7.912047E+05  3.316027E+04  3.647832E+04  2.786167E+04 -6.888309E-09 -1.857865E-10
       308  11  7.473001E+05  2.075230E+04  2.522939E+04  1.593311E+04  3.451547E-09  1.461383E-09
       308  12  7.042254E+05  1.069879E+04  1.655863E+04  2.676573E+04  7.618918E-09  4.740533E-09
       308  13  6.628839E+05  1.604933E+03  6.944806E+03  2.695690E+04 -3.944310E-11 -1.990968E-09
       308  14  6.624907E+05 -9.584236E+01  5.740543E+03  1.557783E+04 -7.686072E-10 -1.556465E-10
       308  15  6.628861E+05  5.184186E+02  6.955849E+03  2.696010E+04  1.259810E-09  3.975267E-09
       308  16  5.345783E+05 -2.995155E+04 -2.258980E+04  2.605230E+04  6.399629E-09 -6.380361E-10
       308  17  5.776879E+05 -2.094448E+04 -1.374878E+04  1.522259E+04 -5.011370E-09 -9.834681E-09
       308  18  6.215482E+05 -9.662071E+03 -2.647052E+03  2.715446E+04 -8.689148E-09  4.841881E-10
       308  19  7.912047E+05  3.316030E+04  3.647838E+04  2.786167E+04 -1.561217E+03  5.374616E+03
       308  20  7.473001E+05  2.075231E+04  2.522942E+04  1.593311E+04  1.553657E+03  3.625158E+03
       308  21  7.042255E+05  1.069880E+04  1.655868E+04  2.676573E+04  4.669526E+03  1.558287E+03
       308  22  6.628839E+05  1.604966E+03  6.944874E+03  2.695689E+04 -2.713947E+03  5.371267E+03
       308  23  6.624907E+05 -9.582827E+01  5.740567E+03  1.557783E+04  1.717720E+02  3.621047E+03
       308  24  6.628861E+05  5.184237E+02  6.955871E+03  2.696010E+04  3.058699E+03  1.553392E+03
       308  25  5.345784E+05 -2.995152E+04 -2.258972E+04  2.605229E+04 -3.866442E+03  5.367921E+03
       308  26  5.776879E+05 -2.094447E+04 -1.374875E+04  1.522259E+04 -1.209926E+03  3.616936E+03
       308  27  6.215482E+05 -9.662068E+03 -2.647043E+03  2.715446E+04  1.447978E+03  1.548495E+03
       309   1  6.629973E+05 -1.769375E+02  8.001181E+03  2.804215E+04 -5.989092E+03 -2.430328E+02
       309   2  6.183294E+05 -1.119470E+04  2.538646E+03  1.494138E+04 -1.216603E+04  1.818675E+03
       309   3  5.761025E+05 -1.499374E+04  2.861733E+03  2.457752E+04 -1.834156E+04  3.613766E+03
       309   4  6.632607E+05 -9.831132E+01  8.170670E+03  2.695977E+04 -4.394074E+03 -2.381578E+02
       309   5  6.620226E+05 -4.486633E+02  1.258521E+04  1.558157E+04 -1.076362E+04  1.822894E+03
       309   6  6.632561E+05  6.452666E+03  2.291841E+04  2.694001E+04 -1.713219E+04  3.617311E+03
       309   7  6.635240E+05 -1.967940E+01  8.340169E+03  2.587739E+04 -2.799055E+03 -2.332884E+02
       309   8  7.057176E+05  1.029725E+04  2.263166E+04  1.622179E+04 -9.361123E+03  1.827115E+03
       309   9  7.504166E+05  2.789856E+04  4.297459E+04  2.930284E+04 -1.592265E+04  3.620864E+03
       309  10  6.629973E+05 -1.769472E+02  8.001113E+03  2.804215E+04 -1.561334E-08  8.804176E-09
       309  11  6.183293E+05 -1.119475E+04  2.538361E+03  1.494140E+04 -6.854967E-09  1.480229E-09
       309  12  5.761022E+05 -1.499384E+04  2.861077E+03  2.457757E+04  4.385177E-09  2.433531E-09
       309  13  6.632606E+05 -9.831656E+01  8.170634E+03  2.695977E+04  1.730234E-11  6.142021E-09
       309  14  6.620225E+05 -4.486979E+02  1.258499E+04  1.558158E+04 -7.715931E-10  2.171773E-09
       309  15  6.632557E+05  6.452573E+03  2.291783E+04  2.694006E+04  1.262509E-09 -8.304332E-10
       309  16  6.635240E+05 -1.968155E+01  8.340154E+03  2.587739E+04  1.500753E-08  3.775748E-09
       309  17  7.057175E+05  1.029722E+04  2.263149E+04  1.622181E+04  5.585865E-09 -1.868382E-09
       309  18  7.504163E+05  2.789848E+04  4.297409E+04  2.930289E+04 -5.375825E-09 -8.783675E-09
       309  19  6.629973E+05 -1.769375E+02  8.001181E+03  2.804215E+04  5.989092E+03  2.430328E+02
       309  20  6.183294E+05 -1.119470E+04  2.538646E+03  1.494138E+04  1.216603E+04 -1.818675E+03
       309  21  5.761025E+05 -1.499374E+04  2.861733E+03  2.457752E+04  1.834156E+04 -3.613766E+03
       309  22  6.632607E+05 -9.831132E+01  8.170670E+03  2.695977E+04  4.394074E+03  2.381578E+02
       309  23  6.620226E+05 -4.486633E+02  1.258521E+04  1.558157E+04  1.076362E+04 -1.822894E+03
       309  24  6.632561E+05  6.452666E+03  2.291841E+04  2.694001E+04  1.713219E+04 -3.617311E+03
       309  25  6.635240E+05 -1.967940E+01  8.340169E+03  2.587739E+04  2.799055E+03  2.332884E+02
       309  26  7.057176E+05  1.029725E+04  2.263166E+04  1.622179E+04  9.361123E+03 -1.827115E+03
       309  27  7.504166E+05  2.789856E+04  4.297459E+04  2.930284E+04  1.592265E+04 -3.620864E+03
       310   1  5.395040E+05 -3.607412E+04 -1.306761E+03  3.910076E+04 -2.431224E+04  5.519315E+03
       310   2  4.833294E+05 -4.819127E+04  6.688314E+03  4.149439E+03 -4.502457E+04  6.726316E+03
       310   3  4.523974E+05  3.046214E+04  5.082429E+04 -8.348515E+03 -6.571906E+04  2.197666E+03
       310   4  6.684766E+05 -4.468420E+03  2.827469E+04  2.696258E+04 -2.133632E+04  5.528608E+03
       310   5  6.554864E+05 -5.740138E+03  4.650217E+04  1.560891E+04 -4.618790E+04  6.722003E+03
       310   6  6.684454E+05  8.446092E+04  1.037350E+05  2.670755E+04 -7.102332E+04  2.178881E+03
       310   7  7.974649E+05  2.713669E+04  5.785517E+04  1.482186E+04 -1.835979E+04  5.537783E+03
       310   8  8.276710E+05  3.670940E+04  8.631413E+04  2.707157E+04 -4.735155E+04  6.717647E+03
       310   9  8.845386E+05  1.384608E+05  1.566431E+05  6.177581E+04 -7.632942E+04  2.159502E+03
       310  10  5.395034E+05 -3.607431E+04 -1.307928E+03  3.910087E+04 -3.656856E-09  1.580785E-09
       310  11  4.833273E+05 -4.819187E+04  6.684422E+03  4.149683E+03 -1.222943E-09 -1.298728E-09
       310  12  4.523927E+05  3.046097E+04  5.081617E+04 -8.348398E+03  2.890994E-10  4.508466E-11
       310  13  6.684761E+05 -4.468575E+03  2.827378E+04  2.696268E+04  5.104817E-10  5.550453E-09
       310  14  6.554841E+05 -5.740758E+03  4.649808E+04  1.560916E+04 -1.177295E-09 -2.207782E-09
       310  15  6.684400E+05  8.445956E+04  1.037255E+05  2.670768E+04  1.554436E-09  2.365091E-09
       310  16  7.974645E+05  2.713657E+04  5.785448E+04  1.482194E+04  3.341235E-09  1.132302E-09
       310  17  8.276686E+05  3.670875E+04  8.630983E+04  2.707183E+04  4.086903E-10  7.876091E-10
       310  18  8.845323E+05  1.384592E+05  1.566321E+05  6.177594E+04 -1.157679E-09 -4.699726E-10
       310  19  5.395040E+05 -3.607412E+04 -1.306761E+03  3.910076E+04  2.431224E+04 -5.519315E+03
       310  20  4.833294E+05 -4.819127E+04  6.688314E+03  4.149439E+03  4.502457E+04 -6.726316E+03
       310  21  4.523974E+05  3.046214E+04  5.082429E+04 -8.348515E+03  6.571906E+04 -2.197666E+03
       310  22  6.684766E+05 -4.468420E+03  2.827469E+04  2.696258E+04  2.133632E+04 -5.528608E+03
       310  23  6.554864E+05 -5.740138E+03  4.650217E+04  1.560891E+04  4.618790E+04 -6.722003E+03
       310  24  6.684454E+05  8.446092E+04  1.037350E+05  2.670755E+04  7.102332E+04 -2.178881E+03
       310  25  7.974649E+05  2.713669E+04  5.785517E+04  1.482186E+04  1.835979E+04 -5.537783E+03
       310  26  8.276710E+05  3.670940E+04  8.631413E+04  2.707157E+04  4.735155E+04 -6.717647E+03
       310  27  8.845386E+05  1.384608E+05  1.566431E+05  6.177581E+04  7.632942E+04 -2.159502E+03
       311   1 -4.486489E+05 -1.722419E+06 -5.010614E+05  1.995984E+05 -8.496389E+03 -2.209933E+05
       311   2 -1.432932E+05 -1.515131E+06 -2.881053E+05  8.802021E+04 -2.557233E+04 -1.318153E+05
       311   3 -1.061117E+05 -1.385830E+06 -2.002495E+05  6.341186E+04 -2.082908E+04 -4.255953E+04
       311   4 -2.442240E+05 -9.050638E+05 -3.004919E+05  9.806419E+04 -8.507984E+03 -2.011783E+05
       311   5  1.661802E+04 -8.673806E+05 -1.380203E+05  5.486850E+04 -2.557286E+04 -1.275995E+05
       311   6  1.214339E+04 -9.049041E+05 -8.969282E+04  9.866187E+04 -2.080898E+04 -5.396919E+04
       311   7 -3.981033E+04 -8.707651E+04 -9.996463E+04 -3.603989E+03 -8.526085E+03 -1.813371E+05
       311   8  1.765037E+05 -2.192393E+05  1.203715E+04  2.168206E+04 -2.557384E+04 -1.233793E+05
       311   9  1.303871E+05 -4.237601E+05  2.084972E+04  1.339395E+05 -2.079019E+04 -6.538762E+04
       311  10 -4.486621E+05 -1.722471E+06 -5.011536E+05  1.995969E+05  1.202056E-10  1.091294E-09
       311  11 -1.432985E+05 -1.515150E+06 -2.881393E+05  8.801749E+04 -1.031799E-09  2.510318E-09
       311  12 -1.061126E+05 -1.385833E+06 -2.002537E+05  6.341114E+04 -4.979733E-10 -1.072379E-09
       311  13 -2.442350E+05 -9.051074E+05 -3.005682E+05  9.806282E+04  7.122906E-10 -4.462705E-09
       311  14  1.661294E+04 -8.673983E+05 -1.380522E+05  5.486587E+04 -5.703371E-10 -3.857927E-11
       311  15  1.214214E+04 -9.049073E+05 -8.969912E+04  9.866097E+04  4.247514E-10 -8.337897E-10
       311  16 -3.981924E+04 -8.711185E+04 -1.000266E+05 -3.605235E+03  1.995292E-12  1.719118E-09
       311  17  1.764989E+05 -2.192559E+05  1.200730E+04  2.167952E+04  2.107429E-09  6.075495E-09
       311  18  1.303855E+05 -4.237648E+05  2.084087E+04  1.339385E+05  1.563903E-09  1.372701E-09
       311  19 -4.486489E+05 -1.722419E+06 -5.010614E+05  1.995984E+05  8.496389E+03  2.209933E+05
       311  20 -1.432932E+05 -1.515131E+06 -2.881053E+05  8.802021E+04  2.557233E+04  1.318153E+05
       311  21 -1.061117E+05 -1.385830E+06 -2.002495E+05  6.341186E+04  2.082908E+04  4.255953E+04
       311  22 -2.442240E+05 -9.050638E+05 -3.004919E+05  9.806419E+04  8.507984E+03  2.011783E+05
       311  23  1.661802E+04 -8.673806E+05 -1.380203E+05  5.486850E+04  2.557286E+04  1.275995E+05
       311  24  1.214339E+04 -9.049041E+05 -8.969282E+04  9.866187E+04  2.080898E+04  5.396919E+04
       311  25 -3.981033E+04 -8.707651E+04 -9.996463E+04 -3.603989E+03  8.526085E+03  1.813371E+05
       311  26  1.765037E+05 -2.192393E+05  1.203715E+04  2.168206E+04  2.557384E+04  1.233793E+05
       311  27  1.303871E+05 -4.237601E+05  2.084972E+04  1.339395E+05  2.079019E+04  6.538762E+04
       312   1 -9.647629E+04 -1.209226E+06 -1.504001E+05  1.074526E+05 -1.334571E+04 -3.529487E+04
       312   2 -3.448600E+04 -1.034225E+06 -8.973351E+04  5.529306E+04 -6.392658E+03 -7.007702E+03
       312   3 -5.991333E+03 -8.708318E+05 -5.578971E+04  9.176091E+04  9.237545E+02  2.128609E+04
       312   4 -1.798284E+04 -8.907563E+05 -7.696156E+04  9.884229E+04 -1.333602E+04 -4.021070E+04
       312   5  2.274368E+03 -8.849547E+05 -5.537612E+04  5.453474E+04 -6.383490E+03 -1.217510E+04
       312   6 -1.091276E+04 -8.907379E+05 -6.032840E+04  9.885536E+04  9.329709E+02  1.585958E+04
       312   7  6.050378E+04 -5.721923E+05 -3.529690E+03  9.022759E+04 -1.332620E+04 -4.512903E+04
       312   8  3.903319E+04 -7.356632E+05 -2.102011E+04  5.377625E+04 -6.374311E+03 -1.734374E+04
       312   9 -1.583401E+04 -9.106435E+05 -6.486697E+04  1.059496E+05  9.420632E+02  1.043324E+04
       312  10 -9.647681E+04 -1.209228E+06 -1.504027E+05  1.074522E+05 -4.697421E-11  5.325671E-10
       312  11 -3.448605E+04 -1.034226E+06 -8.973368E+04  5.529302E+04  1.883563E-09  1.705839E-09
       312  12 -5.991456E+03 -8.708323E+05 -5.579057E+04  9.176090E+04  5.617411E-12 -7.054987E-10
       312  13 -1.798346E+04 -8.907581E+05 -7.696494E+04  9.884185E+04  3.361702E-10 -4.228212E-09
       312  14  2.274284E+03 -8.849549E+05 -5.537648E+04  5.453468E+04 -1.389541E-09 -1.892562E-09
       312  15 -1.091283E+04 -8.907382E+05 -6.032887E+04  9.885535E+04 -1.648296E-10 -1.168879E-09
       312  16  6.050304E+04 -5.721945E+05 -3.533854E+03  9.022711E+04  7.195585E-11  6.850611E-10
       312  17  3.903306E+04 -7.356636E+05 -2.102075E+04  5.377616E+04 -1.563476E-09  3.983037E-09
       312  18 -1.583404E+04 -9.106436E+05 -6.486717E+04  1.059496E+05 -3.866658E-10  1.898605E-09
       312  19 -9.647629E+04 -1.209226E+06 -1.504001E+05  1.074526E+05  1.334571E+04  3.529487E+04
       312  20 -3.448600E+04 -1.034225E+06 -8.973351E+04  5.529306E+04  6.392658E+03  7.007702E+03
       312  21 -5.991333E+03 -8.708318E+05 -5.578971E+04  9.176091E+04 -9.237545E+02 -2.128609E+04
       312  22 -1.798284E+04 -8.907563E+05 -7.696156E+04  9.884229E+04  1.333602E+04  4.021070E+04
       312  23  2.274368E+03 -8.849547E+05 -5.537612E+04  5.453474E+04  6.383490E+03  1.217510E+04
       312  24 -1.091276E+04 -8.907379E+05 -6.032840E+04  9.885536E+04 -9.329709E+02 -1.585958E+04
       312  25  6.050378E+04 -5.721923E+05 -3.529690E+03  9.022759E+04  1.332620E+04  4.512903E+04
       312  26  3.903319E+04 -7.356632E+05 -2.102011E+04  5.377625E+04  6.374311E+03  1.734374E+04
       312  27 -1.583401E+04 -9.106435E+05 -6.486697E+04  1.059496E+05 -9.420632E+02 -1.043324E+04
       313   1  5.172601E+04 -7.163490E+05 -2.347419E+04  1.214608E+05  7.606750E+03  3.595014E+04
       313   2  9.718417E+04 -5.241265E+05 -1.035127E+04  3.367435E+04  1.357660E+04  7.426360E+04
       313   3 -2.529512E+04 -3.783338E+05 -6.405342E+04  3.369744E+04  4.975413E+03  1.125596E+05
       313   4  6.864140E+03 -8.988952E+05 -6.553965E+04  9.876995E+04  7.621681E+03  2.635611E+04
       313   5  1.064052E+04 -8.747856E+05 -9.167687E+04  5.469968E+04  1.357799E+04  7.512598E+04
       313   6 -1.553977E+05 -8.989920E+05 -1.919394E+05  9.845099E+04  4.964973E+03  1.238673E+05
       313   7 -3.799806E+04 -1.081409E+06 -1.076067E+05  7.608589E+04  7.637317E+03  1.676487E+04
       313   8 -7.591018E+04 -1.225330E+06 -1.730105E+05  7.571309E+04  1.357943E+04  7.598787E+04
       313   9 -2.855047E+05 -1.419394E+06 -3.198426E+05  1.631502E+05  4.956893E+03  1.351655E+05
       313  10  5.172560E+04 -7.163504E+05 -2.347673E+04  1.214605E+05 -9.586101E-10  2.045682E-09
       313  11  9.718249E+04 -5.241325E+05 -1.036199E+04  3.367353E+04  1.953947E-09  2.734725E-09
       313  12 -2.529855E+04 -3.783474E+05 -6.407729E+04  3.369699E+04  6.977643E-10 -5.236718E-10
       313  13  6.863890E+03 -8.988960E+05 -6.554106E+04  9.876979E+04  2.943258E-10 -3.386336E-09
       313  14  1.063880E+04 -8.747917E+05 -9.168784E+04  5.469886E+04  5.186831E-10  5.308799E-10
       313  15 -1.554018E+05 -8.990085E+05 -1.919683E+05  9.845050E+04  4.386089E-10 -6.579072E-10
       313  16 -3.799820E+04 -1.081410E+06 -1.076073E+05  7.608579E+04  1.005416E-09 -2.716200E-10
       313  17 -7.591193E+04 -1.225336E+06 -1.730217E+05  7.571226E+04  1.632995E-09  4.058525E-09
       313  18 -2.855096E+05 -1.419414E+06 -3.198770E+05  1.631497E+05 -2.622886E-10  3.483094E-10
       313  19  5.172601E+04 -7.163490E+05 -2.347419E+04  1.214608E+05 -7.606750E+03 -3.595014E+04
       313  20  9.718417E+04 -5.241265E+05 -1.035127E+04  3.367435E+04 -1.357660E+04 -7.426360E+04
       313  21 -2.529512E+04 -3.783338E+05 -6.405342E+04  3.369744E+04 -4.975413E+03 -1.125596E+05
       313  22  6.864140E+03 -8.988952E+05 -6.553965E+04  9.876995E+04 -7.621681E+03 -2.635611E+04
       313  23  1.064052E+04 -8.747856E+05 -9.167687E+04  5.469968E+04 -1.357799E+04 -7.512598E+04
       313  24 -1.553977E+05 -8.989920E+05 -1.919394E+05  9.845099E+04 -4.964973E+03 -1.238673E+05
       313  25 -3.799806E+04 -1.081409E+06 -1.076067E+05  7.608589E+04 -7.637317E+03 -1.676487E+04
       313  26 -7.591018E+04 -1.225330E+06 -1.730105E+05  7.571309E+04 -1.357943E+04 -7.598787E+04
       313  27 -2.855047E+05 -1.419394E+06 -3.198426E+05  1.631502E+05 -4.956893E+03 -1.351655E+05
       314   1  5.044622E+05  3.274401E+05  4.770867E+04  3.733547E+05  3.877546E+04  3.103046E+04
       314   2  4.979397E+05  2.755504E+05  1.013806E+04  4.023969E+05  2.395315E+04  2.346215E+04
       314   3  5.353331E+05  2.666384E+05  1.832846E+02  4.059683E+05  1.100520E+04  1.340802E+04
       314   4  6.179815E+05  3.660911E+05  7.747820E+04  4.102692E+05  4.133753E+04  3.296007E+04
       314   5  5.838037E+05  3.232504E+05  3.489042E+04  4.389727E+05  2.471975E+04  2.403962E+04
       314   6  5.939262E+05  3.237704E+05  2.147389E+04  4.422070E+05  9.977067E+03  1.263305E+04
       314   7  7.315149E+05  4.047433E+05  1.072468E+05  4.471885E+05  4.390024E+04  3.488983E+04
       314   8  6.696755E+05  3.709524E+05  5.964195E+04  4.755534E+05  2.548649E+04  2.461716E+04
       314   9  6.525230E+05  3.809066E+05  4.276397E+04  4.784501E+05  8.948807E+03  1.185795E+04
       314  10  5.044603E+05  3.274387E+05  4.770404E+04  3.733537E+05  4.078273E-09  4.145901E-09
       314  11  4.979389E+05  2.755496E+05  1.013595E+04  4.023964E+05  1.524661E-10 -1.044810E-09
       314  12  5.353329E+05  2.666381E+05  1.827199E+02  4.059682E+05 -8.784179E-09 -3.532652E-09
       314  13  6.179794E+05  3.660895E+05  7.747296E+04  4.102681E+05  3.729026E-10 -9.005493E-10
       314  14  5.838029E+05  3.232496E+05  3.488819E+04  4.389722E+05  1.777464E-09  1.583862E-08
       314  15  5.939261E+05  3.237702E+05  2.147340E+04  4.422069E+05 -2.247839E-09  1.307531E-09
       314  16  7.315125E+05  4.047415E+05  1.072409E+05  4.471873E+05 -2.032106E-09 -4.810441E-09
       314  17  6.696746E+05  3.709516E+05  5.963959E+04  4.755529E+05  4.605247E-09 -7.127369E-09
       314  18  6.525229E+05  3.809064E+05  4.276356E+04  4.784500E+05  3.694742E-09 -2.301185E-09
       314  19  5.044622E+05  3.274401E+05  4.770867E+04  3.733547E+05 -3.877546E+04 -3.103046E+04
       314  20  4.979397E+05  2.755504E+05  1.013806E+04  4.023969E+05 -2.395315E+04 -2.346215E+04
       314  21  5.353331E+05  2.666384E+05  1.832846E+02  4.059683E+05 -1.100520E+04 -1.340802E+04
       314  22  6.179815E+05  3.660911E+05  7.747820E+04  4.102692E+05 -4.133753E+04 -3.296007E+04
       314  23  5.838037E+05  3.232504E+05  3.489042E+04  4.389727E+05 -2.471975E+04 -2.403962E+04
       314  24  5.939262E+05  3.237704E+05  2.147389E+04  4.422070E+05 -9.977067E+03 -1.263305E+04
       314  25  7.315149E+05  4.047433E+05  1.072468E+05  4.471885E+05 -4.390024E+04 -3.488983E+04
       314  26  6.696755E+05  3.709524E+05  5.964195E+04  4.755534E+05 -2.548649E+04 -2.461716E+04
       314  27  6.525230E+05  3.809066E+05  4.276397E+04  4.784501E+05 -8.948807E+03 -1.185795E+04
       315   1  5.353394E+05  2.880412E+05 -6.050750E+02  4.081758E+05  8.137892E+03  1.027303E+04
       315   2  5.407813E+05  2.942882E+05 -4.601895E+03  4.160268E+05  4.395334E+03  6.791343E+03
       315   3  5.565810E+05  2.974398E+05 -3.971420E+03  4.202388E+05  7.438377E+02  3.188550E+03
       315   4  5.944078E+05  3.275590E+05  1.761006E+04  4.364153E+05  7.879162E+03  1.007787E+04
       315   5  5.883291E+05  3.275290E+05  1.029347E+04  4.394190E+05  4.048875E+03  6.530099E+03
       315   6  5.926265E+05  3.244222E+05  7.679851E+03  4.387836E+05  3.097782E+02  2.861303E+03
       315   7  6.534803E+05  3.670788E+05  3.582494E+04  4.646579E+05  7.620396E+03  9.882692E+03
       315   8  6.358793E+05  3.607709E+05  2.518855E+04  4.628131E+05  3.702381E+03  6.268828E+03
       315   9  6.286731E+05  3.514052E+05  1.933086E+04  4.573294E+05 -1.243123E+02  2.534030E+03
       315  10  5.353393E+05  2.880410E+05 -6.053974E+02  4.081757E+05 -1.672805E-10  5.093024E-09
       315  11  5.407813E+05  2.942882E+05 -4.602017E+03  4.160268E+05  1.771386E-09  2.365471E-09
       315  12  5.565810E+05  2.974398E+05 -3.971440E+03  4.202388E+05  2.472910E-09  1.234209E-10
       315  13  5.944077E+05  3.275589E+05  1.760976E+04  4.364152E+05 -3.797187E-09 -6.809473E-09
       315  14  5.883291E+05  3.275289E+05  1.029336E+04  4.394190E+05 -4.636783E-10 -1.639546E-09
       315  15  5.926265E+05  3.244222E+05  7.679835E+03  4.387836E+05 -2.059027E-11  1.483515E-09
       315  16  6.534803E+05  3.670787E+05  3.582465E+04  4.646578E+05 -7.455843E-09 -4.527756E-09
       315  17  6.358793E+05  3.607709E+05  2.518845E+04  4.628131E+05 -3.843199E-09 -4.988916E-09
       315  18  6.286731E+05  3.514052E+05  1.933085E+04  4.573294E+05 -1.195657E-09 -1.445393E-09
       315  19  5.353394E+05  2.880412E+05 -6.050750E+02  4.081758E+05 -8.137892E+03 -1.027303E+04
       315  20  5.407813E+05  2.942882E+05 -4.601895E+03  4.160268E+05 -4.395334E+03 -6.791343E+03
       315  21  5.565810E+05  2.974398E+05 -3.971420E+03  4.202388E+05 -7.438377E+02 -3.188550E+03
       315  22  5.944078E+05  3.275590E+05  1.761006E+04  4.364153E+05 -7.879162E+03 -1.007787E+04
       315  23  5.883291E+05  3.275290E+05  1.029347E+04  4.394190E+05 -4.048875E+03 -6.530099E+03
       315  24  5.926265E+05  3.244222E+05  7.679851E+03  4.387836E+05 -3.097782E+02 -2.861303E+03
       315  25  6.534803E+05  3.670788E+05  3.582494E+04  4.646579E+05 -7.620396E+03 -9.882692E+03
       315  26  6.358793E+05  3.607709E+05  2.518855E+04  4.628131E+05 -3.702381E+03 -6.268828E+03
       315  27  6.286731E+05  3.514052E+05  1.933086E+04  4.573294E+05  1.243123E+02 -2.534030E+03
       316   1  5.655209E+05  3.056950E+05 -1.168376E+03  4.250755E+05 -9.846421E+01  2.019729E+03
       316   2  5.720045E+05  3.159853E+05  2.708192E+03  4.311821E+05 -2.841051E+03 -9.115807E+02
       316   3  5.866933E+05  3.203655E+05  9.512818E+03  4.349801E+05 -5.582566E+03 -3.844562E+03
       316   4  5.926365E+05  3.246589E+05  7.287662E+03  4.384259E+05 -4.948141E+02  1.720920E+03
       316   5  5.886343E+05  3.277910E+05  7.948641E+03  4.394464E+05 -3.238660E+03 -1.211329E+03
       316   6  5.928375E+05  3.250132E+05  1.153868E+04  4.381581E+05 -5.981373E+03 -4.145208E+03
       316   7  6.197528E+05  3.436232E+05  1.574361E+04  4.517770E+05 -8.911878E+02  1.422094E+03
       316   8  6.052645E+05  3.395970E+05  1.318908E+04  4.477109E+05 -3.636285E+03 -1.511089E+03
       316   9  5.989817E+05  3.296610E+05  1.356456E+04  4.413360E+05 -6.380188E+03 -4.445860E+03
       316  10  5.655209E+05  3.056950E+05 -1.168383E+03  4.250755E+05 -1.251840E-09 -4.636762E-09
       316  11  5.720045E+05  3.159853E+05  2.708175E+03  4.311821E+05 -2.294931E-09 -3.519534E-09
       316  12  5.866932E+05  3.203655E+05  9.512732E+03  4.349801E+05  1.211732E-09  2.433725E-09
       316  13  5.926365E+05  3.246589E+05  7.287656E+03  4.384259E+05  1.214725E-09 -2.668594E-09
       316  14  5.886343E+05  3.277910E+05  7.948618E+03  4.394464E+05 -6.249101E-11 -2.856578E-10
       316  15  5.928374E+05  3.250132E+05  1.153858E+04  4.381580E+05  1.072613E-10 -5.268320E-09
       316  16  6.197528E+05  3.436231E+05  1.574361E+04  4.517770E+05  2.220519E-09  4.471301E-09
       316  17  6.052645E+05  3.395970E+05  1.318905E+04  4.477109E+05 -1.572787E-09 -8.542758E-09
       316  18  5.989817E+05  3.296609E+05  1.356444E+04  4.413360E+05 -1.991441E-09 -7.625287E-09
       316  19  5.655209E+05  3.056950E+05 -1.168376E+03  4.250755E+05  9.846421E+01 -2.019729E+03
       316  20  5.720045E+05  3.159853E+05  2.708192E+03  4.311821E+05  2.841051E+03  9.115807E+02
       316  21  5.866933E+05  3.203655E+05  9.512818E+03  4.349801E+05  5.582566E+03  3.844562E+03
       316  22  5.926365E+05  3.246589E+05  7.287662E+03  4.384259E+05  4.948141E+02 -1.720920E+03
       316  23  5.886343E+05  3.277910E+05  7.948641E+03  4.394464E+05  3.238660E+03  1.211329E+03
       316  24  5.928375E+05  3.250132E+05  1.153868E+04  4.381581E+05  5.981373E+03  4.145208E+03
       316  25  6.197528E+05  3.436232E+05  1.574361E+04  4.517770E+05  8.911878E+02 -1.422094E+03
       316  26  6.052645E+05  3.395970E+05  1.318908E+04  4.477109E+05  3.636285E+03  1.511089E+03
       316  27  5.989817E+05  3.296610E+05  1.356456E+04  4.413360E+05  6.380188E+03  4.445860E+03
       317   1  5.944679E+05  3.288870E+05  1.542856E+04  4.416460E+05 -7.125639E+03 -5.532225E+03
       317   2  6.024623E+05  3.357396E+05  2.773832E+04  4.459417E+05 -1.620569E+04 -1.323246E+04
       317   3  6.255801E+05  3.458060E+05  5.113681E+04  4.440953E+05 -2.534472E+04 -2.085481E+04
       317   4  5.928612E+05  3.243790E+05  1.426431E+04  4.393115E+05 -7.546713E+03 -5.849617E+03
       317   5  5.876126E+05  3.268412E+05  2.335764E+04  4.393156E+05 -1.657028E+04 -1.350736E+04
       317   6  5.974753E+05  3.325053E+05  4.349112E+04  4.331777E+05 -2.565258E+04 -2.108717E+04
       317   7  5.912546E+05  3.198710E+05  1.310007E+04  4.369770E+05 -7.967783E+03 -6.167002E+03
       317   8  5.727631E+05  3.179429E+05  1.897696E+04  4.326897E+05 -1.693485E+04 -1.378225E+04
       317   9  5.693713E+05  3.192048E+05  3.584537E+04  4.222606E+05 -2.596042E+04 -2.131952E+04
       317  10  5.944678E+05  3.288869E+05  1.542840E+04  4.416460E+05  1.550582E-09 -2.037436E-09
       317  11  6.024620E+05  3.357393E+05  2.773750E+04  4.459415E+05  1.024073E-09 -5.201577E-09
       317  12  6.255793E+05  3.458053E+05  5.113479E+04  4.440949E+05 -9.479896E-10 -1.088113E-09
       317  13  5.928612E+05  3.243789E+05  1.426414E+04  4.393115E+05  2.523448E-09  1.138839E-10
       317  14  5.876122E+05  3.268409E+05  2.335679E+04  4.393154E+05  9.563666E-10 -1.098338E-09
       317  15  5.974744E+05  3.325047E+05  4.348905E+04  4.331773E+05  5.797641E-10  9.147449E-09
       317  16  5.912545E+05  3.198710E+05  1.309988E+04  4.369770E+05 -7.227951E-10 -2.535373E-09
       317  17  5.727627E+05  3.179426E+05  1.897606E+04  4.326895E+05 -1.016077E-09  3.604455E-09
       317  18  5.693705E+05  3.192042E+05  3.584326E+04  4.222601E+05  2.822248E-09  4.624424E-09
       317  19  5.944679E+05  3.288870E+05  1.542856E+04  4.416460E+05  7.125639E+03  5.532225E+03
       317  20  6.024623E+05  3.357396E+05  2.773832E+04  4.459417E+05  1.620569E+04  1.323246E+04
       317  21  6.255801E+05  3.458060E+05  5.113681E+04  4.440953E+05  2.534472E+04  2.085481E+04
       317  22  5.928612E+05  3.243790E+05  1.426431E+04  4.393115E+05  7.546713E+03  5.849617E+03
       317  23  5.876126E+05  3.268412E+05  2.335764E+04  4.393156E+05  1.657028E+04  1.350736E+04
       317  24  5.974753E+05  3.325053E+05  4.349112E+04  4.331777E+05  2.565258E+04  2.108717E+04
       317  25  5.912546E+05  3.198710E+05  1.310007E+04  4.369770E+05  7.967783E+03  6.167002E+03
       317  26  5.727631E+05  3.179429E+05  1.897696E+04  4.326897E+05  1.693485E+04  1.378225E+04
       317  27  5.693713E+05  3.192048E+05  3.584537E+04  4.222606E+05  2.596042E+04  2.131952E+04
       318   1  6.074072E+05  3.700081E+05  6.460996E+04  4.716073E+05 -3.083973E+04 -2.580206E+04
       318   2  6.407093E+05  3.270927E+05  1.030633E+05  4.544287E+05 -6.971365E+04 -5.560099E+04
       318   3  7.766081E+05  4.069535E+05  2.171779E+05  3.751000E+05 -1.097890E+05 -8.380818E+04
       318   4  5.962697E+05  3.227869E+05  5.386510E+04  4.480630E+05 -3.163915E+04 -2.640282E+04
       318   5  5.759540E+05  3.158323E+05  8.896777E+04  4.381615E+05 -6.936329E+04 -5.534067E+04
       318   6  6.579844E+05  4.314099E+05  1.987397E+05  3.661109E+05 -1.082834E+05 -8.269143E+04
       318   7  5.851332E+05  2.755696E+05  4.312032E+04  4.245197E+05 -3.243856E+04 -2.700348E+04
       318   8  5.112040E+05  3.045725E+05  7.487221E+04  4.218952E+05 -6.901299E+04 -5.508036E+04
       318   9  5.393845E+05  4.558738E+05  1.803036E+05  3.571188E+05 -1.067782E+05 -8.157451E+04
       318  10  6.074060E+05  3.700071E+05  6.460693E+04  4.716066E+05  3.412467E-10  4.556156E-09
       318  11  6.407033E+05  3.270881E+05  1.030484E+05  4.544256E+05  1.716225E-09 -3.906965E-10
       318  12  7.765933E+05  4.069428E+05  2.171421E+05  3.750926E+05  9.304703E-11 -3.169818E-09
       318  13  5.962684E+05  3.227859E+05  5.386191E+04  4.480623E+05  1.125852E-09 -4.039915E-09
       318  14  5.759480E+05  3.158278E+05  8.895300E+04  4.381584E+05  3.025383E-09  7.597402E-09
       318  15  6.579700E+05  4.313994E+05  1.987048E+05  3.661036E+05 -3.084508E-10  2.750294E-09
       318  16  5.851318E+05  2.755685E+05  4.311697E+04  4.245190E+05  3.369600E-10  1.750822E-09
       318  17  5.111981E+05  3.045679E+05  7.485758E+04  4.218921E+05 -6.290244E-10 -2.898673E-09
       318  18  5.393704E+05  4.558636E+05  1.802697E+05  3.571118E+05  7.610269E-10  6.945494E-10
       318  19  6.074072E+05  3.700081E+05  6.460996E+04  4.716073E+05  3.083973E+04  2.580206E+04
       318  20  6.407093E+05  3.270927E+05  1.030633E+05  4.544287E+05  6.971365E+04  5.560099E+04
       318  21  7.766081E+05  4.069535E+05  2.171779E+05  3.751000E+05  1.097890E+05  8.380818E+04
       318  22  5.962697E+05  3.227869E+05  5.386510E+04  4.480630E+05  3.163915E+04  2.640282E+04
       318  23  5.759540E+05  3.158323E+05  8.896777E+04  4.381615E+05  6.936329E+04  5.534067E+04
       318  24  6.579844E+05  4.314099E+05  1.987397E+05  3.661109E+05  1.082834E+05  8.269143E+04
       318  25  5.851332E+05  2.755696E+05  4.312032E+04  4.245197E+05  3.243856E+04  2.700348E+04
       318  26  5.112040E+05  3.045725E+05  7.487221E+04  4.218952E+05  6.901299E+04  5.508036E+04
       318  27  5.393845E+05  4.558738E+05  1.803036E+05  3.571188E+05  1.067782E+05  8.157451E+04
       319   1  4.339394E+05  6.473209E+04  6.460386E+04  2.758799E+04  9.434303E+03 -2.687737E+03
       319   2  3.897024E+05  4.865337E+04  4.852292E+04  1.512806E+04  3.472192E+03 -7.923401E+03
       319   3  3.475121E+05  3.820281E+04  3.771032E+04  2.503084E+04 -2.507693E+03 -6.793296E+03
       319   4  1.917758E+05  4.453037E+03  5.354294E+03  2.528787E+04  3.381333E+03 -2.705048E+03
       319   5  1.911534E+05 -2.294086E+02  2.619914E+03  1.411286E+04  2.005690E+03 -7.927860E+03
       319   6  1.917807E+05 -7.851968E+01  1.970965E+03  2.530090E+04  6.118420E+02 -6.784022E+03
       319   7 -5.033432E+04 -5.583032E+04 -5.389942E+04  2.298862E+04 -2.669283E+03 -2.722318E+03
       319   8 -7.359262E+03 -4.911495E+04 -4.328572E+04  1.309796E+04  5.396540E+02 -7.932315E+03
       319   9  3.607183E+04 -3.836154E+04 -3.376995E+04  2.557087E+04  3.730601E+03 -6.774745E+03
       319  10  4.339393E+05  6.473206E+04  6.460368E+04  2.758801E+04 -6.873585E-09 -3.727996E-10
       319  11  3.897024E+05  4.865330E+04  4.852278E+04  1.512808E+04  1.549148E-10  8.579979E-09
       319  12  3.475120E+05  3.820276E+04  3.771022E+04  2.503083E+04  3.181399E-09  4.940764E-09
       319  13  1.917758E+05  4.453026E+03  5.354258E+03  2.528788E+04 -1.240438E-10 -4.560435E-09
       319  14  1.911533E+05 -2.294772E+02  2.619788E+03  1.411287E+04 -1.031145E-09 -6.640620E-09
       319  15  1.917807E+05 -7.856920E+01  1.970878E+03  2.530091E+04  1.203422E-09  1.667030E-09
       319  16 -5.033433E+04 -5.583033E+04 -5.389945E+04  2.298861E+04  5.906494E-09  1.102516E-10
       319  17 -7.359279E+03 -4.911502E+04 -4.328584E+04  1.309797E+04 -9.756110E-10  6.670763E-09
       319  18  3.607180E+04 -3.836159E+04 -3.377006E+04  2.557090E+04 -4.228172E-09 -2.917256E-09
       319  19  4.339394E+05  6.473209E+04  6.460386E+04  2.758799E+04 -9.434303E+03  2.687737E+03
       319  20  3.897024E+05  4.865337E+04  4.852292E+04  1.512806E+04 -3.472192E+03  7.923401E+03
       319  21  3.475121E+05  3.820281E+04  3.771032E+04  2.503084E+04  2.507693E+03  6.793296E+03
       319  22  1.917758E+05  4.453037E+03  5.354294E+03  2.528787E+04 -3.381333E+03  2.705048E+03
       319  23  1.911534E+05 -2.294086E+02  2.619914E+03  1.411286E+04 -2.005690E+03  7.927860E+03
       319  24  1.917807E+05 -7.851968E+01  1.970965E+03  2.530090E+04 -6.118420E+02  6.784022E+03
       319  25 -5.033432E+04 -5.583032E+04 -5.389942E+04  2.298862E+04  2.669283E+03  2.722318E+03
       319  26 -7.359262E+03 -4.911495E+04 -4.328572E+04  1.309796E+04 -5.396540E+02  7.932315E+03
       319  27  3.607183E+04 -3.836154E+04 -3.376995E+04  2.557087E+04 -3.730601E+03  6.774745E+03
       320   1  3.058737E+05  2.858661E+04  2.821169E+04  2.576285E+04 -8.804601E+02 -4.802468E+03
       320   2  2.626907E+05  1.754762E+04  1.829691E+04  1.426828E+04 -2.062269E+03 -3.045287E+03
       320   3  2.196876E+05  7.278893E+03  9.306709E+03  2.533640E+04 -3.245110E+03 -9.882967E+02
       320   4  1.915368E+05  4.582394E+02  1.885023E+03  2.534111E+04  2.797425E+02 -4.798996E+03
       320   5  1.914675E+05  3.033707E+01  1.920013E+03  1.405987E+04 -6.860587E+02 -3.041092E+03
       320   6  1.915384E+05  3.352042E+02  2.729611E+03  2.534147E+04 -1.652975E+03 -9.833569E+02
       320   7  7.721196E+04 -2.767104E+04 -2.444251E+04  2.491943E+04  1.439733E+03 -4.795526E+03
       320   8  1.202491E+05 -1.748730E+04 -1.445721E+04  1.385148E+04  6.899948E+02 -3.036898E+03
       320   9  1.633899E+05 -6.608540E+03 -3.847531E+03  2.534654E+04 -6.091291E+01 -9.784169E+02
       320  10  3.058737E+05  2.858658E+04  2.821165E+04  2.576285E+04 -3.560342E-09 -1.494536E-09
       320  11  2.626907E+05  1.754761E+04  1.829688E+04  1.426828E+04  2.608972E-09  4.434394E-09
       320  12  2.196876E+05  7.278889E+03  9.306688E+03  2.533640E+04  6.977221E-09  8.748108E-09
       320  13  1.915368E+05  4.582147E+02  1.884980E+03  2.534111E+04  1.379563E-10  1.113846E-08
       320  14  1.914675E+05  3.032701E+01  1.919995E+03  1.405987E+04 -1.158770E-09 -1.774058E-08
       320  15  1.915384E+05  3.352024E+02  2.729604E+03  2.534147E+04  1.451591E-09  7.242778E-09
       320  16  7.721196E+04 -2.767107E+04 -2.444256E+04  2.491944E+04  2.370753E-09 -1.012715E-08
       320  17  1.202491E+05 -1.748731E+04 -1.445723E+04  1.385149E+04 -3.470613E-09 -5.610421E-09
       320  18  1.633899E+05 -6.608541E+03 -3.847533E+03  2.534654E+04 -7.502447E-09  8.993932E-10
       320  19  3.058737E+05  2.858661E+04  2.821169E+04  2.576285E+04  8.804601E+02  4.802468E+03
       320  20  2.626907E+05  1.754762E+04  1.829691E+04  1.426828E+04  2.062269E+03  3.045287E+03
       320  21  2.196876E+05  7.278893E+03  9.306709E+03  2.533640E+04  3.245110E+03  9.882967E+02
       320  22  1.915368E+05  4.582394E+02  1.885023E+03  2.534111E+04 -2.797425E+02  4.798996E+03
       320  23  1.914675E+05  3.033707E+01  1.920013E+03  1.405987E+04  6.860587E+02  3.041092E+03
       320  24  1.915384E+05  3.352042E+02  2.729611E+03  2.534147E+04  1.652975E+03  9.833569E+02
       320  25  7.721196E+04 -2.767104E+04 -2.444251E+04  2.491943E+04 -1.439733E+03  4.795526E+03
       320  26  1.202491E+05 -1.748730E+04 -1.445721E+04  1.385148E+04 -6.899948E+02  3.036898E+03
       320  27  1.633899E+05 -6.608540E+03 -3.847531E+03  2.534654E+04  6.091291E+01  9.784169E+02
       321   1  1.786128E+05 -3.227821E+03  2.333195E+02  2.579274E+04 -3.779030E+03  3.189820E+02
       321   2  1.350426E+05 -1.397358E+04 -7.468892E+03  1.369124E+04 -6.340663E+03  2.373635E+03
       321   3  9.244849E+04 -2.147205E+04 -1.273014E+04  2.414666E+04 -8.901140E+03  4.147224E+03
       321   4  1.917318E+05  1.666392E+01  3.356654E+03  2.534283E+04 -2.192612E+03  3.239129E+02
       321   5  1.912260E+05 -1.522590E+02  5.453079E+03  1.405994E+04 -4.956922E+03  2.377871E+03
       321   6  1.917301E+05  2.961340E+03  1.013116E+04  2.533380E+04 -7.720254E+03  4.150776E+03
       321   7  2.048511E+05  3.261139E+03  6.479986E+03  2.489290E+04 -6.061598E+02  3.288414E+02
       321   8  2.474124E+05  1.366884E+04  1.837485E+04  1.442867E+04 -3.573058E+03  2.382108E+03
       321   9  2.910209E+05  2.739404E+04  3.299182E+04  2.652112E+04 -6.539181E+03  4.154333E+03
       321  10  1.786128E+05 -3.227825E+03  2.332925E+02  2.579274E+04 -5.829382E-09 -2.850486E-09
       321  11  1.350425E+05 -1.397359E+04 -7.468978E+03  1.369125E+04  3.141439E-09 -3.705313E-09
       321  12  9.244840E+04 -2.147209E+04 -1.273032E+04  2.414669E+04  9.931032E-09 -1.324464E-09
       321  13  1.917318E+05  1.666252E+01  3.356645E+03  2.534283E+04  4.752718E-11 -1.693026E-09
       321  14  1.912260E+05 -1.522717E+02  5.453022E+03  1.405995E+04 -9.144499E-10 -7.318082E-09
       321  15  1.917300E+05  2.961305E+03  1.013102E+04  2.533383E+04  1.301092E-09 -2.646596E-10
       321  16  2.048511E+05  3.261138E+03  6.479985E+03  2.489290E+04  4.938162E-09 -7.133543E-09
       321  17  2.474123E+05  1.366883E+04  1.837481E+04  1.442868E+04 -3.811132E-09  2.196202E-09
       321  18  2.910208E+05  2.739401E+04  3.299170E+04  2.652115E+04 -1.064612E-08  8.361848E-09
       321  19  1.786128E+05 -3.227821E+03  2.333195E+02  2.579274E+04  3.779030E+03 -3.189820E+02
       321  20  1.350426E+05 -1.397358E+04 -7.468892E+03  1.369124E+04  6.340663E+03 -2.373635E+03
       321  21  9.244849E+04 -2.147205E+04 -1.273014E+04  2.414666E+04  8.901140E+03 -4.147224E+03
       321  22  1.917318E+05  1.666392E+01  3.356654E+03  2.534283E+04  2.192612E+03 -3.239129E+02
       321  23  1.912260E+05 -1.522590E+02  5.453079E+03  1.405994E+04  4.956922E+03 -2.377871E+03
       321  24  1.917301E+05  2.961340E+03  1.013116E+04  2.533380E+04  7.720254E+03 -4.150776E+03
       321  25  2.048511E+05  3.261139E+03  6.479986E+03  2.489290E+04  6.061598E+02 -3.288414E+02
       321  26  2.474124E+05  1.366884E+04  1.837485E+04  1.442867E+04  3.573058E+03 -2.382108E+03
       321  27  2.910209E+05  2.739404E+04  3.299182E+04  2.652112E+04  6.539181E+03 -4.154333E+03
       322   1  5.337583E+04 -3.646666E+04 -1.974753E+04  3.053730E+04 -1.260977E+04  6.079076E+03
       322   2  4.855068E+03 -4.773144E+04 -2.172776E+04  8.763646E+03 -1.935418E+04  7.264099E+03
       322   3 -3.289476E+04 -1.886157E+04 -9.313536E+03  9.289382E+03 -2.608068E+04  2.449069E+03
       322   4  1.940628E+05 -1.913718E+03  1.254371E+04  2.531518E+04 -9.583725E+03  6.088260E+03
       322   5  1.883015E+05 -2.522923E+03  2.070478E+04  1.410840E+04 -2.065114E+04  7.259978E+03
       322   6  1.940555E+05  3.774604E+04  4.625842E+04  2.520001E+04 -3.170118E+04  2.432203E+03
       322   7  3.347682E+05  3.263795E+04  4.483369E+04  2.009187E+04 -6.557004E+03  6.097392E+03
       322   8  3.717791E+05  4.268333E+04  6.313509E+04  1.945473E+04 -2.194847E+04  7.255836E+03
       322   9  4.210532E+05  9.435079E+04  1.018269E+05  4.111643E+04 -3.732373E+04  2.415051E+03
       322  10  5.337565E+04 -3.646674E+04 -1.974790E+04  3.053736E+04 -9.956569E-09 -6.343076E-09
       322  11  4.854652E+03 -4.773160E+04 -2.172856E+04  8.763760E+03 -9.184512E-09 -6.615026E-10
       322  12 -3.289549E+04 -1.886176E+04 -9.314826E+03  9.289433E+03 -2.694641E-09 -2.870357E-09
       322  13  1.940627E+05 -1.913783E+03  1.254347E+04  2.531523E+04  2.723254E-11  1.673808E-09
       322  14  1.883010E+05 -2.523094E+03  2.070388E+04  1.410852E+04 -8.839449E-10 -9.539212E-09
       322  15  1.940544E+05  3.774577E+04  4.625652E+04  2.520007E+04  1.220752E-09 -1.335805E-09
       322  16  3.347682E+05  3.263790E+04  4.483354E+04  2.009190E+04  9.019226E-09  2.841923E-09
       322  17  3.717786E+05  4.268315E+04  6.313409E+04  1.945485E+04  8.539794E-09  5.834700E-09
       322  18  4.210517E+05  9.435041E+04  1.018242E+05  4.111650E+04  1.983600E-09  2.292311E-10
       322  19  5.337583E+04 -3.646666E+04 -1.974753E+04  3.053730E+04  1.260977E+04 -6.079076E+03
       322  20  4.855068E+03 -4.773144E+04 -2.172776E+04  8.763646E+03  1.935418E+04 -7.264099E+03
       322  21 -3.289476E+04 -1.886157E+04 -9.313536E+03  9.289382E+03  2.608068E+04 -2.449069E+03
       322  22  1.940628E+05 -1.913718E+03  1.254371E+04  2.531518E+04  9.583725E+03 -6.088260E+03
       322  23  1.883015E+05 -2.522923E+03  2.070478E+04  1.410840E+04  2.065114E+04 -7.259978E+03
       322  24  1.940555E+05  3.774604E+04  4.625842E+04  2.520001E+04  3.170118E+04 -2.432203E+03
       322  25  3.347682E+05  3.263795E+04  4.483369E+04  2.009187E+04  6.557004E+03 -6.097392E+03
       322  26  3.717791E+05  4.268333E+04  6.313509E+04  1.945473E+04  2.194847E+04 -7.255836E+03
       322  27  4.210532E+05  9.435079E+04  1.018269E+05  4.111643E+04  3.732373E+04 -2.415051E+03
       323   1 -2.624910E+05 -1.181892E+06 -2.959561E+05  1.188090E+05 -4.411863E+03 -1.364962E+05
       323   2 -7.375741E+04 -1.064387E+06 -1.664953E+05  5.195234E+04 -1.339789E+04 -8.156166E+04
       323   3 -5.365327E+04 -9.958492E+05 -1.149463E+05  3.314826E+04 -1.074445E+04 -2.658768E+04
       323   4 -1.536497E+05 -7.469012E+05 -1.892294E+05  5.492124E+04 -4.425406E+03 -1.259994E+05
       323   5  1.049952E+04 -7.231185E+05 -8.743731E+04  3.109949E+04 -1.340012E+04 -7.940790E+04
       323   6  7.516301E+03 -7.468297E+05 -5.772120E+04  5.533793E+04 -1.073059E+04 -3.278596E+04
       323   7 -4.480726E+04 -3.117291E+05 -8.251407E+04 -9.011405E+03 -4.441111E+03 -1.154952E+05
       323   8  9.474983E+04 -3.817410E+05 -8.386849E+03  1.023515E+04 -1.340249E+04 -7.725296E+04
       323   9  6.868345E+04 -4.977516E+05 -4.997638E+02  7.753661E+04 -1.071717E+04 -3.898669E+04
       323  10 -2.624960E+05 -1.181912E+06 -2.959912E+05  1.188086E+05  7.438491E-10  2.297760E-09
       323  11 -7.375939E+04 -1.064394E+06 -1.665082E+05  5.195146E+04  6.704729E-10  2.293811E-09
       323  12 -5.365359E+04 -9.958500E+05 -1.149479E+05  3.314803E+04  6.181879E-10  5.192762E-10
       323  13 -1.536540E+05 -7.469183E+05 -1.892593E+05  5.492079E+04  1.904101E-09  5.532243E-11
       323  14  1.049763E+04 -7.231253E+05 -8.744951E+04  3.109864E+04  1.728099E-09  5.029667E-10
       323  15  7.515888E+03 -7.468309E+05 -5.772344E+04  5.533765E+04 -7.476201E-10  2.403960E-09
       323  16 -4.481086E+04 -3.117434E+05 -8.253919E+04 -9.011819E+03  1.559169E-09 -1.367036E-09
       323  17  9.474804E+04 -3.817475E+05 -8.398409E+03  1.023431E+04  4.691821E-09 -2.822735E-09
       323  18  6.868292E+04 -4.977532E+05 -5.028380E+02  7.753627E+04 -3.138110E-09  2.961903E-09
       323  19 -2.624910E+05 -1.181892E+06 -2.959561E+05  1.188090E+05  4.411863E+03  1.364962E+05
       323  20 -7.375741E+04 -1.064387E+06 -1.664953E+05  5.195234E+04  1.339789E+04  8.156166E+04
       323  21 -5.365327E+04 -9.958492E+05 -1.149463E+05  3.314826E+04  1.074445E+04  2.658768E+04
       323  22 -1.536497E+05 -7.469012E+05 -1.892294E+05  5.492124E+04  4.425406E+03  1.259994E+05
       323  23  1.049952E+04 -7.231185E+05 -8.743731E+04  3.109949E+04  1.340012E+04  7.940790E+04
       323  24  7.516301E+03 -7.468297E+05 -5.772120E+04  5.533793E+04  1.073059E+04  3.278596E+04
       323  25 -4.480726E+04 -3.117291E+05 -8.251407E+04 -9.011405E+03  4.441111E+03  1.154952E+05
       323  26  9.474983E+04 -3.817410E+05 -8.386849E+03  1.023515E+04  1.340249E+04  7.725296E+04
       323  27  6.868345E+04 -4.977516E+05 -4.997638E+02  7.753661E+04  1.071717E+04  3.898669E+04
       324   1 -5.048307E+04 -8.972624E+05 -8.684156E+04  6.109995E+04 -6.660248E+03 -2.112085E+04
       324   2 -1.464584E+04 -7.998488E+05 -5.299817E+04  3.126727E+04 -2.817257E+03 -1.839709E+03
       324   3 -1.686890E+03 -7.103692E+05 -3.737601E+04  5.036784E+04  1.185359E+03  1.744425E+04
       324   4 -1.123709E+04 -7.380384E+05 -5.013580E+04  5.540263E+04 -6.653653E+03 -2.386249E+04
       324   5  1.548717E+03 -7.340753E+05 -3.786257E+04  3.093897E+04 -2.810712E+03 -4.693143E+03
       324   6 -8.522107E+03 -7.380335E+05 -4.372978E+04  5.540903E+04  1.192148E+03  1.447619E+04
       324   7  2.800723E+04 -5.787907E+05 -1.343168E+04  4.970385E+04 -6.647009E+03 -2.660483E+04
       324   8  1.774297E+04 -6.682977E+05 -2.272722E+04  3.061064E+04 -2.804164E+03 -7.546877E+03
       324   9 -1.535728E+04 -7.656969E+05 -5.008356E+04  6.045000E+04  1.198889E+03  1.150826E+04
       324  10 -5.048323E+04 -8.972629E+05 -8.684248E+04  6.109984E+04 -4.473950E-10  4.941686E-09
       324  11 -1.464585E+04 -7.998488E+05 -5.299819E+04  3.126727E+04  6.922033E-10  5.595399E-09
       324  12 -1.686974E+03 -7.103695E+05 -3.737658E+04  5.036782E+04  2.724564E-11  2.385179E-09
       324  13 -1.123729E+04 -7.380390E+05 -5.013695E+04  5.540250E+04 -1.561974E-09 -1.080081E-09
       324  14  1.548702E+03 -7.340753E+05 -3.786263E+04  3.093896E+04 -1.030249E-09 -2.383186E-09
       324  15 -8.522164E+03 -7.380337E+05 -4.373018E+04  5.540902E+04 -5.771185E-10  5.081399E-09
       324  16  2.800700E+04 -5.787915E+05 -1.343309E+04  4.970371E+04 -3.000186E-09 -3.744066E-09
       324  17  1.774295E+04 -6.682978E+05 -2.272734E+04  3.061062E+04  8.061082E-10 -3.054595E-09
       324  18 -1.535731E+04 -7.656971E+05 -5.008381E+04  6.044999E+04 -1.121888E-09  3.372381E-09
       324  19 -5.048307E+04 -8.972624E+05 -8.684156E+04  6.109995E+04  6.660248E+03  2.112085E+04
       324  20 -1.464584E+04 -7.998488E+05 -5.299817E+04  3.126727E+04  2.817257E+03  1.839709E+03
       324  21 -1.686890E+03 -7.103692E+05 -3.737601E+04  5.036784E+04 -1.185359E+03 -1.744425E+04
       324  22 -1.123709E+04 -7.380384E+05 -5.013580E+04  5.540263E+04  6.653653E+03  2.386249E+04
       324  23  1.548717E+03 -7.340753E+05 -3.786257E+04  3.093897E+04  2.810712E+03  4.693143E+03
       324  24 -8.522107E+03 -7.380335E+05 -4.372978E+04  5.540903E+04 -1.192148E+03 -1.447619E+04
       324  25  2.800723E+04 -5.787907E+05 -1.343168E+04  4.970385E+04  6.647009E+03  2.660483E+04
       324  26  1.774297E+04 -6.682977E+05 -2.272722E+04  3.061064E+04  2.804164E+03  7.546877E+03
       324  27 -1.535728E+04 -7.656969E+05 -5.008356E+04  6.045000E+04 -1.198889E+03 -1.150826E+04
       325   1  3.430954E+04 -6.270017E+05 -2.136689E+04  7.279594E+04  4.910951E+03  2.754194E+04
       325   2  6.010527E+04 -5.157300E+05 -2.083510E+04  1.489941E+04  8.112334E+03  5.852370E+04
       325   3 -4.336329E+04 -4.404797E+05 -7.272737E+04  5.387910E+03  2.863258E+03  8.948982E+04
       325   4  5.474727E+03 -7.445129E+05 -4.841683E+04  5.537945E+04  4.922419E+03  2.214262E+04
       325   5  8.183701E+03 -7.259877E+05 -6.958805E+04  3.103339E+04  8.112434E+03  5.919147E+04
       325   6 -1.194545E+05 -7.445658E+05 -1.474149E+05  5.507660E+04  2.854060E+03  9.621970E+04
       325   7 -2.335988E+04 -8.620105E+05 -7.546740E+04  3.796630E+04  4.934192E+03  1.674431E+04
       325   8 -4.374003E+04 -9.362040E+05 -1.183438E+05  4.716188E+04  8.112570E+03  5.985901E+04
       325   9 -1.955434E+05 -1.048562E+06 -2.221079E+05  1.047409E+05  2.845939E+03  1.029463E+05
       325  10  3.430931E+04 -6.270025E+05 -2.136836E+04  7.279583E+04  9.587629E-10  4.978092E-09
       325  11  6.010428E+04 -5.157337E+05 -2.084167E+04  1.489902E+04  2.174483E-09  4.674620E-09
       325  12 -4.336545E+04 -4.404883E+05 -7.274245E+04  5.387703E+03  8.847986E-10  2.741138E-09
       325  13  5.474569E+03 -7.445134E+05 -4.841780E+04  5.537936E+04 -5.420853E-10  4.377310E-09
       325  14  8.182689E+03 -7.259915E+05 -6.959477E+04  3.103300E+04  1.032935E-09  1.616760E-09
       325  15 -1.194570E+05 -7.445758E+05 -1.474324E+05  5.507638E+04  1.161835E-09  2.240189E-09
       325  16 -2.335998E+04 -8.620108E+05 -7.546798E+04  3.796623E+04 -1.309596E-09 -3.588646E-09
       325  17 -4.374106E+04 -9.362079E+05 -1.183507E+05  4.716149E+04  2.114688E-09 -2.134683E-09
       325  18 -1.955462E+05 -1.048574E+06 -2.221278E+05  1.047407E+05  3.906692E-10  2.339648E-10
       325  19  3.430954E+04 -6.270017E+05 -2.136689E+04  7.279594E+04 -4.910951E+03 -2.754194E+04
       325  20  6.010527E+04 -5.157300E+05 -2.083510E+04  1.489941E+04 -8.112334E+03 -5.852370E+04
       325  21 -4.336329E+04 -4.404797E+05 -7.272737E+04  5.387910E+03 -2.863258E+03 -8.948982E+04
       325  22  5.474727E+03 -7.445129E+05 -4.841683E+04  5.537945E+04 -4.922419E+03 -2.214262E+04
       325  23  8.183701E+03 -7.259877E+05 -6.958805E+04  3.103339E+04 -8.112434E+03 -5.919147E+04
       325  24 -1.194545E+05 -7.445658E+05 -1.474149E+05  5.507660E+04 -2.854060E+03 -9.621970E+04
       325  25 -2.335988E+04 -8.620105E+05 -7.546740E+04  3.796630E+04 -4.934192E+03 -1.674431E+04
       325  26 -4.374003E+04 -9.362040E+05 -1.183438E+05  4.716188E+04 -8.112570E+03 -5.985901E+04
       325  27 -1.955434E+05 -1.048562E+06 -2.221079E+05  1.047409E+05 -2.845939E+03 -1.029463E+05
       326   1  3.272256E+05  2.489975E+05  7.205168E+04  2.285962E+05  4.135480E+04  3.150333E+04
       326   2  3.140309E+05  1.868360E+05  3.015349E+04  2.516113E+05  2.659710E+04  2.102457E+04
       326   3  3.380093E+05  1.743682E+05  1.693132E+04  2.512685E+05  1.213190E+04  1.015749E+04
       326   4  3.662416E+05  2.346400E+05  7.687150E+04  2.286884E+05  4.179810E+04  3.183504E+04
       326   5  3.356806E+05  1.887650E+05  3.452171E+04  2.562131E+05  2.675881E+04  2.114599E+04
       326   6  3.423524E+05  1.926429E+05  2.109115E+04  2.603804E+05  1.201265E+04  1.006783E+04
       326   7  4.052606E+05  2.202839E+05  8.169167E+04  2.287800E+05  4.224145E+04  3.216673E+04
       326   8  3.573311E+05  1.906941E+05  3.888996E+04  2.608151E+05  2.692052E+04  2.126741E+04
       326   9  3.466957E+05  2.109183E+05  2.525102E+04  2.694925E+05  1.189340E+04  9.978163E+03
       326  10  3.272235E+05  2.489960E+05  7.204661E+04  2.285952E+05  1.947930E-10  5.561817E-10
       326  11  3.140300E+05  1.868354E+05  3.015133E+04  2.516108E+05 -6.815389E-10  2.626372E-09
       326  12  3.380091E+05  1.743680E+05  1.693085E+04  2.512684E+05 -2.336150E-09 -6.594666E-09
       326  13  3.662395E+05  2.346385E+05  7.686631E+04  2.286873E+05 -6.337369E-10 -1.016427E-10
       326  14  3.356797E+05  1.887643E+05  3.451952E+04  2.562127E+05 -1.893753E-09 -1.724772E-08
       326  15  3.423522E+05  1.926427E+05  2.109069E+04  2.603803E+05 -9.613426E-10 -2.646190E-09
       326  16  4.052584E+05  2.202823E+05  8.168637E+04  2.287789E+05  3.049104E-10  1.843361E-09
       326  17  3.573302E+05  1.906934E+05  3.888775E+04  2.608146E+05 -8.878160E-10  1.058356E-09
       326  18  3.466955E+05  2.109182E+05  2.525057E+04  2.694924E+05  5.014480E-10  8.791581E-09
       326  19  3.272256E+05  2.489975E+05  7.205168E+04  2.285962E+05 -4.135480E+04 -3.150333E+04
       326  20  3.140309E+05  1.868360E+05  3.015349E+04  2.516113E+05 -2.659710E+04 -2.102457E+04
       326  21  3.380093E+05  1.743682E+05  1.693132E+04  2.512685E+05 -1.213190E+04 -1.015749E+04
       326  22  3.662416E+05  2.346400E+05  7.687150E+04  2.286884E+05 -4.179810E+04 -3.183504E+04
       326  23  3.356806E+05  1.887650E+05  3.452171E+04  2.562131E+05 -2.675881E+04 -2.114599E+04
       326  24  3.423524E+05  1.926429E+05  2.109115E+04  2.603804E+05 -1.201265E+04 -1.006783E+04
       326  25  4.052606E+05  2.202839E+05  8.169167E+04  2.287800E+05 -4.224145E+04 -3.216673E+04
       326  26  3.573311E+05  1.906941E+05  3.888996E+04  2.608151E+05 -2.692052E+04 -2.126741E+04
       326  27  3.466957E+05  2.109183E+05  2.525102E+04  2.694925E+05 -1.189340E+04 -9.978163E+03
       327   1  3.286458E+05  1.889097E+05  1.317078E+04  2.487635E+05  9.552128E+03  8.112138E+03
       327   2  3.276945E+05  1.847844E+05  5.862197E+03  2.507420E+05  5.668243E+03  5.169395E+03
       327   3  3.302615E+05  1.843073E+05  3.030634E+03  2.510306E+05  1.798643E+03  2.207863E+03
       327   4  3.428279E+05  1.964024E+05  1.717790E+04  2.546291E+05  9.553133E+03  8.112854E+03
       327   5  3.401782E+05  1.930133E+05  9.681605E+03  2.566543E+05  5.655547E+03  5.159811E+03
       327   6  3.410496E+05  1.932753E+05  6.674167E+03  2.569895E+05  1.772247E+03  2.187956E+03
       327   7  3.570102E+05  2.038950E+05  2.118496E+04  2.604948E+05  9.554138E+03  8.113570E+03
       327   8  3.526619E+05  2.012422E+05  1.350098E+04  2.625666E+05  5.642851E+03  5.150226E+03
       327   9  3.518378E+05  2.022433E+05  1.031768E+04  2.629486E+05  1.745851E+03  2.168049E+03
       327  10  3.286457E+05  1.889096E+05  1.317049E+04  2.487635E+05  2.507933E-09  9.440128E-10
       327  11  3.276945E+05  1.847844E+05  5.862086E+03  2.507420E+05  8.651027E-10  2.103018E-09
       327  12  3.302615E+05  1.843073E+05  3.030618E+03  2.510306E+05 -2.877522E-09 -1.360226E-09
       327  13  3.428278E+05  1.964023E+05  1.717760E+04  2.546291E+05 -4.398092E-10 -4.927702E-10
       327  14  3.401781E+05  1.930133E+05  9.681495E+03  2.566542E+05  1.927587E-09 -3.641022E-09
       327  15  3.410496E+05  1.932753E+05  6.674152E+03  2.569895E+05 -1.011188E-10  9.935390E-09
       327  16  3.570101E+05  2.038949E+05  2.118466E+04  2.604948E+05 -3.435677E-09 -1.224688E-09
       327  17  3.526619E+05  2.012422E+05  1.350087E+04  2.625666E+05  2.877617E-09 -9.692306E-09
       327  18  3.518378E+05  2.022433E+05  1.031767E+04  2.629486E+05  3.549761E-09 -2.555754E-09
       327  19  3.286458E+05  1.889097E+05  1.317078E+04  2.487635E+05 -9.552128E+03 -8.112138E+03
       327  20  3.276945E+05  1.847844E+05  5.862197E+03  2.507420E+05 -5.668243E+03 -5.169395E+03
       327  21  3.302615E+05  1.843073E+05  3.030634E+03  2.510306E+05 -1.798643E+03 -2.207863E+03
       327  22  3.428279E+05  1.964024E+05  1.717790E+04  2.546291E+05 -9.553133E+03 -8.112854E+03
       327  23  3.401782E+05  1.930133E+05  9.681605E+03  2.566543E+05 -5.655547E+03 -5.159811E+03
       327  24  3.410496E+05  1.932753E+05  6.674167E+03  2.569895E+05 -1.772247E+03 -2.187956E+03
       327  25  3.570102E+05  2.038950E+05  2.118496E+04  2.604948E+05 -9.554138E+03 -8.113570E+03
       327  26  3.526619E+05  2.012422E+05  1.350098E+04  2.625666E+05 -5.642851E+03 -5.150226E+03
       327  27  3.518378E+05  2.022433E+05  1.031768E+04  2.629486E+05 -1.745851E+03 -2.168049E+03
       328   1  3.299068E+05  1.858072E+05  2.513025E+03  2.511498E+05  9.121400E+02  1.508436E+03
       328   2  3.300537E+05  1.858739E+05  2.422992E+03  2.514837E+05 -1.340220E+03 -2.354414E+02
       328   3  3.313522E+05  1.864438E+05  4.443082E+03  2.515169E+05 -3.591772E+03 -1.980436E+03
       328   4  3.410551E+05  1.935110E+05  5.986913E+03  2.565927E+05  8.919170E+02  1.493180E+03
       328   5  3.405168E+05  1.933255E+05  5.725646E+03  2.566930E+05 -1.361293E+03 -2.513375E+02
       328   6  3.411303E+05  1.936434E+05  7.575202E+03  2.564927E+05 -3.613675E+03 -1.996959E+03
       328   7  3.522036E+05  2.012150E+05  9.460814E+03  2.620356E+05  8.716934E+02  1.477924E+03
       328   8  3.509800E+05  2.007771E+05  9.028286E+03  2.619024E+05 -1.382367E+03 -2.672339E+02
       328   9  3.509084E+05  2.008429E+05  1.070728E+04  2.614685E+05 -3.635578E+03 -2.013482E+03
       328  10  3.299068E+05  1.858072E+05  2.513019E+03  2.511498E+05  2.819914E-09  4.567574E-09
       328  11  3.300537E+05  1.858739E+05  2.422989E+03  2.514837E+05 -4.327000E-09 -2.354121E-09
       328  12  3.313522E+05  1.864438E+05  4.443050E+03  2.515169E+05 -8.075504E-09 -2.166867E-09
       328  13  3.410551E+05  1.935110E+05  5.986907E+03  2.565927E+05  2.550015E-10  1.865880E-09
       328  14  3.405168E+05  1.933255E+05  5.725642E+03  2.566930E+05 -3.426344E-11  7.050454E-09
       328  15  3.411303E+05  1.936434E+05  7.575170E+03  2.564927E+05 -5.463887E-10  6.423954E-09
       328  16  3.522036E+05  2.012150E+05  9.460809E+03  2.620356E+05 -4.332027E-09 -4.623987E-09
       328  17  3.509800E+05  2.007771E+05  9.028282E+03  2.619024E+05  1.773298E-09 -2.198591E-09
       328  18  3.509084E+05  2.008429E+05  1.070725E+04  2.614685E+05  6.891839E-09 -4.788351E-09
       328  19  3.299068E+05  1.858072E+05  2.513025E+03  2.511498E+05 -9.121400E+02 -1.508436E+03
       328  20  3.300537E+05  1.858739E+05  2.422992E+03  2.514837E+05  1.340220E+03  2.354414E+02
       328  21  3.313522E+05  1.864438E+05  4.443082E+03  2.515169E+05  3.591772E+03  1.980436E+03
       328  22  3.410551E+05  1.935110E+05  5.986913E+03  2.565927E+05 -8.919170E+02 -1.493180E+03
       328  23  3.405168E+05  1.933255E+05  5.725646E+03  2.566930E+05  1.361293E+03  2.513375E+02
       328  24  3.411303E+05  1.936434E+05  7.575202E+03  2.564927E+05  3.613675E+03  1.996959E+03
       328  25  3.522036E+05  2.012150E+05  9.460814E+03  2.620356E+05 -8.716934E+02 -1.477924E+03
       328  26  3.509800E+05  2.007771E+05  9.028286E+03  2.619024E+05  1.382367E+03  2.672339E+02
       328  27  3.509084E+05  2.008429E+05  1.070728E+04  2.614685E+05  3.635578E+03  2.013482E+03
       329   1  3.305548E+05  1.877459E+05  6.169426E+03  2.528441E+05 -4.760315E+03 -2.887046E+03
       329   2  3.316745E+05  1.858086E+05  1.176336E+04  2.520204E+05 -1.061005E+04 -7.346560E+03
       329   3  3.380873E+05  1.898660E+05  2.420964E+04  2.485709E+05 -1.645352E+04 -1.181459E+04
       329   4  3.411377E+05  1.932586E+05  9.134300E+03  2.571870E+05 -4.779097E+03 -2.901199E+03
       329   5  3.399097E+05  1.927565E+05  1.456283E+04  2.566161E+05 -1.063500E+04 -7.365397E+03
       329   6  3.439759E+05  1.982503E+05  2.684899E+04  2.534194E+05 -1.648463E+04 -1.183815E+04
       329   7  3.517208E+05  1.987714E+05  1.209916E+04  2.615300E+05 -4.797878E+03 -2.915352E+03
       329   8  3.481449E+05  1.997044E+05  1.736230E+04  2.612118E+05 -1.065995E+04 -7.384234E+03
       329   9  3.498646E+05  2.066348E+05  2.948835E+04  2.582679E+05 -1.651574E+04 -1.186172E+04
       329  10  3.305547E+05  1.877459E+05  6.169368E+03  2.528441E+05  1.658164E-10  9.525926E-10
       329  11  3.316744E+05  1.858085E+05  1.176305E+04  2.520203E+05  1.285100E-09  2.187074E-09
       329  12  3.380870E+05  1.898658E+05  2.420887E+04  2.485708E+05 -2.086696E-09 -2.520541E-09
       329  13  3.411377E+05  1.932586E+05  9.134241E+03  2.571870E+05  1.169022E-09  1.968124E-09
       329  14  3.399095E+05  1.927564E+05  1.456252E+04  2.566160E+05 -5.401404E-10 -7.534243E-09
       329  15  3.439756E+05  1.982501E+05  2.684821E+04  2.534192E+05 -1.713545E-09  5.373187E-09
       329  16  3.517208E+05  1.987713E+05  1.209911E+04  2.615300E+05 -2.149990E-09 -4.859332E-09
       329  17  3.481448E+05  1.997043E+05  1.736199E+04  2.612118E+05 -3.868973E-09  7.514621E-10
       329  18  3.498643E+05  2.066346E+05  2.948757E+04  2.582677E+05 -6.172417E-10 -3.082608E-09
       329  19  3.305548E+05  1.877459E+05  6.169426E+03  2.528441E+05  4.760315E+03  2.887046E+03
       329  20  3.316745E+05  1.858086E+05  1.176336E+04  2.520204E+05  1.061005E+04  7.346560E+03
       329  21  3.380873E+05  1.898660E+05  2.420964E+04  2.485709E+05  1.645352E+04  1.181459E+04
       329  22  3.411377E+05  1.932586E+05  9.134300E+03  2.571870E+05  4.779097E+03  2.901199E+03
       329  23  3.399097E+05  1.927565E+05  1.456283E+04  2.566161E+05  1.063500E+04  7.365397E+03
       329  24  3.439759E+05  1.982503E+05  2.684899E+04  2.534194E+05  1.648463E+04  1.183815E+04
       329  25  3.517208E+05  1.987714E+05  1.209916E+04  2.615300E+05  4.797878E+03  2.915352E+03
       329  26  3.481449E+05  1.997044E+05  1.736230E+04  2.612118E+05  1.065995E+04  7.384234E+03
       329  27  3.498646E+05  2.066348E+05  2.948835E+04  2.582679E+05  1.651574E+04  1.186172E+04
       330   1  3.213382E+05  2.007655E+05  3.073227E+04  2.626911E+05 -2.043873E+04 -1.481544E+04
       330   2  3.380096E+05  1.682333E+05  5.241604E+04  2.486899E+05 -4.362126E+04 -3.238451E+04
       330   3  4.136013E+05  2.150129E+05  1.199186E+05  1.976185E+05 -6.667418E+04 -5.012440E+04
       330   4  3.432296E+05  1.922739E+05  3.319504E+04  2.625693E+05 -2.041648E+04 -1.479791E+04
       330   5  3.327444E+05  1.859934E+05  5.472908E+04  2.559124E+05 -4.372312E+04 -3.246276E+04
       330   6  3.812034E+05  2.590489E+05  1.221898E+05  2.121865E+05 -6.689865E+04 -5.030055E+04
       330   7  3.651217E+05  1.837828E+05  3.565790E+04  2.624473E+05 -2.039422E+04 -1.478038E+04
       330   8  3.274796E+05  2.037543E+05  5.704219E+04  2.631349E+05 -4.382497E+04 -3.254102E+04
       330   9  3.488096E+05  3.030908E+05  1.244618E+05  2.267534E+05 -6.712310E+04 -5.047674E+04
       330  10  3.213377E+05  2.007651E+05  3.073108E+04  2.626909E+05 -1.033037E-09  4.546357E-09
       330  11  3.380073E+05  1.682317E+05  5.241050E+04  2.486887E+05 -2.978244E-09  5.050566E-10
       330  12  4.135959E+05  2.150090E+05  1.199056E+05  1.976158E+05 -1.040361E-09  7.308533E-09
       330  13  3.432291E+05  1.922735E+05  3.319385E+04  2.625691E+05 -5.993772E-10  8.397853E-09
       330  14  3.327421E+05  1.859918E+05  5.472351E+04  2.559113E+05  3.496936E-09 -2.342077E-09
       330  15  3.811980E+05  2.590450E+05  1.221766E+05  2.121838E+05 -9.876502E-10 -5.337807E-10
       330  16  3.651212E+05  1.837824E+05  3.565670E+04  2.624471E+05 -1.339306E-09  1.273567E-09
       330  17  3.274773E+05  2.037526E+05  5.703660E+04  2.631338E+05  8.486003E-10 -8.811154E-09
       330  18  3.488041E+05  3.030869E+05  1.244486E+05  2.267506E+05  2.502231E-09 -5.054716E-09
       330  19  3.213382E+05  2.007655E+05  3.073227E+04  2.626911E+05  2.043873E+04  1.481544E+04
       330  20  3.380096E+05  1.682333E+05  5.241604E+04  2.486899E+05  4.362126E+04  3.238451E+04
       330  21  4.136013E+05  2.150129E+05  1.199186E+05  1.976185E+05  6.667418E+04  5.012440E+04
       330  22  3.432296E+05  1.922739E+05  3.319504E+04  2.625693E+05  2.041648E+04  1.479791E+04
       330  23  3.327444E+05  1.859934E+05  5.472908E+04  2.559124E+05  4.372312E+04  3.246276E+04
       330  24  3.812034E+05  2.590489E+05  1.221898E+05  2.121865E+05  6.689865E+04  5.030055E+04
       330  25  3.651217E+05  1.837828E+05  3.565790E+04  2.624473E+05  2.039422E+04  1.478038E+04
       330  26  3.274796E+05  2.037543E+05  5.704219E+04  2.631349E+05  4.382497E+04  3.254102E+04
       330  27  3.488096E+05  3.030908E+05  1.244618E+05  2.267534E+05  6.712310E+04  5.047674E+04
       331   1  1.010921E+05  2.939243E+04  3.055232E+04  1.384148E+04  7.694726E+03 -9.689190E+02
       331   2  8.100117E+04  1.713493E+04  2.047928E+04  7.019610E+03  3.849252E+03 -2.828775E+03
       331   3  6.328199E+04  1.262521E+04  1.483643E+04  9.991607E+03 -2.891082E+00 -2.278702E+03
       331   4  1.069484E+04  6.867025E+03  8.414878E+03  1.084694E+04  5.495175E+03 -9.752000E+02
       331   5  9.660100E+03 -4.401779E+02  3.974751E+03  5.960206E+03  3.385377E+03 -2.830130E+03
       331   6  1.069553E+04 -3.004623E+02  2.759890E+03  1.086732E+04  1.268759E+03 -2.275033E+03
       331   7 -7.969496E+04 -1.565895E+04 -1.372314E+04  7.852829E+03  3.295943E+03 -9.814603E+02
       331   8 -6.167627E+04 -1.801564E+04 -1.253012E+04  4.900922E+03  2.921554E+03 -2.831484E+03
       331   9 -4.188836E+04 -1.322632E+04 -9.316830E+03  1.174295E+04  2.540303E+03 -2.271360E+03
       331  10  1.010920E+05  2.939241E+04  3.055221E+04  1.384149E+04 -1.395139E-09  2.144574E-09
       331  11  8.100115E+04  1.713492E+04  2.047924E+04  7.019619E+03 -1.381314E-09 -3.015390E-09
       331  12  6.328199E+04  1.262520E+04  1.483642E+04  9.991607E+03 -3.129673E-09 -7.610186E-10
       331  13  1.069480E+04  6.867016E+03  8.414820E+03  1.084694E+04 -1.903730E-11  6.144367E-09
       331  14  9.660085E+03 -4.401896E+02  3.974714E+03  5.960214E+03 -7.156513E-10 -4.324140E-09
       331  15  1.069553E+04 -3.004682E+02  2.759877E+03  1.086732E+04  1.266037E-09 -7.097607E-10
       331  16 -7.969497E+04 -1.565895E+04 -1.372316E+04  7.852832E+03  5.458189E-10  3.743015E-10
       331  17 -6.167628E+04 -1.801565E+04 -1.253015E+04  4.900928E+03  5.512308E-10 -1.297791E-08
       331  18 -4.188837E+04 -1.322633E+04 -9.316852E+03  1.174296E+04  2.364811E-09 -3.202685E-09
       331  19  1.010921E+05  2.939243E+04  3.055232E+04  1.384148E+04 -7.694726E+03  9.689190E+02
       331  20  8.100117E+04  1.713493E+04  2.047928E+04  7.019610E+03 -3.849252E+03  2.828775E+03
       331  21  6.328199E+04  1.262521E+04  1.483643E+04  9.991607E+03  2.891082E+00  2.278702E+03
       331  22  1.069484E+04  6.867025E+03  8.414878E+03  1.084694E+04 -5.495175E+03  9.752000E+02
       331  23  9.660100E+03 -4.401779E+02  3.974751E+03  5.960206E+03 -3.385377E+03  2.830130E+03
       331  24  1.069553E+04 -3.004623E+02  2.759890E+03  1.086732E+04 -1.268759E+03  2.275033E+03
       331  25 -7.969496E+04 -1.565895E+04 -1.372314E+04  7.852829E+03 -3.295943E+03  9.814603E+02
       331  26 -6.167627E+04 -1.801564E+04 -1.253012E+04  4.900922E+03 -2.921554E+03  2.831484E+03
       331  27 -4.188836E+04 -1.322632E+04 -9.316830E+03  1.174295E+04 -2.540303E+03  2.271360E+03
       332   1  4.474687E+04  9.037564E+03  1.043171E+04  1.117845E+04  2.951960E+02 -1.451943E+03
       332   2  2.570943E+04  3.794434E+03  5.760888E+03  6.030098E+03 -8.814427E+02 -6.617867E+02
       332   3  6.968097E+03 -5.904421E+02  2.054764E+03  1.077435E+04 -2.058409E+03  2.402514E+02
       332   4  1.029857E+04  5.600963E+02  2.500551E+03  1.088263E+04  8.262816E+02 -1.450405E+03
       332   5  1.015761E+04 -3.219203E+01  2.181916E+03  5.936812E+03 -2.697644E+02 -6.600084E+02
       332   6  1.029873E+04  2.198906E+02  2.772128E+03  1.088361E+04 -1.366172E+03  2.422720E+02
       332   7 -2.414863E+04 -7.917454E+03 -5.430687E+03  1.058682E+04  1.357338E+03 -1.448867E+03
       332   8 -5.393982E+03 -3.858835E+03 -1.397071E+03  5.843528E+03  3.418986E+02 -6.582302E+02
       332   9  1.362937E+04  1.030223E+03  3.489493E+03  1.099288E+04 -6.739309E+02  2.442928E+02
       332  10  4.474687E+04  9.037562E+03  1.043171E+04  1.117845E+04 -5.680701E-09 -2.645313E-10
       332  11  2.570943E+04  3.794433E+03  5.760886E+03  6.030098E+03 -7.591789E-10 -8.573658E-09
       332  12  6.968093E+03 -5.904433E+02  2.054756E+03  1.077435E+04  3.708624E-09 -1.499729E-09
       332  13  1.029857E+04  5.600938E+02  2.500546E+03  1.088263E+04  3.113103E-11  8.194757E-10
       332  14  1.015761E+04 -3.219252E+01  2.181915E+03  5.936812E+03 -7.103500E-10  3.236884E-10
       332  15  1.029873E+04  2.198900E+02  2.772125E+03  1.088361E+04  1.273845E-09  3.889504E-09
       332  16 -2.414863E+04 -7.917457E+03 -5.430694E+03  1.058682E+04  4.911718E-09  5.465528E-09
       332  17 -5.393982E+03 -3.858835E+03 -1.397072E+03  5.843528E+03 -3.628699E-11 -3.776338E-09
       332  18  1.362937E+04  1.030223E+03  3.489492E+03  1.099288E+04 -4.517521E-09  4.788422E-09
       332  19  4.474687E+04  9.037564E+03  1.043171E+04  1.117845E+04 -2.951960E+02  1.451943E+03
       332  20  2.570943E+04  3.794434E+03  5.760888E+03  6.030098E+03  8.814427E+02  6.617867E+02
       332  21  6.968097E+03 -5.904421E+02  2.054764E+03  1.077435E+04  2.058409E+03 -2.402514E+02
       332  22  1.029857E+04  5.600963E+02  2.500551E+03  1.088263E+04 -8.262816E+02  1.450405E+03
       332  23  1.015761E+04 -3.219203E+01  2.181916E+03  5.936812E+03  2.697644E+02  6.600084E+02
       332  24  1.029873E+04  2.198906E+02  2.772128E+03  1.088361E+04  1.366172E+03 -2.422720E+02
       332  25 -2.414863E+04 -7.917454E+03 -5.430687E+03  1.058682E+04 -1.357338E+03  1.448867E+03
       332  26 -5.393982E+03 -3.858835E+03 -1.397071E+03  5.843528E+03 -3.418986E+02  6.582302E+02
       332  27  1.362937E+04  1.030223E+03  3.489493E+03  1.099288E+04  6.739309E+02 -2.442928E+02
       333   1 -1.096682E+04 -5.328044E+03 -1.667908E+03  1.128736E+04 -2.603697E+03  8.127153E+02
       333   2 -3.035596E+04 -1.010567E+04 -4.089085E+03  5.624785E+03 -5.122447E+03  1.708099E+03
       333   3 -4.873956E+04 -1.189220E+04 -4.138339E+03  9.849847E+03 -7.640662E+03  2.460424E+03
       333   4  1.046326E+04 -5.052521E+01  3.304469E+03  1.088466E+04 -1.902337E+03  8.147608E+02
       333   5  9.951577E+03 -1.882379E+02  5.180666E+03  5.936922E+03 -4.524254E+03  1.709821E+03
       333   6  1.046287E+04  2.682949E+03  9.500293E+03  1.087676E+04 -7.145711E+03  2.461824E+03
       333   7  3.189376E+04  5.226962E+03  8.276817E+03  1.048194E+04 -1.200954E+03  8.168053E+02
       333   8  5.026062E+04  9.729083E+03  1.445031E+04  6.249078E+03 -3.926023E+03  1.711544E+03
       333   9  6.966855E+04  1.725786E+04  2.313869E+04  1.190377E+04 -6.650713E+03  2.463224E+03
       333  10 -1.096683E+04 -5.328047E+03 -1.667922E+03  1.128736E+04  1.479147E-08 -8.561358E-10
       333  11 -3.035599E+04 -1.010568E+04 -4.089140E+03  5.624792E+03  2.973316E-10  6.632665E-09
       333  12 -4.873962E+04 -1.189222E+04 -4.138460E+03  9.849862E+03 -1.253890E-08 -5.490994E-09
       333  13  1.046325E+04 -5.052690E+01  3.304461E+03  1.088466E+04 -7.296128E-11 -7.656345E-09
       333  14  9.951554E+03 -1.882465E+02  5.180622E+03  5.936928E+03 -7.864100E-10  2.806352E-09
       333  15  1.046282E+04  2.682929E+03  9.500185E+03  1.087677E+04  1.268666E-09 -4.205871E-09
       333  16  3.189376E+04  5.226961E+03  8.276813E+03  1.048194E+04 -1.556197E-08 -4.041326E-09
       333  17  5.026060E+04  9.729076E+03  1.445028E+04  6.249083E+03 -1.166527E-09 -1.485395E-08
       333  18  6.966850E+04  1.725784E+04  2.313860E+04  1.190378E+04  1.176609E-08  1.422849E-09
       333  19 -1.096682E+04 -5.328044E+03 -1.667908E+03  1.128736E+04  2.603697E+03 -8.127153E+02
       333  20 -3.035596E+04 -1.010567E+04 -4.089085E+03  5.624785E+03  5.122447E+03 -1.708099E+03
       333  21 -4.873956E+04 -1.189220E+04 -4.138339E+03  9.849847E+03  7.640662E+03 -2.460424E+03
       333  22  1.046326E+04 -5.052521E+01  3.304469E+03  1.088466E+04  1.902337E+03 -8.147608E+02
       333  23  9.951577E+03 -1.882379E+02  5.180666E+03  5.936922E+03  4.524254E+03 -1.709821E+03
       333  24  1.046287E+04  2.682949E+03  9.500293E+03  1.087676E+04  7.145711E+03 -2.461824E+03
       333  25  3.189376E+04  5.226962E+03  8.276817E+03  1.048194E+04  1.200954E+03 -8.168053E+02
       333  26  5.026062E+04  9.729083E+03  1.445031E+04  6.249078E+03  3.926023E+03 -1.711544E+03
       333  27  6.966855E+04  1.725786E+04  2.313869E+04  1.190377E+04  6.650713E+03 -2.463224E+03
       334   1 -6.474212E+04 -2.085220E+04 -6.018639E+03  1.587262E+04 -1.030888E+04  3.348857E+03
       334   2 -8.881671E+04 -2.607776E+04 -2.891616E+03  1.154252E+03 -1.846749E+04  3.795287E+03
       334   3 -1.024717E+05  6.371745E+03  1.495356E+04 -3.850116E+03 -2.661726E+04  1.231785E+03
       334   4  1.263342E+04 -1.860816E+03  1.173482E+04  1.087284E+04 -8.888158E+03  3.352985E+03
       334   5  7.236414E+03 -2.390782E+03  1.932591E+04  5.964242E+03 -1.921526E+04  3.792999E+03
       334   6  1.263278E+04  3.512717E+04  4.313925E+04  1.076922E+04 -2.953378E+04  1.223031E+03
       334   7  9.001456E+04  1.713025E+04  2.948791E+04  5.872424E+03 -7.467261E+03  3.357090E+03
       334   8  1.032981E+05  2.129563E+04  4.154284E+04  1.077498E+04 -1.996315E+04  3.790700E+03
       334   9  1.277498E+05  6.388240E+04  7.132411E+04  2.539127E+04 -3.245085E+04  1.214141E+03
       334  10 -6.474223E+04 -2.085224E+04 -6.018860E+03  1.587265E+04  1.272605E-09 -3.150248E-09
       334  11 -8.881708E+04 -2.607787E+04 -2.892284E+03  1.154309E+03  3.930188E-09  1.020347E-09
       334  12 -1.024724E+05  6.371553E+03  1.495223E+04 -3.850090E+03  3.062283E-09  5.124411E-09
       334  13  1.263333E+04 -1.860850E+03  1.173465E+04  1.087286E+04 -4.110395E-12 -2.071145E-09
       334  14  7.236014E+03 -2.390897E+03  1.932519E+04  5.964301E+03 -7.888127E-10  2.622139E-09
       334  15  1.263184E+04  3.512693E+04  4.313761E+04  1.076925E+04  1.200396E-09  5.707688E-09
       334  16  9.001450E+04  1.713022E+04  2.948779E+04  5.872444E+03 -1.951289E-09  1.355788E-09
       334  17  1.032977E+05  2.129551E+04  4.154207E+04  1.077504E+04 -4.615974E-09  1.981913E-09
       334  18  1.277486E+05  6.388212E+04  7.132213E+04  2.539130E+04 -3.932206E-09 -1.600853E-09
       334  19 -6.474212E+04 -2.085220E+04 -6.018639E+03  1.587262E+04  1.030888E+04 -3.348857E+03
       334  20 -8.881671E+04 -2.607776E+04 -2.891616E+03  1.154252E+03  1.846749E+04 -3.795287E+03
       334  21 -1.024717E+05  6.371745E+03  1.495356E+04 -3.850116E+03  2.661726E+04 -1.231785E+03
       334  22  1.263342E+04 -1.860816E+03  1.173482E+04  1.087284E+04  8.888158E+03 -3.352985E+03
       334  23  7.236414E+03 -2.390782E+03  1.932591E+04  5.964242E+03  1.921526E+04 -3.792999E+03
       334  24  1.263278E+04  3.512717E+04  4.313925E+04  1.076922E+04  2.953378E+04 -1.223031E+03
       334  25  9.001456E+04  1.713025E+04  2.948791E+04  5.872424E+03  7.467261E+03 -3.357090E+03
       334  26  1.032981E+05  2.129563E+04  4.154284E+04  1.077498E+04  1.996315E+04 -3.790700E+03
       334  27  1.277498E+05  6.388240E+04  7.132411E+04  2.539127E+04  3.245085E+04 -1.214141E+03
       335   1 -1.539749E+05 -8.072625E+05 -1.719604E+05  7.192904E+04 -2.874375E+03 -7.463448E+04
       335   2 -4.852938E+04 -7.312107E+05 -9.864064E+04  3.246824E+04 -8.624159E+03 -4.374911E+04
       335   3 -3.472030E+04 -6.818568E+05 -6.831850E+04  2.543691E+04 -6.788562E+03 -1.283968E+04
       335   4 -8.327341E+04 -5.244585E+05 -1.025973E+05  3.717005E+04 -2.888586E+03 -6.784678E+04
       335   5  5.673185E+03 -5.115718E+05 -4.777254E+04  2.107105E+04 -8.626704E+03 -4.240823E+04
       335   6  3.946507E+03 -5.244298E+05 -3.214729E+04  3.740415E+04 -6.778308E+03 -1.694904E+04
       335   7 -1.257335E+04 -2.415789E+05 -3.323929E+04  2.395212E+03 -2.903556E+03 -6.105598E+04
       335   8  5.987283E+04 -2.918881E+05  3.092410E+03  9.669827E+03 -8.629297E+03 -4.106688E+04
       335   9  4.261215E+04 -3.669795E+05  4.022433E+03  4.937447E+04 -6.768214E+03 -2.105943E+04
       335  10 -1.539764E+05 -8.072685E+05 -1.719709E+05  7.192887E+04 -4.303115E-10  2.202445E-09
       335  11 -4.852997E+04 -7.312127E+05 -9.864438E+04  3.246793E+04 -2.133515E-09  6.512154E-09
       335  12 -3.472040E+04 -6.818570E+05 -6.831890E+04  2.543684E+04  5.294453E-10  4.068924E-09
       335  13 -8.327465E+04 -5.244634E+05 -1.026060E+05  3.716989E+04  3.021487E-10  4.137614E-11
       335  14  5.672622E+03 -5.115738E+05 -4.777606E+04  2.107076E+04 -1.484341E-09 -1.738288E-08
       335  15  3.946381E+03 -5.244301E+05 -3.214791E+04  3.740406E+04  8.460868E-10  3.362604E-09
       335  16 -1.257436E+04 -2.415829E+05 -3.324632E+04  2.395069E+03 -5.433365E-10 -5.872378E-10
       335  17  5.987230E+04 -2.918900E+05  3.089100E+03  9.669542E+03  1.200480E-09 -4.189524E-09
       335  18  4.261198E+04 -3.669800E+05  4.021513E+03  4.937436E+04  1.037279E-09  1.560418E-09
       335  19 -1.539749E+05 -8.072625E+05 -1.719604E+05  7.192904E+04  2.874375E+03  7.463448E+04
       335  20 -4.852938E+04 -7.312107E+05 -9.864064E+04  3.246824E+04  8.624159E+03  4.374911E+04
       335  21 -3.472030E+04 -6.818568E+05 -6.831850E+04  2.543691E+04  6.788562E+03  1.283968E+04
       335  22 -8.327341E+04 -5.244585E+05 -1.025973E+05  3.717005E+04  2.888586E+03  6.784678E+04
       335  23  5.673185E+03 -5.115718E+05 -4.777254E+04  2.107105E+04  8.626704E+03  4.240823E+04
       335  24  3.946507E+03 -5.244298E+05 -3.214729E+04  3.740415E+04  6.778308E+03  1.694904E+04
       335  25 -1.257335E+04 -2.415789E+05 -3.323929E+04  2.395212E+03  2.903556E+03  6.105598E+04
       335  26  5.987283E+04 -2.918881E+05  3.092410E+03  9.669827E+03  8.629297E+03  4.106688E+04
       335  27  4.261215E+04 -3.669795E+05  4.022433E+03  4.937447E+04  6.768214E+03  2.105943E+04
       336   1 -2.997045E+04 -6.167471E+05 -5.068667E+04  4.075373E+04 -4.064697E+03 -1.007013E+04
       336   2 -7.488868E+03 -5.515050E+05 -3.043505E+04  2.106553E+04 -1.465894E+03  1.427265E+03
       336   3  1.320158E+03 -4.909651E+05 -2.104587E+04  3.430539E+04  1.215434E+03  1.292585E+04
       336   4 -6.069588E+03 -5.197529E+05 -2.833521E+04  3.744220E+04 -4.059955E+03 -1.193184E+04
       336   5  9.045933E+02 -5.174046E+05 -2.259014E+04  2.097845E+04 -1.461097E+03 -4.928559E+02
       336   6 -5.782878E+03 -5.197516E+05 -2.766592E+04  3.744297E+04  1.220387E+03  1.094619E+04
       336   7  1.783065E+04 -4.227499E+05 -5.984363E+03  3.413015E+04 -4.055193E+03 -1.379384E+04
       336   8  9.297975E+03 -4.833030E+05 -1.474530E+04  2.089136E+04 -1.456300E+03 -2.413081E+03
       336   9 -1.288593E+04 -5.485373E+05 -3.428600E+04  4.058040E+04  1.225320E+03  8.966618E+03
       336  10 -2.997049E+04 -6.167472E+05 -5.068689E+04  4.075370E+04 -1.388126E-10  1.127932E-09
       336  11 -7.488871E+03 -5.515050E+05 -3.043506E+04  2.106553E+04 -3.842243E-10  6.333525E-09
       336  12  1.320111E+03 -4.909653E+05 -2.104618E+04  3.430538E+04  2.893905E-10  5.626969E-09
       336  13 -6.069644E+03 -5.197530E+05 -2.833551E+04  3.744216E+04  3.840326E-10  6.483605E-13
       336  14  9.045909E+02 -5.174046E+05 -2.259015E+04  2.097845E+04 -7.753629E-10 -1.537405E-08
       336  15 -5.782912E+03 -5.197517E+05 -2.766615E+04  3.744296E+04  9.536798E-10  3.059327E-10
       336  16  1.783058E+04 -4.227501E+05 -5.984752E+03  3.413011E+04 -1.660614E-10  1.484361E-09
       336  17  9.297971E+03 -4.833030E+05 -1.474532E+04  2.089135E+04 -2.639481E-09 -8.229418E-09
       336  18 -1.288596E+04 -5.485374E+05 -3.428616E+04  4.058039E+04  1.270386E-09  8.355225E-10
       336  19 -2.997045E+04 -6.167471E+05 -5.068667E+04  4.075373E+04  4.064697E+03  1.007013E+04
       336  20 -7.488868E+03 -5.515050E+05 -3.043505E+04  2.106553E+04  1.465894E+03 -1.427265E+03
       336  21  1.320158E+03 -4.909651E+05 -2.104587E+04  3.430539E+04 -1.215434E+03 -1.292585E+04
       336  22 -6.069588E+03 -5.197529E+05 -2.833521E+04  3.744220E+04  4.059955E+03  1.193184E+04
       336  23  9.045933E+02 -5.174046E+05 -2.259014E+04  2.097845E+04  1.461097E+03  4.928559E+02
       336  24 -5.782878E+03 -5.197516E+05 -2.766592E+04  3.744297E+04 -1.220387E+03 -1.094619E+04
       336  25  1.783065E+04 -4.227499E+05 -5.984363E+03  3.413015E+04  4.055193E+03  1.379384E+04
       336  26  9.297975E+03 -4.833030E+05 -1.474530E+04  2.089136E+04  1.456300E+03  2.413081E+03
       336  27 -1.288593E+04 -5.485373E+05 -3.428600E+04  4.058040E+04 -1.225320E+03 -8.966618E+03
       337   1  2.563027E+04 -4.349485E+05 -1.064772E+04  4.900521E+04  3.748059E+03  1.952692E+04
       337   2  4.287730E+04 -3.602148E+05 -1.075823E+04  1.025084E+04  5.863217E+03  3.972408E+04
       337   3 -2.595649E+04 -3.094020E+05 -4.549256E+04  4.045725E+03  2.047422E+03  5.990784E+04
       337   4  3.736753E+03 -5.241888E+05 -3.117594E+04  3.742593E+04  3.756899E+03  1.583170E+04
       337   5  5.437562E+03 -5.118647E+05 -4.590707E+04  2.104190E+04  5.862538E+03  4.029098E+04
       337   6 -7.969635E+04 -5.242143E+05 -9.823052E+04  3.720898E+04  2.038034E+03  6.473465E+04
       337   7 -1.815681E+04 -6.134214E+05 -5.170456E+04  2.584832E+04  3.765878E+03  1.213701E+04
       337   8 -3.200337E+04 -6.634930E+05 -8.105740E+04  3.183032E+04  5.861880E+03  4.085775E+04
       337   9 -1.334355E+05 -7.389821E+05 -1.509712E+05  7.036075E+04  2.029160E+03  6.955978E+04
       337  10  2.563016E+04 -4.349489E+05 -1.064846E+04  4.900515E+04 -3.334033E-10  2.356017E-09
       337  11  4.287684E+04 -3.602165E+05 -1.076126E+04  1.025065E+04  2.101524E-10  8.030525E-09
       337  12 -2.595746E+04 -3.094058E+05 -4.549932E+04  4.045626E+03 -2.798495E-10  3.621726E-09
       337  13  3.736670E+03 -5.241891E+05 -3.117643E+04  3.742588E+04  1.582224E-09  5.224959E-11
       337  14  5.437089E+03 -5.118664E+05 -4.591019E+04  2.104171E+04 -8.437480E-10 -1.688302E-08
       337  15 -7.969748E+04 -5.242188E+05 -9.823841E+04  3.720887E+04 -2.088958E-11  3.968065E-09
       337  16 -1.815686E+04 -6.134216E+05 -5.170486E+04  2.584829E+04  1.071937E-09  7.741375E-10
       337  17 -3.200385E+04 -6.634948E+05 -8.106060E+04  3.183012E+04  3.575933E-10 -1.351850E-09
       337  18 -1.334368E+05 -7.389873E+05 -1.509803E+05  7.036064E+04  4.410438E-10  7.718261E-10
       337  19  2.563027E+04 -4.349485E+05 -1.064772E+04  4.900521E+04 -3.748059E+03 -1.952692E+04
       337  20  4.287730E+04 -3.602148E+05 -1.075823E+04  1.025084E+04 -5.863217E+03 -3.972408E+04
       337  21 -2.595649E+04 -3.094020E+05 -4.549256E+04  4.045725E+03 -2.047422E+03 -5.990784E+04
       337  22  3.736753E+03 -5.241888E+05 -3.117594E+04  3.742593E+04 -3.756899E+03 -1.583170E+04
       337  23  5.437562E+03 -5.118647E+05 -4.590707E+04  2.104190E+04 -5.862538E+03 -4.029098E+04
       337  24 -7.969635E+04 -5.242143E+05 -9.823052E+04  3.720898E+04 -2.038034E+03 -6.473465E+04
       337  25 -1.815681E+04 -6.134214E+05 -5.170456E+04  2.584832E+04 -3.765878E+03 -1.213701E+04
       337  26 -3.200337E+04 -6.634930E+05 -8.105740E+04  3.183032E+04 -5.861880E+03 -4.085775E+04
       337  27 -1.334355E+05 -7.389821E+05 -1.509712E+05  7.036075E+04 -2.029160E+03 -6.955978E+04
       338   1  9.656671E+04  9.000153E+04  3.748368E+04  6.617337E+04  2.393573E+04  1.859297E+04
       338   2  8.874113E+04  5.300672E+04  1.282465E+04  7.984303E+04  1.508538E+04  1.308502E+04
       338   3  1.029463E+05  4.557603E+04  4.972990E+03  7.961585E+04  6.732937E+03  6.916929E+03
       338   4  1.359392E+05  9.302692E+04  4.576975E+04  7.424618E+04  2.471162E+04  1.917735E+04
       338   5  1.177577E+05  6.569011E+04  2.055087E+04  9.062823E+04  1.538491E+04  1.331077E+04
       338   6  1.217094E+05  6.801953E+04  1.255264E+04  9.311381E+04  6.556355E+03  6.783824E+03
       338   7  1.753139E+05  9.605258E+04  5.405588E+04  8.231915E+04  2.548757E+04  1.976173E+04
       338   8  1.467752E+05  7.837362E+04  2.827701E+04  1.014139E+05  1.568446E+04  1.353653E+04
       338   9  1.404728E+05  9.046359E+04  2.013219E+04  1.066123E+05  6.379767E+03  6.650710E+03
       338  10  9.656601E+04  9.000100E+04  3.748195E+04  6.617301E+04 -8.777998E-09 -6.312885E-09
       338  11  8.874084E+04  5.300647E+04  1.282390E+04  7.984287E+04 -2.726549E-09  1.444092E-08
       338  12  1.029463E+05  4.557597E+04  4.972815E+03  7.961581E+04  5.623858E-09  2.166934E-08
       338  13  1.359385E+05  9.302637E+04  4.576791E+04  7.424580E+04 -1.890244E-09 -9.093674E-09
       338  14  1.177574E+05  6.568986E+04  2.055009E+04  9.062807E+04 -1.711760E-09  4.201934E-10
       338  15  1.217094E+05  6.801947E+04  1.255247E+04  9.311377E+04 -1.385662E-09  7.522570E-09
       338  16  1.753130E+05  9.605199E+04  5.405393E+04  8.231874E+04  7.083453E-09  5.663911E-09
       338  17  1.467749E+05  7.837336E+04  2.827620E+04  1.014137E+05 -2.099388E-09 -7.174543E-09
       338  18  1.404728E+05  9.046353E+04  2.013203E+04  1.066122E+05 -8.669500E-09 -1.015922E-08
       338  19  9.656671E+04  9.000153E+04  3.748368E+04  6.617337E+04 -2.393573E+04 -1.859297E+04
       338  20  8.874113E+04  5.300672E+04  1.282465E+04  7.984303E+04 -1.508538E+04 -1.308502E+04
       338  21  1.029463E+05  4.557603E+04  4.972990E+03  7.961585E+04 -6.732937E+03 -6.916929E+03
       338  22  1.359392E+05  9.302692E+04  4.576975E+04  7.424618E+04 -2.471162E+04 -1.917735E+04
       338  23  1.177577E+05  6.569011E+04  2.055087E+04  9.062823E+04 -1.538491E+04 -1.331077E+04
       338  24  1.217094E+05  6.801953E+04  1.255264E+04  9.311381E+04 -6.556355E+03 -6.783824E+03
       338  25  1.753139E+05  9.605258E+04  5.405588E+04  8.231915E+04 -2.548757E+04 -1.976173E+04
       338  26  1.467752E+05  7.837362E+04  2.827701E+04  1.014139E+05 -1.568446E+04 -1.353653E+04
       338  27  1.404728E+05  9.046359E+04  2.013219E+04  1.066123E+05 -6.379767E+03 -6.650710E+03
       339   1  9.734760E+04  5.420608E+04  2.694410E+03  7.811176E+04  5.103060E+03  5.550907E+03
       339   2  9.676231E+04  5.171817E+04 -1.656227E+03  7.926992E+04  2.790542E+03  3.839898E+03
       339   3  9.824554E+04  5.142190E+04 -3.357241E+03  7.942818E+04  5.025448E+02  2.096350E+03
       339   4  1.219970E+05  7.025450E+04  1.022142E+04  8.968826E+04  5.130324E+03  5.571453E+03
       339   5  1.204304E+05  6.822482E+04  5.754162E+03  9.089088E+04  2.794274E+03  3.842704E+03
       339   6  1.209373E+05  6.839179E+04  3.956905E+03  9.109361E+04  4.827403E+02  2.081407E+03
       339   7  1.466471E+05  8.630318E+04  1.774835E+04  1.012653E+05  5.157590E+03  5.591999E+03
       339   8  1.440991E+05  8.473182E+04  1.316451E+04  1.025124E+05  2.798006E+03  3.845511E+03
       339   9  1.436298E+05  8.536213E+04  1.127105E+04  1.027596E+05  4.629347E+02  2.066464E+03
       339  10  9.734756E+04  5.420604E+04  2.694303E+03  7.811174E+04  7.386949E-11  1.079658E-08
       339  11  9.676229E+04  5.171815E+04 -1.656269E+03  7.926991E+04 -1.630482E-09  1.220810E-08
       339  12  9.824554E+04  5.142189E+04 -3.357250E+03  7.942818E+04 -2.678123E-09 -8.752095E-09
       339  13  1.219970E+05  7.025446E+04  1.022131E+04  8.968824E+04 -6.844896E-10  1.351049E-08
       339  14  1.204304E+05  6.822480E+04  5.754119E+03  9.089087E+04  9.592788E-11 -5.902886E-09
       339  15  1.209373E+05  6.839178E+04  3.956896E+03  9.109361E+04 -1.855229E-09  1.061501E-09
       339  16  1.466470E+05  8.630314E+04  1.774825E+04  1.012652E+05 -1.803584E-09 -4.531526E-09
       339  17  1.440991E+05  8.473180E+04  1.316447E+04  1.025124E+05  1.267937E-09  1.077789E-08
       339  18  1.436298E+05  8.536213E+04  1.127104E+04  1.027596E+05  4.045136E-10  4.030346E-09
       339  19  9.734760E+04  5.420608E+04  2.694410E+03  7.811176E+04 -5.103060E+03 -5.550907E+03
       339  20  9.676231E+04  5.171817E+04 -1.656227E+03  7.926992E+04 -2.790542E+03 -3.839898E+03
       339  21  9.824554E+04  5.142190E+04 -3.357241E+03  7.942818E+04 -5.025448E+02 -2.096350E+03
       339  22  1.219970E+05  7.025450E+04  1.022142E+04  8.968826E+04 -5.130324E+03 -5.571453E+03
       339  23  1.204304E+05  6.822482E+04  5.754162E+03  9.089088E+04 -2.794274E+03 -3.842704E+03
       339  24  1.209373E+05  6.839179E+04  3.956905E+03  9.109361E+04 -4.827403E+02 -2.081407E+03
       339  25  1.466471E+05  8.630318E+04  1.774835E+04  1.012653E+05 -5.157590E+03 -5.591999E+03
       339  26  1.440991E+05  8.473182E+04  1.316451E+04  1.025124E+05 -2.798006E+03 -3.845511E+03
       339  27  1.436298E+05  8.536213E+04  1.127105E+04  1.027596E+05 -4.629347E+02 -2.066464E+03
       340   1  9.800583E+04  5.229398E+04 -3.680881E+03  7.948424E+04 -2.821329E+01  1.675578E+03
       340   2  9.807043E+04  5.229808E+04 -3.760094E+03  7.966277E+04 -1.355131E+03  6.524514E+02
       340   3  9.879158E+04  5.262144E+04 -2.597161E+03  7.967084E+04 -2.679989E+03 -3.733674E+02
       340   4  1.209402E+05  6.853291E+04  3.542940E+03  9.085692E+04 -3.742708E+01  1.668622E+03
       340   5  1.206331E+05  6.841072E+04  3.372142E+03  9.091373E+04 -1.366354E+03  6.439808E+02
       340   6  1.209829E+05  6.860817E+04  4.445200E+03  9.080008E+04 -2.693225E+03 -3.833560E+02
       340   7  1.438749E+05  8.477200E+04  1.076663E+04  1.022300E+05 -4.664127E+01  1.661666E+03
       340   8  1.431962E+05  8.452357E+04  1.050428E+04  1.021651E+05 -1.377577E+03  6.355099E+02
       340   9  1.431748E+05  8.459518E+04  1.148750E+04  1.019298E+05 -2.706461E+03 -3.933450E+02
       340  10  9.800583E+04  5.229398E+04 -3.680886E+03  7.948424E+04  7.042829E-09  2.197865E-09
       340  11  9.807043E+04  5.229808E+04 -3.760099E+03  7.966277E+04  1.168250E-09 -1.313078E-08
       340  12  9.879157E+04  5.262144E+04 -2.597175E+03  7.967084E+04 -2.625038E-09 -9.177364E-11
       340  13  1.209402E+05  6.853291E+04  3.542935E+03  9.085692E+04  1.885651E-09 -6.993197E-09
       340  14  1.206331E+05  6.841072E+04  3.372137E+03  9.091373E+04  5.031088E-09 -1.931368E-10
       340  15  1.209829E+05  6.860817E+04  4.445186E+03  9.080007E+04  3.011433E-09  6.470108E-10
       340  16  1.438749E+05  8.477199E+04  1.076663E+04  1.022300E+05 -5.186425E-09 -7.262952E-09
       340  17  1.431962E+05  8.452357E+04  1.050428E+04  1.021651E+05  4.239664E-09 -5.171222E-09
       340  18  1.431748E+05  8.459518E+04  1.148748E+04  1.019298E+05  1.076132E-08 -1.271971E-09
       340  19  9.800583E+04  5.229398E+04 -3.680881E+03  7.948424E+04  2.821329E+01 -1.675578E+03
       340  20  9.807043E+04  5.229808E+04 -3.760094E+03  7.966277E+04  1.355131E+03 -6.524514E+02
       340  21  9.879158E+04  5.262144E+04 -2.597161E+03  7.967084E+04  2.679989E+03  3.733674E+02
       340  22  1.209402E+05  6.853291E+04  3.542940E+03  9.085692E+04  3.742708E+01 -1.668622E+03
       340  23  1.206331E+05  6.841072E+04  3.372142E+03  9.091373E+04  1.366354E+03 -6.439808E+02
       340  24  1.209829E+05  6.860817E+04  4.445200E+03  9.080008E+04  2.693225E+03  3.833560E+02
       340  25  1.438749E+05  8.477200E+04  1.076663E+04  1.022300E+05  4.664127E+01 -1.661666E+03
       340  26  1.431962E+05  8.452357E+04  1.050428E+04  1.021651E+05  1.377577E+03 -6.355099E+02
       340  27  1.431748E+05  8.459518E+04  1.148750E+04  1.019298E+05  2.706461E+03  3.933450E+02
       341   1  9.829599E+04  5.336376E+04 -1.597742E+03  8.043308E+04 -3.374782E+03 -9.068403E+02
       341   2  9.893116E+04  5.219867E+04  1.660590E+03  7.993389E+04 -6.782582E+03 -3.507385E+03
       341   3  1.026425E+05  5.456079E+04  8.918345E+03  7.790348E+04 -1.017021E+04 -6.134771E+03
       341   4  1.209872E+05  6.838276E+04  5.354455E+03  9.120600E+04 -3.379114E+03 -9.101083E+02
       341   5  1.202783E+05  6.807845E+04  8.527046E+03  9.086919E+04 -6.806382E+03 -3.525347E+03
       341   6  1.226495E+05  7.130554E+04  1.571588E+04  8.900122E+04 -1.021344E+04 -6.167417E+03
       341   7  1.436792E+05  8.340210E+04  1.230665E+04  1.019794E+05 -3.383446E+03 -9.133764E+02
       341   8  1.416258E+05  8.395851E+04  1.539344E+04  1.018049E+05 -6.830184E+03 -3.543309E+03
       341   9  1.426568E+05  8.805049E+04  2.251330E+04  1.000993E+05 -1.025667E+04 -6.200064E+03
       341  10  9.829597E+04  5.336375E+04 -1.597765E+03  8.043308E+04  1.158235E-08  1.272991E-08
       341  11  9.893111E+04  5.219864E+04  1.660480E+03  7.993387E+04  3.803624E-09  2.948069E-09
       341  12  1.026424E+05  5.456072E+04  8.918080E+03  7.790343E+04 -3.365356E-09  3.195151E-09
       341  13  1.209872E+05  6.838275E+04  5.354432E+03  9.120600E+04  5.823140E-09  6.587358E-09
       341  14  1.202782E+05  6.807842E+04  8.526936E+03  9.086918E+04  5.631956E-09  1.340759E-08
       341  15  1.226494E+05  7.130547E+04  1.571561E+04  8.900117E+04  3.722997E-09 -2.140886E-09
       341  16  1.436792E+05  8.340210E+04  1.230662E+04  1.019794E+05 -4.202213E-09 -2.056406E-09
       341  17  1.416258E+05  8.395848E+04  1.539333E+04  1.018049E+05  6.617625E-09 -7.281123E-10
       341  18  1.426567E+05  8.805042E+04  2.251303E+04  1.000993E+05  1.394958E-08  2.501700E-09
       341  19  9.829599E+04  5.336376E+04 -1.597742E+03  8.043308E+04  3.374782E+03  9.068403E+02
       341  20  9.893116E+04  5.219867E+04  1.660590E+03  7.993389E+04  6.782582E+03  3.507385E+03
       341  21  1.026425E+05  5.456079E+04  8.918345E+03  7.790348E+04  1.017021E+04  6.134771E+03
       341  22  1.209872E+05  6.838276E+04  5.354455E+03  9.120600E+04  3.379114E+03  9.101083E+02
       341  23  1.202783E+05  6.807845E+04  8.527046E+03  9.086919E+04  6.806382E+03  3.525347E+03
       341  24  1.226495E+05  7.130554E+04  1.571588E+04  8.900122E+04  1.021344E+04  6.167417E+03
       341  25  1.436792E+05  8.340210E+04  1.230665E+04  1.019794E+05  3.383446E+03  9.133764E+02
       341  26  1.416258E+05  8.395851E+04  1.539344E+04  1.018049E+05  6.830184E+03  3.543309E+03
       341  27  1.426568E+05  8.805049E+04  2.251330E+04  1.000993E+05  1.025667E+04  6.200064E+03
       342   1  9.280541E+04  6.090735E+04  1.275219E+04  8.614373E+04 -1.267943E+04 -7.940646E+03
       342   2  1.025441E+05  4.185474E+04  2.539835E+04  7.794746E+04 -2.587639E+04 -1.804731E+04
       342   3  1.466991E+05  6.916637E+04  6.458847E+04  4.805415E+04 -3.866230E+04 -2.869914E+04
       342   4  1.222153E+05  6.780228E+04  1.942918E+04  9.435538E+04 -1.255443E+04 -7.846125E+03
       342   5  1.160811E+05  6.412433E+04  3.203148E+04  9.046086E+04 -2.614459E+04 -1.825007E+04
       342   6  1.444467E+05  1.068946E+05  7.151908E+04  6.486985E+04 -3.932324E+04 -2.919990E+04
       342   7  1.516263E+05  7.469730E+04  2.610616E+04  1.025673E+05 -1.242942E+04 -7.751603E+03
       342   8  1.296184E+05  8.639477E+04  3.866461E+04  1.029747E+05 -2.641279E+04 -1.845283E+04
       342   9  1.421952E+05  1.446263E+05  7.845000E+04  8.168592E+04 -3.998418E+04 -2.970073E+04
       342  10  9.280522E+04  6.090724E+04  1.275177E+04  8.614365E+04  5.749986E-09  7.180283E-09
       342  11  1.025433E+05  4.185421E+04  2.539648E+04  7.794709E+04  1.138805E-09  3.538527E-09
       342  12  1.466973E+05  6.916508E+04  6.458411E+04  4.805326E+04  5.025792E-10 -4.410355E-09
       342  13  1.222151E+05  6.780217E+04  1.942877E+04  9.435530E+04  3.611841E-09  3.647685E-09
       342  14  1.160802E+05  6.412378E+04  3.202957E+04  9.046047E+04  6.023161E-10  8.374851E-09
       342  15  1.444448E+05  1.068933E+05  7.151458E+04  6.486893E+04 -3.440842E-09  3.031241E-09
       342  16  1.516261E+05  7.469720E+04  2.610575E+04  1.025672E+05 -4.879620E-10  1.304146E-10
       342  17  1.296175E+05  8.639422E+04  3.866266E+04  1.029744E+05 -4.123705E-09 -6.099273E-09
       342  18  1.421932E+05  1.446249E+05  7.844534E+04  8.168497E+04 -2.841648E-09 -6.390961E-09
       342  19  9.280541E+04  6.090735E+04  1.275219E+04  8.614373E+04  1.267943E+04  7.940646E+03
       342  20  1.025441E+05  4.185474E+04  2.539835E+04  7.794746E+04  2.587639E+04  1.804731E+04
       342  21  1.466991E+05  6.916637E+04  6.458847E+04  4.805415E+04  3.866230E+04  2.869914E+04
       342  22  1.222153E+05  6.780228E+04  1.942918E+04  9.435538E+04  1.255443E+04  7.846125E+03
       342  23  1.160811E+05  6.412433E+04  3.203148E+04  9.046086E+04  2.614459E+04  1.825007E+04
       342  24  1.444467E+05  1.068946E+05  7.151908E+04  6.486985E+04  3.932324E+04  2.919990E+04
       342  25  1.516263E+05  7.469730E+04  2.610616E+04  1.025673E+05  1.242942E+04  7.751603E+03
       342  26  1.296184E+05  8.639477E+04  3.866461E+04  1.029747E+05  2.641279E+04  1.845283E+04
       342  27  1.421952E+05  1.446263E+05  7.845000E+04  8.168592E+04  3.998418E+04  2.970073E+04
       343   1 -6.468649E+04 -5.250259E+05 -7.256614E+04  2.753339E+04 -1.203830E+03 -3.201020E+04
       343   2 -2.082379E+04 -4.992603E+05 -4.278554E+04  1.232433E+04 -3.730094E+03 -1.870817E+04
       343   3 -1.665235E+04 -4.850790E+05 -3.158284E+04  7.407362E+03 -3.244682E+03 -5.397346E+03
       343   4 -3.604244E+04 -4.104333E+05 -4.448700E+04  1.247399E+04 -1.210863E+03 -2.913779E+04
       343   5  2.475017E+03 -4.048256E+05 -2.093008E+04  7.378703E+03 -3.731808E+03 -1.800117E+04
       343   6  1.680353E+03 -4.104248E+05 -1.444435E+04  1.257600E+04 -3.240849E+03 -6.856237E+03
       343   7 -7.398519E+03 -2.958282E+05 -1.640868E+04 -2.588185E+03 -1.218035E+03 -2.626486E+04
       343   8  2.577328E+04 -3.103827E+05  9.247998E+02  2.432321E+03 -3.733534E+03 -1.729406E+04
       343   9  2.001277E+04 -3.357654E+05  2.693801E+03  1.774527E+04 -3.237040E+03 -8.315303E+03
       343  10 -6.468677E+04 -5.250270E+05 -7.256807E+04  2.753336E+04 -1.127096E-09 -5.439367E-09
       343  11 -2.082390E+04 -4.992607E+05 -4.278622E+04  1.232427E+04 -3.812781E-09 -8.366506E-09
       343  12 -1.665237E+04 -4.850791E+05 -3.158291E+04  7.407348E+03 -1.455049E-10 -5.878941E-09
       343  13 -3.604267E+04 -4.104342E+05 -4.448860E+04  1.247397E+04  1.360505E-10 -4.288439E-09
       343  14  2.474915E+03 -4.048260E+05 -2.093071E+04  7.378648E+03 -2.325045E-09  3.206947E-09
       343  15  1.680329E+03 -4.104249E+05 -1.444445E+04  1.257598E+04 -8.913029E-10 -1.037133E-08
       343  16 -7.398705E+03 -2.958290E+05 -1.640998E+04 -2.588210E+03 -2.763313E-10  6.053513E-10
       343  17  2.577319E+04 -3.103830E+05  9.242113E+02  2.432269E+03  1.066064E-09  6.752445E-09
       343  18  2.001274E+04 -3.357654E+05  2.693652E+03  1.774525E+04 -1.894869E-09  1.120676E-08
       343  19 -6.468649E+04 -5.250259E+05 -7.256614E+04  2.753339E+04  1.203830E+03  3.201020E+04
       343  20 -2.082379E+04 -4.992603E+05 -4.278554E+04  1.232433E+04  3.730094E+03  1.870817E+04
       343  21 -1.665235E+04 -4.850790E+05 -3.158284E+04  7.407362E+03  3.244682E+03  5.397346E+03
       343  22 -3.604244E+04 -4.104333E+05 -4.448700E+04  1.247399E+04  1.210863E+03  2.913779E+04
       343  23  2.475017E+03 -4.048256E+05 -2.093008E+04  7.378703E+03  3.731808E+03  1.800117E+04
       343  24  1.680353E+03 -4.104248E+05 -1.444435E+04  1.257600E+04  3.240849E+03  6.856237E+03
       343  25 -7.398519E+03 -2.958282E+05 -1.640868E+04 -2.588185E+03  1.218035E+03  2.626486E+04
       343  26  2.577328E+04 -3.103827E+05  9.247998E+02  2.432321E+03  3.733534E+03  1.729406E+04
       343  27  2.001277E+04 -3.357654E+05  2.693801E+03  1.774527E+04  3.237040E+03  8.315303E+03
       344   1 -1.621603E+04 -4.638243E+05 -2.573351E+04  1.416815E+04 -2.311953E+03 -4.025286E+03
       344   2 -8.236882E+03 -4.426108E+05 -1.914211E+04  7.365968E+03 -1.518546E+03  1.613993E+03
       344   3 -6.902854E+03 -4.237232E+05 -1.786999E+04  1.105853E+04 -6.398225E+02  7.253621E+03
       344   4 -2.573354E+03 -4.084499E+05 -1.296969E+04  1.258990E+04 -2.310483E+03 -4.576415E+03
       344   5  4.549848E+02 -4.072920E+05 -1.101802E+04  7.341785E+03 -1.516940E+03  1.001802E+03
       344   6 -3.150956E+03 -4.084497E+05 -1.434294E+04  1.258842E+04 -6.380560E+02  6.580190E+03
       344   7  1.106912E+04 -3.530725E+05 -2.060636E+02  1.101152E+04 -2.309010E+03 -5.127593E+03
       344   8  9.146764E+03 -3.719720E+05 -2.894002E+03  7.317601E+03 -1.515334E+03  3.895762E+02
       344   9  6.009355E+02 -3.931760E+05 -1.081589E+04  1.411835E+04 -6.362928E+02  5.906742E+03
       344  10 -1.621604E+04 -4.638244E+05 -2.573355E+04  1.416814E+04 -3.477530E-10 -1.074757E-08
       344  11 -8.236885E+03 -4.426108E+05 -1.914212E+04  7.365970E+03 -1.003047E-09 -8.127962E-09
       344  12 -6.902868E+03 -4.237233E+05 -1.787009E+04  1.105853E+04  1.059814E-09 -2.672306E-09
       344  13 -2.573365E+03 -4.084499E+05 -1.296974E+04  1.258989E+04 -1.064679E-09  1.014869E-11
       344  14  4.549820E+02 -4.072920E+05 -1.101802E+04  7.341786E+03 -2.944769E-10 -1.060247E-09
       344  15 -3.150968E+03 -4.084497E+05 -1.434302E+04  1.258842E+04 -1.609295E-10 -1.160636E-08
       344  16  1.106911E+04 -3.530726E+05 -2.061231E+02  1.101151E+04 -2.032356E-09  4.997345E-09
       344  17  9.146762E+03 -3.719720E+05 -2.894007E+03  7.317602E+03  1.404366E-09  7.678439E-09
       344  18  6.009257E+02 -3.931760E+05 -1.081596E+04  1.411835E+04  3.466797E-10  9.675957E-09
       344  19 -1.621603E+04 -4.638243E+05 -2.573351E+04  1.416815E+04  2.311953E+03  4.025286E+03
       344  20 -8.236882E+03 -4.426108E+05 -1.914211E+04  7.365968E+03  1.518546E+03 -1.613993E+03
       344  21 -6.902854E+03 -4.237232E+05 -1.786999E+04  1.105853E+04  6.398225E+02 -7.253621E+03
       344  22 -2.573354E+03 -4.084499E+05 -1.296969E+04  1.258990E+04  2.310483E+03  4.576415E+03
       344  23  4.549848E+02 -4.072920E+05 -1.101802E+04  7.341785E+03  1.516940E+03 -1.001802E+03
       344  24 -3.150956E+03 -4.084497E+05 -1.434294E+04  1.258842E+04  6.380560E+02 -6.580190E+03
       344  25  1.106912E+04 -3.530725E+05 -2.060636E+02  1.101152E+04  2.309010E+03  5.127593E+03
       344  26  9.146764E+03 -3.719720E+05 -2.894002E+03  7.317601E+03  1.515334E+03 -3.895762E+02
       344  27  6.009355E+02 -3.931760E+05 -1.081589E+04  1.411835E+04  6.362928E+02 -5.906742E+03
       345   1  3.074726E+03 -4.069030E+05 -1.550207E+04  1.898759E+04  9.981570E+01  1.015832E+04
       345   2  8.922325E+03 -3.802496E+05 -1.918396E+04  1.593686E+03  8.493062E+02  2.242318E+04
       345   3 -3.226815E+04 -3.668856E+05 -4.259829E+04 -5.420828E+03  3.016548E+02  3.468490E+04
       345   4  2.122572E+03 -4.109228E+05 -1.644007E+04  1.260021E+04  1.023801E+02  9.129031E+03
       345   5  2.979530E+03 -4.042010E+05 -2.475639E+04  7.350950E+03  8.497668E+02  2.232659E+04
       345   6 -4.336518E+04 -4.109321E+05 -5.345393E+04  1.248116E+04  3.004685E+02  3.552059E+04
       345   7  1.170570E+03 -4.149425E+05 -1.737805E+04  6.212861E+03  1.049657E+02  8.099745E+03
       345   8 -2.963181E+03 -4.281518E+05 -3.032885E+04  1.310799E+04  8.502256E+02  2.223000E+04
       345   9 -5.446116E+04 -4.549761E+05 -6.430955E+04  3.038187E+04  2.993305E+02  3.635622E+04
       345  10  3.074699E+03 -4.069031E+05 -1.550226E+04  1.898759E+04  2.670939E-09 -9.721071E-09
       345  11  8.922189E+03 -3.802501E+05 -1.918491E+04  1.593671E+03  1.945003E-09 -5.048445E-09
       345  12 -3.226847E+04 -3.668869E+05 -4.260055E+04 -5.420836E+03  1.638244E-10 -1.370664E-09
       345  13  2.122549E+03 -4.109229E+05 -1.644023E+04  1.260020E+04  2.154868E-09 -2.121813E-09
       345  14  2.979396E+03 -4.042015E+05 -2.475733E+04  7.350935E+03  1.014433E-09 -2.149835E-09
       345  15 -4.336552E+04 -4.109334E+05 -5.345631E+04  1.248115E+04  2.997795E-10 -6.226647E-09
       345  16  1.170552E+03 -4.149425E+05 -1.737818E+04  6.212861E+03  1.328675E-09  4.162573E-09
       345  17 -2.963315E+03 -4.281523E+05 -3.032978E+04  1.310798E+04  2.985288E-09  3.523436E-09
       345  18 -5.446152E+04 -4.549775E+05 -6.431204E+04  3.038186E+04  1.405055E-10  5.657448E-09
       345  19  3.074726E+03 -4.069030E+05 -1.550207E+04  1.898759E+04 -9.981570E+01 -1.015832E+04
       345  20  8.922325E+03 -3.802496E+05 -1.918396E+04  1.593686E+03 -8.493062E+02 -2.242318E+04
       345  21 -3.226815E+04 -3.668856E+05 -4.259829E+04 -5.420828E+03 -3.016548E+02 -3.468490E+04
       345  22  2.122572E+03 -4.109228E+05 -1.644007E+04  1.260021E+04 -1.023801E+02 -9.129031E+03
       345  23  2.979530E+03 -4.042010E+05 -2.475639E+04  7.350950E+03 -8.497668E+02 -2.232659E+04
       345  24 -4.336518E+04 -4.109321E+05 -5.345393E+04  1.248116E+04 -3.004685E+02 -3.552059E+04
       345  25  1.170570E+03 -4.149425E+05 -1.737805E+04  6.212861E+03 -1.049657E+02 -8.099745E+03
       345  26 -2.963181E+03 -4.281518E+05 -3.032885E+04  1.310799E+04 -8.502256E+02 -2.223000E+04
       345  27 -5.446116E+04 -4.549761E+05 -6.430955E+04  3.038187E+04 -2.993305E+02 -3.635622E+04
       346   1  1.266079E+05  9.198055E+04  8.534600E+04  3.014475E+04 -5.326988E+03 -5.173016E+03
       346   2  6.148611E+04  9.584722E+04  7.713326E+04  1.850972E+04 -7.608524E+03 -1.538947E+04
       346   3 -8.359937E+03  7.898482E+04  6.524953E+04  4.173001E+04 -9.878866E+03 -1.386709E+04
       346   4 -3.253125E+05 -2.054599E+04 -2.522188E+04  3.887162E+04 -1.690383E+04 -5.162162E+03
       346   5 -3.222046E+05  1.349892E+03 -1.158655E+04  2.145270E+04 -1.073530E+04 -1.538761E+04
       346   6 -3.252956E+05  1.042735E+03 -7.494214E+03  3.889086E+04 -4.555618E+03 -1.387095E+04
       346   7 -7.770464E+05 -1.330873E+05 -1.358041E+05  4.759216E+04 -2.847226E+04 -5.151629E+03
       346   8 -7.057592E+05 -9.315775E+04 -1.003162E+05  2.439388E+04 -1.386015E+04 -1.538577E+04
       346   9 -6.421381E+05 -7.690631E+04 -8.024447E+04  3.605319E+04  7.649353E+02 -1.387485E+04
       346  10  1.266078E+05  9.198051E+04  8.534589E+04  3.014473E+04 -5.667062E-11  1.714090E-11
       346  11  6.148599E+04  9.584695E+04  7.713271E+04  1.850962E+04  2.271759E-10  8.152949E-11
       346  12 -8.360093E+03  7.898458E+04  6.524899E+04  4.172990E+04 -2.430746E-11 -3.641626E-11
       346  13 -3.253128E+05 -2.054609E+04 -2.522247E+04  3.887155E+04 -5.518822E-10  3.794091E-11
       346  14 -3.222048E+05  1.349607E+03 -1.158721E+04  2.145257E+04  6.036782E-10  5.940090E-11
       346  15 -3.252956E+05  1.042523E+03 -7.494615E+03  3.889081E+04  1.395308E-10  8.161497E-12
       346  16 -7.770472E+05 -1.330875E+05 -1.358057E+05  4.759204E+04  3.386271E-10  3.980479E-11
       346  17 -7.057595E+05 -9.315805E+04 -1.003170E+05  2.439371E+04  3.322221E-10  7.748384E-11
       346  18 -6.421381E+05 -7.690651E+04 -8.024484E+04  3.605320E+04 -2.240178E-10 -7.817885E-12
       346  19  1.266079E+05  9.198055E+04  8.534600E+04  3.014475E+04  5.326988E+03  5.173016E+03
       346  20  6.148611E+04  9.584722E+04  7.713326E+04  1.850972E+04  7.608524E+03  1.538947E+04
       346  21 -8.359937E+03  7.898482E+04  6.524953E+04  4.173001E+04  9.878866E+03  1.386709E+04
       346  22 -3.253125E+05 -2.054599E+04 -2.522188E+04  3.887162E+04  1.690383E+04  5.162162E+03
       346  23 -3.222046E+05  1.349892E+03 -1.158655E+04  2.145270E+04  1.073530E+04  1.538761E+04
       346  24 -3.252956E+05  1.042735E+03 -7.494214E+03  3.889086E+04  4.555618E+03  1.387095E+04
       346  25 -7.770464E+05 -1.330873E+05 -1.358041E+05  4.759216E+04  2.847226E+04  5.151629E+03
       346  26 -7.057592E+05 -9.315775E+04 -1.003162E+05  2.439388E+04  1.386015E+04  1.538577E+04
       346  27 -6.421381E+05 -7.690631E+04 -8.024447E+04  3.605319E+04 -7.649353E+02  1.387485E+04
       347   1 -7.201015E+04  6.046478E+04  5.165016E+04  3.830452E+04 -5.115771E+03 -1.055358E+04
       347   2 -1.392643E+05  4.551293E+04  3.780273E+04  2.107962E+04 -3.198111E+03 -7.892631E+03
       347   3 -2.071905E+05  2.857863E+04  2.222573E+04  3.925236E+04 -1.281231E+03 -4.666992E+03
       347   4 -3.240757E+05 -1.576092E+03 -6.431458E+03  3.900528E+04 -3.401690E+03 -1.055486E+04
       347   5 -3.236988E+05  1.326496E+02 -4.617130E+03  2.130648E+04 -1.078354E+03 -7.893870E+03
       347   6 -3.240688E+05 -2.115950E+02 -4.814458E+03  3.900604E+04  1.244406E+03 -4.668101E+03
       347   7 -5.760824E+05 -6.362141E+04 -6.451729E+04  3.970575E+04 -1.688299E+03 -1.055614E+04
       347   8 -5.081017E+05 -4.525000E+04 -4.703922E+04  2.153328E+04  1.040779E+03 -7.895109E+03
       347   9 -4.409346E+05 -2.900278E+04 -3.185554E+04  3.875975E+04  3.769571E+03 -4.669212E+03
       347  10 -7.201021E+04  6.046466E+04  5.164990E+04  3.830448E+04 -1.565596E-11 -6.019277E-11
       347  11 -1.392644E+05  4.551286E+04  3.780259E+04  2.107960E+04  3.463404E-10 -2.421982E-11
       347  12 -2.071905E+05  2.857861E+04  2.222569E+04  3.925236E+04 -2.817192E-10 -8.606377E-11
       347  13 -3.240757E+05 -1.576214E+03 -6.431689E+03  3.900525E+04  1.848634E-10 -1.253359E-10
       347  14 -3.236988E+05  1.325824E+02 -4.617249E+03  2.130648E+04  7.263316E-10 -5.122718E-11
       347  15 -3.240689E+05 -2.116188E+02 -4.814502E+03  3.900604E+04  4.928253E-10 -6.517033E-11
       347  16 -5.760825E+05 -6.362153E+04 -6.451750E+04  3.970574E+04  2.247154E-10 -3.625314E-11
       347  17 -5.081017E+05 -4.525007E+04 -4.703934E+04  2.153329E+04  3.335166E-10 -5.433282E-11
       347  18 -4.409346E+05 -2.900280E+04 -3.185560E+04  3.875977E+04  3.144779E-10  9.342539E-11
       347  19 -7.201015E+04  6.046478E+04  5.165016E+04  3.830452E+04  5.115771E+03  1.055358E+04
       347  20 -1.392643E+05  4.551293E+04  3.780273E+04  2.107962E+04  3.198111E+03  7.892631E+03
       347  21 -2.071905E+05  2.857863E+04  2.222573E+04  3.925236E+04  1.281231E+03  4.666992E+03
       347  22 -3.240757E+05 -1.576092E+03 -6.431458E+03  3.900528E+04  3.401690E+03  1.055486E+04
       347  23 -3.236988E+05  1.326496E+02 -4.617130E+03  2.130648E+04  1.078354E+03  7.893870E+03
       347  24 -3.240688E+05 -2.115950E+02 -4.814458E+03  3.900604E+04 -1.244406E+03  4.668101E+03
       347  25 -5.760824E+05 -6.362141E+04 -6.451729E+04  3.970575E+04  1.688299E+03  1.055614E+04
       347  26 -5.081017E+05 -4.525000E+04 -4.703922E+04  2.153328E+04 -1.040779E+03  7.895109E+03
       347  27 -4.409346E+05 -2.900278E+04 -3.185554E+04  3.875975E+04 -3.769571E+03  4.669212E+03
       348   1 -2.721837E+05  1.284348E+04  6.427276E+03  3.835417E+04 -3.238131E+02 -2.611370E+03
       348   2 -3.390382E+05 -3.528203E+03 -1.131925E+04  2.162365E+04  3.832104E+03  6.353485E+02
       348   3 -4.074723E+05 -2.424016E+04 -3.284894E+04  4.033204E+04  7.987407E+03  3.531967E+03
       348   4 -3.242425E+05  6.863937E+01 -5.367763E+03  3.901538E+04  2.140209E+03 -2.612358E+03
       348   5 -3.234729E+05  3.051950E+02 -7.724923E+03  2.129507E+04  6.044102E+03  6.344267E+02
       348   6 -3.242441E+05 -3.754547E+03 -1.368993E+04  3.901376E+04  9.947828E+03  3.531118E+03
       348   7 -3.762987E+05 -1.270638E+04 -1.716295E+04  3.967653E+04  4.604027E+03 -2.613341E+03
       348   8 -3.079074E+05  4.138580E+03 -4.130595E+03  2.096649E+04  8.256156E+03  6.335025E+02
       348   9 -2.410094E+05  1.673059E+04  5.468629E+03  3.769529E+04  1.190851E+04  3.530261E+03
       348  10 -2.721837E+05  1.284347E+04  6.427263E+03  3.835417E+04  3.673285E-10  9.254878E-11
       348  11 -3.390382E+05 -3.528208E+03 -1.131928E+04  2.162364E+04  5.965603E-10  9.723988E-11
       348  12 -4.074724E+05 -2.424019E+04 -3.284908E+04  4.033202E+04  1.642727E-11 -4.732179E-11
       348  13 -3.242425E+05  6.863082E+01 -5.367785E+03  3.901538E+04 -5.089710E-10  6.640681E-11
       348  14 -3.234729E+05  3.051848E+02 -7.724993E+03  2.129507E+04  1.201770E-10 -3.248426E-11
       348  15 -3.242442E+05 -3.754587E+03 -1.369014E+04  3.901373E+04  8.858114E-11 -4.740501E-11
       348  16 -3.762988E+05 -1.270640E+04 -1.716301E+04  3.967654E+04  1.270012E-11  1.000802E-10
       348  17 -3.079074E+05  4.138561E+03 -4.130724E+03  2.096649E+04 -2.854709E-10 -1.972131E-10
       348  18 -2.410095E+05  1.673054E+04  5.468339E+03  3.769526E+04  1.578316E-10 -1.494821E-11
       348  19 -2.721837E+05  1.284348E+04  6.427276E+03  3.835417E+04  3.238131E+02  2.611370E+03
       348  20 -3.390382E+05 -3.528203E+03 -1.131925E+04  2.162365E+04 -3.832104E+03 -6.353485E+02
       348  21 -4.074723E+05 -2.424016E+04 -3.284894E+04  4.033204E+04 -7.987407E+03 -3.531967E+03
       348  22 -3.242425E+05  6.863937E+01 -5.367763E+03  3.901538E+04 -2.140209E+03  2.612358E+03
       348  23 -3.234729E+05  3.051950E+02 -7.724923E+03  2.129507E+04 -6.044102E+03 -6.344267E+02
       348  24 -3.242441E+05 -3.754547E+03 -1.368993E+04  3.901376E+04 -9.947828E+03 -3.531118E+03
       348  25 -3.762987E+05 -1.270638E+04 -1.716295E+04  3.967653E+04 -4.604027E+03  2.613341E+03
       348  26 -3.079074E+05  4.138580E+03 -4.130595E+03  2.096649E+04 -8.256156E+03 -6.335025E+02
       348  27 -2.410094E+05  1.673059E+04  5.468629E+03  3.769529E+04 -1.190851E+04 -3.530261E+03
       349   1 -4.754491E+05 -3.375881E+04 -5.086354E+04  3.167083E+04  8.139343E+03  6.375556E+03
       349   2 -5.349185E+05 -4.964400E+04 -7.734268E+04  2.801289E+04  2.833787E+04  8.522420E+03
       349   3 -6.106745E+05 -1.204521E+05 -1.306956E+05  5.944913E+04  4.852984E+04  3.009944E+03
       349   4 -3.273095E+05  2.686583E+03 -1.680341E+04  3.894716E+04  1.244907E+04  6.373666E+03
       349   5 -3.196543E+05  3.406744E+03 -2.749987E+04  2.138413E+04  2.714053E+04  8.522564E+03
       349   6 -3.273251E+05 -4.982877E+04 -6.123694E+04  3.891605E+04  4.182769E+04  3.012399E+03
       349   7 -1.791493E+05  3.913065E+04  1.725537E+04  4.622526E+04  1.675981E+04  6.371878E+03
       349   8 -1.043471E+05  5.645440E+04  2.233987E+04  1.475307E+04  2.594279E+04  8.522734E+03
       349   9 -4.390162E+04  2.079022E+04  8.216281E+03  1.837358E+04  3.512249E+04  3.015298E+03
       349  10 -4.754492E+05 -3.375887E+04 -5.086374E+04  3.167078E+04 -2.038462E-10  1.168248E-10
       349  11 -5.349194E+05 -4.964430E+04 -7.734433E+04  2.801269E+04  3.149324E-10  2.976126E-10
       349  12 -6.106770E+05 -1.204528E+05 -1.307001E+05  5.944901E+04 -4.539035E-11  2.188229E-11
       349  13 -3.273096E+05  2.686498E+03 -1.680378E+04  3.894710E+04 -2.279899E-11 -9.574066E-11
       349  14 -3.196551E+05  3.406468E+03 -2.750139E+04  2.138395E+04 -6.701453E-11  4.278421E-10
       349  15 -3.273270E+05 -4.982925E+04 -6.124024E+04  3.891595E+04 -1.248788E-11  2.115744E-10
       349  16 -1.791497E+05  3.913053E+04  1.725476E+04  4.622517E+04  3.906968E-10  8.487017E-11
       349  17 -1.043478E+05  5.645414E+04  2.233847E+04  1.475289E+04  7.525539E-11 -3.226207E-11
       349  18 -4.390294E+04  2.078988E+04  8.213946E+03  1.837349E+04  5.390179E-11 -9.670482E-12
       349  19 -4.754491E+05 -3.375881E+04 -5.086354E+04  3.167083E+04 -8.139343E+03 -6.375556E+03
       349  20 -5.349185E+05 -4.964400E+04 -7.734268E+04  2.801289E+04 -2.833787E+04 -8.522420E+03
       349  21 -6.106745E+05 -1.204521E+05 -1.306956E+05  5.944913E+04 -4.852984E+04 -3.009944E+03
       349  22 -3.273095E+05  2.686583E+03 -1.680341E+04  3.894716E+04 -1.244907E+04 -6.373666E+03
       349  23 -3.196543E+05  3.406744E+03 -2.749987E+04  2.138413E+04 -2.714053E+04 -8.522564E+03
       349  24 -3.273251E+05 -4.982877E+04 -6.123694E+04  3.891605E+04 -4.182769E+04 -3.012399E+03
       349  25 -1.791493E+05  3.913065E+04  1.725537E+04  4.622526E+04 -1.675981E+04 -6.371878E+03
       349  26 -1.043471E+05  5.645440E+04  2.233987E+04  1.475307E+04 -2.594279E+04 -8.522734E+03
       349  27 -4.390162E+04  2.079022E+04  8.216281E+03  1.837358E+04 -3.512249E+04 -3.015298E+03
       350   1 -1.908824E+05 -1.081703E+06 -2.017787E+05  9.747109E+04 -5.804720E+03 -6.288255E+04
       350   2 -9.559962E+04 -9.406747E+05 -1.233996E+05  4.747451E+04 -1.607493E+04 -3.646712E+04
       350   3 -6.370255E+04 -8.190636E+05 -7.810944E+04  6.574303E+04 -1.183014E+04 -1.006448E+04
       350   4 -5.726716E+04 -5.453143E+05 -7.025113E+04  7.458975E+04 -5.785990E+03 -5.027908E+04
       350   5  4.004011E+03 -5.364893E+05 -2.978252E+04  4.041645E+04 -1.607068E+04 -3.428743E+04
       350   6  3.725230E+03 -5.452701E+05 -1.513858E+04  7.450935E+04 -1.184323E+04 -1.831462E+04
       350   7  7.632882E+04 -8.662167E+03  6.125620E+04  5.168847E+04 -5.768200E+03 -3.766470E+04
       350   8  1.035963E+05 -1.321527E+05  6.382367E+04  3.335369E+04 -1.606649E+04 -3.210632E+04
       350   9  7.114808E+04 -2.714068E+05  4.782762E+04  8.327954E+04 -1.185654E+04 -2.656837E+04
       350  10 -1.908835E+05 -1.081707E+06 -2.017862E+05  9.747079E+04 -2.865704E-10 -3.770196E-10
       350  11 -9.560025E+04 -9.406762E+05 -1.234026E+05  4.747403E+04 -2.344223E-10 -4.065987E-10
       350  12 -6.370273E+04 -8.190637E+05 -7.810989E+04  6.574293E+04 -9.349336E-10 -9.956456E-10
       350  13 -5.726788E+04 -5.453171E+05 -7.025595E+04  7.458951E+04 -4.118712E-10  1.009274E-10
       350  14  4.003418E+03 -5.364907E+05 -2.978521E+04  4.041600E+04  9.112086E-10 -2.069360E-10
       350  15  3.724989E+03 -5.452705E+05 -1.513947E+04  7.450918E+04 -5.483874E-10 -7.345820E-11
       350  16  7.632840E+04 -8.663700E+03  6.125347E+04  5.168830E+04 -1.255909E-10  3.638579E-10
       350  17  1.035958E+05 -1.321539E+05  6.382125E+04  3.335328E+04 -1.228385E-10  3.978099E-10
       350  18  7.114774E+04 -2.714076E+05  4.782603E+04  8.327929E+04 -9.060196E-11  1.076194E-09
       350  19 -1.908824E+05 -1.081703E+06 -2.017787E+05  9.747109E+04  5.804720E+03  6.288255E+04
       350  20 -9.559962E+04 -9.406747E+05 -1.233996E+05  4.747451E+04  1.607493E+04  3.646712E+04
       350  21 -6.370255E+04 -8.190636E+05 -7.810944E+04  6.574303E+04  1.183014E+04  1.006448E+04
       350  22 -5.726716E+04 -5.453143E+05 -7.025113E+04  7.458975E+04  5.785990E+03  5.027908E+04
       350  23  4.004011E+03 -5.364893E+05 -2.978252E+04  4.041645E+04  1.607068E+04  3.428743E+04
       350  24  3.725230E+03 -5.452701E+05 -1.513858E+04  7.450935E+04  1.184323E+04  1.831462E+04
       350  25  7.632882E+04 -8.662167E+03  6.125620E+04  5.168847E+04  5.768200E+03  3.766470E+04
       350  26  1.035963E+05 -1.321527E+05  6.382367E+04  3.335369E+04  1.606649E+04  3.210632E+04
       350  27  7.114808E+04 -2.714068E+05  4.782762E+04  8.327954E+04  1.185654E+04  2.656837E+04
       351   1 -4.071307E+04 -6.890627E+05 -4.412249E+04  7.509874E+04 -6.275015E+03 -1.233101E+04
       351   2 -3.928180E+03 -5.576534E+05 -2.567540E+03  4.098715E+04 -7.200398E+02 -1.291034E+04
       351   3  3.375330E+04 -4.261951E+05  3.952603E+04  7.571914E+04  4.872904E+03 -1.349000E+04
       351   4 -4.345041E+03 -5.413393E+05 -1.009786E+04  7.466804E+04 -6.281537E+03 -1.631592E+04
       351   5  8.005558E+01 -5.413560E+05  1.181338E+03  4.023836E+04 -7.266210E+02 -1.692186E+04
       351   6  5.408263E+03 -5.413333E+05  1.302048E+04  7.465209E+04  4.866205E+03 -1.752802E+04
       351   7  3.202147E+04 -3.935956E+05  2.392539E+04  7.423722E+04 -6.288053E+03 -2.030177E+04
       351   8  4.088283E+03 -5.250584E+05  4.930260E+03  3.948955E+04 -7.331925E+02 -2.093349E+04
       351   9 -2.293769E+04 -6.564592E+05 -1.348589E+04  7.358523E+04  4.859520E+03 -2.156529E+04
       351  10 -4.071315E+04 -6.890629E+05 -4.412285E+04  7.509868E+04  3.904802E-10 -6.970828E-09
       351  11 -3.928225E+03 -5.576535E+05 -2.567854E+03  4.098715E+04  7.408012E-10  3.592774E-10
       351  12  3.375323E+04 -4.261953E+05  3.952564E+04  7.571919E+04  1.093084E-09  7.514772E-09
       351  13 -4.345155E+03 -5.413396E+05 -1.009843E+04  7.466795E+04  4.014729E-10 -3.745817E-11
       351  14  7.997806E+01 -5.413563E+05  1.180799E+03  4.023835E+04 -1.008492E-10  1.078880E-10
       351  15  5.408155E+03 -5.413337E+05  1.301986E+04  7.465216E+04 -5.402094E-10  1.866688E-10
       351  16  3.202132E+04 -3.935960E+05  2.392454E+04  7.423711E+04  4.782044E-10  6.973982E-09
       351  17  4.088165E+03 -5.250588E+05  4.929435E+03  3.948954E+04  2.137251E-09 -3.232743E-10
       351  18 -2.293784E+04 -6.564597E+05 -1.348681E+04  7.358532E+04  8.033239E-10 -7.499688E-09
       351  19 -4.071307E+04 -6.890627E+05 -4.412249E+04  7.509874E+04  6.275015E+03  1.233101E+04
       351  20 -3.928180E+03 -5.576534E+05 -2.567540E+03  4.098715E+04  7.200398E+02  1.291034E+04
       351  21  3.375330E+04 -4.261951E+05  3.952603E+04  7.571914E+04 -4.872904E+03  1.349000E+04
       351  22 -4.345041E+03 -5.413393E+05 -1.009786E+04  7.466804E+04  6.281537E+03  1.631592E+04
       351  23  8.005558E+01 -5.413560E+05  1.181338E+03  4.023836E+04  7.266210E+02  1.692186E+04
       351  24  5.408263E+03 -5.413333E+05  1.302048E+04  7.465209E+04 -4.866205E+03  1.752802E+04
       351  25  3.202147E+04 -3.935956E+05  2.392539E+04  7.423722E+04  6.288053E+03  2.030177E+04
       351  26  4.088283E+03 -5.250584E+05  4.930260E+03  3.948955E+04  7.331925E+02  2.093349E+04
       351  27 -2.293769E+04 -6.564592E+05 -1.348589E+04  7.358523E+04 -4.859520E+03  2.156529E+04
       352   1  5.565771E+04 -2.955833E+05  7.393999E+04  6.514738E+04  1.034647E+04 -1.202016E+04
       352   2  8.720239E+04 -1.751618E+05  1.207386E+05  4.939108E+04  1.463424E+04 -4.046783E+04
       352   3  1.916665E+05 -3.294915E+04  2.042528E+05  1.018436E+05  5.213569E+03 -6.890273E+04
       352   4 -3.687523E+03 -5.368950E+05  1.845196E+04  7.454564E+04  1.033340E+04 -2.006576E+04
       352   5 -4.431593E+03 -5.469370E+05  3.464175E+04  4.039458E+04  1.463807E+04 -3.863593E+04
       352   6  6.605361E+04 -5.369005E+05  8.070157E+04  7.445089E+04  5.232313E+03 -5.718715E+04
       352   7 -6.303645E+04 -7.781523E+05 -3.703963E+04  8.394019E+04  1.032009E+04 -2.810826E+04
       352   8 -9.607501E+04 -9.185842E+05 -5.146427E+04  3.140346E+04  1.464184E+04 -3.680511E+04
       352   9 -5.957526E+04 -1.040619E+06 -4.286737E+04  4.708040E+04  5.250032E+03 -4.548104E+04
       352  10  5.565756E+04 -2.955835E+05  7.393952E+04  6.514748E+04 -5.370613E-11  1.098915E-09
       352  11  8.720172E+04 -1.751637E+05  1.207351E+05  4.939156E+04 -8.137822E-10  3.600945E-10
       352  12  1.916652E+05 -3.295426E+04  2.042438E+05  1.018439E+05  5.372231E-11  3.085978E-10
       352  13 -3.687746E+03 -5.368954E+05  1.845100E+04  7.454581E+04  9.763058E-10 -8.379349E-11
       352  14 -4.432225E+03 -5.469386E+05  3.463854E+04  4.039504E+04 -9.812236E-10  8.815412E-11
       352  15  6.605270E+04 -5.369041E+05  8.069536E+04  7.445113E+04  1.340176E-10 -3.434825E-11
       352  16 -6.303678E+04 -7.781532E+05 -3.704132E+04  8.394042E+04 -4.188941E-10 -9.641520E-10
       352  17 -9.607560E+04 -9.185857E+05 -5.146722E+04  3.140390E+04 -4.843778E-10 -2.543570E-10
       352  18 -5.957585E+04 -1.040621E+06 -4.287132E+04  4.708059E+04  2.508510E-10 -3.405462E-10
       352  19  5.565771E+04 -2.955833E+05  7.393999E+04  6.514738E+04 -1.034647E+04  1.202016E+04
       352  20  8.720239E+04 -1.751618E+05  1.207386E+05  4.939108E+04 -1.463424E+04  4.046783E+04
       352  21  1.916665E+05 -3.294915E+04  2.042528E+05  1.018436E+05 -5.213569E+03  6.890273E+04
       352  22 -3.687523E+03 -5.368950E+05  1.845196E+04  7.454564E+04 -1.033340E+04  2.006576E+04
       352  23 -4.431593E+03 -5.469370E+05  3.464175E+04  4.039458E+04 -1.463807E+04  3.863593E+04
       352  24  6.605361E+04 -5.369005E+05  8.070157E+04  7.445089E+04 -5.232313E+03  5.718715E+04
       352  25 -6.303645E+04 -7.781523E+05 -3.703963E+04  8.394019E+04 -1.032009E+04  2.810826E+04
       352  26 -9.607501E+04 -9.185842E+05 -5.146427E+04  3.140346E+04 -1.464184E+04  3.680511E+04
       352  27 -5.957526E+04 -1.040619E+06 -4.286737E+04  4.708040E+04 -5.250032E+03  4.548104E+04
       353   1  3.550178E+05  3.300660E+05  1.615935E+05  2.066174E+05  6.872957E+04  4.859823E+04
       353   2  3.277995E+05  2.245571E+05  9.220511E+04  2.347015E+05  4.666409E+04  2.611710E+04
       353   3  3.497008E+05  2.019284E+05  6.866729E+04  2.298568E+05  2.177441E+04  7.411795E+03
       353   4  2.544657E+05  1.954430E+05  1.156032E+05  1.278753E+05  6.460691E+04  4.550639E+04
       353   5  2.124103E+05  1.225356E+05  5.191511E+04  1.681166E+05  4.526365E+04  2.506742E+04
       353   6  2.188944E+05  1.319269E+05  3.172414E+04  1.754258E+05  2.309659E+04  8.402008E+03
       353   7  1.539270E+05  6.084693E+04  6.961158E+04  4.915278E+04  6.048516E+04  4.241601E+04
       353   8  9.703592E+04  2.052708E+04  1.162336E+04  1.015473E+05  4.386357E+04  2.401809E+04
       353   9  8.810675E+04  6.193017E+04 -5.220590E+03  1.210061E+05  2.441838E+04  9.392026E+03
       353  10  3.550121E+05  3.300622E+05  1.615802E+05  2.066147E+05 -9.459910E-11 -1.512098E-12
       353  11  3.277969E+05  2.245558E+05  9.219974E+04  2.347005E+05  3.338532E-10  4.072330E-11
       353  12  3.497003E+05  2.019282E+05  6.866630E+04  2.298567E+05 -1.138175E-10 -1.001610E-10
       353  13  2.544607E+05  1.954396E+05  1.155915E+05  1.278729E+05 -5.820118E-10 -4.513008E-11
       353  14  2.124079E+05  1.225344E+05  5.191008E+04  1.681156E+05  1.078797E-11 -7.973598E-12
       353  15  2.188938E+05  1.319267E+05  3.172301E+04  1.754257E+05 -3.955946E-11 -9.721385E-11
       353  16  1.539226E+05  6.084402E+04  6.960133E+04  4.915071E+04  2.147240E-10 -2.849891E-11
       353  17  9.703370E+04  2.052594E+04  1.161866E+04  1.015464E+05  4.420508E-11 -7.872771E-12
       353  18  8.810609E+04  6.192991E+04 -5.221876E+03  1.210059E+05  4.214928E-11 -1.463529E-10
       353  19  3.550178E+05  3.300660E+05  1.615935E+05  2.066174E+05 -6.872957E+04 -4.859823E+04
       353  20  3.277995E+05  2.245571E+05  9.220511E+04  2.347015E+05 -4.666409E+04 -2.611710E+04
       353  21  3.497008E+05  2.019284E+05  6.866729E+04  2.298568E+05 -2.177441E+04 -7.411795E+03
       353  22  2.544657E+05  1.954430E+05  1.156032E+05  1.278753E+05 -6.460691E+04 -4.550639E+04
       353  23  2.124103E+05  1.225356E+05  5.191511E+04  1.681166E+05 -4.526365E+04 -2.506742E+04
       353  24  2.188944E+05  1.319269E+05  3.172414E+04  1.754258E+05 -2.309659E+04 -8.402008E+03
       353  25  1.539270E+05  6.084693E+04  6.961158E+04  4.915278E+04 -6.048516E+04 -4.241601E+04
       353  26  9.703592E+04  2.052708E+04  1.162336E+04  1.015473E+05 -4.386357E+04 -2.401809E+04
       353  27  8.810675E+04  6.193017E+04 -5.220590E+03  1.210061E+05 -2.441838E+04 -9.392026E+03
       354   1  3.253049E+05  2.165943E+05  5.999014E+04  2.211089E+05  1.859384E+04  6.204946E+03
       354   2  3.169112E+05  1.991835E+05  4.556143E+04  2.177337E+05  1.233013E+04  2.005917E+03
       354   3  3.065295E+05  1.946183E+05  3.800868E+04  2.139653E+05  5.928047E+03 -2.008248E+03
       354   4  2.195247E+05  1.376666E+05  2.584258E+04  1.668020E+05  1.875139E+04  6.322680E+03
       354   5  2.192089E+05  1.288954E+05  1.457927E+04  1.687685E+05  1.262202E+04  2.224342E+03
       354   6  2.168770E+05  1.329413E+05  1.007655E+04  1.703416E+05  6.354199E+03 -1.689212E+03
       354   7  1.137557E+05  5.874517E+04 -8.306718E+03  1.125053E+05  1.890891E+04  6.440386E+03
       354   8  1.215168E+05  5.861261E+04 -1.640409E+04  1.198120E+05  1.291384E+04  2.442719E+03
       354   9  1.272337E+05  7.126892E+04 -1.785633E+04  1.267251E+05  6.780264E+03 -1.370239E+03
       354  10  3.253045E+05  2.165942E+05  5.998942E+04  2.211088E+05 -2.593566E-10 -1.635204E-10
       354  11  3.169110E+05  1.991834E+05  4.556114E+04  2.177337E+05  3.134448E-10 -2.094896E-10
       354  12  3.065295E+05  1.946182E+05  3.800861E+04  2.139653E+05  7.025471E-10 -1.936803E-10
       354  13  2.195243E+05  1.376664E+05  2.584184E+04  1.668019E+05  1.125899E-10 -1.524799E-10
       354  14  2.192087E+05  1.288953E+05  1.457896E+04  1.687685E+05  3.543094E-10 -2.532431E-10
       354  15  2.168770E+05  1.329413E+05  1.007647E+04  1.703416E+05 -1.053403E-10 -4.335970E-10
       354  16  1.137553E+05  5.874503E+04 -8.307468E+03  1.125052E+05  3.494688E-10 -1.170273E-10
       354  17  1.215166E+05  5.861256E+04 -1.640442E+04  1.198120E+05 -2.655018E-10 -1.881762E-10
       354  18  1.272337E+05  7.126890E+04 -1.785642E+04  1.267252E+05  2.968073E-10 -4.185850E-10
       354  19  3.253049E+05  2.165943E+05  5.999014E+04  2.211089E+05 -1.859384E+04 -6.204946E+03
       354  20  3.169112E+05  1.991835E+05  4.556143E+04  2.177337E+05 -1.233013E+04 -2.005917E+03
       354  21  3.065295E+05  1.946183E+05  3.800868E+04  2.139653E+05 -5.928047E+03  2.008248E+03
       354  22  2.195247E+05  1.376666E+05  2.584258E+04  1.668020E+05 -1.875139E+04 -6.322680E+03
       354  23  2.192089E+05  1.288954E+05  1.457927E+04  1.687685E+05 -1.262202E+04 -2.224342E+03
       354  24  2.168770E+05  1.329413E+05  1.007655E+04  1.703416E+05 -6.354199E+03  1.689212E+03
       354  25  1.137557E+05  5.874517E+04 -8.306718E+03  1.125053E+05 -1.890891E+04 -6.440386E+03
       354  26  1.215168E+05  5.861261E+04 -1.640409E+04  1.198120E+05 -1.291384E+04 -2.442719E+03
       354  27  1.272337E+05  7.126892E+04 -1.785633E+04  1.267251E+05 -6.780264E+03  1.370239E+03
       355   1  2.958894E+05  1.896890E+05  3.398787E+04  2.091427E+05  4.384188E+03 -2.651659E+03
       355   2  2.892188E+05  1.787047E+05  3.061415E+04  2.033531E+05  5.259809E+02 -4.737405E+03
       355   3  2.770427E+05  1.757525E+05  3.045606E+04  1.992339E+05 -3.338059E+03 -6.815454E+03
       355   4  2.168925E+05  1.332886E+05  9.056126E+03  1.697445E+05  4.752087E+03 -2.376224E+03
       355   5  2.197055E+05  1.293790E+05  8.703195E+03  1.688302E+05  8.999338E+02 -4.457394E+03
       355   6  2.170117E+05  1.335005E+05  1.156100E+04  1.695862E+05 -2.958138E+03 -6.530933E+03
       355   7  1.379023E+05  7.689155E+04 -1.587640E+04  1.303521E+05  5.119923E+03 -2.100836E+03
       355   8  1.501971E+05  8.005574E+04 -1.320845E+04  1.343115E+05  1.273831E+03 -4.177426E+03
       355   9  1.569840E+05  9.125017E+04 -7.334670E+03  1.399415E+05 -2.578264E+03 -6.246448E+03
       355  10  2.958894E+05  1.896890E+05  3.398782E+04  2.091427E+05  2.662540E-10 -3.391387E-10
       355  11  2.892188E+05  1.787047E+05  3.061410E+04  2.033531E+05  5.725506E-10 -2.847792E-10
       355  12  2.770427E+05  1.757524E+05  3.045595E+04  1.992339E+05  2.469055E-10  3.846222E-11
       355  13  2.168925E+05  1.332886E+05  9.056072E+03  1.697446E+05 -3.492600E-10 -4.209309E-10
       355  14  2.197055E+05  1.293790E+05  8.703156E+03  1.688302E+05 -2.094292E-10 -1.848422E-10
       355  15  2.170117E+05  1.335005E+05  1.156090E+04  1.695862E+05 -4.769947E-11 -9.370572E-12
       355  16  1.379022E+05  7.689154E+04 -1.587646E+04  1.303521E+05  1.879760E-11 -2.834352E-10
       355  17  1.501971E+05  8.005572E+04 -1.320849E+04  1.343115E+05 -3.011105E-10 -1.132212E-10
       355  18  1.569840E+05  9.125012E+04 -7.334755E+03  1.399414E+05 -3.066802E-10 -8.817344E-11
       355  19  2.958894E+05  1.896890E+05  3.398787E+04  2.091427E+05 -4.384188E+03  2.651659E+03
       355  20  2.892188E+05  1.787047E+05  3.061415E+04  2.033531E+05 -5.259809E+02  4.737405E+03
       355  21  2.770427E+05  1.757525E+05  3.045606E+04  1.992339E+05  3.338059E+03  6.815454E+03
       355  22  2.168925E+05  1.332886E+05  9.056126E+03  1.697445E+05 -4.752087E+03  2.376224E+03
       355  23  2.197055E+05  1.293790E+05  8.703195E+03  1.688302E+05 -8.999338E+02  4.457394E+03
       355  24  2.170117E+05  1.335005E+05  1.156100E+04  1.695862E+05  2.958138E+03  6.530933E+03
       355  25  1.379023E+05  7.689155E+04 -1.587640E+04  1.303521E+05 -5.119923E+03  2.100836E+03
       355  26  1.501971E+05  8.005574E+04 -1.320845E+04  1.343115E+05 -1.273831E+03  4.177426E+03
       355  27  1.569840E+05  9.125017E+04 -7.334670E+03  1.399415E+05  2.578264E+03  6.246448E+03
       356   1  2.657998E+05  1.705895E+05  2.985853E+04  1.962975E+05 -5.366887E+03 -7.857559E+03
       356   2  2.606532E+05  1.566114E+05  3.517969E+04  1.887651E+05 -1.477130E+04 -1.408730E+04
       356   3  2.563696E+05  1.590560E+05  5.099416E+04  1.793313E+05 -2.417331E+04 -2.031985E+04
       356   4  2.170403E+05  1.328930E+05  1.395560E+04  1.706447E+05 -4.989557E+03 -7.574922E+03
       356   5  2.187635E+05  1.285230E+05  2.227762E+04  1.687169E+05 -1.439543E+04 -1.380581E+04
       356   6  2.213502E+05  1.405762E+05  4.109465E+04  1.648874E+05 -2.379906E+04 -2.003976E+04
       356   7  1.682837E+05  9.519845E+04 -1.947504E+03  1.449944E+05 -4.612270E+03 -7.292320E+03
       356   8  1.768759E+05  1.004356E+05  9.375394E+03  1.486704E+05 -1.401960E+04 -1.352435E+04
       356   9  1.863321E+05  1.220968E+05  3.119502E+04  1.504444E+05 -2.342484E+04 -1.975968E+04
       356  10  2.657998E+05  1.705895E+05  2.985836E+04  1.962974E+05 -1.417200E-10  1.667030E-10
       356  11  2.606529E+05  1.566111E+05  3.517891E+04  1.887649E+05  1.168198E-10  2.151116E-10
       356  12  2.563689E+05  1.590554E+05  5.099229E+04  1.793309E+05  8.238515E-10  4.090433E-11
       356  13  2.170402E+05  1.328930E+05  1.395545E+04  1.706446E+05 -6.565291E-10 -2.406875E-12
       356  14  2.187633E+05  1.285227E+05  2.227687E+04  1.687168E+05  1.814068E-10  1.340429E-10
       356  15  2.213494E+05  1.405756E+05  4.109283E+04  1.648870E+05 -3.501990E-10  1.347341E-11
       356  16  1.682836E+05  9.519839E+04 -1.947644E+03  1.449944E+05 -1.089413E-10 -4.686878E-11
       356  17  1.768756E+05  1.004353E+05  9.374681E+03  1.486702E+05 -8.514819E-10 -3.653082E-10
       356  18  1.863314E+05  1.220962E+05  3.119326E+04  1.504440E+05 -9.078837E-10 -2.085554E-10
       356  19  2.657998E+05  1.705895E+05  2.985853E+04  1.962975E+05  5.366887E+03  7.857559E+03
       356  20  2.606532E+05  1.566114E+05  3.517969E+04  1.887651E+05  1.477130E+04  1.408730E+04
       356  21  2.563696E+05  1.590560E+05  5.099416E+04  1.793313E+05  2.417331E+04  2.031985E+04
       356  22  2.170403E+05  1.328930E+05  1.395560E+04  1.706447E+05  4.989557E+03  7.574922E+03
       356  23  2.187635E+05  1.285230E+05  2.227762E+04  1.687169E+05  1.439543E+04  1.380581E+04
       356  24  2.213502E+05  1.405762E+05  4.109465E+04  1.648874E+05  2.379906E+04  2.003976E+04
       356  25  1.682837E+05  9.519845E+04 -1.947504E+03  1.449944E+05  4.612270E+03  7.292320E+03
       356  26  1.768759E+05  1.004356E+05  9.375394E+03  1.486704E+05  1.401960E+04  1.352435E+04
       356  27  1.863321E+05  1.220968E+05  3.119502E+04  1.504444E+05  2.342484E+04  1.975968E+04
       357   1  2.208665E+05  1.684865E+05  5.773152E+04  1.961286E+05 -3.044629E+04 -2.453866E+04
       357   2  2.394159E+05  1.078392E+05  8.771121E+04  1.682135E+05 -6.662721E+04 -5.083533E+04
       357   3  3.406444E+05  1.762235E+05  1.879806E+05  8.575648E+04 -1.027746E+05 -7.717480E+04
       357   4  2.203023E+05  1.313293E+05  5.081295E+04  1.788676E+05 -3.005898E+04 -2.424677E+04
       357   5  2.077849E+05  1.181818E+05  8.378867E+04  1.676466E+05 -6.627155E+04 -5.057227E+04
       357   6  2.779488E+05  2.340701E+05  1.870832E+05  1.018844E+05 -1.024475E+05 -7.694589E+04
       357   7  2.197390E+05  9.417487E+04  4.389455E+04  1.616068E+05 -2.967167E+04 -2.395491E+04
       357   8  1.761557E+05  1.285253E+05  7.986632E+04  1.670794E+05 -6.591591E+04 -5.030919E+04
       357   9  2.152642E+05  2.919286E+05  1.861880E+05  1.180091E+05 -1.021205E+05 -7.671692E+04
       357  10  2.208653E+05  1.684856E+05  5.772865E+04  1.961280E+05  3.431865E-10 -3.279843E-11
       357  11  2.394104E+05  1.078352E+05  8.769802E+04  1.682108E+05 -8.352522E-11  6.510340E-11
       357  12  3.406315E+05  1.762142E+05  1.879495E+05  8.575010E+04  3.224847E-11  9.118041E-11
       357  13  2.203012E+05  1.313284E+05  5.081015E+04  1.788670E+05 -2.889978E-10 -8.733064E-11
       357  14  2.077795E+05  1.181779E+05  8.377562E+04  1.676439E+05  1.433764E-10  4.607135E-10
       357  15  2.779359E+05  2.340609E+05  1.870524E+05  1.018780E+05 -3.100653E-10 -3.938892E-11
       357  16  2.197379E+05  9.417401E+04  4.389182E+04  1.616062E+05 -3.174938E-10  3.988673E-11
       357  17  1.761503E+05  1.285214E+05  7.985341E+04  1.670768E+05  4.163810E-10 -9.154932E-11
       357  18  2.152515E+05  2.919195E+05  1.861574E+05  1.180028E+05 -1.392514E-10 -1.293990E-10
       357  19  2.208665E+05  1.684865E+05  5.773152E+04  1.961286E+05  3.044629E+04  2.453866E+04
       357  20  2.394159E+05  1.078392E+05  8.771121E+04  1.682135E+05  6.662721E+04  5.083533E+04
       357  21  3.406444E+05  1.762235E+05  1.879806E+05  8.575648E+04  1.027746E+05  7.717480E+04
       357  22  2.203023E+05  1.313293E+05  5.081295E+04  1.788676E+05  3.005898E+04  2.424677E+04
       357  23  2.077849E+05  1.181818E+05  8.378867E+04  1.676466E+05  6.627155E+04  5.057227E+04
       357  24  2.779488E+05  2.340701E+05  1.870832E+05  1.018844E+05  1.024475E+05  7.694589E+04
       357  25  2.197390E+05  9.417487E+04  4.389455E+04  1.616068E+05  2.967167E+04  2.395491E+04
       357  26  1.761557E+05  1.285253E+05  7.986632E+04  1.670794E+05  6.591591E+04  5.030919E+04
       357  27  2.152642E+05  2.919286E+05  1.861880E+05  1.180091E+05  1.021205E+05  7.671692E+04
       358   1  1.630958E+05  7.676319E+04  6.082156E+04  2.718542E+04 -3.547745E+04 -6.161947E+03
       358   2  8.124448E+04  1.160469E+05  7.218338E+04  2.048020E+04 -2.813674E+04 -1.820631E+04
       358   3 -1.693250E+04  9.312521E+04  6.324886E+04  6.031022E+04 -2.078985E+04 -1.596995E+04
       358   4 -3.826821E+05 -5.915409E+04 -7.274740E+04  5.165810E+04 -4.926102E+04 -6.155896E+03
       358   5 -3.735996E+05  4.019900E+03 -3.300738E+04  2.840352E+04 -3.164935E+04 -1.820621E+04
       358   6 -3.826496E+05  3.178891E+03 -2.071187E+04  5.168826E+04 -1.403014E+04 -1.597154E+04
       358   7 -9.281869E+05 -1.950911E+05 -2.063371E+05  7.610925E+04 -6.303250E+04 -6.150930E+03
       358   8 -8.282522E+05 -1.080214E+05 -1.382119E+05  3.632100E+04 -3.515940E+04 -1.820620E+04
       358   9 -7.482425E+05 -8.677645E+04 -1.046812E+05  4.307141E+04 -7.274375E+03 -1.597332E+04
       358  10  1.630945E+05  7.676281E+04  6.081912E+04  2.718524E+04 -2.763460E-11 -6.339308E-11
       358  11  8.124354E+04  1.160463E+05  7.218127E+04  2.047979E+04  2.031993E-10  3.844345E-11
       358  12 -1.693304E+04  9.312482E+04  6.324756E+04  6.030995E+04  3.617163E-11  3.471351E-11
       358  13 -3.826847E+05 -5.915478E+04 -7.275203E+04  5.165785E+04 -5.914530E-10  3.204502E-12
       358  14 -3.736007E+05  4.019275E+03 -3.300988E+04  2.840305E+04  2.709156E-10 -1.341504E-10
       358  15 -3.826499E+05  3.178565E+03 -2.071271E+04  5.168808E+04  8.813004E-12  2.172433E-10
       358  16 -9.281912E+05 -1.950922E+05 -2.063447E+05  7.610894E+04  1.982318E-10 -2.915323E-11
       358  17 -8.282536E+05 -1.080221E+05 -1.382148E+05  3.632048E+04  2.307314E-11 -1.299850E-10
       358  18 -7.482426E+05 -8.677674E+04 -1.046818E+05  4.307132E+04  8.538239E-11 -2.546880E-10
       358  19  1.630958E+05  7.676319E+04  6.082156E+04  2.718542E+04  3.547745E+04  6.161947E+03
       358  20  8.124448E+04  1.160469E+05  7.218338E+04  2.048020E+04  2.813674E+04  1.820631E+04
       358  21 -1.693250E+04  9.312521E+04  6.324886E+04  6.031022E+04  2.078985E+04  1.596995E+04
       358  22 -3.826821E+05 -5.915409E+04 -7.274740E+04  5.165810E+04  4.926102E+04  6.155896E+03
       358  23 -3.735996E+05  4.019900E+03 -3.300738E+04  2.840352E+04  3.164935E+04  1.820621E+04
       358  24 -3.826496E+05  3.178891E+03 -2.071187E+04  5.168826E+04  1.403014E+04  1.597154E+04
       358  25 -9.281869E+05 -1.950911E+05 -2.063371E+05  7.610925E+04  6.303250E+04  6.150930E+03
       358  26 -8.282522E+05 -1.080214E+05 -1.382119E+05  3.632100E+04  3.515940E+04  1.820620E+04
       358  27 -7.482425E+05 -8.677645E+04 -1.046812E+05  4.307141E+04  7.274375E+03  1.597332E+04
       359   1 -9.987330E+04  6.428911E+04  4.702684E+04  5.019671E+04 -1.327080E+04 -1.170827E+04
       359   2 -1.890620E+05  4.691144E+04  3.241726E+04  2.779992E+04 -8.188396E+03 -8.078914E+03
       359   3 -2.802013E+05  2.420742E+04  1.317391E+04  5.262508E+04 -3.107917E+03 -3.768219E+03
       359   4 -3.790633E+05 -4.428943E+03 -1.730028E+04  5.183180E+04 -1.089990E+04 -1.170891E+04
       359   5 -3.780355E+05  4.109209E+02 -1.105382E+04  2.822046E+04 -5.329341E+03 -8.079207E+03
       359   6 -3.790531E+05 -1.613401E+02 -9.781878E+03  5.183216E+04  2.400005E+02 -3.768062E+03
       359   7 -6.581811E+05 -7.315244E+04 -8.163255E+04  5.346614E+04 -8.530047E+03 -1.170954E+04
       359   8 -5.669759E+05 -4.609209E+04 -5.452725E+04  2.864087E+04 -2.471149E+03 -8.079497E+03
       359   9 -4.778959E+05 -2.453079E+04 -3.273828E+04  5.103937E+04  3.587389E+03 -3.767914E+03
       359  10 -9.987353E+04  6.428891E+04  4.702625E+04  5.019658E+04  1.596884E-10  2.119678E-11
       359  11 -1.890621E+05  4.691135E+04  3.241702E+04  2.779986E+04  4.263573E-10 -1.718817E-10
       359  12 -2.802013E+05  2.420741E+04  1.317386E+04  5.262507E+04 -8.615720E-11 -5.976383E-11
       359  13 -3.790635E+05 -4.429122E+03 -1.730076E+04  5.183169E+04 -1.530773E-10 -3.027674E-10
       359  14 -3.780356E+05  4.108432E+02 -1.105400E+04  2.822042E+04  2.987632E-10 -5.679216E-11
       359  15 -3.790531E+05 -1.613554E+02 -9.781905E+03  5.183216E+04 -2.539786E-10 -7.008765E-11
       359  16 -6.581812E+05 -7.315260E+04 -8.163295E+04  5.346606E+04  3.236992E-10 -7.643262E-11
       359  17 -5.669760E+05 -4.609216E+04 -5.452738E+04  2.864085E+04 -1.231347E-10 -2.140800E-10
       359  18 -4.778960E+05 -2.453080E+04 -3.273833E+04  5.103938E+04 -4.383148E-10 -4.503339E-11
       359  19 -9.987330E+04  6.428911E+04  4.702684E+04  5.019671E+04  1.327080E+04  1.170827E+04
       359  20 -1.890620E+05  4.691144E+04  3.241726E+04  2.779992E+04  8.188396E+03  8.078914E+03
       359  21 -2.802013E+05  2.420742E+04  1.317391E+04  5.262508E+04  3.107917E+03  3.768219E+03
       359  22 -3.790633E+05 -4.428943E+03 -1.730028E+04  5.183180E+04  1.089990E+04  1.170891E+04
       359  23 -3.780355E+05  4.109209E+02 -1.105382E+04  2.822046E+04  5.329341E+03  8.079207E+03
       359  24 -3.790531E+05 -1.613401E+02 -9.781878E+03  5.183216E+04 -2.400005E+02  3.768062E+03
       359  25 -6.581811E+05 -7.315244E+04 -8.163255E+04  5.346614E+04  8.530047E+03  1.170954E+04
       359  26 -5.669759E+05 -4.609209E+04 -5.452725E+04  2.864087E+04  2.471149E+03  8.079497E+03
       359  27 -4.778959E+05 -2.453079E+04 -3.273828E+04  5.103937E+04 -3.587389E+03  3.767914E+03
       360   1 -3.667739E+05  3.026722E+03 -7.527376E+03  5.081204E+04 -1.315715E+03 -1.025614E+03
       360   2 -4.556541E+05 -1.861524E+04 -3.100471E+04  2.873444E+04  5.682490E+03  3.300420E+03
       360   3 -5.471701E+05 -4.721508E+04 -6.077978E+04  5.391244E+04  1.268024E+04  7.086803E+03
       360   4 -3.791682E+05  2.315353E+01 -1.014653E+04  5.183930E+04  1.991546E+03 -1.025381E+03
       360   5 -3.778840E+05  5.269795E+02 -1.309990E+04  2.821157E+04  8.601879E+03  3.300444E+03
       360   6 -3.791736E+05 -5.858148E+03 -2.207989E+04  5.183928E+04  1.521275E+04  7.086643E+03
       360   7 -3.915622E+05 -2.980416E+03 -1.276566E+04  5.286653E+04  5.298742E+03 -1.025137E+03
       360   8 -3.001082E+05  1.966878E+04  4.804553E+03  2.768863E+04  1.152163E+04  3.300463E+03
       360   9 -2.111509E+05  3.549683E+04  1.661816E+04  4.976555E+04  1.774594E+04  7.086465E+03
       360  10 -3.667739E+05  3.026721E+03 -7.527381E+03  5.081204E+04 -1.714899E-10 -1.104257E-11
       360  11 -4.556541E+05 -1.861526E+04 -3.100479E+04  2.873442E+04  1.981788E-10  1.849500E-10
       360  12 -5.471703E+05 -4.721518E+04 -6.078018E+04  5.391237E+04  2.690756E-10  8.341235E-12
       360  13 -3.791682E+05  2.315134E+01 -1.014654E+04  5.183930E+04  2.905301E-11 -1.873171E-10
       360  14 -3.778840E+05  5.269479E+02 -1.310006E+04  2.821154E+04  1.443685E-10  1.059095E-10
       360  15 -3.791738E+05 -5.858265E+03 -2.208042E+04  5.183919E+04 -3.335586E-10 -2.886818E-10
       360  16 -3.915622E+05 -2.980424E+03 -1.276571E+04  5.286653E+04 -7.304315E-11 -7.594326E-12
       360  17 -3.001084E+05  1.966873E+04  4.804283E+03  2.768860E+04 -1.533069E-10 -6.351313E-11
       360  18 -2.111512E+05  3.549669E+04  1.661747E+04  4.976545E+04 -5.859924E-11 -2.838791E-10
       360  19 -3.667739E+05  3.026722E+03 -7.527376E+03  5.081204E+04  1.315715E+03  1.025614E+03
       360  20 -4.556541E+05 -1.861524E+04 -3.100471E+04  2.873444E+04 -5.682490E+03 -3.300420E+03
       360  21 -5.471701E+05 -4.721508E+04 -6.077978E+04  5.391244E+04 -1.268024E+04 -7.086803E+03
       360  22 -3.791682E+05  2.315353E+01 -1.014653E+04  5.183930E+04 -1.991546E+03  1.025381E+03
       360  23 -3.778840E+05  5.269795E+02 -1.309990E+04  2.821157E+04 -8.601879E+03 -3.300444E+03
       360  24 -3.791736E+05 -5.858148E+03 -2.207989E+04  5.183928E+04 -1.521275E+04 -7.086643E+03
       360  25 -3.915622E+05 -2.980416E+03 -1.276566E+04  5.286653E+04 -5.298742E+03  1.025137E+03
       360  26 -3.001082E+05  1.966878E+04  4.804553E+03  2.768863E+04 -1.152163E+04 -3.300463E+03
       360  27 -2.111509E+05  3.549683E+04  1.661816E+04  4.976555E+04 -1.774594E+04 -7.086465E+03
       361   1 -6.385100E+05 -5.836591E+04 -8.533812E+04  4.021406E+04  1.313911E+04  1.103911E+04
       361   2 -7.158068E+05 -7.936588E+04 -1.230909E+05  3.871804E+04  4.469560E+04  1.369523E+04
       361   3 -8.187222E+05 -1.867671E+05 -2.029871E+05  8.394206E+04  7.624376E+04  4.753477E+03
       361   4 -3.839767E+05  4.267329E+03 -2.684233E+04  5.172724E+04  1.923009E+04  1.103875E+04
       361   5 -3.719113E+05  5.382116E+03 -4.348434E+04  2.835430E+04  4.245372E+04  1.369444E+04
       361   6 -3.840074E+05 -7.843104E+04 -9.646336E+04  5.170352E+04  6.567392E+04  4.752866E+03
       361   7 -1.293831E+05  6.689656E+04  3.164939E+04  6.324518E+04  2.532355E+04  1.103863E+04
       361   8 -2.790616E+04  9.012220E+04  3.611433E+04  1.798478E+04  4.021060E+04  1.369372E+04
       361   9  5.088212E+04  2.989494E+04  1.004752E+04  1.944235E+04  5.509668E+04  4.753356E+03
       361  10 -6.385102E+05 -5.836609E+04 -8.533867E+04  4.021395E+04  2.133173E-10 -3.468104E-10
       361  11 -7.158090E+05 -7.936661E+04 -1.230950E+05  3.871754E+04  1.912032E-10 -4.162082E-10
       361  12 -8.187284E+05 -1.867687E+05 -2.029981E+05  8.394176E+04 -5.867258E-11 -5.260631E-12
       361  13 -3.839772E+05  4.267099E+03 -2.684325E+04  5.172707E+04 -3.372889E-10 -1.621730E-10
       361  14 -3.719133E+05  5.381431E+03 -4.348809E+04  2.835384E+04  1.751239E-10 -2.534605E-10
       361  15 -3.840121E+05 -7.843222E+04 -9.647151E+04  5.170327E+04  6.245737E-10  7.012689E-11
       361  16 -1.293839E+05  6.689626E+04  3.164796E+04  6.324496E+04 -1.238600E-10 -1.947462E-10
       361  17 -2.790795E+04  9.012156E+04  3.611094E+04  1.798434E+04 -4.780347E-11 -2.910755E-10
       361  18  5.087886E+04  2.989410E+04  1.004177E+04  1.944214E+04  4.210631E-10 -1.153756E-10
       361  19 -6.385100E+05 -5.836591E+04 -8.533812E+04  4.021406E+04 -1.313911E+04 -1.103911E+04
       361  20 -7.158068E+05 -7.936588E+04 -1.230909E+05  3.871804E+04 -4.469560E+04 -1.369523E+04
       361  21 -8.187222E+05 -1.867671E+05 -2.029871E+05  8.394206E+04 -7.624376E+04 -4.753477E+03
       361  22 -3.839767E+05  4.267329E+03 -2.684233E+04  5.172724E+04 -1.923009E+04 -1.103875E+04
       361  23 -3.719113E+05  5.382116E+03 -4.348434E+04  2.835430E+04 -4.245372E+04 -1.369444E+04
       361  24 -3.840074E+05 -7.843104E+04 -9.646336E+04  5.170352E+04 -6.567392E+04 -4.752866E+03
       361  25 -1.293831E+05  6.689656E+04  3.164939E+04  6.324518E+04 -2.532355E+04 -1.103863E+04
       361  26 -2.790616E+04  9.012220E+04  3.611433E+04  1.798478E+04 -4.021060E+04 -1.369372E+04
       361  27  5.088212E+04  2.989494E+04  1.004752E+04  1.944235E+04 -5.509668E+04 -4.753356E+03
       362   1 -1.594630E+05 -7.357039E+05 -1.649206E+05  9.324635E+04 -5.320893E+03 -4.103396E+04
       362   2 -8.806928E+04 -5.896861E+05 -1.016863E+05  4.770938E+04 -1.448560E+04 -2.204036E+04
       362   3 -5.373469E+04 -4.554868E+05 -6.011110E+04  7.504146E+04 -9.742966E+03 -3.055164E+03
       362   4 -3.297388E+04 -2.279389E+05 -4.038900E+04  8.013842E+04 -5.309173E+03 -2.943977E+04
       362   5  2.309406E+03 -2.228774E+05 -1.672179E+04  4.368749E+04 -1.448320E+04 -2.044292E+04
       362   6  2.284004E+03 -2.279078E+05 -7.756229E+03  8.010522E+04 -9.752991E+03 -1.145907E+04
       362   7  9.349681E+04  2.800619E+05  8.412431E+04  6.701966E+04 -5.297949E+03 -1.783609E+04
       362   8  9.267869E+04  1.440558E+05  6.823377E+04  3.966317E+04 -1.448083E+04 -1.884454E+04
       362   9  5.829920E+04 -2.807228E+02  4.459549E+04  8.517084E+04 -9.763150E+03 -1.986603E+04
       362  10 -1.594635E+05 -7.357057E+05 -1.649238E+05  9.324618E+04  1.010764E-10  1.145419E-10
       362  11 -8.806963E+04 -5.896866E+05 -1.016877E+05  4.770912E+04  1.528661E-10  1.715497E-10
       362  12 -5.373479E+04 -4.554868E+05 -6.011130E+04  7.504143E+04 -3.181154E-10 -1.103711E-10
       362  13 -3.297415E+04 -2.279398E+05 -4.039068E+04  8.013829E+04  3.118666E-11 -1.302978E-10
       362  14  2.309069E+03 -2.228779E+05 -1.672297E+04  4.368725E+04  1.418018E-09 -2.125347E-10
       362  15  2.283867E+03 -2.279080E+05 -7.756654E+03  8.010513E+04  1.527125E-10 -1.408378E-11
       362  16  9.349669E+04  2.800615E+05  8.412366E+04  6.701959E+04  1.600411E-10 -2.081772E-10
       362  17  9.267837E+04  1.440553E+05  6.823271E+04  3.966295E+04  2.066796E-10 -2.342899E-10
       362  18  5.829900E+04 -2.811721E+02  4.459457E+04  8.517069E+04  5.548152E-10  9.829902E-12
       362  19 -1.594630E+05 -7.357039E+05 -1.649206E+05  9.324635E+04  5.320893E+03  4.103396E+04
       362  20 -8.806928E+04 -5.896861E+05 -1.016863E+05  4.770938E+04  1.448560E+04  2.204036E+04
       362  21 -5.373469E+04 -4.554868E+05 -6.011110E+04  7.504146E+04  9.742966E+03  3.055164E+03
       362  22 -3.297388E+04 -2.279389E+05 -4.038900E+04  8.013842E+04  5.309173E+03  2.943977E+04
       362  23  2.309406E+03 -2.228774E+05 -1.672179E+04  4.368749E+04  1.448320E+04  2.044292E+04
       362  24  2.284004E+03 -2.279078E+05 -7.756229E+03  8.010522E+04  9.752991E+03  1.145907E+04
       362  25  9.349681E+04  2.800619E+05  8.412431E+04  6.701966E+04  5.297949E+03  1.783609E+04
       362  26  9.267869E+04  1.440558E+05  6.823377E+04  3.966317E+04  1.448083E+04  1.884454E+04
       362  27  5.829920E+04 -2.807228E+02  4.459549E+04  8.517084E+04  9.763150E+03  1.986603E+04
       363   1 -2.545436E+04 -3.187534E+05 -2.596348E+04  8.028464E+04 -3.994939E+03 -6.151161E+03
       363   2  1.150344E+04 -1.789257E+05  1.374656E+04  4.413065E+04  1.999348E+03 -7.742935E+03
       363   3  5.039149E+04 -3.859113E+04  5.492692E+04  8.133065E+04  7.879896E+03 -9.334477E+03
       363   4 -2.520353E+03 -2.255497E+05 -4.524280E+03  8.022617E+04 -4.000382E+03 -1.050822E+04
       363   5 -2.828935E+01 -2.257886E+05  2.969622E+03  4.354492E+04  1.994194E+03 -1.201775E+04
       363   6  4.381676E+03 -2.255517E+05  1.187917E+04  8.021789E+04  7.874962E+03 -1.352670E+04
       363   7  2.041305E+04 -1.323380E+05  1.691442E+04  8.016767E+04 -4.005823E+03 -1.486592E+04
       363   8 -1.156016E+04 -2.726495E+05 -7.807393E+03  4.295923E+04  1.989047E+03 -1.629224E+04
       363   9 -4.163057E+04 -4.124800E+05 -3.117083E+04  7.910546E+04  7.870043E+03 -1.771766E+04
       363  10 -2.545438E+04 -3.187534E+05 -2.596358E+04  8.028462E+04 -1.885131E-11  5.681732E-13
       363  11  1.150342E+04 -1.789258E+05  1.374644E+04  4.413067E+04 -5.782172E-10 -9.979786E-11
       363  12  5.039140E+04 -3.859124E+04  5.492664E+04  8.133071E+04  3.282648E-10 -9.417097E-11
       363  13 -2.520400E+03 -2.255498E+05 -4.524517E+03  8.022613E+04  5.766353E-10 -2.187936E-10
       363  14 -2.833241E+01 -2.257888E+05  2.969343E+03  4.354494E+04 -7.868233E-10 -2.411966E-10
       363  15  4.381561E+03 -2.255519E+05  1.187871E+04  8.021798E+04 -8.090535E-10  5.128843E-11
       363  16  2.041297E+04 -1.323382E+05  1.691397E+04  8.016763E+04  4.462822E-10 -1.194273E-10
       363  17 -1.156024E+04 -2.726498E+05 -7.807899E+03  4.295925E+04  1.119655E-09 -2.737694E-10
       363  18 -4.163072E+04 -4.124803E+05 -3.117154E+04  7.910557E+04  4.181221E-10 -1.723167E-11
       363  19 -2.545436E+04 -3.187534E+05 -2.596348E+04  8.028464E+04  3.994939E+03  6.151161E+03
       363  20  1.150344E+04 -1.789257E+05  1.374656E+04  4.413065E+04 -1.999348E+03  7.742935E+03
       363  21  5.039149E+04 -3.859113E+04  5.492692E+04  8.133065E+04 -7.879896E+03  9.334477E+03
       363  22 -2.520353E+03 -2.255497E+05 -4.524280E+03  8.022617E+04  4.000382E+03  1.050822E+04
       363  23 -2.828935E+01 -2.257886E+05  2.969622E+03  4.354492E+04 -1.994194E+03  1.201775E+04
       363  24  4.381676E+03 -2.255517E+05  1.187917E+04  8.021789E+04 -7.874962E+03  1.352670E+04
       363  25  2.041305E+04 -1.323380E+05  1.691442E+04  8.016767E+04  4.005823E+03  1.486592E+04
       363  26 -1.156016E+04 -2.726495E+05 -7.807393E+03  4.295923E+04 -1.989047E+03  1.629224E+04
       363  27 -4.163057E+04 -4.124800E+05 -3.117083E+04  7.910546E+04 -7.870043E+03  1.771766E+04
       364   1  7.603988E+04  9.945908E+04  8.992371E+04  7.235571E+04  1.388591E+04 -6.825367E+03
       364   2  1.097282E+05  2.301944E+05  1.355545E+05  5.114045E+04  1.823845E+04 -3.400587E+04
       364   3  2.043223E+05  3.796714E+05  2.140898E+05  1.026395E+05  6.422882E+03 -6.117925E+04
       364   4 -2.994581E+03 -2.219600E+05  1.608232E+04  8.009364E+04  1.387595E+04 -1.579630E+04
       364   5 -3.705328E+03 -2.303332E+05  2.898763E+04  4.371280E+04  1.824228E+04 -3.132220E+04
       364   6  5.449297E+04 -2.219869E+05  6.672097E+04  8.004618E+04  6.436498E+03 -4.683468E+04
       364   7 -8.203598E+04 -5.432832E+05 -5.776556E+04  8.782750E+04  1.386575E+04 -2.476263E+04
       364   8 -1.171535E+05 -6.906646E+05 -7.759342E+04  3.629065E+04  1.824605E+04 -2.864049E+04
       364   9 -9.536122E+04 -8.233139E+05 -8.067331E+04  5.747467E+04  6.449078E+03 -3.250396E+04
       364  10  7.603966E+04  9.945898E+04  8.992326E+04  7.235579E+04  7.470466E-11 -1.139344E-10
       364  11  1.097275E+05  2.301930E+05  1.355517E+05  5.114095E+04 -2.634126E-10 -4.515597E-11
       364  12  2.043213E+05  3.796674E+05  2.140827E+05  1.026398E+05  2.341294E-10 -1.255921E-10
       364  13 -2.994854E+03 -2.219604E+05  1.608148E+04  8.009382E+04  8.053225E-10 -1.743550E-10
       364  14 -3.705949E+03 -2.303343E+05  2.898516E+04  4.371326E+04 -3.626517E-10  5.103458E-11
       364  15  5.449234E+04 -2.219892E+05  6.671677E+04  8.004642E+04  1.831119E-10 -3.872263E-11
       364  16 -8.203635E+04 -5.432839E+05 -5.776708E+04  8.782778E+04 -1.227669E-10  7.160367E-11
       364  17 -1.171541E+05 -6.906656E+05 -7.759559E+04  3.629107E+04  1.671942E-10  1.630872E-10
       364  18 -9.536155E+04 -8.233150E+05 -8.067538E+04  5.747484E+04  4.452737E-10  5.817905E-11
       364  19  7.603988E+04  9.945908E+04  8.992371E+04  7.235571E+04 -1.388591E+04  6.825367E+03
       364  20  1.097282E+05  2.301944E+05  1.355545E+05  5.114045E+04 -1.823845E+04  3.400587E+04
       364  21  2.043223E+05  3.796714E+05  2.140898E+05  1.026395E+05 -6.422882E+03  6.117925E+04
       364  22 -2.994581E+03 -2.219600E+05  1.608232E+04  8.009364E+04 -1.387595E+04  1.579630E+04
       364  23 -3.705328E+03 -2.303332E+05  2.898763E+04  4.371280E+04 -1.824228E+04  3.132220E+04
       364  24  5.449297E+04 -2.219869E+05  6.672097E+04  8.004618E+04 -6.436498E+03  4.683468E+04
       364  25 -8.203598E+04 -5.432832E+05 -5.776556E+04  8.782750E+04 -1.386575E+04  2.476263E+04
       364  26 -1.171535E+05 -6.906646E+05 -7.759342E+04  3.629065E+04 -1.824605E+04  2.864049E+04
       364  27 -9.536122E+04 -8.233139E+05 -8.067331E+04  5.747467E+04 -6.449078E+03  3.250396E+04
       365   1  4.551273E+05  3.873524E+05  1.593703E+05  2.831548E+05  6.530935E+04  4.581412E+04
       365   2  4.264239E+05  2.833872E+05  9.234350E+04  3.067631E+05  4.452298E+04  2.382585E+04
       365   3  4.407427E+05  2.604573E+05  6.875292E+04  3.004043E+05  2.058099E+04  6.052243E+03
       365   4  3.376623E+05  2.445163E+05  1.084577E+05  1.978365E+05  6.081939E+04  4.244552E+04
       365   5  2.997750E+05  1.745457E+05  4.870176E+04  2.351338E+05  4.307296E+04  2.273833E+04
       365   6  3.042614E+05  1.849620E+05  2.975383E+04  2.424609E+05  2.217093E+04  7.243775E+03
       365   7  2.202135E+05  1.017082E+05  5.754266E+04  1.125412E+05  5.633054E+04  3.907856E+04
       365   8  1.731428E+05  6.571775E+04  5.057527E+03  1.635223E+05  4.162333E+04  2.165118E+04
       365   9  1.677993E+05  1.094715E+05 -9.247393E+03  1.845296E+05  2.376040E+04  8.435058E+03
       365  10  4.551222E+05  3.873490E+05  1.593584E+05  2.831524E+05  1.997550E-10  3.280693E-11
       365  11  4.264216E+05  2.833861E+05  9.233871E+04  3.067622E+05  3.003295E-10 -2.611035E-10
       365  12  4.407422E+05  2.604571E+05  6.875206E+04  3.004042E+05 -1.277359E-10 -4.980241E-10
       365  13  3.376579E+05  2.445134E+05  1.084473E+05  1.978344E+05 -5.901975E-10 -3.211396E-12
       365  14  2.997728E+05  1.745446E+05  4.869730E+04  2.351331E+05 -9.409947E-11 -1.903428E-10
       365  15  3.042608E+05  1.849618E+05  2.975281E+04  2.424607E+05 -1.323404E-10 -1.951311E-10
       365  16  2.202096E+05  1.017057E+05  5.753383E+04  1.125394E+05  6.184758E-10 -2.843200E-10
       365  17  1.731408E+05  6.571679E+04  5.053393E+03  1.635215E+05 -2.075001E-10 -2.205617E-10
       365  18  1.677987E+05  1.094713E+05 -9.248587E+03  1.845295E+05  2.950132E-10 -1.844780E-11
       365  19  4.551273E+05  3.873524E+05  1.593703E+05  2.831548E+05 -6.530935E+04 -4.581412E+04
       365  20  4.264239E+05  2.833872E+05  9.234350E+04  3.067631E+05 -4.452298E+04 -2.382585E+04
       365  21  4.407427E+05  2.604573E+05  6.875292E+04  3.004043E+05 -2.058099E+04 -6.052243E+03
       365  22  3.376623E+05  2.445163E+05  1.084577E+05  1.978365E+05 -6.081939E+04 -4.244552E+04
       365  23  2.997750E+05  1.745457E+05  4.870176E+04  2.351338E+05 -4.307296E+04 -2.273833E+04
       365  24  3.042614E+05  1.849620E+05  2.975383E+04  2.424609E+05 -2.217093E+04 -7.243775E+03
       365  25  2.202135E+05  1.017082E+05  5.754266E+04  1.125412E+05 -5.633054E+04 -3.907856E+04
       365  26  1.731428E+05  6.571775E+04  5.057527E+03  1.635223E+05 -4.162333E+04 -2.165118E+04
       365  27  1.677993E+05  1.094715E+05 -9.247393E+03  1.845296E+05 -2.376040E+04 -8.435058E+03
       366   1  4.134117E+05  2.710568E+05  5.921516E+04  2.899714E+05  1.763907E+04  5.301737E+03
       366   2  4.025082E+05  2.498461E+05  4.420395E+04  2.840451E+05  1.159226E+04  1.562252E+03
       366   3  3.865561E+05  2.438749E+05  3.565370E+04  2.786763E+05  5.391153E+03 -1.971000E+03
       366   4  3.048579E+05  1.903375E+05  2.423058E+04  2.343655E+05  1.792779E+04  5.517850E+03
       366   5  3.061557E+05  1.805188E+05  1.365037E+04  2.357481E+05  1.203062E+04  1.890621E+03
       366   6  3.023727E+05  1.859079E+05  9.402429E+03  2.376880E+05  5.978988E+03 -1.530528E+03
       366   7  1.963175E+05  1.096260E+05 -1.075523E+04  1.787712E+05  1.821644E+04  5.733908E+03
       366   8  2.098136E+05  1.111970E+05 -1.690424E+04  1.874599E+05  1.246890E+04  2.218919E+03
       366   9  2.181970E+05  1.279445E+05 -1.684969E+04  1.967059E+05  6.566714E+03 -1.090135E+03
       366  10  4.134113E+05  2.710567E+05  5.921452E+04  2.899713E+05 -2.731146E-10 -1.245885E-10
       366  11  4.025081E+05  2.498461E+05  4.420369E+04  2.840451E+05  1.383077E-10 -1.408147E-10
       366  12  3.865560E+05  2.438748E+05  3.565364E+04  2.786763E+05  3.198862E-11 -1.106421E-13
       366  13  3.048575E+05  1.903374E+05  2.422992E+04  2.343654E+05 -5.685967E-10 -1.829075E-10
       366  14  3.061556E+05  1.805188E+05  1.365009E+04  2.357481E+05 -1.183519E-10 -2.942167E-10
       366  15  3.023727E+05  1.859079E+05  9.402358E+03  2.376880E+05  4.676498E-10  8.461189E-11
       366  16  1.963171E+05  1.096259E+05 -1.075592E+04  1.787711E+05  4.494399E-10  2.070279E-10
       366  17  2.098134E+05  1.111970E+05 -1.690454E+04  1.874598E+05 -6.429757E-10 -1.491341E-10
       366  18  2.181970E+05  1.279445E+05 -1.684977E+04  1.967059E+05  1.744627E-10 -3.912063E-10
       366  19  4.134117E+05  2.710568E+05  5.921516E+04  2.899714E+05 -1.763907E+04 -5.301737E+03
       366  20  4.025082E+05  2.498461E+05  4.420395E+04  2.840451E+05 -1.159226E+04 -1.562252E+03
       366  21  3.865561E+05  2.438749E+05  3.565370E+04  2.786763E+05 -5.391153E+03  1.971000E+03
       366  22  3.048579E+05  1.903375E+05  2.423058E+04  2.343655E+05 -1.792779E+04 -5.517850E+03
       366  23  3.061557E+05  1.805188E+05  1.365037E+04  2.357481E+05 -1.203062E+04 -1.890621E+03
       366  24  3.023727E+05  1.859079E+05  9.402429E+03  2.376880E+05 -5.978988E+03  1.530528E+03
       366  25  1.963175E+05  1.096260E+05 -1.075523E+04  1.787712E+05 -1.821644E+04 -5.733908E+03
       366  26  2.098136E+05  1.111970E+05 -1.690424E+04  1.874599E+05 -1.246890E+04 -2.218919E+03
       366  27  2.181970E+05  1.279445E+05 -1.684969E+04  1.967059E+05 -6.566714E+03  1.090135E+03
       367   1  3.721709E+05  2.361078E+05  3.044073E+04  2.719583E+05  3.849283E+03 -2.412120E+03
       367   2  3.629112E+05  2.209615E+05  2.579398E+04  2.637837E+05  9.371585E+01 -4.087362E+03
       367   3  3.452971E+05  2.165009E+05  2.411808E+04  2.581015E+05 -3.666374E+03 -5.756620E+03
       367   4  3.023906E+05  1.862299E+05  8.428173E+03  2.371242E+05  4.372667E+03 -2.019915E+03
       367   5  3.066208E+05  1.809809E+05  8.046050E+03  2.358081E+05  6.217668E+02 -3.691612E+03
       367   6  3.024956E+05  1.864167E+05  1.063100E+04  2.369843E+05 -3.133724E+03 -5.357380E+03
       367   7  2.326149E+05  1.363543E+05 -1.358516E+04  2.022942E+05  4.895974E+03 -1.627769E+03
       367   8  2.503337E+05  1.410021E+05 -9.702274E+03  2.078354E+05  1.149753E+03 -3.295911E+03
       367   9  2.596964E+05  1.563336E+05 -2.856191E+03  2.158688E+05 -2.601128E+03 -4.958181E+03
       367  10  3.721709E+05  2.361077E+05  3.044069E+04  2.719583E+05 -1.891444E-10 -1.575712E-10
       367  11  3.629112E+05  2.209615E+05  2.579395E+04  2.637837E+05 -1.002551E-10 -3.748938E-10
       367  12  3.452971E+05  2.165009E+05  2.411799E+04  2.581015E+05  1.019889E-11 -1.339856E-10
       367  13  3.023906E+05  1.862299E+05  8.428129E+03  2.371242E+05  2.489502E-10 -2.160972E-10
       367  14  3.066208E+05  1.809809E+05  8.046024E+03  2.358081E+05  3.312962E-10  2.080480E-10
       367  15  3.024956E+05  1.864166E+05  1.063093E+04  2.369842E+05  1.852557E-10 -1.284658E-10
       367  16  2.326149E+05  1.363543E+05 -1.358521E+04  2.022942E+05  4.852953E-10 -1.803068E-10
       367  17  2.503337E+05  1.410020E+05 -9.702296E+03  2.078354E+05  8.420523E-11 -5.648439E-11
       367  18  2.596964E+05  1.563336E+05 -2.856250E+03  2.158688E+05  4.813731E-10  1.036842E-10
       367  19  3.721709E+05  2.361078E+05  3.044073E+04  2.719583E+05 -3.849283E+03  2.412120E+03
       367  20  3.629112E+05  2.209615E+05  2.579398E+04  2.637837E+05 -9.371585E+01  4.087362E+03
       367  21  3.452971E+05  2.165009E+05  2.411808E+04  2.581015E+05  3.666374E+03  5.756620E+03
       367  22  3.023906E+05  1.862299E+05  8.428173E+03  2.371242E+05 -4.372667E+03  2.019915E+03
       367  23  3.066208E+05  1.809809E+05  8.046050E+03  2.358081E+05 -6.217668E+02  3.691612E+03
       367  24  3.024956E+05  1.864167E+05  1.063100E+04  2.369843E+05  3.133724E+03  5.357380E+03
       367  25  2.326149E+05  1.363543E+05 -1.358516E+04  2.022942E+05 -4.895974E+03  1.627769E+03
       367  26  2.503337E+05  1.410021E+05 -9.702274E+03  2.078354E+05 -1.149753E+03  3.295911E+03
       367  27  2.596964E+05  1.563336E+05 -2.856191E+03  2.158688E+05  2.601128E+03  4.958181E+03
       368   1  3.303888E+05  2.084967E+05  2.207308E+04  2.531227E+05 -5.665501E+03 -6.570098E+03
       368   2  3.225295E+05  1.906172E+05  2.542967E+04  2.433508E+05 -1.443160E+04 -1.200142E+04
       368   3  3.121328E+05  1.910867E+05  3.836535E+04  2.328033E+05 -2.315343E+04 -1.749168E+04
       368   4  3.025211E+05  1.858619E+05  1.281379E+04  2.379528E+05 -5.118415E+03 -6.159988E+03
       368   5  3.057595E+05  1.801979E+05  2.042037E+04  2.357042E+05 -1.392678E+04 -1.162304E+04
       368   6  3.064696E+05  1.928920E+05  3.764279E+04  2.326798E+05 -2.269109E+04 -1.714531E+04
       368   7  2.746541E+05  1.632277E+05  3.554389E+03  2.227838E+05 -4.571361E+03 -5.749907E+03
       368   8  2.889897E+05  1.697786E+05  1.541102E+04  2.280579E+05 -1.342197E+04 -1.124467E+04
       368   9  3.008063E+05  1.946973E+05  3.692023E+04  2.325564E+05 -2.222875E+04 -1.679892E+04
       368  10  3.303888E+05  2.084966E+05  2.207294E+04  2.531227E+05 -5.336785E-11 -1.900006E-10
       368  11  3.225293E+05  1.906170E+05  2.542900E+04  2.433507E+05 -5.000088E-10  2.269591E-10
       368  12  3.121322E+05  1.910862E+05  3.836377E+04  2.328030E+05 -1.921910E-10  2.299750E-11
       368  13  3.025210E+05  1.858618E+05  1.281367E+04  2.379528E+05 -4.154350E-10 -4.206590E-11
       368  14  3.057593E+05  1.801977E+05  2.041975E+04  2.357041E+05 -4.407604E-10  8.847700E-11
       368  15  3.064689E+05  1.928916E+05  3.764127E+04  2.326795E+05 -2.139130E-10 -2.764820E-10
       368  16  2.746541E+05  1.632277E+05  3.554288E+03  2.227837E+05  2.553876E-10  1.884511E-10
       368  17  2.889895E+05  1.697784E+05  1.541045E+04  2.280578E+05 -9.715207E-11 -1.483805E-10
       368  18  3.008057E+05  1.946969E+05  3.691877E+04  2.325561E+05  1.071343E-10 -5.963833E-11
       368  19  3.303888E+05  2.084967E+05  2.207308E+04  2.531227E+05  5.665501E+03  6.570098E+03
       368  20  3.225295E+05  1.906172E+05  2.542967E+04  2.433508E+05  1.443160E+04  1.200142E+04
       368  21  3.121328E+05  1.910867E+05  3.836535E+04  2.328033E+05  2.315343E+04  1.749168E+04
       368  22  3.025211E+05  1.858619E+05  1.281379E+04  2.379528E+05  5.118415E+03  6.159988E+03
       368  23  3.057595E+05  1.801979E+05  2.042037E+04  2.357042E+05  1.392678E+04  1.162304E+04
       368  24  3.064696E+05  1.928920E+05  3.764279E+04  2.326798E+05  2.269109E+04  1.714531E+04
       368  25  2.746541E+05  1.632277E+05  3.554389E+03  2.227838E+05  4.571361E+03  5.749907E+03
       368  26  2.889897E+05  1.697786E+05  1.541102E+04  2.280579E+05  1.342197E+04  1.124467E+04
       368  27  3.008063E+05  1.946973E+05  3.692023E+04  2.325564E+05  2.222875E+04  1.679892E+04
       369   1  2.749945E+05  1.964498E+05  4.311354E+04  2.458679E+05 -2.946596E+04 -2.133645E+04
       369   2  2.888475E+05  1.358392E+05  6.896841E+04  2.174733E+05 -6.183286E+04 -4.472456E+04
       369   3  3.749684E+05  1.964716E+05  1.584732E+05  1.400842E+05 -9.331136E+04 -6.929436E+04
       369   4  3.055093E+05  1.844271E+05  4.653909E+04  2.454823E+05 -2.863852E+04 -2.071468E+04
       369   5  2.956966E+05  1.707349E+05  7.672964E+04  2.347241E+05 -6.186015E+04 -4.474783E+04
       369   6  3.583285E+05  2.784613E+05  1.713091E+05  1.749731E+05 -9.419139E+04 -6.996736E+04
       369   7  3.360256E+05  1.724054E+05  4.996483E+04  2.450963E+05 -2.781103E+04 -2.009296E+04
       369   8  3.025462E+05  2.056328E+05  8.449093E+04  2.519754E+05 -6.188743E+04 -4.477110E+04
       369   9  3.416945E+05  3.604663E+05  1.841466E+05  2.098619E+05 -9.507138E+04 -7.064059E+04
       369  10  2.749935E+05  1.964490E+05  4.311106E+04  2.458674E+05 -6.032427E-10 -1.726157E-10
       369  11  2.888429E+05  1.358360E+05  6.895747E+04  2.174711E+05 -3.553691E-10 -1.446381E-10
       369  12  3.749578E+05  1.964641E+05  1.584478E+05  1.400790E+05 -9.734699E-11  4.156970E-11
       369  13  3.055083E+05  1.844264E+05  4.653675E+04  2.454818E+05 -1.088619E-10  3.403108E-11
       369  14  2.956919E+05  1.707318E+05  7.671870E+04  2.347219E+05  8.746515E-11 -8.998366E-11
       369  15  3.583177E+05  2.784537E+05  1.712833E+05  1.749678E+05  4.056937E-10  7.314037E-11
       369  16  3.360246E+05  1.724048E+05  4.996262E+04  2.450959E+05  1.803074E-10  3.495166E-11
       369  17  3.025415E+05  2.056296E+05  8.447997E+04  2.519732E+05 -2.894397E-11 -1.741432E-10
       369  18  3.416835E+05  3.604585E+05  1.841202E+05  2.098565E+05  3.061980E-11 -1.344571E-10
       369  19  2.749945E+05  1.964498E+05  4.311354E+04  2.458679E+05  2.946596E+04  2.133645E+04
       369  20  2.888475E+05  1.358392E+05  6.896841E+04  2.174733E+05  6.183286E+04  4.472456E+04
       369  21  3.749684E+05  1.964716E+05  1.584732E+05  1.400842E+05  9.331136E+04  6.929436E+04
       369  22  3.055093E+05  1.844271E+05  4.653909E+04  2.454823E+05  2.863852E+04  2.071468E+04
       369  23  2.956966E+05  1.707349E+05  7.672964E+04  2.347241E+05  6.186015E+04  4.474783E+04
       369  24  3.583285E+05  2.784613E+05  1.713091E+05  1.749731E+05  9.419139E+04  6.996736E+04
       369  25  3.360256E+05  1.724054E+05  4.996483E+04  2.450963E+05  2.781103E+04  2.009296E+04
       369  26  3.025462E+05  2.056328E+05  8.449093E+04  2.519754E+05  6.188743E+04  4.477110E+04
       369  27  3.416945E+05  3.604663E+05  1.841466E+05  2.098619E+05  9.507138E+04  7.064059E+04
       370   1  5.020426E+05  1.176458E+05  1.088138E+05  4.625994E+04 -8.278593E+03 -6.572188E+03
       370   2  4.044003E+05  1.205477E+05  9.590005E+04  2.795270E+04 -1.100895E+04 -1.928034E+04
       370   3  3.002855E+05  9.545887E+04  7.779568E+04  6.182621E+04 -1.373479E+04 -1.667060E+04
       370   4 -8.191964E+04 -2.770126E+04 -3.406012E+04  5.774382E+04 -2.293812E+04 -6.568219E+03
       370   5 -7.770391E+04  1.852813E+03 -1.556408E+04  3.165487E+04 -1.463838E+04 -1.928098E+04
       370   6 -8.189308E+04  1.489505E+03 -9.922693E+03  5.775039E+04 -6.334605E+03 -1.667050E+04
       370   7 -6.655706E+05 -1.730730E+05 -1.769581E+05  6.921688E+04 -3.758389E+04 -6.564791E+03
       370   8 -5.595933E+05 -1.168584E+05 -1.270437E+05  3.535415E+04 -1.826502E+04 -1.928167E+04
       370   9 -4.639364E+05 -9.248996E+04 -9.765048E+04  5.367709E+04  1.061061E+03 -1.667049E+04
       370  10  5.020426E+05  1.176458E+05  1.088136E+05  4.625990E+04  1.356936E-10 -1.104930E-10
       370  11  4.044001E+05  1.205473E+05  9.589913E+04  2.795252E+04 -2.966322E-10 -3.174895E-11
       370  12  3.002853E+05  9.545852E+04  7.779480E+04  6.182603E+04 -1.011858E-10  1.787204E-10
       370  13 -8.192021E+04 -2.770145E+04 -3.406119E+04  5.774370E+04 -4.871045E-10  8.453316E-11
       370  14 -7.770424E+04  1.852356E+03 -1.556518E+04  3.165464E+04  3.833405E-10 -1.565453E-11
       370  15 -8.189320E+04  1.489195E+03 -9.923290E+03  5.775031E+04  2.404193E-10  1.998135E-10
       370  16 -6.655721E+05 -1.730734E+05 -1.769608E+05  6.921669E+04 -2.199289E-11 -2.300963E-10
       370  17 -5.595938E+05 -1.168588E+05 -1.270450E+05  3.535386E+04 -1.754433E-10 -3.150001E-10
       370  18 -4.639364E+05 -9.249025E+04 -9.765101E+04  5.367710E+04  4.806398E-11 -9.342278E-11
       370  19  5.020426E+05  1.176458E+05  1.088138E+05  4.625994E+04  8.278593E+03  6.572188E+03
       370  20  4.044003E+05  1.205477E+05  9.590005E+04  2.795270E+04  1.100895E+04  1.928034E+04
       370  21  3.002855E+05  9.545887E+04  7.779568E+04  6.182621E+04  1.373479E+04  1.667060E+04
       370  22 -8.191964E+04 -2.770126E+04 -3.406012E+04  5.774382E+04  2.293812E+04  6.568219E+03
       370  23 -7.770391E+04  1.852813E+03 -1.556408E+04  3.165487E+04  1.463838E+04  1.928098E+04
       370  24 -8.189308E+04  1.489505E+03 -9.922693E+03  5.775039E+04  6.334605E+03  1.667050E+04
       370  25 -6.655706E+05 -1.730730E+05 -1.769581E+05  6.921688E+04  3.758389E+04  6.564791E+03
       370  26 -5.595933E+05 -1.168584E+05 -1.270437E+05  3.535415E+04  1.826502E+04  1.928167E+04
       370  27 -4.639364E+05 -9.248996E+04 -9.765048E+04  5.367709E+04 -1.061061E+03  1.667049E+04
       371   1  2.051777E+05  6.816893E+04  5.731938E+04  5.713556E+04 -7.509385E+03 -1.197775E+04
       371   2  1.048720E+05  4.562285E+04  3.670606E+04  3.132053E+04 -5.139167E+03 -7.884345E+03
       371   3  3.632962E+03  2.054922E+04  1.391633E+04  5.827882E+04 -2.770738E+03 -3.065334E+03
       371   4 -8.023916E+04 -2.056316E+03 -8.415264E+03  5.788007E+04 -4.821736E+03 -1.197766E+04
       371   5 -7.971802E+04  2.155383E+02 -5.745337E+03  3.149271E+04 -1.930255E+03 -7.883749E+03
       371   6 -8.022924E+04 -1.301631E+02 -5.613706E+03  5.787971E+04  9.598216E+02 -3.064107E+03
       371   7 -3.655806E+05 -7.228725E+04 -7.415528E+04  5.862423E+04 -2.135312E+03 -1.197756E+04
       371   8 -2.642765E+05 -4.519415E+04 -4.819895E+04  3.166482E+04  1.277711E+03 -7.883151E+03
       371   9 -1.640849E+05 -2.081004E+04 -2.514416E+04  5.748066E+04  4.689881E+03 -3.062884E+03
       371  10  2.051776E+05  6.816876E+04  5.731900E+04  5.713548E+04  2.958319E-10  1.905682E-10
       371  11  1.048720E+05  4.562278E+04  3.670589E+04  3.132050E+04  7.082402E-11 -1.194177E-10
       371  12  3.632951E+03  2.054921E+04  1.391630E+04  5.827881E+04  7.952624E-11 -1.627315E-10
       371  13 -8.023922E+04 -2.056476E+03 -8.415577E+03  5.788002E+04  8.607118E-10  2.777918E-10
       371  14 -7.971804E+04  2.154705E+02 -5.745460E+03  3.149269E+04  2.942121E-10 -3.009015E-10
       371  15 -8.022924E+04 -1.301734E+02 -5.613725E+03  5.787972E+04  9.169491E-10  2.443799E-11
       371  16 -3.655807E+05 -7.228741E+04 -7.415556E+04  5.862421E+04 -4.593902E-10 -1.076645E-11
       371  17 -2.642765E+05 -4.519421E+04 -4.819907E+04  3.166483E+04 -1.004730E-10 -9.857586E-11
       371  18 -1.640849E+05 -2.081005E+04 -2.514422E+04  5.748067E+04  3.567896E-11  1.406250E-10
       371  19  2.051777E+05  6.816893E+04  5.731938E+04  5.713556E+04  7.509385E+03  1.197775E+04
       371  20  1.048720E+05  4.562285E+04  3.670606E+04  3.132053E+04  5.139167E+03  7.884345E+03
       371  21  3.632962E+03  2.054922E+04  1.391633E+04  5.827882E+04  2.770738E+03  3.065334E+03
       371  22 -8.023916E+04 -2.056316E+03 -8.415264E+03  5.788007E+04  4.821736E+03  1.197766E+04
       371  23 -7.971802E+04  2.155383E+02 -5.745337E+03  3.149271E+04  1.930255E+03  7.883749E+03
       371  24 -8.022924E+04 -1.301631E+02 -5.613706E+03  5.787971E+04 -9.598216E+02  3.064107E+03
       371  25 -3.655806E+05 -7.228725E+04 -7.415528E+04  5.862423E+04  2.135312E+03  1.197756E+04
       371  26 -2.642765E+05 -4.519415E+04 -4.819895E+04  3.166482E+04 -1.277711E+03  7.883151E+03
       371  27 -1.640849E+05 -2.081004E+04 -2.514416E+04  5.748066E+04 -4.689881E+03  3.062884E+03
       372   1 -9.306524E+04 -3.058900E+03 -9.267328E+03  5.718458E+04 -1.716319E+03 -2.414749E+00
       372   2 -1.929317E+05 -2.754077E+04 -3.454314E+04  3.181938E+04  3.006365E+03  4.826462E+03
       372   3 -2.945851E+05 -5.667198E+04 -6.406289E+04  5.923442E+04  7.729224E+03  9.019667E+03
       372   4 -8.037948E+04  1.135817E+02 -6.094631E+03  5.788075E+04  1.987767E+03 -1.139261E+00
       372   5 -7.952456E+04  3.628452E+02 -8.448783E+03  3.149135E+04  6.253290E+03  4.827295E+03
       372   6 -8.038575E+04 -3.956546E+03 -1.472807E+04  5.788176E+04  1.051974E+04  9.020129E+03
       372   7 -6.769355E+04  3.286061E+03 -2.921893E+03  5.857693E+04  5.691928E+03  1.445197E-01
       372   8  3.389453E+04  2.826557E+04  1.764476E+04  3.116325E+04  9.500804E+03  4.828124E+03
       372   9  1.338560E+05  4.875569E+04  3.460374E+04  5.652862E+04  1.331121E+04  9.020579E+03
       372  10 -9.306524E+04 -3.058901E+03 -9.267334E+03  5.718458E+04  3.250912E-10  1.910168E-10
       372  11 -1.929317E+05 -2.754080E+04 -3.454320E+04  3.181937E+04 -3.351118E-10  2.132806E-10
       372  12 -2.945851E+05 -5.667208E+04 -6.406316E+04  5.923436E+04 -1.295537E-11  2.057283E-10
       372  13 -8.037949E+04  1.135806E+02 -6.094638E+03  5.788075E+04  9.355388E-10  1.808368E-11
       372  14 -7.952461E+04  3.628097E+02 -8.448900E+03  3.149132E+04  8.613707E-10 -3.267584E-10
       372  15 -8.038589E+04 -3.956663E+03 -1.472843E+04  5.788168E+04  4.043859E-10 -1.775114E-10
       372  16 -6.769358E+04  3.286052E+03 -2.921954E+03  5.857693E+04  1.130145E-10  5.486147E-11
       372  17  3.389442E+04  2.826552E+04  1.764455E+04  3.116321E+04  8.543827E-11  4.224990E-11
       372  18  1.338558E+05  4.875555E+04  3.460326E+04  5.652853E+04 -1.436022E-10 -2.555914E-10
       372  19 -9.306524E+04 -3.058900E+03 -9.267328E+03  5.718458E+04  1.716319E+03  2.414749E+00
       372  20 -1.929317E+05 -2.754077E+04 -3.454314E+04  3.181938E+04 -3.006365E+03 -4.826462E+03
       372  21 -2.945851E+05 -5.667198E+04 -6.406289E+04  5.923442E+04 -7.729224E+03 -9.019667E+03
       372  22 -8.037948E+04  1.135817E+02 -6.094631E+03  5.788075E+04 -1.987767E+03  1.139261E+00
       372  23 -7.952456E+04  3.628452E+02 -8.448783E+03  3.149135E+04 -6.253290E+03 -4.827295E+03
       372  24 -8.038575E+04 -3.956546E+03 -1.472807E+04  5.788176E+04 -1.051974E+04 -9.020129E+03
       372  25 -6.769355E+04  3.286061E+03 -2.921893E+03  5.857693E+04 -5.691928E+03 -1.445197E-01
       372  26  3.389453E+04  2.826557E+04  1.764476E+04  3.116325E+04 -9.500804E+03 -4.828124E+03
       372  27  1.338560E+05  4.875569E+04  3.460374E+04  5.652862E+04 -1.331121E+04 -9.020579E+03
       373   1 -3.945368E+05 -7.356897E+04 -8.943182E+04  4.991131E+04  6.236018E+03  1.351123E+04
       373   2 -4.863497E+05 -9.757878E+04 -1.244711E+05  3.862532E+04  3.172302E+04  1.638960E+04
       373   3 -5.961859E+05 -1.808345E+05 -1.909046E+05  7.960461E+04  5.720355E+04  5.664961E+03
       373   4 -8.364344E+04  2.912716E+03 -1.801825E+04  5.776825E+04  1.320455E+04  1.351213E+04
       373   5 -7.549427E+04  3.632824E+03 -2.940437E+04  3.163244E+04  2.891217E+04  1.638852E+04
       373   6 -8.366694E+04 -5.317321E+04 -6.537807E+04  5.776268E+04  4.461788E+04  5.664689E+03
       373   7  2.273397E+05  7.938791E+04  5.338914E+04  6.562915E+04  2.017655E+04  1.351319E+04
       373   8  3.355173E+05  1.048328E+05  6.565117E+04  2.463489E+04  2.609947E+04  1.638751E+04
       373   9  4.290928E+05  7.447052E+04  6.013007E+04  3.590268E+04  3.202182E+04  5.665305E+03
       373  10 -3.945369E+05 -7.356917E+04 -8.943224E+04  4.991124E+04 -3.058081E-10 -1.089497E-10
       373  11 -4.863508E+05 -9.757934E+04 -1.244735E+05  3.862490E+04  5.297731E-10 -2.913237E-10
       373  12 -5.961894E+05 -1.808354E+05 -1.909108E+05  7.960435E+04 -1.211274E-10 -4.397341E-11
       373  13 -8.364368E+04  2.912473E+03 -1.801893E+04  5.776810E+04  8.391441E-10  6.241347E-11
       373  14 -7.549524E+04  3.632311E+03 -2.940644E+04  3.163206E+04 -2.023289E-10 -4.156698E-10
       373  15 -8.366909E+04 -5.317378E+04 -6.538187E+04  5.776248E+04  3.399417E-10 -8.330119E-11
       373  16  2.273392E+05  7.938760E+04  5.338803E+04  6.562893E+04  2.214878E-11 -2.087091E-10
       373  17  3.355165E+05  1.048323E+05  6.564939E+04  2.463455E+04  1.798766E-10  1.278433E-10
       373  18  4.290917E+05  7.447021E+04  6.012809E+04  3.590253E+04  4.328280E-10  1.263527E-10
       373  19 -3.945368E+05 -7.356897E+04 -8.943182E+04  4.991131E+04 -6.236018E+03 -1.351123E+04
       373  20 -4.863497E+05 -9.757878E+04 -1.244711E+05  3.862532E+04 -3.172302E+04 -1.638960E+04
       373  21 -5.961859E+05 -1.808345E+05 -1.909046E+05  7.960461E+04 -5.720355E+04 -5.664961E+03
       373  22 -8.364344E+04  2.912716E+03 -1.801825E+04  5.776825E+04 -1.320455E+04 -1.351213E+04
       373  23 -7.549427E+04  3.632824E+03 -2.940437E+04  3.163244E+04 -2.891217E+04 -1.638852E+04
       373  24 -8.366694E+04 -5.317321E+04 -6.537807E+04  5.776268E+04 -4.461788E+04 -5.664689E+03
       373  25  2.273397E+05  7.938791E+04  5.338914E+04  6.562915E+04 -2.017655E+04 -1.351319E+04
       373  26  3.355173E+05  1.048328E+05  6.565117E+04  2.463489E+04 -2.609947E+04 -1.638751E+04
       373  27  4.290928E+05  7.447052E+04  6.013007E+04  3.590268E+04 -3.202182E+04 -5.665305E+03
       374   1 -1.833067E+05 -7.793494E+05 -1.964305E+05  1.030547E+05 -4.974388E+03 -6.564150E+04
       374   2 -7.950286E+04 -6.343572E+05 -1.144584E+05  5.013239E+04 -1.346185E+04 -3.728809E+04
       374   3 -4.740888E+04 -5.110317E+05 -6.890194E+04  6.699557E+04 -8.879725E+03 -8.936966E+03
       374   4 -6.475043E+04 -3.034133E+05 -7.968767E+04  7.673989E+04 -4.964221E+03 -5.484478E+04
       374   5  4.511856E+03 -2.933779E+05 -3.546633E+04  4.182266E+04 -1.345974E+04 -3.587932E+04
       374   6  3.718449E+03 -3.033798E+05 -2.111851E+04  7.669303E+04 -8.887215E+03 -1.692267E+04
       374   7  5.379174E+04  1.727310E+05  3.703929E+04  5.040482E+04 -4.954975E+03 -4.403977E+04
       374   8  8.851865E+04  4.770900E+04  4.351804E+04  3.350830E+04 -1.345767E+04 -3.446978E+04
       374   9  5.484315E+04 -9.568759E+04  2.666234E+04  8.639375E+04 -8.894953E+03 -2.491102E+04
       374  10 -1.833079E+05 -7.793540E+05 -1.964386E+05  1.030544E+05 -8.022793E-11 -4.748482E-10
       374  11 -7.950343E+04 -6.343587E+05 -1.144614E+05  5.013199E+04  4.040535E-11  5.800451E-12
       374  12 -4.740899E+04 -5.110318E+05 -6.890223E+04  6.699551E+04 -8.255810E-10  5.049707E-10
       374  13 -6.475127E+04 -3.034166E+05 -7.969338E+04  7.673967E+04 -7.692376E-11 -9.642448E-11
       374  14  4.511315E+03 -2.933794E+05 -3.546909E+04  4.182227E+04  6.224746E-10 -1.057353E-10
       374  15  3.718287E+03 -3.033801E+05 -2.111920E+04  7.669291E+04 -7.067332E-10 -1.806454E-10
       374  16  5.379119E+04  1.727289E+05  3.703560E+04  5.040465E+04 -3.484373E-10  5.133598E-10
       374  17  8.851814E+04  4.770767E+04  4.351546E+04  3.350793E+04 -2.092303E-10 -9.182440E-11
       374  18  5.484290E+04 -9.568828E+04  2.666103E+04  8.639357E+04  8.901489E-11 -6.040381E-10
       374  19 -1.833067E+05 -7.793494E+05 -1.964305E+05  1.030547E+05  4.974388E+03  6.564150E+04
       374  20 -7.950286E+04 -6.343572E+05 -1.144584E+05  5.013239E+04  1.346185E+04  3.728809E+04
       374  21 -4.740888E+04 -5.110317E+05 -6.890194E+04  6.699557E+04  8.879725E+03  8.936966E+03
       374  22 -6.475043E+04 -3.034133E+05 -7.968767E+04  7.673989E+04  4.964221E+03  5.484478E+04
       374  23  4.511856E+03 -2.933779E+05 -3.546633E+04  4.182266E+04  1.345974E+04  3.587932E+04
       374  24  3.718449E+03 -3.033798E+05 -2.111851E+04  7.669303E+04  8.887215E+03  1.692267E+04
       374  25  5.379174E+04  1.727310E+05  3.703929E+04  5.040482E+04  4.954975E+03  4.403977E+04
       374  26  8.851865E+04  4.770900E+04  4.351804E+04  3.350830E+04  1.345767E+04  3.446978E+04
       374  27  5.484315E+04 -9.568759E+04  2.666234E+04  8.639375E+04  8.894953E+03  2.491102E+04
       375   1 -2.416816E+04 -3.783149E+05 -3.495790E+04  7.833121E+04 -3.399928E+03 -9.642986E+03
       375   2  1.401355E+04 -2.432454E+05  4.463411E+03  4.216000E+04  2.359067E+03 -5.584009E+03
       375   3  4.740412E+04 -1.100295E+05  4.000765E+04  7.623835E+04  7.984259E+03 -1.523518E+03
       375   4 -4.738198E+03 -2.993391E+05 -1.679604E+04  7.681239E+04 -3.403988E+03 -1.383338E+04
       375   5  4.420450E+02 -2.983974E+05 -8.220606E+03  4.168473E+04  2.355277E+03 -9.677724E+03
       375   6  8.158155E+02 -2.993416E+05 -3.587267E+03  7.680724E+04  7.980687E+03 -5.521409E+03
       375   7  1.469134E+04 -2.203575E+05  1.365479E+03  7.529337E+04 -3.408027E+03 -1.802430E+04
       375   8 -1.312967E+04 -3.535465E+05 -2.090476E+04  4.120949E+04  2.351493E+03 -1.377108E+04
       375   9 -4.577499E+04 -4.886206E+05 -4.718450E+04  7.737593E+04  7.977107E+03 -9.518089E+03
       375  10 -2.416819E+04 -3.783150E+05 -3.495809E+04  7.833118E+04 -4.843007E-10  9.261089E-11
       375  11  1.401354E+04 -2.432455E+05  4.463342E+03  4.216002E+04 -4.340595E-10  6.664749E-10
       375  12  4.740405E+04 -1.100295E+05  4.000753E+04  7.623836E+04  2.905609E-10  4.144735E-10
       375  13 -4.738262E+03 -2.993394E+05 -1.679642E+04  7.681235E+04 -1.280448E-10 -4.410261E-10
       375  14  4.420138E+02 -2.983975E+05 -8.220793E+03  4.168475E+04 -1.321201E-09  1.521632E-10
       375  15  8.157389E+02 -2.993417E+05 -3.587444E+03  7.680727E+04 -5.978253E-10 -2.316048E-10
       375  16  1.469124E+04 -2.203579E+05  1.364847E+03  7.529332E+04  4.853148E-11  1.666328E-11
       375  17 -1.312972E+04 -3.535467E+05 -2.090513E+04  4.120952E+04  5.547124E-10 -5.252386E-10
       375  18 -4.577508E+04 -4.886207E+05 -4.718479E+04  7.737600E+04  2.501709E-10 -4.945259E-10
       375  19 -2.416816E+04 -3.783149E+05 -3.495790E+04  7.833121E+04  3.399928E+03  9.642986E+03
       375  20  1.401355E+04 -2.432454E+05  4.463411E+03  4.216000E+04 -2.359067E+03  5.584009E+03
       375  21  4.740412E+04 -1.100295E+05  4.000765E+04  7.623835E+04 -7.984259E+03  1.523518E+03
       375  22 -4.738198E+03 -2.993391E+05 -1.679604E+04  7.681239E+04  3.403988E+03  1.383338E+04
       375  23  4.420450E+02 -2.983974E+05 -8.220606E+03  4.168473E+04 -2.355277E+03  9.677724E+03
       375  24  8.158155E+02 -2.993416E+05 -3.587267E+03  7.680724E+04 -7.980687E+03  5.521409E+03
       375  25  1.469134E+04 -2.203575E+05  1.365479E+03  7.529337E+04  3.408027E+03  1.802430E+04
       375  26 -1.312967E+04 -3.535465E+05 -2.090476E+04  4.120949E+04 -2.351493E+03  1.377108E+04
       375  27 -4.577499E+04 -4.886206E+05 -4.718450E+04  7.737593E+04 -7.977107E+03  9.518089E+03
       376   1  7.769483E+04  1.946260E+04  7.115117E+04  7.606374E+04  1.376478E+04  3.630208E+03
       376   2  1.107917E+05  1.518244E+05  1.057514E+05  4.275728E+04  1.790938E+04 -8.483341E+03
       376   3  1.516746E+05  2.877411E+05  1.501825E+05  7.906942E+04  6.318012E+03 -2.059099E+04
       376   4 -5.375736E+02 -2.985888E+05 -1.921906E+03  7.667016E+04  1.375772E+04 -5.025082E+03
       376   5 -3.409206E+02 -2.993917E+05  1.337877E+03  4.185772E+04  1.791204E+04 -5.805175E+03
       376   6  5.678706E+03 -2.986194E+05  6.561409E+03  7.666665E+04  6.325365E+03 -6.576842E+03
       376   7 -7.877700E+04 -6.165463E+05 -7.500138E+04  7.727624E+04  1.375064E+04 -1.367597E+04
       376   8 -1.114879E+05 -7.504195E+05 -1.030892E+05  4.095878E+04  1.791470E+04 -3.128939E+03
       376   9 -1.403425E+05 -8.846663E+05 -1.370841E+05  7.426610E+04  6.332614E+03  7.424102E+03
       376  10  7.769462E+04  1.946253E+04  7.115079E+04  7.606370E+04 -7.445292E-11 -3.037213E-10
       376  11  1.107914E+05  1.518242E+05  1.057506E+05  4.275740E+04 -2.572094E-10  2.623592E-10
       376  12  1.516744E+05  2.877406E+05  1.501816E+05  7.906952E+04 -7.683518E-11  1.628788E-10
       376  13 -5.377836E+02 -2.985888E+05 -1.922310E+03  7.667022E+04  3.707351E-10 -8.514005E-10
       376  14 -3.412741E+02 -2.993918E+05  1.337211E+03  4.185780E+04 -1.962450E-10 -2.149870E-10
       376  15  5.678651E+03 -2.986195E+05  6.561253E+03  7.666668E+04  6.431095E-11 -4.547034E-11
       376  16 -7.877725E+04 -6.165465E+05 -7.500209E+04  7.727640E+04 -7.631343E-11  2.116758E-10
       376  17 -1.114882E+05 -7.504196E+05 -1.030898E+05  4.095883E+04  5.319535E-11 -9.853051E-11
       376  18 -1.403426E+05 -8.846664E+05 -1.370843E+05  7.426607E+04  8.616710E-11 -3.076912E-10
       376  19  7.769483E+04  1.946260E+04  7.115117E+04  7.606374E+04 -1.376478E+04 -3.630208E+03
       376  20  1.107917E+05  1.518244E+05  1.057514E+05  4.275728E+04 -1.790938E+04  8.483341E+03
       376  21  1.516746E+05  2.877411E+05  1.501825E+05  7.906942E+04 -6.318012E+03  2.059099E+04
       376  22 -5.375736E+02 -2.985888E+05 -1.921906E+03  7.667016E+04 -1.375772E+04  5.025082E+03
       376  23 -3.409206E+02 -2.993917E+05  1.337877E+03  4.185772E+04 -1.791204E+04  5.805175E+03
       376  24  5.678706E+03 -2.986194E+05  6.561409E+03  7.666665E+04 -6.325365E+03  6.576842E+03
       376  25 -7.877700E+04 -6.165463E+05 -7.500138E+04  7.727624E+04 -1.375064E+04  1.367597E+04
       376  26 -1.114879E+05 -7.504195E+05 -1.030892E+05  4.095878E+04 -1.791470E+04  3.128939E+03
       376  27 -1.403425E+05 -8.846663E+05 -1.370841E+05  7.426610E+04 -6.332614E+03 -7.424102E+03
       377   1  5.504430E+05  4.460081E+05  1.651357E+05  3.560491E+05  7.449641E+04  5.355147E+04
       377   2  5.216335E+05  3.312145E+05  8.957191E+04  3.882641E+05  5.000343E+04  3.045397E+04
       377   3  5.483052E+05  3.067903E+05  6.406912E+04  3.836204E+05  2.322091E+04  1.041267E+04
       377   4  4.805885E+05  3.262100E+05  1.280528E+05  2.892907E+05  7.120133E+04  5.107453E+04
       377   5  4.333544E+05  2.461140E+05  5.744838E+04  3.340724E+05  4.891161E+04  2.963405E+04
       377   6  4.411324E+05  2.559168E+05  3.499951E+04  3.419924E+05  2.433351E+04  1.124722E+04
       377   7  4.107413E+05  2.064333E+05  9.096900E+04  2.225443E+05  6.790668E+04  4.859863E+04
       377   8  3.450839E+05  1.610226E+05  2.532367E+04  2.798906E+05  4.782000E+04  2.881436E+04
       377   9  3.339733E+05  2.050461E+05  5.929216E+03  3.003714E+05  2.544583E+04  1.208165E+04
       377  10  5.504363E+05  4.460036E+05  1.651199E+05  3.560459E+05  3.096788E-10  2.170540E-10
       377  11  5.216305E+05  3.312129E+05  8.956547E+04  3.882629E+05  7.032254E-10 -1.828931E-10
       377  12  5.483046E+05  3.067900E+05  6.406790E+04  3.836202E+05  5.810309E-10 -1.176195E-10
       377  13  4.805824E+05  3.262058E+05  1.280384E+05  2.892878E+05 -2.732638E-10  4.601435E-11
       377  14  4.333516E+05  2.461124E+05  5.744224E+04  3.340712E+05 -1.165153E-10 -5.110446E-10
       377  15  4.411318E+05  2.559165E+05  3.499816E+04  3.419922E+05 -5.228664E-10 -4.973739E-10
       377  16  4.107357E+05  2.064295E+05  9.095591E+04  2.225416E+05 -4.247482E-10 -4.704716E-11
       377  17  3.450812E+05  1.610211E+05  2.531782E+04  2.798895E+05 -9.489845E-10 -9.299354E-11
       377  18  3.339725E+05  2.050458E+05  5.927727E+03  3.003712E+05  2.001526E-11 -5.688982E-10
       377  19  5.504430E+05  4.460081E+05  1.651357E+05  3.560491E+05 -7.449641E+04 -5.355147E+04
       377  20  5.216335E+05  3.312145E+05  8.957191E+04  3.882641E+05 -5.000343E+04 -3.045397E+04
       377  21  5.483052E+05  3.067903E+05  6.406912E+04  3.836204E+05 -2.322091E+04 -1.041267E+04
       377  22  4.805885E+05  3.262100E+05  1.280528E+05  2.892907E+05 -7.120133E+04 -5.107453E+04
       377  23  4.333544E+05  2.461140E+05  5.744838E+04  3.340724E+05 -4.891161E+04 -2.963405E+04
       377  24  4.411324E+05  2.559168E+05  3.499951E+04  3.419924E+05 -2.433351E+04 -1.124722E+04
       377  25  4.107413E+05  2.064333E+05  9.096900E+04  2.225443E+05 -6.790668E+04 -4.859863E+04
       377  26  3.450839E+05  1.610226E+05  2.532367E+04  2.798906E+05 -4.782000E+04 -2.881436E+04
       377  27  3.339733E+05  2.050461E+05  5.929216E+03  3.003714E+05 -2.544583E+04 -1.208165E+04
       378   1  5.230885E+05  3.242674E+05  5.490386E+04  3.747901E+05  1.951893E+04  8.642327E+03
       378   2  5.150427E+05  3.069541E+05  3.937673E+04  3.721754E+05  1.279444E+04  4.087780E+03
       378   3  5.060433E+05  3.025483E+05  3.130632E+04  3.687345E+05  5.958672E+03 -3.182087E+02
       378   4  4.418530E+05  2.622451E+05  2.842821E+04  3.324277E+05  1.968760E+04  8.768562E+03
       378   5  4.408708E+05  2.531833E+05  1.578700E+04  3.348062E+05  1.307116E+04  4.295125E+03
       378   6  4.389121E+05  2.570065E+05  1.050984E+04  3.363585E+05  6.343306E+03 -2.989451E+01
       378   7  3.606246E+05  2.002270E+05  1.951686E+03  2.900717E+05  1.985624E+04  8.894772E+03
       378   8  3.667045E+05  1.994153E+05 -7.803529E+03  2.974419E+05  1.334783E+04  4.502435E+03
       378   9  3.717853E+05  2.114666E+05 -1.028736E+04  3.039860E+05  6.727886E+03  2.583818E+02
       378  10  5.230880E+05  3.242673E+05  5.490300E+04  3.747900E+05  4.646076E-11 -2.186799E-10
       378  11  5.150425E+05  3.069541E+05  3.937639E+04  3.721754E+05  5.828351E-11  1.731208E-10
       378  12  5.060432E+05  3.025483E+05  3.130626E+04  3.687345E+05  5.706379E-11  3.934081E-11
       378  13  4.418526E+05  2.622449E+05  2.842734E+04  3.324275E+05 -4.050874E-10 -1.424593E-12
       378  14  4.408706E+05  2.531832E+05  1.578664E+04  3.348061E+05 -3.317970E-10 -4.285087E-10
       378  15  4.389121E+05  2.570065E+05  1.050976E+04  3.363585E+05  1.518063E-10  1.992588E-10
       378  16  3.606242E+05  2.002268E+05  1.950797E+03  2.900715E+05  2.823248E-10 -8.693001E-11
       378  17  3.667043E+05  1.994153E+05 -7.803902E+03  2.974419E+05  6.489866E-10 -5.992712E-11
       378  18  3.717852E+05  2.114665E+05 -1.028745E+04  3.039860E+05  3.594925E-10 -9.350988E-11
       378  19  5.230885E+05  3.242674E+05  5.490386E+04  3.747901E+05 -1.951893E+04 -8.642327E+03
       378  20  5.150427E+05  3.069541E+05  3.937673E+04  3.721754E+05 -1.279444E+04 -4.087780E+03
       378  21  5.060433E+05  3.025483E+05  3.130632E+04  3.687345E+05 -5.958672E+03  3.182087E+02
       378  22  4.418530E+05  2.622451E+05  2.842821E+04  3.324277E+05 -1.968760E+04 -8.768562E+03
       378  23  4.408708E+05  2.531833E+05  1.578700E+04  3.348062E+05 -1.307116E+04 -4.295125E+03
       378  24  4.389121E+05  2.570065E+05  1.050984E+04  3.363585E+05 -6.343306E+03  2.989451E+01
       378  25  3.606246E+05  2.002270E+05  1.951686E+03  2.900717E+05 -1.985624E+04 -8.894772E+03
       378  26  3.667045E+05  1.994153E+05 -7.803529E+03  2.974419E+05 -1.334783E+04 -4.502435E+03
       378  27  3.717853E+05  2.114666E+05 -1.028736E+04  3.039860E+05 -6.727886E+03 -2.583818E+02
       379   1  4.961143E+05  2.983325E+05  2.722900E+04  3.642471E+05  4.389823E+03 -1.029212E+03
       379   2  4.899954E+05  2.882303E+05  2.344597E+04  3.590111E+05  7.906425E+02 -2.992492E+03
       379   3  4.788777E+05  2.854835E+05  2.266793E+04  3.552840E+05 -2.812114E+03 -4.950867E+03
       379   4  4.389248E+05  2.573916E+05  9.171500E+03  3.356673E+05  4.726988E+03 -7.764756E+02
       379   5  4.414475E+05  2.537545E+05  8.142992E+03  3.348829E+05  1.131624E+03 -2.736871E+03
       379   6  4.389702E+05  2.574719E+05  1.011634E+04  3.356073E+05 -2.467391E+03 -4.692418E+03
       379   7  3.817393E+05  2.164528E+05 -8.886251E+03  3.070906E+05  5.064109E+03 -5.237734E+02
       379   8  3.929022E+05  2.192801E+05 -7.160215E+03  3.107569E+05  1.472567E+03 -2.481279E+03
       379   9  3.990644E+05  2.294612E+05 -2.435449E+03  3.159321E+05 -2.122698E+03 -4.433991E+03
       379  10  4.961143E+05  2.983325E+05  2.722896E+04  3.642471E+05 -1.512986E-09 -3.460482E-10
       379  11  4.899954E+05  2.882303E+05  2.344596E+04  3.590111E+05 -1.127704E-09  3.659099E-10
       379  12  4.788777E+05  2.854834E+05  2.266787E+04  3.552840E+05 -1.800992E-10 -2.978764E-10
       379  13  4.389248E+05  2.573916E+05  9.171457E+03  3.356673E+05 -2.359107E-10 -1.667326E-10
       379  14  4.414475E+05  2.537545E+05  8.142976E+03  3.348829E+05 -1.994368E-10  9.925733E-10
       379  15  4.389702E+05  2.574719E+05  1.011628E+04  3.356073E+05 -2.210461E-10  6.274744E-12
       379  16  3.817393E+05  2.164528E+05 -8.886300E+03  3.070906E+05  6.115159E-10  5.651482E-10
       379  17  3.929022E+05  2.192801E+05 -7.160231E+03  3.107569E+05  2.690921E-10  4.724742E-10
       379  18  3.990644E+05  2.294612E+05 -2.435494E+03  3.159321E+05  3.571524E-10  6.668793E-10
       379  19  4.961143E+05  2.983325E+05  2.722900E+04  3.642471E+05 -4.389823E+03  1.029212E+03
       379  20  4.899954E+05  2.882303E+05  2.344597E+04  3.590111E+05 -7.906425E+02  2.992492E+03
       379  21  4.788777E+05  2.854835E+05  2.266793E+04  3.552840E+05  2.812114E+03  4.950867E+03
       379  22  4.389248E+05  2.573916E+05  9.171500E+03  3.356673E+05 -4.726988E+03  7.764756E+02
       379  23  4.414475E+05  2.537545E+05  8.142992E+03  3.348829E+05 -1.131624E+03  2.736871E+03
       379  24  4.389702E+05  2.574719E+05  1.011634E+04  3.356073E+05  2.467391E+03  4.692418E+03
       379  25  3.817393E+05  2.164528E+05 -8.886251E+03  3.070906E+05 -5.064109E+03  5.237734E+02
       379  26  3.929022E+05  2.192801E+05 -7.160215E+03  3.107569E+05 -1.472567E+03  2.481279E+03
       379  27  3.990644E+05  2.294612E+05 -2.435449E+03  3.159321E+05  2.122698E+03  4.433991E+03
       380   1  4.687716E+05  2.806852E+05  2.179935E+04  3.524572E+05 -4.587585E+03 -5.843524E+03
       380   2  4.639872E+05  2.682595E+05  2.578558E+04  3.457498E+05 -1.248553E+04 -1.102819E+04
       380   3  4.593880E+05  2.699908E+05  3.852907E+04  3.376217E+05 -2.036693E+04 -1.623492E+04
       380   4  4.389914E+05  2.569706E+05  1.197277E+04  3.364669E+05 -4.239321E+03 -5.582382E+03
       380   5  4.406818E+05  2.530670E+05  1.869082E+04  3.347933E+05 -1.215289E+04 -1.077880E+04
       380   6  4.425610E+05  2.633238E+05  3.417994E+04  3.316988E+05 -2.004997E+04 -1.599741E+04
       380   7  4.092120E+05  2.332565E+05  2.145984E+03  3.204773E+05 -3.891077E+03 -5.321258E+03
       380   8  4.173770E+05  2.378747E+05  1.159601E+04  3.238372E+05 -1.182027E+04 -1.052943E+04
       380   9  4.257343E+05  2.566569E+05  2.983083E+04  3.257762E+05 -1.973302E+04 -1.575992E+04
       380  10  4.687715E+05  2.806851E+05  2.179925E+04  3.524572E+05 -6.278783E-09 -5.612186E-09
       380  11  4.639870E+05  2.682593E+05  2.578506E+04  3.457497E+05 -3.891792E-09 -3.568973E-09
       380  12  4.593875E+05  2.699904E+05  3.852779E+04  3.376214E+05  2.898391E-09  2.481824E-09
       380  13  4.389914E+05  2.569706E+05  1.197268E+04  3.364668E+05 -1.351355E-09 -1.236139E-09
       380  14  4.406816E+05  2.530668E+05  1.869033E+04  3.347932E+05 -3.014690E-09 -3.620504E-09
       380  15  4.425605E+05  2.633234E+05  3.417870E+04  3.316986E+05 -1.394456E-09 -1.590357E-09
       380  16  4.092120E+05  2.332565E+05  2.145903E+03  3.204773E+05  3.563086E-09  2.467586E-09
       380  17  4.173768E+05  2.378745E+05  1.159554E+04  3.238371E+05 -2.964709E-09 -3.725191E-09
       380  18  4.257339E+05  2.566565E+05  2.982963E+04  3.257759E+05 -5.562826E-09 -5.085947E-09
       380  19  4.687716E+05  2.806852E+05  2.179935E+04  3.524572E+05  4.587585E+03  5.843524E+03
       380  20  4.639872E+05  2.682595E+05  2.578558E+04  3.457498E+05  1.248553E+04  1.102819E+04
       380  21  4.593880E+05  2.699908E+05  3.852907E+04  3.376217E+05  2.036693E+04  1.623492E+04
       380  22  4.389914E+05  2.569706E+05  1.197277E+04  3.364669E+05  4.239321E+03  5.582382E+03
       380  23  4.406818E+05  2.530670E+05  1.869082E+04  3.347933E+05  1.215289E+04  1.077880E+04
       380  24  4.425610E+05  2.633238E+05  3.417994E+04  3.316988E+05  2.004997E+04  1.599741E+04
       380  25  4.092120E+05  2.332565E+05  2.145984E+03  3.204773E+05  3.891077E+03  5.321258E+03
       380  26  4.173770E+05  2.378747E+05  1.159601E+04  3.238372E+05  1.182027E+04  1.052943E+04
       380  27  4.257343E+05  2.566569E+05  2.983083E+04  3.257762E+05  1.973302E+04  1.575992E+04
       381   1  4.291979E+05  2.772864E+05  4.385955E+04  3.511412E+05 -2.575651E+04 -1.976643E+04
       381   2  4.440812E+05  2.261860E+05  6.837144E+04  3.275736E+05 -5.544641E+04 -4.138914E+04
       381   3  5.269081E+05  2.824102E+05  1.508781E+05  2.589552E+05 -8.481119E+04 -6.344424E+04
       381   4  4.416846E+05  2.556718E+05  4.219792E+04  3.432828E+05 -2.530637E+04 -1.942767E+04
       381   5  4.315838E+05  2.445045E+05  6.946838E+04  3.339028E+05 -5.530900E+04 -4.128841E+04
       381   6  4.894895E+05  3.407265E+05  1.550048E+05  2.794726E+05 -8.498471E+04 -6.358537E+04
       381   7  4.541722E+05  2.340585E+05  4.053648E+04  3.354244E+05 -2.485620E+04 -1.908895E+04
       381   8  4.190870E+05  2.628241E+05  7.056547E+04  3.402319E+05 -5.517160E+04 -4.118767E+04
       381   9  4.520767E+05  3.990531E+05  1.591330E+05  2.999886E+05 -8.515822E+04 -6.372654E+04
       381  10  4.291970E+05  2.772858E+05  4.385757E+04  3.511407E+05  5.026874E-10  1.084816E-09
       381  11  4.440774E+05  2.261833E+05  6.836245E+04  3.275718E+05  5.097641E-10  5.597603E-10
       381  12  5.268993E+05  2.824040E+05  1.508570E+05  2.589509E+05  3.032458E-10  1.899142E-10
       381  13  4.416838E+05  2.556712E+05  4.219601E+04  3.432825E+05 -1.009401E-11  3.070499E-10
       381  14  4.315800E+05  2.445019E+05  6.945943E+04  3.339010E+05  3.051353E-10  4.734299E-11
       381  15  4.894806E+05  3.407202E+05  1.549837E+05  2.794682E+05  1.634844E-10  1.281666E-10
       381  16  4.541714E+05  2.340580E+05  4.053464E+04  3.354240E+05 -3.583263E-10 -5.455900E-10
       381  17  4.190832E+05  2.628215E+05  7.055657E+04  3.402301E+05 -7.143052E-10 -1.211044E-10
       381  18  4.520678E+05  3.990468E+05  1.591118E+05  2.999842E+05 -5.197901E-10 -8.305141E-11
       381  19  4.291979E+05  2.772864E+05  4.385955E+04  3.511412E+05  2.575651E+04  1.976643E+04
       381  20  4.440812E+05  2.261860E+05  6.837144E+04  3.275736E+05  5.544641E+04  4.138914E+04
       381  21  5.269081E+05  2.824102E+05  1.508781E+05  2.589552E+05  8.481119E+04  6.344424E+04
       381  22  4.416846E+05  2.556718E+05  4.219792E+04  3.432828E+05  2.530637E+04  1.942767E+04
       381  23  4.315838E+05  2.445045E+05  6.946838E+04  3.339028E+05  5.530900E+04  4.128841E+04
       381  24  4.894895E+05  3.407265E+05  1.550048E+05  2.794726E+05  8.498471E+04  6.358537E+04
       381  25  4.541722E+05  2.340585E+05  4.053648E+04  3.354244E+05  2.485620E+04  1.908895E+04
       381  26  4.190870E+05  2.628241E+05  7.056547E+04  3.402319E+05  5.517160E+04  4.118767E+04
       381  27  4.520767E+05  3.990531E+05  1.591330E+05  2.999886E+05  8.515822E+04  6.372654E+04
       382   1  8.628791E+05  1.514466E+05  1.516118E+05  6.229768E+04  2.343403E+04 -6.332285E+03
       382   2  7.590683E+05  1.131308E+05  1.129007E+05  3.313770E+04  9.568526E+03 -1.849071E+04
       382   3  6.606282E+05  8.855408E+04  8.666559E+04  5.631896E+04 -4.293067E+03 -1.580256E+04
       382   4  2.978680E+05  1.088450E+04  1.342105E+04  5.788017E+04  9.314411E+03 -6.330630E+03
       382   5  2.961261E+05 -8.008182E+02  5.903594E+03  3.170815E+04  6.153455E+03 -1.849175E+04
       382   6  2.978943E+05 -5.971775E+02  3.439328E+03  5.787926E+04  2.994229E+03 -1.580151E+04
       382   7 -2.668520E+05 -1.297011E+05 -1.247923E+05  5.346668E+04 -4.792407E+03 -6.328775E+03
       382   8 -1.666181E+05 -1.147474E+05 -1.011078E+05  3.027968E+04  2.740908E+03 -1.849277E+04
       382   9 -6.471775E+04 -8.975757E+04 -7.979541E+04  5.943863E+04  1.027731E+04 -1.580042E+04
       382  10  8.628785E+05  1.514464E+05  1.516107E+05  6.229780E+04 -7.064288E-10  2.414008E-12
       382  11  7.590682E+05  1.131304E+05  1.128999E+05  3.313784E+04 -2.373275E-10  1.769791E-10
       382  12  6.606281E+05  8.855381E+04  8.666509E+04  5.631890E+04  3.484009E-10  9.925811E-11
       382  13  2.978679E+05  1.088443E+04  1.342081E+04  5.788022E+04  1.215059E-10  2.052080E-10
       382  14  2.961260E+05 -8.011956E+02  5.902880E+03  3.170825E+04  3.857031E-10  2.973637E-11
       382  15  2.978942E+05 -5.974481E+02  3.438842E+03  5.787930E+04  4.306420E-10 -6.247092E-11
       382  16 -2.668521E+05 -1.297011E+05 -1.247924E+05  5.346665E+04  6.105200E-10  4.293537E-11
       382  17 -1.666182E+05 -1.147478E+05 -1.011085E+05  3.027972E+04 -2.027859E-10  2.082737E-11
       382  18 -6.471793E+04 -8.975786E+04 -7.979607E+04  5.943876E+04 -2.988649E-10 -2.709299E-10
       382  19  8.628791E+05  1.514466E+05  1.516118E+05  6.229768E+04 -2.343403E+04  6.332285E+03
       382  20  7.590683E+05  1.131308E+05  1.129007E+05  3.313770E+04 -9.568526E+03  1.849071E+04
       382  21  6.606282E+05  8.855408E+04  8.666559E+04  5.631896E+04  4.293067E+03  1.580256E+04
       382  22  2.978680E+05  1.088450E+04  1.342105E+04  5.788017E+04 -9.314411E+03  6.330630E+03
       382  23  2.961261E+05 -8.008182E+02  5.903594E+03  3.170815E+04 -6.153455E+03  1.849175E+04
       382  24  2.978943E+05 -5.971775E+02  3.439328E+03  5.787926E+04 -2.994229E+03  1.580151E+04
       382  25 -2.668520E+05 -1.297011E+05 -1.247923E+05  5.346668E+04  4.792407E+03  6.328775E+03
       382  26 -1.666181E+05 -1.147474E+05 -1.011078E+05  3.027968E+04 -2.740908E+03  1.849277E+04
       382  27 -6.471775E+04 -8.975757E+04 -7.979541E+04  5.943863E+04 -1.027731E+04  1.580042E+04
       383   1  5.631320E+05  6.624055E+04  6.387657E+04  5.828041E+04 -2.180041E+02 -1.116254E+04
       383   2  4.622110E+05  4.056726E+04  3.903505E+04  3.169848E+04 -1.266283E+03 -7.045428E+03
       383   3  3.616471E+05  1.582508E+04  1.510216E+04  5.786000E+04 -2.315783E+03 -2.229561E+03
       383   4  2.971867E+05  8.332390E+02  2.655422E+03  5.796841E+04  2.496144E+03 -1.116202E+04
       383   5  2.970610E+05 -4.204542E+01  1.067687E+03  3.159641E+04  1.951359E+03 -7.044400E+03
       383   6  2.971958E+05 -7.272233E+01  3.993857E+01  5.796872E+04  1.405185E+03 -2.227900E+03
       383   7  3.130691E+04 -6.457901E+04 -5.857038E+04  5.765653E+04  5.209140E+03 -1.116151E+04
       383   8  1.319363E+05 -4.065325E+04 -3.690144E+04  3.149437E+04  5.168153E+03 -7.043372E+03
       383   9  2.327484E+05 -1.597081E+04 -1.502252E+04  5.807743E+04  5.125770E+03 -2.226236E+03
       383  10  5.631319E+05  6.624042E+04  6.387634E+04  5.828041E+04  4.333608E-10  1.043956E-10
       383  11  4.622110E+05  4.056721E+04  3.903495E+04  3.169847E+04  5.489671E-10 -1.256603E-10
       383  12  3.616471E+05  1.582508E+04  1.510214E+04  5.786000E+04  4.910360E-10  4.941045E-11
       383  13  2.971867E+05  8.331036E+02  2.655176E+03  5.796843E+04  3.299692E-10 -2.932977E-10
       383  14  2.970610E+05 -4.209973E+01  1.067586E+03  3.159642E+04  7.180764E-10  2.446494E-10
       383  15  2.971958E+05 -7.272820E+01  3.992553E+01  5.796872E+04  5.920980E-10  2.749230E-10
       383  16  3.130685E+04 -6.457915E+04 -5.857067E+04  5.765657E+04 -1.957235E-10 -4.102091E-10
       383  17  1.319362E+05 -4.065331E+04 -3.690158E+04  3.149440E+04 -2.161355E-10 -3.088067E-10
       383  18  2.327484E+05 -1.597083E+04 -1.502257E+04  5.807744E+04  1.110874E-10  2.302348E-10
       383  19  5.631320E+05  6.624055E+04  6.387657E+04  5.828041E+04  2.180041E+02  1.116254E+04
       383  20  4.622110E+05  4.056726E+04  3.903505E+04  3.169848E+04  1.266283E+03  7.045428E+03
       383  21  3.616471E+05  1.582508E+04  1.510216E+04  5.786000E+04  2.315783E+03  2.229561E+03
       383  22  2.971867E+05  8.332390E+02  2.655422E+03  5.796841E+04 -2.496144E+03  1.116202E+04
       383  23  2.970610E+05 -4.204542E+01  1.067687E+03  3.159641E+04 -1.951359E+03  7.044400E+03
       383  24  2.971958E+05 -7.272233E+01  3.993857E+01  5.796872E+04 -1.405185E+03  2.227900E+03
       383  25  3.130691E+04 -6.457901E+04 -5.857038E+04  5.765653E+04 -5.209140E+03  1.116151E+04
       383  26  1.319363E+05 -4.065325E+04 -3.690144E+04  3.149437E+04 -5.168153E+03  7.043372E+03
       383  27  2.327484E+05 -1.597081E+04 -1.502252E+04  5.807743E+04 -5.125770E+03  2.226236E+03
       384   1  2.650632E+05 -7.754779E+03 -8.028770E+03  5.778430E+04 -2.271819E+03  8.295118E+02
       384   2  1.645834E+05 -3.253056E+04 -3.204749E+04  3.164495E+04 -1.017388E+03  5.650232E+03
       384   3  6.364212E+04 -5.842551E+04 -5.717088E+04  5.824714E+04  2.379772E+02  9.812752E+03
       384   4  2.970520E+05  1.622618E+02 -4.233477E+02  5.796775E+04  1.436796E+03  8.311955E+02
       384   5  2.972436E+05  9.633576E+01 -1.539485E+03  3.159752E+04  2.217150E+03  5.651371E+03
       384   6  2.970453E+05 -1.005992E+03 -3.430825E+03  5.796817E+04  2.998645E+03  9.813444E+03
       384   7  3.290417E+05  8.079237E+03  7.182054E+03  5.815121E+04  5.145601E+03  8.328814E+02
       384   8  4.299201E+05  3.272201E+04  2.896739E+04  3.155007E+04  5.452373E+03  5.652508E+03
       384   9  5.304988E+05  5.640972E+04  5.030565E+04  5.768908E+04  5.760341E+03  9.814132E+03
       384  10  2.650632E+05 -7.754782E+03 -8.028781E+03  5.778430E+04 -1.938733E-10 -3.101363E-10
       384  11  1.645834E+05 -3.253060E+04 -3.204755E+04  3.164496E+04 -9.633151E-11  3.118186E-10
       384  12  6.364209E+04 -5.842561E+04 -5.717106E+04  5.824714E+04  4.855406E-11  6.746361E-11
       384  13  2.970520E+05  1.622605E+02 -4.233529E+02  5.796775E+04  7.131761E-10 -1.028335E-10
       384  14  2.972436E+05  9.630014E+01 -1.539555E+03  3.159751E+04  4.128366E-10 -4.084831E-10
       384  15  2.970452E+05 -1.006098E+03 -3.431023E+03  5.796814E+04  2.606786E-10 -2.929413E-11
       384  16  3.290417E+05  8.079229E+03  7.182003E+03  5.815120E+04  2.961257E-10  2.847242E-11
       384  17  4.299200E+05  3.272197E+04  2.896727E+04  3.155004E+04  5.598135E-11 -7.849346E-11
       384  18  5.304987E+05  5.640961E+04  5.030540E+04  5.768903E+04 -2.833374E-10  1.046395E-10
       384  19  2.650632E+05 -7.754779E+03 -8.028770E+03  5.778430E+04  2.271819E+03 -8.295118E+02
       384  20  1.645834E+05 -3.253056E+04 -3.204749E+04  3.164495E+04  1.017388E+03 -5.650232E+03
       384  21  6.364212E+04 -5.842551E+04 -5.717088E+04  5.824714E+04 -2.379772E+02 -9.812752E+03
       384  22  2.970520E+05  1.622618E+02 -4.233477E+02  5.796775E+04 -1.436796E+03 -8.311955E+02
       384  23  2.972436E+05  9.633576E+01 -1.539485E+03  3.159752E+04 -2.217150E+03 -5.651371E+03
       384  24  2.970453E+05 -1.005992E+03 -3.430825E+03  5.796817E+04 -2.998645E+03 -9.813444E+03
       384  25  3.290417E+05  8.079237E+03  7.182054E+03  5.815121E+04 -5.145601E+03 -8.328814E+02
       384  26  4.299201E+05  3.272201E+04  2.896739E+04  3.155007E+04 -5.452373E+03 -5.652508E+03
       384  27  5.304988E+05  5.640972E+04  5.030565E+04  5.768908E+04 -5.760341E+03 -9.814132E+03
       385   1 -3.389659E+04 -8.040441E+04 -8.014971E+04  5.580212E+04 -3.456416E+03  1.435873E+04
       385   2 -1.320024E+05 -1.050411E+05 -1.069479E+05  3.348050E+04  1.064780E+04  1.717070E+04
       385   3 -2.359551E+05 -1.461604E+05 -1.470307E+05  6.350125E+04  2.474910E+04  5.914361E+03
       385   4  2.962086E+05  7.661399E+02 -4.364957E+03  5.787901E+04  3.631054E+03  1.436013E+04
       385   5  2.982448E+05  9.029012E+02 -7.442013E+03  3.170848E+04  7.610857E+03  1.716963E+04
       385   6  2.961879E+05 -1.367807E+04 -1.676854E+04  5.787872E+04  1.158998E+04  5.914979E+03
       385   7  6.264148E+05  8.192913E+04  7.141280E+04  5.995700E+04  1.072226E+04  1.436157E+04
       385   8  7.286630E+05  1.068339E+05  9.205152E+04  2.993521E+04  4.571823E+03  1.716858E+04
       385   9  8.285894E+05  1.187835E+05  1.134736E+05  5.225136E+04 -1.580406E+03  5.915835E+03
       385  10 -3.389665E+04 -8.040463E+04 -8.015012E+04  5.580216E+04  1.344169E-10  9.301306E-11
       385  11 -1.320026E+05 -1.050414E+05 -1.069486E+05  3.348036E+04  1.862545E-10  6.746340E-11
       385  12 -2.359557E+05 -1.461606E+05 -1.470319E+05  6.350113E+04  2.162193E-10  6.939678E-11
       385  13  2.962085E+05  7.659149E+02 -4.365369E+03  5.787897E+04  4.504842E-10  3.225286E-10
       385  14  2.982446E+05  9.025690E+02 -7.442675E+03  3.170838E+04  5.699542E-10 -8.292456E-11
       385  15  2.961878E+05 -1.367814E+04 -1.676885E+04  5.787867E+04  3.138528E-10 -3.712747E-11
       385  16  6.264146E+05  8.192888E+04  7.141220E+04  5.995688E+04  7.799863E-13  2.864364E-10
       385  17  7.286629E+05  1.068336E+05  9.205093E+04  2.993515E+04  5.863654E-11 -2.474225E-10
       385  18  8.285894E+05  1.187835E+05  1.134735E+05  5.225137E+04 -2.734890E-10 -1.043013E-10
       385  19 -3.389659E+04 -8.040441E+04 -8.014971E+04  5.580212E+04  3.456416E+03 -1.435873E+04
       385  20 -1.320024E+05 -1.050411E+05 -1.069479E+05  3.348050E+04 -1.064780E+04 -1.717070E+04
       385  21 -2.359551E+05 -1.461604E+05 -1.470307E+05  6.350125E+04 -2.474910E+04 -5.914361E+03
       385  22  2.962086E+05  7.661399E+02 -4.364957E+03  5.787901E+04 -3.631054E+03 -1.436013E+04
       385  23  2.982448E+05  9.029012E+02 -7.442013E+03  3.170848E+04 -7.610857E+03 -1.716963E+04
       385  24  2.961879E+05 -1.367807E+04 -1.676854E+04  5.787872E+04 -1.158998E+04 -5.914979E+03
       385  25  6.264148E+05  8.192913E+04  7.141280E+04  5.995700E+04 -1.072226E+04 -1.436157E+04
       385  26  7.286630E+05  1.068339E+05  9.205152E+04  2.993521E+04 -4.571823E+03 -1.716858E+04
       385  27  8.285894E+05  1.187835E+05  1.134736E+05  5.225136E+04  1.580406E+03 -5.915835E+03
       386   1 -2.146521E+05 -8.454762E+05 -2.390765E+05  1.147901E+05 -4.320414E+03 -1.014374E+05
       386   2 -6.449687E+04 -7.064103E+05 -1.308278E+05  5.222294E+04 -1.157093E+04 -5.967723E+04
       386   3 -3.673956E+04 -6.034179E+05 -8.040065E+04  5.262386E+04 -7.379060E+03 -1.791409E+04
       386   4 -1.112862E+05 -4.305098E+05 -1.372636E+05  6.920614E+04 -4.308238E+03 -9.212345E+04
       386   5  7.757140E+03 -4.131703E+05 -6.287975E+04  3.768980E+04 -1.156850E+04 -5.857494E+04
       386   6  5.861032E+03 -4.304690E+05 -4.058470E+04  6.914727E+04 -7.384600E+03 -2.503202E+04
       386   7 -7.925130E+03 -1.538170E+04 -3.546203E+04  2.359159E+04 -4.297438E+03 -8.280330E+04
       386   8  8.000589E+04 -1.198503E+05  5.062637E+03  2.314972E+04 -1.156612E+04 -5.747212E+04
       386   9  4.846058E+04 -2.574917E+05 -7.703968E+02  8.567532E+04 -7.390517E+03 -3.215191E+04
       386  10 -2.146549E+05 -8.454872E+05 -2.390958E+05  1.147897E+05 -1.217280E-10  1.202757E-10
       386  11 -6.449797E+04 -7.064141E+05 -1.308347E+05  5.222238E+04 -1.891552E-10  1.451173E-10
       386  12 -3.673971E+04 -6.034182E+05 -8.040136E+04  5.262376E+04 -2.760020E-10  6.253259E-10
       386  13 -1.112885E+05 -4.305189E+05 -1.372796E+05  6.920582E+04 -5.584899E-10 -6.608717E-11
       386  14  7.756074E+03 -4.131740E+05 -6.288646E+04  3.768925E+04  2.262756E-10 -2.709637E-10
       386  15  5.860805E+03 -4.304697E+05 -4.058598E+04  6.914712E+04 -2.493906E-10  3.524470E-10
       386  16 -7.926991E+03 -1.538906E+04 -3.547495E+04  2.359130E+04  4.461086E-12 -1.760850E-10
       386  17  8.000486E+04 -1.198538E+05  5.056177E+03  2.314919E+04  4.337373E-10 -2.937567E-10
       386  18  4.846024E+04 -2.574928E+05 -7.724427E+02  8.567513E+04  1.748254E-10 -4.964529E-10
       386  19 -2.146521E+05 -8.454762E+05 -2.390765E+05  1.147901E+05  4.320414E+03  1.014374E+05
       386  20 -6.449687E+04 -7.064103E+05 -1.308278E+05  5.222294E+04  1.157093E+04  5.967723E+04
       386  21 -3.673956E+04 -6.034179E+05 -8.040065E+04  5.262386E+04  7.379060E+03  1.791409E+04
       386  22 -1.112862E+05 -4.305098E+05 -1.372636E+05  6.920614E+04  4.308238E+03  9.212345E+04
       386  23  7.757140E+03 -4.131703E+05 -6.287975E+04  3.768980E+04  1.156850E+04  5.857494E+04
       386  24  5.861032E+03 -4.304690E+05 -4.058470E+04  6.914727E+04  7.384600E+03  2.503202E+04
       386  25 -7.925130E+03 -1.538170E+04 -3.546203E+04  2.359159E+04  4.297438E+03  8.280330E+04
       386  26  8.000589E+04 -1.198503E+05  5.062637E+03  2.314972E+04  1.156612E+04  5.747212E+04
       386  27  4.846058E+04 -2.574917E+05 -7.703968E+02  8.567532E+04  7.390517E+03  3.215191E+04
       387   1 -2.195028E+04 -4.808048E+05 -4.769229E+04  7.287421E+04 -2.471019E+03 -1.502851E+04
       387   2  1.692435E+04 -3.571390E+05 -9.590678E+03  3.789132E+04  2.748705E+03 -2.822316E+03
       387   3  4.134563E+04 -2.387584E+05  1.692316E+04  6.629415E+04  7.812482E+03  9.386889E+03
       387   4 -7.967021E+03 -4.239516E+05 -3.462541E+04  6.925881E+04 -2.473807E+03 -1.883434E+04
       387   5  1.136026E+03 -4.212940E+05 -2.434719E+04  3.756406E+04  2.746114E+03 -6.515894E+03
       387   6 -4.233225E+03 -4.239544E+05 -2.573327E+04  6.925608E+04  7.810161E+03  5.803247E+03
       387   7  6.016071E+03 -3.670953E+05 -2.155869E+04  6.564307E+04 -2.476551E+03 -2.264052E+04
       387   8 -1.465258E+04 -4.854452E+05 -3.910392E+04  3.723683E+04  2.743526E+03 -1.020909E+04
       387   9 -4.981444E+04 -6.091186E+05 -6.839194E+04  7.221711E+04  7.807805E+03  2.220666E+03
       387  10 -2.195035E+04 -4.808050E+05 -4.769272E+04  7.287418E+04  1.865417E-11 -4.562921E-11
       387  11  1.692434E+04 -3.571390E+05 -9.590707E+03  3.789133E+04 -5.259355E-10  1.033562E-10
       387  12  4.134554E+04 -2.387585E+05  1.692288E+04  6.629409E+04  4.519657E-12  2.972889E-10
       387  13 -7.967123E+03 -4.239520E+05 -3.462609E+04  6.925877E+04 -2.773093E-10  1.219688E-10
       387  14  1.136007E+03 -4.212941E+05 -2.434728E+04  3.756408E+04 -1.168187E-09 -2.792749E-10
       387  15 -4.233299E+03 -4.239545E+05 -2.573345E+04  6.925604E+04 -5.379666E-10  2.338230E-10
       387  16  6.015926E+03 -3.670959E+05 -2.155967E+04  6.564302E+04 -4.960844E-12 -8.208142E-11
       387  17 -1.465261E+04 -4.854453E+05 -3.910413E+04  3.723686E+04  1.099516E-10 -1.497981E-10
       387  18 -4.981451E+04 -6.091186E+05 -6.839206E+04  7.221709E+04  8.040943E-11 -4.845516E-10
       387  19 -2.195028E+04 -4.808048E+05 -4.769229E+04  7.287421E+04  2.471019E+03  1.502851E+04
       387  20  1.692435E+04 -3.571390E+05 -9.590678E+03  3.789132E+04 -2.748705E+03  2.822316E+03
       387  21  4.134563E+04 -2.387584E+05  1.692316E+04  6.629415E+04 -7.812482E+03 -9.386889E+03
       387  22 -7.967021E+03 -4.239516E+05 -3.462541E+04  6.925881E+04  2.473807E+03  1.883434E+04
       387  23  1.136026E+03 -4.212940E+05 -2.434719E+04  3.756406E+04 -2.746114E+03  6.515894E+03
       387  24 -4.233225E+03 -4.239544E+05 -2.573327E+04  6.925608E+04 -7.810161E+03 -5.803247E+03
       387  25  6.016071E+03 -3.670953E+05 -2.155869E+04  6.564307E+04  2.476551E+03  2.264052E+04
       387  26 -1.465258E+04 -4.854452E+05 -3.910392E+04  3.723683E+04 -2.743526E+03  1.020909E+04
       387  27 -4.981444E+04 -6.091186E+05 -6.839194E+04  7.221711E+04 -7.807805E+03 -2.220666E+03
       388   1  7.713316E+04 -1.259164E+05  4.157698E+04  7.871026E+04  1.306800E+04  1.815445E+04
       388   2  1.082637E+05  4.139905E+03  5.940748E+04  2.939556E+04  1.676165E+04  2.794331E+04
       388   3  7.139222E+04  1.159837E+05  5.387423E+04  4.284463E+04  5.901458E+03  3.773908E+04
       388   4  2.988776E+03 -4.272415E+05 -2.766042E+04  6.911156E+04  1.306306E+04  1.025559E+04
       388   5  4.477999E+03 -4.172318E+05 -3.810628E+04  3.773845E+04  1.676396E+04  3.051156E+04
       388   6 -6.387833E+04 -4.272811E+05 -7.919996E+04  6.913451E+04  5.907178E+03  5.077213E+04
       388   7 -7.116158E+04 -7.284823E+05 -9.690354E+04  5.951755E+04  1.305837E+04  2.360536E+03
       388   8 -9.931990E+04 -8.384391E+05 -1.356319E+05  4.607561E+04  1.676633E+04  3.307807E+04
       388   9 -1.991680E+05 -9.702752E+05 -2.122948E+05  9.540130E+04  5.914006E+03  6.379378E+04
       388  10  7.713289E+04 -1.259168E+05  4.157604E+04  7.871006E+04 -1.807959E-10 -2.427798E-10
       388  11  1.082632E+05  4.138991E+03  5.940549E+04  2.939518E+04 -5.118121E-11 -1.116099E-10
       388  12  7.139180E+04  1.159822E+05  5.387149E+04  4.284445E+04  5.342321E-11 -2.342182E-11
       388  13  2.988565E+03 -4.272417E+05 -2.766094E+04  6.911145E+04  4.130710E-10  5.615956E-11
       388  14  4.477447E+03 -4.172328E+05 -3.810856E+04  3.773804E+04 -1.044494E-11 -3.819555E-10
       388  15 -6.387906E+04 -4.272839E+05 -7.920487E+04  6.913427E+04  1.160870E-10  1.092537E-10
       388  16 -7.116176E+04 -7.284824E+05 -9.690387E+04  5.951752E+04  8.501766E-11  4.050475E-11
       388  17 -9.932049E+04 -8.384404E+05 -1.356344E+05  4.607516E+04 -2.772440E-10  2.081826E-10
       388  18 -1.991692E+05 -9.702796E+05 -2.123025E+05  9.540100E+04  6.646623E-11 -1.522661E-10
       388  19  7.713316E+04 -1.259164E+05  4.157698E+04  7.871026E+04 -1.306800E+04 -1.815445E+04
       388  20  1.082637E+05  4.139905E+03  5.940748E+04  2.939556E+04 -1.676165E+04 -2.794331E+04
       388  21  7.139222E+04  1.159837E+05  5.387423E+04  4.284463E+04 -5.901458E+03 -3.773908E+04
       388  22  2.988776E+03 -4.272415E+05 -2.766042E+04  6.911156E+04 -1.306306E+04 -1.025559E+04
       388  23  4.477999E+03 -4.172318E+05 -3.810628E+04  3.773845E+04 -1.676396E+04 -3.051156E+04
       388  24 -6.387833E+04 -4.272811E+05 -7.919996E+04  6.913451E+04 -5.907178E+03 -5.077213E+04
       388  25 -7.116158E+04 -7.284823E+05 -9.690354E+04  5.951755E+04 -1.305837E+04 -2.360536E+03
       388  26 -9.931990E+04 -8.384391E+05 -1.356319E+05  4.607561E+04 -1.676633E+04 -3.307807E+04
       388  27 -1.991680E+05 -9.702752E+05 -2.122948E+05  9.540130E+04 -5.914006E+03 -6.379378E+04
       389   1  6.237069E+05  4.783634E+05  1.550113E+05  4.185754E+05  7.901416E+04  5.833535E+04
       389   2  5.983113E+05  3.618720E+05  7.616313E+04  4.594823E+05  5.211444E+04  3.621624E+04
       389   3  6.399160E+05  3.383016E+05  5.102411E+04  4.579558E+05  2.437437E+04  1.521905E+04
       389   4  6.270272E+05  4.034492E+05  1.410282E+05  3.846967E+05  7.771046E+04  5.734891E+04
       389   5  5.718815E+05  3.183746E+05  6.321516E+04  4.349421E+05  5.161593E+04  3.584065E+04
       389   6  5.835635E+05  3.260454E+05  3.841281E+04  4.427533E+05  2.468294E+04  1.545131E+04
       389   7  6.303511E+05  3.285477E+05  1.270463E+05  3.508193E+05  7.640674E+04  5.636276E+04
       389   8  5.454529E+05  2.748802E+05  5.026716E+04  4.104038E+05  5.111746E+04  3.546511E+04
       389   9  5.272150E+05  3.137896E+05  2.580147E+04  4.275516E+05  2.499147E+04  1.568356E+04
       389  10  6.236993E+05  4.783580E+05  1.549932E+05  4.185717E+05  9.604670E-11 -2.865422E-11
       389  11  5.983080E+05  3.618699E+05  7.615558E+04  4.594808E+05  8.791790E-11  2.395387E-11
       389  12  6.399153E+05  3.383012E+05  5.102256E+04  4.579555E+05 -3.502139E-10  1.719850E-10
       389  13  6.270198E+05  4.034440E+05  1.410107E+05  3.846931E+05  4.451951E-11  1.513479E-10
       389  14  5.718783E+05  3.183725E+05  6.320775E+04  4.349406E+05  6.942530E-10 -2.039428E-10
       389  15  5.835628E+05  3.260450E+05  3.841122E+04  4.427530E+05 -2.488458E-10  4.088021E-10
       389  16  6.303440E+05  3.285427E+05  1.270294E+05  3.508159E+05  2.297217E-10 -4.176396E-11
       389  17  5.454497E+05  2.748782E+05  5.025990E+04  4.104023E+05 -2.839907E-10  1.173525E-10
       389  18  5.272142E+05  3.137892E+05  2.579983E+04  4.275513E+05  1.990452E-10  2.644498E-10
       389  19  6.237069E+05  4.783634E+05  1.550113E+05  4.185754E+05 -7.901416E+04 -5.833535E+04
       389  20  5.983113E+05  3.618720E+05  7.616313E+04  4.594823E+05 -5.211444E+04 -3.621624E+04
       389  21  6.399160E+05  3.383016E+05  5.102411E+04  4.579558E+05 -2.437437E+04 -1.521905E+04
       389  22  6.270272E+05  4.034492E+05  1.410282E+05  3.846967E+05 -7.771046E+04 -5.734891E+04
       389  23  5.718815E+05  3.183746E+05  6.321516E+04  4.349421E+05 -5.161593E+04 -3.584065E+04
       389  24  5.835635E+05  3.260454E+05  3.841281E+04  4.427533E+05 -2.468294E+04 -1.545131E+04
       389  25  6.303511E+05  3.285477E+05  1.270463E+05  3.508193E+05 -7.640674E+04 -5.636276E+04
       389  26  5.454529E+05  2.748802E+05  5.026716E+04  4.104038E+05 -5.111746E+04 -3.546511E+04
       389  27  5.272150E+05  3.137896E+05  2.580147E+04  4.275516E+05 -2.499147E+04 -1.568356E+04
       390   1  6.209385E+05  3.637631E+05  4.356800E+04  4.525958E+05  2.003996E+04  1.221432E+04
       390   2  6.180843E+05  3.543284E+05  2.923034E+04  4.551739E+05  1.312224E+04  6.991494E+03
       390   3  6.204252E+05  3.527754E+05  2.291989E+04  4.549972E+05  6.164230E+03  1.822428E+03
       390   4  5.843656E+05  3.330012E+05  3.112355E+04  4.322122E+05  2.000245E+04  1.218605E+04
       390   5  5.801499E+05  3.261751E+05  1.704854E+04  4.357581E+05  1.312389E+04  6.992694E+03
       390   6  5.811212E+05  3.272225E+05  1.096713E+04  4.365491E+05  6.205121E+03  1.853084E+03
       390   7  5.477938E+05  3.022402E+05  1.867881E+04  4.118300E+05  1.996495E+04  1.215778E+04
       390   8  5.422169E+05  2.980227E+05  4.866543E+03  4.163437E+05  1.312554E+04  6.993894E+03
       390   9  5.418191E+05  3.016704E+05 -9.857058E+02  4.181024E+05  6.246009E+03  1.883738E+03
       390  10  6.209380E+05  3.637628E+05  4.356697E+04  4.525956E+05 -3.906558E-10  3.773119E-10
       390  11  6.180841E+05  3.543283E+05  2.922993E+04  4.551738E+05  1.081660E-10  1.783148E-10
       390  12  6.204252E+05  3.527754E+05  2.291981E+04  4.549972E+05  9.872881E-10 -3.488798E-10
       390  13  5.843651E+05  3.330009E+05  3.112252E+04  4.322120E+05 -4.340125E-11  2.184613E-10
       390  14  5.801497E+05  3.261750E+05  1.704812E+04  4.357580E+05  5.546001E-10 -2.295765E-10
       390  15  5.811211E+05  3.272225E+05  1.096705E+04  4.365491E+05  3.870389E-10 -2.555565E-10
       390  16  5.477933E+05  3.022399E+05  1.867779E+04  4.118298E+05 -3.883687E-10 -2.429780E-10
       390  17  5.422168E+05  2.980226E+05  4.866128E+03  4.163436E+05  1.595754E-10 -2.246633E-10
       390  18  5.418190E+05  3.016704E+05 -9.857857E+02  4.181024E+05 -1.822259E-10 -1.782686E-10
       390  19  6.209385E+05  3.637631E+05  4.356800E+04  4.525958E+05 -2.003996E+04 -1.221432E+04
       390  20  6.180843E+05  3.543284E+05  2.923034E+04  4.551739E+05 -1.312224E+04 -6.991494E+03
       390  21  6.204252E+05  3.527754E+05  2.291989E+04  4.549972E+05 -6.164230E+03 -1.822428E+03
       390  22  5.843656E+05  3.330012E+05  3.112355E+04  4.322122E+05 -2.000245E+04 -1.218605E+04
       390  23  5.801499E+05  3.261751E+05  1.704854E+04  4.357581E+05 -1.312389E+04 -6.992694E+03
       390  24  5.811212E+05  3.272225E+05  1.096713E+04  4.365491E+05 -6.205121E+03 -1.853084E+03
       390  25  5.477938E+05  3.022402E+05  1.867881E+04  4.118300E+05 -1.996495E+04 -1.215778E+04
       390  26  5.422169E+05  2.980227E+05  4.866543E+03  4.163437E+05 -1.312554E+04 -6.993894E+03
       390  27  5.418191E+05  3.016704E+05 -9.857058E+02  4.181024E+05 -6.246009E+03 -1.883738E+03
       391   1  6.182216E+05  3.542894E+05  2.104363E+04  4.543371E+05  4.728664E+03  7.897543E+02
       391   2  6.174548E+05  3.528148E+05  1.911543E+04  4.540453E+05  1.685261E+03 -1.440564E+03
       391   3  6.172642E+05  3.529551E+05  1.998100E+04  4.536307E+05 -1.360522E+03 -3.667754E+03
       391   4  5.811227E+05  3.276581E+05  9.300369E+03  4.357645E+05  4.751015E+03  8.064930E+02
       391   5  5.808194E+05  3.268233E+05  7.574155E+03  4.358466E+05  1.710105E+03 -1.421953E+03
       391   6  5.810918E+05  3.276029E+05  8.639698E+03  4.358061E+05 -1.333199E+03 -3.647283E+03
       391   7  5.440252E+05  3.010276E+05 -2.443067E+03  4.171932E+05  4.773364E+03  8.232303E+02
       391   8  5.441853E+05  3.008324E+05 -3.967337E+03  4.176492E+05  1.734947E+03 -1.403343E+03
       391   9  5.449206E+05  3.022513E+05 -2.701859E+03  4.179825E+05 -1.305878E+03 -3.626815E+03
       391  10  6.182215E+05  3.542894E+05  2.104359E+04  4.543371E+05  6.094036E-10  6.152312E-11
       391  11  6.174548E+05  3.528148E+05  1.911542E+04  4.540453E+05 -2.482205E-09 -1.624927E-09
       391  12  6.172642E+05  3.529551E+05  1.998097E+04  4.536307E+05 -2.478502E-09 -1.499082E-09
       391  13  5.811226E+05  3.276581E+05  9.300325E+03  4.357645E+05 -1.471190E-09 -9.725829E-10
       391  14  5.808194E+05  3.268233E+05  7.574146E+03  4.358467E+05 -2.710348E-09 -1.960125E-09
       391  15  5.810918E+05  3.276029E+05  8.639670E+03  4.358061E+05 -1.140258E-09 -6.730340E-10
       391  16  5.440252E+05  3.010276E+05 -2.443111E+03  4.171932E+05 -2.919733E-09 -1.370476E-09
       391  17  5.441853E+05  3.008324E+05 -3.967346E+03  4.176492E+05 -2.520402E-09 -1.683907E-09
       391  18  5.449206E+05  3.022512E+05 -2.701887E+03  4.179825E+05  4.617564E-10  2.400688E-10
       391  19  6.182216E+05  3.542894E+05  2.104363E+04  4.543371E+05 -4.728664E+03 -7.897543E+02
       391  20  6.174548E+05  3.528148E+05  1.911543E+04  4.540453E+05 -1.685261E+03  1.440564E+03
       391  21  6.172642E+05  3.529551E+05  1.998100E+04  4.536307E+05  1.360522E+03  3.667754E+03
       391  22  5.811227E+05  3.276581E+05  9.300369E+03  4.357645E+05 -4.751015E+03 -8.064930E+02
       391  23  5.808194E+05  3.268233E+05  7.574155E+03  4.358466E+05 -1.710105E+03  1.421953E+03
       391  24  5.810918E+05  3.276029E+05  8.639698E+03  4.358061E+05  1.333199E+03  3.647283E+03
       391  25  5.440252E+05  3.010276E+05 -2.443067E+03  4.171932E+05 -4.773364E+03 -8.232303E+02
       391  26  5.441853E+05  3.008324E+05 -3.967337E+03  4.176492E+05 -1.734947E+03  1.403343E+03
       391  27  5.449206E+05  3.022513E+05 -2.701859E+03  4.179825E+05  1.305878E+03  3.626815E+03
       392   1  6.153387E+05  3.535216E+05  2.109757E+04  4.544016E+05 -2.671590E+03 -4.628496E+03
       392   2  6.157076E+05  3.504090E+05  2.599870E+04  4.529105E+05 -8.802697E+03 -9.166643E+03
       392   3  6.206301E+05  3.541025E+05  3.793424E+04  4.490245E+05 -1.496487E+04 -1.366324E+04
       392   4  5.811051E+05  3.272088E+05  9.943688E+03  4.364609E+05 -2.659186E+03 -4.619198E+03
       392   5  5.802356E+05  3.263086E+05  1.501819E+04  4.357819E+05 -8.759971E+03 -9.134637E+03
       392   6  5.839134E+05  3.322082E+05  2.710116E+04  4.327079E+05 -1.489183E+04 -1.360858E+04
       392   7  5.468730E+05  3.008969E+05 -1.210250E+03  4.185216E+05 -2.646784E+03 -4.609901E+03
       392   8  5.447651E+05  3.022089E+05  4.037573E+03  4.186544E+05 -8.717249E+03 -9.102634E+03
       392   9  5.471981E+05  3.103144E+05  1.626794E+04  4.163922E+05 -1.481879E+04 -1.355393E+04
       392  10  6.153387E+05  3.535216E+05  2.109751E+04  4.544015E+05 -3.998666E-10 -2.894846E-10
       392  11  6.157075E+05  3.504089E+05  2.599839E+04  4.529104E+05 -3.798503E-10 -2.389005E-10
       392  12  6.206299E+05  3.541022E+05  3.793347E+04  4.490244E+05  7.461727E-10  1.646020E-10
       392  13  5.811051E+05  3.272087E+05  9.943635E+03  4.364609E+05 -3.621317E-10 -1.079421E-10
       392  14  5.802355E+05  3.263085E+05  1.501789E+04  4.357818E+05  5.018285E-13  1.693755E-10
       392  15  5.839131E+05  3.322079E+05  2.710040E+04  4.327077E+05  1.319974E-10  6.204226E-11
       392  16  5.468730E+05  3.008969E+05 -1.210303E+03  4.185215E+05  2.699086E-10 -1.315057E-10
       392  17  5.447650E+05  3.022088E+05  4.037275E+03  4.186543E+05 -3.429194E-10  1.016560E-10
       392  18  5.471978E+05  3.103141E+05  1.626719E+04  4.163921E+05 -9.906598E-11 -2.468652E-10
       392  19  6.153387E+05  3.535216E+05  2.109757E+04  4.544016E+05  2.671590E+03  4.628496E+03
       392  20  6.157076E+05  3.504090E+05  2.599870E+04  4.529105E+05  8.802697E+03  9.166643E+03
       392  21  6.206301E+05  3.541025E+05  3.793424E+04  4.490245E+05  1.496487E+04  1.366324E+04
       392  22  5.811051E+05  3.272088E+05  9.943688E+03  4.364609E+05  2.659186E+03  4.619198E+03
       392  23  5.802356E+05  3.263086E+05  1.501819E+04  4.357819E+05  8.759971E+03  9.134637E+03
       392  24  5.839134E+05  3.322082E+05  2.710116E+04  4.327079E+05  1.489183E+04  1.360858E+04
       392  25  5.468730E+05  3.008969E+05 -1.210250E+03  4.185216E+05  2.646784E+03  4.609901E+03
       392  26  5.447651E+05  3.022089E+05  4.037573E+03  4.186544E+05  8.717249E+03  9.102634E+03
       392  27  5.471981E+05  3.103144E+05  1.626794E+04  4.163922E+05  1.481879E+04  1.355393E+04
       393   1  6.029430E+05  3.642011E+05  4.399102E+04  4.627247E+05 -1.860321E+04 -1.652489E+04
       393   2  6.188550E+05  3.306292E+05  6.533534E+04  4.479346E+05 -4.278026E+04 -3.440230E+04
       393   3  6.928832E+05  3.774555E+05  1.331585E+05  3.963598E+05 -6.760683E+04 -5.141352E+04
       393   4  5.832203E+05  3.261780E+05  3.337868E+04  4.418369E+05 -1.879862E+04 -1.667070E+04
       393   5  5.730682E+05  3.195621E+05  5.481054E+04  4.350782E+05 -4.235032E+04 -3.408134E+04
       393   6  6.208970E+05  3.932110E+05  1.221817E+05  3.915344E+05 -6.654984E+04 -5.062782E+04
       393   7  5.634982E+05  2.881571E+05  2.276624E+04  4.209502E+05 -1.899402E+04 -1.681649E+04
       393   8  5.272838E+05  3.084952E+05  4.428566E+04  4.222223E+05 -4.192042E+04 -3.376039E+04
       393   9  5.489194E+05  4.089694E+05  1.112057E+05  3.867079E+05 -6.549304E+04 -4.984204E+04
       393  10  6.029426E+05  3.642007E+05  4.398985E+04  4.627244E+05  4.041973E-10  3.868896E-11
       393  11  6.188527E+05  3.306275E+05  6.532968E+04  4.479335E+05  2.860919E-11 -2.827689E-10
       393  12  6.928776E+05  3.774514E+05  1.331450E+05  3.963570E+05 -2.983551E-10 -1.694001E-10
       393  13  5.832199E+05  3.261776E+05  3.337749E+04  4.418366E+05 -9.547227E-12  8.442999E-11
       393  14  5.730659E+05  3.195604E+05  5.480499E+04  4.350770E+05  9.647768E-11  1.160713E-10
       393  15  6.208915E+05  3.932070E+05  1.221686E+05  3.915317E+05 -2.589700E-10 -1.255258E-10
       393  16  5.634977E+05  2.881567E+05  2.276503E+04  4.209499E+05 -2.158856E-10 -5.139439E-10
       393  17  5.272816E+05  3.084935E+05  4.428022E+04  4.222211E+05  2.013145E-10  9.639045E-11
       393  18  5.489141E+05  4.089656E+05  1.111930E+05  3.867053E+05  1.216829E-10  6.942630E-11
       393  19  6.029430E+05  3.642011E+05  4.399102E+04  4.627247E+05  1.860321E+04  1.652489E+04
       393  20  6.188550E+05  3.306292E+05  6.533534E+04  4.479346E+05  4.278026E+04  3.440230E+04
       393  21  6.928832E+05  3.774555E+05  1.331585E+05  3.963598E+05  6.760683E+04  5.141352E+04
       393  22  5.832203E+05  3.261780E+05  3.337868E+04  4.418369E+05  1.879862E+04  1.667070E+04
       393  23  5.730682E+05  3.195621E+05  5.481054E+04  4.350782E+05  4.235032E+04  3.408134E+04
       393  24  6.208970E+05  3.932110E+05  1.221817E+05  3.915344E+05  6.654984E+04  5.062782E+04
       393  25  5.634982E+05  2.881571E+05  2.276624E+04  4.209502E+05  1.899402E+04  1.681649E+04
       393  26  5.272838E+05  3.084952E+05  4.428566E+04  4.222223E+05  4.192042E+04  3.376039E+04
       393  27  5.489194E+05  4.089694E+05  1.112057E+05  3.867079E+05  6.549304E+04  4.984204E+04
       394   1  1.004703E+06  1.540707E+05  1.524861E+05  6.685316E+04  1.841931E+04 -6.711363E+03
       394   2  8.890814E+05  1.199080E+05  1.149855E+05  3.630472E+04  5.827819E+03 -1.948664E+04
       394   3  7.768284E+05  9.211094E+04  8.728866E+04  6.474871E+04 -6.760867E+03 -1.633754E+04
       394   4  4.011704E+05  3.939309E+03  4.870388E+03  6.525266E+04  3.468296E+03 -6.710815E+03
       394   5  4.005017E+05 -3.196556E+02  2.065839E+03  3.575517E+04  2.358755E+03 -1.948810E+04
       394   6  4.012005E+05 -2.008880E+02  1.102136E+03  6.525269E+04  1.249658E+03 -1.633548E+04
       394   7 -2.020298E+05 -1.462188E+05 -1.427711E+05  6.365371E+04 -1.146824E+04 -6.710191E+03
       394   8 -8.785756E+04 -1.205640E+05 -1.108697E+05  3.520604E+04 -1.107604E+03 -1.948955E+04
       394   9  2.570318E+04 -9.252251E+04 -8.509344E+04  6.575634E+04  9.255381E+03 -1.633341E+04
       394  10  1.004702E+06  1.540705E+05  1.524854E+05  6.685326E+04  3.624488E-10  8.011628E-12
       394  11  8.890812E+05  1.199075E+05  1.149847E+05  3.630481E+04  7.067996E-11 -4.123888E-11
       394  12  7.768283E+05  9.211064E+04  8.728807E+04  6.474862E+04  7.354010E-10 -3.315067E-11
       394  13  4.011704E+05  3.939258E+03  4.870281E+03  6.525268E+04  1.549618E-10  1.572669E-10
       394  14  4.005016E+05 -3.200650E+02  2.065115E+03  3.575521E+04  4.324528E-11 -3.765406E-11
       394  15  4.012004E+05 -2.011750E+02  1.101631E+03  6.525271E+04 -3.586310E-10 -7.789824E-11
       394  16 -2.020300E+05 -1.462189E+05 -1.427714E+05  6.365364E+04  3.582578E-11  1.055174E-10
       394  17 -8.785767E+04 -1.205644E+05 -1.108704E+05  3.520602E+04 -7.995084E-10  1.027970E-10
       394  18  2.570302E+04 -9.252282E+04 -8.509410E+04  6.575647E+04 -5.744664E-10 -2.351351E-10
       394  19  1.004703E+06  1.540707E+05  1.524861E+05  6.685316E+04 -1.841931E+04  6.711363E+03
       394  20  8.890814E+05  1.199080E+05  1.149855E+05  3.630472E+04 -5.827819E+03  1.948664E+04
       394  21  7.768284E+05  9.211094E+04  8.728866E+04  6.474871E+04  6.760867E+03  1.633754E+04
       394  22  4.011704E+05  3.939309E+03  4.870388E+03  6.525266E+04 -3.468296E+03  6.710815E+03
       394  23  4.005017E+05 -3.196556E+02  2.065839E+03  3.575517E+04 -2.358755E+03  1.948810E+04
       394  24  4.012005E+05 -2.008880E+02  1.102136E+03  6.525269E+04 -1.249658E+03  1.633548E+04
       394  25 -2.020298E+05 -1.462188E+05 -1.427711E+05  6.365371E+04  1.146824E+04  6.710191E+03
       394  26 -8.785756E+04 -1.205640E+05 -1.108697E+05  3.520604E+04  1.107604E+03  1.948955E+04
       394  27  2.570318E+04 -9.252251E+04 -8.509344E+04  6.575634E+04 -9.255381E+03  1.633341E+04
       395   1  6.675545E+05  6.589854E+04  6.212203E+04  6.549473E+04 -2.006551E+03 -1.120442E+04
       395   2  5.540357E+05  3.766257E+04  3.521375E+04  3.570983E+04 -2.554356E+03 -6.523005E+03
       395   3  4.406495E+05  9.785379E+03  8.740799E+03  6.531832E+04 -3.103576E+03 -1.096181E+03
       395   4  4.009193E+05  3.304985E+02  7.554301E+02  6.534128E+04  1.098042E+03 -1.120344E+04
       395   5  4.009111E+05  1.343631E+01  1.033377E+01  3.564423E+04  1.087116E+03 -6.521430E+03
       395   6  4.009287E+05 -3.750155E+01 -6.717064E+02  6.534146E+04  1.074668E+03 -1.093882E+03
       395   7  1.343499E+05 -6.524250E+04 -6.061584E+04  6.518789E+04  4.201313E+03 -1.120246E+04
       395   8  2.478081E+05 -3.763732E+04 -3.519459E+04  3.557864E+04  4.727697E+03 -6.519856E+03
       395   9  3.612094E+05 -9.860486E+03 -1.008426E+04  6.536460E+04  5.252646E+03 -1.091583E+03
       395  10  6.675544E+05  6.589840E+04  6.212179E+04  6.549471E+04  1.267610E-10 -3.004600E-10
       395  11  5.540357E+05  3.766252E+04  3.521366E+04  3.570982E+04  3.348914E-10  6.631591E-11
       395  12  4.406495E+05  9.785375E+03  8.740779E+03  6.531832E+04  5.877671E-10 -2.699864E-10
       395  13  4.009193E+05  3.303634E+02  7.551919E+02  6.534129E+04  4.317079E-10 -1.864182E-10
       395  14  4.009110E+05  1.339032E+01  1.025161E+01  3.564423E+04  3.415148E-10 -1.914917E-10
       395  15  4.009287E+05 -3.750315E+01 -6.717108E+02  6.534146E+04  1.689982E-10 -3.815458E-10
       395  16  1.343499E+05 -6.524264E+04 -6.061611E+04  6.518793E+04 -4.137774E-10 -3.733979E-11
       395  17  2.478081E+05 -3.763737E+04 -3.519471E+04  3.557867E+04 -1.663746E-10 -6.003640E-10
       395  18  3.612094E+05 -9.860495E+03 -1.008431E+04  6.536460E+04  1.009623E-10  1.577565E-11
       395  19  6.675545E+05  6.589854E+04  6.212203E+04  6.549473E+04  2.006551E+03  1.120442E+04
       395  20  5.540357E+05  3.766257E+04  3.521375E+04  3.570983E+04  2.554356E+03  6.523005E+03
       395  21  4.406495E+05  9.785379E+03  8.740799E+03  6.531832E+04  3.103576E+03  1.096181E+03
       395  22  4.009193E+05  3.304985E+02  7.554301E+02  6.534128E+04 -1.098042E+03  1.120344E+04
       395  23  4.009111E+05  1.343631E+01  1.033377E+01  3.564423E+04 -1.087116E+03  6.521430E+03
       395  24  4.009287E+05 -3.750155E+01 -6.717064E+02  6.534146E+04 -1.074668E+03  1.093882E+03
       395  25  1.343499E+05 -6.524250E+04 -6.061584E+04  6.518789E+04 -4.201313E+03  1.120246E+04
       395  26  2.478081E+05 -3.763732E+04 -3.519459E+04  3.557864E+04 -4.727697E+03  6.519856E+03
       395  27  3.612094E+05 -9.860486E+03 -1.008426E+04  6.536460E+04 -5.252646E+03  1.091583E+03
       396   1  3.319371E+05 -1.683935E+04 -1.715652E+04  6.510959E+04 -2.965981E+03  2.348677E+03
       396   2  2.187824E+05 -4.470343E+04 -4.400824E+04  3.568640E+04 -1.341255E+03  7.774379E+03
       396   3  1.050531E+05 -7.392412E+04 -7.226737E+04  6.566455E+04  2.849656E+02  1.241804E+04
       396   4  4.008139E+05  1.528274E+02 -1.045944E+03  6.534259E+04  1.222984E+03  2.350953E+03
       396   5  4.010521E+05  1.196455E+02 -2.100663E+03  3.564270E+04  2.284522E+03  7.775842E+03
       396   6  4.008035E+05 -1.170841E+03 -4.170399E+03  6.534313E+04  3.347837E+03  1.241883E+04
       396   7  4.696952E+05  1.714468E+04  1.506438E+04  6.557561E+04  5.412411E+03  2.353232E+03
       396   8  5.833526E+05  4.494041E+04  3.980477E+04  3.559899E+04  5.911354E+03  7.777304E+03
       396   9  6.966348E+05  7.157633E+04  6.392080E+04  6.502155E+04  6.412155E+03  1.241963E+04
       396  10  3.319371E+05 -1.683936E+04 -1.715655E+04  6.510960E+04  8.724141E-10  3.636937E-10
       396  11  2.187824E+05 -4.470350E+04 -4.400836E+04  3.568641E+04  3.308714E-10  3.691578E-11
       396  12  1.050530E+05 -7.392429E+04 -7.226766E+04  6.566455E+04 -2.290969E-10 -1.729594E-10
       396  13  4.008139E+05  1.528211E+02 -1.045957E+03  6.534258E+04  7.643860E-10 -1.465532E-10
       396  14  4.010521E+05  1.195792E+02 -2.100786E+03  3.564269E+04  6.918929E-10 -1.272202E-10
       396  15  4.008034E+05 -1.171009E+03 -4.170710E+03  6.534310E+04  1.825221E-10 -2.741256E-11
       396  16  4.696951E+05  1.714467E+04  1.506431E+04  6.557560E+04 -6.339381E-10 -3.368068E-10
       396  17  5.833525E+05  4.494034E+04  3.980459E+04  3.559895E+04 -2.897467E-10 -5.058476E-10
       396  18  6.966347E+05  7.157616E+04  6.392044E+04  6.502148E+04  4.201010E-10 -2.850966E-10
       396  19  3.319371E+05 -1.683935E+04 -1.715652E+04  6.510959E+04  2.965981E+03 -2.348677E+03
       396  20  2.187824E+05 -4.470343E+04 -4.400824E+04  3.568640E+04  1.341255E+03 -7.774379E+03
       396  21  1.050531E+05 -7.392412E+04 -7.226737E+04  6.566455E+04 -2.849656E+02 -1.241804E+04
       396  22  4.008139E+05  1.528274E+02 -1.045944E+03  6.534259E+04 -1.222984E+03 -2.350953E+03
       396  23  4.010521E+05  1.196455E+02 -2.100663E+03  3.564270E+04 -2.284522E+03 -7.775842E+03
       396  24  4.008035E+05 -1.170841E+03 -4.170399E+03  6.534313E+04 -3.347837E+03 -1.241883E+04
       396  25  4.696952E+05  1.714468E+04  1.506438E+04  6.557561E+04 -5.412411E+03 -2.353232E+03
       396  26  5.833526E+05  4.494041E+04  3.980477E+04  3.559899E+04 -5.911354E+03 -7.777304E+03
       396  27  6.966348E+05  7.157633E+04  6.392080E+04  6.502155E+04 -6.412155E+03 -1.241963E+04
       397   1 -4.874982E+03 -9.861792E+04 -9.810503E+04  6.282007E+04 -4.075054E+03  1.763329E+04
       397   2 -1.153805E+05 -1.263964E+05 -1.284207E+05  3.782854E+04  1.257684E+04  2.068096E+04
       397   3 -2.327016E+05 -1.734123E+05 -1.743584E+05  7.182553E+04  2.922408E+04  7.079325E+03
       397   4  3.998386E+05  8.885267E+02 -5.212718E+03  6.525091E+04  4.111147E+03  1.763500E+04
       397   5  4.021957E+05  1.041035E+03 -8.737632E+03  3.575734E+04  8.781712E+03  2.067948E+04
       397   6  3.998110E+05 -1.595455E+04 -1.955913E+04  6.525022E+04  1.345082E+04  7.080570E+03
       397   7  8.047039E+05  1.003836E+05  8.766905E+04  6.768333E+04  1.230264E+04  1.763677E+04
       397   8  9.200196E+05  1.284597E+05  1.109277E+05  3.368440E+04  4.983446E+03  2.067802E+04
       397   9  1.032689E+06  1.414739E+05  1.352119E+05  5.866819E+04 -2.338481E+03  7.082149E+03
       397  10 -4.875084E+03 -9.861825E+04 -9.810565E+04  6.282013E+04  5.950517E-11 -8.537381E-11
       397  11 -1.153808E+05 -1.263969E+05 -1.284218E+05  3.782833E+04  5.929675E-10 -6.477552E-11
       397  12 -2.327025E+05 -1.734126E+05 -1.743601E+05  7.182537E+04  3.922281E-10  1.056062E-10
       397  13  3.998385E+05  8.881882E+02 -5.213334E+03  6.525085E+04 -5.336970E-11 -2.480644E-10
       397  14  4.021955E+05  1.040555E+03 -8.738581E+03  3.575720E+04 -4.517435E-11 -3.374404E-11
       397  15  3.998108E+05 -1.595466E+04 -1.955956E+04  6.525014E+04  6.531007E-10 -1.095356E-10
       397  16  8.047037E+05  1.003832E+05  8.766819E+04  6.768315E+04  5.729938E-11  3.639641E-10
       397  17  9.200194E+05  1.284592E+05  1.109268E+05  3.368432E+04 -7.248318E-10 -1.075076E-10
       397  18  1.032689E+06  1.414739E+05  1.352118E+05  5.866820E+04  6.490524E-11 -1.929755E-10
       397  19 -4.874982E+03 -9.861792E+04 -9.810503E+04  6.282007E+04  4.075054E+03 -1.763329E+04
       397  20 -1.153805E+05 -1.263964E+05 -1.284207E+05  3.782854E+04 -1.257684E+04 -2.068096E+04
       397  21 -2.327016E+05 -1.734123E+05 -1.743584E+05  7.182553E+04 -2.922408E+04 -7.079325E+03
       397  22  3.998386E+05  8.885267E+02 -5.212718E+03  6.525091E+04 -4.111147E+03 -1.763500E+04
       397  23  4.021957E+05  1.041035E+03 -8.737632E+03  3.575734E+04 -8.781712E+03 -2.067948E+04
       397  24  3.998110E+05 -1.595455E+04 -1.955913E+04  6.525022E+04 -1.345082E+04 -7.080570E+03
       397  25  8.047039E+05  1.003836E+05  8.766905E+04  6.768333E+04 -1.230264E+04 -1.763677E+04
       397  26  9.200196E+05  1.284597E+05  1.109277E+05  3.368440E+04 -4.983446E+03 -2.067802E+04
       397  27  1.032689E+06  1.414739E+05  1.352119E+05  5.866819E+04  2.338481E+03 -7.082149E+03
       398   1 -2.479191E+05 -9.222642E+05 -2.833635E+05  1.263339E+05 -3.828592E+03 -1.360802E+05
       398   2 -5.263370E+04 -7.886157E+05 -1.497101E+05  5.432246E+04 -1.018341E+04 -8.088326E+04
       398   3 -2.909990E+04 -7.051300E+05 -9.497203E+04  3.879691E+04 -6.398050E+03 -2.568027E+04
       398   4 -1.564726E+05 -5.551296E+05 -1.932716E+05  6.204716E+04 -3.811069E+03 -1.278818E+05
       398   5  1.092726E+04 -5.306607E+05 -8.992894E+04  3.376599E+04 -1.017998E+04 -7.995651E+04
       398   6  7.875260E+03 -5.550757E+05 -6.041632E+04  6.197969E+04 -6.402799E+03 -3.203536E+04
       398   7 -6.502040E+04 -1.878631E+05 -1.031871E+05 -2.277720E+03 -3.795253E+03 -1.196785E+05
       398   8  7.448513E+04 -2.726432E+05 -3.015201E+04  1.320090E+04 -1.017661E+04 -7.902937E+04
       398   9  4.485088E+04 -4.049993E+05 -2.586168E+04  8.516812E+04 -6.408022E+03 -3.839197E+04
       398  10 -2.479241E+05 -9.222841E+05 -2.833984E+05  1.263335E+05  3.750934E-11  2.239954E-10
       398  11 -5.263557E+04 -7.886228E+05 -1.497226E+05  5.432180E+04  5.673290E-10  6.746099E-10
       398  12 -2.910012E+04 -7.051307E+05 -9.497334E+04  3.879678E+04 -2.334207E-10  1.906904E-10
       398  13 -1.564770E+05 -5.551472E+05 -1.933024E+05  6.204676E+04 -2.107170E-11  3.001289E-11
       398  14  1.092543E+04 -5.306676E+05 -8.994116E+04  3.376534E+04  1.026412E-09  4.348402E-10
       398  15  7.874940E+03 -5.550768E+05 -6.041833E+04  6.197953E+04 -1.609933E-11  7.370266E-10
       398  16 -6.502426E+04 -1.878785E+05 -1.032141E+05 -2.278086E+03 -1.239337E-10 -6.463472E-11
       398  17  7.448334E+04 -2.726499E+05 -3.016395E+04  1.320025E+04  3.434971E-10 -3.358172E-10
       398  18  4.485044E+04 -4.050009E+05 -2.586453E+04  8.516793E+04  3.096185E-10  1.767405E-10
       398  19 -2.479191E+05 -9.222642E+05 -2.833635E+05  1.263339E+05  3.828592E+03  1.360802E+05
       398  20 -5.263370E+04 -7.886157E+05 -1.497101E+05  5.432246E+04  1.018341E+04  8.088326E+04
       398  21 -2.909990E+04 -7.051300E+05 -9.497203E+04  3.879691E+04  6.398050E+03  2.568027E+04
       398  22 -1.564726E+05 -5.551296E+05 -1.932716E+05  6.204716E+04  3.811069E+03  1.278818E+05
       398  23  1.092726E+04 -5.306607E+05 -8.992894E+04  3.376599E+04  1.017998E+04  7.995651E+04
       398  24  7.875260E+03 -5.550757E+05 -6.041632E+04  6.197969E+04  6.402799E+03  3.203536E+04
       398  25 -6.502040E+04 -1.878631E+05 -1.031871E+05 -2.277720E+03  3.795253E+03  1.196785E+05
       398  26  7.448513E+04 -2.726432E+05 -3.015201E+04  1.320090E+04  1.017661E+04  7.902937E+04
       398  27  4.485088E+04 -4.049993E+05 -2.586168E+04  8.516812E+04  6.408022E+03  3.839197E+04
       399   1 -2.230657E+04 -5.921509E+05 -6.373054E+04  6.792605E+04 -2.006806E+03 -1.920689E+04
       399   2  1.733837E+04 -4.790282E+05 -2.779549E+04  3.373306E+04  2.687878E+03  2.041373E+03
       399   3  3.184260E+04 -3.750180E+05 -1.200393E+04  5.640805E+04  7.229744E+03  2.329384E+04
       399   4 -1.101952E+04 -5.462479E+05 -5.318340E+04  6.208488E+04 -2.008797E+03 -2.263013E+04
       399   5  1.918830E+03 -5.416780E+05 -4.220777E+04  3.364989E+04  2.685947E+03 -1.272482E+03
       399   6 -1.030296E+04 -5.462512E+05 -5.145105E+04  6.208426E+04  7.228222E+03  2.008574E+04
       399   7  2.675135E+02 -5.003428E+05 -4.263634E+04  5.624327E+04 -2.010724E+03 -2.605363E+04
       399   8 -1.350098E+04 -6.043242E+05 -5.662028E+04  3.356673E+04  2.684016E+03 -4.586005E+03
       399   9 -5.245044E+04 -7.174571E+05 -9.090006E+04  6.775888E+04  7.226641E+03  1.687853E+04
       399  10 -2.230667E+04 -5.921513E+05 -6.373124E+04  6.792602E+04  2.994170E-10  4.397846E-10
       399  11  1.733836E+04 -4.790282E+05 -2.779551E+04  3.373306E+04  5.470090E-10  1.081271E-09
       399  12  3.184240E+04 -3.750186E+05 -1.200505E+04  5.640792E+04  5.758432E-10 -4.497905E-11
       399  13 -1.101966E+04 -5.462484E+05 -5.318437E+04  6.208484E+04  3.220892E-10  2.101280E-11
       399  14  1.918822E+03 -5.416780E+05 -4.220779E+04  3.364989E+04  2.208238E-10  7.454798E-10
       399  15 -1.030312E+04 -5.462516E+05 -5.145191E+04  6.208414E+04 -1.044997E-10  5.708126E-10
       399  16  2.673267E+02 -5.003436E+05 -4.263762E+04  5.624323E+04  1.073362E-10 -1.739336E-11
       399  17 -1.350099E+04 -6.043242E+05 -5.662033E+04  3.356674E+04  6.351009E-10 -2.608920E-10
       399  18 -5.245057E+04 -7.174574E+05 -9.090069E+04  6.775878E+04  3.799142E-10  1.823681E-10
       399  19 -2.230657E+04 -5.921509E+05 -6.373054E+04  6.792605E+04  2.006806E+03  1.920689E+04
       399  20  1.733837E+04 -4.790282E+05 -2.779549E+04  3.373306E+04 -2.687878E+03 -2.041373E+03
       399  21  3.184260E+04 -3.750180E+05 -1.200393E+04  5.640805E+04 -7.229744E+03 -2.329384E+04
       399  22 -1.101952E+04 -5.462479E+05 -5.318340E+04  6.208488E+04  2.008797E+03  2.263013E+04
       399  23  1.918830E+03 -5.416780E+05 -4.220777E+04  3.364989E+04 -2.685947E+03  1.272482E+03
       399  24 -1.030296E+04 -5.462512E+05 -5.145105E+04  6.208426E+04 -7.228222E+03 -2.008574E+04
       399  25  2.675135E+02 -5.003428E+05 -4.263634E+04  5.624327E+04  2.010724E+03  2.605363E+04
       399  26 -1.350098E+04 -6.043242E+05 -5.662028E+04  3.356673E+04 -2.684016E+03  4.586005E+03
       399  27 -5.245044E+04 -7.174571E+05 -9.090006E+04  6.775888E+04 -7.226641E+03 -1.687853E+04
       400   1  7.509118E+04 -2.790501E+05  5.393980E+03  8.380508E+04  1.196077E+04  3.627092E+04
       400   2  1.046095E+05 -1.484674E+05  3.541604E+03  1.446387E+04  1.525737E+04  7.213566E+04
       400   3 -2.465073E+04 -6.218199E+04 -6.134078E+04  1.389822E+03  5.362204E+03  1.080104E+05
       400   4  7.302868E+03 -5.544430E+05 -5.789573E+04  6.193786E+04  1.195609E+04  2.915068E+04
       400   5  1.026677E+04 -5.314771E+05 -8.510464E+04  3.382073E+04  1.526109E+04  7.448425E+04
       400   6 -1.472530E+05 -5.545018E+05 -1.819532E+05  6.197745E+04  5.375472E+03  1.198209E+05
       400   7 -6.048892E+04 -8.297645E+05 -1.211900E+05  4.008041E+04  1.195192E+04  2.203357E+04
       400   8 -8.408485E+04 -9.143504E+05 -1.737605E+05  5.316553E+04  1.526496E+04  7.683139E+04
       400   9 -2.698594E+05 -1.046593E+06 -3.025809E+05  1.225169E+05  5.391055E+03  1.316219E+05
       400  10  7.509067E+04 -2.790516E+05  5.391238E+03  8.380473E+04  3.395398E-10  1.013002E-11
       400  11  1.046079E+05 -1.484730E+05  3.531385E+03  1.446299E+04  3.570204E-10  2.708289E-10
       400  12 -2.465389E+04 -6.219453E+04 -6.136276E+04  1.389356E+03  2.087833E-10 -2.771488E-10
       400  13  7.302487E+03 -5.544440E+05 -5.789760E+04  6.193758E+04  6.872721E-10 -8.928670E-11
       400  14  1.026503E+04 -5.314831E+05 -8.511551E+04  3.381981E+04  1.831872E-10  2.267793E-10
       400  15 -1.472569E+05 -5.545172E+05 -1.819803E+05  6.197694E+04  1.827858E-10 -2.719042E-11
       400  16 -6.048920E+04 -8.297651E+05 -1.211912E+05  4.008020E+04  9.371816E-11  9.996159E-11
       400  17 -8.408669E+04 -9.143568E+05 -1.737720E+05  5.316459E+04  3.726017E-10  1.312050E-10
       400  18 -2.698641E+05 -1.046611E+06 -3.026136E+05  1.225163E+05  3.959934E-10  2.355342E-10
       400  19  7.509118E+04 -2.790501E+05  5.393980E+03  8.380508E+04 -1.196077E+04 -3.627092E+04
       400  20  1.046095E+05 -1.484674E+05  3.541604E+03  1.446387E+04 -1.525737E+04 -7.213566E+04
       400  21 -2.465073E+04 -6.218199E+04 -6.134078E+04  1.389822E+03 -5.362204E+03 -1.080104E+05
       400  22  7.302868E+03 -5.544430E+05 -5.789573E+04  6.193786E+04 -1.195609E+04 -2.915068E+04
       400  23  1.026677E+04 -5.314771E+05 -8.510464E+04  3.382073E+04 -1.526109E+04 -7.448425E+04
       400  24 -1.472530E+05 -5.545018E+05 -1.819532E+05  6.197745E+04 -5.375472E+03 -1.198209E+05
       400  25 -6.048892E+04 -8.297645E+05 -1.211900E+05  4.008041E+04 -1.195192E+04 -2.203357E+04
       400  26 -8.408485E+04 -9.143504E+05 -1.737605E+05  5.316553E+04 -1.526496E+04 -7.683139E+04
       400  27 -2.698594E+05 -1.046593E+06 -3.025809E+05  1.225169E+05 -5.391055E+03 -1.316219E+05
       401   1  7.823955E+05  5.804507E+05  1.724803E+05  5.379680E+05  1.021886E+05  7.755176E+04
       401   2  7.570966E+05  4.377332E+05  7.251487E+04  6.005166E+05  6.615914E+04  5.224147E+04
       401   3  8.301046E+05  4.107118E+05  4.282845E+04  6.034762E+05  3.124711E+04  2.543695E+04
       401   4  8.940150E+05  5.559328E+05  1.895440E+05  5.453832E+05  1.035327E+05  7.854294E+04
       401   5  8.155494E+05  4.459625E+05  8.488227E+04  6.141998E+05  6.641337E+04  5.242858E+04
       401   6  8.356144E+05  4.519097E+05  5.143231E+04  6.234296E+05  3.041593E+04  2.481581E+04
       401   7  1.005655E+06  5.314221E+05  2.066095E+05  5.527955E+05  1.048772E+05  7.953397E+04
       401   8  8.740069E+05  4.541923E+05  9.724976E+04  6.278835E+05  6.666764E+04  5.261569E+04
       401   9  8.411251E+05  4.931113E+05  6.003644E+04  6.433837E+05  2.958475E+04  2.419456E+04
       401  10  7.823827E+05  5.804415E+05  1.724495E+05  5.379616E+05 -2.115936E-10 -1.145965E-11
       401  11  7.570912E+05  4.377291E+05  7.250154E+04  6.005138E+05  2.501018E-10 -4.493148E-10
       401  12  8.301034E+05  4.107109E+05  4.282540E+04  6.034756E+05  1.192783E-09  1.387245E-10
       401  13  8.940019E+05  5.559233E+05  1.895123E+05  5.453766E+05 -2.465343E-10 -2.724380E-10
       401  14  8.155440E+05  4.459584E+05  8.486884E+04  6.141970E+05  5.136551E-10 -2.428550E-10
       401  15  8.356132E+05  4.519088E+05  5.142942E+04  6.234290E+05  2.632961E-09  7.722569E-10
       401  16  1.005642E+06  5.314124E+05  2.065770E+05  5.527888E+05 -1.610365E-10 -4.010499E-10
       401  17  8.740014E+05  4.541882E+05  9.723623E+04  6.278807E+05  9.776411E-10  2.702584E-10
       401  18  8.411240E+05  4.931104E+05  6.003370E+04  6.433832E+05  3.388565E-09  1.756930E-09
       401  19  7.823955E+05  5.804507E+05  1.724803E+05  5.379680E+05 -1.021886E+05 -7.755176E+04
       401  20  7.570966E+05  4.377332E+05  7.251487E+04  6.005166E+05 -6.615914E+04 -5.224147E+04
       401  21  8.301046E+05  4.107118E+05  4.282845E+04  6.034762E+05 -3.124711E+04 -2.543695E+04
       401  22  8.940150E+05  5.559328E+05  1.895440E+05  5.453832E+05 -1.035327E+05 -7.854294E+04
       401  23  8.155494E+05  4.459625E+05  8.488227E+04  6.141998E+05 -6.641337E+04 -5.242858E+04
       401  24  8.356144E+05  4.519097E+05  5.143231E+04  6.234296E+05 -3.041593E+04 -2.481581E+04
       401  25  1.005655E+06  5.314221E+05  2.066095E+05  5.527955E+05 -1.048772E+05 -7.953397E+04
       401  26  8.740069E+05  4.541923E+05  9.724976E+04  6.278835E+05 -6.666764E+04 -5.261569E+04
       401  27  8.411251E+05  4.931113E+05  6.003644E+04  6.433837E+05 -2.958475E+04 -2.419456E+04
       402   1  8.168123E+05  4.535975E+05  3.647878E+04  6.023576E+05  2.508948E+04  1.997361E+04
       402   2  8.213027E+05  4.542693E+05  2.101613E+04  6.133872E+05  1.648081E+04  1.266730E+04
       402   3  8.414310E+05  4.567594E+05  1.607905E+04  6.181605E+05  7.927199E+03  5.287555E+03
       402   4  8.366827E+05  4.612565E+05  4.155733E+04  6.092567E+05  2.472224E+04  1.969811E+04
       402   5  8.266766E+05  4.564529E+05  2.241240E+04  6.153045E+05  1.606011E+04  1.235195E+04
       402   6  8.323195E+05  4.534790E+05  1.383895E+04  6.150959E+05  7.453295E+03  4.932410E+03
       402   7  8.565534E+05  4.689154E+05  4.663581E+04  6.161560E+05  2.435499E+04  1.942261E+04
       402   8  8.320505E+05  4.586365E+05  2.380867E+04  6.172218E+05  1.563941E+04  1.203660E+04
       402   9  8.232082E+05  4.501986E+05  1.159884E+04  6.120313E+05  6.979401E+03  4.577267E+03
       402  10  8.168116E+05  4.535969E+05  3.647685E+04  6.023572E+05  2.851385E-09  1.826328E-09
       402  11  8.213024E+05  4.542691E+05  2.101532E+04  6.133871E+05  8.108878E-10  7.590126E-10
       402  12  8.414309E+05  4.567594E+05  1.607888E+04  6.181605E+05 -2.194686E-10  1.572385E-10
       402  13  8.366820E+05  4.612559E+05  4.155545E+04  6.092563E+05  1.508628E-09  1.393989E-09
       402  14  8.266763E+05  4.564527E+05  2.241163E+04  6.153044E+05  3.970513E-11  5.767979E-10
       402  15  8.323195E+05  4.534790E+05  1.383880E+04  6.150959E+05  2.255439E-10 -1.566511E-12
       402  16  8.565527E+05  4.689149E+05  4.663399E+04  6.161556E+05  1.136711E-09  6.782884E-10
       402  17  8.320502E+05  4.586363E+05  2.380794E+04  6.172217E+05 -1.161370E-09  3.326970E-10
       402  18  8.232081E+05  4.501986E+05  1.159871E+04  6.120313E+05 -2.274765E-10 -9.164945E-11
       402  19  8.168123E+05  4.535975E+05  3.647878E+04  6.023576E+05 -2.508948E+04 -1.997361E+04
       402  20  8.213027E+05  4.542693E+05  2.101613E+04  6.133872E+05 -1.648081E+04 -1.266730E+04
       402  21  8.414310E+05  4.567594E+05  1.607905E+04  6.181605E+05 -7.927199E+03 -5.287555E+03
       402  22  8.366827E+05  4.612565E+05  4.155733E+04  6.092567E+05 -2.472224E+04 -1.969811E+04
       402  23  8.266766E+05  4.564529E+05  2.241240E+04  6.153045E+05 -1.606011E+04 -1.235195E+04
       402  24  8.323195E+05  4.534790E+05  1.383895E+04  6.150959E+05 -7.453295E+03 -4.932410E+03
       402  25  8.565534E+05  4.689154E+05  4.663581E+04  6.161560E+05 -2.435499E+04 -1.942261E+04
       402  26  8.320505E+05  4.586365E+05  2.380867E+04  6.172218E+05 -1.563941E+04 -1.203660E+04
       402  27  8.232082E+05  4.501986E+05  1.159884E+04  6.120313E+05 -6.979401E+03 -4.577267E+03
       403   1  8.505716E+05  4.673228E+05  1.715882E+04  6.232054E+05  6.413687E+03  3.563616E+03
       403   2  8.578183E+05  4.787142E+05  1.760535E+04  6.304023E+05  3.652648E+03  5.131064E+02
       403   3  8.742416E+05  4.832713E+05  2.104080E+04  6.349654E+05  8.899149E+02 -2.535266E+03
       403   4  8.323005E+05  4.540811E+05  1.131132E+04  6.140056E+05  5.959678E+03  3.223334E+03
       403   5  8.276322E+05  4.573554E+05  8.109512E+03  6.154302E+05  3.200333E+03  1.740744E+02
       403   6  8.321400E+05  4.537948E+05  7.895173E+03  6.142208E+05  4.394007E+02 -2.872968E+03
       403   7  8.140297E+05  4.408395E+05  5.463742E+03  6.048061E+05  5.505683E+03  2.883064E+03
       403   8  7.974471E+05  4.359971E+05 -1.386438E+03  6.004589E+05  2.748048E+03 -1.649352E+02
       403   9  7.900407E+05  4.243194E+05 -5.250558E+03  5.934780E+05 -1.106870E+01 -3.210636E+03
       403  10  8.505715E+05  4.673228E+05  1.715871E+04  6.232054E+05  2.819127E-11  1.678456E-11
       403  11  8.578182E+05  4.787142E+05  1.760532E+04  6.304023E+05  8.839551E-10  1.506684E-10
       403  12  8.742416E+05  4.832713E+05  2.104078E+04  6.349654E+05 -3.045532E-11 -1.317664E-10
       403  13  8.323005E+05  4.540811E+05  1.131124E+04  6.140056E+05  5.507383E-10 -2.155714E-10
       403  14  8.276322E+05  4.573554E+05  8.109492E+03  6.154302E+05  1.147272E-09 -1.192721E-10
       403  15  8.321400E+05  4.537948E+05  7.895157E+03  6.142208E+05 -2.003313E-10  3.531730E-12
       403  16  8.140296E+05  4.408395E+05  5.463669E+03  6.048061E+05  3.456961E-10 -3.307025E-10
       403  17  7.974471E+05  4.359971E+05 -1.386452E+03  6.004589E+05 -6.885484E-12 -3.411127E-10
       403  18  7.900407E+05  4.243194E+05 -5.250577E+03  5.934780E+05  4.396899E-10  1.076767E-10
       403  19  8.505716E+05  4.673228E+05  1.715882E+04  6.232054E+05 -6.413687E+03 -3.563616E+03
       403  20  8.578183E+05  4.787142E+05  1.760535E+04  6.304023E+05 -3.652648E+03 -5.131064E+02
       403  21  8.742416E+05  4.832713E+05  2.104080E+04  6.349654E+05 -8.899149E+02  2.535266E+03
       403  22  8.323005E+05  4.540811E+05  1.131132E+04  6.140056E+05 -5.959678E+03 -3.223334E+03
       403  23  8.276322E+05  4.573554E+05  8.109512E+03  6.154302E+05 -3.200333E+03 -1.740744E+02
       403  24  8.321400E+05  4.537948E+05  7.895173E+03  6.142208E+05 -4.394007E+02  2.872968E+03
       403  25  8.140297E+05  4.408395E+05  5.463742E+03  6.048061E+05 -5.505683E+03 -2.883064E+03
       403  26  7.974471E+05  4.359971E+05 -1.386438E+03  6.004589E+05 -2.748048E+03  1.649352E+02
       403  27  7.900407E+05  4.243194E+05 -5.250558E+03  5.934780E+05  1.106870E+01  3.210636E+03
       404   1  8.844229E+05  4.920723E+05  2.532418E+04  6.413217E+05  6.300018E+01 -3.763492E+03
       404   2  8.927135E+05  5.026523E+05  3.239102E+04  6.475465E+05 -4.398529E+03 -8.070451E+03
       404   3  9.129702E+05  5.099505E+05  4.503451E+04  6.495001E+05 -8.973722E+03 -1.222601E+04
       404   4  8.321470E+05  4.534976E+05  8.547811E+03  6.146678E+05 -4.359450E+02 -4.137511E+03
       404   5  8.272286E+05  4.570262E+05  1.191409E+04  6.153947E+05 -4.787587E+03 -8.362158E+03
       404   6  8.342527E+05  4.572496E+05  2.076240E+04  6.118502E+05 -9.252774E+03 -1.243533E+04
       404   7  7.798741E+05  4.149246E+05 -8.228918E+03  5.880165E+05 -9.348334E+02 -4.511486E+03
       404   8  7.617480E+05  4.114022E+05 -8.563453E+03  5.832465E+05 -5.176591E+03 -8.653825E+03
       404   9  7.555412E+05  4.045512E+05 -3.510653E+03  5.742051E+05 -9.531779E+03 -1.264462E+04
       404  10  8.844229E+05  4.920723E+05  2.532416E+04  6.413217E+05 -2.524882E-10  1.741642E-11
       404  11  8.927135E+05  5.026522E+05  3.239086E+04  6.475465E+05  1.329755E-10  2.395496E-11
       404  12  9.129701E+05  5.099503E+05  4.503408E+04  6.495001E+05 -1.828085E-10  6.897211E-11
       404  13  8.321470E+05  4.534976E+05  8.547778E+03  6.146678E+05 -4.397489E-10 -1.397833E-10
       404  14  8.272286E+05  4.570261E+05  1.191392E+04  6.153947E+05  1.003895E-10 -1.463107E-11
       404  15  8.342525E+05  4.572494E+05  2.076195E+04  6.118501E+05 -2.076596E-10  1.080196E-10
       404  16  7.798740E+05  4.149246E+05 -8.228958E+03  5.880165E+05  6.531715E-10 -1.042165E-10
       404  17  7.617480E+05  4.114021E+05 -8.563644E+03  5.832465E+05  3.503174E-10  9.309313E-11
       404  18  7.555410E+05  4.045510E+05 -3.511124E+03  5.742050E+05  3.274449E-10  1.315421E-10
       404  19  8.844229E+05  4.920723E+05  2.532418E+04  6.413217E+05 -6.300018E+01  3.763492E+03
       404  20  8.927135E+05  5.026523E+05  3.239102E+04  6.475465E+05  4.398529E+03  8.070451E+03
       404  21  9.129702E+05  5.099505E+05  4.503451E+04  6.495001E+05  8.973722E+03  1.222601E+04
       404  22  8.321470E+05  4.534976E+05  8.547811E+03  6.146678E+05  4.359450E+02  4.137511E+03
       404  23  8.272286E+05  4.570262E+05  1.191409E+04  6.153947E+05  4.787587E+03  8.362158E+03
       404  24  8.342527E+05  4.572496E+05  2.076240E+04  6.118502E+05  9.252774E+03  1.243533E+04
       404  25  7.798741E+05  4.149246E+05 -8.228918E+03  5.880165E+05  9.348334E+02  4.511486E+03
       404  26  7.617480E+05  4.114022E+05 -8.563453E+03  5.832465E+05  5.176591E+03  8.653825E+03
       404  27  7.555412E+05  4.045512E+05 -3.510653E+03  5.742051E+05  9.531779E+03  1.264462E+04
       405   1  9.115099E+05  5.259912E+05  5.318498E+04  6.657409E+05 -1.047581E+04 -1.451831E+04
       405   2  9.316248E+05  5.137253E+05  7.321391E+04  6.619519E+05 -3.033297E+04 -2.966955E+04
       405   3  1.004445E+06  5.539566E+05  1.298711E+05  6.279565E+05 -5.254768E+04 -4.167761E+04
       405   4  8.337344E+05  4.526946E+05  2.540693E+04  6.187257E+05 -1.172912E+04 -1.545767E+04
       405   5  8.218200E+05  4.519534E+05  4.143420E+04  6.148653E+05 -2.931592E+04 -2.890787E+04
       405   6  8.621248E+05  5.032251E+05  9.212800E+04  5.807972E+05 -4.925887E+04 -3.921550E+04
       405   7  7.559661E+05  3.794051E+05 -2.371810E+03  5.717184E+05 -1.298221E+04 -1.639679E+04
       405   8  7.120291E+05  3.901855E+05  9.653513E+03  5.677874E+05 -2.829912E+04 -2.814634E+04
       405   9  7.198283E+05  4.524963E+05  5.438397E+04  5.336467E+05 -4.597114E+04 -3.675369E+04
       405  10  9.115097E+05  5.259910E+05  5.318438E+04  6.657408E+05 -6.733884E-11  2.621541E-10
       405  11  9.316236E+05  5.137241E+05  7.321053E+04  6.619512E+05  1.364401E-10  1.424540E-10
       405  12  1.004442E+06  5.539540E+05  1.298627E+05  6.279547E+05  6.945963E-11  5.042438E-11
       405  13  8.337342E+05  4.526943E+05  2.540623E+04  6.187256E+05 -3.135571E-10  1.053756E-10
       405  14  8.218189E+05  4.519523E+05  4.143102E+04  6.148647E+05 -3.290392E-10 -1.426736E-10
       405  15  8.621218E+05  5.032228E+05  9.212057E+04  5.807956E+05  4.686537E-10  1.015805E-10
       405  16  7.559659E+05  3.794048E+05 -2.372631E+03  5.717182E+05 -2.515201E-11  7.772465E-11
       405  17  7.120280E+05  3.901845E+05  9.650524E+03  5.677868E+05 -1.241983E-10  1.695987E-11
       405  18  7.198256E+05  4.524942E+05  5.437747E+04  5.336453E+05  1.622631E-10 -7.317814E-11
       405  19  9.115099E+05  5.259912E+05  5.318498E+04  6.657409E+05  1.047581E+04  1.451831E+04
       405  20  9.316248E+05  5.137253E+05  7.321391E+04  6.619519E+05  3.033297E+04  2.966955E+04
       405  21  1.004445E+06  5.539566E+05  1.298711E+05  6.279565E+05  5.254768E+04  4.167761E+04
       405  22  8.337344E+05  4.526946E+05  2.540693E+04  6.187257E+05  1.172912E+04  1.545767E+04
       405  23  8.218200E+05  4.519534E+05  4.143420E+04  6.148653E+05  2.931592E+04  2.890787E+04
       405  24  8.621248E+05  5.032251E+05  9.212800E+04  5.807972E+05  4.925887E+04  3.921550E+04
       405  25  7.559661E+05  3.794051E+05 -2.371810E+03  5.717184E+05  1.298221E+04  1.639679E+04
       405  26  7.120291E+05  3.901855E+05  9.653513E+03  5.677874E+05  2.829912E+04  2.814634E+04
       405  27  7.198283E+05  4.524963E+05  5.438397E+04  5.336467E+05  4.597114E+04  3.675369E+04
       406   1  1.122917E+05 -2.265140E+04 -5.936799E+04 -2.038244E+03 -1.135538E+05 -5.613470E+03
       406   2  3.046918E+04  1.106727E+05  1.106099E+04  1.290783E+04 -7.891375E+04 -1.623219E+04
       406   3 -9.597291E+04  8.302332E+04  1.873195E+04  8.180192E+04 -4.427959E+04 -1.320437E+04
       406   4 -4.000470E+05 -1.502644E+05 -1.848375E+05  5.963934E+04 -1.260362E+05 -5.623144E+03
       406   5 -3.768356E+05  1.035003E+04 -8.317672E+04  3.266869E+04 -8.160551E+04 -1.623543E+04
       406   6 -3.999982E+05  8.223922E+03 -5.111338E+04  5.965389E+04 -3.717435E+04 -1.320188E+04
       406   7 -9.121380E+05 -2.778825E+05 -3.103235E+05  1.212659E+05 -1.385083E+05 -5.635307E+03
       406   8 -7.839862E+05 -8.998285E+04 -1.774253E+05  5.241649E+04 -8.429550E+04 -1.623885E+04
       406   9 -7.039368E+05 -6.658006E+04 -1.209644E+05  3.751678E+04 -3.007256E+04 -1.319989E+04
       406  10  1.122778E+05 -2.265489E+04 -5.939228E+04 -2.038758E+03  1.906715E-10 -1.877628E-10
       406  11  3.046243E+04  1.106708E+05  1.104879E+04  1.290680E+04 -3.509576E-10 -3.476223E-10
       406  12 -9.597506E+04  8.302261E+04  1.872794E+04  8.180145E+04 -6.662040E-10  3.425589E-11
       406  13 -4.000640E+05 -1.502687E+05 -1.848674E+05  5.963877E+04 -2.795162E-10 -2.280423E-11
       406  14 -3.768428E+05  1.034796E+04 -8.318974E+04  3.266762E+04  4.404404E-10 -3.530071E-10
       406  15 -3.999998E+05  8.223364E+03 -5.111631E+04  5.965349E+04  1.325743E-10  2.108735E-10
       406  16 -9.121586E+05 -2.778877E+05 -3.103597E+05  1.212653E+05 -3.614665E-10 -1.727280E-10
       406  17 -7.839939E+05 -8.998505E+04 -1.774392E+05  5.241538E+04  1.346372E-10 -3.798840E-10
       406  18 -7.039378E+05 -6.658049E+04 -1.209664E+05  3.751646E+04  2.415135E-10  2.689175E-11
       406  19  1.122917E+05 -2.265140E+04 -5.936799E+04 -2.038244E+03  1.135538E+05  5.613470E+03
       406  20  3.046918E+04  1.106727E+05  1.106099E+04  1.290783E+04  7.891375E+04  1.623219E+04
       406  21 -9.597291E+04  8.302332E+04  1.873195E+04  8.180192E+04  4.427959E+04  1.320437E+04
       406  22 -4.000470E+05 -1.502644E+05 -1.848375E+05  5.963934E+04  1.260362E+05  5.623144E+03
       406  23 -3.768356E+05  1.035003E+04 -8.317672E+04  3.266869E+04  8.160551E+04  1.623543E+04
       406  24 -3.999982E+05  8.223922E+03 -5.111338E+04  5.965389E+04  3.717435E+04  1.320188E+04
       406  25 -9.121380E+05 -2.778825E+05 -3.103235E+05  1.212659E+05  1.385083E+05  5.635307E+03
       406  26 -7.839862E+05 -8.998285E+04 -1.774253E+05  5.241649E+04  8.429550E+04  1.623885E+04
       406  27 -7.039368E+05 -6.658006E+04 -1.209644E+05  3.751678E+04  3.007256E+04  1.319989E+04
       407   1 -1.867613E+05  3.901034E+04  5.124779E+03  5.589328E+04 -3.246114E+04 -8.606883E+03
       407   2 -2.885863E+05  2.555708E+04 -1.334457E+03  3.152255E+04 -2.065094E+04 -4.243532E+03
       407   3 -3.951950E+05 -8.374979E+02 -1.872435E+04  6.174870E+04 -8.843254E+03  7.558020E+02
       407   4 -3.907697E+05 -1.119949E+04 -4.186349E+04  5.979499E+04 -2.954599E+04 -8.606544E+03
       407   5 -3.883284E+05  1.010193E+03 -2.429317E+04  3.249463E+04 -1.728200E+04 -4.242688E+03
       407   6 -3.907609E+05  1.988158E+02 -1.797133E+04  5.979216E+04 -5.018581E+03  7.571248E+02
       407   7 -5.947395E+05 -6.141217E+04 -8.885449E+04  6.369540E+04 -2.663179E+04 -8.606168E+03
       407   8 -4.880614E+05 -2.353738E+04 -4.725250E+04  3.346655E+04 -1.391360E+04 -4.241832E+03
       407   9 -3.863267E+05  1.235151E+03 -1.721826E+04  5.783561E+04 -1.193882E+03  7.584234E+02
       407  10 -1.867624E+05  3.900998E+04  5.122659E+03  5.589306E+04  2.930224E-10  5.399518E-11
       407  11 -2.885867E+05  2.555694E+04 -1.335292E+03  3.152248E+04  3.657728E-10  2.583266E-10
       407  12 -3.951951E+05 -8.375196E+02 -1.872450E+04  6.174871E+04  5.199377E-10 -2.040775E-10
       407  13 -3.907706E+05 -1.119981E+04 -4.186527E+04  5.979479E+04  2.076808E-10  4.146344E-10
       407  14 -3.883287E+05  1.010093E+03 -2.429377E+04  3.249457E+04 -3.868479E-11  4.974863E-10
       407  15 -3.907609E+05  1.988084E+02 -1.797138E+04  5.979216E+04  9.053533E-11 -1.191265E-10
       407  16 -5.947403E+05 -6.141244E+04 -8.885596E+04  6.369522E+04 -1.856856E-10 -3.242078E-12
       407  17 -4.880616E+05 -2.353745E+04 -4.725290E+04  3.346650E+04 -5.096949E-10  3.382509E-10
       407  18 -3.863267E+05  1.235150E+03 -1.721827E+04  5.783561E+04 -2.039633E-10  2.412490E-10
       407  19 -1.867613E+05  3.901034E+04  5.124779E+03  5.589328E+04  3.246114E+04  8.606883E+03
       407  20 -2.885863E+05  2.555708E+04 -1.334457E+03  3.152255E+04  2.065094E+04  4.243532E+03
       407  21 -3.951950E+05 -8.374979E+02 -1.872435E+04  6.174870E+04  8.843254E+03 -7.558020E+02
       407  22 -3.907697E+05 -1.119949E+04 -4.186349E+04  5.979499E+04  2.954599E+04  8.606544E+03
       407  23 -3.883284E+05  1.010193E+03 -2.429317E+04  3.249463E+04  1.728200E+04  4.242688E+03
       407  24 -3.907609E+05  1.988158E+02 -1.797133E+04  5.979216E+04  5.018581E+03 -7.571248E+02
       407  25 -5.947395E+05 -6.141217E+04 -8.885449E+04  6.369540E+04  2.663179E+04  8.606168E+03
       407  26 -4.880614E+05 -2.353738E+04 -4.725250E+04  3.346655E+04  1.391360E+04  4.241832E+03
       407  27 -3.863267E+05  1.235151E+03 -1.721826E+04  5.783561E+04  1.193882E+03 -7.584234E+02
       408   1 -4.947178E+05 -2.610270E+04 -4.108272E+04  5.854759E+04 -5.824083E+03  3.925658E+03
       408   2 -5.971893E+05 -5.062946E+04 -6.584229E+04  3.311275E+04  3.735987E+03  8.911086E+03
       408   3 -7.030149E+05 -8.365028E+04 -9.895446E+04  6.224397E+04  1.329612E+04  1.312118E+04
       408   4 -3.904064E+05 -3.791319E+02 -1.683262E+04  5.978538E+04 -1.960361E+03  3.926858E+03
       408   5 -3.887800E+05  6.663694E+02 -1.788703E+04  3.250326E+04  7.043908E+03  8.911587E+03
       408   6 -3.904195E+05 -6.683139E+03 -2.690537E+04  5.978639E+04  1.604981E+04  1.312108E+04
       408   7 -2.860849E+05  2.534369E+04  7.416807E+03  6.102337E+04  1.904007E+03  3.928073E+03
       408   8 -1.803304E+05  5.195917E+04  3.006540E+04  3.189357E+04  1.035293E+04  8.912080E+03
       408   9 -7.773349E+04  7.027718E+04  4.513725E+04  5.732755E+04  1.880488E+04  1.312096E+04
       408  10 -4.947178E+05 -2.610273E+04 -4.108281E+04  5.854761E+04  2.452746E-11  1.137941E-10
       408  11 -5.971894E+05 -5.062955E+04 -6.584246E+04  3.311272E+04 -2.339331E-10 -1.788002E-11
       408  12 -7.030151E+05 -8.365051E+04 -9.895511E+04  6.224383E+04 -3.749785E-10  1.813512E-10
       408  13 -3.904064E+05 -3.791495E+02 -1.683265E+04  5.978538E+04  1.237426E-10 -1.387090E-10
       408  14 -3.887801E+05  6.662708E+02 -1.788727E+04  3.250321E+04 -1.417854E-10 -3.940281E-11
       408  15 -3.904198E+05 -6.683393E+03 -2.690618E+04  5.978622E+04 -1.188691E-10  5.101301E-11
       408  16 -2.860849E+05  2.534367E+04  7.416771E+03  6.102337E+04 -4.605785E-10 -1.111428E-12
       408  17 -1.803305E+05  5.195906E+04  3.006505E+04  3.189349E+04 -2.453893E-10 -3.403857E-10
       408  18 -7.773391E+04  7.027690E+04  4.513627E+04  5.732735E+04  4.591306E-10  1.325442E-11
       408  19 -4.947178E+05 -2.610270E+04 -4.108272E+04  5.854759E+04  5.824083E+03 -3.925658E+03
       408  20 -5.971893E+05 -5.062946E+04 -6.584229E+04  3.311275E+04 -3.735987E+03 -8.911086E+03
       408  21 -7.030149E+05 -8.365028E+04 -9.895446E+04  6.224397E+04 -1.329612E+04 -1.312118E+04
       408  22 -3.904064E+05 -3.791319E+02 -1.683262E+04  5.978538E+04  1.960361E+03 -3.926858E+03
       408  23 -3.887800E+05  6.663694E+02 -1.788703E+04  3.250326E+04 -7.043908E+03 -8.911587E+03
       408  24 -3.904195E+05 -6.683139E+03 -2.690537E+04  5.978639E+04 -1.604981E+04 -1.312108E+04
       408  25 -2.860849E+05  2.534369E+04  7.416807E+03  6.102337E+04 -1.904007E+03 -3.928073E+03
       408  26 -1.803304E+05  5.195917E+04  3.006540E+04  3.189357E+04 -1.035293E+04 -8.912080E+03
       408  27 -7.773349E+04  7.027718E+04  4.513725E+04  5.732755E+04 -1.880488E+04 -1.312096E+04
       409   1 -8.083541E+05 -9.664407E+04 -1.266848E+05  4.643484E+04  1.315314E+04  1.801915E+04
       409   2 -8.974576E+05 -1.208689E+05 -1.696534E+05  4.462463E+04  5.172386E+04  2.064122E+04
       409   3 -1.016259E+06 -2.444814E+05 -2.625702E+05  9.659696E+04  9.028163E+04  6.991141E+03
       409   4 -3.958527E+05  4.864206E+03 -3.193255E+04  5.961925E+04  2.090151E+04  1.801906E+04
       409   5 -3.820492E+05  6.147437E+03 -5.038185E+04  3.271320E+04  4.778767E+04  2.063975E+04
       409   6 -3.958976E+05 -8.988308E+04 -1.106326E+05  5.959229E+04  7.466809E+04  6.991181E+03
       409   7  1.680698E+04  1.063613E+05  6.280874E+04  7.281248E+04  2.865498E+04  1.801929E+04
       409   8  1.336053E+05  1.331457E+05  6.887208E+04  2.079180E+04  4.384821E+04  2.063843E+04
       409   9  2.248184E+05  6.469201E+04  4.127856E+04  2.255052E+04  5.903893E+04  6.993087E+03
       409  10 -8.083544E+05 -9.664447E+04 -1.266857E+05  4.643465E+04 -1.106738E-10  1.989346E-10
       409  11 -8.974606E+05 -1.208701E+05 -1.696593E+05  4.462377E+04 -6.815765E-11 -4.105084E-11
       409  12 -1.016268E+06 -2.444837E+05 -2.625857E+05  9.659646E+04 -1.628951E-10 -2.312192E-10
       409  13 -3.958532E+05  4.863741E+03 -3.193398E+04  5.961894E+04  7.852120E-10  1.023683E-10
       409  14 -3.820518E+05  6.146366E+03 -5.038694E+04  3.271241E+04  9.660325E-12 -2.761115E-11
       409  15 -3.959036E+05 -8.988463E+04 -1.106431E+05  5.959186E+04  1.792675E-10  1.045064E-10
       409  16  1.680602E+04  1.063607E+05  6.280659E+04  7.281207E+04  1.482496E-10  1.214631E-10
       409  17  1.336032E+05  1.331447E+05  6.886767E+04  2.079108E+04 -1.774476E-10  1.435747E-10
       409  18  2.248147E+05  6.469102E+04  4.127192E+04  2.255019E+04  1.187688E-10 -3.762156E-10
       409  19 -8.083541E+05 -9.664407E+04 -1.266848E+05  4.643484E+04 -1.315314E+04 -1.801915E+04
       409  20 -8.974576E+05 -1.208689E+05 -1.696534E+05  4.462463E+04 -5.172386E+04 -2.064122E+04
       409  21 -1.016259E+06 -2.444814E+05 -2.625702E+05  9.659696E+04 -9.028163E+04 -6.991141E+03
       409  22 -3.958527E+05  4.864206E+03 -3.193255E+04  5.961925E+04 -2.090151E+04 -1.801906E+04
       409  23 -3.820492E+05  6.147437E+03 -5.038185E+04  3.271320E+04 -4.778767E+04 -2.063975E+04
       409  24 -3.958976E+05 -8.988308E+04 -1.106326E+05  5.959229E+04 -7.466809E+04 -6.991181E+03
       409  25  1.680698E+04  1.063613E+05  6.280874E+04  7.281248E+04 -2.865498E+04 -1.801929E+04
       409  26  1.336053E+05  1.331457E+05  6.887208E+04  2.079180E+04 -4.384821E+04 -2.063843E+04
       409  27  2.248184E+05  6.469201E+04  4.127856E+04  2.255052E+04 -5.903893E+04 -6.993087E+03
       410   1 -3.536094E+05 -1.326182E+06 -4.003030E+05  1.829652E+05 -6.217708E+03 -1.796608E+05
       410   2 -8.887038E+04 -1.120766E+06 -2.175279E+05  8.048832E+04 -1.657990E+04 -1.038887E+05
       410   3 -5.113130E+04 -9.820250E+05 -1.409160E+05  6.754394E+04 -1.060489E+04 -2.810404E+04
       410   4 -2.060456E+05 -7.339012E+05 -2.549249E+05  9.829179E+04 -6.185449E+03 -1.663856E+05
       410   5  1.444950E+04 -7.015433E+05 -1.203523E+05  5.345522E+04 -1.657347E+04 -1.023101E+05
       410   6  1.005885E+04 -7.337956E+05 -8.374338E+04  9.816812E+04 -1.061511E+04 -3.824427E+04
       410   7 -5.848067E+04 -1.412845E+05 -1.095679E+05  1.353720E+04 -6.156843E+03 -1.530976E+05
       410   8  1.177598E+05 -2.821558E+05 -2.318820E+04  2.640368E+04 -1.656719E+04 -1.007305E+05
       410   9  7.124825E+04 -4.855068E+05 -2.657398E+04  1.288046E+05 -1.062633E+04 -4.838851E+04
       410  10 -3.536181E+05 -1.326217E+06 -4.003639E+05  1.829643E+05  3.734859E-10  2.376603E-10
       410  11 -8.887358E+04 -1.120778E+06 -2.175487E+05  8.048693E+04  7.074044E-10  9.475173E-10
       410  12 -5.113163E+04 -9.820258E+05 -1.409177E+05  6.754370E+04  4.145043E-13 -6.388035E-10
       410  13 -2.060531E+05 -7.339310E+05 -2.549770E+05  9.829096E+04  4.344982E-10  1.314935E-10
       410  14  1.444639E+04 -7.015546E+05 -1.203726E+05  5.345386E+04  6.034482E-10 -2.544225E-10
       410  15  1.005834E+04 -7.337972E+05 -8.374635E+04  9.816779E+04 -1.494909E-10 -2.365442E-10
       410  16 -5.848700E+04 -1.413097E+05 -1.096121E+05  1.353644E+04 -2.052228E-10 -3.356482E-10
       410  17  1.177568E+05 -2.821668E+05 -2.320780E+04  2.640234E+04 -3.820273E-10 -1.814499E-10
       410  18  7.124750E+04 -4.855094E+05 -2.657859E+04  1.288042E+05  1.777472E-10  6.516585E-10
       410  19 -3.536094E+05 -1.326182E+06 -4.003030E+05  1.829652E+05  6.217708E+03  1.796608E+05
       410  20 -8.887038E+04 -1.120766E+06 -2.175279E+05  8.048832E+04  1.657990E+04  1.038887E+05
       410  21 -5.113130E+04 -9.820250E+05 -1.409160E+05  6.754394E+04  1.060489E+04  2.810404E+04
       410  22 -2.060456E+05 -7.339012E+05 -2.549249E+05  9.829179E+04  6.185449E+03  1.663856E+05
       410  23  1.444950E+04 -7.015433E+05 -1.203523E+05  5.345522E+04  1.657347E+04  1.023101E+05
       410  24  1.005885E+04 -7.337956E+05 -8.374338E+04  9.816812E+04  1.061511E+04  3.824427E+04
       410  25 -5.848067E+04 -1.412845E+05 -1.095679E+05  1.353720E+04  6.156843E+03  1.530976E+05
       410  26  1.177598E+05 -2.821558E+05 -2.318820E+04  2.640368E+04  1.656719E+04  1.007305E+05
       410  27  7.124825E+04 -4.855068E+05 -2.657398E+04  1.288046E+05  1.062633E+04  4.838851E+04
       411   1 -3.457021E+04 -8.056735E+05 -9.474716E+04  1.069402E+05 -3.610890E+03 -1.959473E+04
       411   2  2.493538E+04 -6.264172E+05 -4.502571E+04  5.293753E+04  3.832321E+03  1.340101E+04
       411   3  4.543595E+04 -4.613443E+05 -2.659114E+04  8.912840E+04  1.105769E+04  4.640679E+04
       411   4 -1.414128E+04 -7.226034E+05 -7.564793E+04  9.835126E+04 -3.615679E+03 -2.500594E+04
       411   5  3.009926E+03 -7.154885E+05 -6.551991E+04  5.325462E+04  3.827807E+03  8.144702E+03
       411   6 -1.887206E+04 -7.226141E+05 -8.678615E+04  9.835485E+04  1.105429E+04  4.129644E+04
       411   7  6.287474E+03 -6.395267E+05 -5.654901E+04  8.976114E+04 -3.620318E+03 -3.041787E+04
       411   8 -1.891607E+04 -8.045524E+05 -8.601454E+04  5.357166E+04  3.823286E+03  2.889140E+03
       411   9 -8.318451E+04 -9.838205E+05 -1.469855E+05  1.075774E+05  1.105074E+04  3.618822E+04
       411  10 -3.457033E+04 -8.056739E+05 -9.474790E+04  1.069402E+05 -4.363026E-11 -5.397846E-10
       411  11  2.493532E+04 -6.264174E+05 -4.502608E+04  5.293749E+04 -6.868573E-11  1.235501E-09
       411  12  4.543524E+04 -4.613466E+05 -2.659542E+04  8.912799E+04 -9.161357E-11 -7.007976E-10
       411  13 -1.414146E+04 -7.226041E+05 -7.564913E+04  9.835119E+04  2.148923E-10  5.956563E-14
       411  14  3.009893E+03 -7.154885E+05 -6.552007E+04  5.325459E+04  1.246174E-09 -3.011440E-10
       411  15 -1.887265E+04 -7.226160E+05 -8.678959E+04  9.835449E+04 -8.019844E-10  8.933386E-11
       411  16  6.287211E+03 -6.395277E+05 -5.655078E+04  8.976106E+04  4.257234E-11  3.308300E-10
       411  17 -1.891609E+04 -8.045524E+05 -8.601458E+04  5.357165E+04  8.528351E-11 -2.700809E-10
       411  18 -8.318499E+04 -9.838219E+05 -1.469882E+05  1.075771E+05  1.203817E-10  6.203161E-10
       411  19 -3.457021E+04 -8.056735E+05 -9.474716E+04  1.069402E+05  3.610890E+03  1.959473E+04
       411  20  2.493538E+04 -6.264172E+05 -4.502571E+04  5.293753E+04 -3.832321E+03 -1.340101E+04
       411  21  4.543595E+04 -4.613443E+05 -2.659114E+04  8.912840E+04 -1.105769E+04 -4.640679E+04
       411  22 -1.414128E+04 -7.226034E+05 -7.564793E+04  9.835126E+04  3.615679E+03  2.500594E+04
       411  23  3.009926E+03 -7.154885E+05 -6.551991E+04  5.325462E+04 -3.827807E+03 -8.144702E+03
       411  24 -1.887206E+04 -7.226141E+05 -8.678615E+04  9.835485E+04 -1.105429E+04 -4.129644E+04
       411  25  6.287474E+03 -6.395267E+05 -5.654901E+04  8.976114E+04  3.620318E+03  3.041787E+04
       411  26 -1.891607E+04 -8.045524E+05 -8.601454E+04  5.357166E+04 -3.823286E+03 -2.889140E+03
       411  27 -8.318451E+04 -9.838205E+05 -1.469855E+05  1.075774E+05 -1.105074E+04 -3.618822E+04
       412   1  1.186104E+05 -3.113806E+05 -1.892147E+03  1.375463E+05  1.854033E+04  6.795586E+04
       412   2  1.655080E+05 -9.955756E+04 -1.319476E+04  1.874232E+04  2.380297E+04  1.338558E+05
       412   3 -7.368784E+04  3.234925E+04 -1.388752E+05 -1.089004E+04  8.374445E+03  1.997832E+05
       412   4  1.359748E+04 -7.378197E+05 -9.991802E+04  9.809402E+04  1.852814E+04  5.671796E+04
       412   5  1.845818E+04 -6.965755E+05 -1.513832E+05  5.354846E+04  2.381387E+04  1.374348E+05
       412   6 -2.655221E+05 -7.379591E+05 -3.276107E+05  9.819284E+04  8.415370E+03  2.181589E+05
       412   7 -9.142225E+04 -1.164087E+06 -1.979546E+05  5.866905E+04  1.851737E+04  4.548772E+04
       412   8 -1.286121E+05 -1.293261E+06 -2.895948E+05  8.832082E+04  2.382518E+04  1.410103E+05
       412   9 -4.573555E+05 -1.507700E+06 -5.163819E+05  2.071400E+05  8.462798E+03  2.365117E+05
       412  10  1.186088E+05 -3.113856E+05 -1.901474E+03  1.375453E+05 -1.375951E-10 -2.304993E-10
       412  11  1.655026E+05 -9.957696E+04 -1.322951E+04  1.873976E+04  6.541832E-11  7.848552E-10
       412  12 -7.369863E+04  3.230637E+04 -1.389504E+05 -1.089139E+04  2.560338E-10 -2.742547E-11
       412  13  1.359625E+04 -7.378233E+05 -9.992472E+04  9.809317E+04  1.627830E-10 -2.434179E-11
       412  14  1.845249E+04 -6.965960E+05 -1.514198E+05  5.354582E+04  1.142580E-10 -1.044049E-10
       412  15 -2.655350E+05 -7.380103E+05 -3.277003E+05  9.819136E+04  1.274243E-10 -1.046560E-10
       412  16 -9.142317E+04 -1.164089E+06 -1.979592E+05  5.866838E+04 -1.949769E-10  1.706234E-10
       412  17 -1.286180E+05 -1.293283E+06 -2.896333E+05  8.831811E+04 -2.106618E-10 -3.246694E-11
       412  18 -4.573706E+05 -1.507761E+06 -5.164874E+05  2.071384E+05  1.200953E-10 -2.998911E-12
       412  19  1.186104E+05 -3.113806E+05 -1.892147E+03  1.375463E+05 -1.854033E+04 -6.795586E+04
       412  20  1.655080E+05 -9.955756E+04 -1.319476E+04  1.874232E+04 -2.380297E+04 -1.338558E+05
       412  21 -7.368784E+04  3.234925E+04 -1.388752E+05 -1.089004E+04 -8.374445E+03 -1.997832E+05
       412  22  1.359748E+04 -7.378197E+05 -9.991802E+04  9.809402E+04 -1.852814E+04 -5.671796E+04
       412  23  1.845818E+04 -6.965755E+05 -1.513832E+05  5.354846E+04 -2.381387E+04 -1.374348E+05
       412  24 -2.655221E+05 -7.379591E+05 -3.276107E+05  9.819284E+04 -8.415370E+03 -2.181589E+05
       412  25 -9.142225E+04 -1.164087E+06 -1.979546E+05  5.866905E+04 -1.851737E+04 -4.548772E+04
       412  26 -1.286121E+05 -1.293261E+06 -2.895948E+05  8.832082E+04 -2.382518E+04 -1.410103E+05
       412  27 -4.573555E+05 -1.507700E+06 -5.163819E+05  2.071400E+05 -8.462798E+03 -2.365117E+05
       413   1  1.509424E+06  1.190965E+06  3.895339E+05  1.030872E+06  2.142660E+05  1.609167E+05
       413   2  1.436408E+06  8.626713E+05  1.713875E+05  1.141503E+06  1.388267E+05  1.050789E+05
       413   3  1.545453E+06  7.953401E+05  1.003846E+05  1.135293E+06  6.343792E+04  4.917155E+04
       413   4  1.641899E+06  1.070209E+06  3.917893E+05  9.975646E+05  2.146879E+05  1.611626E+05
       413   5  1.490592E+06  8.322906E+05  1.757741E+05  1.136657E+06  1.391557E+05  1.053109E+05
       413   6  1.521344E+06  8.553118E+05  1.069541E+05  1.158914E+06  6.368951E+04  4.936767E+04
       413   7  1.774424E+06  9.495047E+05  3.940537E+05  9.642437E+05  2.151100E+05  1.614084E+05
       413   8  1.544781E+06  8.019143E+05  1.801616E+05  1.131810E+06  1.394847E+05  1.055428E+05
       413   9  1.497239E+06  9.152923E+05  1.135248E+05  1.182534E+06  6.394107E+04  4.956383E+04
       413  10  1.509368E+06  1.190925E+06  3.893995E+05  1.030844E+06 -6.999835E-11 -1.551001E-10
       413  11  1.436385E+06  8.626544E+05  1.713307E+05  1.141491E+06  4.583098E-10 -8.283075E-11
       413  12  1.545448E+06  7.953365E+05  1.003725E+05  1.135290E+06 -2.219736E-10  1.967915E-11
       413  13  1.641843E+06  1.070169E+06  3.916544E+05  9.975368E+05  4.328791E-10  9.426733E-11
       413  14  1.490568E+06  8.322736E+05  1.757170E+05  1.136646E+06  1.106906E-09  3.649871E-10
       413  15  1.521339E+06  8.553081E+05  1.069420E+05  1.158911E+06  2.950211E-10 -3.393969E-11
       413  16  1.774367E+06  9.494644E+05  3.939183E+05  9.642158E+05 -2.461705E-10  1.497546E-10
       413  17  1.544757E+06  8.018972E+05  1.801043E+05  1.131798E+06 -1.217189E-10  2.254653E-10
       413  18  1.497234E+06  9.152885E+05  1.135126E+05  1.182532E+06  4.753168E-10 -1.677318E-10
       413  19  1.509424E+06  1.190965E+06  3.895339E+05  1.030872E+06 -2.142660E+05 -1.609167E+05
       413  20  1.436408E+06  8.626713E+05  1.713875E+05  1.141503E+06 -1.388267E+05 -1.050789E+05
       413  21  1.545453E+06  7.953401E+05  1.003846E+05  1.135293E+06 -6.343792E+04 -4.917155E+04
       413  22  1.641899E+06  1.070209E+06  3.917893E+05  9.975646E+05 -2.146879E+05 -1.611626E+05
       413  23  1.490592E+06  8.322906E+05  1.757741E+05  1.136657E+06 -1.391557E+05 -1.053109E+05
       413  24  1.521344E+06  8.553118E+05  1.069541E+05  1.158914E+06 -6.368951E+04 -4.936767E+04
       413  25  1.774424E+06  9.495047E+05  3.940537E+05  9.642437E+05 -2.151100E+05 -1.614084E+05
       413  26  1.544781E+06  8.019143E+05  1.801616E+05  1.131810E+06 -1.394847E+05 -1.055428E+05
       413  27  1.497239E+06  9.152923E+05  1.135248E+05  1.182534E+06 -6.394107E+04 -4.956383E+04
       414   1  1.487895E+06  8.627444E+05  7.799114E+04  1.118116E+06  5.050770E+04  3.982120E+04
       414   2  1.476592E+06  8.310915E+05  3.686193E+04  1.122152E+06  3.084414E+04  2.569583E+04
       414   3  1.476120E+06  8.249034E+05  1.808261E+04  1.119596E+06  1.118138E+04  1.157065E+04
       414   4  1.523514E+06  8.746448E+05  8.676704E+04  1.129645E+06  5.079428E+04  4.003492E+04
       414   5  1.513610E+06  8.539026E+05  4.787359E+04  1.138962E+06  3.112889E+04  2.590906E+04
       414   6  1.514537E+06  8.586246E+05  3.133066E+04  1.141688E+06  1.146423E+04  1.178273E+04
       414   7  1.559134E+06  8.865454E+05  9.554289E+04  1.141175E+06  5.108087E+04  4.024865E+04
       414   8  1.550630E+06  8.767143E+05  5.888514E+04  1.155774E+06  3.141367E+04  2.612230E+04
       414   9  1.552955E+06  8.923474E+05  4.457861E+04  1.163783E+06  1.174710E+04  1.199483E+04
       414  10  1.487892E+06  8.627421E+05  7.798340E+04  1.118115E+06 -8.097888E-10  7.175131E-11
       414  11  1.476591E+06  8.310906E+05  3.685891E+04  1.122151E+06  7.384796E-11 -1.169374E-10
       414  12  1.476120E+06  8.249032E+05  1.808212E+04  1.119596E+06  1.457710E-09  2.549877E-10
       414  13  1.523510E+06  8.746424E+05  8.675921E+04  1.129644E+06 -3.309161E-10 -2.287901E-10
       414  14  1.513609E+06  8.539016E+05  4.787051E+04  1.138962E+06  1.126135E-09  3.121324E-10
       414  15  1.514537E+06  8.586244E+05  3.133015E+04  1.141688E+06  1.327729E-10  1.086575E-10
       414  16  1.559131E+06  8.865430E+05  9.553497E+04  1.141173E+06  1.126596E-09 -5.398985E-12
       414  17  1.550628E+06  8.767133E+05  5.888201E+04  1.155773E+06 -6.805469E-10  1.450934E-10
       414  18  1.552955E+06  8.923472E+05  4.457808E+04  1.163782E+06 -4.954086E-10 -2.609778E-10
       414  19  1.487895E+06  8.627444E+05  7.799114E+04  1.118116E+06 -5.050770E+04 -3.982120E+04
       414  20  1.476592E+06  8.310915E+05  3.686193E+04  1.122152E+06 -3.084414E+04 -2.569583E+04
       414  21  1.476120E+06  8.249034E+05  1.808261E+04  1.119596E+06 -1.118138E+04 -1.157065E+04
       414  22  1.523514E+06  8.746448E+05  8.676704E+04  1.129645E+06 -5.079428E+04 -4.003492E+04
       414  23  1.513610E+06  8.539026E+05  4.787359E+04  1.138962E+06 -3.112889E+04 -2.590906E+04
       414  24  1.514537E+06  8.586246E+05  3.133066E+04  1.141688E+06 -1.146423E+04 -1.178273E+04
       414  25  1.559134E+06  8.865454E+05  9.554289E+04  1.141175E+06 -5.108087E+04 -4.024865E+04
       414  26  1.550630E+06  8.767143E+05  5.888514E+04  1.155774E+06 -3.141367E+04 -2.612230E+04
       414  27  1.552955E+06  8.923474E+05  4.457861E+04  1.163783E+06 -1.174710E+04 -1.199483E+04
       415   1  1.464742E+06  8.255693E+05  1.145760E+04  1.115285E+06  6.872390E+03  8.700871E+03
       415   2  1.458871E+06  8.154122E+05  5.139289E+03  1.111028E+06 -2.574080E+03  2.245609E+03
       415   3  1.450941E+06  8.139296E+05  7.269302E+03  1.107512E+06 -1.201953E+04 -4.210302E+03
       415   4  1.514480E+06  8.598958E+05  2.695674E+04  1.139566E+06  7.161912E+03  8.917801E+03
       415   5  1.515520E+06  8.555768E+05  2.295824E+04  1.139181E+06 -2.286156E+03  2.461327E+03
       415   6  1.514500E+06  8.599321E+05  2.740881E+04  1.139538E+06 -1.173337E+04 -3.995948E+03
       415   7  1.564221E+06  8.942233E+05  4.245545E+04  1.163848E+06  7.451463E+03  9.134752E+03
       415   8  1.572172E+06  8.957430E+05  4.077671E+04  1.167337E+06 -1.998197E+03  2.677071E+03
       415   9  1.578064E+06  9.059368E+05  4.754780E+04  1.171567E+06 -1.144718E+04 -3.781563E+03
       415  10  1.464742E+06  8.255692E+05  1.145737E+04  1.115285E+06  1.038992E-09  6.414083E-10
       415  11  1.458871E+06  8.154122E+05  5.139267E+03  1.111028E+06 -3.227591E-09 -1.173494E-09
       415  12  1.450941E+06  8.139296E+05  7.268998E+03  1.107512E+06 -2.486857E-09 -1.877609E-09
       415  13  1.514480E+06  8.598957E+05  2.695650E+04  1.139566E+06 -1.131836E-09 -6.946451E-10
       415  14  1.515520E+06  8.555768E+05  2.295822E+04  1.139181E+06 -3.924504E-09 -1.604680E-09
       415  15  1.514500E+06  8.599320E+05  2.740852E+04  1.139538E+06 -8.527678E-10 -5.755300E-10
       415  16  1.564221E+06  8.942231E+05  4.245519E+04  1.163848E+06 -3.197477E-09 -1.987358E-09
       415  17  1.572172E+06  8.957430E+05  4.077669E+04  1.167337E+06 -2.626635E-09 -1.984865E-09
       415  18  1.578064E+06  9.059368E+05  4.754753E+04  1.171567E+06  8.428004E-10  7.698355E-10
       415  19  1.464742E+06  8.255693E+05  1.145760E+04  1.115285E+06 -6.872390E+03 -8.700871E+03
       415  20  1.458871E+06  8.154122E+05  5.139289E+03  1.111028E+06  2.574080E+03 -2.245609E+03
       415  21  1.450941E+06  8.139296E+05  7.269302E+03  1.107512E+06  1.201953E+04  4.210302E+03
       415  22  1.514480E+06  8.598958E+05  2.695674E+04  1.139566E+06 -7.161912E+03 -8.917801E+03
       415  23  1.515520E+06  8.555768E+05  2.295824E+04  1.139181E+06  2.286156E+03 -2.461327E+03
       415  24  1.514500E+06  8.599321E+05  2.740881E+04  1.139538E+06  1.173337E+04  3.995948E+03
       415  25  1.564221E+06  8.942233E+05  4.245545E+04  1.163848E+06 -7.451463E+03 -9.134752E+03
       415  26  1.572172E+06  8.957430E+05  4.077671E+04  1.167337E+06  1.998197E+03 -2.677071E+03
       415  27  1.578064E+06  9.059368E+05  4.754780E+04  1.171567E+06  1.144718E+04  3.781563E+03
       416   1  1.439132E+06  8.119925E+05  9.543451E+03  1.107430E+06 -1.647484E+04 -7.145694E+03
       416   2  1.436477E+06  7.954499E+05  2.432851E+04  1.098928E+06 -3.660382E+04 -2.160607E+04
       416   3  1.444713E+06  8.054464E+05  6.204974E+04  1.083699E+06 -5.662691E+04 -3.620824E+04
       416   4  1.514468E+06  8.587119E+05  3.203151E+04  1.141773E+06 -1.613793E+04 -6.893173E+03
       416   5  1.513647E+06  8.537091E+05  4.926281E+04  1.138916E+06 -3.637246E+04 -2.143299E+04
       416   6  1.523737E+06  8.752658E+05  8.951891E+04  1.129333E+06 -5.650099E+04 -3.611513E+04
       416   7  1.589811E+06  9.054338E+05  5.451912E+04  1.176120E+06 -1.580096E+04 -6.640615E+03
       416   8  1.590823E+06  9.119722E+05  7.419633E+04  1.178910E+06 -3.614106E+04 -2.125988E+04
       416   9  1.602766E+06  9.450906E+05  1.169869E+05  1.174973E+06 -5.637506E+04 -3.602200E+04
       416  10  1.439132E+06  8.119924E+05  9.542847E+03  1.107430E+06  1.873497E-10 -5.907257E-10
       416  11  1.436476E+06  7.954490E+05  2.432513E+04  1.098928E+06 -6.058430E-10 -1.092845E-09
       416  12  1.444709E+06  8.054442E+05  6.204128E+04  1.083697E+06 -1.785982E-10  3.491673E-11
       416  13  1.514468E+06  8.587118E+05  3.203093E+04  1.141773E+06 -4.403709E-10 -1.817358E-10
       416  14  1.513645E+06  8.537083E+05  4.925947E+04  1.138916E+06 -1.030122E-09 -2.300235E-10
       416  15  1.523733E+06  8.752636E+05  8.951049E+04  1.129331E+06  9.612023E-10 -5.675293E-10
       416  16  1.589811E+06  9.054336E+05  5.451857E+04  1.176120E+06 -7.466216E-11  3.540640E-10
       416  17  1.590821E+06  9.119713E+05  7.419304E+04  1.178909E+06  4.878847E-10 -1.154257E-10
       416  18  1.602763E+06  9.450884E+05  1.169786E+05  1.174971E+06  1.012699E-09 -7.166545E-10
       416  19  1.439132E+06  8.119925E+05  9.543451E+03  1.107430E+06  1.647484E+04  7.145694E+03
       416  20  1.436477E+06  7.954499E+05  2.432851E+04  1.098928E+06  3.660382E+04  2.160607E+04
       416  21  1.444713E+06  8.054464E+05  6.204974E+04  1.083699E+06  5.662691E+04  3.620824E+04
       416  22  1.514468E+06  8.587119E+05  3.203151E+04  1.141773E+06  1.613793E+04  6.893173E+03
       416  23  1.513647E+06  8.537091E+05  4.926281E+04  1.138916E+06  3.637246E+04  2.143299E+04
       416  24  1.523737E+06  8.752658E+05  8.951891E+04  1.129333E+06  5.650099E+04  3.611513E+04
       416  25  1.589811E+06  9.054338E+05  5.451912E+04  1.176120E+06  1.580096E+04  6.640615E+03
       416  26  1.590823E+06  9.119722E+05  7.419633E+04  1.178910E+06  3.614106E+04  2.125988E+04
       416  27  1.602766E+06  9.450906E+05  1.169869E+05  1.174973E+06  5.637506E+04  3.602200E+04
       417   1  1.380022E+06  8.346959E+05  8.063321E+04  1.126084E+06 -7.117969E+04 -4.615918E+04
       417   2  1.428433E+06  7.166397E+05  1.489283E+05  1.073125E+06 -1.466012E+05 -1.026619E+05
       417   3  1.663788E+06  8.683833E+05  3.673613E+05  8.996772E+05 -2.197497E+05 -1.621935E+05
       417   4  1.521438E+06  8.553564E+05  1.103986E+05  1.159584E+06 -7.010629E+04 -4.534700E+04
       417   5  1.489957E+06  8.312877E+05  1.815242E+05  1.136508E+06 -1.477355E+05 -1.035272E+05
       417   6  1.645840E+06  1.077444E+06  4.046805E+05  9.929597E+05 -2.230775E+05 -1.647598E+05
       417   7  1.662880E+06  8.760194E+05  1.401641E+05  1.193086E+06 -6.903254E+04 -4.453481E+04
       417   8  1.551489E+06  9.459574E+05  2.141199E+05  1.199901E+06 -1.488700E+05 -1.043928E+05
       417   9  1.627923E+06  1.286603E+06  4.420081E+05  1.086249E+06 -2.264052E+05 -1.673281E+05
       417  10  1.380016E+06  8.346923E+05  8.061974E+04  1.126081E+06  6.122484E-10  6.719289E-10
       417  11  1.428407E+06  7.166227E+05  1.488683E+05  1.073113E+06  1.517932E-09 -2.315738E-10
       417  12  1.663729E+06  8.683422E+05  3.672216E+05  8.996486E+05  6.776172E-11 -4.206860E-10
       417  13  1.521432E+06  8.553529E+05  1.103855E+05  1.159581E+06  6.492671E-11 -3.868439E-10
       417  14  1.489931E+06  8.312704E+05  1.814633E+05  1.136495E+06  1.347720E-09 -7.853906E-10
       417  15  1.645780E+06  1.077402E+06  4.045365E+05  9.929302E+05  7.264282E-10  1.056631E-10
       417  16  1.662874E+06  8.760160E+05  1.401514E+05  1.193084E+06  6.365296E-10 -1.182597E-09
       417  17  1.551463E+06  9.459398E+05  2.140580E+05  1.199889E+06 -6.148806E-10 -6.153519E-10
       417  18  1.627861E+06  1.286560E+06  4.418598E+05  1.086219E+06  2.829350E-10  3.802515E-11
       417  19  1.380022E+06  8.346959E+05  8.063321E+04  1.126084E+06  7.117969E+04  4.615918E+04
       417  20  1.428433E+06  7.166397E+05  1.489283E+05  1.073125E+06  1.466012E+05  1.026619E+05
       417  21  1.663788E+06  8.683833E+05  3.673613E+05  8.996772E+05  2.197497E+05  1.621935E+05
       417  22  1.521438E+06  8.553564E+05  1.103986E+05  1.159584E+06  7.010629E+04  4.534700E+04
       417  23  1.489957E+06  8.312877E+05  1.815242E+05  1.136508E+06  1.477355E+05  1.035272E+05
       417  24  1.645840E+06  1.077444E+06  4.046805E+05  9.929597E+05  2.230775E+05  1.647598E+05
       417  25  1.662880E+06  8.760194E+05  1.401641E+05  1.193086E+06  6.903254E+04  4.453481E+04
       417  26  1.551489E+06  9.459574E+05  2.141199E+05  1.199901E+06  1.488700E+05  1.043928E+05
       417  27  1.627923E+06  1.286603E+06  4.420081E+05  1.086249E+06  2.264052E+05  1.673281E+05
       418   1  5.492954E+04  1.090140E+04 -5.633407E+03 -9.276135E+03 -4.725136E+04 -3.633403E+03
       418   2  3.346760E+04  7.270450E+04  2.766109E+04  1.152170E+03 -3.348788E+04 -1.115678E+04
       418   3 -7.319966E+03  6.412734E+04  3.441256E+04  2.754075E+04 -1.972143E+04 -1.083572E+04
       418   4 -2.535250E+05 -6.591276E+04 -8.104761E+04  1.785157E+04 -5.546820E+04 -3.631617E+03
       418   5 -2.433610E+05  4.529174E+03 -3.632006E+04  9.885707E+03 -3.606526E+04 -1.115663E+04
       418   6 -2.535126E+05  3.593288E+03 -2.206197E+04  1.788077E+04 -1.665837E+04 -1.083647E+04
       418   7 -5.618910E+05 -1.427312E+05 -1.564681E+05  4.496577E+04 -6.368097E+04 -3.630550E+03
       418   8 -5.201185E+05 -6.365124E+04 -1.003063E+05  1.861533E+04 -3.864150E+04 -1.115656E+04
       418   9 -4.996490E+05 -5.694464E+04 -7.854041E+04  8.224666E+03 -1.359650E+04 -1.083732E+04
       418  10  5.492714E+04  1.090079E+04 -5.637627E+03 -9.276273E+03 -4.750651E-10  5.315113E-10
       418  11  3.346637E+04  7.270406E+04  2.765875E+04  1.151869E+03  4.236957E-10  5.377635E-12
       418  12 -7.320415E+03  6.412711E+04  3.441161E+04  2.754058E+04  9.220863E-10  2.358754E-10
       418  13 -2.535283E+05 -6.591360E+04 -8.105341E+04  1.785141E+04 -6.298374E-10 -2.964209E-10
       418  14 -2.433624E+05  4.528691E+03 -3.632274E+04  9.885383E+03  1.287265E-10  1.328568E-10
       418  15 -2.535130E+05  3.593088E+03 -2.206271E+04  1.788063E+04 -4.293549E-10  3.088129E-10
       418  16 -5.618954E+05 -1.427323E+05 -1.564758E+05  4.496559E+04  5.736621E-10 -3.228423E-10
       418  17 -5.201202E+05 -6.365177E+04 -1.003093E+05  1.861498E+04 -4.847647E-10  8.752842E-12
       418  18 -4.996492E+05 -5.694481E+04 -7.854098E+04  8.224547E+03 -1.042574E-09 -4.643624E-10
       418  19  5.492954E+04  1.090140E+04 -5.633407E+03 -9.276135E+03  4.725136E+04  3.633403E+03
       418  20  3.346760E+04  7.270450E+04  2.766109E+04  1.152170E+03  3.348788E+04  1.115678E+04
       418  21 -7.319966E+03  6.412734E+04  3.441256E+04  2.754075E+04  1.972143E+04  1.083572E+04
       418  22 -2.535250E+05 -6.591276E+04 -8.104761E+04  1.785157E+04  5.546820E+04  3.631617E+03
       418  23 -2.433610E+05  4.529174E+03 -3.632006E+04  9.885707E+03  3.606526E+04  1.115663E+04
       418  24 -2.535126E+05  3.593288E+03 -2.206197E+04  1.788077E+04  1.665837E+04  1.083647E+04
       418  25 -5.618910E+05 -1.427312E+05 -1.564681E+05  4.496577E+04  6.368097E+04  3.630550E+03
       418  26 -5.201185E+05 -6.365124E+04 -1.003063E+05  1.861533E+04  3.864150E+04  1.115656E+04
       418  27 -4.996490E+05 -5.694464E+04 -7.854041E+04  8.224666E+03  1.359650E+04  1.083732E+04
       419   1 -3.321421E+04  4.827750E+04  3.196166E+04  1.623129E+04 -1.403579E+04 -9.023965E+03
       419   2 -6.343343E+04  4.592370E+04  3.276036E+04  9.347930E+03 -9.369568E+03 -7.934322E+03
       419   3 -9.561130E+04  3.806108E+04  2.914951E+04  1.879743E+04 -4.703904E+03 -6.457180E+03
       419   4 -2.494427E+05 -4.942294E+03 -1.787283E+04  1.795508E+04 -1.338705E+04 -9.024346E+03
       419   5 -2.484364E+05  4.091371E+02 -9.778555E+03  9.788845E+03 -8.443436E+03 -7.934604E+03
       419   6 -2.494386E+05  2.025849E+02 -6.287673E+03  1.795584E+04 -3.500145E+03 -6.457327E+03
       419   7 -4.656280E+05 -5.816535E+04 -6.771042E+04  1.967826E+04 -1.273854E+04 -9.024723E+03
       419   8 -4.334077E+05 -4.510782E+04 -5.231974E+04  1.022963E+04 -7.517577E+03 -7.934885E+03
       419   9 -4.032441E+05 -3.765756E+04 -4.172642E+04  1.711446E+04 -2.296681E+03 -6.457478E+03
       419  10 -3.321444E+04  4.827736E+04  3.196114E+04  1.623119E+04 -6.703267E-11  1.387314E-10
       419  11 -6.343354E+04  4.592361E+04  3.276008E+04  9.347871E+03 -3.739893E-10  1.338663E-10
       419  12 -9.561134E+04  3.806103E+04  2.914939E+04  1.879741E+04  1.792897E-10  2.425802E-10
       419  13 -2.494429E+05 -4.942429E+03 -1.787332E+04  1.795498E+04  6.334704E-11 -2.804443E-10
       419  14 -2.484365E+05  4.090503E+02 -9.778808E+03  9.788791E+03  4.836806E-10  2.448837E-11
       419  15 -2.494387E+05  2.025368E+02 -6.287774E+03  1.795582E+04  3.123973E-10  1.421985E-10
       419  16 -4.656282E+05 -5.816548E+04 -6.771088E+04  1.967817E+04  2.507470E-10 -2.227987E-10
       419  17 -4.334078E+05 -4.510790E+04 -5.231996E+04  1.022958E+04 -3.136605E-10  1.850926E-10
       419  18 -4.032441E+05 -3.765761E+04 -4.172651E+04  1.711445E+04 -1.451352E-10  4.941238E-11
       419  19 -3.321421E+04  4.827750E+04  3.196166E+04  1.623129E+04  1.403579E+04  9.023965E+03
       419  20 -6.343343E+04  4.592370E+04  3.276036E+04  9.347930E+03  9.369568E+03  7.934322E+03
       419  21 -9.561130E+04  3.806108E+04  2.914951E+04  1.879743E+04  4.703904E+03  6.457180E+03
       419  22 -2.494427E+05 -4.942294E+03 -1.787283E+04  1.795508E+04  1.338705E+04  9.024346E+03
       419  23 -2.484364E+05  4.091371E+02 -9.778555E+03  9.788845E+03  8.443436E+03  7.934604E+03
       419  24 -2.494386E+05  2.025849E+02 -6.287673E+03  1.795584E+04  3.500145E+03  6.457327E+03
       419  25 -4.656280E+05 -5.816535E+04 -6.771042E+04  1.967826E+04  1.273854E+04  9.024723E+03
       419  26 -4.334077E+05 -4.510782E+04 -5.231974E+04  1.022963E+04  7.517577E+03  7.934885E+03
       419  27 -4.032441E+05 -3.765756E+04 -4.172642E+04  1.711446E+04  2.296681E+03  6.457478E+03
       420   1 -1.252529E+05  3.016819E+04  2.308306E+04  1.775783E+04 -3.582151E+03 -5.507671E+03
       420   2 -1.561916E+05  2.291563E+04  1.700393E+04  9.894518E+03 -1.409305E+03 -3.994872E+03
       420   3 -1.878054E+05  1.407113E+04  9.113005E+03  1.841888E+04  7.631814E+02 -2.517334E+03
       420   4 -2.491397E+05 -2.934582E+02 -5.313294E+03  1.796776E+04 -2.480086E+03 -5.507750E+03
       420   5 -2.488029E+05  1.321934E+02 -4.281491E+03  9.773856E+03 -3.329988E+02 -3.994879E+03
       420   6 -2.491382E+05 -1.029840E+03 -5.043896E+03  1.796779E+04  1.813835E+03 -2.517271E+03
       420   7 -3.730122E+05 -3.075617E+04 -3.371065E+04  1.817765E+04 -1.378239E+03 -5.507828E+03
       420   8 -3.414062E+05 -2.265185E+04 -2.556748E+04  9.653212E+03  7.431478E+02 -3.994887E+03
       420   9 -3.104675E+05 -1.613107E+04 -1.920104E+04  1.751676E+04  2.864386E+03 -2.517209E+03
       420  10 -1.252529E+05  3.016815E+04  2.308298E+04  1.775782E+04  1.360651E-10  1.381908E-10
       420  11 -1.561916E+05  2.291562E+04  1.700390E+04  9.894514E+03  6.146251E-10  1.039034E-10
       420  12 -1.878054E+05  1.407112E+04  9.112992E+03  1.841888E+04  1.104690E-11  4.224038E-11
       420  13 -2.491397E+05 -2.934924E+02 -5.313362E+03  1.796775E+04 -1.939294E-10 -6.668205E-11
       420  14 -2.488029E+05  1.321762E+02 -4.281521E+03  9.773855E+03 -1.371010E-10 -5.373457E-11
       420  15 -2.491382E+05 -1.029848E+03 -5.043914E+03  1.796780E+04  3.992620E-10 -1.814641E-10
       420  16 -3.730122E+05 -3.075621E+04 -3.371071E+04  1.817765E+04 -2.975099E-10 -2.338807E-10
       420  17 -3.414062E+05 -2.265186E+04 -2.556751E+04  9.653214E+03  6.906703E-11 -2.064068E-10
       420  18 -3.104675E+05 -1.613108E+04 -1.920107E+04  1.751676E+04 -3.382371E-12 -4.437519E-11
       420  19 -1.252529E+05  3.016819E+04  2.308306E+04  1.775783E+04  3.582151E+03  5.507671E+03
       420  20 -1.561916E+05  2.291563E+04  1.700393E+04  9.894518E+03  1.409305E+03  3.994872E+03
       420  21 -1.878054E+05  1.407113E+04  9.113005E+03  1.841888E+04 -7.631814E+02  2.517334E+03
       420  22 -2.491397E+05 -2.934582E+02 -5.313294E+03  1.796776E+04  2.480086E+03  5.507750E+03
       420  23 -2.488029E+05  1.321934E+02 -4.281491E+03  9.773856E+03  3.329988E+02  3.994879E+03
       420  24 -2.491382E+05 -1.029840E+03 -5.043896E+03  1.796779E+04 -1.813835E+03  2.517271E+03
       420  25 -3.730122E+05 -3.075617E+04 -3.371065E+04  1.817765E+04  1.378239E+03  5.507828E+03
       420  26 -3.414062E+05 -2.265185E+04 -2.556748E+04  9.653212E+03 -7.431478E+02  3.994887E+03
       420  27 -3.104675E+05 -1.613107E+04 -1.920104E+04  1.751676E+04 -2.864386E+03  2.517209E+03
       421   1 -2.186327E+05  8.450505E+03  1.523512E+03  1.591183E+04  1.312939E+03 -1.484262E+03
       421   2 -2.476800E+05  9.926308E+02 -8.213436E+03  1.165235E+04  6.475439E+03 -1.121527E+02
       421   3 -2.812604E+05 -2.189812E+04 -2.517141E+04  2.375754E+04  1.163781E+04  1.388708E+02
       421   4 -2.499640E+05  7.552261E+02 -5.615498E+03  1.796238E+04  2.703727E+03 -1.484140E+03
       421   5 -2.477683E+05  9.807374E+02 -8.182742E+03  9.780499E+03  7.059223E+03 -1.121244E+02
       421   6 -2.499658E+05 -1.408627E+04 -1.741012E+04  1.796345E+04  1.141484E+04  1.387419E+02
       421   7 -2.812944E+05 -6.940104E+03 -1.275456E+04  2.001282E+04  4.094446E+03 -1.484009E+03
       421   8 -2.478566E+05  9.688575E+02 -8.152044E+03  7.908649E+03  7.643008E+03 -1.120997E+02
       421   9 -2.186702E+05 -6.274359E+03 -9.648889E+03  1.216906E+04  1.119185E+04  1.386172E+02
       421  10 -2.186327E+05  8.450502E+03  1.523505E+03  1.591184E+04 -3.978690E-10  8.179055E-11
       421  11 -2.476801E+05  9.926195E+02 -8.213515E+03  1.165235E+04 -1.519754E-10 -3.802709E-11
       421  12 -2.812605E+05 -2.189816E+04 -2.517166E+04  2.375753E+04  1.410303E-10 -1.656398E-11
       421  13 -2.499640E+05  7.552218E+02 -5.615516E+03  1.796238E+04  2.925579E-10  1.848011E-11
       421  14 -2.477684E+05  9.807240E+02 -8.182836E+03  9.780499E+03 -1.218799E-10  1.008756E-11
       421  15 -2.499659E+05 -1.408630E+04 -1.741037E+04  1.796344E+04  5.590130E-10  1.742980E-10
       421  16 -2.812944E+05 -6.940111E+03 -1.275460E+04  2.001282E+04  4.804070E-10  1.229934E-10
       421  17 -2.478567E+05  9.688418E+02 -8.152154E+03  7.908649E+03  5.678090E-12  9.134310E-11
       421  18 -2.186703E+05 -6.274393E+03 -9.649125E+03  1.216906E+04 -1.617614E-10  7.942624E-11
       421  19 -2.186327E+05  8.450505E+03  1.523512E+03  1.591183E+04 -1.312939E+03  1.484262E+03
       421  20 -2.476800E+05  9.926308E+02 -8.213436E+03  1.165235E+04 -6.475439E+03  1.121527E+02
       421  21 -2.812604E+05 -2.189812E+04 -2.517141E+04  2.375754E+04 -1.163781E+04 -1.388708E+02
       421  22 -2.499640E+05  7.552261E+02 -5.615498E+03  1.796238E+04 -2.703727E+03  1.484140E+03
       421  23 -2.477683E+05  9.807374E+02 -8.182742E+03  9.780499E+03 -7.059223E+03  1.121244E+02
       421  24 -2.499658E+05 -1.408627E+04 -1.741012E+04  1.796345E+04 -1.141484E+04 -1.387419E+02
       421  25 -2.812944E+05 -6.940104E+03 -1.275456E+04  2.001282E+04 -4.094446E+03  1.484009E+03
       421  26 -2.478566E+05  9.688575E+02 -8.152044E+03  7.908649E+03 -7.643008E+03  1.120997E+02
       421  27 -2.186702E+05 -6.274359E+03 -9.648889E+03  1.216906E+04 -1.119185E+04 -1.386172E+02
       422   1 -3.492575E+05 -1.199331E+06 -3.357493E+05  1.997903E+05 -1.641232E+04 -7.573949E+03
       422   2 -2.882295E+05 -8.285538E+05 -2.508920E+05  1.120541E+05 -4.596891E+04  1.278123E+04
       422   3 -1.953971E+05 -4.521616E+05 -1.713090E+05  2.184573E+05 -3.400824E+04  3.309890E+04
       422   4  3.361101E+04  3.373183E+05  4.093689E+04  2.146842E+05 -1.637043E+04  2.866523E+04
       422   5 -2.260340E+03  3.321106E+05  1.781438E+04  1.176496E+05 -4.595333E+04  1.915772E+04
       422   6 -1.165084E+03  3.375523E+05  1.015940E+04  2.147267E+05 -3.405405E+04  9.600363E+03
       422   7  4.163060E+05  1.876124E+06  4.174550E+05  2.296142E+05 -1.632687E+04  6.499399E+04
       422   8  2.836143E+05  1.494021E+06  2.864308E+05  1.232551E+05 -4.593766E+04  2.554603E+04
       422   9  1.930237E+05  1.127845E+06  1.915887E+05  2.109910E+05 -3.409955E+04 -1.392784E+04
       422  10 -3.492578E+05 -1.199332E+06 -3.357499E+05  1.997902E+05 -1.070752E-10 -4.298343E-10
       422  11 -2.882318E+05 -8.285546E+05 -2.508963E+05  1.120546E+05  2.390626E-10  2.229034E-09
       422  12 -1.953986E+05 -4.521631E+05 -1.713132E+05  2.184582E+05 -4.790649E-10 -1.570457E-09
       422  13  3.361050E+04  3.373173E+05  4.093484E+04  2.146846E+05 -7.190373E-10  7.317123E-10
       422  14 -2.262707E+03  3.321097E+05  1.780972E+04  1.176503E+05  9.132660E-10  1.550017E-09
       422  15 -1.166354E+03  3.375519E+05  1.015705E+04  2.147270E+05 -5.084929E-11  4.843877E-09
       422  16  4.163045E+05  1.876119E+06  4.174466E+05  2.296150E+05 -3.078452E-10  4.338866E-10
       422  17  2.836118E+05  1.494019E+06  2.864256E+05  1.232560E+05 -1.268096E-09 -1.737556E-09
       422  18  1.930224E+05  1.127844E+06  1.915862E+05  2.109906E+05  8.934784E-10 -3.637301E-10
       422  19 -3.492575E+05 -1.199331E+06 -3.357493E+05  1.997903E+05  1.641232E+04  7.573949E+03
       422  20 -2.882295E+05 -8.285538E+05 -2.508920E+05  1.120541E+05  4.596891E+04 -1.278123E+04
       422  21 -1.953971E+05 -4.521616E+05 -1.713090E+05  2.184573E+05  3.400824E+04 -3.309890E+04
       422  22  3.361101E+04  3.373183E+05  4.093689E+04  2.146842E+05  1.637043E+04 -2.866523E+04
       422  23 -2.260340E+03  3.321106E+05  1.781438E+04  1.176496E+05  4.595333E+04 -1.915772E+04
       422  24 -1.165084E+03  3.375523E+05  1.015940E+04  2.147267E+05  3.405405E+04 -9.600363E+03
       422  25  4.163060E+05  1.876124E+06  4.174550E+05  2.296142E+05  1.632687E+04 -6.499399E+04
       422  26  2.836143E+05  1.494021E+06  2.864308E+05  1.232551E+05  4.593766E+04 -2.554603E+04
       422  27  1.930237E+05  1.127845E+06  1.915887E+05  2.109910E+05  3.409955E+04  1.392784E+04
       423   1 -1.029129E+05 -9.672878E+04 -9.180155E+04  2.136878E+05 -1.822149E+04  1.938571E+04
       423   2 -1.412600E+04  2.763401E+05 -1.117722E+04  1.169381E+05 -2.489118E+03  1.825704E+04
       423   3  7.667447E+04  6.492853E+05  7.046490E+04  2.154535E+05  1.338652E+04  1.712589E+04
       423   4  3.359432E+03  3.352392E+05  7.616768E+03  2.149658E+05 -1.824559E+04  8.109818E+03
       423   5  3.897675E+02  3.353639E+05  2.388321E+03  1.173382E+05 -2.513718E+03  6.873154E+03
       423   6 -5.394608E+02  3.352520E+05 -1.743138E+03  2.149741E+05  1.336095E+04  5.634667E+03
       423   7  1.096188E+05  7.673801E+05  1.070232E+05  2.162445E+05 -1.826973E+04 -3.173856E+03
       423   8  1.490536E+04  3.943912E+05  1.595412E+04  1.177383E+05 -2.538331E+03 -4.511802E+03
       423   9 -7.776020E+04  2.131014E+04 -7.395720E+04  2.144950E+05  1.333538E+04 -5.850799E+03
       423  10 -1.029133E+05 -9.672928E+04 -9.180288E+04  2.136881E+05  1.046533E-10 -1.198500E-09
       423  11 -1.412609E+04  2.763397E+05 -1.117786E+04  1.169381E+05 -7.772694E-10  2.988263E-09
       423  12  7.667420E+04  6.492850E+05  7.046401E+04  2.154533E+05  5.396165E-10 -1.636302E-09
       423  13  3.359057E+03  3.352390E+05  7.616018E+03  2.149659E+05  1.803675E-10  1.984434E-09
       423  14  3.897480E+02  3.353638E+05  2.388220E+03  1.173382E+05 -1.975598E-09  2.027831E-09
       423  15 -5.396610E+02  3.352519E+05 -1.743533E+03  2.149741E+05 -1.752606E-09  5.325348E-09
       423  16  1.096184E+05  7.673800E+05  1.070226E+05  2.162444E+05  9.055887E-10  1.191726E-09
       423  17  1.490534E+04  3.943911E+05  1.595407E+04  1.177383E+05  6.716361E-10 -1.895854E-09
       423  18 -7.776040E+04  2.131005E+04 -7.395760E+04  2.144950E+05  3.202672E-10 -6.140759E-10
       423  19 -1.029129E+05 -9.672878E+04 -9.180155E+04  2.136878E+05  1.822149E+04 -1.938571E+04
       423  20 -1.412600E+04  2.763401E+05 -1.117722E+04  1.169381E+05  2.489118E+03 -1.825704E+04
       423  21  7.667447E+04  6.492853E+05  7.046490E+04  2.154535E+05 -1.338652E+04 -1.712589E+04
       423  22  3.359432E+03  3.352392E+05  7.616768E+03  2.149658E+05  1.824559E+04 -8.109818E+03
       423  23  3.897675E+02  3.353639E+05  2.388321E+03  1.173382E+05  2.513718E+03 -6.873154E+03
       423  24 -5.394608E+02  3.352520E+05 -1.743138E+03  2.149741E+05 -1.336095E+04 -5.634667E+03
       423  25  1.096188E+05  7.673801E+05  1.070232E+05  2.162445E+05  1.826973E+04  3.173856E+03
       423  26  1.490536E+04  3.943912E+05  1.595412E+04  1.177383E+05  2.538331E+03  4.511802E+03
       423  27 -7.776020E+04  2.131014E+04 -7.395720E+04  2.144950E+05 -1.333538E+04  5.850799E+03
       424   1  1.670814E+05  1.006187E+06  1.509134E+05  2.182113E+05  2.889913E+04  2.879547E+04
       424   2  2.580408E+05  1.380163E+06  2.331024E+05  1.166972E+05  4.118271E+04  5.394807E+03
       424   3  3.370036E+05  1.754272E+06  3.274676E+05  2.093561E+05  1.487555E+04 -1.796685E+04
       424   4  1.890186E+03  3.341456E+05 -3.452952E+03  2.147264E+05  2.885225E+04  5.983871E+03
       424   5  1.242643E+03  3.364565E+05 -8.261734E+03  1.176410E+05  4.119566E+04  1.041031E+04
       424   6 -1.623040E+04  3.339436E+05 -2.019567E+04  2.147511E+05  1.491915E+04  1.488934E+04
       424   7 -1.633322E+05 -3.374770E+05 -1.578472E+05  2.112451E+05  2.880559E+04 -1.680327E+04
       424   8 -2.556320E+05 -7.062454E+05 -2.496986E+05  1.185827E+05  4.120864E+04  1.541744E+04
       424   9 -3.696129E+05 -1.084548E+06 -3.680024E+05  2.201330E+05  1.496338E+04  4.767065E+04
       424  10  1.670803E+05  1.006186E+06  1.509103E+05  2.182106E+05  1.651433E-11 -4.710640E-10
       424  11  2.580390E+05  1.380163E+06  2.330992E+05  1.166971E+05 -1.593503E-10  2.038587E-09
       424  12  3.370033E+05  1.754271E+06  3.274666E+05  2.093563E+05  1.276268E-10 -9.148682E-10
       424  13  1.889282E+03  3.341454E+05 -3.454584E+03  2.147263E+05  1.325603E-09  1.981279E-09
       424  14  1.240791E+03  3.364560E+05 -8.265127E+03  1.176406E+05 -7.736758E-10  1.494242E-09
       424  15 -1.623070E+04  3.339433E+05 -2.019650E+04  2.147510E+05  2.832865E-10  2.624732E-09
       424  16 -1.633332E+05 -3.374775E+05 -1.578493E+05  2.112454E+05 -4.207223E-10  3.962721E-10
       424  17 -2.556338E+05 -7.062461E+05 -2.497022E+05  1.185821E+05 -3.848233E-10 -1.220456E-09
       424  18 -3.696137E+05 -1.084551E+06 -3.680071E+05  2.201324E+05  3.205561E-10 -1.567729E-10
       424  19  1.670814E+05  1.006187E+06  1.509134E+05  2.182113E+05 -2.889913E+04 -2.879547E+04
       424  20  2.580408E+05  1.380163E+06  2.331024E+05  1.166972E+05 -4.118271E+04 -5.394807E+03
       424  21  3.370036E+05  1.754272E+06  3.274676E+05  2.093561E+05 -1.487555E+04  1.796685E+04
       424  22  1.890186E+03  3.341456E+05 -3.452952E+03  2.147264E+05 -2.885225E+04 -5.983871E+03
       424  23  1.242643E+03  3.364565E+05 -8.261734E+03  1.176410E+05 -4.119566E+04 -1.041031E+04
       424  24 -1.623040E+04  3.339436E+05 -2.019567E+04  2.147511E+05 -1.491915E+04 -1.488934E+04
       424  25 -1.633322E+05 -3.374770E+05 -1.578472E+05  2.112451E+05 -2.880559E+04  1.680327E+04
       424  26 -2.556320E+05 -7.062454E+05 -2.496986E+05  1.185827E+05 -4.120864E+04 -1.541744E+04
       424  27 -3.696129E+05 -1.084548E+06 -3.680024E+05  2.201330E+05 -1.496338E+04 -4.767065E+04
       425   1  3.350490E+05  2.549095E+05  8.403834E+04  2.151764E+05  2.689519E+04  1.747526E+04
       425   2  3.203494E+05  2.100283E+05  5.622697E+04  2.206546E+05  1.907354E+04  6.048392E+03
       425   3  3.181886E+05  1.994514E+05  4.597429E+04  2.161065E+05  8.557073E+03 -1.780624E+03
       425   4  2.176565E+05  1.493415E+05  4.042719E+04  1.470260E+05  2.302723E+04  1.457645E+04
       425   5  2.054486E+05  1.213899E+05  1.850332E+04  1.603434E+05  1.779913E+04  5.093167E+03
       425   6  2.052204E+05  1.271840E+05  1.189159E+04  1.636332E+05  9.875775E+03 -7.924557E+02
       425   7  1.002795E+05  4.378764E+04 -3.185751E+03  7.889217E+04  1.916029E+04  1.167867E+04
       425   8  9.056231E+04  3.276079E+04 -1.922193E+04  1.000454E+05  1.652506E+04  4.138213E+03
       425   9  9.226605E+04  5.492192E+04 -2.219252E+04  1.111702E+05  1.119415E+04  1.954978E+02
       425  10  3.350481E+05  2.549090E+05  8.403640E+04  2.151760E+05  1.906692E-10 -6.352712E-11
       425  11  3.203490E+05  2.100281E+05  5.622622E+04  2.206545E+05 -3.622094E-11 -6.678028E-10
       425  12  3.181885E+05  1.994514E+05  4.597415E+04  2.161065E+05 -7.897332E-10 -4.685542E-10
       425  13  2.176559E+05  1.493412E+05  4.042579E+04  1.470257E+05 -4.426697E-10 -6.942575E-10
       425  14  2.054483E+05  1.213898E+05  1.850267E+04  1.603433E+05 -3.538080E-10  9.396032E-10
       425  15  2.052203E+05  1.271839E+05  1.189141E+04  1.636332E+05 -4.645706E-10  2.309929E-10
       425  16  1.002791E+05  4.378739E+04 -3.186697E+03  7.889199E+04 -4.626124E-10 -1.066029E-09
       425  17  9.056201E+04  3.276070E+04 -1.922247E+04  1.000453E+05 -1.483598E-10 -4.438616E-10
       425  18  9.226591E+04  5.492188E+04 -2.219276E+04  1.111702E+05  6.838350E-10  2.493716E-11
       425  19  3.350490E+05  2.549095E+05  8.403834E+04  2.151764E+05 -2.689519E+04 -1.747526E+04
       425  20  3.203494E+05  2.100283E+05  5.622697E+04  2.206546E+05 -1.907354E+04 -6.048392E+03
       425  21  3.181886E+05  1.994514E+05  4.597429E+04  2.161065E+05 -8.557073E+03  1.780624E+03
       425  22  2.176565E+05  1.493415E+05  4.042719E+04  1.470260E+05 -2.302723E+04 -1.457645E+04
       425  23  2.054486E+05  1.213899E+05  1.850332E+04  1.603434E+05 -1.779913E+04 -5.093167E+03
       425  24  2.052204E+05  1.271840E+05  1.189159E+04  1.636332E+05 -9.875775E+03  7.924557E+02
       425  25  1.002795E+05  4.378764E+04 -3.185751E+03  7.889217E+04 -1.916029E+04 -1.167867E+04
       425  26  9.056231E+04  3.276079E+04 -1.922193E+04  1.000454E+05 -1.652506E+04 -4.138213E+03
       425  27  9.226605E+04  5.492192E+04 -2.219252E+04  1.111702E+05 -1.119415E+04 -1.954978E+02
       426   1  3.025683E+05  1.995845E+05  4.110502E+04  2.095372E+05  7.636341E+03 -1.280237E+03
       426   2  2.947329E+05  1.857182E+05  3.459180E+04  2.039428E+05  4.372951E+03 -3.135505E+03
       426   3  2.812965E+05  1.815541E+05  3.122523E+04  1.997139E+05  9.772264E+02 -4.814315E+03
       426   4  2.054460E+05  1.292055E+05  1.013895E+04  1.606421E+05  7.844605E+03 -1.124265E+03
       426   5  2.078114E+05  1.235690E+05  7.097609E+03  1.605588E+05  4.708857E+03 -2.883815E+03
       426   6  2.045485E+05  1.276071E+05  7.092646E+03  1.618408E+05  1.440722E+03 -4.466934E+03
       426   7  1.083331E+05  5.883146E+04 -2.082857E+04  1.117552E+05  8.052826E+03 -9.683262E+02
       426   8  1.208980E+05  6.142402E+04 -2.039753E+04  1.171816E+05  5.044700E+03 -2.632173E+03
       426   9  1.278074E+05  7.366366E+04 -1.704047E+04  1.239732E+05  1.904136E+03 -4.119613E+03
       426  10  3.025682E+05  1.995845E+05  4.110491E+04  2.095372E+05  3.761539E-11  2.135896E-10
       426  11  2.947329E+05  1.857182E+05  3.459175E+04  2.039429E+05  2.500414E-10 -3.824025E-10
       426  12  2.812965E+05  1.815541E+05  3.122518E+04  1.997139E+05 -5.140668E-10 -4.952438E-10
       426  13  2.054459E+05  1.292055E+05  1.013883E+04  1.606421E+05 -1.651547E-10 -3.888051E-10
       426  14  2.078114E+05  1.235690E+05  7.097552E+03  1.605588E+05  6.808423E-10 -2.223360E-10
       426  15  2.045485E+05  1.276071E+05  7.092605E+03  1.618408E+05  2.080489E-10 -5.059436E-10
       426  16  1.083330E+05  5.883144E+04 -2.082869E+04  1.117552E+05 -2.012713E-10 -2.211940E-10
       426  17  1.208980E+05  6.142400E+04 -2.039759E+04  1.171816E+05  3.310946E-10 -1.532068E-10
       426  18  1.278073E+05  7.366364E+04 -1.704050E+04  1.239732E+05  1.173615E-09 -1.797944E-10
       426  19  3.025683E+05  1.995845E+05  4.110502E+04  2.095372E+05 -7.636341E+03  1.280237E+03
       426  20  2.947329E+05  1.857182E+05  3.459180E+04  2.039428E+05 -4.372951E+03  3.135505E+03
       426  21  2.812965E+05  1.815541E+05  3.122523E+04  1.997139E+05 -9.772264E+02  4.814315E+03
       426  22  2.054460E+05  1.292055E+05  1.013895E+04  1.606421E+05 -7.844605E+03  1.124265E+03
       426  23  2.078114E+05  1.235690E+05  7.097609E+03  1.605588E+05 -4.708857E+03  2.883815E+03
       426  24  2.045485E+05  1.276071E+05  7.092646E+03  1.618408E+05 -1.440722E+03  4.466934E+03
       426  25  1.083331E+05  5.883146E+04 -2.082857E+04  1.117552E+05 -8.052826E+03  9.683262E+02
       426  26  1.208980E+05  6.142402E+04 -2.039753E+04  1.171816E+05 -5.044700E+03  2.632173E+03
       426  27  1.278074E+05  7.366366E+04 -1.704047E+04  1.239732E+05 -1.904136E+03  4.119613E+03
       427   1  2.703863E+05  1.750195E+05  2.868433E+04  1.947575E+05 -3.060719E+02 -5.215180E+03
       427   2  2.631451E+05  1.630513E+05  2.869632E+04  1.881253E+05 -5.203246E+03 -7.996422E+03
       427   3  2.500322E+05  1.602046E+05  3.284853E+04  1.832766E+05 -1.010500E+04 -1.077163E+04
       427   4  2.046092E+05  1.276883E+05  7.865644E+03  1.617813E+05  1.023905E+02 -4.909020E+03
       427   5  2.078010E+05  1.235824E+05  1.121473E+04  1.605488E+05 -4.789937E+03 -7.686595E+03
       427   6  2.051200E+05  1.285972E+05  1.870011E+04  1.610996E+05 -9.686965E+03 -1.045823E+04
       427   7  1.388367E+05  8.035957E+04 -1.295359E+04  1.288091E+05  5.107942E+02 -4.602906E+03
       427   8  1.524600E+05  8.411498E+04 -6.267322E+03  1.329749E+05 -4.376677E+03 -7.376804E+03
       427   9  1.602095E+05  9.699056E+04  4.551321E+03  1.389243E+05 -9.268967E+03 -1.014485E+04
       427  10  2.703863E+05  1.750194E+05  2.868428E+04  1.947575E+05  1.907836E-10  1.698470E-10
       427  11  2.631451E+05  1.630512E+05  2.869615E+04  1.881253E+05  1.209131E-10 -1.641673E-11
       427  12  2.500321E+05  1.602044E+05  3.284812E+04  1.832766E+05 -1.761918E-10 -2.677765E-10
       427  13  2.046092E+05  1.276883E+05  7.865599E+03  1.617813E+05  3.258784E-11 -3.996674E-10
       427  14  2.078010E+05  1.235823E+05  1.121458E+04  1.605487E+05  9.644591E-11 -2.961723E-10
       427  15  2.051198E+05  1.285970E+05  1.869973E+04  1.610996E+05  6.865651E-11  1.899928E-11
       427  16  1.388367E+05  8.035955E+04 -1.295363E+04  1.288091E+05  4.045128E-10 -5.429985E-10
       427  17  1.524599E+05  8.411492E+04 -6.267461E+03  1.329748E+05 -2.621226E-11 -3.197423E-10
       427  18  1.602094E+05  9.699043E+04  4.550966E+03  1.389242E+05  4.033349E-11  1.253128E-10
       427  19  2.703863E+05  1.750195E+05  2.868433E+04  1.947575E+05  3.060719E+02  5.215180E+03
       427  20  2.631451E+05  1.630513E+05  2.869632E+04  1.881253E+05  5.203246E+03  7.996422E+03
       427  21  2.500322E+05  1.602046E+05  3.284853E+04  1.832766E+05  1.010500E+04  1.077163E+04
       427  22  2.046092E+05  1.276883E+05  7.865644E+03  1.617813E+05 -1.023905E+02  4.909020E+03
       427  23  2.078010E+05  1.235824E+05  1.121473E+04  1.605488E+05  4.789937E+03  7.686595E+03
       427  24  2.051200E+05  1.285972E+05  1.870011E+04  1.610996E+05  9.686965E+03  1.045823E+04
       427  25  1.388367E+05  8.035957E+04 -1.295359E+04  1.288091E+05 -5.107942E+02  4.602906E+03
       427  26  1.524600E+05  8.411498E+04 -6.267322E+03  1.329749E+05  4.376677E+03  7.376804E+03
       427  27  1.602095E+05  9.699056E+04  4.551321E+03  1.389243E+05  9.268967E+03  1.014485E+04
       428   1  2.362466E+05  1.554144E+05  3.471444E+04  1.813375E+05 -1.336646E+04 -1.268389E+04
       428   2  2.315147E+05  1.370683E+05  4.791270E+04  1.716552E+05 -3.012485E+04 -2.435387E+04
       428   3  2.333776E+05  1.442570E+05  8.028964E+04  1.569107E+05 -4.685953E+04 -3.605496E+04
       428   4  2.051961E+05  1.274504E+05  2.387378E+04  1.631743E+05 -1.294193E+04 -1.236547E+04
       428   5  2.059368E+05  1.218695E+05  4.039596E+04  1.603135E+05 -2.972223E+04 -2.405214E+04
       428   6  2.132771E+05  1.418281E+05  7.611620E+04  1.523903E+05 -4.647904E+04 -3.577052E+04
       428   7  1.741468E+05  9.948755E+04  1.303307E+04  1.450123E+05 -1.251744E+04 -1.204707E+04
       428   8  1.803597E+05  1.066710E+05  3.287920E+04  1.489724E+05 -2.931964E+04 -2.375041E+04
       428   9  1.931772E+05  1.393992E+05  7.194277E+04  1.478698E+05 -4.609857E+04 -3.548608E+04
       428  10  2.362464E+05  1.554142E+05  3.471380E+04  1.813374E+05 -2.049616E-10 -1.261645E-11
       428  11  2.315135E+05  1.370674E+05  4.790988E+04  1.716546E+05 -2.321762E-10  1.972676E-10
       428  12  2.333749E+05  1.442550E+05  8.028307E+04  1.569094E+05  3.352130E-10  2.112909E-11
       428  13  2.051959E+05  1.274502E+05  2.387318E+04  1.631741E+05 -2.261304E-10  1.637879E-10
       428  14  2.059357E+05  1.218687E+05  4.039322E+04  1.603129E+05  2.216913E-11  2.019040E-10
       428  15  2.132745E+05  1.418261E+05  7.610974E+04  1.523889E+05 -4.278452E-10 -1.054430E-10
       428  16  1.741466E+05  9.948736E+04  1.303250E+04  1.450121E+05 -3.778973E-11  3.376005E-10
       428  17  1.803587E+05  1.066702E+05  3.287652E+04  1.489719E+05 -5.329990E-11  6.666307E-11
       428  18  1.931746E+05  1.393972E+05  7.193642E+04  1.478685E+05 -2.702490E-10 -2.608146E-10
       428  19  2.362466E+05  1.554144E+05  3.471444E+04  1.813375E+05  1.336646E+04  1.268389E+04
       428  20  2.315147E+05  1.370683E+05  4.791270E+04  1.716552E+05  3.012485E+04  2.435387E+04
       428  21  2.333776E+05  1.442570E+05  8.028964E+04  1.569107E+05  4.685953E+04  3.605496E+04
       428  22  2.051961E+05  1.274504E+05  2.387378E+04  1.631743E+05  1.294193E+04  1.236547E+04
       428  23  2.059368E+05  1.218695E+05  4.039596E+04  1.603135E+05  2.972223E+04  2.405214E+04
       428  24  2.132771E+05  1.418281E+05  7.611620E+04  1.523903E+05  4.647904E+04  3.577052E+04
       428  25  1.741468E+05  9.948755E+04  1.303307E+04  1.450123E+05  1.251744E+04  1.204707E+04
       428  26  1.803597E+05  1.066710E+05  3.287920E+04  1.489724E+05  2.931964E+04  2.375041E+04
       428  27  1.931772E+05  1.393992E+05  7.194277E+04  1.478698E+05  4.609857E+04  3.548608E+04
       429   1  1.740370E+05  1.668933E+05  9.537608E+04  1.917450E+05 -5.853283E+04 -4.417563E+04
       429   2  2.135504E+05  6.123636E+04  1.539282E+05  1.440368E+05 -1.252920E+05 -9.346260E+04
       429   3  4.126667E+05  1.914973E+05  3.434514E+05 -7.133848E+03 -1.915928E+05 -1.433556E+05
       429   4  2.113055E+05  1.245761E+05  9.446807E+04  1.785358E+05 -5.796392E+04 -4.374286E+04
       429   5  1.854030E+05  1.025232E+05  1.563854E+05  1.583097E+05 -1.251658E+05 -9.337969E+04
       429   6  3.191756E+05  3.164675E+05  3.496592E+05  3.462711E+04 -1.918978E+05 -1.436404E+05
       429   7  2.485787E+05  8.226452E+04  9.356098E+04  1.653253E+05 -5.739496E+04 -4.331017E+04
       429   8  1.572588E+05  1.438151E+05  1.588433E+05  1.725819E+05 -1.250395E+05 -9.329677E+04
       429   9  2.257174E+05  4.414855E+05  3.558741E+05  7.637915E+04 -1.922028E+05 -1.439255E+05
       429  10  1.740328E+05  1.668903E+05  9.536599E+04  1.917429E+05  4.008598E-11 -3.968034E-10
       429  11  2.135312E+05  6.122278E+04  1.538824E+05  1.440274E+05  2.967710E-10  9.509259E-11
       429  12  4.126218E+05  1.914654E+05  3.433439E+05 -7.155955E+03  1.366746E-10 -7.189593E-11
       429  13  2.113014E+05  1.245732E+05  9.445816E+04  1.785338E+05  9.720241E-12 -1.365577E-10
       429  14  1.853839E+05  1.025096E+05  1.563396E+05  1.583003E+05 -2.267742E-12  3.991205E-11
       429  15  3.191305E+05  3.164355E+05  3.495512E+05  3.460493E+04 -1.635895E-10 -1.202732E-10
       429  16  2.485747E+05  8.226162E+04  9.355128E+04  1.653233E+05  4.571286E-10  1.178348E-10
       429  17  1.572397E+05  1.438016E+05  1.587976E+05  1.725725E+05  3.874176E-10  2.072952E-10
       429  18  2.256722E+05  4.414533E+05  3.557659E+05  7.635689E+04 -1.753784E-10 -4.981655E-11
       429  19  1.740370E+05  1.668933E+05  9.537608E+04  1.917450E+05  5.853283E+04  4.417563E+04
       429  20  2.135504E+05  6.123636E+04  1.539282E+05  1.440368E+05  1.252920E+05  9.346260E+04
       429  21  4.126667E+05  1.914973E+05  3.434514E+05 -7.133848E+03  1.915928E+05  1.433556E+05
       429  22  2.113055E+05  1.245761E+05  9.446807E+04  1.785358E+05  5.796392E+04  4.374286E+04
       429  23  1.854030E+05  1.025232E+05  1.563854E+05  1.583097E+05  1.251658E+05  9.337969E+04
       429  24  3.191756E+05  3.164675E+05  3.496592E+05  3.462711E+04  1.918978E+05  1.436404E+05
       429  25  2.485787E+05  8.226452E+04  9.356098E+04  1.653253E+05  5.739496E+04  4.331017E+04
       429  26  1.572588E+05  1.438151E+05  1.588433E+05  1.725819E+05  1.250395E+05  9.329677E+04
       429  27  2.257174E+05  4.414855E+05  3.558741E+05  7.637915E+04  1.922028E+05  1.439255E+05
       430   1 -4.149024E+03  4.637941E+04  4.226897E+04 -6.992645E+03 -3.373757E+03 -3.036355E+03
       430   2  3.731255E+02  5.990546E+04  4.805652E+04 -2.563682E+03 -3.593324E+03 -9.779362E+03
       430   3  1.707234E+03  6.043311E+04  5.074509E+04  8.767089E+01 -3.813181E+03 -1.080414E+04
       430   4 -2.413789E+05 -1.265008E+04 -1.562270E+04 -1.806974E+03 -1.028451E+04 -3.037020E+03
       430   5 -2.394263E+05  8.658242E+02 -7.316889E+03 -9.191104E+02 -6.387984E+03 -9.780145E+03
       430   6 -2.413778E+05  6.658865E+02 -4.970105E+03 -1.808975E+03 -2.491720E+03 -1.080405E+04
       430   7 -4.785572E+05 -7.168360E+04 -7.351828E+04  3.376710E+03 -1.719262E+04 -3.037800E+03
       430   8 -4.791725E+05 -5.817783E+04 -6.269410E+04  7.248184E+02 -9.181571E+03 -9.780942E+03
       430   9 -4.844080E+05 -5.910544E+04 -6.068918E+04 -3.704875E+03 -1.170772E+03 -1.080397E+04
       430  10 -4.149039E+03  4.637940E+04  4.226894E+04 -6.992654E+03 -7.387202E-11  1.200746E-10
       430  11  3.730860E+02  5.990535E+04  4.805632E+04 -2.563710E+03  3.703435E-11  6.062589E-10
       430  12  1.707187E+03  6.043298E+04  5.074484E+04  8.763772E+01  1.815482E-10  1.874661E-10
       430  13 -2.413790E+05 -1.265012E+04 -1.562292E+04 -1.806999E+03 -1.182147E-10  2.797423E-10
       430  14 -2.394263E+05  8.657105E+02 -7.317145E+03 -9.191607E+02 -2.722116E-10  7.028308E-10
       430  15 -2.413778E+05  6.657595E+02 -4.970336E+03 -1.808996E+03 -8.925345E-11  2.906266E-10
       430  16 -4.785575E+05 -7.168369E+04 -7.351885E+04  3.376668E+03  2.117743E-10  2.134210E-10
       430  17 -4.791726E+05 -5.817796E+04 -6.269444E+04  7.247461E+02 -1.242899E-10  1.017731E-10
       430  18 -4.844080E+05 -5.910556E+04 -6.068940E+04 -3.704885E+03 -3.187692E-10 -1.095555E-10
       430  19 -4.149024E+03  4.637941E+04  4.226897E+04 -6.992645E+03  3.373757E+03  3.036355E+03
       430  20  3.731255E+02  5.990546E+04  4.805652E+04 -2.563682E+03  3.593324E+03  9.779362E+03
       430  21  1.707234E+03  6.043311E+04  5.074509E+04  8.767089E+01  3.813181E+03  1.080414E+04
       430  22 -2.413789E+05 -1.265008E+04 -1.562270E+04 -1.806974E+03  1.028451E+04  3.037020E+03
       430  23 -2.394263E+05  8.658242E+02 -7.316889E+03 -9.191104E+02  6.387984E+03  9.780145E+03
       430  24 -2.413778E+05  6.658865E+02 -4.970105E+03 -1.808975E+03  2.491720E+03  1.080405E+04
       430  25 -4.785572E+05 -7.168360E+04 -7.351828E+04  3.376710E+03  1.719262E+04  3.037800E+03
       430  26 -4.791725E+05 -5.817783E+04 -6.269410E+04  7.248184E+02  9.181571E+03  9.780942E+03
       430  27 -4.844080E+05 -5.910544E+04 -6.068918E+04 -3.704875E+03  1.170772E+03  1.080397E+04
       431   1  5.160862E+03  5.955871E+04  5.223457E+04 -2.079434E+03 -1.264887E+03 -1.021952E+04
       431   2  8.262271E+03  6.126307E+04  5.348067E+04 -1.015623E+03  3.613790E+02 -1.068458E+04
       431   3  1.084998E+04  6.161565E+04  5.333805E+04 -1.456557E+03  1.987583E+03 -1.084813E+04
       431   4 -2.406334E+05 -9.388861E+02 -4.431223E+03 -1.747431E+03 -1.708221E+03 -1.021995E+04
       431   5 -2.403578E+05  1.024879E+02 -3.673294E+03 -9.951771E+02  1.345114E+02 -1.068498E+04
       431   6 -2.406337E+05 -2.458155E+02 -4.454820E+03 -1.747702E+03  1.977171E+03 -1.084845E+04
       431   7 -4.863717E+05 -6.144071E+04 -6.110103E+04 -1.415566E+03 -2.151380E+03 -1.022038E+04
       431   8 -4.889206E+05 -6.106241E+04 -6.083135E+04 -9.747461E+02 -9.226612E+01 -1.068538E+04
       431   9 -4.920588E+05 -6.211170E+04 -6.225187E+04 -2.038736E+03  1.966763E+03 -1.084876E+04
       431  10  5.160832E+03  5.955860E+04  5.223437E+04 -2.079444E+03  4.688773E-11  6.585388E-10
       431  11  8.262240E+03  6.126294E+04  5.348046E+04 -1.015620E+03  4.143289E-10 -5.335461E-10
       431  12  1.084994E+04  6.161552E+04  5.333782E+04 -1.456539E+03  9.261638E-10 -6.615852E-11
       431  13 -2.406334E+05 -9.389991E+02 -4.431425E+03 -1.747445E+03  1.866281E-10  2.332204E-10
       431  14 -2.403578E+05  1.023653E+02 -3.673509E+03 -9.951760E+02  3.817536E-10  2.827230E-11
       431  15 -2.406337E+05 -2.459429E+02 -4.455049E+03 -1.747685E+03 -2.171371E-10 -2.824464E-10
       431  16 -4.863718E+05 -6.144082E+04 -6.110123E+04 -1.415584E+03  3.850974E-10 -3.351067E-10
       431  17 -4.889207E+05 -6.106253E+04 -6.083157E+04 -9.747469E+02 -9.281967E-10  1.900766E-10
       431  18 -4.920589E+05 -6.211182E+04 -6.225210E+04 -2.038719E+03 -6.054436E-10  3.618267E-10
       431  19  5.160862E+03  5.955871E+04  5.223457E+04 -2.079434E+03  1.264887E+03  1.021952E+04
       431  20  8.262271E+03  6.126307E+04  5.348067E+04 -1.015623E+03 -3.613790E+02  1.068458E+04
       431  21  1.084998E+04  6.161565E+04  5.333805E+04 -1.456557E+03 -1.987583E+03  1.084813E+04
       431  22 -2.406334E+05 -9.388861E+02 -4.431223E+03 -1.747431E+03  1.708221E+03  1.021995E+04
       431  23 -2.403578E+05  1.024879E+02 -3.673294E+03 -9.951771E+02 -1.345114E+02  1.068498E+04
       431  24 -2.406337E+05 -2.458155E+02 -4.454820E+03 -1.747702E+03 -1.977171E+03  1.084845E+04
       431  25 -4.863717E+05 -6.144071E+04 -6.110103E+04 -1.415566E+03  2.151380E+03  1.022038E+04
       431  26 -4.889206E+05 -6.106241E+04 -6.083135E+04 -9.747461E+02  9.226612E+01  1.068538E+04
       431  27 -4.920588E+05 -6.211170E+04 -6.225187E+04 -2.038736E+03 -1.966763E+03  1.084876E+04
       432   1  1.327115E+04  6.266937E+04  5.318226E+04 -2.304199E+03  3.024940E+03 -1.093180E+04
       432   2  1.677338E+04  6.351098E+04  5.096495E+04 -5.355081E+02  6.865078E+03 -1.103011E+04
       432   3  1.868322E+04  5.982572E+04  4.512458E+04 -1.670125E+02  1.070504E+04 -1.078887E+04
       432   4 -2.408748E+05  1.515779E+02 -5.236370E+03 -1.725324E+03  2.829421E+03 -1.093223E+04
       432   5 -2.400578E+05  3.297498E+02 -8.077770E+03 -1.023597E+03  6.912539E+03 -1.103039E+04
       432   6 -2.408760E+05 -4.062216E+03 -1.471205E+04 -1.722123E+03  1.099547E+04 -1.078897E+04
       432   7 -4.949610E+05 -6.237073E+04 -6.365927E+04 -1.146697E+03  2.633981E+03 -1.093266E+04
       432   8 -4.968279E+05 -6.285608E+04 -6.712486E+04 -1.511493E+03  6.959981E+03 -1.103068E+04
       432   9 -5.003730E+05 -6.795487E+04 -7.455315E+04 -3.276591E+03  1.128577E+04 -1.078907E+04
       432  10  1.327111E+04  6.266924E+04  5.318201E+04 -2.304172E+03  3.718126E-10 -4.228860E-10
       432  11  1.677329E+04  6.351083E+04  5.096464E+04 -5.354471E+02 -2.736360E-10 -1.047434E-09
       432  12  1.868306E+04  5.982557E+04  4.512415E+04 -1.669195E+02  3.328466E-10 -1.087357E-09
       432  13 -2.408749E+05  1.514474E+02 -5.236610E+03 -1.725299E+03  8.738456E-10 -4.525202E-10
       432  14 -2.400579E+05  3.296063E+02 -8.078089E+03 -1.023535E+03 -6.599256E-10 -9.215920E-10
       432  15 -2.408762E+05 -4.062374E+03 -1.471249E+04 -1.722027E+03 -2.198165E-10 -5.880588E-10
       432  16 -4.949611E+05 -6.237086E+04 -6.365950E+04 -1.146674E+03 -3.539650E-10 -1.556742E-10
       432  17 -4.968280E+05 -6.285623E+04 -6.712518E+04 -1.511431E+03 -1.963007E-10  1.155577E-09
       432  18 -5.003731E+05 -6.795503E+04 -7.455361E+04 -3.276493E+03 -1.559896E-10  1.611775E-10
       432  19  1.327115E+04  6.266937E+04  5.318226E+04 -2.304199E+03 -3.024940E+03  1.093180E+04
       432  20  1.677338E+04  6.351098E+04  5.096495E+04 -5.355081E+02 -6.865078E+03  1.103011E+04
       432  21  1.868322E+04  5.982572E+04  4.512458E+04 -1.670125E+02 -1.070504E+04  1.078887E+04
       432  22 -2.408748E+05  1.515779E+02 -5.236370E+03 -1.725324E+03 -2.829421E+03  1.093223E+04
       432  23 -2.400578E+05  3.297498E+02 -8.077770E+03 -1.023597E+03 -6.912539E+03  1.103039E+04
       432  24 -2.408760E+05 -4.062216E+03 -1.471205E+04 -1.722123E+03 -1.099547E+04  1.078897E+04
       432  25 -4.949610E+05 -6.237073E+04 -6.365927E+04 -1.146697E+03 -2.633981E+03  1.093266E+04
       432  26 -4.968279E+05 -6.285608E+04 -6.712486E+04 -1.511493E+03 -6.959981E+03  1.103068E+04
       432  27 -5.003730E+05 -6.795487E+04 -7.455315E+04 -3.276591E+03 -1.128577E+04  1.078907E+04
       433   1  1.797544E+04  6.740215E+04  4.194917E+04 -9.464978E+03  1.540817E+04 -1.162142E+04
       433   2  2.850720E+04  6.883732E+04  3.119840E+04  6.206138E+03  2.667616E+04 -1.073482E+04
       433   3  2.315505E+04  1.243375E+04 -1.338173E+03  2.082850E+04  3.793693E+04 -3.329742E+03
       433   4 -2.442238E+05  2.953325E+03 -1.815130E+04 -1.662681E+03  1.368831E+04 -1.162310E+04
       433   5 -2.358747E+05  3.725791E+03 -2.986352E+04 -1.108525E+03  2.964383E+04 -1.073245E+04
       433   6 -2.442304E+05 -5.416838E+04 -6.662377E+04 -1.602902E+03  4.559191E+04 -3.322622E+03
       433   7 -5.063591E+05 -6.150005E+04 -7.825626E+04  6.136280E+03  1.196916E+04 -1.162484E+04
       433   8 -5.001918E+05 -6.139044E+04 -9.093004E+04 -8.420066E+03  3.261024E+04 -1.073015E+04
       433   9 -5.115495E+05 -1.207739E+05 -1.319141E+05 -2.402463E+04  5.324359E+04 -3.316055E+03
       433  10  1.797514E+04  6.740194E+04  4.194847E+04 -9.464834E+03  1.095455E-09 -1.737896E-09
       433  11  2.850640E+04  6.883701E+04  3.119685E+04  6.206369E+03 -4.129455E-10 -3.770516E-09
       433  12  2.315350E+04  1.243335E+04 -1.340899E+03  2.082860E+04 -1.107628E-09 -1.071698E-09
       433  13 -2.442240E+05  2.953129E+03 -1.815191E+04 -1.662553E+03  7.391827E-10 -4.264095E-09
       433  14 -2.358757E+05  3.725431E+03 -2.986539E+04 -1.108269E+03 -7.983125E-10  1.539948E-09
       433  15 -2.442327E+05 -5.416895E+04 -6.662770E+04 -1.602780E+03 -2.441303E-10 -8.864388E-11
       433  16 -5.063593E+05 -6.150023E+04 -7.825678E+04  6.136392E+03 -1.811010E-09 -5.831602E-10
       433  17 -5.001930E+05 -6.139085E+04 -9.093225E+04 -8.419784E+03 -7.167531E-10  1.162145E-09
       433  18 -5.115526E+05 -1.207747E+05 -1.319194E+05 -2.402449E+04  1.621392E-09 -1.104349E-09
       433  19  1.797544E+04  6.740215E+04  4.194917E+04 -9.464978E+03 -1.540817E+04  1.162142E+04
       433  20  2.850720E+04  6.883732E+04  3.119840E+04  6.206138E+03 -2.667616E+04  1.073482E+04
       433  21  2.315505E+04  1.243375E+04 -1.338173E+03  2.082850E+04 -3.793693E+04  3.329742E+03
       433  22 -2.442238E+05  2.953325E+03 -1.815130E+04 -1.662681E+03 -1.368831E+04  1.162310E+04
       433  23 -2.358747E+05  3.725791E+03 -2.986352E+04 -1.108525E+03 -2.964383E+04  1.073245E+04
       433  24 -2.442304E+05 -5.416838E+04 -6.662377E+04 -1.602902E+03 -4.559191E+04  3.322622E+03
       433  25 -5.063591E+05 -6.150005E+04 -7.825626E+04  6.136280E+03 -1.196916E+04  1.162484E+04
       433  26 -5.001918E+05 -6.139044E+04 -9.093004E+04 -8.420066E+03 -3.261024E+04  1.073015E+04
       433  27 -5.115495E+05 -1.207739E+05 -1.319141E+05 -2.402463E+04 -5.324359E+04  3.316055E+03
       434   1 -1.830501E+05 -9.133312E+05 -1.806963E+05  9.625894E+04 -7.617847E+03 -2.810819E+04
       434   2 -1.331430E+05 -7.476059E+05 -1.240603E+05  5.194365E+04 -2.151107E+04 -1.497175E+04
       434   3 -9.175830E+04 -5.855889E+05 -7.809730E+04  9.274233E+04 -1.639465E+04 -1.835992E+03
       434   4 -6.979635E+03 -2.066569E+05 -7.480651E+03  9.387741E+04 -7.614056E+03 -1.128498E+04
       434   5  3.283813E+02 -2.059551E+05  1.346880E+03  5.132119E+04 -2.150856E+04 -1.181797E+04
       434   6  1.494938E+03 -2.066087E+05  9.006946E+03  9.387492E+04 -1.640071E+04 -1.235547E+04
       434   7  1.690539E+05  5.004733E+05  1.656994E+05  9.149311E+04 -7.610399E+03  5.557377E+03
       434   8  1.337791E+05  3.359670E+05  1.267345E+05  5.069815E+04 -2.150606E+04 -8.661450E+03
       434   9  9.473821E+04  1.725046E+05  9.610211E+04  9.500817E+04 -1.640681E+04 -2.288133E+04
       434  10 -1.830504E+05 -9.133320E+05 -1.806979E+05  9.625877E+04  3.156253E-10  5.426325E-11
       434  11 -1.331436E+05 -7.476063E+05 -1.240616E+05  5.194339E+04  1.317000E-09 -6.319622E-10
       434  12 -9.175859E+04 -5.855889E+05 -7.809781E+04  9.274231E+04 -1.574386E-10 -2.123816E-10
       434  13 -6.979731E+03 -2.066571E+05 -7.480999E+03  9.387734E+04 -4.162691E-10  1.482912E-10
       434  14  3.278471E+02 -2.059554E+05  1.345748E+03  5.132099E+04  1.832716E-10 -3.664430E-10
       434  15  1.494608E+03 -2.066090E+05  9.006154E+03  9.387475E+04 -2.690330E-10  6.875692E-10
       434  16  1.690539E+05  5.004733E+05  1.656993E+05  9.149314E+04 -7.377618E-11 -5.094265E-11
       434  17  1.337786E+05  3.359668E+05  1.267335E+05  5.069800E+04  1.192415E-10  5.277194E-10
       434  18  9.473778E+04  1.725040E+05  9.610063E+04  9.500787E+04 -1.234682E-10  5.433291E-10
       434  19 -1.830501E+05 -9.133312E+05 -1.806963E+05  9.625894E+04  7.617847E+03  2.810819E+04
       434  20 -1.331430E+05 -7.476059E+05 -1.240603E+05  5.194365E+04  2.151107E+04  1.497175E+04
       434  21 -9.175830E+04 -5.855889E+05 -7.809730E+04  9.274233E+04  1.639465E+04  1.835992E+03
       434  22 -6.979635E+03 -2.066569E+05 -7.480651E+03  9.387741E+04  7.614056E+03  1.128498E+04
       434  23  3.283813E+02 -2.059551E+05  1.346880E+03  5.132119E+04  2.150856E+04  1.181797E+04
       434  24  1.494938E+03 -2.066087E+05  9.006946E+03  9.387492E+04  1.640071E+04  1.235547E+04
       434  25  1.690539E+05  5.004733E+05  1.656994E+05  9.149311E+04  7.610399E+03 -5.557377E+03
       434  26  1.337791E+05  3.359670E+05  1.267345E+05  5.069815E+04  2.150606E+04  8.661450E+03
       434  27  9.473821E+04  1.725046E+05  9.610211E+04  9.500817E+04  1.640681E+04  2.288133E+04
       435   1 -5.581977E+04 -4.268235E+05 -3.777528E+04  9.162839E+04 -9.366896E+03 -9.441663E+03
       435   2 -1.531823E+04 -2.656706E+05  1.253429E+04  5.233791E+04 -2.496531E+03 -2.242530E+04
       435   3  4.066648E+04 -9.905391E+04  7.513776E+04  9.886908E+04  4.509524E+03 -3.541323E+04
       435   4 -1.235139E+03 -2.050716E+05  1.329574E+04  9.403663E+04 -9.370212E+03 -1.434552E+04
       435   5 -1.080608E+03 -2.077969E+05  2.584363E+04  5.112097E+04 -2.500004E+03 -2.742793E+04
       435   6  1.457644E+04 -2.050630E+05  5.075754E+04  9.402554E+04  4.505949E+03 -4.051130E+04
       435   7  5.334609E+04  1.672592E+04  6.436359E+04  9.644573E+04 -9.373565E+03 -1.925111E+04
       435   8  1.315680E+04 -1.499199E+05  3.915285E+04  4.990392E+04 -2.503456E+03 -3.243103E+04
       435   9 -1.151428E+04 -3.110615E+05  2.637669E+04  8.918284E+04  4.502453E+03 -4.560850E+04
       435  10 -5.581989E+04 -4.268236E+05 -3.777561E+04  9.162832E+04 -3.997395E-10  3.996485E-11
       435  11 -1.531837E+04 -2.656712E+05  1.253334E+04  5.233786E+04 -8.550541E-11 -9.405181E-10
       435  12  4.066612E+04 -9.905526E+04  7.513537E+04  9.886921E+04  5.785336E-10 -2.618230E-10
       435  13 -1.235288E+03 -2.050718E+05  1.329519E+04  9.403653E+04 -6.555694E-10  6.423168E-10
       435  14 -1.080817E+03 -2.077977E+05  2.584221E+04  5.112092E+04  4.554967E-10 -7.650173E-10
       435  15  1.457598E+04 -2.050647E+05  5.075442E+04  9.402569E+04 -6.225937E-10  8.123013E-10
       435  16  5.334589E+04  1.672550E+04  6.436273E+04  9.644559E+04 -2.795679E-11 -3.888924E-10
       435  17  1.315651E+04 -1.499211E+05  3.915086E+04  4.990386E+04  1.514872E-10  7.092058E-10
       435  18 -1.151486E+04 -3.110637E+05  2.637274E+04  8.918300E+04 -1.238824E-10  5.230278E-10
       435  19 -5.581977E+04 -4.268235E+05 -3.777528E+04  9.162839E+04  9.366896E+03  9.441663E+03
       435  20 -1.531823E+04 -2.656706E+05  1.253429E+04  5.233791E+04  2.496531E+03  2.242530E+04
       435  21  4.066648E+04 -9.905391E+04  7.513776E+04  9.886908E+04 -4.509524E+03  3.541323E+04
       435  22 -1.235139E+03 -2.050716E+05  1.329574E+04  9.403663E+04  9.370212E+03  1.434552E+04
       435  23 -1.080608E+03 -2.077969E+05  2.584363E+04  5.112097E+04  2.500004E+03  2.742793E+04
       435  24  1.457644E+04 -2.050630E+05  5.075754E+04  9.402554E+04 -4.505949E+03  4.051130E+04
       435  25  5.334609E+04  1.672592E+04  6.436359E+04  9.644573E+04  9.373565E+03  1.925111E+04
       435  26  1.315680E+04 -1.499199E+05  3.915285E+04  4.990392E+04  2.503456E+03  3.243103E+04
       435  27 -1.151428E+04 -3.110615E+05  2.637669E+04  8.918284E+04 -4.502453E+03  4.560850E+04
       436   1  5.422990E+04  7.026958E+04  1.239821E+05  6.563180E+04  1.122804E+04 -4.005537E+04
       436   2  9.171824E+04  2.034069E+05  2.044553E+05  7.672658E+04  1.673016E+04 -1.082445E+05
       436   3  3.401125E+05  3.981696E+05  3.820373E+05  1.730491E+05  6.054319E+03 -1.764444E+05
       436   4 -1.049949E+04 -1.930430E+05  6.343759E+04  9.392105E+04  1.121948E+04 -4.985576E+04
       436   5 -1.330668E+04 -2.228620E+05  1.057584E+05  5.127347E+04  1.673631E+04 -1.063666E+05
       436   6  1.928398E+05 -1.930520E+05  2.371297E+05  9.384086E+04  6.082033E+03 -1.628694E+05
       436   7 -7.523065E+04 -4.562894E+05  2.889250E+03  1.221982E+05  1.121003E+04 -5.965204E+04
       436   8 -1.183420E+05 -6.489617E+05  7.049615E+03  2.583794E+04  1.674231E+04 -1.044899E+05
       436   9  4.556481E+04 -7.839414E+05  9.220046E+04  1.470810E+04  6.106306E+03 -1.493073E+05
       436  10  5.422933E+04  7.026782E+04  1.239789E+05  6.563217E+04  2.527190E-10 -1.908242E-10
       436  11  9.171479E+04  2.033942E+05  2.044328E+05  7.672804E+04  1.286695E-10 -4.221454E-10
       436  12  3.401041E+05  3.981361E+05  3.819788E+05  1.730500E+05 -2.655277E-10  1.765844E-10
       436  13 -1.050029E+04 -1.930457E+05  6.343268E+04  9.392150E+04  2.530855E-10  6.194118E-10
       436  14 -1.331002E+04 -2.228742E+05  1.057366E+05  5.127491E+04 -4.682214E-10 -5.384603E-10
       436  15  1.928326E+05 -1.930805E+05  2.370797E+05  9.384166E+04 -2.399127E-11  2.931453E-10
       436  16 -7.523174E+04 -4.562933E+05  2.882322E+03  1.221987E+05 -2.780121E-10 -1.076631E-10
       436  17 -1.183452E+05 -6.489735E+05  7.028550E+03  2.583935E+04  6.805541E-11  3.435855E-10
       436  18  4.555877E+04 -7.839654E+05  9.215845E+04  1.470884E+04  2.292026E-10 -6.327088E-11
       436  19  5.422990E+04  7.026958E+04  1.239821E+05  6.563180E+04 -1.122804E+04  4.005537E+04
       436  20  9.171824E+04  2.034069E+05  2.044553E+05  7.672658E+04 -1.673016E+04  1.082445E+05
       436  21  3.401125E+05  3.981696E+05  3.820373E+05  1.730491E+05 -6.054319E+03  1.764444E+05
       436  22 -1.049949E+04 -1.930430E+05  6.343759E+04  9.392105E+04 -1.121948E+04  4.985576E+04
       436  23 -1.330668E+04 -2.228620E+05  1.057584E+05  5.127347E+04 -1.673631E+04  1.063666E+05
       436  24  1.928398E+05 -1.930520E+05  2.371297E+05  9.384086E+04 -6.082033E+03  1.628694E+05
       436  25 -7.523065E+04 -4.562894E+05  2.889250E+03  1.221982E+05 -1.121003E+04  5.965204E+04
       436  26 -1.183420E+05 -6.489617E+05  7.049615E+03  2.583794E+04 -1.674231E+04  1.044899E+05
       436  27  4.556481E+04 -7.839414E+05  9.220046E+04  1.470810E+04 -6.106306E+03  1.493073E+05
       437   1  1.361366E+05  1.304812E+05  8.251014E+04  5.490293E+04  1.847424E+04  9.934165E+03
       437   2  1.269295E+05  1.053362E+05  6.566741E+04  5.662134E+04  1.486746E+04 -1.191374E+03
       437   3  1.233724E+05  9.928922E+04  5.974966E+04  5.363158E+04  7.495346E+03 -7.297013E+03
       437   4 -4.266837E+04 -8.011243E+03  2.046745E+04 -3.862203E+04  1.278384E+04  5.665145E+03
       437   5 -4.825426E+04 -2.277003E+04  9.457091E+03 -3.206543E+04  1.279391E+04 -2.747552E+03
       437   6 -4.897247E+04 -1.921211E+04  6.234579E+03 -3.021781E+04  9.037907E+03 -6.139689E+03
       437   7 -2.214400E+05 -1.464827E+05 -4.157974E+04 -1.321157E+05  7.095665E+03  1.397991E+03
       437   8 -2.234060E+05 -1.508589E+05 -4.675739E+04 -1.207240E+05  1.072115E+04 -4.303117E+03
       437   9 -2.212869E+05 -1.376995E+05 -4.728453E+04 -1.140421E+05  1.057990E+04 -4.982777E+03
       437  10  1.361362E+05  1.304810E+05  8.250931E+04  5.490279E+04 -5.532984E-10 -1.166299E-10
       437  11  1.269292E+05  1.053361E+05  6.566699E+04  5.662135E+04 -5.595018E-10  5.759237E-10
       437  12  1.233723E+05  9.928914E+04  5.974946E+04  5.363162E+04 -5.332626E-11  6.067002E-10
       437  13 -4.266856E+04 -8.011321E+03  2.046708E+04 -3.862209E+04 -2.350200E-10  7.221528E-11
       437  14 -4.825443E+04 -2.277009E+04  9.456769E+03 -3.206541E+04 -7.626271E-10  9.104816E-10
       437  15 -4.897257E+04 -1.921217E+04  6.234355E+03 -3.021777E+04 -7.910937E-10  3.797401E-10
       437  16 -2.214400E+05 -1.464827E+05 -4.157984E+04 -1.321157E+05 -6.879537E-11  4.071387E-10
       437  17 -2.234061E+05 -1.508589E+05 -4.675764E+04 -1.207240E+05  9.659837E-11  2.411040E-10
       437  18 -2.212870E+05 -1.376995E+05 -4.728479E+04 -1.140420E+05  2.817675E-12 -4.685792E-11
       437  19  1.361366E+05  1.304812E+05  8.251014E+04  5.490293E+04 -1.847424E+04 -9.934165E+03
       437  20  1.269295E+05  1.053362E+05  6.566741E+04  5.662134E+04 -1.486746E+04  1.191374E+03
       437  21  1.233724E+05  9.928922E+04  5.974966E+04  5.363158E+04 -7.495346E+03  7.297013E+03
       437  22 -4.266837E+04 -8.011243E+03  2.046745E+04 -3.862203E+04 -1.278384E+04 -5.665145E+03
       437  23 -4.825426E+04 -2.277003E+04  9.457091E+03 -3.206543E+04 -1.279391E+04  2.747552E+03
       437  24 -4.897247E+04 -1.921211E+04  6.234579E+03 -3.021781E+04 -9.037907E+03  6.139689E+03
       437  25 -2.214400E+05 -1.464827E+05 -4.157974E+04 -1.321157E+05 -7.095665E+03 -1.397991E+03
       437  26 -2.234060E+05 -1.508589E+05 -4.675739E+04 -1.207240E+05 -1.072115E+04  4.303117E+03
       437  27 -2.212869E+05 -1.376995E+05 -4.728453E+04 -1.140421E+05 -1.057990E+04  4.982777E+03
       438   1  1.134640E+05  9.802269E+04  5.694473E+04  4.931763E+04  7.648085E+03 -5.894258E+03
       438   2  1.081025E+05  8.882342E+04  5.313865E+04  4.526295E+04  5.723700E+03 -7.152400E+03
       438   3  9.857533E+04  8.600955E+04  5.121073E+04  4.231645E+04  3.612498E+03 -8.161774E+03
       438   4 -4.889328E+04 -1.815053E+04  5.428721E+03 -3.171735E+04  7.643913E+03 -5.897682E+03
       438   5 -4.701387E+04 -2.172043E+04  4.129254E+03 -3.197318E+04  5.899218E+03 -7.020914E+03
       438   6 -4.933938E+04 -1.894348E+04  4.552303E+03 -3.112091E+04  3.967639E+03 -7.895369E+03
       438   7 -2.112212E+05 -1.343083E+05 -4.609017E+04 -1.127278E+05  7.639743E+03 -5.901105E+03
       438   8 -2.021039E+05 -1.322506E+05 -4.488293E+04 -1.091873E+05  6.074675E+03 -6.889473E+03
       438   9 -1.972307E+05 -1.238846E+05 -4.210883E+04 -1.045386E+05  4.322664E+03 -7.629051E+03
       438  10  1.134640E+05  9.802264E+04  5.694455E+04  4.931766E+04  3.507449E-10  5.492795E-10
       438  11  1.081025E+05  8.882335E+04  5.313849E+04  4.526299E+04 -4.134487E-10 -7.906710E-12
       438  12  9.857530E+04  8.600947E+04  5.121058E+04  4.231647E+04 -1.065241E-09  1.042091E-09
       438  13 -4.889335E+04 -1.815059E+04  5.428546E+03 -3.171731E+04  2.027202E-10  5.707042E-11
       438  14 -4.701392E+04 -2.172049E+04  4.129096E+03 -3.197315E+04 -2.734889E-10 -1.356443E-09
       438  15 -4.933941E+04 -1.894355E+04  4.552157E+03 -3.112089E+04 -7.444136E-10  4.445298E-10
       438  16 -2.112213E+05 -1.343083E+05 -4.609035E+04 -1.127278E+05 -5.855130E-11 -5.373776E-10
       438  17 -2.021040E+05 -1.322507E+05 -4.488309E+04 -1.091872E+05  6.798753E-10  7.826049E-10
       438  18 -1.972307E+05 -1.238847E+05 -4.210898E+04 -1.045386E+05  2.504535E-10  3.295849E-10
       438  19  1.134640E+05  9.802269E+04  5.694473E+04  4.931763E+04 -7.648085E+03  5.894258E+03
       438  20  1.081025E+05  8.882342E+04  5.313865E+04  4.526295E+04 -5.723700E+03  7.152400E+03
       438  21  9.857533E+04  8.600955E+04  5.121073E+04  4.231645E+04 -3.612498E+03  8.161774E+03
       438  22 -4.889328E+04 -1.815053E+04  5.428721E+03 -3.171735E+04 -7.643913E+03  5.897682E+03
       438  23 -4.701387E+04 -2.172043E+04  4.129254E+03 -3.197318E+04 -5.899218E+03  7.020914E+03
       438  24 -4.933938E+04 -1.894348E+04  4.552303E+03 -3.112091E+04 -3.967639E+03  7.895369E+03
       438  25 -2.112212E+05 -1.343083E+05 -4.609017E+04 -1.127278E+05 -7.639743E+03  5.901105E+03
       438  26 -2.021039E+05 -1.322506E+05 -4.488293E+04 -1.091873E+05 -6.074675E+03  6.889473E+03
       438  27 -1.972307E+05 -1.238846E+05 -4.210883E+04 -1.045386E+05 -4.322664E+03  7.629051E+03
       439   1  9.100518E+04  8.134696E+04  4.959446E+04  3.887978E+04  2.790392E+03 -8.364630E+03
       439   2  8.592625E+04  7.296211E+04  4.987678E+04  3.420656E+04 -6.528173E+02 -1.033533E+04
       439   3  7.673524E+04  7.099678E+04  5.308123E+04  3.078332E+04 -4.109121E+03 -1.228882E+04
       439   4 -4.930440E+04 -1.890243E+04  5.248284E+03 -3.110749E+04  3.067804E+03 -8.156542E+03
       439   5 -4.705321E+04 -2.176711E+04  7.878895E+03 -3.199036E+04 -3.621793E+02 -1.011725E+04
       439   6 -4.891648E+04 -1.821513E+04  1.342069E+04 -3.162337E+04 -3.805285E+03 -1.206077E+04
       439   7 -1.895940E+05 -1.191417E+05 -3.910072E+04 -1.010774E+05  3.345134E+03 -7.948517E+03
       439   8 -1.800138E+05 -1.164867E+05 -3.412120E+04 -9.817131E+04 -7.162596E+01 -9.899237E+03
       439   9 -1.745504E+05 -1.074178E+05 -2.624150E+04 -9.401539E+04 -3.501535E+03 -1.183278E+04
       439  10  9.100516E+04  8.134689E+04  4.959432E+04  3.887980E+04 -3.911009E-10  1.849056E-09
       439  11  8.592622E+04  7.296199E+04  4.987658E+04  3.420655E+04  6.438082E-10 -1.717099E-10
       439  12  7.673518E+04  7.099661E+04  5.308092E+04  3.078328E+04  1.618060E-09 -8.272000E-10
       439  13 -4.930443E+04 -1.890250E+04  5.248142E+03 -3.110747E+04 -9.019251E-10  1.933061E-09
       439  14 -4.705323E+04 -2.176722E+04  7.878702E+03 -3.199037E+04 -8.070804E-10  1.040377E-09
       439  15 -4.891653E+04 -1.821529E+04  1.342039E+04 -3.162341E+04  5.315100E-10  1.028142E-09
       439  16 -1.895940E+05 -1.191418E+05 -3.910086E+04 -1.010774E+05 -1.388301E-09  8.452962E-10
       439  17 -1.800138E+05 -1.164868E+05 -3.412138E+04 -9.817131E+04 -3.994926E-10  2.391602E-11
       439  18 -1.745504E+05 -1.074180E+05 -2.624179E+04 -9.401542E+04 -4.186156E-10  5.089446E-10
       439  19  9.100518E+04  8.134696E+04  4.959446E+04  3.887978E+04 -2.790392E+03  8.364630E+03
       439  20  8.592625E+04  7.296211E+04  4.987678E+04  3.420656E+04  6.528173E+02  1.033533E+04
       439  21  7.673524E+04  7.099678E+04  5.308123E+04  3.078332E+04  4.109121E+03  1.228882E+04
       439  22 -4.930440E+04 -1.890243E+04  5.248284E+03 -3.110749E+04 -3.067804E+03  8.156542E+03
       439  23 -4.705321E+04 -2.176711E+04  7.878895E+03 -3.199036E+04  3.621793E+02  1.011725E+04
       439  24 -4.891648E+04 -1.821513E+04  1.342069E+04 -3.162337E+04  3.805285E+03  1.206077E+04
       439  25 -1.895940E+05 -1.191417E+05 -3.910072E+04 -1.010774E+05 -3.345134E+03  7.948517E+03
       439  26 -1.800138E+05 -1.164867E+05 -3.412120E+04 -9.817131E+04  7.162596E+01  9.899237E+03
       439  27 -1.745504E+05 -1.074178E+05 -2.624150E+04 -9.401539E+04  3.501535E+03  1.183278E+04
       440   1  6.694225E+04  6.767085E+04  5.452974E+04  2.948377E+04 -6.399638E+03 -1.365529E+04
       440   2  6.364867E+04  5.456404E+04  6.422742E+04  2.258582E+04 -1.862094E+04 -2.217632E+04
       440   3  6.531431E+04  5.987037E+04  8.790619E+04  1.196448E+04 -3.091862E+04 -3.059610E+04
       440   4 -4.887037E+04 -1.903810E+04  1.720983E+04 -3.010904E+04 -6.130647E+03 -1.345331E+04
       440   5 -4.839841E+04 -2.302353E+04  2.924656E+04 -3.216359E+04 -1.827639E+04 -2.191767E+04
       440   6 -4.298219E+04 -8.610112E+03  5.520088E+04 -3.794202E+04 -3.049865E+04 -3.028110E+04
       440   7 -1.646687E+05 -1.057387E+05 -2.011183E+04 -8.968906E+04 -5.861724E+03 -1.325138E+04
       440   8 -1.604325E+05 -1.006050E+05 -5.735981E+03 -8.690224E+04 -1.793193E+04 -2.165908E+04
       440   9 -1.512669E+05 -7.708638E+04  2.249398E+04 -8.783964E+04 -3.007878E+04 -2.996616E+04
       440  10  6.694216E+04  6.767064E+04  5.452931E+04  2.948370E+04  2.462783E-10 -2.116679E-09
       440  11  6.364816E+04  5.456342E+04  6.422585E+04  2.258549E+04  1.695229E-09  2.162594E-09
       440  12  6.531304E+04  5.986911E+04  8.790264E+04  1.196371E+04  3.140918E-10  1.528085E-09
       440  13 -4.887046E+04 -1.903831E+04  1.720942E+04 -3.010911E+04  1.169324E-09 -1.396341E-09
       440  14 -4.839889E+04 -2.302413E+04  2.924503E+04 -3.216391E+04 -8.389434E-11 -5.348417E-10
       440  15 -4.298344E+04 -8.611347E+03  5.519741E+04 -3.794276E+04 -9.135562E-10 -8.997105E-10
       440  16 -1.646688E+05 -1.057389E+05 -2.011223E+04 -8.968912E+04  1.780525E-09  9.642811E-10
       440  17 -1.604330E+05 -1.006056E+05 -5.737467E+03 -8.690255E+04 -1.787832E-10 -1.856536E-09
       440  18 -1.512681E+05 -7.708759E+04  2.249059E+04 -8.784037E+04 -3.757140E-09 -3.521393E-09
       440  19  6.694225E+04  6.767085E+04  5.452974E+04  2.948377E+04  6.399638E+03  1.365529E+04
       440  20  6.364867E+04  5.456404E+04  6.422742E+04  2.258582E+04  1.862094E+04  2.217632E+04
       440  21  6.531431E+04  5.987037E+04  8.790619E+04  1.196448E+04  3.091862E+04  3.059610E+04
       440  22 -4.887037E+04 -1.903810E+04  1.720983E+04 -3.010904E+04  6.130647E+03  1.345331E+04
       440  23 -4.839841E+04 -2.302353E+04  2.924656E+04 -3.216359E+04  1.827639E+04  2.191767E+04
       440  24 -4.298219E+04 -8.610112E+03  5.520088E+04 -3.794202E+04  3.049865E+04  3.028110E+04
       440  25 -1.646687E+05 -1.057387E+05 -2.011183E+04 -8.968906E+04  5.861724E+03  1.325138E+04
       440  26 -1.604325E+05 -1.006050E+05 -5.735981E+03 -8.690224E+04  1.793193E+04  2.165908E+04
       440  27 -1.512669E+05 -7.708638E+04  2.249398E+04 -8.783964E+04  3.007878E+04  2.996616E+04
       441   1  2.236746E+04  7.650277E+04  9.875956E+04  3.731595E+04 -3.837732E+04 -3.621125E+04
       441   2  5.118345E+04 -1.526289E+02  1.415082E+05  2.832856E+03 -8.887270E+04 -7.301839E+04
       441   3  1.964323E+05  9.462877E+04  2.808907E+05 -1.068079E+05 -1.409172E+05 -1.077610E+05
       441   4 -4.448405E+04 -2.107164E+04  6.852716E+04 -1.894700E+04 -3.859265E+04 -3.636997E+04
       441   5 -6.326163E+04 -3.710021E+04  1.134724E+05 -3.361892E+04 -8.759643E+04 -7.206557E+04
       441   6  3.407355E+04  1.179934E+05  2.537686E+05 -1.234512E+05 -1.381430E+05 -1.057061E+05
       441   7 -1.113290E+05 -1.186312E+05  3.829433E+04 -7.520015E+04 -3.880794E+04 -3.652862E+04
       441   8 -1.776905E+05 -7.404607E+04  8.543617E+04 -7.006546E+04 -8.632051E+04 -7.111283E+04
       441   9 -1.282431E+05  1.413696E+05  2.266497E+05 -1.400983E+05 -1.353700E+05 -1.036509E+05
       441  10  2.236552E+04  7.650097E+04  9.875432E+04  3.731483E+04 -2.294957E-09 -9.744681E-10
       441  11  5.117354E+04 -1.604732E+02  1.414833E+05  2.827630E+03 -6.831793E-10  8.559021E-11
       441  12  1.964079E+05  9.461097E+04  2.808315E+05 -1.068202E+05  1.778705E-10  3.816820E-10
       441  13 -4.448600E+04 -2.107346E+04  6.852188E+04 -1.894813E+04 -1.371666E-09 -3.384074E-09
       441  14 -6.327126E+04 -3.710784E+04  1.134482E+05 -3.362400E+04  4.420026E-10  1.910687E-09
       441  15  3.405006E+04  1.179763E+05  2.537117E+05 -1.234630E+05 -4.786681E-10  1.098804E-09
       441  16 -1.113310E+05 -1.186330E+05  3.828899E+04 -7.520129E+04 -9.330230E-10 -2.079333E-09
       441  17 -1.776998E+05 -7.405351E+04  8.541266E+04 -7.007041E+04  1.245230E-09  9.770061E-10
       441  18 -1.282657E+05  1.413531E+05  2.265950E+05 -1.401096E+05  1.320009E-10  1.124226E-10
       441  19  2.236746E+04  7.650277E+04  9.875956E+04  3.731595E+04  3.837732E+04  3.621125E+04
       441  20  5.118345E+04 -1.526289E+02  1.415082E+05  2.832856E+03  8.887270E+04  7.301839E+04
       441  21  1.964323E+05  9.462877E+04  2.808907E+05 -1.068079E+05  1.409172E+05  1.077610E+05
       441  22 -4.448405E+04 -2.107164E+04  6.852716E+04 -1.894700E+04  3.859265E+04  3.636997E+04
       441  23 -6.326163E+04 -3.710021E+04  1.134724E+05 -3.361892E+04  8.759643E+04  7.206557E+04
       441  24  3.407355E+04  1.179934E+05  2.537686E+05 -1.234512E+05  1.381430E+05  1.057061E+05
       441  25 -1.113290E+05 -1.186312E+05  3.829433E+04 -7.520015E+04  3.880794E+04  3.652862E+04
       441  26 -1.776905E+05 -7.404607E+04  8.543617E+04 -7.006546E+04  8.632051E+04  7.111283E+04
       441  27 -1.282431E+05  1.413696E+05  2.266497E+05 -1.400983E+05  1.353700E+05  1.036509E+05
       442   1  2.114115E+05  1.020608E+05  6.480824E+04  1.917177E+04 -9.414322E+04 -1.148962E+04
       442   2  9.556069E+04  2.181966E+05  1.161582E+05  2.372796E+04 -6.995662E+04 -3.412577E+04
       442   3 -6.106940E+04  1.831693E+05  1.140381E+05  9.864193E+04 -4.581425E+04 -3.129360E+04
       442   4 -7.725872E+05 -1.427573E+05 -1.758995E+05  7.674967E+04 -1.195107E+05 -1.153525E+04
       442   5 -7.505080E+05  9.877383E+03 -7.947831E+04  4.144597E+04 -7.704112E+04 -3.414337E+04
       442   6 -7.724733E+05  8.053133E+03 -4.929423E+04  7.651318E+04 -3.460937E+04 -3.127083E+04
       442   7 -1.755695E+06 -3.876341E+05 -4.166738E+05  1.342358E+05 -1.448380E+05 -1.158562E+04
       442   8 -1.595914E+06 -1.984908E+05 -2.751623E+05  5.913936E+04 -8.411599E+04 -3.416138E+04
       442   9 -1.483407E+06 -1.670965E+05 -2.126593E+05  5.440973E+04 -2.341720E+04 -3.124884E+04
       442  10  2.114020E+05  1.020583E+05  6.479135E+04  1.917090E+04  1.344233E-10 -1.285010E-10
       442  11  9.555512E+04  2.181940E+05  1.161469E+05  2.372604E+04  7.133777E-10 -2.919373E-09
       442  12 -6.107192E+04  1.831677E+05  1.140324E+05  9.864077E+04  3.889306E-09 -3.989712E-09
       442  13 -7.726026E+05 -1.427613E+05 -1.759266E+05  7.674856E+04  6.895195E-10  1.159519E-09
       442  14 -7.505147E+05  9.874536E+03 -7.949167E+04  4.144385E+04 -7.400932E-10 -1.542450E-09
       442  15 -7.724749E+05  8.051761E+03 -4.929832E+04  7.651231E+04 -1.292246E-09 -4.413851E-10
       442  16 -1.755717E+06 -3.876399E+05 -4.167136E+05  1.342344E+05 -1.172441E-09  6.234513E-10
       442  17 -1.595922E+06 -1.984940E+05 -2.751778E+05  5.913704E+04 -1.209990E-09 -4.541683E-09
       442  18 -1.483408E+06 -1.670977E+05 -2.126622E+05  5.440914E+04 -2.620254E-09 -5.876933E-09
       442  19  2.114115E+05  1.020608E+05  6.480824E+04  1.917177E+04  9.414322E+04  1.148962E+04
       442  20  9.556069E+04  2.181966E+05  1.161582E+05  2.372796E+04  6.995662E+04  3.412577E+04
       442  21 -6.106940E+04  1.831693E+05  1.140381E+05  9.864193E+04  4.581425E+04  3.129360E+04
       442  22 -7.725872E+05 -1.427573E+05 -1.758995E+05  7.674967E+04  1.195107E+05  1.153525E+04
       442  23 -7.505080E+05  9.877383E+03 -7.947831E+04  4.144597E+04  7.704112E+04  3.414337E+04
       442  24 -7.724733E+05  8.053133E+03 -4.929423E+04  7.651318E+04  3.460937E+04  3.127083E+04
       442  25 -1.755695E+06 -3.876341E+05 -4.166738E+05  1.342358E+05  1.448380E+05  1.158562E+04
       442  26 -1.595914E+06 -1.984908E+05 -2.751623E+05  5.913936E+04  8.411599E+04  3.416138E+04
       442  27 -1.483407E+06 -1.670965E+05 -2.126593E+05  5.440973E+04  2.341720E+04  3.124884E+04
       443   1 -1.835743E+05  1.324434E+05  9.298121E+04  7.407507E+04 -3.061069E+04 -2.435484E+04
       443   2 -3.181547E+05  1.101945E+05  7.714734E+04  4.084022E+04 -1.900224E+04 -1.903060E+04
       443   3 -4.575911E+05  7.573425E+04  5.063340E+04  7.937851E+04 -7.403258E+03 -1.246547E+04
       443   4 -7.637734E+05 -1.038411E+04 -4.075690E+04  7.691194E+04 -2.722762E+04 -2.434890E+04
       443   5 -7.612390E+05  1.142291E+03 -2.479016E+04  4.101098E+04 -1.473666E+04 -1.902119E+04
       443   6 -7.637351E+05  2.996502E+02 -2.012325E+04  7.688692E+04 -2.252646E+03 -1.245222E+04
       443   7 -1.343661E+06 -1.532352E+05 -1.745173E+05  7.974594E+04 -2.384768E+04 -2.434294E+04
       443   8 -1.204142E+06 -1.079236E+05 -1.267406E+05  4.118151E+04 -1.047410E+04 -1.901177E+04
       443   9 -1.069792E+06 -7.514151E+04 -9.088606E+04  7.439649E+04  2.895445E+03 -1.243901E+04
       443  10 -1.835755E+05  1.324426E+05  9.297834E+04  7.407447E+04  5.302596E-09 -5.243102E-09
       443  11 -3.181551E+05  1.101940E+05  7.714598E+04  4.083993E+04 -2.061691E-09  2.103787E-09
       443  12 -4.575912E+05  7.573407E+04  5.063300E+04  7.937844E+04 -8.435001E-09  3.368610E-09
       443  13 -7.637743E+05 -1.038494E+04 -4.075941E+04  7.691140E+04  1.984817E-09 -3.310682E-09
       443  14 -7.612394E+05  1.141844E+03 -2.479124E+04  4.101076E+04 -8.253038E-10  5.444352E-10
       443  15 -7.637351E+05  2.994824E+02 -2.012355E+04  7.688689E+04 -4.433798E-10 -1.593019E-09
       443  16 -1.343661E+06 -1.532360E+05 -1.745195E+05  7.974547E+04 -6.733924E-09 -7.720024E-10
       443  17 -1.204142E+06 -1.079241E+05 -1.267415E+05  4.118135E+04  2.544231E-10  1.402107E-09
       443  18 -1.069792E+06 -7.514167E+04 -9.088636E+04  7.439652E+04  8.812093E-09  1.710014E-09
       443  19 -1.835743E+05  1.324434E+05  9.298121E+04  7.407507E+04  3.061069E+04  2.435484E+04
       443  20 -3.181547E+05  1.101945E+05  7.714734E+04  4.084022E+04  1.900224E+04  1.903060E+04
       443  21 -4.575911E+05  7.573425E+04  5.063340E+04  7.937851E+04  7.403258E+03  1.246547E+04
       443  22 -7.637734E+05 -1.038411E+04 -4.075690E+04  7.691194E+04  2.722762E+04  2.434890E+04
       443  23 -7.612390E+05  1.142291E+03 -2.479016E+04  4.101098E+04  1.473666E+04  1.902119E+04
       443  24 -7.637351E+05  2.996502E+02 -2.012325E+04  7.688692E+04  2.252646E+03  1.245222E+04
       443  25 -1.343661E+06 -1.532352E+05 -1.745173E+05  7.974594E+04  2.384768E+04  2.434294E+04
       443  26 -1.204142E+06 -1.079236E+05 -1.267406E+05  4.118151E+04  1.047410E+04  1.901177E+04
       443  27 -1.069792E+06 -7.514151E+04 -9.088606E+04  7.439649E+04 -2.895445E+03  1.243901E+04
       444   1 -5.891705E+05  4.308830E+04  1.982921E+04  7.551993E+04 -3.720468E+03 -8.280982E+03
       444   2 -7.240775E+05  1.030129E+04 -1.528049E+04  4.192544E+04  8.708962E+03 -1.639474E+03
       444   3 -8.639863E+05 -3.420996E+04 -6.152730E+04  8.035409E+04  2.113680E+04  4.380048E+03
       444   4 -7.636995E+05  2.095556E+02 -1.995706E+04  7.694169E+04  1.257548E+03 -8.267668E+03
       444   5 -7.612308E+05  1.154821E+03 -2.379820E+04  4.094279E+04  1.323799E+04 -1.627281E+03
       444   6 -7.637024E+05 -9.544907E+03 -3.846319E+04  7.696784E+04  2.521953E+04  4.391068E+03
       444   7 -9.382002E+05 -4.267128E+04 -5.974522E+04  7.836302E+04  6.234175E+03 -8.254329E+03
       444   8 -7.983829E+05 -7.991726E+03 -3.231592E+04  3.996021E+04  1.776674E+04 -1.615103E+03
       444   9 -6.634091E+05  1.511950E+04 -1.539967E+04  7.358103E+04  2.930291E+04  4.402042E+03
       444  10 -5.891705E+05  4.308823E+04  1.982906E+04  7.551990E+04 -2.484087E-09  4.687515E-09
       444  11 -7.240776E+05  1.030126E+04 -1.528064E+04  4.192545E+04 -6.055534E-10  2.723288E-09
       444  12 -8.639868E+05 -3.421010E+04 -6.152818E+04  8.035401E+04  4.112726E-09 -1.772941E-09
       444  13 -7.636996E+05  2.094818E+02 -1.995719E+04  7.694169E+04  2.194833E-09 -1.937700E-09
       444  14 -7.612310E+05  1.154771E+03 -2.379854E+04  4.094281E+04 -5.899839E-10  4.122891E-09
       444  15 -7.637031E+05 -9.545099E+03 -3.846442E+04  7.696775E+04 -9.860915E-10  5.392975E-09
       444  16 -9.382003E+05 -4.267137E+04 -5.974542E+04  7.836306E+04  1.173839E-09  2.860120E-09
       444  17 -7.983832E+05 -7.991813E+03 -3.231652E+04  3.996023E+04 -1.646318E-09  4.867402E-09
       444  18 -6.634100E+05  1.511925E+04 -1.540132E+04  7.358093E+04 -2.263295E-09  2.441631E-09
       444  19 -5.891705E+05  4.308830E+04  1.982921E+04  7.551993E+04  3.720468E+03  8.280982E+03
       444  20 -7.240775E+05  1.030129E+04 -1.528049E+04  4.192544E+04 -8.708962E+03  1.639474E+03
       444  21 -8.639863E+05 -3.420996E+04 -6.152730E+04  8.035409E+04 -2.113680E+04 -4.380048E+03
       444  22 -7.636995E+05  2.095556E+02 -1.995706E+04  7.694169E+04 -1.257548E+03  8.267668E+03
       444  23 -7.612308E+05  1.154821E+03 -2.379820E+04  4.094279E+04 -1.323799E+04  1.627281E+03
       444  24 -7.637024E+05 -9.544907E+03 -3.846319E+04  7.696784E+04 -2.521953E+04 -4.391068E+03
       444  25 -9.382002E+05 -4.267128E+04 -5.974522E+04  7.836302E+04 -6.234175E+03  8.254329E+03
       444  26 -7.983829E+05 -7.991726E+03 -3.231592E+04  3.996021E+04 -1.776674E+04  1.615103E+03
       444  27 -6.634091E+05  1.511950E+04 -1.539967E+04  7.358103E+04 -2.930291E+04 -4.402042E+03
       445   1 -1.003871E+06 -4.956610E+04 -9.981272E+04  5.665297E+04  2.383973E+04  9.969938E+03
       445   2 -1.119570E+06 -8.131628E+04 -1.598051E+05  5.802077E+04  7.353398E+04  1.473493E+04
       445   3 -1.278683E+06 -2.593432E+05 -2.888445E+05  1.309746E+05  1.232500E+05  5.604620E+03
       445   4 -7.718640E+05  7.697207E+03 -4.636871E+04  7.675712E+04  3.217842E+04  9.992950E+03
       445   5 -7.510688E+05  9.434184E+03 -7.441961E+04  4.113089E+04  7.189882E+04  1.472813E+04
       445   6 -7.719414E+05 -1.333263E+05 -1.645532E+05  7.709828E+04  1.116527E+05  5.565738E+03
       445   7 -5.398059E+05  6.495827E+04  7.072199E+03  9.686882E+04  4.052021E+04  1.001650E+04
       445   8 -3.824414E+05  1.001762E+05  1.095694E+04  2.423082E+04  7.026268E+04  1.472143E+04
       445   9 -2.649584E+05 -7.317350E+03 -4.027868E+04  2.317770E+04  1.000459E+05  5.528893E+03
       445  10 -1.003872E+06 -4.956636E+04 -9.981397E+04  5.665278E+04  2.234516E-09 -6.487260E-10
       445  11 -1.119576E+06 -8.131797E+04 -1.598157E+05  5.801989E+04 -1.208111E-09  6.163077E-09
       445  12 -1.278700E+06 -2.593473E+05 -2.888732E+05  1.309740E+05  8.424621E-10  1.929716E-09
       445  13 -7.718652E+05  7.696821E+03 -4.637084E+04  7.675686E+04  2.161294E-09  1.606161E-09
       445  14 -7.510744E+05  9.432562E+03 -7.442975E+04  4.113004E+04 -1.958713E-09  5.795780E-09
       445  15 -7.719548E+05 -1.333297E+05 -1.645768E+05  7.709778E+04 -5.691713E-10 -1.156418E-09
       445  16 -5.398077E+05  6.495772E+04  7.068923E+03  9.686849E+04 -2.797380E-09  2.277982E-09
       445  17 -3.824467E+05  1.001746E+05  1.094725E+04  2.422999E+04 -2.094441E-09  8.207765E-11
       445  18 -2.649692E+05 -7.320071E+03 -4.029756E+04  2.317725E+04 -4.428110E-10 -1.545495E-09
       445  19 -1.003871E+06 -4.956610E+04 -9.981272E+04  5.665297E+04 -2.383973E+04 -9.969938E+03
       445  20 -1.119570E+06 -8.131628E+04 -1.598051E+05  5.802077E+04 -7.353398E+04 -1.473493E+04
       445  21 -1.278683E+06 -2.593432E+05 -2.888445E+05  1.309746E+05 -1.232500E+05 -5.604620E+03
       445  22 -7.718640E+05  7.697207E+03 -4.636871E+04  7.675712E+04 -3.217842E+04 -9.992950E+03
       445  23 -7.510688E+05  9.434184E+03 -7.441961E+04  4.113089E+04 -7.189882E+04 -1.472813E+04
       445  24 -7.719414E+05 -1.333263E+05 -1.645532E+05  7.709828E+04 -1.116527E+05 -5.565738E+03
       445  25 -5.398059E+05  6.495827E+04  7.072199E+03  9.686882E+04 -4.052021E+04 -1.001650E+04
       445  26 -3.824414E+05  1.001762E+05  1.095694E+04  2.423082E+04 -7.026268E+04 -1.472143E+04
       445  27 -2.649584E+05 -7.317350E+03 -4.027868E+04  2.317770E+04 -1.000459E+05 -5.528893E+03
       446   1 -2.070500E+05 -7.541192E+05 -2.026207E+05  1.153199E+05 -8.760475E+03 -2.740048E+04
       446   2 -1.533255E+05 -5.533104E+05 -1.387555E+05  6.297312E+04 -2.462223E+04 -1.395992E+04
       446   3 -1.029180E+05 -3.546228E+05 -8.440818E+04  1.144015E+05 -1.826364E+04 -4.967566E+02
       446   4 -2.116881E+03  6.855476E+04 -9.838965E+02  1.144701E+05 -8.776501E+03 -8.011404E+03
       446   5 -1.906876E+02  6.827776E+04  5.141827E+03  6.258664E+04 -2.462273E+04 -1.055398E+04
       446   6  1.199267E+03  6.861989E+04  1.285993E+04  1.144721E+05 -1.825847E+04 -1.307870E+04
       446   7  2.027662E+05  8.918464E+05  2.006047E+05  1.136192E+05 -8.792572E+03  1.140334E+04
       446   8  1.529170E+05  6.902231E+05  1.490133E+05  6.219981E+04 -2.462322E+04 -7.144651E+03
       446   9  1.053041E+05  4.920288E+05  1.101168E+05  1.145428E+05 -1.825331E+04 -2.566914E+04
       446  10 -2.070503E+05 -7.541201E+05 -2.026223E+05  1.153197E+05  6.364559E-11  3.818925E-10
       446  11 -1.533262E+05 -5.533108E+05 -1.387570E+05  6.297284E+04 -3.132082E-10  2.724829E-10
       446  12 -1.029184E+05 -3.546229E+05 -8.440880E+04  1.144014E+05  8.578431E-10  1.932776E-09
       446  13 -2.116981E+03  6.855467E+04 -9.841617E+02  1.144700E+05  7.012944E-10  9.461507E-10
       446  14 -1.913685E+02  6.827748E+04  5.140479E+03  6.258643E+04 -1.059315E-09  2.363145E-11
       446  15  1.198863E+03  6.861962E+04  1.285898E+04  1.144719E+05  2.562249E-10  7.171044E-10
       446  16  2.027661E+05  8.918463E+05  2.006044E+05  1.136193E+05 -2.074839E-10  2.668485E-10
       446  17  1.529163E+05  6.902229E+05  1.490121E+05  6.219967E+04 -7.109832E-10  9.737150E-11
       446  18  1.053036E+05  4.920280E+05  1.101149E+05  1.145424E+05 -4.224751E-10 -1.289556E-09
       446  19 -2.070500E+05 -7.541192E+05 -2.026207E+05  1.153199E+05  8.760475E+03  2.740048E+04
       446  20 -1.533255E+05 -5.533104E+05 -1.387555E+05  6.297312E+04  2.462223E+04  1.395992E+04
       446  21 -1.029180E+05 -3.546228E+05 -8.440818E+04  1.144015E+05  1.826364E+04  4.967566E+02
       446  22 -2.116881E+03  6.855476E+04 -9.838965E+02  1.144701E+05  8.776501E+03  8.011404E+03
       446  23 -1.906876E+02  6.827776E+04  5.141827E+03  6.258664E+04  2.462273E+04  1.055398E+04
       446  24  1.199267E+03  6.861989E+04  1.285993E+04  1.144721E+05  1.825847E+04  1.307870E+04
       446  25  2.027662E+05  8.918464E+05  2.006047E+05  1.136192E+05  8.792572E+03 -1.140334E+04
       446  26  1.529170E+05  6.902231E+05  1.490133E+05  6.219981E+04  2.462322E+04  7.144651E+03
       446  27  1.053041E+05  4.920288E+05  1.101168E+05  1.145428E+05  1.825331E+04  2.566914E+04
       447   1 -5.824723E+04 -1.617595E+05 -3.581312E+04  1.117910E+05 -9.799668E+03 -9.718996E+03
       447   2 -9.382053E+03  3.434574E+04  2.425045E+04  6.383708E+04 -1.374811E+03 -2.568819E+04
       447   3  5.823686E+04  2.373718E+05  9.941643E+04  1.203768E+05  7.122847E+03 -4.166311E+04
       447   4 -1.213347E+03  7.004599E+04  1.754616E+04  1.146298E+05 -9.797882E+03 -1.575632E+04
       447   5 -1.447728E+03  6.659863E+04  3.166605E+04  6.238659E+04 -1.372982E+03 -3.177892E+04
       447   6  1.708468E+04  7.004919E+04  6.093093E+04  1.146353E+05  7.124803E+03 -4.780223E+04
       447   7  5.581683E+04  3.019013E+05  7.090202E+04  1.174697E+05 -9.796151E+03 -2.179588E+04
       447   8  6.486552E+03  9.885258E+04  3.908173E+04  6.093602E+04 -1.371125E+03 -3.786995E+04
       447   9 -2.406930E+04 -9.724738E+04  2.244372E+04  1.088953E+05  7.126873E+03 -5.393969E+04
       447  10 -5.824736E+04 -1.617596E+05 -3.581348E+04  1.117909E+05  3.873219E-10  6.640548E-10
       447  11 -9.382232E+03  3.434503E+04  2.424920E+04  6.383705E+04  1.017894E-10  9.209061E-12
       447  12  5.823634E+04  2.373699E+05  9.941308E+04  1.203770E+05  1.843327E-10  8.196030E-10
       447  13 -1.213517E+03  7.004570E+04  1.754551E+04  1.146297E+05  4.261147E-10  3.754766E-10
       447  14 -1.448001E+03  6.659755E+04  3.166415E+04  6.238655E+04 -1.501501E-10 -1.530864E-10
       447  15  1.708401E+04  7.004673E+04  6.092654E+04  1.146356E+05  1.600794E-10  4.943105E-10
       447  16  5.581660E+04  3.019007E+05  7.090095E+04  1.174695E+05  2.968012E-10 -4.017908E-10
       447  17  6.486165E+03  9.885104E+04  3.907903E+04  6.093598E+04 -8.437980E-10  1.898221E-10
       447  18 -2.407014E+04 -9.725052E+04  2.243816E+04  1.088956E+05 -2.099356E-10 -5.114096E-10
       447  19 -5.824723E+04 -1.617595E+05 -3.581312E+04  1.117910E+05  9.799668E+03  9.718996E+03
       447  20 -9.382053E+03  3.434574E+04  2.425045E+04  6.383708E+04  1.374811E+03  2.568819E+04
       447  21  5.823686E+04  2.373718E+05  9.941643E+04  1.203768E+05 -7.122847E+03  4.166311E+04
       447  22 -1.213347E+03  7.004599E+04  1.754616E+04  1.146298E+05  9.797882E+03  1.575632E+04
       447  23 -1.447728E+03  6.659863E+04  3.166605E+04  6.238659E+04  1.372982E+03  3.177892E+04
       447  24  1.708468E+04  7.004919E+04  6.093093E+04  1.146353E+05 -7.124803E+03  4.780223E+04
       447  25  5.581683E+04  3.019013E+05  7.090202E+04  1.174697E+05  9.796151E+03  2.179588E+04
       447  26  6.486552E+03  9.885258E+04  3.908173E+04  6.093602E+04  1.371125E+03  3.786995E+04
       447  27 -2.406930E+04 -9.724738E+04  2.244372E+04  1.088953E+05 -7.126873E+03  5.393969E+04
       448   1  7.555258E+04  4.431075E+05  1.583523E+05  8.053377E+04  1.541164E+04 -4.683326E+04
       448   2  1.212172E+05  6.061375E+05  2.550494E+05  9.243407E+04  2.206173E+04 -1.290837E+05
       448   3  4.178912E+05  8.429779E+05  4.680787E+05  2.083493E+05  8.091739E+03 -2.113747E+05
       448   4 -1.270083E+04  8.433227E+04  7.590001E+04  1.144727E+05  1.541334E+04 -5.899998E+04
       448   5 -1.599167E+04  4.866737E+04  1.260632E+05  6.256094E+04  2.206778E+04 -1.263495E+05
       448   6  2.292585E+05  8.427530E+04  2.822941E+05  1.146461E+05  8.110794E+03 -1.937118E+05
       448   7 -1.009588E+05 -2.743211E+05 -6.559651E+03  1.483918E+05  1.541371E+04 -7.115971E+04
       448   8 -1.532190E+05 -5.085138E+05 -2.943227E+03  3.271483E+04  2.207356E+04 -1.236177E+05
       448   9  4.061640E+04 -6.738837E+05  9.647334E+04  2.105749E+04  8.124548E+03 -1.760704E+05
       448  10  7.555174E+04  4.431051E+05  1.583478E+05  8.053435E+04  4.362164E-10  5.784393E-11
       448  11  1.212122E+05  6.061195E+05  2.550172E+05  9.243636E+04 -3.401452E-10 -3.737281E-10
       448  12  4.178791E+05  8.429299E+05  4.679948E+05  2.083507E+05 -5.454723E-10  1.465361E-09
       448  13 -1.270202E+04  8.432847E+04  7.589302E+04  1.144734E+05 -6.070707E-10  3.404149E-10
       448  14 -1.599648E+04  4.865010E+04  1.260323E+05  6.256318E+04 -8.273438E-11 -9.772648E-11
       448  15  2.292483E+05  8.423500E+04  2.822235E+05  1.146474E+05 -8.005170E-10  1.479547E-09
       448  16 -1.009604E+05 -2.743266E+05 -6.569618E+03  1.483927E+05 -3.805029E-10  4.057593E-10
       448  17 -1.532237E+05 -5.085304E+05 -2.972881E+03  3.271703E+04  5.803740E-10  8.350558E-10
       448  18  4.060799E+04 -6.739170E+05  9.641489E+04  2.105864E+04 -1.842445E-10 -8.093762E-10
       448  19  7.555258E+04  4.431075E+05  1.583523E+05  8.053377E+04 -1.541164E+04  4.683326E+04
       448  20  1.212172E+05  6.061375E+05  2.550494E+05  9.243407E+04 -2.206173E+04  1.290837E+05
       448  21  4.178912E+05  8.429779E+05  4.680787E+05  2.083493E+05 -8.091739E+03  2.113747E+05
       448  22 -1.270083E+04  8.433227E+04  7.590001E+04  1.144727E+05 -1.541334E+04  5.899998E+04
       448  23 -1.599167E+04  4.866737E+04  1.260632E+05  6.256094E+04 -2.206778E+04  1.263495E+05
       448  24  2.292585E+05  8.427530E+04  2.822941E+05  1.146461E+05 -8.110794E+03  1.937118E+05
       448  25 -1.009588E+05 -2.743211E+05 -6.559651E+03  1.483918E+05 -1.541371E+04  7.115971E+04
       448  26 -1.532190E+05 -5.085138E+05 -2.943227E+03  3.271483E+04 -2.207356E+04  1.236177E+05
       448  27  4.061640E+04 -6.738837E+05  9.647334E+04  2.105749E+04 -8.124548E+03  1.760704E+05
       449   1  8.292819E+05  6.861307E+05  2.664116E+05  5.153121E+05  9.044668E+04  6.021637E+04
       449   2  7.801072E+05  5.341909E+05  1.718549E+05  5.351482E+05  6.393298E+04  2.416001E+04
       449   3  7.747586E+05  4.984501E+05  1.360578E+05  5.201881E+05  2.946695E+04 -1.315363E+03
       449   4  4.916628E+05  3.691140E+05  1.384156E+05  3.132498E+05  7.917586E+04  5.173047E+04
       449   5  4.491483E+05  2.739554E+05  6.233127E+04  3.591568E+05  6.030658E+04  2.142873E+04
       449   6  4.488374E+05  2.933739E+05  3.839997E+04  3.702558E+05  3.348183E+04  1.705886E+03
       449   7  1.541623E+05  5.221676E+04  1.040043E+04  1.113251E+05  6.791317E+04  4.325330E+04
       449   8  1.183059E+05  1.379662E+04 -4.720713E+04  1.832757E+05  5.668279E+04  1.869968E+04
       449   9  1.230332E+05  8.834175E+04 -5.926880E+04  2.204080E+05  3.749380E+04  4.725269E+03
       449  10  8.292722E+05  6.861246E+05  2.663894E+05  5.153077E+05 -5.836979E-10  1.873595E-09
       449  11  7.801027E+05  5.341892E+05  1.718461E+05  5.351470E+05 -1.475776E-09  3.118661E-09
       449  12  7.747577E+05  4.984499E+05  1.360562E+05  5.201881E+05  5.426395E-10 -2.820940E-09
       449  13  4.916554E+05  3.691094E+05  1.383988E+05  3.132465E+05  6.744235E-10  4.459798E-09
       449  14  4.491442E+05  2.739540E+05  6.232358E+04  3.591557E+05 -4.773566E-10 -3.645082E-09
       449  15  4.488362E+05  2.933736E+05  3.839786E+04  3.702557E+05  2.544384E-10 -9.759554E-10
       449  16  1.541568E+05  5.221352E+04  1.038825E+04  1.113228E+05  5.394592E-10 -1.638515E-09
       449  17  1.183024E+05  1.379538E+04 -4.721383E+04  1.832748E+05  2.184112E-09 -1.860651E-09
       449  18  1.230316E+05  8.834135E+04 -5.927148E+04  2.204079E+05  3.429013E-11 -9.792446E-10
       449  19  8.292819E+05  6.861307E+05  2.664116E+05  5.153121E+05 -9.044668E+04 -6.021637E+04
       449  20  7.801072E+05  5.341909E+05  1.718549E+05  5.351482E+05 -6.393298E+04 -2.416001E+04
       449  21  7.747586E+05  4.984501E+05  1.360578E+05  5.201881E+05 -2.946695E+04  1.315363E+03
       449  22  4.916628E+05  3.691140E+05  1.384156E+05  3.132498E+05 -7.917586E+04 -5.173047E+04
       449  23  4.491483E+05  2.739554E+05  6.233127E+04  3.591568E+05 -6.030658E+04 -2.142873E+04
       449  24  4.488374E+05  2.933739E+05  3.839997E+04  3.702558E+05 -3.348183E+04 -1.705886E+03
       449  25  1.541623E+05  5.221676E+04  1.040043E+04  1.113251E+05 -6.791317E+04 -4.325330E+04
       449  26  1.183059E+05  1.379662E+04 -4.720713E+04  1.832757E+05 -5.668279E+04 -1.869968E+04
       449  27  1.230332E+05  8.834175E+04 -5.926880E+04  2.204080E+05 -3.749380E+04 -4.725269E+03
       450   1  7.229727E+05  4.998881E+05  1.189106E+05  4.983103E+05  2.637387E+04  4.395004E+01
       450   2  6.975578E+05  4.542705E+05  9.460123E+04  4.803039E+05  1.757513E+04 -4.547400E+03
       450   3  6.537627E+05  4.403178E+05  7.906116E+04  4.664619E+05  8.388966E+03 -8.624831E+03
       450   4  4.496502E+05  3.001866E+05  3.150920E+04  3.599181E+05  2.711707E+04  6.024364E+02
       450   5  4.573007E+05  2.816004E+05  1.847643E+04  3.599442E+05  1.869286E+04 -3.706472E+03
       450   6  4.464903E+05  2.946012E+05  1.389167E+04  3.641337E+05  9.880540E+03 -7.501845E+03
       450   7  1.764072E+05  1.005285E+05 -5.590180E+04  2.215952E+05  2.785982E+04  1.160575E+03
       450   8  2.171042E+05  1.089618E+05 -5.765595E+04  2.396366E+05  1.981000E+04 -2.865989E+03
       450   9  2.392622E+05  1.489061E+05 -5.128367E+04  2.618428E+05  1.137145E+04 -6.379353E+03
       450  10  7.229720E+05  4.998879E+05  1.189093E+05  4.983103E+05  1.578870E-10 -3.451641E-09
       450  11  6.975575E+05  4.542704E+05  9.460061E+04  4.803040E+05 -1.560471E-10  2.219339E-09
       450  12  6.537626E+05  4.403177E+05  7.906089E+04  4.664620E+05 -1.900873E-09  2.841966E-09
       450  13  4.496494E+05  3.001864E+05  3.150782E+04  3.599181E+05  8.156873E-10 -2.738934E-09
       450  14  4.573003E+05  2.816003E+05  1.847575E+04  3.599442E+05  4.845741E-10  2.254100E-10
       450  15  4.464902E+05  2.946011E+05  1.389138E+04  3.641337E+05 -1.783348E-09 -4.085401E-09
       450  16  1.764064E+05  1.005283E+05 -5.590326E+04  2.215952E+05  6.671064E-10  6.541691E-10
       450  17  2.171038E+05  1.089617E+05 -5.765670E+04  2.396366E+05  9.770019E-10 -2.239029E-09
       450  18  2.392620E+05  1.489060E+05 -5.128399E+04  2.618429E+05 -5.229629E-10 -1.051631E-09
       450  19  7.229727E+05  4.998881E+05  1.189106E+05  4.983103E+05 -2.637387E+04 -4.395004E+01
       450  20  6.975578E+05  4.542705E+05  9.460123E+04  4.803039E+05 -1.757513E+04  4.547400E+03
       450  21  6.537627E+05  4.403178E+05  7.906116E+04  4.664619E+05 -8.388966E+03  8.624831E+03
       450  22  4.496502E+05  3.001866E+05  3.150920E+04  3.599181E+05 -2.711707E+04 -6.024364E+02
       450  23  4.573007E+05  2.816004E+05  1.847643E+04  3.599442E+05 -1.869286E+04  3.706472E+03
       450  24  4.464903E+05  2.946012E+05  1.389167E+04  3.641337E+05 -9.880540E+03  7.501845E+03
       450  25  1.764072E+05  1.005285E+05 -5.590180E+04  2.215952E+05 -2.785982E+04 -1.160575E+03
       450  26  2.171042E+05  1.089618E+05 -5.765595E+04  2.396366E+05 -1.981000E+04  2.865989E+03
       450  27  2.392622E+05  1.489061E+05 -5.128367E+04  2.618428E+05 -1.137145E+04  6.379353E+03
       451   1  6.187761E+05  4.185785E+05  6.764425E+04  4.497063E+05  5.753593E+03 -8.791935E+03
       451   2  5.956597E+05  3.807163E+05  5.816354E+04  4.288395E+05 -1.449948E+03 -1.131911E+04
       451   3  5.505182E+05  3.691188E+05  5.407235E+04  4.143843E+05 -8.663187E+03 -1.383351E+04
       451   4  4.465698E+05  2.949540E+05  1.324241E+04  3.634797E+05  7.082189E+03 -7.791453E+03
       451   5  4.577806E+05  2.821667E+05  1.458934E+04  3.600169E+05 -1.106472E+02 -1.031030E+04
       451   6  4.469619E+05  2.956417E+05  2.131731E+04  3.629643E+05 -7.313643E+03 -1.281670E+04
       451   7  2.743966E+05  1.713469E+05 -4.116267E+04  2.772808E+05  8.410273E+03 -6.791360E+03
       451   8  3.199223E+05  1.836280E+05 -2.898704E+04  2.912117E+05  1.228244E+03 -9.301789E+03
       451   9  3.434170E+05  2.221704E+05 -1.143906E+04  3.115540E+05 -5.964407E+03 -1.180012E+04
       451  10  6.187760E+05  4.185785E+05  6.764404E+04  4.497063E+05  3.220913E-09  5.861775E-09
       451  11  5.956597E+05  3.807162E+05  5.816329E+04  4.288394E+05 -3.326081E-12 -4.135993E-10
       451  12  5.505181E+05  3.691185E+05  5.407185E+04  4.143842E+05 -4.538971E-09 -2.409468E-09
       451  13  4.465697E+05  2.949539E+05  1.324220E+04  3.634798E+05  1.501492E-09  4.832051E-09
       451  14  4.577805E+05  2.821666E+05  1.458914E+04  3.600168E+05 -1.140449E-09  3.599350E-09
       451  15  4.469618E+05  2.956415E+05  2.131690E+04  3.629642E+05  1.531796E-09  8.719233E-09
       451  16  2.743965E+05  1.713469E+05 -4.116289E+04  2.772809E+05 -2.144939E-09 -4.246712E-09
       451  17  3.199223E+05  1.836279E+05 -2.898720E+04  2.912117E+05  3.275484E-09  1.832544E-09
       451  18  3.434169E+05  2.221702E+05 -1.143938E+04  3.115539E+05  4.840076E-09  1.572792E-09
       451  19  6.187761E+05  4.185785E+05  6.764425E+04  4.497063E+05 -5.753593E+03  8.791935E+03
       451  20  5.956597E+05  3.807163E+05  5.816354E+04  4.288395E+05  1.449948E+03  1.131911E+04
       451  21  5.505182E+05  3.691188E+05  5.407235E+04  4.143843E+05  8.663187E+03  1.383351E+04
       451  22  4.465698E+05  2.949540E+05  1.324241E+04  3.634797E+05 -7.082189E+03  7.791453E+03
       451  23  4.577806E+05  2.821667E+05  1.458934E+04  3.600169E+05  1.106472E+02  1.031030E+04
       451  24  4.469619E+05  2.956417E+05  2.131731E+04  3.629643E+05  7.313643E+03  1.281670E+04
       451  25  2.743966E+05  1.713469E+05 -4.116267E+04  2.772808E+05 -8.410273E+03  6.791360E+03
       451  26  3.199223E+05  1.836280E+05 -2.898704E+04  2.912117E+05 -1.228244E+03  9.301789E+03
       451  27  3.434170E+05  2.221704E+05 -1.143906E+04  3.115540E+05  5.964407E+03  1.180012E+04
       452   1  5.135725E+05  3.481601E+05  4.842982E+04  4.011586E+05 -1.289832E+04 -1.528366E+04
       452   2  4.933878E+05  3.040720E+05  5.455678E+04  3.770521E+05 -3.166532E+04 -2.653277E+04
       452   3  4.640889E+05  3.030257E+05  8.105818E+04  3.521926E+05 -5.031420E+04 -3.793732E+04
       452   4  4.470332E+05  2.944350E+05  2.639372E+04  3.650982E+05 -1.151119E+04 -1.423824E+04
       452   5  4.558606E+05  2.804468E+05  4.329409E+04  3.597851E+05 -3.038969E+04 -2.557161E+04
       452   6  4.555970E+05  3.095239E+05  8.066605E+04  3.537173E+05 -4.915100E+04 -3.706163E+04
       452   7  3.804981E+05  2.407128E+05  4.356840E+03  3.290421E+05 -1.012425E+04 -1.319300E+04
       452   8  4.183349E+05  2.568222E+05  3.203125E+04  3.425191E+05 -2.911417E+04 -2.461053E+04
       452   9  4.471054E+05  3.160222E+05  8.027397E+04  3.552420E+05 -4.798782E+04 -3.618592E+04
       452  10  5.135723E+05  3.481598E+05  4.842907E+04  4.011585E+05 -1.908630E-09  2.407354E-09
       452  11  4.933866E+05  3.040710E+05  5.455357E+04  3.770514E+05  1.504362E-09 -2.364269E-10
       452  12  4.640858E+05  3.030235E+05  8.105073E+04  3.521911E+05  2.258766E-09 -4.650768E-09
       452  13  4.470330E+05  2.944347E+05  2.639309E+04  3.650980E+05  6.415256E-10  9.686203E-10
       452  14  4.558594E+05  2.804459E+05  4.329113E+04  3.597844E+05 -8.262816E-10 -6.721328E-10
       452  15  4.555941E+05  3.095218E+05  8.065894E+04  3.537159E+05  1.096962E-10 -1.680944E-09
       452  16  3.804980E+05  2.407125E+05  4.356321E+03  3.290420E+05  2.654280E-09  2.211766E-09
       452  17  4.183338E+05  2.568213E+05  3.202852E+04  3.425186E+05 -2.133388E-09 -4.026308E-09
       452  18  4.471026E+05  3.160201E+05  8.026719E+04  3.552406E+05 -3.052172E-09  2.454424E-09
       452  19  5.135725E+05  3.481601E+05  4.842982E+04  4.011586E+05  1.289832E+04  1.528366E+04
       452  20  4.933878E+05  3.040720E+05  5.455678E+04  3.770521E+05  3.166532E+04  2.653277E+04
       452  21  4.640889E+05  3.030257E+05  8.105818E+04  3.521926E+05  5.031420E+04  3.793732E+04
       452  22  4.470332E+05  2.944350E+05  2.639372E+04  3.650982E+05  1.151119E+04  1.423824E+04
       452  23  4.558606E+05  2.804468E+05  4.329409E+04  3.597851E+05  3.038969E+04  2.557161E+04
       452  24  4.555970E+05  3.095239E+05  8.066605E+04  3.537173E+05  4.915100E+04  3.706163E+04
       452  25  3.804981E+05  2.407128E+05  4.356840E+03  3.290421E+05  1.012425E+04  1.319300E+04
       452  26  4.183349E+05  2.568222E+05  3.203125E+04  3.425191E+05  2.911417E+04  2.461053E+04
       452  27  4.471054E+05  3.160222E+05  8.027397E+04  3.552420E+05  4.798782E+04  3.618592E+04
       453   1  3.790205E+05  3.111489E+05  8.980403E+04  3.775889E+05 -6.418869E+04 -4.612161E+04
       453   2  4.057510E+05  1.748436E+05  1.439525E+05  3.137578E+05 -1.334179E+05 -9.608937E+04
       453   3  5.848845E+05  3.024899E+05  3.347112E+05  1.452314E+05 -2.003010E+05 -1.491576E+05
       453   4  4.534022E+05  2.914490E+05  9.992090E+04  3.813212E+05 -6.206780E+04 -4.451618E+04
       453   5  4.341973E+05  2.600612E+05  1.650754E+05  3.576626E+05 -1.335472E+05 -9.619990E+04
       453   6  5.678408E+05  4.930696E+05  3.687822E+05  2.293160E+05 -2.026726E+05 -1.510065E+05
       453   7  5.277934E+05  2.717529E+05  1.100387E+05  3.850520E+05 -5.994653E+04 -4.291095E+04
       453   8  4.626470E+05  3.452922E+05  1.861987E+05  4.015720E+05 -1.336765E+05 -9.631045E+04
       453   9  5.508224E+05  6.837307E+05  4.028602E+05  3.134063E+05 -2.050439E+05 -1.528568E+05
       453  10  3.790155E+05  3.111455E+05  8.979230E+04  3.775865E+05  2.988278E-10 -1.288271E-09
       453  11  4.057295E+05  1.748289E+05  1.439017E+05  3.137475E+05 -1.193819E-09 -1.643521E-09
       453  12  5.848355E+05  3.024552E+05  3.345941E+05  1.452073E+05  1.680148E-09  4.446808E-09
       453  13  4.533975E+05  2.914459E+05  9.990995E+04  3.813189E+05 -2.954400E-11  1.620433E-09
       453  14  4.341757E+05  2.600465E+05  1.650246E+05  3.576523E+05 -2.028491E-10  3.984031E-09
       453  15  5.677906E+05  4.930341E+05  3.686623E+05  2.292913E+05 -1.641997E-09 -2.328563E-09
       453  16  5.277890E+05  2.717500E+05  1.100285E+05  3.850499E+05 -7.939780E-10  5.882872E-09
       453  17  4.626253E+05  3.452774E+05  1.861478E+05  4.015616E+05 -2.087006E-09  2.840212E-09
       453  18  5.507711E+05  6.836944E+05  4.027375E+05  3.133811E+05 -1.988427E-09 -1.600179E-09
       453  19  3.790205E+05  3.111489E+05  8.980403E+04  3.775889E+05  6.418869E+04  4.612161E+04
       453  20  4.057510E+05  1.748436E+05  1.439525E+05  3.137578E+05  1.334179E+05  9.608937E+04
       453  21  5.848845E+05  3.024899E+05  3.347112E+05  1.452314E+05  2.003010E+05  1.491576E+05
       453  22  4.534022E+05  2.914490E+05  9.992090E+04  3.813212E+05  6.206780E+04  4.451618E+04
       453  23  4.341973E+05  2.600612E+05  1.650754E+05  3.576626E+05  1.335472E+05  9.619990E+04
       453  24  5.678408E+05  4.930696E+05  3.687822E+05  2.293160E+05  2.026726E+05  1.510065E+05
       453  25  5.277934E+05  2.717529E+05  1.100387E+05  3.850520E+05  5.994653E+04  4.291095E+04
       453  26  4.626470E+05  3.452922E+05  1.861987E+05  4.015720E+05  1.336765E+05  9.631045E+04
       453  27  5.508224E+05  6.837307E+05  4.028602E+05  3.134063E+05  2.050439E+05  1.528568E+05
       454   1  4.525127E+05  1.349258E+05  1.180083E+05  4.956878E+04 -2.910118E+04 -8.852767E+03
       454   2  3.331032E+05  1.633048E+05  1.171721E+05  3.266061E+04 -2.637694E+04 -2.596387E+04
       454   3  1.981760E+05  1.316737E+05  9.955456E+04  8.157541E+04 -2.370343E+04 -2.281517E+04
       454   4 -3.225536E+05 -5.786297E+04 -7.159603E+04  7.202568E+04 -4.868939E+04 -8.901832E+03
       454   5 -3.134858E+05  4.138357E+03 -3.232359E+04  3.903322E+04 -3.138741E+04 -2.597938E+04
       454   6 -3.225009E+05  3.564041E+03 -1.997377E+04  7.187056E+04 -1.413502E+04 -2.278788E+04
       454   7 -1.097071E+06 -2.506940E+05 -2.612425E+05  9.445414E+04 -6.825319E+04 -8.952346E+03
       454   8 -9.596881E+05 -1.550572E+05 -1.818471E+05  4.539889E+04 -3.639269E+04 -2.599500E+04
       454   9 -8.429264E+05 -1.245641E+05 -1.395196E+05  6.217371E+04 -4.574572E+03 -2.276088E+04
       454  10  4.525118E+05  1.349255E+05  1.180066E+05  4.956858E+04  2.085949E-09 -1.134432E-09
       454  11  3.331022E+05  1.633039E+05  1.171695E+05  3.266006E+04 -2.993228E-09 -1.040286E-09
       454  12  1.981752E+05  1.316730E+05  9.955253E+04  8.157497E+04 -5.979484E-09 -3.695658E-09
       454  13 -3.225561E+05 -5.786369E+04 -7.160064E+04  7.202533E+04  1.889577E-10  3.774483E-09
       454  14 -3.134870E+05  4.137368E+03 -3.232671E+04  3.903257E+04 -1.886365E-09  1.521768E-09
       454  15 -3.225013E+05  3.563430E+03 -1.997512E+04  7.187030E+04 -1.520814E-09 -4.550087E-09
       454  16 -1.097076E+06 -2.506954E+05 -2.612515E+05  9.445365E+04 -3.647444E-09  1.482341E-09
       454  17 -9.596897E+05 -1.550583E+05 -1.818508E+05  4.539813E+04  1.227317E-09 -1.499311E-09
       454  18 -8.429266E+05 -1.245647E+05 -1.395206E+05  6.217363E+04  7.133755E-09 -4.347553E-09
       454  19  4.525127E+05  1.349258E+05  1.180083E+05  4.956878E+04  2.910118E+04  8.852767E+03
       454  20  3.331032E+05  1.633048E+05  1.171721E+05  3.266061E+04  2.637694E+04  2.596387E+04
       454  21  1.981760E+05  1.316737E+05  9.955456E+04  8.157541E+04  2.370343E+04  2.281517E+04
       454  22 -3.225536E+05 -5.786297E+04 -7.159603E+04  7.202568E+04  4.868939E+04  8.901832E+03
       454  23 -3.134858E+05  4.138357E+03 -3.232359E+04  3.903322E+04  3.138741E+04  2.597938E+04
       454  24 -3.225009E+05  3.564041E+03 -1.997377E+04  7.187056E+04  1.413502E+04  2.278788E+04
       454  25 -1.097071E+06 -2.506940E+05 -2.612425E+05  9.445414E+04  6.825319E+04  8.952346E+03
       454  26 -9.596881E+05 -1.550572E+05 -1.818471E+05  4.539889E+04  3.639269E+04  2.599500E+04
       454  27 -8.429264E+05 -1.245641E+05 -1.395196E+05  6.217371E+04  4.574572E+03  2.276088E+04
       455   1  7.967381E+04  9.415680E+04  7.536531E+04  7.146664E+04 -1.449981E+04 -1.676019E+04
       455   2 -4.645492E+04  6.738929E+04  5.254115E+04  3.902635E+04 -1.022607E+04 -1.163333E+04
       455   3 -1.747455E+05  3.601415E+04  2.567871E+04  7.321186E+04 -5.958613E+03 -5.540092E+03
       455   4 -3.189679E+05 -3.939768E+03 -1.647035E+04  7.210166E+04 -1.116127E+04 -1.675072E+04
       455   5 -3.178088E+05  6.261216E+02 -9.872582E+03  3.878096E+04 -6.194873E+03 -1.162096E+04
       455   6 -3.189485E+05  4.635274E+02 -7.795715E+03  7.208805E+04 -1.233897E+03 -5.524585E+03
       455   7 -7.174625E+05 -1.020474E+05 -1.083165E+05  7.273616E+04 -7.824851E+03 -1.674124E+04
       455   8 -5.890944E+05 -6.614219E+04 -7.229113E+04  3.853562E+04 -2.165422E+03 -1.160859E+04
       455   9 -4.631322E+05 -3.508854E+04 -4.127145E+04  7.096449E+04  3.489728E+03 -5.509092E+03
       455  10  7.967351E+04  9.415644E+04  7.536438E+04  7.146644E+04  2.596989E-09  3.913764E-10
       455  11 -4.645507E+04  6.738912E+04  5.254070E+04  3.902625E+04  1.229405E-09  2.070222E-09
       455  12 -1.747455E+05  3.601411E+04  2.567859E+04  7.321183E+04 -7.136966E-10  2.275524E-09
       455  13 -3.189681E+05 -3.940103E+03 -1.647111E+04  7.210151E+04  1.030100E-09 -1.863653E-09
       455  14 -3.178089E+05  6.259663E+02 -9.872907E+03  3.878090E+04 -1.918464E-09  1.644788E-09
       455  15 -3.189485E+05  4.634942E+02 -7.795775E+03  7.208805E+04 -1.250658E-09  3.398497E-09
       455  16 -7.174626E+05 -1.020478E+05 -1.083171E+05  7.273605E+04 -4.185218E-09  1.497821E-09
       455  17 -5.890945E+05 -6.614233E+04 -7.229139E+04  3.853560E+04 -2.803806E-09 -6.473361E-09
       455  18 -4.631322E+05 -3.508858E+04 -4.127153E+04  7.096451E+04  1.363703E-09 -4.970907E-11
       455  19  7.967381E+04  9.415680E+04  7.536531E+04  7.146664E+04  1.449981E+04  1.676019E+04
       455  20 -4.645492E+04  6.738929E+04  5.254115E+04  3.902635E+04  1.022607E+04  1.163333E+04
       455  21 -1.747455E+05  3.601415E+04  2.567871E+04  7.321186E+04  5.958613E+03  5.540092E+03
       455  22 -3.189679E+05 -3.939768E+03 -1.647035E+04  7.210166E+04  1.116127E+04  1.675072E+04
       455  23 -3.178088E+05  6.261216E+02 -9.872582E+03  3.878096E+04  6.194873E+03  1.162096E+04
       455  24 -3.189485E+05  4.635274E+02 -7.795715E+03  7.208805E+04  1.233897E+03  5.524585E+03
       455  25 -7.174625E+05 -1.020474E+05 -1.083165E+05  7.273616E+04  7.824851E+03  1.674124E+04
       455  26 -5.890944E+05 -6.614219E+04 -7.229113E+04  3.853562E+04  2.165422E+03  1.160859E+04
       455  27 -4.631322E+05 -3.508854E+04 -4.127145E+04  7.096449E+04 -3.489728E+03  5.509092E+03
       456   1 -2.966337E+05  5.774666E+03 -2.817577E+03  7.150749E+04 -4.556809E+03 -1.667270E+03
       456   2 -4.227897E+05 -2.523380E+04 -3.296469E+04  3.884746E+04  4.056738E+02  4.451287E+03
       456   3 -5.511092E+05 -6.029427E+04 -6.747583E+04  7.285511E+04  5.370396E+03  9.814708E+03
       456   4 -3.188961E+05  3.671408E+02 -7.609709E+03  7.209754E+04  1.067042E+02 -1.651797E+03
       456   5 -3.178574E+05  5.913949E+02 -8.806741E+03  3.876960E+04  4.525832E+03  4.464620E+03
       456   6 -3.189040E+05 -3.140855E+03 -1.398938E+04  7.210878E+04  8.948207E+03  9.826003E+03
       456   7 -3.411579E+05 -5.040403E+03 -1.240179E+04  7.268757E+04  4.770052E+03 -1.636316E+03
       456   8 -2.129148E+05  2.641583E+04  1.535054E+04  3.869171E+04  8.646681E+03  4.477950E+03
       456   9 -8.664885E+04  5.400880E+04  3.949354E+04  7.136213E+04  1.252735E+04  9.837287E+03
       456  10 -2.966337E+05  5.774657E+03 -2.817622E+03  7.150748E+04 -3.311451E-09  6.990635E-09
       456  11 -4.227897E+05 -2.523382E+04 -3.296473E+04  3.884746E+04 -1.769206E-09  2.551458E-09
       456  12 -5.511092E+05 -6.029438E+04 -6.747606E+04  7.285507E+04  4.037765E-09  5.123914E-09
       456  13 -3.188961E+05  3.671379E+02 -7.609714E+03  7.209754E+04  1.436239E-09  5.267119E-09
       456  14 -3.178574E+05  5.913680E+02 -8.806817E+03  3.876958E+04 -1.704333E-09  6.015782E-09
       456  15 -3.189041E+05 -3.140980E+03 -1.398971E+04  7.210871E+04 -1.962707E-09  5.276976E-10
       456  16 -3.411579E+05 -5.040412E+03 -1.240184E+04  7.268758E+04  2.071610E-09  2.863794E-09
       456  17 -2.129149E+05  2.641579E+04  1.535036E+04  3.869168E+04 -2.564772E-10 -1.935305E-11
       456  18 -8.664904E+04  5.400865E+04  3.949306E+04  7.136203E+04 -2.872968E-09 -7.874812E-09
       456  19 -2.966337E+05  5.774666E+03 -2.817577E+03  7.150749E+04  4.556809E+03  1.667270E+03
       456  20 -4.227897E+05 -2.523380E+04 -3.296469E+04  3.884746E+04 -4.056738E+02 -4.451287E+03
       456  21 -5.511092E+05 -6.029427E+04 -6.747583E+04  7.285511E+04 -5.370396E+03 -9.814708E+03
       456  22 -3.188961E+05  3.671408E+02 -7.609709E+03  7.209754E+04 -1.067042E+02  1.651797E+03
       456  23 -3.178574E+05  5.913949E+02 -8.806741E+03  3.876960E+04 -4.525832E+03 -4.464620E+03
       456  24 -3.189040E+05 -3.140855E+03 -1.398938E+04  7.210878E+04 -8.948207E+03 -9.826003E+03
       456  25 -3.411579E+05 -5.040403E+03 -1.240179E+04  7.268757E+04 -4.770052E+03  1.636316E+03
       456  26 -2.129148E+05  2.641583E+04  1.535054E+04  3.869171E+04 -8.646681E+03 -4.477950E+03
       456  27 -8.664885E+04  5.400880E+04  3.949354E+04  7.136213E+04 -1.252735E+04 -9.837287E+03
       457   1 -6.760385E+05 -8.416224E+04 -9.821486E+04  6.401707E+04  2.902057E+03  1.536960E+04
       457   2 -7.946754E+05 -1.148317E+05 -1.380752E+05  4.425461E+04  2.891178E+04  1.922165E+04
       457   3 -9.304892E+05 -1.993037E+05 -2.084130E+05  9.055477E+04  5.496175E+04  6.828688E+03
       457   4 -3.218222E+05  3.061093E+03 -1.679788E+04  7.192565E+04  1.146315E+04  1.539607E+04
       457   5 -3.142693E+05  3.510045E+03 -2.687403E+04  3.896625E+04  2.579772E+04  1.921121E+04
       457   6 -3.218624E+05 -4.779070E+04 -5.929906E+04  7.206907E+04  4.017798E+04  6.785808E+03
       457   7  3.251067E+04  9.027591E+04  6.461110E+04  7.983868E+04  2.002908E+04  1.542274E+04
       457   8  1.663504E+05  1.218357E+05  8.431174E+04  3.367360E+04  2.268126E+04  1.920082E+04
       457   9  2.871036E+05  1.036963E+05  8.978881E+04  5.356493E+04  2.537971E+04  6.743831E+03
       457  10 -6.760386E+05 -8.416249E+04 -9.821532E+04  6.401703E+04 -1.734655E-09  3.659533E-09
       457  11 -7.946764E+05 -1.148324E+05 -1.380774E+05  4.425416E+04 -6.096448E-10 -2.456457E-09
       457  12 -9.304925E+05 -1.993045E+05 -2.084188E+05  9.055447E+04  1.962769E-09 -7.994946E-10
       457  13 -3.218224E+05  3.060803E+03 -1.679857E+04  7.192551E+04  8.623268E-10  5.968500E-09
       457  14 -3.142701E+05  3.509470E+03 -2.687597E+04  3.896585E+04 -1.423116E-09 -6.058445E-09
       457  15 -3.218641E+05 -4.779118E+04 -5.930218E+04  7.206885E+04 -9.047527E-10  4.659049E-09
       457  16  3.251017E+04  9.027555E+04  6.460990E+04  7.983844E+04 -2.601728E-10  1.773592E-09
       457  17  1.663497E+05  1.218352E+05  8.431008E+04  3.367325E+04 -1.281658E-09  3.077827E-09
       457  18  2.871028E+05  1.036961E+05  8.978752E+04  5.356479E+04 -9.402619E-10 -5.462921E-10
       457  19 -6.760385E+05 -8.416224E+04 -9.821486E+04  6.401707E+04 -2.902057E+03 -1.536960E+04
       457  20 -7.946754E+05 -1.148317E+05 -1.380752E+05  4.425461E+04 -2.891178E+04 -1.922165E+04
       457  21 -9.304892E+05 -1.993037E+05 -2.084130E+05  9.055477E+04 -5.496175E+04 -6.828688E+03
       457  22 -3.218222E+05  3.061093E+03 -1.679788E+04  7.192565E+04 -1.146315E+04 -1.539607E+04
       457  23 -3.142693E+05  3.510045E+03 -2.687403E+04  3.896625E+04 -2.579772E+04 -1.921121E+04
       457  24 -3.218624E+05 -4.779070E+04 -5.929906E+04  7.206907E+04 -4.017798E+04 -6.785808E+03
       457  25  3.251067E+04  9.027591E+04  6.461110E+04  7.983868E+04 -2.002908E+04 -1.542274E+04
       457  26  1.663504E+05  1.218357E+05  8.431174E+04  3.367360E+04 -2.268126E+04 -1.920082E+04
       457  27  2.871036E+05  1.036963E+05  8.978881E+04  5.356493E+04 -2.537971E+04 -6.743831E+03
       458   1 -3.880881E+05 -1.690698E+06 -4.011232E+05  2.122312E+05 -1.272980E+04 -1.018666E+05
       458   2 -2.185087E+05 -1.369871E+06 -2.539220E+05  1.088412E+05 -3.586712E+04 -5.480191E+04
       458   3 -1.437679E+05 -1.077714E+06 -1.609556E+05  1.647031E+05 -2.597241E+04 -7.656996E+03
       458   4 -8.476816E+04 -4.747847E+05 -1.027691E+05  1.764163E+05 -1.277244E+04 -7.351388E+04
       458   5  5.269983E+03 -4.624095E+05 -4.365124E+04  9.686532E+04 -3.586924E+04 -5.013700E+04
       458   6  4.673108E+03 -4.746177E+05 -2.222980E+04  1.765646E+05 -2.595186E+04 -2.670462E+04
       458   7  2.184470E+05  7.424815E+05  1.954801E+05  1.405314E+05 -1.281834E+04 -4.510549E+04
       458   8  2.289912E+05  4.458139E+05  1.665645E+05  8.487198E+04 -3.587154E+04 -4.546528E+04
       458   9  1.530895E+05  1.288167E+05  1.164733E+05  1.884378E+05 -2.593206E+04 -4.577062E+04
       458  10 -3.880911E+05 -1.690709E+06 -4.011430E+05  2.122302E+05  3.369018E-10  3.887496E-10
       458  11 -2.185109E+05 -1.369874E+06 -2.539301E+05  1.088396E+05  3.707736E-10  2.546952E-09
       458  12 -1.437687E+05 -1.077714E+06 -1.609569E+05  1.647029E+05 -2.310261E-10  3.231419E-10
       458  13 -8.476979E+04 -4.747906E+05 -1.027795E+05  1.764156E+05  8.814751E-10 -4.411013E-09
       458  14  5.267926E+03 -4.624126E+05 -4.365838E+04  9.686387E+04 -2.189326E-09 -4.320210E-10
       458  15  4.672194E+03 -4.746187E+05 -2.223241E+04  1.765640E+05 -3.805568E-10 -7.486245E-11
       458  16  2.184463E+05  7.424793E+05  1.954760E+05  1.405310E+05 -7.417859E-10  1.032243E-09
       458  17  2.289892E+05  4.458113E+05  1.665582E+05  8.487067E+04 -5.851052E-10  4.663225E-09
       458  18  1.530882E+05  1.288143E+05  1.164681E+05  1.884368E+05 -1.996368E-10  7.296687E-11
       458  19 -3.880881E+05 -1.690698E+06 -4.011232E+05  2.122312E+05  1.272980E+04  1.018666E+05
       458  20 -2.185087E+05 -1.369871E+06 -2.539220E+05  1.088412E+05  3.586712E+04  5.480191E+04
       458  21 -1.437679E+05 -1.077714E+06 -1.609556E+05  1.647031E+05  2.597241E+04  7.656996E+03
       458  22 -8.476816E+04 -4.747847E+05 -1.027691E+05  1.764163E+05  1.277244E+04  7.351388E+04
       458  23  5.269983E+03 -4.624095E+05 -4.365124E+04  9.686532E+04  3.586924E+04  5.013700E+04
       458  24  4.673108E+03 -4.746177E+05 -2.222980E+04  1.765646E+05  2.595186E+04  2.670462E+04
       458  25  2.184470E+05  7.424815E+05  1.954801E+05  1.405314E+05  1.281834E+04  4.510549E+04
       458  26  2.289912E+05  4.458139E+05  1.665645E+05  8.487198E+04  3.587154E+04  4.546528E+04
       458  27  1.530895E+05  1.288167E+05  1.164733E+05  1.884378E+05  2.593206E+04  4.577062E+04
       459   1 -8.308831E+04 -7.776003E+05 -8.600123E+04  1.780194E+05 -1.308050E+04 -1.437300E+04
       459   2 -6.932354E+02 -4.710563E+05  1.046382E+03  9.759102E+04 -6.227007E+01 -1.509516E+04
       459   3  8.210280E+04 -1.637509E+05  8.874955E+04  1.779193E+05  1.295574E+04 -1.581772E+04
       459   4 -7.093742E+03 -4.689421E+05 -1.491759E+04  1.768506E+05 -1.307176E+04 -2.374207E+04
       459   5 -2.531366E+02 -4.692790E+05  1.456285E+03  9.647913E+04 -5.338673E+01 -2.446242E+04
       459   6  6.996917E+03 -4.689358E+05  1.849584E+04  1.768643E+05  1.296446E+04 -2.518281E+04
       459   7  6.889421E+04 -1.601955E+05  5.616006E+04  1.756813E+05 -1.306300E+04 -3.311577E+04
       459   8  1.870137E+02 -4.675015E+05  1.866519E+03  9.536724E+04 -4.446982E+01 -3.382971E+04
       459   9 -6.811543E+04 -7.740343E+05 -5.176372E+04  1.758098E+05  1.297320E+04 -3.454333E+04
       459  10 -8.308855E+04 -7.776006E+05 -8.600194E+04  1.780193E+05 -7.244136E-10  3.788391E-10
       459  11 -6.932966E+02 -4.710566E+05  1.045954E+03  9.759101E+04  4.036110E-10  1.559831E-09
       459  12  8.210255E+04 -1.637512E+05  8.874876E+04  1.779194E+05 -1.732483E-09  6.831583E-10
       459  13 -7.094077E+03 -4.689428E+05 -1.491897E+04  1.768504E+05 -3.750378E-10 -2.574534E-09
       459  14 -2.532974E+02 -4.692797E+05  1.455160E+03  9.647913E+04 -2.915587E-09 -2.145697E-10
       459  15  6.996566E+03 -4.689365E+05  1.849433E+04  1.768645E+05 -1.120681E-10  6.261020E-10
       459  16  6.889373E+04 -1.601967E+05  5.615768E+04  1.756809E+05 -3.288440E-11  1.457539E-09
       459  17  1.867062E+02 -4.675027E+05  1.864367E+03  9.536724E+04 -1.036334E-09  2.644587E-09
       459  18 -6.811593E+04 -7.740356E+05 -5.176628E+04  1.758101E+05 -9.442204E-10  6.717671E-10
       459  19 -8.308831E+04 -7.776003E+05 -8.600123E+04  1.780194E+05  1.308050E+04  1.437300E+04
       459  20 -6.932354E+02 -4.710563E+05  1.046382E+03  9.759102E+04  6.227007E+01  1.509516E+04
       459  21  8.210280E+04 -1.637509E+05  8.874955E+04  1.779193E+05 -1.295574E+04  1.581772E+04
       459  22 -7.093742E+03 -4.689421E+05 -1.491759E+04  1.768506E+05  1.307176E+04  2.374207E+04
       459  23 -2.531366E+02 -4.692790E+05  1.456285E+03  9.647913E+04  5.338673E+01  2.446242E+04
       459  24  6.996917E+03 -4.689358E+05  1.849584E+04  1.768643E+05 -1.296446E+04  2.518281E+04
       459  25  6.889421E+04 -1.601955E+05  5.616006E+04  1.756813E+05  1.306300E+04  3.311577E+04
       459  26  1.870137E+02 -4.675015E+05  1.866519E+03  9.536724E+04  4.446982E+01  3.382971E+04
       459  27 -6.811543E+04 -7.740343E+05 -5.176372E+04  1.758098E+05 -1.297320E+04  3.454333E+04
       460   1  1.415358E+05  1.372549E+05  1.641923E+05  1.621998E+05  2.582127E+04 -9.768153E+03
       460   2  2.158531E+05  4.272118E+05  2.588560E+05  1.081222E+05  3.586682E+04 -5.997710E+04
       460   3  3.954676E+05  7.512122E+05  4.127314E+05  2.135869E+05  1.303995E+04 -1.102659E+05
       460   4 -6.046647E+03 -4.625114E+05  2.632082E+04  1.765408E+05  2.584164E+04 -2.877762E+04
       460   5 -6.930821E+03 -4.775240E+05  4.946170E+04  9.685166E+04  3.586484E+04 -5.527111E+04
       460   6  9.345772E+04 -4.626318E+05  1.154055E+05  1.767062E+05  1.299846E+04 -8.181898E+04
       460   7 -1.536533E+05 -1.061943E+06 -1.115730E+05  1.908680E+05  2.586114E+04 -4.776887E+04
       460   8 -2.297718E+05 -1.381503E+06 -1.599872E+05  8.559788E+04  3.586268E+04 -5.057189E+04
       460   9 -2.086556E+05 -1.675129E+06 -1.820245E+05  1.398980E+05  1.295356E+04 -5.342736E+04
       460  10  1.415351E+05  1.372546E+05  1.641909E+05  1.622000E+05 -1.017494E-09  7.020212E-10
       460  11  2.158508E+05  4.272076E+05  2.588468E+05  1.081239E+05  2.372787E-09  2.262882E-09
       460  12  3.954642E+05  7.511991E+05  4.127083E+05  2.135881E+05  1.024329E-09  8.083570E-10
       460  13 -6.047587E+03 -4.625125E+05  2.631801E+04  1.765414E+05 -1.654568E-09 -1.304794E-09
       460  14 -6.933023E+03 -4.775276E+05  4.945354E+04  9.685325E+04 -1.654222E-09  2.333698E-09
       460  15  9.345574E+04 -4.626390E+05  1.153926E+05  1.767070E+05 -5.523832E-10 -1.729133E-10
       460  16 -1.536546E+05 -1.061946E+06 -1.115785E+05  1.908690E+05  4.697557E-10  1.222341E-09
       460  17 -2.297738E+05 -1.381506E+06 -1.599944E+05  8.559934E+04 -3.446047E-10  4.088164E-09
       460  18 -2.086566E+05 -1.675132E+06 -1.820302E+05  1.398986E+05 -3.466349E-10  5.450408E-10
       460  19  1.415358E+05  1.372549E+05  1.641923E+05  1.621998E+05 -2.582127E+04  9.768153E+03
       460  20  2.158531E+05  4.272118E+05  2.588560E+05  1.081222E+05 -3.586682E+04  5.997710E+04
       460  21  3.954676E+05  7.512122E+05  4.127314E+05  2.135869E+05 -1.303995E+04  1.102659E+05
       460  22 -6.046647E+03 -4.625114E+05  2.632082E+04  1.765408E+05 -2.584164E+04  2.877762E+04
       460  23 -6.930821E+03 -4.775240E+05  4.946170E+04  9.685166E+04 -3.586484E+04  5.527111E+04
       460  24  9.345772E+04 -4.626318E+05  1.154055E+05  1.767062E+05 -1.299846E+04  8.181898E+04
       460  25 -1.536533E+05 -1.061943E+06 -1.115730E+05  1.908680E+05 -2.586114E+04  4.776887E+04
       460  26 -2.297718E+05 -1.381503E+06 -1.599872E+05  8.559788E+04 -3.586268E+04  5.057189E+04
       460  27 -2.086556E+05 -1.675129E+06 -1.820245E+05  1.398980E+05 -1.295356E+04  5.342736E+04
       461   1  7.641026E+05  6.413766E+05  2.495794E+05  4.905985E+05  1.124671E+05  8.136251E+04
       461   2  7.196719E+05  4.668445E+05  1.349651E+05  5.392666E+05  7.535529E+04  4.633843E+04
       461   3  7.590261E+05  4.294933E+05  9.620722E+04  5.321158E+05  3.479622E+04  1.589312E+04
       461   4  6.607675E+05  4.606849E+05  1.940542E+05  3.905959E+05  1.075618E+05  7.764808E+04
       461   5  5.891236E+05  3.394135E+05  8.717722E+04  4.585019E+05  7.375206E+04  4.512624E+04
       461   6  6.005665E+05  3.546205E+05  5.330015E+04  4.705831E+05  3.649708E+04  1.717673E+04
       461   7  5.574505E+05  2.800453E+05  1.385280E+05  2.906218E+05  1.026575E+05  7.393604E+04
       461   8  4.585944E+05  2.120034E+05  3.938690E+04  3.777596E+05  7.214927E+04  4.391457E+04
       461   9  4.421350E+05  2.797527E+05  1.039109E+04  4.090648E+05  3.819733E+04  1.846008E+04
       461  10  7.640873E+05  6.413661E+05  2.495433E+05  4.905912E+05 -1.203459E-09  2.010953E-09
       461  11  7.196653E+05  4.668407E+05  1.349505E+05  5.392638E+05 -2.762518E-09  4.151800E-09
       461  12  7.590247E+05  4.294928E+05  9.620447E+04  5.321153E+05 -7.555467E-11  6.591173E-09
       461  13  6.607535E+05  4.606753E+05  1.940212E+05  3.905892E+05  1.259579E-09 -4.210187E-10
       461  14  5.891172E+05  3.394098E+05  8.716319E+04  4.584992E+05 -2.801350E-10  6.250375E-09
       461  15  6.005650E+05  3.546198E+05  5.329709E+04  4.705826E+05 -7.477951E-10  4.351602E-09
       461  16  5.574377E+05  2.800366E+05  1.384980E+05  2.906157E+05  5.176121E-10 -4.864697E-10
       461  17  4.585883E+05  2.119999E+05  3.937351E+04  3.777571E+05 -2.804288E-10 -3.920706E-09
       461  18  4.421333E+05  2.797520E+05  1.038771E+04  4.090642E+05 -2.120896E-09 -4.606852E-10
       461  19  7.641026E+05  6.413766E+05  2.495794E+05  4.905985E+05 -1.124671E+05 -8.136251E+04
       461  20  7.196719E+05  4.668445E+05  1.349651E+05  5.392666E+05 -7.535529E+04 -4.633843E+04
       461  21  7.590261E+05  4.294933E+05  9.620722E+04  5.321158E+05 -3.479622E+04 -1.589312E+04
       461  22  6.607675E+05  4.606849E+05  1.940542E+05  3.905959E+05 -1.075618E+05 -7.764808E+04
       461  23  5.891236E+05  3.394135E+05  8.717722E+04  4.585019E+05 -7.375206E+04 -4.512624E+04
       461  24  6.005665E+05  3.546205E+05  5.330015E+04  4.705831E+05 -3.649708E+04 -1.717673E+04
       461  25  5.574505E+05  2.800453E+05  1.385280E+05  2.906218E+05 -1.026575E+05 -7.393604E+04
       461  26  4.585944E+05  2.120034E+05  3.938690E+04  3.777596E+05 -7.214927E+04 -4.391457E+04
       461  27  4.421350E+05  2.797527E+05  1.039109E+04  4.090648E+05 -3.819733E+04 -1.846008E+04
       462   1  7.201572E+05  4.553740E+05  8.217568E+04  5.181961E+05  2.911956E+04  1.317012E+04
       462   2  7.074823E+05  4.283340E+05  5.870900E+04  5.138213E+05  1.866055E+04  6.090563E+03
       462   3  6.929033E+05  4.213930E+05  4.675534E+04  5.082911E+05  8.034991E+03 -7.677072E+02
       462   4  6.017538E+05  3.641160E+05  4.343909E+04  4.560684E+05  2.940579E+04  1.338547E+04
       462   5  6.004838E+05  3.501406E+05  2.457213E+04  4.596226E+05  1.910839E+04  6.428040E+03
       462   6  5.972764E+05  3.562306E+05  1.707993E+04  4.620211E+05  8.644265E+03 -3.083604E+02
       462   7  4.833644E+05  2.728667E+05  4.700329E+03  3.939540E+05  2.969194E+04  1.360076E+04
       462   8  4.934975E+05  2.719539E+05 -9.566204E+03  4.054346E+05  1.955613E+04  6.765436E+03
       462   9  5.016599E+05  2.910733E+05 -1.259634E+04  4.157592E+05  9.253405E+03  1.508921E+02
       462  10  7.201562E+05  4.553736E+05  8.217376E+04  5.181958E+05 -7.880315E-10  6.566242E-09
       462  11  7.074819E+05  4.283338E+05  5.870828E+04  5.138212E+05 -1.200988E-09  2.151965E-10
       462  12  6.929033E+05  4.213930E+05  4.675521E+04  5.082911E+05  1.487202E-09 -1.004802E-10
       462  13  6.017528E+05  3.641156E+05  4.343713E+04  4.560680E+05 -1.524294E-09 -4.006292E-09
       462  14  6.004834E+05  3.501405E+05  2.457136E+04  4.596225E+05 -1.445651E-09 -6.760499E-10
       462  15  5.972763E+05  3.562306E+05  1.707979E+04  4.620211E+05  2.350787E-09 -1.908161E-10
       462  16  4.833634E+05  2.728663E+05  4.698327E+03  3.939537E+05 -2.543950E-09 -5.534815E-10
       462  17  4.934971E+05  2.719538E+05 -9.567008E+03  4.054345E+05 -1.119281E-09 -3.930071E-09
       462  18  5.016598E+05  2.910732E+05 -1.259650E+04  4.157592E+05 -1.790773E-09 -3.874757E-09
       462  19  7.201572E+05  4.553740E+05  8.217568E+04  5.181961E+05 -2.911956E+04 -1.317012E+04
       462  20  7.074823E+05  4.283340E+05  5.870900E+04  5.138213E+05 -1.866055E+04 -6.090563E+03
       462  21  6.929033E+05  4.213930E+05  4.675534E+04  5.082911E+05 -8.034991E+03  7.677072E+02
       462  22  6.017538E+05  3.641160E+05  4.343909E+04  4.560684E+05 -2.940579E+04 -1.338547E+04
       462  23  6.004838E+05  3.501406E+05  2.457213E+04  4.596226E+05 -1.910839E+04 -6.428040E+03
       462  24  5.972764E+05  3.562306E+05  1.707993E+04  4.620211E+05 -8.644265E+03  3.083604E+02
       462  25  4.833644E+05  2.728667E+05  4.700329E+03  3.939540E+05 -2.969194E+04 -1.360076E+04
       462  26  4.934975E+05  2.719539E+05 -9.566204E+03  4.054346E+05 -1.955613E+04 -6.765436E+03
       462  27  5.016599E+05  2.910733E+05 -1.259634E+04  4.157592E+05 -9.253405E+03 -1.508921E+02
       463   1  6.771508E+05  4.145240E+05  4.071593E+04  5.011877E+05  5.450602E+03 -1.975013E+03
       463   2  6.674273E+05  3.982990E+05  3.588483E+04  4.927756E+05 -1.070325E+03 -5.716571E+03
       463   3  6.499883E+05  3.941226E+05  3.657695E+04  4.866490E+05 -7.595329E+03 -9.452722E+03
       463   4  5.973240E+05  3.567918E+05  1.541564E+04  4.610199E+05  5.988691E+03 -1.569322E+03
       463   5  6.012929E+05  3.509622E+05  1.497491E+04  4.597305E+05 -5.275225E+02 -5.307266E+03
       463   6  5.975450E+05  3.571806E+05  2.005388E+04  4.607265E+05 -7.048013E+03 -9.039962E+03
       463   7  5.175039E+05  2.990631E+05 -9.885454E+03  4.208580E+05  6.526686E+03 -1.163704E+03
       463   8  5.351628E+05  3.036276E+05 -5.935644E+03  4.266893E+05  1.520367E+01 -4.898020E+03
       463   9  5.451044E+05  3.202397E+05  3.530341E+03  4.348062E+05 -6.500756E+03 -8.627246E+03
       463  10  6.771508E+05  4.145240E+05  4.071586E+04  5.011877E+05  1.396809E-09 -2.347579E-10
       463  11  6.674273E+05  3.982990E+05  3.588476E+04  4.927756E+05 -5.392376E-10  1.378046E-09
       463  12  6.499882E+05  3.941225E+05  3.657667E+04  4.866489E+05  4.573758E-10 -1.322599E-09
       463  13  5.973239E+05  3.567917E+05  1.541557E+04  4.610199E+05  3.184574E-09 -2.884335E-09
       463  14  6.012929E+05  3.509621E+05  1.497486E+04  4.597305E+05  1.453768E-09  2.080609E-09
       463  15  5.975450E+05  3.571805E+05  2.005364E+04  4.607264E+05  5.133085E-10 -4.734940E-09
       463  16  5.175039E+05  2.990631E+05 -9.885537E+03  4.208580E+05  2.342287E-09  2.832326E-09
       463  17  5.351628E+05  3.036275E+05 -5.935689E+03  4.266893E+05  5.420939E-09 -3.908568E-09
       463  18  5.451043E+05  3.202397E+05  3.530122E+03  4.348061E+05  2.185814E-09 -3.076197E-09
       463  19  6.771508E+05  4.145240E+05  4.071593E+04  5.011877E+05 -5.450602E+03  1.975013E+03
       463  20  6.674273E+05  3.982990E+05  3.588483E+04  4.927756E+05  1.070325E+03  5.716571E+03
       463  21  6.499883E+05  3.941226E+05  3.657695E+04  4.866490E+05  7.595329E+03  9.452722E+03
       463  22  5.973240E+05  3.567918E+05  1.541564E+04  4.610199E+05 -5.988691E+03  1.569322E+03
       463  23  6.012929E+05  3.509622E+05  1.497491E+04  4.597305E+05  5.275225E+02  5.307266E+03
       463  24  5.975450E+05  3.571806E+05  2.005388E+04  4.607265E+05  7.048013E+03  9.039962E+03
       463  25  5.175039E+05  2.990631E+05 -9.885454E+03  4.208580E+05 -6.526686E+03  1.163704E+03
       463  26  5.351628E+05  3.036276E+05 -5.935644E+03  4.266893E+05 -1.520367E+01  4.898020E+03
       463  27  5.451044E+05  3.202397E+05  3.530341E+03  4.348062E+05  6.500756E+03  8.627246E+03
       464   1  6.331310E+05  3.870109E+05  3.645077E+04  4.828386E+05 -1.106725E+04 -1.136888E+04
       464   2  6.260854E+05  3.655361E+05  4.665918E+04  4.714360E+05 -2.727205E+04 -2.241735E+04
       464   3  6.225096E+05  3.707089E+05  7.512349E+04  4.560677E+05 -4.343897E+04 -3.351527E+04
       464   4  5.975889E+05  3.561295E+05  2.426338E+04  4.625794E+05 -1.050953E+04 -1.094814E+04
       464   5  5.996380E+05  3.494661E+05  3.882686E+04  4.595303E+05 -2.674955E+04 -2.202338E+04
       464   6  6.051645E+05  3.694576E+05  7.167711E+04  4.525148E+05 -4.295203E+04 -3.314873E+04
       464   7  5.620484E+05  3.252496E+05  1.207593E+04  4.423218E+05 -9.951854E+03 -1.052744E+04
       464   8  5.731915E+05  3.333964E+05  3.099450E+04  4.476251E+05 -2.622708E+04 -2.162943E+04
       464   9  5.878197E+05  3.682063E+05  6.823073E+04  4.489619E+05 -4.246510E+04 -3.278218E+04
       464  10  6.331308E+05  3.870107E+05  3.645029E+04  4.828385E+05  2.312513E-09 -3.762474E-09
       464  11  6.260845E+05  3.655354E+05  4.665684E+04  4.714355E+05  4.125624E-09 -4.977945E-09
       464  12  6.225073E+05  3.707072E+05  7.511785E+04  4.560665E+05  2.044784E-09  6.843723E-11
       464  13  5.975887E+05  3.561294E+05  2.426295E+04  4.625793E+05  2.364801E-09 -1.436752E-09
       464  14  5.996371E+05  3.494654E+05  3.882460E+04  4.595298E+05  1.644556E-09 -1.103009E-09
       464  15  6.051622E+05  3.694559E+05  7.167158E+04  4.525137E+05  2.461734E-09  7.332255E-09
       464  16  5.620483E+05  3.252494E+05  1.207553E+04  4.423217E+05 -2.237276E-10 -2.860987E-09
       464  17  5.731907E+05  3.333957E+05  3.099233E+04  4.476246E+05  1.159081E-09  2.498574E-09
       464  18  5.878175E+05  3.682047E+05  6.822533E+04  4.489608E+05  1.422984E-09  3.843082E-09
       464  19  6.331310E+05  3.870109E+05  3.645077E+04  4.828386E+05  1.106725E+04  1.136888E+04
       464  20  6.260854E+05  3.655361E+05  4.665918E+04  4.714360E+05  2.727205E+04  2.241735E+04
       464  21  6.225096E+05  3.707089E+05  7.512349E+04  4.560677E+05  4.343897E+04  3.351527E+04
       464  22  5.975889E+05  3.561295E+05  2.426338E+04  4.625794E+05  1.050953E+04  1.094814E+04
       464  23  5.996380E+05  3.494661E+05  3.882686E+04  4.595303E+05  2.674955E+04  2.202338E+04
       464  24  6.051645E+05  3.694576E+05  7.167711E+04  4.525148E+05  4.295203E+04  3.314873E+04
       464  25  5.620484E+05  3.252496E+05  1.207593E+04  4.423218E+05  9.951854E+03  1.052744E+04
       464  26  5.731915E+05  3.333964E+05  3.099450E+04  4.476251E+05  2.622708E+04  2.162943E+04
       464  27  5.878197E+05  3.682063E+05  6.823073E+04  4.489619E+05  4.246510E+04  3.278218E+04
       465   1  5.630793E+05  3.893083E+05  8.782625E+04  4.864465E+05 -5.465301E+04 -4.110986E+04
       465   2  5.976217E+05  2.861646E+05  1.409545E+05  4.398821E+05 -1.167611E+05 -8.699357E+04
       465   3  7.788271E+05  4.053336E+05  3.161089E+05  2.973484E+05 -1.781344E+05 -1.338457E+05
       465   4  6.031892E+05  3.534930E+05  8.864201E+04  4.769492E+05 -5.386606E+04 -4.051089E+04
       465   5  5.804853E+05  3.314206E+05  1.461908E+05  4.576432E+05 -1.166790E+05 -8.694187E+04
       465   6  7.045743E+05  5.317958E+05  3.263773E+05  3.423731E+05 -1.787477E+05 -1.343572E+05
       465   7  6.433037E+05  3.176822E+05  8.945860E+04  4.674506E+05 -5.307904E+04 -3.991202E+04
       465   8  5.633512E+05  3.766820E+05  1.514278E+05  4.754039E+05 -1.165969E+05 -8.689017E+04
       465   9  6.303478E+05  6.583031E+05  3.366519E+05  3.873914E+05 -1.793610E+05 -1.348690E+05
       465  10  5.630757E+05  3.893057E+05  8.781748E+04  4.864447E+05  4.581852E-10  1.071143E-09
       465  11  5.976050E+05  2.861528E+05  1.409147E+05  4.398740E+05  7.242904E-10 -3.355759E-09
       465  12  7.787883E+05  4.053058E+05  3.160157E+05  2.973292E+05 -5.216030E-11  5.036405E-09
       465  13  6.031856E+05  3.534905E+05  8.863349E+04  4.769474E+05  1.689621E-09 -7.893251E-09
       465  14  5.804686E+05  3.314088E+05  1.461511E+05  4.576350E+05 -4.755952E-11  2.629965E-09
       465  15  7.045352E+05  5.317679E+05  3.262835E+05  3.423538E+05  2.410691E-09 -3.374900E-10
       465  16  6.433002E+05  3.176797E+05  8.945032E+04  4.674488E+05  1.445473E-09  1.429917E-09
       465  17  5.633346E+05  3.766702E+05  1.513881E+05  4.753957E+05 -2.963984E-10 -4.783812E-09
       465  18  6.303084E+05  6.582750E+05  3.365574E+05  3.873719E+05 -5.375043E-10  1.827014E-09
       465  19  5.630793E+05  3.893083E+05  8.782625E+04  4.864465E+05  5.465301E+04  4.110986E+04
       465  20  5.976217E+05  2.861646E+05  1.409545E+05  4.398821E+05  1.167611E+05  8.699357E+04
       465  21  7.788271E+05  4.053336E+05  3.161089E+05  2.973484E+05  1.781344E+05  1.338457E+05
       465  22  6.031892E+05  3.534930E+05  8.864201E+04  4.769492E+05  5.386606E+04  4.051089E+04
       465  23  5.804853E+05  3.314206E+05  1.461908E+05  4.576432E+05  1.166790E+05  8.694187E+04
       465  24  7.045743E+05  5.317958E+05  3.263773E+05  3.423731E+05  1.787477E+05  1.343572E+05
       465  25  6.433037E+05  3.176822E+05  8.945860E+04  4.674506E+05  5.307904E+04  3.991202E+04
       465  26  5.633512E+05  3.766820E+05  1.514278E+05  4.754039E+05  1.165969E+05  8.689017E+04
       465  27  6.303478E+05  6.583031E+05  3.366519E+05  3.873914E+05  1.793610E+05  1.348690E+05
       466   1  3.281534E+05  1.032642E+05  9.479616E+04  4.119935E+04 -8.942848E+03 -5.875680E+03
       466   2  2.416018E+05  1.075494E+05  8.457538E+04  2.508914E+04 -1.092121E+04 -1.719100E+04
       466   3  1.484843E+05  8.537610E+04  6.900417E+04  5.549650E+04 -1.293674E+04 -1.487182E+04
       466   4 -1.915461E+05 -2.603144E+04 -3.236017E+04  5.092639E+04 -2.198724E+04 -5.911467E+03
       466   5 -1.873929E+05  1.936404E+03 -1.462068E+04  2.762757E+04 -1.414967E+04 -1.720115E+04
       466   6 -1.915232E+05  1.731622E+03 -9.052824E+03  5.084921E+04 -6.349482E+03 -1.485209E+04
       466   7 -7.109990E+05 -1.553466E+05 -1.595356E+05  6.064509E+04 -3.502073E+04 -5.947678E+03
       466   8 -6.162174E+05 -1.036895E+05 -1.138290E+05  3.016410E+04 -1.737592E+04 -1.721132E+04
       466   9 -5.314234E+05 -8.192083E+04 -8.711727E+04  4.620440E+04  2.342011E+02 -1.483245E+04
       466  10  3.281533E+05  1.032642E+05  9.479595E+04  4.119931E+04 -5.952041E-09  7.277739E-10
       466  11  2.416016E+05  1.075491E+05  8.457460E+04  2.508899E+04 -2.185819E-09  8.289084E-09
       466  12  1.484840E+05  8.537582E+04  6.900344E+04  5.549635E+04  4.011840E-09  4.020300E-09
       466  13 -1.915467E+05 -2.603161E+04 -3.236115E+04  5.092628E+04  1.539751E-09 -4.479441E-09
       466  14 -1.873932E+05  1.936032E+03 -1.462161E+04  2.762737E+04 -6.317257E-10 -8.553843E-09
       466  15 -1.915233E+05  1.731374E+03 -9.053314E+03  5.084914E+04 -8.854166E-10  1.036444E-09
       466  16 -7.110004E+05 -1.553470E+05 -1.595379E+05  6.064492E+04  5.069587E-09  1.131364E-09
       466  17 -6.162178E+05 -1.036899E+05 -1.138301E+05  3.016386E+04  2.938042E-10  1.103679E-08
       466  18 -5.314235E+05 -8.192107E+04 -8.711769E+04  4.620441E+04 -2.482458E-09 -9.696466E-11
       466  19  3.281534E+05  1.032642E+05  9.479616E+04  4.119935E+04  8.942848E+03  5.875680E+03
       466  20  2.416018E+05  1.075494E+05  8.457538E+04  2.508914E+04  1.092121E+04  1.719100E+04
       466  21  1.484843E+05  8.537610E+04  6.900417E+04  5.549650E+04  1.293674E+04  1.487182E+04
       466  22 -1.915461E+05 -2.603144E+04 -3.236017E+04  5.092639E+04  2.198724E+04  5.911467E+03
       466  23 -1.873929E+05  1.936404E+03 -1.462068E+04  2.762757E+04  1.414967E+04  1.720115E+04
       466  24 -1.915232E+05  1.731622E+03 -9.052824E+03  5.084921E+04  6.349482E+03  1.485209E+04
       466  25 -7.109990E+05 -1.553466E+05 -1.595356E+05  6.064509E+04  3.502073E+04  5.947678E+03
       466  26 -6.162174E+05 -1.036895E+05 -1.138290E+05  3.016410E+04  1.737592E+04  1.721132E+04
       466  27 -5.314234E+05 -8.192083E+04 -8.711727E+04  4.620440E+04 -2.342011E+02  1.483245E+04
       467   1  6.392588E+04  6.080723E+04  5.099434E+04  5.088142E+04 -7.399387E+03 -1.067655E+04
       467   2 -2.532004E+04  4.070482E+04  3.320263E+04  2.768643E+04 -5.592405E+03 -7.023549E+03
       467   3 -1.156349E+05  1.864330E+04  1.366682E+04  5.151120E+04 -3.788777E+03 -2.724203E+03
       467   4 -1.899280E+05 -1.658063E+03 -7.478747E+03  5.098662E+04 -5.004652E+03 -1.066933E+04
       467   5 -1.893444E+05  3.507907E+02 -4.524309E+03  2.747322E+04 -2.733284E+03 -7.014552E+03
       467   6 -1.899198E+05  3.196286E+02 -3.637118E+03  5.098040E+04 -4.650208E+02 -2.713319E+03
       467   7 -4.437222E+05 -6.412786E+04 -6.595609E+04  5.109173E+04 -2.610889E+03 -1.066212E+04
       467   8 -3.533439E+05 -4.000512E+04 -4.225300E+04  2.726004E+04  1.250880E+02 -7.005555E+03
       467   9 -2.641996E+05 -1.800443E+04 -2.094139E+04  5.044965E+04  2.858341E+03 -2.702440E+03
       467  10  6.392579E+04  6.080709E+04  5.099402E+04  5.088135E+04  2.668019E-09 -2.077939E-09
       467  11 -2.532009E+04  4.070476E+04  3.320248E+04  2.768640E+04  6.336593E-10  1.534925E-09
       467  12 -1.156350E+05  1.864329E+04  1.366678E+04  5.151119E+04  1.358305E-09  6.821344E-09
       467  13 -1.899280E+05 -1.658192E+03 -7.479008E+03  5.098658E+04  1.486346E-09  7.795977E-09
       467  14 -1.893444E+05  3.507359E+02 -4.524416E+03  2.747320E+04 -9.679276E-10 -2.162299E-08
       467  15 -1.899198E+05  3.196207E+02 -3.637132E+03  5.098040E+04 -9.409366E-10  8.642450E-09
       467  16 -4.437222E+05 -6.412798E+04 -6.595631E+04  5.109171E+04 -3.398244E-09 -8.653277E-09
       467  17 -3.533439E+05 -4.000517E+04 -4.225309E+04  2.726004E+04 -1.920988E-09 -1.585217E-09
       467  18 -2.641996E+05 -1.800444E+04 -2.094142E+04  5.044966E+04 -1.621615E-10  6.973121E-10
       467  19  6.392588E+04  6.080723E+04  5.099434E+04  5.088142E+04  7.399387E+03  1.067655E+04
       467  20 -2.532004E+04  4.070482E+04  3.320263E+04  2.768643E+04  5.592405E+03  7.023549E+03
       467  21 -1.156349E+05  1.864330E+04  1.366682E+04  5.151120E+04  3.788777E+03  2.724203E+03
       467  22 -1.899280E+05 -1.658063E+03 -7.478747E+03  5.098662E+04  5.004652E+03  1.066933E+04
       467  23 -1.893444E+05  3.507907E+02 -4.524309E+03  2.747322E+04  2.733284E+03  7.014552E+03
       467  24 -1.899198E+05  3.196286E+02 -3.637118E+03  5.098040E+04  4.650208E+02  2.713319E+03
       467  25 -4.437222E+05 -6.412786E+04 -6.595609E+04  5.109173E+04  2.610889E+03  1.066212E+04
       467  26 -3.533439E+05 -4.000512E+04 -4.225300E+04  2.726004E+04 -1.250880E+02  7.005555E+03
       467  27 -2.641996E+05 -1.800443E+04 -2.094139E+04  5.044965E+04 -2.858341E+03  2.702440E+03
       468   1 -2.016536E+05 -2.645283E+03 -6.516488E+03  5.063920E+04 -3.139859E+03  7.118118E+00
       468   2 -2.908485E+05 -2.463312E+04 -2.758937E+04  2.738709E+04 -6.107286E+02  4.317235E+03
       468   3 -3.812090E+05 -4.852307E+04 -5.086847E+04  5.116627E+04  1.920518E+03  8.060009E+03
       468   4 -1.899055E+05  2.934190E+02 -3.586503E+03  5.098290E+04  1.607174E+02  1.796995E+01
       468   5 -1.893578E+05  3.412099E+02 -4.234411E+03  2.747024E+04  2.281590E+03  4.326518E+03
       468   6 -1.899106E+05 -1.441098E+03 -6.803922E+03  5.098843E+04  4.404933E+03  8.067792E+03
       468   7 -1.781574E+05  3.232117E+03 -6.564868E+02  5.132659E+04  3.461356E+03  2.882533E+01
       468   8 -8.785759E+04  2.531483E+04  1.911990E+04  2.755339E+04  5.174378E+03  4.335802E+03
       468   9  1.421621E+03  4.563832E+04  3.725823E+04  5.081050E+04  6.890108E+03  8.075572E+03
       468  10 -2.016536E+05 -2.645286E+03 -6.516507E+03  5.063920E+04  6.831447E-09 -5.705594E-09
       468  11 -2.908485E+05 -2.463314E+04 -2.758941E+04  2.738709E+04 -1.225624E-09 -8.521829E-09
       468  12 -3.812090E+05 -4.852314E+04 -5.086860E+04  5.116625E+04 -1.662021E-09 -2.079693E-09
       468  13 -1.899055E+05  2.934190E+02 -3.586503E+03  5.098290E+04  1.729175E-09 -1.194648E-10
       468  14 -1.893578E+05  3.411885E+02 -4.234456E+03  2.747023E+04 -1.475803E-09 -3.466604E-09
       468  15 -1.899107E+05 -1.441173E+03 -6.804081E+03  5.098840E+04 -1.169584E-09 -3.592939E-10
       468  16 -1.781574E+05  3.232114E+03 -6.565094E+02  5.132659E+04 -7.690906E-09 -4.650291E-09
       468  17 -8.785763E+04  2.531480E+04  1.911981E+04  2.755337E+04 -1.337588E-09  6.274508E-09
       468  18  1.421552E+03  4.563824E+04  3.725801E+04  5.081046E+04  2.585414E-09  7.049333E-09
       468  19 -2.016536E+05 -2.645283E+03 -6.516488E+03  5.063920E+04  3.139859E+03 -7.118118E+00
       468  20 -2.908485E+05 -2.463312E+04 -2.758937E+04  2.738709E+04  6.107286E+02 -4.317235E+03
       468  21 -3.812090E+05 -4.852307E+04 -5.086847E+04  5.116627E+04 -1.920518E+03 -8.060009E+03
       468  22 -1.899055E+05  2.934190E+02 -3.586503E+03  5.098290E+04 -1.607174E+02 -1.796995E+01
       468  23 -1.893578E+05  3.412099E+02 -4.234411E+03  2.747024E+04 -2.281590E+03 -4.326518E+03
       468  24 -1.899106E+05 -1.441098E+03 -6.803922E+03  5.098843E+04 -4.404933E+03 -8.067792E+03
       468  25 -1.781574E+05  3.232117E+03 -6.564868E+02  5.132659E+04 -3.461356E+03 -2.882533E+01
       468  26 -8.785759E+04  2.531483E+04  1.911990E+04  2.755339E+04 -5.174378E+03 -4.335802E+03
       468  27  1.421621E+03  4.563832E+04  3.725823E+04  5.081050E+04 -6.890108E+03 -8.075572E+03
       469   1 -4.687532E+05 -6.668479E+04 -7.192349E+04  4.675179E+04 -5.822657E+02  1.205508E+04
       469   2 -5.540688E+05 -8.849926E+04 -9.793706E+04  2.989198E+04  1.514559E+04  1.466450E+04
       469   3 -6.483818E+05 -1.370659E+05 -1.409434E+05  5.962859E+04  3.090584E+04  5.147124E+03
       469   4 -1.913386E+05  1.594531E+03 -8.188923E+03  5.086742E+04  5.625045E+03  1.207423E+04
       469   5 -1.876064E+05  1.765168E+03 -1.313833E+04  2.760553E+04  1.263148E+04  1.465636E+04
       469   6 -1.913584E+05 -2.329226E+04 -2.901529E+04  5.093936E+04  1.967268E+04  5.114547E+03
       469   7  8.614746E+04  6.986856E+04  5.554071E+04  5.498485E+04  1.183511E+04  1.209345E+04
       469   8  1.789801E+05  9.202019E+04  7.165145E+04  2.531762E+04  1.011589E+04  1.464824E+04
       469   9  2.658560E+05  9.046628E+04  8.289800E+04  4.224358E+04  8.431263E+03  5.082297E+03
       469  10 -4.687532E+05 -6.668495E+04 -7.192376E+04  4.675180E+04  1.964326E-08 -4.925530E-09
       469  11 -5.540691E+05 -8.849955E+04 -9.793789E+04  2.989181E+04 -9.405693E-10  2.127979E-09
       469  12 -6.483829E+05 -1.370662E+05 -1.409452E+05  5.962846E+04 -1.384077E-08 -1.958608E-09
       469  13 -1.913386E+05  1.594366E+03 -8.189256E+03  5.086737E+04  1.383988E-09  6.812784E-09
       469  14 -1.876067E+05  1.764895E+03 -1.313903E+04  2.760538E+04 -6.987449E-10 -7.381617E-09
       469  15 -1.913588E+05 -2.329239E+04 -2.901607E+04  5.093928E+04 -7.093919E-10 -2.165822E-09
       469  16  8.614727E+04  6.986836E+04  5.554017E+04  5.498473E+04 -2.085692E-08  3.055610E-09
       469  17  1.789800E+05  9.201993E+04  7.165085E+04  2.531750E+04 -8.725858E-10  1.099300E-08
       469  18  2.658559E+05  9.046624E+04  8.289782E+04  4.224354E+04  1.457433E-08  2.353897E-09
       469  19 -4.687532E+05 -6.668479E+04 -7.192349E+04  4.675179E+04  5.822657E+02 -1.205508E+04
       469  20 -5.540688E+05 -8.849926E+04 -9.793706E+04  2.989198E+04 -1.514559E+04 -1.466450E+04
       469  21 -6.483818E+05 -1.370659E+05 -1.409434E+05  5.962859E+04 -3.090584E+04 -5.147124E+03
       469  22 -1.913386E+05  1.594531E+03 -8.188923E+03  5.086742E+04 -5.625045E+03 -1.207423E+04
       469  23 -1.876064E+05  1.765168E+03 -1.313833E+04  2.760553E+04 -1.263148E+04 -1.465636E+04
       469  24 -1.913584E+05 -2.329226E+04 -2.901529E+04  5.093936E+04 -1.967268E+04 -5.114547E+03
       469  25  8.614746E+04  6.986856E+04  5.554071E+04  5.498485E+04 -1.183511E+04 -1.209345E+04
       469  26  1.789801E+05  9.202019E+04  7.165145E+04  2.531762E+04 -1.011589E+04 -1.464824E+04
       469  27  2.658560E+05  9.046628E+04  8.289800E+04  4.224358E+04 -8.431263E+03 -5.082297E+03
       470   1 -3.018707E+05 -1.426280E+06 -3.196532E+05  1.670393E+05 -8.452950E+03 -9.938951E+04
       470   2 -1.430820E+05 -1.191627E+06 -1.925090E+05  8.335650E+04 -2.381370E+04 -5.533263E+04
       470   3 -9.065599E+04 -9.884631E+05 -1.205551E+05  1.133857E+05 -1.662782E+04 -1.120951E+04
       470   4 -9.583314E+04 -6.007724E+05 -1.170470E+05  1.266680E+05 -8.488778E+03 -8.037570E+04
       470   5  6.206828E+03 -5.863823E+05 -5.224129E+04  6.992046E+04 -2.381678E+04 -5.248990E+04
       470   6  4.756583E+03 -6.006739E+05 -3.133470E+04  1.268887E+05 -1.660411E+04 -2.455436E+04
       470   7  1.101600E+05  2.253606E+05  8.551138E+04  8.624311E+04 -8.527063E+03 -6.133655E+04
       470   8  1.554705E+05  1.920151E+04  8.800195E+04  5.647135E+04 -2.381998E+04 -4.964439E+04
       470   9  1.001594E+05 -2.127445E+05  5.787652E+04  1.404003E+05 -1.658099E+04 -3.790748E+04
       470  10 -3.018735E+05 -1.426290E+06 -3.196720E+05  1.670386E+05 -1.979729E-10  2.039501E-09
       470  11 -1.430835E+05 -1.191630E+06 -1.925158E+05  8.335544E+04 -6.300833E-10  4.344087E-09
       470  12 -9.065632E+04 -9.884633E+05 -1.205559E+05  1.133855E+05  1.987068E-09  3.673393E-09
       470  13 -9.583495E+04 -6.007793E+05 -1.170593E+05  1.266674E+05  1.607978E-09  1.164485E-09
       470  14  6.205478E+03 -5.863854E+05 -5.224754E+04  6.991945E+04 -1.337605E-09  3.324727E-10
       470  15  4.756125E+03 -6.006746E+05 -3.133635E+04  1.268884E+05  1.211021E-10  2.795555E-09
       470  16  1.101589E+05  2.253566E+05  8.550417E+04  8.624269E+04  8.868563E-10 -2.086245E-10
       470  17  1.554693E+05  1.919871E+04  8.799626E+04  5.647040E+04  2.735682E-09 -1.870537E-09
       470  18  1.001588E+05 -2.127462E+05  5.787330E+04  1.403998E+05 -1.574353E-09 -6.683899E-10
       470  19 -3.018707E+05 -1.426280E+06 -3.196532E+05  1.670393E+05  8.452950E+03  9.938951E+04
       470  20 -1.430820E+05 -1.191627E+06 -1.925090E+05  8.335650E+04  2.381370E+04  5.533263E+04
       470  21 -9.065599E+04 -9.884631E+05 -1.205551E+05  1.133857E+05  1.662782E+04  1.120951E+04
       470  22 -9.583314E+04 -6.007724E+05 -1.170470E+05  1.266680E+05  8.488778E+03  8.037570E+04
       470  23  6.206828E+03 -5.863823E+05 -5.224129E+04  6.992046E+04  2.381678E+04  5.248990E+04
       470  24  4.756583E+03 -6.006739E+05 -3.133470E+04  1.268887E+05  1.660411E+04  2.455436E+04
       470  25  1.101600E+05  2.253606E+05  8.551138E+04  8.624311E+04  8.527063E+03  6.133655E+04
       470  26  1.554705E+05  1.920151E+04  8.800195E+04  5.647135E+04  2.381998E+04  4.964439E+04
       470  27  1.001594E+05 -2.127445E+05  5.787652E+04  1.404003E+05  1.658099E+04  3.790748E+04
       471   1 -5.127495E+04 -7.721406E+05 -6.594156E+04  1.296945E+05 -7.534341E+03 -1.316279E+04
       471   2  1.064149E+04 -5.517241E+05 -3.227795E+03  7.020197E+04  1.808416E+03 -6.708593E+03
       471   3  6.440385E+04 -3.335910E+05  5.335341E+04  1.255575E+05  1.104794E+04 -2.516726E+02
       471   4 -7.602307E+03 -5.947967E+05 -2.511017E+04  1.270692E+05 -7.522829E+03 -1.993060E+04
       471   5  3.298770E+02 -5.936278E+05 -1.286748E+04  6.965132E+04  1.820044E+03 -1.340097E+04
       471   6  9.893661E+01 -5.947976E+05 -6.804210E+03  1.270827E+05  1.105956E+04 -6.870828E+03
       471   7  3.606819E+04 -4.174236E+05  1.571930E+04  1.244432E+05 -7.511261E+03 -2.670033E+04
       471   8 -9.981838E+03 -6.355298E+05 -2.250710E+04  6.910070E+04  1.831684E+03 -2.009289E+04
       471   9 -6.421072E+04 -8.559409E+05 -6.696619E+04  1.286072E+05  1.107115E+04 -1.348722E+04
       471  10 -5.127506E+04 -7.721408E+05 -6.594199E+04  1.296945E+05  1.034427E-09  2.448950E-09
       471  11  1.064148E+04 -5.517241E+05 -3.227886E+03  7.020198E+04  1.564328E-09  1.335045E-09
       471  12  6.440372E+04 -3.335910E+05  5.335318E+04  1.255575E+05 -6.430044E-10  3.081200E-09
       471  13 -7.602474E+03 -5.947972E+05 -2.511103E+04  1.270691E+05  1.532631E-10 -2.169912E-09
       471  14  3.298252E+02 -5.936280E+05 -1.286782E+04  6.965134E+04  9.194901E-10 -1.453364E-09
       471  15  9.879258E+01 -5.947977E+05 -6.804529E+03  1.270827E+05  4.570654E-10  1.585966E-09
       471  16  3.606794E+04 -4.174244E+05  1.571786E+04  1.244430E+05 -2.003085E-09 -2.520883E-09
       471  17 -9.981950E+03 -6.355302E+05 -2.250787E+04  6.910073E+04 -4.776102E-10 -1.912530E-09
       471  18 -6.421090E+04 -8.559411E+05 -6.696676E+04  1.286074E+05 -2.882440E-09  2.011455E-10
       471  19 -5.127495E+04 -7.721406E+05 -6.594156E+04  1.296945E+05  7.534341E+03  1.316279E+04
       471  20  1.064149E+04 -5.517241E+05 -3.227795E+03  7.020197E+04 -1.808416E+03  6.708593E+03
       471  21  6.440385E+04 -3.335910E+05  5.335341E+04  1.255575E+05 -1.104794E+04  2.516726E+02
       471  22 -7.602307E+03 -5.947967E+05 -2.511017E+04  1.270692E+05  7.522829E+03  1.993060E+04
       471  23  3.298770E+02 -5.936278E+05 -1.286748E+04  6.965132E+04 -1.820044E+03  1.340097E+04
       471  24  9.893661E+01 -5.947976E+05 -6.804210E+03  1.270827E+05 -1.105956E+04  6.870828E+03
       471  25  3.606819E+04 -4.174236E+05  1.571930E+04  1.244432E+05  7.511261E+03  2.670033E+04
       471  26 -9.981838E+03 -6.355298E+05 -2.250710E+04  6.910070E+04 -1.831684E+03  2.009289E+04
       471  27 -6.421072E+04 -8.559409E+05 -6.696619E+04  1.286072E+05 -1.107115E+04  1.348722E+04
       472   1  1.149191E+05 -1.223549E+05  1.036907E+05  1.258490E+05  2.034493E+04  8.010219E+03
       472   2  1.692765E+05  9.454055E+04  1.583121E+05  6.906687E+04  2.734288E+04 -9.084211E+03
       472   3  2.283804E+05  3.158118E+05  2.254359E+05  1.260441E+05  9.793960E+03 -2.624133E+04
       472   4 -1.139774E+03 -5.940343E+05 -4.731281E+03  1.268355E+05  2.037090E+04 -5.838758E+03
       472   5 -5.181870E+02 -5.947073E+05 -1.235121E+03  6.995539E+04  2.733681E+04 -5.255845E+03
       472   6  1.787058E+03 -5.941122E+05  2.490705E+03  1.268423E+05  9.743734E+03 -4.729752E+03
       472   7 -1.172141E+05 -1.065507E+06 -1.131673E+05  1.278214E+05  2.039684E+04 -1.967730E+04
       472   8 -1.703463E+05 -1.283516E+06 -1.608141E+05  7.084312E+04  2.733075E+04 -1.431696E+03
       472   9 -2.248674E+05 -1.503281E+06 -2.205134E+05  1.276397E+05  9.693529E+03  1.675038E+04
       472  10  1.149186E+05 -1.223551E+05  1.036898E+05  1.258489E+05  4.154406E-10  2.435264E-09
       472  11  1.692757E+05  9.454026E+04  1.583105E+05  6.906707E+04  5.946319E-10  5.003895E-09
       472  12  2.283801E+05  3.158110E+05  2.254344E+05  1.260443E+05 -1.458611E-10  3.526131E-09
       472  13 -1.140229E+03 -5.940345E+05 -4.732125E+03  1.268356E+05 -2.988011E-09 -9.479797E-11
       472  14 -5.189967E+02 -5.947075E+05 -1.236577E+03  6.995551E+04  1.196446E-09 -2.582909E-09
       472  15  1.786950E+03 -5.941122E+05  2.490484E+03  1.268423E+05 -1.239564E-09  1.972459E-09
       472  16 -1.172146E+05 -1.065508E+06 -1.131688E+05  1.278217E+05 -1.747646E-09 -2.324336E-09
       472  17 -1.703471E+05 -1.283516E+06 -1.608155E+05  7.084316E+04 -1.642464E-10 -3.581799E-09
       472  18 -2.248676E+05 -1.503281E+06 -2.205141E+05  1.276395E+05  7.551258E-10 -9.914548E-10
       472  19  1.149191E+05 -1.223549E+05  1.036907E+05  1.258490E+05 -2.034493E+04 -8.010219E+03
       472  20  1.692765E+05  9.454055E+04  1.583121E+05  6.906687E+04 -2.734288E+04  9.084211E+03
       472  21  2.283804E+05  3.158118E+05  2.254359E+05  1.260441E+05 -9.793960E+03  2.624133E+04
       472  22 -1.139774E+03 -5.940343E+05 -4.731281E+03  1.268355E+05 -2.037090E+04  5.838758E+03
       472  23 -5.181870E+02 -5.947073E+05 -1.235121E+03  6.995539E+04 -2.733681E+04  5.255845E+03
       472  24  1.787058E+03 -5.941122E+05  2.490705E+03  1.268423E+05 -9.743734E+03  4.729752E+03
       472  25 -1.172141E+05 -1.065507E+06 -1.131673E+05  1.278214E+05 -2.039684E+04  1.967730E+04
       472  26 -1.703463E+05 -1.283516E+06 -1.608141E+05  7.084312E+04 -2.733075E+04  1.431696E+03
       472  27 -2.248674E+05 -1.503281E+06 -2.205134E+05  1.276397E+05 -9.693529E+03 -1.675038E+04
       473   1  5.275062E+05  4.530530E+05  1.824620E+05  3.385580E+05  8.660735E+04  6.345970E+04
       473   2  4.947897E+05  3.196455E+05  9.427683E+04  3.785195E+05  5.753041E+04  3.769144E+04
       473   3  5.296669E+05  2.914927E+05  6.485098E+04  3.741230E+05  2.655995E+04  1.443482E+04
       473   4  4.857020E+05  3.394351E+05  1.520675E+05  2.796534E+05  8.393608E+04  6.143445E+04
       473   5  4.284820E+05  2.454547E+05  6.824295E+04  3.331795E+05  5.666804E+04  3.703879E+04
       473   6  4.384700E+05  2.563416E+05  4.160953E+04  3.423451E+05  2.750809E+04  1.515094E+04
       473   7  4.439036E+05  2.258395E+05  1.216733E+05  2.207569E+05  8.126501E+04  5.941004E+04
       473   8  3.621792E+05  1.712709E+05  4.220826E+04  2.878459E+05  5.580578E+04  3.638630E+04
       473   9  3.472821E+05  2.211914E+05  1.836739E+04  3.105708E+05  2.845604E+04  1.586701E+04
       473  10  5.274970E+05  4.530467E+05  1.824403E+05  3.385535E+05 -2.160834E-09 -2.127751E-09
       473  11  4.947857E+05  3.196431E+05  9.426795E+04  3.785178E+05 -2.856970E-09  2.701170E-10
       473  12  5.296661E+05  2.914923E+05  6.484926E+04  3.741227E+05 -2.238449E-09 -4.553755E-09
       473  13  4.856934E+05  3.394291E+05  1.520472E+05  2.796492E+05 -2.063854E-10 -4.694081E-10
       473  14  4.284782E+05  2.454523E+05  6.823435E+04  3.331778E+05 -1.721157E-09 -1.325376E-09
       473  15  4.384692E+05  2.563412E+05  4.160768E+04  3.423448E+05 -3.617212E-09 -6.866028E-10
       473  16  4.438956E+05  2.258339E+05  1.216543E+05  2.207530E+05  8.544219E-10  1.713065E-09
       473  17  3.621755E+05  1.712687E+05  4.219992E+04  2.878443E+05 -2.346206E-09  4.790267E-09
       473  18  3.472811E+05  2.211909E+05  1.836540E+04  3.105705E+05 -2.942364E-09  7.119840E-09
       473  19  5.275062E+05  4.530530E+05  1.824620E+05  3.385580E+05 -8.660735E+04 -6.345970E+04
       473  20  4.947897E+05  3.196455E+05  9.427683E+04  3.785195E+05 -5.753041E+04 -3.769144E+04
       473  21  5.296669E+05  2.914927E+05  6.485098E+04  3.741230E+05 -2.655995E+04 -1.443482E+04
       473  22  4.857020E+05  3.394351E+05  1.520675E+05  2.796534E+05 -8.393608E+04 -6.143445E+04
       473  23  4.284820E+05  2.454547E+05  6.824295E+04  3.331795E+05 -5.666804E+04 -3.703879E+04
       473  24  4.384700E+05  2.563416E+05  4.160953E+04  3.423451E+05 -2.750809E+04 -1.515094E+04
       473  25  4.439036E+05  2.258395E+05  1.216733E+05  2.207569E+05 -8.126501E+04 -5.941004E+04
       473  26  3.621792E+05  1.712709E+05  4.220826E+04  2.878459E+05 -5.580578E+04 -3.638630E+04
       473  27  3.472821E+05  2.211914E+05  1.836739E+04  3.105708E+05 -2.845604E+04 -1.586701E+04
       474   1  5.020899E+05  3.138196E+05  5.465659E+04  3.646402E+05  2.197402E+04  1.184927E+04
       474   2  4.940981E+05  2.957433E+05  3.704421E+04  3.629749E+05  1.404592E+04  6.345906E+03
       474   3  4.866068E+05  2.913536E+05  2.829128E+04  3.598122E+05  6.025855E+03  9.650424E+02
       474   4  4.393969E+05  2.637851E+05  3.382378E+04  3.309669E+05  2.214702E+04  1.197955E+04
       474   5  4.373964E+05  2.538557E+05  1.886588E+04  3.340528E+05  1.430794E+04  6.543476E+03
       474   6  4.358774E+05  2.575942E+05  1.269095E+04  3.356411E+05  6.376760E+03  1.229732E+03
       474   7  3.767086E+05  2.137537E+05  1.299061E+04  2.972979E+05  2.231999E+04  1.210980E+04
       474   8  3.806983E+05  2.119701E+05  6.872113E+02  3.051338E+05  1.456992E+04  6.741021E+03
       474   9  3.851508E+05  2.238360E+05 -2.909672E+03  3.114722E+05  6.727626E+03  1.494394E+03
       474  10  5.020893E+05  3.138194E+05  5.465542E+04  3.646400E+05  2.379002E-09  3.141505E-09
       474  11  4.940979E+05  2.957432E+05  3.704376E+04  3.629748E+05  3.525192E-10  3.763343E-09
       474  12  4.866068E+05  2.913536E+05  2.829121E+04  3.598122E+05 -2.419574E-09 -1.993620E-09
       474  13  4.393963E+05  2.637848E+05  3.382259E+04  3.309667E+05  1.373500E-09  3.583909E-10
       474  14  4.373961E+05  2.538556E+05  1.886541E+04  3.340527E+05  1.670473E-09 -1.120618E-09
       474  15  4.358774E+05  2.575942E+05  1.269087E+04  3.356411E+05  8.090026E-10  8.941049E-09
       474  16  3.767080E+05  2.137534E+05  1.298940E+04  2.972976E+05 -5.249098E-09 -2.144210E-09
       474  17  3.806980E+05  2.119700E+05  6.867275E+02  3.051337E+05  3.857518E-09 -1.165760E-08
       474  18  3.851508E+05  2.238360E+05 -2.909761E+03  3.114721E+05  3.357460E-09 -2.726770E-09
       474  19  5.020899E+05  3.138196E+05  5.465659E+04  3.646402E+05 -2.197402E+04 -1.184927E+04
       474  20  4.940981E+05  2.957433E+05  3.704421E+04  3.629749E+05 -1.404592E+04 -6.345906E+03
       474  21  4.866068E+05  2.913536E+05  2.829128E+04  3.598122E+05 -6.025855E+03 -9.650424E+02
       474  22  4.393969E+05  2.637851E+05  3.382378E+04  3.309669E+05 -2.214702E+04 -1.197955E+04
       474  23  4.373964E+05  2.538557E+05  1.886588E+04  3.340528E+05 -1.430794E+04 -6.543476E+03
       474  24  4.358774E+05  2.575942E+05  1.269095E+04  3.356411E+05 -6.376760E+03 -1.229732E+03
       474  25  3.767086E+05  2.137537E+05  1.299061E+04  2.972979E+05 -2.231999E+04 -1.210980E+04
       474  26  3.806983E+05  2.119701E+05  6.872113E+02  3.051338E+05 -1.456992E+04 -6.741021E+03
       474  27  3.851508E+05  2.238360E+05 -2.909672E+03  3.114722E+05 -6.727626E+03 -1.494394E+03
       475   1  4.770552E+05  2.879229E+05  2.423335E+04  3.555858E+05  4.172838E+03 -4.357140E+00
       475   2  4.713308E+05  2.783171E+05  2.066921E+04  3.507523E+05 -1.916684E+02 -2.614035E+03
       475   3  4.613254E+05  2.759281E+05  2.084952E+04  3.471928E+05 -4.558616E+03 -5.220468E+03
       475   4  4.358949E+05  2.580517E+05  1.116875E+04  3.348305E+05  4.485089E+03  2.311709E+02
       475   5  4.380763E+05  2.545151E+05  1.015243E+04  3.341394E+05  1.231817E+02 -2.376528E+03
       475   6  4.359763E+05  2.581949E+05  1.287852E+04  3.347223E+05 -4.241204E+03 -4.981016E+03
       475   7  3.947361E+05  2.281812E+05 -1.896173E+03  3.140766E+05  4.797315E+03  4.666789E+02
       475   8  4.048230E+05  2.307138E+05 -3.644833E+02  3.175275E+05  4.380087E+02 -2.139038E+03
       475   9  4.106281E+05  2.404621E+05  4.907507E+03  3.222524E+05 -3.923813E+03 -4.741579E+03
       475  10  4.770552E+05  2.879229E+05  2.423331E+04  3.555858E+05  2.150624E-09  2.127749E-09
       475  11  4.713308E+05  2.783171E+05  2.066919E+04  3.507523E+05  1.601682E-09  3.527545E-09
       475  12  4.613253E+05  2.759281E+05  2.084943E+04  3.471928E+05  4.020577E-09  5.955251E-09
       475  13  4.358949E+05  2.580517E+05  1.116871E+04  3.348305E+05  3.774248E-10 -1.549672E-09
       475  14  4.380763E+05  2.545151E+05  1.015242E+04  3.341394E+05  1.517544E-09  7.488053E-09
       475  15  4.359763E+05  2.581948E+05  1.287844E+04  3.347222E+05  4.441916E-09  9.949215E-09
       475  16  3.947361E+05  2.281812E+05 -1.896217E+03  3.140766E+05 -7.880532E-10 -5.764081E-09
       475  17  4.048230E+05  2.307138E+05 -3.644923E+02  3.175275E+05  3.361710E-09 -5.432031E-10
       475  18  4.106281E+05  2.404621E+05  4.907436E+03  3.222523E+05  2.863470E-09 -2.590471E-09
       475  19  4.770552E+05  2.879229E+05  2.423335E+04  3.555858E+05 -4.172838E+03  4.357140E+00
       475  20  4.713308E+05  2.783171E+05  2.066921E+04  3.507523E+05  1.916684E+02  2.614035E+03
       475  21  4.613254E+05  2.759281E+05  2.084952E+04  3.471928E+05  4.558616E+03  5.220468E+03
       475  22  4.358949E+05  2.580517E+05  1.116875E+04  3.348305E+05 -4.485089E+03 -2.311709E+02
       475  23  4.380763E+05  2.545151E+05  1.015243E+04  3.341394E+05 -1.231817E+02  2.376528E+03
       475  24  4.359763E+05  2.581949E+05  1.287852E+04  3.347223E+05  4.241204E+03  4.981016E+03
       475  25  3.947361E+05  2.281812E+05 -1.896173E+03  3.140766E+05 -4.797315E+03 -4.666789E+02
       475  26  4.048230E+05  2.307138E+05 -3.644833E+02  3.175275E+05 -4.380087E+02  2.139038E+03
       475  27  4.106281E+05  2.404621E+05  4.907507E+03  3.222524E+05  3.923813E+03  4.741579E+03
       476   1  4.513620E+05  2.719036E+05  2.078587E+04  3.450616E+05 -6.754056E+03 -6.466758E+03
       476   2  4.473201E+05  2.591689E+05  2.703063E+04  3.383257E+05 -1.679121E+04 -1.335724E+04
       476   3  4.457517E+05  2.625288E+05  4.458527E+04  3.290572E+05 -2.680155E+04 -2.028335E+04
       476   4  4.359925E+05  2.575574E+05  1.533912E+04  3.358474E+05 -6.428037E+03 -6.220765E+03
       476   5  4.370843E+05  2.536059E+05  2.412052E+04  3.340188E+05 -1.649066E+04 -1.313055E+04
       476   6  4.406552E+05  2.657547E+05  4.423400E+04  3.296575E+05 -2.652661E+04 -2.007620E+04
       476   7  4.206232E+05  2.432113E+05  9.892330E+03  3.266334E+05 -6.102029E+03 -5.974784E+03
       476   8  4.268486E+05  2.480430E+05  2.121038E+04  3.297119E+05 -1.619013E+04 -1.290386E+04
       476   9  4.355587E+05  2.689807E+05  4.388272E+04  3.302578E+05 -2.625168E+04 -1.986906E+04
       476  10  4.513620E+05  2.719036E+05  2.078570E+04  3.450616E+05  5.987755E-10  2.507065E-09
       476  11  4.473197E+05  2.591686E+05  2.702976E+04  3.383255E+05  2.145002E-09  7.664709E-10
       476  12  4.457508E+05  2.625281E+05  4.458315E+04  3.290567E+05 -1.592903E-09  1.416235E-09
       476  13  4.359924E+05  2.575573E+05  1.533897E+04  3.358474E+05  2.834692E-09  3.529007E-09
       476  14  4.370840E+05  2.536057E+05  2.411968E+04  3.340186E+05 -2.054355E-09 -6.138501E-09
       476  15  4.406543E+05  2.657541E+05  4.423192E+04  3.296570E+05 -1.025953E-09  5.239158E-09
       476  16  4.206232E+05  2.432113E+05  9.892193E+03  3.266334E+05  2.061561E-09  2.516354E-09
       476  17  4.268483E+05  2.480427E+05  2.120957E+04  3.297117E+05 -2.758975E-09  9.475701E-10
       476  18  4.355578E+05  2.689801E+05  4.388069E+04  3.302573E+05 -4.455819E-09 -6.577310E-09
       476  19  4.513620E+05  2.719036E+05  2.078587E+04  3.450616E+05  6.754056E+03  6.466758E+03
       476  20  4.473201E+05  2.591689E+05  2.703063E+04  3.383257E+05  1.679121E+04  1.335724E+04
       476  21  4.457517E+05  2.625288E+05  4.458527E+04  3.290572E+05  2.680155E+04  2.028335E+04
       476  22  4.359925E+05  2.575574E+05  1.533912E+04  3.358474E+05  6.428037E+03  6.220765E+03
       476  23  4.370843E+05  2.536059E+05  2.412052E+04  3.340188E+05  1.649066E+04  1.313055E+04
       476  24  4.406552E+05  2.657547E+05  4.423400E+04  3.296575E+05  2.652661E+04  2.007620E+04
       476  25  4.206232E+05  2.432113E+05  9.892330E+03  3.266334E+05  6.102029E+03  5.974784E+03
       476  26  4.268486E+05  2.480430E+05  2.121038E+04  3.297119E+05  1.619013E+04  1.290386E+04
       476  27  4.355587E+05  2.689807E+05  4.388272E+04  3.302578E+05  2.625168E+04  1.986906E+04
       477   1  4.096106E+05  2.742907E+05  5.251627E+04  3.479653E+05 -3.374830E+04 -2.499374E+04
       477   2  4.311615E+05  2.112966E+05  8.528605E+04  3.195984E+05 -7.187266E+04 -5.323130E+04
       477   3  5.432924E+05  2.847864E+05  1.931055E+05  2.320737E+05 -1.094617E+05 -8.217521E+04
       477   4  4.394308E+05  2.559305E+05  5.463820E+04  3.446943E+05 -3.325442E+04 -2.461910E+04
       477   5  4.253026E+05  2.425003E+05  8.999703E+04  3.328623E+05 -7.189106E+04 -5.324906E+04
       477   6  5.018562E+05  3.656559E+05  2.008497E+05  2.618751E+05 -1.099889E+05 -8.259143E+04
       477   7  4.692527E+05  2.375721E+05  5.676042E+04  3.414228E+05 -3.276051E+04 -2.424449E+04
       477   8  4.194446E+05  2.737060E+05  9.470819E+04  3.461262E+05 -7.190947E+04 -5.326681E+04
       477   9  4.604299E+05  4.465426E+05  2.085963E+05  2.916742E+05 -1.105160E+05 -8.300778E+04
       477  10  4.096092E+05  2.742897E+05  5.251296E+04  3.479646E+05 -2.733629E-09  6.140186E-09
       477  11  4.311552E+05  2.112922E+05  8.527104E+04  3.195953E+05 -3.149472E-09 -1.245845E-10
       477  12  5.432777E+05  2.847760E+05  1.930703E+05  2.320665E+05  1.218594E-09  4.193316E-09
       477  13  4.394294E+05  2.559296E+05  5.463499E+04  3.446936E+05 -1.538564E-09  8.165781E-09
       477  14  4.252963E+05  2.424958E+05  8.998200E+04  3.328592E+05 -2.387109E-09  1.882125E-10
       477  15  5.018414E+05  3.656453E+05  2.008142E+05  2.618678E+05 -2.410380E-09 -3.044576E-09
       477  16  4.692514E+05  2.375711E+05  5.675730E+04  3.414221E+05 -2.010810E-09  7.478811E-10
       477  17  4.194383E+05  2.737015E+05  9.469316E+04  3.461231E+05 -3.913139E-10 -6.065608E-09
       477  18  4.604149E+05  4.465319E+05  2.085604E+05  2.916668E+05 -2.930742E-09 -5.580515E-09
       477  19  4.096106E+05  2.742907E+05  5.251627E+04  3.479653E+05  3.374830E+04  2.499374E+04
       477  20  4.311615E+05  2.112966E+05  8.528605E+04  3.195984E+05  7.187266E+04  5.323130E+04
       477  21  5.432924E+05  2.847864E+05  1.931055E+05  2.320737E+05  1.094617E+05  8.217521E+04
       477  22  4.394308E+05  2.559305E+05  5.463820E+04  3.446943E+05  3.325442E+04  2.461910E+04
       477  23  4.253026E+05  2.425003E+05  8.999703E+04  3.328623E+05  7.189106E+04  5.324906E+04
       477  24  5.018562E+05  3.656559E+05  2.008497E+05  2.618751E+05  1.099889E+05  8.259143E+04
       477  25  4.692527E+05  2.375721E+05  5.676042E+04  3.414228E+05  3.276051E+04  2.424449E+04
       477  26  4.194446E+05  2.737060E+05  9.470819E+04  3.461262E+05  7.190947E+04  5.326681E+04
       477  27  4.604299E+05  4.465426E+05  2.085963E+05  2.916742E+05  1.105160E+05  8.300778E+04
       478   1  1.222318E+05  4.975947E+04  4.547175E+04  2.277488E+04 -5.193940E+03 -2.829246E+03
       478   2  7.480668E+04  5.131117E+04  3.982025E+04  1.369772E+04 -6.046375E+03 -8.166685E+03
       478   3  2.392109E+04  3.917781E+04  3.128130E+04  3.010666E+04 -6.917513E+03 -6.782517E+03
       478   4 -1.316367E+05 -1.340712E+04 -1.666848E+04  2.780301E+04 -1.145282E+04 -2.846721E+03
       478   5 -1.294810E+05  1.013313E+03 -7.430622E+03  1.503946E+04 -7.466161E+03 -8.170931E+03
       478   6 -1.316304E+05  9.059170E+02 -4.442175E+03  2.776286E+04 -3.498320E+03 -6.772543E+03
       478   7 -3.854463E+05 -7.657836E+04 -7.881325E+04  3.282903E+04 -1.770915E+04 -2.864301E+03
       478   8 -3.337300E+05 -4.928746E+04 -5.468427E+04  1.638073E+04 -8.885483E+03 -8.175185E+03
       478   9 -2.871594E+05 -3.736764E+04 -4.016720E+04  2.541963E+04 -7.997576E+01 -6.762594E+03
       478  10  1.222318E+05  4.975945E+04  4.547168E+04  2.277487E+04  1.086116E-09  4.898907E-11
       478  11  7.480662E+04  5.131109E+04  3.982006E+04  1.369768E+04 -1.758846E-10 -3.010734E-09
       478  12  2.392103E+04  3.917775E+04  3.128112E+04  3.010662E+04 -1.279144E-09 -3.944541E-09
       478  13 -1.316368E+05 -1.340717E+04 -1.666874E+04  2.780298E+04  1.094318E-09  5.616027E-09
       478  14 -1.294810E+05  1.013226E+03 -7.430852E+03  1.503942E+04 -1.775060E-09 -8.557571E-10
       478  15 -1.316304E+05  9.058644E+02 -4.442285E+03  2.776284E+04 -1.471938E-09 -3.163095E-09
       478  16 -3.854467E+05 -7.657845E+04 -7.881386E+04  3.282899E+04 -2.290228E-09 -1.327207E-10
       478  17 -3.337301E+05 -4.928756E+04 -5.468455E+04  1.638067E+04 -2.034980E-09 -9.475668E-09
       478  18 -2.871594E+05 -3.736769E+04 -4.016729E+04  2.541963E+04  1.914693E-09 -1.030173E-08
       478  19  1.222318E+05  4.975947E+04  4.547175E+04  2.277488E+04  5.193940E+03  2.829246E+03
       478  20  7.480668E+04  5.131117E+04  3.982025E+04  1.369772E+04  6.046375E+03  8.166685E+03
       478  21  2.392109E+04  3.917781E+04  3.128130E+04  3.010666E+04  6.917513E+03  6.782517E+03
       478  22 -1.316367E+05 -1.340712E+04 -1.666848E+04  2.780301E+04  1.145282E+04  2.846721E+03
       478  23 -1.294810E+05  1.013313E+03 -7.430622E+03  1.503946E+04  7.466161E+03  8.170931E+03
       478  24 -1.316304E+05  9.059170E+02 -4.442175E+03  2.776286E+04  3.498320E+03  6.772543E+03
       478  25 -3.854463E+05 -7.657836E+04 -7.881325E+04  3.282903E+04  1.770915E+04  2.864301E+03
       478  26 -3.337300E+05 -4.928746E+04 -5.468427E+04  1.638073E+04  8.885483E+03  8.175185E+03
       478  27 -2.871594E+05 -3.736764E+04 -4.016720E+04  2.541963E+04  7.997576E+01  6.762594E+03
       479   1 -2.235882E+04  2.582760E+04  2.142518E+04  2.773145E+04 -4.205922E+03 -4.574668E+03
       479   2 -7.121314E+04  1.476270E+04  1.186772E+04  1.501528E+04 -3.538204E+03 -2.535676E+03
       479   3 -1.205691E+05  2.787049E+03  1.605989E+03  2.802046E+04 -2.871664E+03 -1.818186E+02
       479   4 -1.307914E+05 -8.534062E+02 -3.546380E+03  2.782855E+04 -2.852434E+03 -4.570696E+03
       479   5 -1.305193E+05  1.713990E+02 -1.776807E+03  1.496616E+04 -1.958226E+03 -2.530966E+03
       479   6 -1.307897E+05  2.463748E+02 -8.686651E+02  2.782527E+04 -1.065141E+03 -1.763486E+02
       479   7 -2.392131E+05 -2.753524E+04 -2.851871E+04  2.792563E+04 -1.499180E+03 -4.566723E+03
       479   8 -1.898222E+05 -1.442015E+04 -1.542156E+04  1.491704E+04 -3.783971E+02 -2.526256E+03
       479   9 -1.410103E+05 -2.294305E+03 -3.343314E+03  2.763009E+04  7.413527E+02 -1.708798E+02
       479  10 -2.235884E+04  2.582757E+04  2.142511E+04  2.773143E+04 -5.682021E-09 -3.754974E-09
       479  11 -7.121316E+04  1.476269E+04  1.186769E+04  1.501527E+04 -1.472678E-09 -7.322870E-09
       479  12 -1.205691E+05  2.787046E+03  1.605973E+03  2.802045E+04  4.054023E-09 -2.022601E-09
       479  13 -1.307914E+05 -8.534308E+02 -3.546435E+03  2.782854E+04  2.119190E-09 -1.585449E-09
       479  14 -1.305193E+05  1.713911E+02 -1.776826E+03  1.496615E+04 -1.999804E-09 -1.444032E-09
       479  15 -1.307897E+05  2.463745E+02 -8.686673E+02  2.782527E+04 -1.037054E-09  4.086770E-09
       479  16 -2.392131E+05 -2.753526E+04 -2.851876E+04  2.792562E+04  4.504093E-09  3.228595E-09
       479  17 -1.898222E+05 -1.442015E+04 -1.542157E+04  1.491704E+04 -1.685996E-10 -3.016123E-09
       479  18 -1.410103E+05 -2.294305E+03 -3.343315E+03  2.763009E+04 -3.704014E-09  2.200940E-09
       479  19 -2.235882E+04  2.582760E+04  2.142518E+04  2.773145E+04  4.205922E+03  4.574668E+03
       479  20 -7.121314E+04  1.476270E+04  1.186772E+04  1.501528E+04  3.538204E+03  2.535676E+03
       479  21 -1.205691E+05  2.787049E+03  1.605989E+03  2.802046E+04  2.871664E+03  1.818186E+02
       479  22 -1.307914E+05 -8.534062E+02 -3.546380E+03  2.782855E+04  2.852434E+03  4.570696E+03
       479  23 -1.305193E+05  1.713990E+02 -1.776807E+03  1.496616E+04  1.958226E+03  2.530966E+03
       479  24 -1.307897E+05  2.463748E+02 -8.686651E+02  2.782527E+04  1.065141E+03  1.763486E+02
       479  25 -2.392131E+05 -2.753524E+04 -2.851871E+04  2.792563E+04  1.499180E+03  4.566723E+03
       479  26 -1.898222E+05 -1.442015E+04 -1.542156E+04  1.491704E+04  3.783971E+02  2.526256E+03
       479  27 -1.410103E+05 -2.294305E+03 -3.343314E+03  2.763009E+04 -7.413527E+02  1.708798E+02
       480   1 -1.675153E+05 -9.004507E+03 -9.131109E+03  2.778351E+04 -2.762027E+03  1.311033E+03
       480   2 -2.165474E+05 -2.106184E+04 -1.969338E+04  1.475779E+04 -2.555752E+03  3.660573E+03
       480   3 -2.657054E+05 -3.278193E+04 -3.034748E+04  2.744758E+04 -2.348165E+03  5.661542E+03
       480   4 -1.306883E+05  8.011251E+01 -5.412649E+02  2.782526E+04 -9.458346E+02  1.316520E+03
       480   5 -1.306471E+05  7.444518E+01  6.666508E+01  1.496707E+04 -9.905506E+02  3.665198E+03
       480   6 -1.306904E+05  4.497340E+02  7.571660E+02  2.782415E+04 -1.033939E+03  5.665335E+03
       480   7 -9.385994E+04  9.164637E+03  8.048499E+03  2.786700E+04  8.704651E+02  1.322008E+03
       480   8 -4.473985E+04  2.121022E+04  1.982623E+04  1.517637E+04  5.748653E+02  3.669824E+03
       480   9  4.341408E+03  3.368012E+04  3.186061E+04  2.820079E+04  2.805702E+02  5.669130E+03
       480  10 -1.675153E+05 -9.004510E+03 -9.131126E+03  2.778351E+04  3.215472E-09 -1.585615E-09
       480  11 -2.165474E+05 -2.106186E+04 -1.969341E+04  1.475780E+04  3.068873E-09  3.486003E-09
       480  12 -2.657054E+05 -3.278196E+04 -3.034755E+04  2.744759E+04  9.539832E-09 -7.503866E-09
       480  13 -1.306883E+05  8.011041E+01 -5.412699E+02  2.782526E+04  1.702271E-09 -7.988773E-09
       480  14 -1.306471E+05  7.443049E+01  6.663799E+01  1.496707E+04 -1.327249E-09  4.533183E-09
       480  15 -1.306905E+05  4.496992E+02  7.571037E+02  2.782416E+04 -1.152580E-09 -4.546688E-09
       480  16 -9.385994E+04  9.164635E+03  8.048495E+03  2.786700E+04 -4.391344E-09 -8.025485E-09
       480  17 -4.473985E+04  2.121020E+04  1.982620E+04  1.517636E+04 -5.650643E-09 -1.195385E-08
       480  18  4.341400E+03  3.368009E+04  3.186055E+04  2.820079E+04 -7.874714E-09  2.872528E-09
       480  19 -1.675153E+05 -9.004507E+03 -9.131109E+03  2.778351E+04  2.762027E+03 -1.311033E+03
       480  20 -2.165474E+05 -2.106184E+04 -1.969338E+04  1.475779E+04  2.555752E+03 -3.660573E+03
       480  21 -2.657054E+05 -3.278193E+04 -3.034748E+04  2.744758E+04  2.348165E+03 -5.661542E+03
       480  22 -1.306883E+05  8.011251E+01 -5.412649E+02  2.782526E+04  9.458346E+02 -1.316520E+03
       480  23 -1.306471E+05  7.444518E+01  6.666508E+01  1.496707E+04  9.905506E+02 -3.665198E+03
       480  24 -1.306904E+05  4.497340E+02  7.571660E+02  2.782415E+04  1.033939E+03 -5.665335E+03
       480  25 -9.385994E+04  9.164637E+03  8.048499E+03  2.786700E+04 -8.704651E+02 -1.322008E+03
       480  26 -4.473985E+04  2.121022E+04  1.982623E+04  1.517637E+04 -5.748653E+02 -3.669824E+03
       480  27  4.341408E+03  3.368012E+04  3.186061E+04  2.820079E+04 -2.805702E+02 -5.669130E+03
       481   1 -3.125781E+05 -4.485505E+04 -4.074646E+04  2.793333E+04 -4.765175E+03  7.929661E+03
       481   2 -3.617595E+05 -5.704177E+04 -5.137962E+04  1.406279E+04 -5.425057E+02  9.229867E+03
       481   3 -4.107924E+05 -6.585954E+04 -6.395218E+04  2.561753E+04  3.699924E+03  3.162674E+03
       481   4 -1.304384E+05 -5.589375E+01  1.075975E+03  2.776339E+04 -1.187336E+03  7.939925E+03
       481   5 -1.309744E+05 -1.892808E+02  2.006911E+03  1.504554E+04 -2.267025E+03  9.224792E+03
       481   6 -1.304441E+05  3.966390E+03  4.681451E+03  2.775231E+04 -3.326547E+03  3.143493E+03
       481   7  5.173194E+04  4.474096E+04  4.289627E+04  2.759338E+04  2.391545E+03  7.950185E+03
       481   8  9.985999E+04  5.665947E+04  5.538990E+04  1.602863E+04 -3.992180E+03  9.219712E+03
       481   9  1.499759E+05  7.378654E+04  7.330951E+04  2.988801E+04 -1.035619E+04  3.124268E+03
       481  10 -3.125781E+05 -4.485512E+04 -4.074662E+04  2.793336E+04 -2.917810E-09 -6.504816E-09
       481  11 -3.617595E+05 -5.704187E+04 -5.137979E+04  1.406279E+04 -3.375721E-11 -3.675857E-09
       481  12 -4.107924E+05 -6.585956E+04 -6.395222E+04  2.561752E+04  5.602342E-09  3.430203E-09
       481  13 -1.304385E+05 -5.596183E+01  1.075854E+03  2.776340E+04  1.545481E-09  1.044896E-09
       481  14 -1.309744E+05 -1.893736E+02  2.006742E+03  1.504556E+04 -1.229500E-09 -2.580812E-09
       481  15 -1.304441E+05  3.966376E+03  4.681411E+03  2.775232E+04 -1.514882E-09  7.271789E-09
       481  16  5.173191E+04  4.474089E+04  4.289614E+04  2.759337E+04  2.558067E-09  3.443314E-09
       481  17  9.985995E+04  5.665938E+04  5.538971E+04  1.602866E+04 -1.514939E-09  1.023141E-08
       481  18  1.499758E+05  7.378650E+04  7.330929E+04  2.988803E+04 -5.005548E-09  3.348081E-09
       481  19 -3.125781E+05 -4.485505E+04 -4.074646E+04  2.793333E+04  4.765175E+03 -7.929661E+03
       481  20 -3.617595E+05 -5.704177E+04 -5.137962E+04  1.406279E+04  5.425057E+02 -9.229867E+03
       481  21 -4.107924E+05 -6.585954E+04 -6.395218E+04  2.561753E+04 -3.699924E+03 -3.162674E+03
       481  22 -1.304384E+05 -5.589375E+01  1.075975E+03  2.776339E+04  1.187336E+03 -7.939925E+03
       481  23 -1.309744E+05 -1.892808E+02  2.006911E+03  1.504554E+04  2.267025E+03 -9.224792E+03
       481  24 -1.304441E+05  3.966390E+03  4.681451E+03  2.775231E+04  3.326547E+03 -3.143493E+03
       481  25  5.173194E+04  4.474096E+04  4.289627E+04  2.759338E+04 -2.391545E+03 -7.950185E+03
       481  26  9.985999E+04  5.665947E+04  5.538990E+04  1.602863E+04  3.992180E+03 -9.219712E+03
       481  27  1.499759E+05  7.378654E+04  7.330951E+04  2.988801E+04  1.035619E+04 -3.124268E+03
       482   1 -1.922546E+05 -9.458141E+05 -2.048131E+05  1.072022E+05 -5.150869E+03 -6.578176E+04
       482   2 -8.697364E+04 -7.980202E+05 -1.222448E+05  5.326254E+04 -1.452409E+04 -3.634415E+04
       482   3 -5.444714E+04 -6.717303E+05 -7.696807E+04  7.049201E+04 -1.000861E+04 -6.865111E+03
       482   4 -6.550501E+04 -4.379230E+05 -8.019225E+04  7.953250E+04 -5.176950E+03 -5.412357E+04
       482   5  4.275391E+03 -4.280166E+05 -3.651506E+04  4.403157E+04 -1.452699E+04 -3.465989E+04
       482   6  3.059696E+03 -4.378820E+05 -2.317774E+04  7.970192E+04 -9.990271E+03 -1.516171E+04
       482   7  6.122829E+04  7.020516E+04  4.441050E+04  5.184017E+04 -5.204062E+03 -4.245584E+04
       482   8  9.551509E+04 -5.788609E+04  4.920551E+04  3.479513E+04 -1.452994E+04 -3.297463E+04
       482   9  6.056308E+04 -2.039827E+05  3.060928E+04  8.891535E+04 -9.972178E+03 -2.346142E+04
       482  10 -1.922558E+05 -9.458187E+05 -2.048213E+05  1.072020E+05 -6.659548E-10  1.850311E-09
       482  11 -8.697422E+04 -7.980217E+05 -1.222476E+05  5.326211E+04 -2.152400E-09  7.525988E-09
       482  12 -5.444726E+04 -6.717303E+05 -7.696835E+04  7.049196E+04  1.181951E-09  6.789942E-09
       482  13 -6.550582E+04 -4.379261E+05 -8.019781E+04  7.953227E+04  8.980372E-10 -2.080026E-09
       482  14  4.274842E+03 -4.280179E+05 -3.651771E+04  4.403117E+04 -4.699154E-09 -1.950073E-08
       482  15  3.059528E+03 -4.378822E+05 -2.317836E+04  7.970180E+04  6.748841E-10  2.798626E-09
       482  16  6.122778E+04  7.020322E+04  4.440706E+04  5.184000E+04 -5.301631E-10 -2.400277E-09
       482  17  9.551457E+04 -5.788731E+04  4.920307E+04  3.479475E+04 -1.727027E-09 -6.251575E-09
       482  18  6.056282E+04 -2.039833E+05  3.060806E+04  8.891516E+04  1.265559E-09 -3.558170E-09
       482  19 -1.922546E+05 -9.458141E+05 -2.048131E+05  1.072022E+05  5.150869E+03  6.578176E+04
       482  20 -8.697364E+04 -7.980202E+05 -1.222448E+05  5.326254E+04  1.452409E+04  3.634415E+04
       482  21 -5.444714E+04 -6.717303E+05 -7.696807E+04  7.049201E+04  1.000861E+04  6.865111E+03
       482  22 -6.550501E+04 -4.379230E+05 -8.019225E+04  7.953250E+04  5.176950E+03  5.412357E+04
       482  23  4.275391E+03 -4.280166E+05 -3.651506E+04  4.403157E+04  1.452699E+04  3.465989E+04
       482  24  3.059696E+03 -4.378820E+05 -2.317774E+04  7.970192E+04  9.990271E+03  1.516171E+04
       482  25  6.122829E+04  7.020516E+04  4.441050E+04  5.184017E+04  5.204062E+03  4.245584E+04
       482  26  9.551509E+04 -5.788609E+04  4.920551E+04  3.479513E+04  1.452994E+04  3.297463E+04
       482  27  6.056308E+04 -2.039827E+05  3.060928E+04  8.891535E+04  9.972178E+03  2.346142E+04
       483   1 -3.026525E+04 -5.361831E+05 -4.302460E+04  8.198220E+04 -4.343980E+03 -7.388172E+03
       483   2  9.002587E+03 -3.977754E+05 -4.888823E+03  4.404892E+04  1.503520E+03 -8.852292E+02
       483   3  4.020403E+04 -2.617977E+05  2.708235E+04  7.796097E+04  7.265938E+03  5.619278E+03
       483   4 -5.109421E+03 -4.340265E+05 -1.951243E+04  7.979790E+04 -4.334769E+03 -1.163718E+04
       483   5  3.846662E+02 -4.327984E+05 -1.294455E+04  4.387808E+04  1.512715E+03 -5.072719E+03
       483   6 -2.196981E+03 -4.340279E+05 -1.258219E+04  7.980428E+04  7.275090E+03  1.491909E+03
       483   7  2.004570E+04 -3.318602E+05  3.999111E+03  7.761323E+04 -4.325529E+03 -1.588689E+04
       483   8 -8.233330E+03 -4.678202E+05 -2.100028E+04  4.370725E+04  1.521912E+03 -9.259975E+03
       483   9 -4.460005E+04 -6.062306E+05 -5.224863E+04  8.164710E+04  7.284219E+03 -2.634324E+03
       483  10 -3.026528E+04 -5.361831E+05 -4.302474E+04  8.198218E+04 -1.057139E-09 -1.475392E-09
       483  11  9.002584E+03 -3.977754E+05 -4.888829E+03  4.404892E+04 -1.696826E-09  1.138545E-08
       483  12  4.020397E+04 -2.617978E+05  2.708219E+04  7.796094E+04  1.202668E-10  5.129496E-09
       483  13 -5.109477E+03 -4.340267E+05 -1.951272E+04  7.979786E+04 -3.518974E-10 -2.144729E-09
       483  14  3.846569E+02 -4.327984E+05 -1.294460E+04  4.387808E+04 -1.446266E-09 -1.589435E-08
       483  15 -2.197039E+03 -4.340280E+05 -1.258229E+04  7.980427E+04  3.102338E-09  2.111163E-09
       483  16  2.004562E+04 -3.318605E+05  3.998601E+03  7.761317E+04  1.395842E-09  1.441485E-09
       483  17 -8.233356E+03 -4.678203E+05 -2.100045E+04  4.370726E+04 -3.590012E-09 -4.600563E-09
       483  18 -4.460011E+04 -6.062307E+05 -5.224874E+04  8.164711E+04  5.205201E-10 -3.639993E-09
       483  19 -3.026525E+04 -5.361831E+05 -4.302460E+04  8.198220E+04  4.343980E+03  7.388172E+03
       483  20  9.002587E+03 -3.977754E+05 -4.888823E+03  4.404892E+04 -1.503520E+03  8.852292E+02
       483  21  4.020403E+04 -2.617977E+05  2.708235E+04  7.796097E+04 -7.265938E+03 -5.619278E+03
       483  22 -5.109421E+03 -4.340265E+05 -1.951243E+04  7.979790E+04  4.334769E+03  1.163718E+04
       483  23  3.846662E+02 -4.327984E+05 -1.294455E+04  4.387808E+04 -1.512715E+03  5.072719E+03
       483  24 -2.196981E+03 -4.340279E+05 -1.258219E+04  7.980428E+04 -7.275090E+03 -1.491909E+03
       483  25  2.004570E+04 -3.318602E+05  3.999111E+03  7.761323E+04  4.325529E+03  1.588689E+04
       483  26 -8.233330E+03 -4.678202E+05 -2.100028E+04  4.370725E+04 -1.521912E+03  9.259975E+03
       483  27 -4.460005E+04 -6.062306E+05 -5.224863E+04  8.164710E+04 -7.284219E+03  2.634324E+03
       484   1  7.557774E+04 -1.314347E+05  5.674267E+04  8.331602E+04  1.310123E+04  1.237984E+04
       484   2  1.101529E+05  8.886220E+03  8.465724E+04  3.949358E+04  1.742995E+04  1.031013E+04
       484   3  1.155063E+05  1.427548E+05  1.067326E+05  6.681083E+04  6.179604E+03  8.200095E+03
       484   4  8.244614E+02 -4.353676E+05 -1.310549E+04  7.966915E+04  1.312113E+04  3.656726E+03
       484   5  1.724713E+03 -4.311754E+05 -1.720572E+04  4.405941E+04  1.742476E+04  1.279918E+04
       484   6 -2.855406E+04 -4.354054E+05 -3.493812E+04  7.959401E+04  6.144366E+03  2.190150E+04
       484   7 -7.393517E+04 -7.392148E+05 -8.295946E+04  7.602413E+04  1.314113E+04 -5.062150E+03
       484   8 -1.067170E+05 -8.710580E+05 -1.190816E+05  4.862207E+04  1.741960E+04  1.528648E+04
       484   9 -1.726386E+05 -1.013260E+06 -1.766326E+05  9.236544E+04  6.109677E+03  3.559016E+04
       484  10  7.557751E+04 -1.314349E+05  5.674206E+04  8.331589E+04  1.708686E-09 -1.723507E-09
       484  11  1.101526E+05  8.886025E+03  8.465647E+04  3.949343E+04 -1.757916E-09  3.838268E-09
       484  12  1.155063E+05  1.427547E+05  1.067324E+05  6.681079E+04 -1.506944E-09  4.947740E-09
       484  13  8.242730E+02 -4.353677E+05 -1.310584E+04  7.966911E+04 -1.404469E-09 -8.097622E-11
       484  14  1.724343E+03 -4.311757E+05 -1.720660E+04  4.405923E+04  3.233249E-10 -1.760882E-08
       484  15 -2.855423E+04 -4.354059E+05 -3.493910E+04  7.959390E+04 -2.293976E-09  7.245740E-09
       484  16 -7.393536E+04 -7.392149E+05 -8.295983E+04  7.602418E+04  2.480522E-09  3.412931E-09
       484  17 -1.067174E+05 -8.710583E+05 -1.190826E+05  4.862186E+04 -2.019888E-09 -4.464966E-09
       484  18 -1.726389E+05 -1.013262E+06 -1.766350E+05  9.236527E+04 -1.597240E-09 -1.190310E-09
       484  19  7.557774E+04 -1.314347E+05  5.674267E+04  8.331602E+04 -1.310123E+04 -1.237984E+04
       484  20  1.101529E+05  8.886220E+03  8.465724E+04  3.949358E+04 -1.742995E+04 -1.031013E+04
       484  21  1.155063E+05  1.427548E+05  1.067326E+05  6.681083E+04 -6.179604E+03 -8.200095E+03
       484  22  8.244614E+02 -4.353676E+05 -1.310549E+04  7.966915E+04 -1.312113E+04 -3.656726E+03
       484  23  1.724713E+03 -4.311754E+05 -1.720572E+04  4.405941E+04 -1.742476E+04 -1.279918E+04
       484  24 -2.855406E+04 -4.354054E+05 -3.493812E+04  7.959401E+04 -6.144366E+03 -2.190150E+04
       484  25 -7.393517E+04 -7.392148E+05 -8.295946E+04  7.602413E+04 -1.314113E+04  5.062150E+03
       484  26 -1.067170E+05 -8.710580E+05 -1.190816E+05  4.862207E+04 -1.741960E+04 -1.528648E+04
       484  27 -1.726386E+05 -1.013260E+06 -1.766326E+05  9.236544E+04 -6.109677E+03 -3.559016E+04
       485   1  2.880071E+05  2.551022E+05  1.057422E+05  1.867626E+05  5.455321E+04  4.071932E+04
       485   2  2.682541E+05  1.710162E+05  4.998077E+04  2.137622E+05  3.569588E+04  2.564844E+04
       485   3  2.934021E+05  1.535322E+05  3.159595E+04  2.116829E+05  1.636442E+04  1.120601E+04
       485   4  2.975618E+05  2.078228E+05  9.835548E+04  1.668414E+05  5.394010E+04  4.025239E+04
       485   5  2.598762E+05  1.476980E+05  4.410259E+04  2.016559E+05  3.553361E+04  2.552511E+04
       485   6  2.669938E+05  1.540763E+05  2.683362E+04  2.073914E+05  1.665400E+04  1.142490E+04
       485   7  3.071185E+05  1.605483E+05  9.096927E+04  1.469201E+05  5.332696E+04  3.978554E+04
       485   8  2.514986E+05  1.243807E+05  3.822442E+04  1.895501E+05  3.537134E+04  2.540179E+04
       485   9  2.405868E+05  1.546206E+05  2.207138E+04  2.030999E+05  1.694356E+04  1.164379E+04
       485  10  2.880035E+05  2.550996E+05  1.057335E+05  1.867608E+05  4.224301E-10  1.746398E-09
       485  11  2.682526E+05  1.710152E+05  4.997715E+04  2.137614E+05 -2.538433E-09 -1.392730E-09
       485  12  2.934017E+05  1.535320E+05  3.159521E+04  2.116827E+05 -2.961017E-09  2.727792E-09
       485  13  2.975583E+05  2.078203E+05  9.834698E+04  1.668397E+05  8.446261E-10 -6.602428E-09
       485  14  2.598747E+05  1.476969E+05  4.409900E+04  2.016552E+05  7.264603E-10 -3.178307E-09
       485  15  2.669935E+05  1.540761E+05  2.683286E+04  2.073912E+05 -1.280516E-09  5.333170E-09
       485  16  3.071150E+05  1.605458E+05  9.096096E+04  1.469184E+05  4.749594E-11  2.976763E-09
       485  17  2.514970E+05  1.243796E+05  3.822086E+04  1.895493E+05  4.353302E-09  2.957054E-09
       485  18  2.405865E+05  1.546204E+05  2.207059E+04  2.030998E+05  1.126810E-09 -1.838778E-09
       485  19  2.880071E+05  2.551022E+05  1.057422E+05  1.867626E+05 -5.455321E+04 -4.071932E+04
       485  20  2.682541E+05  1.710162E+05  4.998077E+04  2.137622E+05 -3.569588E+04 -2.564844E+04
       485  21  2.934021E+05  1.535322E+05  3.159595E+04  2.116829E+05 -1.636442E+04 -1.120601E+04
       485  22  2.975618E+05  2.078228E+05  9.835548E+04  1.668414E+05 -5.394010E+04 -4.025239E+04
       485  23  2.598762E+05  1.476980E+05  4.410259E+04  2.016559E+05 -3.553361E+04 -2.552511E+04
       485  24  2.669938E+05  1.540763E+05  2.683362E+04  2.073914E+05 -1.665400E+04 -1.142490E+04
       485  25  3.071185E+05  1.605483E+05  9.096927E+04  1.469201E+05 -5.332696E+04 -3.978554E+04
       485  26  2.514986E+05  1.243807E+05  3.822442E+04  1.895501E+05 -3.537134E+04 -2.540179E+04
       485  27  2.405868E+05  1.546206E+05  2.207138E+04  2.030999E+05 -1.694356E+04 -1.164379E+04
       486   1  2.774284E+05  1.692936E+05  2.550877E+04  2.064802E+05  1.323876E+04  9.133654E+03
       486   2  2.735207E+05  1.596325E+05  1.466080E+04  2.065475E+05  8.258907E+03  5.611717E+03
       486   3  2.712369E+05  1.574843E+05  9.448791E+03  2.052654E+05  3.255856E+03  2.120581E+03
       486   4  2.675936E+05  1.588920E+05  2.176920E+04  2.000306E+05  1.333506E+04  9.206225E+03
       486   5  2.656436E+05  1.531325E+05  1.200842E+04  2.022188E+05  8.377481E+03  5.701143E+03
       486   6  2.653126E+05  1.548810E+05  7.864372E+03  2.030577E+05  3.396662E+03  2.226797E+03
       486   7  2.577590E+05  1.484906E+05  1.802961E+04  1.935812E+05  1.343136E+04  9.278794E+03
       486   8  2.577664E+05  1.466324E+05  9.356015E+03  1.978902E+05  8.496052E+03  5.790567E+03
       486   9  2.593883E+05  1.522777E+05  6.279938E+03  2.008499E+05  3.537467E+03  2.333014E+03
       486  10  2.774282E+05  1.692934E+05  2.550828E+04  2.064801E+05  9.464678E-10  5.486036E-09
       486  11  2.735206E+05  1.596325E+05  1.466061E+04  2.065474E+05 -2.263849E-09  6.360684E-09
       486  12  2.712369E+05  1.574843E+05  9.448763E+03  2.052654E+05 -8.436116E-09 -3.360582E-09
       486  13  2.675934E+05  1.588919E+05  2.176870E+04  2.000305E+05  9.018319E-10  6.949562E-09
       486  14  2.656435E+05  1.531324E+05  1.200822E+04  2.022188E+05 -6.972508E-10 -3.181372E-09
       486  15  2.653126E+05  1.548810E+05  7.864341E+03  2.030577E+05 -3.093841E-09  5.149064E-09
       486  16  2.577587E+05  1.484904E+05  1.802911E+04  1.935811E+05 -4.448391E-09 -9.699383E-09
       486  17  2.577663E+05  1.466323E+05  9.355816E+03  1.978901E+05  1.430312E-09  4.998166E-09
       486  18  2.593883E+05  1.522777E+05  6.279904E+03  2.008499E+05  2.561220E-09  3.377969E-10
       486  19  2.774284E+05  1.692936E+05  2.550877E+04  2.064802E+05 -1.323876E+04 -9.133654E+03
       486  20  2.735207E+05  1.596325E+05  1.466080E+04  2.065475E+05 -8.258907E+03 -5.611717E+03
       486  21  2.712369E+05  1.574843E+05  9.448791E+03  2.052654E+05 -3.255856E+03 -2.120581E+03
       486  22  2.675936E+05  1.588920E+05  2.176920E+04  2.000306E+05 -1.333506E+04 -9.206225E+03
       486  23  2.656436E+05  1.531325E+05  1.200842E+04  2.022188E+05 -8.377481E+03 -5.701143E+03
       486  24  2.653126E+05  1.548810E+05  7.864372E+03  2.030577E+05 -3.396662E+03 -2.226797E+03
       486  25  2.577590E+05  1.484906E+05  1.802961E+04  1.935812E+05 -1.343136E+04 -9.278794E+03
       486  26  2.577664E+05  1.466324E+05  9.356015E+03  1.978902E+05 -8.496052E+03 -5.790567E+03
       486  27  2.593883E+05  1.522777E+05  6.279938E+03  2.008499E+05 -3.537467E+03 -2.333014E+03
       487   1  2.668791E+05  1.565485E+05  7.299512E+03  2.034153E+05  2.148058E+03  1.459784E+03
       487   2  2.644050E+05  1.523506E+05  5.243757E+03  2.014266E+05 -2.867660E+02 -8.997697E+01
       487   3  2.603467E+05  1.514087E+05  5.319669E+03  1.999193E+05 -2.721441E+03 -1.639822E+03
       487   4  2.653124E+05  1.551871E+05  6.771748E+03  2.025208E+05  2.279786E+03  1.559145E+03
       487   5  2.661081E+05  1.535654E+05  5.781725E+03  2.022753E+05 -1.551303E+02  9.314045E+00
       487   6  2.653196E+05  1.551997E+05  6.923440E+03  2.025112E+05 -2.589922E+03 -1.540621E+03
       487   7  2.637457E+05  1.538256E+05  6.243988E+03  2.016263E+05  2.411512E+03  1.658504E+03
       487   8  2.678112E+05  1.547802E+05  6.319691E+03  2.031240E+05 -2.349451E+01  1.086050E+02
       487   9  2.702925E+05  1.589907E+05  8.527207E+03  2.051032E+05 -2.458402E+03 -1.441418E+03
       487  10  2.668791E+05  1.565485E+05  7.299499E+03  2.034153E+05  2.639082E-09  4.107531E-09
       487  11  2.644050E+05  1.523506E+05  5.243757E+03  2.014266E+05 -2.555497E-09 -1.003070E-08
       487  12  2.603467E+05  1.514087E+05  5.319650E+03  1.999193E+05 -1.331758E-08 -6.516628E-09
       487  13  2.653124E+05  1.551871E+05  6.771734E+03  2.025208E+05  6.994382E-11 -4.463765E-09
       487  14  2.661081E+05  1.535654E+05  5.781725E+03  2.022753E+05 -1.670537E-09 -5.704995E-11
       487  15  2.653196E+05  1.551997E+05  6.923423E+03  2.025112E+05 -4.264152E-09  5.095142E-10
       487  16  2.637457E+05  1.538256E+05  6.243972E+03  2.016263E+05 -2.941580E-09 -3.969723E-09
       487  17  2.678112E+05  1.547802E+05  6.319691E+03  2.031240E+05  5.383860E-09  2.856220E-09
       487  18  2.702925E+05  1.589907E+05  8.527192E+03  2.051032E+05  8.099122E-09  5.966172E-10
       487  19  2.668791E+05  1.565485E+05  7.299512E+03  2.034153E+05 -2.148058E+03 -1.459784E+03
       487  20  2.644050E+05  1.523506E+05  5.243757E+03  2.014266E+05  2.867660E+02  8.997697E+01
       487  21  2.603467E+05  1.514087E+05  5.319669E+03  1.999193E+05  2.721441E+03  1.639822E+03
       487  22  2.653124E+05  1.551871E+05  6.771748E+03  2.025208E+05 -2.279786E+03 -1.559145E+03
       487  23  2.661081E+05  1.535654E+05  5.781725E+03  2.022753E+05  1.551303E+02 -9.314045E+00
       487  24  2.653196E+05  1.551997E+05  6.923440E+03  2.025112E+05  2.589922E+03  1.540621E+03
       487  25  2.637457E+05  1.538256E+05  6.243988E+03  2.016263E+05 -2.411512E+03 -1.658504E+03
       487  26  2.678112E+05  1.547802E+05  6.319691E+03  2.031240E+05  2.349451E+01 -1.086050E+02
       487  27  2.702925E+05  1.589907E+05  8.527207E+03  2.051032E+05  2.458402E+03  1.441418E+03
       488   1  2.559431E+05  1.498830E+05  5.437027E+03  1.991798E+05 -3.876306E+03 -2.335182E+03
       488   2  2.543501E+05  1.441496E+05  8.743605E+03  1.961787E+05 -9.019764E+03 -5.933000E+03
       488   3  2.545410E+05  1.461419E+05  1.787101E+04  1.917385E+05 -1.413669E+04 -9.566047E+03
       488   4  2.653212E+05  1.548792E+05  8.099334E+03  2.030764E+05 -3.734284E+03 -2.228049E+03
       488   5  2.656177E+05  1.531082E+05  1.247463E+04  2.022152E+05 -8.903250E+03 -5.845130E+03
       488   6  2.677035E+05  1.590683E+05  2.269282E+04  1.999151E+05 -1.404567E+04 -9.497466E+03
       488   7  2.746995E+05  1.598755E+05  1.076166E+04  2.069731E+05 -3.592259E+03 -2.120913E+03
       488   8  2.768854E+05  1.620668E+05  1.620563E+04  2.082519E+05 -8.786734E+03 -5.757258E+03
       488   9  2.808660E+05  1.719948E+05  2.751457E+04  2.080917E+05 -1.395464E+04 -9.428883E+03
       488  10  2.559430E+05  1.498830E+05  5.436988E+03  1.991798E+05 -6.825728E-09  7.391058E-10
       488  11  2.543500E+05  1.441495E+05  8.743386E+03  1.961786E+05  3.937157E-09 -3.351649E-09
       488  12  2.545408E+05  1.461418E+05  1.787046E+04  1.917384E+05  8.276556E-09  6.711773E-09
       488  13  2.653212E+05  1.548792E+05  8.099299E+03  2.030764E+05 -3.281500E-09 -5.949358E-09
       488  14  2.656176E+05  1.531081E+05  1.247441E+04  2.022152E+05 -6.625949E-10  6.916605E-09
       488  15  2.677032E+05  1.590681E+05  2.269228E+04  1.999150E+05  3.066845E-09 -1.401386E-08
       488  16  2.746994E+05  1.598755E+05  1.076162E+04  2.069731E+05  7.766593E-10  1.915780E-10
       488  17  2.768853E+05  1.620668E+05  1.620542E+04  2.082519E+05 -4.398804E-09 -4.211535E-09
       488  18  2.808658E+05  1.719946E+05  2.751404E+04  2.080916E+05 -7.217648E-09 -8.879386E-09
       488  19  2.559431E+05  1.498830E+05  5.437027E+03  1.991798E+05  3.876306E+03  2.335182E+03
       488  20  2.543501E+05  1.441496E+05  8.743605E+03  1.961787E+05  9.019764E+03  5.933000E+03
       488  21  2.545410E+05  1.461419E+05  1.787101E+04  1.917385E+05  1.413669E+04  9.566047E+03
       488  22  2.653212E+05  1.548792E+05  8.099334E+03  2.030764E+05  3.734284E+03  2.228049E+03
       488  23  2.656177E+05  1.531082E+05  1.247463E+04  2.022152E+05  8.903250E+03  5.845130E+03
       488  24  2.677035E+05  1.590683E+05  2.269282E+04  1.999151E+05  1.404567E+04  9.497466E+03
       488  25  2.746995E+05  1.598755E+05  1.076166E+04  2.069731E+05  3.592259E+03  2.120913E+03
       488  26  2.768854E+05  1.620668E+05  1.620563E+04  2.082519E+05  8.786734E+03  5.757258E+03
       488  27  2.808660E+05  1.719948E+05  2.751457E+04  2.080917E+05  1.395464E+04  9.428883E+03
       489   1  2.367523E+05  1.526416E+05  2.214939E+04  2.017456E+05 -1.782116E+04 -1.204386E+04
       489   2  2.482388E+05  1.212246E+05  3.906708E+04  1.876866E+05 -3.699627E+04 -2.638653E+04
       489   3  3.064923E+05  1.590274E+05  9.414376E+04  1.432379E+05 -5.563013E+04 -4.144655E+04
       489   4  2.670774E+05  1.540411E+05  2.798960E+04  2.076005E+05 -1.750863E+04 -1.180761E+04
       489   5  2.595961E+05  1.474330E+05  4.603272E+04  2.016272E+05 -3.720159E+04 -2.654240E+04
       489   6  2.989907E+05  2.101544E+05  1.026841E+05  1.652652E+05 -5.635249E+04 -4.199616E+04
       489   7  2.974039E+05  1.554408E+05  3.382984E+04  2.134554E+05 -1.719608E+04 -1.157136E+04
       489   8  2.709537E+05  1.736427E+05  5.299840E+04  2.155684E+05 -3.740692E+04 -2.669829E+04
       489   9  2.914910E+05  2.612878E+05  1.112251E+05  1.872928E+05 -5.707483E+04 -4.254588E+04
       489  10  2.367519E+05  1.526413E+05  2.214852E+04  2.017455E+05 -2.573622E-10  1.730098E-09
       489  11  2.482372E+05  1.212235E+05  3.906320E+04  1.876858E+05  4.603993E-10  2.370738E-09
       489  12  3.064886E+05  1.590247E+05  9.413472E+04  1.432361E+05  9.690536E-10 -4.468312E-09
       489  13  2.670771E+05  1.540409E+05  2.798876E+04  2.076003E+05  1.127486E-09 -2.499142E-09
       489  14  2.595944E+05  1.474319E+05  4.602880E+04  2.016264E+05 -1.145955E-10  7.999846E-09
       489  15  2.989868E+05  2.101517E+05  1.026749E+05  1.652633E+05 -6.588306E-10 -1.317000E-09
       489  16  2.974036E+05  1.554406E+05  3.382903E+04  2.134553E+05  9.161982E-10 -5.607664E-09
       489  17  2.709520E+05  1.736415E+05  5.299443E+04  2.155676E+05 -3.747947E-09 -1.006643E-08
       489  18  2.914871E+05  2.612850E+05  1.112156E+05  1.872909E+05 -2.245199E-09 -8.320334E-09
       489  19  2.367523E+05  1.526416E+05  2.214939E+04  2.017456E+05  1.782116E+04  1.204386E+04
       489  20  2.482388E+05  1.212246E+05  3.906708E+04  1.876866E+05  3.699627E+04  2.638653E+04
       489  21  3.064923E+05  1.590274E+05  9.414376E+04  1.432379E+05  5.563013E+04  4.144655E+04
       489  22  2.670774E+05  1.540411E+05  2.798960E+04  2.076005E+05  1.750863E+04  1.180761E+04
       489  23  2.595961E+05  1.474330E+05  4.603272E+04  2.016272E+05  3.720159E+04  2.654240E+04
       489  24  2.989907E+05  2.101544E+05  1.026841E+05  1.652652E+05  5.635249E+04  4.199616E+04
       489  25  2.974039E+05  1.554408E+05  3.382984E+04  2.134554E+05  1.719608E+04  1.157136E+04
       489  26  2.709537E+05  1.736427E+05  5.299840E+04  2.155684E+05  3.740692E+04  2.669829E+04
       489  27  2.914910E+05  2.612878E+05  1.112251E+05  1.872928E+05  5.707483E+04  4.254588E+04
       490   1 -8.196165E+04 -5.201846E+05 -8.558672E+04  4.720455E+04 -2.531855E+03 -2.179781E+04
       490   2 -4.320629E+04 -4.508697E+05 -5.385271E+04  2.433591E+04 -7.104884E+03 -1.057075E+04
       490   3 -2.758587E+04 -3.885653E+05 -3.517767E+04  3.565124E+04 -4.943087E+03  6.747319E+02
       490   4 -2.041955E+04 -2.733789E+05 -2.505858E+04  3.838104E+04 -2.545978E+03 -1.610840E+04
       490   5  1.306647E+03 -2.702888E+05 -1.202781E+04  2.131576E+04 -7.106795E+03 -9.724970E+03
       490   6  7.431265E+02 -2.733699E+05 -8.687738E+03  3.843457E+04 -4.933449E+03 -3.324429E+03
       490   7  4.111834E+04 -2.651754E+04  3.546524E+04  2.955405E+04 -2.560260E+03 -1.041673E+04
       490   8  4.581732E+04 -8.967778E+04  2.979491E+04  1.829474E+04 -7.108714E+03 -8.878948E+03
       490   9  2.907123E+04 -1.581621E+05  1.780138E+04  4.121843E+04 -4.923848E+03 -7.324327E+03
       490  10 -8.196179E+04 -5.201851E+05 -8.558762E+04  4.720450E+04  2.208493E-10 -7.519851E-09
       490  11 -4.320637E+04 -4.508699E+05 -5.385301E+04  2.433585E+04 -1.294213E-09 -7.564192E-09
       490  12 -2.758589E+04 -3.885653E+05 -3.517771E+04  3.565124E+04  1.075078E-09 -3.479275E-09
       490  13 -2.041962E+04 -2.733792E+05 -2.505908E+04  3.838101E+04  1.161033E-09  4.971449E-11
       490  14  1.306568E+03 -2.702890E+05 -1.202808E+04  2.131571E+04 -2.619419E-09 -3.332077E-09
       490  15  7.430974E+02 -2.733699E+05 -8.687805E+03  3.843456E+04 -2.940554E-10 -7.809230E-09
       490  16  4.111830E+04 -2.651766E+04  3.546503E+04  2.955403E+04 -5.858106E-11  8.133711E-10
       490  17  4.581725E+04 -8.967788E+04  2.979466E+04  1.829469E+04  4.187015E-10  1.239611E-08
       490  18  2.907119E+04 -1.581622E+05  1.780123E+04  4.121840E+04 -7.301244E-10  7.080117E-09
       490  19 -8.196165E+04 -5.201846E+05 -8.558672E+04  4.720455E+04  2.531855E+03  2.179781E+04
       490  20 -4.320629E+04 -4.508697E+05 -5.385271E+04  2.433591E+04  7.104884E+03  1.057075E+04
       490  21 -2.758587E+04 -3.885653E+05 -3.517767E+04  3.565124E+04  4.943087E+03 -6.747319E+02
       490  22 -2.041955E+04 -2.733789E+05 -2.505858E+04  3.838104E+04  2.545978E+03  1.610840E+04
       490  23  1.306647E+03 -2.702888E+05 -1.202781E+04  2.131576E+04  7.106795E+03  9.724970E+03
       490  24  7.431265E+02 -2.733699E+05 -8.687738E+03  3.843457E+04  4.933449E+03  3.324429E+03
       490  25  4.111834E+04 -2.651754E+04  3.546524E+04  2.955405E+04  2.560260E+03  1.041673E+04
       490  26  4.581732E+04 -8.967778E+04  2.979491E+04  1.829474E+04  7.108714E+03  8.878948E+03
       490  27  2.907123E+04 -1.581621E+05  1.780138E+04  4.121843E+04  4.923848E+03  7.324327E+03
       491   1 -1.435872E+04 -3.243290E+05 -2.002332E+04  3.952844E+04 -2.216272E+03  1.122078E+02
       491   2  3.636403E+03 -2.577738E+05 -4.368572E+03  2.113430E+04  5.830341E+02  3.914643E+03
       491   3  1.695811E+04 -1.926664E+05  7.687451E+03  3.721069E+04  3.349105E+03  7.717451E+03
       491   4 -1.553902E+03 -2.723200E+05 -8.054198E+03  3.848260E+04 -2.211435E+03 -1.921109E+03
       491   5  2.356833E+02 -2.715924E+05 -7.546700E+03  2.124593E+04  5.878426E+02  1.905199E+03
       491   6 -2.652080E+03 -2.723208E+05 -1.065433E+04  3.847996E+04  3.353884E+03  5.731486E+03
       491   7  1.125073E+04 -2.203086E+05  3.914759E+03  3.743668E+04 -2.206592E+03 -3.954595E+03
       491   8 -3.165047E+03 -2.854108E+05 -1.072482E+04  2.135756E+04  5.926504E+02 -1.042015E+02
       491   9 -2.226270E+04 -3.519693E+05 -2.899651E+04  3.974907E+04  3.358655E+03  3.745774E+03
       491  10 -1.435872E+04 -3.243290E+05 -2.002333E+04  3.952844E+04  2.609336E-10 -5.523953E-09
       491  11  3.636398E+03 -2.577738E+05 -4.368602E+03  2.113430E+04  2.566762E-10 -5.179298E-09
       491  12  1.695808E+04 -1.926664E+05  7.687318E+03  3.721067E+04 -1.403296E-10 -3.643620E-09
       491  13 -1.553908E+03 -2.723200E+05 -8.054214E+03  3.848260E+04 -8.733576E-10 -9.253663E-12
       491  14  2.356820E+02 -2.715924E+05 -7.546707E+03  2.124593E+04 -3.632475E-10 -4.233487E-09
       491  15 -2.652101E+03 -2.723208E+05 -1.065441E+04  3.847995E+04  2.930987E-09 -1.253908E-08
       491  16  1.125072E+04 -2.203086E+05  3.914721E+03  3.743667E+04 -1.142991E-09  2.384365E-09
       491  17 -3.165048E+03 -2.854108E+05 -1.072483E+04  2.135756E+04 -2.325428E-09  7.866865E-09
       491  18 -2.226272E+04 -3.519693E+05 -2.899656E+04  3.974906E+04  9.204140E-10  8.885766E-09
       491  19 -1.435872E+04 -3.243290E+05 -2.002332E+04  3.952844E+04  2.216272E+03 -1.122078E+02
       491  20  3.636403E+03 -2.577738E+05 -4.368572E+03  2.113430E+04 -5.830341E+02 -3.914643E+03
       491  21  1.695811E+04 -1.926664E+05  7.687451E+03  3.721069E+04 -3.349105E+03 -7.717451E+03
       491  22 -1.553902E+03 -2.723200E+05 -8.054198E+03  3.848260E+04  2.211435E+03  1.921109E+03
       491  23  2.356833E+02 -2.715924E+05 -7.546700E+03  2.124593E+04 -5.878426E+02 -1.905199E+03
       491  24 -2.652080E+03 -2.723208E+05 -1.065433E+04  3.847996E+04 -3.353884E+03 -5.731486E+03
       491  25  1.125073E+04 -2.203086E+05  3.914759E+03  3.743668E+04  2.206592E+03  3.954595E+03
       491  26 -3.165047E+03 -2.854108E+05 -1.072482E+04  2.135756E+04 -5.926504E+02  1.042015E+02
       491  27 -2.226270E+04 -3.519693E+05 -2.899651E+04  3.974907E+04 -3.358655E+03 -3.745774E+03
       492   1  3.669160E+04 -1.314457E+05  2.036229E+04  4.320254E+04  6.138856E+03  1.181432E+04
       492   2  5.356618E+04 -6.091908E+04  2.892185E+04  1.643809E+04  8.212730E+03  1.677185E+04
       492   3  3.415270E+04  1.386160E+02  2.523405E+04  2.379317E+04  2.881292E+03  2.171092E+04
       492   4  1.575245E+03 -2.743112E+05 -1.246533E+04  3.843137E+04  6.148914E+03  7.645271E+03
       492   5  2.252203E+03 -2.691162E+05 -1.927338E+04  2.132491E+04  8.210129E+03  1.793121E+04
       492   6 -3.429088E+04 -2.743232E+05 -4.203330E+04  3.833945E+04  2.865082E+03  2.819801E+04
       492   7 -3.354244E+04 -4.171577E+05 -4.529422E+04  3.366133E+04  6.159036E+03  3.477176E+03
       492   8 -4.906474E+04 -4.772732E+05 -6.747148E+04  2.621011E+04  8.207545E+03  1.909018E+04
       492   9 -1.027393E+05 -5.487159E+05 -1.093059E+05  5.287933E+04  2.849172E+03  3.468223E+04
       492  10  3.669153E+04 -1.314459E+05  2.036196E+04  4.320248E+04  1.245552E-09 -6.821309E-09
       492  11  5.356603E+04 -6.091940E+04  2.892119E+04  1.643798E+04  1.266474E-09 -5.051093E-09
       492  12  3.415257E+04  1.381076E+02  2.523315E+04  2.379312E+04 -9.876400E-10 -3.674404E-09
       492  13  1.575189E+03 -2.743113E+05 -1.246551E+04  3.843134E+04  1.318782E-11 -2.203484E-09
       492  14  2.252044E+03 -2.691166E+05 -1.927411E+04  2.132479E+04  3.230632E-09 -5.332366E-09
       492  15 -3.429110E+04 -2.743241E+05 -4.203481E+04  3.833939E+04 -1.212211E-09 -9.592939E-09
       492  16 -3.354249E+04 -4.171577E+05 -4.529431E+04  3.366131E+04  2.582481E-09 -6.286710E-10
       492  17 -4.906491E+04 -4.772737E+05 -6.747229E+04  2.620998E+04  1.679672E-09  4.044162E-09
       492  18 -1.027396E+05 -5.487172E+05 -1.093082E+05  5.287925E+04 -1.601563E-09  5.049301E-09
       492  19  3.669160E+04 -1.314457E+05  2.036229E+04  4.320254E+04 -6.138856E+03 -1.181432E+04
       492  20  5.356618E+04 -6.091908E+04  2.892185E+04  1.643809E+04 -8.212730E+03 -1.677185E+04
       492  21  3.415270E+04  1.386160E+02  2.523405E+04  2.379317E+04 -2.881292E+03 -2.171092E+04
       492  22  1.575245E+03 -2.743112E+05 -1.246533E+04  3.843137E+04 -6.148914E+03 -7.645271E+03
       492  23  2.252203E+03 -2.691162E+05 -1.927338E+04  2.132491E+04 -8.210129E+03 -1.793121E+04
       492  24 -3.429088E+04 -2.743232E+05 -4.203330E+04  3.833945E+04 -2.865082E+03 -2.819801E+04
       492  25 -3.354244E+04 -4.171577E+05 -4.529422E+04  3.366133E+04 -6.159036E+03 -3.477176E+03
       492  26 -4.906474E+04 -4.772732E+05 -6.747148E+04  2.621011E+04 -8.207545E+03 -1.909018E+04
       492  27 -1.027393E+05 -5.487159E+05 -1.093059E+05  5.287933E+04 -2.849172E+03 -3.468223E+04
       493   1 -8.004242E+05  6.463882E+04  4.659301E+04  1.451558E+04 -4.255546E+04 -6.116607E+03
       493   2 -8.637131E+05  1.176519E+05  6.785653E+04  1.477224E+04 -3.207181E+04 -1.841658E+04
       493   3 -9.461537E+05  9.872086E+04  6.433839E+04  5.262240E+04 -2.157618E+04 -1.693602E+04
       493   4 -1.332579E+06 -6.805251E+04 -8.372899E+04  4.278352E+04 -5.631838E+04 -6.105054E+03
       493   5 -1.322099E+06  4.628152E+03 -3.823768E+04  2.401787E+04 -3.593748E+04 -1.841480E+04
       493   6 -1.332515E+06  3.613748E+03 -2.442651E+04  4.284884E+04 -1.554286E+04 -1.694012E+04
       493   7 -1.864472E+06 -2.007618E+05 -2.140706E+05  7.102720E+04 -7.006949E+04 -6.094752E+03
       493   8 -1.780291E+06 -1.084101E+05 -1.443459E+05  3.325665E+04 -3.980030E+04 -1.841313E+04
       493   9 -1.718738E+06 -9.150342E+04 -1.132011E+05  3.308144E+04 -9.513266E+03 -1.694442E+04
       493  10 -8.004261E+05  6.463829E+04  4.658953E+04  1.451537E+04  2.685691E-10  1.870861E-12
       493  11 -8.637143E+05  1.176513E+05  6.785395E+04  1.477176E+04  2.485235E-10 -1.412963E-10
       493  12 -9.461543E+05  9.872043E+04  6.433698E+04  5.262211E+04  6.774922E-11  3.026029E-12
       493  13 -1.332582E+06 -6.805340E+04 -8.373503E+04  4.278324E+04  3.131022E-12 -9.329384E-11
       493  14 -1.322101E+06  4.627441E+03 -3.824075E+04  2.401733E+04  4.486292E-10 -1.867100E-10
       493  15 -1.332515E+06  3.613375E+03 -2.442751E+04  4.284863E+04  1.227645E-10  6.312228E-11
       493  16 -1.864478E+06 -2.007631E+05 -2.140799E+05  7.102686E+04  3.222202E-10  2.190290E-12
       493  17 -1.780293E+06 -1.084109E+05 -1.443495E+05  3.325605E+04 -2.263176E-10 -2.244109E-10
       493  18 -1.718738E+06 -9.150375E+04 -1.132018E+05  3.308131E+04  1.460838E-10  1.355322E-10
       493  19 -8.004242E+05  6.463882E+04  4.659301E+04  1.451558E+04  4.255546E+04  6.116607E+03
       493  20 -8.637131E+05  1.176519E+05  6.785653E+04  1.477224E+04  3.207181E+04  1.841658E+04
       493  21 -9.461537E+05  9.872086E+04  6.433839E+04  5.262240E+04  2.157618E+04  1.693602E+04
       493  22 -1.332579E+06 -6.805251E+04 -8.372899E+04  4.278352E+04  5.631838E+04  6.105054E+03
       493  23 -1.322099E+06  4.628152E+03 -3.823768E+04  2.401787E+04  3.593748E+04  1.841480E+04
       493  24 -1.332515E+06  3.613748E+03 -2.442651E+04  4.284884E+04  1.554286E+04  1.694012E+04
       493  25 -1.864472E+06 -2.007618E+05 -2.140706E+05  7.102720E+04  7.006949E+04  6.094752E+03
       493  26 -1.780291E+06 -1.084101E+05 -1.443459E+05  3.325665E+04  3.980030E+04  1.841313E+04
       493  27 -1.718738E+06 -9.150342E+04 -1.132011E+05  3.308144E+04  9.513266E+03  1.694442E+04
       494   1 -1.012715E+06  7.267891E+04  5.210922E+04  4.104013E+04 -1.362880E+04 -1.321486E+04
       494   2 -1.085395E+06  6.003572E+04  4.146756E+04  2.314492E+04 -6.967753E+03 -1.036367E+04
       494   3 -1.160467E+06  4.095399E+04  2.489191E+04  4.396310E+04 -3.084079E+02 -6.835757E+03
       494   4 -1.328421E+06 -5.112754E+03 -2.072273E+04  4.307764E+04 -1.181540E+04 -1.321633E+04
       494   5 -1.327172E+06  4.818462E+02 -1.419877E+04  2.372155E+04 -4.670904E+03 -1.036497E+04
       494   6 -1.328407E+06 -4.474525E+02 -1.394693E+04  4.307996E+04  2.472666E+03 -6.836786E+03
       494   7 -1.644034E+06 -8.291140E+04 -9.356130E+04  4.511411E+04 -1.000291E+04 -1.321779E+04
       494   8 -1.568896E+06 -5.907612E+04 -6.986896E+04  2.429795E+04 -2.374943E+03 -1.036627E+04
       494   9 -1.496321E+06 -4.185087E+04 -5.278762E+04  4.219706E+04  5.252991E+03 -6.837823E+03
       494  10 -1.012715E+06  7.267868E+04  5.210854E+04  4.103998E+04  5.748059E-10  3.584824E-11
       494  11 -1.085395E+06  6.003559E+04  4.146727E+04  2.314486E+04  3.566616E-10 -1.671914E-10
       494  12 -1.160467E+06  4.095394E+04  2.489182E+04  4.396310E+04 -6.310551E-11 -7.578129E-11
       494  13 -1.328421E+06 -5.112979E+03 -2.072332E+04  4.307751E+04 -2.047907E-11  1.489450E-10
       494  14 -1.327173E+06  4.817250E+02 -1.419901E+04  2.372151E+04  4.054726E-10 -1.757848E-10
       494  15 -1.328407E+06 -4.475043E+02 -1.394703E+04  4.307997E+04 -1.712016E-10 -1.018371E-10
       494  16 -1.644034E+06 -8.291162E+04 -9.356182E+04  4.511400E+04 -2.813210E-10  1.342893E-10
       494  17 -1.568896E+06 -5.907623E+04 -6.986917E+04  2.429793E+04 -2.450844E-10 -2.546680E-10
       494  18 -1.496321E+06 -4.185093E+04 -5.278776E+04  4.219709E+04  2.020754E-12  6.620457E-11
       494  19 -1.012715E+06  7.267891E+04  5.210922E+04  4.104013E+04  1.362880E+04  1.321486E+04
       494  20 -1.085395E+06  6.003572E+04  4.146756E+04  2.314492E+04  6.967753E+03  1.036367E+04
       494  21 -1.160467E+06  4.095399E+04  2.489191E+04  4.396310E+04  3.084079E+02  6.835757E+03
       494  22 -1.328421E+06 -5.112754E+03 -2.072273E+04  4.307764E+04  1.181540E+04  1.321633E+04
       494  23 -1.327172E+06  4.818462E+02 -1.419877E+04  2.372155E+04  4.670904E+03  1.036497E+04
       494  24 -1.328407E+06 -4.474525E+02 -1.394693E+04  4.307996E+04 -2.472666E+03  6.836786E+03
       494  25 -1.644034E+06 -8.291140E+04 -9.356130E+04  4.511411E+04  1.000291E+04  1.321779E+04
       494  26 -1.568896E+06 -5.907612E+04 -6.986896E+04  2.429795E+04  2.374943E+03  1.036627E+04
       494  27 -1.496321E+06 -4.185087E+04 -5.278762E+04  4.219706E+04 -5.252991E+03  6.837823E+03
       495   1 -1.232006E+06  2.397830E+04  6.910893E+03  4.138213E+04  2.341990E+03 -4.579447E+03
       495   2 -1.304159E+06  6.403801E+03 -1.592946E+04  2.452264E+04  1.323369E+04 -1.008053E+03
       495   3 -1.380581E+06 -2.272300E+04 -4.875273E+04  4.660705E+04  2.412359E+04  2.230879E+03
       495   4 -1.328791E+06  1.755178E+02 -1.517398E+04  4.313141E+04  5.031210E+03 -4.580274E+03
       495   5 -1.326679E+06  8.601312E+02 -2.109703E+04  2.365772E+04  1.568332E+04 -1.008803E+03
       495   6 -1.328801E+06 -9.965779E+03 -3.683603E+04  4.312835E+04  2.633492E+04  2.230129E+03
       495   7 -1.425567E+06 -2.362790E+04 -3.725944E+04  4.488041E+04  7.720014E+03 -4.581086E+03
       495   8 -1.349200E+06 -4.683568E+03 -2.626462E+04  2.279282E+04  1.813287E+04 -1.009559E+03
       495   9 -1.277019E+06  2.791301E+03 -2.491948E+04  3.964936E+04  2.854644E+04  2.229355E+03
       495  10 -1.232006E+06  2.397827E+04  6.910843E+03  4.138214E+04  4.149062E-10  9.571922E-11
       495  11 -1.304159E+06  6.403753E+03 -1.592979E+04  2.452265E+04  2.310207E-10 -5.274514E-11
       495  12 -1.380581E+06 -2.272316E+04 -4.875384E+04  4.660701E+04 -1.767186E-11  1.528126E-10
       495  13 -1.328791E+06  1.754884E+02 -1.517407E+04  4.313143E+04  4.670563E-11 -2.119015E-11
       495  14 -1.326680E+06  8.600639E+02 -2.109750E+04  2.365773E+04  2.279540E-10 -6.117764E-11
       495  15 -1.328802E+06 -9.965971E+03 -3.683734E+04  4.312830E+04  7.416713E-11 -1.800314E-11
       495  16 -1.425567E+06 -2.362794E+04 -3.725960E+04  4.488044E+04 -2.149249E-10  8.905682E-11
       495  17 -1.349200E+06 -4.683658E+03 -2.626524E+04  2.279284E+04 -1.589917E-10 -1.316898E-10
       495  18 -1.277020E+06  2.791076E+03 -2.492102E+04  3.964931E+04  4.297688E-11  2.138378E-10
       495  19 -1.232006E+06  2.397830E+04  6.910893E+03  4.138213E+04 -2.341990E+03  4.579447E+03
       495  20 -1.304159E+06  6.403801E+03 -1.592946E+04  2.452264E+04 -1.323369E+04  1.008053E+03
       495  21 -1.380581E+06 -2.272300E+04 -4.875273E+04  4.660705E+04 -2.412359E+04 -2.230879E+03
       495  22 -1.328791E+06  1.755178E+02 -1.517398E+04  4.313141E+04 -5.031210E+03  4.580274E+03
       495  23 -1.326679E+06  8.601312E+02 -2.109703E+04  2.365772E+04 -1.568332E+04  1.008803E+03
       495  24 -1.328801E+06 -9.965779E+03 -3.683603E+04  4.312835E+04 -2.633492E+04 -2.230129E+03
       495  25 -1.425567E+06 -2.362790E+04 -3.725944E+04  4.488041E+04 -7.720014E+03  4.581086E+03
       495  26 -1.349200E+06 -4.683568E+03 -2.626462E+04  2.279282E+04 -1.813287E+04  1.009559E+03
       495  27 -1.277019E+06  2.791301E+03 -2.491948E+04  3.964936E+04 -2.854644E+04 -2.229355E+03
       496   1 -1.460095E+06 -2.306637E+04 -7.345252E+04  2.350900E+04  2.855940E+04  5.241251E+03
       496   2 -1.513145E+06 -3.935038E+04 -1.191787E+05  4.129653E+04  7.319680E+04  7.742061E+03
       496   3 -1.608271E+06 -2.008098E+05 -2.302977E+05  9.756242E+04  1.178263E+05  2.791042E+03
       496   4 -1.336986E+06  7.251080E+03 -4.509070E+04  4.304553E+04  3.305069E+04  5.240761E+03
       496   5 -1.316468E+06  9.185572E+03 -7.356755E+04  2.377293E+04  7.234016E+04  7.740163E+03
       496   6 -1.337083E+06 -1.331032E+05 -1.637011E+05  4.298329E+04  1.116273E+05  2.783449E+03
       496   7 -1.213863E+06  3.756892E+04 -1.672961E+04  6.258597E+04  3.754287E+04  5.240553E+03
       496   8 -1.119754E+06  5.771995E+04 -2.795885E+04  6.243733E+03  7.148325E+04  7.738314E+03
       496   9 -1.065821E+06 -6.539093E+04 -9.710810E+04 -1.161978E+04  1.054255E+05  2.776952E+03
       496  10 -1.460096E+06 -2.306662E+04 -7.345411E+04  2.350888E+04  2.634744E-10  3.645708E-10
       496  11 -1.513151E+06 -3.935188E+04 -1.191889E+05  4.129608E+04  1.333848E-10  2.768250E-10
       496  12 -1.608286E+06 -2.008136E+05 -2.303239E+05  9.756215E+04  2.742031E-10  1.407458E-10
       496  13 -1.336988E+06  7.250757E+03 -4.509281E+04  4.304539E+04 -8.399319E-12  8.698431E-11
       496  14 -1.316473E+06  9.184100E+03 -7.357752E+04  2.377248E+04  2.370688E-10  3.203488E-10
       496  15 -1.337097E+06 -1.331066E+05 -1.637245E+05  4.298304E+04  8.572852E-11  7.165566E-11
       496  16 -1.213864E+06  3.756851E+04 -1.673232E+04  6.258581E+04 -3.785808E-12  1.708368E-10
       496  17 -1.119760E+06  5.771851E+04 -2.796858E+04  6.243287E+03 -1.837860E-10 -3.691737E-11
       496  18 -1.065833E+06 -6.539393E+04 -9.712904E+04 -1.162001E+04 -3.995023E-11 -4.344086E-11
       496  19 -1.460095E+06 -2.306637E+04 -7.345252E+04  2.350900E+04 -2.855940E+04 -5.241251E+03
       496  20 -1.513145E+06 -3.935038E+04 -1.191787E+05  4.129653E+04 -7.319680E+04 -7.742061E+03
       496  21 -1.608271E+06 -2.008098E+05 -2.302977E+05  9.756242E+04 -1.178263E+05 -2.791042E+03
       496  22 -1.336986E+06  7.251080E+03 -4.509070E+04  4.304553E+04 -3.305069E+04 -5.240761E+03
       496  23 -1.316468E+06  9.185572E+03 -7.356755E+04  2.377293E+04 -7.234016E+04 -7.740163E+03
       496  24 -1.337083E+06 -1.331032E+05 -1.637011E+05  4.298329E+04 -1.116273E+05 -2.783449E+03
       496  25 -1.213863E+06  3.756892E+04 -1.672961E+04  6.258597E+04 -3.754287E+04 -5.240553E+03
       496  26 -1.119754E+06  5.771995E+04 -2.795885E+04  6.243733E+03 -7.148325E+04 -7.738314E+03
       496  27 -1.065821E+06 -6.539093E+04 -9.710810E+04 -1.161978E+04 -1.054255E+05 -2.776952E+03
       497   1 -6.574913E+05  8.417627E+03 -1.044560E+04 -1.967181E+03 -5.401746E+04 -3.822488E+03
       497   2 -6.964572E+05  7.544653E+04  2.387894E+04  6.107705E+03 -3.783735E+04 -1.143474E+04
       497   3 -7.575686E+05  6.204052E+04  2.756823E+04  4.003006E+04 -2.165492E+04 -1.031059E+04
       497   4 -9.931548E+05 -7.525423E+04 -9.264149E+04  2.900106E+04 -6.260705E+04 -3.821228E+03
       497   5 -9.815064E+05  5.182588E+03 -4.208544E+04  1.609309E+04 -4.015313E+04 -1.143486E+04
       497   6 -9.931098E+05  4.071971E+03 -2.653817E+04  2.903446E+04 -1.769532E+04 -1.031140E+04
       497   7 -1.328713E+06 -1.589308E+05 -1.748448E+05  5.995252E+04 -7.119200E+04 -3.820825E+03
       497   8 -1.266480E+06 -6.508670E+04 -1.080552E+05  2.607385E+04 -4.246784E+04 -1.143506E+04
       497   9 -1.228599E+06 -5.389999E+04 -8.064812E+04  1.804307E+04 -1.373721E+04 -1.031236E+04
       497  10 -6.574945E+05  8.416827E+03 -1.045112E+04 -1.967347E+03  1.976542E-10  1.430385E-10
       497  11 -6.964587E+05  7.544601E+04  2.387600E+04  6.107357E+03  2.094261E-10 -1.280141E-10
       497  12 -7.575692E+05  6.204028E+04  2.756714E+04  4.002988E+04  1.362428E-10  1.345313E-10
       497  13 -9.931591E+05 -7.525530E+04 -9.264889E+04  2.900087E+04  1.048741E-10  1.381716E-10
       497  14 -9.815082E+05  5.182014E+03 -4.208872E+04  1.609272E+04  1.373981E-10  7.470989E-13
       497  15 -9.931101E+05  4.071773E+03 -2.653896E+04  2.903431E+04 -1.627943E-10  1.051957E-10
       497  16 -1.328719E+06 -1.589322E+05 -1.748544E+05  5.995230E+04  1.941388E-10 -4.701398E-11
       497  17 -1.266482E+06 -6.508732E+04 -1.080588E+05  2.607346E+04 -9.460552E-11  2.716336E-10
       497  18 -1.228599E+06 -5.390016E+04 -8.064867E+04  1.804296E+04 -1.441560E-11  1.146209E-10
       497  19 -6.574913E+05  8.417627E+03 -1.044560E+04 -1.967181E+03  5.401746E+04  3.822488E+03
       497  20 -6.964572E+05  7.544653E+04  2.387894E+04  6.107705E+03  3.783735E+04  1.143474E+04
       497  21 -7.575686E+05  6.204052E+04  2.756823E+04  4.003006E+04  2.165492E+04  1.031059E+04
       497  22 -9.931548E+05 -7.525423E+04 -9.264149E+04  2.900106E+04  6.260705E+04  3.821228E+03
       497  23 -9.815064E+05  5.182588E+03 -4.208544E+04  1.609309E+04  4.015313E+04  1.143486E+04
       497  24 -9.931098E+05  4.071971E+03 -2.653817E+04  2.903446E+04  1.769532E+04  1.031140E+04
       497  25 -1.328713E+06 -1.589308E+05 -1.748448E+05  5.995252E+04  7.119200E+04  3.820825E+03
       497  26 -1.266480E+06 -6.508670E+04 -1.080552E+05  2.607385E+04  4.246784E+04  1.143506E+04
       497  27 -1.228599E+06 -5.389999E+04 -8.064812E+04  1.804307E+04  1.373721E+04  1.031236E+04
       498   1 -8.013465E+05  4.049715E+04  2.091752E+04  2.706903E+04 -1.495753E+04 -7.842479E+03
       498   2 -8.505136E+05  3.419455E+04  1.698445E+04  1.539230E+04 -7.968984E+03 -5.853770E+03
       498   3 -9.022937E+05  2.098396E+04  6.775296E+03  3.016131E+04 -9.814922E+02 -3.441382E+03
       498   4 -9.885386E+05 -5.612831E+03 -2.225015E+04  2.915737E+04 -1.367590E+04 -7.842927E+03
       498   5 -9.872000E+05  5.368017E+02 -1.447786E+04  1.593468E+04 -6.384566E+03 -5.854080E+03
       498   6 -9.885312E+05 -2.752663E+02 -1.319365E+04  2.915826E+04  9.062600E+02 -3.441539E+03
       498   7 -1.175698E+06 -5.172525E+04 -6.542015E+04  3.124508E+04 -1.239464E+04 -7.843366E+03
       498   8 -1.123869E+06 -3.312225E+04 -4.594140E+04  1.647695E+04 -4.800494E+03 -5.854388E+03
       498   9 -1.074762E+06 -2.153501E+04 -3.316308E+04  2.815534E+04  2.793752E+03 -3.441702E+03
       498  10 -8.013468E+05  4.049702E+04  2.091699E+04  2.706893E+04 -2.063353E-10  6.666097E-11
       498  11 -8.505136E+05  3.419449E+04  1.698427E+04  1.539226E+04 -8.614017E-12  1.685525E-10
       498  12 -9.022937E+05  2.098394E+04  6.775272E+03  3.016131E+04 -1.808020E-10  4.192095E-11
       498  13 -9.885388E+05 -5.612947E+03 -2.225062E+04  2.915728E+04 -3.581294E-10 -4.253213E-11
       498  14 -9.872000E+05  5.367539E+02 -1.447800E+04  1.593465E+04 -1.865481E-10 -2.802249E-10
       498  15 -9.885312E+05 -2.752793E+02 -1.319367E+04  2.915826E+04 -9.227718E-11 -1.593988E-10
       498  16 -1.175698E+06 -5.172536E+04 -6.542056E+04  3.124500E+04  3.222153E-11  3.463148E-11
       498  17 -1.123869E+06 -3.312229E+04 -4.594151E+04  1.647693E+04  8.222783E-11 -2.047491E-10
       498  18 -1.074762E+06 -2.153502E+04 -3.316311E+04  2.815535E+04  7.887157E-11  1.128114E-10
       498  19 -8.013465E+05  4.049715E+04  2.091752E+04  2.706903E+04  1.495753E+04  7.842479E+03
       498  20 -8.505136E+05  3.419455E+04  1.698445E+04  1.539230E+04  7.968984E+03  5.853770E+03
       498  21 -9.022937E+05  2.098396E+04  6.775296E+03  3.016131E+04  9.814922E+02  3.441382E+03
       498  22 -9.885386E+05 -5.612831E+03 -2.225015E+04  2.915737E+04  1.367590E+04  7.842927E+03
       498  23 -9.872000E+05  5.368017E+02 -1.447786E+04  1.593468E+04  6.384566E+03  5.854080E+03
       498  24 -9.885312E+05 -2.752663E+02 -1.319365E+04  2.915826E+04 -9.062600E+02  3.441539E+03
       498  25 -1.175698E+06 -5.172525E+04 -6.542015E+04  3.124508E+04  1.239464E+04  7.843366E+03
       498  26 -1.123869E+06 -3.312225E+04 -4.594140E+04  1.647695E+04  4.800494E+03  5.854388E+03
       498  27 -1.074762E+06 -2.153501E+04 -3.316308E+04  2.815534E+04 -2.793752E+03  3.441702E+03
       499   1 -9.510228E+05  9.334961E+03 -5.329241E+03  2.771997E+04  1.441351E+03 -1.902470E+03
       499   2 -9.998064E+05 -2.429945E+03 -2.130432E+04  1.665105E+04  1.088088E+04  5.292089E+02
       499   3 -1.052258E+06 -2.397378E+04 -4.587581E+04  3.211147E+04  2.031974E+04  2.697352E+03
       499   4 -9.887442E+05  7.251871E+01 -1.387818E+04  2.917673E+04  3.285307E+03 -1.902570E+03
       499   5 -9.869297E+05  7.432676E+02 -1.832983E+04  1.591168E+04  1.253535E+04  5.290838E+02
       499   6 -9.887512E+05 -8.331355E+03 -3.124541E+04  2.917609E+04  2.178548E+04  2.697145E+03
       499   7 -1.026464E+06 -9.190011E+03 -2.242720E+04  3.063339E+04  5.129153E+03 -1.902660E+03
       499   8 -9.740528E+05  3.916472E+03 -1.535535E+04  1.517231E+04  1.418985E+04  5.289547E+02
       499   9 -9.252406E+05  7.310819E+03 -1.661526E+04  2.624042E+04  2.325136E+04  2.696925E+03
       499  10 -9.510228E+05  9.334956E+03 -5.329252E+03  2.771997E+04  2.594895E-10 -4.147919E-11
       499  11 -9.998066E+05 -2.429978E+03 -2.130454E+04  1.665104E+04 -1.980905E-11  4.800813E-12
       499  12 -1.052258E+06 -2.397390E+04 -4.587660E+04  3.211142E+04  1.627233E-10  3.613094E-10
       499  13 -9.887443E+05  7.251192E+01 -1.387821E+04  2.917673E+04  3.243911E-10  3.283548E-11
       499  14 -9.869299E+05  7.432250E+02 -1.833013E+04  1.591168E+04  2.169840E-10  7.391653E-12
       499  15 -9.887517E+05 -8.331490E+03 -3.124632E+04  2.917605E+04 -8.803442E-11 -8.230163E-11
       499  16 -1.026464E+06 -9.190022E+03 -2.242726E+04  3.063340E+04 -4.722423E-11  3.310512E-10
       499  17 -9.740530E+05  3.916418E+03 -1.535573E+04  1.517230E+04  2.498012E-11  7.377084E-11
       499  18 -9.252412E+05  7.310666E+03 -1.661630E+04  2.624037E+04 -1.383985E-10 -3.472382E-11
       499  19 -9.510228E+05  9.334961E+03 -5.329241E+03  2.771997E+04 -1.441351E+03  1.902470E+03
       499  20 -9.998064E+05 -2.429945E+03 -2.130432E+04  1.665105E+04 -1.088088E+04 -5.292089E+02
       499  21 -1.052258E+06 -2.397378E+04 -4.587581E+04  3.211147E+04 -2.031974E+04 -2.697352E+03
       499  22 -9.887442E+05  7.251871E+01 -1.387818E+04  2.917673E+04 -3.285307E+03  1.902570E+03
       499  23 -9.869297E+05  7.432676E+02 -1.832983E+04  1.591168E+04 -1.253535E+04 -5.290838E+02
       499  24 -9.887512E+05 -8.331355E+03 -3.124541E+04  2.917609E+04 -2.178548E+04 -2.697145E+03
       499  25 -1.026464E+06 -9.190011E+03 -2.242720E+04  3.063339E+04 -5.129153E+03  1.902660E+03
       499  26 -9.740528E+05  3.916472E+03 -1.535535E+04  1.517231E+04 -1.418985E+04 -5.289547E+02
       499  27 -9.252406E+05  7.310819E+03 -1.661526E+04  2.624042E+04 -2.325136E+04 -2.696925E+03
       500   1 -1.107676E+06 -2.150260E+04 -6.385962E+04  1.271489E+04  2.424367E+04  4.827271E+03
       500   2 -1.140535E+06 -3.227853E+04 -9.938148E+04  3.067435E+04  6.138681E+04  6.430257E+03
       500   3 -1.208635E+06 -1.646943E+05 -1.895211E+05  7.482657E+04  9.852579E+04  2.274420E+03
       500   4 -9.956038E+05  6.091443E+03 -3.807277E+04  2.910902E+04  2.747346E+04  4.827581E+03
       500   5 -9.783766E+05  7.711377E+03 -6.180942E+04  1.599920E+04  6.048116E+04  6.428836E+03
       500   6 -9.956633E+05 -1.115751E+05 -1.372780E+05  2.908530E+04  9.348791E+04  2.268215E+03
       500   7 -8.835191E+05  3.368563E+04 -1.228656E+04  4.550614E+04  3.070383E+04  4.828061E+03
       500   8 -8.161934E+05  4.770024E+04 -2.423900E+04  1.320196E+03  5.957526E+04  6.427459E+03
       500   9 -7.826462E+05 -5.845127E+04 -8.503702E+04 -1.667172E+04  8.844830E+04  2.262756E+03
       500  10 -1.107677E+06 -2.150279E+04 -6.386077E+04  1.271479E+04  2.729127E-10  1.178165E-10
       500  11 -1.140539E+06 -3.227959E+04 -9.938865E+04  3.067403E+04  1.885884E-10 -6.283613E-11
       500  12 -1.208645E+06 -1.646970E+05 -1.895394E+05  7.482639E+04 -1.538578E-10 -1.039501E-10
       500  13 -9.956046E+05  6.091215E+03 -3.807423E+04  2.910891E+04  1.513664E-10 -7.052264E-11
       500  14 -9.783805E+05  7.710349E+03 -6.181638E+04  1.599889E+04  7.887606E-11 -3.264664E-10
       500  15 -9.956727E+05 -1.115774E+05 -1.372945E+05  2.908513E+04  7.479156E-11 -6.003990E-11
       500  16 -8.835201E+05  3.368535E+04 -1.228838E+04  4.550602E+04 -4.083311E-10 -3.244428E-10
       500  17 -8.161972E+05  4.769924E+04 -2.424575E+04  1.319888E+03 -3.473906E-10 -2.768368E-10
       500  18 -7.826546E+05 -5.845338E+04 -8.505175E+04 -1.667188E+04  2.968609E-11 -1.432653E-11
       500  19 -1.107676E+06 -2.150260E+04 -6.385962E+04  1.271489E+04 -2.424367E+04 -4.827271E+03
       500  20 -1.140535E+06 -3.227853E+04 -9.938148E+04  3.067435E+04 -6.138681E+04 -6.430257E+03
       500  21 -1.208635E+06 -1.646943E+05 -1.895211E+05  7.482657E+04 -9.852579E+04 -2.274420E+03
       500  22 -9.956038E+05  6.091443E+03 -3.807277E+04  2.910902E+04 -2.747346E+04 -4.827581E+03
       500  23 -9.783766E+05  7.711377E+03 -6.180942E+04  1.599920E+04 -6.048116E+04 -6.428836E+03
       500  24 -9.956633E+05 -1.115751E+05 -1.372780E+05  2.908530E+04 -9.348791E+04 -2.268215E+03
       500  25 -8.835191E+05  3.368563E+04 -1.228656E+04  4.550614E+04 -3.070383E+04 -4.828061E+03
       500  26 -8.161934E+05  4.770024E+04 -2.423900E+04  1.320196E+03 -5.957526E+04 -6.427459E+03
       500  27 -7.826462E+05 -5.845127E+04 -8.503702E+04 -1.667172E+04 -8.844830E+04 -2.262756E+03
       501   1 -2.169495E+05  4.579059E+04  3.611127E+04  1.526647E+04 -2.115512E+04 -3.715739E+03
       501   2 -2.642050E+05  7.001831E+04  4.328774E+04  1.172335E+04 -1.655041E+04 -1.099330E+04
       501   3 -3.213955E+05  5.668290E+04  3.808576E+04  3.518016E+04 -1.194469E+04 -9.730914E+03
       501   4 -5.439889E+05 -3.566303E+04 -4.394037E+04  2.995091E+04 -2.945610E+04 -3.714659E+03
       501   5 -5.384746E+05  2.450643E+03 -2.015639E+04  1.645309E+04 -1.870896E+04 -1.099355E+04
       501   6 -5.439716E+05  1.924593E+03 -1.302382E+04  2.995676E+04 -7.960405E+03 -9.730953E+03
       501   7 -8.709301E+05 -1.171237E+05 -1.239995E+05  4.462760E+04 -3.775271E+04 -3.713972E+03
       501   8 -8.126747E+05 -6.512222E+04 -8.360552E+04  2.118072E+04 -2.086656E+04 -1.099382E+04
       501   9 -7.665017E+05 -5.283707E+04 -6.413660E+04  2.473525E+04 -3.977538E+03 -9.731059E+03
       501  10 -2.169500E+05  4.579045E+04  3.611040E+04  1.526641E+04 -4.049425E-12 -1.737351E-11
       501  11 -2.642053E+05  7.001810E+04  4.328700E+04  1.172320E+04 -2.152708E-10 -3.679775E-11
       501  12 -3.213957E+05  5.668276E+04  3.808532E+04  3.518007E+04  1.321556E-10  9.459615E-11
       501  13 -5.439898E+05 -3.566328E+04 -4.394203E+04  2.995083E+04 -8.625860E-11 -3.956744E-13
       501  14 -5.384751E+05  2.450419E+03 -2.015728E+04  1.645292E+04 -3.256884E-10  3.660317E-12
       501  15 -5.439717E+05  1.924474E+03 -1.302412E+04  2.995670E+04  1.607367E-10 -4.565383E-12
       501  16 -8.709316E+05 -1.171241E+05 -1.240022E+05  4.462749E+04 -2.101842E-10 -2.351102E-10
       501  17 -8.126752E+05 -6.512247E+04 -8.360657E+04  2.118053E+04  8.493945E-11 -2.152521E-11
       501  18 -7.665018E+05 -5.283717E+04 -6.413680E+04  2.473522E+04  2.612011E-10  1.965972E-10
       501  19 -2.169495E+05  4.579059E+04  3.611127E+04  1.526647E+04  2.115512E+04  3.715739E+03
       501  20 -2.642050E+05  7.001831E+04  4.328774E+04  1.172335E+04  1.655041E+04  1.099330E+04
       501  21 -3.213955E+05  5.668290E+04  3.808576E+04  3.518016E+04  1.194469E+04  9.730914E+03
       501  22 -5.439889E+05 -3.566303E+04 -4.394037E+04  2.995091E+04  2.945610E+04  3.714659E+03
       501  23 -5.384746E+05  2.450643E+03 -2.015639E+04  1.645309E+04  1.870896E+04  1.099355E+04
       501  24 -5.439716E+05  1.924593E+03 -1.302382E+04  2.995676E+04  7.960405E+03  9.730953E+03
       501  25 -8.709301E+05 -1.171237E+05 -1.239995E+05  4.462760E+04  3.775271E+04  3.713972E+03
       501  26 -8.126747E+05 -6.512222E+04 -8.360552E+04  2.118072E+04  2.086656E+04  1.099382E+04
       501  27 -7.665017E+05 -5.283707E+04 -6.413660E+04  2.473525E+04  3.977538E+03  9.731059E+03
       502   1 -3.695061E+05  3.978189E+04  2.856171E+04  2.904239E+04 -7.322294E+03 -7.226002E+03
       502   2 -4.212299E+05  2.979140E+04  1.963471E+04  1.607508E+04 -3.617218E+03 -5.129997E+03
       502   3 -4.742910E+05  1.636314E+04  7.435277E+03  3.055472E+04  8.712899E+01 -2.624600E+03
       502   4 -5.418308E+05 -2.643319E+03 -1.115430E+04  3.005448E+04 -5.960343E+03 -7.226052E+03
       502   5 -5.411335E+05  2.805486E+02 -7.952747E+03  1.633072E+04 -1.961595E+03 -5.129878E+03
       502   6 -5.418267E+05 -2.844557E+02 -8.227971E+03  3.005430E+04  2.036734E+03 -2.624276E+03
       502   7 -7.141279E+05 -4.507060E+04 -5.087228E+04  3.106629E+04 -4.598767E+03 -7.226097E+03
       502   8 -6.610238E+05 -2.923131E+04 -3.554114E+04  1.658631E+04 -3.062898E+02 -5.129758E+03
       502   9 -6.093582E+05 -1.693237E+04 -2.389151E+04  2.955393E+04  3.986128E+03 -2.623956E+03
       502  10 -3.695062E+05  3.978182E+04  2.856151E+04  2.904235E+04  4.417055E-10  1.760740E-10
       502  11 -4.212300E+05  2.979137E+04  1.963463E+04  1.607506E+04  1.328309E-10  7.791262E-11
       502  12 -4.742910E+05  1.636313E+04  7.435264E+03  3.055472E+04  2.297667E-11 -2.499470E-11
       502  13 -5.418308E+05 -2.643385E+03 -1.115447E+04  3.005445E+04  8.069670E-11  5.842025E-11
       502  14 -5.411335E+05  2.805193E+02 -7.952804E+03  1.633071E+04 -3.670901E-10 -6.642157E-11
       502  15 -5.418267E+05 -2.844642E+02 -8.227992E+03  3.005430E+04 -1.641351E-10  1.049788E-11
       502  16 -7.141279E+05 -4.507067E+04 -5.087242E+04  3.106626E+04 -3.782293E-10  1.953870E-10
       502  17 -6.610238E+05 -2.923134E+04 -3.554119E+04  1.658631E+04 -3.258577E-10 -3.832977E-10
       502  18 -6.093582E+05 -1.693238E+04 -2.389155E+04  2.955394E+04  5.660305E-13 -1.106570E-10
       502  19 -3.695061E+05  3.978189E+04  2.856171E+04  2.904239E+04  7.322294E+03  7.226002E+03
       502  20 -4.212299E+05  2.979140E+04  1.963471E+04  1.607508E+04  3.617218E+03  5.129997E+03
       502  21 -4.742910E+05  1.636314E+04  7.435277E+03  3.055472E+04 -8.712899E+01  2.624600E+03
       502  22 -5.418308E+05 -2.643319E+03 -1.115430E+04  3.005448E+04  5.960343E+03  7.226052E+03
       502  23 -5.411335E+05  2.805486E+02 -7.952747E+03  1.633072E+04  1.961595E+03  5.129878E+03
       502  24 -5.418267E+05 -2.844557E+02 -8.227971E+03  3.005430E+04 -2.036734E+03  2.624276E+03
       502  25 -7.141279E+05 -4.507060E+04 -5.087228E+04  3.106629E+04  4.598767E+03  7.226097E+03
       502  26 -6.610238E+05 -2.923131E+04 -3.554114E+04  1.658631E+04  3.062898E+02  5.129758E+03
       502  27 -6.093582E+05 -1.693237E+04 -2.389151E+04  2.955393E+04 -3.986128E+03  2.623956E+03
       503   1 -5.248422E+05  4.402238E+03 -5.304945E+03  2.897465E+04  1.644224E+03 -1.029702E+03
       503   2 -5.759324E+05 -8.102726E+03 -2.119442E+04  1.686577E+04  8.475476E+03  1.487956E+03
       503   3 -6.297290E+05 -2.785019E+04 -4.334721E+04  3.223585E+04  1.530629E+04  3.704654E+03
       503   4 -5.421101E+05  1.797468E+02 -9.141592E+03  3.006113E+04  3.563233E+03 -1.029343E+03
       503   5 -5.407765E+05  5.521474E+02 -1.309673E+04  1.632211E+04  1.017819E+04  1.488216E+03
       503   6 -5.421139E+05 -6.279835E+03 -2.316423E+04  3.006210E+04  1.679327E+04  3.704797E+03
       503   7 -5.593776E+05 -4.042758E+03 -1.297824E+04  3.114757E+04  5.482189E+03 -1.028978E+03
       503   8 -5.056195E+05  9.206937E+03 -4.999116E+03  1.577842E+04  1.188099E+04  1.488474E+03
       503   9 -4.544916E+05  1.529001E+04 -2.981754E+03  2.788803E+04  1.828045E+04  3.704930E+03
       503  10 -5.248422E+05  4.402236E+03 -5.304953E+03  2.897465E+04 -6.763521E-11 -1.138485E-10
       503  11 -5.759325E+05 -8.102748E+03 -2.119456E+04  1.686576E+04  2.945997E-10 -3.609051E-10
       503  12 -6.297293E+05 -2.785027E+04 -4.334768E+04  3.223581E+04 -3.109816E-10 -4.906115E-11
       503  13 -5.421101E+05  1.797422E+02 -9.141618E+03  3.006113E+04  1.345878E-10  1.944551E-10
       503  14 -5.407766E+05  5.521171E+02 -1.309693E+04  1.632210E+04  5.546567E-10  6.246753E-12
       503  15 -5.421142E+05 -6.279926E+03 -2.316479E+04  3.006205E+04  4.494389E-10 -2.112505E-10
       503  16 -5.593776E+05 -4.042767E+03 -1.297830E+04  3.114758E+04 -9.364556E-11  2.224899E-10
       503  17 -5.056197E+05  9.206897E+03 -4.999386E+03  1.577841E+04 -2.630833E-10  4.806499E-10
       503  18 -4.544920E+05  1.528990E+04 -2.982408E+03  2.788798E+04  6.281817E-11  1.083499E-10
       503  19 -5.248422E+05  4.402238E+03 -5.304945E+03  2.897465E+04 -1.644224E+03  1.029702E+03
       503  20 -5.759324E+05 -8.102726E+03 -2.119442E+04  1.686577E+04 -8.475476E+03 -1.487956E+03
       503  21 -6.297290E+05 -2.785019E+04 -4.334721E+04  3.223585E+04 -1.530629E+04 -3.704654E+03
       503  22 -5.421101E+05  1.797468E+02 -9.141592E+03  3.006113E+04 -3.563233E+03  1.029343E+03
       503  23 -5.407765E+05  5.521474E+02 -1.309673E+04  1.632211E+04 -1.017819E+04 -1.488216E+03
       503  24 -5.421139E+05 -6.279835E+03 -2.316423E+04  3.006210E+04 -1.679327E+04 -3.704797E+03
       503  25 -5.593776E+05 -4.042758E+03 -1.297824E+04  3.114757E+04 -5.482189E+03  1.028978E+03
       503  26 -5.056195E+05  9.206937E+03 -4.999116E+03  1.577842E+04 -1.188099E+04 -1.488474E+03
       503  27 -4.544916E+05  1.529001E+04 -2.981754E+03  2.788803E+04 -1.828045E+04 -3.704930E+03
       504   1 -6.852224E+05 -2.933705E+04 -6.012982E+04  1.759597E+04  1.754222E+04  5.973884E+03
       504   2 -7.241758E+05 -4.097897E+04 -9.045112E+04  2.745581E+04  4.704613E+04  7.560440E+03
       504   3 -7.899595E+05 -1.446150E+05 -1.629915E+05  6.448274E+04  7.654697E+04  2.650214E+03
       504   4 -5.472991E+05  4.611217E+03 -2.842323E+04  2.999265E+04  2.102197E+04  5.974591E+03
       504   5 -5.343065E+05  5.812348E+03 -4.649197E+04  1.640767E+04  4.585760E+04  7.559397E+03
       504   6 -5.473269E+05 -8.415579E+04 -1.035266E+05  2.999219E+04  7.069291E+04  2.646073E+03
       504   7 -4.093579E+05  3.855874E+04  3.282223E+03  4.239212E+04  2.450249E+04  5.975436E+03
       504   8 -3.444035E+05  5.260159E+04 -2.535154E+03  5.356129E+03  4.466872E+04  7.558396E+03
       504   9 -3.046380E+05 -2.369641E+04 -4.406513E+04 -4.511888E+03  6.483657E+04  2.642585E+03
       504  10 -6.852227E+05 -2.933717E+04 -6.013047E+04  1.759589E+04  1.715478E-10 -3.222585E-11
       504  11 -7.241782E+05 -4.097963E+04 -9.045539E+04  2.745552E+04  3.251034E-10 -1.963243E-10
       504  12 -7.899658E+05 -1.446166E+05 -1.630026E+05  6.448257E+04 -7.707131E-11 -1.809313E-10
       504  13 -5.472996E+05  4.611060E+03 -2.842413E+04  2.999255E+04  3.170932E-10  1.163330E-10
       504  14 -5.343087E+05  5.811721E+03 -4.649603E+04  1.640739E+04  2.333225E-10 -1.695784E-10
       504  15 -5.473323E+05 -8.415714E+04 -1.035360E+05  2.999203E+04 -8.793929E-12 -1.409019E-10
       504  16 -4.093586E+05  3.855854E+04  3.281027E+03  4.239200E+04 -2.978090E-13 -1.620263E-10
       504  17 -3.444057E+05  5.260099E+04 -2.539013E+03  5.355858E+03 -4.453917E-10 -1.140263E-10
       504  18 -3.046425E+05 -2.369755E+04 -4.407305E+04 -4.512026E+03  1.992253E-10 -1.358598E-10
       504  19 -6.852224E+05 -2.933705E+04 -6.012982E+04  1.759597E+04 -1.754222E+04 -5.973884E+03
       504  20 -7.241758E+05 -4.097897E+04 -9.045112E+04  2.745581E+04 -4.704613E+04 -7.560440E+03
       504  21 -7.899595E+05 -1.446150E+05 -1.629915E+05  6.448274E+04 -7.654697E+04 -2.650214E+03
       504  22 -5.472991E+05  4.611217E+03 -2.842323E+04  2.999265E+04 -2.102197E+04 -5.974591E+03
       504  23 -5.343065E+05  5.812348E+03 -4.649197E+04  1.640767E+04 -4.585760E+04 -7.559397E+03
       504  24 -5.473269E+05 -8.415579E+04 -1.035266E+05  2.999219E+04 -7.069291E+04 -2.646073E+03
       504  25 -4.093579E+05  3.855874E+04  3.282223E+03  4.239212E+04 -2.450249E+04 -5.975436E+03
       504  26 -3.444035E+05  5.260159E+04 -2.535154E+03  5.356129E+03 -4.466872E+04 -7.558396E+03
       504  27 -3.046380E+05 -2.369641E+04 -4.406513E+04 -4.511888E+03 -6.483657E+04 -2.642585E+03
       505   1  3.549376E+05  9.060430E+04  9.376810E+04  3.650382E+04  2.372229E+04 -3.225743E+03
       505   2  3.014722E+05  5.685277E+04  6.492076E+04  1.821126E+04  1.279411E+04 -9.448521E+03
       505   3  2.548986E+05  4.486012E+04  4.863028E+04  2.580985E+04  1.866780E+03 -8.144400E+03
       505   4  6.810291E+04  1.921703E+04  2.358967E+04  2.863825E+04  1.652449E+04 -3.225937E+03
       505   5  6.513046E+04 -1.334463E+03  1.027761E+04  1.569269E+04  1.102055E+04 -9.448930E+03
       505   6  6.810973E+04 -1.063594E+03  5.760067E+03  2.863850E+04  5.516597E+03 -8.143937E+03
       505   7 -2.186566E+05 -5.217607E+04 -4.659454E+04  2.077632E+04  9.329999E+03 -3.225949E+03
       505   8 -1.711597E+05 -5.952559E+04 -4.436926E+04  1.317509E+04  9.247654E+03 -9.449324E+03
       505   9 -1.186468E+05 -4.698970E+04 -3.711239E+04  3.146628E+04  9.165324E+03 -8.143442E+03
       505  10  3.549369E+05  9.060413E+04  9.376702E+04  3.650388E+04 -7.193722E-11 -5.292136E-11
       505  11  3.014720E+05  5.685263E+04  6.492029E+04  1.821136E+04 -1.582838E-11 -1.423719E-10
       505  12  2.548986E+05  4.486005E+04  4.863015E+04  2.580986E+04 -9.764495E-11  8.760004E-11
       505  13  6.810261E+04  1.921694E+04  2.358914E+04  2.863829E+04  2.676723E-10 -4.103371E-11
       505  14  6.513030E+04 -1.334592E+03  1.027721E+04  1.569277E+04  4.121761E-10 -3.208719E-10
       505  15  6.810968E+04 -1.063673E+03  5.759885E+03  2.863853E+04  1.868390E-10 -9.716792E-12
       505  16 -2.186566E+05 -5.217610E+04 -4.659473E+04  2.077634E+04 -9.666722E-11 -1.200093E-10
       505  17 -1.711598E+05 -5.952571E+04 -4.436959E+04  1.317516E+04 -7.729546E-11 -9.669555E-11
       505  18 -1.186469E+05 -4.698979E+04 -3.711267E+04  3.146634E+04  2.160864E-10 -1.983785E-11
       505  19  3.549376E+05  9.060430E+04  9.376810E+04  3.650382E+04 -2.372229E+04  3.225743E+03
       505  20  3.014722E+05  5.685277E+04  6.492076E+04  1.821126E+04 -1.279411E+04  9.448521E+03
       505  21  2.548986E+05  4.486012E+04  4.863028E+04  2.580985E+04 -1.866780E+03  8.144400E+03
       505  22  6.810291E+04  1.921703E+04  2.358967E+04  2.863825E+04 -1.652449E+04  3.225937E+03
       505  23  6.513046E+04 -1.334463E+03  1.027761E+04  1.569269E+04 -1.102055E+04  9.448930E+03
       505  24  6.810973E+04 -1.063594E+03  5.760067E+03  2.863850E+04 -5.516597E+03  8.143937E+03
       505  25 -2.186566E+05 -5.217607E+04 -4.659454E+04  2.077632E+04 -9.329999E+03  3.225949E+03
       505  26 -1.711597E+05 -5.952559E+04 -4.436926E+04  1.317509E+04 -9.247654E+03  9.449324E+03
       505  27 -1.186468E+05 -4.698970E+04 -3.711239E+04  3.146628E+04 -9.165324E+03  8.143442E+03
       506   1  2.057317E+05  3.561977E+04  3.626532E+04  2.914121E+04  3.371058E+03 -5.826069E+03
       506   2  1.555893E+05  2.178539E+04  2.163908E+04  1.573920E+04  2.497642E+03 -3.795256E+03
       506   3  1.058971E+05  9.322728E+03  7.921924E+03  2.847673E+04  1.623908E+03 -1.408624E+03
       506   4  6.688052E+04  1.458525E+03  4.289368E+03  2.869332E+04  4.704993E+03 -5.825880E+03
       506   5  6.667991E+04 -8.330290E+01  1.193908E+03  1.562365E+04  4.087983E+03 -3.794916E+03
       506   6  6.688299E+04 -2.975879E+02 -1.170099E+03  2.869373E+04  3.470585E+03 -1.408101E+03
       506   7 -7.195284E+04 -3.270406E+04 -2.768785E+04  2.824554E+04  6.038633E+03 -5.825693E+03
       506   8 -2.222212E+04 -2.195255E+04 -1.925178E+04  1.550812E+04  5.678099E+03 -3.794576E+03
       506   9  2.787030E+04 -9.918010E+03 -1.026221E+04  2.891072E+04  5.317148E+03 -1.407577E+03
       506  10  2.057317E+05  3.561973E+04  3.626523E+04  2.914123E+04  3.035317E-10  1.258620E-10
       506  11  1.555893E+05  2.178537E+04  2.163904E+04  1.573920E+04 -4.537012E-12  6.152304E-11
       506  12  1.058971E+05  9.322725E+03  7.921915E+03  2.847673E+04  3.705704E-11 -1.628691E-10
       506  13  6.688049E+04  1.458482E+03  4.289263E+03  2.869335E+04 -1.199187E-11 -1.774347E-11
       506  14  6.667989E+04 -8.332285E+01  1.193849E+03  1.562366E+04 -2.288669E-10  1.536930E-11
       506  15  6.688298E+04 -2.975932E+02 -1.170126E+03  2.869374E+04  3.420220E-10 -9.987741E-11
       506  16 -7.195289E+04 -3.270411E+04 -2.768799E+04  2.824557E+04 -8.941366E-11 -5.417134E-11
       506  17 -2.222216E+04 -2.195257E+04 -1.925186E+04  1.550814E+04 -5.032726E-11 -5.144460E-10
       506  18  2.787027E+04 -9.918019E+03 -1.026227E+04  2.891073E+04  1.367469E-10 -2.523371E-10
       506  19  2.057317E+05  3.561977E+04  3.626532E+04  2.914121E+04 -3.371058E+03  5.826069E+03
       506  20  1.555893E+05  2.178539E+04  2.163908E+04  1.573920E+04 -2.497642E+03  3.795256E+03
       506  21  1.058971E+05  9.322728E+03  7.921924E+03  2.847673E+04 -1.623908E+03  1.408624E+03
       506  22  6.688052E+04  1.458525E+03  4.289368E+03  2.869332E+04 -4.704993E+03  5.825880E+03
       506  23  6.667991E+04 -8.330290E+01  1.193908E+03  1.562365E+04 -4.087983E+03  3.794916E+03
       506  24  6.688299E+04 -2.975879E+02 -1.170099E+03  2.869373E+04 -3.470585E+03  1.408101E+03
       506  25 -7.195284E+04 -3.270406E+04 -2.768785E+04  2.824554E+04 -6.038633E+03  5.825693E+03
       506  26 -2.222212E+04 -2.195255E+04 -1.925178E+04  1.550812E+04 -5.678099E+03  3.794576E+03
       506  27  2.787030E+04 -9.918010E+03 -1.026221E+04  2.891072E+04 -5.317148E+03  1.407577E+03
       507   1  5.772113E+04 -1.886573E+03 -4.500630E+03  2.814459E+04  1.944246E+03  1.080634E+02
       507   2  8.450565E+03 -1.417339E+04 -1.896366E+04  1.587885E+04  4.942145E+03  2.499038E+03
       507   3 -4.209900E+04 -2.997758E+04 -3.626095E+04  2.975394E+04  7.940030E+03  4.572340E+03
       507   4  6.651761E+04  3.027009E+02 -2.351966E+03  2.869358E+04  3.779762E+03  1.085970E+02
       507   5  6.713798E+04  2.635503E+02 -5.463181E+03  1.562363E+04  6.549146E+03  2.499428E+03
       507   6  6.651632E+04 -3.253051E+03 -1.124967E+04  2.869445E+04  9.318756E+03  4.572602E+03
       507   7  7.531417E+04  2.491972E+03 -2.032957E+02  2.924258E+04  5.615305E+03  1.091338E+02
       507   8  1.258286E+05  1.470025E+04  8.037079E+03  1.536840E+04  8.156298E+03  2.499818E+03
       507   9  1.751426E+05  2.347066E+04  1.376084E+04  2.763476E+04  1.069772E+04  4.572859E+03
       507  10  5.772113E+04 -1.886574E+03 -4.500637E+03  2.814459E+04 -2.443705E-10 -1.501410E-10
       507  11  8.450537E+03 -1.417341E+04 -1.896372E+04  1.587884E+04  4.057303E-10  5.585576E-10
       507  12 -4.209908E+04 -2.997762E+04 -3.626111E+04  2.975391E+04  2.155759E-10  3.014000E-10
       507  13  6.651760E+04  3.026971E+02 -2.351993E+03  2.869358E+04 -1.272317E-10 -2.888911E-10
       507  14  6.713793E+04  2.635320E+02 -5.463273E+03  1.562362E+04  3.997766E-10 -2.704750E-10
       507  15  6.651622E+04 -3.253096E+03 -1.124987E+04  2.869441E+04  3.076171E-10  7.259117E-11
       507  16  7.531414E+04  2.491964E+03 -2.033550E+02  2.924257E+04  1.876211E-10  7.307265E-12
       507  17  1.258285E+05  1.470023E+04  8.036943E+03  1.536838E+04  1.764675E-10  6.106178E-11
       507  18  1.751424E+05  2.347061E+04  1.376058E+04  2.763472E+04 -2.480268E-10 -1.072747E-10
       507  19  5.772113E+04 -1.886573E+03 -4.500630E+03  2.814459E+04 -1.944246E+03 -1.080634E+02
       507  20  8.450565E+03 -1.417339E+04 -1.896366E+04  1.587885E+04 -4.942145E+03 -2.499038E+03
       507  21 -4.209900E+04 -2.997758E+04 -3.626095E+04  2.975394E+04 -7.940030E+03 -4.572340E+03
       507  22  6.651761E+04  3.027009E+02 -2.351966E+03  2.869358E+04 -3.779762E+03 -1.085970E+02
       507  23  6.713798E+04  2.635503E+02 -5.463181E+03  1.562363E+04 -6.549146E+03 -2.499428E+03
       507  24  6.651632E+04 -3.253051E+03 -1.124967E+04  2.869445E+04 -9.318756E+03 -4.572602E+03
       507  25  7.531417E+04  2.491972E+03 -2.032957E+02  2.924258E+04 -5.615305E+03 -1.091338E+02
       507  26  1.258286E+05  1.470025E+04  8.037079E+03  1.536840E+04 -8.156298E+03 -2.499818E+03
       507  27  1.751426E+05  2.347066E+04  1.376084E+04  2.763476E+04 -1.069772E+04 -4.572859E+03
       508   1 -9.271553E+04 -3.609559E+04 -5.010749E+04  2.219693E+04  7.924266E+03  6.804603E+03
       508   2 -1.355777E+05 -4.775616E+04 -7.147100E+04  2.137942E+04  2.553901E+04  8.223656E+03
       508   3 -1.927074E+05 -1.073848E+05 -1.162929E+05  4.646959E+04  4.315288E+04  2.844387E+03
       508   4  6.380794E+04  2.401491E+03 -1.416374E+04  2.864123E+04  1.139281E+04  6.805286E+03
       508   5  7.051344E+04  2.996686E+03 -2.379903E+04  1.568869E+04  2.411706E+04  8.223075E+03
       508   6  6.380440E+04 -4.351837E+04 -5.349098E+04  2.864425E+04  3.684187E+04  2.842857E+03
       508   7  2.203542E+05  4.089703E+04  2.177847E+04  3.508717E+04  1.486222E+04  6.806040E+03
       508   8  2.766439E+05  5.374668E+04  2.387012E+04  9.996050E+03  2.269463E+04  8.222521E+03
       508   9  3.203769E+05  2.034439E+04  9.306485E+03  1.081154E+04  3.052826E+04  2.841690E+03
       508  10 -9.271561E+04 -3.609566E+04 -5.010769E+04  2.219689E+04  1.677449E-10  3.039203E-10
       508  11 -1.355784E+05 -4.775641E+04 -7.147235E+04  2.137925E+04 -2.621707E-10  3.426197E-11
       508  12 -1.927094E+05 -1.073853E+05 -1.162965E+05  4.646949E+04 -3.008052E-10 -1.350610E-11
       508  13  6.380779E+04  2.401406E+03 -1.416407E+04  2.864117E+04  4.392773E-10  2.049776E-10
       508  14  7.051279E+04  2.996457E+03 -2.380025E+04  1.568853E+04 -1.306345E-10  8.065406E-11
       508  15  6.380294E+04 -4.351874E+04 -5.349355E+04  2.864417E+04 -1.430212E-10 -9.355686E-11
       508  16  2.203540E+05  4.089692E+04  2.177797E+04  3.508709E+04 -8.143082E-11 -2.224813E-11
       508  17  2.766433E+05  5.374646E+04  2.386903E+04  9.995900E+03  4.060667E-10 -3.093809E-11
       508  18  3.203759E+05  2.034413E+04  9.304720E+03  1.081147E+04  4.407612E-11 -2.553660E-11
       508  19 -9.271553E+04 -3.609559E+04 -5.010749E+04  2.219693E+04 -7.924266E+03 -6.804603E+03
       508  20 -1.355777E+05 -4.775616E+04 -7.147100E+04  2.137942E+04 -2.553901E+04 -8.223656E+03
       508  21 -1.927074E+05 -1.073848E+05 -1.162929E+05  4.646959E+04 -4.315288E+04 -2.844387E+03
       508  22  6.380794E+04  2.401491E+03 -1.416374E+04  2.864123E+04 -1.139281E+04 -6.805286E+03
       508  23  7.051344E+04  2.996686E+03 -2.379903E+04  1.568869E+04 -2.411706E+04 -8.223075E+03
       508  24  6.380440E+04 -4.351837E+04 -5.349098E+04  2.864425E+04 -3.684187E+04 -2.842857E+03
       508  25  2.203542E+05  4.089703E+04  2.177847E+04  3.508717E+04 -1.486222E+04 -6.806040E+03
       508  26  2.766439E+05  5.374668E+04  2.387012E+04  9.996050E+03 -2.269463E+04 -8.222521E+03
       508  27  3.203769E+05  2.034439E+04  9.306485E+03  1.081154E+04 -3.052826E+04 -2.841690E+03
       509   1  1.132111E+06  1.587053E+05  1.777998E+05  6.572975E+04  8.152123E+04 -3.160913E+03
       509   2  1.066610E+06  5.090795E+04  1.020246E+05  2.783062E+04  5.021822E+04 -9.238097E+03
       509   3  1.029304E+06  3.955965E+04  7.071917E+04  1.654921E+04  1.891747E+04 -7.863683E+03
       509   4  8.485305E+05  8.818373E+04  1.084703E+05  2.952347E+04  7.443659E+04 -3.166024E+03
       509   5  8.349169E+05 -6.090516E+03  4.849752E+04  1.621922E+04  4.851554E+04 -9.239484E+03
       509   6  8.485742E+05 -4.830618E+03  2.927447E+04  2.953061E+04  2.259392E+04 -7.862588E+03
       509   7  5.650261E+05  1.766121E+04  3.913581E+04 -6.666258E+03  6.735516E+04 -3.170313E+03
       509   8  6.032735E+05 -6.309223E+04 -5.033110E+03  4.612177E+03  4.681348E+04 -9.240807E+03
       509   9  6.678751E+05 -4.922251E+04 -1.217224E+04  4.250821E+04  2.626930E+04 -7.861339E+03
       509  10  1.132104E+06  1.587035E+05  1.777873E+05  6.572996E+04  8.128277E-11  6.953184E-12
       509  11  1.066607E+06  5.090718E+04  1.020198E+05  2.783100E+04 -3.087978E-10 -2.161124E-10
       509  12  1.029304E+06  3.955948E+04  7.071838E+04  1.654933E+04 -2.180250E-10 -5.707648E-12
       509  13  8.485245E+05  8.818224E+04  1.084599E+05  2.952366E+04 -1.473023E-10  7.758831E-11
       509  14  8.349143E+05 -6.091239E+03  4.849294E+04  1.621958E+04 -6.181350E-10 -1.190644E-10
       509  15  8.485737E+05 -4.830821E+03  2.927339E+04  2.953076E+04  2.465010E-10 -7.499466E-11
       509  16  5.650213E+05  1.765998E+04  3.912727E+04 -6.666086E+03  8.727022E-11  7.737042E-11
       509  17  6.032711E+05 -6.309291E+04 -5.037385E+03  4.612525E+03  3.707619E-11  2.560580E-10
       509  18  6.678744E+05 -4.922277E+04 -1.217365E+04  4.250838E+04  7.238576E-11 -2.654174E-10
       509  19  1.132111E+06  1.587053E+05  1.777998E+05  6.572975E+04 -8.152123E+04  3.160913E+03
       509  20  1.066610E+06  5.090795E+04  1.020246E+05  2.783062E+04 -5.021822E+04  9.238097E+03
       509  21  1.029304E+06  3.955965E+04  7.071917E+04  1.654921E+04 -1.891747E+04  7.863683E+03
       509  22  8.485305E+05  8.818373E+04  1.084703E+05  2.952347E+04 -7.443659E+04  3.166024E+03
       509  23  8.349169E+05 -6.090516E+03  4.849752E+04  1.621922E+04 -4.851554E+04  9.239484E+03
       509  24  8.485742E+05 -4.830618E+03  2.927447E+04  2.953061E+04 -2.259392E+04  7.862588E+03
       509  25  5.650261E+05  1.766121E+04  3.913581E+04 -6.666258E+03 -6.735516E+04  3.170313E+03
       509  26  6.032735E+05 -6.309223E+04 -5.033110E+03  4.612177E+03 -4.681348E+04  9.240807E+03
       509  27  6.678751E+05 -4.922251E+04 -1.217224E+04  4.250821E+04 -2.626930E+04  7.861339E+03
       510   1  9.747483E+05  3.896828E+04  5.385271E+04  3.181021E+04  1.688687E+04 -5.519662E+03
       510   2  9.223714E+05  1.926761E+04  3.094833E+04  1.676643E+04  1.034227E+04 -3.431859E+03
       510   3  8.726751E+05  6.931744E+03  1.413755E+04  2.843419E+04  3.797954E+03 -9.951775E+02
       510   4  8.430957E+05  6.605136E+03  2.356276E+04  2.954836E+04  1.826521E+04 -5.519429E+03
       510   5  8.417820E+05 -5.382542E+02  1.243108E+04  1.619354E+04  1.197330E+04 -3.431418E+03
       510   6  8.431030E+05 -3.598957E+02  7.218882E+03  2.955032E+04  5.681146E+03 -9.945343E+02
       510   7  7.114590E+05 -2.575920E+04 -6.728335E+03  2.728700E+04  1.964326E+04 -5.519206E+03
       510   8  7.611986E+05 -2.034457E+04 -6.086597E+03  1.562073E+04  1.360412E+04 -3.430980E+03
       510   9  8.135316E+05 -7.651591E+03  3.001645E+02  3.066639E+04  7.564248E+03 -9.938842E+02
       510  10  9.747480E+05  3.896817E+04  5.385212E+04  3.181029E+04 -6.314854E-11 -1.948222E-10
       510  11  9.223713E+05  1.926757E+04  3.094811E+04  1.676646E+04  3.758401E-10 -6.708909E-11
       510  12  8.726751E+05  6.931740E+03  1.413752E+04  2.843419E+04 -2.362265E-10 -2.824001E-10
       510  13  8.430953E+05  6.605013E+03  2.356207E+04  2.954844E+04  1.094464E-10 -1.019728E-10
       510  14  8.417818E+05 -5.383053E+02  1.243078E+04  1.619358E+04  1.340071E-10 -3.229919E-10
       510  15  8.431029E+05 -3.599054E+02  7.218819E+03  2.955032E+04 -3.602309E-10 -5.712609E-10
       510  16  7.114586E+05 -2.575933E+04 -6.729117E+03  2.728708E+04  7.793852E-11  3.058482E-12
       510  17  7.611984E+05 -2.034463E+04 -6.086967E+03  1.562077E+04 -3.380510E-10 -5.819028E-10
       510  18  8.135315E+05 -7.651608E+03  3.000553E+02  3.066640E+04  1.822484E-10 -2.658408E-11
       510  19  9.747483E+05  3.896828E+04  5.385271E+04  3.181021E+04 -1.688687E+04  5.519662E+03
       510  20  9.223714E+05  1.926761E+04  3.094833E+04  1.676643E+04 -1.034227E+04  3.431859E+03
       510  21  8.726751E+05  6.931744E+03  1.413755E+04  2.843419E+04 -3.797954E+03  9.951775E+02
       510  22  8.430957E+05  6.605136E+03  2.356276E+04  2.954836E+04 -1.826521E+04  5.519429E+03
       510  23  8.417820E+05 -5.382542E+02  1.243108E+04  1.619354E+04 -1.197330E+04  3.431418E+03
       510  24  8.431030E+05 -3.598957E+02  7.218882E+03  2.955032E+04 -5.681146E+03  9.945343E+02
       510  25  7.114590E+05 -2.575920E+04 -6.728335E+03  2.728700E+04 -1.964326E+04  5.519206E+03
       510  26  7.611986E+05 -2.034457E+04 -6.086597E+03  1.562073E+04 -1.360412E+04  3.430980E+03
       510  27  8.135316E+05 -7.651591E+03  3.001645E+02  3.066639E+04 -7.564248E+03  9.938842E+02
       511   1  8.233500E+05 -4.267242E+03  1.004997E+03  2.957781E+04  2.676988E+03  5.525887E+02
       511   2  7.721861E+05 -1.731574E+04 -1.310330E+04  1.614075E+04  1.405844E+03  2.991555E+03
       511   3  7.213013E+05 -2.985704E+04 -2.626206E+04  2.941161E+04  1.351296E+02  5.094608E+03
       511   4  8.425882E+05  4.861081E+02  5.551500E+03  2.954882E+04  4.556298E+03  5.532281E+02
       511   5  8.424280E+05 -5.138906E+01  3.039339E+03  1.619505E+04  3.043008E+03  2.992024E+03
       511   6  8.425873E+05 -3.930373E+01  1.645121E+03  2.954900E+04  1.530044E+03  5.094932E+03
       511   7  8.618268E+05  5.239433E+03  1.009799E+04  2.951982E+04  6.435665E+03  5.538673E+02
       511   8  9.126745E+05  1.721262E+04  1.918166E+04  1.624935E+04  4.680356E+03  2.992493E+03
       511   9  9.638870E+05  2.977741E+04  2.955134E+04  2.968642E+04  2.925227E+03  5.095257E+03
       511  10  8.233500E+05 -4.267244E+03  1.004982E+03  2.957781E+04  4.185018E-10  2.173424E-10
       511  11  7.721861E+05 -1.731575E+04 -1.310332E+04  1.614075E+04 -1.682209E-10  1.556716E-10
       511  12  7.213013E+05 -2.985707E+04 -2.626211E+04  2.941161E+04 -3.371318E-10 -3.377064E-11
       511  13  8.425882E+05  4.861022E+02  5.551461E+03  2.954882E+04  9.260027E-11 -3.856773E-11
       511  14  8.424280E+05 -5.140116E+01  3.039304E+03  1.619504E+04  2.830116E-10  4.316596E-11
       511  15  8.425873E+05 -3.933224E+01  1.645068E+03  2.954899E+04 -6.555060E-11  3.299861E-10
       511  16  8.618267E+05  5.239422E+03  1.009791E+04  2.951982E+04 -7.030981E-11 -1.364168E-10
       511  17  9.126745E+05  1.721261E+04  1.918160E+04  1.624934E+04 -8.238603E-11 -3.595505E-11
       511  18  9.638869E+05  2.977738E+04  2.955127E+04  2.968641E+04 -4.962581E-11  3.650600E-11
       511  19  8.233500E+05 -4.267242E+03  1.004997E+03  2.957781E+04 -2.676988E+03 -5.525887E+02
       511  20  7.721861E+05 -1.731574E+04 -1.310330E+04  1.614075E+04 -1.405844E+03 -2.991555E+03
       511  21  7.213013E+05 -2.985704E+04 -2.626206E+04  2.941161E+04 -1.351296E+02 -5.094608E+03
       511  22  8.425882E+05  4.861081E+02  5.551500E+03  2.954882E+04 -4.556298E+03 -5.532281E+02
       511  23  8.424280E+05 -5.138906E+01  3.039339E+03  1.619505E+04 -3.043008E+03 -2.992024E+03
       511  24  8.425873E+05 -3.930373E+01  1.645121E+03  2.954900E+04 -1.530044E+03 -5.094932E+03
       511  25  8.618268E+05  5.239433E+03  1.009799E+04  2.951982E+04 -6.435665E+03 -5.538673E+02
       511  26  9.126745E+05  1.721262E+04  1.918166E+04  1.624935E+04 -4.680356E+03 -2.992493E+03
       511  27  9.638870E+05  2.977741E+04  2.955134E+04  2.968642E+04 -2.925227E+03 -5.095257E+03
       512   1  6.721864E+05 -4.179963E+04 -3.790023E+04  2.942347E+04 -2.341372E+03  7.407988E+03
       512   2  6.212594E+05 -5.443723E+04 -5.069998E+04  1.620675E+04  2.640689E+03  8.824801E+03
       512   3  5.694235E+05 -6.820992E+04 -6.702072E+04  2.959767E+04  7.622887E+03  3.037561E+03
       512   4  8.425104E+05  5.127077E+01  1.172385E+03  2.952657E+04  1.274416E+03  7.408736E+03
       512   5  8.425131E+05  4.389867E+00  4.324610E+02  1.622306E+04  1.065855E+03  8.824360E+03
       512   6  8.425048E+05 -2.768275E+02 -2.266289E+02  2.952661E+04  8.578539E+02  3.037069E+03
       512   7  1.012861E+06  4.190016E+04  4.024314E+04  2.962970E+04  4.891187E+03  7.409485E+03
       512   8  1.063812E+06  5.444258E+04  5.156164E+04  1.623937E+04 -5.095359E+02  8.823919E+03
       512   9  1.115654E+06  6.765078E+04  6.656219E+04  2.945552E+04 -5.910147E+03  3.036579E+03
       512  10  6.721863E+05 -4.179969E+04 -3.790034E+04  2.942348E+04 -7.643403E-11 -4.752876E-11
       512  11  6.212594E+05 -5.443732E+04 -5.070014E+04  1.620674E+04 -2.691102E-10 -2.006984E-10
       512  12  5.694234E+05 -6.820995E+04 -6.702085E+04  2.959765E+04 -3.186332E-10 -2.547682E-11
       512  13  8.425103E+05  5.121137E+01  1.172279E+03  2.952656E+04 -5.191498E-11 -1.688188E-10
       512  14  8.425131E+05  4.305912E+00  4.323125E+02  1.622305E+04  4.358188E-10 -5.828352E-11
       512  15  8.425048E+05 -2.768376E+02 -2.266476E+02  2.952661E+04  6.763566E-11 -2.223505E-11
       512  16  1.012861E+06  4.190009E+04  4.024299E+04  2.962967E+04  4.265100E-10  4.660857E-10
       512  17  1.063812E+06  5.444250E+04  5.156150E+04  1.623937E+04  3.014525E-10  1.162525E-12
       512  18  1.115654E+06  6.765076E+04  6.656211E+04  2.945554E+04  2.880155E-10  3.627627E-11
       512  19  6.721864E+05 -4.179963E+04 -3.790023E+04  2.942347E+04  2.341372E+03 -7.407988E+03
       512  20  6.212594E+05 -5.443723E+04 -5.069998E+04  1.620675E+04 -2.640689E+03 -8.824801E+03
       512  21  5.694235E+05 -6.820992E+04 -6.702072E+04  2.959767E+04 -7.622887E+03 -3.037561E+03
       512  22  8.425104E+05  5.127077E+01  1.172385E+03  2.952657E+04 -1.274416E+03 -7.408736E+03
       512  23  8.425131E+05  4.389867E+00  4.324610E+02  1.622306E+04 -1.065855E+03 -8.824360E+03
       512  24  8.425048E+05 -2.768275E+02 -2.266289E+02  2.952661E+04 -8.578539E+02 -3.037069E+03
       512  25  1.012861E+06  4.190016E+04  4.024314E+04  2.962970E+04 -4.891187E+03 -7.409485E+03
       512  26  1.063812E+06  5.444258E+04  5.156164E+04  1.623937E+04  5.095359E+02 -8.823919E+03
       512  27  1.115654E+06  6.765078E+04  6.656219E+04  2.945552E+04  5.910147E+03 -3.036579E+03
       513   1  2.611744E+06  3.484047E+05  3.894113E+05  1.638412E+05  1.725912E+05 -6.868530E+03
       513   2  2.431922E+06  1.084516E+05  2.193486E+05  7.252855E+04  1.038634E+05 -1.950691E+04
       513   3  2.312580E+06  7.459851E+04  1.454316E+05  5.880823E+04  3.514922E+04 -1.486307E+04
       513   4  1.966726E+06  1.881818E+05  2.318201E+05  8.630415E+04  1.571483E+05 -6.893485E+03
       513   5  1.937663E+06 -1.300149E+04  1.052522E+05  4.753987E+04  1.009503E+05 -1.951321E+04
       513   6  1.966949E+06 -1.016808E+04  6.621783E+04  8.635532E+04  4.474814E+04 -1.485621E+04
       513   7  1.322098E+06  2.795093E+04  7.420266E+04  8.847500E+03  1.417212E+05 -6.914618E+03
       513   8  1.443631E+06 -1.344693E+05 -8.860066E+03  2.257113E+04  9.803939E+04 -1.951927E+04
       513   9  1.621430E+06 -9.494007E+04 -1.300298E+04  1.138870E+05  5.434177E+04 -1.484849E+04
       513  10  2.611712E+06  3.483967E+05  3.893554E+05  1.638421E+05  1.038430E-10 -4.253526E-11
       513  11  2.431911E+06  1.084483E+05  2.193277E+05  7.253018E+04  4.448722E-10 -5.878380E-11
       513  12  2.312578E+06  7.459795E+04  1.454288E+05  5.880865E+04 -6.103656E-11  3.656475E-10
       513  13  1.966699E+06  1.881752E+05  2.317737E+05  8.630502E+04 -9.965595E-10 -3.341619E-10
       513  14  1.937652E+06 -1.300463E+04  1.052324E+05  4.754145E+04 -6.914320E-10 -4.757595E-10
       513  15  1.966947E+06 -1.016886E+04  6.621366E+04  8.635585E+04  8.745998E-10  9.344335E-10
       513  16  1.322076E+06  2.794550E+04  7.416490E+04  8.848289E+03 -1.041818E-10  2.800728E-12
       513  17  1.443620E+06 -1.344723E+05 -8.878802E+03  2.257267E+04 -6.228510E-10 -1.152867E-10
       513  18  1.621427E+06 -9.494109E+04 -1.300893E+04  1.138876E+05  2.457611E-10  2.803294E-10
       513  19  2.611744E+06  3.484047E+05  3.894113E+05  1.638412E+05 -1.725912E+05  6.868530E+03
       513  20  2.431922E+06  1.084516E+05  2.193486E+05  7.252855E+04 -1.038634E+05  1.950691E+04
       513  21  2.312580E+06  7.459851E+04  1.454316E+05  5.880823E+04 -3.514922E+04  1.486307E+04
       513  22  1.966726E+06  1.881818E+05  2.318201E+05  8.630415E+04 -1.571483E+05  6.893485E+03
       513  23  1.937663E+06 -1.300149E+04  1.052522E+05  4.753987E+04 -1.009503E+05  1.951321E+04
       513  24  1.966949E+06 -1.016808E+04  6.621783E+04  8.635532E+04 -4.474814E+04  1.485621E+04
       513  25  1.322098E+06  2.795093E+04  7.420266E+04  8.847500E+03 -1.417212E+05  6.914618E+03
       513  26  1.443631E+06 -1.344693E+05 -8.860066E+03  2.257113E+04 -9.803939E+04  1.951927E+04
       513  27  1.621430E+06 -9.494007E+04 -1.300298E+04  1.138870E+05 -5.434177E+04  1.484849E+04
       514   1  2.158676E+06  6.396834E+04  1.020306E+05  9.154406E+04  3.044219E+04 -8.569970E+03
       514   2  2.007121E+06  1.221541E+04  4.823294E+04  4.889699E+04  1.191836E+04 -2.277552E+03
       514   3  1.862226E+06 -2.214689E+04  1.078475E+04  8.377971E+04 -6.602268E+03  4.806468E+03
       514   4  1.955419E+06  1.406793E+04  5.536031E+04  8.632285E+04  3.470226E+04 -8.567520E+03
       514   5  1.952158E+06 -1.283045E+03  3.559382E+04  4.756246E+04  1.675399E+04 -2.274345E+03
       514   6  1.955442E+06  6.610243E+02  3.178438E+04  8.633142E+04 -1.195374E+03  4.810313E+03
       514   7  1.752200E+06 -3.583524E+04  8.687342E+03  8.110335E+04  3.896094E+04 -8.565141E+03
       514   8  1.897197E+06 -1.478169E+04  2.295458E+04  4.622805E+04  2.158920E+04 -2.271158E+03
       514   9  2.048666E+06  2.346839E+04  5.278357E+04  8.888352E+04  4.212321E+03  4.814202E+03
       514  10  2.158675E+06  6.396801E+04  1.020288E+05  9.154427E+04 -5.268102E-10 -9.139248E-11
       514  11  2.007121E+06  1.221536E+04  4.823267E+04  4.889701E+04  5.929724E-10  8.983169E-11
       514  12  1.862226E+06 -2.214693E+04  1.078463E+04  8.377974E+04  2.344568E-10 -9.288086E-12
       514  13  1.955418E+06  1.406753E+04  5.535791E+04  8.632309E+04  7.362461E-10  6.840327E-10
       514  14  1.952157E+06 -1.283126E+03  3.559328E+04  4.756249E+04  6.592370E-10  9.241354E-10
       514  15  1.955442E+06  6.609990E+02  3.178434E+04  8.633143E+04 -3.690377E-10 -4.982499E-10
       514  16  1.752198E+06 -3.583573E+04  8.684359E+03  8.110362E+04 -7.803257E-10 -3.755328E-10
       514  17  1.897197E+06 -1.478182E+04  2.295370E+04  4.622808E+04  4.547290E-10  9.276989E-10
       514  18  2.048666E+06  2.346836E+04  5.278349E+04  8.888351E+04  2.586507E-12  3.874709E-11
       514  19  2.158676E+06  6.396834E+04  1.020306E+05  9.154406E+04 -3.044219E+04  8.569970E+03
       514  20  2.007121E+06  1.221541E+04  4.823294E+04  4.889699E+04 -1.191836E+04  2.277552E+03
       514  21  1.862226E+06 -2.214689E+04  1.078475E+04  8.377971E+04  6.602268E+03 -4.806468E+03
       514  22  1.955419E+06  1.406793E+04  5.536031E+04  8.632285E+04 -3.470226E+04  8.567520E+03
       514  23  1.952158E+06 -1.283045E+03  3.559382E+04  4.756246E+04 -1.675399E+04  2.274345E+03
       514  24  1.955442E+06  6.610243E+02  3.178438E+04  8.633142E+04  1.195374E+03 -4.810313E+03
       514  25  1.752200E+06 -3.583524E+04  8.687342E+03  8.110335E+04 -3.896094E+04  8.565141E+03
       514  26  1.897197E+06 -1.478169E+04  2.295458E+04  4.622805E+04 -2.158920E+04  2.271158E+03
       514  27  2.048666E+06  2.346839E+04  5.278357E+04  8.888352E+04 -4.212321E+03 -4.814202E+03
       515   1  1.720823E+06 -5.776583E+04 -2.116775E+04  8.966544E+04 -1.245555E+04  9.300896E+03
       515   2  1.567674E+06 -9.597170E+04 -4.510891E+04  4.561575E+04 -3.330756E+04  1.637528E+04
       515   3  1.422883E+06 -1.116987E+05 -4.987986E+04  7.948679E+04 -5.415048E+04  2.226498E+04
       515   4  1.955861E+06 -3.977026E+00  3.310650E+04  8.641754E+04 -6.917589E+03  9.304518E+03
       515   5  1.951591E+06 -1.712964E+03  4.299873E+04  4.745525E+04 -2.863650E+04  1.637680E+04
       515   6  1.955801E+06  1.919947E+04  7.265286E+04  8.640947E+04 -5.035122E+04  2.226445E+04
       515   7  2.190950E+06  5.775407E+04  8.737721E+04  8.316839E+04 -1.377550E+03  9.308082E+03
       515   8  2.335645E+06  9.253555E+04  1.310968E+05  4.929588E+04 -2.396258E+04  1.637834E+04
       515   9  2.488982E+06  1.500780E+05  1.951669E+05  9.333809E+04 -4.654871E+04  2.226401E+04
       515  10  1.720823E+06 -5.776596E+04 -2.116821E+04  8.966553E+04  8.396064E-10  6.994305E-10
       515  11  1.567672E+06 -9.597229E+04 -4.511149E+04  4.561619E+04 -3.684407E-10 -2.756446E-10
       515  12  1.422880E+06 -1.117000E+05 -4.988629E+04  7.948776E+04 -7.318392E-10 -3.469481E-10
       515  13  1.955861E+06 -4.082885E+00  3.310625E+04  8.641759E+04  1.348482E-10 -2.725602E-10
       515  14  1.951590E+06 -1.713471E+03  4.299669E+04  4.745563E+04  1.202180E-10 -2.316347E-10
       515  15  1.955798E+06  1.919826E+04  7.264717E+04  8.641037E+04 -1.253257E-10 -4.197204E-10
       515  16  2.190950E+06  5.775397E+04  8.737704E+04  8.316840E+04 -4.387972E-10 -6.186721E-10
       515  17  2.335645E+06  9.253511E+04  1.310952E+05  4.929619E+04  4.437395E-10 -4.805315E-10
       515  18  2.488979E+06  1.500769E+05  1.951619E+05  9.333892E+04  1.008520E-09 -2.392257E-10
       515  19  1.720823E+06 -5.776583E+04 -2.116775E+04  8.966544E+04  1.245555E+04 -9.300896E+03
       515  20  1.567674E+06 -9.597170E+04 -4.510891E+04  4.561575E+04  3.330756E+04 -1.637528E+04
       515  21  1.422883E+06 -1.116987E+05 -4.987986E+04  7.948679E+04  5.415048E+04 -2.226498E+04
       515  22  1.955861E+06 -3.977026E+00  3.310650E+04  8.641754E+04  6.917589E+03 -9.304518E+03
       515  23  1.951591E+06 -1.712964E+03  4.299873E+04  4.745525E+04  2.863650E+04 -1.637680E+04
       515  24  1.955801E+06  1.919947E+04  7.265286E+04  8.640947E+04  5.035122E+04 -2.226445E+04
       515  25  2.190950E+06  5.775407E+04  8.737721E+04  8.316839E+04  1.377550E+03 -9.308082E+03
       515  26  2.335645E+06  9.253555E+04  1.310968E+05  4.929588E+04  2.396258E+04 -1.637834E+04
       515  27  2.488982E+06  1.500780E+05  1.951669E+05  9.333809E+04  4.654871E+04 -2.226401E+04
       516   1  1.295041E+06 -1.802141E+05 -6.659985E+04  1.244624E+05 -7.527907E+04  2.955049E+04
       516   2  1.104366E+06 -2.212703E+05 -4.776052E+04  1.341605E+04 -1.333582E+05  3.310833E+04
       516   3  9.908662E+05  1.427919E+04  7.811532E+04 -1.898141E+04 -1.914294E+05  1.128351E+04
       516   4  1.971750E+06 -1.413056E+04  8.840228E+04  8.655167E+04 -6.361458E+04  2.955538E+04
       516   5  1.931488E+06 -1.794740E+04  1.431578E+05  4.728114E+04 -1.400904E+05  3.309911E+04
       516   6  1.971433E+06  2.578078E+05  3.175886E+05  8.664058E+04 -2.165745E+05  1.126178E+04
       516   7  2.648885E+06  1.519266E+05  2.433756E+05  4.859934E+04 -5.193748E+04  2.955884E+04
       516   8  2.759244E+06  1.853320E+05  3.340315E+05  8.119162E+04 -1.468313E+05  3.308917E+04
       516   9  2.952900E+06  5.013078E+05  5.570004E+05  1.924295E+05 -2.417590E+05  1.123156E+04
       516  10  1.295034E+06 -1.802165E+05 -6.661212E+04  1.244642E+05 -9.203458E-12 -5.127271E-10
       516  11  1.104346E+06 -2.212762E+05 -4.779594E+04  1.341961E+04 -1.439341E-11 -6.260924E-10
       516  12  9.908269E+05  1.426924E+04  7.804633E+04 -1.897967E+04 -2.008303E-10 -5.055259E-10
       516  13  1.971745E+06 -1.413258E+04  8.839306E+04  8.655318E+04 -1.343774E-09 -7.535378E-10
       516  14  1.931467E+06 -1.795383E+04  1.431190E+05  4.728488E+04  1.403499E-10 -7.555512E-10
       516  15  1.971383E+06  2.577951E+05  3.175005E+05  8.664255E+04 -2.321609E-10 -1.977617E-11
       516  16  2.648882E+06  1.519250E+05  2.433690E+05  4.860058E+04 -2.726755E-10 -5.678484E-10
       516  17  2.759221E+06  1.853251E+05  3.339891E+05  8.119553E+04 -5.702515E-10 -5.413993E-10
       516  18  2.952837E+06  5.012921E+05  5.568908E+05  1.924317E+05  1.169562E-09 -5.945426E-10
       516  19  1.295041E+06 -1.802141E+05 -6.659985E+04  1.244624E+05  7.527907E+04 -2.955049E+04
       516  20  1.104366E+06 -2.212703E+05 -4.776052E+04  1.341605E+04  1.333582E+05 -3.310833E+04
       516  21  9.908662E+05  1.427919E+04  7.811532E+04 -1.898141E+04  1.914294E+05 -1.128351E+04
       516  22  1.971750E+06 -1.413056E+04  8.840228E+04  8.655167E+04  6.361458E+04 -2.955538E+04
       516  23  1.931488E+06 -1.794740E+04  1.431578E+05  4.728114E+04  1.400904E+05 -3.309911E+04
       516  24  1.971433E+06  2.578078E+05  3.175886E+05  8.664058E+04  2.165745E+05 -1.126178E+04
       516  25  2.648885E+06  1.519266E+05  2.433756E+05  4.859934E+04  5.193748E+04 -2.955884E+04
       516  26  2.759244E+06  1.853320E+05  3.340315E+05  8.119162E+04  1.468313E+05 -3.308917E+04
       516  27  2.952900E+06  5.013078E+05  5.570004E+05  1.924295E+05  2.417590E+05 -1.123156E+04
       517   1 -2.598524E+06 -4.795751E+05 -6.127933E+05 -2.095810E+05 -4.694105E+05 -3.848719E+03
       517   2 -2.550504E+06  1.200867E+05 -2.400665E+05 -6.075358E+04 -3.075783E+05 -1.297089E+04
       517   3 -2.678148E+06  1.016670E+05 -1.274168E+05  1.085578E+05 -1.457566E+05 -1.255673E+04
       517   4 -2.964748E+06 -5.715055E+05 -7.026915E+05  2.432963E+04 -4.789867E+05 -4.019995E+03
       517   5 -2.875844E+06  3.963302E+04 -3.155033E+05  1.427424E+04 -3.104597E+05 -1.300710E+04
       517   6 -2.963928E+06  3.124918E+04 -1.931746E+05  2.468375E+04 -1.419303E+05 -1.253881E+04
       517   7 -3.330732E+06 -6.632395E+05 -7.925699E+05  2.581014E+05 -4.885572E+05 -4.198607E+03
       517   8 -3.201073E+06 -4.080692E+04 -3.909442E+05  8.926232E+04 -3.133396E+05 -1.304402E+04
       517   9 -3.249617E+06 -3.914780E+04 -2.589340E+05 -5.915124E+04 -1.381057E+05 -1.252192E+04
       517  10 -2.598761E+06 -4.796345E+05 -6.132091E+05 -2.095825E+05 -4.419775E-10  1.043948E-09
       517  11 -2.550606E+06  1.200610E+05 -2.402453E+05 -6.075680E+04 -5.393239E-10  4.242936E-10
       517  12 -2.678171E+06  1.016611E+05 -1.274572E+05  1.085563E+05  2.591924E-09  4.401715E-10
       517  13 -2.964995E+06 -5.715675E+05 -7.031248E+05  2.432808E+04 -1.038328E-09 -1.880053E-10
       517  14 -2.875948E+06  3.960680E+04 -3.156856E+05  1.427099E+04 -6.531383E-10  7.207273E-10
       517  15 -2.963950E+06  3.124357E+04 -1.932130E+05  2.468231E+04  1.255831E-09  2.349879E-10
       517  16 -3.330989E+06 -6.633041E+05 -7.930208E+05  2.580998E+05  2.173056E-10  1.082912E-11
       517  17 -3.201179E+06 -4.083364E+04 -3.911300E+05  8.925903E+04 -1.907455E-09  3.980045E-10
       517  18 -3.249638E+06 -3.915313E+04 -2.589704E+05 -5.915263E+04 -3.625523E-09 -1.511217E-09
       517  19 -2.598524E+06 -4.795751E+05 -6.127933E+05 -2.095810E+05  4.694105E+05  3.848719E+03
       517  20 -2.550504E+06  1.200867E+05 -2.400665E+05 -6.075358E+04  3.075783E+05  1.297089E+04
       517  21 -2.678148E+06  1.016670E+05 -1.274168E+05  1.085578E+05  1.457566E+05  1.255673E+04
       517  22 -2.964748E+06 -5.715055E+05 -7.026915E+05  2.432963E+04  4.789867E+05  4.019995E+03
       517  23 -2.875844E+06  3.963302E+04 -3.155033E+05  1.427424E+04  3.104597E+05  1.300710E+04
       517  24 -2.963928E+06  3.124918E+04 -1.931746E+05  2.468375E+04  1.419303E+05  1.253881E+04
       517  25 -3.330732E+06 -6.632395E+05 -7.925699E+05  2.581014E+05  4.885572E+05  4.198607E+03
       517  26 -3.201073E+06 -4.080692E+04 -3.909442E+05  8.926232E+04  3.133396E+05  1.304402E+04
       517  27 -3.249617E+06 -3.914780E+04 -2.589340E+05 -5.915124E+04  1.381057E+05  1.252192E+04
       518   1 -2.682962E+06  1.795005E+04 -1.008042E+05  1.002478E+04 -1.141851E+05 -1.025942E+04
       518   2 -2.715938E+06  5.400507E+04 -4.274130E+04  1.013719E+04 -6.923400E+04 -8.744738E+03
       518   3 -2.767047E+06  4.090811E+04 -2.630673E+04  3.232021E+04 -2.428469E+04 -6.741547E+03
       518   4 -2.928809E+06 -4.275210E+04 -1.576384E+05  2.493590E+04 -1.132318E+05 -1.026275E+04
       518   5 -2.919655E+06  3.734794E+03 -8.972668E+04  1.390587E+04 -6.794765E+04 -8.745664E+03
       518   6 -2.928703E+06  1.000790E+03 -6.368818E+04  2.494780E+04 -2.266220E+04 -6.741612E+03
       518   7 -3.174600E+06 -1.034577E+05 -2.144765E+05  3.984106E+04 -1.122790E+05 -1.026604E+04
       518   8 -3.123333E+06 -4.653835E+04 -1.367148E+05  1.767329E+04 -6.666170E+04 -8.746576E+03
       518   9 -3.090333E+06 -3.890817E+04 -1.010713E+05  1.757734E+04 -2.104012E+04 -6.741715E+03
       518  10 -2.682976E+06  1.794641E+04 -1.008290E+05  1.002383E+04  5.301280E-10 -1.603684E-10
       518  11 -2.715943E+06  5.400369E+04 -4.275049E+04  1.013670E+04 -4.907075E-10 -6.312599E-10
       518  12 -2.767048E+06  4.090791E+04 -2.630793E+04  3.232008E+04  1.544765E-10  5.540400E-10
       518  13 -2.928823E+06 -4.275567E+04 -1.576628E+05  2.493497E+04 -9.155318E-10 -1.079178E-09
       518  14 -2.919660E+06  3.733465E+03 -8.973554E+04  1.390539E+04 -1.426533E-09 -2.456835E-10
       518  15 -2.928703E+06  1.000603E+03 -6.368923E+04  2.494768E+04  9.910436E-10  5.716749E-10
       518  16 -3.174614E+06 -1.034612E+05 -2.145005E+05  3.984013E+04  1.131385E-10 -9.446987E-10
       518  17 -3.123338E+06 -4.653963E+04 -1.367234E+05  1.767282E+04 -9.242865E-10  2.827169E-10
       518  18 -3.090334E+06 -3.890834E+04 -1.010722E+05  1.757723E+04  3.914775E-10  5.683106E-11
       518  19 -2.682962E+06  1.795005E+04 -1.008042E+05  1.002478E+04  1.141851E+05  1.025942E+04
       518  20 -2.715938E+06  5.400507E+04 -4.274130E+04  1.013719E+04  6.923400E+04  8.744738E+03
       518  21 -2.767047E+06  4.090811E+04 -2.630673E+04  3.232021E+04  2.428469E+04  6.741547E+03
       518  22 -2.928809E+06 -4.275210E+04 -1.576384E+05  2.493590E+04  1.132318E+05  1.026275E+04
       518  23 -2.919655E+06  3.734794E+03 -8.972668E+04  1.390587E+04  6.794765E+04  8.745664E+03
       518  24 -2.928703E+06  1.000790E+03 -6.368818E+04  2.494780E+04  2.266220E+04  6.741612E+03
       518  25 -3.174600E+06 -1.034577E+05 -2.144765E+05  3.984106E+04  1.122790E+05  1.026604E+04
       518  26 -3.123333E+06 -4.653835E+04 -1.367148E+05  1.767329E+04  6.666170E+04  8.746576E+03
       518  27 -3.090333E+06 -3.890817E+04 -1.010713E+05  1.757734E+04  2.104012E+04  6.741715E+03
       519   1 -2.806330E+06  2.785125E+04 -3.032252E+04  2.136412E+04 -1.351632E+04 -5.441214E+03
       519   2 -2.844255E+06  2.121312E+04 -3.991685E+04  1.571692E+04  1.561069E+04 -3.364497E+03
       519   3 -2.892505E+06 -1.151100E+04 -7.505493E+04  3.267815E+04  4.473479E+04 -1.390279E+03
       519   4 -2.926952E+06 -1.891734E+03 -5.802453E+04  2.506429E+04 -1.198524E+04 -5.441535E+03
       519   5 -2.921810E+06  2.077609E+03 -5.779195E+04  1.375903E+04  1.706395E+04 -3.364699E+03
       519   6 -2.926983E+06 -2.002743E+04 -8.305111E+04  2.506285E+04  4.611223E+04 -1.390894E+03
       519   7 -3.047560E+06 -3.163568E+04 -8.572748E+04  2.876374E+04 -1.045446E+04 -5.441838E+03
       519   8 -2.999359E+06 -1.705831E+04 -7.566744E+04  1.180138E+04  1.851704E+04 -3.364910E+03
       519   9 -2.961459E+06 -2.854372E+04 -9.104734E+04  1.744797E+04  4.748960E+04 -1.391543E+03
       519  10 -2.806330E+06  2.785116E+04 -3.032292E+04  2.136406E+04  1.214364E-09  6.958552E-10
       519  11 -2.844255E+06  2.121304E+04 -3.991733E+04  1.571696E+04  2.834713E-09  4.918230E-10
       519  12 -2.892507E+06 -1.151154E+04 -7.505871E+04  3.267820E+04  2.850703E-10  6.175240E-11
       519  13 -2.926952E+06 -1.891804E+03 -5.802485E+04  2.506424E+04  8.174391E-10  3.269273E-10
       519  14 -2.921810E+06  2.077518E+03 -5.779252E+04  1.375907E+04  2.669424E-10 -4.438676E-11
       519  15 -2.926985E+06 -2.002801E+04 -8.305513E+04  2.506290E+04  1.825303E-09 -1.303235E-10
       519  16 -3.047560E+06 -3.163574E+04 -8.572774E+04  2.876369E+04  1.076736E-10 -1.374610E-10
       519  17 -2.999359E+06 -1.705841E+04 -7.566811E+04  1.180143E+04  6.639188E-10 -3.453644E-10
       519  18 -2.961462E+06 -2.854434E+04 -9.105160E+04  1.744802E+04  1.207277E-10 -3.482798E-10
       519  19 -2.806330E+06  2.785125E+04 -3.032252E+04  2.136412E+04  1.351632E+04  5.441214E+03
       519  20 -2.844255E+06  2.121312E+04 -3.991685E+04  1.571692E+04 -1.561069E+04  3.364497E+03
       519  21 -2.892505E+06 -1.151100E+04 -7.505493E+04  3.267815E+04 -4.473479E+04  1.390279E+03
       519  22 -2.926952E+06 -1.891734E+03 -5.802453E+04  2.506429E+04  1.198524E+04  5.441535E+03
       519  23 -2.921810E+06  2.077609E+03 -5.779195E+04  1.375903E+04 -1.706395E+04  3.364699E+03
       519  24 -2.926983E+06 -2.002743E+04 -8.305111E+04  2.506285E+04 -4.611223E+04  1.390894E+03
       519  25 -3.047560E+06 -3.163568E+04 -8.572748E+04  2.876374E+04  1.045446E+04  5.441838E+03
       519  26 -2.999359E+06 -1.705831E+04 -7.566744E+04  1.180138E+04 -1.851704E+04  3.364910E+03
       519  27 -2.961459E+06 -2.854372E+04 -9.104734E+04  1.744797E+04 -4.748960E+04  1.391543E+03
       520   1 -2.950354E+06  1.287392E+04 -9.924959E+04 -1.441803E+04  5.878093E+04  1.803630E+02
       520   2 -2.951623E+06  6.373939E+03 -1.636622E+05  4.928187E+04  1.417972E+05  1.897731E+03
       520   3 -3.037105E+06 -2.932489E+05 -3.555761E+05  1.355096E+05  2.248102E+05  8.542264E+02
       520   4 -2.943246E+06  1.463214E+04 -9.755515E+04  2.505581E+04  6.100746E+04  1.840307E+02
       520   5 -2.901512E+06  1.876923E+04 -1.519809E+05  1.377392E+04  1.420347E+05  1.889558E+03
       520   6 -2.943642E+06 -2.698758E+05 -3.325141E+05  2.503019E+04  2.230644E+05  8.141700E+02
       520   7 -2.936135E+06  1.639625E+04 -9.585986E+04  6.453011E+04  6.323401E+04  1.879828E+02
       520   8 -2.851395E+06  3.116911E+04 -1.402992E+05 -2.173693E+04  1.422722E+05  1.881358E+03
       520   9 -2.850145E+06 -2.464573E+05 -3.094461E+05 -8.546598E+04  2.213184E+05  7.747431E+02
       520  10 -2.950358E+06  1.287298E+04 -9.925612E+04 -1.441804E+04 -5.020902E-10  2.149607E-10
       520  11 -2.951645E+06  6.368505E+03 -1.637001E+05  4.928165E+04  3.062700E-10  1.645382E-10
       520  12 -3.037159E+06 -2.932625E+05 -3.556716E+05  1.355095E+05  1.257389E-09 -1.708081E-11
       520  13 -2.943250E+06  1.463114E+04 -9.756218E+04  2.505580E+04 -1.344503E-10  2.960159E-11
       520  14 -2.901533E+06  1.876378E+04 -1.520190E+05  1.377370E+04  5.097726E-10  5.475545E-10
       520  15 -2.943696E+06 -2.698892E+05 -3.326080E+05  2.503005E+04 -7.911673E-10 -2.118704E-11
       520  16 -2.936139E+06  1.639517E+04 -9.586741E+04  6.453010E+04  3.646721E-11 -1.504066E-10
       520  17 -2.851417E+06  3.116364E+04 -1.403374E+05 -2.173715E+04  6.070879E-10  6.828119E-10
       520  18 -2.850198E+06 -2.464705E+05 -3.095386E+05 -8.546612E+04 -7.027912E-10  1.169385E-10
       520  19 -2.950354E+06  1.287392E+04 -9.924959E+04 -1.441803E+04 -5.878093E+04 -1.803630E+02
       520  20 -2.951623E+06  6.373939E+03 -1.636622E+05  4.928187E+04 -1.417972E+05 -1.897731E+03
       520  21 -3.037105E+06 -2.932489E+05 -3.555761E+05  1.355096E+05 -2.248102E+05 -8.542264E+02
       520  22 -2.943246E+06  1.463214E+04 -9.755515E+04  2.505581E+04 -6.100746E+04 -1.840307E+02
       520  23 -2.901512E+06  1.876923E+04 -1.519809E+05  1.377392E+04 -1.420347E+05 -1.889558E+03
       520  24 -2.943642E+06 -2.698758E+05 -3.325141E+05  2.503019E+04 -2.230644E+05 -8.141700E+02
       520  25 -2.936135E+06  1.639625E+04 -9.585986E+04  6.453011E+04 -6.323401E+04 -1.879828E+02
       520  26 -2.851395E+06  3.116911E+04 -1.402992E+05 -2.173693E+04 -1.422722E+05 -1.881358E+03
       520  27 -2.850145E+06 -2.464573E+05 -3.094461E+05 -8.546598E+04 -2.213184E+05 -7.747431E+02
       521   1 -2.098987E+06 -8.669630E+04 -1.380558E+05 -6.406559E+04 -1.637225E+05 -6.055702E+03
       521   2 -2.107649E+06  1.288992E+05 -1.106631E+04 -1.535315E+04 -1.097650E+05 -1.877177E+04
       521   3 -2.180453E+06  1.157843E+05  2.357171E+04  5.423332E+04 -5.581267E+04 -1.869296E+04
       521   4 -2.603306E+06 -2.125644E+05 -2.616191E+05  2.294779E+04 -1.773349E+05 -6.078573E+03
       521   5 -2.570265E+06  1.471375E+04 -1.182298E+05  1.250199E+04 -1.142409E+05 -1.877838E+04
       521   6 -2.603018E+06  1.158422E+04 -7.360828E+04  2.293101E+04 -5.114742E+04 -1.868937E+04
       521   7 -3.107375E+06 -3.384227E+05 -3.851963E+05  1.098901E+05 -1.909361E+05 -6.105290E+03
       521   8 -3.032680E+06 -9.948387E+04 -2.254071E+05  4.033615E+04 -1.187135E+05 -1.878540E+04
       521   9 -3.025415E+06 -9.262474E+04 -1.707995E+05 -8.349757E+03 -4.648531E+04 -1.868625E+04
       521  10 -2.099016E+06 -8.670356E+04 -1.381064E+05 -6.406639E+04  2.243407E-10  3.416564E-10
       521  11 -2.107662E+06  1.288956E+05 -1.108969E+04 -1.535481E+04 -7.222873E-10  5.462022E-10
       521  12 -2.180457E+06  1.157831E+05  2.356518E+04  5.423248E+04  3.215435E-10  2.132189E-10
       521  13 -2.603340E+06 -2.125729E+05 -2.616785E+05  2.294692E+04 -1.910961E-09 -7.913345E-11
       521  14 -2.570279E+06  1.470985E+04 -1.182550E+05  1.250026E+04 -1.638695E-09  7.616862E-10
       521  15 -2.603021E+06  1.158314E+04 -7.361387E+04  2.293024E+04  3.222797E-10  3.203601E-10
       521  16 -3.107414E+06 -3.384326E+05 -3.852653E+05  1.098892E+05 -9.970577E-10  1.692999E-10
       521  17 -3.032696E+06 -9.948805E+04 -2.254343E+05  4.033435E+04  3.618862E-10  2.720288E-10
       521  18 -3.025417E+06 -9.262569E+04 -1.708042E+05 -8.350458E+03  1.890286E-10 -7.613794E-11
       521  19 -2.098987E+06 -8.669630E+04 -1.380558E+05 -6.406559E+04  1.637225E+05  6.055702E+03
       521  20 -2.107649E+06  1.288992E+05 -1.106631E+04 -1.535315E+04  1.097650E+05  1.877177E+04
       521  21 -2.180453E+06  1.157843E+05  2.357171E+04  5.423332E+04  5.581267E+04  1.869296E+04
       521  22 -2.603306E+06 -2.125644E+05 -2.616191E+05  2.294779E+04  1.773349E+05  6.078573E+03
       521  23 -2.570265E+06  1.471375E+04 -1.182298E+05  1.250199E+04  1.142409E+05  1.877838E+04
       521  24 -2.603018E+06  1.158422E+04 -7.360828E+04  2.293101E+04  5.114742E+04  1.868937E+04
       521  25 -3.107375E+06 -3.384227E+05 -3.851963E+05  1.098901E+05  1.909361E+05  6.105290E+03
       521  26 -3.032680E+06 -9.948387E+04 -2.254071E+05  4.033615E+04  1.187135E+05  1.878540E+04
       521  27 -3.025415E+06 -9.262474E+04 -1.707995E+05 -8.349757E+03  4.648531E+04  1.868625E+04
       522   1 -2.208058E+06  7.839662E+04  2.725455E+04  1.777290E+04 -4.087195E+04 -1.598375E+04
       522   2 -2.247677E+06  8.501598E+04  4.045220E+04  1.071420E+04 -2.238226E+04 -1.458593E+04
       522   3 -2.294418E+06  7.268282E+04  3.685146E+04  2.629805E+04 -3.895291E+03 -1.251770E+04
       522   4 -2.590048E+06 -1.585303E+04 -6.101535E+04  2.333687E+04 -4.009820E+04 -1.598446E+04
       522   5 -2.586423E+06  1.469999E+03 -3.763231E+04  1.201086E+04 -2.113763E+04 -1.458581E+04
       522   6 -2.590009E+06 -2.480250E+02 -3.138314E+04  2.332855E+04 -2.178514E+03 -1.251682E+04
       522   7 -2.971902E+06 -1.101128E+05 -1.492950E+05  2.889736E+04 -3.932491E+04 -1.598515E+04
       522   8 -2.925062E+06 -8.208404E+04 -1.157244E+05  1.330679E+04 -1.989367E+04 -1.458567E+04
       522   9 -2.885519E+06 -7.318498E+04 -9.962355E+04  2.036047E+04 -4.625506E+02 -1.251596E+04
       522  10 -2.208060E+06  7.839590E+04  2.725092E+04  1.777237E+04 -1.335631E-09  6.586384E-10
       522  11 -2.247678E+06  8.501561E+04  4.045086E+04  1.071393E+04  1.515994E-09 -8.003495E-10
       522  12 -2.294418E+06  7.268264E+04  3.685114E+04  2.629801E+04  1.462637E-09 -6.862935E-10
       522  13 -2.590049E+06 -1.585374E+04 -6.101886E+04  2.333636E+04 -1.179655E-13  2.955085E-10
       522  14 -2.586423E+06  1.469650E+03 -3.763355E+04  1.201061E+04  1.709202E-09 -4.105999E-11
       522  15 -2.590009E+06 -2.481943E+02 -3.138344E+04  2.332853E+04  4.533070E-10 -8.446378E-10
       522  16 -2.971904E+06 -1.101135E+05 -1.492984E+05  2.889686E+04  1.678263E-09 -2.907017E-10
       522  17 -2.925062E+06 -8.208437E+04 -1.157256E+05  1.330656E+04  1.059993E-09  1.718086E-10
       522  18 -2.885519E+06 -7.318515E+04 -9.962384E+04  2.036047E+04 -1.472477E-09  8.916955E-11
       522  19 -2.208058E+06  7.839662E+04  2.725455E+04  1.777290E+04  4.087195E+04  1.598375E+04
       522  20 -2.247677E+06  8.501598E+04  4.045220E+04  1.071420E+04  2.238226E+04  1.458593E+04
       522  21 -2.294418E+06  7.268282E+04  3.685146E+04  2.629805E+04  3.895291E+03  1.251770E+04
       522  22 -2.590048E+06 -1.585303E+04 -6.101535E+04  2.333687E+04  4.009820E+04  1.598446E+04
       522  23 -2.586423E+06  1.469999E+03 -3.763231E+04  1.201086E+04  2.113763E+04  1.458581E+04
       522  24 -2.590009E+06 -2.480250E+02 -3.138314E+04  2.332855E+04  2.178514E+03  1.251682E+04
       522  25 -2.971902E+06 -1.101128E+05 -1.492950E+05  2.889736E+04  3.932491E+04  1.598515E+04
       522  26 -2.925062E+06 -8.208404E+04 -1.157244E+05  1.330679E+04  1.989367E+04  1.458567E+04
       522  27 -2.885519E+06 -7.318498E+04 -9.962355E+04  2.036047E+04  4.625506E+02  1.251596E+04
       523   1 -2.336869E+06  6.226906E+04  2.666630E+04  2.075756E+04  1.807099E+03 -1.116850E+04
       523   2 -2.378001E+06  5.293280E+04  9.328790E+03  1.339417E+04  2.125898E+04 -8.977388E+03
       523   3 -2.426653E+06  2.380997E+04 -2.566067E+04  2.959687E+04  4.070876E+04 -6.721327E+03
       523   4 -2.590074E+06 -1.530835E+02 -3.157269E+04  2.353208E+04  3.345029E+03 -1.116756E+04
       523   5 -2.586323E+06  1.548052E+03 -3.868039E+04  1.175619E+04  2.283733E+04 -8.976242E+03
       523   6 -2.590102E+06 -1.654778E+04 -6.347141E+04  2.354712E+04  4.232890E+04 -6.720235E+03
       523   7 -2.843219E+06 -6.257970E+04 -8.981591E+04  2.630544E+04  4.882335E+03 -1.116661E+04
       523   8 -2.794605E+06 -4.983974E+04 -8.669244E+04  1.011876E+04  2.441515E+04 -8.975103E+03
       523   9 -2.753526E+06 -5.690727E+04 -1.012839E+05  1.749897E+04  4.394862E+04 -6.719176E+03
       523  10 -2.336869E+06  6.226893E+04  2.666605E+04  2.075758E+04 -4.224599E-11 -8.745618E-10
       523  11 -2.378002E+06  5.293259E+04  9.327786E+03  1.339432E+04  4.435173E-11 -1.007137E-09
       523  12 -2.426654E+06  2.380948E+04 -2.566389E+04  2.959709E+04  5.933428E-10 -1.601120E-09
       523  13 -2.590074E+06 -1.532202E+02 -3.157294E+04  2.353211E+04  3.368461E-10 -1.001720E-09
       523  14 -2.586324E+06  1.547825E+03 -3.868152E+04  1.175635E+04 -3.243879E-10 -1.019214E-09
       523  15 -2.590104E+06 -1.654831E+04 -6.347488E+04  2.354735E+04 -3.604868E-10 -9.499833E-10
       523  16 -2.843219E+06 -6.257984E+04 -8.981619E+04  2.630549E+04 -4.481378E-10 -3.214329E-10
       523  17 -2.794606E+06 -4.983998E+04 -8.669371E+04  1.011893E+04 -2.190649E-09  1.082261E-09
       523  18 -2.753528E+06 -5.690784E+04 -1.012876E+05  1.749921E+04 -2.246729E-09 -5.231626E-11
       523  19 -2.336869E+06  6.226906E+04  2.666630E+04  2.075756E+04 -1.807099E+03  1.116850E+04
       523  20 -2.378001E+06  5.293280E+04  9.328790E+03  1.339417E+04 -2.125898E+04  8.977388E+03
       523  21 -2.426653E+06  2.380997E+04 -2.566067E+04  2.959687E+04 -4.070876E+04  6.721327E+03
       523  22 -2.590074E+06 -1.530835E+02 -3.157269E+04  2.353208E+04 -3.345029E+03  1.116756E+04
       523  23 -2.586323E+06  1.548052E+03 -3.868039E+04  1.175619E+04 -2.283733E+04  8.976242E+03
       523  24 -2.590102E+06 -1.654778E+04 -6.347141E+04  2.354712E+04 -4.232890E+04  6.720235E+03
       523  25 -2.843219E+06 -6.257970E+04 -8.981591E+04  2.630544E+04 -4.882335E+03  1.116661E+04
       523  26 -2.794605E+06 -4.983974E+04 -8.669244E+04  1.011876E+04 -2.441515E+04  8.975103E+03
       523  27 -2.753526E+06 -5.690727E+04 -1.012839E+05  1.749897E+04 -4.394862E+04  6.719176E+03
       524   1 -2.483790E+06  4.165997E+04 -4.927631E+04 -8.951020E+03  5.226130E+04 -5.417083E+03
       524   2 -2.495294E+06  3.381286E+04 -1.065219E+05  4.088526E+04  1.181117E+05 -3.057963E+03
       524   3 -2.575803E+06 -2.151743E+05 -2.670554E+05  1.149125E+05  1.839579E+05 -5.147449E+02
       524   4 -2.603708E+06  1.218924E+04 -7.676277E+04  2.360914E+04  5.383394E+04 -5.412784E+03
       524   5 -2.569334E+06  1.547158E+04 -1.236058E+05  1.163147E+04  1.198006E+05 -3.061795E+03
       524   6 -2.603998E+06 -2.224337E+05 -2.738238E+05  2.385382E+04  1.857677E+05 -5.398573E+02
       524   7 -2.723611E+06 -1.727848E+04 -1.042496E+05  5.616293E+04  5.540627E+04 -5.408320E+03
       524   8 -2.643368E+06 -2.866853E+03 -1.406897E+05 -1.761879E+04  1.214893E+05 -3.065788E+03
       524   9 -2.632173E+06 -2.296619E+05 -2.805878E+05 -6.720072E+04  1.875775E+05 -5.655037E+02
       524  10 -2.483793E+06  4.165920E+04 -4.928151E+04 -8.950792E+03  1.461742E-09 -2.218333E-09
       524  11 -2.495309E+06  3.380908E+04 -1.065482E+05  4.088555E+04  2.230595E-09 -3.497281E-09
       524  12 -2.575840E+06 -2.151834E+05 -2.671192E+05  1.149126E+05 -6.745422E-10 -8.892762E-10
       524  13 -2.603712E+06  1.218843E+04 -7.676829E+04  2.360937E+04  3.002129E-09 -4.817754E-09
       524  14 -2.569350E+06  1.546770E+04 -1.236329E+05  1.163176E+04 -3.037713E-09  2.030117E-09
       524  15 -2.604035E+06 -2.224431E+05 -2.738889E+05  2.385391E+04 -1.799414E-10 -2.764678E-11
       524  16 -2.723614E+06 -1.727934E+04 -1.042554E+05  5.616317E+04 -2.171372E-09 -5.081985E-10
       524  17 -2.643384E+06 -2.870846E+03 -1.407176E+05 -1.761849E+04 -2.293482E-09  1.943351E-09
       524  18 -2.632211E+06 -2.296714E+05 -2.806542E+05 -6.720063E+04  1.414125E-09 -8.640301E-10
       524  19 -2.483790E+06  4.165997E+04 -4.927631E+04 -8.951020E+03 -5.226130E+04  5.417083E+03
       524  20 -2.495294E+06  3.381286E+04 -1.065219E+05  4.088526E+04 -1.181117E+05  3.057963E+03
       524  21 -2.575803E+06 -2.151743E+05 -2.670554E+05  1.149125E+05 -1.839579E+05  5.147449E+02
       524  22 -2.603708E+06  1.218924E+04 -7.676277E+04  2.360914E+04 -5.383394E+04  5.412784E+03
       524  23 -2.569334E+06  1.547158E+04 -1.236058E+05  1.163147E+04 -1.198006E+05  3.061795E+03
       524  24 -2.603998E+06 -2.224337E+05 -2.738238E+05  2.385382E+04 -1.857677E+05  5.398573E+02
       524  25 -2.723611E+06 -1.727848E+04 -1.042496E+05  5.616293E+04 -5.540627E+04  5.408320E+03
       524  26 -2.643368E+06 -2.866853E+03 -1.406897E+05 -1.761879E+04 -1.214893E+05  3.065788E+03
       524  27 -2.632173E+06 -2.296619E+05 -2.805878E+05 -6.720072E+04 -1.875775E+05  5.655037E+02
       525   1 -1.657641E+06  1.073063E+04 -4.324707E+04 -2.473927E+04 -1.568999E+05 -1.082019E+04
       525   2 -1.742522E+06  2.108069E+05  6.306815E+04  5.202062E+03 -1.092843E+05 -3.218264E+04
       525   3 -1.891368E+06  1.793355E+05  8.051001E+04  9.558777E+04 -6.171215E+04 -2.993505E+04
       525   4 -2.569930E+06 -2.166265E+05 -2.668163E+05  6.313884E+04 -1.805859E+05 -1.087376E+04
       525   5 -2.536254E+06  1.501779E+04 -1.208130E+05  3.274682E+04 -1.160941E+05 -3.220129E+04
       525   6 -2.569601E+06  1.199819E+04 -7.552967E+04  6.281182E+04 -5.163499E+04 -2.991459E+04
       525   7 -3.481439E+06 -4.440159E+05 -4.904403E+05  1.508870E+05 -2.042369E+05 -1.093412E+04
       525   8 -3.329400E+06 -1.808128E+05 -3.047359E+05  6.025576E+04 -1.228951E+05 -3.222056E+04
       525   9 -3.247404E+06 -1.553673E+05 -2.315989E+05  3.007185E+04 -4.156876E+04 -2.989518E+04
       525  10 -1.657667E+06  1.072387E+04 -4.329368E+04 -2.474064E+04 -6.154136E-10  4.681953E-10
       525  11 -1.742535E+06  2.108026E+05  6.304370E+04  5.199228E+03  2.402570E-09 -9.681845E-10
       525  12 -1.891372E+06  1.793335E+05  8.050115E+04  9.558629E+04  3.796879E-09 -3.737785E-09
       525  13 -2.569965E+06 -2.166355E+05 -2.668781E+05  6.313726E+04 -1.230276E-09  1.719360E-09
       525  14 -2.536269E+06  1.501304E+04 -1.208404E+05  3.274381E+04 -9.315328E-10 -2.195013E-10
       525  15 -2.569604E+06  1.199651E+04 -7.553638E+04  6.281058E+04 -1.342465E-09 -9.585984E-10
       525  16 -3.481484E+06 -4.440274E+05 -4.905194E+05  1.508852E+05 -5.542200E-10  9.982836E-10
       525  17 -3.329416E+06 -1.808180E+05 -3.047663E+05  6.025257E+04  8.666587E-10 -3.413687E-09
       525  18 -3.247407E+06 -1.553688E+05 -2.316039E+05  3.007085E+04 -2.528743E-09 -6.505595E-09
       525  19 -1.657641E+06  1.073063E+04 -4.324707E+04 -2.473927E+04  1.568999E+05  1.082019E+04
       525  20 -1.742522E+06  2.108069E+05  6.306815E+04  5.202062E+03  1.092843E+05  3.218264E+04
       525  21 -1.891368E+06  1.793355E+05  8.051001E+04  9.558777E+04  6.171215E+04  2.993505E+04
       525  22 -2.569930E+06 -2.166265E+05 -2.668163E+05  6.313884E+04  1.805859E+05  1.087376E+04
       525  23 -2.536254E+06  1.501779E+04 -1.208130E+05  3.274682E+04  1.160941E+05  3.220129E+04
       525  24 -2.569601E+06  1.199819E+04 -7.552967E+04  6.281182E+04  5.163499E+04  2.991459E+04
       525  25 -3.481439E+06 -4.440159E+05 -4.904403E+05  1.508870E+05  2.042369E+05  1.093412E+04
       525  26 -3.329400E+06 -1.808128E+05 -3.047359E+05  6.025576E+04  1.228951E+05  3.222056E+04
       525  27 -3.247404E+06 -1.553673E+05 -2.315989E+05  3.007185E+04  4.156876E+04  2.989518E+04
       526   1 -1.992473E+06  1.231563E+05  6.739478E+04  5.854411E+04 -4.316449E+04 -2.372087E+04
       526   2 -2.109021E+06  1.110273E+05  6.269693E+04  3.119716E+04 -2.409133E+04 -1.910360E+04
       526   3 -2.233090E+06  7.966873E+04  4.069474E+04  6.696506E+04 -5.027707E+03 -1.329864E+04
       526   4 -2.556437E+06 -1.594721E+04 -6.287341E+04  6.352309E+04 -4.027963E+04 -2.371672E+04
       526   5 -2.552565E+06  1.646679E+03 -3.954778E+04  3.194676E+04 -2.036967E+04 -1.909620E+04
       526   6 -2.556379E+06 -1.426777E+02 -3.411997E+04  6.348885E+04 -4.655944E+02 -1.328782E+04
       526   7 -3.120106E+06 -1.550730E+05 -1.931628E+05  6.849733E+04 -3.739737E+04 -2.371253E+04
       526   8 -2.995926E+06 -1.077477E+05 -1.418055E+05  3.269570E+04 -1.665066E+04 -1.908879E+04
       526   9 -2.879570E+06 -7.996141E+04 -1.089416E+05  6.001441E+04  4.094153E+03 -1.327704E+04
       526  10 -1.992475E+06  1.231552E+05  6.739021E+04  5.854329E+04 -3.033605E-09 -5.109468E-09
       526  11 -2.109022E+06  1.110267E+05  6.269515E+04  3.119679E+04 -1.594092E-09  1.556862E-09
       526  12 -2.233090E+06  7.966853E+04  4.069436E+04  6.696500E+04 -1.351271E-10  2.310030E-09
       526  13 -2.556439E+06 -1.594825E+04 -6.287753E+04  6.352232E+04  1.083250E-09 -3.987406E-09
       526  14 -2.552565E+06  1.646176E+03 -3.954925E+04  3.194644E+04  1.832696E-10  3.229933E-10
       526  15 -2.556379E+06 -1.428671E+02 -3.412030E+04  6.348885E+04  1.021311E-09 -2.163171E-09
       526  16 -3.120107E+06 -1.550739E+05 -1.931665E+05  6.849662E+04  2.306492E-09 -1.668776E-09
       526  17 -2.995926E+06 -1.077482E+05 -1.418067E+05  3.269544E+04  7.602687E-10  1.505626E-09
       526  18 -2.879570E+06 -7.996160E+04 -1.089420E+05  6.001446E+04 -4.868991E-10  6.241129E-10
       526  19 -1.992473E+06  1.231563E+05  6.739478E+04  5.854411E+04  4.316449E+04  2.372087E+04
       526  20 -2.109021E+06  1.110273E+05  6.269693E+04  3.119716E+04  2.409133E+04  1.910360E+04
       526  21 -2.233090E+06  7.966873E+04  4.069474E+04  6.696506E+04  5.027707E+03  1.329864E+04
       526  22 -2.556437E+06 -1.594721E+04 -6.287341E+04  6.352309E+04  4.027963E+04  2.371672E+04
       526  23 -2.552565E+06  1.646679E+03 -3.954778E+04  3.194676E+04  2.036967E+04  1.909620E+04
       526  24 -2.556379E+06 -1.426777E+02 -3.411997E+04  6.348885E+04  4.655944E+02  1.328782E+04
       526  25 -3.120106E+06 -1.550730E+05 -1.931628E+05  6.849733E+04  3.739737E+04  2.371253E+04
       526  26 -2.995926E+06 -1.077477E+05 -1.418055E+05  3.269570E+04  1.665066E+04  1.908879E+04
       526  27 -2.879570E+06 -7.996141E+04 -1.089416E+05  6.001441E+04 -4.094153E+03  1.327704E+04
       527   1 -2.349923E+06  5.118221E+04  1.237411E+04  6.065038E+04  1.196536E+03 -9.584727E+03
       527   2 -2.467330E+06  2.288482E+04 -2.465358E+04  3.360936E+04  2.380582E+04 -3.652607E+03
       527   3 -2.593774E+06 -2.820641E+04 -8.223136E+04  7.056099E+04  4.641078E+04  1.802403E+03
       527   4 -2.556652E+06  2.774637E+02 -3.495244E+04  6.367923E+04  5.585302E+03 -9.573799E+03
       527   5 -2.552175E+06  1.950685E+03 -4.418604E+04  3.170680E+04  2.784836E+04 -3.642400E+03
       527   6 -2.556686E+06 -1.910973E+04 -7.372815E+04  6.372851E+04  5.011145E+04  1.811544E+03
       527   7 -2.763342E+06 -5.063022E+04 -8.228172E+04  6.670703E+04  9.972614E+03 -9.562826E+03
       527   8 -2.637013E+06 -1.898393E+04 -6.371891E+04  2.980449E+04  3.189036E+04 -3.632218E+03
       527   9 -2.519596E+06 -1.001297E+04 -6.522496E+04  5.689562E+04  5.381234E+04  1.820602E+03
       527  10 -2.349923E+06  5.118211E+04  1.237393E+04  6.065039E+04 -3.108890E-09  4.264052E-09
       527  11 -2.467330E+06  2.288465E+04 -2.465468E+04  3.360943E+04 -5.104606E-11  4.332779E-09
       527  12 -2.593776E+06 -2.820700E+04 -8.223543E+04  7.056092E+04  3.779356E-09 -1.339966E-09
       527  13 -2.556652E+06  2.773570E+02 -3.495267E+04  6.367927E+04  2.377924E-09 -2.884309E-09
       527  14 -2.552175E+06  1.950461E+03 -4.418753E+04  3.170688E+04 -5.194255E-10  4.392353E-09
       527  15 -2.556688E+06 -1.911041E+04 -7.373290E+04  6.372844E+04 -1.364649E-09  5.213448E-09
       527  16 -2.763342E+06 -5.063034E+04 -8.228208E+04  6.670711E+04  2.108554E-09  1.663621E-09
       527  17 -2.637014E+06 -1.898422E+04 -6.372086E+04  2.980458E+04 -3.955869E-10  4.866629E-09
       527  18 -2.519599E+06 -1.001375E+04 -6.523043E+04  5.689554E+04 -3.489789E-09  2.145670E-09
       527  19 -2.349923E+06  5.118221E+04  1.237411E+04  6.065038E+04 -1.196536E+03  9.584727E+03
       527  20 -2.467330E+06  2.288482E+04 -2.465358E+04  3.360936E+04 -2.380582E+04  3.652607E+03
       527  21 -2.593774E+06 -2.820641E+04 -8.223136E+04  7.056099E+04 -4.641078E+04 -1.802403E+03
       527  22 -2.556652E+06  2.774637E+02 -3.495244E+04  6.367923E+04 -5.585302E+03  9.573799E+03
       527  23 -2.552175E+06  1.950685E+03 -4.418604E+04  3.170680E+04 -2.784836E+04  3.642400E+03
       527  24 -2.556686E+06 -1.910973E+04 -7.372815E+04  6.372851E+04 -5.011145E+04 -1.811544E+03
       527  25 -2.763342E+06 -5.063022E+04 -8.228172E+04  6.670703E+04 -9.972614E+03  9.562826E+03
       527  26 -2.637013E+06 -1.898393E+04 -6.371891E+04  2.980449E+04 -3.189036E+04  3.632218E+03
       527  27 -2.519596E+06 -1.001297E+04 -6.522496E+04  5.689562E+04 -5.381234E+04 -1.820602E+03
       528   1 -2.726703E+06 -2.369372E+04 -1.250965E+05  2.489432E+04  5.639481E+04  6.641239E+03
       528   2 -2.807378E+06 -4.951238E+04 -2.084608E+05  6.560021E+04  1.414973E+05  1.117065E+04
       528   3 -2.970516E+06 -3.590302E+05 -4.184089E+05  1.700039E+05  2.266086E+05  4.622425E+03
       528   4 -2.572637E+06  1.457201E+04 -8.946096E+04  6.344850E+04  6.347913E+04  6.662951E+03
       528   5 -2.532287E+06  1.824351E+04 -1.445884E+05  3.191520E+04  1.406497E+05  1.116041E+04
       528   6 -2.572991E+06 -2.603479E+05 -3.207304E+05  6.409887E+04  2.178469E+05  4.562532E+03
       528   7 -2.418545E+06  5.284166E+04 -5.382601E+04  1.020123E+05  7.056521E+04  6.685543E+03
       528   8 -2.257124E+06  8.599838E+04 -8.072049E+04 -1.784947E+03  1.398018E+05  1.115028E+04
       528   9 -2.175296E+06 -1.616348E+05 -2.230570E+05 -4.187440E+04  2.090795E+05  4.505670E+03
       528  10 -2.726707E+06 -2.369463E+04 -1.251026E+05  2.489402E+04  6.205669E-10 -8.437879E-10
       528  11 -2.807399E+06 -4.951792E+04 -2.084988E+05  6.559893E+04 -2.002613E-09  7.160772E-09
       528  12 -2.970571E+06 -3.590441E+05 -4.185059E+05  1.700030E+05  3.909925E-10  2.975103E-09
       528  13 -2.572641E+06  1.457087E+04 -8.946864E+04  6.344816E+04  4.673741E-10  1.382427E-09
       528  14 -2.532309E+06  1.823804E+04 -1.446260E+05  3.191393E+04 -3.082021E-09  7.788476E-09
       528  15 -2.573042E+06 -2.603608E+05 -3.208200E+05  6.409807E+04  8.833237E-10 -9.541689E-10
       528  16 -2.418551E+06  5.284027E+04 -5.383549E+04  1.020120E+05 -9.204081E-10  2.038936E-09
       528  17 -2.257145E+06  8.599298E+04 -8.075758E+04 -1.786203E+03 -7.453528E-10  2.063093E-09
       528  18 -2.175343E+06 -1.616466E+05 -2.231395E+05 -4.187516E+04 -1.616546E-09 -1.091511E-09
       528  19 -2.726703E+06 -2.369372E+04 -1.250965E+05  2.489432E+04 -5.639481E+04 -6.641239E+03
       528  20 -2.807378E+06 -4.951238E+04 -2.084608E+05  6.560021E+04 -1.414973E+05 -1.117065E+04
       528  21 -2.970516E+06 -3.590302E+05 -4.184089E+05  1.700039E+05 -2.266086E+05 -4.622425E+03
       528  22 -2.572637E+06  1.457201E+04 -8.946096E+04  6.344850E+04 -6.347913E+04 -6.662951E+03
       528  23 -2.532287E+06  1.824351E+04 -1.445884E+05  3.191520E+04 -1.406497E+05 -1.116041E+04
       528  24 -2.572991E+06 -2.603479E+05 -3.207304E+05  6.409887E+04 -2.178469E+05 -4.562532E+03
       528  25 -2.418545E+06  5.284166E+04 -5.382601E+04  1.020123E+05 -7.056521E+04 -6.685543E+03
       528  26 -2.257124E+06  8.599838E+04 -8.072049E+04 -1.784947E+03 -1.398018E+05 -1.115028E+04
       528  27 -2.175296E+06 -1.616348E+05 -2.230570E+05 -4.187440E+04 -2.090795E+05 -4.505670E+03
       529   1 -1.151602E+06  3.474804E+04 -2.029051E+02  3.222134E+02 -9.715835E+04 -8.171495E+03
       529   2 -1.236431E+06  1.544109E+05  5.869250E+04  1.120828E+04 -6.885256E+04 -2.377864E+04
       529   3 -1.361860E+06  1.270034E+05  6.237374E+04  7.663047E+04 -4.059610E+04 -2.128794E+04
       529   4 -1.845267E+06 -1.378907E+05 -1.701176E+05  5.569582E+04 -1.148444E+05 -8.222949E+03
       529   5 -1.823729E+06  9.666462E+03 -7.729744E+04  2.824325E+04 -7.356890E+04 -2.379449E+04
       529   6 -1.845105E+06  7.814500E+03 -4.876064E+04  5.533410E+04 -3.233682E+04 -2.126404E+04
       529   7 -2.538485E+06 -3.105533E+05 -3.400647E+05  1.110070E+05 -1.325106E+05 -8.277598E+03
       529   8 -2.410705E+06 -1.351011E+05 -2.133102E+05  4.526173E+04 -7.828077E+04 -2.381060E+04
       529   9 -2.328132E+06 -1.113891E+05 -1.599100E+05  3.405431E+04 -2.408392E+04 -2.124070E+04
       529  10 -1.151612E+06  3.474543E+04 -2.208027E+02  3.215737E+02  7.974732E-10 -1.072780E-09
       529  11 -1.236437E+06  1.544090E+05  5.868251E+04  1.120696E+04  1.689834E-09 -3.589102E-10
       529  12 -1.361862E+06  1.270024E+05  6.236979E+04  7.662977E+04  4.647632E-10 -2.603040E-09
       529  13 -1.845281E+06 -1.378944E+05 -1.701426E+05  5.569506E+04 -1.869908E-09  4.764552E-09
       529  14 -1.823735E+06  9.664397E+03 -7.730870E+04  2.824184E+04 -1.182697E-09  1.914311E-09
       529  15 -1.845106E+06  7.813733E+03 -4.876346E+04  5.533354E+04  1.212507E-09 -2.585856E-09
       529  16 -2.538504E+06 -3.105581E+05 -3.400980E+05  1.110062E+05 -2.617663E-09  1.514026E-09
       529  17 -2.410712E+06 -1.351034E+05 -2.133229E+05  4.526023E+04 -3.675829E-10 -1.225010E-09
       529  18 -2.328133E+06 -1.113897E+05 -1.599120E+05  3.405390E+04  4.533552E-10 -4.876314E-09
       529  19 -1.151602E+06  3.474804E+04 -2.029051E+02  3.222134E+02  9.715835E+04  8.171495E+03
       529  20 -1.236431E+06  1.544109E+05  5.869250E+04  1.120828E+04  6.885256E+04  2.377864E+04
       529  21 -1.361860E+06  1.270034E+05  6.237374E+04  7.663047E+04  4.059610E+04  2.128794E+04
       529  22 -1.845267E+06 -1.378907E+05 -1.701176E+05  5.569582E+04  1.148444E+05  8.222949E+03
       529  23 -1.823729E+06  9.666462E+03 -7.729744E+04  2.824325E+04  7.356890E+04  2.379449E+04
       529  24 -1.845105E+06  7.814500E+03 -4.876064E+04  5.533410E+04  3.233682E+04  2.126404E+04
       529  25 -2.538485E+06 -3.105533E+05 -3.400647E+05  1.110070E+05  1.325106E+05  8.277598E+03
       529  26 -2.410705E+06 -1.351011E+05 -2.133102E+05  4.526173E+04  7.828077E+04  2.381060E+04
       529  27 -2.328132E+06 -1.113891E+05 -1.599100E+05  3.405431E+04  2.408392E+04  2.124070E+04
       530   1 -1.455304E+06  8.404268E+04  4.711728E+04  5.282768E+04 -2.770042E+04 -1.608324E+04
       530   2 -1.559425E+06  6.886612E+04  3.658291E+04  2.744130E+04 -1.490133E+04 -1.181890E+04
       530   3 -1.668671E+06  4.133749E+04  1.453060E+04  5.800004E+04 -2.109067E+03 -6.669447E+03
       530   4 -1.836740E+06 -9.965390E+03 -4.091217E+04  5.577081E+04 -2.497137E+04 -1.607596E+04
       530   5 -1.834101E+06  1.176488E+03 -2.669692E+04  2.778250E+04 -1.154350E+04 -1.180896E+04
       530   6 -1.836711E+06 -1.462793E+02 -2.444195E+04  5.574131E+04  1.879686E+03 -6.656753E+03
       530   7 -2.218040E+06 -1.039836E+05 -1.289513E+05  5.871201E+04 -2.224398E+04 -1.606866E+04
       530   8 -2.108707E+06 -6.651843E+04 -8.998172E+04  2.812349E+04 -8.187158E+03 -1.179903E+04
       530   9 -2.004725E+06 -4.163201E+04 -6.341633E+04  5.348318E+04  5.867365E+03 -6.644086E+03
       530  10 -1.455305E+06  8.404220E+04  4.711535E+04  5.282732E+04 -5.178357E-09  1.446320E-09
       530  11 -1.559425E+06  6.886591E+04  3.658223E+04  2.744116E+04 -2.460638E-09  1.206149E-09
       530  12 -1.668671E+06  4.133744E+04  1.453051E+04  5.800003E+04 -1.728094E-09  9.531388E-10
       530  13 -1.836740E+06 -9.965836E+03 -4.091383E+04  5.577049E+04  1.734091E-09 -2.486011E-10
       530  14 -1.834101E+06  1.176303E+03 -2.669743E+04  2.778239E+04  5.392096E-10  3.699728E-09
       530  15 -1.836711E+06 -1.463278E+02 -2.444203E+04  5.574132E+04  1.063395E-09  1.059301E-09
       530  16 -2.218041E+06 -1.039840E+05 -1.289527E+05  5.871172E+04  3.426105E-09  6.832833E-10
       530  17 -2.108707E+06 -6.651859E+04 -8.998210E+04  2.812341E+04  4.575551E-09 -7.079150E-09
       530  18 -2.004725E+06 -4.163207E+04 -6.341647E+04  5.348321E+04  1.740883E-09 -1.836475E-09
       530  19 -1.455304E+06  8.404268E+04  4.711728E+04  5.282768E+04  2.770042E+04  1.608324E+04
       530  20 -1.559425E+06  6.886612E+04  3.658291E+04  2.744130E+04  1.490133E+04  1.181890E+04
       530  21 -1.668671E+06  4.133749E+04  1.453060E+04  5.800004E+04  2.109067E+03  6.669447E+03
       530  22 -1.836740E+06 -9.965390E+03 -4.091217E+04  5.577081E+04  2.497137E+04  1.607596E+04
       530  23 -1.834101E+06  1.176488E+03 -2.669692E+04  2.778250E+04  1.154350E+04  1.180896E+04
       530  24 -1.836711E+06 -1.462793E+02 -2.444195E+04  5.574131E+04 -1.879686E+03  6.656753E+03
       530  25 -2.218040E+06 -1.039836E+05 -1.289513E+05  5.871201E+04  2.224398E+04  1.606866E+04
       530  26 -2.108707E+06 -6.651843E+04 -8.998172E+04  2.812349E+04  8.187158E+03  1.179903E+04
       530  27 -2.004725E+06 -4.163201E+04 -6.341633E+04  5.348318E+04 -5.867365E+03  6.644086E+03
       531   1 -1.771850E+06  1.654154E+04 -1.101677E+04  5.323597E+04  2.367786E+03 -3.394001E+03
       531   2 -1.875434E+06 -8.724948E+03 -4.383211E+04  2.898599E+04  2.000341E+04  1.815863E+03
       531   3 -1.986238E+06 -5.193026E+04 -9.273874E+04  6.097236E+04  3.763767E+04  6.448408E+03
       531   4 -1.837129E+06  5.290992E+02 -2.577087E+04  5.579943E+04  6.277466E+03 -3.381344E+03
       531   5 -1.833563E+06  1.589712E+03 -3.416543E+04  2.770602E+04  2.349877E+04  1.826998E+03
       531   6 -1.837154E+06 -1.521477E+04 -5.836082E+04  5.584945E+04  4.072170E+04  6.457854E+03
       531   7 -1.902403E+06 -1.548361E+04 -4.052519E+04  5.836261E+04  1.018674E+04 -3.368655E+03
       531   8 -1.791690E+06  1.190426E+04 -2.449882E+04  2.642596E+04  2.699437E+04  1.838118E+03
       531   9 -1.688050E+06  2.149928E+04 -2.398433E+04  5.072527E+04  4.380648E+04  6.467248E+03
       531  10 -1.771850E+06  1.654153E+04 -1.101680E+04  5.323597E+04 -1.361364E-08  5.565227E-09
       531  11 -1.875435E+06 -8.725060E+03 -4.383287E+04  2.898596E+04 -1.786117E-10  3.527144E-09
       531  12 -1.986239E+06 -5.193069E+04 -9.274149E+04  6.097217E+04  9.672179E-09  5.116807E-09
       531  13 -1.837129E+06  5.290763E+02 -2.577097E+04  5.579944E+04  1.075946E-09  3.314868E-09
       531  14 -1.833564E+06  1.589560E+03 -3.416648E+04  2.770598E+04 -1.172066E-09  3.836053E-09
       531  15 -1.837156E+06 -1.521526E+04 -5.836403E+04  5.584923E+04 -1.048483E-10  3.235691E-10
       531  16 -1.902403E+06 -1.548365E+04 -4.052541E+04  5.836264E+04  1.248056E-08  5.472892E-10
       531  17 -1.791691E+06  1.190406E+04 -2.450020E+04  2.642592E+04  1.704571E-09 -1.120796E-10
       531  18 -1.688052E+06  2.149872E+04 -2.398802E+04  5.072504E+04 -1.067773E-08 -7.254381E-09
       531  19 -1.771850E+06  1.654154E+04 -1.101677E+04  5.323597E+04 -2.367786E+03  3.394001E+03
       531  20 -1.875434E+06 -8.724948E+03 -4.383211E+04  2.898599E+04 -2.000341E+04 -1.815863E+03
       531  21 -1.986238E+06 -5.193026E+04 -9.273874E+04  6.097236E+04 -3.763767E+04 -6.448408E+03
       531  22 -1.837129E+06  5.290992E+02 -2.577087E+04  5.579943E+04 -6.277466E+03  3.381344E+03
       531  23 -1.833563E+06  1.589712E+03 -3.416543E+04  2.770602E+04 -2.349877E+04 -1.826998E+03
       531  24 -1.837154E+06 -1.521477E+04 -5.836082E+04  5.584945E+04 -4.072170E+04 -6.457854E+03
       531  25 -1.902403E+06 -1.548361E+04 -4.052519E+04  5.836261E+04 -1.018674E+04  3.368655E+03
       531  26 -1.791690E+06  1.190426E+04 -2.449882E+04  2.642596E+04 -2.699437E+04 -1.838118E+03
       531  27 -1.688050E+06  2.149928E+04 -2.398433E+04  5.072527E+04 -4.380648E+04 -6.467248E+03
       532   1 -2.101583E+06 -5.050421E+04 -1.291362E+05  2.427657E+04  4.440562E+04  1.101828E+04
       532   2 -2.175180E+06 -7.343944E+04 -1.984386E+05  5.455179E+04  1.150802E+05  1.457505E+04
       532   3 -2.315251E+06 -3.238080E+05 -3.708007E+05  1.405558E+05  1.857799E+05  5.586159E+03
       532   4 -1.849951E+06  1.176453E+04 -7.113784E+04  5.552333E+04  5.132372E+04  1.104201E+04
       532   5 -1.817620E+06  1.461551E+04 -1.155518E+05  2.797220E+04  1.130122E+05  1.456322E+04
       532   6 -1.850165E+06 -2.083398E+05 -2.567269E+05  5.616061E+04  1.747387E+05  5.528767E+03
       532   7 -1.598258E+06  7.403246E+04 -1.314301E+04  8.678286E+04  5.824461E+04  1.106642E+04
       532   8 -1.459940E+06  1.026642E+05 -3.267322E+04  1.377055E+03  1.109429E+05  1.455158E+04
       532   9 -1.384865E+06 -9.286057E+04 -1.426647E+05 -2.829831E+04  1.636891E+05  5.474416E+03
       532  10 -2.101585E+06 -5.050487E+04 -1.291402E+05  2.427617E+04 -4.130982E-09  5.615825E-09
       532  11 -2.175194E+06 -7.344324E+04 -1.984639E+05  5.455043E+04 -2.596999E-11  1.644398E-10
       532  12 -2.315288E+06 -3.238173E+05 -3.708659E+05  1.405550E+05  1.712384E-09 -2.090513E-10
       532  13 -1.849954E+06  1.176369E+04 -7.114304E+04  5.552288E+04 -1.847338E-09  6.605904E-09
       532  14 -1.817634E+06  1.461185E+04 -1.155763E+05  2.797087E+04 -7.939980E-10 -5.936380E-09
       532  15 -1.850198E+06 -2.083481E+05 -2.567845E+05  5.615983E+04 -1.577441E-09  4.669902E-09
       532  16 -1.598261E+06  7.403142E+04 -1.314963E+04  8.678234E+04  1.513038E-09  1.001379E-09
       532  17 -1.459953E+06  1.026606E+05 -3.269680E+04  1.375754E+03  1.251259E-10  5.167891E-09
       532  18 -1.384894E+06 -9.286781E+04 -1.427152E+05 -2.829903E+04 -3.130375E-09  2.470207E-10
       532  19 -2.101583E+06 -5.050421E+04 -1.291362E+05  2.427657E+04 -4.440562E+04 -1.101828E+04
       532  20 -2.175180E+06 -7.343944E+04 -1.984386E+05  5.455179E+04 -1.150802E+05 -1.457505E+04
       532  21 -2.315251E+06 -3.238080E+05 -3.708007E+05  1.405558E+05 -1.857799E+05 -5.586159E+03
       532  22 -1.849951E+06  1.176453E+04 -7.113784E+04  5.552333E+04 -5.132372E+04 -1.104201E+04
       532  23 -1.817620E+06  1.461551E+04 -1.155518E+05  2.797220E+04 -1.130122E+05 -1.456322E+04
       532  24 -1.850165E+06 -2.083398E+05 -2.567269E+05  5.616061E+04 -1.747387E+05 -5.528767E+03
       532  25 -1.598258E+06  7.403246E+04 -1.314301E+04  8.678286E+04 -5.824461E+04 -1.106642E+04
       532  26 -1.459940E+06  1.026642E+05 -3.267322E+04  1.377055E+03 -1.109429E+05 -1.455158E+04
       532  27 -1.384865E+06 -9.286057E+04 -1.426647E+05 -2.829831E+04 -1.636891E+05 -5.474416E+03
       533   1 -5.690176E+05  4.038463E+04  2.397295E+04  1.307309E+04 -4.170094E+04 -4.787888E+03
       533   2 -6.310092E+05  8.877195E+04  4.387707E+04  1.190023E+04 -3.063713E+04 -1.379923E+04
       533   3 -7.112646E+05  7.064112E+04  3.992346E+04  4.763632E+04 -1.960580E+04 -1.193127E+04
       533   4 -9.831975E+05 -6.263561E+04 -7.743580E+04  3.798115E+04 -5.209713E+04 -4.819072E+03
       533   5 -9.733549E+05  4.453622E+03 -3.534801E+04  1.943011E+04 -3.321686E+04 -1.380776E+04
       533   6 -9.831529E+05  3.644763E+03 -2.256349E+04  3.779087E+04 -1.436757E+04 -1.191509E+04
       533   7 -1.397219E+06 -1.656661E+05 -1.788564E+05  6.287244E+04 -6.248638E+04 -4.851103E+03
       533   8 -1.315592E+06 -7.987271E+04 -1.145809E+05  2.695572E+04 -3.579517E+04 -1.381635E+04
       533   9 -1.254973E+06 -6.335641E+04 -8.505519E+04  2.794972E+04 -9.131614E+03 -1.189907E+04
       533  10 -5.690195E+05  4.038414E+04  2.396963E+04  1.307293E+04 -6.133805E-09  2.019563E-09
       533  11 -6.310103E+05  8.877149E+04  4.387495E+04  1.189989E+04  2.713448E-09  1.074739E-08
       533  12 -7.112651E+05  7.064087E+04  3.992247E+04  4.763613E+04  9.505937E-09  3.114096E-09
       533  13 -9.832004E+05 -6.263637E+04 -7.744095E+04  3.798095E+04  6.900429E-10 -3.831294E-09
       533  14 -9.733562E+05  4.453121E+03 -3.535044E+04  1.942974E+04  7.347453E-10 -6.357414E-09
       533  15 -9.831532E+05  3.644555E+03 -2.256415E+04  3.779074E+04 -2.687580E-10  2.646190E-09
       533  16 -1.397223E+06 -1.656672E+05 -1.788637E+05  6.287219E+04  5.172711E-09  1.455915E-09
       533  17 -1.315593E+06 -7.987326E+04 -1.145836E+05  2.695532E+04 -5.061386E-09  8.448211E-09
       533  18 -1.254973E+06 -6.335658E+04 -8.505561E+04  2.794964E+04 -9.260489E-09 -1.642387E-10
       533  19 -5.690176E+05  4.038463E+04  2.397295E+04  1.307309E+04  4.170094E+04  4.787888E+03
       533  20 -6.310092E+05  8.877195E+04  4.387707E+04  1.190023E+04  3.063713E+04  1.379923E+04
       533  21 -7.112646E+05  7.064112E+04  3.992346E+04  4.763632E+04  1.960580E+04  1.193127E+04
       533  22 -9.831975E+05 -6.263561E+04 -7.743580E+04  3.798115E+04  5.209713E+04  4.819072E+03
       533  23 -9.733549E+05  4.453622E+03 -3.534801E+04  1.943011E+04  3.321686E+04  1.380776E+04
       533  24 -9.831529E+05  3.644763E+03 -2.256349E+04  3.779087E+04  1.436757E+04  1.191509E+04
       533  25 -1.397219E+06 -1.656661E+05 -1.788564E+05  6.287244E+04  6.248638E+04  4.851103E+03
       533  26 -1.315592E+06 -7.987271E+04 -1.145809E+05  2.695572E+04  3.579517E+04  1.381635E+04
       533  27 -1.254973E+06 -6.335641E+04 -8.505519E+04  2.794972E+04  9.131614E+03  1.189907E+04
       534   1 -7.759019E+05  4.567423E+04  2.778208E+04  3.669858E+04 -1.284107E+04 -8.584981E+03
       534   2 -8.461245E+05  3.309182E+04  1.731980E+04  1.910252E+04 -6.653710E+03 -5.662032E+03
       534   3 -9.188551E+05  1.482468E+04  1.341541E+03  3.896736E+04 -4.694419E+02 -2.219145E+03
       534   4 -9.793600E+05 -4.426749E+03 -1.912479E+04  3.797712E+04 -1.093743E+04 -8.579194E+03
       534   5 -9.780665E+05  6.041271E+02 -1.305478E+04  1.923953E+04 -4.377983E+03 -5.654833E+03
       534   6 -9.793522E+05 -1.152528E+02 -1.276079E+04  3.796349E+04  2.179063E+03 -2.210490E+03
       534   7 -1.182780E+06 -5.453062E+04 -6.603440E+04  3.925521E+04 -9.034404E+03 -8.573398E+03
       534   8 -1.109992E+06 -3.188478E+04 -4.343050E+04  1.937650E+04 -2.102736E+03 -5.647632E+03
       534   9 -1.039846E+06 -1.505544E+04 -2.686335E+04  3.695971E+04  4.827312E+03 -2.201844E+03
       534  10 -7.759021E+05  4.567410E+04  2.778163E+04  3.669849E+04 -6.502255E-09 -1.314329E-09
       534  11 -8.461246E+05  3.309177E+04  1.731965E+04  1.910249E+04 -2.328902E-09  5.699932E-09
       534  12 -9.188551E+05  1.482468E+04  1.341531E+03  3.896736E+04  2.918887E-09  9.141656E-09
       534  13 -9.793602E+05 -4.426860E+03 -1.912515E+04  3.797705E+04 -1.253012E-09  1.135627E-08
       534  14 -9.780665E+05  6.040876E+02 -1.305488E+04  1.923951E+04 -3.605471E-10 -1.777025E-08
       534  15 -9.793522E+05 -1.152593E+02 -1.276081E+04  3.796349E+04 -7.321971E-10  8.349427E-09
       534  16 -1.182780E+06 -5.453072E+04 -6.603469E+04  3.925515E+04  7.029280E-09 -7.279208E-09
       534  17 -1.109992E+06 -3.188482E+04 -4.343057E+04  1.937649E+04  3.125254E-09 -4.104395E-09
       534  18 -1.039846E+06 -1.505545E+04 -2.686340E+04  3.695972E+04 -4.197610E-09 -2.642908E-09
       534  19 -7.759019E+05  4.567423E+04  2.778208E+04  3.669858E+04  1.284107E+04  8.584981E+03
       534  20 -8.461245E+05  3.309182E+04  1.731980E+04  1.910252E+04  6.653710E+03  5.662032E+03
       534  21 -9.188551E+05  1.482468E+04  1.341541E+03  3.896736E+04  4.694419E+02  2.219145E+03
       534  22 -9.793600E+05 -4.426749E+03 -1.912479E+04  3.797712E+04  1.093743E+04  8.579194E+03
       534  23 -9.780665E+05  6.041271E+02 -1.305478E+04  1.923953E+04  4.377983E+03  5.654833E+03
       534  24 -9.793522E+05 -1.152528E+02 -1.276079E+04  3.796349E+04 -2.179063E+03  2.210490E+03
       534  25 -1.182780E+06 -5.453062E+04 -6.603440E+04  3.925521E+04  9.034404E+03  8.573398E+03
       534  26 -1.109992E+06 -3.188478E+04 -4.343050E+04  1.937650E+04  2.102736E+03  5.647632E+03
       534  27 -1.039846E+06 -1.505544E+04 -2.686335E+04  3.695971E+04 -4.827312E+03  2.201844E+03
       535   1 -9.877995E+05 -1.606740E+03 -1.590259E+04  3.638067E+04  1.880329E+03 -3.443810E+01
       535   2 -1.057258E+06 -1.867599E+04 -3.753389E+04  1.982920E+04  1.188573E+04  3.429041E+03
       535   3 -1.130877E+06 -4.599271E+04 -6.831620E+04  4.078341E+04  2.189191E+04  6.440362E+03
       535   4 -9.796903E+05  4.394640E+02 -1.385147E+04  3.796832E+04  4.510328E+03 -2.580824E+01
       535   5 -9.776425E+05  9.271939E+02 -1.919740E+04  1.923030E+04  1.419152E+04  3.436445E+03
       535   6 -9.797007E+05 -8.774577E+03 -3.346711E+04  3.799788E+04  2.387461E+04  6.446511E+03
       535   7 -9.715810E+05  2.485676E+03 -1.180032E+04  3.955599E+04  7.140362E+03 -1.716496E+01
       535   8 -8.980207E+05  2.052994E+04 -8.613127E+02  1.863132E+04  1.649760E+04  3.443844E+03
       535   9 -8.285029E+05  2.844199E+04  1.380490E+03  3.521165E+04  2.585780E+04  6.452642E+03
       535  10 -9.877995E+05 -1.606741E+03 -1.590260E+04  3.638067E+04  2.413640E-09 -3.934519E-09
       535  11 -1.057259E+06 -1.867604E+04 -3.753418E+04  1.982917E+04  3.532057E-09 -4.396021E-09
       535  12 -1.130878E+06 -4.599289E+04 -6.831718E+04  4.078330E+04  4.642999E-09 -2.471662E-09
       535  13 -9.796903E+05  4.394585E+02 -1.385151E+04  3.796832E+04 -5.416060E-10  5.812794E-10
       535  14 -9.776427E+05  9.271271E+02 -1.919780E+04  1.923026E+04 -1.074583E-09 -3.346776E-09
       535  15 -9.797013E+05 -8.774775E+03 -3.346826E+04  3.799776E+04 -2.039103E-11 -3.098274E-10
       535  16 -9.715810E+05  2.485663E+03 -1.180042E+04  3.955599E+04 -2.592907E-09 -6.655422E-09
       535  17 -8.980210E+05  2.052985E+04 -8.618472E+02  1.863127E+04 -3.211565E-09  1.287465E-09
       535  18 -8.285037E+05  2.844177E+04  1.379153E+03  3.521152E+04 -5.781464E-09  9.952479E-09
       535  19 -9.877995E+05 -1.606740E+03 -1.590259E+04  3.638067E+04 -1.880329E+03  3.443810E+01
       535  20 -1.057258E+06 -1.867599E+04 -3.753389E+04  1.982920E+04 -1.188573E+04 -3.429041E+03
       535  21 -1.130877E+06 -4.599271E+04 -6.831620E+04  4.078341E+04 -2.189191E+04 -6.440362E+03
       535  22 -9.796903E+05  4.394640E+02 -1.385147E+04  3.796832E+04 -4.510328E+03  2.580824E+01
       535  23 -9.776425E+05  9.271939E+02 -1.919740E+04  1.923030E+04 -1.419152E+04 -3.436445E+03
       535  24 -9.797007E+05 -8.774577E+03 -3.346711E+04  3.799788E+04 -2.387461E+04 -6.446511E+03
       535  25 -9.715810E+05  2.485676E+03 -1.180032E+04  3.955599E+04 -7.140362E+03  1.716496E+01
       535  26 -8.980207E+05  2.052994E+04 -8.613127E+02  1.863132E+04 -1.649760E+04 -3.443844E+03
       535  27 -8.285029E+05  2.844199E+04  1.380490E+03  3.521165E+04 -2.585780E+04 -6.452642E+03
       536   1 -1.206744E+06 -4.736759E+04 -9.147660E+04  1.951480E+04  2.503429E+04  9.631774E+03
       536   2 -1.258770E+06 -6.301563E+04 -1.340304E+05  3.459320E+04  6.761315E+04  1.180030E+04
       536   3 -1.349565E+06 -2.105394E+05 -2.373646E+05  8.685430E+04  1.102154E+05  4.343383E+03
       536   4 -9.871273E+05  6.850249E+03 -4.095315E+04  3.779940E+04  2.996570E+04  9.647871E+03
       536   5 -9.683861E+05  8.466587E+03 -6.679924E+04  1.939488E+04  6.563678E+04  1.179221E+04
       536   6 -9.871984E+05 -1.205611E+05 -1.486024E+05  3.817703E+04  1.013365E+05  4.308496E+03
       536   7 -7.674652E+05  6.106595E+04  9.567369E+03  5.609050E+04  3.489885E+04  9.664255E+03
       536   8 -6.779239E+05  7.994378E+04  4.264415E+02  4.189333E+03  6.365949E+04  1.178422E+04
       536   9 -6.247063E+05 -3.058349E+04 -5.984825E+04 -1.052883E+04  9.245248E+04  4.275015E+03
       536  10 -1.206745E+06 -4.736786E+04 -9.147795E+04  1.951460E+04 -2.509811E-09 -8.661541E-09
       536  11 -1.258775E+06 -6.301701E+04 -1.340393E+05  3.459255E+04 -5.237178E-09  1.110400E-09
       536  12 -1.349578E+06 -2.105427E+05 -2.373875E+05  8.685391E+04 -1.945954E-09  6.177954E-10
       536  13 -9.871283E+05  6.849907E+03 -4.095501E+04  3.779917E+04  5.247028E-10  2.723844E-09
       536  14 -9.683907E+05  8.465279E+03 -6.680761E+04  1.939426E+04 -1.433863E-09 -1.104979E-08
       536  15 -9.872094E+05 -1.205639E+05 -1.486218E+05  3.817668E+04  1.238157E-09 -2.221092E-09
       536  16 -7.674665E+05  6.106552E+04  9.564902E+03  5.609023E+04  2.147916E-09  2.762910E-09
       536  17 -6.779283E+05  7.994254E+04  4.185567E+02  4.188729E+03  4.991922E-09  1.074096E-08
       536  18 -6.247155E+05 -3.058581E+04 -5.986436E+04 -1.052915E+04  5.613760E-10  1.301002E-09
       536  19 -1.206744E+06 -4.736759E+04 -9.147660E+04  1.951480E+04 -2.503429E+04 -9.631774E+03
       536  20 -1.258770E+06 -6.301563E+04 -1.340304E+05  3.459320E+04 -6.761315E+04 -1.180030E+04
       536  21 -1.349565E+06 -2.105394E+05 -2.373646E+05  8.685430E+04 -1.102154E+05 -4.343383E+03
       536  22 -9.871273E+05  6.850249E+03 -4.095315E+04  3.779940E+04 -2.996570E+04 -9.647871E+03
       536  23 -9.683861E+05  8.466587E+03 -6.679924E+04  1.939488E+04 -6.563678E+04 -1.179221E+04
       536  24 -9.871984E+05 -1.205611E+05 -1.486024E+05  3.817703E+04 -1.013365E+05 -4.308496E+03
       536  25 -7.674652E+05  6.106595E+04  9.567369E+03  5.609050E+04 -3.489885E+04 -9.664255E+03
       536  26 -6.779239E+05  7.994378E+04  4.264415E+02  4.189333E+03 -6.365949E+04 -1.178422E+04
       536  27 -6.247063E+05 -3.058349E+04 -5.984825E+04 -1.052883E+04 -9.245248E+04 -4.275015E+03
       537   1 -1.747338E+05  3.131395E+04  2.660739E+04  1.586726E+04 -8.830684E+03 -2.117528E+03
       537   2 -2.129937E+05  3.823823E+04  2.545402E+04  9.802733E+03 -7.512306E+03 -6.008115E+03
       537   3 -2.558161E+05  2.814247E+04  1.916691E+04  2.478941E+04 -6.208795E+03 -4.791962E+03
       537   4 -3.659932E+05 -1.627228E+04 -2.023158E+04  2.219274E+04 -1.346936E+04 -2.130984E+03
       537   5 -3.633878E+05  1.203737E+03 -9.347556E+03  1.164181E+04 -8.476147E+03 -6.011062E+03
       537   6 -3.659868E+05  1.019010E+03 -6.151560E+03  2.214272E+04 -3.497747E+03 -4.783869E+03
       537   7 -5.572192E+05 -6.386104E+04 -6.707313E+04  2.851624E+04 -1.810661E+04 -2.144537E+03
       537   8 -5.137610E+05 -3.583233E+04 -4.415064E+04  1.348041E+04 -9.439757E+03 -6.014015E+03
       537   9 -4.761463E+05 -2.610527E+04 -3.147080E+04  1.949650E+04 -7.871760E+02 -4.775799E+03
       537  10 -1.747338E+05  3.131392E+04  2.660723E+04  1.586725E+04  3.771931E-09  2.609826E-09
       537  11 -2.129937E+05  3.823818E+04  2.545385E+04  9.802697E+03 -1.167301E-09  4.896735E-09
       537  12 -2.558161E+05  2.814243E+04  1.916680E+04  2.478939E+04 -9.696861E-09  1.107478E-09
       537  13 -3.659934E+05 -1.627233E+04 -2.023193E+04  2.219272E+04 -1.338163E-09  8.869479E-09
       537  14 -3.633879E+05  1.203679E+03 -9.347759E+03  1.164176E+04 -7.357687E-10  6.145786E-09
       537  15 -3.659868E+05  1.018982E+03 -6.151626E+03  2.214271E+04  6.219606E-10 -4.654309E-10
       537  16 -5.572195E+05 -6.386114E+04 -6.707375E+04  2.851620E+04 -4.111718E-09 -1.857123E-10
       537  17 -5.137611E+05 -3.583239E+04 -4.415088E+04  1.348037E+04  1.196257E-09 -7.742034E-09
       537  18 -4.761463E+05 -2.610529E+04 -3.147085E+04  1.949650E+04  1.037530E-08 -7.475875E-09
       537  19 -1.747338E+05  3.131395E+04  2.660739E+04  1.586726E+04  8.830684E+03  2.117528E+03
       537  20 -2.129937E+05  3.823823E+04  2.545402E+04  9.802733E+03  7.512306E+03  6.008115E+03
       537  21 -2.558161E+05  2.814247E+04  1.916691E+04  2.478941E+04  6.208795E+03  4.791962E+03
       537  22 -3.659932E+05 -1.627228E+04 -2.023158E+04  2.219274E+04  1.346936E+04  2.130984E+03
       537  23 -3.633878E+05  1.203737E+03 -9.347556E+03  1.164181E+04  8.476147E+03  6.011062E+03
       537  24 -3.659868E+05  1.019010E+03 -6.151560E+03  2.214272E+04  3.497747E+03  4.783869E+03
       537  25 -5.572192E+05 -6.386104E+04 -6.707313E+04  2.851624E+04  1.810661E+04  2.144537E+03
       537  26 -5.137610E+05 -3.583233E+04 -4.415064E+04  1.348041E+04  9.439757E+03  6.014015E+03
       537  27 -4.761463E+05 -2.610527E+04 -3.147080E+04  1.949650E+04  7.871760E+02  4.775799E+03
       538   1 -2.937232E+05  1.646761E+04  1.106854E+04  2.187864E+04 -3.692499E+03 -3.020017E+03
       538   2 -3.338755E+05  7.772058E+03  3.028358E+03  1.152212E+04 -1.835431E+03 -1.307038E+03
       538   3 -3.748083E+05 -2.445408E+03 -6.637108E+03  2.240734E+04  2.074713E+01  6.431293E+02
       538   4 -3.650094E+05 -1.075323E+03 -5.348558E+03  2.220147E+04 -2.548855E+03 -3.016589E+03
       538   5 -3.646035E+05  2.097946E+02 -4.046427E+03  1.157903E+04 -5.212698E+02 -1.303068E+03
       538   6 -3.650086E+05 -5.642885E+01 -4.487927E+03  2.219841E+04  1.505547E+03  6.476519E+02
       538   7 -4.362909E+05 -1.861861E+04 -2.176599E+04  2.252426E+04 -1.405340E+03 -3.013160E+03
       538   8 -3.953306E+05 -7.352534E+03 -1.112127E+04  1.163594E+04  7.928272E+02 -1.299097E+03
       538   9 -3.552088E+05  2.332545E+03 -2.338743E+03  2.198948E+04  2.990370E+03  6.521735E+02
       538  10 -2.937232E+05  1.646759E+04  1.106850E+04  2.187863E+04 -1.516847E-08  3.597013E-09
       538  11 -3.338755E+05  7.772055E+03  3.028349E+03  1.152212E+04 -2.402485E-09 -8.201583E-09
       538  12 -3.748083E+05 -2.445408E+03 -6.637109E+03  2.240734E+04  6.805576E-09 -4.096713E-09
       538  13 -3.650094E+05 -1.075334E+03 -5.348587E+03  2.220147E+04  1.074959E-09 -2.290538E-09
       538  14 -3.646035E+05  2.097927E+02 -4.046430E+03  1.157903E+04 -8.271820E-10  7.286848E-10
       538  15 -3.650086E+05 -5.642991E+01 -4.487932E+03  2.219841E+04 -9.784172E-10  6.087618E-09
       538  16 -4.362909E+05 -1.861862E+04 -2.176601E+04  2.252426E+04  1.354537E-08  3.181806E-09
       538  17 -3.953306E+05 -7.352536E+03 -1.112127E+04  1.163594E+04  3.903489E-09 -6.874974E-09
       538  18 -3.552088E+05  2.332542E+03 -2.338760E+03  2.198948E+04 -8.972617E-09  3.453124E-09
       538  19 -2.937232E+05  1.646761E+04  1.106854E+04  2.187864E+04  3.692499E+03  3.020017E+03
       538  20 -3.338755E+05  7.772058E+03  3.028358E+03  1.152212E+04  1.835431E+03  1.307038E+03
       538  21 -3.748083E+05 -2.445408E+03 -6.637108E+03  2.240734E+04 -2.074713E+01 -6.431293E+02
       538  22 -3.650094E+05 -1.075323E+03 -5.348558E+03  2.220147E+04  2.548855E+03  3.016589E+03
       538  23 -3.646035E+05  2.097946E+02 -4.046427E+03  1.157903E+04  5.212698E+02  1.303068E+03
       538  24 -3.650086E+05 -5.642885E+01 -4.487927E+03  2.219841E+04 -1.505547E+03 -6.476519E+02
       538  25 -4.362909E+05 -1.861861E+04 -2.176599E+04  2.252426E+04  1.405340E+03  3.013160E+03
       538  26 -3.953306E+05 -7.352534E+03 -1.112127E+04  1.163594E+04 -7.928272E+02  1.299097E+03
       538  27 -3.552088E+05  2.332545E+03 -2.338743E+03  2.198948E+04 -2.990370E+03 -6.521735E+02
       539   1 -4.138480E+05 -1.173254E+04 -1.640572E+04  2.143958E+04  8.401563E+02  1.878153E+03
       539   2 -4.535080E+05 -2.154558E+04 -2.810244E+04  1.170565E+04  4.894904E+03  3.827305E+03
       539   3 -4.948867E+05 -3.551131E+04 -4.351315E+04  2.320267E+04  8.950559E+03  5.465009E+03
       539   4 -3.652024E+05  2.636188E+02 -5.117118E+03  2.219333E+04  2.346209E+03  1.882721E+03
       539   5 -3.643634E+05  3.917112E+02 -7.593442E+03  1.158366E+04  6.177288E+03  3.831102E+03
       539   6 -3.652055E+05 -3.593514E+03 -1.362781E+04  2.220480E+04  1.000954E+04  5.468051E+03
       539   7 -3.165546E+05  1.225961E+04  6.171339E+03  2.294713E+04  3.852378E+03  1.887292E+03
       539   8 -2.752115E+05  2.232845E+04  1.291503E+04  1.146164E+04  7.459856E+03  3.834899E+03
       539   9 -2.355087E+05  2.832311E+04  1.625642E+04  2.120672E+04  1.106873E+04  5.471088E+03
       539  10 -4.138480E+05 -1.173254E+04 -1.640573E+04  2.143958E+04  6.279328E-09 -3.086005E-09
       539  11 -4.535080E+05 -2.154560E+04 -2.810251E+04  1.170563E+04  1.101771E-09  1.923692E-09
       539  12 -4.948868E+05 -3.551136E+04 -4.351336E+04  2.320263E+04 -1.792995E-10 -6.217632E-09
       539  13 -3.652024E+05  2.636135E+02 -5.117135E+03  2.219332E+04  2.712841E-10 -6.270716E-09
       539  14 -3.643635E+05  3.916852E+02 -7.593541E+03  1.158364E+04 -2.798107E-09  7.333976E-09
       539  15 -3.652056E+05 -3.593573E+03 -1.362805E+04  2.220476E+04  9.505402E-10 -4.918839E-10
       539  16 -3.165546E+05  1.225961E+04  6.171304E+03  2.294713E+04 -8.851371E-09 -3.589451E-09
       539  17 -2.752116E+05  2.232842E+04  1.291490E+04  1.146162E+04 -5.545559E-10 -1.356915E-08
       539  18 -2.355089E+05  2.832304E+04  1.625613E+04  2.120667E+04  1.264391E-09 -9.315530E-10
       539  19 -4.138480E+05 -1.173254E+04 -1.640572E+04  2.143958E+04 -8.401563E+02 -1.878153E+03
       539  20 -4.535080E+05 -2.154558E+04 -2.810244E+04  1.170565E+04 -4.894904E+03 -3.827305E+03
       539  21 -4.948867E+05 -3.551131E+04 -4.351315E+04  2.320267E+04 -8.950559E+03 -5.465009E+03
       539  22 -3.652024E+05  2.636188E+02 -5.117118E+03  2.219333E+04 -2.346209E+03 -1.882721E+03
       539  23 -3.643634E+05  3.917112E+02 -7.593442E+03  1.158366E+04 -6.177288E+03 -3.831102E+03
       539  24 -3.652055E+05 -3.593514E+03 -1.362781E+04  2.220480E+04 -1.000954E+04 -5.468051E+03
       539  25 -3.165546E+05  1.225961E+04  6.171339E+03  2.294713E+04 -3.852378E+03 -1.887292E+03
       539  26 -2.752115E+05  2.232845E+04  1.291503E+04  1.146164E+04 -7.459856E+03 -3.834899E+03
       539  27 -2.355087E+05  2.832311E+04  1.625642E+04  2.120672E+04 -1.106873E+04 -5.471088E+03
       540   1 -5.367774E+05 -3.865254E+04 -5.547079E+04  1.440397E+04  9.432661E+03  7.394259E+03
       540   2 -5.691444E+05 -4.784774E+04 -7.575872E+04  1.776923E+04  2.881276E+04  8.441575E+03
       540   3 -6.178343E+05 -1.117292E+05 -1.223703E+05  4.216515E+04  4.820926E+04  2.966991E+03
       540   4 -3.682782E+05  2.858013E+03 -1.676622E+04  2.211106E+04  1.249461E+04  7.403195E+03
       540   5 -3.605329E+05  3.504136E+03 -2.750525E+04  1.166858E+04  2.718612E+04  8.436472E+03
       540   6 -3.682922E+05 -4.971207E+04 -6.130449E+04  2.225765E+04  4.189548E+04  2.947959E+03
       540   7 -1.997526E+05  4.436680E+04  2.193655E+04  2.982024E+04  1.555739E+04  7.412205E+03
       540   8 -1.518811E+05  5.485310E+04  2.074535E+04  5.565836E+03  2.555893E+04  8.431402E+03
       540   9 -1.186923E+05  1.230195E+04 -2.428539E+02  2.342078E+03  3.557917E+04  2.929337E+03
       540  10 -5.367775E+05 -3.865262E+04 -5.547106E+04  1.440392E+04  1.875987E-09 -5.881618E-09
       540  11 -5.691453E+05 -4.784804E+04 -7.576041E+04  1.776903E+04  1.951322E-09 -9.509243E-10
       540  12 -6.178368E+05 -1.117298E+05 -1.223747E+05  4.216503E+04  2.048028E-09  7.945123E-09
       540  13 -3.682784E+05  2.857912E+03 -1.676661E+04  2.211098E+04  5.420050E-10 -2.661473E-09
       540  14 -3.605337E+05  3.503861E+03 -2.750677E+04  1.166839E+04 -3.128630E-09  1.749344E-09
       540  15 -3.682941E+05 -4.971255E+04 -6.130780E+04  2.225755E+04  4.018212E-10  4.586671E-09
       540  16 -1.997529E+05  4.436667E+04  2.193599E+04  2.982014E+04 -4.167965E-09  6.152436E-09
       540  17 -1.518818E+05  5.485285E+04  2.074399E+04  5.565662E+03 -2.942138E-09  7.556583E-09
       540  18 -1.186937E+05  1.230161E+04 -2.452493E+02  2.341994E+03 -2.315778E-09 -2.188152E-09
       540  19 -5.367774E+05 -3.865254E+04 -5.547079E+04  1.440397E+04 -9.432661E+03 -7.394259E+03
       540  20 -5.691444E+05 -4.784774E+04 -7.575872E+04  1.776923E+04 -2.881276E+04 -8.441575E+03
       540  21 -6.178343E+05 -1.117292E+05 -1.223703E+05  4.216515E+04 -4.820926E+04 -2.966991E+03
       540  22 -3.682782E+05  2.858013E+03 -1.676622E+04  2.211106E+04 -1.249461E+04 -7.403195E+03
       540  23 -3.605329E+05  3.504136E+03 -2.750525E+04  1.166858E+04 -2.718612E+04 -8.436472E+03
       540  24 -3.682922E+05 -4.971207E+04 -6.130449E+04  2.225765E+04 -4.189548E+04 -2.947959E+03
       540  25 -1.997526E+05  4.436680E+04  2.193655E+04  2.982024E+04 -1.555739E+04 -7.412205E+03
       540  26 -1.518811E+05  5.485310E+04  2.074535E+04  5.565836E+03 -2.555893E+04 -8.431402E+03
       540  27 -1.186923E+05  1.230195E+04 -2.428539E+02  2.342078E+03 -3.557917E+04 -2.929337E+03
