    1C
    1UUSER                                                              
    1UDATE              12.september.2022                               
    1UTIME              21:48:33                                        
    1UHOST                                                              
    1UPGM               CalculiX                                        
    1UVERSION           Version 2.19                             
    1UCOMPILETIME       Fri Dec 17 13:15:26 CET 2021                    
    1UDIR                                                               
    1UDBN                                                               
    1UMAT    1MESH_MATERIAL                                             
    2C                          1001                                     1
 -1         1 0.00000E+00 0.00000E+00 0.00000E+00
 -1         2 8.33333E-03 0.00000E+00 0.00000E+00
 -1         3 1.66667E-02 0.00000E+00 0.00000E+00
 -1         4 2.50000E-02 0.00000E+00 0.00000E+00
 -1         5 3.33333E-02 0.00000E+00 0.00000E+00
 -1         6 4.16667E-02 0.00000E+00 0.00000E+00
 -1         7 5.00000E-02 0.00000E+00 0.00000E+00
 -1         8 5.83333E-02 0.00000E+00 0.00000E+00
 -1         9 6.66667E-02 0.00000E+00 0.00000E+00
 -1        14 0.00000E+00 6.25000E-03 0.00000E+00
 -1        15 8.33333E-03 6.25000E-03 0.00000E+00
 -1        16 1.66667E-02 6.25000E-03 0.00000E+00
 -1        17 2.50000E-02 6.25000E-03 0.00000E+00
 -1        18 3.33333E-02 6.25000E-03 0.00000E+00
 -1        19 4.16667E-02 6.25000E-03 0.00000E+00
 -1        20 5.00000E-02 6.25000E-03 0.00000E+00
 -1        21 5.83333E-02 6.25000E-03 0.00000E+00
 -1        22 6.66667E-02 6.25000E-03 0.00000E+00
 -1        27 0.00000E+00 1.25000E-02 0.00000E+00
 -1        28 8.33333E-03 1.25000E-02 0.00000E+00
 -1        29 1.66667E-02 1.25000E-02 0.00000E+00
 -1        30 2.50000E-02 1.25000E-02 0.00000E+00
 -1        31 3.33333E-02 1.25000E-02 0.00000E+00
 -1        32 4.16667E-02 1.25000E-02 0.00000E+00
 -1        33 5.00000E-02 1.25000E-02 0.00000E+00
 -1        34 5.83333E-02 1.25000E-02 0.00000E+00
 -1        35 6.66667E-02 1.25000E-02 0.00000E+00
 -1        36 7.50000E-02 1.25000E-02 0.00000E+00
 -1        37 8.33333E-02 1.25000E-02 0.00000E+00
 -1        38 9.16667E-02 1.25000E-02 0.00000E+00
 -1        39 1.00000E-01 1.25000E-02 0.00000E+00
 -1        40 0.00000E+00 1.87500E-02 0.00000E+00
 -1        41 8.33333E-03 1.87500E-02 0.00000E+00
 -1        42 1.66667E-02 1.87500E-02 0.00000E+00
 -1        43 2.50000E-02 1.87500E-02 0.00000E+00
 -1        44 3.33333E-02 1.87500E-02 0.00000E+00
 -1        45 4.16667E-02 1.87500E-02 0.00000E+00
 -1        46 5.00000E-02 1.87500E-02 0.00000E+00
 -1        47 5.83333E-02 1.87500E-02 0.00000E+00
 -1        48 6.66667E-02 1.87500E-02 0.00000E+00
 -1        49 7.50000E-02 1.87500E-02 0.00000E+00
 -1        50 8.33333E-02 1.87500E-02 0.00000E+00
 -1        51 9.16667E-02 1.87500E-02 0.00000E+00
 -1        52 1.00000E-01 1.87500E-02 0.00000E+00
 -1        53 0.00000E+00 2.50000E-02 0.00000E+00
 -1        54 8.33333E-03 2.50000E-02 0.00000E+00
 -1        55 1.66667E-02 2.50000E-02 0.00000E+00
 -1        56 2.50000E-02 2.50000E-02 0.00000E+00
 -1        57 3.33333E-02 2.50000E-02 0.00000E+00
 -1        58 4.16667E-02 2.50000E-02 0.00000E+00
 -1        59 5.00000E-02 2.50000E-02 0.00000E+00
 -1        60 5.83333E-02 2.50000E-02 0.00000E+00
 -1        61 6.66667E-02 2.50000E-02 0.00000E+00
 -1        62 7.50000E-02 2.50000E-02 0.00000E+00
 -1        63 8.33333E-02 2.50000E-02 0.00000E+00
 -1        64 9.16667E-02 2.50000E-02 0.00000E+00
 -1        65 1.00000E-01 2.50000E-02 0.00000E+00
 -1        66 1.04167E-03 0.00000E+00 0.00000E+00
 -1        67 2.08333E-03 0.00000E+00 0.00000E+00
 -1        68 3.12500E-03 0.00000E+00 0.00000E+00
 -1        69 4.16667E-03 0.00000E+00 0.00000E+00
 -1        70 5.20833E-03 0.00000E+00 0.00000E+00
 -1        71 6.25000E-03 0.00000E+00 0.00000E+00
 -1        72 7.29167E-03 0.00000E+00 0.00000E+00
 -1        73 0.00000E+00 1.04167E-03 0.00000E+00
 -1        74 0.00000E+00 2.08333E-03 0.00000E+00
 -1        75 0.00000E+00 3.12500E-03 0.00000E+00
 -1        76 0.00000E+00 4.16667E-03 0.00000E+00
 -1        77 0.00000E+00 5.20833E-03 0.00000E+00
 -1        78 8.33330E-04 6.25000E-04 0.00000E+00
 -1        79 1.66667E-03 1.25000E-03 0.00000E+00
 -1        80 2.50000E-03 1.87500E-03 0.00000E+00
 -1        81 3.33333E-03 2.50000E-03 0.00000E+00
 -1        82 4.16667E-03 3.12500E-03 0.00000E+00
 -1        83 5.00000E-03 3.75000E-03 0.00000E+00
 -1        84 5.83333E-03 4.37500E-03 0.00000E+00
 -1        85 6.66667E-03 5.00000E-03 0.00000E+00
 -1        86 7.50000E-03 5.62500E-03 0.00000E+00
 -1        87 9.37500E-03 0.00000E+00 0.00000E+00
 -1        88 1.04167E-02 0.00000E+00 0.00000E+00
 -1        89 1.14583E-02 0.00000E+00 0.00000E+00
 -1        90 1.25000E-02 0.00000E+00 0.00000E+00
 -1        91 1.35417E-02 0.00000E+00 0.00000E+00
 -1        92 1.45833E-02 0.00000E+00 0.00000E+00
 -1        93 1.56250E-02 0.00000E+00 0.00000E+00
 -1        94 8.33333E-03 1.04167E-03 0.00000E+00
 -1        95 8.33333E-03 2.08333E-03 0.00000E+00
 -1        96 8.33333E-03 3.12500E-03 0.00000E+00
 -1        97 8.33333E-03 4.16667E-03 0.00000E+00
 -1        98 8.33333E-03 5.20833E-03 0.00000E+00
 -1        99 9.16667E-03 6.25000E-04 0.00000E+00
 -1       100 1.00000E-02 1.25000E-03 0.00000E+00
 -1       101 1.08333E-02 1.87500E-03 0.00000E+00
 -1       102 1.16667E-02 2.50000E-03 0.00000E+00
 -1       103 1.25000E-02 3.12500E-03 0.00000E+00
 -1       104 1.33333E-02 3.75000E-03 0.00000E+00
 -1       105 1.41667E-02 4.37500E-03 0.00000E+00
 -1       106 1.50000E-02 5.00000E-03 0.00000E+00
 -1       107 1.58333E-02 5.62500E-03 0.00000E+00
 -1       108 1.77083E-02 0.00000E+00 0.00000E+00
 -1       109 1.87500E-02 0.00000E+00 0.00000E+00
 -1       110 1.97917E-02 0.00000E+00 0.00000E+00
 -1       111 2.08333E-02 0.00000E+00 0.00000E+00
 -1       112 2.18750E-02 0.00000E+00 0.00000E+00
 -1       113 2.29167E-02 0.00000E+00 0.00000E+00
 -1       114 2.39583E-02 0.00000E+00 0.00000E+00
 -1       115 1.66667E-02 1.04167E-03 0.00000E+00
 -1       116 1.66667E-02 2.08333E-03 0.00000E+00
 -1       117 1.66667E-02 3.12500E-03 0.00000E+00
 -1       118 1.66667E-02 4.16667E-03 0.00000E+00
 -1       119 1.66667E-02 5.20833E-03 0.00000E+00
 -1       120 1.75000E-02 6.25000E-04 0.00000E+00
 -1       121 1.83333E-02 1.25000E-03 0.00000E+00
 -1       122 1.91667E-02 1.87500E-03 0.00000E+00
 -1       123 2.00000E-02 2.50000E-03 0.00000E+00
 -1       124 2.08333E-02 3.12500E-03 0.00000E+00
 -1       125 2.16667E-02 3.75000E-03 0.00000E+00
 -1       126 2.25000E-02 4.37500E-03 0.00000E+00
 -1       127 2.33333E-02 5.00000E-03 0.00000E+00
 -1       128 2.41667E-02 5.62500E-03 0.00000E+00
 -1       129 2.60417E-02 0.00000E+00 0.00000E+00
 -1       130 2.70833E-02 0.00000E+00 0.00000E+00
 -1       131 2.81250E-02 0.00000E+00 0.00000E+00
 -1       132 2.91667E-02 0.00000E+00 0.00000E+00
 -1       133 3.02083E-02 0.00000E+00 0.00000E+00
 -1       134 3.12500E-02 0.00000E+00 0.00000E+00
 -1       135 3.22917E-02 0.00000E+00 0.00000E+00
 -1       136 2.50000E-02 1.04167E-03 0.00000E+00
 -1       137 2.50000E-02 2.08333E-03 0.00000E+00
 -1       138 2.50000E-02 3.12500E-03 0.00000E+00
 -1       139 2.50000E-02 4.16667E-03 0.00000E+00
 -1       140 2.50000E-02 5.20833E-03 0.00000E+00
 -1       141 2.58333E-02 6.25000E-04 0.00000E+00
 -1       142 2.66667E-02 1.25000E-03 0.00000E+00
 -1       143 2.75000E-02 1.87500E-03 0.00000E+00
 -1       144 2.83333E-02 2.50000E-03 0.00000E+00
 -1       145 2.91667E-02 3.12500E-03 0.00000E+00
 -1       146 3.00000E-02 3.75000E-03 0.00000E+00
 -1       147 3.08333E-02 4.37500E-03 0.00000E+00
 -1       148 3.16667E-02 5.00000E-03 0.00000E+00
 -1       149 3.25000E-02 5.62500E-03 0.00000E+00
 -1       150 3.43750E-02 0.00000E+00 0.00000E+00
 -1       151 3.54167E-02 0.00000E+00 0.00000E+00
 -1       152 3.64583E-02 0.00000E+00 0.00000E+00
 -1       153 3.75000E-02 0.00000E+00 0.00000E+00
 -1       154 3.85417E-02 0.00000E+00 0.00000E+00
 -1       155 3.95833E-02 0.00000E+00 0.00000E+00
 -1       156 4.06250E-02 0.00000E+00 0.00000E+00
 -1       157 3.33333E-02 1.04167E-03 0.00000E+00
 -1       158 3.33333E-02 2.08333E-03 0.00000E+00
 -1       159 3.33333E-02 3.12500E-03 0.00000E+00
 -1       160 3.33333E-02 4.16667E-03 0.00000E+00
 -1       161 3.33333E-02 5.20833E-03 0.00000E+00
 -1       162 3.41667E-02 6.25000E-04 0.00000E+00
 -1       163 3.50000E-02 1.25000E-03 0.00000E+00
 -1       164 3.58333E-02 1.87500E-03 0.00000E+00
 -1       165 3.66667E-02 2.50000E-03 0.00000E+00
 -1       166 3.75000E-02 3.12500E-03 0.00000E+00
 -1       167 3.83333E-02 3.75000E-03 0.00000E+00
 -1       168 3.91667E-02 4.37500E-03 0.00000E+00
 -1       169 4.00000E-02 5.00000E-03 0.00000E+00
 -1       170 4.08333E-02 5.62500E-03 0.00000E+00
 -1       171 4.27083E-02 0.00000E+00 0.00000E+00
 -1       172 4.37500E-02 0.00000E+00 0.00000E+00
 -1       173 4.47917E-02 0.00000E+00 0.00000E+00
 -1       174 4.58333E-02 0.00000E+00 0.00000E+00
 -1       175 4.68750E-02 0.00000E+00 0.00000E+00
 -1       176 4.79167E-02 0.00000E+00 0.00000E+00
 -1       177 4.89583E-02 0.00000E+00 0.00000E+00
 -1       178 4.16667E-02 1.04167E-03 0.00000E+00
 -1       179 4.16667E-02 2.08333E-03 0.00000E+00
 -1       180 4.16667E-02 3.12500E-03 0.00000E+00
 -1       181 4.16667E-02 4.16667E-03 0.00000E+00
 -1       182 4.16667E-02 5.20833E-03 0.00000E+00
 -1       183 4.25000E-02 6.25000E-04 0.00000E+00
 -1       184 4.33333E-02 1.25000E-03 0.00000E+00
 -1       185 4.41667E-02 1.87500E-03 0.00000E+00
 -1       186 4.50000E-02 2.50000E-03 0.00000E+00
 -1       187 4.58333E-02 3.12500E-03 0.00000E+00
 -1       188 4.66667E-02 3.75000E-03 0.00000E+00
 -1       189 4.75000E-02 4.37500E-03 0.00000E+00
 -1       190 4.83333E-02 5.00000E-03 0.00000E+00
 -1       191 4.91667E-02 5.62500E-03 0.00000E+00
 -1       192 5.10417E-02 0.00000E+00 0.00000E+00
 -1       193 5.20833E-02 0.00000E+00 0.00000E+00
 -1       194 5.31250E-02 0.00000E+00 0.00000E+00
 -1       195 5.41667E-02 0.00000E+00 0.00000E+00
 -1       196 5.52083E-02 0.00000E+00 0.00000E+00
 -1       197 5.62500E-02 0.00000E+00 0.00000E+00
 -1       198 5.72917E-02 0.00000E+00 0.00000E+00
 -1       199 5.00000E-02 1.04167E-03 0.00000E+00
 -1       200 5.00000E-02 2.08333E-03 0.00000E+00
 -1       201 5.00000E-02 3.12500E-03 0.00000E+00
 -1       202 5.00000E-02 4.16667E-03 0.00000E+00
 -1       203 5.00000E-02 5.20833E-03 0.00000E+00
 -1       204 5.08333E-02 6.25000E-04 0.00000E+00
 -1       205 5.16667E-02 1.25000E-03 0.00000E+00
 -1       206 5.25000E-02 1.87500E-03 0.00000E+00
 -1       207 5.33333E-02 2.50000E-03 0.00000E+00
 -1       208 5.41667E-02 3.12500E-03 0.00000E+00
 -1       209 5.50000E-02 3.75000E-03 0.00000E+00
 -1       210 5.58333E-02 4.37500E-03 0.00000E+00
 -1       211 5.66667E-02 5.00000E-03 0.00000E+00
 -1       212 5.75000E-02 5.62500E-03 0.00000E+00
 -1       213 5.93750E-02 0.00000E+00 0.00000E+00
 -1       214 6.04167E-02 0.00000E+00 0.00000E+00
 -1       215 6.14583E-02 0.00000E+00 0.00000E+00
 -1       216 6.25000E-02 0.00000E+00 0.00000E+00
 -1       217 6.35417E-02 0.00000E+00 0.00000E+00
 -1       218 6.45833E-02 0.00000E+00 0.00000E+00
 -1       219 6.56250E-02 0.00000E+00 0.00000E+00
 -1       220 5.83333E-02 1.04167E-03 0.00000E+00
 -1       221 5.83333E-02 2.08333E-03 0.00000E+00
 -1       222 5.83333E-02 3.12500E-03 0.00000E+00
 -1       223 5.83333E-02 4.16667E-03 0.00000E+00
 -1       224 5.83333E-02 5.20833E-03 0.00000E+00
 -1       225 5.91667E-02 6.25000E-04 0.00000E+00
 -1       226 6.00000E-02 1.25000E-03 0.00000E+00
 -1       227 6.08333E-02 1.87500E-03 0.00000E+00
 -1       228 6.16667E-02 2.50000E-03 0.00000E+00
 -1       229 6.25000E-02 3.12500E-03 0.00000E+00
 -1       230 6.33333E-02 3.75000E-03 0.00000E+00
 -1       231 6.41667E-02 4.37500E-03 0.00000E+00
 -1       232 6.50000E-02 5.00000E-03 0.00000E+00
 -1       233 6.58333E-02 5.62500E-03 0.00000E+00
 -1       241 6.66667E-02 1.04167E-03 0.00000E+00
 -1       242 6.66667E-02 2.08333E-03 0.00000E+00
 -1       243 6.66667E-02 3.12500E-03 0.00000E+00
 -1       244 6.66667E-02 4.16667E-03 0.00000E+00
 -1       245 6.66667E-02 5.20833E-03 0.00000E+00
 -1       323 1.04167E-03 6.25000E-03 0.00000E+00
 -1       324 2.08333E-03 6.25000E-03 0.00000E+00
 -1       325 3.12500E-03 6.25000E-03 0.00000E+00
 -1       326 4.16667E-03 6.25000E-03 0.00000E+00
 -1       327 5.20833E-03 6.25000E-03 0.00000E+00
 -1       328 6.25000E-03 6.25000E-03 0.00000E+00
 -1       329 7.29167E-03 6.25000E-03 0.00000E+00
 -1       330 0.00000E+00 7.29167E-03 0.00000E+00
 -1       331 0.00000E+00 8.33333E-03 0.00000E+00
 -1       332 0.00000E+00 9.37500E-03 0.00000E+00
 -1       333 0.00000E+00 1.04167E-02 0.00000E+00
 -1       334 0.00000E+00 1.14583E-02 0.00000E+00
 -1       335 8.33330E-04 6.87500E-03 0.00000E+00
 -1       336 1.66667E-03 7.50000E-03 0.00000E+00
 -1       337 2.50000E-03 8.12500E-03 0.00000E+00
 -1       338 3.33333E-03 8.75000E-03 0.00000E+00
 -1       339 4.16667E-03 9.37500E-03 0.00000E+00
 -1       340 5.00000E-03 1.00000E-02 0.00000E+00
 -1       341 5.83333E-03 1.06250E-02 0.00000E+00
 -1       342 6.66667E-03 1.12500E-02 0.00000E+00
 -1       343 7.50000E-03 1.18750E-02 0.00000E+00
 -1       344 9.37500E-03 6.25000E-03 0.00000E+00
 -1       345 1.04167E-02 6.25000E-03 0.00000E+00
 -1       346 1.14583E-02 6.25000E-03 0.00000E+00
 -1       347 1.25000E-02 6.25000E-03 0.00000E+00
 -1       348 1.35417E-02 6.25000E-03 0.00000E+00
 -1       349 1.45833E-02 6.25000E-03 0.00000E+00
 -1       350 1.56250E-02 6.25000E-03 0.00000E+00
 -1       351 8.33333E-03 7.29167E-03 0.00000E+00
 -1       352 8.33333E-03 8.33333E-03 0.00000E+00
 -1       353 8.33333E-03 9.37500E-03 0.00000E+00
 -1       354 8.33333E-03 1.04167E-02 0.00000E+00
 -1       355 8.33333E-03 1.14583E-02 0.00000E+00
 -1       356 9.16667E-03 6.87500E-03 0.00000E+00
 -1       357 1.00000E-02 7.50000E-03 0.00000E+00
 -1       358 1.08333E-02 8.12500E-03 0.00000E+00
 -1       359 1.16667E-02 8.75000E-03 0.00000E+00
 -1       360 1.25000E-02 9.37500E-03 0.00000E+00
 -1       361 1.33333E-02 1.00000E-02 0.00000E+00
 -1       362 1.41667E-02 1.06250E-02 0.00000E+00
 -1       363 1.50000E-02 1.12500E-02 0.00000E+00
 -1       364 1.58333E-02 1.18750E-02 0.00000E+00
 -1       365 1.77083E-02 6.25000E-03 0.00000E+00
 -1       366 1.87500E-02 6.25000E-03 0.00000E+00
 -1       367 1.97917E-02 6.25000E-03 0.00000E+00
 -1       368 2.08333E-02 6.25000E-03 0.00000E+00
 -1       369 2.18750E-02 6.25000E-03 0.00000E+00
 -1       370 2.29167E-02 6.25000E-03 0.00000E+00
 -1       371 2.39583E-02 6.25000E-03 0.00000E+00
 -1       372 1.66667E-02 7.29167E-03 0.00000E+00
 -1       373 1.66667E-02 8.33333E-03 0.00000E+00
 -1       374 1.66667E-02 9.37500E-03 0.00000E+00
 -1       375 1.66667E-02 1.04167E-02 0.00000E+00
 -1       376 1.66667E-02 1.14583E-02 0.00000E+00
 -1       377 1.75000E-02 6.87500E-03 0.00000E+00
 -1       378 1.83333E-02 7.50000E-03 0.00000E+00
 -1       379 1.91667E-02 8.12500E-03 0.00000E+00
 -1       380 2.00000E-02 8.75000E-03 0.00000E+00
 -1       381 2.08333E-02 9.37500E-03 0.00000E+00
 -1       382 2.16667E-02 1.00000E-02 0.00000E+00
 -1       383 2.25000E-02 1.06250E-02 0.00000E+00
 -1       384 2.33333E-02 1.12500E-02 0.00000E+00
 -1       385 2.41667E-02 1.18750E-02 0.00000E+00
 -1       386 2.60417E-02 6.25000E-03 0.00000E+00
 -1       387 2.70833E-02 6.25000E-03 0.00000E+00
 -1       388 2.81250E-02 6.25000E-03 0.00000E+00
 -1       389 2.91667E-02 6.25000E-03 0.00000E+00
 -1       390 3.02083E-02 6.25000E-03 0.00000E+00
 -1       391 3.12500E-02 6.25000E-03 0.00000E+00
 -1       392 3.22917E-02 6.25000E-03 0.00000E+00
 -1       393 2.50000E-02 7.29167E-03 0.00000E+00
 -1       394 2.50000E-02 8.33333E-03 0.00000E+00
 -1       395 2.50000E-02 9.37500E-03 0.00000E+00
 -1       396 2.50000E-02 1.04167E-02 0.00000E+00
 -1       397 2.50000E-02 1.14583E-02 0.00000E+00
 -1       398 2.58333E-02 6.87500E-03 0.00000E+00
 -1       399 2.66667E-02 7.50000E-03 0.00000E+00
 -1       400 2.75000E-02 8.12500E-03 0.00000E+00
 -1       401 2.83333E-02 8.75000E-03 0.00000E+00
 -1       402 2.91667E-02 9.37500E-03 0.00000E+00
 -1       403 3.00000E-02 1.00000E-02 0.00000E+00
 -1       404 3.08333E-02 1.06250E-02 0.00000E+00
 -1       405 3.16667E-02 1.12500E-02 0.00000E+00
 -1       406 3.25000E-02 1.18750E-02 0.00000E+00
 -1       407 3.43750E-02 6.25000E-03 0.00000E+00
 -1       408 3.54167E-02 6.25000E-03 0.00000E+00
 -1       409 3.64583E-02 6.25000E-03 0.00000E+00
 -1       410 3.75000E-02 6.25000E-03 0.00000E+00
 -1       411 3.85417E-02 6.25000E-03 0.00000E+00
 -1       412 3.95833E-02 6.25000E-03 0.00000E+00
 -1       413 4.06250E-02 6.25000E-03 0.00000E+00
 -1       414 3.33333E-02 7.29167E-03 0.00000E+00
 -1       415 3.33333E-02 8.33333E-03 0.00000E+00
 -1       416 3.33333E-02 9.37500E-03 0.00000E+00
 -1       417 3.33333E-02 1.04167E-02 0.00000E+00
 -1       418 3.33333E-02 1.14583E-02 0.00000E+00
 -1       419 3.41667E-02 6.87500E-03 0.00000E+00
 -1       420 3.50000E-02 7.50000E-03 0.00000E+00
 -1       421 3.58333E-02 8.12500E-03 0.00000E+00
 -1       422 3.66667E-02 8.75000E-03 0.00000E+00
 -1       423 3.75000E-02 9.37500E-03 0.00000E+00
 -1       424 3.83333E-02 1.00000E-02 0.00000E+00
 -1       425 3.91667E-02 1.06250E-02 0.00000E+00
 -1       426 4.00000E-02 1.12500E-02 0.00000E+00
 -1       427 4.08333E-02 1.18750E-02 0.00000E+00
 -1       428 4.27083E-02 6.25000E-03 0.00000E+00
 -1       429 4.37500E-02 6.25000E-03 0.00000E+00
 -1       430 4.47917E-02 6.25000E-03 0.00000E+00
 -1       431 4.58333E-02 6.25000E-03 0.00000E+00
 -1       432 4.68750E-02 6.25000E-03 0.00000E+00
 -1       433 4.79167E-02 6.25000E-03 0.00000E+00
 -1       434 4.89583E-02 6.25000E-03 0.00000E+00
 -1       435 4.16667E-02 7.29167E-03 0.00000E+00
 -1       436 4.16667E-02 8.33333E-03 0.00000E+00
 -1       437 4.16667E-02 9.37500E-03 0.00000E+00
 -1       438 4.16667E-02 1.04167E-02 0.00000E+00
 -1       439 4.16667E-02 1.14583E-02 0.00000E+00
 -1       440 4.25000E-02 6.87500E-03 0.00000E+00
 -1       441 4.33333E-02 7.50000E-03 0.00000E+00
 -1       442 4.41667E-02 8.12500E-03 0.00000E+00
 -1       443 4.50000E-02 8.75000E-03 0.00000E+00
 -1       444 4.58333E-02 9.37500E-03 0.00000E+00
 -1       445 4.66667E-02 1.00000E-02 0.00000E+00
 -1       446 4.75000E-02 1.06250E-02 0.00000E+00
 -1       447 4.83333E-02 1.12500E-02 0.00000E+00
 -1       448 4.91667E-02 1.18750E-02 0.00000E+00
 -1       449 5.10417E-02 6.25000E-03 0.00000E+00
 -1       450 5.20833E-02 6.25000E-03 0.00000E+00
 -1       451 5.31250E-02 6.25000E-03 0.00000E+00
 -1       452 5.41667E-02 6.25000E-03 0.00000E+00
 -1       453 5.52083E-02 6.25000E-03 0.00000E+00
 -1       454 5.62500E-02 6.25000E-03 0.00000E+00
 -1       455 5.72917E-02 6.25000E-03 0.00000E+00
 -1       456 5.00000E-02 7.29167E-03 0.00000E+00
 -1       457 5.00000E-02 8.33333E-03 0.00000E+00
 -1       458 5.00000E-02 9.37500E-03 0.00000E+00
 -1       459 5.00000E-02 1.04167E-02 0.00000E+00
 -1       460 5.00000E-02 1.14583E-02 0.00000E+00
 -1       461 5.08333E-02 6.87500E-03 0.00000E+00
 -1       462 5.16667E-02 7.50000E-03 0.00000E+00
 -1       463 5.25000E-02 8.12500E-03 0.00000E+00
 -1       464 5.33333E-02 8.75000E-03 0.00000E+00
 -1       465 5.41667E-02 9.37500E-03 0.00000E+00
 -1       466 5.50000E-02 1.00000E-02 0.00000E+00
 -1       467 5.58333E-02 1.06250E-02 0.00000E+00
 -1       468 5.66667E-02 1.12500E-02 0.00000E+00
 -1       469 5.75000E-02 1.18750E-02 0.00000E+00
 -1       470 5.93750E-02 6.25000E-03 0.00000E+00
 -1       471 6.04167E-02 6.25000E-03 0.00000E+00
 -1       472 6.14583E-02 6.25000E-03 0.00000E+00
 -1       473 6.25000E-02 6.25000E-03 0.00000E+00
 -1       474 6.35417E-02 6.25000E-03 0.00000E+00
 -1       475 6.45833E-02 6.25000E-03 0.00000E+00
 -1       476 6.56250E-02 6.25000E-03 0.00000E+00
 -1       477 5.83333E-02 7.29167E-03 0.00000E+00
 -1       478 5.83333E-02 8.33333E-03 0.00000E+00
 -1       479 5.83333E-02 9.37500E-03 0.00000E+00
 -1       480 5.83333E-02 1.04167E-02 0.00000E+00
 -1       481 5.83333E-02 1.14583E-02 0.00000E+00
 -1       482 5.91667E-02 6.87500E-03 0.00000E+00
 -1       483 6.00000E-02 7.50000E-03 0.00000E+00
 -1       484 6.08333E-02 8.12500E-03 0.00000E+00
 -1       485 6.16667E-02 8.75000E-03 0.00000E+00
 -1       486 6.25000E-02 9.37500E-03 0.00000E+00
 -1       487 6.33333E-02 1.00000E-02 0.00000E+00
 -1       488 6.41667E-02 1.06250E-02 0.00000E+00
 -1       489 6.50000E-02 1.12500E-02 0.00000E+00
 -1       490 6.58333E-02 1.18750E-02 0.00000E+00
 -1       498 6.66667E-02 7.29167E-03 0.00000E+00
 -1       499 6.66667E-02 8.33333E-03 0.00000E+00
 -1       500 6.66667E-02 9.37500E-03 0.00000E+00
 -1       501 6.66667E-02 1.04167E-02 0.00000E+00
 -1       502 6.66667E-02 1.14583E-02 0.00000E+00
 -1       580 1.04167E-03 1.25000E-02 0.00000E+00
 -1       581 2.08333E-03 1.25000E-02 0.00000E+00
 -1       582 3.12500E-03 1.25000E-02 0.00000E+00
 -1       583 4.16667E-03 1.25000E-02 0.00000E+00
 -1       584 5.20833E-03 1.25000E-02 0.00000E+00
 -1       585 6.25000E-03 1.25000E-02 0.00000E+00
 -1       586 7.29167E-03 1.25000E-02 0.00000E+00
 -1       587 0.00000E+00 1.35417E-02 0.00000E+00
 -1       588 0.00000E+00 1.45833E-02 0.00000E+00
 -1       589 0.00000E+00 1.56250E-02 0.00000E+00
 -1       590 0.00000E+00 1.66667E-02 0.00000E+00
 -1       591 0.00000E+00 1.77083E-02 0.00000E+00
 -1       592 8.33330E-04 1.31250E-02 0.00000E+00
 -1       593 1.66667E-03 1.37500E-02 0.00000E+00
 -1       594 2.50000E-03 1.43750E-02 0.00000E+00
 -1       595 3.33333E-03 1.50000E-02 0.00000E+00
 -1       596 4.16667E-03 1.56250E-02 0.00000E+00
 -1       597 5.00000E-03 1.62500E-02 0.00000E+00
 -1       598 5.83333E-03 1.68750E-02 0.00000E+00
 -1       599 6.66667E-03 1.75000E-02 0.00000E+00
 -1       600 7.50000E-03 1.81250E-02 0.00000E+00
 -1       601 9.37500E-03 1.25000E-02 0.00000E+00
 -1       602 1.04167E-02 1.25000E-02 0.00000E+00
 -1       603 1.14583E-02 1.25000E-02 0.00000E+00
 -1       604 1.25000E-02 1.25000E-02 0.00000E+00
 -1       605 1.35417E-02 1.25000E-02 0.00000E+00
 -1       606 1.45833E-02 1.25000E-02 0.00000E+00
 -1       607 1.56250E-02 1.25000E-02 0.00000E+00
 -1       608 8.33333E-03 1.35417E-02 0.00000E+00
 -1       609 8.33333E-03 1.45833E-02 0.00000E+00
 -1       610 8.33333E-03 1.56250E-02 0.00000E+00
 -1       611 8.33333E-03 1.66667E-02 0.00000E+00
 -1       612 8.33333E-03 1.77083E-02 0.00000E+00
 -1       613 9.16667E-03 1.31250E-02 0.00000E+00
 -1       614 1.00000E-02 1.37500E-02 0.00000E+00
 -1       615 1.08333E-02 1.43750E-02 0.00000E+00
 -1       616 1.16667E-02 1.50000E-02 0.00000E+00
 -1       617 1.25000E-02 1.56250E-02 0.00000E+00
 -1       618 1.33333E-02 1.62500E-02 0.00000E+00
 -1       619 1.41667E-02 1.68750E-02 0.00000E+00
 -1       620 1.50000E-02 1.75000E-02 0.00000E+00
 -1       621 1.58333E-02 1.81250E-02 0.00000E+00
 -1       622 1.77083E-02 1.25000E-02 0.00000E+00
 -1       623 1.87500E-02 1.25000E-02 0.00000E+00
 -1       624 1.97917E-02 1.25000E-02 0.00000E+00
 -1       625 2.08333E-02 1.25000E-02 0.00000E+00
 -1       626 2.18750E-02 1.25000E-02 0.00000E+00
 -1       627 2.29167E-02 1.25000E-02 0.00000E+00
 -1       628 2.39583E-02 1.25000E-02 0.00000E+00
 -1       629 1.66667E-02 1.35417E-02 0.00000E+00
 -1       630 1.66667E-02 1.45833E-02 0.00000E+00
 -1       631 1.66667E-02 1.56250E-02 0.00000E+00
 -1       632 1.66667E-02 1.66667E-02 0.00000E+00
 -1       633 1.66667E-02 1.77083E-02 0.00000E+00
 -1       634 1.75000E-02 1.31250E-02 0.00000E+00
 -1       635 1.83333E-02 1.37500E-02 0.00000E+00
 -1       636 1.91667E-02 1.43750E-02 0.00000E+00
 -1       637 2.00000E-02 1.50000E-02 0.00000E+00
 -1       638 2.08333E-02 1.56250E-02 0.00000E+00
 -1       639 2.16667E-02 1.62500E-02 0.00000E+00
 -1       640 2.25000E-02 1.68750E-02 0.00000E+00
 -1       641 2.33333E-02 1.75000E-02 0.00000E+00
 -1       642 2.41667E-02 1.81250E-02 0.00000E+00
 -1       643 2.60417E-02 1.25000E-02 0.00000E+00
 -1       644 2.70833E-02 1.25000E-02 0.00000E+00
 -1       645 2.81250E-02 1.25000E-02 0.00000E+00
 -1       646 2.91667E-02 1.25000E-02 0.00000E+00
 -1       647 3.02083E-02 1.25000E-02 0.00000E+00
 -1       648 3.12500E-02 1.25000E-02 0.00000E+00
 -1       649 3.22917E-02 1.25000E-02 0.00000E+00
 -1       650 2.50000E-02 1.35417E-02 0.00000E+00
 -1       651 2.50000E-02 1.45833E-02 0.00000E+00
 -1       652 2.50000E-02 1.56250E-02 0.00000E+00
 -1       653 2.50000E-02 1.66667E-02 0.00000E+00
 -1       654 2.50000E-02 1.77083E-02 0.00000E+00
 -1       655 2.58333E-02 1.31250E-02 0.00000E+00
 -1       656 2.66667E-02 1.37500E-02 0.00000E+00
 -1       657 2.75000E-02 1.43750E-02 0.00000E+00
 -1       658 2.83333E-02 1.50000E-02 0.00000E+00
 -1       659 2.91667E-02 1.56250E-02 0.00000E+00
 -1       660 3.00000E-02 1.62500E-02 0.00000E+00
 -1       661 3.08333E-02 1.68750E-02 0.00000E+00
 -1       662 3.16667E-02 1.75000E-02 0.00000E+00
 -1       663 3.25000E-02 1.81250E-02 0.00000E+00
 -1       664 3.43750E-02 1.25000E-02 0.00000E+00
 -1       665 3.54167E-02 1.25000E-02 0.00000E+00
 -1       666 3.64583E-02 1.25000E-02 0.00000E+00
 -1       667 3.75000E-02 1.25000E-02 0.00000E+00
 -1       668 3.85417E-02 1.25000E-02 0.00000E+00
 -1       669 3.95833E-02 1.25000E-02 0.00000E+00
 -1       670 4.06250E-02 1.25000E-02 0.00000E+00
 -1       671 3.33333E-02 1.35417E-02 0.00000E+00
 -1       672 3.33333E-02 1.45833E-02 0.00000E+00
 -1       673 3.33333E-02 1.56250E-02 0.00000E+00
 -1       674 3.33333E-02 1.66667E-02 0.00000E+00
 -1       675 3.33333E-02 1.77083E-02 0.00000E+00
 -1       676 3.41667E-02 1.31250E-02 0.00000E+00
 -1       677 3.50000E-02 1.37500E-02 0.00000E+00
 -1       678 3.58333E-02 1.43750E-02 0.00000E+00
 -1       679 3.66667E-02 1.50000E-02 0.00000E+00
 -1       680 3.75000E-02 1.56250E-02 0.00000E+00
 -1       681 3.83333E-02 1.62500E-02 0.00000E+00
 -1       682 3.91667E-02 1.68750E-02 0.00000E+00
 -1       683 4.00000E-02 1.75000E-02 0.00000E+00
 -1       684 4.08333E-02 1.81250E-02 0.00000E+00
 -1       685 4.27083E-02 1.25000E-02 0.00000E+00
 -1       686 4.37500E-02 1.25000E-02 0.00000E+00
 -1       687 4.47917E-02 1.25000E-02 0.00000E+00
 -1       688 4.58333E-02 1.25000E-02 0.00000E+00
 -1       689 4.68750E-02 1.25000E-02 0.00000E+00
 -1       690 4.79167E-02 1.25000E-02 0.00000E+00
 -1       691 4.89583E-02 1.25000E-02 0.00000E+00
 -1       692 4.16667E-02 1.35417E-02 0.00000E+00
 -1       693 4.16667E-02 1.45833E-02 0.00000E+00
 -1       694 4.16667E-02 1.56250E-02 0.00000E+00
 -1       695 4.16667E-02 1.66667E-02 0.00000E+00
 -1       696 4.16667E-02 1.77083E-02 0.00000E+00
 -1       697 4.25000E-02 1.31250E-02 0.00000E+00
 -1       698 4.33333E-02 1.37500E-02 0.00000E+00
 -1       699 4.41667E-02 1.43750E-02 0.00000E+00
 -1       700 4.50000E-02 1.50000E-02 0.00000E+00
 -1       701 4.58333E-02 1.56250E-02 0.00000E+00
 -1       702 4.66667E-02 1.62500E-02 0.00000E+00
 -1       703 4.75000E-02 1.68750E-02 0.00000E+00
 -1       704 4.83333E-02 1.75000E-02 0.00000E+00
 -1       705 4.91667E-02 1.81250E-02 0.00000E+00
 -1       706 5.10417E-02 1.25000E-02 0.00000E+00
 -1       707 5.20833E-02 1.25000E-02 0.00000E+00
 -1       708 5.31250E-02 1.25000E-02 0.00000E+00
 -1       709 5.41667E-02 1.25000E-02 0.00000E+00
 -1       710 5.52083E-02 1.25000E-02 0.00000E+00
 -1       711 5.62500E-02 1.25000E-02 0.00000E+00
 -1       712 5.72917E-02 1.25000E-02 0.00000E+00
 -1       713 5.00000E-02 1.35417E-02 0.00000E+00
 -1       714 5.00000E-02 1.45833E-02 0.00000E+00
 -1       715 5.00000E-02 1.56250E-02 0.00000E+00
 -1       716 5.00000E-02 1.66667E-02 0.00000E+00
 -1       717 5.00000E-02 1.77083E-02 0.00000E+00
 -1       718 5.08333E-02 1.31250E-02 0.00000E+00
 -1       719 5.16667E-02 1.37500E-02 0.00000E+00
 -1       720 5.25000E-02 1.43750E-02 0.00000E+00
 -1       721 5.33333E-02 1.50000E-02 0.00000E+00
 -1       722 5.41667E-02 1.56250E-02 0.00000E+00
 -1       723 5.50000E-02 1.62500E-02 0.00000E+00
 -1       724 5.58333E-02 1.68750E-02 0.00000E+00
 -1       725 5.66667E-02 1.75000E-02 0.00000E+00
 -1       726 5.75000E-02 1.81250E-02 0.00000E+00
 -1       727 5.93750E-02 1.25000E-02 0.00000E+00
 -1       728 6.04167E-02 1.25000E-02 0.00000E+00
 -1       729 6.14583E-02 1.25000E-02 0.00000E+00
 -1       730 6.25000E-02 1.25000E-02 0.00000E+00
 -1       731 6.35417E-02 1.25000E-02 0.00000E+00
 -1       732 6.45833E-02 1.25000E-02 0.00000E+00
 -1       733 6.56250E-02 1.25000E-02 0.00000E+00
 -1       734 5.83333E-02 1.35417E-02 0.00000E+00
 -1       735 5.83333E-02 1.45833E-02 0.00000E+00
 -1       736 5.83333E-02 1.56250E-02 0.00000E+00
 -1       737 5.83333E-02 1.66667E-02 0.00000E+00
 -1       738 5.83333E-02 1.77083E-02 0.00000E+00
 -1       739 5.91667E-02 1.31250E-02 0.00000E+00
 -1       740 6.00000E-02 1.37500E-02 0.00000E+00
 -1       741 6.08333E-02 1.43750E-02 0.00000E+00
 -1       742 6.16667E-02 1.50000E-02 0.00000E+00
 -1       743 6.25000E-02 1.56250E-02 0.00000E+00
 -1       744 6.33333E-02 1.62500E-02 0.00000E+00
 -1       745 6.41667E-02 1.68750E-02 0.00000E+00
 -1       746 6.50000E-02 1.75000E-02 0.00000E+00
 -1       747 6.58333E-02 1.81250E-02 0.00000E+00
 -1       748 6.77083E-02 1.25000E-02 0.00000E+00
 -1       749 6.87500E-02 1.25000E-02 0.00000E+00
 -1       750 6.97917E-02 1.25000E-02 0.00000E+00
 -1       751 7.08333E-02 1.25000E-02 0.00000E+00
 -1       752 7.18750E-02 1.25000E-02 0.00000E+00
 -1       753 7.29167E-02 1.25000E-02 0.00000E+00
 -1       754 7.39583E-02 1.25000E-02 0.00000E+00
 -1       755 6.66667E-02 1.35417E-02 0.00000E+00
 -1       756 6.66667E-02 1.45833E-02 0.00000E+00
 -1       757 6.66667E-02 1.56250E-02 0.00000E+00
 -1       758 6.66667E-02 1.66667E-02 0.00000E+00
 -1       759 6.66667E-02 1.77083E-02 0.00000E+00
 -1       760 6.75000E-02 1.31250E-02 0.00000E+00
 -1       761 6.83333E-02 1.37500E-02 0.00000E+00
 -1       762 6.91667E-02 1.43750E-02 0.00000E+00
 -1       763 7.00000E-02 1.50000E-02 0.00000E+00
 -1       764 7.08333E-02 1.56250E-02 0.00000E+00
 -1       765 7.16667E-02 1.62500E-02 0.00000E+00
 -1       766 7.25000E-02 1.68750E-02 0.00000E+00
 -1       767 7.33333E-02 1.75000E-02 0.00000E+00
 -1       768 7.41667E-02 1.81250E-02 0.00000E+00
 -1       769 7.60417E-02 1.25000E-02 0.00000E+00
 -1       770 7.70833E-02 1.25000E-02 0.00000E+00
 -1       771 7.81250E-02 1.25000E-02 0.00000E+00
 -1       772 7.91667E-02 1.25000E-02 0.00000E+00
 -1       773 8.02083E-02 1.25000E-02 0.00000E+00
 -1       774 8.12500E-02 1.25000E-02 0.00000E+00
 -1       775 8.22917E-02 1.25000E-02 0.00000E+00
 -1       776 7.50000E-02 1.35417E-02 0.00000E+00
 -1       777 7.50000E-02 1.45833E-02 0.00000E+00
 -1       778 7.50000E-02 1.56250E-02 0.00000E+00
 -1       779 7.50000E-02 1.66667E-02 0.00000E+00
 -1       780 7.50000E-02 1.77083E-02 0.00000E+00
 -1       781 7.58333E-02 1.31250E-02 0.00000E+00
 -1       782 7.66667E-02 1.37500E-02 0.00000E+00
 -1       783 7.75000E-02 1.43750E-02 0.00000E+00
 -1       784 7.83333E-02 1.50000E-02 0.00000E+00
 -1       785 7.91667E-02 1.56250E-02 0.00000E+00
 -1       786 8.00000E-02 1.62500E-02 0.00000E+00
 -1       787 8.08333E-02 1.68750E-02 0.00000E+00
 -1       788 8.16667E-02 1.75000E-02 0.00000E+00
 -1       789 8.25000E-02 1.81250E-02 0.00000E+00
 -1       790 8.43750E-02 1.25000E-02 0.00000E+00
 -1       791 8.54167E-02 1.25000E-02 0.00000E+00
 -1       792 8.64583E-02 1.25000E-02 0.00000E+00
 -1       793 8.75000E-02 1.25000E-02 0.00000E+00
 -1       794 8.85417E-02 1.25000E-02 0.00000E+00
 -1       795 8.95833E-02 1.25000E-02 0.00000E+00
 -1       796 9.06250E-02 1.25000E-02 0.00000E+00
 -1       797 8.33333E-02 1.35417E-02 0.00000E+00
 -1       798 8.33333E-02 1.45833E-02 0.00000E+00
 -1       799 8.33333E-02 1.56250E-02 0.00000E+00
 -1       800 8.33333E-02 1.66667E-02 0.00000E+00
 -1       801 8.33333E-02 1.77083E-02 0.00000E+00
 -1       802 8.41667E-02 1.31250E-02 0.00000E+00
 -1       803 8.50000E-02 1.37500E-02 0.00000E+00
 -1       804 8.58333E-02 1.43750E-02 0.00000E+00
 -1       805 8.66667E-02 1.50000E-02 0.00000E+00
 -1       806 8.75000E-02 1.56250E-02 0.00000E+00
 -1       807 8.83333E-02 1.62500E-02 0.00000E+00
 -1       808 8.91667E-02 1.68750E-02 0.00000E+00
 -1       809 9.00000E-02 1.75000E-02 0.00000E+00
 -1       810 9.08333E-02 1.81250E-02 0.00000E+00
 -1       811 9.27083E-02 1.25000E-02 0.00000E+00
 -1       812 9.37500E-02 1.25000E-02 0.00000E+00
 -1       813 9.47917E-02 1.25000E-02 0.00000E+00
 -1       814 9.58333E-02 1.25000E-02 0.00000E+00
 -1       815 9.68750E-02 1.25000E-02 0.00000E+00
 -1       816 9.79167E-02 1.25000E-02 0.00000E+00
 -1       817 9.89583E-02 1.25000E-02 0.00000E+00
 -1       818 9.16667E-02 1.35417E-02 0.00000E+00
 -1       819 9.16667E-02 1.45833E-02 0.00000E+00
 -1       820 9.16667E-02 1.56250E-02 0.00000E+00
 -1       821 9.16667E-02 1.66667E-02 0.00000E+00
 -1       822 9.16667E-02 1.77083E-02 0.00000E+00
 -1       823 9.25000E-02 1.31250E-02 0.00000E+00
 -1       824 9.33333E-02 1.37500E-02 0.00000E+00
 -1       825 9.41667E-02 1.43750E-02 0.00000E+00
 -1       826 9.50000E-02 1.50000E-02 0.00000E+00
 -1       827 9.58333E-02 1.56250E-02 0.00000E+00
 -1       828 9.66667E-02 1.62500E-02 0.00000E+00
 -1       829 9.75000E-02 1.68750E-02 0.00000E+00
 -1       830 9.83333E-02 1.75000E-02 0.00000E+00
 -1       831 9.91667E-02 1.81250E-02 0.00000E+00
 -1       832 1.00000E-01 1.35417E-02 0.00000E+00
 -1       833 1.00000E-01 1.45833E-02 0.00000E+00
 -1       834 1.00000E-01 1.56250E-02 0.00000E+00
 -1       835 1.00000E-01 1.66667E-02 0.00000E+00
 -1       836 1.00000E-01 1.77083E-02 0.00000E+00
 -1       837 1.04167E-03 1.87500E-02 0.00000E+00
 -1       838 2.08333E-03 1.87500E-02 0.00000E+00
 -1       839 3.12500E-03 1.87500E-02 0.00000E+00
 -1       840 4.16667E-03 1.87500E-02 0.00000E+00
 -1       841 5.20833E-03 1.87500E-02 0.00000E+00
 -1       842 6.25000E-03 1.87500E-02 0.00000E+00
 -1       843 7.29167E-03 1.87500E-02 0.00000E+00
 -1       844 0.00000E+00 1.97917E-02 0.00000E+00
 -1       845 0.00000E+00 2.08333E-02 0.00000E+00
 -1       846 0.00000E+00 2.18750E-02 0.00000E+00
 -1       847 0.00000E+00 2.29167E-02 0.00000E+00
 -1       848 0.00000E+00 2.39583E-02 0.00000E+00
 -1       849 8.33330E-04 1.93750E-02 0.00000E+00
 -1       850 1.66667E-03 2.00000E-02 0.00000E+00
 -1       851 2.50000E-03 2.06250E-02 0.00000E+00
 -1       852 3.33333E-03 2.12500E-02 0.00000E+00
 -1       853 4.16667E-03 2.18750E-02 0.00000E+00
 -1       854 5.00000E-03 2.25000E-02 0.00000E+00
 -1       855 5.83333E-03 2.31250E-02 0.00000E+00
 -1       856 6.66667E-03 2.37500E-02 0.00000E+00
 -1       857 7.50000E-03 2.43750E-02 0.00000E+00
 -1       858 9.37500E-03 1.87500E-02 0.00000E+00
 -1       859 1.04167E-02 1.87500E-02 0.00000E+00
 -1       860 1.14583E-02 1.87500E-02 0.00000E+00
 -1       861 1.25000E-02 1.87500E-02 0.00000E+00
 -1       862 1.35417E-02 1.87500E-02 0.00000E+00
 -1       863 1.45833E-02 1.87500E-02 0.00000E+00
 -1       864 1.56250E-02 1.87500E-02 0.00000E+00
 -1       865 8.33333E-03 1.97917E-02 0.00000E+00
 -1       866 8.33333E-03 2.08333E-02 0.00000E+00
 -1       867 8.33333E-03 2.18750E-02 0.00000E+00
 -1       868 8.33333E-03 2.29167E-02 0.00000E+00
 -1       869 8.33333E-03 2.39583E-02 0.00000E+00
 -1       870 9.16667E-03 1.93750E-02 0.00000E+00
 -1       871 1.00000E-02 2.00000E-02 0.00000E+00
 -1       872 1.08333E-02 2.06250E-02 0.00000E+00
 -1       873 1.16667E-02 2.12500E-02 0.00000E+00
 -1       874 1.25000E-02 2.18750E-02 0.00000E+00
 -1       875 1.33333E-02 2.25000E-02 0.00000E+00
 -1       876 1.41667E-02 2.31250E-02 0.00000E+00
 -1       877 1.50000E-02 2.37500E-02 0.00000E+00
 -1       878 1.58333E-02 2.43750E-02 0.00000E+00
 -1       879 1.77083E-02 1.87500E-02 0.00000E+00
 -1       880 1.87500E-02 1.87500E-02 0.00000E+00
 -1       881 1.97917E-02 1.87500E-02 0.00000E+00
 -1       882 2.08333E-02 1.87500E-02 0.00000E+00
 -1       883 2.18750E-02 1.87500E-02 0.00000E+00
 -1       884 2.29167E-02 1.87500E-02 0.00000E+00
 -1       885 2.39583E-02 1.87500E-02 0.00000E+00
 -1       886 1.66667E-02 1.97917E-02 0.00000E+00
 -1       887 1.66667E-02 2.08333E-02 0.00000E+00
 -1       888 1.66667E-02 2.18750E-02 0.00000E+00
 -1       889 1.66667E-02 2.29167E-02 0.00000E+00
 -1       890 1.66667E-02 2.39583E-02 0.00000E+00
 -1       891 1.75000E-02 1.93750E-02 0.00000E+00
 -1       892 1.83333E-02 2.00000E-02 0.00000E+00
 -1       893 1.91667E-02 2.06250E-02 0.00000E+00
 -1       894 2.00000E-02 2.12500E-02 0.00000E+00
 -1       895 2.08333E-02 2.18750E-02 0.00000E+00
 -1       896 2.16667E-02 2.25000E-02 0.00000E+00
 -1       897 2.25000E-02 2.31250E-02 0.00000E+00
 -1       898 2.33333E-02 2.37500E-02 0.00000E+00
 -1       899 2.41667E-02 2.43750E-02 0.00000E+00
 -1       900 2.60417E-02 1.87500E-02 0.00000E+00
 -1       901 2.70833E-02 1.87500E-02 0.00000E+00
 -1       902 2.81250E-02 1.87500E-02 0.00000E+00
 -1       903 2.91667E-02 1.87500E-02 0.00000E+00
 -1       904 3.02083E-02 1.87500E-02 0.00000E+00
 -1       905 3.12500E-02 1.87500E-02 0.00000E+00
 -1       906 3.22917E-02 1.87500E-02 0.00000E+00
 -1       907 2.50000E-02 1.97917E-02 0.00000E+00
 -1       908 2.50000E-02 2.08333E-02 0.00000E+00
 -1       909 2.50000E-02 2.18750E-02 0.00000E+00
 -1       910 2.50000E-02 2.29167E-02 0.00000E+00
 -1       911 2.50000E-02 2.39583E-02 0.00000E+00
 -1       912 2.58333E-02 1.93750E-02 0.00000E+00
 -1       913 2.66667E-02 2.00000E-02 0.00000E+00
 -1       914 2.75000E-02 2.06250E-02 0.00000E+00
 -1       915 2.83333E-02 2.12500E-02 0.00000E+00
 -1       916 2.91667E-02 2.18750E-02 0.00000E+00
 -1       917 3.00000E-02 2.25000E-02 0.00000E+00
 -1       918 3.08333E-02 2.31250E-02 0.00000E+00
 -1       919 3.16667E-02 2.37500E-02 0.00000E+00
 -1       920 3.25000E-02 2.43750E-02 0.00000E+00
 -1       921 3.43750E-02 1.87500E-02 0.00000E+00
 -1       922 3.54167E-02 1.87500E-02 0.00000E+00
 -1       923 3.64583E-02 1.87500E-02 0.00000E+00
 -1       924 3.75000E-02 1.87500E-02 0.00000E+00
 -1       925 3.85417E-02 1.87500E-02 0.00000E+00
 -1       926 3.95833E-02 1.87500E-02 0.00000E+00
 -1       927 4.06250E-02 1.87500E-02 0.00000E+00
 -1       928 3.33333E-02 1.97917E-02 0.00000E+00
 -1       929 3.33333E-02 2.08333E-02 0.00000E+00
 -1       930 3.33333E-02 2.18750E-02 0.00000E+00
 -1       931 3.33333E-02 2.29167E-02 0.00000E+00
 -1       932 3.33333E-02 2.39583E-02 0.00000E+00
 -1       933 3.41667E-02 1.93750E-02 0.00000E+00
 -1       934 3.50000E-02 2.00000E-02 0.00000E+00
 -1       935 3.58333E-02 2.06250E-02 0.00000E+00
 -1       936 3.66667E-02 2.12500E-02 0.00000E+00
 -1       937 3.75000E-02 2.18750E-02 0.00000E+00
 -1       938 3.83333E-02 2.25000E-02 0.00000E+00
 -1       939 3.91667E-02 2.31250E-02 0.00000E+00
 -1       940 4.00000E-02 2.37500E-02 0.00000E+00
 -1       941 4.08333E-02 2.43750E-02 0.00000E+00
 -1       942 4.27083E-02 1.87500E-02 0.00000E+00
 -1       943 4.37500E-02 1.87500E-02 0.00000E+00
 -1       944 4.47917E-02 1.87500E-02 0.00000E+00
 -1       945 4.58333E-02 1.87500E-02 0.00000E+00
 -1       946 4.68750E-02 1.87500E-02 0.00000E+00
 -1       947 4.79167E-02 1.87500E-02 0.00000E+00
 -1       948 4.89583E-02 1.87500E-02 0.00000E+00
 -1       949 4.16667E-02 1.97917E-02 0.00000E+00
 -1       950 4.16667E-02 2.08333E-02 0.00000E+00
 -1       951 4.16667E-02 2.18750E-02 0.00000E+00
 -1       952 4.16667E-02 2.29167E-02 0.00000E+00
 -1       953 4.16667E-02 2.39583E-02 0.00000E+00
 -1       954 4.25000E-02 1.93750E-02 0.00000E+00
 -1       955 4.33333E-02 2.00000E-02 0.00000E+00
 -1       956 4.41667E-02 2.06250E-02 0.00000E+00
 -1       957 4.50000E-02 2.12500E-02 0.00000E+00
 -1       958 4.58333E-02 2.18750E-02 0.00000E+00
 -1       959 4.66667E-02 2.25000E-02 0.00000E+00
 -1       960 4.75000E-02 2.31250E-02 0.00000E+00
 -1       961 4.83333E-02 2.37500E-02 0.00000E+00
 -1       962 4.91667E-02 2.43750E-02 0.00000E+00
 -1       963 5.10417E-02 1.87500E-02 0.00000E+00
 -1       964 5.20833E-02 1.87500E-02 0.00000E+00
 -1       965 5.31250E-02 1.87500E-02 0.00000E+00
 -1       966 5.41667E-02 1.87500E-02 0.00000E+00
 -1       967 5.52083E-02 1.87500E-02 0.00000E+00
 -1       968 5.62500E-02 1.87500E-02 0.00000E+00
 -1       969 5.72917E-02 1.87500E-02 0.00000E+00
 -1       970 5.00000E-02 1.97917E-02 0.00000E+00
 -1       971 5.00000E-02 2.08333E-02 0.00000E+00
 -1       972 5.00000E-02 2.18750E-02 0.00000E+00
 -1       973 5.00000E-02 2.29167E-02 0.00000E+00
 -1       974 5.00000E-02 2.39583E-02 0.00000E+00
 -1       975 5.08333E-02 1.93750E-02 0.00000E+00
 -1       976 5.16667E-02 2.00000E-02 0.00000E+00
 -1       977 5.25000E-02 2.06250E-02 0.00000E+00
 -1       978 5.33333E-02 2.12500E-02 0.00000E+00
 -1       979 5.41667E-02 2.18750E-02 0.00000E+00
 -1       980 5.50000E-02 2.25000E-02 0.00000E+00
 -1       981 5.58333E-02 2.31250E-02 0.00000E+00
 -1       982 5.66667E-02 2.37500E-02 0.00000E+00
 -1       983 5.75000E-02 2.43750E-02 0.00000E+00
 -1       984 5.93750E-02 1.87500E-02 0.00000E+00
 -1       985 6.04167E-02 1.87500E-02 0.00000E+00
 -1       986 6.14583E-02 1.87500E-02 0.00000E+00
 -1       987 6.25000E-02 1.87500E-02 0.00000E+00
 -1       988 6.35417E-02 1.87500E-02 0.00000E+00
 -1       989 6.45833E-02 1.87500E-02 0.00000E+00
 -1       990 6.56250E-02 1.87500E-02 0.00000E+00
 -1       991 5.83333E-02 1.97917E-02 0.00000E+00
 -1       992 5.83333E-02 2.08333E-02 0.00000E+00
 -1       993 5.83333E-02 2.18750E-02 0.00000E+00
 -1       994 5.83333E-02 2.29167E-02 0.00000E+00
 -1       995 5.83333E-02 2.39583E-02 0.00000E+00
 -1       996 5.91667E-02 1.93750E-02 0.00000E+00
 -1       997 6.00000E-02 2.00000E-02 0.00000E+00
 -1       998 6.08333E-02 2.06250E-02 0.00000E+00
 -1       999 6.16667E-02 2.12500E-02 0.00000E+00
 -1      1000 6.25000E-02 2.18750E-02 0.00000E+00
 -1      1001 6.33333E-02 2.25000E-02 0.00000E+00
 -1      1002 6.41667E-02 2.31250E-02 0.00000E+00
 -1      1003 6.50000E-02 2.37500E-02 0.00000E+00
 -1      1004 6.58333E-02 2.43750E-02 0.00000E+00
 -1      1005 6.77083E-02 1.87500E-02 0.00000E+00
 -1      1006 6.87500E-02 1.87500E-02 0.00000E+00
 -1      1007 6.97917E-02 1.87500E-02 0.00000E+00
 -1      1008 7.08333E-02 1.87500E-02 0.00000E+00
 -1      1009 7.18750E-02 1.87500E-02 0.00000E+00
 -1      1010 7.29167E-02 1.87500E-02 0.00000E+00
 -1      1011 7.39583E-02 1.87500E-02 0.00000E+00
 -1      1012 6.66667E-02 1.97917E-02 0.00000E+00
 -1      1013 6.66667E-02 2.08333E-02 0.00000E+00
 -1      1014 6.66667E-02 2.18750E-02 0.00000E+00
 -1      1015 6.66667E-02 2.29167E-02 0.00000E+00
 -1      1016 6.66667E-02 2.39583E-02 0.00000E+00
 -1      1017 6.75000E-02 1.93750E-02 0.00000E+00
 -1      1018 6.83333E-02 2.00000E-02 0.00000E+00
 -1      1019 6.91667E-02 2.06250E-02 0.00000E+00
 -1      1020 7.00000E-02 2.12500E-02 0.00000E+00
 -1      1021 7.08333E-02 2.18750E-02 0.00000E+00
 -1      1022 7.16667E-02 2.25000E-02 0.00000E+00
 -1      1023 7.25000E-02 2.31250E-02 0.00000E+00
 -1      1024 7.33333E-02 2.37500E-02 0.00000E+00
 -1      1025 7.41667E-02 2.43750E-02 0.00000E+00
 -1      1026 7.60417E-02 1.87500E-02 0.00000E+00
 -1      1027 7.70833E-02 1.87500E-02 0.00000E+00
 -1      1028 7.81250E-02 1.87500E-02 0.00000E+00
 -1      1029 7.91667E-02 1.87500E-02 0.00000E+00
 -1      1030 8.02083E-02 1.87500E-02 0.00000E+00
 -1      1031 8.12500E-02 1.87500E-02 0.00000E+00
 -1      1032 8.22917E-02 1.87500E-02 0.00000E+00
 -1      1033 7.50000E-02 1.97917E-02 0.00000E+00
 -1      1034 7.50000E-02 2.08333E-02 0.00000E+00
 -1      1035 7.50000E-02 2.18750E-02 0.00000E+00
 -1      1036 7.50000E-02 2.29167E-02 0.00000E+00
 -1      1037 7.50000E-02 2.39583E-02 0.00000E+00
 -1      1038 7.58333E-02 1.93750E-02 0.00000E+00
 -1      1039 7.66667E-02 2.00000E-02 0.00000E+00
 -1      1040 7.75000E-02 2.06250E-02 0.00000E+00
 -1      1041 7.83333E-02 2.12500E-02 0.00000E+00
 -1      1042 7.91667E-02 2.18750E-02 0.00000E+00
 -1      1043 8.00000E-02 2.25000E-02 0.00000E+00
 -1      1044 8.08333E-02 2.31250E-02 0.00000E+00
 -1      1045 8.16667E-02 2.37500E-02 0.00000E+00
 -1      1046 8.25000E-02 2.43750E-02 0.00000E+00
 -1      1047 8.43750E-02 1.87500E-02 0.00000E+00
 -1      1048 8.54167E-02 1.87500E-02 0.00000E+00
 -1      1049 8.64583E-02 1.87500E-02 0.00000E+00
 -1      1050 8.75000E-02 1.87500E-02 0.00000E+00
 -1      1051 8.85417E-02 1.87500E-02 0.00000E+00
 -1      1052 8.95833E-02 1.87500E-02 0.00000E+00
 -1      1053 9.06250E-02 1.87500E-02 0.00000E+00
 -1      1054 8.33333E-02 1.97917E-02 0.00000E+00
 -1      1055 8.33333E-02 2.08333E-02 0.00000E+00
 -1      1056 8.33333E-02 2.18750E-02 0.00000E+00
 -1      1057 8.33333E-02 2.29167E-02 0.00000E+00
 -1      1058 8.33333E-02 2.39583E-02 0.00000E+00
 -1      1059 8.41667E-02 1.93750E-02 0.00000E+00
 -1      1060 8.50000E-02 2.00000E-02 0.00000E+00
 -1      1061 8.58333E-02 2.06250E-02 0.00000E+00
 -1      1062 8.66667E-02 2.12500E-02 0.00000E+00
 -1      1063 8.75000E-02 2.18750E-02 0.00000E+00
 -1      1064 8.83333E-02 2.25000E-02 0.00000E+00
 -1      1065 8.91667E-02 2.31250E-02 0.00000E+00
 -1      1066 9.00000E-02 2.37500E-02 0.00000E+00
 -1      1067 9.08333E-02 2.43750E-02 0.00000E+00
 -1      1068 9.27083E-02 1.87500E-02 0.00000E+00
 -1      1069 9.37500E-02 1.87500E-02 0.00000E+00
 -1      1070 9.47917E-02 1.87500E-02 0.00000E+00
 -1      1071 9.58333E-02 1.87500E-02 0.00000E+00
 -1      1072 9.68750E-02 1.87500E-02 0.00000E+00
 -1      1073 9.79167E-02 1.87500E-02 0.00000E+00
 -1      1074 9.89583E-02 1.87500E-02 0.00000E+00
 -1      1075 9.16667E-02 1.97917E-02 0.00000E+00
 -1      1076 9.16667E-02 2.08333E-02 0.00000E+00
 -1      1077 9.16667E-02 2.18750E-02 0.00000E+00
 -1      1078 9.16667E-02 2.29167E-02 0.00000E+00
 -1      1079 9.16667E-02 2.39583E-02 0.00000E+00
 -1      1080 9.25000E-02 1.93750E-02 0.00000E+00
 -1      1081 9.33333E-02 2.00000E-02 0.00000E+00
 -1      1082 9.41667E-02 2.06250E-02 0.00000E+00
 -1      1083 9.50000E-02 2.12500E-02 0.00000E+00
 -1      1084 9.58333E-02 2.18750E-02 0.00000E+00
 -1      1085 9.66667E-02 2.25000E-02 0.00000E+00
 -1      1086 9.75000E-02 2.31250E-02 0.00000E+00
 -1      1087 9.83333E-02 2.37500E-02 0.00000E+00
 -1      1088 9.91667E-02 2.43750E-02 0.00000E+00
 -1      1089 1.00000E-01 1.97917E-02 0.00000E+00
 -1      1090 1.00000E-01 2.08333E-02 0.00000E+00
 -1      1091 1.00000E-01 2.18750E-02 0.00000E+00
 -1      1092 1.00000E-01 2.29167E-02 0.00000E+00
 -1      1093 1.00000E-01 2.39583E-02 0.00000E+00
 -1      1094 1.04167E-03 2.50000E-02 0.00000E+00
 -1      1095 2.08333E-03 2.50000E-02 0.00000E+00
 -1      1096 3.12500E-03 2.50000E-02 0.00000E+00
 -1      1097 4.16667E-03 2.50000E-02 0.00000E+00
 -1      1098 5.20833E-03 2.50000E-02 0.00000E+00
 -1      1099 6.25000E-03 2.50000E-02 0.00000E+00
 -1      1100 7.29167E-03 2.50000E-02 0.00000E+00
 -1      1101 9.37500E-03 2.50000E-02 0.00000E+00
 -1      1102 1.04167E-02 2.50000E-02 0.00000E+00
 -1      1103 1.14583E-02 2.50000E-02 0.00000E+00
 -1      1104 1.25000E-02 2.50000E-02 0.00000E+00
 -1      1105 1.35417E-02 2.50000E-02 0.00000E+00
 -1      1106 1.45833E-02 2.50000E-02 0.00000E+00
 -1      1107 1.56250E-02 2.50000E-02 0.00000E+00
 -1      1108 1.77083E-02 2.50000E-02 0.00000E+00
 -1      1109 1.87500E-02 2.50000E-02 0.00000E+00
 -1      1110 1.97917E-02 2.50000E-02 0.00000E+00
 -1      1111 2.08333E-02 2.50000E-02 0.00000E+00
 -1      1112 2.18750E-02 2.50000E-02 0.00000E+00
 -1      1113 2.29167E-02 2.50000E-02 0.00000E+00
 -1      1114 2.39583E-02 2.50000E-02 0.00000E+00
 -1      1115 2.60417E-02 2.50000E-02 0.00000E+00
 -1      1116 2.70833E-02 2.50000E-02 0.00000E+00
 -1      1117 2.81250E-02 2.50000E-02 0.00000E+00
 -1      1118 2.91667E-02 2.50000E-02 0.00000E+00
 -1      1119 3.02083E-02 2.50000E-02 0.00000E+00
 -1      1120 3.12500E-02 2.50000E-02 0.00000E+00
 -1      1121 3.22917E-02 2.50000E-02 0.00000E+00
 -1      1122 3.43750E-02 2.50000E-02 0.00000E+00
 -1      1123 3.54167E-02 2.50000E-02 0.00000E+00
 -1      1124 3.64583E-02 2.50000E-02 0.00000E+00
 -1      1125 3.75000E-02 2.50000E-02 0.00000E+00
 -1      1126 3.85417E-02 2.50000E-02 0.00000E+00
 -1      1127 3.95833E-02 2.50000E-02 0.00000E+00
 -1      1128 4.06250E-02 2.50000E-02 0.00000E+00
 -1      1129 4.27083E-02 2.50000E-02 0.00000E+00
 -1      1130 4.37500E-02 2.50000E-02 0.00000E+00
 -1      1131 4.47917E-02 2.50000E-02 0.00000E+00
 -1      1132 4.58333E-02 2.50000E-02 0.00000E+00
 -1      1133 4.68750E-02 2.50000E-02 0.00000E+00
 -1      1134 4.79167E-02 2.50000E-02 0.00000E+00
 -1      1135 4.89583E-02 2.50000E-02 0.00000E+00
 -1      1136 5.10417E-02 2.50000E-02 0.00000E+00
 -1      1137 5.20833E-02 2.50000E-02 0.00000E+00
 -1      1138 5.31250E-02 2.50000E-02 0.00000E+00
 -1      1139 5.41667E-02 2.50000E-02 0.00000E+00
 -1      1140 5.52083E-02 2.50000E-02 0.00000E+00
 -1      1141 5.62500E-02 2.50000E-02 0.00000E+00
 -1      1142 5.72917E-02 2.50000E-02 0.00000E+00
 -1      1143 5.93750E-02 2.50000E-02 0.00000E+00
 -1      1144 6.04167E-02 2.50000E-02 0.00000E+00
 -1      1145 6.14583E-02 2.50000E-02 0.00000E+00
 -1      1146 6.25000E-02 2.50000E-02 0.00000E+00
 -1      1147 6.35417E-02 2.50000E-02 0.00000E+00
 -1      1148 6.45833E-02 2.50000E-02 0.00000E+00
 -1      1149 6.56250E-02 2.50000E-02 0.00000E+00
 -1      1150 6.77083E-02 2.50000E-02 0.00000E+00
 -1      1151 6.87500E-02 2.50000E-02 0.00000E+00
 -1      1152 6.97917E-02 2.50000E-02 0.00000E+00
 -1      1153 7.08333E-02 2.50000E-02 0.00000E+00
 -1      1154 7.18750E-02 2.50000E-02 0.00000E+00
 -1      1155 7.29167E-02 2.50000E-02 0.00000E+00
 -1      1156 7.39583E-02 2.50000E-02 0.00000E+00
 -1      1157 7.60417E-02 2.50000E-02 0.00000E+00
 -1      1158 7.70833E-02 2.50000E-02 0.00000E+00
 -1      1159 7.81250E-02 2.50000E-02 0.00000E+00
 -1      1160 7.91667E-02 2.50000E-02 0.00000E+00
 -1      1161 8.02083E-02 2.50000E-02 0.00000E+00
 -1      1162 8.12500E-02 2.50000E-02 0.00000E+00
 -1      1163 8.22917E-02 2.50000E-02 0.00000E+00
 -1      1164 8.43750E-02 2.50000E-02 0.00000E+00
 -1      1165 8.54167E-02 2.50000E-02 0.00000E+00
 -1      1166 8.64583E-02 2.50000E-02 0.00000E+00
 -1      1167 8.75000E-02 2.50000E-02 0.00000E+00
 -1      1168 8.85417E-02 2.50000E-02 0.00000E+00
 -1      1169 8.95833E-02 2.50000E-02 0.00000E+00
 -1      1170 9.06250E-02 2.50000E-02 0.00000E+00
 -1      1171 9.27083E-02 2.50000E-02 0.00000E+00
 -1      1172 9.37500E-02 2.50000E-02 0.00000E+00
 -1      1173 9.47917E-02 2.50000E-02 0.00000E+00
 -1      1174 9.58333E-02 2.50000E-02 0.00000E+00
 -1      1175 9.68750E-02 2.50000E-02 0.00000E+00
 -1      1176 9.79167E-02 2.50000E-02 0.00000E+00
 -1      1177 9.89583E-02 2.50000E-02 0.00000E+00
 -3
    3C                           540                                     1
 -1         1   12    0    1
 -2         1        67        66
 -1         2   12    0    1
 -2        67        69        68
 -1         3   12    0    1
 -2        69        71        70
 -1         4   12    0    1
 -2        71         2        72
 -1         5   12    0    1
 -2         1        74        73
 -1         6   12    0    1
 -2        74        76        75
 -1         7   12    0    1
 -2        76        14        77
 -1         8   12    0    1
 -2         1        79        78
 -1         9   12    0    1
 -2        79        81        80
 -1        10   12    0    1
 -2        81        83        82
 -1        11   12    0    1
 -2        83        85        84
 -1        12   12    0    1
 -2        85        15        86
 -1        13   12    0    1
 -2         2        88        87
 -1        14   12    0    1
 -2        88        90        89
 -1        15   12    0    1
 -2        90        92        91
 -1        16   12    0    1
 -2        92         3        93
 -1        17   12    0    1
 -2         2        95        94
 -1        18   12    0    1
 -2        95        97        96
 -1        19   12    0    1
 -2        97        15        98
 -1        20   12    0    1
 -2         2       100        99
 -1        21   12    0    1
 -2       100       102       101
 -1        22   12    0    1
 -2       102       104       103
 -1        23   12    0    1
 -2       104       106       105
 -1        24   12    0    1
 -2       106        16       107
 -1        25   12    0    1
 -2         3       109       108
 -1        26   12    0    1
 -2       109       111       110
 -1        27   12    0    1
 -2       111       113       112
 -1        28   12    0    1
 -2       113         4       114
 -1        29   12    0    1
 -2         3       116       115
 -1        30   12    0    1
 -2       116       118       117
 -1        31   12    0    1
 -2       118        16       119
 -1        32   12    0    1
 -2         3       121       120
 -1        33   12    0    1
 -2       121       123       122
 -1        34   12    0    1
 -2       123       125       124
 -1        35   12    0    1
 -2       125       127       126
 -1        36   12    0    1
 -2       127        17       128
 -1        37   12    0    1
 -2         4       130       129
 -1        38   12    0    1
 -2       130       132       131
 -1        39   12    0    1
 -2       132       134       133
 -1        40   12    0    1
 -2       134         5       135
 -1        41   12    0    1
 -2         4       137       136
 -1        42   12    0    1
 -2       137       139       138
 -1        43   12    0    1
 -2       139        17       140
 -1        44   12    0    1
 -2         4       142       141
 -1        45   12    0    1
 -2       142       144       143
 -1        46   12    0    1
 -2       144       146       145
 -1        47   12    0    1
 -2       146       148       147
 -1        48   12    0    1
 -2       148        18       149
 -1        49   12    0    1
 -2         5       151       150
 -1        50   12    0    1
 -2       151       153       152
 -1        51   12    0    1
 -2       153       155       154
 -1        52   12    0    1
 -2       155         6       156
 -1        53   12    0    1
 -2         5       158       157
 -1        54   12    0    1
 -2       158       160       159
 -1        55   12    0    1
 -2       160        18       161
 -1        56   12    0    1
 -2         5       163       162
 -1        57   12    0    1
 -2       163       165       164
 -1        58   12    0    1
 -2       165       167       166
 -1        59   12    0    1
 -2       167       169       168
 -1        60   12    0    1
 -2       169        19       170
 -1        61   12    0    1
 -2         6       172       171
 -1        62   12    0    1
 -2       172       174       173
 -1        63   12    0    1
 -2       174       176       175
 -1        64   12    0    1
 -2       176         7       177
 -1        65   12    0    1
 -2         6       179       178
 -1        66   12    0    1
 -2       179       181       180
 -1        67   12    0    1
 -2       181        19       182
 -1        68   12    0    1
 -2         6       184       183
 -1        69   12    0    1
 -2       184       186       185
 -1        70   12    0    1
 -2       186       188       187
 -1        71   12    0    1
 -2       188       190       189
 -1        72   12    0    1
 -2       190        20       191
 -1        73   12    0    1
 -2         7       193       192
 -1        74   12    0    1
 -2       193       195       194
 -1        75   12    0    1
 -2       195       197       196
 -1        76   12    0    1
 -2       197         8       198
 -1        77   12    0    1
 -2         7       200       199
 -1        78   12    0    1
 -2       200       202       201
 -1        79   12    0    1
 -2       202        20       203
 -1        80   12    0    1
 -2         7       205       204
 -1        81   12    0    1
 -2       205       207       206
 -1        82   12    0    1
 -2       207       209       208
 -1        83   12    0    1
 -2       209       211       210
 -1        84   12    0    1
 -2       211        21       212
 -1        85   12    0    1
 -2         8       214       213
 -1        86   12    0    1
 -2       214       216       215
 -1        87   12    0    1
 -2       216       218       217
 -1        88   12    0    1
 -2       218         9       219
 -1        89   12    0    1
 -2         8       221       220
 -1        90   12    0    1
 -2       221       223       222
 -1        91   12    0    1
 -2       223        21       224
 -1        92   12    0    1
 -2         8       226       225
 -1        93   12    0    1
 -2       226       228       227
 -1        94   12    0    1
 -2       228       230       229
 -1        95   12    0    1
 -2       230       232       231
 -1        96   12    0    1
 -2       232        22       233
 -1        97   12    0    1
 -2         9       242       241
 -1        98   12    0    1
 -2       242       244       243
 -1        99   12    0    1
 -2       244        22       245
 -1       100   12    0    1
 -2        14       324       323
 -1       101   12    0    1
 -2       324       326       325
 -1       102   12    0    1
 -2       326       328       327
 -1       103   12    0    1
 -2       328        15       329
 -1       104   12    0    1
 -2        14       331       330
 -1       105   12    0    1
 -2       331       333       332
 -1       106   12    0    1
 -2       333        27       334
 -1       107   12    0    1
 -2        14       336       335
 -1       108   12    0    1
 -2       336       338       337
 -1       109   12    0    1
 -2       338       340       339
 -1       110   12    0    1
 -2       340       342       341
 -1       111   12    0    1
 -2       342        28       343
 -1       112   12    0    1
 -2        15       345       344
 -1       113   12    0    1
 -2       345       347       346
 -1       114   12    0    1
 -2       347       349       348
 -1       115   12    0    1
 -2       349        16       350
 -1       116   12    0    1
 -2        15       352       351
 -1       117   12    0    1
 -2       352       354       353
 -1       118   12    0    1
 -2       354        28       355
 -1       119   12    0    1
 -2        15       357       356
 -1       120   12    0    1
 -2       357       359       358
 -1       121   12    0    1
 -2       359       361       360
 -1       122   12    0    1
 -2       361       363       362
 -1       123   12    0    1
 -2       363        29       364
 -1       124   12    0    1
 -2        16       366       365
 -1       125   12    0    1
 -2       366       368       367
 -1       126   12    0    1
 -2       368       370       369
 -1       127   12    0    1
 -2       370        17       371
 -1       128   12    0    1
 -2        16       373       372
 -1       129   12    0    1
 -2       373       375       374
 -1       130   12    0    1
 -2       375        29       376
 -1       131   12    0    1
 -2        16       378       377
 -1       132   12    0    1
 -2       378       380       379
 -1       133   12    0    1
 -2       380       382       381
 -1       134   12    0    1
 -2       382       384       383
 -1       135   12    0    1
 -2       384        30       385
 -1       136   12    0    1
 -2        17       387       386
 -1       137   12    0    1
 -2       387       389       388
 -1       138   12    0    1
 -2       389       391       390
 -1       139   12    0    1
 -2       391        18       392
 -1       140   12    0    1
 -2        17       394       393
 -1       141   12    0    1
 -2       394       396       395
 -1       142   12    0    1
 -2       396        30       397
 -1       143   12    0    1
 -2        17       399       398
 -1       144   12    0    1
 -2       399       401       400
 -1       145   12    0    1
 -2       401       403       402
 -1       146   12    0    1
 -2       403       405       404
 -1       147   12    0    1
 -2       405        31       406
 -1       148   12    0    1
 -2        18       408       407
 -1       149   12    0    1
 -2       408       410       409
 -1       150   12    0    1
 -2       410       412       411
 -1       151   12    0    1
 -2       412        19       413
 -1       152   12    0    1
 -2        18       415       414
 -1       153   12    0    1
 -2       415       417       416
 -1       154   12    0    1
 -2       417        31       418
 -1       155   12    0    1
 -2        18       420       419
 -1       156   12    0    1
 -2       420       422       421
 -1       157   12    0    1
 -2       422       424       423
 -1       158   12    0    1
 -2       424       426       425
 -1       159   12    0    1
 -2       426        32       427
 -1       160   12    0    1
 -2        19       429       428
 -1       161   12    0    1
 -2       429       431       430
 -1       162   12    0    1
 -2       431       433       432
 -1       163   12    0    1
 -2       433        20       434
 -1       164   12    0    1
 -2        19       436       435
 -1       165   12    0    1
 -2       436       438       437
 -1       166   12    0    1
 -2       438        32       439
 -1       167   12    0    1
 -2        19       441       440
 -1       168   12    0    1
 -2       441       443       442
 -1       169   12    0    1
 -2       443       445       444
 -1       170   12    0    1
 -2       445       447       446
 -1       171   12    0    1
 -2       447        33       448
 -1       172   12    0    1
 -2        20       450       449
 -1       173   12    0    1
 -2       450       452       451
 -1       174   12    0    1
 -2       452       454       453
 -1       175   12    0    1
 -2       454        21       455
 -1       176   12    0    1
 -2        20       457       456
 -1       177   12    0    1
 -2       457       459       458
 -1       178   12    0    1
 -2       459        33       460
 -1       179   12    0    1
 -2        20       462       461
 -1       180   12    0    1
 -2       462       464       463
 -1       181   12    0    1
 -2       464       466       465
 -1       182   12    0    1
 -2       466       468       467
 -1       183   12    0    1
 -2       468        34       469
 -1       184   12    0    1
 -2        21       471       470
 -1       185   12    0    1
 -2       471       473       472
 -1       186   12    0    1
 -2       473       475       474
 -1       187   12    0    1
 -2       475        22       476
 -1       188   12    0    1
 -2        21       478       477
 -1       189   12    0    1
 -2       478       480       479
 -1       190   12    0    1
 -2       480        34       481
 -1       191   12    0    1
 -2        21       483       482
 -1       192   12    0    1
 -2       483       485       484
 -1       193   12    0    1
 -2       485       487       486
 -1       194   12    0    1
 -2       487       489       488
 -1       195   12    0    1
 -2       489        35       490
 -1       196   12    0    1
 -2        22       499       498
 -1       197   12    0    1
 -2       499       501       500
 -1       198   12    0    1
 -2       501        35       502
 -1       199   12    0    1
 -2        27       581       580
 -1       200   12    0    1
 -2       581       583       582
 -1       201   12    0    1
 -2       583       585       584
 -1       202   12    0    1
 -2       585        28       586
 -1       203   12    0    1
 -2        27       588       587
 -1       204   12    0    1
 -2       588       590       589
 -1       205   12    0    1
 -2       590        40       591
 -1       206   12    0    1
 -2        27       593       592
 -1       207   12    0    1
 -2       593       595       594
 -1       208   12    0    1
 -2       595       597       596
 -1       209   12    0    1
 -2       597       599       598
 -1       210   12    0    1
 -2       599        41       600
 -1       211   12    0    1
 -2        28       602       601
 -1       212   12    0    1
 -2       602       604       603
 -1       213   12    0    1
 -2       604       606       605
 -1       214   12    0    1
 -2       606        29       607
 -1       215   12    0    1
 -2        28       609       608
 -1       216   12    0    1
 -2       609       611       610
 -1       217   12    0    1
 -2       611        41       612
 -1       218   12    0    1
 -2        28       614       613
 -1       219   12    0    1
 -2       614       616       615
 -1       220   12    0    1
 -2       616       618       617
 -1       221   12    0    1
 -2       618       620       619
 -1       222   12    0    1
 -2       620        42       621
 -1       223   12    0    1
 -2        29       623       622
 -1       224   12    0    1
 -2       623       625       624
 -1       225   12    0    1
 -2       625       627       626
 -1       226   12    0    1
 -2       627        30       628
 -1       227   12    0    1
 -2        29       630       629
 -1       228   12    0    1
 -2       630       632       631
 -1       229   12    0    1
 -2       632        42       633
 -1       230   12    0    1
 -2        29       635       634
 -1       231   12    0    1
 -2       635       637       636
 -1       232   12    0    1
 -2       637       639       638
 -1       233   12    0    1
 -2       639       641       640
 -1       234   12    0    1
 -2       641        43       642
 -1       235   12    0    1
 -2        30       644       643
 -1       236   12    0    1
 -2       644       646       645
 -1       237   12    0    1
 -2       646       648       647
 -1       238   12    0    1
 -2       648        31       649
 -1       239   12    0    1
 -2        30       651       650
 -1       240   12    0    1
 -2       651       653       652
 -1       241   12    0    1
 -2       653        43       654
 -1       242   12    0    1
 -2        30       656       655
 -1       243   12    0    1
 -2       656       658       657
 -1       244   12    0    1
 -2       658       660       659
 -1       245   12    0    1
 -2       660       662       661
 -1       246   12    0    1
 -2       662        44       663
 -1       247   12    0    1
 -2        31       665       664
 -1       248   12    0    1
 -2       665       667       666
 -1       249   12    0    1
 -2       667       669       668
 -1       250   12    0    1
 -2       669        32       670
 -1       251   12    0    1
 -2        31       672       671
 -1       252   12    0    1
 -2       672       674       673
 -1       253   12    0    1
 -2       674        44       675
 -1       254   12    0    1
 -2        31       677       676
 -1       255   12    0    1
 -2       677       679       678
 -1       256   12    0    1
 -2       679       681       680
 -1       257   12    0    1
 -2       681       683       682
 -1       258   12    0    1
 -2       683        45       684
 -1       259   12    0    1
 -2        32       686       685
 -1       260   12    0    1
 -2       686       688       687
 -1       261   12    0    1
 -2       688       690       689
 -1       262   12    0    1
 -2       690        33       691
 -1       263   12    0    1
 -2        32       693       692
 -1       264   12    0    1
 -2       693       695       694
 -1       265   12    0    1
 -2       695        45       696
 -1       266   12    0    1
 -2        32       698       697
 -1       267   12    0    1
 -2       698       700       699
 -1       268   12    0    1
 -2       700       702       701
 -1       269   12    0    1
 -2       702       704       703
 -1       270   12    0    1
 -2       704        46       705
 -1       271   12    0    1
 -2        33       707       706
 -1       272   12    0    1
 -2       707       709       708
 -1       273   12    0    1
 -2       709       711       710
 -1       274   12    0    1
 -2       711        34       712
 -1       275   12    0    1
 -2        33       714       713
 -1       276   12    0    1
 -2       714       716       715
 -1       277   12    0    1
 -2       716        46       717
 -1       278   12    0    1
 -2        33       719       718
 -1       279   12    0    1
 -2       719       721       720
 -1       280   12    0    1
 -2       721       723       722
 -1       281   12    0    1
 -2       723       725       724
 -1       282   12    0    1
 -2       725        47       726
 -1       283   12    0    1
 -2        34       728       727
 -1       284   12    0    1
 -2       728       730       729
 -1       285   12    0    1
 -2       730       732       731
 -1       286   12    0    1
 -2       732        35       733
 -1       287   12    0    1
 -2        34       735       734
 -1       288   12    0    1
 -2       735       737       736
 -1       289   12    0    1
 -2       737        47       738
 -1       290   12    0    1
 -2        34       740       739
 -1       291   12    0    1
 -2       740       742       741
 -1       292   12    0    1
 -2       742       744       743
 -1       293   12    0    1
 -2       744       746       745
 -1       294   12    0    1
 -2       746        48       747
 -1       295   12    0    1
 -2        35       749       748
 -1       296   12    0    1
 -2       749       751       750
 -1       297   12    0    1
 -2       751       753       752
 -1       298   12    0    1
 -2       753        36       754
 -1       299   12    0    1
 -2        35       756       755
 -1       300   12    0    1
 -2       756       758       757
 -1       301   12    0    1
 -2       758        48       759
 -1       302   12    0    1
 -2        35       761       760
 -1       303   12    0    1
 -2       761       763       762
 -1       304   12    0    1
 -2       763       765       764
 -1       305   12    0    1
 -2       765       767       766
 -1       306   12    0    1
 -2       767        49       768
 -1       307   12    0    1
 -2        36       770       769
 -1       308   12    0    1
 -2       770       772       771
 -1       309   12    0    1
 -2       772       774       773
 -1       310   12    0    1
 -2       774        37       775
 -1       311   12    0    1
 -2        36       777       776
 -1       312   12    0    1
 -2       777       779       778
 -1       313   12    0    1
 -2       779        49       780
 -1       314   12    0    1
 -2        36       782       781
 -1       315   12    0    1
 -2       782       784       783
 -1       316   12    0    1
 -2       784       786       785
 -1       317   12    0    1
 -2       786       788       787
 -1       318   12    0    1
 -2       788        50       789
 -1       319   12    0    1
 -2        37       791       790
 -1       320   12    0    1
 -2       791       793       792
 -1       321   12    0    1
 -2       793       795       794
 -1       322   12    0    1
 -2       795        38       796
 -1       323   12    0    1
 -2        37       798       797
 -1       324   12    0    1
 -2       798       800       799
 -1       325   12    0    1
 -2       800        50       801
 -1       326   12    0    1
 -2        37       803       802
 -1       327   12    0    1
 -2       803       805       804
 -1       328   12    0    1
 -2       805       807       806
 -1       329   12    0    1
 -2       807       809       808
 -1       330   12    0    1
 -2       809        51       810
 -1       331   12    0    1
 -2        38       812       811
 -1       332   12    0    1
 -2       812       814       813
 -1       333   12    0    1
 -2       814       816       815
 -1       334   12    0    1
 -2       816        39       817
 -1       335   12    0    1
 -2        38       819       818
 -1       336   12    0    1
 -2       819       821       820
 -1       337   12    0    1
 -2       821        51       822
 -1       338   12    0    1
 -2        38       824       823
 -1       339   12    0    1
 -2       824       826       825
 -1       340   12    0    1
 -2       826       828       827
 -1       341   12    0    1
 -2       828       830       829
 -1       342   12    0    1
 -2       830        52       831
 -1       343   12    0    1
 -2        39       833       832
 -1       344   12    0    1
 -2       833       835       834
 -1       345   12    0    1
 -2       835        52       836
 -1       346   12    0    1
 -2        40       838       837
 -1       347   12    0    1
 -2       838       840       839
 -1       348   12    0    1
 -2       840       842       841
 -1       349   12    0    1
 -2       842        41       843
 -1       350   12    0    1
 -2        40       845       844
 -1       351   12    0    1
 -2       845       847       846
 -1       352   12    0    1
 -2       847        53       848
 -1       353   12    0    1
 -2        40       850       849
 -1       354   12    0    1
 -2       850       852       851
 -1       355   12    0    1
 -2       852       854       853
 -1       356   12    0    1
 -2       854       856       855
 -1       357   12    0    1
 -2       856        54       857
 -1       358   12    0    1
 -2        41       859       858
 -1       359   12    0    1
 -2       859       861       860
 -1       360   12    0    1
 -2       861       863       862
 -1       361   12    0    1
 -2       863        42       864
 -1       362   12    0    1
 -2        41       866       865
 -1       363   12    0    1
 -2       866       868       867
 -1       364   12    0    1
 -2       868        54       869
 -1       365   12    0    1
 -2        41       871       870
 -1       366   12    0    1
 -2       871       873       872
 -1       367   12    0    1
 -2       873       875       874
 -1       368   12    0    1
 -2       875       877       876
 -1       369   12    0    1
 -2       877        55       878
 -1       370   12    0    1
 -2        42       880       879
 -1       371   12    0    1
 -2       880       882       881
 -1       372   12    0    1
 -2       882       884       883
 -1       373   12    0    1
 -2       884        43       885
 -1       374   12    0    1
 -2        42       887       886
 -1       375   12    0    1
 -2       887       889       888
 -1       376   12    0    1
 -2       889        55       890
 -1       377   12    0    1
 -2        42       892       891
 -1       378   12    0    1
 -2       892       894       893
 -1       379   12    0    1
 -2       894       896       895
 -1       380   12    0    1
 -2       896       898       897
 -1       381   12    0    1
 -2       898        56       899
 -1       382   12    0    1
 -2        43       901       900
 -1       383   12    0    1
 -2       901       903       902
 -1       384   12    0    1
 -2       903       905       904
 -1       385   12    0    1
 -2       905        44       906
 -1       386   12    0    1
 -2        43       908       907
 -1       387   12    0    1
 -2       908       910       909
 -1       388   12    0    1
 -2       910        56       911
 -1       389   12    0    1
 -2        43       913       912
 -1       390   12    0    1
 -2       913       915       914
 -1       391   12    0    1
 -2       915       917       916
 -1       392   12    0    1
 -2       917       919       918
 -1       393   12    0    1
 -2       919        57       920
 -1       394   12    0    1
 -2        44       922       921
 -1       395   12    0    1
 -2       922       924       923
 -1       396   12    0    1
 -2       924       926       925
 -1       397   12    0    1
 -2       926        45       927
 -1       398   12    0    1
 -2        44       929       928
 -1       399   12    0    1
 -2       929       931       930
 -1       400   12    0    1
 -2       931        57       932
 -1       401   12    0    1
 -2        44       934       933
 -1       402   12    0    1
 -2       934       936       935
 -1       403   12    0    1
 -2       936       938       937
 -1       404   12    0    1
 -2       938       940       939
 -1       405   12    0    1
 -2       940        58       941
 -1       406   12    0    1
 -2        45       943       942
 -1       407   12    0    1
 -2       943       945       944
 -1       408   12    0    1
 -2       945       947       946
 -1       409   12    0    1
 -2       947        46       948
 -1       410   12    0    1
 -2        45       950       949
 -1       411   12    0    1
 -2       950       952       951
 -1       412   12    0    1
 -2       952        58       953
 -1       413   12    0    1
 -2        45       955       954
 -1       414   12    0    1
 -2       955       957       956
 -1       415   12    0    1
 -2       957       959       958
 -1       416   12    0    1
 -2       959       961       960
 -1       417   12    0    1
 -2       961        59       962
 -1       418   12    0    1
 -2        46       964       963
 -1       419   12    0    1
 -2       964       966       965
 -1       420   12    0    1
 -2       966       968       967
 -1       421   12    0    1
 -2       968        47       969
 -1       422   12    0    1
 -2        46       971       970
 -1       423   12    0    1
 -2       971       973       972
 -1       424   12    0    1
 -2       973        59       974
 -1       425   12    0    1
 -2        46       976       975
 -1       426   12    0    1
 -2       976       978       977
 -1       427   12    0    1
 -2       978       980       979
 -1       428   12    0    1
 -2       980       982       981
 -1       429   12    0    1
 -2       982        60       983
 -1       430   12    0    1
 -2        47       985       984
 -1       431   12    0    1
 -2       985       987       986
 -1       432   12    0    1
 -2       987       989       988
 -1       433   12    0    1
 -2       989        48       990
 -1       434   12    0    1
 -2        47       992       991
 -1       435   12    0    1
 -2       992       994       993
 -1       436   12    0    1
 -2       994        60       995
 -1       437   12    0    1
 -2        47       997       996
 -1       438   12    0    1
 -2       997       999       998
 -1       439   12    0    1
 -2       999      1001      1000
 -1       440   12    0    1
 -2      1001      1003      1002
 -1       441   12    0    1
 -2      1003        61      1004
 -1       442   12    0    1
 -2        48      1006      1005
 -1       443   12    0    1
 -2      1006      1008      1007
 -1       444   12    0    1
 -2      1008      1010      1009
 -1       445   12    0    1
 -2      1010        49      1011
 -1       446   12    0    1
 -2        48      1013      1012
 -1       447   12    0    1
 -2      1013      1015      1014
 -1       448   12    0    1
 -2      1015        61      1016
 -1       449   12    0    1
 -2        48      1018      1017
 -1       450   12    0    1
 -2      1018      1020      1019
 -1       451   12    0    1
 -2      1020      1022      1021
 -1       452   12    0    1
 -2      1022      1024      1023
 -1       453   12    0    1
 -2      1024        62      1025
 -1       454   12    0    1
 -2        49      1027      1026
 -1       455   12    0    1
 -2      1027      1029      1028
 -1       456   12    0    1
 -2      1029      1031      1030
 -1       457   12    0    1
 -2      1031        50      1032
 -1       458   12    0    1
 -2        49      1034      1033
 -1       459   12    0    1
 -2      1034      1036      1035
 -1       460   12    0    1
 -2      1036        62      1037
 -1       461   12    0    1
 -2        49      1039      1038
 -1       462   12    0    1
 -2      1039      1041      1040
 -1       463   12    0    1
 -2      1041      1043      1042
 -1       464   12    0    1
 -2      1043      1045      1044
 -1       465   12    0    1
 -2      1045        63      1046
 -1       466   12    0    1
 -2        50      1048      1047
 -1       467   12    0    1
 -2      1048      1050      1049
 -1       468   12    0    1
 -2      1050      1052      1051
 -1       469   12    0    1
 -2      1052        51      1053
 -1       470   12    0    1
 -2        50      1055      1054
 -1       471   12    0    1
 -2      1055      1057      1056
 -1       472   12    0    1
 -2      1057        63      1058
 -1       473   12    0    1
 -2        50      1060      1059
 -1       474   12    0    1
 -2      1060      1062      1061
 -1       475   12    0    1
 -2      1062      1064      1063
 -1       476   12    0    1
 -2      1064      1066      1065
 -1       477   12    0    1
 -2      1066        64      1067
 -1       478   12    0    1
 -2        51      1069      1068
 -1       479   12    0    1
 -2      1069      1071      1070
 -1       480   12    0    1
 -2      1071      1073      1072
 -1       481   12    0    1
 -2      1073        52      1074
 -1       482   12    0    1
 -2        51      1076      1075
 -1       483   12    0    1
 -2      1076      1078      1077
 -1       484   12    0    1
 -2      1078        64      1079
 -1       485   12    0    1
 -2        51      1081      1080
 -1       486   12    0    1
 -2      1081      1083      1082
 -1       487   12    0    1
 -2      1083      1085      1084
 -1       488   12    0    1
 -2      1085      1087      1086
 -1       489   12    0    1
 -2      1087        65      1088
 -1       490   12    0    1
 -2        52      1090      1089
 -1       491   12    0    1
 -2      1090      1092      1091
 -1       492   12    0    1
 -2      1092        65      1093
 -1       493   12    0    1
 -2        53      1095      1094
 -1       494   12    0    1
 -2      1095      1097      1096
 -1       495   12    0    1
 -2      1097      1099      1098
 -1       496   12    0    1
 -2      1099        54      1100
 -1       497   12    0    1
 -2        54      1102      1101
 -1       498   12    0    1
 -2      1102      1104      1103
 -1       499   12    0    1
 -2      1104      1106      1105
 -1       500   12    0    1
 -2      1106        55      1107
 -1       501   12    0    1
 -2        55      1109      1108
 -1       502   12    0    1
 -2      1109      1111      1110
 -1       503   12    0    1
 -2      1111      1113      1112
 -1       504   12    0    1
 -2      1113        56      1114
 -1       505   12    0    1
 -2        56      1116      1115
 -1       506   12    0    1
 -2      1116      1118      1117
 -1       507   12    0    1
 -2      1118      1120      1119
 -1       508   12    0    1
 -2      1120        57      1121
 -1       509   12    0    1
 -2        57      1123      1122
 -1       510   12    0    1
 -2      1123      1125      1124
 -1       511   12    0    1
 -2      1125      1127      1126
 -1       512   12    0    1
 -2      1127        58      1128
 -1       513   12    0    1
 -2        58      1130      1129
 -1       514   12    0    1
 -2      1130      1132      1131
 -1       515   12    0    1
 -2      1132      1134      1133
 -1       516   12    0    1
 -2      1134        59      1135
 -1       517   12    0    1
 -2        59      1137      1136
 -1       518   12    0    1
 -2      1137      1139      1138
 -1       519   12    0    1
 -2      1139      1141      1140
 -1       520   12    0    1
 -2      1141        60      1142
 -1       521   12    0    1
 -2        60      1144      1143
 -1       522   12    0    1
 -2      1144      1146      1145
 -1       523   12    0    1
 -2      1146      1148      1147
 -1       524   12    0    1
 -2      1148        61      1149
 -1       525   12    0    1
 -2        61      1151      1150
 -1       526   12    0    1
 -2      1151      1153      1152
 -1       527   12    0    1
 -2      1153      1155      1154
 -1       528   12    0    1
 -2      1155        62      1156
 -1       529   12    0    1
 -2        62      1158      1157
 -1       530   12    0    1
 -2      1158      1160      1159
 -1       531   12    0    1
 -2      1160      1162      1161
 -1       532   12    0    1
 -2      1162        63      1163
 -1       533   12    0    1
 -2        63      1165      1164
 -1       534   12    0    1
 -2      1165      1167      1166
 -1       535   12    0    1
 -2      1167      1169      1168
 -1       536   12    0    1
 -2      1169        64      1170
 -1       537   12    0    1
 -2        64      1172      1171
 -1       538   12    0    1
 -2      1172      1174      1173
 -1       539   12    0    1
 -2      1174      1176      1175
 -1       540   12    0    1
 -2      1176        65      1177
 -3
    1PSTEP                         1           1           1          
  100CL  101 1.000000000        1001                     0    1           1
 -4  DISP        4    1
 -5  D1          1    2    1    0
 -5  D2          1    2    2    0
 -5  D3          1    2    3    0
 -5  ALL         1    2    0    0    1ALL
 -1         1-4.74176E-05 0.00000E+00 0.00000E+00
 -1         2-3.46525E-05 0.00000E+00 0.00000E+00
 -1         3-2.66217E-05 0.00000E+00 0.00000E+00
 -1         4-2.11605E-05 0.00000E+00 0.00000E+00
 -1         5-1.72731E-05 0.00000E+00 0.00000E+00
 -1         6-1.44593E-05 0.00000E+00 0.00000E+00
 -1         7-1.25326E-05 0.00000E+00 0.00000E+00
 -1         8-1.17074E-05 0.00000E+00 0.00000E+00
 -1         9-1.17322E-05 0.00000E+00 0.00000E+00
 -1        14-2.59999E-05 1.77643E-06 0.00000E+00
 -1        15-2.74379E-05-2.89742E-06 0.00000E+00
 -1        16-2.43090E-05-2.30549E-06 0.00000E+00
 -1        17-2.06184E-05-1.53278E-06 0.00000E+00
 -1        18-1.74369E-05-8.45640E-07 0.00000E+00
 -1        19-1.48117E-05-3.86164E-07 0.00000E+00
 -1        20-1.24322E-05-2.90179E-07 0.00000E+00
 -1        21-1.04718E-05 1.48666E-07 0.00000E+00
 -1        22-1.07614E-05 8.88122E-07 0.00000E+00
 -1        27-1.60442E-05 1.75888E-06 0.00000E+00
 -1        28-1.70099E-05-3.39247E-06 0.00000E+00
 -1        29-1.75195E-05-4.20724E-06 0.00000E+00
 -1        30-1.64329E-05-3.26192E-06 0.00000E+00
 -1        31-1.48047E-05-1.92755E-06 0.00000E+00
 -1        32-1.35168E-05-8.57722E-07 0.00000E+00
 -1        33-1.19988E-05-8.08229E-07 0.00000E+00
 -1        34-9.35380E-06-9.38136E-07 0.00000E+00
 -1        35-5.60994E-06 2.35846E-06 0.00000E+00
 -1        36-1.54433E-06 2.44460E-05 0.00000E+00
 -1        37 2.56119E-07 4.88700E-05 0.00000E+00
 -1        38 7.48001E-07 7.37848E-05 0.00000E+00
 -1        39 7.35868E-07 9.76775E-05 0.00000E+00
 -1        40-9.19006E-06 1.14358E-06 0.00000E+00
 -1        41-1.00866E-05-3.74972E-06 0.00000E+00
 -1        42-1.11241E-05-5.23709E-06 0.00000E+00
 -1        43-1.13353E-05-4.66356E-06 0.00000E+00
 -1        44-1.05044E-05-3.15036E-06 0.00000E+00
 -1        45-9.38205E-06-1.11667E-06 0.00000E+00
 -1        46-1.04342E-05-6.92094E-07 0.00000E+00
 -1        47-1.11181E-05-1.54528E-06 0.00000E+00
 -1        48-1.17821E-05 3.38790E-06 0.00000E+00
 -1        49-1.38941E-05 2.26313E-05 0.00000E+00
 -1        50-1.48040E-05 4.73489E-05 0.00000E+00
 -1        51-1.53646E-05 7.27007E-05 0.00000E+00
 -1        52-1.57630E-05 9.68122E-05 0.00000E+00
 -1        53 0.00000E+00 0.00000E+00 0.00000E+00
 -1        54-3.68592E-06-4.22951E-06 0.00000E+00
 -1        55-6.42101E-06-5.85660E-06 0.00000E+00
 -1        56-7.91693E-06-5.52407E-06 0.00000E+00
 -1        57-7.72643E-06-4.24539E-06 0.00000E+00
 -1        58-5.38579E-06-2.55399E-06 0.00000E+00
 -1        59 0.00000E+00 0.00000E+00 0.00000E+00
 -1        60-8.06093E-06-2.00773E-06 0.00000E+00
 -1        61-1.52445E-05 3.49468E-06 0.00000E+00
 -1        62-2.23442E-05 2.16385E-05 0.00000E+00
 -1        63-2.74637E-05 4.61026E-05 0.00000E+00
 -1        64-3.02126E-05 7.17875E-05 0.00000E+00
 -1        65-3.12581E-05 9.62305E-05 0.00000E+00
 -1        66-4.58346E-05-1.38966E-21 0.00000E+00
 -1        67-4.42306E-05-1.68083E-21-2.64698E-23
 -1        68-4.26266E-05 7.94093E-23 0.00000E+00
 -1        69-4.10207E-05 4.43369E-22 0.00000E+00
 -1        70-3.94153E-05-2.05141E-22 0.00000E+00
 -1        71-3.78146E-05 3.57342E-21-2.64698E-23
 -1        72-3.62143E-05 4.32781E-21 0.00000E+00
 -1        73-4.59939E-05 3.35113E-07-1.32349E-23
 -1        74-4.27783E-05 6.31869E-07-6.61744E-24
 -1        75-3.84703E-05 9.24591E-07 1.32349E-23
 -1        76-3.37711E-05 1.21007E-06 0.00000E+00
 -1        77-2.93814E-05 1.49555E-06 0.00000E+00
 -1        78-4.60772E-05 5.78990E-07 2.64698E-23
 -1        79-4.44161E-05 7.52985E-07 0.00000E+00
 -1        80-4.25090E-05 5.98586E-07 0.00000E+00
 -1        81-4.04170E-05 1.99574E-07 0.00000E+00
 -1        82-3.82022E-05-3.63706E-07 5.29396E-23
 -1        83-3.59251E-05-1.01172E-06 2.64698E-23
 -1        84-3.36456E-05-1.66515E-06 0.00000E+00
 -1        85-3.14272E-05-2.24767E-06-1.32349E-23
 -1        86-2.93250E-05-2.67581E-06 0.00000E+00
 -1        87-3.36561E-05 5.42630E-22 0.00000E+00
 -1        88-3.26468E-05 1.41613E-21 0.00000E+00
 -1        89-3.16376E-05 1.41613E-21 0.00000E+00
 -1        90-3.06272E-05 7.80858E-22-1.32349E-23
 -1        91-2.96171E-05-7.21301E-22 2.64698E-23
 -1        92-2.86101E-05-6.15422E-22 0.00000E+00
 -1        93-2.76034E-05 2.61389E-21-2.64698E-23
 -1        94-3.42255E-05-4.44042E-07-3.30872E-24
 -1        95-3.32308E-05-9.39340E-07 0.00000E+00
 -1        96-3.18602E-05-1.43471E-06 6.61744E-24
 -1        97-3.03083E-05-1.93268E-06 0.00000E+00
 -1        98-2.87695E-05-2.43171E-06 0.00000E+00
 -1        99-3.39766E-05 2.54669E-07 0.00000E+00
 -1       100-3.31184E-05 2.65210E-07 1.32349E-23
 -1       101-3.21164E-05 8.36716E-08 2.64698E-23
 -1       102-3.10093E-05-2.38621E-07 0.00000E+00
 -1       103-2.98351E-05-6.50718E-07 0.00000E+00
 -1       104-2.86321E-05-1.10219E-06 1.32349E-23
 -1       105-2.74381E-05-1.54258E-06 2.64698E-23
 -1       106-2.62926E-05-1.92257E-06 0.00000E+00
 -1       107-2.52317E-05-2.19001E-06-1.32349E-23
 -1       108-2.59465E-05 3.04072E-21-1.32349E-23
 -1       109-2.52602E-05 8.06997E-21 0.00000E+00
 -1       110-2.45738E-05 5.29726E-21 0.00000E+00
 -1       111-2.38864E-05 5.07227E-21 1.32349E-23
 -1       112-2.31991E-05 1.56833E-21 2.64698E-23
 -1       113-2.25138E-05-5.75718E-22-6.61744E-24
 -1       114-2.18287E-05-1.02570E-21 1.32349E-23
 -1       115-2.65103E-05-3.59148E-07 8.27181E-25
 -1       116-2.62356E-05-7.52959E-07 3.30872E-24
 -1       117-2.58376E-05-1.14649E-06 0.00000E+00
 -1       118-2.53568E-05-1.54115E-06 0.00000E+00
 -1       119-2.48337E-05-1.93651E-06 0.00000E+00
 -1       120-2.62337E-05 1.35228E-07 0.00000E+00
 -1       121-2.57345E-05 1.19485E-07-6.61744E-24
 -1       122-2.51472E-05-1.38480E-08 1.32349E-23
 -1       123-2.44963E-05-2.32398E-07 0.00000E+00
 -1       124-2.38061E-05-5.03761E-07 0.00000E+00
 -1       125-2.31006E-05-7.95799E-07 0.00000E+00
 -1       126-2.24041E-05-1.07632E-06 0.00000E+00
 -1       127-2.17414E-05-1.31366E-06 6.61744E-24
 -1       128-2.11359E-05-1.47491E-06 0.00000E+00
 -1       129-2.06805E-05 4.66530E-22 0.00000E+00
 -1       130-2.01920E-05-1.62127E-22 0.00000E+00
 -1       131-1.97035E-05 2.66021E-21 1.32349E-23
 -1       132-1.92142E-05 7.47771E-22 0.00000E+00
 -1       133-1.87250E-05-1.38635E-21-1.32349E-23
 -1       134-1.82371E-05-1.43599E-21 6.61744E-24
 -1       135-1.77493E-05 1.01578E-21 0.00000E+00
 -1       136-2.11590E-05-2.38860E-07 0.00000E+00
 -1       137-2.11372E-05-5.01115E-07 0.00000E+00
 -1       138-2.10836E-05-7.63124E-07 0.00000E+00
 -1       139-2.09869E-05-1.02571E-06 1.65436E-24
 -1       140-2.08355E-05-1.28875E-06 0.00000E+00
 -1       141-2.09139E-05 8.75585E-08 6.61744E-24
 -1       142-2.05989E-05 8.07035E-08 0.00000E+00
 -1       143-2.02295E-05 1.31978E-09-6.61744E-24
 -1       144-1.98216E-05-1.29906E-07-3.30872E-24
 -1       145-1.93907E-05-2.92107E-07 6.61744E-24
 -1       146-1.89522E-05-4.64594E-07 3.30872E-24
 -1       147-1.85216E-05-6.26648E-07 0.00000E+00
 -1       148-1.81149E-05-7.57785E-07-3.30872E-24
 -1       149-1.77472E-05-8.36963E-07 0.00000E+00
 -1       150-1.69255E-05 1.44757E-21 0.00000E+00
 -1       151-1.65720E-05-9.38023E-22 0.00000E+00
 -1       152-1.62185E-05-3.19623E-21-1.32349E-23
 -1       153-1.58645E-05-1.98523E-21-6.61744E-24
 -1       154-1.55105E-05-2.08119E-21 0.00000E+00
 -1       155-1.51574E-05-8.96664E-22 3.30872E-24
 -1       156-1.48044E-05 5.31050E-22 0.00000E+00
 -1       157-1.73093E-05-1.30133E-07-1.65436E-24
 -1       158-1.73775E-05-2.75634E-07 8.27181E-25
 -1       159-1.74512E-05-4.20962E-07 0.00000E+00
 -1       160-1.75036E-05-5.66621E-07 8.27181E-25
 -1       161-1.75077E-05-7.12562E-07 2.06795E-25
 -1       162-1.71028E-05 6.62322E-08-6.61744E-24
 -1       163-1.68901E-05 7.26852E-08 3.30872E-24
 -1       164-1.66434E-05 3.38373E-08 0.00000E+00
 -1       165-1.63731E-05-3.70578E-08 3.30872E-24
 -1       166-1.60889E-05-1.26520E-07 0.00000E+00
 -1       167-1.58008E-05-2.21213E-07-3.30872E-24
 -1       168-1.55190E-05-3.07781E-07 0.00000E+00
 -1       169-1.52534E-05-3.72958E-07 3.30872E-24
 -1       170-1.50140E-05-4.03272E-07 0.00000E+00
 -1       171-1.42204E-05-1.77017E-22 6.61744E-24
 -1       172-1.39784E-05-1.78836E-21 0.00000E+00
 -1       173-1.37364E-05-2.75947E-21 6.61744E-24
 -1       174-1.34942E-05-2.25324E-21 0.00000E+00
 -1       175-1.32519E-05-2.44680E-21 6.61744E-24
 -1       176-1.30104E-05-3.32030E-21-3.30872E-24
 -1       177-1.27688E-05-1.59646E-21 0.00000E+00
 -1       178-1.45006E-05-5.74836E-08 1.65436E-24
 -1       179-1.45845E-05-1.24929E-07 0.00000E+00
 -1       180-1.46843E-05-1.92249E-07-4.13590E-25
 -1       181-1.47733E-05-2.59716E-07-1.03398E-25
 -1       182-1.48246E-05-3.27359E-07-8.27181E-25
 -1       183-1.43193E-05 5.67068E-08 3.30872E-24
 -1       184-1.41455E-05 6.64888E-08-1.65436E-24
 -1       185-1.39447E-05 4.02183E-08-3.30872E-24
 -1       186-1.37246E-05-1.18696E-08-1.65436E-24
 -1       187-1.34930E-05-7.94261E-08-3.30872E-24
 -1       188-1.32576E-05-1.52182E-07-1.65436E-24
 -1       189-1.30260E-05-2.19856E-07-3.30872E-24
 -1       190-1.28061E-05-2.72223E-07 0.00000E+00
 -1       191-1.26054E-05-2.98933E-07-3.30872E-24
 -1       192-1.24285E-05 1.48562E-21 0.00000E+00
 -1       193-1.23250E-05 2.58659E-21 0.00000E+00
 -1       194-1.22215E-05 3.79138E-21 0.00000E+00
 -1       195-1.21181E-05 3.46010E-21 0.00000E+00
 -1       196-1.20148E-05 2.89265E-21 0.00000E+00
 -1       197-1.19117E-05 2.54648E-21-1.65436E-24
 -1       198-1.18087E-05 1.49389E-21 3.30872E-24
 -1       199-1.25353E-05-4.37917E-08 0.00000E+00
 -1       200-1.25363E-05-9.46589E-08 0.00000E+00
 -1       201-1.25311E-05-1.45399E-07 4.13590E-25
 -1       202-1.25150E-05-1.96084E-07-1.93870E-26
 -1       203-1.24836E-05-2.46878E-07 8.27181E-25
 -1       204-1.23832E-05 8.68005E-08 0.00000E+00
 -1       205-1.22119E-05 1.48517E-07 0.00000E+00
 -1       206-1.20236E-05 1.87562E-07 0.00000E+00
 -1       207-1.18209E-05 2.07981E-07-3.30872E-24
 -1       208-1.16069E-05 2.13465E-07 0.00000E+00
 -1       209-1.13846E-05 2.07828E-07 0.00000E+00
 -1       210-1.11569E-05 1.94873E-07 0.00000E+00
 -1       211-1.09267E-05 1.78283E-07-3.30872E-24
 -1       212-1.06969E-05 1.62029E-07 0.00000E+00
 -1       213-1.17083E-05-9.91583E-22 0.00000E+00
 -1       214-1.17121E-05-1.22149E-21 0.00000E+00
 -1       215-1.17159E-05-1.21792E-21 0.00000E+00
 -1       216-1.17201E-05-9.91712E-22 0.00000E+00
 -1       217-1.17242E-05-8.80172E-22-2.06795E-25
 -1       218-1.17280E-05-4.53036E-22-2.06795E-25
 -1       219-1.17317E-05 1.36485E-23-8.27181E-25
 -1       220-1.16260E-05 2.51547E-08-1.65436E-24
 -1       221-1.14418E-05 4.86938E-08 4.13590E-25
 -1       222-1.11943E-05 7.23301E-08-1.65436E-24
 -1       223-1.09235E-05 9.63211E-08 0.00000E+00
 -1       224-1.06695E-05 1.20327E-07 0.00000E+00
 -1       225-1.16403E-05 1.20742E-07 0.00000E+00
 -1       226-1.16123E-05 2.98205E-07-1.65436E-24
 -1       227-1.16079E-05 5.07340E-07-3.30872E-24
 -1       228-1.16094E-05 7.24894E-07-1.65436E-24
 -1       229-1.15994E-05 9.27241E-07 3.30872E-24
 -1       230-1.15603E-05 1.09092E-06-1.65436E-24
 -1       231-1.14746E-05 1.19242E-06 3.30872E-24
 -1       232-1.13246E-05 1.20819E-06-1.65436E-24
 -1       233-1.10926E-05 1.11465E-06 0.00000E+00
 -1       241-1.17331E-05 1.45323E-07 0.00000E+00
 -1       242-1.17004E-05 2.93908E-07 1.65436E-24
 -1       243-1.16105E-05 4.42503E-07 3.30872E-24
 -1       244-1.14398E-05 5.91376E-07 0.00000E+00
 -1       245-1.11646E-05 7.40308E-07-3.30872E-24
 -1       323-2.61720E-05-5.34064E-08-8.27181E-25
 -1       324-2.63566E-05-1.13388E-06 0.00000E+00
 -1       325-2.65407E-05-1.66046E-06 3.30872E-24
 -1       326-2.67260E-05-1.83057E-06-1.65436E-24
 -1       327-2.69110E-05-1.84171E-06 0.00000E+00
 -1       328-2.70936E-05-1.89156E-06 0.00000E+00
 -1       329-2.72760E-05-2.17793E-06-8.27181E-25
 -1       330-2.37710E-05 1.77819E-06-3.30872E-24
 -1       331-2.17777E-05 1.77449E-06 0.00000E+00
 -1       332-2.00144E-05 1.77109E-06 8.27181E-25
 -1       333-1.84751E-05 1.76716E-06 0.00000E+00
 -1       334-1.71538E-05 1.76333E-06 0.00000E+00
 -1       335-2.44395E-05 3.58662E-07-6.61744E-24
 -1       336-2.31377E-05-6.93035E-07-6.61744E-24
 -1       337-2.20589E-05-1.44629E-06 0.00000E+00
 -1       338-2.11569E-05-1.96067E-06 0.00000E+00
 -1       339-2.03881E-05-2.29681E-06 0.00000E+00
 -1       340-1.97083E-05-2.51429E-06 0.00000E+00
 -1       341-1.90733E-05-2.67245E-06 1.32349E-23
 -1       342-1.84401E-05-2.83126E-06-6.61744E-24
 -1       343-1.77632E-05-3.04874E-06 0.00000E+00
 -1       344-2.70496E-05-3.60557E-06 1.32349E-23
 -1       345-2.66570E-05-3.78983E-06-6.61744E-24
 -1       346-2.62643E-05-3.60055E-06 1.32349E-23
 -1       347-2.58714E-05-3.18817E-06 6.61744E-24
 -1       348-2.54785E-05-2.70263E-06 1.32349E-23
 -1       349-2.50864E-05-2.29371E-06 0.00000E+00
 -1       350-2.46944E-05-2.11139E-06-6.61744E-24
 -1       351-2.59802E-05-2.96606E-06 0.00000E+00
 -1       352-2.41103E-05-3.05174E-06 0.00000E+00
 -1       353-2.20529E-05-3.13778E-06-4.13590E-25
 -1       354-2.00335E-05-3.22506E-06 1.03398E-25
 -1       355-1.82777E-05-3.31233E-06 0.00000E+00
 -1       356-2.62688E-05-3.28901E-06 0.00000E+00
 -1       357-2.51530E-05-3.57921E-06 0.00000E+00
 -1       358-2.40949E-05-3.79199E-06-2.64698E-23
 -1       359-2.30830E-05-3.93920E-06 1.32349E-23
 -1       360-2.21094E-05-4.03493E-06-2.64698E-23
 -1       361-2.11648E-05-4.09213E-06 0.00000E+00
 -1       362-2.02402E-05-4.12358E-06-2.64698E-23
 -1       363-1.93286E-05-4.14339E-06 0.00000E+00
 -1       364-1.84181E-05-4.16215E-06 1.32349E-23
 -1       365-2.38548E-05-2.60017E-06-1.32349E-23
 -1       366-2.33909E-05-2.61835E-06 0.00000E+00
 -1       367-2.29270E-05-2.44250E-06 0.00000E+00
 -1       368-2.24621E-05-2.15509E-06-6.61744E-24
 -1       369-2.19972E-05-1.83826E-06 0.00000E+00
 -1       370-2.15337E-05-1.57411E-06 6.61744E-24
 -1       371-2.10702E-05-1.44488E-06 0.00000E+00
 -1       372-2.35054E-05-2.60525E-06 0.00000E+00
 -1       373-2.23413E-05-2.92902E-06-9.92617E-24
 -1       374-2.09881E-05-3.25275E-06-6.61744E-24
 -1       375-1.96184E-05-3.57713E-06 0.00000E+00
 -1       376-1.84050E-05-3.90179E-06 1.65436E-24
 -1       377-2.35469E-05-2.38687E-06 1.32349E-23
 -1       378-2.27513E-05-2.48871E-06 0.00000E+00
 -1       379-2.19405E-05-2.61046E-06-1.32349E-23
 -1       380-2.11202E-05-2.74192E-06-6.61744E-24
 -1       381-2.02984E-05-2.87495E-06 0.00000E+00
 -1       382-1.94822E-05-3.00061E-06 0.00000E+00
 -1       383-1.86787E-05-3.10995E-06 1.32349E-23
 -1       384-1.78964E-05-3.19496E-06 0.00000E+00
 -1       385-1.71406E-05-3.24508E-06 0.00000E+00
 -1       386-2.02273E-05-1.67364E-06-6.61744E-24
 -1       387-1.98274E-05-1.65258E-06 0.00000E+00
 -1       388-1.94275E-05-1.51823E-06 0.00000E+00
 -1       389-1.90266E-05-1.31919E-06 0.00000E+00
 -1       390-1.86257E-05-1.10395E-06 0.00000E+00
 -1       391-1.82260E-05-9.20930E-07 0.00000E+00
 -1       392-1.78263E-05-8.18670E-07 6.61744E-24
 -1       393-2.01601E-05-1.80676E-06 0.00000E+00
 -1       394-1.94625E-05-2.10137E-06 0.00000E+00
 -1       395-1.86330E-05-2.39579E-06-6.61744E-24
 -1       396-1.77796E-05-2.69051E-06-3.30872E-24
 -1       397-1.70104E-05-2.98552E-06 1.65436E-24
 -1       398-2.00956E-05-1.50904E-06 1.32349E-23
 -1       399-1.95326E-05-1.52112E-06-6.61744E-24
 -1       400-1.89453E-05-1.56524E-06 0.00000E+00
 -1       401-1.83405E-05-1.63048E-06 0.00000E+00
 -1       402-1.77267E-05-1.70743E-06-1.32349E-23
 -1       403-1.71116E-05-1.78614E-06 0.00000E+00
 -1       404-1.65030E-05-1.85666E-06 0.00000E+00
 -1       405-1.59095E-05-1.90971E-06 0.00000E+00
 -1       406-1.53375E-05-1.93425E-06 0.00000E+00
 -1       407-1.71142E-05-9.09482E-07 0.00000E+00
 -1       408-1.67843E-05-8.85113E-07 0.00000E+00
 -1       409-1.64544E-05-7.99314E-07 0.00000E+00
 -1       410-1.61237E-05-6.78906E-07 0.00000E+00
 -1       411-1.57930E-05-5.50638E-07-6.61744E-24
 -1       412-1.54632E-05-4.41246E-07 0.00000E+00
 -1       413-1.51335E-05-3.77509E-07 0.00000E+00
 -1       414-1.71762E-05-1.01614E-06 0.00000E+00
 -1       415-1.67528E-05-1.20128E-06 1.65436E-24
 -1       416-1.62352E-05-1.38623E-06 3.30872E-24
 -1       417-1.56920E-05-1.57126E-06-1.65436E-24
 -1       418-1.51924E-05-1.75650E-06-4.13590E-25
 -1       419-1.70988E-05-7.84042E-07 0.00000E+00
 -1       420-1.67320E-05-7.49764E-07 0.00000E+00
 -1       421-1.63464E-05-7.40462E-07-6.61744E-24
 -1       422-1.59460E-05-7.49435E-07 0.00000E+00
 -1       423-1.55361E-05-7.70915E-07-6.61744E-24
 -1       424-1.51214E-05-7.98806E-07 0.00000E+00
 -1       425-1.47067E-05-8.27010E-07 6.61744E-24
 -1       426-1.42973E-05-8.49863E-07 3.30872E-24
 -1       427-1.38971E-05-8.60627E-07-6.61744E-24
 -1       428-1.45193E-05-4.21032E-07 0.00000E+00
 -1       429-1.42203E-05-4.15774E-07 0.00000E+00
 -1       430-1.39212E-05-3.83749E-07 6.61744E-24
 -1       431-1.36214E-05-3.38344E-07 3.30872E-24
 -1       432-1.33216E-05-2.92917E-07-6.61744E-24
 -1       433-1.30226E-05-2.60827E-07 0.00000E+00
 -1       434-1.27237E-05-2.55461E-07-6.61744E-24
 -1       435-1.46944E-05-4.58371E-07-8.27181E-25
 -1       436-1.45068E-05-5.40058E-07-2.06795E-25
 -1       437-1.42720E-05-6.21614E-07 8.27181E-25
 -1       438-1.40133E-05-7.03229E-07 2.06795E-25
 -1       439-1.37538E-05-7.85004E-07 8.27181E-25
 -1       440-1.45903E-05-3.51720E-07 6.61744E-24
 -1       441-1.43313E-05-3.63268E-07 0.00000E+00
 -1       442-1.40451E-05-4.10958E-07 0.00000E+00
 -1       443-1.37401E-05-4.83270E-07-3.30872E-24
 -1       444-1.34250E-05-5.69058E-07 0.00000E+00
 -1       445-1.31083E-05-6.57059E-07 0.00000E+00
 -1       446-1.27984E-05-7.36003E-07 6.61744E-24
 -1       447-1.25042E-05-7.94829E-07-3.30872E-24
 -1       448-1.22339E-05-8.21935E-07 6.61744E-24
 -1       449-1.21911E-05-2.98222E-07 6.61744E-24
 -1       450-1.19449E-05-2.33725E-07 0.00000E+00
 -1       451-1.16987E-05-1.23935E-07 6.61744E-24
 -1       452-1.14519E-05 3.82704E-09 0.00000E+00
 -1       453-1.12052E-05 1.22278E-07-6.61744E-24
 -1       454-1.09590E-05 2.04128E-07 3.30872E-24
 -1       455-1.07128E-05 2.22018E-07 0.00000E+00
 -1       456-1.23683E-05-3.70340E-07 8.27181E-25
 -1       457-1.23037E-05-4.59615E-07-4.13590E-25
 -1       458-1.22363E-05-5.48761E-07 0.00000E+00
 -1       459-1.21643E-05-6.37986E-07-4.13590E-25
 -1       460-1.20858E-05-7.27367E-07-4.13590E-25
 -1       461-1.21894E-05-2.73286E-07 0.00000E+00
 -1       462-1.18871E-05-3.29877E-07 0.00000E+00
 -1       463-1.15442E-05-4.40664E-07 0.00000E+00
 -1       464-1.11763E-05-5.83982E-07-3.30872E-24
 -1       465-1.07998E-05-7.38689E-07 6.61744E-24
 -1       466-1.04308E-05-8.83457E-07 0.00000E+00
 -1       467-1.00853E-05-9.96953E-07-6.61744E-24
 -1       468-9.77957E-06-1.05799E-06 0.00000E+00
 -1       469-9.52954E-06-1.04487E-06 0.00000E+00
 -1       470-1.05025E-05 1.45800E-07 0.00000E+00
 -1       471-1.05402E-05 3.10945E-07 2.06795E-25
 -1       472-1.05780E-05 5.73908E-07 4.13590E-25
 -1       473-1.06165E-05 8.64143E-07-4.13590E-25
 -1       474-1.06550E-05 1.11114E-06 0.00000E+00
 -1       475-1.06928E-05 1.24442E-06 0.00000E+00
 -1       476-1.07305E-05 1.19342E-06 1.65436E-24
 -1       477-1.02739E-05-2.39212E-08 0.00000E+00
 -1       478-1.00234E-05-2.09563E-07 0.00000E+00
 -1       479-9.76308E-06-3.94987E-07 0.00000E+00
 -1       480-9.53610E-06-5.80362E-07 0.00000E+00
 -1       481-9.38543E-06-7.65933E-07 4.13590E-25
 -1       482-9.93051E-06 2.67871E-07 1.32349E-23
 -1       483-9.31210E-06 3.12811E-07 0.00000E+00
 -1       484-8.65955E-06 3.12585E-07 1.32349E-23
 -1       485-8.00063E-06 3.07694E-07 0.00000E+00
 -1       486-7.36624E-06 3.36254E-07 0.00000E+00
 -1       487-6.78595E-06 4.37515E-07-6.61744E-24
 -1       488-6.28963E-06 6.50793E-07 0.00000E+00
 -1       489-5.90760E-06 1.01554E-06 0.00000E+00
 -1       490-5.66965E-06 1.57225E-06-1.32349E-23
 -1       498-9.86720E-06 1.12634E-06 0.00000E+00
 -1       499-8.59568E-06 1.36973E-06 0.00000E+00
 -1       500-7.24011E-06 1.61333E-06 0.00000E+00
 -1       501-6.09452E-06 1.85885E-06 0.00000E+00
 -1       502-5.45329E-06 2.10495E-06 0.00000E+00
 -1       580-1.61626E-05 8.72654E-07 1.65436E-24
 -1       581-1.62852E-05 1.55755E-07 0.00000E+00
 -1       582-1.64077E-05-4.41632E-07 0.00000E+00
 -1       583-1.65305E-05-9.69701E-07-1.65436E-24
 -1       584-1.66532E-05-1.47863E-06-3.30872E-24
 -1       585-1.67749E-05-2.01864E-06-1.65436E-24
 -1       586-1.68966E-05-2.63995E-06-8.27181E-25
 -1       587-1.49881E-05 1.65938E-06 0.00000E+00
 -1       588-1.38687E-05 1.55623E-06 0.00000E+00
 -1       589-1.27074E-05 1.45304E-06 3.30872E-24
 -1       590-1.15260E-05 1.34951E-06 1.65436E-24
 -1       591-1.03464E-05 1.24590E-06-3.30872E-24
 -1       592-1.53503E-05 1.06641E-06 0.00000E+00
 -1       593-1.46879E-05 4.28216E-07 0.00000E+00
 -1       594-1.40576E-05-1.67190E-07 0.00000E+00
 -1       595-1.34530E-05-7.26599E-07-1.65436E-24
 -1       596-1.28693E-05-1.25775E-06 0.00000E+00
 -1       597-1.23014E-05-1.76795E-06 0.00000E+00
 -1       598-1.17438E-05-2.26451E-06 3.30872E-24
 -1       599-1.11919E-05-2.75509E-06 0.00000E+00
 -1       600-1.06394E-05-3.24641E-06 1.65436E-24
 -1       601-1.70696E-05-3.98841E-06 0.00000E+00
 -1       602-1.71351E-05-4.22672E-06-4.13590E-25
 -1       603-1.72006E-05-4.21517E-06-8.27181E-25
 -1       604-1.72667E-05-4.06232E-06 8.27181E-25
 -1       605-1.73328E-05-3.87664E-06 0.00000E+00
 -1       606-1.73978E-05-3.76663E-06 0.00000E+00
 -1       607-1.74628E-05-3.84086E-06 0.00000E+00
 -1       608-1.59827E-05-3.44708E-06 0.00000E+00
 -1       609-1.47670E-05-3.50765E-06 8.27181E-25
 -1       610-1.34659E-05-3.56835E-06 8.27181E-25
 -1       611-1.21831E-05-3.62953E-06 8.27181E-25
 -1       612-1.10223E-05-3.69072E-06 8.27181E-25
 -1       613-1.62606E-05-3.80871E-06 6.61744E-24
 -1       614-1.55710E-05-4.12464E-06-3.30872E-24
 -1       615-1.49387E-05-4.36374E-06 0.00000E+00
 -1       616-1.43506E-05-4.54126E-06 6.61744E-24
 -1       617-1.37957E-05-4.67401E-06-1.32349E-23
 -1       618-1.32624E-05-4.77808E-06 0.00000E+00
 -1       619-1.27390E-05-4.86947E-06 0.00000E+00
 -1       620-1.22148E-05-4.96496E-06 0.00000E+00
 -1       621-1.16767E-05-5.07939E-06 0.00000E+00
 -1       622-1.73841E-05-4.54780E-06 6.61744E-24
 -1       623-1.72484E-05-4.54326E-06-1.65436E-24
 -1       624-1.71126E-05-4.30041E-06 3.30872E-24
 -1       625-1.69768E-05-3.92651E-06 0.00000E+00
 -1       626-1.68410E-05-3.52863E-06 0.00000E+00
 -1       627-1.67051E-05-3.21385E-06 1.65436E-24
 -1       628-1.65692E-05-3.08935E-06 3.30872E-24
 -1       629-1.66673E-05-4.36903E-06 0.00000E+00
 -1       630-1.55257E-05-4.54394E-06-1.65436E-24
 -1       631-1.42472E-05-4.71893E-06 0.00000E+00
 -1       632-1.29854E-05-4.89448E-06 0.00000E+00
 -1       633-1.18935E-05-5.07014E-06-1.65436E-24
 -1       634-1.68179E-05-4.38444E-06-6.61744E-24
 -1       635-1.61355E-05-4.51143E-06 0.00000E+00
 -1       636-1.54801E-05-4.60218E-06-1.32349E-23
 -1       637-1.48463E-05-4.66089E-06-6.61744E-24
 -1       638-1.42316E-05-4.69370E-06 1.32349E-23
 -1       639-1.36324E-05-4.70588E-06 0.00000E+00
 -1       640-1.30452E-05-4.70266E-06 0.00000E+00
 -1       641-1.24677E-05-4.69015E-06 6.61744E-24
 -1       642-1.18945E-05-4.67216E-06 6.61744E-24
 -1       643-1.62313E-05-3.45700E-06-6.61744E-24
 -1       644-1.60273E-05-3.37215E-06 0.00000E+00
 -1       645-1.58232E-05-3.09553E-06 0.00000E+00
 -1       646-1.56190E-05-2.71556E-06-3.30872E-24
 -1       647-1.54147E-05-2.32050E-06 6.61744E-24
 -1       648-1.52106E-05-1.99860E-06-3.30872E-24
 -1       649-1.50065E-05-1.83825E-06 0.00000E+00
 -1       650-1.57904E-05-3.48389E-06 1.65436E-24
 -1       651-1.48766E-05-3.72229E-06 0.00000E+00
 -1       652-1.38325E-05-3.96062E-06-6.61744E-24
 -1       653-1.27999E-05-4.19933E-06-1.65436E-24
 -1       654-1.19205E-05-4.43821E-06 0.00000E+00
 -1       655-1.58184E-05-3.30033E-06 1.32349E-23
 -1       656-1.51964E-05-3.32455E-06 0.00000E+00
 -1       657-1.45794E-05-3.34177E-06 0.00000E+00
 -1       658-1.39672E-05-3.34953E-06 0.00000E+00
 -1       659-1.33621E-05-3.34733E-06 1.32349E-23
 -1       660-1.27655E-05-3.33387E-06 0.00000E+00
 -1       661-1.21786E-05-3.30782E-06-1.32349E-23
 -1       662-1.16041E-05-3.26864E-06 0.00000E+00
 -1       663-1.10416E-05-3.21369E-06 0.00000E+00
 -1       664-1.46438E-05-2.05547E-06 0.00000E+00
 -1       665-1.44826E-05-1.97712E-06-3.30872E-24
 -1       666-1.43213E-05-1.75816E-06 0.00000E+00
 -1       667-1.41601E-05-1.46445E-06 3.30872E-24
 -1       668-1.39989E-05-1.16177E-06 0.00000E+00
 -1       669-1.38378E-05-9.15897E-07 0.00000E+00
 -1       670-1.36767E-05-7.92673E-07 0.00000E+00
 -1       671-1.42974E-05-2.12097E-06 0.00000E+00
 -1       672-1.35319E-05-2.32970E-06 0.00000E+00
 -1       673-1.26385E-05-2.53830E-06-3.30872E-24
 -1       674-1.17488E-05-2.74701E-06-1.65436E-24
 -1       675-1.09939E-05-2.95589E-06 4.13590E-25
 -1       676-1.42671E-05-1.86112E-06 0.00000E+00
 -1       677-1.37270E-05-1.77417E-06 6.61744E-24
 -1       678-1.31927E-05-1.67909E-06 1.32349E-23
 -1       679-1.26601E-05-1.57872E-06 0.00000E+00
 -1       680-1.21275E-05-1.47787E-06 0.00000E+00
 -1       681-1.15922E-05-1.38057E-06 0.00000E+00
 -1       682-1.10515E-05-1.29085E-06 0.00000E+00
 -1       683-1.05038E-05-1.21349E-06 0.00000E+00
 -1       684-9.94471E-06-1.15147E-06 1.32349E-23
 -1       685-1.33287E-05-9.97647E-07 6.61744E-24
 -1       686-1.31383E-05-1.04132E-06-3.30872E-24
 -1       687-1.29478E-05-1.01595E-06-6.61744E-24
 -1       688-1.27571E-05-9.48857E-07 3.30872E-24
 -1       689-1.25664E-05-8.67296E-07 0.00000E+00
 -1       690-1.23761E-05-7.98505E-07-3.30872E-24
 -1       691-1.21858E-05-7.69755E-07 0.00000E+00
 -1       692-1.30825E-05-8.96228E-07 1.65436E-24
 -1       693-1.23815E-05-9.42368E-07-3.55429E-26
 -1       694-1.15371E-05-9.88427E-07 0.00000E+00
 -1       695-1.06732E-05-1.03427E-06 4.13590E-25
 -1       696-9.91376E-06-1.08015E-06 0.00000E+00
 -1       697-1.32198E-05-8.32719E-07 6.61744E-24
 -1       698-1.29565E-05-7.53821E-07-3.30872E-24
 -1       699-1.27163E-05-6.44068E-07 6.61744E-24
 -1       700-1.24838E-05-5.23010E-07 0.00000E+00
 -1       701-1.22444E-05-4.10895E-07 0.00000E+00
 -1       702-1.19835E-05-3.27728E-07 0.00000E+00
 -1       703-1.16861E-05-2.93522E-07 0.00000E+00
 -1       704-1.13380E-05-3.28876E-07 3.30872E-24
 -1       705-1.09234E-05-4.53263E-07 0.00000E+00
 -1       706-1.16757E-05-8.91119E-07-6.61744E-24
 -1       707-1.13432E-05-9.54863E-07-3.30872E-24
 -1       708-1.10106E-05-9.99540E-07-6.61744E-24
 -1       709-1.06770E-05-1.02522E-06 3.30872E-24
 -1       710-1.03433E-05-1.03192E-06 0.00000E+00
 -1       711-1.00106E-05-1.01967E-06-3.30872E-24
 -1       712-9.67788E-06-9.88420E-07 6.61744E-24
 -1       713-1.19029E-05-7.85396E-07-1.65436E-24
 -1       714-1.17689E-05-7.66642E-07-8.27181E-25
 -1       715-1.15760E-05-7.47920E-07 8.27181E-25
 -1       716-1.13031E-05-7.29598E-07-4.13590E-25
 -1       717-1.09294E-05-7.11415E-07 0.00000E+00
 -1       718-1.19054E-05-8.81459E-07 1.65436E-24
 -1       719-1.17982E-05-9.79424E-07 0.00000E+00
 -1       720-1.16806E-05-1.09131E-06-8.27181E-25
 -1       721-1.15594E-05-1.20878E-06 0.00000E+00
 -1       722-1.14409E-05-1.32295E-06 8.27181E-25
 -1       723-1.13315E-05-1.42523E-06 0.00000E+00
 -1       724-1.12378E-05-1.50697E-06 0.00000E+00
 -1       725-1.11663E-05-1.55975E-06-1.03398E-25
 -1       726-1.11234E-05-1.57467E-06 0.00000E+00
 -1       727-8.89966E-06-8.35291E-07 0.00000E+00
 -1       728-8.43101E-06-6.45827E-07 6.61744E-24
 -1       729-7.96221E-06-3.69089E-07-1.32349E-23
 -1       730-7.49151E-06-4.28138E-09-6.61744E-24
 -1       731-7.02052E-06 4.49571E-07-1.32349E-23
 -1       732-6.54954E-06 9.93678E-07 0.00000E+00
 -1       733-6.07851E-06 1.62946E-06 0.00000E+00
 -1       734-9.53390E-06-1.03047E-06-8.27181E-25
 -1       735-9.85147E-06-1.13291E-06-8.27181E-25
 -1       736-1.02378E-05-1.23547E-06-1.65436E-24
 -1       737-1.06236E-05-1.33914E-06 1.65436E-24
 -1       738-1.09400E-05-1.44307E-06 0.00000E+00
 -1       739-9.34274E-06-8.38291E-07 3.30872E-24
 -1       740-9.36435E-06-6.99705E-07 1.65436E-24
 -1       741-9.42588E-06-5.07971E-07 0.00000E+00
 -1       742-9.53715E-06-2.50608E-07 0.00000E+00
 -1       743-9.70747E-06 8.52682E-08 0.00000E+00
 -1       744-9.94642E-06 5.12388E-07-8.27181E-25
 -1       745-1.02636E-05 1.04354E-06 1.65436E-24
 -1       746-1.06687E-05 1.69140E-06-8.27181E-25
 -1       747-1.11712E-05 2.46895E-06 1.65436E-24
 -1       748-5.10012E-06 3.64563E-06 0.00000E+00
 -1       749-4.58712E-06 5.69366E-06 6.61744E-24
 -1       750-4.07542E-06 8.33181E-06 0.00000E+00
 -1       751-3.56460E-06 1.13898E-05 6.61744E-24
 -1       752-3.05477E-06 1.46986E-05 1.32349E-23
 -1       753-2.54697E-06 1.80897E-05 6.61744E-24
 -1       754-2.03908E-06 2.13949E-05-1.32349E-23
 -1       755-6.44218E-06 2.54160E-06 0.00000E+00
 -1       756-7.36817E-06 2.71408E-06 0.00000E+00
 -1       757-8.37658E-06 2.88615E-06-6.61744E-24
 -1       758-9.45596E-06 3.05589E-06-1.65436E-24
 -1       759-1.05949E-05 3.22515E-06 0.00000E+00
 -1       760-5.79122E-06 3.52182E-06-1.32349E-23
 -1       761-6.21988E-06 5.02472E-06 6.61744E-24
 -1       762-6.85984E-06 6.80855E-06 0.00000E+00
 -1       763-7.66971E-06 8.81923E-06 0.00000E+00
 -1       764-8.60965E-06 1.10025E-05 1.32349E-23
 -1       765-9.63992E-06 1.33050E-05 6.61744E-24
 -1       766-1.07208E-05 1.56736E-05 0.00000E+00
 -1       767-1.18146E-05 1.80542E-05 0.00000E+00
 -1       768-1.28794E-05 2.03956E-05 0.00000E+00
 -1       769-1.31889E-06 2.73308E-05 6.61744E-24
 -1       770-1.09208E-06 3.03364E-05 3.30872E-24
 -1       771-8.65572E-07 3.34266E-05 0.00000E+00
 -1       772-6.39152E-07 3.65648E-05 0.00000E+00
 -1       773-4.12931E-07 3.97147E-05 0.00000E+00
 -1       774-1.87594E-07 4.28398E-05 3.30872E-24
 -1       775 3.78324E-08 4.59037E-05-3.30872E-24
 -1       776-4.05056E-06 2.41586E-05 0.00000E+00
 -1       777-6.18885E-06 2.38509E-05-6.61744E-24
 -1       778-8.10027E-06 2.35438E-05 0.00000E+00
 -1       779-9.92692E-06 2.32358E-05-3.30872E-24
 -1       780-1.18110E-05 2.29272E-05 3.30872E-24
 -1       781-2.95104E-06 2.68381E-05 0.00000E+00
 -1       782-4.31679E-06 2.91850E-05 3.30872E-24
 -1       783-5.65319E-06 3.14930E-05-6.61744E-24
 -1       784-6.96693E-06 3.37721E-05 0.00000E+00
 -1       785-8.26572E-06 3.60314E-05 6.61744E-24
 -1       786-9.55690E-06 3.82803E-05 0.00000E+00
 -1       787-1.08477E-05 4.05281E-05-6.61744E-24
 -1       788-1.21466E-05 4.27834E-05 0.00000E+00
 -1       789-1.34592E-05 4.50567E-05 0.00000E+00
 -1       790 3.18375E-07 5.18431E-05 0.00000E+00
 -1       791 3.80664E-07 5.49287E-05 0.00000E+00
 -1       792 4.42698E-07 5.80908E-05 0.00000E+00
 -1       793 5.04579E-07 6.12933E-05-8.27181E-25
 -1       794 5.66364E-07 6.45001E-05 0.00000E+00
 -1       795 6.27806E-07 6.76750E-05 0.00000E+00
 -1       796 6.89408E-07 7.07819E-05-8.27181E-25
 -1       797-2.47767E-06 4.86255E-05-3.30872E-24
 -1       798-5.01765E-06 4.83682E-05 3.30872E-24
 -1       799-7.44182E-06 4.81114E-05 6.61744E-24
 -1       800-9.82865E-06 4.78542E-05 3.30872E-24
 -1       801-1.22566E-05 4.75967E-05 0.00000E+00
 -1       802-1.33369E-06 5.12830E-05 0.00000E+00
 -1       803-2.91265E-06 5.36907E-05 0.00000E+00
 -1       804-4.48551E-06 5.60903E-05 6.61744E-24
 -1       805-6.05214E-06 5.84829E-05 0.00000E+00
 -1       806-7.61342E-06 6.08685E-05 6.61744E-24
 -1       807-9.16985E-06 6.32476E-05-3.30872E-24
 -1       808-1.07219E-05 6.56205E-05 0.00000E+00
 -1       809-1.22707E-05 6.79873E-05 1.65436E-24
 -1       810-1.38159E-05 7.03489E-05 0.00000E+00
 -1       811 7.46662E-07 7.67405E-05-2.58494E-26
 -1       812 7.45786E-07 7.97367E-05 0.00000E+00
 -1       813 7.44819E-07 8.27576E-05 0.00000E+00
 -1       814 7.43829E-07 8.57873E-05 0.00000E+00
 -1       815 7.42789E-07 8.88099E-05-2.06795E-25
 -1       816 7.41412E-07 9.18098E-05 0.00000E+00
 -1       817 7.40107E-07 9.47708E-05-8.27181E-25
 -1       818-2.07361E-06 7.36085E-05 3.30872E-24
 -1       819-4.77053E-06 7.34255E-05 0.00000E+00
 -1       820-7.39531E-06 7.32428E-05 0.00000E+00
 -1       821-1.00007E-05 7.30600E-05 0.00000E+00
 -1       822-1.26396E-05 7.28771E-05 0.00000E+00
 -1       823-9.54037E-07 7.61509E-05 0.00000E+00
 -1       824-2.64204E-06 7.85038E-05 0.00000E+00
 -1       825-4.31880E-06 8.08419E-05-1.65436E-24
 -1       826-5.98421E-06 8.31657E-05 0.00000E+00
 -1       827-7.63879E-06 8.54751E-05 0.00000E+00
 -1       828-9.28280E-06 8.77705E-05-8.27181E-25
 -1       829-1.09165E-05 9.00521E-05-1.65436E-24
 -1       830-1.25406E-05 9.23196E-05 4.13590E-25
 -1       831-1.41546E-05 9.45740E-05-2.06795E-25
 -1       832-2.09202E-06 9.75349E-05 0.00000E+00
 -1       833-4.86629E-06 9.73894E-05 1.65436E-24
 -1       834-7.60371E-06 9.72441E-05 3.30872E-24
 -1       835-1.03211E-05 9.70989E-05 0.00000E+00
 -1       836-1.30352E-05 9.69537E-05-3.30872E-24
 -1       837-9.30158E-06 1.66118E-07 0.00000E+00
 -1       838-9.41468E-06-5.93741E-07 0.00000E+00
 -1       839-9.52766E-06-1.19225E-06 0.00000E+00
 -1       840-9.64071E-06-1.68612E-06 0.00000E+00
 -1       841-9.75366E-06-2.13206E-06 0.00000E+00
 -1       842-9.86607E-06-2.58683E-06 1.65436E-24
 -1       843-9.97847E-06-3.10723E-06 1.65436E-24
 -1       844-7.86499E-06 9.59605E-07 0.00000E+00
 -1       845-6.31060E-06 7.70097E-07 0.00000E+00
 -1       846-4.63660E-06 5.80160E-07 6.61744E-24
 -1       847-2.95336E-06 3.88726E-07-3.30872E-24
 -1       848-1.37123E-06 1.97203E-07 6.61744E-24
 -1       849-8.45845E-06 3.53888E-07 8.27181E-25
 -1       850-7.77946E-06-3.51717E-07 0.00000E+00
 -1       851-7.15296E-06-9.87067E-07-3.30872E-24
 -1       852-6.57143E-06-1.56061E-06 1.65436E-24
 -1       853-6.02890E-06-2.08189E-06 0.00000E+00
 -1       854-5.51888E-06-2.55996E-06 1.65436E-24
 -1       855-5.03484E-06-3.00385E-06 0.00000E+00
 -1       856-4.57131E-06-3.42332E-06 8.27181E-25
 -1       857-4.12035E-06-3.82628E-06 8.27181E-25
 -1       858-1.02127E-05-4.31041E-06 0.00000E+00
 -1       859-1.03440E-05-4.61315E-06-1.65436E-24
 -1       860-1.04751E-05-4.73300E-06 0.00000E+00
 -1       861-1.06068E-05-4.74563E-06 0.00000E+00
 -1       862-1.07385E-05-4.72670E-06 0.00000E+00
 -1       863-1.08693E-05-4.75189E-06 0.00000E+00
 -1       864-1.10001E-05-4.89694E-06 1.65436E-24
 -1       865-9.14892E-06-3.82549E-06-1.65436E-24
 -1       866-8.00327E-06-3.90451E-06 8.27181E-25
 -1       867-6.76664E-06-3.98382E-06 3.30872E-24
 -1       868-5.55660E-06-4.06415E-06 0.00000E+00
 -1       869-4.49071E-06-4.14449E-06 3.30872E-24
 -1       870-9.54957E-06-4.19770E-06 0.00000E+00
 -1       871-9.07055E-06-4.55535E-06 0.00000E+00
 -1       872-8.64619E-06-4.83993E-06-3.30872E-24
 -1       873-8.26623E-06-5.06361E-06 0.00000E+00
 -1       874-7.92189E-06-5.23957E-06 6.61744E-24
 -1       875-7.60391E-06-5.38056E-06 0.00000E+00
 -1       876-7.30297E-06-5.49925E-06 0.00000E+00
 -1       877-7.01076E-06-5.60902E-06 0.00000E+00
 -1       878-6.71667E-06-5.72154E-06-8.27181E-25
 -1       879-1.11492E-05-5.53150E-06 0.00000E+00
 -1       880-1.11766E-05-5.55265E-06 2.58494E-26
 -1       881-1.12039E-05-5.38453E-06 0.00000E+00
 -1       882-1.12316E-05-5.11174E-06 0.00000E+00
 -1       883-1.12591E-05-4.81876E-06 4.13590E-25
 -1       884-1.12861E-05-4.59010E-06 0.00000E+00
 -1       885-1.13130E-05-4.51034E-06-6.20385E-25
 -1       886-1.04494E-05-5.33482E-06-1.65436E-24
 -1       887-9.58123E-06-5.43842E-06-8.27181E-25
 -1       888-8.63181E-06-5.54218E-06 3.30872E-24
 -1       889-7.71368E-06-5.64676E-06 1.65436E-24
 -1       890-6.93942E-06-5.75142E-06 0.00000E+00
 -1       891-1.06705E-05-5.45564E-06 0.00000E+00
 -1       892-1.02569E-05-5.60564E-06 0.00000E+00
 -1       893-9.88423E-06-5.70077E-06 6.61744E-24
 -1       894-9.54553E-06-5.74864E-06 3.30872E-24
 -1       895-9.23546E-06-5.75805E-06 0.00000E+00
 -1       896-8.94808E-06-5.73729E-06 0.00000E+00
 -1       897-8.67744E-06-5.69457E-06 0.00000E+00
 -1       898-8.41847E-06-5.63872E-06-3.30872E-24
 -1       899-8.16405E-06-5.57701E-06-3.30872E-24
 -1       900-1.12326E-05-4.80199E-06-6.61744E-24
 -1       901-1.11290E-05-4.67815E-06 0.00000E+00
 -1       902-1.10254E-05-4.37618E-06 3.30872E-24
 -1       903-1.09216E-05-3.98060E-06 0.00000E+00
 -1       904-1.08178E-05-3.57583E-06 3.30872E-24
 -1       905-1.07137E-05-3.24625E-06 0.00000E+00
 -1       906-1.06097E-05-3.07638E-06 0.00000E+00
 -1       907-1.08436E-05-4.79944E-06 0.00000E+00
 -1       908-1.01856E-05-4.94506E-06 0.00000E+00
 -1       909-9.46236E-06-5.09068E-06-3.30872E-24
 -1       910-8.77557E-06-5.23685E-06-1.65436E-24
 -1       911-8.22677E-06-5.38317E-06 1.65436E-24
 -1       912-1.09016E-05-4.73370E-06-6.61744E-24
 -1       913-1.04790E-05-4.77238E-06 0.00000E+00
 -1       914-1.00748E-05-4.78625E-06-6.61744E-24
 -1       915-9.68751E-06-4.77529E-06 0.00000E+00
 -1       916-9.31763E-06-4.74081E-06-6.61744E-24
 -1       917-8.96481E-06-4.68354E-06-3.30872E-24
 -1       918-8.62876E-06-4.60416E-06 0.00000E+00
 -1       919-8.30985E-06-4.50378E-06 3.30872E-24
 -1       920-8.00690E-06-4.38230E-06 0.00000E+00
 -1       921-1.03647E-05-3.19984E-06 0.00000E+00
 -1       922-1.02247E-05-2.97257E-06 0.00000E+00
 -1       923-1.00847E-05-2.56335E-06 0.00000E+00
 -1       924-9.94465E-06-2.06735E-06 1.65436E-24
 -1       925-9.80456E-06-1.57962E-06-3.30872E-24
 -1       926-9.66423E-06-1.19520E-06 0.00000E+00
 -1       927-9.52384E-06-1.00928E-06 6.61744E-24
 -1       928-1.01042E-05-3.32375E-06-8.27181E-25
 -1       929-9.55763E-06-3.51061E-06-1.65436E-24
 -1       930-8.95550E-06-3.69730E-06-3.30872E-24
 -1       931-8.38894E-06-3.88409E-06 0.00000E+00
 -1       932-7.94907E-06-4.07105E-06-8.27181E-25
 -1       933-9.98781E-06-3.11856E-06 0.00000E+00
 -1       934-9.44225E-06-3.10286E-06-6.61744E-24
 -1       935-8.88644E-06-3.10054E-06 0.00000E+00
 -1       936-8.32712E-06-3.09990E-06 0.00000E+00
 -1       937-7.77353E-06-3.09107E-06 0.00000E+00
 -1       938-7.23385E-06-3.06340E-06 0.00000E+00
 -1       939-6.71635E-06-3.00624E-06 0.00000E+00
 -1       940-6.22980E-06-2.90917E-06-6.61744E-24
 -1       941-5.78179E-06-2.76078E-06 0.00000E+00
 -1       942-9.50213E-06-1.26138E-06 0.00000E+00
 -1       943-9.63538E-06-1.17510E-06 0.00000E+00
 -1       944-9.76875E-06-9.44751E-07 3.30872E-24
 -1       945-9.90372E-06-6.57810E-07 1.65436E-24
 -1       946-1.00388E-05-4.01719E-07 3.30872E-24
 -1       947-1.01732E-05-2.63899E-07 0.00000E+00
 -1       948-1.03076E-05-3.31781E-07 0.00000E+00
 -1       949-8.83016E-06-1.34599E-06 0.00000E+00
 -1       950-8.04038E-06-1.59290E-06-1.65436E-24
 -1       951-7.15659E-06-1.83944E-06 3.30872E-24
 -1       952-6.32336E-06-2.08522E-06 0.00000E+00
 -1       953-5.68525E-06-2.33110E-06 0.00000E+00
 -1       954-8.55220E-06-9.00411E-07-1.32349E-23
 -1       955-7.69347E-06-6.76006E-07 0.00000E+00
 -1       956-6.82312E-06-4.66547E-07-2.64698E-23
 -1       957-5.93359E-06-2.76638E-07 0.00000E+00
 -1       958-5.02236E-06-1.14781E-07-2.64698E-23
 -1       959-4.08481E-06 1.19047E-08-1.32349E-23
 -1       960-3.11619E-06 9.61756E-08 2.64698E-23
 -1       961-2.11374E-06 1.29009E-07 0.00000E+00
 -1       962-1.06925E-06 1.05152E-07 0.00000E+00
 -1       963-1.05143E-05-1.16571E-06-4.13590E-25
 -1       964-1.06001E-05-1.48234E-06 0.00000E+00
 -1       965-1.06859E-05-1.66785E-06 0.00000E+00
 -1       966-1.07725E-05-1.74840E-06 8.27181E-25
 -1       967-1.08592E-05-1.75018E-06 0.00000E+00
 -1       968-1.09459E-05-1.69943E-06 1.65436E-24
 -1       969-1.10326E-05-1.62239E-06 1.65436E-24
 -1       970-9.29947E-06-5.79112E-07 1.65436E-24
 -1       971-7.50673E-06-4.63932E-07 1.65436E-24
 -1       972-5.36772E-06-3.49227E-07 0.00000E+00
 -1       973-3.19525E-06-2.33985E-07-1.65436E-24
 -1       974-1.30211E-06-1.18159E-07 0.00000E+00
 -1       975-1.00348E-05-1.03750E-06 0.00000E+00
 -1       976-9.68851E-06-1.30713E-06-1.65436E-24
 -1       977-9.39039E-06-1.51257E-06 0.00000E+00
 -1       978-9.13274E-06-1.66359E-06 1.65436E-24
 -1       979-8.90848E-06-1.77032E-06 0.00000E+00
 -1       980-8.71053E-06-1.84287E-06-1.65436E-24
 -1       981-8.53162E-06-1.89115E-06 0.00000E+00
 -1       982-8.36654E-06-1.92662E-06 4.13590E-25
 -1       983-8.20551E-06-1.95727E-06 6.61744E-24
 -1       984-1.12009E-05-1.42182E-06 1.65436E-24
 -1       985-1.12847E-05-1.16237E-06 0.00000E+00
 -1       986-1.13685E-05-7.64277E-07-1.65436E-24
 -1       987-1.14525E-05-2.25150E-07-8.27181E-25
 -1       988-1.15364E-05 4.57384E-07-1.65436E-24
 -1       989-1.16198E-05 1.28560E-06 0.00000E+00
 -1       990-1.17033E-05 2.26178E-06 4.13590E-25
 -1       991-1.09194E-05-1.61685E-06-3.30872E-24
 -1       992-1.04135E-05-1.68961E-06 1.65436E-24
 -1       993-9.73721E-06-1.76298E-06 0.00000E+00
 -1       994-9.02809E-06-1.83878E-06-3.30872E-24
 -1       995-8.42366E-06-1.91479E-06 6.61744E-24
 -1       996-1.12184E-05-1.45449E-06-8.27181E-25
 -1       997-1.14003E-05-1.25246E-06 0.00000E+00
 -1       998-1.16600E-05-9.46830E-07 8.27181E-25
 -1       999-1.19922E-05-5.44430E-07 0.00000E+00
 -1      1000-1.23920E-05-5.23060E-08 8.27181E-25
 -1      1001-1.28543E-05 5.22445E-07-8.27181E-25
 -1      1002-1.33741E-05 1.17286E-06 1.65436E-24
 -1      1003-1.39477E-05 1.89080E-06 0.00000E+00
 -1      1004-1.45681E-05 2.67066E-06-6.61744E-24
 -1      1005-1.20345E-05 4.91492E-06 0.00000E+00
 -1      1006-1.23002E-05 6.92190E-06 3.30872E-24
 -1      1007-1.25667E-05 9.29533E-06 0.00000E+00
 -1      1008-1.28352E-05 1.19203E-05-3.30872E-24
 -1      1009-1.31040E-05 1.46816E-05-6.61744E-24
 -1      1010-1.33716E-05 1.74641E-05 0.00000E+00
 -1      1011-1.36389E-05 2.01522E-05 3.30872E-24
 -1      1012-1.26835E-05 3.41137E-06-4.13590E-25
 -1      1013-1.32324E-05 3.43436E-06 0.00000E+00
 -1      1014-1.35956E-05 3.45683E-06 0.00000E+00
 -1      1015-1.39405E-05 3.47653E-06 0.00000E+00
 -1      1016-1.44345E-05 3.49585E-06 0.00000E+00
 -1      1017-1.24062E-05 4.62964E-06 0.00000E+00
 -1      1018-1.31840E-05 6.09201E-06 0.00000E+00
 -1      1019-1.40989E-05 7.73681E-06-6.61744E-24
 -1      1020-1.51258E-05 9.53229E-06 0.00000E+00
 -1      1021-1.62414E-05 1.14456E-05 6.61744E-24
 -1      1022-1.74221E-05 1.34446E-05 0.00000E+00
 -1      1023-1.86439E-05 1.54972E-05 0.00000E+00
 -1      1024-1.98853E-05 1.75698E-05 0.00000E+00
 -1      1025-2.11198E-05 1.96327E-05 0.00000E+00
 -1      1026-1.40022E-05 2.51829E-05 0.00000E+00
 -1      1027-1.41164E-05 2.81010E-05-8.27181E-25
 -1      1028-1.42313E-05 3.12799E-05-3.30872E-24
 -1      1029-1.43473E-05 3.46127E-05 0.00000E+00
 -1      1030-1.44634E-05 3.79927E-05 0.00000E+00
 -1      1031-1.45789E-05 4.13132E-05 0.00000E+00
 -1      1032-1.46939E-05 4.44673E-05-3.30872E-24
 -1      1033-1.57335E-05 2.24744E-05-3.30872E-24
 -1      1034-1.70579E-05 2.23106E-05 0.00000E+00
 -1      1035-1.81237E-05 2.21469E-05 0.00000E+00
 -1      1036-1.91885E-05 2.19810E-05 0.00000E+00
 -1      1037-2.05098E-05 2.18145E-05 0.00000E+00
 -1      1038-1.50601E-05 2.47081E-05 0.00000E+00
 -1      1039-1.62856E-05 2.68869E-05-3.30872E-24
 -1      1040-1.75716E-05 2.91461E-05 0.00000E+00
 -1      1041-1.89069E-05 3.14736E-05 0.00000E+00
 -1      1042-2.02829E-05 3.38554E-05 1.32349E-23
 -1      1043-2.16901E-05 3.62782E-05-3.30872E-24
 -1      1044-2.31191E-05 3.87289E-05 0.00000E+00
 -1      1045-2.45622E-05 4.11933E-05 0.00000E+00
 -1      1046-2.60075E-05 4.36601E-05 1.65436E-24
 -1      1047-1.48713E-05 5.01926E-05-8.27181E-25
 -1      1048-1.49415E-05 5.32795E-05 0.00000E+00
 -1      1049-1.50123E-05 5.65347E-05 0.00000E+00
 -1      1050-1.50837E-05 5.98830E-05 0.00000E+00
 -1      1051-1.51551E-05 6.32491E-05 0.00000E+00
 -1      1052-1.52260E-05 6.65575E-05 0.00000E+00
 -1      1053-1.52966E-05 6.97330E-05 0.00000E+00
 -1      1054-1.71608E-05 4.71485E-05 0.00000E+00
 -1      1055-1.91740E-05 4.69405E-05 0.00000E+00
 -1      1056-2.10269E-05 4.67326E-05 0.00000E+00
 -1      1057-2.29036E-05 4.65235E-05 3.30872E-24
 -1      1058-2.49882E-05 4.63137E-05 0.00000E+00
 -1      1059-1.62472E-05 4.96489E-05 0.00000E+00
 -1      1060-1.77202E-05 5.20063E-05 0.00000E+00
 -1      1061-1.92259E-05 5.44071E-05-6.61744E-24
 -1      1062-2.07574E-05 5.68447E-05 0.00000E+00
 -1      1063-2.23101E-05 5.93105E-05 0.00000E+00
 -1      1064-2.38785E-05 6.17970E-05 0.00000E+00
 -1      1065-2.54571E-05 6.42966E-05 6.61744E-24
 -1      1066-2.70415E-05 6.68007E-05 0.00000E+00
 -1      1067-2.86248E-05 6.93030E-05-1.65436E-24
 -1      1068-1.54128E-05 7.55970E-05 8.27181E-25
 -1      1069-1.54625E-05 7.86092E-05 8.27181E-25
 -1      1070-1.55125E-05 8.16962E-05 0.00000E+00
 -1      1071-1.55627E-05 8.48168E-05 8.27181E-25
 -1      1072-1.56129E-05 8.79299E-05 0.00000E+00
 -1      1073-1.56631E-05 9.09942E-05 8.27181E-25
 -1      1074-1.57131E-05 9.39686E-05-1.65436E-24
 -1      1075-1.79812E-05 7.25528E-05-3.30872E-24
 -1      1076-2.03878E-05 7.23997E-05 0.00000E+00
 -1      1077-2.26992E-05 7.22468E-05 0.00000E+00
 -1      1078-2.50304E-05 7.20935E-05 1.65436E-24
 -1      1079-2.74967E-05 7.19396E-05-3.30872E-24
 -1      1080-1.69481E-05 7.50360E-05 0.00000E+00
 -1      1081-1.85347E-05 7.73870E-05 1.65436E-24
 -1      1082-2.01275E-05 7.97465E-05 3.30872E-24
 -1      1083-2.17236E-05 8.21117E-05 1.65436E-24
 -1      1084-2.33211E-05 8.44790E-05-3.30872E-24
 -1      1085-2.49179E-05 8.68454E-05 0.00000E+00
 -1      1086-2.65115E-05 8.92074E-05 0.00000E+00
 -1      1087-2.81004E-05 9.15615E-05 0.00000E+00
 -1      1088-2.96815E-05 9.39050E-05 0.00000E+00
 -1      1089-1.84179E-05 9.67158E-05 0.00000E+00
 -1      1090-2.09703E-05 9.66181E-05 0.00000E+00
 -1      1091-2.34753E-05 9.65205E-05 0.00000E+00
 -1      1092-2.59882E-05 9.64230E-05 8.27181E-25
 -1      1093-2.85641E-05 9.63254E-05 0.00000E+00
 -1      1094-4.57727E-07-1.00789E-06 1.32349E-23
 -1      1095-9.21130E-07-1.75543E-06 0.00000E+00
 -1      1096-1.38438E-06-2.30361E-06 0.00000E+00
 -1      1097-1.84807E-06-2.71442E-06 0.00000E+00
 -1      1098-2.31156E-06-3.05003E-06 0.00000E+00
 -1      1099-2.77362E-06-3.37284E-06-6.61744E-24
 -1      1100-3.23559E-06-3.74531E-06-1.32349E-23
 -1      1101-4.02347E-06-4.70389E-06 6.61744E-24
 -1      1102-4.36752E-06-5.01645E-06 0.00000E+00
 -1      1103-4.71153E-06-5.20901E-06-1.32349E-23
 -1      1104-5.05618E-06-5.32395E-06 6.61744E-24
 -1      1105-5.40074E-06-5.40369E-06 0.00000E+00
 -1      1106-5.74413E-06-5.49075E-06 3.30872E-24
 -1      1107-6.08745E-06-5.62764E-06-6.61744E-24
 -1      1108-6.60653E-06-6.05282E-06 0.00000E+00
 -1      1109-6.79513E-06-6.09344E-06 3.30872E-24
 -1      1110-6.98369E-06-6.02203E-06 0.00000E+00
 -1      1111-7.17250E-06-5.88258E-06 0.00000E+00
 -1      1112-7.36119E-06-5.71906E-06 6.61744E-24
 -1      1113-7.54895E-06-5.57550E-06 0.00000E+00
 -1      1114-7.73664E-06-5.49592E-06 0.00000E+00
 -1      1115-7.89565E-06-5.54059E-06-4.13590E-25
 -1      1116-7.87265E-06-5.42316E-06-8.27181E-25
 -1      1117-7.84960E-06-5.21342E-06-8.27181E-25
 -1      1118-7.82623E-06-4.95327E-06-4.13590E-25
 -1      1119-7.80272E-06-4.68455E-06-8.27181E-25
 -1      1120-7.77863E-06-4.44911E-06 0.00000E+00
 -1      1121-7.75446E-06-4.28884E-06 0.00000E+00
 -1      1122-7.44159E-06-4.19384E-06 0.00000E+00
 -1      1123-7.14898E-06-4.01112E-06 0.00000E+00
 -1      1124-6.85628E-06-3.73996E-06 0.00000E+00
 -1      1125-6.56254E-06-3.42314E-06 0.00000E+00
 -1      1126-6.26858E-06-3.10341E-06 6.61744E-24
 -1      1127-5.97441E-06-2.82345E-06 0.00000E+00
 -1      1128-5.68014E-06-2.62608E-06 6.61744E-24
 -1      1129-4.72397E-06-2.34310E-06-1.32349E-23
 -1      1130-4.04579E-06-1.85289E-06 6.61744E-24
 -1      1131-3.36765E-06-1.20751E-06 2.64698E-23
 -1      1132-2.68787E-06-5.31063E-07-6.61744E-24
 -1      1133-2.00822E-06 5.25462E-08 0.00000E+00
 -1      1134-1.33113E-06 4.19031E-07-6.61744E-24
 -1      1135-6.54198E-07 4.43379E-07 1.32349E-23
 -1      1136-9.62844E-07-6.54186E-07 0.00000E+00
 -1      1137-1.97580E-06-1.12309E-06 0.00000E+00
 -1      1138-2.98919E-06-1.44073E-06 0.00000E+00
 -1      1139-4.00876E-06-1.64233E-06 0.00000E+00
 -1      1140-5.02905E-06-1.76358E-06 0.00000E+00
 -1      1141-6.04741E-06-1.84065E-06 0.00000E+00
 -1      1142-7.06590E-06-1.90992E-06 2.64698E-23
 -1      1143-8.94427E-06-1.99039E-06 2.64698E-23
 -1      1144-9.84626E-06-1.70982E-06 0.00000E+00
 -1      1145-1.07484E-05-1.20040E-06 0.00000E+00
 -1      1146-1.16527E-05-4.98140E-07 0.00000E+00
 -1      1147-1.25571E-05 3.60260E-07 2.64698E-23
 -1      1148-1.34594E-05 1.33725E-06 0.00000E+00
 -1      1149-1.43616E-05 2.39486E-06 2.64698E-23
 -1      1150-1.61164E-05 4.88450E-06-2.64698E-23
 -1      1151-1.70080E-05 6.72578E-06 0.00000E+00
 -1      1152-1.79003E-05 8.92038E-06 0.00000E+00
 -1      1153-1.87952E-05 1.13674E-05 0.00000E+00
 -1      1154-1.96903E-05 1.39652E-05 0.00000E+00
 -1      1155-2.05828E-05 1.66114E-05-1.32349E-23
 -1      1156-2.14752E-05 1.92031E-05-2.64698E-23
 -1      1157-2.29747E-05 2.41523E-05 1.32349E-23
 -1      1158-2.36180E-05 2.69997E-05 0.00000E+00
 -1      1159-2.42620E-05 3.00929E-05 0.00000E+00
 -1      1160-2.49076E-05 3.33423E-05 6.61744E-24
 -1      1161-2.55533E-05 3.66579E-05-1.32349E-23
 -1      1162-2.61968E-05 3.99498E-05-6.61744E-24
 -1      1163-2.68397E-05 4.31278E-05 0.00000E+00
 -1      1164-2.78034E-05 4.90516E-05-6.61744E-24
 -1      1165-2.81491E-05 5.21949E-05 0.00000E+00
 -1      1166-2.84952E-05 5.54731E-05 1.32349E-23
 -1      1167-2.88420E-05 5.88263E-05 6.61744E-24
 -1      1168-2.91887E-05 6.21944E-05 1.32349E-23
 -1      1169-2.95340E-05 6.55172E-05 0.00000E+00
 -1      1170-2.98788E-05 6.87347E-05 0.00000E+00
 -1      1171-3.03426E-05 7.47819E-05 3.30872E-24
 -1      1172-3.04743E-05 7.78617E-05 1.65436E-24
 -1      1173-3.06062E-05 8.09929E-05 0.00000E+00
 -1      1174-3.07382E-05 8.41415E-05-1.65436E-24
 -1      1175-3.08700E-05 8.72736E-05-3.30872E-24
 -1      1176-3.10012E-05 9.03550E-05 0.00000E+00
 -1      1177-3.11320E-05 9.33519E-05 0.00000E+00
 -3
    1PSTEP                         2           1           1          
  100CL  101 1.000000000        1001                     0    1           1
 -4  STRESS      6    1
 -5  SXX         1    4    1    1
 -5  SYY         1    4    2    2
 -5  SZZ         1    4    3    3
 -5  SXY         1    4    1    2
 -5  SYZ         1    4    2    3
 -5  SZX         1    4    3    1
 -1         1 2.29765E+06 9.02027E+05 1.68705E+03 8.25757E+05-2.24342E-10-2.35256E-09
 -1         2 2.01200E+06-2.26044E+03-2.57496E+03 2.77534E+05-3.27418E-10-1.44155E-10
 -1         3 1.26858E+06-6.13691E+04-2.07198E+03 1.42904E+05 8.09450E-11-2.46905E-09
 -1         4 8.69206E+05-4.12807E+04-1.42350E+03 8.42585E+04-7.07132E-11 4.01997E-10
 -1         5 6.25250E+05-4.06958E+03-9.24861E+02 5.61389E+04-1.53932E-10-8.98126E-11
 -1         6 4.56133E+05 2.41420E+04-6.27534E+02 4.48266E+04-1.87242E-10-2.57273E-10
 -1         7 3.04050E+05 3.00232E+04-6.24952E+02 5.41839E+04-1.14142E-10 1.33014E-10
 -1         8 1.20964E+05 5.83116E+04-5.22828E+02 5.00419E+04 5.93445E-11 3.04226E-10
 -1         9 1.87065E+04 1.88643E+05 7.68839E+01-1.05314E+04 1.83718E-10 9.68981E-10
 -1        14 6.09127E+04 3.07714E+05-4.15743E+03 3.24904E+05 1.75532E-10-5.87534E-10
 -1        15 7.02994E+05 1.39126E+05-4.15363E+03 5.23753E+05 4.75363E-10-5.28720E-10
 -1        16 7.09413E+05-4.47769E+04-3.40453E+03 3.12655E+05 5.00222E-11-5.49335E-10
 -1        17 5.90747E+05-5.15692E+04-2.51000E+03 1.99359E+05 5.83592E-11-5.51760E-10
 -1        18 4.63861E+05-8.61771E+03-1.70889E+03 1.32469E+05-3.78653E-10 1.03682E-10
 -1        19 3.75653E+05 2.97921E+04-1.04091E+03 8.53310E+04-2.05053E-10-3.07788E-10
 -1        20 3.35308E+05 2.47465E+04-8.53589E+02 7.91900E+04-1.29338E-10-1.03303E-10
 -1        21 2.93089E+05 5.98584E+04-1.04004E+03 1.61424E+05 1.93722E-10 3.51671E-11
 -1        22 4.99837E+04 2.96329E+05-6.04681E+02 1.21930E+05-5.41945E-10 6.56740E-10
 -1        27-2.32963E+04-3.55059E+04-8.87525E+02 5.30914E+04 7.27596E-12-4.50200E-10
 -1        28 1.26087E+05 8.26133E+04-1.40245E+03 2.21829E+05 2.00089E-11-7.96263E-10
 -1        29 3.48638E+05 1.11634E+04-2.24208E+03 3.05990E+05 3.10138E-10-1.16415E-10
 -1        30 4.28956E+05-1.90069E+04-2.19965E+03 2.69031E+05 3.73044E-10 9.84680E-10
 -1        31 4.08499E+05 1.79500E+04-1.83657E+03 2.33053E+05-4.82032E-10-1.25450E-09
 -1        32 3.09468E+05 6.84370E+04-1.14642E+03 1.51935E+05 4.56263E-11-3.66223E-10
 -1        33 2.90787E+05 3.24727E+04-5.00185E+02 5.16409E+04 6.42710E-11 6.71813E-10
 -1        34 4.14106E+05-3.96561E+04-8.20406E+02 5.64888E+04-7.01827E-10-5.53882E-10
 -1        35 7.66436E+05 4.24450E+05 1.25904E+03 3.04286E+05-2.07494E-09-8.58032E-10
 -1        36 6.09296E+05-6.80445E+04-1.04619E+03 1.78235E+05-4.46607E-09-3.54339E-09
 -1        37 2.54664E+05-9.26486E+04-8.72334E+02 8.85056E+04 7.41557E-09-1.31149E-09
 -1        38 5.71294E+04-8.97168E+04-5.74169E+02 4.03813E+04 1.07302E-08-2.32376E-09
 -1        39-1.91963E+04-1.80475E+05-7.15888E+02 1.49406E+04 3.84871E-08-3.00876E-09
 -1        40-4.04349E+04-1.62102E+05 1.73357E+02 6.92189E+04-8.45830E-11 9.87711E-10
 -1        41-2.24896E+04-9.09810E+03-1.55780E+02 1.08713E+05 1.85689E-10 6.85607E-10
 -1        42 8.96085E+04-1.12852E+04-9.35487E+02 1.74796E+05-1.07017E-10-2.38894E-10
 -1        43 2.40965E+05-1.51859E+04-1.47071E+03 2.09510E+05 3.18020E-10 1.98573E-10
 -1        44 3.57950E+05 1.06871E+04-1.84324E+03 2.38047E+05-4.46713E-10-2.77244E-10
 -1        45 3.69674E+05 1.15012E+05-2.09381E+03 3.18071E+05 5.79954E-10 1.38850E-10
 -1        46 1.78379E+04 1.18837E+05-5.49740E+02 1.33187E+05-4.09121E-10 1.82202E-10
 -1        47-8.24662E+04-8.18326E+04 3.22411E+02 7.90197E+03 3.58493E-11 1.52644E-10
 -1        48-4.60430E+04 1.27123E+05 4.68510E+02 1.00671E+05-2.02848E-09-2.95889E-10
 -1        49 6.08141E+04-4.15357E+04-1.12735E+03 2.54630E+05 6.23519E-09-3.08016E-10
 -1        50 6.15508E+04-1.00657E+05-9.52022E+02 1.64224E+05 4.54944E-09-2.57144E-09
 -1        51 2.94468E+04-8.32180E+04-6.35147E+02 9.96216E+04 1.94738E-08-3.41788E-09
 -1        52-1.68723E+04-1.39182E+05-6.15072E+02 3.88140E+04 2.00068E-08-1.77049E-09
 -1        53-6.19668E+05-3.16513E+05-1.61365E+03 7.62365E+04-1.44382E-10 1.18052E-09
 -1        54-4.88769E+05-5.99075E+04-6.77788E+02 6.75416E+04 1.20600E-10 4.12911E-10
 -1        55-2.88994E+05-4.70446E+04-8.92075E+02 8.12475E+04-2.10427E-10-2.40561E-10
 -1        56-1.58929E+04-3.57899E+04-1.10077E+03 1.05376E+05 5.03174E-10 1.38243E-10
 -1        57 3.34875E+05-1.80577E+04-1.27710E+03 1.32078E+05-2.82970E-10 7.45786E-11
 -1        58 8.27556E+05 1.18999E+04-1.05255E+03 2.10905E+05-2.65135E-10-3.43789E-10
 -1        59 1.69331E+05 2.64749E+05-2.04947E+02 3.37998E+05 1.27503E-09-2.58660E-09
 -1        60-1.22904E+06-1.20124E+05-1.94466E+03 4.09673E+04 1.57591E-09 1.09139E-11
 -1        61-1.19671E+06-9.03034E+04-1.22263E+03 2.52273E+04 3.90452E-09 3.87445E-10
 -1        62-9.20449E+05-1.11022E+05-1.78841E+03 1.40380E+05-1.46358E-09 3.21506E-09
 -1        63-5.22523E+05-9.28946E+04-1.41697E+03 1.45155E+05 7.20276E-09-2.20552E-09
 -1        64-2.17331E+05-5.45195E+04-7.80468E+02 1.03298E+05 1.29723E-08-1.33605E-09
 -1        65-3.53538E+04-3.72013E+04-2.33644E+02 7.59810E+04 1.62177E-08-3.24872E-09
 -1        66 4.59613E+06-1.66353E+04 1.36371E+05-9.09495E-11 9.06309E-10 2.34286E-09
 -1        67 4.64004E+06 3.25472E+04 8.90715E+04-2.00152E-08-2.04462E-10 3.27509E-09
 -1        68 4.61463E+06-1.79752E+03 4.96771E+04-2.18677E-09-3.65941E-10-2.34832E-09
 -1        69 4.62312E+06 6.81703E+03 5.17327E+04 8.95011E-09 4.54283E-10 1.69166E-09
 -1        70 4.61317E+06-2.87280E+03 7.06437E+04 9.78525E-09 6.11543E-10 3.91447E-09
 -1        71 4.65830E+06 5.86048E+04 1.51918E+05 3.03899E-08 7.36223E-10 2.06091E-09
 -1        72 4.57915E+06-3.00872E+04 2.43634E+05-3.15777E-09-3.89006E-10-6.69388E-10
 -1        73 2.57589E+04 8.80382E+05-2.17356E+05 2.65511E+05 2.91038E-11 2.16824E-09
 -1        74-4.79557E+04 8.07043E+05-1.27124E+05 6.29597E+05-3.27873E-10 6.25732E-09
 -1        75 4.16382E+03 8.45365E+05-4.42816E+04 2.65192E+05-1.74623E-10-3.26145E-09
 -1        76 1.20428E+04 8.43750E+05-2.03171E+03 6.29389E+05-2.67846E-10-1.49157E-10
 -1        77-4.02712E+03 8.37338E+05 3.16704E+04 2.65710E+05 2.11003E-10 1.14960E-09
 -1        78 2.66688E+06 1.43034E+06 8.81082E+04 1.96517E+06 5.74801E-10-1.11504E-09
 -1        79 2.74952E+06 1.40844E+06 5.56824E+04 1.94791E+06 3.11593E-09 6.27915E-09
 -1        80 2.67895E+06 1.44042E+06 2.72458E+04 1.96593E+06-3.01952E-10 1.24464E-09
 -1        81 2.73300E+06 1.39273E+06 2.21892E+04 1.95100E+06 1.40471E-09-1.82672E-09
 -1        82 2.68002E+06 1.44054E+06 2.52699E+04 1.96575E+06-7.72729E-10-6.66023E-09
 -1        83 2.73578E+06 1.39671E+06 4.49470E+04 1.95083E+06-3.16959E-10-6.55518E-09
 -1        84 2.67648E+06 1.43724E+06 7.95534E+04 1.96526E+06 6.91216E-11 1.18598E-09
 -1        85 2.79029E+06 1.45665E+06 1.86380E+05 1.94063E+06 1.07684E-09-3.09410E-09
 -1        86 2.63634E+06 1.40002E+06 3.04471E+05 1.96132E+06 1.17143E-09-8.87667E-10
 -1        87 2.88902E+06-1.02803E+04 8.40560E+04 3.42152E-09-4.52848E-10-3.19415E-09
 -1        88 2.91607E+06 2.00802E+04 5.50907E+04 2.23299E-08 3.42848E-10-3.52247E-09
 -1        89 2.90038E+06-1.12045E+03 3.10768E+04 3.68891E-09-5.21086E-10-2.14322E-09
 -1        90 2.90576E+06 4.35628E+03 3.29515E+04 5.98681E-09 5.98133E-10 1.28898E-09
 -1        91 2.89937E+06-1.86653E+03 4.55633E+04 8.46637E-09 5.05848E-10 3.45426E-09
 -1        92 2.92871E+06 3.81213E+04 9.85425E+04 2.11367E-09-2.81288E-11-1.30240E-09
 -1        93 2.87730E+06-1.96198E+04 1.58184E+05-1.00154E-08 3.44338E-10-1.30967E-09
 -1        94 4.09470E+04-1.39971E+06-3.34125E+05 7.09281E+04 7.27596E-11 9.84073E-10
 -1        95-8.23010E+04-1.50991E+06-2.25384E+05 1.70803E+05 5.16593E-10-4.17458E-10
 -1        96 6.26719E+03-1.44290E+06-1.36382E+05 7.03561E+04 3.29237E-10 3.00133E-10
 -1        97-5.78198E+04-1.49364E+06-1.73554E+05 1.71253E+05 8.96762E-10 1.70047E-09
 -1        98 2.77404E+04-1.41679E+06-2.31351E+05 7.05065E+04 2.11003E-10 1.68257E-09
 -1        99 1.29520E+06 6.90679E+05-3.00740E+03 9.45785E+05 1.54614E-10-4.08363E-09
 -1       100 1.32626E+06 6.57300E+05-1.09967E+03 9.36336E+05-1.07320E-10-3.75849E-10
 -1       101 1.29484E+06 6.90129E+05 1.06114E+03 9.45622E+05 2.49656E-10 1.26101E-09
 -1       102 1.32674E+06 6.58380E+05 3.57986E+03 9.36236E+05-1.35515E-10 7.07701E-10
 -1       103 1.29473E+06 6.89826E+05 7.62792E+03 9.45516E+05 2.57216E-10-1.10958E-09
 -1       104 1.32855E+06 6.60505E+05 1.66981E+04 9.36112E+05-7.40329E-10 1.74646E-09
 -1       105 1.29325E+06 6.88472E+05 3.12004E+04 9.45327E+05-9.09495E-11 1.19144E-09
 -1       106 1.35043E+06 6.84638E+05 7.43057E+04 9.32055E+05 6.56655E-10 4.86580E-11
 -1       107 1.27723E+06 6.73461E+05 1.21690E+05 9.43780E+05-1.45519E-10 2.92857E-09
 -1       108 1.96263E+06-8.84612E+03 7.18916E+04 2.49929E-09-4.06475E-12 1.96451E-09
 -1       109 1.98584E+06 1.72327E+04 4.64418E+04 4.98858E-10 6.92399E-11 2.42835E-09
 -1       110 1.97242E+06-9.28052E+02 2.48652E+04 2.69540E-09 1.84266E-10-2.77396E-10
 -1       111 1.97655E+06 3.22386E+03 2.43430E+04 6.44206E-10-1.12454E-09 1.37265E-09
 -1       112 1.97195E+06-1.28360E+03 3.17528E+04 3.11826E-09-8.70312E-10 1.65437E-09
 -1       113 1.99186E+06 2.58198E+04 6.71085E+04 9.55606E-09-1.81763E-10 2.18461E-09
 -1       114 1.95706E+06-1.32981E+04 1.07141E+05-2.64299E-09 7.61464E-10-8.14907E-10
 -1       115 2.80370E+04-1.11642E+06-2.29116E+05 1.47761E+04-1.16415E-10-1.01318E-09
 -1       116-5.67858E+04-1.19189E+06-1.56882E+05 3.55387E+04 2.18279E-11 3.90082E-09
 -1       117 4.42814E+03-1.14534E+06-9.90761E+04 1.46193E+04 9.04947E-11-1.24919E-09
 -1       118-4.55381E+04-1.18420E+06-1.32917E+05 3.57208E+04 1.89175E-10 7.47150E-10
 -1       119 2.18136E+04-1.12419E+06-1.81611E+05 1.46037E+04-7.27596E-11 4.57476E-10
 -1       120 7.30420E+05 3.87873E+05-9.30329E+03 5.31283E+05-2.38515E-10 1.52977E-09
 -1       121 7.47409E+05 3.64290E+05-5.36577E+03 5.25502E+05-2.00998E-10 2.96427E-09
 -1       122 7.29164E+05 3.86698E+05-1.59507E+03 5.31128E+05 3.50610E-10 1.42086E-09
 -1       123 7.49119E+05 3.66285E+05 4.42787E+02 5.25175E+05 6.07770E-10-2.40681E-09
 -1       124 7.29009E+05 3.86488E+05 2.78386E+03 5.31076E+05 9.65883E-10-2.76191E-09
 -1       125 7.50047E+05 3.67320E+05 6.95932E+03 5.25112E+05-6.41762E-11 5.05480E-10
 -1       126 7.28353E+05 3.85895E+05 1.33734E+04 5.30995E+05-1.92586E-09-1.04865E-09
 -1       127 7.59513E+05 3.77816E+05 3.21039E+04 5.23367E+05 3.31511E-10 2.56478E-10
 -1       128 7.21447E+05 3.79354E+05 5.26426E+04 5.30322E+05 9.51331E-10-1.66074E-09
 -1       129 1.39606E+06-6.66764E+03 5.40387E+04 2.18552E-09 1.53482E-10 1.44428E-09
 -1       130 1.41352E+06 1.29718E+04 3.47369E+04-4.34511E-09-2.56577E-10-6.22549E-10
 -1       131 1.40344E+06-6.90172E+02 1.82500E+04 2.07910E-09 3.28846E-10-5.17502E-10
 -1       132 1.40641E+06 2.29538E+03 1.73135E+04 5.89711E-09-2.54884E-10-1.46741E-09
 -1       133 1.40318E+06-8.84987E+02 2.20184E+04 8.92754E-09-5.57663E-11-1.34878E-09
 -1       134 1.41682E+06 1.76730E+04 4.60467E+04 9.35779E-09-3.20972E-10-1.40562E-09
 -1       135 1.39301E+06-9.10651E+03 7.33265E+04-1.29603E-09 2.97126E-10-2.54659E-10
 -1       136 1.89661E+04-7.43772E+05-1.55394E+05-4.28791E+03-2.91038E-11 1.78488E-09
 -1       137-3.85520E+04-7.94957E+05-1.07101E+05-1.02583E+04 1.27329E-11-3.49246E-10
 -1       138 3.06980E+03-7.63221E+05-6.89074E+04-4.30684E+03-8.95852E-11-9.52696E-11
 -1       139-3.26174E+04-7.90861E+05-9.44264E+04-1.01819E+04-1.54614E-11 5.44105E-10
 -1       140 1.56574E+04-7.47860E+05-1.30266E+05-4.36083E+03-1.96451E-10 6.62794E-10
 -1       141 4.64652E+05 2.47110E+05-1.17274E+04 3.37455E+05-1.62152E-09-1.98816E-09
 -1       142 4.73537E+05 2.29996E+05-7.02622E+03 3.33875E+05 1.74168E-10-4.18709E-10
 -1       143 4.63075E+05 2.45669E+05-2.66629E+03 3.37296E+05 1.17325E-10 5.60021E-10
 -1       144 4.75684E+05 2.32365E+05-8.69616E+02 3.33468E+05-3.30658E-10-5.24096E-10
 -1       145 4.62912E+05 2.45496E+05 7.12622E+02 3.37263E+05-1.78503E-10 1.37726E-09
 -1       146 4.76211E+05 2.32936E+05 2.76432E+03 3.33433E+05-3.70903E-11 2.52248E-09
 -1       147 4.62617E+05 2.45229E+05 5.68045E+03 3.37227E+05 4.59522E-10 1.06877E-09
 -1       148 4.80318E+05 2.37517E+05 1.38716E+04 3.32682E+05 1.31513E-09-1.48287E-09
 -1       149 4.59633E+05 2.42373E+05 2.28186E+04 3.36932E+05 2.01908E-10 1.02227E-09
 -1       150 1.01010E+06-4.57117E+03 3.70147E+04 6.94581E-09-3.85257E-10 4.54747E-10
 -1       151 1.02206E+06 8.88871E+03 2.37918E+04 7.69433E-10-1.07797E-10-1.86014E-09
 -1       152 1.01516E+06-4.72990E+02 1.24934E+04 3.16552E-09-1.12428E-10 3.57659E-10
 -1       153 1.01719E+06 1.57169E+03 1.18460E+04 1.73799E-10 8.46141E-11 2.43517E-10
 -1       154 1.01498E+06-6.05729E+02 1.50586E+04 2.87378E-09 3.39024E-10 9.50422E-11
 -1       155 1.02431E+06 1.20906E+04 3.14919E+04 2.02226E-09 5.50158E-11-7.48059E-10
 -1       156 1.00803E+06-6.23359E+03 5.01442E+04 4.64479E-09-2.48830E-10 4.76575E-10
 -1       157 1.24605E+04-4.12142E+05-1.02292E+05-9.99111E+03 4.72937E-11 3.42197E-11
 -1       158-2.53756E+04-4.45842E+05-7.07095E+04-2.38891E+04 8.73115E-11-1.47088E-09
 -1       159 2.04465E+03-4.24899E+05-4.58820E+04-9.96837E+03 1.15961E-10-7.94898E-10
 -1       160-2.19837E+04-4.43496E+05-6.34605E+04-2.38596E+04 1.27784E-10 2.46473E-10
 -1       161 1.05675E+04-4.14477E+05-8.79159E+04-1.00194E+04-1.63709E-10 1.94632E-10
 -1       162 3.25895E+05 1.74446E+05-1.19965E+04 2.36940E+05-8.41283E-11 1.19144E-09
 -1       163 3.30072E+05 1.61875E+05-7.28017E+03 2.34725E+05-1.79705E-09-2.14186E-09
 -1       164 3.24292E+05 1.72975E+05-2.95802E+03 2.36786E+05-2.18563E-10-1.67915E-09
 -1       165 3.32251E+05 1.64263E+05-1.39121E+03 2.34314E+05 4.51905E-11-9.71056E-10
 -1       166 3.24140E+05 1.72827E+05-2.54409E+02 2.36762E+05-6.52847E-11 9.83420E-10
 -1       167 3.32560E+05 1.64591E+05 7.14878E+02 2.34293E+05-1.15151E-10 2.74980E-10
 -1       168 3.24024E+05 1.72722E+05 1.87931E+03 2.36747E+05-7.60565E-11-4.56296E-10
 -1       169 3.34011E+05 1.66230E+05 4.83319E+03 2.34035E+05-2.28511E-11-4.07510E-10
 -1       170 3.22982E+05 1.71702E+05 8.02565E+03 2.36641E+05 2.39197E-10-1.13369E-09
 -1       171 6.91693E+05-2.48026E+03 2.01391E+04 5.45924E-10-1.11286E-10 1.91903E-10
 -1       172 6.98177E+05 4.82750E+03 1.30963E+04-3.92538E-09-1.17177E-09 1.46360E-09
 -1       173 6.94422E+05-2.64698E+02 7.17922E+03-4.25564E-09-4.74604E-11-2.19757E-10
 -1       174 6.95632E+05 9.69974E+02 7.30636E+03-4.22844E-10 2.21902E-09-1.30561E-09
 -1       175 6.94241E+05-4.01166E+02 9.81421E+03 2.32575E-10 1.74177E-10-1.01545E-09
 -1       176 7.00484E+05 8.11777E+03 2.10070E+04 8.09905E-10-9.76775E-10-1.39539E-09
 -1       177 6.89564E+05-4.18968E+03 3.36261E+04-1.46883E-09-1.79214E-10-2.74667E-10
 -1       178 8.08688E+03-1.90370E+05-6.65603E+04-9.98885E+03 3.63798E-12-3.95175E-10
 -1       179-1.65231E+04-2.12310E+05-4.62972E+04-2.38540E+04 1.20053E-10 5.62494E-10
 -1       180 1.36198E+03-1.98612E+05-3.05537E+04-9.96086E+03-3.18323E-11-6.85077E-10
 -1       181-1.50001E+04-2.11256E+05-4.30413E+04-2.38420E+04 1.58934E-10 4.58897E-10
 -1       182 7.23701E+03-1.91418E+05-6.01023E+04-1.00005E+04-9.82254E-11-2.36651E-09
 -1       183 2.70677E+05 1.45287E+05-6.45217E+03 1.97520E+05-1.71440E-10 1.45519E-11
 -1       184 2.74839E+05 1.36599E+05-3.91340E+03 1.95761E+05-1.66892E-10 7.53914E-10
 -1       185 2.69809E+05 1.44504E+05-1.58584E+03 1.97439E+05 4.06430E-11 5.94468E-10
 -1       186 2.76017E+05 1.37878E+05-7.37784E+02 1.95538E+05 1.88606E-10-1.23691E-09
 -1       187 2.69727E+05 1.44423E+05-1.16325E+02 1.97425E+05-1.28097E-10-9.72165E-11
 -1       188 2.76187E+05 1.38060E+05 4.28492E+02 1.95526E+05-3.38147E-10 4.20016E-10
 -1       189 2.69661E+05 1.44363E+05 1.09270E+03 1.97417E+05 3.46120E-10-3.50184E-10
 -1       190 2.77020E+05 1.39012E+05 2.79460E+03 1.95379E+05 1.22782E-11-6.19821E-10
 -1       191 2.69064E+05 1.43768E+05 4.63543E+03 1.97353E+05 3.47882E-10-1.59730E-10
 -1       192 2.96489E+05 4.82427E+02-3.72838E+03-6.32497E-10-1.26869E-10-5.02951E-10
 -1       193 2.95226E+05-9.21014E+02-2.02335E+03 3.50079E-09 1.75312E-10-8.07802E-10
 -1       194 2.95927E+05 2.99831E+01-3.13895E+02 2.64848E-09 7.16332E-11-2.73985E-10
 -1       195 2.95979E+05 1.24046E+02 9.33689E+02-5.21244E-09-9.79900E-11-1.39289E-09
 -1       196 2.95735E+05-1.15154E+02 2.48551E+03-2.11039E-09 3.27814E-11 1.09810E-09
 -1       197 2.97677E+05 2.57621E+03 6.38230E+03-4.70231E-09-1.62178E-11 3.83807E-10
 -1       198 2.94227E+05-1.33560E+03 1.06006E+04 1.57934E-09-4.94774E-12 3.04226E-10
 -1       199 5.78089E+03-1.43814E+05-4.78817E+04-1.71462E+03-5.45697E-12 1.35081E-10
 -1       200-1.19341E+04-1.59610E+05-3.40138E+04-4.10378E+03-8.86757E-12-7.72502E-10
 -1       201 1.05394E+03-1.49597E+05-2.36803E+04-1.71442E+03-3.52429E-12 9.89417E-10
 -1       202-1.25017E+04-1.60000E+05-3.52255E+04-4.09249E+03-6.91216E-11 7.35781E-10
 -1       203 6.09554E+03-1.43422E+05-5.02859E+04-1.72557E+03-6.18456E-11-1.52676E-09
 -1       204 3.19395E+05 1.76046E+05 1.52146E+04 2.39121E+05 7.27596E-12 9.51331E-10
 -1       205 3.26958E+05 1.79000E+05 9.37134E+03 2.38109E+05 1.08002E-11 1.39607E-10
 -1       206 3.21378E+05 1.77931E+05 4.10385E+03 2.39318E+05-1.12323E-10 1.05763E-09
 -1       207 3.24260E+05 1.75998E+05 2.53226E+03 2.38622E+05 6.61657E-11 4.08704E-11
 -1       208 3.21547E+05 1.78078E+05 1.82801E+03 2.39336E+05-1.34139E-09-2.18779E-09
 -1       209 3.24221E+05 1.75974E+05 2.32873E+03 2.38625E+05 2.15266E-10 8.20251E-10
 -1       210 3.21412E+05 1.77947E+05 3.63648E+03 2.39319E+05 3.38218E-11 5.88329E-10
 -1       211 3.26563E+05 1.78591E+05 8.20044E+03 2.38177E+05 2.20552E-11-2.21917E-10
 -1       212 3.19680E+05 1.76308E+05 1.32797E+04 2.39148E+05 2.78305E-10 7.73070E-11
 -1       213-1.00274E+04 2.28783E+03-1.84345E+04 1.28352E-09-7.43381E-11 9.62245E-10
 -1       214-1.60336E+04-4.43815E+03-1.17492E+04-2.53885E-09 1.63007E-10 3.79373E-10
 -1       215-1.25576E+04 2.31255E+02-5.96455E+03-5.47880E-09 4.57917E-11 2.53067E-10
 -1       216-1.35348E+04-7.07677E+02-5.32339E+03-3.14712E-09 3.88118E-11 1.23769E-09
 -1       217-1.25266E+04 2.54718E+02-6.41673E+03 3.43030E-09-1.00422E-11 2.50566E-10
 -1       218-1.64298E+04-5.00327E+03-1.31071E+04 4.74779E-09 4.78523E-11-1.52795E-10
 -1       219-9.66202E+03 2.58179E+03-2.07489E+04 2.67119E-09 1.28496E-10 6.31189E-10
 -1       220 1.38529E+03 6.75511E+04-1.21563E+04 1.49609E+04 2.98314E-10 6.68479E-10
 -1       221-3.11152E+03 6.34884E+04-1.01434E+04 3.56220E+04-4.09273E-10-5.19890E-10
 -1       222 4.35714E+02 6.63784E+04-9.63386E+03 1.49062E+04 6.06406E-10 3.38787E-11
 -1       223-6.79494E+03 6.09356E+04-1.80220E+04 3.56408E+04-4.79076E-10 7.95495E-10
 -1       224 3.44199E+03 7.00846E+04-2.77878E+04 1.49424E+04 5.09317E-10-5.92763E-10
 -1       225 2.24123E+05 1.41639E+05 1.76401E+04 1.80780E+05-1.20554E-09-1.12959E-09
 -1       226 2.15551E+05 1.62449E+05 1.07890E+04 1.84670E+05-3.04041E-10 1.53705E-10
 -1       227 2.26470E+05 1.43794E+05 4.55878E+03 1.80993E+05 9.41156E-10-4.49518E-10
 -1       228 2.12352E+05 1.58979E+05 2.50162E+03 1.85271E+05 2.18657E-09 1.84411E-09
 -1       229 2.26686E+05 1.43982E+05 1.26548E+03 1.81020E+05-7.46923E-10 3.47086E-10
 -1       230 2.12098E+05 1.58746E+05 8.65343E+02 1.85305E+05 1.27329E-11-3.97449E-10
 -1       231 2.26703E+05 1.43966E+05 7.98032E+02 1.81029E+05-1.74873E-09-3.12480E-09
 -1       232 2.12491E+05 1.59095E+05 1.37989E+03 1.85249E+05 5.38421E-10 1.42904E-09
 -1       233 2.26394E+05 1.43758E+05 2.07738E+03 1.81036E+05-9.54969E-10 4.06999E-10
 -1       241-2.59201E+03 4.24211E+05 2.09277E+04-8.77853E+03 7.73070E-11 1.57911E-10
 -1       242 5.11964E+03 4.31056E+05 1.34896E+04-2.10716E+04 2.00089E-10 5.78780E-10
 -1       243-3.21232E+02 4.27023E+05 7.05430E+03-8.77104E+03 3.71415E-10 2.11458E-11
 -1       244 2.13710E+03 4.29034E+05 7.13888E+03-2.10428E+04 6.00494E-10 6.97355E-10
 -1       245-9.62151E+02 4.26278E+05 8.31568E+03-8.80775E+03 1.04455E-09-5.83441E-10
 -1       323-5.21062E+05 1.01596E+04-8.79022E+04 7.42938E+04-2.18279E-11 4.43833E-10
 -1       324-5.49152E+05-2.14798E+04-5.66415E+04 1.75853E+05 3.01043E-10-1.09139E-09
 -1       325-5.33487E+05 9.86627E+02-3.03628E+04 7.37499E+04-1.27329E-10 4.83851E-10
 -1       326-5.38734E+05-3.99891E+03-2.97276E+04 1.76481E+05-1.65528E-10 6.99401E-10
 -1       327-5.33054E+05 1.58047E+03-3.88591E+04 7.36923E+04-1.36993E-10-3.37423E-10
 -1       328-5.57457E+05-3.18175E+04-8.22995E+04 1.76202E+05-6.36646E-12-6.83940E-10
 -1       329-5.14591E+05 1.61851E+04-1.31460E+05 7.40113E+04 3.61979E-10 3.56522E-10
 -1       330 4.57295E+03-2.93012E+03-3.66802E+04-2.34183E+03 2.47383E-10-4.73847E-10
 -1       331-8.91911E+03-1.48422E+04-2.19150E+04-5.24028E+03-4.50200E-11 7.82165E-10
 -1       332 3.18142E+02-8.19852E+03-8.26197E+03-2.24132E+03 1.10504E-10 1.15779E-09
 -1       333 3.21506E+02-8.49843E+03-2.19137E+03-5.44164E+03-9.54969E-12 2.52476E-09
 -1       334-5.39773E+02-9.30608E+03 2.46509E+03-2.14979E+03 4.72937E-11 3.09228E-10
 -1       335 7.22982E+05 4.42547E+05 7.48912E+04 5.76177E+05-3.21961E-10-6.62112E-10
 -1       336 7.11088E+05 5.06553E+05 4.63196E+04 5.85774E+05-3.78805E-10 1.42518E-09
 -1       337 7.32704E+05 4.51842E+05 2.05819E+04 5.77023E+05 1.14142E-10-2.32831E-10
 -1       338 6.97903E+05 4.91624E+05 1.33206E+04 5.88060E+05 1.44610E-10-1.99634E-10
 -1       339 7.33310E+05 4.52723E+05 1.06440E+04 5.77081E+05 2.27374E-10-8.54584E-10
 -1       340 6.98282E+05 4.91674E+05 1.49993E+04 5.87886E+05-1.93722E-10 9.60881E-10
 -1       341 7.32259E+05 4.51870E+05 2.44684E+04 5.76950E+05 2.02181E-09 2.95586E-09
 -1       342 7.14506E+05 5.09501E+05 5.59734E+04 5.84788E+05 3.75394E-09 5.00222E-10
 -1       343 7.20327E+05 4.40703E+05 9.09231E+04 5.75812E+05-1.69166E-10-1.86992E-09
 -1       344 1.12335E+06-3.40015E+03 2.51793E+04 5.64171E+04-8.24002E-10-9.87711E-10
 -1       345 1.13157E+06 6.00148E+03 1.64571E+04 1.34541E+05 1.55524E-10 9.50195E-10
 -1       346 1.12652E+06-3.38882E+02 8.99386E+03 5.63859E+04-3.07409E-10-6.15046E-10
 -1       347 1.12792E+06 1.32893E+03 9.15639E+03 1.34523E+05 2.87400E-10 5.42059E-10
 -1       348 1.12625E+06-4.54607E+02 1.22601E+04 5.64323E+04-1.61890E-10-4.42014E-10
 -1       349 1.13412E+06 1.01796E+04 2.62138E+04 1.34408E+05-6.23913E-10 1.25510E-10
 -1       350 1.12057E+06-5.34313E+03 4.18678E+04 5.65035E+04 2.54659E-11 2.14641E-10
 -1       351 1.32300E+04-2.35331E+05-1.05968E+05 8.38482E+04 5.82077E-11 1.10776E-09
 -1       352-2.52290E+04-2.70610E+05-6.88979E+04 2.00609E+05 9.00400E-10 1.33173E-09
 -1       353 1.99050E+03-2.49598E+05-3.72515E+04 8.35806E+04 6.19593E-10-7.07018E-10
 -1       354-1.17488E+04-2.61180E+05-4.00123E+04 2.00553E+05 1.01500E-09-5.87988E-10
 -1       355 5.62930E+03-2.44577E+05-4.86980E+04 8.38981E+04 4.83851E-10-3.14321E-09
 -1       356 1.30484E+06 7.34510E+05 1.13399E+05 9.93716E+05 1.74623E-10 6.40284E-10
 -1       357 1.33513E+06 7.82560E+05 7.01850E+04 9.93926E+05-2.36923E-10 5.72982E-10
 -1       358 1.31957E+06 7.48499E+05 3.15108E+04 9.95206E+05-3.21961E-10 2.80306E-09
 -1       359 1.31531E+06 7.60216E+05 2.08584E+04 9.97712E+05 6.93831E-10 3.38628E-09
 -1       360 1.32063E+06 7.49634E+05 1.75035E+04 9.95361E+05-6.65977E-10 3.77241E-10
 -1       361 1.31613E+06 7.60840E+05 2.56676E+04 9.97625E+05-1.34378E-10 2.66027E-10
 -1       362 1.31883E+06 7.48045E+05 4.25589E+04 9.95146E+05-4.00178E-10 2.45564E-10
 -1       363 1.34442E+06 7.92162E+05 9.78261E+04 9.92244E+05 1.59162E-10-8.29459E-10
 -1       364 1.29800E+06 7.28465E+05 1.59131E+05 9.93066E+05 2.14641E-10-1.31695E-09
 -1       365 1.32540E+06-7.73007E+03 6.18928E+04 3.10274E+04-2.82853E-10 2.98314E-10
 -1       366 1.34547E+06 1.48764E+04 3.95667E+04 7.38843E+04-1.71440E-10-1.95155E-09
 -1       367 1.33382E+06-7.75519E+02 2.02979E+04 3.10252E+04 5.02041E-10-1.85992E-10
 -1       368 1.33703E+06 2.49113E+03 1.84649E+04 7.38593E+04-5.57066E-11 2.27624E-09
 -1       369 1.33365E+06-8.84691E+02 2.26366E+04 3.10482E+04-2.20552E-10-1.36424E-11
 -1       370 1.34745E+06 1.78169E+04 4.65754E+04 7.38178E+04-6.42331E-10-2.14641E-09
 -1       371 1.32348E+06-9.20625E+03 7.38564E+04 3.10697E+04-1.10958E-10-1.40062E-09
 -1       372 1.92203E+04-9.17512E+05-1.57327E+05 6.33788E+04-2.47383E-10 1.02773E-10
 -1       373-3.86408E+04-9.69528E+05-1.08162E+05 1.52515E+05 4.32919E-10 1.59162E-10
 -1       374 3.25611E+03-9.37385E+05-6.92151E+04 6.30773E+04-6.80984E-11-7.58860E-10
 -1       375-3.21178E+04-9.65082E+05-9.42706E+04 1.52543E+05 2.36469E-10-4.68390E-10
 -1       376 1.56259E+04-9.22023E+05-1.29777E+05 6.33506E+04 6.54836E-10-2.13549E-09
 -1       377 1.05271E+06 5.79354E+05 9.15304E+04 7.92882E+05 4.25644E-10-6.54836E-11
 -1       378 1.08953E+06 6.05783E+05 5.65758E+04 7.89413E+05-2.01908E-10 8.91305E-10
 -1       379 1.06466E+06 5.90601E+05 2.52397E+04 7.94068E+05 1.98088E-09 2.69301E-09
 -1       380 1.07339E+06 5.87840E+05 1.64176E+04 7.92510E+05 5.44446E-10-1.94666E-09
 -1       381 1.06560E+06 5.91470E+05 1.33116E+04 7.94181E+05 7.82507E-10-6.42061E-10
 -1       382 1.07379E+06 5.88213E+05 1.89688E+04 7.92481E+05 4.17003E-10 1.88209E-09
 -1       383 1.06431E+06 5.90317E+05 3.10995E+04 7.94029E+05-1.84900E-09-1.36515E-09
 -1       384 1.09435E+06 6.11001E+05 7.12425E+04 7.88569E+05-1.05501E-10-1.10867E-09
 -1       385 1.04916E+06 5.76065E+05 1.15789E+05 7.92527E+05 6.03904E-10-1.45883E-09
 -1       386 1.14226E+06-7.04676E+03 5.67406E+04 1.83184E+04-2.37833E-10-4.11092E-10
 -1       387 1.16065E+06 1.36462E+04 3.61907E+04 4.35723E+04 1.13914E-10 1.79853E-09
 -1       388 1.15003E+06-7.08811E+02 1.84288E+04 1.83063E+04-3.00133E-11 1.83718E-10
 -1       389 1.15294E+06 2.20976E+03 1.65291E+04 4.35717E+04-1.80790E-10-1.91176E-09
 -1       390 1.14992E+06-7.86855E+02 2.00112E+04 1.83169E+04-1.83263E-10-7.97627E-10
 -1       391 1.16201E+06 1.56282E+04 4.09371E+04 4.35404E+04-2.22826E-11-3.54703E-11
 -1       392 1.14097E+06-8.05886E+03 6.48392E+04 1.83390E+04 1.86901E-10-3.20142E-10
 -1       393 1.66860E+04-8.36472E+05-1.37216E+05 3.97591E+04-9.09495E-10 5.20231E-10
 -1       394-3.39660E+04-8.81753E+05-9.56060E+04 9.55388E+04-4.72028E-10 2.27828E-10
 -1       395 2.89108E+03-8.53488E+05-6.33769E+04 3.95629E+04-1.06957E-09-1.26192E-10
 -1       396-3.12086E+04-8.79897E+05-8.97495E+04 9.55827E+04-5.54792E-11 5.55701E-10
 -1       397 1.51847E+04-8.38386E+05-1.25595E+05 3.97169E+04-5.38421E-10-1.77988E-09
 -1       398 8.11941E+05 4.45176E+05 6.79009E+04 6.10089E+05-3.45608E-11 1.89902E-09
 -1       399 8.41364E+05 4.62705E+05 4.19308E+04 6.06895E+05 2.01908E-10-6.89852E-10
 -1       400 8.20810E+05 4.53532E+05 1.86129E+04 6.10964E+05 2.54659E-11-5.80712E-10
 -1       401 8.29356E+05 4.49381E+05 1.19418E+04 6.09192E+05-1.68143E-10-7.14181E-10
 -1       402 8.21526E+05 4.54176E+05 9.41109E+03 6.11046E+05-1.08585E-10 9.87455E-10
 -1       403 8.29520E+05 4.49560E+05 1.30784E+04 6.09182E+05-2.81602E-10 9.53946E-10
 -1       404 8.20668E+05 4.53393E+05 2.12238E+04 6.10943E+05-1.77351E-09-3.95357E-09
 -1       405 8.43483E+05 4.65057E+05 4.84663E+04 6.06525E+05 3.81988E-10-2.00089E-09
 -1       406 8.10373E+05 4.43696E+05 7.87089E+04 6.09926E+05-8.58563E-10 1.63709E-10
 -1       407 9.42156E+05-5.69661E+03 4.59402E+04 1.01044E+04-5.55929E-10 1.16415E-09
 -1       408 9.57043E+05 1.10523E+04 2.92582E+04 2.40193E+04 1.68029E-10-9.48148E-10
 -1       409 9.48461E+05-5.73166E+02 1.48178E+04 1.00902E+04-5.45583E-10 9.26775E-10
 -1       410 9.50794E+05 1.75112E+03 1.31535E+04 2.40286E+04 5.38591E-10 1.59400E-09
 -1       411 9.48395E+05-6.21628E+02 1.57740E+04 1.00943E+04 1.03859E-09 1.38243E-10
 -1       412 9.57874E+05 1.22478E+04 3.21275E+04 2.40085E+04-7.83871E-11 1.95132E-09
 -1       413 9.41381E+05-6.31299E+03 5.08340E+04 1.01109E+04-7.28051E-10 3.83807E-10
 -1       414 1.18872E+04-5.25595E+05-9.80975E+04 2.55002E+04-5.60249E-10-7.49424E-10
 -1       415-2.43576E+04-5.57955E+05-6.89335E+04 6.10609E+04-1.07866E-09 2.65857E-09
 -1       416 2.10713E+03-5.37625E+05-4.67114E+04 2.53819E+04-8.79368E-10-1.31877E-11
 -1       417-2.37543E+04-5.57569E+05-6.76656E+04 6.10990E+04-9.47693E-10-2.36309E-09
 -1       418 1.15742E+04-5.26021E+05-9.55770E+04 2.54635E+04-5.96629E-10 2.77396E-11
 -1       419 5.75046E+05 3.16549E+05 4.11812E+04 4.32034E+05-2.72848E-11-6.93035E-10
 -1       420 5.92920E+05 3.27146E+05 2.54373E+04 4.30079E+05-9.36780E-11 1.50317E-09
 -1       421 5.80421E+05 3.21621E+05 1.13006E+04 4.32563E+05 3.14685E-10-1.62208E-09
 -1       422 5.85640E+05 3.19062E+05 7.27091E+03 4.31472E+05-5.04770E-11-2.04341E-09
 -1       423 5.80854E+05 3.22011E+05 5.76423E+03 4.32612E+05-2.56392E-10-1.64906E-09
 -1       424 5.85748E+05 3.19190E+05 8.05559E+03 4.31466E+05-1.66438E-10-7.51015E-10
 -1       425 5.80328E+05 3.21520E+05 1.31031E+04 4.32546E+05 1.45519E-11 2.20098E-10
 -1       426 5.94370E+05 3.28784E+05 2.99500E+04 4.29826E+05-7.77618E-11 4.77939E-10
 -1       427 5.73970E+05 3.15518E+05 4.86426E+04 4.31919E+05 3.83807E-10 7.36691E-10
 -1       428 8.53972E+05-5.27407E+03 4.25672E+04 5.03151E+03-1.47452E-10-6.74845E-10
 -1       429 8.67766E+05 1.02406E+04 2.71020E+04 1.19745E+04 1.13459E-10-1.16597E-09
 -1       430 8.59819E+05-5.31600E+02 1.37129E+04 5.02210E+03-4.76916E-11-1.53841E-09
 -1       431 8.61980E+05 1.61365E+03 1.21508E+04 1.19834E+04 4.03954E-10-6.81155E-10
 -1       432 8.59762E+05-5.74815E+02 1.45478E+04 5.02215E+03 4.30305E-11 6.56655E-10
 -1       433 8.68497E+05 1.12829E+04 2.96083E+04 1.19748E+04 1.31706E-10 1.78716E-10
 -1       434 8.53297E+05-5.81562E+03 4.68403E+04 5.03119E+03-2.49543E-10-2.21917E-10
 -1       435 7.70763E+03-2.31247E+05-6.36045E+04 8.63666E+03 1.45519E-11 3.08319E-10
 -1       436-1.58105E+04-2.52217E+05-4.46191E+04 2.06178E+04-2.18733E-10-5.18412E-11
 -1       437 1.34398E+03-2.39048E+05-3.01045E+04 8.59328E+03 7.90692E-11-2.65004E-10
 -1       438-1.52398E+04-2.51833E+05-4.34067E+04 2.06453E+04-4.22006E-10-5.54664E-10
 -1       439 7.39764E+03-2.31643E+05-6.11974E+04 8.61008E+03 5.45697E-11-9.04947E-11
 -1       440 3.70860E+05 1.99633E+05 1.54012E+04 2.74167E+05 2.13731E-10-1.23237E-09
 -1       441 3.83125E+05 1.97995E+05 9.54444E+03 2.71792E+05-5.54792E-11-1.48839E-09
 -1       442 3.72854E+05 2.01543E+05 4.30290E+03 2.74365E+05 3.32193E-10-9.13474E-10
 -1       443 3.80422E+05 1.94969E+05 2.88628E+03 2.72307E+05-2.09297E-10 1.03174E-09
 -1       444 3.73010E+05 2.01680E+05 2.48342E+03 2.74381E+05-1.45604E-10-1.83931E-10
 -1       445 3.80544E+05 1.95098E+05 3.71741E+03 2.72299E+05 1.31593E-11-2.22679E-09
 -1       446 3.72748E+05 2.01443E+05 6.21171E+03 2.74350E+05-1.64255E-09-3.26952E-09
 -1       447 3.84679E+05 1.99715E+05 1.43246E+04 2.71520E+05 8.34461E-11 1.68154E-09
 -1       448 3.69712E+05 1.98549E+05 2.33031E+04 2.74049E+05 3.19233E-10-7.28505E-10
 -1       449 7.03033E+05-4.03380E+03 3.24886E+04 1.02895E+04 1.50294E-10 4.91127E-10
 -1       450 7.13559E+05 7.82531E+03 2.06232E+04 2.44546E+04-2.51021E-10-1.22168E-09
 -1       451 7.07501E+05-4.00900E+02 1.03046E+04 1.02665E+04 2.58638E-11-4.54293E-10
 -1       452 7.09093E+05 1.18864E+03 8.91012E+03 2.44810E+04 1.16245E-11 3.84262E-11
 -1       453 7.07494E+05-4.07991E+02 1.04176E+04 1.02627E+04 1.24260E-10 3.00133E-11
 -1       454 7.13665E+05 7.96408E+03 2.09637E+04 2.44613E+04 4.42128E-10 1.73077E-09
 -1       455 7.02945E+05-4.11090E+03 3.30683E+04 1.02868E+04 5.86624E-11 1.25692E-09
 -1       456 7.41419E+03-2.53069E+05-6.11207E+04-7.21964E+02-2.07365E-10-6.54303E-11
 -1       457-1.51940E+04-2.73211E+05-4.27662E+04-1.70533E+03-1.20053E-10 3.12554E-10
 -1       458 1.27603E+03-2.60583E+05-2.86615E+04-7.22235E+02-1.80194E-10 6.22435E-11
 -1       459-1.43865E+04-2.72655E+05-4.10415E+04-1.69991E+03-1.45519E-11 1.07417E-09
 -1       460 6.96540E+03-2.53625E+05-5.76992E+04-7.27245E+02-1.16415E-10 1.64988E-10
 -1       461 3.88797E+05 2.02227E+05 2.18003E+04 2.83463E+05-2.58296E-10 5.26143E-10
 -1       462 4.09516E+05 1.96595E+05 1.34386E+04 2.79130E+05 3.39242E-10-1.15097E-09
 -1       463 3.91620E+05 2.04945E+05 5.90325E+03 2.83742E+05 2.07592E-10-5.73891E-10
 -1       464 4.05667E+05 1.92275E+05 3.67749E+03 2.79850E+05 9.61847E-10 3.62854E-09
 -1       465 3.91856E+05 2.05159E+05 2.71389E+03 2.83768E+05 5.32367E-10 7.70910E-10
 -1       466 4.05657E+05 1.92246E+05 3.53917E+03 2.79852E+05 3.43334E-10-1.92699E-10
 -1       467 3.91631E+05 2.04969E+05 5.58502E+03 2.83750E+05 3.36513E-11 8.49141E-10
 -1       468 4.09278E+05 1.96294E+05 1.26431E+04 2.79179E+05 2.12140E-10 4.74330E-10
 -1       469 3.88983E+05 2.02413E+05 2.04842E+04 2.83491E+05-1.26420E-10-6.73026E-11
 -1       470-1.05524E+05 5.50654E+03-4.44569E+04 2.63642E+04 4.22006E-10 1.11322E-09
 -1       471-1.20025E+05-1.06888E+04-2.81727E+04 6.28475E+04 8.29459E-10 4.96584E-10
 -1       472-1.11679E+05 5.64242E+02-1.39915E+04 2.62607E+04-6.74504E-10 3.84716E-10
 -1       473-1.13918E+05-1.55838E+03-1.19592E+04 6.29471E+04-4.61682E-10 9.52014E-10
 -1       474-1.11675E+05 5.41239E+02-1.38329E+04 2.62658E+04-8.68567E-11-9.21773E-10
 -1       475-1.19802E+05-1.05187E+04-2.76832E+04 6.27955E+04 2.22371E-10-6.16183E-10
 -1       476-1.05613E+05 5.35569E+03-4.36372E+04 2.64095E+04-1.07320E-10 1.69166E-10
 -1       477 1.06571E+04-5.27672E+05-8.80310E+04 1.59435E+04 4.58385E-10 4.43379E-10
 -1       478-2.19142E+04-5.56699E+05-6.22753E+04 3.82352E+04-3.94721E-10 3.62050E-10
 -1       479 1.91827E+03-5.38359E+05-4.29037E+04 1.59051E+04 6.05496E-10-3.56977E-10
 -1       480-2.23497E+04-5.56975E+05-6.31887E+04 3.81851E+04-2.29193E-10-4.64411E-10
 -1       481 1.08809E+04-5.27364E+05-8.98474E+04 1.59918E+04 1.70985E-10-2.44654E-10
 -1       482 9.65846E+05 5.09073E+05 1.07182E+05 7.15531E+05-1.16415E-10-2.42289E-09
 -1       483 1.02685E+06 5.22343E+05 6.56336E+04 7.06254E+05-2.19734E-09-3.29146E-09
 -1       484 9.79880E+05 5.22330E+05 2.79698E+04 7.16921E+05-5.01132E-10 1.91358E-09
 -1       485 1.00778E+06 5.01048E+05 1.57794E+04 7.09840E+05-1.50067E-10 1.72804E-10
 -1       486 9.81094E+05 5.23525E+05 8.82728E+03 7.17104E+05-3.27248E-10-1.32877E-09
 -1       487 1.00676E+06 4.99654E+05 7.69475E+03 7.09914E+05 6.22322E-10 1.12686E-09
 -1       488 9.80778E+05 5.23431E+05 9.38661E+03 7.17150E+05-3.17414E-10-1.54614E-10
 -1       489 1.01221E+06 5.05282E+05 1.91509E+04 7.08902E+05 1.84718E-09 5.21368E-10
 -1       490 9.76807E+05 5.19795E+05 3.02899E+04 7.16841E+05-8.07631E-10-6.88487E-10
 -1       498-3.97061E+03 6.96304E+05 3.06437E+04 1.10829E+05 2.80852E-09 3.00133E-10
 -1       499 7.85584E+03 7.05762E+05 1.42472E+04 2.63450E+05 3.95812E-09 2.37833E-10
 -1       500 3.71160E+02 7.01451E+05-3.05048E+03 1.10603E+05 3.96722E-09-8.64020E-11
 -1       501-9.94888E+03 6.94538E+05-2.30956E+04 2.63459E+05 1.96633E-09-1.07684E-09
 -1       502 5.11212E+03 7.08942E+05-4.36737E+04 1.10817E+05 3.18323E-10 9.74978E-10
 -1       580-3.48588E+05 3.46014E+03-2.85390E+04 1.90104E+04-7.95808E-11-6.52108E-10
 -1       581-3.57780E+05-6.89860E+03-1.86876E+04 4.48827E+04-4.91127E-11 1.51022E-09
 -1       582-3.52458E+05 3.58146E+02-1.05127E+04 1.88959E+04 1.93950E-10 6.68933E-10
 -1       583-3.54314E+05-1.52481E+03-1.11266E+04 4.50051E+04-2.56080E-10-6.67299E-10
 -1       584-3.52130E+05 6.15079E+02-1.53701E+04 1.88909E+04 3.38787E-11-1.20053E-10
 -1       585-3.62063E+05-1.29628E+04-3.32807E+04 4.49148E+04 4.46221E-10 6.76664E-10
 -1       586-3.44676E+05 6.63588E+03-5.34042E+04 1.89815E+04 3.00588E-10 2.58296E-10
 -1       587 2.85482E+03-2.92229E+05-2.29387E+04 7.81481E+03-8.00355E-11-1.94063E-09
 -1       588-5.58231E+03-2.99762E+05-1.48424E+04 1.90404E+04 2.11685E-10-2.41459E-09
 -1       589 3.67963E+02-2.95295E+05-7.86944E+03 7.77269E+03 1.81672E-10-3.04567E-10
 -1       590-2.45437E+03-2.97615E+05-8.16767E+03 1.90638E+04 3.59250E-11 9.79682E-10
 -1       591 1.12333E+03-2.94385E+05-9.69142E+03 7.79018E+03-4.91127E-11 8.24798E-10
 -1       592 2.63327E+05 1.50255E+05 4.50273E+04 2.04794E+05 1.89175E-10 1.83900E-09
 -1       593 2.74169E+05 1.70617E+05 2.77512E+04 2.05234E+05-1.31877E-10-6.62112E-10
 -1       594 2.69229E+05 1.55788E+05 1.21967E+04 2.05362E+05-1.34605E-10 9.79981E-10
 -1       595 2.66180E+05 1.61755E+05 7.60900E+03 2.06755E+05 8.74820E-11 1.67927E-09
 -1       596 2.69703E+05 1.56241E+05 5.63598E+03 2.05421E+05 6.17320E-11 5.82418E-10
 -1       597 2.66156E+05 1.61708E+05 7.37929E+03 2.06751E+05-5.26370E-11 3.94721E-10
 -1       598 2.69247E+05 1.55827E+05 1.16700E+04 2.05368E+05 2.44654E-10 6.41649E-10
 -1       599 2.73750E+05 1.70127E+05 2.64307E+04 2.05298E+05 8.73115E-11-1.05683E-09
 -1       600 2.63640E+05 1.50557E+05 4.28447E+04 2.04823E+05 1.25510E-10 5.67525E-10
 -1       601-1.85287E+05 4.63739E+03-3.86608E+04 4.06494E+04 2.38288E-10-4.29281E-10
 -1       602-1.97789E+05-9.32890E+03-2.48251E+04 9.66484E+04-3.45608E-11-9.62245E-10
 -1       603-1.90679E+05 4.86016E+02-1.30628E+04 4.04315E+04 7.48514E-10 3.65617E-10
 -1       604-1.92915E+05-1.62017E+03-1.24231E+04 9.68760E+04 3.69823E-10 1.41426E-10
 -1       605-1.90505E+05 6.48076E+02-1.58519E+04 4.04261E+04-1.08753E-09-2.28283E-10
 -1       606-2.00331E+05-1.27827E+04-3.32172E+04 9.66949E+04 3.00133E-10-1.72804E-10
 -1       607-1.83079E+05 6.50766E+03-5.29449E+04 4.06085E+04 5.72982E-11 1.65528E-09
 -1       608 4.64808E+03-1.69522E+05-3.70964E+04 3.85351E+04-7.27596E-12-1.04228E-09
 -1       609-8.86336E+03-1.81828E+05-2.39448E+04 9.21834E+04 9.71568E-10-3.15038E-09
 -1       610 6.57743E+02-1.74523E+05-1.26123E+04 3.84125E+04 3.53111E-10-1.94689E-09
 -1       611-3.71576E+03-1.78250E+05-1.29294E+04 9.21611E+04 2.61934E-10-5.23414E-10
 -1       612 1.76526E+03-1.73058E+05-1.52442E+04 3.85556E+04 2.47383E-10 1.70348E-09
 -1       613 6.51128E+05 3.72432E+05 7.77905E+04 5.02602E+05 1.81899E-11-2.94676E-10
 -1       614 6.67584E+05 4.09824E+05 4.80381E+04 5.04017E+05-5.24096E-10 8.41283E-10
 -1       615 6.61286E+05 3.82009E+05 2.13198E+04 5.03595E+05 2.33740E-10 1.20872E-09
 -1       616 6.53868E+05 3.94504E+05 1.36777E+04 5.06624E+05 4.47358E-10-5.32168E-10
 -1       617 6.62059E+05 3.82793E+05 1.07769E+04 5.03697E+05 4.23370E-10 8.05400E-10
 -1       618 6.54099E+05 3.94662E+05 1.49765E+04 5.06593E+05-1.39153E-10 4.20096E-09
 -1       619 6.61074E+05 3.81899E+05 2.43040E+04 5.03578E+05 3.91083E-11-7.46695E-10
 -1       620 6.70102E+05 4.12402E+05 5.55046E+04 5.03544E+05 5.77074E-10-1.30694E-09
 -1       621 6.49275E+05 3.70804E+05 9.01435E+04 5.02421E+05 1.49157E-10-1.67347E-10
 -1       622 3.88600E+05-3.31157E+02 1.62846E+03 4.02199E+04-6.91216E-10 5.33873E-10
 -1       623 3.89138E+05 4.11030E+02 9.62211E+02 9.57139E+04-1.46883E-10 1.69939E-09
 -1       624 3.88729E+05-5.17108E+00 2.51012E+02 4.00838E+04 2.18279E-11 4.22006E-10
 -1       625 3.88644E+05 5.00972E+01-1.62092E+02 9.58447E+04 3.96483E-10 8.03539E-10
 -1       626 3.88779E+05 5.38904E+01-6.48166E+02 4.00890E+04-6.36419E-10-7.27368E-10
 -1       627 3.88280E+05-6.88453E+02-1.74870E+03 9.57165E+04-3.84716E-10-5.78439E-10
 -1       628 3.89293E+05 2.93070E+02-2.98033E+03 4.02119E+04-4.31100E-10-5.18412E-11
 -1       629 1.04106E+04-4.94883E+05-8.46398E+04 5.67338E+04-1.27329E-10-7.10315E-10
 -1       630-2.05828E+04-5.22903E+05-5.70908E+04 1.36045E+05 1.00044E-10-1.67893E-09
 -1       631 1.68423E+03-5.05803E+05-3.46476E+04 5.65243E+04 1.75476E-10-1.38033E-09
 -1       632-1.45696E+04-5.18719E+05-4.42224E+04 1.36018E+05 8.76753E-10 4.72937E-11
 -1       633 7.03581E+03-4.99011E+05-5.91213E+04 5.67598E+04-1.01863E-10 1.20781E-09
 -1       634 8.51954E+05 4.76940E+05 9.22315E+04 6.49434E+05-8.36735E-11-9.64064E-10
 -1       635 8.80064E+05 5.12628E+05 5.69398E+04 6.48587E+05-3.11957E-10-1.04046E-09
 -1       636 8.63989E+05 4.88295E+05 2.52530E+04 6.50628E+05 6.76664E-10 2.11912E-09
 -1       637 8.63806E+05 4.94477E+05 1.61590E+04 6.51693E+05 3.46347E-10 1.90562E-09
 -1       638 8.64926E+05 4.89213E+05 1.26630E+04 6.50752E+05 2.12594E-10 9.39664E-10
 -1       639 8.64046E+05 4.94643E+05 1.75064E+04 6.51667E+05-3.35376E-11-4.16890E-10
 -1       640 8.63774E+05 4.88177E+05 2.83488E+04 6.50615E+05 5.63887E-11-1.00954E-10
 -1       641 8.82682E+05 5.15308E+05 6.46872E+04 6.48112E+05 4.00178E-10-3.64707E-10
 -1       642 8.50035E+05 4.75247E+05 1.05047E+05 6.49256E+05 5.38421E-10 2.07365E-10
 -1       643 5.83313E+05-2.00824E+03 1.55572E+04 3.32288E+04 3.35604E-10-1.30058E-10
 -1       644 5.88350E+05 3.76892E+03 9.86181E+03 7.90352E+04 1.56433E-10 5.74346E-10
 -1       645 5.85387E+05-1.78961E+02 4.84468E+03 3.31421E+04-1.30967E-10-1.15153E-09
 -1       646 5.86061E+05 5.98116E+02 4.05754E+03 7.91165E+04-8.16726E-10-7.52379E-10
 -1       647 5.85399E+05-1.58730E+02 4.57887E+03 3.31466E+04 2.88765E-11 3.31966E-11
 -1       648 5.88080E+05 3.44926E+03 9.05803E+03 7.90254E+04-4.54747E-11 2.11003E-10
 -1       649 5.83511E+05-1.81468E+03 1.41935E+04 3.32339E+04-3.41970E-10-4.39286E-10
 -1       650 1.31905E+04-6.76307E+05-1.08078E+05 5.23347E+04-9.05857E-10 5.74801E-10
 -1       651-2.65652E+04-7.12027E+05-7.45268E+04 1.25615E+05-4.33829E-10-2.23235E-09
 -1       652 2.25025E+03-6.89892E+05-4.80984E+04 5.21261E+04-1.71656E-09-2.63083E-09
 -1       653-2.26417E+04-7.09297E+05-6.61320E+04 1.25593E+05-1.00590E-09-5.52063E-10
 -1       654 1.09878E+04-6.79001E+05-9.14342E+04 5.23548E+04-8.22183E-10 3.36513E-10
 -1       655 8.79346E+05 4.87885E+05 9.10677E+04 6.66848E+05-1.97542E-09-2.39015E-09
 -1       656 9.11215E+05 5.19010E+05 5.61701E+04 6.64803E+05-2.00544E-10-3.64707E-10
 -1       657 8.91238E+05 4.99099E+05 2.48051E+04 6.68030E+05 5.36602E-11 5.37511E-10
 -1       658 8.95126E+05 5.01092E+05 1.56724E+04 6.67877E+05 3.22871E-11-1.06320E-09
 -1       659 8.92191E+05 4.99999E+05 1.19485E+04 6.68150E+05-1.54841E-10-7.45445E-10
 -1       660 8.95210E+05 5.01136E+05 1.60932E+04 6.67867E+05-1.16870E-10 1.01636E-09
 -1       661 8.91163E+05 4.99070E+05 2.57717E+04 6.68029E+05-2.96495E-10 1.06775E-09
 -1       662 9.12059E+05 5.19822E+05 5.85898E+04 6.64650E+05-3.64707E-10-3.30874E-09
 -1       663 8.78731E+05 4.87372E+05 9.50690E+04 6.66799E+05-6.54836E-11 1.60071E-10
 -1       664 4.61450E+05-3.49519E+02 2.54225E+03 2.47418E+04-1.94632E-10-3.49701E-10
 -1       665 4.62237E+05 6.17799E+02 1.74092E+03 5.88477E+04-3.75167E-11 2.82625E-10
 -1       666 4.61744E+05-2.92964E+01 1.09748E+03 2.46674E+04 6.36646E-11 9.17339E-10
 -1       667 4.61899E+05 2.13162E+02 1.34869E+03 5.89199E+04 1.19263E-09-6.85986E-10
 -1       668 4.61677E+05-7.48560E+01 2.03184E+03 2.46694E+04-2.76941E-10 2.46246E-10
 -1       669 4.63039E+05 1.79031E+03 4.54375E+03 5.88458E+04 7.16227E-11 4.97266E-10
 -1       670 4.60687E+05-9.46832E+02 7.32303E+03 2.47418E+04-4.82032E-11-6.43468E-10
 -1       671 1.23558E+04-5.92275E+05-1.01795E+05 4.85893E+04-1.00772E-09-1.06593E-09
 -1       672-2.51254E+04-6.25924E+05-7.12579E+04 1.16456E+05-1.49657E-09-4.69299E-10
 -1       673 2.21725E+03-6.04852E+05-4.78501E+04 4.83967E+04-8.07631E-10-1.60166E-09
 -1       674-2.39164E+04-6.25084E+05-6.86715E+04 1.16450E+05-1.77261E-09 2.41926E-10
 -1       675 1.16776E+04-5.93106E+05-9.66668E+04 4.85951E+04-9.16771E-10 1.04046E-09
 -1       676 8.79008E+05 4.91751E+05 8.99463E+04 6.69160E+05 5.45697E-11-1.87720E-09
 -1       677 9.07192E+05 5.25802E+05 5.54239E+04 6.68101E+05-3.01952E-10 5.71163E-10
 -1       678 8.90767E+05 5.02828E+05 2.43575E+04 6.70325E+05-1.47975E-09-3.43061E-09
 -1       679 8.91266E+05 5.08098E+05 1.51696E+04 6.71139E+05 3.18437E-10-2.14015E-09
 -1       680 8.91729E+05 5.03723E+05 1.11937E+04 6.70445E+05-1.37788E-10-1.22284E-09
 -1       681 8.91173E+05 5.08015E+05 1.45889E+04 6.71147E+05 1.32047E-10 7.14863E-10
 -1       682 8.90848E+05 5.02890E+05 2.30237E+04 6.70334E+05 2.36469E-10 9.86802E-10
 -1       683 9.06088E+05 5.24622E+05 5.20851E+04 6.68297E+05-2.05546E-10-6.99856E-10
 -1       684 8.79821E+05 4.92495E+05 8.44245E+04 6.69240E+05 2.58296E-10-4.00178E-11
 -1       685 5.44361E+05-1.92495E+03 1.54859E+04 1.02322E+04-1.17780E-10-1.12777E-10
 -1       686 5.49358E+05 3.71908E+03 9.95307E+03 2.43711E+04 1.81899E-11 5.50983E-10
 -1       687 5.46468E+05-1.98415E+02 5.21686E+03 1.02020E+04 4.63388E-10 4.79361E-10
 -1       688 5.47301E+05 6.58699E+02 4.93457E+03 2.43966E+04 2.27232E-10-1.27557E-10
 -1       689 5.46394E+05-2.50481E+02 6.25872E+03 1.02064E+04-8.49809E-10 1.73713E-10
 -1       690 5.50259E+05 5.02394E+03 1.30794E+04 2.43659E+04 1.96849E-10-1.33514E-09
 -1       691 5.43514E+05-2.59500E+03 2.08176E+04 1.02329E+04 4.54747E-10 1.41881E-10
 -1       692 6.16383E+03-1.29569E+05-5.14814E+04 4.62300E+04-1.63709E-10-5.73891E-10
 -1       693-1.27092E+04-1.46665E+05-3.72719E+04 1.10326E+05-1.12709E-09-1.62618E-09
 -1       694 1.28729E+03-1.35716E+05-2.71949E+04 4.60670E+04 2.19188E-10 2.50509E-10
 -1       695-1.50220E+04-1.48299E+05-4.22391E+04 1.10347E+05-1.45701E-09-3.52657E-10
 -1       696 7.47952E+03-1.27988E+05-6.13281E+04 4.62099E+04 1.05501E-10 7.74889E-10
 -1       697 4.61000E+05 2.71376E+05 3.36221E+04 3.58169E+05 7.73070E-11-8.13088E-10
 -1       698 4.60025E+05 2.95578E+05 2.08672E+04 3.61115E+05 3.51520E-10-9.16316E-10
 -1       699 4.65400E+05 2.75487E+05 9.47737E+03 3.58589E+05-5.52518E-11-1.10958E-10
 -1       700 4.54092E+05 2.89033E+05 6.48248E+03 3.62262E+05-1.81956E-10-1.99670E-10
 -1       701 4.65730E+05 2.75782E+05 5.77655E+03 3.58625E+05 3.37849E-10 8.95852E-11
 -1       702 4.54425E+05 2.89433E+05 8.87897E+03 3.62255E+05 1.62551E-10-3.17868E-10
 -1       703 4.65123E+05 2.75172E+05 1.49790E+04 3.58547E+05 9.86802E-11-6.73026E-11
 -1       704 4.64470E+05 3.00588E+05 3.46485E+04 3.60373E+05-2.45564E-10 1.81717E-09
 -1       705 4.57721E+05 2.68226E+05 5.64036E+04 3.57840E+05 6.73026E-11 2.38288E-10
 -1       706 9.48920E+05-7.40772E+03 5.97020E+04-1.57440E+01 1.37788E-10 9.93168E-10
 -1       707 9.68304E+05 1.43777E+04 3.77503E+04 1.48649E+01 5.80485E-10-1.93904E-09
 -1       708 9.57160E+05-7.33737E+02 1.85777E+04-1.31787E+01-1.06525E-10 5.15229E-10
 -1       709 9.60012E+05 2.06533E+03 1.55668E+04 1.39661E+00-6.59099E-11 1.12991E-10
 -1       710 9.57225E+05-6.84606E+02 1.76283E+04-2.82914E+00 7.61133E-11 1.23600E-09
 -1       711 9.67472E+05 1.31925E+04 3.49003E+04-1.16889E+01 4.29424E-10 1.35924E-09
 -1       712 9.49688E+05-6.79205E+03 5.48425E+04-4.38090E-01-1.03512E-10 2.47383E-10
 -1       713 3.22884E+03 5.49536E+04-2.60386E+04-7.77262E+03-2.69210E-10-1.30206E-09
 -1       714-6.38022E+03 4.64084E+04-1.66932E+04-1.86574E+04-4.48608E-10 6.11180E-10
 -1       715 3.72062E+02 5.14499E+04-8.56136E+03-7.78047E+03-5.04087E-10 1.79853E-10
 -1       716-2.47441E+03 4.91268E+04-8.33128E+03-1.85932E+04-7.18842E-10 1.32081E-09
 -1       717 1.03923E+03 5.22713E+04-9.45022E+03-7.83651E+03-9.72705E-10 6.45741E-10
 -1       718 5.52861E+04 2.63114E+04-2.33454E+04 3.52108E+04 1.14596E-10-1.53887E-09
 -1       719 5.26377E+04 1.26816E+04-1.41297E+04 3.41028E+04 3.80851E-11-8.04675E-10
 -1       720 5.21890E+04 2.34206E+04-5.65255E+03 3.49128E+04 1.48441E-09 3.65321E-09
 -1       721 5.68902E+04 1.73585E+04-2.48467E+03 3.33175E+04-5.57264E-10 1.43103E-10
 -1       722 5.18737E+04 2.31313E+04-5.76717E+01 3.48713E+04 1.48702E-10-3.00702E-10
 -1       723 5.76078E+04 1.81010E+04 2.33154E+03 3.32719E+04 1.37561E-10-1.07366E-09
 -1       724 5.15697E+04 2.28502E+04 5.40833E+03 3.48320E+04 6.95763E-11-1.57229E-10
 -1       725 6.16623E+04 2.26431E+04 1.35755E+04 3.25332E+04 2.25327E-10 4.45652E-11
 -1       726 4.86329E+04 2.00286E+04 2.24485E+04 3.45368E+04 8.18545E-12-4.93856E-10
 -1       727 1.33710E+06-1.13779E+04 9.10168E+04 5.35027E+01-1.28648E-09-2.35377E-09
 -1       728 1.36676E+06 2.20132E+04 5.59524E+04-3.49358E+02 6.56996E-10 2.18461E-09
 -1       729 1.34989E+06-1.04803E+03 2.42888E+04 8.67991E+01-1.00590E-09-7.59428E-10
 -1       730 1.35301E+06 1.93681E+03 1.46494E+04-4.51130E+02-5.92991E-10-5.42286E-10
 -1       731 1.35089E+06-2.98226E+02 9.77868E+03 1.55486E+02-2.78760E-10 3.80396E-10
 -1       732 1.35408E+06 3.90796E+03 1.24030E+04-5.55834E+02-2.73576E-09-1.29512E-09
 -1       733 1.34883E+06-1.98407E+03 1.67542E+04 1.90584E+02 3.48336E-10 7.11225E-10
 -1       734 7.96841E+03-2.89631E+05-6.38694E+04-2.57324E+04-3.71074E-10-1.26602E-09
 -1       735-1.55440E+04-3.10591E+05-4.01739E+04-6.14769E+04 8.18545E-10 1.27443E-09
 -1       736 8.72119E+02-2.98416E+05-1.91465E+04-2.56410E+04-9.14952E-10 1.90015E-09
 -1       737-4.13574E+03-3.02732E+05-1.58112E+04-6.14743E+04 7.00311E-10 5.11136E-10
 -1       738 1.63094E+03-2.97489E+05-1.55305E+04-2.57352E+04-6.01631E-10 1.11868E-10
 -1       739 1.27719E+05 6.40123E+04-1.78704E+04 8.82322E+04-9.75888E-10-7.36691E-11
 -1       740 1.29549E+05 4.97289E+04-1.08571E+04 8.62613E+04 1.03114E-09 2.89106E-09
 -1       741 1.25373E+05 6.17856E+04-4.43573E+03 8.80051E+04 1.39198E-09-2.81489E-10
 -1       742 1.32788E+05 5.33024E+04-2.13480E+03 8.56731E+04 9.82254E-11-7.11793E-10
 -1       743 1.25134E+05 6.15801E+04-5.04562E+02 8.79846E+04-1.23418E-09 5.31600E-10
 -1       744 1.33257E+05 5.37398E+04 8.04357E+02 8.56559E+04 9.51786E-10 1.23691E-10
 -1       745 1.24979E+05 6.14502E+04 2.30709E+03 8.79763E+04-9.03583E-10 8.32870E-10
 -1       746 1.35067E+05 5.58324E+04 6.04557E+03 8.53560E+04 3.19233E-09 3.51633E-10
 -1       747 1.23710E+05 6.01298E+04 1.00565E+04 8.78407E+04-9.67702E-10-7.83530E-10
 -1       748 1.47442E+06-3.74521E+03 2.82887E+04 6.72746E+04-8.94943E-09-1.40608E-09
 -1       749 1.48342E+06 7.29360E+03 1.95194E+04 1.55875E+05-4.86398E-09-2.41926E-10
 -1       750 1.47769E+06-2.06226E+02 1.25248E+04 6.73993E+04 9.76615E-09 2.63753E-09
 -1       751 1.47955E+06 2.99106E+03 1.57794E+04 1.55529E+05-5.08544E-09-2.52567E-09
 -1       752 1.47669E+06-5.96899E+02 2.40852E+04 6.76144E+04-1.81558E-08-3.11229E-09
 -1       753 1.49237E+06 2.21054E+04 5.40321E+04 1.55191E+05-3.07201E-08-6.41285E-09
 -1       754 1.46452E+06-1.05538E+04 8.73482E+04 6.77153E+04-1.09640E-08-2.04091E-09
 -1       755 8.09490E+03 4.98995E+05-6.29037E+04-4.76315E+03-2.71393E-09 3.78350E-10
 -1       756-1.50000E+04 4.78422E+05-3.44924E+04-1.06619E+04-2.87855E-09 1.40983E-09
 -1       757 3.02462E+02 4.89318E+05-6.69120E+03-4.74378E+03-3.29601E-09 6.23913E-10
 -1       758 8.13700E+03 4.94345E+05 1.49339E+04-1.06740E+04-2.69029E-09 1.46088E-10
 -1       759-4.73203E+03 4.83029E+05 3.51878E+04-4.74203E+03-3.88900E-09-1.07502E-09
 -1       760 9.96128E+05 6.00351E+05 3.99374E+04 7.79036E+05 3.01247E-09-3.71074E-10
 -1       761 9.75635E+05 6.48528E+05 2.53076E+04 7.88083E+05-5.18412E-11 9.96806E-10
 -1       762 1.00114E+06 6.05377E+05 1.24731E+04 7.79471E+05-2.76123E-09-1.05592E-09
 -1       763 9.68983E+05 6.40536E+05 1.03683E+04 7.89195E+05-3.44198E-09-1.53182E-09
 -1       764 1.00119E+06 6.05848E+05 1.20666E+04 7.79485E+05-6.12636E-09 4.32465E-10
 -1       765 9.70883E+05 6.41995E+05 2.17266E+04 7.88914E+05-1.09558E-08 2.02408E-09
 -1       766 9.99371E+05 6.04335E+05 3.85913E+04 7.79258E+05-4.54293E-09-1.77533E-09
 -1       767 9.97430E+05 6.71181E+05 9.06055E+04 7.83888E+05-2.18033E-08-3.19415E-09
 -1       768 9.79954E+05 5.86085E+05 1.48001E+05 7.77348E+05-1.55342E-09-2.11730E-09
 -1       769 6.61082E+05-1.30607E+03 1.14682E+04 1.56102E+04-2.99997E-09 1.97815E-10
 -1       770 6.64606E+05 2.90029E+03 8.11533E+03 3.45143E+04 8.96125E-09-4.88825E-10
 -1       771 6.62530E+05-9.62583E+01 5.74048E+03 1.55789E+04-9.60404E-09-1.33468E-10
 -1       772 6.63590E+05 1.24886E+03 7.88047E+03 3.45437E+04 2.33740E-09-1.36743E-09
 -1       773 6.62058E+05-4.48730E+02 1.25860E+04 1.55826E+04-2.35298E-09 2.65572E-10
 -1       774 6.70587E+05 1.14521E+04 2.86648E+04 3.44971E+04-3.95721E-09-1.08912E-09
 -1       775 6.55545E+05-5.73972E+03 4.65068E+04 1.56130E+04 3.94766E-09 6.67569E-10
 -1       776 1.66038E+04-8.67072E+05-1.38024E+05 5.48378E+04 9.81527E-09-1.23146E-09
 -1       777-3.45831E+04-9.12140E+05-9.26543E+04 1.28080E+05 1.67311E-08 4.08545E-09
 -1       778 2.27250E+03-8.84972E+05-5.53796E+04 5.45376E+04 4.55384E-09 6.39375E-10
 -1       779-2.35804E+04-9.04762E+05-6.93037E+04 1.28248E+05 1.37024E-08-6.60805E-10
 -1       780 1.06365E+04-8.74719E+05-9.16792E+04 5.46896E+04 7.29415E-09-7.33053E-10
 -1       781 5.83841E+05 3.23270E+05 3.48937E+04 4.38999E+05 2.81125E-09 1.79716E-09
 -1       782 6.01638E+05 3.29518E+05 2.18342E+04 4.36597E+05 7.97286E-09-4.12001E-09
 -1       783 5.88361E+05 3.27546E+05 1.02939E+04 4.39443E+05-2.69802E-09-3.53793E-09
 -1       784 5.95561E+05 3.22776E+05 7.72348E+03 4.37788E+05-2.91948E-09 8.71950E-10
 -1       785 5.88664E+05 3.27808E+05 7.94909E+03 4.39469E+05 7.53857E-09-8.38099E-10
 -1       786 5.96391E+05 3.23666E+05 1.34119E+04 4.37736E+05-3.18050E-09-2.39299E-09
 -1       787 5.87643E+05 3.26858E+05 2.33597E+04 4.39338E+05-2.79033E-09-1.24601E-09
 -1       788 6.12270E+05 3.41278E+05 5.45458E+04 4.34738E+05-5.15865E-09 2.20734E-09
 -1       789 5.75996E+05 3.15855E+05 8.89860E+04 4.38186E+05 9.33869E-09 5.75528E-09
 -1       790 1.91194E+05-2.31729E+02 2.61785E+03 1.41141E+04-8.16453E-09-1.04592E-10
 -1       791 1.91896E+05 7.95842E+02 2.09612E+03 3.28086E+04-1.17466E-08-2.05728E-09
 -1       792 1.91482E+05 3.00170E+01 1.91982E+03 1.40608E+04-1.11620E-08 7.60565E-11
 -1       793 1.91819E+05 6.22004E+02 3.17099E+03 3.28619E+04 8.61931E-10-1.25442E-09
 -1       794 1.91239E+05-1.52447E+02 5.45322E+03 1.40609E+04-1.97201E-09 5.77074E-10
 -1       795 1.94987E+05 5.21193E+03 1.27052E+04 3.28063E+04-7.31984E-09-1.59980E-09
 -1       796 1.88338E+05-2.52435E+03 2.07048E+04 1.41108E+04 5.67979E-09 5.03860E-10
 -1       797 1.04964E+04-7.23055E+05-8.74379E+04 3.10901E+04-9.24047E-09 4.25644E-10
 -1       798-2.19989E+04-7.51608E+05-5.98636E+04 7.15703E+04-5.81122E-09-5.10227E-10
 -1       799 1.54823E+03-7.34106E+05-3.78645E+04 3.09408E+04-1.23202E-08 2.54533E-09
 -1       800-1.77707E+04-7.48744E+05-5.08697E+04 7.16383E+04-1.02918E-08-2.73303E-09
 -1       801 8.18304E+03-7.25983E+05-6.95884E+04 3.10293E+04-1.60071E-08-4.57476E-10
 -1       802 3.35699E+05 1.88776E+05 3.45257E+04 2.56226E+05 8.69204E-09 7.09406E-11
 -1       803 3.47760E+05 2.00588E+05 2.14074E+04 2.55454E+05 9.68612E-09-3.59159E-09
 -1       804 3.40195E+05 1.93023E+05 9.68221E+03 2.56667E+05-2.50452E-09-1.84605E-09
 -1       805 3.41683E+05 1.93841E+05 6.55042E+03 2.56628E+05-1.81158E-08-6.39830E-10
 -1       806 3.40534E+05 1.93335E+05 5.72596E+03 2.56706E+05-9.97630E-09-1.86270E-09
 -1       807 3.41994E+05 1.94173E+05 8.67577E+03 2.56609E+05-2.36722E-08-2.14152E-09
 -1       808 3.39927E+05 1.92766E+05 1.45639E+04 2.56629E+05 3.02862E-10-2.49884E-09
 -1       809 3.51739E+05 2.04981E+05 3.36317E+04 2.54760E+05-1.05410E-08-2.23008E-09
 -1       810 3.32765E+05 1.86006E+05 5.47373E+04 2.55926E+05-1.54305E-08-3.42334E-09
 -1       811 9.66464E+03-4.40424E+02 3.97471E+03 5.96072E+03 1.30140E-08 5.12955E-10
 -1       812 1.08900E+04 1.01488E+03 2.88785E+03 1.41570E+04 1.90405E-08-1.16208E-09
 -1       813 1.01584E+04-3.22064E+01 2.18202E+03 5.93721E+03 5.32066E-09 5.79007E-10
 -1       814 1.05981E+04 5.03265E+02 3.16585E+03 1.41811E+04-5.17120E-09-1.23146E-09
 -1       815 9.95347E+03-1.88312E+02 5.18089E+03 5.93734E+03 9.58221E-09 4.84079E-10
 -1       816 1.35206E+04 4.76139E+03 1.18937E+04 1.41478E+04 4.05487E-09-1.19780E-09
 -1       817 7.24454E+03-2.39080E+03 1.93271E+04 5.96534E+03 1.68213E-08 4.55657E-10
 -1       818 5.67113E+03-5.11557E+05-4.77749E+04 2.10684E+04 9.14042E-09-1.63709E-09
 -1       819-1.21265E+04-5.27131E+05-3.35009E+04 4.83345E+04 1.26429E-08 7.08485E-09
 -1       820 9.04386E+02-5.17428E+05-2.25913E+04 2.09797E+04 7.20297E-09 1.86606E-09
 -1       821-1.16814E+04-5.26842E+05-3.25617E+04 4.83637E+04 3.45699E-09 2.02300E-09
 -1       822 5.43688E+03-5.11869E+05-4.59082E+04 2.10404E+04 4.72755E-09-3.60910E-09
 -1       823 1.17765E+05 6.56941E+04 2.05527E+04 9.06331E+04-4.45380E-09-3.26236E-09
 -1       824 1.24925E+05 7.27612E+04 1.27405E+04 9.01856E+04-9.54515E-09-1.67313E-09
 -1       825 1.20437E+05 6.82286E+04 5.75448E+03 9.08959E+04 2.95950E-09-5.89796E-09
 -1       826 1.21309E+05 6.87382E+04 3.88058E+03 9.08834E+04 3.75445E-09-2.99966E-09
 -1       827 1.20639E+05 6.84143E+04 3.37225E+03 9.09186E+04 3.13810E-09 5.32270E-09
 -1       828 1.21486E+05 6.89277E+04 5.08806E+03 9.08725E+04-6.20537E-09 5.73033E-09
 -1       829 1.20285E+05 6.80821E+04 8.52756E+03 9.08741E+04-9.88803E-09 3.74848E-09
 -1       830 1.27195E+05 7.52494E+04 1.96858E+04 8.97884E+04-3.08627E-08 2.73167E-09
 -1       831 1.16088E+05 6.41295E+04 3.20350E+04 9.04659E+04-3.86353E-09-7.91260E-10
 -1       832 2.47449E+03-4.04839E+05-2.09312E+04 7.37846E+03 1.21690E-09-1.99702E-09
 -1       833-5.31786E+03-4.11671E+05-1.51457E+04 1.60550E+04-1.17969E-08 2.59615E-09
 -1       834 4.54870E+02-4.07311E+05-1.10187E+04 7.34224E+03-9.10200E-09 1.98366E-09
 -1       835-6.21933E+03-4.12298E+05-1.70742E+04 1.60816E+04-1.39958E-08 6.67342E-10
 -1       836 2.97957E+03-4.04220E+05-2.47570E+04 7.35111E+03 4.15093E-09 4.76064E-10
 -1       837-3.22106E+05 1.34107E+03-1.15952E+04 2.14524E+04 7.18501E-11 7.62611E-10
 -1       838-3.25769E+05-2.84227E+03-7.72014E+03 5.06583E+04-9.45874E-11 5.22050E-10
 -1       839-3.23687E+05 1.30597E+02-4.61926E+03 2.13078E+04 8.45830E-11 1.16870E-10
 -1       840-3.24520E+05-7.52518E+02-5.30458E+03 5.08158E+04 2.18165E-10 7.41579E-10
 -1       841-3.23487E+05 3.05067E+02-7.72537E+03 2.12965E+04-4.46221E-11 6.78938E-10
 -1       842-3.28566E+05-6.70054E+03-1.70607E+04 5.07383E+04 4.28599E-10 5.47402E-10
 -1       843-3.19632E+05 3.40407E+03-2.75029E+04 2.13832E+04 3.38332E-10 6.65750E-10
 -1       844 3.99424E+03-5.36384E+05-2.97919E+04 4.04143E+04-4.36557E-11-5.27507E-11
 -1       845-6.69154E+03-5.46181E+05-1.45022E+04 9.74361E+04-9.95897E-11 5.13865E-10
 -1       846 7.97335E+01-5.41377E+05 1.18146E+03 4.02411E+04 2.26464E-10-9.00229E-10
 -1       847 8.51683E+03-5.35721E+05 1.79593E+04 9.74408E+04 2.30784E-10-2.11662E-09
 -1       848-4.43872E+03-5.46851E+05 3.46381E+04 4.04029E+04 3.81988E-11-2.01089E-09
 -1       849 2.12436E+05 1.22556E+05 5.19211E+04 1.68138E+05 1.50976E-10 8.58563E-10
 -1       850 2.24572E+05 1.46370E+05 3.22010E+04 1.68763E+05-1.91903E-10-1.11322E-09
 -1       851 2.19228E+05 1.28906E+05 1.45793E+04 1.68784E+05-2.14868E-10-1.52841E-09
 -1       852 2.15428E+05 1.36228E+05 9.89787E+03 1.70524E+05-2.22769E-10 1.63573E-09
 -1       853 2.19721E+05 1.29388E+05 8.70313E+03 1.68842E+05-2.04636E-10 3.74087E-10
 -1       854 2.15941E+05 1.36725E+05 1.32494E+04 1.70480E+05 5.00222E-11 6.68479E-10
 -1       855 2.18776E+05 1.28531E+05 2.22794E+04 1.68727E+05 8.18545E-11 6.23004E-10
 -1       856 2.30861E+05 1.53275E+05 5.14799E+04 1.67646E+05 8.91305E-11 5.59339E-11
 -1       857 2.07804E+05 1.18195E+05 8.38052E+04 1.67656E+05 7.38510E-10 7.89441E-10
 -1       858-3.73456E+05 4.00787E+03-3.30192E+04 2.83999E+04-1.80989E-10 1.07320E-10
 -1       859-3.84126E+05-7.97709E+03-2.11747E+04 6.73910E+04-1.99179E-10 5.68434E-10
 -1       860-3.78024E+05 4.08686E+02-1.10564E+04 2.82222E+04-4.32010E-10 9.56788E-10
 -1       861-3.79865E+05-1.38081E+03-1.03820E+04 6.75805E+04-2.71370E-10 1.77806E-10
 -1       862-3.77896E+05 5.26442E+02-1.31009E+04 2.82133E+04 1.80307E-10 6.12317E-10
 -1       863-3.85983E+05-1.05115E+04-2.73257E+04 6.74496E+04 2.30102E-10 8.32188E-10
 -1       864-3.71834E+05 5.37571E+03-4.34906E+04 2.83505E+04 4.36557E-10 8.85848E-10
 -1       865 2.30096E+03-2.22779E+05-1.67301E+04 4.36878E+04 4.12001E-10 9.99535E-10
 -1       866-3.62093E+03-2.28308E+05-7.17397E+03 1.04533E+05 4.22915E-10 1.17143E-09
 -1       867-2.87929E+01-2.25792E+05 2.96952E+03 4.35479E+04 3.69255E-10-1.52227E-09
 -1       868 7.14809E+03-2.20838E+05 1.58608E+04 1.04497E+05 4.93912E-10-1.35719E-09
 -1       869-3.71726E+03-2.30174E+05 2.89787E+04 4.37213E+04 7.80346E-10-9.11314E-10
 -1       870 2.99806E+05 1.74569E+05 4.87064E+04 2.35161E+05-2.55568E-10 1.28421E-09
 -1       871 3.08528E+05 1.99568E+05 3.01988E+04 2.36516E+05-3.25940E-10 2.90584E-10
 -1       872 3.06180E+05 1.80533E+05 1.36505E+04 2.35767E+05-1.76954E-10-4.75211E-10
 -1       873 2.99947E+05 1.90043E+05 9.22497E+03 2.38161E+05 1.08002E-12 3.67891E-10
 -1       874 3.06639E+05 1.80992E+05 8.04617E+03 2.35822E+05-6.48470E-10-5.22299E-10
 -1       875 3.00404E+05 1.90475E+05 1.21727E+04 2.38120E+05-9.08017E-10-7.82507E-10
 -1       876 3.05775E+05 1.80207E+05 2.04220E+04 2.35716E+05-1.90084E-10 1.54614E-11
 -1       877 3.14074E+05 2.05618E+05 4.71512E+04 2.35523E+05 1.30967E-10 3.76531E-10
 -1       878 2.95718E+05 1.70751E+05 7.67438E+04 2.34737E+05-9.45874E-11 1.09139E-10
 -1       879-7.75258E+04 1.83886E+03-1.55777E+04 3.16542E+04-4.82032E-10-7.60338E-10
 -1       880-8.25528E+04-3.72806E+03-1.01871E+04 7.53086E+04 1.18689E-10 8.73115E-11
 -1       881-7.96926E+04 2.13362E+02-5.74761E+03 3.14947E+04-1.70985E-10-8.57199E-10
 -1       882-8.07615E+04-7.69482E+02-6.09895E+03 7.54706E+04 8.56517E-10 4.29736E-11
 -1       883-7.95154E+04 3.61877E+02-8.45002E+03 3.14934E+04 9.04947E-11 4.88853E-11
 -1       884-8.49675E+04-7.09002E+03-1.83102E+04 7.53340E+04 2.13504E-10 1.01585E-09
 -1       885-7.53642E+04 3.62286E+03-2.94143E+04 3.16300E+04 8.73115E-11-1.83718E-10
 -1       886 4.50497E+03-2.93296E+05-3.54732E+04 4.18204E+04 2.47383E-10-1.31877E-10
 -1       887-8.40990E+03-3.04991E+05-2.12925E+04 1.00089E+05 7.16227E-10-4.25985E-10
 -1       888 4.41479E+02-2.98404E+05-8.22138E+03 4.16875E+04 7.68523E-11-1.49589E-09
 -1       889 2.57432E+02-2.98961E+05-2.74287E+03 1.00047E+05 5.09431E-10-8.07631E-10
 -1       890-3.53331E+02-2.99245E+05 1.32627E+03 4.18611E+04 6.30280E-10-9.10404E-10
 -1       891 4.33387E+05 2.46137E+05 5.74561E+04 3.34098E+05 1.09139E-10-4.34738E-10
 -1       892 4.47833E+05 2.71470E+05 3.54982E+04 3.34469E+05 7.00311E-11 9.13133E-10
 -1       893 4.40898E+05 2.53199E+05 1.57875E+04 3.34827E+05 2.43290E-11 1.62800E-10
 -1       894 4.37691E+05 2.60177E+05 1.01950E+04 3.36406E+05 5.26711E-10 1.12288E-09
 -1       895 4.41472E+05 2.53768E+05 8.14327E+03 3.34902E+05 9.29049E-10-4.57277E-10
 -1       896 4.37906E+05 2.60341E+05 1.14590E+04 3.36382E+05-1.06752E-10-5.81167E-10
 -1       897 4.40704E+05 2.53080E+05 1.86922E+04 3.34810E+05-3.86854E-09-3.34830E-09
 -1       898 4.50253E+05 2.74020E+05 4.27679E+04 3.34028E+05-8.36735E-11 6.73026E-10
 -1       899 4.31611E+05 2.44523E+05 6.94805E+04 3.33920E+05 6.25732E-10-1.46611E-09
 -1       900 2.96309E+05-8.13554E+02 5.89193E+03 3.17113E+04 2.00089E-10 7.54881E-11
 -1       901 2.98230E+05 1.46571E+03 3.44223E+03 7.54357E+04-1.43928E-10-3.84262E-11
 -1       902 2.97100E+05-4.38117E+01 1.06614E+03 3.15985E+04 8.86757E-11 9.24047E-10
 -1       903 2.97087E+05 3.21898E+01-1.98731E+02 7.55471E+04-4.02679E-10 6.20730E-11
 -1       904 2.97275E+05 9.51095E+01-1.54066E+03 3.15996E+04-3.86990E-10 4.61341E-10
 -1       905 2.95926E+05-1.78375E+03-4.38849E+03 7.54361E+04 1.15961E-10 6.13909E-11
 -1       906 2.98405E+05 8.91698E+02-7.45283E+03 3.17094E+04 6.00267E-11-1.02318E-09
 -1       907 7.75355E+03-4.13116E+05-6.28826E+04 3.76847E+04-1.06593E-09 3.64253E-10
 -1       908-1.53702E+04-4.33846E+05-4.18427E+04 9.02606E+04-9.09949E-10 6.91216E-10
 -1       909 1.13544E+03-4.21307E+05-2.43487E+04 3.75664E+04-4.50200E-10-3.82897E-10
 -1       910-9.54130E+03-4.29768E+05-2.93538E+04 9.02088E+04-1.28239E-10 2.41698E-10
 -1       911 4.46755E+03-4.17110E+05-3.81169E+04 3.77351E+04-4.11092E-10-3.59250E-10
 -1       912 5.71915E+05 3.18397E+05 6.32254E+04 4.34966E+05-3.36513E-10 1.54978E-09
 -1       913 5.93020E+05 3.41068E+05 3.89340E+04 4.33843E+05 1.05797E-09-5.33419E-10
 -1       914 5.80180E+05 3.26192E+05 1.70497E+04 4.35781E+05 1.57797E-10-1.17234E-09
 -1       915 5.81827E+05 3.28593E+05 1.05123E+04 4.35973E+05-7.07416E-11 1.22691E-09
 -1       916 5.80850E+05 3.26840E+05 7.57440E+03 4.35869E+05-1.75345E-09-2.43676E-09
 -1       917 5.81724E+05 3.28428E+05 9.62810E+03 4.35973E+05-1.36424E-10-2.47496E-10
 -1       918 5.80266E+05 3.26326E+05 1.50192E+04 4.35805E+05-5.77529E-11-2.09639E-10
 -1       919 5.91428E+05 3.39178E+05 3.38501E+04 4.34113E+05 7.50333E-11-6.91216E-11
 -1       920 5.73102E+05 3.19581E+05 5.48186E+04 4.35101E+05-7.27596E-12 8.64020E-10
 -1       921 4.00709E+05-3.33971E+02 2.05248E+03 3.57579E+04-4.40195E-10-7.48514E-10
 -1       922 4.01352E+05 5.59065E+02 1.07103E+03 8.50261E+04-5.90262E-10-1.19599E-09
 -1       923 4.00953E+05 1.18267E+01 8.88218E+00 3.56466E+04 1.63709E-10-1.46019E-09
 -1       924 4.00774E+05-3.76129E+01-8.93554E+02 8.51389E+04 1.32054E-09 2.08956E-10
 -1       925 4.01102E+05 1.17469E+02-2.10274E+03 3.56451E+04-1.35969E-10-6.50289E-11
 -1       926 3.99524E+05-2.08595E+03-5.26587E+03 8.50271E+04-1.74623E-10 2.52498E-10
 -1       927 4.02426E+05 1.02490E+03-8.75312E+03 3.57580E+04 1.50067E-10 6.44832E-10
 -1       928 1.09271E+04-5.30625E+05-8.99268E+04 3.37587E+04-1.01863E-09 4.25189E-10
 -1       929-2.22690E+04-5.60305E+05-6.29340E+04 8.09241E+04-1.82217E-09 4.75211E-10
 -1       930 1.91832E+03-5.41698E+05-4.22099E+04 3.36519E+04-6.68365E-10 3.07296E-10
 -1       931-2.11460E+04-5.59477E+05-6.04992E+04 8.08701E+04-1.08048E-09-9.27685E-11
 -1       932 1.02614E+04-5.31380E+05-8.51080E+04 3.38108E+04-2.69210E-10 8.54925E-11
 -1       933 8.15602E+05 4.45992E+05 8.48991E+04 6.14232E+05 1.30967E-10 2.36469E-10
 -1       934 8.51213E+05 4.69188E+05 5.20907E+04 6.10599E+05 1.33332E-09 1.61481E-09
 -1       935 8.26718E+05 4.56476E+05 2.24143E+04 6.15335E+05 7.06677E-10-5.49335E-10
 -1       936 8.36109E+05 4.52383E+05 1.30662E+04 6.13454E+05-1.80989E-10-1.35287E-10
 -1       937 8.27675E+05 4.57379E+05 8.10989E+03 6.15462E+05-4.61256E-10-3.38559E-10
 -1       938 8.35467E+05 4.51645E+05 8.49529E+03 6.13491E+05-3.03714E-10-2.09354E-10
 -1       939 8.27274E+05 4.57051E+05 1.19144E+04 6.15428E+05-1.20508E-10 1.00113E-09
 -1       940 8.42746E+05 4.59673E+05 2.58085E+04 6.12077E+05-2.04636E-11-6.16637E-10
 -1       941 8.21875E+05 4.51981E+05 4.14386E+04 6.14903E+05 1.25510E-10-2.49202E-10
 -1       942-3.76716E+05 1.03438E+04-8.31797E+04 3.26580E+04 3.60160E-10 5.96629E-10
 -1       943-4.03862E+05-2.00828E+04-5.19735E+04 7.78238E+04 2.69665E-10-7.37600E-10
 -1       944-3.88336E+05 1.00941E+03-2.42946E+04 3.24966E+04 2.50111E-12 2.37378E-10
 -1       945-3.91926E+05-2.37140E+03-1.81321E+04 7.79805E+04 5.89978E-10 2.11912E-10
 -1       946-3.88762E+05 6.63632E+02-1.78903E+04 3.25052E+04 3.75167E-10-2.93994E-10
 -1       947-3.98174E+05-1.20997E+04-3.27255E+04 7.77672E+04 2.63753E-10-4.96357E-10
 -1       948-3.81858E+05 6.13264E+03-5.03958E+04 3.27059E+04 5.84805E-10-7.49424E-10
 -1       949 1.44459E+04-7.01420E+05-1.20351E+05 5.34385E+04 8.73115E-11-1.43700E-10
 -1       950-2.99610E+04-7.41297E+05-8.79909E+04 1.28215E+05-1.31740E-09-5.54792E-11
 -1       951 3.00890E+03-7.15508E+05-6.55229E+04 5.32575E+04 3.31056E-10-1.29739E-09
 -1       952-3.73248E+04-7.46247E+05-1.03628E+05 1.28132E+05-1.47702E-09-8.29459E-10
 -1       953 1.84497E+04-6.96304E+05-1.51379E+05 5.35178E+04 6.83940E-10-3.36513E-10
 -1       954 1.49070E+06 8.32362E+05 1.75836E+05 1.13672E+06-2.91038E-11 6.54836E-11
 -1       955 1.54640E+06 8.98209E+05 1.08420E+05 1.13453E+06-5.58430E-10 3.08319E-10
 -1       956 1.51369E+06 8.53947E+05 4.78789E+04 1.13902E+06-1.76442E-10-4.71118E-10
 -1       957 1.51526E+06 8.63748E+05 3.02088E+04 1.14049E+06-1.06184E-10 2.02704E-09
 -1       958 1.51560E+06 8.55621E+05 2.29593E+04 1.13924E+06-1.43757E-09-1.51476E-09
 -1       959 1.51523E+06 8.63960E+05 3.08140E+04 1.14052E+06-7.44649E-11-7.39419E-10
 -1       960 1.51373E+06 8.53756E+05 4.92679E+04 1.13898E+06-5.03860E-10-7.98536E-10
 -1       961 1.54721E+06 8.99784E+05 1.11897E+05 1.13443E+06-1.42700E-09 1.42791E-09
 -1       962 1.49007E+06 8.31375E+05 1.81588E+05 1.13658E+06-2.32831E-10-3.01952E-09
 -1       963-2.43312E+05 4.52514E+03-3.63242E+04 9.88290E+03-4.38831E-10 1.09321E-09
 -1       964-2.55147E+05-8.81739E+03-2.23662E+04 2.33042E+04 2.37605E-10-4.67935E-10
 -1       965-2.48422E+05 4.07149E+02-9.78080E+03 9.78940E+03 2.74667E-10-5.71617E-10
 -1       966-2.49711E+05-8.09550E+02-6.04421E+03 2.34149E+04-1.75532E-10 6.41421E-10
 -1       967-2.48808E+05 1.31677E+02-4.28218E+03 9.77452E+03 1.03000E-10 4.94765E-10
 -1       968-2.50384E+05-1.92453E+03-5.86089E+03 2.34232E+04 1.72577E-10-1.12757E-09
 -1       969-2.47780E+05 9.80654E+02-8.18315E+03 9.78108E+03 3.18948E-10-1.53341E-09
 -1       970-2.34285E+03 3.33207E+05 1.77378E+04 1.17667E+05-2.61161E-09-4.74756E-10
 -1       971 5.33621E+03 3.38363E+05 1.00772E+04 2.79733E+05-4.07817E-09 8.31278E-10
 -1       972 3.86620E+02 3.35427E+05 2.38600E+03 1.17346E+05-5.37420E-09-1.94291E-09
 -1       973-7.62466E+02 3.33986E+05-3.07182E+03 2.79754E+05-2.60115E-09 1.73577E-09
 -1       974 1.17484E+03 3.37352E+05-8.32595E+03 1.17646E+05-4.82896E-09-1.07866E-09
 -1       975 2.05471E+05 1.21404E+05 1.85036E+04 1.60362E+05-3.53339E-10 3.37423E-10
 -1       976 2.05554E+05 1.33934E+05 1.22171E+04 1.61816E+05 3.52429E-10-1.13982E-09
 -1       977 2.07829E+05 1.23579E+05 7.09725E+03 1.60573E+05-2.52385E-11-4.02451E-10
 -1       978 2.02556E+05 1.30595E+05 7.66393E+03 1.62470E+05-7.83075E-10 2.20538E-10
 -1       979 2.07814E+05 1.23590E+05 1.12151E+04 1.60559E+05 1.77351E-11 2.41698E-10
 -1       980 2.04721E+05 1.32816E+05 2.21620E+04 1.62320E+05 4.35875E-10 8.60382E-10
 -1       981 2.05949E+05 1.21877E+05 4.04005E+04 1.60322E+05-8.91305E-11 2.81943E-10
 -1       982 2.32735E+05 1.63871E+05 9.56123E+04 1.57055E+05-2.91948E-10-4.92037E-10
 -1       983 1.85438E+05 1.02554E+05 1.56436E+05 1.58323E+05 1.57524E-09-1.19326E-09
 -1       984-2.39394E+05 8.62422E+02-7.32035E+03-9.19687E+02-2.33285E-10 4.17231E-10
 -1       985-2.41692E+05-1.73906E+03-5.17658E+03-2.32493E+03 1.32081E-09-1.77863E-10
 -1       986-2.40322E+05 9.89590E+01-3.67676E+03-9.95255E+02-1.31922E-09-3.26793E-10
 -1       987-2.41060E+05-6.87049E+02-5.04979E+03-2.22099E+03-9.13133E-10-2.56705E-10
 -1       988-2.40019E+05 3.25976E+02-8.08162E+03-1.02354E+03-6.88033E-10-1.31104E-09
 -1       989-2.45544E+05-7.24835E+03-1.84042E+04-2.10656E+03-3.61160E-09 2.21235E-10
 -1       990-2.35832E+05 3.72197E+03-2.98676E+04-1.10606E+03 8.11724E-10-1.22782E-09
 -1       991 3.10370E+02-2.05731E+05 1.33016E+03 5.13240E+04 9.03128E-10 6.45741E-11
 -1       992 1.15224E+03-2.05087E+05 1.14879E+04 1.22443E+05-1.05382E-09-2.97632E-10
 -1       993-1.08109E+03-2.07796E+05 2.58456E+04 5.11246E+04 1.59343E-09-1.04592E-11
 -1       994 2.58033E+04-1.88181E+05 6.40845E+04 1.22471E+05-8.18545E-10-6.50289E-10
 -1       995-1.33085E+04-2.22711E+05 1.05773E+05 5.12958E+04 8.00355E-10-6.35737E-10
 -1       996-4.82299E+04-2.27564E+04 9.45434E+03-3.20436E+04-1.24692E-09 1.09594E-09
 -1       997-4.92215E+04-1.53151E+04 6.44196E+03-3.09778E+04 8.64020E-12 6.41307E-10
 -1       998-4.69942E+04-2.17100E+04 4.12726E+03-3.19564E+04 2.01135E-09 1.35969E-10
 -1       999-5.07493E+04-1.68936E+04 5.01172E+03-3.06238E+04 3.16959E-10-5.78439E-10
 -1      1000-4.70398E+04-2.17600E+04 7.87762E+03-3.19786E+04-1.63982E-09 8.69761E-10
 -1      1001-4.91400E+04-1.51911E+04 1.59485E+04-3.07334E+04 1.11982E-09 1.17598E-09
 -1      1002-4.83895E+04-2.30189E+04 2.92481E+04-3.21560E+04-1.64982E-09-1.71531E-09
 -1      1003-2.88375E+04 7.39557E+03 6.93569E+04-3.45492E+04-1.55433E-09-3.92993E-09
 -1      1004-6.32389E+04-3.70888E+04 1.13500E+05-3.36134E+04 3.44153E-09 1.02227E-09
 -1      1005-7.49982E+05 9.83826E+03-7.95127E+04 4.14260E+04-1.02718E-08 4.62023E-10
 -1      1006-7.75952E+05-1.87976E+04-5.02579E+04 1.00403E+05-4.64479E-09-1.68438E-09
 -1      1007-7.61119E+05 1.13068E+03-2.48018E+04 4.10135E+04 1.03710E-08-4.47744E-09
 -1      1008-7.65309E+05-2.26347E+03-2.08816E+04 1.00875E+05-3.63434E-09-3.36922E-09
 -1      1009-7.61262E+05 1.15435E+03-2.37995E+04 4.09455E+04-1.53047E-08-2.36923E-09
 -1      1010-7.75502E+05-1.73977E+04-4.73144E+04 1.00779E+05-2.78663E-08-1.89129E-09
 -1      1011-7.50990E+05 9.42856E+03-7.44231E+04 4.11227E+04-1.28584E-08-2.19370E-09
 -1      1012-2.14496E+02 6.85906E+04 5.11980E+03 6.25905E+04-2.69756E-09 4.80213E-10
 -1      1013 1.93687E+03 7.06536E+04 1.58389E+04 1.49258E+05-5.03746E-10-9.43601E-10
 -1      1014-1.44827E+03 6.66161E+04 3.16687E+04 6.23911E+04-1.53523E-09 1.91108E-10
 -1      1015 3.04683E+04 9.02566E+04 7.67511E+04 1.49270E+05-6.11180E-10 1.76829E-09
 -1      1016-1.59977E+04 4.89407E+04 1.26079E+05 6.25938E+04-2.21189E-09 1.40062E-09
 -1      1017 4.49272E+05 2.74038E+05 6.23289E+04 3.59268E+05 2.85672E-09 8.25821E-10
 -1      1018 4.50381E+05 3.16058E+05 3.90500E+04 3.63868E+05 5.57293E-10 8.84938E-10
 -1      1019 4.57375E+05 2.81641E+05 1.84716E+04 3.60006E+05-2.73144E-09-4.52019E-10
 -1      1020 4.39537E+05 3.03967E+05 1.39984E+04 3.65925E+05-1.36902E-09-3.85262E-09
 -1      1021 4.57821E+05 2.82191E+05 1.45885E+04 3.60050E+05-4.69618E-09 2.78760E-10
 -1      1022 4.41204E+05 3.05537E+05 2.48010E+04 3.65755E+05-7.73798E-09 1.17325E-10
 -1      1023 4.55886E+05 2.80463E+05 4.32988E+04 3.59805E+05-5.11500E-09-6.67569E-10
 -1      1024 4.70740E+05 3.38144E+05 1.01178E+05 3.60160E+05-1.95178E-08 1.43336E-09
 -1      1025 4.34246E+05 2.60111E+05 1.65130E+05 3.57691E+05-3.67072E-09 2.22644E-09
 -1      1026-3.13174E+05 4.11368E+03-3.23472E+04 3.90292E+04-1.86265E-09-2.36741E-09
 -1      1027-3.23960E+05-7.26756E+03-2.03474E+04 9.40551E+04 9.38962E-09-2.79624E-09
 -1      1028-3.17763E+05 6.21566E+02-9.87722E+03 3.87836E+04-8.33961E-09-2.97496E-09
 -1      1029-3.19640E+05-4.56473E+02-8.02472E+03 9.43045E+04 5.18639E-10-2.08593E-09
 -1      1030-3.17860E+05 5.90417E+02-8.80802E+03 3.87722E+04-5.52973E-10-3.35706E-09
 -1      1031-3.23160E+05-5.88387E+03-1.71578E+04 9.41299E+04-2.89106E-09-1.20025E-09
 -1      1032-3.14102E+05 3.49617E+03-2.68876E+04 3.89645E+04-3.17868E-09-4.45471E-09
 -1      1033 5.21991E+03-4.61767E+05-4.36980E+04 9.68537E+04 5.34419E-09-1.70985E-10
 -1      1034-1.07737E+04-4.75612E+05-2.13224E+04 2.30056E+05 8.92874E-09-1.02818E-09
 -1      1035-2.55069E+02-4.69273E+05 1.45554E+03 9.64855E+04 6.39920E-09-7.17705E-10
 -1      1036 1.12000E+04-4.60480E+05 2.55954E+04 2.30058E+05 9.27264E-09 2.51293E-09
 -1      1037-6.97893E+03-4.76886E+05 4.94217E+04 9.68758E+04 6.06087E-09 2.73940E-09
 -1      1038 5.89176E+05 3.39455E+05 8.71926E+04 4.58545E+05-5.17502E-09-4.27826E-09
 -1      1039 6.10625E+05 3.78304E+05 5.41043E+04 4.59208E+05 1.00144E-08-4.26553E-10
 -1      1040 6.00524E+05 3.50164E+05 2.45729E+04 4.59655E+05-2.36423E-09 1.24146E-09
 -1      1041 5.95333E+05 3.61251E+05 1.68068E+04 4.62150E+05-9.15065E-10 4.65661E-10
 -1      1042 6.01327E+05 3.50982E+05 1.49753E+04 4.59757E+05 1.36929E-08 3.85552E-09
 -1      1043 5.96303E+05 3.62151E+05 2.30128E+04 4.62067E+05-1.43473E-10-1.15142E-09
 -1      1044 5.99670E+05 3.49485E+05 3.88309E+04 4.59554E+05 2.48292E-10 6.00267E-11
 -1      1045 6.22373E+05 3.90974E+05 8.97940E+04 4.57117E+05 7.39237E-09 5.02041E-09
 -1      1046 5.80536E+05 3.31460E+05 1.46235E+05 4.57671E+05 1.59234E-08-1.31695E-09
 -1      1047-1.87258E+05 1.92534E+03-1.46315E+04 2.76276E+04-1.66074E-08-3.02362E-09
 -1      1048-1.92226E+05-3.12724E+03-9.22652E+03 6.65029E+04-1.16377E-08-2.45473E-09
 -1      1049-1.89331E+05 3.49081E+02-4.52610E+03 2.74751E+04-1.49093E-08-1.95723E-09
 -1      1050-1.90283E+05-6.82233E+01-3.76267E+03 6.66543E+04-4.25916E-09-3.37013E-09
 -1      1051-1.89357E+05 3.40449E+02-4.23531E+03 2.74721E+04 2.16664E-09-4.73187E-09
 -1      1052-1.92008E+05-2.75127E+03-8.35895E+03 6.65270E+04-5.86010E-09-2.13146E-09
 -1      1053-1.87510E+05 1.75700E+03-1.31465E+04 2.76059E+04 1.37434E-08-4.24370E-09
 -1      1054 6.18526E+03-5.86112E+05-5.22613E+04 6.99113E+04-8.57108E-09 1.41517E-09
 -1      1055-1.32762E+04-6.02833E+05-3.16657E+04 1.65091E+05-6.85100E-09-7.87395E-10
 -1      1056 3.28718E+02-5.93641E+05-1.28688E+04 6.96558E+04-5.29030E-09 2.06649E-09
 -1      1057-1.25865E+03-5.94481E+05-5.95746E+03 1.65057E+05-7.65294E-09-1.74850E-09
 -1      1058-5.47455E+02-5.94357E+05-1.26272E+03 6.99593E+04-1.21463E-08 4.64752E-09
 -1      1059 4.28512E+05 2.45478E+05 6.82539E+04 3.33202E+05-4.93492E-09-4.30373E-09
 -1      1060 4.47023E+05 2.74214E+05 4.22107E+04 3.33224E+05-7.47923E-09-2.20462E-09
 -1      1061 4.37422E+05 2.53870E+05 1.88671E+04 3.34072E+05-1.07489E-08 6.65750E-10
 -1      1062 4.34975E+05 2.60833E+05 1.23546E+04 3.35534E+05-2.41710E-08 7.33394E-10
 -1      1063 4.38099E+05 2.54528E+05 1.01529E+04 3.34157E+05-1.17614E-08 4.06450E-09
 -1      1064 4.35334E+05 2.61166E+05 1.46426E+04 3.35504E+05-1.57761E-08 4.48495E-10
 -1      1065 4.37107E+05 2.53619E+05 2.41226E+04 3.34036E+05 8.42556E-09-3.61069E-09
 -1      1066 4.51350E+05 2.78893E+05 5.53685E+04 3.32456E+05-3.65617E-10-3.67709E-09
 -1      1067 4.25333E+05 2.42522E+05 9.00157E+04 3.32881E+05-2.02017E-08-1.44064E-09
 -1      1068-1.29455E+05 1.01074E+03-7.43333E+03 1.50400E+04 1.95391E-08-3.72302E-09
 -1      1069-1.32001E+05-1.59289E+03-4.48532E+03 3.63272E+04 9.83448E-09-3.31329E-09
 -1      1070-1.30522E+05 1.71146E+02-1.77712E+03 1.49672E+04 2.49202E-10-3.92311E-09
 -1      1071-1.30839E+05 1.21615E+02-7.34324E+02 3.63970E+04-1.64898E-09-2.34172E-09
 -1      1072-1.30647E+05 7.39797E+01 6.62387E+01 1.49681E+04 5.46447E-09-4.21028E-09
 -1      1073-1.30377E+05 7.08180E+02 1.05186E+03 3.63168E+04-1.79410E-08-2.91595E-09
 -1      1074-1.30939E+05-1.92436E+02 2.00404E+03 1.50469E+04 1.14392E-08-3.35740E-09
 -1      1075 4.26727E+03-4.27926E+05-3.65232E+04 4.40287E+04 2.65027E-09-3.37241E-09
 -1      1076-9.42774E+03-4.39625E+05-2.37920E+04 1.03598E+05 9.07221E-11 5.02951E-10
 -1      1077 3.84145E+02-4.32813E+05-1.29455E+04 4.38809E+04 7.03861E-09-2.23844E-09
 -1      1078-4.88181E+03-4.36455E+05-1.40591E+04 1.03573E+05 4.90172E-09 3.32943E-09
 -1      1079 1.71276E+03-4.31042E+05-1.72176E+04 4.40591E+04 3.12775E-09 7.62157E-10
 -1      1080 2.59892E+05 1.47708E+05 4.41084E+04 2.01667E+05 9.25502E-09 1.80808E-09
 -1      1081 2.72963E+05 1.65194E+05 2.72082E+04 2.01362E+05-1.91772E-08-1.64437E-09
 -1      1082 2.65657E+05 1.53140E+05 1.20092E+04 2.02229E+05-5.42968E-09-1.07775E-10
 -1      1083 2.65141E+05 1.56529E+05 7.58642E+03 2.02857E+05 4.18876E-09-5.57350E-09
 -1      1084 2.66121E+05 1.53573E+05 5.78204E+03 2.02285E+05 9.69825E-09-1.11389E-09
 -1      1085 2.65171E+05 1.56561E+05 7.78941E+03 2.02856E+05-5.88261E-09-1.50868E-09
 -1      1086 2.65631E+05 1.53116E+05 1.24755E+04 2.02225E+05-4.59750E-10-3.62070E-09
 -1      1087 2.73343E+05 1.65614E+05 2.83756E+04 2.01295E+05-4.86898E-09-2.85081E-09
 -1      1088 2.59612E+05 1.47444E+05 4.60389E+04 2.01638E+05 5.25688E-09 3.63798E-12
 -1      1089 1.30454E+03-2.70276E+05-1.20303E+04 2.13163E+04 3.71938E-09-2.27374E-11
 -1      1090-3.28051E+03-2.74101E+05-9.20820E+03 4.99042E+04-8.75804E-09 2.23406E-09
 -1      1091 2.35549E+02-2.71604E+05-7.54717E+03 2.12473E+04-5.12136E-09 3.43923E-09
 -1      1092-4.99225E+03-2.75273E+05-1.28589E+04 4.98937E+04-4.14229E-09 3.04590E-09
 -1      1093 2.24954E+03-2.69095E+05-1.92765E+04 2.13247E+04-5.31236E-09 1.00499E-09
 -1      1094-1.32200E+06 4.61617E+03-3.82494E+04 2.40132E+04-2.12822E-10 2.36469E-10
 -1      1095-1.33421E+06-9.25130E+03-2.50838E+04 5.56889E+04 5.85715E-10 7.69887E-10
 -1      1096-1.32719E+06 4.78358E+02-1.42027E+04 2.37229E+04-1.91449E-10 1.93722E-10
 -1      1097-1.32965E+06-2.06527E+03-1.51730E+04 5.60478E+04 6.94286E-10 6.30408E-10
 -1      1098-1.32674E+06 8.59989E+02-2.10978E+04 2.36592E+04 1.12550E-11 3.52884E-10
 -1      1099-1.34039E+06-1.78393E+04-4.58210E+04 5.59975E+04 2.65345E-10 1.06138E-09
 -1      1100-1.31650E+06 9.18606E+03-7.35653E+04 2.37685E+04-5.35692E-10 6.54836E-11
 -1      1101-9.81490E+05 5.17843E+03-4.20897E+04 1.60899E+04-2.34195E-10 1.49157E-10
 -1      1102-9.95069E+05-1.01412E+04-2.71612E+04 3.78160E+04 2.02135E-10 8.76298E-10
 -1      1103-9.87234E+05 5.35656E+02-1.44796E+04 1.59356E+04-1.00044E-10 3.36513E-10
 -1      1104-9.89646E+05-1.88626E+03-1.41051E+04 3.79960E+04 5.59339E-11-1.85395E-10
 -1      1105-9.86978E+05 7.43194E+02-1.83306E+04 1.59127E+04 1.84230E-10-5.50244E-10
 -1      1106-9.98488E+05-1.49460E+04-3.87368E+04 3.79331E+04 4.75552E-10 1.44473E-09
 -1      1107-9.78400E+05 7.71167E+03-6.18083E+04 1.59963E+04 6.12090E-10 7.67614E-10
 -1      1108-5.38442E+05 2.44617E+03-2.01612E+04 1.64522E+04 1.99634E-10-1.42791E-10
 -1      1109-5.44916E+05-4.81976E+03-1.34087E+04 3.90811E+04 1.31513E-09 4.65661E-10
 -1      1110-5.41149E+05 2.79652E+02-7.95396E+03 1.63318E+04 3.12866E-10-5.63659E-10
 -1      1111-5.42623E+05-1.19299E+03-9.04950E+03 3.92110E+04 2.39652E-10-6.52776E-10
 -1      1112-5.40802E+05 5.52004E+02-1.30974E+04 1.63231E+04 3.51974E-10 3.48336E-10
 -1      1113-5.49455E+05-1.12421E+04-2.88625E+04 3.91366E+04-3.94834E-10-1.36652E-10
 -1      1114-5.34302E+05 5.81109E+03-4.64932E+04 1.64054E+04-7.66704E-10 2.91038E-11
 -1      1115 6.51776E+04-1.33758E+03 1.02753E+04 1.56947E+04-2.72848E-11 4.31100E-10
 -1      1116 6.85714E+04 2.53995E+03 5.71091E+03 3.73362E+04-1.23919E-10 1.01977E-10
 -1      1117 6.66901E+04-8.37952E+01 1.19354E+03 1.56247E+04-5.10454E-10 1.14824E-10
 -1      1118 6.65573E+04-2.24761E+02-1.83470E+03 3.74061E+04-1.18845E-09-9.00755E-10
 -1      1119 6.71448E+04 2.63289E+02-5.46364E+03 1.56246E+04-4.00746E-10-9.45874E-11
 -1      1120 6.27294E+04-5.77568E+03-1.42817E+04 3.73427E+04-2.73758E-10-2.38288E-10
 -1      1121 7.05510E+04 2.99422E+03-2.38019E+04 1.56879E+04 1.18234E-11 2.51021E-10
 -1      1122 8.35004E+05-6.09136E+03 4.85013E+04 1.62245E+04-2.67391E-10 7.00311E-10
 -1      1123 8.50806E+05 1.17680E+04 2.96214E+04 3.84241E+04-6.89397E-10-9.93168E-10
 -1      1124 8.41830E+05-5.38596E+02 1.24316E+04 1.61947E+04-5.63659E-10-5.95719E-11
 -1      1125 8.43304E+05 9.06551E+02 6.65298E+03 3.84519E+04 6.05233E-10 1.08673E-09
 -1      1126 8.42475E+05-5.17209E+01 3.03921E+03 1.61961E+04 1.20849E-10 4.35307E-10
 -1      1127 8.42582E+05 4.30831E+01 1.42509E+03 3.84226E+04-4.51337E-11-1.98952E-10
 -1      1128 8.42594E+05 1.44789E+00 4.29720E+02 1.62241E+04 4.50200E-11-2.49088E-10
 -1      1129 1.93797E+06-1.30072E+04 1.05262E+05 4.75634E+04-4.90218E-10-6.18456E-10
 -1      1130 1.97198E+06 2.53762E+04 6.76970E+04 1.12179E+05 4.25644E-10-7.31234E-10
 -1      1131 1.95226E+06-1.28344E+03 3.55960E+04 4.75659E+04-2.70006E-10-5.16593E-10
 -1      1132 1.95809E+06 4.60775E+03 3.38032E+04 1.12280E+05 7.35554E-10 5.05679E-10
 -1      1133 1.95181E+06-1.72140E+03 4.29945E+04 4.74594E+04 1.27693E-09 1.35151E-09
 -1      1134 1.97877E+06 3.44927E+04 8.99457E+04 1.12534E+05-3.58796E-10 1.45519E-10
 -1      1135 1.93214E+06-1.79715E+04 1.43161E+05 4.73267E+04-2.07365E-10-1.37516E-09
 -1      1136-2.87579E+06 3.96944E+04-3.15364E+05 1.42397E+04-1.49339E-09-2.18279E-09
 -1      1137-2.97868E+06-7.65403E+04-1.96302E+05 3.19484E+04-6.98265E-10 4.05998E-09
 -1      1138-2.91976E+06 3.73347E+03-8.97254E+04 1.39058E+04-2.83308E-10 1.45519E-11
 -1      1139-2.93244E+06-8.49326E+03-6.34283E+04 3.24539E+04 9.11768E-10 1.70803E-09
 -1      1140-2.92195E+06 2.07733E+03-5.77940E+04 1.37600E+04-3.59250E-11-1.30603E-09
 -1      1141-2.95067E+06-3.64600E+04-1.00296E+05 3.25861E+04-2.61366E-10-3.65253E-09
 -1      1142-2.90163E+06 1.87829E+04-1.51955E+05 1.37707E+04-1.37106E-10-1.73895E-09
 -1      1143-2.57021E+06 1.47095E+04-1.18226E+05 1.24846E+04 1.45883E-09 4.32192E-09
 -1      1144-2.60845E+06-2.85453E+04-7.51132E+04 3.03991E+04 2.36332E-09-4.47380E-09
 -1      1145-2.58646E+06 1.46343E+03-3.76395E+04 1.20112E+04-1.94632E-09 3.82261E-09
 -1      1146-2.59233E+06-4.34971E+03-3.28073E+04 3.11298E+04-1.78147E-09 1.08332E-09
 -1      1147-2.58642E+06 1.54560E+03-3.86837E+04 1.17573E+04-5.08408E-10-4.42014E-10
 -1      1148-2.60953E+06-2.98001E+04-7.82771E+04 3.15190E+04-3.96949E-09-4.69299E-10
 -1      1149-2.56944E+06 1.54804E+04-1.23589E+05 1.16336E+04 1.74748E-09-4.00178E-10
 -1      1150-2.53587E+06 1.49889E+04-1.20832E+05 3.27164E+04-8.30551E-09 6.02449E-09
 -1      1151-2.57506E+06-2.88527E+04-7.71645E+04 8.37634E+04-5.68025E-09-2.93949E-09
 -1      1152-2.55254E+06 1.63514E+03-3.95597E+04 3.19484E+04 9.75888E-09-3.18141E-09
 -1      1153-2.55914E+06-4.39533E+03-3.59933E+04 8.47618E+04-4.73938E-09-2.81830E-09
 -1      1154-2.55229E+06 1.95010E+03-4.41875E+04 3.17089E+04-1.27168E-08 5.49971E-09
 -1      1155-2.57954E+06-3.45097E+04-9.11425E+04 8.48363E+04-2.52243E-08 6.06633E-09
 -1      1156-2.53233E+06 1.82515E+04-1.44568E+05 3.19005E+04-1.46783E-08 4.74392E-09
 -1      1157-1.82354E+06 9.64895E+03-7.73119E+04 2.82298E+04 1.11504E-09 1.83718E-09
 -1      1158-1.84873E+06-1.81778E+04-4.99207E+04 7.39526E+04 1.21745E-08-8.40737E-09
 -1      1159-1.83413E+06 1.17192E+03-2.67022E+04 2.77842E+04-8.70705E-09 4.54747E-10
 -1      1160-1.83890E+06-3.00416E+03-2.61635E+04 7.44603E+04-4.47517E-09-4.08056E-09
 -1      1161-1.83365E+06 1.58945E+03-3.41665E+04 2.77077E+04-3.72756E-09 1.06502E-09
 -1      1162-1.85545E+06-2.74701E+04-7.23786E+04 7.43140E+04 7.96490E-10-5.62432E-09
 -1      1163-1.81759E+06 1.46156E+04-1.15544E+05 2.79583E+04 6.43468E-09-1.00408E-09
 -1      1164-9.73311E+05 4.44698E+03-3.53548E+04 1.94273E+04-1.62781E-08 1.94086E-09
 -1      1165-9.84876E+05-8.16005E+03-2.31634E+04 5.02683E+04-1.42577E-08-2.54477E-09
 -1      1166-9.78100E+05 6.03007E+02-1.30564E+04 1.92408E+04-1.32020E-08 1.96042E-09
 -1      1167-9.80597E+05-1.51035E+03-1.38653E+04 5.04561E+04-6.07616E-09-2.99296E-09
 -1      1168-9.77685E+05 9.26727E+02-1.91985E+04 1.92315E+04-3.25531E-09-4.32010E-10
 -1      1169-9.90289E+05-1.58365E+04-4.16191E+04 5.03254E+04-9.99376E-09-3.53521E-09
 -1      1170-9.68363E+05 8.46377E+03-6.68006E+04 1.93891E+04 1.14487E-08-1.08412E-09
 -1      1171-3.63388E+05 1.20230E+03-9.34927E+03 1.16421E+04 2.13929E-08 4.93401E-10
 -1      1172-3.66480E+05-2.04665E+03-6.36033E+03 2.92172E+04 1.62573E-08-8.04721E-09
 -1      1173-3.64620E+05 2.09701E+02-4.04672E+03 1.15798E+04 7.77618E-10 4.97721E-10
 -1      1174-3.65506E+05-4.85756E+02-5.00411E+03 2.92729E+04-9.03441E-10-2.12393E-09
 -1      1175-3.64375E+05 3.91211E+02-7.59424E+03 1.15844E+04 3.18641E-09 6.22322E-10
 -1      1176-3.69574E+05-6.48735E+03-1.70127E+04 2.91925E+04-2.00280E-08-8.56664E-09
 -1      1177-3.60516E+05 3.50171E+03-2.75080E+04 1.16674E+04 6.81212E-10-1.98816E-09
 -3
 9999
