    1C
    1UUSER                                                              
    1UDATE              21.september.2022                               
    1UTIME              09:10:45                                        
    1UHOST                                                              
    1UPGM               CalculiX                                        
    1UVERSION           Version 2.19                             
    1UCOMPILETIME       Fri Dec 17 13:15:26 CET 2021                    
    1UDIR                                                               
    1UDBN                                                               
    1UMAT    1MESH_MATERIAL                                             
    2C                           641                                     1
 -1         1 0.00000E+00 0.00000E+00 0.00000E+00
 -1         2 8.33333E-03 0.00000E+00 0.00000E+00
 -1         3 1.66667E-02 0.00000E+00 0.00000E+00
 -1         4 2.50000E-02 0.00000E+00 0.00000E+00
 -1         5 3.33333E-02 0.00000E+00 0.00000E+00
 -1         6 4.16667E-02 0.00000E+00 0.00000E+00
 -1         7 5.00000E-02 0.00000E+00 0.00000E+00
 -1         8 5.83333E-02 0.00000E+00 0.00000E+00
 -1         9 6.66667E-02 0.00000E+00 0.00000E+00
 -1        14 0.00000E+00 6.25000E-03 0.00000E+00
 -1        15 8.33333E-03 6.25000E-03 0.00000E+00
 -1        16 1.66667E-02 6.25000E-03 0.00000E+00
 -1        17 2.50000E-02 6.25000E-03 0.00000E+00
 -1        18 3.33333E-02 6.25000E-03 0.00000E+00
 -1        19 4.16667E-02 6.25000E-03 0.00000E+00
 -1        20 5.00000E-02 6.25000E-03 0.00000E+00
 -1        21 5.83333E-02 6.25000E-03 0.00000E+00
 -1        22 6.66667E-02 6.25000E-03 0.00000E+00
 -1        27 0.00000E+00 1.25000E-02 0.00000E+00
 -1        28 8.33333E-03 1.25000E-02 0.00000E+00
 -1        29 1.66667E-02 1.25000E-02 0.00000E+00
 -1        30 2.50000E-02 1.25000E-02 0.00000E+00
 -1        31 3.33333E-02 1.25000E-02 0.00000E+00
 -1        32 4.16667E-02 1.25000E-02 0.00000E+00
 -1        33 5.00000E-02 1.25000E-02 0.00000E+00
 -1        34 5.83333E-02 1.25000E-02 0.00000E+00
 -1        35 6.66667E-02 1.25000E-02 0.00000E+00
 -1        36 7.50000E-02 1.25000E-02 0.00000E+00
 -1        37 8.33333E-02 1.25000E-02 0.00000E+00
 -1        38 9.16667E-02 1.25000E-02 0.00000E+00
 -1        39 1.00000E-01 1.25000E-02 0.00000E+00
 -1        40 0.00000E+00 1.87500E-02 0.00000E+00
 -1        41 8.33333E-03 1.87500E-02 0.00000E+00
 -1        42 1.66667E-02 1.87500E-02 0.00000E+00
 -1        43 2.50000E-02 1.87500E-02 0.00000E+00
 -1        44 3.33333E-02 1.87500E-02 0.00000E+00
 -1        45 4.16667E-02 1.87500E-02 0.00000E+00
 -1        46 5.00000E-02 1.87500E-02 0.00000E+00
 -1        47 5.83333E-02 1.87500E-02 0.00000E+00
 -1        48 6.66667E-02 1.87500E-02 0.00000E+00
 -1        49 7.50000E-02 1.87500E-02 0.00000E+00
 -1        50 8.33333E-02 1.87500E-02 0.00000E+00
 -1        51 9.16667E-02 1.87500E-02 0.00000E+00
 -1        52 1.00000E-01 1.87500E-02 0.00000E+00
 -1        53 0.00000E+00 2.50000E-02 0.00000E+00
 -1        54 8.33333E-03 2.50000E-02 0.00000E+00
 -1        55 1.66667E-02 2.50000E-02 0.00000E+00
 -1        56 2.50000E-02 2.50000E-02 0.00000E+00
 -1        57 3.33333E-02 2.50000E-02 0.00000E+00
 -1        58 4.16667E-02 2.50000E-02 0.00000E+00
 -1        59 5.00000E-02 2.50000E-02 0.00000E+00
 -1        60 5.83333E-02 2.50000E-02 0.00000E+00
 -1        61 6.66667E-02 2.50000E-02 0.00000E+00
 -1        62 7.50000E-02 2.50000E-02 0.00000E+00
 -1        63 8.33333E-02 2.50000E-02 0.00000E+00
 -1        64 9.16667E-02 2.50000E-02 0.00000E+00
 -1        65 1.00000E-01 2.50000E-02 0.00000E+00
 -1        66 1.04167E-03 0.00000E+00 0.00000E+00
 -1        67 2.08333E-03 0.00000E+00 0.00000E+00
 -1        68 3.12500E-03 0.00000E+00 0.00000E+00
 -1        69 4.16667E-03 0.00000E+00 0.00000E+00
 -1        70 5.20833E-03 0.00000E+00 0.00000E+00
 -1        71 6.25000E-03 0.00000E+00 0.00000E+00
 -1        72 7.29167E-03 0.00000E+00 0.00000E+00
 -1        73 0.00000E+00 1.04167E-03 0.00000E+00
 -1        74 0.00000E+00 2.08333E-03 0.00000E+00
 -1        75 0.00000E+00 3.12500E-03 0.00000E+00
 -1        76 0.00000E+00 4.16667E-03 0.00000E+00
 -1        77 0.00000E+00 5.20833E-03 0.00000E+00
 -1        78 9.37500E-03 0.00000E+00 0.00000E+00
 -1        79 1.04167E-02 0.00000E+00 0.00000E+00
 -1        80 1.14583E-02 0.00000E+00 0.00000E+00
 -1        81 1.25000E-02 0.00000E+00 0.00000E+00
 -1        82 1.35417E-02 0.00000E+00 0.00000E+00
 -1        83 1.45833E-02 0.00000E+00 0.00000E+00
 -1        84 1.56250E-02 0.00000E+00 0.00000E+00
 -1        85 8.33333E-03 1.04167E-03 0.00000E+00
 -1        86 8.33333E-03 2.08333E-03 0.00000E+00
 -1        87 8.33333E-03 3.12500E-03 0.00000E+00
 -1        88 8.33333E-03 4.16667E-03 0.00000E+00
 -1        89 8.33333E-03 5.20833E-03 0.00000E+00
 -1        90 1.77083E-02 0.00000E+00 0.00000E+00
 -1        91 1.87500E-02 0.00000E+00 0.00000E+00
 -1        92 1.97917E-02 0.00000E+00 0.00000E+00
 -1        93 2.08333E-02 0.00000E+00 0.00000E+00
 -1        94 2.18750E-02 0.00000E+00 0.00000E+00
 -1        95 2.29167E-02 0.00000E+00 0.00000E+00
 -1        96 2.39583E-02 0.00000E+00 0.00000E+00
 -1        97 1.66667E-02 1.04167E-03 0.00000E+00
 -1        98 1.66667E-02 2.08333E-03 0.00000E+00
 -1        99 1.66667E-02 3.12500E-03 0.00000E+00
 -1       100 1.66667E-02 4.16667E-03 0.00000E+00
 -1       101 1.66667E-02 5.20833E-03 0.00000E+00
 -1       102 2.60417E-02 0.00000E+00 0.00000E+00
 -1       103 2.70833E-02 0.00000E+00 0.00000E+00
 -1       104 2.81250E-02 0.00000E+00 0.00000E+00
 -1       105 2.91667E-02 0.00000E+00 0.00000E+00
 -1       106 3.02083E-02 0.00000E+00 0.00000E+00
 -1       107 3.12500E-02 0.00000E+00 0.00000E+00
 -1       108 3.22917E-02 0.00000E+00 0.00000E+00
 -1       109 2.50000E-02 1.04167E-03 0.00000E+00
 -1       110 2.50000E-02 2.08333E-03 0.00000E+00
 -1       111 2.50000E-02 3.12500E-03 0.00000E+00
 -1       112 2.50000E-02 4.16667E-03 0.00000E+00
 -1       113 2.50000E-02 5.20833E-03 0.00000E+00
 -1       114 3.43750E-02 0.00000E+00 0.00000E+00
 -1       115 3.54167E-02 0.00000E+00 0.00000E+00
 -1       116 3.64583E-02 0.00000E+00 0.00000E+00
 -1       117 3.75000E-02 0.00000E+00 0.00000E+00
 -1       118 3.85417E-02 0.00000E+00 0.00000E+00
 -1       119 3.95833E-02 0.00000E+00 0.00000E+00
 -1       120 4.06250E-02 0.00000E+00 0.00000E+00
 -1       121 3.33333E-02 1.04167E-03 0.00000E+00
 -1       122 3.33333E-02 2.08333E-03 0.00000E+00
 -1       123 3.33333E-02 3.12500E-03 0.00000E+00
 -1       124 3.33333E-02 4.16667E-03 0.00000E+00
 -1       125 3.33333E-02 5.20833E-03 0.00000E+00
 -1       126 4.27083E-02 0.00000E+00 0.00000E+00
 -1       127 4.37500E-02 0.00000E+00 0.00000E+00
 -1       128 4.47917E-02 0.00000E+00 0.00000E+00
 -1       129 4.58333E-02 0.00000E+00 0.00000E+00
 -1       130 4.68750E-02 0.00000E+00 0.00000E+00
 -1       131 4.79167E-02 0.00000E+00 0.00000E+00
 -1       132 4.89583E-02 0.00000E+00 0.00000E+00
 -1       133 4.16667E-02 1.04167E-03 0.00000E+00
 -1       134 4.16667E-02 2.08333E-03 0.00000E+00
 -1       135 4.16667E-02 3.12500E-03 0.00000E+00
 -1       136 4.16667E-02 4.16667E-03 0.00000E+00
 -1       137 4.16667E-02 5.20833E-03 0.00000E+00
 -1       138 5.10417E-02 0.00000E+00 0.00000E+00
 -1       139 5.20833E-02 0.00000E+00 0.00000E+00
 -1       140 5.31250E-02 0.00000E+00 0.00000E+00
 -1       141 5.41667E-02 0.00000E+00 0.00000E+00
 -1       142 5.52083E-02 0.00000E+00 0.00000E+00
 -1       143 5.62500E-02 0.00000E+00 0.00000E+00
 -1       144 5.72917E-02 0.00000E+00 0.00000E+00
 -1       145 5.00000E-02 1.04167E-03 0.00000E+00
 -1       146 5.00000E-02 2.08333E-03 0.00000E+00
 -1       147 5.00000E-02 3.12500E-03 0.00000E+00
 -1       148 5.00000E-02 4.16667E-03 0.00000E+00
 -1       149 5.00000E-02 5.20833E-03 0.00000E+00
 -1       150 5.93750E-02 0.00000E+00 0.00000E+00
 -1       151 6.04167E-02 0.00000E+00 0.00000E+00
 -1       152 6.14583E-02 0.00000E+00 0.00000E+00
 -1       153 6.25000E-02 0.00000E+00 0.00000E+00
 -1       154 6.35417E-02 0.00000E+00 0.00000E+00
 -1       155 6.45833E-02 0.00000E+00 0.00000E+00
 -1       156 6.56250E-02 0.00000E+00 0.00000E+00
 -1       157 5.83333E-02 1.04167E-03 0.00000E+00
 -1       158 5.83333E-02 2.08333E-03 0.00000E+00
 -1       159 5.83333E-02 3.12500E-03 0.00000E+00
 -1       160 5.83333E-02 4.16667E-03 0.00000E+00
 -1       161 5.83333E-02 5.20833E-03 0.00000E+00
 -1       169 6.66667E-02 1.04167E-03 0.00000E+00
 -1       170 6.66667E-02 2.08333E-03 0.00000E+00
 -1       171 6.66667E-02 3.12500E-03 0.00000E+00
 -1       172 6.66667E-02 4.16667E-03 0.00000E+00
 -1       173 6.66667E-02 5.20833E-03 0.00000E+00
 -1       215 1.04167E-03 6.25000E-03 0.00000E+00
 -1       216 2.08333E-03 6.25000E-03 0.00000E+00
 -1       217 3.12500E-03 6.25000E-03 0.00000E+00
 -1       218 4.16667E-03 6.25000E-03 0.00000E+00
 -1       219 5.20833E-03 6.25000E-03 0.00000E+00
 -1       220 6.25000E-03 6.25000E-03 0.00000E+00
 -1       221 7.29167E-03 6.25000E-03 0.00000E+00
 -1       222 0.00000E+00 7.29167E-03 0.00000E+00
 -1       223 0.00000E+00 8.33333E-03 0.00000E+00
 -1       224 0.00000E+00 9.37500E-03 0.00000E+00
 -1       225 0.00000E+00 1.04167E-02 0.00000E+00
 -1       226 0.00000E+00 1.14583E-02 0.00000E+00
 -1       227 9.37500E-03 6.25000E-03 0.00000E+00
 -1       228 1.04167E-02 6.25000E-03 0.00000E+00
 -1       229 1.14583E-02 6.25000E-03 0.00000E+00
 -1       230 1.25000E-02 6.25000E-03 0.00000E+00
 -1       231 1.35417E-02 6.25000E-03 0.00000E+00
 -1       232 1.45833E-02 6.25000E-03 0.00000E+00
 -1       233 1.56250E-02 6.25000E-03 0.00000E+00
 -1       234 8.33333E-03 7.29167E-03 0.00000E+00
 -1       235 8.33333E-03 8.33333E-03 0.00000E+00
 -1       236 8.33333E-03 9.37500E-03 0.00000E+00
 -1       237 8.33333E-03 1.04167E-02 0.00000E+00
 -1       238 8.33333E-03 1.14583E-02 0.00000E+00
 -1       239 1.77083E-02 6.25000E-03 0.00000E+00
 -1       240 1.87500E-02 6.25000E-03 0.00000E+00
 -1       241 1.97917E-02 6.25000E-03 0.00000E+00
 -1       242 2.08333E-02 6.25000E-03 0.00000E+00
 -1       243 2.18750E-02 6.25000E-03 0.00000E+00
 -1       244 2.29167E-02 6.25000E-03 0.00000E+00
 -1       245 2.39583E-02 6.25000E-03 0.00000E+00
 -1       246 1.66667E-02 7.29167E-03 0.00000E+00
 -1       247 1.66667E-02 8.33333E-03 0.00000E+00
 -1       248 1.66667E-02 9.37500E-03 0.00000E+00
 -1       249 1.66667E-02 1.04167E-02 0.00000E+00
 -1       250 1.66667E-02 1.14583E-02 0.00000E+00
 -1       251 2.60417E-02 6.25000E-03 0.00000E+00
 -1       252 2.70833E-02 6.25000E-03 0.00000E+00
 -1       253 2.81250E-02 6.25000E-03 0.00000E+00
 -1       254 2.91667E-02 6.25000E-03 0.00000E+00
 -1       255 3.02083E-02 6.25000E-03 0.00000E+00
 -1       256 3.12500E-02 6.25000E-03 0.00000E+00
 -1       257 3.22917E-02 6.25000E-03 0.00000E+00
 -1       258 2.50000E-02 7.29167E-03 0.00000E+00
 -1       259 2.50000E-02 8.33333E-03 0.00000E+00
 -1       260 2.50000E-02 9.37500E-03 0.00000E+00
 -1       261 2.50000E-02 1.04167E-02 0.00000E+00
 -1       262 2.50000E-02 1.14583E-02 0.00000E+00
 -1       263 3.43750E-02 6.25000E-03 0.00000E+00
 -1       264 3.54167E-02 6.25000E-03 0.00000E+00
 -1       265 3.64583E-02 6.25000E-03 0.00000E+00
 -1       266 3.75000E-02 6.25000E-03 0.00000E+00
 -1       267 3.85417E-02 6.25000E-03 0.00000E+00
 -1       268 3.95833E-02 6.25000E-03 0.00000E+00
 -1       269 4.06250E-02 6.25000E-03 0.00000E+00
 -1       270 3.33333E-02 7.29167E-03 0.00000E+00
 -1       271 3.33333E-02 8.33333E-03 0.00000E+00
 -1       272 3.33333E-02 9.37500E-03 0.00000E+00
 -1       273 3.33333E-02 1.04167E-02 0.00000E+00
 -1       274 3.33333E-02 1.14583E-02 0.00000E+00
 -1       275 4.27083E-02 6.25000E-03 0.00000E+00
 -1       276 4.37500E-02 6.25000E-03 0.00000E+00
 -1       277 4.47917E-02 6.25000E-03 0.00000E+00
 -1       278 4.58333E-02 6.25000E-03 0.00000E+00
 -1       279 4.68750E-02 6.25000E-03 0.00000E+00
 -1       280 4.79167E-02 6.25000E-03 0.00000E+00
 -1       281 4.89583E-02 6.25000E-03 0.00000E+00
 -1       282 4.16667E-02 7.29167E-03 0.00000E+00
 -1       283 4.16667E-02 8.33333E-03 0.00000E+00
 -1       284 4.16667E-02 9.37500E-03 0.00000E+00
 -1       285 4.16667E-02 1.04167E-02 0.00000E+00
 -1       286 4.16667E-02 1.14583E-02 0.00000E+00
 -1       287 5.10417E-02 6.25000E-03 0.00000E+00
 -1       288 5.20833E-02 6.25000E-03 0.00000E+00
 -1       289 5.31250E-02 6.25000E-03 0.00000E+00
 -1       290 5.41667E-02 6.25000E-03 0.00000E+00
 -1       291 5.52083E-02 6.25000E-03 0.00000E+00
 -1       292 5.62500E-02 6.25000E-03 0.00000E+00
 -1       293 5.72917E-02 6.25000E-03 0.00000E+00
 -1       294 5.00000E-02 7.29167E-03 0.00000E+00
 -1       295 5.00000E-02 8.33333E-03 0.00000E+00
 -1       296 5.00000E-02 9.37500E-03 0.00000E+00
 -1       297 5.00000E-02 1.04167E-02 0.00000E+00
 -1       298 5.00000E-02 1.14583E-02 0.00000E+00
 -1       299 5.93750E-02 6.25000E-03 0.00000E+00
 -1       300 6.04167E-02 6.25000E-03 0.00000E+00
 -1       301 6.14583E-02 6.25000E-03 0.00000E+00
 -1       302 6.25000E-02 6.25000E-03 0.00000E+00
 -1       303 6.35417E-02 6.25000E-03 0.00000E+00
 -1       304 6.45833E-02 6.25000E-03 0.00000E+00
 -1       305 6.56250E-02 6.25000E-03 0.00000E+00
 -1       306 5.83333E-02 7.29167E-03 0.00000E+00
 -1       307 5.83333E-02 8.33333E-03 0.00000E+00
 -1       308 5.83333E-02 9.37500E-03 0.00000E+00
 -1       309 5.83333E-02 1.04167E-02 0.00000E+00
 -1       310 5.83333E-02 1.14583E-02 0.00000E+00
 -1       318 6.66667E-02 7.29167E-03 0.00000E+00
 -1       319 6.66667E-02 8.33333E-03 0.00000E+00
 -1       320 6.66667E-02 9.37500E-03 0.00000E+00
 -1       321 6.66667E-02 1.04167E-02 0.00000E+00
 -1       322 6.66667E-02 1.14583E-02 0.00000E+00
 -1       364 1.04167E-03 1.25000E-02 0.00000E+00
 -1       365 2.08333E-03 1.25000E-02 0.00000E+00
 -1       366 3.12500E-03 1.25000E-02 0.00000E+00
 -1       367 4.16667E-03 1.25000E-02 0.00000E+00
 -1       368 5.20833E-03 1.25000E-02 0.00000E+00
 -1       369 6.25000E-03 1.25000E-02 0.00000E+00
 -1       370 7.29167E-03 1.25000E-02 0.00000E+00
 -1       371 0.00000E+00 1.35417E-02 0.00000E+00
 -1       372 0.00000E+00 1.45833E-02 0.00000E+00
 -1       373 0.00000E+00 1.56250E-02 0.00000E+00
 -1       374 0.00000E+00 1.66667E-02 0.00000E+00
 -1       375 0.00000E+00 1.77083E-02 0.00000E+00
 -1       376 9.37500E-03 1.25000E-02 0.00000E+00
 -1       377 1.04167E-02 1.25000E-02 0.00000E+00
 -1       378 1.14583E-02 1.25000E-02 0.00000E+00
 -1       379 1.25000E-02 1.25000E-02 0.00000E+00
 -1       380 1.35417E-02 1.25000E-02 0.00000E+00
 -1       381 1.45833E-02 1.25000E-02 0.00000E+00
 -1       382 1.56250E-02 1.25000E-02 0.00000E+00
 -1       383 8.33333E-03 1.35417E-02 0.00000E+00
 -1       384 8.33333E-03 1.45833E-02 0.00000E+00
 -1       385 8.33333E-03 1.56250E-02 0.00000E+00
 -1       386 8.33333E-03 1.66667E-02 0.00000E+00
 -1       387 8.33333E-03 1.77083E-02 0.00000E+00
 -1       388 1.77083E-02 1.25000E-02 0.00000E+00
 -1       389 1.87500E-02 1.25000E-02 0.00000E+00
 -1       390 1.97917E-02 1.25000E-02 0.00000E+00
 -1       391 2.08333E-02 1.25000E-02 0.00000E+00
 -1       392 2.18750E-02 1.25000E-02 0.00000E+00
 -1       393 2.29167E-02 1.25000E-02 0.00000E+00
 -1       394 2.39583E-02 1.25000E-02 0.00000E+00
 -1       395 1.66667E-02 1.35417E-02 0.00000E+00
 -1       396 1.66667E-02 1.45833E-02 0.00000E+00
 -1       397 1.66667E-02 1.56250E-02 0.00000E+00
 -1       398 1.66667E-02 1.66667E-02 0.00000E+00
 -1       399 1.66667E-02 1.77083E-02 0.00000E+00
 -1       400 2.60417E-02 1.25000E-02 0.00000E+00
 -1       401 2.70833E-02 1.25000E-02 0.00000E+00
 -1       402 2.81250E-02 1.25000E-02 0.00000E+00
 -1       403 2.91667E-02 1.25000E-02 0.00000E+00
 -1       404 3.02083E-02 1.25000E-02 0.00000E+00
 -1       405 3.12500E-02 1.25000E-02 0.00000E+00
 -1       406 3.22917E-02 1.25000E-02 0.00000E+00
 -1       407 2.50000E-02 1.35417E-02 0.00000E+00
 -1       408 2.50000E-02 1.45833E-02 0.00000E+00
 -1       409 2.50000E-02 1.56250E-02 0.00000E+00
 -1       410 2.50000E-02 1.66667E-02 0.00000E+00
 -1       411 2.50000E-02 1.77083E-02 0.00000E+00
 -1       412 3.43750E-02 1.25000E-02 0.00000E+00
 -1       413 3.54167E-02 1.25000E-02 0.00000E+00
 -1       414 3.64583E-02 1.25000E-02 0.00000E+00
 -1       415 3.75000E-02 1.25000E-02 0.00000E+00
 -1       416 3.85417E-02 1.25000E-02 0.00000E+00
 -1       417 3.95833E-02 1.25000E-02 0.00000E+00
 -1       418 4.06250E-02 1.25000E-02 0.00000E+00
 -1       419 3.33333E-02 1.35417E-02 0.00000E+00
 -1       420 3.33333E-02 1.45833E-02 0.00000E+00
 -1       421 3.33333E-02 1.56250E-02 0.00000E+00
 -1       422 3.33333E-02 1.66667E-02 0.00000E+00
 -1       423 3.33333E-02 1.77083E-02 0.00000E+00
 -1       424 4.27083E-02 1.25000E-02 0.00000E+00
 -1       425 4.37500E-02 1.25000E-02 0.00000E+00
 -1       426 4.47917E-02 1.25000E-02 0.00000E+00
 -1       427 4.58333E-02 1.25000E-02 0.00000E+00
 -1       428 4.68750E-02 1.25000E-02 0.00000E+00
 -1       429 4.79167E-02 1.25000E-02 0.00000E+00
 -1       430 4.89583E-02 1.25000E-02 0.00000E+00
 -1       431 4.16667E-02 1.35417E-02 0.00000E+00
 -1       432 4.16667E-02 1.45833E-02 0.00000E+00
 -1       433 4.16667E-02 1.56250E-02 0.00000E+00
 -1       434 4.16667E-02 1.66667E-02 0.00000E+00
 -1       435 4.16667E-02 1.77083E-02 0.00000E+00
 -1       436 5.10417E-02 1.25000E-02 0.00000E+00
 -1       437 5.20833E-02 1.25000E-02 0.00000E+00
 -1       438 5.31250E-02 1.25000E-02 0.00000E+00
 -1       439 5.41667E-02 1.25000E-02 0.00000E+00
 -1       440 5.52083E-02 1.25000E-02 0.00000E+00
 -1       441 5.62500E-02 1.25000E-02 0.00000E+00
 -1       442 5.72917E-02 1.25000E-02 0.00000E+00
 -1       443 5.00000E-02 1.35417E-02 0.00000E+00
 -1       444 5.00000E-02 1.45833E-02 0.00000E+00
 -1       445 5.00000E-02 1.56250E-02 0.00000E+00
 -1       446 5.00000E-02 1.66667E-02 0.00000E+00
 -1       447 5.00000E-02 1.77083E-02 0.00000E+00
 -1       448 5.93750E-02 1.25000E-02 0.00000E+00
 -1       449 6.04167E-02 1.25000E-02 0.00000E+00
 -1       450 6.14583E-02 1.25000E-02 0.00000E+00
 -1       451 6.25000E-02 1.25000E-02 0.00000E+00
 -1       452 6.35417E-02 1.25000E-02 0.00000E+00
 -1       453 6.45833E-02 1.25000E-02 0.00000E+00
 -1       454 6.56250E-02 1.25000E-02 0.00000E+00
 -1       455 5.83333E-02 1.35417E-02 0.00000E+00
 -1       456 5.83333E-02 1.45833E-02 0.00000E+00
 -1       457 5.83333E-02 1.56250E-02 0.00000E+00
 -1       458 5.83333E-02 1.66667E-02 0.00000E+00
 -1       459 5.83333E-02 1.77083E-02 0.00000E+00
 -1       460 6.77083E-02 1.25000E-02 0.00000E+00
 -1       461 6.87500E-02 1.25000E-02 0.00000E+00
 -1       462 6.97917E-02 1.25000E-02 0.00000E+00
 -1       463 7.08333E-02 1.25000E-02 0.00000E+00
 -1       464 7.18750E-02 1.25000E-02 0.00000E+00
 -1       465 7.29167E-02 1.25000E-02 0.00000E+00
 -1       466 7.39583E-02 1.25000E-02 0.00000E+00
 -1       467 6.66667E-02 1.35417E-02 0.00000E+00
 -1       468 6.66667E-02 1.45833E-02 0.00000E+00
 -1       469 6.66667E-02 1.56250E-02 0.00000E+00
 -1       470 6.66667E-02 1.66667E-02 0.00000E+00
 -1       471 6.66667E-02 1.77083E-02 0.00000E+00
 -1       472 7.60417E-02 1.25000E-02 0.00000E+00
 -1       473 7.70833E-02 1.25000E-02 0.00000E+00
 -1       474 7.81250E-02 1.25000E-02 0.00000E+00
 -1       475 7.91667E-02 1.25000E-02 0.00000E+00
 -1       476 8.02083E-02 1.25000E-02 0.00000E+00
 -1       477 8.12500E-02 1.25000E-02 0.00000E+00
 -1       478 8.22917E-02 1.25000E-02 0.00000E+00
 -1       479 7.50000E-02 1.35417E-02 0.00000E+00
 -1       480 7.50000E-02 1.45833E-02 0.00000E+00
 -1       481 7.50000E-02 1.56250E-02 0.00000E+00
 -1       482 7.50000E-02 1.66667E-02 0.00000E+00
 -1       483 7.50000E-02 1.77083E-02 0.00000E+00
 -1       484 8.43750E-02 1.25000E-02 0.00000E+00
 -1       485 8.54167E-02 1.25000E-02 0.00000E+00
 -1       486 8.64583E-02 1.25000E-02 0.00000E+00
 -1       487 8.75000E-02 1.25000E-02 0.00000E+00
 -1       488 8.85417E-02 1.25000E-02 0.00000E+00
 -1       489 8.95833E-02 1.25000E-02 0.00000E+00
 -1       490 9.06250E-02 1.25000E-02 0.00000E+00
 -1       491 8.33333E-02 1.35417E-02 0.00000E+00
 -1       492 8.33333E-02 1.45833E-02 0.00000E+00
 -1       493 8.33333E-02 1.56250E-02 0.00000E+00
 -1       494 8.33333E-02 1.66667E-02 0.00000E+00
 -1       495 8.33333E-02 1.77083E-02 0.00000E+00
 -1       496 9.27083E-02 1.25000E-02 0.00000E+00
 -1       497 9.37500E-02 1.25000E-02 0.00000E+00
 -1       498 9.47917E-02 1.25000E-02 0.00000E+00
 -1       499 9.58333E-02 1.25000E-02 0.00000E+00
 -1       500 9.68750E-02 1.25000E-02 0.00000E+00
 -1       501 9.79167E-02 1.25000E-02 0.00000E+00
 -1       502 9.89583E-02 1.25000E-02 0.00000E+00
 -1       503 9.16667E-02 1.35417E-02 0.00000E+00
 -1       504 9.16667E-02 1.45833E-02 0.00000E+00
 -1       505 9.16667E-02 1.56250E-02 0.00000E+00
 -1       506 9.16667E-02 1.66667E-02 0.00000E+00
 -1       507 9.16667E-02 1.77083E-02 0.00000E+00
 -1       508 1.00000E-01 1.35417E-02 0.00000E+00
 -1       509 1.00000E-01 1.45833E-02 0.00000E+00
 -1       510 1.00000E-01 1.56250E-02 0.00000E+00
 -1       511 1.00000E-01 1.66667E-02 0.00000E+00
 -1       512 1.00000E-01 1.77083E-02 0.00000E+00
 -1       513 1.04167E-03 1.87500E-02 0.00000E+00
 -1       514 2.08333E-03 1.87500E-02 0.00000E+00
 -1       515 3.12500E-03 1.87500E-02 0.00000E+00
 -1       516 4.16667E-03 1.87500E-02 0.00000E+00
 -1       517 5.20833E-03 1.87500E-02 0.00000E+00
 -1       518 6.25000E-03 1.87500E-02 0.00000E+00
 -1       519 7.29167E-03 1.87500E-02 0.00000E+00
 -1       520 0.00000E+00 1.97917E-02 0.00000E+00
 -1       521 0.00000E+00 2.08333E-02 0.00000E+00
 -1       522 0.00000E+00 2.18750E-02 0.00000E+00
 -1       523 0.00000E+00 2.29167E-02 0.00000E+00
 -1       524 0.00000E+00 2.39583E-02 0.00000E+00
 -1       525 9.37500E-03 1.87500E-02 0.00000E+00
 -1       526 1.04167E-02 1.87500E-02 0.00000E+00
 -1       527 1.14583E-02 1.87500E-02 0.00000E+00
 -1       528 1.25000E-02 1.87500E-02 0.00000E+00
 -1       529 1.35417E-02 1.87500E-02 0.00000E+00
 -1       530 1.45833E-02 1.87500E-02 0.00000E+00
 -1       531 1.56250E-02 1.87500E-02 0.00000E+00
 -1       532 8.33333E-03 1.97917E-02 0.00000E+00
 -1       533 8.33333E-03 2.08333E-02 0.00000E+00
 -1       534 8.33333E-03 2.18750E-02 0.00000E+00
 -1       535 8.33333E-03 2.29167E-02 0.00000E+00
 -1       536 8.33333E-03 2.39583E-02 0.00000E+00
 -1       537 1.77083E-02 1.87500E-02 0.00000E+00
 -1       538 1.87500E-02 1.87500E-02 0.00000E+00
 -1       539 1.97917E-02 1.87500E-02 0.00000E+00
 -1       540 2.08333E-02 1.87500E-02 0.00000E+00
 -1       541 2.18750E-02 1.87500E-02 0.00000E+00
 -1       542 2.29167E-02 1.87500E-02 0.00000E+00
 -1       543 2.39583E-02 1.87500E-02 0.00000E+00
 -1       544 1.66667E-02 1.97917E-02 0.00000E+00
 -1       545 1.66667E-02 2.08333E-02 0.00000E+00
 -1       546 1.66667E-02 2.18750E-02 0.00000E+00
 -1       547 1.66667E-02 2.29167E-02 0.00000E+00
 -1       548 1.66667E-02 2.39583E-02 0.00000E+00
 -1       549 2.60417E-02 1.87500E-02 0.00000E+00
 -1       550 2.70833E-02 1.87500E-02 0.00000E+00
 -1       551 2.81250E-02 1.87500E-02 0.00000E+00
 -1       552 2.91667E-02 1.87500E-02 0.00000E+00
 -1       553 3.02083E-02 1.87500E-02 0.00000E+00
 -1       554 3.12500E-02 1.87500E-02 0.00000E+00
 -1       555 3.22917E-02 1.87500E-02 0.00000E+00
 -1       556 2.50000E-02 1.97917E-02 0.00000E+00
 -1       557 2.50000E-02 2.08333E-02 0.00000E+00
 -1       558 2.50000E-02 2.18750E-02 0.00000E+00
 -1       559 2.50000E-02 2.29167E-02 0.00000E+00
 -1       560 2.50000E-02 2.39583E-02 0.00000E+00
 -1       561 3.43750E-02 1.87500E-02 0.00000E+00
 -1       562 3.54167E-02 1.87500E-02 0.00000E+00
 -1       563 3.64583E-02 1.87500E-02 0.00000E+00
 -1       564 3.75000E-02 1.87500E-02 0.00000E+00
 -1       565 3.85417E-02 1.87500E-02 0.00000E+00
 -1       566 3.95833E-02 1.87500E-02 0.00000E+00
 -1       567 4.06250E-02 1.87500E-02 0.00000E+00
 -1       568 3.33333E-02 1.97917E-02 0.00000E+00
 -1       569 3.33333E-02 2.08333E-02 0.00000E+00
 -1       570 3.33333E-02 2.18750E-02 0.00000E+00
 -1       571 3.33333E-02 2.29167E-02 0.00000E+00
 -1       572 3.33333E-02 2.39583E-02 0.00000E+00
 -1       573 4.27083E-02 1.87500E-02 0.00000E+00
 -1       574 4.37500E-02 1.87500E-02 0.00000E+00
 -1       575 4.47917E-02 1.87500E-02 0.00000E+00
 -1       576 4.58333E-02 1.87500E-02 0.00000E+00
 -1       577 4.68750E-02 1.87500E-02 0.00000E+00
 -1       578 4.79167E-02 1.87500E-02 0.00000E+00
 -1       579 4.89583E-02 1.87500E-02 0.00000E+00
 -1       580 4.16667E-02 1.97917E-02 0.00000E+00
 -1       581 4.16667E-02 2.08333E-02 0.00000E+00
 -1       582 4.16667E-02 2.18750E-02 0.00000E+00
 -1       583 4.16667E-02 2.29167E-02 0.00000E+00
 -1       584 4.16667E-02 2.39583E-02 0.00000E+00
 -1       585 5.10417E-02 1.87500E-02 0.00000E+00
 -1       586 5.20833E-02 1.87500E-02 0.00000E+00
 -1       587 5.31250E-02 1.87500E-02 0.00000E+00
 -1       588 5.41667E-02 1.87500E-02 0.00000E+00
 -1       589 5.52083E-02 1.87500E-02 0.00000E+00
 -1       590 5.62500E-02 1.87500E-02 0.00000E+00
 -1       591 5.72917E-02 1.87500E-02 0.00000E+00
 -1       592 5.00000E-02 1.97917E-02 0.00000E+00
 -1       593 5.00000E-02 2.08333E-02 0.00000E+00
 -1       594 5.00000E-02 2.18750E-02 0.00000E+00
 -1       595 5.00000E-02 2.29167E-02 0.00000E+00
 -1       596 5.00000E-02 2.39583E-02 0.00000E+00
 -1       597 5.93750E-02 1.87500E-02 0.00000E+00
 -1       598 6.04167E-02 1.87500E-02 0.00000E+00
 -1       599 6.14583E-02 1.87500E-02 0.00000E+00
 -1       600 6.25000E-02 1.87500E-02 0.00000E+00
 -1       601 6.35417E-02 1.87500E-02 0.00000E+00
 -1       602 6.45833E-02 1.87500E-02 0.00000E+00
 -1       603 6.56250E-02 1.87500E-02 0.00000E+00
 -1       604 5.83333E-02 1.97917E-02 0.00000E+00
 -1       605 5.83333E-02 2.08333E-02 0.00000E+00
 -1       606 5.83333E-02 2.18750E-02 0.00000E+00
 -1       607 5.83333E-02 2.29167E-02 0.00000E+00
 -1       608 5.83333E-02 2.39583E-02 0.00000E+00
 -1       609 6.77083E-02 1.87500E-02 0.00000E+00
 -1       610 6.87500E-02 1.87500E-02 0.00000E+00
 -1       611 6.97917E-02 1.87500E-02 0.00000E+00
 -1       612 7.08333E-02 1.87500E-02 0.00000E+00
 -1       613 7.18750E-02 1.87500E-02 0.00000E+00
 -1       614 7.29167E-02 1.87500E-02 0.00000E+00
 -1       615 7.39583E-02 1.87500E-02 0.00000E+00
 -1       616 6.66667E-02 1.97917E-02 0.00000E+00
 -1       617 6.66667E-02 2.08333E-02 0.00000E+00
 -1       618 6.66667E-02 2.18750E-02 0.00000E+00
 -1       619 6.66667E-02 2.29167E-02 0.00000E+00
 -1       620 6.66667E-02 2.39583E-02 0.00000E+00
 -1       621 7.60417E-02 1.87500E-02 0.00000E+00
 -1       622 7.70833E-02 1.87500E-02 0.00000E+00
 -1       623 7.81250E-02 1.87500E-02 0.00000E+00
 -1       624 7.91667E-02 1.87500E-02 0.00000E+00
 -1       625 8.02083E-02 1.87500E-02 0.00000E+00
 -1       626 8.12500E-02 1.87500E-02 0.00000E+00
 -1       627 8.22917E-02 1.87500E-02 0.00000E+00
 -1       628 7.50000E-02 1.97917E-02 0.00000E+00
 -1       629 7.50000E-02 2.08333E-02 0.00000E+00
 -1       630 7.50000E-02 2.18750E-02 0.00000E+00
 -1       631 7.50000E-02 2.29167E-02 0.00000E+00
 -1       632 7.50000E-02 2.39583E-02 0.00000E+00
 -1       633 8.43750E-02 1.87500E-02 0.00000E+00
 -1       634 8.54167E-02 1.87500E-02 0.00000E+00
 -1       635 8.64583E-02 1.87500E-02 0.00000E+00
 -1       636 8.75000E-02 1.87500E-02 0.00000E+00
 -1       637 8.85417E-02 1.87500E-02 0.00000E+00
 -1       638 8.95833E-02 1.87500E-02 0.00000E+00
 -1       639 9.06250E-02 1.87500E-02 0.00000E+00
 -1       640 8.33333E-02 1.97917E-02 0.00000E+00
 -1       641 8.33333E-02 2.08333E-02 0.00000E+00
 -1       642 8.33333E-02 2.18750E-02 0.00000E+00
 -1       643 8.33333E-02 2.29167E-02 0.00000E+00
 -1       644 8.33333E-02 2.39583E-02 0.00000E+00
 -1       645 9.27083E-02 1.87500E-02 0.00000E+00
 -1       646 9.37500E-02 1.87500E-02 0.00000E+00
 -1       647 9.47917E-02 1.87500E-02 0.00000E+00
 -1       648 9.58333E-02 1.87500E-02 0.00000E+00
 -1       649 9.68750E-02 1.87500E-02 0.00000E+00
 -1       650 9.79167E-02 1.87500E-02 0.00000E+00
 -1       651 9.89583E-02 1.87500E-02 0.00000E+00
 -1       652 9.16667E-02 1.97917E-02 0.00000E+00
 -1       653 9.16667E-02 2.08333E-02 0.00000E+00
 -1       654 9.16667E-02 2.18750E-02 0.00000E+00
 -1       655 9.16667E-02 2.29167E-02 0.00000E+00
 -1       656 9.16667E-02 2.39583E-02 0.00000E+00
 -1       657 1.00000E-01 1.97917E-02 0.00000E+00
 -1       658 1.00000E-01 2.08333E-02 0.00000E+00
 -1       659 1.00000E-01 2.18750E-02 0.00000E+00
 -1       660 1.00000E-01 2.29167E-02 0.00000E+00
 -1       661 1.00000E-01 2.39583E-02 0.00000E+00
 -1       662 1.04167E-03 2.50000E-02 0.00000E+00
 -1       663 2.08333E-03 2.50000E-02 0.00000E+00
 -1       664 3.12500E-03 2.50000E-02 0.00000E+00
 -1       665 4.16667E-03 2.50000E-02 0.00000E+00
 -1       666 5.20833E-03 2.50000E-02 0.00000E+00
 -1       667 6.25000E-03 2.50000E-02 0.00000E+00
 -1       668 7.29167E-03 2.50000E-02 0.00000E+00
 -1       669 9.37500E-03 2.50000E-02 0.00000E+00
 -1       670 1.04167E-02 2.50000E-02 0.00000E+00
 -1       671 1.14583E-02 2.50000E-02 0.00000E+00
 -1       672 1.25000E-02 2.50000E-02 0.00000E+00
 -1       673 1.35417E-02 2.50000E-02 0.00000E+00
 -1       674 1.45833E-02 2.50000E-02 0.00000E+00
 -1       675 1.56250E-02 2.50000E-02 0.00000E+00
 -1       676 1.77083E-02 2.50000E-02 0.00000E+00
 -1       677 1.87500E-02 2.50000E-02 0.00000E+00
 -1       678 1.97917E-02 2.50000E-02 0.00000E+00
 -1       679 2.08333E-02 2.50000E-02 0.00000E+00
 -1       680 2.18750E-02 2.50000E-02 0.00000E+00
 -1       681 2.29167E-02 2.50000E-02 0.00000E+00
 -1       682 2.39583E-02 2.50000E-02 0.00000E+00
 -1       683 2.60417E-02 2.50000E-02 0.00000E+00
 -1       684 2.70833E-02 2.50000E-02 0.00000E+00
 -1       685 2.81250E-02 2.50000E-02 0.00000E+00
 -1       686 2.91667E-02 2.50000E-02 0.00000E+00
 -1       687 3.02083E-02 2.50000E-02 0.00000E+00
 -1       688 3.12500E-02 2.50000E-02 0.00000E+00
 -1       689 3.22917E-02 2.50000E-02 0.00000E+00
 -1       690 3.43750E-02 2.50000E-02 0.00000E+00
 -1       691 3.54167E-02 2.50000E-02 0.00000E+00
 -1       692 3.64583E-02 2.50000E-02 0.00000E+00
 -1       693 3.75000E-02 2.50000E-02 0.00000E+00
 -1       694 3.85417E-02 2.50000E-02 0.00000E+00
 -1       695 3.95833E-02 2.50000E-02 0.00000E+00
 -1       696 4.06250E-02 2.50000E-02 0.00000E+00
 -1       697 4.27083E-02 2.50000E-02 0.00000E+00
 -1       698 4.37500E-02 2.50000E-02 0.00000E+00
 -1       699 4.47917E-02 2.50000E-02 0.00000E+00
 -1       700 4.58333E-02 2.50000E-02 0.00000E+00
 -1       701 4.68750E-02 2.50000E-02 0.00000E+00
 -1       702 4.79167E-02 2.50000E-02 0.00000E+00
 -1       703 4.89583E-02 2.50000E-02 0.00000E+00
 -1       704 5.10417E-02 2.50000E-02 0.00000E+00
 -1       705 5.20833E-02 2.50000E-02 0.00000E+00
 -1       706 5.31250E-02 2.50000E-02 0.00000E+00
 -1       707 5.41667E-02 2.50000E-02 0.00000E+00
 -1       708 5.52083E-02 2.50000E-02 0.00000E+00
 -1       709 5.62500E-02 2.50000E-02 0.00000E+00
 -1       710 5.72917E-02 2.50000E-02 0.00000E+00
 -1       711 5.93750E-02 2.50000E-02 0.00000E+00
 -1       712 6.04167E-02 2.50000E-02 0.00000E+00
 -1       713 6.14583E-02 2.50000E-02 0.00000E+00
 -1       714 6.25000E-02 2.50000E-02 0.00000E+00
 -1       715 6.35417E-02 2.50000E-02 0.00000E+00
 -1       716 6.45833E-02 2.50000E-02 0.00000E+00
 -1       717 6.56250E-02 2.50000E-02 0.00000E+00
 -1       718 6.77083E-02 2.50000E-02 0.00000E+00
 -1       719 6.87500E-02 2.50000E-02 0.00000E+00
 -1       720 6.97917E-02 2.50000E-02 0.00000E+00
 -1       721 7.08333E-02 2.50000E-02 0.00000E+00
 -1       722 7.18750E-02 2.50000E-02 0.00000E+00
 -1       723 7.29167E-02 2.50000E-02 0.00000E+00
 -1       724 7.39583E-02 2.50000E-02 0.00000E+00
 -1       725 7.60417E-02 2.50000E-02 0.00000E+00
 -1       726 7.70833E-02 2.50000E-02 0.00000E+00
 -1       727 7.81250E-02 2.50000E-02 0.00000E+00
 -1       728 7.91667E-02 2.50000E-02 0.00000E+00
 -1       729 8.02083E-02 2.50000E-02 0.00000E+00
 -1       730 8.12500E-02 2.50000E-02 0.00000E+00
 -1       731 8.22917E-02 2.50000E-02 0.00000E+00
 -1       732 8.43750E-02 2.50000E-02 0.00000E+00
 -1       733 8.54167E-02 2.50000E-02 0.00000E+00
 -1       734 8.64583E-02 2.50000E-02 0.00000E+00
 -1       735 8.75000E-02 2.50000E-02 0.00000E+00
 -1       736 8.85417E-02 2.50000E-02 0.00000E+00
 -1       737 8.95833E-02 2.50000E-02 0.00000E+00
 -1       738 9.06250E-02 2.50000E-02 0.00000E+00
 -1       739 9.27083E-02 2.50000E-02 0.00000E+00
 -1       740 9.37500E-02 2.50000E-02 0.00000E+00
 -1       741 9.47917E-02 2.50000E-02 0.00000E+00
 -1       742 9.58333E-02 2.50000E-02 0.00000E+00
 -1       743 9.68750E-02 2.50000E-02 0.00000E+00
 -1       744 9.79167E-02 2.50000E-02 0.00000E+00
 -1       745 9.89583E-02 2.50000E-02 0.00000E+00
 -3
    3C                           340                                     1
 -1         1   12    0    1
 -2         1        67        66
 -1         2   12    0    1
 -2        67        69        68
 -1         3   12    0    1
 -2        69        71        70
 -1         4   12    0    1
 -2        71         2        72
 -1         5   12    0    1
 -2         1        74        73
 -1         6   12    0    1
 -2        74        76        75
 -1         7   12    0    1
 -2        76        14        77
 -1         8   12    0    1
 -2         2        79        78
 -1         9   12    0    1
 -2        79        81        80
 -1        10   12    0    1
 -2        81        83        82
 -1        11   12    0    1
 -2        83         3        84
 -1        12   12    0    1
 -2         2        86        85
 -1        13   12    0    1
 -2        86        88        87
 -1        14   12    0    1
 -2        88        15        89
 -1        15   12    0    1
 -2         3        91        90
 -1        16   12    0    1
 -2        91        93        92
 -1        17   12    0    1
 -2        93        95        94
 -1        18   12    0    1
 -2        95         4        96
 -1        19   12    0    1
 -2         3        98        97
 -1        20   12    0    1
 -2        98       100        99
 -1        21   12    0    1
 -2       100        16       101
 -1        22   12    0    1
 -2         4       103       102
 -1        23   12    0    1
 -2       103       105       104
 -1        24   12    0    1
 -2       105       107       106
 -1        25   12    0    1
 -2       107         5       108
 -1        26   12    0    1
 -2         4       110       109
 -1        27   12    0    1
 -2       110       112       111
 -1        28   12    0    1
 -2       112        17       113
 -1        29   12    0    1
 -2         5       115       114
 -1        30   12    0    1
 -2       115       117       116
 -1        31   12    0    1
 -2       117       119       118
 -1        32   12    0    1
 -2       119         6       120
 -1        33   12    0    1
 -2         5       122       121
 -1        34   12    0    1
 -2       122       124       123
 -1        35   12    0    1
 -2       124        18       125
 -1        36   12    0    1
 -2         6       127       126
 -1        37   12    0    1
 -2       127       129       128
 -1        38   12    0    1
 -2       129       131       130
 -1        39   12    0    1
 -2       131         7       132
 -1        40   12    0    1
 -2         6       134       133
 -1        41   12    0    1
 -2       134       136       135
 -1        42   12    0    1
 -2       136        19       137
 -1        43   12    0    1
 -2         7       139       138
 -1        44   12    0    1
 -2       139       141       140
 -1        45   12    0    1
 -2       141       143       142
 -1        46   12    0    1
 -2       143         8       144
 -1        47   12    0    1
 -2         7       146       145
 -1        48   12    0    1
 -2       146       148       147
 -1        49   12    0    1
 -2       148        20       149
 -1        50   12    0    1
 -2         8       151       150
 -1        51   12    0    1
 -2       151       153       152
 -1        52   12    0    1
 -2       153       155       154
 -1        53   12    0    1
 -2       155         9       156
 -1        54   12    0    1
 -2         8       158       157
 -1        55   12    0    1
 -2       158       160       159
 -1        56   12    0    1
 -2       160        21       161
 -1        57   12    0    1
 -2         9       170       169
 -1        58   12    0    1
 -2       170       172       171
 -1        59   12    0    1
 -2       172        22       173
 -1        60   12    0    1
 -2        14       216       215
 -1        61   12    0    1
 -2       216       218       217
 -1        62   12    0    1
 -2       218       220       219
 -1        63   12    0    1
 -2       220        15       221
 -1        64   12    0    1
 -2        14       223       222
 -1        65   12    0    1
 -2       223       225       224
 -1        66   12    0    1
 -2       225        27       226
 -1        67   12    0    1
 -2        15       228       227
 -1        68   12    0    1
 -2       228       230       229
 -1        69   12    0    1
 -2       230       232       231
 -1        70   12    0    1
 -2       232        16       233
 -1        71   12    0    1
 -2        15       235       234
 -1        72   12    0    1
 -2       235       237       236
 -1        73   12    0    1
 -2       237        28       238
 -1        74   12    0    1
 -2        16       240       239
 -1        75   12    0    1
 -2       240       242       241
 -1        76   12    0    1
 -2       242       244       243
 -1        77   12    0    1
 -2       244        17       245
 -1        78   12    0    1
 -2        16       247       246
 -1        79   12    0    1
 -2       247       249       248
 -1        80   12    0    1
 -2       249        29       250
 -1        81   12    0    1
 -2        17       252       251
 -1        82   12    0    1
 -2       252       254       253
 -1        83   12    0    1
 -2       254       256       255
 -1        84   12    0    1
 -2       256        18       257
 -1        85   12    0    1
 -2        17       259       258
 -1        86   12    0    1
 -2       259       261       260
 -1        87   12    0    1
 -2       261        30       262
 -1        88   12    0    1
 -2        18       264       263
 -1        89   12    0    1
 -2       264       266       265
 -1        90   12    0    1
 -2       266       268       267
 -1        91   12    0    1
 -2       268        19       269
 -1        92   12    0    1
 -2        18       271       270
 -1        93   12    0    1
 -2       271       273       272
 -1        94   12    0    1
 -2       273        31       274
 -1        95   12    0    1
 -2        19       276       275
 -1        96   12    0    1
 -2       276       278       277
 -1        97   12    0    1
 -2       278       280       279
 -1        98   12    0    1
 -2       280        20       281
 -1        99   12    0    1
 -2        19       283       282
 -1       100   12    0    1
 -2       283       285       284
 -1       101   12    0    1
 -2       285        32       286
 -1       102   12    0    1
 -2        20       288       287
 -1       103   12    0    1
 -2       288       290       289
 -1       104   12    0    1
 -2       290       292       291
 -1       105   12    0    1
 -2       292        21       293
 -1       106   12    0    1
 -2        20       295       294
 -1       107   12    0    1
 -2       295       297       296
 -1       108   12    0    1
 -2       297        33       298
 -1       109   12    0    1
 -2        21       300       299
 -1       110   12    0    1
 -2       300       302       301
 -1       111   12    0    1
 -2       302       304       303
 -1       112   12    0    1
 -2       304        22       305
 -1       113   12    0    1
 -2        21       307       306
 -1       114   12    0    1
 -2       307       309       308
 -1       115   12    0    1
 -2       309        34       310
 -1       116   12    0    1
 -2        22       319       318
 -1       117   12    0    1
 -2       319       321       320
 -1       118   12    0    1
 -2       321        35       322
 -1       119   12    0    1
 -2        27       365       364
 -1       120   12    0    1
 -2       365       367       366
 -1       121   12    0    1
 -2       367       369       368
 -1       122   12    0    1
 -2       369        28       370
 -1       123   12    0    1
 -2        27       372       371
 -1       124   12    0    1
 -2       372       374       373
 -1       125   12    0    1
 -2       374        40       375
 -1       126   12    0    1
 -2        28       377       376
 -1       127   12    0    1
 -2       377       379       378
 -1       128   12    0    1
 -2       379       381       380
 -1       129   12    0    1
 -2       381        29       382
 -1       130   12    0    1
 -2        28       384       383
 -1       131   12    0    1
 -2       384       386       385
 -1       132   12    0    1
 -2       386        41       387
 -1       133   12    0    1
 -2        29       389       388
 -1       134   12    0    1
 -2       389       391       390
 -1       135   12    0    1
 -2       391       393       392
 -1       136   12    0    1
 -2       393        30       394
 -1       137   12    0    1
 -2        29       396       395
 -1       138   12    0    1
 -2       396       398       397
 -1       139   12    0    1
 -2       398        42       399
 -1       140   12    0    1
 -2        30       401       400
 -1       141   12    0    1
 -2       401       403       402
 -1       142   12    0    1
 -2       403       405       404
 -1       143   12    0    1
 -2       405        31       406
 -1       144   12    0    1
 -2        30       408       407
 -1       145   12    0    1
 -2       408       410       409
 -1       146   12    0    1
 -2       410        43       411
 -1       147   12    0    1
 -2        31       413       412
 -1       148   12    0    1
 -2       413       415       414
 -1       149   12    0    1
 -2       415       417       416
 -1       150   12    0    1
 -2       417        32       418
 -1       151   12    0    1
 -2        31       420       419
 -1       152   12    0    1
 -2       420       422       421
 -1       153   12    0    1
 -2       422        44       423
 -1       154   12    0    1
 -2        32       425       424
 -1       155   12    0    1
 -2       425       427       426
 -1       156   12    0    1
 -2       427       429       428
 -1       157   12    0    1
 -2       429        33       430
 -1       158   12    0    1
 -2        32       432       431
 -1       159   12    0    1
 -2       432       434       433
 -1       160   12    0    1
 -2       434        45       435
 -1       161   12    0    1
 -2        33       437       436
 -1       162   12    0    1
 -2       437       439       438
 -1       163   12    0    1
 -2       439       441       440
 -1       164   12    0    1
 -2       441        34       442
 -1       165   12    0    1
 -2        33       444       443
 -1       166   12    0    1
 -2       444       446       445
 -1       167   12    0    1
 -2       446        46       447
 -1       168   12    0    1
 -2        34       449       448
 -1       169   12    0    1
 -2       449       451       450
 -1       170   12    0    1
 -2       451       453       452
 -1       171   12    0    1
 -2       453        35       454
 -1       172   12    0    1
 -2        34       456       455
 -1       173   12    0    1
 -2       456       458       457
 -1       174   12    0    1
 -2       458        47       459
 -1       175   12    0    1
 -2        35       461       460
 -1       176   12    0    1
 -2       461       463       462
 -1       177   12    0    1
 -2       463       465       464
 -1       178   12    0    1
 -2       465        36       466
 -1       179   12    0    1
 -2        35       468       467
 -1       180   12    0    1
 -2       468       470       469
 -1       181   12    0    1
 -2       470        48       471
 -1       182   12    0    1
 -2        36       473       472
 -1       183   12    0    1
 -2       473       475       474
 -1       184   12    0    1
 -2       475       477       476
 -1       185   12    0    1
 -2       477        37       478
 -1       186   12    0    1
 -2        36       480       479
 -1       187   12    0    1
 -2       480       482       481
 -1       188   12    0    1
 -2       482        49       483
 -1       189   12    0    1
 -2        37       485       484
 -1       190   12    0    1
 -2       485       487       486
 -1       191   12    0    1
 -2       487       489       488
 -1       192   12    0    1
 -2       489        38       490
 -1       193   12    0    1
 -2        37       492       491
 -1       194   12    0    1
 -2       492       494       493
 -1       195   12    0    1
 -2       494        50       495
 -1       196   12    0    1
 -2        38       497       496
 -1       197   12    0    1
 -2       497       499       498
 -1       198   12    0    1
 -2       499       501       500
 -1       199   12    0    1
 -2       501        39       502
 -1       200   12    0    1
 -2        38       504       503
 -1       201   12    0    1
 -2       504       506       505
 -1       202   12    0    1
 -2       506        51       507
 -1       203   12    0    1
 -2        39       509       508
 -1       204   12    0    1
 -2       509       511       510
 -1       205   12    0    1
 -2       511        52       512
 -1       206   12    0    1
 -2        40       514       513
 -1       207   12    0    1
 -2       514       516       515
 -1       208   12    0    1
 -2       516       518       517
 -1       209   12    0    1
 -2       518        41       519
 -1       210   12    0    1
 -2        40       521       520
 -1       211   12    0    1
 -2       521       523       522
 -1       212   12    0    1
 -2       523        53       524
 -1       213   12    0    1
 -2        41       526       525
 -1       214   12    0    1
 -2       526       528       527
 -1       215   12    0    1
 -2       528       530       529
 -1       216   12    0    1
 -2       530        42       531
 -1       217   12    0    1
 -2        41       533       532
 -1       218   12    0    1
 -2       533       535       534
 -1       219   12    0    1
 -2       535        54       536
 -1       220   12    0    1
 -2        42       538       537
 -1       221   12    0    1
 -2       538       540       539
 -1       222   12    0    1
 -2       540       542       541
 -1       223   12    0    1
 -2       542        43       543
 -1       224   12    0    1
 -2        42       545       544
 -1       225   12    0    1
 -2       545       547       546
 -1       226   12    0    1
 -2       547        55       548
 -1       227   12    0    1
 -2        43       550       549
 -1       228   12    0    1
 -2       550       552       551
 -1       229   12    0    1
 -2       552       554       553
 -1       230   12    0    1
 -2       554        44       555
 -1       231   12    0    1
 -2        43       557       556
 -1       232   12    0    1
 -2       557       559       558
 -1       233   12    0    1
 -2       559        56       560
 -1       234   12    0    1
 -2        44       562       561
 -1       235   12    0    1
 -2       562       564       563
 -1       236   12    0    1
 -2       564       566       565
 -1       237   12    0    1
 -2       566        45       567
 -1       238   12    0    1
 -2        44       569       568
 -1       239   12    0    1
 -2       569       571       570
 -1       240   12    0    1
 -2       571        57       572
 -1       241   12    0    1
 -2        45       574       573
 -1       242   12    0    1
 -2       574       576       575
 -1       243   12    0    1
 -2       576       578       577
 -1       244   12    0    1
 -2       578        46       579
 -1       245   12    0    1
 -2        45       581       580
 -1       246   12    0    1
 -2       581       583       582
 -1       247   12    0    1
 -2       583        58       584
 -1       248   12    0    1
 -2        46       586       585
 -1       249   12    0    1
 -2       586       588       587
 -1       250   12    0    1
 -2       588       590       589
 -1       251   12    0    1
 -2       590        47       591
 -1       252   12    0    1
 -2        46       593       592
 -1       253   12    0    1
 -2       593       595       594
 -1       254   12    0    1
 -2       595        59       596
 -1       255   12    0    1
 -2        47       598       597
 -1       256   12    0    1
 -2       598       600       599
 -1       257   12    0    1
 -2       600       602       601
 -1       258   12    0    1
 -2       602        48       603
 -1       259   12    0    1
 -2        47       605       604
 -1       260   12    0    1
 -2       605       607       606
 -1       261   12    0    1
 -2       607        60       608
 -1       262   12    0    1
 -2        48       610       609
 -1       263   12    0    1
 -2       610       612       611
 -1       264   12    0    1
 -2       612       614       613
 -1       265   12    0    1
 -2       614        49       615
 -1       266   12    0    1
 -2        48       617       616
 -1       267   12    0    1
 -2       617       619       618
 -1       268   12    0    1
 -2       619        61       620
 -1       269   12    0    1
 -2        49       622       621
 -1       270   12    0    1
 -2       622       624       623
 -1       271   12    0    1
 -2       624       626       625
 -1       272   12    0    1
 -2       626        50       627
 -1       273   12    0    1
 -2        49       629       628
 -1       274   12    0    1
 -2       629       631       630
 -1       275   12    0    1
 -2       631        62       632
 -1       276   12    0    1
 -2        50       634       633
 -1       277   12    0    1
 -2       634       636       635
 -1       278   12    0    1
 -2       636       638       637
 -1       279   12    0    1
 -2       638        51       639
 -1       280   12    0    1
 -2        50       641       640
 -1       281   12    0    1
 -2       641       643       642
 -1       282   12    0    1
 -2       643        63       644
 -1       283   12    0    1
 -2        51       646       645
 -1       284   12    0    1
 -2       646       648       647
 -1       285   12    0    1
 -2       648       650       649
 -1       286   12    0    1
 -2       650        52       651
 -1       287   12    0    1
 -2        51       653       652
 -1       288   12    0    1
 -2       653       655       654
 -1       289   12    0    1
 -2       655        64       656
 -1       290   12    0    1
 -2        52       658       657
 -1       291   12    0    1
 -2       658       660       659
 -1       292   12    0    1
 -2       660        65       661
 -1       293   12    0    1
 -2        53       663       662
 -1       294   12    0    1
 -2       663       665       664
 -1       295   12    0    1
 -2       665       667       666
 -1       296   12    0    1
 -2       667        54       668
 -1       297   12    0    1
 -2        54       670       669
 -1       298   12    0    1
 -2       670       672       671
 -1       299   12    0    1
 -2       672       674       673
 -1       300   12    0    1
 -2       674        55       675
 -1       301   12    0    1
 -2        55       677       676
 -1       302   12    0    1
 -2       677       679       678
 -1       303   12    0    1
 -2       679       681       680
 -1       304   12    0    1
 -2       681        56       682
 -1       305   12    0    1
 -2        56       684       683
 -1       306   12    0    1
 -2       684       686       685
 -1       307   12    0    1
 -2       686       688       687
 -1       308   12    0    1
 -2       688        57       689
 -1       309   12    0    1
 -2        57       691       690
 -1       310   12    0    1
 -2       691       693       692
 -1       311   12    0    1
 -2       693       695       694
 -1       312   12    0    1
 -2       695        58       696
 -1       313   12    0    1
 -2        58       698       697
 -1       314   12    0    1
 -2       698       700       699
 -1       315   12    0    1
 -2       700       702       701
 -1       316   12    0    1
 -2       702        59       703
 -1       317   12    0    1
 -2        59       705       704
 -1       318   12    0    1
 -2       705       707       706
 -1       319   12    0    1
 -2       707       709       708
 -1       320   12    0    1
 -2       709        60       710
 -1       321   12    0    1
 -2        60       712       711
 -1       322   12    0    1
 -2       712       714       713
 -1       323   12    0    1
 -2       714       716       715
 -1       324   12    0    1
 -2       716        61       717
 -1       325   12    0    1
 -2        61       719       718
 -1       326   12    0    1
 -2       719       721       720
 -1       327   12    0    1
 -2       721       723       722
 -1       328   12    0    1
 -2       723        62       724
 -1       329   12    0    1
 -2        62       726       725
 -1       330   12    0    1
 -2       726       728       727
 -1       331   12    0    1
 -2       728       730       729
 -1       332   12    0    1
 -2       730        63       731
 -1       333   12    0    1
 -2        63       733       732
 -1       334   12    0    1
 -2       733       735       734
 -1       335   12    0    1
 -2       735       737       736
 -1       336   12    0    1
 -2       737        64       738
 -1       337   12    0    1
 -2        64       740       739
 -1       338   12    0    1
 -2       740       742       741
 -1       339   12    0    1
 -2       742       744       743
 -1       340   12    0    1
 -2       744        65       745
 -3
    1PSTEP                         1           1           1          
  100CL  101 1.000000000         641                     0    1           1
 -4  DISP        4    1
 -5  D1          1    2    1    0
 -5  D2          1    2    2    0
 -5  D3          1    2    3    0
 -5  ALL         1    2    0    0    1ALL
 -1         1-3.03056E-04 0.00000E+00 0.00000E+00
 -1         2-2.83993E-04 0.00000E+00 0.00000E+00
 -1         3-2.68724E-04 0.00000E+00 0.00000E+00
 -1         4-2.56544E-04 0.00000E+00 0.00000E+00
 -1         5-2.46990E-04 0.00000E+00 0.00000E+00
 -1         6-2.39744E-04 0.00000E+00 0.00000E+00
 -1         7-2.34600E-04 0.00000E+00 0.00000E+00
 -1         8-2.31420E-04 0.00000E+00 0.00000E+00
 -1         9-2.30199E-04 0.00000E+00 0.00000E+00
 -1        14-2.11136E-04 2.33344E-06 0.00000E+00
 -1        15-2.08593E-04-1.17595E-06 0.00000E+00
 -1        16-2.04967E-04-4.88600E-07 0.00000E+00
 -1        17-2.00947E-04-3.27619E-07 0.00000E+00
 -1        18-1.96968E-04-2.22378E-07 0.00000E+00
 -1        19-1.93322E-04-8.56150E-08 0.00000E+00
 -1        20-1.90223E-04 6.30146E-08 0.00000E+00
 -1        21-1.87866E-04-2.06127E-07 0.00000E+00
 -1        22-1.86446E-04-6.21589E-07 0.00000E+00
 -1        27-1.26926E-04 2.80213E-06 0.00000E+00
 -1        28-1.26799E-04-2.04873E-06 0.00000E+00
 -1        29-1.26048E-04-1.08334E-06 0.00000E+00
 -1        30-1.24743E-04-8.14757E-07 0.00000E+00
 -1        31-1.22883E-04-6.47837E-07 0.00000E+00
 -1        32-1.20431E-04-4.09230E-07 0.00000E+00
 -1        33-1.17268E-04-1.01125E-07 0.00000E+00
 -1        34-1.13130E-04-9.93603E-07 0.00000E+00
 -1        35-1.07675E-04-1.11637E-07 0.00000E+00
 -1        36-1.01371E-04 3.35794E-05 0.00000E+00
 -1        37-9.77143E-05 6.21328E-05 0.00000E+00
 -1        38-9.59929E-05 6.85897E-05 0.00000E+00
 -1        39-9.55112E-05 5.09466E-05 0.00000E+00
 -1        40-5.93740E-05 1.99770E-06 0.00000E+00
 -1        41-5.95762E-05-2.67418E-06 0.00000E+00
 -1        42-5.96923E-05-1.50658E-06 0.00000E+00
 -1        43-5.95772E-05-1.16280E-06 0.00000E+00
 -1        44-5.92241E-05-9.42102E-07 0.00000E+00
 -1        45-5.87430E-05-5.93361E-07 0.00000E+00
 -1        46-5.84013E-05-8.42021E-08 0.00000E+00
 -1        47-5.85729E-05-1.51621E-06 0.00000E+00
 -1        48-5.90348E-05 5.79885E-07 0.00000E+00
 -1        49-5.99537E-05 3.31516E-05 0.00000E+00
 -1        50-6.04520E-05 6.13840E-05 0.00000E+00
 -1        51-6.07206E-05 6.78838E-05 0.00000E+00
 -1        52-6.08506E-05 5.02378E-05 0.00000E+00
 -1        53 0.00000E+00 0.00000E+00 0.00000E+00
 -1        54-4.98512E-06-3.09991E-06 0.00000E+00
 -1        55-7.86260E-06-1.76839E-06 0.00000E+00
 -1        56-8.79120E-06-1.37366E-06 0.00000E+00
 -1        57-7.82766E-06-1.12493E-06 0.00000E+00
 -1        58-4.93031E-06-7.23679E-07 0.00000E+00
 -1        59 0.00000E+00 0.00000E+00 0.00000E+00
 -1        60-9.59404E-06-1.91732E-06 0.00000E+00
 -1        61-1.73717E-05 7.42258E-07 0.00000E+00
 -1        62-2.30693E-05 3.28565E-05 0.00000E+00
 -1        63-2.64342E-05 6.10329E-05 0.00000E+00
 -1        64-2.79347E-05 6.75470E-05 0.00000E+00
 -1        65-2.83690E-05 4.99421E-05 0.00000E+00
 -1        66-3.00704E-04 1.01776E-20 5.29396E-23
 -1        67-2.98312E-04 2.95932E-20 2.64698E-23
 -1        68-2.95920E-04 1.18452E-20 0.00000E+00
 -1        69-2.93523E-04-4.87044E-21 0.00000E+00
 -1        70-2.91126E-04-4.63221E-21 0.00000E+00
 -1        71-2.88734E-04-2.42198E-21 0.00000E+00
 -1        72-2.86342E-04 1.40290E-20 5.29396E-23
 -1        73-2.97434E-04 5.20094E-07 1.32349E-23
 -1        74-2.84487E-04 9.46224E-07 0.00000E+00
 -1        75-2.66799E-04 1.31206E-06-1.32349E-23
 -1        76-2.46959E-04 1.63574E-06 6.61744E-24
 -1        77-2.27547E-04 1.96537E-06 0.00000E+00
 -1        78-2.82099E-04 1.93362E-20 0.00000E+00
 -1        79-2.80184E-04 6.61480E-20 2.64698E-23
 -1        80-2.78268E-04 7.05420E-20-5.29396E-23
 -1        81-2.76350E-04 5.13778E-20 0.00000E+00
 -1        82-2.74432E-04 1.27584E-20 0.00000E+00
 -1        83-2.72518E-04-8.45709E-21 0.00000E+00
 -1        84-2.70604E-04 4.59251E-21-5.29396E-23
 -1        85-2.78910E-04-8.11402E-08 0.00000E+00
 -1        86-2.67454E-04-2.67952E-07-7.23783E-25
 -1        87-2.52151E-04-4.96675E-07 8.27181E-25
 -1        88-2.35545E-04-7.50731E-07 0.00000E+00
 -1        89-2.20182E-04-9.90058E-07 0.00000E+00
 -1        90-2.67212E-04-3.99561E-20 0.00000E+00
 -1        91-2.65684E-04-7.15412E-20 0.00000E+00
 -1        92-2.64156E-04-6.68891E-20 0.00000E+00
 -1        93-2.62626E-04-4.95514E-20 2.64698E-23
 -1        94-2.61096E-04-2.63705E-20 0.00000E+00
 -1        95-2.59570E-04-1.92700E-20 0.00000E+00
 -1        96-2.58044E-04-2.73300E-21 2.64698E-23
 -1        97-2.64542E-04 3.96223E-09-6.61744E-24
 -1        98-2.55057E-04-7.01610E-08 1.65436E-24
 -1        99-2.42308E-04-1.73974E-07 1.65436E-24
 -1       100-2.28345E-04-2.97243E-07-1.65436E-24
 -1       101-2.15217E-04-4.12357E-07 0.00000E+00
 -1       102-2.55358E-04 2.47228E-20 0.00000E+00
 -1       103-2.54159E-04 4.53626E-20 0.00000E+00
 -1       104-2.52960E-04 6.32694E-20 0.00000E+00
 -1       105-2.51760E-04 6.00004E-20 1.32349E-23
 -1       106-2.50560E-04 4.77052E-20 0.00000E+00
 -1       107-2.49363E-04 7.14022E-21 0.00000E+00
 -1       108-2.48166E-04 8.53650E-22 0.00000E+00
 -1       109-2.52954E-04 1.11425E-08-3.30872E-24
 -1       110-2.44782E-04-3.79926E-08 8.27181E-25
 -1       111-2.33756E-04-1.09540E-07 1.65436E-24
 -1       112-2.21617E-04-1.96198E-07-4.96308E-24
 -1       113-2.10103E-04-2.77640E-07 0.00000E+00
 -1       114-2.46090E-04 1.95876E-20 2.64698E-23
 -1       115-2.45181E-04 3.70180E-20 0.00000E+00
 -1       116-2.44271E-04 3.90892E-20 2.64698E-23
 -1       117-2.43361E-04 5.29859E-20 0.00000E+00
 -1       118-2.42451E-04 6.14430E-20 0.00000E+00
 -1       119-2.41543E-04 4.17296E-20 0.00000E+00
 -1       120-2.40636E-04 2.11494E-20 0.00000E+00
 -1       121-2.43805E-04 1.45101E-08-8.27181E-24
 -1       122-2.36529E-04-1.78282E-08 5.49300E-25
 -1       123-2.26682E-04-6.81744E-08 1.65436E-24
 -1       124-2.15789E-04-1.30708E-07 0.00000E+00
 -1       125-2.05377E-04-1.89653E-07 0.00000E+00
 -1       126-2.39104E-04-1.92865E-20 0.00000E+00
 -1       127-2.38458E-04-5.26087E-20-6.61744E-24
 -1       128-2.37813E-04-7.25570E-20 2.64698E-23
 -1       129-2.37167E-04-7.65043E-20 1.32349E-23
 -1       130-2.36521E-04-7.39632E-20 1.32349E-23
 -1       131-2.35876E-04-6.74351E-20 0.00000E+00
 -1       132-2.35232E-04-2.98546E-20 0.00000E+00
 -1       133-2.36821E-04 2.64247E-08 0.00000E+00
 -1       134-2.30127E-04 1.69640E-08-1.24077E-24
 -1       135-2.21042E-04-7.90098E-09-1.65436E-24
 -1       136-2.10955E-04-4.29572E-08 0.00000E+00
 -1       137-2.01254E-04-7.52873E-08 0.00000E+00
 -1       138-2.34202E-04-1.37031E-20 0.00000E+00
 -1       139-2.33803E-04-1.63434E-20 0.00000E+00
 -1       140-2.33403E-04 4.51938E-20 1.32349E-23
 -1       141-2.33004E-04 5.42002E-20 0.00000E+00
 -1       142-2.32605E-04 4.08429E-20 0.00000E+00
 -1       143-2.32207E-04 2.02990E-20 6.61744E-24
 -1       144-2.31809E-04 1.80689E-20 0.00000E+00
 -1       145-2.31844E-04 4.26408E-08-1.65436E-24
 -1       146-2.25511E-04 5.87816E-08-8.27181E-25
 -1       147-2.16888E-04 6.09436E-08 3.30872E-24
 -1       148-2.07271E-04 5.41505E-08 0.00000E+00
 -1       149-1.97952E-04 4.94676E-08-6.61744E-24
 -1       150-2.31265E-04 6.27499E-21 6.61744E-24
 -1       151-2.31112E-04 1.10594E-20-3.30872E-24
 -1       152-2.30958E-04-4.83735E-21-3.30872E-24
 -1       153-2.30805E-04-3.01085E-20 0.00000E+00
 -1       154-2.30652E-04-1.35120E-20 0.00000E+00
 -1       155-2.30499E-04-4.13425E-21 1.65436E-24
 -1       156-2.30347E-04-9.72268E-21 3.30872E-24
 -1       157-2.28690E-04-7.95893E-09 0.00000E+00
 -1       158-2.22429E-04-3.63471E-08 0.00000E+00
 -1       159-2.13924E-04-7.82109E-08 0.00000E+00
 -1       160-2.04468E-04-1.28023E-07 0.00000E+00
 -1       161-1.95352E-04-1.75300E-07 0.00000E+00
 -1       169-2.28037E-04-7.69440E-08 0.00000E+00
 -1       170-2.22751E-04-1.68261E-07 0.00000E+00
 -1       171-2.15142E-04-2.72258E-07 0.00000E+00
 -1       172-2.06016E-04-3.87420E-07 0.00000E+00
 -1       173-1.96183E-04-5.08565E-07 4.13590E-25
 -1       215-2.10854E-04-6.41201E-06 2.64698E-23
 -1       216-2.10533E-04-9.32437E-06 0.00000E+00
 -1       217-2.10204E-04-8.13358E-06-1.32349E-23
 -1       218-2.09877E-04-4.57241E-06-6.61744E-24
 -1       219-2.09553E-04-3.68673E-07-6.61744E-24
 -1       220-2.09226E-04 2.75110E-06 0.00000E+00
 -1       221-2.08899E-04 3.05739E-06 0.00000E+00
 -1       222-1.96957E-04 2.41932E-06 6.61744E-24
 -1       223-1.81668E-04 2.48258E-06 0.00000E+00
 -1       224-1.66144E-04 2.54223E-06-6.61744E-24
 -1       225-1.51260E-04 2.60914E-06 3.30872E-24
 -1       226-1.37897E-04 2.69524E-06 0.00000E+00
 -1       227-2.08161E-04-5.95691E-06 0.00000E+00
 -1       228-2.07703E-04-6.69550E-06-6.61744E-24
 -1       229-2.07243E-04-4.71881E-06 0.00000E+00
 -1       230-2.06784E-04-1.35386E-06 0.00000E+00
 -1       231-2.06325E-04 2.07610E-06-1.32349E-23
 -1       232-2.05864E-04 4.24800E-06 3.30872E-24
 -1       233-2.05405E-04 3.83524E-06-9.92617E-24
 -1       234-1.97653E-04-1.28248E-06 0.00000E+00
 -1       235-1.83188E-04-1.43722E-06 0.00000E+00
 -1       236-1.67029E-04-1.61436E-06-4.13590E-25
 -1       237-1.51019E-04-1.79027E-06 0.00000E+00
 -1       238-1.36998E-04-1.94075E-06 0.00000E+00
 -1       239-2.04483E-04-4.98689E-06 0.00000E+00
 -1       240-2.03976E-04-5.76089E-06 0.00000E+00
 -1       241-2.03467E-04-4.02882E-06-1.32349E-23
 -1       242-2.02959E-04-1.00825E-06 0.00000E+00
 -1       243-2.02451E-04 2.08713E-06-1.32349E-23
 -1       244-2.01942E-04 4.04376E-06 6.61744E-24
 -1       245-2.01434E-04 3.64465E-06 0.00000E+00
 -1       246-1.94594E-04-5.48067E-07 0.00000E+00
 -1       247-1.80719E-04-6.55177E-07-8.27181E-25
 -1       248-1.65132E-04-7.84050E-07 0.00000E+00
 -1       249-1.49627E-04-9.12789E-07 0.00000E+00
 -1       250-1.36003E-04-1.01830E-06 0.00000E+00
 -1       251-2.00466E-04-4.43705E-06 0.00000E+00
 -1       252-1.99964E-04-5.11380E-06-6.61744E-24
 -1       253-1.99461E-04-3.48663E-06-1.32349E-23
 -1       254-1.98958E-04-6.83754E-07-6.61744E-24
 -1       255-1.98456E-04 2.17003E-06 0.00000E+00
 -1       256-1.97953E-04 3.95015E-06 6.61744E-24
 -1       257-1.97450E-04 3.52874E-06 9.92617E-24
 -1       258-1.91184E-04-3.69298E-07 0.00000E+00
 -1       259-1.77892E-04-4.57075E-07-8.27181E-25
 -1       260-1.62833E-04-5.66353E-07 0.00000E+00
 -1       261-1.47777E-04-6.76477E-07 0.00000E+00
 -1       262-1.34493E-04-7.65337E-07 0.00000E+00
 -1       263-1.96526E-04-4.06118E-06 0.00000E+00
 -1       264-1.96066E-04-4.65835E-06 0.00000E+00
 -1       265-1.95605E-04-3.08474E-06-1.32349E-23
 -1       266-1.95145E-04-4.11215E-07 0.00000E+00
 -1       267-1.94684E-04 2.29437E-06-1.32349E-23
 -1       268-1.94224E-04 3.96425E-06-3.30872E-24
 -1       269-1.93763E-04 3.52777E-06-3.30872E-24
 -1       270-1.87629E-04-2.55224E-07 3.30872E-24
 -1       271-1.74758E-04-3.32124E-07 0.00000E+00
 -1       272-1.60100E-04-4.30057E-07 1.65436E-24
 -1       273-1.45403E-04-5.29103E-07 0.00000E+00
 -1       274-1.32417E-04-6.08099E-07-1.32349E-23
 -1       275-1.92946E-04-3.73906E-06 0.00000E+00
 -1       276-1.92555E-04-4.25521E-06 0.00000E+00
 -1       277-1.92163E-04-2.67825E-06 0.00000E+00
 -1       278-1.91772E-04-5.34560E-08 0.00000E+00
 -1       279-1.91380E-04 2.57662E-06 0.00000E+00
 -1       280-1.90989E-04 4.16936E-06 3.30872E-24
 -1       281-1.90598E-04 3.67956E-06-3.30872E-24
 -1       282-1.84227E-04-1.03502E-07 3.30872E-24
 -1       283-1.71580E-04-1.63311E-07-8.27181E-25
 -1       284-1.57125E-04-2.43939E-07 0.00000E+00
 -1       285-1.42616E-04-3.25489E-07 0.00000E+00
 -1       286-1.29802E-04-3.87387E-07 0.00000E+00
 -1       287-1.89938E-04-3.61549E-06-1.32349E-23
 -1       288-1.89639E-04-4.23528E-06 0.00000E+00
 -1       289-1.89340E-04-2.80441E-06 0.00000E+00
 -1       290-1.89042E-04-3.32988E-07 3.30872E-24
 -1       291-1.88744E-04 2.17103E-06 0.00000E+00
 -1       292-1.88446E-04 3.69982E-06 1.65436E-24
 -1       293-1.88148E-04 3.24339E-06 2.48154E-24
 -1       294-1.81124E-04 6.91143E-08 0.00000E+00
 -1       295-1.68427E-04 3.52849E-08 8.27181E-25
 -1       296-1.53910E-04-1.94781E-08 0.00000E+00
 -1       297-1.39356E-04-7.43665E-08 0.00000E+00
 -1       298-1.26550E-04-1.08927E-07 0.00000E+00
 -1       299-1.87694E-04-3.24970E-06 0.00000E+00
 -1       300-1.87511E-04-2.88630E-06 0.00000E+00
 -1       301-1.87328E-04-3.89832E-07-6.61744E-24
 -1       302-1.87148E-04 2.96162E-06-1.65436E-24
 -1       303-1.86966E-04 5.89158E-06 6.61744E-24
 -1       304-1.86782E-04 7.12319E-06 3.30872E-24
 -1       305-1.86603E-04 5.37708E-06 0.00000E+00
 -1       306-1.78800E-04-3.01439E-07 0.00000E+00
 -1       307-1.65849E-04-4.39909E-07 0.00000E+00
 -1       308-1.50905E-04-6.01608E-07 0.00000E+00
 -1       309-1.35871E-04-7.63519E-07 0.00000E+00
 -1       310-1.22649E-04-9.03688E-07 0.00000E+00
 -1       318-1.74606E-04-5.26026E-07 1.65436E-24
 -1       319-1.59901E-04-4.60270E-07-1.65436E-24
 -1       320-1.44091E-04-4.08708E-07 0.00000E+00
 -1       321-1.28940E-04-3.45909E-07 0.00000E+00
 -1       322-1.16215E-04-2.53928E-07 1.32349E-23
 -1       364-1.26928E-04-3.27815E-06-1.32349E-23
 -1       365-1.26910E-04-5.21877E-06 0.00000E+00
 -1       366-1.26888E-04-4.30354E-06 0.00000E+00
 -1       367-1.26868E-04-1.82353E-06 0.00000E+00
 -1       368-1.26848E-04 9.31485E-07 0.00000E+00
 -1       369-1.26827E-04 2.67181E-06 0.00000E+00
 -1       370-1.26807E-04 2.10649E-06 0.00000E+00
 -1       371-1.16544E-04 2.68244E-06 0.00000E+00
 -1       372-1.04781E-04 2.54372E-06 1.65436E-24
 -1       373-9.24086E-05 2.39818E-06 0.00000E+00
 -1       374-8.02005E-05 2.25352E-06-1.65436E-24
 -1       375-6.89321E-05 2.11867E-06-3.30872E-24
 -1       376-1.26717E-04-6.22930E-06 0.00000E+00
 -1       377-1.26620E-04-6.75826E-06 0.00000E+00
 -1       378-1.26522E-04-4.84416E-06-6.61744E-24
 -1       379-1.26425E-04-1.70088E-06 1.65436E-24
 -1       380-1.26329E-04 1.45925E-06 5.16988E-25
 -1       381-1.26231E-04 3.42389E-06 1.65436E-24
 -1       382-1.26133E-04 2.97920E-06 0.00000E+00
 -1       383-1.17486E-04-2.13273E-06 0.00000E+00
 -1       384-1.05514E-04-2.24369E-06 0.00000E+00
 -1       385-9.23057E-05-2.36815E-06-4.13590E-25
 -1       386-7.92939E-05-2.49049E-06 0.00000E+00
 -1       387-6.79092E-05-2.59575E-06 0.00000E+00
 -1       388-1.25896E-04-5.21274E-06 0.00000E+00
 -1       389-1.25730E-04-5.80454E-06-3.30872E-24
 -1       390-1.25563E-04-4.03076E-06 0.00000E+00
 -1       391-1.25397E-04-1.06773E-06-3.30872E-24
 -1       392-1.25231E-04 1.91014E-06-3.30872E-24
 -1       393-1.25064E-04 3.72840E-06 1.03398E-24
 -1       394-1.24897E-04 3.21077E-06 0.00000E+00
 -1       395-1.16868E-04-1.13299E-06 0.00000E+00
 -1       396-1.05030E-04-1.21021E-06 0.00000E+00
 -1       397-9.19607E-05-1.30075E-06 0.00000E+00
 -1       398-7.90934E-05-1.38931E-06 0.00000E+00
 -1       399-6.78616E-05-1.46098E-06 0.00000E+00
 -1       400-1.24524E-04-4.88158E-06 1.32349E-23
 -1       401-1.24288E-04-5.48544E-06-6.61744E-24
 -1       402-1.24051E-04-3.77255E-06 0.00000E+00
 -1       403-1.23815E-04-8.92330E-07-3.30872E-24
 -1       404-1.23579E-04 2.00797E-06-6.61744E-24
 -1       405-1.23342E-04 3.78118E-06-2.48154E-24
 -1       406-1.23106E-04 3.27794E-06-1.65436E-24
 -1       407-1.15731E-04-8.51414E-07 0.00000E+00
 -1       408-1.04113E-04-9.16014E-07 0.00000E+00
 -1       409-9.12852E-05-9.93455E-07 0.00000E+00
 -1       410-7.86524E-05-1.06917E-06 0.00000E+00
 -1       411-6.76173E-05-1.12870E-06 0.00000E+00
 -1       412-1.22590E-04-4.61166E-06 0.00000E+00
 -1       413-1.22280E-04-5.19190E-06 0.00000E+00
 -1       414-1.21969E-04-3.50929E-06 1.32349E-23
 -1       415-1.21659E-04-6.86601E-07 0.00000E+00
 -1       416-1.21349E-04 2.15581E-06 0.00000E+00
 -1       417-1.21038E-04 3.89762E-06 3.30872E-24
 -1       418-1.20727E-04 3.41613E-06 5.37667E-24
 -1       419-1.14099E-04-6.74999E-07 0.00000E+00
 -1       420-1.02777E-04-7.30329E-07 0.00000E+00
 -1       421-9.02691E-05-7.97946E-07 0.00000E+00
 -1       422-7.79360E-05-8.64257E-07 0.00000E+00
 -1       423-6.71366E-05-9.15416E-07 0.00000E+00
 -1       424-1.20050E-04-4.27172E-06 0.00000E+00
 -1       425-1.19651E-04-4.82875E-06 6.61744E-24
 -1       426-1.19252E-04-3.17600E-06-1.32349E-23
 -1       427-1.18852E-04-4.10142E-07 0.00000E+00
 -1       428-1.18453E-04 2.37506E-06 0.00000E+00
 -1       429-1.18053E-04 4.08582E-06-3.30872E-24
 -1       430-1.17653E-04 3.62561E-06-9.92617E-24
 -1       431-1.11921E-04-4.17663E-07 0.00000E+00
 -1       432-1.00993E-04-4.53979E-07-4.13590E-25
 -1       433-8.89276E-05-5.01742E-07 1.65436E-24
 -1       434-7.70084E-05-5.48802E-07-1.65436E-24
 -1       435-6.65205E-05-5.82192E-07 0.00000E+00
 -1       436-1.16767E-04-3.89772E-06 0.00000E+00
 -1       437-1.16245E-04-4.51927E-06 6.61744E-24
 -1       438-1.15723E-04-3.02818E-06 0.00000E+00
 -1       439-1.15200E-04-4.86176E-07 0.00000E+00
 -1       440-1.14677E-04 2.04818E-06 0.00000E+00
 -1       441-1.14154E-04 3.51638E-06 0.00000E+00
 -1       442-1.13632E-04 2.85659E-06-6.61744E-24
 -1       443-1.09138E-04-7.57025E-08-2.48154E-24
 -1       444-9.88211E-05-7.70187E-08-8.27181E-25
 -1       445-8.74513E-05-8.84634E-08 0.00000E+00
 -1       446-7.61667E-05-1.00325E-07 0.00000E+00
 -1       447-6.61055E-05-1.01076E-07 0.00000E+00
 -1       448-1.12471E-04-4.89567E-06 2.64698E-23
 -1       449-1.11785E-04-5.63588E-06 0.00000E+00
 -1       450-1.11098E-04-4.22519E-06 0.00000E+00
 -1       451-1.10411E-04-1.67150E-06 0.00000E+00
 -1       452-1.09723E-04 1.02145E-06 1.32349E-23
 -1       453-1.09035E-04 2.85044E-06 6.61744E-24
 -1       454-1.08347E-04 2.80899E-06 1.32349E-23
 -1       455-1.05195E-04-1.05823E-06 1.65436E-24
 -1       456-9.54256E-05-1.15135E-06-4.13590E-25
 -1       457-8.48475E-05-1.25188E-06 2.06795E-25
 -1       458-7.44925E-05-1.35215E-06 0.00000E+00
 -1       459-6.53921E-05-1.44219E-06 0.00000E+00
 -1       460-1.06893E-04-2.36284E-06 0.00000E+00
 -1       461-1.06092E-04-5.59587E-07 0.00000E+00
 -1       462-1.05297E-04 4.18679E-06-2.64698E-23
 -1       463-1.04510E-04 1.07717E-05-1.32349E-23
 -1       464-1.03727E-04 1.80982E-05-2.64698E-23
 -1       465-1.02944E-04 2.50724E-05-6.61744E-24
 -1       466-1.02153E-04 3.05987E-05 0.00000E+00
 -1       467-1.00690E-04 2.58761E-08 3.30872E-24
 -1       468-9.17161E-05 1.36290E-07 3.30872E-24
 -1       469-8.19065E-05 2.39585E-07 0.00000E+00
 -1       470-7.24187E-05 3.43068E-07 0.00000E+00
 -1       471-6.44102E-05 4.57071E-07-6.61744E-24
 -1       472-1.00910E-04 3.57385E-05 0.00000E+00
 -1       473-1.00450E-04 3.95337E-05 0.00000E+00
 -1       474-9.99933E-05 4.43483E-05 0.00000E+00
 -1       475-9.95389E-05 4.95656E-05 0.00000E+00
 -1       476-9.90838E-05 5.45697E-05 0.00000E+00
 -1       477-9.86268E-05 5.87447E-05-3.30872E-24
 -1       478-9.81660E-05 6.14719E-05-1.32349E-23
 -1       479-9.88381E-05 3.35437E-05-6.61744E-24
 -1       480-9.21699E-05 3.34747E-05 0.00000E+00
 -1       481-8.31527E-05 3.33913E-05 0.00000E+00
 -1       482-7.35819E-05 3.33007E-05 0.00000E+00
 -1       483-6.52528E-05 3.32184E-05 0.00000E+00
 -1       484-9.74980E-05 6.21662E-05 6.61744E-24
 -1       485-9.72810E-05 6.32922E-05 3.30872E-24
 -1       486-9.70647E-05 6.50757E-05 0.00000E+00
 -1       487-9.68488E-05 6.70805E-05 3.30872E-24
 -1       488-9.66328E-05 6.88706E-05-3.30872E-24
 -1       489-9.64169E-05 7.00100E-05-3.30872E-24
 -1       490-9.62008E-05 7.00616E-05-1.65436E-24
 -1       491-9.44358E-05 6.20315E-05 0.00000E+00
 -1       492-8.82384E-05 6.19065E-05 0.00000E+00
 -1       493-8.04286E-05 6.17722E-05-3.30872E-24
 -1       494-7.23196E-05 6.16345E-05 8.27181E-25
 -1       495-6.52248E-05 6.15027E-05 0.00000E+00
 -1       496-9.59318E-05 6.64066E-05 0.00000E+00
 -1       497-9.58696E-05 6.46537E-05 0.00000E+00
 -1       498-9.58071E-05 6.31131E-05 1.65436E-24
 -1       499-9.57447E-05 6.15664E-05 0.00000E+00
 -1       500-9.56828E-05 5.97949E-05-8.27181E-25
 -1       501-9.56222E-05 5.75801E-05-1.55096E-25
 -1       502-9.55634E-05 5.47033E-05 0.00000E+00
 -1       503-9.19243E-05 6.84860E-05 0.00000E+00
 -1       504-8.60519E-05 6.83677E-05-3.30872E-24
 -1       505-7.91835E-05 6.82440E-05 0.00000E+00
 -1       506-7.21313E-05 6.81185E-05-8.27181E-25
 -1       507-6.57075E-05 6.79964E-05 8.27181E-25
 -1       508-9.05188E-05 5.08351E-05 3.30872E-24
 -1       509-8.47639E-05 5.07163E-05 1.65436E-24
 -1       510-7.85821E-05 5.05952E-05 0.00000E+00
 -1       511-7.23111E-05 5.04734E-05-8.27181E-25
 -1       512-6.62886E-05 5.03530E-05 8.27181E-25
 -1       513-5.94186E-05-3.49779E-06 0.00000E+00
 -1       514-5.94432E-05-5.38265E-06 0.00000E+00
 -1       515-5.94640E-05-4.75662E-06 0.00000E+00
 -1       516-5.94851E-05-2.72629E-06-2.06795E-25
 -1       517-5.95064E-05-3.97405E-07 3.30872E-24
 -1       518-5.95266E-05 1.12432E-06 0.00000E+00
 -1       519-5.95475E-05 7.32236E-07 0.00000E+00
 -1       520-4.99154E-05 1.67777E-06 6.61744E-24
 -1       521-3.91052E-05 1.33840E-06-3.30872E-24
 -1       522-2.78243E-05 9.94050E-07 0.00000E+00
 -1       523-1.69577E-05 6.51993E-07 3.30872E-24
 -1       524-7.39017E-06 3.21425E-07-1.32349E-23
 -1       525-5.95971E-05-6.13571E-06 0.00000E+00
 -1       526-5.96097E-05-6.54987E-06 0.00000E+00
 -1       527-5.96218E-05-4.92169E-06 0.00000E+00
 -1       528-5.96354E-05-2.26202E-06-2.06795E-25
 -1       529-5.96490E-05 4.19107E-07 0.00000E+00
 -1       530-5.96609E-05 2.11166E-06 0.00000E+00
 -1       531-5.96732E-05 1.80479E-06 0.00000E+00
 -1       532-5.16465E-05-2.73110E-06-6.61744E-24
 -1       533-4.14056E-05-2.80656E-06 0.00000E+00
 -1       534-3.02341E-05-2.89094E-06 1.65436E-24
 -1       535-1.95174E-05-2.97272E-06-1.65436E-24
 -1       536-1.06413E-05-3.03948E-06 1.65436E-24
 -1       537-5.96841E-05-4.89045E-06 0.00000E+00
 -1       538-5.96679E-05-5.35699E-06 0.00000E+00
 -1       539-5.96511E-05-3.87234E-06 3.30872E-24
 -1       540-5.96356E-05-1.40801E-06 0.00000E+00
 -1       541-5.96200E-05 1.06551E-06 0.00000E+00
 -1       542-5.96030E-05 2.57765E-06 0.00000E+00
 -1       543-5.95866E-05 2.15695E-06 0.00000E+00
 -1       544-5.21033E-05-1.53942E-06 6.61744E-24
 -1       545-4.23884E-05-1.58849E-06 0.00000E+00
 -1       546-3.18251E-05-1.64515E-06-4.13590E-25
 -1       547-2.16957E-05-1.69873E-06-8.27181E-25
 -1       548-1.32827E-05-1.73895E-06-3.30872E-24
 -1       549-5.95394E-05-4.50342E-06 0.00000E+00
 -1       550-5.94934E-05-4.96866E-06 0.00000E+00
 -1       551-5.94468E-05-3.51238E-06 0.00000E+00
 -1       552-5.94013E-05-1.09329E-06-8.27181E-25
 -1       553-5.93557E-05 1.33088E-06-1.65436E-24
 -1       554-5.93090E-05 2.80248E-06 0.00000E+00
 -1       555-5.92628E-05 2.36276E-06 0.00000E+00
 -1       556-5.21205E-05-1.18898E-06 0.00000E+00
 -1       557-4.26023E-05-1.23106E-06 0.00000E+00
 -1       558-3.22643E-05-1.28014E-06 0.00000E+00
 -1       559-2.23530E-05-1.32545E-06 0.00000E+00
 -1       560-1.41151E-05-1.35793E-06 0.00000E+00
 -1       561-5.91702E-05-4.24485E-06 0.00000E+00
 -1       562-5.91080E-05-4.67851E-06 0.00000E+00
 -1       563-5.90454E-05-3.19708E-06 0.00000E+00
 -1       564-5.89838E-05-7.59164E-07 0.00000E+00
 -1       565-5.89222E-05 1.67768E-06 0.00000E+00
 -1       566-5.88595E-05 3.15590E-06 8.27181E-25
 -1       567-5.87973E-05 2.71688E-06 0.00000E+00
 -1       568-5.17509E-05-9.64440E-07 0.00000E+00
 -1       569-4.21442E-05-1.00355E-06 4.13590E-25
 -1       570-3.16742E-05-1.04991E-06 0.00000E+00
 -1       571-2.16157E-05-1.09173E-06 0.00000E+00
 -1       572-1.32438E-05-1.12033E-06 0.00000E+00
 -1       573-5.87054E-05-3.86654E-06 0.00000E+00
 -1       574-5.86607E-05-4.22800E-06-3.30872E-24
 -1       575-5.86155E-05-2.65416E-06 0.00000E+00
 -1       576-5.85716E-05-1.26477E-07 0.00000E+00
 -1       577-5.85277E-05 2.37469E-06 0.00000E+00
 -1       578-5.84825E-05 3.86893E-06 0.00000E+00
 -1       579-5.84380E-05 3.37478E-06 0.00000E+00
 -1       580-5.10749E-05-6.07152E-07 0.00000E+00
 -1       581-4.10540E-05-6.39519E-07-4.13590E-25
 -1       582-3.00525E-05-6.80283E-07 0.00000E+00
 -1       583-1.94474E-05-7.15511E-07 3.30872E-24
 -1       584-1.06164E-05-7.36034E-07 0.00000E+00
 -1       585-5.84266E-05-3.71234E-06 0.00000E+00
 -1       586-5.84468E-05-4.57717E-06 0.00000E+00
 -1       587-5.84657E-05-3.56454E-06 0.00000E+00
 -1       588-5.84859E-05-1.56569E-06 1.03398E-25
 -1       589-5.85063E-05 5.28859E-07 0.00000E+00
 -1       590-5.85260E-05 1.82860E-06 0.00000E+00
 -1       591-5.85462E-05 1.44228E-06 0.00000E+00
 -1       592-5.03085E-05-5.42127E-08 0.00000E+00
 -1       593-3.95918E-05-4.45052E-08-8.27181E-25
 -1       594-2.77244E-05-4.61785E-08 0.00000E+00
 -1       595-1.61851E-05-4.56491E-08 0.00000E+00
 -1       596-6.45261E-06-2.89840E-08 0.00000E+00
 -1       597-5.86353E-05-4.63329E-06 0.00000E+00
 -1       598-5.86929E-05-5.28563E-06 0.00000E+00
 -1       599-5.87497E-05-4.21989E-06 8.27181E-25
 -1       600-5.88076E-05-2.18780E-06-4.13590E-25
 -1       601-5.88657E-05 5.93466E-08 0.00000E+00
 -1       602-5.89227E-05 1.77017E-06 1.65436E-24
 -1       603-5.89791E-05 2.19285E-06 0.00000E+00
 -1       604-5.16773E-05-1.56555E-06 0.00000E+00
 -1       605-4.26423E-05-1.62988E-06-3.30872E-24
 -1       606-3.26900E-05-1.70258E-06-3.30872E-24
 -1       607-2.30474E-05-1.77665E-06-1.65436E-24
 -1       608-1.49415E-05-1.83961E-06-6.61744E-24
 -1       609-5.91374E-05 1.26520E-07 0.00000E+00
 -1       610-5.92470E-05 3.36151E-06 0.00000E+00
 -1       611-5.93650E-05 9.09211E-06 4.13590E-25
 -1       612-5.94907E-05 1.61170E-05-1.65436E-24
 -1       613-5.96169E-05 2.32356E-05 0.00000E+00
 -1       614-5.97368E-05 2.92471E-05 0.00000E+00
 -1       615-5.98482E-05 3.29502E-05 0.00000E+00
 -1       616-5.35569E-05 6.21376E-07 0.00000E+00
 -1       617-4.56160E-05 6.50541E-07 0.00000E+00
 -1       618-3.66173E-05 6.71562E-07 0.00000E+00
 -1       619-2.79710E-05 6.92067E-07 8.27181E-25
 -1       620-2.10874E-05 7.23345E-07-4.54949E-24
 -1       621-6.00098E-05 3.30674E-05 0.00000E+00
 -1       622-6.00683E-05 3.61253E-05 0.00000E+00
 -1       623-6.01332E-05 4.12744E-05-8.27181E-25
 -1       624-6.02031E-05 4.74569E-05 0.00000E+00
 -1       625-6.02728E-05 5.36156E-05 0.00000E+00
 -1       626-6.03374E-05 5.86938E-05 0.00000E+00
 -1       627-6.03956E-05 6.16336E-05 0.00000E+00
 -1       628-5.50967E-05 3.31132E-05 0.00000E+00
 -1       629-4.76931E-05 3.30631E-05 0.00000E+00
 -1       630-3.92630E-05 3.30060E-05-1.65436E-24
 -1       631-3.13328E-05 3.29506E-05-4.13590E-25
 -1       632-2.54284E-05 3.29058E-05-1.65436E-24
 -1       633-6.04865E-05 6.02353E-05 0.00000E+00
 -1       634-6.05188E-05 6.10241E-05 0.00000E+00
 -1       635-6.05520E-05 6.30641E-05 4.13590E-25
 -1       636-6.05861E-05 6.56651E-05 0.00000E+00
 -1       637-6.06200E-05 6.81371E-05 0.00000E+00
 -1       638-6.06526E-05 6.97903E-05 0.00000E+00
 -1       639-6.06848E-05 6.99345E-05 0.00000E+00
 -1       640-5.59039E-05 6.13328E-05 0.00000E+00
 -1       641-4.93135E-05 6.12727E-05 0.00000E+00
 -1       642-4.18739E-05 6.12076E-05 0.00000E+00
 -1       643-3.47832E-05 6.11437E-05-1.24077E-24
 -1       644-2.92392E-05 6.10875E-05-3.30872E-24
 -1       645-6.07395E-05 6.49545E-05-8.27181E-25
 -1       646-6.07546E-05 6.29528E-05-4.13590E-25
 -1       647-6.07685E-05 6.15194E-05 1.03398E-25
 -1       648-6.07820E-05 6.02929E-05 0.00000E+00
 -1       649-6.07958E-05 5.89124E-05 0.00000E+00
 -1       650-6.08106E-05 5.70168E-05 0.00000E+00
 -1       651-6.08277E-05 5.42450E-05 0.00000E+00
 -1       652-5.59190E-05 6.78315E-05 3.30872E-24
 -1       653-4.99040E-05 6.77736E-05 0.00000E+00
 -1       654-4.33857E-05 6.77129E-05 1.65436E-24
 -1       655-3.70768E-05 6.76531E-05 2.06795E-25
 -1       656-3.16900E-05 6.75980E-05-1.65436E-24
 -1       657-5.55524E-05 5.01887E-05-1.65436E-24
 -1       658-4.98491E-05 5.01381E-05 8.27181E-25
 -1       659-4.40095E-05 5.00868E-05 8.27181E-25
 -1       660-3.83032E-05 5.00363E-05-4.13590E-25
 -1       661-3.30003E-05 4.99878E-05-4.13590E-25
 -1       662-6.26117E-07-3.94934E-06-1.32349E-23
 -1       663-1.25223E-06-5.51265E-06 0.00000E+00
 -1       664-1.87621E-06-5.36670E-06 0.00000E+00
 -1       665-2.50112E-06-4.19885E-06-6.61744E-24
 -1       666-3.12612E-06-2.69851E-06 0.00000E+00
 -1       667-3.74932E-06-1.55630E-06 0.00000E+00
 -1       668-4.37239E-06-1.46246E-06 1.32349E-23
 -1       669-5.34711E-06-4.87814E-06 1.32349E-23
 -1       670-5.70805E-06-5.00318E-06-3.30872E-24
 -1       671-6.06887E-06-4.02040E-06 6.61744E-24
 -1       672-6.43013E-06-2.48061E-06 6.61744E-24
 -1       673-6.79118E-06-9.35004E-07 1.32349E-23
 -1       674-7.15058E-06 6.52251E-08-6.61744E-24
 -1       675-7.50990E-06-3.07649E-08 0.00000E+00
 -1       676-7.98317E-06-3.56042E-06-1.65436E-24
 -1       677-8.09981E-06-3.78296E-06-8.27181E-25
 -1       678-8.21623E-06-2.95554E-06 3.30872E-24
 -1       679-8.33266E-06-1.60134E-06 1.65436E-24
 -1       680-8.44891E-06-2.43331E-07-3.30872E-24
 -1       681-8.56401E-06 5.95471E-07 0.00000E+00
 -1       682-8.67917E-06 3.91871E-07 0.00000E+00
 -1       683-8.67770E-06-3.14233E-06 0.00000E+00
 -1       684-8.55710E-06-3.35643E-06-3.30872E-24
 -1       685-8.43627E-06-2.53505E-06 0.00000E+00
 -1       686-8.31508E-06-1.19939E-06 0.00000E+00
 -1       687-8.19369E-06 1.30025E-07 0.00000E+00
 -1       688-8.07155E-06 9.32702E-07 1.65436E-24
 -1       689-7.94949E-06 6.87387E-07-3.30872E-24
 -1       690-7.47526E-06-2.90868E-06 0.00000E+00
 -1       691-7.11221E-06-3.09591E-06 0.00000E+00
 -1       692-6.74892E-06-2.22285E-06 1.32349E-23
 -1       693-6.38492E-06-8.26352E-07 0.00000E+00
 -1       694-6.02070E-06 5.57926E-07 0.00000E+00
 -1       695-5.65602E-06 1.39432E-06-3.30872E-24
 -1       696-5.29145E-06 1.14587E-06 6.61744E-24
 -1       697-4.32022E-06-2.48018E-06-1.32349E-23
 -1       698-3.69567E-06-2.49781E-06 0.00000E+00
 -1       699-3.07129E-06-1.38315E-06-1.32349E-23
 -1       700-2.44659E-06 2.58101E-07-6.61744E-24
 -1       701-1.82243E-06 1.82218E-06 1.32349E-23
 -1       702-1.20202E-06 2.70500E-06 0.00000E+00
 -1       703-5.82347E-07 2.30021E-06 3.30872E-24
 -1       704-1.16220E-06-2.44706E-06 1.32349E-23
 -1       705-2.36569E-06-3.17230E-06-1.32349E-23
 -1       706-3.56893E-06-2.71310E-06-2.64698E-23
 -1       707-4.77797E-06-1.61877E-06 0.00000E+00
 -1       708-5.98773E-06-4.41271E-07 0.00000E+00
 -1       709-7.19558E-06 2.66857E-07 0.00000E+00
 -1       710-8.40383E-06-4.50591E-08-2.64698E-23
 -1       711-1.05620E-05-3.91813E-06-2.64698E-23
 -1       712-1.15380E-05-4.42125E-06-1.32349E-23
 -1       713-1.25136E-05-3.83564E-06 0.00000E+00
 -1       714-1.34907E-05-2.57919E-06-1.32349E-23
 -1       715-1.44677E-05-1.07216E-06 2.64698E-23
 -1       716-1.54423E-05 2.63722E-07-1.32349E-23
 -1       717-1.64163E-05 1.00715E-06 2.64698E-23
 -1       718-1.80725E-05 1.42853E-06-1.32349E-23
 -1       719-1.87837E-05 4.55242E-06-6.61744E-24
 -1       720-1.95004E-05 9.37846E-06 0.00000E+00
 -1       721-2.02221E-05 1.51596E-05 0.00000E+00
 -1       722-2.09447E-05 2.11466E-05-2.64698E-23
 -1       723-2.16628E-05 2.65896E-05 0.00000E+00
 -1       724-2.23756E-05 3.07394E-05 0.00000E+00
 -1       725-2.34857E-05 3.47124E-05 1.32349E-23
 -1       726-2.39074E-05 3.82688E-05 6.61744E-24
 -1       727-2.43327E-05 4.29171E-05 0.00000E+00
 -1       728-2.47601E-05 4.80428E-05 6.61744E-24
 -1       729-2.51867E-05 5.30307E-05 0.00000E+00
 -1       730-2.56090E-05 5.72665E-05 0.00000E+00
 -1       731-2.60273E-05 6.01361E-05 0.00000E+00
 -1       732-2.66231E-05 6.12692E-05-3.30872E-24
 -1       733-2.68112E-05 6.24676E-05 3.30872E-24
 -1       734-2.70000E-05 6.42309E-05-6.61744E-24
 -1       735-2.71887E-05 6.61597E-05-3.30872E-24
 -1       736-2.73770E-05 6.78543E-05 0.00000E+00
 -1       737-2.75640E-05 6.89159E-05 0.00000E+00
 -1       738-2.77507E-05 6.89452E-05 0.00000E+00
 -1       739-2.79904E-05 6.54448E-05 0.00000E+00
 -1       740-2.80437E-05 6.36800E-05 0.00000E+00
 -1       741-2.80966E-05 6.20702E-05-1.65436E-24
 -1       742-2.81494E-05 6.04325E-05 8.27181E-25
 -1       743-2.82025E-05 5.85836E-05 0.00000E+00
 -1       744-2.82563E-05 5.63407E-05 0.00000E+00
 -1       745-2.83116E-05 5.35208E-05 0.00000E+00
 -3
    1PSTEP                         2           1           1          
  100CL  101 1.000000000         641                     0    1           1
 -4  STRESS      6    1
 -5  SXX         1    4    1    1
 -5  SYY         1    4    2    2
 -5  SZZ         1    4    3    3
 -5  SXY         1    4    1    2
 -5  SYZ         1    4    2    3
 -5  SZX         1    4    3    1
 -1         1 3.13162E+06 1.12503E+06-1.15850E+04 1.16769E+06 8.73115E-11 3.45608E-09
 -1         2 3.79959E+06 2.51746E+05-8.10028E+03 7.51433E+05 4.07454E-10 2.73024E-08
 -1         3 3.04329E+06 2.50542E+05-5.83164E+03 6.07078E+05 1.68802E-09-1.16949E-08
 -1         4 2.40894E+06 2.02485E+05-4.56988E+03 5.15260E+05 3.49246E-10 3.06833E-09
 -1         5 1.86170E+06 1.61986E+05-3.76711E+03 4.52477E+05-9.89530E-10-1.41254E-08
 -1         6 1.37443E+06 1.35594E+05-3.22284E+03 4.11767E+05 1.05744E-09-6.87093E-09
 -1         7 9.26530E+05 1.17203E+05-2.79058E+03 3.84214E+05-2.65815E-09-1.09061E-08
 -1         8 4.84760E+05 4.57757E+04-2.74786E+03 3.83319E+05 6.83940E-10-1.80595E-08
 -1         9 1.79407E+05-5.88974E+04-3.51123E+03 3.57502E+05 3.78350E-10-2.09111E-08
 -1        14 3.87598E+05 6.22766E+05-1.39114E+04 1.55575E+06-1.94026E-10-1.35800E-08
 -1        15 5.39010E+05-5.88357E+04-1.73909E+04 1.65871E+06 2.08820E-09-9.66975E-09
 -1        16 6.54672E+05 4.09365E+04-1.29179E+04 1.42677E+06 2.42289E-09-9.72233E-09
 -1        17 6.77477E+05 6.26683E+04-1.07650E+04 1.30741E+06 2.61934E-09 8.70949E-09
 -1        18 6.44150E+05 7.06513E+04-9.25658E+03 1.22272E+06-9.62973E-09 1.87492E-08
 -1        19 5.73751E+05 8.46665E+04-8.21602E+03 1.17373E+06-5.10045E-09-3.14174E-10
 -1        20 4.73673E+05 1.04857E+05-7.44288E+03 1.14608E+06-6.82485E-09-3.48592E-10
 -1        21 3.30627E+05-2.74351E+03-8.29318E+03 1.22159E+06-1.00663E-08-1.06218E-08
 -1        22 1.93229E+05 9.75455E+04-7.50520E+03 1.14690E+06-5.79651E-10 6.87186E-09
 -1        27 5.71811E+04 8.30727E+04-4.97319E+03 8.74687E+05-1.35818E-10 9.56770E-09
 -1        28 1.05679E+05-5.19188E+04-8.37931E+03 1.28496E+06 3.17596E-09 1.90033E-09
 -1        29 2.03521E+05 5.16670E+03-8.01509E+03 1.25152E+06 2.97587E-09 3.64474E-09
 -1        30 2.91881E+05 2.98966E+04-7.67775E+03 1.22535E+06 2.73576E-09 3.28720E-09
 -1        31 3.82842E+05 4.89134E+04-7.30552E+03 1.19993E+06-9.66975E-09 2.04125E-10
 -1        32 4.87681E+05 8.10099E+04-6.81056E+03 1.17315E+06-5.31145E-09-7.76822E-10
 -1        33 6.25451E+05 1.34164E+05-6.01260E+03 1.13539E+06-4.68208E-09-2.54687E-09
 -1        34 7.91706E+05 3.10946E+04-6.08264E+03 1.11731E+06-1.05429E-08 9.77212E-09
 -1        35 1.00799E+06 3.29596E+05-4.81143E+03 1.13164E+06 3.74348E-09 4.85466E-09
 -1        36 1.12719E+06 7.34557E+04-4.71258E+03 1.04993E+06-7.44088E-09-4.48351E-09
 -1        37 5.94992E+05-2.97760E+04-2.79789E+03 7.04750E+05-2.06637E-09-5.06861E-09
 -1        38 2.37703E+05-6.15653E+04-1.28205E+03 4.35224E+05-1.11904E-08 3.47457E-09
 -1        39 6.66789E+04-1.22437E+05-7.83023E+02 2.46618E+05-3.83843E-08 1.53233E-08
 -1        40-1.56331E+04-3.25929E+05-2.98040E+03 8.16644E+05-1.14960E-09 5.91547E-09
 -1        41 1.90638E+03-4.40095E+04-4.00340E+03 1.09721E+06 5.60249E-10 2.27743E-09
 -1        42 2.76713E+04-7.63219E+03-4.48055E+03 1.04525E+06 7.31234E-10 1.12931E-09
 -1        43 6.45343E+04 5.80813E+03-5.00998E+03 1.01936E+06 1.31695E-09 1.02942E-08
 -1        44 9.37010E+04 1.47508E+04-5.71513E+03 1.01327E+06-8.95670E-09 3.23712E-09
 -1        45 9.46782E+04 2.98444E+04-6.61029E+03 1.02474E+06-6.46105E-09 4.73710E-09
 -1        46 4.96670E+04 7.40098E+04-4.30584E+03 1.00007E+06-6.45014E-09 1.44553E-10
 -1        47-3.54533E+04-5.22709E+04-1.92734E+03 8.67202E+05-9.22410E-09 3.98529E-10
 -1        48-6.42444E+04 1.23543E+05-3.50737E+03 1.00663E+06 2.20462E-09 8.66066E-10
 -1        49-8.23378E+04-5.07921E+04-6.79041E+03 1.24042E+06-6.98128E-09-1.20201E-09
 -1        50-4.98907E+04-9.68370E+04-4.30057E+03 9.46510E+05 1.52195E-08-1.94206E-09
 -1        51-3.14210E+04-9.56187E+04-1.84206E+03 5.72527E+05-1.60253E-08 5.23144E-09
 -1        52-1.63750E+04-1.26195E+05-7.55040E+02 2.86645E+05-2.20237E-08 8.89559E-09
 -1        53-8.23889E+05-4.63986E+05-4.63634E+03 6.91128E+05-9.86802E-11 4.67480E-09
 -1        54-8.62349E+05-8.50392E+04-3.82178E+03 7.75949E+05 1.30740E-10 3.30328E-09
 -1        55-4.11865E+05-3.18807E+04-3.00423E+03 6.97556E+05-1.43526E-09 3.02922E-09
 -1        56 1.37876E+04 6.72330E+03-2.71782E+03 6.79552E+05 1.48179E-09 2.99769E-09
 -1        57 4.38829E+05 4.46425E+04-2.66957E+03 6.93395E+05-4.43371E-09 3.54339E-09
 -1        58 8.88362E+05 9.14893E+04-1.89693E+03 7.50616E+05-6.28825E-09-5.82077E-11
 -1        59-4.91856E+05 1.64880E+04-4.00260E+03 7.81117E+05 6.42081E-09-2.06152E-09
 -1        60-1.92278E+06-1.74997E+05-4.59246E+03 6.45530E+05-4.33018E-09 2.49808E-10
 -1        61-1.46595E+06-6.39801E+04-4.02079E+03 7.58482E+05-1.17143E-09 4.85064E-12
 -1        62-9.86141E+05-8.56443E+04-4.35213E+03 8.49813E+05-1.03114E-08 1.18356E-09
 -1        63-5.31405E+05-6.76236E+04-2.52980E+03 6.52678E+05 4.00306E-09-3.50701E-09
 -1        64-2.12285E+05-4.88212E+04-8.48435E+02 3.83343E+05-1.75838E-08-1.12535E-09
 -1        65-6.83343E+04-5.32638E+04-3.45499E+01 2.01128E+05-2.60443E-08-9.45874E-11
 -1        66 6.86106E+06-3.14956E+04 2.57510E+05 4.87198E-08 2.02130E-10 1.34169E-08
 -1        67 6.94442E+06 6.16243E+04 1.63663E+05 6.69279E-08 3.98456E-09 4.92819E-08
 -1        68 6.89670E+06-3.16788E+03 8.25045E+04-5.06712E-08-1.08814E-09-2.14641E-10
 -1        69 6.90941E+06 9.46806E+03 7.21588E+04 8.24684E-08-1.40062E-10-1.26022E-09
 -1        70 6.89650E+06-3.31137E+03 8.53179E+04 1.69341E-08 2.22977E-09-2.50511E-08
 -1        71 6.94686E+06 6.51108E+04 1.72089E+05-4.23061E-08-2.84133E-09-1.12341E-08
 -1        72 6.85877E+06-3.32880E+04 2.71899E+05-3.44007E-08-8.01807E-10-3.18687E-09
 -1        73 2.97965E+03 1.53461E+06-2.76796E+05 9.90593E+05 1.45519E-11-4.36557E-09
 -1        74-7.69910E+02 1.41946E+06-1.46198E+05 2.33683E+06-8.65839E-10 1.45592E-08
 -1        75 3.44400E+04 1.44102E+06-5.30173E+04 9.90613E+05 3.96540E-10-4.68572E-09
 -1        76 9.63861E+04 1.39266E+06-2.13769E+03 2.33279E+06-8.80391E-10 2.05546E-10
 -1        77 2.08901E+04 1.43571E+06 2.74245E+04 9.92528E+05-5.09317E-11-1.47556E-08
 -1        78 5.49360E+06-1.74067E+04 1.42461E+05 9.66647E-08-2.72420E-10 1.15251E-08
 -1        79 5.53949E+06 3.40461E+04 9.20135E+04 2.29451E-07-2.24544E-10 1.78652E-08
 -1        80 5.51310E+06-1.82578E+03 4.92839E+04 1.44675E-07-4.55656E-10 2.76414E-08
 -1        81 5.52110E+06 6.33239E+03 4.81347E+04-2.48308E-08 1.78222E-10-1.77934E-08
 -1        82 5.51217E+06-2.51067E+03 6.26644E+04-8.31449E-09 6.18123E-10-1.19380E-08
 -1        83 5.55113E+06 5.06598E+04 1.32110E+05 6.13145E-08 4.18512E-09-1.18471E-08
 -1        84 5.48275E+06-2.59775E+04 2.10886E+05 1.36073E-07-2.59641E-09 2.22208E-08
 -1        85 3.16978E+04-2.82917E+05-4.32281E+05 9.46154E+05 7.56700E-10-9.13860E-09
 -1        86-4.72098E+04-4.51601E+05-2.56953E+05 2.26127E+06 6.63567E-09-1.57670E-08
 -1        87 3.36725E+04-3.84852E+05-1.22376E+05 9.42061E+05 2.27919E-09-5.19503E-09
 -1        88 4.52748E+04-4.43574E+05-9.73576E+04 2.26161E+06 5.99539E-09 2.04018E-08
 -1        89 2.26107E+04-3.65275E+05-1.05280E+05 9.44981E+05 2.63299E-09 3.65253E-09
 -1        90 4.37956E+06-1.30896E+04 1.06996E+05 1.09556E-07 4.90101E-09 7.19592E-09
 -1        91 4.41399E+06 2.55786E+04 6.93624E+04 7.58946E-08-2.67297E-09 1.69348E-08
 -1        92 4.39416E+06-1.38622E+03 3.76427E+04-1.35936E-08 1.60279E-10-1.28202E-08
 -1        93 4.40034E+06 4.95600E+03 3.75930E+04-3.12438E-08-3.91754E-09 1.85071E-09
 -1        94 4.39331E+06-2.00968E+03 4.97891E+04 2.51714E-08 1.61378E-09-3.71256E-09
 -1        95 4.42457E+06 4.06800E+04 1.05776E+05-3.40951E-08 4.14865E-09-1.53013E-08
 -1        96 4.36972E+06-2.08940E+04 1.69120E+05 6.76991E-08-3.30811E-09-1.26383E-08
 -1        97 2.55381E+04-3.73417E+04-3.31816E+05 7.65537E+05-1.57161E-09 2.91038E-10
 -1        98-4.23317E+04-1.63263E+05-1.99818E+05 1.82609E+06 3.61251E-09 1.18307E-08
 -1        99 2.31256E+04-1.11784E+05-9.77744E+04 7.62644E+05 2.58296E-10 1.35879E-08
 -1       100 2.55105E+04-1.58381E+05-8.33805E+04 1.82643E+06 2.65572E-09-6.87123E-09
 -1       101 1.96775E+04-9.81173E+04-9.28942E+04 7.64666E+05 1.96269E-09 2.07001E-08
 -1       102 3.43360E+06-9.91649E+03 8.09649E+04 9.33414E-09-4.87804E-10 1.91649E-08
 -1       103 3.45962E+06 1.93617E+04 5.26475E+04 2.84135E-08-2.70451E-09-4.03179E-09
 -1       104 3.44460E+06-1.05839E+03 2.88776E+04 6.91271E-08 1.80627E-09-1.77961E-08
 -1       105 3.44940E+06 3.87618E+03 2.93497E+04-2.95843E-08-1.30042E-09-3.10916E-08
 -1       106 3.44388E+06-1.59888E+03 3.93830E+04-4.87626E-09-2.28400E-09-1.84627E-09
 -1       107 3.46878E+06 3.24371E+04 8.41530E+04 8.02011E-08 3.73832E-09 1.13032E-08
 -1       108 3.42509E+06-1.66817E+04 1.34708E+05-3.86062E-08 2.87583E-09-6.67933E-09
 -1       109 2.05385E+04-1.00466E+04-2.61648E+05 6.49948E+05-8.11997E-09-4.33647E-09
 -1       110-3.57995E+04-1.07962E+05-1.59615E+05 1.54961E+06-5.77529E-09 3.21415E-08
 -1       111 1.72828E+04-6.70381E+04-8.11403E+04 6.47493E+05-1.59780E-08-1.05902E-08
 -1       112 1.39436E+04-1.06266E+05-7.55096E+04 1.55010E+06-7.81438E-09 6.75936E-09
 -1       113 1.76820E+04-5.52241E+04-8.85690E+04 6.49115E+05-1.34369E-08-1.32131E-08
 -1       114 2.60321E+06-7.01246E+03 5.72547E+04-2.66500E-08-1.72429E-09-1.82117E-08
 -1       115 2.62158E+06 1.36875E+04 3.74469E+04 5.32355E-08 3.32599E-09-1.07539E-08
 -1       116 2.61096E+06-7.59875E+02 2.09635E+04 7.42416E-08-1.12472E-09-2.90538E-09
 -1       117 2.61450E+06 2.90850E+03 2.19879E+04-6.50580E-08 5.41845E-09-1.21904E-08
 -1       118 2.61032E+06-1.23477E+03 3.01759E+04-1.16567E-07-1.84889E-11-1.32559E-08
 -1       119 2.62963E+06 2.51649E+04 6.50834E+04-6.87205E-08 1.34453E-10 1.46929E-08
 -1       120 2.59575E+06-1.29588E+04 1.04389E+05 5.08708E-08-6.43421E-10-8.66567E-09
 -1       121 1.53696E+04 1.06864E+04-2.01979E+05 5.70895E+05-7.47968E-09-9.34233E-09
 -1       122-2.75048E+04-6.47100E+04-1.24209E+05 1.36056E+06-1.87756E-08-1.77970E-08
 -1       123 1.35499E+04-3.34730E+04-6.53641E+04 5.68716E+05-1.62618E-08-2.43781E-08
 -1       124 8.69356E+03-6.66096E+04-6.51289E+04 1.36111E+06-2.32394E-08-3.64780E-08
 -1       125 1.56824E+04-2.32225E+04-7.95958E+04 5.70086E+05-1.43191E-08 1.84082E-09
 -1       126 1.84793E+06-4.13313E+03 3.38587E+04 1.06420E-08-1.98822E-09 1.00863E-08
 -1       127 1.85875E+06 8.07571E+03 2.25038E+04-1.18550E-08 2.26606E-09 9.43464E-09
 -1       128 1.85246E+06-4.67010E+02 1.33008E+04-7.80973E-08-1.78518E-09 2.60607E-08
 -1       129 1.85481E+06 1.99283E+03 1.50439E+04 4.35519E-08-4.07375E-09 1.60162E-08
 -1       130 1.85188E+06-9.00216E+02 2.16885E+04 2.66149E-08 1.28804E-10 2.01962E-08
 -1       131 1.86608E+06 1.85351E+04 4.76739E+04 3.25281E-08 4.75059E-09-2.55241E-08
 -1       132 1.84115E+06-9.55841E+03 7.67789E+04-1.88784E-08-1.28391E-09-1.19253E-08
 -1       133 9.88910E+03 5.91745E+04-1.47154E+05 5.19726E+05-1.28057E-09-6.30098E-09
 -1       134-1.77518E+04 3.48236E+03-9.05836E+04 1.23787E+06-1.05319E-08-1.26602E-09
 -1       135 1.10649E+04 2.51867E+04-4.92518E+04 5.17756E+05 9.84073E-10 1.81535E-08
 -1       136 7.82722E+03-2.29657E+03-5.18437E+04 1.23842E+06-1.69966E-08-1.05319E-08
 -1       137 1.34945E+04 3.37402E+04-6.57520E+04 5.18963E+05 2.53931E-09-9.45874E-10
 -1       138 1.14343E+06-1.30216E+03 1.10191E+04-3.95335E-09 9.43982E-10-5.76438E-09
 -1       139 1.14685E+06 2.57657E+03 8.11925E+03-8.66005E-08 1.14965E-09-1.24223E-08
 -1       140 1.14479E+06-1.89900E+02 6.33920E+03-1.48389E-08-2.24054E-09 3.97341E-09
 -1       141 1.14613E+06 1.25019E+03 9.42519E+03-5.44674E-10-2.56848E-09 2.56196E-08
 -1       142 1.14416E+06-6.68109E+02 1.55823E+04 3.80138E-08 2.73051E-09 1.63227E-08
 -1       143 1.15494E+06 1.41120E+04 3.58637E+04-6.30189E-09-5.07282E-09-1.56838E-08
 -1       144 1.13596E+06-7.29101E+03 5.83243E+04-7.66522E-09 1.66046E-09 7.20320E-09
 -1       145 4.23762E+03 1.21744E+05-9.57279E+04 4.85180E+05-4.99858E-09-7.07223E-09
 -1       146-7.38948E+03 8.40557E+04-5.83188E+04 1.15478E+06-1.75351E-08-1.19217E-08
 -1       147 9.25962E+03 9.62718E+04-3.30297E+04 4.83365E+05-2.13076E-08 2.77942E-09
 -1       148 9.58992E+03 7.40863E+04-3.67621E+04 1.15530E+06-1.62509E-08 2.39688E-08
 -1       149 1.13023E+04 1.02814E+05-4.87310E+04 4.84454E+05-2.37724E-08-1.12777E-09
 -1       150 4.40292E+05 9.61994E+02-7.33916E+03 8.64748E-09-1.10214E-09 5.04770E-11
 -1       151 4.37805E+05-1.82769E+03-3.76141E+03-1.05835E-07-4.47715E-09-1.53059E-08
 -1       152 4.39155E+05 4.84884E+01-5.77159E+01-2.14348E-08-1.06495E-09-8.50400E-09
 -1       153 4.39442E+05 4.11704E+02 3.09970E+03 1.24352E-08-2.49091E-10 1.05641E-08
 -1       154 4.38652E+05-3.31119E+02 7.26728E+03 2.92525E-08 2.27524E-10 1.36242E-08
 -1       155 4.44219E+05 7.32170E+03 1.82315E+04 5.49392E-08 2.49548E-09 1.06793E-08
 -1       156 4.34374E+05-3.79322E+03 3.01537E+04 2.28192E-08 1.05820E-09-1.09867E-09
 -1       157-9.25546E+01-9.21192E+03-5.88400E+04 4.83683E+05 1.03391E-08-4.46744E-09
 -1       158 1.46918E+03-3.48397E+04-3.47192E+04 1.15208E+06-1.37807E-08-3.35785E-09
 -1       159 8.63818E+03-2.94257E+04-2.08421E+04 4.81671E+05 2.07438E-08 4.09636E-09
 -1       160 1.26858E+04-4.78024E+04-2.48166E+04 1.15276E+06-1.76078E-08 9.98261E-09
 -1       161 9.42751E+03-2.38241E+04-3.51533E+04 4.82809E+05 1.90503E-08-3.09665E-08
 -1       169-2.23897E+03-2.07845E+05-3.83418E+04 3.01062E+05 8.93488E-09-1.76224E-08
 -1       170-2.22094E+03-2.20056E+05-2.51500E+04 7.17062E+05 2.04818E-08 1.93904E-09
 -1       171 3.85070E+03-2.20299E+05-2.03616E+04 2.99130E+05 2.60479E-08 9.69885E-09
 -1       172 1.18186E+03-2.38305E+05-3.18944E+04 7.18649E+05 2.73176E-08 4.00905E-09
 -1       173 1.15331E+04-2.16992E+05-4.77126E+04 2.99303E+05 3.18978E-08-1.22611E-08
 -1       215 9.92617E+05-3.60784E+04-1.99948E+04 6.48155E+05-2.00816E-09 1.10667E-08
 -1       216 1.00253E+06-1.11831E+04-4.48433E+02 1.54775E+06-1.51340E-09-1.09940E-08
 -1       217 9.58874E+05-1.45149E+03 5.96092E+02 6.47894E+05 1.88447E-09-1.03973E-08
 -1       218 9.49953E+05 1.25564E+04 7.68738E+03 1.54822E+06 1.65164E-09-1.30967E-10
 -1       219 9.52838E+05 3.35521E+03 1.18651E+04 6.48233E+05 3.65253E-09 1.31622E-08
 -1       220 9.81880E+05 1.31820E+04 2.85966E+04 1.54687E+06-3.76895E-09-1.05501E-08
 -1       221 9.69063E+05-2.58554E+04 3.48823E+04 6.49202E+05-4.22006E-10-1.60799E-08
 -1       222 1.41275E+04 4.97757E+05-4.48042E+04 3.35131E+05 4.40195E-10-1.31949E-08
 -1       223 1.31559E+04 4.69465E+05-2.29700E+04 7.90031E+05 1.85537E-10-1.95514E-08
 -1       224 9.58159E+03 4.89926E+05-2.70981E+03 3.34413E+05 5.07498E-10-1.23364E-08
 -1       225 2.82090E+04 4.89319E+05 1.56763E+04 7.89884E+05-9.64064E-10-1.58434E-08
 -1       226-1.49076E+03 4.90507E+05 3.00404E+04 3.35433E+05 5.09317E-10-1.85319E-08
 -1       227 1.33897E+06-2.68194E+04 7.33099E+04 4.98217E+05-2.66300E-09 5.64614E-09
 -1       228 1.36768E+06 1.78651E+04 5.15994E+04 1.18808E+06-1.51704E-09-6.99947E-09
 -1       229 1.33343E+06 1.24612E+02 2.43134E+04 4.98167E+05-1.34605E-09 1.46938E-08
 -1       230 1.33191E+06 1.06156E+04 2.05895E+04 1.18810E+06 1.29739E-09 9.62973E-09
 -1       231 1.33328E+06 7.36919E+02 2.05534E+04 4.98216E+05 4.18368E-10-4.94038E-09
 -1       232 1.36203E+06 1.39734E+04 3.99435E+04 1.18795E+06-3.84171E-09-6.99220E-09
 -1       233 1.34088E+06-2.30203E+04 5.38501E+04 4.98301E+05 3.21597E-09 2.91038E-10
 -1       234 1.34323E+04-1.49721E+05-6.53438E+04 6.86183E+05 1.18962E-09 8.10542E-09
 -1       235 3.39590E+04-1.99729E+05-3.60855E+04 1.63869E+06 7.50151E-09-1.13723E-08
 -1       236 2.23609E+04-1.71919E+05-1.83009E+04 6.83640E+05 3.52156E-09-4.26098E-09
 -1       237 4.17028E+04-1.89803E+05-1.64137E+04 1.63853E+06 6.62840E-09-7.24685E-09
 -1       238 5.62976E+03-1.53546E+05-2.72056E+04 6.86415E+05 4.25644E-09 1.83354E-09
 -1       239 1.47490E+06-2.34433E+04 6.72633E+04 4.57145E+05-4.32192E-09-4.51109E-10
 -1       240 1.50103E+06 1.61397E+04 4.72922E+04 1.09046E+06 2.82307E-09-2.02381E-08
 -1       241 1.47088E+06-7.47397E+01 2.29908E+04 4.57276E+05 4.59477E-09-4.72028E-09
 -1       242 1.47012E+06 9.24050E+03 2.05791E+04 1.09028E+06 3.00565E-09 2.00816E-09
 -1       243 1.47050E+06 4.00462E+02 2.23299E+04 4.57344E+05-2.43381E-09-1.63345E-09
 -1       244 1.49795E+06 1.61593E+04 4.49172E+04 1.09030E+06-3.21597E-09-6.62840E-09
 -1       245 1.47425E+06-2.15752E+04 6.36544E+04 4.57252E+05 2.24099E-09-2.89947E-09
 -1       246 1.36671E+04-3.51089E+04-7.51744E+04 6.71255E+05-2.91038E-10-8.55653E-09
 -1       247 2.84808E+04-8.64910E+04-4.26377E+04 1.60100E+06 3.56522E-09-9.73523E-09
 -1       248 2.13265E+04-5.84733E+04-2.18216E+04 6.68880E+05 4.54747E-10-1.81230E-08
 -1       249 3.81740E+04-7.72916E+04-2.02132E+04 1.60088E+06 1.46974E-09-4.08909E-09
 -1       250 6.35993E+03-4.09617E+04-3.11747E+04 6.71396E+05 3.34330E-09-1.36206E-08
 -1       251 1.45617E+06-2.05529E+04 6.24974E+04 4.23598E+05 3.46336E-09 6.32281E-09
 -1       252 1.47999E+06 1.50830E+04 4.37253E+04 1.01046E+06 2.96131E-09 1.24055E-09
 -1       253 1.45344E+06-8.21293E+01 2.15977E+04 4.23719E+05-7.72707E-09 6.29370E-09
 -1       254 1.45317E+06 8.20188E+03 1.97511E+04 1.01030E+06-4.90400E-09-1.45410E-08
 -1       255 1.45313E+06 1.67292E+02 2.21577E+04 4.23757E+05-4.31828E-09 6.08998E-09
 -1       256 1.47890E+06 1.63143E+04 4.51587E+04 1.01030E+06 1.85901E-09 1.38607E-08
 -1       257 1.45496E+06-2.00058E+04 6.52218E+04 4.23733E+05 4.64206E-09 1.34332E-09
 -1       258 1.26576E+04-2.90263E+02-7.67052E+04 6.61640E+05-1.62108E-08 6.89761E-09
 -1       259 2.55732E+04-5.06197E+04-4.43468E+04 1.57740E+06-7.71979E-09 7.37782E-09
 -1       260 2.05001E+04-2.39490E+04-2.40275E+04 6.59312E+05-2.13549E-08-1.51681E-09
 -1       261 3.46095E+04-4.43110E+04-2.49864E+04 1.57734E+06-9.97534E-09-7.29051E-09
 -1       262 7.57447E+03-6.49680E+03-3.83106E+04 6.61683E+05-1.46783E-08-2.46364E-08
 -1       263 1.33381E+06-1.80940E+04 5.40546E+04 4.02023E+05-5.89353E-09-1.18089E-08
 -1       264 1.35440E+06 1.31379E+04 3.80132E+04 9.58711E+05-2.80124E-09-1.13687E-08
 -1       265 1.33111E+06-3.82921E+00 1.89356E+04 4.01965E+05 1.50612E-09-4.90945E-09
 -1       266 1.33084E+06 7.37432E+03 1.76008E+04 9.58750E+05 8.64839E-09-3.25599E-09
 -1       267 1.33087E+06 1.05678E+02 2.00346E+04 4.01989E+05-4.25644E-10-3.99086E-09
 -1       268 1.35442E+06 1.48273E+04 4.11639E+04 9.58636E+05-1.57161E-09 7.75617E-09
 -1       269 1.33247E+06-1.82626E+04 5.95943E+04 4.02084E+05 1.45519E-10-5.90444E-09
 -1       270 1.14662E+04 1.60313E+04-7.32190E+04 6.54458E+05-1.66838E-08-5.06407E-09
 -1       271 2.45748E+04-3.20725E+04-4.31509E+04 1.55996E+06-3.12502E-08-3.96903E-09
 -1       272 1.98560E+04-6.98004E+03-2.52852E+04 6.52161E+05-2.30393E-08-3.63343E-09
 -1       273 3.11516E+04-2.86811E+04-2.98769E+04 1.55993E+06-2.92785E-08-1.89975E-08
 -1       274 8.68135E+03 1.11161E+04-4.66617E+04 6.54444E+05-1.60489E-08-1.88884E-08
 -1       275 1.13585E+06-1.57252E+04 4.10565E+04 3.92273E+05 2.47383E-10 5.47516E-09
 -1       276 1.15189E+06 1.01398E+04 2.96071E+04 9.35108E+05 8.36735E-11 5.22778E-09
 -1       277 1.13195E+06 1.90666E+02 1.48835E+04 3.91937E+05-3.37968E-09-1.08521E-08
 -1       278 1.13128E+06 6.69742E+03 1.42433E+04 9.35447E+05 1.29450E-09-5.92627E-09
 -1       279 1.13183E+06 1.40144E+02 1.63696E+04 3.91944E+05 6.07906E-09-9.09495E-11
 -1       280 1.15304E+06 1.20449E+04 3.40444E+04 9.35122E+05 4.84943E-09 4.50382E-09
 -1       281 1.13457E+06-1.66025E+04 4.86489E+04 3.92258E+05 1.77533E-09-8.05358E-09
 -1       282 9.90319E+03 5.69715E+04-6.44221E+04 6.55987E+05 3.27418E-11 1.76078E-09
 -1       283 2.60674E+04 1.21015E+04-3.86318E+04 1.56289E+06-2.07874E-08 1.41881E-10
 -1       284 1.96377E+04 3.52084E+04-2.51710E+04 6.53720E+05 2.06273E-09-1.03873E-08
 -1       285 2.87294E+04 1.23041E+04-3.40555E+04 1.56289E+06-2.57714E-08-1.20162E-08
 -1       286 9.66837E+03 5.45941E+04-5.50246E+04 6.55942E+05 4.29918E-09-8.49832E-09
 -1       287 8.69577E+05-1.31202E+04 2.38741E+04 3.78737E+05 2.03727E-09 1.01136E-09
 -1       288 8.80091E+05 5.73257E+03 1.89012E+04 9.02758E+05-1.51340E-09 1.31040E-08
 -1       289 8.63787E+05 2.33372E+02 1.03079E+04 3.78141E+05-5.23869E-10 2.27374E-09
 -1       290 8.62738E+05 5.94316E+03 1.16000E+04 9.03366E+05 3.71051E-09-7.61429E-09
 -1       291 8.63315E+05 1.54824E+02 1.49174E+04 3.78153E+05 2.31375E-09-8.32733E-09
 -1       292 8.83222E+05 1.17923E+04 3.25964E+04 9.02682E+05 7.20320E-09-5.05679E-09
 -1       293 8.65426E+05-1.55893E+04 4.73843E+04 3.78823E+05-3.47791E-09 2.01571E-08
 -1       294 8.06486E+03 1.32248E+05-5.02196E+04 6.68931E+05-2.11476E-08 9.60426E-10
 -1       295 3.04478E+04 9.13987E+04-3.08680E+04 1.59247E+06-2.53058E-08 1.03610E-08
 -1       296 2.00169E+04 1.12343E+05-2.40305E+04 6.66699E+05-3.59141E-08-3.45517E-09
 -1       297 2.72470E+04 8.80980E+04-3.84505E+04 1.59250E+06-1.99070E-08-5.96992E-09
 -1       298 1.06766E+04 1.34092E+05-6.50492E+04 6.68882E+05-3.24599E-08-1.09721E-08
 -1       299 5.42846E+05-1.38214E+04 1.51765E+04 4.79196E+05 8.29459E-09-8.76753E-09
 -1       300 5.48590E+05 6.49401E+03 1.39514E+04 1.14145E+06-6.54836E-10 1.65601E-08
 -1       301 5.33074E+05 1.96532E+03 7.04856E+03 4.77956E+05-8.32006E-09 7.42511E-09
 -1       302 5.31277E+05 7.87818E+03 7.20025E+03 1.14282E+06-2.92403E-09 3.39787E-09
 -1       303 5.35641E+05-6.31174E+02 6.76973E+03 4.77844E+05-1.22236E-09-3.19778E-09
 -1       304 5.63098E+05 1.16596E+03 1.54312E+04 1.14157E+06 1.35333E-09-1.16052E-08
 -1       305 5.50037E+05-2.21075E+04 1.51194E+04 4.79050E+05-4.84579E-09-3.04863E-09
 -1       306 7.71375E+03-1.56109E+05-5.64239E+04 7.09028E+05 2.57896E-08 5.38421E-10
 -1       307 3.26343E+04-2.01099E+05-3.71270E+04 1.69262E+06-2.54004E-08-1.93540E-09
 -1       308 2.22458E+04-1.78512E+05-3.31849E+04 7.06261E+05 3.41752E-08 3.91583E-09
 -1       309 2.33921E+04-2.10360E+05-5.88365E+04 1.69274E+06-2.75759E-08-1.78115E-08
 -1       310 1.50526E+04-1.50693E+05-9.89253E+04 7.08864E+05 2.60297E-08-3.36149E-09
 -1       318 7.50455E+03 4.78695E+05 1.19420E+04 6.67248E+05 3.92447E-08-5.48607E-09
 -1       319 5.05418E+04 4.54413E+05 3.84519E+03 1.58220E+06 4.31828E-08 2.68119E-08
 -1       320 2.02838E+04 4.73711E+05-1.36058E+04 6.65546E+05 4.94692E-08 1.27402E-08
 -1       321 2.27210E+04 4.54839E+05-4.22690E+04 1.58243E+06 3.65180E-08-4.54020E-09
 -1       322 7.97485E+03 5.04422E+05-8.34018E+04 6.67482E+05 3.52575E-08 2.96859E-09
 -1       364 8.68596E+04-1.77915E+04-1.36939E+04 4.83179E+05-1.10595E-09-2.40107E-10
 -1       365 8.99437E+04-6.04839E+03-2.78259E+03 1.15039E+06-1.47338E-09-1.41445E-08
 -1       366 6.90126E+04-2.40009E+02-1.57057E+03 4.81220E+05 1.12050E-09-1.43591E-08
 -1       367 6.43553E+04 6.03288E+03 9.01895E+02 1.15255E+06-1.44246E-09-2.45564E-09
 -1       368 6.71767E+04 1.35899E+03 7.43760E+02 4.81216E+05 9.53150E-10 4.52565E-09
 -1       369 8.22740E+04 1.17094E+02 2.64173E+03 1.15059E+06-1.13869E-09 1.17434E-08
 -1       370 8.04252E+04-1.37398E+04-2.76021E+03 4.83108E+05 2.03727E-10-9.32414E-09
 -1       371 8.37322E+03-2.08044E+05-3.11085E+04 2.87174E+05-6.43922E-10-6.00267E-10
 -1       372 8.86944E+03-2.27659E+05-1.66636E+04 6.88060E+05 1.78261E-10-1.99889E-08
 -1       373 7.03837E+03-2.14723E+05-4.12791E+03 2.86211E+05-4.27463E-10-1.34660E-08
 -1       374 1.82272E+04-2.19058E+05 4.79288E+03 6.87853E+05-3.63798E-10 4.61841E-09
 -1       375 1.54000E+03-2.13780E+05 1.10555E+04 2.87391E+05-5.94810E-10 1.81462E-08
 -1       376 3.00561E+05-1.66113E+04 1.80676E+04 4.54659E+05 2.03727E-10 2.32831E-09
 -1       377 3.10186E+05 4.86611E+03 1.56855E+04 1.08271E+06-9.27685E-10-1.86265E-09
 -1       378 2.90241E+05 7.92054E+02 6.78755E+03 4.53111E+05-3.88172E-09 1.18780E-08
 -1       379 2.86945E+05 7.45369E+03 5.73219E+03 1.08431E+06 2.38038E-09-5.81713E-09
 -1       380 2.90335E+05 1.03528E+03 4.00873E+03 4.53113E+05 2.98314E-10-6.39557E-09
 -1       381 3.07194E+05 1.58354E+03 7.25391E+03 1.08273E+06-3.48882E-09 7.72707E-09
 -1       382 3.02542E+05-1.44856E+04 3.79059E+03 4.54636E+05 2.32831E-09 1.21345E-08
 -1       383 6.54665E+03-1.19784E+05-1.73189E+04 5.33687E+05 8.25821E-10-2.69938E-09
 -1       384 2.76660E+04-1.43831E+05-7.83323E+03 1.27425E+06 6.54836E-09-2.94149E-08
 -1       385 1.37930E+04-1.29676E+05-4.13837E+03 5.31838E+05 2.88856E-09-1.76933E-08
 -1       386 2.81314E+04-1.38792E+05-3.62612E+03 1.27409E+06 4.99131E-09 2.59024E-09
 -1       387 2.69514E+03-1.18542E+05-9.88860E+03 5.33925E+05 1.83536E-09 1.43918E-08
 -1       388 4.97102E+05-1.63414E+04 2.24859E+04 4.40782E+05-1.07684E-09-3.64525E-09
 -1       389 5.07995E+05 5.73732E+03 1.83010E+04 1.04991E+06 3.57977E-09 6.56291E-09
 -1       390 4.88159E+05 6.07990E+02 8.29644E+03 4.39526E+05-7.85803E-10-4.24916E-09
 -1       391 4.85481E+05 7.08250E+03 7.27963E+03 1.05120E+06 2.96856E-09 2.60479E-09
 -1       392 4.88217E+05 7.98220E+02 6.25521E+03 4.39534E+05-3.28146E-09 1.69894E-09
 -1       393 5.05732E+05 3.34883E+03 1.20975E+04 1.04995E+06-1.89175E-10 1.71131E-08
 -1       394 4.98526E+05-1.47426E+04 1.19928E+04 4.40736E+05-2.76486E-10-5.20049E-09
 -1       395 7.19867E+03-2.72198E+04-2.32261E+04 5.35647E+05-1.15324E-09-3.76167E-09
 -1       396 2.59824E+04-5.30529E+04-1.12058E+04 1.27755E+06 3.54339E-09-2.08565E-08
 -1       397 1.37231E+04-3.79819E+04-5.09310E+03 5.33873E+05 1.16052E-09-7.23867E-09
 -1       398 2.82529E+04-4.66164E+04-3.03956E+03 1.27741E+06 2.37924E-09 3.89628E-09
 -1       399 2.22649E+03-2.71705E+04-7.97023E+03 5.35876E+05 1.81717E-09 5.29690E-09
 -1       400 6.95123E+05-1.68222E+04 3.07794E+04 4.30861E+05 1.74623E-10 9.34233E-09
 -1       401 7.08591E+05 7.66570E+03 2.33895E+04 1.02666E+06 1.34241E-09 7.90897E-09
 -1       402 6.87830E+05 4.41018E+02 1.08594E+04 4.29938E+05-1.73895E-09 6.18820E-09
 -1       403 6.85723E+05 7.07187E+03 9.47079E+03 1.02761E+06-6.76187E-09-1.05611E-08
 -1       404 6.87856E+05 6.54502E+02 8.89772E+03 4.29942E+05-4.23825E-09-3.39060E-09
 -1       405 7.06241E+05 5.42983E+03 1.74009E+04 1.02662E+06 2.76486E-09-2.98314E-10
 -1       406 6.96409E+05-1.51862E+04 2.06802E+04 4.30893E+05 1.30967E-09 8.42192E-09
 -1       407 8.03762E+03 2.21130E+03-3.13054E+04 5.24741E+05-1.42427E-08-4.29281E-09
 -1       408 2.27673E+04-2.55619E+04-1.65118E+04 1.25116E+06-7.08678E-09-8.13816E-09
 -1       409 1.33218E+04-9.35052E+03-7.79827E+03 5.23035E+05-1.76078E-08-1.84200E-08
 -1       410 2.63800E+04-1.84821E+04-5.67050E+03 1.25101E+06-7.94535E-09-4.08909E-09
 -1       411 2.53462E+03 1.24276E+03-1.06869E+04 5.24957E+05-1.21399E-08 1.04192E-08
 -1       412 9.06146E+05-1.74553E+04 4.06722E+04 4.21129E+05-4.29281E-09-2.48729E-08
 -1       413 9.22648E+05 1.00592E+04 2.94224E+04 1.00366E+06 2.08092E-09-4.36557E-09
 -1       414 9.00744E+05 2.93417E+02 1.37643E+04 4.20495E+05 5.74801E-10 3.57613E-09
 -1       415 8.99221E+05 7.12174E+03 1.17214E+04 1.00430E+06 9.31254E-09-1.59816E-08
 -1       416 9.00806E+05 5.26731E+02 1.13330E+04 4.20505E+05-6.18456E-11-6.88306E-09
 -1       417 9.19914E+05 7.22935E+03 2.20287E+04 1.00364E+06-1.97906E-09 1.01827E-08
 -1       418 9.07825E+05-1.55290E+04 2.81721E+04 4.21130E+05-1.10595E-09-1.08776E-09
 -1       419 8.87163E+03 1.98914E+04-4.00926E+04 5.08444E+05-1.53668E-08 8.07631E-10
 -1       420 1.89096E+04-9.77195E+03-2.22842E+04 1.21208E+06-2.65500E-08-1.10667E-08
 -1       421 1.27410E+04 7.50040E+03-1.06783E+04 5.06809E+05-1.96342E-08-1.82745E-08
 -1       422 2.41572E+04-2.16919E+03-8.36157E+03 1.21195E+06-2.58515E-08-4.37285E-09
 -1       423 2.92071E+03 1.75959E+04-1.32429E+04 5.08638E+05-1.39535E-08 9.86620E-09
 -1       424 1.15921E+06-1.82938E+04 5.20605E+04 4.11592E+05 3.28873E-09-3.58705E-09
 -1       425 1.17924E+06 1.28213E+04 3.63541E+04 9.81172E+05-2.52840E-09 2.58296E-10
 -1       426 1.15589E+06 1.39348E+02 1.69998E+04 4.11267E+05 3.67436E-10 1.24583E-08
 -1       427 1.15497E+06 7.19834E+03 1.40514E+04 9.81487E+05 4.57339E-09-3.87081E-09
 -1       428 1.15602E+06 4.15909E+02 1.36167E+04 4.11284E+05 3.10320E-09-1.12777E-09
 -1       429 1.17569E+06 8.79400E+03 2.61087E+04 9.81176E+05 4.26371E-09 1.01500E-09
 -1       430 1.16166E+06-1.57700E+04 3.46927E+04 4.11563E+05 3.56522E-09-1.61917E-08
 -1       431 9.66397E+03 6.26538E+04-4.86169E+04 4.81030E+05-6.91216E-10-4.51837E-09
 -1       432 1.43063E+04 3.16785E+04-2.75654E+04 1.14617E+06-1.82517E-08-5.40604E-09
 -1       433 1.17561E+04 4.96443E+04-1.24724E+04 4.79519E+05 1.63891E-09 1.11872E-08
 -1       434 2.22732E+04 4.03345E+04-8.39255E+03 1.14604E+06-2.09911E-08 5.80803E-09
 -1       435 2.82820E+03 5.82117E+04-1.11901E+04 4.81193E+05 1.28421E-09 6.91216E-09
 -1       436 1.50893E+06-1.94234E+04 6.80401E+04 3.98651E+05-1.12050E-09 2.12240E-08
 -1       437 1.53389E+06 1.64975E+04 4.64931E+04 9.51038E+05 6.94854E-10 1.29694E-08
 -1       438 1.50855E+06-1.57361E+02 2.26552E+04 3.98793E+05 1.60071E-10-6.67569E-10
 -1       439 1.50905E+06 7.36383E+03 1.98114E+04 9.50900E+05 1.94387E-09 1.53523E-09
 -1       440 1.50867E+06-1.35146E+02 2.14857E+04 3.98782E+05 3.70710E-09 1.08303E-08
 -1       441 1.53309E+06 1.49644E+04 4.30173E+04 9.51034E+05 5.90808E-09 7.72707E-09
 -1       442 1.50998E+06-1.87931E+04 6.20731E+04 3.98660E+05-6.28643E-09-1.22568E-08
 -1       443 1.04224E+04 1.45443E+05-5.77813E+04 4.27089E+05-1.99034E-08-6.78119E-09
 -1       444 7.78881E+03 1.14011E+05-3.27960E+04 1.01652E+06-2.12785E-08-2.77942E-09
 -1       445 9.96137E+03 1.32073E+05-1.29263E+04 4.25803E+05-2.90656E-08 3.88764E-09
 -1       446 2.04648E+04 1.24377E+05-4.60717E+03 1.01641E+06-1.54141E-08 8.82028E-09
 -1       447 2.14287E+03 1.37246E+05-2.16443E+03 4.27193E+05-2.73158E-08 3.44153E-09
 -1       448 1.97732E+06-2.41276E+04 1.06352E+05 3.78799E+05 9.15315E-09-9.98989E-09
 -1       449 2.01530E+06 2.53877E+04 6.97224E+04 9.04326E+05 1.16415E-09 5.06770E-09
 -1       450 1.98267E+06-8.74571E+02 3.22133E+04 3.79568E+05-7.74889E-09 6.80302E-10
 -1       451 1.98407E+06 7.88182E+03 2.46822E+04 9.03362E+05-5.51245E-09 7.96354E-09
 -1       452 1.98261E+06 2.57624E+02 2.34442E+04 3.79729E+05-1.44792E-09 2.82307E-09
 -1       453 2.00377E+06 1.57582E+04 4.28068E+04 9.03815E+05-7.82165E-10-1.43773E-08
 -1       454 1.98257E+06-1.62298E+04 6.11324E+04 3.79137E+05-6.29370E-09-9.69521E-09
 -1       455 1.46985E+04-1.31843E+05-8.96484E+04 3.84189E+05 2.02926E-08-2.32831E-10
 -1       456-3.24777E+03-1.71975E+05-5.33871E+04 9.18138E+05-1.90084E-08-1.86410E-08
 -1       457 8.80063E+03-1.47987E+05-2.27679E+04 3.82973E+05 2.41798E-08 2.65209E-09
 -1       458 1.45108E+04-1.55867E+05-1.28232E+04 9.17861E+05-1.82772E-08 3.53612E-09
 -1       459 1.88933E+03-1.42801E+05-9.92291E+03 3.84483E+05 1.73895E-08 7.19592E-09
 -1       460 2.32207E+06-2.62541E+04 8.86041E+04 4.22186E+05 3.49246E-10 1.75351E-09
 -1       461 2.35557E+06 2.53025E+04 6.16680E+04 9.99534E+05-1.47629E-08 5.03860E-09
 -1       462 2.32010E+06 6.42415E+02 3.03290E+04 4.24040E+05 1.98706E-08 9.24229E-09
 -1       463 2.31589E+06 1.67594E+04 2.86840E+04 9.96521E+05-8.68204E-09-6.62840E-09
 -1       464 2.31598E+06 4.42470E+03 3.39501E+04 4.25030E+05-4.07690E-08 2.93949E-09
 -1       465 2.33626E+06 3.73850E+04 6.90167E+04 9.95981E+05-6.43286E-08-3.68163E-09
 -1       466 2.30837E+06-1.55623E+04 1.05154E+05 4.24653E+05-1.96305E-08-4.78758E-09
 -1       467 1.35036E+04 4.31163E+05-8.20447E+04 4.36584E+05 2.37342E-08-4.63479E-09
 -1       468-2.62106E+02 3.93037E+05-4.44818E+04 1.03665E+06 2.69756E-08-1.11813E-08
 -1       469 8.58731E+03 4.14716E+05-1.12973E+04 4.35542E+05 3.00652E-08-8.04539E-09
 -1       470 2.41604E+04 4.16128E+05 1.19537E+04 1.03648E+06 2.27556E-08 3.29419E-09
 -1       471-4.82365E+03 4.16406E+05 2.87171E+04 4.36802E+05 2.08966E-08 6.17001E-09
 -1       472 1.33926E+06-2.93672E+03 1.52418E+04 2.36661E+05 6.54836E-11-8.21638E-09
 -1       473 1.34198E+06 8.10381E+03 1.20192E+04 5.57348E+05 1.59616E-08-3.35058E-09
 -1       474 1.33843E+06 1.88350E+03 8.75139E+03 2.36530E+05-1.62945E-08-8.19455E-09
 -1       475 1.33735E+06 7.10851E+03 1.25274E+04 5.57613E+05-7.66340E-09-6.83940E-09
 -1       476 1.33830E+06 6.77491E+02 1.97000E+04 2.36364E+05-3.19415E-09 7.62157E-09
 -1       477 1.35516E+06 2.05466E+04 4.54470E+04 5.57808E+05-2.56478E-10 7.63976E-09
 -1       478 1.33213E+06-1.21119E+04 7.16030E+04 2.36392E+05-2.88128E-09 1.74259E-09
 -1       479 6.59955E+03-1.08292E+05-1.30872E+05 6.70432E+05-1.23910E-08-3.18687E-09
 -1       480-6.95108E+03-1.63414E+05-7.30857E+04 1.59913E+06-5.37912E-08-1.87974E-08
 -1       481 1.33250E+04-1.45056E+05-2.99557E+04 6.67911E+05-3.04681E-08-8.93124E-10
 -1       482 2.63801E+04-1.57162E+05-1.32440E+04 1.59943E+06-6.50543E-08 3.47063E-09
 -1       483 8.00151E+02-1.36834E+05-8.89832E+03 6.70011E+05-2.57678E-08 6.85395E-09
 -1       484 6.24370E+05-1.69154E+03 6.62503E+03 1.64218E+05-2.47746E-09-4.79213E-09
 -1       485 6.25996E+05 2.63140E+03 5.49505E+03 3.90417E+05-4.43561E-09 1.37152E-09
 -1       486 6.23918E+05 4.45330E+02 4.44575E+03 1.63824E+05-9.60426E-09 6.15182E-09
 -1       487 6.24301E+05 2.32392E+03 6.86068E+03 3.90877E+05-3.83852E-09-1.72622E-09
 -1       488 6.23900E+05-3.56125E+02 1.11526E+04 1.63754E+05 2.75941E-09-4.52746E-09
 -1       489 6.34434E+05 1.01408E+04 2.60334E+04 3.90532E+05-9.76615E-09-2.07729E-09
 -1       490 6.20164E+05-7.51644E+03 4.11918E+04 1.64181E+05-7.21047E-09 1.00208E-08
 -1       491 7.25208E+03-2.91680E+05-8.53404E+04 4.89054E+05 2.05109E-08-8.19273E-09
 -1       492-4.58550E+03-3.28174E+05-5.00756E+04 1.16803E+06 2.35050E-08 2.36469E-10
 -1       493 8.60569E+03-3.12587E+05-2.34920E+04 4.87069E+05 3.24908E-08-8.97944E-09
 -1       494 1.25273E+04-3.22990E+05-1.80180E+04 1.16830E+06 2.87910E-08 1.42463E-08
 -1       495 2.76964E+03-3.05662E+05-2.04519E+04 4.88735E+05 2.31457E-08 1.62254E-09
 -1       496 1.82724E+05-5.93314E+02 1.16925E+03 8.14737E+04-1.54323E-08 6.98060E-09
 -1       497 1.83409E+05-3.45484E+02 1.32558E+03 1.94706E+05-4.92582E-09 3.01588E-09
 -1       498 1.82613E+05-2.72747E+02 1.68122E+03 8.12240E+04 2.66968E-09-4.96902E-09
 -1       499 1.83595E+05-2.18086E+02 3.22074E+03 1.94972E+05-1.78989E-09-4.84033E-09
 -1       500 1.82570E+05-7.18819E+02 5.69397E+03 8.12072E+04-5.08953E-09-4.94765E-09
 -1       501 1.88267E+05 4.21512E+03 1.35861E+04 1.94602E+05-1.30967E-09-1.05410E-09
 -1       502 1.80116E+05-3.97024E+03 2.18367E+04 8.15958E+04-1.47375E-08-2.42949E-09
 -1       503 5.57467E+03-2.86623E+05-4.58458E+04 3.01926E+05-1.16197E-08-5.96629E-10
 -1       504-2.19248E+03-3.06559E+05-2.81916E+04 7.21774E+05-1.41554E-08-2.64026E-08
 -1       505 4.72680E+03-2.96270E+05-1.47000E+04 3.00696E+05-1.75605E-08-1.22818E-08
 -1       506 4.98821E+03-3.04123E+05-1.45640E+04 7.21963E+05-1.93104E-08 1.41608E-09
 -1       507 3.49553E+03-2.92400E+05-1.83162E+04 3.01708E+05-1.23582E-08 1.41954E-08
 -1       508 3.64269E+03-2.93688E+05-2.34976E+04 1.24568E+05-2.98314E-09 7.06495E-09
 -1       509-2.32615E+03-3.03345E+05-1.55385E+04 2.99080E+05 6.40284E-10 8.21001E-09
 -1       510 1.91682E+03-2.97329E+05-9.30380E+03 1.24048E+05-2.33558E-09 3.88536E-09
 -1       511-3.31815E+02-3.02479E+05-1.16257E+04 2.99182E+05 8.97126E-09 4.31373E-09
 -1       512 2.92045E+03-2.95227E+05-1.56344E+04 1.24457E+05 9.89985E-10-5.58430E-10
 -1       513-4.29442E+04-1.76992E+04 2.20425E+04 4.14259E+05-1.01863E-09 4.27099E-09
 -1       514-2.95450E+04 2.88649E+03 1.76477E+04 9.85639E+05 6.69388E-10-2.65572E-10
 -1       515-5.17972E+04-7.50370E+02 7.00356E+03 4.12292E+05-5.09317E-11 3.61615E-09
 -1       516-5.42307E+04 4.89758E+03 4.96074E+03 9.87734E+05-3.33330E-10-4.76575E-10
 -1       517-5.30393E+04 1.09053E+03 2.35394E+03 4.12269E+05-1.45519E-10-3.49246E-10
 -1       518-4.26379E+04 1.20090E+02 2.26556E+03 9.85958E+05-2.18279E-10-5.31873E-09
 -1       519-4.34336E+04-9.51157E+03-2.61407E+03 4.14028E+05 3.34694E-10 2.98678E-09
 -1       520 1.00786E+04-8.10425E+05-4.11135E+04 3.22012E+05-4.76575E-10 3.53975E-09
 -1       521 7.42763E+03-8.33723E+05-1.95857E+04 7.79645E+05-3.67436E-10 8.22092E-09
 -1       522 6.84069E+03-8.18852E+05 7.09043E+02 3.20883E+05 2.77396E-10-1.03846E-08
 -1       523 2.49601E+04-8.15465E+05 2.20559E+04 7.78855E+05-3.56522E-10-1.28402E-08
 -1       524-4.33257E+03-8.20443E+05 4.03407E+04 3.22864E+05-1.34605E-10-9.92441E-09
 -1       525-1.96323E+04-9.87345E+03-8.14444E+02 3.78319E+05-1.13505E-09 2.32831E-10
 -1       526-1.72792E+04 1.92450E+02 2.51037E+03 9.00544E+05-3.78350E-10 3.52884E-09
 -1       527-2.86588E+04 7.23017E+02 7.15932E+02 3.76635E+05-2.14277E-09-1.00044E-09
 -1       528-3.15932E+04 4.83504E+03 8.65289E+02 9.02265E+05 1.29984E-09-3.37968E-09
 -1       529-2.86802E+04 8.89509E+02-4.64230E+02 3.76633E+05 1.58980E-09-5.61158E-09
 -1       530-1.89052E+04-1.08249E+03-1.12701E+03 9.00570E+05-4.73301E-09-1.92813E-10
 -1       531-1.89585E+04-8.76782E+03-6.91249E+03 3.78295E+05 2.31375E-09 8.11269E-09
 -1       532 4.32592E+03-7.12191E+04 1.54766E+03 5.17320E+05 1.28239E-09 1.84082E-09
 -1       533 2.74179E+04-8.59443E+04 1.19263E+04 1.23473E+06 5.53700E-09 5.13683E-09
 -1       534 9.92017E+03-7.81365E+04 2.14143E+04 5.15732E+05 1.24055E-09-1.18616E-08
 -1       535 4.25508E+04-6.49165E+04 5.14577E+04 1.23431E+06 3.99814E-09-9.47330E-09
 -1       536-1.21344E+04-7.81080E+04 7.79624E+04 5.17892E+05 1.70985E-09-7.74162E-09
 -1       537 6.14488E+04-9.31673E+03 9.68791E+02 3.63662E+05-3.11411E-09-1.71713E-09
 -1       538 6.41917E+04 4.86185E+02 3.41010E+03 8.65711E+05 9.13133E-10-5.50062E-09
 -1       539 5.33925E+04 6.06575E+02 1.24440E+03 3.62115E+05 1.41154E-09-4.79304E-09
 -1       540 5.08940E+04 4.37751E+03 1.34766E+03 8.67287E+05 2.69324E-10-1.97906E-09
 -1       541 5.34176E+04 7.00560E+02 2.64196E+02 3.62119E+05-2.01544E-09 2.54113E-09
 -1       542 6.30900E+04-6.56674E+02 4.28352E+02 8.65746E+05-7.74889E-10 2.86673E-09
 -1       543 6.21258E+04-8.54026E+03-4.07181E+03 3.63621E+05 1.71713E-09 3.85444E-09
 -1       544 4.09808E+03-1.10185E+04-7.48213E+02 4.79334E+05-1.67347E-10 9.53150E-10
 -1       545 2.33070E+04-2.46884E+04 5.97026E+03 1.14340E+06 2.81580E-09 3.95812E-09
 -1       546 9.03351E+03-1.65617E+04 1.06979E+04 4.77915E+05 6.05723E-10-1.03992E-08
 -1       547 2.96965E+04-1.09269E+04 2.59820E+04 1.14306E+06 2.09548E-09-1.01463E-08
 -1       548-6.57310E+03-1.23087E+04 3.71483E+04 4.79804E+05 1.54614E-09-7.53789E-09
 -1       549 1.46305E+05-9.43207E+03 3.97441E+03 3.58936E+05 4.43833E-10 5.89716E-09
 -1       550 1.49942E+05 1.19676E+03 5.26390E+03 8.54649E+05-1.60071E-10 2.40107E-09
 -1       551 1.38886E+05 5.50959E+02 2.23282E+03 3.57539E+05-2.73576E-09 1.10958E-09
 -1       552 1.36640E+05 4.36632E+03 2.27544E+03 8.56080E+05-5.58373E-09 2.51748E-09
 -1       553 1.38914E+05 6.13859E+02 1.47673E+03 3.57536E+05-1.76442E-09-1.76442E-09
 -1       554 1.49146E+05 2.97231E+02 2.97248E+03 8.54629E+05 3.55067E-09 6.83940E-10
 -1       555 1.46853E+05-8.86429E+03 9.15307E+01 3.58958E+05 4.80213E-10 6.30644E-09
 -1       556 4.49467E+03 3.26132E+03-6.53466E+03 4.66044E+05-1.16997E-08 6.00267E-09
 -1       557 2.05072E+04-1.17565E+04-1.91211E+03 1.11156E+06-5.17321E-09 7.48605E-09
 -1       558 9.08453E+03-1.96309E+03-9.43562E+02 4.64683E+05-1.37588E-08-1.23600E-08
 -1       559 1.84594E+04-4.22010E+03-2.04306E+02 1.11127E+06-6.57019E-09-8.72751E-09
 -1       560-1.18051E+03 7.64488E+03-4.89184E+03 4.66460E+05-8.90032E-09-1.04628E-08
 -1       561 1.92257E+05-9.42031E+03 4.36343E+03 3.58957E+05-3.14321E-09-3.79441E-09
 -1       562 1.95956E+05 1.34368E+03 5.55108E+03 8.54702E+05 1.78261E-09-6.58838E-09
 -1       563 1.84910E+05 5.70314E+02 2.48024E+03 3.57607E+05 1.08412E-09-9.82254E-11
 -1       564 1.82717E+05 4.44387E+03 2.65757E+03 8.56080E+05 5.84703E-09-1.47338E-09
 -1       565 1.84940E+05 5.84589E+02 2.11832E+03 3.57607E+05-3.56522E-10 3.69437E-09
 -1       566 1.95668E+05 8.82593E+02 4.46851E+03 8.54702E+05-1.65892E-09-5.43878E-09
 -1       567 1.92563E+05-9.20036E+03 2.51278E+03 3.58955E+05-6.18456E-10 7.29597E-09
 -1       568 4.88416E+03 1.37926E+04-1.17636E+04 4.76796E+05-1.31313E-08 1.32422E-09
 -1       569 1.97258E+04-3.47975E+03-9.20950E+03 1.13705E+06-2.15441E-08 8.15817E-09
 -1       570 9.94568E+03 8.34614E+03-1.23563E+04 4.75398E+05-1.61854E-08-1.12414E-08
 -1       571 8.93167E+03-2.08956E+03-2.62669E+04 1.13682E+06-1.97397E-08-1.27911E-08
 -1       572 4.15655E+03 2.41654E+04-4.73344E+04 4.77156E+05-9.86438E-09-8.39646E-09
 -1       573 1.43148E+05-8.79146E+03-2.37509E+03 3.67457E+05 6.69388E-10-1.80626E-09
 -1       574 1.44585E+05-9.55729E+01 1.44869E+03 8.74883E+05-1.24055E-09-3.60887E-09
 -1       575 1.34606E+05 7.81758E+02 5.89642E+02 3.66006E+05-8.91305E-10-3.91810E-09
 -1       576 1.32060E+05 4.52068E+03 1.29138E+03 8.76363E+05 3.62184E-09-2.62662E-09
 -1       577 1.34715E+05 6.44287E+02 7.45608E+02 3.66008E+05 5.12955E-09-3.55794E-09
 -1       578 1.45429E+05-1.44666E+02 2.03051E+03 8.74892E+05 1.50249E-09 2.25555E-10
 -1       579 1.43352E+05-9.30559E+03-1.50490E+03 3.67442E+05 2.85218E-09-1.17143E-09
 -1       580 4.89739E+03 4.41092E+04-1.33776E+04 5.15412E+05 4.54747E-12-2.16096E-09
 -1       581 2.20793E+04 2.44623E+04-1.40547E+04 1.22866E+06-1.72222E-08 9.29685E-09
 -1       582 1.17424E+04 3.82314E+04-2.28658E+04 5.13886E+05 1.79352E-09-6.91762E-09
 -1       583 1.35134E+03 1.93688E+04-5.20836E+04 1.22852E+06-1.86992E-08-1.62472E-08
 -1       584 9.40966E+03 6.14567E+04-9.06204E+04 5.15703E+05 1.60435E-09-3.30328E-09
 -1       585-4.18943E+04-6.16365E+03-1.83312E+04 3.33546E+05-2.27010E-09 8.98399E-09
 -1       586-4.51094E+04-4.95207E+03-8.57917E+03 7.93892E+05-1.49157E-10 5.30781E-09
 -1       587-5.17080E+04 4.04401E+02-3.54244E+03 3.32028E+05 2.04818E-09-3.68345E-09
 -1       588-5.42892E+04 3.11787E+03-7.35509E+02 7.95473E+05 1.01863E-10-4.07999E-09
 -1       589-5.23819E+04 6.12779E+02 4.51532E+02 3.32018E+05 2.80124E-09-3.24508E-09
 -1       590-4.39343E+04 8.28898E+02 3.04731E+03 7.93964E+05 3.53612E-09 4.96948E-09
 -1       591-4.62098E+04-7.42119E+03 1.89028E+03 3.33514E+05-3.41242E-09-4.56566E-10
 -1       592 3.00427E+03 1.86830E+05 7.71154E+03 5.55033E+05-1.91212E-08-4.96948E-09
 -1       593 3.21064E+04 1.72213E+05 1.42863E+04 1.32093E+06-2.13040E-08 2.24645E-09
 -1       594 1.17359E+04 1.79372E+05 1.85297E+04 5.53408E+05-3.04535E-08-1.30822E-08
 -1       595 4.18453E+04 1.87087E+05 4.06395E+04 1.32074E+06-1.42900E-08 9.30959E-09
 -1       596-8.61476E+03 1.82844E+05 5.84329E+04 5.55347E+05-2.50802E-08-6.67933E-09
 -1       597-1.52957E+05-5.64504E+03-7.91898E+03 2.81363E+05 9.85165E-09 7.36691E-10
 -1       598-1.53082E+05-2.24109E+03-3.34245E+03 6.69263E+05-5.67525E-10 3.55794E-09
 -1       599-1.59576E+05 1.86327E+02-2.54631E+03 2.79888E+05-7.17409E-09 9.71340E-10
 -1       600-1.62132E+05 2.41412E+03-2.75018E+03 6.70800E+05-2.44609E-09 3.42880E-09
 -1       601-1.60181E+05 1.08897E+03-4.85450E+03 2.79856E+05 7.82165E-11 9.93168E-10
 -1       602-1.59516E+05-3.63677E+03-1.09690E+04 6.69556E+05-2.55022E-09 5.26416E-09
 -1       603-1.53166E+05-1.61877E+03-2.01530E+04 2.81121E+05-3.15049E-09-3.10683E-09
 -1       604 2.35525E+03-6.89268E+04 1.09942E+04 4.58153E+05 1.84446E-08 3.72529E-09
 -1       605 2.46722E+04-7.69182E+04 2.79389E+04 1.09337E+06-1.71640E-08-1.60071E-09
 -1       606 6.47952E+03-7.60117E+04 4.93479E+04 4.56704E+05 2.27742E-08-4.76939E-09
 -1       607 6.42729E+04-4.32424E+04 1.16871E+05 1.09294E+06-1.72377E-08-1.05356E-08
 -1       608-2.44553E+04-9.40187E+04 1.86378E+05 4.58637E+05 1.34023E-08-5.50062E-09
 -1       609-2.76752E+05-6.66276E+03-3.74006E+04 4.48260E+05-8.71660E-09 4.70027E-09
 -1       610-2.89322E+05-9.18811E+02-1.87024E+04 1.06800E+06-1.48029E-08-3.41242E-09
 -1       611-2.94889E+05 4.57840E+03-8.85329E+03 4.45774E+05 2.22863E-08-1.05319E-08
 -1       612-3.05207E+05 1.40175E+04-4.99303E+03 1.07039E+06-7.03585E-09-1.01099E-08
 -1       613-2.95666E+05 4.93652E+03-5.25509E+03 4.45753E+05-3.65362E-08 2.04454E-09
 -1       614-2.89237E+05 4.61689E+03-8.37916E+03 1.06816E+06-4.99313E-08-7.71252E-10
 -1       615-2.81097E+05-7.24837E+03-1.92740E+04 4.48128E+05-9.77889E-09-1.01936E-08
 -1       616-2.75345E+02 1.74593E+05 1.81526E+04 5.28805E+05 1.81908E-08-6.31553E-09
 -1       617 2.70107E+04 1.68393E+05 3.00564E+04 1.25935E+06 2.42653E-08-3.35422E-09
 -1       618 7.04206E+03 1.67538E+05 4.43798E+04 5.27296E+05 2.68483E-08-9.32414E-09
 -1       619 5.72781E+04 1.97605E+05 1.00396E+05 1.25904E+06 2.12385E-08 5.93718E-09
 -1       620-2.34188E+04 1.56559E+05 1.56211E+05 5.29219E+05 1.73459E-08-7.27596E-11
 -1       621-1.39542E+05-7.46006E+03-4.10221E+03 3.95264E+05 4.64206E-09-3.42698E-09
 -1       622-1.41881E+05 5.77189E+03 8.06870E+02 9.41444E+05 1.04483E-08-1.19107E-08
 -1       623-1.49664E+05 3.49504E+03 1.96305E+02 3.93316E+05-1.53486E-08-8.26549E-09
 -1       624-1.56350E+05 1.14230E+04 1.00924E+03 9.43301E+05-2.36128E-09-1.17434E-08
 -1       625-1.49547E+05 3.37269E+03 2.21502E+02 3.93317E+05-7.38510E-10-4.11455E-09
 -1       626-1.41176E+05 5.57286E+03 9.89966E+02 9.41388E+05-4.13274E-09-2.65572E-09
 -1       627-1.39242E+05-7.86659E+03-3.90853E+03 3.95321E+05-9.31323E-10 2.14641E-10
 -1       628-6.59244E+01-6.35121E+04 1.00968E+04 5.70094E+05-1.63627E-08-1.70257E-09
 -1       629 2.50877E+04-7.28222E+04 1.89512E+04 1.36034E+06-5.68398E-08-3.49246E-09
 -1       630 7.75943E+03-7.06637E+04 2.67975E+04 5.68373E+05-2.82562E-08-1.27893E-08
 -1       631 4.03867E+04-4.94579E+04 6.03380E+04 1.35987E+06-4.37794E-08-6.25732E-09
 -1       632-1.83116E+04-6.97639E+04 8.97646E+04 5.70697E+05-1.90121E-08-4.30737E-09
 -1       633-8.55958E+04-4.16139E+03 4.90325E+03 2.58209E+05 2.61207E-09-4.65843E-09
 -1       634-8.39036E+04 2.68683E+03 4.37917E+03 6.14860E+05-5.34783E-09-2.88128E-09
 -1       635-8.86524E+04 8.51239E+02 2.00307E+03 2.57045E+05-1.03537E-08-4.86580E-09
 -1       636-8.99841E+04 3.27446E+03 1.79164E+03 6.16005E+05 3.45426E-09-2.02272E-09
 -1       637-8.81862E+04 4.55059E+02 1.33173E+03 2.57059E+05 4.83124E-09-4.45107E-09
 -1       638-8.20625E+04 1.02731E+03 2.74555E+03 6.14713E+05-4.81305E-09-3.02680E-09
 -1       639-8.39117E+04-5.11624E+03 1.69647E+03 2.58334E+05-4.96948E-09 2.45018E-09
 -1       640 5.49067E+02-1.09987E+05 4.92286E+03 4.47120E+05 2.77214E-08-4.48199E-09
 -1       641 1.66895E+04-1.17102E+05 9.70320E+03 1.06732E+06 2.50366E-08 6.48288E-09
 -1       642 5.67417E+03-1.14558E+05 1.32724E+04 4.45742E+05 3.22234E-08-8.54379E-09
 -1       643 2.37945E+04-1.05182E+05 2.96501E+04 1.06698E+06 2.34249E-08 1.74987E-08
 -1       644-8.73891E+03-1.12538E+05 4.31478E+04 4.47525E+05 1.09430E-08-1.76806E-09
 -1       645-3.60436E+04-2.49657E+03 8.58801E+03 1.35234E+05-2.02053E-08 9.74524E-09
 -1       646-3.24575E+04 9.99225E+02 5.79378E+03 3.22006E+05-1.09276E-08-5.40604E-09
 -1       647-3.57579E+04-4.77080E+02 2.93687E+03 1.34676E+05-1.93995E-09-2.48292E-10
 -1       648-3.46725E+04-4.51908E+02 2.67528E+03 3.22556E+05 1.34628E-09-1.77351E-09
 -1       649-3.55024E+04-7.52193E+02 3.04473E+03 1.34686E+05-3.87627E-09-1.31240E-09
 -1       650-3.08443E+04 6.21745E+02 6.35680E+03 3.21855E+05-2.98314E-09-2.76123E-09
 -1       651-3.54152E+04-3.43742E+03 9.28372E+03 1.35364E+05-1.58179E-08 5.32964E-09
 -1       652 1.29184E+03-1.16233E+05 1.47529E+03 2.65770E+05-1.10858E-08 7.78527E-10
 -1       653 8.38188E+03-1.20323E+05 3.02370E+03 6.34793E+05-1.65273E-08 1.02591E-09
 -1       654 3.10477E+03-1.17830E+05 4.03748E+03 2.64961E+05-1.06302E-08-5.19776E-09
 -1       655 1.03694E+04-1.16443E+05 8.97482E+03 6.34589E+05-1.61781E-08-8.64748E-09
 -1       656-1.72031E+03-1.16768E+05 1.27975E+04 2.65997E+05-1.04519E-08-6.52653E-09
 -1       657 4.17294E+02-1.00953E+05 4.05159E+03 1.00287E+05-8.49468E-10 5.75710E-09
 -1       658 3.70898E+03-1.01188E+05 2.78900E+03 2.40030E+05 1.70803E-09 5.93695E-09
 -1       659 1.03685E+03-1.00579E+05 1.60631E+03 1.00014E+05 4.75848E-09-1.03773E-09
 -1       660 3.12047E+03-1.00986E+05 1.94563E+03 2.39903E+05 1.30840E-08-3.12866E-10
 -1       661 2.83479E+02-1.00349E+05 2.25955E+03 1.00422E+05 1.71258E-09-1.10413E-08
 -1       662-1.77297E+06-3.36669E+02-4.99991E+04 2.58059E+05-7.42148E-10 1.10686E-09
 -1       663-1.78582E+06-1.34740E+04-3.06147E+04 6.09532E+05 1.78989E-09 1.92813E-10
 -1       664-1.78473E+06 2.06703E+02-1.69924E+04 2.55009E+05 3.34694E-10 1.89175E-10
 -1       665-1.78897E+06-5.89816E+02-1.66389E+04 6.13034E+05 4.89308E-10-2.33194E-09
 -1       666-1.78544E+06 1.59550E+03-2.26176E+04 2.54633E+05-1.52795E-10-4.23825E-10
 -1       667-1.79698E+06-1.84408E+04-4.84958E+04 6.11272E+05-1.20053E-09-2.03727E-10
 -1       668-1.77134E+06 6.84001E+03-7.94069E+04 2.56733E+05-2.54659E-10-6.33008E-10
 -1       669-1.02695E+06-1.86689E+03-8.71116E+03 2.05544E+05-2.76486E-10 6.58474E-10
 -1       670-1.02893E+06-1.81939E+03-5.70069E+03 4.88765E+05-2.69210E-10-1.79352E-09
 -1       671-1.03063E+06 4.10968E+02-5.15638E+03 2.03942E+05-3.45608E-10-3.08319E-10
 -1       672-1.03271E+06 4.04173E+02-8.11248E+03 4.90379E+05 7.49623E-11-1.84627E-09
 -1       673-1.03002E+06 8.99727E+02-1.42369E+04 2.03939E+05-9.45874E-11-1.17325E-10
 -1       674-1.03698E+06-1.31519E+04-3.29945E+04 4.88798E+05-1.17689E-09-2.91038E-10
 -1       675-1.01967E+06 4.09628E+03-5.52161E+04 2.05498E+05 4.22006E-10 4.80213E-10
 -1       676-3.29942E+05-3.95191E+03 1.00205E+04 1.95693E+05-1.01863E-09 1.83718E-10
 -1       677-3.25895E+05 2.57999E+03 6.17810E+03 4.65566E+05 1.47520E-09-5.56611E-10
 -1       678-3.30793E+05 1.13495E+02 9.42615E+02 1.94594E+05 9.34961E-10 1.30967E-10
 -1       679-3.31777E+05 8.98633E+02-2.58383E+03 4.66666E+05 1.59446E-10-1.30422E-09
 -1       680-3.30229E+05 5.57507E+02-7.42455E+03 1.94595E+05-1.00408E-09 3.25599E-10
 -1       681-3.33284E+05-7.86238E+03-1.89601E+04 4.65598E+05-9.05857E-10 0.00000E+00
 -1       682-3.23211E+05 1.52170E+03-3.28190E+04 1.95645E+05 4.22006E-10 5.78439E-10
 -1       683 3.47687E+05-6.44416E+03 3.05058E+04 1.95276E+05-1.30967E-10 1.12414E-09
 -1       684 3.58315E+05 7.52231E+03 1.91645E+04 4.65008E+05 3.92902E-10-8.65839E-10
 -1       685 3.49690E+05-1.35752E+02 7.42759E+03 1.94619E+05-9.05857E-10 3.30147E-10
 -1       686 3.49715E+05 1.61504E+03 3.00612E+03 4.65662E+05-3.41811E-09-2.02999E-09
 -1       687 3.50277E+05 2.80322E+02-9.03163E+02 1.94616E+05-5.36602E-10-2.48292E-10
 -1       688 3.51108E+05-2.91439E+03-5.83530E+03 4.65006E+05-3.92902E-10-2.78305E-10
 -1       689 3.54460E+05-1.08582E+03-1.21281E+04 1.95266E+05 2.18279E-11 2.91038E-11
 -1       690 1.04103E+06-9.30958E+03 5.25738E+04 2.01539E+05-2.37924E-09-1.37152E-09
 -1       691 1.05880E+06 1.28738E+04 3.31504E+04 4.80242E+05-5.09317E-11-2.38833E-09
 -1       692 1.04595E+06-3.78121E+02 1.42794E+04 2.01294E+05 9.20409E-10 4.27463E-10
 -1       693 1.04694E+06 2.46090E+03 8.69997E+03 4.80479E+05 3.09456E-09-1.28239E-09
 -1       694 1.04659E+06 4.78577E+01 5.46076E+03 2.01287E+05 4.23825E-10-5.68434E-10
 -1       695 1.05127E+06 1.80836E+03 6.70692E+03 4.80274E+05-2.89219E-10 2.18279E-11
 -1       696 1.04825E+06-3.69160E+03 7.45656E+03 2.01497E+05-1.12050E-09 1.56433E-10
 -1       697 1.79071E+06-1.28029E+04 7.94678E+04 2.28071E+05 5.09317E-11-1.65892E-09
 -1       698 1.81683E+06 1.93543E+04 5.46754E+04 5.43500E+05 0.00000E+00-8.94943E-10
 -1       699 1.79823E+06-6.96372E+02 3.37064E+04 2.28266E+05-1.21872E-10-4.85670E-10
 -1       700 1.80373E+06 7.10417E+03 4.04667E+04 5.43353E+05 1.96997E-09-7.42148E-10
 -1       701 1.79665E+06-2.27937E+03 5.97737E+04 2.28185E+05 3.81988E-09 8.29459E-10
 -1       702 1.84088E+06 5.14086E+04 1.33096E+05 5.43737E+05-1.61890E-10 8.29459E-10
 -1       703 1.77025E+06-3.04069E+04 2.13057E+05 2.27972E+05 9.82254E-10-4.19823E-09
 -1       704-3.41482E+06 3.20679E+04-2.80748E+05 2.05140E+05-2.70666E-09 1.80444E-09
 -1       705-3.50508E+06-6.85068E+04-1.73673E+05 4.84297E+05-2.61934E-10 6.21003E-09
 -1       706-3.45665E+06 3.34478E+03-7.92635E+04 2.01915E+05 1.37697E-09-5.71163E-10
 -1       707-3.46853E+06-6.29131E+03-5.54328E+04 4.87843E+05 6.33918E-10-5.27507E-11
 -1       708-3.45883E+06 2.05234E+03-5.01970E+04 2.01733E+05 1.82990E-09-3.44971E-09
 -1       709-3.48071E+06-3.15997E+04-8.64564E+04 4.85012E+05 1.01863E-09-5.92672E-09
 -1       710-3.43882E+06 1.36935E+04-1.32077E+05 2.04683E+05-2.69210E-09-3.49974E-09
 -1       711-2.77992E+06 5.93135E+03-6.74279E+04 1.55896E+05 6.01722E-09 2.91766E-09
 -1       712-2.80043E+06-1.64758E+04-4.32882E+04 3.68230E+05 5.85715E-10-3.13230E-09
 -1       713-2.79094E+06 8.02080E+02-2.41443E+04 1.53297E+05-3.97267E-09 3.01588E-09
 -1       714-2.79580E+06-2.35192E+03-2.48507E+04 3.71300E+05-3.33057E-09-5.94810E-10
 -1       715-2.79076E+06 1.82496E+03-3.40026E+04 1.52858E+05-8.15817E-10-7.26914E-10
 -1       716-2.81194E+06-2.78798E+04-7.33759E+04 3.70163E+05-3.67709E-09 1.18621E-09
 -1       717-2.77329E+06 1.39843E+04-1.18212E+05 1.54414E+05-6.00267E-10-2.77942E-09
 -1       718-2.00799E+06 1.54179E+03-4.86338E+04 2.71406E+05-1.09358E-08 6.18729E-09
 -1       719-2.02397E+06-7.26214E+03-2.99024E+04 6.53242E+05-1.19617E-08-8.15635E-09
 -1       720-2.01994E+06 2.69594E+03-1.71439E+04 2.67993E+05 1.99070E-08-4.06362E-09
 -1       721-2.02771E+06 5.15450E+03-1.77271E+04 6.56862E+05-1.16315E-08-7.35417E-09
 -1       722-2.02012E+06 3.85388E+03-2.50858E+04 2.67730E+05-2.83871E-08 2.86855E-09
 -1       723-2.03513E+06-1.57931E+04-5.44319E+04 6.54466E+05-4.83487E-08-1.09867E-09
 -1       724-2.00351E+06 9.09511E+03-8.97224E+04 2.70432E+05-1.97542E-08 2.48838E-09
 -1       725-1.18423E+06-1.25233E+02-1.14045E+04 2.25076E+05-8.94943E-10-1.58798E-09
 -1       726-1.18949E+06 1.48524E+03-7.25321E+03 5.41156E+05 1.21054E-08-1.41808E-08
 -1       727-1.18853E+06 2.14526E+03-5.77755E+03 2.23318E+05-1.43718E-08 3.18323E-10
 -1       728-1.19272E+06 4.20030E+03-8.44897E+03 5.42779E+05-1.23055E-09-1.00717E-08
 -1       729-1.18753E+06 2.19252E+03-1.45386E+04 2.23425E+05-2.91402E-09 3.31420E-09
 -1       730-1.19487E+06-1.02576E+04-3.32114E+04 5.40651E+05-2.40652E-09-2.56478E-09
 -1       731-1.17609E+06 4.27887E+03-5.60395E+04 2.25479E+05 3.68163E-09-4.36921E-09
 -1       732-5.35393E+05-1.46188E+03 6.21483E+03 1.48656E+05-2.78669E-09-2.17369E-10
 -1       733-5.33732E+05 2.57584E+03 3.54508E+03 3.54917E+05-4.43833E-10-4.21460E-09
 -1       734-5.35407E+05 4.74083E+02 2.37350E+02 1.47900E+05-9.01355E-09-2.72848E-12
 -1       735-5.36071E+05 9.02246E+02-2.39600E+03 3.55582E+05-1.00863E-08-1.77533E-09
 -1       736-5.34532E+05 3.52100E+02-6.12105E+03 1.47989E+05-4.38922E-09-3.36513E-10
 -1       737-5.36761E+05-6.23548E+03-1.51513E+04 3.54404E+05-4.13456E-09 2.33922E-09
 -1       738-5.29068E+05 1.22104E+03-2.60941E+04 1.49069E+05 1.28421E-09-2.03363E-09
 -1       739-1.48318E+05-1.74292E+03 1.10136E+04 6.87122E+04-7.30324E-09-4.21096E-10
 -1       740-1.44399E+05 2.16347E+03 6.72861E+03 1.63505E+05-4.08136E-09 2.12276E-09
 -1       741-1.46882E+05-3.30182E+02 2.72189E+03 6.84774E+04-8.15248E-10-1.13141E-09
 -1       742-1.46082E+05-4.03524E+02 1.25202E+03 1.63710E+05 4.20914E-09 2.39152E-09
 -1       743-1.46520E+05-3.81495E+02 1.02974E+02 6.85039E+04 1.53159E-09-1.99088E-09
 -1       744-1.45640E+05-1.46477E+03-9.70233E+02 1.63237E+05-1.20417E-09 2.10184E-09
 -1       745-1.45707E+05-6.45190E+02-2.29384E+03 6.89432E+04-8.37827E-09-2.89219E-10
 -3
 9999
