    1C
    1UUSER                                                              
    1UDATE              11.october.2022                                 
    1UTIME              18:40:11                                        
    1UHOST                                                              
    1UPGM               CalculiX                                        
    1UVERSION           Version 2.20                             
    1UCOMPILETIME       Sun Jul 31 18:08:37 CEST 2022                    
    1UDIR                                                               
    1UDBN                                                               
    1UMAT    1MESH_MATERIAL                                             
    2C                           409                                     1
 -1         1 0.00000E+00 0.00000E+00 0.00000E+00
 -1         2 1.66667E-02 0.00000E+00 0.00000E+00
 -1         3 3.33333E-02 0.00000E+00 0.00000E+00
 -1         5 6.66667E-02 0.00000E+00 0.00000E+00
 -1         8 0.00000E+00 6.25000E-03 0.00000E+00
 -1         9 1.66667E-02 6.25000E-03 0.00000E+00
 -1        10 3.33333E-02 6.25000E-03 0.00000E+00
 -1        12 6.66667E-02 6.25000E-03 0.00000E+00
 -1        15 0.00000E+00 1.25000E-02 0.00000E+00
 -1        16 1.66667E-02 1.25000E-02 0.00000E+00
 -1        17 3.33333E-02 1.25000E-02 0.00000E+00
 -1        18 5.00000E-02 1.25000E-02 0.00000E+00
 -1        19 6.66667E-02 1.25000E-02 0.00000E+00
 -1        20 8.33333E-02 1.25000E-02 0.00000E+00
 -1        21 1.00000E-01 1.25000E-02 0.00000E+00
 -1        24 3.33333E-02 1.87500E-02 0.00000E+00
 -1        25 5.00000E-02 1.87500E-02 0.00000E+00
 -1        26 6.66667E-02 1.87500E-02 0.00000E+00
 -1        27 8.33333E-02 1.87500E-02 0.00000E+00
 -1        28 1.00000E-01 1.87500E-02 0.00000E+00
 -1        32 5.00000E-02 2.50000E-02 0.00000E+00
 -1        33 6.66667E-02 2.50000E-02 0.00000E+00
 -1        34 8.33333E-02 2.50000E-02 0.00000E+00
 -1        35 1.00000E-01 2.50000E-02 0.00000E+00
 -1        51 0.00000E+00 1.04167E-03 0.00000E+00
 -1        52 0.00000E+00 2.08333E-03 0.00000E+00
 -1        53 0.00000E+00 3.12500E-03 0.00000E+00
 -1        54 0.00000E+00 4.16667E-03 0.00000E+00
 -1        55 0.00000E+00 5.20833E-03 0.00000E+00
 -1        56 1.04167E-03 3.90630E-04 0.00000E+00
 -1        57 2.08333E-03 7.81250E-04 0.00000E+00
 -1        58 3.12500E-03 1.17188E-03 0.00000E+00
 -1        59 4.16667E-03 1.56250E-03 0.00000E+00
 -1        60 5.20833E-03 1.95312E-03 0.00000E+00
 -1        61 6.25000E-03 2.34375E-03 0.00000E+00
 -1        62 7.29167E-03 2.73438E-03 0.00000E+00
 -1        63 8.33333E-03 3.12500E-03 0.00000E+00
 -1        64 9.37500E-03 3.51563E-03 0.00000E+00
 -1        65 1.04167E-02 3.90625E-03 0.00000E+00
 -1        66 1.14583E-02 4.29688E-03 0.00000E+00
 -1        67 1.25000E-02 4.68750E-03 0.00000E+00
 -1        68 1.35417E-02 5.07813E-03 0.00000E+00
 -1        69 1.45833E-02 5.46875E-03 0.00000E+00
 -1        70 1.56250E-02 5.85938E-03 0.00000E+00
 -1        86 1.66667E-02 1.04167E-03 0.00000E+00
 -1        87 1.66667E-02 2.08333E-03 0.00000E+00
 -1        88 1.66667E-02 3.12500E-03 0.00000E+00
 -1        89 1.66667E-02 4.16667E-03 0.00000E+00
 -1        90 1.66667E-02 5.20833E-03 0.00000E+00
 -1       121 3.33333E-02 1.04167E-03 0.00000E+00
 -1       122 3.33333E-02 2.08333E-03 0.00000E+00
 -1       123 3.33333E-02 3.12500E-03 0.00000E+00
 -1       124 3.33333E-02 4.16667E-03 0.00000E+00
 -1       125 3.33333E-02 5.20833E-03 0.00000E+00
 -1       191 6.66667E-02 1.04167E-03 0.00000E+00
 -1       192 6.66667E-02 2.08333E-03 0.00000E+00
 -1       193 6.66667E-02 3.12500E-03 0.00000E+00
 -1       194 6.66667E-02 4.16667E-03 0.00000E+00
 -1       195 6.66667E-02 5.20833E-03 0.00000E+00
 -1       251 1.04167E-03 6.25000E-03 0.00000E+00
 -1       252 2.08333E-03 6.25000E-03 0.00000E+00
 -1       253 3.12500E-03 6.25000E-03 0.00000E+00
 -1       254 4.16667E-03 6.25000E-03 0.00000E+00
 -1       255 5.20833E-03 6.25000E-03 0.00000E+00
 -1       256 6.25000E-03 6.25000E-03 0.00000E+00
 -1       257 7.29167E-03 6.25000E-03 0.00000E+00
 -1       258 8.33333E-03 6.25000E-03 0.00000E+00
 -1       259 9.37500E-03 6.25000E-03 0.00000E+00
 -1       260 1.04167E-02 6.25000E-03 0.00000E+00
 -1       261 1.14583E-02 6.25000E-03 0.00000E+00
 -1       262 1.25000E-02 6.25000E-03 0.00000E+00
 -1       263 1.35417E-02 6.25000E-03 0.00000E+00
 -1       264 1.45833E-02 6.25000E-03 0.00000E+00
 -1       265 1.56250E-02 6.25000E-03 0.00000E+00
 -1       266 0.00000E+00 7.29167E-03 0.00000E+00
 -1       267 0.00000E+00 8.33333E-03 0.00000E+00
 -1       268 0.00000E+00 9.37500E-03 0.00000E+00
 -1       269 0.00000E+00 1.04167E-02 0.00000E+00
 -1       270 0.00000E+00 1.14583E-02 0.00000E+00
 -1       271 1.04167E-03 6.64063E-03 0.00000E+00
 -1       272 2.08333E-03 7.03125E-03 0.00000E+00
 -1       273 3.12500E-03 7.42188E-03 0.00000E+00
 -1       274 4.16667E-03 7.81250E-03 0.00000E+00
 -1       275 5.20833E-03 8.20313E-03 0.00000E+00
 -1       276 6.25000E-03 8.59375E-03 0.00000E+00
 -1       277 7.29167E-03 8.98438E-03 0.00000E+00
 -1       278 8.33333E-03 9.37500E-03 0.00000E+00
 -1       279 9.37500E-03 9.76562E-03 0.00000E+00
 -1       280 1.04167E-02 1.01562E-02 0.00000E+00
 -1       281 1.14583E-02 1.05469E-02 0.00000E+00
 -1       282 1.25000E-02 1.09375E-02 0.00000E+00
 -1       283 1.35417E-02 1.13281E-02 0.00000E+00
 -1       284 1.45833E-02 1.17188E-02 0.00000E+00
 -1       285 1.56250E-02 1.21094E-02 0.00000E+00
 -1       301 1.66667E-02 7.29167E-03 0.00000E+00
 -1       302 1.66667E-02 8.33333E-03 0.00000E+00
 -1       303 1.66667E-02 9.37500E-03 0.00000E+00
 -1       304 1.66667E-02 1.04167E-02 0.00000E+00
 -1       305 1.66667E-02 1.14583E-02 0.00000E+00
 -1       306 1.77083E-02 6.64063E-03 0.00000E+00
 -1       307 1.87500E-02 7.03125E-03 0.00000E+00
 -1       308 1.97917E-02 7.42188E-03 0.00000E+00
 -1       309 2.08333E-02 7.81250E-03 0.00000E+00
 -1       310 2.18750E-02 8.20313E-03 0.00000E+00
 -1       311 2.29167E-02 8.59375E-03 0.00000E+00
 -1       312 2.39583E-02 8.98438E-03 0.00000E+00
 -1       313 2.50000E-02 9.37500E-03 0.00000E+00
 -1       314 2.60417E-02 9.76562E-03 0.00000E+00
 -1       315 2.70833E-02 1.01562E-02 0.00000E+00
 -1       316 2.81250E-02 1.05469E-02 0.00000E+00
 -1       317 2.91667E-02 1.09375E-02 0.00000E+00
 -1       318 3.02083E-02 1.13281E-02 0.00000E+00
 -1       319 3.12500E-02 1.17188E-02 0.00000E+00
 -1       320 3.22917E-02 1.21094E-02 0.00000E+00
 -1       336 3.33333E-02 7.29167E-03 0.00000E+00
 -1       337 3.33333E-02 8.33333E-03 0.00000E+00
 -1       338 3.33333E-02 9.37500E-03 0.00000E+00
 -1       339 3.33333E-02 1.04167E-02 0.00000E+00
 -1       340 3.33333E-02 1.14583E-02 0.00000E+00
 -1       406 6.66667E-02 7.29167E-03 0.00000E+00
 -1       407 6.66667E-02 8.33333E-03 0.00000E+00
 -1       408 6.66667E-02 9.37500E-03 0.00000E+00
 -1       409 6.66667E-02 1.04167E-02 0.00000E+00
 -1       410 6.66667E-02 1.14583E-02 0.00000E+00
 -1       521 1.77083E-02 1.28906E-02 0.00000E+00
 -1       522 1.87500E-02 1.32813E-02 0.00000E+00
 -1       523 1.97917E-02 1.36719E-02 0.00000E+00
 -1       524 2.08333E-02 1.40625E-02 0.00000E+00
 -1       525 2.18750E-02 1.44531E-02 0.00000E+00
 -1       526 2.29167E-02 1.48437E-02 0.00000E+00
 -1       527 2.39583E-02 1.52344E-02 0.00000E+00
 -1       528 2.50000E-02 1.56250E-02 0.00000E+00
 -1       529 2.60417E-02 1.60156E-02 0.00000E+00
 -1       530 2.70833E-02 1.64062E-02 0.00000E+00
 -1       531 2.81250E-02 1.67969E-02 0.00000E+00
 -1       532 2.91667E-02 1.71875E-02 0.00000E+00
 -1       533 3.02083E-02 1.75781E-02 0.00000E+00
 -1       534 3.12500E-02 1.79687E-02 0.00000E+00
 -1       535 3.22917E-02 1.83594E-02 0.00000E+00
 -1       536 3.43750E-02 1.25000E-02 0.00000E+00
 -1       537 3.54167E-02 1.25000E-02 0.00000E+00
 -1       538 3.64583E-02 1.25000E-02 0.00000E+00
 -1       539 3.75000E-02 1.25000E-02 0.00000E+00
 -1       540 3.85417E-02 1.25000E-02 0.00000E+00
 -1       541 3.95833E-02 1.25000E-02 0.00000E+00
 -1       542 4.06250E-02 1.25000E-02 0.00000E+00
 -1       543 4.16667E-02 1.25000E-02 0.00000E+00
 -1       544 4.27083E-02 1.25000E-02 0.00000E+00
 -1       545 4.37500E-02 1.25000E-02 0.00000E+00
 -1       546 4.47917E-02 1.25000E-02 0.00000E+00
 -1       547 4.58333E-02 1.25000E-02 0.00000E+00
 -1       548 4.68750E-02 1.25000E-02 0.00000E+00
 -1       549 4.79167E-02 1.25000E-02 0.00000E+00
 -1       550 4.89583E-02 1.25000E-02 0.00000E+00
 -1       551 3.33333E-02 1.35417E-02 0.00000E+00
 -1       552 3.33333E-02 1.45833E-02 0.00000E+00
 -1       553 3.33333E-02 1.56250E-02 0.00000E+00
 -1       554 3.33333E-02 1.66667E-02 0.00000E+00
 -1       555 3.33333E-02 1.77083E-02 0.00000E+00
 -1       556 3.43750E-02 1.28906E-02 0.00000E+00
 -1       557 3.54167E-02 1.32813E-02 0.00000E+00
 -1       558 3.64583E-02 1.36719E-02 0.00000E+00
 -1       559 3.75000E-02 1.40625E-02 0.00000E+00
 -1       560 3.85417E-02 1.44531E-02 0.00000E+00
 -1       561 3.95833E-02 1.48437E-02 0.00000E+00
 -1       562 4.06250E-02 1.52344E-02 0.00000E+00
 -1       563 4.16667E-02 1.56250E-02 0.00000E+00
 -1       564 4.27083E-02 1.60156E-02 0.00000E+00
 -1       565 4.37500E-02 1.64062E-02 0.00000E+00
 -1       566 4.47917E-02 1.67969E-02 0.00000E+00
 -1       567 4.58333E-02 1.71875E-02 0.00000E+00
 -1       568 4.68750E-02 1.75781E-02 0.00000E+00
 -1       569 4.79167E-02 1.79687E-02 0.00000E+00
 -1       570 4.89583E-02 1.83594E-02 0.00000E+00
 -1       571 5.10417E-02 1.25000E-02 0.00000E+00
 -1       572 5.20833E-02 1.25000E-02 0.00000E+00
 -1       573 5.31250E-02 1.25000E-02 0.00000E+00
 -1       574 5.41667E-02 1.25000E-02 0.00000E+00
 -1       575 5.52083E-02 1.25000E-02 0.00000E+00
 -1       576 5.62500E-02 1.25000E-02 0.00000E+00
 -1       577 5.72917E-02 1.25000E-02 0.00000E+00
 -1       578 5.83333E-02 1.25000E-02 0.00000E+00
 -1       579 5.93750E-02 1.25000E-02 0.00000E+00
 -1       580 6.04167E-02 1.25000E-02 0.00000E+00
 -1       581 6.14583E-02 1.25000E-02 0.00000E+00
 -1       582 6.25000E-02 1.25000E-02 0.00000E+00
 -1       583 6.35417E-02 1.25000E-02 0.00000E+00
 -1       584 6.45833E-02 1.25000E-02 0.00000E+00
 -1       585 6.56250E-02 1.25000E-02 0.00000E+00
 -1       586 5.00000E-02 1.35417E-02 0.00000E+00
 -1       587 5.00000E-02 1.45833E-02 0.00000E+00
 -1       588 5.00000E-02 1.56250E-02 0.00000E+00
 -1       589 5.00000E-02 1.66667E-02 0.00000E+00
 -1       590 5.00000E-02 1.77083E-02 0.00000E+00
 -1       591 5.10417E-02 1.28906E-02 0.00000E+00
 -1       592 5.20833E-02 1.32813E-02 0.00000E+00
 -1       593 5.31250E-02 1.36719E-02 0.00000E+00
 -1       594 5.41667E-02 1.40625E-02 0.00000E+00
 -1       595 5.52083E-02 1.44531E-02 0.00000E+00
 -1       596 5.62500E-02 1.48437E-02 0.00000E+00
 -1       597 5.72917E-02 1.52344E-02 0.00000E+00
 -1       598 5.83333E-02 1.56250E-02 0.00000E+00
 -1       599 5.93750E-02 1.60156E-02 0.00000E+00
 -1       600 6.04167E-02 1.64062E-02 0.00000E+00
 -1       601 6.14583E-02 1.67969E-02 0.00000E+00
 -1       602 6.25000E-02 1.71875E-02 0.00000E+00
 -1       603 6.35417E-02 1.75781E-02 0.00000E+00
 -1       604 6.45833E-02 1.79687E-02 0.00000E+00
 -1       605 6.56250E-02 1.83594E-02 0.00000E+00
 -1       606 6.77083E-02 1.25000E-02 0.00000E+00
 -1       607 6.87500E-02 1.25000E-02 0.00000E+00
 -1       608 6.97917E-02 1.25000E-02 0.00000E+00
 -1       609 7.08333E-02 1.25000E-02 0.00000E+00
 -1       610 7.18750E-02 1.25000E-02 0.00000E+00
 -1       611 7.29167E-02 1.25000E-02 0.00000E+00
 -1       612 7.39583E-02 1.25000E-02 0.00000E+00
 -1       613 7.50000E-02 1.25000E-02 0.00000E+00
 -1       614 7.60417E-02 1.25000E-02 0.00000E+00
 -1       615 7.70833E-02 1.25000E-02 0.00000E+00
 -1       616 7.81250E-02 1.25000E-02 0.00000E+00
 -1       617 7.91667E-02 1.25000E-02 0.00000E+00
 -1       618 8.02083E-02 1.25000E-02 0.00000E+00
 -1       619 8.12500E-02 1.25000E-02 0.00000E+00
 -1       620 8.22917E-02 1.25000E-02 0.00000E+00
 -1       621 6.66667E-02 1.35417E-02 0.00000E+00
 -1       622 6.66667E-02 1.45833E-02 0.00000E+00
 -1       623 6.66667E-02 1.56250E-02 0.00000E+00
 -1       624 6.66667E-02 1.66667E-02 0.00000E+00
 -1       625 6.66667E-02 1.77083E-02 0.00000E+00
 -1       626 6.77083E-02 1.28906E-02 0.00000E+00
 -1       627 6.87500E-02 1.32813E-02 0.00000E+00
 -1       628 6.97917E-02 1.36719E-02 0.00000E+00
 -1       629 7.08333E-02 1.40625E-02 0.00000E+00
 -1       630 7.18750E-02 1.44531E-02 0.00000E+00
 -1       631 7.29167E-02 1.48437E-02 0.00000E+00
 -1       632 7.39583E-02 1.52344E-02 0.00000E+00
 -1       633 7.50000E-02 1.56250E-02 0.00000E+00
 -1       634 7.60417E-02 1.60156E-02 0.00000E+00
 -1       635 7.70833E-02 1.64062E-02 0.00000E+00
 -1       636 7.81250E-02 1.67969E-02 0.00000E+00
 -1       637 7.91667E-02 1.71875E-02 0.00000E+00
 -1       638 8.02083E-02 1.75781E-02 0.00000E+00
 -1       639 8.12500E-02 1.79687E-02 0.00000E+00
 -1       640 8.22917E-02 1.83594E-02 0.00000E+00
 -1       656 8.33333E-02 1.35417E-02 0.00000E+00
 -1       657 8.33333E-02 1.45833E-02 0.00000E+00
 -1       658 8.33333E-02 1.56250E-02 0.00000E+00
 -1       659 8.33333E-02 1.66667E-02 0.00000E+00
 -1       660 8.33333E-02 1.77083E-02 0.00000E+00
 -1       661 8.43750E-02 1.28906E-02 0.00000E+00
 -1       662 8.54167E-02 1.32813E-02 0.00000E+00
 -1       663 8.64583E-02 1.36719E-02 0.00000E+00
 -1       664 8.75000E-02 1.40625E-02 0.00000E+00
 -1       665 8.85417E-02 1.44531E-02 0.00000E+00
 -1       666 8.95833E-02 1.48437E-02 0.00000E+00
 -1       667 9.06250E-02 1.52344E-02 0.00000E+00
 -1       668 9.16667E-02 1.56250E-02 0.00000E+00
 -1       669 9.27083E-02 1.60156E-02 0.00000E+00
 -1       670 9.37500E-02 1.64062E-02 0.00000E+00
 -1       671 9.47917E-02 1.67969E-02 0.00000E+00
 -1       672 9.58333E-02 1.71875E-02 0.00000E+00
 -1       673 9.68750E-02 1.75781E-02 0.00000E+00
 -1       674 9.79167E-02 1.79687E-02 0.00000E+00
 -1       675 9.89583E-02 1.83594E-02 0.00000E+00
 -1       676 1.00000E-01 1.35417E-02 0.00000E+00
 -1       677 1.00000E-01 1.45833E-02 0.00000E+00
 -1       678 1.00000E-01 1.56250E-02 0.00000E+00
 -1       679 1.00000E-01 1.66667E-02 0.00000E+00
 -1       680 1.00000E-01 1.77083E-02 0.00000E+00
 -1       771 3.43750E-02 1.91406E-02 0.00000E+00
 -1       772 3.54167E-02 1.95312E-02 0.00000E+00
 -1       773 3.64583E-02 1.99219E-02 0.00000E+00
 -1       774 3.75000E-02 2.03125E-02 0.00000E+00
 -1       775 3.85417E-02 2.07031E-02 0.00000E+00
 -1       776 3.95833E-02 2.10938E-02 0.00000E+00
 -1       777 4.06250E-02 2.14844E-02 0.00000E+00
 -1       778 4.16667E-02 2.18750E-02 0.00000E+00
 -1       779 4.27083E-02 2.22656E-02 0.00000E+00
 -1       780 4.37500E-02 2.26563E-02 0.00000E+00
 -1       781 4.47917E-02 2.30469E-02 0.00000E+00
 -1       782 4.58333E-02 2.34375E-02 0.00000E+00
 -1       783 4.68750E-02 2.38281E-02 0.00000E+00
 -1       784 4.79167E-02 2.42187E-02 0.00000E+00
 -1       785 4.89583E-02 2.46094E-02 0.00000E+00
 -1       786 5.10417E-02 1.87500E-02 0.00000E+00
 -1       787 5.20833E-02 1.87500E-02 0.00000E+00
 -1       788 5.31250E-02 1.87500E-02 0.00000E+00
 -1       789 5.41667E-02 1.87500E-02 0.00000E+00
 -1       790 5.52083E-02 1.87500E-02 0.00000E+00
 -1       791 5.62500E-02 1.87500E-02 0.00000E+00
 -1       792 5.72917E-02 1.87500E-02 0.00000E+00
 -1       793 5.83333E-02 1.87500E-02 0.00000E+00
 -1       794 5.93750E-02 1.87500E-02 0.00000E+00
 -1       795 6.04167E-02 1.87500E-02 0.00000E+00
 -1       796 6.14583E-02 1.87500E-02 0.00000E+00
 -1       797 6.25000E-02 1.87500E-02 0.00000E+00
 -1       798 6.35417E-02 1.87500E-02 0.00000E+00
 -1       799 6.45833E-02 1.87500E-02 0.00000E+00
 -1       800 6.56250E-02 1.87500E-02 0.00000E+00
 -1       801 5.00000E-02 1.97917E-02 0.00000E+00
 -1       802 5.00000E-02 2.08333E-02 0.00000E+00
 -1       803 5.00000E-02 2.18750E-02 0.00000E+00
 -1       804 5.00000E-02 2.29167E-02 0.00000E+00
 -1       805 5.00000E-02 2.39583E-02 0.00000E+00
 -1       806 5.10417E-02 1.91406E-02 0.00000E+00
 -1       807 5.20833E-02 1.95312E-02 0.00000E+00
 -1       808 5.31250E-02 1.99219E-02 0.00000E+00
 -1       809 5.41667E-02 2.03125E-02 0.00000E+00
 -1       810 5.52083E-02 2.07031E-02 0.00000E+00
 -1       811 5.62500E-02 2.10938E-02 0.00000E+00
 -1       812 5.72917E-02 2.14844E-02 0.00000E+00
 -1       813 5.83333E-02 2.18750E-02 0.00000E+00
 -1       814 5.93750E-02 2.22656E-02 0.00000E+00
 -1       815 6.04167E-02 2.26563E-02 0.00000E+00
 -1       816 6.14583E-02 2.30469E-02 0.00000E+00
 -1       817 6.25000E-02 2.34375E-02 0.00000E+00
 -1       818 6.35417E-02 2.38281E-02 0.00000E+00
 -1       819 6.45833E-02 2.42187E-02 0.00000E+00
 -1       820 6.56250E-02 2.46094E-02 0.00000E+00
 -1       821 6.77083E-02 1.87500E-02 0.00000E+00
 -1       822 6.87500E-02 1.87500E-02 0.00000E+00
 -1       823 6.97917E-02 1.87500E-02 0.00000E+00
 -1       824 7.08333E-02 1.87500E-02 0.00000E+00
 -1       825 7.18750E-02 1.87500E-02 0.00000E+00
 -1       826 7.29167E-02 1.87500E-02 0.00000E+00
 -1       827 7.39583E-02 1.87500E-02 0.00000E+00
 -1       828 7.50000E-02 1.87500E-02 0.00000E+00
 -1       829 7.60417E-02 1.87500E-02 0.00000E+00
 -1       830 7.70833E-02 1.87500E-02 0.00000E+00
 -1       831 7.81250E-02 1.87500E-02 0.00000E+00
 -1       832 7.91667E-02 1.87500E-02 0.00000E+00
 -1       833 8.02083E-02 1.87500E-02 0.00000E+00
 -1       834 8.12500E-02 1.87500E-02 0.00000E+00
 -1       835 8.22917E-02 1.87500E-02 0.00000E+00
 -1       836 6.66667E-02 1.97917E-02 0.00000E+00
 -1       837 6.66667E-02 2.08333E-02 0.00000E+00
 -1       838 6.66667E-02 2.18750E-02 0.00000E+00
 -1       839 6.66667E-02 2.29167E-02 0.00000E+00
 -1       840 6.66667E-02 2.39583E-02 0.00000E+00
 -1       856 8.43750E-02 1.87500E-02 0.00000E+00
 -1       857 8.54167E-02 1.87500E-02 0.00000E+00
 -1       858 8.64583E-02 1.87500E-02 0.00000E+00
 -1       859 8.75000E-02 1.87500E-02 0.00000E+00
 -1       860 8.85417E-02 1.87500E-02 0.00000E+00
 -1       861 8.95833E-02 1.87500E-02 0.00000E+00
 -1       862 9.06250E-02 1.87500E-02 0.00000E+00
 -1       863 9.16667E-02 1.87500E-02 0.00000E+00
 -1       864 9.27083E-02 1.87500E-02 0.00000E+00
 -1       865 9.37500E-02 1.87500E-02 0.00000E+00
 -1       866 9.47917E-02 1.87500E-02 0.00000E+00
 -1       867 9.58333E-02 1.87500E-02 0.00000E+00
 -1       868 9.68750E-02 1.87500E-02 0.00000E+00
 -1       869 9.79167E-02 1.87500E-02 0.00000E+00
 -1       870 9.89583E-02 1.87500E-02 0.00000E+00
 -1       871 8.33333E-02 1.97917E-02 0.00000E+00
 -1       872 8.33333E-02 2.08333E-02 0.00000E+00
 -1       873 8.33333E-02 2.18750E-02 0.00000E+00
 -1       874 8.33333E-02 2.29167E-02 0.00000E+00
 -1       875 8.33333E-02 2.39583E-02 0.00000E+00
 -1       876 8.43750E-02 1.91406E-02 0.00000E+00
 -1       877 8.54167E-02 1.95312E-02 0.00000E+00
 -1       878 8.64583E-02 1.99219E-02 0.00000E+00
 -1       879 8.75000E-02 2.03125E-02 0.00000E+00
 -1       880 8.85417E-02 2.07031E-02 0.00000E+00
 -1       881 8.95833E-02 2.10938E-02 0.00000E+00
 -1       882 9.06250E-02 2.14844E-02 0.00000E+00
 -1       883 9.16667E-02 2.18750E-02 0.00000E+00
 -1       884 9.27083E-02 2.22656E-02 0.00000E+00
 -1       885 9.37500E-02 2.26563E-02 0.00000E+00
 -1       886 9.47917E-02 2.30469E-02 0.00000E+00
 -1       887 9.58333E-02 2.34375E-02 0.00000E+00
 -1       888 9.68750E-02 2.38281E-02 0.00000E+00
 -1       889 9.79167E-02 2.42187E-02 0.00000E+00
 -1       890 9.89583E-02 2.46094E-02 0.00000E+00
 -1       891 1.00000E-01 1.97917E-02 0.00000E+00
 -1       892 1.00000E-01 2.08333E-02 0.00000E+00
 -1       893 1.00000E-01 2.18750E-02 0.00000E+00
 -1       894 1.00000E-01 2.29167E-02 0.00000E+00
 -1       895 1.00000E-01 2.39583E-02 0.00000E+00
 -1       956 6.77083E-02 2.50000E-02 0.00000E+00
 -1       957 6.87500E-02 2.50000E-02 0.00000E+00
 -1       958 6.97917E-02 2.50000E-02 0.00000E+00
 -1       959 7.08333E-02 2.50000E-02 0.00000E+00
 -1       960 7.18750E-02 2.50000E-02 0.00000E+00
 -1       961 7.29167E-02 2.50000E-02 0.00000E+00
 -1       962 7.39583E-02 2.50000E-02 0.00000E+00
 -1       963 7.50000E-02 2.50000E-02 0.00000E+00
 -1       964 7.60417E-02 2.50000E-02 0.00000E+00
 -1       965 7.70833E-02 2.50000E-02 0.00000E+00
 -1       966 7.81250E-02 2.50000E-02 0.00000E+00
 -1       967 7.91667E-02 2.50000E-02 0.00000E+00
 -1       968 8.02083E-02 2.50000E-02 0.00000E+00
 -1       969 8.12500E-02 2.50000E-02 0.00000E+00
 -1       970 8.22917E-02 2.50000E-02 0.00000E+00
 -1       971 8.43750E-02 2.50000E-02 0.00000E+00
 -1       972 8.54167E-02 2.50000E-02 0.00000E+00
 -1       973 8.64583E-02 2.50000E-02 0.00000E+00
 -1       974 8.75000E-02 2.50000E-02 0.00000E+00
 -1       975 8.85417E-02 2.50000E-02 0.00000E+00
 -1       976 8.95833E-02 2.50000E-02 0.00000E+00
 -1       977 9.06250E-02 2.50000E-02 0.00000E+00
 -1       978 9.16667E-02 2.50000E-02 0.00000E+00
 -1       979 9.27083E-02 2.50000E-02 0.00000E+00
 -1       980 9.37500E-02 2.50000E-02 0.00000E+00
 -1       981 9.47917E-02 2.50000E-02 0.00000E+00
 -1       982 9.58333E-02 2.50000E-02 0.00000E+00
 -1       983 9.68750E-02 2.50000E-02 0.00000E+00
 -1       984 9.79167E-02 2.50000E-02 0.00000E+00
 -1       985 9.89583E-02 2.50000E-02 0.00000E+00
 -3
    3C                           211                                     1
 -1         1   12    0    1
 -2         1        52        51
 -1         2   12    0    1
 -2        52        54        53
 -1         3   12    0    1
 -2        54         8        55
 -1         4   12    0    1
 -2         1        57        56
 -1         5   12    0    1
 -2        57        59        58
 -1         6   12    0    1
 -2        59        61        60
 -1         7   12    0    1
 -2        61        63        62
 -1         8   12    0    1
 -2        63        65        64
 -1         9   12    0    1
 -2        65        67        66
 -1        10   12    0    1
 -2        67        69        68
 -1        11   12    0    1
 -2        69         9        70
 -1        12   12    0    1
 -2         2        87        86
 -1        13   12    0    1
 -2        87        89        88
 -1        14   12    0    1
 -2        89         9        90
 -1        15   12    0    1
 -2         3       122       121
 -1        16   12    0    1
 -2       122       124       123
 -1        17   12    0    1
 -2       124        10       125
 -1        18   12    0    1
 -2         5       192       191
 -1        19   12    0    1
 -2       192       194       193
 -1        20   12    0    1
 -2       194        12       195
 -1        21   12    0    1
 -2         8       252       251
 -1        22   12    0    1
 -2       252       254       253
 -1        23   12    0    1
 -2       254       256       255
 -1        24   12    0    1
 -2       256       258       257
 -1        25   12    0    1
 -2       258       260       259
 -1        26   12    0    1
 -2       260       262       261
 -1        27   12    0    1
 -2       262       264       263
 -1        28   12    0    1
 -2       264         9       265
 -1        29   12    0    1
 -2         8       267       266
 -1        30   12    0    1
 -2       267       269       268
 -1        31   12    0    1
 -2       269        15       270
 -1        32   12    0    1
 -2         8       272       271
 -1        33   12    0    1
 -2       272       274       273
 -1        34   12    0    1
 -2       274       276       275
 -1        35   12    0    1
 -2       276       278       277
 -1        36   12    0    1
 -2       278       280       279
 -1        37   12    0    1
 -2       280       282       281
 -1        38   12    0    1
 -2       282       284       283
 -1        39   12    0    1
 -2       284        16       285
 -1        40   12    0    1
 -2         9       302       301
 -1        41   12    0    1
 -2       302       304       303
 -1        42   12    0    1
 -2       304        16       305
 -1        43   12    0    1
 -2         9       307       306
 -1        44   12    0    1
 -2       307       309       308
 -1        45   12    0    1
 -2       309       311       310
 -1        46   12    0    1
 -2       311       313       312
 -1        47   12    0    1
 -2       313       315       314
 -1        48   12    0    1
 -2       315       317       316
 -1        49   12    0    1
 -2       317       319       318
 -1        50   12    0    1
 -2       319        17       320
 -1        51   12    0    1
 -2        10       337       336
 -1        52   12    0    1
 -2       337       339       338
 -1        53   12    0    1
 -2       339        17       340
 -1        54   12    0    1
 -2        12       407       406
 -1        55   12    0    1
 -2       407       409       408
 -1        56   12    0    1
 -2       409        19       410
 -1        57   12    0    1
 -2        16       522       521
 -1        58   12    0    1
 -2       522       524       523
 -1        59   12    0    1
 -2       524       526       525
 -1        60   12    0    1
 -2       526       528       527
 -1        61   12    0    1
 -2       528       530       529
 -1        62   12    0    1
 -2       530       532       531
 -1        63   12    0    1
 -2       532       534       533
 -1        64   12    0    1
 -2       534        24       535
 -1        65   12    0    1
 -2        17       537       536
 -1        66   12    0    1
 -2       537       539       538
 -1        67   12    0    1
 -2       539       541       540
 -1        68   12    0    1
 -2       541       543       542
 -1        69   12    0    1
 -2       543       545       544
 -1        70   12    0    1
 -2       545       547       546
 -1        71   12    0    1
 -2       547       549       548
 -1        72   12    0    1
 -2       549        18       550
 -1        73   12    0    1
 -2        17       552       551
 -1        74   12    0    1
 -2       552       554       553
 -1        75   12    0    1
 -2       554        24       555
 -1        76   12    0    1
 -2        17       557       556
 -1        77   12    0    1
 -2       557       559       558
 -1        78   12    0    1
 -2       559       561       560
 -1        79   12    0    1
 -2       561       563       562
 -1        80   12    0    1
 -2       563       565       564
 -1        81   12    0    1
 -2       565       567       566
 -1        82   12    0    1
 -2       567       569       568
 -1        83   12    0    1
 -2       569        25       570
 -1        84   12    0    1
 -2        18       572       571
 -1        85   12    0    1
 -2       572       574       573
 -1        86   12    0    1
 -2       574       576       575
 -1        87   12    0    1
 -2       576       578       577
 -1        88   12    0    1
 -2       578       580       579
 -1        89   12    0    1
 -2       580       582       581
 -1        90   12    0    1
 -2       582       584       583
 -1        91   12    0    1
 -2       584        19       585
 -1        92   12    0    1
 -2        18       587       586
 -1        93   12    0    1
 -2       587       589       588
 -1        94   12    0    1
 -2       589        25       590
 -1        95   12    0    1
 -2        18       592       591
 -1        96   12    0    1
 -2       592       594       593
 -1        97   12    0    1
 -2       594       596       595
 -1        98   12    0    1
 -2       596       598       597
 -1        99   12    0    1
 -2       598       600       599
 -1       100   12    0    1
 -2       600       602       601
 -1       101   12    0    1
 -2       602       604       603
 -1       102   12    0    1
 -2       604        26       605
 -1       103   12    0    1
 -2        19       607       606
 -1       104   12    0    1
 -2       607       609       608
 -1       105   12    0    1
 -2       609       611       610
 -1       106   12    0    1
 -2       611       613       612
 -1       107   12    0    1
 -2       613       615       614
 -1       108   12    0    1
 -2       615       617       616
 -1       109   12    0    1
 -2       617       619       618
 -1       110   12    0    1
 -2       619        20       620
 -1       111   12    0    1
 -2        19       622       621
 -1       112   12    0    1
 -2       622       624       623
 -1       113   12    0    1
 -2       624        26       625
 -1       114   12    0    1
 -2        19       627       626
 -1       115   12    0    1
 -2       627       629       628
 -1       116   12    0    1
 -2       629       631       630
 -1       117   12    0    1
 -2       631       633       632
 -1       118   12    0    1
 -2       633       635       634
 -1       119   12    0    1
 -2       635       637       636
 -1       120   12    0    1
 -2       637       639       638
 -1       121   12    0    1
 -2       639        27       640
 -1       122   12    0    1
 -2        20       657       656
 -1       123   12    0    1
 -2       657       659       658
 -1       124   12    0    1
 -2       659        27       660
 -1       125   12    0    1
 -2        20       662       661
 -1       126   12    0    1
 -2       662       664       663
 -1       127   12    0    1
 -2       664       666       665
 -1       128   12    0    1
 -2       666       668       667
 -1       129   12    0    1
 -2       668       670       669
 -1       130   12    0    1
 -2       670       672       671
 -1       131   12    0    1
 -2       672       674       673
 -1       132   12    0    1
 -2       674        28       675
 -1       133   12    0    1
 -2        21       677       676
 -1       134   12    0    1
 -2       677       679       678
 -1       135   12    0    1
 -2       679        28       680
 -1       136   12    0    1
 -2        24       772       771
 -1       137   12    0    1
 -2       772       774       773
 -1       138   12    0    1
 -2       774       776       775
 -1       139   12    0    1
 -2       776       778       777
 -1       140   12    0    1
 -2       778       780       779
 -1       141   12    0    1
 -2       780       782       781
 -1       142   12    0    1
 -2       782       784       783
 -1       143   12    0    1
 -2       784        32       785
 -1       144   12    0    1
 -2        25       787       786
 -1       145   12    0    1
 -2       787       789       788
 -1       146   12    0    1
 -2       789       791       790
 -1       147   12    0    1
 -2       791       793       792
 -1       148   12    0    1
 -2       793       795       794
 -1       149   12    0    1
 -2       795       797       796
 -1       150   12    0    1
 -2       797       799       798
 -1       151   12    0    1
 -2       799        26       800
 -1       152   12    0    1
 -2        25       802       801
 -1       153   12    0    1
 -2       802       804       803
 -1       154   12    0    1
 -2       804        32       805
 -1       155   12    0    1
 -2        25       807       806
 -1       156   12    0    1
 -2       807       809       808
 -1       157   12    0    1
 -2       809       811       810
 -1       158   12    0    1
 -2       811       813       812
 -1       159   12    0    1
 -2       813       815       814
 -1       160   12    0    1
 -2       815       817       816
 -1       161   12    0    1
 -2       817       819       818
 -1       162   12    0    1
 -2       819        33       820
 -1       163   12    0    1
 -2        26       822       821
 -1       164   12    0    1
 -2       822       824       823
 -1       165   12    0    1
 -2       824       826       825
 -1       166   12    0    1
 -2       826       828       827
 -1       167   12    0    1
 -2       828       830       829
 -1       168   12    0    1
 -2       830       832       831
 -1       169   12    0    1
 -2       832       834       833
 -1       170   12    0    1
 -2       834        27       835
 -1       171   12    0    1
 -2        26       837       836
 -1       172   12    0    1
 -2       837       839       838
 -1       173   12    0    1
 -2       839        33       840
 -1       174   12    0    1
 -2        27       857       856
 -1       175   12    0    1
 -2       857       859       858
 -1       176   12    0    1
 -2       859       861       860
 -1       177   12    0    1
 -2       861       863       862
 -1       178   12    0    1
 -2       863       865       864
 -1       179   12    0    1
 -2       865       867       866
 -1       180   12    0    1
 -2       867       869       868
 -1       181   12    0    1
 -2       869        28       870
 -1       182   12    0    1
 -2        27       872       871
 -1       183   12    0    1
 -2       872       874       873
 -1       184   12    0    1
 -2       874        34       875
 -1       185   12    0    1
 -2        27       877       876
 -1       186   12    0    1
 -2       877       879       878
 -1       187   12    0    1
 -2       879       881       880
 -1       188   12    0    1
 -2       881       883       882
 -1       189   12    0    1
 -2       883       885       884
 -1       190   12    0    1
 -2       885       887       886
 -1       191   12    0    1
 -2       887       889       888
 -1       192   12    0    1
 -2       889        35       890
 -1       193   12    0    1
 -2        28       892       891
 -1       194   12    0    1
 -2       892       894       893
 -1       195   12    0    1
 -2       894        35       895
 -1       196   12    0    1
 -2        33       957       956
 -1       197   12    0    1
 -2       957       959       958
 -1       198   12    0    1
 -2       959       961       960
 -1       199   12    0    1
 -2       961       963       962
 -1       200   12    0    1
 -2       963       965       964
 -1       201   12    0    1
 -2       965       967       966
 -1       202   12    0    1
 -2       967       969       968
 -1       203   12    0    1
 -2       969        34       970
 -1       204   12    0    1
 -2        34       972       971
 -1       205   12    0    1
 -2       972       974       973
 -1       206   12    0    1
 -2       974       976       975
 -1       207   12    0    1
 -2       976       978       977
 -1       208   12    0    1
 -2       978       980       979
 -1       209   12    0    1
 -2       980       982       981
 -1       210   12    0    1
 -2       982       984       983
 -1       211   12    0    1
 -2       984        35       985
 -3
    1PSTEP                         1           1           1          
  100CL  101 1.000000000         409                     0    1           1
 -4  DISP        4    1
 -5  D1          1    2    1    0
 -5  D2          1    2    2    0
 -5  D3          1    2    3    0
 -5  ALL         1    2    0    0    1ALL
 -1         1 2.04541E-04 0.00000E+00 0.00000E+00
 -1         2 1.83654E-04 1.79572E-28 0.00000E+00
 -1         3 1.77920E-04-8.70863E-27 0.00000E+00
 -1         5 1.23285E-04 6.69912E-25 0.00000E+00
 -1         8 1.64930E-04-1.69157E-06 0.00000E+00
 -1         9 1.57239E-04-8.72381E-07 0.00000E+00
 -1        10 1.63174E-04-3.00948E-06-6.61744E-24
 -1        12 1.22164E-04 1.14483E-06 0.00000E+00
 -1        15 1.20038E-04-1.89866E-06 0.00000E+00
 -1        16 1.09778E-04-1.21552E-06 0.00000E+00
 -1        17 1.17145E-04-6.40636E-06 0.00000E+00
 -1        18 1.16678E-04 3.79918E-07 0.00000E+00
 -1        19 1.18799E-04 2.28266E-06 0.00000E+00
 -1        20 1.19337E-04 2.96539E-05 0.00000E+00
 -1        21 1.16955E-04 6.19357E-05 0.00000E+00
 -1        24 3.25403E-05-8.64969E-06 0.00000E+00
 -1        25 1.12664E-04 6.87721E-07 0.00000E+00
 -1        26 1.14453E-04 3.11893E-06 0.00000E+00
 -1        27 1.11851E-04 2.76681E-05 0.00000E+00
 -1        28 1.10194E-04 6.10027E-05 0.00000E+00
 -1        32 0.00000E+00 0.00000E+00 0.00000E+00
 -1        33 1.08743E-04 4.21325E-06 0.00000E+00
 -1        34 1.06005E-04 2.75735E-05 0.00000E+00
 -1        35 1.02918E-04 6.04721E-05 0.00000E+00
 -1        51 2.01766E-04-2.74995E-07 0.00000E+00
 -1        52 1.96907E-04-5.44036E-07 0.00000E+00
 -1        53 1.90370E-04-8.16727E-07 0.00000E+00
 -1        54 1.82579E-04-1.09625E-06 6.61744E-24
 -1        55 1.73957E-04-1.38425E-06-4.13590E-24
 -1        56 2.02376E-04-1.86767E-06 5.29396E-23
 -1        57 2.00765E-04-5.49371E-06 2.64698E-23
 -1        58 1.99644E-04-1.04204E-05 0.00000E+00
 -1        59 1.98803E-04-1.61517E-05-5.29396E-23
 -1        60 1.98034E-04-2.20811E-05 0.00000E+00
 -1        61 1.97109E-04-2.75961E-05 0.00000E+00
 -1        62 1.95822E-04-3.21342E-05 1.05879E-22
 -1        63 1.93984E-04-3.51931E-05 0.00000E+00
 -1        64 1.91473E-04-3.64522E-05 0.00000E+00
 -1        65 1.88207E-04-3.57004E-05 0.00000E+00
 -1        66 1.84194E-04-3.29725E-05-1.05879E-22
 -1        67 1.79491E-04-2.84224E-05 0.00000E+00
 -1        68 1.74238E-04-2.24277E-05 5.29396E-23
 -1        69 1.68623E-04-1.54470E-05-2.64698E-23
 -1        70 1.62850E-04-8.07055E-06 0.00000E+00
 -1        86 1.82846E-04-1.28154E-07 3.30872E-24
 -1        87 1.80425E-04-2.59453E-07 3.30872E-24
 -1        88 1.76500E-04-3.95391E-07 0.00000E+00
 -1        89 1.71189E-04-5.41530E-07 0.00000E+00
 -1        90 1.64697E-04-6.92934E-07 1.32349E-23
 -1       121 1.77507E-04-4.97637E-07 1.32349E-23
 -1       122 1.76267E-04-9.95940E-07 6.61744E-24
 -1       123 1.74206E-04-1.49556E-06-1.32349E-23
 -1       124 1.71330E-04-1.99723E-06 6.61744E-24
 -1       125 1.67648E-04-2.50140E-06 0.00000E+00
 -1       191 1.23254E-04 1.90834E-07 0.00000E+00
 -1       192 1.23161E-04 3.81661E-07 0.00000E+00
 -1       193 1.23005E-04 5.72482E-07-6.61744E-24
 -1       194 1.22787E-04 7.63289E-07 0.00000E+00
 -1       195 1.22507E-04 9.54074E-07 0.00000E+00
 -1       251 1.64432E-04 4.94163E-06 1.32349E-23
 -1       252 1.63951E-04 9.82121E-06 6.61744E-24
 -1       253 1.63477E-04 1.25335E-05 1.32349E-23
 -1       254 1.63008E-04 1.27060E-05-6.61744E-24
 -1       255 1.62536E-04 1.05421E-05 0.00000E+00
 -1       256 1.62059E-04 6.28993E-06 0.00000E+00
 -1       257 1.61575E-04 6.71178E-07-1.32349E-23
 -1       258 1.61088E-04-5.56617E-06-6.61744E-24
 -1       259 1.60602E-04-1.15345E-05 0.00000E+00
 -1       260 1.60122E-04-1.63512E-05 6.61744E-24
 -1       261 1.59649E-04-1.93952E-05 0.00000E+00
 -1       262 1.59179E-04-2.00794E-05 0.00000E+00
 -1       263 1.58709E-04-1.83520E-05 0.00000E+00
 -1       264 1.58230E-04-1.42075E-05 0.00000E+00
 -1       265 1.57742E-04-8.18820E-06-1.32349E-23
 -1       266 1.57448E-04-1.74899E-06 1.32349E-23
 -1       267 1.49966E-04-1.78071E-06 0.00000E+00
 -1       268 1.42484E-04-1.81406E-06-3.30872E-24
 -1       269 1.35002E-04-1.84259E-06-8.27181E-25
 -1       270 1.27520E-04-1.87101E-06 8.27181E-25
 -1       271 1.59572E-04 3.69169E-06 0.00000E+00
 -1       272 1.54844E-04 7.11669E-06-5.29396E-23
 -1       273 1.50806E-04 8.73449E-06-1.05879E-22
 -1       274 1.47366E-04 8.71958E-06-5.29396E-23
 -1       275 1.44443E-04 7.32410E-06-1.05879E-22
 -1       276 1.41921E-04 4.84680E-06 0.00000E+00
 -1       277 1.39675E-04 1.63159E-06-1.05879E-22
 -1       278 1.37564E-04-1.95031E-06-5.29396E-23
 -1       279 1.35447E-04-5.51272E-06 1.05879E-22
 -1       280 1.33178E-04-8.67012E-06 0.00000E+00
 -1       281 1.30622E-04-1.10537E-05 0.00000E+00
 -1       282 1.27650E-04-1.23237E-05 5.29396E-23
 -1       283 1.24151E-04-1.21860E-05-1.05879E-22
 -1       284 1.20042E-04-1.03958E-05-5.29396E-23
 -1       285 1.15239E-04-6.78376E-06 0.00000E+00
 -1       301 1.49261E-04-9.42438E-07 1.32349E-23
 -1       302 1.41280E-04-9.84805E-07 0.00000E+00
 -1       303 1.33318E-04-1.02489E-06-6.61744E-24
 -1       304 1.25399E-04-1.06727E-06 1.32349E-23
 -1       305 1.17545E-04-1.11561E-06 2.64698E-23
 -1       306 1.52470E-04 4.97589E-06 0.00000E+00
 -1       307 1.48573E-04 8.32835E-06-2.64698E-23
 -1       308 1.45587E-04 9.28645E-06 5.29396E-23
 -1       309 1.43419E-04 8.02993E-06 0.00000E+00
 -1       310 1.41946E-04 4.91300E-06 5.29396E-23
 -1       311 1.41001E-04 3.71225E-07 2.64698E-23
 -1       312 1.40382E-04-5.05159E-06 0.00000E+00
 -1       313 1.39872E-04-1.07718E-05 0.00000E+00
 -1       314 1.39249E-04-1.61827E-05 5.29396E-23
 -1       315 1.38291E-04-2.06921E-05 2.64698E-23
 -1       316 1.36804E-04-2.37762E-05-5.29396E-23
 -1       317 1.34615E-04-2.49761E-05 2.64698E-23
 -1       318 1.31600E-04-2.39755E-05-5.29396E-23
 -1       319 1.27684E-04-2.05541E-05 0.00000E+00
 -1       320 1.22830E-04-1.46825E-05-5.29396E-23
 -1       336 1.57818E-04-3.56105E-06 0.00000E+00
 -1       337 1.51498E-04-4.11876E-06 6.61744E-24
 -1       338 1.44237E-04-4.68242E-06 1.32349E-23
 -1       339 1.36068E-04-5.25192E-06 6.61744E-24
 -1       340 1.27024E-04-5.82873E-06 0.00000E+00
 -1       406 1.21759E-04 1.33554E-06-6.61744E-24
 -1       407 1.21292E-04 1.52616E-06 0.00000E+00
 -1       408 1.20762E-04 1.71663E-06 6.61744E-24
 -1       409 1.20169E-04 1.90670E-06 0.00000E+00
 -1       410 1.19515E-04 2.09598E-06-6.61744E-24
 -1       521 1.03168E-04 3.45708E-06 0.00000E+00
 -1       522 9.75532E-05 5.11432E-06 0.00000E+00
 -1       523 9.30873E-05 3.74522E-06 0.00000E+00
 -1       524 8.96564E-05-4.60834E-07 0.00000E+00
 -1       525 8.70533E-05-6.89989E-06 0.00000E+00
 -1       526 8.49784E-05-1.47826E-05 5.29396E-23
 -1       527 8.30682E-05-2.31138E-05 0.00000E+00
 -1       528 8.09423E-05-3.08610E-05-5.29396E-23
 -1       529 7.82493E-05-3.70734E-05 1.05879E-22
 -1       530 7.46836E-05-4.09338E-05 5.29396E-23
 -1       531 7.00566E-05-4.19569E-05 0.00000E+00
 -1       532 6.42723E-05-3.99016E-05 0.00000E+00
 -1       533 5.73907E-05-3.49600E-05-1.05879E-22
 -1       534 4.95927E-05-2.75637E-05 0.00000E+00
 -1       535 4.11451E-05-1.85037E-05 0.00000E+00
 -1       536 1.17066E-04 2.70492E-06 0.00000E+00
 -1       537 1.17019E-04 9.59447E-06 0.00000E+00
 -1       538 1.16982E-04 1.44869E-05-1.65436E-24
 -1       539 1.16954E-04 1.76081E-05 0.00000E+00
 -1       540 1.16931E-04 1.91855E-05 0.00000E+00
 -1       541 1.16909E-04 1.94473E-05 0.00000E+00
 -1       542 1.16887E-04 1.86228E-05 0.00000E+00
 -1       543 1.16864E-04 1.69419E-05 0.00000E+00
 -1       544 1.16840E-04 1.46353E-05 0.00000E+00
 -1       545 1.16815E-04 1.19337E-05 4.13590E-25
 -1       546 1.16789E-04 9.06850E-06-4.13590E-25
 -1       547 1.16764E-04 6.27104E-06-2.06795E-25
 -1       548 1.16740E-04 3.77254E-06 2.06795E-25
 -1       549 1.16717E-04 1.80414E-06 0.00000E+00
 -1       550 1.16696E-04 5.96554E-07 0.00000E+00
 -1       551 1.04723E-04-6.75265E-06-6.61744E-24
 -1       552 9.07315E-05-7.11224E-06 1.08567E-24
 -1       553 7.58389E-05-7.48369E-06-1.32349E-23
 -1       554 6.07246E-05-7.86219E-06 0.00000E+00
 -1       555 4.60678E-05-8.24096E-06-2.64698E-23
 -1       556 1.13669E-04 2.40662E-06 0.00000E+00
 -1       557 1.11002E-04 9.15104E-06-1.32349E-23
 -1       558 1.09053E-04 1.40174E-05 2.64698E-23
 -1       559 1.07742E-04 1.72116E-05 0.00000E+00
 -1       560 1.06986E-04 1.89395E-05 0.00000E+00
 -1       561 1.06704E-04 1.94083E-05 0.00000E+00
 -1       562 1.06817E-04 1.88258E-05 0.00000E+00
 -1       563 1.07246E-04 1.74002E-05 0.00000E+00
 -1       564 1.07912E-04 1.53399E-05 0.00000E+00
 -1       565 1.08737E-04 1.28537E-05 0.00000E+00
 -1       566 1.09643E-04 1.01506E-05 3.30872E-24
 -1       567 1.10552E-04 7.43955E-06 7.23783E-25
 -1       568 1.11386E-04 4.92946E-06 0.00000E+00
 -1       569 1.12068E-04 2.82906E-06-1.65436E-24
 -1       570 1.12518E-04 1.34702E-06 0.00000E+00
 -1       571 1.16806E-04 5.87429E-07 1.65436E-24
 -1       572 1.16938E-04 7.08696E-07 0.00000E+00
 -1       573 1.17070E-04 7.58916E-07 0.00000E+00
 -1       574 1.17203E-04 7.54090E-07 8.27181E-25
 -1       575 1.17336E-04 7.10287E-07-3.30872E-24
 -1       576 1.17469E-04 6.43683E-07 0.00000E+00
 -1       577 1.17602E-04 5.70461E-07 0.00000E+00
 -1       578 1.17735E-04 5.06822E-07 0.00000E+00
 -1       579 1.17868E-04 4.68962E-07 0.00000E+00
 -1       580 1.18001E-04 4.73084E-07 3.30872E-24
 -1       581 1.18134E-04 5.35388E-07-6.61744E-24
 -1       582 1.18267E-04 6.72058E-07 6.61744E-24
 -1       583 1.18400E-04 8.99267E-07 0.00000E+00
 -1       584 1.18533E-04 1.23303E-06 0.00000E+00
 -1       585 1.18666E-04 1.68926E-06 0.00000E+00
 -1       586 1.16028E-04 4.33015E-07 0.00000E+00
 -1       587 1.15296E-04 4.85733E-07 0.00000E+00
 -1       588 1.14538E-04 5.38187E-07 4.13590E-25
 -1       589 1.13809E-04 5.90074E-07 0.00000E+00
 -1       590 1.13166E-04 6.40873E-07 0.00000E+00
 -1       591 1.16513E-04 6.38188E-07-8.27181E-25
 -1       592 1.16368E-04 8.27088E-07 0.00000E+00
 -1       593 1.16243E-04 9.60148E-07 1.65436E-24
 -1       594 1.16133E-04 1.04946E-06 0.00000E+00
 -1       595 1.16036E-04 1.10721E-06-1.65436E-24
 -1       596 1.15945E-04 1.14550E-06 0.00000E+00
 -1       597 1.15857E-04 1.17644E-06 0.00000E+00
 -1       598 1.15768E-04 1.21210E-06 8.27181E-25
 -1       599 1.15672E-04 1.26457E-06-1.65436E-24
 -1       600 1.15565E-04 1.34593E-06 0.00000E+00
 -1       601 1.15443E-04 1.46824E-06-1.65436E-24
 -1       602 1.15301E-04 1.64361E-06 0.00000E+00
 -1       603 1.15135E-04 1.88412E-06 0.00000E+00
 -1       604 1.14940E-04 2.20192E-06-5.16988E-25
 -1       605 1.14713E-04 2.60909E-06 0.00000E+00
 -1       606 1.18839E-04 3.15334E-06-6.61744E-24
 -1       607 1.18875E-04 4.18585E-06 0.00000E+00
 -1       608 1.18910E-04 5.37059E-06 0.00000E+00
 -1       609 1.18944E-04 6.69679E-06-3.30872E-24
 -1       610 1.18978E-04 8.15361E-06 0.00000E+00
 -1       611 1.19011E-04 9.73006E-06 0.00000E+00
 -1       612 1.19044E-04 1.14151E-05 0.00000E+00
 -1       613 1.19078E-04 1.31978E-05 0.00000E+00
 -1       614 1.19111E-04 1.50672E-05 0.00000E+00
 -1       615 1.19143E-04 1.70121E-05 0.00000E+00
 -1       616 1.19176E-04 1.90217E-05 0.00000E+00
 -1       617 1.19209E-04 2.10849E-05 0.00000E+00
 -1       618 1.19241E-04 2.31907E-05 0.00000E+00
 -1       619 1.19274E-04 2.53281E-05 1.65436E-24
 -1       620 1.19306E-04 2.74862E-05 0.00000E+00
 -1       621 1.18032E-04 2.42274E-06 3.30872E-24
 -1       622 1.17269E-04 2.56318E-06-1.65436E-24
 -1       623 1.16519E-04 2.70355E-06 0.00000E+00
 -1       624 1.15792E-04 2.84358E-06 0.00000E+00
 -1       625 1.15101E-04 2.98311E-06 0.00000E+00
 -1       626 1.18607E-04 3.22405E-06-6.61744E-24
 -1       627 1.18355E-04 4.32879E-06 0.00000E+00
 -1       628 1.18047E-04 5.58132E-06 0.00000E+00
 -1       629 1.17690E-04 6.96492E-06 0.00000E+00
 -1       630 1.17289E-04 8.46286E-06 0.00000E+00
 -1       631 1.16853E-04 1.00583E-05 0.00000E+00
 -1       632 1.16385E-04 1.17343E-05 0.00000E+00
 -1       633 1.15894E-04 1.34742E-05 0.00000E+00
 -1       634 1.15385E-04 1.52610E-05 0.00000E+00
 -1       635 1.14865E-04 1.70779E-05 0.00000E+00
 -1       636 1.14339E-04 1.89081E-05 0.00000E+00
 -1       637 1.13815E-04 2.07347E-05 1.65436E-24
 -1       638 1.13299E-04 2.25409E-05-3.30872E-24
 -1       639 1.12796E-04 2.43099E-05 0.00000E+00
 -1       640 1.12312E-04 2.60247E-05-3.30872E-24
 -1       656 1.17502E-04 2.93308E-05 0.00000E+00
 -1       657 1.16159E-04 2.89943E-05 0.00000E+00
 -1       658 1.15117E-04 2.86592E-05 0.00000E+00
 -1       659 1.14182E-04 2.83245E-05 3.30872E-24
 -1       660 1.13159E-04 2.79886E-05 0.00000E+00
 -1       661 1.18670E-04 3.18549E-05 0.00000E+00
 -1       662 1.17996E-04 3.40858E-05 0.00000E+00
 -1       663 1.17317E-04 3.63316E-05-3.30872E-24
 -1       664 1.16638E-04 3.85800E-05 0.00000E+00
 -1       665 1.15963E-04 4.08179E-05 3.30872E-24
 -1       666 1.15297E-04 4.30324E-05 0.00000E+00
 -1       667 1.14645E-04 4.52106E-05 3.30872E-24
 -1       668 1.14011E-04 4.73396E-05-1.65436E-24
 -1       669 1.13401E-04 4.94063E-05 0.00000E+00
 -1       670 1.12819E-04 5.13976E-05 0.00000E+00
 -1       671 1.12270E-04 5.33003E-05 0.00000E+00
 -1       672 1.11760E-04 5.51008E-05 0.00000E+00
 -1       673 1.11293E-04 5.67856E-05 0.00000E+00
 -1       674 1.10874E-04 5.83405E-05 0.00000E+00
 -1       675 1.10509E-04 5.97521E-05 1.65436E-24
 -1       676 1.15822E-04 6.17791E-05-3.30872E-24
 -1       677 1.14690E-04 6.16226E-05 0.00000E+00
 -1       678 1.13561E-04 6.14662E-05 3.30872E-24
 -1       679 1.12434E-04 6.13103E-05 1.65436E-24
 -1       680 1.11312E-04 6.11545E-05 0.00000E+00
 -1       771 2.69784E-05 1.21360E-06 0.00000E+00
 -1       772 2.21056E-05 9.24482E-06 2.64698E-23
 -1       773 1.78916E-05 1.55542E-05-5.29396E-23
 -1       774 1.42877E-05 2.02618E-05-7.94093E-23
 -1       775 1.12457E-05 2.34906E-05-5.29396E-23
 -1       776 8.71506E-06 2.53685E-05 0.00000E+00
 -1       777 6.64470E-06 2.60265E-05 5.29396E-23
 -1       778 4.98249E-06 2.55991E-05 0.00000E+00
 -1       779 3.67599E-06 2.42233E-05 5.29396E-23
 -1       780 2.67191E-06 2.20390E-05 0.00000E+00
 -1       781 1.91687E-06 1.91877E-05 0.00000E+00
 -1       782 1.35695E-06 1.58134E-05 0.00000E+00
 -1       783 9.38190E-07 1.20607E-05-5.29396E-23
 -1       784 6.06950E-07 8.07611E-06 0.00000E+00
 -1       785 3.09009E-07 4.00606E-06 0.00000E+00
 -1       786 1.12769E-04 8.20345E-07 8.27181E-25
 -1       787 1.12881E-04 9.06036E-07-8.27181E-25
 -1       788 1.12992E-04 9.55505E-07 3.30872E-24
 -1       789 1.13105E-04 9.79378E-07-1.65436E-24
 -1       790 1.13217E-04 9.88163E-07 0.00000E+00
 -1       791 1.13330E-04 9.92333E-07-1.65436E-24
 -1       792 1.13443E-04 1.00234E-06-3.30872E-24
 -1       793 1.13555E-04 1.02864E-06 1.65436E-24
 -1       794 1.13668E-04 1.08179E-06-3.30872E-24
 -1       795 1.13781E-04 1.17238E-06 0.00000E+00
 -1       796 1.13894E-04 1.31119E-06-3.30872E-24
 -1       797 1.14006E-04 1.50913E-06 0.00000E+00
 -1       798 1.14119E-04 1.77736E-06-3.30872E-24
 -1       799 1.14231E-04 2.12722E-06 0.00000E+00
 -1       800 1.14343E-04 2.57043E-06 0.00000E+00
 -1       801 1.04094E-04 7.45854E-07 0.00000E+00
 -1       802 8.21812E-05 6.20906E-07 0.00000E+00
 -1       803 5.38773E-05 3.53776E-07-3.30872E-24
 -1       804 2.61183E-05 9.15936E-08 0.00000E+00
 -1       805 5.83934E-06-1.04730E-08 0.00000E+00
 -1       806 1.12482E-04 7.56362E-07 3.30872E-24
 -1       807 1.12303E-04 8.04982E-07 0.00000E+00
 -1       808 1.12126E-04 8.43067E-07 0.00000E+00
 -1       809 1.11949E-04 8.79146E-07-1.65436E-24
 -1       810 1.11770E-04 9.21707E-07-3.30872E-24
 -1       811 1.11586E-04 9.79153E-07 1.65436E-24
 -1       812 1.11392E-04 1.05987E-06 0.00000E+00
 -1       813 1.11187E-04 1.17225E-06 0.00000E+00
 -1       814 1.10966E-04 1.32465E-06 0.00000E+00
 -1       815 1.10727E-04 1.52544E-06 1.65436E-24
 -1       816 1.10468E-04 1.78298E-06 1.65436E-24
 -1       817 1.10183E-04 2.10563E-06 0.00000E+00
 -1       818 1.09871E-04 2.50172E-06-1.65436E-24
 -1       819 1.09529E-04 2.97956E-06 1.65436E-24
 -1       820 1.09153E-04 3.54742E-06 0.00000E+00
 -1       821 1.14300E-04 3.83225E-06 0.00000E+00
 -1       822 1.14138E-04 4.75507E-06-1.65436E-24
 -1       823 1.13976E-04 5.86816E-06 3.30872E-24
 -1       824 1.13813E-04 7.15154E-06 1.65436E-24
 -1       825 1.13649E-04 8.58416E-06 6.61744E-24
 -1       826 1.13484E-04 1.01444E-05 3.30872E-24
 -1       827 1.13320E-04 1.18097E-05-6.61744E-24
 -1       828 1.13155E-04 1.35574E-05 0.00000E+00
 -1       829 1.12990E-04 1.53640E-05 0.00000E+00
 -1       830 1.12825E-04 1.72059E-05 0.00000E+00
 -1       831 1.12660E-04 1.90593E-05-6.61744E-24
 -1       832 1.12495E-04 2.09004E-05 0.00000E+00
 -1       833 1.12331E-04 2.27052E-05 0.00000E+00
 -1       834 1.12168E-04 2.44503E-05 0.00000E+00
 -1       835 1.12005E-04 2.61122E-05-1.65436E-24
 -1       836 1.13700E-04 3.29975E-06-3.30872E-24
 -1       837 1.12772E-04 3.48579E-06-1.65436E-24
 -1       838 1.11742E-04 3.67151E-06 3.30872E-24
 -1       839 1.10680E-04 3.85632E-06-1.65436E-24
 -1       840 1.09657E-04 4.04094E-06-1.65436E-24
 -1       856 1.11756E-04 2.92972E-05 8.27181E-25
 -1       857 1.11653E-04 3.11556E-05 0.00000E+00
 -1       858 1.11550E-04 3.32076E-05 0.00000E+00
 -1       859 1.11446E-04 3.54172E-05 0.00000E+00
 -1       860 1.11341E-04 3.77482E-05 0.00000E+00
 -1       861 1.11236E-04 4.01642E-05 0.00000E+00
 -1       862 1.11131E-04 4.26290E-05 0.00000E+00
 -1       863 1.11026E-04 4.51060E-05-1.65436E-24
 -1       864 1.10921E-04 4.75588E-05 0.00000E+00
 -1       865 1.10815E-04 4.99510E-05 0.00000E+00
 -1       866 1.10711E-04 5.22461E-05 0.00000E+00
 -1       867 1.10606E-04 5.44079E-05 0.00000E+00
 -1       868 1.10502E-04 5.64003E-05 3.30872E-24
 -1       869 1.10398E-04 5.81874E-05 0.00000E+00
 -1       870 1.10295E-04 5.97332E-05-3.30872E-24
 -1       871 1.10647E-04 2.76567E-05 0.00000E+00
 -1       872 1.09654E-04 2.76423E-05 0.00000E+00
 -1       873 1.08784E-04 2.76274E-05 0.00000E+00
 -1       874 1.07946E-04 2.76116E-05 2.06795E-25
 -1       875 1.07049E-04 2.75950E-05 0.00000E+00
 -1       876 1.11441E-04 2.93089E-05 0.00000E+00
 -1       877 1.10991E-04 3.10727E-05 0.00000E+00
 -1       878 1.10501E-04 3.29432E-05 0.00000E+00
 -1       879 1.09977E-04 3.49063E-05 3.30872E-24
 -1       880 1.09424E-04 3.69474E-05 6.61744E-24
 -1       881 1.08847E-04 3.90522E-05 0.00000E+00
 -1       882 1.08251E-04 4.12064E-05-6.61744E-24
 -1       883 1.07642E-04 4.33960E-05 0.00000E+00
 -1       884 1.07025E-04 4.56065E-05-6.61744E-24
 -1       885 1.06406E-04 4.78239E-05 0.00000E+00
 -1       886 1.05789E-04 5.00340E-05 6.61744E-24
 -1       887 1.05180E-04 5.22225E-05 0.00000E+00
 -1       888 1.04584E-04 5.43752E-05-6.61744E-24
 -1       889 1.04006E-04 5.64777E-05 1.65436E-24
 -1       890 1.03452E-04 5.85158E-05 3.30872E-24
 -1       891 1.09162E-04 6.09148E-05 1.65436E-24
 -1       892 1.08154E-04 6.08258E-05 1.65436E-24
 -1       893 1.07098E-04 6.07369E-05 3.30872E-24
 -1       894 1.05922E-04 6.06480E-05-8.27181E-25
 -1       895 1.04552E-04 6.05590E-05 1.65436E-24
 -1       956 1.08576E-04 5.13178E-06 3.30872E-24
 -1       957 1.08406E-04 6.20216E-06-1.65436E-24
 -1       958 1.08235E-04 7.40821E-06 0.00000E+00
 -1       959 1.08063E-04 8.73276E-06-3.30872E-24
 -1       960 1.07892E-04 1.01586E-05 3.30872E-24
 -1       961 1.07720E-04 1.16685E-05 3.30872E-24
 -1       962 1.07548E-04 1.32450E-05 6.61744E-24
 -1       963 1.07376E-04 1.48709E-05 1.65436E-24
 -1       964 1.07204E-04 1.65287E-05 0.00000E+00
 -1       965 1.07032E-04 1.82012E-05 3.30872E-24
 -1       966 1.06860E-04 1.98710E-05 6.61744E-24
 -1       967 1.06688E-04 2.15208E-05-3.30872E-24
 -1       968 1.06516E-04 2.31331E-05 6.61744E-24
 -1       969 1.06344E-04 2.46907E-05-3.30872E-24
 -1       970 1.06173E-04 2.61764E-05-6.61744E-24
 -1       971 1.05815E-04 2.89973E-05 6.61744E-24
 -1       972 1.05623E-04 3.06069E-05 3.30872E-24
 -1       973 1.05430E-04 3.23812E-05 0.00000E+00
 -1       974 1.05236E-04 3.42984E-05 0.00000E+00
 -1       975 1.05042E-04 3.63367E-05 0.00000E+00
 -1       976 1.04848E-04 3.84742E-05 0.00000E+00
 -1       977 1.04654E-04 4.06890E-05 6.61744E-24
 -1       978 1.04459E-04 4.29591E-05-3.30872E-24
 -1       979 1.04265E-04 4.52626E-05 0.00000E+00
 -1       980 1.04070E-04 4.75774E-05 0.00000E+00
 -1       981 1.03876E-04 4.98815E-05 0.00000E+00
 -1       982 1.03681E-04 5.21529E-05 3.30872E-24
 -1       983 1.03487E-04 5.43695E-05-6.61744E-24
 -1       984 1.03295E-04 5.65095E-05 3.30872E-24
 -1       985 1.03102E-04 5.85509E-05 0.00000E+00
 -3
    1PSTEP                         2           1           1          
  100CL  101 1.000000000         409                     0    1           1
 -4  STRESS      6    1
 -5  SXX         1    4    1    1
 -5  SYY         1    4    2    2
 -5  SZZ         1    4    3    3
 -5  SXY         1    4    1    2
 -5  SYZ         1    4    2    3
 -5  SZX         1    4    3    1
 -1         1-3.36154E+06-1.50302E+06-7.29402E+05-2.05839E+06 9.02219E-10 1.57161E-09
 -1         2 3.20385E+03-3.59122E+05 1.07639E+04-2.50854E+03-2.16630E-10-9.57198E-09
 -1         3-2.99381E+02-1.42006E+06 3.38433E+02-9.25436E+02-2.06391E-10 2.17224E-08
 -1         5-2.89130E+01 5.46216E+05 1.47919E+01 1.44976E+00 1.96494E-10-5.77838E-08
 -1         8-2.10949E+06-8.00110E+05-2.19995E+05-1.10547E+06 1.16415E-09 7.13044E-10
 -1         9-2.69157E+06-8.35726E+05-3.29452E+05-7.62364E+05 6.68806E-09 3.28873E-09
 -1        10-1.21390E+03-1.47950E+06-2.03370E+03-6.25113E+03-6.49925E-09-1.71797E-08
 -1        12-2.29505E+01 5.46247E+05 4.80435E+02 9.41302E+00 2.66098E-10 3.24253E-08
 -1        15 3.79660E+03 2.08727E+03 1.22680E+04 1.22825E+01 4.94538E-12 1.00697E-08
 -1        16-6.15421E+06-1.94981E+06-9.40495E+05-1.97798E+06 5.39391E-09-3.82230E-09
 -1        17-1.20493E+06-8.52020E+05-2.00491E+05-7.82096E+05-1.26602E-08 3.45754E-09
 -1        18 3.57703E+04 6.05864E+03-2.52848E+04-1.37435E+05 8.61746E-10 7.44421E-09
 -1        19 1.68096E+05 1.97930E+05-1.64852E+03 2.18711E+04-1.58543E-09-4.76575E-09
 -1        20 7.20840E+04-2.85531E+05-5.51173E+04 7.51922E+04 5.16502E-09 3.65496E-09
 -1        21-8.28487E+01-4.46509E+05-1.66050E+03-3.46858E+02-2.05861E-08-6.43745E-09
 -1        24-4.90978E+06-1.71546E+06-6.21077E+05-2.16855E+06-1.33393E-08-1.28736E-08
 -1        25 5.14821E+04 6.75024E+04 4.00363E+04-5.89976E+05-4.03052E-09 1.24783E-09
 -1        26-3.39470E+04 1.43605E+05-1.00796E+04-3.07660E+04 1.09721E-09-9.12280E-10
 -1        27-5.67331E+04-1.69715E+05-7.80872E+04 1.06568E+05 1.02400E-08-5.03860E-09
 -1        28 3.51016E+03-1.36140E+05 9.41010E+03 5.05208E+04 9.20454E-09-4.28125E-09
 -1        32-1.36953E+06-8.88140E+04 4.60233E+05-1.87443E+06-1.09139E-09 4.88035E-09
 -1        33-2.06373E+05 1.37723E+05 4.50945E+04-5.74829E+04 2.72477E-09-4.22915E-09
 -1        34-3.23019E+05-4.12921E+04-3.98656E+03 1.02461E+05 5.83281E-09-5.43965E-09
 -1        35-3.77798E+04-5.32371E+04-2.64061E+03 8.54739E+04 2.20235E-08-2.73455E-09
 -1        51 2.76345E+04-6.59044E+05 5.98434E+04-1.83463E+06-4.07454E-10 1.66765E-08
 -1        52 2.23381E+04-6.67259E+05 4.20483E+04-2.07119E+06-8.73115E-11 3.71219E-08
 -1        53 2.18127E+04-6.97599E+05 3.86228E+04-1.82878E+06 2.76486E-10 1.83645E-08
 -1        54 5.23665E+04-7.01400E+05 6.60226E+04-2.07694E+06-1.52795E-09 2.11003E-09
 -1        55 9.75637E+04-7.27817E+05 1.21465E+05-1.82728E+06 2.32831E-10-1.22745E-08
 -1        56-6.42343E+06-7.09697E+05-5.21030E+05-2.46732E+06-1.24419E-09 6.69388E-10
 -1        57-6.59972E+06-1.21243E+06-3.50998E+05-2.48265E+06-2.72121E-09 3.05954E-09
 -1        58-6.53952E+06-8.62578E+05-1.22383E+05-2.42011E+06 9.02219E-10-8.96398E-09
 -1        59-6.46597E+06-1.03220E+06-7.29799E+04-2.53873E+06-2.59365E-09-1.93677E-08
 -1        60-6.55637E+06-8.83797E+05-2.84937E+04-2.41355E+06-5.33782E-09-3.10138E-09
 -1        61-6.45692E+06-9.95577E+05-1.60343E+04-2.53215E+06 3.60706E-09-2.25096E-08
 -1        62-6.54768E+06-8.98812E+05-8.06069E+03-2.42648E+06-6.23913E-10-2.40548E-08
 -1        63-6.48486E+06-9.59795E+05-5.95569E+03-2.49384E+06 1.02318E-10 1.96260E-08
 -1        64-6.52710E+06-9.20353E+05-7.87391E+03-2.45095E+06-3.48609E-09 8.68295E-09
 -1        65-6.53078E+06-9.18118E+05-1.42477E+04-2.44204E+06-1.11504E-08-1.33728E-08
 -1        66-6.50145E+06-9.40805E+05-2.63315E+04-2.47799E+06 2.01499E-09 2.61571E-09
 -1        67-6.58919E+06-9.02018E+05-6.58228E+04-2.39277E+06 3.45494E-10 1.78698E-08
 -1        68-6.47004E+06-9.36435E+05-1.10852E+05-2.50081E+06 5.18594E-09-6.22822E-09
 -1        69-6.72058E+06-1.05830E+06-3.17925E+05-2.33702E+06 5.29872E-09-1.31549E-08
 -1        70-6.37275E+06-7.88801E+05-4.71319E+05-2.53303E+06-1.89175E-09 1.04774E-08
 -1        86-1.65338E+03-3.65511E+05 1.08775E+04 1.25409E+03 2.68710E-09-3.40424E-09
 -1        87 1.06245E+04-3.55912E+05 2.34933E+04-4.81262E+03 4.44447E-09-2.15402E-09
 -1        88-9.02456E+03-3.68748E+05 3.53129E+04 3.55779E+03 6.21549E-09-1.99417E-08
 -1        89 6.69219E+04-3.30721E+05 9.57974E+04-8.70969E+03 9.53514E-09-8.25708E-10
 -1        90-5.76964E+04-3.90739E+05 1.35112E+05 5.15239E+03 8.80391E-09 7.19899E-09
 -1       121-4.41534E+02-1.42123E+06 1.85448E+02 4.61770E+02 6.89994E-10 9.60426E-10
 -1       122-1.79450E+02-1.42001E+06 7.22520E+02-1.84697E+03-2.52914E-09-1.49594E-08
 -1       123-5.08599E+02-1.42131E+06 1.02895E+03 1.37959E+03 2.00998E-09-8.27458E-09
 -1       124 1.17787E+03-1.41927E+06 2.98961E+03-3.89111E+03-4.49631E-09 9.83709E-09
 -1       125-1.34700E+03-1.42208E+06 4.44556E+03 2.50278E+03 3.31147E-09 9.31323E-09
 -1       191-3.08377E+01 5.46258E+05 1.67575E+01-7.32057E-01 3.49726E-10-2.14222E-08
 -1       192-3.02908E+01 5.46217E+05 3.13581E+01 3.90398E+00 5.35202E-10-9.59699E-09
 -1       193-3.44884E+01 5.46258E+05 5.74144E+01-3.21778E+00 5.36758E-10-1.65728E-08
 -1       194-3.47188E+01 5.46222E+05 1.18697E+02 8.51007E+00 1.58195E-10-1.45701E-08
 -1       195-4.14997E+01 5.46254E+05 2.31258E+02-5.39924E+00 9.10021E-10 1.84446E-09
 -1       251-1.34909E+06-1.83351E+04 4.21446E+04-1.52181E+04-7.49310E-10-7.83803E-09
 -1       252-1.32472E+06 2.14342E+04 3.09062E+04 1.52563E+04 8.45830E-11-9.71704E-09
 -1       253-1.34353E+06-2.85359E+03 1.04088E+04-2.93688E+03-7.92170E-10 1.64041E-08
 -1       254-1.33202E+06 3.77371E+03 8.04925E+03-1.03529E+04 3.50099E-10 1.07511E-08
 -1       255-1.34126E+06-3.00124E+02 2.52807E+03 1.03876E+04-1.98952E-10 4.54418E-09
 -1       256-1.33676E+06 1.04440E+03 2.24299E+03-3.14750E+04 1.42165E-10-4.03247E-09
 -1       257-1.33927E+06-1.11310E+01 9.47511E+02 1.81784E+04-1.99691E-10 2.63475E-09
 -1       258-1.33888E+06 4.77498E+02 9.36915E+02-3.77114E+04-1.06611E-09 4.31056E-09
 -1       259-1.33984E+06-1.55917E+02 8.79728E+02 1.66318E+04-2.43710E-09-3.08583E-09
 -1       260-1.33570E+06 9.31707E+02 2.61662E+03-2.60518E+04 3.07983E-09-9.91491E-09
 -1       261-1.34191E+06-4.31031E+02 2.78541E+03 6.52493E+03 9.86120E-10 1.16481E-08
 -1       262-1.33132E+06 4.39167E+03 9.16071E+03-2.16688E+03 4.34011E-09 2.44675E-08
 -1       263-1.34324E+06-3.06625E+03 1.21392E+04-7.24243E+03-2.11116E-09-2.31330E-09
 -1       264-1.32423E+06 2.46962E+04 3.51171E+04 2.21862E+04-1.11095E-08 1.74737E-08
 -1       265-1.34955E+06-2.08641E+04 4.84831E+04-1.78237E+04-7.02983E-09 1.64328E-08
 -1       266-6.86940E+04-3.21017E+04 1.61268E+05-2.62857E+02 1.81899E-10-5.34232E-09
 -1       267 7.96440E+04 3.74459E+04 1.13935E+05 3.03127E+02 2.47383E-10-1.42082E-08
 -1       268-1.06788E+04-5.30076E+03 4.23522E+04-3.86334E+01 5.27507E-11-3.65075E-09
 -1       269 1.26114E+04 6.34811E+03 2.75260E+04 4.49947E+01-1.83263E-10 8.10037E-09
 -1       270-1.89129E+03-1.04127E+03 1.32876E+04-6.10731E+00-4.00178E-11-4.47162E-10
 -1       271-7.39283E+06-9.24079E+05-5.86018E+05-2.89107E+06 6.62112E-10-8.09086E-09
 -1       272-7.61267E+06-1.34248E+06-3.76959E+05-2.87289E+06 3.42607E-09-3.13703E-08
 -1       273-7.51156E+06-1.06221E+06-1.38337E+05-2.85502E+06-1.05661E-09-2.91766E-09
 -1       274-7.46914E+06-1.17745E+06-7.72347E+04-2.93058E+06 1.28421E-09-2.68483E-09
 -1       275-7.53460E+06-1.06921E+06-3.21632E+04-2.84154E+06-3.81078E-10 1.31386E-08
 -1       276-7.44063E+06-1.17086E+06-1.70380E+04-2.95243E+06-1.66801E-09 2.08843E-08
 -1       277-7.54165E+06-1.06550E+06-8.43022E+03-2.83530E+06 1.54614E-11 6.19798E-09
 -1       278-7.43445E+06-1.17364E+06-6.32419E+03-2.95917E+06 1.88584E-09 2.12185E-09
 -1       279-7.54157E+06-1.06571E+06-7.11544E+03-2.83545E+06-1.79170E-09-4.14093E-09
 -1       280-7.44056E+06-1.16968E+06-1.33101E+04-2.95182E+06-5.65160E-09-6.77665E-09
 -1       281-7.53463E+06-1.07020E+06-2.47474E+04-2.84193E+06-4.23825E-10 7.20684E-09
 -1       282-7.46594E+06-1.17065E+06-5.89448E+04-2.93009E+06-3.95084E-09 6.12999E-09
 -1       283-7.51443E+06-1.06762E+06-1.05712E+05-2.85516E+06 3.36968E-09-5.39148E-09
 -1       284-7.58089E+06-1.29064E+06-2.87487E+05-2.87908E+06-1.03864E-09 3.49246E-09
 -1       285-7.42063E+06-9.65723E+05-4.47484E+05-2.88639E+06 1.54250E-09-1.43773E-08
 -1       301 5.15107E+04-2.28962E+04 2.04429E+05-4.07399E+04 7.05768E-09 2.19575E-09
 -1       302 2.55933E+04 2.30160E+04 1.39437E+05-5.41472E+04 7.81847E-09-1.21481E-08
 -1       303 3.40675E+03-6.38618E+03 1.25199E+05-4.12084E+04 5.89353E-09-2.77987E-09
 -1       304 4.43797E+04 3.97837E+04 2.03701E+05-5.39956E+04 7.02858E-09-1.49157E-09
 -1       305 9.37162E+04-3.94467E+04 3.52987E+05-4.04732E+04 5.71890E-09 2.39615E-08
 -1       306-5.67399E+06-6.94662E+05-4.01941E+05-2.21983E+06 1.36060E-09 4.54020E-09
 -1       307-5.84218E+06-1.02306E+06-2.66861E+05-2.18423E+06-2.25054E-09 2.89947E-09
 -1       308-5.77235E+06-7.96699E+05-9.50912E+04-2.17425E+06-2.11048E-09 1.40826E-08
 -1       309-5.71743E+06-9.14465E+05-5.50315E+04-2.25479E+06 4.97448E-09 1.41517E-08
 -1       310-5.79897E+06-7.96250E+05-2.23295E+04-2.15253E+06 1.69621E-09 2.58660E-09
 -1       311-5.68382E+06-9.18773E+05-1.23165E+04-2.28758E+06 8.17636E-10-1.97633E-09
 -1       312-5.80776E+06-7.90291E+05-6.24367E+03-2.14315E+06 2.15482E-09-8.06506E-09
 -1       313-5.67810E+06-9.21489E+05-5.50630E+03-2.29415E+06-2.84604E-09 2.72712E-09
 -1       314-5.80518E+06-7.93113E+05-7.02132E+03-2.14635E+06-2.28238E-09 2.06546E-09
 -1       315-5.69297E+06-9.09180E+05-1.40852E+04-2.27485E+06 5.07453E-09-3.14503E-09
 -1       316-5.79143E+06-8.03677E+05-2.62467E+04-2.16136E+06 1.90448E-09 6.86123E-09
 -1       317-5.73662E+06-9.00277E+05-6.43130E+04-2.23245E+06-4.53701E-09-9.21318E-10
 -1       318-5.75968E+06-8.04298E+05-1.11327E+05-2.18694E+06-1.10191E-09 1.60071E-09
 -1       319-5.88192E+06-1.02989E+06-3.12567E+05-2.15411E+06 3.56522E-10 1.62618E-09
 -1       320-5.64700E+06-6.81483E+05-4.70186E+05-2.23671E+06-8.51287E-09 4.36557E-10
 -1       336 8.31773E+02-1.53857E+06-8.63264E+03 3.73381E+03-1.22577E-08 1.79170E-09
 -1       337-3.11593E+03-1.54039E+06-9.59850E+03-9.03300E+03-2.22740E-08 1.07348E-08
 -1       338 5.92549E+02-1.53877E+06-1.25889E+04 5.27208E+03-1.59430E-08-1.25146E-09
 -1       339-1.29490E+04-1.54678E+06-2.76126E+04-1.20131E+04-2.88560E-08 1.17652E-08
 -1       340 8.75381E+03-1.53262E+06-4.27669E+04 6.68880E+03-1.84591E-08 1.37024E-08
 -1       406 1.28465E+01 5.46232E+05 9.47489E+02-4.17301E+00 1.19763E-09 4.77485E-09
 -1       407 3.07812E+02 5.46413E+05 2.01561E+03-9.10320E+00 1.54387E-10-1.68811E-08
 -1       408 1.01401E+03 5.46087E+05 4.02416E+03 1.40022E+01 1.38516E-09 1.22909E-08
 -1       409 4.33093E+03 5.47698E+05 9.06062E+03-1.68919E+02 2.10548E-10 3.28919E-08
 -1       410 1.24846E+04 5.44938E+05 1.84956E+04 1.70346E+02 1.43518E-09 7.93989E-10
 -1       521-1.07223E+07-1.30222E+06-7.71722E+05-4.19147E+06-1.65892E-09-9.31323E-10
 -1       522-1.10943E+07-1.89192E+06-5.13637E+05-4.07260E+06-3.24508E-09 1.04774E-09
 -1       523-1.09211E+07-1.49030E+06-1.82054E+05-4.09241E+06-1.96451E-09-4.07454E-10
 -1       524-1.08383E+07-1.69655E+06-1.05677E+05-4.22535E+06 1.13337E-08 1.10540E-08
 -1       525-1.09772E+07-1.48418E+06-4.22498E+04-4.04420E+06 4.11183E-09 7.11771E-09
 -1       526-1.07751E+07-1.70236E+06-2.34014E+04-4.28560E+06 1.21099E-09-1.08630E-08
 -1       527-1.09870E+07-1.48072E+06-1.14828E+04-4.03492E+06 1.20554E-09 1.17490E-09
 -1       528-1.07876E+07-1.68032E+06-9.28084E+03-4.26407E+06-1.02332E-08-2.53704E-09
 -1       529-1.09629E+07-1.50720E+06-1.22892E+04-4.06460E+06-6.81030E-09-1.28757E-08
 -1       530-1.08569E+07-1.61275E+06-2.22769E+04-4.17629E+06 6.26551E-09 5.39876E-09
 -1       531-1.09137E+07-1.55120E+06-4.29471E+04-4.11966E+06 2.12276E-09 6.54836E-11
 -1       532-1.09768E+07-1.55375E+06-1.03792E+05-4.06076E+06 2.56887E-09-5.84805E-09
 -1       533-1.08436E+07-1.56768E+06-1.79057E+05-4.17970E+06-7.48514E-09-5.30417E-09
 -1       534-1.12312E+07-1.75384E+06-5.06839E+05-3.92825E+06-1.30804E-08 1.68075E-09
 -1       535-1.06675E+07-1.35955E+06-7.59039E+05-4.25197E+06-1.14669E-08 4.62751E-09
 -1       536-8.03036E+04-3.45562E+04 9.03574E+04 3.27988E+03 3.36877E-09-8.05449E-09
 -1       537-3.58814E+04 3.88167E+04 6.30885E+04-6.71998E+04-1.41081E-08 5.74801E-09
 -1       538-6.49075E+04-5.06393E+03 2.32083E+04 3.50274E+03-1.03137E-09-1.07166E-08
 -1       539-5.53068E+04 4.90999E+03 1.45636E+04-6.76600E+04 5.86806E-09-3.46972E-09
 -1       540-6.23176E+04-8.61904E+02 5.76250E+03 3.72977E+03-2.95586E-10-1.46083E-08
 -1       541-5.95884E+04 6.34884E+02 3.48898E+03-6.80436E+04-3.12684E-09 4.26553E-10
 -1       542-6.16954E+04-1.81120E+02 1.33767E+03 3.87922E+03-1.27329E-09-1.63482E-10
 -1       543-6.11424E+04 2.68955E+02 6.91770E+02-6.82802E+04-3.09956E-09 1.01954E-08
 -1       544-6.14636E+04-1.58121E+01 2.79823E+01 3.96561E+03-1.26192E-10 2.34786E-09
 -1       545-6.18257E+04 1.77144E+02-5.44692E+02-6.83891E+04-2.30995E-09 1.74981E-09
 -1       546-6.13359E+04 1.35853E+02-1.24935E+03 3.98893E+03 1.29546E-09-2.52248E-09
 -1       547-6.23079E+04-9.05115E+02-3.12595E+03-6.83662E+04-4.82612E-09 5.77302E-09
 -1       548-6.09260E+04 9.93954E+02-5.33406E+03 3.94245E+03-2.48565E-09 1.04592E-10
 -1       549-6.53928E+04-8.74155E+03-1.39318E+04-6.81701E+04-3.48950E-09 4.25825E-09
 -1       550-5.78164E+04 7.39431E+03-2.06592E+04 3.79212E+03 4.39286E-10 4.48381E-09
 -1       551 3.36461E+04-7.66006E+05 4.27690E+04-1.23522E+06-1.04264E-08 3.60887E-09
 -1       552 4.93336E+04-7.74424E+05 5.03780E+04-1.61773E+06-1.92958E-08 8.40737E-09
 -1       553 3.68511E+04-7.79797E+05 7.44638E+04-1.23192E+06-1.19471E-08 1.69130E-08
 -1       554 8.23488E+04-7.52750E+05 1.54052E+05-1.61816E+06-2.15368E-08 1.21072E-08
 -1       555 1.06642E+05-8.00265E+05 2.82881E+05-1.23347E+06-1.25146E-08-1.00990E-08
 -1       556 2.39017E+03-2.47085E+05 7.31347E+04-3.33213E+05-7.69796E-09-1.04774E-09
 -1       557 9.45985E+04-3.21447E+05 3.88513E+04-4.07985E+05 7.06495E-09 8.21910E-09
 -1       558-8.71061E+02-2.55182E+05 1.51083E+04-3.26497E+05 1.93540E-09-5.02041E-09
 -1       559 7.87824E+04-3.30344E+05 7.87617E+03-4.15963E+05 2.56041E-08 6.73026E-10
 -1       560-5.92036E+03-2.51923E+05 2.94280E+03-3.29852E+05 8.57108E-09 5.47880E-09
 -1       561 7.18675E+04-3.28115E+05 1.70167E+03-4.20483E+05 1.73895E-09 2.09548E-08
 -1       562-9.78847E+03-2.49407E+05 5.01593E+02-3.32586E+05-2.94676E-09 1.01782E-08
 -1       563 6.74922E+04-3.26238E+05 3.81146E+02-4.23341E+05-8.17454E-09-2.69847E-09
 -1       564-1.21520E+04-2.47894E+05 1.65107E+01-3.34234E+05 7.86531E-09 1.65146E-08
 -1       565 6.52612E+04-3.25285E+05-1.32443E+02-4.24773E+05 7.20320E-09-9.46784E-09
 -1       566-1.29416E+04-2.47363E+05-5.74144E+02-3.34796E+05 1.90994E-10 1.81899E-11
 -1       567 6.50426E+04-3.25273E+05-1.39996E+03-4.24757E+05 1.33987E-08 1.22891E-08
 -1       568-1.20451E+04-2.47937E+05-3.12905E+03-3.34287E+05-6.83940E-10 6.84668E-09
 -1       569 6.44893E+04-3.26949E+05-7.33966E+03-4.22242E+05-6.63567E-09-1.12123E-08
 -1       570-7.90145E+03-2.52833E+05-1.46735E+04-3.32245E+05 1.14960E-09 3.65890E-09
 -1       571 3.79356E+05 1.53878E+04 2.28558E+04-9.29120E+04 1.05401E-08 4.45471E-09
 -1       572 3.82745E+05 5.33801E+03 1.11997E+04-1.01837E+05 2.02008E-08 1.14524E-08
 -1       573 3.80680E+05 1.26167E+03 4.97532E+03-9.26614E+04 1.17907E-08 5.77711E-09
 -1       574 3.81072E+05 4.09329E+02 2.49360E+03-1.02109E+05-8.02174E-10 6.47378E-09
 -1       575 3.80806E+05 5.58180E+01 1.17461E+03-9.26294E+04 5.83896E-10 9.60245E-09
 -1       576 3.80832E+05 1.93611E+01 5.97030E+02-1.02145E+05 8.78231E-10 8.25003E-09
 -1       577 3.80823E+05-6.17711E+00 2.91142E+02-9.26252E+04 6.84622E-10 3.28055E-09
 -1       578 3.80815E+05-3.58607E+00 1.53056E+02-1.02150E+05-1.77374E-09 8.15817E-10
 -1       579 3.80864E+05-1.92783E+01 8.17227E+01-9.26248E+04-1.19144E-10-1.99998E-09
 -1       580 3.80875E+05-3.30404E+01 5.76810E+01-1.02146E+05-5.21140E-10 4.14639E-09
 -1       581 3.80945E+05-6.05103E+01 5.47106E+01-9.26295E+04 1.02755E-08-1.11722E-08
 -1       582 3.80995E+05-7.94413E+01 9.04973E+01-1.02093E+05 1.98097E-08 8.67385E-09
 -1       583 3.81064E+05-9.21393E+01 1.57321E+02-9.26775E+04 1.05356E-08 7.24276E-09
 -1       584 3.81205E+05 5.69784E-01 3.53418E+02-1.01684E+05 1.71894E-09 2.68801E-09
 -1       585 3.81170E+05 2.85816E+02 7.03658E+02-9.30381E+04 2.29738E-09-2.26646E-09
 -1       586-7.06695E+02 1.51625E+05-6.36536E+02-2.93093E+05 5.62295E-10 8.09541E-09
 -1       587 5.22271E+02 1.51510E+05 2.09226E+03-3.25615E+05-1.36424E-09 1.18274E-08
 -1       588 1.64688E+03 1.51185E+05 5.73332E+03-2.92832E+05 5.74801E-10 2.09047E-09
 -1       589 6.47466E+03 1.53840E+05 1.36848E+04-3.25462E+05-1.17143E-09 2.62935E-09
 -1       590 1.82317E+04 1.49682E+05 2.81198E+04-2.93247E+05 7.73525E-10 1.33368E-08
 -1       591-1.52405E+05-4.26451E+04-3.39365E+04-7.33887E+04-5.12273E-10-5.14228E-09
 -1       592-1.55112E+05-4.51019E+04-1.75960E+04-8.23255E+04-2.75804E-10 7.22139E-09
 -1       593-1.54889E+05-3.62288E+04-7.43436E+03-7.71334E+04 8.24866E-09 2.10216E-08
 -1       594-1.50917E+05-4.08253E+04-3.66978E+03-8.25168E+04 2.15296E-08 3.19673E-09
 -1       595-1.55106E+05-3.61003E+04-1.69389E+03-7.72742E+04 7.92102E-09-2.56753E-09
 -1       596-1.50646E+05-4.06677E+04-8.57373E+02-8.24783E+04 5.26677E-09 9.46579E-09
 -1       597-1.55138E+05-3.61260E+04-4.63666E+02-7.72762E+04 1.23389E-09 4.23393E-09
 -1       598-1.50618E+05-4.06661E+04-3.65232E+02-8.24665E+04 8.23661E-11 1.13596E-09
 -1       599-1.55134E+05-3.61288E+04-4.57626E+02-7.72740E+04-3.12980E-09 9.26411E-09
 -1       600-1.50638E+05-4.06711E+04-8.41145E+02-8.24699E+04-6.59566E-09 2.18606E-08
 -1       601-1.55093E+05-3.61086E+04-1.65855E+03-7.72677E+04-1.57429E-08-2.36469E-10
 -1       602-1.50898E+05-4.08255E+04-3.59094E+03-8.24966E+04-1.26965E-08-2.40198E-09
 -1       603-1.54871E+05-3.62430E+04-7.27388E+03-7.71287E+04-1.28230E-08 1.09139E-11
 -1       604-1.55025E+05-4.49768E+04-1.72117E+04-8.22625E+04-1.11895E-08 1.35196E-09
 -1       605-1.52402E+05-4.25498E+04-3.31953E+04-7.34952E+04-5.30144E-09 8.39100E-09
 -1       606 1.01786E+05-1.60800E+04-2.89475E+04 4.56632E+04-7.39601E-09-4.29281E-10
 -1       607 9.68181E+04-5.17725E+03-1.44126E+04 5.12548E+04-2.13731E-10 5.13501E-09
 -1       608 9.96023E+04-8.67182E+02-6.45838E+03 4.53007E+04 5.94446E-09 3.06409E-09
 -1       609 9.90203E+04-1.95587E+02-3.26036E+03 5.16490E+04-2.55295E-09 2.13640E-09
 -1       610 9.93032E+04 7.34782E+01-1.56022E+03 4.52605E+04 3.43789E-10-3.62297E-09
 -1       611 9.91725E+04 1.18279E+02-7.85750E+02 5.16907E+04 7.67614E-10-5.18321E-09
 -1       612 9.92006E+04 1.19813E+02-3.77449E+02 4.52571E+04 1.64982E-09 4.36194E-09
 -1       613 9.91346E+04 1.51394E+02-1.70524E+02 5.16945E+04-1.04628E-08 5.75119E-09
 -1       614 9.91361E+04 1.37429E+02-4.68132E+01 4.52562E+04-9.27139E-09 1.23787E-08
 -1       615 9.90889E+04 1.75158E+02 5.80299E+01 5.16942E+04-9.31550E-09 7.90578E-09
 -1       616 9.90874E+04 1.59245E+02 1.85779E+02 4.52570E+04-1.75332E-08-5.35647E-09
 -1       617 9.90826E+04 2.31480E+02 4.30180E+02 5.16922E+04-2.52794E-09-8.42647E-09
 -1       618 9.90296E+04 2.96031E+02 8.68384E+02 4.52575E+04-1.78034E-09 3.80396E-09
 -1       619 9.93723E+04 9.12925E+02 1.95155E+03 5.16878E+04 1.25783E-09-1.03091E-09
 -1       620 9.87311E+04 2.36282E+03 3.92233E+03 4.52553E+04 5.87261E-09-7.56381E-09
 -1       621 8.07195E+02 4.03118E+05 4.04425E+03-1.93493E+04 1.40176E-09-1.14903E-09
 -1       622 4.90016E+02 4.03990E+05 4.36340E+03-2.52958E+04-2.77896E-09 1.78892E-09
 -1       623 1.68384E+02 4.03245E+05 6.42056E+03-1.93440E+04 1.30467E-09 2.33058E-09
 -1       624 3.08265E+03 4.06308E+05 1.32342E+04-2.52300E+04-2.15141E-09-2.52514E-08
 -1       625 6.61845E+03 4.00819E+05 2.45159E+04-1.94109E+04 1.51522E-09-1.44528E-08
 -1       626 3.16866E+05 9.31583E+04 3.38772E+03 1.80828E+05 7.06950E-09 6.64659E-09
 -1       627 3.11314E+05 9.80789E+04 1.63701E+03 1.88160E+05 1.01036E-08-1.91303E-08
 -1       628 3.17042E+05 9.14430E+04 6.87497E+02 1.81142E+05 2.11694E-08 1.81744E-08
 -1       629 3.10592E+05 9.78709E+04 3.43528E+02 1.88492E+05 1.28448E-08 1.09285E-08
 -1       630 3.16996E+05 9.13904E+04 1.62252E+02 1.81099E+05 3.21961E-09 2.78192E-09
 -1       631 3.10453E+05 9.79006E+04 1.01588E+02 1.88464E+05-9.87893E-09-6.06758E-09
 -1       632 3.16940E+05 9.14199E+04 9.03426E+01 1.81061E+05-1.00990E-08-4.97403E-09
 -1       633 3.10402E+05 9.79222E+04 1.38246E+02 1.88431E+05-6.38101E-09 3.77531E-09
 -1       634 3.16898E+05 9.14285E+04 2.55222E+02 1.81041E+05 1.97269E-09-9.23774E-09
 -1       635 3.10403E+05 9.79297E+04 5.37524E+02 1.88423E+05 9.56834E-09 1.53309E-08
 -1       636 3.16866E+05 9.14271E+04 1.09455E+03 1.81031E+05-1.85764E-08-8.84211E-09
 -1       637 3.10628E+05 9.81054E+04 2.41026E+03 1.88417E+05-1.81071E-08 1.88993E-09
 -1       638 3.16782E+05 9.19576E+04 4.95415E+03 1.80785E+05-8.18591E-09 6.53017E-09
 -1       639 3.13214E+05 1.01744E+05 1.17206E+04 1.87682E+05-5.65819E-09-9.65065E-09
 -1       640 3.16480E+05 1.02712E+05 2.43215E+04 1.76184E+05 4.54293E-10-2.31921E-11
 -1       656 3.47114E+04-9.51786E+05-9.72034E+04-1.58541E+03 4.72937E-11 8.31778E-09
 -1       657-4.62750E+04-9.92765E+05-7.78999E+04 5.80918E+04-1.79989E-09 8.43534E-09
 -1       658 9.82820E+03-9.64235E+05-4.94463E+04-2.30012E+03-2.44245E-09 7.48173E-09
 -1       659-4.96838E+04-9.94590E+05-8.27872E+04 5.85767E+04-7.73980E-10-2.37647E-09
 -1       660 3.80518E+04-9.50035E+05-1.05804E+05-2.06962E+03-3.17959E-09-4.60841E-09
 -1       661 3.59818E+05 4.43558E+04 3.07743E+04 1.40313E+05 2.37696E-09-7.01584E-09
 -1       662 3.69364E+05 6.75518E+04 1.96783E+04 1.41926E+05-6.04120E-09 1.46792E-09
 -1       663 3.65274E+05 5.19974E+04 7.27296E+03 1.39352E+05-6.78835E-09-3.21825E-09
 -1       664 3.63094E+05 5.79568E+04 4.06384E+03 1.43395E+05-1.61680E-08-1.14883E-08
 -1       665 3.65936E+05 5.28581E+04 1.71044E+03 1.39257E+05 2.94796E-09-2.95478E-09
 -1       666 3.62325E+05 5.69058E+04 9.42975E+02 1.43552E+05-4.85500E-10-3.10430E-09
 -1       667 3.66031E+05 5.29419E+04 5.28786E+02 1.39236E+05-9.15929E-09-9.79966E-09
 -1       668 3.62222E+05 5.68413E+04 5.14758E+02 1.43602E+05-2.03087E-08-3.41117E-09
 -1       669 3.66043E+05 5.29117E+04 7.28525E+02 1.39213E+05-2.24418E-09 4.19925E-09
 -1       670 3.62330E+05 5.70764E+04 1.50449E+03 1.43647E+05 1.32625E-08-9.90150E-09
 -1       671 3.65932E+05 5.27153E+04 2.83097E+03 1.39192E+05 3.34853E-09-7.05518E-09
 -1       672 3.63542E+05 5.89335E+04 6.80002E+03 1.43499E+05-9.48290E-09-8.56289E-10
 -1       673 3.64864E+05 5.12240E+04 1.21867E+04 1.39302E+05 5.23004E-09-1.84991E-09
 -1       674 3.74000E+05 7.51014E+04 3.30043E+04 1.41128E+05 1.55423E-08 1.02336E-08
 -1       675 3.55744E+05 3.83740E+04 5.16121E+04 1.40881E+05 7.61429E-09 6.21003E-09
 -1       676 4.32476E+01-4.46363E+05-2.00136E+03 1.73434E+02-4.00524E-09 1.41344E-08
 -1       677-5.30493E+02-4.46854E+05-3.66307E+03-3.46397E+02-5.80576E-09-4.55426E-09
 -1       678 3.55129E+02-4.46018E+05-6.47551E+03 1.72825E+02 1.61413E-09 3.93580E-09
 -1       679-6.47782E+03-4.50764E+05-1.53843E+04-3.44629E+02-8.11860E-09-3.65258E-09
 -1       680 3.86760E+03-4.42456E+05-2.47935E+04 1.69404E+02-5.43059E-09 6.88831E-09
 -1       771-3.82538E+06-7.34403E+05-9.72137E+04-1.64554E+06-2.17406E-08 4.39468E-09
 -1       772-3.80071E+06-7.67703E+05-4.97826E+04-1.70176E+06 4.80941E-09 1.46647E-08
 -1       773-3.83760E+06-7.12420E+05-2.22103E+04-1.65566E+06-8.77480E-09 4.16912E-09
 -1       774-3.79033E+06-7.57622E+05-1.06556E+04-1.70943E+06 1.14087E-08-8.83301E-09
 -1       775-3.84240E+06-7.09021E+05-5.69928E+03-1.65726E+06 5.52973E-09-3.34694E-10
 -1       776-3.79210E+06-7.57108E+05-2.63339E+03-1.71412E+06 1.38243E-10-1.38789E-09
 -1       777-3.84611E+06-7.06571E+05-1.85618E+03-1.65847E+06 5.82077E-11-5.52973E-10
 -1       778-3.79429E+06-7.56826E+05-1.01593E+03-1.71794E+06 2.24099E-09 4.66935E-09
 -1       779-3.84902E+06-7.04552E+05-1.32721E+03-1.65945E+06 1.34605E-09 3.90173E-09
 -1       780-3.79617E+06-7.56590E+05-1.77858E+03-1.72088E+06 4.10364E-09 1.20644E-09
 -1       781-3.85104E+06-7.03025E+05-3.50308E+03-1.66016E+06-8.29459E-10-2.74099E-09
 -1       782-3.79796E+06-7.56721E+05-7.30118E+03-1.72288E+06 1.76806E-08 1.05829E-08
 -1       783-3.85184E+06-7.02438E+05-1.48367E+04-1.66032E+06 4.00178E-11 9.25684E-09
 -1       784-3.80700E+06-7.65148E+05-3.51385E+04-1.72333E+06-1.22673E-08-4.39468E-09
 -1       785-3.84714E+06-7.15098E+05-6.78704E+04-1.65310E+06 3.84352E-09 2.57205E-09
 -1       786 3.15412E+05-1.44078E+04 3.89704E+04 2.11196E+02 3.60103E-11 2.68847E-09
 -1       787 3.31362E+05 1.69756E+04 2.67007E+04-3.14434E+03 1.93270E-09-5.34419E-09
 -1       788 3.21747E+05-1.97928E+03 1.01218E+04 1.85559E+02 9.48717E-11 2.92903E-09
 -1       789 3.24097E+05 2.32150E+03 6.08250E+03-3.10769E+03-3.54941E-10 6.18002E-09
 -1       790 3.22679E+05-2.71427E+02 2.58820E+03 1.74633E+02 5.74374E-10-6.09668E-09
 -1       791 3.23024E+05 3.17433E+02 1.46333E+03-3.10106E+03 3.53955E-10 3.26145E-09
 -1       792 3.22821E+05-3.88634E+01 7.07692E+02 1.78927E+02-6.32312E-10 6.34193E-09
 -1       793 3.22869E+05 5.78318E+01 4.73984E+02-3.12518E+03 7.42595E-10 7.52598E-09
 -1       794 3.22835E+05-1.89660E+01 4.03517E+02 1.98756E+02-6.36334E-10-2.85738E-09
 -1       795 3.22906E+05 1.22457E+02 6.19581E+02-3.18066E+03 1.19005E-09-5.13004E-09
 -1       796 3.22785E+05-1.02409E+02 1.00132E+03 2.34406E+02-5.59965E-10-6.40711E-09
 -1       797 3.23307E+05 8.66189E+02 2.29133E+03-3.26726E+03-2.62276E-10 3.62132E-09
 -1       798 3.22436E+05-7.40482E+02 3.78969E+03 2.85357E+02-1.00783E-10 4.40923E-09
 -1       799 3.26026E+05 6.34060E+03 9.98256E+03-3.38435E+03-2.33888E-09-3.15231E-09
 -1       800 3.20068E+05-5.38552E+03 1.45604E+04 3.51377E+02 1.01909E-09-4.88762E-09
 -1       801-5.17866E+04 2.94133E+05 2.93081E+04 1.09663E+05-2.23354E-08-8.75298E-09
 -1       802 1.32863E+05 3.73021E+05 9.85427E+04-2.06836E+06-1.05050E-07-2.24391E-08
 -1       803-1.70285E+04 3.49175E+05 1.10444E+05 1.04639E+05-4.63042E-08 3.96533E-08
 -1       804 2.54587E+05 4.58263E+05 2.79935E+05-2.06955E+06-9.43401E-08 1.52795E-08
 -1       805-1.78517E+05 2.22541E+05 3.41462E+05 1.10554E+05-2.44181E-08 2.37778E-08
 -1       806-3.38408E+05-8.42106E+04-2.94904E+04-1.51673E+05 9.60881E-10-9.02219E-09
 -1       807-3.38877E+05-7.86179E+04-1.42080E+04-1.60634E+05 6.85725E-09-4.60432E-10
 -1       808-3.38719E+05-7.12526E+04-6.00496E+03-1.57391E+05-1.25902E-08-1.46991E-08
 -1       809-3.35904E+05-7.40664E+04-2.92002E+03-1.61407E+05-2.10566E-08-2.74554E-09
 -1       810-3.38823E+05-7.06107E+04-1.32823E+03-1.57709E+05-1.35142E-08-4.98630E-09
 -1       811-3.35643E+05-7.38415E+04-6.57244E+02-1.61398E+05-2.93653E-09-3.33239E-09
 -1       812-3.38841E+05-7.06254E+04-3.25737E+02-1.57711E+05 1.20190E-09-3.71074E-09
 -1       813-3.35604E+05-7.38469E+04-2.02256E+02-1.61375E+05-2.82671E-09-2.28138E-08
 -1       814-3.38828E+05-7.06419E+04-1.85051E+02-1.57701E+05 7.52152E-10-1.20044E-08
 -1       815-3.35596E+05-7.38568E+04-2.84391E+02-1.61360E+05 2.97223E-09 6.86759E-09
 -1       816-3.38795E+05-7.06543E+04-5.30591E+02-1.57686E+05-1.30694E-09 3.40151E-09
 -1       817-3.35685E+05-7.39386E+04-1.14151E+03-1.61321E+05 3.28328E-10-6.19411E-09
 -1       818-3.38714E+05-7.09361E+04-2.33944E+03-1.57563E+05 1.14687E-08-9.12587E-09
 -1       819-3.36959E+05-7.55659E+04-5.52243E+03-1.60824E+05 1.92231E-08 1.47406E-08
 -1       820-3.38427E+05-7.61102E+04-1.14629E+04-1.55478E+05 5.54246E-09-9.91031E-09
 -1       821-4.56783E+05 2.07429E+04-5.60926E+04-6.70448E+02-4.03793E-09 6.06815E-09
 -1       822-4.79700E+05-2.44386E+04-3.84349E+04 5.34594E+03-2.22531E-09 9.19727E-09
 -1       823-4.65895E+05 2.84514E+03-1.45777E+04-8.77922E+02 3.79725E-09 5.59339E-10
 -1       824-4.69261E+05-3.33067E+03-8.76782E+03 5.71153E+03-2.81716E-10 1.00699E-08
 -1       825-4.67230E+05 3.87369E+02-3.76165E+03-1.03645E+03-9.03970E-09 6.32645E-09
 -1       826-4.67737E+05-4.44053E+02-2.17944E+03 5.98168E+03-1.06725E-08 1.14362E-08
 -1       827-4.67426E+05 5.72259E+01-1.16542E+03-1.14822E+03-1.03322E-08 5.48113E-09
 -1       828-4.67548E+05-1.00717E+02-9.94238E+02 6.15656E+03-7.25350E-09 5.99413E-09
 -1       829-4.67424E+05 5.80091E+01-1.16880E+03-1.21138E+03-5.20174E-10-3.26838E-09
 -1       830-4.67755E+05-4.41882E+02-2.19262E+03 6.23204E+03 6.51722E-09-1.12769E-08
 -1       831-4.67223E+05 3.91213E+02-3.78105E+03-1.22369E+03-4.84949E-09-2.40698E-09
 -1       832-4.69304E+05-3.34153E+03-8.82284E+03 6.20738E+03-1.88592E-10 1.94041E-08
 -1       833-4.65877E+05 2.86471E+03-1.46605E+04-1.18656E+03-6.66603E-10 3.59250E-09
 -1       834-4.79819E+05-2.45729E+04-3.86683E+04 6.09012E+03-1.51303E-09-3.54430E-09
 -1       835-4.56708E+05 2.08710E+04-5.64211E+04-1.10536E+03 3.84966E-09-3.84534E-09
 -1       836-2.34080E+03 5.33383E+05 3.94891E+04-3.76459E+04 3.47245E-09 2.48110E-09
 -1       837 8.65572E+03 5.45566E+05 3.12115E+04-7.53364E+04 5.12409E-09 2.78283E-09
 -1       838-6.65370E+02 5.37245E+05 2.86992E+04-3.75426E+04 4.18822E-09 1.36624E-08
 -1       839 1.70610E+04 5.51825E+05 5.12373E+04-7.53534E+04 5.55519E-09 1.03591E-08
 -1       840-5.04376E+03 5.27056E+05 8.03436E+04-3.76237E+04 3.83443E-09 7.43103E-09
 -1       856-2.85515E+05 1.07701E+04-4.16385E+04 3.65939E+03-5.93673E-09-6.73936E-09
 -1       857-3.00915E+05-1.39319E+04-2.70119E+04 2.00535E+04-5.85169E-09-1.62327E-08
 -1       858-2.91904E+05 1.17677E+03-1.08055E+04 3.55670E+03-7.61793E-09-1.65169E-08
 -1       859-2.93820E+05-1.39398E+03-6.09842E+03 2.01965E+04 2.04705E-09-2.63765E-09
 -1       860-2.92670E+05 1.45510E+02-2.74136E+03 3.51362E+03 7.25777E-10-1.25783E-09
 -1       861-2.92984E+05-5.96629E+01-1.46862E+03 2.02546E+04-5.91899E-09 4.04611E-10
 -1       862-2.92773E+05 3.44085E+01-7.24447E+02 3.49806E+03 8.18184E-09-9.46966E-09
 -1       863-2.92874E+05 7.71896E+01-4.39090E+02 2.02626E+04 1.48868E-08-2.14448E-08
 -1       864-2.92784E+05 2.24974E+01-3.39392E+02 3.50562E+03 8.07165E-09 3.08376E-10
 -1       865-2.92865E+05 4.94272E+01-4.43888E+02 2.02228E+04 1.30564E-08-9.44425E-09
 -1       866-2.92758E+05 4.19417E+01-7.21714E+02 3.53797E+03 8.59245E-10 3.66378E-09
 -1       867-2.93033E+05-2.93422E+02-1.52778E+03 2.01328E+04 2.18006E-09 3.69143E-09
 -1       868-2.92564E+05 2.86294E+02-2.69383E+03 3.59585E+03 4.78394E-10-4.94867E-09
 -1       869-2.94735E+05-3.41533E+03-6.68934E+03 1.99445E+04-8.35894E-09-4.20539E-09
 -1       870-2.90977E+05 2.64473E+03-1.03314E+04 3.72691E+03 6.79711E-09-2.88401E-09
 -1       871-6.36523E+03-3.94662E+04-1.93941E+04 1.72604E+05 5.43696E-09-1.46902E-08
 -1       872-2.89285E+03-4.38357E+04-7.42206E+03 2.23755E+05 8.59109E-09-7.14135E-09
 -1       873-2.36596E+02-4.20266E+04 2.27220E+03 1.72223E+05 3.64707E-09 4.65570E-09
 -1       874 3.35507E+03-3.85012E+04 1.36523E+04 2.23846E+05 9.45147E-09 8.99377E-09
 -1       875 8.22819E+03-4.50542E+04 2.94256E+04 1.72542E+05 4.63479E-09-1.64719E-08
 -1       876 4.60099E+05 7.31298E+04 3.39819E+04 1.83747E+05 8.52435E-09-5.76438E-09
 -1       877 4.65034E+05 8.51276E+04 1.91075E+04 1.90869E+05 1.24639E-08 1.05251E-09
 -1       878 4.64218E+05 7.35707E+04 7.80662E+03 1.85250E+05 8.23047E-09 1.01918E-08
 -1       879 4.59817E+05 7.92439E+04 3.95272E+03 1.91258E+05 3.86149E-09 7.45251E-09
 -1       880 4.64524E+05 7.36921E+04 1.80592E+03 1.85345E+05 3.66572E-09-2.42494E-09
 -1       881 4.59432E+05 7.88985E+04 9.42723E+02 1.91212E+05 1.38040E-08-1.76123E-08
 -1       882 4.64549E+05 7.37257E+04 5.51887E+02 1.85355E+05 1.64212E-08 1.43327E-08
 -1       883 4.59403E+05 7.88737E+04 5.18222E+02 1.91190E+05-1.32390E-08 6.56325E-09
 -1       884 4.64539E+05 7.37269E+04 7.53164E+02 1.85357E+05-6.28921E-09-7.71922E-09
 -1       885 4.59469E+05 7.89028E+04 1.47605E+03 1.91202E+05-7.96940E-09-7.07246E-10
 -1       886 4.64477E+05 7.36863E+04 2.93930E+03 1.85346E+05-8.88451E-09-7.48287E-09
 -1       887 4.60111E+05 7.94595E+04 6.48917E+03 1.91247E+05 4.60489E-09-5.18207E-09
 -1       888 4.63952E+05 7.35014E+04 1.28439E+04 1.85190E+05 1.88228E-08 8.96398E-09
 -1       889 4.68636E+05 8.91935E+04 3.14449E+04 1.90642E+05 1.28191E-08-7.54335E-09
 -1       890 4.57215E+05 7.27319E+04 5.59353E+04 1.82648E+05 1.45988E-08-3.91083E-09
 -1       891 1.67625E+02-2.52909E+05-7.84047E+03 4.41927E+04 1.35085E-08-2.20081E-09
 -1       892-1.72625E+03-2.55164E+05-6.22619E+03 8.33585E+04 1.51094E-08 1.10833E-09
 -1       893-1.26908E+00-2.53628E+05-5.93420E+03 4.41485E+04 6.68251E-09-1.72440E-09
 -1       894-3.55950E+03-2.56401E+05-1.06823E+04 8.31791E+04 1.56360E-08 7.82620E-10
 -1       895 3.70366E+02-2.51390E+05-1.70741E+04 4.43678E+04 1.52686E-08-2.77396E-09
 -1       956-4.86433E+05-7.90155E+03-1.99177E+04 4.55560E+04-1.13741E-08-7.13590E-09
 -1       957-4.90389E+05-2.62786E+03-1.02208E+04 5.49071E+04-1.11550E-08-1.33568E-08
 -1       958-4.88254E+05-1.75324E+02-4.60818E+03 4.52584E+04-5.55156E-09 2.31967E-09
 -1       959-4.88605E+05 3.79061E+01-2.35024E+03 5.52296E+04-1.11795E-08-8.59472E-11
 -1       960-4.88458E+05 1.33874E+02-1.14476E+03 4.52272E+04-1.33632E-08 3.84716E-09
 -1       961-4.88517E+05 1.63313E+02-6.00167E+02 5.52661E+04-1.36424E-08 1.07148E-08
 -1       962-4.88521E+05 1.45626E+02-3.33044E+02 4.52210E+04-2.26919E-09 1.11959E-09
 -1       963-4.88538E+05 1.80687E+02-2.47217E+02 5.52746E+04-8.91305E-10 1.13710E-08
 -1       964-4.88543E+05 1.57277E+02-2.76843E+02 4.52184E+04 2.87673E-09-1.29876E-09
 -1       965-4.88562E+05 1.89631E+02-4.58923E+02 5.52755E+04 7.49412E-09-9.50376E-09
 -1       966-4.88529E+05 1.67898E+02-8.51711E+02 4.52200E+04-2.14732E-09-4.88217E-09
 -1       967-4.88660E+05 1.15486E+02-1.74121E+03 5.52563E+04-3.76531E-10 6.19093E-09
 -1       968-4.88402E+05-4.49650E+01-3.40715E+03 4.52382E+04 8.86757E-10 1.76442E-09
 -1       969-4.90007E+05-1.84416E+03-7.56210E+03 5.50568E+04 1.00590E-09 3.48609E-09
 -1       970-4.87071E+05-5.75483E+03-1.47334E+04 4.54288E+04 4.34648E-09 7.53062E-09
 -1       971-5.46626E+05-7.83967E+02-1.97097E+04 1.73397E+04-6.55564E-09 3.67618E-09
 -1       972-5.52114E+05-3.17669E+03-1.12597E+04 2.89671E+04-2.56250E-09 8.87758E-09
 -1       973-5.49109E+05 5.84837E+01-4.94520E+03 1.71445E+04-1.25601E-09 3.34057E-09
 -1       974-5.49548E+05-5.95843E+01-2.58720E+03 2.91898E+04 8.76935E-09 2.50077E-09
 -1       975-5.49319E+05 7.49808E+01-1.27323E+03 1.71122E+04 6.62749E-09 1.26124E-09
 -1       976-5.49390E+05 1.13585E+02-7.13605E+02 2.92363E+04-1.43336E-09-4.81816E-09
 -1       977-5.49359E+05 7.96463E+01-4.80055E+02 1.70974E+04 1.20031E-08-9.57561E-09
 -1       978-5.49399E+05 1.32209E+02-5.10454E+02 2.92571E+04 3.41101E-08-1.36993E-08
 -1       979-5.49361E+05 9.12143E+01-7.77175E+02 1.70911E+04 1.36923E-08-3.23359E-09
 -1       980-5.49461E+05 1.22424E+02-1.47755E+03 2.92609E+04 1.17673E-08-1.21827E-09
 -1       981-5.49308E+05 1.17876E+02-2.84219E+03 1.70936E+04-3.96426E-09 1.99347E-09
 -1       982-5.49915E+05-2.31723E+02-5.91486E+03 2.92431E+04-1.63868E-09 5.08999E-09
 -1       983-5.48879E+05 1.25139E+02-1.13505E+04 1.71099E+04 7.02357E-09-8.15862E-09
 -1       984-5.55939E+05-7.35901E+03-2.59182E+04 2.91024E+04-8.90577E-09-8.76571E-09
 -1       985-5.43219E+05-1.76046E+03-4.53518E+04 1.72496E+04 6.37920E-09-2.27010E-09
 -3
 9999
