    1C
    1UUSER                                                              
    1UDATE              11.october.2022                                 
    1UTIME              17:32:29                                        
    1UHOST                                                              
    1UPGM               CalculiX                                        
    1UVERSION           Version 2.20                             
    1UCOMPILETIME       Sun Jul 31 18:08:37 CEST 2022                    
    1UDIR                                                               
    1UDBN                                                               
    1UMAT    1MESH_MATERIAL                                             
    2C                           841                                     1
 -1         1 0.00000E+00 0.00000E+00 0.00000E+00
 -1         2 1.66667E-02 0.00000E+00 0.00000E+00
 -1         3 3.33333E-02 0.00000E+00 0.00000E+00
 -1         4 5.00000E-02 0.00000E+00 0.00000E+00
 -1         5 6.66667E-02 0.00000E+00 0.00000E+00
 -1         8 0.00000E+00 6.25000E-03 0.00000E+00
 -1         9 1.66667E-02 6.25000E-03 0.00000E+00
 -1        10 3.33333E-02 6.25000E-03 0.00000E+00
 -1        11 5.00000E-02 6.25000E-03 0.00000E+00
 -1        12 6.66667E-02 6.25000E-03 0.00000E+00
 -1        15 0.00000E+00 1.25000E-02 0.00000E+00
 -1        16 1.66667E-02 1.25000E-02 0.00000E+00
 -1        17 3.33333E-02 1.25000E-02 0.00000E+00
 -1        18 5.00000E-02 1.25000E-02 0.00000E+00
 -1        19 6.66667E-02 1.25000E-02 0.00000E+00
 -1        20 8.33333E-02 1.25000E-02 0.00000E+00
 -1        21 1.00000E-01 1.25000E-02 0.00000E+00
 -1        22 0.00000E+00 1.87500E-02 0.00000E+00
 -1        23 1.66667E-02 1.87500E-02 0.00000E+00
 -1        24 3.33333E-02 1.87500E-02 0.00000E+00
 -1        25 5.00000E-02 1.87500E-02 0.00000E+00
 -1        26 6.66667E-02 1.87500E-02 0.00000E+00
 -1        27 8.33333E-02 1.87500E-02 0.00000E+00
 -1        28 1.00000E-01 1.87500E-02 0.00000E+00
 -1        29 0.00000E+00 2.50000E-02 0.00000E+00
 -1        30 1.66667E-02 2.50000E-02 0.00000E+00
 -1        31 3.33333E-02 2.50000E-02 0.00000E+00
 -1        32 5.00000E-02 2.50000E-02 0.00000E+00
 -1        33 6.66667E-02 2.50000E-02 0.00000E+00
 -1        34 8.33333E-02 2.50000E-02 0.00000E+00
 -1        35 1.00000E-01 2.50000E-02 0.00000E+00
 -1        36 1.04167E-03 0.00000E+00 0.00000E+00
 -1        37 2.08333E-03 0.00000E+00 0.00000E+00
 -1        38 3.12500E-03 0.00000E+00 0.00000E+00
 -1        39 4.16667E-03 0.00000E+00 0.00000E+00
 -1        40 5.20833E-03 0.00000E+00 0.00000E+00
 -1        41 6.25000E-03 0.00000E+00 0.00000E+00
 -1        42 7.29167E-03 0.00000E+00 0.00000E+00
 -1        43 8.33333E-03 0.00000E+00 0.00000E+00
 -1        44 9.37500E-03 0.00000E+00 0.00000E+00
 -1        45 1.04167E-02 0.00000E+00 0.00000E+00
 -1        46 1.14583E-02 0.00000E+00 0.00000E+00
 -1        47 1.25000E-02 0.00000E+00 0.00000E+00
 -1        48 1.35417E-02 0.00000E+00 0.00000E+00
 -1        49 1.45833E-02 0.00000E+00 0.00000E+00
 -1        50 1.56250E-02 0.00000E+00 0.00000E+00
 -1        51 0.00000E+00 1.04167E-03 0.00000E+00
 -1        52 0.00000E+00 2.08333E-03 0.00000E+00
 -1        53 0.00000E+00 3.12500E-03 0.00000E+00
 -1        54 0.00000E+00 4.16667E-03 0.00000E+00
 -1        55 0.00000E+00 5.20833E-03 0.00000E+00
 -1        56 1.04167E-03 3.90630E-04 0.00000E+00
 -1        57 2.08333E-03 7.81250E-04 0.00000E+00
 -1        58 3.12500E-03 1.17188E-03 0.00000E+00
 -1        59 4.16667E-03 1.56250E-03 0.00000E+00
 -1        60 5.20833E-03 1.95312E-03 0.00000E+00
 -1        61 6.25000E-03 2.34375E-03 0.00000E+00
 -1        62 7.29167E-03 2.73438E-03 0.00000E+00
 -1        63 8.33333E-03 3.12500E-03 0.00000E+00
 -1        64 9.37500E-03 3.51563E-03 0.00000E+00
 -1        65 1.04167E-02 3.90625E-03 0.00000E+00
 -1        66 1.14583E-02 4.29688E-03 0.00000E+00
 -1        67 1.25000E-02 4.68750E-03 0.00000E+00
 -1        68 1.35417E-02 5.07813E-03 0.00000E+00
 -1        69 1.45833E-02 5.46875E-03 0.00000E+00
 -1        70 1.56250E-02 5.85938E-03 0.00000E+00
 -1        71 1.77083E-02 0.00000E+00 0.00000E+00
 -1        72 1.87500E-02 0.00000E+00 0.00000E+00
 -1        73 1.97917E-02 0.00000E+00 0.00000E+00
 -1        74 2.08333E-02 0.00000E+00 0.00000E+00
 -1        75 2.18750E-02 0.00000E+00 0.00000E+00
 -1        76 2.29167E-02 0.00000E+00 0.00000E+00
 -1        77 2.39583E-02 0.00000E+00 0.00000E+00
 -1        78 2.50000E-02 0.00000E+00 0.00000E+00
 -1        79 2.60417E-02 0.00000E+00 0.00000E+00
 -1        80 2.70833E-02 0.00000E+00 0.00000E+00
 -1        81 2.81250E-02 0.00000E+00 0.00000E+00
 -1        82 2.91667E-02 0.00000E+00 0.00000E+00
 -1        83 3.02083E-02 0.00000E+00 0.00000E+00
 -1        84 3.12500E-02 0.00000E+00 0.00000E+00
 -1        85 3.22917E-02 0.00000E+00 0.00000E+00
 -1        86 1.66667E-02 1.04167E-03 0.00000E+00
 -1        87 1.66667E-02 2.08333E-03 0.00000E+00
 -1        88 1.66667E-02 3.12500E-03 0.00000E+00
 -1        89 1.66667E-02 4.16667E-03 0.00000E+00
 -1        90 1.66667E-02 5.20833E-03 0.00000E+00
 -1        91 1.77083E-02 3.90630E-04 0.00000E+00
 -1        92 1.87500E-02 7.81250E-04 0.00000E+00
 -1        93 1.97917E-02 1.17188E-03 0.00000E+00
 -1        94 2.08333E-02 1.56250E-03 0.00000E+00
 -1        95 2.18750E-02 1.95312E-03 0.00000E+00
 -1        96 2.29167E-02 2.34375E-03 0.00000E+00
 -1        97 2.39583E-02 2.73438E-03 0.00000E+00
 -1        98 2.50000E-02 3.12500E-03 0.00000E+00
 -1        99 2.60417E-02 3.51563E-03 0.00000E+00
 -1       100 2.70833E-02 3.90625E-03 0.00000E+00
 -1       101 2.81250E-02 4.29688E-03 0.00000E+00
 -1       102 2.91667E-02 4.68750E-03 0.00000E+00
 -1       103 3.02083E-02 5.07813E-03 0.00000E+00
 -1       104 3.12500E-02 5.46875E-03 0.00000E+00
 -1       105 3.22917E-02 5.85938E-03 0.00000E+00
 -1       106 3.43750E-02 0.00000E+00 0.00000E+00
 -1       107 3.54167E-02 0.00000E+00 0.00000E+00
 -1       108 3.64583E-02 0.00000E+00 0.00000E+00
 -1       109 3.75000E-02 0.00000E+00 0.00000E+00
 -1       110 3.85417E-02 0.00000E+00 0.00000E+00
 -1       111 3.95833E-02 0.00000E+00 0.00000E+00
 -1       112 4.06250E-02 0.00000E+00 0.00000E+00
 -1       113 4.16667E-02 0.00000E+00 0.00000E+00
 -1       114 4.27083E-02 0.00000E+00 0.00000E+00
 -1       115 4.37500E-02 0.00000E+00 0.00000E+00
 -1       116 4.47917E-02 0.00000E+00 0.00000E+00
 -1       117 4.58333E-02 0.00000E+00 0.00000E+00
 -1       118 4.68750E-02 0.00000E+00 0.00000E+00
 -1       119 4.79167E-02 0.00000E+00 0.00000E+00
 -1       120 4.89583E-02 0.00000E+00 0.00000E+00
 -1       121 3.33333E-02 1.04167E-03 0.00000E+00
 -1       122 3.33333E-02 2.08333E-03 0.00000E+00
 -1       123 3.33333E-02 3.12500E-03 0.00000E+00
 -1       124 3.33333E-02 4.16667E-03 0.00000E+00
 -1       125 3.33333E-02 5.20833E-03 0.00000E+00
 -1       126 3.43750E-02 3.90630E-04 0.00000E+00
 -1       127 3.54167E-02 7.81250E-04 0.00000E+00
 -1       128 3.64583E-02 1.17188E-03 0.00000E+00
 -1       129 3.75000E-02 1.56250E-03 0.00000E+00
 -1       130 3.85417E-02 1.95312E-03 0.00000E+00
 -1       131 3.95833E-02 2.34375E-03 0.00000E+00
 -1       132 4.06250E-02 2.73438E-03 0.00000E+00
 -1       133 4.16667E-02 3.12500E-03 0.00000E+00
 -1       134 4.27083E-02 3.51563E-03 0.00000E+00
 -1       135 4.37500E-02 3.90625E-03 0.00000E+00
 -1       136 4.47917E-02 4.29688E-03 0.00000E+00
 -1       137 4.58333E-02 4.68750E-03 0.00000E+00
 -1       138 4.68750E-02 5.07813E-03 0.00000E+00
 -1       139 4.79167E-02 5.46875E-03 0.00000E+00
 -1       140 4.89583E-02 5.85938E-03 0.00000E+00
 -1       141 5.10417E-02 0.00000E+00 0.00000E+00
 -1       142 5.20833E-02 0.00000E+00 0.00000E+00
 -1       143 5.31250E-02 0.00000E+00 0.00000E+00
 -1       144 5.41667E-02 0.00000E+00 0.00000E+00
 -1       145 5.52083E-02 0.00000E+00 0.00000E+00
 -1       146 5.62500E-02 0.00000E+00 0.00000E+00
 -1       147 5.72917E-02 0.00000E+00 0.00000E+00
 -1       148 5.83333E-02 0.00000E+00 0.00000E+00
 -1       149 5.93750E-02 0.00000E+00 0.00000E+00
 -1       150 6.04167E-02 0.00000E+00 0.00000E+00
 -1       151 6.14583E-02 0.00000E+00 0.00000E+00
 -1       152 6.25000E-02 0.00000E+00 0.00000E+00
 -1       153 6.35417E-02 0.00000E+00 0.00000E+00
 -1       154 6.45833E-02 0.00000E+00 0.00000E+00
 -1       155 6.56250E-02 0.00000E+00 0.00000E+00
 -1       156 5.00000E-02 1.04167E-03 0.00000E+00
 -1       157 5.00000E-02 2.08333E-03 0.00000E+00
 -1       158 5.00000E-02 3.12500E-03 0.00000E+00
 -1       159 5.00000E-02 4.16667E-03 0.00000E+00
 -1       160 5.00000E-02 5.20833E-03 0.00000E+00
 -1       161 5.10417E-02 3.90630E-04 0.00000E+00
 -1       162 5.20833E-02 7.81250E-04 0.00000E+00
 -1       163 5.31250E-02 1.17188E-03 0.00000E+00
 -1       164 5.41667E-02 1.56250E-03 0.00000E+00
 -1       165 5.52083E-02 1.95312E-03 0.00000E+00
 -1       166 5.62500E-02 2.34375E-03 0.00000E+00
 -1       167 5.72917E-02 2.73438E-03 0.00000E+00
 -1       168 5.83333E-02 3.12500E-03 0.00000E+00
 -1       169 5.93750E-02 3.51563E-03 0.00000E+00
 -1       170 6.04167E-02 3.90625E-03 0.00000E+00
 -1       171 6.14583E-02 4.29688E-03 0.00000E+00
 -1       172 6.25000E-02 4.68750E-03 0.00000E+00
 -1       173 6.35417E-02 5.07813E-03 0.00000E+00
 -1       174 6.45833E-02 5.46875E-03 0.00000E+00
 -1       175 6.56250E-02 5.85938E-03 0.00000E+00
 -1       191 6.66667E-02 1.04167E-03 0.00000E+00
 -1       192 6.66667E-02 2.08333E-03 0.00000E+00
 -1       193 6.66667E-02 3.12500E-03 0.00000E+00
 -1       194 6.66667E-02 4.16667E-03 0.00000E+00
 -1       195 6.66667E-02 5.20833E-03 0.00000E+00
 -1       251 1.04167E-03 6.25000E-03 0.00000E+00
 -1       252 2.08333E-03 6.25000E-03 0.00000E+00
 -1       253 3.12500E-03 6.25000E-03 0.00000E+00
 -1       254 4.16667E-03 6.25000E-03 0.00000E+00
 -1       255 5.20833E-03 6.25000E-03 0.00000E+00
 -1       256 6.25000E-03 6.25000E-03 0.00000E+00
 -1       257 7.29167E-03 6.25000E-03 0.00000E+00
 -1       258 8.33333E-03 6.25000E-03 0.00000E+00
 -1       259 9.37500E-03 6.25000E-03 0.00000E+00
 -1       260 1.04167E-02 6.25000E-03 0.00000E+00
 -1       261 1.14583E-02 6.25000E-03 0.00000E+00
 -1       262 1.25000E-02 6.25000E-03 0.00000E+00
 -1       263 1.35417E-02 6.25000E-03 0.00000E+00
 -1       264 1.45833E-02 6.25000E-03 0.00000E+00
 -1       265 1.56250E-02 6.25000E-03 0.00000E+00
 -1       266 0.00000E+00 7.29167E-03 0.00000E+00
 -1       267 0.00000E+00 8.33333E-03 0.00000E+00
 -1       268 0.00000E+00 9.37500E-03 0.00000E+00
 -1       269 0.00000E+00 1.04167E-02 0.00000E+00
 -1       270 0.00000E+00 1.14583E-02 0.00000E+00
 -1       271 1.04167E-03 6.64063E-03 0.00000E+00
 -1       272 2.08333E-03 7.03125E-03 0.00000E+00
 -1       273 3.12500E-03 7.42188E-03 0.00000E+00
 -1       274 4.16667E-03 7.81250E-03 0.00000E+00
 -1       275 5.20833E-03 8.20313E-03 0.00000E+00
 -1       276 6.25000E-03 8.59375E-03 0.00000E+00
 -1       277 7.29167E-03 8.98438E-03 0.00000E+00
 -1       278 8.33333E-03 9.37500E-03 0.00000E+00
 -1       279 9.37500E-03 9.76562E-03 0.00000E+00
 -1       280 1.04167E-02 1.01562E-02 0.00000E+00
 -1       281 1.14583E-02 1.05469E-02 0.00000E+00
 -1       282 1.25000E-02 1.09375E-02 0.00000E+00
 -1       283 1.35417E-02 1.13281E-02 0.00000E+00
 -1       284 1.45833E-02 1.17188E-02 0.00000E+00
 -1       285 1.56250E-02 1.21094E-02 0.00000E+00
 -1       286 1.77083E-02 6.25000E-03 0.00000E+00
 -1       287 1.87500E-02 6.25000E-03 0.00000E+00
 -1       288 1.97917E-02 6.25000E-03 0.00000E+00
 -1       289 2.08333E-02 6.25000E-03 0.00000E+00
 -1       290 2.18750E-02 6.25000E-03 0.00000E+00
 -1       291 2.29167E-02 6.25000E-03 0.00000E+00
 -1       292 2.39583E-02 6.25000E-03 0.00000E+00
 -1       293 2.50000E-02 6.25000E-03 0.00000E+00
 -1       294 2.60417E-02 6.25000E-03 0.00000E+00
 -1       295 2.70833E-02 6.25000E-03 0.00000E+00
 -1       296 2.81250E-02 6.25000E-03 0.00000E+00
 -1       297 2.91667E-02 6.25000E-03 0.00000E+00
 -1       298 3.02083E-02 6.25000E-03 0.00000E+00
 -1       299 3.12500E-02 6.25000E-03 0.00000E+00
 -1       300 3.22917E-02 6.25000E-03 0.00000E+00
 -1       301 1.66667E-02 7.29167E-03 0.00000E+00
 -1       302 1.66667E-02 8.33333E-03 0.00000E+00
 -1       303 1.66667E-02 9.37500E-03 0.00000E+00
 -1       304 1.66667E-02 1.04167E-02 0.00000E+00
 -1       305 1.66667E-02 1.14583E-02 0.00000E+00
 -1       306 1.77083E-02 6.64063E-03 0.00000E+00
 -1       307 1.87500E-02 7.03125E-03 0.00000E+00
 -1       308 1.97917E-02 7.42188E-03 0.00000E+00
 -1       309 2.08333E-02 7.81250E-03 0.00000E+00
 -1       310 2.18750E-02 8.20313E-03 0.00000E+00
 -1       311 2.29167E-02 8.59375E-03 0.00000E+00
 -1       312 2.39583E-02 8.98438E-03 0.00000E+00
 -1       313 2.50000E-02 9.37500E-03 0.00000E+00
 -1       314 2.60417E-02 9.76562E-03 0.00000E+00
 -1       315 2.70833E-02 1.01562E-02 0.00000E+00
 -1       316 2.81250E-02 1.05469E-02 0.00000E+00
 -1       317 2.91667E-02 1.09375E-02 0.00000E+00
 -1       318 3.02083E-02 1.13281E-02 0.00000E+00
 -1       319 3.12500E-02 1.17188E-02 0.00000E+00
 -1       320 3.22917E-02 1.21094E-02 0.00000E+00
 -1       321 3.43750E-02 6.25000E-03 0.00000E+00
 -1       322 3.54167E-02 6.25000E-03 0.00000E+00
 -1       323 3.64583E-02 6.25000E-03 0.00000E+00
 -1       324 3.75000E-02 6.25000E-03 0.00000E+00
 -1       325 3.85417E-02 6.25000E-03 0.00000E+00
 -1       326 3.95833E-02 6.25000E-03 0.00000E+00
 -1       327 4.06250E-02 6.25000E-03 0.00000E+00
 -1       328 4.16667E-02 6.25000E-03 0.00000E+00
 -1       329 4.27083E-02 6.25000E-03 0.00000E+00
 -1       330 4.37500E-02 6.25000E-03 0.00000E+00
 -1       331 4.47917E-02 6.25000E-03 0.00000E+00
 -1       332 4.58333E-02 6.25000E-03 0.00000E+00
 -1       333 4.68750E-02 6.25000E-03 0.00000E+00
 -1       334 4.79167E-02 6.25000E-03 0.00000E+00
 -1       335 4.89583E-02 6.25000E-03 0.00000E+00
 -1       336 3.33333E-02 7.29167E-03 0.00000E+00
 -1       337 3.33333E-02 8.33333E-03 0.00000E+00
 -1       338 3.33333E-02 9.37500E-03 0.00000E+00
 -1       339 3.33333E-02 1.04167E-02 0.00000E+00
 -1       340 3.33333E-02 1.14583E-02 0.00000E+00
 -1       341 3.43750E-02 6.64063E-03 0.00000E+00
 -1       342 3.54167E-02 7.03125E-03 0.00000E+00
 -1       343 3.64583E-02 7.42188E-03 0.00000E+00
 -1       344 3.75000E-02 7.81250E-03 0.00000E+00
 -1       345 3.85417E-02 8.20313E-03 0.00000E+00
 -1       346 3.95833E-02 8.59375E-03 0.00000E+00
 -1       347 4.06250E-02 8.98438E-03 0.00000E+00
 -1       348 4.16667E-02 9.37500E-03 0.00000E+00
 -1       349 4.27083E-02 9.76562E-03 0.00000E+00
 -1       350 4.37500E-02 1.01562E-02 0.00000E+00
 -1       351 4.47917E-02 1.05469E-02 0.00000E+00
 -1       352 4.58333E-02 1.09375E-02 0.00000E+00
 -1       353 4.68750E-02 1.13281E-02 0.00000E+00
 -1       354 4.79167E-02 1.17188E-02 0.00000E+00
 -1       355 4.89583E-02 1.21094E-02 0.00000E+00
 -1       356 5.10417E-02 6.25000E-03 0.00000E+00
 -1       357 5.20833E-02 6.25000E-03 0.00000E+00
 -1       358 5.31250E-02 6.25000E-03 0.00000E+00
 -1       359 5.41667E-02 6.25000E-03 0.00000E+00
 -1       360 5.52083E-02 6.25000E-03 0.00000E+00
 -1       361 5.62500E-02 6.25000E-03 0.00000E+00
 -1       362 5.72917E-02 6.25000E-03 0.00000E+00
 -1       363 5.83333E-02 6.25000E-03 0.00000E+00
 -1       364 5.93750E-02 6.25000E-03 0.00000E+00
 -1       365 6.04167E-02 6.25000E-03 0.00000E+00
 -1       366 6.14583E-02 6.25000E-03 0.00000E+00
 -1       367 6.25000E-02 6.25000E-03 0.00000E+00
 -1       368 6.35417E-02 6.25000E-03 0.00000E+00
 -1       369 6.45833E-02 6.25000E-03 0.00000E+00
 -1       370 6.56250E-02 6.25000E-03 0.00000E+00
 -1       371 5.00000E-02 7.29167E-03 0.00000E+00
 -1       372 5.00000E-02 8.33333E-03 0.00000E+00
 -1       373 5.00000E-02 9.37500E-03 0.00000E+00
 -1       374 5.00000E-02 1.04167E-02 0.00000E+00
 -1       375 5.00000E-02 1.14583E-02 0.00000E+00
 -1       376 5.10417E-02 6.64063E-03 0.00000E+00
 -1       377 5.20833E-02 7.03125E-03 0.00000E+00
 -1       378 5.31250E-02 7.42188E-03 0.00000E+00
 -1       379 5.41667E-02 7.81250E-03 0.00000E+00
 -1       380 5.52083E-02 8.20313E-03 0.00000E+00
 -1       381 5.62500E-02 8.59375E-03 0.00000E+00
 -1       382 5.72917E-02 8.98438E-03 0.00000E+00
 -1       383 5.83333E-02 9.37500E-03 0.00000E+00
 -1       384 5.93750E-02 9.76562E-03 0.00000E+00
 -1       385 6.04167E-02 1.01562E-02 0.00000E+00
 -1       386 6.14583E-02 1.05469E-02 0.00000E+00
 -1       387 6.25000E-02 1.09375E-02 0.00000E+00
 -1       388 6.35417E-02 1.13281E-02 0.00000E+00
 -1       389 6.45833E-02 1.17188E-02 0.00000E+00
 -1       390 6.56250E-02 1.21094E-02 0.00000E+00
 -1       406 6.66667E-02 7.29167E-03 0.00000E+00
 -1       407 6.66667E-02 8.33333E-03 0.00000E+00
 -1       408 6.66667E-02 9.37500E-03 0.00000E+00
 -1       409 6.66667E-02 1.04167E-02 0.00000E+00
 -1       410 6.66667E-02 1.14583E-02 0.00000E+00
 -1       466 1.04167E-03 1.25000E-02 0.00000E+00
 -1       467 2.08333E-03 1.25000E-02 0.00000E+00
 -1       468 3.12500E-03 1.25000E-02 0.00000E+00
 -1       469 4.16667E-03 1.25000E-02 0.00000E+00
 -1       470 5.20833E-03 1.25000E-02 0.00000E+00
 -1       471 6.25000E-03 1.25000E-02 0.00000E+00
 -1       472 7.29167E-03 1.25000E-02 0.00000E+00
 -1       473 8.33333E-03 1.25000E-02 0.00000E+00
 -1       474 9.37500E-03 1.25000E-02 0.00000E+00
 -1       475 1.04167E-02 1.25000E-02 0.00000E+00
 -1       476 1.14583E-02 1.25000E-02 0.00000E+00
 -1       477 1.25000E-02 1.25000E-02 0.00000E+00
 -1       478 1.35417E-02 1.25000E-02 0.00000E+00
 -1       479 1.45833E-02 1.25000E-02 0.00000E+00
 -1       480 1.56250E-02 1.25000E-02 0.00000E+00
 -1       481 0.00000E+00 1.35417E-02 0.00000E+00
 -1       482 0.00000E+00 1.45833E-02 0.00000E+00
 -1       483 0.00000E+00 1.56250E-02 0.00000E+00
 -1       484 0.00000E+00 1.66667E-02 0.00000E+00
 -1       485 0.00000E+00 1.77083E-02 0.00000E+00
 -1       486 1.04167E-03 1.28906E-02 0.00000E+00
 -1       487 2.08333E-03 1.32813E-02 0.00000E+00
 -1       488 3.12500E-03 1.36719E-02 0.00000E+00
 -1       489 4.16667E-03 1.40625E-02 0.00000E+00
 -1       490 5.20833E-03 1.44531E-02 0.00000E+00
 -1       491 6.25000E-03 1.48437E-02 0.00000E+00
 -1       492 7.29167E-03 1.52344E-02 0.00000E+00
 -1       493 8.33333E-03 1.56250E-02 0.00000E+00
 -1       494 9.37500E-03 1.60156E-02 0.00000E+00
 -1       495 1.04167E-02 1.64062E-02 0.00000E+00
 -1       496 1.14583E-02 1.67969E-02 0.00000E+00
 -1       497 1.25000E-02 1.71875E-02 0.00000E+00
 -1       498 1.35417E-02 1.75781E-02 0.00000E+00
 -1       499 1.45833E-02 1.79687E-02 0.00000E+00
 -1       500 1.56250E-02 1.83594E-02 0.00000E+00
 -1       501 1.77083E-02 1.25000E-02 0.00000E+00
 -1       502 1.87500E-02 1.25000E-02 0.00000E+00
 -1       503 1.97917E-02 1.25000E-02 0.00000E+00
 -1       504 2.08333E-02 1.25000E-02 0.00000E+00
 -1       505 2.18750E-02 1.25000E-02 0.00000E+00
 -1       506 2.29167E-02 1.25000E-02 0.00000E+00
 -1       507 2.39583E-02 1.25000E-02 0.00000E+00
 -1       508 2.50000E-02 1.25000E-02 0.00000E+00
 -1       509 2.60417E-02 1.25000E-02 0.00000E+00
 -1       510 2.70833E-02 1.25000E-02 0.00000E+00
 -1       511 2.81250E-02 1.25000E-02 0.00000E+00
 -1       512 2.91667E-02 1.25000E-02 0.00000E+00
 -1       513 3.02083E-02 1.25000E-02 0.00000E+00
 -1       514 3.12500E-02 1.25000E-02 0.00000E+00
 -1       515 3.22917E-02 1.25000E-02 0.00000E+00
 -1       516 1.66667E-02 1.35417E-02 0.00000E+00
 -1       517 1.66667E-02 1.45833E-02 0.00000E+00
 -1       518 1.66667E-02 1.56250E-02 0.00000E+00
 -1       519 1.66667E-02 1.66667E-02 0.00000E+00
 -1       520 1.66667E-02 1.77083E-02 0.00000E+00
 -1       521 1.77083E-02 1.28906E-02 0.00000E+00
 -1       522 1.87500E-02 1.32813E-02 0.00000E+00
 -1       523 1.97917E-02 1.36719E-02 0.00000E+00
 -1       524 2.08333E-02 1.40625E-02 0.00000E+00
 -1       525 2.18750E-02 1.44531E-02 0.00000E+00
 -1       526 2.29167E-02 1.48437E-02 0.00000E+00
 -1       527 2.39583E-02 1.52344E-02 0.00000E+00
 -1       528 2.50000E-02 1.56250E-02 0.00000E+00
 -1       529 2.60417E-02 1.60156E-02 0.00000E+00
 -1       530 2.70833E-02 1.64062E-02 0.00000E+00
 -1       531 2.81250E-02 1.67969E-02 0.00000E+00
 -1       532 2.91667E-02 1.71875E-02 0.00000E+00
 -1       533 3.02083E-02 1.75781E-02 0.00000E+00
 -1       534 3.12500E-02 1.79687E-02 0.00000E+00
 -1       535 3.22917E-02 1.83594E-02 0.00000E+00
 -1       536 3.43750E-02 1.25000E-02 0.00000E+00
 -1       537 3.54167E-02 1.25000E-02 0.00000E+00
 -1       538 3.64583E-02 1.25000E-02 0.00000E+00
 -1       539 3.75000E-02 1.25000E-02 0.00000E+00
 -1       540 3.85417E-02 1.25000E-02 0.00000E+00
 -1       541 3.95833E-02 1.25000E-02 0.00000E+00
 -1       542 4.06250E-02 1.25000E-02 0.00000E+00
 -1       543 4.16667E-02 1.25000E-02 0.00000E+00
 -1       544 4.27083E-02 1.25000E-02 0.00000E+00
 -1       545 4.37500E-02 1.25000E-02 0.00000E+00
 -1       546 4.47917E-02 1.25000E-02 0.00000E+00
 -1       547 4.58333E-02 1.25000E-02 0.00000E+00
 -1       548 4.68750E-02 1.25000E-02 0.00000E+00
 -1       549 4.79167E-02 1.25000E-02 0.00000E+00
 -1       550 4.89583E-02 1.25000E-02 0.00000E+00
 -1       551 3.33333E-02 1.35417E-02 0.00000E+00
 -1       552 3.33333E-02 1.45833E-02 0.00000E+00
 -1       553 3.33333E-02 1.56250E-02 0.00000E+00
 -1       554 3.33333E-02 1.66667E-02 0.00000E+00
 -1       555 3.33333E-02 1.77083E-02 0.00000E+00
 -1       556 3.43750E-02 1.28906E-02 0.00000E+00
 -1       557 3.54167E-02 1.32813E-02 0.00000E+00
 -1       558 3.64583E-02 1.36719E-02 0.00000E+00
 -1       559 3.75000E-02 1.40625E-02 0.00000E+00
 -1       560 3.85417E-02 1.44531E-02 0.00000E+00
 -1       561 3.95833E-02 1.48437E-02 0.00000E+00
 -1       562 4.06250E-02 1.52344E-02 0.00000E+00
 -1       563 4.16667E-02 1.56250E-02 0.00000E+00
 -1       564 4.27083E-02 1.60156E-02 0.00000E+00
 -1       565 4.37500E-02 1.64062E-02 0.00000E+00
 -1       566 4.47917E-02 1.67969E-02 0.00000E+00
 -1       567 4.58333E-02 1.71875E-02 0.00000E+00
 -1       568 4.68750E-02 1.75781E-02 0.00000E+00
 -1       569 4.79167E-02 1.79687E-02 0.00000E+00
 -1       570 4.89583E-02 1.83594E-02 0.00000E+00
 -1       571 5.10417E-02 1.25000E-02 0.00000E+00
 -1       572 5.20833E-02 1.25000E-02 0.00000E+00
 -1       573 5.31250E-02 1.25000E-02 0.00000E+00
 -1       574 5.41667E-02 1.25000E-02 0.00000E+00
 -1       575 5.52083E-02 1.25000E-02 0.00000E+00
 -1       576 5.62500E-02 1.25000E-02 0.00000E+00
 -1       577 5.72917E-02 1.25000E-02 0.00000E+00
 -1       578 5.83333E-02 1.25000E-02 0.00000E+00
 -1       579 5.93750E-02 1.25000E-02 0.00000E+00
 -1       580 6.04167E-02 1.25000E-02 0.00000E+00
 -1       581 6.14583E-02 1.25000E-02 0.00000E+00
 -1       582 6.25000E-02 1.25000E-02 0.00000E+00
 -1       583 6.35417E-02 1.25000E-02 0.00000E+00
 -1       584 6.45833E-02 1.25000E-02 0.00000E+00
 -1       585 6.56250E-02 1.25000E-02 0.00000E+00
 -1       586 5.00000E-02 1.35417E-02 0.00000E+00
 -1       587 5.00000E-02 1.45833E-02 0.00000E+00
 -1       588 5.00000E-02 1.56250E-02 0.00000E+00
 -1       589 5.00000E-02 1.66667E-02 0.00000E+00
 -1       590 5.00000E-02 1.77083E-02 0.00000E+00
 -1       591 5.10417E-02 1.28906E-02 0.00000E+00
 -1       592 5.20833E-02 1.32813E-02 0.00000E+00
 -1       593 5.31250E-02 1.36719E-02 0.00000E+00
 -1       594 5.41667E-02 1.40625E-02 0.00000E+00
 -1       595 5.52083E-02 1.44531E-02 0.00000E+00
 -1       596 5.62500E-02 1.48437E-02 0.00000E+00
 -1       597 5.72917E-02 1.52344E-02 0.00000E+00
 -1       598 5.83333E-02 1.56250E-02 0.00000E+00
 -1       599 5.93750E-02 1.60156E-02 0.00000E+00
 -1       600 6.04167E-02 1.64062E-02 0.00000E+00
 -1       601 6.14583E-02 1.67969E-02 0.00000E+00
 -1       602 6.25000E-02 1.71875E-02 0.00000E+00
 -1       603 6.35417E-02 1.75781E-02 0.00000E+00
 -1       604 6.45833E-02 1.79687E-02 0.00000E+00
 -1       605 6.56250E-02 1.83594E-02 0.00000E+00
 -1       606 6.77083E-02 1.25000E-02 0.00000E+00
 -1       607 6.87500E-02 1.25000E-02 0.00000E+00
 -1       608 6.97917E-02 1.25000E-02 0.00000E+00
 -1       609 7.08333E-02 1.25000E-02 0.00000E+00
 -1       610 7.18750E-02 1.25000E-02 0.00000E+00
 -1       611 7.29167E-02 1.25000E-02 0.00000E+00
 -1       612 7.39583E-02 1.25000E-02 0.00000E+00
 -1       613 7.50000E-02 1.25000E-02 0.00000E+00
 -1       614 7.60417E-02 1.25000E-02 0.00000E+00
 -1       615 7.70833E-02 1.25000E-02 0.00000E+00
 -1       616 7.81250E-02 1.25000E-02 0.00000E+00
 -1       617 7.91667E-02 1.25000E-02 0.00000E+00
 -1       618 8.02083E-02 1.25000E-02 0.00000E+00
 -1       619 8.12500E-02 1.25000E-02 0.00000E+00
 -1       620 8.22917E-02 1.25000E-02 0.00000E+00
 -1       621 6.66667E-02 1.35417E-02 0.00000E+00
 -1       622 6.66667E-02 1.45833E-02 0.00000E+00
 -1       623 6.66667E-02 1.56250E-02 0.00000E+00
 -1       624 6.66667E-02 1.66667E-02 0.00000E+00
 -1       625 6.66667E-02 1.77083E-02 0.00000E+00
 -1       626 6.77083E-02 1.28906E-02 0.00000E+00
 -1       627 6.87500E-02 1.32813E-02 0.00000E+00
 -1       628 6.97917E-02 1.36719E-02 0.00000E+00
 -1       629 7.08333E-02 1.40625E-02 0.00000E+00
 -1       630 7.18750E-02 1.44531E-02 0.00000E+00
 -1       631 7.29167E-02 1.48437E-02 0.00000E+00
 -1       632 7.39583E-02 1.52344E-02 0.00000E+00
 -1       633 7.50000E-02 1.56250E-02 0.00000E+00
 -1       634 7.60417E-02 1.60156E-02 0.00000E+00
 -1       635 7.70833E-02 1.64062E-02 0.00000E+00
 -1       636 7.81250E-02 1.67969E-02 0.00000E+00
 -1       637 7.91667E-02 1.71875E-02 0.00000E+00
 -1       638 8.02083E-02 1.75781E-02 0.00000E+00
 -1       639 8.12500E-02 1.79687E-02 0.00000E+00
 -1       640 8.22917E-02 1.83594E-02 0.00000E+00
 -1       641 8.43750E-02 1.25000E-02 0.00000E+00
 -1       642 8.54167E-02 1.25000E-02 0.00000E+00
 -1       643 8.64583E-02 1.25000E-02 0.00000E+00
 -1       644 8.75000E-02 1.25000E-02 0.00000E+00
 -1       645 8.85417E-02 1.25000E-02 0.00000E+00
 -1       646 8.95833E-02 1.25000E-02 0.00000E+00
 -1       647 9.06250E-02 1.25000E-02 0.00000E+00
 -1       648 9.16667E-02 1.25000E-02 0.00000E+00
 -1       649 9.27083E-02 1.25000E-02 0.00000E+00
 -1       650 9.37500E-02 1.25000E-02 0.00000E+00
 -1       651 9.47917E-02 1.25000E-02 0.00000E+00
 -1       652 9.58333E-02 1.25000E-02 0.00000E+00
 -1       653 9.68750E-02 1.25000E-02 0.00000E+00
 -1       654 9.79167E-02 1.25000E-02 0.00000E+00
 -1       655 9.89583E-02 1.25000E-02 0.00000E+00
 -1       656 8.33333E-02 1.35417E-02 0.00000E+00
 -1       657 8.33333E-02 1.45833E-02 0.00000E+00
 -1       658 8.33333E-02 1.56250E-02 0.00000E+00
 -1       659 8.33333E-02 1.66667E-02 0.00000E+00
 -1       660 8.33333E-02 1.77083E-02 0.00000E+00
 -1       661 8.43750E-02 1.28906E-02 0.00000E+00
 -1       662 8.54167E-02 1.32813E-02 0.00000E+00
 -1       663 8.64583E-02 1.36719E-02 0.00000E+00
 -1       664 8.75000E-02 1.40625E-02 0.00000E+00
 -1       665 8.85417E-02 1.44531E-02 0.00000E+00
 -1       666 8.95833E-02 1.48437E-02 0.00000E+00
 -1       667 9.06250E-02 1.52344E-02 0.00000E+00
 -1       668 9.16667E-02 1.56250E-02 0.00000E+00
 -1       669 9.27083E-02 1.60156E-02 0.00000E+00
 -1       670 9.37500E-02 1.64062E-02 0.00000E+00
 -1       671 9.47917E-02 1.67969E-02 0.00000E+00
 -1       672 9.58333E-02 1.71875E-02 0.00000E+00
 -1       673 9.68750E-02 1.75781E-02 0.00000E+00
 -1       674 9.79167E-02 1.79687E-02 0.00000E+00
 -1       675 9.89583E-02 1.83594E-02 0.00000E+00
 -1       676 1.00000E-01 1.35417E-02 0.00000E+00
 -1       677 1.00000E-01 1.45833E-02 0.00000E+00
 -1       678 1.00000E-01 1.56250E-02 0.00000E+00
 -1       679 1.00000E-01 1.66667E-02 0.00000E+00
 -1       680 1.00000E-01 1.77083E-02 0.00000E+00
 -1       681 1.04167E-03 1.87500E-02 0.00000E+00
 -1       682 2.08333E-03 1.87500E-02 0.00000E+00
 -1       683 3.12500E-03 1.87500E-02 0.00000E+00
 -1       684 4.16667E-03 1.87500E-02 0.00000E+00
 -1       685 5.20833E-03 1.87500E-02 0.00000E+00
 -1       686 6.25000E-03 1.87500E-02 0.00000E+00
 -1       687 7.29167E-03 1.87500E-02 0.00000E+00
 -1       688 8.33333E-03 1.87500E-02 0.00000E+00
 -1       689 9.37500E-03 1.87500E-02 0.00000E+00
 -1       690 1.04167E-02 1.87500E-02 0.00000E+00
 -1       691 1.14583E-02 1.87500E-02 0.00000E+00
 -1       692 1.25000E-02 1.87500E-02 0.00000E+00
 -1       693 1.35417E-02 1.87500E-02 0.00000E+00
 -1       694 1.45833E-02 1.87500E-02 0.00000E+00
 -1       695 1.56250E-02 1.87500E-02 0.00000E+00
 -1       696 0.00000E+00 1.97917E-02 0.00000E+00
 -1       697 0.00000E+00 2.08333E-02 0.00000E+00
 -1       698 0.00000E+00 2.18750E-02 0.00000E+00
 -1       699 0.00000E+00 2.29167E-02 0.00000E+00
 -1       700 0.00000E+00 2.39583E-02 0.00000E+00
 -1       701 1.04167E-03 1.91406E-02 0.00000E+00
 -1       702 2.08333E-03 1.95312E-02 0.00000E+00
 -1       703 3.12500E-03 1.99219E-02 0.00000E+00
 -1       704 4.16667E-03 2.03125E-02 0.00000E+00
 -1       705 5.20833E-03 2.07031E-02 0.00000E+00
 -1       706 6.25000E-03 2.10938E-02 0.00000E+00
 -1       707 7.29167E-03 2.14844E-02 0.00000E+00
 -1       708 8.33333E-03 2.18750E-02 0.00000E+00
 -1       709 9.37500E-03 2.22656E-02 0.00000E+00
 -1       710 1.04167E-02 2.26563E-02 0.00000E+00
 -1       711 1.14583E-02 2.30469E-02 0.00000E+00
 -1       712 1.25000E-02 2.34375E-02 0.00000E+00
 -1       713 1.35417E-02 2.38281E-02 0.00000E+00
 -1       714 1.45833E-02 2.42187E-02 0.00000E+00
 -1       715 1.56250E-02 2.46094E-02 0.00000E+00
 -1       716 1.77083E-02 1.87500E-02 0.00000E+00
 -1       717 1.87500E-02 1.87500E-02 0.00000E+00
 -1       718 1.97917E-02 1.87500E-02 0.00000E+00
 -1       719 2.08333E-02 1.87500E-02 0.00000E+00
 -1       720 2.18750E-02 1.87500E-02 0.00000E+00
 -1       721 2.29167E-02 1.87500E-02 0.00000E+00
 -1       722 2.39583E-02 1.87500E-02 0.00000E+00
 -1       723 2.50000E-02 1.87500E-02 0.00000E+00
 -1       724 2.60417E-02 1.87500E-02 0.00000E+00
 -1       725 2.70833E-02 1.87500E-02 0.00000E+00
 -1       726 2.81250E-02 1.87500E-02 0.00000E+00
 -1       727 2.91667E-02 1.87500E-02 0.00000E+00
 -1       728 3.02083E-02 1.87500E-02 0.00000E+00
 -1       729 3.12500E-02 1.87500E-02 0.00000E+00
 -1       730 3.22917E-02 1.87500E-02 0.00000E+00
 -1       731 1.66667E-02 1.97917E-02 0.00000E+00
 -1       732 1.66667E-02 2.08333E-02 0.00000E+00
 -1       733 1.66667E-02 2.18750E-02 0.00000E+00
 -1       734 1.66667E-02 2.29167E-02 0.00000E+00
 -1       735 1.66667E-02 2.39583E-02 0.00000E+00
 -1       736 1.77083E-02 1.91406E-02 0.00000E+00
 -1       737 1.87500E-02 1.95312E-02 0.00000E+00
 -1       738 1.97917E-02 1.99219E-02 0.00000E+00
 -1       739 2.08333E-02 2.03125E-02 0.00000E+00
 -1       740 2.18750E-02 2.07031E-02 0.00000E+00
 -1       741 2.29167E-02 2.10938E-02 0.00000E+00
 -1       742 2.39583E-02 2.14844E-02 0.00000E+00
 -1       743 2.50000E-02 2.18750E-02 0.00000E+00
 -1       744 2.60417E-02 2.22656E-02 0.00000E+00
 -1       745 2.70833E-02 2.26563E-02 0.00000E+00
 -1       746 2.81250E-02 2.30469E-02 0.00000E+00
 -1       747 2.91667E-02 2.34375E-02 0.00000E+00
 -1       748 3.02083E-02 2.38281E-02 0.00000E+00
 -1       749 3.12500E-02 2.42187E-02 0.00000E+00
 -1       750 3.22917E-02 2.46094E-02 0.00000E+00
 -1       751 3.43750E-02 1.87500E-02 0.00000E+00
 -1       752 3.54167E-02 1.87500E-02 0.00000E+00
 -1       753 3.64583E-02 1.87500E-02 0.00000E+00
 -1       754 3.75000E-02 1.87500E-02 0.00000E+00
 -1       755 3.85417E-02 1.87500E-02 0.00000E+00
 -1       756 3.95833E-02 1.87500E-02 0.00000E+00
 -1       757 4.06250E-02 1.87500E-02 0.00000E+00
 -1       758 4.16667E-02 1.87500E-02 0.00000E+00
 -1       759 4.27083E-02 1.87500E-02 0.00000E+00
 -1       760 4.37500E-02 1.87500E-02 0.00000E+00
 -1       761 4.47917E-02 1.87500E-02 0.00000E+00
 -1       762 4.58333E-02 1.87500E-02 0.00000E+00
 -1       763 4.68750E-02 1.87500E-02 0.00000E+00
 -1       764 4.79167E-02 1.87500E-02 0.00000E+00
 -1       765 4.89583E-02 1.87500E-02 0.00000E+00
 -1       766 3.33333E-02 1.97917E-02 0.00000E+00
 -1       767 3.33333E-02 2.08333E-02 0.00000E+00
 -1       768 3.33333E-02 2.18750E-02 0.00000E+00
 -1       769 3.33333E-02 2.29167E-02 0.00000E+00
 -1       770 3.33333E-02 2.39583E-02 0.00000E+00
 -1       771 3.43750E-02 1.91406E-02 0.00000E+00
 -1       772 3.54167E-02 1.95312E-02 0.00000E+00
 -1       773 3.64583E-02 1.99219E-02 0.00000E+00
 -1       774 3.75000E-02 2.03125E-02 0.00000E+00
 -1       775 3.85417E-02 2.07031E-02 0.00000E+00
 -1       776 3.95833E-02 2.10938E-02 0.00000E+00
 -1       777 4.06250E-02 2.14844E-02 0.00000E+00
 -1       778 4.16667E-02 2.18750E-02 0.00000E+00
 -1       779 4.27083E-02 2.22656E-02 0.00000E+00
 -1       780 4.37500E-02 2.26563E-02 0.00000E+00
 -1       781 4.47917E-02 2.30469E-02 0.00000E+00
 -1       782 4.58333E-02 2.34375E-02 0.00000E+00
 -1       783 4.68750E-02 2.38281E-02 0.00000E+00
 -1       784 4.79167E-02 2.42187E-02 0.00000E+00
 -1       785 4.89583E-02 2.46094E-02 0.00000E+00
 -1       786 5.10417E-02 1.87500E-02 0.00000E+00
 -1       787 5.20833E-02 1.87500E-02 0.00000E+00
 -1       788 5.31250E-02 1.87500E-02 0.00000E+00
 -1       789 5.41667E-02 1.87500E-02 0.00000E+00
 -1       790 5.52083E-02 1.87500E-02 0.00000E+00
 -1       791 5.62500E-02 1.87500E-02 0.00000E+00
 -1       792 5.72917E-02 1.87500E-02 0.00000E+00
 -1       793 5.83333E-02 1.87500E-02 0.00000E+00
 -1       794 5.93750E-02 1.87500E-02 0.00000E+00
 -1       795 6.04167E-02 1.87500E-02 0.00000E+00
 -1       796 6.14583E-02 1.87500E-02 0.00000E+00
 -1       797 6.25000E-02 1.87500E-02 0.00000E+00
 -1       798 6.35417E-02 1.87500E-02 0.00000E+00
 -1       799 6.45833E-02 1.87500E-02 0.00000E+00
 -1       800 6.56250E-02 1.87500E-02 0.00000E+00
 -1       801 5.00000E-02 1.97917E-02 0.00000E+00
 -1       802 5.00000E-02 2.08333E-02 0.00000E+00
 -1       803 5.00000E-02 2.18750E-02 0.00000E+00
 -1       804 5.00000E-02 2.29167E-02 0.00000E+00
 -1       805 5.00000E-02 2.39583E-02 0.00000E+00
 -1       806 5.10417E-02 1.91406E-02 0.00000E+00
 -1       807 5.20833E-02 1.95312E-02 0.00000E+00
 -1       808 5.31250E-02 1.99219E-02 0.00000E+00
 -1       809 5.41667E-02 2.03125E-02 0.00000E+00
 -1       810 5.52083E-02 2.07031E-02 0.00000E+00
 -1       811 5.62500E-02 2.10938E-02 0.00000E+00
 -1       812 5.72917E-02 2.14844E-02 0.00000E+00
 -1       813 5.83333E-02 2.18750E-02 0.00000E+00
 -1       814 5.93750E-02 2.22656E-02 0.00000E+00
 -1       815 6.04167E-02 2.26563E-02 0.00000E+00
 -1       816 6.14583E-02 2.30469E-02 0.00000E+00
 -1       817 6.25000E-02 2.34375E-02 0.00000E+00
 -1       818 6.35417E-02 2.38281E-02 0.00000E+00
 -1       819 6.45833E-02 2.42187E-02 0.00000E+00
 -1       820 6.56250E-02 2.46094E-02 0.00000E+00
 -1       821 6.77083E-02 1.87500E-02 0.00000E+00
 -1       822 6.87500E-02 1.87500E-02 0.00000E+00
 -1       823 6.97917E-02 1.87500E-02 0.00000E+00
 -1       824 7.08333E-02 1.87500E-02 0.00000E+00
 -1       825 7.18750E-02 1.87500E-02 0.00000E+00
 -1       826 7.29167E-02 1.87500E-02 0.00000E+00
 -1       827 7.39583E-02 1.87500E-02 0.00000E+00
 -1       828 7.50000E-02 1.87500E-02 0.00000E+00
 -1       829 7.60417E-02 1.87500E-02 0.00000E+00
 -1       830 7.70833E-02 1.87500E-02 0.00000E+00
 -1       831 7.81250E-02 1.87500E-02 0.00000E+00
 -1       832 7.91667E-02 1.87500E-02 0.00000E+00
 -1       833 8.02083E-02 1.87500E-02 0.00000E+00
 -1       834 8.12500E-02 1.87500E-02 0.00000E+00
 -1       835 8.22917E-02 1.87500E-02 0.00000E+00
 -1       836 6.66667E-02 1.97917E-02 0.00000E+00
 -1       837 6.66667E-02 2.08333E-02 0.00000E+00
 -1       838 6.66667E-02 2.18750E-02 0.00000E+00
 -1       839 6.66667E-02 2.29167E-02 0.00000E+00
 -1       840 6.66667E-02 2.39583E-02 0.00000E+00
 -1       841 6.77083E-02 1.91406E-02 0.00000E+00
 -1       842 6.87500E-02 1.95312E-02 0.00000E+00
 -1       843 6.97917E-02 1.99219E-02 0.00000E+00
 -1       844 7.08333E-02 2.03125E-02 0.00000E+00
 -1       845 7.18750E-02 2.07031E-02 0.00000E+00
 -1       846 7.29167E-02 2.10938E-02 0.00000E+00
 -1       847 7.39583E-02 2.14844E-02 0.00000E+00
 -1       848 7.50000E-02 2.18750E-02 0.00000E+00
 -1       849 7.60417E-02 2.22656E-02 0.00000E+00
 -1       850 7.70833E-02 2.26563E-02 0.00000E+00
 -1       851 7.81250E-02 2.30469E-02 0.00000E+00
 -1       852 7.91667E-02 2.34375E-02 0.00000E+00
 -1       853 8.02083E-02 2.38281E-02 0.00000E+00
 -1       854 8.12500E-02 2.42187E-02 0.00000E+00
 -1       855 8.22917E-02 2.46094E-02 0.00000E+00
 -1       856 8.43750E-02 1.87500E-02 0.00000E+00
 -1       857 8.54167E-02 1.87500E-02 0.00000E+00
 -1       858 8.64583E-02 1.87500E-02 0.00000E+00
 -1       859 8.75000E-02 1.87500E-02 0.00000E+00
 -1       860 8.85417E-02 1.87500E-02 0.00000E+00
 -1       861 8.95833E-02 1.87500E-02 0.00000E+00
 -1       862 9.06250E-02 1.87500E-02 0.00000E+00
 -1       863 9.16667E-02 1.87500E-02 0.00000E+00
 -1       864 9.27083E-02 1.87500E-02 0.00000E+00
 -1       865 9.37500E-02 1.87500E-02 0.00000E+00
 -1       866 9.47917E-02 1.87500E-02 0.00000E+00
 -1       867 9.58333E-02 1.87500E-02 0.00000E+00
 -1       868 9.68750E-02 1.87500E-02 0.00000E+00
 -1       869 9.79167E-02 1.87500E-02 0.00000E+00
 -1       870 9.89583E-02 1.87500E-02 0.00000E+00
 -1       871 8.33333E-02 1.97917E-02 0.00000E+00
 -1       872 8.33333E-02 2.08333E-02 0.00000E+00
 -1       873 8.33333E-02 2.18750E-02 0.00000E+00
 -1       874 8.33333E-02 2.29167E-02 0.00000E+00
 -1       875 8.33333E-02 2.39583E-02 0.00000E+00
 -1       876 8.43750E-02 1.91406E-02 0.00000E+00
 -1       877 8.54167E-02 1.95312E-02 0.00000E+00
 -1       878 8.64583E-02 1.99219E-02 0.00000E+00
 -1       879 8.75000E-02 2.03125E-02 0.00000E+00
 -1       880 8.85417E-02 2.07031E-02 0.00000E+00
 -1       881 8.95833E-02 2.10938E-02 0.00000E+00
 -1       882 9.06250E-02 2.14844E-02 0.00000E+00
 -1       883 9.16667E-02 2.18750E-02 0.00000E+00
 -1       884 9.27083E-02 2.22656E-02 0.00000E+00
 -1       885 9.37500E-02 2.26563E-02 0.00000E+00
 -1       886 9.47917E-02 2.30469E-02 0.00000E+00
 -1       887 9.58333E-02 2.34375E-02 0.00000E+00
 -1       888 9.68750E-02 2.38281E-02 0.00000E+00
 -1       889 9.79167E-02 2.42187E-02 0.00000E+00
 -1       890 9.89583E-02 2.46094E-02 0.00000E+00
 -1       891 1.00000E-01 1.97917E-02 0.00000E+00
 -1       892 1.00000E-01 2.08333E-02 0.00000E+00
 -1       893 1.00000E-01 2.18750E-02 0.00000E+00
 -1       894 1.00000E-01 2.29167E-02 0.00000E+00
 -1       895 1.00000E-01 2.39583E-02 0.00000E+00
 -1       896 1.04167E-03 2.50000E-02 0.00000E+00
 -1       897 2.08333E-03 2.50000E-02 0.00000E+00
 -1       898 3.12500E-03 2.50000E-02 0.00000E+00
 -1       899 4.16667E-03 2.50000E-02 0.00000E+00
 -1       900 5.20833E-03 2.50000E-02 0.00000E+00
 -1       901 6.25000E-03 2.50000E-02 0.00000E+00
 -1       902 7.29167E-03 2.50000E-02 0.00000E+00
 -1       903 8.33333E-03 2.50000E-02 0.00000E+00
 -1       904 9.37500E-03 2.50000E-02 0.00000E+00
 -1       905 1.04167E-02 2.50000E-02 0.00000E+00
 -1       906 1.14583E-02 2.50000E-02 0.00000E+00
 -1       907 1.25000E-02 2.50000E-02 0.00000E+00
 -1       908 1.35417E-02 2.50000E-02 0.00000E+00
 -1       909 1.45833E-02 2.50000E-02 0.00000E+00
 -1       910 1.56250E-02 2.50000E-02 0.00000E+00
 -1       911 1.77083E-02 2.50000E-02 0.00000E+00
 -1       912 1.87500E-02 2.50000E-02 0.00000E+00
 -1       913 1.97917E-02 2.50000E-02 0.00000E+00
 -1       914 2.08333E-02 2.50000E-02 0.00000E+00
 -1       915 2.18750E-02 2.50000E-02 0.00000E+00
 -1       916 2.29167E-02 2.50000E-02 0.00000E+00
 -1       917 2.39583E-02 2.50000E-02 0.00000E+00
 -1       918 2.50000E-02 2.50000E-02 0.00000E+00
 -1       919 2.60417E-02 2.50000E-02 0.00000E+00
 -1       920 2.70833E-02 2.50000E-02 0.00000E+00
 -1       921 2.81250E-02 2.50000E-02 0.00000E+00
 -1       922 2.91667E-02 2.50000E-02 0.00000E+00
 -1       923 3.02083E-02 2.50000E-02 0.00000E+00
 -1       924 3.12500E-02 2.50000E-02 0.00000E+00
 -1       925 3.22917E-02 2.50000E-02 0.00000E+00
 -1       926 3.43750E-02 2.50000E-02 0.00000E+00
 -1       927 3.54167E-02 2.50000E-02 0.00000E+00
 -1       928 3.64583E-02 2.50000E-02 0.00000E+00
 -1       929 3.75000E-02 2.50000E-02 0.00000E+00
 -1       930 3.85417E-02 2.50000E-02 0.00000E+00
 -1       931 3.95833E-02 2.50000E-02 0.00000E+00
 -1       932 4.06250E-02 2.50000E-02 0.00000E+00
 -1       933 4.16667E-02 2.50000E-02 0.00000E+00
 -1       934 4.27083E-02 2.50000E-02 0.00000E+00
 -1       935 4.37500E-02 2.50000E-02 0.00000E+00
 -1       936 4.47917E-02 2.50000E-02 0.00000E+00
 -1       937 4.58333E-02 2.50000E-02 0.00000E+00
 -1       938 4.68750E-02 2.50000E-02 0.00000E+00
 -1       939 4.79167E-02 2.50000E-02 0.00000E+00
 -1       940 4.89583E-02 2.50000E-02 0.00000E+00
 -1       941 5.10417E-02 2.50000E-02 0.00000E+00
 -1       942 5.20833E-02 2.50000E-02 0.00000E+00
 -1       943 5.31250E-02 2.50000E-02 0.00000E+00
 -1       944 5.41667E-02 2.50000E-02 0.00000E+00
 -1       945 5.52083E-02 2.50000E-02 0.00000E+00
 -1       946 5.62500E-02 2.50000E-02 0.00000E+00
 -1       947 5.72917E-02 2.50000E-02 0.00000E+00
 -1       948 5.83333E-02 2.50000E-02 0.00000E+00
 -1       949 5.93750E-02 2.50000E-02 0.00000E+00
 -1       950 6.04167E-02 2.50000E-02 0.00000E+00
 -1       951 6.14583E-02 2.50000E-02 0.00000E+00
 -1       952 6.25000E-02 2.50000E-02 0.00000E+00
 -1       953 6.35417E-02 2.50000E-02 0.00000E+00
 -1       954 6.45833E-02 2.50000E-02 0.00000E+00
 -1       955 6.56250E-02 2.50000E-02 0.00000E+00
 -1       956 6.77083E-02 2.50000E-02 0.00000E+00
 -1       957 6.87500E-02 2.50000E-02 0.00000E+00
 -1       958 6.97917E-02 2.50000E-02 0.00000E+00
 -1       959 7.08333E-02 2.50000E-02 0.00000E+00
 -1       960 7.18750E-02 2.50000E-02 0.00000E+00
 -1       961 7.29167E-02 2.50000E-02 0.00000E+00
 -1       962 7.39583E-02 2.50000E-02 0.00000E+00
 -1       963 7.50000E-02 2.50000E-02 0.00000E+00
 -1       964 7.60417E-02 2.50000E-02 0.00000E+00
 -1       965 7.70833E-02 2.50000E-02 0.00000E+00
 -1       966 7.81250E-02 2.50000E-02 0.00000E+00
 -1       967 7.91667E-02 2.50000E-02 0.00000E+00
 -1       968 8.02083E-02 2.50000E-02 0.00000E+00
 -1       969 8.12500E-02 2.50000E-02 0.00000E+00
 -1       970 8.22917E-02 2.50000E-02 0.00000E+00
 -1       971 8.43750E-02 2.50000E-02 0.00000E+00
 -1       972 8.54167E-02 2.50000E-02 0.00000E+00
 -1       973 8.64583E-02 2.50000E-02 0.00000E+00
 -1       974 8.75000E-02 2.50000E-02 0.00000E+00
 -1       975 8.85417E-02 2.50000E-02 0.00000E+00
 -1       976 8.95833E-02 2.50000E-02 0.00000E+00
 -1       977 9.06250E-02 2.50000E-02 0.00000E+00
 -1       978 9.16667E-02 2.50000E-02 0.00000E+00
 -1       979 9.27083E-02 2.50000E-02 0.00000E+00
 -1       980 9.37500E-02 2.50000E-02 0.00000E+00
 -1       981 9.47917E-02 2.50000E-02 0.00000E+00
 -1       982 9.58333E-02 2.50000E-02 0.00000E+00
 -1       983 9.68750E-02 2.50000E-02 0.00000E+00
 -1       984 9.79167E-02 2.50000E-02 0.00000E+00
 -1       985 9.89583E-02 2.50000E-02 0.00000E+00
 -3
    3C                           440                                     1
 -1         1   12    0    1
 -2         1        37        36
 -1         2   12    0    1
 -2        37        39        38
 -1         3   12    0    1
 -2        39        41        40
 -1         4   12    0    1
 -2        41        43        42
 -1         5   12    0    1
 -2        43        45        44
 -1         6   12    0    1
 -2        45        47        46
 -1         7   12    0    1
 -2        47        49        48
 -1         8   12    0    1
 -2        49         2        50
 -1         9   12    0    1
 -2         1        52        51
 -1        10   12    0    1
 -2        52        54        53
 -1        11   12    0    1
 -2        54         8        55
 -1        12   12    0    1
 -2         1        57        56
 -1        13   12    0    1
 -2        57        59        58
 -1        14   12    0    1
 -2        59        61        60
 -1        15   12    0    1
 -2        61        63        62
 -1        16   12    0    1
 -2        63        65        64
 -1        17   12    0    1
 -2        65        67        66
 -1        18   12    0    1
 -2        67        69        68
 -1        19   12    0    1
 -2        69         9        70
 -1        20   12    0    1
 -2         2        72        71
 -1        21   12    0    1
 -2        72        74        73
 -1        22   12    0    1
 -2        74        76        75
 -1        23   12    0    1
 -2        76        78        77
 -1        24   12    0    1
 -2        78        80        79
 -1        25   12    0    1
 -2        80        82        81
 -1        26   12    0    1
 -2        82        84        83
 -1        27   12    0    1
 -2        84         3        85
 -1        28   12    0    1
 -2         2        87        86
 -1        29   12    0    1
 -2        87        89        88
 -1        30   12    0    1
 -2        89         9        90
 -1        31   12    0    1
 -2         2        92        91
 -1        32   12    0    1
 -2        92        94        93
 -1        33   12    0    1
 -2        94        96        95
 -1        34   12    0    1
 -2        96        98        97
 -1        35   12    0    1
 -2        98       100        99
 -1        36   12    0    1
 -2       100       102       101
 -1        37   12    0    1
 -2       102       104       103
 -1        38   12    0    1
 -2       104        10       105
 -1        39   12    0    1
 -2         3       107       106
 -1        40   12    0    1
 -2       107       109       108
 -1        41   12    0    1
 -2       109       111       110
 -1        42   12    0    1
 -2       111       113       112
 -1        43   12    0    1
 -2       113       115       114
 -1        44   12    0    1
 -2       115       117       116
 -1        45   12    0    1
 -2       117       119       118
 -1        46   12    0    1
 -2       119         4       120
 -1        47   12    0    1
 -2         3       122       121
 -1        48   12    0    1
 -2       122       124       123
 -1        49   12    0    1
 -2       124        10       125
 -1        50   12    0    1
 -2         3       127       126
 -1        51   12    0    1
 -2       127       129       128
 -1        52   12    0    1
 -2       129       131       130
 -1        53   12    0    1
 -2       131       133       132
 -1        54   12    0    1
 -2       133       135       134
 -1        55   12    0    1
 -2       135       137       136
 -1        56   12    0    1
 -2       137       139       138
 -1        57   12    0    1
 -2       139        11       140
 -1        58   12    0    1
 -2         4       142       141
 -1        59   12    0    1
 -2       142       144       143
 -1        60   12    0    1
 -2       144       146       145
 -1        61   12    0    1
 -2       146       148       147
 -1        62   12    0    1
 -2       148       150       149
 -1        63   12    0    1
 -2       150       152       151
 -1        64   12    0    1
 -2       152       154       153
 -1        65   12    0    1
 -2       154         5       155
 -1        66   12    0    1
 -2         4       157       156
 -1        67   12    0    1
 -2       157       159       158
 -1        68   12    0    1
 -2       159        11       160
 -1        69   12    0    1
 -2         4       162       161
 -1        70   12    0    1
 -2       162       164       163
 -1        71   12    0    1
 -2       164       166       165
 -1        72   12    0    1
 -2       166       168       167
 -1        73   12    0    1
 -2       168       170       169
 -1        74   12    0    1
 -2       170       172       171
 -1        75   12    0    1
 -2       172       174       173
 -1        76   12    0    1
 -2       174        12       175
 -1        77   12    0    1
 -2         5       192       191
 -1        78   12    0    1
 -2       192       194       193
 -1        79   12    0    1
 -2       194        12       195
 -1        80   12    0    1
 -2         8       252       251
 -1        81   12    0    1
 -2       252       254       253
 -1        82   12    0    1
 -2       254       256       255
 -1        83   12    0    1
 -2       256       258       257
 -1        84   12    0    1
 -2       258       260       259
 -1        85   12    0    1
 -2       260       262       261
 -1        86   12    0    1
 -2       262       264       263
 -1        87   12    0    1
 -2       264         9       265
 -1        88   12    0    1
 -2         8       267       266
 -1        89   12    0    1
 -2       267       269       268
 -1        90   12    0    1
 -2       269        15       270
 -1        91   12    0    1
 -2         8       272       271
 -1        92   12    0    1
 -2       272       274       273
 -1        93   12    0    1
 -2       274       276       275
 -1        94   12    0    1
 -2       276       278       277
 -1        95   12    0    1
 -2       278       280       279
 -1        96   12    0    1
 -2       280       282       281
 -1        97   12    0    1
 -2       282       284       283
 -1        98   12    0    1
 -2       284        16       285
 -1        99   12    0    1
 -2         9       287       286
 -1       100   12    0    1
 -2       287       289       288
 -1       101   12    0    1
 -2       289       291       290
 -1       102   12    0    1
 -2       291       293       292
 -1       103   12    0    1
 -2       293       295       294
 -1       104   12    0    1
 -2       295       297       296
 -1       105   12    0    1
 -2       297       299       298
 -1       106   12    0    1
 -2       299        10       300
 -1       107   12    0    1
 -2         9       302       301
 -1       108   12    0    1
 -2       302       304       303
 -1       109   12    0    1
 -2       304        16       305
 -1       110   12    0    1
 -2         9       307       306
 -1       111   12    0    1
 -2       307       309       308
 -1       112   12    0    1
 -2       309       311       310
 -1       113   12    0    1
 -2       311       313       312
 -1       114   12    0    1
 -2       313       315       314
 -1       115   12    0    1
 -2       315       317       316
 -1       116   12    0    1
 -2       317       319       318
 -1       117   12    0    1
 -2       319        17       320
 -1       118   12    0    1
 -2        10       322       321
 -1       119   12    0    1
 -2       322       324       323
 -1       120   12    0    1
 -2       324       326       325
 -1       121   12    0    1
 -2       326       328       327
 -1       122   12    0    1
 -2       328       330       329
 -1       123   12    0    1
 -2       330       332       331
 -1       124   12    0    1
 -2       332       334       333
 -1       125   12    0    1
 -2       334        11       335
 -1       126   12    0    1
 -2        10       337       336
 -1       127   12    0    1
 -2       337       339       338
 -1       128   12    0    1
 -2       339        17       340
 -1       129   12    0    1
 -2        10       342       341
 -1       130   12    0    1
 -2       342       344       343
 -1       131   12    0    1
 -2       344       346       345
 -1       132   12    0    1
 -2       346       348       347
 -1       133   12    0    1
 -2       348       350       349
 -1       134   12    0    1
 -2       350       352       351
 -1       135   12    0    1
 -2       352       354       353
 -1       136   12    0    1
 -2       354        18       355
 -1       137   12    0    1
 -2        11       357       356
 -1       138   12    0    1
 -2       357       359       358
 -1       139   12    0    1
 -2       359       361       360
 -1       140   12    0    1
 -2       361       363       362
 -1       141   12    0    1
 -2       363       365       364
 -1       142   12    0    1
 -2       365       367       366
 -1       143   12    0    1
 -2       367       369       368
 -1       144   12    0    1
 -2       369        12       370
 -1       145   12    0    1
 -2        11       372       371
 -1       146   12    0    1
 -2       372       374       373
 -1       147   12    0    1
 -2       374        18       375
 -1       148   12    0    1
 -2        11       377       376
 -1       149   12    0    1
 -2       377       379       378
 -1       150   12    0    1
 -2       379       381       380
 -1       151   12    0    1
 -2       381       383       382
 -1       152   12    0    1
 -2       383       385       384
 -1       153   12    0    1
 -2       385       387       386
 -1       154   12    0    1
 -2       387       389       388
 -1       155   12    0    1
 -2       389        19       390
 -1       156   12    0    1
 -2        12       407       406
 -1       157   12    0    1
 -2       407       409       408
 -1       158   12    0    1
 -2       409        19       410
 -1       159   12    0    1
 -2        15       467       466
 -1       160   12    0    1
 -2       467       469       468
 -1       161   12    0    1
 -2       469       471       470
 -1       162   12    0    1
 -2       471       473       472
 -1       163   12    0    1
 -2       473       475       474
 -1       164   12    0    1
 -2       475       477       476
 -1       165   12    0    1
 -2       477       479       478
 -1       166   12    0    1
 -2       479        16       480
 -1       167   12    0    1
 -2        15       482       481
 -1       168   12    0    1
 -2       482       484       483
 -1       169   12    0    1
 -2       484        22       485
 -1       170   12    0    1
 -2        15       487       486
 -1       171   12    0    1
 -2       487       489       488
 -1       172   12    0    1
 -2       489       491       490
 -1       173   12    0    1
 -2       491       493       492
 -1       174   12    0    1
 -2       493       495       494
 -1       175   12    0    1
 -2       495       497       496
 -1       176   12    0    1
 -2       497       499       498
 -1       177   12    0    1
 -2       499        23       500
 -1       178   12    0    1
 -2        16       502       501
 -1       179   12    0    1
 -2       502       504       503
 -1       180   12    0    1
 -2       504       506       505
 -1       181   12    0    1
 -2       506       508       507
 -1       182   12    0    1
 -2       508       510       509
 -1       183   12    0    1
 -2       510       512       511
 -1       184   12    0    1
 -2       512       514       513
 -1       185   12    0    1
 -2       514        17       515
 -1       186   12    0    1
 -2        16       517       516
 -1       187   12    0    1
 -2       517       519       518
 -1       188   12    0    1
 -2       519        23       520
 -1       189   12    0    1
 -2        16       522       521
 -1       190   12    0    1
 -2       522       524       523
 -1       191   12    0    1
 -2       524       526       525
 -1       192   12    0    1
 -2       526       528       527
 -1       193   12    0    1
 -2       528       530       529
 -1       194   12    0    1
 -2       530       532       531
 -1       195   12    0    1
 -2       532       534       533
 -1       196   12    0    1
 -2       534        24       535
 -1       197   12    0    1
 -2        17       537       536
 -1       198   12    0    1
 -2       537       539       538
 -1       199   12    0    1
 -2       539       541       540
 -1       200   12    0    1
 -2       541       543       542
 -1       201   12    0    1
 -2       543       545       544
 -1       202   12    0    1
 -2       545       547       546
 -1       203   12    0    1
 -2       547       549       548
 -1       204   12    0    1
 -2       549        18       550
 -1       205   12    0    1
 -2        17       552       551
 -1       206   12    0    1
 -2       552       554       553
 -1       207   12    0    1
 -2       554        24       555
 -1       208   12    0    1
 -2        17       557       556
 -1       209   12    0    1
 -2       557       559       558
 -1       210   12    0    1
 -2       559       561       560
 -1       211   12    0    1
 -2       561       563       562
 -1       212   12    0    1
 -2       563       565       564
 -1       213   12    0    1
 -2       565       567       566
 -1       214   12    0    1
 -2       567       569       568
 -1       215   12    0    1
 -2       569        25       570
 -1       216   12    0    1
 -2        18       572       571
 -1       217   12    0    1
 -2       572       574       573
 -1       218   12    0    1
 -2       574       576       575
 -1       219   12    0    1
 -2       576       578       577
 -1       220   12    0    1
 -2       578       580       579
 -1       221   12    0    1
 -2       580       582       581
 -1       222   12    0    1
 -2       582       584       583
 -1       223   12    0    1
 -2       584        19       585
 -1       224   12    0    1
 -2        18       587       586
 -1       225   12    0    1
 -2       587       589       588
 -1       226   12    0    1
 -2       589        25       590
 -1       227   12    0    1
 -2        18       592       591
 -1       228   12    0    1
 -2       592       594       593
 -1       229   12    0    1
 -2       594       596       595
 -1       230   12    0    1
 -2       596       598       597
 -1       231   12    0    1
 -2       598       600       599
 -1       232   12    0    1
 -2       600       602       601
 -1       233   12    0    1
 -2       602       604       603
 -1       234   12    0    1
 -2       604        26       605
 -1       235   12    0    1
 -2        19       607       606
 -1       236   12    0    1
 -2       607       609       608
 -1       237   12    0    1
 -2       609       611       610
 -1       238   12    0    1
 -2       611       613       612
 -1       239   12    0    1
 -2       613       615       614
 -1       240   12    0    1
 -2       615       617       616
 -1       241   12    0    1
 -2       617       619       618
 -1       242   12    0    1
 -2       619        20       620
 -1       243   12    0    1
 -2        19       622       621
 -1       244   12    0    1
 -2       622       624       623
 -1       245   12    0    1
 -2       624        26       625
 -1       246   12    0    1
 -2        19       627       626
 -1       247   12    0    1
 -2       627       629       628
 -1       248   12    0    1
 -2       629       631       630
 -1       249   12    0    1
 -2       631       633       632
 -1       250   12    0    1
 -2       633       635       634
 -1       251   12    0    1
 -2       635       637       636
 -1       252   12    0    1
 -2       637       639       638
 -1       253   12    0    1
 -2       639        27       640
 -1       254   12    0    1
 -2        20       642       641
 -1       255   12    0    1
 -2       642       644       643
 -1       256   12    0    1
 -2       644       646       645
 -1       257   12    0    1
 -2       646       648       647
 -1       258   12    0    1
 -2       648       650       649
 -1       259   12    0    1
 -2       650       652       651
 -1       260   12    0    1
 -2       652       654       653
 -1       261   12    0    1
 -2       654        21       655
 -1       262   12    0    1
 -2        20       657       656
 -1       263   12    0    1
 -2       657       659       658
 -1       264   12    0    1
 -2       659        27       660
 -1       265   12    0    1
 -2        20       662       661
 -1       266   12    0    1
 -2       662       664       663
 -1       267   12    0    1
 -2       664       666       665
 -1       268   12    0    1
 -2       666       668       667
 -1       269   12    0    1
 -2       668       670       669
 -1       270   12    0    1
 -2       670       672       671
 -1       271   12    0    1
 -2       672       674       673
 -1       272   12    0    1
 -2       674        28       675
 -1       273   12    0    1
 -2        21       677       676
 -1       274   12    0    1
 -2       677       679       678
 -1       275   12    0    1
 -2       679        28       680
 -1       276   12    0    1
 -2        22       682       681
 -1       277   12    0    1
 -2       682       684       683
 -1       278   12    0    1
 -2       684       686       685
 -1       279   12    0    1
 -2       686       688       687
 -1       280   12    0    1
 -2       688       690       689
 -1       281   12    0    1
 -2       690       692       691
 -1       282   12    0    1
 -2       692       694       693
 -1       283   12    0    1
 -2       694        23       695
 -1       284   12    0    1
 -2        22       697       696
 -1       285   12    0    1
 -2       697       699       698
 -1       286   12    0    1
 -2       699        29       700
 -1       287   12    0    1
 -2        22       702       701
 -1       288   12    0    1
 -2       702       704       703
 -1       289   12    0    1
 -2       704       706       705
 -1       290   12    0    1
 -2       706       708       707
 -1       291   12    0    1
 -2       708       710       709
 -1       292   12    0    1
 -2       710       712       711
 -1       293   12    0    1
 -2       712       714       713
 -1       294   12    0    1
 -2       714        30       715
 -1       295   12    0    1
 -2        23       717       716
 -1       296   12    0    1
 -2       717       719       718
 -1       297   12    0    1
 -2       719       721       720
 -1       298   12    0    1
 -2       721       723       722
 -1       299   12    0    1
 -2       723       725       724
 -1       300   12    0    1
 -2       725       727       726
 -1       301   12    0    1
 -2       727       729       728
 -1       302   12    0    1
 -2       729        24       730
 -1       303   12    0    1
 -2        23       732       731
 -1       304   12    0    1
 -2       732       734       733
 -1       305   12    0    1
 -2       734        30       735
 -1       306   12    0    1
 -2        23       737       736
 -1       307   12    0    1
 -2       737       739       738
 -1       308   12    0    1
 -2       739       741       740
 -1       309   12    0    1
 -2       741       743       742
 -1       310   12    0    1
 -2       743       745       744
 -1       311   12    0    1
 -2       745       747       746
 -1       312   12    0    1
 -2       747       749       748
 -1       313   12    0    1
 -2       749        31       750
 -1       314   12    0    1
 -2        24       752       751
 -1       315   12    0    1
 -2       752       754       753
 -1       316   12    0    1
 -2       754       756       755
 -1       317   12    0    1
 -2       756       758       757
 -1       318   12    0    1
 -2       758       760       759
 -1       319   12    0    1
 -2       760       762       761
 -1       320   12    0    1
 -2       762       764       763
 -1       321   12    0    1
 -2       764        25       765
 -1       322   12    0    1
 -2        24       767       766
 -1       323   12    0    1
 -2       767       769       768
 -1       324   12    0    1
 -2       769        31       770
 -1       325   12    0    1
 -2        24       772       771
 -1       326   12    0    1
 -2       772       774       773
 -1       327   12    0    1
 -2       774       776       775
 -1       328   12    0    1
 -2       776       778       777
 -1       329   12    0    1
 -2       778       780       779
 -1       330   12    0    1
 -2       780       782       781
 -1       331   12    0    1
 -2       782       784       783
 -1       332   12    0    1
 -2       784        32       785
 -1       333   12    0    1
 -2        25       787       786
 -1       334   12    0    1
 -2       787       789       788
 -1       335   12    0    1
 -2       789       791       790
 -1       336   12    0    1
 -2       791       793       792
 -1       337   12    0    1
 -2       793       795       794
 -1       338   12    0    1
 -2       795       797       796
 -1       339   12    0    1
 -2       797       799       798
 -1       340   12    0    1
 -2       799        26       800
 -1       341   12    0    1
 -2        25       802       801
 -1       342   12    0    1
 -2       802       804       803
 -1       343   12    0    1
 -2       804        32       805
 -1       344   12    0    1
 -2        25       807       806
 -1       345   12    0    1
 -2       807       809       808
 -1       346   12    0    1
 -2       809       811       810
 -1       347   12    0    1
 -2       811       813       812
 -1       348   12    0    1
 -2       813       815       814
 -1       349   12    0    1
 -2       815       817       816
 -1       350   12    0    1
 -2       817       819       818
 -1       351   12    0    1
 -2       819        33       820
 -1       352   12    0    1
 -2        26       822       821
 -1       353   12    0    1
 -2       822       824       823
 -1       354   12    0    1
 -2       824       826       825
 -1       355   12    0    1
 -2       826       828       827
 -1       356   12    0    1
 -2       828       830       829
 -1       357   12    0    1
 -2       830       832       831
 -1       358   12    0    1
 -2       832       834       833
 -1       359   12    0    1
 -2       834        27       835
 -1       360   12    0    1
 -2        26       837       836
 -1       361   12    0    1
 -2       837       839       838
 -1       362   12    0    1
 -2       839        33       840
 -1       363   12    0    1
 -2        26       842       841
 -1       364   12    0    1
 -2       842       844       843
 -1       365   12    0    1
 -2       844       846       845
 -1       366   12    0    1
 -2       846       848       847
 -1       367   12    0    1
 -2       848       850       849
 -1       368   12    0    1
 -2       850       852       851
 -1       369   12    0    1
 -2       852       854       853
 -1       370   12    0    1
 -2       854        34       855
 -1       371   12    0    1
 -2        27       857       856
 -1       372   12    0    1
 -2       857       859       858
 -1       373   12    0    1
 -2       859       861       860
 -1       374   12    0    1
 -2       861       863       862
 -1       375   12    0    1
 -2       863       865       864
 -1       376   12    0    1
 -2       865       867       866
 -1       377   12    0    1
 -2       867       869       868
 -1       378   12    0    1
 -2       869        28       870
 -1       379   12    0    1
 -2        27       872       871
 -1       380   12    0    1
 -2       872       874       873
 -1       381   12    0    1
 -2       874        34       875
 -1       382   12    0    1
 -2        27       877       876
 -1       383   12    0    1
 -2       877       879       878
 -1       384   12    0    1
 -2       879       881       880
 -1       385   12    0    1
 -2       881       883       882
 -1       386   12    0    1
 -2       883       885       884
 -1       387   12    0    1
 -2       885       887       886
 -1       388   12    0    1
 -2       887       889       888
 -1       389   12    0    1
 -2       889        35       890
 -1       390   12    0    1
 -2        28       892       891
 -1       391   12    0    1
 -2       892       894       893
 -1       392   12    0    1
 -2       894        35       895
 -1       393   12    0    1
 -2        29       897       896
 -1       394   12    0    1
 -2       897       899       898
 -1       395   12    0    1
 -2       899       901       900
 -1       396   12    0    1
 -2       901       903       902
 -1       397   12    0    1
 -2       903       905       904
 -1       398   12    0    1
 -2       905       907       906
 -1       399   12    0    1
 -2       907       909       908
 -1       400   12    0    1
 -2       909        30       910
 -1       401   12    0    1
 -2        30       912       911
 -1       402   12    0    1
 -2       912       914       913
 -1       403   12    0    1
 -2       914       916       915
 -1       404   12    0    1
 -2       916       918       917
 -1       405   12    0    1
 -2       918       920       919
 -1       406   12    0    1
 -2       920       922       921
 -1       407   12    0    1
 -2       922       924       923
 -1       408   12    0    1
 -2       924        31       925
 -1       409   12    0    1
 -2        31       927       926
 -1       410   12    0    1
 -2       927       929       928
 -1       411   12    0    1
 -2       929       931       930
 -1       412   12    0    1
 -2       931       933       932
 -1       413   12    0    1
 -2       933       935       934
 -1       414   12    0    1
 -2       935       937       936
 -1       415   12    0    1
 -2       937       939       938
 -1       416   12    0    1
 -2       939        32       940
 -1       417   12    0    1
 -2        32       942       941
 -1       418   12    0    1
 -2       942       944       943
 -1       419   12    0    1
 -2       944       946       945
 -1       420   12    0    1
 -2       946       948       947
 -1       421   12    0    1
 -2       948       950       949
 -1       422   12    0    1
 -2       950       952       951
 -1       423   12    0    1
 -2       952       954       953
 -1       424   12    0    1
 -2       954        33       955
 -1       425   12    0    1
 -2        33       957       956
 -1       426   12    0    1
 -2       957       959       958
 -1       427   12    0    1
 -2       959       961       960
 -1       428   12    0    1
 -2       961       963       962
 -1       429   12    0    1
 -2       963       965       964
 -1       430   12    0    1
 -2       965       967       966
 -1       431   12    0    1
 -2       967       969       968
 -1       432   12    0    1
 -2       969        34       970
 -1       433   12    0    1
 -2        34       972       971
 -1       434   12    0    1
 -2       972       974       973
 -1       435   12    0    1
 -2       974       976       975
 -1       436   12    0    1
 -2       976       978       977
 -1       437   12    0    1
 -2       978       980       979
 -1       438   12    0    1
 -2       980       982       981
 -1       439   12    0    1
 -2       982       984       983
 -1       440   12    0    1
 -2       984        35       985
 -3
    1PSTEP                         1           1           1          
  100CL  101 1.000000000         841                     0    1           1
 -4  DISP        4    1
 -5  D1          1    2    1    0
 -5  D2          1    2    2    0
 -5  D3          1    2    3    0
 -5  ALL         1    2    0    0    1ALL
 -1         1 6.52622E-05 0.00000E+00 0.00000E+00
 -1         2 5.22640E-05 0.00000E+00 0.00000E+00
 -1         3 4.76695E-05 0.00000E+00 0.00000E+00
 -1         4 4.67952E-05 0.00000E+00 0.00000E+00
 -1         5 4.68268E-05 0.00000E+00 0.00000E+00
 -1         8 4.10172E-05-1.32573E-06 0.00000E+00
 -1         9 4.29679E-05 1.19451E-06 0.00000E+00
 -1        10 4.28722E-05-7.85492E-07 0.00000E+00
 -1        11 4.36535E-05-1.95370E-07 0.00000E+00
 -1        12 4.47958E-05 3.17881E-06 0.00000E+00
 -1        15 1.98869E-05-1.73918E-06 0.00000E+00
 -1        16 2.56596E-05 1.41141E-06 0.00000E+00
 -1        17 2.82565E-05-1.62803E-06 0.00000E+00
 -1        18 3.31449E-05-4.40031E-07 0.00000E+00
 -1        19 3.76307E-05 6.27382E-06 0.00000E+00
 -1        20 3.89188E-05 5.82154E-05 0.00000E+00
 -1        21 3.88744E-05 1.16033E-04 0.00000E+00
 -1        22 8.74359E-06-1.10868E-06 0.00000E+00
 -1        23 1.13152E-05 1.77455E-06 0.00000E+00
 -1        24 1.34801E-05-1.99875E-06 0.00000E+00
 -1        25 2.02048E-05-2.41037E-07 0.00000E+00
 -1        26 2.49391E-05 8.22667E-06 0.00000E+00
 -1        27 2.17880E-05 5.73568E-05 0.00000E+00
 -1        28 1.99536E-05 1.15255E-04 0.00000E+00
 -1        29 0.00000E+00 0.00000E+00 0.00000E+00
 -1        30 4.26861E-06 2.17119E-06 0.00000E+00
 -1        31 5.27844E-06-1.18307E-06 0.00000E+00
 -1        32 0.00000E+00 0.00000E+00 0.00000E+00
 -1        33 8.49688E-06 1.04715E-05 0.00000E+00
 -1        34 6.17458E-06 5.72276E-05 0.00000E+00
 -1        35 3.18797E-06 1.14820E-04 0.00000E+00
 -1        36 6.44587E-05-4.67853E-21-2.64698E-23
 -1        37 6.36453E-05-7.12037E-21-1.32349E-23
 -1        38 6.28315E-05-4.67192E-21 2.64698E-23
 -1        39 6.20165E-05-3.44107E-22 0.00000E+00
 -1        40 6.12011E-05-1.18452E-21 0.00000E+00
 -1        41 6.03856E-05-4.89029E-21 1.32349E-23
 -1        42 5.95699E-05-3.81827E-21-2.64698E-23
 -1        43 5.87542E-05-3.02417E-21 1.32349E-23
 -1        44 5.79386E-05-3.56019E-21 2.64698E-23
 -1        45 5.71230E-05-2.44845E-21 1.32349E-23
 -1        46 5.63076E-05 1.42937E-21 0.00000E+00
 -1        47 5.54927E-05 6.43216E-21 0.00000E+00
 -1        48 5.46784E-05 8.08652E-21-2.64698E-23
 -1        49 5.38666E-05 3.07711E-21 0.00000E+00
 -1        50 5.30554E-05 7.27919E-22 0.00000E+00
 -1        51 6.36494E-05-2.33006E-07 6.61744E-24
 -1        52 6.05953E-05-4.50944E-07-3.30872E-24
 -1        53 5.64476E-05-6.68492E-07 0.00000E+00
 -1        54 5.15637E-05-8.86704E-07 0.00000E+00
 -1        55 4.63014E-05-1.10585E-06 6.61744E-24
 -1        56 6.41108E-05-4.93598E-07-2.64698E-23
 -1        57 6.29550E-05-1.05762E-06 1.32349E-23
 -1        58 6.18102E-05-1.65212E-06 0.00000E+00
 -1        59 6.06621E-05-2.24782E-06 1.32349E-23
 -1        60 5.95018E-05-2.81331E-06 0.00000E+00
 -1        61 5.83183E-05-3.31839E-06 0.00000E+00
 -1        62 5.71006E-05-3.73303E-06 2.64698E-23
 -1        63 5.58380E-05-4.02787E-06 0.00000E+00
 -1        64 5.45196E-05-4.17411E-06-2.64698E-23
 -1        65 5.31351E-05-4.14385E-06 0.00000E+00
 -1        66 5.16744E-05-3.91000E-06-2.64698E-23
 -1        67 5.01285E-05-3.44658E-06 1.32349E-23
 -1        68 4.84880E-05-2.72880E-06 0.00000E+00
 -1        69 4.67485E-05-1.73200E-06-1.32349E-23
 -1        70 4.48971E-05-4.35918E-07 2.64698E-23
 -1        71 5.19729E-05-1.79829E-21 0.00000E+00
 -1        72 5.16848E-05-4.03168E-21-3.30872E-24
 -1        73 5.13968E-05 2.47492E-21 0.00000E+00
 -1        74 5.11092E-05 9.54732E-21 0.00000E+00
 -1        75 5.08217E-05 7.45124E-21 0.00000E+00
 -1        76 5.05343E-05 7.99553E-21 0.00000E+00
 -1        77 5.02469E-05 8.32475E-21 0.00000E+00
 -1        78 4.99596E-05 6.76634E-21-3.30872E-24
 -1        79 4.96722E-05 7.94093E-22-6.61744E-24
 -1        80 4.93849E-05 2.75947E-21-3.30872E-24
 -1        81 4.90976E-05 2.37401E-21 0.00000E+00
 -1        82 4.88105E-05-9.49603E-22 0.00000E+00
 -1        83 4.85235E-05-5.02760E-21-6.61744E-24
 -1        84 4.82371E-05-6.64061E-21 0.00000E+00
 -1        85 4.79509E-05-2.64036E-21 0.00000E+00
 -1        86 5.18491E-05 1.82663E-07 0.00000E+00
 -1        87 5.08195E-05 3.89089E-07 3.30872E-24
 -1        88 4.92957E-05 5.95154E-07 3.30872E-24
 -1        89 4.73987E-05 8.01354E-07 1.65436E-24
 -1        90 4.52492E-05 1.00728E-06 2.06795E-25
 -1        91 5.17526E-05-2.29747E-07-1.32349E-23
 -1        92 5.12499E-05-5.05637E-07 6.61744E-24
 -1        93 5.07578E-05-8.10391E-07 0.00000E+00
 -1        94 5.02701E-05-1.12965E-06 0.00000E+00
 -1        95 4.97820E-05-1.44845E-06 0.00000E+00
 -1        96 4.92880E-05-1.75209E-06 0.00000E+00
 -1        97 4.87828E-05-2.02590E-06 0.00000E+00
 -1        98 4.82610E-05-2.25530E-06 0.00000E+00
 -1        99 4.77170E-05-2.42582E-06 0.00000E+00
 -1       100 4.71457E-05-2.52311E-06 0.00000E+00
 -1       101 4.65416E-05-2.53301E-06-1.32349E-23
 -1       102 4.58999E-05-2.44152E-06 6.61744E-24
 -1       103 4.52153E-05-2.23491E-06 0.00000E+00
 -1       104 4.44843E-05-1.89927E-06-6.61744E-24
 -1       105 4.37002E-05-1.42199E-06 1.32349E-23
 -1       106 4.76089E-05 1.73088E-22-3.30872E-24
 -1       107 4.75536E-05-4.05277E-21-1.65436E-24
 -1       108 4.74984E-05-6.34696E-21 1.65436E-24
 -1       109 4.74438E-05-1.14788E-20 8.27181E-25
 -1       110 4.73895E-05-1.19639E-20 0.00000E+00
 -1       111 4.73352E-05-1.23651E-20 0.00000E+00
 -1       112 4.72810E-05-1.42424E-20 0.00000E+00
 -1       113 4.72268E-05-1.26476E-20 0.00000E+00
 -1       114 4.71727E-05-1.51192E-20-1.65436E-24
 -1       115 4.71185E-05-1.04924E-20 0.00000E+00
 -1       116 4.70644E-05-1.08232E-20 1.65436E-24
 -1       117 4.70102E-05-1.30732E-20-8.27181E-25
 -1       118 4.69561E-05-9.43937E-21-1.65436E-24
 -1       119 4.69022E-05-4.64131E-21 8.27181E-25
 -1       120 4.68482E-05-3.11682E-21-1.65436E-24
 -1       121 4.74126E-05-1.31421E-07 0.00000E+00
 -1       122 4.68110E-05-2.61096E-07 1.65436E-24
 -1       123 4.59599E-05-3.90979E-07 3.30872E-24
 -1       124 4.49557E-05-5.21210E-07 0.00000E+00
 -1       125 4.38944E-05-6.51548E-07-6.61744E-24
 -1       126 4.74598E-05-1.17273E-07 0.00000E+00
 -1       127 4.72655E-05-2.82167E-07 0.00000E+00
 -1       128 4.70838E-05-4.80911E-07-6.61744E-24
 -1       129 4.69096E-05-7.00495E-07 0.00000E+00
 -1       130 4.67382E-05-9.27723E-07 0.00000E+00
 -1       131 4.65647E-05-1.14947E-06 3.30872E-24
 -1       132 4.63843E-05-1.35261E-06-6.61744E-24
 -1       133 4.61919E-05-1.52405E-06 0.00000E+00
 -1       134 4.59828E-05-1.65071E-06 6.61744E-24
 -1       135 4.57520E-05-1.71959E-06 0.00000E+00
 -1       136 4.54947E-05-1.71771E-06-6.61744E-24
 -1       137 4.52062E-05-1.63214E-06 0.00000E+00
 -1       138 4.48817E-05-1.45008E-06 0.00000E+00
 -1       139 4.45171E-05-1.15858E-06 0.00000E+00
 -1       140 4.41069E-05-7.45280E-07 0.00000E+00
 -1       141 4.67937E-05 1.33910E-21 0.00000E+00
 -1       142 4.67937E-05 1.89054E-21 0.00000E+00
 -1       143 4.67938E-05-1.81332E-21 0.00000E+00
 -1       144 4.67940E-05-8.11085E-21 2.58494E-26
 -1       145 4.67943E-05-1.54432E-20 0.00000E+00
 -1       146 4.67946E-05-1.77133E-20 0.00000E+00
 -1       147 4.67949E-05-1.38569E-20 2.58494E-26
 -1       148 4.67953E-05-1.41126E-20 2.58494E-26
 -1       149 4.67957E-05-1.86159E-20 0.00000E+00
 -1       150 4.67962E-05-2.08933E-20 0.00000E+00
 -1       151 4.67969E-05-2.02078E-20-4.13590E-25
 -1       152 4.67979E-05-1.50533E-20 4.13590E-25
 -1       153 4.67994E-05-1.24201E-20 1.65436E-24
 -1       154 4.68029E-05-5.59298E-21 1.65436E-24
 -1       155 4.68069E-05-5.72616E-22 6.61744E-24
 -1       156 4.66464E-05-3.21012E-08-4.13590E-25
 -1       157 4.62842E-05-6.42328E-08-2.06795E-25
 -1       158 4.57559E-05-9.64696E-08-8.27181E-25
 -1       159 4.51096E-05-1.28933E-07 0.00000E+00
 -1       160 4.43928E-05-1.61481E-07 0.00000E+00
 -1       161 4.67510E-05-2.05985E-08 0.00000E+00
 -1       162 4.67054E-05-3.91235E-08 8.27181E-25
 -1       163 4.66568E-05-4.95950E-08 0.00000E+00
 -1       164 4.66029E-05-4.62592E-08 0.00000E+00
 -1       165 4.65417E-05-2.33209E-08 0.00000E+00
 -1       166 4.64709E-05 2.49908E-08 8.27181E-25
 -1       167 4.63885E-05 1.04444E-07 0.00000E+00
 -1       168 4.62922E-05 2.20796E-07 0.00000E+00
 -1       169 4.61800E-05 3.79806E-07 1.65436E-24
 -1       170 4.60497E-05 5.87229E-07 4.13590E-25
 -1       171 4.58992E-05 8.48811E-07 0.00000E+00
 -1       172 4.57266E-05 1.17037E-06 0.00000E+00
 -1       173 4.55298E-05 1.55763E-06-1.03398E-25
 -1       174 4.53086E-05 2.01695E-06 8.27181E-25
 -1       175 4.50587E-05 2.55330E-06 3.30872E-24
 -1       191 4.67714E-05 5.24791E-07 0.00000E+00
 -1       192 4.66036E-05 1.05672E-06 0.00000E+00
 -1       193 4.63225E-05 1.58964E-06-1.32349E-23
 -1       194 4.59276E-05 2.12251E-06 6.61744E-24
 -1       195 4.54187E-05 2.65430E-06-1.32349E-23
 -1       251 4.11177E-05 2.36945E-06 0.00000E+00
 -1       252 4.12372E-05 4.91803E-06 0.00000E+00
 -1       253 4.13593E-05 6.46405E-06 2.89513E-24
 -1       254 4.14844E-05 7.15319E-06 0.00000E+00
 -1       255 4.16103E-05 7.13051E-06 0.00000E+00
 -1       256 4.17364E-05 6.54077E-06 0.00000E+00
 -1       257 4.18624E-05 5.52847E-06-3.30872E-24
 -1       258 4.19882E-05 4.23789E-06 1.65436E-24
 -1       259 4.21139E-05 2.81316E-06 0.00000E+00
 -1       260 4.22394E-05 1.39837E-06 1.65436E-24
 -1       261 4.23651E-05 1.37598E-07 0.00000E+00
 -1       262 4.24906E-05-8.25010E-07 1.65436E-24
 -1       263 4.26160E-05-1.34515E-06 0.00000E+00
 -1       264 4.27394E-05-1.27834E-06 0.00000E+00
 -1       265 4.28619E-05-4.79642E-07 1.65436E-24
 -1       266 3.66059E-05-1.40520E-06 0.00000E+00
 -1       267 3.23853E-05-1.47658E-06 1.65436E-24
 -1       268 2.84795E-05-1.54644E-06 0.00000E+00
 -1       269 2.50122E-05-1.61351E-06 0.00000E+00
 -1       270 2.21072E-05-1.67860E-06 0.00000E+00
 -1       271 3.88323E-05 2.16496E-06 0.00000E+00
 -1       272 3.70171E-05 4.60612E-06 0.00000E+00
 -1       273 3.55492E-05 6.12598E-06 0.00000E+00
 -1       274 3.43782E-05 6.84884E-06 0.00000E+00
 -1       275 3.34577E-05 6.90301E-06 0.00000E+00
 -1       276 3.27387E-05 6.41887E-06 0.00000E+00
 -1       277 3.21717E-05 5.52855E-06 0.00000E+00
 -1       278 3.17066E-05 4.36583E-06-1.32349E-23
 -1       279 3.12930E-05 3.06529E-06 2.64698E-23
 -1       280 3.08806E-05 1.76217E-06 0.00000E+00
 -1       281 3.04187E-05 5.91665E-07 0.00000E+00
 -1       282 2.98575E-05-3.11501E-07 1.32349E-23
 -1       283 2.91467E-05-8.13482E-07 0.00000E+00
 -1       284 2.82397E-05-7.81188E-07 0.00000E+00
 -1       285 2.70837E-05-8.51700E-08 0.00000E+00
 -1       286 4.29506E-05 3.05267E-06-6.61744E-24
 -1       287 4.29440E-05 4.28419E-06 0.00000E+00
 -1       288 4.29383E-05 4.96572E-06 0.00000E+00
 -1       289 4.29340E-05 5.17526E-06 0.00000E+00
 -1       290 4.29301E-05 4.99061E-06 0.00000E+00
 -1       291 4.29263E-05 4.48963E-06 0.00000E+00
 -1       292 4.29224E-05 3.75022E-06 0.00000E+00
 -1       293 4.29185E-05 2.85024E-06 0.00000E+00
 -1       294 4.29146E-05 1.86756E-06 0.00000E+00
 -1       295 4.29106E-05 8.80086E-07 5.16988E-26
 -1       296 4.29065E-05-3.43272E-08-4.13590E-25
 -1       297 4.29024E-05-7.97792E-07 1.03398E-25
 -1       298 4.28981E-05-1.33242E-06 4.13590E-25
 -1       299 4.28928E-05-1.56039E-06-4.13590E-25
 -1       300 4.28871E-05-1.40374E-06 3.30872E-24
 -1       301 4.02999E-05 1.22109E-06-3.10193E-25
 -1       302 3.73847E-05 1.25908E-06 0.00000E+00
 -1       303 3.43419E-05 1.29861E-06 2.58494E-26
 -1       304 3.12928E-05 1.33868E-06 0.00000E+00
 -1       305 2.83589E-05 1.37823E-06 3.30872E-24
 -1       306 4.14241E-05 2.76135E-06 0.00000E+00
 -1       307 4.00779E-05 3.71977E-06-1.32349E-23
 -1       308 3.89285E-05 4.15322E-06 0.00000E+00
 -1       309 3.79440E-05 4.13750E-06 0.00000E+00
 -1       310 3.70975E-05 3.75182E-06 0.00000E+00
 -1       311 3.63590E-05 3.07620E-06-1.32349E-23
 -1       312 3.56986E-05 2.19170E-06 0.00000E+00
 -1       313 3.50856E-05 1.18024E-06 0.00000E+00
 -1       314 3.44893E-05 1.24180E-07 2.64698E-23
 -1       315 3.38789E-05-8.93906E-07 1.32349E-23
 -1       316 3.32236E-05-1.79162E-06 2.64698E-23
 -1       317 3.24933E-05-2.48698E-06 0.00000E+00
 -1       318 3.16575E-05-2.89877E-06 2.64698E-23
 -1       319 3.06891E-05-2.94608E-06 0.00000E+00
 -1       320 2.95553E-05-2.55135E-06-1.32349E-23
 -1       321 4.29085E-05-2.98071E-08 0.00000E+00
 -1       322 4.29565E-05 4.64670E-07 0.00000E+00
 -1       323 4.30049E-05 7.33066E-07 3.61892E-25
 -1       324 4.30548E-05 8.11001E-07 2.06795E-25
 -1       325 4.31050E-05 7.33984E-07 0.00000E+00
 -1       326 4.31556E-05 5.37516E-07 4.13590E-25
 -1       327 4.32062E-05 2.57071E-07 0.00000E+00
 -1       328 4.32568E-05-7.18908E-08-8.27181E-25
 -1       329 4.33075E-05-4.13916E-07 1.65436E-24
 -1       330 4.33581E-05-7.33563E-07 8.27181E-25
 -1       331 4.34087E-05-9.95378E-07 0.00000E+00
 -1       332 4.34593E-05-1.16390E-06-8.27181E-25
 -1       333 4.35097E-05-1.20364E-06 0.00000E+00
 -1       334 4.35594E-05-1.07911E-06 0.00000E+00
 -1       335 4.36090E-05-7.54734E-07 0.00000E+00
 -1       336 4.12655E-05-9.26977E-07-3.30872E-24
 -1       337 3.88774E-05-1.06641E-06-3.30872E-24
 -1       338 3.60441E-05-1.20677E-06 0.00000E+00
 -1       339 3.31041E-05-1.34725E-06-3.30872E-24
 -1       340 3.03960E-05-1.48714E-06 0.00000E+00
 -1       341 4.20712E-05-2.11619E-07-1.32349E-23
 -1       342 4.13486E-05 1.12400E-07 0.00000E+00
 -1       343 4.07043E-05 2.27051E-07 0.00000E+00
 -1       344 4.01231E-05 1.68315E-07-6.61744E-24
 -1       345 3.95925E-05-2.64901E-08 0.00000E+00
 -1       346 3.90987E-05-3.20130E-07-6.61744E-24
 -1       347 3.86278E-05-6.75135E-07-1.32349E-23
 -1       348 3.81658E-05-1.05391E-06 6.61744E-24
 -1       349 3.76986E-05-1.41879E-06 0.00000E+00
 -1       350 3.72122E-05-1.73217E-06 0.00000E+00
 -1       351 3.66925E-05-1.95654E-06-1.32349E-23
 -1       352 3.61261E-05-2.05457E-06 6.61744E-24
 -1       353 3.54989E-05-1.98923E-06-1.32349E-23
 -1       354 3.47995E-05-1.72320E-06-6.61744E-24
 -1       355 3.40120E-05-1.22119E-06 6.61744E-24
 -1       356 4.37169E-05 4.15120E-07 0.00000E+00
 -1       357 4.37860E-05 8.69279E-07 4.13590E-25
 -1       358 4.38555E-05 1.18903E-06 1.65436E-24
 -1       359 4.39257E-05 1.39657E-06 8.27181E-25
 -1       360 4.39961E-05 1.51402E-06-1.65436E-24
 -1       361 4.40666E-05 1.56349E-06-8.27181E-25
 -1       362 4.41372E-05 1.56709E-06-1.65436E-24
 -1       363 4.42078E-05 1.54689E-06 0.00000E+00
 -1       364 4.42785E-05 1.52497E-06 0.00000E+00
 -1       365 4.43493E-05 1.52340E-06 0.00000E+00
 -1       366 4.44202E-05 1.56426E-06 3.30872E-24
 -1       367 4.44914E-05 1.66965E-06 0.00000E+00
 -1       368 4.45629E-05 1.86168E-06 0.00000E+00
 -1       369 4.46361E-05 2.16247E-06 0.00000E+00
 -1       370 4.47096E-05 2.59421E-06 0.00000E+00
 -1       371 4.24692E-05-2.36639E-07 1.39587E-24
 -1       372 4.07467E-05-2.77513E-07 2.06795E-25
 -1       373 3.87187E-05-3.18801E-07 0.00000E+00
 -1       374 3.66198E-05-3.59963E-07-8.27181E-25
 -1       375 3.46841E-05-4.00782E-07 1.65436E-24
 -1       376 4.32420E-05 3.16213E-07 3.30872E-24
 -1       377 4.28954E-05 6.36842E-07-3.30872E-24
 -1       378 4.26058E-05 8.05637E-07 0.00000E+00
 -1       379 4.23582E-05 8.59856E-07 0.00000E+00
 -1       380 4.21394E-05 8.37248E-07-6.61744E-24
 -1       381 4.19351E-05 7.75450E-07 0.00000E+00
 -1       382 4.17313E-05 7.12152E-07 0.00000E+00
 -1       383 4.15139E-05 6.85023E-07 0.00000E+00
 -1       384 4.12689E-05 7.31707E-07-6.61744E-24
 -1       385 4.09821E-05 8.89778E-07 3.30872E-24
 -1       386 4.06397E-05 1.19671E-06 6.61744E-24
 -1       387 4.02277E-05 1.68992E-06 3.30872E-24
 -1       388 3.97323E-05 2.40658E-06 3.30872E-24
 -1       389 3.91415E-05 3.38430E-06 0.00000E+00
 -1       390 3.84392E-05 4.65909E-06 0.00000E+00
 -1       406 4.40732E-05 3.69217E-06 1.32349E-23
 -1       407 4.31844E-05 4.21197E-06 6.61744E-24
 -1       408 4.21121E-05 4.73233E-06-1.32349E-23
 -1       409 4.08398E-05 5.25184E-06 0.00000E+00
 -1       410 3.93512E-05 5.76912E-06 0.00000E+00
 -1       466 2.02317E-05-3.21151E-07 3.30872E-24
 -1       467 2.05929E-05 5.44191E-07 0.00000E+00
 -1       468 2.09550E-05 9.40862E-07-1.32349E-23
 -1       469 2.13191E-05 9.53190E-07 0.00000E+00
 -1       470 2.16837E-05 6.64928E-07-1.32349E-23
 -1       471 2.20486E-05 1.59354E-07-6.61744E-24
 -1       472 2.24136E-05-4.80499E-07 1.32349E-23
 -1       473 2.27786E-05-1.17182E-06-6.61744E-24
 -1       474 2.31436E-05-1.83189E-06 0.00000E+00
 -1       475 2.35086E-05-2.37791E-06 0.00000E+00
 -1       476 2.38734E-05-2.72693E-06-1.32349E-23
 -1       477 2.42378E-05-2.79572E-06 0.00000E+00
 -1       478 2.46015E-05-2.50067E-06-1.32349E-23
 -1       479 2.49623E-05-1.75763E-06 0.00000E+00
 -1       480 2.53219E-05-4.81765E-07 0.00000E+00
 -1       481 1.79775E-05-1.63801E-06 0.00000E+00
 -1       482 1.59601E-05-1.53245E-06 0.00000E+00
 -1       483 1.39311E-05-1.42681E-06 0.00000E+00
 -1       484 1.19876E-05-1.32064E-06-1.65436E-24
 -1       485 1.02263E-05-1.21407E-06 0.00000E+00
 -1       486 1.89222E-05-3.25430E-07 0.00000E+00
 -1       487 1.80750E-05 7.23400E-07-1.32349E-23
 -1       488 1.73468E-05 1.45478E-06 0.00000E+00
 -1       489 1.67198E-05 1.91039E-06 0.00000E+00
 -1       490 1.61797E-05 2.13362E-06 0.00000E+00
 -1       491 1.57101E-05 2.16773E-06-6.61744E-24
 -1       492 1.52949E-05 2.05637E-06 1.32349E-23
 -1       493 1.49178E-05 1.84339E-06 0.00000E+00
 -1       494 1.45622E-05 1.57282E-06-1.32349E-23
 -1       495 1.42118E-05 1.28881E-06 0.00000E+00
 -1       496 1.38499E-05 1.03553E-06 1.32349E-23
 -1       497 1.34603E-05 8.57130E-07 0.00000E+00
 -1       498 1.30266E-05 7.97608E-07 1.32349E-23
 -1       499 1.25337E-05 9.01208E-07 3.30872E-24
 -1       500 1.19637E-05 1.21086E-06-6.61744E-24
 -1       501 2.58086E-05 3.24311E-06 0.00000E+00
 -1       502 2.59709E-05 4.35543E-06 8.27181E-25
 -1       503 2.61341E-05 4.84452E-06-3.30872E-24
 -1       504 2.62991E-05 4.80751E-06 0.00000E+00
 -1       505 2.64644E-05 4.34109E-06 6.61744E-24
 -1       506 2.66297E-05 3.54167E-06 0.00000E+00
 -1       507 2.67950E-05 2.50549E-06 0.00000E+00
 -1       508 2.69602E-05 1.32858E-06-3.30872E-24
 -1       509 2.71254E-05 1.06910E-07 0.00000E+00
 -1       510 2.72905E-05-1.06356E-06 3.30872E-24
 -1       511 2.74556E-05-2.08688E-06 0.00000E+00
 -1       512 2.76206E-05-2.86697E-06 3.30872E-24
 -1       513 2.77853E-05-3.30762E-06 0.00000E+00
 -1       514 2.79481E-05-3.31241E-06 0.00000E+00
 -1       515 2.81102E-05-2.78452E-06 0.00000E+00
 -1       516 2.30649E-05 1.46573E-06 0.00000E+00
 -1       517 2.02446E-05 1.52734E-06 2.06795E-25
 -1       518 1.74286E-05 1.58904E-06 6.20385E-25
 -1       519 1.48480E-05 1.65162E-06 4.13590E-25
 -1       520 1.27337E-05 1.71522E-06 0.00000E+00
 -1       521 2.42372E-05 3.03963E-06 1.32349E-23
 -1       522 2.30272E-05 4.02193E-06 1.32349E-23
 -1       523 2.20262E-05 4.44717E-06-2.64698E-23
 -1       524 2.12000E-05 4.39666E-06 1.32349E-23
 -1       525 2.05199E-05 3.95496E-06-2.64698E-23
 -1       526 1.99537E-05 3.20727E-06 0.00000E+00
 -1       527 1.94697E-05 2.23978E-06 2.64698E-23
 -1       528 1.90352E-05 1.13939E-06 0.00000E+00
 -1       529 1.86179E-05-6.56323E-09 0.00000E+00
 -1       530 1.81849E-05-1.11058E-06 1.32349E-23
 -1       531 1.77037E-05-2.08530E-06 2.64698E-23
 -1       532 1.71420E-05-2.84378E-06 1.32349E-23
 -1       533 1.64677E-05-3.29974E-06 2.64698E-23
 -1       534 1.56510E-05-3.36738E-06 6.61744E-24
 -1       535 1.46577E-05-2.96358E-06 0.00000E+00
 -1       536 2.85388E-05-3.40775E-07-8.27181E-25
 -1       537 2.88432E-05 5.12738E-07 0.00000E+00
 -1       538 2.91485E-05 9.91103E-07 6.61744E-24
 -1       539 2.94566E-05 1.15326E-06 3.30872E-24
 -1       540 2.97654E-05 1.05772E-06 0.00000E+00
 -1       541 3.00747E-05 7.62666E-07 0.00000E+00
 -1       542 3.03841E-05 3.26064E-07 6.61744E-24
 -1       543 3.06936E-05-1.94305E-07 0.00000E+00
 -1       544 3.10031E-05-7.40744E-07-6.61744E-24
 -1       545 3.13126E-05-1.25561E-06 6.61744E-24
 -1       546 3.16220E-05-1.68121E-06 0.00000E+00
 -1       547 3.19311E-05-1.95972E-06 0.00000E+00
 -1       548 3.22398E-05-2.03320E-06-6.61744E-24
 -1       549 3.25466E-05-1.84341E-06 0.00000E+00
 -1       550 3.28529E-05-1.33178E-06 0.00000E+00
 -1       551 2.60896E-05-1.69313E-06-1.44757E-24
 -1       552 2.35744E-05-1.75312E-06 1.03398E-24
 -1       553 2.08820E-05-1.81267E-06 3.30872E-24
 -1       554 1.81867E-05-1.87232E-06 0.00000E+00
 -1       555 1.56622E-05-1.93258E-06 0.00000E+00
 -1       556 2.73845E-05-5.28687E-07 1.32349E-23
 -1       557 2.66451E-05 1.88016E-07 6.61744E-24
 -1       558 2.60277E-05 5.75276E-07-1.32349E-23
 -1       559 2.55131E-05 6.85860E-07 0.00000E+00
 -1       560 2.50821E-05 5.72704E-07 0.00000E+00
 -1       561 2.47150E-05 2.88861E-07 0.00000E+00
 -1       562 2.43918E-05-1.12565E-07 1.32349E-23
 -1       563 2.40928E-05-5.78395E-07 0.00000E+00
 -1       564 2.37980E-05-1.05543E-06-1.32349E-23
 -1       565 2.34875E-05-1.49046E-06 0.00000E+00
 -1       566 2.31414E-05-1.83028E-06 1.32349E-23
 -1       567 2.27399E-05-2.02175E-06-6.61744E-24
 -1       568 2.22633E-05-2.01175E-06 1.32349E-23
 -1       569 2.16928E-05-1.74718E-06 0.00000E+00
 -1       570 2.10090E-05-1.17513E-06 0.00000E+00
 -1       571 3.34090E-05 4.40031E-07-2.48154E-24
 -1       572 3.36865E-05 1.04417E-06 1.65436E-24
 -1       573 3.39665E-05 1.41701E-06-3.30872E-24
 -1       574 3.42480E-05 1.60480E-06 0.00000E+00
 -1       575 3.45300E-05 1.65377E-06 0.00000E+00
 -1       576 3.48123E-05 1.61023E-06 0.00000E+00
 -1       577 3.50948E-05 1.52049E-06 0.00000E+00
 -1       578 3.53773E-05 1.43084E-06 0.00000E+00
 -1       579 3.56598E-05 1.38757E-06-1.32349E-23
 -1       580 3.59423E-05 1.43700E-06-6.61744E-24
 -1       581 3.62248E-05 1.62545E-06 0.00000E+00
 -1       582 3.65072E-05 1.99930E-06 0.00000E+00
 -1       583 3.67893E-05 2.60494E-06-1.32349E-23
 -1       584 3.70710E-05 3.48869E-06 0.00000E+00
 -1       585 3.73521E-05 4.69691E-06 0.00000E+00
 -1       586 3.13794E-05-4.06738E-07 0.00000E+00
 -1       587 2.92268E-05-3.71680E-07 0.00000E+00
 -1       588 2.68588E-05-3.36784E-07 0.00000E+00
 -1       589 2.44498E-05-3.02396E-07 0.00000E+00
 -1       590 2.21744E-05-2.68806E-07 0.00000E+00
 -1       591 3.25282E-05 4.13908E-07-6.61744E-24
 -1       592 3.19777E-05 1.05711E-06-3.30872E-24
 -1       593 3.14902E-05 1.52745E-06 0.00000E+00
 -1       594 3.10529E-05 1.86075E-06 0.00000E+00
 -1       595 3.06531E-05 2.09296E-06 0.00000E+00
 -1       596 3.02776E-05 2.25994E-06 3.30872E-24
 -1       597 2.99131E-05 2.39752E-06 0.00000E+00
 -1       598 2.95461E-05 2.54157E-06 0.00000E+00
 -1       599 2.91632E-05 2.72791E-06 0.00000E+00
 -1       600 2.87510E-05 2.99237E-06 3.30872E-24
 -1       601 2.82962E-05 3.37075E-06 0.00000E+00
 -1       602 2.77854E-05 3.89885E-06-1.65436E-24
 -1       603 2.72055E-05 4.61241E-06 3.30872E-24
 -1       604 2.65441E-05 5.54731E-06-8.27181E-25
 -1       605 2.57885E-05 6.73927E-06 2.06795E-25
 -1       606 3.77230E-05 8.33152E-06 0.00000E+00
 -1       607 3.78080E-05 1.06448E-05 0.00000E+00
 -1       608 3.78912E-05 1.31941E-05-6.61744E-24
 -1       609 3.79731E-05 1.59583E-05 0.00000E+00
 -1       610 3.80542E-05 1.89164E-05 0.00000E+00
 -1       611 3.81347E-05 2.20474E-05-6.61744E-24
 -1       612 3.82147E-05 2.53299E-05 0.00000E+00
 -1       613 3.82943E-05 2.87430E-05 0.00000E+00
 -1       614 3.83734E-05 3.22656E-05-3.30872E-24
 -1       615 3.84523E-05 3.58764E-05 0.00000E+00
 -1       616 3.85309E-05 3.95544E-05 0.00000E+00
 -1       617 3.86093E-05 4.32786E-05-1.65436E-24
 -1       618 3.86875E-05 4.70278E-05 3.30872E-24
 -1       619 3.87655E-05 5.07810E-05-8.27181E-25
 -1       620 3.88431E-05 5.45171E-05 0.00000E+00
 -1       621 3.55736E-05 6.59907E-06 0.00000E+00
 -1       622 3.34233E-05 6.92789E-06 0.00000E+00
 -1       623 3.12320E-05 7.25689E-06 0.00000E+00
 -1       624 2.90525E-05 7.58508E-06-3.30872E-24
 -1       625 2.69376E-05 7.91150E-06 0.00000E+00
 -1       626 3.70370E-05 8.42858E-06 0.00000E+00
 -1       627 3.63360E-05 1.08607E-05 0.00000E+00
 -1       628 3.55403E-05 1.35423E-05 0.00000E+00
 -1       629 3.46616E-05 1.64430E-05 9.92617E-24
 -1       630 3.37112E-05 1.95329E-05 0.00000E+00
 -1       631 3.27007E-05 2.27816E-05 0.00000E+00
 -1       632 3.16416E-05 2.61588E-05 0.00000E+00
 -1       633 3.05451E-05 2.96345E-05 3.30872E-24
 -1       634 2.94229E-05 3.31783E-05 0.00000E+00
 -1       635 2.82862E-05 3.67601E-05 3.30872E-24
 -1       636 2.71464E-05 4.03498E-05 0.00000E+00
 -1       637 2.60150E-05 4.39172E-05-1.65436E-24
 -1       638 2.49032E-05 4.74319E-05-3.30872E-24
 -1       639 2.38218E-05 5.08639E-05 0.00000E+00
 -1       640 2.27819E-05 5.41828E-05-3.30872E-24
 -1       641 3.89179E-05 6.18614E-05 0.00000E+00
 -1       642 3.89154E-05 6.55347E-05 0.00000E+00
 -1       643 3.89128E-05 6.92284E-05-2.06795E-25
 -1       644 3.89099E-05 7.29360E-05 0.00000E+00
 -1       645 3.89070E-05 7.66505E-05 0.00000E+00
 -1       646 3.89041E-05 8.03652E-05 0.00000E+00
 -1       647 3.89011E-05 8.40734E-05-5.16988E-26
 -1       648 3.88982E-05 8.77682E-05 0.00000E+00
 -1       649 3.88954E-05 9.14429E-05 0.00000E+00
 -1       650 3.88926E-05 9.50907E-05-2.58494E-26
 -1       651 3.88899E-05 9.87048E-05 0.00000E+00
 -1       652 3.88873E-05 1.02278E-04 0.00000E+00
 -1       653 3.88848E-05 1.05805E-04 0.00000E+00
 -1       654 3.88821E-05 1.09277E-04 0.00000E+00
 -1       655 3.88795E-05 1.12689E-04 0.00000E+00
 -1       656 3.55823E-05 5.80762E-05 0.00000E+00
 -1       657 3.26044E-05 5.79305E-05-1.65436E-24
 -1       658 2.98609E-05 5.77855E-05 3.30872E-24
 -1       659 2.72270E-05 5.76406E-05 1.65436E-24
 -1       660 2.45776E-05 5.74956E-05-1.65436E-24
 -1       661 3.76821E-05 6.19039E-05 3.30872E-24
 -1       662 3.64439E-05 6.56098E-05 0.00000E+00
 -1       663 3.52024E-05 6.93244E-05 3.30872E-24
 -1       664 3.39607E-05 7.30413E-05 1.65436E-24
 -1       665 3.27211E-05 7.67531E-05 3.30872E-24
 -1       666 3.14861E-05 8.04530E-05-1.65436E-24
 -1       667 3.02583E-05 8.41340E-05-3.30872E-24
 -1       668 2.90403E-05 8.77892E-05 0.00000E+00
 -1       669 2.78346E-05 9.14116E-05 0.00000E+00
 -1       670 2.66441E-05 9.49942E-05 1.65436E-24
 -1       671 2.54712E-05 9.85300E-05 0.00000E+00
 -1       672 2.43185E-05 1.02012E-04 0.00000E+00
 -1       673 2.31887E-05 1.05433E-04 0.00000E+00
 -1       674 2.20837E-05 1.08785E-04-1.65436E-24
 -1       675 2.10070E-05 1.12063E-04 1.65436E-24
 -1       676 3.56125E-05 1.15905E-04 0.00000E+00
 -1       677 3.24116E-05 1.15774E-04-1.65436E-24
 -1       678 2.92586E-05 1.15643E-04-3.30872E-24
 -1       679 2.61402E-05 1.15512E-04-1.65436E-24
 -1       680 2.30430E-05 1.15382E-04 0.00000E+00
 -1       681 8.90039E-06-4.04907E-08 3.30872E-24
 -1       682 9.06152E-06 7.21008E-07 0.00000E+00
 -1       683 9.22296E-06 1.21607E-06 3.30872E-24
 -1       684 9.38499E-06 1.48537E-06-3.30872E-24
 -1       685 9.54719E-06 1.56936E-06 0.00000E+00
 -1       686 9.70949E-06 1.50842E-06-1.65436E-24
 -1       687 9.87182E-06 1.34281E-06-6.61744E-24
 -1       688 1.00341E-05 1.11275E-06-3.30872E-24
 -1       689 1.01964E-05 8.58401E-07 0.00000E+00
 -1       690 1.03587E-05 6.19912E-07 3.30872E-24
 -1       691 1.05209E-05 4.37445E-07-6.61744E-24
 -1       692 1.06829E-05 3.51199E-07 0.00000E+00
 -1       693 1.08445E-05 4.01426E-07 0.00000E+00
 -1       694 1.10049E-05 6.28458E-07 0.00000E+00
 -1       695 1.11649E-05 1.07279E-06 0.00000E+00
 -1       696 7.34938E-06-9.29072E-07-3.30872E-24
 -1       697 5.82370E-06-7.44493E-07 0.00000E+00
 -1       698 4.24607E-06-5.59761E-07 0.00000E+00
 -1       699 2.69637E-06-3.74112E-07 0.00000E+00
 -1       700 1.25452E-06-1.88096E-07 0.00000E+00
 -1       701 8.15531E-06-4.97629E-08-3.30872E-24
 -1       702 7.64320E-06 7.73922E-07 0.00000E+00
 -1       703 7.20858E-06 1.39088E-06 0.00000E+00
 -1       704 6.84080E-06 1.82584E-06-3.30872E-24
 -1       705 6.53143E-06 2.10443E-06-6.61744E-24
 -1       706 6.27096E-06 2.25207E-06 0.00000E+00
 -1       707 6.04996E-06 2.29429E-06 0.00000E+00
 -1       708 5.85886E-06 2.25670E-06 0.00000E+00
 -1       709 5.68806E-06 2.16495E-06 0.00000E+00
 -1       710 5.52797E-06 2.04476E-06 0.00000E+00
 -1       711 5.36898E-06 1.92186E-06 0.00000E+00
 -1       712 5.20158E-06 1.82201E-06 3.30872E-24
 -1       713 5.01617E-06 1.77093E-06 0.00000E+00
 -1       714 4.80415E-06 1.79466E-06-1.65436E-24
 -1       715 4.55479E-06 1.91840E-06 0.00000E+00
 -1       716 1.14425E-05 2.37106E-06 1.34417E-24
 -1       717 1.15787E-05 2.54631E-06 0.00000E+00
 -1       718 1.17152E-05 2.36649E-06-3.30872E-24
 -1       719 1.18527E-05 1.89844E-06 0.00000E+00
 -1       720 1.19903E-05 1.20877E-06-3.30872E-24
 -1       721 1.21280E-05 3.63966E-07 0.00000E+00
 -1       722 1.22658E-05-5.69519E-07 0.00000E+00
 -1       723 1.24035E-05-1.52534E-06 0.00000E+00
 -1       724 1.25413E-05-2.43711E-06 0.00000E+00
 -1       725 1.26790E-05-3.23845E-06 0.00000E+00
 -1       726 1.28168E-05-3.86293E-06 3.30872E-24
 -1       727 1.29543E-05-4.24399E-06 0.00000E+00
 -1       728 1.30914E-05-4.31496E-06 3.30872E-24
 -1       729 1.32266E-05-4.00903E-06 3.30872E-24
 -1       730 1.33610E-05-3.25908E-06 4.13590E-25
 -1       731 1.02001E-05 1.83567E-06 0.00000E+00
 -1       732 8.85806E-06 1.90215E-06 0.00000E+00
 -1       733 7.44118E-06 1.96870E-06 1.65436E-24
 -1       734 6.10224E-06 2.03599E-06 0.00000E+00
 -1       735 4.99407E-06 2.10368E-06 0.00000E+00
 -1       736 1.06661E-05 2.35823E-06 6.61744E-24
 -1       737 1.00916E-05 2.69947E-06 0.00000E+00
 -1       738 9.59538E-06 2.83139E-06 0.00000E+00
 -1       739 9.16512E-06 2.78212E-06 0.00000E+00
 -1       740 8.79137E-06 2.58112E-06 1.32349E-23
 -1       741 8.46319E-06 2.25764E-06 6.61744E-24
 -1       742 8.16975E-06 1.84120E-06 0.00000E+00
 -1       743 7.89997E-06 1.36142E-06 0.00000E+00
 -1       744 7.64277E-06 8.48050E-07 0.00000E+00
 -1       745 7.38704E-06 3.30897E-07-6.61744E-24
 -1       746 7.12164E-06-1.60244E-07 1.32349E-23
 -1       747 6.83559E-06-5.95567E-07 0.00000E+00
 -1       748 6.51783E-06-9.45396E-07 0.00000E+00
 -1       749 6.15843E-06-1.17985E-06 6.61744E-24
 -1       750 5.74515E-06-1.27003E-06 6.61744E-24
 -1       751 1.38718E-05-7.05824E-07-1.65436E-24
 -1       752 1.42912E-05 1.36649E-07 3.30872E-24
 -1       753 1.47118E-05 5.92044E-07 0.00000E+00
 -1       754 1.51360E-05 7.23892E-07-6.61744E-24
 -1       755 1.55610E-05 5.95164E-07-1.32349E-23
 -1       756 1.59866E-05 2.68356E-07 0.00000E+00
 -1       757 1.64124E-05-1.94314E-07-1.32349E-23
 -1       758 1.68383E-05-7.30889E-07-6.61744E-24
 -1       759 1.72642E-05-1.27951E-06 0.00000E+00
 -1       760 1.76901E-05-1.77835E-06 0.00000E+00
 -1       761 1.81158E-05-2.16552E-06 0.00000E+00
 -1       762 1.85410E-05-2.37889E-06 6.61744E-24
 -1       763 1.89655E-05-2.35610E-06 0.00000E+00
 -1       764 1.93870E-05-2.03438E-06 0.00000E+00
 -1       765 1.98076E-05-1.35041E-06 0.00000E+00
 -1       766 1.17905E-05-1.87390E-06 0.00000E+00
 -1       767 1.00763E-05-1.73429E-06 4.13590E-25
 -1       768 8.45253E-06-1.59444E-06-1.65436E-24
 -1       769 7.03470E-06-1.45390E-06 8.27181E-25
 -1       770 5.93839E-06-1.31290E-06 0.00000E+00
 -1       771 1.22985E-05-8.99204E-07-1.32349E-23
 -1       772 1.12043E-05-9.87155E-08-1.32349E-23
 -1       773 1.02039E-05 4.42431E-07 0.00000E+00
 -1       774 9.28518E-06 7.59405E-07-1.32349E-23
 -1       775 8.43654E-06 8.87682E-07 0.00000E+00
 -1       776 7.64504E-06 8.62609E-07 0.00000E+00
 -1       777 6.89762E-06 7.19602E-07 2.64698E-23
 -1       778 6.18107E-06 4.94163E-07-1.32349E-23
 -1       779 5.48210E-06 2.21841E-07 2.64698E-23
 -1       780 4.78742E-06-6.17726E-08-1.32349E-23
 -1       781 4.08377E-06-3.21061E-07 2.64698E-23
 -1       782 3.35804E-06-5.20393E-07 1.32349E-23
 -1       783 2.59714E-06-6.24156E-07-1.32349E-23
 -1       784 1.78927E-06-5.96502E-07 6.61744E-24
 -1       785 9.22106E-07-4.01833E-07-1.32349E-23
 -1       786 2.04818E-05 9.37406E-07 3.30872E-24
 -1       787 2.07766E-05 1.80249E-06 0.00000E+00
 -1       788 2.10722E-05 2.40292E-06-6.61744E-24
 -1       789 2.13701E-05 2.78769E-06-3.30872E-24
 -1       790 2.16686E-05 3.00549E-06 0.00000E+00
 -1       791 2.19675E-05 3.10481E-06 3.30872E-24
 -1       792 2.22666E-05 3.13403E-06 0.00000E+00
 -1       793 2.25658E-05 3.14144E-06 0.00000E+00
 -1       794 2.28650E-05 3.17529E-06 0.00000E+00
 -1       795 2.31641E-05 3.28387E-06 0.00000E+00
 -1       796 2.34632E-05 3.51557E-06 0.00000E+00
 -1       797 2.37619E-05 3.91891E-06 3.30872E-24
 -1       798 2.40603E-05 4.54260E-06 0.00000E+00
 -1       799 2.43571E-05 5.43561E-06-3.30872E-24
 -1       800 2.46533E-05 6.64730E-06 0.00000E+00
 -1       801 1.76710E-05-2.01234E-07 0.00000E+00
 -1       802 1.39556E-05-1.57928E-07 0.00000E+00
 -1       803 9.69326E-06-1.16576E-07 0.00000E+00
 -1       804 5.52190E-06-7.57102E-08 0.00000E+00
 -1       805 2.07930E-06-3.28519E-08 0.00000E+00
 -1       806 1.93502E-05 8.00587E-07-1.32349E-23
 -1       807 1.85614E-05 1.62467E-06 0.00000E+00
 -1       808 1.78375E-05 2.26942E-06-1.32349E-23
 -1       809 1.71660E-05 2.77027E-06 0.00000E+00
 -1       810 1.65348E-05 3.16278E-06 0.00000E+00
 -1       811 1.59307E-05 3.48243E-06 0.00000E+00
 -1       812 1.53405E-05 3.76469E-06 1.32349E-23
 -1       813 1.47510E-05 4.04501E-06-6.61744E-24
 -1       814 1.41489E-05 4.35886E-06 0.00000E+00
 -1       815 1.35209E-05 4.74167E-06 6.61744E-24
 -1       816 1.28539E-05 5.22887E-06 0.00000E+00
 -1       817 1.21346E-05 5.85584E-06 0.00000E+00
 -1       818 1.13501E-05 6.65791E-06-1.32349E-23
 -1       819 1.04882E-05 7.67053E-06-3.30872E-24
 -1       820 9.53667E-06 8.92896E-06-6.61744E-24
 -1       821 2.47567E-05 1.02046E-05-8.27181E-25
 -1       822 2.45622E-05 1.24723E-05 0.00000E+00
 -1       823 2.43668E-05 1.49999E-05-6.61744E-24
 -1       824 2.41693E-05 1.77564E-05 3.30872E-24
 -1       825 2.39710E-05 2.07111E-05 0.00000E+00
 -1       826 2.37719E-05 2.38330E-05 0.00000E+00
 -1       827 2.35723E-05 2.70908E-05 0.00000E+00
 -1       828 2.33723E-05 3.04534E-05 0.00000E+00
 -1       829 2.31721E-05 3.38894E-05 0.00000E+00
 -1       830 2.29717E-05 3.73672E-05 3.30872E-24
 -1       831 2.27714E-05 4.08557E-05 0.00000E+00
 -1       832 2.25714E-05 4.43232E-05 0.00000E+00
 -1       833 2.23719E-05 4.77384E-05 6.61744E-24
 -1       834 2.21737E-05 5.10699E-05 3.30872E-24
 -1       835 2.19762E-05 5.42863E-05 3.30872E-24
 -1       836 2.26548E-05 8.59451E-06-6.61744E-24
 -1       837 1.98580E-05 8.97438E-06 0.00000E+00
 -1       838 1.67960E-05 9.35339E-06 0.00000E+00
 -1       839 1.37166E-05 9.73167E-06-3.30872E-24
 -1       840 1.08678E-05 1.01104E-05-6.61744E-24
 -1       841 2.41812E-05 1.02046E-05 0.00000E+00
 -1       842 2.33065E-05 1.24807E-05 0.00000E+00
 -1       843 2.23310E-05 1.50235E-05 0.00000E+00
 -1       844 2.12668E-05 1.77997E-05 1.03398E-25
 -1       845 2.01267E-05 2.07762E-05 0.00000E+00
 -1       846 1.89234E-05 2.39198E-05-1.29247E-25
 -1       847 1.76693E-05 2.71972E-05-4.13590E-25
 -1       848 1.63772E-05 3.05751E-05 2.06795E-25
 -1       849 1.50595E-05 3.40205E-05 0.00000E+00
 -1       850 1.37289E-05 3.74998E-05 0.00000E+00
 -1       851 1.23980E-05 4.09800E-05 0.00000E+00
 -1       852 1.10793E-05 4.44277E-05 0.00000E+00
 -1       853 9.78543E-06 4.78097E-05-8.27181E-25
 -1       854 8.52866E-06 5.10926E-05 0.00000E+00
 -1       855 7.32185E-06 5.42433E-05 0.00000E+00
 -1       856 2.16806E-05 6.04477E-05-1.65436E-24
 -1       857 2.15674E-05 6.37333E-05-1.65436E-24
 -1       858 2.14535E-05 6.71874E-05-3.30872E-24
 -1       859 2.13384E-05 7.07834E-05 1.65436E-24
 -1       860 2.12227E-05 7.44945E-05 0.00000E+00
 -1       861 2.11066E-05 7.82940E-05 0.00000E+00
 -1       862 2.09903E-05 8.21552E-05 3.30872E-24
 -1       863 2.08737E-05 8.60511E-05 0.00000E+00
 -1       864 2.07572E-05 8.99550E-05 0.00000E+00
 -1       865 2.06407E-05 9.38401E-05 1.65436E-24
 -1       866 2.05244E-05 9.76796E-05 0.00000E+00
 -1       867 2.04085E-05 1.01446E-04 0.00000E+00
 -1       868 2.02930E-05 1.05114E-04-3.30872E-24
 -1       869 2.01783E-05 1.08656E-04 1.65436E-24
 -1       870 2.00642E-05 1.12045E-04-3.30872E-24
 -1       871 1.90453E-05 5.73372E-05 0.00000E+00
 -1       872 1.64421E-05 5.73166E-05 8.27181E-25
 -1       873 1.39164E-05 5.72959E-05 0.00000E+00
 -1       874 1.14051E-05 5.72747E-05 4.13590E-25
 -1       875 8.84522E-06 5.72528E-05-1.65436E-24
 -1       876 2.07948E-05 6.04815E-05 0.00000E+00
 -1       877 1.97491E-05 6.37653E-05 0.00000E+00
 -1       878 1.86519E-05 6.71853E-05 0.00000E+00
 -1       879 1.75118E-05 7.07216E-05-3.30872E-24
 -1       880 1.63356E-05 7.43533E-05 0.00000E+00
 -1       881 1.51312E-05 7.80602E-05 0.00000E+00
 -1       882 1.39059E-05 8.18221E-05-6.61744E-24
 -1       883 1.26674E-05 8.56188E-05 0.00000E+00
 -1       884 1.14234E-05 8.94301E-05 6.61744E-24
 -1       885 1.01815E-05 9.32360E-05 3.30872E-24
 -1       886 8.94924E-06 9.70161E-05-6.61744E-24
 -1       887 7.73419E-06 1.00750E-04 1.65436E-24
 -1       888 6.54391E-06 1.04418E-04 0.00000E+00
 -1       889 5.38528E-06 1.08000E-04 1.65436E-24
 -1       890 4.26686E-06 1.11475E-04-1.65436E-24
 -1       891 1.70370E-05 1.15183E-04-1.65436E-24
 -1       892 1.43035E-05 1.15110E-04-8.27181E-25
 -1       893 1.16528E-05 1.15037E-04-1.65436E-24
 -1       894 8.98377E-06 1.14964E-04 0.00000E+00
 -1       895 6.19563E-06 1.14891E-04-8.27181E-25
 -1       896 2.65426E-07 9.45403E-07-6.61744E-24
 -1       897 5.32856E-07 1.65223E-06 0.00000E+00
 -1       898 8.00473E-07 2.14861E-06 0.00000E+00
 -1       899 1.06839E-06 2.46292E-06 0.00000E+00
 -1       900 1.33641E-06 2.62328E-06-6.61744E-24
 -1       901 1.60448E-06 2.65766E-06-3.30872E-24
 -1       902 1.87256E-06 2.59392E-06-6.61744E-24
 -1       903 2.14063E-06 2.45980E-06 0.00000E+00
 -1       904 2.40868E-06 2.28297E-06 0.00000E+00
 -1       905 2.67669E-06 2.09106E-06 0.00000E+00
 -1       906 2.94461E-06 1.91167E-06 6.61744E-24
 -1       907 3.21231E-06 1.77243E-06-3.30872E-24
 -1       908 3.47975E-06 1.70099E-06 0.00000E+00
 -1       909 3.74600E-06 1.72510E-06-3.30872E-24
 -1       910 4.01194E-06 1.87260E-06 0.00000E+00
 -1       911 4.33220E-06 2.45225E-06-1.65436E-24
 -1       912 4.39626E-06 2.54456E-06 0.00000E+00
 -1       913 4.46034E-06 2.47433E-06 1.65436E-24
 -1       914 4.52447E-06 2.26812E-06 8.27181E-25
 -1       915 4.58858E-06 1.95243E-06 1.65436E-24
 -1       916 4.65267E-06 1.55371E-06-8.27181E-25
 -1       917 4.71674E-06 1.09843E-06 1.65436E-24
 -1       918 4.78079E-06 6.12999E-07 0.00000E+00
 -1       919 4.84482E-06 1.23858E-07 0.00000E+00
 -1       920 4.90881E-06-3.42564E-07 0.00000E+00
 -1       921 4.97275E-06-7.59847E-07-1.65436E-24
 -1       922 5.03651E-06-1.10154E-06 8.27181E-25
 -1       923 5.10004E-06-1.34118E-06 0.00000E+00
 -1       924 5.16251E-06-1.45230E-06-8.27181E-25
 -1       925 5.22471E-06-1.40833E-06 8.27181E-25
 -1       926 4.95780E-06-9.30738E-07 0.00000E+00
 -1       927 4.62856E-06-8.11550E-07 0.00000E+00
 -1       928 4.29905E-06-8.02530E-07 1.32349E-23
 -1       929 3.96845E-06-8.80237E-07-6.61744E-24
 -1       930 3.63757E-06-1.02118E-06-1.32349E-23
 -1       931 3.30649E-06-1.20176E-06 0.00000E+00
 -1       932 2.97533E-06-1.39833E-06-1.32349E-23
 -1       933 2.64412E-06-1.58723E-06 6.61744E-24
 -1       934 2.31291E-06-1.74480E-06 0.00000E+00
 -1       935 1.98172E-06-1.84742E-06 0.00000E+00
 -1       936 1.65055E-06-1.87155E-06 0.00000E+00
 -1       937 1.31946E-06-1.79376E-06 6.61744E-24
 -1       938 9.88445E-07-1.59071E-06-6.61744E-24
 -1       939 6.57831E-07-1.23930E-06-6.61744E-24
 -1       940 3.27255E-07-7.16514E-07 0.00000E+00
 -1       941 4.95870E-07 7.23843E-07 0.00000E+00
 -1       942 1.02591E-06 1.28669E-06 6.61744E-24
 -1       943 1.55712E-06 1.72117E-06 0.00000E+00
 -1       944 2.09271E-06 2.05993E-06 0.00000E+00
 -1       945 2.62936E-06 2.33542E-06 0.00000E+00
 -1       946 3.16682E-06 2.57996E-06-6.61744E-24
 -1       947 3.70457E-06 2.82577E-06 0.00000E+00
 -1       948 4.24246E-06 3.10512E-06 6.61744E-24
 -1       949 4.78036E-06 3.45032E-06 0.00000E+00
 -1       950 5.31812E-06 3.89385E-06 6.61744E-24
 -1       951 5.85559E-06 4.46834E-06 0.00000E+00
 -1       952 6.39237E-06 5.20677E-06 0.00000E+00
 -1       953 6.92820E-06 6.14238E-06-1.32349E-23
 -1       954 7.46054E-06 7.30890E-06-6.61744E-24
 -1       955 7.99172E-06 8.74053E-06 0.00000E+00
 -1       956 8.35821E-06 1.25455E-05 2.37814E-24
 -1       957 8.21524E-06 1.48357E-05 6.20385E-25
 -1       958 8.07117E-06 1.73213E-05-8.27181E-25
 -1       959 7.92625E-06 1.99798E-05 0.00000E+00
 -1       960 7.78080E-06 2.27892E-05-1.65436E-24
 -1       961 7.63493E-06 2.57270E-05-1.65436E-24
 -1       962 7.48873E-06 2.87707E-05 0.00000E+00
 -1       963 7.34227E-06 3.18980E-05 1.65436E-24
 -1       964 7.19562E-06 3.50863E-05 3.30872E-24
 -1       965 7.04887E-06 3.83132E-05 0.00000E+00
 -1       966 6.90209E-06 4.15562E-05 3.30872E-24
 -1       967 6.75538E-06 4.47929E-05 3.30872E-24
 -1       968 6.60885E-06 4.80006E-05 0.00000E+00
 -1       969 6.46274E-06 5.11572E-05 0.00000E+00
 -1       970 6.31729E-06 5.42401E-05 3.30872E-24
 -1       971 5.99371E-06 6.02317E-05 0.00000E+00
 -1       972 5.80810E-06 6.34328E-05-1.65436E-24
 -1       973 5.62182E-06 6.68063E-05 0.00000E+00
 -1       974 5.43453E-06 7.03269E-05 0.00000E+00
 -1       975 5.24669E-06 7.39696E-05 6.61744E-24
 -1       976 5.05842E-06 7.77089E-05 0.00000E+00
 -1       977 4.86986E-06 8.15195E-05 6.61744E-24
 -1       978 4.68111E-06 8.53758E-05 0.00000E+00
 -1       979 4.49230E-06 8.92525E-05 0.00000E+00
 -1       980 4.30354E-06 9.31240E-05 3.30872E-24
 -1       981 4.11495E-06 9.69648E-05 0.00000E+00
 -1       982 3.92672E-06 1.00750E-04 3.30872E-24
 -1       983 3.73898E-06 1.04453E-04-1.32349E-23
 -1       984 3.55247E-06 1.08049E-04 0.00000E+00
 -1       985 3.36662E-06 1.11513E-04 0.00000E+00
 -3
    1PSTEP                         2           1           1          
  100CL  101 1.000000000         841                     0    1           1
 -4  STRESS      6    1
 -5  SXX         1    4    1    1
 -5  SYY         1    4    2    2
 -5  SZZ         1    4    3    3
 -5  SXY         1    4    1    2
 -5  SYZ         1    4    2    3
 -5  SZX         1    4    3    1
 -1         1-1.72409E+06-5.19902E+05-1.17970E+05-6.94275E+05 1.92813E-10-8.68264E-10
 -1         2-1.02945E+06 1.56551E+04 1.87146E+03-1.50573E+05 5.32054E-11-2.27010E-09
 -1         3-3.76680E+05-1.19938E+05 3.94500E+02-7.77223E+04 2.03499E-11 1.96405E-09
 -1         4-6.65807E+04-2.76152E+04 1.36014E+02-2.37636E+04 1.05189E-10 9.97829E-10
 -1         5 4.67894E+04 6.35639E+05-7.40207E+04 4.77192E+02 7.23958E-10 4.95112E-09
 -1         8-3.59580E+05-3.05212E+05-2.69783E+03-5.15481E+05 7.82165E-11 1.89175E-10
 -1         9-7.42996E+05-1.04864E+05-3.86800E+04-3.99692E+05 4.12607E-10 8.56138E-10
 -1        10-4.06441E+05-2.02155E+05 7.07225E+02-2.45700E+05 1.84476E-10 1.17401E-09
 -1        11-1.12331E+05-6.57391E+04 1.64695E+02-1.21463E+05 6.95157E-10 2.02219E-09
 -1        12 5.91741E+04 6.35426E+05-7.06624E+04 1.67224E+04 1.10788E-09-9.82666E-10
 -1        15 1.67699E+04-5.92074E+03 1.26491E+03-1.60450E+05 6.18456E-11-1.11322E-09
 -1        16-3.45043E+05-1.01671E+05-2.25015E+04-3.51585E+05 1.67256E-09 4.23825E-10
 -1        17-2.75126E+05-1.82217E+05 1.55821E+04-3.68378E+05-1.00226E-09 1.24419E-09
 -1        18-4.73914E+04-6.86868E+04-1.38107E+04-2.75787E+05-1.59222E-09 1.05744E-09
 -1        19 1.96726E+05 3.48573E+05-2.90799E+04-9.42622E+03 1.98179E-09-3.79562E-10
 -1        20 1.20709E+05-7.26755E+04-1.17549E+04 7.96685E+04 1.57863E-08-2.27601E-09
 -1        21-1.66156E+04-1.60399E+05-7.03973E+02 1.09608E+04 2.50520E-08-4.99512E-10
 -1        22 2.83756E+04 1.71194E+05 5.78701E+02-9.10264E+04 1.16415E-10-4.03816E-10
 -1        23-1.61851E+05-7.24255E+03 1.04081E+03-1.95437E+05 3.14988E-10-7.28657E-10
 -1        24-2.66373E+05-4.72051E+04 5.45488E+04-3.40188E+05-7.90654E-10-1.41396E-09
 -1        25 5.60201E+04 1.94762E+04 7.48363E+04-3.56626E+05 3.09592E-09-7.42148E-10
 -1        26-4.43690E+03 2.75689E+05 1.41680E+04-1.11853E+05 3.49560E-09 2.56576E-09
 -1        27-2.62071E+04-5.08298E+04-2.25713E+04 1.19936E+05 7.41269E-09-2.43684E-09
 -1        28-7.01456E+03-1.12062E+05-7.24142E+02 6.19332E+04 1.83463E-08-4.15175E-09
 -1        29 3.71107E+05 2.81149E+05 9.46018E+02-5.72887E+04 6.33804E-11-8.75389E-10
 -1        30 1.26664E+05 3.24994E+04 8.10490E+02-8.89837E+04-7.54596E-12-3.06500E-10
 -1        31-3.93259E+05 2.63343E+04 1.71602E+03-1.27411E+05-2.51298E-10 2.21917E-10
 -1        32-2.22083E+05 2.53471E+04 1.03599E+05-3.40575E+05-1.30114E-09 1.04956E-09
 -1        33 1.12059E+05 2.66244E+05 1.06253E+05-1.55506E+05 4.06874E-09 1.17325E-09
 -1        34-2.34887E+05-2.42026E+04-2.99514E+03 6.81105E+04 9.39021E-09-3.35990E-09
 -1        35-4.05339E+04-3.80230E+04-5.72413E+02 8.81707E+04 1.87183E-08-1.97785E-09
 -1        36-2.32121E+06 4.07170E+03-6.23686E+04 6.42740E-09 1.59168E-10 1.32422E-09
 -1        37-2.34029E+06-1.30583E+04-3.71456E+04 2.60839E-08 2.76555E-10-1.87674E-09
 -1        38-2.32960E+06 4.09218E+02-1.58898E+04 5.85018E-09 9.86532E-11-4.40286E-09
 -1        39-2.33114E+06-8.36776E+02-8.46060E+03 5.01615E-09-2.67251E-10-1.61833E-09
 -1        40-2.33031E+06 6.32481E+01-4.08157E+03-1.79073E-09-2.77901E-10 7.12794E-09
 -1        41-2.33035E+06-4.85760E+01-2.27636E+03-1.14567E-09-1.02132E-09 5.41695E-09
 -1        42-2.33039E+06 1.86340E+01-1.46905E+03-1.86135E-08 7.65028E-10 8.94602E-10
 -1        43-2.33028E+06-5.12225E+00-1.49163E+03 2.11534E-08-3.79229E-10 1.05459E-09
 -1        44-2.33037E+06 2.81815E+01-2.19490E+03-8.64677E-09-3.74430E-10-2.01908E-09
 -1        45-2.33047E+06-9.69824E+01-4.14607E+03 7.15276E-09-1.52777E-10 6.90534E-10
 -1        46-2.33021E+06 1.23145E+02-7.90610E+03-2.14275E-08 9.71868E-10 5.14319E-10
 -1        47-2.33206E+06-1.65757E+03-1.66664E+04 1.90084E-09-6.19212E-10-7.29415E-10
 -1        48-2.32881E+06 8.10046E+02-3.14243E+04 1.58542E-09-3.22972E-10-3.39969E-09
 -1        49-2.35018E+06-2.58617E+04-7.35430E+04-4.56475E-09-1.01496E-09 1.06593E-09
 -1        50-2.31218E+06 8.06997E+03-1.23482E+05-1.07739E-08-1.00786E-09-8.36735E-10
 -1        51 3.73648E+04-5.86405E+05 1.07781E+05-8.65931E+05-2.91038E-11-5.82077E-11
 -1        52 1.85711E+04-5.70054E+05 5.72280E+04-1.06628E+06 2.18279E-10-2.61934E-10
 -1        53 6.59125E+03-5.89344E+05 2.65912E+04-8.62801E+05 2.14641E-10 2.05182E-09
 -1        54 1.15936E+04-5.91682E+05 1.62524E+04-1.06895E+06 1.81899E-10-4.19095E-09
 -1        55 1.11163E+04-5.93934E+05 1.18940E+04-8.63044E+05-1.85537E-10-2.09366E-09
 -1        56-2.98055E+06-4.14562E+05-1.57646E+05-1.13681E+06 1.71713E-09-1.30967E-10
 -1        57-3.02364E+06-4.79161E+05-9.25241E+04-1.14837E+06-2.18279E-11-8.95852E-10
 -1        58-3.00284E+06-4.30578E+05-3.67087E+04-1.13941E+06 8.98126E-10 2.09002E-09
 -1        59-2.99697E+06-4.45257E+05-1.90014E+04-1.15159E+06-1.34435E-09-6.94126E-09
 -1        60-3.00475E+06-4.32021E+05-8.51323E+03-1.13969E+06 3.54703E-10-7.62611E-10
 -1        61-2.99478E+06-4.42663E+05-4.46138E+03-1.15146E+06-1.17689E-09 5.62068E-10
 -1        62-3.00484E+06-4.32295E+05-2.57166E+03-1.13983E+06-5.90262E-10-1.63459E-09
 -1        63-2.99484E+06-4.42223E+05-2.37808E+03-1.15108E+06 9.26775E-10-1.55524E-09
 -1        64-3.00462E+06-4.32482E+05-3.41811E+03-1.14003E+06-2.22826E-10 5.72527E-10
 -1        65-2.99560E+06-4.42077E+05-6.71580E+03-1.15059E+06-1.22600E-09 2.14277E-09
 -1        66-3.00399E+06-4.32512E+05-1.32677E+04-1.14025E+06-1.45519E-11 5.02587E-09
 -1        67-2.99978E+06-4.45381E+05-2.98312E+04-1.14982E+06 6.08452E-10 3.89082E-09
 -1        68-3.00057E+06-4.30652E+05-5.77485E+04-1.14022E+06-6.55177E-10 1.01863E-09
 -1        69-3.04244E+06-4.97972E+05-1.45560E+05-1.14383E+06 1.47156E-09 8.85848E-10
 -1        70-2.96511E+06-4.05796E+05-2.47979E+05-1.13650E+06-1.74623E-09-2.85218E-09
 -1        71-8.24525E+05-1.24072E+03 1.91351E+04 6.58952E-09-3.39308E-10 2.11276E-09
 -1        72-8.18534E+05 4.00077E+03 1.13884E+04-4.19118E-09-3.92583E-09 3.34467E-10
 -1        73-8.21947E+05-1.24846E+02 4.86210E+03-1.36724E-08 1.40306E-11 1.01613E-09
 -1        74-8.21338E+05 2.56263E+02 2.56432E+03 6.21611E-09 7.43103E-10-4.91013E-10
 -1        75-8.21728E+05-1.85849E+01 1.18737E+03 1.04024E-08 3.71782E-10 7.97172E-10
 -1        76-8.21586E+05 1.51389E+01 5.63342E+02-1.68003E-09 1.68042E-10 6.83650E-09
 -1        77-8.21700E+05-2.44386E+00 1.82867E+02-1.62368E-09 1.92664E-10 1.44576E-09
 -1        78-8.21627E+05-3.09171E-01-9.14768E+01 6.91977E-10-3.94746E-11-2.56775E-09
 -1        79-8.21688E+05 5.31277E+00-4.07521E+02 2.89235E-09 6.59410E-11 1.97960E-09
 -1        80-8.21683E+05-2.40077E+01-9.56911E+02 2.78608E-09-9.27773E-10 1.28698E-09
 -1        81-8.21645E+05 2.99777E+01-1.92170E+03 1.67090E-09-2.35474E-10-5.81622E-10
 -1        82-8.22076E+05-4.08495E+02-4.10263E+03-1.29707E-08-3.28056E-10 3.55442E-10
 -1        83-8.21297E+05 1.99153E+02-7.75797E+03-3.22288E-10 4.60290E-10-9.49967E-10
 -1        84-8.26546E+05-6.37807E+03-1.81587E+04 3.11256E-08-6.35161E-10-3.15140E-09
 -1        85-8.17184E+05 1.97928E+03-3.05011E+04-7.79710E-09-2.00488E-10 3.39969E-09
 -1        86-1.03541E+04 5.88538E+05 1.59939E+05-6.44961E+04 6.03904E-10-1.76078E-09
 -1        87 3.39941E+04 6.38157E+05 1.06849E+05-1.28646E+05 1.97088E-09-2.77942E-09
 -1        88-1.70706E+03 6.07579E+05 6.87142E+04-6.42003E+04 1.43649E-09-2.62116E-09
 -1        89 2.75250E+04 6.32379E+05 9.06923E+04-1.28873E+05 2.95586E-09-3.13048E-09
 -1        90-7.58489E+03 5.93004E+05 1.27122E+05-6.42259E+04 2.06637E-09-2.14914E-09
 -1        91-1.32451E+06-1.86993E+05-4.45322E+04-5.04746E+05 1.44610E-10-9.24047E-10
 -1        92-1.33455E+06-2.07269E+05-2.61280E+04-5.10395E+05 1.20281E-10-1.35697E-09
 -1        93-1.33083E+06-1.91478E+05-1.03782E+04-5.05474E+05 4.46789E-11-2.69665E-09
 -1        94-1.32701E+06-1.97739E+05-5.37560E+03-5.11336E+05-1.26619E-10-4.17845E-09
 -1        95-1.33139E+06-1.91872E+05-2.41570E+03-5.05542E+05 7.06791E-10-3.10419E-09
 -1        96-1.32637E+06-1.97034E+05-1.27792E+03-5.11332E+05 7.52834E-10-6.55734E-09
 -1        97-1.33143E+06-1.91932E+05-7.58054E+02-5.05567E+05-1.37334E-09 2.51475E-10
 -1        98-1.32636E+06-1.96944E+05-7.39205E+02-5.11267E+05-2.67391E-10 2.92266E-09
 -1        99-1.33138E+06-1.91963E+05-1.10082E+03-5.05601E+05 4.31100E-10 9.80663E-10
 -1       100-1.32655E+06-1.96956E+05-2.19230E+03-5.11184E+05 8.00355E-11 1.46247E-09
 -1       101-1.33121E+06-1.91936E+05-4.34188E+03-5.05636E+05 2.29193E-10 7.29415E-10
 -1       102-1.32785E+06-1.98108E+05-9.76701E+03-5.11018E+05-1.50612E-09-3.80351E-09
 -1       103-1.33013E+06-1.91287E+05-1.89039E+04-5.05578E+05-4.19959E-10 1.68529E-09
 -1       104-1.34172E+06-2.15343E+05-4.76101E+04-5.09138E+05-1.56066E-09-6.83940E-10
 -1       105-1.31854E+06-1.83183E+05-8.11489E+04-5.04325E+05-1.74623E-10 6.40284E-10
 -1       106-1.59733E+05-2.10121E+03 3.24901E+04 1.01427E-08-1.67840E-11 6.65750E-10
 -1       107-1.49669E+05 6.78865E+03 1.93409E+04 1.37932E-08-6.92944E-10 3.28896E-09
 -1       108-1.55351E+05-2.11724E+02 8.26857E+03 1.00381E-08 7.04972E-10-8.64020E-12
 -1       109-1.54427E+05 4.34586E+02 4.37826E+03 1.25544E-09 2.41723E-10 7.19865E-10
 -1       110-1.54979E+05-3.20833E+01 2.06229E+03-4.82173E-10-1.92157E-10-8.04334E-10
 -1       111-1.54844E+05 2.54641E+01 1.04926E+03 1.23273E-08-6.81044E-11-2.05367E-09
 -1       112-1.54934E+05-6.36690E+00 4.92354E+02-5.19379E-09 1.81027E-11 1.20710E-09
 -1       113-1.54899E+05 7.26803E-01 2.16053E+02 8.77324E-09-3.26198E-10-8.51927E-10
 -1       114-1.54924E+05-4.02822E-01 3.82004E+01 9.61522E-09-3.82827E-11-3.42287E-09
 -1       115-1.54918E+05-4.57494E+00-1.20024E+02 1.40909E-08 3.07197E-10-4.63228E-09
 -1       116-1.54915E+05 5.22401E+00-3.28756E+02 1.03233E-08-2.76387E-10-2.09089E-09
 -1       117-1.54993E+05-7.58262E+01-7.47762E+02 1.11636E-09 1.55434E-10-9.02531E-11
 -1       118-1.54849E+05 3.68307E+01-1.43400E+03-2.66288E-09 9.92178E-12 1.96758E-09
 -1       119-1.55823E+05-1.18358E+03-3.36835E+03-1.14028E-09 7.46707E-10 3.35251E-09
 -1       120-1.54085E+05 3.66510E+02-5.66227E+03-5.71225E-09-4.41772E-11-1.93222E-09
 -1       121-9.00342E+02-3.70326E+05 1.33313E+04-5.01788E+04 4.47471E-10 1.86265E-09
 -1       122 2.98209E+03-3.66178E+05 1.02327E+04-1.01069E+05 1.78125E-09 4.51473E-09
 -1       123-1.64558E+02-3.69096E+05 8.87406E+03-4.98956E+04 1.30194E-09 1.15324E-09
 -1       124 5.20255E+03-3.64814E+05 1.52958E+04-1.01297E+05 2.31285E-09-1.64994E-09
 -1       125-1.40842E+03-3.72113E+05 2.37055E+04-4.99471E+04 1.46883E-09 1.16438E-09
 -1       126-5.58429E+05-8.16552E+04-1.29008E+04-2.15622E+05 3.03828E-10 2.69574E-09
 -1       127-5.58285E+05-9.05540E+04-7.56887E+03-2.20733E+05-3.98359E-10-8.17636E-09
 -1       128-5.60280E+05-8.29325E+04-3.01009E+03-2.15815E+05 4.30191E-10 1.97542E-09
 -1       129-5.56084E+05-8.78157E+04-1.56309E+03-2.21030E+05-5.43707E-10 2.96689E-09
 -1       130-5.60444E+05-8.30433E+04-7.11336E+02-2.15832E+05 1.61876E-10 3.16390E-09
 -1       131-5.55896E+05-8.76153E+04-3.94175E+02-2.21033E+05 1.39013E-09 6.00616E-09
 -1       132-5.60455E+05-8.30597E+04-2.68728E+02-2.15838E+05 2.72053E-10 3.01111E-09
 -1       133-5.55896E+05-8.75918E+04-3.19819E+02-2.21014E+05-1.60480E-09-5.26472E-09
 -1       134-5.60435E+05-8.30680E+04-5.35160E+02-2.15847E+05 2.23281E-10-3.87081E-09
 -1       135-5.55981E+05-8.76133E+04-1.10592E+03-2.20986E+05-1.97269E-09-8.21035E-09
 -1       136-5.60355E+05-8.30481E+04-2.21000E+03-2.15855E+05-1.21508E-09-3.58796E-10
 -1       137-5.56621E+05-8.82171E+04-4.97850E+03-2.20918E+05 5.29326E-10 2.87946E-09
 -1       138-5.59808E+05-8.27104E+04-9.64091E+03-2.15813E+05 7.40556E-10 1.14233E-09
 -1       139-5.63682E+05-9.69991E+04-2.42701E+04-2.19957E+05-2.29682E-09-3.24235E-10
 -1       140-5.53883E+05-7.85984E+04-4.13726E+04-2.15178E+05-1.38789E-09 2.09729E-09
 -1       141-3.84056E+02-5.85614E+02 9.05285E+03-4.08124E-09 5.09231E-10-1.81126E-09
 -1       142 2.41776E+03 1.89243E+03 5.38090E+03-7.39749E-09 3.84769E-10 9.09722E-10
 -1       143 8.38721E+02-5.87343E+01 2.28197E+03-9.38666E-09-1.41677E-10 8.90395E-10
 -1       144 1.08986E+03 1.21312E+02 1.17246E+03-4.58282E-09-2.24188E-10-5.23934E-09
 -1       145 9.43735E+02-7.79605E+00 4.79506E+02-1.62534E-08-1.13623E-10 2.46305E-09
 -1       146 9.66753E+02 7.51797E+00 9.74148E+01-1.14863E-08-4.76853E-10-2.38870E-10
 -1       147 9.61825E+02 2.91891E+00-2.47500E+02-2.36268E-08-3.51196E-10 1.12578E-09
 -1       148 9.21686E+02-2.44067E+00-7.26808E+02-1.52223E-08 1.43619E-09-3.23037E-09
 -1       149 9.88805E+02 1.98557E+01-1.53725E+03 3.58756E-09 2.08380E-10-1.61248E-09
 -1       150 7.56381E+02-7.77466E+01-3.22316E+03 1.56141E-08-4.74876E-10 2.10781E-09
 -1       151 1.12719E+03 9.81400E+01-6.31032E+03 1.74509E-10 7.44094E-10 1.57161E-09
 -1       152-5.18363E+02-1.32767E+03-1.33832E+04 1.34164E-08-9.96689E-10 8.26049E-09
 -1       153 2.26440E+03 6.47013E+02-2.52659E+04-6.48618E-09-7.98016E-11-1.70985E-10
 -1       154-1.50524E+04-2.07400E+04-5.90956E+04-2.30102E-08-3.23178E-10-3.14049E-09
 -1       155 1.56774E+04 6.42765E+03-9.92248E+04-2.73212E-09 1.57414E-09 4.32919E-09
 -1       156-6.37761E+01-9.15304E+04 6.94177E+02-2.50754E+04 2.78760E-10-2.40107E-09
 -1       157 2.02540E+02-9.12965E+04 1.24293E+03-5.03659E+04 2.09820E-09-4.96993E-09
 -1       158-4.22125E+01-9.16369E+04 2.15692E+03-2.49266E+04 1.20122E-09 3.54703E-11
 -1       159 1.80237E+03-9.02120E+04 4.97009E+03-5.05101E+04 2.68028E-09 2.41562E-09
 -1       160-5.02854E+02-9.27776E+04 8.31280E+03-2.49305E+04 1.66438E-09 5.27621E-09
 -1       161-1.13616E+05-1.75817E+04-3.31148E+03-4.52694E+04-4.02338E-10 1.71110E-09
 -1       162-1.12730E+05-2.07173E+04-1.94786E+03-4.75579E+04-8.97785E-10-5.29234E-10
 -1       163-1.14083E+05-1.79159E+04-7.85409E+02-4.53258E+04 9.60483E-10-2.45301E-09
 -1       164-1.12173E+05-2.00077E+04-4.29477E+02-4.76245E+04 2.35835E-09-1.69422E-09
 -1       165-1.14123E+05-1.79462E+04-2.41386E+02-4.53315E+04 1.57684E-10 9.95840E-10
 -1       166-1.12130E+05-1.99554E+04-2.26838E+02-4.76235E+04-9.62075E-10 7.26232E-10
 -1       167-1.14120E+05-1.79484E+04-3.27797E+02-4.53327E+04 5.91285E-10 3.83852E-09
 -1       168-1.12153E+05-1.99585E+04-6.39301E+02-4.76251E+04 1.65119E-09 2.68437E-09
 -1       169-1.14094E+05-1.79356E+04-1.27886E+03-4.53307E+04-8.41737E-10 2.87525E-09
 -1       170-1.12330E+05-2.00753E+04-2.77226E+03-4.76423E+04 1.03773E-09 7.63021E-09
 -1       171-1.13938E+05-1.78341E+04-5.59469E+03-4.53121E+04-3.20597E-11-1.33514E-09
 -1       172-1.13884E+05-2.16970E+04-1.26433E+04-4.75979E+04 3.12014E-09-4.57567E-09
 -1       173-1.12616E+05-1.69092E+04-2.44864E+04-4.51487E+04 1.60173E-09-3.34239E-09
 -1       174-1.31625E+05-4.42112E+04-6.16565E+04-4.54335E+04-2.63753E-11-1.20417E-09
 -1       175-9.77255E+04-6.28423E+03-1.05066E+05-4.33474E+04-4.18368E-10-2.53931E-09
 -1       191 1.77088E+04 1.52694E+06 5.08366E+04 2.44116E+02 4.72937E-11 4.72028E-10
 -1       192 6.48961E+03 1.53738E+06 3.06380E+04 8.11249E+02 2.20098E-10 6.53927E-10
 -1       193 9.00810E+02 1.53105E+06 2.24813E+04 4.20940E+02-8.04334E-12 3.64889E-09
 -1       194 6.54946E+03 1.53742E+06 3.08312E+04 4.64248E+02 4.30191E-10 3.25963E-09
 -1       195 1.78819E+04 1.52690E+06 5.12939E+04 6.14869E+02-2.91038E-10-4.67480E-10
 -1       251 3.50469E+05-8.05958E+03 9.54082E+04-7.61674E+04-2.94676E-10 8.94943E-10
 -1       252 3.81527E+05 1.87189E+04 5.71230E+04-1.52783E+05-4.78394E-10-3.34694E-10
 -1       253 3.62463E+05-1.55517E+03 2.41835E+04-7.55732E+04-2.21917E-10-1.40426E-09
 -1       254 3.65552E+05 7.75037E+02 1.29915E+04-1.53237E+05-1.30967E-10-5.71436E-09
 -1       255 3.62842E+05-3.86612E+02 6.10299E+03-7.56723E+04 1.52795E-10 1.28875E-09
 -1       256 3.63094E+05 1.67094E+02 3.34679E+03-1.53074E+05 3.32875E-10 2.99860E-09
 -1       257 3.62543E+05 6.26101E+01 1.89375E+03-7.57419E+04 2.29193E-10 6.20275E-10
 -1       258 3.62365E+05 3.93987E+02 1.57821E+03-1.52979E+05-6.43922E-10-2.65345E-09
 -1       259 3.62407E+05 1.82156E+02 1.92613E+03-7.57667E+04-1.38613E-09 1.11686E-09
 -1       260 3.62514E+05 4.53303E+02 3.36263E+03-1.52982E+05 3.49701E-10 3.03226E-09
 -1       261 3.62434E+05-2.72145E+01 6.20772E+03-7.57391E+04 9.91349E-10 3.20802E-09
 -1       262 3.64389E+05 1.35054E+03 1.30422E+04-1.53057E+05 1.86446E-10 7.90635E-09
 -1       263 3.61778E+05-9.53633E+02 2.44006E+04-7.56903E+04-7.13044E-10 7.49424E-10
 -1       264 3.79784E+05 1.95968E+04 5.72930E+04-1.52659E+05-2.91038E-11 1.16552E-09
 -1       265 3.49496E+05-7.21038E+03 9.59025E+04-7.61655E+04-4.94765E-10 6.98492E-10
 -1       266-2.42361E+03-1.82271E+05 4.45089E+04-6.39250E+04 2.67391E-10-7.07587E-10
 -1       267 1.01977E+04-1.68743E+05 2.47828E+04-1.30333E+05 5.82077E-11-2.38742E-09
 -1       268 7.07113E+01-1.75683E+05 7.06633E+03-6.40282E+04 3.41061E-10-1.28784E-09
 -1       269-2.34565E+03-1.77038E+05-4.27365E+03-1.29776E+05 3.44698E-10 1.55160E-09
 -1       270 8.72810E+02-1.72417E+05-1.49240E+04-6.45173E+04 6.91216E-11 3.24144E-09
 -1       271-1.91535E+06-3.02748E+05-1.43332E+05-7.83457E+05-2.17915E-09-2.91766E-09
 -1       272-1.92111E+06-3.92953E+05-8.38605E+04-8.30527E+05 1.45519E-11-4.20187E-10
 -1       273-1.93707E+06-3.15707E+05-3.35067E+04-7.85068E+05 6.94854E-10 7.67614E-10
 -1       274-1.89644E+06-3.63611E+05-1.72128E+04-8.36032E+05 7.27596E-10-2.21189E-09
 -1       275-1.93979E+06-3.16072E+05-7.78326E+03-7.84964E+05-1.59343E-09-7.46877E-09
 -1       276-1.89424E+06-3.62009E+05-3.96327E+03-8.37578E+05 1.33150E-09 1.87731E-09
 -1       277-1.94055E+06-3.15659E+05-2.19791E+03-7.84801E+05 1.12595E-09-1.91437E-09
 -1       278-1.89401E+06-3.62159E+05-1.82517E+03-8.38315E+05 1.38971E-09 1.57206E-09
 -1       279-1.94073E+06-3.15467E+05-2.43482E+03-7.84739E+05 4.18822E-10-3.87445E-10
 -1       280-1.89427E+06-3.62347E+05-4.66799E+03-8.38350E+05 5.56611E-10 2.63572E-09
 -1       281-1.94030E+06-3.15479E+05-9.18912E+03-7.84768E+05 2.51930E-10-2.05546E-10
 -1       282-1.89685E+06-3.64698E+05-2.06047E+04-8.37538E+05 8.51287E-10 2.98496E-09
 -1       283-1.93760E+06-3.14519E+05-3.99680E+04-7.84703E+05 2.41926E-10 1.74987E-09
 -1       284-1.92613E+06-4.00560E+05-1.00475E+05-8.32257E+05 1.37970E-09 5.50244E-09
 -1       285-1.91227E+06-2.98254E+05-1.71445E+05-7.82386E+05-3.42425E-10 1.24419E-09
 -1       286-1.82747E+04-4.49056E+03 6.09355E+04-4.11012E+04 1.50249E-09 8.11269E-10
 -1       287 1.03675E+03 1.23967E+04 3.63739E+04-8.19338E+04 8.73115E-10 6.69388E-10
 -1       288-1.03128E+04-6.65925E+02 1.54839E+04-4.06821E+04-2.98314E-10-4.47471E-10
 -1       289-8.47715E+03 6.89355E+02 8.26708E+03-8.23529E+04-1.30967E-10 4.05498E-09
 -1       290-9.82815E+03-1.38594E+02 3.91275E+03-4.06652E+04 8.60382E-10-1.79170E-10
 -1       291-9.62777E+03 1.00089E+02 2.11415E+03-8.23719E+04 7.27596E-12 3.33694E-09
 -1       292-9.87650E+03 2.20893E+01 1.18930E+03-4.06643E+04 6.40284E-10 5.54792E-11
 -1       293-9.89788E+03 1.48070E+02 9.59722E+02-8.23740E+04 1.76669E-10-1.47566E-10
 -1       294-9.92058E+03 6.25347E+01 1.15023E+03-4.06630E+04 9.73785E-10 3.64321E-09
 -1       295-9.82874E+03 1.92065E+02 1.99105E+03-8.23744E+04 2.68301E-09-3.46336E-09
 -1       296-9.95647E+03-1.51734E+01 3.68499E+03-4.06638E+04 2.95586E-10-1.93597E-09
 -1       297-8.92456E+03 8.24001E+02 7.72104E+03-8.23602E+04 2.40470E-09 3.17652E-09
 -1       298-1.04837E+04-4.39985E+02 1.44901E+04-4.06768E+04 2.23736E-10 1.82263E-09
 -1       299-2.11977E+02 1.18101E+04 3.39365E+04-8.20395E+04-1.22145E-09 1.25897E-09
 -1       300-1.79740E+04-3.94185E+03 5.69070E+04-4.09926E+04-3.63798E-11 1.14596E-09
 -1       301 3.07345E+04 1.24751E+05 8.25308E+04-2.94815E+05 3.05590E-10 1.47884E-09
 -1       302 1.27481E+04 1.41098E+05 4.69306E+04-3.63890E+05 2.12822E-09-1.84991E-09
 -1       303 2.94213E+03 1.31226E+05 2.94980E+04-2.94328E+05 1.67347E-10 1.85196E-09
 -1       304 8.62954E+03 1.37864E+05 3.37400E+04-3.63917E+05 2.39743E-09 4.22551E-09
 -1       305 1.88193E+04 1.27896E+05 5.13017E+04-2.94818E+05-1.81899E-12 5.02405E-09
 -1       306-2.12892E+06-3.12242E+05-1.63163E+05-8.40824E+05 1.12232E-09 2.98314E-10
 -1       307-2.15844E+06-3.93589E+05-9.56768E+04-8.69652E+05 3.69073E-09 6.40284E-10
 -1       308-2.15275E+06-3.28005E+05-3.80385E+04-8.42985E+05 1.56433E-09 3.44880E-09
 -1       309-2.13027E+06-3.59460E+05-1.96360E+04-8.74370E+05-1.95814E-09 8.36735E-11
 -1       310-2.15525E+06-3.28996E+05-8.78678E+03-8.42952E+05-1.12777E-10 6.15273E-10
 -1       311-2.12760E+06-3.57360E+05-4.50377E+03-8.75186E+05 7.07587E-10-4.29281E-10
 -1       312-2.15574E+06-3.28900E+05-2.43512E+03-8.42828E+05-7.63066E-10-1.95777E-09
 -1       313-2.12726E+06-3.57374E+05-1.96881E+03-8.75492E+05-3.87661E-09-5.47584E-09
 -1       314-2.15579E+06-3.28843E+05-2.52826E+03-8.42795E+05-1.52585E-09-7.42421E-09
 -1       315-2.12754E+06-3.57505E+05-4.76878E+03-8.75421E+05-1.30808E-09-2.62366E-09
 -1       316-2.15540E+06-3.28819E+05-9.32688E+03-8.42851E+05-1.19508E-09-2.57387E-09
 -1       317-2.13030E+06-3.59901E+05-2.09086E+04-8.74831E+05 4.50655E-10 2.69210E-09
 -1       318-2.15287E+06-3.27631E+05-4.04803E+04-8.42802E+05-1.74623E-10 2.28829E-09
 -1       319-2.16015E+06-3.96480E+05-1.01905E+05-8.70148E+05-1.39153E-10 7.85803E-10
 -1       320-2.12766E+06-3.10661E+05-1.73726E+05-8.40366E+05-5.94810E-10-4.20550E-09
 -1       321 1.34742E+05-4.72263E+03 7.16404E+04-1.87114E+04-5.08408E-10 1.52795E-09
 -1       322 1.56962E+05 1.49051E+04 4.26627E+04-3.74202E+04-7.73070E-10-1.50067E-09
 -1       323 1.44356E+05-5.10786E+02 1.82370E+04-1.85532E+04-3.00133E-10-2.11367E-09
 -1       324 1.46367E+05 9.38691E+02 9.68000E+03-3.75670E+04 2.14641E-10-2.76486E-09
 -1       325 1.45138E+05-8.12376E+01 4.58791E+03-1.85552E+04 6.68479E-11 2.83762E-10
 -1       326 1.45386E+05 6.76133E+01 2.40267E+03-3.75592E+04 7.26459E-10 4.93264E-09
 -1       327 1.45215E+05-7.68786E+00 1.25688E+03-1.85614E+04-4.75893E-10 1.55887E-09
 -1       328 1.45253E+05 2.71409E+01 8.26278E+02-3.75521E+04 4.95447E-10-4.75870E-09
 -1       329 1.45222E+05 1.58545E+00 7.69331E+02-1.85623E+04 7.56017E-11-5.69867E-09
 -1       330 1.45293E+05 4.22033E+01 1.14586E+03-3.75545E+04-9.67361E-10-4.11569E-09
 -1       331 1.45197E+05-3.25563E+01 2.01974E+03-1.85591E+04 6.58019E-10-2.59388E-09
 -1       332 1.45731E+05 4.04097E+02 4.17069E+03-3.75605E+04 1.11186E-10-2.09094E-09
 -1       333 1.44879E+05-2.29584E+02 7.81165E+03-1.85561E+04-1.61435E-09-3.64707E-10
 -1       334 1.50308E+05 6.35950E+03 1.82581E+04-3.74292E+04 1.82126E-09 9.31891E-10
 -1       335 1.40789E+05-2.05573E+03 3.06345E+04-1.86935E+04-6.33008E-10 4.41651E-09
 -1       336-1.36725E+03-3.90978E+05 2.15850E+04-1.76315E+05 2.42835E-09 1.60799E-09
 -1       337 6.36316E+03-3.85278E+05 1.44768E+04-3.56005E+05 6.05542E-09-4.52019E-10
 -1       338 7.38183E+02-3.89277E+05 8.90962E+03-1.75635E+05 3.84716E-09-1.77215E-09
 -1       339 5.21789E+03-3.86875E+05 1.11740E+04-3.56167E+05 6.16637E-09-4.04725E-11
 -1       340-4.60130E+02-3.90423E+05 1.49739E+04-1.76149E+05 3.96221E-09 3.44153E-09
 -1       341-1.30371E+06-1.88706E+05-8.03193E+04-5.08705E+05-8.68567E-10 5.69707E-09
 -1       342-1.31860E+06-2.28514E+05-4.71164E+04-5.22633E+05 1.28784E-09-4.13638E-09
 -1       343-1.31528E+06-1.96629E+05-1.87241E+04-5.09881E+05-2.67391E-10-2.01817E-09
 -1       344-1.30484E+06-2.11531E+05-9.68864E+03-5.24627E+05-1.69916E-09-1.40244E-09
 -1       345-1.31638E+06-1.97240E+05-4.34915E+03-5.09934E+05-9.49512E-10-4.32897E-09
 -1       346-1.30359E+06-2.10386E+05-2.28243E+03-5.24810E+05-1.09344E-09-5.97993E-10
 -1       347-1.31653E+06-1.97274E+05-1.32286E+03-5.09917E+05-3.21393E-10 1.62379E-09
 -1       348-1.30348E+06-2.10328E+05-1.23870E+03-5.24837E+05 7.24270E-10 5.14206E-09
 -1       349-1.31651E+06-1.97277E+05-1.79273E+03-5.09923E+05 1.58252E-10 3.75144E-09
 -1       350-1.30371E+06-2.10421E+05-3.53864E+03-5.24783E+05-1.13801E-09-6.83576E-09
 -1       351-1.31626E+06-1.97210E+05-6.99307E+03-5.09943E+05 6.10271E-10 3.77077E-09
 -1       352-1.30573E+06-2.12323E+05-1.57220E+04-5.24546E+05 1.54887E-09 5.58430E-09
 -1       353-1.31451E+06-1.96168E+05-3.04325E+04-5.09824E+05-4.67026E-10 1.61890E-09
 -1       354-1.32801E+06-2.40084E+05-7.66335E+04-5.21490E+05-1.57479E-09-6.91216E-10
 -1       355-1.29581E+06-1.83146E+05-1.30603E+05-5.07795E+05-1.57252E-09 3.63070E-09
 -1       356 1.96836E+05-2.36527E+03 3.60178E+04-1.16138E+04-1.73713E-10-5.58430E-10
 -1       357 2.07992E+05 7.49624E+03 2.14410E+04-2.32947E+04-4.97266E-10-1.40972E-11
 -1       358 2.01679E+05-2.53414E+02 9.14928E+03-1.15259E+04-5.36602E-10-9.77707E-11
 -1       359 2.02677E+05 4.68065E+02 4.82043E+03-2.33743E+04 1.16484E-09-1.26101E-09
 -1       360 2.02079E+05-4.13628E+01 2.21469E+03-1.15307E+04 4.78849E-10 1.23327E-09
 -1       361 2.02187E+05 2.57319E+01 1.01770E+03-2.33657E+04-7.16227E-12 2.30307E-09
 -1       362 2.02127E+05-3.91630E+00 2.56796E+02-1.15346E+04-2.05773E-10 9.68043E-10
 -1       363 2.02096E+05-1.04786E-01-3.52337E+02-2.33616E+04 4.85169E-10 7.51925E-10
 -1       364 2.02155E+05 1.44360E+01-1.12301E+03-1.15348E+04 2.04864E-10-1.42995E-09
 -1       365 2.01961E+05-6.48562E+01-2.53469E+03-2.33657E+04-5.21936E-10 1.05956E-09
 -1       366 2.02275E+05 7.26289E+01-5.04885E+03-1.15306E+04-4.86352E-10-3.58341E-09
 -1       367 2.00956E+05-1.08013E+03-1.07499E+04-2.33736E+04-4.66571E-10-6.20435E-09
 -1       368 2.03204E+05 5.02131E+02-2.03188E+04-1.15271E+04 2.94222E-10 1.00954E-09
 -1       369 1.89306E+05-1.67050E+04-4.75229E+04-2.32962E+04-2.31375E-09 4.11910E-09
 -1       370 2.14012E+05 5.12761E+03-7.98122E+04-1.16002E+04 7.32143E-10 8.44011E-10
 -1       371-3.75445E+02-1.12927E+05 5.89339E+03-1.22560E+05 2.39652E-09-2.39743E-09
 -1       372 2.10992E+03-1.11610E+05 3.03827E+03-2.47060E+05 7.90897E-09-7.08496E-10
 -1       373 4.78033E+02-1.12477E+05 1.08309E+02-1.22136E+05 4.55657E-09-3.00133E-10
 -1       374-1.87107E+02-1.13674E+05-2.70483E+03-2.47150E+05 7.03221E-09 1.05956E-10
 -1       375 6.20822E+02-1.11344E+05-5.75866E+03-1.22470E+05 4.55475E-09 4.29827E-09
 -1       376-4.83849E+05-7.74860E+04-3.48890E+04-1.99491E+05 5.91797E-10 1.22600E-09
 -1       377-4.82864E+05-1.02209E+05-2.04642E+04-2.14089E+05-6.99401E-10 7.80801E-10
 -1       378-4.88904E+05-8.08903E+04-8.14241E+03-1.99994E+05 9.94532E-10 1.33241E-09
 -1       379-4.76909E+05-9.48376E+04-4.22547E+03-2.14968E+05-1.06411E-09 7.38095E-09
 -1       380-4.89371E+05-8.11680E+04-1.92351E+03-2.00037E+05-6.36646E-11-4.78906E-11
 -1       381-4.76398E+05-9.43123E+04-1.06531E+03-2.15014E+05-1.14142E-10 3.38787E-10
 -1       382-4.89416E+05-8.11985E+04-7.26848E+02-2.00043E+05-1.23691E-09 9.04492E-10
 -1       383-4.76367E+05-9.42729E+04-8.65145E+02-2.14989E+05-1.80671E-09-4.28327E-09
 -1       384-4.89374E+05-8.12139E+04-1.45413E+03-2.00047E+05 8.90850E-10-8.87212E-10
 -1       385-4.76547E+05-9.43711E+04-3.00099E+03-2.14932E+05 2.13049E-10-6.32576E-09
 -1       386-4.89152E+05-8.11526E+04-6.00325E+03-2.00040E+05 2.09047E-09-4.85670E-10
 -1       387-4.78212E+05-9.60553E+04-1.35153E+04-2.14754E+05 1.95905E-09-4.30919E-09
 -1       388-4.87662E+05-8.02454E+04-2.61831E+04-1.99893E+05 3.42152E-09 9.27685E-11
 -1       389-4.97268E+05-1.19948E+05-6.58808E+04-2.12150E+05 2.77214E-09 5.27598E-09
 -1       390-4.71572E+05-6.90683E+04-1.12302E+05-1.98100E+05-1.74532E-09 5.60249E-10
 -1       406 1.64899E+04 1.49376E+06 4.93054E+04 3.81446E+04 2.91038E-11-8.62201E-10
 -1       407 6.06930E+03 1.50402E+06 3.28035E+04 4.81599E+04 6.88487E-10-7.85803E-10
 -1       408 1.00902E+03 1.49746E+06 2.93703E+04 3.83756E+04-1.51203E-10-2.99042E-09
 -1       409 1.06141E+04 1.50773E+06 4.75302E+04 4.75450E+04 9.78616E-10 4.41105E-09
 -1       410 2.96998E+04 1.49039E+06 8.41595E+04 3.88354E+04 2.18279E-10 1.56979E-09
 -1       466 1.03183E+06-6.75628E+03 9.82949E+04-4.38816E+04 3.09228E-10 8.00355E-10
 -1       467 1.06246E+06 2.02777E+04 5.85985E+04-8.86039E+04 1.71894E-10 9.45874E-11
 -1       468 1.04486E+06-8.11397E+02 2.50413E+04-4.37389E+04-2.07365E-10-1.25692E-09
 -1       469 1.04756E+06 1.26544E+03 1.33480E+04-8.85833E+04 8.15817E-10-1.66801E-09
 -1       470 1.04582E+06-1.14633E+02 6.38743E+03-4.38781E+04-3.16504E-10-1.77806E-09
 -1       471 1.04604E+06 1.60051E+02 3.48700E+03-8.83786E+04 4.19277E-10 1.73441E-09
 -1       472 1.04587E+06 2.68079E+01 2.08328E+03-4.39449E+04 3.26736E-10-9.12223E-10
 -1       473 1.04585E+06 1.21350E+02 1.85742E+03-8.83279E+04-3.26679E-10 2.66232E-09
 -1       474 1.04588E+06 5.74357E+00 2.46206E+03-4.39290E+04 1.81899E-10 9.75206E-10
 -1       475 1.04618E+06 1.46876E+02 4.47103E+03-8.84449E+04 1.70530E-10 1.16233E-09
 -1       476 1.04582E+06-1.94447E+02 8.38946E+03-4.38274E+04 2.91038E-10 1.65039E-09
 -1       477 1.04820E+06 1.61669E+03 1.76616E+04-8.87094E+04 4.36557E-10 2.05921E-09
 -1       478 1.04453E+06-1.10167E+03 3.31893E+04-4.36626E+04 1.14596E-10-6.49379E-10
 -1       479 1.06787E+06 2.68649E+04 7.77027E+04-8.87486E+04-2.18188E-09 2.40107E-10
 -1       480 1.02721E+06-8.93695E+03 1.30382E+05-4.38284E+04-1.21508E-09-1.17143E-09
 -1       481-1.70538E+03 3.06457E+05 2.95569E+04-5.13079E+04 3.74712E-10 2.49202E-10
 -1       482 6.62015E+03 3.15383E+05 1.86300E+04-1.02951E+05-2.05603E-10 3.76167E-09
 -1       483-7.10212E+01 3.10250E+05 1.00006E+04-5.12096E+04 2.25100E-11 2.61525E-09
 -1       484 2.99604E+03 3.12834E+05 1.01127E+04-1.02882E+05 3.28328E-10 4.32919E-10
 -1       485-6.45757E+02 3.09246E+05 1.21604E+04-5.13823E+04 3.33443E-10-1.70530E-09
 -1       486-9.75286E+05-1.42997E+05-1.02440E+05-3.89536E+05 3.14685E-10-8.07631E-10
 -1       487-9.95716E+05-1.92308E+05-6.00847E+04-4.05651E+05 4.26553E-10 8.90395E-10
 -1       488-9.90056E+05-1.53084E+05-2.38851E+04-3.91063E+05-4.09273E-11 1.85719E-09
 -1       489-9.78212E+05-1.70646E+05-1.23351E+04-4.08218E+05-7.73525E-10 2.06228E-09
 -1       490-9.91479E+05-1.53851E+05-5.50803E+03-3.91144E+05-3.86535E-10-1.52886E-09
 -1       491-9.76634E+05-1.69189E+05-2.80584E+03-4.08494E+05 8.38554E-10-3.42197E-09
 -1       492-9.91709E+05-1.53863E+05-1.47274E+03-3.91115E+05 3.91083E-10 3.12639E-12
 -1       493-9.76451E+05-1.69147E+05-1.10954E+03-4.08604E+05 2.02476E-10 1.15134E-09
 -1       494-9.91748E+05-1.53832E+05-1.32080E+03-3.91098E+05 1.83036E-11-2.25100E-11
 -1       495-9.76567E+05-1.69246E+05-2.40879E+03-4.08634E+05-2.16602E-09-2.16096E-09
 -1       496-9.91608E+05-1.53766E+05-4.66062E+03-3.91092E+05 1.00408E-09 3.18369E-09
 -1       497-9.77872E+05-1.70532E+05-1.04277E+04-4.08505E+05 1.35060E-09 3.06545E-09
 -1       498-9.90453E+05-1.53076E+05-2.01642E+04-3.91000E+05 1.80307E-10-1.12595E-09
 -1       499-9.92614E+05-1.88893E+05-5.07509E+04-4.06440E+05 2.81943E-10 7.49424E-10
 -1       500-9.78024E+05-1.44508E+05-8.65103E+04-3.89677E+05-1.97360E-10 8.98581E-10
 -1       501 4.64385E+05-5.63883E+03 7.63784E+04-5.08793E+04 1.75351E-09 2.37924E-09
 -1       502 4.88529E+05 1.55603E+04 4.56024E+04-1.02063E+05 7.91260E-10 9.06766E-10
 -1       503 4.74326E+05-8.10003E+02 1.94227E+04-5.05355E+04 3.21961E-10-1.20053E-10
 -1       504 4.76531E+05 9.24483E+02 1.03813E+04-1.02303E+05-8.54925E-11-4.91127E-11
 -1       505 4.74914E+05-1.31025E+02 4.93827E+03-5.06177E+04 6.80302E-10-6.81666E-10
 -1       506 4.75073E+05 1.95061E+02 2.70335E+03-1.02167E+05 1.11322E-09 3.39651E-09
 -1       507 4.74856E+05 6.64915E+01 1.59388E+03-5.06728E+04 1.07866E-09 2.16914E-09
 -1       508 4.74775E+05 2.39934E+02 1.40164E+03-1.02102E+05 1.46770E-09 1.48111E-09
 -1       509 4.74821E+05 9.00958E+01 1.82701E+03-5.06827E+04 9.79753E-10-1.55319E-09
 -1       510 4.74981E+05 2.73542E+02 3.28848E+03-1.02126E+05 1.57161E-09-2.03863E-09
 -1       511 4.74791E+05-6.96195E+01 6.15083E+03-5.06487E+04 6.62112E-10 1.46088E-09
 -1       512 4.76554E+05 1.30595E+03 1.29416E+04-1.02221E+05 1.35333E-09 1.59457E-09
 -1       513 4.73924E+05-7.99327E+02 2.42958E+04-5.05857E+04 3.56522E-10-2.24009E-09
 -1       514 4.91198E+05 1.97165E+04 5.69290E+04-1.01991E+05-8.23093E-10-2.27465E-09
 -1       515 4.61361E+05-6.67061E+03 9.54630E+04-5.09008E+04-9.82254E-11 6.03904E-10
 -1       516-2.68487E+03 1.85171E+05 5.16523E+04-1.21348E+05 2.69210E-09 1.24328E-09
 -1       517 1.22724E+04 2.00496E+05 3.41546E+04-2.44450E+05 3.94471E-09 6.60327E-09
 -1       518 2.12153E+01 1.91536E+05 2.12601E+04-1.21125E+05 2.37060E-09 4.33647E-09
 -1       519 8.91482E+03 1.99089E+05 2.70027E+04-2.44229E+05 4.04907E-09 1.40699E-09
 -1       520-2.39345E+03 1.88147E+05 3.68793E+04-1.21585E+05 1.74168E-09-1.04046E-09
 -1       521-1.80944E+06-2.69236E+05-1.59288E+05-7.22855E+05-1.54159E-09-6.34464E-09
 -1       522-1.83566E+06-3.51145E+05-9.33898E+04-7.53938E+05 1.02955E-09 2.28283E-09
 -1       523-1.83272E+06-2.84597E+05-3.71425E+04-7.25013E+05 2.49202E-10 1.64619E-09
 -1       524-1.80828E+06-3.17787E+05-1.91612E+04-7.58537E+05-2.61934E-10-1.48793E-09
 -1       525-1.83515E+06-2.85570E+05-8.56341E+03-7.25025E+05 4.25644E-10 1.81853E-09
 -1       526-1.80574E+06-3.15687E+05-4.35407E+03-7.59312E+05 1.59298E-09 2.00816E-09
 -1       527-1.83562E+06-2.85482E+05-2.28884E+03-7.24930E+05-7.46240E-10-5.86795E-10
 -1       528-1.80544E+06-3.15673E+05-1.72956E+03-7.59595E+05-3.08592E-09-3.21643E-09
 -1       529-1.83568E+06-2.85433E+05-2.07389E+03-7.24904E+05-2.14516E-09-2.24736E-09
 -1       530-1.80566E+06-3.15767E+05-3.79530E+03-7.59518E+05 3.16277E-10 1.55251E-09
 -1       531-1.83534E+06-2.85445E+05-7.36918E+03-7.24952E+05 1.18780E-09 6.62112E-10
 -1       532-1.80781E+06-3.17627E+05-1.64747E+04-7.58959E+05-6.05723E-10-1.11231E-09
 -1       533-1.83328E+06-2.84575E+05-3.18992E+04-7.24922E+05 5.95719E-10 1.21872E-09
 -1       534-1.83133E+06-3.46313E+05-8.02400E+04-7.55044E+05-1.13232E-10 2.43745E-09
 -1       535-1.81327E+06-2.71385E+05-1.36844E+05-7.23077E+05-3.79259E-10-2.30648E-09
 -1       536 8.67086E+05-8.92007E+03 1.34478E+05-3.05753E+04-1.56433E-10-1.12777E-09
 -1       537 9.08803E+05 2.79005E+04 8.00881E+04-6.17297E+04-1.55887E-09-5.85715E-10
 -1       538 8.85097E+05-9.97686E+02 3.42418E+04-3.04293E+04 2.45564E-10 8.24002E-10
 -1       539 8.88837E+05 1.73890E+03 1.81942E+04-6.17496E+04-2.69210E-10 4.89308E-10
 -1       540 8.86535E+05-1.64080E+02 8.64466E+03-3.05259E+04 2.10093E-10-8.52197E-10
 -1       541 8.86946E+05 1.32098E+02 4.57682E+03-6.15922E+04-1.95541E-11-8.93124E-10
 -1       542 8.86661E+05-1.10288E+01 2.48356E+03-3.05879E+04-3.78350E-10-6.67796E-10
 -1       543 8.86681E+05 6.91276E+01 1.80267E+03-6.15193E+04-3.84716E-10 2.09820E-09
 -1       544 8.86662E+05 5.51767E+00 1.93512E+03-3.05992E+04 4.35421E-10 2.44654E-09
 -1       545 8.86811E+05 1.18100E+02 3.15985E+03-6.15453E+04-1.16779E-09 2.17597E-10
 -1       546 8.86582E+05-9.08164E+01 5.75325E+03-3.05618E+04 5.91172E-11 9.82482E-10
 -1       547 8.88061E+05 1.16667E+03 1.19843E+04-6.16609E+04 1.04637E-09 4.95112E-09
 -1       548 8.85653E+05-6.50243E+02 2.24971E+04-3.04829E+04-4.95675E-10 5.82077E-11
 -1       549 9.01217E+05 1.83206E+04 5.25885E+04-6.16334E+04 6.36646E-10 1.41881E-10
 -1       550 8.73852E+05-5.88214E+03 8.82656E+04-3.06038E+04-1.63163E-09 2.18643E-09
 -1       551 1.56453E+04-1.60590E+05 4.06070E+04-4.21633E+05-3.61615E-09-5.20231E-10
 -1       552 7.82770E+03-1.53263E+05 2.50284E+04-5.20581E+05-3.88900E-09 1.78989E-09
 -1       553 2.94316E+03-1.58379E+05 1.90558E+04-4.20870E+05-4.03088E-09 3.29999E-09
 -1       554 8.49025E+03-1.52783E+05 2.71035E+04-5.20591E+05-4.39832E-09 1.81899E-09
 -1       555 1.75460E+04-1.61128E+05 4.55220E+04-4.21620E+05-3.28691E-09-6.11180E-10
 -1       556-9.63142E+05-2.37419E+05-6.25971E+04-4.64879E+05-2.32285E-09 2.34286E-09
 -1       557-9.55240E+05-2.47172E+05-3.15374E+04-4.95404E+05-1.16415E-10-7.92170E-10
 -1       558-9.67126E+05-2.19892E+05-1.34168E+04-4.73344E+05 2.94676E-10 1.41245E-09
 -1       559-9.48115E+05-2.39645E+05-6.57901E+03-4.96701E+05 2.03727E-10 1.94404E-09
 -1       560-9.67795E+05-2.19241E+05-3.05656E+03-4.73795E+05 2.89219E-10 1.46838E-09
 -1       561-9.47841E+05-2.39320E+05-1.55776E+03-4.96882E+05 1.94541E-09 1.95178E-09
 -1       562-9.68017E+05-2.19190E+05-8.85741E+02-4.73880E+05 2.06455E-10-4.85670E-10
 -1       563-9.47885E+05-2.39289E+05-7.71794E+02-4.96951E+05-6.72571E-10-2.64663E-10
 -1       564-9.68026E+05-2.19172E+05-1.07416E+03-4.73889E+05-3.93698E-10-6.67569E-10
 -1       565-9.47901E+05-2.39304E+05-2.05940E+03-4.96924E+05-1.18962E-09-1.16415E-10
 -1       566-9.67815E+05-2.19184E+05-4.12659E+03-4.73823E+05-6.76664E-10 8.62201E-10
 -1       567-9.48382E+05-2.39722E+05-8.94661E+03-4.96809E+05 2.39743E-09 9.68612E-09
 -1       568-9.67051E+05-2.19959E+05-1.82456E+04-4.73265E+05-4.72937E-11-1.49885E-09
 -1       569-9.58079E+05-2.50143E+05-4.29583E+04-4.95442E+05 1.97906E-09-1.41517E-09
 -1       570-9.61977E+05-2.43535E+05-8.52086E+04-4.61610E+05-1.81899E-11 7.40329E-10
 -1       571 8.00832E+05 3.14696E+04 8.72702E+04-1.12503E+05-1.92813E-10 7.85803E-10
 -1       572 8.18698E+05 1.10897E+04 4.51672E+04-1.38168E+05-3.25053E-09 2.12913E-09
 -1       573 8.08431E+05 6.46772E+02 2.03269E+04-1.11944E+05-5.18412E-10 1.57524E-09
 -1       574 8.09791E+05 2.08418E+02 1.03905E+04-1.38693E+05 1.12414E-09-1.54614E-09
 -1       575 8.08812E+05-1.74042E+02 5.01941E+03-1.11919E+05 7.83984E-10 1.64891E-09
 -1       576 8.08923E+05-3.53652E+01 2.57899E+03-1.38718E+05 3.52884E-10 4.77849E-09
 -1       577 8.08821E+05-3.76416E+01 1.29658E+03-1.11920E+05 2.99281E-10 2.26646E-09
 -1       578 8.08826E+05-6.12042E+00 7.30635E+02-1.38722E+05 9.18590E-10 8.44011E-10
 -1       579 8.08911E+05-5.48629E+01 4.84579E+02-1.11915E+05 2.05546E-10 4.45652E-10
 -1       580 8.09004E+05-1.00992E+02 5.14045E+02-1.38740E+05-5.28416E-10 1.06775E-09
 -1       581 8.09129E+05-2.06717E+02 7.53583E+02-1.11902E+05-1.22964E-09-1.00135E-09
 -1       582 8.09465E+05-2.56814E+02 1.46705E+03-1.38722E+05-1.39516E-09 2.18279E-11
 -1       583 8.09420E+05-3.18618E+02 2.78149E+03-1.11932E+05-2.54659E-10 9.41327E-11
 -1       584 8.11210E+05 9.85351E+02 6.22275E+03-1.38063E+05-4.95493E-09-7.73980E-10
 -1       585 8.08806E+05 3.67293E+03 1.19459E+04-1.12571E+05 1.65892E-09 4.68935E-09
 -1       586 6.96075E+03 1.08251E+05 1.77550E+04-4.23858E+05 8.25457E-09 8.94943E-10
 -1       587 4.47981E+03 1.10832E+05 1.30689E+04-5.23025E+05 5.20231E-09 1.49157E-09
 -1       588 2.46012E+03 1.08184E+05 1.33749E+04-4.23023E+05 9.44056E-09 3.37150E-09
 -1       589 7.91857E+03 1.13052E+05 2.35277E+04-5.23159E+05 6.41739E-09 1.62254E-09
 -1       590 1.67251E+04 1.05241E+05 4.25442E+04-4.23704E+05 8.00537E-09-1.15506E-09
 -1       591-6.34028E+05-1.66049E+05-7.07632E+04-3.04462E+05 2.80727E-09-3.10683E-09
 -1       592-6.33633E+05-1.68750E+05-3.56893E+04-3.29285E+05 5.80258E-10-2.13822E-09
 -1       593-6.37973E+05-1.46644E+05-1.51516E+04-3.14167E+05 6.00267E-11-6.12090E-10
 -1       594-6.25523E+05-1.60035E+05-7.44543E+03-3.30143E+05-2.44654E-10 6.37897E-10
 -1       595-6.38462E+05-1.46092E+05-3.44899E+03-3.14568E+05-3.55612E-10 2.06910E-09
 -1       596-6.25024E+05-1.59717E+05-1.76525E+03-3.30125E+05 9.26775E-10-1.70303E-09
 -1       597-6.38551E+05-1.46132E+05-1.00066E+03-3.14581E+05 9.34847E-10 6.73026E-10
 -1       598-6.24967E+05-1.59720E+05-8.72218E+02-3.30099E+05-1.38243E-10 2.10730E-09
 -1       599-6.38506E+05-1.46149E+05-1.20472E+03-3.14561E+05 1.90994E-09 8.59109E-09
 -1       600-6.24975E+05-1.59743E+05-2.29915E+03-3.30064E+05 2.60115E-09 4.81214E-09
 -1       601-6.38310E+05-1.46132E+05-4.59009E+03-3.14505E+05-1.59343E-09 1.34787E-09
 -1       602-6.25590E+05-1.60187E+05-9.94943E+03-3.30033E+05 1.90994E-10-1.62072E-09
 -1       603-6.37612E+05-1.46902E+05-2.02689E+04-3.13947E+05-2.25555E-09 9.42237E-10
 -1       604-6.36399E+05-1.71848E+05-4.77305E+04-3.28852E+05 1.81080E-09 6.81030E-09
 -1       605-6.32324E+05-1.72825E+05-9.46331E+04-3.00934E+05-1.03864E-09-9.82254E-10
 -1       606 2.48288E+05-1.65662E+04-4.55098E+04 5.22647E+04-1.32059E-08 5.50244E-10
 -1       607 2.38857E+05-5.79262E+03-2.35343E+04 6.35175E+04-4.10364E-09-3.20142E-10
 -1       608 2.43997E+05-3.30048E+02-1.06149E+04 5.18064E+04 9.28776E-09-1.93177E-09
 -1       609 2.43099E+05 7.64513E+01-5.40592E+03 6.39726E+04-5.02951E-09-4.67480E-10
 -1       610 2.43541E+05 2.67778E+02-2.61146E+03 5.17753E+04-1.77897E-08-2.31557E-09
 -1       611 2.43298E+05 3.44423E+02-1.30543E+03 6.39972E+04-3.27218E-08 1.44746E-09
 -1       612 2.43385E+05 2.94893E+02-6.08584E+02 5.17777E+04-1.55505E-08 1.68257E-10
 -1       613 2.43235E+05 3.92837E+02-2.30121E+02 6.39914E+04-2.26755E-08-2.53931E-09
 -1       614 2.43292E+05 3.22837E+02 3.37036E+01 5.17797E+04-2.97496E-09 1.30376E-09
 -1       615 2.43182E+05 4.25993E+02 3.25478E+02 6.39854E+04 1.59521E-08 4.28099E-09
 -1       616 2.43227E+05 3.36472E+02 7.59757E+02 5.17828E+04-1.04883E-08-5.73436E-10
 -1       617 2.43252E+05 5.03022E+02 1.64027E+03 6.39733E+04 7.33189E-09 2.91311E-09
 -1       618 2.43112E+05 5.02279E+02 3.24228E+03 5.17904E+04 3.57164E-09 1.26693E-09
 -1       619 2.44614E+05 2.27500E+03 7.21817E+03 6.38693E+04-2.51248E-09 8.26731E-10
 -1       620 2.41853E+05 5.45462E+03 1.39560E+04 5.18629E+04 3.09069E-09-2.61480E-09
 -1       621 1.01996E+04 9.49836E+05 3.00866E+04-1.30184E+05 0.00000E+00 1.48248E-09
 -1       622 4.43682E+03 9.55865E+05 2.24011E+04-1.60311E+05 5.47516E-10 3.75803E-09
 -1       623 1.53675E+03 9.51663E+05 2.37665E+04-1.29994E+05-7.25777E-10 1.28034E-09
 -1       624 1.07480E+04 9.60783E+05 4.25758E+04-1.60268E+05 1.64346E-09-2.68074E-09
 -1       625 2.84527E+04 9.44972E+05 7.78481E+04-1.30188E+05-4.29281E-10-1.73077E-09
 -1       626 4.27116E+05 1.05066E+05-1.49184E+04 2.27527E+05-5.03678E-09-1.17434E-08
 -1       627 4.13553E+05 1.18138E+05-7.51024E+03 2.37703E+05-1.37607E-08-7.12896E-09
 -1       628 4.26506E+05 1.08836E+05-3.20316E+03 2.24965E+05 8.44011E-10-1.73804E-09
 -1       629 4.14689E+05 1.20432E+05-1.55302E+03 2.37859E+05 1.31477E-08 3.48518E-09
 -1       630 4.26304E+05 1.09003E+05-6.99748E+02 2.24777E+05 1.30985E-08 5.77893E-09
 -1       631 4.14646E+05 1.20568E+05-2.92462E+02 2.37793E+05-2.19588E-08 2.31154E-09
 -1       632 4.26189E+05 1.09047E+05-4.59762E+01 2.24720E+05-4.44197E-09-7.66818E-10
 -1       633 4.14589E+05 1.20596E+05 1.77782E+02 2.37735E+05 7.80938E-09-9.16771E-10
 -1       634 4.26121E+05 1.09057E+05 4.87829E+02 2.24692E+05 2.00307E-08 4.62069E-09
 -1       635 4.14607E+05 1.20602E+05 1.11051E+03 2.37731E+05 1.29394E-08 3.30829E-09
 -1       636 4.26068E+05 1.09015E+05 2.30037E+03 2.24690E+05 1.05156E-08-1.52068E-09
 -1       637 4.15012E+05 1.20796E+05 5.03888E+03 2.37800E+05 7.40238E-09-2.76304E-09
 -1       638 4.25838E+05 1.09322E+05 1.02661E+04 2.24473E+05 3.07728E-09-8.50014E-09
 -1       639 4.20687E+05 1.26636E+05 2.42063E+04 2.37339E+05-5.74846E-09 2.22644E-09
 -1       640 4.23341E+05 1.22391E+05 4.79783E+04 2.17974E+05-9.33142E-10-1.39153E-09
 -1       641 1.17575E+04 6.11596E+02-9.07509E+03 3.59811E+03-1.31696E-08 8.11269E-10
 -1       642 8.92291E+03-1.84564E+03-5.40147E+03 7.18698E+03-1.10369E-08-3.37536E-09
 -1       643 1.05314E+04 8.44320E+01-2.30637E+03 3.57734E+03-1.38256E-08 3.28794E-09
 -1       644 1.02506E+04-6.99800E+01-1.21541E+03 7.20465E+03-6.19868E-09 7.70569E-10
 -1       645 1.04269E+04 3.44079E+01-5.60721E+02 3.57625E+03 2.42914E-09 4.01769E-10
 -1       646 1.03682E+04 4.42666E+01-2.61549E+02 7.20561E+03-8.92574E-09-8.53277E-10
 -1       647 1.04137E+04 2.63700E+01-7.53617E+01 3.57615E+03 1.64905E-08 1.37396E-09
 -1       648 1.03897E+04 5.09955E+01 6.69410E+01 7.20595E+03 4.26828E-08-2.05347E-10
 -1       649 1.04080E+04 2.13785E+01 2.39372E+02 3.57591E+03 2.16577E-08 3.45943E-09
 -1       650 1.04237E+04 6.30484E+01 5.49229E+02 7.20598E+03 9.86881E-09 5.50585E-10
 -1       651 1.03850E+04 5.98098E+00 1.09667E+03 3.57614E+03-3.15936E-09-9.72364E-10
 -1       652 1.06514E+04 2.79756E+02 2.33878E+03 7.20434E+03 7.72752E-09 9.66679E-10
 -1       653 1.01882E+04-9.21166E+01 4.41992E+03 3.57719E+03 1.24567E-08-1.08525E-09
 -1       654 1.32016E+04 3.67484E+03 1.03431E+04 7.15986E+03-2.11548E-08-2.70165E-09
 -1       655 7.84571E+03-1.10467E+03 1.73729E+04 3.61346E+03 9.84392E-09 1.65528E-10
 -1       656 2.65881E+03-4.02476E+05-5.08634E+04 6.66073E+04-1.84154E-08 1.60435E-09
 -1       657-1.15221E+04-4.17863E+05-3.43103E+04 1.32888E+05-9.68078E-09 1.18234E-09
 -1       658 2.37081E+02-4.08773E+05-2.27911E+04 6.63253E+04-1.87688E-08-1.03500E-09
 -1       659-1.01155E+04-4.17086E+05-3.11691E+04 1.33055E+05-8.42329E-09 4.99617E-09
 -1       660 2.40110E+03-4.03647E+05-4.44145E+04 6.64499E+04-1.44610E-08-1.16052E-09
 -1       661 3.44502E+05 4.94672E+04 2.62333E+04 1.34658E+05 8.36280E-10-1.40408E-08
 -1       662 3.50993E+05 6.08566E+04 1.53899E+04 1.37350E+05 4.86710E-09-4.14730E-10
 -1       663 3.48211E+05 5.21174E+04 6.11885E+03 1.35112E+05 1.01562E-08 3.13207E-09
 -1       664 3.46566E+05 5.52424E+04 3.16986E+03 1.37891E+05-6.04564E-09-6.00733E-09
 -1       665 3.48540E+05 5.23484E+04 1.42478E+03 1.35154E+05-1.00417E-08-2.92800E-09
 -1       666 3.46179E+05 5.48405E+04 7.52504E+02 1.37906E+05-2.22960E-08-1.74272E-09
 -1       667 3.48579E+05 5.23698E+04 4.42826E+02 1.35156E+05-4.90604E-09 4.56851E-10
 -1       668 3.46142E+05 5.48219E+04 4.26689E+02 1.37913E+05-1.76381E-08 1.07818E-09
 -1       669 3.48580E+05 5.23608E+04 6.27462E+02 1.35150E+05 1.16448E-08 7.74116E-09
 -1       670 3.46203E+05 5.48821E+04 1.24788E+03 1.37936E+05 1.36939E-08-2.08939E-09
 -1       671 3.48523E+05 5.23079E+04 2.46543E+03 1.35135E+05-1.65119E-08-2.71348E-09
 -1       672 3.46871E+05 5.56065E+04 5.54604E+03 1.37940E+05 2.12790E-08 1.80478E-09
 -1       673 3.47956E+05 5.18905E+04 1.07281E+04 1.35054E+05 4.72016E-09 3.86945E-09
 -1       674 3.54647E+05 6.54585E+04 2.70034E+04 1.36995E+05-1.86428E-08 9.32232E-11
 -1       675 3.41439E+05 4.72487E+04 4.60334E+04 1.34270E+05 1.72190E-08-1.90084E-09
 -1       676 1.12607E+03-3.60160E+05-1.89890E+04 8.08814E+03 1.64055E-08-1.78397E-09
 -1       677-4.14017E+03-3.65985E+05-1.35762E+04 1.51161E+04 1.05993E-08-6.12067E-09
 -1       678 2.20767E+02-3.62305E+05-1.03372E+04 8.04388E+03 1.88953E-08 3.30215E-09
 -1       679-5.20760E+03-3.66795E+05-1.61287E+04 1.51664E+04-3.43334E-09-4.66093E-09
 -1       680 1.48220E+03-3.59364E+05-2.41906E+04 8.03640E+03 9.54969E-09 2.14300E-11
 -1       681 4.61129E+05-1.77330E+03 2.52929E+04-2.11628E+04-7.27596E-12 7.91260E-11
 -1       682 4.69029E+05 5.18802E+03 1.50871E+04-4.26008E+04 1.30967E-10-7.89896E-10
 -1       683 4.64479E+05-2.33826E+02 6.44565E+03-2.10290E+04 1.73713E-10-1.73713E-10
 -1       684 4.65180E+05 2.96302E+02 3.44746E+03-4.26961E+04-6.04814E-11-1.37334E-10
 -1       685 4.64716E+05-4.81105E+01 1.66609E+03-2.10633E+04 1.50067E-10 5.32054E-10
 -1       686 4.64772E+05 2.01554E+01 9.50141E+02-4.26397E+04 1.50521E-10 1.27056E-09
 -1       687 4.64719E+05-4.37502E+00 6.40132E+02-2.10856E+04 2.22826E-11 6.81439E-10
 -1       688 4.64710E+05 2.20508E+01 6.93868E+02-4.26116E+04-8.41283E-12 5.22959E-11
 -1       689 4.64703E+05-3.83182E+00 1.05985E+03-2.10914E+04-8.03766E-11-6.74731E-10
 -1       690 4.64810E+05 6.21929E+01 2.02720E+03-4.26186E+04-9.59517E-11-5.12614E-10
 -1       691 4.64636E+05-6.42678E+01 3.87199E+03-2.10785E+04 1.45519E-10-4.78138E-10
 -1       692 4.65642E+05 7.94438E+02 8.16673E+03-4.26534E+04-4.72937E-11 5.84123E-10
 -1       693 4.63982E+05-4.31628E+02 1.53840E+04-2.10564E+04-6.00267E-11 3.22871E-10
 -1       694 4.74598E+05 1.25614E+04 3.59842E+04-4.25597E+04-7.82165E-10 5.75255E-10
 -1       695 4.55881E+05-3.99314E+03 6.04173E+04-2.11797E+04-5.58430E-10-4.83851E-10
 -1       696-1.95251E+03 5.29866E+05 3.14049E+04-4.26402E+04 6.91216E-11 1.54159E-10
 -1       697 6.78475E+03 5.39392E+05 1.76146E+04-8.52019E+04 1.44041E-10 4.73051E-10
 -1       698-1.17839E+01 5.34279E+05 5.34622E+03-4.25465E+04-7.48059E-11 1.73418E-09
 -1       699-1.55447E+03 5.33182E+05-2.25354E+03-8.51891E+04-1.99009E-10 7.78982E-10
 -1       700 7.32914E+02 5.36149E+05-9.11437E+03-4.26592E+04-1.00044E-10 1.60071E-09
 -1       701-4.33730E+05-6.40213E+04-6.33737E+04-1.76623E+05-5.82077E-11-1.48430E-09
 -1       702-4.46727E+05-9.42062E+04-3.71733E+04-1.86249E+05-3.27418E-10-1.01454E-09
 -1       703-4.42822E+05-7.03023E+04-1.47782E+04-1.77604E+05-5.54792E-11-1.08230E-10
 -1       704-4.35942E+05-8.07510E+04-7.63639E+03-1.87739E+05 1.87356E-09 2.12367E-09
 -1       705-4.43664E+05-7.08156E+04-3.41245E+03-1.77681E+05 7.27596E-11-4.72028E-10
 -1       706-4.34996E+05-7.98099E+04-1.74591E+03-1.87844E+05-6.17547E-10 7.97968E-10
 -1       707-4.43783E+05-7.08454E+04-9.29328E+02-1.77679E+05-1.09139E-11-1.73145E-10
 -1       708-4.34899E+05-7.97654E+04-7.23977E+02-1.87882E+05 6.48015E-12 2.39595E-10
 -1       709-4.43800E+05-7.08305E+04-8.92807E+02-1.77673E+05-5.54792E-11-1.29376E-10
 -1       710-4.34981E+05-7.98351E+04-1.65341E+03-1.87908E+05-3.72836E-10-5.19549E-10
 -1       711-4.43717E+05-7.07721E+04-3.21111E+03-1.77662E+05-6.10072E-11-9.95897E-11
 -1       712-4.35864E+05-8.07498E+04-7.19194E+03-1.87871E+05-1.08685E-10 1.56888E-11
 -1       713-4.42955E+05-7.02607E+04-1.39046E+04-1.77576E+05-6.48583E-11 3.25599E-10
 -1       714-4.45977E+05-9.34786E+04-3.49978E+04-1.86562E+05 3.40734E-10 3.56067E-10
 -1       715-4.34449E+05-6.42897E+04-5.96500E+04-1.76609E+05-1.37334E-10 8.84029E-10
 -1       716 3.87908E+05-3.69450E+03 5.38324E+04-3.52004E+04 6.93035E-10 4.52928E-10
 -1       717 4.04669E+05 1.11695E+04 3.21002E+04-7.04799E+04-2.91038E-11-9.20409E-10
 -1       718 3.95027E+05-4.16227E+02 1.37169E+04-3.49851E+04 4.54747E-11 1.08867E-09
 -1       719 3.96484E+05 7.59952E+02 7.32002E+03-7.06558E+04-2.06001E-10 2.00998E-09
 -1       720 3.95541E+05-2.80299E+01 3.51874E+03-3.50173E+04 1.05501E-09-1.43245E-10
 -1       721 3.95644E+05 1.56690E+02 1.95228E+03-7.06072E+04 1.02773E-09-7.18501E-11
 -1       722 3.95570E+05 4.73522E+01 1.22539E+03-3.50342E+04 1.12095E-09 2.56932E-11
 -1       723 3.95562E+05 1.29791E+02 1.18976E+03-7.05984E+04 6.63931E-10 3.47882E-11
 -1       724 3.95580E+05 2.31654E+01 1.68549E+03-3.50261E+04 6.37101E-10-8.95852E-11
 -1       725 3.95808E+05 1.44118E+02 3.14695E+03-7.06408E+04 1.69121E-09-1.15756E-09
 -1       726 3.95536E+05-1.20561E+02 5.95058E+03-3.49917E+04 6.12090E-10 4.08704E-11
 -1       727 3.97239E+05 1.19469E+03 1.25587E+04-7.07216E+04 1.78261E-10 2.36582E-10
 -1       728 3.94617E+05-7.61141E+02 2.36144E+04-3.49442E+04-1.89175E-10-1.01045E-09
 -1       729 4.11226E+05 1.91893E+04 5.53099E+04-7.05239E+04-8.08541E-10-1.27329E-10
 -1       730 3.82277E+05-6.33859E+03 9.28092E+04-3.52098E+04-5.03860E-10-1.58616E-09
 -1       731-2.13798E+03 1.91205E+05 3.52558E+04-8.02620E+04 1.11504E-09-1.00772E-09
 -1       732 7.82874E+03 2.01858E+05 2.13598E+04-1.61639E+05 2.26578E-09-9.23933E-10
 -1       733-4.68341E+01 1.95827E+05 9.79816E+03-8.00744E+04 1.29967E-09 1.37288E-09
 -1       734 1.65019E+03 1.97466E+05 6.80505E+03-1.61569E+05 2.00816E-09 1.91676E-09
 -1       735-2.98491E+02 1.95941E+05 5.53594E+03-8.03356E+04 7.58973E-10 1.13687E-09
 -1       736-9.66354E+05-1.38150E+05-8.48609E+04-3.78764E+05-1.74623E-10-1.17507E-09
 -1       737-9.85482E+05-1.76857E+05-4.97814E+04-3.89664E+05 3.46517E-10-3.22871E-10
 -1       738-9.78526E+05-1.46566E+05-1.97784E+04-3.80056E+05-2.04636E-11 4.54747E-11
 -1       739-9.70995E+05-1.58861E+05-1.02197E+04-3.91688E+05 4.72028E-10-1.21941E-09
 -1       740-9.79670E+05-1.47236E+05-4.55586E+03-3.80130E+05 1.09594E-10-5.08635E-10
 -1       741-9.69681E+05-1.57634E+05-2.31909E+03-3.91859E+05 4.60886E-10-7.53857E-10
 -1       742-9.79839E+05-1.47270E+05-1.20664E+03-3.80112E+05-1.45747E-10-9.92259E-10
 -1       743-9.69527E+05-1.57587E+05-8.92302E+02-3.91916E+05-1.02432E-09-1.50520E-09
 -1       744-9.79860E+05-1.47255E+05-1.03820E+03-3.80100E+05-7.59428E-10-7.27937E-10
 -1       745-9.69616E+05-1.57659E+05-1.87282E+03-3.91930E+05 2.54374E-11 7.74889E-10
 -1       746-9.79754E+05-1.47204E+05-3.61179E+03-3.80097E+05 4.49063E-10 6.37556E-10
 -1       747-9.70633E+05-1.58656E+05-8.07533E+03-3.91841E+05-2.70234E-10 3.33785E-10
 -1       748-9.78868E+05-1.46658E+05-1.56090E+04-3.80026E+05 8.04221E-10 5.35692E-10
 -1       749-9.82051E+05-1.72882E+05-3.92910E+04-3.90278E+05 1.53477E-11 3.75621E-10
 -1       750-9.69273E+05-1.40005E+05-6.69720E+04-3.78999E+05-1.30967E-10-2.47383E-10
 -1       751 1.19538E+06-1.12538E+04 1.70748E+05-3.28385E+04-2.69210E-10 9.89530E-10
 -1       752 1.24828E+06 3.54455E+04 1.01672E+05-6.65214E+04-1.26147E-09-2.06637E-09
 -1       753 1.21827E+06-1.23696E+03 4.34914E+04-3.27365E+04-1.07320E-10 3.60160E-10
 -1       754 1.22299E+06 2.22439E+03 2.31171E+04-6.64454E+04 1.26875E-10 1.37561E-09
 -1       755 1.22012E+06-1.97004E+02 1.10124E+04-3.28763E+04 4.01997E-10-9.00400E-11
 -1       756 1.22063E+06 1.68385E+02 5.87551E+03-6.62255E+04-6.18456E-11-1.67961E-09
 -1       757 1.22029E+06-1.60264E+01 3.28015E+03-3.29580E+04-4.14730E-10 6.17092E-10
 -1       758 1.22033E+06 7.79785E+01 2.54453E+03-6.61371E+04-1.21162E-10 7.51925E-10
 -1       759 1.22029E+06-7.17793E+00 2.95904E+03-3.29651E+04 4.69754E-10-5.54792E-10
 -1       760 1.22056E+06 1.58232E+02 5.04641E+03-6.61950E+04-8.76753E-10 2.00725E-09
 -1       761 1.22015E+06-1.56632E+02 9.32024E+03-3.28999E+04-3.45608E-10-2.21007E-10
 -1       762 1.22255E+06 1.88602E+03 1.94843E+04-6.63885E+04 2.29193E-10 1.23327E-09
 -1       763 1.21860E+06-1.03806E+03 3.66198E+04-3.27702E+04 4.18368E-11 9.54969E-10
 -1       764 1.24386E+06 2.98387E+04 8.55884E+04-6.64560E+04 3.78350E-10 4.09273E-10
 -1       765 1.19934E+06-9.48703E+03 1.43709E+05-3.28609E+04-1.52068E-09 1.67347E-10
 -1       766-5.97091E+03 4.00621E+05 9.82816E+04-6.10272E+04 2.66664E-09-2.87309E-09
 -1       767 2.11778E+04 4.30912E+05 6.57192E+04-1.22684E+05 3.67800E-09-2.25077E-09
 -1       768-9.61774E+02 4.12611E+05 4.24722E+04-6.09556E+04 2.22440E-09 1.41699E-09
 -1       769 1.70929E+04 4.28334E+05 5.63465E+04-1.22529E+05 2.25555E-09 1.62981E-09
 -1       770-4.99327E+03 4.03884E+05 7.90785E+04-6.12009E+04 1.11322E-09 2.11003E-09
 -1       771-1.70209E+06-3.34496E+05-1.36492E+05-6.96199E+05-9.14952E-10 7.05768E-10
 -1       772-1.71379E+06-3.27192E+05-6.88455E+04-7.29625E+05-4.01087E-10 2.41016E-10
 -1       773-1.70945E+06-2.97287E+05-2.92164E+04-7.15019E+05 4.87489E-10 1.02591E-09
 -1       774-1.69819E+06-3.10283E+05-1.43443E+04-7.31116E+05 8.34007E-10-8.73570E-10
 -1       775-1.71039E+06-2.96211E+05-6.62311E+03-7.15766E+05-2.92857E-10 1.42609E-09
 -1       776-1.69722E+06-3.09691E+05-3.33715E+03-7.31134E+05-4.77485E-10 1.69783E-09
 -1       777-1.71064E+06-2.96247E+05-1.78896E+03-7.15805E+05 7.91260E-11-3.51974E-10
 -1       778-1.69716E+06-3.09688E+05-1.37241E+03-7.31184E+05 3.69710E-09 5.29008E-09
 -1       779-1.71069E+06-2.96217E+05-1.67914E+03-7.15820E+05-6.59384E-11-3.55158E-10
 -1       780-1.69727E+06-3.09685E+05-3.05479E+03-7.31238E+05-1.30471E-09-1.65528E-09
 -1       781-1.71055E+06-2.96130E+05-6.01514E+03-7.15813E+05-4.85670E-10-1.36424E-11
 -1       782-1.69820E+06-3.10225E+05-1.30223E+04-7.31321E+05 2.80124E-10 1.92267E-09
 -1       783-1.70978E+06-2.97045E+05-2.65052E+04-7.15154E+05-4.18368E-11 4.00178E-11
 -1       784-1.71235E+06-3.25648E+05-6.24916E+04-7.30129E+05 7.45786E-11-4.00178E-10
 -1       785-1.70318E+06-3.30747E+05-1.23872E+05-6.98049E+05 6.31871E-10 7.93079E-10
 -1       786 8.40654E+05-7.19917E+03 1.09409E+05-2.52402E+04 8.71296E-10-6.07542E-10
 -1       787 8.74532E+05 2.27216E+04 6.51502E+04-5.11759E+04-5.90717E-10-4.62569E-09
 -1       788 8.55340E+05-7.83964E+02 2.78650E+04-2.51282E+04-9.16771E-10 1.47884E-09
 -1       789 8.58360E+05 1.40960E+03 1.47964E+04-5.12056E+04 4.64297E-10 2.09684E-09
 -1       790 8.56539E+05-1.31200E+02 7.02907E+03-2.51895E+04 4.03361E-10 5.93445E-10
 -1       791 8.56876E+05 7.54537E+01 3.70343E+03-5.11164E+04 6.88260E-10 7.56359E-10
 -1       792 8.56665E+05-2.66713E+01 1.98312E+03-2.52179E+04 4.15525E-10 1.92540E-09
 -1       793 8.56701E+05 2.63678E+00 1.38674E+03-5.10993E+04-5.22675E-10-1.70076E-10
 -1       794 8.56686E+05-2.71535E+01 1.41641E+03-2.52069E+04 1.50067E-11-2.04636E-11
 -1       795 8.56823E+05 1.93013E+01 2.24914E+03-5.11622E+04 1.16324E-09 9.40076E-10
 -1       796 8.56647E+05-1.08720E+02 4.05076E+03-2.51548E+04-9.94987E-10-7.99133E-10
 -1       797 8.57736E+05 7.38568E+02 8.42537E+03-5.12932E+04-9.56788E-10 2.13609E-09
 -1       798 8.56011E+05-5.16365E+02 1.57983E+04-2.50753E+04-8.11269E-10 5.18867E-10
 -1       799 8.67016E+05 1.27742E+04 3.69442E+04-5.12760E+04-4.34102E-09-2.28692E-09
 -1       800 8.47735E+05-4.20985E+03 6.19877E+04-2.51869E+04 1.13323E-09 2.21189E-09
 -1       801-2.31726E+03 1.43424E+05 4.57182E+04-3.34671E+05 4.21278E-09-4.26735E-09
 -1       802 1.52340E+04 1.54433E+05 3.59569E+04-6.74068E+05 1.65128E-08-3.56795E-09
 -1       803 1.89546E+03 1.45908E+05 3.13649E+04-3.33738E+05 9.04765E-09 2.93130E-09
 -1       804 2.25345E+04 1.61096E+05 5.42938E+04-6.73963E+05 1.16852E-08-1.92085E-09
 -1       805-5.55395E+03 1.38442E+05 8.29213E+04-3.34786E+05 7.94898E-09 4.83124E-09
 -1       806-1.00964E+06-2.23317E+05-8.76730E+04-4.42731E+05 2.95506E-09-3.07045E-09
 -1       807-1.01241E+06-2.23404E+05-4.42218E+04-4.69701E+05 7.63976E-10-1.12095E-09
 -1       808-1.01444E+06-1.99357E+05-1.87678E+04-4.54796E+05 8.64020E-10-3.96540E-10
 -1       809-1.00238E+06-2.12563E+05-9.21999E+03-4.70685E+05 1.38607E-09-1.02801E-09
 -1       810-1.01503E+06-1.98684E+05-4.26395E+03-4.55282E+05 3.63798E-10-2.58183E-10
 -1       811-1.00175E+06-2.12175E+05-2.16890E+03-4.70657E+05 5.16593E-10-1.62709E-09
 -1       812-1.01514E+06-1.98733E+05-1.20188E+03-4.55297E+05 9.99989E-10-2.70802E-09
 -1       813-1.00168E+06-2.12177E+05-9.99566E+02-4.70632E+05-6.37783E-11-4.81123E-10
 -1       814-1.01511E+06-1.98749E+05-1.32405E+03-4.55283E+05-4.13365E-10 1.89084E-09
 -1       815-1.00171E+06-2.12190E+05-2.48790E+03-4.70599E+05 8.51742E-10-1.75714E-09
 -1       816-1.01491E+06-1.98725E+05-4.94507E+03-4.55238E+05-2.50657E-09 2.31739E-09
 -1       817-1.00240E+06-2.12651E+05-1.07134E+04-4.70576E+05-3.18323E-11 1.13232E-09
 -1       818-1.01418E+06-1.99544E+05-2.18199E+04-4.54657E+05-2.72848E-10-2.05546E-10
 -1       819-1.01406E+06-2.25226E+05-5.13982E+04-4.69358E+05-3.42880E-10 4.91127E-10
 -1       820-1.00856E+06-2.27406E+05-1.01902E+05-4.40630E+05-1.25328E-09 3.05954E-09
 -1       821-5.46014E+05 4.60431E+03-7.14276E+04 1.49198E+04-1.23746E-08 5.52973E-10
 -1       822-5.68054E+05-1.48303E+04-4.25196E+04 3.09015E+04-5.96674E-09-4.66571E-09
 -1       823-5.55700E+05 4.89506E+02-1.82057E+04 1.46706E+04 1.08357E-08-2.89128E-09
 -1       824-5.57706E+05-8.12308E+02-9.65576E+03 3.11972E+04-2.71984E-09-3.49223E-09
 -1       825-5.56557E+05 1.32333E+02-4.60760E+03 1.46086E+04-1.59571E-08-1.10958E-09
 -1       826-5.56870E+05 1.26236E+02-2.44124E+03 3.12941E+04-3.00242E-08-1.05547E-09
 -1       827-5.56682E+05 1.04283E+02-1.35368E+03 1.45714E+04-1.36192E-08 3.30988E-09
 -1       828-5.56820E+05 2.03096E+02-1.02379E+03 3.13514E+04-1.65419E-08 2.64720E-09
 -1       829-5.56702E+05 1.15967E+02-1.16601E+03 1.45506E+04-2.44404E-09 6.73595E-10
 -1       830-5.56910E+05 1.72940E+02-1.96606E+03 3.13745E+04 1.93570E-08-4.27121E-09
 -1       831-5.56631E+05 1.59349E+02-3.62738E+03 1.45482E+04-7.71979E-09-1.68143E-10
 -1       832-5.57613E+05-5.36855E+02-7.57458E+03 3.13588E+04-2.81409E-09 2.87343E-10
 -1       833-5.55981E+05 4.58297E+02-1.42527E+04 1.45676E+04-2.35832E-09 1.16370E-09
 -1       834-5.65764E+05-1.14978E+04-3.33046E+04 3.12220E+04-6.81234E-09-4.26689E-09
 -1       835-5.48412E+05 3.69762E+03-5.59303E+04 1.47059E+04 4.32510E-09 3.63798E-12
 -1       836-5.26033E+03 1.09654E+06 9.14280E+04-1.33188E+05 1.09503E-08 2.40107E-09
 -1       837 2.10006E+04 1.12403E+06 6.61688E+04-2.65420E+05 1.51936E-08-2.08593E-09
 -1       838-5.48760E+02 1.10632E+06 5.14977E+04-1.32923E+05 1.21272E-08 2.49759E-09
 -1       839 2.75595E+04 1.12887E+06 8.17627E+04-2.65414E+05 1.57561E-08-2.97996E-09
 -1       840-7.32600E+03 1.09158E+06 1.23261E+05-1.33186E+05 9.80799E-09 5.92991E-10
 -1       841-4.82535E+04 6.14949E+03-2.20795E+04-4.30491E+03-4.66753E-09 2.14186E-09
 -1       842-6.70317E+04 9.98725E+03-1.29334E+04 8.60098E+03 3.43061E-09-8.68567E-11
 -1       843-5.12845E+04 3.82707E+03-5.15271E+03-4.86320E+03-5.75619E-09-1.67665E-09
 -1       844-6.35355E+04 1.48751E+04-2.64686E+03 8.25379E+03 1.34714E-08-2.56972E-09
 -1       845-5.15805E+04 3.65036E+03-1.17069E+03-4.93259E+03 2.08820E-09-4.15946E-09
 -1       846-6.32836E+04 1.52483E+04-5.57229E+02 8.22151E+03-1.40624E-08-3.08961E-09
 -1       847-5.16305E+04 3.64340E+03-2.20545E+02-4.95609E+03-4.11092E-09-2.78811E-09
 -1       848-6.32819E+04 1.52930E+04-2.59466E+01 8.21000E+03 1.74477E-08 4.35172E-09
 -1       849-5.16492E+04 3.64412E+03 1.51604E+02-4.96769E+03 1.29264E-08 9.04191E-09
 -1       850-6.32597E+04 1.53213E+04 4.32808E+02 8.20975E+03-2.03897E-09-4.77712E-10
 -1       851-5.16761E+04 3.62628E+03 9.17941E+02-4.97112E+03-9.55083E-09-7.31802E-09
 -1       852-6.29821E+04 1.55841E+04 2.09992E+03 8.20696E+03-3.55919E-09-5.35510E-09
 -1       853-5.18910E+04 3.46600E+03 4.07093E+03-4.98659E+03-1.20958E-08 1.85082E-10
 -1       854-5.99142E+04 1.92472E+04 1.02660E+04 7.78563E+03 2.10434E-09-7.19865E-09
 -1       855-5.44167E+04 1.74847E+03 1.74899E+04-5.19296E+03-4.51155E-09-8.86212E-09
 -1       856-3.07702E+05 2.17133E+03-3.28860E+04 1.30239E+04-1.73268E-08-2.58296E-10
 -1       857-3.17906E+05-6.71230E+03-1.95734E+04 2.69954E+04-1.01427E-08-2.62844E-09
 -1       858-3.12166E+05 2.84330E+02-8.37892E+03 1.28733E+04-1.13369E-08-2.62844E-10
 -1       859-3.13151E+05-2.55834E+02-4.44162E+03 2.71586E+04 2.63299E-09-1.25715E-09
 -1       860-3.12563E+05 1.21597E+02-2.11247E+03 1.28482E+04 2.76714E-09 1.90994E-11
 -1       861-3.12766E+05 1.75887E+02-1.10927E+03 2.71918E+04-1.29577E-08 5.05906E-10
 -1       862-3.12619E+05 1.06622E+02-5.93518E+02 1.28388E+04 1.43068E-08 1.81899E-09
 -1       863-3.12732E+05 2.07149E+02-4.13437E+02 2.72024E+04 4.39948E-08-3.84193E-09
 -1       864-3.12624E+05 1.05708E+02-4.23351E+02 1.28375E+04 1.60952E-08-1.36185E-09
 -1       865-3.12745E+05 1.90327E+02-6.71882E+02 2.71960E+04 1.81413E-08-2.49770E-09
 -1       866-3.12592E+05 1.11588E+02-1.21727E+03 1.28453E+04 9.29049E-10-9.34108E-10
 -1       867-3.12952E+05-5.85097E+01-2.52424E+03 2.71686E+04 3.25372E-10-2.92113E-09
 -1       868-3.12361E+05 1.97846E+02-4.74851E+03 1.28657E+04 8.47513E-09-1.02557E-09
 -1       869-3.15623E+05-3.72078E+03-1.10791E+04 2.70180E+04-1.03682E-09-2.14567E-09
 -1       870-3.09825E+05 1.25603E+03-1.86167E+04 1.30035E+04 1.97560E-08-8.34916E-10
 -1       871-4.06972E+03-4.88260E+04-7.94961E+03 1.53049E+05 3.71892E-09-1.91721E-09
 -1       872-2.00832E+03-5.03522E+04-2.31750E+03 1.88866E+05 5.83532E-09-2.27465E-09
 -1       873-6.37880E+02-4.99272E+04 2.51875E+03 1.52762E+05-3.98813E-09-7.33280E-10
 -1       874 1.62584E+03-4.75952E+04 9.20814E+03 1.88917E+05-9.73159E-10-1.53182E-09
 -1       875 6.40085E+03-5.16824E+04 1.93341E+04 1.53040E+05-7.30688E-09 2.44563E-09
 -1       876 4.11333E+05 6.22560E+04 3.99762E+04 1.66396E+05 1.15028E-09-4.48745E-09
 -1       877 4.17876E+05 8.30039E+04 2.34549E+04 1.74331E+05 1.14346E-09-2.04636E-09
 -1       878 4.17005E+05 6.62749E+04 9.31965E+03 1.67045E+05-2.41471E-10 1.04455E-09
 -1       879 4.11088E+05 7.44697E+04 4.82529E+03 1.75155E+05-6.48674E-09-1.18598E-09
 -1       880 4.17482E+05 6.66494E+04 2.15764E+03 1.67117E+05-1.72654E-08-3.41993E-09
 -1       881 4.10508E+05 7.38351E+04 1.12026E+03 1.75133E+05-3.34986E-08 2.91038E-10
 -1       882 4.17523E+05 6.67022E+04 6.19948E+02 1.67131E+05-1.08998E-08 5.80654E-09
 -1       883 4.10459E+05 7.37843E+04 5.30978E+02 1.75109E+05-2.18018E-08 9.26400E-09
 -1       884 4.17516E+05 6.67045E+04 7.13110E+02 1.67133E+05 7.70207E-09 1.88143E-08
 -1       885 4.10532E+05 7.38388E+04 1.36897E+03 1.75120E+05 1.69659E-08 1.00094E-08
 -1       886 4.17452E+05 6.66495E+04 2.68145E+03 1.67120E+05-8.71012E-09-7.16227E-09
 -1       887 4.11263E+05 7.46206E+04 6.01805E+03 1.75125E+05 2.33376E-08 5.26370E-09
 -1       888 4.16843E+05 6.61923E+04 1.16346E+04 1.67034E+05 1.85685E-08-8.64020E-11
 -1       889 4.19721E+05 8.52884E+04 2.92826E+04 1.74097E+05 2.60698E-09 5.23778E-09
 -1       890 4.09770E+05 6.11642E+04 4.99137E+04 1.66201E+05 9.39326E-09 4.72937E-10
 -1       891 1.96917E+02-1.97823E+05-8.47968E+03 5.33633E+04 1.27475E-08 5.56611E-10
 -1       892-2.35810E+03-2.00180E+05-6.16569E+03 1.07047E+05 3.38605E-09-3.19574E-09
 -1       893-1.43862E+02-1.98810E+05-4.90134E+03 5.32111E+04 9.95533E-09-3.98927E-10
 -1       894-3.10346E+03-2.00702E+05-7.91506E+03 1.07022E+05 7.87077E-09-2.78851E-09
 -1       895 4.13289E+02-1.97248E+05-1.20523E+04 5.33858E+04 7.60156E-09 5.48698E-09
 -1       896 7.65852E+05-8.15146E+02 1.13077E+04-1.45350E+04 3.54703E-11-1.30376E-09
 -1       897 7.69358E+05 2.29946E+03 6.75166E+03-2.95107E+04 2.18279E-11-7.11452E-10
 -1       898 7.67344E+05-1.19852E+02 2.88694E+03-1.44668E+04 1.52795E-10-7.20320E-10
 -1       899 7.67621E+05 1.18582E+02 1.55727E+03-2.95256E+04 1.81899E-10-1.71894E-10
 -1       900 7.67443E+05-3.11193E+01 7.73275E+02-1.45186E+04-4.04725E-11-1.13687E-11
 -1       901 7.67427E+05 1.65198E+00 4.86669E+02-2.94383E+04-2.59206E-11 1.36083E-10
 -1       902 7.67437E+05-7.47648E+00 4.06909E+02-1.45541E+04-2.15095E-10 1.80080E-10
 -1       903 7.67396E+05 9.30665E+00 5.59065E+02-2.93865E+04-6.18456E-11 2.32376E-10
 -1       904 7.67417E+05-7.45156E+00 9.63025E+02-1.45705E+04 8.07177E-11 2.55511E-10
 -1       905 7.67481E+05 5.56714E+01 1.91406E+03-2.93748E+04 1.41512E-10-7.40670E-11
 -1       906 7.67339E+05-5.45633E+01 3.69613E+03-1.45658E+04 2.04636E-10 2.20552E-10
 -1       907 7.68238E+05 7.75108E+02 7.81071E+03-2.93996E+04-6.36646E-11 3.99268E-10
 -1       908 7.66688E+05-3.85003E+02 1.47298E+04-1.45455E+04-7.54881E-11 2.73758E-10
 -1       909 7.76743E+05 1.20614E+04 3.44377E+04-2.93667E+04-4.54747E-12-2.82853E-10
 -1       910 7.58898E+05-3.75784E+03 5.78381E+04-1.46022E+04-2.87400E-10-8.69477E-10
 -1       911 1.83294E+05-2.19676E+02 2.71627E+03-1.39840E+04 1.82808E-10-3.56522E-10
 -1       912 1.84150E+05 5.50871E+02 1.63097E+03-2.79616E+04-1.49157E-10 2.31694E-10
 -1       913 1.83634E+05-3.35833E+01 7.00875E+02-1.38788E+04-1.83718E-10 1.22782E-10
 -1       914 1.83696E+05 4.08542E+01 3.94594E+02-2.80615E+04-4.37467E-10 3.47541E-10
 -1       915 1.83645E+05-9.94817E-01 2.23593E+02-1.38839E+04 4.65207E-10 6.00835E-10
 -1       916 1.83631E+05 2.24092E+01 1.95615E+02-2.80514E+04 3.32420E-10 8.31847E-10
 -1       917 1.83635E+05 8.48160E+00 2.51971E+02-1.38890E+04 5.07612E-10 3.53452E-10
 -1       918 1.83631E+05 2.78799E+01 4.49019E+02-2.80460E+04 3.97648E-10 3.67550E-10
 -1       919 1.83622E+05 1.25085E+00 8.49133E+02-1.38893E+04 2.81489E-10 6.62908E-10
 -1       920 1.83726E+05 6.32974E+01 1.73263E+03-2.80501E+04 8.22297E-10 6.14250E-10
 -1       921 1.83557E+05-4.81797E+01 3.36682E+03-1.38849E+04 2.10548E-10 8.12122E-10
 -1       922 1.84434E+05 7.14070E+02 7.13146E+03-2.80589E+04 6.40284E-10 7.33053E-10
 -1       923 1.82971E+05-3.56840E+02 1.34526E+04-1.38802E+04 2.19188E-10 4.31555E-10
 -1       924 1.92225E+05 1.10269E+04 3.14704E+04-2.79595E+04 0.00000E+00 1.38243E-10
 -1       925 1.75865E+05-3.45220E+03 5.28529E+04-1.39871E+04-7.27596E-12 3.05590E-10
 -1       926-9.39066E+05 3.48029E+03-5.39513E+04-1.23425E+04 3.90628E-10-4.22006E-10
 -1       927-9.55661E+05-1.12933E+04-3.21222E+04-2.46178E+04 1.32331E-10 4.62478E-10
 -1       928-9.46358E+05 3.45450E+02-1.37359E+04-1.22109E+04 7.45786E-11-2.25555E-10
 -1       929-9.47786E+05-7.20378E+02-7.28233E+03-2.47861E+04-2.31012E-10-7.98991E-10
 -1       930-9.46983E+05 5.58368E+01-3.45246E+03-1.21771E+04 1.99407E-10 1.98554E-10
 -1       931-9.47108E+05-3.32669E+01-1.80185E+03-2.48272E+04-2.97689E-10 8.05699E-10
 -1       932-9.47059E+05 1.65488E+01-9.37808E+02-1.21696E+04-5.17275E-12 1.09310E-10
 -1       933-9.47023E+05 5.56792E+00-6.06539E+02-2.48203E+04-3.92504E-10 1.37675E-10
 -1       934-9.47062E+05 6.92616E+00-5.53598E+02-1.21839E+04 5.09317E-11 3.23098E-10
 -1       935-9.47022E+05-1.86028E+01-8.09888E+02-2.47686E+04 6.51198E-10-5.00791E-11
 -1       936-9.47022E+05 1.05416E+01-1.42651E+03-1.22213E+04 1.25510E-10 2.51134E-10
 -1       937-9.47260E+05-3.07776E+02-2.93113E+03-2.46684E+04-2.82853E-10-7.69546E-10
 -1       938-9.46757E+05 1.11469E+02-5.50400E+03-1.22841E+04 1.69166E-10-1.18280E-09
 -1       939-9.50364E+05-4.54719E+03-1.28350E+04-2.44095E+04 1.21190E-09-9.69521E-10
 -1       940-9.43827E+05 1.34405E+03-2.15650E+04-1.24776E+04-4.85670E-10-6.00267E-11
 -1       941 1.50958E+06-1.37320E+04 2.13530E+05-1.64948E+04 9.76797E-10 3.05590E-10
 -1       942 1.57547E+06 4.44802E+04 1.27073E+05-3.38797E+04-2.81943E-11-2.40107E-09
 -1       943 1.53836E+06-1.40663E+03 5.44053E+04-1.64580E+04-1.23691E-10-7.85803E-10
 -1       944 1.54422E+06 2.82402E+03 2.88870E+04-3.38489E+04-2.16573E-10-1.21599E-09
 -1       945 1.54080E+06-2.22097E+02 1.37632E+04-1.65007E+04 6.08338E-10 5.78439E-10
 -1       946 1.54149E+06 1.49990E+02 7.30267E+03-3.38076E+04 1.11478E-09 2.02454E-09
 -1       947 1.54109E+06-6.09369E+01 4.02226E+03-1.64996E+04 5.55701E-10 1.20417E-09
 -1       948 1.54121E+06-1.37812E+01 3.01803E+03-3.38587E+04 3.63002E-10 5.29326E-10
 -1       949 1.54112E+06-6.57355E+01 3.38243E+03-1.64498E+04-1.31877E-09-3.14253E-09
 -1       950 1.54145E+06 7.63389E+01 5.66341E+03-3.40074E+04 1.65255E-09 1.37702E-09
 -1       951 1.54094E+06-2.09835E+02 1.04036E+04-1.63504E+04-2.21917E-09-3.25144E-09
 -1       952 1.54356E+06 2.04746E+03 2.17086E+04-3.42436E+04-1.68075E-09-2.19211E-09
 -1       953 1.53914E+06-1.12867E+03 4.08039E+04-1.62131E+04-3.49246E-10-1.30058E-09
 -1       954 1.56709E+06 3.32517E+04 9.53045E+04-3.43968E+04-5.00586E-09-2.54113E-09
 -1       955 1.51758E+06-1.04175E+04 1.60077E+05-1.62387E+04-7.45786E-11-2.26282E-09
 -1       956-4.02915E+05-9.25706E+03-2.56474E+04 5.34359E+04-1.45355E-08 2.81307E-09
 -1       957-4.08214E+05-3.14591E+03-1.32598E+04 6.54789E+04-4.54384E-09-2.38379E-09
 -1       958-4.05376E+05-8.28271E+01-5.98504E+03 5.30275E+04 1.07520E-08 7.42602E-10
 -1       959-4.05881E+05 1.90977E+02-3.05406E+03 6.59070E+04-5.05679E-09-1.06820E-09
 -1       960-4.05668E+05 2.78818E+02-1.49062E+03 5.29869E+04-1.49157E-08 1.92722E-09
 -1       961-4.05805E+05 3.62860E+02-7.76997E+02 6.59536E+04-3.01588E-08-3.00588E-10
 -1       962-4.05775E+05 3.10169E+02-4.26287E+02 5.29783E+04-1.35869E-08 2.27965E-09
 -1       963-4.05861E+05 4.01777E+02-3.03433E+02 6.59657E+04-1.81990E-08-5.72982E-10
 -1       964-4.05824E+05 3.38070E+02-3.24465E+02 5.29737E+04-5.30781E-09 9.67248E-10
 -1       965-4.05911E+05 4.24739E+02-5.22720E+02 6.59693E+04 9.83243E-09-3.06454E-09
 -1       966-4.05823E+05 3.60076E+02-9.62014E+02 5.29742E+04-1.09366E-08 1.59889E-09
 -1       967-4.06032E+05 3.55050E+02-1.96085E+03 6.59519E+04-3.74894E-09-2.28601E-09
 -1       968-4.05688E+05 1.62677E+02-3.83047E+03 5.29921E+04-1.61435E-09 1.01090E-09
 -1       969-4.07587E+05-1.75617E+03-8.49972E+03 6.57443E+04-3.39060E-09-1.54125E-09
 -1       970-4.04144E+05-5.70300E+03-1.64339E+04 5.32040E+04 6.98583E-09 5.36602E-10
 -1       971-5.15672E+05 1.71687E+03-2.60077E+04 1.16037E+04-6.59747E-09-3.92811E-09
 -1       972-5.23717E+05-5.29274E+03-1.54792E+04 2.47435E+04-1.95205E-08-4.69117E-09
 -1       973-5.19204E+05 2.28640E+02-6.63297E+03 1.14358E+04-1.98634E-08-4.67617E-09
 -1       974-5.19969E+05-1.81891E+02-3.52492E+03 2.49401E+04 4.50927E-09-4.62296E-09
 -1       975-5.19522E+05 1.04049E+02-1.69759E+03 1.13974E+04 3.80305E-09-5.71481E-09
 -1       976-5.19675E+05 1.64063E+02-9.31083E+02 2.49955E+04-3.03044E-09-4.24575E-09
 -1       977-5.19568E+05 9.62471E+01-5.76444E+02 1.13794E+04 1.92447E-08-6.93922E-09
 -1       978-5.19662E+05 1.91211E+02-5.45530E+02 2.50184E+04 4.68858E-08-6.90795E-09
 -1       979-5.19568E+05 1.01906E+02-7.64910E+02 1.13742E+04 1.57357E-08-6.98600E-09
 -1       980-5.19721E+05 1.59336E+02-1.41817E+03 2.50152E+04 1.28705E-08-5.92479E-09
 -1       981-5.19506E+05 1.29094E+02-2.69177E+03 1.13827E+04-3.53475E-09-5.40169E-09
 -1       982-5.20236E+05-3.79360E+02-5.66119E+03 2.49822E+04-1.22589E-08-4.52280E-09
 -1       983-5.19013E+05 3.48106E+02-1.06733E+04 1.14086E+04 7.44194E-09-6.34009E-09
 -1       984-5.26330E+05-8.59554E+03-2.49467E+04 2.48336E+04 5.30349E-09-4.67526E-09
 -1       985-5.13340E+05 2.77042E+03-4.19031E+04 1.15483E+04 1.34223E-08-5.82986E-09
 -3
 9999
